    1C
    1UUSER                                                              
    1UDATE              26.october.2022                                 
    1UTIME              23:48:27                                        
    1UHOST                                                              
    1UPGM               CalculiX                                        
    1UVERSION           Version 2.17                             
    1UCOMPILETIME       Thu Jul 23 21:43:50 CEST 2020                    
    1UDIR                                                               
    1UDBN                                                               
    1UMAT    1SOLIDMATERIAL                                             
    2C                          4352                                     1
 -1         1 8.39111E+01 2.63636E+01 0.00000E+00
 -1         2 9.78253E+01 2.52714E+01 0.00000E+00
 -1         3 1.50000E+02 0.00000E+00 0.00000E+00
 -1         4 1.50000E+02 5.00000E+01 0.00000E+00
 -1         5 0.00000E+00 0.00000E+00 0.00000E+00
 -1         6 0.00000E+00 5.00000E+01 0.00000E+00
 -1         7 0.00000E+00 4.70500E+01 0.00000E+00
 -1         8 0.00000E+00 4.41000E+01 0.00000E+00
 -1         9 0.00000E+00 4.11500E+01 0.00000E+00
 -1        10 0.00000E+00 3.82000E+01 0.00000E+00
 -1        11 0.00000E+00 3.52500E+01 0.00000E+00
 -1        12 0.00000E+00 3.23500E+01 0.00000E+00
 -1        13 0.00000E+00 2.94000E+01 0.00000E+00
 -1        14 0.00000E+00 2.64500E+01 0.00000E+00
 -1        15 0.00000E+00 2.35000E+01 0.00000E+00
 -1        16 0.00000E+00 2.05500E+01 0.00000E+00
 -1        17 0.00000E+00 1.76000E+01 0.00000E+00
 -1        18 0.00000E+00 1.47000E+01 0.00000E+00
 -1        19 0.00000E+00 1.17500E+01 0.00000E+00
 -1        20 0.00000E+00 8.80000E+00 0.00000E+00
 -1        21 0.00000E+00 5.85000E+00 0.00000E+00
 -1        22 0.00000E+00 2.90000E+00 0.00000E+00
 -1        23 3.15000E+00 5.00000E+01 0.00000E+00
 -1        24 6.15000E+00 5.00000E+01 0.00000E+00
 -1        25 9.15000E+00 5.00000E+01 0.00000E+00
 -1        26 1.21500E+01 5.00000E+01 0.00000E+00
 -1        27 1.51500E+01 5.00000E+01 0.00000E+00
 -1        28 1.81500E+01 5.00000E+01 0.00000E+00
 -1        29 2.11500E+01 5.00000E+01 0.00000E+00
 -1        30 2.41500E+01 5.00000E+01 0.00000E+00
 -1        31 2.71500E+01 5.00000E+01 0.00000E+00
 -1        32 3.01500E+01 5.00000E+01 0.00000E+00
 -1        33 3.31500E+01 5.00000E+01 0.00000E+00
 -1        34 3.61500E+01 5.00000E+01 0.00000E+00
 -1        35 3.91500E+01 5.00000E+01 0.00000E+00
 -1        36 4.21500E+01 5.00000E+01 0.00000E+00
 -1        37 4.51500E+01 5.00000E+01 0.00000E+00
 -1        38 4.81500E+01 5.00000E+01 0.00000E+00
 -1        39 5.11500E+01 5.00000E+01 0.00000E+00
 -1        40 5.41500E+01 5.00000E+01 0.00000E+00
 -1        41 5.71500E+01 5.00000E+01 0.00000E+00
 -1        42 6.01500E+01 5.00000E+01 0.00000E+00
 -1        43 6.31500E+01 5.00000E+01 0.00000E+00
 -1        44 6.61500E+01 5.00000E+01 0.00000E+00
 -1        45 6.91500E+01 5.00000E+01 0.00000E+00
 -1        46 7.21500E+01 5.00000E+01 0.00000E+00
 -1        47 7.51500E+01 5.00000E+01 0.00000E+00
 -1        48 7.81500E+01 5.00000E+01 0.00000E+00
 -1        49 8.11500E+01 5.00000E+01 0.00000E+00
 -1        50 8.41500E+01 5.00000E+01 0.00000E+00
 -1        51 8.71500E+01 5.00000E+01 0.00000E+00
 -1        52 9.01500E+01 5.00000E+01 0.00000E+00
 -1        53 9.31500E+01 5.00000E+01 0.00000E+00
 -1        54 9.61500E+01 5.00000E+01 0.00000E+00
 -1        55 9.91500E+01 5.00000E+01 0.00000E+00
 -1        56 1.02150E+02 5.00000E+01 0.00000E+00
 -1        57 1.05150E+02 5.00000E+01 0.00000E+00
 -1        58 1.08150E+02 5.00000E+01 0.00000E+00
 -1        59 1.11150E+02 5.00000E+01 0.00000E+00
 -1        60 1.14150E+02 5.00000E+01 0.00000E+00
 -1        61 1.17150E+02 5.00000E+01 0.00000E+00
 -1        62 1.20150E+02 5.00000E+01 0.00000E+00
 -1        63 1.23150E+02 5.00000E+01 0.00000E+00
 -1        64 1.26150E+02 5.00000E+01 0.00000E+00
 -1        65 1.29150E+02 5.00000E+01 0.00000E+00
 -1        66 1.32150E+02 5.00000E+01 0.00000E+00
 -1        67 1.35150E+02 5.00000E+01 0.00000E+00
 -1        68 1.38150E+02 5.00000E+01 0.00000E+00
 -1        69 1.41150E+02 5.00000E+01 0.00000E+00
 -1        70 1.44150E+02 5.00000E+01 0.00000E+00
 -1        71 1.47150E+02 5.00000E+01 0.00000E+00
 -1        72 3.15000E+00 0.00000E+00 0.00000E+00
 -1        73 6.15000E+00 0.00000E+00 0.00000E+00
 -1        74 9.15000E+00 0.00000E+00 0.00000E+00
 -1        75 1.21500E+01 0.00000E+00 0.00000E+00
 -1        76 1.51500E+01 0.00000E+00 0.00000E+00
 -1        77 1.81500E+01 0.00000E+00 0.00000E+00
 -1        78 2.11500E+01 0.00000E+00 0.00000E+00
 -1        79 2.41500E+01 0.00000E+00 0.00000E+00
 -1        80 2.71500E+01 0.00000E+00 0.00000E+00
 -1        81 3.01500E+01 0.00000E+00 0.00000E+00
 -1        82 3.31500E+01 0.00000E+00 0.00000E+00
 -1        83 3.61500E+01 0.00000E+00 0.00000E+00
 -1        84 3.91500E+01 0.00000E+00 0.00000E+00
 -1        85 4.21500E+01 0.00000E+00 0.00000E+00
 -1        86 4.51500E+01 0.00000E+00 0.00000E+00
 -1        87 4.81500E+01 0.00000E+00 0.00000E+00
 -1        88 5.11500E+01 0.00000E+00 0.00000E+00
 -1        89 5.41500E+01 0.00000E+00 0.00000E+00
 -1        90 5.71500E+01 0.00000E+00 0.00000E+00
 -1        91 6.01500E+01 0.00000E+00 0.00000E+00
 -1        92 6.31500E+01 0.00000E+00 0.00000E+00
 -1        93 6.61500E+01 0.00000E+00 0.00000E+00
 -1        94 6.91500E+01 0.00000E+00 0.00000E+00
 -1        95 7.21500E+01 0.00000E+00 0.00000E+00
 -1        96 7.51500E+01 0.00000E+00 0.00000E+00
 -1        97 7.81500E+01 0.00000E+00 0.00000E+00
 -1        98 8.11500E+01 0.00000E+00 0.00000E+00
 -1        99 8.41500E+01 0.00000E+00 0.00000E+00
 -1       100 8.71500E+01 0.00000E+00 0.00000E+00
 -1       101 9.01500E+01 0.00000E+00 0.00000E+00
 -1       102 9.31500E+01 0.00000E+00 0.00000E+00
 -1       103 9.61500E+01 0.00000E+00 0.00000E+00
 -1       104 9.91500E+01 0.00000E+00 0.00000E+00
 -1       105 1.02150E+02 0.00000E+00 0.00000E+00
 -1       106 1.05150E+02 0.00000E+00 0.00000E+00
 -1       107 1.08150E+02 0.00000E+00 0.00000E+00
 -1       108 1.11150E+02 0.00000E+00 0.00000E+00
 -1       109 1.14150E+02 0.00000E+00 0.00000E+00
 -1       110 1.17150E+02 0.00000E+00 0.00000E+00
 -1       111 1.20150E+02 0.00000E+00 0.00000E+00
 -1       112 1.23150E+02 0.00000E+00 0.00000E+00
 -1       113 1.26150E+02 0.00000E+00 0.00000E+00
 -1       114 1.29150E+02 0.00000E+00 0.00000E+00
 -1       115 1.32150E+02 0.00000E+00 0.00000E+00
 -1       116 1.35150E+02 0.00000E+00 0.00000E+00
 -1       117 1.38150E+02 0.00000E+00 0.00000E+00
 -1       118 1.41150E+02 0.00000E+00 0.00000E+00
 -1       119 1.44150E+02 0.00000E+00 0.00000E+00
 -1       120 1.47150E+02 0.00000E+00 0.00000E+00
 -1       121 1.50000E+02 2.95000E+00 0.00000E+00
 -1       122 1.50000E+02 5.90000E+00 0.00000E+00
 -1       123 1.50000E+02 8.85000E+00 0.00000E+00
 -1       124 1.50000E+02 1.18000E+01 0.00000E+00
 -1       125 1.50000E+02 1.47500E+01 0.00000E+00
 -1       126 1.50000E+02 1.76500E+01 0.00000E+00
 -1       127 1.50000E+02 2.06000E+01 0.00000E+00
 -1       128 1.50000E+02 2.35500E+01 0.00000E+00
 -1       129 1.50000E+02 2.65000E+01 0.00000E+00
 -1       130 1.50000E+02 2.94500E+01 0.00000E+00
 -1       131 1.50000E+02 3.24000E+01 0.00000E+00
 -1       132 1.50000E+02 3.53000E+01 0.00000E+00
 -1       133 1.50000E+02 3.82500E+01 0.00000E+00
 -1       134 1.50000E+02 4.12000E+01 0.00000E+00
 -1       135 1.50000E+02 4.41500E+01 0.00000E+00
 -1       136 1.50000E+02 4.71000E+01 0.00000E+00
 -1       137 9.76884E+01 2.38935E+01 0.00000E+00
 -1       138 9.72723E+01 2.25444E+01 0.00000E+00
 -1       139 9.65741E+01 2.12773E+01 0.00000E+00
 -1       140 9.56175E+01 2.01689E+01 0.00000E+00
 -1       141 9.45077E+01 1.93182E+01 0.00000E+00
 -1       142 9.30280E+01 1.86269E+01 0.00000E+00
 -1       143 9.16598E+01 1.83213E+01 0.00000E+00
 -1       144 9.01420E+01 1.83048E+01 0.00000E+00
 -1       145 8.87100E+01 1.85986E+01 0.00000E+00
 -1       146 8.73903E+01 1.91721E+01 0.00000E+00
 -1       147 8.62497E+01 1.99739E+01 0.00000E+00
 -1       148 8.52902E+01 2.09862E+01 0.00000E+00
 -1       149 8.45380E+01 2.21942E+01 0.00000E+00
 -1       150 8.40304E+01 2.35893E+01 0.00000E+00
 -1       151 8.38305E+01 2.50033E+01 0.00000E+00
 -1       152 8.42779E+01 2.77474E+01 0.00000E+00
 -1       153 8.49161E+01 2.90238E+01 0.00000E+00
 -1       154 8.58272E+01 3.01723E+01 0.00000E+00
 -1       155 8.70477E+01 3.11645E+01 0.00000E+00
 -1       156 8.83355E+01 3.18136E+01 0.00000E+00
 -1       157 8.98415E+01 3.22019E+01 0.00000E+00
 -1       158 9.13175E+01 3.22540E+01 0.00000E+00
 -1       159 9.28449E+01 3.19737E+01 0.00000E+00
 -1       160 9.41831E+01 3.14134E+01 0.00000E+00
 -1       161 9.54027E+01 3.05674E+01 0.00000E+00
 -1       162 9.64395E+01 2.94524E+01 0.00000E+00
 -1       163 9.72122E+01 2.81364E+01 0.00000E+00
 -1       164 9.76828E+01 2.66766E+01 0.00000E+00
 -1       165 2.59800E+00 4.55750E+01 0.00000E+00
 -1       166 2.59800E+00 4.26250E+01 0.00000E+00
 -1       167 2.59800E+00 3.96750E+01 0.00000E+00
 -1       168 2.59800E+00 3.67250E+01 0.00000E+00
 -1       169 2.59800E+00 3.38250E+01 0.00000E+00
 -1       170 2.59800E+00 3.08750E+01 0.00000E+00
 -1       171 2.59800E+00 2.79250E+01 0.00000E+00
 -1       172 2.59800E+00 2.49750E+01 0.00000E+00
 -1       173 2.59800E+00 2.20250E+01 0.00000E+00
 -1       174 2.59800E+00 1.90750E+01 0.00000E+00
 -1       175 2.59800E+00 1.61750E+01 0.00000E+00
 -1       176 2.59800E+00 1.32250E+01 0.00000E+00
 -1       177 2.59800E+00 1.02750E+01 0.00000E+00
 -1       178 2.59800E+00 7.32500E+00 0.00000E+00
 -1       179 2.59800E+00 4.37500E+00 0.00000E+00
 -1       180 2.87400E+00 2.18750E+00 0.00000E+00
 -1       181 4.65000E+00 4.74020E+01 0.00000E+00
 -1       182 7.65000E+00 4.74020E+01 0.00000E+00
 -1       183 1.06500E+01 4.74020E+01 0.00000E+00
 -1       184 1.36500E+01 4.74020E+01 0.00000E+00
 -1       185 1.66500E+01 4.74020E+01 0.00000E+00
 -1       186 1.96500E+01 4.74020E+01 0.00000E+00
 -1       187 2.26500E+01 4.74020E+01 0.00000E+00
 -1       188 2.56500E+01 4.74020E+01 0.00000E+00
 -1       189 2.86500E+01 4.74020E+01 0.00000E+00
 -1       190 3.16500E+01 4.74020E+01 0.00000E+00
 -1       191 3.46500E+01 4.74020E+01 0.00000E+00
 -1       192 3.76500E+01 4.74020E+01 0.00000E+00
 -1       193 4.06500E+01 4.74020E+01 0.00000E+00
 -1       194 4.36500E+01 4.74020E+01 0.00000E+00
 -1       195 4.66500E+01 4.74020E+01 0.00000E+00
 -1       196 4.96500E+01 4.74020E+01 0.00000E+00
 -1       197 5.26500E+01 4.74020E+01 0.00000E+00
 -1       198 5.56500E+01 4.74020E+01 0.00000E+00
 -1       199 5.86500E+01 4.74020E+01 0.00000E+00
 -1       200 6.16500E+01 4.74020E+01 0.00000E+00
 -1       201 6.46500E+01 4.74020E+01 0.00000E+00
 -1       202 6.76500E+01 4.74020E+01 0.00000E+00
 -1       203 7.06500E+01 4.74020E+01 0.00000E+00
 -1       204 7.36500E+01 4.74020E+01 0.00000E+00
 -1       205 7.66500E+01 4.74020E+01 0.00000E+00
 -1       206 7.96500E+01 4.74020E+01 0.00000E+00
 -1       207 8.26500E+01 4.74020E+01 0.00000E+00
 -1       208 8.56500E+01 4.74020E+01 0.00000E+00
 -1       209 8.86500E+01 4.74020E+01 0.00000E+00
 -1       210 9.16500E+01 4.74020E+01 0.00000E+00
 -1       211 9.46500E+01 4.74020E+01 0.00000E+00
 -1       212 9.76500E+01 4.74020E+01 0.00000E+00
 -1       213 1.00650E+02 4.74020E+01 0.00000E+00
 -1       214 1.03650E+02 4.74020E+01 0.00000E+00
 -1       215 1.06650E+02 4.74020E+01 0.00000E+00
 -1       216 1.09650E+02 4.74020E+01 0.00000E+00
 -1       217 1.12650E+02 4.74020E+01 0.00000E+00
 -1       218 1.15650E+02 4.74020E+01 0.00000E+00
 -1       219 1.18650E+02 4.74020E+01 0.00000E+00
 -1       220 1.21650E+02 4.74020E+01 0.00000E+00
 -1       221 1.24650E+02 4.74020E+01 0.00000E+00
 -1       222 1.27650E+02 4.74020E+01 0.00000E+00
 -1       223 1.30650E+02 4.74020E+01 0.00000E+00
 -1       224 1.33650E+02 4.74020E+01 0.00000E+00
 -1       225 1.36650E+02 4.74020E+01 0.00000E+00
 -1       226 1.39650E+02 4.74020E+01 0.00000E+00
 -1       227 1.42650E+02 4.74020E+01 0.00000E+00
 -1       228 1.45650E+02 4.74020E+01 0.00000E+00
 -1       229 5.87400E+00 2.18750E+00 0.00000E+00
 -1       230 8.87400E+00 2.18750E+00 0.00000E+00
 -1       231 1.18740E+01 2.18750E+00 0.00000E+00
 -1       232 1.48740E+01 2.18750E+00 0.00000E+00
 -1       233 1.78740E+01 2.18750E+00 0.00000E+00
 -1       234 2.08740E+01 2.18750E+00 0.00000E+00
 -1       235 2.38740E+01 2.18750E+00 0.00000E+00
 -1       236 2.68740E+01 2.18750E+00 0.00000E+00
 -1       237 2.98740E+01 2.18750E+00 0.00000E+00
 -1       238 3.28740E+01 2.18750E+00 0.00000E+00
 -1       239 3.58740E+01 2.18750E+00 0.00000E+00
 -1       240 3.88740E+01 2.18750E+00 0.00000E+00
 -1       241 4.18740E+01 2.18750E+00 0.00000E+00
 -1       242 4.48740E+01 2.18750E+00 0.00000E+00
 -1       243 4.78740E+01 2.18750E+00 0.00000E+00
 -1       244 5.08740E+01 2.18750E+00 0.00000E+00
 -1       245 5.38740E+01 2.18750E+00 0.00000E+00
 -1       246 5.68740E+01 2.18750E+00 0.00000E+00
 -1       247 5.98740E+01 2.18750E+00 0.00000E+00
 -1       248 6.28740E+01 2.18750E+00 0.00000E+00
 -1       249 6.58740E+01 2.18750E+00 0.00000E+00
 -1       250 6.88740E+01 2.18750E+00 0.00000E+00
 -1       251 7.18740E+01 2.18750E+00 0.00000E+00
 -1       252 7.48740E+01 2.18750E+00 0.00000E+00
 -1       253 7.78740E+01 2.18750E+00 0.00000E+00
 -1       254 8.08740E+01 2.18750E+00 0.00000E+00
 -1       255 8.38740E+01 2.18750E+00 0.00000E+00
 -1       256 8.68740E+01 2.18750E+00 0.00000E+00
 -1       257 8.98740E+01 2.18750E+00 0.00000E+00
 -1       258 9.28740E+01 2.18750E+00 0.00000E+00
 -1       259 9.58740E+01 2.18750E+00 0.00000E+00
 -1       260 9.88740E+01 2.18750E+00 0.00000E+00
 -1       261 1.01874E+02 2.18750E+00 0.00000E+00
 -1       262 1.04874E+02 2.18750E+00 0.00000E+00
 -1       263 1.07874E+02 2.18750E+00 0.00000E+00
 -1       264 1.10874E+02 2.18750E+00 0.00000E+00
 -1       265 1.13874E+02 2.18750E+00 0.00000E+00
 -1       266 1.16874E+02 2.18750E+00 0.00000E+00
 -1       267 1.19874E+02 2.18750E+00 0.00000E+00
 -1       268 1.22874E+02 2.18750E+00 0.00000E+00
 -1       269 1.25874E+02 2.18750E+00 0.00000E+00
 -1       270 1.28874E+02 2.18750E+00 0.00000E+00
 -1       271 1.31874E+02 2.18750E+00 0.00000E+00
 -1       272 1.34874E+02 2.18750E+00 0.00000E+00
 -1       273 1.37874E+02 2.18750E+00 0.00000E+00
 -1       274 1.40874E+02 2.18750E+00 0.00000E+00
 -1       275 1.43874E+02 2.18750E+00 0.00000E+00
 -1       276 1.46874E+02 2.18750E+00 0.00000E+00
 -1       277 1.47402E+02 4.42500E+00 0.00000E+00
 -1       278 1.47402E+02 7.37500E+00 0.00000E+00
 -1       279 1.47402E+02 1.03250E+01 0.00000E+00
 -1       280 1.47402E+02 1.32750E+01 0.00000E+00
 -1       281 1.47402E+02 1.61750E+01 0.00000E+00
 -1       282 1.47402E+02 1.91250E+01 0.00000E+00
 -1       283 1.47402E+02 2.20750E+01 0.00000E+00
 -1       284 1.47402E+02 2.50250E+01 0.00000E+00
 -1       285 1.47402E+02 2.79750E+01 0.00000E+00
 -1       286 1.47402E+02 3.09250E+01 0.00000E+00
 -1       287 1.47402E+02 3.38250E+01 0.00000E+00
 -1       288 1.47402E+02 3.67750E+01 0.00000E+00
 -1       289 1.47402E+02 3.97250E+01 0.00000E+00
 -1       290 1.47402E+02 4.26750E+01 0.00000E+00
 -1       291 1.46526E+02 4.50385E+01 0.00000E+00
 -1       292 9.89633E+01 2.44625E+01 0.00000E+00
 -1       293 9.86389E+01 2.28616E+01 0.00000E+00
 -1       294 9.81318E+01 2.12448E+01 0.00000E+00
 -1       295 9.70771E+01 1.98763E+01 0.00000E+00
 -1       296 9.58002E+01 1.87813E+01 0.00000E+00
 -1       297 9.43874E+01 1.76464E+01 0.00000E+00
 -1       298 9.26082E+01 1.72909E+01 0.00000E+00
 -1       299 9.09149E+01 1.70169E+01 0.00000E+00
 -1       300 8.91654E+01 1.71820E+01 0.00000E+00
 -1       301 8.75669E+01 1.77734E+01 0.00000E+00
 -1       302 8.61228E+01 1.85811E+01 0.00000E+00
 -1       303 8.48900E+01 1.96461E+01 0.00000E+00
 -1       304 8.38849E+01 2.09493E+01 0.00000E+00
 -1       305 8.29874E+01 2.24199E+01 0.00000E+00
 -1       306 8.26470E+01 2.41148E+01 0.00000E+00
 -1       307 8.26605E+01 2.57552E+01 0.00000E+00
 -1       308 8.29225E+01 2.73662E+01 0.00000E+00
 -1       309 8.35126E+01 2.89278E+01 0.00000E+00
 -1       310 8.44219E+01 3.03516E+01 0.00000E+00
 -1       311 8.54613E+01 3.18692E+01 0.00000E+00
 -1       312 8.71460E+01 3.25717E+01 0.00000E+00
 -1       313 8.87858E+01 3.31817E+01 0.00000E+00
 -1       314 9.05367E+01 3.34396E+01 0.00000E+00
 -1       315 9.23303E+01 3.34712E+01 0.00000E+00
 -1       316 9.39822E+01 3.28119E+01 0.00000E+00
 -1       317 9.55317E+01 3.20554E+01 0.00000E+00
 -1       318 9.68089E+01 3.08355E+01 0.00000E+00
 -1       319 9.78713E+01 2.94083E+01 0.00000E+00
 -1       320 9.87609E+01 2.78300E+01 0.00000E+00
 -1       321 9.89603E+01 2.60963E+01 0.00000E+00
 -1       322 5.19600E+00 4.11500E+01 0.00000E+00
 -1       323 5.19600E+00 4.41000E+01 0.00000E+00
 -1       324 5.19600E+00 3.52750E+01 0.00000E+00
 -1       325 5.19600E+00 3.23250E+01 0.00000E+00
 -1       326 5.19600E+00 2.93750E+01 0.00000E+00
 -1       327 5.19600E+00 2.64250E+01 0.00000E+00
 -1       328 5.19600E+00 2.34750E+01 0.00000E+00
 -1       329 5.19600E+00 2.05250E+01 0.00000E+00
 -1       330 5.19600E+00 1.76250E+01 0.00000E+00
 -1       331 5.19600E+00 1.46750E+01 0.00000E+00
 -1       332 5.19600E+00 1.17250E+01 0.00000E+00
 -1       333 5.19600E+00 8.77500E+00 0.00000E+00
 -1       334 5.19600E+00 5.82500E+00 0.00000E+00
 -1       335 5.53500E+00 4.00625E+00 0.00000E+00
 -1       336 8.53500E+00 4.00625E+00 0.00000E+00
 -1       337 9.15000E+00 4.48040E+01 0.00000E+00
 -1       338 1.21500E+01 4.48040E+01 0.00000E+00
 -1       339 1.51500E+01 4.48040E+01 0.00000E+00
 -1       340 1.81500E+01 4.48040E+01 0.00000E+00
 -1       341 2.11500E+01 4.48040E+01 0.00000E+00
 -1       342 2.41500E+01 4.48040E+01 0.00000E+00
 -1       343 2.71500E+01 4.48040E+01 0.00000E+00
 -1       344 3.01500E+01 4.48040E+01 0.00000E+00
 -1       345 3.31500E+01 4.48040E+01 0.00000E+00
 -1       346 3.61500E+01 4.48040E+01 0.00000E+00
 -1       347 3.91500E+01 4.48040E+01 0.00000E+00
 -1       348 4.21500E+01 4.48040E+01 0.00000E+00
 -1       349 4.51500E+01 4.48040E+01 0.00000E+00
 -1       350 4.81500E+01 4.48040E+01 0.00000E+00
 -1       351 5.11500E+01 4.48040E+01 0.00000E+00
 -1       352 5.41500E+01 4.48040E+01 0.00000E+00
 -1       353 5.71500E+01 4.48040E+01 0.00000E+00
 -1       354 6.01500E+01 4.48040E+01 0.00000E+00
 -1       355 6.31500E+01 4.48040E+01 0.00000E+00
 -1       356 6.61500E+01 4.48040E+01 0.00000E+00
 -1       357 6.91500E+01 4.48040E+01 0.00000E+00
 -1       358 7.21500E+01 4.48040E+01 0.00000E+00
 -1       359 7.51500E+01 4.48040E+01 0.00000E+00
 -1       360 7.81500E+01 4.48040E+01 0.00000E+00
 -1       361 8.11500E+01 4.48040E+01 0.00000E+00
 -1       362 8.41500E+01 4.48040E+01 0.00000E+00
 -1       363 8.71500E+01 4.48040E+01 0.00000E+00
 -1       364 9.01500E+01 4.48040E+01 0.00000E+00
 -1       365 9.31500E+01 4.48040E+01 0.00000E+00
 -1       366 9.61500E+01 4.48040E+01 0.00000E+00
 -1       367 9.91500E+01 4.48040E+01 0.00000E+00
 -1       368 1.02150E+02 4.48040E+01 0.00000E+00
 -1       369 1.05150E+02 4.48040E+01 0.00000E+00
 -1       370 1.08150E+02 4.48040E+01 0.00000E+00
 -1       371 1.11150E+02 4.48040E+01 0.00000E+00
 -1       372 1.14150E+02 4.48040E+01 0.00000E+00
 -1       373 1.17150E+02 4.48040E+01 0.00000E+00
 -1       374 1.20150E+02 4.48040E+01 0.00000E+00
 -1       375 1.23150E+02 4.48040E+01 0.00000E+00
 -1       376 1.26150E+02 4.48040E+01 0.00000E+00
 -1       377 1.29150E+02 4.48040E+01 0.00000E+00
 -1       378 1.32150E+02 4.48040E+01 0.00000E+00
 -1       379 1.35150E+02 4.48040E+01 0.00000E+00
 -1       380 1.38150E+02 4.48040E+01 0.00000E+00
 -1       381 1.41150E+02 4.48040E+01 0.00000E+00
 -1       382 1.43838E+02 4.49212E+01 0.00000E+00
 -1       383 1.15350E+01 4.00625E+00 0.00000E+00
 -1       384 1.45350E+01 4.00625E+00 0.00000E+00
 -1       385 1.75350E+01 4.00625E+00 0.00000E+00
 -1       386 2.05350E+01 4.00625E+00 0.00000E+00
 -1       387 2.35350E+01 4.00625E+00 0.00000E+00
 -1       388 2.65350E+01 4.00625E+00 0.00000E+00
 -1       389 2.95350E+01 4.00625E+00 0.00000E+00
 -1       390 3.25350E+01 4.00625E+00 0.00000E+00
 -1       391 3.55350E+01 4.00625E+00 0.00000E+00
 -1       392 3.85350E+01 4.00625E+00 0.00000E+00
 -1       393 4.15350E+01 4.00625E+00 0.00000E+00
 -1       394 4.45350E+01 4.00625E+00 0.00000E+00
 -1       395 4.75350E+01 4.00625E+00 0.00000E+00
 -1       396 5.05350E+01 4.00625E+00 0.00000E+00
 -1       397 5.35350E+01 4.00625E+00 0.00000E+00
 -1       398 5.65350E+01 4.00625E+00 0.00000E+00
 -1       399 5.95350E+01 4.00625E+00 0.00000E+00
 -1       400 6.25350E+01 4.00625E+00 0.00000E+00
 -1       401 6.55350E+01 4.00625E+00 0.00000E+00
 -1       402 6.85350E+01 4.00625E+00 0.00000E+00
 -1       403 7.15350E+01 4.00625E+00 0.00000E+00
 -1       404 7.45350E+01 4.00625E+00 0.00000E+00
 -1       405 7.75350E+01 4.00625E+00 0.00000E+00
 -1       406 8.05350E+01 4.00625E+00 0.00000E+00
 -1       407 8.35350E+01 4.00625E+00 0.00000E+00
 -1       408 8.65350E+01 4.00625E+00 0.00000E+00
 -1       409 8.95350E+01 4.00625E+00 0.00000E+00
 -1       410 9.25350E+01 4.00625E+00 0.00000E+00
 -1       411 9.55350E+01 4.00625E+00 0.00000E+00
 -1       412 9.85350E+01 4.00625E+00 0.00000E+00
 -1       413 1.01535E+02 4.00625E+00 0.00000E+00
 -1       414 1.04535E+02 4.00625E+00 0.00000E+00
 -1       415 1.07535E+02 4.00625E+00 0.00000E+00
 -1       416 1.10535E+02 4.00625E+00 0.00000E+00
 -1       417 1.13535E+02 4.00625E+00 0.00000E+00
 -1       418 1.16535E+02 4.00625E+00 0.00000E+00
 -1       419 1.19535E+02 4.00625E+00 0.00000E+00
 -1       420 1.22535E+02 4.00625E+00 0.00000E+00
 -1       421 1.25535E+02 4.00625E+00 0.00000E+00
 -1       422 1.28535E+02 4.00625E+00 0.00000E+00
 -1       423 1.31535E+02 4.00625E+00 0.00000E+00
 -1       424 1.34535E+02 4.00625E+00 0.00000E+00
 -1       425 1.37535E+02 4.00625E+00 0.00000E+00
 -1       426 1.40535E+02 4.00625E+00 0.00000E+00
 -1       427 1.43535E+02 4.00625E+00 0.00000E+00
 -1       428 1.45469E+02 4.21562E+00 0.00000E+00
 -1       429 1.44804E+02 1.18000E+01 0.00000E+00
 -1       430 1.44804E+02 8.85000E+00 0.00000E+00
 -1       431 1.45136E+02 6.53281E+00 0.00000E+00
 -1       432 1.44804E+02 1.47000E+01 0.00000E+00
 -1       433 1.44804E+02 1.76500E+01 0.00000E+00
 -1       434 1.44804E+02 2.06000E+01 0.00000E+00
 -1       435 1.44804E+02 2.35500E+01 0.00000E+00
 -1       436 1.44804E+02 2.65000E+01 0.00000E+00
 -1       437 1.44804E+02 2.94500E+01 0.00000E+00
 -1       438 1.44804E+02 3.23500E+01 0.00000E+00
 -1       439 1.44804E+02 3.53000E+01 0.00000E+00
 -1       440 1.44804E+02 3.82500E+01 0.00000E+00
 -1       441 1.44804E+02 4.12000E+01 0.00000E+00
 -1       442 1.00022E+02 2.15399E+01 0.00000E+00
 -1       443 1.00342E+02 2.52819E+01 0.00000E+00
 -1       444 1.00346E+02 2.31408E+01 0.00000E+00
 -1       445 9.86975E+01 1.97182E+01 0.00000E+00
 -1       446 9.73369E+01 1.82812E+01 0.00000E+00
 -1       447 5.19600E+00 3.82125E+01 0.00000E+00
 -1       448 9.38010E+01 1.59511E+01 0.00000E+00
 -1       449 9.21078E+01 1.56771E+01 0.00000E+00
 -1       450 8.99027E+01 1.56422E+01 0.00000E+00
 -1       451 8.79164E+01 1.62621E+01 0.00000E+00
 -1       452 8.61303E+01 1.68998E+01 0.00000E+00
 -1       453 8.44400E+01 1.78791E+01 0.00000E+00
 -1       454 8.32283E+01 1.94038E+01 0.00000E+00
 -1       455 8.23308E+01 2.08744E+01 0.00000E+00
 -1       456 8.13000E+01 2.29627E+01 0.00000E+00
 -1       457 8.10225E+01 2.49484E+01 0.00000E+00
 -1       458 8.12845E+01 2.65594E+01 0.00000E+00
 -1       459 8.19267E+01 2.86348E+01 0.00000E+00
 -1       460 8.26630E+01 3.04727E+01 0.00000E+00
 -1       461 8.37024E+01 3.19903E+01 0.00000E+00
 -1       462 8.58047E+01 3.34168E+01 0.00000E+00
 -1       463 8.74556E+01 3.42486E+01 0.00000E+00
 -1       464 8.94358E+01 3.48417E+01 0.00000E+00
 -1       465 9.14092E+01 3.48351E+01 0.00000E+00
 -1       466 9.36677E+01 3.44232E+01 0.00000E+00
 -1       467 9.53624E+01 3.36737E+01 0.00000E+00
 -1       468 9.71814E+01 3.25040E+01 0.00000E+00
 -1       469 9.86487E+01 3.10960E+01 0.00000E+00
 -1       470 9.95183E+01 2.92967E+01 0.00000E+00
 -1       471 1.00142E+02 2.70156E+01 0.00000E+00
 -1       472 9.59241E+01 1.71463E+01 0.00000E+00
 -1       473 9.53378E+01 1.54510E+01 0.00000E+00
 -1       474 1.00900E+02 2.84823E+01 0.00000E+00
 -1       475 8.40458E+01 3.35379E+01 0.00000E+00
 -1       476 1.00350E+01 6.60425E+00 0.00000E+00
 -1       477 7.79400E+00 3.08500E+01 0.00000E+00
 -1       478 7.79400E+00 3.38000E+01 0.00000E+00
 -1       479 7.79400E+00 2.49500E+01 0.00000E+00
 -1       480 7.79400E+00 2.20000E+01 0.00000E+00
 -1       481 7.79400E+00 1.91000E+01 0.00000E+00
 -1       482 7.79400E+00 1.61500E+01 0.00000E+00
 -1       483 7.79400E+00 1.32000E+01 0.00000E+00
 -1       484 7.79400E+00 1.02500E+01 0.00000E+00
 -1       485 1.01892E+02 2.42146E+01 0.00000E+00
 -1       486 1.30350E+01 6.60425E+00 0.00000E+00
 -1       487 1.06500E+01 4.22060E+01 0.00000E+00
 -1       488 1.36500E+01 4.22060E+01 0.00000E+00
 -1       489 1.66500E+01 4.22060E+01 0.00000E+00
 -1       490 1.96500E+01 4.22060E+01 0.00000E+00
 -1       491 2.26500E+01 4.22060E+01 0.00000E+00
 -1       492 2.56500E+01 4.22060E+01 0.00000E+00
 -1       493 2.86500E+01 4.22060E+01 0.00000E+00
 -1       494 3.16500E+01 4.22060E+01 0.00000E+00
 -1       495 3.46500E+01 4.22060E+01 0.00000E+00
 -1       496 3.76500E+01 4.22060E+01 0.00000E+00
 -1       497 4.06500E+01 4.22060E+01 0.00000E+00
 -1       498 4.36500E+01 4.22060E+01 0.00000E+00
 -1       499 4.66500E+01 4.22060E+01 0.00000E+00
 -1       500 4.96500E+01 4.22060E+01 0.00000E+00
 -1       501 5.26500E+01 4.22060E+01 0.00000E+00
 -1       502 5.56500E+01 4.22060E+01 0.00000E+00
 -1       503 5.86500E+01 4.22060E+01 0.00000E+00
 -1       504 6.16500E+01 4.22060E+01 0.00000E+00
 -1       505 6.46500E+01 4.22060E+01 0.00000E+00
 -1       506 6.76500E+01 4.22060E+01 0.00000E+00
 -1       507 7.06500E+01 4.22060E+01 0.00000E+00
 -1       508 7.36500E+01 4.22060E+01 0.00000E+00
 -1       509 7.66500E+01 4.22060E+01 0.00000E+00
 -1       510 7.96500E+01 4.22060E+01 0.00000E+00
 -1       511 8.26500E+01 4.22060E+01 0.00000E+00
 -1       512 8.56500E+01 4.22060E+01 0.00000E+00
 -1       513 8.86500E+01 4.22060E+01 0.00000E+00
 -1       514 9.16500E+01 4.22060E+01 0.00000E+00
 -1       515 9.46500E+01 4.22060E+01 0.00000E+00
 -1       516 9.76500E+01 4.22060E+01 0.00000E+00
 -1       517 1.00650E+02 4.22060E+01 0.00000E+00
 -1       518 1.03650E+02 4.22060E+01 0.00000E+00
 -1       519 1.06650E+02 4.22060E+01 0.00000E+00
 -1       520 1.09650E+02 4.22060E+01 0.00000E+00
 -1       521 1.12650E+02 4.22060E+01 0.00000E+00
 -1       522 1.15650E+02 4.22060E+01 0.00000E+00
 -1       523 1.18650E+02 4.22060E+01 0.00000E+00
 -1       524 1.21650E+02 4.22060E+01 0.00000E+00
 -1       525 1.24650E+02 4.22060E+01 0.00000E+00
 -1       526 1.27650E+02 4.22060E+01 0.00000E+00
 -1       527 1.30650E+02 4.22060E+01 0.00000E+00
 -1       528 1.33650E+02 4.22060E+01 0.00000E+00
 -1       529 1.36650E+02 4.22060E+01 0.00000E+00
 -1       530 1.39650E+02 4.22060E+01 0.00000E+00
 -1       531 1.02193E+02 2.19332E+01 0.00000E+00
 -1       532 1.90350E+01 6.60425E+00 0.00000E+00
 -1       533 2.20350E+01 6.60425E+00 0.00000E+00
 -1       534 2.50350E+01 6.60425E+00 0.00000E+00
 -1       535 2.80350E+01 6.60425E+00 0.00000E+00
 -1       536 3.10350E+01 6.60425E+00 0.00000E+00
 -1       537 3.40350E+01 6.60425E+00 0.00000E+00
 -1       538 3.70350E+01 6.60425E+00 0.00000E+00
 -1       539 4.00350E+01 6.60425E+00 0.00000E+00
 -1       540 4.30350E+01 6.60425E+00 0.00000E+00
 -1       541 4.60350E+01 6.60425E+00 0.00000E+00
 -1       542 4.90350E+01 6.60425E+00 0.00000E+00
 -1       543 5.20350E+01 6.60425E+00 0.00000E+00
 -1       544 5.50350E+01 6.60425E+00 0.00000E+00
 -1       545 5.80350E+01 6.60425E+00 0.00000E+00
 -1       546 6.10350E+01 6.60425E+00 0.00000E+00
 -1       547 6.40350E+01 6.60425E+00 0.00000E+00
 -1       548 6.70350E+01 6.60425E+00 0.00000E+00
 -1       549 7.00350E+01 6.60425E+00 0.00000E+00
 -1       550 7.30350E+01 6.60425E+00 0.00000E+00
 -1       551 7.60350E+01 6.60425E+00 0.00000E+00
 -1       552 7.90350E+01 6.60425E+00 0.00000E+00
 -1       553 8.20350E+01 6.60425E+00 0.00000E+00
 -1       554 8.50350E+01 6.60425E+00 0.00000E+00
 -1       555 8.80350E+01 6.60425E+00 0.00000E+00
 -1       556 9.10350E+01 6.60425E+00 0.00000E+00
 -1       557 9.40350E+01 6.60425E+00 0.00000E+00
 -1       558 9.70350E+01 6.60425E+00 0.00000E+00
 -1       559 1.00035E+02 6.60425E+00 0.00000E+00
 -1       560 1.03035E+02 6.60425E+00 0.00000E+00
 -1       561 1.06035E+02 6.60425E+00 0.00000E+00
 -1       562 1.09035E+02 6.60425E+00 0.00000E+00
 -1       563 1.12035E+02 6.60425E+00 0.00000E+00
 -1       564 1.15035E+02 6.60425E+00 0.00000E+00
 -1       565 1.18035E+02 6.60425E+00 0.00000E+00
 -1       566 1.21035E+02 6.60425E+00 0.00000E+00
 -1       567 1.24035E+02 6.60425E+00 0.00000E+00
 -1       568 1.27035E+02 6.60425E+00 0.00000E+00
 -1       569 1.30035E+02 6.60425E+00 0.00000E+00
 -1       570 1.33035E+02 6.60425E+00 0.00000E+00
 -1       571 1.36035E+02 6.60425E+00 0.00000E+00
 -1       572 1.39035E+02 6.60425E+00 0.00000E+00
 -1       573 1.42035E+02 6.60425E+00 0.00000E+00
 -1       574 1.42206E+02 1.61750E+01 0.00000E+00
 -1       575 1.42206E+02 1.91250E+01 0.00000E+00
 -1       576 1.42206E+02 1.03250E+01 0.00000E+00
 -1       577 1.42206E+02 1.32500E+01 0.00000E+00
 -1       578 1.42206E+02 2.20750E+01 0.00000E+00
 -1       579 1.42206E+02 2.50250E+01 0.00000E+00
 -1       580 1.42206E+02 2.79750E+01 0.00000E+00
 -1       581 1.42206E+02 3.08750E+01 0.00000E+00
 -1       582 1.42206E+02 3.38250E+01 0.00000E+00
 -1       583 1.42206E+02 3.67750E+01 0.00000E+00
 -1       584 1.42206E+02 3.97250E+01 0.00000E+00
 -1       585 9.93843E+01 1.77053E+01 0.00000E+00
 -1       586 1.60350E+01 6.60425E+00 0.00000E+00
 -1       587 9.75472E+01 1.65726E+01 0.00000E+00
 -1       588 1.00747E+02 1.96205E+01 0.00000E+00
 -1       589 1.01946E+02 2.63448E+01 0.00000E+00
 -1       590 8.02873E+01 2.80049E+01 0.00000E+00
 -1       591 8.05028E+01 2.12707E+01 0.00000E+00
 -1       592 8.24914E+01 1.75744E+01 0.00000E+00
 -1       593 7.79400E+00 2.79000E+01 0.00000E+00
 -1       594 8.83486E+01 1.41549E+01 0.00000E+00
 -1       595 9.32283E+01 1.41210E+01 0.00000E+00
 -1       596 7.92967E+01 2.36950E+01 0.00000E+00
 -1       597 9.10233E+01 1.40860E+01 0.00000E+00
 -1       598 8.65626E+01 1.47926E+01 0.00000E+00
 -1       599 8.44254E+01 1.59054E+01 0.00000E+00
 -1       600 8.14586E+01 1.93329E+01 0.00000E+00
 -1       601 8.07027E+01 3.01915E+01 0.00000E+00
 -1       602 7.94607E+01 2.60292E+01 0.00000E+00
 -1       603 8.60092E+01 3.50651E+01 0.00000E+00
 -1       604 8.17676E+01 3.22006E+01 0.00000E+00
 -1       605 8.79777E+01 3.61079E+01 0.00000E+00
 -1       606 9.04287E+01 3.67211E+01 0.00000E+00
 -1       607 9.26873E+01 3.63092E+01 0.00000E+00
 -1       608 9.52088E+01 3.56170E+01 0.00000E+00
 -1       609 9.71543E+01 3.44609E+01 0.00000E+00
 -1       610 9.90445E+01 3.29770E+01 0.00000E+00
 -1       611 1.00628E+02 3.09426E+01 0.00000E+00
 -1       612 7.92300E+00 4.16780E+01 0.00000E+00
 -1       613 7.61550E+00 6.21462E+00 0.00000E+00
 -1       614 7.79400E+00 3.67375E+01 0.00000E+00
 -1       615 8.21111E+01 3.37482E+01 0.00000E+00
 -1       616 1.41678E+02 4.22645E+01 0.00000E+00
 -1       617 8.42503E+01 3.51862E+01 0.00000E+00
 -1       618 1.03920E+01 2.05500E+01 0.00000E+00
 -1       619 1.03920E+01 2.35000E+01 0.00000E+00
 -1       620 1.03920E+01 1.46750E+01 0.00000E+00
 -1       621 1.03920E+01 1.17250E+01 0.00000E+00
 -1       622 9.70577E+01 3.65134E+01 0.00000E+00
 -1       623 1.15350E+01 9.20225E+00 0.00000E+00
 -1       624 1.03550E+02 2.52380E+01 0.00000E+00
 -1       625 1.51500E+01 3.96080E+01 0.00000E+00
 -1       626 1.81500E+01 3.96080E+01 0.00000E+00
 -1       627 2.11500E+01 3.96080E+01 0.00000E+00
 -1       628 2.41500E+01 3.96080E+01 0.00000E+00
 -1       629 2.71500E+01 3.96080E+01 0.00000E+00
 -1       630 3.01500E+01 3.96080E+01 0.00000E+00
 -1       631 3.31500E+01 3.96080E+01 0.00000E+00
 -1       632 3.61500E+01 3.96080E+01 0.00000E+00
 -1       633 3.91500E+01 3.96080E+01 0.00000E+00
 -1       634 4.21500E+01 3.96080E+01 0.00000E+00
 -1       635 4.51500E+01 3.96080E+01 0.00000E+00
 -1       636 4.81500E+01 3.96080E+01 0.00000E+00
 -1       637 5.11500E+01 3.96080E+01 0.00000E+00
 -1       638 5.41500E+01 3.96080E+01 0.00000E+00
 -1       639 5.71500E+01 3.96080E+01 0.00000E+00
 -1       640 6.01500E+01 3.96080E+01 0.00000E+00
 -1       641 6.31500E+01 3.96080E+01 0.00000E+00
 -1       642 6.61500E+01 3.96080E+01 0.00000E+00
 -1       643 6.91500E+01 3.96080E+01 0.00000E+00
 -1       644 7.21500E+01 3.96080E+01 0.00000E+00
 -1       645 7.51500E+01 3.96080E+01 0.00000E+00
 -1       646 7.81500E+01 3.96080E+01 0.00000E+00
 -1       647 8.11500E+01 3.96080E+01 0.00000E+00
 -1       648 8.41500E+01 3.96080E+01 0.00000E+00
 -1       649 8.71500E+01 3.96080E+01 0.00000E+00
 -1       650 9.01500E+01 3.96080E+01 0.00000E+00
 -1       651 9.31500E+01 3.96080E+01 0.00000E+00
 -1       652 9.61500E+01 3.96080E+01 0.00000E+00
 -1       653 9.91500E+01 3.96080E+01 0.00000E+00
 -1       654 1.02150E+02 3.96080E+01 0.00000E+00
 -1       655 1.05150E+02 3.96080E+01 0.00000E+00
 -1       656 1.08150E+02 3.96080E+01 0.00000E+00
 -1       657 1.11150E+02 3.96080E+01 0.00000E+00
 -1       658 1.14150E+02 3.96080E+01 0.00000E+00
 -1       659 1.17150E+02 3.96080E+01 0.00000E+00
 -1       660 1.20150E+02 3.96080E+01 0.00000E+00
 -1       661 1.23150E+02 3.96080E+01 0.00000E+00
 -1       662 1.26150E+02 3.96080E+01 0.00000E+00
 -1       663 1.29150E+02 3.96080E+01 0.00000E+00
 -1       664 1.32150E+02 3.96080E+01 0.00000E+00
 -1       665 1.35150E+02 3.96080E+01 0.00000E+00
 -1       666 1.38150E+02 3.96080E+01 0.00000E+00
 -1       667 8.61905E+01 3.71021E+01 0.00000E+00
 -1       668 2.05350E+01 9.20225E+00 0.00000E+00
 -1       669 2.95350E+01 9.20225E+00 0.00000E+00
 -1       670 3.25350E+01 9.20225E+00 0.00000E+00
 -1       671 3.55350E+01 9.20225E+00 0.00000E+00
 -1       672 3.85350E+01 9.20225E+00 0.00000E+00
 -1       673 4.15350E+01 9.20225E+00 0.00000E+00
 -1       674 4.45350E+01 9.20225E+00 0.00000E+00
 -1       675 4.75350E+01 9.20225E+00 0.00000E+00
 -1       676 5.05350E+01 9.20225E+00 0.00000E+00
 -1       677 5.35350E+01 9.20225E+00 0.00000E+00
 -1       678 5.65350E+01 9.20225E+00 0.00000E+00
 -1       679 5.95350E+01 9.20225E+00 0.00000E+00
 -1       680 6.25350E+01 9.20225E+00 0.00000E+00
 -1       681 6.55350E+01 9.20225E+00 0.00000E+00
 -1       682 6.85350E+01 9.20225E+00 0.00000E+00
 -1       683 7.15350E+01 9.20225E+00 0.00000E+00
 -1       684 7.45350E+01 9.20225E+00 0.00000E+00
 -1       685 7.75350E+01 9.20225E+00 0.00000E+00
 -1       686 8.05350E+01 9.20225E+00 0.00000E+00
 -1       687 8.35350E+01 9.20225E+00 0.00000E+00
 -1       688 8.65350E+01 9.20225E+00 0.00000E+00
 -1       689 8.95350E+01 9.20225E+00 0.00000E+00
 -1       690 9.25350E+01 9.20225E+00 0.00000E+00
 -1       691 9.55350E+01 9.20225E+00 0.00000E+00
 -1       692 9.85350E+01 9.20225E+00 0.00000E+00
 -1       693 1.01535E+02 9.20225E+00 0.00000E+00
 -1       694 1.04535E+02 9.20225E+00 0.00000E+00
 -1       695 1.07535E+02 9.20225E+00 0.00000E+00
 -1       696 1.10535E+02 9.20225E+00 0.00000E+00
 -1       697 1.13535E+02 9.20225E+00 0.00000E+00
 -1       698 1.16535E+02 9.20225E+00 0.00000E+00
 -1       699 1.19535E+02 9.20225E+00 0.00000E+00
 -1       700 1.22535E+02 9.20225E+00 0.00000E+00
 -1       701 1.25535E+02 9.20225E+00 0.00000E+00
 -1       702 1.28535E+02 9.20225E+00 0.00000E+00
 -1       703 1.31535E+02 9.20225E+00 0.00000E+00
 -1       704 1.34535E+02 9.20225E+00 0.00000E+00
 -1       705 1.37535E+02 9.20225E+00 0.00000E+00
 -1       706 1.39870E+02 9.76363E+00 0.00000E+00
 -1       707 1.39608E+02 2.35500E+01 0.00000E+00
 -1       708 1.40178E+02 3.96665E+01 0.00000E+00
 -1       709 1.39608E+02 1.76500E+01 0.00000E+00
 -1       710 1.39608E+02 2.65000E+01 0.00000E+00
 -1       711 1.39608E+02 2.06000E+01 0.00000E+00
 -1       712 1.03350E+02 1.96007E+01 0.00000E+00
 -1       713 1.39608E+02 2.94000E+01 0.00000E+00
 -1       714 1.39608E+02 3.23500E+01 0.00000E+00
 -1       715 1.39608E+02 3.53000E+01 0.00000E+00
 -1       716 1.75350E+01 9.20225E+00 0.00000E+00
 -1       717 9.43798E+01 3.75362E+01 0.00000E+00
 -1       718 9.95418E+01 1.53938E+01 0.00000E+00
 -1       719 1.02385E+02 2.98917E+01 0.00000E+00
 -1       720 1.45350E+01 9.20225E+00 0.00000E+00
 -1       721 7.73335E+01 2.50058E+01 0.00000E+00
 -1       722 1.03851E+02 2.29566E+01 0.00000E+00
 -1       723 2.65350E+01 9.20225E+00 0.00000E+00
 -1       724 2.35350E+01 9.20225E+00 0.00000E+00
 -1       725 1.21500E+01 3.96080E+01 0.00000E+00
 -1       726 8.68226E+01 1.27007E+01 0.00000E+00
 -1       727 9.53765E+01 1.30517E+01 0.00000E+00
 -1       728 1.01454E+02 3.32190E+01 0.00000E+00
 -1       729 1.03431E+02 2.77542E+01 0.00000E+00
 -1       730 9.74592E+01 1.42227E+01 0.00000E+00
 -1       731 1.03920E+01 1.76125E+01 0.00000E+00
 -1       732 9.21557E+01 1.22211E+01 0.00000E+00
 -1       733 8.46246E+01 1.36791E+01 0.00000E+00
 -1       734 7.83642E+01 2.17189E+01 0.00000E+00
 -1       735 8.23378E+01 1.54414E+01 0.00000E+00
 -1       736 1.03920E+01 3.23250E+01 0.00000E+00
 -1       737 8.04961E+01 1.75851E+01 0.00000E+00
 -1       738 7.88101E+01 2.94184E+01 0.00000E+00
 -1       739 7.95177E+01 1.95802E+01 0.00000E+00
 -1       740 7.79834E+01 2.74427E+01 0.00000E+00
 -1       741 8.94810E+01 1.22900E+01 0.00000E+00
 -1       742 1.01988E+02 1.76855E+01 0.00000E+00
 -1       743 9.18507E+01 3.81200E+01 0.00000E+00
 -1       744 7.95717E+01 3.20778E+01 0.00000E+00
 -1       745 9.92619E+01 3.51999E+01 0.00000E+00
 -1       746 8.87870E+01 3.80783E+01 0.00000E+00
 -1       747 1.03920E+01 3.52625E+01 0.00000E+00
 -1       748 1.03920E+01 2.64500E+01 0.00000E+00
 -1       749 1.39608E+02 1.47250E+01 0.00000E+00
 -1       750 1.39739E+02 1.22443E+01 0.00000E+00
 -1       751 8.23155E+01 3.53965E+01 0.00000E+00
 -1       752 7.64010E+01 2.30297E+01 0.00000E+00
 -1       753 7.99152E+01 3.36254E+01 0.00000E+00
 -1       754 1.03212E+02 3.21681E+01 0.00000E+00
 -1       755 1.05210E+01 3.87342E+01 0.00000E+00
 -1       756 1.05008E+02 2.06242E+01 0.00000E+00
 -1       757 8.44316E+01 3.72232E+01 0.00000E+00
 -1       758 1.03920E+01 2.93875E+01 0.00000E+00
 -1       759 1.29900E+01 1.32000E+01 0.00000E+00
 -1       760 1.96500E+01 3.70100E+01 0.00000E+00
 -1       761 2.26500E+01 3.70100E+01 0.00000E+00
 -1       762 2.56500E+01 3.70100E+01 0.00000E+00
 -1       763 2.86500E+01 3.70100E+01 0.00000E+00
 -1       764 3.16500E+01 3.70100E+01 0.00000E+00
 -1       765 3.46500E+01 3.70100E+01 0.00000E+00
 -1       766 3.76500E+01 3.70100E+01 0.00000E+00
 -1       767 4.06500E+01 3.70100E+01 0.00000E+00
 -1       768 4.36500E+01 3.70100E+01 0.00000E+00
 -1       769 4.66500E+01 3.70100E+01 0.00000E+00
 -1       770 4.96500E+01 3.70100E+01 0.00000E+00
 -1       771 5.26500E+01 3.70100E+01 0.00000E+00
 -1       772 5.56500E+01 3.70100E+01 0.00000E+00
 -1       773 5.86500E+01 3.70100E+01 0.00000E+00
 -1       774 6.16500E+01 3.70100E+01 0.00000E+00
 -1       775 6.46500E+01 3.70100E+01 0.00000E+00
 -1       776 6.76500E+01 3.70100E+01 0.00000E+00
 -1       777 7.06500E+01 3.70100E+01 0.00000E+00
 -1       778 7.36500E+01 3.70100E+01 0.00000E+00
 -1       779 7.66500E+01 3.70100E+01 0.00000E+00
 -1       780 7.96500E+01 3.70100E+01 0.00000E+00
 -1       781 1.00650E+02 3.72226E+01 0.00000E+00
 -1       782 1.03650E+02 3.72226E+01 0.00000E+00
 -1       783 1.06650E+02 3.72226E+01 0.00000E+00
 -1       784 1.09650E+02 3.72226E+01 0.00000E+00
 -1       785 1.12650E+02 3.72226E+01 0.00000E+00
 -1       786 1.15650E+02 3.72226E+01 0.00000E+00
 -1       787 1.18650E+02 3.72226E+01 0.00000E+00
 -1       788 1.21650E+02 3.72226E+01 0.00000E+00
 -1       789 1.24650E+02 3.72226E+01 0.00000E+00
 -1       790 1.27650E+02 3.72226E+01 0.00000E+00
 -1       791 1.30650E+02 3.72226E+01 0.00000E+00
 -1       792 1.33650E+02 3.72226E+01 0.00000E+00
 -1       793 1.36650E+02 3.72226E+01 0.00000E+00
 -1       794 3.10350E+01 1.18003E+01 0.00000E+00
 -1       795 4.00350E+01 1.18003E+01 0.00000E+00
 -1       796 4.30350E+01 1.18003E+01 0.00000E+00
 -1       797 4.60350E+01 1.18003E+01 0.00000E+00
 -1       798 4.90350E+01 1.18003E+01 0.00000E+00
 -1       799 5.20350E+01 1.18003E+01 0.00000E+00
 -1       800 5.50350E+01 1.18003E+01 0.00000E+00
 -1       801 5.80350E+01 1.18003E+01 0.00000E+00
 -1       802 6.10350E+01 1.18003E+01 0.00000E+00
 -1       803 6.40350E+01 1.18003E+01 0.00000E+00
 -1       804 6.70350E+01 1.18003E+01 0.00000E+00
 -1       805 7.00350E+01 1.18003E+01 0.00000E+00
 -1       806 7.30350E+01 1.18003E+01 0.00000E+00
 -1       807 7.60350E+01 1.18003E+01 0.00000E+00
 -1       808 7.90350E+01 1.18003E+01 0.00000E+00
 -1       809 8.20350E+01 1.18003E+01 0.00000E+00
 -1       810 1.00035E+02 1.17552E+01 0.00000E+00
 -1       811 1.03035E+02 1.17552E+01 0.00000E+00
 -1       812 1.06035E+02 1.17552E+01 0.00000E+00
 -1       813 1.09035E+02 1.17552E+01 0.00000E+00
 -1       814 1.12035E+02 1.17552E+01 0.00000E+00
 -1       815 1.15035E+02 1.17552E+01 0.00000E+00
 -1       816 1.18035E+02 1.17552E+01 0.00000E+00
 -1       817 1.21035E+02 1.17552E+01 0.00000E+00
 -1       818 1.24035E+02 1.17552E+01 0.00000E+00
 -1       819 1.27035E+02 1.17552E+01 0.00000E+00
 -1       820 1.30035E+02 1.17552E+01 0.00000E+00
 -1       821 1.33035E+02 1.17552E+01 0.00000E+00
 -1       822 1.36035E+02 1.17552E+01 0.00000E+00
 -1       823 1.37887E+02 1.19998E+01 0.00000E+00
 -1       824 1.29900E+01 2.20250E+01 0.00000E+00
 -1       825 1.04749E+02 1.71631E+01 0.00000E+00
 -1       826 1.37010E+02 2.50250E+01 0.00000E+00
 -1       827 1.37010E+02 3.38250E+01 0.00000E+00
 -1       828 1.37010E+02 2.79250E+01 0.00000E+00
 -1       829 1.90350E+01 1.18003E+01 0.00000E+00
 -1       830 7.65054E+01 2.92219E+01 0.00000E+00
 -1       831 1.37010E+02 3.08750E+01 0.00000E+00
 -1       832 3.70350E+01 1.18003E+01 0.00000E+00
 -1       833 3.40350E+01 1.18003E+01 0.00000E+00
 -1       834 1.06065E+02 2.44103E+01 0.00000E+00
 -1       835 2.80350E+01 1.18003E+01 0.00000E+00
 -1       836 1.66500E+01 3.70100E+01 0.00000E+00
 -1       837 2.50350E+01 1.18003E+01 0.00000E+00
 -1       838 7.74314E+01 1.98354E+01 0.00000E+00
 -1       839 1.04449E+02 2.95769E+01 0.00000E+00
 -1       840 1.36500E+01 3.70100E+01 0.00000E+00
 -1       841 7.72670E+01 3.18813E+01 0.00000E+00
 -1       842 7.56774E+01 2.67526E+01 0.00000E+00
 -1       843 1.37625E+01 1.12011E+01 0.00000E+00
 -1       844 1.02510E+02 1.46766E+01 0.00000E+00
 -1       845 7.84098E+01 1.78403E+01 0.00000E+00
 -1       846 2.20350E+01 1.18003E+01 0.00000E+00
 -1       847 1.20210E+01 3.61362E+01 0.00000E+00
 -1       848 1.05947E+02 2.69264E+01 0.00000E+00
 -1       849 7.99889E+01 1.52864E+01 0.00000E+00
 -1       850 1.29900E+01 2.49750E+01 0.00000E+00
 -1       851 1.37010E+02 1.61875E+01 0.00000E+00
 -1       852 1.07222E+02 2.20778E+01 0.00000E+00
 -1       853 1.20210E+01 3.31987E+01 0.00000E+00
 -1       854 7.47450E+01 2.47765E+01 0.00000E+00
 -1       855 1.37010E+02 1.91375E+01 0.00000E+00
 -1       856 1.29900E+01 1.90875E+01 0.00000E+00
 -1       857 1.06407E+02 1.81866E+01 0.00000E+00
 -1       858 1.37010E+02 2.20812E+01 0.00000E+00
 -1       859 7.54682E+01 2.11462E+01 0.00000E+00
 -1       860 8.01196E+01 3.52737E+01 0.00000E+00
 -1       861 1.63988E+01 1.15007E+01 0.00000E+00
 -1       862 1.29900E+01 1.61437E+01 0.00000E+00
 -1       863 1.04931E+02 3.46954E+01 0.00000E+00
 -1       864 7.76105E+01 3.34289E+01 0.00000E+00
 -1       865 1.20210E+01 3.02612E+01 0.00000E+00
 -1       866 2.41500E+01 3.44120E+01 0.00000E+00
 -1       867 2.71500E+01 3.44120E+01 0.00000E+00
 -1       868 3.01500E+01 3.44120E+01 0.00000E+00
 -1       869 3.31500E+01 3.44120E+01 0.00000E+00
 -1       870 3.61500E+01 3.44120E+01 0.00000E+00
 -1       871 3.91500E+01 3.44120E+01 0.00000E+00
 -1       872 4.21500E+01 3.44120E+01 0.00000E+00
 -1       873 4.51500E+01 3.44120E+01 0.00000E+00
 -1       874 4.81500E+01 3.44120E+01 0.00000E+00
 -1       875 5.11500E+01 3.44120E+01 0.00000E+00
 -1       876 5.41500E+01 3.44120E+01 0.00000E+00
 -1       877 5.71500E+01 3.44120E+01 0.00000E+00
 -1       878 6.01500E+01 3.44120E+01 0.00000E+00
 -1       879 6.31500E+01 3.44120E+01 0.00000E+00
 -1       880 6.61500E+01 3.44120E+01 0.00000E+00
 -1       881 6.91500E+01 3.44120E+01 0.00000E+00
 -1       882 7.21500E+01 3.44120E+01 0.00000E+00
 -1       883 7.51500E+01 3.44120E+01 0.00000E+00
 -1       884 1.34010E+02 3.38250E+01 0.00000E+00
 -1       885 1.81500E+01 3.44120E+01 0.00000E+00
 -1       886 1.07931E+02 3.46954E+01 0.00000E+00
 -1       887 1.10931E+02 3.46954E+01 0.00000E+00
 -1       888 1.13931E+02 3.46954E+01 0.00000E+00
 -1       889 1.16931E+02 3.46954E+01 0.00000E+00
 -1       890 1.19931E+02 3.46954E+01 0.00000E+00
 -1       891 1.22931E+02 3.46954E+01 0.00000E+00
 -1       892 1.25931E+02 3.46954E+01 0.00000E+00
 -1       893 1.28931E+02 3.46954E+01 0.00000E+00
 -1       894 1.31470E+02 3.42602E+01 0.00000E+00
 -1       895 1.37449E+02 1.40936E+01 0.00000E+00
 -1       896 4.15350E+01 1.43982E+01 0.00000E+00
 -1       897 5.05350E+01 1.43982E+01 0.00000E+00
 -1       898 5.35350E+01 1.43982E+01 0.00000E+00
 -1       899 5.65350E+01 1.43982E+01 0.00000E+00
 -1       900 5.95350E+01 1.43982E+01 0.00000E+00
 -1       901 6.25350E+01 1.43982E+01 0.00000E+00
 -1       902 6.55350E+01 1.43982E+01 0.00000E+00
 -1       903 6.85350E+01 1.43982E+01 0.00000E+00
 -1       904 7.15350E+01 1.43982E+01 0.00000E+00
 -1       905 7.45350E+01 1.43982E+01 0.00000E+00
 -1       906 7.72620E+01 1.48423E+01 0.00000E+00
 -1       907 1.07535E+02 1.43532E+01 0.00000E+00
 -1       908 1.10535E+02 1.43532E+01 0.00000E+00
 -1       909 1.13535E+02 1.43532E+01 0.00000E+00
 -1       910 1.16535E+02 1.43532E+01 0.00000E+00
 -1       911 1.19535E+02 1.43532E+01 0.00000E+00
 -1       912 1.22535E+02 1.43532E+01 0.00000E+00
 -1       913 1.25535E+02 1.43532E+01 0.00000E+00
 -1       914 1.28535E+02 1.43532E+01 0.00000E+00
 -1       915 1.31535E+02 1.43532E+01 0.00000E+00
 -1       916 3.85350E+01 1.43982E+01 0.00000E+00
 -1       917 1.34412E+02 2.64750E+01 0.00000E+00
 -1       918 2.11500E+01 3.44120E+01 0.00000E+00
 -1       919 4.75350E+01 1.43982E+01 0.00000E+00
 -1       920 1.06168E+02 3.21042E+01 0.00000E+00
 -1       921 1.25055E+01 2.76181E+01 0.00000E+00
 -1       922 2.95350E+01 1.43982E+01 0.00000E+00
 -1       923 2.05350E+01 1.43982E+01 0.00000E+00
 -1       924 7.39886E+01 2.86923E+01 0.00000E+00
 -1       925 7.47503E+01 3.13517E+01 0.00000E+00
 -1       926 2.65350E+01 1.43982E+01 0.00000E+00
 -1       927 1.36500E+01 3.40725E+01 0.00000E+00
 -1       928 1.07666E+02 2.94536E+01 0.00000E+00
 -1       929 1.59000E+01 3.42422E+01 0.00000E+00
 -1       930 7.60798E+01 1.79351E+01 0.00000E+00
 -1       931 2.35350E+01 1.43982E+01 0.00000E+00
 -1       932 1.08389E+02 2.57802E+01 0.00000E+00
 -1       933 4.45350E+01 1.43982E+01 0.00000E+00
 -1       934 1.34412E+02 2.35313E+01 0.00000E+00
 -1       935 1.08621E+02 1.96402E+01 0.00000E+00
 -1       936 1.34686E+02 1.46080E+01 0.00000E+00
 -1       937 3.25350E+01 1.43982E+01 0.00000E+00
 -1       938 1.34686E+02 1.75580E+01 0.00000E+00
 -1       939 3.55350E+01 1.43982E+01 0.00000E+00
 -1       940 7.30562E+01 2.67161E+01 0.00000E+00
 -1       941 1.34412E+02 2.94250E+01 0.00000E+00
 -1       942 7.38122E+01 2.28930E+01 0.00000E+00
 -1       943 1.55880E+01 2.35000E+01 0.00000E+00
 -1       944 1.55880E+01 1.46719E+01 0.00000E+00
 -1       945 1.78988E+01 1.40987E+01 0.00000E+00
 -1       946 1.36500E+01 3.11350E+01 0.00000E+00
 -1       947 1.09546E+02 2.34478E+01 0.00000E+00
 -1       948 1.55880E+01 2.05625E+01 0.00000E+00
 -1       949 7.49502E+01 3.28818E+01 0.00000E+00
 -1       950 5.80350E+01 1.69963E+01 0.00000E+00
 -1       951 2.86500E+01 3.18140E+01 0.00000E+00
 -1       952 3.16500E+01 3.18140E+01 0.00000E+00
 -1       953 3.46500E+01 3.18140E+01 0.00000E+00
 -1       954 3.76500E+01 3.18140E+01 0.00000E+00
 -1       955 4.06500E+01 3.18140E+01 0.00000E+00
 -1       956 4.36500E+01 3.18140E+01 0.00000E+00
 -1       957 4.66500E+01 3.18140E+01 0.00000E+00
 -1       958 4.96500E+01 3.18140E+01 0.00000E+00
 -1       959 5.26500E+01 3.18140E+01 0.00000E+00
 -1       960 5.56500E+01 3.18140E+01 0.00000E+00
 -1       961 5.86500E+01 3.18140E+01 0.00000E+00
 -1       962 6.16500E+01 3.18140E+01 0.00000E+00
 -1       963 6.46500E+01 3.18140E+01 0.00000E+00
 -1       964 6.76500E+01 3.18140E+01 0.00000E+00
 -1       965 7.06500E+01 3.18140E+01 0.00000E+00
 -1       966 2.56500E+01 3.18140E+01 0.00000E+00
 -1       967 1.09431E+02 3.20974E+01 0.00000E+00
 -1       968 1.12431E+02 3.20974E+01 0.00000E+00
 -1       969 1.15431E+02 3.20974E+01 0.00000E+00
 -1       970 1.18431E+02 3.20974E+01 0.00000E+00
 -1       971 1.21431E+02 3.20974E+01 0.00000E+00
 -1       972 1.24431E+02 3.20974E+01 0.00000E+00
 -1       973 1.27431E+02 3.20974E+01 0.00000E+00
 -1       974 5.50350E+01 1.69963E+01 0.00000E+00
 -1       975 5.20350E+01 1.69963E+01 0.00000E+00
 -1       976 6.10350E+01 1.69963E+01 0.00000E+00
 -1       977 6.40350E+01 1.69963E+01 0.00000E+00
 -1       978 6.70350E+01 1.69963E+01 0.00000E+00
 -1       979 7.00350E+01 1.69963E+01 0.00000E+00
 -1       980 7.30350E+01 1.69963E+01 0.00000E+00
 -1       981 1.12035E+02 1.69512E+01 0.00000E+00
 -1       982 1.15035E+02 1.69512E+01 0.00000E+00
 -1       983 1.18035E+02 1.69512E+01 0.00000E+00
 -1       984 1.21035E+02 1.69512E+01 0.00000E+00
 -1       985 1.24035E+02 1.69512E+01 0.00000E+00
 -1       986 1.27035E+02 1.69512E+01 0.00000E+00
 -1       987 1.30035E+02 1.69512E+01 0.00000E+00
 -1       988 4.00350E+01 1.69963E+01 0.00000E+00
 -1       989 2.26500E+01 3.18140E+01 0.00000E+00
 -1       990 1.55880E+01 1.76156E+01 0.00000E+00
 -1       991 4.90350E+01 1.69963E+01 0.00000E+00
 -1       992 1.34412E+02 2.05875E+01 0.00000E+00
 -1       993 2.20350E+01 1.69963E+01 0.00000E+00
 -1       994 1.55717E+01 2.64968E+01 0.00000E+00
 -1       995 1.32361E+02 1.72546E+01 0.00000E+00
 -1       996 7.18719E+01 3.07373E+01 0.00000E+00
 -1       997 2.80350E+01 1.69963E+01 0.00000E+00
 -1       998 7.35953E+01 1.91257E+01 0.00000E+00
 -1       999 2.50350E+01 1.69963E+01 0.00000E+00
 -1      1000 1.96500E+01 3.18140E+01 0.00000E+00
 -1      1001 1.10368E+02 2.80774E+01 0.00000E+00
 -1      1002 1.09578E+02 1.69967E+01 0.00000E+00
 -1      1003 1.31872E+02 2.98602E+01 0.00000E+00
 -1      1004 1.31814E+02 2.50031E+01 0.00000E+00
 -1      1005 3.70350E+01 1.69963E+01 0.00000E+00
 -1      1006 1.29333E+02 3.02954E+01 0.00000E+00
 -1      1007 3.10350E+01 1.69963E+01 0.00000E+00
 -1      1008 1.81778E+01 2.50125E+01 0.00000E+00
 -1      1009 1.93988E+01 1.66967E+01 0.00000E+00
 -1      1010 7.21234E+01 2.48326E+01 0.00000E+00
 -1      1011 4.30350E+01 1.69963E+01 0.00000E+00
 -1      1012 7.09394E+01 2.87612E+01 0.00000E+00
 -1      1013 1.10945E+02 2.10102E+01 0.00000E+00
 -1      1014 7.19393E+01 2.08725E+01 0.00000E+00
 -1      1015 1.74000E+01 3.16443E+01 0.00000E+00
 -1      1016 1.74934E+01 1.71562E+01 0.00000E+00
 -1      1017 1.11525E+02 2.57449E+01 0.00000E+00
 -1      1018 1.31843E+02 2.74317E+01 0.00000E+00
 -1      1019 4.60350E+01 1.69963E+01 0.00000E+00
 -1      1020 1.55250E+01 3.13896E+01 0.00000E+00
 -1      1021 1.46108E+01 2.88159E+01 0.00000E+00
 -1      1022 1.81778E+01 2.20750E+01 0.00000E+00
 -1      1023 3.31500E+01 2.92160E+01 0.00000E+00
 -1      1024 3.61500E+01 2.92160E+01 0.00000E+00
 -1      1025 3.91500E+01 2.92160E+01 0.00000E+00
 -1      1026 4.21500E+01 2.92160E+01 0.00000E+00
 -1      1027 4.51500E+01 2.92160E+01 0.00000E+00
 -1      1028 4.81500E+01 2.92160E+01 0.00000E+00
 -1      1029 5.11500E+01 2.92160E+01 0.00000E+00
 -1      1030 5.41500E+01 2.92160E+01 0.00000E+00
 -1      1031 5.71500E+01 2.92160E+01 0.00000E+00
 -1      1032 6.01500E+01 2.92160E+01 0.00000E+00
 -1      1033 6.31500E+01 2.92160E+01 0.00000E+00
 -1      1034 6.61500E+01 2.92160E+01 0.00000E+00
 -1      1035 1.78356E+01 1.96156E+01 0.00000E+00
 -1      1036 3.40350E+01 1.69963E+01 0.00000E+00
 -1      1037 3.01500E+01 2.92160E+01 0.00000E+00
 -1      1038 5.95350E+01 1.95942E+01 0.00000E+00
 -1      1039 1.16931E+02 2.94994E+01 0.00000E+00
 -1      1040 1.19931E+02 2.94994E+01 0.00000E+00
 -1      1041 1.22931E+02 2.94994E+01 0.00000E+00
 -1      1042 1.25931E+02 2.94994E+01 0.00000E+00
 -1      1043 5.65350E+01 1.95942E+01 0.00000E+00
 -1      1044 6.25350E+01 1.95942E+01 0.00000E+00
 -1      1045 5.35350E+01 1.95942E+01 0.00000E+00
 -1      1046 6.55350E+01 1.95942E+01 0.00000E+00
 -1      1047 6.85350E+01 1.95942E+01 0.00000E+00
 -1      1048 7.10652E+01 1.93600E+01 0.00000E+00
 -1      1049 1.32086E+02 2.02841E+01 0.00000E+00
 -1      1050 1.16535E+02 1.95492E+01 0.00000E+00
 -1      1051 1.19535E+02 1.95492E+01 0.00000E+00
 -1      1052 1.22535E+02 1.95492E+01 0.00000E+00
 -1      1053 1.25535E+02 1.95492E+01 0.00000E+00
 -1      1054 1.28535E+02 1.95492E+01 0.00000E+00
 -1      1055 1.11490E+02 1.89807E+01 0.00000E+00
 -1      1056 2.41500E+01 2.92160E+01 0.00000E+00
 -1      1057 2.71500E+01 2.92160E+01 0.00000E+00
 -1      1058 1.14012E+02 1.92650E+01 0.00000E+00
 -1      1059 2.35350E+01 1.95942E+01 0.00000E+00
 -1      1060 5.05350E+01 1.95942E+01 0.00000E+00
 -1      1061 1.31950E+02 2.26436E+01 0.00000E+00
 -1      1062 1.81605E+01 2.80122E+01 0.00000E+00
 -1      1063 2.11500E+01 2.92160E+01 0.00000E+00
 -1      1064 1.13671E+02 2.89219E+01 0.00000E+00
 -1      1065 2.65350E+01 1.95942E+01 0.00000E+00
 -1      1066 2.05351E+01 1.95943E+01 0.00000E+00
 -1      1067 2.95350E+01 1.95942E+01 0.00000E+00
 -1      1068 3.85350E+01 1.95942E+01 0.00000E+00
 -1      1069 4.15350E+01 1.95942E+01 0.00000E+00
 -1      1070 2.07671E+01 2.65274E+01 0.00000E+00
 -1      1071 7.00066E+01 2.68777E+01 0.00000E+00
 -1      1072 1.28224E+02 2.73677E+01 0.00000E+00
 -1      1073 7.02505E+01 2.28121E+01 0.00000E+00
 -1      1074 4.75350E+01 1.95942E+01 0.00000E+00
 -1      1075 1.29288E+02 2.36737E+01 0.00000E+00
 -1      1076 1.12924E+02 2.33073E+01 0.00000E+00
 -1      1077 2.07671E+01 2.35899E+01 0.00000E+00
 -1      1078 1.30033E+02 2.73997E+01 0.00000E+00
 -1      1079 3.76500E+01 2.66180E+01 0.00000E+00
 -1      1080 4.06500E+01 2.66180E+01 0.00000E+00
 -1      1081 4.36500E+01 2.66180E+01 0.00000E+00
 -1      1082 4.66500E+01 2.66180E+01 0.00000E+00
 -1      1083 4.96500E+01 2.66180E+01 0.00000E+00
 -1      1084 5.26500E+01 2.66180E+01 0.00000E+00
 -1      1085 5.56500E+01 2.66180E+01 0.00000E+00
 -1      1086 5.86500E+01 2.66180E+01 0.00000E+00
 -1      1087 6.16500E+01 2.66180E+01 0.00000E+00
 -1      1088 6.46500E+01 2.66180E+01 0.00000E+00
 -1      1089 1.18431E+02 2.69014E+01 0.00000E+00
 -1      1090 3.55350E+01 1.95942E+01 0.00000E+00
 -1      1091 1.28912E+02 2.16115E+01 0.00000E+00
 -1      1092 6.40350E+01 2.21922E+01 0.00000E+00
 -1      1093 1.21431E+02 2.69014E+01 0.00000E+00
 -1      1094 1.24431E+02 2.69014E+01 0.00000E+00
 -1      1095 5.80350E+01 2.21922E+01 0.00000E+00
 -1      1096 6.70350E+01 2.21922E+01 0.00000E+00
 -1      1097 5.50350E+01 2.21922E+01 0.00000E+00
 -1      1098 6.94872E+01 2.15324E+01 0.00000E+00
 -1      1099 1.24035E+02 2.21472E+01 0.00000E+00
 -1      1100 1.21035E+02 2.21472E+01 0.00000E+00
 -1      1101 1.18035E+02 2.21472E+01 0.00000E+00
 -1      1102 1.26473E+02 2.18793E+01 0.00000E+00
 -1      1103 1.13468E+02 2.12861E+01 0.00000E+00
 -1      1104 2.56500E+01 2.66180E+01 0.00000E+00
 -1      1105 3.25350E+01 1.95942E+01 0.00000E+00
 -1      1106 2.86500E+01 2.66180E+01 0.00000E+00
 -1      1107 1.15171E+02 2.63239E+01 0.00000E+00
 -1      1108 5.20350E+01 2.21922E+01 0.00000E+00
 -1      1109 3.16500E+01 2.66180E+01 0.00000E+00
 -1      1110 2.32085E+01 2.65727E+01 0.00000E+00
 -1      1111 6.10350E+01 2.21922E+01 0.00000E+00
 -1      1112 2.50350E+01 2.21922E+01 0.00000E+00
 -1      1113 4.45350E+01 1.95942E+01 0.00000E+00
 -1      1114 3.46500E+01 2.66180E+01 0.00000E+00
 -1      1115 6.82991E+01 2.64022E+01 0.00000E+00
 -1      1116 4.90350E+01 2.21922E+01 0.00000E+00
 -1      1117 2.80350E+01 2.21922E+01 0.00000E+00
 -1      1118 1.26850E+02 2.39416E+01 0.00000E+00
 -1      1119 4.00350E+01 2.21922E+01 0.00000E+00
 -1      1120 1.15752E+02 2.17167E+01 0.00000E+00
 -1      1121 3.70350E+01 2.21922E+01 0.00000E+00
 -1      1122 3.61500E+01 2.40200E+01 0.00000E+00
 -1      1123 4.21500E+01 2.40200E+01 0.00000E+00
 -1      1124 4.51500E+01 2.40200E+01 0.00000E+00
 -1      1125 1.19931E+02 2.43034E+01 0.00000E+00
 -1      1126 3.01500E+01 2.40200E+01 0.00000E+00
 -1      1127 3.31500E+01 2.40200E+01 0.00000E+00
 -1      1128 1.15950E+02 2.40938E+01 0.00000E+00
 -1      1129 3.88425E+01 2.44051E+01 0.00000E+00
 -1      1130 0.00000E+00 4.85250E+01 0.00000E+00
 -1      1131 0.00000E+00 4.55750E+01 0.00000E+00
 -1      1132 0.00000E+00 4.26250E+01 0.00000E+00
 -1      1133 0.00000E+00 3.96750E+01 0.00000E+00
 -1      1134 0.00000E+00 3.67250E+01 0.00000E+00
 -1      1135 0.00000E+00 3.38000E+01 0.00000E+00
 -1      1136 0.00000E+00 3.08750E+01 0.00000E+00
 -1      1137 0.00000E+00 2.79250E+01 0.00000E+00
 -1      1138 0.00000E+00 2.49750E+01 0.00000E+00
 -1      1139 0.00000E+00 2.20250E+01 0.00000E+00
 -1      1140 0.00000E+00 1.90750E+01 0.00000E+00
 -1      1141 0.00000E+00 1.61500E+01 0.00000E+00
 -1      1142 0.00000E+00 1.32250E+01 0.00000E+00
 -1      1143 0.00000E+00 1.02750E+01 0.00000E+00
 -1      1144 0.00000E+00 7.32500E+00 0.00000E+00
 -1      1145 0.00000E+00 4.37500E+00 0.00000E+00
 -1      1146 0.00000E+00 1.45000E+00 0.00000E+00
 -1      1147 1.57500E+00 5.00000E+01 0.00000E+00
 -1      1148 4.65000E+00 5.00000E+01 0.00000E+00
 -1      1149 7.65000E+00 5.00000E+01 0.00000E+00
 -1      1150 1.06500E+01 5.00000E+01 0.00000E+00
 -1      1151 1.36500E+01 5.00000E+01 0.00000E+00
 -1      1152 1.66500E+01 5.00000E+01 0.00000E+00
 -1      1153 1.96500E+01 5.00000E+01 0.00000E+00
 -1      1154 2.26500E+01 5.00000E+01 0.00000E+00
 -1      1155 2.56500E+01 5.00000E+01 0.00000E+00
 -1      1156 2.86500E+01 5.00000E+01 0.00000E+00
 -1      1157 3.16500E+01 5.00000E+01 0.00000E+00
 -1      1158 3.46500E+01 5.00000E+01 0.00000E+00
 -1      1159 3.76500E+01 5.00000E+01 0.00000E+00
 -1      1160 4.06500E+01 5.00000E+01 0.00000E+00
 -1      1161 4.36500E+01 5.00000E+01 0.00000E+00
 -1      1162 4.66500E+01 5.00000E+01 0.00000E+00
 -1      1163 4.96500E+01 5.00000E+01 0.00000E+00
 -1      1164 5.26500E+01 5.00000E+01 0.00000E+00
 -1      1165 5.56500E+01 5.00000E+01 0.00000E+00
 -1      1166 5.86500E+01 5.00000E+01 0.00000E+00
 -1      1167 6.16500E+01 5.00000E+01 0.00000E+00
 -1      1168 6.46500E+01 5.00000E+01 0.00000E+00
 -1      1169 6.76500E+01 5.00000E+01 0.00000E+00
 -1      1170 7.06500E+01 5.00000E+01 0.00000E+00
 -1      1171 7.36500E+01 5.00000E+01 0.00000E+00
 -1      1172 7.66500E+01 5.00000E+01 0.00000E+00
 -1      1173 7.96500E+01 5.00000E+01 0.00000E+00
 -1      1174 8.26500E+01 5.00000E+01 0.00000E+00
 -1      1175 8.56500E+01 5.00000E+01 0.00000E+00
 -1      1176 8.86500E+01 5.00000E+01 0.00000E+00
 -1      1177 9.16500E+01 5.00000E+01 0.00000E+00
 -1      1178 9.46500E+01 5.00000E+01 0.00000E+00
 -1      1179 9.76500E+01 5.00000E+01 0.00000E+00
 -1      1180 1.00650E+02 5.00000E+01 0.00000E+00
 -1      1181 1.03650E+02 5.00000E+01 0.00000E+00
 -1      1182 1.06650E+02 5.00000E+01 0.00000E+00
 -1      1183 1.09650E+02 5.00000E+01 0.00000E+00
 -1      1184 1.12650E+02 5.00000E+01 0.00000E+00
 -1      1185 1.15650E+02 5.00000E+01 0.00000E+00
 -1      1186 1.18650E+02 5.00000E+01 0.00000E+00
 -1      1187 1.21650E+02 5.00000E+01 0.00000E+00
 -1      1188 1.24650E+02 5.00000E+01 0.00000E+00
 -1      1189 1.27650E+02 5.00000E+01 0.00000E+00
 -1      1190 1.30650E+02 5.00000E+01 0.00000E+00
 -1      1191 1.33650E+02 5.00000E+01 0.00000E+00
 -1      1192 1.36650E+02 5.00000E+01 0.00000E+00
 -1      1193 1.39650E+02 5.00000E+01 0.00000E+00
 -1      1194 1.42650E+02 5.00000E+01 0.00000E+00
 -1      1195 1.45650E+02 5.00000E+01 0.00000E+00
 -1      1196 1.48575E+02 5.00000E+01 0.00000E+00
 -1      1197 1.57500E+00 0.00000E+00 0.00000E+00
 -1      1198 4.65000E+00 0.00000E+00 0.00000E+00
 -1      1199 7.65000E+00 0.00000E+00 0.00000E+00
 -1      1200 1.06500E+01 0.00000E+00 0.00000E+00
 -1      1201 1.36500E+01 0.00000E+00 0.00000E+00
 -1      1202 1.66500E+01 0.00000E+00 0.00000E+00
 -1      1203 1.96500E+01 0.00000E+00 0.00000E+00
 -1      1204 2.26500E+01 0.00000E+00 0.00000E+00
 -1      1205 2.56500E+01 0.00000E+00 0.00000E+00
 -1      1206 2.86500E+01 0.00000E+00 0.00000E+00
 -1      1207 3.16500E+01 0.00000E+00 0.00000E+00
 -1      1208 3.46500E+01 0.00000E+00 0.00000E+00
 -1      1209 3.76500E+01 0.00000E+00 0.00000E+00
 -1      1210 4.06500E+01 0.00000E+00 0.00000E+00
 -1      1211 4.36500E+01 0.00000E+00 0.00000E+00
 -1      1212 4.66500E+01 0.00000E+00 0.00000E+00
 -1      1213 4.96500E+01 0.00000E+00 0.00000E+00
 -1      1214 5.26500E+01 0.00000E+00 0.00000E+00
 -1      1215 5.56500E+01 0.00000E+00 0.00000E+00
 -1      1216 5.86500E+01 0.00000E+00 0.00000E+00
 -1      1217 6.16500E+01 0.00000E+00 0.00000E+00
 -1      1218 6.46500E+01 0.00000E+00 0.00000E+00
 -1      1219 6.76500E+01 0.00000E+00 0.00000E+00
 -1      1220 7.06500E+01 0.00000E+00 0.00000E+00
 -1      1221 7.36500E+01 0.00000E+00 0.00000E+00
 -1      1222 7.66500E+01 0.00000E+00 0.00000E+00
 -1      1223 7.96500E+01 0.00000E+00 0.00000E+00
 -1      1224 8.26500E+01 0.00000E+00 0.00000E+00
 -1      1225 8.56500E+01 0.00000E+00 0.00000E+00
 -1      1226 8.86500E+01 0.00000E+00 0.00000E+00
 -1      1227 9.16500E+01 0.00000E+00 0.00000E+00
 -1      1228 9.46500E+01 0.00000E+00 0.00000E+00
 -1      1229 9.76500E+01 0.00000E+00 0.00000E+00
 -1      1230 1.00650E+02 0.00000E+00 0.00000E+00
 -1      1231 1.03650E+02 0.00000E+00 0.00000E+00
 -1      1232 1.06650E+02 0.00000E+00 0.00000E+00
 -1      1233 1.09650E+02 0.00000E+00 0.00000E+00
 -1      1234 1.12650E+02 0.00000E+00 0.00000E+00
 -1      1235 1.15650E+02 0.00000E+00 0.00000E+00
 -1      1236 1.18650E+02 0.00000E+00 0.00000E+00
 -1      1237 1.21650E+02 0.00000E+00 0.00000E+00
 -1      1238 1.24650E+02 0.00000E+00 0.00000E+00
 -1      1239 1.27650E+02 0.00000E+00 0.00000E+00
 -1      1240 1.30650E+02 0.00000E+00 0.00000E+00
 -1      1241 1.33650E+02 0.00000E+00 0.00000E+00
 -1      1242 1.36650E+02 0.00000E+00 0.00000E+00
 -1      1243 1.39650E+02 0.00000E+00 0.00000E+00
 -1      1244 1.42650E+02 0.00000E+00 0.00000E+00
 -1      1245 1.45650E+02 0.00000E+00 0.00000E+00
 -1      1246 1.48575E+02 0.00000E+00 0.00000E+00
 -1      1247 1.50000E+02 1.47500E+00 0.00000E+00
 -1      1248 1.50000E+02 4.42500E+00 0.00000E+00
 -1      1249 1.50000E+02 7.37500E+00 0.00000E+00
 -1      1250 1.50000E+02 1.03250E+01 0.00000E+00
 -1      1251 1.50000E+02 1.32750E+01 0.00000E+00
 -1      1252 1.50000E+02 1.62000E+01 0.00000E+00
 -1      1253 1.50000E+02 1.91250E+01 0.00000E+00
 -1      1254 1.50000E+02 2.20750E+01 0.00000E+00
 -1      1255 1.50000E+02 2.50250E+01 0.00000E+00
 -1      1256 1.50000E+02 2.79750E+01 0.00000E+00
 -1      1257 1.50000E+02 3.09250E+01 0.00000E+00
 -1      1258 1.50000E+02 3.38500E+01 0.00000E+00
 -1      1259 1.50000E+02 3.67750E+01 0.00000E+00
 -1      1260 1.50000E+02 3.97250E+01 0.00000E+00
 -1      1261 1.50000E+02 4.26750E+01 0.00000E+00
 -1      1262 1.50000E+02 4.56250E+01 0.00000E+00
 -1      1263 1.50000E+02 4.85500E+01 0.00000E+00
 -1      1264 9.77910E+01 2.45790E+01 0.00000E+00
 -1      1265 9.75145E+01 2.32084E+01 0.00000E+00
 -1      1266 9.69560E+01 2.18928E+01 0.00000E+00
 -1      1267 9.61248E+01 2.06980E+01 0.00000E+00
 -1      1268 9.50839E+01 1.97158E+01 0.00000E+00
 -1      1269 9.37881E+01 1.89293E+01 0.00000E+00
 -1      1270 9.23516E+01 1.84398E+01 0.00000E+00
 -1      1271 9.09013E+01 1.82718E+01 0.00000E+00
 -1      1272 8.94183E+01 1.84142E+01 0.00000E+00
 -1      1273 8.80353E+01 1.88514E+01 0.00000E+00
 -1      1274 8.68000E+01 1.95445E+01 0.00000E+00
 -1      1275 8.57447E+01 2.04561E+01 0.00000E+00
 -1      1276 8.48833E+01 2.15710E+01 0.00000E+00
 -1      1277 8.42471E+01 2.28782E+01 0.00000E+00
 -1      1278 8.38943E+01 2.42912E+01 0.00000E+00
 -1      1279 8.38376E+01 2.56854E+01 0.00000E+00
 -1      1280 8.40590E+01 2.70649E+01 0.00000E+00
 -1      1281 8.45644E+01 2.84019E+01 0.00000E+00
 -1      1282 8.53415E+01 2.96220E+01 0.00000E+00
 -1      1283 8.64095E+01 3.07028E+01 0.00000E+00
 -1      1284 8.76749E+01 3.15223E+01 0.00000E+00
 -1      1285 8.90777E+01 3.20497E+01 0.00000E+00
 -1      1286 9.05781E+01 3.22670E+01 0.00000E+00
 -1      1287 9.20890E+01 3.21564E+01 0.00000E+00
 -1      1288 9.35285E+01 3.17283E+01 0.00000E+00
 -1      1289 9.48154E+01 3.10228E+01 0.00000E+00
 -1      1290 9.59515E+01 3.00382E+01 0.00000E+00
 -1      1291 9.68618E+01 2.88155E+01 0.00000E+00
 -1      1292 9.74876E+01 2.74194E+01 0.00000E+00
 -1      1293 9.77896E+01 2.59776E+01 0.00000E+00
 -1      1294 1.57500E+00 4.85250E+01 0.00000E+00
 -1      1295 1.29900E+00 4.48375E+01 0.00000E+00
 -1      1296 1.29900E+00 4.63125E+01 0.00000E+00
 -1      1297 1.29900E+00 4.18875E+01 0.00000E+00
 -1      1298 1.29900E+00 4.33625E+01 0.00000E+00
 -1      1299 2.59800E+00 4.41000E+01 0.00000E+00
 -1      1300 1.29900E+00 3.89375E+01 0.00000E+00
 -1      1301 1.29900E+00 4.04125E+01 0.00000E+00
 -1      1302 2.59800E+00 4.11500E+01 0.00000E+00
 -1      1303 1.29900E+00 3.59875E+01 0.00000E+00
 -1      1304 1.29900E+00 3.74625E+01 0.00000E+00
 -1      1305 2.59800E+00 3.82000E+01 0.00000E+00
 -1      1306 1.29900E+00 3.30875E+01 0.00000E+00
 -1      1307 1.29900E+00 3.45375E+01 0.00000E+00
 -1      1308 2.59800E+00 3.52750E+01 0.00000E+00
 -1      1309 1.29900E+00 3.01375E+01 0.00000E+00
 -1      1310 1.29900E+00 3.16125E+01 0.00000E+00
 -1      1311 2.59800E+00 3.23500E+01 0.00000E+00
 -1      1312 1.29900E+00 2.71875E+01 0.00000E+00
 -1      1313 1.29900E+00 2.86625E+01 0.00000E+00
 -1      1314 2.59800E+00 2.94000E+01 0.00000E+00
 -1      1315 1.29900E+00 2.42375E+01 0.00000E+00
 -1      1316 1.29900E+00 2.57125E+01 0.00000E+00
 -1      1317 2.59800E+00 2.64500E+01 0.00000E+00
 -1      1318 1.29900E+00 2.12875E+01 0.00000E+00
 -1      1319 1.29900E+00 2.27625E+01 0.00000E+00
 -1      1320 2.59800E+00 2.35000E+01 0.00000E+00
 -1      1321 1.29900E+00 1.83375E+01 0.00000E+00
 -1      1322 1.29900E+00 1.98125E+01 0.00000E+00
 -1      1323 2.59800E+00 2.05500E+01 0.00000E+00
 -1      1324 1.29900E+00 1.54375E+01 0.00000E+00
 -1      1325 1.29900E+00 1.68875E+01 0.00000E+00
 -1      1326 2.59800E+00 1.76250E+01 0.00000E+00
 -1      1327 1.29900E+00 1.24875E+01 0.00000E+00
 -1      1328 1.29900E+00 1.39625E+01 0.00000E+00
 -1      1329 2.59800E+00 1.47000E+01 0.00000E+00
 -1      1330 1.29900E+00 9.53750E+00 0.00000E+00
 -1      1331 1.29900E+00 1.10125E+01 0.00000E+00
 -1      1332 2.59800E+00 1.17500E+01 0.00000E+00
 -1      1333 1.29900E+00 6.58750E+00 0.00000E+00
 -1      1334 1.29900E+00 8.06250E+00 0.00000E+00
 -1      1335 2.59800E+00 8.80000E+00 0.00000E+00
 -1      1336 1.29900E+00 3.63750E+00 0.00000E+00
 -1      1337 1.29900E+00 5.11250E+00 0.00000E+00
 -1      1338 2.59800E+00 5.85000E+00 0.00000E+00
 -1      1339 1.43700E+00 1.09375E+00 0.00000E+00
 -1      1340 1.43700E+00 2.54375E+00 0.00000E+00
 -1      1341 2.73600E+00 3.28125E+00 0.00000E+00
 -1      1342 3.01200E+00 1.09375E+00 0.00000E+00
 -1      1343 3.90000E+00 4.87010E+01 0.00000E+00
 -1      1344 5.40000E+00 4.87010E+01 0.00000E+00
 -1      1345 6.90000E+00 4.87010E+01 0.00000E+00
 -1      1346 8.40000E+00 4.87010E+01 0.00000E+00
 -1      1347 6.15000E+00 4.74020E+01 0.00000E+00
 -1      1348 9.90000E+00 4.87010E+01 0.00000E+00
 -1      1349 1.14000E+01 4.87010E+01 0.00000E+00
 -1      1350 9.15000E+00 4.74020E+01 0.00000E+00
 -1      1351 1.29000E+01 4.87010E+01 0.00000E+00
 -1      1352 1.44000E+01 4.87010E+01 0.00000E+00
 -1      1353 1.21500E+01 4.74020E+01 0.00000E+00
 -1      1354 1.59000E+01 4.87010E+01 0.00000E+00
 -1      1355 1.74000E+01 4.87010E+01 0.00000E+00
 -1      1356 1.51500E+01 4.74020E+01 0.00000E+00
 -1      1357 1.89000E+01 4.87010E+01 0.00000E+00
 -1      1358 2.04000E+01 4.87010E+01 0.00000E+00
 -1      1359 1.81500E+01 4.74020E+01 0.00000E+00
 -1      1360 2.19000E+01 4.87010E+01 0.00000E+00
 -1      1361 2.34000E+01 4.87010E+01 0.00000E+00
 -1      1362 2.11500E+01 4.74020E+01 0.00000E+00
 -1      1363 2.49000E+01 4.87010E+01 0.00000E+00
 -1      1364 2.64000E+01 4.87010E+01 0.00000E+00
 -1      1365 2.41500E+01 4.74020E+01 0.00000E+00
 -1      1366 2.79000E+01 4.87010E+01 0.00000E+00
 -1      1367 2.94000E+01 4.87010E+01 0.00000E+00
 -1      1368 2.71500E+01 4.74020E+01 0.00000E+00
 -1      1369 3.09000E+01 4.87010E+01 0.00000E+00
 -1      1370 3.24000E+01 4.87010E+01 0.00000E+00
 -1      1371 3.01500E+01 4.74020E+01 0.00000E+00
 -1      1372 3.39000E+01 4.87010E+01 0.00000E+00
 -1      1373 3.54000E+01 4.87010E+01 0.00000E+00
 -1      1374 3.31500E+01 4.74020E+01 0.00000E+00
 -1      1375 3.69000E+01 4.87010E+01 0.00000E+00
 -1      1376 3.84000E+01 4.87010E+01 0.00000E+00
 -1      1377 3.61500E+01 4.74020E+01 0.00000E+00
 -1      1378 3.99000E+01 4.87010E+01 0.00000E+00
 -1      1379 4.14000E+01 4.87010E+01 0.00000E+00
 -1      1380 3.91500E+01 4.74020E+01 0.00000E+00
 -1      1381 4.29000E+01 4.87010E+01 0.00000E+00
 -1      1382 4.44000E+01 4.87010E+01 0.00000E+00
 -1      1383 4.21500E+01 4.74020E+01 0.00000E+00
 -1      1384 4.59000E+01 4.87010E+01 0.00000E+00
 -1      1385 4.74000E+01 4.87010E+01 0.00000E+00
 -1      1386 4.51500E+01 4.74020E+01 0.00000E+00
 -1      1387 4.89000E+01 4.87010E+01 0.00000E+00
 -1      1388 5.04000E+01 4.87010E+01 0.00000E+00
 -1      1389 4.81500E+01 4.74020E+01 0.00000E+00
 -1      1390 5.19000E+01 4.87010E+01 0.00000E+00
 -1      1391 5.34000E+01 4.87010E+01 0.00000E+00
 -1      1392 5.11500E+01 4.74020E+01 0.00000E+00
 -1      1393 5.49000E+01 4.87010E+01 0.00000E+00
 -1      1394 5.64000E+01 4.87010E+01 0.00000E+00
 -1      1395 5.41500E+01 4.74020E+01 0.00000E+00
 -1      1396 5.79000E+01 4.87010E+01 0.00000E+00
 -1      1397 5.94000E+01 4.87010E+01 0.00000E+00
 -1      1398 5.71500E+01 4.74020E+01 0.00000E+00
 -1      1399 6.09000E+01 4.87010E+01 0.00000E+00
 -1      1400 6.24000E+01 4.87010E+01 0.00000E+00
 -1      1401 6.01500E+01 4.74020E+01 0.00000E+00
 -1      1402 6.39000E+01 4.87010E+01 0.00000E+00
 -1      1403 6.54000E+01 4.87010E+01 0.00000E+00
 -1      1404 6.31500E+01 4.74020E+01 0.00000E+00
 -1      1405 6.69000E+01 4.87010E+01 0.00000E+00
 -1      1406 6.84000E+01 4.87010E+01 0.00000E+00
 -1      1407 6.61500E+01 4.74020E+01 0.00000E+00
 -1      1408 6.99000E+01 4.87010E+01 0.00000E+00
 -1      1409 7.14000E+01 4.87010E+01 0.00000E+00
 -1      1410 6.91500E+01 4.74020E+01 0.00000E+00
 -1      1411 7.29000E+01 4.87010E+01 0.00000E+00
 -1      1412 7.44000E+01 4.87010E+01 0.00000E+00
 -1      1413 7.21500E+01 4.74020E+01 0.00000E+00
 -1      1414 7.59000E+01 4.87010E+01 0.00000E+00
 -1      1415 7.74000E+01 4.87010E+01 0.00000E+00
 -1      1416 7.51500E+01 4.74020E+01 0.00000E+00
 -1      1417 7.89000E+01 4.87010E+01 0.00000E+00
 -1      1418 8.04000E+01 4.87010E+01 0.00000E+00
 -1      1419 7.81500E+01 4.74020E+01 0.00000E+00
 -1      1420 8.19000E+01 4.87010E+01 0.00000E+00
 -1      1421 8.34000E+01 4.87010E+01 0.00000E+00
 -1      1422 8.11500E+01 4.74020E+01 0.00000E+00
 -1      1423 8.49000E+01 4.87010E+01 0.00000E+00
 -1      1424 8.64000E+01 4.87010E+01 0.00000E+00
 -1      1425 8.41500E+01 4.74020E+01 0.00000E+00
 -1      1426 8.79000E+01 4.87010E+01 0.00000E+00
 -1      1427 8.94000E+01 4.87010E+01 0.00000E+00
 -1      1428 8.71500E+01 4.74020E+01 0.00000E+00
 -1      1429 9.09000E+01 4.87010E+01 0.00000E+00
 -1      1430 9.24000E+01 4.87010E+01 0.00000E+00
 -1      1431 9.01500E+01 4.74020E+01 0.00000E+00
 -1      1432 9.39000E+01 4.87010E+01 0.00000E+00
 -1      1433 9.54000E+01 4.87010E+01 0.00000E+00
 -1      1434 9.31500E+01 4.74020E+01 0.00000E+00
 -1      1435 9.69000E+01 4.87010E+01 0.00000E+00
 -1      1436 9.84000E+01 4.87010E+01 0.00000E+00
 -1      1437 9.61500E+01 4.74020E+01 0.00000E+00
 -1      1438 9.99000E+01 4.87010E+01 0.00000E+00
 -1      1439 1.01400E+02 4.87010E+01 0.00000E+00
 -1      1440 9.91500E+01 4.74020E+01 0.00000E+00
 -1      1441 1.02900E+02 4.87010E+01 0.00000E+00
 -1      1442 1.04400E+02 4.87010E+01 0.00000E+00
 -1      1443 1.02150E+02 4.74020E+01 0.00000E+00
 -1      1444 1.05900E+02 4.87010E+01 0.00000E+00
 -1      1445 1.07400E+02 4.87010E+01 0.00000E+00
 -1      1446 1.05150E+02 4.74020E+01 0.00000E+00
 -1      1447 1.08900E+02 4.87010E+01 0.00000E+00
 -1      1448 1.10400E+02 4.87010E+01 0.00000E+00
 -1      1449 1.08150E+02 4.74020E+01 0.00000E+00
 -1      1450 1.11900E+02 4.87010E+01 0.00000E+00
 -1      1451 1.13400E+02 4.87010E+01 0.00000E+00
 -1      1452 1.11150E+02 4.74020E+01 0.00000E+00
 -1      1453 1.14900E+02 4.87010E+01 0.00000E+00
 -1      1454 1.16400E+02 4.87010E+01 0.00000E+00
 -1      1455 1.14150E+02 4.74020E+01 0.00000E+00
 -1      1456 1.17900E+02 4.87010E+01 0.00000E+00
 -1      1457 1.19400E+02 4.87010E+01 0.00000E+00
 -1      1458 1.17150E+02 4.74020E+01 0.00000E+00
 -1      1459 1.20900E+02 4.87010E+01 0.00000E+00
 -1      1460 1.22400E+02 4.87010E+01 0.00000E+00
 -1      1461 1.20150E+02 4.74020E+01 0.00000E+00
 -1      1462 1.23900E+02 4.87010E+01 0.00000E+00
 -1      1463 1.25400E+02 4.87010E+01 0.00000E+00
 -1      1464 1.23150E+02 4.74020E+01 0.00000E+00
 -1      1465 1.26900E+02 4.87010E+01 0.00000E+00
 -1      1466 1.28400E+02 4.87010E+01 0.00000E+00
 -1      1467 1.26150E+02 4.74020E+01 0.00000E+00
 -1      1468 1.29900E+02 4.87010E+01 0.00000E+00
 -1      1469 1.31400E+02 4.87010E+01 0.00000E+00
 -1      1470 1.29150E+02 4.74020E+01 0.00000E+00
 -1      1471 1.32900E+02 4.87010E+01 0.00000E+00
 -1      1472 1.34400E+02 4.87010E+01 0.00000E+00
 -1      1473 1.32150E+02 4.74020E+01 0.00000E+00
 -1      1474 1.35900E+02 4.87010E+01 0.00000E+00
 -1      1475 1.37400E+02 4.87010E+01 0.00000E+00
 -1      1476 1.35150E+02 4.74020E+01 0.00000E+00
 -1      1477 1.38900E+02 4.87010E+01 0.00000E+00
 -1      1478 1.40400E+02 4.87010E+01 0.00000E+00
 -1      1479 1.38150E+02 4.74020E+01 0.00000E+00
 -1      1480 1.41900E+02 4.87010E+01 0.00000E+00
 -1      1481 1.43400E+02 4.87010E+01 0.00000E+00
 -1      1482 1.41150E+02 4.74020E+01 0.00000E+00
 -1      1483 1.44900E+02 4.87010E+01 0.00000E+00
 -1      1484 1.46400E+02 4.87010E+01 0.00000E+00
 -1      1485 1.44150E+02 4.74020E+01 0.00000E+00
 -1      1486 1.48575E+02 4.85500E+01 0.00000E+00
 -1      1487 1.47825E+02 4.72510E+01 0.00000E+00
 -1      1488 6.01200E+00 1.09375E+00 0.00000E+00
 -1      1489 4.51200E+00 1.09375E+00 0.00000E+00
 -1      1490 4.37400E+00 2.18750E+00 0.00000E+00
 -1      1491 9.01200E+00 1.09375E+00 0.00000E+00
 -1      1492 7.51200E+00 1.09375E+00 0.00000E+00
 -1      1493 7.37400E+00 2.18750E+00 0.00000E+00
 -1      1494 1.20120E+01 1.09375E+00 0.00000E+00
 -1      1495 1.05120E+01 1.09375E+00 0.00000E+00
 -1      1496 1.03740E+01 2.18750E+00 0.00000E+00
 -1      1497 1.50120E+01 1.09375E+00 0.00000E+00
 -1      1498 1.35120E+01 1.09375E+00 0.00000E+00
 -1      1499 1.33740E+01 2.18750E+00 0.00000E+00
 -1      1500 1.80120E+01 1.09375E+00 0.00000E+00
 -1      1501 1.65120E+01 1.09375E+00 0.00000E+00
 -1      1502 1.63740E+01 2.18750E+00 0.00000E+00
 -1      1503 2.10120E+01 1.09375E+00 0.00000E+00
 -1      1504 1.95120E+01 1.09375E+00 0.00000E+00
 -1      1505 1.93740E+01 2.18750E+00 0.00000E+00
 -1      1506 2.40120E+01 1.09375E+00 0.00000E+00
 -1      1507 2.25120E+01 1.09375E+00 0.00000E+00
 -1      1508 2.23740E+01 2.18750E+00 0.00000E+00
 -1      1509 2.70120E+01 1.09375E+00 0.00000E+00
 -1      1510 2.55120E+01 1.09375E+00 0.00000E+00
 -1      1511 2.53740E+01 2.18750E+00 0.00000E+00
 -1      1512 3.00120E+01 1.09375E+00 0.00000E+00
 -1      1513 2.85120E+01 1.09375E+00 0.00000E+00
 -1      1514 2.83740E+01 2.18750E+00 0.00000E+00
 -1      1515 3.30120E+01 1.09375E+00 0.00000E+00
 -1      1516 3.15120E+01 1.09375E+00 0.00000E+00
 -1      1517 3.13740E+01 2.18750E+00 0.00000E+00
 -1      1518 3.60120E+01 1.09375E+00 0.00000E+00
 -1      1519 3.45120E+01 1.09375E+00 0.00000E+00
 -1      1520 3.43740E+01 2.18750E+00 0.00000E+00
 -1      1521 3.90120E+01 1.09375E+00 0.00000E+00
 -1      1522 3.75120E+01 1.09375E+00 0.00000E+00
 -1      1523 3.73740E+01 2.18750E+00 0.00000E+00
 -1      1524 4.20120E+01 1.09375E+00 0.00000E+00
 -1      1525 4.05120E+01 1.09375E+00 0.00000E+00
 -1      1526 4.03740E+01 2.18750E+00 0.00000E+00
 -1      1527 4.50120E+01 1.09375E+00 0.00000E+00
 -1      1528 4.35120E+01 1.09375E+00 0.00000E+00
 -1      1529 4.33740E+01 2.18750E+00 0.00000E+00
 -1      1530 4.80120E+01 1.09375E+00 0.00000E+00
 -1      1531 4.65120E+01 1.09375E+00 0.00000E+00
 -1      1532 4.63740E+01 2.18750E+00 0.00000E+00
 -1      1533 5.10120E+01 1.09375E+00 0.00000E+00
 -1      1534 4.95120E+01 1.09375E+00 0.00000E+00
 -1      1535 4.93740E+01 2.18750E+00 0.00000E+00
 -1      1536 5.40120E+01 1.09375E+00 0.00000E+00
 -1      1537 5.25120E+01 1.09375E+00 0.00000E+00
 -1      1538 5.23740E+01 2.18750E+00 0.00000E+00
 -1      1539 5.70120E+01 1.09375E+00 0.00000E+00
 -1      1540 5.55120E+01 1.09375E+00 0.00000E+00
 -1      1541 5.53740E+01 2.18750E+00 0.00000E+00
 -1      1542 6.00120E+01 1.09375E+00 0.00000E+00
 -1      1543 5.85120E+01 1.09375E+00 0.00000E+00
 -1      1544 5.83740E+01 2.18750E+00 0.00000E+00
 -1      1545 6.30120E+01 1.09375E+00 0.00000E+00
 -1      1546 6.15120E+01 1.09375E+00 0.00000E+00
 -1      1547 6.13740E+01 2.18750E+00 0.00000E+00
 -1      1548 6.60120E+01 1.09375E+00 0.00000E+00
 -1      1549 6.45120E+01 1.09375E+00 0.00000E+00
 -1      1550 6.43740E+01 2.18750E+00 0.00000E+00
 -1      1551 6.90120E+01 1.09375E+00 0.00000E+00
 -1      1552 6.75120E+01 1.09375E+00 0.00000E+00
 -1      1553 6.73740E+01 2.18750E+00 0.00000E+00
 -1      1554 7.20120E+01 1.09375E+00 0.00000E+00
 -1      1555 7.05120E+01 1.09375E+00 0.00000E+00
 -1      1556 7.03740E+01 2.18750E+00 0.00000E+00
 -1      1557 7.50120E+01 1.09375E+00 0.00000E+00
 -1      1558 7.35120E+01 1.09375E+00 0.00000E+00
 -1      1559 7.33740E+01 2.18750E+00 0.00000E+00
 -1      1560 7.80120E+01 1.09375E+00 0.00000E+00
 -1      1561 7.65120E+01 1.09375E+00 0.00000E+00
 -1      1562 7.63740E+01 2.18750E+00 0.00000E+00
 -1      1563 8.10120E+01 1.09375E+00 0.00000E+00
 -1      1564 7.95120E+01 1.09375E+00 0.00000E+00
 -1      1565 7.93740E+01 2.18750E+00 0.00000E+00
 -1      1566 8.40120E+01 1.09375E+00 0.00000E+00
 -1      1567 8.25120E+01 1.09375E+00 0.00000E+00
 -1      1568 8.23740E+01 2.18750E+00 0.00000E+00
 -1      1569 8.70120E+01 1.09375E+00 0.00000E+00
 -1      1570 8.55120E+01 1.09375E+00 0.00000E+00
 -1      1571 8.53740E+01 2.18750E+00 0.00000E+00
 -1      1572 9.00120E+01 1.09375E+00 0.00000E+00
 -1      1573 8.85120E+01 1.09375E+00 0.00000E+00
 -1      1574 8.83740E+01 2.18750E+00 0.00000E+00
 -1      1575 9.30120E+01 1.09375E+00 0.00000E+00
 -1      1576 9.15120E+01 1.09375E+00 0.00000E+00
 -1      1577 9.13740E+01 2.18750E+00 0.00000E+00
 -1      1578 9.60120E+01 1.09375E+00 0.00000E+00
 -1      1579 9.45120E+01 1.09375E+00 0.00000E+00
 -1      1580 9.43740E+01 2.18750E+00 0.00000E+00
 -1      1581 9.90120E+01 1.09375E+00 0.00000E+00
 -1      1582 9.75120E+01 1.09375E+00 0.00000E+00
 -1      1583 9.73740E+01 2.18750E+00 0.00000E+00
 -1      1584 1.02012E+02 1.09375E+00 0.00000E+00
 -1      1585 1.00512E+02 1.09375E+00 0.00000E+00
 -1      1586 1.00374E+02 2.18750E+00 0.00000E+00
 -1      1587 1.05012E+02 1.09375E+00 0.00000E+00
 -1      1588 1.03512E+02 1.09375E+00 0.00000E+00
 -1      1589 1.03374E+02 2.18750E+00 0.00000E+00
 -1      1590 1.08012E+02 1.09375E+00 0.00000E+00
 -1      1591 1.06512E+02 1.09375E+00 0.00000E+00
 -1      1592 1.06374E+02 2.18750E+00 0.00000E+00
 -1      1593 1.11012E+02 1.09375E+00 0.00000E+00
 -1      1594 1.09512E+02 1.09375E+00 0.00000E+00
 -1      1595 1.09374E+02 2.18750E+00 0.00000E+00
 -1      1596 1.14012E+02 1.09375E+00 0.00000E+00
 -1      1597 1.12512E+02 1.09375E+00 0.00000E+00
 -1      1598 1.12374E+02 2.18750E+00 0.00000E+00
 -1      1599 1.17012E+02 1.09375E+00 0.00000E+00
 -1      1600 1.15512E+02 1.09375E+00 0.00000E+00
 -1      1601 1.15374E+02 2.18750E+00 0.00000E+00
 -1      1602 1.20012E+02 1.09375E+00 0.00000E+00
 -1      1603 1.18512E+02 1.09375E+00 0.00000E+00
 -1      1604 1.18374E+02 2.18750E+00 0.00000E+00
 -1      1605 1.23012E+02 1.09375E+00 0.00000E+00
 -1      1606 1.21512E+02 1.09375E+00 0.00000E+00
 -1      1607 1.21374E+02 2.18750E+00 0.00000E+00
 -1      1608 1.26012E+02 1.09375E+00 0.00000E+00
 -1      1609 1.24512E+02 1.09375E+00 0.00000E+00
 -1      1610 1.24374E+02 2.18750E+00 0.00000E+00
 -1      1611 1.29012E+02 1.09375E+00 0.00000E+00
 -1      1612 1.27512E+02 1.09375E+00 0.00000E+00
 -1      1613 1.27374E+02 2.18750E+00 0.00000E+00
 -1      1614 1.32012E+02 1.09375E+00 0.00000E+00
 -1      1615 1.30512E+02 1.09375E+00 0.00000E+00
 -1      1616 1.30374E+02 2.18750E+00 0.00000E+00
 -1      1617 1.35012E+02 1.09375E+00 0.00000E+00
 -1      1618 1.33512E+02 1.09375E+00 0.00000E+00
 -1      1619 1.33374E+02 2.18750E+00 0.00000E+00
 -1      1620 1.38012E+02 1.09375E+00 0.00000E+00
 -1      1621 1.36512E+02 1.09375E+00 0.00000E+00
 -1      1622 1.36374E+02 2.18750E+00 0.00000E+00
 -1      1623 1.41012E+02 1.09375E+00 0.00000E+00
 -1      1624 1.39512E+02 1.09375E+00 0.00000E+00
 -1      1625 1.39374E+02 2.18750E+00 0.00000E+00
 -1      1626 1.44012E+02 1.09375E+00 0.00000E+00
 -1      1627 1.42512E+02 1.09375E+00 0.00000E+00
 -1      1628 1.42374E+02 2.18750E+00 0.00000E+00
 -1      1629 1.47012E+02 1.09375E+00 0.00000E+00
 -1      1630 1.45512E+02 1.09375E+00 0.00000E+00
 -1      1631 1.45374E+02 2.18750E+00 0.00000E+00
 -1      1632 1.48575E+02 1.47500E+00 0.00000E+00
 -1      1633 1.48701E+02 5.16250E+00 0.00000E+00
 -1      1634 1.48701E+02 3.68750E+00 0.00000E+00
 -1      1635 1.48701E+02 8.11250E+00 0.00000E+00
 -1      1636 1.48701E+02 6.63750E+00 0.00000E+00
 -1      1637 1.47402E+02 5.90000E+00 0.00000E+00
 -1      1638 1.48701E+02 1.10625E+01 0.00000E+00
 -1      1639 1.48701E+02 9.58750E+00 0.00000E+00
 -1      1640 1.47402E+02 8.85000E+00 0.00000E+00
 -1      1641 1.48701E+02 1.40125E+01 0.00000E+00
 -1      1642 1.48701E+02 1.25375E+01 0.00000E+00
 -1      1643 1.47402E+02 1.18000E+01 0.00000E+00
 -1      1644 1.48701E+02 1.69125E+01 0.00000E+00
 -1      1645 1.48701E+02 1.54625E+01 0.00000E+00
 -1      1646 1.47402E+02 1.47250E+01 0.00000E+00
 -1      1647 1.48701E+02 1.98625E+01 0.00000E+00
 -1      1648 1.48701E+02 1.83875E+01 0.00000E+00
 -1      1649 1.47402E+02 1.76500E+01 0.00000E+00
 -1      1650 1.48701E+02 2.28125E+01 0.00000E+00
 -1      1651 1.48701E+02 2.13375E+01 0.00000E+00
 -1      1652 1.47402E+02 2.06000E+01 0.00000E+00
 -1      1653 1.48701E+02 2.57625E+01 0.00000E+00
 -1      1654 1.48701E+02 2.42875E+01 0.00000E+00
 -1      1655 1.47402E+02 2.35500E+01 0.00000E+00
 -1      1656 1.48701E+02 2.87125E+01 0.00000E+00
 -1      1657 1.48701E+02 2.72375E+01 0.00000E+00
 -1      1658 1.47402E+02 2.65000E+01 0.00000E+00
 -1      1659 1.48701E+02 3.16625E+01 0.00000E+00
 -1      1660 1.48701E+02 3.01875E+01 0.00000E+00
 -1      1661 1.47402E+02 2.94500E+01 0.00000E+00
 -1      1662 1.48701E+02 3.45625E+01 0.00000E+00
 -1      1663 1.48701E+02 3.31125E+01 0.00000E+00
 -1      1664 1.47402E+02 3.23750E+01 0.00000E+00
 -1      1665 1.48701E+02 3.75125E+01 0.00000E+00
 -1      1666 1.48701E+02 3.60375E+01 0.00000E+00
 -1      1667 1.47402E+02 3.53000E+01 0.00000E+00
 -1      1668 1.48701E+02 4.04625E+01 0.00000E+00
 -1      1669 1.48701E+02 3.89875E+01 0.00000E+00
 -1      1670 1.47402E+02 3.82500E+01 0.00000E+00
 -1      1671 1.48701E+02 4.34125E+01 0.00000E+00
 -1      1672 1.48701E+02 4.19375E+01 0.00000E+00
 -1      1673 1.47402E+02 4.12000E+01 0.00000E+00
 -1      1674 1.48263E+02 4.60692E+01 0.00000E+00
 -1      1675 1.48263E+02 4.45942E+01 0.00000E+00
 -1      1676 1.46964E+02 4.38568E+01 0.00000E+00
 -1      1677 1.46088E+02 4.62202E+01 0.00000E+00
 -1      1678 9.83259E+01 2.41780E+01 0.00000E+00
 -1      1679 9.83943E+01 2.48669E+01 0.00000E+00
 -1      1680 9.79556E+01 2.27030E+01 0.00000E+00
 -1      1681 9.81636E+01 2.33776E+01 0.00000E+00
 -1      1682 9.73529E+01 2.12611E+01 0.00000E+00
 -1      1683 9.77020E+01 2.18946E+01 0.00000E+00
 -1      1684 9.63473E+01 2.00226E+01 0.00000E+00
 -1      1685 9.68256E+01 2.05768E+01 0.00000E+00
 -1      1686 9.51540E+01 1.90498E+01 0.00000E+00
 -1      1687 9.57088E+01 1.94751E+01 0.00000E+00
 -1      1688 9.37077E+01 1.81367E+01 0.00000E+00
 -1      1689 9.44475E+01 1.84823E+01 0.00000E+00
 -1      1690 9.21340E+01 1.78061E+01 0.00000E+00
 -1      1691 9.28181E+01 1.79589E+01 0.00000E+00
 -1      1692 9.05285E+01 1.76609E+01 0.00000E+00
 -1      1693 9.12874E+01 1.76691E+01 0.00000E+00
 -1      1694 8.89377E+01 1.78903E+01 0.00000E+00
 -1      1695 8.96537E+01 1.77434E+01 0.00000E+00
 -1      1696 8.74786E+01 1.84728E+01 0.00000E+00
 -1      1697 8.81385E+01 1.81860E+01 0.00000E+00
 -1      1698 8.61862E+01 1.92775E+01 0.00000E+00
 -1      1699 8.67565E+01 1.88766E+01 0.00000E+00
 -1      1700 8.50901E+01 2.03162E+01 0.00000E+00
 -1      1701 8.55698E+01 1.98100E+01 0.00000E+00
 -1      1702 8.42114E+01 2.15717E+01 0.00000E+00
 -1      1703 8.45876E+01 2.09678E+01 0.00000E+00
 -1      1704 8.35089E+01 2.30046E+01 0.00000E+00
 -1      1705 8.37627E+01 2.23070E+01 0.00000E+00
 -1      1706 8.32388E+01 2.45591E+01 0.00000E+00
 -1      1707 8.33387E+01 2.38520E+01 0.00000E+00
 -1      1708 8.32858E+01 2.60594E+01 0.00000E+00
 -1      1709 8.32455E+01 2.53793E+01 0.00000E+00
 -1      1710 8.36002E+01 2.75568E+01 0.00000E+00
 -1      1711 8.34168E+01 2.68649E+01 0.00000E+00
 -1      1712 8.42143E+01 2.89758E+01 0.00000E+00
 -1      1713 8.38952E+01 2.83376E+01 0.00000E+00
 -1      1714 8.51246E+01 3.02619E+01 0.00000E+00
 -1      1715 8.46690E+01 2.96877E+01 0.00000E+00
 -1      1716 8.62545E+01 3.15169E+01 0.00000E+00
 -1      1717 8.56442E+01 3.10207E+01 0.00000E+00
 -1      1718 8.77407E+01 3.21927E+01 0.00000E+00
 -1      1719 8.70968E+01 3.18681E+01 0.00000E+00
 -1      1720 8.93137E+01 3.26918E+01 0.00000E+00
 -1      1721 8.85607E+01 3.24977E+01 0.00000E+00
 -1      1722 9.09271E+01 3.28468E+01 0.00000E+00
 -1      1723 9.01891E+01 3.28207E+01 0.00000E+00
 -1      1724 9.25876E+01 3.27224E+01 0.00000E+00
 -1      1725 9.18239E+01 3.28626E+01 0.00000E+00
 -1      1726 9.40826E+01 3.21127E+01 0.00000E+00
 -1      1727 9.34135E+01 3.23928E+01 0.00000E+00
 -1      1728 9.54672E+01 3.13114E+01 0.00000E+00
 -1      1729 9.48574E+01 3.17344E+01 0.00000E+00
 -1      1730 9.66242E+01 3.01440E+01 0.00000E+00
 -1      1731 9.61058E+01 3.07014E+01 0.00000E+00
 -1      1732 9.75417E+01 2.87723E+01 0.00000E+00
 -1      1733 9.71554E+01 2.94303E+01 0.00000E+00
 -1      1734 9.82219E+01 2.72533E+01 0.00000E+00
 -1      1735 9.79865E+01 2.79832E+01 0.00000E+00
 -1      1736 9.83928E+01 2.56838E+01 0.00000E+00
 -1      1737 9.83216E+01 2.63864E+01 0.00000E+00
 -1      1738 9.64386E+01 1.93288E+01 0.00000E+00
 -1      1739 9.76044E+01 2.05605E+01 0.00000E+00
 -1      1740 1.48437E+02 2.56875E+00 0.00000E+00
 -1      1741 1.47138E+02 3.30625E+00 0.00000E+00
 -1      1742 9.88011E+01 2.36621E+01 0.00000E+00
 -1      1743 9.83853E+01 2.20532E+01 0.00000E+00
 -1      1744 9.89618E+01 2.52794E+01 0.00000E+00
 -1      1745 9.50938E+01 1.82138E+01 0.00000E+00
 -1      1746 9.34978E+01 1.74686E+01 0.00000E+00
 -1      1747 9.17616E+01 1.71539E+01 0.00000E+00
 -1      1748 9.00402E+01 1.70994E+01 0.00000E+00
 -1      1749 8.83662E+01 1.74777E+01 0.00000E+00
 -1      1750 8.68448E+01 1.81773E+01 0.00000E+00
 -1      1751 8.55064E+01 1.91136E+01 0.00000E+00
 -1      1752 8.43874E+01 2.02977E+01 0.00000E+00
 -1      1753 8.34362E+01 2.16846E+01 0.00000E+00
 -1      1754 8.28172E+01 2.32674E+01 0.00000E+00
 -1      1755 8.26538E+01 2.49350E+01 0.00000E+00
 -1      1756 8.27915E+01 2.65607E+01 0.00000E+00
 -1      1757 8.32176E+01 2.81470E+01 0.00000E+00
 -1      1758 8.39672E+01 2.96397E+01 0.00000E+00
 -1      1759 8.49416E+01 3.11104E+01 0.00000E+00
 -1      1760 8.63036E+01 3.22205E+01 0.00000E+00
 -1      1761 8.79659E+01 3.28767E+01 0.00000E+00
 -1      1762 8.96613E+01 3.33107E+01 0.00000E+00
 -1      1763 9.14335E+01 3.34554E+01 0.00000E+00
 -1      1764 9.31562E+01 3.31415E+01 0.00000E+00
 -1      1765 9.47570E+01 3.24337E+01 0.00000E+00
 -1      1766 9.61703E+01 3.14455E+01 0.00000E+00
 -1      1767 9.73401E+01 3.01219E+01 0.00000E+00
 -1      1768 9.83161E+01 2.86191E+01 0.00000E+00
 -1      1769 9.88606E+01 2.69631E+01 0.00000E+00
 -1      1770 2.87400E+00 4.77875E+01 0.00000E+00
 -1      1771 3.89700E+00 4.04125E+01 0.00000E+00
 -1      1772 3.89700E+00 4.18875E+01 0.00000E+00
 -1      1773 3.89700E+00 4.33625E+01 0.00000E+00
 -1      1774 3.89700E+00 4.48375E+01 0.00000E+00
 -1      1775 5.19600E+00 4.26250E+01 0.00000E+00
 -1      1776 3.89700E+00 3.45500E+01 0.00000E+00
 -1      1777 3.89700E+00 3.60000E+01 0.00000E+00
 -1      1778 3.89700E+00 3.16000E+01 0.00000E+00
 -1      1779 3.89700E+00 3.30750E+01 0.00000E+00
 -1      1780 5.19600E+00 3.38000E+01 0.00000E+00
 -1      1781 3.89700E+00 2.86500E+01 0.00000E+00
 -1      1782 3.89700E+00 3.01250E+01 0.00000E+00
 -1      1783 5.19600E+00 3.08500E+01 0.00000E+00
 -1      1784 3.89700E+00 2.57000E+01 0.00000E+00
 -1      1785 3.89700E+00 2.71750E+01 0.00000E+00
 -1      1786 5.19600E+00 2.79000E+01 0.00000E+00
 -1      1787 3.89700E+00 2.27500E+01 0.00000E+00
 -1      1788 3.89700E+00 2.42250E+01 0.00000E+00
 -1      1789 5.19600E+00 2.49500E+01 0.00000E+00
 -1      1790 3.89700E+00 1.98000E+01 0.00000E+00
 -1      1791 3.89700E+00 2.12750E+01 0.00000E+00
 -1      1792 5.19600E+00 2.20000E+01 0.00000E+00
 -1      1793 3.89700E+00 1.69000E+01 0.00000E+00
 -1      1794 3.89700E+00 1.83500E+01 0.00000E+00
 -1      1795 5.19600E+00 1.90750E+01 0.00000E+00
 -1      1796 3.89700E+00 1.39500E+01 0.00000E+00
 -1      1797 3.89700E+00 1.54250E+01 0.00000E+00
 -1      1798 5.19600E+00 1.61500E+01 0.00000E+00
 -1      1799 3.89700E+00 1.10000E+01 0.00000E+00
 -1      1800 3.89700E+00 1.24750E+01 0.00000E+00
 -1      1801 5.19600E+00 1.32000E+01 0.00000E+00
 -1      1802 3.89700E+00 8.05000E+00 0.00000E+00
 -1      1803 3.89700E+00 9.52500E+00 0.00000E+00
 -1      1804 5.19600E+00 1.02500E+01 0.00000E+00
 -1      1805 3.89700E+00 5.10000E+00 0.00000E+00
 -1      1806 3.89700E+00 6.57500E+00 0.00000E+00
 -1      1807 5.19600E+00 7.30000E+00 0.00000E+00
 -1      1808 4.20450E+00 3.09687E+00 0.00000E+00
 -1      1809 4.06650E+00 4.19063E+00 0.00000E+00
 -1      1810 5.36550E+00 4.91563E+00 0.00000E+00
 -1      1811 5.70450E+00 3.09687E+00 0.00000E+00
 -1      1812 3.62400E+00 4.64885E+01 0.00000E+00
 -1      1813 8.70450E+00 3.09687E+00 0.00000E+00
 -1      1814 7.20450E+00 3.09687E+00 0.00000E+00
 -1      1815 7.03500E+00 4.00625E+00 0.00000E+00
 -1      1816 4.92300E+00 4.57510E+01 0.00000E+00
 -1      1817 8.40000E+00 4.61030E+01 0.00000E+00
 -1      1818 9.90000E+00 4.61030E+01 0.00000E+00
 -1      1819 1.14000E+01 4.61030E+01 0.00000E+00
 -1      1820 1.29000E+01 4.61030E+01 0.00000E+00
 -1      1821 1.06500E+01 4.48040E+01 0.00000E+00
 -1      1822 1.44000E+01 4.61030E+01 0.00000E+00
 -1      1823 1.59000E+01 4.61030E+01 0.00000E+00
 -1      1824 1.36500E+01 4.48040E+01 0.00000E+00
 -1      1825 1.74000E+01 4.61030E+01 0.00000E+00
 -1      1826 1.89000E+01 4.61030E+01 0.00000E+00
 -1      1827 1.66500E+01 4.48040E+01 0.00000E+00
 -1      1828 2.04000E+01 4.61030E+01 0.00000E+00
 -1      1829 2.19000E+01 4.61030E+01 0.00000E+00
 -1      1830 1.96500E+01 4.48040E+01 0.00000E+00
 -1      1831 2.34000E+01 4.61030E+01 0.00000E+00
 -1      1832 2.49000E+01 4.61030E+01 0.00000E+00
 -1      1833 2.26500E+01 4.48040E+01 0.00000E+00
 -1      1834 2.64000E+01 4.61030E+01 0.00000E+00
 -1      1835 2.79000E+01 4.61030E+01 0.00000E+00
 -1      1836 2.56500E+01 4.48040E+01 0.00000E+00
 -1      1837 2.94000E+01 4.61030E+01 0.00000E+00
 -1      1838 3.09000E+01 4.61030E+01 0.00000E+00
 -1      1839 2.86500E+01 4.48040E+01 0.00000E+00
 -1      1840 3.24000E+01 4.61030E+01 0.00000E+00
 -1      1841 3.39000E+01 4.61030E+01 0.00000E+00
 -1      1842 3.16500E+01 4.48040E+01 0.00000E+00
 -1      1843 3.54000E+01 4.61030E+01 0.00000E+00
 -1      1844 3.69000E+01 4.61030E+01 0.00000E+00
 -1      1845 3.46500E+01 4.48040E+01 0.00000E+00
 -1      1846 3.84000E+01 4.61030E+01 0.00000E+00
 -1      1847 3.99000E+01 4.61030E+01 0.00000E+00
 -1      1848 3.76500E+01 4.48040E+01 0.00000E+00
 -1      1849 4.14000E+01 4.61030E+01 0.00000E+00
 -1      1850 4.29000E+01 4.61030E+01 0.00000E+00
 -1      1851 4.06500E+01 4.48040E+01 0.00000E+00
 -1      1852 4.44000E+01 4.61030E+01 0.00000E+00
 -1      1853 4.59000E+01 4.61030E+01 0.00000E+00
 -1      1854 4.36500E+01 4.48040E+01 0.00000E+00
 -1      1855 4.74000E+01 4.61030E+01 0.00000E+00
 -1      1856 4.89000E+01 4.61030E+01 0.00000E+00
 -1      1857 4.66500E+01 4.48040E+01 0.00000E+00
 -1      1858 5.04000E+01 4.61030E+01 0.00000E+00
 -1      1859 5.19000E+01 4.61030E+01 0.00000E+00
 -1      1860 4.96500E+01 4.48040E+01 0.00000E+00
 -1      1861 5.34000E+01 4.61030E+01 0.00000E+00
 -1      1862 5.49000E+01 4.61030E+01 0.00000E+00
 -1      1863 5.26500E+01 4.48040E+01 0.00000E+00
 -1      1864 5.64000E+01 4.61030E+01 0.00000E+00
 -1      1865 5.79000E+01 4.61030E+01 0.00000E+00
 -1      1866 5.56500E+01 4.48040E+01 0.00000E+00
 -1      1867 5.94000E+01 4.61030E+01 0.00000E+00
 -1      1868 6.09000E+01 4.61030E+01 0.00000E+00
 -1      1869 5.86500E+01 4.48040E+01 0.00000E+00
 -1      1870 6.24000E+01 4.61030E+01 0.00000E+00
 -1      1871 6.39000E+01 4.61030E+01 0.00000E+00
 -1      1872 6.16500E+01 4.48040E+01 0.00000E+00
 -1      1873 6.54000E+01 4.61030E+01 0.00000E+00
 -1      1874 6.69000E+01 4.61030E+01 0.00000E+00
 -1      1875 6.46500E+01 4.48040E+01 0.00000E+00
 -1      1876 6.84000E+01 4.61030E+01 0.00000E+00
 -1      1877 6.99000E+01 4.61030E+01 0.00000E+00
 -1      1878 6.76500E+01 4.48040E+01 0.00000E+00
 -1      1879 7.14000E+01 4.61030E+01 0.00000E+00
 -1      1880 7.29000E+01 4.61030E+01 0.00000E+00
 -1      1881 7.06500E+01 4.48040E+01 0.00000E+00
 -1      1882 7.44000E+01 4.61030E+01 0.00000E+00
 -1      1883 7.59000E+01 4.61030E+01 0.00000E+00
 -1      1884 7.36500E+01 4.48040E+01 0.00000E+00
 -1      1885 7.74000E+01 4.61030E+01 0.00000E+00
 -1      1886 7.89000E+01 4.61030E+01 0.00000E+00
 -1      1887 7.66500E+01 4.48040E+01 0.00000E+00
 -1      1888 8.04000E+01 4.61030E+01 0.00000E+00
 -1      1889 8.19000E+01 4.61030E+01 0.00000E+00
 -1      1890 7.96500E+01 4.48040E+01 0.00000E+00
 -1      1891 8.34000E+01 4.61030E+01 0.00000E+00
 -1      1892 8.49000E+01 4.61030E+01 0.00000E+00
 -1      1893 8.26500E+01 4.48040E+01 0.00000E+00
 -1      1894 8.64000E+01 4.61030E+01 0.00000E+00
 -1      1895 8.79000E+01 4.61030E+01 0.00000E+00
 -1      1896 8.56500E+01 4.48040E+01 0.00000E+00
 -1      1897 8.94000E+01 4.61030E+01 0.00000E+00
 -1      1898 9.09000E+01 4.61030E+01 0.00000E+00
 -1      1899 8.86500E+01 4.48040E+01 0.00000E+00
 -1      1900 9.24000E+01 4.61030E+01 0.00000E+00
 -1      1901 9.39000E+01 4.61030E+01 0.00000E+00
 -1      1902 9.16500E+01 4.48040E+01 0.00000E+00
 -1      1903 9.54000E+01 4.61030E+01 0.00000E+00
 -1      1904 9.69000E+01 4.61030E+01 0.00000E+00
 -1      1905 9.46500E+01 4.48040E+01 0.00000E+00
 -1      1906 9.84000E+01 4.61030E+01 0.00000E+00
 -1      1907 9.99000E+01 4.61030E+01 0.00000E+00
 -1      1908 9.76500E+01 4.48040E+01 0.00000E+00
 -1      1909 1.01400E+02 4.61030E+01 0.00000E+00
 -1      1910 1.02900E+02 4.61030E+01 0.00000E+00
 -1      1911 1.00650E+02 4.48040E+01 0.00000E+00
 -1      1912 1.04400E+02 4.61030E+01 0.00000E+00
 -1      1913 1.05900E+02 4.61030E+01 0.00000E+00
 -1      1914 1.03650E+02 4.48040E+01 0.00000E+00
 -1      1915 1.07400E+02 4.61030E+01 0.00000E+00
 -1      1916 1.08900E+02 4.61030E+01 0.00000E+00
 -1      1917 1.06650E+02 4.48040E+01 0.00000E+00
 -1      1918 1.10400E+02 4.61030E+01 0.00000E+00
 -1      1919 1.11900E+02 4.61030E+01 0.00000E+00
 -1      1920 1.09650E+02 4.48040E+01 0.00000E+00
 -1      1921 1.13400E+02 4.61030E+01 0.00000E+00
 -1      1922 1.14900E+02 4.61030E+01 0.00000E+00
 -1      1923 1.12650E+02 4.48040E+01 0.00000E+00
 -1      1924 1.16400E+02 4.61030E+01 0.00000E+00
 -1      1925 1.17900E+02 4.61030E+01 0.00000E+00
 -1      1926 1.15650E+02 4.48040E+01 0.00000E+00
 -1      1927 1.19400E+02 4.61030E+01 0.00000E+00
 -1      1928 1.20900E+02 4.61030E+01 0.00000E+00
 -1      1929 1.18650E+02 4.48040E+01 0.00000E+00
 -1      1930 1.22400E+02 4.61030E+01 0.00000E+00
 -1      1931 1.23900E+02 4.61030E+01 0.00000E+00
 -1      1932 1.21650E+02 4.48040E+01 0.00000E+00
 -1      1933 1.25400E+02 4.61030E+01 0.00000E+00
 -1      1934 1.26900E+02 4.61030E+01 0.00000E+00
 -1      1935 1.24650E+02 4.48040E+01 0.00000E+00
 -1      1936 1.28400E+02 4.61030E+01 0.00000E+00
 -1      1937 1.29900E+02 4.61030E+01 0.00000E+00
 -1      1938 1.27650E+02 4.48040E+01 0.00000E+00
 -1      1939 1.31400E+02 4.61030E+01 0.00000E+00
 -1      1940 1.32900E+02 4.61030E+01 0.00000E+00
 -1      1941 1.30650E+02 4.48040E+01 0.00000E+00
 -1      1942 1.34400E+02 4.61030E+01 0.00000E+00
 -1      1943 1.35900E+02 4.61030E+01 0.00000E+00
 -1      1944 1.33650E+02 4.48040E+01 0.00000E+00
 -1      1945 1.37400E+02 4.61030E+01 0.00000E+00
 -1      1946 1.38900E+02 4.61030E+01 0.00000E+00
 -1      1947 1.36650E+02 4.48040E+01 0.00000E+00
 -1      1948 1.40400E+02 4.61030E+01 0.00000E+00
 -1      1949 1.41900E+02 4.61030E+01 0.00000E+00
 -1      1950 1.39650E+02 4.48040E+01 0.00000E+00
 -1      1951 1.43244E+02 4.61616E+01 0.00000E+00
 -1      1952 1.44744E+02 4.61616E+01 0.00000E+00
 -1      1953 1.45182E+02 4.49799E+01 0.00000E+00
 -1      1954 1.42494E+02 4.48626E+01 0.00000E+00
 -1      1955 1.17045E+01 3.09687E+00 0.00000E+00
 -1      1956 1.02045E+01 3.09687E+00 0.00000E+00
 -1      1957 1.00350E+01 4.00625E+00 0.00000E+00
 -1      1958 1.47045E+01 3.09687E+00 0.00000E+00
 -1      1959 1.32045E+01 3.09687E+00 0.00000E+00
 -1      1960 1.30350E+01 4.00625E+00 0.00000E+00
 -1      1961 1.77045E+01 3.09687E+00 0.00000E+00
 -1      1962 1.62045E+01 3.09687E+00 0.00000E+00
 -1      1963 1.60350E+01 4.00625E+00 0.00000E+00
 -1      1964 2.07045E+01 3.09687E+00 0.00000E+00
 -1      1965 1.92045E+01 3.09687E+00 0.00000E+00
 -1      1966 1.90350E+01 4.00625E+00 0.00000E+00
 -1      1967 2.37045E+01 3.09687E+00 0.00000E+00
 -1      1968 2.22045E+01 3.09687E+00 0.00000E+00
 -1      1969 2.20350E+01 4.00625E+00 0.00000E+00
 -1      1970 2.67045E+01 3.09687E+00 0.00000E+00
 -1      1971 2.52045E+01 3.09687E+00 0.00000E+00
 -1      1972 2.50350E+01 4.00625E+00 0.00000E+00
 -1      1973 2.97045E+01 3.09687E+00 0.00000E+00
 -1      1974 2.82045E+01 3.09687E+00 0.00000E+00
 -1      1975 2.80350E+01 4.00625E+00 0.00000E+00
 -1      1976 3.27045E+01 3.09687E+00 0.00000E+00
 -1      1977 3.12045E+01 3.09687E+00 0.00000E+00
 -1      1978 3.10350E+01 4.00625E+00 0.00000E+00
 -1      1979 3.57045E+01 3.09687E+00 0.00000E+00
 -1      1980 3.42045E+01 3.09687E+00 0.00000E+00
 -1      1981 3.40350E+01 4.00625E+00 0.00000E+00
 -1      1982 3.87045E+01 3.09687E+00 0.00000E+00
 -1      1983 3.72045E+01 3.09687E+00 0.00000E+00
 -1      1984 3.70350E+01 4.00625E+00 0.00000E+00
 -1      1985 4.17045E+01 3.09687E+00 0.00000E+00
 -1      1986 4.02045E+01 3.09687E+00 0.00000E+00
 -1      1987 4.00350E+01 4.00625E+00 0.00000E+00
 -1      1988 4.47045E+01 3.09687E+00 0.00000E+00
 -1      1989 4.32045E+01 3.09687E+00 0.00000E+00
 -1      1990 4.30350E+01 4.00625E+00 0.00000E+00
 -1      1991 4.77045E+01 3.09687E+00 0.00000E+00
 -1      1992 4.62045E+01 3.09687E+00 0.00000E+00
 -1      1993 4.60350E+01 4.00625E+00 0.00000E+00
 -1      1994 5.07045E+01 3.09687E+00 0.00000E+00
 -1      1995 4.92045E+01 3.09687E+00 0.00000E+00
 -1      1996 4.90350E+01 4.00625E+00 0.00000E+00
 -1      1997 5.37045E+01 3.09687E+00 0.00000E+00
 -1      1998 5.22045E+01 3.09687E+00 0.00000E+00
 -1      1999 5.20350E+01 4.00625E+00 0.00000E+00
 -1      2000 5.67045E+01 3.09687E+00 0.00000E+00
 -1      2001 5.52045E+01 3.09687E+00 0.00000E+00
 -1      2002 5.50350E+01 4.00625E+00 0.00000E+00
 -1      2003 5.97045E+01 3.09687E+00 0.00000E+00
 -1      2004 5.82045E+01 3.09687E+00 0.00000E+00
 -1      2005 5.80350E+01 4.00625E+00 0.00000E+00
 -1      2006 6.27045E+01 3.09687E+00 0.00000E+00
 -1      2007 6.12045E+01 3.09687E+00 0.00000E+00
 -1      2008 6.10350E+01 4.00625E+00 0.00000E+00
 -1      2009 6.57045E+01 3.09687E+00 0.00000E+00
 -1      2010 6.42045E+01 3.09687E+00 0.00000E+00
 -1      2011 6.40350E+01 4.00625E+00 0.00000E+00
 -1      2012 6.87045E+01 3.09687E+00 0.00000E+00
 -1      2013 6.72045E+01 3.09687E+00 0.00000E+00
 -1      2014 6.70350E+01 4.00625E+00 0.00000E+00
 -1      2015 7.17045E+01 3.09687E+00 0.00000E+00
 -1      2016 7.02045E+01 3.09687E+00 0.00000E+00
 -1      2017 7.00350E+01 4.00625E+00 0.00000E+00
 -1      2018 7.47045E+01 3.09687E+00 0.00000E+00
 -1      2019 7.32045E+01 3.09687E+00 0.00000E+00
 -1      2020 7.30350E+01 4.00625E+00 0.00000E+00
 -1      2021 7.77045E+01 3.09687E+00 0.00000E+00
 -1      2022 7.62045E+01 3.09687E+00 0.00000E+00
 -1      2023 7.60350E+01 4.00625E+00 0.00000E+00
 -1      2024 8.07045E+01 3.09687E+00 0.00000E+00
 -1      2025 7.92045E+01 3.09687E+00 0.00000E+00
 -1      2026 7.90350E+01 4.00625E+00 0.00000E+00
 -1      2027 8.37045E+01 3.09687E+00 0.00000E+00
 -1      2028 8.22045E+01 3.09687E+00 0.00000E+00
 -1      2029 8.20350E+01 4.00625E+00 0.00000E+00
 -1      2030 8.67045E+01 3.09687E+00 0.00000E+00
 -1      2031 8.52045E+01 3.09687E+00 0.00000E+00
 -1      2032 8.50350E+01 4.00625E+00 0.00000E+00
 -1      2033 8.97045E+01 3.09687E+00 0.00000E+00
 -1      2034 8.82045E+01 3.09687E+00 0.00000E+00
 -1      2035 8.80350E+01 4.00625E+00 0.00000E+00
 -1      2036 9.27045E+01 3.09687E+00 0.00000E+00
 -1      2037 9.12045E+01 3.09687E+00 0.00000E+00
 -1      2038 9.10350E+01 4.00625E+00 0.00000E+00
 -1      2039 9.57045E+01 3.09687E+00 0.00000E+00
 -1      2040 9.42045E+01 3.09687E+00 0.00000E+00
 -1      2041 9.40350E+01 4.00625E+00 0.00000E+00
 -1      2042 9.87045E+01 3.09687E+00 0.00000E+00
 -1      2043 9.72045E+01 3.09687E+00 0.00000E+00
 -1      2044 9.70350E+01 4.00625E+00 0.00000E+00
 -1      2045 1.01704E+02 3.09687E+00 0.00000E+00
 -1      2046 1.00204E+02 3.09687E+00 0.00000E+00
 -1      2047 1.00035E+02 4.00625E+00 0.00000E+00
 -1      2048 1.04704E+02 3.09687E+00 0.00000E+00
 -1      2049 1.03204E+02 3.09687E+00 0.00000E+00
 -1      2050 1.03035E+02 4.00625E+00 0.00000E+00
 -1      2051 1.07704E+02 3.09687E+00 0.00000E+00
 -1      2052 1.06204E+02 3.09687E+00 0.00000E+00
 -1      2053 1.06035E+02 4.00625E+00 0.00000E+00
 -1      2054 1.10704E+02 3.09687E+00 0.00000E+00
 -1      2055 1.09204E+02 3.09687E+00 0.00000E+00
 -1      2056 1.09035E+02 4.00625E+00 0.00000E+00
 -1      2057 1.13704E+02 3.09687E+00 0.00000E+00
 -1      2058 1.12204E+02 3.09687E+00 0.00000E+00
 -1      2059 1.12035E+02 4.00625E+00 0.00000E+00
 -1      2060 1.16704E+02 3.09687E+00 0.00000E+00
 -1      2061 1.15204E+02 3.09687E+00 0.00000E+00
 -1      2062 1.15035E+02 4.00625E+00 0.00000E+00
 -1      2063 1.19704E+02 3.09687E+00 0.00000E+00
 -1      2064 1.18204E+02 3.09687E+00 0.00000E+00
 -1      2065 1.18035E+02 4.00625E+00 0.00000E+00
 -1      2066 1.22704E+02 3.09687E+00 0.00000E+00
 -1      2067 1.21204E+02 3.09687E+00 0.00000E+00
 -1      2068 1.21035E+02 4.00625E+00 0.00000E+00
 -1      2069 1.25704E+02 3.09687E+00 0.00000E+00
 -1      2070 1.24204E+02 3.09687E+00 0.00000E+00
 -1      2071 1.24035E+02 4.00625E+00 0.00000E+00
 -1      2072 1.28704E+02 3.09687E+00 0.00000E+00
 -1      2073 1.27204E+02 3.09687E+00 0.00000E+00
 -1      2074 1.27035E+02 4.00625E+00 0.00000E+00
 -1      2075 1.31704E+02 3.09687E+00 0.00000E+00
 -1      2076 1.30204E+02 3.09687E+00 0.00000E+00
 -1      2077 1.30035E+02 4.00625E+00 0.00000E+00
 -1      2078 1.34704E+02 3.09687E+00 0.00000E+00
 -1      2079 1.33204E+02 3.09687E+00 0.00000E+00
 -1      2080 1.33035E+02 4.00625E+00 0.00000E+00
 -1      2081 1.37704E+02 3.09687E+00 0.00000E+00
 -1      2082 1.36204E+02 3.09687E+00 0.00000E+00
 -1      2083 1.36035E+02 4.00625E+00 0.00000E+00
 -1      2084 1.40704E+02 3.09687E+00 0.00000E+00
 -1      2085 1.39204E+02 3.09687E+00 0.00000E+00
 -1      2086 1.39035E+02 4.00625E+00 0.00000E+00
 -1      2087 1.43704E+02 3.09687E+00 0.00000E+00
 -1      2088 1.42204E+02 3.09687E+00 0.00000E+00
 -1      2089 1.42035E+02 4.00625E+00 0.00000E+00
 -1      2090 1.46171E+02 3.20156E+00 0.00000E+00
 -1      2091 1.44671E+02 3.20156E+00 0.00000E+00
 -1      2092 1.44502E+02 4.11094E+00 0.00000E+00
 -1      2093 1.46435E+02 4.32031E+00 0.00000E+00
 -1      2094 1.46103E+02 1.25375E+01 0.00000E+00
 -1      2095 1.46103E+02 1.10625E+01 0.00000E+00
 -1      2096 1.46103E+02 9.58750E+00 0.00000E+00
 -1      2097 1.46103E+02 8.11250E+00 0.00000E+00
 -1      2098 1.44804E+02 1.03250E+01 0.00000E+00
 -1      2099 1.46269E+02 6.95391E+00 0.00000E+00
 -1      2100 1.46269E+02 5.47891E+00 0.00000E+00
 -1      2101 1.45302E+02 5.37422E+00 0.00000E+00
 -1      2102 1.44970E+02 7.69141E+00 0.00000E+00
 -1      2103 1.46103E+02 1.54375E+01 0.00000E+00
 -1      2104 1.46103E+02 1.39875E+01 0.00000E+00
 -1      2105 1.44804E+02 1.32500E+01 0.00000E+00
 -1      2106 1.46103E+02 1.83875E+01 0.00000E+00
 -1      2107 1.46103E+02 1.69125E+01 0.00000E+00
 -1      2108 1.44804E+02 1.61750E+01 0.00000E+00
 -1      2109 1.46103E+02 2.13375E+01 0.00000E+00
 -1      2110 1.46103E+02 1.98625E+01 0.00000E+00
 -1      2111 1.44804E+02 1.91250E+01 0.00000E+00
 -1      2112 1.46103E+02 2.42875E+01 0.00000E+00
 -1      2113 1.46103E+02 2.28125E+01 0.00000E+00
 -1      2114 1.44804E+02 2.20750E+01 0.00000E+00
 -1      2115 1.46103E+02 2.72375E+01 0.00000E+00
 -1      2116 1.46103E+02 2.57625E+01 0.00000E+00
 -1      2117 1.44804E+02 2.50250E+01 0.00000E+00
 -1      2118 1.46103E+02 3.01875E+01 0.00000E+00
 -1      2119 1.46103E+02 2.87125E+01 0.00000E+00
 -1      2120 1.44804E+02 2.79750E+01 0.00000E+00
 -1      2121 1.46103E+02 3.30875E+01 0.00000E+00
 -1      2122 1.46103E+02 3.16375E+01 0.00000E+00
 -1      2123 1.44804E+02 3.09000E+01 0.00000E+00
 -1      2124 1.46103E+02 3.60375E+01 0.00000E+00
 -1      2125 1.46103E+02 3.45625E+01 0.00000E+00
 -1      2126 1.44804E+02 3.38250E+01 0.00000E+00
 -1      2127 1.46103E+02 3.89875E+01 0.00000E+00
 -1      2128 1.46103E+02 3.75125E+01 0.00000E+00
 -1      2129 1.44804E+02 3.67750E+01 0.00000E+00
 -1      2130 1.46103E+02 4.19375E+01 0.00000E+00
 -1      2131 1.46103E+02 4.04625E+01 0.00000E+00
 -1      2132 1.44804E+02 3.97250E+01 0.00000E+00
 -1      2133 9.90768E+01 2.13924E+01 0.00000E+00
 -1      2134 9.93304E+01 2.22008E+01 0.00000E+00
 -1      2135 9.96525E+01 2.48722E+01 0.00000E+00
 -1      2136 9.96510E+01 2.56891E+01 0.00000E+00
 -1      2137 9.94926E+01 2.30012E+01 0.00000E+00
 -1      2138 9.96548E+01 2.38017E+01 0.00000E+00
 -1      2139 1.00184E+02 2.23404E+01 0.00000E+00
 -1      2140 9.78873E+01 1.97972E+01 0.00000E+00
 -1      2141 9.84146E+01 2.04815E+01 0.00000E+00
 -1      2142 9.65686E+01 1.85313E+01 0.00000E+00
 -1      2143 9.72070E+01 1.90787E+01 0.00000E+00
 -1      2144 3.89700E+00 3.74688E+01 0.00000E+00
 -1      2145 3.89700E+00 3.89437E+01 0.00000E+00
 -1      2146 5.19600E+00 3.96813E+01 0.00000E+00
 -1      2147 5.19600E+00 3.67438E+01 0.00000E+00
 -1      2148 9.32046E+01 1.66210E+01 0.00000E+00
 -1      2149 9.40942E+01 1.67987E+01 0.00000E+00
 -1      2150 9.15114E+01 1.63470E+01 0.00000E+00
 -1      2151 9.23580E+01 1.64840E+01 0.00000E+00
 -1      2152 9.29544E+01 1.58141E+01 0.00000E+00
 -1      2153 8.95341E+01 1.64121E+01 0.00000E+00
 -1      2154 9.04088E+01 1.63295E+01 0.00000E+00
 -1      2155 8.77416E+01 1.70178E+01 0.00000E+00
 -1      2156 8.85409E+01 1.67220E+01 0.00000E+00
 -1      2157 8.61265E+01 1.77404E+01 0.00000E+00
 -1      2158 8.68486E+01 1.73366E+01 0.00000E+00
 -1      2159 8.46650E+01 1.87626E+01 0.00000E+00
 -1      2160 8.52814E+01 1.82301E+01 0.00000E+00
 -1      2161 8.35566E+01 2.01766E+01 0.00000E+00
 -1      2162 8.40591E+01 1.95249E+01 0.00000E+00
 -1      2163 8.26591E+01 2.16472E+01 0.00000E+00
 -1      2164 8.31079E+01 2.09119E+01 0.00000E+00
 -1      2165 8.27795E+01 2.01391E+01 0.00000E+00
 -1      2166 8.19735E+01 2.35387E+01 0.00000E+00
 -1      2167 8.21437E+01 2.26913E+01 0.00000E+00
 -1      2168 8.18415E+01 2.53518E+01 0.00000E+00
 -1      2169 8.18348E+01 2.45316E+01 0.00000E+00
 -1      2170 8.21035E+01 2.69628E+01 0.00000E+00
 -1      2171 8.19725E+01 2.61573E+01 0.00000E+00
 -1      2172 8.11535E+01 2.57539E+01 0.00000E+00
 -1      2173 8.27196E+01 2.87813E+01 0.00000E+00
 -1      2174 8.24246E+01 2.80005E+01 0.00000E+00
 -1      2175 8.35424E+01 3.04121E+01 0.00000E+00
 -1      2176 8.30878E+01 2.97002E+01 0.00000E+00
 -1      2177 8.45818E+01 3.19297E+01 0.00000E+00
 -1      2178 8.40621E+01 3.11709E+01 0.00000E+00
 -1      2179 8.31827E+01 3.12315E+01 0.00000E+00
 -1      2180 8.64753E+01 3.29943E+01 0.00000E+00
 -1      2181 8.56330E+01 3.26430E+01 0.00000E+00
 -1      2182 8.81207E+01 3.37152E+01 0.00000E+00
 -1      2183 8.73008E+01 3.34102E+01 0.00000E+00
 -1      2184 8.99862E+01 3.41406E+01 0.00000E+00
 -1      2185 8.91108E+01 3.40117E+01 0.00000E+00
 -1      2186 9.18697E+01 3.41531E+01 0.00000E+00
 -1      2187 9.09729E+01 3.41374E+01 0.00000E+00
 -1      2188 9.38250E+01 3.36176E+01 0.00000E+00
 -1      2189 9.29990E+01 3.39472E+01 0.00000E+00
 -1      2190 9.54471E+01 3.28646E+01 0.00000E+00
 -1      2191 9.46723E+01 3.32428E+01 0.00000E+00
 -1      2192 9.69951E+01 3.16697E+01 0.00000E+00
 -1      2193 9.63565E+01 3.22797E+01 0.00000E+00
 -1      2194 9.82600E+01 3.02521E+01 0.00000E+00
 -1      2195 9.77288E+01 3.09657E+01 0.00000E+00
 -1      2196 9.91396E+01 2.85633E+01 0.00000E+00
 -1      2197 9.86948E+01 2.93525E+01 0.00000E+00
 -1      2198 9.95513E+01 2.65560E+01 0.00000E+00
 -1      2199 9.94516E+01 2.74228E+01 0.00000E+00
 -1      2200 1.00242E+02 2.61488E+01 0.00000E+00
 -1      2201 9.51558E+01 1.73963E+01 0.00000E+00
 -1      2202 9.58622E+01 1.79638E+01 0.00000E+00
 -1      2203 9.66305E+01 1.77138E+01 0.00000E+00
 -1      2204 6.42300E+00 4.57510E+01 0.00000E+00
 -1      2205 9.45694E+01 1.57010E+01 0.00000E+00
 -1      2206 9.48626E+01 1.65487E+01 0.00000E+00
 -1      2207 9.56310E+01 1.62987E+01 0.00000E+00
 -1      2208 7.17300E+00 4.44520E+01 0.00000E+00
 -1      2209 1.00344E+02 2.42114E+01 0.00000E+00
 -1      2210 9.93597E+01 2.06290E+01 0.00000E+00
 -1      2211 1.45665E+02 4.31193E+01 0.00000E+00
 -1      2212 9.80172E+01 1.89997E+01 0.00000E+00
 -1      2213 9.98303E+01 2.81561E+01 0.00000E+00
 -1      2214 1.00209E+02 2.88895E+01 0.00000E+00
 -1      2215 1.00521E+02 2.77490E+01 0.00000E+00
 -1      2216 9.90835E+01 3.01963E+01 0.00000E+00
 -1      2217 9.79150E+01 3.18000E+01 0.00000E+00
 -1      2218 9.62719E+01 3.30888E+01 0.00000E+00
 -1      2219 9.45151E+01 3.40485E+01 0.00000E+00
 -1      2220 9.25385E+01 3.46292E+01 0.00000E+00
 -1      2221 9.04225E+01 3.48384E+01 0.00000E+00
 -1      2222 8.84457E+01 3.45452E+01 0.00000E+00
 -1      2223 8.47535E+01 3.27035E+01 0.00000E+00
 -1      2224 8.38741E+01 3.27641E+01 0.00000E+00
 -1      2225 8.49253E+01 3.34773E+01 0.00000E+00
 -1      2226 8.16056E+01 2.75971E+01 0.00000E+00
 -1      2227 8.18154E+01 2.19186E+01 0.00000E+00
 -1      2228 8.38341E+01 1.86414E+01 0.00000E+00
 -1      2229 8.52851E+01 1.73894E+01 0.00000E+00
 -1      2230 8.70233E+01 1.65809E+01 0.00000E+00
 -1      2231 9.10052E+01 1.56596E+01 0.00000E+00
 -1      2232 8.89095E+01 1.59521E+01 0.00000E+00
 -1      2233 8.11612E+01 2.39555E+01 0.00000E+00
 -1      2234 8.22948E+01 2.95537E+01 0.00000E+00
 -1      2235 8.66301E+01 3.38327E+01 0.00000E+00
 -1      2236 1.07850E+01 5.30525E+00 0.00000E+00
 -1      2237 9.28500E+00 5.30525E+00 0.00000E+00
 -1      2238 6.49500E+00 3.01125E+01 0.00000E+00
 -1      2239 6.49500E+00 3.15875E+01 0.00000E+00
 -1      2240 6.49500E+00 3.30625E+01 0.00000E+00
 -1      2241 6.49500E+00 3.45375E+01 0.00000E+00
 -1      2242 7.79400E+00 3.23250E+01 0.00000E+00
 -1      2243 6.49500E+00 2.42125E+01 0.00000E+00
 -1      2244 6.49500E+00 2.56875E+01 0.00000E+00
 -1      2245 6.49500E+00 2.12625E+01 0.00000E+00
 -1      2246 6.49500E+00 2.27375E+01 0.00000E+00
 -1      2247 7.79400E+00 2.34750E+01 0.00000E+00
 -1      2248 6.49500E+00 1.83625E+01 0.00000E+00
 -1      2249 6.49500E+00 1.98125E+01 0.00000E+00
 -1      2250 7.79400E+00 2.05500E+01 0.00000E+00
 -1      2251 6.49500E+00 1.54125E+01 0.00000E+00
 -1      2252 6.49500E+00 1.68875E+01 0.00000E+00
 -1      2253 7.79400E+00 1.76250E+01 0.00000E+00
 -1      2254 6.49500E+00 1.24625E+01 0.00000E+00
 -1      2255 6.49500E+00 1.39375E+01 0.00000E+00
 -1      2256 7.79400E+00 1.46750E+01 0.00000E+00
 -1      2257 6.49500E+00 9.51250E+00 0.00000E+00
 -1      2258 6.49500E+00 1.09875E+01 0.00000E+00
 -1      2259 7.79400E+00 1.17250E+01 0.00000E+00
 -1      2260 1.01119E+02 2.36777E+01 0.00000E+00
 -1      2261 1.01117E+02 2.47483E+01 0.00000E+00
 -1      2262 1.37850E+01 5.30525E+00 0.00000E+00
 -1      2263 1.22850E+01 5.30525E+00 0.00000E+00
 -1      2264 1.15350E+01 6.60425E+00 0.00000E+00
 -1      2265 9.90000E+00 4.35050E+01 0.00000E+00
 -1      2266 1.14000E+01 4.35050E+01 0.00000E+00
 -1      2267 1.29000E+01 4.35050E+01 0.00000E+00
 -1      2268 1.44000E+01 4.35050E+01 0.00000E+00
 -1      2269 1.21500E+01 4.22060E+01 0.00000E+00
 -1      2270 1.59000E+01 4.35050E+01 0.00000E+00
 -1      2271 1.74000E+01 4.35050E+01 0.00000E+00
 -1      2272 1.51500E+01 4.22060E+01 0.00000E+00
 -1      2273 1.89000E+01 4.35050E+01 0.00000E+00
 -1      2274 2.04000E+01 4.35050E+01 0.00000E+00
 -1      2275 1.81500E+01 4.22060E+01 0.00000E+00
 -1      2276 2.19000E+01 4.35050E+01 0.00000E+00
 -1      2277 2.34000E+01 4.35050E+01 0.00000E+00
 -1      2278 2.11500E+01 4.22060E+01 0.00000E+00
 -1      2279 2.49000E+01 4.35050E+01 0.00000E+00
 -1      2280 2.64000E+01 4.35050E+01 0.00000E+00
 -1      2281 2.41500E+01 4.22060E+01 0.00000E+00
 -1      2282 2.79000E+01 4.35050E+01 0.00000E+00
 -1      2283 2.94000E+01 4.35050E+01 0.00000E+00
 -1      2284 2.71500E+01 4.22060E+01 0.00000E+00
 -1      2285 3.09000E+01 4.35050E+01 0.00000E+00
 -1      2286 3.24000E+01 4.35050E+01 0.00000E+00
 -1      2287 3.01500E+01 4.22060E+01 0.00000E+00
 -1      2288 3.39000E+01 4.35050E+01 0.00000E+00
 -1      2289 3.54000E+01 4.35050E+01 0.00000E+00
 -1      2290 3.31500E+01 4.22060E+01 0.00000E+00
 -1      2291 3.69000E+01 4.35050E+01 0.00000E+00
 -1      2292 3.84000E+01 4.35050E+01 0.00000E+00
 -1      2293 3.61500E+01 4.22060E+01 0.00000E+00
 -1      2294 3.99000E+01 4.35050E+01 0.00000E+00
 -1      2295 4.14000E+01 4.35050E+01 0.00000E+00
 -1      2296 3.91500E+01 4.22060E+01 0.00000E+00
 -1      2297 4.29000E+01 4.35050E+01 0.00000E+00
 -1      2298 4.44000E+01 4.35050E+01 0.00000E+00
 -1      2299 4.21500E+01 4.22060E+01 0.00000E+00
 -1      2300 4.59000E+01 4.35050E+01 0.00000E+00
 -1      2301 4.74000E+01 4.35050E+01 0.00000E+00
 -1      2302 4.51500E+01 4.22060E+01 0.00000E+00
 -1      2303 4.89000E+01 4.35050E+01 0.00000E+00
 -1      2304 5.04000E+01 4.35050E+01 0.00000E+00
 -1      2305 4.81500E+01 4.22060E+01 0.00000E+00
 -1      2306 5.19000E+01 4.35050E+01 0.00000E+00
 -1      2307 5.34000E+01 4.35050E+01 0.00000E+00
 -1      2308 5.11500E+01 4.22060E+01 0.00000E+00
 -1      2309 5.49000E+01 4.35050E+01 0.00000E+00
 -1      2310 5.64000E+01 4.35050E+01 0.00000E+00
 -1      2311 5.41500E+01 4.22060E+01 0.00000E+00
 -1      2312 5.79000E+01 4.35050E+01 0.00000E+00
 -1      2313 5.94000E+01 4.35050E+01 0.00000E+00
 -1      2314 5.71500E+01 4.22060E+01 0.00000E+00
 -1      2315 6.09000E+01 4.35050E+01 0.00000E+00
 -1      2316 6.24000E+01 4.35050E+01 0.00000E+00
 -1      2317 6.01500E+01 4.22060E+01 0.00000E+00
 -1      2318 6.39000E+01 4.35050E+01 0.00000E+00
 -1      2319 6.54000E+01 4.35050E+01 0.00000E+00
 -1      2320 6.31500E+01 4.22060E+01 0.00000E+00
 -1      2321 6.69000E+01 4.35050E+01 0.00000E+00
 -1      2322 6.84000E+01 4.35050E+01 0.00000E+00
 -1      2323 6.61500E+01 4.22060E+01 0.00000E+00
 -1      2324 6.99000E+01 4.35050E+01 0.00000E+00
 -1      2325 7.14000E+01 4.35050E+01 0.00000E+00
 -1      2326 6.91500E+01 4.22060E+01 0.00000E+00
 -1      2327 7.29000E+01 4.35050E+01 0.00000E+00
 -1      2328 7.44000E+01 4.35050E+01 0.00000E+00
 -1      2329 7.21500E+01 4.22060E+01 0.00000E+00
 -1      2330 7.59000E+01 4.35050E+01 0.00000E+00
 -1      2331 7.74000E+01 4.35050E+01 0.00000E+00
 -1      2332 7.51500E+01 4.22060E+01 0.00000E+00
 -1      2333 7.89000E+01 4.35050E+01 0.00000E+00
 -1      2334 8.04000E+01 4.35050E+01 0.00000E+00
 -1      2335 7.81500E+01 4.22060E+01 0.00000E+00
 -1      2336 8.19000E+01 4.35050E+01 0.00000E+00
 -1      2337 8.34000E+01 4.35050E+01 0.00000E+00
 -1      2338 8.11500E+01 4.22060E+01 0.00000E+00
 -1      2339 8.49000E+01 4.35050E+01 0.00000E+00
 -1      2340 8.64000E+01 4.35050E+01 0.00000E+00
 -1      2341 8.41500E+01 4.22060E+01 0.00000E+00
 -1      2342 8.79000E+01 4.35050E+01 0.00000E+00
 -1      2343 8.94000E+01 4.35050E+01 0.00000E+00
 -1      2344 8.71500E+01 4.22060E+01 0.00000E+00
 -1      2345 9.09000E+01 4.35050E+01 0.00000E+00
 -1      2346 9.24000E+01 4.35050E+01 0.00000E+00
 -1      2347 9.01500E+01 4.22060E+01 0.00000E+00
 -1      2348 9.39000E+01 4.35050E+01 0.00000E+00
 -1      2349 9.54000E+01 4.35050E+01 0.00000E+00
 -1      2350 9.31500E+01 4.22060E+01 0.00000E+00
 -1      2351 9.69000E+01 4.35050E+01 0.00000E+00
 -1      2352 9.84000E+01 4.35050E+01 0.00000E+00
 -1      2353 9.61500E+01 4.22060E+01 0.00000E+00
 -1      2354 9.99000E+01 4.35050E+01 0.00000E+00
 -1      2355 1.01400E+02 4.35050E+01 0.00000E+00
 -1      2356 9.91500E+01 4.22060E+01 0.00000E+00
 -1      2357 1.02900E+02 4.35050E+01 0.00000E+00
 -1      2358 1.04400E+02 4.35050E+01 0.00000E+00
 -1      2359 1.02150E+02 4.22060E+01 0.00000E+00
 -1      2360 1.05900E+02 4.35050E+01 0.00000E+00
 -1      2361 1.07400E+02 4.35050E+01 0.00000E+00
 -1      2362 1.05150E+02 4.22060E+01 0.00000E+00
 -1      2363 1.08900E+02 4.35050E+01 0.00000E+00
 -1      2364 1.10400E+02 4.35050E+01 0.00000E+00
 -1      2365 1.08150E+02 4.22060E+01 0.00000E+00
 -1      2366 1.11900E+02 4.35050E+01 0.00000E+00
 -1      2367 1.13400E+02 4.35050E+01 0.00000E+00
 -1      2368 1.11150E+02 4.22060E+01 0.00000E+00
 -1      2369 1.14900E+02 4.35050E+01 0.00000E+00
 -1      2370 1.16400E+02 4.35050E+01 0.00000E+00
 -1      2371 1.14150E+02 4.22060E+01 0.00000E+00
 -1      2372 1.17900E+02 4.35050E+01 0.00000E+00
 -1      2373 1.19400E+02 4.35050E+01 0.00000E+00
 -1      2374 1.17150E+02 4.22060E+01 0.00000E+00
 -1      2375 1.20900E+02 4.35050E+01 0.00000E+00
 -1      2376 1.22400E+02 4.35050E+01 0.00000E+00
 -1      2377 1.20150E+02 4.22060E+01 0.00000E+00
 -1      2378 1.23900E+02 4.35050E+01 0.00000E+00
 -1      2379 1.25400E+02 4.35050E+01 0.00000E+00
 -1      2380 1.23150E+02 4.22060E+01 0.00000E+00
 -1      2381 1.26900E+02 4.35050E+01 0.00000E+00
 -1      2382 1.28400E+02 4.35050E+01 0.00000E+00
 -1      2383 1.26150E+02 4.22060E+01 0.00000E+00
 -1      2384 1.29900E+02 4.35050E+01 0.00000E+00
 -1      2385 1.31400E+02 4.35050E+01 0.00000E+00
 -1      2386 1.29150E+02 4.22060E+01 0.00000E+00
 -1      2387 1.32900E+02 4.35050E+01 0.00000E+00
 -1      2388 1.34400E+02 4.35050E+01 0.00000E+00
 -1      2389 1.32150E+02 4.22060E+01 0.00000E+00
 -1      2390 1.35900E+02 4.35050E+01 0.00000E+00
 -1      2391 1.37400E+02 4.35050E+01 0.00000E+00
 -1      2392 1.35150E+02 4.22060E+01 0.00000E+00
 -1      2393 1.38900E+02 4.35050E+01 0.00000E+00
 -1      2394 1.40400E+02 4.35050E+01 0.00000E+00
 -1      2395 1.38150E+02 4.22060E+01 0.00000E+00
 -1      2396 1.01108E+02 2.17365E+01 0.00000E+00
 -1      2397 1.01270E+02 2.25370E+01 0.00000E+00
 -1      2398 1.97850E+01 5.30525E+00 0.00000E+00
 -1      2399 1.82850E+01 5.30525E+00 0.00000E+00
 -1      2400 2.27850E+01 5.30525E+00 0.00000E+00
 -1      2401 2.12850E+01 5.30525E+00 0.00000E+00
 -1      2402 2.05350E+01 6.60425E+00 0.00000E+00
 -1      2403 2.57850E+01 5.30525E+00 0.00000E+00
 -1      2404 2.42850E+01 5.30525E+00 0.00000E+00
 -1      2405 2.35350E+01 6.60425E+00 0.00000E+00
 -1      2406 2.87850E+01 5.30525E+00 0.00000E+00
 -1      2407 2.72850E+01 5.30525E+00 0.00000E+00
 -1      2408 2.65350E+01 6.60425E+00 0.00000E+00
 -1      2409 3.17850E+01 5.30525E+00 0.00000E+00
 -1      2410 3.02850E+01 5.30525E+00 0.00000E+00
 -1      2411 2.95350E+01 6.60425E+00 0.00000E+00
 -1      2412 3.47850E+01 5.30525E+00 0.00000E+00
 -1      2413 3.32850E+01 5.30525E+00 0.00000E+00
 -1      2414 3.25350E+01 6.60425E+00 0.00000E+00
 -1      2415 3.77850E+01 5.30525E+00 0.00000E+00
 -1      2416 3.62850E+01 5.30525E+00 0.00000E+00
 -1      2417 3.55350E+01 6.60425E+00 0.00000E+00
 -1      2418 4.07850E+01 5.30525E+00 0.00000E+00
 -1      2419 3.92850E+01 5.30525E+00 0.00000E+00
 -1      2420 3.85350E+01 6.60425E+00 0.00000E+00
 -1      2421 4.37850E+01 5.30525E+00 0.00000E+00
 -1      2422 4.22850E+01 5.30525E+00 0.00000E+00
 -1      2423 4.15350E+01 6.60425E+00 0.00000E+00
 -1      2424 4.67850E+01 5.30525E+00 0.00000E+00
 -1      2425 4.52850E+01 5.30525E+00 0.00000E+00
 -1      2426 4.45350E+01 6.60425E+00 0.00000E+00
 -1      2427 4.97850E+01 5.30525E+00 0.00000E+00
 -1      2428 4.82850E+01 5.30525E+00 0.00000E+00
 -1      2429 4.75350E+01 6.60425E+00 0.00000E+00
 -1      2430 5.27850E+01 5.30525E+00 0.00000E+00
 -1      2431 5.12850E+01 5.30525E+00 0.00000E+00
 -1      2432 5.05350E+01 6.60425E+00 0.00000E+00
 -1      2433 5.57850E+01 5.30525E+00 0.00000E+00
 -1      2434 5.42850E+01 5.30525E+00 0.00000E+00
 -1      2435 5.35350E+01 6.60425E+00 0.00000E+00
 -1      2436 5.87850E+01 5.30525E+00 0.00000E+00
 -1      2437 5.72850E+01 5.30525E+00 0.00000E+00
 -1      2438 5.65350E+01 6.60425E+00 0.00000E+00
 -1      2439 6.17850E+01 5.30525E+00 0.00000E+00
 -1      2440 6.02850E+01 5.30525E+00 0.00000E+00
 -1      2441 5.95350E+01 6.60425E+00 0.00000E+00
 -1      2442 6.47850E+01 5.30525E+00 0.00000E+00
 -1      2443 6.32850E+01 5.30525E+00 0.00000E+00
 -1      2444 6.25350E+01 6.60425E+00 0.00000E+00
 -1      2445 6.77850E+01 5.30525E+00 0.00000E+00
 -1      2446 6.62850E+01 5.30525E+00 0.00000E+00
 -1      2447 6.55350E+01 6.60425E+00 0.00000E+00
 -1      2448 7.07850E+01 5.30525E+00 0.00000E+00
 -1      2449 6.92850E+01 5.30525E+00 0.00000E+00
 -1      2450 6.85350E+01 6.60425E+00 0.00000E+00
 -1      2451 7.37850E+01 5.30525E+00 0.00000E+00
 -1      2452 7.22850E+01 5.30525E+00 0.00000E+00
 -1      2453 7.15350E+01 6.60425E+00 0.00000E+00
 -1      2454 7.67850E+01 5.30525E+00 0.00000E+00
 -1      2455 7.52850E+01 5.30525E+00 0.00000E+00
 -1      2456 7.45350E+01 6.60425E+00 0.00000E+00
 -1      2457 7.97850E+01 5.30525E+00 0.00000E+00
 -1      2458 7.82850E+01 5.30525E+00 0.00000E+00
 -1      2459 7.75350E+01 6.60425E+00 0.00000E+00
 -1      2460 8.27850E+01 5.30525E+00 0.00000E+00
 -1      2461 8.12850E+01 5.30525E+00 0.00000E+00
 -1      2462 8.05350E+01 6.60425E+00 0.00000E+00
 -1      2463 8.57850E+01 5.30525E+00 0.00000E+00
 -1      2464 8.42850E+01 5.30525E+00 0.00000E+00
 -1      2465 8.35350E+01 6.60425E+00 0.00000E+00
 -1      2466 8.87850E+01 5.30525E+00 0.00000E+00
 -1      2467 8.72850E+01 5.30525E+00 0.00000E+00
 -1      2468 8.65350E+01 6.60425E+00 0.00000E+00
 -1      2469 9.17850E+01 5.30525E+00 0.00000E+00
 -1      2470 9.02850E+01 5.30525E+00 0.00000E+00
 -1      2471 8.95350E+01 6.60425E+00 0.00000E+00
 -1      2472 9.47850E+01 5.30525E+00 0.00000E+00
 -1      2473 9.32850E+01 5.30525E+00 0.00000E+00
 -1      2474 9.25350E+01 6.60425E+00 0.00000E+00
 -1      2475 9.77850E+01 5.30525E+00 0.00000E+00
 -1      2476 9.62850E+01 5.30525E+00 0.00000E+00
 -1      2477 9.55350E+01 6.60425E+00 0.00000E+00
 -1      2478 1.00785E+02 5.30525E+00 0.00000E+00
 -1      2479 9.92850E+01 5.30525E+00 0.00000E+00
 -1      2480 9.85350E+01 6.60425E+00 0.00000E+00
 -1      2481 1.03785E+02 5.30525E+00 0.00000E+00
 -1      2482 1.02285E+02 5.30525E+00 0.00000E+00
 -1      2483 1.01535E+02 6.60425E+00 0.00000E+00
 -1      2484 1.06785E+02 5.30525E+00 0.00000E+00
 -1      2485 1.05285E+02 5.30525E+00 0.00000E+00
 -1      2486 1.04535E+02 6.60425E+00 0.00000E+00
 -1      2487 1.09785E+02 5.30525E+00 0.00000E+00
 -1      2488 1.08285E+02 5.30525E+00 0.00000E+00
 -1      2489 1.07535E+02 6.60425E+00 0.00000E+00
 -1      2490 1.12785E+02 5.30525E+00 0.00000E+00
 -1      2491 1.11285E+02 5.30525E+00 0.00000E+00
 -1      2492 1.10535E+02 6.60425E+00 0.00000E+00
 -1      2493 1.15785E+02 5.30525E+00 0.00000E+00
 -1      2494 1.14285E+02 5.30525E+00 0.00000E+00
 -1      2495 1.13535E+02 6.60425E+00 0.00000E+00
 -1      2496 1.18785E+02 5.30525E+00 0.00000E+00
 -1      2497 1.17285E+02 5.30525E+00 0.00000E+00
 -1      2498 1.16535E+02 6.60425E+00 0.00000E+00
 -1      2499 1.21785E+02 5.30525E+00 0.00000E+00
 -1      2500 1.20285E+02 5.30525E+00 0.00000E+00
 -1      2501 1.19535E+02 6.60425E+00 0.00000E+00
 -1      2502 1.24785E+02 5.30525E+00 0.00000E+00
 -1      2503 1.23285E+02 5.30525E+00 0.00000E+00
 -1      2504 1.22535E+02 6.60425E+00 0.00000E+00
 -1      2505 1.27785E+02 5.30525E+00 0.00000E+00
 -1      2506 1.26285E+02 5.30525E+00 0.00000E+00
 -1      2507 1.25535E+02 6.60425E+00 0.00000E+00
 -1      2508 1.30785E+02 5.30525E+00 0.00000E+00
 -1      2509 1.29285E+02 5.30525E+00 0.00000E+00
 -1      2510 1.28535E+02 6.60425E+00 0.00000E+00
 -1      2511 1.33785E+02 5.30525E+00 0.00000E+00
 -1      2512 1.32285E+02 5.30525E+00 0.00000E+00
 -1      2513 1.31535E+02 6.60425E+00 0.00000E+00
 -1      2514 1.36785E+02 5.30525E+00 0.00000E+00
 -1      2515 1.35285E+02 5.30525E+00 0.00000E+00
 -1      2516 1.34535E+02 6.60425E+00 0.00000E+00
 -1      2517 1.39785E+02 5.30525E+00 0.00000E+00
 -1      2518 1.38285E+02 5.30525E+00 0.00000E+00
 -1      2519 1.37535E+02 6.60425E+00 0.00000E+00
 -1      2520 1.42785E+02 5.30525E+00 0.00000E+00
 -1      2521 1.41285E+02 5.30525E+00 0.00000E+00
 -1      2522 1.40535E+02 6.60425E+00 0.00000E+00
 -1      2523 1.44336E+02 5.26953E+00 0.00000E+00
 -1      2524 1.43505E+02 1.69125E+01 0.00000E+00
 -1      2525 1.43505E+02 1.54375E+01 0.00000E+00
 -1      2526 1.43505E+02 1.98625E+01 0.00000E+00
 -1      2527 1.43505E+02 1.83875E+01 0.00000E+00
 -1      2528 1.42206E+02 1.76500E+01 0.00000E+00
 -1      2529 1.43505E+02 1.10625E+01 0.00000E+00
 -1      2530 1.43505E+02 9.58750E+00 0.00000E+00
 -1      2531 1.43505E+02 1.39750E+01 0.00000E+00
 -1      2532 1.43505E+02 1.25250E+01 0.00000E+00
 -1      2533 1.42206E+02 1.17875E+01 0.00000E+00
 -1      2534 1.42206E+02 1.47125E+01 0.00000E+00
 -1      2535 1.43505E+02 2.28125E+01 0.00000E+00
 -1      2536 1.43505E+02 2.13375E+01 0.00000E+00
 -1      2537 1.42206E+02 2.06000E+01 0.00000E+00
 -1      2538 1.43505E+02 2.57625E+01 0.00000E+00
 -1      2539 1.43505E+02 2.42875E+01 0.00000E+00
 -1      2540 1.42206E+02 2.35500E+01 0.00000E+00
 -1      2541 1.43505E+02 2.87125E+01 0.00000E+00
 -1      2542 1.43505E+02 2.72375E+01 0.00000E+00
 -1      2543 1.42206E+02 2.65000E+01 0.00000E+00
 -1      2544 1.43505E+02 3.16125E+01 0.00000E+00
 -1      2545 1.43505E+02 3.01625E+01 0.00000E+00
 -1      2546 1.42206E+02 2.94250E+01 0.00000E+00
 -1      2547 1.43505E+02 3.45625E+01 0.00000E+00
 -1      2548 1.43505E+02 3.30875E+01 0.00000E+00
 -1      2549 1.42206E+02 3.23500E+01 0.00000E+00
 -1      2550 1.43505E+02 3.75125E+01 0.00000E+00
 -1      2551 1.43505E+02 3.60375E+01 0.00000E+00
 -1      2552 1.42206E+02 3.53000E+01 0.00000E+00
 -1      2553 1.43505E+02 4.04625E+01 0.00000E+00
 -1      2554 1.43505E+02 3.89875E+01 0.00000E+00
 -1      2555 1.42206E+02 3.82500E+01 0.00000E+00
 -1      2556 1.44321E+02 4.30606E+01 0.00000E+00
 -1      2557 9.83606E+01 1.79933E+01 0.00000E+00
 -1      2558 9.90409E+01 1.87117E+01 0.00000E+00
 -1      2559 1.67850E+01 5.30525E+00 0.00000E+00
 -1      2560 1.52850E+01 5.30525E+00 0.00000E+00
 -1      2561 1.75350E+01 6.60425E+00 0.00000E+00
 -1      2562 9.67357E+01 1.68595E+01 0.00000E+00
 -1      2563 9.74421E+01 1.74269E+01 0.00000E+00
 -1      2564 9.97222E+01 1.96694E+01 0.00000E+00
 -1      2565 1.00384E+02 2.05802E+01 0.00000E+00
 -1      2566 1.01144E+02 2.58134E+01 0.00000E+00
 -1      2567 1.01044E+02 2.66802E+01 0.00000E+00
 -1      2568 8.11070E+01 2.83199E+01 0.00000E+00
 -1      2569 8.07859E+01 2.72822E+01 0.00000E+00
 -1      2570 8.09014E+01 2.21167E+01 0.00000E+00
 -1      2571 8.14168E+01 2.10725E+01 0.00000E+00
 -1      2572 8.28598E+01 1.84891E+01 0.00000E+00
 -1      2573 8.34657E+01 1.77267E+01 0.00000E+00
 -1      2574 6.49500E+00 2.71625E+01 0.00000E+00
 -1      2575 6.49500E+00 2.86375E+01 0.00000E+00
 -1      2576 7.79400E+00 2.93750E+01 0.00000E+00
 -1      2577 7.79400E+00 2.64250E+01 0.00000E+00
 -1      2578 8.81325E+01 1.52085E+01 0.00000E+00
 -1      2579 8.91257E+01 1.48985E+01 0.00000E+00
 -1      2580 9.26680E+01 1.48991E+01 0.00000E+00
 -1      2581 9.35147E+01 1.50361E+01 0.00000E+00
 -1      2582 8.01596E+01 2.43217E+01 0.00000E+00
 -1      2583 8.02983E+01 2.33288E+01 0.00000E+00
 -1      2584 9.04630E+01 1.48641E+01 0.00000E+00
 -1      2585 9.15655E+01 1.48816E+01 0.00000E+00
 -1      2586 9.21258E+01 1.41035E+01 0.00000E+00
 -1      2587 8.63465E+01 1.58462E+01 0.00000E+00
 -1      2588 8.72395E+01 1.55273E+01 0.00000E+00
 -1      2589 8.74556E+01 1.44738E+01 0.00000E+00
 -1      2590 8.44327E+01 1.68922E+01 0.00000E+00
 -1      2591 8.52779E+01 1.64026E+01 0.00000E+00
 -1      2592 8.18947E+01 2.01037E+01 0.00000E+00
 -1      2593 8.23435E+01 1.93684E+01 0.00000E+00
 -1      2594 8.16829E+01 3.03321E+01 0.00000E+00
 -1      2595 8.13147E+01 2.94132E+01 0.00000E+00
 -1      2596 8.03726E+01 2.62943E+01 0.00000E+00
 -1      2597 8.02416E+01 2.54888E+01 0.00000E+00
 -1      2598 8.67324E+01 3.46569E+01 0.00000E+00
 -1      2599 8.59069E+01 3.42409E+01 0.00000E+00
 -1      2600 8.27350E+01 3.20954E+01 0.00000E+00
 -1      2601 8.22153E+01 3.13366E+01 0.00000E+00
 -1      2602 8.87067E+01 3.54748E+01 0.00000E+00
 -1      2603 8.77166E+01 3.51783E+01 0.00000E+00
 -1      2604 9.09190E+01 3.57781E+01 0.00000E+00
 -1      2605 8.99323E+01 3.57814E+01 0.00000E+00
 -1      2606 9.31775E+01 3.53662E+01 0.00000E+00
 -1      2607 9.20482E+01 3.55722E+01 0.00000E+00
 -1      2608 9.15580E+01 3.65151E+01 0.00000E+00
 -1      2609 9.52856E+01 3.46454E+01 0.00000E+00
 -1      2610 9.44382E+01 3.50201E+01 0.00000E+00
 -1      2611 9.71678E+01 3.34824E+01 0.00000E+00
 -1      2612 9.62583E+01 3.40673E+01 0.00000E+00
 -1      2613 9.88466E+01 3.20365E+01 0.00000E+00
 -1      2614 9.81129E+01 3.27405E+01 0.00000E+00
 -1      2615 1.00073E+02 3.01196E+01 0.00000E+00
 -1      2616 9.96382E+01 3.10193E+01 0.00000E+00
 -1      2617 6.55950E+00 4.28890E+01 0.00000E+00
 -1      2618 8.53650E+00 4.32410E+01 0.00000E+00
 -1      2619 9.28650E+00 4.19420E+01 0.00000E+00
 -1      2620 6.55950E+00 4.14140E+01 0.00000E+00
 -1      2621 8.07525E+00 5.11044E+00 0.00000E+00
 -1      2622 6.57525E+00 5.11044E+00 0.00000E+00
 -1      2623 6.40575E+00 6.01981E+00 0.00000E+00
 -1      2624 8.82525E+00 6.40944E+00 0.00000E+00
 -1      2625 8.96860E+01 1.41205E+01 0.00000E+00
 -1      2626 7.79400E+00 3.52687E+01 0.00000E+00
 -1      2627 6.49500E+00 3.60062E+01 0.00000E+00
 -1      2628 6.49500E+00 3.74750E+01 0.00000E+00
 -1      2629 1.01919E+02 2.52797E+01 0.00000E+00
 -1      2630 1.02042E+02 2.30739E+01 0.00000E+00
 -1      2631 6.40575E+00 7.49481E+00 0.00000E+00
 -1      2632 9.42831E+01 1.47860E+01 0.00000E+00
 -1      2633 9.64425E+01 1.60118E+01 0.00000E+00
 -1      2634 9.39480E+01 3.59631E+01 0.00000E+00
 -1      2635 8.92032E+01 3.64145E+01 0.00000E+00
 -1      2636 1.00066E+02 1.86629E+01 0.00000E+00
 -1      2637 1.01470E+02 2.07769E+01 0.00000E+00
 -1      2638 9.84658E+01 1.71389E+01 0.00000E+00
 -1      2639 1.43586E+02 6.56853E+00 0.00000E+00
 -1      2640 1.43419E+02 7.72713E+00 0.00000E+00
 -1      2641 8.29067E+01 3.28692E+01 0.00000E+00
 -1      2642 8.19394E+01 3.29744E+01 0.00000E+00
 -1      2643 8.30785E+01 3.36430E+01 0.00000E+00
 -1      2644 1.42758E+02 4.35929E+01 0.00000E+00
 -1      2645 1.43241E+02 4.17323E+01 0.00000E+00
 -1      2646 1.41942E+02 4.09948E+01 0.00000E+00
 -1      2647 1.41414E+02 4.35342E+01 0.00000E+00
 -1      2648 8.69934E+01 3.55865E+01 0.00000E+00
 -1      2649 7.98740E+01 2.70171E+01 0.00000E+00
 -1      2650 1.45350E+01 6.60425E+00 0.00000E+00
 -1      2651 1.01423E+02 2.74135E+01 0.00000E+00
 -1      2652 1.00764E+02 2.97125E+01 0.00000E+00
 -1      2653 6.55950E+00 3.99453E+01 0.00000E+00
 -1      2654 9.98361E+01 3.19598E+01 0.00000E+00
 -1      2655 9.80994E+01 3.37190E+01 0.00000E+00
 -1      2656 8.12352E+01 3.11961E+01 0.00000E+00
 -1      2657 8.09807E+01 2.03018E+01 0.00000E+00
 -1      2658 7.93787E+01 2.48621E+01 0.00000E+00
 -1      2659 8.19750E+01 1.84537E+01 0.00000E+00
 -1      2660 7.98998E+01 2.24828E+01 0.00000E+00
 -1      2661 8.50275E+01 3.43015E+01 0.00000E+00
 -1      2662 8.41481E+01 3.43620E+01 0.00000E+00
 -1      2663 8.51297E+01 3.51256E+01 0.00000E+00
 -1      2664 8.04950E+01 2.90982E+01 0.00000E+00
 -1      2665 8.34584E+01 1.67399E+01 0.00000E+00
 -1      2666 8.54940E+01 1.53490E+01 0.00000E+00
 -1      2667 7.70475E+00 8.23231E+00 0.00000E+00
 -1      2668 9.61815E+01 3.50390E+01 0.00000E+00
 -1      2669 1.42120E+02 8.46463E+00 0.00000E+00
 -1      2670 1.40664E+02 4.22352E+01 0.00000E+00
 -1      2671 9.09300E+00 1.98250E+01 0.00000E+00
 -1      2672 9.09300E+00 2.12750E+01 0.00000E+00
 -1      2673 9.09300E+00 2.27500E+01 0.00000E+00
 -1      2674 9.09300E+00 2.42250E+01 0.00000E+00
 -1      2675 1.03920E+01 2.20250E+01 0.00000E+00
 -1      2676 9.09300E+00 1.39375E+01 0.00000E+00
 -1      2677 9.09300E+00 1.54125E+01 0.00000E+00
 -1      2678 9.09300E+00 1.09875E+01 0.00000E+00
 -1      2679 9.09300E+00 1.24625E+01 0.00000E+00
 -1      2680 1.03920E+01 1.32000E+01 0.00000E+00
 -1      2681 9.71060E+01 3.54872E+01 0.00000E+00
 -1      2682 9.61332E+01 3.60652E+01 0.00000E+00
 -1      2683 1.22850E+01 7.90325E+00 0.00000E+00
 -1      2684 1.07850E+01 7.90325E+00 0.00000E+00
 -1      2685 1.02721E+02 2.47263E+01 0.00000E+00
 -1      2686 1.02748E+02 2.57914E+01 0.00000E+00
 -1      2687 8.91450E+00 8.42712E+00 0.00000E+00
 -1      2688 1.44000E+01 4.09070E+01 0.00000E+00
 -1      2689 1.59000E+01 4.09070E+01 0.00000E+00
 -1      2690 1.74000E+01 4.09070E+01 0.00000E+00
 -1      2691 1.89000E+01 4.09070E+01 0.00000E+00
 -1      2692 1.66500E+01 3.96080E+01 0.00000E+00
 -1      2693 2.04000E+01 4.09070E+01 0.00000E+00
 -1      2694 2.19000E+01 4.09070E+01 0.00000E+00
 -1      2695 1.96500E+01 3.96080E+01 0.00000E+00
 -1      2696 2.34000E+01 4.09070E+01 0.00000E+00
 -1      2697 2.49000E+01 4.09070E+01 0.00000E+00
 -1      2698 2.26500E+01 3.96080E+01 0.00000E+00
 -1      2699 2.64000E+01 4.09070E+01 0.00000E+00
 -1      2700 2.79000E+01 4.09070E+01 0.00000E+00
 -1      2701 2.56500E+01 3.96080E+01 0.00000E+00
 -1      2702 2.94000E+01 4.09070E+01 0.00000E+00
 -1      2703 3.09000E+01 4.09070E+01 0.00000E+00
 -1      2704 2.86500E+01 3.96080E+01 0.00000E+00
 -1      2705 3.24000E+01 4.09070E+01 0.00000E+00
 -1      2706 3.39000E+01 4.09070E+01 0.00000E+00
 -1      2707 3.16500E+01 3.96080E+01 0.00000E+00
 -1      2708 3.54000E+01 4.09070E+01 0.00000E+00
 -1      2709 3.69000E+01 4.09070E+01 0.00000E+00
 -1      2710 3.46500E+01 3.96080E+01 0.00000E+00
 -1      2711 3.84000E+01 4.09070E+01 0.00000E+00
 -1      2712 3.99000E+01 4.09070E+01 0.00000E+00
 -1      2713 3.76500E+01 3.96080E+01 0.00000E+00
 -1      2714 4.14000E+01 4.09070E+01 0.00000E+00
 -1      2715 4.29000E+01 4.09070E+01 0.00000E+00
 -1      2716 4.06500E+01 3.96080E+01 0.00000E+00
 -1      2717 4.44000E+01 4.09070E+01 0.00000E+00
 -1      2718 4.59000E+01 4.09070E+01 0.00000E+00
 -1      2719 4.36500E+01 3.96080E+01 0.00000E+00
 -1      2720 4.74000E+01 4.09070E+01 0.00000E+00
 -1      2721 4.89000E+01 4.09070E+01 0.00000E+00
 -1      2722 4.66500E+01 3.96080E+01 0.00000E+00
 -1      2723 5.04000E+01 4.09070E+01 0.00000E+00
 -1      2724 5.19000E+01 4.09070E+01 0.00000E+00
 -1      2725 4.96500E+01 3.96080E+01 0.00000E+00
 -1      2726 5.34000E+01 4.09070E+01 0.00000E+00
 -1      2727 5.49000E+01 4.09070E+01 0.00000E+00
 -1      2728 5.26500E+01 3.96080E+01 0.00000E+00
 -1      2729 5.64000E+01 4.09070E+01 0.00000E+00
 -1      2730 5.79000E+01 4.09070E+01 0.00000E+00
 -1      2731 5.56500E+01 3.96080E+01 0.00000E+00
 -1      2732 5.94000E+01 4.09070E+01 0.00000E+00
 -1      2733 6.09000E+01 4.09070E+01 0.00000E+00
 -1      2734 5.86500E+01 3.96080E+01 0.00000E+00
 -1      2735 6.24000E+01 4.09070E+01 0.00000E+00
 -1      2736 6.39000E+01 4.09070E+01 0.00000E+00
 -1      2737 6.16500E+01 3.96080E+01 0.00000E+00
 -1      2738 6.54000E+01 4.09070E+01 0.00000E+00
 -1      2739 6.69000E+01 4.09070E+01 0.00000E+00
 -1      2740 6.46500E+01 3.96080E+01 0.00000E+00
 -1      2741 6.84000E+01 4.09070E+01 0.00000E+00
 -1      2742 6.99000E+01 4.09070E+01 0.00000E+00
 -1      2743 6.76500E+01 3.96080E+01 0.00000E+00
 -1      2744 7.14000E+01 4.09070E+01 0.00000E+00
 -1      2745 7.29000E+01 4.09070E+01 0.00000E+00
 -1      2746 7.06500E+01 3.96080E+01 0.00000E+00
 -1      2747 7.44000E+01 4.09070E+01 0.00000E+00
 -1      2748 7.59000E+01 4.09070E+01 0.00000E+00
 -1      2749 7.36500E+01 3.96080E+01 0.00000E+00
 -1      2750 7.74000E+01 4.09070E+01 0.00000E+00
 -1      2751 7.89000E+01 4.09070E+01 0.00000E+00
 -1      2752 7.66500E+01 3.96080E+01 0.00000E+00
 -1      2753 8.04000E+01 4.09070E+01 0.00000E+00
 -1      2754 8.19000E+01 4.09070E+01 0.00000E+00
 -1      2755 7.96500E+01 3.96080E+01 0.00000E+00
 -1      2756 8.34000E+01 4.09070E+01 0.00000E+00
 -1      2757 8.49000E+01 4.09070E+01 0.00000E+00
 -1      2758 8.26500E+01 3.96080E+01 0.00000E+00
 -1      2759 8.64000E+01 4.09070E+01 0.00000E+00
 -1      2760 8.79000E+01 4.09070E+01 0.00000E+00
 -1      2761 8.56500E+01 3.96080E+01 0.00000E+00
 -1      2762 8.94000E+01 4.09070E+01 0.00000E+00
 -1      2763 9.09000E+01 4.09070E+01 0.00000E+00
 -1      2764 8.86500E+01 3.96080E+01 0.00000E+00
 -1      2765 9.24000E+01 4.09070E+01 0.00000E+00
 -1      2766 9.39000E+01 4.09070E+01 0.00000E+00
 -1      2767 9.16500E+01 3.96080E+01 0.00000E+00
 -1      2768 9.54000E+01 4.09070E+01 0.00000E+00
 -1      2769 9.69000E+01 4.09070E+01 0.00000E+00
 -1      2770 9.46500E+01 3.96080E+01 0.00000E+00
 -1      2771 9.84000E+01 4.09070E+01 0.00000E+00
 -1      2772 9.99000E+01 4.09070E+01 0.00000E+00
 -1      2773 9.76500E+01 3.96080E+01 0.00000E+00
 -1      2774 1.01400E+02 4.09070E+01 0.00000E+00
 -1      2775 1.02900E+02 4.09070E+01 0.00000E+00
 -1      2776 1.00650E+02 3.96080E+01 0.00000E+00
 -1      2777 1.04400E+02 4.09070E+01 0.00000E+00
 -1      2778 1.05900E+02 4.09070E+01 0.00000E+00
 -1      2779 1.03650E+02 3.96080E+01 0.00000E+00
 -1      2780 1.07400E+02 4.09070E+01 0.00000E+00
 -1      2781 1.08900E+02 4.09070E+01 0.00000E+00
 -1      2782 1.06650E+02 3.96080E+01 0.00000E+00
 -1      2783 1.10400E+02 4.09070E+01 0.00000E+00
 -1      2784 1.11900E+02 4.09070E+01 0.00000E+00
 -1      2785 1.09650E+02 3.96080E+01 0.00000E+00
 -1      2786 1.13400E+02 4.09070E+01 0.00000E+00
 -1      2787 1.14900E+02 4.09070E+01 0.00000E+00
 -1      2788 1.12650E+02 3.96080E+01 0.00000E+00
 -1      2789 1.16400E+02 4.09070E+01 0.00000E+00
 -1      2790 1.17900E+02 4.09070E+01 0.00000E+00
 -1      2791 1.15650E+02 3.96080E+01 0.00000E+00
 -1      2792 1.19400E+02 4.09070E+01 0.00000E+00
 -1      2793 1.20900E+02 4.09070E+01 0.00000E+00
 -1      2794 1.18650E+02 3.96080E+01 0.00000E+00
 -1      2795 1.22400E+02 4.09070E+01 0.00000E+00
 -1      2796 1.23900E+02 4.09070E+01 0.00000E+00
 -1      2797 1.21650E+02 3.96080E+01 0.00000E+00
 -1      2798 1.25400E+02 4.09070E+01 0.00000E+00
 -1      2799 1.26900E+02 4.09070E+01 0.00000E+00
 -1      2800 1.24650E+02 3.96080E+01 0.00000E+00
 -1      2801 1.28400E+02 4.09070E+01 0.00000E+00
 -1      2802 1.29900E+02 4.09070E+01 0.00000E+00
 -1      2803 1.27650E+02 3.96080E+01 0.00000E+00
 -1      2804 1.31400E+02 4.09070E+01 0.00000E+00
 -1      2805 1.32900E+02 4.09070E+01 0.00000E+00
 -1      2806 1.30650E+02 3.96080E+01 0.00000E+00
 -1      2807 1.34400E+02 4.09070E+01 0.00000E+00
 -1      2808 1.35900E+02 4.09070E+01 0.00000E+00
 -1      2809 1.33650E+02 3.96080E+01 0.00000E+00
 -1      2810 1.37400E+02 4.09070E+01 0.00000E+00
 -1      2811 1.38900E+02 4.09070E+01 0.00000E+00
 -1      2812 1.36650E+02 3.96080E+01 0.00000E+00
 -1      2813 8.70841E+01 3.66050E+01 0.00000E+00
 -1      2814 8.60998E+01 3.60836E+01 0.00000E+00
 -1      2815 2.12850E+01 7.90325E+00 0.00000E+00
 -1      2816 1.97850E+01 7.90325E+00 0.00000E+00
 -1      2817 3.02850E+01 7.90325E+00 0.00000E+00
 -1      2818 2.87850E+01 7.90325E+00 0.00000E+00
 -1      2819 3.32850E+01 7.90325E+00 0.00000E+00
 -1      2820 3.17850E+01 7.90325E+00 0.00000E+00
 -1      2821 3.10350E+01 9.20225E+00 0.00000E+00
 -1      2822 3.62850E+01 7.90325E+00 0.00000E+00
 -1      2823 3.47850E+01 7.90325E+00 0.00000E+00
 -1      2824 3.40350E+01 9.20225E+00 0.00000E+00
 -1      2825 3.92850E+01 7.90325E+00 0.00000E+00
 -1      2826 3.77850E+01 7.90325E+00 0.00000E+00
 -1      2827 3.70350E+01 9.20225E+00 0.00000E+00
 -1      2828 4.22850E+01 7.90325E+00 0.00000E+00
 -1      2829 4.07850E+01 7.90325E+00 0.00000E+00
 -1      2830 4.00350E+01 9.20225E+00 0.00000E+00
 -1      2831 4.52850E+01 7.90325E+00 0.00000E+00
 -1      2832 4.37850E+01 7.90325E+00 0.00000E+00
 -1      2833 4.30350E+01 9.20225E+00 0.00000E+00
 -1      2834 4.82850E+01 7.90325E+00 0.00000E+00
 -1      2835 4.67850E+01 7.90325E+00 0.00000E+00
 -1      2836 4.60350E+01 9.20225E+00 0.00000E+00
 -1      2837 5.12850E+01 7.90325E+00 0.00000E+00
 -1      2838 4.97850E+01 7.90325E+00 0.00000E+00
 -1      2839 4.90350E+01 9.20225E+00 0.00000E+00
 -1      2840 5.42850E+01 7.90325E+00 0.00000E+00
 -1      2841 5.27850E+01 7.90325E+00 0.00000E+00
 -1      2842 5.20350E+01 9.20225E+00 0.00000E+00
 -1      2843 5.72850E+01 7.90325E+00 0.00000E+00
 -1      2844 5.57850E+01 7.90325E+00 0.00000E+00
 -1      2845 5.50350E+01 9.20225E+00 0.00000E+00
 -1      2846 6.02850E+01 7.90325E+00 0.00000E+00
 -1      2847 5.87850E+01 7.90325E+00 0.00000E+00
 -1      2848 5.80350E+01 9.20225E+00 0.00000E+00
 -1      2849 6.32850E+01 7.90325E+00 0.00000E+00
 -1      2850 6.17850E+01 7.90325E+00 0.00000E+00
 -1      2851 6.10350E+01 9.20225E+00 0.00000E+00
 -1      2852 6.62850E+01 7.90325E+00 0.00000E+00
 -1      2853 6.47850E+01 7.90325E+00 0.00000E+00
 -1      2854 6.40350E+01 9.20225E+00 0.00000E+00
 -1      2855 6.92850E+01 7.90325E+00 0.00000E+00
 -1      2856 6.77850E+01 7.90325E+00 0.00000E+00
 -1      2857 6.70350E+01 9.20225E+00 0.00000E+00
 -1      2858 7.22850E+01 7.90325E+00 0.00000E+00
 -1      2859 7.07850E+01 7.90325E+00 0.00000E+00
 -1      2860 7.00350E+01 9.20225E+00 0.00000E+00
 -1      2861 7.52850E+01 7.90325E+00 0.00000E+00
 -1      2862 7.37850E+01 7.90325E+00 0.00000E+00
 -1      2863 7.30350E+01 9.20225E+00 0.00000E+00
 -1      2864 7.82850E+01 7.90325E+00 0.00000E+00
 -1      2865 7.67850E+01 7.90325E+00 0.00000E+00
 -1      2866 7.60350E+01 9.20225E+00 0.00000E+00
 -1      2867 8.12850E+01 7.90325E+00 0.00000E+00
 -1      2868 7.97850E+01 7.90325E+00 0.00000E+00
 -1      2869 7.90350E+01 9.20225E+00 0.00000E+00
 -1      2870 8.42850E+01 7.90325E+00 0.00000E+00
 -1      2871 8.27850E+01 7.90325E+00 0.00000E+00
 -1      2872 8.20350E+01 9.20225E+00 0.00000E+00
 -1      2873 8.72850E+01 7.90325E+00 0.00000E+00
 -1      2874 8.57850E+01 7.90325E+00 0.00000E+00
 -1      2875 8.50350E+01 9.20225E+00 0.00000E+00
 -1      2876 9.02850E+01 7.90325E+00 0.00000E+00
 -1      2877 8.87850E+01 7.90325E+00 0.00000E+00
 -1      2878 8.80350E+01 9.20225E+00 0.00000E+00
 -1      2879 9.32850E+01 7.90325E+00 0.00000E+00
 -1      2880 9.17850E+01 7.90325E+00 0.00000E+00
 -1      2881 9.10350E+01 9.20225E+00 0.00000E+00
 -1      2882 9.62850E+01 7.90325E+00 0.00000E+00
 -1      2883 9.47850E+01 7.90325E+00 0.00000E+00
 -1      2884 9.40350E+01 9.20225E+00 0.00000E+00
 -1      2885 9.92850E+01 7.90325E+00 0.00000E+00
 -1      2886 9.77850E+01 7.90325E+00 0.00000E+00
 -1      2887 9.70350E+01 9.20225E+00 0.00000E+00
 -1      2888 1.02285E+02 7.90325E+00 0.00000E+00
 -1      2889 1.00785E+02 7.90325E+00 0.00000E+00
 -1      2890 1.00035E+02 9.20225E+00 0.00000E+00
 -1      2891 1.05285E+02 7.90325E+00 0.00000E+00
 -1      2892 1.03785E+02 7.90325E+00 0.00000E+00
 -1      2893 1.03035E+02 9.20225E+00 0.00000E+00
 -1      2894 1.08285E+02 7.90325E+00 0.00000E+00
 -1      2895 1.06785E+02 7.90325E+00 0.00000E+00
 -1      2896 1.06035E+02 9.20225E+00 0.00000E+00
 -1      2897 1.11285E+02 7.90325E+00 0.00000E+00
 -1      2898 1.09785E+02 7.90325E+00 0.00000E+00
 -1      2899 1.09035E+02 9.20225E+00 0.00000E+00
 -1      2900 1.14285E+02 7.90325E+00 0.00000E+00
 -1      2901 1.12785E+02 7.90325E+00 0.00000E+00
 -1      2902 1.12035E+02 9.20225E+00 0.00000E+00
 -1      2903 1.17285E+02 7.90325E+00 0.00000E+00
 -1      2904 1.15785E+02 7.90325E+00 0.00000E+00
 -1      2905 1.15035E+02 9.20225E+00 0.00000E+00
 -1      2906 1.20285E+02 7.90325E+00 0.00000E+00
 -1      2907 1.18785E+02 7.90325E+00 0.00000E+00
 -1      2908 1.18035E+02 9.20225E+00 0.00000E+00
 -1      2909 1.23285E+02 7.90325E+00 0.00000E+00
 -1      2910 1.21785E+02 7.90325E+00 0.00000E+00
 -1      2911 1.21035E+02 9.20225E+00 0.00000E+00
 -1      2912 1.26285E+02 7.90325E+00 0.00000E+00
 -1      2913 1.24785E+02 7.90325E+00 0.00000E+00
 -1      2914 1.24035E+02 9.20225E+00 0.00000E+00
 -1      2915 1.29285E+02 7.90325E+00 0.00000E+00
 -1      2916 1.27785E+02 7.90325E+00 0.00000E+00
 -1      2917 1.27035E+02 9.20225E+00 0.00000E+00
 -1      2918 1.32285E+02 7.90325E+00 0.00000E+00
 -1      2919 1.30785E+02 7.90325E+00 0.00000E+00
 -1      2920 1.30035E+02 9.20225E+00 0.00000E+00
 -1      2921 1.35285E+02 7.90325E+00 0.00000E+00
 -1      2922 1.33785E+02 7.90325E+00 0.00000E+00
 -1      2923 1.33035E+02 9.20225E+00 0.00000E+00
 -1      2924 1.38285E+02 7.90325E+00 0.00000E+00
 -1      2925 1.36785E+02 7.90325E+00 0.00000E+00
 -1      2926 1.36035E+02 9.20225E+00 0.00000E+00
 -1      2927 1.40953E+02 8.18394E+00 0.00000E+00
 -1      2928 1.39453E+02 8.18394E+00 0.00000E+00
 -1      2929 1.38703E+02 9.48294E+00 0.00000E+00
 -1      2930 1.41038E+02 1.00443E+01 0.00000E+00
 -1      2931 1.40907E+02 2.42875E+01 0.00000E+00
 -1      2932 1.40907E+02 2.28125E+01 0.00000E+00
 -1      2933 1.39914E+02 4.09362E+01 0.00000E+00
 -1      2934 1.40928E+02 4.09655E+01 0.00000E+00
 -1      2935 1.39164E+02 3.96372E+01 0.00000E+00
 -1      2936 1.40907E+02 1.83875E+01 0.00000E+00
 -1      2937 1.40907E+02 1.69125E+01 0.00000E+00
 -1      2938 1.40907E+02 2.72375E+01 0.00000E+00
 -1      2939 1.40907E+02 2.57625E+01 0.00000E+00
 -1      2940 1.39608E+02 2.50250E+01 0.00000E+00
 -1      2941 1.40907E+02 2.13375E+01 0.00000E+00
 -1      2942 1.40907E+02 1.98625E+01 0.00000E+00
 -1      2943 1.39608E+02 1.91250E+01 0.00000E+00
 -1      2944 1.39608E+02 2.20750E+01 0.00000E+00
 -1      2945 1.02049E+02 1.96106E+01 0.00000E+00
 -1      2946 1.02772E+02 2.07670E+01 0.00000E+00
 -1      2947 1.40907E+02 3.01375E+01 0.00000E+00
 -1      2948 1.40907E+02 2.86875E+01 0.00000E+00
 -1      2949 1.39608E+02 2.79500E+01 0.00000E+00
 -1      2950 1.40907E+02 3.30875E+01 0.00000E+00
 -1      2951 1.40907E+02 3.16125E+01 0.00000E+00
 -1      2952 1.39608E+02 3.08750E+01 0.00000E+00
 -1      2953 1.40907E+02 3.60375E+01 0.00000E+00
 -1      2954 1.40907E+02 3.45625E+01 0.00000E+00
 -1      2955 1.39608E+02 3.38250E+01 0.00000E+00
 -1      2956 1.82850E+01 7.90325E+00 0.00000E+00
 -1      2957 1.67850E+01 7.90325E+00 0.00000E+00
 -1      2958 1.90350E+01 9.20225E+00 0.00000E+00
 -1      2959 9.47943E+01 3.65766E+01 0.00000E+00
 -1      2960 9.35335E+01 3.69227E+01 0.00000E+00
 -1      2961 9.85445E+01 1.59832E+01 0.00000E+00
 -1      2962 9.94631E+01 1.65495E+01 0.00000E+00
 -1      2963 1.01642E+02 2.91870E+01 0.00000E+00
 -1      2964 1.01506E+02 3.04172E+01 0.00000E+00
 -1      2965 7.85850E+00 3.92077E+01 0.00000E+00
 -1      2966 1.52850E+01 7.90325E+00 0.00000E+00
 -1      2967 1.37850E+01 7.90325E+00 0.00000E+00
 -1      2968 1.30350E+01 9.20225E+00 0.00000E+00
 -1      2969 1.60350E+01 9.20225E+00 0.00000E+00
 -1      2970 7.83971E+01 2.55175E+01 0.00000E+00
 -1      2971 7.83151E+01 2.43504E+01 0.00000E+00
 -1      2972 1.03022E+02 2.24449E+01 0.00000E+00
 -1      2973 1.02871E+02 2.35856E+01 0.00000E+00
 -1      2974 1.03700E+02 2.40973E+01 0.00000E+00
 -1      2975 2.72850E+01 7.90325E+00 0.00000E+00
 -1      2976 2.57850E+01 7.90325E+00 0.00000E+00
 -1      2977 2.80350E+01 9.20225E+00 0.00000E+00
 -1      2978 2.42850E+01 7.90325E+00 0.00000E+00
 -1      2979 2.27850E+01 7.90325E+00 0.00000E+00
 -1      2980 2.50350E+01 9.20225E+00 0.00000E+00
 -1      2981 1.14000E+01 4.09070E+01 0.00000E+00
 -1      2982 1.29000E+01 4.09070E+01 0.00000E+00
 -1      2983 1.36500E+01 3.96080E+01 0.00000E+00
 -1      2984 8.66926E+01 1.37467E+01 0.00000E+00
 -1      2985 8.75856E+01 1.34278E+01 0.00000E+00
 -1      2986 9.43024E+01 1.35864E+01 0.00000E+00
 -1      2987 9.53572E+01 1.42514E+01 0.00000E+00
 -1      2988 1.01041E+02 3.20808E+01 0.00000E+00
 -1      2989 1.00249E+02 3.30980E+01 0.00000E+00
 -1      2990 1.02689E+02 2.70495E+01 0.00000E+00
 -1      2991 1.02166E+02 2.81183E+01 0.00000E+00
 -1      2992 1.02908E+02 2.88230E+01 0.00000E+00
 -1      2993 9.63985E+01 1.48369E+01 0.00000E+00
 -1      2994 9.75032E+01 1.53977E+01 0.00000E+00
 -1      2995 9.85005E+01 1.48082E+01 0.00000E+00
 -1      2996 9.64178E+01 1.36372E+01 0.00000E+00
 -1      2997 9.09300E+00 1.68813E+01 0.00000E+00
 -1      2998 9.09300E+00 1.83563E+01 0.00000E+00
 -1      2999 1.03920E+01 1.90812E+01 0.00000E+00
 -1      3000 1.03920E+01 1.61437E+01 0.00000E+00
 -1      3001 9.15895E+01 1.31536E+01 0.00000E+00
 -1      3002 9.26920E+01 1.31711E+01 0.00000E+00
 -1      3003 8.45250E+01 1.47922E+01 0.00000E+00
 -1      3004 8.55936E+01 1.42358E+01 0.00000E+00
 -1      3005 7.88304E+01 2.27069E+01 0.00000E+00
 -1      3006 7.94335E+01 2.14948E+01 0.00000E+00
 -1      3007 8.24146E+01 1.65079E+01 0.00000E+00
 -1      3008 8.33816E+01 1.56734E+01 0.00000E+00
 -1      3009 9.09300E+00 3.15875E+01 0.00000E+00
 -1      3010 9.09300E+00 3.30625E+01 0.00000E+00
 -1      3011 8.09773E+01 1.84590E+01 0.00000E+00
 -1      3012 8.14937E+01 1.75798E+01 0.00000E+00
 -1      3013 7.97564E+01 2.98050E+01 0.00000E+00
 -1      3014 7.95487E+01 2.87117E+01 0.00000E+00
 -1      3015 8.00103E+01 2.04254E+01 0.00000E+00
 -1      3016 8.04881E+01 1.94566E+01 0.00000E+00
 -1      3017 7.91354E+01 2.77238E+01 0.00000E+00
 -1      3018 7.87220E+01 2.67359E+01 0.00000E+00
 -1      3019 7.83967E+01 2.84305E+01 0.00000E+00
 -1      3020 8.89148E+01 1.32224E+01 0.00000E+00
 -1      3021 9.02522E+01 1.31880E+01 0.00000E+00
 -1      3022 9.08183E+01 1.22555E+01 0.00000E+00
 -1      3023 1.41192E+02 3.96958E+01 0.00000E+00
 -1      3024 1.00686E+02 1.76954E+01 0.00000E+00
 -1      3025 1.01367E+02 1.86530E+01 0.00000E+00
 -1      3026 1.02669E+02 1.86431E+01 0.00000E+00
 -1      3027 9.22690E+01 3.72146E+01 0.00000E+00
 -1      3028 9.11397E+01 3.74205E+01 0.00000E+00
 -1      3029 8.06697E+01 3.21392E+01 0.00000E+00
 -1      3030 8.01372E+01 3.11347E+01 0.00000E+00
 -1      3031 9.91532E+01 3.40885E+01 0.00000E+00
 -1      3032 9.82081E+01 3.48304E+01 0.00000E+00
 -1      3033 8.96079E+01 3.73997E+01 0.00000E+00
 -1      3034 8.83823E+01 3.70931E+01 0.00000E+00
 -1      3035 9.09300E+00 3.45313E+01 0.00000E+00
 -1      3036 9.09300E+00 3.60000E+01 0.00000E+00
 -1      3037 1.03920E+01 3.37938E+01 0.00000E+00
 -1      3038 1.03920E+01 2.49750E+01 0.00000E+00
 -1      3039 9.09300E+00 2.57000E+01 0.00000E+00
 -1      3040 9.09300E+00 2.71750E+01 0.00000E+00
 -1      3041 9.57188E+01 3.70248E+01 0.00000E+00
 -1      3042 9.81598E+01 3.58566E+01 0.00000E+00
 -1      3043 1.03490E+02 2.64961E+01 0.00000E+00
 -1      3044 9.66450E+00 9.72612E+00 0.00000E+00
 -1      3045 8.81518E+01 1.24953E+01 0.00000E+00
 -1      3046 9.37661E+01 1.26364E+01 0.00000E+00
 -1      3047 1.39608E+02 1.61875E+01 0.00000E+00
 -1      3048 1.40907E+02 1.54500E+01 0.00000E+00
 -1      3049 1.40907E+02 1.39875E+01 0.00000E+00
 -1      3050 8.74887E+01 3.75902E+01 0.00000E+00
 -1      3051 9.31153E+01 3.78281E+01 0.00000E+00
 -1      3052 2.20350E+01 9.20225E+00 0.00000E+00
 -1      3053 1.40973E+02 1.27472E+01 0.00000E+00
 -1      3054 1.40973E+02 1.12847E+01 0.00000E+00
 -1      3055 1.39805E+02 1.10040E+01 0.00000E+00
 -1      3056 1.39674E+02 1.34847E+01 0.00000E+00
 -1      3057 8.31807E+01 3.44672E+01 0.00000E+00
 -1      3058 8.22133E+01 3.45723E+01 0.00000E+00
 -1      3059 8.32829E+01 3.52913E+01 0.00000E+00
 -1      3060 1.41192E+02 3.82207E+01 0.00000E+00
 -1      3061 7.68672E+01 2.40177E+01 0.00000E+00
 -1      3062 7.78488E+01 2.33623E+01 0.00000E+00
 -1      3063 7.73826E+01 2.23743E+01 0.00000E+00
 -1      3064 1.39893E+02 3.74832E+01 0.00000E+00
 -1      3065 1.00358E+02 3.42094E+01 0.00000E+00
 -1      3066 7.89409E+01 2.06495E+01 0.00000E+00
 -1      3067 7.91909E+01 3.07481E+01 0.00000E+00
 -1      3068 8.10131E+01 3.36868E+01 0.00000E+00
 -1      3069 8.08414E+01 3.29130E+01 0.00000E+00
 -1      3070 7.97435E+01 3.28516E+01 0.00000E+00
 -1      3071 8.00069E+01 1.85826E+01 0.00000E+00
 -1      3072 1.00765E+02 1.65396E+01 0.00000E+00
 -1      3073 1.02798E+02 3.10299E+01 0.00000E+00
 -1      3074 1.01920E+02 3.15554E+01 0.00000E+00
 -1      3075 1.02333E+02 3.26936E+01 0.00000E+00
 -1      3076 9.15750E+00 3.77359E+01 0.00000E+00
 -1      3077 9.22200E+00 4.02061E+01 0.00000E+00
 -1      3078 1.05855E+01 4.04701E+01 0.00000E+00
 -1      3079 1.04565E+01 3.69984E+01 0.00000E+00
 -1      3080 8.14169E+01 1.65133E+01 0.00000E+00
 -1      3081 1.09635E+01 1.04636E+01 0.00000E+00
 -1      3082 1.13355E+01 3.91711E+01 0.00000E+00
 -1      3083 1.03601E+02 2.12787E+01 0.00000E+00
 -1      3084 1.04430E+02 2.17904E+01 0.00000E+00
 -1      3085 1.04179E+02 2.01125E+01 0.00000E+00
 -1      3086 8.52204E+01 3.61441E+01 0.00000E+00
 -1      3087 8.43410E+01 3.62047E+01 0.00000E+00
 -1      3088 8.53111E+01 3.71626E+01 0.00000E+00
 -1      3089 9.09300E+00 2.86437E+01 0.00000E+00
 -1      3090 9.09300E+00 3.01187E+01 0.00000E+00
 -1      3091 1.03920E+01 3.08563E+01 0.00000E+00
 -1      3092 1.03920E+01 2.79188E+01 0.00000E+00
 -1      3093 8.57236E+01 1.31899E+01 0.00000E+00
 -1      3094 8.34812E+01 1.45603E+01 0.00000E+00
 -1      3095 7.76584E+01 2.62242E+01 0.00000E+00
 -1      3096 1.16910E+01 1.24625E+01 0.00000E+00
 -1      3097 1.16910E+01 1.39375E+01 0.00000E+00
 -1      3098 8.66788E+01 1.09515E+01 0.00000E+00
 -1      3099 8.80080E+01 1.07461E+01 0.00000E+00
 -1      3100 1.89000E+01 3.83090E+01 0.00000E+00
 -1      3101 2.04000E+01 3.83090E+01 0.00000E+00
 -1      3102 2.19000E+01 3.83090E+01 0.00000E+00
 -1      3103 2.34000E+01 3.83090E+01 0.00000E+00
 -1      3104 2.11500E+01 3.70100E+01 0.00000E+00
 -1      3105 2.49000E+01 3.83090E+01 0.00000E+00
 -1      3106 2.64000E+01 3.83090E+01 0.00000E+00
 -1      3107 2.41500E+01 3.70100E+01 0.00000E+00
 -1      3108 2.79000E+01 3.83090E+01 0.00000E+00
 -1      3109 2.94000E+01 3.83090E+01 0.00000E+00
 -1      3110 2.71500E+01 3.70100E+01 0.00000E+00
 -1      3111 3.09000E+01 3.83090E+01 0.00000E+00
 -1      3112 3.24000E+01 3.83090E+01 0.00000E+00
 -1      3113 3.01500E+01 3.70100E+01 0.00000E+00
 -1      3114 3.39000E+01 3.83090E+01 0.00000E+00
 -1      3115 3.54000E+01 3.83090E+01 0.00000E+00
 -1      3116 3.31500E+01 3.70100E+01 0.00000E+00
 -1      3117 3.69000E+01 3.83090E+01 0.00000E+00
 -1      3118 3.84000E+01 3.83090E+01 0.00000E+00
 -1      3119 3.61500E+01 3.70100E+01 0.00000E+00
 -1      3120 3.99000E+01 3.83090E+01 0.00000E+00
 -1      3121 4.14000E+01 3.83090E+01 0.00000E+00
 -1      3122 3.91500E+01 3.70100E+01 0.00000E+00
 -1      3123 4.29000E+01 3.83090E+01 0.00000E+00
 -1      3124 4.44000E+01 3.83090E+01 0.00000E+00
 -1      3125 4.21500E+01 3.70100E+01 0.00000E+00
 -1      3126 4.59000E+01 3.83090E+01 0.00000E+00
 -1      3127 4.74000E+01 3.83090E+01 0.00000E+00
 -1      3128 4.51500E+01 3.70100E+01 0.00000E+00
 -1      3129 4.89000E+01 3.83090E+01 0.00000E+00
 -1      3130 5.04000E+01 3.83090E+01 0.00000E+00
 -1      3131 4.81500E+01 3.70100E+01 0.00000E+00
 -1      3132 5.19000E+01 3.83090E+01 0.00000E+00
 -1      3133 5.34000E+01 3.83090E+01 0.00000E+00
 -1      3134 5.11500E+01 3.70100E+01 0.00000E+00
 -1      3135 5.49000E+01 3.83090E+01 0.00000E+00
 -1      3136 5.64000E+01 3.83090E+01 0.00000E+00
 -1      3137 5.41500E+01 3.70100E+01 0.00000E+00
 -1      3138 5.79000E+01 3.83090E+01 0.00000E+00
 -1      3139 5.94000E+01 3.83090E+01 0.00000E+00
 -1      3140 5.71500E+01 3.70100E+01 0.00000E+00
 -1      3141 6.09000E+01 3.83090E+01 0.00000E+00
 -1      3142 6.24000E+01 3.83090E+01 0.00000E+00
 -1      3143 6.01500E+01 3.70100E+01 0.00000E+00
 -1      3144 6.39000E+01 3.83090E+01 0.00000E+00
 -1      3145 6.54000E+01 3.83090E+01 0.00000E+00
 -1      3146 6.31500E+01 3.70100E+01 0.00000E+00
 -1      3147 6.69000E+01 3.83090E+01 0.00000E+00
 -1      3148 6.84000E+01 3.83090E+01 0.00000E+00
 -1      3149 6.61500E+01 3.70100E+01 0.00000E+00
 -1      3150 6.99000E+01 3.83090E+01 0.00000E+00
 -1      3151 7.14000E+01 3.83090E+01 0.00000E+00
 -1      3152 6.91500E+01 3.70100E+01 0.00000E+00
 -1      3153 7.29000E+01 3.83090E+01 0.00000E+00
 -1      3154 7.44000E+01 3.83090E+01 0.00000E+00
 -1      3155 7.21500E+01 3.70100E+01 0.00000E+00
 -1      3156 7.59000E+01 3.83090E+01 0.00000E+00
 -1      3157 7.74000E+01 3.83090E+01 0.00000E+00
 -1      3158 7.51500E+01 3.70100E+01 0.00000E+00
 -1      3159 7.89000E+01 3.83090E+01 0.00000E+00
 -1      3160 8.04000E+01 3.83090E+01 0.00000E+00
 -1      3161 7.81500E+01 3.70100E+01 0.00000E+00
 -1      3162 8.27908E+01 3.84156E+01 0.00000E+00
 -1      3163 8.42908E+01 3.84156E+01 0.00000E+00
 -1      3164 8.57908E+01 3.84156E+01 0.00000E+00
 -1      3165 8.79685E+01 3.88432E+01 0.00000E+00
 -1      3166 8.94685E+01 3.88432E+01 0.00000E+00
 -1      3167 9.10004E+01 3.88640E+01 0.00000E+00
 -1      3168 9.25004E+01 3.88640E+01 0.00000E+00
 -1      3169 9.99000E+01 3.84153E+01 0.00000E+00
 -1      3170 1.01400E+02 3.84153E+01 0.00000E+00
 -1      3171 1.02900E+02 3.84153E+01 0.00000E+00
 -1      3172 1.04400E+02 3.84153E+01 0.00000E+00
 -1      3173 1.02150E+02 3.72226E+01 0.00000E+00
 -1      3174 1.05900E+02 3.84153E+01 0.00000E+00
 -1      3175 1.07400E+02 3.84153E+01 0.00000E+00
 -1      3176 1.05150E+02 3.72226E+01 0.00000E+00
 -1      3177 1.08900E+02 3.84153E+01 0.00000E+00
 -1      3178 1.10400E+02 3.84153E+01 0.00000E+00
 -1      3179 1.08150E+02 3.72226E+01 0.00000E+00
 -1      3180 1.11900E+02 3.84153E+01 0.00000E+00
 -1      3181 1.13400E+02 3.84153E+01 0.00000E+00
 -1      3182 1.11150E+02 3.72226E+01 0.00000E+00
 -1      3183 1.14900E+02 3.84153E+01 0.00000E+00
 -1      3184 1.16400E+02 3.84153E+01 0.00000E+00
 -1      3185 1.14150E+02 3.72226E+01 0.00000E+00
 -1      3186 1.17900E+02 3.84153E+01 0.00000E+00
 -1      3187 1.19400E+02 3.84153E+01 0.00000E+00
 -1      3188 1.17150E+02 3.72226E+01 0.00000E+00
 -1      3189 1.20900E+02 3.84153E+01 0.00000E+00
 -1      3190 1.22400E+02 3.84153E+01 0.00000E+00
 -1      3191 1.20150E+02 3.72226E+01 0.00000E+00
 -1      3192 1.23900E+02 3.84153E+01 0.00000E+00
 -1      3193 1.25400E+02 3.84153E+01 0.00000E+00
 -1      3194 1.23150E+02 3.72226E+01 0.00000E+00
 -1      3195 1.26900E+02 3.84153E+01 0.00000E+00
 -1      3196 1.28400E+02 3.84153E+01 0.00000E+00
 -1      3197 1.26150E+02 3.72226E+01 0.00000E+00
 -1      3198 1.29900E+02 3.84153E+01 0.00000E+00
 -1      3199 1.31400E+02 3.84153E+01 0.00000E+00
 -1      3200 1.29150E+02 3.72226E+01 0.00000E+00
 -1      3201 1.32900E+02 3.84153E+01 0.00000E+00
 -1      3202 1.34400E+02 3.84153E+01 0.00000E+00
 -1      3203 1.32150E+02 3.72226E+01 0.00000E+00
 -1      3204 1.35900E+02 3.84153E+01 0.00000E+00
 -1      3205 1.37400E+02 3.84153E+01 0.00000E+00
 -1      3206 1.35150E+02 3.72226E+01 0.00000E+00
 -1      3207 3.17850E+01 1.05013E+01 0.00000E+00
 -1      3208 3.02850E+01 1.05013E+01 0.00000E+00
 -1      3209 4.07850E+01 1.05013E+01 0.00000E+00
 -1      3210 3.92850E+01 1.05013E+01 0.00000E+00
 -1      3211 4.37850E+01 1.05013E+01 0.00000E+00
 -1      3212 4.22850E+01 1.05013E+01 0.00000E+00
 -1      3213 4.15350E+01 1.18003E+01 0.00000E+00
 -1      3214 4.67850E+01 1.05013E+01 0.00000E+00
 -1      3215 4.52850E+01 1.05013E+01 0.00000E+00
 -1      3216 4.45350E+01 1.18003E+01 0.00000E+00
 -1      3217 4.97850E+01 1.05013E+01 0.00000E+00
 -1      3218 4.82850E+01 1.05013E+01 0.00000E+00
 -1      3219 4.75350E+01 1.18003E+01 0.00000E+00
 -1      3220 5.27850E+01 1.05013E+01 0.00000E+00
 -1      3221 5.12850E+01 1.05013E+01 0.00000E+00
 -1      3222 5.05350E+01 1.18003E+01 0.00000E+00
 -1      3223 5.57850E+01 1.05013E+01 0.00000E+00
 -1      3224 5.42850E+01 1.05013E+01 0.00000E+00
 -1      3225 5.35350E+01 1.18003E+01 0.00000E+00
 -1      3226 5.87850E+01 1.05013E+01 0.00000E+00
 -1      3227 5.72850E+01 1.05013E+01 0.00000E+00
 -1      3228 5.65350E+01 1.18003E+01 0.00000E+00
 -1      3229 6.17850E+01 1.05013E+01 0.00000E+00
 -1      3230 6.02850E+01 1.05013E+01 0.00000E+00
 -1      3231 5.95350E+01 1.18003E+01 0.00000E+00
 -1      3232 6.47850E+01 1.05013E+01 0.00000E+00
 -1      3233 6.32850E+01 1.05013E+01 0.00000E+00
 -1      3234 6.25350E+01 1.18003E+01 0.00000E+00
 -1      3235 6.77850E+01 1.05013E+01 0.00000E+00
 -1      3236 6.62850E+01 1.05013E+01 0.00000E+00
 -1      3237 6.55350E+01 1.18003E+01 0.00000E+00
 -1      3238 7.07850E+01 1.05013E+01 0.00000E+00
 -1      3239 6.92850E+01 1.05013E+01 0.00000E+00
 -1      3240 6.85350E+01 1.18003E+01 0.00000E+00
 -1      3241 7.37850E+01 1.05013E+01 0.00000E+00
 -1      3242 7.22850E+01 1.05013E+01 0.00000E+00
 -1      3243 7.15350E+01 1.18003E+01 0.00000E+00
 -1      3244 7.67850E+01 1.05013E+01 0.00000E+00
 -1      3245 7.52850E+01 1.05013E+01 0.00000E+00
 -1      3246 7.45350E+01 1.18003E+01 0.00000E+00
 -1      3247 7.97850E+01 1.05013E+01 0.00000E+00
 -1      3248 7.82850E+01 1.05013E+01 0.00000E+00
 -1      3249 7.75350E+01 1.18003E+01 0.00000E+00
 -1      3250 8.27850E+01 1.05013E+01 0.00000E+00
 -1      3251 8.12850E+01 1.05013E+01 0.00000E+00
 -1      3252 8.05350E+01 1.18003E+01 0.00000E+00
 -1      3253 8.51788E+01 1.09515E+01 0.00000E+00
 -1      3254 8.95080E+01 1.07461E+01 0.00000E+00
 -1      3255 9.23453E+01 1.07117E+01 0.00000E+00
 -1      3256 9.08453E+01 1.07117E+01 0.00000E+00
 -1      3257 9.54558E+01 1.11270E+01 0.00000E+00
 -1      3258 9.39558E+01 1.11270E+01 0.00000E+00
 -1      3259 9.69558E+01 1.11270E+01 0.00000E+00
 -1      3260 1.00785E+02 1.04787E+01 0.00000E+00
 -1      3261 9.92850E+01 1.04787E+01 0.00000E+00
 -1      3262 1.03785E+02 1.04787E+01 0.00000E+00
 -1      3263 1.02285E+02 1.04787E+01 0.00000E+00
 -1      3264 1.01535E+02 1.17552E+01 0.00000E+00
 -1      3265 1.06785E+02 1.04787E+01 0.00000E+00
 -1      3266 1.05285E+02 1.04787E+01 0.00000E+00
 -1      3267 1.04535E+02 1.17552E+01 0.00000E+00
 -1      3268 1.09785E+02 1.04787E+01 0.00000E+00
 -1      3269 1.08285E+02 1.04787E+01 0.00000E+00
 -1      3270 1.07535E+02 1.17552E+01 0.00000E+00
 -1      3271 1.12785E+02 1.04787E+01 0.00000E+00
 -1      3272 1.11285E+02 1.04787E+01 0.00000E+00
 -1      3273 1.10535E+02 1.17552E+01 0.00000E+00
 -1      3274 1.15785E+02 1.04787E+01 0.00000E+00
 -1      3275 1.14285E+02 1.04787E+01 0.00000E+00
 -1      3276 1.13535E+02 1.17552E+01 0.00000E+00
 -1      3277 1.18785E+02 1.04787E+01 0.00000E+00
 -1      3278 1.17285E+02 1.04787E+01 0.00000E+00
 -1      3279 1.16535E+02 1.17552E+01 0.00000E+00
 -1      3280 1.21785E+02 1.04787E+01 0.00000E+00
 -1      3281 1.20285E+02 1.04787E+01 0.00000E+00
 -1      3282 1.19535E+02 1.17552E+01 0.00000E+00
 -1      3283 1.24785E+02 1.04787E+01 0.00000E+00
 -1      3284 1.23285E+02 1.04787E+01 0.00000E+00
 -1      3285 1.22535E+02 1.17552E+01 0.00000E+00
 -1      3286 1.27785E+02 1.04787E+01 0.00000E+00
 -1      3287 1.26285E+02 1.04787E+01 0.00000E+00
 -1      3288 1.25535E+02 1.17552E+01 0.00000E+00
 -1      3289 1.30785E+02 1.04787E+01 0.00000E+00
 -1      3290 1.29285E+02 1.04787E+01 0.00000E+00
 -1      3291 1.28535E+02 1.17552E+01 0.00000E+00
 -1      3292 1.33785E+02 1.04787E+01 0.00000E+00
 -1      3293 1.32285E+02 1.04787E+01 0.00000E+00
 -1      3294 1.31535E+02 1.17552E+01 0.00000E+00
 -1      3295 1.36785E+02 1.04787E+01 0.00000E+00
 -1      3296 1.35285E+02 1.04787E+01 0.00000E+00
 -1      3297 1.34535E+02 1.17552E+01 0.00000E+00
 -1      3298 1.38879E+02 1.08817E+01 0.00000E+00
 -1      3299 1.37711E+02 1.06010E+01 0.00000E+00
 -1      3300 1.36961E+02 1.18775E+01 0.00000E+00
 -1      3301 1.38813E+02 1.21220E+01 0.00000E+00
 -1      3302 9.02894E+01 3.81645E+01 0.00000E+00
 -1      3303 1.16910E+01 2.12875E+01 0.00000E+00
 -1      3304 1.16910E+01 2.27625E+01 0.00000E+00
 -1      3305 1.03369E+02 1.74243E+01 0.00000E+00
 -1      3306 1.04050E+02 1.83819E+01 0.00000E+00
 -1      3307 1.38309E+02 2.57625E+01 0.00000E+00
 -1      3308 1.38309E+02 2.42875E+01 0.00000E+00
 -1      3309 1.38309E+02 3.45625E+01 0.00000E+00
 -1      3310 1.38309E+02 3.30875E+01 0.00000E+00
 -1      3311 1.38309E+02 2.86625E+01 0.00000E+00
 -1      3312 1.38309E+02 2.72125E+01 0.00000E+00
 -1      3313 1.37010E+02 2.64750E+01 0.00000E+00
 -1      3314 1.97850E+01 1.05013E+01 0.00000E+00
 -1      3315 1.82850E+01 1.05013E+01 0.00000E+00
 -1      3316 7.76577E+01 2.93201E+01 0.00000E+00
 -1      3317 7.72444E+01 2.83323E+01 0.00000E+00
 -1      3318 9.99560E+01 3.62112E+01 0.00000E+00
 -1      3319 9.88538E+01 3.68680E+01 0.00000E+00
 -1      3320 1.38309E+02 3.16125E+01 0.00000E+00
 -1      3321 1.38309E+02 3.01375E+01 0.00000E+00
 -1      3322 1.37010E+02 2.94000E+01 0.00000E+00
 -1      3323 1.37010E+02 3.23500E+01 0.00000E+00
 -1      3324 3.77850E+01 1.05013E+01 0.00000E+00
 -1      3325 3.62850E+01 1.05013E+01 0.00000E+00
 -1      3326 3.85350E+01 1.18003E+01 0.00000E+00
 -1      3327 3.47850E+01 1.05013E+01 0.00000E+00
 -1      3328 3.32850E+01 1.05013E+01 0.00000E+00
 -1      3329 3.25350E+01 1.18003E+01 0.00000E+00
 -1      3330 3.55350E+01 1.18003E+01 0.00000E+00
 -1      3331 1.04958E+02 2.36834E+01 0.00000E+00
 -1      3332 1.04807E+02 2.48242E+01 0.00000E+00
 -1      3333 2.87850E+01 1.05013E+01 0.00000E+00
 -1      3334 2.72850E+01 1.05013E+01 0.00000E+00
 -1      3335 2.95350E+01 1.18003E+01 0.00000E+00
 -1      3336 1.59000E+01 3.83090E+01 0.00000E+00
 -1      3337 1.74000E+01 3.83090E+01 0.00000E+00
 -1      3338 1.81500E+01 3.70100E+01 0.00000E+00
 -1      3339 2.57850E+01 1.05013E+01 0.00000E+00
 -1      3340 2.42850E+01 1.05013E+01 0.00000E+00
 -1      3341 2.65350E+01 1.18003E+01 0.00000E+00
 -1      3342 7.78978E+01 2.07771E+01 0.00000E+00
 -1      3343 7.84745E+01 1.97078E+01 0.00000E+00
 -1      3344 1.03940E+02 2.86656E+01 0.00000E+00
 -1      3345 1.03417E+02 2.97343E+01 0.00000E+00
 -1      3346 1.01052E+02 3.52208E+01 0.00000E+00
 -1      3347 8.21864E+01 1.36208E+01 0.00000E+00
 -1      3348 8.33298E+01 1.27397E+01 0.00000E+00
 -1      3349 1.29000E+01 3.83090E+01 0.00000E+00
 -1      3350 1.44000E+01 3.83090E+01 0.00000E+00
 -1      3351 1.51500E+01 3.70100E+01 0.00000E+00
 -1      3352 7.84194E+01 3.19795E+01 0.00000E+00
 -1      3353 7.80385E+01 3.06498E+01 0.00000E+00
 -1      3354 7.68862E+01 3.05516E+01 0.00000E+00
 -1      3355 7.68304E+01 2.70976E+01 0.00000E+00
 -1      3356 7.65055E+01 2.58792E+01 0.00000E+00
 -1      3357 1.26488E+01 1.02017E+01 0.00000E+00
 -1      3358 1.20772E+01 1.14631E+01 0.00000E+00
 -1      3359 1.33763E+01 1.22006E+01 0.00000E+00
 -1      3360 1.41488E+01 1.02017E+01 0.00000E+00
 -1      3361 1.01026E+02 1.50352E+01 0.00000E+00
 -1      3362 1.02249E+02 1.61810E+01 0.00000E+00
 -1      3363 7.89637E+01 1.87102E+01 0.00000E+00
 -1      3364 7.94529E+01 1.77127E+01 0.00000E+00
 -1      3365 7.79206E+01 1.88378E+01 0.00000E+00
 -1      3366 2.27850E+01 1.05013E+01 0.00000E+00
 -1      3367 2.12850E+01 1.05013E+01 0.00000E+00
 -1      3368 2.35350E+01 1.18003E+01 0.00000E+00
 -1      3369 1.12710E+01 3.74352E+01 0.00000E+00
 -1      3370 1.20855E+01 3.78721E+01 0.00000E+00
 -1      3371 1.12065E+01 3.56994E+01 0.00000E+00
 -1      3372 1.04748E+02 2.60822E+01 0.00000E+00
 -1      3373 1.04689E+02 2.73403E+01 0.00000E+00
 -1      3374 1.06006E+02 2.56683E+01 0.00000E+00
 -1      3375 9.37649E+01 3.85721E+01 0.00000E+00
 -1      3376 8.02425E+01 1.64357E+01 0.00000E+00
 -1      3377 8.11634E+01 1.53639E+01 0.00000E+00
 -1      3378 9.52649E+01 3.85721E+01 0.00000E+00
 -1      3379 9.66038E+01 3.80607E+01 0.00000E+00
 -1      3380 9.81038E+01 3.80607E+01 0.00000E+00
 -1      3381 1.16910E+01 2.42375E+01 0.00000E+00
 -1      3382 1.16910E+01 2.57125E+01 0.00000E+00
 -1      3383 1.29900E+01 2.35000E+01 0.00000E+00
 -1      3384 8.10120E+01 1.35433E+01 0.00000E+00
 -1      3385 8.20408E+01 3.71166E+01 0.00000E+00
 -1      3386 1.38309E+02 1.69188E+01 0.00000E+00
 -1      3387 1.38309E+02 1.54563E+01 0.00000E+00
 -1      3388 8.66703E+01 3.83550E+01 0.00000E+00
 -1      3389 1.05537E+02 2.25172E+01 0.00000E+00
 -1      3390 1.06644E+02 2.32441E+01 0.00000E+00
 -1      3391 1.06115E+02 2.13510E+01 0.00000E+00
 -1      3392 1.12065E+01 3.27619E+01 0.00000E+00
 -1      3393 1.12065E+01 3.42306E+01 0.00000E+00
 -1      3394 1.20210E+01 3.46675E+01 0.00000E+00
 -1      3395 8.44288E+01 1.22505E+01 0.00000E+00
 -1      3396 9.77058E+01 1.24035E+01 0.00000E+00
 -1      3397 1.03630E+02 1.59199E+01 0.00000E+00
 -1      3398 7.52112E+01 2.57645E+01 0.00000E+00
 -1      3399 7.60392E+01 2.48911E+01 0.00000E+00
 -1      3400 7.55730E+01 2.39031E+01 0.00000E+00
 -1      3401 1.38309E+02 1.98687E+01 0.00000E+00
 -1      3402 1.38309E+02 1.83937E+01 0.00000E+00
 -1      3403 1.37010E+02 1.76625E+01 0.00000E+00
 -1      3404 8.33736E+01 3.63098E+01 0.00000E+00
 -1      3405 1.38879E+02 3.74540E+01 0.00000E+00
 -1      3406 1.16910E+01 1.98188E+01 0.00000E+00
 -1      3407 1.29900E+01 2.05562E+01 0.00000E+00
 -1      3408 1.16910E+01 1.83500E+01 0.00000E+00
 -1      3409 1.05578E+02 1.76749E+01 0.00000E+00
 -1      3410 1.04879E+02 1.88937E+01 0.00000E+00
 -1      3411 1.05708E+02 1.94054E+01 0.00000E+00
 -1      3412 1.38309E+02 2.28156E+01 0.00000E+00
 -1      3413 1.38309E+02 2.13406E+01 0.00000E+00
 -1      3414 1.37010E+02 2.06094E+01 0.00000E+00
 -1      3415 1.37010E+02 2.35531E+01 0.00000E+00
 -1      3416 2.05350E+01 1.18003E+01 0.00000E+00
 -1      3417 7.60914E+01 2.79872E+01 0.00000E+00
 -1      3418 7.59346E+01 2.20879E+01 0.00000E+00
 -1      3419 7.69162E+01 2.14325E+01 0.00000E+00
 -1      3420 7.64498E+01 2.04908E+01 0.00000E+00
 -1      3421 8.11154E+01 3.45109E+01 0.00000E+00
 -1      3422 8.00174E+01 3.44495E+01 0.00000E+00
 -1      3423 8.12176E+01 3.53351E+01 0.00000E+00
 -1      3424 1.03830E+02 3.08725E+01 0.00000E+00
 -1      3425 1.05198E+02 2.82517E+01 0.00000E+00
 -1      3426 1.69669E+01 1.03515E+01 0.00000E+00
 -1      3427 1.54669E+01 1.03515E+01 0.00000E+00
 -1      3428 1.50806E+01 1.13509E+01 0.00000E+00
 -1      3429 1.77169E+01 1.16505E+01 0.00000E+00
 -1      3430 1.16910E+01 1.54094E+01 0.00000E+00
 -1      3431 1.16910E+01 1.68781E+01 0.00000E+00
 -1      3432 1.29900E+01 1.76156E+01 0.00000E+00
 -1      3433 1.29900E+01 1.46719E+01 0.00000E+00
 -1      3434 1.28355E+01 3.65731E+01 0.00000E+00
 -1      3435 1.02552E+02 3.52208E+01 0.00000E+00
 -1      3436 1.03192E+02 3.39572E+01 0.00000E+00
 -1      3437 1.04290E+02 3.59590E+01 0.00000E+00
 -1      3438 1.05790E+02 3.59590E+01 0.00000E+00
 -1      3439 1.04071E+02 3.34318E+01 0.00000E+00
 -1      3440 7.85911E+01 3.27533E+01 0.00000E+00
 -1      3441 7.74388E+01 3.26551E+01 0.00000E+00
 -1      3442 7.87628E+01 3.35271E+01 0.00000E+00
 -1      3443 7.91994E+01 1.65633E+01 0.00000E+00
 -1      3444 1.12065E+01 2.98244E+01 0.00000E+00
 -1      3445 1.12065E+01 3.12931E+01 0.00000E+00
 -1      3446 1.20210E+01 3.17300E+01 0.00000E+00
 -1      3447 9.97884E+01 1.35745E+01 0.00000E+00
 -1      3448 1.01273E+02 1.32159E+01 0.00000E+00
 -1      3449 1.38129E+02 3.62613E+01 0.00000E+00
 -1      3450 1.36830E+02 3.55238E+01 0.00000E+00
 -1      3451 7.95120E+01 1.35433E+01 0.00000E+00
 -1      3452 2.34000E+01 3.57110E+01 0.00000E+00
 -1      3453 2.49000E+01 3.57110E+01 0.00000E+00
 -1      3454 2.64000E+01 3.57110E+01 0.00000E+00
 -1      3455 2.79000E+01 3.57110E+01 0.00000E+00
 -1      3456 2.56500E+01 3.44120E+01 0.00000E+00
 -1      3457 2.94000E+01 3.57110E+01 0.00000E+00
 -1      3458 3.09000E+01 3.57110E+01 0.00000E+00
 -1      3459 2.86500E+01 3.44120E+01 0.00000E+00
 -1      3460 3.24000E+01 3.57110E+01 0.00000E+00
 -1      3461 3.39000E+01 3.57110E+01 0.00000E+00
 -1      3462 3.16500E+01 3.44120E+01 0.00000E+00
 -1      3463 3.54000E+01 3.57110E+01 0.00000E+00
 -1      3464 3.69000E+01 3.57110E+01 0.00000E+00
 -1      3465 3.46500E+01 3.44120E+01 0.00000E+00
 -1      3466 3.84000E+01 3.57110E+01 0.00000E+00
 -1      3467 3.99000E+01 3.57110E+01 0.00000E+00
 -1      3468 3.76500E+01 3.44120E+01 0.00000E+00
 -1      3469 4.14000E+01 3.57110E+01 0.00000E+00
 -1      3470 4.29000E+01 3.57110E+01 0.00000E+00
 -1      3471 4.06500E+01 3.44120E+01 0.00000E+00
 -1      3472 4.44000E+01 3.57110E+01 0.00000E+00
 -1      3473 4.59000E+01 3.57110E+01 0.00000E+00
 -1      3474 4.36500E+01 3.44120E+01 0.00000E+00
 -1      3475 4.74000E+01 3.57110E+01 0.00000E+00
 -1      3476 4.89000E+01 3.57110E+01 0.00000E+00
 -1      3477 4.66500E+01 3.44120E+01 0.00000E+00
 -1      3478 5.04000E+01 3.57110E+01 0.00000E+00
 -1      3479 5.19000E+01 3.57110E+01 0.00000E+00
 -1      3480 4.96500E+01 3.44120E+01 0.00000E+00
 -1      3481 5.34000E+01 3.57110E+01 0.00000E+00
 -1      3482 5.49000E+01 3.57110E+01 0.00000E+00
 -1      3483 5.26500E+01 3.44120E+01 0.00000E+00
 -1      3484 5.64000E+01 3.57110E+01 0.00000E+00
 -1      3485 5.79000E+01 3.57110E+01 0.00000E+00
 -1      3486 5.56500E+01 3.44120E+01 0.00000E+00
 -1      3487 5.94000E+01 3.57110E+01 0.00000E+00
 -1      3488 6.09000E+01 3.57110E+01 0.00000E+00
 -1      3489 5.86500E+01 3.44120E+01 0.00000E+00
 -1      3490 6.24000E+01 3.57110E+01 0.00000E+00
 -1      3491 6.39000E+01 3.57110E+01 0.00000E+00
 -1      3492 6.16500E+01 3.44120E+01 0.00000E+00
 -1      3493 6.54000E+01 3.57110E+01 0.00000E+00
 -1      3494 6.69000E+01 3.57110E+01 0.00000E+00
 -1      3495 6.46500E+01 3.44120E+01 0.00000E+00
 -1      3496 6.84000E+01 3.57110E+01 0.00000E+00
 -1      3497 6.99000E+01 3.57110E+01 0.00000E+00
 -1      3498 6.76500E+01 3.44120E+01 0.00000E+00
 -1      3499 7.14000E+01 3.57110E+01 0.00000E+00
 -1      3500 7.29000E+01 3.57110E+01 0.00000E+00
 -1      3501 7.06500E+01 3.44120E+01 0.00000E+00
 -1      3502 7.44000E+01 3.57110E+01 0.00000E+00
 -1      3503 7.59000E+01 3.57110E+01 0.00000E+00
 -1      3504 7.36500E+01 3.44120E+01 0.00000E+00
 -1      3505 7.71303E+01 3.52194E+01 0.00000E+00
 -1      3506 7.86303E+01 3.52194E+01 0.00000E+00
 -1      3507 1.35330E+02 3.55238E+01 0.00000E+00
 -1      3508 1.35510E+02 3.38250E+01 0.00000E+00
 -1      3509 1.33830E+02 3.55238E+01 0.00000E+00
 -1      3510 1.74000E+01 3.57110E+01 0.00000E+00
 -1      3511 1.89000E+01 3.57110E+01 0.00000E+00
 -1      3512 1.07290E+02 3.59590E+01 0.00000E+00
 -1      3513 1.08790E+02 3.59590E+01 0.00000E+00
 -1      3514 1.06431E+02 3.46954E+01 0.00000E+00
 -1      3515 1.10290E+02 3.59590E+01 0.00000E+00
 -1      3516 1.11790E+02 3.59590E+01 0.00000E+00
 -1      3517 1.09431E+02 3.46954E+01 0.00000E+00
 -1      3518 1.13290E+02 3.59590E+01 0.00000E+00
 -1      3519 1.14790E+02 3.59590E+01 0.00000E+00
 -1      3520 1.12431E+02 3.46954E+01 0.00000E+00
 -1      3521 1.16290E+02 3.59590E+01 0.00000E+00
 -1      3522 1.17790E+02 3.59590E+01 0.00000E+00
 -1      3523 1.15431E+02 3.46954E+01 0.00000E+00
 -1      3524 1.19290E+02 3.59590E+01 0.00000E+00
 -1      3525 1.20790E+02 3.59590E+01 0.00000E+00
 -1      3526 1.18431E+02 3.46954E+01 0.00000E+00
 -1      3527 1.22290E+02 3.59590E+01 0.00000E+00
 -1      3528 1.23790E+02 3.59590E+01 0.00000E+00
 -1      3529 1.21431E+02 3.46954E+01 0.00000E+00
 -1      3530 1.25290E+02 3.59590E+01 0.00000E+00
 -1      3531 1.26790E+02 3.59590E+01 0.00000E+00
 -1      3532 1.24431E+02 3.46954E+01 0.00000E+00
 -1      3533 1.28290E+02 3.59590E+01 0.00000E+00
 -1      3534 1.29790E+02 3.59590E+01 0.00000E+00
 -1      3535 1.27431E+02 3.46954E+01 0.00000E+00
 -1      3536 1.31060E+02 3.57414E+01 0.00000E+00
 -1      3537 1.32560E+02 3.57414E+01 0.00000E+00
 -1      3538 1.32740E+02 3.40426E+01 0.00000E+00
 -1      3539 1.30201E+02 3.44778E+01 0.00000E+00
 -1      3540 1.02773E+02 1.32159E+01 0.00000E+00
 -1      3541 1.38528E+02 1.44093E+01 0.00000E+00
 -1      3542 1.38594E+02 1.31690E+01 0.00000E+00
 -1      3543 1.37668E+02 1.30467E+01 0.00000E+00
 -1      3544 1.37229E+02 1.51406E+01 0.00000E+00
 -1      3545 4.22850E+01 1.30992E+01 0.00000E+00
 -1      3546 4.07850E+01 1.30992E+01 0.00000E+00
 -1      3547 5.12850E+01 1.30992E+01 0.00000E+00
 -1      3548 4.97850E+01 1.30992E+01 0.00000E+00
 -1      3549 5.42850E+01 1.30992E+01 0.00000E+00
 -1      3550 5.27850E+01 1.30992E+01 0.00000E+00
 -1      3551 5.20350E+01 1.43982E+01 0.00000E+00
 -1      3552 5.72850E+01 1.30992E+01 0.00000E+00
 -1      3553 5.57850E+01 1.30992E+01 0.00000E+00
 -1      3554 5.50350E+01 1.43982E+01 0.00000E+00
 -1      3555 6.02850E+01 1.30992E+01 0.00000E+00
 -1      3556 5.87850E+01 1.30992E+01 0.00000E+00
 -1      3557 5.80350E+01 1.43982E+01 0.00000E+00
 -1      3558 6.32850E+01 1.30992E+01 0.00000E+00
 -1      3559 6.17850E+01 1.30992E+01 0.00000E+00
 -1      3560 6.10350E+01 1.43982E+01 0.00000E+00
 -1      3561 6.62850E+01 1.30992E+01 0.00000E+00
 -1      3562 6.47850E+01 1.30992E+01 0.00000E+00
 -1      3563 6.40350E+01 1.43982E+01 0.00000E+00
 -1      3564 6.92850E+01 1.30992E+01 0.00000E+00
 -1      3565 6.77850E+01 1.30992E+01 0.00000E+00
 -1      3566 6.70350E+01 1.43982E+01 0.00000E+00
 -1      3567 7.22850E+01 1.30992E+01 0.00000E+00
 -1      3568 7.07850E+01 1.30992E+01 0.00000E+00
 -1      3569 7.00350E+01 1.43982E+01 0.00000E+00
 -1      3570 7.52850E+01 1.30992E+01 0.00000E+00
 -1      3571 7.37850E+01 1.30992E+01 0.00000E+00
 -1      3572 7.30350E+01 1.43982E+01 0.00000E+00
 -1      3573 7.81485E+01 1.33213E+01 0.00000E+00
 -1      3574 7.66485E+01 1.33213E+01 0.00000E+00
 -1      3575 7.58985E+01 1.46203E+01 0.00000E+00
 -1      3576 7.86254E+01 1.50643E+01 0.00000E+00
 -1      3577 1.08285E+02 1.30542E+01 0.00000E+00
 -1      3578 1.06785E+02 1.30542E+01 0.00000E+00
 -1      3579 1.05023E+02 1.45149E+01 0.00000E+00
 -1      3580 1.06142E+02 1.57582E+01 0.00000E+00
 -1      3581 1.04273E+02 1.32159E+01 0.00000E+00
 -1      3582 1.11285E+02 1.30542E+01 0.00000E+00
 -1      3583 1.09785E+02 1.30542E+01 0.00000E+00
 -1      3584 1.09035E+02 1.43532E+01 0.00000E+00
 -1      3585 1.14285E+02 1.30542E+01 0.00000E+00
 -1      3586 1.12785E+02 1.30542E+01 0.00000E+00
 -1      3587 1.12035E+02 1.43532E+01 0.00000E+00
 -1      3588 1.17285E+02 1.30542E+01 0.00000E+00
 -1      3589 1.15785E+02 1.30542E+01 0.00000E+00
 -1      3590 1.15035E+02 1.43532E+01 0.00000E+00
 -1      3591 1.20285E+02 1.30542E+01 0.00000E+00
 -1      3592 1.18785E+02 1.30542E+01 0.00000E+00
 -1      3593 1.18035E+02 1.43532E+01 0.00000E+00
 -1      3594 1.23285E+02 1.30542E+01 0.00000E+00
 -1      3595 1.21785E+02 1.30542E+01 0.00000E+00
 -1      3596 1.21035E+02 1.43532E+01 0.00000E+00
 -1      3597 1.26285E+02 1.30542E+01 0.00000E+00
 -1      3598 1.24785E+02 1.30542E+01 0.00000E+00
 -1      3599 1.24035E+02 1.43532E+01 0.00000E+00
 -1      3600 1.29285E+02 1.30542E+01 0.00000E+00
 -1      3601 1.27785E+02 1.30542E+01 0.00000E+00
 -1      3602 1.27035E+02 1.43532E+01 0.00000E+00
 -1      3603 1.32285E+02 1.30542E+01 0.00000E+00
 -1      3604 1.30785E+02 1.30542E+01 0.00000E+00
 -1      3605 1.30035E+02 1.43532E+01 0.00000E+00
 -1      3606 3.92850E+01 1.30992E+01 0.00000E+00
 -1      3607 3.77850E+01 1.30992E+01 0.00000E+00
 -1      3608 4.00350E+01 1.43982E+01 0.00000E+00
 -1      3609 1.35711E+02 2.72000E+01 0.00000E+00
 -1      3610 1.35711E+02 2.57500E+01 0.00000E+00
 -1      3611 2.04000E+01 3.57110E+01 0.00000E+00
 -1      3612 2.19000E+01 3.57110E+01 0.00000E+00
 -1      3613 2.26500E+01 3.44120E+01 0.00000E+00
 -1      3614 4.82850E+01 1.30992E+01 0.00000E+00
 -1      3615 4.67850E+01 1.30992E+01 0.00000E+00
 -1      3616 4.90350E+01 1.43982E+01 0.00000E+00
 -1      3617 1.05308E+02 3.08405E+01 0.00000E+00
 -1      3618 1.04690E+02 3.21361E+01 0.00000E+00
 -1      3619 1.05549E+02 3.33998E+01 0.00000E+00
 -1      3620 9.87471E+01 1.29890E+01 0.00000E+00
 -1      3621 1.14487E+01 2.70341E+01 0.00000E+00
 -1      3622 1.14487E+01 2.85028E+01 0.00000E+00
 -1      3623 1.22633E+01 2.89397E+01 0.00000E+00
 -1      3624 1.27478E+01 2.62966E+01 0.00000E+00
 -1      3625 3.02850E+01 1.30992E+01 0.00000E+00
 -1      3626 2.87850E+01 1.30992E+01 0.00000E+00
 -1      3627 2.12850E+01 1.30992E+01 0.00000E+00
 -1      3628 1.97850E+01 1.30992E+01 0.00000E+00
 -1      3629 7.52470E+01 2.89571E+01 0.00000E+00
 -1      3630 7.48330E+01 2.77224E+01 0.00000E+00
 -1      3631 7.60087E+01 3.16165E+01 0.00000E+00
 -1      3632 7.56278E+01 3.02868E+01 0.00000E+00
 -1      3633 7.43695E+01 3.00220E+01 0.00000E+00
 -1      3634 2.72850E+01 1.30992E+01 0.00000E+00
 -1      3635 2.57850E+01 1.30992E+01 0.00000E+00
 -1      3636 2.80350E+01 1.43982E+01 0.00000E+00
 -1      3637 1.28355E+01 3.36356E+01 0.00000E+00
 -1      3638 1.28355E+01 3.51044E+01 0.00000E+00
 -1      3639 1.36500E+01 3.55412E+01 0.00000E+00
 -1      3640 1.06807E+02 2.81900E+01 0.00000E+00
 -1      3641 1.06058E+02 2.95153E+01 0.00000E+00
 -1      3642 1.06917E+02 3.07789E+01 0.00000E+00
 -1      3643 1.47750E+01 3.56261E+01 0.00000E+00
 -1      3644 1.62750E+01 3.56261E+01 0.00000E+00
 -1      3645 1.70250E+01 3.43271E+01 0.00000E+00
 -1      3646 1.47750E+01 3.41574E+01 0.00000E+00
 -1      3647 7.67556E+01 1.88852E+01 0.00000E+00
 -1      3648 7.72448E+01 1.78877E+01 0.00000E+00
 -1      3649 2.42850E+01 1.30992E+01 0.00000E+00
 -1      3650 2.27850E+01 1.30992E+01 0.00000E+00
 -1      3651 2.50350E+01 1.43982E+01 0.00000E+00
 -1      3652 7.78359E+01 1.63413E+01 0.00000E+00
 -1      3653 1.07227E+02 2.50952E+01 0.00000E+00
 -1      3654 1.07168E+02 2.63533E+01 0.00000E+00
 -1      3655 4.52850E+01 1.30992E+01 0.00000E+00
 -1      3656 4.37850E+01 1.30992E+01 0.00000E+00
 -1      3657 4.30350E+01 1.43982E+01 0.00000E+00
 -1      3658 4.60350E+01 1.43982E+01 0.00000E+00
 -1      3659 8.09828E+01 3.62032E+01 0.00000E+00
 -1      3660 7.63803E+01 3.39204E+01 0.00000E+00
 -1      3661 1.35510E+02 3.23500E+01 0.00000E+00
 -1      3662 1.34412E+02 2.50031E+01 0.00000E+00
 -1      3663 1.35711E+02 2.42781E+01 0.00000E+00
 -1      3664 1.35711E+02 2.28062E+01 0.00000E+00
 -1      3665 1.06815E+02 2.01322E+01 0.00000E+00
 -1      3666 1.07922E+02 2.08590E+01 0.00000E+00
 -1      3667 1.07514E+02 1.89134E+01 0.00000E+00
 -1      3668 7.57740E+01 1.95406E+01 0.00000E+00
 -1      3669 1.96500E+01 3.44120E+01 0.00000E+00
 -1      3670 1.35848E+02 1.53977E+01 0.00000E+00
 -1      3671 1.36068E+02 1.43508E+01 0.00000E+00
 -1      3672 3.32850E+01 1.30992E+01 0.00000E+00
 -1      3673 3.17850E+01 1.30992E+01 0.00000E+00
 -1      3674 3.10350E+01 1.43982E+01 0.00000E+00
 -1      3675 1.08028E+02 2.76169E+01 0.00000E+00
 -1      3676 1.35848E+02 1.68727E+01 0.00000E+00
 -1      3677 1.34686E+02 1.60830E+01 0.00000E+00
 -1      3678 1.35848E+02 1.83477E+01 0.00000E+00
 -1      3679 7.98848E+01 3.61418E+01 0.00000E+00
 -1      3680 3.70350E+01 1.43982E+01 0.00000E+00
 -1      3681 3.62850E+01 1.30992E+01 0.00000E+00
 -1      3682 3.47850E+01 1.30992E+01 0.00000E+00
 -1      3683 1.33861E+02 1.31816E+01 0.00000E+00
 -1      3684 1.33111E+02 1.44806E+01 0.00000E+00
 -1      3685 1.35361E+02 1.31816E+01 0.00000E+00
 -1      3686 1.36742E+02 1.29244E+01 0.00000E+00
 -1      3687 7.43668E+01 2.67344E+01 0.00000E+00
 -1      3688 7.39006E+01 2.57463E+01 0.00000E+00
 -1      3689 7.35224E+01 2.77042E+01 0.00000E+00
 -1      3690 1.35711E+02 2.86750E+01 0.00000E+00
 -1      3691 1.34412E+02 2.79500E+01 0.00000E+00
 -1      3692 1.35711E+02 3.01500E+01 0.00000E+00
 -1      3693 7.51066E+01 2.29613E+01 0.00000E+00
 -1      3694 7.46402E+01 2.20196E+01 0.00000E+00
 -1      3695 7.42786E+01 2.38347E+01 0.00000E+00
 -1      3696 1.42890E+01 2.27625E+01 0.00000E+00
 -1      3697 1.42890E+01 2.42375E+01 0.00000E+00
 -1      3698 1.42890E+01 1.39359E+01 0.00000E+00
 -1      3699 1.42890E+01 1.54078E+01 0.00000E+00
 -1      3700 1.84669E+01 1.29495E+01 0.00000E+00
 -1      3701 1.71488E+01 1.27997E+01 0.00000E+00
 -1      3702 1.92169E+01 1.42485E+01 0.00000E+00
 -1      3703 7.66709E+01 1.63887E+01 0.00000E+00
 -1      3704 2.20350E+01 1.43982E+01 0.00000E+00
 -1      3705 1.28355E+01 3.21669E+01 0.00000E+00
 -1      3706 1.36500E+01 3.26037E+01 0.00000E+00
 -1      3707 1.28355E+01 3.06981E+01 0.00000E+00
 -1      3708 1.08384E+02 2.27628E+01 0.00000E+00
 -1      3709 1.07806E+02 2.39290E+01 0.00000E+00
 -1      3710 1.08967E+02 2.46140E+01 0.00000E+00
 -1      3711 1.42890E+01 1.98250E+01 0.00000E+00
 -1      3712 1.42890E+01 2.12938E+01 0.00000E+00
 -1      3713 1.55880E+01 2.20313E+01 0.00000E+00
 -1      3714 7.62803E+01 3.31554E+01 0.00000E+00
 -1      3715 7.61086E+01 3.23815E+01 0.00000E+00
 -1      3716 7.48502E+01 3.21167E+01 0.00000E+00
 -1      3717 7.50501E+01 3.36469E+01 0.00000E+00
 -1      3718 5.87850E+01 1.56973E+01 0.00000E+00
 -1      3719 5.72850E+01 1.56973E+01 0.00000E+00
 -1      3720 2.79000E+01 3.31130E+01 0.00000E+00
 -1      3721 2.94000E+01 3.31130E+01 0.00000E+00
 -1      3722 3.09000E+01 3.31130E+01 0.00000E+00
 -1      3723 3.24000E+01 3.31130E+01 0.00000E+00
 -1      3724 3.01500E+01 3.18140E+01 0.00000E+00
 -1      3725 3.39000E+01 3.31130E+01 0.00000E+00
 -1      3726 3.54000E+01 3.31130E+01 0.00000E+00
 -1      3727 3.31500E+01 3.18140E+01 0.00000E+00
 -1      3728 3.69000E+01 3.31130E+01 0.00000E+00
 -1      3729 3.84000E+01 3.31130E+01 0.00000E+00
 -1      3730 3.61500E+01 3.18140E+01 0.00000E+00
 -1      3731 3.99000E+01 3.31130E+01 0.00000E+00
 -1      3732 4.14000E+01 3.31130E+01 0.00000E+00
 -1      3733 3.91500E+01 3.18140E+01 0.00000E+00
 -1      3734 4.29000E+01 3.31130E+01 0.00000E+00
 -1      3735 4.44000E+01 3.31130E+01 0.00000E+00
 -1      3736 4.21500E+01 3.18140E+01 0.00000E+00
 -1      3737 4.59000E+01 3.31130E+01 0.00000E+00
 -1      3738 4.74000E+01 3.31130E+01 0.00000E+00
 -1      3739 4.51500E+01 3.18140E+01 0.00000E+00
 -1      3740 4.89000E+01 3.31130E+01 0.00000E+00
 -1      3741 5.04000E+01 3.31130E+01 0.00000E+00
 -1      3742 4.81500E+01 3.18140E+01 0.00000E+00
 -1      3743 5.19000E+01 3.31130E+01 0.00000E+00
 -1      3744 5.34000E+01 3.31130E+01 0.00000E+00
 -1      3745 5.11500E+01 3.18140E+01 0.00000E+00
 -1      3746 5.49000E+01 3.31130E+01 0.00000E+00
 -1      3747 5.64000E+01 3.31130E+01 0.00000E+00
 -1      3748 5.41500E+01 3.18140E+01 0.00000E+00
 -1      3749 5.79000E+01 3.31130E+01 0.00000E+00
 -1      3750 5.94000E+01 3.31130E+01 0.00000E+00
 -1      3751 5.71500E+01 3.18140E+01 0.00000E+00
 -1      3752 6.09000E+01 3.31130E+01 0.00000E+00
 -1      3753 6.24000E+01 3.31130E+01 0.00000E+00
 -1      3754 6.01500E+01 3.18140E+01 0.00000E+00
 -1      3755 6.39000E+01 3.31130E+01 0.00000E+00
 -1      3756 6.54000E+01 3.31130E+01 0.00000E+00
 -1      3757 6.31500E+01 3.18140E+01 0.00000E+00
 -1      3758 6.69000E+01 3.31130E+01 0.00000E+00
 -1      3759 6.84000E+01 3.31130E+01 0.00000E+00
 -1      3760 6.61500E+01 3.18140E+01 0.00000E+00
 -1      3761 6.99000E+01 3.31130E+01 0.00000E+00
 -1      3762 7.14000E+01 3.31130E+01 0.00000E+00
 -1      3763 6.91500E+01 3.18140E+01 0.00000E+00
 -1      3764 1.34211E+02 3.16250E+01 0.00000E+00
 -1      3765 2.49000E+01 3.31130E+01 0.00000E+00
 -1      3766 2.64000E+01 3.31130E+01 0.00000E+00
 -1      3767 2.71500E+01 3.18140E+01 0.00000E+00
 -1      3768 7.88651E+01 3.43513E+01 0.00000E+00
 -1      3769 1.08681E+02 3.33964E+01 0.00000E+00
 -1      3770 1.10181E+02 3.33964E+01 0.00000E+00
 -1      3771 1.11681E+02 3.33964E+01 0.00000E+00
 -1      3772 1.13181E+02 3.33964E+01 0.00000E+00
 -1      3773 1.10931E+02 3.20974E+01 0.00000E+00
 -1      3774 1.14681E+02 3.33964E+01 0.00000E+00
 -1      3775 1.16181E+02 3.33964E+01 0.00000E+00
 -1      3776 1.13931E+02 3.20974E+01 0.00000E+00
 -1      3777 1.17681E+02 3.33964E+01 0.00000E+00
 -1      3778 1.19181E+02 3.33964E+01 0.00000E+00
 -1      3779 1.16931E+02 3.20974E+01 0.00000E+00
 -1      3780 1.20681E+02 3.33964E+01 0.00000E+00
 -1      3781 1.22181E+02 3.33964E+01 0.00000E+00
 -1      3782 1.19931E+02 3.20974E+01 0.00000E+00
 -1      3783 1.23681E+02 3.33964E+01 0.00000E+00
 -1      3784 1.25181E+02 3.33964E+01 0.00000E+00
 -1      3785 1.22931E+02 3.20974E+01 0.00000E+00
 -1      3786 1.26681E+02 3.33964E+01 0.00000E+00
 -1      3787 1.28181E+02 3.33964E+01 0.00000E+00
 -1      3788 1.25931E+02 3.20974E+01 0.00000E+00
 -1      3789 5.57850E+01 1.56973E+01 0.00000E+00
 -1      3790 5.42850E+01 1.56973E+01 0.00000E+00
 -1      3791 5.65350E+01 1.69963E+01 0.00000E+00
 -1      3792 1.07049E+02 3.33998E+01 0.00000E+00
 -1      3793 5.27850E+01 1.56973E+01 0.00000E+00
 -1      3794 5.12850E+01 1.56973E+01 0.00000E+00
 -1      3795 5.35350E+01 1.69963E+01 0.00000E+00
 -1      3796 6.17850E+01 1.56973E+01 0.00000E+00
 -1      3797 6.02850E+01 1.56973E+01 0.00000E+00
 -1      3798 5.95350E+01 1.69963E+01 0.00000E+00
 -1      3799 6.47850E+01 1.56973E+01 0.00000E+00
 -1      3800 6.32850E+01 1.56973E+01 0.00000E+00
 -1      3801 6.25350E+01 1.69963E+01 0.00000E+00
 -1      3802 6.77850E+01 1.56973E+01 0.00000E+00
 -1      3803 6.62850E+01 1.56973E+01 0.00000E+00
 -1      3804 6.55350E+01 1.69963E+01 0.00000E+00
 -1      3805 7.07850E+01 1.56973E+01 0.00000E+00
 -1      3806 6.92850E+01 1.56973E+01 0.00000E+00
 -1      3807 6.85350E+01 1.69963E+01 0.00000E+00
 -1      3808 7.37850E+01 1.56973E+01 0.00000E+00
 -1      3809 7.22850E+01 1.56973E+01 0.00000E+00
 -1      3810 7.15350E+01 1.69963E+01 0.00000E+00
 -1      3811 7.53074E+01 1.61667E+01 0.00000E+00
 -1      3812 1.12785E+02 1.56522E+01 0.00000E+00
 -1      3813 1.11285E+02 1.56522E+01 0.00000E+00
 -1      3814 1.06971E+02 1.62699E+01 0.00000E+00
 -1      3815 1.15785E+02 1.56522E+01 0.00000E+00
 -1      3816 1.14285E+02 1.56522E+01 0.00000E+00
 -1      3817 1.13535E+02 1.69512E+01 0.00000E+00
 -1      3818 1.18785E+02 1.56522E+01 0.00000E+00
 -1      3819 1.17285E+02 1.56522E+01 0.00000E+00
 -1      3820 1.16535E+02 1.69512E+01 0.00000E+00
 -1      3821 1.21785E+02 1.56522E+01 0.00000E+00
 -1      3822 1.20285E+02 1.56522E+01 0.00000E+00
 -1      3823 1.19535E+02 1.69512E+01 0.00000E+00
 -1      3824 1.24785E+02 1.56522E+01 0.00000E+00
 -1      3825 1.23285E+02 1.56522E+01 0.00000E+00
 -1      3826 1.22535E+02 1.69512E+01 0.00000E+00
 -1      3827 1.27785E+02 1.56522E+01 0.00000E+00
 -1      3828 1.26285E+02 1.56522E+01 0.00000E+00
 -1      3829 1.25535E+02 1.69512E+01 0.00000E+00
 -1      3830 1.30785E+02 1.56522E+01 0.00000E+00
 -1      3831 1.29285E+02 1.56522E+01 0.00000E+00
 -1      3832 1.28535E+02 1.69512E+01 0.00000E+00
 -1      3833 1.07799E+02 3.21008E+01 0.00000E+00
 -1      3834 4.07850E+01 1.56973E+01 0.00000E+00
 -1      3835 3.92850E+01 1.56973E+01 0.00000E+00
 -1      3836 1.46944E+01 1.23503E+01 0.00000E+00
 -1      3837 1.59934E+01 1.30863E+01 0.00000E+00
 -1      3838 2.19000E+01 3.31130E+01 0.00000E+00
 -1      3839 2.34000E+01 3.31130E+01 0.00000E+00
 -1      3840 2.41500E+01 3.18140E+01 0.00000E+00
 -1      3841 1.55880E+01 1.61437E+01 0.00000E+00
 -1      3842 1.42890E+01 1.68797E+01 0.00000E+00
 -1      3843 1.42890E+01 1.83516E+01 0.00000E+00
 -1      3844 4.97850E+01 1.56973E+01 0.00000E+00
 -1      3845 4.82850E+01 1.56973E+01 0.00000E+00
 -1      3846 5.05350E+01 1.69963E+01 0.00000E+00
 -1      3847 1.35711E+02 2.13344E+01 0.00000E+00
 -1      3848 1.35711E+02 1.98625E+01 0.00000E+00
 -1      3849 1.34412E+02 2.20594E+01 0.00000E+00
 -1      3850 2.27850E+01 1.56973E+01 0.00000E+00
 -1      3851 2.12850E+01 1.56973E+01 0.00000E+00
 -1      3852 1.55798E+01 2.49984E+01 0.00000E+00
 -1      3853 1.42808E+01 2.57359E+01 0.00000E+00
 -1      3854 1.33524E+02 1.59313E+01 0.00000E+00
 -1      3855 1.31948E+02 1.58039E+01 0.00000E+00
 -1      3856 1.31198E+02 1.71029E+01 0.00000E+00
 -1      3857 1.33524E+02 1.74063E+01 0.00000E+00
 -1      3858 7.33111E+01 3.10445E+01 0.00000E+00
 -1      3859 7.29303E+01 2.97148E+01 0.00000E+00
 -1      3860 2.87850E+01 1.56973E+01 0.00000E+00
 -1      3861 2.72850E+01 1.56973E+01 0.00000E+00
 -1      3862 7.45318E+01 2.01359E+01 0.00000E+00
 -1      3863 7.48375E+01 1.85304E+01 0.00000E+00
 -1      3864 2.57850E+01 1.56973E+01 0.00000E+00
 -1      3865 2.42850E+01 1.56973E+01 0.00000E+00
 -1      3866 2.65350E+01 1.69963E+01 0.00000E+00
 -1      3867 1.89000E+01 3.31130E+01 0.00000E+00
 -1      3868 2.04000E+01 3.31130E+01 0.00000E+00
 -1      3869 2.11500E+01 3.18140E+01 0.00000E+00
 -1      3870 1.09379E+02 2.69288E+01 0.00000E+00
 -1      3871 1.09017E+02 2.87655E+01 0.00000E+00
 -1      3872 1.08549E+02 3.07755E+01 0.00000E+00
 -1      3873 1.08557E+02 1.56750E+01 0.00000E+00
 -1      3874 1.07993E+02 1.75916E+01 0.00000E+00
 -1      3875 1.09100E+02 1.83185E+01 0.00000E+00
 -1      3876 1.10057E+02 1.56750E+01 0.00000E+00
 -1      3877 1.67434E+01 1.43853E+01 0.00000E+00
 -1      3878 1.32941E+02 3.18426E+01 0.00000E+00
 -1      3879 1.33142E+02 2.96426E+01 0.00000E+00
 -1      3880 1.31671E+02 3.20602E+01 0.00000E+00
 -1      3881 7.20109E+01 3.25746E+01 0.00000E+00
 -1      3882 7.35109E+01 3.25746E+01 0.00000E+00
 -1      3883 1.55880E+01 1.90891E+01 0.00000E+00
 -1      3884 1.33113E+02 2.57391E+01 0.00000E+00
 -1      3885 1.33113E+02 2.42672E+01 0.00000E+00
 -1      3886 3.40350E+01 1.43982E+01 0.00000E+00
 -1      3887 3.85350E+01 1.69963E+01 0.00000E+00
 -1      3888 3.77850E+01 1.56973E+01 0.00000E+00
 -1      3889 3.62850E+01 1.56973E+01 0.00000E+00
 -1      3890 1.29132E+02 3.24954E+01 0.00000E+00
 -1      3891 1.30402E+02 3.22778E+01 0.00000E+00
 -1      3892 1.30603E+02 3.00778E+01 0.00000E+00
 -1      3893 3.17850E+01 1.56973E+01 0.00000E+00
 -1      3894 3.02850E+01 1.56973E+01 0.00000E+00
 -1      3895 2.95350E+01 1.69963E+01 0.00000E+00
 -1      3896 1.68829E+01 2.42563E+01 0.00000E+00
 -1      3897 1.68747E+01 2.57547E+01 0.00000E+00
 -1      3898 7.45574E+01 1.74657E+01 0.00000E+00
 -1      3899 1.34549E+02 1.90727E+01 0.00000E+00
 -1      3900 1.99669E+01 1.55475E+01 0.00000E+00
 -1      3901 1.86488E+01 1.53977E+01 0.00000E+00
 -1      3902 2.07169E+01 1.68465E+01 0.00000E+00
 -1      3903 7.25898E+01 2.57744E+01 0.00000E+00
 -1      3904 7.34342E+01 2.48045E+01 0.00000E+00
 -1      3905 7.29678E+01 2.38628E+01 0.00000E+00
 -1      3906 1.09899E+02 3.00874E+01 0.00000E+00
 -1      3907 4.22850E+01 1.56973E+01 0.00000E+00
 -1      3908 4.15350E+01 1.69963E+01 0.00000E+00
 -1      3909 4.37850E+01 1.56973E+01 0.00000E+00
 -1      3910 7.24640E+01 2.87267E+01 0.00000E+00
 -1      3911 7.19978E+01 2.77386E+01 0.00000E+00
 -1      3912 7.14057E+01 2.97492E+01 0.00000E+00
 -1      3913 1.09783E+02 2.03252E+01 0.00000E+00
 -1      3914 1.09084E+02 2.15440E+01 0.00000E+00
 -1      3915 1.10245E+02 2.22290E+01 0.00000E+00
 -1      3916 7.28757E+01 2.18827E+01 0.00000E+00
 -1      3917 7.37037E+01 2.10093E+01 0.00000E+00
 -1      3918 7.27673E+01 1.99991E+01 0.00000E+00
 -1      3919 1.66500E+01 3.29432E+01 0.00000E+00
 -1      3920 1.77750E+01 3.30281E+01 0.00000E+00
 -1      3921 1.85250E+01 3.17291E+01 0.00000E+00
 -1      3922 1.76961E+01 1.56274E+01 0.00000E+00
 -1      3923 1.65407E+01 1.59140E+01 0.00000E+00
 -1      3924 1.65407E+01 1.73859E+01 0.00000E+00
 -1      3925 1.84461E+01 1.69264E+01 0.00000E+00
 -1      3926 2.35350E+01 1.69963E+01 0.00000E+00
 -1      3927 1.40386E+01 2.70574E+01 0.00000E+00
 -1      3928 1.09957E+02 2.57626E+01 0.00000E+00
 -1      3929 1.10947E+02 2.69112E+01 0.00000E+00
 -1      3930 1.10536E+02 2.45964E+01 0.00000E+00
 -1      3931 1.10807E+02 1.69740E+01 0.00000E+00
 -1      3932 1.33128E+02 2.84283E+01 0.00000E+00
 -1      3933 1.33128E+02 2.69533E+01 0.00000E+00
 -1      3934 1.31829E+02 2.62174E+01 0.00000E+00
 -1      3935 1.31858E+02 2.86459E+01 0.00000E+00
 -1      3936 7.33152E+01 1.80610E+01 0.00000E+00
 -1      3937 4.75350E+01 1.69963E+01 0.00000E+00
 -1      3938 4.67850E+01 1.56973E+01 0.00000E+00
 -1      3939 4.52850E+01 1.56973E+01 0.00000E+00
 -1      3940 1.45875E+01 3.27311E+01 0.00000E+00
 -1      3941 1.57125E+01 3.28159E+01 0.00000E+00
 -1      3942 1.64625E+01 3.15169E+01 0.00000E+00
 -1      3943 1.45875E+01 3.12623E+01 0.00000E+00
 -1      3944 1.35582E+01 2.82170E+01 0.00000E+00
 -1      3945 1.33159E+01 2.95386E+01 0.00000E+00
 -1      3946 1.41304E+01 2.99754E+01 0.00000E+00
 -1      3947 1.50913E+01 2.76563E+01 0.00000E+00
 -1      3948 1.68829E+01 2.13188E+01 0.00000E+00
 -1      3949 1.68829E+01 2.27875E+01 0.00000E+00
 -1      3950 1.81778E+01 2.35438E+01 0.00000E+00
 -1      3951 3.24000E+01 3.05150E+01 0.00000E+00
 -1      3952 3.39000E+01 3.05150E+01 0.00000E+00
 -1      3953 3.54000E+01 3.05150E+01 0.00000E+00
 -1      3954 3.69000E+01 3.05150E+01 0.00000E+00
 -1      3955 3.46500E+01 2.92160E+01 0.00000E+00
 -1      3956 3.84000E+01 3.05150E+01 0.00000E+00
 -1      3957 3.99000E+01 3.05150E+01 0.00000E+00
 -1      3958 3.76500E+01 2.92160E+01 0.00000E+00
 -1      3959 4.14000E+01 3.05150E+01 0.00000E+00
 -1      3960 4.29000E+01 3.05150E+01 0.00000E+00
 -1      3961 4.06500E+01 2.92160E+01 0.00000E+00
 -1      3962 4.44000E+01 3.05150E+01 0.00000E+00
 -1      3963 4.59000E+01 3.05150E+01 0.00000E+00
 -1      3964 4.36500E+01 2.92160E+01 0.00000E+00
 -1      3965 4.74000E+01 3.05150E+01 0.00000E+00
 -1      3966 4.89000E+01 3.05150E+01 0.00000E+00
 -1      3967 4.66500E+01 2.92160E+01 0.00000E+00
 -1      3968 5.04000E+01 3.05150E+01 0.00000E+00
 -1      3969 5.19000E+01 3.05150E+01 0.00000E+00
 -1      3970 4.96500E+01 2.92160E+01 0.00000E+00
 -1      3971 5.34000E+01 3.05150E+01 0.00000E+00
 -1      3972 5.49000E+01 3.05150E+01 0.00000E+00
 -1      3973 5.26500E+01 2.92160E+01 0.00000E+00
 -1      3974 5.64000E+01 3.05150E+01 0.00000E+00
 -1      3975 5.79000E+01 3.05150E+01 0.00000E+00
 -1      3976 5.56500E+01 2.92160E+01 0.00000E+00
 -1      3977 5.94000E+01 3.05150E+01 0.00000E+00
 -1      3978 6.09000E+01 3.05150E+01 0.00000E+00
 -1      3979 5.86500E+01 2.92160E+01 0.00000E+00
 -1      3980 6.24000E+01 3.05150E+01 0.00000E+00
 -1      3981 6.39000E+01 3.05150E+01 0.00000E+00
 -1      3982 6.16500E+01 2.92160E+01 0.00000E+00
 -1      3983 6.54000E+01 3.05150E+01 0.00000E+00
 -1      3984 6.69000E+01 3.05150E+01 0.00000E+00
 -1      3985 6.46500E+01 2.92160E+01 0.00000E+00
 -1      3986 1.67118E+01 1.86156E+01 0.00000E+00
 -1      3987 1.67118E+01 2.00890E+01 0.00000E+00
 -1      3988 1.80067E+01 2.08453E+01 0.00000E+00
 -1      3989 1.76645E+01 1.83859E+01 0.00000E+00
 -1      3990 3.47850E+01 1.56973E+01 0.00000E+00
 -1      3991 3.32850E+01 1.56973E+01 0.00000E+00
 -1      3992 3.55350E+01 1.69963E+01 0.00000E+00
 -1      3993 1.11399E+02 3.00874E+01 0.00000E+00
 -1      3994 2.94000E+01 3.05150E+01 0.00000E+00
 -1      3995 3.09000E+01 3.05150E+01 0.00000E+00
 -1      3996 3.16500E+01 2.92160E+01 0.00000E+00
 -1      3997 1.28382E+02 3.11964E+01 0.00000E+00
 -1      3998 6.02850E+01 1.82952E+01 0.00000E+00
 -1      3999 5.87850E+01 1.82952E+01 0.00000E+00
 -1      4000 1.16181E+02 3.07984E+01 0.00000E+00
 -1      4001 1.17681E+02 3.07984E+01 0.00000E+00
 -1      4002 1.19181E+02 3.07984E+01 0.00000E+00
 -1      4003 1.20681E+02 3.07984E+01 0.00000E+00
 -1      4004 1.18431E+02 2.94994E+01 0.00000E+00
 -1      4005 1.22181E+02 3.07984E+01 0.00000E+00
 -1      4006 1.23681E+02 3.07984E+01 0.00000E+00
 -1      4007 1.21431E+02 2.94994E+01 0.00000E+00
 -1      4008 1.25181E+02 3.07984E+01 0.00000E+00
 -1      4009 1.26681E+02 3.07984E+01 0.00000E+00
 -1      4010 1.24431E+02 2.94994E+01 0.00000E+00
 -1      4011 5.72850E+01 1.82952E+01 0.00000E+00
 -1      4012 5.57850E+01 1.82952E+01 0.00000E+00
 -1      4013 5.80350E+01 1.95942E+01 0.00000E+00
 -1      4014 6.32850E+01 1.82952E+01 0.00000E+00
 -1      4015 6.17850E+01 1.82952E+01 0.00000E+00
 -1      4016 6.10350E+01 1.95942E+01 0.00000E+00
 -1      4017 5.42850E+01 1.82952E+01 0.00000E+00
 -1      4018 5.27850E+01 1.82952E+01 0.00000E+00
 -1      4019 5.50350E+01 1.95942E+01 0.00000E+00
 -1      4020 6.62850E+01 1.82952E+01 0.00000E+00
 -1      4021 6.47850E+01 1.82952E+01 0.00000E+00
 -1      4022 6.40350E+01 1.95942E+01 0.00000E+00
 -1      4023 6.92850E+01 1.82952E+01 0.00000E+00
 -1      4024 6.77850E+01 1.82952E+01 0.00000E+00
 -1      4025 6.70350E+01 1.95942E+01 0.00000E+00
 -1      4026 7.20501E+01 1.81781E+01 0.00000E+00
 -1      4027 7.05501E+01 1.81781E+01 0.00000E+00
 -1      4028 6.98001E+01 1.94771E+01 0.00000E+00
 -1      4029 7.23302E+01 1.92428E+01 0.00000E+00
 -1      4030 1.33249E+02 2.04358E+01 0.00000E+00
 -1      4031 1.33386E+02 1.89210E+01 0.00000E+00
 -1      4032 1.32223E+02 1.87694E+01 0.00000E+00
 -1      4033 1.17285E+02 1.82502E+01 0.00000E+00
 -1      4034 1.15785E+02 1.82502E+01 0.00000E+00
 -1      4035 1.20285E+02 1.82502E+01 0.00000E+00
 -1      4036 1.18785E+02 1.82502E+01 0.00000E+00
 -1      4037 1.18035E+02 1.95492E+01 0.00000E+00
 -1      4038 1.23285E+02 1.82502E+01 0.00000E+00
 -1      4039 1.21785E+02 1.82502E+01 0.00000E+00
 -1      4040 1.21035E+02 1.95492E+01 0.00000E+00
 -1      4041 1.26285E+02 1.82502E+01 0.00000E+00
 -1      4042 1.24785E+02 1.82502E+01 0.00000E+00
 -1      4043 1.24035E+02 1.95492E+01 0.00000E+00
 -1      4044 1.29285E+02 1.82502E+01 0.00000E+00
 -1      4045 1.27785E+02 1.82502E+01 0.00000E+00
 -1      4046 1.27035E+02 1.95492E+01 0.00000E+00
 -1      4047 1.10534E+02 1.79887E+01 0.00000E+00
 -1      4048 1.10056E+02 1.93105E+01 0.00000E+00
 -1      4049 1.11217E+02 1.99955E+01 0.00000E+00
 -1      4050 1.11762E+02 1.79660E+01 0.00000E+00
 -1      4051 2.34000E+01 3.05150E+01 0.00000E+00
 -1      4052 2.49000E+01 3.05150E+01 0.00000E+00
 -1      4053 2.64000E+01 3.05150E+01 0.00000E+00
 -1      4054 2.79000E+01 3.05150E+01 0.00000E+00
 -1      4055 2.56500E+01 2.92160E+01 0.00000E+00
 -1      4056 1.14524E+02 1.81081E+01 0.00000E+00
 -1      4057 1.13024E+02 1.81081E+01 0.00000E+00
 -1      4058 1.12751E+02 1.91228E+01 0.00000E+00
 -1      4059 1.15274E+02 1.94071E+01 0.00000E+00
 -1      4060 2.42850E+01 1.82952E+01 0.00000E+00
 -1      4061 2.27850E+01 1.82952E+01 0.00000E+00
 -1      4062 5.12850E+01 1.82952E+01 0.00000E+00
 -1      4063 4.97850E+01 1.82952E+01 0.00000E+00
 -1      4064 5.20350E+01 1.95942E+01 0.00000E+00
 -1      4065 1.33181E+02 2.30874E+01 0.00000E+00
 -1      4066 1.33181E+02 2.16156E+01 0.00000E+00
 -1      4067 1.32018E+02 2.14639E+01 0.00000E+00
 -1      4068 1.31882E+02 2.38234E+01 0.00000E+00
 -1      4069 1.81691E+01 2.65124E+01 0.00000E+00
 -1      4070 1.68661E+01 2.72545E+01 0.00000E+00
 -1      4071 2.04000E+01 3.05150E+01 0.00000E+00
 -1      4072 2.19000E+01 3.05150E+01 0.00000E+00
 -1      4073 2.26500E+01 2.92160E+01 0.00000E+00
 -1      4074 1.12020E+02 2.84996E+01 0.00000E+00
 -1      4075 1.13051E+02 3.05096E+01 0.00000E+00
 -1      4076 2.72850E+01 1.82952E+01 0.00000E+00
 -1      4077 2.57850E+01 1.82952E+01 0.00000E+00
 -1      4078 2.50350E+01 1.95942E+01 0.00000E+00
 -1      4079 1.27632E+02 2.98974E+01 0.00000E+00
 -1      4080 7.12609E+01 3.12756E+01 0.00000E+00
 -1      4081 6.85447E+01 2.89886E+01 0.00000E+00
 -1      4082 6.92947E+01 3.02876E+01 0.00000E+00
 -1      4083 2.20350E+01 1.95943E+01 0.00000E+00
 -1      4084 2.12850E+01 1.82953E+01 0.00000E+00
 -1      4085 2.87850E+01 1.82952E+01 0.00000E+00
 -1      4086 2.80350E+01 1.95942E+01 0.00000E+00
 -1      4087 3.02850E+01 1.82952E+01 0.00000E+00
 -1      4088 2.86500E+01 2.92160E+01 0.00000E+00
 -1      4089 1.14551E+02 3.05096E+01 0.00000E+00
 -1      4090 1.15301E+02 2.92106E+01 0.00000E+00
 -1      4091 3.92850E+01 1.82952E+01 0.00000E+00
 -1      4092 3.77850E+01 1.82952E+01 0.00000E+00
 -1      4093 1.99669E+01 1.81455E+01 0.00000E+00
 -1      4094 4.07850E+01 1.82952E+01 0.00000E+00
 -1      4095 4.00350E+01 1.95942E+01 0.00000E+00
 -1      4096 4.22850E+01 1.82952E+01 0.00000E+00
 -1      4097 7.07947E+01 3.02876E+01 0.00000E+00
 -1      4098 3.25350E+01 1.69963E+01 0.00000E+00
 -1      4099 4.45350E+01 1.69963E+01 0.00000E+00
 -1      4100 1.94725E+01 2.57699E+01 0.00000E+00
 -1      4101 1.94638E+01 2.72698E+01 0.00000E+00
 -1      4102 7.15022E+01 2.01162E+01 0.00000E+00
 -1      4103 7.15314E+01 2.67969E+01 0.00000E+00
 -1      4104 7.10650E+01 2.58551E+01 0.00000E+00
 -1      4105 7.04730E+01 2.78194E+01 0.00000E+00
 -1      4106 1.27077E+02 2.84335E+01 0.00000E+00
 -1      4107 1.28778E+02 2.88315E+01 0.00000E+00
 -1      4108 7.34110E+01 3.18096E+01 0.00000E+00
 -1      4109 7.20313E+01 2.28525E+01 0.00000E+00
 -1      4110 7.10949E+01 2.18423E+01 0.00000E+00
 -1      4111 7.11869E+01 2.38224E+01 0.00000E+00
 -1      4112 4.90350E+01 1.95942E+01 0.00000E+00
 -1      4113 4.82850E+01 1.82952E+01 0.00000E+00
 -1      4114 4.67850E+01 1.82952E+01 0.00000E+00
 -1      4115 1.30551E+02 2.43384E+01 0.00000E+00
 -1      4116 1.30619E+02 2.31587E+01 0.00000E+00
 -1      4117 1.63857E+01 2.84140E+01 0.00000E+00
 -1      4118 1.11235E+02 2.33776E+01 0.00000E+00
 -1      4119 1.12225E+02 2.45261E+01 0.00000E+00
 -1      4120 1.11934E+02 2.21588E+01 0.00000E+00
 -1      4121 1.12598E+02 2.73334E+01 0.00000E+00
 -1      4122 1.31061E+02 1.86177E+01 0.00000E+00
 -1      4123 1.30311E+02 1.99167E+01 0.00000E+00
 -1      4124 1.50679E+01 3.01028E+01 0.00000E+00
 -1      4125 1.94725E+01 2.28324E+01 0.00000E+00
 -1      4126 1.94725E+01 2.43012E+01 0.00000E+00
 -1      4127 2.07671E+01 2.50586E+01 0.00000E+00
 -1      4128 1.29683E+02 2.88475E+01 0.00000E+00
 -1      4129 1.30953E+02 2.86299E+01 0.00000E+00
 -1      4130 1.30938E+02 2.74157E+01 0.00000E+00
 -1      4131 1.29129E+02 2.73837E+01 0.00000E+00
 -1      4132 1.77802E+01 2.98282E+01 0.00000E+00
 -1      4133 1.89052E+01 2.99131E+01 0.00000E+00
 -1      4134 1.30924E+02 2.62014E+01 0.00000E+00
 -1      4135 1.29661E+02 2.55367E+01 0.00000E+00
 -1      4136 1.96552E+01 2.86141E+01 0.00000E+00
 -1      4137 3.69000E+01 2.79170E+01 0.00000E+00
 -1      4138 3.84000E+01 2.79170E+01 0.00000E+00
 -1      4139 3.99000E+01 2.79170E+01 0.00000E+00
 -1      4140 4.14000E+01 2.79170E+01 0.00000E+00
 -1      4141 3.91500E+01 2.66180E+01 0.00000E+00
 -1      4142 4.29000E+01 2.79170E+01 0.00000E+00
 -1      4143 4.44000E+01 2.79170E+01 0.00000E+00
 -1      4144 4.21500E+01 2.66180E+01 0.00000E+00
 -1      4145 4.59000E+01 2.79170E+01 0.00000E+00
 -1      4146 4.74000E+01 2.79170E+01 0.00000E+00
 -1      4147 4.51500E+01 2.66180E+01 0.00000E+00
 -1      4148 4.89000E+01 2.79170E+01 0.00000E+00
 -1      4149 5.04000E+01 2.79170E+01 0.00000E+00
 -1      4150 4.81500E+01 2.66180E+01 0.00000E+00
 -1      4151 5.19000E+01 2.79170E+01 0.00000E+00
 -1      4152 5.34000E+01 2.79170E+01 0.00000E+00
 -1      4153 5.11500E+01 2.66180E+01 0.00000E+00
 -1      4154 5.49000E+01 2.79170E+01 0.00000E+00
 -1      4155 5.64000E+01 2.79170E+01 0.00000E+00
 -1      4156 5.41500E+01 2.66180E+01 0.00000E+00
 -1      4157 5.79000E+01 2.79170E+01 0.00000E+00
 -1      4158 5.94000E+01 2.79170E+01 0.00000E+00
 -1      4159 5.71500E+01 2.66180E+01 0.00000E+00
 -1      4160 6.09000E+01 2.79170E+01 0.00000E+00
 -1      4161 6.24000E+01 2.79170E+01 0.00000E+00
 -1      4162 6.01500E+01 2.66180E+01 0.00000E+00
 -1      4163 6.39000E+01 2.79170E+01 0.00000E+00
 -1      4164 6.54000E+01 2.79170E+01 0.00000E+00
 -1      4165 6.31500E+01 2.66180E+01 0.00000E+00
 -1      4166 1.17681E+02 2.82004E+01 0.00000E+00
 -1      4167 1.19181E+02 2.82004E+01 0.00000E+00
 -1      4168 3.70350E+01 1.95942E+01 0.00000E+00
 -1      4169 3.62850E+01 1.82952E+01 0.00000E+00
 -1      4170 3.47850E+01 1.82952E+01 0.00000E+00
 -1      4171 1.30431E+02 2.21275E+01 0.00000E+00
 -1      4172 1.30499E+02 2.09478E+01 0.00000E+00
 -1      4173 1.28723E+02 2.05803E+01 0.00000E+00
 -1      4174 1.29100E+02 2.26426E+01 0.00000E+00
 -1      4175 6.47850E+01 2.08932E+01 0.00000E+00
 -1      4176 6.32850E+01 2.08932E+01 0.00000E+00
 -1      4177 1.20681E+02 2.82004E+01 0.00000E+00
 -1      4178 1.22181E+02 2.82004E+01 0.00000E+00
 -1      4179 1.19931E+02 2.69014E+01 0.00000E+00
 -1      4180 1.23681E+02 2.82004E+01 0.00000E+00
 -1      4181 1.25181E+02 2.82004E+01 0.00000E+00
 -1      4182 1.22931E+02 2.69014E+01 0.00000E+00
 -1      4183 5.87850E+01 2.08932E+01 0.00000E+00
 -1      4184 5.72850E+01 2.08932E+01 0.00000E+00
 -1      4185 6.77850E+01 2.08932E+01 0.00000E+00
 -1      4186 6.62850E+01 2.08932E+01 0.00000E+00
 -1      4187 6.55350E+01 2.21922E+01 0.00000E+00
 -1      4188 5.57850E+01 2.08932E+01 0.00000E+00
 -1      4189 5.42850E+01 2.08932E+01 0.00000E+00
 -1      4190 5.65350E+01 2.21922E+01 0.00000E+00
 -1      4191 7.02762E+01 2.04462E+01 0.00000E+00
 -1      4192 6.90111E+01 2.05633E+01 0.00000E+00
 -1      4193 6.82611E+01 2.18623E+01 0.00000E+00
 -1      4194 7.07132E+01 2.12024E+01 0.00000E+00
 -1      4195 1.24785E+02 2.08482E+01 0.00000E+00
 -1      4196 1.23285E+02 2.08482E+01 0.00000E+00
 -1      4197 1.21785E+02 2.08482E+01 0.00000E+00
 -1      4198 1.20285E+02 2.08482E+01 0.00000E+00
 -1      4199 1.22535E+02 2.21472E+01 0.00000E+00
 -1      4200 1.18785E+02 2.08482E+01 0.00000E+00
 -1      4201 1.17285E+02 2.08482E+01 0.00000E+00
 -1      4202 1.19535E+02 2.21472E+01 0.00000E+00
 -1      4203 1.26327E+02 2.71345E+01 0.00000E+00
 -1      4204 1.27504E+02 2.07143E+01 0.00000E+00
 -1      4205 1.26004E+02 2.07143E+01 0.00000E+00
 -1      4206 1.25254E+02 2.20133E+01 0.00000E+00
 -1      4207 1.27693E+02 2.17454E+01 0.00000E+00
 -1      4208 1.12479E+02 2.01334E+01 0.00000E+00
 -1      4209 1.12207E+02 2.11482E+01 0.00000E+00
 -1      4210 1.13196E+02 2.22967E+01 0.00000E+00
 -1      4211 1.13740E+02 2.02756E+01 0.00000E+00
 -1      4212 2.49000E+01 2.79170E+01 0.00000E+00
 -1      4213 2.64000E+01 2.79170E+01 0.00000E+00
 -1      4214 2.09585E+01 2.78717E+01 0.00000E+00
 -1      4215 3.32850E+01 1.82952E+01 0.00000E+00
 -1      4216 3.17850E+01 1.82952E+01 0.00000E+00
 -1      4217 3.10350E+01 1.95942E+01 0.00000E+00
 -1      4218 3.40350E+01 1.95942E+01 0.00000E+00
 -1      4219 2.79000E+01 2.79170E+01 0.00000E+00
 -1      4220 2.94000E+01 2.79170E+01 0.00000E+00
 -1      4221 2.71500E+01 2.66180E+01 0.00000E+00
 -1      4222 1.14421E+02 2.76229E+01 0.00000E+00
 -1      4223 1.16051E+02 2.79116E+01 0.00000E+00
 -1      4224 1.16801E+02 2.66126E+01 0.00000E+00
 -1      4225 5.27850E+01 2.08932E+01 0.00000E+00
 -1      4226 5.12850E+01 2.08932E+01 0.00000E+00
 -1      4227 5.35350E+01 2.21922E+01 0.00000E+00
 -1      4228 3.09000E+01 2.79170E+01 0.00000E+00
 -1      4229 3.24000E+01 2.79170E+01 0.00000E+00
 -1      4230 3.01500E+01 2.66180E+01 0.00000E+00
 -1      4231 1.86172E+01 1.81561E+01 0.00000E+00
 -1      4232 2.21793E+01 2.78943E+01 0.00000E+00
 -1      4233 2.36793E+01 2.78943E+01 0.00000E+00
 -1      4234 2.44293E+01 2.65953E+01 0.00000E+00
 -1      4235 2.19878E+01 2.65500E+01 0.00000E+00
 -1      4236 6.17850E+01 2.08932E+01 0.00000E+00
 -1      4237 6.02850E+01 2.08932E+01 0.00000E+00
 -1      4238 5.95350E+01 2.21922E+01 0.00000E+00
 -1      4239 1.13348E+02 2.60344E+01 0.00000E+00
 -1      4240 2.57850E+01 2.08932E+01 0.00000E+00
 -1      4241 2.42850E+01 2.08932E+01 0.00000E+00
 -1      4242 4.52850E+01 1.82952E+01 0.00000E+00
 -1      4243 4.37850E+01 1.82952E+01 0.00000E+00
 -1      4244 4.30350E+01 1.95942E+01 0.00000E+00
 -1      4245 3.39000E+01 2.79170E+01 0.00000E+00
 -1      4246 3.54000E+01 2.79170E+01 0.00000E+00
 -1      4247 3.31500E+01 2.66180E+01 0.00000E+00
 -1      4248 6.72245E+01 2.78091E+01 0.00000E+00
 -1      4249 6.96192E+01 2.75817E+01 0.00000E+00
 -1      4250 3.61500E+01 2.66180E+01 0.00000E+00
 -1      4251 6.64745E+01 2.65101E+01 0.00000E+00
 -1      4252 5.05350E+01 2.21922E+01 0.00000E+00
 -1      4253 4.97850E+01 2.08932E+01 0.00000E+00
 -1      4254 4.82850E+01 2.08932E+01 0.00000E+00
 -1      4255 1.60054E+01 3.02301E+01 0.00000E+00
 -1      4256 2.87850E+01 2.08932E+01 0.00000E+00
 -1      4257 2.72850E+01 2.08932E+01 0.00000E+00
 -1      4258 2.65350E+01 2.21922E+01 0.00000E+00
 -1      4259 1.91853E+01 1.96049E+01 0.00000E+00
 -1      4260 1.28069E+02 2.38077E+01 0.00000E+00
 -1      4261 1.27881E+02 2.27765E+01 0.00000E+00
 -1      4262 1.26662E+02 2.29105E+01 0.00000E+00
 -1      4263 1.14047E+02 2.48156E+01 0.00000E+00
 -1      4264 6.98688E+01 2.21722E+01 0.00000E+00
 -1      4265 1.93564E+01 2.08347E+01 0.00000E+00
 -1      4266 1.28442E+02 2.56706E+01 0.00000E+00
 -1      4267 7.01285E+01 2.48449E+01 0.00000E+00
 -1      4268 4.07850E+01 2.08932E+01 0.00000E+00
 -1      4269 3.92850E+01 2.08932E+01 0.00000E+00
 -1      4270 2.29010E+01 2.28911E+01 0.00000E+00
 -1      4271 2.21510E+01 2.15921E+01 0.00000E+00
 -1      4272 1.16143E+02 2.06329E+01 0.00000E+00
 -1      4273 1.14882E+02 2.04908E+01 0.00000E+00
 -1      4274 1.14610E+02 2.15014E+01 0.00000E+00
 -1      4275 1.16893E+02 2.19319E+01 0.00000E+00
 -1      4276 2.06511E+01 2.15921E+01 0.00000E+00
 -1      4277 6.25350E+01 2.21922E+01 0.00000E+00
 -1      4278 4.60350E+01 1.95942E+01 0.00000E+00
 -1      4279 2.19878E+01 2.50813E+01 0.00000E+00
 -1      4280 3.85350E+01 2.21922E+01 0.00000E+00
 -1      4281 3.77850E+01 2.08932E+01 0.00000E+00
 -1      4282 3.62850E+01 2.08932E+01 0.00000E+00
 -1      4283 3.54000E+01 2.53190E+01 0.00000E+00
 -1      4284 3.69000E+01 2.53190E+01 0.00000E+00
 -1      4285 6.58425E+01 2.44051E+01 0.00000E+00
 -1      4286 6.76670E+01 2.42972E+01 0.00000E+00
 -1      4287 4.14000E+01 2.53190E+01 0.00000E+00
 -1      4288 4.29000E+01 2.53190E+01 0.00000E+00
 -1      4289 4.44000E+01 2.53190E+01 0.00000E+00
 -1      4290 4.59000E+01 2.53190E+01 0.00000E+00
 -1      4291 4.36500E+01 2.40200E+01 0.00000E+00
 -1      4292 4.78425E+01 2.44051E+01 0.00000E+00
 -1      4293 4.93425E+01 2.44051E+01 0.00000E+00
 -1      4294 5.08425E+01 2.44051E+01 0.00000E+00
 -1      4295 5.23425E+01 2.44051E+01 0.00000E+00
 -1      4296 5.38425E+01 2.44051E+01 0.00000E+00
 -1      4297 5.53425E+01 2.44051E+01 0.00000E+00
 -1      4298 5.68425E+01 2.44051E+01 0.00000E+00
 -1      4299 5.83425E+01 2.44051E+01 0.00000E+00
 -1      4300 5.98425E+01 2.44051E+01 0.00000E+00
 -1      4301 6.13425E+01 2.44051E+01 0.00000E+00
 -1      4302 6.28425E+01 2.44051E+01 0.00000E+00
 -1      4303 6.43425E+01 2.44051E+01 0.00000E+00
 -1      4304 1.19181E+02 2.56024E+01 0.00000E+00
 -1      4305 1.20681E+02 2.56024E+01 0.00000E+00
 -1      4306 1.22733E+02 2.45243E+01 0.00000E+00
 -1      4307 1.24233E+02 2.45243E+01 0.00000E+00
 -1      4308 2.41218E+01 2.43825E+01 0.00000E+00
 -1      4309 1.20483E+02 2.32253E+01 0.00000E+00
 -1      4310 1.18983E+02 2.32253E+01 0.00000E+00
 -1      4311 4.18425E+01 2.18071E+01 0.00000E+00
 -1      4312 4.10925E+01 2.31061E+01 0.00000E+00
 -1      4313 2.94000E+01 2.53190E+01 0.00000E+00
 -1      4314 3.09000E+01 2.53190E+01 0.00000E+00
 -1      4315 4.63425E+01 2.18071E+01 0.00000E+00
 -1      4316 4.48425E+01 2.18071E+01 0.00000E+00
 -1      4317 4.33425E+01 2.18071E+01 0.00000E+00
 -1      4318 3.24000E+01 2.53190E+01 0.00000E+00
 -1      4319 3.39000E+01 2.53190E+01 0.00000E+00
 -1      4320 3.16500E+01 2.40200E+01 0.00000E+00
 -1      4321 1.14437E+02 2.37005E+01 0.00000E+00
 -1      4322 1.15560E+02 2.52088E+01 0.00000E+00
 -1      4323 1.17190E+02 2.54976E+01 0.00000E+00
 -1      4324 1.14709E+02 2.26900E+01 0.00000E+00
 -1      4325 2.68425E+01 2.44051E+01 0.00000E+00
 -1      4326 2.83425E+01 2.44051E+01 0.00000E+00
 -1      4327 6.88931E+01 2.39673E+01 0.00000E+00
 -1      4328 1.17940E+02 2.41986E+01 0.00000E+00
 -1      4329 1.16992E+02 2.31205E+01 0.00000E+00
 -1      4330 4.70925E+01 2.31061E+01 0.00000E+00
 -1      4331 2.53425E+01 2.44051E+01 0.00000E+00
 -1      4332 4.04963E+01 2.42126E+01 0.00000E+00
 -1      4333 3.94388E+01 2.32987E+01 0.00000E+00
 -1      4334 3.79388E+01 2.32987E+01 0.00000E+00
 -1      4335 3.97463E+01 2.55116E+01 0.00000E+00
 -1      4336 2.98425E+01 2.18071E+01 0.00000E+00
 -1      4337 2.90925E+01 2.31061E+01 0.00000E+00
 -1      4338 1.25443E+02 2.30444E+01 0.00000E+00
 -1      4339 1.25640E+02 2.54215E+01 0.00000E+00
 -1      4340 1.21233E+02 2.45243E+01 0.00000E+00
 -1      4341 3.82463E+01 2.55116E+01 0.00000E+00
 -1      4342 1.27537E+02 2.56546E+01 0.00000E+00
 -1      4343 3.43425E+01 2.18071E+01 0.00000E+00
 -1      4344 3.28425E+01 2.18071E+01 0.00000E+00
 -1      4345 3.50925E+01 2.31061E+01 0.00000E+00
 -1      4346 3.13425E+01 2.18071E+01 0.00000E+00
 -1      4347 3.74963E+01 2.42126E+01 0.00000E+00
 -1      4348 1.15851E+02 2.29052E+01 0.00000E+00
 -1      4349 6.91528E+01 2.66399E+01 0.00000E+00
 -1      4350 3.46500E+01 2.40200E+01 0.00000E+00
 -1      4351 6.92748E+01 2.46072E+01 0.00000E+00
 -1      4352 3.65925E+01 2.31061E+01 0.00000E+00
 -3
    3C                          2094                                     1
 -1       165    8    0    1
 -2         6         7        23      1130      1294      1147
 -1       166    8    0    1
 -2         7         8       165      1131      1295      1296
 -1       167    8    0    1
 -2         8         9       166      1132      1297      1298
 -1       168    8    0    1
 -2         8       166       165      1298      1299      1295
 -1       169    8    0    1
 -2         9        10       167      1133      1300      1301
 -1       170    8    0    1
 -2         9       167       166      1301      1302      1297
 -1       171    8    0    1
 -2        10        11       168      1134      1303      1304
 -1       172    8    0    1
 -2        10       168       167      1304      1305      1300
 -1       173    8    0    1
 -2        11        12       169      1135      1306      1307
 -1       174    8    0    1
 -2        11       169       168      1307      1308      1303
 -1       175    8    0    1
 -2        12        13       170      1136      1309      1310
 -1       176    8    0    1
 -2        12       170       169      1310      1311      1306
 -1       177    8    0    1
 -2        13        14       171      1137      1312      1313
 -1       178    8    0    1
 -2        13       171       170      1313      1314      1309
 -1       179    8    0    1
 -2        14        15       172      1138      1315      1316
 -1       180    8    0    1
 -2        14       172       171      1316      1317      1312
 -1       181    8    0    1
 -2        15        16       173      1139      1318      1319
 -1       182    8    0    1
 -2        15       173       172      1319      1320      1315
 -1       183    8    0    1
 -2        16        17       174      1140      1321      1322
 -1       184    8    0    1
 -2        16       174       173      1322      1323      1318
 -1       185    8    0    1
 -2        17        18       175      1141      1324      1325
 -1       186    8    0    1
 -2        17       175       174      1325      1326      1321
 -1       187    8    0    1
 -2        18        19       176      1142      1327      1328
 -1       188    8    0    1
 -2        18       176       175      1328      1329      1324
 -1       189    8    0    1
 -2        19        20       177      1143      1330      1331
 -1       190    8    0    1
 -2        19       177       176      1331      1332      1327
 -1       191    8    0    1
 -2        20        21       178      1144      1333      1334
 -1       192    8    0    1
 -2        20       178       177      1334      1335      1330
 -1       193    8    0    1
 -2        21        22       179      1145      1336      1337
 -1       194    8    0    1
 -2        21       179       178      1337      1338      1333
 -1       195    8    0    1
 -2        22         5       180      1146      1339      1340
 -1       196    8    0    1
 -2       179        22       180      1336      1340      1341
 -1       197    8    0    1
 -2         5        72       180      1197      1342      1339
 -1       198    8    0    1
 -2        24        23       181      1148      1343      1344
 -1       199    8    0    1
 -2        25        24       182      1149      1345      1346
 -1       200    8    0    1
 -2        24       181       182      1344      1347      1345
 -1       201    8    0    1
 -2        26        25       183      1150      1348      1349
 -1       202    8    0    1
 -2        25       182       183      1346      1350      1348
 -1       203    8    0    1
 -2        27        26       184      1151      1351      1352
 -1       204    8    0    1
 -2        26       183       184      1349      1353      1351
 -1       205    8    0    1
 -2        28        27       185      1152      1354      1355
 -1       206    8    0    1
 -2        27       184       185      1352      1356      1354
 -1       207    8    0    1
 -2        29        28       186      1153      1357      1358
 -1       208    8    0    1
 -2        28       185       186      1355      1359      1357
 -1       209    8    0    1
 -2        30        29       187      1154      1360      1361
 -1       210    8    0    1
 -2        29       186       187      1358      1362      1360
 -1       211    8    0    1
 -2        31        30       188      1155      1363      1364
 -1       212    8    0    1
 -2        30       187       188      1361      1365      1363
 -1       213    8    0    1
 -2        32        31       189      1156      1366      1367
 -1       214    8    0    1
 -2        31       188       189      1364      1368      1366
 -1       215    8    0    1
 -2        33        32       190      1157      1369      1370
 -1       216    8    0    1
 -2        32       189       190      1367      1371      1369
 -1       217    8    0    1
 -2        34        33       191      1158      1372      1373
 -1       218    8    0    1
 -2        33       190       191      1370      1374      1372
 -1       219    8    0    1
 -2        35        34       192      1159      1375      1376
 -1       220    8    0    1
 -2        34       191       192      1373      1377      1375
 -1       221    8    0    1
 -2        36        35       193      1160      1378      1379
 -1       222    8    0    1
 -2        35       192       193      1376      1380      1378
 -1       223    8    0    1
 -2        37        36       194      1161      1381      1382
 -1       224    8    0    1
 -2        36       193       194      1379      1383      1381
 -1       225    8    0    1
 -2        38        37       195      1162      1384      1385
 -1       226    8    0    1
 -2        37       194       195      1382      1386      1384
 -1       227    8    0    1
 -2        39        38       196      1163      1387      1388
 -1       228    8    0    1
 -2        38       195       196      1385      1389      1387
 -1       229    8    0    1
 -2        40        39       197      1164      1390      1391
 -1       230    8    0    1
 -2        39       196       197      1388      1392      1390
 -1       231    8    0    1
 -2        41        40       198      1165      1393      1394
 -1       232    8    0    1
 -2        40       197       198      1391      1395      1393
 -1       233    8    0    1
 -2        42        41       199      1166      1396      1397
 -1       234    8    0    1
 -2        41       198       199      1394      1398      1396
 -1       235    8    0    1
 -2        43        42       200      1167      1399      1400
 -1       236    8    0    1
 -2        42       199       200      1397      1401      1399
 -1       237    8    0    1
 -2        44        43       201      1168      1402      1403
 -1       238    8    0    1
 -2        43       200       201      1400      1404      1402
 -1       239    8    0    1
 -2        45        44       202      1169      1405      1406
 -1       240    8    0    1
 -2        44       201       202      1403      1407      1405
 -1       241    8    0    1
 -2        46        45       203      1170      1408      1409
 -1       242    8    0    1
 -2        45       202       203      1406      1410      1408
 -1       243    8    0    1
 -2        47        46       204      1171      1411      1412
 -1       244    8    0    1
 -2        46       203       204      1409      1413      1411
 -1       245    8    0    1
 -2        48        47       205      1172      1414      1415
 -1       246    8    0    1
 -2        47       204       205      1412      1416      1414
 -1       247    8    0    1
 -2        49        48       206      1173      1417      1418
 -1       248    8    0    1
 -2        48       205       206      1415      1419      1417
 -1       249    8    0    1
 -2        50        49       207      1174      1420      1421
 -1       250    8    0    1
 -2        49       206       207      1418      1422      1420
 -1       251    8    0    1
 -2        51        50       208      1175      1423      1424
 -1       252    8    0    1
 -2        50       207       208      1421      1425      1423
 -1       253    8    0    1
 -2        52        51       209      1176      1426      1427
 -1       254    8    0    1
 -2        51       208       209      1424      1428      1426
 -1       255    8    0    1
 -2        53        52       210      1177      1429      1430
 -1       256    8    0    1
 -2        52       209       210      1427      1431      1429
 -1       257    8    0    1
 -2        54        53       211      1178      1432      1433
 -1       258    8    0    1
 -2        53       210       211      1430      1434      1432
 -1       259    8    0    1
 -2        55        54       212      1179      1435      1436
 -1       260    8    0    1
 -2        54       211       212      1433      1437      1435
 -1       261    8    0    1
 -2        56        55       213      1180      1438      1439
 -1       262    8    0    1
 -2        55       212       213      1436      1440      1438
 -1       263    8    0    1
 -2        57        56       214      1181      1441      1442
 -1       264    8    0    1
 -2        56       213       214      1439      1443      1441
 -1       265    8    0    1
 -2        58        57       215      1182      1444      1445
 -1       266    8    0    1
 -2        57       214       215      1442      1446      1444
 -1       267    8    0    1
 -2        59        58       216      1183      1447      1448
 -1       268    8    0    1
 -2        58       215       216      1445      1449      1447
 -1       269    8    0    1
 -2        60        59       217      1184      1450      1451
 -1       270    8    0    1
 -2        59       216       217      1448      1452      1450
 -1       271    8    0    1
 -2        61        60       218      1185      1453      1454
 -1       272    8    0    1
 -2        60       217       218      1451      1455      1453
 -1       273    8    0    1
 -2        62        61       219      1186      1456      1457
 -1       274    8    0    1
 -2        61       218       219      1454      1458      1456
 -1       275    8    0    1
 -2        63        62       220      1187      1459      1460
 -1       276    8    0    1
 -2        62       219       220      1457      1461      1459
 -1       277    8    0    1
 -2        64        63       221      1188      1462      1463
 -1       278    8    0    1
 -2        63       220       221      1460      1464      1462
 -1       279    8    0    1
 -2        65        64       222      1189      1465      1466
 -1       280    8    0    1
 -2        64       221       222      1463      1467      1465
 -1       281    8    0    1
 -2        66        65       223      1190      1468      1469
 -1       282    8    0    1
 -2        65       222       223      1466      1470      1468
 -1       283    8    0    1
 -2        67        66       224      1191      1471      1472
 -1       284    8    0    1
 -2        66       223       224      1469      1473      1471
 -1       285    8    0    1
 -2        68        67       225      1192      1474      1475
 -1       286    8    0    1
 -2        67       224       225      1472      1476      1474
 -1       287    8    0    1
 -2        69        68       226      1193      1477      1478
 -1       288    8    0    1
 -2        68       225       226      1475      1479      1477
 -1       289    8    0    1
 -2        70        69       227      1194      1480      1481
 -1       290    8    0    1
 -2        69       226       227      1478      1482      1480
 -1       291    8    0    1
 -2        71        70       228      1195      1483      1484
 -1       292    8    0    1
 -2        70       227       228      1481      1485      1483
 -1       293    8    0    1
 -2         4        71       136      1196      1486      1263
 -1       294    8    0    1
 -2       136        71       228      1486      1484      1487
 -1       295    8    0    1
 -2        72        73       229      1198      1488      1489
 -1       296    8    0    1
 -2        72       229       180      1489      1490      1342
 -1       297    8    0    1
 -2        73        74       230      1199      1491      1492
 -1       298    8    0    1
 -2        73       230       229      1492      1493      1488
 -1       299    8    0    1
 -2        74        75       231      1200      1494      1495
 -1       300    8    0    1
 -2        74       231       230      1495      1496      1491
 -1       301    8    0    1
 -2        75        76       232      1201      1497      1498
 -1       302    8    0    1
 -2        75       232       231      1498      1499      1494
 -1       303    8    0    1
 -2        76        77       233      1202      1500      1501
 -1       304    8    0    1
 -2        76       233       232      1501      1502      1497
 -1       305    8    0    1
 -2        77        78       234      1203      1503      1504
 -1       306    8    0    1
 -2        77       234       233      1504      1505      1500
 -1       307    8    0    1
 -2        78        79       235      1204      1506      1507
 -1       308    8    0    1
 -2        78       235       234      1507      1508      1503
 -1       309    8    0    1
 -2        79        80       236      1205      1509      1510
 -1       310    8    0    1
 -2        79       236       235      1510      1511      1506
 -1       311    8    0    1
 -2        80        81       237      1206      1512      1513
 -1       312    8    0    1
 -2        80       237       236      1513      1514      1509
 -1       313    8    0    1
 -2        81        82       238      1207      1515      1516
 -1       314    8    0    1
 -2        81       238       237      1516      1517      1512
 -1       315    8    0    1
 -2        82        83       239      1208      1518      1519
 -1       316    8    0    1
 -2        82       239       238      1519      1520      1515
 -1       317    8    0    1
 -2        83        84       240      1209      1521      1522
 -1       318    8    0    1
 -2        83       240       239      1522      1523      1518
 -1       319    8    0    1
 -2        84        85       241      1210      1524      1525
 -1       320    8    0    1
 -2        84       241       240      1525      1526      1521
 -1       321    8    0    1
 -2        85        86       242      1211      1527      1528
 -1       322    8    0    1
 -2        85       242       241      1528      1529      1524
 -1       323    8    0    1
 -2        86        87       243      1212      1530      1531
 -1       324    8    0    1
 -2        86       243       242      1531      1532      1527
 -1       325    8    0    1
 -2        87        88       244      1213      1533      1534
 -1       326    8    0    1
 -2        87       244       243      1534      1535      1530
 -1       327    8    0    1
 -2        88        89       245      1214      1536      1537
 -1       328    8    0    1
 -2        88       245       244      1537      1538      1533
 -1       329    8    0    1
 -2        89        90       246      1215      1539      1540
 -1       330    8    0    1
 -2        89       246       245      1540      1541      1536
 -1       331    8    0    1
 -2        90        91       247      1216      1542      1543
 -1       332    8    0    1
 -2        90       247       246      1543      1544      1539
 -1       333    8    0    1
 -2        91        92       248      1217      1545      1546
 -1       334    8    0    1
 -2        91       248       247      1546      1547      1542
 -1       335    8    0    1
 -2        92        93       249      1218      1548      1549
 -1       336    8    0    1
 -2        92       249       248      1549      1550      1545
 -1       337    8    0    1
 -2        93        94       250      1219      1551      1552
 -1       338    8    0    1
 -2        93       250       249      1552      1553      1548
 -1       339    8    0    1
 -2        94        95       251      1220      1554      1555
 -1       340    8    0    1
 -2        94       251       250      1555      1556      1551
 -1       341    8    0    1
 -2        95        96       252      1221      1557      1558
 -1       342    8    0    1
 -2        95       252       251      1558      1559      1554
 -1       343    8    0    1
 -2        96        97       253      1222      1560      1561
 -1       344    8    0    1
 -2        96       253       252      1561      1562      1557
 -1       345    8    0    1
 -2        97        98       254      1223      1563      1564
 -1       346    8    0    1
 -2        97       254       253      1564      1565      1560
 -1       347    8    0    1
 -2        98        99       255      1224      1566      1567
 -1       348    8    0    1
 -2        98       255       254      1567      1568      1563
 -1       349    8    0    1
 -2        99       100       256      1225      1569      1570
 -1       350    8    0    1
 -2        99       256       255      1570      1571      1566
 -1       351    8    0    1
 -2       100       101       257      1226      1572      1573
 -1       352    8    0    1
 -2       100       257       256      1573      1574      1569
 -1       353    8    0    1
 -2       101       102       258      1227      1575      1576
 -1       354    8    0    1
 -2       101       258       257      1576      1577      1572
 -1       355    8    0    1
 -2       102       103       259      1228      1578      1579
 -1       356    8    0    1
 -2       102       259       258      1579      1580      1575
 -1       357    8    0    1
 -2       103       104       260      1229      1581      1582
 -1       358    8    0    1
 -2       103       260       259      1582      1583      1578
 -1       359    8    0    1
 -2       104       105       261      1230      1584      1585
 -1       360    8    0    1
 -2       104       261       260      1585      1586      1581
 -1       361    8    0    1
 -2       105       106       262      1231      1587      1588
 -1       362    8    0    1
 -2       105       262       261      1588      1589      1584
 -1       363    8    0    1
 -2       106       107       263      1232      1590      1591
 -1       364    8    0    1
 -2       106       263       262      1591      1592      1587
 -1       365    8    0    1
 -2       107       108       264      1233      1593      1594
 -1       366    8    0    1
 -2       107       264       263      1594      1595      1590
 -1       367    8    0    1
 -2       108       109       265      1234      1596      1597
 -1       368    8    0    1
 -2       108       265       264      1597      1598      1593
 -1       369    8    0    1
 -2       109       110       266      1235      1599      1600
 -1       370    8    0    1
 -2       109       266       265      1600      1601      1596
 -1       371    8    0    1
 -2       110       111       267      1236      1602      1603
 -1       372    8    0    1
 -2       110       267       266      1603      1604      1599
 -1       373    8    0    1
 -2       111       112       268      1237      1605      1606
 -1       374    8    0    1
 -2       111       268       267      1606      1607      1602
 -1       375    8    0    1
 -2       112       113       269      1238      1608      1609
 -1       376    8    0    1
 -2       112       269       268      1609      1610      1605
 -1       377    8    0    1
 -2       113       114       270      1239      1611      1612
 -1       378    8    0    1
 -2       113       270       269      1612      1613      1608
 -1       379    8    0    1
 -2       114       115       271      1240      1614      1615
 -1       380    8    0    1
 -2       114       271       270      1615      1616      1611
 -1       381    8    0    1
 -2       115       116       272      1241      1617      1618
 -1       382    8    0    1
 -2       115       272       271      1618      1619      1614
 -1       383    8    0    1
 -2       116       117       273      1242      1620      1621
 -1       384    8    0    1
 -2       116       273       272      1621      1622      1617
 -1       385    8    0    1
 -2       117       118       274      1243      1623      1624
 -1       386    8    0    1
 -2       117       274       273      1624      1625      1620
 -1       387    8    0    1
 -2       118       119       275      1244      1626      1627
 -1       388    8    0    1
 -2       118       275       274      1627      1628      1623
 -1       389    8    0    1
 -2       119       120       276      1245      1629      1630
 -1       390    8    0    1
 -2       119       276       275      1630      1631      1626
 -1       391    8    0    1
 -2       120         3       121      1246      1247      1632
 -1       392    8    0    1
 -2       121       122       277      1248      1633      1634
 -1       393    8    0    1
 -2       122       123       278      1249      1635      1636
 -1       394    8    0    1
 -2       122       278       277      1636      1637      1633
 -1       395    8    0    1
 -2       123       124       279      1250      1638      1639
 -1       396    8    0    1
 -2       123       279       278      1639      1640      1635
 -1       397    8    0    1
 -2       124       125       280      1251      1641      1642
 -1       398    8    0    1
 -2       124       280       279      1642      1643      1638
 -1       399    8    0    1
 -2       125       126       281      1252      1644      1645
 -1       400    8    0    1
 -2       125       281       280      1645      1646      1641
 -1       401    8    0    1
 -2       126       127       282      1253      1647      1648
 -1       402    8    0    1
 -2       126       282       281      1648      1649      1644
 -1       403    8    0    1
 -2       127       128       283      1254      1650      1651
 -1       404    8    0    1
 -2       127       283       282      1651      1652      1647
 -1       405    8    0    1
 -2       128       129       284      1255      1653      1654
 -1       406    8    0    1
 -2       128       284       283      1654      1655      1650
 -1       407    8    0    1
 -2       129       130       285      1256      1656      1657
 -1       408    8    0    1
 -2       129       285       284      1657      1658      1653
 -1       409    8    0    1
 -2       130       131       286      1257      1659      1660
 -1       410    8    0    1
 -2       130       286       285      1660      1661      1656
 -1       411    8    0    1
 -2       131       132       287      1258      1662      1663
 -1       412    8    0    1
 -2       131       287       286      1663      1664      1659
 -1       413    8    0    1
 -2       132       133       288      1259      1665      1666
 -1       414    8    0    1
 -2       132       288       287      1666      1667      1662
 -1       415    8    0    1
 -2       133       134       289      1260      1668      1669
 -1       416    8    0    1
 -2       133       289       288      1669      1670      1665
 -1       417    8    0    1
 -2       134       135       290      1261      1671      1672
 -1       418    8    0    1
 -2       134       290       289      1672      1673      1668
 -1       419    8    0    1
 -2       135       136       291      1262      1674      1675
 -1       420    8    0    1
 -2       290       135       291      1671      1675      1676
 -1       421    8    0    1
 -2       136       228       291      1487      1677      1674
 -1       422    8    0    1
 -2         2       137       292      1264      1678      1679
 -1       423    8    0    1
 -2       137       138       293      1265      1680      1681
 -1       424    8    0    1
 -2       138       139       294      1266      1682      1683
 -1       425    8    0    1
 -2       139       140       295      1267      1684      1685
 -1       426    8    0    1
 -2       140       141       296      1268      1686      1687
 -1       427    8    0    1
 -2       141       142       297      1269      1688      1689
 -1       428    8    0    1
 -2       142       143       298      1270      1690      1691
 -1       429    8    0    1
 -2       143       144       299      1271      1692      1693
 -1       430    8    0    1
 -2       144       145       300      1272      1694      1695
 -1       431    8    0    1
 -2       145       146       301      1273      1696      1697
 -1       432    8    0    1
 -2       146       147       302      1274      1698      1699
 -1       433    8    0    1
 -2       147       148       303      1275      1700      1701
 -1       434    8    0    1
 -2       148       149       304      1276      1702      1703
 -1       435    8    0    1
 -2       149       150       305      1277      1704      1705
 -1       436    8    0    1
 -2       150       151       306      1278      1706      1707
 -1       437    8    0    1
 -2       151         1       307      1279      1708      1709
 -1       438    8    0    1
 -2         1       152       308      1280      1710      1711
 -1       439    8    0    1
 -2       152       153       309      1281      1712      1713
 -1       440    8    0    1
 -2       153       154       310      1282      1714      1715
 -1       441    8    0    1
 -2       154       155       311      1283      1716      1717
 -1       442    8    0    1
 -2       155       156       312      1284      1718      1719
 -1       443    8    0    1
 -2       156       157       313      1285      1720      1721
 -1       444    8    0    1
 -2       157       158       314      1286      1722      1723
 -1       445    8    0    1
 -2       158       159       315      1287      1724      1725
 -1       446    8    0    1
 -2       159       160       316      1288      1726      1727
 -1       447    8    0    1
 -2       160       161       317      1289      1728      1729
 -1       448    8    0    1
 -2       161       162       318      1290      1730      1731
 -1       449    8    0    1
 -2       162       163       319      1291      1732      1733
 -1       450    8    0    1
 -2       163       164       320      1292      1734      1735
 -1       451    8    0    1
 -2       164         2       321      1293      1736      1737
 -1       452    8    0    1
 -2       295       140       296      1684      1687      1738
 -1       453    8    0    1
 -2       294       139       295      1682      1685      1739
 -1       454    8    0    1
 -2       120       121       276      1632      1740      1629
 -1       455    8    0    1
 -2       121       277       276      1634      1741      1740
 -1       456    8    0    1
 -2       292       137       293      1678      1681      1742
 -1       457    8    0    1
 -2       293       138       294      1680      1683      1743
 -1       458    8    0    1
 -2         2       292       321      1679      1744      1736
 -1       459    8    0    1
 -2       141       297       296      1689      1745      1686
 -1       460    8    0    1
 -2       142       298       297      1691      1746      1688
 -1       461    8    0    1
 -2       143       299       298      1693      1747      1690
 -1       462    8    0    1
 -2       144       300       299      1695      1748      1692
 -1       463    8    0    1
 -2       145       301       300      1697      1749      1694
 -1       464    8    0    1
 -2       146       302       301      1699      1750      1696
 -1       465    8    0    1
 -2       147       303       302      1701      1751      1698
 -1       466    8    0    1
 -2       148       304       303      1703      1752      1700
 -1       467    8    0    1
 -2       149       305       304      1705      1753      1702
 -1       468    8    0    1
 -2       150       306       305      1707      1754      1704
 -1       469    8    0    1
 -2       151       307       306      1709      1755      1706
 -1       470    8    0    1
 -2         1       308       307      1711      1756      1708
 -1       471    8    0    1
 -2       152       309       308      1713      1757      1710
 -1       472    8    0    1
 -2       153       310       309      1715      1758      1712
 -1       473    8    0    1
 -2       154       311       310      1717      1759      1714
 -1       474    8    0    1
 -2       155       312       311      1719      1760      1716
 -1       475    8    0    1
 -2       156       313       312      1721      1761      1718
 -1       476    8    0    1
 -2       157       314       313      1723      1762      1720
 -1       477    8    0    1
 -2       158       315       314      1725      1763      1722
 -1       478    8    0    1
 -2       159       316       315      1727      1764      1724
 -1       479    8    0    1
 -2       160       317       316      1729      1765      1726
 -1       480    8    0    1
 -2       161       318       317      1731      1766      1728
 -1       481    8    0    1
 -2       162       319       318      1733      1767      1730
 -1       482    8    0    1
 -2       163       320       319      1735      1768      1732
 -1       483    8    0    1
 -2       164       321       320      1737      1769      1734
 -1       484    8    0    1
 -2        23         7       165      1294      1296      1770
 -1       485    8    0    1
 -2       166       167       322      1302      1771      1772
 -1       486    8    0    1
 -2       165       166       323      1299      1773      1774
 -1       487    8    0    1
 -2       166       322       323      1772      1775      1773
 -1       488    8    0    1
 -2       168       169       324      1308      1776      1777
 -1       489    8    0    1
 -2       169       170       325      1311      1778      1779
 -1       490    8    0    1
 -2       169       325       324      1779      1780      1776
 -1       491    8    0    1
 -2       170       171       326      1314      1781      1782
 -1       492    8    0    1
 -2       170       326       325      1782      1783      1778
 -1       493    8    0    1
 -2       171       172       327      1317      1784      1785
 -1       494    8    0    1
 -2       171       327       326      1785      1786      1781
 -1       495    8    0    1
 -2       172       173       328      1320      1787      1788
 -1       496    8    0    1
 -2       172       328       327      1788      1789      1784
 -1       497    8    0    1
 -2       173       174       329      1323      1790      1791
 -1       498    8    0    1
 -2       173       329       328      1791      1792      1787
 -1       499    8    0    1
 -2       174       175       330      1326      1793      1794
 -1       500    8    0    1
 -2       174       330       329      1794      1795      1790
 -1       501    8    0    1
 -2       175       176       331      1329      1796      1797
 -1       502    8    0    1
 -2       175       331       330      1797      1798      1793
 -1       503    8    0    1
 -2       176       177       332      1332      1799      1800
 -1       504    8    0    1
 -2       176       332       331      1800      1801      1796
 -1       505    8    0    1
 -2       177       178       333      1335      1802      1803
 -1       506    8    0    1
 -2       177       333       332      1803      1804      1799
 -1       507    8    0    1
 -2       178       179       334      1338      1805      1806
 -1       508    8    0    1
 -2       178       334       333      1806      1807      1802
 -1       509    8    0    1
 -2       179       180       335      1341      1808      1809
 -1       510    8    0    1
 -2       334       179       335      1805      1809      1810
 -1       511    8    0    1
 -2       180       229       335      1490      1811      1808
 -1       512    8    0    1
 -2       181        23       165      1343      1770      1812
 -1       513    8    0    1
 -2       229       230       336      1493      1813      1814
 -1       514    8    0    1
 -2       229       336       335      1814      1815      1811
 -1       515    8    0    1
 -2       181       165       323      1812      1774      1816
 -1       516    8    0    1
 -2       183       182       337      1350      1817      1818
 -1       517    8    0    1
 -2       184       183       338      1353      1819      1820
 -1       518    8    0    1
 -2       183       337       338      1818      1821      1819
 -1       519    8    0    1
 -2       185       184       339      1356      1822      1823
 -1       520    8    0    1
 -2       184       338       339      1820      1824      1822
 -1       521    8    0    1
 -2       186       185       340      1359      1825      1826
 -1       522    8    0    1
 -2       185       339       340      1823      1827      1825
 -1       523    8    0    1
 -2       187       186       341      1362      1828      1829
 -1       524    8    0    1
 -2       186       340       341      1826      1830      1828
 -1       525    8    0    1
 -2       188       187       342      1365      1831      1832
 -1       526    8    0    1
 -2       187       341       342      1829      1833      1831
 -1       527    8    0    1
 -2       189       188       343      1368      1834      1835
 -1       528    8    0    1
 -2       188       342       343      1832      1836      1834
 -1       529    8    0    1
 -2       190       189       344      1371      1837      1838
 -1       530    8    0    1
 -2       189       343       344      1835      1839      1837
 -1       531    8    0    1
 -2       191       190       345      1374      1840      1841
 -1       532    8    0    1
 -2       190       344       345      1838      1842      1840
 -1       533    8    0    1
 -2       192       191       346      1377      1843      1844
 -1       534    8    0    1
 -2       191       345       346      1841      1845      1843
 -1       535    8    0    1
 -2       193       192       347      1380      1846      1847
 -1       536    8    0    1
 -2       192       346       347      1844      1848      1846
 -1       537    8    0    1
 -2       194       193       348      1383      1849      1850
 -1       538    8    0    1
 -2       193       347       348      1847      1851      1849
 -1       539    8    0    1
 -2       195       194       349      1386      1852      1853
 -1       540    8    0    1
 -2       194       348       349      1850      1854      1852
 -1       541    8    0    1
 -2       196       195       350      1389      1855      1856
 -1       542    8    0    1
 -2       195       349       350      1853      1857      1855
 -1       543    8    0    1
 -2       197       196       351      1392      1858      1859
 -1       544    8    0    1
 -2       196       350       351      1856      1860      1858
 -1       545    8    0    1
 -2       198       197       352      1395      1861      1862
 -1       546    8    0    1
 -2       197       351       352      1859      1863      1861
 -1       547    8    0    1
 -2       199       198       353      1398      1864      1865
 -1       548    8    0    1
 -2       198       352       353      1862      1866      1864
 -1       549    8    0    1
 -2       200       199       354      1401      1867      1868
 -1       550    8    0    1
 -2       199       353       354      1865      1869      1867
 -1       551    8    0    1
 -2       201       200       355      1404      1870      1871
 -1       552    8    0    1
 -2       200       354       355      1868      1872      1870
 -1       553    8    0    1
 -2       202       201       356      1407      1873      1874
 -1       554    8    0    1
 -2       201       355       356      1871      1875      1873
 -1       555    8    0    1
 -2       203       202       357      1410      1876      1877
 -1       556    8    0    1
 -2       202       356       357      1874      1878      1876
 -1       557    8    0    1
 -2       204       203       358      1413      1879      1880
 -1       558    8    0    1
 -2       203       357       358      1877      1881      1879
 -1       559    8    0    1
 -2       205       204       359      1416      1882      1883
 -1       560    8    0    1
 -2       204       358       359      1880      1884      1882
 -1       561    8    0    1
 -2       206       205       360      1419      1885      1886
 -1       562    8    0    1
 -2       205       359       360      1883      1887      1885
 -1       563    8    0    1
 -2       207       206       361      1422      1888      1889
 -1       564    8    0    1
 -2       206       360       361      1886      1890      1888
 -1       565    8    0    1
 -2       208       207       362      1425      1891      1892
 -1       566    8    0    1
 -2       207       361       362      1889      1893      1891
 -1       567    8    0    1
 -2       209       208       363      1428      1894      1895
 -1       568    8    0    1
 -2       208       362       363      1892      1896      1894
 -1       569    8    0    1
 -2       210       209       364      1431      1897      1898
 -1       570    8    0    1
 -2       209       363       364      1895      1899      1897
 -1       571    8    0    1
 -2       211       210       365      1434      1900      1901
 -1       572    8    0    1
 -2       210       364       365      1898      1902      1900
 -1       573    8    0    1
 -2       212       211       366      1437      1903      1904
 -1       574    8    0    1
 -2       211       365       366      1901      1905      1903
 -1       575    8    0    1
 -2       213       212       367      1440      1906      1907
 -1       576    8    0    1
 -2       212       366       367      1904      1908      1906
 -1       577    8    0    1
 -2       214       213       368      1443      1909      1910
 -1       578    8    0    1
 -2       213       367       368      1907      1911      1909
 -1       579    8    0    1
 -2       215       214       369      1446      1912      1913
 -1       580    8    0    1
 -2       214       368       369      1910      1914      1912
 -1       581    8    0    1
 -2       216       215       370      1449      1915      1916
 -1       582    8    0    1
 -2       215       369       370      1913      1917      1915
 -1       583    8    0    1
 -2       217       216       371      1452      1918      1919
 -1       584    8    0    1
 -2       216       370       371      1916      1920      1918
 -1       585    8    0    1
 -2       218       217       372      1455      1921      1922
 -1       586    8    0    1
 -2       217       371       372      1919      1923      1921
 -1       587    8    0    1
 -2       219       218       373      1458      1924      1925
 -1       588    8    0    1
 -2       218       372       373      1922      1926      1924
 -1       589    8    0    1
 -2       220       219       374      1461      1927      1928
 -1       590    8    0    1
 -2       219       373       374      1925      1929      1927
 -1       591    8    0    1
 -2       221       220       375      1464      1930      1931
 -1       592    8    0    1
 -2       220       374       375      1928      1932      1930
 -1       593    8    0    1
 -2       222       221       376      1467      1933      1934
 -1       594    8    0    1
 -2       221       375       376      1931      1935      1933
 -1       595    8    0    1
 -2       223       222       377      1470      1936      1937
 -1       596    8    0    1
 -2       222       376       377      1934      1938      1936
 -1       597    8    0    1
 -2       224       223       378      1473      1939      1940
 -1       598    8    0    1
 -2       223       377       378      1937      1941      1939
 -1       599    8    0    1
 -2       225       224       379      1476      1942      1943
 -1       600    8    0    1
 -2       224       378       379      1940      1944      1942
 -1       601    8    0    1
 -2       226       225       380      1479      1945      1946
 -1       602    8    0    1
 -2       225       379       380      1943      1947      1945
 -1       603    8    0    1
 -2       227       226       381      1482      1948      1949
 -1       604    8    0    1
 -2       226       380       381      1946      1950      1948
 -1       605    8    0    1
 -2       228       227       382      1485      1951      1952
 -1       606    8    0    1
 -2       291       228       382      1677      1952      1953
 -1       607    8    0    1
 -2       227       381       382      1949      1954      1951
 -1       608    8    0    1
 -2       230       231       383      1496      1955      1956
 -1       609    8    0    1
 -2       230       383       336      1956      1957      1813
 -1       610    8    0    1
 -2       231       232       384      1499      1958      1959
 -1       611    8    0    1
 -2       231       384       383      1959      1960      1955
 -1       612    8    0    1
 -2       232       233       385      1502      1961      1962
 -1       613    8    0    1
 -2       232       385       384      1962      1963      1958
 -1       614    8    0    1
 -2       233       234       386      1505      1964      1965
 -1       615    8    0    1
 -2       233       386       385      1965      1966      1961
 -1       616    8    0    1
 -2       234       235       387      1508      1967      1968
 -1       617    8    0    1
 -2       234       387       386      1968      1969      1964
 -1       618    8    0    1
 -2       235       236       388      1511      1970      1971
 -1       619    8    0    1
 -2       235       388       387      1971      1972      1967
 -1       620    8    0    1
 -2       236       237       389      1514      1973      1974
 -1       621    8    0    1
 -2       236       389       388      1974      1975      1970
 -1       622    8    0    1
 -2       237       238       390      1517      1976      1977
 -1       623    8    0    1
 -2       237       390       389      1977      1978      1973
 -1       624    8    0    1
 -2       238       239       391      1520      1979      1980
 -1       625    8    0    1
 -2       238       391       390      1980      1981      1976
 -1       626    8    0    1
 -2       239       240       392      1523      1982      1983
 -1       627    8    0    1
 -2       239       392       391      1983      1984      1979
 -1       628    8    0    1
 -2       240       241       393      1526      1985      1986
 -1       629    8    0    1
 -2       240       393       392      1986      1987      1982
 -1       630    8    0    1
 -2       241       242       394      1529      1988      1989
 -1       631    8    0    1
 -2       241       394       393      1989      1990      1985
 -1       632    8    0    1
 -2       242       243       395      1532      1991      1992
 -1       633    8    0    1
 -2       242       395       394      1992      1993      1988
 -1       634    8    0    1
 -2       243       244       396      1535      1994      1995
 -1       635    8    0    1
 -2       243       396       395      1995      1996      1991
 -1       636    8    0    1
 -2       244       245       397      1538      1997      1998
 -1       637    8    0    1
 -2       244       397       396      1998      1999      1994
 -1       638    8    0    1
 -2       245       246       398      1541      2000      2001
 -1       639    8    0    1
 -2       245       398       397      2001      2002      1997
 -1       640    8    0    1
 -2       246       247       399      1544      2003      2004
 -1       641    8    0    1
 -2       246       399       398      2004      2005      2000
 -1       642    8    0    1
 -2       247       248       400      1547      2006      2007
 -1       643    8    0    1
 -2       247       400       399      2007      2008      2003
 -1       644    8    0    1
 -2       248       249       401      1550      2009      2010
 -1       645    8    0    1
 -2       248       401       400      2010      2011      2006
 -1       646    8    0    1
 -2       249       250       402      1553      2012      2013
 -1       647    8    0    1
 -2       249       402       401      2013      2014      2009
 -1       648    8    0    1
 -2       250       251       403      1556      2015      2016
 -1       649    8    0    1
 -2       250       403       402      2016      2017      2012
 -1       650    8    0    1
 -2       251       252       404      1559      2018      2019
 -1       651    8    0    1
 -2       251       404       403      2019      2020      2015
 -1       652    8    0    1
 -2       252       253       405      1562      2021      2022
 -1       653    8    0    1
 -2       252       405       404      2022      2023      2018
 -1       654    8    0    1
 -2       253       254       406      1565      2024      2025
 -1       655    8    0    1
 -2       253       406       405      2025      2026      2021
 -1       656    8    0    1
 -2       254       255       407      1568      2027      2028
 -1       657    8    0    1
 -2       254       407       406      2028      2029      2024
 -1       658    8    0    1
 -2       255       256       408      1571      2030      2031
 -1       659    8    0    1
 -2       255       408       407      2031      2032      2027
 -1       660    8    0    1
 -2       256       257       409      1574      2033      2034
 -1       661    8    0    1
 -2       256       409       408      2034      2035      2030
 -1       662    8    0    1
 -2       257       258       410      1577      2036      2037
 -1       663    8    0    1
 -2       257       410       409      2037      2038      2033
 -1       664    8    0    1
 -2       258       259       411      1580      2039      2040
 -1       665    8    0    1
 -2       258       411       410      2040      2041      2036
 -1       666    8    0    1
 -2       259       260       412      1583      2042      2043
 -1       667    8    0    1
 -2       259       412       411      2043      2044      2039
 -1       668    8    0    1
 -2       260       261       413      1586      2045      2046
 -1       669    8    0    1
 -2       260       413       412      2046      2047      2042
 -1       670    8    0    1
 -2       261       262       414      1589      2048      2049
 -1       671    8    0    1
 -2       261       414       413      2049      2050      2045
 -1       672    8    0    1
 -2       262       263       415      1592      2051      2052
 -1       673    8    0    1
 -2       262       415       414      2052      2053      2048
 -1       674    8    0    1
 -2       263       264       416      1595      2054      2055
 -1       675    8    0    1
 -2       263       416       415      2055      2056      2051
 -1       676    8    0    1
 -2       264       265       417      1598      2057      2058
 -1       677    8    0    1
 -2       264       417       416      2058      2059      2054
 -1       678    8    0    1
 -2       265       266       418      1601      2060      2061
 -1       679    8    0    1
 -2       265       418       417      2061      2062      2057
 -1       680    8    0    1
 -2       266       267       419      1604      2063      2064
 -1       681    8    0    1
 -2       266       419       418      2064      2065      2060
 -1       682    8    0    1
 -2       267       268       420      1607      2066      2067
 -1       683    8    0    1
 -2       267       420       419      2067      2068      2063
 -1       684    8    0    1
 -2       268       269       421      1610      2069      2070
 -1       685    8    0    1
 -2       268       421       420      2070      2071      2066
 -1       686    8    0    1
 -2       269       270       422      1613      2072      2073
 -1       687    8    0    1
 -2       269       422       421      2073      2074      2069
 -1       688    8    0    1
 -2       270       271       423      1616      2075      2076
 -1       689    8    0    1
 -2       270       423       422      2076      2077      2072
 -1       690    8    0    1
 -2       271       272       424      1619      2078      2079
 -1       691    8    0    1
 -2       271       424       423      2079      2080      2075
 -1       692    8    0    1
 -2       272       273       425      1622      2081      2082
 -1       693    8    0    1
 -2       272       425       424      2082      2083      2078
 -1       694    8    0    1
 -2       273       274       426      1625      2084      2085
 -1       695    8    0    1
 -2       273       426       425      2085      2086      2081
 -1       696    8    0    1
 -2       274       275       427      1628      2087      2088
 -1       697    8    0    1
 -2       274       427       426      2088      2089      2084
 -1       698    8    0    1
 -2       275       276       428      1631      2090      2091
 -1       699    8    0    1
 -2       427       275       428      2087      2091      2092
 -1       700    8    0    1
 -2       276       277       428      1741      2093      2090
 -1       701    8    0    1
 -2       279       280       429      1643      2094      2095
 -1       702    8    0    1
 -2       278       279       430      1640      2096      2097
 -1       703    8    0    1
 -2       279       429       430      2095      2098      2096
 -1       704    8    0    1
 -2       277       278       431      1637      2099      2100
 -1       705    8    0    1
 -2       428       277       431      2093      2100      2101
 -1       706    8    0    1
 -2       278       430       431      2097      2102      2099
 -1       707    8    0    1
 -2       280       281       432      1646      2103      2104
 -1       708    8    0    1
 -2       280       432       429      2104      2105      2094
 -1       709    8    0    1
 -2       281       282       433      1649      2106      2107
 -1       710    8    0    1
 -2       281       433       432      2107      2108      2103
 -1       711    8    0    1
 -2       282       283       434      1652      2109      2110
 -1       712    8    0    1
 -2       282       434       433      2110      2111      2106
 -1       713    8    0    1
 -2       283       284       435      1655      2112      2113
 -1       714    8    0    1
 -2       283       435       434      2113      2114      2109
 -1       715    8    0    1
 -2       284       285       436      1658      2115      2116
 -1       716    8    0    1
 -2       284       436       435      2116      2117      2112
 -1       717    8    0    1
 -2       285       286       437      1661      2118      2119
 -1       718    8    0    1
 -2       285       437       436      2119      2120      2115
 -1       719    8    0    1
 -2       286       287       438      1664      2121      2122
 -1       720    8    0    1
 -2       286       438       437      2122      2123      2118
 -1       721    8    0    1
 -2       287       288       439      1667      2124      2125
 -1       722    8    0    1
 -2       287       439       438      2125      2126      2121
 -1       723    8    0    1
 -2       288       289       440      1670      2127      2128
 -1       724    8    0    1
 -2       288       440       439      2128      2129      2124
 -1       725    8    0    1
 -2       289       290       441      1673      2130      2131
 -1       726    8    0    1
 -2       289       441       440      2131      2132      2127
 -1       727    8    0    1
 -2       293       294       442      1743      2133      2134
 -1       728    8    0    1
 -2       321       292       443      1744      2135      2136
 -1       729    8    0    1
 -2       292       293       444      1742      2137      2138
 -1       730    8    0    1
 -2       293       442       444      2134      2139      2137
 -1       731    8    0    1
 -2       294       295       445      1739      2140      2141
 -1       732    8    0    1
 -2       295       296       446      1738      2142      2143
 -1       733    8    0    1
 -2       167       168       447      1305      2144      2145
 -1       734    8    0    1
 -2       322       167       447      1771      2145      2146
 -1       735    8    0    1
 -2       168       324       447      1777      2147      2144
 -1       736    8    0    1
 -2       297       298       448      1746      2148      2149
 -1       737    8    0    1
 -2       298       299       449      1747      2150      2151
 -1       738    8    0    1
 -2       298       449       448      2151      2152      2148
 -1       739    8    0    1
 -2       299       300       450      1748      2153      2154
 -1       740    8    0    1
 -2       300       301       451      1749      2155      2156
 -1       741    8    0    1
 -2       301       302       452      1750      2157      2158
 -1       742    8    0    1
 -2       302       303       453      1751      2159      2160
 -1       743    8    0    1
 -2       303       304       454      1752      2161      2162
 -1       744    8    0    1
 -2       304       305       455      1753      2163      2164
 -1       745    8    0    1
 -2       304       455       454      2164      2165      2161
 -1       746    8    0    1
 -2       305       306       456      1754      2166      2167
 -1       747    8    0    1
 -2       306       307       457      1755      2168      2169
 -1       748    8    0    1
 -2       307       308       458      1756      2170      2171
 -1       749    8    0    1
 -2       307       458       457      2171      2172      2168
 -1       750    8    0    1
 -2       308       309       459      1757      2173      2174
 -1       751    8    0    1
 -2       309       310       460      1758      2175      2176
 -1       752    8    0    1
 -2       310       311       461      1759      2177      2178
 -1       753    8    0    1
 -2       310       461       460      2178      2179      2175
 -1       754    8    0    1
 -2       311       312       462      1760      2180      2181
 -1       755    8    0    1
 -2       312       313       463      1761      2182      2183
 -1       756    8    0    1
 -2       313       314       464      1762      2184      2185
 -1       757    8    0    1
 -2       314       315       465      1763      2186      2187
 -1       758    8    0    1
 -2       315       316       466      1764      2188      2189
 -1       759    8    0    1
 -2       316       317       467      1765      2190      2191
 -1       760    8    0    1
 -2       317       318       468      1766      2192      2193
 -1       761    8    0    1
 -2       318       319       469      1767      2194      2195
 -1       762    8    0    1
 -2       319       320       470      1768      2196      2197
 -1       763    8    0    1
 -2       320       321       471      1769      2198      2199
 -1       764    8    0    1
 -2       321       443       471      2136      2200      2198
 -1       765    8    0    1
 -2       296       297       472      1745      2201      2202
 -1       766    8    0    1
 -2       296       472       446      2202      2203      2142
 -1       767    8    0    1
 -2       181       323       182      1816      2204      1347
 -1       768    8    0    1
 -2       297       448       473      2149      2205      2206
 -1       769    8    0    1
 -2       297       473       472      2206      2207      2201
 -1       770    8    0    1
 -2       337       182       323      1817      2204      2208
 -1       771    8    0    1
 -2       443       292       444      2135      2138      2209
 -1       772    8    0    1
 -2       294       445       442      2141      2210      2133
 -1       773    8    0    1
 -2       441       290       291      2130      1676      2211
 -1       774    8    0    1
 -2       445       295       446      2140      2143      2212
 -1       775    8    0    1
 -2       470       320       474      2196      2213      2214
 -1       776    8    0    1
 -2       320       471       474      2199      2215      2213
 -1       777    8    0    1
 -2       469       319       470      2194      2197      2216
 -1       778    8    0    1
 -2       468       318       469      2192      2195      2217
 -1       779    8    0    1
 -2       467       317       468      2190      2193      2218
 -1       780    8    0    1
 -2       466       316       467      2188      2191      2219
 -1       781    8    0    1
 -2       465       315       466      2186      2189      2220
 -1       782    8    0    1
 -2       464       314       465      2184      2187      2221
 -1       783    8    0    1
 -2       463       313       464      2182      2185      2222
 -1       784    8    0    1
 -2       461       311       475      2177      2223      2224
 -1       785    8    0    1
 -2       311       462       475      2181      2225      2223
 -1       786    8    0    1
 -2       458       308       459      2170      2174      2226
 -1       787    8    0    1
 -2       455       305       456      2163      2167      2227
 -1       788    8    0    1
 -2       453       303       454      2159      2162      2228
 -1       789    8    0    1
 -2       452       302       453      2157      2160      2229
 -1       790    8    0    1
 -2       451       301       452      2155      2158      2230
 -1       791    8    0    1
 -2       299       450       449      2154      2231      2150
 -1       792    8    0    1
 -2       450       300       451      2153      2156      2232
 -1       793    8    0    1
 -2       456       306       457      2166      2169      2233
 -1       794    8    0    1
 -2       459       309       460      2173      2176      2234
 -1       795    8    0    1
 -2       462       312       463      2180      2183      2235
 -1       796    8    0    1
 -2       336       383       476      1957      2236      2237
 -1       797    8    0    1
 -2       325       326       477      1783      2238      2239
 -1       798    8    0    1
 -2       324       325       478      1780      2240      2241
 -1       799    8    0    1
 -2       325       477       478      2239      2242      2240
 -1       800    8    0    1
 -2       327       328       479      1789      2243      2244
 -1       801    8    0    1
 -2       328       329       480      1792      2245      2246
 -1       802    8    0    1
 -2       328       480       479      2246      2247      2243
 -1       803    8    0    1
 -2       329       330       481      1795      2248      2249
 -1       804    8    0    1
 -2       329       481       480      2249      2250      2245
 -1       805    8    0    1
 -2       330       331       482      1798      2251      2252
 -1       806    8    0    1
 -2       330       482       481      2252      2253      2248
 -1       807    8    0    1
 -2       331       332       483      1801      2254      2255
 -1       808    8    0    1
 -2       331       483       482      2255      2256      2251
 -1       809    8    0    1
 -2       332       333       484      1804      2257      2258
 -1       810    8    0    1
 -2       332       484       483      2258      2259      2254
 -1       811    8    0    1
 -2       443       444       485      2209      2260      2261
 -1       812    8    0    1
 -2       383       384       486      1960      2262      2263
 -1       813    8    0    1
 -2       383       486       476      2263      2264      2236
 -1       814    8    0    1
 -2       338       337       487      1821      2265      2266
 -1       815    8    0    1
 -2       339       338       488      1824      2267      2268
 -1       816    8    0    1
 -2       338       487       488      2266      2269      2267
 -1       817    8    0    1
 -2       340       339       489      1827      2270      2271
 -1       818    8    0    1
 -2       339       488       489      2268      2272      2270
 -1       819    8    0    1
 -2       341       340       490      1830      2273      2274
 -1       820    8    0    1
 -2       340       489       490      2271      2275      2273
 -1       821    8    0    1
 -2       342       341       491      1833      2276      2277
 -1       822    8    0    1
 -2       341       490       491      2274      2278      2276
 -1       823    8    0    1
 -2       343       342       492      1836      2279      2280
 -1       824    8    0    1
 -2       342       491       492      2277      2281      2279
 -1       825    8    0    1
 -2       344       343       493      1839      2282      2283
 -1       826    8    0    1
 -2       343       492       493      2280      2284      2282
 -1       827    8    0    1
 -2       345       344       494      1842      2285      2286
 -1       828    8    0    1
 -2       344       493       494      2283      2287      2285
 -1       829    8    0    1
 -2       346       345       495      1845      2288      2289
 -1       830    8    0    1
 -2       345       494       495      2286      2290      2288
 -1       831    8    0    1
 -2       347       346       496      1848      2291      2292
 -1       832    8    0    1
 -2       346       495       496      2289      2293      2291
 -1       833    8    0    1
 -2       348       347       497      1851      2294      2295
 -1       834    8    0    1
 -2       347       496       497      2292      2296      2294
 -1       835    8    0    1
 -2       349       348       498      1854      2297      2298
 -1       836    8    0    1
 -2       348       497       498      2295      2299      2297
 -1       837    8    0    1
 -2       350       349       499      1857      2300      2301
 -1       838    8    0    1
 -2       349       498       499      2298      2302      2300
 -1       839    8    0    1
 -2       351       350       500      1860      2303      2304
 -1       840    8    0    1
 -2       350       499       500      2301      2305      2303
 -1       841    8    0    1
 -2       352       351       501      1863      2306      2307
 -1       842    8    0    1
 -2       351       500       501      2304      2308      2306
 -1       843    8    0    1
 -2       353       352       502      1866      2309      2310
 -1       844    8    0    1
 -2       352       501       502      2307      2311      2309
 -1       845    8    0    1
 -2       354       353       503      1869      2312      2313
 -1       846    8    0    1
 -2       353       502       503      2310      2314      2312
 -1       847    8    0    1
 -2       355       354       504      1872      2315      2316
 -1       848    8    0    1
 -2       354       503       504      2313      2317      2315
 -1       849    8    0    1
 -2       356       355       505      1875      2318      2319
 -1       850    8    0    1
 -2       355       504       505      2316      2320      2318
 -1       851    8    0    1
 -2       357       356       506      1878      2321      2322
 -1       852    8    0    1
 -2       356       505       506      2319      2323      2321
 -1       853    8    0    1
 -2       358       357       507      1881      2324      2325
 -1       854    8    0    1
 -2       357       506       507      2322      2326      2324
 -1       855    8    0    1
 -2       359       358       508      1884      2327      2328
 -1       856    8    0    1
 -2       358       507       508      2325      2329      2327
 -1       857    8    0    1
 -2       360       359       509      1887      2330      2331
 -1       858    8    0    1
 -2       359       508       509      2328      2332      2330
 -1       859    8    0    1
 -2       361       360       510      1890      2333      2334
 -1       860    8    0    1
 -2       360       509       510      2331      2335      2333
 -1       861    8    0    1
 -2       362       361       511      1893      2336      2337
 -1       862    8    0    1
 -2       361       510       511      2334      2338      2336
 -1       863    8    0    1
 -2       363       362       512      1896      2339      2340
 -1       864    8    0    1
 -2       362       511       512      2337      2341      2339
 -1       865    8    0    1
 -2       364       363       513      1899      2342      2343
 -1       866    8    0    1
 -2       363       512       513      2340      2344      2342
 -1       867    8    0    1
 -2       365       364       514      1902      2345      2346
 -1       868    8    0    1
 -2       364       513       514      2343      2347      2345
 -1       869    8    0    1
 -2       366       365       515      1905      2348      2349
 -1       870    8    0    1
 -2       365       514       515      2346      2350      2348
 -1       871    8    0    1
 -2       367       366       516      1908      2351      2352
 -1       872    8    0    1
 -2       366       515       516      2349      2353      2351
 -1       873    8    0    1
 -2       368       367       517      1911      2354      2355
 -1       874    8    0    1
 -2       367       516       517      2352      2356      2354
 -1       875    8    0    1
 -2       369       368       518      1914      2357      2358
 -1       876    8    0    1
 -2       368       517       518      2355      2359      2357
 -1       877    8    0    1
 -2       370       369       519      1917      2360      2361
 -1       878    8    0    1
 -2       369       518       519      2358      2362      2360
 -1       879    8    0    1
 -2       371       370       520      1920      2363      2364
 -1       880    8    0    1
 -2       370       519       520      2361      2365      2363
 -1       881    8    0    1
 -2       372       371       521      1923      2366      2367
 -1       882    8    0    1
 -2       371       520       521      2364      2368      2366
 -1       883    8    0    1
 -2       373       372       522      1926      2369      2370
 -1       884    8    0    1
 -2       372       521       522      2367      2371      2369
 -1       885    8    0    1
 -2       374       373       523      1929      2372      2373
 -1       886    8    0    1
 -2       373       522       523      2370      2374      2372
 -1       887    8    0    1
 -2       375       374       524      1932      2375      2376
 -1       888    8    0    1
 -2       374       523       524      2373      2377      2375
 -1       889    8    0    1
 -2       376       375       525      1935      2378      2379
 -1       890    8    0    1
 -2       375       524       525      2376      2380      2378
 -1       891    8    0    1
 -2       377       376       526      1938      2381      2382
 -1       892    8    0    1
 -2       376       525       526      2379      2383      2381
 -1       893    8    0    1
 -2       378       377       527      1941      2384      2385
 -1       894    8    0    1
 -2       377       526       527      2382      2386      2384
 -1       895    8    0    1
 -2       379       378       528      1944      2387      2388
 -1       896    8    0    1
 -2       378       527       528      2385      2389      2387
 -1       897    8    0    1
 -2       380       379       529      1947      2390      2391
 -1       898    8    0    1
 -2       379       528       529      2388      2392      2390
 -1       899    8    0    1
 -2       381       380       530      1950      2393      2394
 -1       900    8    0    1
 -2       380       529       530      2391      2395      2393
 -1       901    8    0    1
 -2       444       442       531      2139      2396      2397
 -1       902    8    0    1
 -2       385       386       532      1966      2398      2399
 -1       903    8    0    1
 -2       386       387       533      1969      2400      2401
 -1       904    8    0    1
 -2       386       533       532      2401      2402      2398
 -1       905    8    0    1
 -2       387       388       534      1972      2403      2404
 -1       906    8    0    1
 -2       387       534       533      2404      2405      2400
 -1       907    8    0    1
 -2       388       389       535      1975      2406      2407
 -1       908    8    0    1
 -2       388       535       534      2407      2408      2403
 -1       909    8    0    1
 -2       389       390       536      1978      2409      2410
 -1       910    8    0    1
 -2       389       536       535      2410      2411      2406
 -1       911    8    0    1
 -2       390       391       537      1981      2412      2413
 -1       912    8    0    1
 -2       390       537       536      2413      2414      2409
 -1       913    8    0    1
 -2       391       392       538      1984      2415      2416
 -1       914    8    0    1
 -2       391       538       537      2416      2417      2412
 -1       915    8    0    1
 -2       392       393       539      1987      2418      2419
 -1       916    8    0    1
 -2       392       539       538      2419      2420      2415
 -1       917    8    0    1
 -2       393       394       540      1990      2421      2422
 -1       918    8    0    1
 -2       393       540       539      2422      2423      2418
 -1       919    8    0    1
 -2       394       395       541      1993      2424      2425
 -1       920    8    0    1
 -2       394       541       540      2425      2426      2421
 -1       921    8    0    1
 -2       395       396       542      1996      2427      2428
 -1       922    8    0    1
 -2       395       542       541      2428      2429      2424
 -1       923    8    0    1
 -2       396       397       543      1999      2430      2431
 -1       924    8    0    1
 -2       396       543       542      2431      2432      2427
 -1       925    8    0    1
 -2       397       398       544      2002      2433      2434
 -1       926    8    0    1
 -2       397       544       543      2434      2435      2430
 -1       927    8    0    1
 -2       398       399       545      2005      2436      2437
 -1       928    8    0    1
 -2       398       545       544      2437      2438      2433
 -1       929    8    0    1
 -2       399       400       546      2008      2439      2440
 -1       930    8    0    1
 -2       399       546       545      2440      2441      2436
 -1       931    8    0    1
 -2       400       401       547      2011      2442      2443
 -1       932    8    0    1
 -2       400       547       546      2443      2444      2439
 -1       933    8    0    1
 -2       401       402       548      2014      2445      2446
 -1       934    8    0    1
 -2       401       548       547      2446      2447      2442
 -1       935    8    0    1
 -2       402       403       549      2017      2448      2449
 -1       936    8    0    1
 -2       402       549       548      2449      2450      2445
 -1       937    8    0    1
 -2       403       404       550      2020      2451      2452
 -1       938    8    0    1
 -2       403       550       549      2452      2453      2448
 -1       939    8    0    1
 -2       404       405       551      2023      2454      2455
 -1       940    8    0    1
 -2       404       551       550      2455      2456      2451
 -1       941    8    0    1
 -2       405       406       552      2026      2457      2458
 -1       942    8    0    1
 -2       405       552       551      2458      2459      2454
 -1       943    8    0    1
 -2       406       407       553      2029      2460      2461
 -1       944    8    0    1
 -2       406       553       552      2461      2462      2457
 -1       945    8    0    1
 -2       407       408       554      2032      2463      2464
 -1       946    8    0    1
 -2       407       554       553      2464      2465      2460
 -1       947    8    0    1
 -2       408       409       555      2035      2466      2467
 -1       948    8    0    1
 -2       408       555       554      2467      2468      2463
 -1       949    8    0    1
 -2       409       410       556      2038      2469      2470
 -1       950    8    0    1
 -2       409       556       555      2470      2471      2466
 -1       951    8    0    1
 -2       410       411       557      2041      2472      2473
 -1       952    8    0    1
 -2       410       557       556      2473      2474      2469
 -1       953    8    0    1
 -2       411       412       558      2044      2475      2476
 -1       954    8    0    1
 -2       411       558       557      2476      2477      2472
 -1       955    8    0    1
 -2       412       413       559      2047      2478      2479
 -1       956    8    0    1
 -2       412       559       558      2479      2480      2475
 -1       957    8    0    1
 -2       413       414       560      2050      2481      2482
 -1       958    8    0    1
 -2       413       560       559      2482      2483      2478
 -1       959    8    0    1
 -2       414       415       561      2053      2484      2485
 -1       960    8    0    1
 -2       414       561       560      2485      2486      2481
 -1       961    8    0    1
 -2       415       416       562      2056      2487      2488
 -1       962    8    0    1
 -2       415       562       561      2488      2489      2484
 -1       963    8    0    1
 -2       416       417       563      2059      2490      2491
 -1       964    8    0    1
 -2       416       563       562      2491      2492      2487
 -1       965    8    0    1
 -2       417       418       564      2062      2493      2494
 -1       966    8    0    1
 -2       417       564       563      2494      2495      2490
 -1       967    8    0    1
 -2       418       419       565      2065      2496      2497
 -1       968    8    0    1
 -2       418       565       564      2497      2498      2493
 -1       969    8    0    1
 -2       419       420       566      2068      2499      2500
 -1       970    8    0    1
 -2       419       566       565      2500      2501      2496
 -1       971    8    0    1
 -2       420       421       567      2071      2502      2503
 -1       972    8    0    1
 -2       420       567       566      2503      2504      2499
 -1       973    8    0    1
 -2       421       422       568      2074      2505      2506
 -1       974    8    0    1
 -2       421       568       567      2506      2507      2502
 -1       975    8    0    1
 -2       422       423       569      2077      2508      2509
 -1       976    8    0    1
 -2       422       569       568      2509      2510      2505
 -1       977    8    0    1
 -2       423       424       570      2080      2511      2512
 -1       978    8    0    1
 -2       423       570       569      2512      2513      2508
 -1       979    8    0    1
 -2       424       425       571      2083      2514      2515
 -1       980    8    0    1
 -2       424       571       570      2515      2516      2511
 -1       981    8    0    1
 -2       425       426       572      2086      2517      2518
 -1       982    8    0    1
 -2       425       572       571      2518      2519      2514
 -1       983    8    0    1
 -2       426       427       573      2089      2520      2521
 -1       984    8    0    1
 -2       426       573       572      2521      2522      2517
 -1       985    8    0    1
 -2       427       428       431      2092      2101      2523
 -1       986    8    0    1
 -2       432       433       574      2108      2524      2525
 -1       987    8    0    1
 -2       433       434       575      2111      2526      2527
 -1       988    8    0    1
 -2       433       575       574      2527      2528      2524
 -1       989    8    0    1
 -2       430       429       576      2098      2529      2530
 -1       990    8    0    1
 -2       429       432       577      2105      2531      2532
 -1       991    8    0    1
 -2       576       429       577      2529      2532      2533
 -1       992    8    0    1
 -2       432       574       577      2525      2534      2531
 -1       993    8    0    1
 -2       434       435       578      2114      2535      2536
 -1       994    8    0    1
 -2       434       578       575      2536      2537      2526
 -1       995    8    0    1
 -2       435       436       579      2117      2538      2539
 -1       996    8    0    1
 -2       435       579       578      2539      2540      2535
 -1       997    8    0    1
 -2       436       437       580      2120      2541      2542
 -1       998    8    0    1
 -2       436       580       579      2542      2543      2538
 -1       999    8    0    1
 -2       437       438       581      2123      2544      2545
 -1      1000    8    0    1
 -2       437       581       580      2545      2546      2541
 -1      1001    8    0    1
 -2       438       439       582      2126      2547      2548
 -1      1002    8    0    1
 -2       438       582       581      2548      2549      2544
 -1      1003    8    0    1
 -2       439       440       583      2129      2550      2551
 -1      1004    8    0    1
 -2       439       583       582      2551      2552      2547
 -1      1005    8    0    1
 -2       440       441       584      2132      2553      2554
 -1      1006    8    0    1
 -2       440       584       583      2554      2555      2550
 -1      1007    8    0    1
 -2       441       291       382      2211      1953      2556
 -1      1008    8    0    1
 -2       445       446       585      2212      2557      2558
 -1      1009    8    0    1
 -2       384       385       586      1963      2559      2560
 -1      1010    8    0    1
 -2       385       532       586      2399      2561      2559
 -1      1011    8    0    1
 -2       446       472       587      2203      2562      2563
 -1      1012    8    0    1
 -2       442       445       588      2210      2564      2565
 -1      1013    8    0    1
 -2       471       443       589      2200      2566      2567
 -1      1014    8    0    1
 -2       458       459       590      2226      2568      2569
 -1      1015    8    0    1
 -2       455       456       591      2227      2570      2571
 -1      1016    8    0    1
 -2       453       454       592      2228      2572      2573
 -1      1017    8    0    1
 -2       326       327       593      1786      2574      2575
 -1      1018    8    0    1
 -2       477       326       593      2238      2575      2576
 -1      1019    8    0    1
 -2       327       479       593      2244      2577      2574
 -1      1020    8    0    1
 -2       450       451       594      2232      2578      2579
 -1      1021    8    0    1
 -2       448       449       595      2152      2580      2581
 -1      1022    8    0    1
 -2       456       457       596      2233      2582      2583
 -1      1023    8    0    1
 -2       449       450       597      2231      2584      2585
 -1      1024    8    0    1
 -2       449       597       595      2585      2586      2580
 -1      1025    8    0    1
 -2       451       452       598      2230      2587      2588
 -1      1026    8    0    1
 -2       451       598       594      2588      2589      2578
 -1      1027    8    0    1
 -2       452       453       599      2229      2590      2591
 -1      1028    8    0    1
 -2       454       455       600      2165      2592      2593
 -1      1029    8    0    1
 -2       459       460       601      2234      2594      2595
 -1      1030    8    0    1
 -2       457       458       602      2172      2596      2597
 -1      1031    8    0    1
 -2       462       463       603      2235      2598      2599
 -1      1032    8    0    1
 -2       460       461       604      2179      2600      2601
 -1      1033    8    0    1
 -2       463       464       605      2222      2602      2603
 -1      1034    8    0    1
 -2       464       465       606      2221      2604      2605
 -1      1035    8    0    1
 -2       465       466       607      2220      2606      2607
 -1      1036    8    0    1
 -2       465       607       606      2607      2608      2604
 -1      1037    8    0    1
 -2       466       467       608      2219      2609      2610
 -1      1038    8    0    1
 -2       467       468       609      2218      2611      2612
 -1      1039    8    0    1
 -2       468       469       610      2217      2613      2614
 -1      1040    8    0    1
 -2       469       470       611      2216      2615      2616
 -1      1041    8    0    1
 -2       337       323       612      2208      2617      2618
 -1      1042    8    0    1
 -2       487       337       612      2265      2618      2619
 -1      1043    8    0    1
 -2       323       322       612      1775      2620      2617
 -1      1044    8    0    1
 -2       335       336       613      1815      2621      2622
 -1      1045    8    0    1
 -2       334       335       613      1810      2622      2623
 -1      1046    8    0    1
 -2       336       476       613      2237      2624      2621
 -1      1047    8    0    1
 -2       450       594       597      2579      2625      2584
 -1      1048    8    0    1
 -2       324       478       614      2241      2626      2627
 -1      1049    8    0    1
 -2       324       614       447      2627      2628      2147
 -1      1050    8    0    1
 -2       443       485       589      2261      2629      2566
 -1      1051    8    0    1
 -2       485       444       531      2260      2397      2630
 -1      1052    8    0    1
 -2       333       334       613      1807      2623      2631
 -1      1053    8    0    1
 -2       473       448       595      2205      2581      2632
 -1      1054    8    0    1
 -2       472       473       587      2207      2633      2562
 -1      1055    8    0    1
 -2       466       608       607      2610      2634      2606
 -1      1056    8    0    1
 -2       605       464       606      2602      2605      2635
 -1      1057    8    0    1
 -2       445       585       588      2558      2636      2564
 -1      1058    8    0    1
 -2       531       442       588      2396      2565      2637
 -1      1059    8    0    1
 -2       446       587       585      2563      2638      2557
 -1      1060    8    0    1
 -2       427       431       573      2523      2639      2520
 -1      1061    8    0    1
 -2       431       430       573      2102      2640      2639
 -1      1062    8    0    1
 -2       604       461       615      2600      2641      2642
 -1      1063    8    0    1
 -2       461       475       615      2224      2643      2641
 -1      1064    8    0    1
 -2       441       382       616      2556      2644      2645
 -1      1065    8    0    1
 -2       584       441       616      2553      2645      2646
 -1      1066    8    0    1
 -2       382       381       616      1954      2647      2644
 -1      1067    8    0    1
 -2       603       463       605      2598      2603      2648
 -1      1068    8    0    1
 -2       602       458       590      2596      2569      2649
 -1      1069    8    0    1
 -2       384       586       486      2560      2650      2262
 -1      1070    8    0    1
 -2       471       589       474      2567      2651      2215
 -1      1071    8    0    1
 -2       470       474       611      2214      2652      2615
 -1      1072    8    0    1
 -2       612       322       447      2620      2146      2653
 -1      1073    8    0    1
 -2       610       469       611      2613      2616      2654
 -1      1074    8    0    1
 -2       609       468       610      2611      2614      2655
 -1      1075    8    0    1
 -2       601       460       604      2594      2601      2656
 -1      1076    8    0    1
 -2       600       455       591      2592      2571      2657
 -1      1077    8    0    1
 -2       596       457       602      2582      2597      2658
 -1      1078    8    0    1
 -2       592       454       600      2572      2593      2659
 -1      1079    8    0    1
 -2       591       456       596      2570      2583      2660
 -1      1080    8    0    1
 -2       475       462       617      2225      2661      2662
 -1      1081    8    0    1
 -2       462       603       617      2599      2663      2661
 -1      1082    8    0    1
 -2       590       459       601      2568      2595      2664
 -1      1083    8    0    1
 -2       453       592       599      2573      2665      2590
 -1      1084    8    0    1
 -2       598       452       599      2587      2591      2666
 -1      1085    8    0    1
 -2       333       613       484      2631      2667      2257
 -1      1086    8    0    1
 -2       608       467       609      2609      2612      2668
 -1      1087    8    0    1
 -2       573       430       576      2640      2530      2669
 -1      1088    8    0    1
 -2       616       381       530      2647      2394      2670
 -1      1089    8    0    1
 -2       480       481       618      2250      2671      2672
 -1      1090    8    0    1
 -2       479       480       619      2247      2673      2674
 -1      1091    8    0    1
 -2       480       618       619      2672      2675      2673
 -1      1092    8    0    1
 -2       482       483       620      2256      2676      2677
 -1      1093    8    0    1
 -2       483       484       621      2259      2678      2679
 -1      1094    8    0    1
 -2       483       621       620      2679      2680      2676
 -1      1095    8    0    1
 -2       608       609       622      2668      2681      2682
 -1      1096    8    0    1
 -2       476       486       623      2264      2683      2684
 -1      1097    8    0    1
 -2       589       485       624      2629      2685      2686
 -1      1098    8    0    1
 -2       613       476       484      2624      2687      2667
 -1      1099    8    0    1
 -2       489       488       625      2272      2688      2689
 -1      1100    8    0    1
 -2       490       489       626      2275      2690      2691
 -1      1101    8    0    1
 -2       489       625       626      2689      2692      2690
 -1      1102    8    0    1
 -2       491       490       627      2278      2693      2694
 -1      1103    8    0    1
 -2       490       626       627      2691      2695      2693
 -1      1104    8    0    1
 -2       492       491       628      2281      2696      2697
 -1      1105    8    0    1
 -2       491       627       628      2694      2698      2696
 -1      1106    8    0    1
 -2       493       492       629      2284      2699      2700
 -1      1107    8    0    1
 -2       492       628       629      2697      2701      2699
 -1      1108    8    0    1
 -2       494       493       630      2287      2702      2703
 -1      1109    8    0    1
 -2       493       629       630      2700      2704      2702
 -1      1110    8    0    1
 -2       495       494       631      2290      2705      2706
 -1      1111    8    0    1
 -2       494       630       631      2703      2707      2705
 -1      1112    8    0    1
 -2       496       495       632      2293      2708      2709
 -1      1113    8    0    1
 -2       495       631       632      2706      2710      2708
 -1      1114    8    0    1
 -2       497       496       633      2296      2711      2712
 -1      1115    8    0    1
 -2       496       632       633      2709      2713      2711
 -1      1116    8    0    1
 -2       498       497       634      2299      2714      2715
 -1      1117    8    0    1
 -2       497       633       634      2712      2716      2714
 -1      1118    8    0    1
 -2       499       498       635      2302      2717      2718
 -1      1119    8    0    1
 -2       498       634       635      2715      2719      2717
 -1      1120    8    0    1
 -2       500       499       636      2305      2720      2721
 -1      1121    8    0    1
 -2       499       635       636      2718      2722      2720
 -1      1122    8    0    1
 -2       501       500       637      2308      2723      2724
 -1      1123    8    0    1
 -2       500       636       637      2721      2725      2723
 -1      1124    8    0    1
 -2       502       501       638      2311      2726      2727
 -1      1125    8    0    1
 -2       501       637       638      2724      2728      2726
 -1      1126    8    0    1
 -2       503       502       639      2314      2729      2730
 -1      1127    8    0    1
 -2       502       638       639      2727      2731      2729
 -1      1128    8    0    1
 -2       504       503       640      2317      2732      2733
 -1      1129    8    0    1
 -2       503       639       640      2730      2734      2732
 -1      1130    8    0    1
 -2       505       504       641      2320      2735      2736
 -1      1131    8    0    1
 -2       504       640       641      2733      2737      2735
 -1      1132    8    0    1
 -2       506       505       642      2323      2738      2739
 -1      1133    8    0    1
 -2       505       641       642      2736      2740      2738
 -1      1134    8    0    1
 -2       507       506       643      2326      2741      2742
 -1      1135    8    0    1
 -2       506       642       643      2739      2743      2741
 -1      1136    8    0    1
 -2       508       507       644      2329      2744      2745
 -1      1137    8    0    1
 -2       507       643       644      2742      2746      2744
 -1      1138    8    0    1
 -2       509       508       645      2332      2747      2748
 -1      1139    8    0    1
 -2       508       644       645      2745      2749      2747
 -1      1140    8    0    1
 -2       510       509       646      2335      2750      2751
 -1      1141    8    0    1
 -2       509       645       646      2748      2752      2750
 -1      1142    8    0    1
 -2       511       510       647      2338      2753      2754
 -1      1143    8    0    1
 -2       510       646       647      2751      2755      2753
 -1      1144    8    0    1
 -2       512       511       648      2341      2756      2757
 -1      1145    8    0    1
 -2       511       647       648      2754      2758      2756
 -1      1146    8    0    1
 -2       513       512       649      2344      2759      2760
 -1      1147    8    0    1
 -2       512       648       649      2757      2761      2759
 -1      1148    8    0    1
 -2       514       513       650      2347      2762      2763
 -1      1149    8    0    1
 -2       513       649       650      2760      2764      2762
 -1      1150    8    0    1
 -2       515       514       651      2350      2765      2766
 -1      1151    8    0    1
 -2       514       650       651      2763      2767      2765
 -1      1152    8    0    1
 -2       516       515       652      2353      2768      2769
 -1      1153    8    0    1
 -2       515       651       652      2766      2770      2768
 -1      1154    8    0    1
 -2       517       516       653      2356      2771      2772
 -1      1155    8    0    1
 -2       516       652       653      2769      2773      2771
 -1      1156    8    0    1
 -2       518       517       654      2359      2774      2775
 -1      1157    8    0    1
 -2       517       653       654      2772      2776      2774
 -1      1158    8    0    1
 -2       519       518       655      2362      2777      2778
 -1      1159    8    0    1
 -2       518       654       655      2775      2779      2777
 -1      1160    8    0    1
 -2       520       519       656      2365      2780      2781
 -1      1161    8    0    1
 -2       519       655       656      2778      2782      2780
 -1      1162    8    0    1
 -2       521       520       657      2368      2783      2784
 -1      1163    8    0    1
 -2       520       656       657      2781      2785      2783
 -1      1164    8    0    1
 -2       522       521       658      2371      2786      2787
 -1      1165    8    0    1
 -2       521       657       658      2784      2788      2786
 -1      1166    8    0    1
 -2       523       522       659      2374      2789      2790
 -1      1167    8    0    1
 -2       522       658       659      2787      2791      2789
 -1      1168    8    0    1
 -2       524       523       660      2377      2792      2793
 -1      1169    8    0    1
 -2       523       659       660      2790      2794      2792
 -1      1170    8    0    1
 -2       525       524       661      2380      2795      2796
 -1      1171    8    0    1
 -2       524       660       661      2793      2797      2795
 -1      1172    8    0    1
 -2       526       525       662      2383      2798      2799
 -1      1173    8    0    1
 -2       525       661       662      2796      2800      2798
 -1      1174    8    0    1
 -2       527       526       663      2386      2801      2802
 -1      1175    8    0    1
 -2       526       662       663      2799      2803      2801
 -1      1176    8    0    1
 -2       528       527       664      2389      2804      2805
 -1      1177    8    0    1
 -2       527       663       664      2802      2806      2804
 -1      1178    8    0    1
 -2       529       528       665      2392      2807      2808
 -1      1179    8    0    1
 -2       528       664       665      2805      2809      2807
 -1      1180    8    0    1
 -2       530       529       666      2395      2810      2811
 -1      1181    8    0    1
 -2       529       665       666      2808      2812      2810
 -1      1182    8    0    1
 -2       603       605       667      2648      2813      2814
 -1      1183    8    0    1
 -2       532       533       668      2402      2815      2816
 -1      1184    8    0    1
 -2       535       536       669      2411      2817      2818
 -1      1185    8    0    1
 -2       536       537       670      2414      2819      2820
 -1      1186    8    0    1
 -2       536       670       669      2820      2821      2817
 -1      1187    8    0    1
 -2       537       538       671      2417      2822      2823
 -1      1188    8    0    1
 -2       537       671       670      2823      2824      2819
 -1      1189    8    0    1
 -2       538       539       672      2420      2825      2826
 -1      1190    8    0    1
 -2       538       672       671      2826      2827      2822
 -1      1191    8    0    1
 -2       539       540       673      2423      2828      2829
 -1      1192    8    0    1
 -2       539       673       672      2829      2830      2825
 -1      1193    8    0    1
 -2       540       541       674      2426      2831      2832
 -1      1194    8    0    1
 -2       540       674       673      2832      2833      2828
 -1      1195    8    0    1
 -2       541       542       675      2429      2834      2835
 -1      1196    8    0    1
 -2       541       675       674      2835      2836      2831
 -1      1197    8    0    1
 -2       542       543       676      2432      2837      2838
 -1      1198    8    0    1
 -2       542       676       675      2838      2839      2834
 -1      1199    8    0    1
 -2       543       544       677      2435      2840      2841
 -1      1200    8    0    1
 -2       543       677       676      2841      2842      2837
 -1      1201    8    0    1
 -2       544       545       678      2438      2843      2844
 -1      1202    8    0    1
 -2       544       678       677      2844      2845      2840
 -1      1203    8    0    1
 -2       545       546       679      2441      2846      2847
 -1      1204    8    0    1
 -2       545       679       678      2847      2848      2843
 -1      1205    8    0    1
 -2       546       547       680      2444      2849      2850
 -1      1206    8    0    1
 -2       546       680       679      2850      2851      2846
 -1      1207    8    0    1
 -2       547       548       681      2447      2852      2853
 -1      1208    8    0    1
 -2       547       681       680      2853      2854      2849
 -1      1209    8    0    1
 -2       548       549       682      2450      2855      2856
 -1      1210    8    0    1
 -2       548       682       681      2856      2857      2852
 -1      1211    8    0    1
 -2       549       550       683      2453      2858      2859
 -1      1212    8    0    1
 -2       549       683       682      2859      2860      2855
 -1      1213    8    0    1
 -2       550       551       684      2456      2861      2862
 -1      1214    8    0    1
 -2       550       684       683      2862      2863      2858
 -1      1215    8    0    1
 -2       551       552       685      2459      2864      2865
 -1      1216    8    0    1
 -2       551       685       684      2865      2866      2861
 -1      1217    8    0    1
 -2       552       553       686      2462      2867      2868
 -1      1218    8    0    1
 -2       552       686       685      2868      2869      2864
 -1      1219    8    0    1
 -2       553       554       687      2465      2870      2871
 -1      1220    8    0    1
 -2       553       687       686      2871      2872      2867
 -1      1221    8    0    1
 -2       554       555       688      2468      2873      2874
 -1      1222    8    0    1
 -2       554       688       687      2874      2875      2870
 -1      1223    8    0    1
 -2       555       556       689      2471      2876      2877
 -1      1224    8    0    1
 -2       555       689       688      2877      2878      2873
 -1      1225    8    0    1
 -2       556       557       690      2474      2879      2880
 -1      1226    8    0    1
 -2       556       690       689      2880      2881      2876
 -1      1227    8    0    1
 -2       557       558       691      2477      2882      2883
 -1      1228    8    0    1
 -2       557       691       690      2883      2884      2879
 -1      1229    8    0    1
 -2       558       559       692      2480      2885      2886
 -1      1230    8    0    1
 -2       558       692       691      2886      2887      2882
 -1      1231    8    0    1
 -2       559       560       693      2483      2888      2889
 -1      1232    8    0    1
 -2       559       693       692      2889      2890      2885
 -1      1233    8    0    1
 -2       560       561       694      2486      2891      2892
 -1      1234    8    0    1
 -2       560       694       693      2892      2893      2888
 -1      1235    8    0    1
 -2       561       562       695      2489      2894      2895
 -1      1236    8    0    1
 -2       561       695       694      2895      2896      2891
 -1      1237    8    0    1
 -2       562       563       696      2492      2897      2898
 -1      1238    8    0    1
 -2       562       696       695      2898      2899      2894
 -1      1239    8    0    1
 -2       563       564       697      2495      2900      2901
 -1      1240    8    0    1
 -2       563       697       696      2901      2902      2897
 -1      1241    8    0    1
 -2       564       565       698      2498      2903      2904
 -1      1242    8    0    1
 -2       564       698       697      2904      2905      2900
 -1      1243    8    0    1
 -2       565       566       699      2501      2906      2907
 -1      1244    8    0    1
 -2       565       699       698      2907      2908      2903
 -1      1245    8    0    1
 -2       566       567       700      2504      2909      2910
 -1      1246    8    0    1
 -2       566       700       699      2910      2911      2906
 -1      1247    8    0    1
 -2       567       568       701      2507      2912      2913
 -1      1248    8    0    1
 -2       567       701       700      2913      2914      2909
 -1      1249    8    0    1
 -2       568       569       702      2510      2915      2916
 -1      1250    8    0    1
 -2       568       702       701      2916      2917      2912
 -1      1251    8    0    1
 -2       569       570       703      2513      2918      2919
 -1      1252    8    0    1
 -2       569       703       702      2919      2920      2915
 -1      1253    8    0    1
 -2       570       571       704      2516      2921      2922
 -1      1254    8    0    1
 -2       570       704       703      2922      2923      2918
 -1      1255    8    0    1
 -2       571       572       705      2519      2924      2925
 -1      1256    8    0    1
 -2       571       705       704      2925      2926      2921
 -1      1257    8    0    1
 -2       572       573       706      2522      2927      2928
 -1      1258    8    0    1
 -2       705       572       706      2924      2928      2929
 -1      1259    8    0    1
 -2       573       576       706      2669      2930      2927
 -1      1260    8    0    1
 -2       578       579       707      2540      2931      2932
 -1      1261    8    0    1
 -2       616       530       708      2670      2933      2934
 -1      1262    8    0    1
 -2       530       666       708      2811      2935      2933
 -1      1263    8    0    1
 -2       574       575       709      2528      2936      2937
 -1      1264    8    0    1
 -2       579       580       710      2543      2938      2939
 -1      1265    8    0    1
 -2       579       710       707      2939      2940      2931
 -1      1266    8    0    1
 -2       575       578       711      2537      2941      2942
 -1      1267    8    0    1
 -2       709       575       711      2936      2942      2943
 -1      1268    8    0    1
 -2       578       707       711      2932      2944      2941
 -1      1269    8    0    1
 -2       531       588       712      2637      2945      2946
 -1      1270    8    0    1
 -2       580       581       713      2546      2947      2948
 -1      1271    8    0    1
 -2       580       713       710      2948      2949      2938
 -1      1272    8    0    1
 -2       581       582       714      2549      2950      2951
 -1      1273    8    0    1
 -2       581       714       713      2951      2952      2947
 -1      1274    8    0    1
 -2       582       583       715      2552      2953      2954
 -1      1275    8    0    1
 -2       582       715       714      2954      2955      2950
 -1      1276    8    0    1
 -2       586       532       716      2561      2956      2957
 -1      1277    8    0    1
 -2       532       668       716      2816      2958      2956
 -1      1278    8    0    1
 -2       607       608       717      2634      2959      2960
 -1      1279    8    0    1
 -2       585       587       718      2638      2961      2962
 -1      1280    8    0    1
 -2       611       474       719      2652      2963      2964
 -1      1281    8    0    1
 -2       612       447       614      2653      2628      2965
 -1      1282    8    0    1
 -2       486       586       720      2650      2966      2967
 -1      1283    8    0    1
 -2       623       486       720      2683      2967      2968
 -1      1284    8    0    1
 -2       586       716       720      2957      2969      2966
 -1      1285    8    0    1
 -2       596       602       721      2658      2970      2971
 -1      1286    8    0    1
 -2       485       531       722      2630      2972      2973
 -1      1287    8    0    1
 -2       485       722       624      2973      2974      2685
 -1      1288    8    0    1
 -2       534       535       723      2408      2975      2976
 -1      1289    8    0    1
 -2       535       669       723      2818      2977      2975
 -1      1290    8    0    1
 -2       533       534       724      2405      2978      2979
 -1      1291    8    0    1
 -2       534       723       724      2976      2980      2978
 -1      1292    8    0    1
 -2       488       487       725      2269      2981      2982
 -1      1293    8    0    1
 -2       488       725       625      2982      2983      2688
 -1      1294    8    0    1
 -2       594       598       726      2589      2984      2985
 -1      1295    8    0    1
 -2       473       595       727      2632      2986      2987
 -1      1296    8    0    1
 -2       610       611       728      2654      2988      2989
 -1      1297    8    0    1
 -2       474       589       729      2651      2990      2991
 -1      1298    8    0    1
 -2       474       729       719      2991      2992      2963
 -1      1299    8    0    1
 -2       587       473       730      2633      2993      2994
 -1      1300    8    0    1
 -2       718       587       730      2961      2994      2995
 -1      1301    8    0    1
 -2       473       727       730      2987      2996      2993
 -1      1302    8    0    1
 -2       481       482       731      2253      2997      2998
 -1      1303    8    0    1
 -2       618       481       731      2671      2998      2999
 -1      1304    8    0    1
 -2       482       620       731      2677      3000      2997
 -1      1305    8    0    1
 -2       595       597       732      2586      3001      3002
 -1      1306    8    0    1
 -2       598       599       733      2666      3003      3004
 -1      1307    8    0    1
 -2       591       596       734      2660      3005      3006
 -1      1308    8    0    1
 -2       599       592       735      2665      3007      3008
 -1      1309    8    0    1
 -2       478       477       736      2242      3009      3010
 -1      1310    8    0    1
 -2       592       600       737      2659      3011      3012
 -1      1311    8    0    1
 -2       590       601       738      2664      3013      3014
 -1      1312    8    0    1
 -2       600       591       739      2657      3015      3016
 -1      1313    8    0    1
 -2       602       590       740      2649      3017      3018
 -1      1314    8    0    1
 -2       590       738       740      3014      3019      3017
 -1      1315    8    0    1
 -2       597       594       741      2625      3020      3021
 -1      1316    8    0    1
 -2       597       741       732      3021      3022      3001
 -1      1317    8    0    1
 -2       584       616       708      2646      2934      3023
 -1      1318    8    0    1
 -2       588       585       742      2636      3024      3025
 -1      1319    8    0    1
 -2       588       742       712      3025      3026      2945
 -1      1320    8    0    1
 -2       606       607       743      2608      3027      3028
 -1      1321    8    0    1
 -2       601       604       744      2656      3029      3030
 -1      1322    8    0    1
 -2       609       610       745      2655      3031      3032
 -1      1323    8    0    1
 -2       605       606       746      2635      3033      3034
 -1      1324    8    0    1
 -2       614       478       747      2626      3035      3036
 -1      1325    8    0    1
 -2       478       736       747      3010      3037      3035
 -1      1326    8    0    1
 -2       479       619       748      2674      3038      3039
 -1      1327    8    0    1
 -2       479       748       593      3039      3040      2577
 -1      1328    8    0    1
 -2       608       622       717      2682      3041      2959
 -1      1329    8    0    1
 -2       622       609       745      2681      3032      3042
 -1      1330    8    0    1
 -2       589       624       729      2686      3043      2990
 -1      1331    8    0    1
 -2       484       476       623      2687      2684      3044
 -1      1332    8    0    1
 -2       594       726       741      2985      3045      3020
 -1      1333    8    0    1
 -2       595       732       727      3002      3046      2986
 -1      1334    8    0    1
 -2       574       709       749      2937      3047      3048
 -1      1335    8    0    1
 -2       574       749       577      3048      3049      2534
 -1      1336    8    0    1
 -2       667       605       746      2813      3034      3050
 -1      1337    8    0    1
 -2       607       717       743      2960      3051      3027
 -1      1338    8    0    1
 -2       533       724       668      2979      3052      2815
 -1      1339    8    0    1
 -2       576       577       750      2533      3053      3054
 -1      1340    8    0    1
 -2       706       576       750      2930      3054      3055
 -1      1341    8    0    1
 -2       577       749       750      3049      3056      3053
 -1      1342    8    0    1
 -2       615       475       751      2643      3057      3058
 -1      1343    8    0    1
 -2       475       617       751      2662      3059      3057
 -1      1344    8    0    1
 -2       584       708       583      3023      3060      2555
 -1      1345    8    0    1
 -2       596       721       752      2971      3061      3062
 -1      1346    8    0    1
 -2       596       752       734      3062      3063      3005
 -1      1347    8    0    1
 -2       715       583       708      2953      3060      3064
 -1      1348    8    0    1
 -2       745       610       728      3031      2989      3065
 -1      1349    8    0    1
 -2       739       591       734      3015      3006      3066
 -1      1350    8    0    1
 -2       738       601       744      3013      3030      3067
 -1      1351    8    0    1
 -2       604       615       753      2642      3068      3069
 -1      1352    8    0    1
 -2       604       753       744      3069      3070      3029
 -1      1353    8    0    1
 -2       737       600       739      3011      3016      3071
 -1      1354    8    0    1
 -2       585       718       742      2962      3072      3024
 -1      1355    8    0    1
 -2       611       719       754      2964      3073      3074
 -1      1356    8    0    1
 -2       611       754       728      3074      3075      2988
 -1      1357    8    0    1
 -2       612       614       755      2965      3076      3077
 -1      1358    8    0    1
 -2       487       612       755      2619      3077      3078
 -1      1359    8    0    1
 -2       614       747       755      3036      3079      3076
 -1      1360    8    0    1
 -2       735       592       737      3007      3012      3080
 -1      1361    8    0    1
 -2       484       623       621      3044      3081      2678
 -1      1362    8    0    1
 -2       487       755       725      3078      3082      2981
 -1      1363    8    0    1
 -2       722       531       756      2972      3083      3084
 -1      1364    8    0    1
 -2       531       712       756      2946      3085      3083
 -1      1365    8    0    1
 -2       617       603       757      2663      3086      3087
 -1      1366    8    0    1
 -2       603       667       757      2814      3088      3086
 -1      1367    8    0    1
 -2       477       593       758      2576      3089      3090
 -1      1368    8    0    1
 -2       736       477       758      3009      3090      3091
 -1      1369    8    0    1
 -2       593       748       758      3040      3092      3089
 -1      1370    8    0    1
 -2       726       598       733      2984      3004      3093
 -1      1371    8    0    1
 -2       733       599       735      3003      3008      3094
 -1      1372    8    0    1
 -2       602       740       721      3018      3095      2970
 -1      1373    8    0    1
 -2       620       621       759      2680      3096      3097
 -1      1374    8    0    1
 -2       741       726       688      3045      3098      3099
 -1      1375    8    0    1
 -2       627       626       760      2695      3100      3101
 -1      1376    8    0    1
 -2       628       627       761      2698      3102      3103
 -1      1377    8    0    1
 -2       627       760       761      3101      3104      3102
 -1      1378    8    0    1
 -2       629       628       762      2701      3105      3106
 -1      1379    8    0    1
 -2       628       761       762      3103      3107      3105
 -1      1380    8    0    1
 -2       630       629       763      2704      3108      3109
 -1      1381    8    0    1
 -2       629       762       763      3106      3110      3108
 -1      1382    8    0    1
 -2       631       630       764      2707      3111      3112
 -1      1383    8    0    1
 -2       630       763       764      3109      3113      3111
 -1      1384    8    0    1
 -2       632       631       765      2710      3114      3115
 -1      1385    8    0    1
 -2       631       764       765      3112      3116      3114
 -1      1386    8    0    1
 -2       633       632       766      2713      3117      3118
 -1      1387    8    0    1
 -2       632       765       766      3115      3119      3117
 -1      1388    8    0    1
 -2       634       633       767      2716      3120      3121
 -1      1389    8    0    1
 -2       633       766       767      3118      3122      3120
 -1      1390    8    0    1
 -2       635       634       768      2719      3123      3124
 -1      1391    8    0    1
 -2       634       767       768      3121      3125      3123
 -1      1392    8    0    1
 -2       636       635       769      2722      3126      3127
 -1      1393    8    0    1
 -2       635       768       769      3124      3128      3126
 -1      1394    8    0    1
 -2       637       636       770      2725      3129      3130
 -1      1395    8    0    1
 -2       636       769       770      3127      3131      3129
 -1      1396    8    0    1
 -2       638       637       771      2728      3132      3133
 -1      1397    8    0    1
 -2       637       770       771      3130      3134      3132
 -1      1398    8    0    1
 -2       639       638       772      2731      3135      3136
 -1      1399    8    0    1
 -2       638       771       772      3133      3137      3135
 -1      1400    8    0    1
 -2       640       639       773      2734      3138      3139
 -1      1401    8    0    1
 -2       639       772       773      3136      3140      3138
 -1      1402    8    0    1
 -2       641       640       774      2737      3141      3142
 -1      1403    8    0    1
 -2       640       773       774      3139      3143      3141
 -1      1404    8    0    1
 -2       642       641       775      2740      3144      3145
 -1      1405    8    0    1
 -2       641       774       775      3142      3146      3144
 -1      1406    8    0    1
 -2       643       642       776      2743      3147      3148
 -1      1407    8    0    1
 -2       642       775       776      3145      3149      3147
 -1      1408    8    0    1
 -2       644       643       777      2746      3150      3151
 -1      1409    8    0    1
 -2       643       776       777      3148      3152      3150
 -1      1410    8    0    1
 -2       645       644       778      2749      3153      3154
 -1      1411    8    0    1
 -2       644       777       778      3151      3155      3153
 -1      1412    8    0    1
 -2       646       645       779      2752      3156      3157
 -1      1413    8    0    1
 -2       645       778       779      3154      3158      3156
 -1      1414    8    0    1
 -2       647       646       780      2755      3159      3160
 -1      1415    8    0    1
 -2       646       779       780      3157      3161      3159
 -1      1416    8    0    1
 -2       648       647       757      2758      3162      3163
 -1      1417    8    0    1
 -2       649       648       757      2761      3163      3164
 -1      1418    8    0    1
 -2       650       649       746      2764      3165      3166
 -1      1419    8    0    1
 -2       651       650       743      2767      3167      3168
 -1      1420    8    0    1
 -2       654       653       781      2776      3169      3170
 -1      1421    8    0    1
 -2       655       654       782      2779      3171      3172
 -1      1422    8    0    1
 -2       654       781       782      3170      3173      3171
 -1      1423    8    0    1
 -2       656       655       783      2782      3174      3175
 -1      1424    8    0    1
 -2       655       782       783      3172      3176      3174
 -1      1425    8    0    1
 -2       657       656       784      2785      3177      3178
 -1      1426    8    0    1
 -2       656       783       784      3175      3179      3177
 -1      1427    8    0    1
 -2       658       657       785      2788      3180      3181
 -1      1428    8    0    1
 -2       657       784       785      3178      3182      3180
 -1      1429    8    0    1
 -2       659       658       786      2791      3183      3184
 -1      1430    8    0    1
 -2       658       785       786      3181      3185      3183
 -1      1431    8    0    1
 -2       660       659       787      2794      3186      3187
 -1      1432    8    0    1
 -2       659       786       787      3184      3188      3186
 -1      1433    8    0    1
 -2       661       660       788      2797      3189      3190
 -1      1434    8    0    1
 -2       660       787       788      3187      3191      3189
 -1      1435    8    0    1
 -2       662       661       789      2800      3192      3193
 -1      1436    8    0    1
 -2       661       788       789      3190      3194      3192
 -1      1437    8    0    1
 -2       663       662       790      2803      3195      3196
 -1      1438    8    0    1
 -2       662       789       790      3193      3197      3195
 -1      1439    8    0    1
 -2       664       663       791      2806      3198      3199
 -1      1440    8    0    1
 -2       663       790       791      3196      3200      3198
 -1      1441    8    0    1
 -2       665       664       792      2809      3201      3202
 -1      1442    8    0    1
 -2       664       791       792      3199      3203      3201
 -1      1443    8    0    1
 -2       666       665       793      2812      3204      3205
 -1      1444    8    0    1
 -2       665       792       793      3202      3206      3204
 -1      1445    8    0    1
 -2       669       670       794      2821      3207      3208
 -1      1446    8    0    1
 -2       672       673       795      2830      3209      3210
 -1      1447    8    0    1
 -2       673       674       796      2833      3211      3212
 -1      1448    8    0    1
 -2       673       796       795      3212      3213      3209
 -1      1449    8    0    1
 -2       674       675       797      2836      3214      3215
 -1      1450    8    0    1
 -2       674       797       796      3215      3216      3211
 -1      1451    8    0    1
 -2       675       676       798      2839      3217      3218
 -1      1452    8    0    1
 -2       675       798       797      3218      3219      3214
 -1      1453    8    0    1
 -2       676       677       799      2842      3220      3221
 -1      1454    8    0    1
 -2       676       799       798      3221      3222      3217
 -1      1455    8    0    1
 -2       677       678       800      2845      3223      3224
 -1      1456    8    0    1
 -2       677       800       799      3224      3225      3220
 -1      1457    8    0    1
 -2       678       679       801      2848      3226      3227
 -1      1458    8    0    1
 -2       678       801       800      3227      3228      3223
 -1      1459    8    0    1
 -2       679       680       802      2851      3229      3230
 -1      1460    8    0    1
 -2       679       802       801      3230      3231      3226
 -1      1461    8    0    1
 -2       680       681       803      2854      3232      3233
 -1      1462    8    0    1
 -2       680       803       802      3233      3234      3229
 -1      1463    8    0    1
 -2       681       682       804      2857      3235      3236
 -1      1464    8    0    1
 -2       681       804       803      3236      3237      3232
 -1      1465    8    0    1
 -2       682       683       805      2860      3238      3239
 -1      1466    8    0    1
 -2       682       805       804      3239      3240      3235
 -1      1467    8    0    1
 -2       683       684       806      2863      3241      3242
 -1      1468    8    0    1
 -2       683       806       805      3242      3243      3238
 -1      1469    8    0    1
 -2       684       685       807      2866      3244      3245
 -1      1470    8    0    1
 -2       684       807       806      3245      3246      3241
 -1      1471    8    0    1
 -2       685       686       808      2869      3247      3248
 -1      1472    8    0    1
 -2       685       808       807      3248      3249      3244
 -1      1473    8    0    1
 -2       686       687       809      2872      3250      3251
 -1      1474    8    0    1
 -2       686       809       808      3251      3252      3247
 -1      1475    8    0    1
 -2       687       688       726      2875      3098      3253
 -1      1476    8    0    1
 -2       688       689       741      2878      3254      3099
 -1      1477    8    0    1
 -2       689       690       732      2881      3255      3256
 -1      1478    8    0    1
 -2       690       691       727      2884      3257      3258
 -1      1479    8    0    1
 -2       691       692       727      2887      3259      3257
 -1      1480    8    0    1
 -2       692       693       810      2890      3260      3261
 -1      1481    8    0    1
 -2       693       694       811      2893      3262      3263
 -1      1482    8    0    1
 -2       693       811       810      3263      3264      3260
 -1      1483    8    0    1
 -2       694       695       812      2896      3265      3266
 -1      1484    8    0    1
 -2       694       812       811      3266      3267      3262
 -1      1485    8    0    1
 -2       695       696       813      2899      3268      3269
 -1      1486    8    0    1
 -2       695       813       812      3269      3270      3265
 -1      1487    8    0    1
 -2       696       697       814      2902      3271      3272
 -1      1488    8    0    1
 -2       696       814       813      3272      3273      3268
 -1      1489    8    0    1
 -2       697       698       815      2905      3274      3275
 -1      1490    8    0    1
 -2       697       815       814      3275      3276      3271
 -1      1491    8    0    1
 -2       698       699       816      2908      3277      3278
 -1      1492    8    0    1
 -2       698       816       815      3278      3279      3274
 -1      1493    8    0    1
 -2       699       700       817      2911      3280      3281
 -1      1494    8    0    1
 -2       699       817       816      3281      3282      3277
 -1      1495    8    0    1
 -2       700       701       818      2914      3283      3284
 -1      1496    8    0    1
 -2       700       818       817      3284      3285      3280
 -1      1497    8    0    1
 -2       701       702       819      2917      3286      3287
 -1      1498    8    0    1
 -2       701       819       818      3287      3288      3283
 -1      1499    8    0    1
 -2       702       703       820      2920      3289      3290
 -1      1500    8    0    1
 -2       702       820       819      3290      3291      3286
 -1      1501    8    0    1
 -2       703       704       821      2923      3292      3293
 -1      1502    8    0    1
 -2       703       821       820      3293      3294      3289
 -1      1503    8    0    1
 -2       704       705       822      2926      3295      3296
 -1      1504    8    0    1
 -2       704       822       821      3296      3297      3292
 -1      1505    8    0    1
 -2       705       706       823      2929      3298      3299
 -1      1506    8    0    1
 -2       822       705       823      3295      3299      3300
 -1      1507    8    0    1
 -2       706       750       823      3055      3301      3298
 -1      1508    8    0    1
 -2       746       606       650      3033      3302      3166
 -1      1509    8    0    1
 -2       619       618       824      2675      3303      3304
 -1      1510    8    0    1
 -2       712       742       825      3026      3305      3306
 -1      1511    8    0    1
 -2       606       743       650      3028      3167      3302
 -1      1512    8    0    1
 -2       707       710       826      2940      3307      3308
 -1      1513    8    0    1
 -2       714       715       827      2955      3309      3310
 -1      1514    8    0    1
 -2       710       713       828      2949      3311      3312
 -1      1515    8    0    1
 -2       710       828       826      3312      3313      3307
 -1      1516    8    0    1
 -2       716       668       829      2958      3314      3315
 -1      1517    8    0    1
 -2       740       738       830      3019      3316      3317
 -1      1518    8    0    1
 -2       622       745       781      3042      3318      3319
 -1      1519    8    0    1
 -2       713       714       831      2952      3320      3321
 -1      1520    8    0    1
 -2       828       713       831      3311      3321      3322
 -1      1521    8    0    1
 -2       714       827       831      3310      3323      3320
 -1      1522    8    0    1
 -2       671       672       832      2827      3324      3325
 -1      1523    8    0    1
 -2       672       795       832      3210      3326      3324
 -1      1524    8    0    1
 -2       670       671       833      2824      3327      3328
 -1      1525    8    0    1
 -2       794       670       833      3207      3328      3329
 -1      1526    8    0    1
 -2       671       832       833      3325      3330      3327
 -1      1527    8    0    1
 -2       624       722       834      2974      3331      3332
 -1      1528    8    0    1
 -2       723       669       835      2977      3333      3334
 -1      1529    8    0    1
 -2       669       794       835      3208      3335      3333
 -1      1530    8    0    1
 -2       626       625       836      2692      3336      3337
 -1      1531    8    0    1
 -2       626       836       760      3337      3338      3100
 -1      1532    8    0    1
 -2       724       723       837      2980      3339      3340
 -1      1533    8    0    1
 -2       723       835       837      3334      3341      3339
 -1      1534    8    0    1
 -2       739       734       838      3066      3342      3343
 -1      1535    8    0    1
 -2       719       729       839      2992      3344      3345
 -1      1536    8    0    1
 -2       745       728       781      3065      3346      3318
 -1      1537    8    0    1
 -2       741       689       732      3254      3256      3022
 -1      1538    8    0    1
 -2       733       735       809      3094      3347      3348
 -1      1539    8    0    1
 -2       625       725       840      2983      3349      3350
 -1      1540    8    0    1
 -2       625       840       836      3350      3351      3336
 -1      1541    8    0    1
 -2       738       744       841      3067      3352      3353
 -1      1542    8    0    1
 -2       738       841       830      3353      3354      3316
 -1      1543    8    0    1
 -2       721       740       842      3095      3355      3356
 -1      1544    8    0    1
 -2       621       623       843      3081      3357      3358
 -1      1545    8    0    1
 -2       759       621       843      3096      3358      3359
 -1      1546    8    0    1
 -2       623       720       843      2968      3360      3357
 -1      1547    8    0    1
 -2       742       718       844      3072      3361      3362
 -1      1548    8    0    1
 -2       737       739       845      3071      3363      3364
 -1      1549    8    0    1
 -2       739       838       845      3343      3365      3363
 -1      1550    8    0    1
 -2       668       724       846      3052      3366      3367
 -1      1551    8    0    1
 -2       724       837       846      3340      3368      3366
 -1      1552    8    0    1
 -2       725       755       847      3082      3369      3370
 -1      1553    8    0    1
 -2       755       747       847      3079      3371      3369
 -1      1554    8    0    1
 -2       729       624       848      3043      3372      3373
 -1      1555    8    0    1
 -2       624       834       848      3332      3374      3372
 -1      1556    8    0    1
 -2       743       717       651      3051      3375      3168
 -1      1557    8    0    1
 -2       735       737       849      3080      3376      3377
 -1      1558    8    0    1
 -2       732       690       727      3255      3258      3046
 -1      1559    8    0    1
 -2       651       717       652      3375      3378      2770
 -1      1560    8    0    1
 -2       652       717       622      3378      3041      3379
 -1      1561    8    0    1
 -2       652       622       653      3379      3380      2773
 -1      1562    8    0    1
 -2       653       622       781      3380      3319      3169
 -1      1563    8    0    1
 -2       748       619       850      3038      3381      3382
 -1      1564    8    0    1
 -2       619       824       850      3304      3383      3381
 -1      1565    8    0    1
 -2       809       735       849      3347      3377      3384
 -1      1566    8    0    1
 -2       647       780       757      3160      3385      3162
 -1      1567    8    0    1
 -2       749       709       851      3047      3386      3387
 -1      1568    8    0    1
 -2       746       649       667      3165      3388      3050
 -1      1569    8    0    1
 -2       834       722       852      3331      3389      3390
 -1      1570    8    0    1
 -2       722       756       852      3084      3391      3389
 -1      1571    8    0    1
 -2       747       736       853      3037      3392      3393
 -1      1572    8    0    1
 -2       747       853       847      3393      3394      3371
 -1      1573    8    0    1
 -2       687       726       809      3253      3395      3250
 -1      1574    8    0    1
 -2       692       810       727      3261      3396      3259
 -1      1575    8    0    1
 -2       825       742       844      3305      3362      3397
 -1      1576    8    0    1
 -2       721       842       854      3356      3398      3399
 -1      1577    8    0    1
 -2       721       854       752      3399      3400      3061
 -1      1578    8    0    1
 -2       709       711       855      2943      3401      3402
 -1      1579    8    0    1
 -2       709       855       851      3402      3403      3386
 -1      1580    8    0    1
 -2       751       617       757      3059      3087      3404
 -1      1581    8    0    1
 -2       708       666       715      2935      3405      3064
 -1      1582    8    0    1
 -2       824       618       856      3303      3406      3407
 -1      1583    8    0    1
 -2       618       731       856      2999      3408      3406
 -1      1584    8    0    1
 -2       712       825       857      3306      3409      3410
 -1      1585    8    0    1
 -2       712       857       756      3410      3411      3085
 -1      1586    8    0    1
 -2       711       707       858      2944      3412      3413
 -1      1587    8    0    1
 -2       855       711       858      3401      3413      3414
 -1      1588    8    0    1
 -2       707       826       858      3308      3415      3412
 -1      1589    8    0    1
 -2       829       668       846      3314      3367      3416
 -1      1590    8    0    1
 -2       740       830       842      3317      3417      3355
 -1      1591    8    0    1
 -2       734       752       859      3063      3418      3419
 -1      1592    8    0    1
 -2       734       859       838      3419      3420      3342
 -1      1593    8    0    1
 -2       753       615       860      3068      3421      3422
 -1      1594    8    0    1
 -2       615       751       860      3058      3423      3421
 -1      1595    8    0    1
 -2       754       719       839      3073      3345      3424
 -1      1596    8    0    1
 -2       729       848       839      3373      3425      3344
 -1      1597    8    0    1
 -2       720       716       861      2969      3426      3427
 -1      1598    8    0    1
 -2       843       720       861      3360      3427      3428
 -1      1599    8    0    1
 -2       716       829       861      3315      3429      3426
 -1      1600    8    0    1
 -2       731       620       862      3000      3430      3431
 -1      1601    8    0    1
 -2       856       731       862      3408      3431      3432
 -1      1602    8    0    1
 -2       620       759       862      3097      3433      3430
 -1      1603    8    0    1
 -2       725       847       840      3370      3434      3349
 -1      1604    8    0    1
 -2       781       728       782      3346      3435      3173
 -1      1605    8    0    1
 -2       782       728       863      3435      3436      3437
 -1      1606    8    0    1
 -2       783       782       863      3176      3437      3438
 -1      1607    8    0    1
 -2       728       754       863      3075      3439      3436
 -1      1608    8    0    1
 -2       841       744       864      3352      3440      3441
 -1      1609    8    0    1
 -2       744       753       864      3070      3442      3440
 -1      1610    8    0    1
 -2       737       845       849      3364      3443      3376
 -1      1611    8    0    1
 -2       736       758       865      3091      3444      3445
 -1      1612    8    0    1
 -2       736       865       853      3445      3446      3392
 -1      1613    8    0    1
 -2       844       718       810      3361      3447      3448
 -1      1614    8    0    1
 -2       715       666       793      3405      3205      3449
 -1      1615    8    0    1
 -2       715       793       827      3449      3450      3309
 -1      1616    8    0    1
 -2       667       649       757      3388      3164      3088
 -1      1617    8    0    1
 -2       809       849       808      3384      3451      3252
 -1      1618    8    0    1
 -2       762       761       866      3107      3452      3453
 -1      1619    8    0    1
 -2       763       762       867      3110      3454      3455
 -1      1620    8    0    1
 -2       762       866       867      3453      3456      3454
 -1      1621    8    0    1
 -2       764       763       868      3113      3457      3458
 -1      1622    8    0    1
 -2       763       867       868      3455      3459      3457
 -1      1623    8    0    1
 -2       765       764       869      3116      3460      3461
 -1      1624    8    0    1
 -2       764       868       869      3458      3462      3460
 -1      1625    8    0    1
 -2       766       765       870      3119      3463      3464
 -1      1626    8    0    1
 -2       765       869       870      3461      3465      3463
 -1      1627    8    0    1
 -2       767       766       871      3122      3466      3467
 -1      1628    8    0    1
 -2       766       870       871      3464      3468      3466
 -1      1629    8    0    1
 -2       768       767       872      3125      3469      3470
 -1      1630    8    0    1
 -2       767       871       872      3467      3471      3469
 -1      1631    8    0    1
 -2       769       768       873      3128      3472      3473
 -1      1632    8    0    1
 -2       768       872       873      3470      3474      3472
 -1      1633    8    0    1
 -2       770       769       874      3131      3475      3476
 -1      1634    8    0    1
 -2       769       873       874      3473      3477      3475
 -1      1635    8    0    1
 -2       771       770       875      3134      3478      3479
 -1      1636    8    0    1
 -2       770       874       875      3476      3480      3478
 -1      1637    8    0    1
 -2       772       771       876      3137      3481      3482
 -1      1638    8    0    1
 -2       771       875       876      3479      3483      3481
 -1      1639    8    0    1
 -2       773       772       877      3140      3484      3485
 -1      1640    8    0    1
 -2       772       876       877      3482      3486      3484
 -1      1641    8    0    1
 -2       774       773       878      3143      3487      3488
 -1      1642    8    0    1
 -2       773       877       878      3485      3489      3487
 -1      1643    8    0    1
 -2       775       774       879      3146      3490      3491
 -1      1644    8    0    1
 -2       774       878       879      3488      3492      3490
 -1      1645    8    0    1
 -2       776       775       880      3149      3493      3494
 -1      1646    8    0    1
 -2       775       879       880      3491      3495      3493
 -1      1647    8    0    1
 -2       777       776       881      3152      3496      3497
 -1      1648    8    0    1
 -2       776       880       881      3494      3498      3496
 -1      1649    8    0    1
 -2       778       777       882      3155      3499      3500
 -1      1650    8    0    1
 -2       777       881       882      3497      3501      3499
 -1      1651    8    0    1
 -2       779       778       883      3158      3502      3503
 -1      1652    8    0    1
 -2       778       882       883      3500      3504      3502
 -1      1653    8    0    1
 -2       780       779       864      3161      3505      3506
 -1      1654    8    0    1
 -2       827       793       884      3450      3507      3508
 -1      1655    8    0    1
 -2       793       792       884      3206      3509      3507
 -1      1656    8    0    1
 -2       760       836       885      3338      3510      3511
 -1      1657    8    0    1
 -2       784       783       886      3179      3512      3513
 -1      1658    8    0    1
 -2       783       863       886      3438      3514      3512
 -1      1659    8    0    1
 -2       785       784       887      3182      3515      3516
 -1      1660    8    0    1
 -2       784       886       887      3513      3517      3515
 -1      1661    8    0    1
 -2       786       785       888      3185      3518      3519
 -1      1662    8    0    1
 -2       785       887       888      3516      3520      3518
 -1      1663    8    0    1
 -2       787       786       889      3188      3521      3522
 -1      1664    8    0    1
 -2       786       888       889      3519      3523      3521
 -1      1665    8    0    1
 -2       788       787       890      3191      3524      3525
 -1      1666    8    0    1
 -2       787       889       890      3522      3526      3524
 -1      1667    8    0    1
 -2       789       788       891      3194      3527      3528
 -1      1668    8    0    1
 -2       788       890       891      3525      3529      3527
 -1      1669    8    0    1
 -2       790       789       892      3197      3530      3531
 -1      1670    8    0    1
 -2       789       891       892      3528      3532      3530
 -1      1671    8    0    1
 -2       791       790       893      3200      3533      3534
 -1      1672    8    0    1
 -2       790       892       893      3531      3535      3533
 -1      1673    8    0    1
 -2       792       791       894      3203      3536      3537
 -1      1674    8    0    1
 -2       884       792       894      3509      3537      3538
 -1      1675    8    0    1
 -2       791       893       894      3534      3539      3536
 -1      1676    8    0    1
 -2       844       810       811      3448      3264      3540
 -1      1677    8    0    1
 -2       750       749       895      3056      3541      3542
 -1      1678    8    0    1
 -2       823       750       895      3301      3542      3543
 -1      1679    8    0    1
 -2       749       851       895      3387      3544      3541
 -1      1680    8    0    1
 -2       795       796       896      3213      3545      3546
 -1      1681    8    0    1
 -2       798       799       897      3222      3547      3548
 -1      1682    8    0    1
 -2       799       800       898      3225      3549      3550
 -1      1683    8    0    1
 -2       799       898       897      3550      3551      3547
 -1      1684    8    0    1
 -2       800       801       899      3228      3552      3553
 -1      1685    8    0    1
 -2       800       899       898      3553      3554      3549
 -1      1686    8    0    1
 -2       801       802       900      3231      3555      3556
 -1      1687    8    0    1
 -2       801       900       899      3556      3557      3552
 -1      1688    8    0    1
 -2       802       803       901      3234      3558      3559
 -1      1689    8    0    1
 -2       802       901       900      3559      3560      3555
 -1      1690    8    0    1
 -2       803       804       902      3237      3561      3562
 -1      1691    8    0    1
 -2       803       902       901      3562      3563      3558
 -1      1692    8    0    1
 -2       804       805       903      3240      3564      3565
 -1      1693    8    0    1
 -2       804       903       902      3565      3566      3561
 -1      1694    8    0    1
 -2       805       806       904      3243      3567      3568
 -1      1695    8    0    1
 -2       805       904       903      3568      3569      3564
 -1      1696    8    0    1
 -2       806       807       905      3246      3570      3571
 -1      1697    8    0    1
 -2       806       905       904      3571      3572      3567
 -1      1698    8    0    1
 -2       807       808       906      3249      3573      3574
 -1      1699    8    0    1
 -2       905       807       906      3570      3574      3575
 -1      1700    8    0    1
 -2       808       849       906      3451      3576      3573
 -1      1701    8    0    1
 -2       812       813       907      3270      3577      3578
 -1      1702    8    0    1
 -2       825       844       907      3397      3579      3580
 -1      1703    8    0    1
 -2       811       812       844      3267      3581      3540
 -1      1704    8    0    1
 -2       813       814       908      3273      3582      3583
 -1      1705    8    0    1
 -2       813       908       907      3583      3584      3577
 -1      1706    8    0    1
 -2       814       815       909      3276      3585      3586
 -1      1707    8    0    1
 -2       814       909       908      3586      3587      3582
 -1      1708    8    0    1
 -2       815       816       910      3279      3588      3589
 -1      1709    8    0    1
 -2       815       910       909      3589      3590      3585
 -1      1710    8    0    1
 -2       816       817       911      3282      3591      3592
 -1      1711    8    0    1
 -2       816       911       910      3592      3593      3588
 -1      1712    8    0    1
 -2       817       818       912      3285      3594      3595
 -1      1713    8    0    1
 -2       817       912       911      3595      3596      3591
 -1      1714    8    0    1
 -2       818       819       913      3288      3597      3598
 -1      1715    8    0    1
 -2       818       913       912      3598      3599      3594
 -1      1716    8    0    1
 -2       819       820       914      3291      3600      3601
 -1      1717    8    0    1
 -2       819       914       913      3601      3602      3597
 -1      1718    8    0    1
 -2       820       821       915      3294      3603      3604
 -1      1719    8    0    1
 -2       820       915       914      3604      3605      3600
 -1      1720    8    0    1
 -2       832       795       916      3326      3606      3607
 -1      1721    8    0    1
 -2       795       896       916      3546      3608      3606
 -1      1722    8    0    1
 -2       826       828       917      3313      3609      3610
 -1      1723    8    0    1
 -2       761       760       918      3104      3611      3612
 -1      1724    8    0    1
 -2       761       918       866      3612      3613      3452
 -1      1725    8    0    1
 -2       797       798       919      3219      3614      3615
 -1      1726    8    0    1
 -2       798       897       919      3548      3616      3614
 -1      1727    8    0    1
 -2       754       839       920      3424      3617      3618
 -1      1728    8    0    1
 -2       754       920       863      3618      3619      3439
 -1      1729    8    0    1
 -2       718       730       810      2995      3620      3447
 -1      1730    8    0    1
 -2       758       748       921      3092      3621      3622
 -1      1731    8    0    1
 -2       865       758       921      3444      3622      3623
 -1      1732    8    0    1
 -2       748       850       921      3382      3624      3621
 -1      1733    8    0    1
 -2       835       794       922      3335      3625      3626
 -1      1734    8    0    1
 -2       829       846       923      3416      3627      3628
 -1      1735    8    0    1
 -2       842       830       924      3417      3629      3630
 -1      1736    8    0    1
 -2       830       841       925      3354      3631      3632
 -1      1737    8    0    1
 -2       830       925       924      3632      3633      3629
 -1      1738    8    0    1
 -2       837       835       926      3341      3634      3635
 -1      1739    8    0    1
 -2       835       922       926      3626      3636      3634
 -1      1740    8    0    1
 -2       847       853       927      3394      3637      3638
 -1      1741    8    0    1
 -2       847       927       840      3638      3639      3434
 -1      1742    8    0    1
 -2       839       848       928      3425      3640      3641
 -1      1743    8    0    1
 -2       839       928       920      3641      3642      3617
 -1      1744    8    0    1
 -2       836       840       929      3351      3643      3644
 -1      1745    8    0    1
 -2       885       836       929      3510      3644      3645
 -1      1746    8    0    1
 -2       840       927       929      3639      3646      3643
 -1      1747    8    0    1
 -2       845       838       930      3365      3647      3648
 -1      1748    8    0    1
 -2       846       837       931      3368      3649      3650
 -1      1749    8    0    1
 -2       837       926       931      3635      3651      3649
 -1      1750    8    0    1
 -2       849       845       906      3443      3652      3576
 -1      1751    8    0    1
 -2       848       834       932      3374      3653      3654
 -1      1752    8    0    1
 -2       796       797       933      3216      3655      3656
 -1      1753    8    0    1
 -2       896       796       933      3545      3656      3657
 -1      1754    8    0    1
 -2       797       919       933      3615      3658      3655
 -1      1755    8    0    1
 -2       844       812       907      3581      3578      3579
 -1      1756    8    0    1
 -2       751       757       780      3404      3385      3659
 -1      1757    8    0    1
 -2       779       883       864      3503      3660      3505
 -1      1758    8    0    1
 -2       827       884       831      3508      3661      3323
 -1      1759    8    0    1
 -2       826       917       934      3610      3662      3663
 -1      1760    8    0    1
 -2       826       934       858      3663      3664      3415
 -1      1761    8    0    1
 -2       852       756       935      3391      3665      3666
 -1      1762    8    0    1
 -2       756       857       935      3411      3667      3665
 -1      1763    8    0    1
 -2       930       838       859      3647      3420      3668
 -1      1764    8    0    1
 -2       918       760       885      3611      3511      3669
 -1      1765    8    0    1
 -2       895       851       936      3544      3670      3671
 -1      1766    8    0    1
 -2       794       833       937      3329      3672      3673
 -1      1767    8    0    1
 -2       794       937       922      3673      3674      3625
 -1      1768    8    0    1
 -2       848       932       928      3654      3675      3640
 -1      1769    8    0    1
 -2       936       851       938      3670      3676      3677
 -1      1770    8    0    1
 -2       851       855       938      3403      3678      3676
 -1      1771    8    0    1
 -2       751       780       860      3659      3679      3423
 -1      1772    8    0    1
 -2       727       810       730      3396      3620      2996
 -1      1773    8    0    1
 -2       832       916       939      3607      3680      3681
 -1      1774    8    0    1
 -2       832       939       833      3681      3682      3330
 -1      1775    8    0    1
 -2       915       821       936      3603      3683      3684
 -1      1776    8    0    1
 -2       821       822       936      3297      3685      3683
 -1      1777    8    0    1
 -2       822       823       895      3300      3543      3686
 -1      1778    8    0    1
 -2       854       842       940      3398      3687      3688
 -1      1779    8    0    1
 -2       842       924       940      3630      3689      3687
 -1      1780    8    0    1
 -2       917       828       941      3609      3690      3691
 -1      1781    8    0    1
 -2       828       831       941      3322      3692      3690
 -1      1782    8    0    1
 -2       859       752       942      3418      3693      3694
 -1      1783    8    0    1
 -2       752       854       942      3400      3695      3693
 -1      1784    8    0    1
 -2       850       824       943      3383      3696      3697
 -1      1785    8    0    1
 -2       862       759       944      3433      3698      3699
 -1      1786    8    0    1
 -2       861       829       945      3429      3700      3701
 -1      1787    8    0    1
 -2       829       923       945      3628      3702      3700
 -1      1788    8    0    1
 -2       845       930       906      3648      3703      3652
 -1      1789    8    0    1
 -2       923       846       931      3627      3650      3704
 -1      1790    8    0    1
 -2       927       853       946      3637      3705      3706
 -1      1791    8    0    1
 -2       853       865       946      3446      3707      3705
 -1      1792    8    0    1
 -2       834       852       947      3390      3708      3709
 -1      1793    8    0    1
 -2       834       947       932      3709      3710      3653
 -1      1794    8    0    1
 -2       824       856       948      3407      3711      3712
 -1      1795    8    0    1
 -2       824       948       943      3712      3713      3696
 -1      1796    8    0    1
 -2       726       733       809      3093      3348      3395
 -1      1797    8    0    1
 -2       841       864       949      3441      3714      3715
 -1      1798    8    0    1
 -2       925       841       949      3631      3715      3716
 -1      1799    8    0    1
 -2       864       883       949      3660      3717      3714
 -1      1800    8    0    1
 -2       822       895       936      3686      3671      3685
 -1      1801    8    0    1
 -2       899       900       950      3557      3718      3719
 -1      1802    8    0    1
 -2       868       867       951      3459      3720      3721
 -1      1803    8    0    1
 -2       869       868       952      3462      3722      3723
 -1      1804    8    0    1
 -2       868       951       952      3721      3724      3722
 -1      1805    8    0    1
 -2       870       869       953      3465      3725      3726
 -1      1806    8    0    1
 -2       869       952       953      3723      3727      3725
 -1      1807    8    0    1
 -2       871       870       954      3468      3728      3729
 -1      1808    8    0    1
 -2       870       953       954      3726      3730      3728
 -1      1809    8    0    1
 -2       872       871       955      3471      3731      3732
 -1      1810    8    0    1
 -2       871       954       955      3729      3733      3731
 -1      1811    8    0    1
 -2       873       872       956      3474      3734      3735
 -1      1812    8    0    1
 -2       872       955       956      3732      3736      3734
 -1      1813    8    0    1
 -2       874       873       957      3477      3737      3738
 -1      1814    8    0    1
 -2       873       956       957      3735      3739      3737
 -1      1815    8    0    1
 -2       875       874       958      3480      3740      3741
 -1      1816    8    0    1
 -2       874       957       958      3738      3742      3740
 -1      1817    8    0    1
 -2       876       875       959      3483      3743      3744
 -1      1818    8    0    1
 -2       875       958       959      3741      3745      3743
 -1      1819    8    0    1
 -2       877       876       960      3486      3746      3747
 -1      1820    8    0    1
 -2       876       959       960      3744      3748      3746
 -1      1821    8    0    1
 -2       878       877       961      3489      3749      3750
 -1      1822    8    0    1
 -2       877       960       961      3747      3751      3749
 -1      1823    8    0    1
 -2       879       878       962      3492      3752      3753
 -1      1824    8    0    1
 -2       878       961       962      3750      3754      3752
 -1      1825    8    0    1
 -2       880       879       963      3495      3755      3756
 -1      1826    8    0    1
 -2       879       962       963      3753      3757      3755
 -1      1827    8    0    1
 -2       881       880       964      3498      3758      3759
 -1      1828    8    0    1
 -2       880       963       964      3756      3760      3758
 -1      1829    8    0    1
 -2       882       881       965      3501      3761      3762
 -1      1830    8    0    1
 -2       881       964       965      3759      3763      3761
 -1      1831    8    0    1
 -2       831       884       941      3661      3764      3692
 -1      1832    8    0    1
 -2       867       866       966      3456      3765      3766
 -1      1833    8    0    1
 -2       867       966       951      3766      3767      3720
 -1      1834    8    0    1
 -2       864       753       860      3442      3422      3768
 -1      1835    8    0    1
 -2       887       886       967      3517      3769      3770
 -1      1836    8    0    1
 -2       888       887       968      3520      3771      3772
 -1      1837    8    0    1
 -2       887       967       968      3770      3773      3771
 -1      1838    8    0    1
 -2       889       888       969      3523      3774      3775
 -1      1839    8    0    1
 -2       888       968       969      3772      3776      3774
 -1      1840    8    0    1
 -2       890       889       970      3526      3777      3778
 -1      1841    8    0    1
 -2       889       969       970      3775      3779      3777
 -1      1842    8    0    1
 -2       891       890       971      3529      3780      3781
 -1      1843    8    0    1
 -2       890       970       971      3778      3782      3780
 -1      1844    8    0    1
 -2       892       891       972      3532      3783      3784
 -1      1845    8    0    1
 -2       891       971       972      3781      3785      3783
 -1      1846    8    0    1
 -2       893       892       973      3535      3786      3787
 -1      1847    8    0    1
 -2       892       972       973      3784      3788      3786
 -1      1848    8    0    1
 -2       898       899       974      3554      3789      3790
 -1      1849    8    0    1
 -2       899       950       974      3719      3791      3789
 -1      1850    8    0    1
 -2       863       920       886      3619      3792      3514
 -1      1851    8    0    1
 -2       897       898       975      3551      3793      3794
 -1      1852    8    0    1
 -2       898       974       975      3790      3795      3793
 -1      1853    8    0    1
 -2       900       901       976      3560      3796      3797
 -1      1854    8    0    1
 -2       900       976       950      3797      3798      3718
 -1      1855    8    0    1
 -2       901       902       977      3563      3799      3800
 -1      1856    8    0    1
 -2       901       977       976      3800      3801      3796
 -1      1857    8    0    1
 -2       902       903       978      3566      3802      3803
 -1      1858    8    0    1
 -2       902       978       977      3803      3804      3799
 -1      1859    8    0    1
 -2       903       904       979      3569      3805      3806
 -1      1860    8    0    1
 -2       903       979       978      3806      3807      3802
 -1      1861    8    0    1
 -2       904       905       980      3572      3808      3809
 -1      1862    8    0    1
 -2       904       980       979      3809      3810      3805
 -1      1863    8    0    1
 -2       905       906       930      3575      3703      3811
 -1      1864    8    0    1
 -2       908       909       981      3587      3812      3813
 -1      1865    8    0    1
 -2       825       907       857      3580      3814      3409
 -1      1866    8    0    1
 -2       909       910       982      3590      3815      3816
 -1      1867    8    0    1
 -2       909       982       981      3816      3817      3812
 -1      1868    8    0    1
 -2       910       911       983      3593      3818      3819
 -1      1869    8    0    1
 -2       910       983       982      3819      3820      3815
 -1      1870    8    0    1
 -2       911       912       984      3596      3821      3822
 -1      1871    8    0    1
 -2       911       984       983      3822      3823      3818
 -1      1872    8    0    1
 -2       912       913       985      3599      3824      3825
 -1      1873    8    0    1
 -2       912       985       984      3825      3826      3821
 -1      1874    8    0    1
 -2       913       914       986      3602      3827      3828
 -1      1875    8    0    1
 -2       913       986       985      3828      3829      3824
 -1      1876    8    0    1
 -2       914       915       987      3605      3830      3831
 -1      1877    8    0    1
 -2       914       987       986      3831      3832      3827
 -1      1878    8    0    1
 -2       886       920       967      3792      3833      3769
 -1      1879    8    0    1
 -2       916       896       988      3608      3834      3835
 -1      1880    8    0    1
 -2       944       759       861      3698      3836      3837
 -1      1881    8    0    1
 -2       866       918       989      3613      3838      3839
 -1      1882    8    0    1
 -2       866       989       966      3839      3840      3765
 -1      1883    8    0    1
 -2       862       944       990      3699      3841      3842
 -1      1884    8    0    1
 -2       862       990       856      3842      3843      3432
 -1      1885    8    0    1
 -2       919       897       991      3616      3844      3845
 -1      1886    8    0    1
 -2       897       975       991      3794      3846      3844
 -1      1887    8    0    1
 -2       855       858       992      3414      3847      3848
 -1      1888    8    0    1
 -2       858       934       992      3664      3849      3847
 -1      1889    8    0    1
 -2       923       931       993      3704      3850      3851
 -1      1890    8    0    1
 -2       850       943       994      3697      3852      3853
 -1      1891    8    0    1
 -2       915       936       995      3684      3854      3855
 -1      1892    8    0    1
 -2       987       915       995      3830      3855      3856
 -1      1893    8    0    1
 -2       936       938       995      3677      3857      3854
 -1      1894    8    0    1
 -2       924       925       996      3633      3858      3859
 -1      1895    8    0    1
 -2       926       922       997      3636      3860      3861
 -1      1896    8    0    1
 -2       930       859       998      3668      3862      3863
 -1      1897    8    0    1
 -2       931       926       999      3651      3864      3865
 -1      1898    8    0    1
 -2       926       997       999      3861      3866      3864
 -1      1899    8    0    1
 -2       918       885      1000      3669      3867      3868
 -1      1900    8    0    1
 -2       918      1000       989      3868      3869      3838
 -1      1901    8    0    1
 -2       759       843       861      3359      3428      3836
 -1      1902    8    0    1
 -2       928       932      1001      3675      3870      3871
 -1      1903    8    0    1
 -2       920       928       967      3642      3872      3833
 -1      1904    8    0    1
 -2       857       907      1002      3814      3873      3874
 -1      1905    8    0    1
 -2       935       857      1002      3667      3874      3875
 -1      1906    8    0    1
 -2       907       908      1002      3584      3876      3873
 -1      1907    8    0    1
 -2       944       861       945      3837      3701      3877
 -1      1908    8    0    1
 -2       941       884      1003      3764      3878      3879
 -1      1909    8    0    1
 -2       884       894      1003      3538      3880      3878
 -1      1910    8    0    1
 -2       883       882       996      3504      3881      3882
 -1      1911    8    0    1
 -2       856       990       948      3843      3883      3711
 -1      1912    8    0    1
 -2       934       917      1004      3662      3884      3885
 -1      1913    8    0    1
 -2       937       833       939      3672      3682      3886
 -1      1914    8    0    1
 -2       916       988      1005      3835      3887      3888
 -1      1915    8    0    1
 -2       916      1005       939      3888      3889      3680
 -1      1916    8    0    1
 -2       894       893      1006      3539      3890      3891
 -1      1917    8    0    1
 -2       894      1006      1003      3891      3892      3880
 -1      1918    8    0    1
 -2       922       937      1007      3674      3893      3894
 -1      1919    8    0    1
 -2       922      1007       997      3894      3895      3860
 -1      1920    8    0    1
 -2       994       943      1008      3852      3896      3897
 -1      1921    8    0    1
 -2       905       930       980      3811      3898      3808
 -1      1922    8    0    1
 -2       938       855       992      3678      3848      3899
 -1      1923    8    0    1
 -2       780       864       860      3506      3768      3679
 -1      1924    8    0    1
 -2       945       923      1009      3702      3900      3901
 -1      1925    8    0    1
 -2       923       993      1009      3851      3902      3900
 -1      1926    8    0    1
 -2       854       940      1010      3688      3903      3904
 -1      1927    8    0    1
 -2       854      1010       942      3904      3905      3695
 -1      1928    8    0    1
 -2       928      1001       967      3871      3906      3872
 -1      1929    8    0    1
 -2       988       896      1011      3834      3907      3908
 -1      1930    8    0    1
 -2       896       933      1011      3657      3909      3907
 -1      1931    8    0    1
 -2       940       924      1012      3689      3910      3911
 -1      1932    8    0    1
 -2       924       996      1012      3859      3912      3910
 -1      1933    8    0    1
 -2       852       935      1013      3666      3913      3914
 -1      1934    8    0    1
 -2       852      1013       947      3914      3915      3708
 -1      1935    8    0    1
 -2       859       942      1014      3694      3916      3917
 -1      1936    8    0    1
 -2       859      1014       998      3917      3918      3862
 -1      1937    8    0    1
 -2       885       929      1015      3645      3919      3920
 -1      1938    8    0    1
 -2       885      1015      1000      3920      3921      3867
 -1      1939    8    0    1
 -2       944       945      1016      3877      3922      3923
 -1      1940    8    0    1
 -2       990       944      1016      3841      3923      3924
 -1      1941    8    0    1
 -2       945      1009      1016      3901      3925      3922
 -1      1942    8    0    1
 -2       993       931       999      3850      3865      3926
 -1      1943    8    0    1
 -2       850       994       921      3853      3927      3624
 -1      1944    8    0    1
 -2      1001       932      1017      3870      3928      3929
 -1      1945    8    0    1
 -2       932       947      1017      3710      3930      3928
 -1      1946    8    0    1
 -2       908       981      1002      3813      3931      3876
 -1      1947    8    0    1
 -2       917       941      1018      3691      3932      3933
 -1      1948    8    0    1
 -2      1004       917      1018      3884      3933      3934
 -1      1949    8    0    1
 -2       941      1003      1018      3879      3935      3932
 -1      1950    8    0    1
 -2       930       998       980      3863      3936      3898
 -1      1951    8    0    1
 -2       919       991      1019      3845      3937      3938
 -1      1952    8    0    1
 -2       919      1019       933      3938      3939      3658
 -1      1953    8    0    1
 -2       929       927      1020      3646      3940      3941
 -1      1954    8    0    1
 -2      1015       929      1020      3919      3941      3942
 -1      1955    8    0    1
 -2       927       946      1020      3706      3943      3940
 -1      1956    8    0    1
 -2       865       921      1021      3623      3944      3945
 -1      1957    8    0    1
 -2       946       865      1021      3707      3945      3946
 -1      1958    8    0    1
 -2       921       994      1021      3927      3947      3944
 -1      1959    8    0    1
 -2       943       948      1022      3713      3948      3949
 -1      1960    8    0    1
 -2       943      1022      1008      3949      3950      3896
 -1      1961    8    0    1
 -2       953       952      1023      3727      3951      3952
 -1      1962    8    0    1
 -2       954       953      1024      3730      3953      3954
 -1      1963    8    0    1
 -2       953      1023      1024      3952      3955      3953
 -1      1964    8    0    1
 -2       955       954      1025      3733      3956      3957
 -1      1965    8    0    1
 -2       954      1024      1025      3954      3958      3956
 -1      1966    8    0    1
 -2       956       955      1026      3736      3959      3960
 -1      1967    8    0    1
 -2       955      1025      1026      3957      3961      3959
 -1      1968    8    0    1
 -2       957       956      1027      3739      3962      3963
 -1      1969    8    0    1
 -2       956      1026      1027      3960      3964      3962
 -1      1970    8    0    1
 -2       958       957      1028      3742      3965      3966
 -1      1971    8    0    1
 -2       957      1027      1028      3963      3967      3965
 -1      1972    8    0    1
 -2       959       958      1029      3745      3968      3969
 -1      1973    8    0    1
 -2       958      1028      1029      3966      3970      3968
 -1      1974    8    0    1
 -2       960       959      1030      3748      3971      3972
 -1      1975    8    0    1
 -2       959      1029      1030      3969      3973      3971
 -1      1976    8    0    1
 -2       961       960      1031      3751      3974      3975
 -1      1977    8    0    1
 -2       960      1030      1031      3972      3976      3974
 -1      1978    8    0    1
 -2       962       961      1032      3754      3977      3978
 -1      1979    8    0    1
 -2       961      1031      1032      3975      3979      3977
 -1      1980    8    0    1
 -2       963       962      1033      3757      3980      3981
 -1      1981    8    0    1
 -2       962      1032      1033      3978      3982      3980
 -1      1982    8    0    1
 -2       964       963      1034      3760      3983      3984
 -1      1983    8    0    1
 -2       963      1033      1034      3981      3985      3983
 -1      1984    8    0    1
 -2       948       990      1035      3883      3986      3987
 -1      1985    8    0    1
 -2      1022       948      1035      3948      3987      3988
 -1      1986    8    0    1
 -2       990      1016      1035      3924      3989      3986
 -1      1987    8    0    1
 -2       937       939      1036      3886      3990      3991
 -1      1988    8    0    1
 -2       939      1005      1036      3889      3992      3990
 -1      1989    8    0    1
 -2       968       967      1001      3773      3906      3993
 -1      1990    8    0    1
 -2       952       951      1037      3724      3994      3995
 -1      1991    8    0    1
 -2       952      1037      1023      3995      3996      3951
 -1      1992    8    0    1
 -2      1006       893       973      3890      3787      3997
 -1      1993    8    0    1
 -2       950       976      1038      3798      3998      3999
 -1      1994    8    0    1
 -2       970       969      1039      3779      4000      4001
 -1      1995    8    0    1
 -2       971       970      1040      3782      4002      4003
 -1      1996    8    0    1
 -2       970      1039      1040      4001      4004      4002
 -1      1997    8    0    1
 -2       972       971      1041      3785      4005      4006
 -1      1998    8    0    1
 -2       971      1040      1041      4003      4007      4005
 -1      1999    8    0    1
 -2       973       972      1042      3788      4008      4009
 -1      2000    8    0    1
 -2       972      1041      1042      4006      4010      4008
 -1      2001    8    0    1
 -2       974       950      1043      3791      4011      4012
 -1      2002    8    0    1
 -2       950      1038      1043      3999      4013      4011
 -1      2003    8    0    1
 -2       976       977      1044      3801      4014      4015
 -1      2004    8    0    1
 -2       976      1044      1038      4015      4016      3998
 -1      2005    8    0    1
 -2       975       974      1045      3795      4017      4018
 -1      2006    8    0    1
 -2       974      1043      1045      4012      4019      4017
 -1      2007    8    0    1
 -2       977       978      1046      3804      4020      4021
 -1      2008    8    0    1
 -2       977      1046      1044      4021      4022      4014
 -1      2009    8    0    1
 -2       978       979      1047      3807      4023      4024
 -1      2010    8    0    1
 -2       978      1047      1046      4024      4025      4020
 -1      2011    8    0    1
 -2       979       980      1048      3810      4026      4027
 -1      2012    8    0    1
 -2      1047       979      1048      4023      4027      4028
 -1      2013    8    0    1
 -2       980       998      1048      3936      4029      4026
 -1      2014    8    0    1
 -2       938       992      1049      3899      4030      4031
 -1      2015    8    0    1
 -2       938      1049       995      4031      4032      3857
 -1      2016    8    0    1
 -2       982       983      1050      3820      4033      4034
 -1      2017    8    0    1
 -2       983       984      1051      3823      4035      4036
 -1      2018    8    0    1
 -2       983      1051      1050      4036      4037      4033
 -1      2019    8    0    1
 -2       984       985      1052      3826      4038      4039
 -1      2020    8    0    1
 -2       984      1052      1051      4039      4040      4035
 -1      2021    8    0    1
 -2       985       986      1053      3829      4041      4042
 -1      2022    8    0    1
 -2       985      1053      1052      4042      4043      4038
 -1      2023    8    0    1
 -2       986       987      1054      3832      4044      4045
 -1      2024    8    0    1
 -2       986      1054      1053      4045      4046      4041
 -1      2025    8    0    1
 -2       935      1002      1055      3875      4047      4048
 -1      2026    8    0    1
 -2      1013       935      1055      3913      4048      4049
 -1      2027    8    0    1
 -2      1002       981      1055      3931      4050      4047
 -1      2028    8    0    1
 -2       966       989      1056      3840      4051      4052
 -1      2029    8    0    1
 -2       951       966      1057      3767      4053      4054
 -1      2030    8    0    1
 -2       966      1056      1057      4052      4055      4053
 -1      2031    8    0    1
 -2       981       982      1058      3817      4056      4057
 -1      2032    8    0    1
 -2      1055       981      1058      4050      4057      4058
 -1      2033    8    0    1
 -2       982      1050      1058      4034      4059      4056
 -1      2034    8    0    1
 -2       993       999      1059      3926      4060      4061
 -1      2035    8    0    1
 -2       991       975      1060      3846      4062      4063
 -1      2036    8    0    1
 -2       975      1045      1060      4018      4064      4062
 -1      2037    8    0    1
 -2       992       934      1061      3849      4065      4066
 -1      2038    8    0    1
 -2      1049       992      1061      4030      4066      4067
 -1      2039    8    0    1
 -2       934      1004      1061      3885      4068      4065
 -1      2040    8    0    1
 -2       994      1008      1062      3897      4069      4070
 -1      2041    8    0    1
 -2       989      1000      1063      3869      4071      4072
 -1      2042    8    0    1
 -2       989      1063      1056      4072      4073      4051
 -1      2043    8    0    1
 -2       968      1001      1064      3993      4074      4075
 -1      2044    8    0    1
 -2       999       997      1065      3866      4076      4077
 -1      2045    8    0    1
 -2       999      1065      1059      4077      4078      4060
 -1      2046    8    0    1
 -2      1006       973      1042      3997      4009      4079
 -1      2047    8    0    1
 -2       882       965       996      3762      4080      3881
 -1      2048    8    0    1
 -2       964      1034      1012      3984      4081      4082
 -1      2049    8    0    1
 -2       993      1059      1066      4061      4083      4084
 -1      2050    8    0    1
 -2      1065       997      1067      4076      4085      4086
 -1      2051    8    0    1
 -2       997      1007      1067      3895      4087      4085
 -1      2052    8    0    1
 -2      1037       951      1057      3994      4054      4088
 -1      2053    8    0    1
 -2      1039       969      1064      4000      4089      4090
 -1      2054    8    0    1
 -2      1005       988      1068      3887      4091      4092
 -1      2055    8    0    1
 -2       969       968      1064      3776      4075      4089
 -1      2056    8    0    1
 -2       993      1066      1009      4084      4093      3902
 -1      2057    8    0    1
 -2      1068       988      1069      4091      4094      4095
 -1      2058    8    0    1
 -2       988      1011      1069      3908      4096      4094
 -1      2059    8    0    1
 -2       996       965      1012      4080      4097      3912
 -1      2060    8    0    1
 -2      1007       937      1036      3893      3991      4098
 -1      2061    8    0    1
 -2       933      1019      1011      3939      4099      3909
 -1      2062    8    0    1
 -2      1062      1008      1070      4069      4100      4101
 -1      2063    8    0    1
 -2      1048       998      1014      4029      3918      4102
 -1      2064    8    0    1
 -2      1010       940      1071      3903      4103      4104
 -1      2065    8    0    1
 -2       940      1012      1071      3911      4105      4103
 -1      2066    8    0    1
 -2      1006      1042      1072      4079      4106      4107
 -1      2067    8    0    1
 -2       996       925       949      3858      3716      4108
 -1      2068    8    0    1
 -2      1014       942      1073      3916      4109      4110
 -1      2069    8    0    1
 -2       942      1010      1073      3905      4111      4109
 -1      2070    8    0    1
 -2       991      1060      1074      4063      4112      4113
 -1      2071    8    0    1
 -2       991      1074      1019      4113      4114      3937
 -1      2072    8    0    1
 -2      1061      1004      1075      4068      4115      4116
 -1      2073    8    0    1
 -2      1021       994      1062      3947      4070      4117
 -1      2074    8    0    1
 -2      1017       947      1076      3930      4118      4119
 -1      2075    8    0    1
 -2       947      1013      1076      3915      4120      4118
 -1      2076    8    0    1
 -2      1001      1017      1064      3929      4121      4074
 -1      2077    8    0    1
 -2       987       995      1049      3856      4032      4122
 -1      2078    8    0    1
 -2       987      1049      1054      4122      4123      4044
 -1      2079    8    0    1
 -2      1020       946      1021      3943      3946      4124
 -1      2080    8    0    1
 -2      1008      1022      1077      3950      4125      4126
 -1      2081    8    0    1
 -2      1008      1077      1070      4126      4127      4100
 -1      2082    8    0    1
 -2      1003      1006      1078      3892      4128      4129
 -1      2083    8    0    1
 -2      1018      1003      1078      3935      4129      4130
 -1      2084    8    0    1
 -2      1006      1072      1078      4107      4131      4128
 -1      2085    8    0    1
 -2      1012       965       964      4097      3763      4082
 -1      2086    8    0    1
 -2      1000      1015      1062      3921      4132      4133
 -1      2087    8    0    1
 -2      1004      1018      1078      3934      4130      4134
 -1      2088    8    0    1
 -2      1075      1004      1078      4115      4134      4135
 -1      2089    8    0    1
 -2      1000      1062      1063      4133      4136      4071
 -1      2090    8    0    1
 -2      1025      1024      1079      3958      4137      4138
 -1      2091    8    0    1
 -2      1026      1025      1080      3961      4139      4140
 -1      2092    8    0    1
 -2      1025      1079      1080      4138      4141      4139
 -1      2093    8    0    1
 -2      1027      1026      1081      3964      4142      4143
 -1      2094    8    0    1
 -2      1026      1080      1081      4140      4144      4142
 -1      2095    8    0    1
 -2      1028      1027      1082      3967      4145      4146
 -1      2096    8    0    1
 -2      1027      1081      1082      4143      4147      4145
 -1      2097    8    0    1
 -2      1029      1028      1083      3970      4148      4149
 -1      2098    8    0    1
 -2      1028      1082      1083      4146      4150      4148
 -1      2099    8    0    1
 -2      1030      1029      1084      3973      4151      4152
 -1      2100    8    0    1
 -2      1029      1083      1084      4149      4153      4151
 -1      2101    8    0    1
 -2      1031      1030      1085      3976      4154      4155
 -1      2102    8    0    1
 -2      1030      1084      1085      4152      4156      4154
 -1      2103    8    0    1
 -2      1032      1031      1086      3979      4157      4158
 -1      2104    8    0    1
 -2      1031      1085      1086      4155      4159      4157
 -1      2105    8    0    1
 -2      1033      1032      1087      3982      4160      4161
 -1      2106    8    0    1
 -2      1032      1086      1087      4158      4162      4160
 -1      2107    8    0    1
 -2      1034      1033      1088      3985      4163      4164
 -1      2108    8    0    1
 -2      1033      1087      1088      4161      4165      4163
 -1      2109    8    0    1
 -2      1040      1039      1089      4004      4166      4167
 -1      2110    8    0    1
 -2      1005      1068      1090      4092      4168      4169
 -1      2111    8    0    1
 -2      1005      1090      1036      4169      4170      3992
 -1      2112    8    0    1
 -2      1049      1061      1091      4067      4171      4172
 -1      2113    8    0    1
 -2      1054      1049      1091      4123      4172      4173
 -1      2114    8    0    1
 -2      1061      1075      1091      4116      4174      4171
 -1      2115    8    0    1
 -2      1044      1046      1092      4022      4175      4176
 -1      2116    8    0    1
 -2      1041      1040      1093      4007      4177      4178
 -1      2117    8    0    1
 -2      1040      1089      1093      4167      4179      4177
 -1      2118    8    0    1
 -2      1042      1041      1094      4010      4180      4181
 -1      2119    8    0    1
 -2      1041      1093      1094      4178      4182      4180
 -1      2120    8    0    1
 -2      1043      1038      1095      4013      4183      4184
 -1      2121    8    0    1
 -2      1046      1047      1096      4025      4185      4186
 -1      2122    8    0    1
 -2      1046      1096      1092      4186      4187      4175
 -1      2123    8    0    1
 -2      1045      1043      1097      4019      4188      4189
 -1      2124    8    0    1
 -2      1043      1095      1097      4184      4190      4188
 -1      2125    8    0    1
 -2      1047      1048      1098      4028      4191      4192
 -1      2126    8    0    1
 -2      1096      1047      1098      4185      4192      4193
 -1      2127    8    0    1
 -2      1048      1014      1098      4102      4194      4191
 -1      2128    8    0    1
 -2      1052      1053      1099      4043      4195      4196
 -1      2129    8    0    1
 -2      1051      1052      1100      4040      4197      4198
 -1      2130    8    0    1
 -2      1052      1099      1100      4196      4199      4197
 -1      2131    8    0    1
 -2      1050      1051      1101      4037      4200      4201
 -1      2132    8    0    1
 -2      1051      1100      1101      4198      4202      4200
 -1      2133    8    0    1
 -2      1072      1042      1094      4106      4181      4203
 -1      2134    8    0    1
 -2      1053      1054      1102      4046      4204      4205
 -1      2135    8    0    1
 -2      1099      1053      1102      4195      4205      4206
 -1      2136    8    0    1
 -2      1054      1091      1102      4173      4207      4204
 -1      2137    8    0    1
 -2      1013      1055      1103      4049      4208      4209
 -1      2138    8    0    1
 -2      1076      1013      1103      4120      4209      4210
 -1      2139    8    0    1
 -2      1055      1058      1103      4058      4211      4208
 -1      2140    8    0    1
 -2      1057      1056      1104      4055      4212      4213
 -1      2141    8    0    1
 -2      1062      1070      1063      4101      4214      4136
 -1      2142    8    0    1
 -2      1007      1036      1105      4098      4215      4216
 -1      2143    8    0    1
 -2      1067      1007      1105      4087      4216      4217
 -1      2144    8    0    1
 -2      1036      1090      1105      4170      4218      4215
 -1      2145    8    0    1
 -2      1037      1057      1106      4088      4219      4220
 -1      2146    8    0    1
 -2      1057      1104      1106      4213      4221      4219
 -1      2147    8    0    1
 -2      1039      1064      1107      4090      4222      4223
 -1      2148    8    0    1
 -2      1039      1107      1089      4223      4224      4166
 -1      2149    8    0    1
 -2      1060      1045      1108      4064      4225      4226
 -1      2150    8    0    1
 -2      1045      1097      1108      4189      4227      4225
 -1      2151    8    0    1
 -2      1023      1037      1109      3996      4228      4229
 -1      2152    8    0    1
 -2      1037      1106      1109      4220      4230      4228
 -1      2153    8    0    1
 -2      1016      1009      1035      3925      4231      3989
 -1      2154    8    0    1
 -2      1056      1063      1110      4073      4232      4233
 -1      2155    8    0    1
 -2      1104      1056      1110      4212      4233      4234
 -1      2156    8    0    1
 -2      1063      1070      1110      4214      4235      4232
 -1      2157    8    0    1
 -2      1038      1044      1111      4016      4236      4237
 -1      2158    8    0    1
 -2      1038      1111      1095      4237      4238      4183
 -1      2159    8    0    1
 -2      1064      1017      1107      4121      4239      4222
 -1      2160    8    0    1
 -2      1059      1065      1112      4078      4240      4241
 -1      2161    8    0    1
 -2      1011      1019      1113      4099      4242      4243
 -1      2162    8    0    1
 -2      1011      1113      1069      4243      4244      4096
 -1      2163    8    0    1
 -2      1024      1023      1114      3955      4245      4246
 -1      2164    8    0    1
 -2      1023      1109      1114      4229      4247      4245
 -1      2165    8    0    1
 -2      1012      1034      1115      4081      4248      4249
 -1      2166    8    0    1
 -2      1079      1024      1114      4137      4246      4250
 -1      2167    8    0    1
 -2      1034      1088      1115      4164      4251      4248
 -1      2168    8    0    1
 -2      1060      1108      1116      4226      4252      4253
 -1      2169    8    0    1
 -2      1060      1116      1074      4253      4254      4112
 -1      2170    8    0    1
 -2      1062      1015      1021      4132      4255      4117
 -1      2171    8    0    1
 -2      1065      1067      1117      4086      4256      4257
 -1      2172    8    0    1
 -2      1065      1117      1112      4257      4258      4240
 -1      2173    8    0    1
 -2      1035      1009      1066      4231      4093      4259
 -1      2174    8    0    1
 -2      1091      1075      1118      4174      4260      4261
 -1      2175    8    0    1
 -2      1091      1118      1102      4261      4262      4207
 -1      2176    8    0    1
 -2       883       996       949      3882      4108      3717
 -1      2177    8    0    1
 -2      1107      1017      1076      4239      4119      4263
 -1      2178    8    0    1
 -2      1098      1014      1073      4194      4110      4264
 -1      2179    8    0    1
 -2      1022      1035      1066      3988      4259      4265
 -1      2180    8    0    1
 -2      1075      1078      1118      4135      4266      4260
 -1      2181    8    0    1
 -2      1073      1010      1071      4111      4104      4267
 -1      2182    8    0    1
 -2      1068      1069      1119      4095      4268      4269
 -1      2183    8    0    1
 -2      1059      1112      1077      4241      4270      4271
 -1      2184    8    0    1
 -2      1058      1050      1120      4059      4272      4273
 -1      2185    8    0    1
 -2      1103      1058      1120      4211      4273      4274
 -1      2186    8    0    1
 -2      1050      1101      1120      4201      4275      4272
 -1      2187    8    0    1
 -2      1022      1066      1077      4265      4276      4125
 -1      2188    8    0    1
 -2      1077      1066      1059      4276      4083      4271
 -1      2189    8    0    1
 -2      1111      1044      1092      4236      4176      4277
 -1      2190    8    0    1
 -2      1019      1074      1113      4114      4278      4242
 -1      2191    8    0    1
 -2      1110      1070      1077      4235      4127      4279
 -1      2192    8    0    1
 -2      1068      1119      1121      4269      4280      4281
 -1      2193    8    0    1
 -2      1068      1121      1090      4281      4282      4168
 -1      2194    8    0    1
 -2      1079      1114      1122      4250      4283      4284
 -1      2195    8    0    1
 -2      1115      1088      1096      4251      4285      4286
 -1      2196    8    0    1
 -2      1081      1080      1123      4144      4287      4288
 -1      2197    8    0    1
 -2      1082      1081      1124      4147      4289      4290
 -1      2198    8    0    1
 -2      1081      1123      1124      4288      4291      4289
 -1      2199    8    0    1
 -2      1083      1082      1116      4150      4292      4293
 -1      2200    8    0    1
 -2      1084      1083      1108      4153      4294      4295
 -1      2201    8    0    1
 -2      1085      1084      1097      4156      4296      4297
 -1      2202    8    0    1
 -2      1086      1085      1095      4159      4298      4299
 -1      2203    8    0    1
 -2      1087      1086      1111      4162      4300      4301
 -1      2204    8    0    1
 -2      1088      1087      1092      4165      4302      4303
 -1      2205    8    0    1
 -2      1093      1089      1125      4179      4304      4305
 -1      2206    8    0    1
 -2      1094      1093      1099      4182      4306      4307
 -1      2207    8    0    1
 -2      1092      1096      1088      4187      4285      4303
 -1      2208    8    0    1
 -2      1097      1095      1085      4190      4298      4297
 -1      2209    8    0    1
 -2      1077      1112      1110      4270      4308      4279
 -1      2210    8    0    1
 -2      1108      1083      1116      4294      4293      4252
 -1      2211    8    0    1
 -2      1101      1100      1125      4202      4309      4310
 -1      2212    8    0    1
 -2      1020      1021      1015      4124      4255      3942
 -1      2213    8    0    1
 -2      1095      1111      1086      4238      4300      4299
 -1      2214    8    0    1
 -2      1119      1069      1123      4268      4311      4312
 -1      2215    8    0    1
 -2      1111      1092      1087      4277      4302      4301
 -1      2216    8    0    1
 -2      1108      1097      1084      4227      4296      4295
 -1      2217    8    0    1
 -2      1109      1106      1126      4230      4313      4314
 -1      2218    8    0    1
 -2      1113      1074      1124      4278      4315      4316
 -1      2219    8    0    1
 -2      1069      1113      1123      4244      4317      4311
 -1      2220    8    0    1
 -2      1114      1109      1127      4247      4318      4319
 -1      2221    8    0    1
 -2      1109      1126      1127      4314      4320      4318
 -1      2222    8    0    1
 -2      1107      1076      1128      4263      4321      4322
 -1      2223    8    0    1
 -2      1089      1107      1128      4224      4322      4323
 -1      2224    8    0    1
 -2      1076      1103      1128      4210      4324      4321
 -1      2225    8    0    1
 -2      1106      1104      1117      4221      4325      4326
 -1      2226    8    0    1
 -2      1115      1096      1098      4286      4193      4327
 -1      2227    8    0    1
 -2      1101      1125      1128      4310      4328      4329
 -1      2228    8    0    1
 -2      1082      1124      1116      4290      4330      4292
 -1      2229    8    0    1
 -2      1089      1128      1125      4323      4328      4304
 -1      2230    8    0    1
 -2      1110      1112      1104      4308      4331      4234
 -1      2231    8    0    1
 -2      1119      1123      1129      4312      4332      4333
 -1      2232    8    0    1
 -2      1121      1119      1129      4280      4333      4334
 -1      2233    8    0    1
 -2      1123      1080      1129      4287      4335      4332
 -1      2234    8    0    1
 -2      1117      1067      1126      4256      4336      4337
 -1      2235    8    0    1
 -2      1102      1118      1099      4262      4338      4206
 -1      2236    8    0    1
 -2      1094      1099      1118      4307      4338      4339
 -1      2237    8    0    1
 -2      1099      1093      1100      4306      4340      4199
 -1      2238    8    0    1
 -2      1104      1112      1117      4331      4258      4325
 -1      2239    8    0    1
 -2      1129      1080      1079      4335      4141      4341
 -1      2240    8    0    1
 -2      1072      1094      1118      4203      4339      4342
 -1      2241    8    0    1
 -2      1105      1090      1127      4218      4343      4344
 -1      2242    8    0    1
 -2      1124      1074      1116      4315      4254      4330
 -1      2243    8    0    1
 -2      1113      1124      1123      4316      4291      4317
 -1      2244    8    0    1
 -2      1127      1090      1121      4343      4282      4345
 -1      2245    8    0    1
 -2      1126      1067      1105      4336      4217      4346
 -1      2246    8    0    1
 -2      1106      1117      1126      4326      4337      4313
 -1      2247    8    0    1
 -2      1078      1072      1118      4131      4342      4266
 -1      2248    8    0    1
 -2      1079      1122      1129      4284      4347      4341
 -1      2249    8    0    1
 -2      1101      1128      1120      4329      4348      4275
 -1      2250    8    0    1
 -2      1071      1012      1115      4105      4249      4349
 -1      2251    8    0    1
 -2      1105      1127      1126      4344      4320      4346
 -1      2252    8    0    1
 -2      1122      1114      1127      4283      4319      4350
 -1      2253    8    0    1
 -2      1071      1115      1073      4349      4351      4267
 -1      2254    8    0    1
 -2      1121      1129      1122      4334      4347      4352
 -1      2255    8    0    1
 -2      1100      1093      1125      4340      4305      4309
 -1      2256    8    0    1
 -2      1103      1120      1128      4274      4348      4324
 -1      2257    8    0    1
 -2      1121      1122      1127      4352      4350      4345
 -1      2258    8    0    1
 -2      1098      1073      1115      4264      4351      4327
 -3
    1PSTEP                         1           1           1          
  100CL  101 1.000000000        4352                     0    1           1
 -4  DISP        4    1
 -5  D1          1    2    1    0
 -5  D2          1    2    2    0
 -5  D3          1    2    3    0
 -5  ALL         1    2    0    0    1ALL
 -1         1 6.91506E-03-1.40349E-04-2.41470E-14
 -1         2 1.12561E-02-2.27026E-05-3.21996E-14
 -1         3 1.51417E-02 6.08109E-04-6.78474E-14
 -1         4 1.52038E-02-7.49816E-04-6.85387E-14
 -1         5 0.00000E+00 0.00000E+00 0.00000E+00
 -1         6 0.00000E+00 0.00000E+00 0.00000E+00
 -1         7 0.00000E+00 0.00000E+00 0.00000E+00
 -1         8 0.00000E+00 0.00000E+00 0.00000E+00
 -1         9 0.00000E+00 0.00000E+00 0.00000E+00
 -1        10 0.00000E+00 0.00000E+00 0.00000E+00
 -1        11 0.00000E+00 0.00000E+00 0.00000E+00
 -1        12 0.00000E+00 0.00000E+00 0.00000E+00
 -1        13 0.00000E+00 0.00000E+00 0.00000E+00
 -1        14 0.00000E+00 0.00000E+00 0.00000E+00
 -1        15 0.00000E+00 0.00000E+00 0.00000E+00
 -1        16 0.00000E+00 0.00000E+00 0.00000E+00
 -1        17 0.00000E+00 0.00000E+00 0.00000E+00
 -1        18 0.00000E+00 0.00000E+00 0.00000E+00
 -1        19 0.00000E+00 0.00000E+00 0.00000E+00
 -1        20 0.00000E+00 0.00000E+00 0.00000E+00
 -1        21 0.00000E+00 0.00000E+00 0.00000E+00
 -1        22 0.00000E+00 0.00000E+00 0.00000E+00
 -1        23 4.10932E-04-2.60539E-04 2.35340E-17
 -1        24 7.02504E-04-4.00566E-04-2.69119E-17
 -1        25 9.72140E-04-4.97591E-04-1.49396E-16
 -1        26 1.23618E-03-5.65806E-04-3.43682E-16
 -1        27 1.49925E-03-6.14311E-04-6.08644E-16
 -1        28 1.76348E-03-6.48441E-04-9.42507E-16
 -1        29 2.02985E-03-6.71845E-04-1.34505E-15
 -1        30 2.29879E-03-6.87149E-04-1.81673E-15
 -1        31 2.57044E-03-6.96294E-04-2.35764E-15
 -1        32 2.84479E-03-7.00729E-04-2.96382E-15
 -1        33 3.12183E-03-7.01535E-04-3.63205E-15
 -1        34 3.40152E-03-6.99520E-04-4.35645E-15
 -1        35 3.68394E-03-6.95305E-04-5.13937E-15
 -1        36 3.96931E-03-6.89400E-04-5.97822E-15
 -1        37 4.25798E-03-6.82283E-04-6.87084E-15
 -1        38 4.55053E-03-6.74495E-04-7.82099E-15
 -1        39 4.84772E-03-6.66737E-04-8.82280E-15
 -1        40 5.15056E-03-6.59996E-04-9.87597E-15
 -1        41 5.46021E-03-6.55688E-04-1.09819E-14
 -1        42 5.77792E-03-6.55818E-04-1.21415E-14
 -1        43 6.10482E-03-6.63117E-04-1.33620E-14
 -1        44 6.44153E-03-6.81105E-04-1.46399E-14
 -1        45 6.78759E-03-7.13929E-04-1.59792E-14
 -1        46 7.14067E-03-7.65749E-04-1.73848E-14
 -1        47 7.49575E-03-8.39394E-04-1.88433E-14
 -1        48 7.84484E-03-9.34103E-04-2.03571E-14
 -1        49 8.17800E-03-1.04279E-03-2.19247E-14
 -1        50 8.48656E-03-1.15032E-03-2.35574E-14
 -1        51 8.76795E-03-1.23526E-03-2.52552E-14
 -1        52 9.02935E-03-1.27659E-03-2.70178E-14
 -1        53 9.28660E-03-1.26312E-03-2.88331E-14
 -1        54 9.55744E-03-1.19927E-03-3.06985E-14
 -1        55 9.85347E-03-1.10274E-03-3.26009E-14
 -1        56 1.01763E-02-9.95867E-04-3.45381E-14
 -1        57 1.05193E-02-8.97118E-04-3.65032E-14
 -1        58 1.08726E-02-8.17132E-04-3.84804E-14
 -1        59 1.12272E-02-7.59170E-04-4.04771E-14
 -1        60 1.15765E-02-7.21665E-04-4.24959E-14
 -1        61 1.19173E-02-7.00804E-04-4.45351E-14
 -1        62 1.22482E-02-6.92283E-04-4.65929E-14
 -1        63 1.25695E-02-6.92209E-04-4.86947E-14
 -1        64 1.28823E-02-6.97437E-04-5.08414E-14
 -1        65 1.31877E-02-7.05583E-04-5.30293E-14
 -1        66 1.34871E-02-7.14913E-04-5.52424E-14
 -1        67 1.37816E-02-7.24193E-04-5.74660E-14
 -1        68 1.40725E-02-7.32558E-04-5.96886E-14
 -1        69 1.43606E-02-7.39417E-04-6.19067E-14
 -1        70 1.46470E-02-7.44442E-04-6.41310E-14
 -1        71 1.49325E-02-7.47691E-04-6.63787E-14
 -1        72 4.13379E-04 2.61242E-04 2.63190E-17
 -1        73 7.02327E-04 4.03270E-04-2.28936E-17
 -1        74 9.72676E-04 4.99360E-04-1.45381E-16
 -1        75 1.23701E-03 5.67513E-04-3.41978E-16
 -1        76 1.50022E-03 6.16068E-04-6.12225E-16
 -1        77 1.76451E-03 6.50290E-04-9.54223E-16
 -1        78 2.03092E-03 6.73807E-04-1.36706E-15
 -1        79 2.29988E-03 6.89234E-04-1.85009E-15
 -1        80 2.57155E-03 6.98512E-04-2.40344E-15
 -1        81 2.84592E-03 7.03086E-04-3.02724E-15
 -1        82 3.12297E-03 7.04038E-04-3.71935E-15
 -1        83 3.40267E-03 7.02180E-04-4.47188E-15
 -1        84 3.68510E-03 6.98135E-04-5.28715E-15
 -1        85 3.97047E-03 6.92420E-04-6.16935E-15
 -1        86 4.25912E-03 6.85522E-04-7.11860E-15
 -1        87 4.55161E-03 6.77990E-04-8.13148E-15
 -1        88 4.84869E-03 6.70533E-04-9.20273E-15
 -1        89 5.15130E-03 6.64144E-04-1.03285E-14
 -1        90 5.46055E-03 6.60235E-04-1.15079E-14
 -1        91 5.77756E-03 6.60775E-04-1.27378E-14
 -1        92 6.10333E-03 6.68417E-04-1.40202E-14
 -1        93 6.43828E-03 6.86518E-04-1.53582E-14
 -1        94 6.78176E-03 7.18943E-04-1.67480E-14
 -1        95 7.13130E-03 7.69428E-04-1.81774E-14
 -1        96 7.48191E-03 8.40266E-04-1.96390E-14
 -1        97 7.82597E-03 9.30223E-04-2.11373E-14
 -1        98 8.15427E-03 1.03211E-03-2.26771E-14
 -1        99 8.45906E-03 1.13145E-03-2.42541E-14
 -1       100 8.73837E-03 1.20839E-03-2.58752E-14
 -1       101 8.99909E-03 1.24383E-03-2.75396E-14
 -1       102 9.25590E-03 1.22768E-03-2.92406E-14
 -1       103 9.52525E-03 1.16390E-03-3.09801E-14
 -1       104 9.81812E-03 1.06843E-03-3.27408E-14
 -1       105 1.01364E-02 9.61793E-04-3.45271E-14
 -1       106 1.04743E-02 8.61378E-04-3.63548E-14
 -1       107 1.08229E-02 7.77648E-04-3.82338E-14
 -1       108 1.11735E-02 7.14243E-04-4.01623E-14
 -1       109 1.15199E-02 6.70147E-04-4.21362E-14
 -1       110 1.18586E-02 6.42030E-04-4.41645E-14
 -1       111 1.21881E-02 6.25927E-04-4.62422E-14
 -1       112 1.25086E-02 6.18152E-04-4.83656E-14
 -1       113 1.28208E-02 6.15668E-04-5.05134E-14
 -1       114 1.31259E-02 6.16139E-04-5.26895E-14
 -1       115 1.34251E-02 6.17844E-04-5.48625E-14
 -1       116 1.37196E-02 6.19547E-04-5.70209E-14
 -1       117 1.40105E-02 6.20375E-04-5.91835E-14
 -1       118 1.42986E-02 6.19732E-04-6.13720E-14
 -1       119 1.45849E-02 6.17279E-04-6.35729E-14
 -1       120 1.48705E-02 6.13058E-04-6.57693E-14
 -1       121 1.51470E-02 5.23657E-04-6.78952E-14
 -1       122 1.51533E-02 4.39226E-04-6.79514E-14
 -1       123 1.51611E-02 3.55633E-04-6.79907E-14
 -1       124 1.51702E-02 2.73648E-04-6.80337E-14
 -1       125 1.51797E-02 1.93681E-04-6.80947E-14
 -1       126 1.51887E-02 1.17067E-04-6.81667E-14
 -1       127 1.51965E-02 4.08529E-05-6.82201E-14
 -1       128 1.52025E-02-3.42035E-05-6.82555E-14
 -1       129 1.52061E-02-1.08854E-04-6.83002E-14
 -1       130 1.52075E-02-1.83912E-04-6.83361E-14
 -1       131 1.52069E-02-2.60130E-04-6.83476E-14
 -1       132 1.52051E-02-3.36755E-04-6.83797E-14
 -1       133 1.52029E-02-4.16738E-04-6.84057E-14
 -1       134 1.52012E-02-4.98745E-04-6.84334E-14
 -1       135 1.52007E-02-5.82382E-04-6.84702E-14
 -1       136 1.52018E-02-6.66776E-04-6.85079E-14
 -1       137 1.12126E-02 1.36548E-04-3.21189E-14
 -1       138 1.10832E-02 2.94102E-04-3.18646E-14
 -1       139 1.08664E-02 4.43834E-04-3.14459E-14
 -1       140 1.05690E-02 5.78826E-04-3.08883E-14
 -1       141 1.02219E-02 6.84886E-04-3.02449E-14
 -1       142 9.76026E-03 7.74177E-04-2.93922E-14
 -1       143 9.32964E-03 8.14292E-04-2.86054E-14
 -1       144 8.85322E-03 8.17357E-04-2.77347E-14
 -1       145 8.40443E-03 7.79980E-04-2.69188E-14
 -1       146 7.99142E-03 7.07569E-04-2.61719E-14
 -1       147 7.63642E-03 6.08218E-04-2.55276E-14
 -1       148 7.33904E-03 4.85665E-04-2.49859E-14
 -1       149 7.10706E-03 3.42077E-04-2.45525E-14
 -1       150 6.95106E-03 1.80176E-04-2.42486E-14
 -1       151 6.88997E-03 1.69875E-05-2.41176E-14
 -1       152 7.02831E-03-3.01673E-04-2.43344E-14
 -1       153 7.22569E-03-4.53214E-04-2.46713E-14
 -1       154 7.50906E-03-5.92815E-04-2.51564E-14
 -1       155 7.88856E-03-7.17544E-04-2.58172E-14
 -1       156 8.29274E-03-8.01633E-04-2.65293E-14
 -1       157 8.76655E-03-8.53487E-04-2.73785E-14
 -1       158 9.23212E-03-8.61311E-04-2.82285E-14
 -1       159 9.71098E-03-8.25226E-04-2.91296E-14
 -1       160 1.01313E-02-7.53730E-04-2.99327E-14
 -1       161 1.05111E-02-6.47692E-04-3.06722E-14
 -1       162 1.08324E-02-5.11851E-04-3.13090E-14
 -1       163 1.10700E-02-3.54938E-04-3.17925E-14
 -1       164 1.12138E-02-1.85554E-04-3.20967E-14
 -1       165 2.40225E-04-1.25474E-04-1.20313E-17
 -1       166 2.25194E-04-9.46011E-05-2.31511E-17
 -1       167 2.19520E-04-7.27646E-05-2.93446E-17
 -1       168 2.16772E-04-5.50938E-05-3.30004E-17
 -1       169 2.15330E-04-3.99518E-05-3.47588E-17
 -1       170 2.14526E-04-2.59004E-05-3.55076E-17
 -1       171 2.14125E-04-1.26352E-05-3.56398E-17
 -1       172 2.14009E-04 2.72848E-07-3.55347E-17
 -1       173 2.14144E-04 1.31934E-05-3.52501E-17
 -1       174 2.14566E-04 2.64984E-05-3.45725E-17
 -1       175 2.15379E-04 4.03769E-05-3.36306E-17
 -1       176 2.16880E-04 5.58993E-05-3.15333E-17
 -1       177 2.19672E-04 7.38038E-05-2.81350E-17
 -1       178 2.25362E-04 9.59993E-05-2.19043E-17
 -1       179 2.39154E-04 1.27551E-04-1.05879E-17
 -1       180 2.97411E-04 1.85394E-04 1.47384E-18
 -1       181 4.68166E-04-2.63352E-04-3.30783E-17
 -1       182 7.66002E-04-3.81665E-04-1.35769E-16
 -1       183 1.04955E-03-4.64111E-04-3.06589E-16
 -1       184 1.32666E-03-5.22246E-04-5.46411E-16
 -1       185 1.60101E-03-5.63044E-04-8.54294E-16
 -1       186 1.87472E-03-5.91133E-04-1.23048E-15
 -1       187 2.14896E-03-6.09745E-04-1.67414E-15
 -1       188 2.42441E-03-6.21221E-04-2.18479E-15
 -1       189 2.70143E-03-6.27283E-04-2.76103E-15
 -1       190 2.98023E-03-6.29202E-04-3.40016E-15
 -1       191 3.26097E-03-6.27909E-04-4.09907E-15
 -1       192 3.54377E-03-6.24096E-04-4.85438E-15
 -1       193 3.82885E-03-6.18292E-04-5.66863E-15
 -1       194 4.11648E-03-6.10945E-04-6.53792E-15
 -1       195 4.40706E-03-6.02513E-04-7.46177E-15
 -1       196 4.70111E-03-5.93555E-04-8.44118E-15
 -1       197 4.99929E-03-5.84852E-04-9.47157E-15
 -1       198 5.30236E-03-5.77550E-04-1.05541E-14
 -1       199 5.61116E-03-5.73321E-04-1.16910E-14
 -1       200 5.92649E-03-5.74538E-04-1.28826E-14
 -1       201 6.24894E-03-5.84426E-04-1.41348E-14
 -1       202 6.57862E-03-6.07067E-04-1.54435E-14
 -1       203 6.91477E-03-6.47106E-04-1.68158E-14
 -1       204 7.25539E-03-7.08820E-04-1.82459E-14
 -1       205 7.59680E-03-7.94256E-04-1.97294E-14
 -1       206 7.93384E-03-9.00367E-04-2.12686E-14
 -1       207 8.26080E-03-1.01602E-03-2.28647E-14
 -1       208 8.57373E-03-1.12119E-03-2.45242E-14
 -1       209 8.87320E-03-1.19120E-03-2.62447E-14
 -1       210 9.16559E-03-1.20658E-03-2.80233E-14
 -1       211 9.46076E-03-1.16319E-03-2.98547E-14
 -1       212 9.76716E-03-1.07453E-03-3.17280E-14
 -1       213 1.00880E-02-9.64324E-04-3.36368E-14
 -1       214 1.04211E-02-8.55604E-04-3.55753E-14
 -1       215 1.07611E-02-7.63646E-04-3.75372E-14
 -1       216 1.11025E-02-6.94808E-04-3.95170E-14
 -1       217 1.14408E-02-6.48916E-04-4.15199E-14
 -1       218 1.17733E-02-6.22372E-04-4.35417E-14
 -1       219 1.20989E-02-6.10496E-04-4.55862E-14
 -1       220 1.24171E-02-6.08841E-04-4.76656E-14
 -1       221 1.27286E-02-6.13728E-04-4.97883E-14
 -1       222 1.30340E-02-6.22346E-04-5.19482E-14
 -1       223 1.33342E-02-6.32649E-04-5.41363E-14
 -1       224 1.36302E-02-6.43195E-04-5.63450E-14
 -1       225 1.39228E-02-6.52975E-04-5.85606E-14
 -1       226 1.42128E-02-6.61297E-04-6.07771E-14
 -1       227 1.45008E-02-6.67709E-04-6.29985E-14
 -1       228 1.47874E-02-6.72048E-04-6.52352E-14
 -1       229 6.03942E-04 3.30726E-04-5.75508E-17
 -1       230 8.92711E-04 4.32001E-04-1.85588E-16
 -1       231 1.17128E-03 5.03232E-04-3.84590E-16
 -1       232 1.44533E-03 5.53584E-04-6.54933E-16
 -1       233 1.71789E-03 5.88824E-04-9.95121E-16
 -1       234 1.99061E-03 6.12868E-04-1.40572E-15
 -1       235 2.26441E-03 6.28513E-04-1.88630E-15
 -1       236 2.53977E-03 6.37807E-04-2.43603E-15
 -1       237 2.81694E-03 6.42265E-04-3.05419E-15
 -1       238 3.09609E-03 6.43005E-04-3.73856E-15
 -1       239 3.37733E-03 6.40854E-04-4.48711E-15
 -1       240 3.66082E-03 6.36434E-04-5.29900E-15
 -1       241 3.94677E-03 6.30241E-04-6.17479E-15
 -1       242 4.23551E-03 6.22729E-04-7.11436E-15
 -1       243 4.52748E-03 6.14402E-04-8.11597E-15
 -1       244 4.82327E-03 6.05911E-04-9.17741E-15
 -1       245 5.12358E-03 5.98185E-04-1.02950E-14
 -1       246 5.42923E-03 5.92565E-04-1.14654E-14
 -1       247 5.74100E-03 5.90970E-04-1.26879E-14
 -1       248 6.05958E-03 5.96038E-04-1.39631E-14
 -1       249 6.38527E-03 6.11197E-04-1.52917E-14
 -1       250 6.71765E-03 6.40526E-04-1.66722E-14
 -1       251 7.05520E-03 6.88205E-04-1.80920E-14
 -1       252 7.39490E-03 7.57246E-04-1.95479E-14
 -1       253 7.73211E-03 8.47342E-04-2.10431E-14
 -1       254 8.06118E-03 9.52132E-04-2.25798E-14
 -1       255 8.37709E-03 1.05727E-03-2.41554E-14
 -1       256 8.67797E-03 1.14173E-03-2.57734E-14
 -1       257 8.96726E-03 1.18414E-03-2.74334E-14
 -1       258 9.25332E-03 1.17205E-03-2.91342E-14
 -1       259 9.54605E-03 1.10847E-03-3.08685E-14
 -1       260 9.85228E-03 1.01016E-03-3.26292E-14
 -1       261 1.01734E-02 8.99385E-04-3.44190E-14
 -1       262 1.05060E-02 7.95113E-04-3.62501E-14
 -1       263 1.08446E-02 7.08656E-04-3.81280E-14
 -1       264 1.11838E-02 6.43828E-04-4.00503E-14
 -1       265 1.15195E-02 5.99408E-04-4.20138E-14
 -1       266 1.18493E-02 5.71731E-04-4.40310E-14
 -1       267 1.21721E-02 5.56520E-04-4.60953E-14
 -1       268 1.24879E-02 5.49847E-04-4.82086E-14
 -1       269 1.27971E-02 5.48514E-04-5.03540E-14
 -1       270 1.31006E-02 5.50090E-04-5.25194E-14
 -1       271 1.33992E-02 5.52803E-04-5.46899E-14
 -1       272 1.36938E-02 5.55397E-04-5.68520E-14
 -1       273 1.39852E-02 5.56990E-04-5.90189E-14
 -1       274 1.42743E-02 5.56977E-04-6.12067E-14
 -1       275 1.45616E-02 5.54999E-04-6.34052E-14
 -1       276 1.48478E-02 5.51036E-04-6.56031E-14
 -1       277 1.49025E-02 4.86441E-04-6.60257E-14
 -1       278 1.49098E-02 4.03086E-04-6.60699E-14
 -1       279 1.49188E-02 3.20896E-04-6.61093E-14
 -1       280 1.49287E-02 2.40167E-04-6.61516E-14
 -1       281 1.49384E-02 1.62320E-04-6.61979E-14
 -1       282 1.49474E-02 8.45326E-05-6.62456E-14
 -1       283 1.49547E-02 7.81812E-06-6.62888E-14
 -1       284 1.49596E-02-6.83187E-05-6.63268E-14
 -1       285 1.49619E-02-1.44455E-04-6.63614E-14
 -1       286 1.49620E-02-2.21167E-04-6.63924E-14
 -1       287 1.49603E-02-2.97626E-04-6.64175E-14
 -1       288 1.49577E-02-3.76806E-04-6.64433E-14
 -1       289 1.49551E-02-4.57544E-04-6.64690E-14
 -1       290 1.49535E-02-5.39738E-04-6.64995E-14
 -1       291 1.48700E-02-6.05723E-04-6.58685E-14
 -1       292 1.12672E-02 1.95030E-05-3.28962E-14
 -1       293 1.11465E-02 1.15390E-04-3.27011E-14
 -1       294 1.09103E-02 2.25836E-04-3.23940E-14
 -1       295 1.05947E-02 3.85049E-04-3.17603E-14
 -1       296 1.02432E-02 5.57908E-04-3.10041E-14
 -1       297 9.83040E-03 7.24883E-04-3.01756E-14
 -1       298 9.45626E-03 8.49158E-04-2.91447E-14
 -1       299 9.08603E-03 8.99013E-04-2.81748E-14
 -1       300 8.71295E-03 8.60630E-04-2.71811E-14
 -1       301 8.33565E-03 7.48891E-04-2.62823E-14
 -1       302 7.96738E-03 5.97588E-04-2.54770E-14
 -1       303 7.61581E-03 4.35066E-04-2.47942E-14
 -1       304 7.29725E-03 2.82447E-04-2.42348E-14
 -1       305 7.04363E-03 1.42196E-04-2.37346E-14
 -1       306 6.89086E-03 4.54118E-05-2.35268E-14
 -1       307 6.86713E-03-3.92362E-05-2.35084E-14
 -1       308 6.96328E-03-1.32138E-04-2.36234E-14
 -1       309 7.17345E-03-2.49181E-04-2.39149E-14
 -1       310 7.47398E-03-3.96401E-04-2.43840E-14
 -1       311 7.87209E-03-5.59218E-04-2.49240E-14
 -1       312 8.23964E-03-7.45230E-04-2.58435E-14
 -1       313 8.62840E-03-8.76824E-04-2.67564E-14
 -1       314 9.01444E-03-9.36615E-04-2.77557E-14
 -1       315 9.39246E-03-9.12260E-04-2.88035E-14
 -1       316 9.78553E-03-7.98505E-04-2.97974E-14
 -1       317 1.01612E-02-6.39615E-04-3.07405E-14
 -1       318 1.05478E-02-4.66467E-04-3.15300E-14
 -1       319 1.08866E-02-3.02913E-04-3.21946E-14
 -1       320 1.11384E-02-1.60392E-04-3.27534E-14
 -1       321 1.12679E-02-6.75753E-05-3.28854E-14
 -1       322 4.55317E-04-1.64652E-04-1.00251E-16
 -1       323 4.73992E-04-2.12809E-04-8.16167E-17
 -1       324 4.40627E-04-9.39017E-05-1.18957E-16
 -1       325 4.37737E-04-6.48185E-05-1.22769E-16
 -1       326 4.36160E-04-3.78454E-05-1.24531E-16
 -1       327 4.35471E-04-1.19969E-05-1.25053E-16
 -1       328 4.35501E-04 1.35139E-05-1.24456E-16
 -1       329 4.36256E-04 3.94204E-05-1.22979E-16
 -1       330 4.37876E-04 6.60466E-05-1.20438E-16
 -1       331 4.40857E-04 9.53010E-05-1.16105E-16
 -1       332 4.46133E-04 1.28200E-04-1.09128E-16
 -1       333 4.55818E-04 1.67164E-04-9.75748E-17
 -1       334 4.75621E-04 2.16875E-04-7.85200E-17
 -1       335 5.31585E-04 2.69740E-04-7.18148E-17
 -1       336 8.23826E-04 3.72952E-04-2.02061E-16
 -1       337 8.62716E-04-3.56793E-04-2.59605E-16
 -1       338 1.14891E-03-4.25014E-04-4.75911E-16
 -1       339 1.43157E-03-4.73420E-04-7.59304E-16
 -1       340 1.71222E-03-5.07106E-04-1.10930E-15
 -1       341 1.99202E-03-5.29800E-04-1.52692E-15
 -1       342 2.27179E-03-5.44242E-04-2.00997E-15
 -1       343 2.55205E-03-5.52454E-04-2.55725E-15
 -1       344 2.83318E-03-5.55928E-04-3.16792E-15
 -1       345 3.11540E-03-5.55755E-04-3.83995E-15
 -1       346 3.39891E-03-5.52731E-04-4.56960E-15
 -1       347 3.68390E-03-5.47441E-04-5.35705E-15
 -1       348 3.97058E-03-5.40341E-04-6.20250E-15
 -1       349 4.25921E-03-5.31846E-04-7.10180E-15
 -1       350 4.55013E-03-5.22413E-04-8.05621E-15
 -1       351 4.84374E-03-5.12654E-04-9.06407E-15
 -1       352 5.14056E-03-5.03461E-04-1.01237E-14
 -1       353 5.44117E-03-4.96156E-04-1.12368E-14
 -1       354 5.74623E-03-4.92669E-04-1.24037E-14
 -1       355 6.05647E-03-4.95714E-04-1.36286E-14
 -1       356 6.37258E-03-5.08915E-04-1.49106E-14
 -1       357 6.69519E-03-5.36771E-04-1.62514E-14
 -1       358 7.02456E-03-5.84228E-04-1.76527E-14
 -1       359 7.36018E-03-6.55532E-04-1.91058E-14
 -1       360 7.70004E-03-7.51935E-04-2.06152E-14
 -1       361 8.04004E-03-8.68138E-04-2.21808E-14
 -1       362 8.37447E-03-9.88745E-04-2.38031E-14
 -1       363 8.69872E-03-1.08797E-03-2.54846E-14
 -1       364 9.01357E-03-1.13736E-03-2.72241E-14
 -1       365 9.32629E-03-1.12067E-03-2.90193E-14
 -1       366 9.64577E-03-1.04442E-03-3.08627E-14
 -1       367 9.97591E-03-9.33484E-04-3.27462E-14
 -1       368 1.03141E-02-8.16349E-04-3.46602E-14
 -1       369 1.06546E-02-7.13452E-04-3.66011E-14
 -1       370 1.09924E-02-6.34276E-04-3.85618E-14
 -1       371 1.13246E-02-5.80000E-04-4.05459E-14
 -1       372 1.16501E-02-5.47339E-04-4.25570E-14
 -1       373 1.19690E-02-5.31426E-04-4.45858E-14
 -1       374 1.22817E-02-5.27433E-04-4.66423E-14
 -1       375 1.25889E-02-5.31270E-04-4.87405E-14
 -1       376 1.28914E-02-5.39757E-04-5.08771E-14
 -1       377 1.31898E-02-5.50559E-04-5.30438E-14
 -1       378 1.34850E-02-5.62017E-04-5.52312E-14
 -1       379 1.37774E-02-5.72980E-04-5.74369E-14
 -1       380 1.40676E-02-5.82652E-04-5.96466E-14
 -1       381 1.43561E-02-5.90493E-04-6.18625E-14
 -1       382 1.46134E-02-5.99019E-04-6.38598E-14
 -1       383 1.10908E-03 4.46776E-04-4.00965E-16
 -1       384 1.38964E-03 4.99126E-04-6.69451E-16
 -1       385 1.66781E-03 5.35755E-04-1.00653E-15
 -1       386 1.94515E-03 5.60719E-04-1.41304E-15
 -1       387 2.22266E-03 5.76946E-04-1.88863E-15
 -1       388 2.50095E-03 5.86588E-04-2.43277E-15
 -1       389 2.78038E-03 5.91227E-04-3.04486E-15
 -1       390 3.06121E-03 5.92028E-04-3.72271E-15
 -1       391 3.34361E-03 5.89845E-04-4.46426E-15
 -1       392 3.62777E-03 5.85308E-04-5.26989E-15
 -1       393 3.91390E-03 5.78910E-04-6.13707E-15
 -1       394 4.20227E-03 5.71085E-04-7.06790E-15
 -1       395 4.49325E-03 5.62301E-04-8.06023E-15
 -1       396 4.78730E-03 5.53162E-04-9.11259E-15
 -1       397 5.08497E-03 5.44526E-04-1.02204E-14
 -1       398 5.38688E-03 5.37652E-04-1.13823E-14
 -1       399 5.69372E-03 5.34362E-04-1.25962E-14
 -1       400 6.00610E-03 5.37193E-04-1.38635E-14
 -1       401 6.32452E-03 5.49508E-04-1.51830E-14
 -1       402 6.64910E-03 5.75416E-04-1.65530E-14
 -1       403 6.97940E-03 6.19345E-04-1.79652E-14
 -1       404 7.31396E-03 6.84934E-04-1.94155E-14
 -1       405 7.65000E-03 7.73003E-04-2.09047E-14
 -1       406 7.98333E-03 8.78654E-04-2.24363E-14
 -1       407 8.30912E-03 9.88569E-04-2.40095E-14
 -1       408 8.62410E-03 1.08118E-03-2.56237E-14
 -1       409 8.92929E-03 1.13244E-03-2.72795E-14
 -1       410 9.23086E-03 1.12648E-03-2.89767E-14
 -1       411 9.53713E-03 1.06460E-03-3.07086E-14
 -1       412 9.85364E-03 9.64388E-04-3.24686E-14
 -1       413 1.01807E-02 8.50211E-04-3.42577E-14
 -1       414 1.05146E-02 7.42717E-04-3.60867E-14
 -1       415 1.08506E-02 6.53938E-04-3.79615E-14
 -1       416 1.11845E-02 5.87754E-04-3.98799E-14
 -1       417 1.15139E-02 5.42751E-04-4.18383E-14
 -1       418 1.18375E-02 5.15037E-04-4.38427E-14
 -1       419 1.21549E-02 5.00142E-04-4.58992E-14
 -1       420 1.24663E-02 4.93995E-04-4.80028E-14
 -1       421 1.27723E-02 4.93294E-04-5.01406E-14
 -1       422 1.30736E-02 4.95540E-04-5.23011E-14
 -1       423 1.33708E-02 4.98921E-04-5.44671E-14
 -1       424 1.36647E-02 5.02155E-04-5.66300E-14
 -1       425 1.39559E-02 5.04349E-04-5.87978E-14
 -1       426 1.42450E-02 5.04889E-04-6.09841E-14
 -1       427 1.45326E-02 5.03395E-04-6.31828E-14
 -1       428 1.47177E-02 4.95330E-04-6.46050E-14
 -1       429 1.46771E-02 2.84371E-04-6.42173E-14
 -1       430 1.46669E-02 3.65721E-04-6.41823E-14
 -1       431 1.46917E-02 4.30188E-04-6.43942E-14
 -1       432 1.46875E-02 2.05815E-04-6.42517E-14
 -1       433 1.46977E-02 1.27259E-04-6.42899E-14
 -1       434 1.47062E-02 4.98203E-05-6.43240E-14
 -1       435 1.47126E-02-2.68852E-05-6.43596E-14
 -1       436 1.47162E-02-1.03333E-04-6.43969E-14
 -1       437 1.47172E-02-1.80032E-04-6.44315E-14
 -1       438 1.47159E-02-2.56140E-04-6.44600E-14
 -1       439 1.47131E-02-3.34665E-04-6.44866E-14
 -1       440 1.47098E-02-4.14559E-04-6.45098E-14
 -1       441 1.47070E-02-4.95905E-04-6.45397E-14
 -1       442 1.10499E-02 9.48348E-05-3.35491E-14
 -1       443 1.12999E-02-2.50640E-05-3.37387E-14
 -1       444 1.12164E-02 3.21344E-05-3.37466E-14
 -1       445 1.07100E-02 2.46201E-04-3.27405E-14
 -1       446 1.03462E-02 4.26952E-04-3.19200E-14
 -1       447 4.45668E-04-1.26358E-04-1.11835E-16
 -1       448 9.55569E-03 8.21055E-04-2.98305E-14
 -1       449 9.27390E-03 9.10816E-04-2.88517E-14
 -1       450 8.91740E-03 9.22515E-04-2.75969E-14
 -1       451 8.56490E-03 8.20414E-04-2.64827E-14
 -1       452 8.22479E-03 6.60166E-04-2.54944E-14
 -1       453 7.86280E-03 4.66284E-04-2.45721E-14
 -1       454 7.50032E-03 2.90499E-04-2.39091E-14
 -1       455 7.21421E-03 1.64253E-04-2.34168E-14
 -1       456 6.93877E-03 4.88727E-05-2.28504E-14
 -1       457 6.84230E-03-5.62286E-06-2.26774E-14
 -1       458 6.87507E-03-4.63446E-05-2.27848E-14
 -1       459 7.06507E-03-1.30413E-04-2.30812E-14
 -1       460 7.35476E-03-2.47817E-04-2.34361E-14
 -1       461 7.68207E-03-3.99893E-04-2.39624E-14
 -1       462 8.15828E-03-6.55997E-04-2.50786E-14
 -1       463 8.49854E-03-8.24965E-04-2.59800E-14
 -1       464 8.85223E-03-9.49140E-04-2.70924E-14
 -1       465 9.17306E-03-9.69805E-04-2.82372E-14
 -1       466 9.55946E-03-8.70241E-04-2.95838E-14
 -1       467 9.89400E-03-7.15405E-04-3.06179E-14
 -1       468 1.03026E-02-4.99452E-04-3.17438E-14
 -1       469 1.06751E-02-3.10724E-04-3.26631E-14
 -1       470 1.09933E-02-1.76298E-04-3.32136E-14
 -1       471 1.12418E-02-7.42321E-05-3.36087E-14
 -1       472 9.99874E-03 6.08264E-04-3.10789E-14
 -1       473 9.75376E-03 7.27243E-04-3.07286E-14
 -1       474 1.11529E-02-1.02221E-04-3.40725E-14
 -1       475 7.92383E-03-5.12744E-04-2.41129E-14
 -1       476 9.30842E-04 3.45309E-04-3.35757E-16
 -1       477 6.66243E-04-7.49452E-05-2.63847E-16
 -1       478 6.70122E-04-1.15629E-04-2.58243E-16
 -1       479 6.63633E-04 1.10227E-06-2.66761E-16
 -1       480 6.64337E-04 3.86637E-05-2.64962E-16
 -1       481 6.66430E-04 7.66287E-05-2.60923E-16
 -1       482 6.70435E-04 1.17468E-04-2.54567E-16
 -1       483 6.77306E-04 1.62032E-04-2.44664E-16
 -1       484 6.89025E-04 2.12357E-04-2.29048E-16
 -1       485 1.13127E-02-8.87571E-06-3.46965E-14
 -1       486 1.21663E-03 4.05203E-04-5.78835E-16
 -1       487 9.76018E-04-3.27850E-04-3.98888E-16
 -1       488 1.26190E-03-3.82075E-04-6.58172E-16
 -1       489 1.54690E-03-4.20941E-04-9.83019E-16
 -1       490 1.83107E-03-4.47798E-04-1.37454E-15
 -1       491 2.11474E-03-4.65470E-04-1.83162E-15
 -1       492 2.39825E-03-4.76160E-04-2.35184E-15
 -1       493 2.68190E-03-4.81537E-04-2.93442E-15
 -1       494 2.96592E-03-4.82842E-04-3.57884E-15
 -1       495 3.25048E-03-4.80984E-04-4.28247E-15
 -1       496 3.53573E-03-4.76623E-04-5.04453E-15
 -1       497 3.82181E-03-4.70248E-04-5.86408E-15
 -1       498 4.10887E-03-4.62258E-04-6.73924E-15
 -1       499 4.39709E-03-4.53045E-04-7.66836E-15
 -1       500 4.68669E-03-4.43082E-04-8.65220E-15
 -1       501 4.97796E-03-4.33031E-04-9.69042E-15
 -1       502 5.27128E-03-4.23873E-04-1.07807E-14
 -1       503 5.56716E-03-4.17053E-04-1.19251E-14
 -1       504 5.86631E-03-4.14650E-04-1.31245E-14
 -1       505 6.16974E-03-4.19544E-04-1.43803E-14
 -1       506 6.47889E-03-4.35550E-04-1.56924E-14
 -1       507 6.79562E-03-4.67425E-04-1.70622E-14
 -1       508 7.12201E-03-5.20543E-04-1.84884E-14
 -1       509 7.45948E-03-5.99821E-04-1.99672E-14
 -1       510 7.80703E-03-7.07012E-04-2.15022E-14
 -1       511 8.15940E-03-8.35428E-04-2.30932E-14
 -1       512 8.50741E-03-9.63942E-04-2.47367E-14
 -1       513 8.84399E-03-1.05609E-03-2.64372E-14
 -1       514 9.17231E-03-1.07657E-03-2.81973E-14
 -1       515 9.50408E-03-1.01710E-03-3.00089E-14
 -1       516 9.84732E-03-9.03624E-04-3.18642E-14
 -1       517 1.01989E-02-7.75147E-04-3.37536E-14
 -1       518 1.05495E-02-6.60464E-04-3.56715E-14
 -1       519 1.08919E-02-5.72089E-04-3.76146E-14
 -1       520 1.12231E-02-5.11244E-04-3.95784E-14
 -1       521 1.15439E-02-4.73948E-04-4.15696E-14
 -1       522 1.18562E-02-4.54801E-04-4.35854E-14
 -1       523 1.21619E-02-4.48658E-04-4.56244E-14
 -1       524 1.24628E-02-4.51221E-04-4.76995E-14
 -1       525 1.27601E-02-4.59146E-04-4.98120E-14
 -1       526 1.30545E-02-4.69947E-04-5.19552E-14
 -1       527 1.33467E-02-4.81838E-04-5.41225E-14
 -1       528 1.36372E-02-4.93568E-04-5.63160E-14
 -1       529 1.39262E-02-5.04269E-04-5.85179E-14
 -1       530 1.42140E-02-5.13339E-04-6.07244E-14
 -1       531 1.11990E-02 3.67976E-05-3.48823E-14
 -1       532 1.78343E-03 4.77787E-04-1.26795E-15
 -1       533 2.06552E-03 4.97616E-04-1.71391E-15
 -1       534 2.34750E-03 5.09944E-04-2.22699E-15
 -1       535 2.62977E-03 5.16584E-04-2.80749E-15
 -1       536 2.91262E-03 5.18883E-04-3.45413E-15
 -1       537 3.19626E-03 5.17824E-04-4.16514E-15
 -1       538 3.48087E-03 5.14128E-04-4.93932E-15
 -1       539 3.76662E-03 5.08327E-04-5.77492E-15
 -1       540 4.05368E-03 5.00851E-04-6.67357E-15
 -1       541 4.34230E-03 4.92110E-04-7.63426E-15
 -1       542 4.63273E-03 4.82584E-04-8.65419E-15
 -1       543 4.92534E-03 4.72933E-04-9.73076E-15
 -1       544 5.22054E-03 4.64121E-04-1.08623E-14
 -1       545 5.51888E-03 4.57564E-04-1.20465E-14
 -1       546 5.82099E-03 4.55289E-04-1.32849E-14
 -1       547 6.12769E-03 4.60087E-04-1.45743E-14
 -1       548 6.43995E-03 4.75601E-04-1.59143E-14
 -1       549 6.75887E-03 5.06239E-04-1.73009E-14
 -1       550 7.08536E-03 5.56701E-04-1.87280E-14
 -1       551 7.41959E-03 6.30752E-04-2.01963E-14
 -1       552 7.75985E-03 7.28809E-04-2.17062E-14
 -1       553 8.10155E-03 8.44071E-04-2.32589E-14
 -1       554 8.43804E-03 9.58432E-04-2.48517E-14
 -1       555 8.76447E-03 1.04374E-03-2.64874E-14
 -1       556 9.08273E-03 1.07156E-03-2.81652E-14
 -1       557 9.40169E-03 1.03091E-03-2.98833E-14
 -1       558 9.72951E-03 9.36049E-04-3.16346E-14
 -1       559 1.00671E-02 8.16356E-04-3.34125E-14
 -1       560 1.04090E-02 6.99043E-04-3.52245E-14
 -1       561 1.07485E-02 6.00446E-04-3.70792E-14
 -1       562 1.10817E-02 5.26066E-04-3.89769E-14
 -1       563 1.14070E-02 4.74818E-04-4.09137E-14
 -1       564 1.17248E-02 4.42654E-04-4.28925E-14
 -1       565 1.20362E-02 4.24827E-04-4.49198E-14
 -1       566 1.23421E-02 4.16976E-04-4.69977E-14
 -1       567 1.26436E-02 4.15524E-04-4.91156E-14
 -1       568 1.29415E-02 4.17728E-04-5.12578E-14
 -1       569 1.32364E-02 4.21580E-04-5.34179E-14
 -1       570 1.35288E-02 4.25651E-04-5.55794E-14
 -1       571 1.38193E-02 4.28946E-04-5.77444E-14
 -1       572 1.41082E-02 4.30773E-04-5.99206E-14
 -1       573 1.43957E-02 4.30655E-04-6.21183E-14
 -1       574 1.44474E-02 1.68636E-04-6.23468E-14
 -1       575 1.44575E-02 9.09602E-05-6.23750E-14
 -1       576 1.44248E-02 3.26808E-04-6.22907E-14
 -1       577 1.44361E-02 2.46966E-04-6.23204E-14
 -1       578 1.44655E-02 1.42660E-05-6.24051E-14
 -1       579 1.44707E-02-6.19048E-05-6.24404E-14
 -1       580 1.44728E-02-1.38068E-04-6.24742E-14
 -1       581 1.44721E-02-2.13437E-04-6.25020E-14
 -1       582 1.44693E-02-2.91066E-04-6.25290E-14
 -1       583 1.44652E-02-3.70028E-04-6.25556E-14
 -1       584 1.44611E-02-4.50522E-04-6.25861E-14
 -1       585 1.05217E-02 3.14232E-04-3.31521E-14
 -1       586 1.50069E-03 4.48039E-04-8.89588E-16
 -1       587 1.01644E-02 5.01620E-04-3.20427E-14
 -1       588 1.08803E-02 1.51497E-04-3.39877E-14
 -1       589 1.13154E-02-4.24582E-05-3.47273E-14
 -1       590 6.93643E-03-6.83304E-05-2.22433E-14
 -1       591 7.05485E-03 8.53959E-05-2.24644E-14
 -1       592 7.65445E-03 3.44649E-04-2.35372E-14
 -1       593 6.64227E-04-3.64234E-05-2.66626E-16
 -1       594 8.72694E-03 8.92228E-04-2.67224E-14
 -1       595 9.39250E-03 8.93028E-04-2.94923E-14
 -1       596 6.83428E-03 1.19599E-05-2.18148E-14
 -1       597 9.09223E-03 9.50329E-04-2.82268E-14
 -1       598 8.45311E-03 7.73221E-04-2.57381E-14
 -1       599 8.07452E-03 5.69121E-04-2.45758E-14
 -1       600 7.33993E-03 1.97139E-04-2.29803E-14
 -1       601 7.16551E-03-1.50589E-04-2.24126E-14
 -1       602 6.81579E-03-2.32364E-05-2.18584E-14
 -1       603 8.34295E-03-7.43156E-04-2.51519E-14
 -1       604 7.49101E-03-2.90203E-04-2.29253E-14
 -1       605 8.67949E-03-9.07120E-04-2.62308E-14
 -1       606 9.02621E-03-9.94536E-04-2.76239E-14
 -1       607 9.33539E-03-9.58038E-04-2.89622E-14
 -1       608 9.71690E-03-8.01424E-04-3.04946E-14
 -1       609 1.00775E-02-6.04957E-04-3.17027E-14
 -1       610 1.04777E-02-3.90337E-04-3.28894E-14
 -1       611 1.08773E-02-2.05902E-04-3.38897E-14
 -1       612 7.12465E-04-2.51433E-04-2.24874E-16
 -1       613 7.03455E-04 2.90501E-04-1.84189E-16
 -1       614 6.76815E-04-1.59737E-04-2.48499E-16
 -1       615 7.69329E-03-3.97102E-04-2.30697E-14
 -1       616 1.44080E-02-5.19967E-04-6.22240E-14
 -1       617 8.10161E-03-6.16351E-04-2.41820E-14
 -1       618 9.00317E-04 7.38288E-05-4.54121E-16
 -1       619 8.98262E-04 2.50811E-05-4.58733E-16
 -1       620 9.12176E-04 1.77658E-04-4.33837E-16
 -1       621 9.24341E-04 2.36130E-04-4.15724E-16
 -1       622 9.92755E-03-7.11880E-04-3.16116E-14
 -1       623 1.04877E-03 3.12997E-04-4.84333E-16
 -1       624 1.13797E-02-2.62857E-05-3.57278E-14
 -1       625 1.38334E-03-3.35328E-04-8.54002E-16
 -1       626 1.66957E-03-3.65264E-04-1.21984E-15
 -1       627 1.95584E-03-3.85721E-04-1.65027E-15
 -1       628 2.24196E-03-3.98775E-04-2.14369E-15
 -1       629 2.52793E-03-4.06126E-04-2.69921E-15
 -1       630 2.81380E-03-4.09090E-04-3.31647E-15
 -1       631 3.09963E-03-4.08657E-04-3.99330E-15
 -1       632 3.38549E-03-4.05553E-04-4.72901E-15
 -1       633 3.67141E-03-4.00307E-04-5.52373E-15
 -1       634 3.95745E-03-3.93323E-04-6.37487E-15
 -1       635 4.24365E-03-3.84949E-04-7.27947E-15
 -1       636 4.53008E-03-3.75554E-04-8.23921E-15
 -1       637 4.81681E-03-3.65615E-04-9.25266E-15
 -1       638 5.10401E-03-3.55812E-04-1.03228E-14
 -1       639 5.39197E-03-3.47137E-04-1.14455E-14
 -1       640 5.68120E-03-3.41029E-04-1.26209E-14
 -1       641 5.97261E-03-3.39510E-04-1.38515E-14
 -1       642 6.26775E-03-3.45369E-04-1.51388E-14
 -1       643 6.56910E-03-3.62380E-04-1.64776E-14
 -1       644 6.88021E-03-3.95573E-04-1.78739E-14
 -1       645 7.20558E-03-4.51393E-04-1.93231E-14
 -1       646 7.54926E-03-5.37328E-04-2.08283E-14
 -1       647 7.91062E-03-6.58118E-04-2.23878E-14
 -1       648 8.28291E-03-8.07359E-04-2.39988E-14
 -1       649 8.64944E-03-9.50445E-04-2.56648E-14
 -1       650 9.00250E-03-1.02902E-03-2.73860E-14
 -1       651 9.35151E-03-1.00028E-03-2.91656E-14
 -1       652 9.71227E-03-8.82103E-04-3.09907E-14
 -1       653 1.00836E-02-7.33259E-04-3.28539E-14
 -1       654 1.04514E-02-6.01252E-04-3.47502E-14
 -1       655 1.08036E-02-5.03440E-04-3.66724E-14
 -1       656 1.11368E-02-4.38558E-04-3.86189E-14
 -1       657 1.14537E-02-3.99582E-04-4.05895E-14
 -1       658 1.17590E-02-3.79433E-04-4.25850E-14
 -1       659 1.20566E-02-3.72409E-04-4.46088E-14
 -1       660 1.23494E-02-3.74171E-04-4.66636E-14
 -1       661 1.26395E-02-3.81472E-04-4.87532E-14
 -1       662 1.29280E-02-3.91912E-04-5.08765E-14
 -1       663 1.32154E-02-4.03744E-04-5.30236E-14
 -1       664 1.35023E-02-4.15721E-04-5.51971E-14
 -1       665 1.37888E-02-4.26968E-04-5.73897E-14
 -1       666 1.40750E-02-4.36871E-04-5.95905E-14
 -1       667 8.47104E-03-8.30058E-04-2.52001E-14
 -1       668 1.90564E-03 4.16851E-04-1.53861E-15
 -1       669 2.76071E-03 4.44782E-04-3.18702E-15
 -1       670 3.04584E-03 4.45155E-04-3.86686E-15
 -1       671 3.33123E-03 4.42653E-04-4.61001E-15
 -1       672 3.61699E-03 4.37863E-04-5.41463E-15
 -1       673 3.90320E-03 4.31230E-04-6.28225E-15
 -1       674 4.18998E-03 4.23129E-04-7.21222E-15
 -1       675 4.47744E-03 4.13948E-04-8.20173E-15
 -1       676 4.76576E-03 4.04178E-04-9.24627E-15
 -1       677 5.05517E-03 3.94512E-04-1.03478E-14
 -1       678 5.34603E-03 3.85965E-04-1.15031E-14
 -1       679 5.63887E-03 3.80007E-04-1.27102E-14
 -1       680 5.93456E-03 3.78715E-04-1.39725E-14
 -1       681 6.23438E-03 3.84925E-04-1.52833E-14
 -1       682 6.54028E-03 4.02373E-04-1.66408E-14
 -1       683 6.85484E-03 4.35755E-04-1.80440E-14
 -1       684 7.18093E-03 4.90508E-04-1.94884E-14
 -1       685 7.52054E-03 5.71751E-04-2.09771E-14
 -1       686 7.87247E-03 6.81286E-04-2.25081E-14
 -1       687 8.22923E-03 8.11183E-04-2.40805E-14
 -1       688 8.58082E-03 9.34323E-04-2.56951E-14
 -1       689 8.91943E-03 1.00919E-03-2.73526E-14
 -1       690 9.25223E-03 1.00093E-03-2.90532E-14
 -1       691 9.59159E-03 9.13559E-04-3.07922E-14
 -1       692 9.94500E-03 7.83183E-04-3.25651E-14
 -1       693 1.03016E-02 6.51485E-04-3.43632E-14
 -1       694 1.06521E-02 5.42090E-04-3.61996E-14
 -1       695 1.09898E-02 4.61009E-04-3.80750E-14
 -1       696 1.13141E-02 4.05816E-04-3.99918E-14
 -1       697 1.16272E-02 3.71123E-04-4.19485E-14
 -1       698 1.19321E-02 3.51534E-04-4.39511E-14
 -1       699 1.22312E-02 3.42452E-04-4.60048E-14
 -1       700 1.25265E-02 3.40228E-04-4.81017E-14
 -1       701 1.28190E-02 3.42085E-04-5.02260E-14
 -1       702 1.31096E-02 3.45974E-04-5.23729E-14
 -1       703 1.33989E-02 3.50423E-04-5.45273E-14
 -1       704 1.36872E-02 3.54392E-04-5.66884E-14
 -1       705 1.39746E-02 3.57151E-04-5.88587E-14
 -1       706 1.42000E-02 3.42567E-04-6.05685E-14
 -1       707 1.42255E-02-2.11084E-05-6.05008E-14
 -1       708 1.42681E-02-4.44159E-04-6.10844E-14
 -1       709 1.42084E-02 1.30801E-04-6.04479E-14
 -1       710 1.42292E-02-9.63051E-05-6.05314E-14
 -1       711 1.42184E-02 5.44040E-05-6.04736E-14
 -1       712 1.10949E-02 9.95323E-05-3.55894E-14
 -1       713 1.42294E-02-1.70508E-04-6.05598E-14
 -1       714 1.42267E-02-2.46841E-04-6.05870E-14
 -1       715 1.42220E-02-3.24522E-04-6.06144E-14
 -1       716 1.62023E-03 3.93656E-04-1.12069E-15
 -1       717 9.53277E-03-9.08541E-04-2.99540E-14
 -1       718 1.03298E-02 4.39494E-04-3.32359E-14
 -1       719 1.11156E-02-1.25948E-04-3.49892E-14
 -1       720 1.33450E-03 3.59940E-04-7.69435E-16
 -1       721 6.73580E-03-7.36215E-06-2.08052E-14
 -1       722 1.13390E-02 6.34781E-06-3.59137E-14
 -1       723 2.47572E-03 4.40732E-04-2.57105E-15
 -1       724 2.19076E-03 4.31909E-04-2.02155E-15
 -1       725 1.09774E-03-2.93638E-04-5.53960E-16
 -1       726 8.56225E-03 8.52330E-04-2.58776E-14
 -1       727 9.64674E-03 8.07106E-04-3.07376E-14
 -1       728 1.07342E-02-2.95824E-04-3.43852E-14
 -1       729 1.13158E-02-6.37193E-05-3.56509E-14
 -1       730 9.97615E-03 6.29167E-04-3.19774E-14
 -1       731 9.04690E-04 1.24173E-04-4.46068E-16
 -1       732 9.22529E-03 9.57691E-04-2.88631E-14
 -1       733 8.23981E-03 6.89560E-04-2.46867E-14
 -1       734 6.89665E-03 4.93640E-05-2.13724E-14
 -1       735 7.82856E-03 4.59614E-04-2.34670E-14
 -1       736 9.04334E-04-1.21770E-04-4.50198E-16
 -1       737 7.42315E-03 2.54012E-04-2.24969E-14
 -1       738 6.96667E-03-9.15147E-05-2.14579E-14
 -1       739 7.14369E-03 1.32349E-04-2.19793E-14
 -1       740 6.80700E-03-4.19567E-05-2.10836E-14
 -1       741 8.90057E-03 9.57790E-04-2.73466E-14
 -1       742 1.08098E-02 2.10381E-04-3.47382E-14
 -1       743 9.20556E-03-1.00429E-03-2.84252E-14
 -1       744 7.25385E-03-2.07605E-04-2.17853E-14
 -1       745 1.03062E-02-5.06963E-04-3.29955E-14
 -1       746 8.82860E-03-9.78083E-04-2.66394E-14
 -1       747 9.11619E-04-1.75057E-04-4.38285E-16
 -1       748 8.98203E-04-2.30677E-05-4.59708E-16
 -1       749 1.41964E-02 2.07887E-04-6.04231E-14
 -1       750 1.41981E-02 2.74575E-04-6.04958E-14
 -1       751 7.85531E-03-5.03778E-04-2.31352E-14
 -1       752 6.72988E-03 2.12620E-05-2.03752E-14
 -1       753 7.42325E-03-2.95697E-04-2.19231E-14
 -1       754 1.09988E-02-2.03834E-04-3.54962E-14
 -1       755 9.38338E-04-2.46457E-04-4.25695E-16
 -1       756 1.12871E-02 5.57319E-05-3.66287E-14
 -1       757 8.24131E-03-7.25706E-04-2.42261E-14
 -1       758 9.00118E-04-7.15505E-05-4.57062E-16
 -1       759 1.16183E-03 2.42566E-04-6.56071E-16
 -1       760 1.79762E-03-3.06480E-04-1.46763E-15
 -1       761 2.08524E-03-3.21178E-04-1.93461E-15
 -1       762 2.37291E-03-3.30148E-04-2.46309E-15
 -1       763 2.66039E-03-3.34652E-04-3.05301E-15
 -1       764 2.94752E-03-3.35686E-04-3.70375E-15
 -1       765 3.23422E-03-3.34001E-04-4.41347E-15
 -1       766 3.52041E-03-3.30149E-04-5.18233E-15
 -1       767 3.80602E-03-3.24538E-04-6.00888E-15
 -1       768 4.09098E-03-3.17492E-04-6.88921E-15
 -1       769 4.37519E-03-3.09308E-04-7.82503E-15
 -1       770 4.65858E-03-3.00324E-04-8.81528E-15
 -1       771 4.94109E-03-2.90986E-04-9.86057E-15
 -1       772 5.22274E-03-2.81927E-04-1.09624E-14
 -1       773 5.50371E-03-2.74040E-04-1.21161E-14
 -1       774 5.78451E-03-2.68578E-04-1.33229E-14
 -1       775 6.06618E-03-2.67264E-04-1.45843E-14
 -1       776 6.35075E-03-2.72503E-04-1.58985E-14
 -1       777 6.64168E-03-2.87806E-04-1.72656E-14
 -1       778 6.94438E-03-3.18669E-04-1.86864E-14
 -1       779 7.26612E-03-3.73570E-04-2.01616E-14
 -1       780 7.61637E-03-4.65792E-04-2.16893E-14
 -1       781 1.03639E-02-5.46624E-04-3.38351E-14
 -1       782 1.07286E-02-4.35881E-04-3.57365E-14
 -1       783 1.10630E-02-3.67888E-04-3.76628E-14
 -1       784 1.13750E-02-3.29772E-04-3.96146E-14
 -1       785 1.16719E-02-3.10891E-04-4.15901E-14
 -1       786 1.19601E-02-3.04461E-04-4.35950E-14
 -1       787 1.22439E-02-3.06133E-04-4.56340E-14
 -1       788 1.25258E-02-3.12958E-04-4.77028E-14
 -1       789 1.28073E-02-3.22825E-04-4.98044E-14
 -1       790 1.30891E-02-3.34189E-04-5.19354E-14
 -1       791 1.33715E-02-3.45919E-04-5.40919E-14
 -1       792 1.36545E-02-3.57196E-04-5.62687E-14
 -1       793 1.39382E-02-3.67413E-04-5.84620E-14
 -1       794 2.89354E-03 3.71773E-04-3.57119E-15
 -1       795 3.75197E-03 3.61795E-04-5.89338E-15
 -1       796 4.03757E-03 3.54833E-04-6.79255E-15
 -1       797 4.32288E-03 3.46634E-04-7.75195E-15
 -1       798 4.60791E-03 3.37555E-04-8.76675E-15
 -1       799 4.89269E-03 3.28069E-04-9.83766E-15
 -1       800 5.17736E-03 3.18845E-04-1.09629E-14
 -1       801 5.46223E-03 3.10846E-04-1.21415E-14
 -1       802 5.74788E-03 3.05439E-04-1.33728E-14
 -1       803 6.03545E-03 3.04528E-04-1.46547E-14
 -1       804 6.32684E-03 3.10750E-04-1.59859E-14
 -1       805 6.62511E-03 3.27767E-04-1.73629E-14
 -1       806 6.93471E-03 3.60762E-04-1.87828E-14
 -1       807 7.26105E-03 4.16983E-04-2.02489E-14
 -1       808 7.60897E-03 5.05436E-04-2.17564E-14
 -1       809 7.97797E-03 6.31589E-04-2.33070E-14
 -1       810 1.02007E-02 6.02948E-04-3.34981E-14
 -1       811 1.05668E-02 4.78114E-04-3.53184E-14
 -1       812 1.09117E-02 3.90708E-04-3.71743E-14
 -1       813 1.12356E-02 3.34436E-04-3.90731E-14
 -1       814 1.15435E-02 3.00059E-04-4.10110E-14
 -1       815 1.18409E-02 2.80791E-04-4.29925E-14
 -1       816 1.21318E-02 2.71661E-04-4.50202E-14
 -1       817 1.24192E-02 2.69122E-04-4.70903E-14
 -1       818 1.27049E-02 2.70599E-04-4.92007E-14
 -1       819 1.29898E-02 2.74209E-04-5.13332E-14
 -1       820 1.32745E-02 2.78579E-04-5.34785E-14
 -1       821 1.35592E-02 2.82722E-04-5.56341E-14
 -1       822 1.38441E-02 2.85934E-04-5.77989E-14
 -1       823 1.40212E-02 2.80589E-04-5.91401E-14
 -1       824 1.13889E-03 5.87301E-05-6.97877E-16
 -1       825 1.10492E-02 1.78944E-04-3.64427E-14
 -1       826 1.39866E-02-5.55271E-05-5.86089E-14
 -1       827 1.39806E-02-2.78747E-04-5.86908E-14
 -1       828 1.39882E-02-1.28196E-04-5.86357E-14
 -1       829 1.74592E-03 3.36164E-04-1.36344E-15
 -1       830 6.80854E-03-7.54341E-05-2.03073E-14
 -1       831 1.39859E-02-2.02819E-04-5.86617E-14
 -1       832 3.46609E-03 3.67195E-04-5.05715E-15
 -1       833 3.17995E-03 3.70675E-04-4.28294E-15
 -1       834 1.14849E-02-1.67050E-05-3.73071E-14
 -1       835 2.60689E-03 3.69865E-04-2.92246E-15
 -1       836 1.51053E-03-2.84557E-04-1.06349E-15
 -1       837 2.32002E-03 3.64098E-04-2.33779E-15
 -1       838 6.95773E-03 9.95073E-05-2.09251E-14
 -1       839 1.12766E-02-1.02761E-04-3.62857E-14
 -1       840 1.22482E-03-2.53809E-04-7.23966E-16
 -1       841 7.02735E-03-1.61314E-04-2.06197E-14
 -1       842 6.67356E-03-2.97344E-05-1.99526E-14
 -1       843 1.24633E-03 2.99520E-04-7.14445E-16
 -1       844 1.06497E-02 3.50150E-04-3.50347E-14
 -1       845 7.18656E-03 1.89238E-04-2.14309E-14
 -1       846 2.03298E-03 3.53343E-04-1.81866E-15
 -1       847 1.06695E-03-2.14087E-04-5.73102E-16
 -1       848 1.14679E-02-5.10078E-05-3.72379E-14
 -1       849 7.54460E-03 3.61330E-04-2.22474E-14
 -1       850 1.13753E-03 1.19486E-06-7.01482E-16
 -1       851 1.39586E-02 1.68849E-04-5.85433E-14
 -1       852 1.14979E-02 2.06510E-05-3.80338E-14
 -1       853 1.05728E-03-1.53780E-04-5.89792E-16
 -1       854 6.61091E-03-2.51418E-06-1.95344E-14
 -1       855 1.39713E-02 9.27936E-05-5.85660E-14
 -1       856 1.14295E-03 1.17188E-04-6.89553E-16
 -1       857 1.12617E-02 1.24182E-04-3.74910E-14
 -1       858 1.39808E-02 1.82644E-05-5.85845E-14
 -1       859 6.74531E-03 5.89002E-05-1.99413E-14
 -1       860 7.56937E-03-3.91679E-04-2.19842E-14
 -1       861 1.49578E-03 3.22119E-04-1.01308E-15
 -1       862 1.15027E-03 1.78110E-04-6.75987E-16
 -1       863 1.10030E-02-2.87734E-04-3.65727E-14
 -1       864 7.16462E-03-2.29662E-04-2.07516E-14
 -1       865 1.05137E-03-9.68560E-05-6.00082E-16
 -1       866 2.21839E-03-2.54407E-04-2.22765E-15
 -1       867 2.50700E-03-2.59959E-04-2.79086E-15
 -1       868 2.79525E-03-2.62212E-04-3.41465E-15
 -1       869 3.08287E-03-2.61876E-04-4.09781E-15
 -1       870 3.36963E-03-2.59487E-04-4.84083E-15
 -1       871 3.65534E-03-2.55440E-04-5.64074E-15
 -1       872 3.93979E-03-2.50036E-04-6.49804E-15
 -1       873 4.22279E-03-2.43520E-04-7.40969E-15
 -1       874 4.50410E-03-2.36136E-04-8.37704E-15
 -1       875 4.78349E-03-2.28169E-04-9.39923E-15
 -1       876 5.06072E-03-2.19998E-04-1.04776E-14
 -1       877 5.33562E-03-2.12130E-04-1.16093E-14
 -1       878 5.60818E-03-2.05248E-04-1.27931E-14
 -1       879 5.87868E-03-2.00253E-04-1.40316E-14
 -1       880 6.14800E-03-1.98347E-04-1.53221E-14
 -1       881 6.41803E-03-2.01213E-04-1.66636E-14
 -1       882 6.69268E-03-2.11771E-04-1.80572E-14
 -1       883 6.97849E-03-2.35943E-04-1.95002E-14
 -1       884 1.37003E-02-2.69817E-04-5.65014E-14
 -1       885 1.64205E-03-2.29667E-04-1.28571E-15
 -1       886 1.13030E-02-2.53394E-04-3.85029E-14
 -1       887 1.15854E-02-2.38562E-04-4.04597E-14
 -1       888 1.18596E-02-2.34636E-04-4.24429E-14
 -1       889 1.21307E-02-2.37212E-04-4.44588E-14
 -1       890 1.24018E-02-2.43861E-04-4.65094E-14
 -1       891 1.26742E-02-2.53005E-04-4.85878E-14
 -1       892 1.29486E-02-2.63495E-04-5.06992E-14
 -1       893 1.32250E-02-2.74451E-04-5.28382E-14
 -1       894 1.34625E-02-2.72514E-04-5.46646E-14
 -1       895 1.39898E-02 2.24148E-04-5.88425E-14
 -1       896 3.88598E-03 2.86656E-04-6.37624E-15
 -1       897 4.73433E-03 2.63784E-04-9.33102E-15
 -1       898 5.01438E-03 2.55095E-04-1.04275E-14
 -1       899 5.29300E-03 2.46698E-04-1.15772E-14
 -1       900 5.57037E-03 2.39382E-04-1.27789E-14
 -1       901 5.84707E-03 2.34229E-04-1.40311E-14
 -1       902 6.12430E-03 2.32741E-04-1.53342E-14
 -1       903 6.40434E-03 2.37088E-04-1.66845E-14
 -1       904 6.69115E-03 2.50691E-04-1.80807E-14
 -1       905 6.99093E-03 2.79352E-04-1.95204E-14
 -1       906 7.25899E-03 3.06430E-04-2.08669E-14
 -1       907 1.11809E-02 2.55829E-04-3.81581E-14
 -1       908 1.14791E-02 2.25405E-04-4.00767E-14
 -1       909 1.17650E-02 2.09444E-04-4.20383E-14
 -1       910 1.20448E-02 2.02064E-04-4.40431E-14
 -1       911 1.23221E-02 2.00089E-04-4.60899E-14
 -1       912 1.25990E-02 2.01418E-04-4.81799E-14
 -1       913 1.28766E-02 2.04567E-04-5.02988E-14
 -1       914 1.31554E-02 2.08440E-04-5.24337E-14
 -1       915 1.34355E-02 2.12234E-04-5.45802E-14
 -1       916 3.60089E-03 2.92127E-04-5.50827E-15
 -1       917 1.37486E-02-8.78121E-05-5.67287E-14
 -1       918 1.92987E-03-2.44660E-04-1.72589E-15
 -1       919 4.45283E-03 2.72196E-04-8.29022E-15
 -1       920 1.12666E-02-1.73626E-04-3.73722E-14
 -1       921 1.09343E-03-4.89145E-05-6.51687E-16
 -1       922 2.74060E-03 2.97827E-04-3.28001E-15
 -1       923 1.87625E-03 2.75617E-04-1.61767E-15
 -1       924 6.62302E-03-6.31246E-05-1.90902E-14
 -1       925 6.78676E-03-1.28339E-04-1.93924E-14
 -1       926 2.45264E-03 2.94571E-04-2.66249E-15
 -1       927 1.21273E-03-1.87429E-04-7.46429E-16
 -1       928 1.15011E-02-9.92852E-05-3.83347E-14
 -1       929 1.42659E-03-2.10234E-04-9.98344E-16
 -1       930 6.96227E-03 1.57320E-04-2.02707E-14
 -1       931 2.16440E-03 2.87516E-04-2.10814E-15
 -1       932 1.16206E-02-3.73414E-05-3.87920E-14
 -1       933 4.17001E-03 2.79923E-04-7.30462E-15
 -1       934 1.37448E-02-1.58457E-05-5.67096E-14
 -1       935 1.15106E-02 7.42512E-05-3.89082E-14
 -1       936 1.37325E-02 2.08777E-04-5.68480E-14
 -1       937 3.02807E-03 2.98116E-04-3.96068E-15
 -1       938 1.37483E-02 1.32670E-04-5.68691E-14
 -1       939 3.31488E-03 2.96062E-04-4.70357E-15
 -1       940 6.52042E-03-2.98929E-05-1.86861E-14
 -1       941 1.37473E-02-1.60330E-04-5.67556E-14
 -1       942 6.58242E-03 2.69698E-05-1.91134E-14
 -1       943 1.38165E-03 3.38493E-05-9.90476E-16
 -1       944 1.40171E-03 2.35467E-04-9.49043E-16
 -1       945 1.62492E-03 2.67851E-04-1.23515E-15
 -1       946 1.20499E-03-1.24508E-04-7.60659E-16
 -1       947 1.16800E-02-2.36197E-06-3.95303E-14
 -1       948 1.38479E-03 9.90992E-05-9.83056E-16
 -1       949 6.88082E-03-1.78039E-04-1.94481E-14
 -1       950 5.40373E-03 1.78720E-04-1.21869E-14
 -1       951 2.64380E-03-1.88588E-04-3.12665E-15
 -1       952 2.93227E-03-1.89267E-04-3.78269E-15
 -1       953 3.21976E-03-1.88182E-04-4.49845E-15
 -1       954 3.50594E-03-1.85682E-04-5.27351E-15
 -1       955 3.79052E-03-1.82028E-04-6.10529E-15
 -1       956 4.07319E-03-1.77422E-04-6.99381E-15
 -1       957 4.35362E-03-1.72040E-04-7.93930E-15
 -1       958 4.63142E-03-1.66064E-04-8.93861E-15
 -1       959 4.90619E-03-1.59712E-04-9.99250E-15
 -1       960 5.17747E-03-1.53255E-04-1.11021E-14
 -1       961 5.44482E-03-1.47033E-04-1.22639E-14
 -1       962 5.70780E-03-1.41449E-04-1.34790E-14
 -1       963 5.96615E-03-1.36961E-04-1.47465E-14
 -1       964 6.21992E-03-1.34222E-04-1.60650E-14
 -1       965 6.46994E-03-1.33963E-04-1.74318E-14
 -1       966 2.35475E-03-1.85681E-04-2.52990E-15
 -1       967 1.15429E-02-1.65604E-04-3.94788E-14
 -1       968 1.17944E-02-1.66559E-04-4.14461E-14
 -1       969 1.20480E-02-1.71375E-04-4.34453E-14
 -1       970 1.23054E-02-1.78416E-04-4.54751E-14
 -1       971 1.25670E-02-1.86863E-04-4.75327E-14
 -1       972 1.28328E-02-1.96149E-04-4.96239E-14
 -1       973 1.31024E-02-2.05753E-04-5.17477E-14
 -1       974 5.13222E-03 1.85935E-04-1.10150E-14
 -1       975 4.85779E-03 1.93335E-04-9.89378E-15
 -1       976 5.67224E-03 1.72203E-04-1.34108E-14
 -1       977 5.93799E-03 1.67041E-04-1.46855E-14
 -1       978 6.20179E-03 1.64133E-04-1.60097E-14
 -1       979 6.46553E-03 1.64914E-04-1.73793E-14
 -1       980 6.73315E-03 1.72198E-04-1.87941E-14
 -1       981 1.17045E-02 1.39750E-04-4.10895E-14
 -1       982 1.19685E-02 1.35706E-04-4.30739E-14
 -1       983 1.22328E-02 1.35050E-04-4.50970E-14
 -1       984 1.24991E-02 1.36420E-04-4.71614E-14
 -1       985 1.27681E-02 1.38928E-04-4.92625E-14
 -1       986 1.30400E-02 1.41901E-04-5.13858E-14
 -1       987 1.33147E-02 1.44785E-04-5.35250E-14
 -1       988 3.73579E-03 2.18083E-04-5.96334E-15
 -1       989 2.06564E-03-1.79958E-04-1.99463E-15
 -1       990 1.39128E-03 1.66080E-04-9.69741E-16
 -1       991 4.58064E-03 2.00522E-04-8.82682E-15
 -1       992 1.37362E-02 5.66089E-05-5.66874E-14
 -1       993 2.01036E-03 2.12136E-04-1.88185E-15
 -1       994 1.38003E-03-3.21544E-05-9.89162E-16
 -1       995 1.35311E-02 1.39074E-04-5.51921E-14
 -1       996 6.53424E-03-1.08249E-04-1.80324E-14
 -1       997 2.58813E-03 2.23700E-04-2.99459E-15
 -1       998 6.69213E-03 1.10020E-04-1.90524E-14
 -1       999 2.29924E-03 2.19624E-04-2.40692E-15
 -1      1000 1.77717E-03-1.70727E-04-1.51991E-15
 -1      1001 1.17253E-02-7.75016E-05-4.00807E-14
 -1      1002 1.14878E-02 1.46017E-04-3.94964E-14
 -1      1003 1.35138E-02-1.64937E-04-5.49160E-14
 -1      1004 1.35106E-02-4.87339E-05-5.48425E-14
 -1      1005 3.45064E-03 2.21905E-04-5.12867E-15
 -1      1006 1.32820E-02-1.68716E-04-5.30940E-14
 -1      1007 2.87654E-03 2.25083E-04-3.64365E-15
 -1      1008 1.62722E-03 5.74972E-07-1.32878E-15
 -1      1009 1.75805E-03 2.09784E-04-1.47015E-15
 -1      1010 6.45302E-03-1.32529E-06-1.82784E-14
 -1      1011 4.01936E-03 2.13113E-04-6.86056E-15
 -1      1012 6.41177E-03-6.66637E-05-1.76449E-14
 -1      1013 1.17307E-02 4.28160E-05-4.04218E-14
 -1      1014 6.50453E-03 6.83884E-05-1.82473E-14
 -1      1015 1.56139E-03-1.56934E-04-1.20570E-15
 -1      1016 1.57411E-03 1.88458E-04-1.20734E-15
 -1      1017 1.18269E-02-4.01185E-05-4.08293E-14
 -1      1018 1.35142E-02-1.06523E-04-5.48784E-14
 -1      1019 4.30106E-03 2.07192E-04-7.81621E-15
 -1      1020 1.38241E-03-1.41237E-04-9.70978E-16
 -1      1021 1.29148E-03-8.01701E-05-8.73183E-16
 -1      1022 1.62891E-03 7.13625E-05-1.32398E-15
 -1      1023 3.07130E-03-1.16267E-04-4.15749E-15
 -1      1024 3.35818E-03-1.15080E-04-4.90539E-15
 -1      1025 3.64334E-03-1.13073E-04-5.71125E-15
 -1      1026 3.92640E-03-1.10394E-04-6.57603E-15
 -1      1027 4.20694E-03-1.07162E-04-7.49840E-15
 -1      1028 4.48452E-03-1.03487E-04-8.47657E-15
 -1      1029 4.75861E-03-9.94905E-05-9.50793E-15
 -1      1030 5.02863E-03-9.53092E-05-1.05936E-14
 -1      1031 5.29385E-03-9.11071E-05-1.17331E-14
 -1      1032 5.55346E-03-8.70578E-05-1.29249E-14
 -1      1033 5.80641E-03-8.33139E-05-1.41698E-14
 -1      1034 6.05147E-03-7.99238E-05-1.54665E-14
 -1      1035 1.60027E-03 1.29970E-04-1.26774E-15
 -1      1036 3.16414E-03 2.24343E-04-4.35562E-15
 -1      1037 2.78308E-03-1.16441E-04-3.46922E-15
 -1      1038 5.51198E-03 1.15475E-04-1.27920E-14
 -1      1039 1.22110E-02-1.18799E-04-4.44477E-14
 -1      1040 1.24609E-02-1.25986E-04-4.64909E-14
 -1      1041 1.27177E-02-1.33525E-04-4.85622E-14
 -1      1042 1.29804E-02-1.41232E-04-5.06673E-14
 -1      1043 5.24823E-03 1.21093E-04-1.15975E-14
 -1      1044 5.77056E-03 1.10065E-04-1.40382E-14
 -1      1045 4.97988E-03 1.26710E-04-1.04549E-14
 -1      1046 6.02344E-03 1.05056E-04-1.53362E-14
 -1      1047 6.27014E-03 1.00716E-04-1.66811E-14
 -1      1048 6.48042E-03 1.03650E-04-1.78508E-14
 -1      1049 1.35216E-02 6.41852E-05-5.50095E-14
 -1      1050 1.21487E-02 7.51040E-05-4.41063E-14
 -1      1051 1.24027E-02 7.63101E-05-4.61517E-14
 -1      1052 1.26621E-02 7.78324E-05-4.82336E-14
 -1      1053 1.29265E-02 7.94440E-05-5.03409E-14
 -1      1054 1.31952E-02 8.09048E-05-5.24703E-14
 -1      1055 1.17191E-02 8.80725E-05-4.07572E-14
 -1      1056 2.20454E-03-1.12652E-04-2.27206E-15
 -1      1057 2.49397E-03-1.15343E-04-2.84046E-15
 -1      1058 1.19338E-02 8.08516E-05-4.24213E-14
 -1      1059 2.14776E-03 1.45939E-04-2.15708E-15
 -1      1060 4.70751E-03 1.32129E-04-9.36359E-15
 -1      1061 1.35179E-02 7.34433E-06-5.49267E-14
 -1      1062 1.62722E-03-7.16552E-05-1.32330E-15
 -1      1063 1.91552E-03-1.07970E-04-1.76514E-15
 -1      1064 1.19574E-02-1.00029E-04-4.22583E-14
 -1      1065 2.43707E-03 1.49974E-04-2.71462E-15
 -1      1066 1.85896E-03 1.39265E-04-1.66121E-15
 -1      1067 2.72618E-03 1.51883E-04-3.33336E-15
 -1      1068 3.58736E-03 1.48732E-04-5.55761E-15
 -1      1069 3.87115E-03 1.45605E-04-6.42069E-15
 -1      1070 1.87570E-03-3.81354E-05-1.71199E-15
 -1      1071 6.31678E-03-3.37780E-05-1.72543E-14
 -1      1072 1.31888E-02-9.81828E-05-5.22832E-14
 -1      1073 6.34291E-03 3.37336E-05-1.74366E-14
 -1      1074 4.43159E-03 1.37167E-04-8.32656E-15
 -1      1075 1.32808E-02-1.51523E-05-5.30269E-14
 -1      1076 1.19162E-02 5.58411E-08-4.17364E-14
 -1      1077 1.87568E-03 3.70241E-05-1.71135E-15
 -1      1078 1.33507E-02-1.02337E-04-5.35757E-14
 -1      1079 3.49829E-03-4.29701E-05-5.31865E-15
 -1      1080 3.78220E-03-4.20227E-05-6.15676E-15
 -1      1081 4.06358E-03-4.08496E-05-7.05509E-15
 -1      1082 4.34201E-03-3.94859E-05-8.01064E-15
 -1      1083 4.61685E-03-3.80222E-05-9.02161E-15
 -1      1084 4.88755E-03-3.64662E-05-1.00837E-14
 -1      1085 5.15332E-03-3.49155E-05-1.12000E-14
 -1      1086 5.41321E-03-3.34413E-05-1.23687E-14
 -1      1087 5.66598E-03-3.21138E-05-1.35903E-14
 -1      1088 5.90992E-03-3.09916E-05-1.48657E-14
 -1      1089 1.23510E-02-7.05071E-05-4.54512E-14
 -1      1090 3.30172E-03 1.50959E-04-4.75486E-15
 -1      1091 1.32400E-02 3.26684E-05-5.27500E-14
 -1      1092 5.86980E-03 5.36030E-05-1.46632E-14
 -1      1093 1.25997E-02-7.55782E-05-4.75098E-14
 -1      1094 1.28560E-02-8.08711E-05-4.95974E-14
 -1      1095 5.36517E-03 6.07673E-05-1.21758E-14
 -1      1096 6.10884E-03 4.95519E-05-1.59837E-14
 -1      1097 5.10278E-03 6.41150E-05-1.10104E-14
 -1      1098 6.30611E-03 5.88283E-05-1.71006E-14
 -1      1099 1.28120E-02 2.12480E-05-4.93026E-14
 -1      1100 1.25551E-02 2.16442E-05-4.72084E-14
 -1      1101 1.23053E-02 2.17071E-05-4.51471E-14
 -1      1102 1.30241E-02 2.68730E-05-5.10203E-14
 -1      1103 1.19297E-02 3.79164E-05-4.20794E-14
 -1      1104 2.34634E-03-4.31362E-05-2.55821E-15
 -1      1105 3.01454E-03 1.52100E-04-4.01373E-15
 -1      1106 2.63582E-03-4.38156E-05-3.15834E-15
 -1      1107 1.20942E-02-5.46923E-05-4.32478E-14
 -1      1108 4.83508E-03 6.72736E-05-9.89834E-15
 -1      1109 2.92465E-03-4.39377E-05-3.81863E-15
 -1      1110 2.11077E-03-4.08441E-05-2.11488E-15
 -1      1111 5.62127E-03 5.72644E-05-1.33926E-14
 -1      1112 2.28813E-03 7.73839E-05-2.44054E-15
 -1      1113 4.15269E-03 1.41713E-04-7.34529E-15
 -1      1114 3.21230E-03-4.36280E-05-4.53876E-15
 -1      1115 6.18967E-03-2.61420E-05-1.64866E-14
 -1      1116 4.56289E-03 7.02019E-05-8.83809E-15
 -1      1117 2.57762E-03 7.89572E-05-3.02984E-15
 -1      1118 1.30650E-02-1.93860E-05-5.12942E-14
 -1      1119 3.72534E-03 7.69828E-05-5.98935E-15
 -1      1120 1.21160E-02 3.00691E-05-4.36010E-14
 -1      1121 3.44090E-03 7.84077E-05-5.15926E-15
 -1      1122 3.35529E-03 2.82902E-05-4.92732E-15
 -1      1123 3.92296E-03 2.72761E-05-6.61038E-15
 -1      1124 4.20282E-03 2.64951E-05-7.54155E-15
 -1      1125 1.24735E-02-2.16521E-05-4.64592E-14
 -1      1126 2.78011E-03 2.84726E-05-3.48423E-15
 -1      1127 3.06842E-03 2.85034E-05-4.17567E-15
 -1      1128 1.21521E-02-1.50641E-05-4.37520E-14
 -1      1129 3.61104E-03 1.74638E-05-5.65211E-15
 -1      1130 0.00000E+00 0.00000E+00 0.00000E+00
 -1      1131 0.00000E+00 0.00000E+00 0.00000E+00
 -1      1132 0.00000E+00 0.00000E+00 0.00000E+00
 -1      1133 0.00000E+00 0.00000E+00 0.00000E+00
 -1      1134 0.00000E+00 0.00000E+00 0.00000E+00
 -1      1135 0.00000E+00 0.00000E+00 0.00000E+00
 -1      1136 0.00000E+00 0.00000E+00 0.00000E+00
 -1      1137 0.00000E+00 0.00000E+00 0.00000E+00
 -1      1138 0.00000E+00 0.00000E+00 0.00000E+00
 -1      1139 0.00000E+00 0.00000E+00 0.00000E+00
 -1      1140 0.00000E+00 0.00000E+00 0.00000E+00
 -1      1141 0.00000E+00 0.00000E+00 0.00000E+00
 -1      1142 0.00000E+00 0.00000E+00 0.00000E+00
 -1      1143 0.00000E+00 0.00000E+00 0.00000E+00
 -1      1144 0.00000E+00 0.00000E+00 0.00000E+00
 -1      1145 0.00000E+00 0.00000E+00 0.00000E+00
 -1      1146 0.00000E+00 0.00000E+00 0.00000E+00
 -1      1147 2.11444E-04-1.48240E-04 1.04354E-17
 -1      1148 5.50977E-04-3.37250E-04-1.13841E-17
 -1      1149 8.32369E-04-4.58462E-04-9.65889E-17
 -1      1150 1.10150E-03-5.39709E-04-2.55452E-16
 -1      1151 1.36646E-03-5.96325E-04-4.85614E-16
 -1      1152 1.63084E-03-6.36158E-04-7.85383E-16
 -1      1153 1.89649E-03-6.63802E-04-1.15394E-15
 -1      1154 2.16434E-03-6.82309E-04-1.59065E-15
 -1      1155 2.43474E-03-6.93890E-04-2.09603E-15
 -1      1156 2.70782E-03-7.00185E-04-2.66986E-15
 -1      1157 2.98356E-03-7.02422E-04-3.30709E-15
 -1      1158 3.26197E-03-7.01514E-04-4.00324E-15
 -1      1159 3.54307E-03-6.98145E-04-4.75593E-15
 -1      1160 3.82702E-03-6.92852E-04-5.56761E-15
 -1      1161 4.11410E-03-6.86096E-04-6.43290E-15
 -1      1162 4.40478E-03-6.78350E-04-7.35359E-15
 -1      1163 4.69973E-03-6.70193E-04-8.33003E-15
 -1      1164 4.99982E-03-6.62426E-04-9.35671E-15
 -1      1165 5.30613E-03-6.56203E-04-1.04362E-14
 -1      1166 5.61985E-03-6.53198E-04-1.15689E-14
 -1      1167 5.94213E-03-6.55770E-04-1.27606E-14
 -1      1168 6.27381E-03-6.67107E-04-1.40114E-14
 -1      1169 6.61497E-03-6.91228E-04-1.53188E-14
 -1      1170 6.96425E-03-7.32671E-04-1.66898E-14
 -1      1171 7.31806E-03-7.95538E-04-1.81213E-14
 -1      1172 7.67003E-03-8.81595E-04-1.96091E-14
 -1      1173 8.01130E-03-9.87447E-04-2.11520E-14
 -1      1174 8.33248E-03-1.10174E-03-2.27495E-14
 -1      1175 8.62767E-03-1.20475E-03-2.44146E-14
 -1      1176 8.89893E-03-1.27284E-03-2.61469E-14
 -1      1177 9.15786E-03-1.28780E-03-2.79333E-14
 -1      1178 9.42161E-03-1.24577E-03-2.97734E-14
 -1      1179 9.70512E-03-1.15931E-03-3.16535E-14
 -1      1180 1.00148E-02-1.05091E-03-3.35708E-14
 -1      1181 1.03480E-02-9.42937E-04-3.55215E-14
 -1      1182 1.06962E-02-8.50704E-04-3.74943E-14
 -1      1183 1.10499E-02-7.80906E-04-3.94804E-14
 -1      1184 1.14016E-02-7.33694E-04-4.14908E-14
 -1      1185 1.17464E-02-7.05687E-04-4.35201E-14
 -1      1186 1.20820E-02-6.92342E-04-4.55703E-14
 -1      1187 1.24081E-02-6.89292E-04-4.76458E-14
 -1      1188 1.27251E-02-6.92910E-04-4.97716E-14
 -1      1189 1.30343E-02-7.00411E-04-5.19419E-14
 -1      1190 1.33368E-02-7.09761E-04-5.41407E-14
 -1      1191 1.36339E-02-7.19512E-04-5.63586E-14
 -1      1192 1.39267E-02-7.28647E-04-5.85803E-14
 -1      1193 1.42163E-02-7.36455E-04-6.07978E-14
 -1      1194 1.45036E-02-7.42469E-04-6.30202E-14
 -1      1195 1.47895E-02-7.46519E-04-6.52555E-14
 -1      1196 1.50679E-02-7.49012E-04-6.74618E-14
 -1      1197 2.28189E-04 1.60609E-04 1.33763E-17
 -1      1198 5.53149E-04 3.41880E-04-7.04731E-18
 -1      1199 8.33298E-04 4.60627E-04-9.27128E-17
 -1      1200 1.10240E-03 5.41392E-04-2.53093E-16
 -1      1201 1.36737E-03 5.98003E-04-4.87159E-16
 -1      1202 1.63179E-03 6.37927E-04-7.92863E-16
 -1      1203 1.89751E-03 6.65679E-04-1.17084E-15
 -1      1204 2.16539E-03 6.84307E-04-1.61816E-15
 -1      1205 2.43583E-03 6.96018E-04-2.13607E-15
 -1      1206 2.70892E-03 7.02452E-04-2.72444E-15
 -1      1207 2.98469E-03 7.04835E-04-3.38366E-15
 -1      1208 3.26310E-03 7.04081E-04-4.10598E-15
 -1      1209 3.54421E-03 7.00878E-04-4.88897E-15
 -1      1210 3.82816E-03 6.95767E-04-5.73624E-15
 -1      1211 4.11523E-03 6.89215E-04-6.65184E-15
 -1      1212 4.40586E-03 6.81707E-04-7.63532E-15
 -1      1213 4.70072E-03 6.73830E-04-8.67698E-15
 -1      1214 5.00064E-03 6.66393E-04-9.77471E-15
 -1      1215 5.30663E-03 6.60555E-04-1.09274E-14
 -1      1216 5.61978E-03 6.57975E-04-1.21324E-14
 -1      1217 5.94114E-03 6.60966E-04-1.33875E-14
 -1      1218 6.27139E-03 6.72605E-04-1.46968E-14
 -1      1219 6.61040E-03 6.96695E-04-1.60589E-14
 -1      1220 6.95664E-03 7.37411E-04-1.74690E-14
 -1      1221 7.30647E-03 7.98340E-04-1.89154E-14
 -1      1222 7.65371E-03 8.80677E-04-2.03940E-14
 -1      1223 7.99001E-03 9.80656E-04-2.19128E-14
 -1      1224 8.30682E-03 1.08718E-03-2.34699E-14
 -1      1225 8.59905E-03 1.18171E-03-2.50700E-14
 -1      1226 8.86896E-03 1.24255E-03-2.67133E-14
 -1      1227 9.12742E-03 1.25313E-03-2.83945E-14
 -1      1228 9.39028E-03 1.20991E-03-3.01138E-14
 -1      1229 9.67145E-03 1.12427E-03-3.18658E-14
 -1      1230 9.97725E-03 1.01679E-03-3.36399E-14
 -1      1231 1.03055E-02 9.08304E-04-3.54470E-14
 -1      1232 1.06488E-02 8.13458E-04-3.72964E-14
 -1      1233 1.09982E-02 7.39068E-04-3.91973E-14
 -1      1234 1.13465E-02 6.85783E-04-4.11537E-14
 -1      1235 1.16888E-02 6.50779E-04-4.31598E-14
 -1      1236 1.20227E-02 6.29948E-04-4.52142E-14
 -1      1237 1.23476E-02 6.19204E-04-4.73151E-14
 -1      1238 1.26640E-02 6.15078E-04-4.94446E-14
 -1      1239 1.29727E-02 6.14860E-04-5.16063E-14
 -1      1240 1.32749E-02 6.16543E-04-5.37755E-14
 -1      1241 1.35719E-02 6.18682E-04-5.59387E-14
 -1      1242 1.38647E-02 6.20253E-04-5.80997E-14
 -1      1243 1.41543E-02 6.20536E-04-6.02767E-14
 -1      1244 1.44416E-02 6.19056E-04-6.24759E-14
 -1      1245 1.47275E-02 6.15637E-04-6.46707E-14
 -1      1246 1.50059E-02 6.10841E-04-6.68081E-14
 -1      1247 1.51441E-02 5.66109E-04-6.78715E-14
 -1      1248 1.51497E-02 4.81621E-04-6.79233E-14
 -1      1249 1.51568E-02 3.97576E-04-6.79693E-14
 -1      1250 1.51654E-02 3.14782E-04-6.80078E-14
 -1      1251 1.51750E-02 2.33806E-04-6.80633E-14
 -1      1252 1.51845E-02 1.55511E-04-6.81321E-14
 -1      1253 1.51931E-02 7.90591E-05-6.82001E-14
 -1      1254 1.52002E-02 3.37841E-06-6.82364E-14
 -1      1255 1.52050E-02-7.15289E-05-6.82787E-14
 -1      1256 1.52075E-02-1.46437E-04-6.83227E-14
 -1      1257 1.52077E-02-2.22120E-04-6.83416E-14
 -1      1258 1.52063E-02-2.98579E-04-6.83606E-14
 -1      1259 1.52040E-02-3.76888E-04-6.83961E-14
 -1      1260 1.52018E-02-4.57883E-04-6.84170E-14
 -1      1261 1.52005E-02-5.40706E-04-6.84483E-14
 -1      1262 1.52008E-02-6.24754E-04-6.84898E-14
 -1      1263 1.52025E-02-7.08528E-04-6.85324E-14
 -1      1264 1.12842E-02 4.47858E-05-3.21869E-14
 -1      1265 1.11840E-02 1.83243E-04-3.20150E-14
 -1      1266 1.09869E-02 3.28483E-04-3.16735E-14
 -1      1267 1.07043E-02 4.77828E-04-3.11879E-14
 -1      1268 1.03635E-02 6.18301E-04-3.05921E-14
 -1      1269 9.95680E-03 7.43762E-04-2.98470E-14
 -1      1270 9.52111E-03 8.30840E-04-2.90188E-14
 -1      1271 9.09018E-03 8.61515E-04-2.81809E-14
 -1      1272 8.65031E-03 8.36510E-04-2.73327E-14
 -1      1273 8.23274E-03 7.61125E-04-2.65490E-14
 -1      1274 7.84796E-03 6.49196E-04-2.58486E-14
 -1      1275 7.50659E-03 5.16725E-04-2.52503E-14
 -1      1276 7.21744E-03 3.73672E-04-2.47591E-14
 -1      1277 6.99775E-03 2.26100E-04-2.43827E-14
 -1      1278 6.87224E-03 8.18398E-05-2.41604E-14
 -1      1279 6.85143E-03-5.46804E-05-2.41123E-14
 -1      1280 6.93122E-03-1.92635E-04-2.42260E-14
 -1      1281 7.10945E-03-3.37476E-04-2.44950E-14
 -1      1282 7.37568E-03-4.86965E-04-2.49077E-14
 -1      1283 7.72745E-03-6.38074E-04-2.54803E-14
 -1      1284 8.12700E-03-7.69467E-04-2.61768E-14
 -1      1285 8.55500E-03-8.62231E-04-2.69642E-14
 -1      1286 9.00306E-03-9.03271E-04-2.78193E-14
 -1      1287 9.45227E-03-8.82901E-04-2.86997E-14
 -1      1288 9.88692E-03-8.08339E-04-2.95511E-14
 -1      1289 1.02878E-02-6.92755E-04-3.03214E-14
 -1      1290 1.06553E-02-5.49264E-04-3.10108E-14
 -1      1291 1.09617E-02-3.93404E-04-3.15713E-14
 -1      1292 1.11787E-02-2.37586E-04-3.19654E-14
 -1      1293 1.12853E-02-9.17201E-05-3.21731E-14
 -1      1294 1.66524E-04-1.10297E-04-2.84603E-19
 -1      1295 1.12467E-04-5.69891E-05-1.36067E-17
 -1      1296 1.17523E-04-6.75843E-05-9.98821E-18
 -1      1297 1.08397E-04-4.35171E-05-1.96918E-17
 -1      1298 1.10236E-04-4.96283E-05-1.78622E-17
 -1      1299 2.26204E-04-1.07630E-04-4.18367E-17
 -1      1300 1.06851E-04-3.36316E-05-2.30664E-17
 -1      1301 1.07681E-04-3.83561E-05-2.20364E-17
 -1      1302 2.19075E-04-8.24773E-05-5.27464E-17
 -1      1303 1.06101E-04-2.53711E-05-2.54652E-17
 -1      1304 1.06517E-04-2.94043E-05-2.48824E-17
 -1      1305 2.15899E-04-6.32919E-05-5.96447E-17
 -1      1306 1.05723E-04-1.81020E-05-2.64545E-17
 -1      1307 1.05943E-04-2.16723E-05-2.62377E-17
 -1      1308 2.14302E-04-4.72000E-05-6.37917E-17
 -1      1309 1.05516E-04-1.12444E-05-2.71051E-17
 -1      1310 1.05633E-04-1.46305E-05-2.70508E-17
 -1      1311 2.13429E-04-3.27545E-05-6.60144E-17
 -1      1312 1.05424E-04-4.69125E-06-2.73626E-17
 -1      1313 1.05473E-04-7.94429E-06-2.73761E-17
 -1      1314 2.12956E-04-1.91882E-05-6.71799E-17
 -1      1315 1.05414E-04 1.74275E-06-2.72677E-17
 -1      1316 1.05412E-04-1.47002E-06-2.72677E-17
 -1      1317 2.12753E-04-6.15917E-06-6.76000E-17
 -1      1318 1.05482E-04 8.22685E-06-2.70373E-17
 -1      1319 1.05428E-04 4.96727E-06-2.70508E-17
 -1      1320 2.12761E-04 6.70756E-06-6.71934E-17
 -1      1321 1.05648E-04 1.49382E-05-2.65223E-17
 -1      1322 1.05527E-04 1.15375E-05-2.66036E-17
 -1      1323 2.12980E-04 1.97628E-05-6.63125E-17
 -1      1324 1.05963E-04 2.19631E-05-2.56685E-17
 -1      1325 1.05738E-04 1.83702E-05-2.59802E-17
 -1      1326 2.13467E-04 3.32683E-05-6.49302E-17
 -1      1327 1.06561E-04 2.98371E-05-2.39202E-17
 -1      1328 1.06136E-04 2.57581E-05-2.44352E-17
 -1      1329 2.14368E-04 4.78033E-05-6.22061E-17
 -1      1330 1.07717E-04 3.89413E-05-2.15485E-17
 -1      1331 1.06884E-04 3.41468E-05-2.25107E-17
 -1      1332 2.16016E-04 6.42247E-05-5.80726E-17
 -1      1333 1.10215E-04 5.03662E-05-1.70220E-17
 -1      1334 1.08399E-04 4.41856E-05-1.89193E-17
 -1      1335 2.19169E-04 8.37260E-05-5.14454E-17
 -1      1336 1.16839E-04 6.76199E-05-9.73071E-18
 -1      1337 1.12114E-04 5.77880E-05-1.33899E-17
 -1      1338 2.26191E-04 1.09449E-04-4.07389E-17
 -1      1339 1.57411E-04 1.09809E-04 2.50722E-18
 -1      1340 1.35529E-04 8.60723E-05-5.24483E-18
 -1      1341 2.55806E-04 1.52052E-04-2.74845E-17
 -1      1342 3.34716E-04 2.20615E-04-7.60297E-18
 -1      1343 4.21074E-04-2.61575E-04-2.17111E-17
 -1      1344 5.73985E-04-3.36526E-04-4.99411E-17
 -1      1345 7.20988E-04-3.96988E-04-9.73885E-17
 -1      1346 8.63970E-04-4.46109E-04-1.62590E-16
 -1      1347 6.11457E-04-3.30599E-04-9.45966E-17
 -1      1348 1.00381E-03-4.86964E-04-2.44813E-16
 -1      1349 1.14147E-03-5.20689E-04-3.44844E-16
 -1      1350 9.04385E-04-4.30944E-04-2.31165E-16
 -1      1351 1.27778E-03-5.49146E-04-4.62114E-16
 -1      1352 1.41325E-03-5.72808E-04-5.96935E-16
 -1      1353 1.18652E-03-4.99835E-04-4.36513E-16
 -1      1354 1.54833E-03-5.92733E-04-7.49129E-16
 -1      1355 1.68327E-03-6.09248E-04-9.18224E-16
 -1      1356 1.46319E-03-5.47852E-04-7.10749E-16
 -1      1357 1.81831E-03-6.22972E-04-1.10403E-15
 -1      1358 1.95359E-03-6.34192E-04-1.30717E-15
 -1      1359 1.73767E-03-5.81122E-04-1.05257E-15
 -1      1360 2.08922E-03-6.43296E-04-1.52715E-15
 -1      1361 2.22526E-03-6.50529E-04-1.76419E-15
 -1      1362 2.01187E-03-6.03559E-04-1.46230E-15
 -1      1363 2.36179E-03-6.56149E-04-2.01840E-15
 -1      1364 2.49881E-03-6.60357E-04-2.28883E-15
 -1      1365 2.28684E-03-6.17896E-04-1.93945E-15
 -1      1366 2.63636E-03-6.63330E-04-2.57616E-15
 -1      1367 2.77446E-03-6.65228E-04-2.87993E-15
 -1      1368 2.56315E-03-6.26119E-04-2.48267E-15
 -1      1369 2.91312E-03-6.66172E-04-3.19872E-15
 -1      1370 3.05234E-03-6.66289E-04-3.53267E-15
 -1      1371 2.84111E-03-6.29685E-04-3.08995E-15
 -1      1372 3.19215E-03-6.65659E-04-3.88068E-15
 -1      1373 3.33255E-03-6.64386E-04-4.24332E-15
 -1      1374 3.12091E-03-6.29664E-04-3.75856E-15
 -1      1375 3.47356E-03-6.62520E-04-4.62114E-15
 -1      1376 3.61520E-03-6.60151E-04-5.01307E-15
 -1      1377 3.40271E-03-6.26839E-04-4.48539E-15
 -1      1378 3.75750E-03-6.57308E-04-5.41938E-15
 -1      1379 3.90050E-03-6.54077E-04-5.83947E-15
 -1      1380 3.68670E-03-6.21792E-04-5.27074E-15
 -1      1381 4.04425E-03-6.50478E-04-6.27276E-15
 -1      1382 4.18879E-03-6.46602E-04-6.72001E-15
 -1      1383 3.97311E-03-6.14982E-04-6.11215E-15
 -1      1384 4.33420E-03-6.42471E-04-7.18129E-15
 -1      1385 4.48054E-03-6.38193E-04-7.65657E-15
 -1      1386 4.26229E-03-6.06828E-04-7.00819E-15
 -1      1387 4.62791E-03-6.33806E-04-8.14461E-15
 -1      1388 4.77638E-03-6.29447E-04-8.64586E-15
 -1      1389 4.55469E-03-5.97802E-04-7.95916E-15
 -1      1390 4.92609E-03-6.25191E-04-9.16036E-15
 -1      1391 5.07712E-03-6.21217E-04-9.68762E-15
 -1      1392 4.85090E-03-5.88532E-04-8.96351E-15
 -1      1393 5.22961E-03-6.17657E-04-1.02289E-14
 -1      1394 5.38367E-03-6.14752E-04-1.07834E-14
 -1      1395 5.15162E-03-5.79936E-04-1.00203E-14
 -1      1396 5.53943E-03-6.12721E-04-1.13505E-14
 -1      1397 5.69700E-03-6.11877E-04-1.19307E-14
 -1      1398 5.45763E-03-5.73380E-04-1.11303E-14
 -1      1399 5.85649E-03-6.12561E-04-1.25274E-14
 -1      1400 6.01796E-03-6.15169E-04-1.31401E-14
 -1      1401 5.76973E-03-5.70860E-04-1.22951E-14
 -1      1402 6.18148E-03-6.20191E-04-1.37650E-14
 -1      1403 6.34703E-03-6.28096E-04-1.44039E-14
 -1      1404 6.08857E-03-5.75191E-04-1.35176E-14
 -1      1405 6.51456E-03-6.39531E-04-1.50601E-14
 -1      1406 6.68390E-03-6.54991E-04-1.57294E-14
 -1      1407 6.41445E-03-5.90130E-04-1.47995E-14
 -1      1408 6.85484E-03-6.75222E-04-1.64143E-14
 -1      1409 7.02700E-03-7.00633E-04-1.71154E-14
 -1      1410 6.74705E-03-6.20297E-04-1.61402E-14
 -1      1411 7.19992E-03-7.31885E-04-1.78300E-14
 -1      1412 7.37297E-03-7.69095E-04-1.85590E-14
 -1      1413 7.08501E-03-6.70627E-04-1.75395E-14
 -1      1414 7.54544E-03-8.12477E-04-1.93021E-14
 -1      1415 7.71647E-03-8.61523E-04-2.00594E-14
 -1      1416 7.42561E-03-7.44987E-04-1.89958E-14
 -1      1417 7.88519E-03-9.15513E-04-2.08299E-14
 -1      1418 8.05071E-03-9.72994E-04-2.16139E-14
 -1      1419 7.76461E-03-8.43624E-04-2.05085E-14
 -1      1420 8.21228E-03-1.03191E-03-2.24133E-14
 -1      1421 8.36933E-03-1.08976E-03-2.32275E-14
 -1      1422 8.09670E-03-9.59803E-04-2.20770E-14
 -1      1423 8.52160E-03-1.14333E-03-2.40586E-14
 -1      1424 8.66929E-03-1.18957E-03-2.49059E-14
 -1      1425 8.41698E-03-1.07723E-03-2.37046E-14
 -1      1426 8.81298E-03-1.22519E-03-2.57688E-14
 -1      1427 8.95381E-03-1.24781E-03-2.66460E-14
 -1      1428 8.72345E-03-1.17142E-03-2.53935E-14
 -1      1429 9.09306E-03-1.25562E-03-2.75377E-14
 -1      1430 9.23246E-03-1.24812E-03-2.84425E-14
 -1      1431 9.01941E-03-1.21757E-03-2.71440E-14
 -1      1432 9.37345E-03-1.22603E-03-2.93587E-14
 -1      1433 9.51752E-03-1.19098E-03-3.02858E-14
 -1      1434 9.31315E-03-1.20221E-03-2.89467E-14
 -1      1435 9.66560E-03-1.14580E-03-3.12245E-14
 -1      1436 9.81832E-03-1.09340E-03-3.21721E-14
 -1      1437 9.61409E-03-1.13068E-03-3.07977E-14
 -1      1438 9.97579E-03-1.03723E-03-3.31281E-14
 -1      1439 1.01377E-02-9.80120E-04-3.40919E-14
 -1      1440 9.92806E-03-1.02409E-03-3.26871E-14
 -1      1441 1.03036E-02-9.24730E-04-3.50631E-14
 -1      1442 1.04725E-02-8.73003E-04-3.60424E-14
 -1      1443 1.02552E-02-9.08388E-04-3.46094E-14
 -1      1444 1.06436E-02-8.26231E-04-3.70254E-14
 -1      1445 1.08161E-02-7.85312E-04-3.80118E-14
 -1      1446 1.05917E-02-8.04088E-04-3.65597E-14
 -1      1447 1.09891E-02-7.50386E-04-3.90038E-14
 -1      1448 1.11618E-02-7.21568E-04-4.00013E-14
 -1      1449 1.09321E-02-7.22059E-04-3.85282E-14
 -1      1450 1.13338E-02-6.98341E-04-4.10045E-14
 -1      1451 1.15045E-02-6.80391E-04-4.20142E-14
 -1      1452 1.12715E-02-6.64748E-04-4.05208E-14
 -1      1453 1.16735E-02-6.66973E-04-4.30277E-14
 -1      1454 1.18407E-02-6.57608E-04-4.40444E-14
 -1      1455 1.16065E-02-6.29505E-04-4.25352E-14
 -1      1456 1.20059E-02-6.51585E-04-4.50701E-14
 -1      1457 1.21691E-02-6.48411E-04-4.61018E-14
 -1      1458 1.19353E-02-6.11610E-04-4.45707E-14
 -1      1459 1.23302E-02-6.47515E-04-4.71395E-14
 -1      1460 1.24894E-02-6.48460E-04-4.81879E-14
 -1      1461 1.22571E-02-6.06149E-04-4.66321E-14
 -1      1462 1.26466E-02-6.50832E-04-4.92506E-14
 -1      1463 1.28021E-02-6.54274E-04-5.03253E-14
 -1      1464 1.25720E-02-6.08897E-04-4.87316E-14
 -1      1465 1.29558E-02-6.58505E-04-5.14066E-14
 -1      1466 1.31081E-02-6.63247E-04-5.24952E-14
 -1      1467 1.28804E-02-6.16558E-04-5.08728E-14
 -1      1468 1.32589E-02-6.68318E-04-5.35913E-14
 -1      1469 1.34085E-02-6.73507E-04-5.46926E-14
 -1      1470 1.31834E-02-6.26715E-04-5.30457E-14
 -1      1471 1.35569E-02-6.78701E-04-5.57987E-14
 -1      1472 1.37043E-02-6.83741E-04-5.69071E-14
 -1      1473 1.34816E-02-6.37657E-04-5.52425E-14
 -1      1474 1.38508E-02-6.88557E-04-5.80157E-14
 -1      1475 1.39965E-02-6.93032E-04-5.91225E-14
 -1      1476 1.37761E-02-6.48193E-04-5.74533E-14
 -1      1477 1.41415E-02-6.97122E-04-6.02310E-14
 -1      1478 1.42860E-02-7.00745E-04-6.13410E-14
 -1      1479 1.40674E-02-6.57501E-04-5.96667E-14
 -1      1480 1.44299E-02-7.03881E-04-6.24560E-14
 -1      1481 1.45734E-02-7.06480E-04-6.35699E-14
 -1      1482 1.43565E-02-6.65016E-04-6.18872E-14
 -1      1483 1.47167E-02-7.08568E-04-6.46868E-14
 -1      1484 1.48597E-02-7.10157E-04-6.58106E-14
 -1      1485 1.46439E-02-6.70414E-04-6.41177E-14
 -1      1486 1.50668E-02-7.07585E-04-6.74492E-14
 -1      1487 1.49944E-02-6.69965E-04-6.68706E-14
 -1      1488 6.42330E-04 3.71677E-04-5.99970E-17
 -1      1489 4.92394E-04 3.03475E-04-2.46385E-17
 -1      1490 4.44420E-04 2.65727E-04-3.92481E-17
 -1      1491 9.27534E-04 4.71294E-04-1.85886E-16
 -1      1492 7.86862E-04 4.25996E-04-1.13990E-16
 -1      1493 7.43952E-04 3.90280E-04-1.31378E-16
 -1      1494 1.20204E-03 5.40194E-04-3.84241E-16
 -1      1495 1.06557E-03 5.08799E-04-2.75740E-16
 -1      1496 1.02968E-03 4.75299E-04-2.95228E-16
 -1      1497 1.47222E-03 5.88652E-04-6.54343E-16
 -1      1498 1.33735E-03 5.66593E-04-5.10415E-16
 -1      1499 1.30728E-03 5.34508E-04-5.30121E-16
 -1      1500 1.74142E-03 6.22537E-04-9.95108E-16
 -1      1501 1.60677E-03 6.07179E-04-8.15862E-16
 -1      1502 1.58124E-03 5.75937E-04-8.35446E-16
 -1      1503 2.01138E-03 6.45653E-04-1.40706E-15
 -1      1504 1.87622E-03 6.35273E-04-1.19235E-15
 -1      1505 1.85420E-03 6.04501E-04-1.21095E-15
 -1      1506 2.28295E-03 6.60671E-04-1.88808E-15
 -1      1507 2.14692E-03 6.54047E-04-1.63881E-15
 -1      1508 2.12762E-03 6.23514E-04-1.65621E-15
 -1      1509 2.55655E-03 6.69552E-04-2.43920E-15
 -1      1510 2.41948E-03 6.65782E-04-2.15488E-15
 -1      1511 2.40229E-03 6.35341E-04-2.17086E-15
 -1      1512 2.83238E-03 6.73749E-04-3.06015E-15
 -1      1513 2.69418E-03 6.72162E-04-2.74103E-15
 -1      1514 2.67861E-03 6.41721E-04-2.75448E-15
 -1      1515 3.11052E-03 6.74340E-04-3.74821E-15
 -1      1516 2.97116E-03 6.74438E-04-3.39615E-15
 -1      1517 2.95681E-03 6.43933E-04-3.40641E-15
 -1      1518 3.39105E-03 6.72123E-04-4.49863E-15
 -1      1519 3.25048E-03 6.73536E-04-4.11564E-15
 -1      1520 3.23704E-03 6.42921E-04-4.12299E-15
 -1      1521 3.67410E-03 6.67700E-04-5.31176E-15
 -1      1522 3.53225E-03 6.70147E-04-4.89712E-15
 -1      1523 3.51944E-03 6.39378E-04-4.90263E-15
 -1      1524 3.95989E-03 6.61556E-04-6.18963E-15
 -1      1525 3.81664E-03 6.64804E-04-5.74286E-15
 -1      1526 3.80420E-03 6.33836E-04-5.74557E-15
 -1      1527 4.24877E-03 6.54138E-04-7.13470E-15
 -1      1528 4.10392E-03 6.57962E-04-6.65360E-15
 -1      1529 4.09161E-03 6.26740E-04-6.65302E-15
 -1      1530 4.54125E-03 6.45946E-04-8.14244E-15
 -1      1531 4.39453E-03 6.50084E-04-7.63098E-15
 -1      1532 4.38203E-03 6.18533E-04-7.62475E-15
 -1      1533 4.83798E-03 6.37633E-04-9.20723E-15
 -1      1534 4.68904E-03 6.41731E-04-8.66779E-15
 -1      1535 4.67600E-03 6.09756E-04-8.65650E-15
 -1      1536 5.13976E-03 6.30132E-04-1.03280E-14
 -1      1537 4.98818E-03 6.33682E-04-9.76077E-15
 -1      1538 4.97415E-03 6.01156E-04-9.74542E-15
 -1      1539 5.44750E-03 6.24799E-04-1.15026E-14
 -1      1540 5.29283E-03 6.27062E-04-1.09085E-14
 -1      1541 5.27722E-03 5.93828E-04-1.08883E-14
 -1      1542 5.76210E-03 6.23573E-04-1.27299E-14
 -1      1543 5.60389E-03 6.23501E-04-1.21099E-14
 -1      1544 5.58598E-03 5.89371E-04-1.20856E-14
 -1      1545 6.08427E-03 6.29132E-04-1.40072E-14
 -1      1546 5.92220E-03 6.25295E-04-1.33618E-14
 -1      1547 5.90115E-03 5.90059E-04-1.33345E-14
 -1      1548 6.41423E-03 6.44968E-04-1.53406E-14
 -1      1549 6.24827E-03 6.35532E-04-1.46672E-14
 -1      1550 6.22318E-03 5.98980E-04-1.46359E-14
 -1      1551 6.75130E-03 6.75253E-04-1.67207E-14
 -1      1552 6.58195E-03 6.58086E-04-1.60247E-14
 -1      1553 6.55198E-03 6.20052E-04-1.59889E-14
 -1      1554 7.09339E-03 7.24266E-04-1.81460E-14
 -1      1555 6.92190E-03 6.97290E-04-1.74283E-14
 -1      1556 6.88659E-03 6.57735E-04-1.73878E-14
 -1      1557 7.43660E-03 7.95063E-04-1.96063E-14
 -1      1558 7.26517E-03 7.57021E-04-1.88720E-14
 -1      1559 7.22479E-03 7.16153E-04-1.88267E-14
 -1      1560 7.77518E-03 8.87218E-04-2.11027E-14
 -1      1561 7.60690E-03 8.38905E-04-2.03496E-14
 -1      1562 7.56288E-03 7.97324E-04-2.03033E-14
 -1      1563 8.10241E-03 9.93976E-04-2.26400E-14
 -1      1564 7.94067E-03 9.39663E-04-2.18664E-14
 -1      1565 7.89586E-03 8.98459E-04-2.18188E-14
 -1      1566 8.41273E-03 1.10036E-03-2.42174E-14
 -1      1567 8.25997E-03 1.04850E-03-2.34234E-14
 -1      1568 8.21845E-03 1.00913E-03-2.33748E-14
 -1      1569 8.70464E-03 1.18478E-03-2.58375E-14
 -1      1570 8.56088E-03 1.14665E-03-2.50212E-14
 -1      1571 8.52712E-03 1.11048E-03-2.49718E-14
 -1      1572 8.98290E-03 1.22565E-03-2.74979E-14
 -1      1573 8.84491E-03 1.21149E-03-2.66626E-14
 -1      1574 8.82246E-03 1.17909E-03-2.66101E-14
 -1      1575 9.25783E-03 1.21092E-03-2.91962E-14
 -1      1576 9.11996E-03 1.22513E-03-2.83421E-14
 -1      1577 9.11031E-03 1.19579E-03-2.82887E-14
 -1      1578 9.54121E-03 1.14431E-03-3.09307E-14
 -1      1579 9.39775E-03 1.18308E-03-3.00592E-14
 -1      1580 9.39992E-03 1.15512E-03-3.00037E-14
 -1      1581 9.84120E-03 1.04328E-03-3.26938E-14
 -1      1582 9.68882E-03 1.09663E-03-3.18097E-14
 -1      1583 9.69969E-03 1.06825E-03-3.17533E-14
 -1      1584 1.01596E-02 9.30635E-04-3.44863E-14
 -1      1585 9.99821E-03 9.87111E-04-3.35854E-14
 -1      1586 1.00136E-02 9.57135E-04-3.35287E-14
 -1      1587 1.04927E-02 8.25455E-04-3.63158E-14
 -1      1588 1.03247E-02 8.76305E-04-3.53954E-14
 -1      1589 1.03404E-02 8.44427E-04-3.53407E-14
 -1      1590 1.08341E-02 7.38901E-04-3.81897E-14
 -1      1591 1.06628E-02 7.79562E-04-3.72474E-14
 -1      1592 1.06758E-02 7.46078E-04-3.71943E-14
 -1      1593 1.11772E-02 6.74463E-04-4.01143E-14
 -1      1594 1.10058E-02 7.03984E-04-3.91461E-14
 -1      1595 1.10143E-02 6.69449E-04-3.90923E-14
 -1      1596 1.15171E-02 6.30607E-04-4.20922E-14
 -1      1597 1.13478E-02 6.50202E-04-4.10971E-14
 -1      1598 1.13513E-02 6.15177E-04-4.10392E-14
 -1      1599 1.18509E-02 6.03458E-04-4.41147E-14
 -1      1600 1.16849E-02 6.15228E-04-4.30965E-14
 -1      1601 1.16838E-02 5.80163E-04-4.30319E-14
 -1      1602 1.21770E-02 5.88631E-04-4.61866E-14
 -1      1603 1.20149E-02 5.94766E-04-4.51447E-14
 -1      1604 1.20099E-02 5.59965E-04-4.50748E-14
 -1      1605 1.24953E-02 5.82177E-04-4.83003E-14
 -1      1606 1.23371E-02 5.84571E-04-4.72385E-14
 -1      1607 1.23292E-02 5.50211E-04-4.71631E-14
 -1      1608 1.28064E-02 5.80914E-04-5.04413E-14
 -1      1609 1.26517E-02 5.81059E-04-4.93669E-14
 -1      1610 1.26417E-02 5.47218E-04-4.92877E-14
 -1      1611 1.31111E-02 5.82448E-04-5.26053E-14
 -1      1612 1.29595E-02 5.81451E-04-5.15220E-14
 -1      1613 1.29481E-02 5.48142E-04-5.14396E-14
 -1      1614 1.34104E-02 5.85045E-04-5.47718E-14
 -1      1615 1.32613E-02 5.83699E-04-5.36901E-14
 -1      1616 1.32493E-02 5.50898E-04-5.36032E-14
 -1      1617 1.37053E-02 5.87478E-04-5.69361E-14
 -1      1618 1.35584E-02 5.86342E-04-5.58552E-14
 -1      1619 1.35460E-02 5.54003E-04-5.57702E-14
 -1      1620 1.39968E-02 5.88883E-04-5.91049E-14
 -1      1621 1.38515E-02 5.88349E-04-5.80197E-14
 -1      1622 1.38391E-02 5.56418E-04-5.79362E-14
 -1      1623 1.42857E-02 5.88662E-04-6.12938E-14
 -1      1624 1.41415E-02 5.88999E-04-6.01953E-14
 -1      1625 1.41295E-02 5.57419E-04-6.01149E-14
 -1      1626 1.45728E-02 5.86461E-04-6.34878E-14
 -1      1627 1.44294E-02 5.87815E-04-6.23893E-14
 -1      1628 1.44177E-02 5.56524E-04-6.23058E-14
 -1      1629 1.48589E-02 5.82293E-04-6.56822E-14
 -1      1630 1.47159E-02 5.84594E-04-6.45867E-14
 -1      1631 1.47045E-02 5.53519E-04-6.45009E-14
 -1      1632 1.50084E-02 5.68699E-04-6.68310E-14
 -1      1633 1.50276E-02 4.63320E-04-6.69840E-14
 -1      1634 1.50245E-02 5.05294E-04-6.69600E-14
 -1      1635 1.50352E-02 3.80019E-04-6.70259E-14
 -1      1636 1.50312E-02 4.21536E-04-6.70073E-14
 -1      1637 1.49057E-02 4.44914E-04-6.60441E-14
 -1      1638 1.50444E-02 2.98012E-04-6.70705E-14
 -1      1639 1.50396E-02 3.38827E-04-6.70468E-14
 -1      1640 1.49139E-02 3.62148E-04-6.60858E-14
 -1      1641 1.50543E-02 2.17625E-04-6.71210E-14
 -1      1642 1.50493E-02 2.57604E-04-6.70959E-14
 -1      1643 1.49236E-02 2.80700E-04-6.61279E-14
 -1      1644 1.50639E-02 1.40247E-04-6.71816E-14
 -1      1645 1.50592E-02 1.78737E-04-6.71498E-14
 -1      1646 1.49337E-02 2.01417E-04-6.61752E-14
 -1      1647 1.50725E-02 6.30118E-05-6.72332E-14
 -1      1648 1.50684E-02 1.01463E-04-6.72108E-14
 -1      1649 1.49433E-02 1.23568E-04-6.62259E-14
 -1      1650 1.50791E-02-1.31540E-05-6.72706E-14
 -1      1651 1.50761E-02 2.48273E-05-6.72521E-14
 -1      1652 1.49517E-02 4.62704E-05-6.62690E-14
 -1      1653 1.50834E-02-8.88320E-05-6.73143E-14
 -1      1654 1.50816E-02-5.10155E-05-6.72921E-14
 -1      1655 1.49578E-02-3.02169E-05-6.63068E-14
 -1      1656 1.50852E-02-1.64675E-04-6.73473E-14
 -1      1657 1.50846E-02-1.26694E-04-6.73322E-14
 -1      1658 1.49615E-02-1.06420E-04-6.63454E-14
 -1      1659 1.50848E-02-2.41313E-04-6.73706E-14
 -1      1660 1.50852E-02-2.02860E-04-6.73607E-14
 -1      1661 1.49626E-02-1.82906E-04-6.63768E-14
 -1      1662 1.50828E-02-3.17925E-04-6.73965E-14
 -1      1663 1.50839E-02-2.79438E-04-6.73823E-14
 -1      1664 1.49616E-02-2.59544E-04-6.64034E-14
 -1      1665 1.50802E-02-3.97469E-04-6.74263E-14
 -1      1666 1.50815E-02-3.57484E-04-6.74134E-14
 -1      1667 1.49592E-02-3.37382E-04-6.64310E-14
 -1      1668 1.50778E-02-4.78705E-04-6.74504E-14
 -1      1669 1.50789E-02-4.37883E-04-6.74389E-14
 -1      1670 1.49563E-02-4.17343E-04-6.64578E-14
 -1      1671 1.50767E-02-5.61427E-04-6.74846E-14
 -1      1672 1.50771E-02-5.19906E-04-6.74663E-14
 -1      1673 1.49539E-02-4.98801E-04-6.64862E-14
 -1      1674 1.50355E-02-6.36586E-04-6.71885E-14
 -1      1675 1.50351E-02-5.94675E-04-6.71692E-14
 -1      1676 1.49114E-02-5.72976E-04-6.61864E-14
 -1      1677 1.48283E-02-6.39112E-04-6.55561E-14
 -1      1678 1.12801E-02 4.32377E-05-3.25116E-14
 -1      1679 1.13087E-02 9.34303E-07-3.25523E-14
 -1      1680 1.11330E-02 1.48737E-04-3.22844E-14
 -1      1681 1.12155E-02 9.75417E-05-3.24131E-14
 -1      1682 1.08735E-02 2.72477E-04-3.19208E-14
 -1      1683 1.10038E-02 2.08145E-04-3.21307E-14
 -1      1684 1.05416E-02 4.38678E-04-3.13307E-14
 -1      1685 1.07035E-02 3.61076E-04-3.16086E-14
 -1      1686 1.01826E-02 6.10054E-04-3.06369E-14
 -1      1687 1.03513E-02 5.33163E-04-3.09576E-14
 -1      1688 9.75483E-03 7.75783E-04-2.98008E-14
 -1      1689 9.95095E-03 6.98240E-04-3.02291E-14
 -1      1690 9.38203E-03 8.79006E-04-2.88898E-14
 -1      1691 9.55062E-03 8.41481E-04-2.92864E-14
 -1      1692 8.99763E-03 9.08069E-04-2.79649E-14
 -1      1693 9.17639E-03 9.05655E-04-2.84010E-14
 -1      1694 8.61630E-03 8.51732E-04-2.70627E-14
 -1      1695 8.79007E-03 8.87624E-04-2.74671E-14
 -1      1696 8.23137E-03 7.28931E-04-2.62410E-14
 -1      1697 8.40718E-03 7.92071E-04-2.66128E-14
 -1      1698 7.86093E-03 5.72733E-04-2.55135E-14
 -1      1699 8.02989E-03 6.47369E-04-2.58347E-14
 -1      1700 7.51093E-03 4.10159E-04-2.48984E-14
 -1      1701 7.66918E-03 4.84970E-04-2.51669E-14
 -1      1702 7.20181E-03 2.60269E-04-2.44014E-14
 -1      1703 7.33774E-03 3.27213E-04-2.46155E-14
 -1      1704 6.96729E-03 1.25858E-04-2.39963E-14
 -1      1705 7.06622E-03 1.80335E-04-2.41476E-14
 -1      1706 6.84377E-03 2.77527E-05-2.38209E-14
 -1      1707 6.88457E-03 7.11462E-05-2.38871E-14
 -1      1708 6.84740E-03-6.18802E-05-2.38279E-14
 -1      1709 6.83088E-03-2.08132E-05-2.38124E-14
 -1      1710 6.97248E-03-1.64056E-04-2.39836E-14
 -1      1711 6.89923E-03-1.14320E-04-2.38905E-14
 -1      1712 7.20582E-03-2.90802E-04-2.43027E-14
 -1      1713 7.08580E-03-2.28880E-04-2.41360E-14
 -1      1714 7.52564E-03-4.48144E-04-2.47788E-14
 -1      1715 7.36819E-03-3.71684E-04-2.45402E-14
 -1      1716 7.93568E-03-6.20461E-04-2.53803E-14
 -1      1717 7.74929E-03-5.31489E-04-2.50508E-14
 -1      1718 8.30879E-03-7.92812E-04-2.62020E-14
 -1      1719 8.13155E-03-7.22910E-04-2.58446E-14
 -1      1720 8.71101E-03-9.10726E-04-2.70860E-14
 -1      1721 8.52221E-03-8.63104E-04-2.66606E-14
 -1      1722 9.10093E-03-9.49938E-04-2.80104E-14
 -1      1723 8.92424E-03-9.42742E-04-2.75844E-14
 -1      1724 9.49328E-03-9.02413E-04-2.89850E-14
 -1      1725 9.31042E-03-9.37679E-04-2.85342E-14
 -1      1726 9.89054E-03-7.78784E-04-2.98752E-14
 -1      1727 9.71307E-03-8.41588E-04-2.94763E-14
 -1      1728 1.02748E-02-6.12426E-04-3.07144E-14
 -1      1729 1.00952E-02-6.92790E-04-3.03436E-14
 -1      1730 1.06592E-02-4.38511E-04-3.14236E-14
 -1      1731 1.04875E-02-5.20250E-04-3.11052E-14
 -1      1732 1.09844E-02-2.78831E-04-3.19900E-14
 -1      1733 1.08431E-02-3.49257E-04-3.17504E-14
 -1      1734 1.12123E-02-1.42879E-04-3.24209E-14
 -1      1735 1.11198E-02-1.97246E-04-3.22696E-14
 -1      1736 1.13094E-02-4.85682E-05-3.25476E-14
 -1      1737 1.12815E-02-9.15328E-05-3.24942E-14
 -1      1738 1.03906E-02 4.41983E-04-3.13900E-14
 -1      1739 1.07479E-02 2.61180E-04-3.20798E-14
 -1      1740 1.49972E-02 5.37704E-04-6.67485E-14
 -1      1741 1.48748E-02 5.18955E-04-6.58096E-14
 -1      1742 1.12499E-02 4.18754E-05-3.28017E-14
 -1      1743 1.10510E-02 1.29693E-04-3.25490E-14
 -1      1744 1.13184E-02-2.45135E-05-3.28958E-14
 -1      1745 9.99299E-03 6.37410E-04-3.06042E-14
 -1      1746 9.61269E-03 8.13801E-04-2.96761E-14
 -1      1747 9.25509E-03 9.16631E-04-2.86722E-14
 -1      1748 8.91137E-03 9.23018E-04-2.76874E-14
 -1      1749 8.55935E-03 8.31591E-04-2.67428E-14
 -1      1750 8.19281E-03 6.74072E-04-2.58912E-14
 -1      1751 7.82461E-03 4.90907E-04-2.51439E-14
 -1      1752 7.46771E-03 3.16635E-04-2.45214E-14
 -1      1753 7.15414E-03 1.67000E-04-2.39902E-14
 -1      1754 6.92732E-03 6.47716E-05-2.36331E-14
 -1      1755 6.82840E-03-1.42647E-06-2.35174E-14
 -1      1756 6.86904E-03-6.53848E-05-2.35686E-14
 -1      1757 7.04050E-03-1.51067E-04-2.37771E-14
 -1      1758 7.32239E-03-2.77845E-04-2.41600E-14
 -1      1759 7.70007E-03-4.44294E-04-2.46651E-14
 -1      1760 8.09203E-03-6.46071E-04-2.53948E-14
 -1      1761 8.47024E-03-8.32669E-04-2.63149E-14
 -1      1762 8.83915E-03-9.48608E-04-2.72713E-14
 -1      1763 9.19826E-03-9.69622E-04-2.82945E-14
 -1      1764 9.55359E-03-8.84212E-04-2.93134E-14
 -1      1765 9.93358E-03-7.21843E-04-3.02778E-14
 -1      1766 1.03221E-02-5.27612E-04-3.11414E-14
 -1      1767 1.07097E-02-3.41836E-04-3.18627E-14
 -1      1768 1.10349E-02-1.86969E-04-3.24698E-14
 -1      1769 1.12480E-02-9.01702E-05-3.28205E-14
 -1      1770 2.84948E-04-1.76158E-04-2.15350E-17
 -1      1771 3.32169E-04-1.16738E-04-8.45813E-17
 -1      1772 3.36244E-04-1.32978E-04-7.85098E-17
 -1      1773 3.42054E-04-1.51958E-04-7.09610E-17
 -1      1774 3.51530E-04-1.73943E-04-6.07018E-17
 -1      1775 4.58174E-04-1.87949E-04-1.13543E-16
 -1      1776 3.24728E-04-6.53415E-05-9.85540E-17
 -1      1777 3.25830E-04-7.66410E-05-9.64804E-17
 -1      1778 3.23286E-04-4.38544E-05-1.01495E-16
 -1      1779 3.23916E-04-5.43405E-05-1.00167E-16
 -1      1780 4.36746E-04-7.91908E-05-1.46882E-16
 -1      1781 3.22534E-04-2.37493E-05-1.02796E-16
 -1      1782 3.22852E-04-3.36554E-05-1.02173E-16
 -1      1783 4.34807E-04-5.12454E-05-1.50230E-16
 -1      1784 3.22254E-04-4.33262E-06-1.03067E-16
 -1      1785 3.22346E-04-1.39755E-05-1.03148E-16
 -1      1786 4.33822E-04-2.48856E-05-1.51829E-16
 -1      1787 3.22371E-04 1.49666E-05-1.02457E-16
 -1      1788 3.22262E-04 5.31352E-06-1.02945E-16
 -1      1789 4.33536E-04 7.56595E-07-1.52032E-16
 -1      1790 3.22913E-04 3.47005E-05-1.00871E-16
 -1      1791 3.22576E-04 2.47616E-05-1.01766E-16
 -1      1792 4.33880E-04 2.64279E-05-1.50853E-16
 -1      1793 3.23998E-04 5.51293E-05-9.84591E-17
 -1      1794 3.23360E-04 4.47702E-05-9.98279E-17
 -1      1795 4.34919E-04 5.26511E-05-1.48346E-16
 -1      1796 3.25987E-04 7.77781E-05-9.40681E-17
 -1      1797 3.24826E-04 6.61979E-05-9.66431E-17
 -1      1798 4.36909E-04 8.05082E-05-1.44321E-16
 -1      1799 3.29581E-04 1.03616E-04-8.73867E-17
 -1      1800 3.27483E-04 9.02661E-05-9.10730E-17
 -1      1801 4.40459E-04 1.11464E-04-1.37748E-16
 -1      1802 3.36491E-04 1.35067E-04-7.62601E-17
 -1      1803 3.32374E-04 1.18574E-04-8.26975E-17
 -1      1804 4.46793E-04 1.47223E-04-1.27272E-16
 -1      1805 3.52066E-04 1.77532E-04-5.86147E-17
 -1      1806 3.42650E-04 1.54705E-04-6.83996E-17
 -1      1807 4.59150E-04 1.91326E-04-1.10521E-16
 -1      1808 4.07316E-04 2.33552E-04-4.69053E-17
 -1      1809 3.77788E-04 2.02564E-04-5.50097E-17
 -1      1810 4.95510E-04 2.43818E-04-9.57622E-17
 -1      1811 5.58020E-04 3.02256E-04-8.45678E-17
 -1      1812 3.39720E-04-1.90826E-04-4.17282E-17
 -1      1813 8.52760E-04 4.06532E-04-2.14116E-16
 -1      1814 7.06495E-04 3.58978E-04-1.40607E-16
 -1      1815 6.72848E-04 3.28454E-04-1.47750E-16
 -1      1816 4.58592E-04-2.36564E-04-7.79541E-17
 -1      1817 8.06559E-04-3.73594E-04-2.14916E-16
 -1      1818 9.51709E-04-4.14559E-04-3.03509E-16
 -1      1819 1.09444E-03-4.48979E-04-4.08771E-16
 -1      1820 1.23600E-03-4.77552E-04-5.31096E-16
 -1      1821 1.00329E-03-3.97079E-04-3.79078E-16
 -1      1822 1.37632E-03-5.01651E-04-6.70457E-16
 -1      1823 1.51593E-03-5.21573E-04-8.26745E-16
 -1      1824 1.28884E-03-4.54392E-04-6.28810E-16
 -1      1825 1.65503E-03-5.38227E-04-9.99824E-16
 -1      1826 1.79384E-03-5.51844E-04-1.18953E-15
 -1      1827 1.57116E-03-4.94433E-04-9.45194E-16
 -1      1828 1.93255E-03-5.63019E-04-1.39575E-15
 -1      1829 2.07123E-03-5.71950E-04-1.61917E-15
 -1      1830 1.85177E-03-5.21754E-04-1.32842E-15
 -1      1831 2.21005E-03-5.79039E-04-1.85943E-15
 -1      1832 2.34902E-03-5.84451E-04-2.11577E-15
 -1      1833 2.13178E-03-5.39612E-04-1.77817E-15
 -1      1834 2.48825E-03-5.88463E-04-2.38828E-15
 -1      1835 2.62774E-03-5.91209E-04-2.67679E-15
 -1      1836 2.41195E-03-5.50371E-04-2.29337E-15
 -1      1837 2.76757E-03-5.92883E-04-2.98103E-15
 -1      1838 2.90773E-03-5.93591E-04-3.30112E-15
 -1      1839 2.69274E-03-5.55764E-04-2.87193E-15
 -1      1840 3.04829E-03-5.93465E-04-3.63587E-15
 -1      1841 3.18923E-03-5.92591E-04-3.98492E-15
 -1      1842 2.97448E-03-5.57055E-04-3.51268E-15
 -1      1843 3.33060E-03-5.91056E-04-4.34918E-15
 -1      1844 3.47241E-03-5.88933E-04-4.72823E-15
 -1      1845 3.25740E-03-5.55163E-04-4.21291E-15
 -1      1846 3.61470E-03-5.86277E-04-5.12197E-15
 -1      1847 3.75749E-03-5.83153E-04-5.52942E-15
 -1      1848 3.54171E-03-5.50754E-04-4.97229E-15
 -1      1849 3.90081E-03-5.79600E-04-5.95041E-15
 -1      1850 4.04471E-03-5.75681E-04-6.38554E-15
 -1      1851 3.82759E-03-5.44321E-04-5.78866E-15
 -1      1852 4.18922E-03-5.71434E-04-6.83451E-15
 -1      1853 4.33441E-03-5.66928E-04-7.29684E-15
 -1      1854 4.11531E-03-5.36272E-04-6.65985E-15
 -1      1855 4.48030E-03-5.62212E-04-7.77327E-15
 -1      1856 4.62700E-03-5.57374E-04-8.26280E-15
 -1      1857 4.40514E-03-5.27010E-04-7.58622E-15
 -1      1858 4.77453E-03-5.52493E-04-8.76611E-15
 -1      1859 4.92301E-03-5.47688E-04-9.28207E-15
 -1      1860 4.69746E-03-5.17032E-04-8.56766E-15
 -1      1861 5.07246E-03-5.43090E-04-9.81122E-15
 -1      1862 5.22305E-03-5.38862E-04-1.03537E-14
 -1      1863 4.99273E-03-5.07052E-04-9.60150E-15
 -1      1864 5.37476E-03-5.35217E-04-1.09101E-14
 -1      1865 5.52779E-03-5.32378E-04-1.14788E-14
 -1      1866 5.29147E-03-4.98137E-04-1.06881E-14
 -1      1867 5.68211E-03-5.30672E-04-1.20624E-14
 -1      1868 5.83791E-03-5.30400E-04-1.26600E-14
 -1      1869 5.59430E-03-4.91881E-04-1.18300E-14
 -1      1870 5.99518E-03-5.32031E-04-1.32716E-14
 -1      1871 6.15402E-03-5.35960E-04-1.38982E-14
 -1      1872 5.90186E-03-4.90597E-04-1.30257E-14
 -1      1873 6.31448E-03-5.42805E-04-1.45390E-14
 -1      1874 6.47650E-03-5.53061E-04-1.51957E-14
 -1      1875 6.21487E-03-4.97499E-04-1.42801E-14
 -1      1876 6.64022E-03-5.67457E-04-1.58660E-14
 -1      1877 6.80530E-03-5.86551E-04-1.65501E-14
 -1      1878 6.53399E-03-5.16791E-04-1.55913E-14
 -1      1879 6.97203E-03-6.11050E-04-1.72495E-14
 -1      1880 7.13966E-03-6.41460E-04-1.79628E-14
 -1      1881 6.85973E-03-5.53501E-04-1.69612E-14
 -1      1882 7.30864E-03-6.78189E-04-1.86908E-14
 -1      1883 7.47772E-03-7.21428E-04-1.94327E-14
 -1      1884 7.19212E-03-6.12751E-04-1.83871E-14
 -1      1885 7.64745E-03-7.70874E-04-2.01893E-14
 -1      1886 7.81615E-03-8.25896E-04-2.09583E-14
 -1      1887 7.53018E-03-6.98066E-04-1.98698E-14
 -1      1888 7.98425E-03-8.85019E-04-2.17414E-14
 -1      1889 8.15016E-03-9.46381E-04-2.25394E-14
 -1      1890 7.87095E-03-8.08182E-04-2.14075E-14
 -1      1891 8.31393E-03-1.00716E-03-2.33516E-14
 -1      1892 8.47483E-03-1.06407E-03-2.41791E-14
 -1      1893 8.20928E-03-9.32973E-04-2.30007E-14
 -1      1894 8.63240E-03-1.11355E-03-2.50228E-14
 -1      1895 8.78780E-03-1.15195E-03-2.58798E-14
 -1      1896 8.53912E-03-1.05063E-03-2.46535E-14
 -1      1897 8.94014E-03-1.17639E-03-2.67527E-14
 -1      1898 9.09243E-03-1.18481E-03-2.76390E-14
 -1      1899 8.85766E-03-1.13102E-03-2.63642E-14
 -1      1900 9.24361E-03-1.17658E-03-2.85374E-14
 -1      1901 9.39714E-03-1.15253E-03-2.94485E-14
 -1      1902 9.16931E-03-1.14867E-03-2.81303E-14
 -1      1903 9.55203E-03-1.11467E-03-3.03715E-14
 -1      1904 9.71033E-03-1.06618E-03-3.13054E-14
 -1      1905 9.48377E-03-1.09798E-03-2.99488E-14
 -1      1906 9.87137E-03-1.01056E-03-3.22469E-14
 -1      1907 1.00352E-02-9.51411E-04-3.31979E-14
 -1      1908 9.80845E-03-9.96967E-04-3.18097E-14
 -1      1909 1.02016E-02-8.92025E-04-3.41582E-14
 -1      1910 1.03694E-02-8.34967E-04-3.51232E-14
 -1      1911 1.01436E-02-8.75673E-04-3.37079E-14
 -1      1912 1.05387E-02-7.82319E-04-3.60950E-14
 -1      1913 1.07078E-02-7.35220E-04-3.70721E-14
 -1      1914 1.04839E-02-7.60637E-04-3.56332E-14
 -1      1915 1.08773E-02-6.94452E-04-3.80553E-14
 -1      1916 1.10457E-02-6.60115E-04-3.90444E-14
 -1      1917 1.08236E-02-6.67168E-04-3.75843E-14
 -1      1918 1.12135E-02-6.32062E-04-4.00385E-14
 -1      1919 1.13797E-02-6.09884E-04-4.10388E-14
 -1      1920 1.11587E-02-5.99970E-04-3.95585E-14
 -1      1921 1.15448E-02-5.92958E-04-4.20434E-14
 -1      1922 1.17081E-02-5.80726E-04-4.30549E-14
 -1      1923 1.14874E-02-5.57170E-04-4.15544E-14
 -1      1924 1.18700E-02-5.72439E-04-4.40719E-14
 -1      1925 1.20302E-02-5.67561E-04-4.50951E-14
 -1      1926 1.18093E-02-5.34050E-04-4.35741E-14
 -1      1927 1.21888E-02-5.65408E-04-4.61259E-14
 -1      1928 1.23459E-02-5.65533E-04-4.71643E-14
 -1      1929 1.21249E-02-5.25365E-04-4.56185E-14
 -1      1930 1.25014E-02-5.67392E-04-4.82141E-14
 -1      1931 1.26556E-02-5.70636E-04-4.92737E-14
 -1      1932 1.24347E-02-5.26446E-04-4.76979E-14
 -1      1933 1.28084E-02-5.74866E-04-5.03419E-14
 -1      1934 1.29600E-02-5.79820E-04-5.14200E-14
 -1      1935 1.27395E-02-5.33577E-04-4.98138E-14
 -1      1936 1.31104E-02-5.85223E-04-5.25049E-14
 -1      1937 1.32598E-02-5.90881E-04-5.35939E-14
 -1      1938 1.30400E-02-5.43989E-04-5.19647E-14
 -1      1939 1.34083E-02-5.96613E-04-5.46897E-14
 -1      1940 1.35559E-02-6.02276E-04-5.57906E-14
 -1      1941 1.33369E-02-5.55704E-04-5.41391E-14
 -1      1942 1.37027E-02-6.07752E-04-5.68932E-14
 -1      1943 1.38488E-02-6.12937E-04-5.79976E-14
 -1      1944 1.36308E-02-5.67349E-04-5.63337E-14
 -1      1945 1.39943E-02-6.17757E-04-5.91045E-14
 -1      1946 1.41392E-02-6.22132E-04-6.02118E-14
 -1      1947 1.39222E-02-5.77980E-04-5.85403E-14
 -1      1948 1.42837E-02-6.26022E-04-6.13222E-14
 -1      1949 1.44278E-02-6.29366E-04-6.24354E-14
 -1      1950 1.42116E-02-5.86952E-04-6.07576E-14
 -1      1951 1.45565E-02-6.33575E-04-6.34335E-14
 -1      1952 1.47000E-02-6.35846E-04-6.45506E-14
 -1      1953 1.47415E-02-6.02845E-04-6.48665E-14
 -1      1954 1.44845E-02-5.95198E-04-6.28637E-14
 -1      1955 1.13755E-03 4.78987E-04-4.13162E-16
 -1      1956 9.95907E-04 4.46014E-04-3.04783E-16
 -1      1957 9.63687E-04 4.16612E-04-3.12210E-16
 -1      1958 1.41643E-03 5.29741E-04-6.82505E-16
 -1      1959 1.27738E-03 5.06686E-04-5.39011E-16
 -1      1960 1.24796E-03 4.78612E-04-5.45842E-16
 -1      1961 1.69262E-03 5.65036E-04-1.02126E-15
 -1      1962 1.55468E-03 5.49079E-04-8.43333E-16
 -1      1963 1.52807E-03 5.21984E-04-8.48849E-16
 -1      1964 1.96810E-03 5.88983E-04-1.42970E-15
 -1      1965 1.83036E-03 5.78262E-04-1.21664E-15
 -1      1966 1.80622E-03 5.51818E-04-1.22088E-15
 -1      1967 2.24400E-03 6.04460E-04-1.90737E-15
 -1      1968 2.10595E-03 5.97659E-04-1.66002E-15
 -1      1969 2.08387E-03 5.71636E-04-1.66168E-15
 -1      1970 2.52096E-03 6.13553E-04-2.45362E-15
 -1      1971 2.38232E-03 6.09714E-04-2.17202E-15
 -1      1972 2.36189E-03 5.83953E-04-2.17124E-15
 -1      1973 2.79935E-03 6.17797E-04-3.06871E-15
 -1      1974 2.65996E-03 6.16214E-04-2.75244E-15
 -1      1975 2.64084E-03 5.90606E-04-2.74889E-15
 -1      1976 3.07940E-03 6.18317E-04-3.74910E-15
 -1      1977 2.93916E-03 6.18472E-04-3.40055E-15
 -1      1978 2.92102E-03 5.92941E-04-3.39349E-15
 -1      1979 3.36129E-03 6.15934E-04-4.49430E-15
 -1      1980 3.22011E-03 6.17450E-04-4.11386E-15
 -1      1981 3.20269E-03 5.91939E-04-4.10292E-15
 -1      1982 3.64519E-03 6.11259E-04-5.30205E-15
 -1      1983 3.50297E-03 6.13852E-04-4.89027E-15
 -1      1984 3.48601E-03 5.88318E-04-4.87642E-15
 -1      1985 3.93133E-03 6.04765E-04-6.17339E-15
 -1      1986 3.78796E-03 6.08210E-04-5.72994E-15
 -1      1987 3.77120E-03 5.82612E-04-5.71213E-15
 -1      1988 4.22003E-03 5.96877E-04-7.10890E-15
 -1      1989 4.07534E-03 6.00963E-04-6.63307E-15
 -1      1990 4.05851E-03 5.75254E-04-6.61137E-15
 -1      1991 4.51168E-03 5.88057E-04-8.10620E-15
 -1      1992 4.36545E-03 5.92543E-04-7.59980E-15
 -1      1993 4.34825E-03 5.66665E-04-7.57373E-15
 -1      1994 4.80681E-03 5.78908E-04-9.16232E-15
 -1      1995 4.65877E-03 5.83469E-04-8.62708E-15
 -1      1996 4.64084E-03 5.57344E-04-8.59615E-15
 -1      1997 5.10601E-03 5.70303E-04-1.02739E-14
 -1      1998 4.95585E-03 5.74462E-04-9.71161E-15
 -1      1999 4.93677E-03 5.47983E-04-9.67669E-15
 -1      2000 5.40999E-03 5.63524E-04-1.14391E-14
 -1      2001 5.25734E-03 5.66579E-04-1.08491E-14
 -1      2002 5.23661E-03 5.39603E-04-1.08100E-14
 -1      2003 5.71941E-03 5.60444E-04-1.26587E-14
 -1      2004 5.56396E-03 5.61380E-04-1.20424E-14
 -1      2005 5.54100E-03 5.33711E-04-1.19981E-14
 -1      2006 6.03488E-03 5.63684E-04-1.39286E-14
 -1      2007 5.87634E-03 5.61090E-04-1.32871E-14
 -1      2008 5.85057E-03 5.32479E-04-1.32386E-14
 -1      2009 6.35669E-03 5.76730E-04-1.52533E-14
 -1      2010 6.19498E-03 5.68760E-04-1.45847E-14
 -1      2011 6.16584E-03 5.38900E-04-1.45323E-14
 -1      2012 6.68464E-03 6.03858E-04-1.66244E-14
 -1      2013 6.51995E-03 5.88299E-04-1.59333E-14
 -1      2014 6.48711E-03 5.56847E-04-1.58762E-14
 -1      2015 7.01772E-03 6.49647E-04-1.80403E-14
 -1      2016 6.85070E-03 6.24226E-04-1.73277E-14
 -1      2017 6.81426E-03 5.90882E-04-1.72666E-14
 -1      2018 7.35379E-03 7.17771E-04-1.94949E-14
 -1      2019 7.18568E-03 6.80872E-04-1.87618E-14
 -1      2020 7.14642E-03 6.45527E-04-1.86980E-14
 -1      2021 7.68939E-03 8.08790E-04-2.09869E-14
 -1      2022 7.52208E-03 7.60685E-04-2.02361E-14
 -1      2023 7.48168E-03 7.23680E-04-2.01683E-14
 -1      2024 8.01992E-03 9.17104E-04-2.25210E-14
 -1      2025 7.85578E-03 8.61527E-04-2.17492E-14
 -1      2026 7.81668E-03 8.23941E-04-2.16783E-14
 -1      2027 8.34078E-03 1.02837E-03-2.40956E-14
 -1      2028 8.18191E-03 9.73596E-04-2.33028E-14
 -1      2029 8.14683E-03 9.37298E-04-2.32305E-14
 -1      2030 8.64953E-03 1.12030E-03-2.57119E-14
 -1      2031 8.49664E-03 1.07817E-03-2.48986E-14
 -1      2032 8.46766E-03 1.04526E-03-2.48237E-14
 -1      2033 8.94815E-03 1.16900E-03-2.73679E-14
 -1      2034 8.79955E-03 1.15106E-03-2.65340E-14
 -1      2035 8.77755E-03 1.12278E-03-2.64577E-14
 -1      2036 9.24349E-03 1.15960E-03-2.90640E-14
 -1      2037 9.09535E-03 1.17159E-03-2.82117E-14
 -1      2038 9.08003E-03 1.14740E-03-2.81325E-14
 -1      2039 9.54414E-03 1.09443E-03-3.07954E-14
 -1      2040 9.39240E-03 1.13299E-03-2.99258E-14
 -1      2041 9.38310E-03 1.11087E-03-2.98463E-14
 -1      2042 9.85593E-03 9.91554E-04-3.25574E-14
 -1      2043 9.69835E-03 1.04621E-03-3.16733E-14
 -1      2044 9.69434E-03 1.02393E-03-3.15929E-14
 -1      2045 1.01795E-02 8.75512E-04-3.43502E-14
 -1      2046 1.00164E-02 9.33882E-04-3.34487E-14
 -1      2047 1.00166E-02 9.10151E-04-3.33681E-14
 -1      2048 1.05117E-02 7.66906E-04-3.61825E-14
 -1      2049 1.03449E-02 8.19505E-04-3.52615E-14
 -1      2050 1.03477E-02 7.94096E-04-3.51801E-14
 -1      2051 1.08477E-02 6.77737E-04-3.80561E-14
 -1      2052 1.06796E-02 7.19650E-04-3.71141E-14
 -1      2053 1.06829E-02 6.92901E-04-3.70314E-14
 -1      2054 1.11831E-02 6.11711E-04-3.99738E-14
 -1      2055 1.10158E-02 6.41930E-04-3.90090E-14
 -1      2056 1.10178E-02 6.14324E-04-3.89256E-14
 -1      2057 1.15148E-02 5.67185E-04-4.19410E-14
 -1      2058 1.13497E-02 5.87013E-04-4.09513E-14
 -1      2059 1.13492E-02 5.58953E-04-4.08646E-14
 -1      2060 1.18411E-02 5.40059E-04-4.39538E-14
 -1      2061 1.16788E-02 5.51729E-04-4.29413E-14
 -1      2062 1.16754E-02 5.23510E-04-4.28490E-14
 -1      2063 1.21611E-02 5.25711E-04-4.60142E-14
 -1      2064 1.20020E-02 5.31538E-04-4.49771E-14
 -1      2065 1.19957E-02 5.03364E-04-4.48814E-14
 -1      2066 1.24748E-02 5.19996E-04-4.81191E-14
 -1      2067 1.23188E-02 5.21972E-04-4.70622E-14
 -1      2068 1.23099E-02 4.93977E-04-4.69598E-14
 -1      2069 1.27827E-02 5.19589E-04-5.02555E-14
 -1      2070 1.26295E-02 5.19275E-04-4.91832E-14
 -1      2071 1.26186E-02 4.91540E-04-4.90798E-14
 -1      2072 1.30853E-02 5.22000E-04-5.24110E-14
 -1      2073 1.29346E-02 5.20545E-04-5.13316E-14
 -1      2074 1.29223E-02 4.93112E-04-5.12236E-14
 -1      2075 1.33836E-02 5.25438E-04-5.45758E-14
 -1      2076 1.32349E-02 5.23662E-04-5.34940E-14
 -1      2077 1.32216E-02 4.96546E-04-5.33845E-14
 -1      2078 1.36781E-02 5.28647E-04-5.67411E-14
 -1      2079 1.35312E-02 5.27120E-04-5.56587E-14
 -1      2080 1.35173E-02 5.00319E-04-5.55478E-14
 -1      2081 1.39697E-02 5.30749E-04-5.89127E-14
 -1      2082 1.38242E-02 5.29869E-04-5.78242E-14
 -1      2083 1.38099E-02 5.03374E-04-5.77133E-14
 -1      2084 1.42590E-02 5.31140E-04-6.10988E-14
 -1      2085 1.41146E-02 5.31179E-04-6.00038E-14
 -1      2086 1.41002E-02 5.04974E-04-5.98907E-14
 -1      2087 1.45467E-02 5.29451E-04-6.32909E-14
 -1      2088 1.44030E-02 5.30562E-04-6.21949E-14
 -1      2089 1.43886E-02 5.04627E-04-6.20820E-14
 -1      2090 1.47825E-02 5.23459E-04-6.51015E-14
 -1      2091 1.46393E-02 5.25455E-04-6.40023E-14
 -1      2092 1.46249E-02 4.99723E-04-6.38919E-14
 -1      2093 1.48099E-02 4.91239E-04-6.53126E-14
 -1      2094 1.48029E-02 2.62828E-04-6.51849E-14
 -1      2095 1.47977E-02 3.03152E-04-6.51644E-14
 -1      2096 1.47927E-02 3.43848E-04-6.51441E-14
 -1      2097 1.47881E-02 3.84867E-04-6.51231E-14
 -1      2098 1.46717E-02 3.25112E-04-6.41992E-14
 -1      2099 1.48006E-02 4.17088E-04-6.52292E-14
 -1      2100 1.47967E-02 4.58646E-04-6.52075E-14
 -1      2101 1.47043E-02 4.62942E-04-6.44977E-14
 -1      2102 1.46789E-02 3.98109E-04-6.42854E-14
 -1      2103 1.48132E-02 1.84572E-04-6.52251E-14
 -1      2104 1.48081E-02 2.23530E-04-6.52040E-14
 -1      2105 1.46823E-02 2.45161E-04-6.42363E-14
 -1      2106 1.48229E-02 1.06275E-04-6.52697E-14
 -1      2107 1.48182E-02 1.45278E-04-6.52472E-14
 -1      2108 1.46929E-02 1.66593E-04-6.42726E-14
 -1      2109 1.48309E-02 2.90199E-05-6.53074E-14
 -1      2110 1.48271E-02 6.75509E-05-6.52907E-14
 -1      2111 1.47024E-02 8.85831E-05-6.43114E-14
 -1      2112 1.48365E-02-4.76055E-05-6.53450E-14
 -1      2113 1.48340E-02-9.32802E-06-6.53243E-14
 -1      2114 1.47101E-02 1.14914E-05-6.43464E-14
 -1      2115 1.48395E-02-1.24098E-04-6.53815E-14
 -1      2116 1.48383E-02-8.58217E-05-6.53647E-14
 -1      2117 1.47151E-02-6.51093E-05-6.43825E-14
 -1      2118 1.48399E-02-2.00973E-04-6.54125E-14
 -1      2119 1.48400E-02-1.62444E-04-6.53974E-14
 -1      2120 1.47174E-02-1.41707E-04-6.44184E-14
 -1      2121 1.48383E-02-2.77369E-04-6.54396E-14
 -1      2122 1.48393E-02-2.39036E-04-6.54256E-14
 -1      2123 1.47170E-02-2.18133E-04-6.44488E-14
 -1      2124 1.48354E-02-3.56271E-04-6.54683E-14
 -1      2125 1.48369E-02-3.16651E-04-6.54538E-14
 -1      2126 1.47148E-02-2.95458E-04-6.44760E-14
 -1      2127 1.48322E-02-4.36570E-04-6.54918E-14
 -1      2128 1.48338E-02-3.96245E-04-6.54785E-14
 -1      2129 1.47114E-02-3.74674E-04-6.45012E-14
 -1      2130 1.48300E-02-5.18294E-04-6.55218E-14
 -1      2131 1.48309E-02-4.77269E-04-6.55071E-14
 -1      2132 1.47081E-02-4.55299E-04-6.45269E-14
 -1      2133 1.09842E-02 1.06327E-04-3.29709E-14
 -1      2134 1.11105E-02 6.50922E-05-3.31257E-14
 -1      2135 1.13212E-02-1.66260E-05-3.33225E-14
 -1      2136 1.13218E-02-3.28226E-05-3.33189E-14
 -1      2137 1.12050E-02 3.30005E-05-3.32244E-14
 -1      2138 1.12755E-02 9.65540E-06-3.33227E-14
 -1      2139 1.11589E-02 3.23677E-05-3.36472E-14
 -1      2140 1.06291E-02 2.66474E-04-3.22545E-14
 -1      2141 1.07969E-02 1.89226E-04-3.25707E-14
 -1      2142 1.02526E-02 4.62956E-04-3.14705E-14
 -1      2143 1.04294E-02 3.66890E-04-3.18487E-14
 -1      2144 3.27213E-04-8.89493E-05-9.33905E-17
 -1      2145 3.29275E-04-1.02093E-04-8.92163E-17
 -1      2146 4.46325E-04-1.44993E-04-1.29887E-16
 -1      2147 4.40137E-04-1.09842E-04-1.40336E-16
 -1      2148 9.47941E-03 8.63277E-04-2.95019E-14
 -1      2149 9.63820E-03 7.86662E-04-3.00200E-14
 -1      2150 9.18328E-03 9.45846E-04-2.85251E-14
 -1      2151 9.32812E-03 9.14507E-04-2.90139E-14
 -1      2152 9.39213E-03 8.96206E-04-2.93536E-14
 -1      2153 8.84931E-03 9.27038E-04-2.74010E-14
 -1      2154 8.99596E-03 9.51287E-04-2.78960E-14
 -1      2155 8.50489E-03 7.99587E-04-2.63958E-14
 -1      2156 8.66310E-03 8.69431E-04-2.68417E-14
 -1      2157 8.15673E-03 6.15994E-04-2.54982E-14
 -1      2158 8.32340E-03 7.08499E-04-2.58993E-14
 -1      2159 7.78899E-03 4.12965E-04-2.46926E-14
 -1      2160 7.96038E-03 5.05999E-04-2.50324E-14
 -1      2161 7.42038E-03 2.38014E-04-2.40814E-14
 -1      2162 7.58674E-03 3.15901E-04-2.43586E-14
 -1      2163 7.12024E-03 1.11798E-04-2.35852E-14
 -1      2164 7.26193E-03 1.69540E-04-2.38335E-14
 -1      2165 7.35920E-03 1.85415E-04-2.36728E-14
 -1      2166 6.88544E-03 2.63433E-05-2.31928E-14
 -1      2167 6.96950E-03 5.21758E-05-2.32978E-14
 -1      2168 6.81758E-03-1.41999E-05-2.30953E-14
 -1      2169 6.83047E-03-2.60868E-08-2.31041E-14
 -1      2170 6.88691E-03-5.38609E-05-2.32088E-14
 -1      2171 6.83616E-03-3.37580E-05-2.31512E-14
 -1      2172 6.81720E-03-1.91381E-05-2.27374E-14
 -1      2173 7.11060E-03-1.37949E-04-2.35077E-14
 -1      2174 6.99421E-03-9.65001E-05-2.33620E-14
 -1      2175 7.43308E-03-2.69075E-04-2.39210E-14
 -1      2176 7.27305E-03-1.99889E-04-2.36901E-14
 -1      2177 7.81076E-03-4.46024E-04-2.44542E-14
 -1      2178 7.61672E-03-3.53112E-04-2.41872E-14
 -1      2179 7.53166E-03-2.85456E-04-2.37143E-14
 -1      2180 8.24442E-03-6.97596E-04-2.54761E-14
 -1      2181 8.06678E-03-5.90316E-04-2.50152E-14
 -1      2182 8.59346E-03-8.75222E-04-2.63830E-14
 -1      2183 8.42846E-03-7.93318E-04-2.59263E-14
 -1      2184 8.93378E-03-9.84075E-04-2.74406E-14
 -1      2185 8.78244E-03-9.45601E-04-2.69411E-14
 -1      2186 9.25333E-03-9.78252E-04-2.85393E-14
 -1      2187 9.10387E-03-9.95357E-04-2.80140E-14
 -1      2188 9.61731E-03-8.50664E-04-2.97033E-14
 -1      2189 9.45442E-03-9.21164E-04-2.92080E-14
 -1      2190 9.96890E-03-6.66478E-04-3.06896E-14
 -1      2191 9.79748E-03-7.63142E-04-3.02175E-14
 -1      2192 1.03781E-02-4.45108E-04-3.16433E-14
 -1      2193 1.01898E-02-5.44763E-04-3.12479E-14
 -1      2194 1.07606E-02-2.57088E-04-3.24267E-14
 -1      2195 1.05834E-02-3.39001E-04-3.20974E-14
 -1      2196 1.10799E-02-1.29499E-04-3.29795E-14
 -1      2197 1.09388E-02-1.85182E-04-3.27001E-14
 -1      2198 1.12878E-02-5.64177E-05-3.32518E-14
 -1      2199 1.12188E-02-7.99302E-05-3.31815E-14
 -1      2200 1.13135E-02-3.81035E-05-3.36803E-14
 -1      2201 9.87405E-03 6.65952E-04-3.06408E-14
 -1      2202 1.00621E-02 5.64339E-04-3.10530E-14
 -1      2203 1.01364E-02 5.00133E-04-3.15074E-14
 -1      2204 6.07400E-04-2.97845E-04-1.28912E-16
 -1      2205 9.62631E-03 7.86139E-04-3.02900E-14
 -1      2206 9.73415E-03 7.29389E-04-3.04669E-14
 -1      2207 9.82852E-03 6.67893E-04-3.09137E-14
 -1      2208 6.63202E-04-2.92079E-04-1.77904E-16
 -1      2209 1.13060E-02-8.66976E-06-3.37472E-14
 -1      2210 1.08920E-02 1.26053E-04-3.31450E-14
 -1      2211 1.47877E-02-5.50917E-04-6.52071E-14
 -1      2212 1.05104E-02 2.99883E-04-3.23349E-14
 -1      2213 1.11571E-02-8.83668E-05-3.34126E-14
 -1      2214 1.10890E-02-1.00847E-04-3.36431E-14
 -1      2215 1.12202E-02-6.43718E-05-3.38452E-14
 -1      2216 1.08375E-02-2.01357E-04-3.29359E-14
 -1      2217 1.04689E-02-3.70405E-04-3.22051E-14
 -1      2218 1.00623E-02-5.95800E-04-3.11883E-14
 -1      2219 9.68935E-03-8.06997E-04-3.01116E-14
 -1      2220 9.34528E-03-9.59614E-04-2.89227E-14
 -1      2221 9.01628E-03-1.00187E-03-2.76799E-14
 -1      2222 8.70364E-03-9.18483E-04-2.65477E-14
 -1      2223 7.95164E-03-5.05554E-04-2.45318E-14
 -1      2224 7.83736E-03-4.31280E-04-2.40546E-14
 -1      2225 8.07364E-03-5.67972E-04-2.46102E-14
 -1      2226 6.92959E-03-5.83522E-05-2.29424E-14
 -1      2227 7.04523E-03 6.68725E-05-2.31423E-14
 -1      2228 7.70528E-03 3.45735E-04-2.42493E-14
 -1      2229 8.07910E-03 5.50671E-04-2.50416E-14
 -1      2230 8.43108E-03 7.53209E-04-2.59982E-14
 -1      2231 9.09381E-03 9.61167E-04-2.82350E-14
 -1      2232 8.76735E-03 9.07014E-04-2.70494E-14
 -1      2233 6.84701E-03 5.03212E-06-2.27706E-14
 -1      2234 7.19716E-03-1.47636E-04-2.32723E-14
 -1      2235 8.36715E-03-7.47694E-04-2.55421E-14
 -1      2236 1.01596E-03 3.98950E-04-3.89039E-16
 -1      2237 8.71576E-04 3.62815E-04-2.86907E-16
 -1      2238 5.48158E-04-5.51964E-05-2.14184E-16
 -1      2239 5.49167E-04-7.18873E-05-2.12504E-16
 -1      2240 5.50551E-04-8.91870E-05-2.10173E-16
 -1      2241 5.52379E-04-1.07143E-04-2.06974E-16
 -1      2242 6.65674E-04-9.52737E-05-2.86446E-16
 -1      2243 5.46815E-04 8.83909E-06-2.15716E-16
 -1      2244 5.46796E-04-6.96661E-06-2.16081E-16
 -1      2245 5.47551E-04 4.07896E-05-2.13683E-16
 -1      2246 5.47064E-04 2.47446E-05-2.14970E-16
 -1      2247 6.61818E-04 1.98795E-05-2.92016E-16
 -1      2248 5.49329E-04 7.33612E-05-2.10078E-16
 -1      2249 5.48294E-04 5.68924E-05-2.12192E-16
 -1      2250 6.63115E-04 5.76440E-05-2.89103E-16
 -1      2251 5.52637E-04 1.08796E-04-2.03911E-16
 -1      2252 5.50760E-04 9.07385E-05-2.07394E-16
 -1      2253 6.65913E-04 9.70359E-05-2.83600E-16
 -1      2254 5.58390E-04 1.48105E-04-1.93923E-16
 -1      2255 5.55141E-04 1.27892E-04-1.99371E-16
 -1      2256 6.70895E-04 1.39748E-04-2.74628E-16
 -1      2257 5.68542E-04 1.93683E-04-1.78880E-16
 -1      2258 5.62798E-04 1.69975E-04-1.87296E-16
 -1      2259 6.79382E-04 1.87250E-04-2.60873E-16
 -1      2260 1.12946E-02-9.29375E-06-3.42237E-14
 -1      2261 1.13356E-02-1.92599E-05-3.42248E-14
 -1      2262 1.30128E-03 4.55232E-04-6.44450E-16
 -1      2263 1.15903E-03 4.29649E-04-5.08071E-16
 -1      2264 1.07132E-03 3.80355E-04-4.69080E-16
 -1      2265 9.14763E-04-3.45700E-04-3.47568E-16
 -1      2266 1.05880E-03-3.78755E-04-4.58170E-16
 -1      2267 1.20202E-03-4.06805E-04-5.85279E-16
 -1      2268 1.34480E-03-4.30294E-04-7.29058E-16
 -1      2269 1.11668E-03-3.59432E-04-5.40746E-16
 -1      2270 1.48695E-03-4.50062E-04-8.89154E-16
 -1      2271 1.62873E-03-4.66373E-04-1.06637E-15
 -1      2272 1.40299E-03-4.05436E-04-8.32301E-16
 -1      2273 1.77016E-03-4.79891E-04-1.25995E-15
 -1      2274 1.91138E-03-4.90823E-04-1.46977E-15
 -1      2275 1.68814E-03-4.37626E-04-1.19002E-15
 -1      2276 2.05247E-03-4.99649E-04-1.69617E-15
 -1      2277 2.19349E-03-5.06537E-04-1.93924E-15
 -1      2278 1.97242E-03-4.59264E-04-1.61375E-15
 -1      2279 2.33454E-03-5.11832E-04-2.19745E-15
 -1      2280 2.47562E-03-5.15669E-04-2.47221E-15
 -1      2281 2.25624E-03-4.72908E-04-2.10118E-15
 -1      2282 2.61682E-03-5.18292E-04-2.76287E-15
 -1      2283 2.75814E-03-5.19808E-04-3.06863E-15
 -1      2284 2.53999E-03-4.80496E-04-2.65255E-15
 -1      2285 2.89965E-03-5.20389E-04-3.38969E-15
 -1      2286 3.04134E-03-5.20118E-04-3.72560E-15
 -1      2287 2.82395E-03-4.83472E-04-3.26610E-15
 -1      2288 3.18327E-03-5.19113E-04-4.07655E-15
 -1      2289 3.32543E-03-5.17440E-04-4.44222E-15
 -1      2290 3.10833E-03-4.82894E-04-3.93983E-15
 -1      2291 3.46786E-03-5.15179E-04-4.82234E-15
 -1      2292 3.61058E-03-5.12383E-04-5.21756E-15
 -1      2293 3.39331E-03-4.79526E-04-4.67257E-15
 -1      2294 3.75361E-03-5.09109E-04-5.62624E-15
 -1      2295 3.89699E-03-5.05404E-04-6.04887E-15
 -1      2296 3.67903E-03-4.73922E-04-5.46294E-15
 -1      2297 4.04072E-03-5.01314E-04-6.48464E-15
 -1      2298 4.18486E-03-4.96888E-04-6.93490E-15
 -1      2299 3.96566E-03-4.66502E-04-6.30968E-15
 -1      2300 4.32941E-03-4.92175E-04-7.39992E-15
 -1      2301 4.47444E-03-4.87237E-04-7.87758E-15
 -1      2302 4.25334E-03-4.57634E-04-7.21157E-15
 -1      2303 4.61996E-03-4.82140E-04-8.36867E-15
 -1      2304 4.76605E-03-4.76968E-04-8.87337E-15
 -1      2305 4.54229E-03-4.47718E-04-8.16879E-15
 -1      2306 4.91272E-03-4.71827E-04-9.39145E-15
 -1      2307 5.06007E-03-4.66835E-04-9.92225E-15
 -1      2308 4.83274E-03-4.37291E-04-9.17979E-15
 -1      2309 5.20811E-03-4.62159E-04-1.04660E-14
 -1      2310 5.35697E-03-4.57969E-04-1.10245E-14
 -1      2311 5.12502E-03-4.27139E-04-1.02438E-14
 -1      2312 5.50665E-03-4.54519E-04-1.15963E-14
 -1      2313 5.65732E-03-4.52053E-04-1.21812E-14
 -1      2314 5.41955E-03-4.18442E-04-1.13617E-14
 -1      2315 5.80900E-03-4.50933E-04-1.27803E-14
 -1      2316 5.96185E-03-4.51508E-04-1.33933E-14
 -1      2317 5.71693E-03-4.12936E-04-1.25345E-14
 -1      2318 6.11596E-03-4.54258E-04-1.40203E-14
 -1      2319 6.27145E-03-4.59669E-04-1.46623E-14
 -1      2320 6.01801E-03-4.13101E-04-1.37615E-14
 -1      2321 6.42855E-03-4.68325E-04-1.53186E-14
 -1      2322 6.58725E-03-4.80874E-04-1.59886E-14
 -1      2323 6.32402E-03-4.22329E-04-1.50463E-14
 -1      2324 6.74798E-03-4.97930E-04-1.66747E-14
 -1      2325 6.91051E-03-5.20297E-04-1.73728E-14
 -1      2326 6.63669E-03-4.45040E-04-1.63876E-14
 -1      2327 7.07548E-03-5.48465E-04-1.80840E-14
 -1      2328 7.24225E-03-5.83244E-04-1.88109E-14
 -1      2329 6.95820E-03-4.86589E-04-1.77839E-14
 -1      2330 7.41163E-03-6.24740E-04-1.95519E-14
 -1      2331 7.58235E-03-6.73398E-04-2.03074E-14
 -1      2332 7.29065E-03-5.52683E-04-1.92355E-14
 -1      2333 7.75517E-03-7.28590E-04-2.10757E-14
 -1      2334 7.92805E-03-7.89349E-04-2.18577E-14
 -1      2335 7.63473E-03-6.47742E-04-2.07441E-14
 -1      2336 8.10130E-03-8.53897E-04-2.26530E-14
 -1      2337 8.27294E-03-9.19346E-04-2.34629E-14
 -1      2338 7.98715E-03-7.70387E-04-2.23066E-14
 -1      2339 8.44246E-03-9.82567E-04-2.42871E-14
 -1      2340 8.60904E-03-1.03814E-03-2.51261E-14
 -1      2341 8.33956E-03-9.07321E-04-2.39233E-14
 -1      2342 8.77165E-03-1.08264E-03-2.59794E-14
 -1      2343 8.93258E-03-1.11080E-03-2.68469E-14
 -1      2344 8.68140E-03-1.02761E-03-2.55968E-14
 -1      2345 9.09050E-03-1.12062E-03-2.77288E-14
 -1      2346 9.25007E-03-1.11088E-03-2.86227E-14
 -1      2347 9.00944E-03-1.08980E-03-2.73277E-14
 -1      2348 9.40997E-03-1.08234E-03-2.95281E-14
 -1      2349 9.57378E-03-1.03894E-03-3.04462E-14
 -1      2350 9.33407E-03-1.06787E-03-2.91116E-14
 -1      2351 9.74029E-03-9.83782E-04-3.13754E-14
 -1      2352 9.90997E-03-9.22479E-04-3.23128E-14
 -1      2353 9.66927E-03-9.72570E-04-3.09413E-14
 -1      2354 1.00821E-02-8.58517E-04-3.32591E-14
 -1      2355 1.02549E-02-7.96106E-04-3.42136E-14
 -1      2356 1.00180E-02-8.42034E-04-3.28131E-14
 -1      2357 1.04284E-02-7.37613E-04-3.51749E-14
 -1      2358 1.06004E-02-6.84815E-04-3.61410E-14
 -1      2359 1.03717E-02-7.13873E-04-3.47160E-14
 -1      2360 1.07715E-02-6.38809E-04-3.71138E-14
 -1      2361 1.09401E-02-5.99622E-04-3.80929E-14
 -1      2362 1.07202E-02-6.09301E-04-3.66468E-14
 -1      2363 1.11071E-02-5.67427E-04-3.90786E-14
 -1      2364 1.12714E-02-5.41514E-04-4.00698E-14
 -1      2365 1.10580E-02-5.34099E-04-3.85997E-14
 -1      2366 1.14340E-02-5.21520E-04-4.10651E-14
 -1      2367 1.15943E-02-5.06605E-04-4.20675E-14
 -1      2368 1.13841E-02-4.85693E-04-4.05775E-14
 -1      2369 1.17529E-02-4.96181E-04-4.30754E-14
 -1      2370 1.19097E-02-4.89519E-04-4.40904E-14
 -1      2371 1.17005E-02-4.58634E-04-4.25784E-14
 -1      2372 1.20651E-02-4.86003E-04-4.51142E-14
 -1      2373 1.22190E-02-4.85072E-04-4.61449E-14
 -1      2374 1.20092E-02-4.47249E-04-4.46076E-14
 -1      2375 1.23717E-02-4.86185E-04-4.71832E-14
 -1      2376 1.25233E-02-4.88932E-04-4.82305E-14
 -1      2377 1.23123E-02-4.46625E-04-4.66688E-14
 -1      2378 1.26738E-02-4.92885E-04-4.92860E-14
 -1      2379 1.28234E-02-4.97754E-04-5.03517E-14
 -1      2380 1.26112E-02-4.52862E-04-4.87604E-14
 -1      2381 1.29722E-02-5.03224E-04-5.14237E-14
 -1      2382 1.31202E-02-5.09090E-04-5.25040E-14
 -1      2383 1.29069E-02-4.63029E-04-5.08864E-14
 -1      2384 1.32675E-02-5.15132E-04-5.35897E-14
 -1      2385 1.34143E-02-5.21205E-04-5.46802E-14
 -1      2386 1.32002E-02-4.75003E-04-5.30413E-14
 -1      2387 1.35604E-02-5.27162E-04-5.57784E-14
 -1      2388 1.37060E-02-5.32900E-04-5.68769E-14
 -1      2389 1.34916E-02-4.87291E-04-5.52209E-14
 -1      2390 1.38512E-02-5.38322E-04-5.79780E-14
 -1      2391 1.39959E-02-5.43351E-04-5.90818E-14
 -1      2392 1.37814E-02-4.98866E-04-5.74173E-14
 -1      2393 1.41403E-02-5.47930E-04-6.01883E-14
 -1      2394 1.42843E-02-5.51996E-04-6.12982E-14
 -1      2395 1.40699E-02-5.09015E-04-5.96216E-14
 -1      2396 1.11391E-02 3.10593E-05-3.42167E-14
 -1      2397 1.12221E-02 1.02824E-05-3.43175E-14
 -1      2398 1.86435E-03 5.21560E-04-1.36033E-15
 -1      2399 1.72412E-03 5.09484E-04-1.15588E-15
 -1      2400 2.14454E-03 5.39168E-04-1.82100E-15
 -1      2401 2.00448E-03 5.31396E-04-1.58239E-15
 -1      2402 1.92405E-03 4.90603E-04-1.50234E-15
 -1      2403 2.42488E-03 5.49778E-04-2.34902E-15
 -1      2404 2.28467E-03 5.45247E-04-2.07649E-15
 -1      2405 2.20632E-03 5.06077E-04-1.98175E-15
 -1      2406 2.70585E-03 5.55094E-04-2.94468E-15
 -1      2407 2.56528E-03 5.53021E-04-2.63832E-15
 -1      2408 2.48860E-03 5.15066E-04-2.52807E-15
 -1      2409 2.98775E-03 5.56363E-04-3.60616E-15
 -1      2410 2.84668E-03 5.56176E-04-3.26716E-15
 -1      2411 2.77127E-03 5.19136E-04-3.14097E-15
 -1      2412 3.27081E-03 5.54492E-04-4.33238E-15
 -1      2413 3.12913E-03 5.55776E-04-3.96127E-15
 -1      2414 3.05460E-03 5.19430E-04-3.81963E-15
 -1      2415 3.55522E-03 5.50141E-04-5.12089E-15
 -1      2416 3.41284E-03 5.52592E-04-4.71888E-15
 -1      2417 3.33879E-03 5.16780E-04-4.56162E-15
 -1      2418 3.84120E-03 5.43803E-04-5.97280E-15
 -1      2419 3.69800E-03 5.47191E-04-5.53897E-15
 -1      2420 3.62402E-03 5.11788E-04-5.36611E-15
 -1      2421 4.12896E-03 5.35890E-04-6.88727E-15
 -1      2422 3.98483E-03 5.40015E-04-6.42197E-15
 -1      2423 3.91048E-03 5.04911E-04-6.23344E-15
 -1      2424 4.41881E-03 5.26817E-04-7.86354E-15
 -1      2425 4.27359E-03 5.31466E-04-7.36768E-15
 -1      2426 4.19837E-03 4.96541E-04-7.16297E-15
 -1      2427 4.71110E-03 5.17102E-04-8.89913E-15
 -1      2428 4.56461E-03 5.21998E-04-8.37417E-15
 -1      2429 4.48794E-03 4.87093E-04-8.15328E-15
 -1      2430 5.00627E-03 5.07481E-04-9.99048E-15
 -1      2431 4.85828E-03 5.12221E-04-9.43810E-15
 -1      2432 4.77949E-03 4.77102E-04-9.20127E-15
 -1      2433 5.30483E-03 4.99047E-04-1.11365E-14
 -1      2434 5.15507E-03 5.03032E-04-1.05572E-14
 -1      2435 5.07341E-03 4.67346E-04-1.03050E-14
 -1      2436 5.60734E-03 4.93415E-04-1.23357E-14
 -1      2437 5.45553E-03 4.95763E-04-1.17287E-14
 -1      2438 5.37015E-03 4.58983E-04-1.14628E-14
 -1      2439 5.91445E-03 4.92896E-04-1.35885E-14
 -1      2440 5.76027E-03 4.92353E-04-1.29564E-14
 -1      2441 5.67029E-03 4.53713E-04-1.26738E-14
 -1      2442 6.22680E-03 5.00648E-04-1.48927E-14
 -1      2443 6.06994E-03 4.95521E-04-1.42336E-14
 -1      2444 5.97454E-03 4.53952E-04-1.39384E-14
 -1      2445 6.54498E-03 5.20722E-04-1.62458E-14
 -1      2446 6.38517E-03 5.08874E-04-1.55638E-14
 -1      2447 6.28380E-03 4.62975E-04-1.52525E-14
 -1      2448 6.86942E-03 5.57828E-04-1.76433E-14
 -1      2449 6.70651E-03 5.36846E-04-1.69384E-14
 -1      2450 6.59916E-03 4.84965E-04-1.66144E-14
 -1      2451 7.20002E-03 6.16554E-04-1.90835E-14
 -1      2452 7.03416E-03 5.84231E-04-1.83586E-14
 -1      2453 6.92174E-03 5.24785E-04-1.80198E-14
 -1      2454 7.53565E-03 6.99646E-04-2.05617E-14
 -1      2455 7.36758E-03 6.54994E-04-1.98175E-14
 -1      2456 7.25234E-03 5.87199E-04-1.94678E-14
 -1      2457 7.87335E-03 8.05087E-04-2.20837E-14
 -1      2458 7.70477E-03 7.49966E-04-2.13179E-14
 -1      2459 7.59046E-03 6.75076E-04-2.09572E-14
 -1      2460 8.20805E-03 9.22304E-04-2.36450E-14
 -1      2461 8.04162E-03 8.63339E-04-2.28588E-14
 -1      2462 7.93298E-03 7.86065E-04-2.24884E-14
 -1      2463 8.53426E-03 1.02999E-03-2.52494E-14
 -1      2464 8.37242E-03 9.79065E-04-2.44423E-14
 -1      2465 8.27353E-03 9.07740E-04-2.40607E-14
 -1      2466 8.84971E-03 1.10046E-03-2.68948E-14
 -1      2467 8.69287E-03 1.07172E-03-2.60676E-14
 -1      2468 8.60504E-03 1.01531E-03-2.56755E-14
 -1      2469 9.15879E-03 1.11075E-03-2.85799E-14
 -1      2470 9.00395E-03 1.11399E-03-2.77324E-14
 -1      2471 8.92510E-03 1.07723E-03-2.73320E-14
 -1      2472 9.47076E-03 1.05664E-03-3.03048E-14
 -1      2473 9.31336E-03 1.09102E-03-2.94379E-14
 -1      2474 9.24031E-03 1.07044E-03-2.90293E-14
 -1      2475 9.79271E-03 9.55249E-04-3.20581E-14
 -1      2476 9.63014E-03 1.01002E-03-3.11761E-14
 -1      2477 9.56168E-03 9.96853E-04-3.07619E-14
 -1      2478 1.01247E-02 8.34805E-04-3.38454E-14
 -1      2479 9.95775E-03 8.95677E-04-3.29480E-14
 -1      2480 9.89473E-03 8.81592E-04-3.25261E-14
 -1      2481 1.04618E-02 7.19650E-04-3.56699E-14
 -1      2482 1.02932E-02 7.75427E-04-3.47535E-14
 -1      2483 1.02360E-02 7.56539E-04-3.43254E-14
 -1      2484 1.07986E-02 6.24211E-04-3.75328E-14
 -1      2485 1.06308E-02 6.69026E-04-3.65963E-14
 -1      2486 1.05782E-02 6.44664E-04-3.61612E-14
 -1      2487 1.11312E-02 5.53112E-04-3.94373E-14
 -1      2488 1.09658E-02 5.85633E-04-3.84797E-14
 -1      2489 1.09153E-02 5.56652E-04-3.80345E-14
 -1      2490 1.14579E-02 5.04871E-04-4.13881E-14
 -1      2491 1.12954E-02 5.26357E-04-4.04067E-14
 -1      2492 1.12447E-02 4.93855E-04-3.99512E-14
 -1      2493 1.17782E-02 4.75281E-04-4.33835E-14
 -1      2494 1.16189E-02 4.88033E-04-4.23798E-14
 -1      2495 1.15661E-02 4.52965E-04-4.19112E-14
 -1      2496 1.20925E-02 4.59502E-04-4.54251E-14
 -1      2497 1.19361E-02 4.65936E-04-4.43989E-14
 -1      2498 1.18805E-02 4.29089E-04-4.39162E-14
 -1      2499 1.24014E-02 4.53156E-04-4.75115E-14
 -1      2500 1.22476E-02 4.55375E-04-4.64613E-14
 -1      2501 1.21889E-02 4.17386E-04-4.59684E-14
 -1      2502 1.27054E-02 4.52704E-04-4.96366E-14
 -1      2503 1.25539E-02 4.52368E-04-4.85717E-14
 -1      2504 1.24925E-02 4.13749E-04-4.80644E-14
 -1      2505 1.30053E-02 4.55475E-04-5.17824E-14
 -1      2506 1.28558E-02 4.53817E-04-5.07072E-14
 -1      2507 1.27921E-02 4.14969E-04-5.01931E-14
 -1      2508 1.33018E-02 4.59543E-04-5.39414E-14
 -1      2509 1.31539E-02 4.57441E-04-5.28609E-14
 -1      2510 1.30885E-02 4.18665E-04-5.23405E-14
 -1      2511 1.35953E-02 4.63553E-04-5.61051E-14
 -1      2512 1.34489E-02 4.61623E-04-5.50237E-14
 -1      2513 1.33822E-02 4.23140E-04-5.44997E-14
 -1      2514 1.38865E-02 4.66568E-04-5.82739E-14
 -1      2515 1.37412E-02 4.65234E-04-5.71876E-14
 -1      2516 1.36737E-02 4.27208E-04-5.66626E-14
 -1      2517 1.41758E-02 4.67937E-04-6.04553E-14
 -1      2518 1.40314E-02 4.67495E-04-5.93622E-14
 -1      2519 1.39635E-02 4.30052E-04-5.88349E-14
 -1      2520 1.44636E-02 4.67234E-04-6.26492E-14
 -1      2521 1.43198E-02 4.67872E-04-6.15509E-14
 -1      2522 1.42517E-02 4.31097E-04-6.10186E-14
 -1      2523 1.46117E-02 4.67006E-04-6.37858E-14
 -1      2524 1.45727E-02 1.48274E-04-6.33195E-14
 -1      2525 1.45674E-02 1.87526E-04-6.33029E-14
 -1      2526 1.45822E-02 7.06335E-05-6.33550E-14
 -1      2527 1.45777E-02 1.09333E-04-6.33374E-14
 -1      2528 1.44528E-02 1.29737E-04-6.23680E-14
 -1      2529 1.45509E-02 3.05978E-04-6.32542E-14
 -1      2530 1.45456E-02 3.46637E-04-6.32342E-14
 -1      2531 1.45619E-02 2.26766E-04-6.32859E-14
 -1      2532 1.45564E-02 2.66018E-04-6.32704E-14
 -1      2533 1.44302E-02 2.86822E-04-6.23056E-14
 -1      2534 1.44418E-02 2.07731E-04-6.23360E-14
 -1      2535 1.45894E-02-6.17795E-06-6.33866E-14
 -1      2536 1.45861E-02 3.21618E-05-6.33705E-14
 -1      2537 1.44621E-02 5.25736E-05-6.23985E-14
 -1      2538 1.45938E-02-8.26123E-05-6.34228E-14
 -1      2539 1.45919E-02-4.43991E-05-6.34041E-14
 -1      2540 1.44688E-02-2.38332E-05-6.24308E-14
 -1      2541 1.45952E-02-1.59166E-04-6.34569E-14
 -1      2542 1.45948E-02-1.20831E-04-6.34396E-14
 -1      2543 1.44724E-02-9.99730E-05-6.24642E-14
 -1      2544 1.45941E-02-2.35007E-04-6.34841E-14
 -1      2545 1.45950E-02-1.96977E-04-6.34716E-14
 -1      2546 1.44730E-02-1.75716E-04-6.24957E-14
 -1      2547 1.45912E-02-3.13161E-04-6.35136E-14
 -1      2548 1.45928E-02-2.73929E-04-6.34988E-14
 -1      2549 1.44711E-02-2.52190E-04-6.25232E-14
 -1      2550 1.45873E-02-3.92641E-04-6.35382E-14
 -1      2551 1.45893E-02-3.52721E-04-6.35267E-14
 -1      2552 1.44674E-02-3.30470E-04-6.25522E-14
 -1      2553 1.45837E-02-4.73595E-04-6.35661E-14
 -1      2554 1.45854E-02-4.32933E-04-6.35492E-14
 -1      2555 1.44630E-02-4.10209E-04-6.25775E-14
 -1      2556 1.46596E-02-5.47477E-04-6.42035E-14
 -1      2557 1.04075E-02 3.35825E-04-3.25436E-14
 -1      2558 1.05883E-02 2.45110E-04-3.29539E-14
 -1      2559 1.58362E-03 4.94636E-04-9.68450E-16
 -1      2560 1.44272E-03 4.76808E-04-7.97756E-16
 -1      2561 1.64127E-03 4.66535E-04-1.09004E-15
 -1      2562 1.00472E-02 5.39899E-04-3.15688E-14
 -1      2563 1.02140E-02 4.42451E-04-3.19907E-14
 -1      2564 1.07882E-02 1.55941E-04-3.33676E-14
 -1      2565 1.09650E-02 8.88710E-05-3.37707E-14
 -1      2566 1.13368E-02-3.08776E-05-3.42387E-14
 -1      2567 1.13052E-02-3.90057E-05-3.41726E-14
 -1      2568 6.98128E-03-6.46666E-05-2.26725E-14
 -1      2569 6.88006E-03-3.92127E-05-2.25240E-14
 -1      2570 6.97970E-03 3.97644E-05-2.26679E-14
 -1      2571 7.12573E-03 8.35070E-05-2.29499E-14
 -1      2572 7.60760E-03 2.83697E-04-2.37352E-14
 -1      2573 7.78410E-03 3.74801E-04-2.40635E-14
 -1      2574 5.47003E-04-2.28554E-05-2.15987E-16
 -1      2575 5.47448E-04-3.88662E-05-2.15363E-16
 -1      2576 6.62967E-04-5.56769E-05-2.91135E-16
 -1      2577 6.61766E-04-1.76590E-05-2.92870E-16
 -1      2578 8.68472E-03 8.78728E-04-2.66154E-14
 -1      2579 8.83141E-03 9.36216E-04-2.71695E-14
 -1      2580 9.31980E-03 9.28029E-04-2.91839E-14
 -1      2581 9.44045E-03 8.78263E-04-2.96744E-14
 -1      2582 6.81142E-03-3.44423E-06-2.22513E-14
 -1      2583 6.86135E-03 6.94570E-06-2.23391E-14
 -1      2584 9.01770E-03 9.69520E-04-2.79241E-14
 -1      2585 9.16618E-03 9.63487E-04-2.85527E-14
 -1      2586 9.23285E-03 9.55981E-04-2.88687E-14
 -1      2587 8.38846E-03 7.22346E-04-2.56290E-14
 -1      2588 8.53959E-03 8.09501E-04-2.61205E-14
 -1      2589 8.61525E-03 8.53623E-04-2.62403E-14
 -1      2590 8.01257E-03 5.01458E-04-2.45856E-14
 -1      2591 8.18505E-03 6.04784E-04-2.50448E-14
 -1      2592 7.28575E-03 1.42730E-04-2.32114E-14
 -1      2593 7.43141E-03 2.02551E-04-2.34539E-14
 -1      2594 7.25944E-03-1.56292E-04-2.29373E-14
 -1      2595 7.11276E-03-1.05236E-04-2.27611E-14
 -1      2596 6.81895E-03-2.11350E-05-2.23283E-14
 -1      2597 6.79972E-03-1.54465E-05-2.22746E-14
 -1      2598 8.45230E-03-7.91717E-04-2.55789E-14
 -1      2599 8.29636E-03-6.98462E-04-2.51318E-14
 -1      2600 7.60470E-03-3.08329E-04-2.34568E-14
 -1      2601 7.44271E-03-2.32558E-04-2.31975E-14
 -1      2602 8.78012E-03-9.54190E-04-2.66758E-14
 -1      2603 8.62891E-03-8.84770E-04-2.61187E-14
 -1      2604 9.08995E-03-1.01554E-03-2.79488E-14
 -1      2605 8.95839E-03-1.00422E-03-2.73736E-14
 -1      2606 9.41073E-03-9.40636E-04-2.92881E-14
 -1      2607 9.24856E-03-9.95078E-04-2.86161E-14
 -1      2608 9.17234E-03-1.01387E-03-2.83058E-14
 -1      2609 9.75807E-03-7.63065E-04-3.05676E-14
 -1      2610 9.60991E-03-8.48928E-04-3.00496E-14
 -1      2611 1.01451E-02-5.34612E-04-3.17298E-14
 -1      2612 9.95123E-03-6.50929E-04-3.11665E-14
 -1      2613 1.05488E-02-3.17548E-04-3.27783E-14
 -1      2614 1.03628E-02-4.13672E-04-3.23208E-14
 -1      2615 1.09298E-02-1.54038E-04-3.35515E-14
 -1      2616 1.07698E-02-2.16469E-04-3.32766E-14
 -1      2617 5.88279E-04-2.37730E-04-1.66154E-16
 -1      2618 7.80973E-04-3.04345E-04-2.64776E-16
 -1      2619 8.40530E-04-2.93036E-04-3.26779E-16
 -1      2620 5.78864E-04-2.09947E-04-1.78338E-16
 -1      2621 7.57381E-04 3.33773E-04-2.14265E-16
 -1      2622 6.11061E-04 2.84581E-04-1.43033E-16
 -1      2623 5.84432E-04 2.57845E-04-1.46110E-16
 -1      2624 8.13325E-04 3.22370E-04-2.74750E-16
 -1      2625 8.91819E-03 9.61176E-04-2.74827E-14
 -1      2626 6.70525E-04-1.37677E-04-2.78084E-16
 -1      2627 5.54828E-04-1.26028E-04-2.02610E-16
 -1      2628 5.57915E-04-1.46015E-04-1.97013E-16
 -1      2629 1.13541E-02-2.55321E-05-3.47185E-14
 -1      2630 1.12875E-02-2.92467E-06-3.47976E-14
 -1      2631 5.72059E-04 2.27669E-04-1.60137E-16
 -1      2632 9.53984E-03 8.34229E-04-3.01185E-14
 -1      2633 9.92700E-03 6.12635E-04-3.13925E-14
 -1      2634 9.50062E-03-9.07825E-04-2.97381E-14
 -1      2635 8.86912E-03-9.87788E-04-2.69374E-14
 -1      2636 1.06970E-02 1.99702E-04-3.35763E-14
 -1      2637 1.10636E-02 5.95765E-05-3.44406E-14
 -1      2638 1.03230E-02 3.84224E-04-3.26049E-14
 -1      2639 1.45435E-02 4.30954E-04-6.32549E-14
 -1      2640 1.45312E-02 3.98533E-04-6.31478E-14
 -1      2641 7.72219E-03-3.67519E-04-2.35311E-14
 -1      2642 7.60991E-03-3.19603E-04-2.30147E-14
 -1      2643 7.82984E-03-4.30572E-04-2.36051E-14
 -1      2644 1.45101E-02-5.59745E-04-6.30445E-14
 -1      2645 1.45574E-02-5.08434E-04-6.33842E-14
 -1      2646 1.44342E-02-4.85256E-04-6.24090E-14
 -1      2647 1.43815E-02-5.55269E-04-6.20484E-14
 -1      2648 8.54299E-03-8.43945E-04-2.57030E-14
 -1      2649 6.83992E-03-2.85088E-05-2.20620E-14
 -1      2650 1.35726E-03 4.31042E-04-7.45836E-16
 -1      2651 1.12728E-02-4.88427E-05-3.44054E-14
 -1      2652 1.10298E-02-1.20690E-04-3.39862E-14
 -1      2653 5.71818E-04-1.84986E-04-1.88028E-16
 -1      2654 1.06732E-02-2.63633E-04-3.33943E-14
 -1      2655 1.02532E-02-4.78016E-04-3.23003E-14
 -1      2656 7.32605E-03-1.85952E-04-2.26845E-14
 -1      2657 7.18611E-03 1.06091E-04-2.27353E-14
 -1      2658 6.78434E-03-8.58445E-06-2.18465E-14
 -1      2659 7.50782E-03 2.39612E-04-2.32725E-14
 -1      2660 6.90667E-03 2.15060E-05-2.21500E-14
 -1      2661 8.17160E-03-6.23314E-04-2.46465E-14
 -1      2662 8.04804E-03-5.53079E-04-2.41650E-14
 -1      2663 8.24924E-03-6.76323E-04-2.46811E-14
 -1      2664 7.02947E-03-7.92932E-05-2.23427E-14
 -1      2665 7.88907E-03 4.38096E-04-2.40677E-14
 -1      2666 8.29535E-03 6.75498E-04-2.51658E-14
 -1      2667 6.89374E-04 2.50893E-04-2.30528E-16
 -1      2668 9.86449E-03-7.06431E-04-3.11052E-14
 -1      2669 1.44096E-02 3.78589E-04-6.22041E-14
 -1      2670 1.43107E-02-5.16882E-04-6.14774E-14
 -1      2671 7.80696E-04 7.71004E-05-3.76299E-16
 -1      2672 7.79460E-04 5.52999E-05-3.78888E-16
 -1      2673 7.78630E-04 3.34539E-05-3.80582E-16
 -1      2674 7.78215E-04 1.18585E-05-3.81829E-16
 -1      2675 8.97085E-04 4.94901E-05-4.81440E-16
 -1      2676 7.91816E-04 1.72711E-04-3.56255E-16
 -1      2677 7.87888E-04 1.47333E-04-3.63167E-16
 -1      2678 8.03472E-04 2.27852E-04-3.38136E-16
 -1      2679 7.96962E-04 1.99487E-04-3.48042E-16
 -1      2680 9.15101E-04 2.07219E-04-4.48670E-16
 -1      2681 9.96762E-03-6.55691E-04-3.16645E-14
 -1      2682 9.79880E-03-7.58763E-04-3.10603E-14
 -1      2683 1.12952E-03 3.60865E-04-5.52455E-16
 -1      2684 9.85946E-04 3.32092E-04-4.28924E-16
 -1      2685 1.13702E-02-2.29054E-05-3.52175E-14
 -1      2686 1.13723E-02-2.87186E-05-3.52330E-14
 -1      2687 8.02917E-04 2.77745E-04-3.03929E-16
 -1      2688 1.32002E-03-3.61202E-04-7.74784E-16
 -1      2689 1.46326E-03-3.79746E-04-9.39136E-16
 -1      2690 1.60632E-03-3.95316E-04-1.11979E-15
 -1      2691 1.74928E-03-4.08131E-04-1.31694E-15
 -1      2692 1.52506E-03-3.53244E-04-1.04905E-15
 -1      2693 1.89209E-03-4.18648E-04-1.53023E-15
 -1      2694 2.03481E-03-4.27047E-04-1.75947E-15
 -1      2695 1.81179E-03-3.77985E-04-1.44633E-15
 -1      2696 2.17743E-03-4.33689E-04-2.00478E-15
 -1      2697 2.32000E-03-4.38719E-04-2.26530E-15
 -1      2698 2.09833E-03-3.94292E-04-1.90752E-15
 -1      2699 2.46253E-03-4.42407E-04-2.54214E-15
 -1      2700 2.60505E-03-4.44868E-04-2.83481E-15
 -1      2701 2.38462E-03-4.04093E-04-2.43150E-15
 -1      2702 2.74759E-03-4.46301E-04-3.14214E-15
 -1      2703 2.89015E-03-4.46791E-04-3.46472E-15
 -1      2704 2.67072E-03-4.08905E-04-3.01761E-15
 -1      2705 3.03277E-03-4.46482E-04-3.80222E-15
 -1      2706 3.17544E-03-4.45439E-04-4.15455E-15
 -1      2707 2.95671E-03-4.09878E-04-3.66454E-15
 -1      2708 3.31820E-03-4.43761E-04-4.52203E-15
 -1      2709 3.46104E-03-4.41498E-04-4.90397E-15
 -1      2710 3.24265E-03-4.07859E-04-4.37102E-15
 -1      2711 3.60399E-03-4.38721E-04-5.29984E-15
 -1      2712 3.74706E-03-4.35468E-04-5.71017E-15
 -1      2713 3.52862E-03-4.03458E-04-5.13645E-15
 -1      2714 3.89026E-03-4.31796E-04-6.13458E-15
 -1      2715 4.03361E-03-4.27737E-04-6.57169E-15
 -1      2716 3.81467E-03-3.97123E-04-5.95822E-15
 -1      2717 4.17710E-03-4.23344E-04-7.02342E-15
 -1      2718 4.32078E-03-4.18654E-04-7.48952E-15
 -1      2719 4.10083E-03-3.89209E-04-6.83591E-15
 -1      2720 4.46463E-03-4.13730E-04-7.96872E-15
 -1      2721 4.60872E-03-4.08621E-04-8.46126E-15
 -1      2722 4.38717E-03-3.80050E-04-7.76806E-15
 -1      2723 4.75301E-03-4.03415E-04-8.96773E-15
 -1      2724 4.89760E-03-3.98184E-04-9.48768E-15
 -1      2725 4.67374E-03-3.70042E-04-8.75549E-15
 -1      2726 5.04246E-03-3.93058E-04-1.00207E-14
 -1      2727 5.18770E-03-3.88148E-04-1.05670E-14
 -1      2728 4.96067E-03-3.59734E-04-9.79684E-15
 -1      2729 5.33329E-03-3.83644E-04-1.11274E-14
 -1      2730 5.47940E-03-3.79714E-04-1.17013E-14
 -1      2731 5.24815E-03-3.49932E-04-1.08930E-14
 -1      2732 5.62602E-03-3.76622E-04-1.22880E-14
 -1      2733 5.77334E-03-3.74628E-04-1.28893E-14
 -1      2734 5.53657E-03-3.41820E-04-1.20423E-14
 -1      2735 5.92144E-03-3.74075E-04-1.35044E-14
 -1      2736 6.07054E-03-3.75359E-04-1.41321E-14
 -1      2737 5.82662E-03-3.37103E-04-1.32460E-14
 -1      2738 6.22085E-03-3.78896E-04-1.47743E-14
 -1      2739 6.37264E-03-3.85283E-04-1.54315E-14
 -1      2740 6.11955E-03-3.38166E-04-1.45043E-14
 -1      2741 6.52628E-03-3.94975E-04-1.61018E-14
 -1      2742 6.68204E-03-4.08845E-04-1.67856E-14
 -1      2743 6.41740E-03-3.48290E-04-1.58175E-14
 -1      2744 6.84056E-03-4.27312E-04-1.74849E-14
 -1      2745 7.00195E-03-4.51612E-04-1.81952E-14
 -1      2746 6.72338E-03-3.71914E-04-1.71847E-14
 -1      2747 7.16717E-03-4.82017E-04-1.89209E-14
 -1      2748 7.33580E-03-5.19983E-04-1.96608E-14
 -1      2749 7.04187E-03-4.14971E-04-1.86085E-14
 -1      2750 7.50900E-03-5.65443E-04-2.04145E-14
 -1      2751 7.68525E-03-6.19631E-04-2.11818E-14
 -1      2752 7.37782E-03-4.84997E-04-2.00861E-14
 -1      2753 7.86556E-03-6.81760E-04-2.19619E-14
 -1      2754 8.04672E-03-7.50447E-04-2.27552E-14
 -1      2755 7.73401E-03-5.90442E-04-2.16183E-14
 -1      2756 8.22889E-03-8.23616E-04-2.35610E-14
 -1      2757 8.40873E-03-8.96571E-04-2.43819E-14
 -1      2758 8.10562E-03-7.31547E-04-2.32014E-14
 -1      2759 8.58525E-03-9.65556E-04-2.52172E-14
 -1      2760 8.75759E-03-1.02030E-03-2.60666E-14
 -1      2761 8.47743E-03-8.90985E-04-2.48406E-14
 -1      2762 8.92421E-03-1.05759E-03-2.69316E-14
 -1      2763 9.09029E-03-1.06985E-03-2.78092E-14
 -1      2764 8.83331E-03-1.01672E-03-2.65365E-14
 -1      2765 9.25438E-03-1.05616E-03-2.86968E-14
 -1      2766 9.42318E-03-1.01997E-03-2.95977E-14
 -1      2767 9.17413E-03-1.04517E-03-2.82856E-14
 -1      2768 9.59481E-03-9.63916E-04-3.05108E-14
 -1      2769 9.77177E-03-8.97727E-04-3.14347E-14
 -1      2770 9.52119E-03-9.60562E-04-3.00835E-14
 -1      2771 9.95242E-03-8.25484E-04-3.23699E-14
 -1      2772 1.01339E-02-7.54634E-04-3.33116E-14
 -1      2773 9.88714E-03-8.12122E-04-3.19284E-14
 -1      2774 1.03160E-02-6.88081E-04-3.42601E-14
 -1      2775 1.04950E-02-6.28591E-04-3.52171E-14
 -1      2776 1.02615E-02-6.62026E-04-3.38077E-14
 -1      2777 1.06717E-02-5.77407E-04-3.61804E-14
 -1      2778 1.08438E-02-5.34129E-04-3.71488E-14
 -1      2779 1.06258E-02-5.43462E-04-3.57159E-14
 -1      2780 1.10126E-02-4.99069E-04-3.81229E-14
 -1      2781 1.11770E-02-4.70779E-04-3.91049E-14
 -1      2782 1.09707E-02-4.62026E-04-3.76497E-14
 -1      2783 1.13384E-02-4.49107E-04-4.00934E-14
 -1      2784 1.14964E-02-4.32673E-04-4.10854E-14
 -1      2785 1.12965E-02-4.11361E-04-3.96077E-14
 -1      2786 1.16520E-02-4.21108E-04-4.20835E-14
 -1      2787 1.18054E-02-4.13373E-04-4.30888E-14
 -1      2788 1.16076E-02-3.83305E-04-4.15901E-14
 -1      2789 1.19571E-02-4.09011E-04-4.41025E-14
 -1      2790 1.21072E-02-4.07309E-04-4.51259E-14
 -1      2791 1.19086E-02-3.71125E-04-4.35995E-14
 -1      2792 1.22562E-02-4.07817E-04-4.61556E-14
 -1      2793 1.24043E-02-4.10059E-04-4.71929E-14
 -1      2794 1.22034E-02-3.69703E-04-4.56420E-14
 -1      2795 1.25515E-02-4.13642E-04-4.82389E-14
 -1      2796 1.26981E-02-4.18252E-04-4.92916E-14
 -1      2797 1.24946E-02-3.75237E-04-4.77155E-14
 -1      2798 1.28441E-02-4.23575E-04-5.03521E-14
 -1      2799 1.29897E-02-4.29403E-04-5.14192E-14
 -1      2800 1.27837E-02-3.84918E-04-4.98202E-14
 -1      2801 1.31349E-02-4.35498E-04-5.24976E-14
 -1      2802 1.32798E-02-4.41723E-04-5.35806E-14
 -1      2803 1.30715E-02-3.96695E-04-5.19549E-14
 -1      2804 1.34244E-02-4.47908E-04-5.46670E-14
 -1      2805 1.35687E-02-4.53960E-04-5.57609E-14
 -1      2806 1.33587E-02-4.09096E-04-5.41171E-14
 -1      2807 1.37128E-02-4.59761E-04-5.68566E-14
 -1      2808 1.38567E-02-4.65246E-04-5.79546E-14
 -1      2809 1.36454E-02-4.21088E-04-5.62970E-14
 -1      2810 1.40003E-02-4.70335E-04-5.90561E-14
 -1      2811 1.41438E-02-4.74974E-04-6.01611E-14
 -1      2812 1.39317E-02-4.31952E-04-5.84926E-14
 -1      2813 8.59368E-03-8.82091E-04-2.57283E-14
 -1      2814 8.44117E-03-7.94655E-04-2.51915E-14
 -1      2815 1.98524E-03 4.58920E-04-1.64618E-15
 -1      2816 1.84314E-03 4.49427E-04-1.42181E-15
 -1      2817 2.83709E-03 4.82762E-04-3.33872E-15
 -1      2818 2.69502E-03 4.81801E-04-3.01557E-15
 -1      2819 3.12156E-03 4.82190E-04-4.03380E-15
 -1      2820 2.97927E-03 4.82867E-04-3.67814E-15
 -1      2821 2.90328E-03 4.46089E-04-3.53753E-15
 -1      2822 3.40662E-03 4.78871E-04-4.79148E-15
 -1      2823 3.26401E-03 4.80839E-04-4.40502E-15
 -1      2824 3.18864E-03 4.44752E-04-4.24843E-15
 -1      2825 3.69239E-03 4.73351E-04-5.61225E-15
 -1      2826 3.54941E-03 4.76359E-04-5.19416E-15
 -1      2827 3.47429E-03 4.40867E-04-5.02244E-15
 -1      2828 3.97904E-03 4.66052E-04-6.49510E-15
 -1      2829 3.83560E-03 4.69901E-04-6.04554E-15
 -1      2830 3.76034E-03 4.34928E-04-5.85828E-15
 -1      2831 4.26673E-03 4.57349E-04-7.43967E-15
 -1      2832 4.12274E-03 4.61853E-04-6.95936E-15
 -1      2833 4.04688E-03 4.27324E-04-6.75671E-15
 -1      2834 4.55565E-03 4.47654E-04-8.44245E-15
 -1      2835 4.41101E-03 4.52597E-04-7.93350E-15
 -1      2836 4.33403E-03 4.18411E-04-7.71567E-15
 -1      2837 4.84605E-03 4.37522E-04-9.50361E-15
 -1      2838 4.70063E-03 4.42603E-04-8.96683E-15
 -1      2839 4.62194E-03 4.08600E-04-8.73225E-15
 -1      2840 5.13827E-03 4.27760E-04-1.06200E-14
 -1      2841 4.99189E-03 4.32535E-04-1.00545E-14
 -1      2842 4.91078E-03 3.98455E-04-9.80562E-15
 -1      2843 5.43272E-03 4.19568E-04-1.17880E-14
 -1      2844 5.28516E-03 4.23379E-04-1.11976E-14
 -1      2845 5.20085E-03 3.88797E-04-1.09332E-14
 -1      2846 5.73003E-03 4.14695E-04-1.30120E-14
 -1      2847 5.58095E-03 4.16588E-04-1.23931E-14
 -1      2848 5.49258E-03 3.80844E-04-1.21138E-14
 -1      2849 6.03105E-03 4.15608E-04-1.42863E-14
 -1      2850 5.88000E-03 4.14244E-04-1.36431E-14
 -1      2851 5.78664E-03 3.76349E-04-1.33483E-14
 -1      2852 6.33703E-03 4.25638E-04-1.56110E-14
 -1      2853 6.18334E-03 4.19229E-04-1.49421E-14
 -1      2854 6.08411E-03 3.77771E-04-1.46339E-14
 -1      2855 6.64965E-03 4.49049E-04-1.69807E-14
 -1      2856 6.49244E-03 4.35335E-04-1.62912E-14
 -1      2857 6.38667E-03 3.88432E-04-1.59677E-14
 -1      2858 6.97090E-03 4.90886E-04-1.83967E-14
 -1      2859 6.80918E-03 4.67261E-04-1.76834E-14
 -1      2860 6.69669E-03 4.12662E-04-1.73484E-14
 -1      2861 7.30259E-03 5.56289E-04-1.98529E-14
 -1      2862 7.13557E-03 5.20247E-04-1.91196E-14
 -1      2863 7.01720E-03 4.55804E-04-1.87719E-14
 -1      2864 7.64493E-03 6.48688E-04-2.13531E-14
 -1      2865 7.47283E-03 5.98949E-04-2.05966E-14
 -1      2866 7.35108E-03 5.23746E-04-2.02381E-14
 -1      2867 7.99445E-03 7.65979E-04-2.28935E-14
 -1      2868 7.81957E-03 7.04753E-04-2.21183E-14
 -1      2869 7.69917E-03 6.21160E-04-2.17469E-14
 -1      2870 8.34274E-03 8.93834E-04-2.44773E-14
 -1      2871 8.16969E-03 8.30341E-04-2.36803E-14
 -1      2872 8.05715E-03 7.46634E-04-2.32992E-14
 -1      2873 8.68012E-03 1.00262E-03-2.61024E-14
 -1      2874 8.51298E-03 9.53324E-04-2.52845E-14
 -1      2875 8.41342E-03 8.82583E-04-2.48937E-14
 -1      2876 9.00429E-03 1.05492E-03-2.77692E-14
 -1      2877 8.84263E-03 1.03839E-03-2.69306E-14
 -1      2878 8.75591E-03 9.92928E-04-2.65288E-14
 -1      2879 9.32551E-03 1.02752E-03-2.94787E-14
 -1      2880 9.16339E-03 1.05133E-03-2.86201E-14
 -1      2881 9.08503E-03 1.03122E-03-2.82089E-14
 -1      2882 9.65719E-03 9.31201E-04-3.12206E-14
 -1      2883 9.48915E-03 9.85587E-04-3.03457E-14
 -1      2884 9.41538E-03 9.77668E-04-2.99276E-14
 -1      2885 1.00020E-02 8.02072E-04-3.29959E-14
 -1      2886 9.82834E-03 8.67964E-04-3.21028E-14
 -1      2887 9.76056E-03 8.56768E-04-3.16809E-14
 -1      2888 1.03520E-02 6.74562E-04-3.48066E-14
 -1      2889 1.01773E-02 7.36350E-04-3.38974E-14
 -1      2890 1.01177E-02 7.16736E-04-3.34674E-14
 -1      2891 1.06976E-02 5.68806E-04-3.66519E-14
 -1      2892 1.05262E-02 6.18496E-04-3.57250E-14
 -1      2893 1.04747E-02 5.90928E-04-3.52883E-14
 -1      2894 1.10333E-02 4.90144E-04-3.85366E-14
 -1      2895 1.08671E-02 5.26205E-04-3.75896E-14
 -1      2896 1.08208E-02 4.94158E-04-3.71435E-14
 -1      2897 1.13582E-02 4.36590E-04-4.04641E-14
 -1      2898 1.11972E-02 4.60578E-04-3.94961E-14
 -1      2899 1.11527E-02 4.26221E-04-3.90410E-14
 -1      2900 1.16737E-02 4.03311E-04-4.24356E-14
 -1      2901 1.15171E-02 4.17807E-04-4.14440E-14
 -1      2902 1.14715E-02 3.82259E-04-4.09791E-14
 -1      2903 1.19819E-02 3.85011E-04-4.44505E-14
 -1      2904 1.18286E-02 3.92613E-04-4.34364E-14
 -1      2905 1.17803E-02 3.56325E-04-4.29588E-14
 -1      2906 1.22845E-02 3.77082E-04-4.65134E-14
 -1      2907 1.21338E-02 3.80005E-04-4.54769E-14
 -1      2908 1.20820E-02 3.43152E-04-4.49854E-14
 -1      2909 1.25830E-02 3.75808E-04-4.86175E-14
 -1      2910 1.24342E-02 3.75802E-04-4.75604E-14
 -1      2911 1.23789E-02 3.38525E-04-4.70602E-14
 -1      2912 1.28785E-02 3.78369E-04-5.07459E-14
 -1      2913 1.27311E-02 3.76746E-04-4.96781E-14
 -1      2914 1.26726E-02 3.39199E-04-4.91666E-14
 -1      2915 1.31715E-02 3.82707E-04-5.28954E-14
 -1      2916 1.30252E-02 3.80413E-04-5.18207E-14
 -1      2917 1.29641E-02 3.42761E-04-5.12997E-14
 -1      2918 1.34626E-02 3.87358E-04-5.50535E-14
 -1      2919 1.33172E-02 3.85061E-04-5.39732E-14
 -1      2920 1.32540E-02 3.47470E-04-5.34503E-14
 -1      2921 1.37522E-02 3.91307E-04-5.72189E-14
 -1      2922 1.36076E-02 3.89468E-04-5.61353E-14
 -1      2923 1.35428E-02 3.52094E-04-5.56086E-14
 -1      2924 1.40406E-02 3.93849E-04-5.93949E-14
 -1      2925 1.38965E-02 3.92788E-04-5.83057E-14
 -1      2926 1.38306E-02 3.55775E-04-5.77760E-14
 -1      2927 1.42971E-02 3.86657E-04-6.13448E-14
 -1      2928 1.41536E-02 3.86481E-04-6.02490E-14
 -1      2929 1.40872E-02 3.49972E-04-5.97168E-14
 -1      2930 1.43123E-02 3.34936E-04-6.14307E-14
 -1      2931 1.43484E-02-4.13828E-05-6.14761E-14
 -1      2932 1.43457E-02-3.47985E-06-6.14613E-14
 -1      2933 1.42407E-02-4.78645E-04-6.09117E-14
 -1      2934 1.43375E-02-4.82073E-04-6.16609E-14
 -1      2935 1.41713E-02-4.40617E-04-6.03443E-14
 -1      2936 1.43332E-02 1.11087E-04-6.14176E-14
 -1      2937 1.43278E-02 1.49790E-04-6.14019E-14
 -1      2938 1.43512E-02-1.17123E-04-6.15084E-14
 -1      2939 1.43502E-02-7.92253E-05-6.14919E-14
 -1      2940 1.42281E-02-5.87075E-05-6.05251E-14
 -1      2941 1.43423E-02 3.45080E-05-6.14463E-14
 -1      2942 1.43381E-02 7.26892E-05-6.14316E-14
 -1      2943 1.42140E-02 9.24455E-05-6.04696E-14
 -1      2944 1.42227E-02 1.65640E-05-6.04972E-14
 -1      2945 1.09911E-02 9.57823E-05-3.47930E-14
 -1      2946 1.11533E-02 4.68389E-05-3.52451E-14
 -1      2947 1.43509E-02-1.91973E-04-6.15352E-14
 -1      2948 1.43514E-02-1.54456E-04-6.15228E-14
 -1      2949 1.42300E-02-1.33326E-04-6.05540E-14
 -1      2950 1.43480E-02-2.69019E-04-6.15654E-14
 -1      2951 1.43497E-02-2.30345E-04-6.15505E-14
 -1      2952 1.42286E-02-2.08519E-04-6.05818E-14
 -1      2953 1.43434E-02-3.47397E-04-6.15937E-14
 -1      2954 1.43458E-02-3.08017E-04-6.15792E-14
 -1      2955 1.42246E-02-2.85468E-04-6.06115E-14
 -1      2956 1.70089E-03 4.37628E-04-1.21473E-15
 -1      2957 1.55842E-03 4.23324E-04-1.02415E-15
 -1      2958 1.76206E-03 4.08059E-04-1.34180E-15
 -1      2959 9.59426E-03-8.70378E-04-3.02358E-14
 -1      2960 9.42065E-03-9.53099E-04-2.94700E-14
 -1      2961 1.02231E-02 4.51970E-04-3.26454E-14
 -1      2962 1.03989E-02 3.58358E-04-3.32021E-14
 -1      2963 1.11405E-02-8.76205E-05-3.45367E-14
 -1      2964 1.10077E-02-1.33671E-04-3.44455E-14
 -1      2965 6.88593E-04-2.03674E-04-2.61984E-16
 -1      2966 1.41574E-03 4.05993E-04-8.50272E-16
 -1      2967 1.27270E-03 3.85378E-04-6.93049E-16
 -1      2968 1.18955E-03 3.40276E-04-6.39639E-16
 -1      2969 1.47600E-03 3.80159E-04-9.57540E-16
 -1      2970 6.75479E-03-1.21846E-05-2.13410E-14
 -1      2971 6.76105E-03-5.24882E-06-2.13195E-14
 -1      2972 1.12897E-02 3.66600E-06-3.54048E-14
 -1      2973 1.13430E-02-1.14581E-05-3.53126E-14
 -1      2974 1.13887E-02-1.64299E-05-3.58293E-14
 -1      2975 2.55303E-03 4.79830E-04-2.70870E-15
 -1      2976 2.41109E-03 4.76754E-04-2.41825E-15
 -1      2977 2.61810E-03 4.44200E-04-2.89077E-15
 -1      2978 2.26917E-03 4.72356E-04-2.14405E-15
 -1      2979 2.12723E-03 4.66511E-04-1.88715E-15
 -1      2980 2.33295E-03 4.38150E-04-2.30836E-15
 -1      2981 1.03360E-03-3.13357E-04-4.95155E-16
 -1      2982 1.17682E-03-3.39166E-04-6.26696E-16
 -1      2983 1.23846E-03-3.17757E-04-7.16549E-16
 -1      2984 8.53630E-03 8.25069E-04-2.58192E-14
 -1      2985 8.66006E-03 8.87554E-04-2.63090E-14
 -1      2986 9.50443E-03 8.66198E-04-3.01237E-14
 -1      2987 9.66541E-03 7.76258E-04-3.07439E-14
 -1      2988 1.07912E-02-2.25451E-04-3.41432E-14
 -1      2989 1.05953E-02-3.13887E-04-3.36411E-14
 -1      2990 1.13358E-02-4.20121E-05-3.51953E-14
 -1      2991 1.12541E-02-5.73991E-05-3.48659E-14
 -1      2992 1.12412E-02-7.20183E-05-3.53292E-14
 -1      2993 9.83948E-03 6.75809E-04-3.13602E-14
 -1      2994 1.00323E-02 5.60189E-04-3.20198E-14
 -1      2995 1.01333E-02 5.26049E-04-3.26110E-14
 -1      2996 9.78746E-03 7.25940E-04-3.13641E-14
 -1      2997 7.84803E-04 1.23121E-04-3.68547E-16
 -1      2998 7.82465E-04 9.97344E-05-3.72857E-16
 -1      2999 9.00144E-04 9.90879E-05-4.75152E-16
 -1      3000 9.05780E-04 1.51087E-04-4.64675E-16
 -1      3001 9.15812E-03 9.78387E-04-2.85571E-14
 -1      3002 9.29162E-03 9.49081E-04-2.91886E-14
 -1      3003 8.19173E-03 6.28738E-04-2.46439E-14
 -1      3004 8.36900E-03 7.33904E-04-2.52209E-14
 -1      3005 6.84463E-03 1.57547E-05-2.16034E-14
 -1      3006 6.96188E-03 4.14636E-05-2.19271E-14
 -1      3007 7.76918E-03 3.84389E-04-2.35169E-14
 -1      3008 7.97259E-03 4.99145E-04-2.40314E-14
 -1      3009 7.82201E-04-9.76834E-05-3.75879E-16
 -1      3010 7.84464E-04-1.20990E-04-3.71881E-16
 -1      3011 7.39596E-03 1.98395E-04-2.27526E-14
 -1      3012 7.54936E-03 2.71270E-04-2.30278E-14
 -1      3013 7.05312E-03-9.14674E-05-2.19490E-14
 -1      3014 6.94144E-03-5.80215E-05-2.18644E-14
 -1      3015 7.09722E-03 8.21027E-05-2.22343E-14
 -1      3016 7.24004E-03 1.32452E-04-2.24904E-14
 -1      3017 6.85315E-03-3.55090E-05-2.16741E-14
 -1      3018 6.79014E-03-2.39787E-05-2.14829E-14
 -1      3019 6.86265E-03-4.80248E-05-2.12865E-14
 -1      3020 8.83233E-03 9.49247E-04-2.70476E-14
 -1      3021 8.99445E-03 9.80511E-04-2.77989E-14
 -1      3022 9.06384E-03 9.90213E-04-2.81131E-14
 -1      3023 1.43644E-02-4.47567E-04-6.18413E-14
 -1      3024 1.06595E-02 2.31393E-04-3.39521E-14
 -1      3025 1.08333E-02 1.55296E-04-3.43705E-14
 -1      3026 1.09588E-02 1.30365E-04-3.51723E-14
 -1      3027 9.25564E-03-1.00545E-03-2.87105E-14
 -1      3028 9.11836E-03-1.02658E-03-2.80388E-14
 -1      3029 7.37535E-03-2.17844E-04-2.23680E-14
 -1      3030 7.21564E-03-1.52131E-04-2.21150E-14
 -1      3031 1.03626E-02-4.31300E-04-3.29494E-14
 -1      3032 1.01696E-02-5.39768E-04-3.23541E-14
 -1      3033 8.93078E-03-1.01230E-03-2.71478E-14
 -1      3034 8.77604E-03-9.64271E-04-2.64516E-14
 -1      3035 7.87466E-04-1.45099E-04-3.66691E-16
 -1      3036 7.91303E-04-1.70243E-04-3.59928E-16
 -1      3037 9.05315E-04-1.48580E-04-4.68226E-16
 -1      3038 8.96077E-04 1.00607E-06-4.84083E-16
 -1      3039 7.78187E-04-9.69037E-06-3.82303E-16
 -1      3040 7.78543E-04-3.12700E-05-3.82059E-16
 -1      3041 9.70613E-03-8.24968E-04-3.07892E-14
 -1      3042 1.00950E-02-6.03326E-04-3.23112E-14
 -1      3043 1.13817E-02-3.69295E-05-3.56975E-14
 -1      3044 8.64809E-04 2.65978E-04-3.67030E-16
 -1      3045 8.74561E-03 9.31255E-04-2.66199E-14
 -1      3046 9.41908E-03 9.12919E-04-2.98050E-14
 -1      3047 1.42027E-02 1.69138E-04-6.04432E-14
 -1      3048 1.43221E-02 1.88486E-04-6.13888E-14
 -1      3049 1.43161E-02 2.27561E-04-6.13743E-14
 -1      3050 8.67005E-03-9.29414E-04-2.59319E-14
 -1      3051 9.35507E-03-9.85401E-04-2.91997E-14
 -1      3052 2.04767E-03 4.26665E-04-1.79200E-15
 -1      3053 1.43171E-02 2.61003E-04-6.14108E-14
 -1      3054 1.43110E-02 3.00828E-04-6.13971E-14
 -1      3055 1.41988E-02 3.08428E-04-6.05388E-14
 -1      3056 1.41972E-02 2.41067E-04-6.04672E-14
 -1      3057 7.92120E-03-4.89569E-04-2.36398E-14
 -1      3058 7.79627E-03-4.36489E-04-2.31204E-14
 -1      3059 7.99829E-03-5.47747E-04-2.36734E-14
 -1      3060 1.43667E-02-4.07135E-04-6.18275E-14
 -1      3061 6.71141E-03 1.74499E-06-2.06024E-14
 -1      3062 6.77144E-03 6.21299E-06-2.10998E-14
 -1      3063 6.79372E-03 2.13685E-05-2.08825E-14
 -1      3064 1.42448E-02-3.83847E-04-6.08591E-14
 -1      3065 1.05097E-02-3.78825E-04-3.36984E-14
 -1      3066 7.00129E-03 6.52538E-05-2.16871E-14
 -1      3067 7.09750E-03-1.21725E-04-2.16379E-14
 -1      3068 7.56620E-03-3.21666E-04-2.25089E-14
 -1      3069 7.47282E-03-2.67338E-04-2.24383E-14
 -1      3070 7.34350E-03-2.30613E-04-2.18699E-14
 -1      3071 7.28249E-03 1.66375E-04-2.22509E-14
 -1      3072 1.05641E-02 2.98757E-04-3.39916E-14
 -1      3073 1.10578E-02-1.42379E-04-3.52508E-14
 -1      3074 1.09306E-02-1.76831E-04-3.46952E-14
 -1      3075 1.08685E-02-2.26576E-04-3.49481E-14
 -1      3076 8.03245E-04-2.02868E-04-3.54575E-16
 -1      3077 8.21651E-04-2.53344E-04-3.39897E-16
 -1      3078 9.52748E-04-2.87530E-04-4.35483E-16
 -1      3079 9.21406E-04-2.10649E-04-4.55677E-16
 -1      3080 7.63830E-03 3.34738E-04-2.29937E-14
 -1      3081 9.82982E-04 2.75022E-04-4.72251E-16
 -1      3082 1.01529E-03-2.71574E-04-5.08979E-16
 -1      3083 1.12458E-02 2.79246E-05-3.57616E-14
 -1      3084 1.13264E-02 1.72148E-05-3.62811E-14
 -1      3085 1.12025E-02 5.97112E-05-3.61174E-14
 -1      3086 8.32169E-03-7.32680E-04-2.47044E-14
 -1      3087 8.20134E-03-6.70038E-04-2.42222E-14
 -1      3088 8.37513E-03-7.83078E-04-2.47268E-14
 -1      3089 7.79306E-04-5.29876E-05-3.80921E-16
 -1      3090 7.80498E-04-7.51161E-05-3.78820E-16
 -1      3091 8.99859E-04-9.67458E-05-4.78174E-16
 -1      3092 8.96954E-04-4.73460E-05-4.83202E-16
 -1      3093 8.42295E-03 7.81939E-04-2.52896E-14
 -1      3094 8.05776E-03 5.70407E-04-2.40865E-14
 -1      3095 6.73946E-03-1.83707E-05-2.09596E-14
 -1      3096 1.04050E-03 2.42432E-04-5.51656E-16
 -1      3097 1.03400E-03 2.10768E-04-5.62796E-16
 -1      3098 8.58765E-03 9.03499E-04-2.57990E-14
 -1      3099 8.74358E-03 9.61024E-04-2.65297E-14
 -1      3100 1.73193E-03-3.37591E-04-1.36212E-15
 -1      3101 1.87562E-03-3.47156E-04-1.57807E-15
 -1      3102 2.01929E-03-3.54905E-04-1.80997E-15
 -1      3103 2.16294E-03-3.60984E-04-2.05760E-15
 -1      3104 1.94051E-03-3.15691E-04-1.71236E-15
 -1      3105 2.30654E-03-3.65656E-04-2.32076E-15
 -1      3106 2.45009E-03-3.69036E-04-2.59940E-15
 -1      3107 2.22847E-03-3.27202E-04-2.20982E-15
 -1      3108 2.59357E-03-3.71332E-04-2.89348E-15
 -1      3109 2.73699E-03-3.72632E-04-3.20268E-15
 -1      3110 2.51629E-03-3.33641E-04-2.76924E-15
 -1      3111 2.88034E-03-3.73093E-04-3.52665E-15
 -1      3112 3.02362E-03-3.72779E-04-3.86568E-15
 -1      3113 2.80378E-03-3.36147E-04-3.38911E-15
 -1      3114 3.16683E-03-3.71806E-04-4.21989E-15
 -1      3115 3.30998E-03-3.70218E-04-4.58920E-15
 -1      3116 3.09084E-03-3.35592E-04-4.06893E-15
 -1      3117 3.45306E-03-3.68103E-04-4.97215E-15
 -1      3118 3.59607E-03-3.65490E-04-5.36971E-15
 -1      3119 3.37739E-03-3.32617E-04-4.80802E-15
 -1      3120 3.73901E-03-3.62445E-04-5.78155E-15
 -1      3121 3.88188E-03-3.58989E-04-6.20722E-15
 -1      3122 3.66337E-03-3.27691E-04-5.60454E-15
 -1      3123 4.02467E-03-3.55182E-04-6.64678E-15
 -1      3124 4.16740E-03-3.51040E-04-7.09993E-15
 -1      3125 3.94871E-03-3.21162E-04-6.45781E-15
 -1      3126 4.31003E-03-3.46626E-04-7.56772E-15
 -1      3127 4.45260E-03-3.41959E-04-8.04889E-15
 -1      3128 4.23332E-03-3.13323E-04-7.36618E-15
 -1      3129 4.59507E-03-3.37117E-04-8.54265E-15
 -1      3130 4.73749E-03-3.32133E-04-9.05027E-15
 -1      3131 4.51712E-03-3.04471E-04-8.33010E-15
 -1      3132 4.87981E-03-3.27108E-04-9.57336E-15
 -1      3133 5.02210E-03-3.22099E-04-1.01089E-14
 -1      3134 4.80002E-03-2.94974E-04-9.34802E-15
 -1      3135 5.16433E-03-3.17247E-04-1.06571E-14
 -1      3136 5.30659E-03-3.12642E-04-1.12201E-14
 -1      3137 5.08199E-03-2.85347E-04-1.04219E-14
 -1      3138 5.44886E-03-3.08474E-04-1.17954E-14
 -1      3139 5.59130E-03-3.04895E-04-1.23844E-14
 -1      3140 5.36311E-03-2.76325E-04-1.15480E-14
 -1      3141 5.73393E-03-3.02142E-04-1.29875E-14
 -1      3142 5.87700E-03-3.00462E-04-1.36041E-14
 -1      3143 5.64371E-03-2.68946E-04-1.27285E-14
 -1      3144 6.02059E-03-3.00135E-04-1.42336E-14
 -1      3145 6.16507E-03-3.01573E-04-1.48764E-14
 -1      3146 5.92454E-03-2.64653E-04-1.39628E-14
 -1      3147 6.31071E-03-3.05070E-04-1.55339E-14
 -1      3148 6.45801E-03-3.11330E-04-1.62040E-14
 -1      3149 6.20715E-03-2.65433E-04-1.52508E-14
 -1      3150 6.60748E-03-3.20636E-04-1.68874E-14
 -1      3151 6.75976E-03-3.34144E-04-1.75850E-14
 -1      3152 6.49438E-03-2.74125E-04-1.65915E-14
 -1      3153 6.91569E-03-3.52039E-04-1.82964E-14
 -1      3154 7.07594E-03-3.76310E-04-1.90208E-14
 -1      3155 6.79095E-03-2.95039E-04-1.79856E-14
 -1      3156 7.24191E-03-4.06989E-04-1.97578E-14
 -1      3157 7.41348E-03-4.47000E-04-2.05102E-14
 -1      3158 7.10390E-03-3.35114E-04-1.94330E-14
 -1      3159 7.59272E-03-4.95986E-04-2.12754E-14
 -1      3160 7.77743E-03-5.57974E-04-2.20529E-14
 -1      3161 7.44259E-03-4.05525E-04-2.09337E-14
 -1      3162 8.08796E-03-6.84511E-04-2.33177E-14
 -1      3163 8.28107E-03-7.70182E-04-2.41297E-14
 -1      3164 8.47254E-03-8.57904E-04-2.49572E-14
 -1      3165 8.74757E-03-9.80051E-04-2.61685E-14
 -1      3166 8.92462E-03-1.02575E-03-2.70310E-14
 -1      3167 9.09968E-03-1.04072E-03-2.79230E-14
 -1      3168 9.27395E-03-1.02106E-03-2.88081E-14
 -1      3169 1.02068E-02-6.38802E-04-3.33549E-14
 -1      3170 1.03960E-02-5.69040E-04-3.43001E-14
 -1      3171 1.05818E-02-5.11575E-04-3.52525E-14
 -1      3172 1.07592E-02-4.64080E-04-3.62107E-14
 -1      3173 1.05420E-02-4.77274E-04-3.47913E-14
 -1      3174 1.09309E-02-4.27112E-04-3.71743E-14
 -1      3175 1.10961E-02-3.97928E-04-3.81454E-14
 -1      3176 1.08963E-02-3.89824E-04-3.67020E-14
 -1      3177 1.12564E-02-3.76268E-04-3.91228E-14
 -1      3178 1.14122E-02-3.59938E-04-4.01077E-14
 -1      3179 1.12210E-02-3.39526E-04-3.86407E-14
 -1      3180 1.15645E-02-3.48686E-04-4.10988E-14
 -1      3181 1.17140E-02-3.41070E-04-4.20932E-14
 -1      3182 1.15255E-02-3.13400E-04-4.06053E-14
 -1      3183 1.18614E-02-3.36790E-04-4.30978E-14
 -1      3184 1.20072E-02-3.34987E-04-4.41109E-14
 -1      3185 1.18176E-02-3.02554E-04-4.25986E-14
 -1      3186 1.21518E-02-3.35336E-04-4.51291E-14
 -1      3187 1.22957E-02-3.37324E-04-4.61590E-14
 -1      3188 1.21030E-02-3.01526E-04-4.46205E-14
 -1      3189 1.24388E-02-3.40639E-04-4.71943E-14
 -1      3190 1.25817E-02-3.44965E-04-4.82378E-14
 -1      3191 1.23854E-02-3.06809E-04-4.66749E-14
 -1      3192 1.27243E-02-3.50031E-04-4.92898E-14
 -1      3193 1.28667E-02-3.55640E-04-5.03468E-14
 -1      3194 1.26668E-02-3.15961E-04-4.87591E-14
 -1      3195 1.30091E-02-3.61570E-04-5.14123E-14
 -1      3196 1.31515E-02-3.67694E-04-5.24880E-14
 -1      3197 1.29482E-02-3.27210E-04-5.08754E-14
 -1      3198 1.32938E-02-3.73843E-04-5.35663E-14
 -1      3199 1.34362E-02-3.79932E-04-5.46491E-14
 -1      3200 1.32302E-02-3.39249E-04-5.30178E-14
 -1      3201 1.35786E-02-3.85845E-04-5.57405E-14
 -1      3202 1.37211E-02-3.91515E-04-5.68327E-14
 -1      3203 1.35129E-02-3.51127E-04-5.51845E-14
 -1      3204 1.38636E-02-3.96864E-04-5.79292E-14
 -1      3205 1.40061E-02-4.01847E-04-5.90291E-14
 -1      3206 1.37962E-02-3.62170E-04-5.73690E-14
 -1      3207 2.96984E-03 4.09160E-04-3.73722E-15
 -1      3208 2.82683E-03 4.09102E-04-3.39747E-15
 -1      3209 3.82787E-03 3.96621E-04-6.10549E-15
 -1      3210 3.68483E-03 3.99953E-04-5.67185E-15
 -1      3211 4.11402E-03 3.88847E-04-7.01930E-15
 -1      3212 3.97092E-03 3.92911E-04-6.55483E-15
 -1      3213 3.89499E-03 3.58528E-04-6.35345E-15
 -1      3214 4.40033E-03 3.79866E-04-7.99121E-15
 -1      3215 4.25714E-03 3.84489E-04-7.49779E-15
 -1      3216 4.18047E-03 3.50718E-04-7.28089E-15
 -1      3217 4.68688E-03 3.70083E-04-9.02185E-15
 -1      3218 4.54356E-03 3.75050E-04-8.49956E-15
 -1      3219 4.46565E-03 3.41807E-04-8.26760E-15
 -1      3220 4.97380E-03 3.60058E-04-1.01074E-14
 -1      3221 4.83027E-03 3.65063E-04-9.55780E-15
 -1      3222 4.75052E-03 3.32187E-04-9.31049E-15
 -1      3223 5.26134E-03 3.50609E-04-1.12462E-14
 -1      3224 5.11746E-03 3.55204E-04-1.06698E-14
 -1      3225 5.03517E-03 3.22402E-04-1.04079E-14
 -1      3226 5.54992E-03 3.42933E-04-1.24396E-14
 -1      3227 5.40544E-03 3.46462E-04-1.18362E-14
 -1      3228 5.31979E-03 3.13241E-04-1.15593E-14
 -1      3229 5.84030E-03 3.38738E-04-1.36860E-14
 -1      3230 5.69480E-03 3.40269E-04-1.30566E-14
 -1      3231 5.60481E-03 3.05840E-04-1.27652E-14
 -1      3232 6.13380E-03 3.40406E-04-1.49811E-14
 -1      3233 5.98654E-03 3.38644E-04-1.43276E-14
 -1      3234 5.89109E-03 3.01803E-04-1.40222E-14
 -1      3235 6.43252E-03 3.51187E-04-1.63247E-14
 -1      3236 6.28234E-03 3.44369E-04-1.56463E-14
 -1      3237 6.18016E-03 3.03364E-04-1.53271E-14
 -1      3238 6.73962E-03 3.75443E-04-1.77140E-14
 -1      3239 6.58482E-03 3.61207E-04-1.70133E-14
 -1      3240 6.47459E-03 3.13628E-04-1.66800E-14
 -1      3241 7.05926E-03 4.18922E-04-1.91473E-14
 -1      3242 6.89770E-03 3.94196E-04-1.84259E-14
 -1      3243 6.77837E-03 3.36997E-04-1.80793E-14
 -1      3244 7.39567E-03 4.88590E-04-2.06226E-14
 -1      3245 7.22539E-03 4.49767E-04-1.98793E-14
 -1      3246 7.09698E-03 3.79832E-04-1.95215E-14
 -1      3247 7.75068E-03 5.91108E-04-2.21418E-14
 -1      3248 7.57146E-03 5.35305E-04-2.13774E-14
 -1      3249 7.43629E-03 4.50875E-04-2.10068E-14
 -1      3250 8.11995E-03 7.26768E-04-2.37046E-14
 -1      3251 7.93502E-03 6.55151E-04-2.29179E-14
 -1      3252 7.79953E-03 5.59768E-04-2.25362E-14
 -1      3253 8.40569E-03 8.31839E-04-2.49847E-14
 -1      3254 8.91590E-03 9.98407E-04-2.73638E-14
 -1      3255 9.23290E-03 9.94227E-04-2.89713E-14
 -1      3256 9.06349E-03 1.00887E-03-2.81149E-14
 -1      3257 9.60026E-03 8.69796E-04-3.07758E-14
 -1      3258 9.42029E-03 9.35826E-04-2.99028E-14
 -1      3259 9.78401E-03 7.93151E-04-3.16587E-14
 -1      3260 1.02419E-02 6.25345E-04-3.39396E-14
 -1      3261 1.00577E-02 6.97112E-04-3.30362E-14
 -1      3262 1.06032E-02 5.06552E-04-3.57723E-14
 -1      3263 1.04251E-02 5.61626E-04-3.48522E-14
 -1      3264 1.03784E-02 5.31102E-04-3.44130E-14
 -1      3265 1.09467E-02 4.22080E-04-3.76368E-14
 -1      3266 1.07777E-02 4.60707E-04-3.66987E-14
 -1      3267 1.07383E-02 4.24550E-04-3.62548E-14
 -1      3268 1.12722E-02 3.66054E-04-3.95454E-14
 -1      3269 1.11116E-02 3.91036E-04-3.85854E-14
 -1      3270 1.10748E-02 3.53981E-04-3.81319E-14
 -1      3271 1.15834E-02 3.31804E-04-4.14950E-14
 -1      3272 1.14293E-02 3.46789E-04-4.05152E-14
 -1      3273 1.13911E-02 3.10244E-04-4.00527E-14
 -1      3274 1.18849E-02 3.12794E-04-4.34859E-14
 -1      3275 1.17351E-02 3.20784E-04-4.24846E-14
 -1      3276 1.16935E-02 2.85033E-04-4.20120E-14
 -1      3277 1.21801E-02 3.04198E-04-4.55256E-14
 -1      3278 1.20331E-02 3.07473E-04-4.45001E-14
 -1      3279 1.19873E-02 2.72152E-04-4.40153E-14
 -1      3280 1.24715E-02 3.02348E-04-4.76066E-14
 -1      3281 1.23261E-02 3.02623E-04-4.65611E-14
 -1      3282 1.22760E-02 2.67389E-04-4.60642E-14
 -1      3283 1.27607E-02 3.04526E-04-4.97166E-14
 -1      3284 1.26163E-02 3.03069E-04-4.86586E-14
 -1      3285 1.25623E-02 2.67720E-04-4.81519E-14
 -1      3286 1.30486E-02 3.08738E-04-5.18545E-14
 -1      3287 1.29048E-02 3.06472E-04-5.07836E-14
 -1      3288 1.28473E-02 2.70950E-04-5.02694E-14
 -1      3289 1.33358E-02 3.13550E-04-5.40041E-14
 -1      3290 1.31922E-02 3.11135E-04-5.29279E-14
 -1      3291 1.31320E-02 2.75480E-04-5.24071E-14
 -1      3292 1.36224E-02 3.17946E-04-5.61624E-14
 -1      3293 1.34791E-02 3.15845E-04-5.50806E-14
 -1      3294 1.34167E-02 2.80157E-04-5.45568E-14
 -1      3295 1.39087E-02 3.21218E-04-5.83317E-14
 -1      3296 1.37656E-02 3.19754E-04-5.72471E-14
 -1      3297 1.37015E-02 2.84163E-04-5.67177E-14
 -1      3298 1.41101E-02 3.11486E-04-5.98625E-14
 -1      3299 1.39976E-02 3.18560E-04-5.90080E-14
 -1      3300 1.39325E-02 2.83196E-04-5.84754E-14
 -1      3301 1.41095E-02 2.77626E-04-5.98272E-14
 -1      3302 9.01700E-03-1.03216E-03-2.75252E-14
 -1      3303 1.01718E-03 6.78946E-05-5.94197E-16
 -1      3304 1.01603E-03 4.10344E-05-5.96664E-16
 -1      3305 1.09286E-02 1.74976E-04-3.55952E-14
 -1      3306 1.10674E-02 1.23479E-04-3.60244E-14
 -1      3307 1.41081E-02-7.57490E-05-5.95772E-14
 -1      3308 1.41063E-02-3.84790E-05-5.95638E-14
 -1      3309 1.41011E-02-3.01540E-04-5.96607E-14
 -1      3310 1.41039E-02-2.62903E-04-5.96476E-14
 -1      3311 1.41089E-02-1.49191E-04-5.96036E-14
 -1      3312 1.41089E-02-1.12401E-04-5.95897E-14
 -1      3313 1.39882E-02-9.17916E-05-5.86322E-14
 -1      3314 1.82471E-03 3.77787E-04-1.47119E-15
 -1      3315 1.68133E-03 3.66826E-04-1.26144E-15
 -1      3316 6.87670E-03-6.62625E-05-2.08950E-14
 -1      3317 6.79522E-03-4.65772E-05-2.07103E-14
 -1      3318 1.03157E-02-5.16989E-04-3.34227E-14
 -1      3319 1.01339E-02-6.16592E-04-3.27257E-14
 -1      3320 1.41063E-02-2.24690E-04-5.96315E-14
 -1      3321 1.41080E-02-1.86794E-04-5.96162E-14
 -1      3322 1.39878E-02-1.65292E-04-5.86570E-14
 -1      3323 1.39838E-02-2.40452E-04-5.86848E-14
 -1      3324 3.54182E-03 4.02849E-04-5.25369E-15
 -1      3325 3.39882E-03 4.05280E-04-4.85130E-15
 -1      3326 3.60919E-03 3.64917E-04-5.48612E-15
 -1      3327 3.25583E-03 4.07177E-04-4.46437E-15
 -1      3328 3.11284E-03 4.08501E-04-4.09292E-15
 -1      3329 3.03672E-03 3.72080E-04-3.93804E-15
 -1      3330 3.32310E-03 3.69566E-04-4.68133E-15
 -1      3331 1.14313E-02-1.28616E-05-3.66187E-14
 -1      3332 1.14456E-02-2.31591E-05-3.65248E-14
 -1      3333 2.68380E-03 4.08199E-04-3.07351E-15
 -1      3334 2.54074E-03 4.06376E-04-2.76591E-15
 -1      3335 2.75006E-03 3.71931E-04-3.25824E-15
 -1      3336 1.44480E-03-3.11904E-04-9.77937E-16
 -1      3337 1.58832E-03-3.25902E-04-1.16207E-15
 -1      3338 1.65273E-03-2.97695E-04-1.27777E-15
 -1      3339 2.39764E-03 4.03460E-04-2.47424E-15
 -1      3340 2.25449E-03 3.99352E-04-2.19891E-15
 -1      3341 2.46312E-03 3.68391E-04-2.64174E-15
 -1      3342 6.91940E-03 5.76180E-05-2.11601E-14
 -1      3343 7.04390E-03 9.38954E-05-2.14616E-14
 -1      3344 1.13097E-02-6.89133E-05-3.59767E-14
 -1      3345 1.12070E-02-9.37096E-05-3.56451E-14
 -1      3346 1.05225E-02-4.08393E-04-3.41219E-14
 -1      3347 7.93385E-03 5.42912E-04-2.34022E-14
 -1      3348 8.12379E-03 6.56095E-04-2.40038E-14
 -1      3349 1.15868E-03-2.75824E-04-6.58029E-16
 -1      3350 1.30158E-03-2.95279E-04-8.09899E-16
 -1      3351 1.36578E-03-2.71585E-04-9.06569E-16
 -1      3352 7.13655E-03-1.62168E-04-2.12152E-14
 -1      3353 6.99727E-03-1.07204E-04-2.10558E-14
 -1      3354 6.90312E-03-9.99566E-05-2.04808E-14
 -1      3355 6.72522E-03-2.78917E-05-2.05297E-14
 -1      3356 6.68602E-03-1.64998E-05-2.03917E-14
 -1      3357 1.14502E-03 3.09471E-04-6.15705E-16
 -1      3358 1.08251E-03 2.70703E-04-5.77053E-16
 -1      3359 1.20170E-03 2.71900E-04-7.07510E-16
 -1      3360 1.28819E-03 3.31089E-04-7.63617E-16
 -1      3361 1.04814E-02 3.76125E-04-3.41400E-14
 -1      3362 1.07132E-02 2.65350E-04-3.48987E-14
 -1      3363 7.16935E-03 1.40330E-04-2.17178E-14
 -1      3364 7.30553E-03 1.98379E-04-2.19737E-14
 -1      3365 7.06463E-03 1.24135E-04-2.11906E-14
 -1      3366 2.11129E-03 3.93818E-04-1.93985E-15
 -1      3367 1.96802E-03 3.86730E-04-1.69697E-15
 -1      3368 2.17592E-03 3.60471E-04-2.09004E-15
 -1      3369 9.99821E-04-2.32326E-04-5.19035E-16
 -1      3370 1.07899E-03-2.54132E-04-5.86513E-16
 -1      3371 9.86720E-04-1.95308E-04-5.25852E-16
 -1      3372 1.14400E-02-3.52801E-05-3.64869E-14
 -1      3373 1.14077E-02-4.74128E-05-3.64504E-14
 -1      3374 1.15005E-02-3.22858E-05-3.72832E-14
 -1      3375 9.42484E-03-9.73974E-04-2.95723E-14
 -1      3376 7.50023E-03 2.91069E-04-2.23859E-14
 -1      3377 7.69697E-03 3.92906E-04-2.28664E-14
 -1      3378 9.60897E-03-9.03805E-04-3.04809E-14
 -1      3379 9.79068E-03-8.07869E-04-3.13112E-14
 -1      3380 9.98587E-03-7.19552E-04-3.22390E-14
 -1      3381 1.01544E-03 1.43863E-05-5.98127E-16
 -1      3382 1.01540E-03-1.21590E-05-5.98656E-16
 -1      3383 1.13614E-03 3.00018E-05-7.23990E-16
 -1      3384 7.78398E-03 4.89581E-04-2.27889E-14
 -1      3385 7.93510E-03-5.77522E-04-2.29562E-14
 -1      3386 1.40838E-02 1.49929E-04-5.95011E-14
 -1      3387 1.40773E-02 1.88282E-04-5.94878E-14
 -1      3388 8.58288E-03-9.05661E-04-2.54486E-14
 -1      3389 1.14232E-02 4.24252E-06-3.69787E-14
 -1      3390 1.15072E-02-4.08044E-06-3.76825E-14
 -1      3391 1.14078E-02 2.65102E-05-3.73392E-14
 -1      3392 9.78433E-04-1.38087E-04-5.41437E-16
 -1      3393 9.82065E-04-1.66204E-04-5.34552E-16
 -1      3394 1.05951E-03-1.84250E-04-6.04822E-16
 -1      3395 8.28070E-03 7.42435E-04-2.45880E-14
 -1      3396 9.91437E-03 6.99525E-04-3.21180E-14
 -1      3397 1.08507E-02 2.45262E-04-3.57448E-14
 -1      3398 6.62336E-03-1.45814E-05-1.97576E-14
 -1      3399 6.66230E-03-6.23973E-06-2.01790E-14
 -1      3400 6.65176E-03 4.57996E-06-1.99652E-14
 -1      3401 1.40951E-02 7.37335E-05-5.95239E-14
 -1      3402 1.40898E-02 1.11666E-04-5.95113E-14
 -1      3403 1.39654E-02 1.30492E-04-5.85595E-14
 -1      3404 8.07193E-03-6.11163E-04-2.36948E-14
 -1      3405 1.41487E-02-3.80263E-04-6.01075E-14
 -1      3406 1.01896E-03 9.50419E-05-5.90253E-16
 -1      3407 1.13877E-03 8.80847E-05-7.18054E-16
 -1      3408 1.02139E-03 1.22707E-04-5.85415E-16
 -1      3409 1.11607E-02 1.37789E-04-3.69737E-14
 -1      3410 1.11758E-02 9.67737E-05-3.65464E-14
 -1      3411 1.12765E-02 7.72909E-05-3.70698E-14
 -1      3412 1.41035E-02-1.26412E-06-5.95501E-14
 -1      3413 1.40997E-02 3.61811E-05-5.95375E-14
 -1      3414 1.39768E-02 5.53136E-05-5.85815E-14
 -1      3415 1.39845E-02-1.87074E-05-5.86067E-14
 -1      3416 1.88854E-03 3.46876E-04-1.60335E-15
 -1      3417 6.71818E-03-4.20512E-05-2.01457E-14
 -1      3418 6.72477E-03 3.05987E-05-2.01692E-14
 -1      3419 6.81524E-03 4.06694E-05-2.06625E-14
 -1      3420 6.83794E-03 6.43451E-05-2.04428E-14
 -1      3421 7.64828E-03-3.75286E-04-2.25409E-14
 -1      3422 7.50687E-03-3.27658E-04-2.19690E-14
 -1      3423 7.72210E-03-4.31591E-04-2.25726E-14
 -1      3424 1.11537E-02-1.30320E-04-3.59005E-14
 -1      3425 1.13988E-02-6.29788E-05-3.67720E-14
 -1      3426 1.55638E-03 3.59225E-04-1.08796E-15
 -1      3427 1.41300E-03 3.43516E-04-9.09022E-16
 -1      3428 1.36927E-03 3.13432E-04-8.78339E-16
 -1      3429 1.61953E-03 3.31456E-04-1.20253E-15
 -1      3430 1.02874E-03 1.80397E-04-5.71835E-16
 -1      3431 1.02464E-03 1.51153E-04-5.79357E-16
 -1      3432 1.14429E-03 1.47896E-04-7.06751E-16
 -1      3433 1.15348E-03 2.10782E-04-6.89769E-16
 -1      3434 1.14361E-03-2.35018E-04-6.68031E-16
 -1      3435 1.07044E-02-3.54215E-04-3.50660E-14
 -1      3436 1.08623E-02-2.72295E-04-3.54816E-14
 -1      3437 1.08618E-02-3.49211E-04-3.61638E-14
 -1      3438 1.10267E-02-3.19960E-04-3.71221E-14
 -1      3439 1.09929E-02-2.31747E-04-3.60418E-14
 -1      3440 7.21492E-03-1.99987E-04-2.12816E-14
 -1      3441 7.09426E-03-1.79615E-04-2.07023E-14
 -1      3442 7.29421E-03-2.42495E-04-2.13486E-14
 -1      3443 7.36889E-03 2.54210E-04-2.18511E-14
 -1      3444 9.73505E-04-8.41840E-05-5.50205E-16
 -1      3445 9.75600E-04-1.10810E-04-5.46262E-16
 -1      3446 1.05199E-03-1.25489E-04-6.18890E-16
 -1      3447 1.02364E-02 5.17403E-04-3.33747E-14
 -1      3448 1.04099E-02 4.67111E-04-3.42705E-14
 -1      3449 1.40804E-02-3.46069E-04-5.95425E-14
 -1      3450 1.39597E-02-3.22620E-04-5.85818E-14
 -1      3451 7.59627E-03 4.27115E-04-2.20159E-14
 -1      3452 2.15066E-03-2.88895E-04-2.09897E-15
 -1      3453 2.29490E-03-2.92948E-04-2.36414E-15
 -1      3454 2.43910E-03-2.95930E-04-2.64475E-15
 -1      3455 2.58322E-03-2.97927E-04-2.94071E-15
 -1      3456 2.36210E-03-2.58286E-04-2.52055E-15
 -1      3457 2.72722E-03-2.99092E-04-3.25082E-15
 -1      3458 2.87110E-03-2.99487E-04-3.57640E-15
 -1      3459 2.65077E-03-2.61973E-04-3.11315E-15
 -1      3460 3.01483E-03-2.99232E-04-3.91771E-15
 -1      3461 3.15839E-03-2.98368E-04-4.27360E-15
 -1      3462 2.93889E-03-2.62737E-04-3.76627E-15
 -1      3463 3.30175E-03-2.96990E-04-4.64418E-15
 -1      3464 3.44492E-03-2.95120E-04-5.02867E-15
 -1      3465 3.22622E-03-2.61199E-04-4.47952E-15
 -1      3466 3.58787E-03-2.92833E-04-5.42697E-15
 -1      3467 3.73058E-03-2.90141E-04-5.84035E-15
 -1      3468 3.51256E-03-2.57817E-04-5.24991E-15
 -1      3469 3.87303E-03-2.87107E-04-6.26868E-15
 -1      3470 4.01523E-03-2.83736E-04-6.70968E-15
 -1      3471 3.79771E-03-2.52930E-04-6.07850E-15
 -1      3472 4.15712E-03-2.80088E-04-7.16504E-15
 -1      3473 4.29871E-03-2.76164E-04-7.63442E-15
 -1      3474 4.08147E-03-2.46795E-04-6.96390E-15
 -1      3475 4.43995E-03-2.72034E-04-8.11634E-15
 -1      3476 4.58087E-03-2.67701E-04-8.61241E-15
 -1      3477 4.36363E-03-2.39644E-04-7.90336E-15
 -1      3478 4.72138E-03-2.63249E-04-9.12305E-15
 -1      3479 4.86153E-03-2.58690E-04-9.64779E-15
 -1      3480 4.64394E-03-2.31723E-04-8.89824E-15
 -1      3481 5.00125E-03-2.54135E-04-1.01858E-14
 -1      3482 5.14058E-03-2.49608E-04-1.07368E-14
 -1      3483 4.92214E-03-2.23346E-04-9.94863E-15
 -1      3484 5.27947E-03-2.45251E-04-1.13007E-14
 -1      3485 5.41802E-03-2.41116E-04-1.18779E-14
 -1      3486 5.19803E-03-2.14934E-04-1.10533E-14
 -1      3487 5.55616E-03-2.37376E-04-1.24691E-14
 -1      3488 5.69409E-03-2.34128E-04-1.30744E-14
 -1      3489 5.47148E-03-2.07052E-04-1.22104E-14
 -1      3490 5.83175E-03-2.31569E-04-1.36919E-14
 -1      3491 5.96949E-03-2.29877E-04-1.43230E-14
 -1      3492 5.74260E-03-2.00452E-04-1.34213E-14
 -1      3493 6.10731E-03-2.29245E-04-1.49676E-14
 -1      3494 6.24577E-03-2.30038E-04-1.56257E-14
 -1      3495 6.01195E-03-1.96092E-04-1.46854E-14
 -1      3496 6.38501E-03-2.32391E-04-1.62961E-14
 -1      3497 6.52595E-03-2.37088E-04-1.69802E-14
 -1      3498 6.28093E-03-1.95261E-04-1.60017E-14
 -1      3499 6.66891E-03-2.44261E-04-1.76763E-14
 -1      3500 6.81532E-03-2.55356E-04-1.83866E-14
 -1      3501 6.55249E-03-2.00019E-04-1.73690E-14
 -1      3502 6.96550E-03-2.70030E-04-1.91104E-14
 -1      3503 7.12216E-03-2.92006E-04-1.98459E-14
 -1      3504 6.83220E-03-2.14408E-04-1.87876E-14
 -1      3505 7.22800E-03-2.91354E-04-2.04743E-14
 -1      3506 7.39601E-03-3.27929E-04-2.12339E-14
 -1      3507 1.38186E-02-3.17855E-04-5.74846E-14
 -1      3508 1.38404E-02-2.74221E-04-5.76027E-14
 -1      3509 1.36778E-02-3.12769E-04-5.63921E-14
 -1      3510 1.57445E-03-2.58652E-04-1.19375E-15
 -1      3511 1.71825E-03-2.68637E-04-1.39636E-15
 -1      3512 1.11843E-02-2.99985E-04-3.80901E-14
 -1      3513 1.13360E-02-2.85357E-04-3.90651E-14
 -1      3514 1.11561E-02-2.58174E-04-3.75420E-14
 -1      3515 1.14832E-02-2.76044E-04-4.00433E-14
 -1      3516 1.16273E-02-2.69861E-04-4.10310E-14
 -1      3517 1.14473E-02-2.37741E-04-3.94856E-14
 -1      3518 1.17690E-02-2.66772E-04-4.20272E-14
 -1      3519 1.19092E-02-2.65671E-04-4.30302E-14
 -1      3520 1.17249E-02-2.31061E-04-4.14571E-14
 -1      3521 1.20483E-02-2.66449E-04-4.40402E-14
 -1      3522 1.21869E-02-2.68552E-04-4.50572E-14
 -1      3523 1.19968E-02-2.32054E-04-4.34603E-14
 -1      3524 1.23251E-02-2.71801E-04-4.60811E-14
 -1      3525 1.24634E-02-2.75908E-04-4.71157E-14
 -1      3526 1.22674E-02-2.37778E-04-4.54930E-14
 -1      3527 1.26017E-02-2.80676E-04-4.81554E-14
 -1      3528 1.27403E-02-2.85943E-04-4.92044E-14
 -1      3529 1.25386E-02-2.46471E-04-4.75544E-14
 -1      3530 1.28792E-02-2.91526E-04-5.02609E-14
 -1      3531 1.30184E-02-2.97328E-04-5.13245E-14
 -1      3532 1.28117E-02-2.56888E-04-4.96488E-14
 -1      3533 1.31579E-02-3.03194E-04-5.23945E-14
 -1      3534 1.32978E-02-3.09058E-04-5.34706E-14
 -1      3535 1.30869E-02-2.68075E-04-5.17734E-14
 -1      3536 1.34176E-02-3.08323E-04-5.43837E-14
 -1      3537 1.35580E-02-3.13898E-04-5.54694E-14
 -1      3538 1.35815E-02-2.70880E-04-5.55873E-14
 -1      3539 1.33440E-02-2.72941E-04-5.37554E-14
 -1      3540 1.05945E-02 4.08076E-04-3.51896E-14
 -1      3541 1.40932E-02 2.16067E-04-5.96395E-14
 -1      3542 1.40936E-02 2.49268E-04-5.96757E-14
 -1      3543 1.40054E-02 2.52123E-04-5.90018E-14
 -1      3544 1.39743E-02 1.96223E-04-5.87004E-14
 -1      3545 3.96175E-03 3.20744E-04-6.60249E-15
 -1      3546 3.81918E-03 3.24133E-04-6.15297E-15
 -1      3547 4.81301E-03 2.95045E-04-9.59946E-15
 -1      3548 4.67165E-03 2.99759E-04-9.06408E-15
 -1      3549 5.09507E-03 2.85623E-04-1.07088E-14
 -1      3550 4.95413E-03 2.90317E-04-1.01478E-14
 -1      3551 4.87444E-03 2.58725E-04-9.88754E-15
 -1      3552 5.37643E-03 2.76826E-04-1.18725E-14
 -1      3553 5.23580E-03 2.81099E-04-1.12831E-14
 -1      3554 5.15363E-03 2.49774E-04-1.10093E-14
 -1      3555 5.65749E-03 2.69691E-04-1.30893E-14
 -1      3556 5.51693E-03 2.72977E-04-1.24743E-14
 -1      3557 5.43138E-03 2.41395E-04-1.21847E-14
 -1      3558 5.93916E-03 2.65668E-04-1.43564E-14
 -1      3559 5.79814E-03 2.67175E-04-1.37168E-14
 -1      3560 5.70807E-03 2.34484E-04-1.34117E-14
 -1      3561 6.22312E-03 2.66771E-04-1.56717E-14
 -1      3562 6.08067E-03 2.65390E-04-1.50080E-14
 -1      3563 5.98457E-03 2.30270E-04-1.46897E-14
 -1      3564 6.51233E-03 2.75897E-04-1.70346E-14
 -1      3565 6.36678E-03 2.70020E-04-1.63481E-14
 -1      3566 6.26264E-03 2.30474E-04-1.60162E-14
 -1      3567 6.81154E-03 2.97427E-04-1.84429E-14
 -1      3568 6.66028E-03 2.84567E-04-1.77323E-14
 -1      3569 6.54554E-03 2.37681E-04-1.73879E-14
 -1      3570 7.12780E-03 3.38482E-04-1.98938E-14
 -1      3571 6.96708E-03 3.14553E-04-1.91634E-14
 -1      3572 6.83874E-03 2.56228E-04-1.88049E-14
 -1      3573 7.44238E-03 3.94919E-04-2.13213E-14
 -1      3574 7.26952E-03 3.55408E-04-2.05695E-14
 -1      3575 7.12516E-03 2.81838E-04-2.01999E-14
 -1      3576 7.40532E-03 3.18323E-04-2.15646E-14
 -1      3577 1.12046E-02 2.89699E-04-3.86287E-14
 -1      3578 1.10454E-02 3.13649E-04-3.76787E-14
 -1      3579 1.09208E-02 2.82357E-04-3.65961E-14
 -1      3580 1.11069E-02 2.08275E-04-3.73091E-14
 -1      3581 1.07713E-02 3.61858E-04-3.61128E-14
 -1      3582 1.15094E-02 2.58261E-04-4.05597E-14
 -1      3583 1.13589E-02 2.71967E-04-3.95894E-14
 -1      3584 1.13324E-02 2.32211E-04-3.91267E-14
 -1      3585 1.18018E-02 2.41341E-04-4.25305E-14
 -1      3586 1.16567E-02 2.48480E-04-4.15396E-14
 -1      3587 1.16242E-02 2.11580E-04-4.10673E-14
 -1      3588 1.20875E-02 2.33734E-04-4.45449E-14
 -1      3589 1.19452E-02 2.36664E-04-4.35314E-14
 -1      3590 1.19065E-02 2.01531E-04-4.30498E-14
 -1      3591 1.23700E-02 2.32055E-04-4.66019E-14
 -1      3592 1.22290E-02 2.32330E-04-4.55688E-14
 -1      3593 1.21845E-02 1.98031E-04-4.50740E-14
 -1      3594 1.26513E-02 2.33977E-04-4.86966E-14
 -1      3595 1.25107E-02 2.32681E-04-4.76457E-14
 -1      3596 1.24611E-02 1.98574E-04-4.71393E-14
 -1      3597 1.29326E-02 2.37816E-04-5.08179E-14
 -1      3598 1.27919E-02 2.35735E-04-4.97542E-14
 -1      3599 1.27381E-02 2.01474E-04-4.92401E-14
 -1      3600 1.32144E-02 2.42340E-04-5.29584E-14
 -1      3601 1.30734E-02 2.40046E-04-5.18873E-14
 -1      3602 1.30161E-02 2.05498E-04-5.13653E-14
 -1      3603 1.34969E-02 2.46652E-04-5.51068E-14
 -1      3604 1.33555E-02 2.44563E-04-5.40313E-14
 -1      3605 1.32954E-02 2.09729E-04-5.35069E-14
 -1      3606 3.67644E-03 3.27153E-04-5.71929E-15
 -1      3607 3.53354E-03 3.29791E-04-5.30145E-15
 -1      3608 3.74358E-03 2.89648E-04-5.95335E-15
 -1      3609 1.38685E-02-1.07750E-04-5.76904E-14
 -1      3610 1.38678E-02-7.18558E-05-5.76789E-14
 -1      3611 1.86226E-03-2.76901E-04-1.61491E-15
 -1      3612 2.00643E-03-2.83583E-04-1.84909E-15
 -1      3613 2.07324E-03-2.50868E-04-1.98844E-15
 -1      3614 4.53010E-03 3.04357E-04-8.54316E-15
 -1      3615 4.38831E-03 3.08812E-04-8.03592E-15
 -1      3616 4.59375E-03 2.67595E-04-8.81843E-15
 -1      3617 1.12729E-02-1.24413E-04-3.68368E-14
 -1      3618 1.11381E-02-1.70705E-04-3.64396E-14
 -1      3619 1.11403E-02-2.14884E-04-3.69828E-14
 -1      3620 1.00708E-02 6.09007E-04-3.27448E-14
 -1      3621 9.93486E-04-3.54291E-05-5.75915E-16
 -1      3622 9.94481E-04-6.16907E-05-5.74370E-16
 -1      3623 1.07031E-03-7.33825E-05-6.49667E-16
 -1      3624 1.11346E-03-2.42550E-05-7.00408E-16
 -1      3625 2.81687E-03 3.35430E-04-3.44398E-15
 -1      3626 2.67316E-03 3.34626E-04-3.12002E-15
 -1      3627 1.95351E-03 3.15309E-04-1.73784E-15
 -1      3628 1.80953E-03 3.07377E-04-1.50975E-15
 -1      3629 6.70544E-03-6.00111E-05-1.97101E-14
 -1      3630 6.63719E-03-4.02661E-05-1.95352E-14
 -1      3631 6.89951E-03-1.29881E-04-2.00187E-14
 -1      3632 6.79392E-03-9.04523E-05-1.98643E-14
 -1      3633 6.69065E-03-8.45097E-05-1.92574E-14
 -1      3634 2.52935E-03 3.32955E-04-2.81155E-15
 -1      3635 2.38546E-03 3.30345E-04-2.51924E-15
 -1      3636 2.59626E-03 2.97237E-04-2.98317E-15
 -1      3637 1.13281E-03-1.71169E-04-6.88956E-16
 -1      3638 1.13759E-03-2.02575E-04-6.79429E-16
 -1      3639 1.21628E-03-2.21119E-04-7.58223E-16
 -1      3640 1.14964E-02-6.71768E-05-3.77943E-14
 -1      3641 1.13967E-02-8.96003E-05-3.73162E-14
 -1      3642 1.13992E-02-1.22748E-04-3.78636E-14
 -1      3643 1.32344E-03-2.34450E-04-8.77973E-16
 -1      3644 1.46648E-03-2.47811E-04-1.05315E-15
 -1      3645 1.53274E-03-2.21206E-04-1.15862E-15
 -1      3646 1.31771E-03-2.00077E-04-8.90076E-16
 -1      3647 6.95951E-03 1.14662E-04-2.06081E-14
 -1      3648 7.07096E-03 1.56538E-04-2.08587E-14
 -1      3649 2.24151E-03 3.26619E-04-2.24273E-15
 -1      3650 2.09750E-03 3.21680E-04-1.98210E-15
 -1      3651 2.30793E-03 2.92332E-04-2.39741E-15
 -1      3652 7.23410E-03 2.34746E-04-2.11626E-14
 -1      3653 1.15648E-02-2.74451E-05-3.80589E-14
 -1      3654 1.15564E-02-4.11640E-05-3.80231E-14
 -1      3655 4.24633E-03 3.13046E-04-7.54263E-15
 -1      3656 4.10413E-03 3.17045E-04-7.06530E-15
 -1      3657 4.02818E-03 2.83360E-04-6.85036E-15
 -1      3658 4.31162E-03 2.75919E-04-7.80559E-15
 -1      3659 7.74829E-03-4.70683E-04-2.24247E-14
 -1      3660 7.07231E-03-2.20462E-04-2.01388E-14
 -1      3661 1.38440E-02-2.36373E-04-5.75883E-14
 -1      3662 1.37477E-02-5.18338E-05-5.67277E-14
 -1      3663 1.38660E-02-3.54889E-05-5.76650E-14
 -1      3664 1.38630E-02 9.64293E-07-5.76533E-14
 -1      3665 1.14001E-02 5.49252E-05-3.77750E-14
 -1      3666 1.15114E-02 3.94783E-05-3.84835E-14
 -1      3667 1.13959E-02 8.80024E-05-3.82087E-14
 -1      3668 6.84030E-03 9.17630E-05-2.01181E-14
 -1      3669 1.78469E-03-2.38715E-04-1.51798E-15
 -1      3670 1.38459E-02 1.88717E-04-5.76998E-14
 -1      3671 1.38610E-02 2.16353E-04-5.78504E-14
 -1      3672 3.10393E-03 3.34896E-04-4.14047E-15
 -1      3673 2.96046E-03 3.35503E-04-3.78437E-15
 -1      3674 2.88416E-03 2.98785E-04-3.63196E-15
 -1      3675 1.15853E-02-6.12310E-05-3.85764E-14
 -1      3676 1.38533E-02 1.50487E-04-5.77123E-14
 -1      3677 1.37408E-02 1.70188E-04-5.68649E-14
 -1      3678 1.38602E-02 1.12728E-04-5.77215E-14
 -1      3679 7.60404E-03-4.18338E-04-2.18521E-14
 -1      3680 3.45796E-03 2.94528E-04-5.11760E-15
 -1      3681 3.39048E-03 3.31985E-04-4.89874E-15
 -1      3682 3.24728E-03 3.33713E-04-4.51161E-15
 -1      3683 1.36463E-02 2.45216E-04-5.62439E-14
 -1      3684 1.35840E-02 2.10244E-04-5.57142E-14
 -1      3685 1.37879E-02 2.46783E-04-5.73281E-14
 -1      3686 1.39171E-02 2.54802E-04-5.83252E-14
 -1      3687 6.58860E-03-2.66510E-05-1.93292E-14
 -1      3688 6.55197E-03-1.50225E-05-1.91229E-14
 -1      3689 6.55758E-03-4.15259E-05-1.89026E-14
 -1      3690 1.38681E-02-1.44380E-04-5.77001E-14
 -1      3691 1.37489E-02-1.23860E-04-5.67492E-14
 -1      3692 1.38666E-02-1.81278E-04-5.77126E-14
 -1      3693 6.64743E-03 1.81927E-05-1.97527E-14
 -1      3694 6.64861E-03 3.48763E-05-1.95390E-14
 -1      3695 6.58253E-03 8.70791E-06-1.93380E-14
 -1      3696 1.25813E-03 4.75426E-05-8.61399E-16
 -1      3697 1.25739E-03 1.66801E-05-8.63242E-16
 -1      3698 1.27967E-03 2.41589E-04-8.18518E-16
 -1      3699 1.27361E-03 2.07433E-04-8.30065E-16
 -1      3700 1.68392E-03 3.02872E-04-1.32052E-15
 -1      3701 1.55845E-03 2.96699E-04-1.14349E-15
 -1      3702 1.74934E-03 2.73453E-04-1.44104E-15
 -1      3703 7.10942E-03 2.15430E-04-2.05794E-14
 -1      3704 2.01943E-03 2.83123E-04-1.87524E-15
 -1      3705 1.12900E-03-1.40654E-04-6.96031E-16
 -1      3706 1.20658E-03-1.56252E-04-7.77319E-16
 -1      3707 1.12608E-03-1.10850E-04-7.01397E-16
 -1      3708 1.16003E-02 4.42213E-06-3.87893E-14
 -1      3709 1.15874E-02-1.26710E-05-3.84244E-14
 -1      3710 1.16636E-02-2.13021E-05-3.91734E-14
 -1      3711 1.26176E-03 1.09797E-04-8.53430E-16
 -1      3712 1.25957E-03 7.84966E-05-8.58254E-16
 -1      3713 1.38127E-03 6.65897E-05-1.01029E-15
 -1      3714 7.01702E-03-1.88083E-04-2.01106E-14
 -1      3715 6.95376E-03-1.56883E-04-2.00480E-14
 -1      3716 6.82899E-03-1.42690E-04-1.94364E-14
 -1      3717 6.92720E-03-1.96624E-04-1.94911E-14
 -1      3718 5.48497E-03 2.07081E-04-1.24955E-14
 -1      3719 5.34829E-03 2.10939E-04-1.18952E-14
 -1      3720 2.57458E-03-2.24875E-04-2.97634E-15
 -1      3721 2.71896E-03-2.25809E-04-3.28814E-15
 -1      3722 2.86316E-03-2.26152E-04-3.61500E-15
 -1      3723 3.00716E-03-2.25939E-04-3.95776E-15
 -1      3724 2.78771E-03-1.89508E-04-3.46519E-15
 -1      3725 3.15090E-03-2.25260E-04-4.31512E-15
 -1      3726 3.29437E-03-2.24133E-04-4.68709E-15
 -1      3727 3.07586E-03-1.89170E-04-4.15031E-15
 -1      3728 3.43753E-03-2.22635E-04-5.07329E-15
 -1      3729 3.58035E-03-2.20769E-04-5.47288E-15
 -1      3730 3.36283E-03-1.87251E-04-4.89565E-15
 -1      3731 3.72279E-03-2.18600E-04-5.88822E-15
 -1      3732 3.86483E-03-2.16123E-04-6.31803E-15
 -1      3733 3.64830E-03-1.84053E-04-5.69850E-15
 -1      3734 4.00643E-03-2.13399E-04-6.76107E-15
 -1      3735 4.14756E-03-2.10414E-04-7.21896E-15
 -1      3736 3.93199E-03-1.79797E-04-6.55861E-15
 -1      3737 4.28817E-03-2.07234E-04-7.68984E-15
 -1      3738 4.42824E-03-2.03841E-04-8.17426E-15
 -1      3739 4.21355E-03-1.74663E-04-7.47528E-15
 -1      3740 4.56770E-03-2.00310E-04-8.67293E-15
 -1      3741 4.70655E-03-1.96621E-04-9.18584E-15
 -1      3742 4.49264E-03-1.68818E-04-8.44801E-15
 -1      3743 4.84470E-03-1.92868E-04-9.71231E-15
 -1      3744 4.98215E-03-1.89030E-04-1.02525E-14
 -1      3745 4.76884E-03-1.62450E-04-9.47538E-15
 -1      3746 5.11880E-03-1.85222E-04-1.08053E-14
 -1      3747 5.25469E-03-1.81424E-04-1.13712E-14
 -1      3748 5.04171E-03-1.55788E-04-1.05571E-14
 -1      3749 5.38970E-03-1.77776E-04-1.19509E-14
 -1      3750 5.52391E-03-1.74263E-04-1.25446E-14
 -1      3751 5.31077E-03-1.49120E-04-1.16924E-14
 -1      3752 5.65719E-03-1.71045E-04-1.31511E-14
 -1      3753 5.78972E-03-1.68118E-04-1.37705E-14
 -1      3754 5.57557E-03-1.42785E-04-1.28801E-14
 -1      3755 5.92134E-03-1.65656E-04-1.44037E-14
 -1      3756 6.05239E-03-1.63677E-04-1.50495E-14
 -1      3757 5.83572E-03-1.37167E-04-1.41214E-14
 -1      3758 6.18270E-03-1.62321E-04-1.57076E-14
 -1      3759 6.31291E-03-1.61760E-04-1.63786E-14
 -1      3760 6.09104E-03-1.32591E-04-1.54142E-14
 -1      3761 6.44274E-03-1.62211E-04-1.70632E-14
 -1      3762 6.57344E-03-1.64074E-04-1.77595E-14
 -1      3763 6.34185E-03-1.29492E-04-1.67569E-14
 -1      3764 1.37251E-02-2.14441E-04-5.66335E-14
 -1      3765 2.28550E-03-2.20843E-04-2.39723E-15
 -1      3766 2.43008E-03-2.23237E-04-2.67933E-15
 -1      3767 2.49873E-03-1.87863E-04-2.83967E-15
 -1      3768 7.36599E-03-2.88534E-04-2.13786E-14
 -1      3769 1.14305E-02-1.98447E-04-3.89993E-14
 -1      3770 1.15645E-02-1.95706E-04-3.99763E-14
 -1      3771 1.16963E-02-1.95239E-04-4.09624E-14
 -1      3772 1.18279E-02-1.96028E-04-4.19562E-14
 -1      3773 1.16722E-02-1.60387E-04-4.04688E-14
 -1      3774 1.19590E-02-1.98054E-04-4.29534E-14
 -1      3775 1.20904E-02-2.00883E-04-4.39618E-14
 -1      3776 1.19236E-02-1.65284E-04-4.24510E-14
 -1      3777 1.22221E-02-2.04415E-04-4.49780E-14
 -1      3778 1.23544E-02-2.08508E-04-4.59992E-14
 -1      3779 1.21783E-02-1.72376E-04-4.44636E-14
 -1      3780 1.24874E-02-2.13012E-04-4.70326E-14
 -1      3781 1.26212E-02-2.17884E-04-4.80710E-14
 -1      3782 1.24372E-02-1.80862E-04-4.65106E-14
 -1      3783 1.27557E-02-2.22960E-04-4.91184E-14
 -1      3784 1.28911E-02-2.28228E-04-5.01717E-14
 -1      3785 1.27005E-02-1.90256E-04-4.85881E-14
 -1      3786 1.30271E-02-2.33532E-04-5.12328E-14
 -1      3787 1.31640E-02-2.38888E-04-5.23009E-14
 -1      3788 1.29679E-02-2.00104E-04-5.06946E-14
 -1      3789 5.21111E-03 2.14969E-04-1.13082E-14
 -1      3790 5.07334E-03 2.19143E-04-1.07351E-14
 -1      3791 5.26769E-03 1.81253E-04-1.16070E-14
 -1      3792 1.12819E-02-2.04124E-04-3.79444E-14
 -1      3793 4.93504E-03 2.23331E-04-1.01752E-14
 -1      3794 4.79616E-03 2.27526E-04-9.62736E-15
 -1      3795 4.99494E-03 1.88920E-04-1.04615E-14
 -1      3796 5.75686E-03 2.00398E-04-1.37339E-14
 -1      3797 5.62109E-03 2.03545E-04-1.31085E-14
 -1      3798 5.53737E-03 1.73919E-04-1.28056E-14
 -1      3799 6.02754E-03 1.95889E-04-1.50223E-14
 -1      3800 5.89222E-03 1.97797E-04-1.43721E-14
 -1      3801 5.80403E-03 1.67446E-04-1.40542E-14
 -1      3802 6.29866E-03 1.94928E-04-1.63585E-14
 -1      3803 6.16280E-03 1.94818E-04-1.56847E-14
 -1      3804 6.06817E-03 1.62498E-04-1.53545E-14
 -1      3805 6.57348E-03 1.99760E-04-1.77403E-14
 -1      3806 6.43516E-03 1.96327E-04-1.70434E-14
 -1      3807 6.33113E-03 1.60048E-04-1.67003E-14
 -1      3808 6.85787E-03 2.14515E-04-1.91672E-14
 -1      3809 6.71368E-03 2.05214E-04-1.84483E-14
 -1      3810 6.59581E-03 1.61803E-04-1.80921E-14
 -1      3811 6.98440E-03 2.08800E-04-1.99074E-14
 -1      3812 1.17347E-02 1.70125E-04-4.15777E-14
 -1      3813 1.15966E-02 1.75008E-04-4.05966E-14
 -1      3814 1.12160E-02 1.79684E-04-3.78384E-14
 -1      3815 1.20069E-02 1.65425E-04-4.35695E-14
 -1      3816 1.18711E-02 1.67186E-04-4.25683E-14
 -1      3817 1.18390E-02 1.33542E-04-4.20883E-14
 -1      3818 1.22778E-02 1.64845E-04-4.56045E-14
 -1      3819 1.21423E-02 1.64746E-04-4.45828E-14
 -1      3820 1.21023E-02 1.32468E-04-4.40899E-14
 -1      3821 1.25493E-02 1.66772E-04-4.76783E-14
 -1      3822 1.24133E-02 1.65567E-04-4.66367E-14
 -1      3823 1.23670E-02 1.33677E-04-4.61342E-14
 -1      3824 1.28225E-02 1.70071E-04-4.97836E-14
 -1      3825 1.26856E-02 1.68295E-04-4.87287E-14
 -1      3826 1.26342E-02 1.36231E-04-4.82171E-14
 -1      3827 1.30977E-02 1.73888E-04-5.19126E-14
 -1      3828 1.29598E-02 1.71946E-04-5.08444E-14
 -1      3829 1.29044E-02 1.39431E-04-5.03264E-14
 -1      3830 1.33750E-02 1.77559E-04-5.40522E-14
 -1      3831 1.32361E-02 1.75760E-04-5.29811E-14
 -1      3832 1.31775E-02 1.42715E-04-5.24555E-14
 -1      3833 1.14098E-02-1.59491E-04-3.84297E-14
 -1      3834 3.81066E-03 2.52477E-04-6.18795E-15
 -1      3835 3.66827E-03 2.55044E-04-5.75470E-15
 -1      3836 1.32640E-03 2.84120E-04-8.47060E-16
 -1      3837 1.44638E-03 2.79174E-04-1.00403E-15
 -1      3838 1.99640E-03-2.13315E-04-1.87823E-15
 -1      3839 2.14092E-03-2.17560E-04-2.12993E-15
 -1      3840 2.20937E-03-1.83705E-04-2.27402E-15
 -1      3841 1.39433E-03 2.01216E-04-9.83182E-16
 -1      3842 1.26867E-03 1.74185E-04-8.39687E-16
 -1      3843 1.26478E-03 1.41691E-04-8.47440E-16
 -1      3844 4.65677E-03 2.31619E-04-9.09421E-15
 -1      3845 4.51686E-03 2.35614E-04-8.57405E-15
 -1      3846 4.71928E-03 1.96494E-04-9.36885E-15
 -1      3847 1.38589E-02 3.75516E-05-5.76442E-14
 -1      3848 1.38537E-02 7.44191E-05-5.76322E-14
 -1      3849 1.37415E-02 2.01639E-05-5.67060E-14
 -1      3850 2.08628E-03 2.50326E-04-2.01499E-15
 -1      3851 1.94190E-03 2.45016E-04-1.76900E-15
 -1      3852 1.37891E-03 8.36813E-07-1.01357E-15
 -1      3853 1.25659E-03-1.46004E-05-8.62917E-16
 -1      3854 1.36315E-02 1.73195E-04-5.60233E-14
 -1      3855 1.34840E-02 1.74970E-04-5.48879E-14
 -1      3856 1.34231E-02 1.41563E-04-5.43591E-14
 -1      3857 1.36398E-02 1.35662E-04-5.60344E-14
 -1      3858 6.65312E-03-1.08851E-04-1.87210E-14
 -1      3859 6.57460E-03-7.88718E-05-1.85729E-14
 -1      3860 2.66384E-03 2.61261E-04-3.15615E-15
 -1      3861 2.51955E-03 2.59854E-04-2.84756E-15
 -1      3862 6.71561E-03 7.52449E-05-1.95074E-14
 -1      3863 6.81783E-03 1.20454E-04-1.96685E-14
 -1      3864 2.37517E-03 2.57622E-04-2.55418E-15
 -1      3865 2.23072E-03 2.54498E-04-2.27647E-15
 -1      3866 2.44312E-03 2.22552E-04-2.71299E-15
 -1      3867 1.70796E-03-2.01397E-04-1.42181E-15
 -1      3868 1.85205E-03-2.07961E-04-1.64236E-15
 -1      3869 1.92023E-03-1.76378E-04-1.76926E-15
 -1      3870 1.16825E-02-5.42555E-05-3.94477E-14
 -1      3871 1.16235E-02-8.27639E-05-3.92168E-14
 -1      3872 1.15259E-02-1.24535E-04-3.89143E-14
 -1      3873 1.13409E-02 1.89186E-04-3.88374E-14
 -1      3874 1.13750E-02 1.26783E-04-3.84996E-14
 -1      3875 1.15024E-02 1.02511E-04-3.92159E-14
 -1      3876 1.14833E-02 1.79671E-04-3.98004E-14
 -1      3877 1.51169E-03 2.53018E-04-1.10949E-15
 -1      3878 1.36073E-02-2.16237E-04-5.57185E-14
 -1      3879 1.36308E-02-1.62522E-04-5.58433E-14
 -1      3880 1.34898E-02-2.17779E-04-5.47994E-14
 -1      3881 6.60636E-03-1.49801E-04-1.80609E-14
 -1      3882 6.73609E-03-1.52837E-04-1.87756E-14
 -1      3883 1.38600E-03 1.32841E-04-1.00023E-15
 -1      3884 1.36299E-02-6.79805E-05-5.57922E-14
 -1      3885 1.36280E-02-3.25605E-05-5.57817E-14
 -1      3886 3.17144E-03 2.97704E-04-4.34373E-15
 -1      3887 3.59329E-03 2.20258E-04-5.55738E-15
 -1      3888 3.52556E-03 2.57258E-04-5.33715E-15
 -1      3889 3.38254E-03 2.59116E-04-4.93469E-15
 -1      3890 1.32555E-02-2.20248E-04-5.29760E-14
 -1      3891 1.33725E-02-2.19127E-04-5.38851E-14
 -1      3892 1.33982E-02-1.66564E-04-5.40160E-14
 -1      3893 2.95195E-03 2.62037E-04-3.82137E-15
 -1      3894 2.80798E-03 2.61974E-04-3.48063E-15
 -1      3895 2.73200E-03 2.25104E-04-3.33098E-15
 -1      3896 1.50258E-03 1.80827E-05-1.17586E-15
 -1      3897 1.50177E-03-1.66508E-05-1.17542E-15
 -1      3898 6.84668E-03 1.54932E-04-1.95374E-14
 -1      3899 1.37430E-02 9.41891E-05-5.67874E-14
 -1      3900 1.81576E-03 2.43220E-04-1.56418E-15
 -1      3901 1.68981E-03 2.40165E-04-1.37192E-15
 -1      3902 1.88304E-03 2.12173E-04-1.69049E-15
 -1      3903 6.47424E-03-1.48116E-05-1.84974E-14
 -1      3904 6.52449E-03-2.77763E-06-1.89167E-14
 -1      3905 6.50435E-03 1.02102E-05-1.87097E-14
 -1      3906 1.16506E-02-1.11741E-04-3.97915E-14
 -1      3907 3.95270E-03 2.49618E-04-6.63660E-15
 -1      3908 3.87771E-03 2.15722E-04-6.42273E-15
 -1      3909 4.09437E-03 2.46460E-04-7.09862E-15
 -1      3910 6.51246E-03-6.02580E-05-1.83757E-14
 -1      3911 6.45894E-03-4.44867E-05-1.81769E-14
 -1      3912 6.46408E-03-8.17300E-05-1.78518E-14
 -1      3913 1.16295E-02 5.22578E-05-3.96733E-14
 -1      3914 1.16159E-02 2.65517E-05-3.92303E-14
 -1      3915 1.17135E-02 1.58419E-05-3.99862E-14
 -1      3916 6.53654E-03 4.22005E-05-1.86930E-14
 -1      3917 6.62068E-03 5.65336E-05-1.90985E-14
 -1      3918 6.58832E-03 8.10922E-05-1.86611E-14
 -1      3919 1.49211E-03-1.84918E-04-1.12219E-15
 -1      3920 1.59989E-03-1.93496E-04-1.26765E-15
 -1      3921 1.66784E-03-1.64651E-04-1.37951E-15
 -1      3922 1.59758E-03 2.28532E-04-1.24405E-15
 -1      3923 1.48598E-03 2.13695E-04-1.09731E-15
 -1      3924 1.48104E-03 1.78048E-04-1.10772E-15
 -1      3925 1.66468E-03 1.99965E-04-1.35674E-15
 -1      3926 2.15395E-03 2.16957E-04-2.15713E-15
 -1      3927 1.23441E-03-4.17217E-05-8.35364E-16
 -1      3928 1.17285E-02-3.80662E-05-3.98193E-14
 -1      3929 1.17869E-02-5.67561E-05-4.04670E-14
 -1      3930 1.17644E-02-2.19145E-05-4.01902E-14
 -1      3931 1.15992E-02 1.37185E-04-4.03018E-14
 -1      3932 1.36310E-02-1.32928E-04-5.58215E-14
 -1      3933 1.36317E-02-9.72336E-05-5.58132E-14
 -1      3934 1.35135E-02-7.75030E-05-5.48692E-14
 -1      3935 1.35150E-02-1.35406E-04-5.49095E-14
 -1      3936 6.70933E-03 1.32691E-04-1.89351E-14
 -1      3937 4.44099E-03 2.03642E-04-8.33059E-15
 -1      3938 4.37648E-03 2.39428E-04-8.06797E-15
 -1      3939 4.23563E-03 2.43066E-04-7.57601E-15
 -1      3940 1.29543E-03-1.66138E-04-8.78150E-16
 -1      3941 1.40242E-03-1.75921E-04-1.00766E-15
 -1      3942 1.47024E-03-1.49751E-04-1.10739E-15
 -1      3943 1.29181E-03-1.33522E-04-8.85427E-16
 -1      3944 1.19031E-03-6.42358E-05-7.81994E-16
 -1      3945 1.16919E-03-9.01028E-05-7.53819E-16
 -1      3946 1.24627E-03-1.03199E-04-8.39593E-16
 -1      3947 1.33390E-03-5.68310E-05-9.53868E-16
 -1      3948 1.50504E-03 8.64834E-05-1.17011E-15
 -1      3949 1.50341E-03 5.21947E-05-1.17387E-15
 -1      3950 1.62632E-03 3.60349E-05-1.34902E-15
 -1      3951 3.00118E-03-1.52969E-04-3.98713E-15
 -1      3952 3.14503E-03-1.52470E-04-4.34562E-15
 -1      3953 3.28852E-03-1.51681E-04-4.71876E-15
 -1      3954 3.43163E-03-1.50597E-04-5.10642E-15
 -1      3955 3.21463E-03-1.15911E-04-4.54221E-15
 -1      3956 3.57430E-03-1.49279E-04-5.50893E-15
 -1      3957 3.71650E-03-1.47714E-04-5.92531E-15
 -1      3958 3.50077E-03-1.14237E-04-5.31935E-15
 -1      3959 3.85817E-03-1.45960E-04-6.35578E-15
 -1      3960 3.99929E-03-1.43996E-04-6.80127E-15
 -1      3961 3.78495E-03-1.11816E-04-6.15325E-15
 -1      3962 4.13978E-03-1.41880E-04-7.26111E-15
 -1      3963 4.27961E-03-1.39583E-04-7.73497E-15
 -1      3964 4.06679E-03-1.08776E-04-7.04637E-15
 -1      3965 4.41872E-03-1.37174E-04-8.22179E-15
 -1      3966 4.55705E-03-1.34616E-04-8.72327E-15
 -1      3967 4.34584E-03-1.05224E-04-7.99579E-15
 -1      3968 4.69453E-03-1.31988E-04-9.23849E-15
 -1      3969 4.83111E-03-1.29246E-04-9.76701E-15
 -1      3970 4.62161E-03-1.01273E-04-9.00110E-15
 -1      3971 4.96669E-03-1.26489E-04-1.03089E-14
 -1      3972 5.10123E-03-1.23659E-04-1.08634E-14
 -1      3973 4.89354E-03-9.70390E-05-1.00599E-14
 -1      3974 5.23460E-03-1.20879E-04-1.14320E-14
 -1      3975 5.36679E-03-1.18073E-04-1.20137E-14
 -1      3976 5.16095E-03-9.26643E-05-1.11718E-14
 -1      3977 5.49761E-03-1.15388E-04-1.26088E-14
 -1      3978 5.62709E-03-1.12719E-04-1.32171E-14
 -1      3979 5.42305E-03-8.83027E-05-1.23368E-14
 -1      3980 5.75498E-03-1.10242E-04-1.38384E-14
 -1      3981 5.88137E-03-1.07811E-04-1.44730E-14
 -1      3982 5.67887E-03-8.40902E-05-1.35552E-14
 -1      3983 6.00591E-03-1.05637E-04-1.51195E-14
 -1      3984 6.12882E-03-1.03441E-04-1.57787E-14
 -1      3985 5.92720E-03-8.01103E-05-1.48248E-14
 -1      3986 1.49396E-03 1.49609E-04-1.13684E-15
 -1      3987 1.49076E-03 1.14755E-04-1.14360E-15
 -1      3988 1.61295E-03 1.01054E-04-1.31842E-15
 -1      3989 1.58549E-03 1.59771E-04-1.26003E-15
 -1      3990 3.23926E-03 2.60553E-04-4.54785E-15
 -1      3991 3.09572E-03 2.61554E-04-4.17693E-15
 -1      3992 3.30736E-03 2.23528E-04-4.75352E-15
 -1      3993 1.17654E-02-1.15529E-04-4.07738E-14
 -1      3994 2.71266E-03-1.52875E-04-3.31563E-15
 -1      3995 2.85705E-03-1.53107E-04-3.64354E-15
 -1      3996 2.92691E-03-1.16674E-04-3.82448E-15
 -1      3997 1.31933E-02-1.86759E-04-5.24304E-14
 -1      3998 5.58906E-03 1.42043E-04-1.31143E-14
 -1      3999 5.45690E-03 1.45362E-04-1.25035E-14
 -1      4000 1.21353E-02-1.42027E-04-4.39557E-14
 -1      4001 1.22606E-02-1.46083E-04-4.49692E-14
 -1      4002 1.23873E-02-1.50188E-04-4.59906E-14
 -1      4003 1.25157E-02-1.54506E-04-4.70223E-14
 -1      4004 1.23374E-02-1.21011E-04-4.54749E-14
 -1      4005 1.26454E-02-1.58857E-04-4.80606E-14
 -1      4006 1.27765E-02-1.63353E-04-4.91052E-14
 -1      4007 1.25902E-02-1.28784E-04-4.75337E-14
 -1      4008 1.29088E-02-1.67821E-04-5.01585E-14
 -1      4009 1.30423E-02-1.72352E-04-5.12179E-14
 -1      4010 1.28496E-02-1.36715E-04-4.96237E-14
 -1      4011 5.32377E-03 1.48715E-04-1.19047E-14
 -1      4012 5.18958E-03 1.52157E-04-1.13194E-14
 -1      4013 5.37958E-03 1.17388E-04-1.22016E-14
 -1      4014 5.85013E-03 1.35876E-04-1.43748E-14
 -1      4015 5.72008E-03 1.38902E-04-1.37378E-14
 -1      4016 5.64033E-03 1.11491E-04-1.34219E-14
 -1      4017 5.05447E-03 1.55560E-04-1.07472E-14
 -1      4018 4.91841E-03 1.58971E-04-1.01886E-14
 -1      4019 5.11383E-03 1.23290E-04-1.10320E-14
 -1      4020 6.10704E-03 1.30578E-04-1.56844E-14
 -1      4021 5.97899E-03 1.33121E-04-1.50230E-14
 -1      4022 5.89546E-03 1.05734E-04-1.46934E-14
 -1      4023 6.36049E-03 1.26707E-04-1.70409E-14
 -1      4024 6.23395E-03 1.28408E-04-1.63576E-14
 -1      4025 6.14440E-03 1.00163E-04-1.60141E-14
 -1      4026 6.59712E-03 1.28515E-04-1.83316E-14
 -1      4027 6.47020E-03 1.28732E-04-1.76276E-14
 -1      4028 6.37121E-03 9.79690E-05-1.72728E-14
 -1      4029 6.58110E-03 9.98683E-05-1.84584E-14
 -1      4030 1.36291E-02 6.02687E-05-5.58560E-14
 -1      4031 1.36349E-02 9.76863E-05-5.59463E-14
 -1      4032 1.35272E-02 1.00983E-04-5.51067E-14
 -1      4033 1.21924E-02 1.02269E-04-4.46149E-14
 -1      4034 1.20640E-02 1.01612E-04-4.36042E-14
 -1      4035 1.24522E-02 1.04231E-04-4.66686E-14
 -1      4036 1.23217E-02 1.03129E-04-4.56351E-14
 -1      4037 1.22772E-02 7.39601E-05-4.51382E-14
 -1      4038 1.27160E-02 1.06725E-04-4.87527E-14
 -1      4039 1.25836E-02 1.05409E-04-4.77056E-14
 -1      4040 1.25333E-02 7.58711E-05-4.71981E-14
 -1      4041 1.29839E-02 1.09392E-04-5.08664E-14
 -1      4042 1.28495E-02 1.08039E-04-4.98076E-14
 -1      4043 1.27948E-02 7.77974E-05-4.92887E-14
 -1      4044 1.32554E-02 1.11868E-04-5.29976E-14
 -1      4045 1.31192E-02 1.10658E-04-5.19309E-14
 -1      4046 1.30611E-02 7.96101E-05-5.14064E-14
 -1      4047 1.16112E-02 1.09512E-04-4.01353E-14
 -1      4048 1.16176E-02 7.57267E-05-3.98408E-14
 -1      4049 1.17304E-02 6.05881E-05-4.05997E-14
 -1      4050 1.17151E-02 1.08879E-04-4.09360E-14
 -1      4051 2.13384E-03-1.47020E-04-2.15195E-15
 -1      4052 2.27859E-03-1.49333E-04-2.42031E-15
 -1      4053 2.42336E-03-1.51044E-04-2.70358E-15
 -1      4054 2.56807E-03-1.52195E-04-3.00203E-15
 -1      4055 2.34852E-03-1.14497E-04-2.56808E-15
 -1      4056 1.19536E-02 1.04653E-04-4.27559E-14
 -1      4057 1.18261E-02 1.04737E-04-4.17648E-14
 -1      4058 1.18301E-02 8.06471E-05-4.15952E-14
 -1      4059 1.20440E-02 7.54544E-05-4.32737E-14
 -1      4060 2.22243E-03 1.83040E-04-2.30133E-15
 -1      4061 2.07777E-03 1.79878E-04-2.03873E-15
 -1      4062 4.78152E-03 1.62281E-04-9.64329E-15
 -1      4063 4.64380E-03 1.65531E-04-9.11100E-15
 -1      4064 4.84366E-03 1.29026E-04-9.91671E-15
 -1      4065 1.36317E-02-4.18960E-06-5.58237E-14
 -1      4066 1.36273E-02 3.14906E-05-5.58151E-14
 -1      4067 1.35207E-02 3.54336E-05-5.49765E-14
 -1      4068 1.35153E-02-2.08216E-05-5.48930E-14
 -1      4069 1.62546E-03-3.56230E-05-1.34845E-15
 -1      4070 1.50175E-03-5.14664E-05-1.17284E-15
 -1      4071 1.84484E-03-1.40252E-04-1.66116E-15
 -1      4072 1.98922E-03-1.44014E-04-1.89857E-15
 -1      4073 2.05898E-03-1.10895E-04-2.03100E-15
 -1      4074 1.18436E-02-8.59825E-05-4.11763E-14
 -1      4075 1.18855E-02-1.28086E-04-4.18639E-14
 -1      4076 2.51180E-03 1.87148E-04-2.87358E-15
 -1      4077 2.36713E-03 1.85447E-04-2.57964E-15
 -1      4078 2.29163E-03 1.48629E-04-2.44782E-15
 -1      4079 1.31311E-02-1.54298E-04-5.18885E-14
 -1      4080 6.49838E-03-1.15648E-04-1.77454E-14
 -1      4081 6.23170E-03-7.06547E-05-1.65542E-14
 -1      4082 6.31539E-03-9.56294E-05-1.68635E-14
 -1      4083 2.00223E-03 1.43370E-04-1.92184E-15
 -1      4084 1.93325E-03 1.75840E-04-1.79175E-15
 -1      4085 2.65636E-03 1.88254E-04-3.18289E-15
 -1      4086 2.58111E-03 1.51475E-04-3.03616E-15
 -1      4087 2.80076E-03 1.88798E-04-3.50748E-15
 -1      4088 2.63804E-03-1.16301E-04-3.16625E-15
 -1      4089 1.20064E-02-1.31905E-04-4.28608E-14
 -1      4090 1.20858E-02-1.07443E-04-4.33598E-14
 -1      4091 3.66121E-03 1.83581E-04-5.77853E-15
 -1      4092 3.51870E-03 1.85281E-04-5.36191E-15
 -1      4093 1.80689E-03 1.75397E-04-1.58603E-15
 -1      4094 3.80325E-03 1.81640E-04-6.21081E-15
 -1      4095 3.72933E-03 1.47296E-04-6.00057E-15
 -1      4096 3.94482E-03 1.79436E-04-6.65815E-15
 -1      4097 6.43231E-03-9.40182E-05-1.75551E-14
 -1      4098 3.02018E-03 2.25266E-04-4.01148E-15
 -1      4099 4.16037E-03 2.10121E-04-7.34756E-15
 -1      4100 1.74990E-03-1.82951E-05-1.53596E-15
 -1      4101 1.74992E-03-5.57657E-05-1.53286E-15
 -1      4102 6.48731E-03 8.08383E-05-1.80614E-14
 -1      4103 6.41391E-03-3.00029E-05-1.79781E-14
 -1      4104 6.37605E-03-1.63094E-05-1.77795E-14
 -1      4105 6.35534E-03-4.75219E-05-1.74644E-14
 -1      4106 1.30861E-02-1.19577E-04-5.14873E-14
 -1      4107 1.32367E-02-1.32650E-04-5.26985E-14
 -1      4108 6.69390E-03-1.29713E-04-1.87486E-14
 -1      4109 6.45861E-03 2.73532E-05-1.82796E-14
 -1      4110 6.41345E-03 4.68860E-05-1.78533E-14
 -1      4111 6.38958E-03 1.41123E-05-1.78701E-14
 -1      4112 4.56962E-03 1.34429E-04-8.85384E-15
 -1      4113 4.50533E-03 1.68626E-04-8.59260E-15
 -1      4114 4.36614E-03 1.71603E-04-8.08728E-15
 -1      4115 1.33962E-02-3.17449E-05-5.39393E-14
 -1      4116 1.33996E-02-4.21661E-06-5.39831E-14
 -1      4117 1.45726E-03-7.72018E-05-1.10922E-15
 -1      4118 1.18014E-02-2.93399E-06-4.06391E-14
 -1      4119 1.18802E-02-2.10460E-05-4.12948E-14
 -1      4120 1.18332E-02 1.82985E-05-4.10878E-14
 -1      4121 1.19003E-02-6.72787E-05-4.15531E-14
 -1      4122 1.34198E-02 1.04106E-04-5.42713E-14
 -1      4123 1.33586E-02 7.23793E-05-5.37424E-14
 -1      4124 1.33493E-03-1.10488E-04-9.44950E-16
 -1      4125 1.75078E-03 5.50526E-05-1.53348E-15
 -1      4126 1.74991E-03 1.83519E-05-1.53561E-15
 -1      4127 1.87413E-03-5.57199E-07-1.73341E-15
 -1      4128 1.33179E-02-1.35154E-04-5.33444E-14
 -1      4129 1.34329E-02-1.33000E-04-5.42567E-14
 -1      4130 1.34329E-02-1.04270E-04-5.42378E-14
 -1      4131 1.32703E-02-1.00042E-04-5.29404E-14
 -1      4132 1.59226E-03-1.14950E-04-1.28703E-15
 -1      4133 1.70009E-03-1.20616E-04-1.44288E-15
 -1      4134 1.34317E-02-7.57125E-05-5.42182E-14
 -1      4135 1.33179E-02-5.84905E-05-5.33088E-14
 -1      4136 1.76984E-03-8.98600E-05-1.55743E-15
 -1      4137 3.42775E-03-7.89417E-05-5.12908E-15
 -1      4138 3.57032E-03-7.82021E-05-5.53274E-15
 -1      4139 3.71234E-03-7.73573E-05-5.95115E-15
 -1      4140 3.85377E-03-7.63788E-05-6.38366E-15
 -1      4141 3.64028E-03-4.25421E-05-5.74794E-15
 -1      4142 3.99455E-03-7.53217E-05-6.83142E-15
 -1      4143 4.13463E-03-7.41502E-05-7.29369E-15
 -1      4144 3.92298E-03-4.14484E-05-6.61609E-15
 -1      4145 4.27394E-03-7.29192E-05-7.76920E-15
 -1      4146 4.41243E-03-7.15838E-05-8.25898E-15
 -1      4147 4.20290E-03-4.01484E-05-7.54194E-15
 -1      4148 4.55000E-03-7.02239E-05-8.76239E-15
 -1      4149 4.68660E-03-6.87775E-05-9.28013E-15
 -1      4150 4.47950E-03-3.87024E-05-8.52412E-15
 -1      4151 4.82212E-03-6.73212E-05-9.81036E-15
 -1      4152 4.95651E-03-6.57993E-05-1.03541E-14
 -1      4153 4.75218E-03-3.71382E-05-9.56007E-15
 -1      4154 5.08961E-03-6.43067E-05-1.09113E-14
 -1      4155 5.22137E-03-6.27618E-05-1.14813E-14
 -1      4156 5.02024E-03-3.55311E-05-1.06496E-14
 -1      4157 5.35159E-03-6.12877E-05-1.20656E-14
 -1      4158 5.48022E-03-5.97656E-05-1.26620E-14
 -1      4159 5.28280E-03-3.39494E-05-1.17934E-14
 -1      4160 5.60698E-03-5.83583E-05-1.32715E-14
 -1      4161 5.73181E-03-5.68820E-05-1.38948E-14
 -1      4162 5.53873E-03-3.24603E-05-1.29878E-14
 -1      4163 5.85431E-03-5.55712E-05-1.45308E-14
 -1      4164 5.97443E-03-5.41202E-05-1.51789E-14
 -1      4165 5.78650E-03-3.11189E-05-1.42354E-14
 -1      4166 1.22863E-02-9.33877E-05-4.49588E-14
 -1      4167 1.24091E-02-9.67736E-05-4.59793E-14
 -1      4168 3.44453E-03 1.50077E-04-5.16786E-15
 -1      4169 3.37579E-03 1.86679E-04-4.96013E-15
 -1      4170 3.23250E-03 1.87777E-04-4.57382E-15
 -1      4171 1.33793E-02 2.00386E-05-5.38426E-14
 -1      4172 1.33807E-02 4.78866E-05-5.38842E-14
 -1      4173 1.32188E-02 5.63200E-05-5.26133E-14
 -1      4174 1.32616E-02 8.53215E-06-5.28942E-14
 -1      4175 5.94099E-03 7.72484E-05-1.50116E-14
 -1      4176 5.81735E-03 7.98821E-05-1.43640E-14
 -1      4177 1.25341E-02-1.00042E-04-4.70110E-14
 -1      4178 1.26610E-02-1.03414E-04-4.80494E-14
 -1      4179 1.24765E-02-7.25811E-05-4.64880E-14
 -1      4180 1.27896E-02-1.06734E-04-4.90911E-14
 -1      4181 1.29199E-02-1.10149E-04-5.01441E-14
 -1      4182 1.27286E-02-7.79213E-05-4.85620E-14
 -1      4183 5.43569E-03 8.73066E-05-1.24968E-14
 -1      4184 5.30524E-03 8.97626E-05-1.19002E-14
 -1      4185 6.18168E-03 7.18078E-05-1.63419E-14
 -1      4186 6.06235E-03 7.46407E-05-1.56703E-14
 -1      4187 5.98732E-03 5.05283E-05-1.53283E-14
 -1      4188 5.17344E-03 9.21242E-05-1.13169E-14
 -1      4189 5.04030E-03 9.44860E-05-1.07468E-14
 -1      4190 5.23357E-03 6.20899E-05-1.16005E-14
 -1      4191 6.38426E-03 7.61115E-05-1.74855E-14
 -1      4192 6.28345E-03 7.61687E-05-1.69023E-14
 -1      4193 6.20325E-03 5.22785E-05-1.65480E-14
 -1      4194 6.39930E-03 5.97647E-05-1.76819E-14
 -1      4195 1.28707E-02 4.92326E-05-4.98270E-14
 -1      4196 1.27398E-02 4.87394E-05-4.87736E-14
 -1      4197 1.26105E-02 4.82950E-05-4.77277E-14
 -1      4198 1.24827E-02 4.77132E-05-4.66917E-14
 -1      4199 1.26843E-02 2.09399E-05-4.82592E-14
 -1      4200 1.23567E-02 4.71146E-05-4.56644E-14
 -1      4201 1.22324E-02 4.63548E-05-4.46440E-14
 -1      4202 1.24314E-02 2.08684E-05-4.61870E-14
 -1      4203 1.30223E-02-8.91028E-05-5.09487E-14
 -1      4204 1.31104E-02 5.29648E-05-5.17467E-14
 -1      4205 1.29771E-02 5.25545E-05-5.06852E-14
 -1      4206 1.29187E-02 2.36054E-05-5.01649E-14
 -1      4207 1.31324E-02 2.94000E-05-5.18876E-14
 -1      4208 1.18330E-02 5.83094E-05-4.14285E-14
 -1      4209 1.18345E-02 3.73969E-05-4.12580E-14
 -1      4210 1.19292E-02 1.66610E-05-4.19196E-14
 -1      4211 1.19363E-02 5.61444E-05-4.22606E-14
 -1      4212 2.27429E-03-7.83327E-05-2.43432E-15
 -1      4213 2.41915E-03-7.92462E-05-2.71843E-15
 -1      4214 1.89413E-03-7.30885E-05-1.75948E-15
 -1      4215 3.08887E-03 1.88514E-04-4.20322E-15
 -1      4216 2.94495E-03 1.88881E-04-3.84781E-15
 -1      4217 2.87006E-03 1.52413E-04-3.68530E-15
 -1      4218 3.15800E-03 1.51852E-04-4.39636E-15
 -1      4219 2.56396E-03-7.98680E-05-3.01759E-15
 -1      4220 2.70865E-03-8.02197E-05-3.33220E-15
 -1      4221 2.49045E-03-4.36314E-05-2.87061E-15
 -1      4222 1.20337E-02-7.56742E-05-4.27633E-14
 -1      4223 1.21580E-02-8.45331E-05-4.38566E-14
 -1      4224 1.22241E-02-6.18218E-05-4.43540E-14
 -1      4225 4.90601E-03 9.67439E-05-1.01892E-14
 -1      4226 4.77057E-03 9.89681E-05-9.64571E-15
 -1      4227 4.96877E-03 6.54623E-05-1.04619E-14
 -1      4228 2.85312E-03-8.03441E-05-3.66157E-15
 -1      4229 2.99733E-03-8.02458E-05-4.00638E-15
 -1      4230 2.77984E-03-4.40128E-05-3.49997E-15
 -1      4231 1.67732E-03 1.69746E-04-1.38950E-15
 -1      4232 2.01172E-03-7.52084E-05-1.95713E-15
 -1      4233 2.15641E-03-7.67294E-05-2.21408E-15
 -1      4234 2.22767E-03-4.21461E-05-2.35181E-15
 -1      4235 1.99209E-03-3.96602E-05-1.92877E-15
 -1      4236 5.69190E-03 8.23557E-05-1.37289E-14
 -1      4237 5.56457E-03 8.48825E-05-1.31067E-14
 -1      4238 5.49246E-03 5.85040E-05-1.27914E-14
 -1      4239 1.19627E-02-4.66434E-05-4.20426E-14
 -1      4240 2.36157E-03 1.13754E-04-2.59645E-15
 -1      4241 2.21675E-03 1.12232E-04-2.31760E-15
 -1      4242 4.22631E-03 1.74403E-04-7.59625E-15
 -1      4243 4.08584E-03 1.77032E-04-7.11990E-15
 -1      4244 4.01204E-03 1.43691E-04-6.89385E-15
 -1      4245 3.14121E-03-7.99782E-05-4.36603E-15
 -1      4246 3.28470E-03-7.95259E-05-4.74023E-15
 -1      4247 3.06827E-03-4.38895E-05-4.19013E-15
 -1      4248 6.11535E-03-5.06270E-05-1.59862E-14
 -1      4249 6.29115E-03-4.39880E-05-1.70743E-14
 -1      4250 3.35523E-03-4.33747E-05-4.93983E-15
 -1      4251 6.04823E-03-2.78601E-05-1.56796E-14
 -1      4252 4.69898E-03 6.85957E-05-9.37588E-15
 -1      4253 4.63413E-03 1.01076E-04-9.11512E-15
 -1      4254 4.49672E-03 1.03115E-04-8.59814E-15
 -1      4255 1.42399E-03-1.17576E-04-1.05665E-15
 -1      4256 2.65109E-03 1.15569E-04-3.20010E-15
 -1      4257 2.50638E-03 1.14861E-04-2.89060E-15
 -1      4258 2.43219E-03 7.84701E-05-2.74698E-15
 -1      4259 1.72817E-03 1.35397E-04-1.47965E-15
 -1      4260 1.31733E-02-1.74266E-05-5.21653E-14
 -1      4261 1.31534E-02 5.98162E-06-5.20273E-14
 -1      4262 1.30461E-02 3.45425E-06-5.11636E-14
 -1      4263 1.20138E-02-2.70949E-05-4.24999E-14
 -1      4264 6.31847E-03 4.36382E-05-1.72803E-14
 -1      4265 1.74222E-03 1.04930E-04-1.51010E-15
 -1      4266 1.32093E-02-5.98879E-05-5.24397E-14
 -1      4267 6.31224E-03-4.84652E-07-1.73624E-14
 -1      4268 3.79773E-03 1.11442E-04-6.22308E-15
 -1      4269 3.65596E-03 1.12696E-04-5.79202E-15
 -1      4270 2.08065E-03 5.70739E-05-2.08096E-15
 -1      4271 2.00981E-03 9.07123E-05-1.95041E-15
 -1      4272 1.21361E-02 5.02693E-05-4.38702E-14
 -1      4273 1.20317E-02 5.24200E-05-4.30213E-14
 -1      4274 1.20263E-02 3.22247E-05-4.28514E-14
 -1      4275 1.22133E-02 2.46501E-05-4.43875E-14
 -1      4276 1.86540E-03 8.83676E-05-1.70907E-15
 -1      4277 5.74425E-03 5.46907E-05-1.40345E-14
 -1      4278 4.29227E-03 1.39370E-04-7.84559E-15
 -1      4279 1.99164E-03-1.14939E-06-1.92980E-15
 -1      4280 3.58315E-03 7.77885E-05-5.58525E-15
 -1      4281 3.51365E-03 1.13760E-04-5.37604E-15
 -1      4282 3.37084E-03 1.14657E-04-4.97547E-15
 -1      4283 3.28323E-03-7.57228E-06-4.75116E-15
 -1      4284 3.42626E-03-7.47885E-06-5.14112E-15
 -1      4285 5.99792E-03 9.35743E-06-1.54355E-14
 -1      4286 6.13689E-03 1.02541E-05-1.62480E-14
 -1      4287 3.85206E-03-7.15522E-06-6.40024E-15
 -1      4288 3.99271E-03-7.01390E-06-6.85000E-15
 -1      4289 4.13261E-03-6.89845E-06-7.31404E-15
 -1      4290 4.27171E-03-6.75139E-06-7.79219E-15
 -1      4291 4.06299E-03 2.68911E-05-7.08571E-15
 -1      4292 4.45067E-03 1.60555E-05-8.43837E-15
 -1      4293 4.58770E-03 1.57668E-05-8.94902E-15
 -1      4294 4.72366E-03 1.53751E-05-9.47209E-15
 -1      4295 4.85849E-03 1.50207E-05-1.00099E-14
 -1      4296 4.99205E-03 1.45552E-05-1.05605E-14
 -1      4297 5.12427E-03 1.41438E-05-1.11242E-14
 -1      4298 5.25498E-03 1.35889E-05-1.17007E-14
 -1      4299 5.38407E-03 1.31116E-05-1.22912E-14
 -1      4300 5.51134E-03 1.24404E-05-1.28948E-14
 -1      4301 5.63663E-03 1.18849E-05-1.35109E-14
 -1      4302 5.75968E-03 1.10511E-05-1.41399E-14
 -1      4303 5.88021E-03 1.04007E-05-1.47819E-14
 -1      4304 1.24164E-02-4.61958E-05-4.59658E-14
 -1      4305 1.25400E-02-4.81501E-05-4.69987E-14
 -1      4306 1.27110E-02-2.84720E-05-4.84105E-14
 -1      4307 1.28394E-02-2.98507E-05-4.94579E-14
 -1      4308 2.19760E-03 1.76732E-05-2.29733E-15
 -1      4309 1.25171E-02-8.08693E-07-4.68442E-14
 -1      4310 1.23932E-02-4.01087E-07-4.58187E-14
 -1      4311 3.89590E-03 8.61241E-05-6.53729E-15
 -1      4312 3.82395E-03 5.19229E-05-6.31529E-15
 -1      4313 2.70712E-03-7.74963E-06-3.33955E-15
 -1      4314 2.85163E-03-7.72636E-06-3.66951E-15
 -1      4315 4.31564E-03 8.22595E-05-7.94909E-15
 -1      4316 4.17647E-03 8.36667E-05-7.46408E-15
 -1      4317 4.03654E-03 8.49334E-05-6.99319E-15
 -1      4318 2.99586E-03-7.69667E-06-4.01552E-15
 -1      4319 3.13974E-03-7.63474E-06-4.37607E-15
 -1      4320 2.92397E-03 2.85778E-05-3.84152E-15
 -1      4321 1.20374E-02-8.06747E-06-4.27524E-14
 -1      4322 1.21290E-02-3.49719E-05-4.35114E-14
 -1      4323 1.22564E-02-4.19955E-05-4.46109E-14
 -1      4324 1.20490E-02 9.93775E-06-4.29257E-14
 -1      4325 2.46038E-03 1.75032E-05-2.81192E-15
 -1      4326 2.60519E-03 1.76662E-05-3.11620E-15
 -1      4327 6.22876E-03 1.42949E-05-1.68081E-14
 -1      4328 1.23135E-02-1.84824E-05-4.51109E-14
 -1      4329 1.22318E-02 2.11018E-06-4.44626E-14
 -1      4330 4.38284E-03 4.88173E-05-8.19390E-15
 -1      4331 2.31549E-03 1.73010E-05-2.52230E-15
 -1      4332 3.76712E-03 2.24596E-05-6.13958E-15
 -1      4333 3.66775E-03 4.73501E-05-5.83890E-15
 -1      4334 3.52559E-03 4.78077E-05-5.42238E-15
 -1      4335 3.69623E-03-1.24734E-05-5.92125E-15
 -1      4336 2.75176E-03 9.03118E-05-3.43108E-15
 -1      4337 2.67818E-03 5.39245E-05-3.27268E-15
 -1      4338 1.29397E-02 1.01447E-06-5.03036E-14
 -1      4339 1.29626E-02-5.05755E-05-5.04531E-14
 -1      4340 1.25844E-02-2.73098E-05-4.73706E-14
 -1      4341 3.55422E-03-1.26468E-05-5.50287E-15
 -1      4342 1.31291E-02-5.82539E-05-5.17973E-14
 -1      4343 3.18404E-03 9.00269E-05-4.48303E-15
 -1      4344 3.04027E-03 9.03380E-05-4.11746E-15
 -1      4345 3.25453E-03 5.37624E-05-4.67401E-15
 -1      4346 2.89616E-03 9.04224E-05-3.76629E-15
 -1      4347 3.48309E-03 2.28694E-05-5.30251E-15
 -1      4348 1.21399E-02 6.09343E-06-4.36901E-14
 -1      4349 6.24795E-03-2.87973E-05-1.68813E-14
 -1      4350 3.21172E-03 2.84683E-05-4.56322E-15
 -1      4351 6.25293E-03 3.47375E-06-1.69729E-14
 -1      4352 3.39768E-03 5.34328E-05-5.06190E-15
 -3
    1PSTEP                         2           1           1          
  100CL  101 1.000000000        4352                     0    1           1
 -4  STRESS      6    1
 -5  SXX         1    4    1    1
 -5  SYY         1    4    2    2
 -5  SZZ         1    4    3    3
 -5  SXY         1    4    1    2
 -5  SYZ         1    4    2    3
 -5  SZX         1    4    3    1
 -1         1-1.08017E+00-2.17526E+01-3.19074E+00-3.12547E+00-1.34953E-12-2.88527E-13
 -1         2-6.44093E-01-2.43077E+01-3.34573E+00 1.52763E-03 2.18169E-13-6.75258E-14
 -1         3 1.99969E+01-3.14272E-03 1.31460E-02-3.20014E-03-2.27664E-13-3.44598E-13
 -1         4 1.99970E+01-2.97713E-03 1.34722E-02 3.09107E-03 5.00125E-14 1.49192E-13
 -1         5 3.27339E+01 6.13607E+00 2.73976E+00 6.22008E+00-2.07334E-14 1.46866E-12
 -1         6 3.57165E+01 1.22513E+01 5.12090E+00-8.64047E+00-8.60978E-14 1.48542E-12
 -1         7 2.07989E+01 6.09406E+00-1.28949E-01-4.72463E+00-1.36974E-14 3.16646E-13
 -1         8 1.96607E+01 5.93165E+00 5.09172E-02-3.27587E+00-1.86587E-14-5.77346E-14
 -1         9 1.91341E+01 5.77089E+00 4.92811E-02-2.52803E+00-1.53159E-14-2.63245E-13
 -1        10 1.88979E+01 5.69291E+00 5.11243E-02-1.95246E+00-1.21491E-14-3.73260E-13
 -1        11 1.87817E+01 5.65356E+00 5.04640E-02-1.45706E+00-1.02470E-14-4.28438E-13
 -1        12 1.87220E+01 5.63305E+00 4.89935E-02-1.01565E+00-7.03170E-15-4.42801E-13
 -1        13 1.86908E+01 5.62230E+00 4.75569E-02-5.95543E-01-6.16152E-15-4.38272E-13
 -1        14 1.86778E+01 5.61780E+00 4.68084E-02-1.91245E-01-3.32969E-15-4.28247E-13
 -1        15 1.86783E+01 5.61796E+00 4.68492E-02 2.08260E-01 1.63443E-15-4.25093E-13
 -1        16 1.86922E+01 5.62277E+00 4.76868E-02 6.13388E-01 3.46544E-15-4.24094E-13
 -1        17 1.87246E+01 5.63375E+00 4.92264E-02 1.03543E+00 5.45028E-15-4.21194E-13
 -1        18 1.87858E+01 5.65470E+00 5.09945E-02 1.47990E+00 5.81132E-15-3.86245E-13
 -1        19 1.89039E+01 5.69456E+00 5.16976E-02 1.98145E+00 1.43644E-14-3.34315E-13
 -1        20 1.91389E+01 5.77336E+00 4.88935E-02 2.56528E+00 1.51198E-14-2.34502E-13
 -1        21 1.96561E+01 5.94620E+00 4.58777E-02 3.30989E+00 2.33702E-14-2.29148E-14
 -1        22 2.11817E+01 6.37572E+00 1.39335E-01 4.52233E+00 4.12170E-15 4.21245E-13
 -1        23 2.29992E+01-1.37770E+00-9.37673E-01-7.11291E-01-5.29611E-14 1.18147E-12
 -1        24 1.93362E+01-9.94667E-02-3.09716E-01 6.29889E-02-1.00493E-14 9.31241E-13
 -1        25 1.86465E+01-5.63749E-02-6.88074E-02 6.05031E-02-6.88642E-15 6.78752E-13
 -1        26 1.84433E+01-2.22003E-02-6.54147E-03 3.27411E-02-4.97844E-15 4.97562E-13
 -1        27 1.84550E+01-1.19851E-02 1.49039E-03 2.23158E-02-2.27858E-14 3.86590E-13
 -1        28 1.85714E+01-6.52683E-03 1.59719E-03 1.59579E-02 4.19668E-15 3.16551E-13
 -1        29 1.87369E+01-3.51270E-03 1.40165E-03 1.17674E-02 1.20507E-14 2.70411E-13
 -1        30 1.89220E+01-1.84457E-03 1.39737E-03 8.79074E-03 7.15073E-15 2.24469E-13
 -1        31 1.91118E+01-9.91674E-04 1.30493E-03 6.58238E-03-1.19351E-14 7.24130E-14
 -1        32 1.92998E+01-6.74562E-04 9.99117E-04 4.93107E-03-1.04798E-14-8.19787E-15
 -1        33 1.94857E+01-7.34328E-04 4.67097E-04 3.73623E-03 3.48962E-14-1.28042E-14
 -1        34 1.96736E+01-1.07342E-03-2.74402E-04 2.95636E-03-3.31381E-14 2.82220E-14
 -1        35 1.98709E+01-1.62530E-03-1.20978E-03 2.58885E-03 1.16308E-14-8.33451E-14
 -1        36 2.00880E+01-2.33502E-03-2.32663E-03 2.66319E-03 3.24234E-14 1.83112E-14
 -1        37 2.03375E+01-3.14216E-03-3.60485E-03 3.23912E-03-3.92314E-14 8.81107E-14
 -1        38 2.06338E+01-3.96104E-03-4.99481E-03 4.40427E-03-1.27424E-14-3.29706E-14
 -1        39 2.09921E+01-4.65467E-03-6.37850E-03 6.26422E-03-1.71188E-14-1.51563E-14
 -1        40 2.14265E+01-5.00042E-03-7.50377E-03 8.91297E-03-1.21493E-15 5.54418E-14
 -1        41 2.19466E+01-4.65058E-03-7.88139E-03 1.23615E-02 1.09129E-14-1.28439E-14
 -1        42 2.25517E+01-3.10316E-03-6.64862E-03 1.63879E-02 2.92621E-15-1.72951E-13
 -1        43 2.32219E+01 2.74419E-04-2.45738E-03 2.02625E-02-3.12625E-14-1.54590E-13
 -1        44 2.39042E+01 6.07740E-03 6.42451E-03 2.23253E-02 5.95596E-15 5.78400E-14
 -1        45 2.44974E+01 1.44243E-02 2.14249E-02 1.95222E-02 7.73600E-15-8.12779E-14
 -1        46 2.48419E+01 2.41317E-02 4.18237E-02 7.38056E-03-8.91561E-15-1.24874E-13
 -1        47 2.47316E+01 3.18253E-02 6.18763E-02-1.84523E-02-3.98134E-14-2.13289E-13
 -1        48 2.39765E+01 3.17911E-02 6.84595E-02-5.77054E-02 4.65398E-14-2.04857E-13
 -1        49 2.25289E+01 1.85466E-02 4.58268E-02-9.92915E-02 7.58924E-14-6.77756E-14
 -1        50 2.06347E+01-7.89321E-03-1.17783E-02-1.19059E-01-2.59916E-15-1.22680E-14
 -1        51 1.88784E+01-3.77028E-02-8.33303E-02-9.23773E-02-2.64630E-14-2.62963E-13
 -1        52 1.79699E+01-5.45810E-02-1.25720E-01-1.96080E-02 3.56173E-14-9.96920E-14
 -1        53 1.83259E+01-4.78247E-02-1.08591E-01 6.38335E-02-7.16545E-14-1.23540E-13
 -1        54 1.97787E+01-2.18403E-02-4.46143E-02 1.13556E-01 2.69598E-14-8.93625E-14
 -1        55 2.16964E+01 7.93218E-03 2.36644E-02 1.12570E-01-8.32757E-14-3.47163E-13
 -1        56 2.33948E+01 2.76828E-02 6.28078E-02 7.73055E-02-2.83449E-14-6.14692E-13
 -1        57 2.44676E+01 3.31550E-02 6.75677E-02 3.47260E-02 7.03420E-14-3.95069E-13
 -1        58 2.48465E+01 2.81444E-02 5.15376E-02 2.27309E-03 4.43222E-15-4.14138E-13
 -1        59 2.46767E+01 1.87550E-02 3.01630E-02-1.56554E-02-4.97212E-14-4.41451E-13
 -1        60 2.41689E+01 9.50838E-03 1.23954E-02-2.20918E-02-8.70690E-15-3.93716E-13
 -1        61 2.35076E+01 2.48018E-03 8.35301E-04-2.17905E-02 6.16041E-14-1.36336E-13
 -1        62 2.28205E+01-1.99049E-03-5.29330E-03-1.84995E-02 2.36319E-14 1.81395E-13
 -1        63 2.21810E+01-4.36914E-03-7.74104E-03-1.44551E-02-1.49835E-13-2.56950E-13
 -1        64 2.16235E+01-5.31727E-03-8.08471E-03-1.07369E-02-2.92485E-14-6.71835E-13
 -1        65 2.11576E+01-5.42029E-03-7.42948E-03-7.73429E-03-4.62599E-14-5.38088E-13
 -1        66 2.07803E+01-5.11365E-03-6.47525E-03-5.47833E-03-5.05076E-15-5.88607E-13
 -1        67 2.04832E+01-4.69230E-03-5.67506E-03-3.81881E-03 4.80423E-14-2.23880E-13
 -1        68 2.02578E+01-4.33089E-03-5.34870E-03-2.47632E-03 1.84401E-14 4.63653E-13
 -1        69 2.00989E+01-4.04720E-03-5.58634E-03-9.82712E-04-3.10911E-14 4.97912E-13
 -1        70 2.00064E+01-3.24154E-03-5.30992E-03 1.71891E-03-5.85942E-14 4.79600E-13
 -1        71 1.99841E+01 5.87583E-04 5.73585E-04 5.17270E-03 3.87868E-15 4.14880E-13
 -1        72 2.10131E+01-4.04497E-01-9.79821E-01-3.10903E-01 3.13950E-14 1.32332E-12
 -1        73 1.93006E+01-6.58861E-02-2.91043E-01-5.36460E-02 1.31332E-14 9.79789E-13
 -1        74 1.86559E+01-2.05597E-02-6.42776E-02-2.01509E-02 6.13496E-15 7.07899E-13
 -1        75 1.84523E+01-9.97703E-03-9.35932E-03-1.51837E-02 7.57402E-15 5.27453E-13
 -1        76 1.84638E+01-5.32470E-03 5.68453E-04-1.20231E-02 9.81837E-15 3.98586E-13
 -1        77 1.85793E+01-2.85595E-03 1.53416E-03-9.64209E-03-4.30775E-15 2.51449E-13
 -1        78 1.87437E+01-1.49620E-03 1.52877E-03-7.77541E-03-8.13265E-15 1.99512E-13
 -1        79 1.89278E+01-7.76624E-04 1.52613E-03-6.19945E-03 2.56988E-15 1.24884E-13
 -1        80 1.91166E+01-4.62679E-04 1.40223E-03-4.81389E-03-1.31210E-14-4.29656E-14
 -1        81 1.93037E+01-4.25954E-04 1.06305E-03-3.58654E-03 3.12512E-14-1.37724E-13
 -1        82 1.94887E+01-5.90069E-04 5.00112E-04-2.51523E-03-3.81518E-15-1.31697E-13
 -1        83 1.96757E+01-9.05195E-04-2.68410E-04-1.61535E-03-2.98268E-14-2.48989E-14
 -1        84 1.98721E+01-1.33296E-03-1.22365E-03-9.18819E-04 1.64802E-14-5.95798E-14
 -1        85 2.00880E+01-1.83478E-03-2.34702E-03-4.78900E-04 4.89325E-14-2.82426E-13
 -1        86 2.03357E+01-2.35960E-03-3.60849E-03-3.79119E-04-1.73441E-14-4.80363E-13
 -1        87 2.06290E+01-2.82817E-03-4.94302E-03-7.44735E-04-3.06937E-14-3.54674E-13
 -1        88 2.09822E+01-3.11268E-03-6.21014E-03-1.75304E-03 1.14871E-14-2.19880E-13
 -1        89 2.14080E+01-3.01245E-03-7.12873E-03-3.63374E-03 1.98140E-14-3.57746E-13
 -1        90 2.19141E+01-2.23252E-03-7.18069E-03-6.64020E-03-1.32864E-14-2.97407E-13
 -1        91 2.24972E+01-3.86441E-04-5.49467E-03-1.09513E-02-2.16023E-14-1.75689E-13
 -1        92 2.31340E+01 2.93053E-03-7.77349E-04-1.64357E-02-1.05529E-14-1.55746E-13
 -1        93 2.37691E+01 7.91877E-03 8.51670E-03-2.21975E-02 1.45554E-14-1.37137E-13
 -1        94 2.43007E+01 1.41232E-02 2.34122E-02-2.58992E-02-4.19984E-14-2.75916E-13
 -1        95 2.45742E+01 1.98007E-02 4.26225E-02-2.31757E-02-6.11685E-15-1.57522E-13
 -1        96 2.43979E+01 2.15563E-02 5.99175E-02-8.16166E-03 2.12942E-14 3.15812E-13
 -1        97 2.36055E+01 1.53950E-02 6.28064E-02 2.30468E-02-2.46467E-14 2.78000E-13
 -1        98 2.21754E+01 5.10563E-05 3.74697E-02 6.54023E-02 1.49647E-14 4.57277E-13
 -1        99 2.03637E+01-1.96636E-02-1.81171E-02 9.98916E-02-3.56803E-14 1.04323E-13
 -1       100 1.87241E+01-3.35183E-02-8.25306E-02 1.00747E-01-1.13885E-14 2.12899E-13
 -1       101 1.79041E+01-3.33257E-02-1.17601E-01 5.59486E-02-5.68230E-14 3.19398E-13
 -1       102 1.82698E+01-2.00035E-02-9.92945E-02-1.47543E-02 1.01468E-13 2.06410E-13
 -1       103 1.96553E+01-1.67930E-03-4.05544E-02-7.33319E-02-1.18809E-13 2.62505E-13
 -1       104 2.14789E+01 1.28370E-02 2.14556E-02-9.43516E-02 8.26996E-14 5.77510E-13
 -1       105 2.31089E+01 1.95503E-02 5.82824E-02-8.03894E-02-3.57047E-14 3.69302E-13
 -1       106 2.41626E+01 1.90467E-02 6.39551E-02-5.01589E-02-7.48719E-14 5.64597E-13
 -1       107 2.45657E+01 1.44381E-02 5.00434E-02-2.07840E-02 1.63628E-14-7.04779E-14
 -1       108 2.44446E+01 8.72403E-03 3.03275E-02-1.91101E-04 1.01993E-13-5.44801E-13
 -1       109 2.39915E+01 3.76543E-03 1.32809E-02 1.10244E-02 6.20639E-14-7.33215E-13
 -1       110 2.33799E+01 2.50085E-04 1.81331E-03 1.53405E-02-5.05837E-14-8.34533E-13
 -1       111 2.27325E+01-1.86528E-03-4.51884E-03 1.55911E-02 4.59760E-14-4.88624E-13
 -1       112 2.21224E+01-2.91148E-03-7.23290E-03 1.38970E-02-8.52736E-14 2.19684E-13
 -1       113 2.15854E+01-3.26156E-03-7.80196E-03 1.15588E-02-2.09910E-14 1.59948E-13
 -1       114 2.11333E+01-3.22598E-03-7.30628E-03 9.26710E-03-1.23569E-13 3.38549E-13
 -1       115 2.07649E+01-3.03156E-03-6.45568E-03 7.32920E-03 1.17878E-13 2.74407E-13
 -1       116 2.04735E+01-2.82422E-03-5.72271E-03 5.81760E-03 1.09969E-13 1.59877E-13
 -1       117 2.02518E+01-2.68483E-03-5.45416E-03 4.63460E-03 3.71201E-14-3.37884E-13
 -1       118 2.00953E+01-2.58190E-03-5.75438E-03 3.47220E-03 2.64738E-14-9.08977E-13
 -1       119 2.00052E+01-1.96678E-03-5.41861E-03 1.19217E-03-1.54309E-13-4.93115E-13
 -1       120 1.99852E+01 2.21567E-03 1.02528E-03-3.87429E-03 1.65194E-13-2.30900E-13
 -1       121 2.00000E+01-1.25971E-02 3.90194E-04-5.65631E-03-3.79163E-13-1.21300E-13
 -1       122 1.99972E+01 1.05151E-02-5.47670E-03-2.24637E-04-1.78571E-14-3.42787E-14
 -1       123 1.99978E+01 1.00791E-01-4.32743E-03 3.21432E-03 2.95081E-13 1.95241E-13
 -1       124 1.99991E+01 2.33570E-01-1.71006E-03 4.78028E-03-2.75292E-13 6.21025E-14
 -1       125 2.00005E+01 3.81456E-01 8.23394E-04 4.95280E-03-6.64181E-13-3.15548E-13
 -1       126 2.00019E+01 5.16490E-01 2.83840E-03 4.23645E-03-9.59899E-13 1.74655E-13
 -1       127 2.00028E+01 6.21385E-01 4.24265E-03 2.81477E-03 5.36147E-14 2.78047E-13
 -1       128 2.00033E+01 6.77980E-01 4.97670E-03 9.83300E-04-2.15842E-13 9.33457E-15
 -1       129 2.00033E+01 6.77956E-01 4.98493E-03-9.88097E-04-1.87719E-13 1.27038E-14
 -1       130 2.00028E+01 6.21226E-01 4.26340E-03-2.82570E-03 4.31369E-13 5.84425E-14
 -1       131 2.00018E+01 5.16017E-01 2.82981E-03-4.29937E-03 4.76275E-13-2.50770E-13
 -1       132 2.00006E+01 3.80538E-01 8.22166E-04-4.98956E-03-4.41658E-13 2.27224E-13
 -1       133 1.99991E+01 2.32211E-01-1.71482E-03-4.77853E-03 2.97874E-15 7.83136E-14
 -1       134 1.99974E+01 9.87785E-02-4.61755E-03-3.58699E-03-3.41424E-13-1.06376E-13
 -1       135 1.99977E+01 1.06906E-02-4.88874E-03 3.07958E-04-3.47636E-13-2.32056E-13
 -1       136 1.99978E+01-1.17814E-02 5.65530E-04 9.40041E-03-5.81099E-13-1.89056E-13
 -1       137-1.27955E+00-2.02407E+01-3.10599E+00-3.65584E+00-2.55823E-13-2.11602E-14
 -1       138-1.66988E+00-9.81141E+00-2.38435E+00-3.38384E+00-2.66454E-14-9.26481E-14
 -1       139 2.03455E+00 1.92806E+00-1.27219E+00 2.42994E+00 1.02535E-12 1.04150E-12
 -1       140 1.28641E+01 9.75673E+00 1.07182E-01 1.11726E+01 1.35991E-12 1.38595E-12
 -1       141 3.01760E+01 1.04901E+01 1.49431E+00 1.73544E+01 6.24722E-13 1.00159E-12
 -1       142 5.11875E+01 6.03305E+00 2.78299E+00 1.64116E+01 1.00336E-13 2.74947E-13
 -1       143 6.38897E+01 1.61035E+00 3.46966E+00 7.21763E+00-6.47885E-14-4.50168E-13
 -1       144 6.45264E+01 1.42746E+00 3.51144E+00-6.02675E+00 8.72427E-14-6.93320E-13
 -1       145 5.25599E+01 5.51242E+00 2.86597E+00-1.58522E+01 3.15248E-13-8.39107E-13
 -1       146 3.36943E+01 1.01402E+01 1.73311E+00-1.80441E+01 6.35908E-13-9.85045E-13
 -1       147 1.59356E+01 1.05440E+01 4.11841E-01-1.28639E+01 8.23119E-13-1.04050E-12
 -1       148 3.86303E+00 4.56280E+00-9.25119E-01-4.41376E+00 1.10084E-12-8.91176E-13
 -1       149-1.21197E+00-6.70081E+00-2.12670E+00 2.28886E+00 1.41520E-12-5.53751E-13
 -1       150-1.56829E+00-1.82355E+01-2.97749E+00 3.97496E+00 1.01047E-12-2.98553E-13
 -1       151-7.10460E-01-2.40697E+01-3.32680E+00 9.07880E-01-2.55726E-13-7.74693E-14
 -1       152-1.80318E+00-1.22285E+01-2.57490E+00-3.94314E+00-1.55831E-12-6.07847E-13
 -1       153 6.09412E-01-2.27545E-01-1.54571E+00 7.20754E-01-1.14186E-12-5.75096E-13
 -1       154 1.03525E+01 8.58437E+00-1.65017E-01 9.41613E+00-4.13947E-13-5.13423E-13
 -1       155 2.82034E+01 1.07437E+01 1.34600E+00 1.70539E+01-2.55795E-13-3.37896E-13
 -1       156 4.78968E+01 6.94108E+00 2.61812E+00 1.74380E+01-5.38458E-14-9.17044E-14
 -1       157 6.32085E+01 1.93997E+00 3.45080E+00 8.68100E+00-1.92392E-14 4.21663E-13
 -1       158 6.53928E+01 1.18262E+00 3.56441E+00-4.60115E+00 1.70662E-14 5.82576E-13
 -1       159 5.39021E+01 5.12673E+00 2.95464E+00-1.53192E+01-3.01911E-13 8.50764E-13
 -1       160 3.48662E+01 9.96221E+00 1.81080E+00-1.81468E+01-6.29552E-13 9.58678E-13
 -1       161 1.59017E+01 1.04843E+01 3.95255E-01-1.27841E+01-7.28695E-13 9.74443E-13
 -1       162 2.97068E+00 3.65724E+00-1.08216E+00-3.56373E+00-5.67213E-13 4.74010E-13
 -1       163-1.57163E+00-8.76664E+00-2.30017E+00 3.00639E+00-1.52101E-14 9.11493E-14
 -1       164-1.37972E+00-2.00480E+01-3.08048E+00 3.77660E+00 7.96196E-13-2.63397E-13
 -1       165 2.09970E+01 3.69207E+00-5.73105E-02-3.60995E+00-2.19151E-13 1.09770E-13
 -1       166 1.99835E+01 4.20647E+00-4.56752E-02-2.80944E+00-2.12896E-13-1.18749E-13
 -1       167 1.95090E+01 4.47704E+00-3.15412E-02-2.19426E+00-1.71109E-13-2.62203E-13
 -1       168 1.92733E+01 4.61658E+00-2.36908E-02-1.67531E+00-1.35199E-13-3.30024E-13
 -1       169 1.91476E+01 4.69964E+00-1.94392E-02-1.21869E+00-1.02091E-13-3.56142E-13
 -1       170 1.90766E+01 4.75195E+00-1.73698E-02-7.91609E-01-7.50994E-14-3.69975E-13
 -1       171 1.90410E+01 4.78060E+00-1.63781E-02-3.86611E-01-3.07508E-14-3.55562E-13
 -1       172 1.90306E+01 4.78939E+00-1.60913E-02 8.26764E-03 4.61967E-15-3.54953E-13
 -1       173 1.90427E+01 4.77929E+00-1.64256E-02 4.03492E-01 4.24874E-14-3.52762E-13
 -1       174 1.90802E+01 4.74896E+00-1.74799E-02 8.09593E-01 7.36103E-14-3.53776E-13
 -1       175 1.91518E+01 4.69536E+00-1.96483E-02 1.23111E+00 9.59240E-14-3.27613E-13
 -1       176 1.92830E+01 4.60677E+00-2.39658E-02 1.69799E+00 1.45710E-13-2.88753E-13
 -1       177 1.95239E+01 4.45948E+00-3.28054E-02 2.22659E+00 1.90934E-13-2.26198E-13
 -1       178 2.00058E+01 4.18252E+00-4.71617E-02 2.84689E+00 2.24533E-13-8.96956E-14
 -1       179 2.11184E+01 3.46190E+00-5.97541E-02 3.53646E+00 2.18084E-13 1.69663E-13
 -1       180 2.23952E+01 1.14324E+00-3.36249E-01 3.01456E+00 1.64506E-13 5.38111E-13
 -1       181 2.19489E+01 8.58005E-01 6.54739E-04-1.95918E+00-1.76963E-13 3.67515E-13
 -1       182 2.04252E+01 1.90237E-01-9.97607E-03-7.64694E-01-1.48232E-13 2.71656E-13
 -1       183 1.96504E+01 1.01989E-01 1.35820E-02-2.85720E-01-1.13993E-13 2.02935E-13
 -1       184 1.93126E+01 4.76470E-02 1.00557E-02-6.68814E-02-8.54139E-14 1.08000E-13
 -1       185 1.91866E+01 2.33727E-02 5.23439E-03 4.22335E-02-4.40332E-14 6.35028E-14
 -1       186 1.91798E+01 1.08517E-02 2.54175E-03 9.78755E-02-6.25378E-14 4.74522E-14
 -1       187 1.92395E+01 4.14799E-03 1.28455E-03 1.24902E-01-3.87190E-14-2.26664E-14
 -1       188 1.93361E+01 8.31672E-04 7.08403E-04 1.36618E-01-5.60816E-14-3.62563E-14
 -1       189 1.94533E+01-2.70927E-04 4.46235E-04 1.41100E-01-7.79635E-14-2.88612E-14
 -1       190 1.95834E+01 1.99161E-04 3.49437E-04 1.43758E-01-1.31452E-14-3.43520E-14
 -1       191 1.97238E+01 1.86308E-03 3.55729E-04 1.48493E-01 1.08809E-14-1.15346E-13
 -1       192 1.98764E+01 4.48247E-03 4.32589E-04 1.58286E-01-5.00850E-14-1.08338E-13
 -1       193 2.00459E+01 7.88800E-03 5.56832E-04 1.75501E-01 2.05469E-14-9.35547E-14
 -1       194 2.02390E+01 1.19183E-02 7.05814E-04 2.02003E-01 2.00826E-14-1.20518E-13
 -1       195 2.04643E+01 1.63468E-02 8.51222E-04 2.39086E-01-6.00854E-14-4.57606E-14
 -1       196 2.07307E+01 2.07762E-02 9.52822E-04 2.87179E-01-1.76812E-14-8.20367E-14
 -1       197 2.10469E+01 2.44793E-02 9.52385E-04 3.45223E-01 1.16787E-14-1.49668E-13
 -1       198 2.14187E+01 2.61678E-02 7.70670E-04 4.09576E-01-4.36006E-15-1.86326E-13
 -1       199 2.18469E+01 2.36942E-02 3.14169E-04 4.72307E-01-8.06391E-14-1.35825E-13
 -1       200 2.23221E+01 1.37803E-02-4.95372E-04 5.18859E-01-4.33944E-15-1.54166E-13
 -1       201 2.28195E+01-7.92635E-03-1.65623E-03 5.25549E-01 9.19281E-14-1.81530E-13
 -1       202 2.32925E+01-4.57762E-02-2.99658E-03 4.58529E-01-5.29110E-14-9.27032E-14
 -1       203 2.36671E+01-1.00804E-01-4.07136E-03 2.77968E-01 4.24790E-16-1.35547E-14
 -1       204 2.38449E+01-1.64109E-01-4.23586E-03-4.61931E-02-7.70920E-14 2.03518E-14
 -1       205 2.37206E+01-2.08446E-01-2.84750E-03-5.01104E-01 1.52625E-14 4.68419E-14
 -1       206 2.32265E+01-1.88807E-01-5.35974E-04-9.87479E-01 3.73555E-14 8.77618E-14
 -1       207 2.24026E+01-6.53772E-02 1.61211E-03-1.30357E+00 6.94995E-15-4.12240E-14
 -1       208 2.14579E+01 1.45649E-01 1.93703E-03-1.21449E+00-4.75423E-14 6.67001E-15
 -1       209 2.07473E+01 3.38586E-01 7.09974E-04-6.29948E-01-1.24657E-14 1.40563E-13
 -1       210 2.05979E+01 3.82046E-01 2.45348E-04 2.46892E-01-1.11222E-13-1.32509E-14
 -1       211 2.10837E+01 2.43351E-01 1.39159E-03 1.00581E+00-1.63715E-15 4.88351E-14
 -1       212 2.19689E+01 2.32728E-02 2.01569E-03 1.32275E+00-9.41930E-14 8.28252E-14
 -1       213 2.28822E+01-1.47014E-01 6.97151E-04 1.16397E+00-1.12947E-13 3.53662E-13
 -1       214 2.35372E+01-2.10673E-01-1.83789E-03 7.24087E-01 7.22230E-14 2.29909E-13
 -1       215 2.38222E+01-1.88908E-01-3.79611E-03 2.35995E-01-1.04118E-13-1.27415E-13
 -1       216 2.37662E+01-1.29433E-01-4.27769E-03-1.52903E-01 3.16565E-14-1.81396E-13
 -1       217 2.34651E+01-6.86023E-02-3.53391E-03-3.95934E-01-8.54167E-14-2.41056E-13
 -1       218 2.30242E+01-2.26270E-02-2.23519E-03-5.08871E-01 9.58667E-14-9.71985E-14
 -1       219 2.25298E+01 6.08491E-03-9.40521E-04-5.29890E-01 1.34971E-13-3.70920E-14
 -1       220 2.20411E+01 2.10182E-02 6.00016E-05-4.96344E-01-1.82715E-13-1.02522E-13
 -1       221 2.15928E+01 2.68111E-02 7.02382E-04-4.36221E-01-1.87016E-13-9.39632E-14
 -1       222 2.12018E+01 2.73456E-02 1.04309E-03-3.67413E-01 9.91482E-14 3.18932E-14
 -1       223 2.08728E+01 2.53651E-02 1.17543E-03-2.99806E-01-1.19921E-13 1.80633E-13
 -1       224 2.06045E+01 2.26738E-02 1.18002E-03-2.37694E-01 2.83982E-13 1.52584E-13
 -1       225 2.03923E+01 2.04444E-02 1.09670E-03-1.81697E-01 3.34463E-13 3.82059E-13
 -1       226 2.02313E+01 1.94445E-02 9.23252E-04-1.30095E-01 1.16377E-13 2.64232E-14
 -1       227 2.01168E+01 1.99316E-02 7.61135E-04-8.02287E-02 3.77739E-14-3.23686E-14
 -1       228 2.00418E+01 2.04257E-02 5.65518E-04-3.13195E-02-6.15553E-15 2.05327E-13
 -1       229 2.09396E+01 2.77013E-01-5.13093E-02 1.16532E+00 1.68445E-13 4.53214E-13
 -1       230 1.98452E+01 1.26911E-01 8.32543E-03 4.43567E-01 1.36462E-13 3.11479E-13
 -1       231 1.93397E+01 5.82629E-02 1.27642E-02 1.49999E-01 9.77829E-14 2.02651E-13
 -1       232 1.91322E+01 2.81155E-02 7.67516E-03 9.65171E-03 9.38774E-14 1.32595E-13
 -1       233 1.90868E+01 1.37564E-02 3.88938E-03-6.13537E-02 5.82021E-14 1.12490E-13
 -1       234 1.91304E+01 6.20773E-03 1.99627E-03-9.67698E-02 2.02326E-14 6.97444E-14
 -1       235 1.92226E+01 2.20519E-03 1.12322E-03-1.13025E-01 6.61702E-14 1.78877E-14
 -1       236 1.93408E+01 3.36700E-04 6.99401E-04-1.19334E-01 7.92361E-14-2.91805E-14
 -1       237 1.94732E+01-1.04640E-04 4.79668E-04-1.21506E-01 2.26171E-14-1.23054E-13
 -1       238 1.96151E+01 4.86425E-04 3.68946E-04-1.23538E-01-2.41306E-14-7.23069E-14
 -1       239 1.97666E+01 1.87158E-03 3.25170E-04-1.28369E-01 8.86468E-15-8.12846E-14
 -1       240 1.99310E+01 3.89372E-03 3.23044E-04-1.38265E-01 5.67055E-14-1.33801E-13
 -1       241 2.01145E+01 6.42854E-03 3.41715E-04-1.55007E-01 1.40945E-13-2.01991E-13
 -1       242 2.03253E+01 9.33896E-03 3.59458E-04-1.79918E-01 1.16942E-14-1.81363E-13
 -1       243 2.05724E+01 1.24161E-02 3.50417E-04-2.13732E-01-2.33904E-14-1.43424E-13
 -1       244 2.08650E+01 1.52919E-02 2.83047E-04-2.56238E-01-9.41001E-15-2.28146E-13
 -1       245 2.12107E+01 1.73123E-02 1.22236E-04-3.05611E-01 8.48369E-14-1.65990E-13
 -1       246 2.16129E+01 1.73644E-02-1.60070E-04-3.57317E-01-1.13737E-13-1.86512E-13
 -1       247 2.20671E+01 1.36807E-02-5.58370E-04-4.02521E-01-6.29970E-14-1.01162E-13
 -1       248 2.25552E+01 3.73213E-03-9.86959E-04-4.26137E-01-6.83253E-14 6.23676E-14
 -1       249 2.30391E+01-1.54920E-02-1.22435E-03-4.05246E-01-2.08943E-14 8.37032E-14
 -1       250 2.34544E+01-4.62239E-02-9.07003E-04-3.09864E-01 4.96257E-14 1.08846E-13
 -1       251 2.37087E+01-8.68740E-02 3.21030E-04-1.09887E-01-1.16891E-13 2.15331E-14
 -1       252 2.36925E+01-1.27014E-01 2.39777E-03 2.06734E-01-1.67014E-13 1.57076E-13
 -1       253 2.33131E+01-1.43083E-01 4.25143E-03 6.02984E-01 1.48189E-15 3.70695E-13
 -1       254 2.25553E+01-1.03715E-01 3.68510E-03 9.62392E-01 2.77328E-14 3.16482E-13
 -1       255 2.15532E+01 5.34883E-03-7.50928E-04 1.10131E+00 1.13753E-13 4.09920E-13
 -1       256 2.06088E+01 1.50910E-01-7.17513E-03 8.64294E-01-1.06098E-13 3.87640E-13
 -1       257 2.00939E+01 2.51756E-01-1.04382E-02 2.64378E-01 8.85229E-15 3.68205E-13
 -1       258 2.02430E+01 2.37352E-01-7.31464E-03-4.55622E-01 9.48651E-14 2.20206E-13
 -1       259 2.09876E+01 1.20023E-01-3.34878E-04-9.69722E-01-1.06201E-13 2.30988E-13
 -1       260 2.20067E+01-2.21074E-02 4.92630E-03-1.09393E+00-7.11965E-14 9.66440E-14
 -1       261 2.29333E+01-1.15395E-01 5.99105E-03-8.74304E-01 7.25461E-14 3.59586E-13
 -1       262 2.35330E+01-1.40249E-01 3.56636E-03-4.89032E-01 2.30003E-14 1.50366E-13
 -1       263 2.37451E+01-1.17579E-01 4.89636E-04-1.07808E-01 3.68491E-13-7.32475E-14
 -1       264 2.36287E+01-7.72748E-02-1.51094E-03 1.77219E-01 2.48014E-13-4.17480E-13
 -1       265 2.32903E+01-3.91967E-02-2.14981E-03 3.45996E-01-6.41605E-14-5.48262E-13
 -1       266 2.28344E+01-1.13142E-02-1.83974E-03 4.17752E-01-2.95089E-14-2.82226E-13
 -1       267 2.23419E+01 5.80207E-03-1.16105E-03 4.23423E-01-2.24512E-13-8.47840E-14
 -1       268 2.18657E+01 1.45690E-02-4.84223E-04 3.91002E-01-3.58019E-13 1.78843E-13
 -1       269 2.14356E+01 1.78552E-02 3.44567E-05 3.40766E-01-1.81043E-14 5.35793E-13
 -1       270 2.10646E+01 1.80175E-02 3.70676E-04 2.85398E-01-1.56026E-13 5.97165E-13
 -1       271 2.07556E+01 1.67361E-02 5.53014E-04 2.31687E-01 3.56281E-13 5.96876E-13
 -1       272 2.05062E+01 1.51531E-02 6.08616E-04 1.82295E-01 1.89025E-13 2.68357E-13
 -1       273 2.03122E+01 1.40185E-02 5.21794E-04 1.37117E-01 2.72211E-13-1.05462E-14
 -1       274 2.01692E+01 1.38507E-02 2.65244E-04 9.44049E-02 1.75242E-13-1.42538E-13
 -1       275 2.00739E+01 1.50606E-02 2.88500E-04 5.17206E-02-2.87349E-13-1.84434E-13
 -1       276 2.00202E+01 1.23449E-02 9.68950E-04 1.12044E-02 1.92705E-13-1.43811E-13
 -1       277 2.00198E+01 4.28827E-02 5.18740E-04 3.38213E-02 1.89838E-13 1.74098E-13
 -1       278 2.00165E+01 1.10024E-01 1.68211E-04 7.59557E-02 2.14517E-13 9.69731E-14
 -1       279 2.00084E+01 2.02672E-01 6.55603E-05 1.05680E-01 2.41125E-13-2.80145E-13
 -1       280 2.00001E+01 3.08715E-01-5.04401E-05 1.15913E-01 4.07032E-14-1.89539E-13
 -1       281 1.99928E+01 4.11293E-01-2.69111E-04 1.07097E-01-5.94167E-15-2.03964E-13
 -1       282 1.99869E+01 4.98973E-01-4.71611E-04 8.16329E-02-1.37485E-13 2.33596E-13
 -1       283 1.99831E+01 5.57118E-01-6.17806E-04 4.40218E-02-6.27378E-14 1.22467E-13
 -1       284 1.99818E+01 5.77500E-01-6.69479E-04 2.88129E-06-8.90129E-14 2.93996E-14
 -1       285 1.99830E+01 5.57194E-01-6.19587E-04-4.40766E-02 7.39175E-14 3.19388E-13
 -1       286 1.99868E+01 4.99009E-01-4.75467E-04-8.18530E-02-1.25526E-13 9.43069E-14
 -1       287 1.99926E+01 4.12887E-01-2.62511E-04-1.07177E-01 1.18280E-13-3.57869E-13
 -1       288 2.00002E+01 3.08290E-01-5.51003E-05-1.16244E-01 1.04152E-13 6.05079E-14
 -1       289 2.00085E+01 2.01921E-01 7.04251E-05-1.05742E-01-1.55574E-13-2.81152E-14
 -1       290 2.00168E+01 1.10458E-01 4.72777E-04-7.56859E-02-1.74571E-13 8.68114E-14
 -1       291 2.00328E+01 6.19780E-02 5.12491E-04-5.94995E-02-2.39206E-13-1.92608E-13
 -1       292-9.44202E-01-1.07044E+01-9.93761E-01 9.98198E-01 1.15796E-13-1.32366E-13
 -1       293 2.13080E+00-8.69873E+00-8.18285E-01 3.12098E+00 5.27911E-14 2.82788E-13
 -1       294 8.92849E+00-5.53055E+00-4.65030E-01 5.65731E+00 8.11295E-14 7.54057E-13
 -1       295 1.71836E+01-1.84805E+00-1.74684E-01 6.88652E+00 3.38923E-13 4.19942E-13
 -1       296 2.67487E+01 1.89353E+00 2.31349E-01 7.64168E+00 5.98549E-13 2.61458E-13
 -1       297 3.62060E+01 3.94477E+00 4.87334E-01 5.08860E+00 4.57202E-13-1.90792E-13
 -1       298 4.40383E+01 6.09601E+00 9.29563E-01 3.84966E+00 2.11359E-13-2.72310E-13
 -1       299 4.60456E+01 6.85701E+00 9.89592E-01 2.11807E-01 4.17721E-14-3.59546E-13
 -1       300 4.39041E+01 6.26532E+00 8.90481E-01-3.29280E+00 1.30479E-13-3.05783E-13
 -1       301 3.79302E+01 4.82481E+00 7.02501E-01-6.44692E+00 2.59125E-13-3.31707E-13
 -1       302 2.87562E+01 2.47323E+00 3.21597E-01-7.56452E+00 2.33591E-13-4.04732E-13
 -1       303 1.90082E+01-6.91609E-01-8.31611E-02-7.20728E+00 3.89438E-13-1.34476E-13
 -1       304 1.00996E+01-4.40777E+00-4.66710E-01-5.65942E+00 5.31519E-13-3.56770E-13
 -1       305 3.81503E+00-7.63075E+00-6.47577E-01-4.13995E+00 2.49301E-13-3.23762E-13
 -1       306-4.20944E-01-9.88102E+00-8.65238E-01-1.63809E+00 3.98986E-14-6.23751E-13
 -1       307-1.10201E+00-1.08372E+01-9.74333E-01 5.89352E-01-2.67411E-13-5.97536E-13
 -1       308 1.17653E+00-9.37674E+00-8.99215E-01 2.59687E+00-5.70766E-13-2.42042E-13
 -1       309 6.63475E+00-6.17260E+00-6.38198E-01 4.72877E+00-4.91135E-13 1.35555E-13
 -1       310 1.49259E+01-2.31670E+00-2.64455E-01 6.66934E+00-2.36977E-13 2.14939E-13
 -1       311 2.63932E+01-1.79528E-01 1.02462E-01 6.37492E+00 3.71925E-15 2.31593E-13
 -1       312 3.55578E+01 4.18873E+00 5.85346E-01 6.84086E+00-1.33296E-13 7.07212E-14
 -1       313 4.35428E+01 5.96240E+00 9.58082E-01 4.45692E+00-1.09551E-13 2.19713E-13
 -1       314 4.69809E+01 6.60057E+00 1.08002E+00 6.83771E-01-5.40401E-14 2.35936E-13
 -1       315 4.37288E+01 6.49420E+00 8.32772E-01-2.68718E+00-2.06016E-13 4.74440E-13
 -1       316 3.85469E+01 4.90233E+00 7.22885E-01-6.27717E+00-2.25473E-13 3.59518E-13
 -1       317 2.92046E+01 2.19832E+00 3.04019E-01-7.19573E+00-1.44315E-13 1.89820E-13
 -1       318 1.84729E+01-8.62846E-01-1.14512E-01-7.14988E+00-5.32074E-14 3.55965E-13
 -1       319 9.00222E+00-4.95109E+00-5.32960E-01-5.37896E+00-1.79468E-13 4.34625E-13
 -1       320 2.90458E+00-8.08263E+00-6.68367E-01-3.78079E+00-2.48274E-13 3.01231E-13
 -1       321-8.78287E-01-1.07649E+01-9.89365E-01-1.01049E+00 1.19155E-13-1.67810E-13
 -1       322 2.01423E+01 3.01556E+00-1.78945E-02-2.10900E+00-2.25066E-13-1.32617E-13
 -1       323 2.07443E+01 2.20792E+00-1.78291E-02-2.36301E+00-2.32184E-13 1.05350E-14
 -1       324 1.95929E+01 3.69515E+00-1.50683E-02-1.31500E+00-1.39747E-13-2.57321E-13
 -1       325 1.94722E+01 3.85403E+00-1.35531E-02-9.21820E-01-1.13601E-13-2.85345E-13
 -1       326 1.94052E+01 3.94605E+00-1.26675E-02-5.42696E-01-6.27458E-14-2.71872E-13
 -1       327 1.93756E+01 3.98804E+00-1.22749E-02-1.72844E-01-2.32335E-14-2.60084E-13
 -1       328 1.93769E+01 3.98641E+00-1.23004E-02 1.93945E-01 2.22364E-14-2.53095E-13
 -1       329 1.94093E+01 3.94076E+00-1.27483E-02 5.64168E-01 6.55630E-14-2.72227E-13
 -1       330 1.94781E+01 3.84617E+00-1.37566E-02 9.37652E-01 1.11000E-13-2.59368E-13
 -1       331 1.96016E+01 3.68223E+00-1.56439E-02 1.33159E+00 1.62161E-13-2.18982E-13
 -1       332 1.98122E+01 3.41178E+00-1.88179E-02 1.73714E+00 2.03705E-13-1.79847E-13
 -1       333 2.01759E+01 2.95559E+00-2.29155E-02 2.12623E+00 2.37317E-13-1.08375E-13
 -1       334 2.07370E+01 2.12916E+00-3.04391E-02 2.32186E+00 2.51382E-13 4.59181E-14
 -1       335 2.10777E+01 1.18754E+00-2.48978E-02 1.92209E+00 2.24872E-13 2.04626E-13
 -1       336 2.03749E+01 4.89614E-01 8.35035E-03 9.27260E-01 1.95146E-13 1.35499E-13
 -1       337 2.04459E+01 6.76018E-01 1.23496E-02-1.02464E+00-1.60933E-13 2.04513E-15
 -1       338 2.00266E+01 3.38734E-01 7.19977E-03-4.55054E-01-1.40114E-13-4.17754E-15
 -1       339 1.97761E+01 1.79485E-01 4.16632E-03-1.43319E-01-1.16758E-13-1.71174E-14
 -1       340 1.96464E+01 9.53930E-02 1.95016E-03 3.26977E-02-6.89479E-14-6.26717E-14
 -1       341 1.96001E+01 4.88222E-02 8.81277E-04 1.31231E-01-8.28506E-14-7.57076E-14
 -1       342 1.96083E+01 2.32324E-02 4.04668E-04 1.85115E-01-5.13138E-14-6.05700E-14
 -1       343 1.96519E+01 1.06562E-02 2.00263E-04 2.14274E-01-4.07794E-14-7.22427E-14
 -1       344 1.97190E+01 6.85580E-03 1.32567E-04 2.31696E-01-4.51099E-14-5.85369E-14
 -1       345 1.98034E+01 9.38200E-03 1.48381E-04 2.46411E-01-6.06290E-14-7.50489E-14
 -1       346 1.99023E+01 1.67169E-02 2.23155E-04 2.65033E-01-5.43443E-14-1.53227E-13
 -1       347 2.00162E+01 2.78328E-02 3.41784E-04 2.92592E-01-1.60022E-14-1.84441E-13
 -1       348 2.01475E+01 4.18960E-02 4.91400E-04 3.32938E-01 2.04404E-14-1.21611E-13
 -1       349 2.03001E+01 5.79891E-02 6.56843E-04 3.88845E-01 1.03527E-14-1.20132E-13
 -1       350 2.04790E+01 7.47675E-02 8.15726E-04 4.61769E-01-6.02767E-14-1.51624E-13
 -1       351 2.06893E+01 8.99803E-02 9.32177E-04 5.51220E-01-8.90907E-14-1.31643E-13
 -1       352 2.09357E+01 9.97924E-02 9.49428E-04 6.53570E-01-2.42882E-14-2.66279E-13
 -1       353 2.12220E+01 9.78995E-02 7.83295E-04 7.60167E-01 2.49661E-14-2.32226E-13
 -1       354 2.15497E+01 7.46002E-02 3.21346E-04 8.54638E-01-1.35043E-14-2.08394E-13
 -1       355 2.19167E+01 1.64535E-02-5.54540E-04 9.09612E-01 5.71400E-14-1.58223E-13
 -1       356 2.23160E+01-9.18989E-02-1.90884E-03 8.83950E-01 1.48170E-13-1.61522E-13
 -1       357 2.27320E+01-2.60767E-01-3.67496E-03 7.23466E-01 5.08829E-14 6.90718E-15
 -1       358 2.31339E+01-4.79183E-01-5.41005E-03 3.71107E-01-1.13388E-14 1.85838E-14
 -1       359 2.34647E+01-6.88292E-01-6.30518E-03-2.03564E-01 2.57359E-14 3.09966E-14
 -1       360 2.36318E+01-7.58572E-01-4.84394E-03-9.46366E-01 1.59081E-14-5.63312E-14
 -1       361 2.35296E+01-5.24163E-01-2.97239E-03-1.64926E+00-7.20958E-14-4.69171E-14
 -1       362 2.31221E+01 9.51204E-02-8.72297E-04-1.94868E+00 2.34581E-14-5.47021E-14
 -1       363 2.25709E+01 8.90494E-01-7.44985E-04-1.49495E+00-7.47319E-15-1.79019E-13
 -1       364 2.22323E+01 1.37223E+00-1.78795E-03-3.16879E-01-8.30030E-14-1.45638E-13
 -1       365 2.23690E+01 1.17667E+00-1.71163E-03 1.02816E+00-3.11487E-14 2.51364E-14
 -1       366 2.28707E+01 4.56814E-01-8.51334E-04 1.84501E+00 3.90970E-14 8.40727E-14
 -1       367 2.33767E+01-2.88376E-01-1.39284E-03 1.85604E+00 7.86437E-14 1.60364E-13
 -1       368 2.36201E+01-7.00247E-01-3.96279E-03 1.28364E+00-7.26958E-14 1.83206E-13
 -1       369 2.35612E+01-7.47521E-01-5.92303E-03 5.21757E-01-1.14950E-13 2.91876E-13
 -1       370 2.32896E+01-5.80547E-01-5.89832E-03-1.43066E-01-2.21782E-14 4.76126E-13
 -1       371 2.29098E+01-3.54903E-01-4.48124E-03-5.94970E-01-1.47376E-13 3.87066E-13
 -1       372 2.24946E+01-1.59783E-01-2.67025E-03-8.34852E-01 6.14049E-14 4.09252E-13
 -1       373 2.20853E+01-2.40086E-02-1.09249E-03-9.12721E-01 1.69873E-13 3.40415E-13
 -1       374 2.17037E+01 5.59266E-02 1.63001E-05-8.85895E-01-8.52444E-14 3.18692E-13
 -1       375 2.13606E+01 9.46033E-02 6.73080E-04-8.01392E-01-1.53875E-13 2.63092E-13
 -1       376 2.10608E+01 1.06995E-01 9.88987E-04-6.91883E-01 1.23935E-15 4.42836E-13
 -1       377 2.08049E+01 1.04824E-01 1.08646E-03-5.77380E-01 7.27339E-14 4.69719E-13
 -1       378 2.05913E+01 9.62506E-02 1.06511E-03-4.68438E-01 1.14680E-13 7.80285E-13
 -1       379 2.04168E+01 8.66421E-02 9.92649E-04-3.69105E-01 1.89428E-13 4.44831E-13
 -1       380 2.02773E+01 7.92921E-02 9.07881E-04-2.79362E-01-2.79234E-13 1.31343E-13
 -1       381 2.01687E+01 7.58950E-02 9.78813E-04-1.96984E-01-9.16981E-14 8.29783E-14
 -1       382 2.00932E+01 7.01528E-02 6.79808E-04-1.25073E-01 1.61403E-14-7.21523E-14
 -1       383 1.98750E+01 2.29317E-01 1.08194E-02 3.97575E-01 1.65455E-13 9.04606E-14
 -1       384 1.95894E+01 1.16898E-01 6.21624E-03 1.16880E-01 1.25690E-13 3.33117E-14
 -1       385 1.94598E+01 6.02430E-02 2.87249E-03-3.53302E-02 6.51722E-14 2.31878E-15
 -1       386 1.94283E+01 2.97645E-02 1.27339E-03-1.17462E-01 3.55057E-14-1.37496E-14
 -1       387 1.94569E+01 1.32107E-02 5.85875E-04-1.60449E-01 9.64626E-14-3.57870E-14
 -1       388 1.95222E+01 5.01250E-03 2.91686E-04-1.82039E-01 6.52296E-14-4.44096E-14
 -1       389 1.96104E+01 2.33139E-03 1.77809E-04-1.93418E-01 6.19322E-14 4.54151E-15
 -1       390 1.97145E+01 3.57258E-03 1.66230E-04-2.02191E-01-4.29425E-14-2.28602E-14
 -1       391 1.98320E+01 7.76556E-03 2.23959E-04-2.13852E-01 1.63625E-14-3.24829E-14
 -1       392 1.99638E+01 1.42611E-02 3.31531E-04-2.32542E-01 9.66245E-14-8.23780E-14
 -1       393 2.01132E+01 2.25420E-02 4.72740E-04-2.61414E-01 1.76888E-13-1.16819E-13
 -1       394 2.02853E+01 3.20574E-02 6.29316E-04-3.02732E-01 2.76869E-14-8.79213E-14
 -1       395 2.04861E+01 4.20225E-02 7.75976E-04-3.57698E-01-2.03829E-14-1.13558E-13
 -1       396 2.07221E+01 5.11379E-02 8.74780E-04-4.25942E-01 7.70862E-15-8.49089E-14
 -1       397 2.09986E+01 5.71995E-02 8.69255E-04-5.04563E-01 3.50262E-14-1.09135E-14
 -1       398 2.13187E+01 5.65932E-02 6.81176E-04-5.86594E-01-7.89918E-14 3.04836E-14
 -1       399 2.16810E+01 4.37651E-02 2.16631E-04-6.58818E-01-1.09259E-13-6.86966E-14
 -1       400 2.20772E+01 1.10139E-02-6.07178E-04-6.99167E-01-1.29518E-13-9.54656E-14
 -1       401 2.24880E+01-5.05253E-02-1.80492E-03-6.74649E-01-7.77246E-14-6.07717E-15
 -1       402 2.28801E+01-1.47046E-01-3.22913E-03-5.42323E-01 4.35110E-14 1.88724E-13
 -1       403 2.32019E+01-2.73238E-01-4.49925E-03-2.58214E-01-5.03939E-14 2.28440E-13
 -1       404 2.33832E+01-3.98045E-01-4.98297E-03 1.99052E-01-1.60842E-13 1.87647E-13
 -1       405 2.33433E+01-4.52026E-01-4.08643E-03 7.86165E-01-4.09113E-14 1.22692E-13
 -1       406 2.30209E+01-3.39494E-01-2.02017E-03 1.34739E+00-2.93721E-14 1.97561E-13
 -1       407 2.24410E+01-9.38515E-03-3.55526E-04 1.61471E+00 9.42633E-14 5.53774E-13
 -1       408 2.17825E+01 4.46342E-01 5.03290E-04 1.33543E+00 7.92335E-14 5.37329E-13
 -1       409 2.13492E+01 7.83806E-01 2.27483E-03 4.83832E-01 1.45757E-13 4.60728E-13
 -1       410 2.13929E+01 7.63448E-01 4.52413E-03-5.98034E-01 1.94612E-13 2.93594E-13
 -1       411 2.18862E+01 4.05604E-01 4.97642E-03-1.39865E+00-1.83620E-15 9.55126E-14
 -1       412 2.25575E+01-5.10544E-02 1.94343E-03-1.61023E+00-5.96567E-14 1.38591E-14
 -1       413 2.31061E+01-3.61397E-01-1.55200E-03-1.29166E+00-1.30034E-13 5.06019E-15
 -1       414 2.33790E+01-4.53158E-01-4.76966E-03-7.12936E-01 7.95709E-14 1.30097E-13
 -1       415 2.33729E+01-3.87603E-01-5.85270E-03-1.33854E-01 4.72987E-13 2.73733E-13
 -1       416 2.31576E+01-2.59813E-01-5.16184E-03 3.04388E-01 3.44204E-13 3.49368E-13
 -1       417 2.28154E+01-1.35307E-01-3.63142E-03 5.68641E-01 6.47201E-14 1.96096E-13
 -1       418 2.24146E+01-4.19554E-02-1.92679E-03 6.84950E-01-1.77106E-13-8.60565E-14
 -1       419 2.20036E+01 1.67826E-02-5.61221E-04 6.98118E-01-3.09880E-13-3.67012E-14
 -1       420 2.16136E+01 4.78795E-02 3.47042E-04 6.49871E-01-3.99859E-13 1.45216E-13
 -1       421 2.12620E+01 6.03656E-02 8.54123E-04 5.71337E-01-3.12944E-13 3.46688E-13
 -1       422 2.09568E+01 6.19368E-02 1.07653E-03 4.82644E-01 9.28560E-15 3.76345E-13
 -1       423 2.07000E+01 5.81984E-02 1.12696E-03 3.95102E-01 3.05598E-13 1.34371E-13
 -1       424 2.04896E+01 5.29713E-02 1.08732E-03 3.13709E-01 2.78377E-13 3.50373E-13
 -1       425 2.03221E+01 4.87323E-02 9.97978E-04 2.39211E-01 2.89023E-13 2.66777E-13
 -1       426 2.01935E+01 4.66998E-02 8.31010E-04 1.70036E-01 2.75146E-13 1.95346E-13
 -1       427 2.00989E+01 4.64353E-02 6.52401E-04 1.04353E-01-1.76645E-13 1.10268E-13
 -1       428 2.00543E+01 4.78582E-02 4.41689E-04 6.82872E-02-5.92863E-14 6.41376E-14
 -1       429 2.00146E+01 2.65126E-01 1.68949E-04 2.00716E-01 1.64877E-13-2.82733E-13
 -1       430 2.00447E+01 1.72430E-01 4.96917E-04 1.72732E-01-4.23308E-14 1.33106E-13
 -1       431 2.00562E+01 1.04542E-01 6.37400E-04 1.23660E-01-8.43935E-14 5.55774E-14
 -1       432 1.99848E+01 3.55884E-01-1.25882E-04 1.98097E-01 1.94421E-13-4.53499E-13
 -1       433 1.99586E+01 4.37438E-01-3.68826E-04 1.66139E-01 1.68112E-13-3.48327E-16
 -1       434 1.99395E+01 4.98256E-01-5.56260E-04 1.10180E-01 1.11303E-13 1.94417E-13
 -1       435 1.99293E+01 5.30826E-01-6.57824E-04 3.86189E-02-2.77447E-13-1.28438E-13
 -1       436 1.99292E+01 5.31028E-01-6.59443E-04-3.84233E-02-2.55244E-13 3.11724E-13
 -1       437 1.99392E+01 4.98778E-01-5.60504E-04-1.10207E-01-1.54073E-13 2.36011E-13
 -1       438 1.99579E+01 4.39356E-01-3.69989E-04-1.65769E-01-4.86012E-14-1.61621E-13
 -1       439 1.99843E+01 3.57882E-01-1.40783E-04-1.98510E-01 8.51951E-14 3.08266E-14
 -1       440 2.00145E+01 2.65410E-01 1.10984E-04-2.01316E-01 3.61416E-14-7.99112E-14
 -1       441 2.00458E+01 1.71506E-01 4.84730E-04-1.73563E-01-1.90430E-13-1.60407E-13
 -1       442 9.60163E+00-5.02896E+00 1.19125E-02 6.74354E+00-1.11661E-13 3.52260E-13
 -1       443 1.03375E+00-4.50202E+00-8.39843E-02 2.80125E-02 7.35063E-14-2.39003E-13
 -1       444 4.23861E+00-4.27055E+00 1.97224E-02 4.54090E+00 4.58245E-14 7.43849E-15
 -1       445 1.78231E+01-5.42983E+00-2.10083E-02 6.78060E+00-1.26565E-13 3.82964E-13
 -1       446 2.54638E+01-3.55608E+00 4.20629E-03 4.87154E+00 1.86878E-13-2.47150E-13
 -1       447 1.97900E+01 3.44174E+00-2.08817E-02-1.72497E+00-1.81948E-13-2.20025E-13
 -1       448 3.38615E+01 4.79314E+00-1.56853E-02-2.14347E-01 3.49734E-13-1.26010E-14
 -1       449 3.53206E+01 7.38797E+00 3.76272E-02-2.54482E-01 2.28387E-13 8.54941E-14
 -1       450 3.55319E+01 7.70440E+00 5.24800E-02 1.99298E-01-7.25253E-14-1.96954E-13
 -1       451 3.51475E+01 4.80838E+00 8.02964E-02-3.96222E-01 2.01839E-13-2.08167E-16
 -1       452 3.18860E+01 6.34986E-01 2.52694E-02-1.71340E+00 2.48480E-13-1.85824E-13
 -1       453 2.68800E+01-3.35962E+00-1.00232E-02-4.05206E+00 1.14492E-13-2.06460E-13
 -1       454 1.95176E+01-5.19319E+00-2.51223E-02-6.51167E+00 2.00964E-13 7.53078E-14
 -1       455 1.21376E+01-5.52259E+00-3.22528E-02-6.98989E+00 1.01419E-13-1.78003E-13
 -1       456 4.70522E+00-4.40423E+00-1.36635E-03-4.87954E+00-1.02737E-13-4.87013E-13
 -1       457 1.69869E+00-3.62140E+00 1.75069E-02-7.74316E-01-5.94386E-14-6.67993E-13
 -1       458 2.28574E+00-4.40795E+00-4.60457E-02 2.86470E+00 6.94791E-14-4.31891E-13
 -1       459 7.71850E+00-5.37724E+00-6.60564E-02 6.22478E+00 2.80331E-14 3.32637E-13
 -1       460 1.60740E+01-5.56023E+00-1.06085E-02 6.98920E+00 4.96825E-15 6.29767E-13
 -1       461 2.35549E+01-4.68423E+00-8.91423E-03 5.33288E+00 6.04794E-14 4.35832E-13
 -1       462 3.10065E+01-1.91389E-01 2.02570E-02 2.25422E+00 4.97900E-14 2.57905E-13
 -1       463 3.43475E+01 3.80528E+00 4.89010E-02 3.89886E-01-5.15005E-14 2.49786E-13
 -1       464 3.54401E+01 7.26414E+00 4.49991E-02-3.41141E-01-1.29924E-13 2.52687E-13
 -1       465 3.61248E+01 7.85701E+00 7.84826E-02 1.20290E-01-1.74832E-13 3.85643E-13
 -1       466 3.49699E+01 4.97331E+00 6.42265E-02-9.24809E-02 1.34476E-14 3.79086E-13
 -1       467 3.23648E+01 9.86444E-01 4.95329E-02-1.67816E+00 9.41452E-14 2.07750E-13
 -1       468 2.65144E+01-3.34618E+00-1.40705E-02-4.34499E+00 1.13590E-13 1.19113E-13
 -1       469 1.91339E+01-5.43996E+00-1.03887E-02-6.59526E+00 9.90874E-14 1.45751E-14
 -1       470 1.05351E+01-5.41109E+00-3.83584E-02-6.75847E+00-9.75470E-14 1.33858E-13
 -1       471 2.76541E+00-4.82520E+00-1.02867E-01-3.64458E+00-1.93692E-13 5.80813E-13
 -1       472 3.06649E+01-3.10415E-01-1.27367E-02 2.42536E+00 2.76883E-13-3.27988E-13
 -1       473 3.11166E+01 1.23224E+00-7.78439E-02-1.09490E+00 1.95170E-13-1.92180E-13
 -1       474 8.43743E+00-3.74591E+00 1.00432E-01-6.06984E+00-9.35918E-14-9.62286E-14
 -1       475 2.76949E+01-3.81680E+00-3.42549E-02 2.43515E+00 2.14065E-13 2.11685E-13
 -1       476 2.03659E+01 8.33802E-01 4.01401E-03 9.69745E-01 1.92310E-13-4.89978E-14
 -1       477 1.97451E+01 3.11364E+00-5.35006E-03-6.31185E-01-9.35940E-14-2.33477E-13
 -1       478 1.98386E+01 2.93859E+00-5.79742E-03-9.47167E-01-1.29504E-13-2.49237E-13
 -1       479 1.96790E+01 3.23814E+00-5.02896E-03 8.79360E-03-7.19145E-15-2.10400E-13
 -1       480 1.96972E+01 3.20458E+00-5.10679E-03 3.28828E-01 2.25002E-14-2.44758E-13
 -1       481 1.97498E+01 3.10637E+00-5.41414E-03 6.43021E-01 6.52288E-14-2.24796E-13
 -1       482 1.98461E+01 2.92642E+00-5.94510E-03 9.57985E-01 1.39753E-13-1.96777E-13
 -1       483 1.99978E+01 2.63893E+00-6.52613E-03 1.25324E+00 1.76262E-13-1.73688E-13
 -1       484 2.02345E+01 2.19054E+00-5.69859E-03 1.49877E+00 2.20175E-13-1.38807E-13
 -1       485 4.93396E+00-1.56551E+00 1.67654E-01 2.21521E+00-1.34032E-13-3.39367E-13
 -1       486 2.01069E+01 4.57100E-01 5.09145E-03 4.59272E-01 1.72107E-13-6.19482E-14
 -1       487 2.03400E+01 9.78694E-01 2.91981E-03-9.40019E-01-1.50686E-13-8.19538E-14
 -1       488 2.01705E+01 5.49360E-01 1.93596E-03-4.61170E-01-1.42542E-13-7.45894E-14
 -1       489 2.00278E+01 3.12684E-01 1.08377E-03-1.54029E-01-9.48525E-14-6.79771E-14
 -1       490 1.99332E+01 1.75382E-01 4.79691E-04 3.58459E-02-8.36946E-14-6.28904E-14
 -1       491 1.98832E+01 9.53929E-02 2.02769E-04 1.50654E-01-7.92539E-14-9.48196E-14
 -1       492 1.98682E+01 5.09174E-02 8.72499E-05 2.19178E-01-1.12489E-13-1.81386E-13
 -1       493 1.98790E+01 3.00180E-02 4.43199E-05 2.61401E-01-5.39400E-14-2.23882E-13
 -1       494 1.99090E+01 2.57198E-02 4.13917E-05 2.91528E-01-5.05417E-14-1.97253E-13
 -1       495 1.99541E+01 3.36937E-02 6.59470E-05 3.19958E-01-6.13510E-14-1.89237E-13
 -1       496 2.00121E+01 5.10736E-02 1.11465E-04 3.54507E-01-2.96668E-14-1.39861E-13
 -1       497 2.00825E+01 7.57378E-02 1.73012E-04 4.01125E-01 2.91448E-14-7.86113E-14
 -1       498 2.01659E+01 1.05742E-01 2.45516E-04 4.64247E-01-2.19184E-15-1.33472E-13
 -1       499 2.02642E+01 1.38724E-01 3.21943E-04 5.46806E-01-3.19981E-14-1.28521E-13
 -1       500 2.03798E+01 1.71149E-01 3.90997E-04 6.49883E-01-9.03301E-14-9.40599E-14
 -1       501 2.05159E+01 1.97276E-01 4.34019E-04 7.71917E-01-1.57431E-13-8.72853E-14
 -1       502 2.06775E+01 2.07774E-01 4.21122E-04 9.07345E-01 2.46737E-16-1.61236E-13
 -1       503 2.08716E+01 1.88084E-01 3.07171E-04 1.04455E+00-2.50852E-14-1.95615E-13
 -1       504 2.11095E+01 1.17033E-01 2.56000E-05 1.16298E+00 8.38890E-14-8.11050E-14
 -1       505 2.14086E+01-3.27200E-02-4.86560E-04 1.22954E+00 5.35280E-14-1.93155E-13
 -1       506 2.17932E+01-2.88799E-01-1.25103E-03 1.19492E+00 1.76317E-13-2.21392E-13
 -1       507 2.22898E+01-6.61576E-01-2.34744E-03 9.92499E-01 5.02220E-14-1.57856E-13
 -1       508 2.29086E+01-1.10722E+00-3.38318E-03 5.46005E-01-1.42726E-14-1.10731E-13
 -1       509 2.36000E+01-1.46850E+00-4.26007E-03-1.97168E-01-2.93043E-14-2.18847E-13
 -1       510 2.42048E+01-1.43488E+00-2.12497E-03-1.16823E+00-3.09835E-14-2.38486E-13
 -1       511 2.44632E+01-6.71535E-01-1.01407E-02-2.05688E+00 2.77533E-14-1.06419E-13
 -1       512 2.42319E+01 8.53009E-01-2.09118E-02-2.25282E+00-4.89830E-14-1.23082E-13
 -1       513 2.37690E+01 2.38253E+00-2.94706E-02-1.27751E+00-3.43111E-14 2.59300E-14
 -1       514 2.36436E+01 2.74101E+00-3.21129E-02 5.09422E-01 7.18696E-15 6.45524E-14
 -1       515 2.40143E+01 1.61703E+00-2.71565E-02 1.95927E+00-2.39600E-14 1.10737E-13
 -1       516 2.44165E+01-5.16196E-02-1.27794E-02 2.26590E+00-4.29919E-15-6.02967E-14
 -1       517 2.43775E+01-1.19714E+00-4.83244E-03 1.60611E+00-5.28353E-14-1.10261E-13
 -1       518 2.38942E+01-1.52465E+00-3.34383E-03 6.13204E-01 1.06882E-13 2.37783E-13
 -1       519 2.32145E+01-1.29506E+00-3.37513E-03-2.52754E-01 7.72067E-14 3.51888E-13
 -1       520 2.25511E+01-8.58933E-01-2.74731E-03-8.29945E-01 1.56391E-15 5.86494E-13
 -1       521 2.19987E+01-4.42026E-01-1.75854E-03-1.13244E+00-1.09183E-13 6.33397E-13
 -1       522 2.15670E+01-1.31322E-01-8.27065E-04-1.23203E+00-1.16624E-13 3.84336E-13
 -1       523 2.12340E+01 6.51242E-02-1.72159E-04-1.20138E+00 3.55389E-14 1.62646E-13
 -1       524 2.09732E+01 1.70672E-01 2.15978E-04-1.09734E+00-1.07985E-13 3.52035E-13
 -1       525 2.07644E+01 2.14403E-01 4.11914E-04-9.59210E-01 7.03887E-15 4.70625E-13
 -1       526 2.05939E+01 2.20963E-01 4.82967E-04-8.11863E-01-7.21906E-14 2.69323E-13
 -1       527 2.04535E+01 2.08346E-01 4.79938E-04-6.69488E-01 1.11489E-13 5.73571E-14
 -1       528 2.03374E+01 1.88797E-01 4.42561E-04-5.38854E-01 7.21089E-14 1.53875E-13
 -1       529 2.02412E+01 1.70128E-01 3.94051E-04-4.21641E-01 1.44757E-14 4.68391E-13
 -1       530 2.01624E+01 1.56414E-01 4.35601E-04-3.16613E-01-3.20820E-13 5.34850E-13
 -1       531 1.00893E+01-2.37534E+00 1.70162E-01 5.52772E+00-1.83617E-13 2.22523E-13
 -1       532 1.98151E+01 1.38100E-01 1.04838E-03-3.56539E-02 8.62418E-14-9.09488E-14
 -1       533 1.97665E+01 7.30536E-02 4.35163E-04-1.44212E-01 5.48317E-14-8.88763E-14
 -1       534 1.97611E+01 3.70788E-02 1.81940E-04-2.06679E-01 6.69699E-14-3.89515E-14
 -1       535 1.97859E+01 1.97899E-02 8.26841E-05-2.43200E-01 2.21144E-14-1.98558E-14
 -1       536 1.98323E+01 1.53785E-02 5.96704E-05-2.67569E-01 3.19450E-14 1.14497E-14
 -1       537 1.98951E+01 2.03407E-02 8.47336E-05-2.89655E-01 2.94188E-14-1.99966E-14
 -1       538 1.99721E+01 3.23965E-02 1.44232E-04-3.16759E-01 1.25116E-13-6.14439E-14
 -1       539 2.00630E+01 4.98768E-02 2.28521E-04-3.54375E-01 1.24031E-13-7.58741E-14
 -1       540 2.01694E+01 7.12788E-02 3.28422E-04-4.06542E-01 4.23858E-14-2.99255E-14
 -1       541 2.02939E+01 9.48253E-02 4.31945E-04-4.75857E-01-6.80992E-14 6.04203E-14
 -1       542 2.04397E+01 1.17907E-01 5.21317E-04-5.63144E-01-1.75718E-14 9.61335E-14
 -1       543 2.06108E+01 1.36325E-01 5.69268E-04-6.66659E-01 3.50473E-14 6.63472E-14
 -1       544 2.08113E+01 1.43323E-01 5.34668E-04-7.80739E-01-4.37980E-14 1.72206E-13
 -1       545 2.10458E+01 1.28458E-01 3.59717E-04-8.93799E-01-1.23705E-13 1.78976E-13
 -1       546 2.13198E+01 7.67350E-02-2.67585E-05-9.85647E-01-8.37576E-14 1.43194E-13
 -1       547 2.16393E+01-3.08207E-02-6.89205E-04-1.02448E+00-1.01235E-13 5.23334E-14
 -1       548 2.20106E+01-2.12668E-01-1.64696E-03-9.64801E-01-1.12531E-13-2.02943E-14
 -1       549 2.24356E+01-4.74042E-01-2.78293E-03-7.49278E-01-2.53184E-14 5.71990E-14
 -1       550 2.28986E+01-7.81674E-01-3.81496E-03-3.21458E-01-1.03363E-14-1.74950E-14
 -1       551 2.33453E+01-1.02906E+00-4.15270E-03 3.40261E-01-2.65087E-15-5.96326E-14
 -1       552 2.36589E+01-1.01645E+00-3.38711E-03 1.15743E+00-1.51079E-13-2.55325E-14
 -1       553 2.36837E+01-5.20846E-01-2.92508E-03 1.86520E+00-8.24589E-14 2.22213E-15
 -1       554 2.33625E+01 4.60964E-01-7.40020E-03 2.02362E+00 5.68185E-14 1.03339E-13
 -1       555 2.28949E+01 1.53347E+00-9.32402E-03 1.31068E+00 8.73555E-14 2.55862E-13
 -1       556 2.26897E+01 1.96445E+00-7.45062E-03-1.07007E-01 2.54404E-13 1.80291E-13
 -1       557 2.29559E+01 1.40825E+00-4.63743E-03-1.45359E+00 2.68502E-13 1.41188E-13
 -1       558 2.34212E+01 3.07789E-01-5.70383E-03-2.05198E+00-6.74916E-15 1.61101E-13
 -1       559 2.37007E+01-6.26391E-01-3.79291E-03-1.78391E+00-1.75380E-13 1.77541E-13
 -1       560 2.36256E+01-1.04536E+00-4.53604E-03-1.03689E+00-1.36269E-13 5.61050E-14
 -1       561 2.32835E+01-1.00628E+00-4.34116E-03-2.31446E-01 2.37057E-13 3.15857E-13
 -1       562 2.28291E+01-7.40534E-01-3.71062E-03 3.99569E-01 2.02494E-13 4.09872E-13
 -1       563 2.23683E+01-4.33657E-01-2.86290E-03 7.94952E-01 2.72957E-13 6.31331E-13
 -1       564 2.19505E+01-1.81169E-01-1.60524E-03 9.83853E-01 1.54658E-13 4.29229E-13
 -1       565 2.15874E+01-8.96722E-03-5.79557E-04 1.02453E+00-9.51719E-14 5.11908E-13
 -1       566 2.12765E+01 9.15908E-02 1.16825E-04 9.72608E-01-4.63281E-13 1.47313E-13
 -1       567 2.10117E+01 1.39874E-01 5.13285E-04 8.71063E-01-3.35648E-13-5.64872E-15
 -1       568 2.07875E+01 1.54850E-01 6.94589E-04 7.49102E-01-1.71247E-13 5.76877E-16
 -1       569 2.05991E+01 1.51353E-01 7.40061E-04 6.24489E-01 2.78940E-13 1.26119E-13
 -1       570 2.04426E+01 1.39858E-01 7.12766E-04 5.06536E-01 1.66527E-13 2.35340E-13
 -1       571 2.03142E+01 1.27353E-01 6.95942E-04 3.98804E-01 1.19610E-13 3.50865E-13
 -1       572 2.02104E+01 1.18253E-01 7.96880E-04 3.01464E-01 3.10174E-13 1.70628E-13
 -1       573 2.01261E+01 1.12764E-01 7.20723E-04 2.11982E-01 4.19414E-14 5.05110E-13
 -1       574 1.99363E+01 4.06757E-01-1.25781E-04 2.55848E-01 4.18765E-13-1.06062E-13
 -1       575 1.98889E+01 4.76158E-01-2.11476E-04 1.92748E-01 1.74072E-13 5.19498E-14
 -1       576 2.00564E+01 2.27480E-01 4.00758E-05 2.73415E-01-3.58938E-14-1.84395E-13
 -1       577 1.99946E+01 3.21115E-01-3.89501E-05 2.83942E-01 1.59688E-13-1.57418E-13
 -1       578 1.98582E+01 5.21281E-01-2.79264E-04 1.03568E-01-5.79604E-14-3.10056E-13
 -1       579 1.98474E+01 5.37219E-01-3.06384E-04 3.98489E-04-1.01358E-13 1.84486E-13
 -1       580 1.98577E+01 5.22105E-01-2.81349E-04-1.02983E-01-1.05611E-13 3.88581E-13
 -1       581 1.98875E+01 4.78579E-01-2.18272E-04-1.91329E-01 9.09019E-14 1.48819E-13
 -1       582 1.99347E+01 4.09915E-01-1.12534E-04-2.55639E-01-4.44352E-14-1.17996E-13
 -1       583 1.99942E+01 3.23140E-01 5.68294E-05-2.84696E-01-9.17949E-14-5.13012E-14
 -1       584 2.00564E+01 2.28669E-01 2.52596E-04-2.74420E-01-3.39952E-13-1.21337E-13
 -1       585 2.37023E+01-5.42076E+00 1.78606E-02 4.52410E+00-7.12624E-14-1.86677E-13
 -1       586 1.99237E+01 2.52221E-01 2.48693E-03 1.49582E-01 1.08730E-13-6.67621E-14
 -1       587 2.82195E+01-3.45232E+00-5.43036E-02 1.74200E+00 1.28914E-13-3.42941E-13
 -1       588 1.69390E+01-4.98091E+00 9.87455E-02 6.66104E+00-1.78739E-13 2.38955E-13
 -1       589 5.03193E+00-1.50437E+00 1.79144E-01-2.16531E+00-2.41600E-13 3.59046E-13
 -1       590 7.43757E+00-2.92105E+00 1.30931E-01 5.19784E+00 5.57748E-14 8.18096E-14
 -1       591 1.11894E+01-3.84761E+00 1.22229E-01-6.53086E+00-9.14824E-14-3.62918E-13
 -1       592 2.43323E+01-5.32771E+00 1.00003E-03-4.21733E+00 2.35693E-13-2.65236E-13
 -1       593 1.96943E+01 3.20905E+00-5.10034E-03-3.11357E-01-4.41219E-14-2.37748E-13
 -1       594 2.99596E+01 5.26530E+00-1.71009E-01 1.74459E+00-6.62248E-14-2.33348E-13
 -1       595 2.99625E+01 5.39830E+00-1.50096E-01-1.72825E+00 2.54810E-13-1.66755E-13
 -1       596 6.44396E+00-1.22187E+00 1.89766E-01-3.04876E+00-4.73059E-14-4.92523E-13
 -1       597 3.01973E+01 7.26608E+00-1.69783E-01-1.45581E-01 1.97134E-13-1.14544E-13
 -1       598 3.03329E+01 1.98048E+00-1.16581E-01 1.69571E+00 2.21885E-13 3.40075E-14
 -1       599 2.89492E+01-2.55742E+00-6.58576E-02-5.58517E-01 1.92376E-13 7.33510E-14
 -1       600 1.82544E+01-5.34827E+00 6.96706E-02-6.51484E+00 1.02890E-13 3.13560E-14
 -1       601 1.44026E+01-4.50463E+00 1.09408E-01 6.77676E+00 4.17444E-14 7.20139E-13
 -1       602 5.21916E+00-1.15025E+00 1.84182E-01 1.48307E+00 9.77742E-14-4.98629E-13
 -1       603 3.06276E+01 5.98804E-01-1.13698E-01-8.55554E-01 3.08087E-15 3.87662E-13
 -1       604 2.15361E+01-5.48007E+00 5.97947E-02 5.48130E+00 4.65669E-14 4.16471E-13
 -1       605 3.05644E+01 4.71129E+00-1.44610E-01-1.80306E+00-6.69048E-14 3.81931E-13
 -1       606 2.95628E+01 6.93003E+00-1.95114E-01-3.59232E-01-2.43972E-14 4.84977E-14
 -1       607 3.04568E+01 6.09632E+00-1.62957E-01 1.42551E+00-5.28605E-14-6.87922E-14
 -1       608 3.04828E+01 1.68239E+00-1.25448E-01 1.58312E+00 1.66415E-13 2.12184E-13
 -1       609 2.90835E+01-2.59802E+00-5.43702E-02-7.13257E-01 1.21468E-13-8.95117E-15
 -1       610 2.45392E+01-5.32749E+00 9.04221E-03-4.18858E+00 2.37151E-13 2.58162E-14
 -1       611 1.71654E+01-5.08446E+00 9.46483E-02-6.66296E+00 2.61249E-13-1.52867E-13
 -1       612 2.03884E+01 1.77311E+00-5.66963E-03-1.54440E+00-2.16119E-13-1.02167E-13
 -1       613 2.05752E+01 1.30589E+00-9.92936E-04 1.54701E+00 2.17843E-13-9.68995E-15
 -1       614 1.99853E+01 2.66783E+00-6.58244E-03-1.25111E+00-1.53128E-13-2.09740E-13
 -1       615 2.50152E+01-5.08557E+00-3.62407E-03 3.19980E+00 1.04819E-13 8.44463E-14
 -1       616 2.01168E+01 1.49126E-01 4.76969E-04-2.49556E-01-3.69485E-13 4.61820E-13
 -1       617 2.85541E+01-2.39081E+00-5.73460E-02-1.12339E-01-1.79544E-14 3.48735E-13
 -1       618 1.99719E+01 2.46545E+00-1.59372E-03 3.90415E-01 2.13802E-14-1.92677E-13
 -1       619 1.99405E+01 2.54179E+00-1.52002E-03 1.34543E-01-9.99595E-15-2.31272E-13
 -1       620 2.01288E+01 2.05628E+00-1.58294E-03 8.44325E-01 1.39169E-13-1.42511E-13
 -1       621 2.02441E+01 1.68216E+00-2.21875E-03 9.86327E-01 1.95480E-13-1.32560E-13
 -1       622 2.82821E+01-1.20757E+00-8.43111E-02 1.51244E+00 2.98652E-13 3.54057E-14
 -1       623 2.03197E+01 1.04208E+00 2.86405E-03 8.26135E-01 1.73952E-13-1.29917E-13
 -1       624 7.38932E+00-7.94817E-02 1.58545E-01 6.76548E-02-2.05485E-13-1.02897E-13
 -1       625 2.02452E+01 6.85660E-01 2.92821E-04-3.81334E-01-1.07975E-13-1.17986E-13
 -1       626 2.01763E+01 4.10862E-01 1.75262E-04-1.19203E-01-9.36533E-14-1.36690E-13
 -1       627 2.01152E+01 2.40414E-01 5.98569E-05 5.43540E-02-1.05477E-13-1.23816E-13
 -1       628 2.00706E+01 1.37987E-01 1.95080E-05 1.66025E-01-1.03925E-13-1.32934E-13
 -1       629 2.00430E+01 8.15530E-02 7.24201E-06 2.37732E-01-1.04653E-13-1.14620E-13
 -1       630 2.00298E+01 5.75681E-02 5.80369E-06 2.86690E-01-3.54502E-14-1.17708E-13
 -1       631 2.00284E+01 5.73532E-02 1.16771E-05 3.26102E-01-8.94382E-14-8.63770E-14
 -1       632 2.00364E+01 7.51180E-02 2.39191E-05 3.66085E-01-4.52881E-14-8.89670E-14
 -1       633 2.00519E+01 1.06739E-01 4.16743E-05 4.14427E-01 4.42348E-16-7.77666E-14
 -1       634 2.00737E+01 1.48864E-01 6.40437E-05 4.77088E-01-1.81477E-14-7.56288E-14
 -1       635 2.01012E+01 1.98096E-01 8.98191E-05 5.58457E-01-1.84282E-14-1.04878E-13
 -1       636 2.01343E+01 2.50055E-01 1.16956E-04 6.61345E-01 1.06869E-14-9.94808E-14
 -1       637 2.01742E+01 2.98176E-01 1.42038E-04 7.86716E-01-1.69301E-13-5.49755E-14
 -1       638 2.02243E+01 3.32103E-01 1.59325E-04 9.33094E-01-1.04656E-13 7.66876E-15
 -1       639 2.02917E+01 3.35644E-01 1.58925E-04 1.09559E+00 5.38233E-15-2.52966E-14
 -1       640 2.03906E+01 2.84483E-01 1.22160E-04 1.26440E+00 6.03114E-14-1.10024E-14
 -1       641 2.05465E+01 1.44469E-01-4.50432E-06 1.42233E+00 2.37910E-14-2.74622E-14
 -1       642 2.08022E+01-1.27098E-01-2.18639E-04 1.54034E+00 8.59580E-14 4.57600E-14
 -1       643 2.12217E+01-5.71198E-01-4.36209E-04 1.56941E+00 1.47777E-13-1.45571E-13
 -1       644 2.18817E+01-1.19676E+00-1.28073E-03 1.43068E+00 1.06361E-13-1.06341E-13
 -1       645 2.28515E+01-1.92312E+00-1.84261E-03 1.00427E+00-1.03214E-13-3.48357E-14
 -1       646 2.40860E+01-2.43916E+00-3.74786E-03 1.36529E-01 1.71228E-14 2.20401E-14
 -1       647 2.52486E+01-2.20093E+00-1.01385E-02-1.08025E+00-7.31975E-14 2.51799E-14
 -1       648 2.59385E+01-3.54541E-01-3.28727E-02-2.31692E+00-4.46830E-14-1.33518E-13
 -1       649 2.58589E+01 2.54848E+00-9.11720E-02-2.35691E+00 5.40575E-14-2.23007E-13
 -1       650 2.54820E+01 4.52091E+00-9.29431E-02-5.44178E-01 7.25010E-14-4.69937E-14
 -1       651 2.56435E+01 3.69124E+00-9.89560E-02 1.70079E+00-1.65354E-14-1.04049E-14
 -1       652 2.59343E+01 8.61450E-01-7.26225E-02 2.53264E+00 3.24775E-14-3.25972E-14
 -1       653 2.56846E+01-1.59059E+00-2.05457E-02 1.72251E+00 8.45815E-14 3.46430E-13
 -1       654 2.46528E+01-2.45431E+00-3.48058E-03 3.78446E-01 9.15437E-14 4.53278E-13
 -1       655 2.33766E+01-2.20803E+00-1.04812E-03-6.81135E-01 3.83252E-14 1.67886E-13
 -1       656 2.22749E+01-1.51975E+00-1.03465E-03-1.28702E+00 1.30425E-13 1.92496E-13
 -1       657 2.14832E+01-8.29976E-01-8.39858E-04-1.53747E+00-1.15090E-13 3.75078E-13
 -1       658 2.09664E+01-3.00017E-01-4.04597E-04-1.56999E+00-2.59883E-13 1.83915E-13
 -1       659 2.06478E+01 4.70011E-02-9.01062E-05-1.48185E+00-9.19043E-14 4.75080E-14
 -1       660 2.04551E+01 2.44000E-01 6.65059E-05-1.33370E+00-7.83016E-14 1.39267E-13
 -1       661 2.03365E+01 3.35436E-01 1.31564E-04-1.16150E+00-1.44078E-13 9.03005E-14
 -1       662 2.02593E+01 3.60287E-01 1.62486E-04-9.86320E-01-2.22180E-13-7.63542E-14
 -1       663 2.02047E+01 3.47781E-01 1.51280E-04-8.20078E-01-6.07769E-15 1.04354E-13
 -1       664 2.01626E+01 3.18069E-01 8.94826E-05-6.68719E-01 1.45332E-13-3.79431E-14
 -1       665 2.01277E+01 2.84743E-01 1.26743E-04-5.34340E-01 9.37646E-14-1.40929E-13
 -1       666 2.00956E+01 2.57536E-01 3.88864E-04-4.17549E-01-2.28075E-13-2.73997E-13
 -1       667 2.83486E+01 1.62752E+00-1.18390E-01-2.36006E+00-1.31908E-13 3.38032E-13
 -1       668 2.00393E+01 2.10217E-01 1.94155E-04-4.82921E-02 5.20674E-14-8.55891E-14
 -1       669 1.99692E+01 4.36833E-02 2.41639E-05-2.78245E-01 1.56954E-14 6.05636E-15
 -1       670 1.99822E+01 4.10966E-02 2.66430E-05-3.13645E-01 3.92788E-14-6.36332E-15
 -1       671 2.00074E+01 5.36936E-02 4.17953E-05-3.48548E-01 8.87343E-14-1.26319E-14
 -1       672 2.00430E+01 7.78398E-02 6.71609E-05-3.90726E-01 9.39128E-14 2.27444E-14
 -1       673 2.00881E+01 1.10606E-01 1.00417E-04-4.46040E-01 5.41386E-14 8.77604E-14
 -1       674 2.01427E+01 1.49072E-01 1.38985E-04-5.18685E-01-5.34454E-14 1.18520E-13
 -1       675 2.02080E+01 1.89555E-01 1.77752E-04-6.11162E-01-8.42313E-14 2.20003E-14
 -1       676 2.02857E+01 2.26592E-01 2.09644E-04-7.23926E-01 3.24105E-14-8.80577E-15
 -1       677 2.03795E+01 2.51619E-01 2.24390E-04-8.54580E-01-6.13499E-14 7.44952E-14
 -1       678 2.04959E+01 2.51401E-01 2.05682E-04-9.96628E-01-1.12630E-13 1.44947E-13
 -1       679 2.06459E+01 2.06327E-01 1.28264E-04-1.13762E+00-6.55806E-14 1.61994E-14
 -1       680 2.08484E+01 8.94910E-02-4.32049E-05-1.25649E+00-5.90098E-14-1.91456E-14
 -1       681 2.11328E+01-1.31239E-01-3.37826E-04-1.31982E+00-2.87813E-14-7.32453E-14
 -1       682 2.15396E+01-4.83717E-01-7.79298E-04-1.27728E+00-1.00262E-13-4.91916E-14
 -1       683 2.21123E+01-9.66376E-01-1.30567E-03-1.05756E+00-2.81759E-14-2.78123E-14
 -1       684 2.28678E+01-1.49894E+00-2.08137E-03-5.75075E-01-9.75973E-14 1.56456E-13
 -1       685 2.37399E+01-1.85537E+00-3.49914E-03 2.32841E-01-4.69177E-14 1.61930E-13
 -1       686 2.45238E+01-1.63153E+00-5.39832E-03 1.29524E+00-8.44667E-14 1.00352E-14
 -1       687 2.48101E+01-4.19076E-01-4.65506E-03 2.16732E+00-2.16573E-14-1.67043E-13
 -1       688 2.44972E+01 1.61388E+00-3.63107E-02 2.22066E+00-9.16558E-14-1.54292E-13
 -1       689 2.41097E+01 3.26909E+00-5.87727E-02 8.52335E-01 2.86856E-13-2.33410E-13
 -1       690 2.41429E+01 3.18495E+00-7.10100E-02-1.12550E+00 1.35045E-13-2.13935E-13
 -1       691 2.46827E+01 1.33250E+00-2.11094E-02-2.32004E+00 5.30131E-14-1.33175E-14
 -1       692 2.47964E+01-6.74605E-01-8.26000E-03-2.06838E+00-9.90215E-14-5.98386E-14
 -1       693 2.44285E+01-1.71943E+00-9.80632E-03-1.14062E+00-4.66597E-14-8.95187E-14
 -1       694 2.36123E+01-1.82280E+00-2.19090E-03-9.59470E-02-4.19935E-14-1.63185E-13
 -1       695 2.27528E+01-1.42906E+00-4.61068E-04 6.65901E-01 1.78487E-13-1.10199E-13
 -1       696 2.20191E+01-8.91801E-01-1.34289E-03 1.10662E+00 9.86004E-14 8.36665E-14
 -1       697 2.14728E+01-4.23678E-01-7.56624E-04 1.29470E+00 2.09414E-13 2.47334E-13
 -1       698 2.10868E+01-8.90030E-02-3.42808E-04 1.31668E+00-7.93518E-14 2.73330E-13
 -1       699 2.08176E+01 1.17884E-01-3.97210E-05 1.23979E+00-2.36010E-13 3.60531E-13
 -1       700 2.06260E+01 2.26749E-01 1.34514E-04 1.11118E+00-2.44094E-13 2.66634E-13
 -1       701 2.04844E+01 2.69810E-01 2.18477E-04 9.61532E-01-3.35680E-13 1.85815E-13
 -1       702 2.03753E+01 2.73537E-01 2.49139E-04 8.09642E-01 1.00706E-13 3.10426E-13
 -1       703 2.02882E+01 2.57257E-01 2.37201E-04 6.65936E-01 1.35590E-13 2.50332E-13
 -1       704 2.02168E+01 2.34268E-01 2.32322E-04 5.35216E-01 2.19452E-14 3.52067E-13
 -1       705 2.01570E+01 2.13285E-01 3.20305E-04 4.18367E-01 4.25752E-13 2.23334E-13
 -1       706 2.01000E+01 2.19388E-01 2.55357E-04 3.44470E-01-6.66162E-15-1.37660E-14
 -1       707 1.97467E+01 5.67105E-01-1.12516E-04 6.74558E-02 2.22925E-14-2.05170E-14
 -1       708 2.00760E+01 2.40953E-01 1.08193E-04-3.44715E-01-2.92041E-13-3.76926E-13
 -1       709 1.98466E+01 4.72191E-01-5.76267E-05 2.91162E-01 2.25009E-13-3.90578E-13
 -1       710 1.97463E+01 5.67884E-01-1.19887E-04-6.56745E-02-3.90459E-14 2.45845E-13
 -1       711 1.97815E+01 5.34020E-01-8.61233E-05 1.91660E-01-7.38800E-14-1.35220E-13
 -1       712 1.61077E+01-2.95480E+00 8.15163E-02 5.46094E+00-3.88155E-13 5.97578E-14
 -1       713 1.97795E+01 5.36979E-01-7.92404E-05-1.88635E-01 1.28329E-13 5.59708E-13
 -1       714 1.98434E+01 4.76552E-01-1.14396E-04-2.89911E-01 1.61968E-14-2.40498E-13
 -1       715 1.99303E+01 3.93155E-01-1.32482E-04-3.56483E-01 5.29928E-14-2.20849E-13
 -1       716 2.01123E+01 3.67201E-01 6.50266E-04 1.32173E-01 1.17625E-13-1.04211E-13
 -1       717 2.80839E+01 3.21994E+00-1.22381E-01 2.34185E+00 6.29774E-14-3.61100E-14
 -1       718 2.62823E+01-4.35605E+00-1.20929E-02 1.49800E+00 5.85643E-15-3.46653E-13
 -1       719 1.34985E+01-3.05277E+00 1.14938E-01-5.91638E+00 9.41851E-14-4.82329E-13
 -1       720 2.02091E+01 6.22758E-01 9.85656E-04 4.10448E-01 1.45968E-13-1.17100E-13
 -1       721 8.59059E+00 2.69638E-01 1.36050E-01-4.05398E-01 1.45349E-13-5.07289E-13
 -1       722 9.71340E+00-5.61551E-01 1.32281E-01 3.37486E+00-2.73954E-13-1.64604E-13
 -1       723 1.99714E+01 6.66297E-02 3.88338E-05-2.32100E-01 3.98766E-14 8.15608E-15
 -1       724 1.99931E+01 1.17875E-01 8.36407E-05-1.61565E-01 3.46329E-14-5.80016E-14
 -1       725 2.02934E+01 1.13304E+00 8.77564E-04-7.55973E-01-1.30955E-13-1.36343E-13
 -1       726 2.75374E+01 2.35734E+00-1.13846E-01 2.49128E+00 7.73444E-14-4.87586E-13
 -1       727 2.78015E+01 1.74657E+00-1.08209E-01-2.48697E+00 4.43430E-14-3.35409E-13
 -1       728 2.20873E+01-4.92101E+00 2.80607E-02-4.39440E+00 1.53703E-13 8.22944E-14
 -1       729 9.36886E+00-8.68222E-01 1.54142E-01-3.80983E+00 9.70612E-14 1.37168E-13
 -1       730 2.81246E+01-1.86170E+00-8.34390E-02-1.00049E+00 1.02358E-13-4.83388E-13
 -1       731 2.00348E+01 2.30836E+00-1.65753E-03 6.32439E-01 7.89001E-14-1.40850E-13
 -1       732 2.68451E+01 5.30523E+00-1.54639E-01-1.08541E+00 2.28179E-13-1.48777E-13
 -1       733 2.80826E+01-1.00123E+00-9.01174E-02 1.54252E+00 2.22985E-13-1.88745E-13
 -1       734 1.13576E+01-1.67245E+00 1.28394E-01-4.93609E+00-8.91058E-14-3.37140E-13
 -1       735 2.65124E+01-4.25999E+00-3.05461E-02-1.35989E+00 1.95130E-13-4.00374E-14
 -1       736 2.00273E+01 2.32156E+00-1.80633E-03-6.23007E-01-9.97658E-14-2.28092E-13
 -1       737 2.17659E+01-5.03961E+00 3.00455E-02-4.73183E+00 8.28781E-14-2.80783E-13
 -1       738 1.24943E+01-2.42073E+00 1.19442E-01 5.55255E+00 9.13575E-14 5.25545E-13
 -1       739 1.63901E+01-3.89531E+00 9.40408E-02-6.06112E+00-1.09503E-13-1.48173E-13
 -1       740 9.21089E+00-5.88504E-01 1.44597E-01 3.26176E+00 1.50203E-13-1.20924E-13
 -1       741 2.69045E+01 5.31352E+00-1.50755E-01 1.16258E+00 1.88488E-13-3.61882E-13
 -1       742 2.07810E+01-4.64248E+00 3.75894E-02 4.86499E+00-2.39923E-13 3.98908E-14
 -1       743 2.71671E+01 5.55756E+00-1.54148E-01 9.08134E-01 6.43929E-15-6.38526E-14
 -1       744 1.91317E+01-4.32913E+00 8.25614E-02 5.45765E+00 8.09075E-15 4.84911E-13
 -1       745 2.67494E+01-4.24271E+00-4.30459E-04-1.19186E+00 2.30788E-13 9.88098E-15
 -1       746 2.72839E+01 4.85079E+00-1.48052E-01-1.66380E+00 1.25303E-13-2.15002E-14
 -1       747 2.01165E+01 2.07829E+00-2.32749E-03-8.39027E-01-1.35922E-13-2.11056E-13
 -1       748 1.99387E+01 2.54402E+00-1.65587E-03-1.24332E-01-2.52299E-14-2.01671E-13
 -1       749 1.99344E+01 3.88351E-01-1.24676E-04 3.52699E-01 2.09129E-13 1.06899E-14
 -1       750 2.00188E+01 3.05747E-01-9.72289E-06 3.65500E-01 2.07351E-13-5.33484E-14
 -1       751 2.65496E+01-4.20301E+00-5.86780E-02 1.07527E+00 3.22936E-14 1.32918E-13
 -1       752 1.11105E+01 4.17384E-02 8.82949E-02-2.64893E+00 6.61528E-14-2.42865E-13
 -1       753 2.21249E+01-4.64862E+00 1.27041E-02 4.07567E+00 1.45769E-14 1.28726E-13
 -1       754 1.86669E+01-3.57979E+00 7.55161E-02-5.07549E+00 2.61978E-14 6.11863E-14
 -1       755 2.02598E+01 1.61016E+00-8.46316E-04-9.89136E-01-1.43006E-13-1.57993E-13
 -1       756 1.43695E+01-1.30531E+00 6.92418E-02 4.41469E+00-4.93904E-13 8.15285E-14
 -1       757 2.77720E+01-1.14309E+00-6.24768E-02-1.81092E+00-1.07506E-13 2.10689E-13
 -1       758 1.99672E+01 2.47291E+00-1.77053E-03-3.79251E-01-5.11457E-14-1.79292E-13
 -1       759 2.02790E+01 1.31475E+00 8.31852E-04 6.21203E-01 1.40871E-13-1.13300E-13
 -1       760 2.02709E+01 4.66495E-01-4.81143E-05-6.58897E-02-1.00678E-13-1.72604E-13
 -1       761 2.02312E+01 2.82412E-01-1.64427E-05 7.81476E-02-1.11599E-13-1.70132E-13
 -1       762 2.01895E+01 1.70883E-01-1.03090E-05 1.75317E-01-1.10041E-13-2.00807E-13
 -1       763 2.01507E+01 1.11907E-01-4.85487E-06 2.41856E-01-3.42932E-14-1.87983E-13
 -1       764 2.01159E+01 9.17730E-02-1.39850E-06 2.91543E-01-4.45028E-14-1.84418E-13
 -1       765 2.00846E+01 1.00991E-01 1.93810E-06 3.35530E-01-2.58753E-14-1.08090E-13
 -1       766 2.00554E+01 1.32797E-01 5.74870E-06 3.82665E-01-3.62400E-14-9.18721E-14
 -1       767 2.00264E+01 1.82012E-01 1.08655E-05 4.39902E-01-3.98693E-15-8.92122E-14
 -1       768 1.99954E+01 2.44062E-01 1.74706E-05 5.12641E-01-6.50304E-14-1.57598E-13
 -1       769 1.99607E+01 3.13956E-01 2.58843E-05 6.04959E-01-6.33253E-14-1.89176E-13
 -1       770 1.99209E+01 3.85090E-01 3.63686E-05 7.19740E-01-2.82787E-14-1.39923E-13
 -1       771 1.98762E+01 4.47681E-01 4.94579E-05 8.58741E-01-8.75989E-14 1.31751E-15
 -1       772 1.98300E+01 4.86768E-01 6.66470E-05 1.02261E+00 1.53786E-15 1.44256E-13
 -1       773 1.97916E+01 4.79714E-01 8.93556E-05 1.21089E+00-2.32200E-14 1.69189E-13
 -1       774 1.97812E+01 3.93375E-01 1.09089E-04 1.42178E+00 3.71240E-14 1.19445E-13
 -1       775 1.98366E+01 1.81585E-01 8.11866E-06 1.65077E+00 7.86120E-14 1.92062E-13
 -1       776 2.00253E+01-2.14999E-01 7.63323E-05 1.88561E+00 4.23879E-14 2.23315E-13
 -1       777 2.04568E+01-8.57929E-01 1.17933E-03 2.08707E+00 1.28027E-13 1.59556E-13
 -1       778 2.12725E+01-1.76023E+00 2.01905E-03 2.16597E+00 2.63678E-15 9.53521E-14
 -1       779 2.26600E+01-2.84018E+00-8.10421E-04 1.92429E+00-4.04925E-14 7.15094E-14
 -1       780 2.47052E+01-3.69358E+00 1.46125E-02 1.08475E+00-5.09822E-14-7.78086E-14
 -1       781 2.56517E+01-3.43569E+00-2.00296E-02-2.04143E-01 1.62743E-13 1.09680E-13
 -1       782 2.36084E+01-3.21842E+00-3.92417E-03-1.45430E+00 4.06806E-14 3.64746E-13
 -1       783 2.19279E+01-2.23002E+00 1.81102E-03-2.01876E+00 2.30384E-14 4.69458E-13
 -1       784 2.08724E+01-1.23932E+00-2.58519E-04-2.09143E+00-2.07083E-15 2.15324E-13
 -1       785 2.02758E+01-4.79529E-01-1.71975E-04-1.95387E+00-2.68022E-13 1.69336E-13
 -1       786 1.99814E+01 2.05042E-02 1.05942E-04-1.74196E+00-2.63689E-13 1.95662E-13
 -1       787 1.98630E+01 3.11440E-01 1.88854E-04-1.51486E+00 7.40258E-14 3.32712E-13
 -1       788 1.98378E+01 4.54543E-01 1.68682E-04-1.29526E+00-1.08681E-13 2.60649E-13
 -1       789 1.98565E+01 5.02135E-01 1.42464E-04-1.09188E+00-2.12707E-13 3.78154E-13
 -1       790 1.98913E+01 4.93346E-01 1.44297E-04-9.08037E-01 2.71356E-14 3.66066E-13
 -1       791 1.99280E+01 4.55936E-01 8.96522E-05-7.45490E-01 7.07253E-14 2.87645E-13
 -1       792 1.99606E+01 4.08968E-01 2.30532E-04-6.03659E-01-1.07994E-13-1.72705E-13
 -1       793 1.99818E+01 3.64407E-01-1.59787E-04-4.78993E-01-1.54835E-13-5.27165E-13
 -1       794 2.00829E+01 7.48495E-02 3.76580E-06-2.92740E-01 2.63712E-14-3.15912E-14
 -1       795 2.00463E+01 1.43727E-01 1.98547E-05-4.32959E-01 9.45669E-15-2.20926E-14
 -1       796 2.00411E+01 1.94779E-01 3.09517E-05-5.01522E-01-5.58726E-14 1.92391E-14
 -1       797 2.00373E+01 2.52345E-01 4.58787E-05-5.88968E-01 4.89375E-14 4.77967E-14
 -1       798 2.00348E+01 3.10450E-01 6.07426E-05-6.97813E-01 3.85134E-15-6.45650E-14
 -1       799 2.00351E+01 3.60196E-01 7.44721E-05-8.28936E-01-8.74037E-14 7.43757E-14
 -1       800 2.00425E+01 3.88074E-01 8.73225E-05-9.81107E-01-7.29759E-14 6.77255E-14
 -1       801 2.00671E+01 3.73885E-01 9.57225E-05-1.15046E+00-1.32762E-13-3.08216E-14
 -1       802 2.01279E+01 2.88456E-01 9.18405E-05-1.32930E+00-6.40503E-14 3.24947E-14
 -1       803 2.02593E+01 9.25259E-02 5.96753E-05-1.50368E+00-3.10054E-14 1.73975E-13
 -1       804 2.05168E+01-2.60407E-01 4.94940E-05-1.64798E+00-1.31406E-13 1.88189E-13
 -1       805 2.09822E+01-8.11397E-01 8.45693E-05-1.71414E+00-1.38545E-13 1.45029E-13
 -1       806 2.17611E+01-1.55980E+00 9.02712E-04-1.60834E+00-1.54808E-13 1.51197E-13
 -1       807 2.29270E+01-2.36792E+00 6.41781E-05-1.17415E+00-4.25087E-14 4.74724E-14
 -1       808 2.44456E+01-2.83777E+00-3.94078E-04-2.23346E-01 4.87544E-14 5.28167E-14
 -1       809 2.58966E+01-2.29656E+00-3.10628E-02 1.25947E+00 9.93962E-14-1.51392E-13
 -1       810 2.56534E+01-2.47720E+00-2.78328E-02-1.03366E+00-5.30929E-14-5.14011E-13
 -1       811 2.41272E+01-2.75353E+00-1.03692E-02 3.78834E-01-5.53481E-14-3.34863E-13
 -1       812 2.27518E+01-2.27889E+00 1.14669E-03 1.24026E+00-4.85285E-14-7.41870E-14
 -1       813 2.16401E+01-1.43690E+00-3.08336E-04 1.62880E+00 4.53846E-14 2.23758E-13
 -1       814 2.09205E+01-7.19437E-01 1.29533E-04 1.70652E+00 5.54287E-14 7.46064E-15
 -1       815 2.04883E+01-1.97031E-01-7.46924E-05 1.62737E+00 1.26613E-13 1.59263E-13
 -1       816 2.02516E+01 1.33744E-01 2.41480E-05 1.47603E+00-3.62176E-13 1.83420E-13
 -1       817 2.01318E+01 3.16076E-01 7.29520E-05 1.29685E+00-1.89839E-13 3.51182E-13
 -1       818 2.00766E+01 3.96371E-01 9.23417E-05 1.11300E+00-3.01444E-13 4.52062E-13
 -1       819 2.00543E+01 4.12990E-01 9.28743E-05 9.36865E-01-1.80290E-13 9.38218E-14
 -1       820 2.00467E+01 3.94344E-01 9.69789E-05 7.74976E-01 1.72280E-13 2.18588E-13
 -1       821 2.00439E+01 3.60271E-01 4.08476E-05 6.30088E-01 1.85772E-13 1.14262E-13
 -1       822 2.00414E+01 3.24409E-01 5.35234E-05 5.02545E-01 3.18081E-13-3.82896E-13
 -1       823 2.00280E+01 3.13742E-01-1.28924E-04 4.31065E-01 1.31675E-13-5.80900E-14
 -1       824 2.01481E+01 1.91426E+00-3.23757E-04 1.95066E-01 6.81284E-15-1.78784E-13
 -1       825 1.96888E+01-2.98498E+00 2.16447E-02 4.01581E+00-4.76844E-13-2.11584E-14
 -1       826 1.96109E+01 6.30243E-01-7.41963E-05 1.88522E-03 5.17322E-14 5.17809E-14
 -1       827 1.98218E+01 4.79608E-01 2.93250E-04-4.06363E-01 1.60318E-13-2.98189E-13
 -1       828 1.96349E+01 6.13524E-01-9.89827E-05-1.57250E-01 6.15747E-14 6.13158E-13
 -1       829 2.02292E+01 4.41202E-01-9.84557E-05 8.61429E-02 6.41963E-14-7.32474E-14
 -1       830 1.32202E+01-8.55471E-01 7.14737E-02 4.05445E+00 1.14094E-13 3.43923E-13
 -1       831 1.97061E+01 5.61757E-01-1.32095E-05-2.98577E-01 7.95998E-14 1.20562E-13
 -1       832 2.00540E+01 1.03769E-01 1.23376E-05-3.79299E-01 8.13899E-14-2.28294E-14
 -1       833 2.00657E+01 7.91940E-02 7.86614E-06-3.34992E-01 5.22638E-14-3.98843E-14
 -1       834 1.10154E+01 6.46683E-01 8.08239E-02 9.71524E-01-1.91529E-13-3.94847E-13
 -1       835 2.01075E+01 9.71305E-02 5.83975E-07-2.43151E-01-1.20484E-14-4.41995E-14
 -1       836 2.02969E+01 7.54140E-01 1.29259E-04-2.73308E-01-9.39258E-14-1.95355E-13
 -1       837 2.01407E+01 1.55162E-01-6.97868E-07-1.74203E-01-1.87786E-14-9.16603E-14
 -1       838 1.54945E+01-2.23333E+00 6.80216E-02-4.98405E+00-1.18124E-13-1.85279E-13
 -1       839 1.34591E+01-1.42281E+00 8.24159E-02-4.62144E+00 1.22640E-13-3.86649E-13
 -1       840 2.02864E+01 1.18587E+00 9.67412E-05-5.54821E-01-9.58533E-14-2.17615E-13
 -1       841 1.75868E+01-2.64873E+00 5.53584E-02 4.74688E+00-2.05400E-14 3.84715E-13
 -1       842 1.11688E+01 4.79853E-01 7.38125E-02 1.62718E+00 1.54265E-13-3.96468E-13
 -1       843 2.02818E+01 9.55220E-01 6.28587E-05 5.42808E-01 1.38614E-13-1.01224E-13
 -1       844 2.37268E+01-3.95648E+00 8.67386E-03 2.21465E+00-2.33555E-13-4.64151E-13
 -1       845 1.95474E+01-3.77162E+00 3.88856E-02-4.77049E+00-1.79266E-14-3.61264E-13
 -1       846 2.01827E+01 2.62504E-01 1.59170E-06-7.06977E-02 1.65927E-14-9.49012E-14
 -1       847 2.02310E+01 1.60405E+00-7.20623E-06-7.12649E-01-1.29685E-13-2.09860E-13
 -1       848 1.12048E+01 4.73979E-01 7.89886E-02-1.83394E+00-1.42545E-13-1.05801E-13
 -1       849 2.41845E+01-4.35175E+00 1.54585E-02-2.41424E+00 2.09495E-13-1.43205E-13
 -1       850 2.01369E+01 1.95351E+00-1.05039E-04 3.59840E-03-3.56750E-14-1.90896E-13
 -1       851 1.98258E+01 4.72993E-01 1.23954E-04 4.05096E-01 1.35708E-14 7.41514E-14
 -1       852 1.36115E+01 1.91935E-01 3.98344E-02 2.64037E+00-3.91977E-13-2.23348E-13
 -1       853 2.01592E+01 1.87195E+00-7.33429E-04-5.65431E-01-1.00049E-13-2.02611E-13
 -1       854 1.17492E+01 7.92375E-01 5.27541E-02-4.83932E-01-1.99752E-14-3.32267E-13
 -1       855 1.97116E+01 5.56071E-01-5.83114E-05 3.02803E-01 1.06128E-13-4.09907E-13
 -1       856 2.01806E+01 1.79830E+00-3.49648E-04 3.73907E-01 4.50349E-14-1.17449E-13
 -1       857 1.78865E+01-1.75897E+00 2.26253E-02 3.88338E+00-6.29802E-13 1.88487E-13
 -1       858 1.96374E+01 6.10488E-01-4.88029E-05 1.62590E-01 1.53270E-13-1.14973E-13
 -1       859 1.40075E+01-5.53613E-01 4.81090E-02-3.62502E+00 1.52369E-14-1.85546E-13
 -1       860 2.42644E+01-4.27823E+00 5.31794E-02 2.25240E+00-1.16758E-14 1.61347E-14
 -1       861 2.02614E+01 6.48252E-01-4.52800E-04 2.80483E-01 1.10779E-13-1.22665E-13
 -1       862 2.02280E+01 1.60118E+00-2.80158E-04 5.24580E-01 9.46455E-14-8.82578E-14
 -1       863 2.10866E+01-3.00521E+00 2.14740E-02-3.31193E+00 1.05109E-13 9.98520E-14
 -1       864 2.01941E+01-3.47790E+00 1.59466E-02 4.14243E+00-1.74184E-13 1.55824E-13
 -1       865 2.01056E+01 2.04869E+00-7.51616E-04-3.76024E-01-4.98335E-14-1.53923E-13
 -1       866 2.03019E+01 3.01184E-01-1.17552E-05 9.58919E-02-1.02647E-13-1.20348E-13
 -1       867 2.02570E+01 1.92996E-01-8.30956E-06 1.72820E-01-1.18253E-13-7.99044E-14
 -1       868 2.02048E+01 1.40728E-01-3.79158E-06 2.28761E-01-4.29951E-14-1.72305E-13
 -1       869 2.01479E+01 1.31161E-01-1.32674E-06 2.74094E-01-2.37762E-14-1.65013E-13
 -1       870 2.00868E+01 1.54585E-01-8.71787E-07 3.17521E-01-4.71178E-14-1.73647E-13
 -1       871 2.00200E+01 2.03668E-01-7.70024E-07 3.66119E-01-5.05280E-14-2.34372E-13
 -1       872 1.99452E+01 2.72432E-01-5.29349E-07 4.25563E-01-8.43285E-14-2.88411E-13
 -1       873 1.98593E+01 3.55227E-01-4.07225E-07 5.00417E-01-2.08996E-14-1.87468E-13
 -1       874 1.97589E+01 4.45642E-01 8.18131E-07 5.94418E-01 2.61575E-14-1.50786E-13
 -1       875 1.96410E+01 5.35172E-01 3.66572E-06 7.10934E-01 2.63323E-14-1.07583E-13
 -1       876 1.95040E+01 6.11521E-01 1.05583E-05 8.53502E-01 2.71496E-14-3.78622E-14
 -1       877 1.93493E+01 6.56598E-01 2.70409E-05 1.02683E+00-2.83271E-14 4.08854E-14
 -1       878 1.91845E+01 6.43861E-01 6.32897E-05 1.23828E+00 3.40098E-14 1.69499E-14
 -1       879 1.90284E+01 5.35037E-01 1.31363E-04 1.49961E+00 1.02439E-13 3.07459E-14
 -1       880 1.89189E+01 2.76529E-01-2.81969E-04 1.82771E+00 1.29611E-13 4.14139E-14
 -1       881 1.89298E+01-2.10017E-01-9.55438E-04 2.24824E+00 7.93483E-14 1.49825E-13
 -1       882 1.91998E+01-1.04039E+00-3.19552E-03 2.77874E+00 1.30444E-13 2.20472E-13
 -1       883 2.00024E+01-2.20385E+00 1.88046E-02 3.31226E+00-1.51333E-13 2.10014E-13
 -1       884 1.97232E+01 5.43782E-01-1.80880E-04-5.13616E-01-1.30519E-13-5.75421E-13
 -1       885 2.03394E+01 7.64398E-01-7.67588E-06-1.67667E-01-7.92509E-14-1.70413E-13
 -1       886 1.97863E+01-1.63882E+00 3.55721E-03-2.94886E+00-6.18905E-14 2.63243E-13
 -1       887 1.92137E+01-6.25232E-01 3.45969E-04-2.47018E+00-1.19442E-13 9.23555E-14
 -1       888 1.90417E+01 2.31459E-02 3.15525E-04-2.03031E+00-1.53487E-13 7.99570E-14
 -1       889 1.90660E+01 4.01551E-01 3.06061E-04-1.66910E+00-5.92059E-14 3.68161E-13
 -1       890 1.91804E+01 5.93088E-01 1.38772E-04-1.37659E+00-1.57385E-13 2.35505E-13
 -1       891 1.93258E+01 6.63423E-01 5.62160E-05-1.13707E+00-1.22009E-13 1.18196E-13
 -1       892 1.94726E+01 6.59646E-01 1.57552E-04-9.37639E-01-8.89925E-14 1.39101E-13
 -1       893 1.96032E+01 6.16764E-01 4.78416E-04-7.71745E-01-2.07275E-13-1.50868E-13
 -1       894 1.96613E+01 5.84108E-01-4.68670E-05-6.34459E-01-2.74994E-13-6.50574E-13
 -1       895 1.99304E+01 3.94677E-01 1.58371E-04 4.32789E-01-6.45917E-14-1.05373E-13
 -1       896 1.99893E+01 2.27089E-01-1.29437E-06-4.38409E-01 8.98560E-15 2.95380E-14
 -1       897 1.97875E+01 4.50626E-01 2.34874E-05-7.25166E-01-1.20540E-13 2.21491E-14
 -1       898 1.97024E+01 5.12028E-01 3.34537E-05-8.67105E-01-1.08746E-13 5.51593E-14
 -1       899 1.96128E+01 5.41885E-01 4.78325E-05-1.03620E+00-7.57916E-14 1.15577E-13
 -1       900 1.95302E+01 5.14347E-01 7.08516E-05-1.23519E+00-1.15342E-13 1.31980E-14
 -1       901 1.94783E+01 3.92556E-01 1.02203E-04-1.46743E+00-1.01188E-13 6.20111E-14
 -1       902 1.95015E+01 1.26236E-01 1.45887E-04-1.73535E+00-5.86529E-14 3.86317E-14
 -1       903 1.96776E+01-3.47399E-01 6.54761E-04-2.03394E+00-5.09473E-15 2.58421E-14
 -1       904 2.01318E+01-1.09078E+00 2.40392E-03-2.33144E+00-1.64729E-13-1.13206E-13
 -1       905 2.10776E+01-2.14883E+00 6.85903E-04-2.52057E+00-1.05575E-13-1.47964E-13
 -1       906 2.22724E+01-3.30621E+00 1.39090E-02-2.68145E+00-3.70910E-14-1.71853E-13
 -1       907 2.09496E+01-1.97921E+00 1.27973E-02 2.51669E+00-2.27863E-13-6.96457E-14
 -1       908 2.00692E+01-9.73674E-01 1.14059E-03 2.29590E+00 3.07242E-14 3.58657E-13
 -1       909 1.96636E+01-2.64663E-01 5.36459E-04 1.98863E+00-1.02475E-13 7.05636E-13
 -1       910 1.95124E+01 1.78781E-01 7.76179E-05 1.69414E+00-1.54278E-13 1.01030E-12
 -1       911 1.95006E+01 4.26949E-01 3.27342E-05 1.42921E+00-2.86862E-13 8.15807E-13
 -1       912 1.95561E+01 5.40874E-01 4.21514E-05 1.19754E+00-1.75003E-13 5.77231E-13
 -1       913 1.96376E+01 5.69412E-01 4.01667E-05 9.96050E-01 2.70081E-14 3.08553E-13
 -1       914 1.97228E+01 5.48313E-01 2.55490E-05 8.20985E-01 6.80547E-14 2.21360E-13
 -1       915 1.98007E+01 5.03020E-01 5.74485E-05 6.70473E-01 3.54665E-13 3.52704E-14
 -1       916 2.00420E+01 1.68676E-01-2.18030E-06-3.78921E-01 4.71294E-14 1.64763E-14
 -1       917 1.94585E+01 7.02263E-01-1.13387E-04-9.51570E-02-4.95415E-14 1.94779E-13
 -1       918 2.03332E+01 4.83219E-01-4.30246E-05-1.38148E-02-7.26065E-14-1.41176E-13
 -1       919 1.98638E+01 3.75190E-01 8.41857E-06-6.08133E-01 2.49314E-14-4.10075E-14
 -1       920 1.75603E+01-1.76388E+00 2.41913E-02-4.01608E+00 8.36527E-15 6.54858E-16
 -1       921 2.01119E+01 2.02905E+00-4.61741E-04-1.78722E-01-4.01401E-14-1.92880E-13
 -1       922 2.01844E+01 1.26646E-01-1.73726E-06-2.38391E-01-1.83347E-14-8.08592E-14
 -1       923 2.03062E+01 4.74413E-01-9.40322E-05 3.23948E-02 5.59205E-14-7.69677E-14
 -1       924 1.39993E+01 2.18646E-01 3.27421E-02 2.59571E+00 5.19858E-14 9.33992E-14
 -1       925 1.65518E+01-1.14058E+00 1.44059E-02 3.74962E+00 3.50978E-15 2.85343E-13
 -1       926 2.02300E+01 1.82057E-01-9.72446E-06-1.77619E-01-4.33509E-14-7.11335E-14
 -1       927 2.02525E+01 1.46609E+00-3.87443E-05-4.78219E-01-7.89495E-14-1.90260E-13
 -1       928 1.46263E+01-4.36194E-02 2.52030E-02-3.00636E+00 5.84515E-15-3.75595E-13
 -1       929 2.03156E+01 1.06989E+00-1.55148E-04-3.11852E-01-6.01310E-14-1.83400E-13
 -1       930 1.83611E+01-2.30757E+00 3.24285E-02-4.15680E+00-5.28952E-14-4.01589E-13
 -1       931 2.02727E+01 2.91467E-01-1.57644E-05-9.18521E-02 5.04940E-15-3.20789E-14
 -1       932 1.29794E+01 9.82754E-01 2.82465E-02-3.98106E-01-2.90319E-13-3.07099E-13
 -1       933 1.99306E+01 2.97965E-01 6.51880E-07-5.13568E-01-7.30279E-15-5.68247E-14
 -1       934 1.94610E+01 6.99844E-01-1.82791E-05 1.04526E-01 3.69280E-14-1.83812E-13
 -1       935 1.63497E+01-3.63337E-01 1.20683E-02 3.03811E+00-2.18478E-13 3.30209E-14
 -1       936 1.98537E+01 4.57935E-01 7.46625E-05 5.28657E-01 4.71462E-13-1.06910E-13
 -1       937 2.01380E+01 1.11965E-01 7.43553E-06-2.85989E-01 2.10532E-14-6.54455E-14
 -1       938 1.96807E+01 5.65107E-01-1.16467E-04 4.36095E-01 3.11840E-13-2.50031E-13
 -1       939 2.00910E+01 1.28344E-01 4.42870E-06-3.30210E-01 6.70760E-14-2.93963E-14
 -1       940 1.34266E+01 8.60132E-01 2.56704E-02 1.07325E+00 4.11012E-14-3.06583E-13
 -1       941 1.95258E+01 6.62915E-01-3.36598E-05-2.84866E-01-7.78366E-14 6.81429E-13
 -1       942 1.33471E+01 5.57469E-01 3.06338E-02-1.88691E+00 2.86581E-14-2.60778E-13
 -1       943 2.02802E+01 1.44383E+00-2.08040E-05 6.64922E-02-2.93245E-14-1.44232E-13
 -1       944 2.03106E+01 1.02779E+00-3.36143E-04 3.51359E-01 1.15716E-13-5.74978E-14
 -1       945 2.03153E+01 6.97468E-01 2.67004E-04 1.85082E-01 6.99844E-14-8.35741E-14
 -1       946 2.02146E+01 1.66084E+00-9.59824E-05-3.49537E-01-6.18699E-14-1.50398E-13
 -1       947 1.41716E+01 8.95423E-01 1.09640E-02 1.17336E+00-3.51244E-13-3.68243E-13
 -1       948 2.02902E+01 1.37361E+00-1.79931E-04 1.87257E-01 1.32397E-14-1.20658E-13
 -1       949 1.82711E+01-1.76987E+00-3.40918E-03 3.65240E+00-1.09450E-13 1.12974E-13
 -1       950 1.91046E+01 7.11535E-01-2.57176E-05-1.00408E+00-2.80957E-14-1.30334E-13
 -1       951 2.02842E+01 2.05719E-01-4.49151E-06 1.52939E-01-5.61116E-14-7.72769E-14
 -1       952 2.02161E+01 1.67778E-01-2.83580E-07 1.95021E-01-2.99180E-14-1.01603E-13
 -1       953 2.01366E+01 1.74025E-01-8.77493E-07 2.31808E-01-4.42282E-14-1.08787E-13
 -1       954 2.00461E+01 2.14916E-01-1.38866E-06 2.69487E-01-5.94180E-14-9.10002E-14
 -1       955 1.99427E+01 2.82820E-01-5.41394E-06 3.13135E-01-9.45550E-14-8.80871E-14
 -1       956 1.98230E+01 3.71314E-01-1.15974E-05 3.66930E-01 5.68419E-15-9.25013E-14
 -1       957 1.96827E+01 4.73861E-01-2.74925E-05 4.34450E-01 3.47989E-14-4.46588E-14
 -1       958 1.95162E+01 5.83246E-01-4.09619E-05 5.19075E-01 7.63690E-14-4.19038E-14
 -1       959 1.93181E+01 6.89719E-01-5.91877E-05 6.24753E-01 8.27808E-14 3.31563E-14
 -1       960 1.90826E+01 7.80044E-01-7.58869E-05 7.56965E-01 2.04280E-14 2.49220E-14
 -1       961 1.88051E+01 8.35766E-01-8.69451E-05 9.24887E-01 2.44755E-14 4.70595E-14
 -1       962 1.84831E+01 8.30960E-01-4.99257E-05 1.14455E+00 1.10482E-13 2.99420E-14
 -1       963 1.81189E+01 7.28801E-01-6.71904E-05 1.44499E+00 1.09703E-13-1.24520E-14
 -1       964 1.77442E+01 4.77306E-01-7.02202E-04 1.86681E+00 1.80755E-13 5.74804E-14
 -1       965 1.74017E+01-2.14337E-03 1.96171E-02 2.48038E+00 8.97538E-14 1.72958E-13
 -1       966 2.03382E+01 3.00336E-01-1.00022E-05 9.84068E-02-1.24453E-13-9.18725E-14
 -1       967 1.74458E+01-4.76261E-01 9.76775E-03-2.95125E+00-8.88443E-14-7.11525E-14
 -1       968 1.76861E+01 2.02044E-01 7.56241E-04-2.21309E+00-2.71436E-13 4.62019E-14
 -1       969 1.80277E+01 5.91048E-01 8.98096E-04-1.68724E+00 2.24621E-14-1.52569E-13
 -1       970 1.83784E+01 7.80083E-01 1.42975E-04-1.32006E+00-1.55601E-13-2.46715E-13
 -1       971 1.87025E+01 8.45342E-01 3.84972E-05-1.05588E+00-1.60617E-13 3.73687E-14
 -1       972 1.89863E+01 8.34401E-01 2.12322E-05-8.54792E-01-1.91908E-13-9.15843E-14
 -1       973 1.92254E+01 7.77331E-01-1.04339E-03-6.94407E-01-1.87876E-13-1.88151E-13
 -1       974 1.93060E+01 6.75639E-01-1.37079E-05-8.26120E-01-6.48338E-14 1.12654E-14
 -1       975 1.94845E+01 6.01846E-01 5.40389E-06-6.83303E-01-1.20169E-13 1.53830E-13
 -1       976 1.88868E+01 6.81523E-01-4.88336E-05-1.22916E+00-7.72634E-14-1.62008E-13
 -1       977 1.86703E+01 5.45671E-01-1.16685E-04-1.52075E+00-4.63103E-16-1.55926E-13
 -1       978 1.84945E+01 2.46540E-01-2.08744E-04-1.90630E+00-4.84181E-14-1.70699E-13
 -1       979 1.84327E+01-2.93012E-01 9.48611E-04-2.42019E+00-1.35712E-13-1.05834E-13
 -1       980 1.86622E+01-1.17904E+00 7.63453E-03-3.08249E+00-2.23239E-14-2.74769E-13
 -1       981 1.84575E+01-2.05687E-01-9.32521E-04 2.33723E+00-4.75334E-13 4.36779E-13
 -1       982 1.85372E+01 3.03099E-01-4.26397E-04 1.84683E+00-1.74051E-13 7.64890E-13
 -1       983 1.87204E+01 5.81190E-01-1.73936E-04 1.47545E+00 9.60288E-14 3.51822E-13
 -1       984 1.89338E+01 7.08512E-01-7.91046E-05 1.19190E+00-1.91685E-13 1.26069E-14
 -1       985 1.91458E+01 7.38279E-01-4.83193E-05 9.69202E-01-2.74835E-14 6.10146E-14
 -1       986 1.93390E+01 7.10520E-01 5.03617E-07 7.89629E-01 1.17308E-13 1.72233E-13
 -1       987 1.95044E+01 6.52945E-01-4.62955E-05 6.41618E-01 3.72635E-13-1.83568E-14
 -1       988 1.99820E+01 2.44574E-01-1.70001E-05-3.43887E-01 2.99888E-14-3.99694E-14
 -1       989 2.03719E+01 4.67545E-01-2.17974E-05 2.32859E-02-6.58340E-14-9.63896E-14
 -1       990 2.03050E+01 1.23485E+00-1.67131E-04 2.88355E-01 6.28484E-14-6.32922E-14
 -1       991 1.96385E+01 5.10073E-01-2.33935E-06-5.68014E-01-7.54460E-14 1.07815E-13
 -1       992 1.95330E+01 6.55227E-01-1.91866E-05 2.90771E-01 1.65487E-13-2.08040E-13
 -1       993 2.03562E+01 4.72237E-01-7.73826E-05-1.16687E-02 1.06800E-14 8.38119E-16
 -1       994 2.02805E+01 1.44593E+00 2.51503E-04-6.44950E-02-2.75532E-14-1.68830E-13
 -1       995 1.95980E+01 6.09748E-01 3.32655E-04 5.31107E-01 3.92576E-13-2.15390E-13
 -1       996 1.63479E+01 4.71718E-02 2.08613E-02 2.69338E+00-1.13486E-14 9.58578E-14
 -1       997 2.02745E+01 1.99017E-01-1.11295E-05-1.65987E-01-2.91470E-14-6.32480E-15
 -1       998 1.66914E+01-7.25367E-01 1.19173E-02-3.28514E+00 5.00945E-14-2.36589E-13
 -1       999 2.03240E+01 2.99368E-01 1.93156E-05-1.01566E-01-1.01970E-15-6.23247E-17
 -1      1000 2.03751E+01 7.29128E-01 3.33327E-06-8.04720E-02-5.26121E-14-1.03276E-13
 -1      1001 1.49496E+01 7.99854E-01 3.55708E-03-1.58849E+00-9.16321E-14-4.96911E-13
 -1      1002 1.85648E+01-8.52480E-01 6.28435E-03 2.85823E+00-2.22612E-13 1.63264E-13
 -1      1003 1.93792E+01 7.31758E-01-2.60644E-04-3.75971E-01-1.22985E-13 4.35107E-13
 -1      1004 1.92545E+01 7.95298E-01-2.92193E-04 8.72884E-03 1.85535E-13-3.34850E-14
 -1      1005 2.00681E+01 1.86052E-01 9.95118E-06-2.96762E-01 2.46324E-14-4.60244E-15
 -1      1006 1.92155E+01 7.98816E-01-3.75574E-04-4.82651E-01-3.98540E-13 1.24098E-13
 -1      1007 2.02139E+01 1.54437E-01-2.54575E-05-2.14420E-01 2.77890E-14-2.11169E-14
 -1      1008 2.03663E+01 1.05294E+00-1.77602E-05 4.14429E-04-4.13285E-14-1.94391E-13
 -1      1009 2.03571E+01 6.89076E-01-2.40932E-04 9.78254E-02 4.19350E-14-2.34033E-15
 -1      1010 1.37885E+01 1.03208E+00 6.58853E-03-2.94444E-01-2.05902E-14-3.52467E-13
 -1      1011 1.98839E+01 3.22536E-01-3.74748E-05-4.02226E-01 1.00369E-13-2.50363E-14
 -1      1012 1.54631E+01 6.81545E-01-2.06321E-03 1.76469E+00 1.40048E-13 2.53241E-14
 -1      1013 1.59562E+01 5.30406E-01 2.48543E-03 1.98787E+00-3.16072E-13-1.34257E-13
 -1      1014 1.56350E+01 2.94777E-01 1.23675E-02-2.35495E+00 1.38121E-13-2.26541E-13
 -1      1015 2.03485E+01 1.00734E+00-2.10861E-04-1.79341E-01-4.55061E-14-1.03407E-13
 -1      1016 2.03453E+01 9.36076E-01 6.35203E-04 1.91376E-01 7.63686E-14 6.00988E-15
 -1      1017 1.49859E+01 1.13372E+00 5.17076E-03-2.56138E-01 3.61548E-14-5.19109E-13
 -1      1018 1.92916E+01 7.78617E-01 6.62108E-04-1.89804E-01 1.67479E-13 2.41499E-13
 -1      1019 1.97706E+01 4.13440E-01-4.36329E-05-4.75875E-01-1.53256E-14 4.05066E-14
 -1      1020 2.02955E+01 1.30771E+00 4.64201E-04-2.59236E-01-4.61445E-14-1.19524E-13
 -1      1021 2.02468E+01 1.56794E+00 3.86162E-04-1.93513E-01-4.97416E-14-1.82301E-13
 -1      1022 2.03678E+01 1.02303E+00 3.41434E-04 7.00306E-02 1.19924E-14-1.18610E-13
 -1      1023 2.01943E+01 1.92941E-01 4.45519E-06 1.38425E-01-2.21860E-14-3.28779E-14
 -1      1024 2.00932E+01 2.18105E-01 8.61771E-07 1.63184E-01-3.08668E-14-3.26054E-14
 -1      1025 1.99757E+01 2.77600E-01-1.80614E-06 1.90122E-01-9.37615E-14-2.06385E-14
 -1      1026 1.98393E+01 3.63661E-01-1.24962E-05 2.21989E-01 6.30194E-15 1.09270E-14
 -1      1027 1.96786E+01 4.70227E-01-2.54090E-05 2.61633E-01-5.48843E-15-5.74066E-14
 -1      1028 1.94883E+01 5.89340E-01-9.36286E-05 3.10992E-01 8.48305E-14-1.26980E-13
 -1      1029 1.92597E+01 7.14481E-01-1.66185E-04 3.73527E-01 8.34446E-14-9.18162E-14
 -1      1030 1.89841E+01 8.34834E-01-2.03233E-04 4.52194E-01 7.48577E-14-6.94520E-14
 -1      1031 1.86490E+01 9.38360E-01-2.86485E-04 5.53227E-01 5.06754E-14 3.00247E-14
 -1      1032 1.82385E+01 1.00914E+00-4.20970E-04 6.87522E-01 2.66754E-14-1.87475E-14
 -1      1033 1.77304E+01 1.02649E+00-6.36855E-04 8.74375E-01 1.08974E-13-1.20413E-13
 -1      1034 1.71097E+01 9.66652E-01-1.02207E-03 1.15296E+00 2.37230E-13-4.72172E-14
 -1      1035 2.03588E+01 1.00012E+00 4.71786E-04 1.33448E-01 4.31869E-14-5.77636E-14
 -1      1036 2.01450E+01 1.53396E-01-7.11582E-06-2.55662E-01 2.44952E-14-4.91793E-14
 -1      1037 2.02793E+01 2.11396E-01-3.87881E-06 1.12072E-01-8.64448E-14-3.53917E-15
 -1      1038 1.85420E+01 8.91690E-01-2.23335E-04-8.58595E-01 3.15346E-14-5.82434E-14
 -1      1039 1.74911E+01 9.92431E-01 1.28502E-04-1.06659E+00-2.15322E-13-3.13623E-13
 -1      1040 1.80370E+01 1.02994E+00-1.54698E-04-8.22312E-01-1.00712E-13-4.91874E-13
 -1      1041 1.84813E+01 9.99063E-01-4.50477E-05-6.52369E-01 5.69462E-14-4.62649E-13
 -1      1042 1.88417E+01 9.29216E-01-3.34900E-05-5.23560E-01-1.85291E-14-5.36791E-14
 -1      1043 1.88721E+01 8.42172E-01-1.40521E-04-6.90375E-01 4.50728E-14 6.65878E-14
 -1      1044 1.81516E+01 8.77958E-01-3.93285E-04-1.08711E+00-7.14706E-14-1.07990E-13
 -1      1045 1.91503E+01 7.54214E-01-8.88416E-05-5.61979E-01-9.29099E-15 6.90586E-14
 -1      1046 1.76960E+01 7.64756E-01-3.70385E-04-1.41106E+00-7.32243E-14-9.12314E-14
 -1      1047 1.71692E+01 4.95301E-01-1.23145E-03-1.88017E+00-6.15842E-14-8.72489E-14
 -1      1048 1.68417E+01 3.71939E-02 4.64929E-03-2.49456E+00 9.17865E-14-2.00768E-13
 -1      1049 1.93987E+01 7.18033E-01-1.79337E-04 3.65672E-01 2.86562E-13-6.90289E-13
 -1      1050 1.77836E+01 7.90932E-01-6.23635E-04 1.36057E+00 6.02532E-14-4.25545E-13
 -1      1051 1.82263E+01 9.00286E-01-2.02449E-04 1.05488E+00 1.65915E-15 1.06463E-13
 -1      1052 1.86031E+01 9.13755E-01-2.80529E-04 8.30719E-01-1.48313E-13-5.38916E-17
 -1      1053 1.89201E+01 8.71871E-01-3.57831E-04 6.65458E-01 5.29766E-14-3.21035E-13
 -1      1054 1.91847E+01 7.98334E-01-4.22702E-04 5.35012E-01 4.02865E-13-6.26932E-13
 -1      1055 1.72309E+01 1.24875E-01-1.68906E-04 2.32016E+00-6.13495E-13-2.49322E-14
 -1      1056 2.03896E+01 4.28384E-01 1.72389E-05 3.69122E-02-7.99570E-14-1.62403E-13
 -1      1057 2.03462E+01 2.84611E-01-8.36865E-05 7.97041E-02-8.35596E-14-5.16729E-14
 -1      1058 1.74695E+01 5.49337E-01-6.67171E-04 1.77483E+00-3.83483E-13-1.95988E-13
 -1      1059 2.03846E+01 4.41403E-01-2.48211E-04-3.44678E-02 1.36874E-14-5.40014E-14
 -1      1060 1.93846E+01 6.46041E-01 1.38682E-06-4.61886E-01-7.69188E-14 9.45842E-14
 -1      1061 1.93024E+01 7.70504E-01-7.31545E-05 1.95979E-01 8.74842E-14-8.85649E-14
 -1      1062 2.03669E+01 1.02357E+00-3.06272E-04-7.23086E-02-5.66236E-14-1.57811E-13
 -1      1063 2.04004E+01 6.59046E-01 5.80049E-05-2.10786E-02-5.19301E-14-1.90823E-13
 -1      1064 1.65488E+01 9.24019E-01 4.16338E-03-1.32306E+00-1.36027E-13-3.47510E-13
 -1      1065 2.03444E+01 2.90142E-01-2.67046E-05-9.27456E-02-3.54076E-15-5.49733E-14
 -1      1066 2.03899E+01 6.88014E-01-3.76188E-05 4.40823E-02 2.54393E-14-5.11546E-14
 -1      1067 2.02833E+01 2.09260E-01 5.45924E-05-1.34779E-01 1.73673E-14-7.01953E-14
 -1      1068 2.00090E+01 2.48390E-01-4.03096E-05-2.33068E-01 6.58142E-14-6.05644E-14
 -1      1069 1.98879E+01 3.26094E-01 1.50034E-04-2.72894E-01 7.95120E-14-2.71479E-14
 -1      1070 2.04061E+01 7.40624E-01 3.94936E-04-1.24014E-02-6.12535E-14-1.54232E-13
 -1      1071 1.52199E+01 1.07338E+00 2.07733E-02 7.92582E-01 1.41628E-13-2.56451E-13
 -1      1072 1.89633E+01 9.10348E-01 8.62361E-04-2.39901E-01-2.22822E-13-1.34675E-13
 -1      1073 1.52169E+01 9.44482E-01-9.55635E-03-1.19266E+00 1.47897E-13-5.00628E-13
 -1      1074 1.95787E+01 5.33688E-01-6.01897E-05-3.82441E-01-9.74972E-14 1.26481E-13
 -1      1075 1.90473E+01 8.80045E-01 1.24603E-03 1.39000E-01 2.13725E-13 3.14035E-14
 -1      1076 1.58042E+01 1.08192E+00 1.20724E-04 7.99323E-01-2.08669E-13-6.31086E-13
 -1      1077 2.04095E+01 7.37580E-01 4.92248E-05 1.27449E-02-2.49431E-14-9.94529E-14
 -1      1078 1.91294E+01 8.46288E-01-1.20698E-04-2.16256E-01-6.52115E-14 9.69420E-14
 -1      1079 2.00304E+01 2.60336E-01-1.06856E-05 6.88851E-02-6.58453E-14 3.18780E-14
 -1      1080 1.98915E+01 3.36912E-01-1.61252E-05 8.04247E-02-2.65013E-14 8.15347E-14
 -1      1081 1.97287E+01 4.38192E-01-4.63462E-05 9.41016E-02-2.06952E-14 6.58488E-14
 -1      1082 1.95343E+01 5.60025E-01 4.97765E-04 1.12709E-01-2.13629E-14 9.40802E-14
 -1      1083 1.92992E+01 6.92481E-01 2.96861E-04 1.33884E-01 6.72463E-14-4.40578E-14
 -1      1084 1.90172E+01 8.26527E-01 1.37269E-04 1.58994E-01 5.87192E-14-1.00130E-13
 -1      1085 1.86726E+01 9.54889E-01 1.81826E-04 1.91756E-01 8.11645E-14-7.90662E-14
 -1      1086 1.82454E+01 1.06613E+00 1.97360E-04 2.34552E-01 4.62188E-14-6.51893E-14
 -1      1087 1.77050E+01 1.14842E+00 5.70195E-05 2.92940E-01 6.32249E-14-4.72548E-14
 -1      1088 1.70052E+01 1.18676E+00-2.04341E-03 3.78388E-01 1.33015E-13-1.42470E-13
 -1      1089 1.74228E+01 1.17452E+00 5.59925E-04-3.95238E-01-2.02727E-13-2.55497E-13
 -1      1090 2.01144E+01 1.97665E-01-6.08540E-05-1.99447E-01 3.29325E-14 6.83607E-15
 -1      1091 1.90869E+01 8.52978E-01 3.61081E-04 3.43993E-01 3.73625E-13-6.58782E-13
 -1      1092 1.73621E+01 1.08567E+00 2.99343E-04-7.40205E-01 5.12649E-15-1.28158E-13
 -1      1093 1.79961E+01 1.13935E+00 1.50240E-04-3.02242E-01-7.35228E-14-3.32846E-13
 -1      1094 1.84861E+01 1.04956E+00 1.19397E-03-2.41350E-01 2.34924E-13-3.75259E-13
 -1      1095 1.84306E+01 9.97132E-01-2.48129E-04-4.41714E-01 1.25052E-13-8.22621E-14
 -1      1096 1.65875E+01 1.03520E+00 3.66537E-03-1.00836E+00 5.59648E-14-2.89355E-13
 -1      1097 1.88116E+01 8.95102E-01-1.83197E-04-3.52019E-01 8.47856E-14-4.92182E-14
 -1      1098 1.60441E+01 7.98141E-01 9.46457E-03-1.56971E+00 2.25294E-14-3.00494E-13
 -1      1099 1.84919E+01 1.02494E+00-8.79273E-05 4.32139E-01 2.84044E-13-5.21996E-13
 -1      1100 1.80583E+01 1.07974E+00 2.10584E-03 5.53145E-01-4.24232E-14-6.72782E-14
 -1      1101 1.74928E+01 1.09066E+00-7.18019E-05 7.21469E-01-1.69346E-13-3.05707E-13
 -1      1102 1.88298E+01 9.37364E-01 1.10654E-03 3.81976E-01 2.77937E-13-6.69648E-13
 -1      1103 1.65493E+01 8.46909E-01-6.28320E-04 1.41369E+00-2.05880E-13-4.59398E-13
 -1      1104 2.03877E+01 3.75592E-01 1.49347E-04 2.38949E-02 1.36013E-14-9.11109E-14
 -1      1105 2.02065E+01 1.81799E-01 4.50835E-05-1.68170E-01 1.22473E-14-4.21857E-14
 -1      1106 2.03302E+01 2.61777E-01 6.61307E-05 3.76984E-02 1.06866E-15-1.46738E-14
 -1      1107 1.64848E+01 1.19467E+00-1.43015E-03-3.64280E-01-1.83120E-13-4.26011E-13
 -1      1108 1.91227E+01 7.74059E-01-1.73977E-04-2.84859E-01-4.13806E-14 4.38420E-14
 -1      1109 2.02497E+01 2.11843E-01-3.87750E-05 4.89770E-02-5.29663E-14 1.40773E-14
 -1      1110 2.04111E+01 5.23693E-01-3.11516E-04 6.54641E-03-4.36114E-14-1.52324E-13
 -1      1111 1.79586E+01 1.06547E+00-3.37249E-04-5.65125E-01-4.55606E-14-4.50422E-14
 -1      1112 2.03914E+01 3.96483E-01 1.55933E-04-3.12368E-02 2.88303E-14-4.88113E-14
 -1      1113 1.97444E+01 4.24513E-01 6.70270E-05-3.20851E-01-3.86103E-14 7.98216E-14
 -1      1114 2.01494E+01 2.15563E-01-2.49777E-05 5.90337E-02-4.42242E-14 3.63829E-14
 -1      1115 1.57473E+01 1.19308E+00 1.59163E-03 4.50732E-01 2.85362E-13-3.15247E-13
 -1      1116 1.93789E+01 6.45967E-01-2.49005E-04-2.32633E-01-9.77655E-14 6.48989E-14
 -1      1117 2.03402E+01 2.71235E-01-1.63152E-05-5.99295E-02 1.54465E-14-1.05504E-13
 -1      1118 1.87665E+01 9.73184E-01-1.47868E-03 1.41243E-01 2.07997E-13-3.14645E-13
 -1      1119 1.99270E+01 3.11246E-01-1.90339E-04-1.36333E-01 1.81826E-14 1.19353E-13
 -1      1120 1.70627E+01 1.00677E+00 4.26636E-03 1.00934E+00-7.40679E-14-5.32104E-13
 -1      1121 2.00581E+01 2.41320E-01-5.14322E-05-1.16404E-01-5.36152E-15 9.99370E-15
 -1      1122 2.00921E+01 2.35904E-01 3.53204E-04-3.98883E-02-2.33375E-14 4.47988E-14
 -1      1123 1.98087E+01 3.88804E-01 1.93656E-04-5.65301E-02 1.12581E-15 1.16296E-13
 -1      1124 1.96262E+01 5.00672E-01-3.38039E-04-6.77385E-02-1.00579E-14 8.12771E-14
 -1      1125 1.76832E+01 1.16333E+00-6.08357E-03 1.83762E-01-2.17848E-13-3.87505E-13
 -1      1126 2.02948E+01 2.31961E-01-7.57374E-05-2.71063E-02-4.14745E-14-9.27133E-14
 -1      1127 2.02024E+01 2.09783E-01-1.24473E-04-3.27617E-02-1.12362E-16-5.73619E-14
 -1      1128 1.67247E+01 1.19425E+00-1.12586E-03 3.32965E-01-1.27354E-13-5.19519E-13
 -1      1129 1.99770E+01 2.89106E-01 1.72666E-05-2.90589E-02-5.93689E-14 1.08466E-13
 -1      1130 2.79357E+01 9.07767E+00 2.32300E+00-6.69468E+00-2.39808E-14 8.86430E-13
 -1      1131 2.05317E+01 6.22233E+00 2.09319E-01-3.90447E+00-1.38500E-14 1.67553E-13
 -1      1132 1.94274E+01 5.85084E+00 7.53818E-02-2.88949E+00-9.49241E-15-1.52980E-13
 -1      1133 1.90257E+01 5.72587E+00 6.04728E-02-2.23654E+00-6.54338E-15-3.08025E-13
 -1      1134 1.88451E+01 5.67085E+00 5.77355E-02-1.70273E+00-5.16774E-15-3.95037E-13
 -1      1135 1.87560E+01 5.64355E+00 5.57961E-02-1.23498E+00-3.54664E-15-4.26972E-13
 -1      1136 1.87101E+01 5.62924E+00 5.40073E-02-8.04749E-01-3.00931E-15-4.32382E-13
 -1      1137 1.86878E+01 5.62217E+00 5.27174E-02-3.92992E-01-1.62435E-15-4.25950E-13
 -1      1138 1.86815E+01 5.62015E+00 5.23069E-02 8.48762E-03-4.14165E-16-4.17303E-13
 -1      1139 1.86888E+01 5.62250E+00 5.28269E-02 4.10378E-01 1.70914E-15-4.16613E-13
 -1      1140 1.87122E+01 5.62992E+00 5.42342E-02 8.23465E-01 1.53740E-15-4.13849E-13
 -1      1141 1.87598E+01 5.64488E+00 5.64586E-02 1.25625E+00 3.29424E-15-3.95249E-13
 -1      1142 1.88506E+01 5.67278E+00 5.86625E-02 1.72849E+00 5.85816E-15-3.49666E-13
 -1      1143 1.90312E+01 5.72754E+00 6.05579E-02 2.26991E+00 7.63278E-15-2.76211E-13
 -1      1144 1.94237E+01 5.84788E+00 6.92183E-02 2.93002E+00 1.08802E-14-1.17593E-13
 -1      1145 2.04379E+01 6.17726E+00 1.52919E-01 3.87903E+00 1.29341E-14 2.00236E-13
 -1      1146 2.51913E+01 7.98601E+00 1.42857E+00 5.84390E+00 2.95874E-14 9.00113E-13
 -1      1147 2.87805E+01 3.61320E+00 1.27011E+00-4.21451E+00-1.00558E-13 1.34215E-12
 -1      1148 2.01979E+01-1.77615E-01-6.15996E-01-1.10183E-01-2.75335E-14 1.11955E-12
 -1      1149 1.88022E+01-9.63966E-02-2.36326E-01 6.23043E-02-6.61277E-15 8.06069E-13
 -1      1150 1.84670E+01-4.82160E-02-5.97153E-02 4.02877E-02-1.32650E-14 5.84775E-13
 -1      1151 1.84115E+01-2.48417E-02-1.53976E-02 2.65394E-02-8.58211E-15 4.46899E-13
 -1      1152 1.84944E+01-1.34347E-02-5.31776E-03 1.87581E-02-7.03821E-15 3.65388E-13
 -1      1153 1.86449E+01-7.19590E-03-2.04375E-03 1.37687E-02 5.74085E-15 2.91602E-13
 -1      1154 1.88253E+01-3.70060E-03-3.17243E-04 1.03157E-02-2.93353E-15 2.57261E-13
 -1      1155 1.90154E+01-1.82764E-03 5.84574E-04 7.78553E-03-6.40086E-15 1.48878E-13
 -1      1156 1.92053E+01-9.98339E-04 7.80424E-04 5.88736E-03-1.36433E-15 2.79074E-14
 -1      1157 1.93921E+01-8.90547E-04 3.75737E-04 4.48318E-03 6.51854E-15-3.54734E-14
 -1      1158 1.95780E+01-1.31202E-03-5.26491E-04 3.51126E-03-4.84526E-15 3.71608E-14
 -1      1159 1.97690E+01-2.13910E-03-1.84655E-03 2.95464E-03-8.77624E-15-4.12973E-14
 -1      1160 1.99741E+01-3.28113E-03-3.52449E-03 2.82945E-03 2.29191E-14-4.38703E-14
 -1      1161 2.02048E+01-4.65314E-03-5.50086E-03 3.18098E-03 9.36837E-15 7.81658E-14
 -1      1162 2.04750E+01-6.14697E-03-7.68447E-03 4.08124E-03-3.27547E-14-1.50409E-14
 -1      1163 2.07996E+01-7.59366E-03-9.90088E-03 5.62184E-03-1.00117E-14-2.27301E-14
 -1      1164 2.11938E+01-8.71141E-03-1.18102E-02 7.89262E-03 3.22702E-15 2.63938E-14
 -1      1165 2.16702E+01-9.03629E-03-1.27819E-02 1.09295E-02-1.13373E-14-6.14786E-15
 -1      1166 2.22349E+01-7.84387E-03-1.17273E-02 1.46034E-02 4.31599E-15-1.21153E-14
 -1      1167 2.28795E+01-4.09769E-03-6.93956E-03 1.84112E-02 5.23697E-15-2.46751E-13
 -1      1168 2.35701E+01 3.47795E-03 3.87840E-03 2.11400E-02-2.02463E-14-1.92034E-14
 -1      1169 2.42319E+01 1.59925E-02 2.29971E-02 2.04480E-02-1.48037E-15 4.05127E-14
 -1      1170 2.47342E+01 3.33726E-02 5.07971E-02 1.26527E-02 7.17352E-15-1.39763E-13
 -1      1171 2.48878E+01 5.24476E-02 8.22715E-02-6.53122E-03-4.03410E-15-1.56047E-13
 -1      1172 2.44777E+01 6.49548E-02 1.03106E-01-3.90329E-02 5.82780E-15-2.18943E-13
 -1      1173 2.33596E+01 5.75915E-02 9.09372E-02-7.92483E-02 4.13402E-14-8.94423E-14
 -1      1174 2.16134E+01 1.96270E-02 2.84776E-02-1.09787E-01 3.12996E-14-6.21725E-14
 -1      1175 1.96682E+01-4.36854E-02-7.35368E-02-1.06285E-01-1.97268E-14-8.71664E-14
 -1      1176 1.82298E+01-1.01182E-01-1.64502E-01-5.63287E-02 1.68459E-14-2.87693E-13
 -1      1177 1.79301E+01-1.14131E-01-1.84779E-01 2.22479E-02-4.36040E-14-7.11479E-14
 -1      1178 1.89099E+01-7.28249E-02-1.19814E-01 8.91946E-02 1.17588E-14-8.14487E-14
 -1      1179 2.07180E+01-7.09206E-03-1.48150E-02 1.13654E-01-4.06401E-14-2.35728E-13
 -1      1180 2.26261E+01 4.45730E-02 6.93931E-02 9.56047E-02-3.55493E-14-4.90746E-13
 -1      1181 2.40538E+01 6.49691E-02 1.03236E-01 5.68852E-02 2.96846E-14-5.37730E-13
 -1      1182 2.47715E+01 5.96166E-02 9.42527E-02 1.95033E-02 1.40270E-14-3.53457E-13
 -1      1183 2.48430E+01 4.21068E-02 6.51548E-02-5.78140E-03-2.55173E-14-4.26451E-13
 -1      1184 2.44680E+01 2.32696E-02 3.45699E-02-1.82464E-02-2.47417E-14-3.98487E-13
 -1      1185 2.38547E+01 8.37142E-03 1.13123E-02-2.16496E-02 1.55524E-14-2.99111E-13
 -1      1186 2.31619E+01-1.40914E-03-3.09504E-03-2.01334E-02 8.42110E-14 4.29899E-14
 -1      1187 2.24885E+01-6.83743E-03-1.04189E-02-1.66480E-02-8.10608E-14 7.59722E-14
 -1      1188 2.18857E+01-9.21232E-03-1.31054E-02-1.28573E-02-6.59088E-14-4.94426E-13
 -1      1189 2.13732E+01-9.72353E-03-1.31921E-02-9.52049E-03-2.95536E-14-6.34820E-13
 -1      1190 2.09526E+01-9.26591E-03-1.20959E-02-6.87262E-03-1.79566E-14-4.36262E-13
 -1      1191 2.06169E+01-8.45240E-03-1.07414E-02-4.87284E-03-1.83002E-15-3.85776E-13
 -1      1192 2.03571E+01-7.67617E-03-9.73969E-03-3.32022E-03 2.19407E-14 1.49687E-13
 -1      1193 2.01657E+01-7.14963E-03-9.42391E-03-1.86000E-03-2.61995E-14 4.59519E-13
 -1      1194 2.00400E+01-6.73629E-03-9.37514E-03 1.23489E-04 8.51597E-15 5.29894E-13
 -1      1195 1.99845E+01-6.75409E-03-6.41243E-03 3.80660E-03-5.64618E-14 3.63068E-13
 -1      1196 1.99902E+01 3.46257E-03 7.66930E-03 3.35272E-03 3.72903E-14 3.02717E-13
 -1      1197 2.77613E+01 5.25306E-01 3.76822E-01 1.96551E+00-1.22055E-14 1.49347E-12
 -1      1198 2.00554E+01-6.62129E-02-5.73377E-01 1.29575E-01 1.39402E-14 1.16801E-12
 -1      1199 1.88768E+01-4.06373E-02-1.93189E-01 1.95558E-02 2.84842E-15 8.50533E-13
 -1      1200 1.84960E+01-2.15135E-02-5.06087E-02 1.65944E-03 1.16873E-14 6.11507E-13
 -1      1201 1.84243E+01-1.25893E-02-1.35504E-02-3.79060E-03 8.92320E-15 4.78409E-13
 -1      1202 1.85009E+01-7.70909E-03-4.94403E-03-5.13259E-03-7.18804E-15 3.19175E-13
 -1      1203 1.86484E+01-4.80454E-03-2.41726E-03-5.18020E-03-2.61331E-15 2.24855E-13
 -1      1204 1.88272E+01-3.06829E-03-1.11631E-03-4.72854E-03-7.07426E-15 1.93600E-13
 -1      1205 1.90164E+01-2.11035E-03-3.88938E-04-4.02771E-03-2.94879E-15 4.22214E-14
 -1      1206 1.92059E+01-1.71643E-03-2.02996E-04-3.19313E-03 1.51016E-14-8.57214E-14
 -1      1207 1.93925E+01-1.75879E-03-5.25766E-04-2.29726E-03 1.79774E-14-1.73866E-13
 -1      1208 1.95783E+01-2.15699E-03-1.30312E-03-1.39482E-03-2.29491E-14-7.78804E-14
 -1      1209 1.97690E+01-2.85551E-03-2.48686E-03-5.35661E-04-4.96004E-15-3.06404E-14
 -1      1210 1.99736E+01-3.80619E-03-4.03734E-03 2.24001E-04 3.10957E-15-1.38256E-13
 -1      1211 2.02032E+01-4.94866E-03-5.90754E-03 8.08754E-04 2.47687E-14-4.12877E-13
 -1      1212 2.04710E+01-6.18344E-03-8.01136E-03 1.10796E-03-9.01059E-15-4.49614E-13
 -1      1213 2.07914E+01-7.33248E-03-1.01699E-02 9.56406E-04-3.66775E-15-3.25579E-13
 -1      1214 2.11780E+01-8.08352E-03-1.20263E-02 1.14854E-04 9.23393E-15-2.40501E-13
 -1      1215 2.16419E+01-7.92001E-03-1.29185E-02-1.73892E-03 1.18758E-14-3.56524E-13
 -1      1216 2.21866E+01-6.05623E-03-1.17197E-02-4.98240E-03-1.57665E-15-1.84958E-13
 -1      1217 2.28009E+01-1.44085E-03-6.70778E-03-9.92864E-03-4.16193E-15-1.52166E-13
 -1      1218 2.34481E+01 7.03096E-03 4.33822E-03-1.65238E-02 9.76796E-15-1.72719E-13
 -1      1219 2.40525E+01 1.98647E-02 2.34078E-02-2.37671E-02-7.26394E-15-1.95611E-13
 -1      1220 2.44869E+01 3.56711E-02 5.03363E-02-2.88981E-02 1.67128E-14-2.94399E-13
 -1      1221 2.45738E+01 4.94771E-02 7.95317E-02-2.68606E-02-3.03373E-14 4.62894E-14
 -1      1222 2.41205E+01 5.21692E-02 9.70260E-02-1.14326E-02 2.72230E-14 3.03674E-13
 -1      1223 2.30106E+01 3.42491E-02 8.30009E-02 2.02286E-02-3.57505E-14 3.61058E-13
 -1      1224 2.13418E+01-4.85008E-03 2.51238E-02 6.07886E-02 4.51158E-15 2.65080E-13
 -1      1225 1.95241E+01-4.97054E-02-6.30653E-02 9.05155E-02-2.27734E-14 1.60857E-13
 -1      1226 1.81976E+01-7.45975E-02-1.38297E-01 8.74006E-02-1.69543E-14 2.39600E-13
 -1      1227 1.79226E+01-6.50943E-02-1.55017E-01 4.61440E-02-3.26995E-15 2.62682E-13
 -1      1228 1.88219E+01-3.12526E-02-1.04994E-01-1.31101E-02 3.46303E-14 1.45814E-13
 -1      1229 2.04969E+01 4.34407E-03-2.34057E-02-6.01851E-02-2.43941E-14 4.29323E-13
 -1      1230 2.22957E+01 2.60207E-02 4.44590E-02-7.72850E-02 6.75198E-15 4.98449E-13
 -1      1231 2.36817E+01 3.16701E-02 7.53261E-02-6.74715E-02-5.93870E-14 5.16712E-13
 -1      1232 2.44229E+01 2.71358E-02 7.28453E-02-4.45022E-02-2.92474E-14 3.32633E-13
 -1      1233 2.45568E+01 1.87800E-02 5.32826E-02-2.10994E-02 6.70275E-14-3.90462E-13
 -1      1234 2.42549E+01 1.06063E-02 3.07991E-02-3.63283E-03 3.52717E-14-6.06582E-13
 -1      1235 2.37079E+01 4.30754E-03 1.27677E-02 6.80810E-03 3.57843E-14-8.22988E-13
 -1      1236 2.30669E+01 1.25886E-04 1.02412E-03 1.16495E-02 2.54645E-14-6.51999E-13
 -1      1237 2.24305E+01-2.30071E-03-5.38671E-03 1.28885E-02-1.17916E-14-2.28310E-13
 -1      1238 2.18524E+01-3.49152E-03-8.15146E-03 1.21802E-02-4.13605E-14 3.16020E-13
 -1      1239 2.13554E+01-3.92265E-03-8.78434E-03 1.06430E-02-4.70896E-14 1.66091E-13
 -1      1240 2.09440E+01-3.97528E-03-8.39659E-03 8.93972E-03 3.77212E-14 2.97070E-13
 -1      1241 2.06136E+01-3.94076E-03-7.76121E-03 7.41326E-03 5.49432E-14 2.66870E-13
 -1      1242 2.03566E+01-4.02344E-03-7.43304E-03 6.18314E-03 3.23271E-14 2.04524E-15
 -1      1243 2.01664E+01-4.35395E-03-7.76351E-03 5.16695E-03 5.98346E-14-6.83819E-13
 -1      1244 2.00412E+01-4.65790E-03-8.27731E-03 3.81704E-03-2.77813E-14-7.86953E-13
 -1      1245 1.99848E+01-2.94497E-03-5.35394E-03 6.26277E-04 3.69278E-14-3.16346E-13
 -1      1246 1.99916E+01 2.95571E-03 7.73739E-03-3.01962E-03 6.03489E-15-3.05608E-13
 -1      1247 2.00026E+01-8.86816E-03 7.12623E-03-3.02030E-03-2.69694E-13-1.10519E-13
 -1      1248 1.99951E+01-1.31689E-02-6.21667E-03-3.13716E-03-3.50711E-13-1.64545E-13
 -1      1249 1.99950E+01 4.61109E-02-7.79840E-03 1.54826E-03 3.02794E-13 4.89176E-14
 -1      1250 1.99971E+01 1.61933E-01-4.58373E-03 3.97750E-03 1.13421E-14 9.02375E-14
 -1      1251 1.99999E+01 3.07363E-01-4.25781E-04 4.82377E-03-4.36173E-13-1.21652E-13
 -1      1252 2.00024E+01 4.53410E-01 3.29693E-03 4.51985E-03-1.02921E-12-1.00753E-13
 -1      1253 2.00045E+01 5.77031E-01 6.13736E-03 3.50173E-03-3.99867E-13 1.46117E-13
 -1      1254 2.00058E+01 6.60175E-01 7.96950E-03 1.88448E-03 6.55389E-14-5.40122E-14
 -1      1255 2.00063E+01 6.89291E-01 8.60369E-03-2.90509E-06-2.65669E-13 9.88554E-15
 -1      1256 2.00059E+01 6.60112E-01 7.99199E-03-1.89613E-03 3.34474E-14 7.18176E-14
 -1      1257 2.00045E+01 5.76754E-01 6.15841E-03-3.52086E-03 7.41622E-13-1.48819E-13
 -1      1258 2.00025E+01 4.52656E-01 3.28939E-03-4.61012E-03-1.94221E-13 2.07674E-15
 -1      1259 1.99999E+01 3.06182E-01-4.39989E-04-4.84930E-03-1.49525E-13 9.57613E-14
 -1      1260 1.99971E+01 1.60339E-01-4.67140E-03-4.04850E-03-1.45355E-13-8.43270E-14
 -1      1261 1.99951E+01 4.28375E-02-8.30698E-03-1.89776E-03-4.27070E-13-3.98839E-14
 -1      1262 1.99940E+01-1.06651E-02-5.38728E-03 5.67241E-03-4.00691E-13-3.04971E-13
 -1      1263 2.00029E+01-1.01825E-02 7.15543E-03 3.58188E-03-3.50788E-13 6.74388E-14
 -1      1264-1.03474E+00-2.38750E+01-3.68416E+00-2.06891E+00-2.14440E-13-4.77916E-14
 -1      1265-1.72837E+00-1.61950E+01-3.12736E+00-4.16128E+00-1.53988E-13-5.86753E-14
 -1      1266-3.82938E-01-4.26374E+00-2.06230E+00-1.04078E+00 4.27214E-13 4.36429E-13
 -1      1267 6.90080E+00 6.22744E+00-6.25751E-01 6.63537E+00 1.36824E-12 1.26144E-12
 -1      1268 2.16061E+01 1.09623E+01 1.07720E+00 1.47610E+01 9.92095E-13 1.23479E-12
 -1      1269 4.16929E+01 8.97734E+00 2.60343E+00 1.77060E+01 3.47167E-13 7.88036E-13
 -1      1270 5.97144E+01 4.08701E+00 3.81368E+00 1.25157E+01 7.60780E-14-1.34670E-13
 -1      1271 6.66908E+01 1.62830E+00 4.20262E+00 6.37945E-01-3.65402E-14-6.15424E-13
 -1      1272 6.06114E+01 3.79901E+00 3.85777E+00-1.15369E+01 1.93082E-13-7.58948E-13
 -1      1273 4.42886E+01 8.41048E+00 2.78861E+00-1.77940E+01 4.84834E-13-9.42135E-13
 -1      1274 2.49873E+01 1.10857E+01 1.33332E+00-1.59587E+01 7.82929E-13-1.08358E-12
 -1      1275 9.51726E+00 8.07502E+00-2.11416E-01-8.63690E+00 9.94982E-13-9.42579E-13
 -1      1276 7.37235E-01-1.24249E+00-1.73544E+00-5.24821E-01 1.26388E-12-7.21201E-13
 -1      1277-1.80276E+00-1.34797E+01-2.93588E+00 3.77680E+00 1.36824E-12-5.35683E-13
 -1      1278-1.25648E+00-2.28335E+01-3.64071E+00 2.80226E+00 3.96294E-13-1.58512E-13
 -1      1279-9.46517E-01-2.46198E+01-3.74371E+00-1.24720E+00-9.13519E-13-1.77879E-13
 -1      1280-1.63850E+00-1.82647E+01-3.27749E+00-4.08035E+00-1.52234E-12-4.27963E-13
 -1      1281-1.05765E+00-6.71023E+00-2.31129E+00-2.22970E+00-1.48592E-12-7.05436E-13
 -1      1282 4.97237E+00 4.59188E+00-8.58176E-01 4.83708E+00-7.03881E-13-4.82725E-13
 -1      1283 1.91873E+01 1.04585E+01 7.88033E-01 1.35610E+01-4.01013E-13-4.43423E-13
 -1      1284 3.88658E+01 9.51136E+00 2.39168E+00 1.81001E+01-1.84408E-13-2.57128E-13
 -1      1285 5.74010E+01 4.68983E+00 3.60397E+00 1.38095E+01-3.51941E-14 5.37348E-14
 -1      1286 6.68363E+01 1.58999E+00 4.22072E+00 2.14634E+00 3.72966E-14 6.12677E-13
 -1      1287 6.17471E+01 3.48024E+00 3.92214E+00-1.05082E+01-1.60261E-13 6.28386E-13
 -1      1288 4.57154E+01 8.12197E+00 2.92105E+00-1.76516E+01-4.55080E-13 1.00631E-12
 -1      1289 2.56091E+01 1.10093E+01 1.38567E+00-1.60163E+01-6.87450E-13 9.68559E-13
 -1      1290 8.98830E+00 7.64118E+00-3.00322E-01-8.17111E+00-7.02549E-13 7.80709E-13
 -1      1291 1.27378E-01-2.83318E+00-1.91892E+00 3.64405E-01-3.01537E-13 2.32703E-13
 -1      1292-1.77976E+00-1.55405E+01-3.06649E+00 4.00450E+00 4.65405E-13-2.15383E-14
 -1      1293-1.03420E+00-2.39101E+01-3.69094E+00 2.15363E+00 7.44016E-13-1.44652E-13
 -1      1294 2.22417E+01 1.83692E+00-7.25422E-01-2.79020E+00-3.69704E-14 7.34524E-13
 -1      1295 2.03457E+01 4.68778E+00-4.85468E-02-3.30753E+00-1.14922E-13 1.71876E-14
 -1      1296 2.08486E+01 4.80708E+00-1.13473E-01-4.16087E+00-1.43524E-13 1.84894E-13
 -1      1297 1.95265E+01 4.99217E+00-1.95028E-02-2.65556E+00-1.19099E-13-2.20751E-13
 -1      1298 1.98204E+01 5.08790E+00 2.43102E-04-3.04638E+00-1.32325E-13-1.16962E-13
 -1      1299 2.05140E+01 3.95118E+00-2.58914E-02-3.07502E+00-2.00819E-13 1.70142E-14
 -1      1300 1.91856E+01 5.08452E+00-3.55361E-03-2.07118E+00-9.33819E-14-3.47736E-13
 -1      1301 1.93316E+01 5.13881E+00 1.06492E-02-2.36437E+00-1.07275E-13-2.89015E-13
 -1      1302 1.97506E+01 4.36543E+00-2.42198E-02-2.48974E+00-1.86670E-13-1.87850E-13
 -1      1303 1.90159E+01 5.13267E+00 3.36248E-03-1.56534E+00-7.47015E-14-4.08864E-13
 -1      1304 1.90908E+01 5.16181E+00 1.26400E-02-1.81543E+00-8.34020E-14-3.80578E-13
 -1      1305 1.93956E+01 4.55649E+00-1.94675E-02-1.93126E+00-1.43395E-13-2.93123E-13
 -1      1306 1.89266E+01 5.16364E+00 6.66524E-03-1.11725E+00-5.33905E-14-4.32375E-13
 -1      1307 1.89671E+01 5.17940E+00 1.28201E-02-1.33887E+00-6.46332E-14-4.19390E-13
 -1      1308 1.92140E+01 4.66363E+00-1.59730E-02-1.44475E+00-1.16908E-13-3.36522E-13
 -1      1309 1.88778E+01 5.18444E+00 8.24915E-03-6.93793E-01-3.98887E-14-4.36196E-13
 -1      1310 1.88996E+01 5.19296E+00 1.21149E-02-9.04061E-01-4.48166E-14-4.39022E-13
 -1      1311 1.91148E+01 4.73036E+00-1.38537E-02-1.00386E+00-8.07637E-14-3.65069E-13
 -1      1312 1.88553E+01 5.19693E+00 9.33373E-03-2.89117E-01-1.65001E-14-4.27656E-13
 -1      1313 1.88646E+01 5.20059E+00 1.11338E-02-4.91213E-01-2.24070E-14-4.27904E-13
 -1      1314 1.90613E+01 4.77036E+00-1.28143E-02-5.88435E-01-5.10034E-14-3.54640E-13
 -1      1315 1.88518E+01 5.20201E+00 1.02705E-02 1.08198E-01 5.88613E-15-4.22598E-13
 -1      1316 1.88515E+01 5.20188E+00 1.01984E-02-9.14261E-02-3.00877E-15-4.25295E-13
 -1      1317 1.90382E+01 4.78889E+00-1.23768E-02-1.88967E-01-1.55578E-14-3.54248E-13
 -1      1318 1.88663E+01 5.20021E+00 1.12215E-02 5.08577E-01 2.78302E-14-4.20955E-13
 -1      1319 1.88562E+01 5.19628E+00 9.26708E-03 3.06059E-01 2.24138E-14-4.22131E-13
 -1      1320 1.90390E+01 4.78824E+00-1.23971E-02 2.05638E-01 2.17573E-14-3.51448E-13
 -1      1321 1.89028E+01 5.19177E+00 1.21686E-02 9.22917E-01 4.80215E-14-4.17047E-13
 -1      1322 1.88802E+01 5.18310E+00 8.17826E-03 7.11691E-01 3.71090E-14-4.17574E-13
 -1      1323 1.90638E+01 4.76827E+00-1.28870E-02 6.05815E-01 5.09983E-14-3.49075E-13
 -1      1324 1.89714E+01 5.17765E+00 1.29803E-02 1.35636E+00 5.75815E-14-3.88922E-13
 -1      1325 1.89299E+01 5.16144E+00 6.50333E-03 1.13335E+00 5.08938E-14-4.08062E-13
 -1      1326 1.91190E+01 4.72685E+00-1.39150E-02 1.01907E+00 8.44466E-14-3.38122E-13
 -1      1327 1.90993E+01 5.15771E+00 1.29006E-02 1.84134E+00 9.24434E-14-3.39645E-13
 -1      1328 1.90223E+01 5.12812E+00 3.21484E-03 1.58840E+00 7.53356E-14-3.66108E-13
 -1      1329 1.92208E+01 4.65715E+00-1.60695E-02 1.46230E+00 1.12381E-13-3.03191E-13
 -1      1330 1.93417E+01 5.13276E+00 1.02126E-02 2.39870E+00 1.18232E-13-2.58574E-13
 -1      1331 1.91949E+01 5.07662E+00-4.28887E-03 2.10135E+00 1.04999E-13-3.10345E-13
 -1      1332 1.94082E+01 4.54320E+00-1.99215E-02 1.95821E+00 1.63143E-13-2.55105E-13
 -1      1333 1.98456E+01 5.09699E+00 6.01919E-03 3.08468E+00 1.43024E-13-8.60353E-14
 -1      1334 1.95376E+01 4.98316E+00-2.04438E-02 2.69750E+00 1.21868E-13-1.91916E-13
 -1      1335 1.97708E+01 4.34575E+00-2.45208E-02 2.52825E+00 1.99122E-13-1.51761E-13
 -1      1336 2.10846E+01 4.90337E+00 8.17619E-03 4.05365E+00 1.22541E-13 2.59792E-13
 -1      1337 2.03201E+01 4.73133E+00-4.78933E-02 3.41687E+00 1.21500E-13 4.44228E-14
 -1      1338 2.05521E+01 3.91425E+00-2.24171E-02 3.17848E+00 2.16355E-13 4.51306E-14
 -1      1339 2.71734E+01 3.20259E+00 9.28048E-01 4.58016E+00 6.30884E-14 9.58622E-13
 -1      1340 2.19977E+01 3.51982E+00-1.81848E-01 3.88443E+00 6.48648E-14 4.72650E-13
 -1      1341 2.20912E+01 2.56039E+00-3.26666E-02 3.45637E+00 2.00083E-13 3.66762E-13
 -1      1342 2.14000E+01 3.59631E-01-7.63122E-01 1.18438E+00 1.14297E-13 9.17544E-13
 -1      1343 2.19744E+01 1.31447E-01-4.00702E-01-1.28594E+00-1.05110E-13 7.64250E-13
 -1      1344 2.06514E+01 3.06671E-01-1.64766E-01-8.06081E-01-1.00642E-13 6.39822E-13
 -1      1345 2.00539E+01 1.53472E-01-7.34932E-02-4.02530E-01-7.65915E-14 5.82861E-13
 -1      1346 1.95835E+01 9.12599E-02-1.49090E-02-3.30354E-01-7.83956E-14 4.67806E-13
 -1      1347 2.09497E+01 3.69139E-01-1.04214E-01-1.27444E+00-1.76921E-13 3.26090E-13
 -1      1348 1.92264E+01 6.46194E-02 3.05551E-03-1.35530E-01-6.17822E-14 4.32990E-13
 -1      1349 1.90718E+01 4.14618E-02 1.32446E-02-1.17647E-01-6.35585E-14 3.42896E-13
 -1      1350 1.98994E+01 1.33993E-01-3.51984E-02-5.04384E-01-1.27523E-13 2.49615E-13
 -1      1351 1.89122E+01 3.17272E-02 1.32887E-02-2.76693E-02-3.99793E-14 2.98817E-13
 -1      1352 1.88931E+01 1.96764E-02 1.11257E-02-1.81840E-02-5.24528E-14 2.27793E-13
 -1      1353 1.94233E+01 5.57499E-02-8.58388E-03-1.69571E-01-1.06798E-13 1.64533E-13
 -1      1354 1.88387E+01 1.63561E-02 8.85208E-03 2.62041E-02-3.28073E-14 2.16960E-13
 -1      1355 1.88824E+01 9.56191E-03 6.52874E-03 3.10256E-02-2.50347E-14 1.84630E-13
 -1      1356 1.92169E+01 2.48415E-02-3.62210E-03-9.30530E-03-6.47911E-14 8.01980E-14
 -1      1357 1.88856E+01 8.43288E-03 4.76964E-03 5.34217E-02-2.55737E-14 1.74307E-13
 -1      1358 1.89590E+01 4.26582E-03 3.76743E-03 5.56331E-02-1.61634E-14 1.49028E-13
 -1      1359 1.91648E+01 1.09726E-02-2.39798E-03 7.17708E-02-5.88874E-14 6.00743E-14
 -1      1360 1.89938E+01 4.08024E-03 2.56493E-03 6.63329E-02-7.75595E-15 1.24930E-13
 -1      1361 1.90802E+01 1.45642E-03 2.37694E-03 6.70918E-02-1.73599E-14 9.92331E-14
 -1      1362 1.91993E+01 4.02204E-03-1.58934E-03 1.12400E-01-4.46080E-14 2.22882E-14
 -1      1363 1.91322E+01 1.75558E-03 1.47987E-03 7.15679E-02-2.06979E-14 9.36560E-14
 -1      1364 1.92229E+01 1.37776E-04 1.65309E-03 7.16029E-02-3.85112E-14 2.40242E-14
 -1      1365 1.92820E+01 5.62763E-04-9.41277E-04 1.31343E-01-4.96935E-14-3.72356E-14
 -1      1366 1.92844E+01 7.24077E-04 9.19640E-04 7.31740E-02-3.58005E-14 2.60738E-14
 -1      1367 1.93757E+01-1.90055E-04 1.24053E-03 7.29884E-02-4.69821E-14-1.42083E-14
 -1      1368 1.93913E+01-8.16822E-04-5.34378E-04 1.39153E-01-5.98307E-14-3.50280E-14
 -1      1369 1.94429E+01 5.91620E-04 6.04837E-04 7.38758E-02-2.01776E-14-2.56175E-14
 -1      1370 1.95342E+01 1.90845E-04 9.92456E-04 7.38400E-02 8.74913E-15-3.33722E-14
 -1      1371 1.95160E+01-8.01645E-04-3.76450E-04 1.42514E-01-5.65808E-14-4.92009E-14
 -1      1372 1.96061E+01 1.12936E-03 4.14538E-04 7.56467E-02 3.23378E-14-6.63213E-14
 -1      1373 1.96992E+01 1.10852E-03 8.44865E-04 7.60480E-02-5.66314E-15-5.01352E-14
 -1      1374 1.96513E+01 2.34845E-04-4.30312E-04 1.46053E-01 8.71482E-16-7.60321E-14
 -1      1375 1.97769E+01 2.19631E-03 2.88696E-04 8.00009E-02-4.61530E-14-3.65448E-14
 -1      1376 1.98752E+01 2.44960E-03 7.61373E-04 8.10737E-02-3.73888E-14-8.94142E-14
 -1      1377 1.97972E+01 2.07276E-03-6.54300E-04 1.53195E-01-1.92020E-14-1.14085E-13
 -1      1378 1.99611E+01 3.69720E-03 1.88075E-04 8.81489E-02 1.60626E-14-9.35317E-14
 -1      1379 2.00696E+01 4.12624E-03 7.12994E-04 9.00896E-02 2.71460E-14-4.83676E-14
 -1      1380 1.99570E+01 4.57072E-03-1.01443E-03 1.66606E-01-2.18250E-14-9.73641E-14
 -1      1381 2.01674E+01 5.55082E-03 7.93620E-05 1.01059E-01 4.07835E-14-5.51304E-14
 -1      1382 2.02921E+01 6.04543E-03 6.69852E-04 1.04029E-01-2.89189E-15-1.96655E-14
 -1      1383 2.01367E+01 7.61458E-03-1.48266E-03 1.88400E-01 2.51513E-14-1.08304E-13
 -1      1384 2.04063E+01 7.65599E-03-7.06317E-05 1.19431E-01-6.02836E-14 9.04615E-15
 -1      1385 2.05540E+01 8.07099E-03 5.96788E-04 1.23543E-01-4.35553E-14-4.59567E-14
 -1      1386 2.03441E+01 1.10641E-02-2.03030E-03 2.20165E-01-2.07774E-14-8.43286E-14
 -1      1387 2.06893E+01 9.84500E-03-2.96186E-04 1.43557E-01-5.13868E-15-4.77179E-14
 -1      1388 2.08673E+01 9.96916E-03 4.51907E-04 1.48832E-01-2.83367E-15-5.03530E-14
 -1      1389 2.05881E+01 1.46798E-02-2.61823E-03 2.62781E-01-5.00958E-14-7.69332E-14
 -1      1390 2.10282E+01 1.18141E-02-6.28027E-04 1.73017E-01 1.13152E-14-8.01776E-14
 -1      1391 2.12428E+01 1.13292E-02 1.91160E-04 1.79309E-01 2.53291E-15-5.80378E-14
 -1      1392 2.08779E+01 1.80122E-02-3.18256E-03 3.15973E-01 1.42208E-14-1.09754E-13
 -1      1393 2.14325E+01 1.30215E-02-1.07754E-03 2.06136E-01-7.43112E-15-5.91393E-14
 -1      1394 2.16878E+01 1.14546E-02-2.14161E-04 2.12992E-01-1.18067E-14-9.08171E-14
 -1      1395 2.12211E+01 2.02355E-02-3.61275E-03 3.77449E-01-1.29100E-14-1.85561E-13
 -1      1396 2.19069E+01 1.25509E-02-1.60101E-03 2.39125E-01-8.27702E-15-7.05391E-14
 -1      1397 2.22016E+01 9.23828E-03-7.36446E-04 2.45561E-01-4.16315E-14-1.50845E-13
 -1      1398 2.16219E+01 1.99192E-02-3.71920E-03 4.41516E-01-3.69197E-14-1.52909E-13
 -1      1399 2.24455E+01 8.97086E-03-2.03463E-03 2.64864E-01 1.07130E-15-2.04559E-13
 -1      1400 2.27684E+01 3.08693E-03-1.22028E-03 2.69061E-01-2.61429E-14-1.81081E-13
 -1      1401 2.20770E+01 1.47800E-02-3.19073E-03 4.97047E-01-6.62343E-14-1.37045E-13
 -1      1402 2.30246E+01 3.01267E-04-2.00807E-03 2.71536E-01 4.62332E-14-1.56999E-13
 -1      1403 2.33487E+01-8.92739E-03-1.30041E-03 2.70502E-01 6.97912E-14-5.43836E-14
 -1      1404 2.25707E+01 1.58698E-03-1.55641E-03 5.25029E-01 4.44800E-14-2.19752E-13
 -1      1405 2.35926E+01-1.56405E-02-8.98198E-04 2.41861E-01-2.29456E-14-6.15064E-14
 -1      1406 2.38683E+01-2.83297E-02-3.82216E-04 2.31311E-01-3.66560E-14-1.06356E-13
 -1      1407 2.30683E+01-2.33386E-02 1.79242E-03 4.96679E-01 1.97338E-14-1.41248E-13
 -1      1408 2.40611E+01-3.99898E-02 2.03879E-03 1.54790E-01-1.65666E-16-9.64541E-14
 -1      1409 2.42127E+01-5.43838E-02 2.12949E-03 1.29825E-01-1.66785E-14-1.04862E-13
 -1      1410 2.35100E+01-6.22175E-02 7.40219E-03 3.74767E-01-3.36293E-14-1.82458E-14
 -1      1411 2.43018E+01-7.01144E-02 7.07169E-03-7.04893E-03-4.67629E-14-5.23003E-14
 -1      1412 2.42361E+01-8.09061E-02 6.20067E-03-4.94702E-02-7.14489E-14-8.56728E-14
 -1      1413 2.38073E+01-1.11428E-01 1.52125E-02 1.23197E-01-2.49340E-14-5.61660E-15
 -1      1414 2.41647E+01-9.55667E-02 1.29671E-02-2.40757E-01-2.27648E-14-1.12710E-13
 -1      1415 2.38011E+01-9.32848E-02 9.99541E-03-2.96656E-01 1.59647E-14-9.16697E-14
 -1      1416 2.38520E+01-1.55224E-01 2.34974E-02-2.68809E-01-3.44794E-14 1.29057E-14
 -1      1417 2.35317E+01-9.68632E-02 1.57692E-02-4.99951E-01 4.39674E-14-7.42878E-14
 -1      1418 2.28597E+01-7.12380E-02 9.73908E-03-5.52766E-01 7.14645E-14-2.47580E-14
 -1      1419 2.35456E+01-1.62780E-01 2.76428E-02-7.47431E-01 1.54876E-14 1.13264E-13
 -1      1420 2.24127E+01-5.29429E-02 1.07819E-02-6.83035E-01 5.54253E-14-8.91578E-14
 -1      1421 2.15527E+01-2.35926E-03 1.68911E-03-7.03669E-01-2.93645E-15-5.45120E-14
 -1      1422 2.28609E+01-1.00067E-01 2.06591E-02-1.16170E+00 3.80937E-14 3.95170E-15
 -1      1423 2.10403E+01 3.71120E-02-3.54755E-03-6.63766E-01-2.79447E-14 1.77636E-15
 -1      1424 2.02553E+01 9.51766E-02-1.30599E-02-6.26040E-01-4.16611E-14-1.00149E-13
 -1      1425 2.19189E+01 3.95397E-02-1.34396E-03-1.28653E+00-4.16893E-14-3.54057E-14
 -1      1426 1.98696E+01 1.34090E-01-2.02473E-02-3.80361E-01-3.04930E-14-6.67869E-14
 -1      1427 1.94671E+01 1.67449E-01-2.55386E-02-2.87851E-01 3.46459E-14 2.73566E-15
 -1      1428 2.10214E+01 2.02826E-01-3.16131E-02-9.47510E-01-6.07413E-14 5.99069E-14
 -1      1429 1.93860E+01 1.76427E-01-2.73591E-02 7.84444E-02-8.14626E-15-8.20897E-14
 -1      1430 1.95434E+01 1.63038E-01-2.52460E-02 1.83414E-01-7.76428E-14-5.04562E-14
 -1      1431 2.05503E+01 2.96470E-01-5.05951E-02-1.97252E-01-3.19675E-14 1.69526E-14
 -1      1432 1.98072E+01 1.34627E-01-1.97009E-02 5.01116E-01 1.66291E-14 7.26502E-15
 -1      1433 2.04532E+01 8.36134E-02-1.15133E-02 5.66473E-01 6.11629E-14 3.42920E-14
 -1      1434 2.07351E+01 2.58870E-01-4.29098E-02 6.44575E-01-4.21503E-14 8.80320E-14
 -1      1435 2.09336E+01 4.06272E-02-4.50039E-03 7.01258E-01-6.21024E-14-3.28002E-14
 -1      1436 2.17973E+01-1.67220E-02 5.26581E-03 7.04851E-01-9.53591E-14-1.16664E-13
 -1      1437 2.14828E+01 1.15399E-01-1.49930E-02 1.19302E+00-6.74946E-14 2.06432E-14
 -1      1438 2.22927E+01-4.58479E-02 7.23737E-03 6.40927E-01-9.64359E-14-5.85643E-15
 -1      1439 2.30725E+01-8.35118E-02 1.48237E-02 5.98627E-01-8.18191E-14-1.66436E-13
 -1      1440 2.24493E+01-4.49108E-02 1.26460E-02 1.26555E+00-8.52573E-14 2.49724E-13
 -1      1441 2.34284E+01-8.88565E-02 1.07292E-02 4.15597E-01 5.30999E-15-2.12996E-13
 -1      1442 2.39349E+01-1.00615E-01 1.49513E-02 3.58097E-01 9.34001E-14-1.79516E-13
 -1      1443 2.32743E+01-1.44799E-01 2.63549E-02 9.52661E-01-6.19539E-14 3.27127E-13
 -1      1444 2.40923E+01-8.94603E-02 8.16373E-03 1.53330E-01-2.41248E-14-2.46362E-13
 -1      1445 2.42832E+01-8.31584E-02 9.80406E-03 1.03675E-01-4.30116E-14-3.08896E-13
 -1      1446 2.37529E+01-1.65475E-01 2.62858E-02 4.78015E-01-1.81608E-14 3.03555E-14
 -1      1447 2.42588E+01-6.69523E-02 3.85337E-03-6.02594E-02 1.73351E-14-3.07344E-13
 -1      1448 2.41916E+01-5.32285E-02 4.09608E-03-9.29864E-02-2.89074E-14-3.18219E-13
 -1      1449 2.38546E+01-1.33395E-01 1.91013E-02 3.47808E-02-2.08132E-14-1.74497E-13
 -1      1450 2.40374E+01-3.94362E-02 5.61778E-04-1.95805E-01-2.92518E-14-3.07359E-13
 -1      1451 2.38051E+01-2.55459E-02 1.87094E-04-2.12261E-01-3.52296E-14-3.09842E-13
 -1      1452 2.36552E+01-8.37003E-02 1.06985E-02-2.81545E-01-4.12361E-14-2.10481E-13
 -1      1453 2.35777E+01-1.66583E-02-1.01286E-03-2.60284E-01 4.44445E-14-1.79624E-13
 -1      1454 2.32663E+01-5.74648E-03-1.65124E-03-2.64973E-01 5.27059E-14-1.13735E-13
 -1      1455 2.32643E+01-3.90847E-02 3.99586E-03-4.57945E-01-1.85615E-15-1.43770E-13
 -1      1456 2.30114E+01-1.34829E-03-1.28628E-03-2.74209E-01 1.03830E-13-1.00113E-13
 -1      1457 2.26824E+01 6.05350E-03-2.05610E-03-2.71840E-01 7.60211E-14-3.94788E-14
 -1      1458 2.27816E+01-7.82099E-03-3.46306E-04-5.23004E-01 1.28357E-13-8.67483E-14
 -1      1459 2.24310E+01 7.32895E-03-9.07120E-04-2.58046E-01-6.52904E-14 3.04669E-14
 -1      1460 2.21212E+01 1.18153E-02-1.74405E-03-2.52183E-01-2.21330E-13-2.16528E-13
 -1      1461 2.22804E+01 1.04032E-02-2.70591E-03-5.15170E-01 7.19406E-15-4.43881E-14
 -1      1462 2.18913E+01 1.12885E-02-3.53206E-04-2.27177E-01-1.79682E-13-2.65066E-13
 -1      1463 2.16189E+01 1.37183E-02-1.20026E-03-2.20092E-01-9.07557E-14-3.96801E-13
 -1      1464 2.18067E+01 1.90057E-02-3.71376E-03-4.67261E-01-2.60782E-13-1.44211E-13
 -1      1465 2.14189E+01 1.23500E-02 1.32305E-04-1.91424E-01 2.77131E-14-3.40164E-13
 -1      1466 2.11898E+01 1.34871E-02-6.72603E-04-1.84379E-01 4.04954E-14-3.06893E-13
 -1      1467 2.13848E+01 2.15964E-02-3.91843E-03-4.02147E-01-3.44412E-14 1.19244E-14
 -1      1468 2.10220E+01 1.18859E-02 4.66333E-04-1.56211E-01-5.63078E-14-1.43452E-13
 -1      1469 2.08355E+01 1.23085E-02-2.60765E-04-1.49780E-01-3.59047E-14-2.03497E-13
 -1      1470 2.10245E+01 2.09751E-02-3.70886E-03-3.33599E-01 1.55871E-14 1.56055E-13
 -1      1471 2.06990E+01 1.08358E-02 6.34384E-04-1.23913E-01 1.23779E-13-3.18176E-13
 -1      1472 2.05517E+01 1.09490E-02-7.13698E-06-1.18232E-01 1.54402E-13-5.84198E-14
 -1      1473 2.07266E+01 1.90522E-02-3.34029E-03-2.68608E-01 8.43717E-14 9.81613E-14
 -1      1474 2.04440E+01 9.82211E-03 6.18825E-04-9.49123E-02 2.23109E-13-4.51679E-16
 -1      1475 2.03321E+01 9.89522E-03 4.64305E-05-8.98315E-02 1.59734E-13 3.74019E-13
 -1      1476 2.04873E+01 1.70718E-02-2.98214E-03-2.09559E-01 3.43523E-13 2.43590E-13
 -1      1477 2.02506E+01 9.25694E-03 3.67076E-04-6.83130E-02 5.78756E-14 2.36882E-13
 -1      1478 2.01716E+01 9.40514E-03-1.26439E-04-6.34751E-02-5.93384E-15 2.49540E-13
 -1      1479 2.03017E+01 1.58758E-02-2.73860E-03-1.55862E-01 1.79928E-13 2.32270E-13
 -1      1480 2.01140E+01 9.25957E-03-1.24323E-04-4.26630E-02 4.19606E-14 2.57881E-13
 -1      1481 2.00671E+01 9.30143E-03-2.68661E-04-3.75870E-02 3.64802E-15 2.75752E-13
 -1      1482 2.01649E+01 1.59061E-02-2.56833E-03-1.05241E-01 5.69258E-14-4.10936E-14
 -1      1483 2.00305E+01 1.03686E-02-1.60774E-04-1.69103E-02-5.65794E-14 3.22220E-13
 -1      1484 2.00153E+01 8.02459E-03 9.25235E-04-1.14882E-02-1.13771E-14 3.47322E-13
 -1      1485 2.00719E+01 1.67730E-02-2.20781E-03-5.61306E-02-4.84259E-15 1.06898E-13
 -1      1486 1.99961E+01-3.84276E-04 2.56292E-03 4.47510E-03-2.97531E-13 1.99954E-13
 -1      1487 2.00139E+01 8.25517E-03-2.28806E-04-8.89963E-03-2.20981E-13 2.36247E-14
 -1      1488 2.02316E+01 7.54949E-02-1.52065E-01 4.84270E-01 9.84490E-14 7.11316E-13
 -1      1489 2.15024E+01 2.16020E-01-2.29246E-01 7.21215E-01 8.77076E-14 8.57522E-13
 -1      1490 2.17043E+01 8.81529E-01-8.53752E-02 2.06502E+00 1.66707E-13 5.38125E-13
 -1      1491 1.93028E+01 3.24235E-02-2.13357E-02 1.86359E-01 7.14481E-14 5.06581E-13
 -1      1492 1.97240E+01 1.13607E-01-6.26852E-02 2.38358E-01 6.93196E-14 6.24855E-13
 -1      1493 2.02792E+01 1.87717E-01-5.51544E-02 7.86720E-01 1.51726E-13 3.93453E-13
 -1      1494 1.89209E+01 1.51978E-02 5.66020E-03 5.35982E-02 5.26697E-14 3.58311E-13
 -1      1495 1.90599E+01 5.16946E-02 9.92228E-04 7.99266E-02 5.18188E-14 4.44072E-13
 -1      1496 1.95345E+01 7.19553E-02-1.21477E-02 2.99244E-01 1.21016E-13 2.67628E-13
 -1      1497 1.88115E+01 7.29178E-03 6.96054E-03-9.43260E-03 5.74896E-14 2.74166E-13
 -1      1498 1.88260E+01 2.60318E-02 1.11170E-02 5.03748E-03 4.01836E-14 3.27426E-13
 -1      1499 1.92004E+01 3.12772E-02-2.47394E-03 8.29724E-02 8.38930E-14 1.66882E-13
 -1      1500 1.88408E+01 3.49284E-03 4.74855E-03-4.06287E-02 2.47385E-14 1.78930E-13
 -1      1501 1.87958E+01 1.41336E-02 8.56302E-03-3.23478E-02 3.11478E-14 2.39139E-13
 -1      1502 1.90868E+01 1.36962E-02-1.65812E-03-2.34486E-02 8.31652E-14 1.26481E-13
 -1      1503 1.89416E+01 1.48996E-03 3.23240E-03-5.55732E-02 1.31156E-14 1.33035E-13
 -1      1504 1.88682E+01 7.82240E-03 5.42687E-03-5.08054E-02 1.29267E-14 1.51358E-13
 -1      1505 1.90938E+01 5.24194E-03-1.71826E-03-7.73172E-02 3.68820E-14 8.90737E-14
 -1      1506 1.90779E+01 4.50354E-04 2.41149E-03-6.18131E-02 3.37898E-14 7.07750E-14
 -1      1507 1.89921E+01 4.29028E-03 3.51104E-03-5.91140E-02 2.57726E-14 1.06205E-13
 -1      1508 1.91666E+01 9.54980E-04-1.53062E-03-1.03620E-01 4.12470E-14 6.55060E-14
 -1      1509 1.92304E+01 1.91606E-05 1.89445E-03-6.36436E-02 3.59019E-14-4.54923E-14
 -1      1510 1.91405E+01 2.36889E-03 2.43488E-03-6.21008E-02 4.38570E-14 2.19226E-14
 -1      1511 1.92747E+01-1.07251E-03-1.25197E-03-1.15203E-01 7.44633E-14-3.94736E-15
 -1      1512 1.93897E+01 1.36864E-05 1.48087E-03-6.38191E-02 1.79642E-14-1.21935E-13
 -1      1513 1.92994E+01 1.50661E-03 1.78916E-03-6.27978E-02 6.67991E-15-9.40914E-14
 -1      1514 1.94018E+01-1.69936E-03-1.04378E-03-1.19615E-01 5.37447E-14-8.34709E-14
 -1      1515 1.95532E+01 3.27704E-04 1.10000E-03-6.42609E-02-4.38622E-15-8.20533E-14
 -1      1516 1.94629E+01 1.40774E-03 1.36804E-03-6.32849E-02 1.10565E-14-9.20210E-14
 -1      1517 1.95399E+01-1.37655E-03-9.62258E-04-1.21786E-01 2.42422E-15-9.78244E-14
 -1      1518 1.97227E+01 8.94027E-04 7.28945E-04-6.64004E-02 3.82637E-15-7.15276E-14
 -1      1519 1.96307E+01 1.89980E-03 1.08150E-03-6.50865E-02 6.64751E-15-8.99380E-14
 -1      1520 1.96867E+01-3.64646E-04-1.01574E-03-1.25199E-01-6.86300E-15-6.90926E-14
 -1      1521 1.99036E+01 1.66527E-03 3.57972E-04-7.13571E-02 5.03828E-14-1.02797E-13
 -1      1522 1.98065E+01 2.87455E-03 8.85698E-04-6.93781E-02 8.99210E-15-9.31867E-14
 -1      1523 1.98442E+01 1.17320E-03-1.20159E-03-1.32470E-01 2.70507E-14-1.22531E-13
 -1      1524 2.01041E+01 2.59926E-03-1.95373E-05-8.00218E-02 7.91050E-14-2.25387E-13
 -1      1525 1.99971E+01 4.25407E-03 7.52892E-04-7.70877E-02 5.82052E-14-1.34056E-13
 -1      1526 2.00173E+01 3.12141E-03-1.51699E-03-1.45629E-01 9.74356E-14-1.57439E-13
 -1      1527 2.03343E+01 3.64285E-03-4.07874E-04-9.30661E-02-1.63969E-14-3.04389E-13
 -1      1528 2.02114E+01 5.96220E-03 6.59838E-04-8.89221E-02 4.72550E-14-2.45643E-13
 -1      1529 2.02132E+01 5.37462E-03-1.95830E-03-1.66239E-01 9.52754E-14-1.98042E-13
 -1      1530 2.06055E+01 4.70938E-03-8.04807E-04-1.10866E-01-3.98346E-14-2.29435E-13
 -1      1531 2.04603E+01 7.89009E-03 5.82917E-04-1.05312E-01-1.94059E-14-2.82625E-13
 -1      1532 2.04405E+01 7.79685E-03-2.51461E-03-1.95348E-01-1.12644E-14-1.53995E-13
 -1      1533 2.09294E+01 5.64515E-03-1.19129E-03-1.33306E-01-8.45569E-15-2.32695E-13
 -1      1534 2.07550E+01 9.84626E-03 4.96560E-04-1.26253E-01-1.64060E-14-2.78512E-13
 -1      1535 2.07085E+01 1.01646E-02-3.15539E-03-2.33253E-01-7.31576E-15-1.91024E-13
 -1      1536 2.13158E+01 6.18172E-03-1.51128E-03-1.59414E-01 5.12108E-14-2.51512E-13
 -1      1537 2.11065E+01 1.14828E-02 3.75787E-04-1.50989E-01 5.05262E-14-1.65070E-13
 -1      1538 2.10259E+01 1.20831E-02-3.80910E-03-2.78999E-01 2.55913E-14-2.15080E-13
 -1      1539 2.17699E+01 5.87412E-03-1.63604E-03-1.86759E-01-7.53393E-14-2.67416E-13
 -1      1540 2.15225E+01 1.21919E-02 2.06783E-04-1.77489E-01-2.31853E-14-3.03433E-13
 -1      1541 2.13987E+01 1.28674E-02-4.32865E-03-3.29516E-01 1.75751E-14-1.66651E-13
 -1      1542 2.22871E+01 4.03946E-03-1.30981E-03-2.10564E-01-4.91035E-14-1.32073E-13
 -1      1543 2.20039E+01 1.09821E-02 1.22624E-05-2.01672E-01-3.23175E-14-1.85191E-13
 -1      1544 2.18271E+01 1.13943E-02-4.44128E-03-3.78293E-01-9.81058E-14-1.46037E-13
 -1      1545 2.28460E+01-2.52048E-04-9.24903E-05-2.22620E-01-2.30374E-14-1.70228E-14
 -1      1546 2.25392E+01 6.38569E-03-1.03376E-04-2.16409E-01-3.21666E-14-5.88262E-14
 -1      1547 2.23011E+01 5.97091E-03-3.69205E-03-4.13611E-01-7.77606E-14-8.19744E-15
 -1      1548 2.33988E+01-8.00866E-03 2.63512E-03-2.10385E-01 5.92191E-15-6.63705E-15
 -1      1549 2.30962E+01-3.45061E-03 1.00708E-04-2.10629E-01-1.73030E-14-1.93248E-14
 -1      1550 2.27941E+01-5.62381E-03-1.42425E-03-4.16738E-01-4.57698E-14 6.21595E-14
 -1      1551 2.38621E+01-1.97453E-02 7.44901E-03-1.57400E-01-2.02026E-14-6.19210E-14
 -1      1552 2.36128E+01-2.01809E-02 1.01176E-03-1.69389E-01 2.05430E-14-2.06640E-14
 -1      1553 2.32563E+01-2.55694E-02 3.09828E-03-3.61382E-01 1.69248E-14 9.39353E-14
 -1      1554 2.41134E+01-3.42621E-02 1.42166E-02-4.71938E-02-6.72622E-14-4.40071E-14
 -1      1555 2.39903E+01-4.37357E-02 3.00475E-03-7.67266E-02-5.64566E-14-1.45467E-13
 -1      1556 2.36097E+01-5.43412E-02 1.02421E-02-2.17245E-01-1.94983E-15 2.05209E-14
 -1      1557 2.40060E+01-4.68696E-02 2.09212E-02 1.26448E-01-9.14945E-14 2.43239E-13
 -1      1558 2.40965E+01-6.96513E-02 5.95765E-03 7.61615E-02-1.22973E-13 2.31794E-14
 -1      1559 2.37510E+01-8.74436E-02 1.91112E-02 3.78611E-02-1.77683E-13 9.68769E-14
 -1      1560 2.34174E+01-4.83978E-02 2.26494E-02 3.42065E-01-1.16747E-14 3.55882E-13
 -1      1561 2.37938E+01-8.63770E-02 8.45065E-03 2.76029E-01 3.01530E-14 3.59678E-13
 -1      1562 2.35718E+01-1.11346E-01 2.64637E-02 3.93643E-01-5.07198E-14 2.78438E-13
 -1      1563 2.23364E+01-2.85597E-02 1.29243E-02 5.34141E-01-4.12387E-15 3.81348E-13
 -1      1564 2.30021E+01-7.66829E-02 7.35008E-03 4.71098E-01-5.68677E-14 2.93425E-13
 -1      1565 2.30067E+01-1.02949E-01 2.67265E-02 7.75782E-01-3.92117E-14 3.62372E-13
 -1      1566 2.09591E+01 1.41719E-02-1.04920E-02 6.01370E-01 3.76363E-14 2.64774E-13
 -1      1567 2.17916E+01-2.84536E-02-4.22414E-04 5.71534E-01 8.98113E-14 4.11518E-13
 -1      1568 2.21049E+01-4.09518E-02 1.52067E-02 1.03406E+00 1.11185E-13 3.48759E-13
 -1      1569 1.97027E+01 6.35010E-02-3.90714E-02 4.60928E-01-4.77040E-14 3.30860E-13
 -1      1570 2.04493E+01 4.86497E-02-1.38726E-02 4.89692E-01-8.30802E-14 2.68778E-13
 -1      1571 2.10862E+01 7.00642E-02-5.99055E-03 9.94358E-01-3.97850E-14 3.90181E-13
 -1      1572 1.90584E+01 8.99133E-02-5.46889E-02 1.25305E-01-3.26562E-14 3.50593E-13
 -1      1573 1.94286E+01 1.17824E-01-2.56590E-02 2.10633E-01-6.99614E-15 3.31721E-13
 -1      1574 2.03059E+01 1.82700E-01-2.61157E-02 5.78598E-01-1.46792E-14 4.18944E-13
 -1      1575 1.93135E+01 7.46248E-02-4.43862E-02-2.68225E-01 9.21346E-14 2.57461E-13
 -1      1576 1.91446E+01 1.36863E-01-2.63351E-02-1.63400E-01 5.78010E-15 2.74441E-13
 -1      1577 2.00930E+01 2.25812E-01-3.32227E-02-8.76824E-02 2.04906E-14 2.30854E-13
 -1      1578 2.03542E+01 2.90514E-02-1.41510E-02-5.41334E-01-1.27888E-13 2.36117E-13
 -1      1579 1.97209E+01 9.60888E-02-1.39212E-02-4.64191E-01 1.28196E-14 2.35333E-13
 -1      1580 2.05413E+01 1.65346E-01-2.56880E-02-7.13415E-01 3.57457E-14 3.07631E-13
 -1      1581 2.17451E+01-1.78895E-02 1.65946E-02-5.98215E-01 1.47656E-14 3.67560E-13
 -1      1582 2.09082E+01 2.52165E-02 3.70640E-03-5.74055E-01-1.19102E-13 2.57572E-13
 -1      1583 2.14483E+01 4.10692E-02-1.13209E-02-1.03710E+00-1.15775E-13 1.32970E-13
 -1      1584 2.30014E+01-4.42409E-02 3.31738E-02-4.69875E-01 4.05717E-14 3.49762E-13
 -1      1585 2.22470E+01-3.50484E-02 1.62545E-02-4.91569E-01 1.03887E-13 4.12087E-13
 -1      1586 2.24522E+01-7.24223E-02 1.03801E-03-9.88446E-01 3.91501E-14 1.98921E-13
 -1      1587 2.38193E+01-4.76794E-02 3.31437E-02-2.56954E-01-5.18682E-14 3.59129E-13
 -1      1588 2.33258E+01-6.37792E-02 1.93843E-02-3.00896E-01-7.34248E-14 2.50480E-13
 -1      1589 2.32400E+01-1.27770E-01 7.52166E-03-6.83370E-01-1.21448E-14 3.19838E-13
 -1      1590 2.41287E+01-3.72217E-02 2.36865E-02-5.15850E-02 2.08818E-13-6.05592E-14
 -1      1591 2.39354E+01-6.37892E-02 1.50635E-02-9.61633E-02 1.60280E-13 2.11837E-13
 -1      1592 2.36593E+01-1.25691E-01 8.80282E-03-2.98329E-01 2.17628E-13 6.56888E-14
 -1      1593 2.40169E+01-2.28651E-02 1.24865E-02 9.85518E-02 2.01670E-13-4.99240E-13
 -1      1594 2.40701E+01-4.84302E-02 8.22180E-03 6.46246E-02 1.39962E-13-2.80128E-13
 -1      1595 2.37108E+01-9.24949E-02 7.32129E-03 3.52465E-02 3.06628E-13-2.03357E-13
 -1      1596 2.36290E+01-1.04338E-02 3.74802E-03 1.85112E-01 2.32800E-14-6.69721E-13
 -1      1597 2.38415E+01-2.95896E-02 2.36894E-03 1.64247E-01 4.13662E-14-5.17711E-13
 -1      1598 2.34806E+01-5.32050E-02 5.02569E-03 2.61929E-01 1.12022E-13-4.41616E-13
 -1      1599 2.31018E+01-1.83257E-03-1.49129E-03 2.20081E-01-8.55053E-14-5.85051E-13
 -1      1600 2.33929E+01-1.36834E-02-1.21721E-03 2.10120E-01 5.94945E-15-5.48913E-13
 -1      1601 2.30779E+01-2.11532E-02 2.98811E-03 3.81879E-01-2.74043E-14-4.78935E-13
 -1      1602 2.25364E+01 3.16947E-03-3.90877E-03 2.20763E-01-8.24313E-14-2.49545E-13
 -1      1603 2.28474E+01-2.66255E-03-2.73654E-03 2.18263E-01-1.01020E-13-4.48339E-13
 -1      1604 2.25980E+01 2.78004E-05 1.52864E-03 4.20415E-01-1.15451E-13-1.90939E-13
 -1      1605 2.19960E+01 5.54530E-03-4.54935E-03 2.02221E-01-2.28547E-13 1.85836E-13
 -1      1606 2.22913E+01 3.87456E-03-2.94113E-03 2.04110E-01-1.54172E-13-1.42593E-13
 -1      1607 2.21088E+01 1.17208E-02 5.96632E-04 4.07015E-01-2.56340E-13 8.45227E-14
 -1      1608 2.15138E+01 6.27682E-03-4.26921E-03 1.75081E-01-4.93733E-14 4.23583E-13
 -1      1609 2.17752E+01 7.11721E-03-2.50684E-03 1.79145E-01-7.58738E-14 3.94264E-13
 -1      1610 2.16522E+01 1.67673E-02 4.84671E-05 3.65754E-01-2.36412E-13 2.58575E-13
 -1      1611 2.11028E+01 6.12202E-03-3.62211E-03 1.45822E-01-1.50382E-13 4.72092E-13
 -1      1612 2.13239E+01 8.26725E-03-1.87197E-03 1.50679E-01-6.75889E-14 3.57317E-13
 -1      1613 2.12493E+01 1.78066E-02-2.54985E-04 3.13058E-01-1.89176E-14 6.24462E-13
 -1      1614 2.07642E+01 5.60371E-03-2.92703E-03 1.17805E-01 2.66232E-13 4.60475E-13
 -1      1615 2.09450E+01 8.28319E-03-1.26438E-03 1.22715E-01 1.19950E-13 4.84628E-13
 -1      1616 2.09079E+01 1.67963E-02-4.25412E-04 2.58635E-01 5.12856E-14 6.10073E-13
 -1      1617 2.04937E+01 5.07091E-03-2.37383E-03 9.22384E-02 1.29133E-13 2.14559E-13
 -1      1618 2.06371E+01 7.86859E-03-7.88201E-04 9.69318E-02 1.06822E-13 2.80225E-13
 -1      1619 2.06279E+01 1.50522E-02-5.59971E-04 2.07213E-01 2.96897E-13 4.38003E-13
 -1      1620 2.02858E+01 4.74186E-03-2.10146E-03 6.89052E-02 1.29630E-13-1.28541E-13
 -1      1621 2.03951E+01 7.52500E-03-5.06397E-04 7.34576E-02 1.79437E-13 1.90642E-14
 -1      1622 2.04056E+01 1.34327E-02-7.58948E-04 1.60087E-01 2.19305E-13 1.07607E-13
 -1      1623 2.01363E+01 4.75065E-03-2.13726E-03 4.67160E-02 1.25277E-14-5.31743E-13
 -1      1624 2.02135E+01 7.59726E-03-4.69865E-04 5.14676E-02 8.69863E-14-3.53093E-13
 -1      1625 2.02364E+01 1.24838E-02-1.11445E-03 1.16342E-01 2.32216E-13-9.06586E-14
 -1      1626 2.00434E+01 5.08525E-03-1.89628E-03 2.41206E-02-2.67204E-13-3.79297E-13
 -1      1627 2.00886E+01 8.23753E-03-5.47380E-04 2.97632E-02-1.22047E-13-5.32996E-13
 -1      1628 2.01164E+01 1.26642E-02-1.48557E-03 7.39992E-02-6.61706E-14-9.36965E-14
 -1      1629 2.00054E+01 4.64126E-03 1.11300E-03 2.99132E-03 9.69842E-14-1.61736E-13
 -1      1630 2.00179E+01 7.82329E-03-9.31009E-06 8.58722E-03 1.62722E-14-3.03271E-13
 -1      1631 2.00412E+01 1.22102E-02-1.33559E-03 3.18209E-02-1.03636E-14-2.28777E-13
 -1      1632 1.99975E+01-3.17384E-04 2.61175E-03-3.38838E-03-6.21827E-14-1.03072E-13
 -1      1633 2.00084E+01 3.14469E-02-1.16572E-03 1.83829E-02 6.23365E-14 8.06268E-14
 -1      1634 2.00084E+01 1.57669E-02 8.47741E-04 1.29309E-02-1.67702E-13-1.83641E-14
 -1      1635 2.00064E+01 1.08774E-01-9.86246E-04 4.06749E-02 2.34651E-13 7.92705E-14
 -1      1636 2.00080E+01 6.53015E-02-8.11965E-04 3.65038E-02 1.31123E-13 1.02578E-13
 -1      1637 2.00164E+01 7.11766E-02-1.58389E-03 5.49544E-02 2.34741E-13 1.79468E-13
 -1      1638 2.00027E+01 2.18709E-01-4.77044E-04 5.53711E-02-1.73099E-14-1.78107E-13
 -1      1639 2.00049E+01 1.55989E-01-6.76178E-04 5.31631E-02 1.95607E-13 3.11422E-14
 -1      1640 2.00103E+01 1.52239E-01-1.57780E-03 9.17292E-02 2.20037E-13-6.91376E-14
 -1      1641 1.99988E+01 3.43172E-01-9.76615E-05 5.98101E-02-2.35879E-13-2.15610E-13
 -1      1642 2.00010E+01 2.73339E-01-3.15521E-04 5.97711E-02-9.31503E-14 1.76021E-14
 -1      1643 2.00037E+01 2.54347E-01-5.17394E-04 1.11819E-01 1.35057E-13-2.86652E-13
 -1      1644 1.99955E+01 4.59961E-01 7.26931E-05 5.43966E-02-4.46530E-13 5.58823E-14
 -1      1645 1.99974E+01 3.96122E-01-8.49011E-05 5.61913E-02-3.15994E-13-2.88568E-13
 -1      1646 1.99973E+01 3.61997E-01 6.09311E-04 1.12395E-01-2.29823E-14-3.37505E-13
 -1      1647 1.99929E+01 5.54998E-01 1.44865E-04 4.05115E-02-1.39482E-13 2.70008E-13
 -1      1648 1.99944E+01 5.05345E-01 4.89410E-05 4.38317E-02-4.65291E-13 2.18573E-13
 -1      1649 1.99920E+01 4.60136E-01 1.55344E-03 9.51213E-02-4.28188E-14 4.90929E-14
 -1      1650 1.99915E+01 6.11887E-01 1.57368E-04 2.06068E-02-1.31024E-13 1.34108E-14
 -1      1651 1.99923E+01 5.85084E-01 1.09493E-04 2.48758E-02-1.02796E-13 2.22287E-13
 -1      1652 1.99882E+01 5.35291E-01 2.24664E-03 6.33085E-02-2.04089E-13 1.81036E-13
 -1      1653 1.99912E+01 6.22416E-01 1.43330E-04-2.30127E-03-7.89784E-14 2.77440E-14
 -1      1654 1.99913E+01 6.22433E-01 1.44816E-04 2.29935E-03-1.49249E-13 1.10354E-13
 -1      1655 1.99861E+01 5.75763E-01 2.61084E-03 2.21800E-02-3.41877E-14-1.50932E-14
 -1      1656 1.99922E+01 5.85025E-01 1.06077E-04-2.49153E-02 1.71209E-13 1.57122E-13
 -1      1657 1.99915E+01 6.11907E-01 1.61576E-04-2.06346E-02 1.32549E-14 2.20884E-13
 -1      1658 1.99861E+01 5.75813E-01 2.61480E-03-2.22008E-02 6.32768E-14 2.08005E-13
 -1      1659 1.99943E+01 5.05110E-01 3.40299E-05-4.39493E-02 2.13959E-13-8.33438E-14
 -1      1660 1.99929E+01 5.54931E-01 1.59568E-04-4.06219E-02 1.72026E-13 1.68697E-13
 -1      1661 1.99881E+01 5.35392E-01 2.25166E-03-6.34457E-02-7.44255E-14 2.49848E-13
 -1      1662 1.99974E+01 3.96553E-01-7.86793E-05-5.62724E-02-1.52915E-13-8.39686E-14
 -1      1663 1.99954E+01 4.60560E-01 8.05870E-05-5.44705E-02 2.66314E-13-4.28134E-13
 -1      1664 1.99920E+01 4.60920E-01 1.58431E-03-9.52456E-02-5.57215E-15-3.52814E-13
 -1      1665 2.00011E+01 2.72464E-01-3.10495E-04-5.99278E-02 1.42789E-14-2.43235E-14
 -1      1666 1.99988E+01 3.42496E-01-1.03455E-04-5.99857E-02-1.06191E-13 1.85222E-13
 -1      1667 1.99973E+01 3.62611E-01 6.11391E-04-1.12659E-01 1.04792E-13 6.74163E-14
 -1      1668 2.00048E+01 1.54801E-01-7.46028E-04-5.32874E-02-2.93539E-13-1.64087E-13
 -1      1669 2.00027E+01 2.17726E-01-4.71354E-04-5.54354E-02-1.08798E-13 5.07550E-14
 -1      1670 2.00038E+01 2.53784E-01-5.10266E-04-1.12051E-01-6.76771E-14-3.59409E-14
 -1      1671 2.00090E+01 6.54708E-02-2.75557E-04-3.67072E-02-3.19812E-13-2.81062E-14
 -1      1672 2.00061E+01 1.08086E-01-1.03012E-03-4.10434E-02-2.66921E-13-1.43878E-14
 -1      1673 2.00100E+01 1.51867E-01-1.56306E-03-9.16573E-02-1.64861E-13-7.61065E-14
 -1      1674 2.00139E+01 2.58606E-02 1.21072E-03-2.19613E-02-4.00740E-13-3.64484E-13
 -1      1675 2.00134E+01 4.28069E-02-9.01253E-04-2.97728E-02-2.10745E-13-2.34803E-13
 -1      1676 2.00238E+01 8.36432E-02-7.73700E-04-6.77300E-02-1.73272E-13 1.30369E-13
 -1      1677 2.00387E+01 4.14736E-02 8.16385E-04-4.59339E-02-1.34249E-13-1.45395E-13
 -1      1678-6.14403E-01-1.49501E+01-1.72861E+00-1.00047E+00-1.00808E-13-1.72917E-14
 -1      1679-5.95112E-01-1.67763E+01-1.89413E+00 2.50696E-01 1.18364E-13-7.82152E-14
 -1      1680 8.12914E-01-9.00028E+00-1.31227E+00-2.74105E-02 3.96350E-14 1.09843E-13
 -1      1681 2.73758E-01-1.37383E+01-1.80013E+00-3.58476E-01-6.73905E-14 1.21451E-13
 -1      1682 6.08855E+00-1.83062E+00-6.43859E-01 3.90954E+00 4.88276E-13 9.22984E-13
 -1      1683 3.50583E+00-7.08874E+00-1.33208E+00 1.46748E+00 4.81837E-14 3.15359E-13
 -1      1684 1.51601E+01 3.98680E+00 6.88190E-02 8.63831E+00 8.89733E-13 8.86180E-13
 -1      1685 9.52779E+00 1.77871E-01-7.56997E-01 5.07485E+00 6.80012E-13 7.38964E-13
 -1      1686 2.77956E+01 6.31979E+00 7.50006E-01 1.21091E+01 6.47815E-13 6.29941E-13
 -1      1687 1.96017E+01 5.44065E+00-5.01672E-02 9.66566E+00 8.94729E-13 7.75380E-13
 -1      1688 4.25534E+01 5.14855E+00 1.37542E+00 1.05789E+01 2.57239E-13 6.09512E-14
 -1      1689 3.32040E+01 6.37081E+00 6.70974E-01 1.12278E+01 4.81004E-13 3.93463E-13
 -1      1690 5.28203E+01 3.81926E+00 1.85779E+00 5.79677E+00 7.59393E-14-3.65652E-13
 -1      1691 4.70093E+01 5.29264E+00 1.41625E+00 9.81164E+00 1.23429E-13-1.00142E-13
 -1      1692 5.43220E+01 3.65533E+00 1.80608E+00-2.41795E+00 5.15143E-14-5.42788E-13
 -1      1693 5.40666E+01 3.73502E+00 1.79830E+00 3.22156E+00-1.16851E-14-3.92880E-13
 -1      1694 4.76835E+01 5.12255E+00 1.45694E+00-9.16267E+00 2.07494E-13-5.64215E-13
 -1      1695 5.29489E+01 3.73673E+00 1.80514E+00-4.94649E+00 1.18627E-13-5.02265E-13
 -1      1696 3.55835E+01 6.69162E+00 8.71215E-01-1.21525E+01 4.33265E-13-6.53255E-13
 -1      1697 4.41915E+01 5.27195E+00 1.52986E+00-1.10713E+01 3.13249E-13-5.65326E-13
 -1      1698 2.22235E+01 5.97548E+00 1.21886E-01-1.04326E+01 4.92162E-13-7.40297E-13
 -1      1699 3.06559E+01 6.47431E+00 9.49943E-01-1.24667E+01 4.53415E-13-6.63247E-13
 -1      1700 1.12734E+01 1.89366E+00-6.11445E-01-6.19236E+00 7.29528E-13-5.19584E-13
 -1      1701 1.74254E+01 5.03311E+00 2.31568E-01-9.65899E+00 5.98077E-13-5.69766E-13
 -1      1702 4.23996E+00-5.00961E+00-1.23088E+00-1.96380E+00 9.37694E-13-4.42368E-13
 -1      1703 7.39110E+00 1.82484E-01-4.95870E-01-4.83113E+00 8.00027E-13-6.09290E-13
 -1      1704 1.06031E+00-1.20286E+01-1.59129E+00-1.81596E-01 6.32383E-13-3.61013E-13
 -1      1705 2.02562E+00-7.01808E+00-1.08359E+00-1.05720E+00 8.14349E-13-3.76643E-13
 -1      1706-4.64824E-01-1.61484E+01-1.82163E+00-1.34018E-01-5.82034E-14-3.49387E-13
 -1      1707-4.41052E-01-1.35555E+01-1.58046E+00 8.63154E-01 4.94049E-13-4.21413E-13
 -1      1708-7.11463E-01-1.57352E+01-1.78694E+00-9.65733E-01-7.69274E-13-3.80002E-13
 -1      1709-6.71750E-01-1.67076E+01-1.85348E+00 4.46298E-01-2.94872E-13-3.05950E-13
 -1      1710 3.06523E-01-1.05281E+01-1.44158E+00-4.93150E-01-1.05504E-12-3.27044E-13
 -1      1711 2.40753E-02-1.47371E+01-1.82332E+00-3.68714E-01-9.45244E-13-2.73323E-13
 -1      1712 4.18082E+00-3.11294E+00-8.54526E-01 2.63730E+00-8.23119E-13-2.11164E-13
 -1      1713 2.22108E+00-8.57202E+00-1.50857E+00 5.74429E-01-9.93428E-13-3.36370E-13
 -1      1714 1.25866E+01 3.19226E+00-1.61842E-01 7.65566E+00-3.03091E-13-1.43885E-13
 -1      1715 7.43185E+00-1.06427E+00-9.82100E-01 4.00394E+00-6.54143E-13-1.75193E-13
 -1      1716 2.68616E+01 5.21831E+00 6.38256E-01 1.11067E+01-1.43663E-13-1.39888E-14
 -1      1717 1.86007E+01 3.74440E+00-1.78518E-01 8.32279E+00-2.01728E-13-1.14353E-13
 -1      1718 4.08135E+01 5.86285E+00 1.45180E+00 1.20220E+01-1.02085E-13-9.10383E-15
 -1      1719 3.16641E+01 6.82718E+00 6.67261E-01 1.20360E+01-1.71752E-13-1.05027E-13
 -1      1720 5.22811E+01 3.94073E+00 1.88890E+00 6.84478E+00-7.87009E-14 2.63900E-13
 -1      1721 4.53647E+01 5.62774E+00 1.39974E+00 1.06651E+01-5.54695E-14 5.52891E-14
 -1      1722 5.51955E+01 3.43304E+00 1.88415E+00-1.51290E+00 9.04832E-15 4.00263E-13
 -1      1723 5.42809E+01 3.75270E+00 1.85501E+00 4.16530E+00-4.47420E-14 3.60878E-13
 -1      1724 4.82551E+01 5.02617E+00 1.45998E+00-8.49811E+00-2.92419E-13 6.11733E-13
 -1      1725 5.33009E+01 3.73184E+00 1.80336E+00-3.93822E+00-1.10828E-13 5.10481E-13
 -1      1726 3.64217E+01 6.65792E+00 9.10578E-01-1.21222E+01-4.20608E-13 6.95444E-13
 -1      1727 4.50686E+01 5.12447E+00 1.55641E+00-1.07680E+01-2.95930E-13 6.57252E-13
 -1      1728 2.25539E+01 5.71996E+00 1.07459E-01-1.02221E+01-4.23772E-13 5.35572E-13
 -1      1729 3.14209E+01 6.17874E+00 9.52035E-01-1.22616E+01-4.16001E-13 5.36682E-13
 -1      1730 1.04798E+01 1.40897E+00-7.17373E-01-5.73116E+00-3.19300E-13 4.88165E-13
 -1      1731 1.70847E+01 4.92940E+00 1.94663E-01-9.56154E+00-4.04565E-13 6.73017E-13
 -1      1732 3.47849E+00-6.23665E+00-1.33783E+00-1.41652E+00-1.18128E-13 2.15328E-13
 -1      1733 6.44536E+00-5.22992E-01-5.83996E-01-4.26896E+00-3.62821E-13 4.29545E-13
 -1      1734 6.50996E-01-1.31318E+01-1.64391E+00-1.01193E-02 2.46803E-13 3.94684E-14
 -1      1735 1.32901E+00-8.28626E+00-1.19064E+00-5.22512E-01-4.66294E-14 2.62068E-13
 -1      1736-6.29484E-01-1.67631E+01-1.89700E+00-2.36652E-01 2.13246E-13-1.30729E-13
 -1      1737-6.87515E-01-1.48569E+01-1.72268E+00 1.08751E+00 4.08729E-13-1.92873E-13
 -1      1738 2.20525E+01 1.63585E-01 1.07686E-01 7.27570E+00 4.78950E-13 3.50275E-13
 -1      1739 1.28670E+01-3.96818E+00-4.36769E-01 6.17528E+00 1.50546E-13 6.38101E-13
 -1      1740 2.00072E+01 2.89098E-03 3.35472E-04 1.87764E-03-1.01686E-13-1.48850E-13
 -1      1741 2.00191E+01 2.70578E-02 7.99165E-05 2.18689E-02 1.70763E-13 4.87044E-14
 -1      1742 9.72114E-02-1.05599E+01-1.27065E+00 1.92313E+00 8.88178E-16 1.06581E-13
 -1      1743 5.15683E+00-7.52811E+00-8.59846E-01 4.38538E+00 1.17906E-13 4.58765E-13
 -1      1744-1.36971E+00-1.16698E+01-1.36768E+00-3.06924E-03 2.06245E-13-2.52853E-13
 -1      1745 3.24175E+01 3.37593E+00 7.17929E-01 6.77635E+00 5.64437E-13 1.01252E-13
 -1      1746 4.08670E+01 5.62245E+00 1.08372E+00 4.61517E+00 3.19994E-13-2.25375E-13
 -1      1747 4.64769E+01 7.14922E+00 1.53997E+00 2.11074E+00 1.44940E-13-2.50022E-13
 -1      1748 4.63120E+01 7.26642E+00 1.50635E+00-1.58328E+00 6.86673E-14-4.09867E-13
 -1      1749 4.21004E+01 6.11684E+00 1.27988E+00-5.05408E+00 2.09888E-13-3.23408E-13
 -1      1750 3.40189E+01 4.12217E+00 8.33678E-01-7.19145E+00 2.83829E-13-3.87468E-13
 -1      1751 2.41448E+01 1.13573E+00 2.66289E-01-7.47381E+00 2.95319E-13-3.00648E-13
 -1      1752 1.44432E+01-2.63594E+00-3.21760E-01-6.43205E+00 4.96714E-13-2.37255E-13
 -1      1753 6.58512E+00-6.63883E+00-8.11920E-01-4.71394E+00 4.39870E-13-3.15470E-13
 -1      1754 1.23692E+00-9.49985E+00-1.08527E+00-2.83115E+00 1.88793E-13-5.35294E-13
 -1      1755-1.29604E+00-1.13000E+01-1.32172E+00-4.98315E-01-1.52045E-13-6.35603E-13
 -1      1756-4.40073E-01-1.10015E+01-1.30790E+00 1.56139E+00-4.43090E-13-4.36540E-13
 -1      1757 3.54259E+00-8.39270E+00-1.03021E+00 3.53934E+00-6.04516E-13-1.55626E-13
 -1      1758 1.05544E+01-4.46423E+00-5.58090E-01 5.62953E+00-3.99236E-13 2.29983E-13
 -1      1759 2.10977E+01-8.68681E-01 1.18636E-01 6.93964E+00-7.62723E-14 2.28040E-13
 -1      1760 3.10344E+01 2.27738E+00 4.62081E-01 6.53536E+00-1.00808E-13 1.23679E-13
 -1      1761 4.05718E+01 5.62916E+00 1.20171E+00 5.84312E+00-1.16886E-13 8.90399E-14
 -1      1762 4.66152E+01 6.98300E+00 1.58309E+00 2.66413E+00-1.29563E-13 2.17382E-13
 -1      1763 4.66524E+01 7.24655E+00 1.50962E+00-1.07546E+00-9.79217E-14 3.35870E-13
 -1      1764 4.24022E+01 6.28382E+00 1.27998E+00-4.62514E+00-2.56184E-13 4.30100E-13
 -1      1765 3.45005E+01 4.02833E+00 8.30548E-01-6.86221E+00-1.68060E-13 3.23297E-13
 -1      1766 2.42079E+01 9.35899E-01 2.66132E-01-7.35151E+00-1.14020E-13 2.60236E-13
 -1      1767 1.36121E+01-3.03842E+00-3.85276E-01-6.24948E+00-1.21236E-13 4.19942E-13
 -1      1768 5.51865E+00-7.28156E+00-8.96972E-01-4.36031E+00-1.57208E-13 3.75956E-13
 -1      1769 5.19871E-01-1.00542E+01-1.12150E+00-2.32726E+00-5.11813E-14 1.01974E-13
 -1      1770 2.28356E+01 1.98382E+00-2.36493E-02-2.72205E+00-1.35780E-13 5.98854E-13
 -1      1771 1.98238E+01 3.71380E+00-3.54233E-02-2.15231E+00-1.96591E-13-1.74853E-13
 -1      1772 2.00528E+01 3.56222E+00-4.02126E-02-2.44457E+00-2.23084E-13-1.03483E-13
 -1      1773 2.03541E+01 3.18076E+00-4.57134E-02-2.58471E+00-2.15169E-13-1.90403E-14
 -1      1774 2.05698E+01 2.80867E+00-1.42486E-01-2.85293E+00-2.24997E-13 8.54039E-14
 -1      1775 2.04169E+01 2.69280E+00-4.22571E-03-2.22368E+00-2.28732E-13-5.65520E-14
 -1      1776 1.93644E+01 4.19194E+00-2.00460E-02-1.26937E+00-1.27193E-13-2.76867E-13
 -1      1777 1.94363E+01 4.15170E+00-1.68552E-02-1.49381E+00-1.39943E-13-2.61409E-13
 -1      1778 1.92706E+01 4.29929E+00-1.67606E-02-8.58527E-01-9.56576E-14-2.96504E-13
 -1      1779 1.93121E+01 4.27479E+00-1.42075E-02-1.06919E+00-1.07173E-13-2.92844E-13
 -1      1780 1.95373E+01 3.78778E+00-8.87053E-03-1.11763E+00-1.26308E-13-2.76121E-13
 -1      1781 1.92209E+01 4.36073E+00-1.48050E-02-4.66083E-01-4.73808E-14-2.80727E-13
 -1      1782 1.92421E+01 4.34752E+00-1.32879E-02-6.66176E-01-6.96586E-14-2.88771E-13
 -1      1783 1.94424E+01 3.90951E+00-9.06740E-03-7.31684E-01-8.65967E-14-2.79957E-13
 -1      1784 1.92022E+01 4.38681E+00-1.36767E-02-8.34741E-02-1.03915E-14-2.74484E-13
 -1      1785 1.92084E+01 4.38277E+00-1.32128E-02-2.78659E-01-2.84676E-14-2.76463E-13
 -1      1786 1.93936E+01 3.97493E+00-9.06096E-03-3.57472E-01-4.22106E-14-2.65205E-13
 -1      1787 1.92101E+01 4.38138E+00-1.31713E-02 2.97695E-01 3.30442E-14-2.69800E-13
 -1      1788 1.92027E+01 4.38597E+00-1.37631E-02 1.02347E-01 1.49082E-14-2.70022E-13
 -1      1789 1.93793E+01 3.99468E+00-9.05741E-03 1.05401E-02-3.82895E-15-2.60264E-13
 -1      1790 1.92461E+01 4.34344E+00-1.33199E-02 6.85964E-01 6.81423E-14-2.82536E-13
 -1      1791 1.92236E+01 4.35749E+00-1.49352E-02 4.85353E-01 5.29994E-14-2.81039E-13
 -1      1792 1.93962E+01 3.97158E+00-9.10660E-03 3.78752E-01 4.21175E-14-2.63088E-13
 -1      1793 1.93172E+01 4.26882E+00-1.43930E-02 1.08339E+00 1.05513E-13-2.62911E-13
 -1      1794 1.92752E+01 4.29383E+00-1.69920E-02 8.75515E-01 9.31429E-14-2.78130E-13
 -1      1795 1.94476E+01 3.90304E+00-9.12200E-03 7.50285E-01 8.86423E-14-2.65643E-13
 -1      1796 1.94450E+01 4.14008E+00-1.73795E-02 1.51343E+00 1.55183E-13-2.26145E-13
 -1      1797 1.93706E+01 4.18334E+00-2.05126E-02 1.28389E+00 1.29142E-13-2.41387E-13
 -1      1798 1.95446E+01 3.77760E+00-9.18637E-03 1.13374E+00 1.31562E-13-2.39371E-13
 -1      1799 1.96689E+01 3.92194E+00-2.51672E-02 1.97875E+00 1.99933E-13-1.75207E-13
 -1      1800 1.95389E+01 3.99943E+00-2.68935E-02 1.72135E+00 1.73141E-13-2.09471E-13
 -1      1801 1.97139E+01 3.56876E+00-8.66366E-03 1.53352E+00 1.79598E-13-2.01242E-13
 -1      1802 2.00705E+01 3.52232E+00-4.51539E-02 2.47149E+00 2.30852E-13-7.48360E-14
 -1      1803 1.98342E+01 3.68341E+00-3.96767E-02 2.18236E+00 2.12768E-13-1.36297E-13
 -1      1804 2.00045E+01 3.22399E+00-5.26532E-03 1.93325E+00 2.20677E-13-1.36877E-13
 -1      1805 2.09072E+01 2.68086E+00-5.76082E-02 2.85740E+00 2.38595E-13 1.29320E-13
 -1      1806 2.04043E+01 3.09623E+00-5.03523E-02 2.61571E+00 2.30822E-13 6.32133E-15
 -1      1807 2.05102E+01 2.60992E+00 3.18536E-03 2.24383E+00 2.37111E-13-3.43267E-14
 -1      1808 2.17109E+01 1.21265E+00-1.22014E-01 2.32979E+00 2.00499E-13 3.94948E-13
 -1      1809 2.12580E+01 2.26216E+00 1.29714E-04 2.74023E+00 2.15545E-13 2.22128E-13
 -1      1810 2.09232E+01 1.68478E+00-2.29396E-02 2.13999E+00 2.37761E-13 1.24494E-13
 -1      1811 2.09324E+01 7.78557E-01-6.24310E-02 1.52440E+00 2.05565E-13 3.29264E-13
 -1      1812 2.17780E+01 2.45710E+00 9.09080E-02-3.04789E+00-1.87980E-13 2.69340E-13
 -1      1813 2.00823E+01 2.98190E-01-8.89406E-03 6.57065E-01 1.72685E-13 2.24230E-13
 -1      1814 2.06341E+01 4.40540E-01-1.24363E-02 1.03414E+00 1.77865E-13 2.88154E-13
 -1      1815 2.07282E+01 8.45174E-01 2.24412E-03 1.41507E+00 2.12663E-13 1.70378E-13
 -1      1816 2.14908E+01 1.74186E+00 7.94033E-02-2.33694E+00-1.99191E-13 1.85255E-13
 -1      1817 2.05046E+01 5.00956E-01 3.24194E-02-9.21418E-01-1.43104E-13 1.46003E-13
 -1      1818 2.00734E+01 3.52754E-01 7.63451E-03-6.29257E-01-1.28049E-13 1.05132E-13
 -1      1819 1.98799E+01 2.58370E-01 2.74603E-02-3.89965E-01-1.31944E-13 9.24651E-14
 -1      1820 1.96901E+01 1.79352E-01 1.05418E-02-2.51445E-01-1.13497E-13 5.65051E-14
 -1      1821 2.01882E+01 4.84679E-01-6.04840E-03-7.21022E-01-1.53511E-13-2.64155E-15
 -1      1822 1.95699E+01 1.34340E-01 1.67364E-02-1.16714E-01-9.81134E-14 4.75999E-14
 -1      1823 1.94938E+01 9.52169E-02 7.15564E-03-4.47736E-02-7.03183E-14 2.65868E-14
 -1      1824 1.98652E+01 2.46022E-01-5.89436E-03-2.91597E-01-1.32742E-13-1.33513E-14
 -1      1825 1.94317E+01 7.10887E-02 8.80308E-03 3.07954E-02-5.24650E-14 5.51165E-15
 -1      1826 1.94207E+01 5.01446E-02 4.39812E-03 6.88185E-02-6.59687E-14-9.33086E-15
 -1      1827 1.96870E+01 1.28870E-01-4.79392E-03-5.11038E-02-9.28398E-14-4.30396E-14
 -1      1828 1.93989E+01 3.65417E-02 4.40854E-03 1.10665E-01-7.84408E-14-1.84397E-14
 -1      1829 1.94244E+01 2.51041E-02 2.85140E-03 1.30239E-01-5.68753E-14-5.54246E-14
 -1      1830 1.96075E+01 6.66336E-02-3.67398E-03 8.43917E-02-7.59813E-14-7.28134E-14
 -1      1831 1.94292E+01 1.74379E-02 2.09133E-03 1.52749E-01-4.98715E-14-4.99540E-14
 -1      1832 1.94752E+01 1.15888E-02 2.03852E-03 1.62247E-01-4.64704E-14-5.21550E-14
 -1      1833 1.95940E+01 3.25335E-02-2.62693E-03 1.59562E-01-6.85549E-14-6.06264E-14
 -1      1834 1.94971E+01 7.66140E-03 8.68874E-04 1.74133E-01-4.96146E-14-4.69856E-14
 -1      1835 1.95548E+01 5.41817E-03 1.64576E-03 1.78656E-01-5.76521E-14-3.24630E-14
 -1      1836 1.96234E+01 1.46817E-02-1.82502E-03 2.00428E-01-4.51196E-14-7.34187E-14
 -1      1837 1.95881E+01 4.04813E-03 2.42026E-04 1.85597E-01-6.87003E-14-3.65731E-14
 -1      1838 1.96530E+01 4.31564E-03 1.52838E-03 1.88554E-01-2.13148E-14-2.25775E-14
 -1      1839 1.96809E+01 7.19860E-03-1.30018E-03 2.23271E-01-4.98652E-14-6.88348E-14
 -1      1840 1.96947E+01 4.80660E-03-3.34566E-05 1.94499E-01-2.94106E-14-4.10006E-14
 -1      1841 1.97655E+01 6.93827E-03 1.61933E-03 1.98334E-01-2.45189E-14-7.18533E-14
 -1      1842 1.97576E+01 6.88667E-03-1.01293E-03 2.39016E-01-5.20426E-14-6.92569E-14
 -1      1843 1.98143E+01 8.84733E-03-8.82757E-05 2.06183E-01-3.30068E-14-1.27486E-13
 -1      1844 1.98917E+01 1.24368E-02 1.87962E-03 2.12747E-01-3.15729E-14-1.45053E-13
 -1      1845 1.98495E+01 1.18617E-02-9.10013E-04 2.55441E-01-6.08543E-14-1.09941E-13
 -1      1846 1.99477E+01 1.54547E-02-2.72542E-06 2.24710E-01-2.18801E-14-1.46377E-13
 -1      1847 2.00339E+01 2.02147E-02 2.27757E-03 2.35450E-01 1.46720E-15-1.24312E-13
 -1      1848 1.99556E+01 2.09226E-02-9.44755E-04 2.78343E-01-2.93154E-14-1.85309E-13
 -1      1849 2.00985E+01 2.40838E-02 1.66849E-04 2.53232E-01 2.76776E-14-1.24253E-13
 -1      1850 2.01969E+01 2.97498E-02 2.77665E-03 2.69266E-01 1.68767E-14-1.14961E-13
 -1      1851 2.00776E+01 3.31952E-02-1.07917E-03 3.12152E-01 1.73321E-15-1.59424E-13
 -1      1852 2.02720E+01 3.41846E-02 3.75458E-04 2.94103E-01 1.53089E-15-1.44038E-13
 -1      1853 2.03866E+01 4.04092E-02 3.32299E-03 3.16182E-01-1.20681E-14-8.43704E-14
 -1      1854 2.02186E+01 4.78544E-02-1.28123E-03 3.60184E-01 8.20459E-15-1.29435E-13
 -1      1855 2.04747E+01 4.49966E-02 5.82326E-04 3.48736E-01-5.95714E-14-9.34664E-14
 -1      1856 2.06099E+01 5.12067E-02 3.82880E-03 3.77079E-01-5.40854E-14-9.50892E-14
 -1      1857 2.03834E+01 6.38224E-02-1.52211E-03 4.24572E-01-1.83027E-14-1.40603E-13
 -1      1858 2.07137E+01 5.52664E-02 7.46897E-04 4.17146E-01-6.18313E-14-8.85266E-14
 -1      1859 2.08735E+01 6.04585E-02 4.15061E-03 4.51089E-01-3.88699E-14-1.26406E-13
 -1      1860 2.05770E+01 7.93661E-02-1.77483E-03 5.05839E-01-7.51528E-14-1.34401E-13
 -1      1861 2.09954E+01 6.28428E-02 8.28457E-04 4.97054E-01-2.41651E-14-1.97994E-13
 -1      1862 2.11825E+01 6.52988E-02 4.06428E-03 5.34434E-01-8.95356E-15-2.19989E-13
 -1      1863 2.08047E+01 9.15267E-02-2.01460E-03 6.01991E-01-7.54145E-14-2.11597E-13
 -1      1864 2.13246E+01 6.41299E-02 7.91558E-04 5.82395E-01 1.23975E-14-2.19846E-13
 -1      1865 2.15385E+01 6.10705E-02 3.24516E-03 6.18625E-01-2.88931E-14-1.80692E-13
 -1      1866 2.10710E+01 9.53446E-02-2.22086E-03 7.06994E-01 1.15034E-14-2.38787E-13
 -1      1867 2.17021E+01 5.34606E-02 6.18945E-04 6.61133E-01-6.42841E-14-1.41351E-13
 -1      1868 2.19372E+01 4.07594E-02 1.27648E-03 6.87942E-01-1.43332E-16-1.29514E-13
 -1      1869 2.13788E+01 8.29551E-02-2.37833E-03 8.08479E-01-9.18948E-15-2.25272E-13
 -1      1870 2.21220E+01 2.26995E-02 3.32021E-04 7.12446E-01 3.94929E-14-1.18323E-13
 -1      1871 2.23649E+01-4.97417E-03-2.26556E-03 7.16586E-01 6.22881E-14-1.48068E-13
 -1      1872 2.17280E+01 4.29439E-02-2.46601E-03 8.84740E-01 2.77323E-14-2.00874E-13
 -1      1873 2.25682E+01-3.80810E-02-2.31232E-06 7.04100E-01 8.62500E-14-1.26895E-13
 -1      1874 2.27942E+01-8.58816E-02-7.58762E-03 6.66882E-01 4.78081E-14-9.11133E-14
 -1      1875 2.21146E+01-3.89280E-02-2.40953E-03 9.01634E-01 1.00989E-13-1.52848E-13
 -1      1876 2.30092E+01-1.37134E-01-3.45100E-04 5.92293E-01-4.42745E-15 1.85021E-14
 -1      1877 2.31812E+01-2.06073E-01-1.42256E-02 4.91939E-01 2.92561E-14 4.93438E-14
 -1      1878 2.25275E+01-1.75324E-01-1.98848E-03 8.11371E-01 9.84573E-14-8.12794E-14
 -1      1879 2.33925E+01-2.72118E-01-8.19619E-04 3.28860E-01 2.29209E-14 4.52589E-15
 -1      1880 2.34630E+01-3.51282E-01-2.03618E-02 1.48935E-01-1.31249E-14 2.21988E-14
 -1      1881 2.29438E+01-3.65828E-01-6.83682E-04 5.57598E-01 1.49204E-14 9.75478E-15
 -1      1882 2.36401E+01-4.14163E-01-2.04564E-03-1.16114E-01-4.27653E-14 3.89291E-14
 -1      1883 2.35630E+01-4.70748E-01-2.21795E-02-3.69251E-01 2.16095E-14 5.58997E-14
 -1      1884 2.33200E+01-5.75164E-01 2.48451E-03 9.46379E-02-5.87117E-15 3.95825E-14
 -1      1885 2.36541E+01-4.90510E-01-4.67301E-03-7.09415E-01 1.44667E-14 5.80185E-14
 -1      1886 2.34063E+01-4.70022E-01-1.54788E-02-9.82339E-01-1.75988E-15 5.46906E-14
 -1      1887 2.35804E+01-7.09140E-01 8.30260E-03-5.69438E-01 3.44117E-14-3.29966E-14
 -1      1888 2.33511E+01-3.95573E-01-9.77174E-03-1.29989E+00-3.83920E-14 4.09152E-14
 -1      1889 2.29649E+01-2.48787E-01 4.11662E-04-1.48254E+00-3.39503E-14-3.47240E-14
 -1      1890 2.36199E+01-6.21478E-01 1.42166E-02-1.30672E+00-2.24452E-14-5.74154E-14
 -1      1891 2.27403E+01-5.45735E-02-1.36201E-02-1.61060E+00-6.62350E-15-5.25951E-14
 -1      1892 2.23176E+01 2.00778E-01 1.81945E-02-1.56924E+00-6.83568E-15-4.63778E-14
 -1      1893 2.33568E+01-1.96661E-01 1.26533E-02-1.82991E+00-4.38683E-14-7.18397E-14
 -1      1894 2.20126E+01 4.49518E-01-9.91103E-03-1.35508E+00-6.92849E-15-4.56198E-14
 -1      1895 2.17052E+01 6.85106E-01 2.38157E-02-1.03286E+00-3.17454E-15-3.27889E-14
 -1      1896 2.28441E+01 4.93431E-01-2.29387E-03-1.76632E+00 2.22088E-14-1.26061E-13
 -1      1897 2.15175E+01 8.35636E-01 4.38875E-03-4.95957E-01-7.71778E-14-2.78076E-15
 -1      1898 2.14537E+01 8.88912E-01 1.22816E-02-5.43784E-03-1.44960E-13-6.80163E-14
 -1      1899 2.23587E+01 1.10647E+00-2.34532E-02-9.34553E-01-7.61318E-14-1.72201E-13
 -1      1900 2.15295E+01 8.27869E-01 2.01943E-02 6.05162E-01-1.06510E-13 1.41625E-14
 -1      1901 2.17377E+01 6.58115E-01-4.77793E-03 1.02756E+00-5.06886E-14 7.93116E-15
 -1      1902 2.22475E+01 1.24251E+00-2.93150E-02 3.67401E-01-2.96516E-14-6.94420E-14
 -1      1903 2.20158E+01 4.33086E-01 2.28015E-02 1.40421E+00-6.38066E-14-5.50202E-14
 -1      1904 2.24048E+01 1.65424E-01-1.34256E-02 1.57389E+00-3.66200E-15 3.05797E-14
 -1      1905 2.25978E+01 8.04999E-01-1.28985E-02 1.47831E+00-3.53502E-14 6.30112E-14
 -1      1906 2.26844E+01-6.78144E-02 9.17211E-03 1.58792E+00-1.86940E-14 1.38469E-13
 -1      1907 2.31031E+01-2.72308E-01-1.17611E-02 1.49149E+00 2.77556E-15 2.50421E-13
 -1      1908 2.31423E+01 9.68462E-02 7.89129E-03 1.89003E+00 7.88161E-14 1.50018E-13
 -1      1909 2.32364E+01-4.01978E-01-9.11602E-03 1.23626E+00-9.20115E-14 3.83222E-13
 -1      1910 2.35537E+01-4.75766E-01-6.72264E-03 9.87224E-01 2.15279E-15 3.58078E-13
 -1      1911 2.35367E+01-4.73798E-01 1.52469E-02 1.58834E+00-2.92301E-16 1.68355E-13
 -1      1912 2.35210E+01-4.92335E-01-2.03922E-02 6.39995E-01-6.33330E-14 2.86111E-13
 -1      1913 2.36736E+01-4.62853E-01-2.96927E-03 3.67687E-01-1.44515E-13 1.46002E-13
 -1      1914 2.36271E+01-7.06901E-01 1.12496E-02 9.02397E-01-9.48963E-14 1.67543E-13
 -1      1915 2.35271E+01-4.13077E-01-2.19326E-02 6.18198E-02-5.03252E-14 1.53024E-13
 -1      1916 2.35171E+01-3.38411E-01-1.17896E-03-1.54114E-01 3.48090E-14 1.78244E-13
 -1      1917 2.34512E+01-6.53035E-01 4.85618E-03 1.79891E-01-4.15275E-14 4.26646E-13
 -1      1918 2.33158E+01-2.70296E-01-1.71852E-02-3.62997E-01-4.50881E-14 7.52818E-14
 -1      1919 2.31824E+01-1.94217E-01-4.92195E-04-4.97933E-01-1.64146E-13 3.36983E-14
 -1      1920 2.31146E+01-4.61778E-01 4.80882E-04-3.80027E-01-6.84708E-14 4.14632E-13
 -1      1921 2.29663E+01-1.35101E-01-1.04532E-02-6.09173E-01 1.75563E-14 3.61781E-14
 -1      1922 2.27586E+01-7.72409E-02-1.13014E-04-6.71925E-01 9.78779E-14 1.09297E-13
 -1      1923 2.27086E+01-2.55089E-01-1.59033E-03-7.23892E-01-5.55107E-14 3.94623E-13
 -1      1924 2.25488E+01-3.59107E-02-4.40211E-03-7.08478E-01 1.76528E-13 1.05172E-13
 -1      1925 2.23095E+01 5.85467E-04 2.67605E-04-7.19864E-01 1.95345E-13 2.36469E-13
 -1      1926 2.22901E+01-9.22857E-02-2.34726E-03-8.79894E-01 1.01229E-13 4.23108E-13
 -1      1927 2.21164E+01 2.51733E-02-3.16517E-05-7.08307E-01 3.22285E-14 2.09909E-13
 -1      1928 2.18761E+01 4.43443E-02 6.49752E-04-6.88840E-01-1.12563E-13 1.45986E-13
 -1      1929 2.18904E+01 1.37977E-02-2.54274E-03-9.02895E-01 9.20174E-14 3.14294E-13
 -1      1930 2.17041E+01 5.65614E-02 2.62891E-03-6.50931E-01-1.80103E-13 2.12508E-14
 -1      1931 2.14813E+01 6.40182E-02 9.69453E-04-6.16158E-01-1.26434E-13 5.71930E-14
 -1      1932 2.15253E+01 7.20539E-02-2.53405E-03-8.45408E-01-2.08741E-13 2.96964E-13
 -1      1933 2.13319E+01 6.83351E-02 3.94823E-03-5.66930E-01-6.16876E-14 2.28435E-13
 -1      1934 2.11361E+01 6.89062E-02 1.19505E-03-5.26936E-01 4.04902E-14 2.55003E-13
 -1      1935 2.12024E+01 9.70988E-02-2.44310E-03-7.47240E-01 2.77675E-15 3.65400E-13
 -1      1936 2.10092E+01 6.88120E-02 4.36306E-03-4.75531E-01 1.37341E-13 2.45434E-13
 -1      1937 2.08436E+01 6.59940E-02 1.33986E-03-4.35991E-01 1.19412E-14 3.75202E-13
 -1      1938 2.09241E+01 1.02114E-01-2.30353E-03-6.34580E-01 9.98962E-15 4.06283E-13
 -1      1939 2.07380E+01 6.39173E-02 4.23670E-03-3.87180E-01-3.57147E-14 5.07753E-13
 -1      1940 2.06024E+01 6.00470E-02 1.44061E-03-3.50646E-01 2.22941E-13 6.44351E-13
 -1      1941 2.06895E+01 9.68921E-02-2.12639E-03-5.22557E-01 7.40098E-14 6.54917E-13
 -1      1942 2.05161E+01 5.75935E-02 3.81983E-03-3.06215E-01 2.19922E-13 4.57803E-13
 -1      1943 2.04087E+01 5.41579E-02 1.51954E-03-2.73167E-01 2.58448E-13 5.10076E-13
 -1      1944 2.04960E+01 8.80817E-02-1.92301E-03-4.18354E-01 1.63646E-13 7.07124E-13
 -1      1945 2.03397E+01 5.23318E-02 3.24795E-03-2.33032E-01 2.21270E-14 3.01609E-13
 -1      1946 2.02580E+01 5.02396E-02 1.57897E-03-2.02700E-01-3.40876E-14 5.41708E-14
 -1      1947 2.03397E+01 7.99211E-02-1.70374E-03-3.23873E-01-3.65295E-14 1.81093E-13
 -1      1948 2.02037E+01 4.94225E-02 2.53906E-03-1.65729E-01 6.89034E-14-8.18513E-14
 -1      1949 2.01456E+01 4.86721E-02 1.55958E-03-1.36848E-01 1.03726E-15-1.08042E-13
 -1      1950 2.02164E+01 7.50016E-02-1.37050E-03-2.37964E-01-1.95343E-13 7.81372E-14
 -1      1951 2.01078E+01 4.72976E-02 1.95573E-03-1.03952E-01 2.94972E-14-2.14174E-13
 -1      1952 2.00696E+01 4.61299E-02 1.61609E-03-7.70750E-02 4.88591E-14-4.41324E-14
 -1      1953 2.00610E+01 6.22984E-02-1.08480E-03-9.19564E-02-1.08529E-13-5.19335E-14
 -1      1954 2.01248E+01 7.03780E-02-1.67184E-03-1.60399E-01-4.18965E-14-4.34975E-14
 -1      1955 1.96009E+01 1.42634E-01 7.92413E-03 2.58623E-01 1.44464E-13 1.40159E-13
 -1      1956 1.98725E+01 2.04548E-01 1.64769E-02 4.31937E-01 1.52062E-13 1.97268E-13
 -1      1957 2.00872E+01 3.51101E-01-1.55631E-03 6.54254E-01 1.78281E-13 1.22530E-13
 -1      1958 1.93613E+01 7.30105E-02 7.02265E-03 5.40512E-02 1.13679E-13 7.38385E-14
 -1      1959 1.94751E+01 1.02688E-01 1.42702E-02 1.43227E-01 1.02587E-13 1.05757E-13
 -1      1960 1.96968E+01 1.66318E-01-1.99109E-03 2.53974E-01 1.43502E-13 6.19053E-14
 -1      1961 1.92757E+01 3.79603E-02 4.55007E-03-5.41152E-02 6.18876E-14 7.20903E-14
 -1      1962 1.93035E+01 5.34892E-02 8.45376E-03-5.75045E-03 8.36766E-14 6.47681E-14
 -1      1963 1.95005E+01 8.26474E-02-2.89818E-03 3.92830E-02 1.04459E-13 1.70103E-14
 -1      1964 1.92822E+01 1.89926E-02 3.04304E-03-1.10842E-01 2.76589E-14 2.86470E-14
 -1      1965 1.92628E+01 2.74800E-02 4.52475E-03-8.43706E-02 4.49182E-14 5.88600E-14
 -1      1966 1.94280E+01 4.06100E-02-2.95262E-03-7.69630E-02 4.47199E-14 4.65730E-15
 -1      1967 1.93426E+01 8.66515E-03 2.25222E-03-1.39215E-01 8.23558E-14-3.28990E-15
 -1      1968 1.92975E+01 1.32086E-02 2.39123E-03-1.24998E-01 4.65386E-14 2.61063E-14
 -1      1969 1.94318E+01 1.83526E-02-2.47295E-03-1.39061E-01 6.30968E-14-2.16476E-14
 -1      1970 1.94342E+01 3.59538E-03 1.82150E-03-1.52417E-01 7.00212E-14-2.19780E-14
 -1      1971 1.93752E+01 5.71313E-03 1.28466E-03-1.44873E-01 6.96145E-14-2.38586E-14
 -1      1972 1.94821E+01 6.85923E-03-1.91965E-03-1.71082E-01 8.77271E-14-5.13528E-14
 -1      1973 1.95445E+01 2.04094E-03 1.58577E-03-1.58787E-01 3.90836E-14-5.83984E-14
 -1      1974 1.94777E+01 2.57478E-03 7.27817E-04-1.54319E-01 6.03630E-14-1.04598E-14
 -1      1975 1.95610E+01 1.97920E-03-1.48289E-03-1.87386E-01 5.85003E-14-2.19638E-14
 -1      1976 1.96674E+01 3.01360E-03 1.48630E-03-1.64035E-01-5.53661E-14-6.20458E-14
 -1      1977 1.95956E+01 2.46983E-03 4.87486E-04-1.60123E-01-6.90303E-15-6.67681E-14
 -1      1978 1.96583E+01 1.55346E-03-1.19897E-03-1.97317E-01 1.71670E-14-1.61459E-15
 -1      1979 1.98020E+01 5.90598E-03 1.50037E-03-1.72325E-01 9.80116E-15-3.96817E-14
 -1      1980 1.97251E+01 4.61287E-03 4.50014E-04-1.67080E-01-5.03926E-15-6.56378E-14
 -1      1981 1.97695E+01 4.34913E-03-1.05289E-03-2.07399E-01-1.23758E-14-3.01697E-14
 -1      1982 1.99503E+01 1.03061E-02 1.61357E-03-1.86824E-01 6.86222E-14-9.45303E-14
 -1      1983 1.98668E+01 8.49745E-03 5.51105E-04-1.78760E-01 2.68865E-14-6.85720E-14
 -1      1984 1.98940E+01 9.59534E-03-1.02199E-03-2.22435E-01 4.50627E-14-6.28870E-14
 -1      1985 2.01172E+01 1.58771E-02 1.80922E-03-2.09972E-01 1.73164E-13-1.70019E-13
 -1      1986 2.00240E+01 1.37486E-02 7.46131E-04-1.97899E-01 1.21947E-13-1.20910E-13
 -1      1987 2.00340E+01 1.67405E-02-1.08679E-03-2.46069E-01 1.49851E-13-1.04508E-13
 -1      1988 2.03092E+01 2.22464E-02 2.06052E-03-2.43537E-01 1.06378E-14-1.50189E-13
 -1      1989 2.02023E+01 2.00080E-02 9.96204E-04-2.26538E-01 9.06032E-14-1.65247E-13
 -1      1990 2.01939E+01 2.52798E-02-1.23146E-03-2.81012E-01 9.96016E-14-1.04144E-13
 -1      1991 2.05338E+01 2.88685E-02 2.32083E-03-2.88447E-01-2.65916E-14-1.46706E-13
 -1      1992 2.04088E+01 2.68070E-02 1.25897E-03-2.65967E-01-6.97424E-15-1.51541E-13
 -1      1993 2.03794E+01 3.45780E-02-1.44218E-03-3.29016E-01 9.57654E-15-1.02651E-13
 -1      1994 2.07986E+01 3.48301E-02 2.51092E-03-3.44348E-01-1.19135E-14-1.57395E-13
 -1      1995 2.06510E+01 3.33956E-02 1.48023E-03-3.16411E-01-1.20355E-14-1.38188E-13
 -1      1996 2.05968E+01 4.36382E-02-1.70438E-03-3.90531E-01-1.75826E-14-1.19590E-13
 -1      1997 2.11100E+01 3.85809E-02 2.50448E-03-4.08771E-01 3.59307E-14-1.30354E-13
 -1      1998 2.09364E+01 3.85008E-02 1.58576E-03-3.76395E-01 2.26108E-14-1.16322E-13
 -1      1999 2.08521E+01 5.07781E-02-1.99855E-03-4.63989E-01 4.62462E-14-2.39088E-14
 -1      2000 2.14709E+01 3.75885E-02 2.11772E-03-4.75785E-01-9.29710E-14-5.23600E-14
 -1      2001 2.12699E+01 4.00036E-02 1.47589E-03-4.41659E-01 1.66815E-15-6.07639E-14
 -1      2002 2.11500E+01 5.31978E-02-2.29368E-03-5.44565E-01-5.33896E-14-2.68954E-14
 -1      2003 2.18778E+01 2.79917E-02 1.11919E-03-5.34089E-01-8.82204E-14-1.12347E-13
 -1      2004 2.16525E+01 3.45682E-02 1.02860E-03-5.03556E-01-1.12319E-13-1.30202E-13
 -1      2005 2.14918E+01 4.64807E-02-2.53406E-03-6.22329E-01-6.90168E-14-7.11215E-15
 -1      2006 2.23168E+01 4.51701E-03-7.10390E-04-5.64715E-01-1.03748E-13-1.78794E-14
 -1      2007 2.20770E+01 1.73874E-02 1.21436E-04-5.46985E-01-8.95496E-14-7.56010E-14
 -1      2008 2.18731E+01 2.42431E-02-2.61376E-03-6.79848E-01-1.27017E-13-7.95989E-14
 -1      2009 2.27588E+01-3.87067E-02-3.42786E-03-5.39244E-01-4.65587E-14 6.03597E-15
 -1      2010 2.25243E+01-1.74973E-02-1.31826E-03-5.48395E-01-9.01896E-14-4.21711E-15
 -1      2011 2.22807E+01-2.14701E-02-2.33644E-03-6.89793E-01-1.15192E-13-9.57919E-14
 -1      2012 2.31550E+01-1.05262E-01-6.66461E-03-4.20830E-01 7.01553E-14 1.45572E-13
 -1      2013 2.29580E+01-7.53482E-02-3.23055E-03-4.75428E-01 3.58264E-15 1.06146E-13
 -1      2014 2.26891E+01-9.78097E-02-1.37190E-03-6.14224E-01-1.20242E-14 1.00288E-13
 -1      2015 2.34347E+01-1.90111E-01-9.34063E-03-1.72529E-01-7.93098E-14 1.25275E-13
 -1      2016 2.33194E+01-1.55935E-01-5.34665E-03-2.91521E-01 2.34066E-14 1.49294E-13
 -1      2017 2.30557E+01-2.04889E-01 7.34895E-04-4.09183E-01 1.34996E-14 1.59139E-13
 -1      2018 2.35122E+01-2.69941E-01-9.64290E-03 2.21155E-01-1.58122E-13 1.44731E-13
 -1      2019 2.35279E+01-2.44872E-01-7.14910E-03 2.93586E-02-1.95671E-13 1.34965E-13
 -1      2020 2.33190E+01-3.24593E-01 4.35241E-03-4.04781E-02-1.47624E-13 2.32110E-13
 -1      2021 2.33057E+01-2.96075E-01-5.97074E-03 7.17033E-01 2.37744E-15 2.54779E-13
 -1      2022 2.34909E+01-3.03760E-01-7.96136E-03 4.73521E-01-8.55982E-14 1.47732E-13
 -1      2023 2.34004E+01-4.07629E-01 9.21056E-03 4.83765E-01-9.05196E-14 1.47956E-13
 -1      2024 2.27792E+01-2.06777E-01 5.75587E-04 1.17439E+00 3.31480E-14 2.65586E-13
 -1      2025 2.31358E+01-2.71042E-01-7.17883E-03 9.49127E-01-2.59636E-14 2.54397E-13
 -1      2026 2.32233E+01-3.74098E-01 1.32491E-02 1.06719E+00-3.44186E-14 1.86294E-13
 -1      2027 2.20065E+01 2.22039E-02 4.98352E-03 1.36521E+00 1.06689E-13 4.97527E-13
 -1      2028 2.24727E+01-9.66898E-02-4.48001E-03 1.26956E+00 1.01635E-13 3.88679E-13
 -1      2029 2.27619E+01-1.56769E-01 1.16961E-02 1.49672E+00 4.09455E-14 3.38438E-13
 -1      2030 2.12143E+01 3.18436E-01 2.31300E-03 1.08919E+00-6.15454E-14 4.45814E-13
 -1      2031 2.16596E+01 1.93227E-01 6.52714E-04 1.21661E+00 5.38649E-14 4.48527E-13
 -1      2032 2.21170E+01 2.20141E-01 1.70433E-03 1.50209E+00 7.58543E-14 5.42135E-13
 -1      2033 2.07325E+01 5.17590E-01-5.85404E-03 3.50894E-01 9.72590E-14 3.98673E-13
 -1      2034 2.09934E+01 4.64387E-01 7.92388E-03 6.92123E-01 2.03865E-14 4.12746E-13
 -1      2035 2.15395E+01 5.94336E-01-1.15964E-02 9.32127E-01 8.16239E-14 5.18141E-13
 -1      2036 2.08141E+01 4.80007E-01-1.09627E-02-5.50155E-01 1.13524E-13 1.82483E-13
 -1      2037 2.07745E+01 5.41201E-01 1.37267E-02-1.41648E-01 8.83078E-14 3.02549E-13
 -1      2038 2.13297E+01 7.44157E-01-1.56978E-02-5.75015E-02 1.81657E-13 3.83748E-13
 -1      2039 2.14274E+01 2.36323E-01-7.34481E-03-1.19895E+00-6.57894E-14 1.65010E-13
 -1      2040 2.10982E+01 3.71466E-01 1.29356E-02-9.08683E-01 1.67956E-14 1.40379E-13
 -1      2041 2.16083E+01 5.67957E-01-7.45485E-03-1.01892E+00 8.53068E-14 1.51015E-13
 -1      2042 2.22802E+01-5.37529E-02 1.44974E-03-1.35695E+00-6.81702E-14-3.11539E-14
 -1      2043 2.17967E+01 7.35140E-02 5.39911E-03-1.28338E+00-5.73317E-14 5.97959E-14
 -1      2044 2.22128E+01 1.80291E-01 2.80108E-03-1.52894E+00 2.48668E-14 9.08822E-14
 -1      2045 2.30295E+01-2.41719E-01 8.84789E-03-1.08043E+00 4.51028E-17 2.18174E-13
 -1      2046 2.25664E+01-1.77944E-01-3.83033E-03-1.19248E+00-8.28634E-14 3.02449E-14
 -1      2047 2.28380E+01-1.93707E-01 6.17783E-03-1.46422E+00-1.37664E-13 1.14492E-15
 -1      2048 2.34724E+01-2.90869E-01 1.02875E-02-5.94490E-01 8.80207E-14 1.44499E-13
 -1      2049 2.31553E+01-2.91597E-01-9.99255E-03-7.95403E-01-8.51229E-15 2.78392E-13
 -1      2050 2.32549E+01-3.95375E-01 3.71296E-03-1.00293E+00-3.13681E-14 8.17141E-14
 -1      2051 2.35745E+01-2.43893E-01 7.52756E-03-1.13135E-01 4.20631E-13 1.00385E-13
 -1      2052 2.34463E+01-2.80976E-01-1.17955E-02-3.13528E-01 3.23238E-13 1.70449E-13
 -1      2053 2.33888E+01-4.13319E-01-2.10829E-04-4.17098E-01 2.66698E-13 1.93021E-13
 -1      2054 2.34036E+01-1.60964E-01 3.59097E-03 2.47712E-01 2.69342E-13-9.33550E-14
 -1      2055 2.34430E+01-2.06234E-01-1.02529E-02 9.58810E-02 3.37040E-13 1.20493E-13
 -1      2056 2.32765E+01-3.20484E-01-2.15021E-03 9.28623E-02 4.21805E-13 3.51438E-13
 -1      2057 2.30575E+01-8.21120E-02 4.47707E-04 4.62456E-01-6.10397E-14-2.10602E-13
 -1      2058 2.32145E+01-1.19855E-01-7.18822E-03 3.70328E-01 1.25204E-13-1.99224E-13
 -1      2059 2.29953E+01-1.96723E-01-2.38893E-03 4.42600E-01 2.01438E-13 2.78532E-13
 -1      2060 2.26248E+01-2.37369E-02-1.28209E-03 5.54516E-01-7.39257E-14-1.13597E-13
 -1      2061 2.28465E+01-4.91807E-02-3.93121E-03 5.13020E-01-1.76361E-13-3.14842E-13
 -1      2062 2.26208E+01-8.89356E-02-1.75324E-03 6.30672E-01-9.41530E-14 4.43439E-15
 -1      2063 2.21704E+01 1.26343E-02-1.90083E-03 5.62234E-01-3.23791E-13-1.12203E-13
 -1      2064 2.24148E+01-1.62653E-03-1.22574E-03 5.55952E-01-1.21874E-13-1.28423E-13
 -1      2065 2.22119E+01-1.34957E-02-1.03398E-03 6.93537E-01-1.91771E-13-2.32980E-14
 -1      2066 2.17361E+01 3.16665E-02-1.86217E-03 5.20647E-01-3.72964E-13 2.29059E-13
 -1      2067 2.19751E+01 2.55079E-02 6.64987E-04 5.35294E-01-3.35472E-13 2.48065E-16
 -1      2068 2.18087E+01 3.10833E-02-5.59226E-04 6.74721E-01-3.97129E-13-4.55603E-15
 -1      2069 2.13450E+01 3.91253E-02-1.52358E-03 4.55451E-01-1.67001E-13 3.57046E-13
 -1      2070 2.15624E+01 3.80238E-02 1.79405E-03 4.80436E-01-3.65399E-13 1.81465E-13
 -1      2071 2.14359E+01 5.26786E-02-3.40523E-04 6.10586E-01-3.43354E-13 2.94458E-13
 -1      2072 2.10073E+01 3.98627E-02-1.09326E-03 3.82957E-01-1.15595E-13 4.81810E-13
 -1      2073 2.11956E+01 4.14685E-02 2.33904E-03 4.11491E-01 6.92155E-16 5.38120E-13
 -1      2074 2.11061E+01 5.96104E-02-2.90020E-04 5.26612E-01-1.41518E-13 3.77383E-13
 -1      2075 2.07250E+01 3.74024E-02-6.65989E-04 3.12096E-01 3.53469E-13 3.66837E-13
 -1      2076 2.08823E+01 4.00980E-02 2.49676E-03 3.40430E-01 4.65901E-14 3.86587E-13
 -1      2077 2.08243E+01 5.85004E-02-3.20381E-04 4.38388E-01 1.39055E-13 2.48764E-13
 -1      2078 2.04959E+01 3.41514E-02-2.77383E-04 2.46588E-01 2.83301E-13 3.07622E-13
 -1      2079 2.06230E+01 3.68839E-02 2.42854E-03 2.73170E-01 3.62574E-13 4.15836E-13
 -1      2080 2.05904E+01 5.40289E-02-3.77188E-04 3.53977E-01 3.28280E-13 2.57823E-13
 -1      2081 2.03160E+01 3.16652E-02 3.16191E-05 1.86653E-01 3.52297E-13 1.31956E-13
 -1      2082 2.04149E+01 3.38167E-02 2.23630E-03 2.11469E-01 2.33638E-13 2.62855E-13
 -1      2083 2.04014E+01 4.93216E-02-4.43677E-04 2.76196E-01 2.21728E-13 3.56186E-13
 -1      2084 2.01810E+01 3.07295E-02 1.95179E-04 1.30627E-01 2.26486E-13 3.88823E-14
 -1      2085 2.02540E+01 3.20070E-02 1.93426E-03 1.54520E-01 2.67097E-13 1.04195E-13
 -1      2086 2.02534E+01 4.61159E-02-5.65269E-04 2.04555E-01 3.31390E-13 2.07923E-13
 -1      2087 2.00874E+01 3.13166E-02 6.54036E-04 7.67861E-02-2.08419E-13-3.07777E-14
 -1      2088 2.01354E+01 3.15547E-02 1.44973E-03 1.00508E-01 5.84712E-14 8.29082E-14
 -1      2089 2.01421E+01 4.52194E-02-6.15388E-04 1.37257E-01 4.12996E-14 1.25431E-13
 -1      2090 2.00376E+01 3.03641E-02 1.14767E-03 3.84832E-02 8.93480E-14-8.38328E-14
 -1      2091 2.00660E+01 3.28301E-02 1.01466E-03 6.05030E-02-1.73513E-13-1.18862E-13
 -1      2092 2.00740E+01 4.64077E-02-5.46604E-04 8.61968E-02-1.12105E-13 8.27144E-14
 -1      2093 2.00368E+01 4.45555E-02 5.15064E-05 5.06195E-02 7.99863E-14 1.24449E-13
 -1      2094 2.00043E+01 2.85928E-01-6.56603E-04 1.57917E-01 1.16040E-13-2.88751E-13
 -1      2095 2.00147E+01 2.35372E-01 1.00531E-03 1.52427E-01 2.56986E-13-2.98460E-13
 -1      2096 2.00244E+01 1.87517E-01-1.29702E-04 1.39672E-01 7.60117E-14-1.63747E-13
 -1      2097 2.00334E+01 1.42759E-01 1.22071E-03 1.22761E-01 7.62619E-14 1.75376E-13
 -1      2098 2.00292E+01 2.17819E-01-1.24972E-04 1.88481E-01 6.72778E-14-1.21431E-13
 -1      2099 2.00355E+01 1.08082E-01 2.70055E-04 1.00010E-01 3.35628E-14 1.45787E-14
 -1      2100 2.00397E+01 7.34420E-02 1.04210E-03 7.68142E-02 1.04218E-13 9.32954E-14
 -1      2101 2.00565E+01 7.55767E-02 6.75693E-04 9.55423E-02 4.35307E-15 1.36920E-13
 -1      2102 2.00480E+01 1.37224E-01-5.48302E-04 1.47924E-01-1.03254E-13 2.03231E-13
 -1      2103 1.99855E+01 3.81450E-01-1.20657E-03 1.51494E-01 5.25555E-14-3.49588E-13
 -1      2104 1.99951E+01 3.32489E-01 2.98563E-04 1.56921E-01 1.03765E-13-3.16373E-13
 -1      2105 2.00000E+01 3.11559E-01 3.88824E-04 2.00843E-01 1.67613E-13-4.11403E-13
 -1      2106 1.99696E+01 4.65088E-01-1.67172E-03 1.22223E-01 6.63510E-14 1.00701E-13
 -1      2107 1.99774E+01 4.23262E-01-4.62597E-04 1.37338E-01 3.49377E-14 3.21712E-14
 -1      2108 1.99730E+01 3.99817E-01 9.61989E-04 1.83415E-01 1.37231E-13-1.73071E-13
 -1      2109 1.99587E+01 5.24014E-01-1.93481E-03 7.51019E-02 4.29541E-14 1.85920E-13
 -1      2110 1.99637E+01 4.96240E-01-1.16031E-03 9.72834E-02-1.49851E-14 2.48490E-13
 -1      2111 1.99512E+01 4.72828E-01 1.47099E-03 1.39105E-01 1.77765E-13 6.96014E-14
 -1      2112 1.99539E+01 5.50424E-01-1.94571E-03 1.72421E-02-2.08583E-13-9.94853E-14
 -1      2113 1.99556E+01 5.40692E-01-1.67192E-03 4.31693E-02-9.97562E-14 1.99182E-14
 -1      2114 1.99372E+01 5.20759E-01 1.80810E-03 7.49018E-02-7.47250E-14 4.17445E-14
 -1      2115 1.99555E+01 5.40813E-01-1.68956E-03-4.31078E-02-6.45344E-14 2.72861E-13
 -1      2116 1.99538E+01 5.50535E-01-1.93516E-03-1.71448E-02-2.20720E-13 1.70709E-13
 -1      2117 1.99322E+01 5.37590E-01 1.92924E-03 1.01499E-04-2.90072E-13 9.35777E-14
 -1      2118 1.99635E+01 4.96487E-01-1.19707E-03-9.74043E-02-1.12256E-13 1.84153E-13
 -1      2119 1.99586E+01 5.24331E-01-1.92000E-03-7.51454E-02-1.23482E-13 2.98958E-13
 -1      2120 1.99370E+01 5.21164E-01 1.81042E-03-7.48141E-02-2.25696E-13 2.18513E-13
 -1      2121 1.99770E+01 4.24940E-01-4.87243E-04-1.37183E-01-1.85962E-15-2.13066E-13
 -1      2122 1.99693E+01 4.66056E-01-1.67221E-03-1.22157E-01-1.65141E-13-2.67416E-14
 -1      2123 1.99509E+01 4.74054E-01 1.50637E-03-1.38900E-01-8.22089E-14 5.07466E-14
 -1      2124 1.99950E+01 3.33283E-01 3.03153E-04-1.57283E-01 1.49697E-13 9.94975E-14
 -1      2125 1.99852E+01 3.83175E-01-1.23344E-03-1.51680E-01 7.22765E-14 4.19666E-14
 -1      2126 1.99725E+01 4.01850E-01 9.89700E-04-1.83434E-01 3.39518E-14-1.18621E-13
 -1      2127 2.00149E+01 2.35048E-01 1.00653E-03-1.52810E-01-4.67007E-14-2.21875E-14
 -1      2128 2.00044E+01 2.85811E-01-6.89325E-04-1.58333E-01 9.85958E-14-2.37997E-14
 -1      2129 1.99997E+01 3.12599E-01 2.91389E-04-2.01330E-01 1.28998E-13-1.98364E-14
 -1      2130 2.00332E+01 1.39744E-01 3.90069E-04-1.23168E-01-1.69625E-13-8.23710E-14
 -1      2131 2.00244E+01 1.86892E-01-1.78360E-04-1.39863E-01-1.34968E-13-2.00042E-13
 -1      2132 2.00292E+01 2.18090E-01-8.89900E-05-1.88695E-01-1.29176E-13-1.90620E-13
 -1      2133 9.43321E+00-5.18747E+00-1.04536E-01 6.33375E+00 1.18239E-14 4.46754E-13
 -1      2134 5.94339E+00-6.58584E+00-3.66244E-01 4.98829E+00-7.32747E-15 2.98428E-13
 -1      2135 1.37523E-01-7.28838E+00-4.28403E-01 7.17260E-01 1.22458E-13-2.64011E-13
 -1      2136 2.18223E-01-7.36786E+00-4.34112E-01-7.12948E-01 1.40721E-13-2.18991E-13
 -1      2137 3.48686E+00-6.21053E+00-2.37217E-01 4.08539E+00 2.43694E-14 2.24459E-13
 -1      2138 1.61577E+00-7.04554E+00-3.95825E-01 2.68419E+00 5.11813E-14-1.04028E-13
 -1      2139 6.86210E+00-4.91094E+00-9.13500E-02 5.65406E+00-3.46390E-14 2.97151E-13
 -1      2140 1.76390E+01-3.57599E+00-1.65336E-03 6.88815E+00 1.17462E-13 3.54966E-13
 -1      2141 1.32784E+01-5.35854E+00-2.84401E-01 6.18630E+00-7.93809E-15 5.69794E-13
 -1      2142 2.60306E+01-8.68024E-01 1.41048E-01 6.20149E+00 3.73590E-13 1.77636E-14
 -1      2143 2.12545E+01-2.82536E+00-2.00996E-01 5.85757E+00 2.74336E-13 8.19900E-14
 -1      2144 1.95232E+01 4.01721E+00-2.69885E-02-1.70208E+00-1.55144E-13-2.45441E-13
 -1      2145 1.96482E+01 3.94690E+00-2.46046E-02-1.95348E+00-1.80445E-13-2.12413E-13
 -1      2146 1.99717E+01 3.24803E+00-1.38731E-02-1.91722E+00-1.97779E-13-1.81567E-13
 -1      2147 1.97033E+01 3.58776E+00-7.18279E-03-1.51930E+00-1.53269E-13-2.32514E-13
 -1      2148 3.86650E+01 5.53441E+00 4.52239E-01 1.96658E+00 2.82468E-13-1.24012E-13
 -1      2149 3.50113E+01 4.13761E+00 1.27132E-01 2.26414E+00 3.79807E-13-1.70253E-13
 -1      2150 4.00737E+01 7.02619E+00 3.25619E-01 2.61421E-01 1.01641E-13-1.37904E-13
 -1      2151 3.92679E+01 6.42914E+00 2.82432E-01 1.41741E+00 1.82743E-13-8.44325E-14
 -1      2152 3.51536E+01 6.41810E+00 2.68324E-01-2.64016E-01 2.71005E-13 1.06776E-13
 -1      2153 3.93616E+01 6.73672E+00 2.99716E-01-1.15333E+00 3.33067E-15-2.19880E-13
 -1      2154 4.02412E+01 7.13473E+00 3.45554E-01-1.09822E-01-1.08802E-14-2.96305E-13
 -1      2155 3.63382E+01 4.48100E+00 2.15355E-01-3.14988E+00 1.84575E-13-2.02505E-13
 -1      2156 3.90006E+01 5.49704E+00 3.53340E-01-2.03473E+00 1.80522E-13-1.21181E-13
 -1      2157 3.02237E+01 1.17612E+00-7.01602E-03-4.47571E+00 2.57683E-13-3.14859E-13
 -1      2158 3.45119E+01 2.74787E+00 3.12713E-01-4.09135E+00 2.41092E-13-2.51243E-13
 -1      2159 2.30395E+01-2.33710E+00-1.72278E-01-5.59389E+00 2.46914E-13-1.26954E-13
 -1      2160 2.76891E+01-5.29018E-01 1.59499E-01-5.69861E+00 1.66867E-13-2.87104E-13
 -1      2161 1.48011E+01-4.81746E+00-3.13073E-01-6.14346E+00 3.28071E-13-1.09635E-13
 -1      2162 1.93198E+01-2.97871E+00 3.41355E-03-6.83794E+00 3.04867E-13-1.49880E-14
 -1      2163 7.90435E+00-6.31836E+00-3.30565E-01-5.54226E+00 1.77747E-13-2.26805E-13
 -1      2164 1.14235E+01-4.91891E+00-1.34926E-01-6.45133E+00 3.02647E-13-2.56337E-13
 -1      2165 1.58268E+01-5.48232E+00-6.62402E-02-6.77178E+00 1.31450E-13-5.37209E-14
 -1      2166 2.18487E+00-6.80029E+00-3.72140E-01-3.14447E+00-4.00791E-14-5.45008E-13
 -1      2167 4.44935E+00-5.82599E+00-2.00055E-01-4.70244E+00 7.63278E-14-4.31932E-13
 -1      2168 4.14168E-01-6.82683E+00-3.52321E-01 1.04896E-01-1.54182E-13-6.32605E-13
 -1      2169 7.81540E-01-6.39078E+00-2.81887E-01-1.41405E+00-6.53921E-14-6.20004E-13
 -1      2170 1.86011E+00-6.65698E+00-3.43276E-01 2.97086E+00-1.91402E-13-3.28126E-13
 -1      2171 6.96593E-01-7.20472E+00-3.97393E-01 1.58307E+00-7.49539E-14-5.43010E-13
 -1      2172 1.80644E+00-4.38942E+00-1.75991E-01 1.02117E+00 1.35308E-14-5.52114E-13
 -1      2173 7.39578E+00-5.65876E+00-2.34954E-01 5.62595E+00-2.58238E-13 2.53450E-13
 -1      2174 4.41185E+00-7.08885E+00-4.47621E-01 4.35486E+00-2.18769E-13-3.90243E-14
 -1      2175 1.56418E+01-4.06098E+00-7.81887E-02 6.84374E+00-9.93650E-14 4.20219E-13
 -1      2176 1.13494E+01-5.78781E+00-3.64516E-01 5.91257E+00-2.11831E-13 4.67487E-13
 -1      2177 2.44907E+01-2.52389E+00-5.70191E-02 5.74743E+00 4.24660E-14 3.30236E-13
 -1      2178 1.93936E+01-3.74107E+00-2.23417E-01 5.96072E+00-6.27276E-14 3.58991E-13
 -1      2179 2.00402E+01-5.09290E+00 6.47602E-02 6.20593E+00 4.18554E-14 5.10203E-13
 -1      2180 3.32110E+01 2.09837E+00 3.56662E-01 4.62228E+00-3.19467E-14 1.62315E-13
 -1      2181 2.87243E+01-7.59665E-02 4.65197E-02 4.40624E+00 3.15858E-14 1.95455E-13
 -1      2182 3.83070E+01 4.88923E+00 3.71255E-01 2.49914E+00-4.95159E-14 2.21934E-13
 -1      2183 3.48537E+01 3.59106E+00 1.33605E-01 3.33914E+00-9.82547E-14 2.01394E-13
 -1      2184 4.05449E+01 6.82368E+00 3.69113E-01 4.83711E-01-8.98726E-14 1.95899E-13
 -1      2185 3.90586E+01 6.29996E+00 2.76374E-01 1.62066E+00-1.16129E-13 2.47580E-13
 -1      2186 3.95301E+01 6.94771E+00 2.68867E-01-9.77275E-01-1.79468E-13 4.32765E-13
 -1      2187 4.10434E+01 7.10642E+00 4.22906E-01 5.23268E-02-1.19960E-13 3.57160E-13
 -1      2188 3.66402E+01 4.56090E+00 2.38035E-01-2.84116E+00-1.07692E-13 2.90656E-13
 -1      2189 3.87994E+01 5.66176E+00 3.06073E-01-1.60966E+00-7.02771E-14 4.93494E-13
 -1      2190 3.06485E+01 1.30261E+00 8.32973E-03-4.27147E+00 1.47521E-14 2.10720E-13
 -1      2191 3.50565E+01 2.94336E+00 3.25736E-01-4.00776E+00-2.66133E-14 2.72449E-13
 -1      2192 2.25463E+01-2.35774E+00-1.78105E-01-5.70646E+00 7.32747E-14 1.41442E-13
 -1      2193 2.76357E+01-5.47576E-01 1.46497E-01-5.75323E+00 2.33147E-15 1.47327E-13
 -1      2194 1.41857E+01-5.18175E+00-3.10308E-01-6.08777E+00-5.07372E-14 2.42029E-13
 -1      2195 1.89419E+01-3.27510E+00 5.02522E-03-6.85973E+00 1.11022E-16 1.76081E-13
 -1      2196 6.67974E+00-6.38940E+00-3.08672E-01-5.30858E+00-2.06501E-13 2.10082E-13
 -1      2197 9.97413E+00-5.18090E+00-1.88218E-01-6.24510E+00-1.45439E-13 3.23429E-13
 -1      2198 9.57826E-01-7.70773E+00-5.45061E-01-2.14785E+00-2.23155E-14 2.67397E-13
 -1      2199 2.87529E+00-6.46426E+00-3.62319E-01-3.77912E+00-2.79554E-13 4.08396E-13
 -1      2200 1.73564E+00-5.03574E+00-2.23821E-01-1.84422E+00-1.28647E-14 1.77081E-13
 -1      2201 3.29124E+01 1.80966E+00 1.40724E-01 3.71295E+00 4.03070E-13-2.32314E-13
 -1      2202 2.88750E+01 4.48141E-01 9.53893E-03 4.82000E+00 4.21496E-13-1.69864E-14
 -1      2203 2.84371E+01-1.81301E+00 1.24082E-01 3.65459E+00 2.18991E-13-2.64788E-13
 -1      2204 2.07193E+01 1.10844E+00-2.07223E-02-1.61585E+00-1.88228E-13 1.38899E-13
 -1      2205 3.22150E+01 2.79230E+00-1.75321E-01-6.68837E-01 2.48579E-13-1.06276E-13
 -1      2206 3.33783E+01 2.37574E+00 1.22391E-01 1.58384E+00 3.10245E-13-2.27096E-13
 -1      2207 3.12519E+01 6.80350E-01 9.83873E-02 6.09577E-01 2.56892E-13-3.07032E-13
 -1      2208 2.06144E+01 1.33028E+00-1.87005E-02-1.67714E+00-2.00680E-13 1.99250E-14
 -1      2209 2.28385E+00-4.75131E+00-1.79245E-01 2.32149E+00 4.06619E-14-2.46192E-13
 -1      2210 1.36044E+01-5.52228E+00-5.76746E-02 6.76821E+00-1.16407E-13 4.02553E-13
 -1      2211 2.00428E+01 1.14865E-01 7.08167E-04-1.16726E-01-2.21293E-13 3.57782E-14
 -1      2212 2.17504E+01-4.58338E+00 9.16935E-05 5.85059E+00 6.07847E-14 1.02862E-13
 -1      2213 6.07032E+00-5.64360E+00-1.62484E-01-5.10013E+00-2.67897E-13 5.98133E-14
 -1      2214 9.18935E+00-4.85009E+00-1.28882E-01-6.41908E+00-1.04361E-13-7.85205E-14
 -1      2215 5.69232E+00-4.06790E+00 7.18843E-02-4.91947E+00-1.92291E-13 2.73837E-13
 -1      2216 1.48605E+01-5.58999E+00-5.25840E-02-6.79332E+00 4.71845E-15 7.15990E-14
 -1      2217 2.29971E+01-4.45496E+00 4.03755E-02-5.45999E+00 1.25233E-13 6.44484E-14
 -1      2218 2.98269E+01-1.07945E+00 1.46555E-01-3.04616E+00 7.14845E-14 2.17992E-13
 -1      2219 3.41810E+01 3.26210E+00 2.78775E-01-8.82331E-01 5.20695E-14 2.67508E-13
 -1      2220 3.62742E+01 6.76200E+00 3.15637E-01 3.00801E-02-9.34253E-14 4.52888E-13
 -1      2221 3.64148E+01 8.02252E+00 3.56849E-01-1.11566E-01-1.53766E-13 2.61346E-13
 -1      2222 3.55959E+01 5.88876E+00 3.15216E-01 2.43859E-02-7.25531E-14 2.05780E-13
 -1      2223 2.72134E+01-2.21578E+00 3.62291E-02 4.21145E+00 1.14908E-13 2.46525E-13
 -1      2224 2.60585E+01-3.98590E+00 1.49113E-01 3.98813E+00 1.18600E-13 3.30208E-13
 -1      2225 2.90018E+01-2.33483E+00-1.66283E-01 2.23275E+00 1.62301E-13 2.50411E-13
 -1      2226 4.68465E+00-5.23915E+00-1.78459E-01 4.57883E+00 8.21565E-14-1.11855E-13
 -1      2227 8.17781E+00-5.30087E+00-1.14852E-01-5.96489E+00 3.81917E-14-3.48999E-13
 -1      2228 2.34582E+01-4.26839E+00 5.30464E-02-5.39603E+00 2.06890E-13-6.32272E-14
 -1      2229 2.97125E+01-1.26372E+00 1.38227E-01-2.86929E+00 1.59123E-13-2.46247E-13
 -1      2230 3.40325E+01 3.03379E+00 2.80929E-01-1.04805E+00 2.22225E-13-1.06248E-13
 -1      2231 3.61611E+01 7.93109E+00 3.09815E-01-2.22665E-02 1.21181E-13-4.90302E-14
 -1      2232 3.60495E+01 6.62417E+00 3.33438E-01-1.14212E-01 6.29496E-14-1.03140E-13
 -1      2233 3.01324E+00-4.35342E+00-1.15074E-01-2.83181E+00-1.19404E-13-6.03073E-13
 -1      2234 1.18574E+01-5.62911E+00-8.69502E-02 6.69582E+00-6.66134E-14 5.80078E-13
 -1      2235 3.31250E+01 1.95105E+00 1.79019E-01 1.37908E+00-1.25316E-14 3.17191E-13
 -1      2236 2.01370E+01 5.07971E-01 3.82313E-03 6.76162E-01 1.73320E-13 2.52285E-14
 -1      2237 2.04039E+01 7.01005E-01 2.08042E-02 9.68402E-01 1.87747E-13 4.74820E-14
 -1      2238 1.95729E+01 3.52411E+00-1.11208E-02-5.89670E-01-7.52088E-14-2.51667E-13
 -1      2239 1.96075E+01 3.47772E+00-1.04043E-02-7.73630E-01-1.06727E-13-2.65322E-13
 -1      2240 1.96528E+01 3.38870E+00-1.26890E-02-9.37803E-01-1.17246E-13-2.63751E-13
 -1      2241 1.97125E+01 3.30693E+00-1.25920E-02-1.12697E+00-1.36129E-13-2.55855E-13
 -1      2242 1.97977E+01 3.04205E+00 2.69378E-04-7.89281E-01-1.10297E-13-2.44708E-13
 -1      2243 1.95268E+01 3.60786E+00-9.65231E-03 9.91502E-02 9.22034E-15-2.34581E-13
 -1      2244 1.95262E+01 3.60870E+00-9.65138E-03-7.98077E-02-1.86193E-14-2.35446E-13
 -1      2245 1.95523E+01 3.56784E+00-9.73690E-03 4.44131E-01 4.59304E-14-2.59151E-13
 -1      2246 1.95353E+01 3.59075E+00-1.01855E-02 2.63757E-01 2.28876E-14-2.54019E-13
 -1      2247 1.96925E+01 3.23281E+00-8.15707E-04 1.68775E-01 1.14032E-14-2.32050E-13
 -1      2248 1.96127E+01 3.46999E+00-1.06050E-02 7.87355E-01 9.31698E-14-2.44192E-13
 -1      2249 1.95773E+01 3.51758E+00-1.12618E-02 6.06219E-01 6.60527E-14-2.54122E-13
 -1      2250 1.97286E+01 3.16832E+00-4.18698E-04 4.85899E-01 3.89174E-14-2.35393E-13
 -1      2251 1.97206E+01 3.29439E+00-1.29304E-02 1.14041E+00 1.49658E-13-2.16580E-13
 -1      2252 1.96595E+01 3.37848E+00-1.29228E-02 9.51244E-01 1.23761E-13-2.32030E-13
 -1      2253 1.98039E+01 3.03286E+00 3.33603E-04 8.00704E-01 1.05921E-13-2.06064E-13
 -1      2254 1.98955E+01 3.00679E+00-1.81375E-02 1.48766E+00 1.93301E-13-1.82557E-13
 -1      2255 1.97983E+01 3.14886E+00-1.52161E-02 1.29716E+00 1.65394E-13-2.01560E-13
 -1      2256 1.99302E+01 2.80541E+00 1.99729E-03 1.10671E+00 1.50555E-13-1.92313E-13
 -1      2257 2.01679E+01 2.54537E+00-2.83885E-02 1.79268E+00 2.32140E-13-1.21025E-13
 -1      2258 2.00200E+01 2.78545E+00-1.70985E-02 1.61794E+00 2.09568E-13-1.52713E-13
 -1      2259 2.01203E+01 2.45236E+00 5.83780E-03 1.37288E+00 1.96151E-13-1.51268E-13
 -1      2260 4.44166E+00-2.92655E+00 6.46625E-02 3.39279E+00-3.70537E-15-1.82521E-13
 -1      2261 3.04579E+00-2.95172E+00 6.69061E-02 1.04331E+00-7.10057E-14-2.32314E-13
 -1      2262 1.98629E+01 2.71025E-01 4.88006E-03 2.81241E-01 1.50636E-13-1.19609E-14
 -1      2263 2.00219E+01 3.70074E-01 2.02046E-02 4.39583E-01 1.64618E-13 1.68719E-14
 -1      2264 2.02044E+01 6.37162E-01-2.34109E-03 7.01322E-01 1.86310E-13-5.16323E-14
 -1      2265 2.03934E+01 8.56842E-01 1.29672E-02-9.98639E-01-1.58075E-13-4.54836E-14
 -1      2266 2.01839E+01 6.30757E-01-3.89859E-03-6.87631E-01-1.42722E-13-4.34229E-14
 -1      2267 2.01192E+01 4.72634E-01 1.61278E-02-4.70689E-01-1.40355E-13-2.86523E-14
 -1      2268 1.99801E+01 3.49027E-01 2.05704E-04-2.97392E-01-1.38019E-13-4.19929E-14
 -1      2269 2.02424E+01 7.49468E-01-1.81486E-03-6.89282E-01-1.47012E-13-7.83987E-14
 -1      2270 1.99187E+01 2.65300E-01 1.08934E-02-1.57256E-01-1.14278E-13-2.97759E-14
 -1      2271 1.98430E+01 1.95367E-01 9.47892E-04-5.73744E-02-8.82176E-14-6.75732E-14
 -1      2272 2.00810E+01 4.23443E-01-3.84286E-03-3.00948E-01-1.19794E-13-6.39143E-14
 -1      2273 1.98015E+01 1.47517E-01 6.41131E-03 2.85234E-02-8.17426E-14-4.14875E-14
 -1      2274 1.97713E+01 1.07298E-01 1.07673E-03 8.58549E-02-8.45636E-14-6.16094E-14
 -1      2275 1.99655E+01 2.38273E-01-3.80689E-03-5.51048E-02-8.66255E-14-6.60620E-14
 -1      2276 1.97494E+01 7.95801E-02 3.61094E-03 1.37148E-01-7.46772E-14-6.95158E-14
 -1      2277 1.97493E+01 5.68501E-02 1.11996E-03 1.69524E-01-5.45682E-14-7.34872E-14
 -1      2278 1.98970E+01 1.31237E-01-3.14586E-03 9.57329E-02-9.02224E-14-8.64678E-14
 -1      2279 1.97433E+01 4.14559E-02 1.89799E-03 1.99662E-01-7.88781E-14-1.07772E-13
 -1      2280 1.97628E+01 2.98627E-02 1.17844E-03 2.17945E-01-6.86745E-14-1.30362E-13
 -1      2281 1.98675E+01 7.02042E-02-2.39898E-03 1.86389E-01-9.03377E-14-1.24663E-13
 -1      2282 1.97687E+01 2.26277E-02 8.45256E-04 2.36207E-01-4.83136E-14-1.65169E-13
 -1      2283 1.98014E+01 1.86217E-02 1.28555E-03 2.47546E-01-4.32793E-14-1.55553E-13
 -1      2284 1.98676E+01 3.83462E-02-1.78612E-03 2.41060E-01-8.16057E-14-2.18510E-13
 -1      2285 1.98161E+01 1.71399E-02 2.02767E-04 2.60512E-01-4.48059E-14-1.44740E-13
 -1      2286 1.98584E+01 1.86071E-02 1.46131E-03 2.69897E-01-5.62326E-14-1.35394E-13
 -1      2287 1.98895E+01 2.62769E-02-1.35353E-03 2.76729E-01-4.87923E-14-2.11296E-13
 -1      2288 1.98801E+01 2.13886E-02-1.75244E-04 2.82385E-01-6.48886E-14-1.31953E-13
 -1      2289 1.99305E+01 2.69940E-02 1.71412E-03 2.93468E-01-5.15755E-14-1.50560E-13
 -1      2290 1.99280E+01 2.84110E-02-1.08207E-03 3.05632E-01-6.28760E-14-1.83625E-13
 -1      2291 1.99582E+01 3.30492E-02-3.80414E-04 3.09104E-01-3.56840E-14-1.43205E-13
 -1      2292 2.00167E+01 4.18805E-02 2.04190E-03 3.24647E-01-1.08922E-14-1.47082E-13
 -1      2293 1.99799E+01 4.12080E-02-9.37652E-04 3.36835E-01-4.33129E-14-2.00053E-13
 -1      2294 2.00503E+01 5.04704E-02-4.73091E-04 3.46204E-01-2.06947E-15-1.18369E-13
 -1      2295 2.01179E+01 6.17941E-02 2.43170E-03 3.68302E-01 1.29799E-14-6.40513E-14
 -1      2296 2.00442E+01 6.22219E-02-8.87189E-04 3.77200E-01 7.73253E-16-9.29047E-14
 -1      2297 2.01577E+01 7.22317E-02-4.92255E-04 3.97865E-01 3.69518E-15-9.52944E-14
 -1      2298 2.02364E+01 8.52697E-02 2.85608E-03 4.28005E-01 2.44179E-15-9.30166E-14
 -1      2299 2.01210E+01 8.94606E-02-9.02788E-04 4.31913E-01 1.64230E-14-8.85028E-14
 -1      2300 2.02833E+01 9.67081E-02-4.58900E-04 4.66963E-01-1.38691E-14-1.18900E-13
 -1      2301 2.03753E+01 1.10373E-01 3.26558E-03 5.05913E-01-4.10263E-14-1.36157E-13
 -1      2302 2.02116E+01 1.20807E-01-9.63947E-04 5.04665E-01-2.39067E-14-1.49941E-13
 -1      2303 2.04308E+01 1.21530E-01-3.74629E-04 5.54786E-01-8.00959E-14-1.33813E-13
 -1      2304 2.05384E+01 1.34066E-01 3.57738E-03 6.02270E-01-9.25062E-14-9.84197E-14
 -1      2305 2.03181E+01 1.53341E-01-1.06183E-03 5.97486E-01-5.92183E-14-1.35775E-13
 -1      2306 2.06043E+01 1.42845E-01-2.15615E-04 6.60314E-01-1.23076E-13-1.47324E-13
 -1      2307 2.07298E+01 1.51332E-01 3.66088E-03 7.14429E-01-7.43627E-14-1.80834E-13
 -1      2308 2.04436E+01 1.82445E-01-1.20764E-03 7.10183E-01-1.43672E-13-1.19714E-13
 -1      2309 2.08089E+01 1.54308E-01 7.79874E-05 7.78940E-01-4.67448E-15-2.20440E-13
 -1      2310 2.09533E+01 1.54029E-01 3.32207E-03 8.35224E-01 2.21757E-14-1.95312E-13
 -1      2311 2.05921E+01 2.00580E-01-1.44697E-03 8.39267E-01-7.80817E-14-8.94433E-14
 -1      2312 2.10498E+01 1.45835E-01 6.14963E-04 9.00482E-01-1.36946E-14-1.91199E-13
 -1      2313 2.12133E+01 1.29600E-01 2.29067E-03 9.50617E-01-2.23692E-14-2.02574E-13
 -1      2314 2.07693E+01 1.95756E-01-1.87971E-03 9.76254E-01-5.32574E-15-2.03055E-13
 -1      2315 2.13339E+01 1.02427E-01 1.55575E-03 1.00639E+00 5.36699E-14-1.76709E-13
 -1      2316 2.15143E+01 6.02725E-02 2.25425E-04 1.03665E+00 7.18619E-14-1.57772E-13
 -1      2317 2.09840E+01 1.49990E-01-2.67781E-03 1.10521E+00 3.25186E-14-1.64376E-13
 -1      2318 2.16690E+01 4.09291E-03 3.08887E-03 1.06630E+00 4.35227E-14-1.81630E-13
 -1      2319 2.18613E+01-7.56147E-02-3.22206E-03 1.05625E+00 1.22701E-13-1.96874E-13
 -1      2320 2.12502E+01 3.88062E-02-4.06465E-03 1.19949E+00 5.03161E-14-1.00670E-13
 -1      2321 2.20638E+01-1.70695E-01 5.30303E-03 1.03488E+00 1.58518E-13-1.73427E-13
 -1      2322 2.22586E+01-2.96669E-01-8.25616E-03 9.57772E-01 1.09656E-13-1.53760E-13
 -1      2323 2.15883E+01-1.65570E-01-6.17021E-03 1.21807E+00 1.29221E-13-2.00251E-13
 -1      2324 2.25229E+01-4.33578E-01 7.77818E-03 8.51985E-01 5.56061E-14-1.19612E-13
 -1      2325 2.27037E+01-6.00577E-01-1.45476E-02 6.79424E-01 1.17671E-14-5.92012E-14
 -1      2326 2.20239E+01-4.82114E-01-8.73942E-03 1.10298E+00 1.06828E-13-2.21463E-13
 -1      2327 2.30337E+01-7.61217E-01 9.22814E-03 4.52073E-01-1.88846E-15-7.65301E-14
 -1      2328 2.31732E+01-9.30129E-01-2.02310E-02 1.67489E-01 3.66773E-14-4.16423E-14
 -1      2329 2.25778E+01-8.93995E-01-1.06543E-02 7.82349E-01 2.60664E-14-1.35936E-13
 -1      2330 2.35382E+01-1.05485E+00 6.43719E-03-2.03224E-01 1.43130E-14-1.30239E-13
 -1      2331 2.36003E+01-1.13007E+00-1.99611E-02-5.78132E-01 2.49631E-14-1.61047E-13
 -1      2332 2.32373E+01-1.29759E+00-8.73900E-03 1.89516E-01-3.89080E-14-1.29711E-13
 -1      2333 2.39055E+01-1.10472E+00-3.04928E-03-1.04982E+00 5.34121E-15-1.63484E-13
 -1      2334 2.38556E+01-9.52842E-01-9.20743E-03-1.41521E+00-3.45843E-14-1.46434E-13
 -1      2335 2.39037E+01-1.45265E+00 1.03536E-03-6.74849E-01-8.29740E-15-2.02997E-13
 -1      2336 2.39619E+01-6.63362E-01-2.43715E-02-1.82781E+00-6.03337E-15-7.68756E-14
 -1      2337 2.38027E+01-1.98554E-01 9.06786E-03-2.00375E+00 4.55573E-14-1.23093E-14
 -1      2338 2.43684E+01-1.03714E+00 1.28635E-02-1.62837E+00 1.27705E-14-2.28114E-13
 -1      2339 2.36315E+01 3.61073E-01-4.23024E-02-2.07076E+00 1.59595E-16-3.48402E-14
 -1      2340 2.34295E+01 9.91644E-01 2.02774E-02-1.86104E+00-2.85362E-14-1.71388E-13
 -1      2341 2.43969E+01 1.08986E-01 3.45100E-03-2.20583E+00-2.81337E-14-7.82829E-14
 -1      2342 2.31450E+01 1.54063E+00-3.77288E-02-1.37460E+00-3.40995E-14-9.66215E-14
 -1      2343 2.30256E+01 1.93315E+00 5.45398E-03-7.75914E-01-3.97148E-14-6.92508E-14
 -1      2344 2.40297E+01 1.63486E+00-1.87933E-02-1.83035E+00-3.31055E-14-5.69059E-14
 -1      2345 2.29501E+01 2.06123E+00-8.95005E-03 8.01676E-02-1.58207E-14-5.01095E-14
 -1      2346 2.29977E+01 1.90090E+00-2.72260E-02 7.70986E-01 1.98869E-14 6.36713E-14
 -1      2347 2.37081E+01 2.55948E+00-4.16622E-02-4.00690E-01-4.63726E-14 5.87369E-14
 -1      2348 2.32248E+01 1.49826E+00 1.65193E-02 1.47410E+00-6.88338E-15 1.06308E-13
 -1      2349 2.34028E+01 9.17964E-01-4.52461E-02 1.87708E+00 2.37102E-14 1.78666E-13
 -1      2350 2.38452E+01 2.18360E+00-3.31446E-02 1.28447E+00 1.11230E-14 5.32413E-14
 -1      2351 2.36631E+01 3.14586E-01 1.70468E-02 2.05065E+00 3.56859E-14 6.42342E-14
 -1      2352 2.38531E+01-2.61344E-01-3.32964E-02 2.03132E+00 7.22554E-14 1.24365E-13
 -1      2353 2.42626E+01 8.05861E-01-2.85936E-03 2.17826E+00-2.53495E-14 4.04052E-14
 -1      2354 2.38736E+01-6.87987E-01-1.09794E-03 1.73678E+00-8.07839E-16 4.28197E-14
 -1      2355 2.39764E+01-9.80536E-01-1.15822E-02 1.42988E+00-7.63074E-14-2.22120E-15
 -1      2356 2.44420E+01-6.01675E-01 1.34707E-02 1.96752E+00-3.69934E-14-6.94002E-14
 -1      2357 2.37421E+01-1.11382E+00-1.67180E-02 9.55288E-01 1.34931E-14 1.09062E-13
 -1      2358 2.37271E+01-1.12367E+00 3.34768E-03 5.66746E-01 4.19534E-14 2.58381E-13
 -1      2359 2.41522E+01-1.35582E+00 6.59707E-03 1.10942E+00 1.51661E-14 1.72638E-15
 -1      2360 2.33728E+01-1.04967E+00-2.09816E-02 1.39187E-01 1.28925E-14 3.35009E-13
 -1      2361 2.32626E+01-9.07365E-01 8.92764E-03-1.92273E-01 2.93975E-14 4.26603E-13
 -1      2362 2.35440E+01-1.41747E+00-4.97504E-03 1.66969E-01 8.44173E-14 3.68179E-13
 -1      2363 2.29100E+01-7.52243E-01-1.72515E-02-4.83582E-01-4.44532E-14 5.03242E-13
 -1      2364 2.27432E+01-5.76491E-01 8.75107E-03-7.05953E-01-8.72280E-14 5.42402E-13
 -1      2365 2.28619E+01-1.08700E+00-1.01571E-02-5.55759E-01 8.24667E-14 4.62119E-13
 -1      2366 2.24485E+01-4.24405E-01-1.09948E-02-8.61864E-01-1.36240E-13 5.70872E-13
 -1      2367 2.22573E+01-2.77471E-01 6.45549E-03-9.78364E-01-7.22298E-14 5.45917E-13
 -1      2368 2.22551E+01-6.58587E-01-9.79106E-03-9.92208E-01-1.01284E-13 5.94337E-13
 -1      2369 2.20286E+01-1.62647E-01-5.30703E-03-1.03256E+00-1.02791E-14 4.17971E-13
 -1      2370 2.18339E+01-6.21148E-02 4.07313E-03-1.06849E+00-6.27916E-15 3.27495E-13
 -1      2371 2.17678E+01-2.92390E-01-7.39114E-03-1.18957E+00-7.33755E-14 5.06655E-13
 -1      2372 2.16600E+01 1.11687E-02-1.13483E-03-1.05707E+00 7.67944E-14 1.87259E-13
 -1      2373 2.14742E+01 6.96721E-02 2.29104E-03-1.04077E+00 1.80898E-14 1.83411E-13
 -1      2374 2.13899E+01-3.70634E-02-4.99853E-03-1.22107E+00-9.21289E-14 2.44256E-13
 -1      2375 2.13406E+01 1.09518E-01 1.51540E-03-9.92419E-01-1.22402E-13 2.66767E-13
 -1      2376 2.11708E+01 1.37331E-01 1.17522E-03-9.47126E-01-1.38109E-13 3.35962E-13
 -1      2377 2.10959E+01 1.14930E-01-3.30510E-03-1.15162E+00-5.02506E-14 2.11988E-13
 -1      2378 2.10658E+01 1.54336E-01 2.96582E-03-8.81677E-01-6.44126E-14 3.77851E-13
 -1      2379 2.09155E+01 1.62616E-01 5.72904E-04-8.23680E-01 1.15785E-14 4.13501E-13
 -1      2380 2.08627E+01 1.90062E-01-2.28929E-03-1.02916E+00-2.68750E-14 4.75870E-13
 -1      2381 2.08313E+01 1.65862E-01 3.57188E-03-7.53589E-01-4.36669E-14 4.05753E-13
 -1      2382 2.07019E+01 1.63271E-01 3.07095E-04-6.92985E-01-2.61372E-14 3.82245E-13
 -1      2383 2.06738E+01 2.15446E-01-1.73210E-03-8.85601E-01-3.50383E-14 4.37704E-13
 -1      2384 2.06333E+01 1.59404E-01 3.62932E-03-6.25285E-01 3.46560E-14 3.43015E-13
 -1      2385 2.05246E+01 1.51982E-01 2.45873E-04-5.67493E-01 1.06158E-13 3.31850E-13
 -1      2386 2.05187E+01 2.12559E-01-1.43251E-03-7.40304E-01-2.58458E-15 1.96368E-13
 -1      2387 2.04683E+01 1.45523E-01 3.35478E-03-5.05461E-01 9.66400E-14 3.00609E-13
 -1      2388 2.03791E+01 1.37263E-01 3.11542E-04-4.52652E-01 1.60886E-13 2.62572E-13
 -1      2389 2.03908E+01 1.96611E-01-1.24255E-03-6.03628E-01 9.67069E-14 7.98059E-15
 -1      2390 2.03326E+01 1.31120E-01 2.89852E-03-3.97017E-01 8.81931E-14 3.41168E-13
 -1      2391 2.02611E+01 1.24415E-01 4.34065E-04-3.49289E-01-1.07191E-13 3.70561E-13
 -1      2392 2.02851E+01 1.77726E-01-1.06982E-03-4.79706E-01-1.22986E-15 2.96188E-13
 -1      2393 2.02224E+01 1.19950E-01 2.31933E-03-2.99379E-01-3.27510E-13 4.81833E-13
 -1      2394 2.01675E+01 1.16260E-01 8.89523E-04-2.55940E-01-2.72566E-13 5.29967E-13
 -1      2395 2.01978E+01 1.61723E-01-9.11111E-04-3.68570E-01-8.69086E-14 4.91033E-13
 -1      2396 9.71619E+00-3.64630E+00 8.05896E-02 6.19368E+00-1.61066E-13 3.07504E-13
 -1      2397 7.38760E+00-3.20665E+00 1.41701E-01 4.95140E+00-8.43492E-14 1.10884E-13
 -1      2398 1.96276E+01 7.96497E-02 2.39779E-03-8.03439E-02 6.03999E-14-6.46745E-14
 -1      2399 1.96505E+01 1.10005E-01 6.99550E-03-3.11590E-02 7.83709E-14-4.11655E-14
 -1      2400 1.96154E+01 4.10915E-02 1.79795E-03-1.55104E-01 7.17345E-14-6.72567E-14
 -1      2401 1.96055E+01 5.81729E-02 3.80052E-03-1.28141E-01 4.29636E-14-6.81061E-14
 -1      2402 1.97778E+01 1.00895E-01-3.38898E-03-9.23896E-02 7.37938E-14-1.06063E-13
 -1      2403 1.96440E+01 2.03872E-02 1.50307E-03-1.96468E-01 5.93665E-14-3.30116E-14
 -1      2404 1.96138E+01 2.92298E-02 1.97467E-03-1.81905E-01 8.16227E-14-4.43904E-14
 -1      2405 1.97547E+01 5.18664E-02-2.57133E-03-1.76882E-01 5.83525E-14-6.36483E-14
 -1      2406 1.96999E+01 1.13530E-02 1.40028E-03-2.20036E-01 4.29897E-14-9.49873E-15
 -1      2407 1.96570E+01 1.46965E-02 9.27074E-04-2.11613E-01 4.60132E-14-2.02338E-14
 -1      2408 1.97671E+01 2.62086E-02-1.88880E-03-2.25705E-01 5.00251E-14-1.92043E-14
 -1      2409 1.97750E+01 1.04886E-02 1.44619E-03-2.36453E-01 6.23737E-15 2.15346E-15
 -1      2410 1.97232E+01 9.92104E-03 3.35299E-04-2.29882E-01 5.88963E-14 2.39302E-14
 -1      2411 1.98045E+01 1.59521E-02-1.41556E-03-2.55675E-01 2.29302E-14-2.33025E-15
 -1      2412 1.98653E+01 1.56568E-02 1.61991E-03-2.53356E-01 1.29066E-14-2.94956E-14
 -1      2413 1.98061E+01 1.21647E-02 3.09213E-05-2.45530E-01 2.76030E-15-1.16462E-14
 -1      2414 1.98600E+01 1.65336E-02-1.13250E-03-2.78554E-01 3.77871E-14-2.26583E-15
 -1      2415 1.99700E+01 2.54379E-02 1.90334E-03-2.76432E-01 1.18863E-13-8.64114E-14
 -1      2416 1.99032E+01 1.96900E-02-8.47266E-05-2.65012E-01 6.85125E-14-4.69495E-14
 -1      2417 1.99302E+01 2.51321E-02-1.00013E-03-3.02885E-01 7.25971E-14-4.75278E-14
 -1      2418 2.00907E+01 3.87461E-02 2.27341E-03-3.09971E-01 1.53996E-13-1.09266E-13
 -1      2419 2.00148E+01 3.12750E-02-7.57437E-05-2.93183E-01 1.36299E-13-1.08146E-13
 -1      2420 2.00141E+01 3.98296E-02-9.80942E-04-3.35047E-01 1.22304E-13-7.87740E-14
 -1      2421 2.02305E+01 5.45257E-02 2.69554E-03-3.57087E-01 3.77242E-14-5.37170E-14
 -1      2422 2.01430E+01 4.58843E-02 1.32766E-05-3.33668E-01 1.08754E-13-5.97563E-14
 -1      2423 2.01124E+01 5.90876E-02-1.04300E-03-3.79799E-01 8.76543E-14-5.81706E-14
 -1      2424 2.03937E+01 7.14225E-02 3.11368E-03-4.19632E-01-3.30582E-14-2.38201E-14
 -1      2425 2.02918E+01 6.23653E-02 1.50026E-04-3.88921E-01 5.52862E-15 8.12746E-15
 -1      2426 2.02273E+01 8.13097E-02-1.16042E-03-4.40465E-01-2.17720E-14 7.02606E-15
 -1      2427 2.05848E+01 8.73484E-02 3.43677E-03-4.97761E-01-2.45374E-14-3.49060E-15
 -1      2428 2.04656E+01 7.90768E-02 3.12034E-04-4.59971E-01-1.30284E-14-1.22631E-14
 -1      2429 2.03619E+01 1.04343E-01-1.31538E-03-5.18780E-01-1.67934E-14 7.34450E-14
 -1      2430 2.08085E+01 9.88916E-02 3.52265E-03-5.89044E-01 4.09679E-14 3.36515E-14
 -1      2431 2.06695E+01 9.33840E-02 4.86860E-04-5.45767E-01 4.30888E-14 1.73865E-14
 -1      2432 2.05198E+01 1.24826E-01-1.50014E-03-6.14329E-01-1.72137E-14 8.40443E-14
 -1      2433 2.10680E+01 1.00564E-01 3.16193E-03-6.87011E-01-8.22723E-14 6.89257E-14
 -1      2434 2.09083E+01 1.00989E-01 6.74867E-04-6.42022E-01-2.09804E-15 9.10743E-14
 -1      2435 2.07052E+01 1.37321E-01-1.72316E-03-7.23482E-01 3.74283E-15 1.02207E-13
 -1      2436 2.13649E+01 8.39857E-02 2.07068E-03-7.79054E-01-9.56863E-14 6.81671E-14
 -1      2437 2.11855E+01 9.51224E-02 8.95332E-04-7.39427E-01-7.39376E-14 1.29510E-13
 -1      2438 2.09226E+01 1.33257E-01-2.01910E-03-8.37718E-01-1.01671E-13 1.77978E-13
 -1      2439 2.16973E+01 3.74311E-02-8.58311E-05-8.43787E-01-1.35894E-13 5.00057E-14
 -1      2440 2.15033E+01 6.58119E-02 1.19117E-03-8.21208E-01-1.09507E-13 7.41502E-14
 -1      2441 2.11768E+01 9.99227E-02-2.45151E-03-9.41284E-01-1.01938E-13 1.23623E-13
 -1      2442 2.20586E+01-5.31508E-02-3.60215E-03-8.48561E-01-1.06876E-13-1.39220E-14
 -1      2443 2.18603E+01-6.66467E-05 1.61889E-03-8.60325E-01-1.14234E-13 2.93862E-15
 -1      2444 2.14736E+01 2.03081E-02-3.08920E-03-1.00832E+00-8.37682E-14 1.23471E-13
 -1      2445 2.24355E+01-1.99430E-01-8.50996E-03-7.48999E-01-3.94947E-14 9.66226E-14
 -1      2446 2.22501E+01-1.16378E-01 2.18547E-03-8.17432E-01-9.12037E-14 2.29946E-14
 -1      2447 2.18191E+01-1.24343E-01-3.91831E-03-1.00025E+00-1.36623E-13-2.66485E-14
 -1      2448 2.28036E+01-3.98978E-01-1.41570E-02-4.94588E-01-3.18252E-14 1.65636E-13
 -1      2449 2.26565E+01-2.90105E-01 2.69482E-03-6.42490E-01 6.51909E-15 1.34000E-13
 -1      2450 2.22179E+01-3.45828E-01-4.63304E-03-8.65466E-01-4.92648E-14-1.29389E-14
 -1      2451 2.31217E+01-6.14481E-01-1.86170E-02-4.71801E-02-6.78234E-14 6.30879E-14
 -1      2452 2.30453E+01-5.05217E-01 2.44273E-03-2.85915E-01-4.26152E-14 1.12568E-13
 -1      2453 2.26643E+01-6.29595E-01-4.32055E-03-5.46223E-01-2.90679E-14 3.04986E-14
 -1      2454 2.33252E+01-7.50116E-01-1.82520E-02 5.80602E-01-2.29834E-14 2.22272E-14
 -1      2455 2.33534E+01-6.98666E-01 1.11980E-04 2.72241E-01-4.35333E-14 9.18031E-14
 -1      2456 2.31260E+01-9.04670E-01-1.44000E-03-1.40323E-03-2.21303E-14-3.81391E-14
 -1      2457 2.33307E+01-6.52215E-01-8.89722E-03 1.26842E+00-9.13024E-14 1.15684E-13
 -1      2458 2.34824E+01-7.42599E-01-5.81725E-03 9.68965E-01-8.46697E-14 3.71837E-14
 -1      2459 2.35199E+01-1.01628E+00 5.36272E-03 7.44616E-01-8.82397E-14-6.85719E-14
 -1      2460 2.30737E+01-1.94583E-01 7.29770E-03 1.74332E+00 7.31994E-15 2.85002E-13
 -1      2461 2.33269E+01-4.75689E-01-1.50985E-02 1.59402E+00-6.16070E-14 1.02462E-13
 -1      2462 2.37040E+01-7.49621E-01 1.38735E-02 1.52528E+00-1.15100E-13 8.36175E-15
 -1      2463 2.26099E+01 5.41615E-01 1.91010E-02 1.66565E+00 1.16277E-13 2.99307E-13
 -1      2464 2.28841E+01 1.48021E-01-2.28072E-02 1.80276E+00 9.52727E-14 3.30860E-13
 -1      2465 2.35551E+01-1.20203E-02 9.47130E-03 1.98339E+00-1.04465E-14 5.10059E-14
 -1      2466 2.21650E+01 1.20435E+00 1.57340E-02 8.69663E-01 9.87162E-14 3.54718E-13
 -1      2467 2.23450E+01 9.14954E-01-1.74539E-02 1.31613E+00 1.06888E-13 4.06872E-13
 -1      2468 2.31408E+01 9.97773E-01-7.79396E-03 1.71689E+00 6.40391E-14 1.48953E-13
 -1      2469 2.20634E+01 1.32534E+00-2.33413E-03-3.70917E-01 2.17576E-13 2.41126E-13
 -1      2470 2.20561E+01 1.35567E+00 3.47505E-03 1.97124E-01 2.23632E-13 3.49038E-13
 -1      2471 2.27781E+01 1.73537E+00-2.21487E-02 6.22393E-01 1.83057E-13 2.56294E-13
 -1      2472 2.24066E+01 8.19442E-01-1.80658E-02-1.42255E+00 1.19601E-13 1.31978E-13
 -1      2473 2.22170E+01 1.13840E+00 2.15253E-02-1.01348E+00 2.18875E-13 1.97900E-13
 -1      2474 2.28105E+01 1.67706E+00-1.72583E-02-8.11658E-01 2.37891E-13 1.00005E-13
 -1      2475 2.29570E+01 4.54730E-02-2.12316E-02-1.81126E+00-1.41475E-14 6.38179E-14
 -1      2476 2.26789E+01 4.35207E-01 1.98460E-02-1.72012E+00 3.79531E-14 1.34505E-13
 -1      2477 2.32022E+01 8.68071E-01-1.38432E-03-1.80218E+00 1.26126E-13 1.98821E-13
 -1      2478 2.33674E+01-5.32827E-01-1.21735E-02-1.52210E+00-1.28976E-13 8.00813E-14
 -1      2479 2.31210E+01-2.83554E-01 3.61715E-03-1.69825E+00-1.02998E-13 1.28993E-13
 -1      2480 2.35967E+01-1.41884E-01 1.13420E-02-1.95312E+00-9.09806E-14 1.23771E-13
 -1      2481 2.34773E+01-7.47971E-01-3.01730E-03-8.69461E-01-1.04209E-14 1.03510E-13
 -1      2482 2.33391E+01-6.86278E-01-1.15605E-02-1.17028E+00-1.20039E-13 1.56836E-14
 -1      2483 2.36927E+01-8.19457E-01 1.11534E-02-1.42076E+00-1.33906E-13 7.57938E-14
 -1      2484 2.33147E+01-6.74580E-01 2.12625E-03-1.83685E-01 2.86851E-13 2.62948E-13
 -1      2485 2.33002E+01-7.39432E-01-1.84963E-02-4.77790E-01 1.32778E-13 1.80857E-13
 -1      2486 2.34682E+01-1.02101E+00 2.91909E-03-6.28243E-01 2.99396E-14 2.14693E-13
 -1      2487 2.29885E+01-4.73464E-01 3.43817E-03 3.48685E-01 2.67266E-13 4.49315E-13
 -1      2488 2.30759E+01-5.83895E-01-1.73615E-02 1.28120E-01 3.09852E-13 3.94925E-13
 -1      2489 2.30578E+01-8.73249E-01-2.54746E-03 9.49747E-02 2.18665E-13 3.27548E-13
 -1      2490 2.25924E+01-2.62229E-01 2.81421E-03 6.78704E-01 2.27656E-13 5.18305E-13
 -1      2491 2.27470E+01-3.66505E-01-1.26857E-02 5.46368E-01 2.93814E-13 5.76379E-13
 -1      2492 2.25943E+01-5.89541E-01-5.09120E-03 6.07742E-01 2.24601E-13 5.40345E-13
 -1      2493 2.21861E+01-9.61953E-02 1.98891E-03 8.32140E-01-3.80256E-14 1.66653E-13
 -1      2494 2.23752E+01-1.73462E-01-7.29027E-03 7.74396E-01 1.28252E-13 4.16652E-13
 -1      2495 2.21535E+01-3.10049E-01-4.94166E-03 8.97254E-01 2.68760E-13 5.49805E-13
 -1      2496 2.18007E+01 1.31017E-02 1.34452E-03 8.59726E-01-1.78501E-13 2.58115E-13
 -1      2497 2.19994E+01-3.53711E-02-2.78450E-03 8.54184E-01-9.70899E-14 2.46675E-13
 -1      2498 2.17629E+01-9.77368E-02-3.91388E-03 1.00933E+00-9.14763E-15 4.67586E-13
 -1      2499 2.14509E+01 7.44280E-02 9.70065E-04 8.09998E-01-4.66206E-13 6.35257E-14
 -1      2500 2.16426E+01 4.87887E-02 3.52217E-04 8.35823E-01-4.08266E-13 1.17186E-13
 -1      2501 2.14260E+01 3.86485E-02-2.94211E-03 1.00153E+00-2.67864E-13 3.78995E-13
 -1      2502 2.11428E+01 1.01943E-01 7.95779E-04 7.20092E-01-3.21464E-13 2.33747E-13
 -1      2503 2.13176E+01 9.17423E-02 2.23627E-03 7.61607E-01-3.63609E-13 9.45280E-14
 -1      2504 2.11380E+01 1.13045E-01-2.27042E-03 9.23266E-01-4.25868E-13-2.69948E-14
 -1      2505 2.08779E+01 1.08611E-01 7.44812E-04 6.14783E-01-4.00579E-14 1.50216E-13
 -1      2506 2.10308E+01 1.07557E-01 3.16570E-03 6.61735E-01-2.15749E-13 2.18680E-13
 -1      2507 2.08934E+01 1.44676E-01-1.86356E-03 8.10540E-01-2.37502E-13 6.09484E-14
 -1      2508 2.06548E+01 1.04270E-01 7.66889E-04 5.08677E-01 2.76338E-13 9.53225E-14
 -1      2509 2.07843E+01 1.07741E-01 3.44816E-03 5.55222E-01 1.89390E-13 2.16143E-13
 -1      2510 2.06872E+01 1.50481E-01-1.61734E-03 6.86702E-01 3.69304E-14 2.30515E-14
 -1      2511 2.04709E+01 9.57600E-02 8.34114E-04 4.08958E-01 2.11061E-13 2.90201E-13
 -1      2512 2.05774E+01 1.00595E-01 3.33246E-03 4.52446E-01 2.04465E-13 1.60407E-13
 -1      2513 2.05149E+01 1.43118E-01-1.44601E-03 5.65167E-01 2.38577E-13 1.60671E-13
 -1      2514 2.03224E+01 8.76390E-02 9.62175E-04 3.17781E-01 1.71777E-13 2.56252E-13
 -1      2515 2.04074E+01 9.17691E-02 3.00173E-03 3.57720E-01 1.26749E-13 3.32931E-13
 -1      2516 2.03729E+01 1.31299E-01-1.28634E-03 4.52244E-01 9.98296E-14 3.70828E-13
 -1      2517 2.02050E+01 8.22149E-02 9.78815E-04 2.34007E-01 3.44906E-13 1.72094E-13
 -1      2518 2.02706E+01 8.48601E-02 2.55798E-03 2.71226E-01 2.99446E-13 2.39681E-13
 -1      2519 2.02567E+01 1.20595E-01-1.18797E-03 3.49769E-01 2.33478E-13 2.58075E-13
 -1      2520 2.01144E+01 7.97180E-02 1.00127E-03 1.56535E-01-1.30876E-13 2.04002E-13
 -1      2521 2.01634E+01 8.07871E-02 2.07826E-03 1.91541E-01 1.81355E-13 2.82109E-13
 -1      2522 2.01630E+01 1.12704E-01-1.42968E-03 2.55921E-01 1.79433E-13 3.41750E-13
 -1      2523 2.00800E+01 7.61276E-02 1.35940E-03 1.14755E-01-1.29040E-13 7.77746E-14
 -1      2524 1.99432E+01 4.19192E-01-1.91338E-03 2.09513E-01 2.76621E-13-5.77744E-14
 -1      2525 1.99639E+01 3.81419E-01 5.46192E-04 2.26974E-01 3.10434E-13-2.50467E-13
 -1      2526 1.99107E+01 4.84013E-01-1.98615E-03 1.49792E-01 1.47535E-13 1.88484E-13
 -1      2527 1.99260E+01 4.55889E-01-1.44250E-04 1.80001E-01 1.81066E-13-1.07293E-14
 -1      2528 1.99141E+01 4.45053E-01 1.26533E-03 2.25734E-01 2.73678E-13-5.72033E-14
 -1      2529 2.00306E+01 2.44998E-01-1.21218E-03 2.35961E-01 6.24210E-14-1.83161E-13
 -1      2530 2.00542E+01 2.01646E-01 1.61034E-03 2.23050E-01-3.89938E-14 1.06435E-14
 -1      2531 1.99851E+01 3.36285E-01-1.61506E-03 2.39854E-01 2.14598E-13-3.30774E-13
 -1      2532 2.00086E+01 2.94033E-01 1.16395E-03 2.41943E-01 8.48670E-14-1.83237E-13
 -1      2533 2.00264E+01 2.75774E-01 6.75756E-04 2.80059E-01 5.70845E-14-2.31204E-13
 -1      2534 1.99661E+01 3.66289E-01 7.80929E-04 2.71524E-01 3.36411E-13-2.26236E-13
 -1      2535 1.98914E+01 5.22938E-01-1.82729E-03 6.94239E-02-1.87108E-13-2.03422E-13
 -1      2536 1.98996E+01 5.07886E-01-8.40257E-04 1.07944E-01 1.38468E-14-1.08678E-13
 -1      2537 1.98756E+01 5.03397E-01 1.64394E-03 1.49091E-01 7.68791E-14-3.52529E-14
 -1      2538 1.98874E+01 5.31449E-01-1.44487E-03-2.04818E-02-1.50659E-13 3.05515E-13
 -1      2539 1.98875E+01 5.31374E-01-1.41975E-03 2.09666E-02-2.28656E-13 1.99949E-14
 -1      2540 1.98551E+01 5.34544E-01 1.84916E-03 5.23133E-02-1.12848E-13-8.24818E-14
 -1      2541 1.98991E+01 5.08507E-01-8.90212E-04-1.07667E-01-1.41470E-13 2.71731E-13
 -1      2542 1.98912E+01 5.23483E-01-1.80159E-03-6.90377E-02-1.91483E-13 3.03419E-13
 -1      2543 1.98549E+01 5.34995E-01 1.85094E-03-5.16114E-02-8.69319E-14 2.88425E-13
 -1      2544 1.99249E+01 4.58007E-01-1.92355E-04-1.79123E-01 4.09309E-14-4.40530E-14
 -1      2545 1.99099E+01 4.85482E-01-1.97730E-03-1.49115E-01-1.45251E-14 1.60747E-13
 -1      2546 1.98748E+01 5.05034E-01 1.68369E-03-1.48052E-01 1.54672E-14 3.06624E-13
 -1      2547 1.99629E+01 3.84071E-01 5.72986E-04-2.27136E-01 8.92461E-15-9.21304E-15
 -1      2548 1.99420E+01 4.21672E-01-1.92793E-03-2.09238E-01-2.12353E-14-1.36140E-13
 -1      2549 1.99127E+01 4.47941E-01 1.31361E-03-2.24913E-01 2.16667E-15-9.66538E-14
 -1      2550 2.00086E+01 2.95143E-01 1.18920E-03-2.41905E-01 8.39620E-15-2.98920E-14
 -1      2551 1.99852E+01 3.38131E-01-1.51559E-03-2.40559E-01-2.72330E-14-1.97913E-14
 -1      2552 1.99656E+01 3.68841E-01 8.87970E-04-2.72390E-01-6.96914E-14-7.08091E-14
 -1      2553 2.00547E+01 2.01048E-01 1.40282E-03-2.22615E-01-2.86993E-13-9.83756E-14
 -1      2554 2.00313E+01 2.45744E-01-1.02446E-03-2.37543E-01-1.89095E-13-1.36943E-13
 -1      2555 2.00221E+01 2.76207E-01-6.30433E-04-2.80519E-01-1.33090E-13-1.54975E-13
 -1      2556 2.00710E+01 1.21174E-01 1.23038E-03-1.51494E-01-1.14501E-13 1.74216E-13
 -1      2557 2.44266E+01-4.64396E+00-3.17009E-02 4.75110E+00 5.83145E-14-2.93321E-13
 -1      2558 2.09600E+01-5.32867E+00 1.35995E-02 5.59704E+00-1.39805E-13 8.19067E-14
 -1      2559 1.97012E+01 1.47951E-01 3.49765E-03 5.19154E-02 8.81008E-14-3.81693E-14
 -1      2560 1.97769E+01 2.01745E-01 1.24372E-02 1.40102E-01 1.21361E-13-1.15155E-14
 -1      2561 1.98511E+01 1.88244E-01-4.02652E-03 5.29325E-02 9.60574E-14-7.55125E-14
 -1      2562 2.92758E+01-1.94984E+00-7.09600E-02 2.24731E+00 2.24765E-13-3.58935E-13
 -1      2563 2.68797E+01-3.42321E+00-2.09470E-02 3.21236E+00 1.05679E-13-3.68261E-13
 -1      2564 1.73044E+01-5.31720E+00 9.69731E-03 6.80513E+00-1.68476E-13 3.46289E-13
 -1      2565 1.33056E+01-4.86871E+00 7.02428E-02 6.65256E+00-1.37390E-13 3.39784E-13
 -1      2566 3.09065E+00-2.86036E+00 6.69245E-02-1.02503E+00-6.75016E-14 5.88418E-14
 -1      2567 3.97436E+00-3.11570E+00 6.73713E-02-3.04187E+00-1.80245E-13 4.51250E-13
 -1      2568 7.48629E+00-4.19221E+00 1.06169E-02 5.77943E+00 4.31044E-14 1.93984E-13
 -1      2569 4.84145E+00-3.57622E+00 4.84687E-02 3.96817E+00 5.84255E-14-1.65534E-13
 -1      2570 7.93308E+00-4.04017E+00 5.66129E-02-5.66889E+00-8.76244E-14-4.12975E-13
 -1      2571 1.15983E+01-4.77072E+00 2.31156E-02-6.82531E+00 1.57652E-14-2.81053E-13
 -1      2572 2.20908E+01-5.19530E+00 1.05247E-02-5.26288E+00 2.39975E-13-6.62248E-14
 -1      2573 2.53003E+01-4.48740E+00-8.86329E-02-4.21813E+00 1.92679E-13-2.25348E-13
 -1      2574 1.95333E+01 3.59381E+00-1.01303E-02-2.44437E-01-3.15624E-14-2.54696E-13
 -1      2575 1.95489E+01 3.57284E+00-9.65167E-03-4.24671E-01-5.80770E-14-2.56739E-13
 -1      2576 1.97244E+01 3.17402E+00-5.38937E-04-4.71272E-01-6.65535E-14-2.28179E-13
 -1      2577 1.96910E+01 3.23491E+00-8.48115E-04-1.51261E-01-2.90866E-14-2.27707E-13
 -1      2578 3.24062E+01 4.96021E+00-1.04771E-01 8.78403E-01 7.97695E-14-9.78662E-14
 -1      2579 3.23901E+01 6.37999E+00-1.57609E-01 8.82153E-01-7.56617E-14-2.50161E-13
 -1      2580 3.24037E+01 6.22969E+00-1.16248E-01-8.72399E-01 2.95930E-13-1.59317E-14
 -1      2581 3.19715E+01 5.02177E+00-9.36795E-02-1.14801E+00 3.13694E-13-2.67009E-14
 -1      2582 4.14001E+00-2.30889E+00 1.29592E-01-1.86030E+00-6.09859E-14-6.02352E-13
 -1      2583 5.56195E+00-2.72934E+00 1.10280E-01-4.04107E+00-7.70495E-14-5.37292E-13
 -1      2584 3.26609E+01 7.45957E+00-1.15047E-01 1.75896E-01 7.06102E-14-1.79162E-13
 -1      2585 3.26297E+01 7.25129E+00-1.22312E-01-3.49336E-01 2.76779E-13-1.14075E-14
 -1      2586 3.03161E+01 6.45023E+00-7.20550E-02-1.00874E+00 3.07698E-13-1.35350E-13
 -1      2587 3.10922E+01 1.33744E+00-8.81384E-02 1.45997E-01 2.40502E-13-3.16414E-14
 -1      2588 3.23858E+01 3.22569E+00-1.14949E-01 5.91822E-01 2.44221E-13 6.80012E-14
 -1      2589 3.04454E+01 3.74401E+00-2.42625E-02 1.72536E+00 8.16014E-14-6.06182E-14
 -1      2590 2.79678E+01-2.84711E+00-2.71906E-02-2.18124E+00 1.16816E-13-4.60743E-14
 -1      2591 3.01531E+01-1.12130E+00-9.54054E-02-1.21841E+00 1.98733E-13 2.49800E-15
 -1      2592 1.53233E+01-5.35294E+00 3.02134E-02-6.65940E+00 6.82232E-14-4.91898E-14
 -1      2593 1.87131E+01-5.34311E+00-2.17516E-02-6.55565E+00 1.39888E-13 6.56766E-14
 -1      2594 1.50093E+01-5.11710E+00-8.46934E-03 6.92447E+00-5.55112E-15 6.80372E-13
 -1      2595 1.12621E+01-4.82499E+00 5.63359E-02 6.44534E+00 2.28428E-14 5.96717E-13
 -1      2596 3.88751E+00-2.70165E+00 9.61102E-02 2.24524E+00 5.28605E-14-4.73899E-13
 -1      2597 3.46746E+00-2.30777E+00 1.01594E-01 3.17808E-01 6.52447E-14-5.89251E-13
 -1      2598 3.22882E+01 2.11829E+00-8.45423E-02-1.02881E-01-4.25493E-14 3.22797E-13
 -1      2599 3.09104E+01 2.45939E-01-3.92582E-02 6.21962E-01 2.77348E-14 3.11917E-13
 -1      2600 2.22808E+01-5.19182E+00-4.56401E-02 5.41048E+00 6.39488E-14 4.06702E-13
 -1      2601 1.89709E+01-5.49552E+00 3.15204E-02 6.11145E+00 4.13281E-14 4.93022E-13
 -1      2602 3.26915E+01 5.86057E+00-1.40064E-01-9.60244E-01-9.79772E-14 3.92741E-13
 -1      2603 3.24277E+01 4.24859E+00-6.59552E-02-8.78715E-01-9.10383E-14 3.16969E-13
 -1      2604 3.25212E+01 7.33189E+00-1.38063E-01 5.35201E-02-1.02029E-13 1.49894E-13
 -1      2605 3.22756E+01 7.06127E+00-1.43313E-01-5.13359E-01-9.32587E-14 1.93554E-13
 -1      2606 3.26243E+01 5.59294E+00-8.07183E-02 8.53614E-01-1.13798E-14 1.67227E-13
 -1      2607 3.29538E+01 6.85778E+00-1.40257E-01 6.64831E-01-1.08968E-13 1.85227E-13
 -1      2608 3.02781E+01 6.71294E+00-7.62360E-02 5.30037E-01-5.12090E-14 9.73527E-15
 -1      2609 3.13925E+01 1.33580E+00-5.89611E-02 1.41167E-01 9.44106E-14 2.17382E-13
 -1      2610 3.23492E+01 3.14369E+00-1.37804E-01 6.61725E-01 1.12022E-13 2.39614E-13
 -1      2611 2.79025E+01-2.88236E+00-2.70129E-02-2.40829E+00 1.18627E-13 9.42579E-14
 -1      2612 3.04212E+01-9.82344E-01-9.09902E-02-1.26238E+00 1.15300E-13 1.58429E-13
 -1      2613 2.19491E+01-5.25134E+00 2.44889E-02-5.26868E+00 1.31561E-13-2.58127E-15
 -1      2614 2.53018E+01-4.47773E+00-6.82132E-02-4.35865E+00 1.78690E-13 4.91829E-14
 -1      2615 1.41088E+01-5.17102E+00 8.73787E-02-6.61629E+00 7.07767E-14-4.66571E-14
 -1      2616 1.78444E+01-5.36969E+00-3.55320E-02-6.70387E+00 1.87461E-13-6.90281E-14
 -1      2617 2.05401E+01 1.95569E+00-1.36491E-02-1.89721E+00-2.21033E-13-5.28536E-14
 -1      2618 2.04030E+01 1.21549E+00-7.21338E-03-1.28567E+00-1.92140E-13-6.13382E-14
 -1      2619 2.03778E+01 1.38258E+00 7.16078E-03-1.23444E+00-1.79561E-13-8.55709E-14
 -1      2620 2.02863E+01 2.38586E+00-4.85079E-03-1.84091E+00-2.21080E-13-1.12112E-13
 -1      2621 2.04771E+01 8.75530E-01-7.24803E-03 1.22624E+00 2.04760E-13 6.25483E-14
 -1      2622 2.08271E+01 1.25712E+00-6.02645E-03 1.72712E+00 2.13989E-13 9.13956E-14
 -1      2623 2.06358E+01 1.71579E+00-1.57978E-02 1.92102E+00 2.33447E-13 1.87940E-14
 -1      2624 2.04403E+01 1.05922E+00-9.44382E-03 1.23999E+00 2.09719E-13-2.75294E-14
 -1      2625 3.04022E+01 6.49961E+00-6.64892E-02 8.32327E-01 1.46549E-14-2.31815E-13
 -1      2626 1.99212E+01 2.82216E+00 2.45878E-03-1.09529E+00-1.36891E-13-2.31462E-13
 -1      2627 1.97899E+01 3.16452E+00-1.45679E-02-1.28203E+00-1.37909E-13-2.35530E-13
 -1      2628 1.98818E+01 3.04038E+00-1.74534E-02-1.48079E+00-1.70986E-13-2.17064E-13
 -1      2629 4.89675E+00-1.61931E+00 1.56551E-01-3.54252E-03-2.31887E-13-5.36238E-14
 -1      2630 7.43559E+00-1.98025E+00 1.63353E-01 3.99046E+00-1.18877E-13-1.30174E-13
 -1      2631 2.04159E+01 2.11634E+00-1.27360E-02 1.87364E+00 2.24352E-13-6.34180E-14
 -1      2632 3.08108E+01 3.46095E+00-5.96128E-02-1.32041E+00 1.84297E-13-7.09988E-14
 -1      2633 2.99018E+01-1.13629E+00-2.66686E-02 3.20475E-01 2.41758E-13-3.10724E-13
 -1      2634 3.07839E+01 4.05867E+00-5.08427E-02 1.60094E+00 8.98170E-14-1.49325E-14
 -1      2635 3.03673E+01 6.03615E+00-7.70089E-02-1.11343E+00-1.94844E-14 2.12469E-13
 -1      2636 2.04608E+01-5.32915E+00 6.36402E-02 5.69623E+00-1.42553E-13 1.00546E-13
 -1      2637 1.33436E+01-3.81005E+00 1.15901E-01 6.18331E+00-1.75637E-13 3.04881E-13
 -1      2638 2.61038E+01-4.46978E+00 3.93021E-02 3.07920E+00 1.37113E-14-3.27238E-13
 -1      2639 2.00887E+01 1.08848E-01 3.01398E-04 1.67210E-01-4.31013E-14 2.60092E-13
 -1      2640 2.00817E+01 1.42271E-01 3.05353E-06 1.92809E-01 6.33690E-14 3.20316E-13
 -1      2641 2.44837E+01-4.92900E+00 2.13498E-02 4.21219E+00 9.89486E-14 2.60458E-13
 -1      2642 2.34631E+01-5.20204E+00 8.54512E-02 4.37330E+00 8.87207E-14 2.78735E-13
 -1      2643 2.60365E+01-4.59485E+00-1.28124E-01 2.75912E+00 1.16671E-13 1.39277E-13
 -1      2644 2.01083E+01 1.10351E-01 1.50680E-03-1.86632E-01-1.43553E-13 2.59973E-13
 -1      2645 2.00764E+01 1.59187E-01-8.79604E-04-2.11132E-01-2.16340E-13 1.24735E-13
 -1      2646 2.00875E+01 1.89423E-01 7.64117E-04-2.62823E-01-4.05955E-13 2.22571E-13
 -1      2647 2.01468E+01 1.14220E-01 2.25827E-03-2.24000E-01-2.66648E-13 4.33540E-13
 -1      2648 3.09316E+01 2.72184E+00-5.74940E-02-1.34676E+00-8.49043E-14 4.09672E-13
 -1      2649 6.21012E+00-2.11184E+00 1.38665E-01 3.30195E+00 6.58085E-14-2.40252E-13
 -1      2650 1.99918E+01 3.44802E-01-3.65061E-03 2.97693E-01 1.47944E-13-6.34761E-14
 -1      2651 6.52894E+00-2.76529E+00 1.05717E-01-4.05056E+00-1.32214E-13 2.96513E-13
 -1      2652 1.28295E+01-4.37266E+00 1.21181E-01-6.53355E+00 6.09790E-14-2.27568E-13
 -1      2653 2.01132E+01 2.62302E+00-1.17017E-02-1.67662E+00-1.97766E-13-1.58660E-13
 -1      2654 2.09428E+01-5.36695E+00 5.87129E-02-5.52285E+00 2.32064E-13-1.72154E-14
 -1      2655 2.70333E+01-4.00100E+00 2.66726E-02-2.43130E+00 2.27096E-13-5.49838E-14
 -1      2656 1.81352E+01-5.08769E+00 1.17024E-01 6.20968E+00 1.29619E-14 5.53103E-13
 -1      2657 1.47849E+01-4.67996E+00 1.06040E-01-6.60387E+00-2.35922E-15-1.38708E-13
 -1      2658 5.69402E+00-1.26073E+00 1.64785E-01-8.04655E-01 3.49339E-14-4.78673E-13
 -1      2659 2.14460E+01-5.34772E+00 7.23863E-02-5.44631E+00 1.81910E-13-1.30604E-13
 -1      2660 8.58098E+00-2.62664E+00 1.37112E-01-4.84902E+00-6.70158E-14-4.98712E-13
 -1      2661 2.98104E+01-1.52662E+00-2.92223E-02 9.44087E-01 4.10089E-14 3.05200E-13
 -1      2662 2.82517E+01-2.91370E+00 2.21433E-02 1.27465E+00 1.34386E-13 2.35936E-13
 -1      2663 2.95425E+01-1.00657E+00-1.01595E-01-5.45753E-01 3.19814E-14 3.89661E-13
 -1      2664 1.09250E+01-3.76244E+00 1.22388E-01 6.12387E+00 4.51028E-14 4.39371E-13
 -1      2665 2.69073E+01-4.01979E+00 2.19230E-02-2.42319E+00 1.96454E-13-1.00531E-13
 -1      2666 2.99310E+01-2.00364E-01-1.01392E-02 6.30191E-01 2.15147E-13 3.93852E-14
 -1      2667 2.04322E+01 1.80967E+00 1.25350E-02 1.56055E+00 2.20483E-13-8.00471E-14
 -1      2668 3.00599E+01-4.22827E-01-1.57184E-02 4.32396E-01 1.11203E-13 1.93179E-13
 -1      2669 2.00935E+01 1.70735E-01 9.60195E-04 2.45404E-01-1.12094E-14 2.21666E-13
 -1      2670 2.01362E+01 1.50428E-01-1.25454E-03-2.82294E-01-3.83335E-13 4.86778E-13
 -1      2671 1.98571E+01 2.77773E+00-6.30693E-03 5.12956E-01 4.29288E-14-2.06158E-13
 -1      2672 1.98327E+01 2.82809E+00-5.78549E-03 3.62814E-01 1.86701E-14-2.19359E-13
 -1      2673 1.98161E+01 2.86634E+00-5.65395E-03 2.28378E-01 4.72096E-15-2.40616E-13
 -1      2674 1.98077E+01 2.88350E+00-5.49086E-03 7.46513E-02-9.15286E-15-2.17538E-13
 -1      2675 1.99617E+01 2.51818E+00 3.74014E-03 2.62725E-01 5.22859E-15-2.23554E-13
 -1      2676 2.00512E+01 2.33161E+00-1.06934E-02 1.04129E+00 1.64714E-13-1.56228E-13
 -1      2677 1.99887E+01 2.48165E+00-6.38433E-03 9.05752E-01 1.35780E-13-1.68847E-13
 -1      2678 2.02198E+01 1.91289E+00-1.20066E-02 1.22327E+00 2.12004E-13-1.41800E-13
 -1      2679 2.01299E+01 2.15209E+00-4.85851E-03 1.12944E+00 1.89640E-13-1.45173E-13
 -1      2680 2.01961E+01 1.89529E+00 6.48125E-03 9.20695E-01 1.72078E-13-1.36056E-13
 -1      2681 2.87650E+01-1.70451E+00-1.79962E-02 4.94779E-01 1.38931E-13 5.04041E-14
 -1      2682 2.91609E+01 3.69450E-02-2.03083E-01 1.42245E+00 2.01519E-13 1.70461E-13
 -1      2683 2.02108E+01 7.31606E-01-3.35214E-03 6.37528E-01 1.72448E-13-9.29443E-14
 -1      2684 2.03514E+01 9.55246E-01 9.15728E-03 9.02809E-01 1.81936E-13-8.37953E-14
 -1      2685 6.10244E+00-8.63180E-01 1.25422E-01 1.15848E+00-2.22485E-13-2.25486E-13
 -1      2686 6.16684E+00-8.06328E-01 1.46011E-01-1.06622E+00-2.79689E-13 9.18154E-14
 -1      2687 2.03350E+01 1.50275E+00-1.82509E-03 1.26453E+00 2.07217E-13-1.01032E-13
 -1      2688 2.02183E+01 6.35957E-01 8.13593E-03-4.27579E-01-1.22573E-13-1.00707E-13
 -1      2689 2.01371E+01 4.86583E-01-3.17898E-03-2.65862E-01-9.63503E-14-9.92940E-14
 -1      2690 2.01125E+01 3.76324E-01 6.53139E-03-1.42223E-01-8.81618E-14-1.11909E-13
 -1      2691 2.00568E+01 2.84834E-01-1.48967E-03-4.00728E-02-7.80181E-14-1.22136E-13
 -1      2692 2.02022E+01 5.44435E-01-1.80247E-03-2.45578E-01-1.04919E-13-1.23330E-13
 -1      2693 2.00325E+01 2.18066E-01 4.41263E-03 4.08713E-02-9.49439E-14-1.13706E-13
 -1      2694 2.00016E+01 1.62878E-01-4.48144E-04 1.03906E-01-1.02117E-13-1.19459E-13
 -1      2695 2.01372E+01 3.22163E-01-2.21399E-03-2.92016E-02-9.86036E-14-1.37171E-13
 -1      2696 1.99830E+01 1.23346E-01 2.75201E-03 1.55298E-01-8.66833E-14-1.12355E-13
 -1      2697 1.99717E+01 9.17509E-02 2.23746E-04 1.93782E-01-1.12922E-13-1.49207E-13
 -1      2698 2.00856E+01 1.86405E-01-2.04734E-03 1.12326E-01-9.91735E-14-1.28783E-13
 -1      2699 1.99597E+01 7.02410E-02 1.53636E-03 2.26333E-01-1.18159E-13-1.54143E-13
 -1      2700 1.99631E+01 5.47687E-02 6.82184E-04 2.50585E-01-7.98256E-14-1.51330E-13
 -1      2701 2.00509E+01 1.07583E-01-1.69514E-03 2.03173E-01-1.13930E-13-1.15423E-13
 -1      2702 1.99571E+01 4.58320E-02 6.62963E-04 2.72594E-01-3.90965E-14-1.65778E-13
 -1      2703 1.99715E+01 4.18867E-02 1.03145E-03 2.90034E-01-3.38810E-14-1.55314E-13
 -1      2704 2.00318E+01 6.78725E-02-1.34212E-03 2.62865E-01-6.60162E-14-1.22650E-13
 -1      2705 1.99705E+01 4.21165E-02 3.81043E-05 3.07837E-01-7.39518E-14-1.56158E-13
 -1      2706 1.99933E+01 4.67433E-02 1.33450E-03 3.23922E-01-7.40842E-14-1.50998E-13
 -1      2707 2.00255E+01 5.61509E-02-1.04791E-03 3.06564E-01-6.66646E-14-8.87341E-14
 -1      2708 1.99963E+01 5.38973E-02-4.13125E-04 3.42368E-01-6.51769E-14-1.40869E-13
 -1      2709 2.00264E+01 6.50957E-02 1.62600E-03 3.61199E-01-5.13793E-14-1.39225E-13
 -1      2710 2.00296E+01 6.51987E-02-8.20455E-04 3.45890E-01-6.25034E-14-8.23070E-14
 -1      2711 2.00325E+01 7.75852E-02-7.46208E-04 3.84026E-01-2.29974E-14-9.40711E-14
 -1      2712 2.00695E+01 9.38637E-02 1.92141E-03 4.08715E-01 2.61086E-14-1.17036E-13
 -1      2713 2.00419E+01 9.00830E-02-6.49775E-04 3.89766E-01-3.28108E-14-9.00932E-14
 -1      2714 2.00783E+01 1.10390E-01-9.98135E-04 4.38798E-01 2.21835E-15-8.36572E-14
 -1      2715 2.01223E+01 1.30406E-01 2.22199E-03 4.71649E-01-5.40926E-15-1.21327E-13
 -1      2716 2.00610E+01 1.27092E-01-5.22079E-04 4.45051E-01-2.77624E-15-8.05888E-14
 -1      2717 2.01335E+01 1.49628E-01-1.18666E-03 5.11117E-01-8.47709E-15-1.46047E-13
 -1      2718 2.01852E+01 1.71814E-01 2.51634E-03 5.53640E-01-2.00465E-14-1.18011E-13
 -1      2719 2.00859E+01 1.72872E-01-4.27749E-04 5.16915E-01-1.19627E-14-7.57083E-14
 -1      2720 2.01991E+01 1.91961E-01-1.30667E-03 6.03861E-01-9.34071E-15-9.22755E-14
 -1      2721 2.02597E+01 2.14063E-01 2.77991E-03 6.56618E-01-2.37363E-14-5.49950E-14
 -1      2722 2.01164E+01 2.23546E-01-3.69062E-04 6.08964E-01-1.63912E-15-1.31407E-13
 -1      2723 2.02769E+01 2.32435E-01-1.32189E-03 7.18042E-01-1.25488E-13-5.15924E-14
 -1      2724 2.03478E+01 2.50891E-01 2.97390E-03 7.80273E-01-1.73260E-13-4.15358E-14
 -1      2725 2.01531E+01 2.73633E-01-3.71960E-04 7.23104E-01-7.59665E-14-7.26379E-14
 -1      2726 2.03704E+01 2.63174E-01-1.15140E-03 8.52093E-01-1.24515E-13-3.48680E-14
 -1      2727 2.04537E+01 2.72296E-01 3.04342E-03 9.21105E-01-3.41172E-14-8.49864E-14
 -1      2728 2.01979E+01 3.14630E-01-5.03464E-04 8.59109E-01-1.37104E-13-2.72702E-14
 -1      2729 2.04858E+01 2.71700E-01-6.50249E-04 1.00069E+00 1.58808E-14-1.24114E-13
 -1      2730 2.05847E+01 2.62682E-01 2.91194E-03 1.07092E+00 1.21895E-14-1.45833E-13
 -1      2731 2.02560E+01 3.33154E-01-8.99406E-04 1.01385E+00-4.82902E-14 3.76112E-15
 -1      2732 2.06342E+01 2.39007E-01 4.13534E-04 1.15292E+00 3.82654E-14-8.04911E-14
 -1      2733 2.07536E+01 1.98999E-01 2.45583E-03 1.21469E+00 7.74290E-14-3.82026E-14
 -1      2734 2.03371E+01 3.08733E-01-1.80077E-03 1.18006E+00 4.84236E-14-1.75341E-14
 -1      2735 2.08345E+01 1.38059E-01 2.36390E-03 1.28959E+00 5.62959E-14-2.45867E-14
 -1      2736 2.09821E+01 5.00452E-02 1.45118E-03 1.32749E+00 4.34516E-14-1.11595E-13
 -1      2737 2.04602E+01 2.11764E-01-3.59280E-03 1.34435E+00 3.14945E-14-1.62689E-14
 -1      2738 2.11176E+01-6.53372E-02 5.62905E-03 1.37920E+00 8.03892E-14-9.66078E-14
 -1      2739 2.13040E+01-2.19995E-01-4.87476E-04 1.37042E+00 1.62012E-13-1.15094E-13
 -1      2740 2.06582E+01 3.20216E-03-6.77648E-03 1.48387E+00 5.52048E-14-1.52968E-14
 -1      2741 2.15279E+01-4.04810E-01 1.05478E-02 1.37220E+00 1.75659E-13-1.89973E-13
 -1      2742 2.17635E+01-6.37185E-01-4.00303E-03 1.28567E+00 8.56687E-14-1.67079E-13
 -1      2743 2.09830E+01-3.59658E-01-1.16765E-02 1.56011E+00 1.05830E-13-3.37148E-14
 -1      2744 2.21158E+01-8.90511E-01 1.64198E-02 1.19608E+00 1.00333E-13-1.21283E-13
 -1      2745 2.24025E+01-1.18404E+00-1.01102E-02 9.95499E-01 4.63323E-14-5.93735E-14
 -1      2746 2.15053E+01-9.01271E-01-1.79796E-02 1.50946E+00 1.37223E-13-1.98607E-13
 -1      2747 2.29142E+01-1.46293E+00 2.13149E-02 7.54580E-01-8.96558E-14-7.74042E-14
 -1      2748 2.32250E+01-1.73445E+00-1.86120E-02 4.11038E-01-8.81730E-14-1.43182E-13
 -1      2749 2.23004E+01-1.58666E+00-2.46281E-02 1.23458E+00-8.78930E-15-4.26803E-14
 -1      2750 2.38656E+01-1.90941E+00 1.69445E-02-4.54026E-02 6.73593E-15-1.48680E-13
 -1      2751 2.41417E+01-1.94749E+00-1.64346E-02-5.17893E-01-2.94599E-15-1.02860E-13
 -1      2752 2.34012E+01-2.21843E+00-2.51544E-02 5.97322E-01-3.15921E-14-5.23845E-14
 -1      2753 2.47212E+01-1.79634E+00-6.97124E-03-1.12638E+00-3.12216E-14-1.18134E-13
 -1      2754 2.48845E+01-1.36411E+00-7.85654E-03-1.58227E+00 5.13218E-15-8.08013E-14
 -1      2755 2.46365E+01-2.27850E+00-6.61187E-03-4.75221E-01-5.51282E-14 5.35442E-14
 -1      2756 2.51435E+01-6.31840E-01-5.52044E-02-2.15643E+00-3.49269E-14-1.33549E-13
 -1      2757 2.50746E+01 3.78430E-01-1.34553E-02-2.27931E+00-5.02862E-14-1.45078E-13
 -1      2758 2.56584E+01-1.38822E+00-8.21268E-03-1.72042E+00-2.83380E-14-9.02126E-14
 -1      2759 2.49671E+01 1.51801E+00-8.87098E-02-2.23715E+00 1.41900E-14-1.57625E-13
 -1      2760 2.47932E+01 2.59909E+00-2.15056E-02-1.77672E+00 1.05471E-15-8.67865E-14
 -1      2761 2.59606E+01 1.08733E+00-5.62761E-02-2.39905E+00-1.65840E-15-1.12230E-13
 -1      2762 2.45686E+01 3.37703E+00-8.09681E-02-9.06138E-01 4.11476E-15-6.54270E-14
 -1      2763 2.45189E+01 3.63905E+00-6.32995E-02-9.48053E-03 2.29816E-14 4.01805E-14
 -1      2764 2.57037E+01 3.56538E+00-9.34388E-02-1.49558E+00 5.05290E-14-1.55431E-13
 -1      2765 2.46276E+01 3.31526E+00-3.72799E-02 1.08800E+00 1.19488E-14 3.14766E-14
 -1      2766 2.47474E+01 2.49782E+00-1.00746E-01 1.79723E+00-9.13158E-15 6.87159E-14
 -1      2767 2.55991E+01 4.19902E+00-9.95481E-02 6.14261E-01 1.43774E-14-1.57860E-14
 -1      2768 2.50057E+01 1.40493E+00-9.02250E-03 2.23102E+00-2.71450E-14 4.31313E-14
 -1      2769 2.51151E+01 2.51224E-01-8.08076E-02 2.34084E+00 2.08080E-14-8.34697E-14
 -1      2770 2.58907E+01 2.28666E+00-5.82026E-02 2.20333E+00 1.44468E-14 2.72907E-14
 -1      2771 2.50535E+01-7.09463E-01-7.16780E-03 1.99945E+00-7.23727E-15 6.05557E-14
 -1      2772 2.49943E+01-1.42464E+00-2.68214E-02 1.63905E+00-1.12443E-14 7.73001E-14
 -1      2773 2.58944E+01-3.48667E-01-1.00546E-02 2.20279E+00 6.55621E-14 1.57898E-13
 -1      2774 2.45091E+01-1.81950E+00-1.79873E-02 9.98914E-01 6.19229E-14 1.86184E-13
 -1      2775 2.42855E+01-1.95929E+00 1.08075E-02 5.05860E-01 1.42118E-13 2.24406E-13
 -1      2776 2.51649E+01-2.02230E+00-7.73477E-03 1.04741E+00 7.75755E-14 4.74568E-13
 -1      2777 2.36352E+01-1.90028E+00-1.90800E-02-3.80579E-02 8.27554E-14 2.41172E-13
 -1      2778 2.33291E+01-1.70031E+00 2.12582E-02-4.46999E-01 4.34477E-14 2.38835E-13
 -1      2779 2.39616E+01-2.36130E+00-1.70742E-02-1.75131E-01 9.03069E-14 2.88734E-13
 -1      2780 2.27526E+01-1.44465E+00-1.29542E-02-7.76631E-01 1.19072E-13 2.92249E-13
 -1      2781 2.24477E+01-1.14600E+00 1.88848E-02-1.04030E+00 1.09135E-13 3.90687E-13
 -1      2782 2.27617E+01-1.89044E+00-2.20969E-02-1.00544E+00 8.26273E-14 1.48498E-13
 -1      2783 2.20263E+01-8.70872E-01-6.38267E-03-1.18927E+00-4.84890E-14 3.96822E-13
 -1      2784 2.17667E+01-6.05725E-01 1.30122E-02-1.32267E+00-1.17495E-13 5.28211E-13
 -1      2785 2.18280E+01-1.19457E+00-1.93140E-02-1.42437E+00 1.97889E-14 1.84881E-13
 -1      2786 2.14900E+01-3.87261E-01-1.98138E-03-1.35497E+00-1.44301E-13 3.90815E-13
 -1      2787 2.12832E+01-1.97030E-01 7.69342E-03-1.39377E+00-2.06354E-13 3.11576E-13
 -1      2788 2.11905E+01-5.77250E-01-1.36322E-02-1.56064E+00-1.80108E-13 3.80689E-13
 -1      2789 2.11127E+01-5.09145E-02 5.78262E-04-1.35926E+00-1.30341E-13 1.74126E-13
 -1      2790 2.09503E+01 6.63560E-02 3.85754E-03-1.33774E+00-4.42013E-15 1.09549E-13
 -1      2791 2.07868E+01-1.33402E-01-8.37026E-03-1.52955E+00-1.99263E-13 4.51668E-14
 -1      2792 2.08482E+01 1.50793E-01 1.91570E-03-1.26909E+00-4.28708E-14 1.63533E-13
 -1      2793 2.07191E+01 2.12207E-01 1.43472E-03-1.21359E+00-1.30372E-13 2.04889E-13
 -1      2794 2.05404E+01 1.41829E-01-4.71884E-03-1.40950E+00-8.24163E-14 1.22232E-13
 -1      2795 2.06577E+01 2.52460E-01 2.55865E-03-1.13066E+00-9.09880E-14 3.23164E-13
 -1      2796 2.05529E+01 2.76499E-01 7.27476E-05-1.05944E+00-3.17965E-14 2.24709E-13
 -1      2797 2.03900E+01 2.87782E-01-2.52907E-03-1.24820E+00-1.04434E-13 1.95700E-13
 -1      2798 2.05143E+01 2.88658E-01 2.79915E-03-9.73948E-01-1.17649E-13 2.06543E-13
 -1      2799 2.04278E+01 2.90361E-01-5.85284E-04-8.98633E-01-1.46657E-13 2.53459E-14
 -1      2800 2.02948E+01 3.46750E-01-1.34136E-03-1.07384E+00-1.50787E-13-3.01908E-15
 -1      2801 2.04017E+01 2.86700E-01 2.77557E-03-8.17157E-01-8.96292E-14 3.01975E-14
 -1      2802 2.03297E+01 2.76900E-01-8.32543E-04-7.44488E-01 5.66649E-14 1.71281E-14
 -1      2803 2.02301E+01 3.53246E-01-7.58423E-04-9.02759E-01-1.32950E-13-2.05148E-14
 -1      2804 2.03104E+01 2.65965E-01 2.56819E-03-6.70270E-01 1.37051E-13 1.42999E-14
 -1      2805 2.02503E+01 2.52009E-01-8.61472E-04-6.03546E-01 8.00247E-14 8.98877E-14
 -1      2806 2.01821E+01 3.32171E-01-5.59857E-04-7.43736E-01 7.65735E-14 1.63716E-13
 -1      2807 2.02345E+01 2.39573E-01 2.25518E-03-5.37675E-01 7.50480E-14 1.29706E-13
 -1      2808 2.01847E+01 2.26262E-01-6.83350E-04-4.77790E-01 5.67182E-14 1.37880E-13
 -1      2809 2.01436E+01 3.00680E-01-4.90319E-04-6.00753E-01 9.59491E-14-1.61457E-13
 -1      2810 2.01698E+01 2.16005E-01 1.80094E-03-4.19691E-01-4.36117E-14 1.21098E-13
 -1      2811 2.01292E+01 2.06269E-01-3.25255E-04-3.65918E-01-2.06612E-13 1.70880E-14
 -1      2812 2.01098E+01 2.69946E-01-5.90352E-04-4.75220E-01-3.40433E-14-2.07474E-13
 -1      2813 2.93116E+01 3.01299E+00-1.83545E-01-2.01576E+00-1.19404E-13 3.14554E-13
 -1      2814 2.95323E+01 1.12883E+00-1.00963E-01-1.64068E+00-9.52710E-14 3.78586E-13
 -1      2815 1.99062E+01 1.36692E-01 1.30554E-04-9.79947E-02 5.50898E-14-8.35715E-14
 -1      2816 1.99368E+01 1.85073E-01 5.15968E-03-3.70904E-02 6.50016E-14-8.83325E-14
 -1      2817 1.99029E+01 2.97753E-02 1.13605E-03-2.73868E-01 1.11152E-14-1.69075E-14
 -1      2818 1.98805E+01 3.39535E-02 7.59506E-04-2.59182E-01 1.99679E-14-2.15643E-14
 -1      2819 1.99408E+01 3.18950E-02 1.38960E-03-3.02568E-01 4.24670E-14-4.54981E-15
 -1      2820 1.99092E+01 2.90048E-02 1.31922E-04-2.89564E-01 3.19076E-14-6.20505E-15
 -1      2821 1.99717E+01 4.09376E-02-1.19763E-03-2.96160E-01 1.39300E-14-9.53118E-15
 -1      2822 1.99920E+01 4.49726E-02 1.66350E-03-3.33600E-01 9.40364E-14-3.99109E-14
 -1      2823 1.99525E+01 3.67350E-02-2.84868E-04-3.18370E-01 6.07935E-14-2.46081E-14
 -1      2824 1.99916E+01 4.62191E-02-9.58877E-04-3.30937E-01 7.20054E-14-1.96235E-14
 -1      2825 2.00554E+01 6.63971E-02 1.96464E-03-3.73573E-01 1.04663E-13 6.21525E-15
 -1      2826 2.00083E+01 5.40812E-02-5.58977E-04-3.53186E-01 1.14481E-13-9.85711E-15
 -1      2827 2.00225E+01 6.47448E-02-8.09746E-04-3.69193E-01 8.86511E-14 1.18239E-14
 -1      2828 2.01314E+01 9.39548E-02 2.28569E-03-4.27410E-01 5.17222E-14 2.32877E-14
 -1      2829 2.00761E+01 7.86869E-02-7.35233E-04-3.99726E-01 8.68459E-14 1.02973E-14
 -1      2830 2.00630E+01 9.32664E-02-7.28846E-04-4.17729E-01 7.43505E-14 4.91447E-14
 -1      2831 2.02212E+01 1.25262E-01 2.60486E-03-4.98479E-01-8.72921E-14 5.26891E-14
 -1      2832 2.01566E+01 1.08324E-01-8.38606E-04-4.62134E-01-7.05057E-15 5.18117E-14
 -1      2833 2.01130E+01 1.28889E-01-6.98295E-04-4.81567E-01 4.76338E-15 1.33673E-13
 -1      2834 2.03269E+01 1.57090E-01 2.88062E-03-5.88416E-01-4.09752E-14 7.57397E-14
 -1      2835 2.02514E+01 1.40296E-01-8.73436E-04-5.42975E-01-7.57463E-14 6.45837E-14
 -1      2836 2.01729E+01 1.68334E-01-7.11063E-04-5.64063E-01-6.42199E-14 5.26043E-14
 -1      2837 2.04514E+01 1.84470E-01 3.04622E-03-6.96547E-01 2.92665E-14 5.49338E-14
 -1      2838 2.03634E+01 1.70660E-01-8.15856E-04-6.42886E-01 5.17398E-15 9.58601E-14
 -1      2839 2.02443E+01 2.07033E-01-7.81182E-04-6.66720E-01-3.62959E-14 1.47168E-14
 -1      2840 2.05985E+01 1.99541E-01 3.00440E-03-8.18825E-01-5.28250E-14 1.35947E-13
 -1      2841 2.04963E+01 1.93206E-01-6.04952E-04-7.59775E-01-1.04996E-14 8.10344E-14
 -1      2842 2.03298E+01 2.37955E-01-9.50270E-04-7.88611E-01-5.91386E-15-3.24752E-15
 -1      2843 2.07737E+01 1.90188E-01 2.61769E-03-9.46215E-01-1.30578E-13 1.94622E-13
 -1      2844 2.06554E+01 1.98202E-01-1.30144E-04-8.87502E-01-6.95170E-14 2.09474E-13
 -1      2845 2.04342E+01 2.50138E-01-1.30980E-03-9.25354E-01-9.27022E-14 1.26935E-13
 -1      2846 2.09854E+01 1.38762E-01 1.69634E-03-1.06245E+00-5.75798E-14 6.11572E-14
 -1      2847 2.08491E+01 1.71001E-01 7.82905E-04-1.01393E+00-9.47849E-14 9.34383E-14
 -1      2848 2.05660E+01 2.27020E-01-2.02544E-03-1.06757E+00-7.55495E-14 5.63444E-14
 -1      2849 2.12460E+01 2.19390E-02-1.04544E-05-1.14119E+00-9.38867E-14 3.63900E-14
 -1      2850 2.10897E+01 9.11227E-02 2.36813E-03-1.11823E+00-5.43287E-14 2.82107E-14
 -1      2851 2.07394E+01 1.45097E-01-3.34266E-03-1.19864E+00-5.79108E-14-2.82535E-14
 -1      2852 2.15733E+01-1.85864E-01-2.81774E-03-1.14313E+00-9.63512E-14-2.67884E-14
 -1      2853 2.13955E+01-6.65477E-02 4.86745E-03-1.16757E+00-7.90499E-14 6.90124E-15
 -1      2854 2.09778E+01-2.55112E-02-5.53945E-03-1.29150E+00-6.52549E-14-4.35284E-14
 -1      2855 2.19880E+01-5.00947E-01-7.02358E-03-1.01447E+00-4.04045E-14 6.08611E-15
 -1      2856 2.17896E+01-3.25148E-01 8.32575E-03-1.11389E+00-6.89121E-14-1.51337E-14
 -1      2857 2.13156E+01-3.15180E-01-8.74059E-03-1.30455E+00-6.03741E-14-5.61873E-14
 -1      2858 2.25030E+01-9.03718E-01-1.24821E-02-6.90900E-01-9.49414E-15 7.94612E-16
 -1      2859 2.22933E+01-6.87991E-01 1.21426E-02-8.93367E-01-2.48905E-14 1.33189E-14
 -1      2860 2.17958E+01-7.37262E-01-1.24626E-02-1.17722E+00-5.50451E-14-7.45964E-14
 -1      2861 2.30989E+01-1.29447E+00-1.76947E-02-1.18067E-01-3.71478E-14 2.54325E-14
 -1      2862 2.29033E+01-1.10302E+00 1.40863E-02-4.36973E-01-3.50393E-14 6.66522E-14
 -1      2863 2.24527E+01-1.24889E+00-1.47666E-02-8.30592E-01-8.01495E-14 6.64998E-14
 -1      2864 2.36859E+01-1.44748E+00-1.85355E-02 6.97281E-01-1.07839E-13 1.31932E-14
 -1      2865 2.35536E+01-1.41452E+00 9.92032E-03 2.92926E-01-8.38189E-15 3.00088E-14
 -1      2866 2.32708E+01-1.69526E+00-1.29523E-02-1.88097E-01-7.16491E-14 2.02882E-13
 -1      2867 2.40983E+01-1.02516E+00-3.85121E-03 1.59096E+00-8.83752E-14-2.55900E-14
 -1      2868 2.40738E+01-1.33480E+00-6.35059E-03 1.21753E+00-1.13143E-13-7.10998E-15
 -1      2869 2.41226E+01-1.75536E+00-4.07992E-03 7.50795E-01-7.02078E-14 6.13132E-14
 -1      2870 2.41170E+01 1.53922E-01 1.34528E-02 2.09096E+00 1.23495E-14-1.71373E-14
 -1      2871 2.42005E+01-5.30075E-01-3.71658E-02 1.99051E+00-2.49540E-14-8.79496E-14
 -1      2872 2.47044E+01-9.60325E-01 1.33908E-02 1.77863E+00-5.26176E-14-7.90774E-14
 -1      2873 2.37345E+01 1.70098E+00 4.03562E-04 1.74790E+00 4.61089E-15 9.84954E-14
 -1      2874 2.39151E+01 9.01918E-01-6.20679E-02 2.07972E+00-3.28869E-14 1.14735E-14
 -1      2875 2.47601E+01 5.18729E-01-5.83082E-03 2.23233E+00-4.30029E-14-1.96223E-13
 -1      2876 2.34039E+01 2.62293E+00-3.13157E-02 3.77694E-01 2.61478E-13-6.43288E-14
 -1      2877 2.35180E+01 2.30872E+00-4.57770E-02 1.06052E+00 1.74971E-13 1.68914E-14
 -1      2878 2.44152E+01 2.48695E+00-1.51151E-02 1.53800E+00 7.68274E-14-1.80342E-13
 -1      2879 2.35154E+01 2.13782E+00-6.72298E-02-1.23535E+00 2.26241E-13-6.20172E-14
 -1      2880 2.34722E+01 2.57804E+00-8.48255E-03-5.99568E-01 2.25802E-13-6.59950E-14
 -1      2881 2.42631E+01 3.35531E+00 1.27684E-03-1.95277E-01 2.70090E-13-2.54371E-13
 -1      2882 2.39859E+01 6.90297E-01-5.48240E-02-2.14161E+00 2.59411E-14 1.63385E-13
 -1      2883 2.38200E+01 1.52171E+00 1.68618E-02-1.87145E+00 2.17340E-13 9.54081E-14
 -1      2884 2.44528E+01 2.41510E+00-1.69184E-02-1.79673E+00 7.07420E-14-1.43986E-13
 -1      2885 2.42087E+01-6.96115E-01-3.52151E-02-1.90108E+00-1.63556E-13 3.48530E-14
 -1      2886 2.41351E+01-6.05912E-02 6.97535E-03-2.05763E+00-4.33160E-14 8.97628E-14
 -1      2887 2.47993E+01 2.23770E-01-8.73447E-03-2.22691E+00-2.84148E-15-9.22873E-15
 -1      2888 2.40149E+01-1.38459E+00-5.55130E-03-1.08084E+00-8.28361E-14-4.52893E-15
 -1      2889 2.40573E+01-1.13010E+00-8.73265E-03-1.47141E+00-1.16506E-13 6.07328E-14
 -1      2890 2.46395E+01-1.13550E+00 4.97316E-03-1.64376E+00-1.10700E-13-9.94491E-14
 -1      2891 2.34607E+01-1.38527E+00 1.10248E-02-1.71826E-01 1.12345E-13 1.09360E-13
 -1      2892 2.36067E+01-1.45140E+00-1.93253E-02-5.67549E-01-1.48378E-13-8.06161E-14
 -1      2893 2.40089E+01-1.78608E+00-7.29777E-03-6.01091E-01-8.73949E-14-1.59050E-13
 -1      2894 2.28114E+01-1.04731E+00 1.46612E-02 5.20951E-01 1.79080E-13 1.20294E-13
 -1      2895 2.30116E+01-1.24794E+00-1.62649E-02 2.16819E-01 2.25302E-13 1.28635E-13
 -1      2896 2.31510E+01-1.63943E+00-9.78884E-03 2.99779E-01 9.83287E-14-1.18120E-13
 -1      2897 2.22126E+01-6.31460E-01 1.15269E-02 9.41005E-01 1.64769E-13 2.41386E-13
 -1      2898 2.24224E+01-8.44824E-01-1.16019E-02 7.54283E-01 2.00771E-13 1.90189E-13
 -1      2899 2.23497E+01-1.17733E+00-1.42137E-02 9.00315E-01 1.68292E-13-6.42240E-14
 -1      2900 2.17255E+01-2.80601E-01 7.74715E-03 1.13243E+00 2.48086E-13 2.98123E-13
 -1      2901 2.19214E+01-4.49301E-01-6.38737E-03 1.04578E+00 2.59460E-13 3.62618E-13
 -1      2902 2.17175E+01-6.68668E-01-1.17686E-02 1.20975E+00 1.39159E-13 1.76815E-13
 -1      2903 2.13462E+01-3.54822E-02 4.48507E-03 1.16621E+00-9.21025E-14 3.89563E-13
 -1      2904 2.15205E+01-1.48030E-01-2.40524E-03 1.15101E+00 5.14961E-14 3.69401E-13
 -1      2905 2.12607E+01-2.63449E-01-8.20560E-03 1.31128E+00 7.13913E-14 3.24226E-13
 -1      2906 2.10526E+01 1.12118E-01 2.21806E-03 1.10343E+00-3.04036E-13 3.14240E-13
 -1      2907 2.12048E+01 4.75644E-02 2.34907E-04 1.13293E+00-1.48949E-13 4.25273E-13
 -1      2908 2.09402E+01 1.01351E-02-5.20563E-03 1.28135E+00-1.90764E-13 2.60966E-13
 -1      2909 2.08223E+01 1.86654E-01 8.30820E-04 9.89304E-01-3.18404E-13 1.35222E-13
 -1      2910 2.09540E+01 1.56517E-01 1.81653E-03 1.04284E+00-3.76980E-13 2.30778E-13
 -1      2911 2.07143E+01 1.69615E-01-3.17958E-03 1.17697E+00-2.33195E-13 3.49177E-13
 -1      2912 2.06382E+01 2.13246E-01 8.71348E-05 8.54020E-01-2.38907E-13 9.12495E-14
 -1      2913 2.07511E+01 2.04910E-01 2.63597E-03 9.17468E-01-2.80270E-13 9.85310E-14
 -1      2914 2.05502E+01 2.46407E-01-1.98185E-03 1.03681E+00-2.70453E-13 2.19850E-13
 -1      2915 2.04888E+01 2.12072E-01-2.36984E-04 7.16040E-01 1.50208E-13 2.20605E-13
 -1      2916 2.05846E+01 2.15821E-01 2.93638E-03 7.80706E-01-6.08708E-14 1.48914E-13
 -1      2917 2.04262E+01 2.70192E-01-1.33149E-03 8.85441E-01-1.59182E-13 2.50083E-13
 -1      2918 2.03667E+01 1.97640E-01-3.15064E-04 5.85364E-01 1.94078E-13 1.72442E-13
 -1      2919 2.04468E+01 2.06646E-01 2.88671E-03 6.46616E-01 2.74128E-13 1.98397E-13
 -1      2920 2.03287E+01 2.64104E-01-9.90826E-04 7.37339E-01 1.78122E-13 2.80776E-13
 -1      2921 2.02668E+01 1.79921E-01-1.55540E-04 4.66218E-01 1.23002E-13 3.61015E-13
 -1      2922 2.03327E+01 1.89532E-01 2.62400E-03 5.22211E-01 8.83941E-14 3.61771E-13
 -1      2923 2.02498E+01 2.44557E-01-7.98462E-04 5.99986E-01 2.51141E-14 3.02182E-13
 -1      2924 2.01862E+01 1.65264E-01 6.46718E-04 3.59044E-01 3.33476E-13 2.40905E-13
 -1      2925 2.02382E+01 1.72305E-01 2.30416E-03 4.09285E-01 3.07764E-13 3.44332E-13
 -1      2926 2.01838E+01 2.22668E-01-7.35977E-04 4.76109E-01 2.54234E-13 3.20566E-13
 -1      2927 2.01175E+01 1.66079E-01 1.01061E-03 2.77904E-01-1.11415E-14 2.81107E-13
 -1      2928 2.01583E+01 1.70779E-01 2.09196E-03 3.24988E-01 1.10237E-13 1.10836E-13
 -1      2929 2.01226E+01 2.13568E-01-1.94597E-03 3.80506E-01 2.30062E-13 8.11115E-14
 -1      2930 2.00737E+01 2.20214E-01-1.98107E-03 3.08220E-01-8.73590E-14-1.63171E-13
 -1      2931 1.97955E+01 5.49552E-01-1.37559E-03 3.25520E-02-4.85664E-14 2.47240E-14
 -1      2932 1.98029E+01 5.42408E-01-6.74827E-04 8.65015E-02 2.52655E-14-2.37301E-13
 -1      2933 2.01228E+01 2.00399E-01 1.70390E-03-3.30231E-01-2.82045E-13 4.73676E-14
 -1      2934 2.00988E+01 1.94734E-01 3.53643E-04-2.96504E-01-3.37119E-13 1.07941E-13
 -1      2935 2.00849E+01 2.49228E-01-4.76263E-05-3.80310E-01-3.00954E-13-3.52841E-13
 -1      2936 1.98632E+01 4.70918E-01-2.12888E-03 2.40336E-01 1.88735E-13-2.96587E-13
 -1      2937 1.98952E+01 4.39565E-01 7.14409E-04 2.73491E-01 3.53363E-13-2.12159E-13
 -1      2938 1.98023E+01 5.43141E-01-7.39932E-04-8.53386E-02-1.03551E-13 3.23549E-13
 -1      2939 1.97953E+01 5.49996E-01-1.33084E-03-3.12742E-02-6.11477E-14 2.31171E-13
 -1      2940 1.97486E+01 5.72284E-01 1.94135E-03 9.07657E-04-2.27070E-14 1.60129E-13
 -1      2941 1.98166E+01 5.24545E-01-1.86088E-03 1.46033E-01-1.00877E-13-1.56616E-13
 -1      2942 1.98375E+01 5.04258E-01 6.13586E-05 1.92728E-01 4.22798E-14-5.61250E-14
 -1      2943 1.98157E+01 5.06871E-01 1.54291E-03 2.42869E-01 8.48836E-14-2.70052E-13
 -1      2944 1.97661E+01 5.55042E-01 1.83803E-03 1.30326E-01-3.88072E-14-7.58567E-14
 -1      2945 1.63472E+01-3.95747E+00 6.61065E-02 6.11697E+00-2.76515E-13 1.61482E-13
 -1      2946 1.31727E+01-2.64943E+00 1.26564E-01 5.54679E+00-2.89699E-13 2.52381E-13
 -1      2947 1.98357E+01 5.06807E-01-7.40502E-06-1.90502E-01 1.26795E-13 3.72696E-13
 -1      2948 1.98155E+01 5.26393E-01-1.83274E-03-1.44234E-01 4.98512E-14 4.45101E-13
 -1      2949 1.97651E+01 5.56890E-01 1.88321E-03-1.27867E-01 1.04846E-14 4.08638E-13
 -1      2950 1.98931E+01 4.43341E-01 7.75460E-04-2.72891E-01-6.53056E-15-2.46253E-13
 -1      2951 1.98609E+01 4.74228E-01-2.16139E-03-2.38891E-01 4.05543E-14-1.12510E-13
 -1      2952 1.98131E+01 5.10587E-01 1.52513E-03-2.40601E-01 4.12410E-14 9.62365E-14
 -1      2953 1.99688E+01 3.59304E-01 1.63085E-03-3.20575E-01-6.09023E-14-1.52080E-13
 -1      2954 1.99270E+01 3.97924E-01-2.50598E-03-3.03019E-01 2.82259E-14-2.02131E-13
 -1      2955 1.98889E+01 4.37193E-01 1.04185E-03-3.23570E-01 1.06716E-13-1.36294E-13
 -1      2956 1.99679E+01 2.43413E-01-4.92063E-04 4.59455E-02 1.01207E-13-9.66419E-14
 -1      2957 2.00300E+01 3.24830E-01 7.78939E-03 1.47462E-01 1.14512E-13-8.38266E-14
 -1      2958 2.00656E+01 2.83282E-01-2.85882E-03 3.85004E-02 8.65989E-14-1.08141E-13
 -1      2959 2.93812E+01 2.64332E+00-5.84271E-02 2.06859E+00 1.16823E-13 4.23828E-14
 -1      2960 2.90938E+01 4.47242E+00-2.18929E-01 1.79357E+00 7.21645E-16-8.75411E-14
 -1      2961 2.70137E+01-4.07554E+00-1.21338E-01 1.71635E+00 6.27623E-14-2.73850E-13
 -1      2962 2.51517E+01-4.72157E+00 6.10113E-02 2.92504E+00 6.88338E-15-2.40551E-13
 -1      2963 1.11622E+01-3.30931E+00 1.50053E-01-5.94961E+00 4.52416E-15-3.35704E-13
 -1      2964 1.50662E+01-4.07820E+00 5.16938E-02-6.26751E+00 1.79551E-13-3.66623E-13
 -1      2965 2.01815E+01 2.27580E+00 7.51977E-05-1.42043E+00-1.84573E-13-1.58284E-13
 -1      2966 2.00717E+01 4.23315E-01-1.34526E-03 2.78199E-01 1.28276E-13-8.64474E-14
 -1      2967 2.01705E+01 5.59803E-01 1.04154E-02 4.43308E-01 1.52461E-13-8.94255E-14
 -1      2968 2.02551E+01 8.28442E-01 4.95278E-04 6.09723E-01 1.64050E-13-1.36512E-13
 -1      2969 2.01507E+01 4.88416E-01-2.26770E-03 2.67199E-01 1.31670E-13-1.03905E-13
 -1      2970 6.96762E+00-3.92606E-01 1.76595E-01 5.34563E-01 1.26734E-13-4.67348E-13
 -1      2971 7.41747E+00-4.80005E-01 1.18062E-01-1.65754E+00 2.52853E-14-3.96738E-13
 -1      2972 9.66457E+00-1.52460E+00 7.57338E-02 4.38666E+00-2.17777E-13-1.35170E-14
 -1      2973 7.50298E+00-9.96873E-01 1.93214E-01 2.80559E+00-1.62079E-13-2.28734E-13
 -1      2974 8.53285E+00-3.24700E-01 1.69556E-01 1.81511E+00-2.09194E-13-1.60039E-13
 -1      2975 1.98811E+01 4.22501E-02 8.78093E-04-2.38751E-01 2.17742E-14-2.02813E-14
 -1      2976 1.98708E+01 5.60839E-02 1.69820E-03-2.17097E-01 6.18510E-14-1.28101E-14
 -1      2977 1.99651E+01 5.32689E-02-1.54555E-03-2.55882E-01 3.25607E-14 1.06306E-14
 -1      2978 1.98799E+01 7.48769E-02 5.67638E-04-1.85480E-01 5.90780E-14-4.20559E-14
 -1      2979 1.98866E+01 1.02504E-01 3.10051E-03-1.49508E-01 5.18616E-14-5.18176E-14
 -1      2980 1.99754E+01 8.97355E-02-2.00512E-03-1.98209E-01 4.30291E-14-2.09371E-14
 -1      2981 2.03117E+01 1.06471E+00 2.52505E-03-8.51455E-01-1.38100E-13-1.12020E-13
 -1      2982 2.02283E+01 8.23900E-01-5.04226E-03-6.05724E-01-1.31693E-13-1.11381E-13
 -1      2983 2.02669E+01 9.01433E-01 2.47588E-04-5.61711E-01-1.22622E-13-1.16230E-13
 -1      2984 2.89132E+01 2.27633E+00-1.14632E-01 2.15812E+00 1.72279E-13-2.55698E-13
 -1      2985 2.86030E+01 3.71174E+00-2.08048E-01 1.95051E+00 4.50473E-14-3.59129E-13
 -1      2986 2.86742E+01 3.44899E+00-2.27487E-01-2.03286E+00 8.65974E-14-3.04007E-13
 -1      2987 2.94460E+01 1.55011E+00-9.32831E-02-1.81988E+00 1.13465E-13-2.39392E-13
 -1      2988 1.97056E+01-4.86944E+00 8.92584E-02-5.48575E+00 2.22600E-13 3.17246E-14
 -1      2989 2.29774E+01-5.25376E+00-5.87733E-02-4.44774E+00 2.13302E-13 7.43693E-14
 -1      2990 7.22764E+00-1.16362E+00 1.57993E-01-2.98065E+00-7.51552E-14 2.42473E-13
 -1      2991 8.72697E+00-2.26080E+00 9.75612E-02-4.90431E+00 6.04794E-14 9.12881E-14
 -1      2992 1.14727E+01-1.99057E+00 1.71252E-01-4.91791E+00 9.33281E-14-1.08358E-13
 -1      2993 2.92672E+01-3.87194E-01-1.50859E-01-9.30331E-01 1.31457E-13-3.38618E-13
 -1      2994 2.82385E+01-2.49498E+00-5.03755E-02 2.31327E-01 9.40706E-14-4.08118E-13
 -1      2995 2.73606E+01-3.07188E+00-4.70812E-03 1.14605E-01 6.07847E-14-4.87707E-13
 -1      2996 2.81818E+01-6.10945E-02-3.45508E-02-1.70151E+00 1.13905E-13-3.50858E-13
 -1      2997 1.99341E+01 2.60635E+00-7.86529E-03 7.90057E-01 1.16914E-13-1.65445E-13
 -1      2998 1.98912E+01 2.69945E+00-6.20556E-03 6.41486E-01 7.20160E-14-1.78521E-13
 -1      2999 2.00097E+01 2.40358E+00 4.41635E-03 5.12160E-01 4.99482E-14-1.62187E-13
 -1      3000 2.00895E+01 2.20282E+00 5.65606E-03 7.39999E-01 1.04525E-13-1.44367E-13
 -1      3001 2.83796E+01 6.10875E+00-2.17496E-01-5.31106E-01 2.39669E-13-1.07008E-13
 -1      3002 2.84383E+01 5.42600E+00-1.19141E-01-1.55061E+00 2.41751E-13-2.32980E-13
 -1      3003 2.86393E+01-1.56562E+00-1.24062E-02 6.72720E-01 2.48999E-13-7.59115E-14
 -1      3004 2.89549E+01 4.18434E-01-1.61013E-01 1.51953E+00 2.39045E-13-1.09773E-13
 -1      3005 8.87091E+00-1.46033E+00 1.40441E-01-4.07519E+00-4.05925E-14-4.54026E-13
 -1      3006 1.11905E+01-2.73749E+00 1.19518E-01-5.75670E+00-1.07359E-13-3.78725E-13
 -1      3007 2.56348E+01-4.58841E+00 8.07682E-02-2.70470E+00 2.07598E-13-1.64035E-13
 -1      3008 2.73720E+01-3.64250E+00-1.79237E-01-1.08538E+00 2.11033E-13-5.40401E-14
 -1      3009 1.98868E+01 2.70801E+00-6.02003E-03-6.30795E-01-9.66124E-14-2.27635E-13
 -1      3010 1.99284E+01 2.61763E+00-7.55909E-03-7.81018E-01-1.19152E-13-2.39181E-13
 -1      3011 2.01993E+01-5.05822E+00 1.13134E-01-5.51340E+00 1.35100E-13-1.86628E-13
 -1      3012 2.27141E+01-5.34230E+00-1.01625E-01-4.56298E+00 1.77636E-13-3.39364E-13
 -1      3013 1.31276E+01-3.53646E+00 2.28958E-02 6.19054E+00 6.21864E-14 6.03184E-13
 -1      3014 1.01193E+01-2.59637E+00 1.56223E-01 5.32203E+00 7.88952E-14 3.40505E-13
 -1      3015 1.39189E+01-3.80401E+00 1.22933E-01-6.24264E+00-1.08843E-13-2.45942E-13
 -1      3016 1.70962E+01-4.71286E+00 9.00670E-03-6.33149E+00 2.67841E-14-7.83817E-14
 -1      3017 8.31436E+00-1.71856E+00 1.31102E-01 4.23686E+00 1.18516E-13-5.74540E-15
 -1      3018 7.15247E+00-8.75033E-01 1.26315E-01 2.37717E+00 8.80788E-14-2.75308E-13
 -1      3019 1.08895E+01-1.48805E+00 1.71601E-01 4.40149E+00 1.56368E-13 2.15550E-13
 -1      3020 2.84216E+01 5.36719E+00-1.61063E-01 1.50359E+00 3.94129E-14-3.52274E-13
 -1      3021 2.84807E+01 6.28144E+00-1.77456E-01 4.15296E-01 1.44773E-13-2.08676E-13
 -1      3022 2.70148E+01 5.48065E+00-9.42005E-02-9.49752E-03 2.37477E-13-1.81511E-13
 -1      3023 2.00674E+01 2.35329E-01 8.04007E-04-3.09159E-01-2.86468E-13-2.51739E-13
 -1      3024 2.19261E+01-5.18935E+00-6.81861E-02 4.80579E+00-1.25580E-13-1.43635E-15
 -1      3025 1.89934E+01-4.66276E+00 1.06742E-01 5.63477E+00-2.35853E-13 1.18586E-13
 -1      3026 1.85079E+01-3.80164E+00 1.00568E-01 5.20448E+00-3.36016E-13 9.49518E-14
 -1      3027 2.88250E+01 5.85781E+00-1.30510E-01 1.22182E+00-4.20497E-14-7.18869E-14
 -1      3028 2.82833E+01 6.22568E+00-1.86922E-01 2.71913E-01 1.52933E-14 8.35096E-15
 -1      3029 2.00814E+01-4.99354E+00 2.73383E-03 5.49705E+00 4.19942E-14 4.44790E-13
 -1      3030 1.70266E+01-4.34528E+00 1.56707E-01 6.05516E+00 1.52933E-14 5.71605E-13
 -1      3031 2.57253E+01-4.60368E+00 4.27054E-02-2.53348E+00 2.74593E-13 1.72640E-14
 -1      3032 2.76572E+01-3.59901E+00-1.13263E-01-1.06766E+00 1.48364E-13-2.35367E-14
 -1      3033 2.83305E+01 5.83373E+00-1.96342E-01-1.00365E+00 5.81479E-14 4.76702E-15
 -1      3034 2.89753E+01 4.85555E+00-1.10965E-01-1.81346E+00 7.41351E-14 1.41692E-13
 -1      3035 1.99820E+01 2.49458E+00-6.39967E-03-8.96324E-01-1.29053E-13-2.28625E-13
 -1      3036 2.00353E+01 2.35011E+00-1.31675E-02-1.03678E+00-1.48162E-13-2.05157E-13
 -1      3037 2.00780E+01 2.21268E+00 2.82456E-03-7.31029E-01-1.13296E-13-2.24745E-13
 -1      3038 1.99451E+01 2.55575E+00 3.25743E-03 5.07230E-03-1.43137E-14-2.08199E-13
 -1      3039 1.98072E+01 2.88411E+00-5.58383E-03-6.13759E-02-1.48919E-14-2.05754E-13
 -1      3040 1.98145E+01 2.86974E+00-5.45278E-03-2.15424E-01-3.36899E-14-2.18598E-13
 -1      3041 2.84097E+01 1.06175E+00-6.17686E-02 2.04940E+00 1.60719E-13-5.64271E-14
 -1      3042 2.76156E+01-2.82590E+00-4.06802E-02 7.59423E-02 2.50857E-13 8.08797E-14
 -1      3043 8.34690E+00-4.67953E-01 1.78363E-01-1.90155E+00-8.01442E-14-3.89411E-14
 -1      3044 2.02910E+01 1.59188E+00-1.19516E-03 1.16206E+00 1.99318E-13-1.26790E-13
 -1      3045 2.73623E+01 3.99380E+00-1.00149E-01 1.83518E+00 9.79078E-14-4.98553E-13
 -1      3046 2.76110E+01 3.86528E+00-4.03292E-02-1.96702E+00 1.00697E-13-2.80193E-13
 -1      3047 1.98910E+01 4.33226E-01 9.88107E-04 3.23981E-01 2.23928E-13-1.45072E-13
 -1      3048 1.99299E+01 3.94759E-01-2.06865E-03 3.02931E-01 3.45671E-13-1.04106E-13
 -1      3049 1.99685E+01 3.55200E-01 9.25244E-04 3.17668E-01 2.43169E-13-1.03501E-13
 -1      3050 2.80003E+01 3.25625E+00-1.16004E-01-2.07510E+00 1.15880E-14 1.52711E-13
 -1      3051 2.77192E+01 4.45418E+00-1.26053E-01 1.65002E+00 2.45914E-14-3.72966E-14
 -1      3052 2.00073E+01 1.60699E-01-2.52328E-03-1.07217E-01 4.85810E-14-7.17526E-14
 -1      3053 2.00018E+01 3.10876E-01-1.86169E-03 3.23528E-01 1.84860E-13-1.01396E-13
 -1      3054 2.00417E+01 2.67071E-01 9.94958E-04 3.18504E-01 1.53155E-13-1.43399E-13
 -1      3055 2.00627E+01 2.65287E-01 1.87420E-03 3.56234E-01 1.21639E-13 4.91805E-14
 -1      3056 1.99782E+01 3.49476E-01 1.13205E-03 3.60596E-01 1.67925E-13-1.26899E-13
 -1      3057 2.71472E+01-3.97015E+00-1.87301E-02 1.73460E+00 1.21625E-13 1.19113E-13
 -1      3058 2.58886E+01-4.50624E+00 1.89705E-02 2.19427E+00 6.03198E-14 7.65291E-14
 -1      3059 2.73902E+01-3.35688E+00-1.21377E-01 4.86938E-01-1.87454E-14 2.49176E-13
 -1      3060 2.00294E+01 2.81015E-01-1.19159E-03-3.15444E-01-1.92769E-13-2.34835E-13
 -1      3061 9.82755E+00 1.16934E-01 9.43302E-02-1.64281E+00 1.21118E-13-3.32817E-13
 -1      3062 9.09287E+00-5.40003E-01 1.72809E-01-2.80798E+00 2.14724E-14-3.04451E-13
 -1      3063 1.11187E+01-7.89451E-01 8.29539E-02-3.70171E+00-2.77278E-14-3.24088E-13
 -1      3064 2.00031E+01 3.17577E-01-3.12738E-04-3.55389E-01-1.76589E-13-2.96663E-13
 -1      3065 2.45186E+01-4.68736E+00 2.83850E-02-2.83929E+00 2.30913E-13 2.18020E-14
 -1      3066 1.38616E+01-2.80048E+00 1.40002E-01-5.55803E+00-1.10120E-13-2.19325E-13
 -1      3067 1.59201E+01-3.40960E+00 1.37199E-01 5.65543E+00 1.93873E-14 5.03472E-13
 -1      3068 2.34148E+01-4.89979E+00-2.55680E-02 3.59950E+00 6.83759E-14 1.10963E-13
 -1      3069 2.19500E+01-5.02908E+00 6.81432E-02 4.68857E+00 4.86139E-14 2.86562E-13
 -1      3070 2.06852E+01-4.51305E+00 4.90086E-02 4.79446E+00 3.88023E-14 3.16851E-13
 -1      3071 1.91687E+01-4.47629E+00 9.15935E-02-5.47760E+00 3.53884E-15-2.21153E-13
 -1      3072 2.37260E+01-4.64828E+00 5.06797E-02 3.31201E+00-7.16927E-14-1.50720E-13
 -1      3073 1.61398E+01-3.28700E+00 9.37977E-02-5.57349E+00 7.35870E-14-2.45789E-13
 -1      3074 1.80361E+01-4.35256E+00 8.21417E-02-5.82100E+00 1.42455E-13-7.05616E-14
 -1      3075 2.03292E+01-4.20012E+00 7.97543E-02-4.68741E+00 7.45307E-14 1.46912E-13
 -1      3076 2.01453E+01 2.13446E+00 8.30383E-04-1.13601E+00-1.47342E-13-1.78821E-13
 -1      3077 2.02927E+01 1.68535E+00-1.06170E-02-1.24476E+00-1.84281E-13-1.27757E-13
 -1      3078 2.02879E+01 1.30774E+00-1.27756E-03-9.71420E-01-1.51435E-13-1.13650E-13
 -1      3079 2.02014E+01 1.86194E+00 5.17050E-03-9.21821E-01-1.40514E-13-1.89069E-13
 -1      3080 2.43410E+01-4.72878E+00 4.12797E-02-3.13953E+00 1.26843E-13-1.18669E-13
 -1      3081 2.02831E+01 1.37285E+00 2.39223E-03 9.14447E-01 1.84512E-13-1.27657E-13
 -1      3082 2.02823E+01 1.38498E+00 5.49759E-03-8.77643E-01-1.37266E-13-1.47046E-13
 -1      3083 1.25222E+01-1.80678E+00 1.53755E-01 4.93416E+00-2.72261E-13 1.53558E-13
 -1      3084 1.20700E+01-9.61112E-01 9.07659E-02 4.03640E+00-3.39305E-13 4.13836E-14
 -1      3085 1.51204E+01-2.12787E+00 5.00710E-02 4.86784E+00-4.60708E-13 3.53675E-14
 -1      3086 2.90970E+01-4.24137E-01-1.12621E-01-1.32290E+00-2.96083E-14 3.36287E-13
 -1      3087 2.82750E+01-1.60111E+00-1.03618E-02-1.00692E+00-9.64576E-14 3.02661E-13
 -1      3088 2.80058E+01 2.34068E-01-1.14406E-01-2.06466E+00-1.16324E-13 3.34927E-13
 -1      3089 1.98300E+01 2.83307E+00-5.74742E-03-3.49062E-01-4.83096E-14-2.06222E-13
 -1      3090 1.98536E+01 2.78451E+00-6.06934E-03-5.02589E-01-7.64610E-14-2.04033E-13
 -1      3091 2.00011E+01 2.40929E+00 2.17810E-03-5.01210E-01-7.19961E-14-2.00782E-13
 -1      3092 1.99574E+01 2.52071E+00 2.59037E-03-2.51746E-01-4.01909E-14-1.94042E-13
 -1      3093 2.79118E+01 8.75048E-01-3.40868E-02 2.05018E+00 1.60996E-13-3.60101E-13
 -1      3094 2.75507E+01-2.66531E+00-2.11407E-02 2.28361E-01 2.19418E-13-9.91568E-14
 -1      3095 8.82059E+00-1.49508E-01 1.55986E-01 1.40045E+00 1.31548E-13-3.69135E-13
 -1      3096 2.02459E+01 1.48533E+00-7.99998E-03 7.93558E-01 1.59821E-13-1.25735E-13
 -1      3097 2.02080E+01 1.68156E+00-5.58531E-04 7.38461E-01 1.39011E-13-1.21247E-13
 -1      3098 2.58982E+01 2.07988E+00-5.96037E-02 2.36160E+00-3.71925E-14-3.00648E-13
 -1      3099 2.55198E+01 3.34548E+00-1.18994E-01 1.74822E+00 4.92800E-14-2.69985E-13
 -1      3100 2.02299E+01 4.48792E-01 3.89107E-03-9.60403E-02-1.03000E-13-1.43833E-13
 -1      3101 2.01932E+01 3.46629E-01-2.02857E-03-5.14771E-03-1.04042E-13-1.45969E-13
 -1      3102 2.01787E+01 2.69092E-01 2.94181E-03 6.33791E-02-1.09029E-13-1.35615E-13
 -1      3103 2.01518E+01 2.05823E-01-9.37026E-04 1.22831E-01-1.10578E-13-1.59767E-13
 -1      3104 2.02466E+01 3.72645E-01-9.00537E-04 8.58465E-03-1.02922E-13-1.74364E-13
 -1      3105 2.01343E+01 1.59628E-01 1.92365E-03 1.68469E-01-1.09625E-13-1.59941E-13
 -1      3106 2.01176E+01 1.23839E-01-1.48791E-04 2.07300E-01-1.01701E-13-1.70381E-13
 -1      3107 2.02060E+01 2.24968E-01-1.02782E-03 1.28380E-01-1.10253E-13-1.67597E-13
 -1      3108 2.00998E+01 9.98287E-02 1.05033E-03 2.38198E-01-7.00613E-14-1.57410E-13
 -1      3109 2.00917E+01 8.39098E-02 4.13356E-04 2.65035E-01-4.53160E-14-1.52210E-13
 -1      3110 2.01663E+01 1.39962E-01-9.54674E-04 2.09577E-01-7.86297E-14-2.02748E-13
 -1      3111 2.00748E+01 7.60881E-02 3.37181E-04 2.88027E-01-4.32902E-14-1.34586E-13
 -1      3112 2.00737E+01 7.49293E-02 8.26904E-04 3.09556E-01-6.73344E-14-1.25914E-13
 -1      3113 2.01302E+01 1.00694E-01-7.89097E-04 2.67159E-01-3.49952E-14-1.83513E-13
 -1      3114 2.00576E+01 7.92599E-02-2.39833E-04 3.30138E-01-6.95748E-14-1.05905E-13
 -1      3115 2.00621E+01 8.93422E-02 1.14872E-03 3.51506E-01-2.92088E-14-9.99938E-14
 -1      3116 2.00979E+01 9.55246E-02-5.88238E-04 3.13576E-01-3.95237E-14-1.53102E-13
 -1      3117 2.00462E+01 1.02994E-01-7.14669E-04 3.74032E-01-4.65094E-14-9.50216E-14
 -1      3118 2.00553E+01 1.21766E-01 1.41558E-03 3.99200E-01-2.59089E-14-8.65397E-14
 -1      3119 2.00684E+01 1.16315E-01-3.75161E-04 3.58808E-01-3.64688E-14-1.02270E-13
 -1      3120 2.00389E+01 1.42582E-01-1.11721E-03 4.27098E-01-1.01374E-15-7.59858E-14
 -1      3121 2.00516E+01 1.67973E-01 1.65055E-03 4.59089E-01-1.11802E-15-9.03529E-14
 -1      3122 2.00400E+01 1.57100E-01-1.56367E-04 4.10737E-01-1.66949E-14-7.81059E-14
 -1      3123 2.00338E+01 1.94026E-01-1.46689E-03 4.95033E-01-4.79506E-14-9.75833E-14
 -1      3124 2.00498E+01 2.23993E-01 1.86807E-03 5.36061E-01-5.29775E-14-1.14842E-13
 -1      3125 2.00108E+01 2.13010E-01 6.52857E-05 4.75530E-01-3.00510E-14-1.07579E-13
 -1      3126 2.00297E+01 2.53125E-01-1.76775E-03 5.82076E-01-3.30350E-14-1.53443E-13
 -1      3127 2.00490E+01 2.85140E-01 2.08013E-03 6.33558E-01-1.18292E-14-1.69522E-13
 -1      3128 1.99787E+01 2.79265E-01 2.81640E-04 5.57917E-01-6.84332E-14-2.16777E-13
 -1      3129 2.00260E+01 3.14412E-01-2.00234E-03 6.91066E-01-2.51561E-14-1.65446E-13
 -1      3130 2.00490E+01 3.44820E-01 2.30298E-03 7.53516E-01-9.31348E-14-1.28565E-13
 -1      3131 1.99421E+01 3.50057E-01 4.67890E-04 6.61375E-01-4.79943E-14-1.59168E-13
 -1      3132 2.00236E+01 3.69781E-01-2.12139E-03 8.23323E-01-1.35785E-13-6.59607E-14
 -1      3133 2.00518E+01 3.92953E-01 2.56759E-03 8.96119E-01-1.12379E-13 5.28517E-15
 -1      3134 1.99004E+01 4.17150E-01 5.66544E-04 7.88224E-01-4.24804E-14-9.80441E-14
 -1      3135 2.00259E+01 4.06705E-01-2.02795E-03 9.78348E-01-7.15072E-14 9.83235E-14
 -1      3136 2.00629E+01 4.13957E-01 2.93047E-03 1.05935E+00-2.85940E-14 7.70088E-14
 -1      3137 1.98549E+01 4.68081E-01 4.64699E-04 9.39664E-01-3.48818E-14 7.66827E-14
 -1      3138 2.00416E+01 4.06001E-01-1.54936E-03 1.15330E+00-1.78306E-14 9.31037E-14
 -1      3139 2.00944E+01 3.84331E-01 3.47398E-03 1.23826E+00 1.50919E-14 4.92380E-14
 -1      3140 1.98116E+01 4.83861E-01-4.69700E-05 1.11579E+00-1.54337E-14 1.79748E-13
 -1      3141 2.00885E+01 3.39375E-01-3.91193E-04 1.34203E+00 3.33378E-14 3.59867E-14
 -1      3142 2.01697E+01 2.70281E-01 4.24996E-03 1.42366E+00 3.19223E-14 6.46692E-14
 -1      3143 1.97842E+01 4.36248E-01-1.33129E-03 1.31547E+00 1.26039E-16 1.27082E-13
 -1      3144 2.01996E+01 1.67534E-01 1.90135E-03 1.53316E+00 4.22521E-14 1.29035E-13
 -1      3145 2.03301E+01 2.67604E-02 5.16394E-03 1.59928E+00 7.90617E-14 1.58483E-13
 -1      3146 1.97999E+01 2.85072E-01-4.00637E-03 1.53562E+00 5.42301E-14 1.63475E-13
 -1      3147 2.04312E+01-1.58748E-01 6.29812E-03 1.70497E+00 3.07004E-14 1.65575E-13
 -1      3148 2.06411E+01-3.98388E-01 5.71817E-03 1.73500E+00 7.07182E-14 9.35205E-14
 -1      3149 1.99086E+01-2.34493E-02-8.94881E-03 1.76815E+00 5.77798E-14 1.55163E-13
 -1      3150 2.08713E+01-6.88494E-01 1.41046E-02 1.81223E+00 1.48977E-13 3.69642E-14
 -1      3151 2.11954E+01-1.04209E+00 4.77521E-03 1.77109E+00 1.08983E-13-1.41723E-14
 -1      3152 2.01959E+01-5.52043E-01-1.65916E-02 1.98880E+00 8.22054E-14 1.86622E-13
 -1      3153 2.16278E+01-1.43179E+00 2.46194E-02 1.77049E+00 3.06899E-14-6.54224E-14
 -1      3154 2.20977E+01-1.87570E+00 6.09048E-04 1.60550E+00-4.16984E-14 5.07300E-14
 -1      3155 2.07872E+01-1.33344E+00-2.52435E-02 2.13247E+00 7.68242E-14 7.23059E-14
 -1      3156 2.28151E+01-2.30735E+00 3.53342E-02 1.43242E+00-6.16937E-14 3.30883E-14
 -1      3157 2.33999E+01-2.70602E+00-1.49352E-02 1.07047E+00-4.22145E-15 7.09834E-14
 -1      3158 2.18244E+01-2.34236E+00-4.21907E-02 2.06345E+00-2.72148E-14 8.67067E-14
 -1      3159 2.44557E+01-2.97449E+00 2.85564E-02 5.27223E-01-3.36224E-14 5.16375E-14
 -1      3160 2.49951E+01-2.90477E+00 2.68860E-03-6.07602E-02-1.10146E-13 2.89577E-14
 -1      3161 2.35360E+01-3.33513E+00-5.41179E-02 1.56255E+00-4.58865E-14 8.75168E-15
 -1      3162 2.63983E+01-1.86064E+00-3.81790E-02-1.36413E+00-8.99558E-14 1.17829E-13
 -1      3163 2.67752E+01-6.27238E-01-5.12848E-02-2.06449E+00-5.84532E-14 2.91156E-14
 -1      3164 2.69254E+01 9.54029E-01-7.02973E-02-2.20994E+00-3.57769E-14-3.17246E-14
 -1      3165 2.64573E+01 3.54952E+00-1.75265E-01-1.93878E+00 8.53068E-14-1.54949E-13
 -1      3166 2.63829E+01 4.77084E+00-8.36513E-02-1.08861E+00 7.20812E-14-4.93737E-14
 -1      3167 2.63119E+01 5.11713E+00-9.62146E-02 1.61192E-01 5.63438E-14-2.74641E-14
 -1      3168 2.63520E+01 4.52003E+00-1.69897E-01 1.25033E+00-1.51545E-14-4.61714E-14
 -1      3169 2.56552E+01-2.52066E+00-3.27139E-02 7.52898E-01 1.82244E-13 2.39206E-13
 -1      3170 2.52180E+01-2.89264E+00 2.57754E-02 1.17194E-01 8.32888E-14 2.67422E-13
 -1      3171 2.41284E+01-2.88013E+00-1.34777E-02-6.02563E-01 5.59188E-14 4.26987E-13
 -1      3172 2.35231E+01-2.61483E+00 4.05376E-02-1.05703E+00 4.68885E-14 3.58683E-13
 -1      3173 2.45407E+01-3.39451E+00-5.24150E-02-8.62233E-01 9.37445E-14 1.59490E-13
 -1      3174 2.26691E+01-2.26440E+00-8.47745E-03-1.37648E+00 1.45543E-14 3.44304E-13
 -1      3175 2.21537E+01-1.81252E+00 3.04491E-02-1.62445E+00 8.90893E-14 3.69234E-13
 -1      3176 2.25878E+01-2.77903E+00-5.16371E-02-1.76530E+00 1.49963E-14 4.92027E-13
 -1      3177 2.15906E+01-1.40305E+00-1.00400E-03-1.70644E+00 7.36819E-14 2.42922E-13
 -1      3178 2.12130E+01-9.97473E-01 1.79237E-02-1.79597E+00-4.26313E-14 2.87295E-13
 -1      3179 2.13083E+01-1.77056E+00-3.21482E-02-2.06725E+00 3.36974E-14 3.24132E-13
 -1      3180 2.08934E+01-6.64461E-01 2.98408E-03-1.75594E+00-2.20020E-13 2.93669E-13
 -1      3181 2.06413E+01-3.70297E-01 9.22789E-03-1.75132E+00-2.66015E-13 2.05953E-13
 -1      3182 2.05170E+01-8.79450E-01-2.13240E-02-2.02732E+00-1.35696E-13 1.81226E-13
 -1      3183 2.04832E+01-1.42737E-01 4.04140E-03-1.66108E+00-2.90650E-13 1.08632E-13
 -1      3184 2.03245E+01 4.28812E-02 3.93629E-03-1.60632E+00-1.96333E-13 4.02418E-14
 -1      3185 2.00976E+01-2.40070E-01-1.21680E-02-1.84924E+00-2.78718E-13 1.96196E-13
 -1      3186 2.02610E+01 1.79108E-01 3.79544E-03-1.50046E+00-1.78653E-14 1.40934E-13
 -1      3187 2.01629E+01 2.81169E-01 9.19960E-04-1.42153E+00 2.34575E-15 1.43048E-13
 -1      3188 1.99072E+01 1.60854E-01-6.21479E-03-1.62862E+00-3.68751E-14 2.08802E-13
 -1      3189 2.01498E+01 3.50477E-01 3.26511E-03-1.31505E+00-3.94591E-14 2.32073E-13
 -1      3190 2.00877E+01 3.95376E-01-6.85180E-04-1.22711E+00-1.47374E-13 1.69024E-13
 -1      3191 1.98443E+01 3.80900E-01-2.78039E-03-1.40481E+00-5.69506E-14 3.55697E-13
 -1      3192 2.00985E+01 4.20684E-01 2.79976E-03-1.12662E+00-2.13069E-13 2.66671E-13
 -1      3193 2.00568E+01 4.30006E-01-1.42385E-03-1.03854E+00-1.99420E-13 1.88054E-13
 -1      3194 1.98455E+01 4.77748E-01-9.63794E-04-1.19310E+00-1.65684E-13 3.37865E-13
 -1      3195 2.00767E+01 4.29185E-01 2.46603E-03-9.46940E-01-1.55105E-13 7.27746E-14
 -1      3196 2.00462E+01 4.18596E-01-1.70523E-03-8.63747E-01 1.63299E-14 1.94561E-13
 -1      3197 1.98741E+01 4.97828E-01-8.77409E-05-9.99337E-01-1.17189E-13 3.36679E-13
 -1      3198 2.00676E+01 4.04683E-01 2.26185E-03-7.82372E-01 3.16373E-15 3.01166E-13
 -1      3199 2.00429E+01 3.84750E-01-1.87031E-03-7.06377E-01 1.03122E-13 1.73403E-13
 -1      3200 1.99103E+01 4.74358E-01 4.39139E-05-8.25997E-01 8.22915E-14 3.66825E-13
 -1      3201 2.00626E+01 3.66521E-01 2.17475E-03-6.35493E-01 1.99313E-14-1.18917E-13
 -1      3202 2.00415E+01 3.44885E-01-1.57024E-03-5.67520E-01-1.81122E-14-1.01943E-13
 -1      3203 1.99438E+01 4.31198E-01-4.16959E-04-6.73527E-01-4.40293E-14 1.06867E-13
 -1      3204 2.00579E+01 3.26742E-01 2.11019E-03-5.05422E-01-3.05380E-14-3.34788E-13
 -1      3205 2.00400E+01 3.10098E-01 1.24301E-04-4.47112E-01-2.19060E-13-3.72500E-13
 -1      3206 1.99701E+01 3.84701E-01-9.65475E-04-5.39923E-01-1.26946E-13-3.67719E-13
 -1      3207 2.00344E+01 5.82894E-02 9.22802E-04-3.04019E-01 2.62981E-14-2.49261E-14
 -1      3208 2.00284E+01 6.09639E-02 4.89784E-04-2.84239E-01 9.33878E-15 1.96901E-15
 -1      3209 2.00691E+01 1.29734E-01 1.77491E-03-4.40270E-01 1.82882E-14 3.78647E-14
 -1      3210 2.00448E+01 1.09237E-01-9.31077E-04-4.11585E-01 5.08330E-14-5.06474E-15
 -1      3211 2.00939E+01 1.74887E-01 2.01779E-03-5.10851E-01-3.83573E-14 1.00202E-13
 -1      3212 2.00643E+01 1.50563E-01-1.22282E-03-4.73701E-01 7.47526E-15 6.83319E-14
 -1      3213 2.00427E+01 1.68871E-01-2.56395E-04-4.66522E-01-3.11255E-14-1.53236E-14
 -1      3214 2.01246E+01 2.24124E-01 2.24797E-03-6.00770E-01-1.87820E-14 2.00305E-14
 -1      3215 2.00894E+01 1.98209E-01-1.44757E-03-5.53872E-01 1.79169E-14 9.46747E-14
 -1      3216 2.00386E+01 2.23356E-01-1.22086E-04-5.44393E-01 5.95761E-15 4.33041E-14
 -1      3217 2.01623E+01 2.71674E-01 2.45725E-03-7.11518E-01 1.05717E-14-6.02801E-14
 -1      3218 2.01207E+01 2.47384E-01-1.58904E-03-6.54601E-01-4.55731E-14-3.38171E-14
 -1      3219 2.00359E+01 2.81347E-01-3.14492E-05-6.42467E-01 1.86215E-14 6.49264E-15
 -1      3220 2.02095E+01 3.08737E-01 2.63803E-03-8.42353E-01-7.83437E-14 7.65756E-14
 -1      3221 2.01597E+01 2.91011E-01-1.59278E-03-7.76518E-01-1.95136E-14-2.25599E-15
 -1      3222 2.00350E+01 3.35360E-01-4.22910E-05-7.62462E-01-3.84658E-14-3.85759E-14
 -1      3223 2.02717E+01 3.21851E-01 2.78802E-03-9.89477E-01-9.62042E-14 5.58547E-14
 -1      3224 2.02109E+01 3.18222E-01-1.35778E-03-9.17740E-01-5.76669E-14 7.63455E-14
 -1      3225 2.00386E+01 3.74126E-01-2.46394E-04-9.04219E-01-8.00237E-14 1.02667E-13
 -1      3226 2.03597E+01 2.90963E-01 2.89563E-03-1.14486E+00-9.71740E-14-5.90724E-15
 -1      3227 2.02826E+01 3.12575E-01-7.11578E-04-1.07293E+00-9.72817E-14-7.84813E-16
 -1      3228 2.00533E+01 3.80612E-01-8.31493E-04-1.06521E+00-1.01925E-13-1.37079E-14
 -1      3229 2.04929E+01 1.87766E-01 2.90476E-03-1.29435E+00-4.99977E-14 2.01608E-14
 -1      3230 2.03906E+01 2.50141E-01 6.21083E-04-1.23176E+00-8.69658E-14 6.83672E-14
 -1      3231 2.00930E+01 3.29841E-01-2.09823E-03-1.23974E+00-1.15642E-13 2.30916E-14
 -1      3232 2.07035E+01-2.39630E-02 2.63105E-03-1.41454E+00-9.90606E-15 3.32489E-14
 -1      3233 2.05622E+01 9.85618E-02 3.04154E-03-1.37630E+00-2.41750E-14 9.91004E-14
 -1      3234 2.01830E+01 1.87110E-01-4.49832E-03-1.41709E+00-4.36209E-14 1.07093E-13
 -1      3235 2.10393E+01-3.82425E-01 1.57820E-03-1.46779E+00-1.32133E-13 3.13882E-14
 -1      3236 2.08407E+01-1.80388E-01 7.10325E-03-1.47647E+00-5.17598E-14 4.18383E-14
 -1      3237 2.03666E+01-9.11941E-02-8.57232E-03-1.57780E+00-6.50934E-14 2.10541E-13
 -1      3238 2.15617E+01-9.09178E-01-1.45958E-03-1.39445E+00-8.07414E-14 7.68591E-14
 -1      3239 2.12877E+01-6.19802E-01 1.32822E-02-1.48247E+00-1.25015E-13 4.37795E-14
 -1      3240 2.07106E+01-5.49609E-01-1.47190E-02-1.68565E+00-1.32899E-13 1.40929E-13
 -1      3241 2.23283E+01-1.56130E+00-7.06852E-03-1.10339E+00-1.50024E-13 1.53930E-13
 -1      3242 2.19740E+01-1.21776E+00 2.13296E-02-1.31237E+00-9.43501E-14 9.45084E-14
 -1      3243 2.13079E+01-1.20979E+00-2.26403E-02-1.67212E+00-1.28134E-13 1.60676E-13
 -1      3244 2.33353E+01-2.15618E+00-1.75894E-02-4.90880E-01-5.40566E-14 1.24575E-13
 -1      3245 2.29348E+01-1.87213E+00 2.69041E-02-8.52818E-01-8.82528E-14 1.27900E-13
 -1      3246 2.22478E+01-1.99899E+00-3.09438E-02-1.40896E+00-1.13514E-13 9.37080E-14
 -1      3247 2.44449E+01-2.25197E+00-2.45407E-02 5.03187E-01-3.95097E-14 2.25879E-14
 -1      3248 2.41031E+01-2.28071E+00 2.60290E-02 1.65237E-02 1.07496E-14 8.96735E-14
 -1      3249 2.35603E+01-2.68095E+00-4.48141E-02-7.34245E-01 2.27695E-14 5.76518E-14
 -1      3250 2.53354E+01-1.23189E+00 7.36471E-03 1.72637E+00 1.33036E-14-1.46534E-13
 -1      3251 2.51954E+01-1.97719E+00-2.02130E-02 1.23529E+00 7.12277E-15-6.26521E-14
 -1      3252 2.50585E+01-2.63503E+00-6.10234E-02 4.35997E-01 6.21933E-14-6.10306E-14
 -1      3253 2.60127E+01 6.58917E-01-8.71460E-02 2.31181E+00-2.39392E-16-2.77077E-13
 -1      3254 2.53682E+01 4.17234E+00-1.37957E-01 1.05774E+00 2.54519E-13-2.33175E-13
 -1      3255 2.53064E+01 4.08134E+00-1.86082E-01-1.05136E+00 1.67553E-13-1.55601E-13
 -1      3256 2.52789E+01 4.37533E+00-1.25509E-01-1.78786E-02 2.78444E-13-1.55410E-13
 -1      3257 2.60532E+01 1.56706E+00-9.33465E-02-2.34327E+00 3.25018E-14-2.25153E-13
 -1      3258 2.59321E+01 2.86992E+00-8.86174E-02-1.85699E+00 6.89865E-14-2.24843E-13
 -1      3259 2.61231E+01 2.13882E-01-6.72407E-02-2.24193E+00-1.94705E-14-1.96520E-13
 -1      3260 2.50537E+01-2.07576E+00-1.36642E-02-1.06168E+00-4.32449E-14-3.14677E-13
 -1      3261 2.52131E+01-1.47376E+00 8.17774E-04-1.54072E+00-9.87856E-14-2.48631E-13
 -1      3262 2.39265E+01-2.24856E+00 2.20582E-02 1.33071E-01-2.26850E-14-2.40107E-13
 -1      3263 2.42877E+01-2.29454E+00-3.25038E-02-3.52088E-01-5.88002E-14-2.26855E-13
 -1      3264 2.48411E+01-2.68640E+00-5.12513E-02-2.52096E-01-4.61523E-14-4.20438E-13
 -1      3265 2.27967E+01-1.79096E+00 2.77846E-02 9.34517E-01 1.19037E-13-5.50935E-14
 -1      3266 2.31938E+01-2.08131E+00-1.19529E-02 5.83771E-01 4.02629E-14-1.07210E-13
 -1      3267 2.34127E+01-2.49738E+00 1.19006E-04 7.94318E-01-5.41112E-14-2.40478E-13
 -1      3268 2.18664E+01-1.12265E+00 1.98602E-02 1.34950E+00 5.20157E-14 9.67902E-14
 -1      3269 2.22080E+01-1.46586E+00-7.00018E-03 1.16134E+00 1.29547E-13 6.47451E-14
 -1      3270 2.21076E+01-1.89969E+00-3.39987E-02 1.46192E+00 8.29458E-15 1.81232E-13
 -1      3271 2.12207E+01-5.45488E-01 1.21816E-02 1.48836E+00 9.31283E-14 1.35539E-13
 -1      3272 2.14826E+01-8.23806E-01-1.18848E-03 1.41446E+00 4.01504E-14 1.37098E-13
 -1      3273 2.12233E+01-1.09995E+00-2.09412E-02 1.67596E+00 6.25457E-14 1.07739E-14
 -1      3274 2.08019E+01-1.28564E-01 6.36988E-03 1.46512E+00 1.07849E-14 2.15833E-13
 -1      3275 2.09904E+01-3.19938E-01 1.42985E-03 1.46572E+00 9.63663E-14 2.64596E-13
 -1      3276 2.06686E+01-4.70826E-01-1.36410E-02 1.67123E+00 7.43397E-14 9.93038E-14
 -1      3277 2.05421E+01 1.32938E-01 2.67783E-03 1.35430E+00-3.67058E-13 2.38544E-13
 -1      3278 2.06759E+01 1.81329E-02 2.45436E-03 1.39879E+00-2.52815E-13 1.87497E-13
 -1      3279 2.03505E+01-3.81451E-02-7.87676E-03 1.55349E+00-6.88613E-14 1.65411E-13
 -1      3280 2.03822E+01 2.74127E-01 5.09308E-04 1.20227E+00-1.44432E-13 2.40611E-13
 -1      3281 2.04790E+01 2.15850E-01 2.73189E-03 1.26951E+00-1.76540E-13 3.38210E-13
 -1      3282 2.01822E+01 2.21880E-01-4.09049E-03 1.38701E+00-3.48414E-13 3.03015E-13
 -1      3283 2.02816E+01 3.33278E-01-6.41294E-04 1.03648E+00-3.35901E-13 2.53483E-13
 -1      3284 2.03543E+01 3.12278E-01 2.72000E-03 1.11272E+00-1.97082E-13 3.09749E-13
 -1      3285 2.01002E+01 3.55029E-01-1.88980E-03 1.20484E+00-1.73405E-13 3.94639E-13
 -1      3286 2.02148E+01 3.42111E-01-1.15709E-03 8.72918E-01-5.79432E-14 1.73704E-13
 -1      3287 2.02717E+01 3.43192E-01 2.58945E-03 9.49655E-01-3.22515E-13 1.86272E-13
 -1      3288 2.00641E+01 4.04336E-01-7.31139E-04 1.02449E+00-3.01968E-13 2.86592E-13
 -1      3289 2.01670E+01 3.24088E-01-1.30663E-03 7.20272E-01 1.37054E-13 1.91821E-13
 -1      3290 2.02130E+01 3.36295E-01 2.39756E-03 7.92731E-01 2.19892E-13 1.76221E-13
 -1      3291 2.00502E+01 4.03628E-01-1.87102E-04 8.55267E-01 2.46369E-14 8.55213E-14
 -1      3292 2.01298E+01 2.95478E-01-1.27748E-03 5.82557E-01 7.82504E-14 1.10340E-13
 -1      3293 2.01680E+01 3.11249E-01 2.11192E-03 6.48405E-01 1.34171E-13 1.76933E-13
 -1      3294 2.00454E+01 3.77161E-01-4.03522E-05 7.01733E-01 1.67366E-13 3.12218E-13
 -1      3295 2.01005E+01 2.68077E-01-2.49250E-04 4.60656E-01 4.00090E-13-6.15463E-15
 -1      3296 2.01309E+01 2.81396E-01 1.79491E-03 5.18885E-01 1.39477E-13-1.52913E-16
 -1      3297 2.00428E+01 3.42824E-01 2.25622E-04 5.65523E-01 2.36211E-13-2.48550E-13
 -1      3298 2.00671E+01 2.66547E-01 5.19504E-04 3.87446E-01 1.53626E-13 5.34628E-14
 -1      3299 2.00953E+01 2.65724E-01 1.58003E-03 4.26451E-01 3.53830E-13 9.21804E-15
 -1      3300 2.00331E+01 3.18885E-01-3.62726E-04 4.66328E-01 2.34015E-13-2.08953E-13
 -1      3301 2.00199E+01 3.07071E-01-1.84739E-03 3.97355E-01 1.30857E-13 3.80400E-14
 -1      3302 2.73947E+01 5.53477E+00-1.56500E-01-4.49729E-01 5.59969E-14-1.39472E-15
 -1      3303 2.00555E+01 2.18132E+00-4.30254E-03 2.88665E-01 1.41483E-14-1.88023E-13
 -1      3304 2.00424E+01 2.22087E+00-3.35717E-03 1.68385E-01-6.44287E-15-2.09041E-13
 -1      3305 2.00641E+01-3.89103E+00-3.93955E-02 4.49049E+00-3.50199E-13-3.22312E-15
 -1      3306 1.79558E+01-2.94113E+00 5.03125E-02 4.70740E+00-4.15293E-13-1.46966E-14
 -1      3307 1.96780E+01 5.96979E-01-9.53407E-04-3.29798E-02 4.88694E-14 1.83273E-13
 -1      3308 1.96785E+01 5.96710E-01-8.46869E-04 3.57328E-02 4.27069E-14 7.32788E-14
 -1      3309 1.98832E+01 4.36502E-01 1.76514E-03-3.79472E-01 1.31605E-13-2.46383E-13
 -1      3310 1.98260E+01 4.74526E-01-2.56641E-03-3.47044E-01 1.25842E-13-1.54512E-13
 -1      3311 1.97091E+01 5.74374E-01-1.80953E-05-1.73628E-01 7.82842E-14 6.53538E-13
 -1      3312 1.96881E+01 5.87866E-01-1.62572E-03-1.10073E-01 5.19310E-14 3.69748E-13
 -1      3313 1.96249E+01 6.26279E-01 1.99026E-03-7.80501E-02 7.76551E-14 2.93505E-13
 -1      3314 2.01357E+01 3.18044E-01-1.70796E-03 1.77200E-02 5.75428E-14-7.34127E-14
 -1      3315 2.01779E+01 4.14702E-01 4.25052E-03 1.13595E-01 9.23193E-14-9.33249E-14
 -1      3316 1.27751E+01-1.68460E+00 4.91934E-02 4.79964E+00 1.03098E-13 4.52555E-13
 -1      3317 1.11907E+01-7.44594E-01 7.77414E-02 3.65468E+00 1.50283E-13 1.32352E-13
 -1      3318 2.62625E+01-3.79282E+00 2.05377E-02-6.93762E-01 1.88280E-13 9.69225E-14
 -1      3319 2.68071E+01-2.49668E+00-6.09065E-02 6.15713E-01 2.76709E-13 1.05947E-13
 -1      3320 1.97794E+01 5.19652E-01 9.82255E-04-2.93937E-01-1.55532E-14-1.68235E-13
 -1      3321 1.97395E+01 5.45559E-01-2.11342E-03-2.42203E-01 1.15803E-13 3.35326E-13
 -1      3322 1.96738E+01 5.90998E-01 1.88591E-03-2.29780E-01 8.17552E-14 4.33057E-13
 -1      3323 1.97593E+01 5.22954E-01-2.30863E-04-3.53671E-01 9.73183E-14-7.55382E-14
 -1      3324 2.00504E+01 9.28098E-02 1.51844E-03-3.85794E-01 7.82796E-14-2.86722E-15
 -1      3325 2.00314E+01 7.79890E-02-5.65788E-04-3.63426E-01 9.06312E-14 1.49084E-14
 -1      3326 2.00486E+01 1.23169E-01-4.14441E-04-4.05607E-01 5.15258E-14-3.17148E-14
 -1      3327 2.00384E+01 6.77093E-02 1.24068E-03-3.42567E-01 6.71841E-14-3.87855E-14
 -1      3328 2.00253E+01 6.04617E-02-1.04268E-04-3.23497E-01 5.40667E-14-2.03726E-14
 -1      3329 2.00714E+01 7.59502E-02-8.03194E-04-3.13960E-01 4.69510E-14-3.81643E-14
 -1      3330 2.00577E+01 9.06770E-02-5.95623E-04-3.56892E-01 6.38264E-14-3.65658E-14
 -1      3331 1.01819E+01 1.54542E-02 5.42498E-02 2.09727E+00-2.47398E-13-3.51649E-13
 -1      3332 9.31729E+00 3.23568E-01 1.38330E-01 5.12117E-01-1.63316E-13-2.27374E-13
 -1      3333 2.00401E+01 6.94954E-02 5.28887E-04-2.61574E-01 3.85804E-15-1.54533E-14
 -1      3334 2.00429E+01 8.53755E-02 1.26436E-03-2.35802E-01 2.42299E-14-2.24859E-14
 -1      3335 2.00914E+01 8.46026E-02-1.03470E-03-2.68489E-01-4.25270E-15-2.03556E-14
 -1      3336 2.02764E+01 7.30893E-01 4.12384E-03-3.30782E-01-1.04637E-13-1.64382E-13
 -1      3337 2.02358E+01 5.72578E-01-3.26235E-03-1.95742E-01-9.92656E-14-1.64734E-13
 -1      3338 2.02809E+01 6.07123E-01-4.80677E-04-1.66290E-01-9.74494E-14-1.76359E-13
 -1      3339 2.00577E+01 1.08374E-01-9.76706E-08-2.04095E-01 8.54946E-15-3.70965E-14
 -1      3340 2.00719E+01 1.42330E-01 2.26833E-03-1.65333E-01-9.34989E-16-6.88006E-14
 -1      3341 2.01194E+01 1.24390E-01-1.27342E-03-2.09797E-01-4.91257E-15-6.98766E-14
 -1      3342 1.34553E+01-1.95389E+00 9.09271E-02-4.99051E+00-1.28383E-13-2.21337E-13
 -1      3343 1.58005E+01-3.09048E+00 4.09570E-02-5.52906E+00-1.34746E-13-1.86184E-13
 -1      3344 1.13575E+01-1.16481E+00 8.65782E-02-4.19034E+00 1.04645E-13-6.64191E-14
 -1      3345 1.34305E+01-2.28227E+00 7.79909E-02-5.30379E+00 1.02834E-13-4.51958E-13
 -1      3346 2.42888E+01-4.24207E+00 2.19872E-02-2.28151E+00 1.61995E-13 9.74412E-14
 -1      3347 2.64255E+01-2.96118E+00 6.98339E-02 1.45056E-01 1.59643E-13-8.61949E-14
 -1      3348 2.67474E+01-1.93670E+00-1.66324E-01 1.36860E+00 1.27741E-13-1.68900E-13
 -1      3349 2.02873E+01 1.16440E+00 8.24071E-04-6.56283E-01-1.18093E-13-1.80890E-13
 -1      3350 2.02630E+01 9.24846E-01-4.26575E-03-4.68857E-01-1.04108E-13-1.72690E-13
 -1      3351 2.02928E+01 9.66524E-01 1.20041E-03-4.10379E-01-9.47381E-14-2.07536E-13
 -1      3352 1.81926E+01-3.56819E+00 7.18509E-03 5.10612E+00-3.42226E-14 4.39253E-13
 -1      3353 1.52329E+01-2.49885E+00 1.12256E-01 5.17485E+00 4.36665E-14 4.56905E-13
 -1      3354 1.54983E+01-1.75387E+00 1.02808E-01 4.47757E+00 4.15293E-14 3.94601E-13
 -1      3355 1.02280E+01-3.02745E-02 1.18293E-01 2.41918E+00 1.41734E-13-2.90948E-13
 -1      3356 9.77670E+00 3.25663E-01 6.06652E-02 6.67534E-01 1.58350E-13-5.00003E-13
 -1      3357 2.02928E+01 9.97914E-01-7.96160E-04 6.82306E-01 1.50975E-13-1.30792E-13
 -1      3358 2.02735E+01 1.32036E+00 4.50022E-03 7.65631E-01 1.61994E-13-1.10918E-13
 -1      3359 2.02896E+01 1.14363E+00 5.41301E-03 5.87367E-01 1.43376E-13-1.06105E-13
 -1      3360 2.02367E+01 7.86303E-01-3.69627E-03 4.72744E-01 1.45075E-13-1.16306E-13
 -1      3361 2.47858E+01-4.34538E+00-9.04595E-02 1.92040E+00-1.65607E-13-4.21068E-13
 -1      3362 2.24405E+01-4.15696E+00 7.87317E-02 3.45767E+00-2.12306E-13-2.23993E-13
 -1      3363 1.81043E+01-3.72773E+00 1.14312E-01-5.34422E+00-1.12674E-13-2.39246E-13
 -1      3364 2.03411E+01-4.52611E+00-7.40729E-02-4.81788E+00-1.12063E-14-3.27384E-13
 -1      3365 1.76235E+01-2.98442E+00 1.01897E-01-4.92095E+00-6.78138E-14-2.64976E-13
 -1      3366 2.00894E+01 1.85547E-01-7.47864E-04-1.17147E-01 1.40752E-14-8.16261E-14
 -1      3367 2.01176E+01 2.45015E-01 3.50772E-03-5.60520E-02 2.83596E-14-7.75397E-14
 -1      3368 2.01561E+01 2.06679E-01-1.46285E-03-1.24319E-01-4.79736E-15-9.60934E-14
 -1      3369 2.02323E+01 1.59917E+00-6.74789E-03-8.45036E-01-1.34258E-13-1.86999E-13
 -1      3370 2.02618E+01 1.37581E+00-5.56467E-05-7.38423E-01-1.33036E-13-1.79870E-13
 -1      3371 2.01808E+01 1.84630E+00 2.53097E-03-7.81458E-01-1.33073E-13-2.04029E-13
 -1      3372 9.28240E+00 2.08459E-01 8.78951E-02-9.48565E-01-1.40266E-13-1.92124E-13
 -1      3373 1.02914E+01-1.85145E-01 1.04014E-01-2.78181E+00-3.88925E-14-6.95277E-14
 -1      3374 1.11478E+01 5.69928E-01 1.14464E-01-4.14619E-01-1.79642E-13-2.38538E-13
 -1      3375 2.68548E+01 3.62537E+00-6.84819E-02 2.03607E+00 8.93730E-15-2.32384E-14
 -1      3376 2.32101E+01-4.52526E+00 1.25800E-01-3.48721E+00 1.39912E-13-1.67069E-13
 -1      3377 2.50430E+01-4.50696E+00-1.28430E-01-1.97783E+00 1.84019E-13-7.04367E-14
 -1      3378 2.68437E+01 1.80918E+00-1.75687E-01 2.38078E+00 7.05616E-14-1.24137E-14
 -1      3379 2.71390E+01 5.50052E-02-5.03437E-02 2.09881E+00 1.68740E-13-3.94823E-14
 -1      3380 2.68887E+01-1.51600E+00-6.42594E-02 1.60100E+00 2.59492E-13 2.01339E-13
 -1      3381 2.00353E+01 2.24058E+00-3.60714E-03 6.50172E-02-2.23683E-14-2.12158E-13
 -1      3382 2.00357E+01 2.24363E+00-2.69057E-03-5.65072E-02-2.99405E-14-1.88905E-13
 -1      3383 2.01481E+01 1.94873E+00 5.08418E-03 9.92699E-02-2.31108E-14-1.94336E-13
 -1      3384 2.53155E+01-3.29567E+00 1.70206E-02-5.39648E-01 1.59293E-13-9.20930E-14
 -1      3385 2.62093E+01-2.74210E+00-3.66967E-02-3.43373E-01-7.30371E-14 5.23158E-14
 -1      3386 1.98308E+01 4.69251E-01-2.20141E-03 3.46835E-01 9.47396E-14-1.84239E-13
 -1      3387 1.98842E+01 4.30864E-01 8.12868E-04 3.78339E-01 6.06541E-14 1.42776E-13
 -1      3388 2.71866E+01 2.22246E+00-6.65416E-02-2.41991E+00-1.90958E-14 3.44169E-14
 -1      3389 1.19028E+01-1.12816E-01 1.34409E-01 2.98929E+00-3.51701E-13-1.74569E-13
 -1      3390 1.22985E+01 4.15684E-01 5.93040E-02 1.91344E+00-2.67585E-13-3.14387E-13
 -1      3391 1.38159E+01-5.73546E-01 1.97623E-02 3.46318E+00-4.43085E-13-5.13062E-14
 -1      3392 2.00965E+01 2.09639E+00-3.72343E-04-5.97475E-01-9.89112E-14-2.12873E-13
 -1      3393 2.01272E+01 1.96874E+00-6.17562E-03-6.96235E-01-1.15613E-13-2.16704E-13
 -1      3394 2.01960E+01 1.74553E+00 1.64191E-03-6.39795E-01-1.11181E-13-2.10122E-13
 -1      3395 2.67165E+01-2.41754E-01-6.81446E-02 1.96761E+00 8.44186E-14-3.11889E-13
 -1      3396 2.67164E+01-7.28111E-01-5.58801E-02-1.80437E+00-1.49984E-14-3.49484E-13
 -1      3397 2.17854E+01-3.54679E+00 3.24430E-02 3.21752E+00-3.29008E-13-2.09117E-13
 -1      3398 1.14095E+01 6.32686E-01 5.53792E-02 4.98664E-01 7.59766E-14-4.02262E-13
 -1      3399 1.03843E+01 5.72406E-01 1.41297E-01-4.36034E-01 7.10564E-14-4.58848E-13
 -1      3400 1.13039E+01 3.85031E-01 3.90932E-02-1.51188E+00 5.68577E-14-2.94882E-13
 -1      3401 1.97421E+01 5.41683E-01-2.19106E-03 2.45585E-01 8.88428E-14-2.74729E-13
 -1      3402 1.97830E+01 5.14305E-01 7.92914E-04 2.97023E-01 1.32669E-13-4.39326E-13
 -1      3403 1.97693E+01 5.17390E-01 1.20769E-03 3.56409E-01 3.70831E-14-2.87431E-13
 -1      3404 2.73314E+01-2.64261E+00-2.90850E-02-3.75972E-01-6.82145E-14 2.40988E-13
 -1      3405 2.00088E+01 3.27353E-01 3.61494E-04-3.91487E-01-1.88001E-13-2.58533E-13
 -1      3406 2.00758E+01 2.12436E+00-3.17094E-03 3.85814E-01 2.88360E-14-1.48885E-13
 -1      3407 2.01706E+01 1.87200E+00 5.36469E-03 2.85254E-01 2.48374E-14-1.49345E-13
 -1      3408 2.01008E+01 2.04295E+00-5.38980E-03 4.98159E-01 6.07310E-14-1.28043E-13
 -1      3409 1.87335E+01-2.31886E+00 2.35026E-02 3.91974E+00-5.90805E-13 1.15885E-13
 -1      3410 1.71260E+01-2.33738E+00 6.97536E-02 4.62560E+00-5.54435E-13 5.79675E-14
 -1      3411 1.61102E+01-1.57889E+00 2.13196E-02 4.18323E+00-6.18141E-13 7.30700E-14
 -1      3412 1.96894E+01 5.85923E-01-1.64974E-03 1.13595E-01 6.71737E-14 1.24204E-14
 -1      3413 1.97114E+01 5.71299E-01 3.97047E-06 1.77706E-01 4.97344E-14-1.51529E-13
 -1      3414 1.96763E+01 5.87067E-01 1.72658E-03 2.34019E-01 1.81054E-13-2.39520E-13
 -1      3415 1.96260E+01 6.24744E-01 1.96621E-03 8.27120E-02 9.66870E-14-1.07695E-13
 -1      3416 2.02002E+01 3.48409E-01-1.56610E-03 4.62665E-03 4.38005E-14-7.49179E-14
 -1      3417 1.21613E+01-1.34614E-01 1.04575E-01 2.84032E+00 1.33692E-13-2.40918E-14
 -1      3418 1.24973E+01-2.92984E-01 4.19493E-02-3.17261E+00-3.16414E-15-2.29372E-13
 -1      3419 1.28731E+01-1.07486E+00 1.18066E-01-4.20735E+00-4.49987E-14-2.46636E-13
 -1      3420 1.46031E+01-1.41912E+00 1.84777E-02-4.30086E+00-7.02841E-14-1.73951E-13
 -1      3421 2.46348E+01-4.69009E+00 2.18051E-02 2.70880E+00 5.80855E-14 2.52645E-14
 -1      3422 2.31854E+01-4.41425E+00 3.80539E-02 3.18600E+00-1.28023E-15 6.29731E-14
 -1      3423 2.53391E+01-4.28095E+00-1.81652E-02 1.61134E+00 3.44967E-14 3.28140E-14
 -1      3424 1.60814E+01-2.52511E+00 1.05445E-01-4.97227E+00 6.10761E-14-2.34812E-13
 -1      3425 1.22635E+01-3.91483E-01 1.19305E-01-3.20574E+00 1.50227E-14-1.63904E-13
 -1      3426 2.01840E+01 5.05219E-01-1.85614E-03 2.04403E-01 1.04035E-13-1.12757E-13
 -1      3427 2.02381E+01 6.48003E-01 4.09443E-03 3.49412E-01 1.25211E-13-1.22288E-13
 -1      3428 2.02628E+01 7.91284E-01-4.88986E-03 4.06541E-01 1.30799E-13-1.13236E-13
 -1      3429 2.02374E+01 5.46651E-01-1.31035E-03 1.79316E-01 8.60299E-14-1.02085E-13
 -1      3430 2.01676E+01 1.81576E+00-6.93278E-03 6.77748E-01 1.16716E-13-1.16781E-13
 -1      3431 2.01332E+01 1.94684E+00-2.61247E-03 5.82614E-01 8.39831E-14-1.13301E-13
 -1      3432 2.02112E+01 1.71701E+00 5.84994E-03 4.50955E-01 7.06987E-14-1.06656E-13
 -1      3433 2.02591E+01 1.47875E+00 6.30193E-03 5.76683E-01 1.23072E-13-9.59413E-14
 -1      3434 2.02643E+01 1.40000E+00 3.30518E-03-6.37959E-01-1.14581E-13-2.14765E-13
 -1      3435 2.31222E+01-3.97701E+00 4.92812E-02-2.76405E+00 6.06928E-14 8.99662E-14
 -1      3436 2.13745E+01-3.96072E+00-2.19529E-02-3.83780E+00 1.09735E-13 7.98354E-14
 -1      3437 2.25038E+01-3.15687E+00 3.19393E-02-2.38120E+00 4.95125E-14 2.04983E-13
 -1      3438 2.16181E+01-2.54538E+00 5.53308E-02-2.60190E+00 3.97590E-14 2.48248E-13
 -1      3439 1.98697E+01-3.22566E+00 4.86597E-02-4.09333E+00 6.75241E-14 9.18571E-14
 -1      3440 1.97267E+01-3.76901E+00 9.28238E-02 4.65372E+00-1.06398E-13 3.16386E-13
 -1      3441 1.88763E+01-2.99664E+00 5.45442E-02 4.44479E+00-1.17951E-13 2.93182E-13
 -1      3442 2.10295E+01-4.10535E+00-1.87385E-02 4.16003E+00-1.21906E-13 1.03976E-13
 -1      3443 2.20058E+01-4.08879E+00 7.23912E-02-3.66985E+00 1.44246E-13-2.98023E-13
 -1      3444 2.00362E+01 2.25719E+00-2.41324E-03-3.80706E-01-4.51488E-14-1.69295E-13
 -1      3445 2.00601E+01 2.18230E+00-4.05976E-03-4.96290E-01-7.56003E-14-1.97767E-13
 -1      3446 2.01333E+01 1.96908E+00 1.35092E-03-4.71132E-01-7.91340E-14-1.79755E-13
 -1      3447 2.60863E+01-3.12884E+00 4.52380E-02 6.13060E-02-3.45973E-14-5.59185E-13
 -1      3448 2.49624E+01-3.26971E+00 1.12127E-02 5.81501E-01-1.44964E-13-5.04411E-13
 -1      3449 1.99473E+01 3.77406E-01-2.06958E-03-4.15992E-01-4.02391E-14-3.84059E-13
 -1      3450 1.99034E+01 4.24525E-01 1.26604E-03-4.45456E-01-3.10883E-14-4.83648E-13
 -1      3451 2.44991E+01-3.46770E+00 6.58900E-02-1.19997E+00 1.06760E-13-4.45980E-14
 -1      3452 2.02700E+01 2.97148E-01 1.81205E-03 8.52093E-02-1.13739E-13-1.40744E-13
 -1      3453 2.02459E+01 2.32630E-01-9.76329E-04 1.35930E-01-1.13116E-13-1.47933E-13
 -1      3454 2.02260E+01 1.85553E-01 1.16032E-03 1.72613E-01-1.15743E-13-1.54403E-13
 -1      3455 2.02045E+01 1.50643E-01-2.67556E-04 2.07797E-01-6.71721E-14-1.27529E-13
 -1      3456 2.02772E+01 2.46236E-01-2.61317E-04 1.35502E-01-1.09104E-13-9.68808E-14
 -1      3457 2.01796E+01 1.28353E-01 5.32829E-04 2.34251E-01-3.65393E-14-1.85050E-13
 -1      3458 2.01613E+01 1.15723E-01 2.51397E-04 2.60651E-01-4.93240E-14-1.81156E-13
 -1      3459 2.02288E+01 1.66079E-01-3.29070E-04 2.01454E-01-8.37960E-14-1.27963E-13
 -1      3460 2.01330E+01 1.12150E-01-3.70825E-05 2.82152E-01-4.26373E-14-1.83408E-13
 -1      3461 2.01173E+01 1.16544E-01 6.26039E-04 3.05287E-01-2.28594E-14-1.35259E-13
 -1      3462 2.01747E+01 1.35346E-01-2.53339E-04 2.51683E-01-2.58701E-14-1.59887E-13
 -1      3463 2.00860E+01 1.27339E-01-5.47571E-04 3.26227E-01-2.95989E-14-1.37315E-13
 -1      3464 2.00721E+01 1.44915E-01 8.96834E-04 3.50492E-01-3.91552E-14-1.22256E-13
 -1      3465 2.01164E+01 1.42537E-01-8.29151E-05 2.95730E-01-3.10611E-14-1.95348E-13
 -1      3466 2.00372E+01 1.66836E-01-1.01163E-03 3.74443E-01-5.02247E-14-1.42047E-13
 -1      3467 2.00240E+01 1.94625E-01 1.09751E-03 4.03288E-01-3.03124E-14-1.62270E-13
 -1      3468 2.00533E+01 1.79110E-01 1.55154E-04 3.41477E-01-6.15985E-14-1.60007E-13
 -1      3469 1.99846E+01 2.25028E-01-1.44499E-03 4.33121E-01-5.95770E-14-1.92499E-13
 -1      3470 1.99710E+01 2.60437E-01 1.25524E-03 4.69217E-01-7.61189E-14-2.06266E-13
 -1      3471 1.99835E+01 2.38411E-01 4.48886E-04 3.95287E-01-5.83726E-14-2.86993E-13
 -1      3472 1.99255E+01 2.96770E-01-1.85979E-03 5.07250E-01-3.99084E-14-1.90183E-13
 -1      3473 1.99104E+01 3.37068E-01 1.39801E-03 5.52599E-01-4.48395E-14-1.92051E-13
 -1      3474 1.99042E+01 3.14613E-01 7.82044E-04 4.62269E-01-5.35380E-14-2.54891E-13
 -1      3475 1.98573E+01 3.76337E-01-2.26068E-03 6.00738E-01-3.84923E-14-1.42753E-13
 -1      3476 1.98400E+01 4.18059E-01 1.56474E-03 6.56766E-01-2.42115E-14-1.16584E-13
 -1      3477 1.98123E+01 4.01688E-01 1.14150E-03 5.46558E-01 1.92984E-14-1.51322E-13
 -1      3478 1.97778E+01 4.56154E-01-2.64066E-03 7.16693E-01-8.41760E-15-9.90308E-14
 -1      3479 1.97585E+01 4.94341E-01 1.81711E-03 7.84312E-01-1.53730E-14-3.86265E-14
 -1      3480 1.97043E+01 4.92148E-01 1.48968E-03 6.51686E-01 4.55159E-15-1.41770E-13
 -1      3481 1.96866E+01 5.25165E-01-2.97592E-03 8.57725E-01-2.49384E-14 1.05946E-14
 -1      3482 1.96671E+01 5.52421E-01 2.26552E-03 9.37415E-01 2.22482E-14 6.54264E-14
 -1      3483 1.95780E+01 5.75558E-01 1.77071E-03 7.81077E-01 4.68858E-14-1.15302E-13
 -1      3484 1.95861E+01 5.66837E-01-3.21253E-03 1.02642E+00-8.62732E-15 1.14466E-13
 -1      3485 1.95714E+01 5.72143E-01 3.09169E-03 1.11836E+00-2.29401E-14 8.21471E-14
 -1      3486 1.94328E+01 6.36624E-01 1.86775E-03 9.38795E-01-7.96490E-15 5.08219E-14
 -1      3487 1.94854E+01 5.56642E-01-3.22906E-03 1.22603E+00-1.77439E-14 7.36739E-14
 -1      3488 1.94859E+01 5.23907E-01 4.55972E-03 1.33019E+00 2.94864E-14 5.32080E-14
 -1      3489 1.92727E+01 6.52840E-01 1.56675E-03 1.13079E+00-1.00045E-14-1.79135E-15
 -1      3490 1.94046E+01 4.59189E-01-2.76009E-03 1.46117E+00 7.33483E-14 8.47919E-14
 -1      3491 1.94401E+01 3.65665E-01 6.92269E-03 1.57701E+00 9.55051E-14 9.02902E-14
 -1      3492 1.91097E+01 5.91417E-01 4.74850E-04 1.36654E+00 8.50984E-14 2.98994E-14
 -1      3493 1.93836E+01 2.25453E-01-1.38296E-03 1.73763E+00 8.30355E-14 9.08453E-14
 -1      3494 1.94883E+01 4.08657E-02 1.06322E-02 1.86205E+00 9.36174E-14 1.24793E-13
 -1      3495 1.89703E+01 4.05812E-01-2.25635E-03 1.66037E+00 1.04446E-13 2.72377E-14
 -1      3496 1.94977E+01-2.10600E-01 2.78686E-03 2.05964E+00 6.67261E-14 1.90117E-13
 -1      3497 1.97250E+01-5.25648E-01 1.54616E-02 2.17860E+00 7.37012E-14 1.41588E-13
 -1      3498 1.89061E+01 2.92710E-02-8.41322E-03 2.03344E+00 1.20910E-13 7.83566E-14
 -1      3499 1.98840E+01-9.30955E-01 1.20888E-02 2.39919E+00 1.33213E-13 1.72142E-13
 -1      3500 2.03135E+01-1.38499E+00 2.58784E-02 2.46364E+00 6.63120E-14 1.99819E-13
 -1      3501 1.90342E+01-6.24615E-01-1.27625E-02 2.50737E+00 1.03471E-13 1.56155E-13
 -1      3502 2.07168E+01-1.96549E+00 2.10057E-02 2.68975E+00-1.06089E-13 2.21539E-13
 -1      3503 2.14727E+01-2.54253E+00 3.26623E-02 2.59288E+00-1.12447E-13 1.42589E-13
 -1      3504 1.95343E+01-1.59106E+00 1.99946E-03 3.04286E+00-7.08461E-15 2.41904E-13
 -1      3505 2.16691E+01-3.10744E+00 5.33115E-02 2.97594E+00-8.97988E-14 9.67676E-14
 -1      3506 2.26579E+01-3.68472E+00 2.30340E-02 2.71316E+00-1.02134E-13 5.19289E-15
 -1      3507 1.98596E+01 4.52147E-01-4.38254E-04-5.00027E-01-1.64035E-13-5.31098E-13
 -1      3508 1.97761E+01 5.10189E-01 3.74990E-04-4.57443E-01 5.86448E-14-3.79818E-13
 -1      3509 1.98483E+01 4.78933E-01 2.62984E-03-5.60691E-01-1.42860E-13-5.44184E-13
 -1      3510 2.03197E+01 7.64423E-01 1.32788E-03-2.22351E-01-8.66868E-14-1.78017E-13
 -1      3511 2.03036E+01 6.08532E-01-2.61603E-03-1.16870E-01-8.92790E-14-1.78938E-13
 -1      3512 2.09164E+01-1.95564E+00 1.52358E-02-2.51091E+00-1.65553E-14 2.62881E-13
 -1      3513 2.03892E+01-1.39663E+00 2.43530E-02-2.48839E+00-4.91265E-14 2.02118E-13
 -1      3514 2.02840E+01-2.38367E+00-4.00402E-02-3.14097E+00 4.83346E-14 1.88045E-13
 -1      3515 2.00842E+01-9.35436E-01 1.35477E-02-2.29587E+00-5.14506E-14 1.82527E-13
 -1      3516 1.97767E+01-5.37790E-01 9.03244E-03-2.19661E+00-1.59162E-13 1.49374E-13
 -1      3517 1.94199E+01-1.15681E+00-2.58059E-02-2.70869E+00-1.12704E-13 2.49394E-13
 -1      3518 1.96838E+01-2.24286E-01 1.09697E-02-1.99902E+00-2.22905E-13 8.14938E-14
 -1      3519 1.95264E+01 2.52288E-02 2.52470E-03-1.87974E+00-2.14835E-13 1.93306E-13
 -1      3520 1.90926E+01-3.08494E-01-1.23957E-02-2.24541E+00-1.61320E-13 2.03242E-14
 -1      3521 1.95376E+01 2.15267E-01 7.72380E-03-1.70844E+00-1.81880E-13 3.71741E-13
 -1      3522 1.94704E+01 3.55354E-01-4.47125E-04-1.59000E+00 2.56108E-14 3.98576E-13
 -1      3523 1.90408E+01 2.10277E-01-5.04254E-03-1.84639E+00-1.39788E-13 2.02426E-13
 -1      3524 1.95290E+01 4.55809E-01 5.21720E-03-1.44657E+00-1.15193E-14 3.51665E-13
 -1      3525 1.95105E+01 5.21020E-01-1.80438E-03-1.33611E+00-1.61762E-13 3.19896E-13
 -1      3526 1.91211E+01 4.97864E-01-1.30083E-03-1.52040E+00-6.44186E-14 2.84414E-13
 -1      3527 1.95856E+01 5.61821E-01 3.55101E-03-1.21608E+00-1.21079E-13 2.43833E-13
 -1      3528 1.95904E+01 5.79366E-01-2.31551E-03-1.11554E+00-1.55624E-13 2.92664E-13
 -1      3529 1.92559E+01 6.30095E-01 5.15557E-04-1.25516E+00-1.74948E-13 2.37131E-13
 -1      3530 1.96662E+01 5.83483E-01 2.59244E-03-1.01431E+00-1.51834E-13 2.72063E-13
 -1      3531 1.96803E+01 5.73200E-01-2.23940E-03-9.24097E-01-8.33300E-15 3.68609E-13
 -1      3532 1.94035E+01 6.63579E-01 1.24909E-03-1.03600E+00-1.20289E-13 1.37733E-13
 -1      3533 1.97488E+01 5.57429E-01 2.14987E-03-8.37512E-01-6.91794E-14 2.15716E-13
 -1      3534 1.97638E+01 5.32509E-01-2.32021E-03-7.57357E-01-2.47090E-14 9.13733E-15
 -1      3535 1.95414E+01 6.38853E-01 8.10936E-04-8.53381E-01-1.51491E-13 5.99169E-14
 -1      3536 1.97992E+01 5.22941E-01 2.72617E-03-6.89376E-01-5.92651E-14-2.82889E-13
 -1      3537 1.98127E+01 4.93280E-01-1.55902E-03-6.19257E-01-1.69049E-13-4.55377E-13
 -1      3538 1.96916E+01 5.62327E-01-8.93770E-04-5.72005E-01-2.62890E-13-7.18083E-13
 -1      3539 1.96314E+01 5.98452E-01-6.59961E-04-7.01663E-01-1.94195E-13-4.60120E-13
 -1      3540 2.40620E+01-3.30685E+00 2.44594E-02 1.23600E+00-1.26861E-13-3.92334E-13
 -1      3541 1.99288E+01 3.88496E-01-1.86850E-03 3.91686E-01 3.23986E-14 8.17759E-15
 -1      3542 1.99774E+01 3.49638E-01 2.28900E-04 3.98527E-01 1.07867E-14-1.65942E-13
 -1      3543 1.99792E+01 3.55344E-01 4.26579E-04 4.32083E-01-3.01003E-14-2.18932E-13
 -1      3544 1.98785E+01 4.35353E-01 6.30327E-04 4.20444E-01-3.76689E-14 8.49478E-14
 -1      3545 2.00163E+01 2.13304E-01 1.46010E-03-4.70333E-01-4.01987E-14 9.81896E-15
 -1      3546 2.00171E+01 1.83409E-01-1.28099E-03-4.35842E-01 4.30999E-15-7.92414E-15
 -1      3547 1.99122E+01 4.08414E-01 2.08845E-03-7.77018E-01-1.26894E-13 5.94043E-14
 -1      3548 1.99090E+01 3.77123E-01-2.21162E-03-7.12338E-01-6.62409E-14-2.78980E-14
 -1      3549 1.98736E+01 4.53136E-01 2.45756E-03-9.24037E-01-1.03862E-13 1.02560E-13
 -1      3550 1.98666E+01 4.32616E-01-2.34892E-03-8.48960E-01-1.07539E-13 8.56255E-14
 -1      3551 1.97480E+01 4.82613E-01 9.43435E-04-7.95081E-01-1.35418E-13 2.87443E-14
 -1      3552 1.98419E+01 4.61095E-01 3.06118E-03-1.09346E+00-1.39341E-13 4.18830E-14
 -1      3553 1.98259E+01 4.61691E-01-2.28336E-03-1.00947E+00-9.33753E-14 9.37083E-14
 -1      3554 1.96606E+01 5.28300E-01 7.80175E-04-9.50495E-01-8.73513E-14 9.72306E-14
 -1      3555 1.98330E+01 4.04822E-01 4.04686E-03-1.28304E+00-9.08494E-14-3.61469E-14
 -1      3556 1.97983E+01 4.41548E-01-1.83345E-03-1.19310E+00-1.38305E-13-2.14014E-14
 -1      3557 1.95732E+01 5.29124E-01 1.32855E-04-1.13441E+00-7.89367E-14 6.96595E-14
 -1      3558 1.98766E+01 2.46090E-01 5.53401E-03-1.48787E+00-9.09505E-14 1.06466E-13
 -1      3559 1.98060E+01 3.39648E-01-6.73924E-04-1.39730E+00-7.50060E-14 1.16009E-14
 -1      3560 1.95021E+01 4.53327E-01-1.41123E-03-1.34983E+00-1.25303E-13 4.56472E-14
 -1      3561 2.00235E+01-6.42878E-02 7.51557E-03-1.69687E+00-1.06115E-13 1.89262E-13
 -1      3562 1.98896E+01 1.12286E-01 1.80281E-03-1.61564E+00-6.48717E-14 1.37143E-13
 -1      3563 1.94796E+01 2.56680E-01-4.51728E-03-1.59977E+00-8.41968E-14 5.69480E-14
 -1      3564 2.03542E+01-5.80517E-01 9.54899E-03-1.88402E+00-8.60718E-14 6.87125E-14
 -1      3565 2.01178E+01-2.93012E-01 6.86251E-03-1.83159E+00-6.68217E-14 1.18834E-13
 -1      3566 1.95634E+01-1.18467E-01-1.00052E-02-1.88330E+00-5.37542E-15 3.67672E-14
 -1      3567 2.09859E+01-1.33857E+00 1.12475E-02-1.98792E+00-1.46127E-13-4.37308E-15
 -1      3568 2.05970E+01-9.24927E-01 1.64575E-02-2.00373E+00-1.54328E-13 1.30646E-14
 -1      3569 1.98517E+01-7.36912E-01-1.84236E-02-2.18297E+00-1.03883E-13-1.89219E-14
 -1      3570 2.20905E+01-2.27650E+00 2.13445E-02-1.86489E+00-5.76717E-14-4.18439E-14
 -1      3571 2.14809E+01-1.80124E+00 3.13180E-02-2.03625E+00-1.14662E-13 2.74086E-15
 -1      3572 2.04906E+01-1.64678E+00-3.18854E-02-2.43732E+00-1.36248E-13-1.51014E-13
 -1      3573 2.35065E+01-3.12829E+00 2.37614E-02-1.45779E+00-4.99774E-15-2.77287E-14
 -1      3574 2.27026E+01-2.75736E+00 4.81327E-02-1.86627E+00-4.69707E-14-7.99083E-14
 -1      3575 2.14950E+01-2.80184E+00-5.92019E-02-2.61835E+00-6.70158E-14-1.45302E-13
 -1      3576 2.29100E+01-3.94511E+00-8.74698E-02-2.61703E+00 8.54282E-14-1.69167E-13
 -1      3577 2.13513E+01-1.63248E+00 3.79253E-02 2.03024E+00-4.85393E-14 1.39982E-13
 -1      3578 2.18457E+01-2.17630E+00 3.89208E-04 1.92582E+00-1.84120E-13-1.78252E-14
 -1      3579 2.20271E+01-2.97301E+00-3.13430E-02 2.42572E+00-2.63128E-13-2.77414E-13
 -1      3580 2.04714E+01-2.41984E+00 6.61144E-02 3.20505E+00-3.97890E-13-6.71260E-14
 -1      3581 2.31956E+01-3.02758E+00 2.23674E-02 1.68268E+00-1.79605E-13-2.91144E-13
 -1      3582 2.05345E+01-8.25700E-01 1.38232E-02 1.98123E+00 8.42048E-14 1.53693E-13
 -1      3583 2.08973E+01-1.22054E+00 9.46030E-03 1.97316E+00 9.53343E-14 2.37932E-13
 -1      3584 2.04253E+01-1.49029E+00-1.77368E-02 2.40819E+00-5.36598E-14 8.92003E-14
 -1      3585 2.00949E+01-2.21655E-01 5.89854E-03 1.79966E+00 3.53972E-14 3.45058E-13
 -1      3586 2.03157E+01-4.92229E-01 9.63796E-03 1.85660E+00-6.95581E-15 3.23450E-13
 -1      3587 1.98197E+01-6.30257E-01-1.59668E-02 2.14013E+00-4.66341E-14 5.43876E-13
 -1      3588 1.98904E+01 1.58707E-01 1.43362E-03 1.58165E+00-2.29711E-13 5.24228E-13
 -1      3589 2.00137E+01-6.51501E-03 7.00928E-03 1.66545E+00 1.87547E-14 5.57779E-13
 -1      3590 1.95649E+01-4.99227E-02-8.99566E-03 1.84014E+00-7.90714E-14 8.75636E-13
 -1      3591 1.98188E+01 3.70658E-01-7.71561E-04 1.36219E+00-3.00978E-13 5.58525E-13
 -1      3592 1.98832E+01 2.83554E-01 5.12839E-03 1.45471E+00-2.99394E-13 5.12754E-13
 -1      3593 1.94975E+01 3.00610E-01-4.04530E-03 1.56014E+00-2.68586E-13 9.70192E-13
 -1      3594 1.98160E+01 4.66301E-01-1.76616E-03 1.15563E+00-2.50476E-13 5.80170E-13
 -1      3595 1.98475E+01 4.31499E-01 3.71834E-03 1.24793E+00-1.79519E-13 5.13819E-13
 -1      3596 1.95268E+01 4.83921E-01-1.20642E-03 1.31204E+00-2.10001E-13 6.71373E-13
 -1      3597 1.98443E+01 4.88297E-01-2.12142E-03 9.67273E-01-8.71011E-14 2.88648E-13
 -1      3598 1.98588E+01 4.85663E-01 2.78100E-03 1.05465E+00-1.78870E-13 4.29182E-13
 -1      3599 1.95987E+01 5.56208E-01 2.51635E-04 1.09565E+00-9.48287E-14 3.92464E-13
 -1      3600 1.98828E+01 4.68211E-01-2.14458E-03 7.98880E-01 4.14154E-14 2.88793E-13
 -1      3601 1.98894E+01 4.83243E-01 2.18013E-03 8.78890E-01-1.95955E-14 1.97702E-13
 -1      3602 1.96833E+01 5.60223E-01 8.62698E-04 9.07553E-01 8.05471E-14 2.93876E-13
 -1      3603 1.99198E+01 4.28890E-01-2.04192E-03 6.50219E-01 2.71432E-13 2.07733E-13
 -1      3604 1.99244E+01 4.51558E-01 1.96801E-03 7.22302E-01 2.35826E-13 3.02971E-13
 -1      3605 1.97648E+01 5.26661E-01 9.04523E-04 7.44752E-01 1.61304E-13 2.04186E-13
 -1      3606 2.00454E+01 1.58117E-01 1.26319E-03-4.06407E-01 3.02990E-14 9.13257E-16
 -1      3607 2.00480E+01 1.35019E-01-8.72006E-04-3.78970E-01 7.33340E-14-1.15752E-14
 -1      3608 2.00157E+01 1.97914E-01 1.32583E-04-4.08101E-01 1.18868E-14 9.76442E-15
 -1      3609 1.95474E+01 6.56148E-01-6.13223E-04-1.26600E-01-6.12495E-15 3.44867E-13
 -1      3610 1.95332E+01 6.64087E-01-1.23454E-03-4.53866E-02-3.16896E-14 1.27516E-13
 -1      3611 2.03057E+01 4.81626E-01 2.25929E-03-4.18551E-02-8.75568E-14-1.67583E-13
 -1      3612 2.02815E+01 3.77571E-01-1.89224E-03 3.22579E-02-9.51728E-14-1.66427E-13
 -1      3613 2.03157E+01 3.91476E-01 2.70619E-05 4.27937E-02-9.19851E-14-1.32811E-13
 -1      3614 1.99502E+01 3.45728E-01 1.84115E-03-6.53061E-01 1.34250E-14-1.73361E-14
 -1      3615 1.99488E+01 3.10676E-01-1.96045E-03-5.99217E-01 2.55555E-14-1.43942E-14
 -1      3616 1.98282E+01 4.13923E-01 8.40936E-04-6.65659E-01-3.20785E-14 8.44081E-15
 -1      3617 1.55800E+01-1.61148E+00 3.94958E-02-4.32014E+00 9.04606E-14-2.27415E-13
 -1      3618 1.79229E+01-2.72673E+00-8.63666E-03-4.55001E+00 1.50921E-14 9.05942E-14
 -1      3619 1.93942E+01-2.39800E+00 4.98108E-02-3.72112E+00 3.51733E-14 1.08798E-13
 -1      3620 2.67136E+01-2.37866E+00-1.20067E-01-1.00285E+00 3.12380E-14-5.21850E-13
 -1      3621 2.00227E+01 2.27996E+00-3.77042E-03-1.54740E-01-3.16623E-14-1.95727E-13
 -1      3622 2.00360E+01 2.24882E+00-2.72040E-03-2.75588E-01-4.57668E-14-1.86679E-13
 -1      3623 2.01122E+01 2.04979E+00 3.22688E-03-2.76749E-01-4.82198E-14-1.74012E-13
 -1      3624 2.01309E+01 2.00271E+00 4.54769E-03-8.67725E-02-3.21825E-14-1.76483E-13
 -1      3625 2.01349E+01 1.00104E-01 3.31020E-04-2.66179E-01 8.09154E-16-4.97631E-14
 -1      3626 2.01483E+01 1.14373E-01 7.55641E-04-2.39482E-01-2.13900E-14-4.61107E-14
 -1      3627 2.02445E+01 3.62492E-01-1.79179E-03-1.94311E-02 4.18868E-14-8.21761E-14
 -1      3628 2.02719E+01 4.64865E-01 2.43213E-03 6.13667E-02 5.54034E-14-8.08456E-14
 -1      3629 1.35596E+01-3.24257E-01 3.44977E-02 3.30305E+00 9.84837E-14 1.81508E-13
 -1      3630 1.25476E+01 3.02192E-01 2.38875E-02 2.14007E+00 1.04050E-13-1.36155E-13
 -1      3631 1.69428E+01-1.91066E+00 2.76117E-03 4.23305E+00-1.51806E-14 3.12750E-13
 -1      3632 1.49948E+01-1.00209E+00 5.35862E-02 3.90619E+00 7.00256E-14 3.14040E-13
 -1      3633 1.53386E+01-4.40178E-01 5.96518E-02 3.19590E+00 5.82121E-14 2.34620E-13
 -1      3634 2.01697E+01 1.37550E-01-2.13925E-04-2.10977E-01-3.79534E-14-5.89318E-14
 -1      3635 2.01887E+01 1.72882E-01 1.47940E-03-1.74145E-01-3.53346E-14-8.15680E-14
 -1      3636 2.02044E+01 1.53285E-01-5.99740E-04-2.08805E-01-2.02897E-14-7.42833E-14
 -1      3637 2.02116E+01 1.66859E+00 1.52503E-03-5.25084E-01-8.96840E-14-1.91391E-13
 -1      3638 2.02336E+01 1.52814E+00-3.81179E-03-5.92370E-01-1.06107E-13-2.11427E-13
 -1      3639 2.02672E+01 1.33186E+00-4.36934E-05-5.18005E-01-8.53132E-14-2.01763E-13
 -1      3640 1.28488E+01 1.55994E-01 9.39733E-03-2.46968E+00-1.77792E-14-1.70863E-13
 -1      3641 1.40603E+01-7.24945E-01 3.96904E-02-3.78227E+00 5.25135E-14-3.56666E-13
 -1      3642 1.61693E+01-8.56273E-01 7.20000E-02-3.50267E+00-2.27388E-14-2.28807E-13
 -1      3643 2.02988E+01 1.12739E+00-5.94279E-04-4.29890E-01-6.92407E-14-1.95190E-13
 -1      3644 2.03034E+01 9.10376E-01-2.10593E-03-2.93303E-01-7.23120E-14-1.85221E-13
 -1      3645 2.03288E+01 9.20219E-01 1.77101E-03-2.39730E-01-7.68357E-14-1.72230E-13
 -1      3646 2.02882E+01 1.26854E+00 2.20814E-03-3.96337E-01-6.30996E-14-1.80664E-13
 -1      3647 1.70691E+01-2.19803E+00 1.04537E-01-4.55106E+00-3.88509E-14-2.44846E-13
 -1      3648 1.87188E+01-3.12046E+00-5.04655E-02-4.48220E+00-2.19616E-14-3.68094E-13
 -1      3649 2.02071E+01 2.19528E-01-9.53266E-04-1.33527E-01-1.41083E-14-7.93168E-14
 -1      3650 2.02319E+01 2.83250E-01 2.25850E-03-7.90427E-02 1.47351E-14-6.67022E-14
 -1      3651 2.02482E+01 2.35564E-01-5.89271E-04-1.36100E-01-2.66925E-14-6.08076E-14
 -1      3652 2.11068E+01-3.45015E+00 8.29766E-02-3.65841E+00 2.82248E-14-2.95845E-13
 -1      3653 1.19441E+01 7.59077E-01 1.62818E-02 2.74248E-01-2.36680E-13-2.81761E-13
 -1      3654 1.21096E+01 7.11142E-01 4.97953E-02-1.09318E+00-2.38640E-13-8.42035E-14
 -1      3655 1.99850E+01 2.77849E-01 1.64217E-03-5.51506E-01-8.03445E-15-2.90758E-14
 -1      3656 1.99845E+01 2.43757E-01-1.64400E-03-5.07972E-01-4.31266E-14-2.41563E-14
 -1      3657 1.99608E+01 2.62887E-01 3.81130E-04-4.75257E-01 1.96864E-14 8.82222E-15
 -1      3658 1.98989E+01 3.37256E-01 6.22711E-04-5.59982E-01-6.26727E-15-8.71216E-14
 -1      3659 2.55308E+01-4.02148E+00-3.69574E-02 1.12393E+00 3.06699E-15 2.94625E-14
 -1      3660 2.00432E+01-2.83226E+00-1.05739E-02 3.67045E+00-1.30540E-13 1.49531E-13
 -1      3661 1.97050E+01 5.52560E-01-1.55858E-03-4.02155E-01 1.41208E-14-1.03434E-13
 -1      3662 1.94607E+01 7.05742E-01 2.00841E-03 4.74777E-03 9.24699E-14 2.57459E-14
 -1      3663 1.95341E+01 6.62799E-01-1.31567E-03 5.19026E-02 5.86905E-14 2.43374E-14
 -1      3664 1.95503E+01 6.53684E-01-3.82627E-04 1.33909E-01 7.52979E-14-1.23343E-13
 -1      3665 1.54746E+01-7.85751E-01 7.24020E-02 3.68849E+00-4.36437E-13 1.21361E-14
 -1      3666 1.49538E+01-1.30916E-01 4.76130E-03 2.89796E+00-3.52132E-13-5.67532E-14
 -1      3667 1.70434E+01-1.03991E+00 1.82923E-02 3.42903E+00-3.84823E-13 1.06777E-13
 -1      3668 1.61379E+01-1.43259E+00 5.41399E-02-4.00033E+00-9.43690E-15-2.65028E-13
 -1      3669 2.03360E+01 6.21915E-01 4.76445E-04-8.82079E-02-7.21284E-14-1.56406E-13
 -1      3670 1.98344E+01 4.63537E-01-1.50713E-03 4.64151E-01 2.08612E-13-6.35248E-16
 -1      3671 1.98950E+01 4.26539E-01 8.94666E-04 4.79537E-01 2.13510E-13-1.61342E-14
 -1      3672 2.01032E+01 9.60208E-02 7.31162E-04-3.11091E-01 3.25627E-14-3.74738E-14
 -1      3673 2.01119E+01 9.43995E-02 1.30495E-04-2.88510E-01 2.86034E-14-5.32021E-14
 -1      3674 2.01590E+01 1.18473E-01-4.82118E-04-2.62526E-01-5.20069E-15-9.23568E-14
 -1      3675 1.37031E+01 5.46411E-01 5.28685E-02-1.74868E+00-1.17328E-13-3.28175E-13
 -1      3676 1.97575E+01 5.20031E-01 1.32315E-03 4.20289E-01 1.76277E-13-1.33529E-13
 -1      3677 1.97696E+01 5.13989E-01 1.57409E-03 4.84005E-01 3.01621E-13-1.83685E-13
 -1      3678 1.96893E+01 5.57925E-01-2.47202E-03 3.67237E-01 1.94055E-13-3.33198E-13
 -1      3679 2.45894E+01-3.82756E+00 9.63096E-02 1.70724E+00-4.77049E-14-5.55597E-14
 -1      3680 2.00657E+01 1.48212E-01-1.08983E-04-3.54235E-01 6.72794E-14-1.30417E-14
 -1      3681 2.00738E+01 1.17339E-01 1.02899E-03-3.55303E-01 7.41278E-14-5.19469E-14
 -1      3682 2.00790E+01 1.03553E-01-4.05264E-04-3.32129E-01 6.37095E-14-3.62635E-14
 -1      3683 1.99481E+01 4.11357E-01 1.39960E-03 5.80024E-01 4.09882E-13 2.49275E-14
 -1      3684 1.98272E+01 4.80325E-01-5.32417E-05 5.98548E-01 4.59722E-13-7.63732E-14
 -1      3685 1.99469E+01 3.89583E-01-1.05842E-03 5.17183E-01 4.54965E-13-2.17579E-13
 -1      3686 1.99839E+01 3.60301E-01 2.57879E-04 4.67689E-01 1.55007E-13-2.49015E-13
 -1      3687 1.24201E+01 6.99233E-01 7.80527E-02 1.34626E+00 1.19773E-13-3.63140E-13
 -1      3688 1.25062E+01 7.91489E-01 9.68015E-03 3.36450E-01-7.05512E-15-3.01988E-13
 -1      3689 1.36941E+01 5.61386E-01 3.87326E-02 1.79604E+00 6.56474E-14-1.44719E-13
 -1      3690 1.95758E+01 6.35170E-01-2.25613E-03-2.19128E-01-9.12621E-14 6.37126E-13
 -1      3691 1.94928E+01 6.86860E-01 1.69569E-03-1.90213E-01-1.00702E-13 3.81882E-13
 -1      3692 1.96205E+01 6.12316E-01 1.07574E-03-2.92374E-01 3.52306E-15 5.15138E-13
 -1      3693 1.23538E+01 3.46519E-01 1.03217E-01-2.24871E+00 3.81179E-14-2.40169E-13
 -1      3694 1.36017E+01 2.51781E-02 3.59705E-02-2.69594E+00 4.71834E-14-1.92971E-13
 -1      3695 1.24517E+01 6.32123E-01 9.26745E-03-1.23915E+00-1.70332E-14-2.89078E-13
 -1      3696 2.02099E+01 1.67092E+00-3.39927E-03 1.26853E-01-1.05948E-14-1.59140E-13
 -1      3697 2.02065E+01 1.69149E+00-2.47927E-03 3.85998E-02-3.76444E-14-1.82757E-13
 -1      3698 2.02857E+01 1.15968E+00-5.03509E-03 4.81115E-01 1.25737E-13-9.50328E-14
 -1      3699 2.02745E+01 1.30735E+00-1.97599E-04 4.41465E-01 1.04247E-13-6.49383E-14
 -1      3700 2.02711E+01 5.63918E-01-1.92396E-03 1.34804E-01 6.08353E-14-7.80624E-14
 -1      3701 2.02888E+01 6.76667E-01-2.68356E-05 2.34305E-01 8.42029E-14-9.31298E-14
 -1      3702 2.03086E+01 5.85140E-01 1.93039E-04 1.05958E-01 6.70547E-14-9.19443E-14
 -1      3703 2.04557E+01-2.81508E+00 5.98719E-02-3.46182E+00-5.20625E-14-3.37274E-13
 -1      3704 2.02867E+01 3.81057E-01-4.64178E-04-3.18681E-02 3.43778E-14-4.14775E-14
 -1      3705 2.01815E+01 1.76114E+00-3.38673E-03-4.54395E-01-8.52330E-14-1.84345E-13
 -1      3706 2.02329E+01 1.56978E+00 7.68491E-04-4.14075E-01-7.86653E-14-1.74366E-13
 -1      3707 2.01616E+01 1.84966E+00-1.16251E-03-3.63641E-01-5.25826E-14-1.47625E-13
 -1      3708 1.37836E+01 5.02801E-01-1.19738E-02 1.86592E+00-3.69780E-13-3.25486E-13
 -1      3709 1.27640E+01 7.99319E-01 7.53518E-02 1.07313E+00-2.91063E-13-3.67893E-13
 -1      3710 1.35843E+01 9.24570E-01 1.88354E-02 4.58757E-01-3.15433E-13-3.25287E-13
 -1      3711 2.02300E+01 1.57689E+00-3.99401E-03 2.76894E-01 3.68619E-14-1.18888E-13
 -1      3712 2.02190E+01 1.63655E+00-2.14882E-03 1.95042E-01 1.50505E-14-1.44910E-13
 -1      3713 2.02913E+01 1.42250E+00 5.00937E-03 1.27366E-01-1.57222E-14-1.29511E-13
 -1      3714 1.91369E+01-2.53503E+00 1.55699E-02 3.84524E+00-1.27477E-13 1.89272E-13
 -1      3715 1.80161E+01-2.14690E+00 5.90398E-02 4.12191E+00-6.30399E-14 2.31939E-13
 -1      3716 1.73785E+01-1.48466E+00-1.24026E-02 3.72588E+00-7.15990E-14 1.65472E-13
 -1      3717 1.91005E+01-1.99337E+00 3.13223E-03 3.50661E+00-1.18218E-13 1.65876E-13
 -1      3718 1.93181E+01 6.17959E-01 3.35841E-03-1.11896E+00-5.24153E-14-3.66288E-14
 -1      3719 1.93542E+01 6.20704E-01-3.75540E-03-1.02233E+00-1.18417E-14 1.40872E-14
 -1      3720 2.02721E+01 2.01542E-01 5.12392E-04 1.62031E-01-8.54337E-14-7.45896E-14
 -1      3721 2.02447E+01 1.72018E-01-2.84154E-04 1.91075E-01-5.05250E-14-9.41627E-14
 -1      3722 2.02113E+01 1.55304E-01 7.22511E-05 2.11314E-01-3.40262E-14-1.11614E-13
 -1      3723 2.01824E+01 1.49212E-01 1.20749E-04 2.34803E-01-2.91376E-14-1.18591E-13
 -1      3724 2.02494E+01 1.86475E-01 1.48855E-04 1.74355E-01-5.30785E-14-7.03262E-14
 -1      3725 2.01425E+01 1.52615E-01-3.71910E-04 2.52697E-01-3.57168E-14-1.34004E-13
 -1      3726 2.01121E+01 1.64773E-01 3.94787E-04 2.74843E-01-4.67039E-14-1.46447E-13
 -1      3727 2.01760E+01 1.70802E-01 2.15036E-04 2.13504E-01-3.17942E-14-1.18727E-13
 -1      3728 2.00659E+01 1.83857E-01-8.10580E-04 2.93597E-01-5.29972E-14-1.28947E-13
 -1      3729 2.00332E+01 2.10281E-01 5.66599E-04 3.17839E-01-4.30406E-14-1.47354E-13
 -1      3730 2.00917E+01 1.94657E-01 4.05231E-04 2.50496E-01-6.15616E-14-1.10116E-13
 -1      3731 1.99800E+01 2.41539E-01-1.24817E-03 3.40096E-01-6.32771E-14-2.16500E-13
 -1      3732 1.99438E+01 2.78985E-01 6.67597E-04 3.69165E-01-7.28553E-14-1.92244E-13
 -1      3733 1.99958E+01 2.49444E-01 7.01496E-04 2.90975E-01-7.94375E-14-8.29382E-14
 -1      3734 1.98820E+01 3.19414E-01-1.69882E-03 3.97120E-01-4.19122E-14-2.00637E-13
 -1      3735 1.98406E+01 3.64869E-01 7.22892E-04 4.33217E-01-1.93630E-14-1.45170E-13
 -1      3736 1.98855E+01 3.28149E-01 1.09381E-03 3.39529E-01-4.61006E-14-8.14116E-14
 -1      3737 1.97680E+01 4.11371E-01-2.17797E-03 4.68748E-01 1.22803E-14-9.81428E-14
 -1      3738 1.97197E+01 4.61558E-01 7.73355E-04 5.13641E-01 5.26131E-14-9.65439E-14
 -1      3739 1.97570E+01 4.24244E-01 1.54945E-03 4.00067E-01 3.33254E-14-8.21694E-14
 -1      3740 1.96336E+01 5.10500E-01-2.70648E-03 5.58537E-01 5.21563E-14-1.07076E-13
 -1      3741 1.95770E+01 5.61254E-01 8.73677E-04 6.13851E-01 3.46124E-14-6.74936E-14
 -1      3742 1.96054E+01 5.30892E-01 2.07429E-03 4.75986E-01 5.37271E-14-4.63360E-14
 -1      3743 1.94745E+01 6.07606E-01-3.30888E-03 6.70155E-01 6.69941E-14-3.84115E-14
 -1      3744 1.94089E+01 6.53111E-01 1.11866E-03 7.37610E-01 6.24626E-14-6.12287E-15
 -1      3745 1.94250E+01 6.39574E-01 2.64972E-03 5.70966E-01 7.16639E-14-1.41928E-14
 -1      3746 1.92872E+01 6.89753E-01-4.03495E-03 8.08104E-01 2.54045E-14 4.30230E-15
 -1      3747 1.92137E+01 7.21754E-01 1.67982E-03 8.90100E-01 1.61749E-14 3.52337E-14
 -1      3748 1.92104E+01 7.38830E-01 3.26992E-03 6.89640E-01 5.19651E-14 6.43039E-14
 -1      3749 1.90701E+01 7.38430E-01-4.94201E-03 9.79291E-01 4.52519E-16 4.11226E-14
 -1      3750 1.89931E+01 7.45127E-01 2.84294E-03 1.07974E+00 2.08486E-14 4.47869E-14
 -1      3751 1.89563E+01 8.12761E-01 3.88309E-03 8.39220E-01 2.23697E-14 1.00247E-14
 -1      3752 1.88260E+01 7.27107E-01-6.06160E-03 1.19532E+00 8.70370E-14 3.37627E-14
 -1      3753 1.87562E+01 6.91746E-01 5.12530E-03 1.32066E+00 1.13248E-13 3.75294E-14
 -1      3754 1.86587E+01 8.39139E-01 4.42383E-03 1.03215E+00 5.73603E-14 2.23643E-14
 -1      3755 1.85669E+01 6.17942E-01-7.30069E-03 1.47568E+00 9.37424E-14 2.48406E-14
 -1      3756 1.85245E+01 5.15586E-01 8.35535E-03 1.63624E+00 1.30654E-13 3.39708E-14
 -1      3757 1.83174E+01 7.86596E-01 4.75679E-03 1.29005E+00 1.15545E-13-8.03790E-15
 -1      3758 1.83218E+01 3.62692E-01-7.24749E-03 1.84794E+00 1.59350E-13 7.48778E-14
 -1      3759 1.83419E+01 1.54642E-01 1.33580E-02 2.06427E+00 1.57252E-13 1.13994E-13
 -1      3760 1.79427E+01 6.10330E-01 5.18946E-03 1.64845E+00 1.25176E-13 2.05841E-14
 -1      3761 1.81390E+01-1.26247E-01-8.80523E-03 2.34520E+00 1.12681E-13 1.98178E-13
 -1      3762 1.82315E+01-5.23768E-01-4.68299E-03 2.65596E+00 8.57691E-14 2.06664E-13
 -1      3763 1.75548E+01 2.11575E-01-9.07826E-03 2.16942E+00 1.64410E-13 8.97700E-14
 -1      3764 1.96193E+01 6.08790E-01 1.10549E-03-4.02407E-01-5.57810E-14 1.53214E-13
 -1      3765 2.03219E+01 3.04116E-01 9.19510E-04 9.60951E-02-9.93672E-14-1.16331E-13
 -1      3766 2.02974E+01 2.44276E-01-8.42254E-04 1.35689E-01-1.18288E-13-8.37609E-14
 -1      3767 2.03104E+01 2.52742E-01 2.55721E-04 1.26377E-01-8.57511E-14-1.00477E-13
 -1      3768 2.21076E+01-4.04008E+00-2.49169E-02 3.34968E+00-1.21403E-13 1.01739E-13
 -1      3769 1.86676E+01-1.03371E+00 3.50925E-02-2.96407E+00-1.10615E-13 9.41738E-14
 -1      3770 1.83428E+01-5.62464E-01-1.50645E-03-2.69095E+00-1.24431E-13 3.36246E-14
 -1      3771 1.84840E+01-1.86256E-01 2.28102E-02-2.33840E+00-1.99866E-13-2.73874E-14
 -1      3772 1.83677E+01 9.39581E-02-6.86906E-03-2.11284E+00-1.68070E-13 9.52899E-14
 -1      3773 1.75517E+01-1.43868E-01-3.13021E-03-2.56821E+00-1.60577E-13 6.84303E-14
 -1      3774 1.85469E+01 3.22942E-01 1.26512E-02-1.85791E+00-2.56684E-14-1.07913E-14
 -1      3775 1.85441E+01 4.80219E-01-6.46342E-03-1.67843E+00 3.65821E-14 8.90466E-14
 -1      3776 1.78709E+01 4.08768E-01 6.88781E-03-1.94135E+00-1.54075E-13-2.66620E-14
 -1      3777 1.87248E+01 6.01554E-01 7.06485E-03-1.49452E+00-8.29851E-14 8.41720E-14
 -1      3778 1.87730E+01 6.75395E-01-5.89467E-03-1.35185E+00-1.82795E-13 4.51792E-14
 -1      3779 1.82203E+01 6.92773E-01 5.66854E-03-1.49781E+00-1.00078E-14-2.48630E-13
 -1      3780 1.89403E+01 7.26013E-01 3.93773E-03-1.21520E+00-2.22273E-13 5.43666E-14
 -1      3781 1.90071E+01 7.46332E-01-4.95715E-03-1.09991E+00-1.83607E-13-1.87438E-14
 -1      3782 1.85549E+01 8.18497E-01 4.38220E-03-1.18456E+00-1.88619E-13-3.38388E-14
 -1      3783 1.91536E+01 7.53036E-01 2.21544E-03-9.94438E-01-1.69718E-13-1.01731E-13
 -1      3784 1.92237E+01 7.41101E-01-3.78592E-03-8.99047E-01-1.52815E-13-6.27423E-14
 -1      3785 1.88571E+01 8.44877E-01 4.00514E-03-9.53333E-01-1.48555E-13 2.18638E-14
 -1      3786 1.93493E+01 7.21482E-01 1.72950E-03-8.12991E-01-1.32498E-13-1.51060E-13
 -1      3787 1.94154E+01 6.94960E-01-6.20435E-04-7.35719E-01-2.00066E-13-1.49763E-13
 -1      3788 1.91160E+01 8.10642E-01 2.93652E-03-7.73121E-01-1.81060E-13-1.30982E-13
 -1      3789 1.94590E+01 6.12409E-01 2.25161E-03-9.30246E-01-9.47656E-14 3.95717E-14
 -1      3790 1.94999E+01 5.88726E-01-3.32175E-03-8.48636E-01-9.62471E-14 4.58354E-14
 -1      3791 1.92131E+01 6.96801E-01 2.35737E-03-9.13473E-01-4.74914E-14-7.53711E-14
 -1      3792 1.87442E+01-1.67798E+00 2.65131E-02-3.44563E+00-4.15074E-14 1.51341E-13
 -1      3793 1.95928E+01 5.59849E-01 1.65945E-03-7.74358E-01-1.02209E-13 4.69541E-14
 -1      3794 1.96322E+01 5.21903E-01-2.86147E-03-7.05967E-01-1.03483E-13 6.91973E-14
 -1      3795 1.94022E+01 6.41518E-01 2.22375E-03-7.53449E-01-9.38299E-14 9.63651E-14
 -1      3796 1.91860E+01 5.44401E-01 5.30960E-03-1.34846E+00-9.86089E-14-5.50503E-14
 -1      3797 1.92047E+01 5.90856E-01-4.09390E-03-1.23421E+00-1.30577E-13-3.04254E-14
 -1      3798 1.90035E+01 6.99908E-01 2.10777E-03-1.11434E+00-6.13701E-14-1.50838E-13
 -1      3799 1.90948E+01 3.46684E-01 8.45700E-03-1.63024E+00-5.29380E-14-1.06733E-13
 -1      3800 1.90730E+01 4.61096E-01-4.06348E-03-1.49521E+00-3.83008E-14-4.48402E-14
 -1      3801 1.87842E+01 6.16521E-01 1.04510E-03-1.37158E+00-4.27394E-14-1.54007E-13
 -1      3802 1.91050E+01-3.53544E-02 1.35903E-02-1.97628E+00-3.14439E-14-6.24537E-14
 -1      3803 1.90028E+01 1.78910E-01-2.94138E-03-1.81965E+00-3.79249E-14-1.27525E-13
 -1      3804 1.85812E+01 3.97469E-01-1.62982E-03-1.70891E+00-2.79273E-14-1.91907E-13
 -1      3805 1.93191E+01-6.77066E-01 2.02164E-02-2.38720E+00-1.38712E-13-9.75199E-14
 -1      3806 1.90762E+01-3.24901E-01 1.27919E-03-2.22018E+00-7.89777E-14-5.25912E-14
 -1      3807 1.84482E+01-2.61764E-02-6.80876E-03-2.15682E+00-9.49877E-14-1.16377E-13
 -1      3808 1.99443E+01-1.65238E+00 3.08987E-02-2.81178E+00-8.68563E-14-2.60733E-13
 -1      3809 1.94460E+01-1.13143E+00 1.32435E-02-2.68490E+00-9.61572E-14-2.01852E-13
 -1      3810 1.85080E+01-7.38533E-01-7.58406E-03-2.74433E+00-6.74369E-14-1.47791E-13
 -1      3811 1.98796E+01-2.21894E+00 3.57008E-02-3.29812E+00-1.09058E-13-3.43522E-13
 -1      3812 1.90797E+01-2.43055E-01-1.18202E-03 2.15877E+00-2.87417E-13 6.26350E-13
 -1      3813 1.92906E+01-5.74744E-01 1.59491E-02 2.32543E+00-2.40993E-13 4.67780E-13
 -1      3814 1.95199E+01-1.95864E+00-6.62874E-04 3.21622E+00-4.23906E-13 7.59566E-14
 -1      3815 1.90295E+01 2.32581E-01-3.51589E-03 1.77009E+00-1.52473E-13 9.36414E-13
 -1      3816 1.91179E+01 3.33218E-02 1.22748E-02 1.92272E+00-1.64062E-13 7.77732E-13
 -1      3817 1.84909E+01 5.43163E-02-3.10180E-03 2.08490E+00-3.25111E-13 5.86069E-13
 -1      3818 1.91088E+01 4.96570E-01-4.03458E-03 1.45368E+00-1.62410E-13 6.21413E-13
 -1      3819 1.91241E+01 3.90300E-01 7.83078E-03 1.58660E+00-1.05803E-13 7.24975E-13
 -1      3820 1.86296E+01 4.43905E-01-1.32455E-03 1.65696E+00-2.46065E-14 6.19904E-13
 -1      3821 1.92411E+01 6.18044E-01-3.96714E-03 1.19669E+00-1.55507E-13 2.49150E-13
 -1      3822 1.92200E+01 5.74364E-01 4.79577E-03 1.31061E+00-1.55925E-13 4.01560E-13
 -1      3823 1.88330E+01 6.47713E-01 1.12585E-03 1.33082E+00-1.33977E-14 1.53784E-13
 -1      3824 1.93873E+01 6.48348E-01-3.59588E-03 9.84744E-01 3.22560E-14 1.47447E-13
 -1      3825 1.93514E+01 6.44124E-01 3.03360E-03 1.08258E+00-8.93014E-14 2.67348E-13
 -1      3826 1.90476E+01 7.26732E-01 2.13512E-03 1.07837E+00-1.56113E-13-5.21839E-14
 -1      3827 1.95266E+01 6.24889E-01-3.12719E-03 8.07296E-01 1.28282E-13 1.11149E-13
 -1      3828 1.94876E+01 6.43208E-01 1.98832E-03 8.91801E-01 1.24358E-13 1.33885E-13
 -1      3829 1.92500E+01 7.27598E-01 2.36147E-03 8.77918E-01 6.76659E-14 1.19665E-13
 -1      3830 1.96496E+01 5.73505E-01-2.79743E-03 6.58256E-01 3.39824E-13-1.15755E-13
 -1      3831 1.96139E+01 6.02480E-01 1.37664E-03 7.30099E-01 2.38975E-13 4.66740E-14
 -1      3832 1.94296E+01 6.83906E-01 2.21725E-03 7.14308E-01 2.49871E-13 1.77674E-13
 -1      3833 1.74226E+01-1.13325E+00-1.18819E-02-3.46847E+00-6.48839E-14-1.08242E-13
 -1      3834 1.99861E+01 2.37452E-01 9.01979E-04-3.91191E-01 1.78494E-14-9.32794E-15
 -1      3835 2.00112E+01 2.04999E-01-1.14614E-03-3.61684E-01 2.72496E-14 4.04661E-15
 -1      3836 2.02792E+01 9.72197E-01 1.99332E-03 4.50423E-01 1.31695E-13-1.22994E-13
 -1      3837 2.02932E+01 8.43770E-01 1.95605E-03 3.21108E-01 1.09904E-13-9.58595E-14
 -1      3838 2.03544E+01 4.79706E-01 1.16401E-03 3.75854E-03-6.72552E-14-1.12294E-13
 -1      3839 2.03359E+01 3.80670E-01-1.54743E-03 5.94128E-02-8.14234E-14-1.09669E-13
 -1      3840 2.03547E+01 3.83831E-01 5.48185E-04 6.18964E-02-1.01495E-13-8.38444E-14
 -1      3841 2.03122E+01 1.14241E+00 3.29417E-03 3.21500E-01 9.85600E-14-5.19753E-14
 -1      3842 2.02592E+01 1.40742E+00-4.71345E-03 4.02341E-01 7.87008E-14-8.76004E-14
 -1      3843 2.02452E+01 1.50875E+00-1.40329E-03 3.34881E-01 5.97094E-14-9.73979E-14
 -1      3844 1.97125E+01 4.82775E-01 1.34124E-03-6.45995E-01-8.70994E-14 4.21814E-14
 -1      3845 1.97481E+01 4.38790E-01-2.45333E-03-5.89445E-01-1.85091E-14 1.48091E-14
 -1      3846 1.95672E+01 5.58202E-01 1.93786E-03-6.24730E-01-1.11946E-13 1.73369E-13
 -1      3847 1.95808E+01 6.30412E-01-1.89950E-03 2.24682E-01 1.90803E-13-5.14024E-14
 -1      3848 1.96262E+01 6.05367E-01 6.75237E-04 2.96605E-01 1.70672E-13-2.91749E-13
 -1      3849 1.94974E+01 6.81812E-01 1.76844E-03 1.98333E-01 2.00055E-14-2.07925E-13
 -1      3850 2.03136E+01 3.77731E-01-1.58350E-03-5.15536E-02 1.29952E-14-5.05488E-15
 -1      3851 2.03338E+01 4.78472E-01 1.54478E-03 1.15829E-02 3.62447E-14-2.65375E-14
 -1      3852 2.02850E+01 1.46021E+00 5.08381E-03 5.06928E-04-2.32223E-14-1.69729E-13
 -1      3853 2.02043E+01 1.69144E+00-3.41245E-03-3.44948E-02-2.94350E-14-1.78438E-13
 -1      3854 1.97270E+01 5.32115E-01-9.90901E-04 5.30916E-01 4.08713E-13-2.51633E-13
 -1      3855 1.97008E+01 5.59779E-01 2.15009E-03 6.00671E-01 4.05052E-13-2.43261E-13
 -1      3856 1.95532E+01 6.34360E-01 1.73477E-03 5.85148E-01 3.86763E-13-1.24034E-13
 -1      3857 1.96379E+01 5.83068E-01-1.88293E-03 4.83939E-01 3.14995E-13-1.89094E-13
 -1      3858 1.64664E+01-4.97881E-01 3.37500E-02 3.16773E+00-1.52699E-15 2.06292E-13
 -1      3859 1.52399E+01 1.10264E-01 1.77598E-02 2.62285E+00 8.02418E-15 1.78192E-13
 -1      3860 2.02298E+01 1.61373E-01-2.74491E-04-2.02533E-01-2.09389E-14-3.26498E-14
 -1      3861 2.02542E+01 1.93315E-01 7.87108E-04-1.70717E-01-2.94278E-14-4.12477E-14
 -1      3862 1.54419E+01-6.38270E-01 4.42160E-02-3.47765E+00 5.65433E-14-2.03539E-13
 -1      3863 1.73956E+01-1.51045E+00 4.09800E-03-3.73159E+00 1.30100E-14-3.01221E-13
 -1      3864 2.02769E+01 2.37910E-01-8.83294E-04-1.39778E-01-1.48217E-14-4.11255E-14
 -1      3865 2.03008E+01 2.99597E-01 1.31285E-03-9.53554E-02 6.42485E-15-2.70093E-15
 -1      3866 2.02978E+01 2.48714E-01 6.25967E-05-1.34674E-01-1.66690E-14-2.79707E-14
 -1      3867 2.03578E+01 7.49602E-01 6.44321E-04-1.24117E-01-6.24790E-14-1.29374E-13
 -1      3868 2.03522E+01 6.01310E-01-2.02796E-03-4.73904E-02-5.69588E-14-1.06002E-13
 -1      3869 2.03745E+01 5.97832E-01 1.24883E-03-2.69300E-02-5.56887E-14-1.01122E-13
 -1      3870 1.39335E+01 8.67537E-01-1.87631E-04-1.01123E+00-1.68363E-13-3.84791E-13
 -1      3871 1.47201E+01 3.85752E-01 2.53747E-03-2.27322E+00 2.56045E-15-3.72780E-13
 -1      3872 1.60668E+01-2.99549E-01 5.05719E-03-2.96824E+00-7.26077E-14-2.74164E-13
 -1      3873 1.97676E+01-1.43570E+00 1.12478E-02 2.70990E+00-2.17443E-13 1.26653E-13
 -1      3874 1.82582E+01-1.28523E+00 2.64279E-02 3.34590E+00-3.77011E-13 1.62612E-13
 -1      3875 1.74105E+01-6.61035E-01-1.91004E-02 2.97475E+00-1.63758E-13 6.32571E-14
 -1      3876 1.93286E+01-9.21913E-01 2.86562E-03 2.56602E+00-1.58491E-13 3.08236E-13
 -1      3877 2.03131E+01 8.66778E-01 1.70867E-03 2.69542E-01 8.49217E-14-7.16506E-14
 -1      3878 1.95490E+01 6.36949E-01-1.54906E-03-4.49970E-01-1.90507E-13-9.03596E-15
 -1      3879 1.94553E+01 6.94735E-01-4.48026E-04-3.29839E-01-4.80241E-14 5.65280E-13
 -1      3880 1.95175E+01 6.64241E-01 2.15256E-03-5.09212E-01-2.95499E-13-3.14785E-14
 -1      3881 1.77666E+01-5.52410E-01-2.57806E-03 2.80589E+00 6.01359E-14 1.72431E-13
 -1      3882 1.80037E+01-1.07572E+00 1.28121E-02 3.14295E+00-6.45751E-14 9.07720E-14
 -1      3883 2.03029E+01 1.31702E+00 4.27398E-03 2.38631E-01 4.62455E-14-8.95707E-14
 -1      3884 1.93567E+01 7.47749E-01-8.20602E-04-4.44453E-02 8.64475E-14 6.42133E-14
 -1      3885 1.93585E+01 7.45439E-01-9.65540E-04 5.74937E-02 1.36255E-13-9.47251E-14
 -1      3886 2.01129E+01 1.19578E-01-3.12142E-04-3.08070E-01 4.62278E-14-2.39536E-14
 -1      3887 2.00258E+01 2.15544E-01 4.30784E-04-3.19971E-01 1.51867E-14 2.85178E-15
 -1      3888 2.00557E+01 1.78504E-01 7.44649E-04-3.38064E-01 3.27411E-14 2.56943E-15
 -1      3889 2.00794E+01 1.56464E-01-6.96308E-04-3.13387E-01 5.16943E-14-2.71572E-14
 -1      3890 1.94010E+01 7.13521E-01 1.27381E-03-6.33466E-01-2.56655E-13-2.67497E-14
 -1      3891 1.94355E+01 6.90630E-01-1.75410E-03-5.65906E-01-3.18999E-13-1.69943E-13
 -1      3892 1.93010E+01 7.65961E-01 5.93707E-04-4.27522E-01-3.13078E-13 2.32461E-13
 -1      3893 2.01766E+01 1.32925E-01 1.95556E-04-2.50555E-01 1.52320E-14-3.82526E-14
 -1      3894 2.02005E+01 1.42055E-01 2.71118E-04-2.25651E-01 1.27364E-15-3.61256E-14
 -1      3895 2.02428E+01 1.76155E-01-1.11404E-04-1.90763E-01 6.18117E-16 9.67903E-15
 -1      3896 2.03201E+01 1.24115E+00-2.71418E-03 2.96905E-02-2.92085E-14-1.65120E-13
 -1      3897 2.03210E+01 1.24262E+00-2.36715E-03-2.86962E-02-3.03988E-14-1.83703E-13
 -1      3898 1.85053E+01-1.75814E+00 3.10991E-03-3.56688E+00-4.70977E-14-3.71922E-13
 -1      3899 1.96079E+01 6.13803E-01 1.53678E-03 3.65125E-01 3.03516E-13-2.68175E-13
 -1      3900 2.03291E+01 5.78085E-01-2.07692E-03 6.47215E-02 5.41154E-14-3.35644E-14
 -1      3901 2.03366E+01 6.96545E-01 6.20576E-04 1.41663E-01 5.68157E-14-5.04280E-14
 -1      3902 2.03557E+01 5.81490E-01 5.31340E-04 4.04994E-02 2.94234E-14 8.87981E-15
 -1      3903 1.35677E+01 9.36176E-01 7.72099E-03 3.41770E-01-2.37961E-15-2.97817E-13
 -1      3904 1.29034E+01 9.53448E-01 6.98851E-02-3.75842E-01-4.14621E-14-2.99850E-13
 -1      3905 1.35302E+01 7.97639E-01 1.44471E-02-1.03935E+00-3.36623E-14-3.43135E-13
 -1      3906 1.61653E+01 2.09127E-01 3.00768E-02-2.33130E+00-6.52377E-14-3.11745E-13
 -1      3907 1.99349E+01 2.72468E-01-1.59444E-03-4.20946E-01 6.04596E-14 2.64785E-14
 -1      3908 1.99348E+01 2.84376E-01 7.66799E-04-3.72536E-01 7.45672E-14-6.99989E-14
 -1      3909 1.99074E+01 3.12238E-01 1.02845E-03-4.57741E-01 5.50173E-14 4.32050E-15
 -1      3910 1.47977E+01 4.58050E-01 2.73422E-02 2.17772E+00 7.29178E-14 6.61103E-15
 -1      3911 1.44281E+01 7.43990E-01-3.85690E-03 1.44536E+00 7.24585E-14-1.79867E-13
 -1      3912 1.58968E+01 3.12711E-01-1.16638E-02 2.18785E+00 6.86560E-14 1.08572E-13
 -1      3913 1.60949E+01 8.33243E-02-4.56669E-03 2.48382E+00-2.96852E-13-9.15500E-15
 -1      3914 1.49200E+01 3.78310E-01 4.66261E-02 2.28814E+00-3.29259E-13-1.22936E-13
 -1      3915 1.50418E+01 6.84116E-01-7.31046E-03 1.63911E+00-2.80866E-13-2.32141E-13
 -1      3916 1.44707E+01 3.87673E-01-4.22399E-03-2.16325E+00 1.18161E-13-2.99732E-13
 -1      3917 1.48691E+01-9.50064E-02 3.43561E-02-2.95732E+00 1.22584E-13-2.22135E-13
 -1      3918 1.62011E+01-1.97691E-01 3.22008E-02-2.79476E+00 9.09463E-14-2.02087E-13
 -1      3919 2.03314E+01 1.03983E+00-2.55225E-04-2.44834E-01-5.35620E-14-1.58946E-13
 -1      3920 2.03400E+01 8.87010E-01-1.54493E-03-1.72648E-01-5.33894E-14-1.25631E-13
 -1      3921 2.03610E+01 8.74101E-01 1.71544E-03-1.27438E-01-5.17503E-14-8.80712E-14
 -1      3922 2.03294E+01 8.18195E-01-3.62693E-04 1.88897E-01 7.78390E-14-4.28233E-14
 -1      3923 2.03240E+01 9.80075E-01-1.91809E-03 2.68557E-01 1.09837E-13-2.32408E-14
 -1      3924 2.03256E+01 1.08434E+00 4.67565E-04 2.41464E-01 6.39508E-14-2.37045E-14
 -1      3925 2.03511E+01 8.12939E-01 6.12687E-04 1.44523E-01 5.28302E-14-1.34377E-15
 -1      3926 2.03389E+01 3.85392E-01 3.07217E-04-5.80075E-02 3.04067E-15 1.37036E-14
 -1      3927 2.01963E+01 1.73246E+00-7.68438E-04-1.17993E-01-3.84106E-14-1.74813E-13
 -1      3928 1.41259E+01 1.08470E+00 5.03766E-02-3.31036E-01-1.11148E-13-5.10012E-13
 -1      3929 1.49327E+01 9.62171E-01-4.97574E-03-8.57312E-01-2.12894E-14-4.83931E-13
 -1      3930 1.44978E+01 9.91590E-01-1.30120E-02 4.21629E-01-1.57223E-13-4.36539E-13
 -1      3931 1.85037E+01-5.29953E-01 9.56192E-04 2.58767E+00-3.55975E-13 2.14080E-13
 -1      3932 1.94075E+01 7.18517E-01-1.29050E-03-2.37340E-01 7.48321E-14 4.34649E-13
 -1      3933 1.93737E+01 7.37405E-01-1.25536E-03-1.42574E-01 3.32647E-14 2.58638E-13
 -1      3934 1.92709E+01 7.89457E-01 7.94611E-04-9.15769E-02 1.57345E-13 5.50357E-14
 -1      3935 1.93368E+01 7.57025E-01 1.38970E-03-2.80545E-01 1.04450E-13 2.93171E-13
 -1      3936 1.76160E+01-9.74202E-01-1.40533E-02-3.20755E+00 1.56160E-14-2.69914E-13
 -1      3937 1.97090E+01 4.63418E-01 1.53739E-03-5.20967E-01-3.70122E-14 8.48197E-14
 -1      3938 1.98170E+01 3.96542E-01 1.14760E-03-5.41621E-01-1.15088E-14 7.69649E-15
 -1      3939 1.98481E+01 3.52660E-01-2.04473E-03-4.95666E-01-1.89342E-14-1.41055E-16
 -1      3940 2.02703E+01 1.38379E+00-1.77457E-03-3.65711E-01-6.23069E-14-1.66738E-13
 -1      3941 2.03032E+01 1.18949E+00-1.09372E-03-2.85354E-01-5.32126E-14-1.66724E-13
 -1      3942 2.03238E+01 1.15189E+00-3.72476E-04-2.19833E-01-4.93460E-14-1.19204E-13
 -1      3943 2.02575E+01 1.48669E+00 1.98082E-03-3.06366E-01-5.42376E-14-1.30628E-13
 -1      3944 2.01735E+01 1.78872E+00-4.39152E-03-1.87461E-01-4.66067E-14-1.95101E-13
 -1      3945 2.01728E+01 1.80345E+00-1.87134E-03-2.80077E-01-5.00653E-14-1.62566E-13
 -1      3946 2.02310E+01 1.61842E+00 1.10169E-03-2.69705E-01-4.91585E-14-1.60517E-13
 -1      3947 2.02708E+01 1.51814E+00 5.62714E-03-1.26805E-01-4.14808E-14-1.68059E-13
 -1      3948 2.03240E+01 1.19193E+00-2.77220E-03 1.24318E-01 1.11919E-14-1.15828E-13
 -1      3949 2.03217E+01 1.22707E+00-1.96858E-03 7.17286E-02-1.40802E-14-1.25086E-13
 -1      3950 2.03723E+01 1.05090E+00 4.80980E-03 3.54451E-02-2.32855E-14-1.57928E-13
 -1      3951 2.02052E+01 1.80646E-01-2.66815E-04 1.66541E-01-9.60735E-15-9.69388E-14
 -1      3952 2.01653E+01 1.83371E-01-2.79006E-05 1.85127E-01-2.22834E-14-9.35843E-14
 -1      3953 2.01144E+01 1.95613E-01-6.05657E-04 1.97604E-01-3.71185E-14-8.25369E-14
 -1      3954 2.00694E+01 2.16821E-01 1.10929E-04 2.16209E-01-4.76113E-14-8.12427E-14
 -1      3955 2.01445E+01 2.05840E-01 5.93360E-04 1.50791E-01-3.20515E-14-3.65213E-14
 -1      3956 2.00097E+01 2.45113E-01-9.68887E-04 2.30246E-01-8.05374E-14-5.71977E-14
 -1      3957 1.99585E+01 2.80744E-01 1.43288E-04 2.51263E-01-1.01208E-13-3.96997E-14
 -1      3958 2.00361E+01 2.48502E-01 8.31027E-04 1.76489E-01-6.48818E-14-2.69573E-14
 -1      3959 1.98889E+01 3.21449E-01-1.37753E-03 2.68431E-01-5.54514E-14-3.71888E-14
 -1      3960 1.98299E+01 3.68212E-01 1.17532E-04 2.93759E-01 1.17991E-14-1.91375E-14
 -1      3961 1.99104E+01 3.21786E-01 1.21546E-03 2.05828E-01-4.07615E-14-8.18714E-15
 -1      3962 1.97479E+01 4.18165E-01-1.84175E-03 3.15576E-01 2.46707E-14-6.41545E-14
 -1      3963 1.96787E+01 4.72644E-01 1.46699E-05 3.46924E-01 1.58244E-14-5.11522E-14
 -1      3964 1.97635E+01 4.18678E-01 1.72943E-03 2.41344E-01 9.51976E-15-5.70374E-15
 -1      3965 1.95813E+01 5.28342E-01-2.41298E-03 3.74623E-01 4.34735E-14-8.05999E-14
 -1      3966 1.94994E+01 5.87135E-01-8.50150E-05 4.13479E-01 8.81314E-14-7.49838E-14
 -1      3967 1.95901E+01 5.32454E-01 2.39765E-03 2.85986E-01 3.48834E-14-1.33002E-13
 -1      3968 1.93825E+01 6.44558E-01-3.11003E-03 4.48803E-01 9.54358E-14-7.95616E-14
 -1      3969 1.92852E+01 7.02961E-01-1.60051E-04 4.96983E-01 8.63243E-14-4.34020E-14
 -1      3970 1.93829E+01 6.55499E-01 3.04299E-03 3.41568E-01 8.27213E-14-1.07712E-13
 -1      3971 1.91440E+01 7.56642E-01-3.99762E-03 5.41779E-01 8.37521E-14-2.64357E-14
 -1      3972 1.90286E+01 8.08736E-01-1.07158E-04 6.01789E-01 5.36277E-14-6.36059E-15
 -1      3973 1.91341E+01 7.79348E-01 4.01072E-03 4.12042E-01 7.45007E-14-9.00783E-14
 -1      3974 1.88565E+01 8.51541E-01-5.25667E-03 6.59402E-01 1.11191E-14-2.59871E-15
 -1      3975 1.87211E+01 8.89434E-01 2.04467E-04 7.35557E-01 3.28920E-14 1.30779E-14
 -1      3976 1.88327E+01 8.92740E-01 5.19834E-03 5.01544E-01 5.49069E-14-2.32100E-14
 -1      3977 1.85096E+01 9.11585E-01-7.12481E-03 8.11839E-01 3.66251E-14 1.93553E-14
 -1      3978 1.83537E+01 9.24708E-01 1.03595E-03 9.11770E-01 6.66723E-14 2.37747E-14
 -1      3979 1.84651E+01 9.81814E-01 6.76171E-03 6.18594E-01 4.31991E-14-1.51132E-15
 -1      3980 1.80904E+01 9.12695E-01-1.00274E-02 1.01700E+00 1.04588E-13-3.29510E-14
 -1      3981 1.79156E+01 8.87000E-01 2.62279E-03 1.15394E+00 1.18872E-13-7.93362E-14
 -1      3982 1.80131E+01 1.02869E+00 8.95039E-03 7.78237E-01 5.81308E-14-9.99652E-14
 -1      3983 1.75823E+01 8.20073E-01-1.54002E-02 1.30634E+00 1.49678E-13-3.90148E-14
 -1      3984 1.74282E+01 7.36710E-01 6.66080E-03 1.49549E+00 1.93518E-13 8.19223E-16
 -1      3985 1.74542E+01 1.01094E+00 1.34555E-02 1.00862E+00 1.68225E-13-9.66883E-14
 -1      3986 2.03268E+01 1.11338E+00-2.41144E-03 2.06540E-01 4.95439E-14-5.97030E-14
 -1      3987 2.03240E+01 1.18151E+00-1.14989E-03 1.62167E-01 2.11396E-14-9.08983E-14
 -1      3988 2.03681E+01 1.02072E+00 4.26242E-03 1.02102E-01 3.05756E-14-8.41353E-14
 -1      3989 2.03530E+01 9.73970E-01 2.17656E-03 1.63179E-01 5.62561E-14-3.39813E-14
 -1      3990 2.01187E+01 1.41424E-01 5.28134E-04-2.93231E-01 3.80606E-14-2.55450E-14
 -1      3991 2.01421E+01 1.33028E-01-2.23924E-04-2.70380E-01 2.19876E-14-4.40202E-14
 -1      3992 2.01063E+01 1.69656E-01 1.61049E-04-2.76030E-01 3.46723E-14-3.18227E-14
 -1      3993 1.63298E+01 4.70867E-01-7.93329E-03-1.98020E+00-2.24555E-13-3.06042E-13
 -1      3994 2.02822E+01 2.09590E-01 1.45416E-05 1.32076E-01-7.65185E-14-6.32062E-14
 -1      3995 2.02476E+01 1.88881E-01-2.77378E-04 1.53571E-01-5.62284E-14-6.86802E-14
 -1      3996 2.02370E+01 2.02273E-01 4.91685E-04 1.25411E-01-4.80513E-14-1.20943E-14
 -1      3997 1.92133E+01 7.87739E-01-2.52145E-03-5.86467E-01-2.37663E-13-2.88354E-14
 -1      3998 1.87118E+01 7.92648E-01 2.76647E-03-1.04150E+00-1.48583E-14-1.06114E-13
 -1      3999 1.88145E+01 7.91921E-01-5.92356E-03-9.35459E-01-1.50654E-14-7.57200E-14
 -1      4000 1.77401E+01 8.01767E-01 9.52883E-04-1.36797E+00-1.05766E-13-2.30762E-13
 -1      4001 1.79143E+01 8.66496E-01-1.17875E-02-1.19724E+00-1.42686E-13-3.55222E-13
 -1      4002 1.82001E+01 9.11420E-01 1.97513E-03-1.06672E+00-9.98341E-14-4.17126E-13
 -1      4003 1.83565E+01 9.24353E-01-8.07961E-03-9.45198E-01-8.56069E-14-2.21527E-13
 -1      4004 1.77999E+01 1.02385E+00 1.20681E-02-9.40225E-01-1.45091E-13-4.37905E-13
 -1      4005 1.85853E+01 9.26177E-01 9.20168E-04-8.50262E-01-3.41381E-14-2.00196E-13
 -1      4006 1.87231E+01 9.08654E-01-5.72409E-03-7.58365E-01-8.25296E-14-1.91805E-13
 -1      4007 1.82828E+01 1.02361E+00 7.79433E-03-7.34225E-01-2.62985E-14-4.69254E-13
 -1      4008 1.89077E+01 8.82859E-01-4.79285E-05-6.85870E-01-1.11903E-13-6.82156E-14
 -1      4009 1.90299E+01 8.48630E-01-3.20083E-03-6.14224E-01-1.47720E-13 1.98112E-14
 -1      4010 1.86772E+01 9.71880E-01 5.79530E-03-5.87035E-01 4.96713E-14-3.02015E-13
 -1      4011 1.89853E+01 7.80460E-01 1.49424E-03-8.45000E-01 1.28172E-15-3.96782E-14
 -1      4012 1.90818E+01 7.51736E-01-4.59246E-03-7.61599E-01 3.41812E-14 3.45073E-14
 -1      4013 1.87228E+01 8.73048E-01 4.95773E-03-7.72421E-01 4.98574E-14 5.65894E-15
 -1      4014 1.84102E+01 7.22111E-01 5.13718E-03-1.30184E+00-4.14557E-14-1.30896E-13
 -1      4015 1.85090E+01 7.66198E-01-7.77761E-03-1.16310E+00-6.33614E-14-1.22183E-13
 -1      4016 1.83665E+01 8.92470E-01 5.97211E-03-9.69577E-01-3.30068E-14-7.51284E-14
 -1      4017 1.92254E+01 7.17300E-01 8.79866E-04-6.92153E-01-9.02788E-16 5.65374E-14
 -1      4018 1.93116E+01 6.72513E-01-3.62312E-03-6.25303E-01-7.25886E-14 1.25415E-13
 -1      4019 1.90237E+01 8.03074E-01 4.05235E-03-6.24769E-01 2.14907E-14 6.74249E-14
 -1      4020 1.80992E+01 5.23240E-01 9.66298E-03-1.65818E+00-4.67182E-14-1.36348E-13
 -1      4021 1.81716E+01 6.36636E-01-1.01213E-02-1.47150E+00-7.64010E-15-1.26631E-13
 -1      4022 1.79470E+01 8.30798E-01 6.92735E-03-1.24397E+00-7.29982E-14-1.07617E-13
 -1      4023 1.78086E+01 1.29256E-01 1.60552E-02-2.15974E+00-1.07223E-13-7.05072E-14
 -1      4024 1.78236E+01 3.47786E-01-1.27230E-02-1.90234E+00-6.91029E-14-1.01019E-13
 -1      4025 1.74568E+01 6.42951E-01 6.24073E-03-1.63712E+00-6.48717E-14-1.13993E-13
 -1      4026 1.77289E+01-5.38126E-01 2.07708E-02-2.81347E+00 2.98468E-14-2.01581E-13
 -1      4027 1.76204E+01-1.56032E-01-1.28156E-02-2.46482E+00-4.84268E-14-1.70078E-13
 -1      4028 1.70249E+01 2.68406E-01 5.04870E-03-2.17382E+00 1.99732E-14-1.76103E-13
 -1      4029 1.67804E+01-3.25578E-01 1.70578E-02-2.88281E+00 6.78008E-14-1.96339E-13
 -1      4030 1.94672E+01 6.82161E-01-1.29721E-03 3.28510E-01 1.81770E-13-5.07447E-13
 -1      4031 1.95420E+01 6.41090E-01-3.57627E-04 4.03302E-01 3.73573E-13-4.82084E-13
 -1      4032 1.94929E+01 6.65041E-01-3.95748E-04 4.51082E-01 3.88138E-13-3.88462E-13
 -1      4033 1.82430E+01 6.70431E-01-9.19775E-03 1.42567E+00 1.62262E-13 6.83413E-14
 -1      4034 1.81614E+01 5.65498E-01 8.67827E-03 1.60619E+00-3.99340E-14 2.12452E-13
 -1      4035 1.85701E+01 7.92194E-01-7.22771E-03 1.12824E+00-1.63253E-13 1.07161E-13
 -1      4036 1.84722E+01 7.50006E-01 4.67799E-03 1.26346E+00 7.45481E-14 1.77651E-13
 -1      4037 1.80261E+01 8.51377E-01 4.79336E-03 1.20411E+00 4.98083E-14-1.52826E-13
 -1      4038 1.88657E+01 8.17343E-01-5.68842E-03 9.04096E-01-1.11376E-13-5.87547E-15
 -1      4039 1.87654E+01 8.17309E-01 2.49764E-03 1.00908E+00-1.92901E-13 2.27749E-14
 -1      4040 1.84322E+01 9.13981E-01 5.31709E-03 9.39377E-01-5.04458E-14 9.70898E-14
 -1      4041 1.91228E+01 7.85346E-01-4.13547E-03 7.29902E-01 8.54617E-14-2.32794E-14
 -1      4042 1.90295E+01 8.09045E-01 1.33904E-03 8.14719E-01 3.51195E-14-4.61548E-14
 -1      4043 1.87756E+01 8.98970E-01 4.44140E-03 7.46592E-01-6.98216E-14-1.45406E-13
 -1      4044 1.93384E+01 7.21999E-01-3.16907E-03 5.89506E-01 3.79753E-13-2.34504E-13
 -1      4045 1.92583E+01 7.57715E-01 8.83586E-04 6.60090E-01 2.34908E-13-1.55146E-13
 -1      4046 1.90624E+01 8.38510E-01 2.67501E-03 5.99355E-01 2.44341E-13-5.57470E-13
 -1      4047 1.78802E+01-3.41459E-01 1.07010E-02 2.59517E+00-4.14167E-13 8.78795E-14
 -1      4048 1.68460E+01-9.80294E-02 2.52503E-02 2.65361E+00-3.83599E-13 1.50596E-14
 -1      4049 1.65375E+01 2.82477E-01-2.47034E-02 2.17816E+00-4.88547E-13-1.26124E-13
 -1      4050 1.78051E+01-7.38535E-02-2.12829E-02 2.33496E+00-5.44352E-13 1.39832E-13
 -1      4051 2.03809E+01 4.50069E-01 1.99731E-04 2.94435E-02-7.41529E-14-1.34997E-13
 -1      4052 2.03630E+01 3.62110E-01-1.06601E-03 6.74481E-02-1.14635E-13-1.14664E-13
 -1      4053 2.03428E+01 2.94245E-01 1.88839E-04 8.85367E-02-1.03431E-13-7.38136E-14
 -1      4054 2.03148E+01 2.43795E-01-6.60722E-04 1.16257E-01-6.89367E-14-7.83971E-14
 -1      4055 2.03683E+01 3.56053E-01 5.87881E-04 5.88615E-02-8.45003E-14-9.96379E-14
 -1      4056 1.79856E+01 4.01905E-01-1.42186E-02 1.81726E+00-3.10746E-13 2.67022E-13
 -1      4057 1.79596E+01 1.99031E-01 1.07633E-02 2.05815E+00-4.60498E-13 1.99848E-13
 -1      4058 1.73796E+01 3.62051E-01 1.45358E-02 2.03441E+00-5.14773E-13-1.01406E-13
 -1      4059 1.76467E+01 6.84124E-01 7.32368E-03 1.56001E+00-1.67966E-13-3.78018E-13
 -1      4060 2.03524E+01 3.68498E-01-1.33707E-03-6.80545E-02 8.10123E-16-2.63674E-14
 -1      4061 2.03725E+01 4.60839E-01 1.20347E-03-2.26128E-02 5.01988E-15-2.86282E-14
 -1      4062 1.94322E+01 6.25798E-01 6.36995E-04-5.71086E-01-1.02868E-13 1.19444E-13
 -1      4063 1.95067E+01 5.73811E-01-2.93070E-03-5.17142E-01-8.56617E-14 1.25303E-13
 -1      4064 1.92770E+01 7.03999E-01 3.26061E-03-5.10821E-01-4.26085E-14 7.00147E-14
 -1      4065 1.93807E+01 7.32561E-01-1.14845E-03 1.50108E-01 2.76438E-14-2.00738E-13
 -1      4066 1.94170E+01 7.11841E-01-7.90530E-04 2.44932E-01 9.54759E-14-1.93457E-13
 -1      4067 1.93545E+01 7.46478E-01 1.86620E-03 2.82104E-01 9.23592E-14-4.13879E-13
 -1      4068 1.92833E+01 7.85490E-01 2.29351E-03 1.02772E-01 1.26592E-13-1.57441E-14
 -1      4069 2.03702E+01 1.05290E+00 4.57915E-03-3.56274E-02-4.45994E-14-1.74895E-13
 -1      4070 2.03190E+01 1.22366E+00-4.00459E-03-7.00965E-02-3.94926E-14-1.58884E-13
 -1      4071 2.03865E+01 6.94278E-01-6.80885E-04-5.17833E-02-4.66610E-14-1.45974E-13
 -1      4072 2.03843E+01 5.60636E-01-1.48036E-03 7.45023E-04-4.56595E-14-1.54917E-13
 -1      4073 2.03960E+01 5.43087E-01 9.41179E-04 9.14402E-03-5.45201E-14-1.90376E-13
 -1      4074 1.58652E+01 8.84712E-01 3.09321E-02-1.45304E+00-1.77655E-13-4.69570E-13
 -1      4075 1.70759E+01 5.76448E-01 1.78331E-03-1.76606E+00-2.28923E-13-2.09286E-13
 -1      4076 2.03090E+01 2.42750E-01-7.61661E-04-1.29302E-01-1.33381E-14-4.54945E-14
 -1      4077 2.03355E+01 2.97437E-01 6.37059E-04-9.64797E-02 2.96565E-15-3.53226E-14
 -1      4078 2.03635E+01 3.67454E-01 7.93838E-04-6.47840E-02 1.37672E-14-5.71436E-14
 -1      4079 1.90466E+01 8.65202E-01 3.54013E-03-4.99557E-01-2.14927E-13 1.43633E-13
 -1      4080 1.69636E+01 3.74175E-02 4.30759E-02 2.56859E+00 3.96703E-14 1.47175E-13
 -1      4081 1.63794E+01 8.46442E-01 1.38416E-02 1.43566E+00 2.12918E-13-2.27162E-15
 -1      4082 1.66562E+01 5.60441E-01-6.08448E-03 1.84208E+00 1.88003E-13 6.10743E-14
 -1      4083 2.03872E+01 5.63395E-01 8.18013E-05 1.61577E-03 1.67581E-14-3.33969E-14
 -1      4084 2.03703E+01 5.75829E-01-2.24878E-03 1.55077E-02 9.50386E-15-2.90334E-14
 -1      4085 2.02798E+01 2.05326E-01 3.31019E-04-1.49743E-01-1.57076E-14-3.99170E-14
 -1      4086 2.03135E+01 2.48940E-01 4.00446E-04-1.14117E-01-6.75517E-15-6.21038E-14
 -1      4087 2.02483E+01 1.80214E-01-3.91509E-04-1.75053E-01 2.68891E-14-6.68958E-14
 -1      4088 2.03128E+01 2.47956E-01 4.57807E-04 9.61702E-02-8.83315E-14-3.03143E-14
 -1      4089 1.72591E+01 7.24667E-01-1.54622E-02-1.51767E+00-1.14122E-13-2.85190E-13
 -1      4090 1.70885E+01 9.76533E-01 2.27613E-02-1.18638E+00-1.78971E-13-2.85049E-13
 -1      4091 1.99953E+01 2.47136E-01 2.86027E-04-2.88289E-01 3.77837E-14-5.53383E-14
 -1      4092 2.00377E+01 2.16185E-01-8.98438E-04-2.65158E-01 3.64218E-14-1.08281E-14
 -1      4093 2.03759E+01 6.94045E-01 1.64836E-03 7.15544E-02 3.10614E-14-4.13458E-14
 -1      4094 1.99339E+01 2.83397E-01-1.17077E-03-3.08197E-01 7.00267E-14-4.87230E-14
 -1      4095 1.99519E+01 2.87668E-01 1.22999E-03-2.52648E-01 7.21008E-14-6.47170E-14
 -1      4096 1.98854E+01 3.25350E-01 4.20198E-04-3.36196E-01 1.05385E-13-4.50381E-14
 -1      4097 1.64613E+01 3.33102E-01 2.31860E-02 2.16843E+00 1.18923E-13 1.46436E-13
 -1      4098 2.01784E+01 1.53600E-01-5.51189E-05-2.35194E-01 2.58042E-14-3.69229E-14
 -1      4099 1.98302E+01 3.69299E-01 1.09975E-03-4.38291E-01 3.51625E-14-2.61564E-17
 -1      4100 2.03850E+01 8.89615E-01-1.87695E-03-8.85792E-03-5.02761E-14-1.85810E-13
 -1      4101 2.03846E+01 8.75318E-01-1.88141E-03-3.93817E-02-5.98291E-14-1.55666E-13
 -1      4102 1.61949E+01 1.25869E-01-1.35878E-02-2.42443E+00 1.08194E-13-1.55015E-13
 -1      4103 1.44223E+01 9.51388E-01 3.29934E-02 9.47824E-01 5.19767E-14-2.50316E-13
 -1      4104 1.44589E+01 1.02293E+00-7.59648E-03 2.62048E-01 7.11414E-14-3.03028E-13
 -1      4105 1.52623E+01 8.69147E-01-1.16902E-02 1.26388E+00 1.22835E-13-1.03586E-13
 -1      4106 1.88920E+01 9.18417E-01-2.99205E-03-3.76451E-01-5.85764E-14-1.36767E-13
 -1      4107 1.90837E+01 8.52444E-01-1.70437E-03-3.61922E-01-3.60248E-13 4.31251E-14
 -1      4108 1.71922E+01-8.32697E-01 4.21070E-03 3.21754E+00-5.65270E-14 4.42632E-14
 -1      4109 1.44195E+01 7.60950E-01 3.00866E-02-1.53159E+00 9.84529E-14-3.73205E-13
 -1      4110 1.54654E+01 6.28814E-01 1.61165E-02-1.74459E+00 1.22420E-13-3.49784E-13
 -1      4111 1.44960E+01 9.81012E-01-8.54438E-03-7.80481E-01 8.72470E-14-4.42099E-13
 -1      4112 1.94917E+01 5.92227E-01 3.11322E-03-4.21257E-01-1.09125E-13 1.17909E-13
 -1      4113 1.96085E+01 5.22350E-01 5.48712E-04-4.74817E-01-6.39409E-14 9.01568E-14
 -1      4114 1.96706E+01 4.68737E-01-3.05053E-03-4.32074E-01-2.33844E-14 8.94411E-14
 -1      4115 1.91512E+01 8.36301E-01 3.71438E-05 7.31651E-02 2.07590E-13 5.10896E-15
 -1      4116 1.91751E+01 8.22594E-01-8.30328E-04 1.66808E-01 1.37755E-13-2.76415E-15
 -1      4117 2.03076E+01 1.28880E+00-3.87128E-04-1.28577E-01-5.58463E-14-1.60502E-13
 -1      4118 1.50902E+01 1.02856E+00 4.01339E-02 9.77059E-01-2.06724E-13-4.97373E-13
 -1      4119 1.53307E+01 1.08441E+00-2.02590E-02 3.18407E-01-5.36585E-14-5.75539E-13
 -1      4120 1.58343E+01 8.04442E-01-4.09782E-03 1.37728E+00-2.58582E-13-3.79140E-13
 -1      4121 1.57268E+01 1.00806E+00-1.18070E-02-8.34730E-01-6.26534E-14-3.86520E-13
 -1      4122 1.94442E+01 6.88879E-01 4.02062E-04 5.02335E-01 4.01513E-13-3.08569E-13
 -1      4123 1.92954E+01 7.59820E-01 8.37125E-04 4.47122E-01 3.40421E-13-5.96036E-13
 -1      4124 2.02736E+01 1.44403E+00 2.28162E-03-2.31115E-01-4.91747E-14-1.40655E-13
 -1      4125 2.03848E+01 8.76088E-01-1.99486E-03 3.67765E-02-8.63280E-15-1.13444E-13
 -1      4126 2.03838E+01 8.89988E-01-2.16528E-03 8.56355E-03-3.80307E-14-1.58632E-13
 -1      4127 2.04090E+01 7.48839E-01 2.81366E-03-2.29312E-03-4.80073E-14-1.44451E-13
 -1      4128 1.91720E+01 8.20202E-01-4.44709E-04-3.45118E-01-2.88863E-13 6.40499E-14
 -1      4129 1.92535E+01 7.84181E-01-2.34245E-03-2.94679E-01-1.52065E-14 1.73920E-13
 -1      4130 1.92185E+01 8.12201E-01 2.15001E-03-2.01258E-01 7.98729E-14 1.76847E-13
 -1      4131 1.90516E+01 8.78587E-01 2.03282E-03-2.29814E-01-2.14817E-13 8.31737E-14
 -1      4132 2.03605E+01 1.02515E+00 2.12366E-03-1.26850E-01-5.54808E-14-1.22748E-13
 -1      4133 2.03723E+01 8.77745E-01-9.13123E-04-8.05496E-02-5.47205E-14-1.43827E-13
 -1      4134 1.91872E+01 8.20538E-01-1.22112E-03-1.00318E-01 8.82128E-14 1.35003E-14
 -1      4135 1.90783E+01 8.67699E-01 2.69581E-04-3.93356E-02 8.13826E-14 2.04163E-14
 -1      4136 2.03849E+01 8.38334E-01 8.55030E-05-4.95505E-02-6.25044E-14-1.72919E-13
 -1      4137 2.00608E+01 2.38635E-01-6.82066E-04 1.16460E-01-5.04079E-14 1.94819E-14
 -1      4138 2.00021E+01 2.68982E-01-2.42577E-04 1.29158E-01-8.74343E-14 1.10507E-14
 -1      4139 1.99320E+01 3.06166E-01-9.61793E-04 1.35986E-01-5.79236E-14 4.68697E-14
 -1      4140 1.98637E+01 3.50154E-01-4.04260E-04 1.50380E-01-1.16783E-14 6.26541E-14
 -1      4141 1.99636E+01 2.99391E-01 1.06970E-03 7.45424E-02-4.44582E-14 6.23913E-14
 -1      4142 1.97814E+01 3.99343E-01-1.35321E-03 1.59197E-01-4.10146E-15 2.51612E-14
 -1      4143 1.97011E+01 4.54013E-01-6.19952E-04 1.76493E-01-1.20876E-14 1.29436E-14
 -1      4144 1.98140E+01 3.89523E-01 1.64032E-03 8.72521E-02-2.77210E-14 6.17642E-14
 -1      4145 1.96043E+01 5.11361E-01-1.73497E-03 1.87365E-01-2.83848E-14 5.33672E-15
 -1      4146 1.95078E+01 5.72588E-01-1.28777E-03 2.07689E-01 3.68649E-14-1.82914E-14
 -1      4147 1.96408E+01 5.01174E-01 3.21224E-03 1.03188E-01-2.76495E-14 7.73995E-14
 -1      4148 1.93908E+01 6.36068E-01-2.70262E-03 2.23740E-01 9.87328E-14-8.34960E-14
 -1      4149 1.92776E+01 7.01159E-01-1.22080E-03 2.49394E-01 8.77555E-14-4.80841E-14
 -1      4150 1.94289E+01 6.33232E-01 5.45225E-03 1.23740E-01 1.81260E-14-1.00180E-16
 -1      4151 1.91350E+01 7.63458E-01-3.81851E-03 2.68610E-01 6.51403E-14-6.34217E-14
 -1      4152 1.89986E+01 8.27426E-01-1.73143E-03 3.00086E-01 5.74496E-14-4.90472E-14
 -1      4153 1.91806E+01 7.68417E-01 8.33323E-03 1.47195E-01 6.67757E-14-7.78131E-14
 -1      4154 1.88241E+01 8.85354E-01-5.04878E-03 3.25242E-01 7.47584E-14-5.88795E-14
 -1      4155 1.86582E+01 9.42385E-01-2.30674E-03 3.65061E-01 9.82541E-14-4.49510E-16
 -1      4156 1.88759E+01 9.03445E-01 1.14025E-02 1.76751E-01 6.52803E-14-9.36805E-14
 -1      4157 1.84416E+01 9.88963E-01-6.97608E-03 3.98376E-01 5.52586E-14 2.14748E-14
 -1      4158 1.82385E+01 1.03239E+00-3.03089E-03 4.50915E-01 2.33690E-14-6.78613E-15
 -1      4159 1.85016E+01 1.02801E+00 1.55759E-02 2.15135E-01 6.27122E-14-8.49070E-14
 -1      4160 1.79638E+01 1.05955E+00-1.00774E-02 4.96623E-01 1.84850E-14 2.19490E-14
 -1      4161 1.77127E+01 1.08128E+00-4.05367E-03 5.70147E-01 6.66630E-14-2.80827E-14
 -1      4162 1.80349E+01 1.13162E+00 2.15822E-02 2.66487E-01 5.74895E-14-4.36092E-14
 -1      4163 1.73531E+01 1.07956E+00-1.55903E-02 6.35483E-01 1.18545E-13-5.45821E-14
 -1      4164 1.70416E+01 1.07223E+00-5.83433E-03 7.48828E-01 1.92272E-13-8.48460E-14
 -1      4165 1.74383E+01 1.20262E+00 2.98557E-02 3.37946E-01 1.02199E-13-8.42109E-14
 -1      4166 1.74241E+01 1.07869E+00-7.42637E-03-7.20945E-01-2.14108E-13-2.89097E-13
 -1      4167 1.77037E+01 1.08584E+00-1.13040E-02-6.15978E-01-1.78524E-13-3.14835E-13
 -1      4168 2.00627E+01 2.23729E-01 6.85454E-04-2.16065E-01 4.30998E-14-2.74835E-14
 -1      4169 2.00913E+01 1.92460E-01 3.29982E-04-2.48134E-01 3.02649E-14-1.36576E-14
 -1      4170 2.01294E+01 1.75186E-01-5.42942E-04-2.27404E-01 3.51821E-14-1.77954E-14
 -1      4171 1.91924E+01 8.10620E-01-1.19684E-03 2.67913E-01 2.35852E-13-3.62553E-13
 -1      4172 1.92455E+01 7.83245E-01-9.54447E-04 3.52907E-01 2.48133E-13-6.49037E-13
 -1      4173 1.91378E+01 8.25307E-01 8.15657E-04 4.38444E-01 3.59286E-13-6.40266E-13
 -1      4174 1.90646E+01 8.68261E-01 9.88051E-04 2.42522E-01 2.88600E-13-3.49100E-13
 -1      4175 1.75315E+01 9.30006E-01 2.20172E-03-1.06555E+00-4.24911E-14-4.60571E-14
 -1      4176 1.77473E+01 9.54961E-01-1.35565E-02-9.25756E-01-1.96670E-14-6.07342E-14
 -1      4177 1.80150E+01 1.07806E+00-2.24850E-03-5.58032E-01-1.14076E-13-3.47239E-13
 -1      4178 1.82308E+01 1.05144E+00-8.71773E-03-4.88814E-01 9.58272E-15-3.12614E-13
 -1      4179 1.77621E+01 1.16563E+00 1.48177E-02-3.46590E-01-1.29436E-13-3.35012E-13
 -1      4180 1.84726E+01 1.02357E+00-2.30413E-03-4.40883E-01 1.43221E-13-3.73613E-13
 -1      4181 1.86579E+01 9.84464E-01-3.12927E-03-3.87626E-01 1.24831E-13-3.38755E-13
 -1      4182 1.82685E+01 1.10524E+00 9.57288E-03-2.68890E-01 7.35364E-14-1.11165E-13
 -1      4183 1.84857E+01 9.43536E-01-7.01863E-04-6.44455E-01 9.45029E-14-1.03328E-13
 -1      4184 1.86464E+01 9.07132E-01-6.70867E-03-5.72363E-01 8.52985E-14-3.35005E-15
 -1      4185 1.68991E+01 7.74795E-01 1.10245E-02-1.43245E+00-2.25679E-14-2.01724E-13
 -1      4186 1.71289E+01 8.53516E-01-2.05323E-02-1.23224E+00-3.38283E-14-1.50813E-13
 -1      4187 1.70637E+01 1.09870E+00 3.27316E-02-8.66145E-01 5.02662E-14-2.32399E-13
 -1      4188 1.88408E+01 8.67438E-01-8.02437E-04-5.16958E-01 4.56966E-14-5.48102E-15
 -1      4189 1.89770E+01 8.15664E-01-4.90961E-03-4.61793E-01 4.60659E-14 3.71738E-14
 -1      4190 1.86564E+01 9.60685E-01 1.23347E-02-3.94082E-01 1.04037E-13-1.13846E-13
 -1      4191 1.64629E+01 4.32879E-01 1.86506E-02-2.02754E+00 7.67991E-14-2.50000E-13
 -1      4192 1.65544E+01 5.97356E-01-3.01025E-02-1.73854E+00 5.23778E-15-1.84965E-13
 -1      4193 1.63686E+01 9.61130E-01 3.32264E-02-1.26947E+00 2.78748E-14-3.05836E-13
 -1      4194 1.58806E+01 5.47904E-01 2.23434E-02-1.95067E+00 6.43515E-14-2.09335E-13
 -1      4195 1.87044E+01 9.35586E-01-5.49964E-03 5.51309E-01 4.50205E-14-4.35855E-13
 -1      4196 1.85464E+01 9.66841E-01-1.05629E-03 6.23324E-01-1.18178E-14-2.82646E-13
 -1      4197 1.83127E+01 9.85683E-01-8.55229E-03 6.99619E-01-1.04218E-13-9.88435E-15
 -1      4198 1.81369E+01 9.95853E-01 2.10399E-03 8.00656E-01-1.08493E-14 1.24829E-14
 -1      4199 1.82976E+01 1.06389E+00 9.28654E-03 4.92793E-01 1.62333E-13-2.48486E-13
 -1      4200 1.78416E+01 9.78840E-01-1.00763E-02 8.99129E-01-1.33463E-13-5.83274E-14
 -1      4201 1.76240E+01 9.44771E-01 2.51316E-04 1.03944E+00-1.54812E-13-3.71607E-13
 -1      4202 1.78124E+01 1.09042E+00 9.83784E-03 6.31029E-01-1.14556E-13-1.43155E-13
 -1      4203 1.87489E+01 9.80957E-01 5.64508E-03-2.39083E-01 4.72313E-14-3.65286E-13
 -1      4204 1.90022E+01 8.64437E-01-2.61971E-03 4.62703E-01 3.51062E-13-6.21134E-13
 -1      4205 1.88680E+01 9.06272E-01-3.08185E-04 5.22118E-01 1.27488E-13-5.85515E-13
 -1      4206 1.86798E+01 9.79042E-01 3.30465E-03 4.01351E-01 2.31957E-13-6.06177E-13
 -1      4207 1.89638E+01 8.94529E-01 1.70969E-03 3.64773E-01 3.36773E-13-6.06786E-13
 -1      4208 1.68813E+01 5.02032E-01 7.23208E-03 1.86592E+00-4.29979E-13-2.94647E-13
 -1      4209 1.63052E+01 7.28723E-01 3.03116E-02 1.68107E+00-2.97962E-13-3.41946E-13
 -1      4210 1.61113E+01 9.17818E-01-3.09611E-02 1.12765E+00-2.68863E-13-4.90729E-13
 -1      4211 1.69664E+01 6.51871E-01-2.69356E-02 1.61461E+00-2.90896E-13-3.88809E-13
 -1      4212 2.03874E+01 4.01843E-01-3.84168E-04 2.95646E-02-3.25137E-14-1.24605E-13
 -1      4213 2.03665E+01 3.28657E-01-3.07334E-04 5.15294E-02-3.92854E-14-7.51158E-14
 -1      4214 2.04043E+01 7.05129E-01 1.60404E-03-1.63027E-02-6.52037E-14-1.63849E-13
 -1      4215 2.01754E+01 1.67445E-01 1.27849E-04-2.12314E-01 1.32637E-14-6.11348E-14
 -1      4216 2.02106E+01 1.68700E-01 8.55388E-05-1.90693E-01 2.88551E-14-6.29934E-14
 -1      4217 2.02444E+01 1.94462E-01 6.66129E-05-1.52328E-01 2.62579E-14-6.68311E-14
 -1      4218 2.01600E+01 1.90069E-01 2.65424E-04-1.84623E-01 2.19665E-14 1.06623E-14
 -1      4219 2.03376E+01 2.72813E-01-4.41242E-04 5.80053E-02-5.42415E-14-3.72692E-14
 -1      4220 2.03044E+01 2.35569E-01-2.93283E-04 7.48611E-02-5.75626E-14-2.03948E-15
 -1      4221 2.03594E+01 3.17040E-01 5.07089E-04 3.02155E-02 3.78945E-15-5.54290E-14
 -1      4222 1.64566E+01 1.05236E+00-1.40850E-02-8.18894E-01-1.33245E-13-3.77352E-13
 -1      4223 1.69549E+01 1.07435E+00-1.39011E-02-7.34449E-01-2.19580E-13-3.54831E-13
 -1      4224 1.70211E+01 1.20728E+00 2.23997E-02-3.83468E-01-2.03410E-13-3.30106E-13
 -1      4225 1.91354E+01 7.63056E-01-7.21838E-04-4.20150E-01-2.43165E-14 7.92267E-14
 -1      4226 1.92506E+01 7.03486E-01-3.60959E-03-3.76645E-01-5.78173E-14 1.13609E-13
 -1      4227 1.89931E+01 8.45207E-01 9.08163E-03-3.16586E-01 3.34806E-14 2.61866E-14
 -1      4228 2.02643E+01 2.11847E-01-3.10657E-04 8.04821E-02-7.13812E-14 2.32763E-14
 -1      4229 2.02216E+01 2.02106E-01-2.97888E-04 9.36466E-02-4.50736E-14 1.16123E-14
 -1      4230 2.02905E+01 2.36036E-01 6.21048E-04 4.35802E-02-2.46233E-14 8.17570E-15
 -1      4231 2.03573E+01 8.41279E-01-1.59981E-03 1.18595E-01 4.83799E-14-3.43564E-14
 -1      4232 2.04059E+01 5.90173E-01-5.50826E-04-4.38985E-03-5.43723E-14-1.67104E-13
 -1      4233 2.03990E+01 4.76986E-01-4.72711E-04 2.20458E-02-5.33748E-14-1.62105E-13
 -1      4234 2.03980E+01 4.53713E-01 1.05595E-03 1.39483E-02-3.21415E-15-1.30786E-13
 -1      4235 2.04082E+01 6.32032E-01 3.64355E-04-2.21258E-03-6.30823E-14-1.45109E-13
 -1      4236 1.80552E+01 9.72001E-01-2.96747E-04-8.18323E-01-5.81115E-14-8.54188E-14
 -1      4237 1.82436E+01 9.60605E-01-9.45429E-03-7.20209E-01 4.86316E-15-4.71924E-14
 -1      4238 1.82431E+01 1.05123E+00 1.68634E-02-4.99227E-01 4.23665E-14-4.87110E-14
 -1      4239 1.58378E+01 1.20350E+00 3.46599E-02-3.15898E-01-6.29621E-14-4.95559E-13
 -1      4240 2.03654E+01 3.41042E-01-1.23519E-03-6.39522E-02 4.84003E-15-5.76187E-14
 -1      4241 2.03873E+01 4.18964E-01-2.10913E-04-3.24170E-02 1.92849E-14-5.98427E-14
 -1      4242 1.97577E+01 4.20084E-01 6.03209E-04-3.97105E-01-1.24152E-14 1.71459E-14
 -1      4243 1.98122E+01 3.69999E-01-2.05848E-03-3.62474E-01 3.59238E-14 2.94212E-14
 -1      4244 1.98211E+01 3.77646E-01 2.13599E-03-2.96538E-01 2.69005E-14 5.64633E-14
 -1      4245 2.01713E+01 2.04120E-01-4.57412E-04 9.88353E-02-4.29207E-14 2.91380E-14
 -1      4246 2.01207E+01 2.16748E-01-2.18840E-04 1.10891E-01-3.32595E-14 1.16225E-14
 -1      4247 2.02002E+01 2.13996E-01 5.82455E-04 5.40283E-02-4.98399E-14 2.29618E-14
 -1      4248 1.64434E+01 1.04130E+00-1.77883E-02 8.38750E-01 2.77048E-13-1.37605E-13
 -1      4249 1.56157E+01 9.58311E-01 7.87454E-03 1.05298E+00 2.30887E-13-1.31033E-13
 -1      4250 2.00913E+01 2.38404E-01 7.39685E-04 6.38784E-02-4.84481E-14 1.55820E-14
 -1      4251 1.65261E+01 1.21874E+00 3.73863E-02 4.17449E-01 1.84474E-13-2.44479E-13
 -1      4252 1.92685E+01 7.17236E-01 6.05482E-03-2.58338E-01-7.27856E-14 6.16465E-14
 -1      4253 1.93805E+01 6.45844E-01-4.89309E-04-3.44576E-01-7.15540E-14 8.15266E-14
 -1      4254 1.94738E+01 5.84608E-01-3.56004E-03-3.07948E-01-1.04678E-13 1.18354E-13
 -1      4255 2.02981E+01 1.27950E+00-2.10191E-03-1.92854E-01-5.54633E-14-1.51046E-13
 -1      4256 2.03103E+01 2.38676E-01-7.01195E-04-9.70915E-02 7.45295E-15-9.32758E-14
 -1      4257 2.03424E+01 2.81260E-01 2.49813E-04-7.58480E-02-1.29841E-14-8.87979E-14
 -1      4258 2.03651E+01 3.32875E-01 3.81133E-04-4.79519E-02 2.07485E-14-8.72361E-14
 -1      4259 2.03738E+01 8.40000E-01-2.74056E-04 8.71230E-02 4.15519E-14-5.92162E-14
 -1      4260 1.89149E+01 9.25329E-01 9.96352E-04 1.40266E-01 2.02861E-13-1.76207E-13
 -1      4261 1.89310E+01 9.09127E-01-8.24489E-04 2.50932E-01 3.29035E-13-4.14494E-13
 -1      4262 1.88035E+01 9.50493E-01 9.57199E-05 2.64251E-01 2.82536E-13-4.40105E-13
 -1      4263 1.61135E+01 1.14055E+00-5.41817E-03 1.89156E-01-1.84776E-13-5.51401E-13
 -1      4264 1.56341E+01 8.34660E-01-6.77924E-03-1.37666E+00 5.39126E-14-3.98163E-13
 -1      4265 2.03783E+01 8.49360E-01-1.83824E-03 6.10345E-02 2.93390E-14-9.30116E-14
 -1      4266 1.89443E+01 9.16004E-01-1.96688E-04-5.01355E-02-1.90510E-14-1.90332E-13
 -1      4267 1.50899E+01 1.05254E+00 3.68878E-03-2.19049E-01 1.77093E-13-4.26188E-13
 -1      4268 1.99038E+01 3.18023E-01-1.04070E-03-2.05313E-01 3.98193E-14 5.41464E-14
 -1      4269 1.99657E+01 2.79036E-01-1.19140E-03-1.85493E-01 5.90554E-14 1.15545E-14
 -1      4270 2.04041E+01 5.59363E-01 8.00875E-04-6.75098E-03 6.42944E-15-6.03814E-14
 -1      4271 2.03997E+01 5.86331E-01-7.93992E-04-5.08339E-03 1.72446E-15-6.80818E-14
 -1      4272 1.73902E+01 8.78689E-01-1.33517E-02 1.19028E+00-3.36421E-14-5.25327E-13
 -1      4273 1.72520E+01 8.00975E-01 7.55291E-03 1.38524E+00-1.71886E-13-4.67985E-13
 -1      4274 1.68412E+01 9.53563E-01 1.78500E-02 1.19881E+00-1.31129E-13-4.97061E-13
 -1      4275 1.72930E+01 1.04896E+00 5.43053E-03 8.69168E-01-1.23217E-13-4.39134E-13
 -1      4276 2.04025E+01 7.24586E-01 2.64643E-03 3.13567E-02 4.03114E-15-5.91442E-14
 -1      4277 1.77285E+01 1.10212E+00 2.35803E-02-6.46682E-01-3.70818E-14-7.23486E-14
 -1      4278 1.96682E+01 4.83847E-01 3.04991E-03-3.50658E-01-6.64795E-14 9.71233E-14
 -1      4279 2.04102E+01 6.27144E-01-1.09420E-03 5.50644E-03-4.37993E-14-1.28002E-13
 -1      4280 1.99944E+01 2.77286E-01 7.56775E-04-1.26526E-01 5.05205E-15 6.08327E-14
 -1      4281 2.00328E+01 2.45598E-01-4.27056E-05-1.74607E-01 3.24542E-14-2.72860E-14
 -1      4282 2.00855E+01 2.18589E-01-8.13870E-04-1.57710E-01 1.55118E-14-2.12929E-14
 -1      4283 2.01198E+01 2.24996E-01-5.03241E-04 9.41851E-03-3.69293E-14 2.88156E-14
 -1      4284 2.00605E+01 2.47866E-01-2.67124E-04 1.40881E-02-4.50104E-14 3.78909E-14
 -1      4285 1.66826E+01 1.10967E+00-2.27807E-02-2.93313E-01 1.26934E-13-2.91061E-13
 -1      4286 1.60505E+01 1.09098E+00-2.74275E-02-3.29478E-01 1.60927E-13-3.20121E-13
 -1      4287 1.98494E+01 3.61176E-01-7.16039E-04 1.31453E-02-8.04717E-15 6.14329E-14
 -1      4288 1.97666E+01 4.11332E-01-1.24047E-03 1.75967E-02-9.20325E-16 1.03129E-13
 -1      4289 1.96754E+01 4.67647E-01-1.51040E-03 1.52288E-02-1.14114E-14 7.09923E-14
 -1      4290 1.95739E+01 5.27199E-01-2.62110E-03 2.31819E-02-1.37351E-15 1.04135E-13
 -1      4291 1.97254E+01 4.48359E-01 3.05968E-03-6.19585E-02-2.11520E-15 9.93687E-14
 -1      4292 1.94456E+01 6.03782E-01-1.74526E-03-5.62082E-02-7.22223E-14 6.78702E-14
 -1      4293 1.93224E+01 6.67250E-01-3.86331E-03-5.30882E-02-4.64368E-14 1.82929E-14
 -1      4294 1.91895E+01 7.30493E-01-5.16861E-03-7.16874E-02 5.45093E-15-2.56628E-14
 -1      4295 1.90440E+01 7.97867E-01-5.81468E-03-6.68285E-02 9.46414E-15-9.75858E-14
 -1      4296 1.88832E+01 8.57136E-01-7.50609E-03-9.16886E-02 6.45375E-14-8.21948E-14
 -1      4297 1.87056E+01 9.21116E-01-8.17022E-03-8.54146E-02 6.56279E-14-8.86365E-14
 -1      4298 1.85082E+01 9.71139E-01-1.03031E-02-1.18908E-01 7.27030E-14-6.72795E-14
 -1      4299 1.82870E+01 1.02581E+00-1.14740E-02-1.11040E-01 7.68257E-14-7.73119E-14
 -1      4300 1.80408E+01 1.05930E+00-1.43446E-02-1.57390E-01 2.00137E-14-7.86299E-14
 -1      4301 1.77598E+01 1.09850E+00-1.63412E-02-1.47014E-01 2.44225E-14-1.07306E-13
 -1      4302 1.74471E+01 1.10776E+00-1.98887E-02-2.12893E-01 4.42899E-14-1.71019E-13
 -1      4303 1.70815E+01 1.12309E+00-2.34539E-02-1.97192E-01 9.01575E-14-2.16192E-13
 -1      4304 1.75350E+01 1.16406E+00-8.23534E-03-9.09899E-02-2.33744E-13-3.60900E-13
 -1      4305 1.78274E+01 1.15474E+00-3.09076E-03-6.53394E-02-1.51177E-13-5.19084E-13
 -1      4306 1.82075E+01 1.08472E+00-5.95088E-03 9.10948E-02 1.90549E-13-3.82822E-13
 -1      4307 1.84498E+01 1.04212E+00-4.10355E-03 9.44374E-02 3.40087E-13-5.14238E-13
 -1      4308 2.04034E+01 4.63314E-01 3.16667E-04-1.01857E-02 3.30823E-15-9.60333E-14
 -1      4309 1.78562E+01 1.10867E+00-7.75732E-03 3.69890E-01-1.55641E-13-2.19982E-13
 -1      4310 1.75929E+01 1.13069E+00-1.24048E-03 4.33605E-01-1.35548E-13-3.22995E-13
 -1      4311 1.98417E+01 3.58326E-01-1.33864E-03-1.66918E-01 2.00492E-14 7.10105E-14
 -1      4312 1.98710E+01 3.50831E-01 9.85065E-04-9.76337E-02 3.46007E-15 1.50356E-13
 -1      4313 2.03115E+01 2.45754E-01-8.03505E-04 5.90990E-03-2.39802E-15-4.32183E-14
 -1      4314 2.02718E+01 2.21360E-01-1.93664E-04 1.12336E-02-4.06218E-14-3.45506E-14
 -1      4315 1.95959E+01 5.19791E-01-3.70198E-04-2.23169E-01-7.28567E-14 1.09570E-13
 -1      4316 1.96776E+01 4.60682E-01-2.50486E-03-1.98134E-01-3.70901E-14 8.32138E-14
 -1      4317 1.97687E+01 4.07054E-01-1.19593E-03-1.87419E-01-2.62791E-14 1.11802E-13
 -1      4318 2.02253E+01 2.10820E-01-4.59640E-04 7.56216E-03-3.05290E-14-5.93283E-14
 -1      4319 2.01759E+01 2.12871E-01-1.08178E-04 1.30284E-02-2.16101E-14-1.69851E-14
 -1      4320 2.02486E+01 2.20700E-01 3.96309E-04-3.08198E-02-3.53033E-14-9.40530E-14
 -1      4321 1.63379E+01 1.17539E+00 2.98618E-02 5.43463E-01-1.94944E-13-5.39811E-13
 -1      4322 1.65488E+01 1.16502E+00-2.31157E-02 2.52929E-03-2.05981E-13-4.72460E-13
 -1      4323 1.70580E+01 1.17806E+00-7.08242E-03-4.77343E-02-2.08912E-13-4.54158E-13
 -1      4324 1.66198E+01 1.04121E+00 4.12430E-03 8.50990E-01-1.12412E-13-3.91564E-13
 -1      4325 2.03656E+01 3.22089E-01-7.62255E-04-1.47990E-02 2.73045E-14-8.27095E-14
 -1      4326 2.03367E+01 2.70876E-01 3.60729E-04-1.05071E-02 3.00962E-14-4.82328E-14
 -1      4327 1.57275E+01 1.02206E+00-1.14980E-02-5.52319E-01 1.30381E-13-3.81285E-13
 -1      4328 1.72630E+01 1.19130E+00 9.76339E-03 2.56854E-01-1.76774E-13-4.76257E-13
 -1      4329 1.71077E+01 1.13482E+00-5.17768E-03 5.44076E-01-6.97367E-14-4.96612E-13
 -1      4330 1.95132E+01 5.77246E-01 3.51084E-03-1.47520E-01-5.73319E-14 7.47740E-14
 -1      4331 2.03908E+01 3.90532E-01 5.70900E-05-2.52716E-03 2.79581E-14-7.22243E-14
 -1      4332 1.98969E+01 3.38164E-01 9.55293E-04-4.23413E-02-2.23537E-14 9.29987E-14
 -1      4333 1.99534E+01 3.00316E-01 3.19175E-04-8.18604E-02-2.52047E-14 1.12812E-13
 -1      4334 2.00171E+01 2.63892E-01-7.15183E-04-7.39106E-02-3.34302E-14 7.80096E-14
 -1      4335 1.99324E+01 3.12058E-01-7.81205E-04 2.50698E-02-3.36461E-14 8.65265E-14
 -1      4336 2.02908E+01 2.24736E-01 5.11733E-04-8.05410E-02-6.46939E-15-7.49257E-14
 -1      4337 2.03170E+01 2.53297E-01 2.92115E-04-4.66805E-02-1.15451E-14-8.96829E-14
 -1      4338 1.86412E+01 1.00624E+00 4.41086E-03 2.83263E-01 3.08050E-13-3.92248E-13
 -1      4339 1.86103E+01 1.00769E+00-4.64904E-03-4.78012E-02 2.54146E-13-4.06221E-13
 -1      4340 1.79755E+01 1.11666E+00-4.54343E-03 1.22671E-01-6.33873E-14-3.10188E-13
 -1      4341 2.00023E+01 2.74628E-01-5.04946E-04 2.02365E-02-6.22752E-14 6.87249E-14
 -1      4342 1.88547E+01 9.44110E-01-1.47732E-03-5.66752E-02-6.05362E-14-3.03926E-13
 -1      4343 2.01585E+01 2.04618E-01-9.91891E-05-1.15347E-01 1.98673E-14-1.70845E-14
 -1      4344 2.02052E+01 1.98712E-01-2.63001E-05-1.00565E-01 1.39773E-15-3.98518E-14
 -1      4345 2.01306E+01 2.23760E-01 1.71556E-04-7.29991E-02 1.63523E-14-1.29222E-14
 -1      4346 2.02513E+01 2.05796E-01-4.73835E-04-9.59378E-02-1.95044E-14-6.98198E-14
 -1      4347 2.00359E+01 2.63420E-01 9.20596E-04-3.43494E-02-4.27623E-14 7.86579E-14
 -1      4348 1.68574E+01 1.07833E+00-1.20674E-02 6.83302E-01-9.16938E-14-4.50162E-13
 -1      4349 1.55595E+01 1.17301E+00 4.50791E-02 6.01003E-01 2.48489E-13-3.13241E-13
 -1      4350 2.01476E+01 2.19936E-01-1.20588E-04-3.60523E-02-1.77172E-15 1.25844E-14
 -1      4351 1.53700E+01 1.09286E+00-1.38648E-02-3.19564E-01 2.24100E-13-4.55252E-13
 -1      4352 2.00758E+01 2.39252E-01 6.31223E-04-7.77233E-02-1.28220E-14 3.41790E-14
 -3
    1PSTEP                         3           1           1          
  100CL  101 1.000000000        4352                     0    1           1
 -4  TOSTRAIN    6    1
 -5  EXX         1    4    1    1
 -5  EYY         1    4    2    2
 -5  EZZ         1    4    3    3
 -5  EXY         1    4    1    2
 -5  EYZ         1    4    2    3
 -5  EZX         1    4    3    1
 -1         1 3.04896E-05-9.74823E-05 1.74242E-05-1.93482E-05-8.35471E-18-1.78609E-18
 -1         2 3.64378E-05-1.10051E-04 1.97134E-05 9.45678E-09 1.35059E-18-4.18117E-19
 -1         3 9.52091E-05-2.86007E-05-2.84999E-05-1.98104E-08-1.40935E-18-2.13323E-18
 -1         4 9.52086E-05-2.86005E-05-2.84987E-05 1.91352E-08 3.09600E-19 9.23570E-19
 -1         5 1.43196E-04-2.14573E-05-4.24820E-05 3.85053E-05-1.28167E-19 9.09089E-18
 -1         6 1.45261E-04 2.57238E-10-4.41402E-05-5.34886E-05-5.33101E-19 9.19539E-18
 -1         7 9.05207E-05-5.09144E-07-3.90325E-05-2.92477E-05-8.50209E-20 1.96011E-18
 -1         8 8.50759E-05 8.65022E-08-3.63180E-05-2.02792E-05-1.15620E-19-3.57408E-19
 -1         9 8.28003E-05 7.55626E-08-3.53439E-05-1.56497E-05-9.47750E-20-1.62961E-18
 -1        10 8.17843E-05 3.90273E-08-3.48863E-05-1.20866E-05-7.52271E-20-2.31067E-18
 -1        11 8.12883E-05 1.85518E-08-3.46673E-05-9.01990E-06-6.34381E-20-2.65224E-18
 -1        12 8.10351E-05 8.37413E-09-3.45596E-05-6.28735E-06-4.35312E-20-2.74116E-18
 -1        13 8.09038E-05 3.84264E-09-3.45065E-05-3.68669E-06-3.81446E-20-2.71311E-18
 -1        14 8.08495E-05 2.01684E-09-3.44851E-05-1.18390E-06-2.06140E-20-2.65105E-18
 -1        15 8.08515E-05 2.00444E-09-3.44858E-05 1.28923E-06 1.01175E-20-2.63152E-18
 -1        16 8.09099E-05 3.78002E-09-3.45086E-05 3.79716E-06 2.14471E-20-2.62532E-18
 -1        17 8.10462E-05 7.65338E-09-3.45632E-05 6.40980E-06 3.37390E-20-2.60739E-18
 -1        18 8.13051E-05 1.74386E-08-3.46721E-05 9.16129E-06 3.59592E-20-2.39104E-18
 -1        19 8.18096E-05 3.75403E-08-3.48945E-05 1.22661E-05 8.88921E-20-2.06957E-18
 -1        20 8.28201E-05 8.10629E-08-3.53561E-05 1.58803E-05 9.36766E-20-1.45167E-18
 -1        21 8.50406E-05 1.69482E-07-3.63563E-05 2.04898E-05 1.44472E-19-1.41818E-19
 -1        22 9.15580E-05-9.80256E-08-3.87042E-05 2.79954E-05 2.56227E-20 2.60764E-18
 -1        23 1.12828E-04-3.80770E-05-3.53530E-05-4.40323E-06-3.27828E-19 7.31413E-18
 -1        24 9.26619E-05-2.76544E-05-2.89559E-05 3.89932E-07-6.22007E-20 5.76480E-18
 -1        25 8.89719E-05-2.68081E-05-2.68850E-05 3.74543E-07-4.26329E-20 4.20179E-18
 -1        26 8.78661E-05-2.64439E-05-2.63470E-05 2.02683E-07-3.08199E-20 3.08016E-18
 -1        27 8.78958E-05-2.64234E-05-2.63400E-05 1.38146E-07-1.41051E-19 2.39320E-18
 -1        28 8.84423E-05-2.65639E-05-2.65136E-05 9.87867E-08 2.59797E-20 1.95960E-18
 -1        29 8.92262E-05-2.67857E-05-2.67553E-05 7.28456E-08 7.45993E-20 1.67398E-18
 -1        30 9.01055E-05-2.70422E-05-2.70222E-05 5.44189E-08 4.42665E-20 1.38956E-18
 -1        31 9.10079E-05-2.73091E-05-2.72949E-05 4.07481E-08-7.38841E-20 4.48282E-19
 -1        32 9.19032E-05-2.75757E-05-2.75654E-05 3.05257E-08-6.48749E-20-5.07558E-20
 -1        33 9.27893E-05-2.78409E-05-2.78334E-05 2.31290E-08 2.16024E-19-7.92604E-20
 -1        34 9.36855E-05-2.81098E-05-2.81048E-05 1.83012E-08-2.05140E-19 1.74706E-19
 -1        35 9.46272E-05-2.83930E-05-2.83904E-05 1.60262E-08 7.20001E-20-5.15948E-19
 -1        36 9.56636E-05-2.87049E-05-2.87048E-05 1.64864E-08 2.00716E-19 1.13356E-19
 -1        37 9.68548E-05-2.90634E-05-2.90662E-05 2.00517E-08-2.42861E-19 5.45449E-19
 -1        38 9.82691E-05-2.94886E-05-2.94950E-05 2.72645E-08-7.88818E-20-2.04102E-19
 -1        39 9.99783E-05-3.00018E-05-3.00125E-05 3.87785E-08-1.05974E-19-9.38271E-20
 -1        40 1.02049E-04-3.06224E-05-3.06379E-05 5.51755E-08-7.52052E-21 3.43220E-19
 -1        41 1.04525E-04-3.13631E-05-3.13831E-05 7.65234E-08 6.75556E-20-7.95020E-20
 -1        42 1.07403E-04-3.22220E-05-3.22440E-05 1.01449E-07 1.81144E-20-1.07065E-18
 -1        43 1.10584E-04-3.31693E-05-3.31862E-05 1.25434E-07-1.93530E-19-9.56975E-19
 -1        44 1.13812E-04-3.41291E-05-3.41269E-05 1.38204E-07 3.68710E-20 3.58063E-19
 -1        45 1.16603E-04-3.49583E-05-3.49149E-05 1.20852E-07 4.78896E-20-5.03157E-19
 -1        46 1.18200E-04-3.54332E-05-3.53237E-05 4.56892E-08-5.51895E-20-7.73033E-19
 -1        47 1.17636E-04-3.52677E-05-3.50817E-05-1.14228E-07-2.46470E-19-1.32035E-18
 -1        48 1.14030E-04-3.41985E-05-3.39715E-05-3.57224E-07 2.88107E-19-1.26817E-18
 -1        49 1.07189E-04-3.21613E-05-3.19924E-05-6.14662E-07 4.69810E-19-4.19467E-19
 -1        50 9.82888E-05-2.94990E-05-2.95230E-05-7.37033E-07-1.60889E-20-7.60212E-20
 -1        51 9.00700E-05-2.70296E-05-2.73121E-05-5.71860E-07-1.63813E-19-1.62805E-18
 -1        52 8.58283E-05-2.57515E-05-2.61919E-05-1.21383E-07 2.20477E-19-6.17150E-19
 -1        53 8.74899E-05-2.62525E-05-2.66287E-05 3.95160E-07-4.43581E-19-7.64844E-19
 -1        54 9.42792E-05-2.82956E-05-2.84365E-05 7.02967E-07 1.66887E-19-5.53245E-19
 -1        55 1.03271E-04-3.09909E-05-3.08935E-05 6.96863E-07-5.15519E-19-2.14913E-18
 -1        56 1.11275E-04-3.33790E-05-3.31616E-05 4.78558E-07-1.75470E-19-3.80519E-18
 -1        57 1.16369E-04-3.48924E-05-3.46793E-05 2.14970E-07 4.35441E-19-2.44566E-18
 -1        58 1.18203E-04-3.54346E-05-3.52898E-05 1.40715E-08 2.74376E-20-2.56371E-18
 -1        59 1.17438E-04-3.52063E-05-3.51357E-05-9.69142E-08-3.07801E-19-2.73279E-18
 -1        60 1.15059E-04-3.44995E-05-3.44816E-05-1.36759E-07-5.39024E-20-2.43727E-18
 -1        61 1.11936E-04-3.35717E-05-3.35819E-05-1.34894E-07 3.81358E-19-8.44009E-19
 -1        62 1.08679E-04-3.26026E-05-3.26231E-05-1.14521E-07 1.46293E-19 1.12291E-18
 -1        63 1.05641E-04-3.16969E-05-3.17178E-05-8.94840E-08-9.27548E-19-1.59065E-18
 -1        64 1.02988E-04-3.09044E-05-3.09216E-05-6.64667E-08-1.81063E-19-4.15898E-18
 -1        65 1.00769E-04-3.02403E-05-3.02527E-05-4.78789E-08-2.86371E-19-3.33103E-18
 -1        66 9.89702E-05-2.97012E-05-2.97096E-05-3.39135E-08-3.12664E-20-3.64376E-18
 -1        67 9.75538E-05-2.92759E-05-2.92820E-05-2.36402E-08 2.97405E-19-1.38592E-18
 -1        68 9.64798E-05-2.89528E-05-2.89591E-05-1.53296E-08 1.14153E-19 2.87023E-18
 -1        69 9.57229E-05-2.87240E-05-2.87336E-05-6.08346E-09-1.92468E-19 3.08231E-18
 -1        70 9.52810E-05-2.85885E-05-2.86013E-05 1.06408E-08-3.62727E-19 2.96896E-18
 -1        71 9.51605E-05-2.85467E-05-2.85468E-05 3.20215E-08 2.40105E-20 2.56831E-18
 -1        72 1.02040E-04-3.05451E-05-3.41067E-05-1.92464E-06 1.94447E-19 8.19208E-18
 -1        73 9.24175E-05-2.74703E-05-2.88641E-05-3.32094E-07 8.12854E-20 6.06535E-18
 -1        74 8.89590E-05-2.66574E-05-2.69281E-05-1.24744E-07 3.79808E-20 4.38220E-18
 -1        75 8.78957E-05-2.63946E-05-2.63907E-05-9.39941E-08 4.68867E-20 3.26514E-18
 -1        76 8.79295E-05-2.64030E-05-2.63665E-05-7.44289E-08 6.07812E-20 2.46746E-18
 -1        77 8.84748E-05-2.65577E-05-2.65305E-05-5.96891E-08-2.66669E-20 1.55658E-18
 -1        78 8.92558E-05-2.67861E-05-2.67673E-05-4.81335E-08-5.03447E-20 1.23510E-18
 -1        79 9.01315E-05-2.70457E-05-2.70314E-05-3.83776E-08 1.59084E-20 7.73086E-19
 -1        80 9.10301E-05-2.73136E-05-2.73021E-05-2.98002E-08-8.12251E-20-2.65980E-19
 -1        81 9.19214E-05-2.75802E-05-2.75710E-05-2.22024E-08 1.93460E-19-8.52580E-19
 -1        82 9.28036E-05-2.78446E-05-2.78378E-05-1.55705E-08-2.36176E-20-8.15276E-19
 -1        83 9.36956E-05-2.81121E-05-2.81082E-05-9.99980E-09-1.84642E-19-1.54138E-19
 -1        84 9.46327E-05-2.83933E-05-2.83927E-05-5.68792E-09 1.02021E-19-3.68831E-19
 -1        85 9.56630E-05-2.87025E-05-2.87057E-05-2.96462E-09 3.02916E-19-1.74835E-18
 -1        86 9.68450E-05-2.90570E-05-2.90648E-05-2.34693E-09-1.07367E-19-2.97368E-18
 -1        87 9.82444E-05-2.94764E-05-2.94895E-05-4.61027E-09-1.90009E-19-2.19560E-18
 -1        88 9.99286E-05-2.99805E-05-2.99997E-05-1.08521E-08 7.11123E-20-1.36116E-18
 -1        89 1.01957E-04-3.05870E-05-3.06125E-05-2.24946E-08 1.22659E-19-2.21460E-18
 -1        90 1.04366E-04-3.13062E-05-3.13368E-05-4.11060E-08-8.22482E-20-1.84111E-18
 -1        91 1.07138E-04-3.21328E-05-3.21644E-05-6.77937E-08-1.33728E-19-1.08762E-18
 -1        92 1.10159E-04-3.30336E-05-3.30565E-05-1.01745E-07-6.53274E-20-9.64115E-19
 -1        93 1.13163E-04-3.39303E-05-3.39266E-05-1.37413E-07 9.01060E-20-8.48959E-19
 -1        94 1.15664E-04-3.46815E-05-3.46240E-05-1.60329E-07-2.59987E-19-1.70805E-18
 -1        95 1.16931E-04-3.50725E-05-3.49313E-05-1.43469E-07-3.78667E-20-9.75140E-19
 -1        96 1.16064E-04-3.48371E-05-3.45996E-05-5.05246E-08 1.31828E-19 1.95502E-18
 -1        97 1.12295E-04-3.37385E-05-3.34450E-05 1.42671E-07-1.52575E-19 1.72089E-18
 -1        98 1.05544E-04-3.17325E-05-3.15008E-05 4.04871E-07 9.26368E-20 2.83084E-18
 -1        99 9.70239E-05-2.91587E-05-2.91492E-05 6.18376E-07-2.20878E-19 6.45730E-19
 -1       100 8.93281E-05-2.67904E-05-2.70938E-05 6.23669E-07-7.05105E-20 1.31790E-18
 -1       101 8.54731E-05-2.55679E-05-2.60896E-05 3.46349E-07-3.51767E-19 1.97720E-18
 -1       102 8.71697E-05-2.60532E-05-2.65440E-05-9.13361E-08 6.28128E-19 1.27775E-18
 -1       103 9.36571E-05-2.80291E-05-2.82697E-05-4.53959E-07-7.35483E-19 1.62495E-18
 -1       104 1.02231E-04-3.06536E-05-3.06003E-05-5.84081E-07 5.11949E-19 3.57503E-18
 -1       105 1.09931E-04-3.30029E-05-3.27631E-05-4.97649E-07-2.21033E-19 2.28612E-18
 -1       106 1.14942E-04-3.45187E-05-3.42407E-05-3.10508E-07-4.63498E-19 3.49512E-18
 -1       107 1.16887E-04-3.50966E-05-3.48762E-05-1.28663E-07 1.01297E-19-4.36285E-19
 -1       108 1.16347E-04-3.49226E-05-3.47889E-05-1.18301E-09 6.31382E-19-3.37258E-18
 -1       109 1.14221E-04-3.42746E-05-3.42157E-05 6.82464E-08 3.84203E-19-4.53896E-18
 -1       110 1.11330E-04-3.34012E-05-3.33915E-05 9.49652E-08-3.13137E-19-5.16617E-18
 -1       111 1.08259E-04-3.24774E-05-3.24938E-05 9.65163E-08 2.84613E-19-3.02479E-18
 -1       112 1.05359E-04-3.16070E-05-3.16338E-05 8.60288E-08-5.27883E-19 1.35994E-18
 -1       113 1.02803E-04-3.08407E-05-3.08688E-05 7.15544E-08-1.29944E-19 9.90145E-19
 -1       114 1.00650E-04-3.01953E-05-3.02206E-05 5.73678E-08-7.64948E-19 2.09577E-18
 -1       115 9.88941E-05-2.96694E-05-2.96906E-05 4.53713E-08 7.29721E-19 1.69871E-18
 -1       116 9.75050E-05-2.92531E-05-2.92711E-05 3.60137E-08 6.80760E-19 9.89717E-19
 -1       117 9.64486E-05-2.89361E-05-2.89532E-05 2.86904E-08 2.29791E-19-2.09166E-18
 -1       118 9.57040E-05-2.87117E-05-2.87313E-05 2.14946E-08 1.63886E-19-5.62700E-18
 -1       119 9.52732E-05-2.85804E-05-2.86018E-05 7.38012E-09-9.55246E-19-3.05262E-18
 -1       120 9.51630E-05-2.85412E-05-2.85486E-05-2.39837E-08 1.02263E-18-1.42938E-18
 -1       121 9.52553E-05-2.86319E-05-2.85515E-05-3.50153E-08-2.34720E-18-7.50903E-19
 -1       122 9.52174E-05-2.85095E-05-2.86085E-05-1.39061E-09-1.10544E-19-2.12201E-19
 -1       123 9.50896E-05-2.80821E-05-2.87328E-05 1.98982E-08 1.82669E-18 1.20864E-18
 -1       124 9.49024E-05-2.74554E-05-2.89119E-05 2.95922E-08-1.70419E-18 3.84444E-19
 -1       125 9.46944E-05-2.67569E-05-2.91132E-05 3.06602E-08-4.11160E-18-1.95339E-18
 -1       126 9.45051E-05-2.61187E-05-2.92984E-05 2.62257E-08-5.94222E-18 1.08120E-18
 -1       127 9.43577E-05-2.56225E-05-2.94429E-05 1.74248E-08 3.31897E-19 1.72124E-18
 -1       128 9.42782E-05-2.53548E-05-2.95210E-05 6.08710E-09-1.33616E-18 5.77862E-20
 -1       129 9.42783E-05-2.53549E-05-2.95209E-05-6.11679E-09-1.16207E-18 7.86425E-20
 -1       130 9.43580E-05-2.56233E-05-2.94426E-05-1.74924E-08 2.67038E-18 3.61787E-19
 -1       131 9.45056E-05-2.61209E-05-2.92977E-05-2.66152E-08 2.94837E-18-1.55239E-18
 -1       132 9.46959E-05-2.67613E-05-2.91119E-05-3.08878E-08-2.73407E-18 1.40662E-18
 -1       133 9.49044E-05-2.74619E-05-2.89100E-05-2.95814E-08 1.84412E-20 4.84798E-19
 -1       134 9.50913E-05-2.80908E-05-2.87308E-05-2.22052E-08-2.11358E-18-6.58516E-19
 -1       135 9.52190E-05-2.85103E-05-2.86067E-05 1.90641E-09-2.15203E-18-1.43653E-18
 -1       136 9.52435E-05-2.86251E-05-2.85487E-05 5.81930E-08-3.59728E-18-1.17035E-18
 -1       137 2.72593E-05-9.01194E-05 1.59528E-05-2.26314E-05-1.58395E-18-1.30946E-19
 -1       138 9.47071E-06-4.09293E-05 5.04780E-06-2.09476E-05-1.64324E-19-5.74182E-19
 -1       139 8.75137E-06 8.09216E-06-1.17189E-05 1.50425E-05 6.34894E-18 6.44719E-18
 -1       140 4.71665E-05 2.79302E-05-3.18051E-05 6.91639E-05 8.41866E-18 8.57833E-18
 -1       141 1.26575E-04 4.70944E-06-5.09787E-05 1.07432E-04 3.86692E-18 6.19816E-18
 -1       142 2.31155E-04-4.83718E-05-6.84912E-05 1.01596E-04 6.21193E-19 1.70338E-18
 -1       143 2.96979E-04-8.85593E-05-7.70493E-05 4.46806E-05-4.01030E-19-2.78716E-18
 -1       144 3.00213E-04-9.03995E-05-7.74987E-05-3.73084E-05 5.39917E-19-4.29096E-18
 -1       145 2.38316E-04-5.29302E-05-6.93129E-05-9.81329E-05 1.95156E-18-5.19443E-18
 -1       146 1.43487E-04-2.32380E-06-5.43678E-05-1.11702E-04 3.93786E-18-6.09779E-18
 -1       147 6.02325E-05 2.68562E-05-3.58669E-05-7.96337E-05 5.09490E-18-6.44084E-18
 -1       148 1.31987E-05 1.75306E-05-1.64422E-05-2.73233E-05 6.81607E-18-5.51715E-18
 -1       149 6.83947E-06-2.71391E-05 1.17681E-06 1.41691E-05 8.75874E-18-3.42773E-18
 -1       150 2.28363E-05-8.03418E-05 1.41126E-05 2.46069E-05 6.25640E-18-1.84828E-18
 -1       151 3.57547E-05-1.08850E-04 1.95583E-05 5.62021E-06-1.58289E-18-4.79579E-19
 -1       152 1.25612E-05-5.19767E-05 7.78388E-06-2.44099E-05-9.64559E-18-3.76316E-18
 -1       153 5.43518E-06 2.54017E-07-7.90603E-06 4.46181E-06-7.06764E-18-3.55987E-18
 -1       154 3.72702E-05 2.63244E-05-2.78385E-05 5.82903E-05-2.56143E-18-3.17891E-18
 -1       155 1.17031E-04 8.94713E-06-4.92293E-05 1.05571E-04-1.58310E-18-2.09132E-18
 -1       156 2.14424E-04-3.91115E-05-6.58726E-05 1.07949E-04-3.33202E-19-5.67089E-19
 -1       157 2.93292E-04-8.59897E-05-7.66369E-05 5.37395E-05-1.19061E-19 2.61013E-18
 -1       158 3.04613E-04-9.28787E-05-7.81343E-05-2.84833E-05 1.05561E-19 3.60645E-18
 -1       159 2.45132E-04-5.68109E-05-7.02571E-05-9.48330E-05-1.86887E-18 5.26685E-18
 -1       160 1.49211E-04-4.95664E-06-5.54178E-05-1.12337E-04-3.89720E-18 5.93855E-18
 -1       161 6.01804E-05 2.66437E-05-3.58121E-05-7.91396E-05-4.51172E-18 6.03215E-18
 -1       162 1.04674E-05 1.47175E-05-1.46216E-05-2.20612E-05-3.51053E-18 2.93497E-18
 -1       163 8.32579E-06-3.62148E-05 3.81578E-06 1.86110E-05-9.40207E-20 5.64336E-19
 -1       164 2.64706E-05-8.90948E-05 1.59420E-05 2.33790E-05 4.92910E-18-1.63056E-18
 -1       165 9.47930E-05-1.23325E-05-3.55429E-05-2.23473E-05-1.35659E-18 6.79638E-19
 -1       166 8.92158E-05-8.45187E-06-3.47747E-05-1.73918E-05-1.31792E-18-7.35158E-19
 -1       167 8.65491E-05-6.50566E-06-3.44159E-05-1.35835E-05-1.05924E-18-1.62317E-18
 -1       168 8.52164E-05-5.51575E-06-3.42412E-05-1.03710E-05-8.36945E-19-2.04300E-18
 -1       169 8.44930E-05-4.94668E-06-3.41600E-05-7.54429E-06-6.31986E-19-2.20466E-18
 -1       170 8.40772E-05-4.59912E-06-3.41235E-05-4.90044E-06-4.64899E-19-2.29035E-18
 -1       171 8.38654E-05-4.41326E-06-3.41088E-05-2.39331E-06-1.90362E-19-2.20108E-18
 -1       172 8.38031E-05-4.35702E-06-3.41052E-05 5.11806E-08 2.85980E-20-2.19732E-18
 -1       173 8.38752E-05-4.42178E-06-3.41096E-05 2.49781E-06 2.63018E-19-2.18378E-18
 -1       174 8.40986E-05-4.61829E-06-3.41248E-05 5.01177E-06 4.55683E-19-2.19005E-18
 -1       175 8.45195E-05-4.97280E-06-3.41610E-05 7.62115E-06 5.93815E-19-2.02806E-18
 -1       176 8.52769E-05-5.57590E-06-3.42424E-05 1.05114E-05 9.02021E-19-1.78751E-18
 -1       177 8.66471E-05-6.60879E-06-3.44182E-05 1.37836E-05 1.18197E-18-1.40032E-18
 -1       178 8.93582E-05-8.59559E-06-3.47794E-05 1.76236E-05 1.38995E-18-5.55243E-19
 -1       179 9.57034E-05-1.35985E-05-3.53992E-05 2.18924E-05 1.35005E-18 1.05021E-18
 -1       180 1.05491E-04-2.60688E-05-3.52275E-05 1.86616E-05 1.01834E-18 3.33117E-18
 -1       181 1.03292E-04-2.72708E-05-3.25782E-05-1.21283E-05-1.09545E-18 2.27510E-18
 -1       182 9.70053E-05-2.82587E-05-2.94981E-05-4.73382E-06-9.17615E-19 1.68169E-18
 -1       183 9.34083E-05-2.76057E-05-2.81530E-05-1.76874E-06-7.05684E-19 1.25626E-18
 -1       184 9.18824E-05-2.73769E-05-2.76096E-05-4.14028E-07-5.28747E-19 6.68564E-19
 -1       185 9.13240E-05-2.73056E-05-2.74179E-05 2.61446E-07-2.72587E-19 3.93108E-19
 -1       186 9.13134E-05-2.73517E-05-2.74032E-05 6.05896E-07-3.87137E-19 2.93753E-19
 -1       187 9.16090E-05-2.74671E-05-2.74848E-05 7.73202E-07-2.39688E-19-1.40317E-19
 -1       188 9.20744E-05-2.76200E-05-2.76208E-05 8.45728E-07-3.47172E-19-2.24444E-19
 -1       189 9.26347E-05-2.77924E-05-2.77880E-05 8.73477E-07-4.82631E-19-1.78664E-19
 -1       190 9.32533E-05-2.79758E-05-2.79749E-05 8.89932E-07-8.13747E-20-2.12656E-19
 -1       191 9.39198E-05-2.81685E-05-2.81779E-05 9.19242E-07 6.73581E-20-7.14047E-19
 -1       192 9.46427E-05-2.83742E-05-2.83993E-05 9.79864E-07-3.10050E-19-6.70665E-19
 -1       193 9.54445E-05-2.86002E-05-2.86456E-05 1.08644E-06 1.27196E-19-5.79148E-19
 -1       194 9.63583E-05-2.88571E-05-2.89266E-05 1.25050E-06 1.24321E-19-7.46065E-19
 -1       195 9.74244E-05-2.91581E-05-2.92540E-05 1.48005E-06-3.71957E-19-2.83280E-19
 -1       196 9.86868E-05-2.95178E-05-2.96405E-05 1.77777E-06-1.09454E-19-5.07847E-19
 -1       197 1.00187E-04-2.99518E-05-3.00974E-05 2.13709E-06 7.22972E-20-9.26514E-19
 -1       198 1.01956E-04-3.04747E-05-3.06319E-05 2.53547E-06-2.69926E-20-1.15345E-18
 -1       199 1.03998E-04-3.10974E-05-3.12422E-05 2.92380E-06-4.99193E-19-8.40818E-19
 -1       200 1.06277E-04-3.18223E-05-3.19107E-05 3.21198E-06-2.68633E-20-9.54360E-19
 -1       201 1.08678E-04-3.26347E-05-3.25959E-05 3.25340E-06 5.69078E-19-1.12376E-18
 -1       202 1.10986E-04-3.34887E-05-3.32238E-05 2.83851E-06-3.27544E-19-5.73876E-19
 -1       203 1.12850E-04-3.42843E-05-3.36855E-05 1.72075E-06 2.62382E-21-8.39109E-20
 -1       204 1.13788E-04-3.48396E-05-3.38499E-05-2.85957E-07-4.77234E-19 1.25985E-19
 -1       205 1.13257E-04-3.48752E-05-3.36024E-05-3.10207E-06 9.44806E-20 2.89982E-19
 -1       206 1.10873E-04-3.40790E-05-3.29135E-05-6.11296E-06 2.31243E-19 5.43276E-19
 -1       207 1.06770E-04-3.23174E-05-3.19027E-05-8.06973E-06 4.30233E-20-2.55195E-19
 -1       208 1.01970E-04-2.99633E-05-3.08530E-05-7.51828E-06-2.94306E-19 4.12730E-20
 -1       209 9.83120E-05-2.80277E-05-3.01193E-05-3.89968E-06-7.71726E-20 8.70158E-19
 -1       210 9.75389E-05-2.76066E-05-2.99701E-05 1.52838E-06-6.88519E-19-8.20307E-20
 -1       211 1.00049E-04-2.89628E-05-3.04606E-05 6.22643E-06-1.01412E-20 3.02315E-19
 -1       212 1.04578E-04-3.12762E-05-3.14078E-05 8.18842E-06-5.83101E-19 5.12713E-19
 -1       213 1.09172E-04-3.33899E-05-3.24755E-05 7.20554E-06-6.99188E-19 2.18933E-18
 -1       214 1.12385E-04-3.46251E-05-3.33323E-05 4.48244E-06 4.47101E-19 1.42325E-18
 -1       215 1.13714E-04-3.49258E-05-3.37799E-05 1.46092E-06-6.44552E-19-7.88759E-19
 -1       216 1.13364E-04-3.45620E-05-3.37872E-05-9.46544E-07 1.95962E-19-1.12293E-18
 -1       217 1.11842E-04-3.38432E-05-3.34404E-05-2.45102E-06-5.28770E-19-1.49226E-18
 -1       218 1.09675E-04-3.29963E-05-3.28701E-05-3.15015E-06 5.93458E-19-6.01706E-19
 -1       219 1.07277E-04-3.21551E-05-3.21986E-05-3.28027E-06 8.35536E-19-2.29616E-19
 -1       220 1.04927E-04-3.13873E-05-3.15170E-05-3.07261E-06-1.13109E-18-6.34659E-19
 -1       221 1.02784E-04-3.07202E-05-3.08819E-05-2.70042E-06-1.15772E-18-5.81679E-19
 -1       222 1.00920E-04-3.01595E-05-3.03223E-05-2.27446E-06 6.13775E-19 1.97433E-19
 -1       223 9.93565E-05-2.96992E-05-2.98490E-05-1.85594E-06-7.42369E-19 1.11821E-18
 -1       224 9.80825E-05-2.93287E-05-2.94618E-05-1.47144E-06 1.75798E-18 9.44570E-19
 -1       225 9.70755E-05-2.90361E-05-2.91559E-05-1.12479E-06 2.07049E-18 2.36513E-18
 -1       226 9.63103E-05-2.88105E-05-2.89252E-05-8.05353E-07 7.20427E-19 1.63572E-19
 -1       227 9.57648E-05-2.86445E-05-2.87632E-05-4.96654E-07 2.33838E-19-2.00377E-19
 -1       228 9.54073E-05-2.85347E-05-2.86577E-05-1.93883E-07-3.81057E-20 1.27107E-18
 -1       229 9.93899E-05-2.85213E-05-3.05538E-05 7.21390E-06 1.04280E-18 2.80559E-18
 -1       230 9.43076E-05-2.77578E-05-2.84919E-05 2.74589E-06 8.44763E-19 1.92821E-18
 -1       231 9.19922E-05-2.73689E-05-2.76506E-05 9.28567E-07 6.05314E-19 1.25451E-18
 -1       232 9.10544E-05-2.72088E-05-2.73353E-05 5.97487E-08 5.81144E-19 8.20830E-19
 -1       233 9.08642E-05-2.72069E-05-2.72679E-05-3.79809E-07 3.60302E-19 6.96364E-19
 -1       234 9.10857E-05-2.73025E-05-2.73286E-05-5.99051E-07 1.25250E-19 4.31751E-19
 -1       235 9.15316E-05-2.74520E-05-2.74587E-05-6.99680E-07 4.09625E-19 1.10732E-19
 -1       236 9.20976E-05-2.76291E-05-2.76269E-05-7.38733E-07 4.90509E-19-1.80640E-19
 -1       237 9.27292E-05-2.78201E-05-2.78165E-05-7.52181E-07 1.40011E-19-7.61761E-19
 -1       238 9.34042E-05-2.80199E-05-2.80206E-05-7.64761E-07-1.49380E-19-4.47614E-19
 -1       239 9.41233E-05-2.82295E-05-2.82391E-05-7.94665E-07 5.48764E-20-5.03190E-19
 -1       240 9.49033E-05-2.84547E-05-2.84768E-05-8.55929E-07 3.51034E-19-8.28291E-19
 -1       241 9.57738E-05-2.87049E-05-2.87426E-05-9.59569E-07 8.72521E-19-1.25042E-18
 -1       242 9.67733E-05-2.89922E-05-2.90478E-05-1.11378E-06 7.23930E-20-1.12272E-18
 -1       243 9.79456E-05-2.93305E-05-2.94052E-05-1.32310E-06-1.44796E-19-8.87863E-19
 -1       244 9.93349E-05-2.97347E-05-2.98277E-05-1.58623E-06-5.82513E-20-1.41233E-18
 -1       245 1.00978E-04-3.02187E-05-3.03252E-05-1.89188E-06 5.25182E-19-1.02755E-18
 -1       246 1.02894E-04-3.07927E-05-3.09012E-05-2.21196E-06-7.04087E-19-1.15460E-18
 -1       247 1.05063E-04-3.14585E-05-3.15466E-05-2.49180E-06-3.89981E-19-6.26240E-19
 -1       248 1.07402E-04-3.22025E-05-3.22317E-05-2.63799E-06-4.22966E-19 3.86080E-19
 -1       249 1.09734E-04-3.29851E-05-3.28967E-05-2.50866E-06-1.29347E-19 5.18161E-19
 -1       250 1.11755E-04-3.37252E-05-3.34446E-05-1.91820E-06 3.07205E-19 6.73808E-19
 -1       251 1.13022E-04-3.42837E-05-3.37439E-05-6.80251E-07-7.23621E-19 1.33302E-19
 -1       252 1.13000E-04-3.44547E-05-3.36536E-05 1.27978E-06-1.03390E-18 9.72378E-19
 -1       253 1.11213E-04-3.39918E-05-3.30798E-05 3.73276E-06 9.17509E-21 2.29479E-18
 -1       254 1.07549E-04-3.27210E-05-3.20562E-05 5.95767E-06 1.71678E-19 1.95917E-18
 -1       255 1.02628E-04-3.07637E-05-3.08015E-05 6.81761E-06 7.04190E-19 2.53763E-18
 -1       256 9.79318E-05-2.87123E-05-2.96909E-05 5.35039E-06-6.56785E-19 2.39966E-18
 -1       257 9.53403E-05-2.74918E-05-2.91149E-05 1.63663E-06 5.47991E-20 2.27936E-18
 -1       258 9.60665E-05-2.77778E-05-2.92924E-05-2.82052E-06 5.87245E-19 1.36319E-18
 -1       259 9.97699E-05-2.94103E-05-3.01553E-05-6.00304E-06-6.57428E-19 1.42992E-18
 -1       260 1.04819E-04-3.15505E-05-3.13832E-05-6.77195E-06-4.40741E-19 5.98296E-19
 -1       261 1.09362E-04-3.33199E-05-3.25685E-05-5.41236E-06 4.49093E-19 2.22599E-18
 -1       262 1.12257E-04-3.42915E-05-3.34012E-05-3.02734E-06 1.42391E-19 9.30841E-19
 -1       263 1.13239E-04-3.44821E-05-3.37512E-05-6.67386E-07 2.28113E-18-4.53442E-19
 -1       264 1.12630E-04-3.41211E-05-3.36521E-05 1.09707E-06 1.53533E-18-2.58440E-18
 -1       265 1.10965E-04-3.34554E-05-3.32261E-05 2.14188E-06-3.97186E-19-3.39400E-18
 -1       266 1.08754E-04-3.26718E-05-3.26132E-05 2.58608E-06-1.82674E-19-1.74711E-18
 -1       267 1.06383E-04-3.18877E-05-3.19308E-05 2.62119E-06-1.38984E-18-5.24858E-19
 -1       268 1.04102E-04-3.11667E-05-3.12599E-05 2.42049E-06-2.21631E-18 1.10713E-18
 -1       269 1.02049E-04-3.05373E-05-3.06476E-05 2.10951E-06-1.12073E-19 3.31681E-18
 -1       270 1.00281E-04-3.00070E-05-3.01162E-05 1.76675E-06-9.65872E-19 3.69674E-18
 -1       271 9.88114E-05-2.95719E-05-2.96721E-05 1.43425E-06 2.20555E-18 3.69495E-18
 -1       272 9.76262E-05-2.92233E-05-2.93134E-05 1.12849E-06 1.17016E-18 1.66126E-18
 -1       273 9.67039E-05-2.89514E-05-2.90349E-05 8.48820E-07 1.68512E-18-6.52854E-20
 -1       274 9.60236E-05-2.87476E-05-2.88317E-05 5.84411E-07 1.08483E-18-8.82378E-19
 -1       275 9.55679E-05-2.86056E-05-2.86971E-05 3.20175E-07-1.77883E-18-1.14174E-18
 -1       276 9.53152E-05-2.85429E-05-2.86133E-05 6.93606E-08 1.19293E-18-8.90259E-19
 -1       277 9.52705E-05-2.83963E-05-2.86585E-05 2.09370E-07 1.17519E-18 1.07775E-18
 -1       278 9.51592E-05-2.80713E-05-2.87513E-05 4.70202E-07 1.32796E-18 6.00310E-19
 -1       279 9.49886E-05-2.76185E-05-2.88727E-05 6.54210E-07 1.49268E-18-1.73423E-18
 -1       280 9.47977E-05-2.71014E-05-2.90129E-05 7.17554E-07 2.51972E-19-1.17334E-18
 -1       281 9.46164E-05-2.66022E-05-2.91499E-05 6.62981E-07-3.67810E-20-1.26263E-18
 -1       282 9.44633E-05-2.61759E-05-2.92677E-05 5.05347E-07-8.51096E-19 1.44607E-18
 -1       283 9.43625E-05-2.58934E-05-2.93461E-05 2.72516E-07-3.88377E-19 7.58130E-19
 -1       284 9.43272E-05-2.57944E-05-2.93736E-05 1.78365E-11-5.51032E-19 1.81998E-19
 -1       285 9.43622E-05-2.58930E-05-2.93461E-05-2.72855E-07 4.57585E-19 1.97716E-18
 -1       286 9.44630E-05-2.61757E-05-2.92677E-05-5.06709E-07-7.77067E-19 5.83805E-19
 -1       287 9.46135E-05-2.65944E-05-2.91520E-05-6.63477E-07 7.32207E-19-2.21538E-18
 -1       288 9.47987E-05-2.71036E-05-2.90124E-05-7.19607E-07 6.44753E-19 3.74573E-19
 -1       289 9.49899E-05-2.76221E-05-2.88717E-05-6.54593E-07-9.63076E-19-1.74046E-19
 -1       290 9.51598E-05-2.80702E-05-2.87510E-05-4.68531E-07-1.08068E-18 5.37404E-19
 -1       291 9.53051E-05-2.83239E-05-2.87044E-05-3.68330E-07-1.48080E-18-1.19234E-18
 -1       292 1.22155E-05-4.82049E-05 1.19087E-05 6.17932E-06 7.16908E-19-8.18975E-19
 -1       293 2.37424E-05-4.32975E-05 5.48616E-06 1.93204E-05 3.26319E-19 1.75071E-18
 -1       294 5.10818E-05-3.84266E-05-7.06864E-06 3.50215E-05 5.02502E-19 4.66813E-18
 -1       295 8.47162E-05-3.30987E-05-2.27397E-05 4.26308E-05 2.09704E-18 2.59976E-18
 -1       296 1.24339E-04-2.95261E-05-3.98158E-05 4.73056E-05 3.70566E-18 1.61783E-18
 -1       297 1.66078E-04-3.36344E-05-5.50376E-05 3.15009E-05 2.83024E-18-1.18098E-18
 -1       298 1.99670E-04-3.52112E-05-6.71940E-05 2.38312E-05 1.30835E-18-1.68623E-18
 -1       299 2.08055E-04-3.45407E-05-7.08628E-05 1.31119E-06 2.58663E-19-2.22574E-18
 -1       300 1.98845E-04-3.41574E-05-6.74302E-05-2.03840E-05 8.07858E-19-1.89322E-18
 -1       301 1.72724E-04-3.22142E-05-5.77333E-05-3.99095E-05 1.60416E-18-2.05342E-18
 -1       302 1.32942E-04-2.97625E-05-4.30821E-05-4.68280E-05 1.44589E-18-2.50574E-18
 -1       303 9.16222E-05-3.03292E-05-2.65626E-05-4.46165E-05 2.41129E-18-8.32633E-19
 -1       304 5.50568E-05-3.47506E-05-1.03536E-05-3.50345E-05 3.28988E-18-2.20885E-18
 -1       305 2.99930E-05-4.08619E-05 2.36734E-06-2.56283E-05 1.54329E-18-2.00408E-18
 -1       306 1.33473E-05-4.52151E-05 1.05969E-05-1.01406E-05 2.46592E-19-3.86131E-18
 -1       307 1.16259E-05-4.86393E-05 1.24163E-05 3.64837E-06-1.65542E-18-3.69963E-18
 -1       308 2.02825E-05-4.50473E-05 7.43261E-06 1.60759E-05-3.53340E-18-1.49840E-18
 -1       309 4.13237E-05-3.79598E-05-3.69925E-06 2.92733E-05-3.04021E-18 8.39277E-19
 -1       310 7.47631E-05-3.19768E-05-1.92725E-05 4.12864E-05-1.46791E-18 1.33111E-18
 -1       311 1.25792E-04-3.87058E-05-3.69601E-05 3.94638E-05 2.31875E-20 1.43360E-18
 -1       312 1.62503E-04-3.16868E-05-5.39935E-05 4.23482E-05-8.25010E-19 4.38763E-19
 -1       313 1.97460E-04-3.51803E-05-6.61594E-05 2.75904E-05-6.78156E-19 1.35991E-18
 -1       314 2.12746E-04-3.72271E-05-7.14020E-05 4.23287E-06-3.34896E-19 1.46050E-18
 -1       315 1.97765E-04-3.27346E-05-6.77816E-05-1.66349E-05-1.27563E-18 2.93687E-18
 -1       316 1.75521E-04-3.27552E-05-5.86280E-05-3.88587E-05-1.39577E-18 2.22494E-18
 -1       317 1.35495E-04-3.16869E-05-4.34135E-05-4.45450E-05-8.92879E-19 1.17547E-18
 -1       318 8.93624E-05-3.03350E-05-2.57025E-05-4.42612E-05-3.28861E-19 2.20419E-18
 -1       319 5.07021E-05-3.56756E-05-8.32523E-06-3.32983E-05-1.11046E-18 2.69034E-18
 -1       320 2.63327E-05-4.16833E-05 4.21452E-06-2.34049E-05-1.53736E-18 1.86506E-18
 -1       321 1.26095E-05-4.85935E-05 1.19219E-05-6.25544E-06 7.37713E-19-1.03889E-18
 -1       322 9.16334E-05-1.43893E-05-3.31679E-05-1.30557E-05-1.39327E-18-8.20960E-19
 -1       323 9.56535E-05-1.90953E-05-3.28737E-05-1.46282E-05-1.43735E-18 6.52149E-20
 -1       324 8.80423E-05-1.03724E-05-3.33404E-05-8.14050E-06-8.65105E-19-1.59295E-18
 -1       325 8.72383E-05-9.44553E-06-3.33877E-05-5.70650E-06-7.03243E-19-1.76642E-18
 -1       326 8.67865E-05-8.91288E-06-3.34192E-05-3.35955E-06-3.88426E-19-1.68302E-18
 -1       327 8.65850E-05-8.67119E-06-3.34351E-05-1.06999E-06-1.43827E-19-1.61004E-18
 -1       328 8.65936E-05-8.68079E-06-3.34347E-05 1.20061E-06 1.37654E-19-1.56678E-18
 -1       329 8.68138E-05-8.94383E-06-3.34180E-05 3.49247E-06 4.05866E-19-1.68522E-18
 -1       330 8.72779E-05-9.49109E-06-3.33859E-05 5.80451E-06 6.87141E-19-1.60561E-18
 -1       331 8.81030E-05-1.04455E-05-3.33371E-05 8.24315E-06 1.00385E-18-1.35560E-18
 -1       332 8.94965E-05-1.20296E-05-3.32667E-05 1.07537E-05 1.26104E-18-1.11333E-18
 -1       333 9.18864E-05-1.47158E-05-3.31542E-05 1.31624E-05 1.46911E-18-6.70890E-19
 -1       334 9.57497E-05-1.94420E-05-3.28110E-05 1.43734E-05 1.55617E-18 2.84272E-19
 -1       335 9.87089E-05-2.44204E-05-3.19260E-05 1.18986E-05 1.39203E-18 1.26672E-18
 -1       336 9.63121E-05-2.67875E-05-2.97667E-05 5.74018E-06 1.20806E-18 8.38811E-19
 -1       337 9.63783E-05-2.60070E-05-3.01154E-05-6.34304E-06-9.96256E-19 1.26575E-20
 -1       338 9.48707E-05-2.70067E-05-2.90591E-05-2.81700E-06-8.67375E-19-2.58577E-20
 -1       339 9.39097E-05-2.74029E-05-2.84882E-05-8.87213E-07-7.22790E-19-1.05965E-19
 -1       340 9.34154E-05-2.76149E-05-2.81933E-05 2.02414E-07-4.26819E-19-3.87968E-19
 -1       341 9.32626E-05-2.77689E-05-2.80656E-05 8.12381E-07-5.12884E-19-4.68666E-19
 -1       342 9.33389E-05-2.79017E-05-2.80431E-05 1.14595E-06-3.17657E-19-3.74957E-19
 -1       343 9.35647E-05-2.80236E-05-2.80883E-05 1.32646E-06-2.52444E-19-4.47217E-19
 -1       344 9.38902E-05-2.81376E-05-2.81792E-05 1.43431E-06-2.79252E-19-3.62371E-19
 -1       345 9.42881E-05-2.82461E-05-2.83032E-05 1.52540E-06-3.75322E-19-4.64588E-19
 -1       346 9.47486E-05-2.83526E-05-2.84547E-05 1.64068E-06-3.36417E-19-9.48545E-19
 -1       347 9.52749E-05-2.84625E-05-2.86327E-05 1.81128E-06-9.90615E-20-1.14177E-18
 -1       348 9.58798E-05-2.85833E-05-2.88396E-05 2.06105E-06 1.26535E-19-7.52832E-19
 -1       349 9.65835E-05-2.87250E-05-2.90799E-05 2.40713E-06 6.40887E-20-7.43673E-19
 -1       350 9.74110E-05-2.89008E-05-2.93586E-05 2.85857E-06-3.73142E-19-9.38627E-19
 -1       351 9.83904E-05-2.91289E-05-2.96802E-05 3.41231E-06-5.51514E-19-8.14933E-19
 -1       352 9.95501E-05-2.94343E-05-3.00462E-05 4.04591E-06-1.50356E-19-1.64840E-18
 -1       353 1.00916E-04-2.98521E-05-3.04533E-05 4.70579E-06 1.54552E-19-1.43759E-18
 -1       354 1.02510E-04-3.04305E-05-3.08903E-05 5.29062E-06-8.35974E-20-1.29006E-18
 -1       355 1.04342E-04-3.12304E-05-3.13357E-05 5.63093E-06 3.53724E-19-9.79475E-19
 -1       356 1.06401E-04-3.23149E-05-3.17578E-05 5.47207E-06 9.17244E-19-9.99900E-19
 -1       357 1.08625E-04-3.37108E-05-3.21193E-05 4.47860E-06 3.14991E-19 4.27586E-20
 -1       358 1.10854E-04-3.53226E-05-3.23897E-05 2.29733E-06-7.01912E-20 1.15042E-19
 -1       359 1.12729E-04-3.67895E-05-3.25677E-05-1.26016E-06 1.59317E-19 1.91884E-19
 -1       360 1.13623E-04-3.73651E-05-3.26992E-05-5.85846E-06 9.84759E-20-3.48717E-19
 -1       361 1.12799E-04-3.61054E-05-3.28790E-05-1.02097E-05-4.46309E-19-2.90442E-19
 -1       362 1.09970E-04-3.25773E-05-3.31716E-05-1.20633E-05 1.45218E-19-3.38630E-19
 -1       363 1.06210E-04-2.80027E-05-3.35199E-05-9.25444E-06-4.62559E-20-1.10822E-18
 -1       364 1.03911E-04-2.52235E-05-3.37293E-05-1.96163E-06-5.13838E-19-9.01568E-19
 -1       365 1.04840E-04-2.63501E-05-3.36448E-05 6.36478E-06-1.92822E-19 1.55608E-19
 -1       366 1.08256E-04-3.04958E-05-3.33290E-05 1.14215E-05 2.42021E-19 5.20445E-19
 -1       367 1.11731E-04-3.47665E-05-3.29899E-05 1.14898E-05 4.86840E-19 9.92728E-19
 -1       368 1.13483E-04-3.70719E-05-3.27616E-05 7.94636E-06-4.50023E-19 1.13413E-18
 -1       369 1.13273E-04-3.72100E-05-3.26192E-05 3.22993E-06-7.11599E-19 1.80685E-18
 -1       370 1.11741E-04-3.60270E-05-3.24696E-05-8.85644E-07-1.37295E-19 2.94745E-18
 -1       371 1.09608E-04-3.44119E-05-3.22426E-05-3.68315E-06-9.12328E-19 2.39612E-18
 -1       372 1.07349E-04-3.28922E-05-3.19196E-05-5.16813E-06 3.80126E-19 2.53347E-18
 -1       373 1.05204E-04-3.16632E-05-3.15213E-05-5.65018E-06 1.05160E-18 2.10733E-18
 -1       374 1.03271E-04-3.07390E-05-3.10851E-05-5.48411E-06-5.27703E-19 1.97285E-18
 -1       375 1.01581E-04-3.00656E-05-3.06471E-05-4.96100E-06-9.52561E-19 1.62866E-18
 -1       376 1.00135E-04-2.95787E-05-3.02349E-05-4.28308E-06 7.67231E-21 2.74137E-18
 -1       377 9.89197E-05-2.92237E-05-2.98659E-05-3.57426E-06 4.50256E-19 2.90778E-18
 -1       378 9.79149E-05-2.89594E-05-2.95486E-05-2.89986E-06 7.09925E-19 4.83034E-18
 -1       379 9.70976E-05-2.87557E-05-2.92859E-05-2.28494E-06 1.17265E-18 2.75371E-18
 -1       380 9.64439E-05-2.85913E-05-2.90765E-05-1.72939E-06-1.72859E-18 8.13075E-19
 -1       381 9.59317E-05-2.84525E-05-2.89162E-05-1.21942E-06-5.67655E-19 5.13675E-19
 -1       382 9.55809E-05-2.83715E-05-2.88016E-05-7.74259E-07 9.99158E-20-4.46657E-19
 -1       383 9.42998E-05-2.73163E-05-2.86689E-05 2.46118E-06 1.02424E-18 5.60000E-19
 -1       384 9.31069E-05-2.74371E-05-2.81222E-05 7.23541E-07 7.78077E-19 2.06219E-19
 -1       385 9.25757E-05-2.75170E-05-2.78722E-05-2.18711E-07 4.03448E-19 1.43545E-20
 -1       386 9.24713E-05-2.76148E-05-2.77912E-05-7.27146E-07 2.19797E-19-8.51159E-20
 -1       387 9.26321E-05-2.77335E-05-2.78116E-05-9.93258E-07 5.97150E-19-2.21539E-19
 -1       388 9.29551E-05-2.78653E-05-2.78946E-05-1.12691E-06 4.03802E-19-2.74917E-19
 -1       389 9.33793E-05-2.80040E-05-2.80173E-05-1.19735E-06 3.83390E-19 2.81142E-20
 -1       390 9.38732E-05-2.81468E-05-2.81679E-05-1.25166E-06-2.65835E-19-1.41515E-19
 -1       391 9.44266E-05-2.82947E-05-2.83414E-05-1.32385E-06 1.01292E-19-2.01085E-19
 -1       392 9.50446E-05-2.84522E-05-2.85384E-05-1.43955E-06 5.98151E-19-5.09959E-19
 -1       393 9.57440E-05-2.86264E-05-2.87630E-05-1.61828E-06 1.09502E-18-7.23165E-19
 -1       394 9.65498E-05-2.88272E-05-2.90217E-05-1.87405E-06 1.71395E-19-5.44275E-19
 -1       395 9.74919E-05-2.90669E-05-2.93223E-05-2.21432E-06-1.26181E-19-7.02977E-19
 -1       396 9.86025E-05-2.93608E-05-2.96719E-05-2.63678E-06 4.77190E-20-5.25627E-19
 -1       397 9.99105E-05-2.97269E-05-3.00756E-05-3.12349E-06 2.16829E-19-6.75597E-20
 -1       398 1.01436E-04-3.01868E-05-3.05329E-05-3.63129E-06-4.88998E-19 1.88708E-19
 -1       399 1.03180E-04-3.07648E-05-3.10344E-05-4.07840E-06-6.76367E-19-4.25265E-19
 -1       400 1.05115E-04-3.14855E-05-3.15574E-05-4.32818E-06-8.01779E-19-5.90978E-19
 -1       401 1.07161E-04-3.23638E-05-3.20622E-05-4.17640E-06-4.81152E-19-3.76210E-20
 -1       402 1.09168E-04-3.33815E-05-3.24912E-05-3.35723E-06 2.69355E-19 1.16829E-18
 -1       403 1.10882E-04-3.44403E-05-3.27767E-05-1.59847E-06-3.11963E-19 1.41415E-18
 -1       404 1.11925E-04-3.52930E-05-3.28597E-05 1.23223E-06-9.95686E-19 1.16162E-18
 -1       405 1.11810E-04-3.54943E-05-3.27213E-05 4.86674E-06-2.53263E-19 7.59521E-19
 -1       406 1.10111E-04-3.45007E-05-3.24116E-05 8.34097E-06-1.81829E-19 1.22300E-18
 -1       407 1.06876E-04-3.21028E-05-3.20469E-05 9.99585E-06 5.83535E-19 3.42812E-18
 -1       408 1.03088E-04-2.89932E-05-3.17532E-05 8.26694E-06 4.90488E-19 3.32633E-18
 -1       409 1.00540E-04-2.67697E-05-3.16078E-05 2.99515E-06 9.02318E-19 2.85212E-18
 -1       410 1.00774E-04-2.69322E-05-3.16303E-05-3.70211E-06 1.20475E-18 1.81749E-18
 -1       411 1.03633E-04-2.93417E-05-3.18217E-05-8.65830E-06-1.13754E-20 5.91275E-19
 -1       412 1.07487E-04-3.24709E-05-3.21428E-05-9.96809E-06-3.69302E-19 8.57919E-20
 -1       413 1.10547E-04-3.47274E-05-3.24998E-05-7.99597E-06-8.04966E-19 3.13220E-20
 -1       414 1.11983E-04-3.55497E-05-3.27740E-05-4.41341E-06 4.92586E-19 8.05361E-19
 -1       415 1.11861E-04-3.52272E-05-3.28640E-05-8.28618E-07 2.92801E-18 1.69454E-18
 -1       416 1.10653E-04-3.43122E-05-3.27357E-05 1.88431E-06 2.13079E-18 2.16275E-18
 -1       417 1.08843E-04-3.32326E-05-3.24174E-05 3.52016E-06 4.00647E-19 1.21393E-18
 -1       418 1.06799E-04-3.22179E-05-3.19701E-05 4.24017E-06-1.09637E-18-5.32730E-19
 -1       419 1.04756E-04-3.13531E-05-3.14604E-05 4.32168E-06-1.91831E-18-2.27199E-19
 -1       420 1.02853E-04-3.06491E-05-3.09433E-05 4.02301E-06-2.47532E-18 8.98957E-19
 -1       421 1.01160E-04-3.00880E-05-3.04564E-05 3.53685E-06-1.93727E-18 2.14616E-18
 -1       422 9.97044E-05-2.96449E-05-3.00217E-05 2.98780E-06 5.74828E-20 2.32976E-18
 -1       423 9.84865E-05-2.92958E-05-2.96491E-05 2.44587E-06 1.89180E-18 8.31821E-19
 -1       424 9.74922E-05-2.90201E-05-2.93413E-05 1.94201E-06 1.72329E-18 2.16898E-18
 -1       425 9.67010E-05-2.88010E-05-2.90965E-05 1.48083E-06 1.78919E-18 1.65148E-18
 -1       426 9.60916E-05-2.86266E-05-2.89106E-05 1.05261E-06 1.70329E-18 1.20928E-18
 -1       427 9.56420E-05-2.84926E-05-2.87760E-05 6.45994E-07-1.09352E-18 6.82612E-19
 -1       428 9.54278E-05-2.84218E-05-2.87153E-05 4.22730E-07-3.67010E-19 3.97042E-19
 -1       429 9.49286E-05-2.73300E-05-2.89702E-05 1.24253E-06 1.02067E-18-1.75025E-18
 -1       430 9.52038E-05-2.78149E-05-2.88792E-05 1.06930E-06-2.62048E-19 8.23991E-19
 -1       431 9.53554E-05-2.81548E-05-2.87980E-05 7.65514E-07-5.22436E-19 3.44050E-19
 -1       432 9.46573E-05-2.68548E-05-2.90587E-05 1.22631E-06 1.20356E-18-2.80737E-18
 -1       433 9.44165E-05-2.64287E-05-2.91389E-05 1.02848E-06 1.04069E-18-2.15615E-21
 -1       434 9.42388E-05-2.61115E-05-2.91994E-05 6.82069E-07 6.89021E-19 1.20353E-18
 -1       435 9.41442E-05-2.59418E-05-2.92319E-05 2.39070E-07-1.71753E-18-7.95093E-19
 -1       436 9.41434E-05-2.59407E-05-2.92321E-05-2.37858E-07-1.58008E-18 1.92972E-18
 -1       437 9.42369E-05-2.61086E-05-2.91998E-05-6.82235E-07-9.53787E-19 1.46102E-18
 -1       438 9.44106E-05-2.64186E-05-2.91407E-05-1.02619E-06-3.00865E-19-1.00051E-18
 -1       439 9.46523E-05-2.68446E-05-2.90609E-05-1.22887E-06 5.27398E-19 1.90831E-19
 -1       440 9.49279E-05-2.73285E-05-2.89708E-05-1.24624E-06 2.23733E-19-4.94688E-19
 -1       441 9.52105E-05-2.78208E-05-2.88796E-05-1.07444E-06-1.17885E-18-9.92999E-19
 -1       442 5.28893E-05-3.76811E-05-6.47565E-06 4.17457E-05-6.91285E-19 2.18053E-18
 -1       443 1.14740E-05-2.27950E-05 4.55476E-06 1.73411E-07 4.55027E-19-1.47955E-18
 -1       444 2.62565E-05-2.64193E-05 1.39556E-07 2.81103E-05 2.83809E-19 4.62692E-20
 -1       445 9.26590E-05-5.12879E-05-1.78048E-05 4.19752E-05-7.83505E-19 2.37071E-18
 -1       446 1.26331E-04-5.33167E-05-3.12768E-05 3.01571E-05 1.15715E-18-1.53017E-18
 -1       447 8.93510E-05-1.18523E-05-3.32876E-05-1.06784E-05-1.12634E-18-1.36207E-18
 -1       448 1.54420E-04-2.55267E-05-5.52957E-05-1.32691E-06 2.16533E-18-7.79270E-20
 -1       449 1.57585E-04-1.53310E-05-6.08331E-05-1.57537E-06 1.41391E-18 5.29025E-19
 -1       450 1.58118E-04-1.41472E-05-6.15162E-05 1.23375E-06-4.49351E-19-1.21930E-18
 -1       451 1.60385E-04-2.74284E-05-5.66975E-05-2.45280E-06 1.24953E-18-9.52912E-22
 -1       452 1.50895E-04-4.25638E-05-4.63383E-05-1.06068E-05 1.53814E-18-1.15006E-18
 -1       453 1.32814E-04-5.43838E-05-3.36482E-05-2.50842E-05 7.08861E-19-1.27796E-18
 -1       454 1.00396E-04-5.25759E-05-2.05831E-05-4.03103E-05 1.24408E-18 4.66292E-19
 -1       455 6.57338E-05-4.35915E-05-9.60366E-06-4.32707E-05 6.28181E-19-1.10196E-18
 -1       456 2.86995E-05-2.76923E-05-4.36490E-07-3.02067E-05-6.35698E-19-3.01544E-18
 -1       457 1.32374E-05-1.96965E-05 2.83009E-06-4.79338E-06-3.67930E-19-4.13500E-18
 -1       458 1.72473E-05-2.41898E-05 2.81246E-06 1.77338E-05 4.30028E-19-2.67334E-18
 -1       459 4.45309E-05-3.65380E-05-3.65920E-06 3.85344E-05 1.73430E-19 2.05908E-18
 -1       460 8.45010E-05-4.94249E-05-1.50701E-05 4.32665E-05 3.10226E-20 3.89852E-18
 -1       461 1.18871E-04-5.59431E-05-2.70006E-05 3.30131E-05 3.74283E-19 2.69817E-18
 -1       462 1.47894E-04-4.52353E-05-4.39251E-05 1.39547E-05 3.08188E-19 1.59645E-18
 -1       463 1.58053E-04-3.10173E-05-5.42710E-05 2.41358E-06-3.18749E-19 1.54689E-18
 -1       464 1.58321E-04-1.61018E-05-6.07917E-05-2.11183E-06-8.04681E-19 1.56405E-18
 -1       465 1.60686E-04-1.43046E-05-6.24574E-05 7.44650E-07-1.08272E-18 2.38720E-18
 -1       466 1.59327E-04-2.63663E-05-5.67558E-05-5.72501E-07 8.33269E-20 2.34596E-18
 -1       467 1.52638E-04-4.16088E-05-4.74087E-05-1.03886E-05 5.82838E-19 1.28580E-18
 -1       468 1.31060E-04-5.37918E-05-3.31645E-05-2.68975E-05 7.03302E-19 7.37448E-19
 -1       469 9.89000E-05-5.32239E-05-1.96122E-05-4.08278E-05 6.13252E-19 9.02884E-20
 -1       470 5.79521E-05-4.07625E-05-7.50267E-06-4.18382E-05-6.03723E-19 8.28610E-19
 -1       471 2.02087E-05-2.67808E-05 2.45271E-06-2.25617E-05-1.19903E-18 3.59597E-18
 -1       472 1.46485E-04-4.52670E-05-4.34242E-05 1.50141E-05 1.71395E-18-2.03023E-18
 -1       473 1.46525E-04-3.84733E-05-4.65834E-05-6.77797E-06 1.20829E-18-1.18971E-18
 -1       474 4.53861E-05-3.00346E-05-6.22392E-06-3.75752E-05-5.79106E-19-5.95782E-19
 -1       475 1.37382E-04-5.76905E-05-3.42747E-05 1.50748E-05 1.32516E-18 1.31041E-18
 -1       476 9.57837E-05-2.51294E-05-3.02662E-05 6.00318E-06 1.19050E-18-3.03320E-19
 -1       477 8.95837E-05-1.33727E-05-3.26808E-05-3.90734E-06-5.79391E-19-1.44534E-18
 -1       478 9.02798E-05-1.43393E-05-3.25664E-05-5.86341E-06-8.01693E-19-1.54289E-18
 -1       479 8.90909E-05-1.26860E-05-3.27628E-05 5.44366E-08-4.45184E-20-1.30248E-18
 -1       480 8.92256E-05-1.28717E-05-3.27412E-05 2.03560E-06 1.39287E-19-1.51517E-18
 -1       481 8.96168E-05-1.34141E-05-3.26775E-05 3.98061E-06 4.03797E-19-1.39160E-18
 -1       482 9.03333E-05-1.44078E-05-3.25605E-05 5.93038E-06 8.65135E-19-1.21815E-18
 -1       483 9.14669E-05-1.59926E-05-3.23692E-05 7.75814E-06 1.09115E-18-1.07521E-18
 -1       484 9.32335E-05-1.84671E-05-3.20629E-05 9.27812E-06 1.36299E-18-8.59285E-19
 -1       485 2.54920E-05-1.47428E-05-4.01372E-06 1.37132E-05-8.29682E-19-2.10054E-18
 -1       486 9.50869E-05-2.65548E-05-2.93529E-05 2.84312E-06 1.06542E-18-3.83488E-19
 -1       487 9.54546E-05-2.44008E-05-3.04413E-05-5.81916E-06-9.32819E-19-5.07331E-19
 -1       488 9.52624E-05-2.62018E-05-2.95906E-05-2.85486E-06-8.82401E-19-4.61742E-19
 -1       489 9.49222E-05-2.71237E-05-2.90527E-05-9.53516E-07-5.87181E-19-4.20811E-19
 -1       490 9.46688E-05-2.76415E-05-2.87243E-05 2.21903E-07-5.18109E-19-3.89321E-19
 -1       491 9.45456E-05-2.79507E-05-2.85399E-05 9.32618E-07-4.90620E-19-5.86978E-19
 -1       492 9.45375E-05-2.81408E-05-2.84554E-05 1.35682E-06-6.96363E-19-1.12286E-18
 -1       493 9.46188E-05-2.82557E-05-2.84412E-05 1.61819E-06-3.33914E-19-1.38594E-18
 -1       494 9.47681E-05-2.83190E-05-2.84780E-05 1.80469E-06-3.12877E-19-1.22109E-18
 -1       495 9.49714E-05-2.83455E-05-2.85537E-05 1.98070E-06-3.79792E-19-1.17147E-18
 -1       496 9.52226E-05-2.83457E-05-2.86611E-05 2.19457E-06-1.83652E-19-8.65807E-19
 -1       497 9.55224E-05-2.83288E-05-2.87966E-05 2.48316E-06 1.80420E-19-4.86641E-19
 -1       498 9.58769E-05-2.83053E-05-2.89584E-05 2.87391E-06-1.35686E-20-8.26257E-19
 -1       499 9.62976E-05-2.82887E-05-2.91455E-05 3.38499E-06-1.98084E-19-7.95605E-19
 -1       500 9.68014E-05-2.82995E-05-2.93566E-05 4.02309E-06-5.59186E-19-5.82275E-19
 -1       501 9.74126E-05-2.83697E-05-2.95883E-05 4.77853E-06-9.74570E-19-5.40337E-19
 -1       502 9.81670E-05-2.85505E-05-2.98341E-05 5.61690E-06 1.52770E-21-9.98126E-19
 -1       503 9.91196E-05-2.89214E-05-3.00838E-05 6.46623E-06-1.55290E-19-1.21095E-18
 -1       504 1.00354E-04-2.95992E-05-3.03235E-05 7.19937E-06 5.19313E-19-5.02079E-19
 -1       505 1.01993E-04-3.07388E-05-3.05392E-05 7.61145E-06 3.31364E-19-1.19572E-18
 -1       506 1.04192E-04-3.25067E-05-3.07266E-05 7.39711E-06 1.09148E-18-1.37052E-18
 -1       507 1.07090E-04-3.49896E-05-3.09087E-05 6.14404E-06 3.10898E-19-9.77203E-19
 -1       508 1.10675E-04-3.79943E-05-3.11610E-05 3.38003E-06-8.83538E-20-6.85481E-19
 -1       509 1.14485E-04-4.07010E-05-3.16366E-05-1.22056E-06-1.81407E-19-1.35477E-18
 -1       510 1.17314E-04-4.14081E-05-3.25386E-05-7.23191E-06-1.91800E-19-1.47634E-18
 -1       511 1.17465E-04-3.81307E-05-3.40363E-05-1.27331E-05 1.71803E-19-6.58786E-19
 -1       512 1.14201E-04-3.05252E-05-3.59352E-05-1.39460E-05-3.03191E-19-7.61943E-19
 -1       513 1.09824E-04-2.25682E-05-3.74996E-05-7.90841E-06-2.12400E-19 1.60510E-19
 -1       514 1.08719E-04-2.06782E-05-3.78452E-05 3.15356E-06 4.45420E-20 3.99608E-19
 -1       515 1.12082E-04-2.65672E-05-3.67455E-05 1.21288E-05-1.48330E-19 6.85508E-19
 -1       516 1.16361E-04-3.51083E-05-3.48679E-05 1.40270E-05-2.66104E-20-3.73266E-19
 -1       517 1.17800E-04-4.05188E-05-3.31378E-05 9.94260E-06-3.27080E-19-6.82565E-19
 -1       518 1.15965E-04-4.13901E-05-3.19725E-05 3.79602E-06 6.61650E-19 1.47199E-18
 -1       519 1.12400E-04-3.93258E-05-3.13296E-05-1.56467E-06 4.77948E-19 2.17835E-18
 -1       520 1.08617E-04-3.63021E-05-3.10019E-05-5.13776E-06 9.68070E-21 3.63068E-18
 -1       521 1.05389E-04-3.35290E-05-3.08036E-05-7.01033E-06-6.75891E-19 3.92103E-18
 -1       522 1.02889E-04-3.14342E-05-3.06264E-05-7.62683E-06-7.21960E-19 2.37922E-18
 -1       523 1.01021E-04-3.00239E-05-3.04281E-05-7.43711E-06 2.20003E-19 1.00686E-18
 -1       524 9.96284E-05-2.91493E-05-3.02045E-05-6.79303E-06-6.68476E-19 2.17926E-18
 -1       525 9.85711E-05-2.86430E-05-2.99677E-05-5.93797E-06 4.35738E-20 2.91339E-18
 -1       526 9.77501E-05-2.83684E-05-2.97333E-05-5.02582E-06-4.46894E-19 1.66724E-18
 -1       527 9.70992E-05-2.82278E-05-2.95146E-05-4.14445E-06 6.90171E-19 3.55068E-19
 -1       528 9.65742E-05-2.81550E-05-2.93210E-05-3.33576E-06 4.46389E-19 9.52562E-19
 -1       529 9.61432E-05-2.81065E-05-2.91572E-05-2.61016E-06 8.96113E-20 2.89956E-18
 -1       530 9.57876E-05-2.80593E-05-2.90249E-05-1.95998E-06-1.98603E-18 3.31097E-18
 -1       531 5.11944E-05-2.59675E-05-1.02096E-05 3.42192E-05-1.13659E-18 1.37749E-18
 -1       532 9.41589E-05-2.76512E-05-2.84996E-05-2.20715E-07 5.33877E-19-5.63016E-19
 -1       533 9.40212E-05-2.78906E-05-2.83401E-05-8.92744E-07 3.39435E-19-5.50187E-19
 -1       534 9.40471E-05-2.80538E-05-2.82822E-05-1.27944E-06 4.14575E-19-2.41128E-19
 -1       535 9.41902E-05-2.81715E-05-2.82935E-05-1.50553E-06 1.36899E-19-1.22917E-19
 -1       536 9.44175E-05-2.82587E-05-2.83536E-05-1.65638E-06 1.97755E-19 7.08790E-20
 -1       537 9.47095E-05-2.83249E-05-2.84503E-05-1.79310E-06 1.82116E-19-1.23789E-19
 -1       538 9.50586E-05-2.83775E-05-2.85771E-05-1.96089E-06 7.74527E-19-3.80367E-19
 -1       539 9.54666E-05-2.84243E-05-2.87316E-05-2.19375E-06 7.67810E-19-4.69697E-19
 -1       540 9.59426E-05-2.84745E-05-2.89137E-05-2.51669E-06 2.62388E-19-1.85253E-19
 -1       541 9.65014E-05-2.85403E-05-2.91247E-05-2.94578E-06-4.21566E-19 3.74030E-19
 -1       542 9.71628E-05-2.86389E-05-2.93655E-05-3.48613E-06-1.08778E-19 5.95112E-19
 -1       543 9.79510E-05-2.87956E-05-2.96360E-05-4.12693E-06 2.16960E-19 4.10721E-19
 -1       544 9.88959E-05-2.90487E-05-2.99326E-05-4.83315E-06-2.71131E-19 1.06604E-18
 -1       545 1.00034E-04-2.94543E-05-3.02473E-05-5.53304E-06-7.65789E-19 1.10795E-18
 -1       546 1.01413E-04-3.00913E-05-3.05665E-05-6.10163E-06-5.18499E-19 8.86438E-19
 -1       547 1.03089E-04-3.10590E-05-3.08725E-05-6.34204E-06-6.26691E-19 3.23969E-19
 -1       548 1.05119E-04-3.24541E-05-3.11478E-05-5.97258E-06-6.96624E-19-1.25630E-19
 -1       549 1.07517E-04-3.43042E-05-3.13868E-05-4.63839E-06-1.56733E-19 3.54087E-19
 -1       550 1.10163E-04-3.64291E-05-3.16138E-05-1.98998E-06-6.39853E-20-1.08303E-19
 -1       551 1.12644E-04-3.82447E-05-3.19001E-05 2.10638E-06-1.64104E-20-3.69153E-19
 -1       552 1.14118E-04-3.86339E-05-3.23625E-05 7.16504E-06-9.35253E-19-1.58060E-19
 -1       553 1.13528E-04-3.63099E-05-3.31038E-05 1.15465E-05-5.10460E-19 1.37558E-20
 -1       554 1.10602E-04-3.11693E-05-3.40687E-05 1.25272E-05 3.51730E-19 6.39717E-19
 -1       555 1.06846E-04-2.53914E-05-3.49420E-05 8.11374E-06 5.40768E-19 1.58391E-18
 -1       556 1.05251E-04-2.30488E-05-3.52558E-05-6.62423E-07 1.57489E-18 1.11609E-18
 -1       557 1.07309E-04-2.60816E-05-3.48280E-05-8.99840E-06 1.66216E-18 8.74027E-19
 -1       558 1.11098E-04-3.19850E-05-3.39257E-05-1.27027E-05-4.17859E-20 9.97294E-19
 -1       559 1.13761E-04-3.68355E-05-3.29814E-05-1.10432E-05-1.08569E-18 1.09906E-18
 -1       560 1.14003E-04-3.87224E-05-3.22791E-05-6.41885E-06-8.43574E-19 3.47316E-19
 -1       561 1.12318E-04-3.80478E-05-3.18453E-05-1.43276E-06 1.46750E-18 1.95531E-18
 -1       562 1.09773E-04-3.61341E-05-3.15728E-05 2.47352E-06 1.25353E-18 2.53730E-18
 -1       563 1.07139E-04-3.40157E-05-3.13489E-05 4.92113E-06 1.68974E-18 3.90824E-18
 -1       564 1.04787E-04-3.22183E-05-3.11067E-05 6.09052E-06 9.57409E-19 2.65713E-18
 -1       565 1.02811E-04-3.08811E-05-3.08291E-05 6.34231E-06-5.89159E-19 3.16896E-18
 -1       566 1.01186E-04-2.99590E-05-3.05253E-05 6.02090E-06-2.86793E-18 9.11937E-19
 -1       567 9.98554E-05-2.93514E-05-3.02142E-05 5.39230E-06-2.07782E-18-3.49682E-20
 -1       568 9.87658E-05-2.89600E-05-2.99143E-05 4.63730E-06-1.06010E-18 3.57121E-21
 -1       569 9.78737E-05-2.87076E-05-2.96400E-05 3.86588E-06 1.72677E-18 7.80740E-19
 -1       570 9.71448E-05-2.85387E-05-2.94001E-05 3.13570E-06 1.03088E-18 1.45686E-18
 -1       571 9.65514E-05-2.84149E-05-2.91989E-05 2.46878E-06 7.40445E-19 2.17202E-18
 -1       572 9.60697E-05-2.83100E-05-2.90371E-05 1.86621E-06 1.92012E-18 1.05627E-18
 -1       573 9.56763E-05-2.82156E-05-2.89092E-05 1.31227E-06 2.59638E-19 3.12687E-18
 -1       574 9.43538E-05-2.65433E-05-2.90621E-05 1.58382E-06 2.59235E-18-6.56574E-19
 -1       575 9.40292E-05-2.61450E-05-2.90940E-05 1.19320E-06 1.07759E-18 3.21594E-19
 -1       576 9.51816E-05-2.75688E-05-2.89768E-05 1.69257E-06-2.22200E-19-1.14149E-18
 -1       577 9.47539E-05-2.70346E-05-2.90227E-05 1.75773E-06 9.88545E-19-9.74495E-19
 -1       578 9.38185E-05-2.58861E-05-2.91148E-05 6.41135E-07-3.58802E-19-1.91939E-18
 -1       579 9.37442E-05-2.57947E-05-2.91223E-05 2.46684E-09-6.27451E-19 1.14206E-18
 -1       580 9.38152E-05-2.58816E-05-2.91154E-05-6.37515E-07-6.53784E-19 2.40550E-18
 -1       581 9.40192E-05-2.61315E-05-2.90955E-05-1.18442E-06 5.62726E-19 9.21260E-19
 -1       582 9.43417E-05-2.65260E-05-2.90643E-05-1.58253E-06-2.75075E-19-7.30452E-19
 -1       583 9.47486E-05-2.70244E-05-2.90245E-05-1.76240E-06-5.68254E-19-3.17579E-19
 -1       584 9.51795E-05-2.75634E-05-2.89774E-05-1.69879E-06-2.10446E-18-7.51135E-19
 -1       585 1.20587E-04-5.96991E-05-2.60315E-05 2.80063E-05-4.41145E-19-1.15560E-18
 -1       586 9.45109E-05-2.72649E-05-2.88109E-05 9.25986E-07 6.73090E-19-4.13289E-19
 -1       587 1.39388E-04-5.66756E-05-3.56403E-05 1.07838E-05 7.97998E-19-2.12288E-18
 -1       588 8.76363E-05-4.80582E-05-1.66127E-05 4.12350E-05-1.10654E-18 1.47924E-18
 -1       589 2.58548E-05-1.46081E-05-4.18631E-06-1.34043E-05-1.49564E-18 2.22283E-18
 -1       590 3.94029E-05-2.47219E-05-5.82868E-06 3.21771E-05 3.45378E-19 5.06314E-19
 -1       591 5.86050E-05-3.44815E-05-9.90627E-06-4.04291E-05-5.66400E-19-2.24675E-18
 -1       592 1.23478E-04-6.01319E-05-2.71446E-05-2.61073E-05 1.45917E-18-1.64187E-18
 -1       593 8.92053E-05-1.28462E-05-3.27433E-05-1.92745E-06-2.73136E-19-1.47177E-18
 -1       594 1.35387E-04-1.74823E-05-5.11356E-05 1.07998E-05-4.10017E-19-1.44446E-18
 -1       595 1.35181E-04-1.68829E-05-5.12302E-05-1.06987E-05 1.57739E-18-1.03237E-18
 -1       596 3.21600E-05-1.52952E-05-6.55648E-06-1.88733E-05-2.92782E-19-3.04916E-18
 -1       597 1.33659E-04-8.29615E-06-5.43277E-05-9.01216E-07 1.22026E-18-7.09092E-19
 -1       598 1.41779E-04-3.37353E-05-4.67171E-05 1.04973E-05 1.37368E-18 2.10382E-19
 -1       599 1.41601E-04-5.34401E-05-3.80162E-05-3.45748E-06 1.19089E-18 4.54010E-19
 -1       600 9.44668E-05-5.16452E-05-1.81056E-05-4.03300E-05 6.36969E-19 1.94096E-19
 -1       601 7.48625E-05-4.21820E-05-1.36189E-05 4.19514E-05 2.58504E-19 4.45796E-18
 -1       602 2.62332E-05-1.31965E-05-4.93566E-06 9.18089E-06 6.05298E-19-3.08701E-18
 -1       603 1.45153E-04-4.07398E-05-4.51505E-05-5.29629E-06 1.91112E-20 2.39991E-18
 -1       604 1.10296E-04-5.69469E-05-2.26524E-05 3.39319E-05 2.88309E-19 2.57812E-18
 -1       605 1.39021E-04-2.10222E-05-5.10825E-05-1.11618E-05-4.14199E-19 2.36433E-18
 -1       606 1.31154E-04-8.95374E-06-5.30618E-05-2.22382E-06-1.50613E-19 3.00247E-19
 -1       607 1.36556E-04-1.42468E-05-5.29947E-05 8.82456E-06-3.27272E-19-4.25766E-19
 -1       608 1.42932E-04-3.53563E-05-4.65477E-05 9.80026E-06 1.03031E-18 1.31332E-18
 -1       609 1.42282E-04-5.38417E-05-3.80953E-05-4.41540E-06 7.51957E-19-5.53748E-20
 -1       610 1.24451E-04-6.04380E-05-2.74023E-05-2.59293E-05 1.46807E-18 1.59719E-19
 -1       611 8.88681E-05-4.88688E-05-1.68077E-05-4.12469E-05 1.61752E-18-9.46295E-19
 -1       612 9.45627E-05-2.06748E-05-3.16863E-05-9.56056E-06-1.33788E-18-6.32465E-19
 -1       613 9.61130E-05-2.31732E-05-3.12634E-05 9.57671E-06 1.34857E-18-5.99938E-20
 -1       614 9.13662E-05-1.58370E-05-3.23929E-05-7.74499E-06-9.47933E-19-1.29839E-18
 -1       615 1.26390E-04-5.99478E-05-2.84881E-05 1.98083E-05 6.48801E-19 5.22738E-19
 -1       616 9.55808E-05-2.80289E-05-2.89491E-05-1.54487E-06-2.28729E-18 2.85888E-18
 -1       617 1.39469E-04-5.20944E-05-3.76492E-05-6.95430E-07-1.11120E-19 2.15882E-18
 -1       618 9.15846E-05-1.67888E-05-3.20610E-05 2.41686E-06 1.32354E-19-1.19276E-18
 -1       619 9.13257E-05-1.63805E-05-3.21248E-05 8.32884E-07-6.18796E-20-1.43168E-18
 -1       620 9.29163E-05-1.89614E-05-3.17006E-05 5.22678E-06 8.61520E-19-8.82207E-19
 -1       621 9.40008E-05-2.09068E-05-3.13339E-05 6.10583E-06 1.21011E-18-8.20610E-19
 -1       622 1.36522E-04-4.60329E-05-3.90794E-05 9.36269E-06 1.84883E-18 2.19143E-19
 -1       623 9.52676E-05-2.40699E-05-3.05031E-05 5.11417E-06 1.07685E-18-8.04247E-19
 -1       624 3.50743E-05-1.11612E-05-9.68765E-06 4.18816E-07-1.27208E-18-6.36916E-19
 -1       625 9.54258E-05-2.56571E-05-2.98998E-05-2.36064E-06-6.68417E-19-7.30391E-19
 -1       626 9.54904E-05-2.68670E-05-2.94094E-05-7.37922E-07-5.79758E-19-8.46174E-19
 -1       627 9.54433E-05-2.75913E-05-2.90792E-05 3.36477E-07-6.52953E-19-7.66481E-19
 -1       628 9.53774E-05-2.80153E-05-2.88694E-05 1.02777E-06-6.43346E-19-8.22925E-19
 -1       629 9.53261E-05-2.82445E-05-2.87493E-05 1.47168E-06-6.47855E-19-7.09553E-19
 -1       630 9.52978E-05-2.83399E-05-2.86962E-05 1.77475E-06-2.19454E-19-7.28666E-19
 -1       631 9.52915E-05-2.83389E-05-2.86939E-05 2.01872E-06-5.53665E-19-5.34715E-19
 -1       632 9.53041E-05-2.82658E-05-2.87306E-05 2.26624E-06-2.80355E-19-5.50748E-19
 -1       633 9.53328E-05-2.81374E-05-2.87979E-05 2.56550E-06 2.73835E-21-4.81412E-19
 -1       634 9.53764E-05-2.79680E-05-2.88891E-05 2.95340E-06-1.12343E-19-4.68178E-19
 -1       635 9.54367E-05-2.77728E-05-2.89985E-05 3.45711E-06-1.14079E-19-6.49243E-19
 -1       636 9.55201E-05-2.75727E-05-2.91199E-05 4.09404E-06 6.61569E-20-6.15834E-19
 -1       637 9.56416E-05-2.74007E-05-2.92456E-05 4.87015E-06-1.04805E-18-3.40324E-19
 -1       638 9.58317E-05-2.73107E-05-2.93656E-05 5.77629E-06-6.47872E-19 4.74734E-20
 -1       639 9.61477E-05-2.73901E-05-2.94669E-05 6.78224E-06 3.33192E-20-1.56598E-19
 -1       640 9.66914E-05-2.77749E-05-2.95352E-05 7.82725E-06 3.73357E-19-6.81106E-20
 -1       641 9.76339E-05-2.86641E-05-2.95585E-05 8.80488E-06 1.47278E-19-1.70004E-19
 -1       642 9.92401E-05-3.03224E-05-2.95369E-05 9.53546E-06 5.32121E-19 2.83277E-19
 -1       643 1.01872E-04-3.30361E-05-2.95028E-05 9.71540E-06 9.14812E-19-9.01152E-19
 -1       644 1.05910E-04-3.69566E-05-2.95560E-05 8.85662E-06 6.58427E-19-6.58300E-19
 -1       645 1.11566E-04-4.18000E-05-2.99064E-05 6.21689E-06-6.38940E-19-2.15648E-19
 -1       646 1.18185E-04-4.60183E-05-3.09419E-05 8.45179E-07 1.05995E-19 1.36437E-19
 -1       647 1.23390E-04-4.65356E-05-3.29736E-05-6.68727E-06-4.53123E-19 1.55882E-19
 -1       648 1.24070E-04-3.86963E-05-3.67050E-05-1.43428E-05-2.76609E-19-8.26545E-19
 -1       649 1.19627E-04-2.46754E-05-4.10161E-05-1.45904E-05 3.34604E-19-1.38053E-18
 -1       650 1.15017E-04-1.47419E-05-4.33038E-05-3.36872E-06 4.48822E-19-2.90924E-19
 -1       651 1.16980E-04-1.89148E-05-4.23779E-05 1.05287E-05-1.02332E-19-6.44142E-20
 -1       652 1.22370E-04-3.28431E-05-3.86254E-05 1.56782E-05 2.01104E-19-2.01792E-19
 -1       653 1.24609E-04-4.42371E-05-3.45178E-05 1.06632E-05 5.23603E-19 2.14456E-18
 -1       654 1.20906E-04-4.69006E-05-3.17288E-05 2.34276E-06 5.66701E-19 2.80601E-18
 -1       655 1.14473E-04-4.39081E-05-3.02458E-05-4.21655E-06 2.37247E-19 1.03930E-18
 -1       656 1.08243E-04-3.90566E-05-2.96551E-05-7.96726E-06 8.07395E-19 1.19164E-18
 -1       657 1.03488E-04-3.46413E-05-2.95086E-05-9.51766E-06-7.12459E-19 2.32191E-18
 -1       658 1.00269E-04-3.13801E-05-2.95253E-05-9.71898E-06-1.60880E-18 1.13852E-18
 -1       659 9.82559E-05-2.92729E-05-2.95645E-05-9.17338E-06-5.68931E-19 2.94097E-19
 -1       660 9.70567E-05-2.80598E-05-2.95699E-05-8.25626E-06-4.84724E-19 8.62126E-19
 -1       661 9.63610E-05-2.74550E-05-2.95307E-05-7.19023E-06-8.91909E-19 5.59003E-19
 -1       662 9.59578E-05-2.72264E-05-2.94557E-05-6.10579E-06-1.37540E-18-4.72669E-19
 -1       663 9.57157E-05-2.72079E-05-2.93599E-05-5.07668E-06-3.76237E-20 6.45998E-19
 -1       664 9.55577E-05-2.72892E-05-2.92576E-05-4.13969E-06 8.99675E-19-2.34886E-19
 -1       665 9.54393E-05-2.73981E-05-2.91600E-05-3.30782E-06 5.80448E-19-8.72416E-19
 -1       666 9.53248E-05-2.74822E-05-2.90740E-05-2.58483E-06-1.41189E-18-1.69617E-18
 -1       667 1.32837E-04-3.25787E-05-4.33868E-05-1.46099E-05-8.16646E-19 2.09254E-18
 -1       668 9.51249E-05-2.76269E-05-2.89270E-05-2.98951E-07 3.22321E-19-5.29837E-19
 -1       669 9.50289E-05-2.83194E-05-2.85897E-05-1.72247E-06 9.71623E-20 3.74918E-20
 -1       670 9.50946E-05-2.83504E-05-2.86046E-05-1.94161E-06 2.43155E-19-3.93919E-20
 -1       671 9.51967E-05-2.83264E-05-2.86586E-05-2.15768E-06 5.49308E-19-7.81974E-20
 -1       672 9.53315E-05-2.82623E-05-2.87437E-05-2.41878E-06 5.81365E-19 1.40799E-19
 -1       673 9.54993E-05-2.81707E-05-2.88548E-05-2.76120E-06 3.35144E-19 5.43278E-19
 -1       674 9.57046E-05-2.80657E-05-2.89876E-05-3.21090E-06-3.30852E-19 7.33699E-19
 -1       675 9.59573E-05-2.79661E-05-2.91385E-05-3.78339E-06-5.21432E-19 1.36193E-19
 -1       676 9.62745E-05-2.79008E-05-2.93023E-05-4.48145E-06 2.00637E-19-5.45119E-20
 -1       677 9.66856E-05-2.79158E-05-2.94720E-05-5.29026E-06-3.79785E-19 4.61161E-19
 -1       678 9.72400E-05-2.80830E-05-2.96380E-05-6.16960E-06-6.97233E-19 8.97291E-19
 -1       679 9.80188E-05-2.85118E-05-2.97883E-05-7.04242E-06-4.05975E-19 1.00282E-19
 -1       680 9.91502E-05-2.93572E-05-2.99114E-05-7.77825E-06-3.65299E-19-1.18520E-19
 -1       681 1.00820E-04-3.08141E-05-3.00038E-05-8.17031E-06-1.78170E-19-4.53423E-19
 -1       682 1.03262E-04-3.30732E-05-3.00836E-05-7.90696E-06-6.20669E-19-3.04519E-19
 -1       683 1.06679E-04-3.61889E-05-3.02146E-05-6.54681E-06-1.74422E-19-1.72173E-19
 -1       684 1.11038E-04-3.98031E-05-3.05368E-05-3.55999E-06-6.04175E-19 9.68535E-19
 -1       685 1.15703E-04-4.27442E-05-3.12803E-05 1.44140E-06-2.90443E-19 1.00242E-18
 -1       686 1.19118E-04-4.27955E-05-3.27290E-05 8.01813E-06-5.22889E-19 6.21196E-20
 -1       687 1.18749E-04-3.74319E-05-3.48665E-05 1.34168E-05-1.34055E-19-1.03409E-18
 -1       688 1.14400E-04-2.72590E-05-3.74744E-05 1.37469E-05-5.67320E-19-9.55165E-19
 -1       689 1.10222E-04-1.87914E-05-3.93924E-05 5.27636E-06 1.77579E-18-1.44493E-18
 -1       690 1.10518E-04-1.92220E-05-3.93780E-05-6.96739E-06 8.36008E-19-1.32433E-18
 -1       691 1.15663E-04-2.88856E-05-3.72651E-05-1.43622E-05 3.28126E-19-8.24534E-20
 -1       692 1.19054E-04-3.86240E-05-3.44991E-05-1.28043E-05-6.12999E-19-3.70437E-19
 -1       693 1.18797E-04-4.30717E-05-3.24883E-05-7.06100E-06-2.88845E-19-5.54168E-19
 -1       694 1.15046E-04-4.24087E-05-3.11383E-05-5.93958E-07-2.59959E-19-1.01020E-18
 -1       695 1.10389E-04-3.93084E-05-3.04647E-05 4.12225E-06 1.10492E-18-6.82182E-19
 -1       696 1.06129E-04-3.57006E-05-3.01883E-05 6.85052E-06 6.10383E-19 5.17936E-19
 -1       697 1.02858E-04-3.26918E-05-3.00738E-05 8.01482E-06 1.29638E-18 1.53112E-18
 -1       698 1.00541E-04-3.05474E-05-2.99985E-05 8.15088E-06-4.91225E-19 1.69204E-18
 -1       699 9.89629E-05-2.91780E-05-2.99080E-05 7.67490E-06-1.46101E-18 2.23186E-18
 -1       700 9.78948E-05-2.83861E-05-2.97890E-05 6.87872E-06-1.51106E-18 1.65059E-18
 -1       701 9.71590E-05-2.79789E-05-2.96478E-05 5.95234E-06-2.07802E-18 1.15028E-18
 -1       702 9.66342E-05-2.78054E-05-2.94972E-05 5.01207E-06 6.23416E-19 1.92169E-18
 -1       703 9.62428E-05-2.77585E-05-2.93496E-05 4.12246E-06 8.39370E-19 1.54968E-18
 -1       704 9.59357E-05-2.77660E-05-2.92148E-05 3.31324E-06 1.35851E-19 2.17946E-18
 -1       705 9.56807E-05-2.77806E-05-2.90989E-05 2.58989E-06 2.63561E-18 1.38255E-18
 -1       706 9.54006E-05-2.76700E-05-2.90265E-05 2.13243E-06-4.12384E-20-8.52181E-20
 -1       707 9.32221E-05-2.55090E-05-2.90203E-05 4.17584E-07 1.38001E-19-1.27010E-19
 -1       708 9.52558E-05-2.75328E-05-2.90237E-05-2.13395E-06-1.80787E-18-2.33335E-18
 -1       709 9.38332E-05-2.61037E-05-2.90271E-05 1.80243E-06 1.39291E-18-2.41787E-18
 -1       710 9.32187E-05-2.55046E-05-2.90208E-05-4.06557E-07-2.41713E-19 1.52190E-18
 -1       711 9.34350E-05-2.57163E-05-2.90226E-05 1.18647E-06-4.57352E-19-8.37074E-19
 -1       712 8.08081E-05-3.71979E-05-1.84017E-05 3.38058E-05-2.40295E-18 3.69809E-19
 -1       713 9.34210E-05-2.56992E-05-2.90239E-05-1.16774E-06 7.94416E-19 3.46486E-18
 -1       714 9.38119E-05-2.60783E-05-2.90291E-05-1.79469E-06 1.00266E-19-1.48879E-18
 -1       715 9.43448E-05-2.65995E-05-2.90342E-05-2.20680E-06 3.28050E-19-1.36716E-18
 -1       716 9.52475E-05-2.69842E-05-2.92534E-05 8.18216E-07 7.28157E-19-6.45117E-19
 -1       717 1.29308E-04-2.46120E-05-4.53025E-05 1.44972E-05 3.89847E-19-2.23537E-19
 -1       718 1.31394E-04-5.82720E-05-3.13809E-05 9.27334E-06 3.62437E-20-2.14588E-18
 -1       719 6.84753E-05-3.39847E-05-1.43751E-05-3.66252E-05 5.83050E-19-2.98598E-18
 -1       720 9.53427E-05-2.59060E-05-2.97551E-05 2.54087E-06 9.03608E-19-7.24905E-19
 -1       721 4.03280E-05-1.11826E-05-1.20096E-05-2.50960E-06 8.99794E-19-3.14024E-18
 -1       722 4.68675E-05-1.67393E-05-1.24442E-05 2.08920E-05-1.69587E-18-1.01906E-18
 -1       723 9.50066E-05-2.82133E-05-2.86256E-05-1.43681E-06 2.46855E-19 5.04901E-20
 -1       724 9.50369E-05-2.80004E-05-2.87296E-05-1.00016E-06 2.14394E-19-3.59057E-19
 -1       725 9.50152E-05-2.35964E-05-3.06050E-05-4.67983E-06-8.10675E-19-8.44031E-19
 -1       726 1.27926E-04-2.79511E-05-4.32489E-05 1.54222E-05 4.78785E-19-3.01845E-18
 -1       727 1.30047E-04-3.12448E-05-4.27268E-05-1.53955E-05 2.74412E-19-2.07640E-18
 -1       728 1.12168E-04-5.50268E-05-2.43897E-05-2.72034E-05 9.51509E-19 5.09441E-19
 -1       729 4.56337E-05-1.77387E-05-1.14098E-05-2.35847E-05 6.00838E-19 8.49045E-19
 -1       730 1.36705E-04-4.89240E-05-3.79157E-05-6.19353E-06 6.33660E-19-2.99249E-18
 -1       731 9.21083E-05-1.76265E-05-3.19266E-05 3.91510E-06 4.88429E-19-8.71931E-19
 -1       732 1.20476E-04-1.28662E-05-4.66654E-05-6.71918E-06 1.41259E-18-9.21009E-19
 -1       733 1.35286E-04-4.47570E-05-3.91168E-05 9.54894E-06 1.38036E-18-1.16846E-18
 -1       734 5.62895E-05-2.43726E-05-1.32245E-05-3.05568E-05-5.51657E-19-2.08698E-18
 -1       735 1.32379E-04-5.81169E-05-3.19346E-05-8.41837E-06 1.20794E-18-2.47704E-19
 -1       736 9.20542E-05-1.75528E-05-3.19356E-05-3.85671E-06-6.17598E-19-1.41199E-18
 -1       737 1.10804E-04-5.51352E-05-2.37516E-05-2.92923E-05 5.13170E-19-1.73816E-18
 -1       738 6.27840E-05-2.95469E-05-1.38220E-05 3.43730E-05 5.65633E-19 3.25332E-18
 -1       739 8.34783E-05-4.20978E-05-1.74018E-05-3.75212E-05-6.77891E-19-9.17231E-19
 -1       740 4.44955E-05-1.61674E-05-1.16291E-05 2.01919E-05 9.29830E-19-7.48512E-19
 -1       741 1.20741E-04-1.29171E-05-4.67436E-05 7.19694E-06 1.16684E-18-2.24026E-18
 -1       742 1.05536E-04-5.18479E-05-2.28761E-05 3.01166E-05-1.48518E-18 2.46937E-19
 -1       743 1.21648E-04-1.21253E-05-4.74835E-05 5.62178E-06 4.00752E-20-3.95286E-19
 -1       744 9.71698E-05-4.80638E-05-2.07534E-05 3.37855E-05 5.00279E-20 3.00183E-18
 -1       745 1.33440E-04-5.84162E-05-3.21545E-05-7.37819E-06 1.42864E-18 6.11981E-20
 -1       746 1.23205E-04-1.56665E-05-4.66117E-05-1.02997E-05 7.75459E-19-1.33143E-19
 -1       747 9.28271E-05-1.88379E-05-3.17179E-05-5.19398E-06-8.41420E-19-1.30654E-18
 -1       748 9.13143E-05-1.63671E-05-3.21261E-05-7.69673E-07-1.56185E-19-1.24844E-18
 -1       749 9.43712E-05-2.66283E-05-2.90331E-05 2.18338E-06 1.29461E-18 6.61754E-20
 -1       750 9.48909E-05-2.71423E-05-2.90351E-05 2.26262E-06 1.28360E-18-3.30252E-19
 -1       751 1.32515E-04-5.78586E-05-3.22032E-05 6.65644E-06 1.99887E-19 8.22853E-19
 -1       752 5.27214E-05-1.57995E-05-1.55113E-05-1.63982E-05 4.09504E-19-1.50347E-18
 -1       753 1.11980E-04-5.37615E-05-2.49057E-05 2.52303E-05 9.02619E-20 7.96886E-19
 -1       754 9.38962E-05-4.38215E-05-2.11934E-05-3.14197E-05 1.62200E-19 3.78776E-19
 -1       755 9.41761E-05-2.12739E-05-3.12468E-05-6.12322E-06-8.85275E-19-9.78051E-19
 -1       756 7.01919E-05-2.68425E-05-1.83334E-05 2.73290E-05-3.05750E-18 5.04713E-19
 -1       757 1.33970E-04-4.50284E-05-3.83388E-05-1.12105E-05-6.65503E-19 1.30425E-18
 -1       758 9.15518E-05-1.67463E-05-3.20658E-05-2.34774E-06-3.16616E-19-1.10990E-18
 -1       759 9.46872E-05-2.27105E-05-3.08442E-05 3.84554E-06 8.72061E-19-7.01384E-19
 -1       760 9.58619E-05-2.67370E-05-2.96251E-05-4.07889E-07-6.23242E-19-1.06850E-18
 -1       761 9.59358E-05-2.75569E-05-2.93053E-05 4.83771E-07-6.90850E-19-1.05320E-18
 -1       762 9.58965E-05-2.80284E-05-2.90864E-05 1.08530E-06-6.81207E-19-1.24309E-18
 -1       763 9.57957E-05-2.82538E-05-2.89466E-05 1.49720E-06-2.12292E-19-1.16370E-18
 -1       764 9.56588E-05-2.83000E-05-2.88681E-05 1.80479E-06-2.75494E-19-1.14164E-18
 -1       765 9.54967E-05-2.82114E-05-2.88366E-05 2.07709E-06-1.60180E-19-6.69127E-19
 -1       766 9.53122E-05-2.80182E-05-2.88402E-05 2.36888E-06-2.24343E-19-5.68732E-19
 -1       767 9.51036E-05-2.77424E-05-2.88690E-05 2.72320E-06-2.46809E-20-5.52266E-19
 -1       768 9.48677E-05-2.74027E-05-2.89135E-05 3.17349E-06-4.02569E-19-9.75609E-19
 -1       769 9.46026E-05-2.70203E-05-2.89637E-05 3.74498E-06-3.92014E-19-1.17109E-18
 -1       770 9.43113E-05-2.66247E-05-2.90084E-05 4.45553E-06-1.75059E-19-8.66187E-19
 -1       771 9.40089E-05-2.62628E-05-2.90339E-05 5.31601E-06-5.42279E-19 8.15576E-21
 -1       772 9.37329E-05-2.60107E-05-2.90236E-05 6.33044E-06 9.52009E-21 8.93013E-19
 -1       773 9.35604E-05-2.59895E-05-2.89586E-05 7.49601E-06-1.43743E-19 1.04736E-18
 -1       774 9.36340E-05-2.63858E-05-2.88203E-05 8.80148E-06 2.29815E-19 7.39422E-19
 -1       775 9.42007E-05-2.74734E-05-2.85974E-05 1.02190E-05 4.86646E-19 1.18896E-18
 -1       776 9.56656E-05-2.96315E-05-2.83001E-05 1.16728E-05 2.62401E-19 1.38243E-18
 -1       777 9.86374E-05-3.33111E-05-2.79928E-05 1.29200E-05 7.92545E-19 9.87728E-19
 -1       778 1.03810E-04-3.87743E-05-2.78651E-05 1.34084E-05 1.63244E-20 5.90278E-19
 -1       779 1.11964E-04-4.58950E-05-2.83180E-05 1.19123E-05-2.50663E-19 4.42681E-19
 -1       780 1.22900E-04-5.29025E-05-2.99471E-05 6.71512E-06-3.15594E-19-4.81687E-19
 -1       781 1.27088E-04-5.29771E-05-3.18326E-05-1.26374E-06 1.00745E-18 6.78980E-19
 -1       782 1.17024E-04-4.90464E-05-2.91472E-05-9.00279E-06 2.51827E-19 2.25795E-18
 -1       783 1.07602E-04-4.19474E-05-2.81313E-05-1.24971E-05 1.42617E-19 2.90617E-18
 -1       784 1.01163E-04-3.57188E-05-2.80484E-05-1.29469E-05-1.28180E-20 1.33296E-18
 -1       785 9.72369E-05-3.12487E-05-2.82813E-05-1.20954E-05-1.65918E-18 1.04827E-18
 -1       786 9.51202E-05-2.84474E-05-2.85737E-05-1.07836E-05-1.63236E-18 1.21124E-18
 -1       787 9.41403E-05-2.68929E-05-2.88197E-05-9.37768E-06 4.58255E-19 2.05965E-18
 -1       788 9.38163E-05-2.61755E-05-2.89883E-05-8.01827E-06-6.72789E-19 1.61354E-18
 -1       789 9.38370E-05-2.59754E-05-2.90830E-05-6.75926E-06-1.31676E-18 2.34095E-18
 -1       790 9.40153E-05-2.60670E-05-2.91202E-05-5.62118E-06 1.67983E-19 2.26612E-18
 -1       791 9.42437E-05-2.62976E-05-2.91195E-05-4.61494E-06 4.37823E-19 1.78066E-18
 -1       792 9.44660E-05-2.65680E-05-2.90983E-05-3.73693E-06-6.68535E-19-1.06912E-18
 -1       793 9.46313E-05-2.68100E-05-2.90668E-05-2.96520E-06-9.58505E-19-3.26340E-18
 -1       794 9.55261E-05-2.83335E-05-2.87968E-05-1.81220E-06 1.63250E-19-1.95565E-19
 -1       795 9.52532E-05-2.79532E-05-2.88428E-05-2.68022E-06 5.85414E-20-1.36763E-19
 -1       796 9.51553E-05-2.77026E-05-2.89082E-05-3.10466E-06-3.45878E-19 1.19099E-19
 -1       797 9.50552E-05-2.74231E-05-2.89850E-05-3.64599E-06 3.02946E-19 2.95884E-19
 -1       798 9.49604E-05-2.71430E-05-2.90644E-05-4.31979E-06 2.38418E-20-3.99688E-19
 -1       799 9.48906E-05-2.69065E-05-2.91358E-05-5.13151E-06-5.41070E-19 4.60421E-19
 -1       800 9.48862E-05-2.67844E-05-2.91862E-05-6.07352E-06-4.51756E-19 4.19253E-19
 -1       801 9.50231E-05-2.68870E-05-2.92009E-05-7.12188E-06-8.21861E-19-1.90800E-19
 -1       802 9.54350E-05-2.73807E-05-2.91658E-05-8.22902E-06-3.96502E-19 2.01158E-19
 -1       803 9.63404E-05-2.85013E-05-2.90737E-05-9.30848E-06-1.91939E-19 1.07699E-18
 -1       804 9.80709E-05-3.05498E-05-2.89374E-05-1.02018E-05-8.13467E-19 1.16498E-18
 -1       805 1.01074E-04-3.38385E-05-2.88151E-05-1.06113E-05-8.57656E-19 8.97800E-19
 -1       806 1.05851E-04-3.85161E-05-2.88546E-05-9.95638E-06-9.58331E-19 9.35980E-19
 -1       807 1.12559E-04-4.40288E-05-2.93699E-05-7.26854E-06-2.63149E-19 2.93878E-19
 -1       808 1.20462E-04-4.84350E-05-3.08702E-05-1.38262E-06 3.01825E-19 3.26963E-19
 -1       809 1.26642E-04-4.78867E-05-3.38622E-05 7.79673E-06 6.15270E-19-9.37212E-19
 -1       810 1.25737E-04-4.84041E-05-3.32413E-05-6.39885E-06-3.28669E-19-3.18200E-18
 -1       811 1.18840E-04-4.75647E-05-3.05832E-05 2.34516E-06-3.42638E-19-2.07295E-18
 -1       812 1.11596E-04-4.33561E-05-2.92416E-05 7.67782E-06-3.00425E-19-4.59253E-19
 -1       813 1.05101E-04-3.77563E-05-2.88631E-05 1.00830E-05 2.80954E-19 1.38517E-18
 -1       814 1.00649E-04-3.33125E-05-2.88580E-05 1.05642E-05 3.43129E-19 4.61859E-20
 -1       815 9.78449E-05-3.02071E-05-2.89879E-05 1.00742E-05 7.83796E-19 9.85915E-19
 -1       816 9.62453E-05-2.82941E-05-2.91219E-05 9.13732E-06-2.24204E-18 1.13546E-18
 -1       817 9.54142E-05-2.72547E-05-2.92109E-05 8.02812E-06-1.17519E-18 2.17398E-18
 -1       818 9.50367E-05-2.67936E-05-2.92467E-05 6.89001E-06-1.86608E-18 2.79848E-18
 -1       819 9.49065E-05-2.66825E-05-2.92385E-05 5.79964E-06-1.11608E-18 5.80802E-19
 -1       820 9.48971E-05-2.67605E-05-2.92011E-05 4.79747E-06 1.06650E-18 1.35316E-18
 -1       821 9.49326E-05-2.69187E-05-2.91487E-05 3.90054E-06 1.15002E-18 7.07338E-19
 -1       822 9.49719E-05-2.70859E-05-2.90938E-05 3.11099E-06 1.96907E-18-2.37031E-18
 -1       823 9.49234E-05-2.71172E-05-2.90602E-05 2.66850E-06 8.15133E-19-3.59605E-19
 -1       824 9.32093E-05-1.96671E-05-3.15192E-05 1.20755E-06 4.21745E-20-1.10676E-18
 -1       825 9.79896E-05-4.23720E-05-2.37595E-05 2.48598E-05-2.95188E-18-1.30989E-19
 -1       826 9.24848E-05-2.50142E-05-2.89162E-05 1.16704E-08 3.20247E-19 3.20548E-19
 -1       827 9.37042E-05-2.60335E-05-2.90007E-05-2.51558E-06 9.92444E-19-1.84593E-18
 -1       828 9.26230E-05-2.51281E-05-2.89267E-05-9.73450E-07 3.81177E-19 3.79574E-18
 -1       829 9.56993E-05-2.67977E-05-2.95296E-05 5.33266E-07 3.97405E-19-4.53436E-19
 -1       830 6.40731E-05-2.30617E-05-1.73235E-05 2.50990E-05 7.06280E-19 2.12906E-18
 -1       831 9.30361E-05-2.54765E-05-2.89541E-05-1.84834E-06 4.92760E-19 7.46335E-19
 -1       832 9.53472E-05-2.81545E-05-2.87968E-05-2.34804E-06 5.03842E-19-1.41325E-19
 -1       833 9.54378E-05-2.82882E-05-2.87784E-05-2.07376E-06 3.23538E-19-2.46903E-19
 -1       834 5.14151E-05-1.27724E-05-1.62753E-05 6.01420E-06-1.18565E-18-2.44430E-18
 -1       835 9.56111E-05-2.82624E-05-2.88637E-05-1.50522E-06-7.45852E-20-2.73616E-19
 -1       836 9.55746E-05-2.54047E-05-3.00724E-05-1.69191E-06-5.81445E-19-1.20934E-18
 -1       837 9.56863E-05-2.80335E-05-2.89941E-05-1.07840E-06-1.16249E-19-5.67421E-19
 -1       838 7.68766E-05-3.28671E-05-1.86206E-05-3.08537E-05-7.31214E-19-1.14696E-18
 -1       839 6.60056E-05-2.61203E-05-1.68022E-05-2.86089E-05 7.59219E-19-2.39353E-18
 -1       840 9.49075E-05-2.33336E-05-3.06742E-05-3.43460E-06-5.93377E-19-1.34714E-18
 -1       841 8.74516E-05-3.78161E-05-2.10765E-05 2.93855E-05-1.27181E-19 2.38158E-18
 -1       842 5.23939E-05-1.37759E-05-1.62895E-05 1.00730E-05 9.54973E-19-2.45432E-18
 -1       843 9.52153E-05-2.44254E-05-3.03383E-05 3.36024E-06 8.58085E-19-6.26624E-19
 -1       844 1.18624E-04-5.27482E-05-2.82020E-05 1.37097E-05-1.44582E-18-2.87331E-18
 -1       845 9.84153E-05-4.59405E-05-2.23517E-05-2.95316E-05-1.11001E-19-2.23640E-18
 -1       846 9.57329E-05-2.75824E-05-2.92074E-05-4.37653E-07 1.02717E-19-5.87484E-19
 -1       847 9.40465E-05-2.12631E-05-3.11929E-05-4.41163E-06-8.02809E-19-1.29913E-18
 -1       848 5.25661E-05-1.38626E-05-1.63078E-05-1.13530E-05-8.82418E-19-6.54915E-19
 -1       849 1.21359E-04-5.52939E-05-2.82588E-05-1.49453E-05 1.29685E-18-8.86509E-19
 -1       850 9.30994E-05-1.94644E-05-3.15582E-05 2.22758E-08-2.20845E-19-1.18174E-18
 -1       851 9.37329E-05-2.60705E-05-2.89977E-05 2.50774E-06 8.40099E-20 4.59033E-19
 -1       852 6.44856E-05-1.85879E-05-1.95295E-05 1.63452E-05-2.42652E-18-1.38266E-18
 -1       853 9.33232E-05-1.98838E-05-3.14766E-05-3.50029E-06-6.19348E-19-1.25426E-18
 -1       854 5.47415E-05-1.30868E-05-1.76654E-05-2.99577E-06-1.23647E-19-2.05690E-18
 -1       855 9.30704E-05-2.55114E-05-2.89541E-05 1.87449E-06 6.56983E-19-2.53752E-18
 -1       856 9.35297E-05-2.02656E-05-3.14001E-05 2.31466E-06 2.78787E-19-7.27062E-19
 -1       857 8.76542E-05-3.39605E-05-2.29315E-05 2.40400E-05-3.89878E-18 1.16682E-18
 -1       858 9.26393E-05-2.51463E-05-2.89258E-05 1.00651E-06 9.48812E-19-7.11739E-19
 -1       859 6.74245E-05-2.27157E-05-1.89907E-05-2.24406E-05 9.43317E-20-1.14860E-18
 -1       860 1.21580E-04-5.51119E-05-2.82984E-05 1.39434E-05-7.22730E-20 9.98572E-20
 -1       861 9.55574E-05-2.58573E-05-2.98731E-05 1.73632E-06 6.85776E-19-7.59357E-19
 -1       862 9.40368E-05-2.12721E-05-3.11859E-05 3.24740E-06 5.85901E-19-5.46357E-19
 -1       863 1.04675E-04-4.44649E-05-2.57283E-05-2.05024E-05 6.50680E-19 6.18129E-19
 -1       864 1.01108E-04-4.54329E-05-2.38044E-05 2.56436E-05-1.07827E-18 9.64635E-19
 -1       865 9.28153E-05-1.89656E-05-3.16526E-05-2.32777E-06-3.08493E-19-9.52855E-19
 -1       866 9.62457E-05-2.75686E-05-2.94331E-05 5.93616E-07-6.35436E-19-7.45009E-19
 -1       867 9.61864E-05-2.80196E-05-2.92144E-05 1.06984E-06-7.32042E-19-4.94646E-19
 -1       868 9.60123E-05-2.81939E-05-2.90651E-05 1.41614E-06-2.66160E-19-1.06665E-18
 -1       869 9.57552E-05-2.81582E-05-2.89702E-05 1.69677E-06-1.47186E-19-1.02151E-18
 -1       870 9.54305E-05-2.79593E-05-2.89162E-05 1.96561E-06-2.91682E-19-1.07496E-18
 -1       871 9.50424E-05-2.76302E-05-2.88910E-05 2.26645E-06-3.12793E-19-1.45087E-18
 -1       872 9.45880E-05-2.71959E-05-2.88824E-05 2.63444E-06-5.22034E-19-1.78540E-18
 -1       873 9.40607E-05-2.66789E-05-2.88779E-05 3.09782E-06-1.29378E-19-1.16052E-18
 -1       874 9.34535E-05-2.61049E-05-2.88637E-05 3.67973E-06 1.61927E-19-9.33434E-19
 -1       875 9.27642E-05-2.55102E-05-2.88231E-05 4.40102E-06 1.63010E-19-6.65993E-19
 -1       876 9.20027E-05-2.49509E-05-2.87364E-05 5.28358E-06 1.68069E-19-2.34385E-19
 -1       877 9.12017E-05-2.45153E-05-2.85798E-05 6.35655E-06-1.75358E-19 2.53100E-19
 -1       878 9.04349E-05-2.43405E-05-2.83259E-05 7.66554E-06 2.10537E-19 1.04928E-19
 -1       879 8.98467E-05-2.46358E-05-2.79471E-05 9.28331E-06 6.34146E-19 1.90332E-19
 -1       880 8.96953E-05-2.57098E-05-2.74234E-05 1.13144E-05 8.02355E-19 2.56372E-19
 -1       881 9.04435E-05-2.80413E-05-2.67471E-05 1.39177E-05 4.91206E-19 9.27490E-19
 -1       882 9.29184E-05-3.23779E-05-2.59572E-05 1.72018E-05 8.07520E-19 1.36483E-18
 -1       883 9.83712E-05-3.90963E-05-2.53370E-05 2.05045E-05-9.36828E-19 1.30009E-18
 -1       884 9.31433E-05-2.55863E-05-2.89537E-05-3.17953E-06-8.07975E-19-3.56213E-18
 -1       885 9.57624E-05-2.54163E-05-3.01483E-05-1.03794E-06-4.90601E-19-1.05494E-18
 -1       886 9.65566E-05-3.60751E-05-2.59080E-05-1.82548E-05-3.83131E-19 1.62960E-18
 -1       887 9.23863E-05-3.04259E-05-2.65532E-05-1.52916E-05-7.39406E-19 5.71728E-19
 -1       888 9.06413E-05-2.70927E-05-2.72340E-05-1.25686E-05-9.50157E-19 4.94972E-19
 -1       889 9.02166E-05-2.53255E-05-2.78094E-05-1.03325E-05-3.66512E-19 2.27909E-18
 -1       890 9.04878E-05-2.45766E-05-2.82472E-05-8.52178E-06-9.74288E-19 1.45789E-18
 -1       891 9.10798E-05-2.44492E-05-2.85558E-05-7.03904E-06-7.55292E-19 7.31690E-19
 -1       892 9.17840E-05-2.46770E-05-2.87596E-05-5.80443E-06-5.50906E-19 8.61098E-19
 -1       893 9.24666E-05-2.50682E-05-2.88833E-05-4.77747E-06-1.28313E-18-9.33948E-19
 -1       894 9.27908E-05-2.53060E-05-2.89222E-05-3.92760E-06-1.70234E-18-4.02736E-18
 -1       895 9.43425E-05-2.65928E-05-2.90350E-05 2.67917E-06-3.99853E-19-6.52309E-19
 -1       896 9.48627E-05-2.74748E-05-2.88805E-05-2.71396E-06 5.56251E-20 1.82854E-19
 -1       897 9.35825E-05-2.61221E-05-2.89115E-05-4.48913E-06-7.46203E-19 1.37113E-19
 -1       898 9.30896E-05-2.57081E-05-2.88776E-05-5.36779E-06-6.73192E-19 3.41463E-19
 -1       899 9.26203E-05-2.54380E-05-2.87922E-05-6.41456E-06-4.69186E-19 7.15474E-19
 -1       900 9.22661E-05-2.54511E-05-2.86347E-05-7.64642E-06-7.14023E-19 8.17021E-20
 -1       901 9.21927E-05-2.59569E-05-2.83864E-05-9.08408E-06-6.26400E-19 3.83879E-19
 -1       902 9.26835E-05-2.72583E-05-2.80389E-05-1.07427E-05-3.63089E-19 2.39149E-19
 -1       903 9.41983E-05-2.97661E-05-2.76115E-05-1.25911E-05-3.15394E-20 1.59975E-19
 -1       904 9.74207E-05-3.39574E-05-2.71901E-05-1.44327E-05-1.01975E-18-7.00799E-19
 -1       905 1.03438E-04-4.03444E-05-2.70378E-05-1.56035E-05-6.53556E-19-9.15957E-19
 -1       906 1.10762E-04-4.75815E-05-2.70284E-05-1.65995E-05-2.29599E-19-1.06385E-18
 -1       907 1.02569E-04-3.93711E-05-2.70396E-05 1.55795E-05-1.41058E-18-4.31135E-19
 -1       908 9.69569E-05-3.33084E-05-2.72739E-05 1.42127E-05 1.90197E-19 2.22026E-18
 -1       909 9.40137E-05-2.93520E-05-2.77103E-05 1.23105E-05-6.34367E-19 4.36822E-18
 -1       910 9.26606E-05-2.70236E-05-2.81299E-05 1.04875E-05-9.55054E-19 6.25425E-18
 -1       911 9.22499E-05-2.58249E-05-2.84677E-05 8.84747E-06-1.77582E-18 5.05024E-18
 -1       912 9.23515E-05-2.53618E-05-2.87098E-05 7.41335E-06-1.08335E-18 3.57333E-18
 -1       913 9.26989E-05-2.53423E-05-2.88670E-05 6.16602E-06 1.67193E-19 1.91009E-18
 -1       914 9.31350E-05-2.55645E-05-2.89587E-05 5.08229E-06 4.21291E-19 1.37033E-18
 -1       915 9.35706E-05-2.58915E-05-2.90051E-05 4.15055E-06 2.19555E-18 2.18341E-19
 -1       916 9.51973E-05-2.78283E-05-2.88724E-05-2.34570E-06 2.91754E-19 1.01996E-19
 -1       917 9.16563E-05-2.44535E-05-2.88016E-05-5.89067E-07-3.06685E-19 1.20577E-18
 -1       918 9.61345E-05-2.67463E-05-2.97379E-05-8.55204E-08-4.49469E-19-8.73944E-19
 -1       919 9.40536E-05-2.65903E-05-2.89128E-05-3.76464E-06 1.54338E-19-2.53856E-19
 -1       920 8.61059E-05-3.35202E-05-2.24512E-05-2.48614E-05 5.17980E-20 4.05980E-21
 -1       921 9.28729E-05-1.90684E-05-3.16321E-05-1.10637E-06-2.48486E-19-1.19402E-18
 -1       922 9.59354E-05-2.82318E-05-2.90158E-05-1.47575E-06-1.13501E-19-5.00557E-19
 -1       923 9.60188E-05-2.67497E-05-2.96871E-05 2.00539E-07 3.46175E-19-4.76467E-19
 -1       924 6.63040E-05-1.90045E-05-2.01554E-05 1.60687E-05 3.21816E-19 5.78186E-19
 -1       925 8.04267E-05-2.90973E-05-2.19474E-05 2.32120E-05 2.17284E-20 1.76641E-18
 -1       926 9.60733E-05-2.80331E-05-2.91602E-05-1.09954E-06-2.68363E-19-4.40350E-19
 -1       927 9.43461E-05-2.19507E-05-3.10267E-05-2.96040E-06-4.88735E-19-1.17780E-18
 -1       928 6.96753E-05-2.11384E-05-2.07124E-05-1.86108E-05 3.61842E-20-2.32512E-18
 -1       929 9.52126E-05-2.39273E-05-3.05514E-05-1.93051E-06-3.72239E-19-1.13534E-18
 -1       930 9.06839E-05-3.72649E-05-2.27792E-05-2.57326E-05-3.27438E-19-2.48603E-18
 -1       931 9.61203E-05-2.75730E-05-2.93775E-05-5.68608E-07 3.12581E-20-1.98583E-19
 -1       932 6.03625E-05-1.39026E-05-1.98115E-05-2.46447E-06-1.79721E-18-1.90109E-18
 -1       933 9.44819E-05-2.70534E-05-2.88979E-05-3.17923E-06-4.52077E-20-3.51772E-19
 -1       934 9.16717E-05-2.44688E-05-2.88013E-05 6.47064E-07 2.28602E-19-1.13789E-18
 -1       935 7.83577E-05-2.51042E-05-2.27802E-05 1.88074E-05-1.35248E-18 2.04416E-19
 -1       936 9.38874E-05-2.61820E-05-2.90163E-05 3.27264E-06 2.91858E-18-6.61825E-19
 -1       937 9.57355E-05-2.82355E-05-2.89286E-05-1.77041E-06 1.30329E-19-4.05139E-19
 -1       938 9.29105E-05-2.54241E-05-2.89231E-05 2.69963E-06 1.93044E-18-1.54781E-18
 -1       939 9.54880E-05-2.80902E-05-2.88847E-05-2.04416E-06 4.15232E-19-1.81977E-19
 -1       940 6.26709E-05-1.51217E-05-2.02874E-05 6.64394E-06 2.54434E-19-1.89791E-18
 -1       941 9.20331E-05-2.47372E-05-2.88412E-05-1.76346E-06-4.81846E-19 4.21837E-18
 -1       942 6.27174E-05-1.64564E-05-1.97178E-05-1.16809E-05 1.77402E-19-1.61434E-18
 -1       943 9.45097E-05-2.20963E-05-3.10344E-05 4.11619E-07-1.81533E-19-8.92867E-19
 -1       944 9.52493E-05-2.41204E-05-3.04850E-05 2.17508E-06 7.16337E-19-3.55939E-19
 -1       945 9.57425E-05-2.57009E-05-3.00169E-05 1.14575E-06 4.33237E-19-5.17363E-19
 -1       946 9.38875E-05-2.09691E-05-3.12511E-05-2.16380E-06-3.83004E-19-9.31035E-19
 -1       947 6.61891E-05-1.59969E-05-2.14722E-05 7.26368E-06-2.17437E-18-2.27959E-18
 -1       948 9.46581E-05-2.24448E-05-3.09492E-05 1.15921E-06 8.19599E-20-7.46933E-19
 -1       949 8.95386E-05-3.45247E-05-2.35895E-05 2.26101E-05-6.77552E-19 6.99378E-19
 -1       950 8.99577E-05-2.39039E-05-2.83088E-05-6.21573E-06-1.73926E-19-8.06829E-19
 -1       951 9.62977E-05-2.79979E-05-2.92714E-05 9.46766E-07-3.47358E-19-4.78381E-19
 -1       952 9.60274E-05-2.80812E-05-2.91198E-05 1.20727E-06-1.85207E-19-6.28971E-19
 -1       953 9.56400E-05-2.79379E-05-2.90152E-05 1.43500E-06-2.73794E-19-6.73444E-19
 -1       954 9.51504E-05-2.76138E-05-2.89443E-05 1.66825E-06-3.67826E-19-5.63334E-19
 -1       955 9.45610E-05-2.71427E-05-2.88936E-05 1.93845E-06-5.85341E-19-5.45301E-19
 -1       956 9.38648E-05-2.65504E-05-2.88491E-05 2.27147E-06 3.51878E-20-5.72627E-19
 -1       957 9.30500E-05-2.58616E-05-2.87951E-05 2.68945E-06 2.15422E-19-2.76459E-19
 -1       958 9.21012E-05-2.51029E-05-2.87137E-05 3.21332E-06 4.72760E-19-2.59404E-19
 -1       959 9.10056E-05-2.43128E-05-2.85828E-05 3.86752E-06 5.12452E-19 2.05253E-19
 -1       960 8.97554E-05-2.35463E-05-2.83756E-05 4.68597E-06 1.26459E-19 1.54279E-19
 -1       961 8.83544E-05-2.28845E-05-2.80588E-05 5.72549E-06 1.51515E-19 2.91321E-19
 -1       962 8.68279E-05-2.24474E-05-2.75918E-05 7.08530E-06 6.83937E-19 1.85356E-19
 -1       963 8.52395E-05-2.24136E-05-2.69256E-05 8.94520E-06 6.79112E-19-7.70839E-20
 -1       964 8.38154E-05-2.30750E-05-2.60341E-05 1.15564E-05 1.11896E-18 3.55831E-19
 -1       965 8.28402E-05-2.48978E-05-2.47631E-05 1.53547E-05 5.55624E-19 1.07070E-18
 -1       966 9.64196E-05-2.76244E-05-2.94837E-05 6.09185E-07-7.70426E-19-5.68734E-19
 -1       967 8.37414E-05-2.72044E-05-2.41956E-05-1.82696E-05-5.49990E-19-4.40468E-19
 -1       968 8.39297E-05-2.43048E-05-2.55509E-05-1.37001E-05-1.68032E-18 2.86013E-19
 -1       969 8.50007E-05-2.29407E-05-2.65940E-05-1.04448E-05 1.39053E-19-9.44474E-19
 -1       970 8.64015E-05-2.25404E-05-2.73686E-05-8.17178E-06-9.63246E-19-1.52729E-18
 -1       971 8.78520E-05-2.26925E-05-2.79254E-05-6.53638E-06-9.94298E-19 2.31330E-19
 -1       972 8.92189E-05-2.31500E-05-2.83152E-05-5.29157E-06-1.18800E-18-5.66951E-19
 -1       973 9.04403E-05-2.37617E-05-2.85802E-05-4.29871E-06-1.16304E-18-1.16475E-18
 -1       974 9.09682E-05-2.43627E-05-2.85453E-05-5.11408E-06-4.01352E-19 6.97382E-20
 -1       975 9.19234E-05-2.49690E-05-2.86947E-05-4.22997E-06-7.43901E-19 9.52279E-19
 -1       976 8.89636E-05-2.37357E-05-2.79550E-05-7.60907E-06-4.78297E-19-1.00291E-18
 -1       977 8.81269E-05-2.40733E-05-2.74520E-05-9.41417E-06-2.86690E-21-9.65255E-19
 -1       978 8.77172E-05-2.52464E-05-2.67739E-05-1.18009E-05-2.99733E-19-1.05671E-18
 -1       979 8.81920E-05-2.77291E-05-2.59093E-05-1.49821E-05-8.40119E-19-6.55161E-19
 -1       980 9.05413E-05-3.22857E-05-2.49396E-05-1.90821E-05-1.38195E-19-1.70096E-18
 -1       981 8.81878E-05-2.73459E-05-2.60784E-05 1.44685E-05-2.94255E-18 2.70387E-18
 -1       982 8.78400E-05-2.50378E-05-2.69167E-05 1.14328E-05-1.07746E-18 4.73503E-18
 -1       983 8.83148E-05-2.39756E-05-2.75745E-05 9.13376E-06 5.94464E-19 2.17795E-18
 -1       984 8.91488E-05-2.36743E-05-2.80608E-05 7.37841E-06-1.18662E-18 7.80428E-20
 -1       985 9.01159E-05-2.38355E-05-2.84061E-05 5.99982E-06-1.70136E-19 3.77709E-19
 -1       986 9.10753E-05-2.42437E-05-2.86421E-05 4.88818E-06 7.26190E-19 1.06620E-18
 -1       987 9.19453E-05-2.47541E-05-2.87964E-05 3.97192E-06 2.30679E-18-1.13637E-19
 -1       988 9.48032E-05-2.73811E-05-2.88952E-05-2.12883E-06 1.85645E-19-2.47430E-19
 -1       989 9.63411E-05-2.68763E-05-2.97707E-05 1.44151E-07-4.07544E-19-5.96697E-19
 -1       990 9.49266E-05-2.31267E-05-3.07720E-05 1.78506E-06 3.89061E-19-3.91808E-19
 -1       991 9.27879E-05-2.56260E-05-2.87837E-05-3.51627E-06-4.67047E-19 6.67425E-19
 -1       992 9.20785E-05-2.47842E-05-2.88405E-05 1.80001E-06 1.02444E-18-1.28787E-18
 -1       993 9.62600E-05-2.68315E-05-2.97553E-05-7.22351E-08 6.61142E-20 5.18839E-21
 -1       994 9.45078E-05-2.20871E-05-3.10366E-05-3.99255E-07-1.70568E-19-1.04514E-18
 -1       995 9.24525E-05-2.50941E-05-2.88667E-05 3.28781E-06 2.43023E-18-1.33336E-18
 -1       996 7.77499E-05-2.31593E-05-2.33222E-05 1.66733E-05-7.02574E-20 5.93403E-19
 -1       997 9.62607E-05-2.80158E-05-2.92479E-05-1.02754E-06-1.80434E-19-3.91535E-20
 -1       998 8.05021E-05-2.73160E-05-2.27519E-05-2.03366E-05 3.10117E-19-1.46460E-18
 -1       999 9.63531E-05-2.76087E-05-2.94618E-05-6.28743E-07-6.31240E-21-3.85867E-22
 -1      1000 9.59826E-05-2.56352E-05-3.01489E-05-4.98160E-07-3.25694E-19-6.39327E-19
 -1      1001 7.00410E-05-1.75529E-05-2.24823E-05-9.83350E-06-5.67247E-19-3.07612E-18
 -1      1002 8.96127E-05-3.05896E-05-2.52734E-05 1.76938E-05-1.37807E-18 1.01068E-18
 -1      1003 9.12371E-05-2.41997E-05-2.87312E-05-2.32744E-06-7.61339E-19 2.69352E-18
 -1      1004 9.05524E-05-2.37189E-05-2.86440E-05 5.40357E-08 1.14855E-18-2.07288E-19
 -1      1005 9.52966E-05-2.77828E-05-2.89345E-05-1.83710E-06 1.52486E-19-2.84912E-20
 -1      1006 9.03618E-05-2.36463E-05-2.85937E-05-2.98784E-06-2.46715E-18 7.68225E-19
 -1      1007 9.60363E-05-2.81416E-05-2.90978E-05-1.32736E-06 1.72027E-19-1.30724E-19
 -1      1008 9.54781E-05-2.40807E-05-3.05990E-05 2.56551E-09-2.55843E-19-1.20337E-18
 -1      1009 9.59546E-05-2.57999E-05-3.00671E-05 6.05586E-07 2.59598E-19-1.44877E-20
 -1      1010 6.41755E-05-1.47926E-05-2.11408E-05-1.82275E-06-1.27463E-19-2.18194E-18
 -1      1011 9.42247E-05-2.68697E-05-2.88666E-05-2.48997E-06 6.21329E-19-1.54986E-19
 -1      1012 7.26632E-05-1.88418E-05-2.30736E-05 1.09242E-05 8.66964E-19 1.56774E-19
 -1      1013 7.52206E-05-2.02724E-05-2.35404E-05 1.23059E-05-1.95664E-18-8.31110E-19
 -1      1014 7.40136E-05-2.09497E-05-2.26979E-05-1.45783E-05 8.55036E-19-1.40239E-18
 -1      1015 9.54587E-05-2.42721E-05-3.05093E-05-1.11021E-06-2.81704E-19-6.40140E-19
 -1      1016 9.55444E-05-2.46082E-05-3.03990E-05 1.18471E-06 4.72758E-19 3.72039E-20
 -1      1017 6.97343E-05-1.60171E-05-2.30034E-05-1.58562E-06 2.23816E-19-3.21353E-18
 -1      1018 9.07514E-05-2.38527E-05-2.86686E-05-1.17498E-06 1.03678E-18 1.49500E-18
 -1      1019 9.35554E-05-2.62750E-05-2.88346E-05-2.94589E-06-9.48728E-20 2.50755E-19
 -1      1020 9.47765E-05-2.27671E-05-3.08595E-05-1.60479E-06-2.85656E-19-7.39908E-19
 -1      1021 9.41727E-05-2.14581E-05-3.11620E-05-1.19794E-06-3.07924E-19-1.12853E-18
 -1      1022 9.55275E-05-2.42257E-05-3.05567E-05 4.33523E-07 7.42382E-20-7.34256E-19
 -1      1023 9.58876E-05-2.79302E-05-2.91246E-05 8.56915E-07-1.37342E-19-2.03530E-19
 -1      1024 9.53704E-05-2.76660E-05-2.90162E-05 1.01019E-06-1.91080E-19-2.01843E-19
 -1      1025 9.47260E-05-2.72148E-05-2.89333E-05 1.17694E-06-5.80429E-19-1.27762E-19
 -1      1026 9.39532E-05-2.66101E-05-2.88614E-05 1.37422E-06 3.90120E-20 6.76436E-20
 -1      1027 9.30358E-05-2.58731E-05-2.87841E-05 1.61963E-06-3.39761E-20-3.55374E-19
 -1      1028 9.19595E-05-2.50339E-05-2.86828E-05 1.92519E-06 5.25141E-19-7.86066E-19
 -1      1029 9.06923E-05-2.41113E-05-2.85353E-05 2.31231E-06 5.16563E-19-5.68386E-19
 -1      1030 8.92083E-05-2.31445E-05-2.83138E-05 2.79930E-06 4.63405E-19-4.29941E-19
 -1      1031 8.74648E-05-2.21727E-05-2.79833E-05 3.42474E-06 3.13705E-19 1.85866E-19
 -1      1032 8.54089E-05-2.12489E-05-2.74986E-05 4.25609E-06 1.65132E-19-1.16057E-19
 -1      1033 8.29649E-05-2.04402E-05-2.67986E-05 5.41280E-06 6.74603E-19-7.45415E-19
 -1      1034 8.00951E-05-1.98378E-05-2.58282E-05 7.13739E-06 1.46856E-18-2.92297E-19
 -1      1035 9.55171E-05-2.43222E-05-3.05104E-05 8.26105E-07 2.67347E-19-3.57585E-19
 -1      1036 9.57094E-05-2.80481E-05-2.89977E-05-1.58267E-06 1.51637E-19-3.04443E-19
 -1      1037 9.62660E-05-2.79637E-05-2.92724E-05 6.93782E-07-5.35134E-19-2.19092E-20
 -1      1038 8.70219E-05-2.22421E-05-2.77635E-05-5.31511E-06 1.95215E-19-3.60554E-19
 -1      1039 8.18732E-05-2.02617E-05-2.64045E-05-6.60269E-06-1.33294E-18-1.94148E-18
 -1      1040 8.44195E-05-2.08625E-05-2.72393E-05-5.09050E-06-6.23456E-19-3.04494E-18
 -1      1041 8.65788E-05-2.16443E-05-2.78292E-05-4.03847E-06 3.52524E-19-2.86402E-18
 -1      1042 8.83951E-05-2.24919E-05-2.82444E-05-3.24108E-06-1.14704E-19-3.32299E-19
 -1      1043 8.86645E-05-2.29497E-05-2.81640E-05-4.27375E-06 2.79022E-19 4.12210E-19
 -1      1044 8.51826E-05-2.17496E-05-2.71870E-05-6.72974E-06-4.42437E-19-6.68509E-19
 -1      1045 9.01145E-05-2.37659E-05-2.84354E-05-3.47892E-06-5.75158E-20 4.27506E-19
 -1      1046 8.31748E-05-2.16378E-05-2.63743E-05-8.73513E-06-4.53294E-19-5.64765E-19
 -1      1047 8.10523E-05-2.21671E-05-2.52409E-05-1.16392E-05-3.81235E-19-5.40114E-19
 -1      1048 8.01389E-05-2.38891E-05-2.40906E-05-1.54425E-05 5.68200E-19-1.24285E-18
 -1      1049 9.13491E-05-2.42929E-05-2.87390E-05 2.26369E-06 1.77396E-18-4.27322E-18
 -1      1050 8.35549E-05-2.16379E-05-2.65380E-05 8.42257E-06 3.72996E-19-2.63433E-18
 -1      1051 8.55059E-05-2.17502E-05-2.73246E-05 6.53019E-06 1.02708E-20 6.59054E-19
 -1      1052 8.72813E-05-2.22243E-05-2.78826E-05 5.14255E-06-9.18130E-19-3.34181E-22
 -1      1053 8.88508E-05-2.28765E-05-2.82760E-05 4.11950E-06 3.27951E-19-1.98736E-18
 -1      1054 9.02159E-05-2.36045E-05-2.85492E-05 3.31198E-06 2.49393E-18-3.88101E-18
 -1      1055 8.18739E-05-2.40207E-05-2.47948E-05 1.43629E-05-3.79782E-18-1.54345E-19
 -1      1056 9.64815E-05-2.70881E-05-2.97399E-05 2.28504E-07-4.94972E-19-1.00535E-18
 -1      1057 9.64804E-05-2.77107E-05-2.94730E-05 4.93406E-07-5.17274E-19-3.19880E-19
 -1      1058 8.24041E-05-2.23395E-05-2.57443E-05 1.09870E-05-2.37394E-18-1.21326E-18
 -1      1059 9.64393E-05-2.70186E-05-2.97526E-05-2.13372E-07 8.47315E-20-3.34294E-19
 -1      1060 9.13847E-05-2.46159E-05-2.86152E-05-2.85930E-06-4.76164E-19 5.85521E-19
 -1      1061 9.08158E-05-2.39057E-05-2.86760E-05 1.21320E-06 5.41569E-19-5.48259E-19
 -1      1062 9.55234E-05-2.42210E-05-3.05593E-05-4.47625E-07-3.50527E-19-9.76925E-19
 -1      1063 9.62032E-05-2.60052E-05-3.00846E-05-1.30487E-07-3.21472E-19-1.18129E-18
 -1      1064 7.74780E-05-1.92470E-05-2.49414E-05-8.19035E-06-8.42074E-19-2.15125E-18
 -1      1065 9.64636E-05-2.76818E-05-2.94780E-05-5.74140E-07-2.19188E-20-3.40311E-19
 -1      1066 9.61117E-05-2.58521E-05-3.01114E-05 2.72891E-07 1.57482E-19-3.16671E-19
 -1      1067 9.62879E-05-2.79797E-05-2.92748E-05-8.34348E-07 1.07512E-19-4.34543E-19
 -1      1068 9.49261E-05-2.74014E-05-2.89393E-05-1.44280E-06 4.07421E-19-3.74922E-19
 -1      1069 9.42381E-05-2.68586E-05-2.88764E-05-1.68935E-06 4.92217E-19-1.68059E-19
 -1      1070 9.61133E-05-2.56254E-05-3.02077E-05-7.67703E-08-3.79188E-19-9.54771E-19
 -1      1071 7.09128E-05-1.66611E-05-2.31772E-05 4.90646E-06 8.76745E-19-1.58756E-18
 -1      1072 8.89999E-05-2.27567E-05-2.83869E-05-1.48510E-06-1.37937E-18-8.33704E-19
 -1      1073 7.11257E-05-1.72272E-05-2.31331E-05-7.38314E-06 9.15559E-19-3.09913E-18
 -1      1074 9.24697E-05-2.54281E-05-2.87323E-05-2.36749E-06-6.03554E-19 7.82979E-19
 -1      1075 8.94424E-05-2.30215E-05-2.84617E-05 8.60478E-07 1.32306E-18 1.94402E-19
 -1      1076 7.37122E-05-1.74256E-05-2.41224E-05 4.94819E-06-1.29176E-18-3.90672E-18
 -1      1077 9.61341E-05-2.56441E-05-3.02098E-05 7.88968E-08-1.54410E-19-6.15661E-19
 -1      1078 8.98836E-05-2.32976E-05-2.85373E-05-1.33873E-06-4.03690E-19 6.00117E-19
 -1      1079 9.50110E-05-2.73751E-05-2.89868E-05 4.26432E-07-4.07614E-19 1.97340E-19
 -1      1080 9.42401E-05-2.68121E-05-2.88978E-05 4.97867E-07-1.64056E-19 5.04739E-19
 -1      1081 9.33202E-05-2.60971E-05-2.88101E-05 5.82533E-07-1.28113E-19 4.07636E-19
 -1      1082 9.22196E-05-2.52400E-05-2.87038E-05 6.97722E-07-1.32247E-19 5.82401E-19
 -1      1083 9.09110E-05-2.42731E-05-2.85581E-05 8.28805E-07 4.16288E-19-2.72739E-19
 -1      1084 8.93771E-05-2.32318E-05-2.83475E-05 9.84246E-07 3.63499E-19-6.19850E-19
 -1      1085 8.75528E-05-2.21283E-05-2.80384E-05 1.18706E-06 5.02447E-19-4.89457E-19
 -1      1086 8.53593E-05-2.09883E-05-2.75869E-05 1.45199E-06 2.86117E-19-4.03553E-19
 -1      1087 8.26686E-05-1.98242E-05-2.69331E-05 1.81344E-06 3.91389E-19-2.92529E-19
 -1      1088 7.92847E-05-1.86390E-05-2.59982E-05 2.34240E-06 8.23428E-19-8.81965E-19
 -1      1089 8.12870E-05-1.92975E-05-2.65649E-05-2.44671E-06-1.25498E-18-1.58165E-18
 -1      1090 9.55005E-05-2.77935E-05-2.90175E-05-1.23467E-06 2.03868E-19 4.23185E-20
 -1      1091 8.96710E-05-2.32057E-05-2.84838E-05 2.12948E-06 2.31292E-18-4.07817E-18
 -1      1092 8.11251E-05-1.96335E-05-2.63525E-05-4.58222E-06 3.17352E-20-7.93360E-19
 -1      1093 8.40676E-05-2.02834E-05-2.73356E-05-1.87102E-06-4.55142E-19-2.06048E-18
 -1      1094 8.65278E-05-2.14125E-05-2.79024E-05-1.49407E-06 1.45429E-18-2.32303E-18
 -1      1095 8.63407E-05-2.15809E-05-2.77551E-05-2.73442E-06 7.74132E-19-5.09241E-19
 -1      1096 7.75040E-05-1.87721E-05-2.51578E-05-6.24224E-06 3.46450E-19-1.79124E-18
 -1      1097 8.83005E-05-2.26110E-05-2.81533E-05-2.17916E-06 5.24863E-19-3.04684E-19
 -1      1098 7.52469E-05-1.91330E-05-2.40153E-05-9.71726E-06 1.39469E-19-1.86020E-18
 -1      1099 8.65925E-05-2.15362E-05-2.78816E-05 2.67515E-06 1.75836E-18-3.23141E-18
 -1      1100 8.44464E-05-2.06590E-05-2.73300E-05 3.42423E-06-2.62620E-19-4.16485E-19
 -1      1101 8.17409E-05-1.97959E-05-2.65481E-05 4.46624E-06-1.04834E-18-1.89248E-18
 -1      1102 8.83249E-05-2.24376E-05-2.82335E-05 2.36461E-06 1.72057E-18-4.14544E-18
 -1      1103 7.75974E-05-1.96081E-05-2.48548E-05 8.75140E-06-1.27450E-18-2.84389E-18
 -1      1104 9.65476E-05-2.73370E-05-2.96612E-05 1.47921E-07 8.41984E-20-5.64020E-19
 -1      1105 9.59617E-05-2.80008E-05-2.91259E-05-1.04105E-06 7.58168E-20-2.61150E-19
 -1      1106 9.64365E-05-2.77967E-05-2.94168E-05 2.33371E-07 6.61547E-21-9.08375E-20
 -1      1107 7.67945E-05-1.78588E-05-2.52632E-05-2.25507E-06-1.13360E-18-2.63721E-18
 -1      1108 8.99551E-05-2.36319E-05-2.84248E-05-1.76341E-06-2.56165E-19 2.71403E-19
 -1      1109 9.61246E-05-2.79193E-05-2.92310E-05 3.03191E-07-3.27887E-19 8.71449E-20
 -1      1110 9.64478E-05-2.66644E-05-2.99083E-05 4.05254E-08-2.69975E-19-9.42960E-19
 -1      1111 8.39954E-05-2.05810E-05-2.71788E-05-3.49839E-06-2.82044E-19-2.78833E-19
 -1      1112 9.65355E-05-2.72428E-05-2.96963E-05-1.93371E-07 1.78473E-19-3.02165E-19
 -1      1113 9.34142E-05-2.61848E-05-2.88124E-05-1.98622E-06-2.39016E-19 4.94134E-19
 -1      1114 9.56415E-05-2.77583E-05-2.90929E-05 3.65447E-07-2.73769E-19 2.25228E-19
 -1      1115 7.32803E-05-1.68170E-05-2.41929E-05 2.79025E-06 1.76652E-18-1.95152E-18
 -1      1116 9.13581E-05-2.46078E-05-2.86082E-05-1.44011E-06-6.05215E-19 4.01755E-19
 -1      1117 9.64709E-05-2.77659E-05-2.94451E-05-3.70992E-07 9.56215E-20-6.53119E-19
 -1      1118 8.79760E-05-2.21729E-05-2.82065E-05 8.74363E-07 1.28760E-18-1.94780E-18
 -1      1119 9.44462E-05-2.69848E-05-2.89127E-05-8.43967E-07 1.12559E-19 7.38853E-19
 -1      1120 7.98068E-05-1.95873E-05-2.57933E-05 6.24831E-06-4.58515E-19-3.29398E-18
 -1      1121 9.51702E-05-2.75053E-05-2.89995E-05-7.20593E-07-3.31904E-20 6.18656E-20
 -1      1122 9.53393E-05-2.75802E-05-2.90384E-05-2.46928E-07-1.44470E-19 2.77326E-19
 -1      1123 9.37713E-05-2.64469E-05-2.88526E-05-3.49948E-07 6.96918E-21 7.19930E-19
 -1      1124 9.27435E-05-2.56528E-05-2.87543E-05-4.19333E-07-6.22634E-20 5.03144E-19
 -1      1125 8.25524E-05-1.97133E-05-2.69525E-05 1.13757E-06-1.34858E-18-2.39884E-18
 -1      1126 9.63108E-05-2.78879E-05-2.93244E-05-1.67801E-07-2.56747E-19-5.73939E-19
 -1      1127 9.59023E-05-2.78614E-05-2.91608E-05-2.02810E-07-6.95555E-22-3.55098E-19
 -1      1128 7.79368E-05-1.82039E-05-2.56038E-05 2.06121E-06-7.88381E-19-3.21607E-18
 -1      1129 9.47155E-05-2.71619E-05-2.89515E-05-1.79889E-07-3.67522E-19 6.71457E-19
 -1      1130 1.16741E-04 2.57238E-10-4.18143E-05-4.14433E-05-1.48231E-19 5.48729E-18
 -1      1131 8.85821E-05 7.18313E-11-3.72233E-05-2.41705E-05-8.57621E-20 1.03719E-18
 -1      1132 8.40453E-05 4.14320E-11-3.57528E-05-1.78873E-05-5.87629E-20-9.47009E-19
 -1      1133 8.23325E-05 3.20301E-11-3.50715E-05-1.38452E-05-4.04723E-20-1.90684E-18
 -1      1134 8.15548E-05 2.73439E-11-3.47478E-05-1.05407E-05-3.20020E-20-2.44548E-18
 -1      1135 8.11724E-05 2.46222E-11-3.45908E-05-7.64512E-06-2.19765E-20-2.64316E-18
 -1      1136 8.09768E-05 2.29567E-11-3.45133E-05-4.98178E-06-1.86281E-20-2.67666E-18
 -1      1137 8.08826E-05 2.20545E-11-3.44775E-05-2.43281E-06-1.00569E-20-2.63682E-18
 -1      1138 8.08561E-05 2.17815E-11-3.44676E-05 5.25424E-08-2.56509E-21-2.58330E-18
 -1      1139 8.08868E-05 2.20988E-11-3.44789E-05 2.54043E-06 1.05747E-20-2.57903E-18
 -1      1140 8.09853E-05 2.30556E-11-3.45161E-05 5.09764E-06 9.51919E-21-2.56191E-18
 -1      1141 8.11876E-05 2.47790E-11-3.45950E-05 7.77679E-06 2.03883E-20-2.44677E-18
 -1      1142 8.15769E-05 2.76546E-11-3.47540E-05 1.07002E-05 3.62239E-20-2.16460E-18
 -1      1143 8.23561E-05 3.25054E-11-3.50813E-05 1.40518E-05 4.73015E-20-1.70988E-18
 -1      1144 8.40407E-05 4.19024E-11-3.57726E-05 1.81382E-05 6.72332E-20-7.27945E-19
 -1      1145 8.82802E-05 6.66570E-11-3.72934E-05 2.40130E-05 7.97270E-20 1.23961E-18
 -1      1146 1.06509E-04 1.63699E-10-4.05935E-05 3.61765E-05 1.83594E-19 5.57189E-18
 -1      1147 1.30074E-04-2.57237E-05-4.02286E-05-2.60899E-05-6.22887E-19 8.30855E-18
 -1      1148 9.73144E-05-2.88200E-05-3.15338E-05-6.82088E-07-1.70360E-19 6.93032E-18
 -1      1149 9.00096E-05-2.69817E-05-2.78479E-05 3.85693E-07-4.09620E-20 4.98994E-18
 -1      1150 8.80922E-05-2.65257E-05-2.65969E-05 2.49400E-07-8.21126E-20 3.62006E-18
 -1      1151 8.77312E-05-2.63984E-05-2.63400E-05 1.64292E-07-5.31215E-20 2.76657E-18
 -1      1152 8.80952E-05-2.64769E-05-2.64267E-05 1.16121E-07-4.35693E-20 2.26190E-18
 -1      1153 8.87985E-05-2.66669E-05-2.66350E-05 8.52351E-08 3.55382E-20 1.80513E-18
 -1      1154 8.96503E-05-2.69105E-05-2.68896E-05 6.38589E-08-1.81599E-20 1.59258E-18
 -1      1155 9.05513E-05-2.71744E-05-2.71595E-05 4.81961E-08-3.96246E-20 9.21631E-19
 -1      1156 9.14539E-05-2.74420E-05-2.74309E-05 3.64456E-08-8.44582E-21 1.72768E-19
 -1      1157 9.23440E-05-2.77078E-05-2.76999E-05 2.77530E-08 4.03529E-20-2.19607E-19
 -1      1158 9.32313E-05-2.79741E-05-2.79692E-05 2.17364E-08-2.99944E-20 2.30046E-19
 -1      1159 9.41437E-05-2.82490E-05-2.82472E-05 1.82907E-08-5.43290E-20-2.55652E-19
 -1      1160 9.51243E-05-2.85449E-05-2.85465E-05 1.75157E-08 1.41880E-19-2.71580E-19
 -1      1161 9.62279E-05-2.88783E-05-2.88836E-05 1.96918E-08 5.79945E-20 4.83884E-19
 -1      1162 9.75196E-05-2.92683E-05-2.92778E-05 2.52648E-08-2.02767E-19-9.31041E-20
 -1      1163 9.90706E-05-2.97357E-05-2.97500E-05 3.48019E-08-6.19777E-20-1.40713E-19
 -1      1164 1.00952E-04-3.03014E-05-3.03206E-05 4.88591E-08 1.99756E-20 1.63398E-19
 -1      1165 1.03223E-04-3.09822E-05-3.10054E-05 6.76588E-08-7.01846E-20-3.80371E-20
 -1      1166 1.05908E-04-3.17847E-05-3.18088E-05 9.04019E-08 2.67179E-20-7.49889E-20
 -1      1167 1.08966E-04-3.26946E-05-3.27122E-05 1.13974E-07 3.24195E-20-1.52753E-18
 -1      1168 1.12228E-04-3.36605E-05-3.36580E-05 1.30867E-07-1.25334E-19-1.18902E-19
 -1      1169 1.15334E-04-3.45736E-05-3.45303E-05 1.26583E-07-9.16516E-21 2.50801E-19
 -1      1170 1.17662E-04-3.52483E-05-3.51404E-05 7.83260E-08 4.44163E-20-8.65211E-19
 -1      1171 1.18321E-04-3.54218E-05-3.52372E-05-4.04314E-08-2.49709E-20-9.66015E-19
 -1      1172 1.16320E-04-3.48061E-05-3.45700E-05-2.41633E-07 3.60684E-20-1.35541E-18
 -1      1173 1.11024E-04-3.32265E-05-3.30200E-05-4.90585E-07 2.55920E-19-5.53589E-19
 -1      1174 1.02852E-04-3.08235E-05-3.07687E-05-6.79635E-07 1.93758E-19-3.84765E-19
 -1      1175 9.38254E-05-2.82003E-05-2.83851E-05-6.57952E-07-1.22115E-19-5.39772E-19
 -1      1176 8.71883E-05-2.62894E-05-2.66814E-05-3.48701E-07 1.04278E-19-1.78099E-18
 -1      1177 8.58084E-05-2.58939E-05-2.63313E-05 1.37725E-07-2.69959E-19-4.40537E-19
 -1      1178 9.03225E-05-2.71898E-05-2.74807E-05 5.52157E-07 7.27985E-20-5.04143E-19
 -1      1179 9.86885E-05-2.96098E-05-2.96576E-05 7.03571E-07-2.51584E-19-1.45933E-18
 -1      1180 1.07580E-04-3.22099E-05-3.20562E-05 5.91839E-07-2.20070E-19-3.03810E-18
 -1      1181 1.14302E-04-3.42007E-05-3.39638E-05 3.52146E-07 1.83753E-19-3.32884E-18
 -1      1182 1.17740E-04-3.52386E-05-3.50242E-05 1.20735E-07 8.68341E-20-2.18804E-18
 -1      1183 1.18147E-04-3.53826E-05-3.52399E-05-3.57896E-08-1.57968E-19-2.63993E-18
 -1      1184 1.16431E-04-3.48928E-05-3.48228E-05-1.12954E-07-1.53167E-19-2.46682E-18
 -1      1185 1.13566E-04-3.40545E-05-3.40363E-05-1.34022E-07 9.62764E-20-1.85163E-18
 -1      1186 1.10301E-04-3.30907E-05-3.31011E-05-1.24635E-07 5.21306E-19 2.66127E-19
 -1      1187 1.07113E-04-3.21440E-05-3.21662E-05-1.03059E-07-5.01804E-19 4.70302E-19
 -1      1188 1.04249E-04-3.12904E-05-3.13145E-05-7.95930E-08-4.08008E-19-3.06073E-18
 -1      1189 1.01810E-04-3.05606E-05-3.05820E-05-5.89364E-08-1.82952E-19-3.92986E-18
 -1      1190 9.98046E-05-2.99591E-05-2.99766E-05-4.25448E-08-1.11158E-19-2.70067E-18
 -1      1191 9.82032E-05-2.94776E-05-2.94918E-05-3.01652E-08-1.13299E-20-2.38813E-18
 -1      1192 9.69633E-05-2.91042E-05-2.91169E-05-2.05537E-08 1.35824E-19 9.26631E-19
 -1      1193 9.60506E-05-2.88287E-05-2.88427E-05-1.15143E-08-1.62187E-19 2.84464E-18
 -1      1194 9.54515E-05-2.86472E-05-2.86636E-05 7.64454E-10 5.27179E-20 3.28030E-18
 -1      1195 9.51829E-05-2.85722E-05-2.85701E-05 2.35647E-08-3.49526E-19 2.24757E-18
 -1      1196 9.51756E-05-2.85519E-05-2.85259E-05 2.07549E-08 2.30844E-19 1.87396E-18
 -1      1197 1.30908E-04-3.76959E-05-3.86151E-05 1.21674E-05-7.54918E-20 9.24494E-18
 -1      1198 9.64154E-05-2.81467E-05-3.12863E-05 8.02130E-07 8.63180E-20 7.23038E-18
 -1      1199 9.02236E-05-2.68844E-05-2.78288E-05 1.21060E-07 1.76223E-20 5.26520E-18
 -1      1200 8.81793E-05-2.64530E-05-2.66332E-05 1.02727E-08 7.23419E-20 3.78547E-18
 -1      1201 8.77722E-05-2.63611E-05-2.63670E-05-2.34656E-08 5.52391E-20 2.96157E-18
 -1      1202 8.81174E-05-2.64594E-05-2.64423E-05-3.17732E-08-4.44998E-20 1.97589E-18
 -1      1203 8.88120E-05-2.66599E-05-2.66452E-05-3.20679E-08-1.61763E-20 1.39194E-18
 -1      1204 8.96594E-05-2.69090E-05-2.68970E-05-2.92719E-08-4.37936E-20 1.19849E-18
 -1      1205 9.05580E-05-2.71758E-05-2.71652E-05-2.49334E-08-1.82542E-20 2.61363E-19
 -1      1206 9.14592E-05-2.74448E-05-2.74354E-05-1.97670E-08 9.34861E-20-5.30653E-19
 -1      1207 9.23483E-05-2.77111E-05-2.77035E-05-1.42211E-08 1.11289E-19-1.07633E-18
 -1      1208 9.32347E-05-2.79773E-05-2.79721E-05-8.63461E-09-1.42066E-19-4.82127E-19
 -1      1209 9.41458E-05-2.82515E-05-2.82492E-05-3.31599E-09-3.07049E-20-1.89679E-19
 -1      1210 9.51234E-05-2.85460E-05-2.85475E-05 1.38667E-09 1.92504E-20-8.55871E-19
 -1      1211 9.62212E-05-2.88768E-05-2.88828E-05 5.00657E-09 1.53330E-19-2.55591E-18
 -1      1212 9.75014E-05-2.92623E-05-2.92737E-05 6.85883E-09-5.57789E-20-2.78333E-18
 -1      1213 9.90315E-05-2.97223E-05-2.97399E-05 5.92061E-09-2.27049E-20-2.01549E-18
 -1      1214 1.00876E-04-3.02756E-05-3.03000E-05 7.11000E-10 5.71640E-20-1.48881E-18
 -1      1215 1.03087E-04-3.09363E-05-3.09673E-05-1.07648E-08 7.35182E-20-2.20705E-18
 -1      1216 1.05676E-04-3.17073E-05-3.17423E-05-3.08434E-08-9.75990E-21-1.14499E-18
 -1      1217 1.08587E-04-3.25700E-05-3.26026E-05-6.14630E-08-2.57642E-20-9.42007E-19
 -1      1218 1.11642E-04-3.34700E-05-3.34867E-05-1.02290E-07 6.04688E-20-1.06918E-18
 -1      1219 1.14474E-04-3.42995E-05-3.42776E-05-1.47130E-07-4.49639E-20-1.21091E-18
 -1      1220 1.16481E-04-3.48833E-05-3.47925E-05-1.78893E-07 1.03465E-19-1.82247E-18
 -1      1221 1.16834E-04-3.49834E-05-3.47974E-05-1.66280E-07-1.87796E-19 2.86549E-19
 -1      1222 1.14646E-04-3.43481E-05-3.40704E-05-7.07733E-08 1.68526E-19 1.87983E-18
 -1      1223 1.09407E-04-3.28277E-05-3.25259E-05 1.25225E-07-2.21311E-19 2.23516E-18
 -1      1224 1.01599E-04-3.05473E-05-3.03617E-05 3.76310E-07 2.79273E-20 1.64091E-18
 -1      1225 9.31328E-05-2.80381E-05-2.81208E-05 5.60334E-07-1.40975E-19 9.95793E-19
 -1      1226 8.69593E-05-2.61542E-05-2.65485E-05 5.41051E-07-1.04966E-19 1.48310E-18
 -1      1227 8.56603E-05-2.56923E-05-2.62489E-05 2.85654E-07-2.02626E-20 1.62610E-18
 -1      1228 8.98228E-05-2.68873E-05-2.73438E-05-8.11577E-08 2.14375E-19 9.02672E-19
 -1      1229 9.76316E-05-2.92272E-05-2.93990E-05-3.72575E-07-1.51012E-19 2.65778E-18
 -1      1230 1.06069E-04-3.17906E-05-3.16765E-05-4.78431E-07 4.17958E-20 3.08564E-18
 -1      1231 1.12617E-04-3.37877E-05-3.35175E-05-4.17681E-07-3.67639E-19 3.19861E-18
 -1      1232 1.16157E-04-3.48647E-05-3.45818E-05-2.75490E-07-1.81057E-19 2.05916E-18
 -1      1233 1.16834E-04-3.50678E-05-3.48542E-05-1.30615E-07 4.14934E-19-2.41715E-18
 -1      1234 1.15441E-04-3.46434E-05-3.45184E-05-2.24889E-08 2.18346E-19-3.75502E-18
 -1      1235 1.12870E-04-3.38661E-05-3.38138E-05 4.21454E-08 2.21521E-19-5.09470E-18
 -1      1236 1.09841E-04-3.29536E-05-3.29481E-05 7.21161E-08 1.57637E-19-4.03615E-18
 -1      1237 1.06823E-04-3.20469E-05-3.20660E-05 7.97862E-08-7.29958E-20-1.41334E-18
 -1      1238 1.04076E-04-3.12227E-05-3.12515E-05 7.54015E-08-2.56039E-19 1.95633E-18
 -1      1239 1.01711E-04-3.05138E-05-3.05439E-05 6.58853E-08-2.91506E-19 1.02817E-18
 -1      1240 9.97512E-05-2.99270E-05-2.99544E-05 5.53411E-08 2.33513E-19 1.83900E-18
 -1      1241 9.81769E-05-2.94557E-05-2.94794E-05 4.58916E-08 3.40126E-19 1.65206E-18
 -1      1242 9.69523E-05-2.90893E-05-2.91104E-05 3.82766E-08 2.00120E-19 1.26658E-20
 -1      1243 9.60479E-05-2.88188E-05-2.88399E-05 3.19859E-08 3.70405E-19-4.23317E-18
 -1      1244 9.54527E-05-2.86406E-05-2.86630E-05 2.36293E-08-1.71979E-19-4.87161E-18
 -1      1245 9.51777E-05-2.85561E-05-2.85710E-05 3.87695E-09 2.28601E-19-1.95833E-18
 -1      1246 9.51826E-05-2.85563E-05-2.85267E-05-1.86929E-08 3.73594E-20-1.89186E-18
 -1      1247 9.52529E-05-2.86275E-05-2.85285E-05-1.86971E-08-1.66953E-18-6.84165E-19
 -1      1248 9.52426E-05-2.86183E-05-2.85753E-05-1.94205E-08-2.17106E-18-1.01861E-18
 -1      1249 9.51596E-05-2.83336E-05-2.86673E-05 9.58449E-09 1.87444E-18 3.02823E-19
 -1      1250 9.49997E-05-2.77897E-05-2.88205E-05 2.46226E-08 7.02111E-20 5.58613E-19
 -1      1251 9.47990E-05-2.71070E-05-2.90124E-05 2.98615E-08-2.70012E-18-7.53083E-19
 -1      1252 9.45972E-05-2.64205E-05-2.92069E-05 2.79800E-08-6.37131E-18-6.23710E-19
 -1      1253 9.44264E-05-2.58388E-05-2.93729E-05 2.16774E-08-2.47536E-18 9.04532E-19
 -1      1254 9.43114E-05-2.54475E-05-2.94849E-05 1.16658E-08 4.05719E-19-3.34361E-19
 -1      1255 9.42712E-05-2.53104E-05-2.95242E-05-1.79839E-11-1.64462E-18 6.11973E-20
 -1      1256 9.43115E-05-2.54478E-05-2.94848E-05-1.17380E-08 2.07057E-19 4.44585E-19
 -1      1257 9.44267E-05-2.58402E-05-2.93724E-05-2.17958E-08 4.59099E-18-9.21261E-19
 -1      1258 9.45986E-05-2.64242E-05-2.92060E-05-2.85389E-08-1.20232E-18 1.28562E-20
 -1      1259 9.48006E-05-2.71126E-05-2.90107E-05-3.00195E-08-9.25628E-19 5.92808E-19
 -1      1260 9.50019E-05-2.77971E-05-2.88186E-05-2.50622E-08-8.99814E-19-5.22025E-19
 -1      1261 9.51655E-05-2.83486E-05-2.86652E-05-1.17480E-08-2.64377E-18-2.46901E-19
 -1      1262 9.52324E-05-2.86059E-05-2.85733E-05 3.51149E-08-2.48047E-18-1.88792E-18
 -1      1263 9.52565E-05-2.86344E-05-2.85270E-05 2.21735E-08-2.17155E-18 4.17479E-19
 -1      1264 3.44429E-05-1.06949E-04 1.80417E-05-1.28076E-05-1.32730E-18-2.95879E-19
 -1      1265 1.93730E-05-7.01821E-05 1.07126E-05-2.57603E-05-9.54606E-19-3.63165E-19
 -1      1266 7.21369E-06-1.68104E-05-3.18235E-06-6.44292E-06 2.64444E-18 2.70119E-18
 -1      1267 2.48585E-05 2.06901E-05-2.17344E-05 4.10761E-05 8.47033E-18 7.80795E-18
 -1      1268 8.56868E-05 1.97966E-05-4.13967E-05 9.13774E-05 6.14268E-18 7.64363E-18
 -1      1269 1.81994E-04-2.05313E-05-5.99888E-05 1.09608E-04 2.15019E-18 4.87722E-18
 -1      1270 2.73068E-04-7.12925E-05-7.29845E-05 7.74782E-05 4.70950E-19-8.32633E-19
 -1      1271 3.09245E-04-9.35225E-05-7.75862E-05 3.94919E-06-2.26528E-19-3.81017E-18
 -1      1272 2.77688E-04-7.40083E-05-7.36445E-05-7.14186E-05 1.19527E-18-4.69680E-18
 -1      1273 1.94899E-04-2.72032E-05-6.20052E-05-1.10153E-04 3.00104E-18-5.83267E-18
 -1      1274 1.01245E-04 1.51883E-05-4.51837E-05-9.87921E-05 4.84588E-18-6.70850E-18
 -1      1275 3.40866E-05 2.51584E-05-2.61386E-05-5.34665E-05 6.15962E-18-5.83436E-18
 -1      1276 7.76484E-06-4.49062E-06-7.54222E-06-3.24889E-06 7.82489E-18-4.46471E-18
 -1      1277 1.48662E-05-5.74193E-05 7.85165E-06 2.33802E-05 8.47202E-18-3.31613E-18
 -1      1278 3.18371E-05-1.01735E-04 1.70775E-05 1.73473E-05 2.45428E-18-9.81208E-19
 -1      1279 3.60121E-05-1.10537E-04 1.86962E-05-7.72075E-06-5.65522E-18-1.10125E-18
 -1      1280 2.29722E-05-7.99520E-05 1.28261E-05-2.52593E-05-9.42324E-18-2.64931E-18
 -1      1281 7.85147E-06-2.71407E-05 9.08073E-08-1.38029E-05-9.19708E-18-4.36730E-18
 -1      1282 1.83441E-05 1.59887E-05-1.77498E-05 2.99439E-05-4.35544E-18-2.98833E-18
 -1      1283 7.53018E-05 2.12661E-05-3.85986E-05 8.39493E-05-2.48265E-18-2.74608E-18
 -1      1284 1.68071E-04-1.36470E-05-5.77212E-05 1.12048E-04-1.14095E-18-1.59073E-18
 -1      1285 2.61490E-04-6.48174E-05-7.15394E-05 8.54875E-05-2.17899E-19 3.30343E-19
 -1      1286 3.09967E-04-9.39387E-05-7.76532E-05 1.32869E-05 2.30711E-19 3.79227E-18
 -1      1287 2.83459E-04-7.72407E-05-7.45051E-05-6.50511E-05-9.92034E-19 3.89042E-18
 -1      1288 2.01917E-04-3.08046E-05-6.30008E-05-1.09272E-04-2.81723E-18 6.22993E-18
 -1      1289 1.04241E-04 1.38611E-05-4.57136E-05-9.91487E-05-4.25719E-18 5.99869E-18
 -1      1290 3.23145E-05 2.39752E-05-2.51865E-05-5.05831E-05-4.35036E-18 4.83317E-18
 -1      1291 7.39529E-06-1.09320E-05-5.27229E-06 2.25584E-06-1.86347E-18 1.44165E-18
 -1      1292 1.81064E-05-6.70793E-05 1.01410E-05 2.47898E-05 2.88076E-18-1.33831E-19
 -1      1293 3.45053E-05-1.07108E-04 1.80589E-05 1.33320E-05 4.60659E-18-8.95473E-19
 -1      1294 1.04325E-04-2.19903E-05-3.78524E-05-1.72727E-05-2.28699E-19 4.54708E-18
 -1      1295 9.02567E-05-6.67316E-06-3.59933E-05-2.04752E-05-7.11455E-19 1.06461E-19
 -1      1296 9.25738E-05-6.73073E-06-3.71913E-05-2.57578E-05-8.88114E-19 1.14455E-18
 -1      1297 8.58794E-05-4.09488E-06-3.51195E-05-1.64392E-05-7.37263E-19-1.36658E-18
 -1      1298 8.71141E-05-4.08710E-06-3.55821E-05-1.88585E-05-8.19187E-19-7.24001E-19
 -1      1299 9.20781E-05-1.04536E-05-3.50735E-05-1.90358E-05-1.24313E-18 1.05297E-19
 -1      1300 8.41013E-05-3.19090E-06-3.46885E-05-1.28216E-05-5.78074E-19-2.15265E-18
 -1      1301 8.46990E-05-3.16131E-06-3.49071E-05-1.46365E-05-6.64047E-19-1.78917E-18
 -1      1302 8.78487E-05-7.39278E-06-3.45668E-05-1.54127E-05-1.15558E-18-1.16292E-18
 -1      1303 8.32148E-05-2.72908E-06-3.44820E-05-9.69022E-06-4.62447E-19-2.53107E-18
 -1      1304 8.35166E-05-2.71059E-06-3.45864E-05-1.12384E-05-5.16320E-19-2.35593E-18
 -1      1305 8.58785E-05-5.98261E-06-3.43100E-05-1.19554E-05-8.87677E-19-1.81456E-18
 -1      1306 8.27406E-05-2.45878E-06-3.43829E-05-6.91631E-06-3.30508E-19-2.67660E-18
 -1      1307 8.29022E-05-2.45039E-06-3.44340E-05-8.28823E-06-4.00104E-19-2.59621E-18
 -1      1308 8.48556E-05-5.21794E-06-3.41869E-05-8.94369E-06-7.23710E-19-2.08320E-18
 -1      1309 8.24762E-05-2.29228E-06-3.43353E-05-4.29491E-06-2.46930E-19-2.70027E-18
 -1      1310 8.25624E-05-2.28839E-06-3.43603E-05-5.59657E-06-2.77433E-19-2.71778E-18
 -1      1311 8.42850E-05-4.76154E-06-3.41305E-05-6.21436E-06-4.99965E-19-2.25994E-18
 -1      1312 8.23494E-05-2.20212E-06-3.43158E-05-1.78977E-06-1.02144E-19-2.64738E-18
 -1      1313 8.23860E-05-2.20057E-06-3.43258E-05-3.04084E-06-1.38710E-19-2.64890E-18
 -1      1314 8.39715E-05-4.49607E-06-3.41062E-05-3.64269E-06-3.15735E-19-2.19538E-18
 -1      1315 8.23244E-05-2.17436E-06-3.43137E-05 6.69795E-07 3.64381E-20-2.61606E-18
 -1      1316 8.23231E-05-2.17440E-06-3.43134E-05-5.65971E-07-1.86265E-20-2.63276E-18
 -1      1317 8.38344E-05-4.37546E-06-3.40976E-05-1.16979E-06-9.63105E-20-2.19296E-18
 -1      1318 8.23944E-05-2.20491E-06-3.43272E-05 3.14833E-06 1.72275E-19-2.60592E-18
 -1      1319 8.23550E-05-2.20653E-06-3.43166E-05 1.89465E-06 1.38752E-19-2.61320E-18
 -1      1320 8.38393E-05-4.37971E-06-3.40980E-05 1.27300E-06 1.34689E-19-2.17562E-18
 -1      1321 8.25790E-05-2.29862E-06-3.43628E-05 5.71330E-06 2.97275E-19-2.58172E-18
 -1      1322 8.24896E-05-2.30197E-06-3.43372E-05 4.40571E-06 2.29721E-19-2.58499E-18
 -1      1323 8.39868E-05-4.50961E-06-3.41072E-05 3.75028E-06 3.15705E-19-2.16089E-18
 -1      1324 8.29246E-05-2.46502E-06-3.44368E-05 8.39651E-06 3.56455E-19-2.40761E-18
 -1      1325 8.27597E-05-2.47372E-06-3.43853E-05 7.01599E-06 3.15057E-19-2.52609E-18
 -1      1326 8.43099E-05-4.78412E-06-3.41317E-05 6.30854E-06 5.22763E-19-2.09310E-18
 -1      1327 8.35623E-05-2.74257E-06-3.45914E-05 1.13988E-05 5.72263E-19-2.10253E-18
 -1      1328 8.32521E-05-2.75973E-06-3.44853E-05 9.83294E-06 4.66351E-19-2.26636E-18
 -1      1329 8.48974E-05-5.25840E-06-3.41878E-05 9.05235E-06 6.95695E-19-1.87689E-18
 -1      1330 8.47562E-05-3.20389E-06-3.49149E-05 1.48491E-05 7.31995E-19-1.60073E-18
 -1      1331 8.41581E-05-3.24080E-06-3.46940E-05 1.30084E-05 6.49979E-19-1.92118E-18
 -1      1332 8.59583E-05-6.06329E-06-3.43112E-05 1.21223E-05 1.00993E-18-1.57921E-18
 -1      1333 8.72129E-05-4.08809E-06-3.56036E-05 1.90956E-05 8.85149E-19-5.32545E-19
 -1      1334 8.59468E-05-4.15238E-06-3.51271E-05 1.66988E-05 7.54389E-19-1.18807E-18
 -1      1335 8.79733E-05-7.51489E-06-3.45689E-05 1.56511E-05 1.23264E-18-9.39545E-19
 -1      1336 9.33862E-05-6.78309E-06-3.70867E-05 2.50940E-05 7.58518E-19 1.60809E-18
 -1      1337 9.00717E-05-6.43015E-06-3.60158E-05 2.11520E-05 7.52006E-19 2.74968E-19
 -1      1338 9.23076E-05-1.06889E-05-3.50587E-05 1.96763E-05 1.33929E-18 2.79521E-19
 -1      1339 1.23496E-04-2.48946E-05-3.89750E-05 2.83534E-05 3.90694E-19 5.93389E-18
 -1      1340 9.99824E-05-1.44045E-05-3.73195E-05 2.40465E-05 4.01494E-19 2.92576E-18
 -1      1341 1.01585E-04-1.93199E-05-3.53721E-05 2.13966E-05 1.23863E-18 2.27047E-18
 -1      1342 1.02481E-04-2.77687E-05-3.47191E-05 7.33191E-06 7.07590E-19 5.67978E-18
 -1      1343 1.05025E-04-3.01936E-05-3.34879E-05-7.96056E-06-6.50627E-19 4.73068E-18
 -1      1344 9.81372E-05-2.78063E-05-3.07247E-05-4.99003E-06-6.23046E-19 3.96083E-18
 -1      1345 9.53805E-05-2.78126E-05-2.92176E-05-2.49185E-06-4.74127E-19 3.60819E-18
 -1      1346 9.31458E-05-2.75206E-05-2.81778E-05-2.04505E-06-4.85297E-19 2.89593E-18
 -1      1347 9.93820E-05-2.80214E-05-3.09517E-05-7.88936E-06-1.09521E-18 2.01861E-18
 -1      1348 9.14576E-05-2.71629E-05-2.75440E-05-8.38995E-07-3.82475E-19 2.68041E-18
 -1      1349 9.07397E-05-2.70668E-05-2.72415E-05-7.28289E-07-3.93467E-19 2.12264E-18
 -1      1350 9.46178E-05-2.77393E-05-2.87867E-05-3.12238E-06-7.89408E-19 1.54524E-18
 -1      1351 8.99939E-05-2.68854E-05-2.69995E-05-1.71286E-07-2.47496E-19 1.84979E-18
 -1      1352 8.99231E-05-2.69123E-05-2.69653E-05-1.12568E-07-3.24708E-19 1.41015E-18
 -1      1353 9.24243E-05-2.74698E-05-2.78680E-05-1.04972E-06-6.61136E-19 1.01853E-18
 -1      1354 8.96721E-05-2.68472E-05-2.68937E-05 1.62216E-07-2.03091E-19 1.34308E-18
 -1      1355 8.98933E-05-2.69387E-05-2.69575E-05 1.92063E-07-1.54974E-19 1.14297E-18
 -1      1356 9.14786E-05-2.73292E-05-2.75054E-05-5.76043E-08-4.01083E-19 4.96467E-19
 -1      1357 8.99124E-05-2.69460E-05-2.69687E-05 3.30706E-07-1.58314E-19 1.07905E-18
 -1      1358 9.02695E-05-2.70694E-05-2.70724E-05 3.44395E-07-1.00061E-19 9.22558E-19
 -1      1359 9.12489E-05-2.73227E-05-2.74054E-05 4.44295E-07-3.64540E-19 3.71887E-19
 -1      1360 9.04371E-05-2.71182E-05-2.71276E-05 4.10632E-07-4.80129E-20 7.73381E-19
 -1      1361 9.08525E-05-2.72538E-05-2.72481E-05 4.15330E-07-1.07466E-19 6.14297E-19
 -1      1362 9.14220E-05-2.74062E-05-2.74410E-05 6.95808E-07-2.76144E-19 1.37977E-19
 -1      1363 9.11011E-05-2.73255E-05-2.73272E-05 4.43039E-07-1.28130E-19 5.79771E-19
 -1      1364 9.15352E-05-2.74630E-05-2.74536E-05 4.43256E-07-2.38403E-19 1.48734E-19
 -1      1365 9.18197E-05-2.75417E-05-2.75510E-05 8.13073E-07-3.07626E-19-2.30508E-19
 -1      1366 9.18281E-05-2.75470E-05-2.75458E-05 4.52982E-07-2.21622E-19 1.61413E-19
 -1      1367 9.22637E-05-2.76822E-05-2.76734E-05 4.51833E-07-2.90842E-19-8.79525E-20
 -1      1368 9.23417E-05-2.77050E-05-2.77033E-05 8.61423E-07-3.70381E-19-2.16840E-19
 -1      1369 9.25834E-05-2.77736E-05-2.77735E-05 4.57327E-07-1.24909E-19-1.58590E-19
 -1      1370 9.30183E-05-2.79065E-05-2.79015E-05 4.57105E-07 5.41615E-20-2.06595E-19
 -1      1371 9.29350E-05-2.78833E-05-2.78806E-05 8.82232E-07-3.50262E-19-3.04577E-19
 -1      1372 9.33603E-05-2.80040E-05-2.80084E-05 4.68289E-07 2.00187E-19-4.10560E-19
 -1      1373 9.38028E-05-2.81376E-05-2.81392E-05 4.70773E-07-3.50576E-20-3.10361E-19
 -1      1374 9.35779E-05-2.80715E-05-2.80757E-05 9.04139E-07 5.39508E-21-4.70675E-19
 -1      1375 9.41720E-05-2.82426E-05-2.82544E-05 4.95244E-07-2.85709E-19-2.26227E-19
 -1      1376 9.46390E-05-2.83825E-05-2.83930E-05 5.01885E-07-2.31455E-19-5.53519E-19
 -1      1377 9.42702E-05-2.82709E-05-2.82877E-05 9.48350E-07-1.18870E-19-7.06242E-19
 -1      1378 9.50474E-05-2.84985E-05-2.85203E-05 5.45683E-07 9.94354E-20-5.79010E-19
 -1      1379 9.55625E-05-2.86522E-05-2.86733E-05 5.57698E-07 1.68047E-19-2.99420E-19
 -1      1380 9.50282E-05-2.84868E-05-2.85213E-05 1.03137E-06-1.35107E-19-6.02730E-19
 -1      1381 9.60274E-05-2.87843E-05-2.88182E-05 6.25603E-07 2.52469E-19-3.41285E-19
 -1      1382 9.66195E-05-2.89609E-05-2.89942E-05 6.43990E-07-1.79031E-20-1.21741E-19
 -1      1383 9.58802E-05-2.87283E-05-2.87846E-05 1.16629E-06 1.55699E-19-6.70454E-19
 -1      1384 9.71620E-05-2.91153E-05-2.91631E-05 7.39335E-07-3.73184E-19 5.60018E-20
 -1      1385 9.78640E-05-2.93253E-05-2.93716E-05 7.64788E-07-2.69629E-19-2.84494E-19
 -1      1386 9.68636E-05-2.90074E-05-2.90884E-05 1.36292E-06-1.28622E-19-5.22034E-19
 -1      1387 9.85069E-05-2.95089E-05-2.95716E-05 8.88686E-07-3.18117E-20-2.95398E-19
 -1      1388 9.93531E-05-2.97636E-05-2.98225E-05 9.21342E-07-1.75437E-20-3.11708E-19
 -1      1389 9.80213E-05-2.93379E-05-2.94450E-05 1.62674E-06-3.10117E-19-4.76254E-19
 -1      1390 1.00118E-04-2.99831E-05-3.00601E-05 1.07106E-06 7.00473E-20-4.96328E-19
 -1      1391 1.01140E-04-3.02931E-05-3.03621E-05 1.11001E-06 1.56809E-20-3.59268E-19
 -1      1392 9.93972E-05-2.97352E-05-2.98664E-05 1.95602E-06 8.80352E-20-6.79428E-19
 -1      1393 1.02043E-04-3.05543E-05-3.06416E-05 1.27608E-06-4.60003E-20-3.66090E-19
 -1      1394 1.03259E-04-3.09277E-05-3.09999E-05 1.31852E-06-7.30897E-20-5.62205E-19
 -1      1395 1.01029E-04-3.02144E-05-3.03620E-05 2.33659E-06-7.99189E-20-1.14871E-18
 -1      1396 1.04303E-04-3.12336E-05-3.13212E-05 1.48030E-06-5.12397E-20-4.36672E-19
 -1      1397 1.05710E-04-3.16715E-05-3.17332E-05 1.52014E-06-2.57716E-19-9.33801E-19
 -1      1398 1.02938E-04-3.07883E-05-3.09347E-05 2.73319E-06-2.28552E-19-9.46586E-19
 -1      1399 1.06874E-04-3.20194E-05-3.20876E-05 1.63963E-06 6.63151E-21-1.26633E-18
 -1      1400 1.08418E-04-3.25099E-05-3.25366E-05 1.66562E-06-1.61837E-19-1.12098E-18
 -1      1401 1.05112E-04-3.14637E-05-3.15749E-05 3.07696E-06-4.10021E-19-8.48373E-19
 -1      1402 1.09643E-04-3.28879E-05-3.29022E-05 1.68093E-06 2.86204E-19-9.71891E-19
 -1      1403 1.11199E-04-3.33959E-05-3.33487E-05 1.67454E-06 4.32040E-19-3.36656E-19
 -1      1404 1.07479E-04-3.22341E-05-3.22535E-05 3.25018E-06 2.75353E-19-1.36037E-18
 -1      1405 1.12369E-04-3.37769E-05-3.36856E-05 1.49723E-06-1.42043E-19-3.80741E-19
 -1      1406 1.13699E-04-3.42319E-05-3.40589E-05 1.43193E-06-2.26920E-19-6.58409E-19
 -1      1407 1.09880E-04-3.30685E-05-3.29129E-05 3.07468E-06 1.22161E-19-8.74389E-19
 -1      1408 1.14631E-04-3.45663E-05-3.43061E-05 9.58225E-07-1.03232E-21-5.97099E-19
 -1      1409 1.15373E-04-3.48516E-05-3.45018E-05 8.03679E-07-1.03249E-19-6.49145E-19
 -1      1410 1.12031E-04-3.38925E-05-3.34616E-05 2.31998E-06-2.08185E-19-1.12953E-19
 -1      1411 1.15813E-04-3.50609E-05-3.45830E-05-4.36362E-08-2.89487E-19-3.23766E-19
 -1      1412 1.15517E-04-3.50172E-05-3.44780E-05-3.06244E-07-4.42297E-19-5.30362E-19
 -1      1413 1.13506E-04-3.45628E-05-3.37789E-05 7.62648E-07-1.54352E-19-3.47681E-20
 -1      1414 1.15188E-04-3.49946E-05-3.43227E-05-1.49040E-06-1.40932E-19-6.97704E-19
 -1      1415 1.13458E-04-3.44601E-05-3.38207E-05-1.83644E-06 9.88183E-20-5.67539E-19
 -1      1416 1.13769E-04-3.48470E-05-3.37406E-05-1.66405E-06-2.13439E-19 7.98957E-20
 -1      1417 1.12172E-04-3.41006E-05-3.34033E-05-3.09494E-06 2.72176E-19-4.59886E-19
 -1      1418 1.08943E-04-3.30098E-05-3.25085E-05-3.42188E-06 4.42403E-19-1.53313E-19
 -1      1419 1.12315E-04-3.44511E-05-3.32723E-05-4.62695E-06 9.58603E-20 7.01158E-19
 -1      1420 1.06787E-04-3.22856E-05-3.18911E-05-4.22831E-06 3.43101E-19-5.51948E-19
 -1      1421 1.02633E-04-3.08032E-05-3.07782E-05-4.35605E-06-1.81798E-20-3.37384E-19
 -1      1422 1.08975E-04-3.31645E-05-3.24172E-05-7.19150E-06 2.35813E-19 2.44448E-20
 -1      1423 1.00144E-04-2.98757E-05-3.01274E-05-4.10903E-06-1.73000E-19 1.09585E-20
 -1      1424 9.63363E-05-2.84642E-05-2.91342E-05-3.87549E-06-2.57908E-19-6.20081E-19
 -1      1425 1.04321E-04-3.11225E-05-3.13756E-05-7.96421E-06-2.58074E-19-2.19196E-19
 -1      1426 9.44543E-05-2.77176E-05-2.86731E-05-2.35461E-06-1.88756E-19-4.13511E-19
 -1      1427 9.24977E-05-2.69763E-05-2.81709E-05-1.78194E-06 2.14458E-19 1.69142E-20
 -1      1428 9.98574E-05-2.90196E-05-3.04709E-05-5.86554E-06-3.76003E-19 3.70842E-19
 -1      1429 9.21011E-05-2.68150E-05-2.80766E-05 4.85608E-07-5.04382E-20-5.08183E-19
 -1      1430 9.28667E-05-2.71066E-05-2.82722E-05 1.13542E-06-4.80665E-19-3.12423E-19
 -1      1431 9.75073E-05-2.78735E-05-3.00220E-05-1.22108E-06-1.97888E-19 1.04946E-19
 -1      1432 9.41557E-05-2.76267E-05-2.85821E-05 3.10215E-06 1.02967E-19 4.49986E-20
 -1      1433 9.72932E-05-2.88043E-05-2.93931E-05 3.50674E-06 3.78617E-19 2.12341E-19
 -1      1434 9.84299E-05-2.83275E-05-3.01957E-05 3.99022E-06-2.60939E-19 5.44973E-19
 -1      1435 9.96321E-05-2.97052E-05-2.99846E-05 4.34112E-06-3.84447E-19-2.03129E-19
 -1      1436 1.03813E-04-3.12262E-05-3.10901E-05 4.36337E-06-5.90321E-19-7.22149E-19
 -1      1437 1.02156E-04-3.01187E-05-3.09259E-05 7.38538E-06-4.17832E-19 1.27743E-19
 -1      1438 1.06211E-04-3.20754E-05-3.17468E-05 3.96765E-06-5.96986E-19-3.63165E-20
 -1      1439 1.09967E-04-3.33795E-05-3.27708E-05 3.70579E-06-5.06506E-19-1.03026E-18
 -1      1440 1.06948E-04-3.23024E-05-3.19461E-05 7.83434E-06-5.27778E-19 1.54591E-18
 -1      1441 1.11675E-04-3.39076E-05-3.32911E-05 2.57274E-06 3.28755E-20-1.31854E-18
 -1      1442 1.14098E-04-3.46932E-05-3.39778E-05 2.21679E-06 5.78179E-19-1.11131E-18
 -1      1443 1.10999E-04-3.39762E-05-3.29167E-05 5.89743E-06-3.83514E-19 2.02506E-18
 -1      1444 1.14841E-04-3.48552E-05-3.42509E-05 9.49186E-07-1.49356E-19-1.52512E-18
 -1      1445 1.15739E-04-3.51003E-05-3.45248E-05 6.41800E-07-2.66273E-19-1.91221E-18
 -1      1446 1.13308E-04-3.47582E-05-3.35711E-05 2.95914E-06-1.12444E-19 1.87902E-19
 -1      1447 1.15608E-04-3.49797E-05-3.45414E-05-3.73035E-07 1.07308E-19-1.90260E-18
 -1      1448 1.15268E-04-3.48187E-05-3.44638E-05-5.75630E-07-1.78962E-19-1.96994E-18
 -1      1449 1.13757E-04-3.47405E-05-3.37965E-05 2.15310E-07-1.28848E-19-1.08022E-18
 -1      1450 1.14519E-04-3.45277E-05-3.42801E-05-1.21212E-06-1.81086E-19-1.90270E-18
 -1      1451 1.13394E-04-3.41292E-05-3.39699E-05-1.31400E-06-2.18085E-19-1.91807E-18
 -1      1452 1.12748E-04-3.42070E-05-3.36226E-05-1.74290E-06-2.55268E-19-1.30297E-18
 -1      1453 1.12300E-04-3.37604E-05-3.36635E-05-1.61128E-06 2.75134E-19-1.11194E-18
 -1      1454 1.10802E-04-3.32626E-05-3.32372E-05-1.64031E-06 3.26276E-19-7.04083E-19
 -1      1455 1.10833E-04-3.34266E-05-3.31599E-05-2.83489E-06-1.14912E-20-8.90013E-19
 -1      1456 1.09582E-04-3.28780E-05-3.28776E-05-1.69749E-06 6.42757E-19-6.19750E-19
 -1      1457 1.08006E-04-3.23716E-05-3.24218E-05-1.68282E-06 4.70607E-19-2.44382E-19
 -1      1458 1.08496E-04-3.25819E-05-3.25356E-05-3.23764E-06 7.94592E-19-5.37016E-19
 -1      1459 1.06805E-04-3.20081E-05-3.20591E-05-1.59743E-06-4.04179E-19 1.88597E-19
 -1      1460 1.05325E-04-3.15430E-05-3.16270E-05-1.56113E-06-1.37014E-18-1.34042E-18
 -1      1461 1.06086E-04-3.17757E-05-3.18569E-05-3.18915E-06 4.45346E-20-2.74789E-19
 -1      1462 1.04229E-04-3.12191E-05-3.12911E-05-1.40633E-06-1.11232E-18-1.64089E-18
 -1      1463 1.02929E-04-3.08171E-05-3.09095E-05-1.36248E-06-5.61822E-19-2.45639E-18
 -1      1464 1.03819E-04-3.10565E-05-3.11972E-05-2.89257E-06-1.61436E-18-8.92733E-19
 -1      1465 1.01977E-04-3.05398E-05-3.06154E-05-1.18500E-06 1.71556E-19-2.10577E-18
 -1      1466 1.00885E-04-3.02059E-05-3.02936E-05-1.14139E-06 2.50683E-19-1.89982E-18
 -1      1467 1.01807E-04-3.04413E-05-3.05993E-05-2.48948E-06-2.13207E-19 7.38159E-20
 -1      1468 1.00087E-04-2.99754E-05-3.00461E-05-9.67019E-07-3.48573E-19-8.88031E-19
 -1      1469 9.91997E-05-2.97061E-05-2.97839E-05-9.27211E-07-2.22266E-19-1.25975E-18
 -1      1470 1.00092E-04-2.99299E-05-3.00827E-05-2.06514E-06 9.64939E-20 9.66053E-19
 -1      1471 9.85501E-05-2.95193E-05-2.95824E-05-7.67080E-07 7.66252E-19-1.96966E-18
 -1      1472 9.78498E-05-2.93075E-05-2.93753E-05-7.31915E-07 9.55820E-19-3.61647E-19
 -1      1473 9.86754E-05-2.95139E-05-2.96525E-05-1.66281E-06 5.22302E-19 6.07665E-19
 -1      1474 9.73373E-05-2.91598E-05-2.92168E-05-5.87553E-07 1.38115E-18-2.79587E-21
 -1      1475 9.68055E-05-2.89989E-05-2.90598E-05-5.56100E-07 9.88829E-19 2.31535E-18
 -1      1476 9.75384E-05-2.91820E-05-2.93061E-05-1.29727E-06 2.12657E-18 1.50794E-18
 -1      1477 9.64176E-05-2.88859E-05-2.89409E-05-4.22890E-07 3.58278E-19 1.46641E-18
 -1      1478 9.60419E-05-2.87716E-05-2.88306E-05-3.92941E-07-3.67326E-20 1.54477E-18
 -1      1479 9.66558E-05-2.89229E-05-2.90381E-05-9.64863E-07 1.11384E-18 1.43786E-18
 -1      1480 9.57678E-05-2.86900E-05-2.87481E-05-2.64104E-07 2.59757E-19 1.59641E-18
 -1      1481 9.55449E-05-2.86227E-05-2.86819E-05-2.32682E-07 2.25820E-20 1.70703E-18
 -1      1482 9.60042E-05-2.87276E-05-2.88419E-05-6.51490E-07 3.52397E-19-2.54388E-19
 -1      1483 9.53685E-05-2.85653E-05-2.86305E-05-1.04683E-07-3.50254E-19 1.99470E-18
 -1      1484 9.52984E-05-2.85565E-05-2.86004E-05-7.11174E-08-7.04295E-20 2.15009E-18
 -1      1485 9.55599E-05-2.85912E-05-2.87087E-05-3.47475E-07-2.99770E-20 6.61751E-19
 -1      1486 9.52166E-05-2.85714E-05-2.85531E-05 2.77030E-08-1.84185E-18 1.23781E-18
 -1      1487 9.52927E-05-2.85516E-05-2.86041E-05-5.50930E-08-1.36798E-18 1.46248E-19
 -1      1488 9.64506E-05-2.83256E-05-2.97343E-05 2.99786E-06 6.09493E-19 4.40333E-18
 -1      1489 1.02411E-04-2.93615E-05-3.21179E-05 4.46467E-06 5.42948E-19 5.30825E-18
 -1      1490 1.02217E-04-2.66865E-05-3.26721E-05 1.27835E-05 1.03200E-18 3.33127E-18
 -1      1491 9.19022E-05-2.73905E-05-2.77233E-05 1.15365E-06 4.42284E-19 3.13598E-18
 -1      1492 9.38513E-05-2.75467E-05-2.86380E-05 1.47555E-06 4.29088E-19 3.86816E-18
 -1      1493 9.63783E-05-2.79976E-05-2.95011E-05 4.87017E-06 9.39333E-19 2.43567E-18
 -1      1494 9.00699E-05-2.69656E-05-2.70247E-05 3.31799E-07 3.26048E-19 2.21811E-18
 -1      1495 9.06861E-05-2.69837E-05-2.72975E-05 4.94784E-07 3.20787E-19 2.74899E-18
 -1      1496 9.29360E-05-2.75464E-05-2.80671E-05 1.85246E-06 7.49148E-19 1.65674E-18
 -1      1497 8.95584E-05-2.68489E-05-2.68509E-05-5.83923E-08 3.55886E-19 1.69723E-18
 -1      1498 8.95944E-05-2.67861E-05-2.68785E-05 3.11844E-08 2.48756E-19 2.02692E-18
 -1      1499 9.13895E-05-2.72767E-05-2.74857E-05 5.13639E-07 5.19337E-19 1.03310E-18
 -1      1500 8.97063E-05-2.69056E-05-2.68978E-05-2.51511E-07 1.53146E-19 1.10765E-18
 -1      1501 8.94713E-05-2.67960E-05-2.68305E-05-2.00248E-07 1.92821E-19 1.48040E-18
 -1      1502 9.08726E-05-2.71993E-05-2.72944E-05-1.45158E-07 5.14831E-19 7.82976E-19
 -1      1503 9.01914E-05-2.70570E-05-2.70462E-05-3.44024E-07 8.11927E-20 8.23554E-19
 -1      1504 8.98295E-05-2.69250E-05-2.69399E-05-3.14510E-07 8.00231E-20 9.36964E-19
 -1      1505 9.09180E-05-2.72495E-05-2.72926E-05-4.78630E-07 2.28315E-19 5.51409E-19
 -1      1506 9.08431E-05-2.72555E-05-2.72433E-05-3.82653E-07 2.09176E-19 4.38128E-19
 -1      1507 9.04275E-05-2.71162E-05-2.71210E-05-3.65944E-07 1.59545E-19 6.57476E-19
 -1      1508 9.12703E-05-2.73741E-05-2.73895E-05-6.41457E-07 2.55340E-19 4.05510E-19
 -1      1509 9.15705E-05-2.74746E-05-2.74630E-05-3.93984E-07 2.22250E-19-2.81619E-19
 -1      1510 9.11384E-05-2.73358E-05-2.73354E-05-3.84433E-07 2.71496E-19 1.35717E-19
 -1      1511 9.17878E-05-2.75387E-05-2.75398E-05-7.13158E-07 4.60964E-19-2.44349E-20
 -1      1512 9.23298E-05-2.77016E-05-2.76925E-05-3.95070E-07 1.11207E-19-7.54839E-19
 -1      1513 9.18970E-05-2.75659E-05-2.75641E-05-3.88748E-07 4.13521E-20-5.82474E-19
 -1      1514 9.23935E-05-2.77235E-05-2.77194E-05-7.40472E-07 3.32705E-19-5.16725E-19
 -1      1515 9.31082E-05-2.79331E-05-2.79283E-05-3.97805E-07-2.71526E-20-5.07952E-19
 -1      1516 9.26764E-05-2.77993E-05-2.77996E-05-3.91763E-07 6.84452E-20-5.69659E-19
 -1      1517 9.30504E-05-2.79193E-05-2.79167E-05-7.53911E-07 1.50072E-20-6.05579E-19
 -1      1518 9.39151E-05-2.81720E-05-2.81730E-05-4.11050E-07 2.36869E-20-4.42790E-19
 -1      1519 9.34753E-05-2.80364E-05-2.80414E-05-4.02917E-07 4.11512E-20-5.56760E-19
 -1      1520 9.37483E-05-2.81242E-05-2.81282E-05-7.75043E-07-4.24848E-20-4.27716E-19
 -1      1521 9.47762E-05-2.84263E-05-2.84344E-05-4.41734E-07 3.11893E-19-6.36365E-19
 -1      1522 9.43114E-05-2.82826E-05-2.82949E-05-4.29483E-07 5.56657E-20-5.76871E-19
 -1      1523 9.44964E-05-2.83416E-05-2.83563E-05-8.20049E-07 1.67456E-19-7.58527E-19
 -1      1524 9.57301E-05-2.87077E-05-2.87240E-05-4.95373E-07 4.89698E-19-1.39526E-18
 -1      1525 9.52171E-05-2.85481E-05-2.85698E-05-4.77209E-07 3.60318E-19-8.29872E-19
 -1      1526 9.53184E-05-2.85792E-05-2.86079E-05-9.01511E-07 6.03173E-19-9.74621E-19
 -1      1527 9.68252E-05-2.90310E-05-2.90561E-05-5.76124E-07-1.01503E-19-1.88431E-18
 -1      1528 9.62355E-05-2.88460E-05-2.88789E-05-5.50470E-07 2.92531E-19-1.52065E-18
 -1      1529 9.62484E-05-2.88476E-05-2.88930E-05-1.02910E-06 5.89800E-19-1.22598E-18
 -1      1530 9.81158E-05-2.94128E-05-2.94470E-05-6.86312E-07-2.46596E-19-1.42031E-18
 -1      1531 9.74177E-05-2.91922E-05-2.92374E-05-6.51934E-07-1.20131E-19-1.74959E-18
 -1      1532 9.73280E-05-2.91599E-05-2.92238E-05-1.20930E-06-6.97297E-20-9.53302E-19
 -1      1533 9.96573E-05-2.98705E-05-2.99128E-05-8.25226E-07-5.23440E-20-1.44049E-18
 -1      1534 9.88187E-05-2.96039E-05-2.96618E-05-7.81568E-07-1.01560E-19-1.72412E-18
 -1      1535 9.86017E-05-2.95306E-05-2.96131E-05-1.44394E-06-4.52898E-20-1.18253E-18
 -1      1536 1.01497E-04-3.04195E-05-3.04671E-05-9.86849E-07 3.17019E-19-1.55698E-18
 -1      1537 1.00490E-04-3.00980E-05-3.01668E-05-9.34693E-07 3.12781E-19-1.02186E-18
 -1      1538 1.00111E-04-2.99740E-05-3.00724E-05-1.72713E-06 1.58423E-19-1.33145E-18
 -1      1539 1.03660E-04-3.10695E-05-3.11160E-05-1.15612E-06-4.66386E-19-1.65545E-18
 -1      1540 1.02470E-04-3.06887E-05-3.07629E-05-1.09874E-06-1.43527E-19-1.87838E-18
 -1      1541 1.01886E-04-3.05021E-05-3.06085E-05-2.03986E-06 1.08801E-19-1.03165E-18
 -1      1542 1.06125E-04-3.18176E-05-3.18507E-05-1.30349E-06-3.03973E-19-8.17612E-19
 -1      1543 1.04765E-04-3.13819E-05-3.14498E-05-1.24844E-06-2.00060E-19-1.14643E-18
 -1      1544 1.03929E-04-3.11210E-05-3.12190E-05-2.34182E-06-6.07322E-19-9.04036E-19
 -1      1545 1.08791E-04-3.26382E-05-3.26372E-05-1.37812E-06-1.42613E-19-1.05376E-19
 -1      1546 1.07321E-04-3.21684E-05-3.22085E-05-1.33968E-06-1.99126E-19-3.64171E-19
 -1      1547 1.06192E-04-3.18250E-05-3.18848E-05-2.56045E-06-4.81375E-19-5.07426E-20
 -1      1548 1.11431E-04-3.34688E-05-3.34029E-05-1.30238E-06 3.66623E-20-4.10943E-20
 -1      1549 1.09987E-04-3.30112E-05-3.29892E-05-1.30389E-06-1.07115E-19-1.19617E-19
 -1      1550 1.08553E-04-3.25877E-05-3.25617E-05-2.57981E-06-2.83336E-19 3.84801E-19
 -1      1551 1.13647E-04-3.41934E-05-3.40251E-05-9.74379E-07-1.25066E-19-3.83322E-19
 -1      1552 1.12469E-04-3.38301E-05-3.36990E-05-1.04860E-06 1.27171E-19-1.27928E-19
 -1      1553 1.10776E-04-3.33495E-05-3.31720E-05-2.23713E-06 1.04771E-19 5.81488E-19
 -1      1554 1.14854E-04-3.46312E-05-3.43311E-05-2.92152E-07-4.16386E-19-2.72428E-19
 -1      1555 1.14298E-04-3.44844E-05-3.41950E-05-4.74974E-07-3.49490E-19-9.00502E-19
 -1      1556 1.12490E-04-3.40016E-05-3.36018E-05-1.34485E-06-1.20702E-20 1.27035E-19
 -1      1557 1.14352E-04-3.45474E-05-3.41278E-05 7.82776E-07-5.66394E-19 1.50576E-18
 -1      1558 1.14836E-04-3.47638E-05-3.42958E-05 4.71476E-07-7.61258E-19 1.43493E-19
 -1      1559 1.13197E-04-3.43737E-05-3.37140E-05 2.34378E-07-1.09995E-18 5.99718E-19
 -1      1560 1.11548E-04-3.37162E-05-3.32764E-05 2.11755E-06-7.22824E-20 2.20303E-18
 -1      1561 1.13415E-04-3.44146E-05-3.38276E-05 1.70875E-06 1.86665E-19 2.22658E-18
 -1      1562 1.12368E-04-3.42421E-05-3.33890E-05 2.43684E-06-3.13985E-19 1.72367E-18
 -1      1563 1.06386E-04-3.20636E-05-3.18068E-05 3.30659E-06-2.55268E-20 2.36079E-18
 -1      1564 1.09633E-04-3.32358E-05-3.27156E-05 2.91632E-06-3.52035E-19 1.81646E-18
 -1      1565 1.09665E-04-3.33952E-05-3.25924E-05 4.80246E-06-2.42748E-19 2.24323E-18
 -1      1566 9.97998E-05-2.98590E-05-3.00117E-05 3.72277E-06 2.32989E-19 1.63906E-18
 -1      1567 1.03811E-04-3.12657E-05-3.10922E-05 3.53807E-06 5.55972E-19 2.54761E-18
 -1      1568 1.05298E-04-3.17951E-05-3.14475E-05 6.40130E-06 6.88289E-19 2.15898E-18
 -1      1569 9.37877E-05-2.77886E-05-2.84235E-05 2.85337E-06-2.95317E-19 2.04813E-18
 -1      1570 9.73277E-05-2.89617E-05-2.93488E-05 3.03143E-06-5.14308E-19 1.66373E-18
 -1      1571 1.00319E-04-2.97809E-05-3.02517E-05 6.15555E-06-2.46288E-19 2.41541E-18
 -1      1572 9.07041E-05-2.67200E-05-2.76152E-05 7.75696E-07-2.02163E-19 2.17031E-18
 -1      1573 9.23853E-05-2.71574E-05-2.80456E-05 1.30392E-06-4.33310E-20 2.05345E-18
 -1      1574 9.64712E-05-2.81011E-05-2.93938E-05 3.58180E-06-9.08575E-20 2.59346E-18
 -1      1575 9.19257E-05-2.71719E-05-2.79086E-05-1.66044E-06 5.70344E-19 1.59380E-18
 -1      1576 9.10069E-05-2.66601E-05-2.76704E-05-1.01152E-06 3.57739E-20 1.69894E-18
 -1      1577 9.54056E-05-2.75815E-05-2.91850E-05-5.42796E-07 1.26856E-19 1.42910E-18
 -1      1578 9.69036E-05-2.89189E-05-2.91864E-05-3.35112E-06-7.91685E-19 1.46166E-18
 -1      1579 9.37914E-05-2.76952E-05-2.83762E-05-2.87356E-06 7.93630E-20 1.45684E-18
 -1      1580 9.76164E-05-2.85207E-05-2.97033E-05-4.41638E-06 2.21274E-19 1.90439E-18
 -1      1581 1.03550E-04-3.11734E-05-3.09599E-05-3.70324E-06 9.14051E-20 2.27540E-18
 -1      1582 9.95215E-05-2.97541E-05-2.98872E-05-3.55367E-06-7.37297E-19 1.59454E-18
 -1      1583 1.02092E-04-3.04286E-05-3.07530E-05-6.42014E-06-7.16707E-19 8.23157E-19
 -1      1584 1.09546E-04-3.31172E-05-3.26379E-05-2.90875E-06 2.51152E-19 2.16518E-18
 -1      1585 1.05965E-04-3.19716E-05-3.16540E-05-3.04305E-06 6.43116E-19 2.55105E-18
 -1      1586 1.07017E-04-3.24209E-05-3.19662E-05-6.11895E-06 2.42357E-19 1.23140E-18
 -1      1587 1.13446E-04-3.43020E-05-3.38017E-05-1.59066E-06-3.21098E-19 2.22320E-18
 -1      1588 1.11139E-04-3.36539E-05-3.31391E-05-1.86269E-06-4.54539E-19 1.55055E-18
 -1      1589 1.10838E-04-3.38191E-05-3.29816E-05-4.23039E-06-7.51742E-20 1.97993E-18
 -1      1590 1.14918E-04-3.46807E-05-3.43036E-05-3.19336E-07 1.29269E-18-3.74885E-19
 -1      1591 1.14048E-04-3.45187E-05-3.40306E-05-5.95297E-07 9.92213E-19 1.31135E-18
 -1      1592 1.12831E-04-3.44102E-05-3.35776E-05-1.84680E-06 1.34723E-18 4.06649E-19
 -1      1593 1.14381E-04-3.44366E-05-3.42178E-05 6.10083E-07 1.24844E-18-3.09053E-18
 -1      1594 1.14677E-04-3.46282E-05-3.42775E-05 4.00057E-07 8.66442E-19-1.73414E-18
 -1      1595 1.13030E-04-3.43234E-05-3.37055E-05 2.18193E-07 1.89819E-18-1.25888E-18
 -1      1596 1.12529E-04-3.38108E-05-3.37230E-05 1.14593E-06 1.44116E-19-4.14591E-18
 -1      1597 1.13570E-04-3.42036E-05-3.40058E-05 1.01676E-06 2.56079E-19-3.20487E-18
 -1      1598 1.11881E-04-3.38043E-05-3.34438E-05 1.62147E-06 6.93472E-19-2.73381E-18
 -1      1599 1.10013E-04-3.30092E-05-3.30071E-05 1.36241E-06-5.29319E-19-3.62177E-18
 -1      1600 1.11416E-04-3.34818E-05-3.34046E-05 1.30074E-06 3.68310E-20-3.39804E-18
 -1      1601 1.09921E-04-3.30735E-05-3.29240E-05 2.36402E-06-1.69645E-19-2.96483E-18
 -1      1602 1.07317E-04-3.21742E-05-3.22180E-05 1.36663E-06-5.10289E-19-1.54479E-18
 -1      1603 1.08805E-04-3.26479E-05-3.26484E-05 1.35115E-06-6.25363E-19-2.77545E-18
 -1      1604 1.07607E-04-3.22849E-05-3.22756E-05 2.60257E-06-7.14697E-19-1.18201E-18
 -1      1605 1.04742E-04-3.13900E-05-3.14525E-05 1.25185E-06-1.41481E-18 1.15040E-18
 -1      1606 1.06147E-04-3.18220E-05-3.18642E-05 1.26354E-06-9.54401E-19-8.82714E-19
 -1      1607 1.05262E-04-3.15291E-05-3.15979E-05 2.51962E-06-1.58687E-18 5.23235E-19
 -1      1608 1.02444E-04-3.06981E-05-3.07633E-05 1.08383E-06-3.05643E-19 2.62218E-18
 -1      1609 1.03685E-04-3.10700E-05-3.11296E-05 1.10899E-06-4.69694E-19 2.44069E-18
 -1      1610 1.03081E-04-3.08519E-05-3.09554E-05 2.26419E-06-1.46350E-18 1.60070E-18
 -1      1611 1.00486E-04-3.01125E-05-3.01729E-05 9.02707E-07-9.30937E-19 2.92247E-18
 -1      1612 1.01533E-04-3.04207E-05-3.04835E-05 9.32777E-07-4.18407E-19 2.21196E-18
 -1      1613 1.01162E-04-3.02710E-05-3.03828E-05 1.93798E-06-1.17107E-19 3.86572E-18
 -1      1614 9.88733E-05-2.96323E-05-2.96851E-05 7.29266E-07 1.64810E-18 2.85056E-18
 -1      1615 9.97281E-05-2.98802E-05-2.99393E-05 7.59662E-07 7.42548E-19 3.00008E-18
 -1      1616 9.95380E-05-2.97878E-05-2.98944E-05 1.60107E-06 3.17482E-19 3.77664E-18
 -1      1617 9.75853E-05-2.92492E-05-2.92953E-05 5.70999E-07 7.99394E-19 1.32822E-18
 -1      1618 9.82619E-05-2.94430E-05-2.94966E-05 6.00054E-07 6.61281E-19 1.73474E-18
 -1      1619 9.82074E-05-2.93959E-05-2.94926E-05 1.28275E-06 1.83794E-18 2.71145E-18
 -1      1620 9.65955E-05-2.89542E-05-2.89966E-05 4.26556E-07 8.02469E-19-7.95733E-19
 -1      1621 9.71094E-05-2.90993E-05-2.91490E-05 4.54738E-07 1.11080E-18 1.18019E-19
 -1      1622 9.71512E-05-2.90858E-05-2.91736E-05 9.91014E-07 1.35760E-18 6.66139E-19
 -1      1623 9.58836E-05-2.87405E-05-2.87832E-05 2.89195E-07 7.75531E-20-3.29174E-18
 -1      1624 9.62447E-05-2.88396E-05-2.88896E-05 3.18609E-07 5.38486E-19-2.18581E-18
 -1      1625 9.63476E-05-2.88481E-05-2.89323E-05 7.20212E-07 1.43753E-18-5.61220E-19
 -1      1626 9.54402E-05-2.86065E-05-2.86497E-05 1.49318E-07-1.65412E-18-2.34803E-18
 -1      1627 9.56492E-05-2.86580E-05-2.87124E-05 1.84248E-07-7.55529E-19-3.29950E-18
 -1      1628 9.57764E-05-2.86753E-05-2.87629E-05 4.58090E-07-4.09627E-19-5.80026E-19
 -1      1629 9.52553E-05-2.85586E-05-2.85804E-05 1.85177E-08 6.00378E-19-1.00122E-18
 -1      1630 9.53122E-05-2.85598E-05-2.86082E-05 5.31590E-08 1.00733E-19-1.87739E-18
 -1      1631 9.54190E-05-2.85703E-05-2.86542E-05 1.96987E-07-6.41545E-20-1.41624E-18
 -1      1632 9.52227E-05-2.85730E-05-2.85549E-05-2.09757E-08-3.84938E-19-6.38064E-19
 -1      1633 9.52349E-05-2.84320E-05-2.86339E-05 1.13799E-07 3.85893E-19 4.99118E-19
 -1      1634 9.52544E-05-2.85096E-05-2.86019E-05 8.00484E-08-1.03816E-18-1.13683E-19
 -1      1635 9.51145E-05-2.80612E-05-2.87406E-05 2.51797E-07 1.45260E-18 4.90722E-19
 -1      1636 9.51840E-05-2.82707E-05-2.86800E-05 2.25976E-07 8.11712E-19 6.35008E-19
 -1      1637 9.52166E-05-2.82536E-05-2.87040E-05 3.40194E-07 1.45316E-18 1.11099E-18
 -1      1638 9.49390E-05-2.75331E-05-2.88900E-05 3.42774E-07-1.07163E-19-1.10257E-18
 -1      1639 9.50395E-05-2.78347E-05-2.88045E-05 3.29105E-07 1.21090E-18 1.92785E-19
 -1      1640 9.50717E-05-2.78589E-05-2.88111E-05 5.67847E-07 1.36213E-18-4.27994E-19
 -1      1641 9.47422E-05-2.69354E-05-2.90604E-05 3.70253E-07-1.46021E-18-1.33473E-18
 -1      1642 9.48530E-05-2.72709E-05-2.89649E-05 3.70012E-07-5.76642E-19 1.08966E-19
 -1      1643 9.48931E-05-2.73648E-05-2.89425E-05 6.92214E-07 8.36065E-19-1.77451E-18
 -1      1644 9.45594E-05-2.63748E-05-2.92217E-05 3.36741E-07-2.76423E-18 3.45939E-19
 -1      1645 9.46599E-05-2.66813E-05-2.91340E-05 3.47851E-07-1.95615E-18-1.78638E-18
 -1      1646 9.47073E-05-2.68447E-05-2.90818E-05 6.95777E-07-1.42272E-19-2.08932E-18
 -1      1647 9.44114E-05-2.59187E-05-2.93535E-05 2.50786E-07-8.63461E-19 1.67148E-18
 -1      1648 9.44894E-05-2.61571E-05-2.92851E-05 2.71339E-07-2.88037E-18 1.35307E-18
 -1      1649 9.45405E-05-2.63711E-05-2.92100E-05 5.88846E-07-2.65069E-19 3.03908E-19
 -1      1650 9.43232E-05-2.56457E-05-2.94326E-05 1.27566E-07-8.11100E-19 8.30192E-20
 -1      1651 9.43653E-05-2.57744E-05-2.93957E-05 1.53993E-07-6.36360E-19 1.37606E-18
 -1      1652 9.44138E-05-2.60087E-05-2.93085E-05 3.91910E-07-1.26341E-18 1.12070E-18
 -1      1653 9.43070E-05-2.55952E-05-2.94474E-05-1.42459E-08-4.88914E-19 1.71749E-19
 -1      1654 9.43070E-05-2.55952E-05-2.94474E-05 1.42341E-08-9.23924E-19 6.83147E-19
 -1      1655 9.43459E-05-2.58136E-05-2.93617E-05 1.37304E-07-2.11638E-19-9.34334E-20
 -1      1656 9.43652E-05-2.57746E-05-2.93956E-05-1.54238E-07 1.05987E-18 9.72659E-19
 -1      1657 9.43231E-05-2.56456E-05-2.94326E-05-1.27738E-07 8.20547E-20 1.36738E-18
 -1      1658 9.43457E-05-2.58134E-05-2.93617E-05-1.37433E-07 3.91714E-19 1.28765E-18
 -1      1659 9.44895E-05-2.61581E-05-2.92848E-05-2.72067E-07 1.32451E-18-5.15939E-19
 -1      1660 9.44114E-05-2.59190E-05-2.93533E-05-2.51469E-07 1.06492E-18 1.04431E-18
 -1      1661 9.44134E-05-2.60082E-05-2.93086E-05-3.92759E-07-4.60730E-19 1.54668E-18
 -1      1662 9.46591E-05-2.66792E-05-2.91345E-05-3.48353E-07-9.46619E-19-5.19806E-19
 -1      1663 9.45582E-05-2.63719E-05-2.92224E-05-3.37198E-07 1.64861E-18-2.65035E-18
 -1      1664 9.45394E-05-2.63674E-05-2.92109E-05-5.89616E-07-3.44943E-20-2.18409E-18
 -1      1665 9.48545E-05-2.72751E-05-2.89637E-05-3.70982E-07 8.83942E-20-1.50574E-19
 -1      1666 9.47433E-05-2.69386E-05-2.90595E-05-3.71340E-07-6.57370E-19 1.14661E-18
 -1      1667 9.47063E-05-2.68417E-05-2.90827E-05-6.97412E-07 6.48712E-19 4.17339E-19
 -1      1668 9.50409E-05-2.78401E-05-2.88030E-05-3.29874E-07-1.81715E-18-1.01578E-18
 -1      1669 9.49405E-05-2.75378E-05-2.88885E-05-3.43172E-07-6.73514E-19 3.14198E-19
 -1      1670 9.48942E-05-2.73676E-05-2.89418E-05-6.93649E-07-4.18954E-19-2.22491E-19
 -1      1671 9.51877E-05-2.82721E-05-2.86791E-05-2.27235E-07-1.97979E-18-1.73992E-19
 -1      1672 9.51141E-05-2.80639E-05-2.87394E-05-2.54078E-07-1.65237E-18-8.90692E-20
 -1      1673 9.50712E-05-2.78604E-05-2.88102E-05-5.67402E-07-1.02057E-18-4.71136E-19
 -1      1674 9.52656E-05-2.84699E-05-2.86225E-05-1.35951E-07-2.48077E-18-2.25633E-18
 -1      1675 9.52421E-05-2.83854E-05-2.86560E-05-1.84308E-07-1.30461E-18-1.45354E-18
 -1      1676 9.52329E-05-2.82060E-05-2.87286E-05-4.19281E-07-1.07264E-18 8.07045E-19
 -1      1677 9.53621E-05-2.84304E-05-2.86821E-05-2.84353E-07-8.31067E-19-9.00063E-19
 -1      1678 2.09010E-05-6.78437E-05 1.40035E-05-6.19339E-06-6.23840E-19-1.06726E-19
 -1      1679 2.38382E-05-7.63311E-05 1.57967E-05 1.55193E-06 7.32789E-19-4.84079E-19
 -1      1680 1.86032E-05-4.21451E-05 5.44733E-06-1.69684E-07 2.46487E-19 6.80062E-19
 -1      1681 2.35014E-05-6.32401E-05 1.06631E-05-2.21914E-06-4.16740E-19 7.52006E-19
 -1      1682 3.25281E-05-1.64953E-05-9.14876E-06 2.42019E-05 3.02221E-18 5.71324E-18
 -1      1683 2.87242E-05-3.68612E-05-1.22480E-06 9.08439E-06 2.99003E-19 1.95178E-18
 -1      1684 6.63970E-05-2.77079E-06-2.70250E-05 5.34753E-05 5.50741E-18 5.48454E-18
 -1      1685 4.61977E-05-1.16827E-05-1.74700E-05 3.14158E-05 4.20975E-18 4.57567E-18
 -1      1686 1.22260E-04-1.06852E-05-4.51648E-05 7.49614E-05 4.00985E-18 3.89805E-18
 -1      1687 8.56408E-05-2.02293E-06-3.60137E-05 5.98350E-05 5.53960E-18 4.79759E-18
 -1      1688 1.93315E-04-3.82385E-05-6.15960E-05 6.54881E-05 1.59242E-18 3.77777E-19
 -1      1689 1.48055E-04-1.80556E-05-5.33403E-05 6.95056E-05 2.97774E-18 2.43437E-18
 -1      1690 2.43415E-04-5.99246E-05-7.20670E-05 3.58848E-05 4.70527E-19-2.26370E-18
 -1      1691 2.14269E-04-4.39762E-05-6.79729E-05 6.07387E-05 7.64077E-19-6.20028E-19
 -1      1692 2.50874E-04-6.27766E-05-7.42243E-05-1.49683E-05 3.19120E-19-3.36039E-18
 -1      1693 2.49555E-04-6.20211E-05-7.40104E-05 1.99430E-05-7.24213E-20-2.43247E-18
 -1      1694 2.17665E-04-4.58075E-05-6.84994E-05-5.67213E-05 1.28458E-18-3.49401E-18
 -1      1695 2.44221E-04-6.04261E-05-7.23835E-05-3.06211E-05 7.34801E-19-3.10861E-18
 -1      1696 1.58641E-04-2.02133E-05-5.62444E-05-7.52297E-05 2.68255E-18-4.04204E-18
 -1      1697 2.00719E-04-4.02117E-05-6.33771E-05-6.85367E-05 1.93918E-18-3.49909E-18
 -1      1698 9.71159E-05-3.46737E-06-3.97039E-05-6.45830E-05 3.04508E-18-4.58245E-18
 -1      1699 1.35375E-04-1.43212E-05-4.85197E-05-7.71747E-05 2.80749E-18-4.10642E-18
 -1      1700 5.18512E-05-6.21398E-06-2.17218E-05-3.83336E-05 4.51638E-18-3.21703E-18
 -1      1701 7.54573E-05-1.25712E-06-3.09809E-05-5.97938E-05 3.70153E-18-3.52620E-18
 -1      1702 2.91053E-05-2.81540E-05-4.76183E-06-1.21569E-05 5.80302E-18-2.73803E-18
 -1      1703 3.56434E-05-8.98136E-06-1.31807E-05-2.99070E-05 4.95345E-18-3.77184E-18
 -1      1704 2.45061E-05-5.65206E-05 8.09145E-06-1.12416E-06 3.91499E-18-2.23487E-18
 -1      1705 2.12196E-05-3.47652E-05 1.97212E-06-6.54457E-06 5.03985E-18-2.33125E-18
 -1      1706 2.34581E-05-7.36309E-05 1.50588E-05-8.29632E-07-3.60201E-19-2.16290E-18
 -1      1707 1.95226E-05-6.16622E-05 1.24691E-05 5.34333E-06 3.05779E-18-2.60876E-18
 -1      1708 2.16437E-05-7.13602E-05 1.49859E-05-5.97834E-06-4.76244E-18-2.35263E-18
 -1      1709 2.33171E-05-7.59527E-05 1.60016E-05 2.76280E-06-1.82541E-18-1.89418E-18
 -1      1710 1.85592E-05-4.85124E-05 7.73762E-06-3.05284E-06-6.53147E-18-2.02467E-18
 -1      1711 2.37723E-05-6.76062E-05 1.23361E-05-2.28251E-06-5.85257E-18-1.69216E-18
 -1      1712 2.55765E-05-1.95754E-05-5.59471E-06 1.63261E-05-5.09406E-18-1.30740E-18
 -1      1713 2.49774E-05-4.18370E-05 1.88911E-06 3.55599E-06-6.14861E-18-2.08243E-18
 -1      1714 5.56071E-05-2.54845E-06-2.33119E-05 4.73922E-05-1.87448E-18-8.90232E-19
 -1      1715 3.83131E-05-1.42819E-05-1.37732E-05 2.47863E-05-4.04882E-18-1.08420E-18
 -1      1716 1.19546E-04-1.44363E-05-4.27891E-05 6.87557E-05-8.89385E-19-8.80914E-20
 -1      1717 8.34804E-05-8.48688E-06-3.27716E-05 5.15220E-05-1.24937E-18-7.08967E-19
 -1      1718 1.83901E-04-3.24607E-05-5.97672E-05 7.44216E-05-6.31887E-19-5.50571E-20
 -1      1719 1.40075E-04-1.36773E-05-5.18101E-05 7.45088E-05-1.06303E-18-6.51368E-19
 -1      1720 2.40629E-04-5.86203E-05-7.13221E-05 4.23724E-05-4.87150E-19 1.63435E-18
 -1      1721 2.05983E-04-4.00076E-05-6.61809E-05 6.60223E-05-3.43419E-19 3.43895E-19
 -1      1722 2.55240E-04-6.51946E-05-7.47829E-05-9.36555E-06 5.63277E-20 2.47778E-18
 -1      1723 2.50469E-04-6.23241E-05-7.40717E-05 2.57852E-05-2.76980E-19 2.23447E-18
 -1      1724 2.20520E-04-4.70874E-05-6.91638E-05-5.26073E-05-1.81022E-18 3.78708E-18
 -1      1725 2.45906E-04-6.09497E-05-7.28879E-05-2.43795E-05-6.86520E-19 3.15986E-18
 -1      1726 1.62625E-04-2.16275E-05-5.72062E-05-7.50425E-05-2.60378E-18 4.30716E-18
 -1      1727 2.05068E-04-4.22049E-05-6.42929E-05-6.66589E-05-1.83203E-18 4.06915E-18
 -1      1728 9.90747E-05-5.13546E-06-3.98795E-05-6.32800E-05-2.62326E-18 3.31613E-18
 -1      1729 1.39437E-04-1.68245E-05-4.91803E-05-7.59053E-05-2.57413E-18 3.32460E-18
 -1      1730 4.89158E-05-7.23696E-06-2.04000E-05-3.54786E-05-1.97613E-18 3.02052E-18
 -1      1731 7.40355E-05-1.21145E-06-3.05217E-05-5.91905E-05-2.50468E-18 4.16740E-18
 -1      1732 2.73849E-05-3.27564E-05-2.43037E-06-8.76893E-06-7.30142E-19 1.33238E-18
 -1      1733 3.22736E-05-1.08638E-05-1.12415E-05-2.64269E-05-2.24464E-18 2.65841E-18
 -1      1734 2.42082E-05-6.11141E-05 1.00017E-05-6.26434E-08 1.52805E-18 2.44316E-19
 -1      1735 1.98671E-05-3.96560E-05 4.26920E-06-3.23460E-06-2.88838E-19 1.62249E-18
 -1      1736 2.36597E-05-7.62148E-05 1.58131E-05-1.46499E-06 1.32010E-18-8.09128E-19
 -1      1737 2.04113E-05-6.73042E-05 1.40031E-05 6.73219E-06 2.53051E-18-1.19389E-18
 -1      1738 1.04624E-04-3.08784E-05-3.12245E-05 4.50400E-05 2.96462E-18 2.16925E-18
 -1      1739 6.75640E-05-3.66535E-05-1.47924E-05 3.82280E-05 9.32583E-19 3.94971E-18
 -1      1740 9.52679E-05-2.85685E-05-2.85843E-05 1.16235E-08-6.29483E-19-9.21453E-19
 -1      1741 9.52901E-05-2.84699E-05-2.86369E-05 1.35379E-07 1.05710E-18 3.01504E-19
 -1      1742 1.73636E-05-4.86087E-05 8.89593E-06 1.19051E-05 4.65868E-21 6.59839E-19
 -1      1743 3.65391E-05-4.19867E-05-7.06972E-07 2.71476E-05 7.30142E-19 2.84002E-18
 -1      1744 1.21025E-05-5.16598E-05 1.21151E-05-1.90000E-08 1.27669E-18-1.56447E-18
 -1      1745 1.48521E-04-3.12604E-05-4.77147E-05 4.19488E-05 3.49443E-18 6.25957E-19
 -1      1746 1.85025E-04-3.31561E-05-6.12530E-05 2.85701E-05 1.98100E-18-1.39633E-18
 -1      1747 2.08906E-04-3.45517E-05-6.92756E-05 1.30665E-05 8.97008E-19-1.54774E-18
 -1      1748 2.08001E-04-3.37099E-05-6.93675E-05-9.80123E-06 4.25634E-19-2.53729E-18
 -1      1749 1.89912E-04-3.28441E-05-6.27872E-05-3.12872E-05 1.29935E-18-2.00112E-18
 -1      1750 1.54915E-04-3.01600E-05-5.05173E-05-4.45185E-05 1.75717E-18-2.39795E-18
 -1      1751 1.12973E-04-2.94648E-05-3.48471E-05-4.62665E-05 1.82874E-18-1.86263E-18
 -1      1752 7.30024E-05-3.27256E-05-1.83997E-05-3.98175E-05 3.07558E-18-1.46833E-18
 -1      1753 4.20017E-05-3.98609E-05-3.78956E-06-2.91816E-05 2.72321E-18-1.95289E-18
 -1      1754 2.10117E-05-4.54540E-05 6.63623E-06-1.75262E-05 1.16891E-18-3.31359E-18
 -1      1755 1.18594E-05-5.00698E-05 1.17004E-05-3.08480E-06-9.41477E-19-3.93489E-18
 -1      1756 1.54892E-05-4.98908E-05 1.01169E-05 9.66573E-06-2.74269E-18-2.70246E-18
 -1      1757 3.03308E-05-4.35544E-05 2.02295E-06 2.19102E-05-3.74050E-18-9.63500E-19
 -1      1758 5.74339E-05-3.55387E-05-1.13578E-05 3.48495E-05-2.47164E-18 1.42429E-18
 -1      1759 1.01537E-04-3.44457E-05-2.83337E-05 4.29597E-05-4.72644E-19 1.41243E-18
 -1      1760 1.43869E-04-3.41504E-05-4.53879E-05 4.04570E-05-6.23628E-19 7.65718E-19
 -1      1761 1.83441E-04-3.28709E-05-6.02789E-05 3.61717E-05-7.23684E-19 5.50571E-19
 -1      1762 2.09740E-04-3.56023E-05-6.90303E-05 1.64922E-05-8.02987E-19 1.34594E-18
 -1      1763 2.09645E-04-3.42954E-05-6.98098E-05-6.65762E-06-6.06476E-19 2.07904E-18
 -1      1764 1.91110E-04-3.24801E-05-6.34563E-05-2.86318E-05-1.58607E-18 2.66265E-18
 -1      1765 1.57347E-04-3.12904E-05-5.10862E-05-4.24804E-05-1.04058E-18 2.00154E-18
 -1      1766 1.13559E-04-3.05062E-05-3.46524E-05-4.55093E-05-7.05578E-19 1.61190E-18
 -1      1767 6.97105E-05-3.33641E-05-1.69399E-05-3.86872E-05-7.50471E-19 2.59954E-18
 -1      1768 3.79629E-05-4.12765E-05-1.75285E-06-2.69924E-05-9.74088E-19 2.32743E-18
 -1      1769 1.84409E-05-4.70179E-05 8.28006E-06-1.44068E-05-3.16790E-19 6.31251E-19
 -1      1770 1.05941E-04-2.31417E-05-3.55689E-05-1.68508E-05-8.40508E-19 3.70725E-18
 -1      1771 8.91441E-05-1.05843E-05-3.37938E-05-1.33238E-05-1.21698E-18-1.08243E-18
 -1      1772 9.04581E-05-1.16265E-05-3.39272E-05-1.51331E-05-1.38101E-18-6.40675E-19
 -1      1773 9.24459E-05-1.38656E-05-3.38390E-05-1.60006E-05-1.33199E-18-1.17843E-19
 -1      1774 9.41424E-05-1.58072E-05-3.40763E-05-1.76610E-05-1.39285E-18 5.28601E-19
 -1      1775 9.33826E-05-1.63381E-05-3.30340E-05-1.37657E-05-1.41596E-18-3.50063E-19
 -1      1776 8.62514E-05-7.67312E-06-3.37473E-05-7.85800E-06-7.87385E-19-1.71394E-18
 -1      1777 8.66467E-05-7.97200E-06-3.37773E-05-9.24742E-06-8.66313E-19-1.61822E-18
 -1      1778 8.56469E-05-7.03268E-06-3.37511E-05-5.31469E-06-5.92166E-19-1.83552E-18
 -1      1779 8.58758E-05-7.21224E-06-3.37632E-05-6.61877E-06-6.63456E-19-1.81284E-18
 -1      1780 8.76362E-05-9.86066E-06-3.33637E-05-6.91867E-06-7.81905E-19-1.70934E-18
 -1      1781 8.53196E-05-6.67189E-06-3.37585E-05-2.88528E-06-2.93310E-19-1.73782E-18
 -1      1782 8.54372E-05-6.76721E-06-3.37627E-05-4.12395E-06-4.31220E-19-1.78765E-18
 -1      1783 8.70108E-05-9.14521E-06-3.34031E-05-4.52947E-06-5.36074E-19-1.73308E-18
 -1      1784 8.51919E-05-6.52264E-06-3.37638E-05-5.16744E-07-6.43278E-20-1.69915E-18
 -1      1785 8.52264E-05-6.55136E-06-3.37646E-05-1.72503E-06-1.76228E-19-1.71146E-18
 -1      1786 8.66849E-05-8.76392E-06-3.34267E-05-2.21292E-06-2.61304E-19-1.64174E-18
 -1      1787 8.52362E-05-6.56042E-06-3.37648E-05 1.84288E-06 2.04559E-19-1.67020E-18
 -1      1788 8.51955E-05-6.52722E-06-3.37637E-05 6.33575E-07 9.22885E-20-1.67155E-18
 -1      1789 8.65886E-05-8.64947E-06-3.34345E-05 6.52481E-08-2.37032E-20-1.61117E-18
 -1      1790 8.54621E-05-6.79230E-06-3.37627E-05 4.24644E-06 4.21834E-19-1.74900E-18
 -1      1791 8.53374E-05-6.69100E-06-3.37584E-05 3.00457E-06 3.28092E-19-1.73978E-18
 -1      1792 8.67024E-05-8.78365E-06-3.34260E-05 2.34465E-06 2.60728E-19-1.62863E-18
 -1      1793 8.59090E-05-7.24773E-06-3.37629E-05 6.70671E-06 6.53173E-19-1.62755E-18
 -1      1794 8.56768E-05-7.06489E-06-3.37509E-05 5.41985E-06 5.76601E-19-1.72175E-18
 -1      1795 8.70449E-05-9.18336E-06-3.34015E-05 4.64462E-06 5.48738E-19-1.64447E-18
 -1      1796 8.67059E-05-8.03914E-06-3.37758E-05 9.36883E-06 9.60658E-19-1.39993E-18
 -1      1797 8.62942E-05-7.72238E-06-3.37462E-05 7.94787E-06 7.99450E-19-1.49429E-18
 -1      1798 8.76861E-05-9.91914E-06-3.33612E-05 7.01842E-06 8.14432E-19-1.48182E-18
 -1      1799 8.80946E-05-9.38655E-06-3.38211E-05 1.22494E-05 1.23768E-18-1.08460E-18
 -1      1800 8.73675E-05-8.82946E-06-3.37543E-05 1.06560E-05 1.07182E-18-1.29673E-18
 -1      1801 8.87897E-05-1.11562E-05-3.33022E-05 9.49323E-06 1.11180E-18-1.24580E-18
 -1      1802 9.06066E-05-1.18348E-05-3.39191E-05 1.52997E-05 1.42908E-18-4.63274E-19
 -1      1803 8.92433E-05-1.07379E-05-3.37855E-05 1.35098E-05 1.31714E-18-8.43777E-19
 -1      1804 9.06614E-05-1.32180E-05-3.32087E-05 1.19677E-05 1.36610E-18-8.47351E-19
 -1      1805 9.58104E-05-1.70191E-05-3.39715E-05 1.76887E-05 1.47700E-18 8.00552E-19
 -1      1806 9.28121E-05-1.43331E-05-3.38120E-05 1.61925E-05 1.42891E-18 3.91753E-20
 -1      1807 9.39345E-05-1.68766E-05-3.30135E-05 1.38904E-05 1.46783E-18-2.12499E-19
 -1      1808 1.01827E-04-2.50668E-05-3.33290E-05 1.44225E-05 1.24112E-18 2.44496E-18
 -1      1809 9.79967E-05-1.95966E-05-3.35996E-05 1.69633E-05 1.33434E-18 1.37500E-18
 -1      1810 9.72602E-05-2.18348E-05-3.24064E-05 1.32476E-05 1.47185E-18 7.70668E-19
 -1      1811 9.86551E-05-2.61068E-05-3.13129E-05 9.43678E-06 1.27251E-18 2.03831E-18
 -1      1812 1.00065E-04-1.95409E-05-3.41887E-05-1.88679E-05-1.16366E-18 1.66749E-18
 -1      1813 9.52166E-05-2.72563E-05-2.91573E-05 4.06754E-06 1.06901E-18 1.38810E-18
 -1      1814 9.76462E-05-2.73618E-05-3.01659E-05 6.40181E-06 1.10109E-18 1.78381E-18
 -1      1815 9.74953E-05-2.55903E-05-3.08085E-05 8.75998E-06 1.31645E-18 1.05471E-18
 -1      1816 9.97354E-05-2.25200E-05-3.28114E-05-1.44668E-05-1.23307E-18 1.14678E-18
 -1      1817 9.68788E-05-2.69530E-05-2.98535E-05-5.70402E-06-8.85864E-19 9.03826E-19
 -1      1818 9.50726E-05-2.70074E-05-2.91438E-05-3.89540E-06-7.92690E-19 6.50812E-19
 -1      1819 9.42581E-05-2.72088E-05-2.86383E-05-2.41407E-06-8.16798E-19 5.72402E-19
 -1      1820 9.34913E-05-2.72898E-05-2.83348E-05-1.55656E-06-7.02594E-19 3.49801E-19
 -1      1821 9.54506E-05-2.65237E-05-2.95615E-05-4.46347E-06-9.50311E-19-1.63501E-20
 -1      1822 9.29741E-05-2.73412E-05-2.80692E-05-7.22514E-07-6.07366E-19 2.94672E-19
 -1      1823 9.26812E-05-2.74050E-05-2.79502E-05-2.77170E-07-4.35309E-19 1.64586E-19
 -1      1824 9.42531E-05-2.71989E-05-2.87584E-05-1.80513E-06-8.21741E-19-8.26486E-20
 -1      1825 9.24177E-05-2.74336E-05-2.78192E-05 1.90638E-07-3.24783E-19 3.41212E-20
 -1      1826 9.24014E-05-2.75113E-05-2.77945E-05 4.26019E-07-4.08374E-19-5.77637E-20
 -1      1827 9.35703E-05-2.75038E-05-2.83312E-05-3.16357E-07-5.74720E-19-2.66437E-19
 -1      1828 9.23173E-05-2.75450E-05-2.77440E-05 6.85069E-07-4.85584E-19-1.14151E-19
 -1      1829 9.24574E-05-2.76337E-05-2.77715E-05 8.06242E-07-3.52084E-19-3.43105E-19
 -1      1830 9.32792E-05-2.76882E-05-2.81234E-05 5.22425E-07-4.70360E-19-4.50750E-19
 -1      1831 9.24920E-05-2.76759E-05-2.77709E-05 9.45587E-07-3.08728E-19-3.09240E-19
 -1      1832 9.27195E-05-2.77694E-05-2.78285E-05 1.00439E-06-2.87675E-19-3.22865E-19
 -1      1833 9.32623E-05-2.78328E-05-2.80505E-05 9.87763E-07-4.24387E-19-3.75306E-19
 -1      1834 9.28311E-05-2.78177E-05-2.78598E-05 1.07797E-06-3.07138E-19-2.90864E-19
 -1      1835 9.31078E-05-2.79119E-05-2.79353E-05 1.10597E-06-3.56893E-19-2.00961E-19
 -1      1836 9.34266E-05-2.79610E-05-2.80632E-05 1.24074E-06-2.79312E-19-4.54497E-19
 -1      1837 9.32705E-05-2.79641E-05-2.79876E-05 1.14894E-06-4.25287E-19-2.26405E-19
 -1      1838 9.35776E-05-2.80574E-05-2.80747E-05 1.16724E-06-1.31949E-19-1.39766E-19
 -1      1839 9.37100E-05-2.80794E-05-2.81320E-05 1.38216E-06-3.08690E-19-4.26120E-19
 -1      1840 9.37775E-05-2.81124E-05-2.81423E-05 1.20404E-06-1.82066E-19-2.53814E-19
 -1      1841 9.41094E-05-2.82058E-05-2.82387E-05 1.22778E-06-1.51784E-19-4.44806E-19
 -1      1842 9.40756E-05-2.81910E-05-2.82399E-05 1.47963E-06-3.22168E-19-4.28733E-19
 -1      1843 9.43412E-05-2.82639E-05-2.83192E-05 1.27637E-06-2.04328E-19-7.89196E-19
 -1      1844 9.47019E-05-2.83602E-05-2.84255E-05 1.31701E-06-1.95452E-19-8.97948E-19
 -1      1845 9.45059E-05-2.82987E-05-2.83777E-05 1.58130E-06-3.76717E-19-6.80588E-19
 -1      1846 9.49672E-05-2.84232E-05-2.85189E-05 1.39106E-06-1.35448E-19-9.06144E-19
 -1      1847 9.53676E-05-2.85269E-05-2.86380E-05 1.45755E-06 9.08244E-21-7.69550E-19
 -1      1848 9.49983E-05-2.84071E-05-2.85425E-05 1.72307E-06-1.81477E-19-1.14715E-18
 -1      1849 9.56726E-05-2.85977E-05-2.87458E-05 1.56763E-06 1.71337E-19-7.69182E-19
 -1      1850 9.61292E-05-2.87150E-05-2.88820E-05 1.66688E-06 1.04474E-19-7.11664E-19
 -1      1851 9.55616E-05-2.85226E-05-2.87348E-05 1.93237E-06 1.07294E-20-9.86909E-19
 -1      1852 9.64839E-05-2.87977E-05-2.90070E-05 1.82064E-06 9.47784E-21-8.91662E-19
 -1      1853 9.70166E-05-2.89361E-05-2.91656E-05 1.95731E-06-7.47076E-20-5.22293E-19
 -1      1854 9.62126E-05-2.86540E-05-2.89582E-05 2.22971E-06 5.07905E-20-8.01263E-19
 -1      1855 9.74334E-05-2.90361E-05-2.93111E-05 2.15884E-06-3.68775E-19-5.78602E-19
 -1      1856 9.80639E-05-2.92044E-05-2.94977E-05 2.33430E-06-3.34816E-19-5.88647E-19
 -1      1857 9.69746E-05-2.88130E-05-2.92175E-05 2.62831E-06-1.13303E-19-8.70398E-19
 -1      1858 9.85565E-05-2.93288E-05-2.96663E-05 2.58233E-06-3.82765E-19-5.48022E-19
 -1      1859 9.93054E-05-2.95373E-05-2.98859E-05 2.79245E-06-2.40622E-19-7.82512E-19
 -1      1860 9.78749E-05-2.90152E-05-2.95175E-05 3.13138E-06-4.65232E-19-8.32007E-19
 -1      1861 9.98872E-05-2.96954E-05-3.00793E-05 3.07700E-06-1.49594E-19-1.22568E-18
 -1      1862 1.00770E-04-2.99555E-05-3.03346E-05 3.30840E-06-5.54277E-20-1.36184E-18
 -1      1863 9.89423E-05-2.92823E-05-2.98614E-05 3.72661E-06-4.66851E-19-1.30989E-18
 -1      1864 1.01453E-04-3.01595E-05-3.05516E-05 3.60530E-06 7.67450E-20-1.36095E-18
 -1      1865 1.02472E-04-3.04831E-05-3.08410E-05 3.82958E-06-1.78861E-19-1.11857E-18
 -1      1866 1.00205E-04-2.96443E-05-3.02483E-05 4.37663E-06 7.12120E-20-1.47821E-18
 -1      1867 1.03266E-04-3.07493E-05-3.10764E-05 4.09273E-06-3.97948E-19-8.75028E-19
 -1      1868 1.04403E-04-3.11466E-05-3.13910E-05 4.25869E-06-8.86738E-22-8.01755E-19
 -1      1869 1.01689E-04-3.01427E-05-3.06709E-05 5.00487E-06-5.68869E-20-1.39454E-18
 -1      1870 1.05310E-04-3.14953E-05-3.16338E-05 4.41038E-06 2.44480E-19-7.32478E-19
 -1      1871 1.06510E-04-3.19703E-05-3.19535E-05 4.43601E-06 3.85593E-19-9.16612E-19
 -1      1872 1.03409E-04-3.08320E-05-3.11131E-05 5.47696E-06 1.71676E-19-1.24350E-18
 -1      1873 1.07522E-04-3.24217E-05-3.21859E-05 4.35871E-06 5.33930E-19-7.85544E-19
 -1      1874 1.08678E-04-3.29613E-05-3.24767E-05 4.12831E-06 2.95952E-19-5.64035E-19
 -1      1875 1.05367E-04-3.17743E-05-3.15482E-05 5.58154E-06 6.25168E-19-9.46204E-19
 -1      1876 1.09764E-04-3.35228E-05-3.26760E-05 3.66658E-06-2.74095E-20 1.14538E-19
 -1      1877 1.10701E-04-3.40770E-05-3.28894E-05 3.04534E-06 1.81106E-19 3.05458E-19
 -1      1878 1.07527E-04-3.30142E-05-3.19412E-05 5.02277E-06 6.09496E-19-5.03157E-19
 -1      1879 1.11783E-04-3.47124E-05-3.30330E-05 2.03580E-06 1.41885E-19 2.80116E-20
 -1      1880 1.12260E-04-3.51623E-05-3.31138E-05 9.21981E-07-8.12490E-20 1.37422E-19
 -1      1881 1.09780E-04-3.45179E-05-3.22575E-05 3.45179E-06 9.23696E-20 6.03858E-20
 -1      1882 1.13166E-04-3.57408E-05-3.31896E-05-7.18804E-07-2.64731E-19 2.40989E-19
 -1      1883 1.12909E-04-3.58713E-05-3.30945E-05-2.28584E-06 1.33765E-19 3.46048E-19
 -1      1884 1.11866E-04-3.60567E-05-3.24808E-05 5.85854E-07-3.63496E-20 2.45035E-19
 -1      1885 1.13346E-04-3.61207E-05-3.31131E-05-4.39162E-06 8.95539E-20 3.59162E-19
 -1      1886 1.12152E-04-3.56537E-05-3.28399E-05-6.08114E-06-1.08857E-20 3.38548E-19
 -1      1887 1.13289E-04-3.70750E-05-3.26337E-05-3.52509E-06 2.13022E-19-2.04266E-19
 -1      1888 1.11775E-04-3.52285E-05-3.28402E-05-8.04693E-06-2.37672E-19 2.53276E-19
 -1      1889 1.09711E-04-3.39922E-05-3.24496E-05-9.17765E-06-2.10170E-19-2.14961E-19
 -1      1890 1.13343E-04-3.67224E-05-3.27872E-05-8.08924E-06-1.38946E-19-3.55430E-19
 -1      1891 1.08385E-04-3.27266E-05-3.24731E-05-9.97036E-06-4.10013E-20-3.25592E-19
 -1      1892 1.05962E-04-3.09522E-05-3.20825E-05-9.71434E-06-4.23086E-20-2.87091E-19
 -1      1893 1.11486E-04-3.43214E-05-3.30256E-05-1.13280E-05-2.71567E-19-4.44719E-19
 -1      1894 1.04194E-04-2.92919E-05-3.21360E-05-8.38861E-06-4.28877E-20-2.82406E-19
 -1      1895 1.02345E-04-2.77790E-05-3.18727E-05-6.39390E-06-1.96670E-20-2.02980E-19
 -1      1896 1.08080E-04-3.02814E-05-3.33502E-05-1.09344E-05 1.37484E-19-7.80382E-19
 -1      1897 1.01264E-04-2.67663E-05-3.19121E-05-3.07021E-06-4.77766E-19-1.72120E-20
 -1      1898 1.00873E-04-2.64328E-05-3.18596E-05-3.36628E-08-8.97392E-19-4.21051E-19
 -1      1899 1.04923E-04-2.66386E-05-3.36334E-05-5.78533E-06-4.71294E-19-1.06600E-18
 -1      1900 1.01310E-04-2.68431E-05-3.18430E-05 3.74624E-06-6.59362E-19 8.76745E-20
 -1      1901 1.02580E-04-2.79132E-05-3.20168E-05 6.36108E-06-3.13773E-19 4.91213E-20
 -1      1902 1.04207E-04-2.58235E-05-3.36967E-05 2.27439E-06-1.83568E-19-4.29878E-19
 -1      1903 1.04186E-04-2.94215E-05-3.19613E-05 8.69274E-06-3.95002E-19-3.40600E-19
 -1      1904 1.06473E-04-3.12000E-05-3.23071E-05 9.74311E-06-2.26647E-20 1.89285E-19
 -1      1905 1.06477E-04-2.84309E-05-3.34940E-05 9.15147E-06-2.18852E-19 3.90070E-19
 -1      1906 1.08105E-04-3.27423E-05-3.22657E-05 9.83000E-06-1.15724E-19 8.57204E-19
 -1      1907 1.10420E-04-3.42843E-05-3.26714E-05 9.23301E-06 1.71921E-20 1.55022E-18
 -1      1908 1.10052E-04-3.26105E-05-3.31612E-05 1.17002E-05 4.87909E-19 9.28684E-19
 -1      1909 1.11237E-04-3.50959E-05-3.26639E-05 7.65304E-06-5.69590E-19 2.37232E-18
 -1      1910 1.12850E-04-3.59041E-05-3.30005E-05 6.11138E-06 1.33408E-20 2.21667E-18
 -1      1911 1.12734E-04-3.59018E-05-3.28744E-05 9.83259E-06-1.80656E-21 1.04220E-18
 -1      1912 1.12737E-04-3.59167E-05-3.29951E-05 3.96187E-06-3.92057E-19 1.77116E-18
 -1      1913 1.13397E-04-3.60193E-05-3.31724E-05 2.27616E-06-8.94626E-19 9.03823E-19
 -1      1914 1.13504E-04-3.71352E-05-3.26895E-05 5.58627E-06-5.87450E-19 1.03718E-18
 -1      1915 1.12655E-04-3.55459E-05-3.31245E-05 3.82694E-07-3.11543E-19 9.47294E-19
 -1      1916 1.12471E-04-3.52056E-05-3.31180E-05-9.54042E-07 2.15477E-19 1.10342E-18
 -1      1917 1.12598E-04-3.66183E-05-3.25456E-05 1.11361E-06-2.57078E-19 2.64114E-18
 -1      1918 1.11439E-04-3.45709E-05-3.30041E-05-2.24712E-06-2.79114E-19 4.66030E-19
 -1      1919 1.10671E-04-3.40419E-05-3.28427E-05-3.08244E-06-1.01614E-18 2.08605E-19
 -1      1920 1.10729E-04-3.52205E-05-3.23589E-05-2.35255E-06-4.23867E-19 2.56677E-18
 -1      1921 1.09571E-04-3.34374E-05-3.26657E-05-3.77107E-06 1.08682E-19 2.23954E-19
 -1      1922 1.08485E-04-3.28799E-05-3.24025E-05-4.15954E-06 6.05910E-19 6.76601E-19
 -1      1923 1.08503E-04-3.36533E-05-3.20840E-05-4.48124E-06-3.43636E-19 2.44290E-18
 -1      1924 1.07433E-04-3.23773E-05-3.21823E-05-4.38581E-06 1.09279E-18 6.51066E-19
 -1      1925 1.06235E-04-3.18684E-05-3.18703E-05-4.45630E-06 1.20928E-18 1.46385E-18
 -1      1926 1.06279E-04-3.22792E-05-3.17224E-05-5.44696E-06 6.26656E-19 2.61924E-18
 -1      1927 1.05280E-04-3.14750E-05-3.16310E-05-4.38476E-06 1.99509E-19 1.29943E-18
 -1      1928 1.04107E-04-3.10413E-05-3.13118E-05-4.26425E-06-6.96820E-19 9.03725E-19
 -1      1929 1.04224E-04-3.12027E-05-3.13038E-05-5.58935E-06 5.69632E-19 1.94563E-18
 -1      1930 1.03268E-04-3.07402E-05-3.10741E-05-4.02957E-06-1.11492E-18 1.31551E-19
 -1      1931 1.02199E-04-3.03841E-05-3.07744E-05-3.81431E-06-7.82685E-19 3.54053E-19
 -1      1932 1.02402E-04-3.04037E-05-3.08655E-05-5.23348E-06-1.29221E-18 1.83835E-18
 -1      1933 1.01477E-04-3.01544E-05-3.05530E-05-3.50956E-06-3.81877E-19 1.41412E-18
 -1      1934 1.00548E-04-2.98680E-05-3.02871E-05-3.26198E-06 2.50655E-19 1.57859E-18
 -1      1935 1.00829E-04-2.98233E-05-3.04395E-05-4.62577E-06 1.71888E-20 2.26200E-18
 -1      1936 9.99392E-05-2.96917E-05-3.00907E-05-2.94376E-06 8.50208E-19 1.51936E-18
 -1      1937 9.91590E-05-2.94642E-05-2.98645E-05-2.69899E-06 7.39226E-20 2.32268E-18
 -1      1938 9.94958E-05-2.94020E-05-3.00484E-05-3.92835E-06 6.18400E-20 2.51508E-18
 -1      1939 9.86548E-05-2.93273E-05-2.96968E-05-2.39683E-06-2.21091E-19 3.14323E-18
 -1      1940 9.80187E-05-2.91481E-05-2.95109E-05-2.17067E-06 1.38011E-18 3.98884E-18
 -1      1941 9.83861E-05-2.90920E-05-2.97050E-05-3.23488E-06 4.58155E-19 4.05425E-18
 -1      1942 9.76082E-05-2.90400E-05-2.93729E-05-1.89562E-06 1.36142E-18 2.83402E-18
 -1      1943 9.71048E-05-2.88996E-05-2.92254E-05-1.69103E-06 1.59992E-18 3.15761E-18
 -1      1944 9.74768E-05-2.88578E-05-2.94150E-05-2.58981E-06 1.01305E-18 4.37744E-18
 -1      1945 9.67763E-05-2.88121E-05-2.91160E-05-1.44258E-06 1.36975E-19 1.86710E-18
 -1      1946 9.63928E-05-2.87031E-05-2.90043E-05-1.25481E-06-2.11020E-19 3.35343E-19
 -1      1947 9.67441E-05-2.86737E-05-2.91790E-05-2.00493E-06-2.26134E-19 1.12105E-18
 -1      1948 9.61337E-05-2.86307E-05-2.89209E-05-1.02594E-06 4.26546E-19-5.06699E-19
 -1      1949 9.58596E-05-2.85499E-05-2.88415E-05-8.47153E-07 6.42140E-21-6.68834E-19
 -1      1950 9.61633E-05-2.85214E-05-2.89942E-05-1.47311E-06-1.20926E-18 4.83706E-19
 -1      1951 9.56809E-05-2.85029E-05-2.87836E-05-6.43511E-07 1.82603E-19-1.32584E-18
 -1      1952 9.55015E-05-2.84536E-05-2.87291E-05-4.77131E-07 3.02461E-19-2.73201E-19
 -1      1953 9.54412E-05-2.83604E-05-2.87528E-05-5.69254E-07-6.71844E-19-3.21493E-19
 -1      1954 9.57343E-05-2.84122E-05-2.88582E-05-9.92944E-07-2.59359E-19-2.69270E-19
 -1      1955 9.31226E-05-2.73334E-05-2.81673E-05 1.60100E-06 8.94315E-19 8.67653E-19
 -1      1956 9.43151E-05-2.74388E-05-2.86030E-05 2.67390E-06 9.41358E-19 1.22118E-18
 -1      1957 9.51541E-05-2.70219E-05-2.92050E-05 4.05015E-06 1.10364E-18 7.58531E-19
 -1      1958 9.20822E-05-2.73213E-05-2.77298E-05 3.34603E-07 7.03726E-19 4.57107E-19
 -1      1959 9.25714E-05-2.73529E-05-2.79003E-05 8.86641E-07 6.35063E-19 6.54690E-19
 -1      1960 9.35594E-05-2.73434E-05-2.83853E-05 1.57222E-06 8.88352E-19 3.83229E-19
 -1      1961 9.17282E-05-2.73624E-05-2.75692E-05-3.34999E-07 3.83114E-19 4.46277E-19
 -1      1962 9.18328E-05-2.73338E-05-2.76126E-05-3.55980E-08 5.17994E-19 4.00944E-19
 -1      1963 9.27454E-05-2.74601E-05-2.79897E-05 2.43180E-07 6.46648E-19 1.05303E-19
 -1      1964 9.17885E-05-2.74599E-05-2.75586E-05-6.86164E-07 1.71221E-19 1.77338E-19
 -1      1965 9.16821E-05-2.73940E-05-2.75361E-05-5.22294E-07 2.78064E-19 3.64370E-19
 -1      1966 9.24603E-05-2.75566E-05-2.78263E-05-4.76437E-07 2.76837E-19 2.88289E-20
 -1      1967 9.20920E-05-2.75942E-05-2.76339E-05-8.61810E-07 5.09823E-19-2.03660E-20
 -1      1968 9.18704E-05-2.75083E-05-2.75753E-05-7.73797E-07 2.88096E-19 1.61611E-19
 -1      1969 9.25097E-05-2.76688E-05-2.77977E-05-8.60855E-07 3.90600E-19-1.34008E-19
 -1      1970 9.25361E-05-2.77486E-05-2.77596E-05-9.43537E-07 4.33465E-19-1.36053E-19
 -1      1971 9.22526E-05-2.76534E-05-2.76808E-05-8.96832E-07 4.30947E-19-1.47697E-19
 -1      1972 9.27650E-05-2.77962E-05-2.78506E-05-1.05908E-06 5.43073E-19-3.17898E-19
 -1      1973 9.30636E-05-2.79132E-05-2.79160E-05-9.82968E-07 2.41946E-19-3.61514E-19
 -1      1974 9.27462E-05-2.78140E-05-2.78255E-05-9.55311E-07 3.73676E-19-6.47513E-20
 -1      1975 9.31467E-05-2.79327E-05-2.79541E-05-1.16001E-06 3.62145E-19-1.35966E-19
 -1      1976 9.36481E-05-2.80841E-05-2.80936E-05-1.01546E-06-3.42743E-19-3.84093E-19
 -1      1977 9.33080E-05-2.79826E-05-2.79949E-05-9.91241E-07-4.27330E-20-4.13326E-19
 -1      1978 9.36102E-05-2.80741E-05-2.80911E-05-1.22148E-06 1.06272E-19-9.99513E-21
 -1      1979 9.42846E-05-2.82626E-05-2.82899E-05-1.06677E-06 6.06737E-20-2.45648E-19
 -1      1980 9.39220E-05-2.81574E-05-2.81832E-05-1.03430E-06-3.11955E-20-4.06329E-19
 -1      1981 9.41356E-05-2.82199E-05-2.82533E-05-1.28390E-06-7.66122E-20-1.86765E-19
 -1      1982 9.49846E-05-2.84537E-05-2.85075E-05-1.15653E-06 4.24804E-19-5.85187E-19
 -1      1983 9.45909E-05-2.83415E-05-2.83907E-05-1.10661E-06 1.66440E-19-4.24494E-19
 -1      1984 9.47209E-05-2.83728E-05-2.84385E-05-1.37698E-06 2.78960E-19-3.89300E-19
 -1      1985 9.57710E-05-2.86659E-05-2.87530E-05-1.29983E-06 1.07197E-18-1.05250E-18
 -1      1986 9.53316E-05-2.85413E-05-2.86218E-05-1.22509E-06 7.54912E-19-7.48489E-19
 -1      1987 9.53778E-05-2.85388E-05-2.86491E-05-1.52328E-06 9.27647E-19-6.46955E-19
 -1      1988 9.66756E-05-2.89101E-05-2.90351E-05-1.50761E-06 6.58527E-20-9.29739E-19
 -1      1989 9.61714E-05-2.87666E-05-2.88843E-05-1.40238E-06 5.60877E-19-1.02296E-18
 -1      1990 9.61273E-05-2.87264E-05-2.88905E-05-1.73960E-06 6.16580E-19-6.44702E-19
 -1      1991 9.77353E-05-2.91998E-05-2.93641E-05-1.78562E-06-1.64615E-19-9.08181E-19
 -1      1992 9.71444E-05-2.90295E-05-2.91877E-05-1.64646E-06-4.31739E-20-9.38110E-19
 -1      1993 9.69975E-05-2.89467E-05-2.91697E-05-2.03676E-06 5.92840E-20-6.35459E-19
 -1      1994 9.89877E-05-2.95500E-05-2.97501E-05-2.13168E-06-7.37514E-20-9.74353E-19
 -1      1995 9.82885E-05-2.93446E-05-2.95421E-05-1.95874E-06-7.45050E-20-8.55450E-19
 -1      1996 9.80200E-05-2.92137E-05-2.94944E-05-2.41757E-06-1.08847E-19-7.40322E-19
 -1      1997 1.00465E-04-2.99770E-05-3.02004E-05-2.53049E-06 2.22431E-19-8.06954E-19
 -1      1998 9.96398E-05-2.97281E-05-2.99566E-05-2.33006E-06 1.39976E-19-7.20089E-19
 -1      1999 9.92262E-05-2.95441E-05-2.98708E-05-2.87232E-06 2.86286E-19-1.48006E-19
 -1      2000 1.02186E-04-3.04968E-05-3.07163E-05-2.94534E-06-5.75535E-19-3.24136E-19
 -1      2001 1.01226E-04-3.01973E-05-3.04358E-05-2.73408E-06 1.03282E-20-3.76155E-19
 -1      2002 1.00642E-04-2.99577E-05-3.03013E-05-3.37112E-06-3.30507E-19-1.66496E-19
 -1      2003 1.04138E-04-3.11223E-05-3.12887E-05-3.30626E-06-5.46126E-19-6.95484E-19
 -1      2004 1.03056E-04-3.07690E-05-3.09766E-05-3.11725E-06-6.95307E-19-8.06013E-19
 -1      2005 1.02279E-04-3.04776E-05-3.07810E-05-3.85251E-06-4.27247E-19-4.40275E-20
 -1      2006 1.06265E-04-3.18586E-05-3.18910E-05-3.49586E-06-6.42253E-19-1.10680E-19
 -1      2007 1.05104E-04-3.14560E-05-3.15628E-05-3.38610E-06-5.54354E-19-4.68002E-19
 -1      2008 1.04127E-04-3.11280E-05-3.12943E-05-4.20858E-06-7.86296E-19-4.92755E-19
 -1      2009 1.08436E-04-3.26920E-05-3.24737E-05-3.33818E-06-2.88220E-19 3.73621E-20
 -1      2010 1.07286E-04-3.22591E-05-3.21589E-05-3.39483E-06-5.58315E-19-2.61091E-20
 -1      2011 1.06133E-04-3.19285E-05-3.18100E-05-4.27015E-06-7.13094E-19-5.92996E-19
 -1      2012 1.10422E-04-3.35702E-05-3.29599E-05-2.60514E-06 4.34296E-19 9.01164E-19
 -1      2013 1.09436E-04-3.31513E-05-3.27048E-05-2.94312E-06 2.21751E-20 6.57089E-19
 -1      2014 1.08185E-04-3.28767E-05-3.22797E-05-3.80234E-06-7.44396E-20 6.20835E-19
 -1      2015 1.11879E-04-3.43702E-05-3.32511E-05-1.06804E-06-4.90965E-19 7.75510E-19
 -1      2016 1.11275E-04-3.40484E-05-3.31161E-05-1.80465E-06 1.44902E-19 9.24202E-19
 -1      2017 1.10081E-04-3.39135E-05-3.26406E-05-2.53304E-06 8.35684E-20 9.85147E-19
 -1      2018 1.12362E-04-3.48605E-05-3.32491E-05 1.36906E-06-9.78852E-19 8.95959E-19
 -1      2019 1.12398E-04-3.47672E-05-3.32956E-05 1.81744E-07-1.21130E-18 8.35502E-19
 -1      2020 1.11500E-04-3.48647E-05-3.28284E-05-2.50578E-07-9.13863E-19 1.43688E-18
 -1      2021 1.11411E-04-3.46952E-05-3.28993E-05 4.43878E-06 1.47238E-20 1.57722E-18
 -1      2022 1.12307E-04-3.49935E-05-3.31624E-05 2.93132E-06-5.29892E-19 9.14531E-19
 -1      2023 1.12000E-04-3.53834E-05-3.28030E-05 2.99474E-06-5.60352E-19 9.15922E-19
 -1      2024 1.08767E-04-3.35272E-05-3.22436E-05 7.27006E-06 2.05194E-19 1.64412E-18
 -1      2025 1.10568E-04-3.43315E-05-3.26981E-05 5.87555E-06-1.60725E-19 1.57483E-18
 -1      2026 1.11103E-04-3.49765E-05-3.25786E-05 6.60644E-06-2.13075E-19 1.15325E-18
 -1      2027 1.04754E-04-3.13392E-05-3.14458E-05 8.45129E-06 6.60452E-19 3.07992E-18
 -1      2028 1.07157E-04-3.25578E-05-3.19870E-05 7.85919E-06 6.29167E-19 2.40612E-18
 -1      2029 1.08597E-04-3.32803E-05-3.22374E-05 9.26543E-06 2.53473E-19 2.09510E-18
 -1      2030 1.00562E-04-2.87931E-05-3.07500E-05 6.74263E-06-3.80993E-19 2.75979E-18
 -1      2031 1.02864E-04-3.00231E-05-3.12152E-05 7.53137E-06 3.33440E-19 2.77660E-18
 -1      2032 1.05002E-04-3.05498E-05-3.19021E-05 9.29868E-06 4.69574E-19 3.35608E-18
 -1      2033 9.79954E-05-2.71448E-05-3.03852E-05 2.17220E-06 6.02082E-19 2.46797E-18
 -1      2034 9.92939E-05-2.77905E-05-3.06163E-05 4.28457E-06 1.26234E-19 2.55509E-18
 -1      2035 1.01737E-04-2.79240E-05-3.16750E-05 5.77031E-06 5.05295E-19 3.20755E-18
 -1      2036 9.84446E-05-2.74330E-05-3.04723E-05-3.40572E-06 7.02786E-19 1.12965E-18
 -1      2037 9.81332E-05-2.71202E-05-3.03856E-05-8.76870E-07 5.46680E-19 1.87293E-18
 -1      2038 1.00529E-04-2.69050E-05-3.16089E-05-3.55962E-07 1.12454E-18 2.37558E-18
 -1      2039 1.01708E-04-2.94748E-05-3.09832E-05-7.42205E-06-4.07267E-19 1.02150E-18
 -1      2040 9.99185E-05-2.83899E-05-3.06094E-05-5.62518E-06 1.03973E-19 8.69003E-19
 -1      2041 1.02096E-04-2.81538E-05-3.17159E-05-6.30759E-06 5.28099E-19 9.34853E-19
 -1      2042 1.06171E-04-3.20869E-05-3.17452E-05-8.40016E-06-4.22006E-19-1.92846E-19
 -1      2043 1.03681E-04-3.07958E-05-3.12175E-05-7.94472E-06-3.54917E-19 3.70153E-19
 -1      2044 1.05514E-04-3.08780E-05-3.19768E-05-9.46484E-06 1.53935E-19 5.62609E-19
 -1      2045 1.09997E-04-3.40630E-05-3.25119E-05-6.68836E-06 2.77933E-22 1.35060E-18
 -1      2046 1.07719E-04-3.30796E-05-3.20017E-05-7.38201E-06-5.12958E-19 1.87221E-19
 -1      2047 1.09020E-04-3.35569E-05-3.23196E-05-9.06421E-06-8.52204E-19 7.08067E-21
 -1      2048 1.12174E-04-3.49317E-05-3.30674E-05-3.68018E-06 5.44894E-19 8.94516E-19
 -1      2049 1.10694E-04-3.44533E-05-3.27100E-05-4.92392E-06-5.26881E-20 1.72337E-18
 -1      2050 1.11297E-04-3.51094E-05-3.26388E-05-6.20863E-06-1.94176E-19 5.05844E-19
 -1      2051 1.12597E-04-3.48500E-05-3.32936E-05-7.00361E-07 2.60390E-18 6.21433E-19
 -1      2052 1.12067E-04-3.48158E-05-3.31494E-05-1.94089E-06 2.00101E-18 1.05516E-18
 -1      2053 1.11966E-04-3.53804E-05-3.28231E-05-2.58204E-06 1.65099E-18 1.19489E-18
 -1      2054 1.11670E-04-3.42053E-05-3.31866E-05 1.53345E-06 1.66736E-18-5.77921E-19
 -1      2055 1.11943E-04-3.44575E-05-3.32443E-05 5.93549E-07 2.08644E-18 7.45910E-19
 -1      2056 1.11301E-04-3.47752E-05-3.28045E-05 5.74862E-07 2.61119E-18 2.17557E-18
 -1      2057 1.09914E-04-3.33310E-05-3.28199E-05 2.86282E-06-3.77859E-19-1.30373E-18
 -1      2058 1.10727E-04-3.37240E-05-3.30265E-05 2.29251E-06 7.75068E-19-1.23330E-18
 -1      2059 1.09786E-04-3.37838E-05-3.25808E-05 2.73991E-06 1.24700E-18 1.72424E-18
 -1      2060 1.07773E-04-3.24323E-05-3.22933E-05 3.43272E-06-4.57634E-19-7.03216E-19
 -1      2061 1.08869E-04-3.28664E-05-3.25863E-05 3.17584E-06-1.09176E-18-1.94903E-18
 -1      2062 1.07848E-04-3.27364E-05-3.21967E-05 3.90416E-06-5.82851E-19 2.74492E-20
 -1      2063 1.05558E-04-3.16091E-05-3.16991E-05 3.48049E-06-2.00442E-18-6.94595E-19
 -1      2064 1.06741E-04-3.20272E-05-3.20247E-05 3.44161E-06-7.54461E-19-7.94997E-19
 -1      2065 1.05792E-04-3.17941E-05-3.17169E-05 4.29332E-06-1.18715E-18-1.44227E-19
 -1      2066 1.03463E-04-3.08981E-05-3.11057E-05 3.22305E-06-2.30883E-18 1.41798E-18
 -1      2067 1.04606E-04-3.12725E-05-3.14263E-05 3.31372E-06-2.07673E-18 1.53525E-21
 -1      2068 1.03807E-04-3.10065E-05-3.12024E-05 4.17685E-06-2.45842E-18-2.82019E-20
 -1      2069 1.01589E-04-3.03044E-05-3.05561E-05 2.81946E-06-1.03382E-18 2.21028E-18
 -1      2070 1.02621E-04-3.06250E-05-3.08493E-05 2.97413E-06-2.26199E-18 1.12335E-18
 -1      2071 1.02001E-04-3.03713E-05-3.06995E-05 3.77982E-06-2.12552E-18 1.82283E-18
 -1      2072 9.99794E-05-2.98190E-05-3.00726E-05 2.37069E-06-7.15589E-19 2.98263E-18
 -1      2073 1.00869E-04-3.00854E-05-3.03276E-05 2.54732E-06 4.28810E-21 3.33122E-18
 -1      2074 1.00421E-04-2.98673E-05-3.02381E-05 3.25998E-06-8.76063E-19 2.33618E-18
 -1      2075 9.86380E-05-2.94281E-05-2.96638E-05 1.93203E-06 2.18814E-18 2.27090E-18
 -1      2076 9.93786E-05-2.96444E-05-2.98772E-05 2.10742E-06 2.88418E-19 2.39316E-18
 -1      2077 9.90804E-05-2.94700E-05-2.98342E-05 2.71383E-06 8.60821E-19 1.53997E-18
 -1      2078 9.75512E-05-2.91169E-05-2.93300E-05 1.52650E-06 1.75377E-18 1.90433E-18
 -1      2079 9.81486E-05-2.92893E-05-2.95026E-05 1.69105E-06 2.24450E-18 2.57422E-18
 -1      2080 9.79727E-05-2.91570E-05-2.94938E-05 2.19128E-06 2.03221E-18 1.59605E-18
 -1      2081 9.66976E-05-2.88721E-05-2.90679E-05 1.15547E-06 2.18089E-18 8.16872E-19
 -1      2082 9.71625E-05-2.90064E-05-2.92019E-05 1.30909E-06 1.44633E-18 1.62719E-18
 -1      2083 9.70795E-05-2.89093E-05-2.92174E-05 1.70978E-06 1.37260E-18 2.20496E-18
 -1      2084 9.60558E-05-2.86839E-05-2.88730E-05 8.08645E-07 1.40206E-18 2.40700E-19
 -1      2085 9.63990E-05-2.87846E-05-2.89707E-05 9.56553E-07 1.65346E-18 6.45014E-19
 -1      2086 9.63796E-05-2.87130E-05-2.90020E-05 1.26629E-06 2.05146E-18 1.28714E-18
 -1      2087 9.56084E-05-2.85480E-05-2.87378E-05 4.75343E-07-1.29021E-18-1.90528E-19
 -1      2088 9.58359E-05-2.86167E-05-2.88031E-05 6.22191E-07 3.61963E-19 5.13242E-19
 -1      2089 9.58509E-05-2.85582E-05-2.88419E-05 8.49686E-07 2.55667E-19 7.76478E-19
 -1      2090 9.53719E-05-2.84821E-05-2.86630E-05 2.38229E-07 5.53107E-19-5.18964E-19
 -1      2091 9.55042E-05-2.85109E-05-2.87078E-05 3.74542E-07-1.07413E-18-7.35814E-19
 -1      2092 9.55251E-05-2.84554E-05-2.87461E-05 5.33599E-07-6.93984E-19 5.12042E-19
 -1      2093 9.53498E-05-2.84120E-05-2.86875E-05 3.13359E-07 4.95154E-19 7.70400E-19
 -1      2094 9.48512E-05-2.72151E-05-2.89892E-05 9.77582E-07 7.18341E-19-1.78751E-18
 -1      2095 9.49705E-05-2.74731E-05-2.89239E-05 9.43593E-07 1.59087E-18-1.84761E-18
 -1      2096 9.50864E-05-2.77131E-05-2.88747E-05 8.64639E-07 4.70549E-19-1.01367E-18
 -1      2097 9.51912E-05-2.79410E-05-2.88172E-05 7.59947E-07 4.72097E-19 1.08566E-18
 -1      2098 9.50660E-05-2.75757E-05-2.89248E-05 1.16678E-06 4.16482E-19-7.51716E-19
 -1      2099 9.52523E-05-2.81078E-05-2.87752E-05 6.19109E-07 2.07770E-19 9.02487E-20
 -1      2100 9.53206E-05-2.82799E-05-2.87280E-05 4.75517E-07 6.45159E-19 5.77542E-19
 -1      2101 9.53983E-05-2.82933E-05-2.87569E-05 5.91452E-07 2.69475E-20 8.47598E-19
 -1      2102 9.52714E-05-2.79858E-05-2.88386E-05 9.15722E-07-6.39191E-19 1.25810E-18
 -1      2103 9.46261E-05-2.67326E-05-2.91015E-05 9.37819E-07 3.25343E-19-2.16411E-18
 -1      2104 9.47391E-05-2.69815E-05-2.90379E-05 9.71416E-07 6.42352E-19-1.95850E-18
 -1      2105 9.47926E-05-2.70884E-05-2.90147E-05 1.24331E-06 1.03760E-18-2.54678E-18
 -1      2106 9.44315E-05-2.63110E-05-2.92004E-05 7.56619E-07 4.10745E-19 6.23385E-19
 -1      2107 9.45264E-05-2.65229E-05-2.91460E-05 8.50188E-07 2.16281E-19 1.99155E-19
 -1      2108 9.45372E-05-2.66304E-05-2.90995E-05 1.13542E-06 8.49523E-19-1.07139E-18
 -1      2109 9.42958E-05-2.60144E-05-2.92703E-05 4.64916E-07 2.65906E-19 1.15093E-18
 -1      2110 9.43581E-05-2.61549E-05-2.92341E-05 6.02231E-07-9.27646E-20 1.53827E-18
 -1      2111 9.43283E-05-2.62523E-05-2.91702E-05 8.61128E-07 1.10045E-18 4.30866E-19
 -1      2112 9.42348E-05-2.58817E-05-2.93011E-05 1.06737E-07-1.29123E-18-6.15862E-19
 -1      2113 9.42567E-05-2.59309E-05-2.92884E-05 2.67238E-07-6.17538E-19 1.23303E-19
 -1      2114 9.41924E-05-2.60044E-05-2.92170E-05 4.63678E-07-4.62583E-19 2.58418E-19
 -1      2115 9.42560E-05-2.59301E-05-2.92885E-05-2.66858E-07-3.99498E-19 1.68914E-18
 -1      2116 9.42345E-05-2.58811E-05-2.93012E-05-1.06135E-07-1.36636E-18 1.05677E-18
 -1      2117 9.41447E-05-2.59174E-05-2.92334E-05 6.28328E-10-1.79569E-18 5.79292E-19
 -1      2118 9.43568E-05-2.61534E-05-2.92343E-05-6.02979E-07-6.94919E-19 1.14000E-18
 -1      2119 9.42948E-05-2.60128E-05-2.92705E-05-4.65186E-07-7.64415E-19 1.85069E-18
 -1      2120 9.41908E-05-2.60022E-05-2.92173E-05-4.63135E-07-1.39717E-18 1.35270E-18
 -1      2121 9.45220E-05-2.65143E-05-2.91479E-05-8.49226E-07-1.15119E-20-1.31898E-18
 -1      2122 9.44286E-05-2.63059E-05-2.92014E-05-7.56213E-07-1.02230E-18-1.65544E-19
 -1      2123 9.43248E-05-2.62460E-05-2.91713E-05-8.59855E-07-5.08912E-19 3.14145E-19
 -1      2124 9.47376E-05-2.69776E-05-2.90389E-05-9.73657E-07 9.26698E-19 6.15937E-19
 -1      2125 9.46220E-05-2.67239E-05-2.91036E-05-9.38969E-07 4.47425E-19 2.59793E-19
 -1      2126 9.45317E-05-2.66200E-05-2.91015E-05-1.13554E-06 2.10177E-19-7.34324E-19
 -1      2127 9.49718E-05-2.74749E-05-2.89237E-05-9.45966E-07-2.89099E-19-1.37351E-19
 -1      2128 9.48515E-05-2.72157E-05-2.89892E-05-9.80154E-07 6.10355E-19-1.47332E-19
 -1      2129 9.47896E-05-2.70828E-05-2.90162E-05-1.24633E-06 7.98560E-19-1.22797E-19
 -1      2130 9.51962E-05-2.79540E-05-2.88167E-05-7.62466E-07-1.05006E-18-5.09915E-19
 -1      2131 9.50875E-05-2.77161E-05-2.88741E-05-8.65817E-07-8.35514E-19-1.23835E-18
 -1      2132 9.50659E-05-2.75745E-05-2.89252E-05-1.16811E-06-7.99663E-19-1.18003E-18
 -1      2133 5.24800E-05-3.80289E-05-6.56314E-06 3.92089E-05 7.24213E-20 2.76556E-18
 -1      2134 3.82334E-05-3.93285E-05-8.26237E-07 3.08799E-05-4.53163E-20 1.84759E-18
 -1      2135 1.16788E-05-3.42910E-05 8.17549E-06 4.44018E-06 7.58094E-19-1.63393E-18
 -1      2136 1.21848E-05-3.47766E-05 8.14657E-06-4.41349E-06 8.71173E-19-1.35568E-18
 -1      2137 2.58152E-05-3.42163E-05 2.76136E-06 2.52905E-05 1.50772E-19 1.38956E-18
 -1      2138 1.83247E-05-3.52930E-05 5.87193E-06 1.66164E-05 3.16790E-19-6.42898E-19
 -1      2139 3.98228E-05-3.30580E-05-3.22237E-06 3.50013E-05-2.14299E-19 1.83954E-18
 -1      2140 8.91059E-05-4.22246E-05-2.00978E-05 4.26409E-05 7.26331E-19 2.19763E-18
 -1      2141 7.12918E-05-4.40797E-05-1.26684E-05 3.82961E-05-4.82809E-20 3.52726E-18
 -1      2142 1.24994E-04-4.15215E-05-3.52748E-05 3.83902E-05 2.31282E-18 1.10114E-19
 -1      2143 1.05535E-04-4.35306E-05-2.72845E-05 3.62612E-05 1.69830E-18 5.06949E-19
 -1      2144 8.72675E-05-8.72221E-06-3.37577E-05-1.05367E-05-9.60410E-19-1.51938E-18
 -1      2145 8.79595E-05-9.23892E-06-3.38244E-05-1.20930E-05-1.11703E-18-1.31495E-18
 -1      2146 9.04833E-05-1.30444E-05-3.32372E-05-1.18685E-05-1.22435E-18-1.12399E-18
 -1      2147 8.87103E-05-1.10528E-05-3.33072E-05-9.40518E-06-9.48809E-19-1.43937E-18
 -1      2148 1.75567E-04-2.95275E-05-6.09885E-05 1.21741E-05 1.74891E-18-7.67412E-19
 -1      2149 1.60628E-04-3.04948E-05-5.53216E-05 1.40161E-05 2.35094E-18-1.05498E-18
 -1      2150 1.80325E-04-2.42553E-05-6.57350E-05 1.61832E-06 6.29345E-19-8.53597E-19
 -1      2151 1.77402E-04-2.58855E-05-6.39366E-05 8.77447E-06 1.13121E-18-5.22619E-19
 -1      2152 1.57846E-04-2.00404E-05-5.81105E-05-1.63438E-06 1.67755E-18 6.61109E-19
 -1      2153 1.77384E-04-2.45794E-05-6.44275E-05-7.13969E-06 2.07523E-20-1.36118E-18
 -1      2154 1.80939E-04-2.40062E-05-6.60344E-05-6.79852E-07-6.69156E-20-1.83420E-18
 -1      2155 1.66330E-04-3.08812E-05-5.72876E-05-1.94992E-05 1.14244E-18-1.25403E-18
 -1      2156 1.77359E-04-3.00435E-05-6.18854E-05-1.25960E-05 1.11766E-18-7.50471E-19
 -1      2157 1.42252E-04-3.75661E-05-4.48903E-05-2.77067E-05 1.59507E-18-1.94733E-18
 -1      2158 1.59970E-04-3.66644E-05-5.17392E-05-2.53274E-05 1.49234E-18-1.55600E-18
 -1      2159 1.13297E-04-4.37965E-05-3.03952E-05-3.46289E-05 1.52805E-18-7.86047E-19
 -1      2160 1.32381E-04-4.23028E-05-3.80406E-05-3.52771E-05 1.03253E-18-1.77708E-18
 -1      2161 7.78105E-05-4.36374E-05-1.57531E-05-3.80309E-05 2.03119E-18-6.78897E-19
 -1      2162 9.62494E-05-4.17889E-05-2.33281E-05-4.23301E-05 1.88761E-18-9.27501E-20
 -1      2163 4.71382E-05-4.09071E-05-3.83982E-06-3.43093E-05 1.10030E-18-1.40385E-18
 -1      2164 6.16174E-05-3.95499E-05-9.93479E-06-3.99368E-05 1.87364E-18-1.58734E-18
 -1      2165 8.32923E-05-4.86214E-05-1.50933E-05-4.19205E-05 8.13999E-19-3.32513E-19
 -1      2166 2.06505E-05-3.49719E-05 4.82136E-06-1.94657E-05-2.47757E-19-3.37373E-18
 -1      2167 2.97960E-05-3.38132E-05 1.01398E-06-2.91103E-05 4.73491E-19-2.67408E-18
 -1      2168 1.22282E-05-3.25970E-05 7.48322E-06 6.49355E-07-9.54394E-19-3.91668E-18
 -1      2169 1.32540E-05-3.11461E-05 6.67089E-06-8.75363E-06-4.04988E-19-3.83791E-18
 -1      2170 1.88581E-05-3.38668E-05 5.21802E-06 1.83910E-05-1.18500E-18-2.03076E-18
 -1      2171 1.41773E-05-3.47356E-05 7.40498E-06 9.79993E-06-4.63856E-19-3.36103E-18
 -1      2172 1.51241E-05-2.32312E-05 2.85192E-06 6.32152E-06 8.38033E-20-3.41735E-18
 -1      2173 4.36376E-05-3.71762E-05-3.60029E-06 3.48273E-05-1.59920E-18 1.56923E-18
 -1      2174 3.17752E-05-3.94196E-05 1.69277E-06 2.69587E-05-1.35356E-18-2.41828E-19
 -1      2175 8.03978E-05-4.15717E-05-1.69163E-05 4.23660E-05-6.16640E-19 2.60124E-18
 -1      2176 6.28340E-05-4.32538E-05-9.68097E-06 3.66017E-05-1.31121E-18 2.89405E-18
 -1      2177 1.20309E-04-4.69238E-05-3.16527E-05 3.55793E-05 2.62580E-19 2.04389E-18
 -1      2178 9.80140E-05-4.52006E-05-2.34246E-05 3.68997E-05-3.89212E-19 2.22261E-18
 -1      2179 1.02613E-04-5.29733E-05-2.10449E-05 3.84176E-05 2.59616E-19 3.15848E-18
 -1      2180 1.54640E-04-3.79616E-05-4.87436E-05 2.86141E-05-1.97676E-19 1.00585E-18
 -1      2181 1.36824E-04-4.14629E-05-4.07046E-05 2.72767E-05 1.95665E-19 1.21083E-18
 -1      2182 1.74899E-04-3.19726E-05-5.99410E-05 1.54709E-05-3.06202E-19 1.37431E-18
 -1      2183 1.60649E-04-3.28816E-05-5.42849E-05 2.06709E-05-6.08117E-19 1.24810E-18
 -1      2184 1.82795E-04-2.59548E-05-6.59117E-05 2.99440E-06-5.56924E-19 1.21295E-18
 -1      2185 1.76599E-04-2.61931E-05-6.34819E-05 1.00326E-05-7.18707E-19 1.53228E-18
 -1      2186 1.77929E-04-2.37714E-05-6.51166E-05-6.04980E-06-1.11131E-18 2.67874E-18
 -1      2187 1.84689E-04-2.53976E-05-6.67717E-05 3.23928E-07-7.43271E-19 2.21097E-18
 -1      2188 1.67622E-04-3.09647E-05-5.77252E-05-1.75881E-05-6.66615E-19 1.79867E-18
 -1      2189 1.76234E-04-2.89042E-05-6.20585E-05-9.96457E-06-4.34951E-19 3.05482E-18
 -1      2190 1.44073E-04-3.75926E-05-4.56048E-05-2.64425E-05 9.13737E-20 1.30316E-18
 -1      2191 1.62265E-04-3.65300E-05-5.27343E-05-2.48099E-05-1.64731E-19 1.68687E-18
 -1      2192 1.10986E-04-4.31819E-05-2.96889E-05-3.53257E-05 4.54433E-19 8.75832E-19
 -1      2193 1.32171E-04-4.22963E-05-3.79997E-05-3.56152E-05 1.43996E-20 9.11831E-19
 -1      2194 7.53968E-05-4.44970E-05-1.43405E-05-3.76862E-05-3.13402E-19 1.49819E-18
 -1      2195 9.48710E-05-4.26627E-05-2.23572E-05-4.24650E-05 8.47033E-22 1.09034E-18
 -1      2196 4.13770E-05-3.95272E-05-1.88464E-06-3.28626E-05-1.27860E-18 1.30051E-18
 -1      2197 5.51660E-05-3.86508E-05-7.74374E-06-3.86601E-05-9.00396E-19 2.00207E-18
 -1      2198 1.63508E-05-3.72931E-05 7.04719E-06-1.32962E-05-1.38278E-19 1.65595E-18
 -1      2199 2.34441E-05-3.43722E-05 3.40177E-06-2.33945E-05-1.73091E-18 2.52839E-18
 -1      2200 1.57786E-05-2.61394E-05 3.64861E-06-1.14166E-05-7.95152E-20 1.09775E-18
 -1      2201 1.53939E-04-3.86013E-05-4.89328E-05 2.29849E-05 2.49515E-18-1.43741E-18
 -1      2202 1.36846E-04-3.91296E-05-4.18448E-05 2.98381E-05 2.60971E-18-1.04185E-19
 -1      2203 1.37827E-04-4.94350E-05-3.74435E-05 2.26237E-05 1.35546E-18-1.63901E-18
 -1      2204 9.71094E-05-2.42911E-05-3.12811E-05-1.00029E-05-1.16523E-18 8.59831E-19
 -1      2205 1.49666E-04-3.24743E-05-5.08453E-05-4.14042E-06 1.53885E-18-6.57933E-19
 -1      2206 1.55375E-04-3.65450E-05-5.04943E-05 9.80475E-06 1.92059E-18-1.40607E-18
 -1      2207 1.47706E-04-4.15463E-05-4.51490E-05 3.77357E-06 1.59036E-18-1.90053E-18
 -1      2208 9.62903E-05-2.30878E-05-3.14387E-05-1.03823E-05-1.24232E-18 1.23336E-19
 -1      2209 1.79191E-05-2.56319E-05 2.67140E-06 1.43711E-05 2.51781E-19-1.52381E-18
 -1      2210 7.27543E-05-4.56491E-05-1.18206E-05 4.18984E-05-7.20402E-19 2.49192E-18
 -1      2211 9.52766E-05-2.80866E-05-2.87932E-05-7.22587E-07-1.36991E-18 2.21483E-19
 -1      2212 1.10121E-04-5.28977E-05-2.45239E-05 3.62179E-05 3.77353E-19 6.36757E-19
 -1      2213 3.72007E-05-3.53140E-05-1.38333E-06-3.15722E-05-1.65807E-18 3.70365E-19
 -1      2214 5.08716E-05-3.60392E-05-6.81268E-06-3.97372E-05-6.46286E-19-4.85985E-19
 -1      2215 3.28149E-05-2.76055E-05-1.97830E-06-3.04538E-05-1.19029E-18 1.69555E-18
 -1      2216 7.88253E-05-4.77732E-05-1.34940E-05-4.20539E-05 2.92226E-20 4.43276E-19
 -1      2217 1.15817E-04-5.41248E-05-2.62966E-05-3.37999E-05 7.75459E-19 3.99164E-19
 -1      2218 1.43366E-04-4.79595E-05-4.03699E-05-1.88572E-05 4.42575E-19 1.34975E-18
 -1      2219 1.57708E-04-3.36945E-05-5.21627E-05-5.46205E-06 3.22296E-19 1.65595E-18
 -1      2220 1.62623E-04-2.00711E-05-5.99772E-05 1.86210E-07-5.78524E-19 2.80326E-18
 -1      2221 1.61433E-04-1.43284E-05-6.17826E-05-6.90649E-07-9.52489E-19 1.61778E-18
 -1      2222 1.60641E-04-2.32599E-05-5.77627E-05 1.50960E-07-4.49351E-19 1.27415E-18
 -1      2223 1.32701E-04-4.94794E-05-3.55384E-05 2.60709E-05 7.11508E-19 1.52635E-18
 -1      2224 1.29569E-04-5.64200E-05-3.08223E-05 2.46885E-05 7.34378E-19 2.04431E-18
 -1      2225 1.41677E-04-5.23119E-05-3.88875E-05 1.38218E-05 1.00469E-18 1.55028E-18
 -1      2226 3.00473E-05-3.13858E-05-5.76686E-08 2.83451E-05 5.08432E-19-6.92449E-19
 -1      2227 4.66787E-05-3.67608E-05-4.65682E-06-3.69255E-05 2.36746E-19-2.16036E-18
 -1      2228 1.17728E-04-5.39132E-05-2.71615E-05-3.34040E-05 1.28114E-18-3.91329E-19
 -1      2229 1.43096E-04-4.86616E-05-3.99829E-05-1.77623E-05 9.84888E-19-1.52424E-18
 -1      2230 1.57324E-04-3.45726E-05-5.16141E-05-6.48793E-06 1.37579E-18-6.57721E-19
 -1      2231 1.60423E-04-1.43342E-05-6.15135E-05-1.37840E-07 7.50471E-19-3.03661E-19
 -1      2232 1.61725E-04-2.04320E-05-5.93746E-05-7.07026E-07 3.89635E-19-6.38451E-19
 -1      2233 2.07323E-05-2.48708E-05 1.36658E-06-1.75303E-05-7.39248E-19-3.73330E-18
 -1      2234 6.46295E-05-4.36202E-05-9.31159E-06 4.14503E-05-4.12505E-19 3.59100E-18
 -1      2235 1.54695E-04-3.82865E-05-4.92562E-05 8.53717E-06-7.75565E-20 1.96427E-18
 -1      2236 9.51593E-05-2.63537E-05-2.94746E-05 4.18576E-06 1.07291E-18 1.56175E-19
 -1      2237 9.61304E-05-2.58401E-05-3.00508E-05 5.99487E-06 1.16226E-18 2.93940E-19
 -1      2238 8.81856E-05-1.11639E-05-3.30487E-05-3.65034E-06-4.65578E-19-1.55794E-18
 -1      2239 8.84157E-05-1.14353E-05-3.30284E-05-4.78914E-06-6.60690E-19-1.64246E-18
 -1      2240 8.87619E-05-1.19206E-05-3.29769E-05-5.80545E-06-7.25809E-19-1.63275E-18
 -1      2241 8.91628E-05-1.23954E-05-3.29448E-05-6.97649E-06-8.42706E-19-1.58387E-18
 -1      2242 8.99287E-05-1.37969E-05-3.26270E-05-4.88603E-06-6.82790E-19-1.51486E-18
 -1      2243 8.78447E-05-1.07014E-05-3.30955E-05 6.13787E-07 5.70783E-20-1.45217E-18
 -1      2244 8.78403E-05-1.06965E-05-3.30958E-05-4.94048E-07-1.15262E-19-1.45753E-18
 -1      2245 8.80234E-05-1.09283E-05-3.30752E-05 2.74938E-06 2.84331E-19-1.60427E-18
 -1      2246 8.79102E-05-1.07942E-05-3.30857E-05 1.63278E-06 1.41685E-19-1.57249E-18
 -1      2247 8.91567E-05-1.27366E-05-3.27543E-05 1.04479E-06 7.05910E-20-1.43650E-18
 -1      2248 8.84518E-05-1.14792E-05-3.30258E-05 4.87410E-06 5.76766E-19-1.51166E-18
 -1      2249 8.82160E-05-1.12010E-05-3.30463E-05 3.75278E-06 4.08898E-19-1.57315E-18
 -1      2250 8.94201E-05-1.30959E-05-3.27119E-05 3.00795E-06 2.40917E-19-1.45719E-18
 -1      2251 8.92199E-05-1.24663E-05-3.29401E-05 7.05971E-06 9.26451E-19-1.34074E-18
 -1      2252 8.88087E-05-1.19785E-05-3.29729E-05 5.88865E-06 7.66141E-19-1.43637E-18
 -1      2253 8.99714E-05-1.38496E-05-3.26224E-05 4.95674E-06 6.55701E-19-1.27564E-18
 -1      2254 9.04712E-05-1.40783E-05-3.28040E-05 9.20929E-06 1.19663E-18-1.13009E-18
 -1      2255 8.98011E-05-1.32670E-05-3.28542E-05 8.03001E-06 1.02387E-18-1.24775E-18
 -1      2256 9.08951E-05-1.51154E-05-3.24699E-05 6.85105E-06 9.32006E-19-1.19050E-18
 -1      2257 9.24421E-05-1.66499E-05-3.25828E-05 1.10975E-05 1.43706E-18-7.49194E-19
 -1      2258 9.13785E-05-1.53115E-05-3.26606E-05 1.00158E-05 1.29733E-18-9.45355E-19
 -1      2259 9.22993E-05-1.70737E-05-3.22189E-05 8.49879E-06 1.21427E-18-9.36408E-19
 -1      2260 2.52392E-05-2.03735E-05-1.85654E-06 2.10030E-05-2.30816E-20-1.12952E-18
 -1      2261 1.86249E-05-1.85025E-05 1.84214E-07 6.45856E-06-4.39584E-19-1.43826E-18
 -1      2262 9.41909E-05-2.70919E-05-2.87394E-05 1.74102E-06 9.32507E-19-7.40459E-20
 -1      2263 9.47849E-05-2.68693E-05-2.90352E-05 2.72123E-06 1.01907E-18 1.04446E-19
 -1      2264 9.53044E-05-2.58259E-05-2.97848E-05 4.34152E-06 1.15334E-18-3.19629E-19
 -1      2265 9.58689E-05-2.50718E-05-3.02958E-05-6.18205E-06-9.78555E-19-2.81566E-19
 -1      2266 9.52185E-05-2.58250E-05-2.97538E-05-4.25677E-06-8.83518E-19-2.68807E-19
 -1      2267 9.51076E-05-2.65142E-05-2.93401E-05-2.91379E-06-8.68866E-19-1.77370E-19
 -1      2268 9.46445E-05-2.68813E-05-2.90406E-05-1.84100E-06-8.54406E-19-2.59955E-19
 -1      2269 9.53241E-05-2.53462E-05-2.99970E-05-4.26698E-06-9.10068E-19-4.85325E-19
 -1      2270 9.44565E-05-2.72075E-05-2.87824E-05-9.73486E-07-7.07435E-19-1.84326E-19
 -1      2271 9.42102E-05-2.74182E-05-2.86218E-05-3.55175E-07-5.46107E-19-4.18309E-19
 -1      2272 9.50245E-05-2.66653E-05-2.93104E-05-1.86301E-06-7.41580E-19-3.95660E-19
 -1      2273 9.40730E-05-2.75946E-05-2.84681E-05 1.76573E-07-5.06026E-19-2.56827E-19
 -1      2274 9.39941E-05-2.77353E-05-2.83928E-05 5.31483E-07-5.23490E-19-3.81391E-19
 -1      2275 9.47387E-05-2.73820E-05-2.88806E-05-3.41125E-07-5.36254E-19-4.08955E-19
 -1      2276 9.39262E-05-2.78397E-05-2.83100E-05 8.49011E-07-4.62287E-19-4.30336E-19
 -1      2277 9.39613E-05-2.79441E-05-2.82891E-05 1.04944E-06-3.37803E-19-4.54920E-19
 -1      2278 9.45644E-05-2.77948E-05-2.86267E-05 5.92632E-07-5.58520E-19-5.35276E-19
 -1      2279 9.39537E-05-2.80100E-05-2.82549E-05 1.23601E-06-4.88293E-19-6.67163E-19
 -1      2280 9.40641E-05-2.80920E-05-2.82696E-05 1.34918E-06-4.25128E-19-8.07001E-19
 -1      2281 9.45105E-05-2.80445E-05-2.84939E-05 1.15383E-06-5.59233E-19-7.71721E-19
 -1      2282 9.41029E-05-2.81344E-05-2.82692E-05 1.46223E-06-2.99084E-19-1.02248E-18
 -1      2283 9.42638E-05-2.82008E-05-2.83081E-05 1.53243E-06-2.67919E-19-9.62947E-19
 -1      2284 9.45556E-05-2.81972E-05-2.84456E-05 1.49228E-06-5.05178E-19-1.35268E-18
 -1      2285 9.43377E-05-2.82274E-05-2.83323E-05 1.61270E-06-2.77370E-19-8.96007E-19
 -1      2286 9.45352E-05-2.82827E-05-2.83888E-05 1.67079E-06-3.48106E-19-8.38154E-19
 -1      2287 9.46765E-05-2.82866E-05-2.84576E-05 1.71309E-06-3.02047E-19-1.30802E-18
 -1      2288 9.46370E-05-2.82981E-05-2.84316E-05 1.74810E-06-4.01691E-19-8.16849E-19
 -1      2289 9.48662E-05-2.83461E-05-2.85026E-05 1.81671E-06-3.19277E-19-9.32035E-19
 -1      2290 9.48561E-05-2.83317E-05-2.85143E-05 1.89201E-06-3.89232E-19-1.13673E-18
 -1      2291 9.49926E-05-2.83539E-05-2.85608E-05 1.91350E-06-2.20901E-19-8.86510E-19
 -1      2292 9.52549E-05-2.83988E-05-2.86454E-05 2.00972E-06-6.74276E-20-9.10507E-19
 -1      2293 9.50850E-05-2.83452E-05-2.86061E-05 2.08517E-06-2.68127E-19-1.23842E-18
 -1      2294 9.54060E-05-2.84022E-05-2.87176E-05 2.14317E-06-1.28110E-20-7.32761E-19
 -1      2295 9.57078E-05-2.84491E-05-2.88166E-05 2.27997E-06 8.03515E-20-3.96508E-19
 -1      2296 9.53609E-05-2.83370E-05-2.87277E-05 2.33505E-06 4.78674E-21-5.75124E-19
 -1      2297 9.58865E-05-2.84520E-05-2.89022E-05 2.46297E-06 2.28749E-20-5.89917E-19
 -1      2298 9.62377E-05-2.85071E-05-2.90173E-05 2.64956E-06 1.51163E-20-5.75817E-19
 -1      2299 9.56876E-05-2.83169E-05-2.88763E-05 2.67375E-06 1.01666E-19-5.47874E-19
 -1      2300 9.64497E-05-2.85150E-05-2.91165E-05 2.89072E-06-8.58560E-20-7.36045E-19
 -1      2301 9.68629E-05-2.85866E-05-2.92497E-05 3.13184E-06-2.53972E-19-8.42876E-19
 -1      2302 9.60743E-05-2.82970E-05-2.90508E-05 3.12411E-06-1.47994E-19-9.28209E-19
 -1      2303 9.71163E-05-2.86076E-05-2.93622E-05 3.43439E-06-4.95831E-19-8.28364E-19
 -1      2304 9.76054E-05-2.87073E-05-2.95151E-05 3.72834E-06-5.72658E-19-6.09265E-19
 -1      2305 9.65355E-05-2.82942E-05-2.92500E-05 3.69872E-06-3.66589E-19-8.40515E-19
 -1      2306 9.79122E-05-2.87542E-05-2.96399E-05 4.08766E-06-7.61900E-19-9.12006E-19
 -1      2307 9.84917E-05-2.88985E-05-2.98127E-05 4.42266E-06-4.60340E-19-1.11945E-18
 -1      2308 9.70917E-05-2.83347E-05-2.94716E-05 4.39637E-06-8.89401E-19-7.41088E-19
 -1      2309 9.88693E-05-2.89923E-05-2.99470E-05 4.82201E-06-2.89368E-20-1.36463E-18
 -1      2310 9.95530E-05-2.92046E-05-3.01375E-05 5.17044E-06 1.37278E-19-1.20907E-18
 -1      2311 9.77731E-05-2.84601E-05-2.97107E-05 5.19546E-06-4.83362E-19-5.53697E-19
 -1      2312 1.00028E-04-2.93776E-05-3.02766E-05 5.57441E-06-8.47757E-20-1.18361E-18
 -1      2313 1.00827E-04-2.96909E-05-3.04790E-05 5.88477E-06-1.38476E-19-1.25403E-18
 -1      2314 9.86244E-05-2.87355E-05-2.99590E-05 6.04347E-06-3.29691E-20-1.25700E-18
 -1      2315 1.01441E-04-2.99914E-05-3.06159E-05 6.23003E-06 3.32242E-19-1.09391E-18
 -1      2316 1.02363E-04-3.04480E-05-3.08197E-05 6.41734E-06 4.44859E-19-9.76685E-19
 -1      2317 9.97135E-05-2.92591E-05-3.02042E-05 6.84176E-06 2.01305E-19-1.01757E-18
 -1      2318 1.03175E-04-3.09406E-05-3.09468E-05 6.60088E-06 2.69426E-19-1.12437E-18
 -1      2319 1.04214E-04-3.15859E-05-3.11377E-05 6.53871E-06 7.59580E-19-1.21874E-18
 -1      2320 1.01142E-04-3.01668E-05-3.04322E-05 7.42543E-06 3.11480E-19-6.23193E-19
 -1      2321 1.05302E-04-3.23401E-05-3.12506E-05 6.40642E-06 9.81300E-19-1.07360E-18
 -1      2322 1.06429E-04-3.31989E-05-3.14135E-05 5.92906E-06 6.78822E-19-9.51847E-19
 -1      2323 1.03047E-04-3.16200E-05-3.06332E-05 7.54045E-06 7.99937E-19-1.23965E-18
 -1      2324 1.07860E-04-3.42514E-05-3.15192E-05 5.27419E-06 3.44228E-19-7.40452E-19
 -1      2325 1.08991E-04-3.52729E-05-3.16451E-05 4.20596E-06 7.28448E-20-3.66485E-19
 -1      2326 1.05577E-04-3.37460E-05-3.08156E-05 6.82794E-06 6.61318E-19-1.37096E-18
 -1      2327 1.10758E-04-3.65433E-05-3.17738E-05 2.79855E-06-1.16930E-20-4.73759E-19
 -1      2328 1.11706E-04-3.75049E-05-3.18722E-05 1.03684E-06 2.27051E-19-2.57787E-19
 -1      2329 1.08806E-04-3.64959E-05-3.10276E-05 4.84312E-06 1.61365E-19-8.41510E-19
 -1      2330 1.13584E-04-3.86582E-05-3.20884E-05-1.25805E-06 8.86043E-20-8.06240E-19
 -1      2331 1.14025E-04-3.90674E-05-3.21953E-05-3.57891E-06 1.54531E-19-9.96960E-19
 -1      2332 1.12520E-04-3.93626E-05-3.13840E-05 1.17319E-06-2.40858E-19-8.02975E-19
 -1      2333 1.15418E-04-3.94069E-05-3.25871E-05-6.49887E-06 3.30674E-20-1.01205E-18
 -1      2334 1.14972E-04-3.86036E-05-3.27620E-05-8.76083E-06-2.14094E-19-9.06494E-19
 -1      2335 1.15901E-04-4.10671E-05-3.20681E-05-4.17763E-06-5.13613E-20-1.25665E-18
 -1      2336 1.15087E-04-3.73554E-05-3.33997E-05-1.13150E-05-3.73538E-20-4.75899E-19
 -1      2337 1.13617E-04-3.49622E-05-3.36770E-05-1.24042E-05 2.82022E-19-7.61999E-20
 -1      2338 1.17503E-04-3.97691E-05-3.32691E-05-1.00804E-05 7.90520E-20-1.41214E-18
 -1      2339 1.12076E-04-3.19795E-05-3.44766E-05-1.28190E-05 9.99234E-22-2.15682E-19
 -1      2340 1.10123E-04-2.87776E-05-3.47908E-05-1.15207E-05-1.76646E-19-1.06097E-18
 -1      2341 1.16015E-04-3.43386E-05-3.49919E-05-1.36551E-05-1.74145E-19-4.84602E-19
 -1      2342 1.08067E-04-2.56741E-05-3.54449E-05-8.50941E-06-2.11070E-19-5.98144E-19
 -1      2343 1.06876E-04-2.36960E-05-3.56294E-05-4.80328E-06-2.45904E-19-4.28698E-19
 -1      2344 1.12119E-04-2.65163E-05-3.67532E-05-1.13307E-05-2.04929E-19-3.52280E-19
 -1      2345 1.06354E-04-2.29576E-05-3.57730E-05 4.96276E-07-9.79382E-20-3.10202E-19
 -1      2346 1.06836E-04-2.37631E-05-3.56991E-05 4.77277E-06 1.23124E-19 3.94161E-19
 -1      2347 1.09299E-04-2.16213E-05-3.77236E-05-2.48046E-06-2.87065E-19 3.63610E-19
 -1      2348 1.08430E-04-2.60674E-05-3.52400E-05 9.12536E-06-4.26031E-20 6.58097E-19
 -1      2349 1.10195E-04-2.89967E-05-3.49594E-05 1.16200E-05 1.46782E-19 1.10603E-18
 -1      2350 1.10477E-04-2.36192E-05-3.73419E-05 7.95147E-06 6.88744E-20 3.29588E-19
 -1      2351 1.12208E-04-3.23307E-05-3.41726E-05 1.26945E-05 2.20904E-19 3.97644E-19
 -1      2352 1.14007E-04-3.52728E-05-3.38611E-05 1.25748E-05 4.47293E-19 7.69885E-19
 -1      2353 1.14389E-04-3.08194E-05-3.58258E-05 1.34845E-05-1.56926E-19 2.50126E-19
 -1      2354 1.14668E-04-3.73798E-05-3.31276E-05 1.07515E-05-5.00031E-21 2.65078E-19
 -1      2355 1.15591E-04-3.89047E-05-3.29064E-05 8.85167E-06-4.72383E-19-1.37517E-20
 -1      2356 1.17231E-04-3.78016E-05-3.39935E-05 1.21799E-05-2.29017E-19-4.29618E-19
 -1      2357 1.14672E-04-3.91972E-05-3.24057E-05 5.91368E-06 8.35221E-20 6.75143E-19
 -1      2358 1.14586E-04-3.92514E-05-3.22746E-05 3.50842E-06 2.59708E-19 1.59950E-18
 -1      2359 1.16938E-04-4.09688E-05-3.25348E-05 6.86782E-06 9.38871E-20 1.06855E-20
 -1      2360 1.12829E-04-3.83582E-05-3.19901E-05 8.61634E-07 7.98064E-20 2.07386E-18
 -1      2361 1.12058E-04-3.75658E-05-3.18936E-05-1.19026E-06 1.81986E-19 2.64088E-18
 -1      2362 1.14146E-04-4.03771E-05-3.16331E-05 1.03362E-06 5.22585E-19 2.27920E-18
 -1      2363 1.10194E-04-3.62860E-05-3.17361E-05-2.99360E-06-2.75193E-19 3.11531E-18
 -1      2364 1.09112E-04-3.52480E-05-3.16251E-05-4.37019E-06-5.39984E-19 3.35773E-18
 -1      2365 1.10433E-04-3.78215E-05-3.11553E-05-3.44041E-06 5.10508E-19 2.86073E-18
 -1      2366 1.07520E-04-3.40745E-05-3.15153E-05-5.33535E-06-8.43390E-19 3.53397E-18
 -1      2367 1.06374E-04-3.31266E-05-3.13690E-05-6.05654E-06-4.47136E-19 3.37949E-18
 -1      2368 1.06931E-04-3.49151E-05-3.08987E-05-6.14224E-06-6.26993E-19 3.67923E-18
 -1      2369 1.05138E-04-3.22363E-05-3.12623E-05-6.39202E-06-6.36325E-20 2.58744E-18
 -1      2370 1.04054E-04-3.14928E-05-3.10831E-05-6.61448E-06-3.88709E-20 2.02735E-18
 -1      2371 1.04085E-04-3.24787E-05-3.07144E-05-7.36401E-06-4.54229E-19 3.13643E-18
 -1      2372 1.03129E-04-3.08881E-05-3.09642E-05-6.54379E-06 4.75394E-19 1.15922E-18
 -1      2373 1.02155E-04-3.03489E-05-3.07660E-05-6.44288E-06 1.11985E-19 1.13540E-18
 -1      2374 1.01917E-04-3.07264E-05-3.05279E-05-7.55899E-06-5.70322E-19 1.51206E-18
 -1      2375 1.01463E-04-2.99673E-05-3.06358E-05-6.14355E-06-7.57727E-19 1.65141E-18
 -1      2376 1.00615E-04-2.95917E-05-3.04345E-05-5.86316E-06-8.54960E-19 2.07976E-18
 -1      2377 1.00297E-04-2.95850E-05-3.03169E-05-7.12905E-06-3.11076E-19 1.31231E-18
 -1      2378 1.00089E-04-2.93633E-05-3.03004E-05-5.45800E-06-3.98745E-19 2.33908E-18
 -1      2379 9.93647E-05-2.91058E-05-3.01089E-05-5.09897E-06 7.16764E-20 2.55977E-18
 -1      2380 9.90777E-05-2.88955E-05-3.00862E-05-6.37098E-06-1.66369E-19 2.94586E-18
 -1      2381 9.89546E-05-2.89743E-05-2.99789E-05-4.66508E-06-2.70318E-19 2.51180E-18
 -1      2382 9.83470E-05-2.87972E-05-2.98060E-05-4.28991E-06-1.61801E-19 2.36628E-18
 -1      2383 9.81413E-05-2.85056E-05-2.98500E-05-5.48229E-06-2.16904E-19 2.70960E-18
 -1      2384 9.80210E-05-2.87223E-05-2.96866E-05-3.87081E-06 2.14536E-19 2.12343E-18
 -1      2385 9.75189E-05-2.85976E-05-2.95369E-05-3.51305E-06 6.57170E-19 2.05431E-18
 -1      2386 9.74067E-05-2.82983E-05-2.96230E-05-4.58283E-06-1.59991E-20 1.21561E-18
 -1      2387 9.72554E-05-2.85523E-05-2.94323E-05-3.12904E-06 5.98248E-19 1.86091E-18
 -1      2388 9.68470E-05-2.84599E-05-2.93077E-05-2.80213E-06 9.95958E-19 1.62545E-18
 -1      2389 9.68200E-05-2.81917E-05-2.94165E-05-3.73675E-06 5.98662E-19 4.94036E-20
 -1      2390 9.66302E-05-2.84263E-05-2.92200E-05-2.45773E-06 5.45958E-19 2.11199E-18
 -1      2391 9.63032E-05-2.83526E-05-2.91201E-05-2.16227E-06-6.63565E-19 2.29395E-18
 -1      2392 9.63434E-05-2.81309E-05-2.92377E-05-2.96961E-06-7.61316E-21 1.83354E-18
 -1      2393 9.61222E-05-2.83212E-05-2.90494E-05-1.85330E-06-2.02744E-18 2.98277E-18
 -1      2394 9.58685E-05-2.82584E-05-2.89726E-05-1.58439E-06-1.68732E-18 3.28075E-18
 -1      2395 9.59500E-05-2.80825E-05-2.90893E-05-2.28162E-06-5.38006E-19 3.03972E-18
 -1      2396 5.13614E-05-3.13587E-05-8.28751E-06 3.83418E-05-9.97170E-19 1.90349E-18
 -1      2397 3.95576E-05-2.60259E-05-5.29802E-06 3.06515E-05-5.21984E-19 6.86097E-19
 -1      2398 9.33475E-05-2.76636E-05-2.81418E-05-4.97367E-07 3.73905E-19-4.00365E-19
 -1      2399 9.34068E-05-2.75583E-05-2.81960E-05-1.92889E-07 4.85154E-19-2.54835E-19
 -1      2400 9.33452E-05-2.78288E-05-2.80721E-05-9.60165E-07 4.44071E-19-4.16351E-19
 -1      2401 9.32708E-05-2.77362E-05-2.80728E-05-7.93256E-07 2.65966E-19-4.21609E-19
 -1      2402 9.40406E-05-2.77687E-05-2.84143E-05-5.71936E-07 4.56819E-19-6.56581E-19
 -1      2403 9.35116E-05-2.79679E-05-2.80848E-05-1.21623E-06 3.67507E-19-2.04358E-19
 -1      2404 9.33547E-05-2.78834E-05-2.80521E-05-1.12608E-06 5.05283E-19-2.74797E-19
 -1      2405 9.39997E-05-2.79704E-05-2.83074E-05-1.09498E-06 3.61230E-19-3.94013E-19
 -1      2406 9.37909E-05-2.80907E-05-2.81523E-05-1.36213E-06 2.66127E-19-5.88016E-20
 -1      2407 9.35822E-05-2.80127E-05-2.80979E-05-1.30999E-06 2.84844E-19-1.25257E-19
 -1      2408 9.40945E-05-2.81113E-05-2.82852E-05-1.39722E-06 3.09679E-19-1.18884E-19
 -1      2409 9.41496E-05-2.82021E-05-2.82581E-05-1.46376E-06 3.86123E-20 1.33308E-20
 -1      2410 9.39052E-05-2.81292E-05-2.81885E-05-1.42308E-06 3.64596E-19 1.48139E-19
 -1      2411 9.42862E-05-2.82141E-05-2.83216E-05-1.58275E-06 1.41949E-19-1.44252E-20
 -1      2412 9.45720E-05-2.83068E-05-2.83937E-05-1.56840E-06 7.98983E-20-1.82592E-19
 -1      2413 9.42974E-05-2.82366E-05-2.83117E-05-1.51995E-06 1.70876E-20-7.20955E-20
 -1      2414 9.45494E-05-2.82911E-05-2.84004E-05-1.72438E-06 2.33921E-19-1.40265E-20
 -1      2415 9.50564E-05-2.84102E-05-2.85559E-05-1.71124E-06 7.35818E-19-5.34928E-19
 -1      2416 9.47493E-05-2.83393E-05-2.84617E-05-1.64055E-06 4.24125E-19-2.90640E-19
 -1      2417 9.48713E-05-2.83506E-05-2.85124E-05-1.87500E-06 4.49410E-19-2.94220E-19
 -1      2418 9.56115E-05-2.85198E-05-2.87456E-05-1.91887E-06 9.53305E-19-6.76411E-19
 -1      2419 9.52639E-05-2.84435E-05-2.86376E-05-1.81494E-06 8.43755E-19-6.69473E-19
 -1      2420 9.52498E-05-2.84005E-05-2.86531E-05-2.07410E-06 7.57117E-19-4.87649E-19
 -1      2421 9.62541E-05-2.86450E-05-2.89658E-05-2.21054E-06 2.33530E-19-3.32534E-19
 -1      2422 9.58537E-05-2.85573E-05-2.88413E-05-2.06556E-06 6.73238E-19-3.69920E-19
 -1      2423 9.56905E-05-2.84492E-05-2.88214E-05-2.35114E-06 5.42622E-19-3.60103E-19
 -1      2424 9.70062E-05-2.87982E-05-2.92210E-05-2.59772E-06-2.04646E-19-1.47457E-19
 -1      2425 9.65382E-05-2.86915E-05-2.90766E-05-2.40761E-06 3.42254E-20 5.03128E-20
 -1      2426 9.62061E-05-2.85073E-05-2.90179E-05-2.72669E-06-1.34779E-19 4.34947E-20
 -1      2427 9.78933E-05-2.89959E-05-2.95153E-05-3.08138E-06-1.51898E-19-2.16086E-20
 -1      2428 9.73419E-05-2.88605E-05-2.93481E-05-2.84744E-06-8.06526E-20-7.59141E-20
 -1      2429 9.68142E-05-2.85897E-05-2.92438E-05-3.21149E-06-1.03959E-19 4.54660E-19
 -1      2430 9.89417E-05-2.92605E-05-2.98509E-05-3.64646E-06 2.53612E-19 2.08319E-19
 -1      2431 9.82922E-05-2.90839E-05-2.96590E-05-3.37856E-06 2.66741E-19 1.07630E-19
 -1      2432 9.75373E-05-2.87175E-05-2.94995E-05-3.80299E-06-1.06561E-19 5.20274E-19
 -1      2433 1.00176E-04-2.96228E-05-3.02258E-05-4.25293E-06-5.09305E-19 4.26683E-19
 -1      2434 9.94179E-05-2.93890E-05-3.00100E-05-3.97442E-06-1.29876E-20 5.63793E-19
 -1      2435 9.84026E-05-2.89225E-05-2.97833E-05-4.47870E-06 2.31693E-20 6.32712E-19
 -1      2436 1.01615E-04-3.01243E-05-3.06314E-05-4.82271E-06-5.92344E-19 4.21987E-19
 -1      2437 1.00746E-04-2.98134E-05-3.03967E-05-4.57740E-06-4.57710E-19 8.01730E-19
 -1      2438 9.94438E-05-2.92519E-05-3.00894E-05-5.18587E-06-6.29389E-19 1.10177E-18
 -1      2439 1.03267E-04-3.08177E-05-3.10500E-05-5.22344E-06-8.41246E-19 3.09558E-19
 -1      2440 1.02301E-04-3.04073E-05-3.08073E-05-5.08367E-06-6.77903E-19 4.59024E-19
 -1      2441 1.00703E-04-2.97732E-05-3.04070E-05-5.82699E-06-6.31045E-19 7.65287E-19
 -1      2442 1.05122E-04-3.17603E-05-3.14536E-05-5.25300E-06-6.61610E-19-8.61848E-20
 -1      2443 1.04094E-04-3.12316E-05-3.12212E-05-5.32582E-06-7.07161E-19 1.81914E-20
 -1      2444 1.02230E-04-3.05754E-05-3.07202E-05-6.24199E-06-5.18565E-19 7.64343E-19
 -1      2445 1.07133E-04-3.29882E-05-3.18064E-05-4.63666E-06-2.44491E-19 5.98140E-19
 -1      2446 1.06116E-04-3.23431E-05-3.16092E-05-5.06029E-06-5.64595E-19 1.42351E-19
 -1      2447 1.04084E-04-3.17567E-05-3.10112E-05-6.19202E-06-8.45761E-19-1.64966E-19
 -1      2448 1.09179E-04-3.44563E-05-3.20740E-05-3.06174E-06-1.97011E-19 1.02536E-18
 -1      2449 1.08298E-04-3.37517E-05-3.19391E-05-3.97732E-06 4.03565E-20 8.29525E-19
 -1      2450 1.06300E-04-3.33800E-05-3.12679E-05-5.35765E-06-3.04974E-19-8.00984E-20
 -1      2451 1.11008E-04-3.59305E-05-3.22418E-05-2.92068E-07-4.19857E-19 3.90545E-19
 -1      2452 1.10458E-04-3.53312E-05-3.21885E-05-1.76995E-06-2.63804E-19 6.96843E-19
 -1      2453 1.08831E-04-3.53695E-05-3.14987E-05-3.38138E-06-1.79943E-19 1.88801E-19
 -1      2454 1.12170E-04-3.68676E-05-3.23370E-05 3.59421E-06-1.42265E-19 1.37597E-19
 -1      2455 1.12205E-04-3.66891E-05-3.23634E-05 1.68530E-06-2.69489E-19 5.68305E-19
 -1      2456 1.11418E-04-3.73430E-05-3.17516E-05-8.68665E-09-1.36996E-19-2.36099E-19
 -1      2457 1.12043E-04-3.64227E-05-3.24402E-05 7.85212E-06-5.65206E-19 7.16140E-19
 -1      2458 1.12890E-04-3.70741E-05-3.25131E-05 5.99836E-06-5.24145E-19 2.30185E-19
 -1      2459 1.13444E-04-3.84470E-05-3.21225E-05 4.60953E-06-5.46245E-19-4.24493E-19
 -1      2460 1.10142E-04-3.38994E-05-3.26497E-05 1.07920E-05 4.53127E-20 1.76429E-18
 -1      2461 1.11782E-04-3.55678E-05-3.27165E-05 9.86774E-06-3.81370E-19 6.34292E-19
 -1      2462 1.13927E-04-3.74523E-05-3.27259E-05 9.44222E-06-7.12525E-19 5.17625E-20
 -1      2463 1.06865E-04-2.97480E-05-3.29826E-05 1.03111E-05 7.19806E-19 1.85285E-18
 -1      2464 1.08793E-04-3.19541E-05-3.30116E-05 1.11599E-05 5.89783E-19 2.04819E-18
 -1      2465 1.12171E-04-3.37209E-05-3.35879E-05 1.22781E-05-6.46756E-20 3.15753E-19
 -1      2466 1.03805E-04-2.59518E-05-3.33099E-05 5.38363E-06 6.11108E-19 2.19587E-18
 -1      2467 1.05123E-04-2.75396E-05-3.33116E-05 8.14748E-06 6.61678E-19 2.51873E-18
 -1      2468 1.08780E-04-2.82958E-05-3.45207E-05 1.06283E-05 3.96445E-19 9.22088E-19
 -1      2469 1.03174E-04-2.52047E-05-3.34236E-05-2.29615E-06 1.34690E-18 1.49269E-18
 -1      2470 1.03087E-04-2.50580E-05-3.34288E-05 1.22029E-06 1.38440E-18 2.16071E-18
 -1      2471 1.06020E-04-2.42449E-05-3.51247E-05 3.85291E-06 1.13321E-18 1.58658E-18
 -1      2472 1.05553E-04-2.80815E-05-3.32660E-05-8.80626E-06 7.40380E-19 8.17016E-19
 -1      2473 1.04138E-04-2.63484E-05-3.32624E-05-6.27394E-06 1.35495E-18 1.22510E-18
 -1      2474 1.06250E-04-2.45758E-05-3.50644E-05-5.02455E-06 1.47266E-18 6.19083E-19
 -1      2475 1.09285E-04-3.25489E-05-3.29618E-05-1.12126E-05-8.75802E-20 3.95055E-19
 -1      2476 1.07345E-04-3.03544E-05-3.29257E-05-1.06483E-05 2.34946E-19 8.32660E-19
 -1      2477 1.09248E-04-2.90103E-05-3.43926E-05-1.11564E-05 7.80779E-19 1.23080E-18
 -1      2478 1.12052E-04-3.59018E-05-3.26787E-05-9.42255E-06-7.98421E-19 4.95739E-19
 -1      2479 1.10500E-04-3.43855E-05-3.26077E-05-1.05130E-05-6.37607E-19 7.98520E-19
 -1      2480 1.12552E-04-3.44014E-05-3.34529E-05-1.20908E-05-5.63207E-19 7.66202E-19
 -1      2481 1.12869E-04-3.70964E-05-3.24848E-05-5.38238E-06-6.45102E-20 6.40774E-19
 -1      2482 1.12135E-04-3.65930E-05-3.24162E-05-7.24458E-06-7.43093E-19 9.70912E-20
 -1      2483 1.13977E-04-3.77649E-05-3.26230E-05-8.79520E-06-8.28941E-19 4.69200E-19
 -1      2484 1.11983E-04-3.65221E-05-3.23329E-05-1.13710E-06 1.77575E-18 1.62777E-18
 -1      2485 1.12036E-04-3.67806E-05-3.23177E-05-2.95775E-06 8.21959E-19 1.11960E-18
 -1      2486 1.13208E-04-3.83922E-05-3.20536E-05-3.88913E-06 1.85336E-19 1.32905E-18
 -1      2487 1.10141E-04-3.51003E-05-3.21480E-05 2.15853E-06 1.65450E-18 2.78148E-18
 -1      2488 1.10744E-04-3.57213E-05-3.22142E-05 7.93123E-07 1.91813E-18 2.44477E-18
 -1      2489 1.11050E-04-3.70944E-05-3.17043E-05 5.87938E-07 1.35364E-18 2.02768E-18
 -1      2490 1.07953E-04-3.35275E-05-3.18868E-05 4.20150E-06 1.40930E-18 3.20855E-18
 -1      2491 1.08861E-04-3.42228E-05-3.20325E-05 3.38228E-06 1.81885E-18 3.56806E-18
 -1      2492 1.08442E-04-3.50777E-05-3.14597E-05 3.76221E-06 1.39039E-18 3.34499E-18
 -1      2493 1.05783E-04-3.21553E-05-3.15475E-05 5.15134E-06-2.35401E-19 1.03166E-18
 -1      2494 1.06807E-04-3.27801E-05-3.17514E-05 4.79388E-06 7.93941E-19 2.57927E-18
 -1      2495 1.05943E-04-3.31172E-05-3.12284E-05 5.55443E-06 1.66375E-18 3.40355E-18
 -1      2496 1.03792E-04-3.10834E-05-3.11561E-05 5.32211E-06-1.10501E-18 1.59785E-18
 -1      2497 1.04814E-04-3.15922E-05-3.13905E-05 5.28781E-06-6.01033E-19 1.52703E-18
 -1      2498 1.03778E-04-3.15497E-05-3.09689E-05 6.24823E-06-5.66284E-20 2.89458E-18
 -1      2499 1.02039E-04-3.02911E-05-3.07458E-05 5.01427E-06-2.88604E-18 3.93254E-19
 -1      2500 1.02990E-04-3.06862E-05-3.09861E-05 5.17414E-06-2.52736E-18 7.25439E-19
 -1      2501 1.01977E-04-3.04203E-05-3.06777E-05 6.19995E-06-1.65821E-18 2.34616E-18
 -1      2502 1.00533E-04-2.97197E-05-3.03458E-05 4.45771E-06-1.99001E-18 1.44700E-18
 -1      2503 1.01378E-04-3.00201E-05-3.05742E-05 4.71471E-06-2.25091E-18 5.85174E-19
 -1      2504 1.00499E-04-2.96556E-05-3.03695E-05 5.71546E-06-2.63633E-18-1.67111E-19
 -1      2505 9.92622E-05-2.93094E-05-2.99771E-05 3.80580E-06-2.47976E-19 9.29911E-19
 -1      2506 9.99886E-05-2.95364E-05-3.01826E-05 4.09646E-06-1.33559E-18 1.35373E-18
 -1      2507 9.92886E-05-2.91562E-05-3.00633E-05 5.01763E-06-1.47025E-18 3.77299E-19
 -1      2508 9.82062E-05-2.90114E-05-2.96522E-05 3.14896E-06 1.71067E-18 5.90092E-19
 -1      2509 9.88142E-05-2.91838E-05-2.98294E-05 3.43709E-06 1.17241E-18 1.33803E-18
 -1      2510 9.82976E-05-2.88342E-05-2.97758E-05 4.25101E-06 2.28617E-19 1.42700E-19
 -1      2511 9.73423E-05-2.87893E-05-2.93769E-05 2.53165E-06 1.30656E-18 1.79648E-18
 -1      2512 9.78391E-05-2.89220E-05-2.95241E-05 2.80086E-06 1.26573E-18 9.92995E-19
 -1      2513 9.74878E-05-2.86235E-05-2.95184E-05 3.49865E-06 1.47691E-18 9.94633E-19
 -1      2514 9.66467E-05-2.86160E-05-2.91526E-05 1.96722E-06 1.06338E-18 1.58632E-18
 -1      2515 9.70427E-05-2.87207E-05-2.92702E-05 2.21446E-06 7.84638E-19 2.06100E-18
 -1      2516 9.68279E-05-2.84770E-05-2.92978E-05 2.79961E-06 6.17993E-19 2.29560E-18
 -1      2517 9.60953E-05-2.84741E-05-2.89770E-05 1.44862E-06 2.13513E-18 1.06534E-18
 -1      2518 9.64017E-05-2.85575E-05-2.90670E-05 1.67902E-06 1.85371E-18 1.48374E-18
 -1      2519 9.62900E-05-2.83622E-05-2.91161E-05 2.16524E-06 1.44534E-18 1.59761E-18
 -1      2520 9.56677E-05-2.83567E-05-2.88440E-05 9.69029E-07-8.10185E-19 1.26287E-18
 -1      2521 9.58980E-05-2.84232E-05-2.89104E-05 1.18573E-06 1.12268E-18 1.74639E-18
 -1      2522 9.58555E-05-2.82656E-05-2.89722E-05 1.58428E-06 1.11078E-18 2.11559E-18
 -1      2523 9.55082E-05-2.83251E-05-2.87879E-05 7.10390E-07-7.98822E-19 4.81462E-19
 -1      2524 9.43714E-05-2.64914E-05-2.90982E-05 1.29698E-06 1.71241E-18-3.57651E-19
 -1      2525 9.45206E-05-2.67044E-05-2.90622E-05 1.40507E-06 1.92173E-18-1.55051E-18
 -1      2526 9.41242E-05-2.61362E-05-2.91447E-05 9.27286E-07 9.13315E-19 1.16681E-18
 -1      2527 9.42346E-05-2.62946E-05-2.91176E-05 1.11429E-06 1.12089E-18-6.64193E-20
 -1      2528 9.41916E-05-2.63313E-05-2.90785E-05 1.39740E-06 1.69420E-18-3.54116E-19
 -1      2529 9.50356E-05-2.74468E-05-2.89709E-05 1.46071E-06 3.86416E-19-1.13386E-18
 -1      2530 9.52057E-05-2.76909E-05-2.89292E-05 1.38079E-06-2.41390E-19 6.58885E-20
 -1      2531 9.46889E-05-2.69464E-05-2.90382E-05 1.48481E-06 1.32846E-18-2.04765E-18
 -1      2532 9.48574E-05-2.71852E-05-2.89982E-05 1.49774E-06 5.25367E-19-1.13432E-18
 -1      2533 9.49688E-05-2.72969E-05-2.89999E-05 1.73370E-06 3.53380E-19-1.43126E-18
 -1      2534 9.45524E-05-2.67799E-05-2.90426E-05 1.68086E-06 2.08254E-18-1.40051E-18
 -1      2535 9.39766E-05-2.59235E-05-2.91721E-05 4.29767E-07-1.15829E-18-1.25928E-18
 -1      2536 9.40355E-05-2.60082E-05-2.91575E-05 6.68225E-07 8.57182E-20-6.72772E-19
 -1      2537 9.39244E-05-2.59990E-05-2.91051E-05 9.22943E-07 4.75918E-19-2.18232E-19
 -1      2538 9.39448E-05-2.58778E-05-2.91767E-05-1.26792E-07-9.32653E-19 1.89128E-18
 -1      2539 9.39454E-05-2.58784E-05-2.91766E-05 1.29794E-07-1.41549E-18 1.23777E-19
 -1      2540 9.37820E-05-2.58217E-05-2.91193E-05 3.23844E-07-6.98581E-19-5.10601E-19
 -1      2541 9.40326E-05-2.60046E-05-2.91580E-05-6.66509E-07-8.75768E-19 1.68214E-18
 -1      2542 9.39748E-05-2.59207E-05-2.91724E-05-4.27376E-07-1.18537E-18 1.87831E-18
 -1      2543 9.37802E-05-2.58192E-05-2.91196E-05-3.19499E-07-5.38150E-19 1.78549E-18
 -1      2544 9.42263E-05-2.62828E-05-2.91193E-05-1.10886E-06 2.53382E-19-2.72709E-19
 -1      2545 9.41185E-05-2.61281E-05-2.91457E-05-9.23094E-07-8.99172E-20 9.95103E-19
 -1      2546 9.39183E-05-2.59901E-05-2.91061E-05-9.16512E-07 9.57495E-20 1.89815E-18
 -1      2547 9.45121E-05-2.66904E-05-2.90644E-05-1.40608E-06 5.52477E-20-5.70332E-20
 -1      2548 9.43625E-05-2.64779E-05-2.91002E-05-1.29528E-06-1.31457E-19-8.42771E-19
 -1      2549 9.41807E-05-2.63156E-05-2.90804E-05-1.39232E-06 1.34127E-20-5.98333E-19
 -1      2550 9.48559E-05-2.71800E-05-2.89997E-05-1.49751E-06 5.19763E-20-1.85046E-19
 -1      2551 9.46867E-05-2.69380E-05-2.90405E-05-1.48917E-06-1.68585E-19-1.22518E-19
 -1      2552 9.45461E-05-2.67672E-05-2.90450E-05-1.68622E-06-4.31423E-19-4.38342E-19
 -1      2553 9.52092E-05-2.76941E-05-2.89300E-05-1.37809E-06-1.77662E-18-6.08992E-19
 -1      2554 9.50377E-05-2.74445E-05-2.89721E-05-1.47050E-06-1.17059E-18-8.47741E-19
 -1      2555 9.49495E-05-2.72868E-05-2.90005E-05-1.73654E-06-8.23891E-19-9.59371E-19
 -1      2556 9.54015E-05-2.80977E-05-2.88402E-05-9.37820E-07-7.08814E-19 1.07848E-18
 -1      2557 1.22997E-04-5.69639E-05-2.84118E-05 2.94116E-05 3.61048E-19-1.81583E-18
 -1      2558 1.07403E-04-5.53369E-05-2.22658E-05 3.46483E-05-8.65668E-19 5.06949E-19
 -1      2559 9.35987E-05-2.74450E-05-2.83392E-05 3.21381E-07 5.45385E-19-2.36284E-19
 -1      2560 9.38699E-05-2.73098E-05-2.84818E-05 8.67299E-07 7.51285E-19-7.12831E-20
 -1      2561 9.42660E-05-2.74566E-05-2.86468E-05 3.27677E-07 5.94640E-19-4.67458E-19
 -1      2562 1.42295E-04-5.10062E-05-3.93750E-05 1.39119E-05 1.39136E-18-2.22198E-18
 -1      2563 1.32919E-04-5.46707E-05-3.36091E-05 1.98860E-05 6.54545E-19-2.27937E-18
 -1      2564 8.99839E-05-5.00544E-05-1.70784E-05 4.21270E-05-1.04312E-18 2.14364E-18
 -1      2565 7.02152E-05-4.22928E-05-1.17183E-05 4.11825E-05-8.50633E-19 2.10329E-18
 -1      2566 1.87080E-05-1.81316E-05-1.03007E-08-6.34544E-06-4.17878E-19 3.64224E-19
 -1      2567 2.32803E-05-2.06106E-05-9.05839E-07-1.88306E-05-1.11554E-18 2.79351E-18
 -1      2568 4.16227E-05-3.06728E-05-4.65526E-06 3.57774E-05 2.67239E-19 1.20046E-18
 -1      2569 2.80942E-05-2.40152E-05-1.57666E-06 2.45649E-05 3.61471E-19-1.02449E-18
 -1      2570 4.34674E-05-3.06527E-05-5.29172E-06-3.50931E-05-5.42101E-19-2.55635E-18
 -1      2571 6.20122E-05-3.93197E-05-9.64360E-06-4.22519E-05 9.78323E-20-1.74002E-18
 -1      2572 1.12601E-04-5.63128E-05-2.40863E-05-3.25797E-05 1.48570E-18-4.10070E-19
 -1      2573 1.27015E-04-5.73852E-05-3.01548E-05-2.61122E-05 1.19305E-18-1.39475E-18
 -1      2574 8.78961E-05-1.07768E-05-3.30869E-05-1.51318E-06-1.95386E-19-1.57669E-18
 -1      2575 8.79998E-05-1.08997E-05-3.30770E-05-2.62891E-06-3.59524E-19-1.58934E-18
 -1      2576 8.93923E-05-1.30626E-05-3.27147E-05-2.91740E-06-4.11998E-19-1.41254E-18
 -1      2577 8.91467E-05-1.27245E-05-3.27554E-05-9.36375E-07-1.80060E-19-1.40962E-18
 -1      2578 1.47379E-04-2.25249E-05-5.38795E-05 5.43774E-06 4.93608E-19-6.05629E-19
 -1      2579 1.45349E-04-1.56655E-05-5.61364E-05 5.46095E-06-4.68833E-19-1.54859E-18
 -1      2580 1.45570E-04-1.64597E-05-5.57441E-05-5.40056E-06 1.83234E-18-9.88911E-20
 -1      2581 1.45205E-04-2.16266E-05-5.32937E-05-7.10674E-06 1.94246E-18-1.64960E-19
 -1      2582 2.28276E-05-1.70942E-05-1.99877E-06-1.15161E-05-3.77459E-19-3.72843E-18
 -1      2583 3.02270E-05-2.11001E-05-3.52144E-06-2.50161E-05-4.76774E-19-3.32609E-18
 -1      2584 1.45036E-04-1.09724E-05-5.78629E-05 1.08888E-06 4.37069E-19-1.10914E-18
 -1      2585 1.45195E-04-1.19091E-05-5.75552E-05-2.16256E-06 1.71397E-18-7.07273E-20
 -1      2586 1.35251E-04-1.24905E-05-5.28665E-05-6.24457E-06 1.90455E-18-8.37821E-19
 -1      2587 1.46274E-04-3.79228E-05-4.67478E-05 9.03791E-07 1.48877E-18-1.95876E-19
 -1      2588 1.49774E-04-3.07408E-05-5.14209E-05 3.66366E-06 1.51174E-18 4.20975E-19
 -1      2589 1.39664E-04-2.56301E-05-4.89575E-05 1.06808E-05 5.04832E-19-3.75447E-19
 -1      2590 1.37286E-04-5.34729E-05-3.60162E-05-1.35029E-05 7.23101E-19-2.85662E-19
 -1      2591 1.45324E-04-4.82790E-05-4.19282E-05-7.54257E-06 1.23020E-18 1.50348E-20
 -1      2592 8.05719E-05-4.74238E-05-1.40995E-05-4.12249E-05 4.22669E-19-3.04561E-19
 -1      2593 9.67742E-05-5.21454E-05-1.92036E-05-4.05826E-05 8.65668E-19 4.06523E-19
 -1      2594 7.87952E-05-4.57969E-05-1.41721E-05 4.28657E-05-3.47284E-20 4.21171E-18
 -1      2595 6.04414E-05-3.91453E-05-8.92761E-06 3.98998E-05 1.41666E-19 3.69370E-18
 -1      2596 2.22341E-05-1.85559E-05-1.23641E-06 1.38991E-05 3.27272E-19-2.93370E-18
 -1      2597 1.96634E-05-1.60880E-05-1.17291E-06 1.96739E-06 4.03889E-19-3.64775E-18
 -1      2598 1.50848E-04-3.59181E-05-4.95547E-05-6.36882E-07-2.63427E-19 1.99879E-18
 -1      2599 1.46897E-04-4.29305E-05-4.46960E-05 3.85024E-06 1.71683E-19 1.93102E-18
 -1      2600 1.13581E-04-5.64874E-05-2.46301E-05 3.34935E-05 3.95988E-19 2.51770E-18
 -1      2601 9.81435E-05-5.33155E-05-1.91005E-05 3.78328E-05 2.55804E-19 3.05197E-18
 -1      2602 1.47502E-04-1.85946E-05-5.57414E-05-5.94437E-06-6.06899E-19 2.43077E-18
 -1      2603 1.48442E-04-2.59997E-05-5.27087E-05-5.43967E-06-5.63700E-19 1.96194E-18
 -1      2604 1.44586E-04-1.13479E-05-5.75905E-05 3.31315E-07-6.31463E-19 9.27925E-19
 -1      2605 1.43810E-04-1.22781E-05-5.68779E-05-3.17794E-06-5.78100E-19 1.19813E-18
 -1      2606 1.47479E-04-1.98578E-05-5.49804E-05 5.28428E-06-7.07273E-20 1.03507E-18
 -1      2607 1.47327E-04-1.42205E-05-5.75416E-05 4.11562E-06-6.74662E-19 1.14667E-18
 -1      2608 1.34701E-04-1.11792E-05-5.32074E-05 3.28118E-06-3.17002E-19 6.02717E-20
 -1      2609 1.47664E-04-3.84013E-05-4.70355E-05 8.73890E-07 5.84559E-19 1.34530E-18
 -1      2610 1.49749E-04-3.10463E-05-5.13603E-05 4.09639E-06 6.93296E-19 1.48273E-18
 -1      2611 1.37025E-04-5.35477E-05-3.58717E-05-1.49085E-05 7.34483E-19 5.83817E-19
 -1      2612 1.46396E-04-4.80067E-05-4.24888E-05-7.81471E-06 7.13744E-19 9.80652E-19
 -1      2613 1.11986E-04-5.63972E-05-2.37373E-05-3.26156E-05 8.14422E-19-1.59877E-20
 -1      2614 1.26979E-04-5.73705E-05-3.00735E-05-2.69821E-05 1.10644E-18 3.04508E-19
 -1      2615 7.44471E-05-4.49041E-05-1.23522E-05-4.09580E-05 4.37916E-19-2.88944E-19
 -1      2616 9.26951E-05-5.10112E-05-1.79902E-05-4.15001E-05 1.16107E-18-4.27315E-19
 -1      2617 9.50358E-05-2.00107E-05-3.22019E-05-1.17446E-05-1.36830E-18-3.27166E-19
 -1      2618 9.54312E-05-2.33488E-05-3.09180E-05-7.95893E-06-1.18944E-18-3.79714E-19
 -1      2619 9.50518E-05-2.25376E-05-3.10522E-05-7.64180E-06-1.11157E-18-5.29723E-19
 -1      2620 9.31998E-05-1.76122E-05-3.24118E-05-1.13961E-05-1.36859E-18-6.94011E-19
 -1      2621 9.62698E-05-2.50735E-05-3.05383E-05 7.59101E-06 1.26756E-18 3.87198E-19
 -1      2622 9.73892E-05-2.37580E-05-3.15775E-05 1.06917E-05 1.32471E-18 5.65792E-19
 -1      2623 9.58371E-05-2.12867E-05-3.20060E-05 1.18921E-05 1.44516E-18 1.16361E-19
 -1      2624 9.58350E-05-2.41430E-05-3.07585E-05 7.67616E-06 1.29826E-18-1.70417E-19
 -1      2625 1.35582E-04-1.23862E-05-5.30335E-05 5.15250E-06 9.10560E-20-1.43509E-18
 -1      2626 9.08277E-05-1.50235E-05-3.24788E-05-6.78038E-06-8.47419E-19-1.43286E-18
 -1      2627 8.97377E-05-1.31813E-05-3.28614E-05-7.93639E-06-8.53721E-19-1.45805E-18
 -1      2628 9.03570E-05-1.38997E-05-3.28291E-05-9.16680E-06-1.05849E-18-1.34373E-18
 -1      2629 2.54075E-05-1.49300E-05-3.93659E-06-2.19299E-08-1.43544E-18-3.31825E-19
 -1      2630 3.80031E-05-2.02854E-05-7.01547E-06 2.47029E-05-7.35860E-19-8.05528E-19
 -1      2631 9.42136E-05-1.90696E-05-3.22496E-05 1.15987E-05 1.38885E-18-3.92587E-19
 -1      2632 1.41859E-04-2.74496E-05-4.92435E-05-8.17395E-06 1.14095E-18-4.39610E-19
 -1      2633 1.44051E-04-4.80897E-05-4.12206E-05 1.98390E-06 1.49660E-18-1.92361E-18
 -1      2634 1.40865E-04-2.45774E-05-5.00172E-05 9.91060E-06 5.56289E-19-9.25383E-20
 -1      2635 1.36093E-04-1.45283E-05-5.23717E-05-6.89266E-06-1.20702E-19 1.31512E-18
 -1      2636 1.04955E-04-5.46975E-05-2.13136E-05 3.52624E-05-8.82185E-19 6.22437E-19
 -1      2637 6.88183E-05-3.73710E-05-1.30675E-05 3.82776E-05-1.08717E-18 1.88730E-18
 -1      2638 1.30633E-04-5.86320E-05-3.07186E-05 1.90617E-05 8.47033E-20-2.02557E-18
 -1      2639 9.55048E-05-2.81803E-05-2.88523E-05 1.03511E-06-2.66817E-19 1.61009E-18
 -1      2640 9.54237E-05-2.80106E-05-2.88913E-05 1.19358E-06 3.92284E-19 1.98291E-18
 -1      2641 1.23600E-04-5.84787E-05-2.78337E-05 2.60755E-05 6.12828E-19 1.61233E-18
 -1      2642 1.19039E-04-5.84125E-05-2.56804E-05 2.70728E-05 5.49195E-19 1.72546E-18
 -1      2643 1.30730E-04-5.88922E-05-3.12410E-05 1.70802E-05 7.22254E-19 8.62174E-19
 -1      2644 9.55942E-05-2.82029E-05-2.88767E-05-1.15534E-06-8.88660E-19 1.60936E-18
 -1      2645 9.53758E-05-2.79213E-05-2.89122E-05-1.30701E-06-1.33925E-18 7.72169E-19
 -1      2646 9.53833E-05-2.77956E-05-2.89635E-05-1.62700E-06-2.51306E-18 1.37782E-18
 -1      2647 9.57707E-05-2.82404E-05-2.89335E-05-1.38667E-06-1.65068E-18 2.68382E-18
 -1      2648 1.43487E-04-3.11447E-05-4.83501E-05-8.33706E-06-5.25372E-19 2.53602E-18
 -1      2649 3.23908E-05-1.91261E-05-5.19438E-06 2.04406E-05 4.07423E-19-1.48697E-18
 -1      2650 9.47115E-05-2.69125E-05-2.90696E-05 1.84286E-06 9.15844E-19-3.92947E-19
 -1      2651 3.48896E-05-2.26461E-05-4.87322E-06-2.50749E-05-8.18340E-19 1.83573E-18
 -1      2652 6.71664E-05-3.93232E-05-1.15042E-05-4.04458E-05 3.77777E-19-1.40862E-18
 -1      2653 9.20465E-05-1.62258E-05-3.25360E-05-1.03791E-05-1.22427E-18-9.82188E-19
 -1      2654 1.07311E-04-5.55590E-05-2.19716E-05-3.41891E-05 1.43699E-18-1.06647E-19
 -1      2655 1.34407E-04-5.77094E-05-3.27762E-05-1.50509E-05 1.40597E-18-3.40401E-19
 -1      2656 9.34592E-05-5.03017E-05-1.80821E-05 3.84409E-05 8.00446E-20 3.42392E-18
 -1      2657 7.69383E-05-4.35582E-05-1.39306E-05-4.08811E-05-1.48231E-20-8.58786E-19
 -1      2658 2.86800E-05-1.43732E-05-5.54857E-06-4.98120E-06 2.16258E-19-2.96334E-18
 -1      2659 1.09660E-04-5.62059E-05-2.26529E-05-3.37153E-05 1.12613E-18-8.08546E-19
 -1      2660 4.44183E-05-2.49622E-05-7.85329E-06-3.00178E-05-4.14834E-19-3.08744E-18
 -1      2661 1.44177E-04-4.98142E-05-4.05446E-05 5.84435E-06 2.53845E-19 1.88931E-18
 -1      2662 1.38663E-04-5.42660E-05-3.60917E-05 7.89067E-06 8.31905E-19 1.46039E-18
 -1      2663 1.42262E-04-4.68517E-05-4.12495E-05-3.37847E-06 1.97994E-19 2.41214E-18
 -1      2664 5.72241E-05-3.36984E-05-9.64949E-06 3.79097E-05 2.79309E-19 2.71982E-18
 -1      2665 1.33841E-04-5.76122E-05-3.25920E-05-1.50007E-05 1.21623E-18-6.22357E-19
 -1      2666 1.42829E-04-4.36982E-05-4.25206E-05 3.90118E-06 1.33185E-18 2.43945E-19
 -1      2667 9.46931E-05-2.05893E-05-3.17144E-05 9.66056E-06 1.36489E-18-4.95541E-19
 -1      2668 1.43769E-04-4.49338E-05-4.24136E-05 2.67674E-06 6.88532E-19 1.19601E-18
 -1      2669 9.54380E-05-2.78933E-05-2.89443E-05 1.51917E-06-6.93917E-20 1.37222E-18
 -1      2670 9.56734E-05-2.80478E-05-2.89868E-05-1.74754E-06-2.37303E-18 3.01339E-18
 -1      2671 9.05987E-05-1.51311E-05-3.23656E-05 3.17544E-06 2.65749E-19-1.27621E-18
 -1      2672 9.04097E-05-1.48571E-05-3.24002E-05 2.24599E-06 1.15577E-19-1.35794E-18
 -1      2673 9.02759E-05-1.46515E-05-3.24305E-05 1.41377E-06 2.92250E-20-1.48953E-18
 -1      2674 9.02109E-05-1.45579E-05-3.24421E-05 4.62127E-07-5.66605E-20-1.34667E-18
 -1      2675 9.14531E-05-1.65308E-05-3.20964E-05 1.62639E-06 3.23677E-20-1.38390E-18
 -1      2676 9.21662E-05-1.75263E-05-3.20263E-05 6.44607E-06 1.01966E-18-9.67126E-19
 -1      2677 9.16480E-05-1.67287E-05-3.21309E-05 5.60704E-06 8.40546E-19-1.04525E-18
 -1      2678 9.35694E-05-1.97594E-05-3.16754E-05 7.57263E-06 1.31240E-18-8.77806E-19
 -1      2679 9.27893E-05-1.85021E-05-3.18546E-05 6.99178E-06 1.17396E-18-8.98689E-19
 -1      2680 9.34550E-05-1.98356E-05-3.15282E-05 5.69954E-06 1.06524E-18-8.42253E-19
 -1      2681 1.39437E-04-4.91839E-05-3.87436E-05 3.06292E-06 8.60109E-19 3.12026E-19
 -1      2682 1.39099E-04-4.11923E-05-4.26782E-05 8.80562E-06 1.24757E-18 1.05519E-18
 -1      2683 9.52018E-05-2.53840E-05-2.99338E-05 3.94660E-06 1.06753E-18-5.75369E-19
 -1      2684 9.55335E-05-2.45377E-05-3.03944E-05 5.58882E-06 1.12626E-18-5.18733E-19
 -1      2685 3.01132E-05-1.30073E-05-6.88741E-06 7.17154E-06-1.37730E-18-1.39549E-18
 -1      2686 3.03092E-05-1.28580E-05-6.96258E-06-6.60039E-06-1.73141E-18 5.68571E-19
 -1      2687 9.46893E-05-2.18915E-05-3.12055E-05 7.82805E-06 1.28278E-18-6.25441E-19
 -1      2688 9.53577E-05-2.58666E-05-2.97531E-05-2.64691E-06-7.58784E-19-6.23423E-19
 -1      2689 9.52006E-05-2.64457E-05-2.94776E-05-1.64581E-06-5.96452E-19-6.14678E-19
 -1      2690 9.52268E-05-2.69494E-05-2.92386E-05-8.80426E-07-5.45764E-19-6.92772E-19
 -1      2691 9.51037E-05-2.72941E-05-2.90665E-05-2.48070E-07-4.82969E-19-7.56080E-19
 -1      2692 9.54258E-05-2.62652E-05-2.96466E-05-1.52024E-06-6.49496E-19-7.63474E-19
 -1      2693 9.50749E-05-2.75857E-05-2.89083E-05 2.53013E-07-5.87748E-19-7.03897E-19
 -1      2694 9.50135E-05-2.77974E-05-2.88085E-05 6.43227E-07-6.32156E-19-7.39510E-19
 -1      2695 9.54343E-05-2.72301E-05-2.92382E-05-1.80772E-07-6.10404E-19-8.49155E-19
 -1      2696 9.49768E-05-2.79637E-05-2.87102E-05 9.61370E-07-5.36610E-19-6.95530E-19
 -1      2697 9.49718E-05-2.80944E-05-2.86610E-05 1.19960E-06-6.99039E-19-9.23661E-19
 -1      2698 9.53822E-05-2.78031E-05-2.89697E-05 6.95350E-07-6.13931E-19-7.97228E-19
 -1      2699 9.49438E-05-2.81816E-05-2.86069E-05 1.40111E-06-7.31459E-19-9.54219E-19
 -1      2700 9.49832E-05-2.82589E-05-2.85937E-05 1.55124E-06-4.94158E-19-9.36804E-19
 -1      2701 9.53292E-05-2.81294E-05-2.88059E-05 1.25774E-06-7.05281E-19-7.14521E-19
 -1      2702 9.49676E-05-2.82929E-05-2.85725E-05 1.68749E-06-2.42026E-19-1.02625E-18
 -1      2703 9.50410E-05-2.83327E-05-2.85856E-05 1.79545E-06-2.09739E-19-9.61470E-19
 -1      2704 9.52944E-05-2.82917E-05-2.87202E-05 1.62726E-06-4.08672E-19-7.59263E-19
 -1      2705 9.50372E-05-2.83287E-05-2.85892E-05 1.90566E-06-4.57797E-19-9.66690E-19
 -1      2706 9.51377E-05-2.83412E-05-2.86223E-05 2.00523E-06-4.58616E-19-9.34751E-19
 -1      2707 9.52810E-05-2.83390E-05-2.86931E-05 1.89778E-06-4.12686E-19-5.49306E-19
 -1      2708 9.51439E-05-2.83089E-05-2.86451E-05 2.11942E-06-4.03476E-19-8.72045E-19
 -1      2709 9.52685E-05-2.83015E-05-2.86944E-05 2.23599E-06-3.18062E-19-8.61872E-19
 -1      2710 9.52871E-05-2.83021E-05-2.87108E-05 2.14122E-06-3.86926E-19-5.09519E-19
 -1      2711 9.52832E-05-2.82474E-05-2.87323E-05 2.37730E-06-1.42365E-19-5.82345E-19
 -1      2712 9.54321E-05-2.82264E-05-2.87956E-05 2.53014E-06 1.61624E-19-7.24506E-19
 -1      2713 9.53098E-05-2.82014E-05-2.87631E-05 2.41284E-06-2.03114E-19-5.57720E-19
 -1      2714 9.54545E-05-2.81561E-05-2.88457E-05 2.71637E-06 1.37326E-20-5.17878E-19
 -1      2715 9.56308E-05-2.81283E-05-2.89218E-05 2.91973E-06-3.34859E-20-7.51072E-19
 -1      2716 9.53476E-05-2.80526E-05-2.88426E-05 2.75508E-06-1.71862E-20-4.98883E-19
 -1      2717 9.56618E-05-2.80479E-05-2.89815E-05 3.16406E-06-5.24773E-20-9.04103E-19
 -1      2718 9.58712E-05-2.80215E-05-2.90695E-05 3.42730E-06-1.24098E-19-7.30544E-19
 -1      2719 9.54008E-05-2.78703E-05-2.89431E-05 3.19995E-06-7.40546E-20-4.68670E-19
 -1      2720 9.59138E-05-2.79399E-05-2.91363E-05 3.73819E-06-5.78234E-20-5.71230E-19
 -1      2721 9.61649E-05-2.79270E-05-2.92350E-05 4.06478E-06-1.46939E-19-3.40445E-19
 -1      2722 9.54736E-05-2.76727E-05-2.90588E-05 3.76978E-06-1.01469E-20-8.13469E-19
 -1      2723 9.62266E-05-2.78583E-05-2.93054E-05 4.44502E-06-7.76830E-19-3.19381E-19
 -1      2724 9.65317E-05-2.78778E-05-2.94126E-05 4.83026E-06-1.07256E-18-2.57126E-19
 -1      2725 9.55766E-05-2.74865E-05-2.91828E-05 4.47636E-06-4.70269E-19-4.49663E-19
 -1      2726 9.66277E-05-2.78458E-05-2.94821E-05 5.27486E-06-7.70809E-19-2.15849E-19
 -1      2727 9.70054E-05-2.79273E-05-2.95941E-05 5.70208E-06-2.11202E-19-5.26106E-19
 -1      2728 9.57319E-05-2.73553E-05-2.93061E-05 5.31830E-06-8.48740E-19-1.68815E-19
 -1      2729 9.71643E-05-2.79707E-05-2.96567E-05 6.19474E-06 9.83097E-20-7.68328E-19
 -1      2730 9.76429E-05-2.81600E-05-2.97681E-05 6.62952E-06 7.54587E-20-9.02779E-19
 -1      2731 9.59823E-05-2.73493E-05-2.94173E-05 6.27622E-06-2.98939E-19 2.32832E-20
 -1      2732 9.79159E-05-2.83398E-05-2.98168E-05 7.13712E-06 2.36881E-19-4.98278E-19
 -1      2733 9.85387E-05-2.87038E-05-2.99205E-05 7.51950E-06 4.79322E-19-2.36492E-19
 -1      2734 9.64049E-05-2.75803E-05-2.95026E-05 7.30512E-06 2.99766E-19-1.08545E-19
 -1      2735 9.90112E-05-2.91095E-05-2.99495E-05 7.98321E-06 3.48498E-19-1.52203E-19
 -1      2736 9.98414E-05-2.97382E-05-3.00391E-05 8.21781E-06 2.68987E-19-6.90826E-19
 -1      2737 9.71323E-05-2.82154E-05-2.95485E-05 8.32216E-06 1.94966E-19-1.00712E-19
 -1      2738 1.00645E-04-3.04872E-05-3.00479E-05 8.53793E-06 4.97648E-19-5.98048E-19
 -1      2739 1.01763E-04-3.14812E-05-3.01223E-05 8.48354E-06 1.00293E-18-7.12485E-19
 -1      2740 9.83773E-05-2.94867E-05-2.95485E-05 9.18586E-06 3.41745E-19-9.46940E-20
 -1      2741 1.03077E-04-3.26969E-05-3.01257E-05 8.49459E-06 1.08741E-18-1.17603E-18
 -1      2742 1.04552E-04-3.41193E-05-3.01996E-05 7.95892E-06 5.30331E-19-1.03430E-18
 -1      2743 1.00449E-04-3.16716E-05-2.95175E-05 9.65785E-06 6.55135E-19-2.08708E-19
 -1      2744 1.06562E-04-3.58580E-05-3.02436E-05 7.40428E-06 6.21109E-19-7.50801E-19
 -1      2745 1.08385E-04-3.76274E-05-3.03602E-05 6.16261E-06 2.86817E-19-3.67553E-19
 -1      2746 1.03719E-04-3.49879E-05-2.95199E-05 9.34430E-06 8.49476E-19-1.22947E-18
 -1      2747 1.11175E-04-3.97314E-05-3.05432E-05 4.67121E-06-5.55012E-19-4.79171E-19
 -1      2748 1.13100E-04-4.14113E-05-3.07895E-05 2.54452E-06-5.45833E-19-8.86365E-19
 -1      2749 1.08494E-04-3.93781E-05-2.97083E-05 7.64261E-06-5.44111E-20-2.64211E-19
 -1      2750 1.16349E-04-4.32104E-05-3.12853E-05-2.81064E-07 4.16965E-20-9.20397E-19
 -1      2751 1.17766E-04-4.37385E-05-3.17843E-05-3.20600E-06-1.82393E-20-6.36754E-19
 -1      2752 1.14639E-04-4.39583E-05-3.03808E-05 3.69771E-06-1.95569E-19-3.24284E-19
 -1      2753 1.20296E-04-4.38601E-05-3.27830E-05-6.97284E-06-1.93282E-19-7.31304E-19
 -1      2754 1.20458E-04-4.20338E-05-3.36380E-05-9.79502E-06 3.17704E-20-5.00199E-19
 -1      2755 1.20581E-04-4.60356E-05-3.19715E-05-2.94184E-06-3.41275E-19 3.31465E-19
 -1      2756 1.20712E-04-3.88492E-05-3.52795E-05-1.33494E-05-2.16232E-19-8.26744E-19
 -1      2757 1.18881E-04-3.39995E-05-3.64255E-05-1.41100E-05-3.11258E-19-8.98100E-19
 -1      2758 1.24178E-04-4.32536E-05-3.47107E-05-1.06502E-05-1.75475E-19-5.58486E-19
 -1      2759 1.16849E-04-2.83120E-05-3.82583E-05-1.38490E-05 8.78267E-20-9.75782E-19
 -1      2760 1.14380E-04-2.30115E-05-3.92342E-05-1.09987E-05 6.45863E-21-5.37284E-19
 -1      2761 1.22149E-04-3.18284E-05-3.89079E-05-1.48513E-05-1.02173E-20-6.94726E-19
 -1      2762 1.12285E-04-1.89012E-05-4.03079E-05-5.60942E-06 2.54110E-20-4.05032E-19
 -1      2763 1.11649E-04-1.76078E-05-4.05271E-05-5.86890E-08 1.42302E-19 2.48733E-19
 -1      2764 1.17439E-04-1.96081E-05-4.22579E-05-9.25836E-06 3.12873E-19-9.62229E-19
 -1      2765 1.12591E-04-1.93421E-05-4.00959E-05 6.73526E-06 7.41154E-20 1.94864E-19
 -1      2766 1.14420E-04-2.33151E-05-3.94014E-05 1.11257E-05-5.64865E-20 4.25376E-19
 -1      2767 1.16044E-04-1.64326E-05-4.30428E-05 3.80257E-06 8.89385E-20-9.77000E-20
 -1      2768 1.17081E-04-2.90194E-05-3.77724E-05 1.38111E-05-1.68004E-19 2.67001E-19
 -1      2769 1.19352E-04-3.45670E-05-3.66224E-05 1.44909E-05 1.28815E-19-5.16697E-19
 -1      2770 1.20105E-04-2.60147E-05-4.05305E-05 1.36397E-05 8.95737E-20 1.68957E-19
 -1      2771 1.20326E-04-3.91588E-05-3.48113E-05 1.23775E-05-4.47935E-20 3.74858E-19
 -1      2772 1.21094E-04-4.24518E-05-3.37986E-05 1.01465E-05-6.96163E-20 4.78534E-19
 -1      2773 1.23819E-04-3.86379E-05-3.65417E-05 1.36363E-05 4.05888E-19 9.77476E-19
 -1      2774 1.19335E-04-4.36516E-05-3.24994E-05 6.18375E-06 3.83329E-19 1.15257E-18
 -1      2775 1.18429E-04-4.40389E-05-3.18431E-05 3.13151E-06 8.79777E-19 1.38918E-18
 -1      2776 1.22733E-04-4.55688E-05-3.30977E-05 6.48397E-06 4.80225E-19 2.93780E-18
 -1      2777 1.15290E-04-4.27862E-05-3.11407E-05-2.35597E-07 5.12296E-19 1.49297E-18
 -1      2778 1.13489E-04-4.14543E-05-3.07970E-05-2.76714E-06 2.68960E-19 1.47851E-18
 -1      2779 1.17501E-04-4.54508E-05-3.09389E-05-1.08414E-06 5.59040E-19 1.78740E-18
 -1      2780 1.10428E-04-3.93644E-05-3.05016E-05-4.80771E-06 7.37111E-19 1.80916E-18
 -1      2781 1.08504E-04-3.75523E-05-3.03411E-05-6.43995E-06 6.75595E-19 2.41854E-18
 -1      2782 1.11121E-04-4.14872E-05-2.99212E-05-6.22417E-06 5.11501E-19 9.19272E-19
 -1      2783 1.06140E-04-3.56041E-05-3.02525E-05-7.36217E-06-3.00171E-19 2.45652E-18
 -1      2784 1.04498E-04-3.39983E-05-3.01680E-05-8.18795E-06-7.27347E-19 3.26988E-18
 -1      2785 1.05677E-04-3.68436E-05-2.95683E-05-8.81751E-06 1.22503E-19 1.14450E-18
 -1      2786 1.02889E-04-3.25412E-05-3.01562E-05-8.38791E-06-8.93294E-19 2.41933E-18
 -1      2787 1.01619E-04-3.13538E-05-3.00864E-05-8.62808E-06-1.27743E-18 1.92880E-18
 -1      2788 1.01751E-04-3.30014E-05-2.95124E-05-9.66108E-06-1.11496E-18 2.35665E-18
 -1      2789 1.00608E-04-3.04042E-05-3.00855E-05-8.41448E-06-8.06872E-19 1.07792E-18
 -1      2790 9.96632E-05-2.96186E-05-3.00055E-05-8.28126E-06-2.73629E-20 6.78159E-19
 -1      2791 9.91873E-05-3.03187E-05-2.95447E-05-9.46863E-06-1.23353E-18 2.79604E-19
 -1      2792 9.90592E-05-2.90679E-05-2.99895E-05-7.85626E-06-2.65391E-19 1.01235E-18
 -1      2793 9.83574E-05-2.85903E-05-2.98951E-05-7.51270E-06-8.07062E-19 1.26836E-18
 -1      2794 9.76157E-05-2.86613E-05-2.95685E-05-8.72549E-06-5.10196E-19 7.56672E-19
 -1      2795 9.80057E-05-2.83125E-05-2.98595E-05-6.99933E-06-5.63258E-19 2.00054E-18
 -1      2796 9.74758E-05-2.80447E-05-2.97559E-05-6.55841E-06-1.96835E-19 1.39105E-18
 -1      2797 9.66880E-05-2.77546E-05-2.95518E-05-7.72693E-06-6.46498E-19 1.21148E-18
 -1      2798 9.72710E-05-2.79356E-05-2.97053E-05-6.02920E-06-7.28305E-19 1.27860E-18
 -1      2799 9.68613E-05-2.77991E-05-2.96002E-05-5.56297E-06-9.07876E-19 1.56904E-19
 -1      2800 9.61484E-05-2.73394E-05-2.94943E-05-6.64758E-06-9.33442E-19-1.86896E-20
 -1      2801 9.67376E-05-2.77841E-05-2.95417E-05-5.05859E-06-5.54847E-19 1.86937E-19
 -1      2802 9.64138E-05-2.77227E-05-2.94420E-05-4.60873E-06 3.50783E-19 1.06031E-19
 -1      2803 9.58301E-05-2.72169E-05-2.94083E-05-5.58851E-06-8.23021E-19-1.26997E-19
 -1      2804 9.63324E-05-2.77520E-05-2.93825E-05-4.14929E-06 8.48414E-19 8.85236E-20
 -1      2805 9.60714E-05-2.77278E-05-2.92932E-05-3.73624E-06 4.95391E-19 5.56448E-19
 -1      2806 9.56315E-05-2.72490E-05-2.93088E-05-4.60408E-06 4.74026E-19 1.01348E-18
 -1      2807 9.60094E-05-2.77689E-05-2.92380E-05-3.32846E-06 4.64583E-19 8.02941E-19
 -1      2808 9.57953E-05-2.77568E-05-2.91617E-05-2.95775E-06 3.51112E-19 8.53546E-19
 -1      2809 9.54931E-05-2.73441E-05-2.92085E-05-3.71895E-06 5.93971E-19-9.99497E-19
 -1      2810 9.57355E-05-2.77880E-05-2.91140E-05-2.59809E-06-2.69977E-19 7.49653E-19
 -1      2811 9.55591E-05-2.77733E-05-2.90522E-05-2.26521E-06-1.27902E-18 1.05783E-19
 -1      2812 9.53760E-05-2.74419E-05-2.91167E-05-2.94184E-06-2.10744E-19-1.28436E-18
 -1      2813 1.35537E-04-2.72640E-05-4.70520E-05-1.24785E-05-7.39460E-19 1.94733E-18
 -1      2814 1.39161E-04-3.66693E-05-4.42823E-05-1.01566E-05-5.89747E-19 2.34374E-18
 -1      2815 9.45959E-05-2.77867E-05-2.86321E-05-6.06634E-07 3.41033E-19-5.17347E-19
 -1      2816 9.46652E-05-2.76072E-05-2.87209E-05-2.29607E-07 4.02391E-19-5.46820E-19
 -1      2817 9.47317E-05-2.82926E-05-2.84699E-05-1.69537E-06 6.88083E-20-1.04666E-19
 -1      2818 9.46196E-05-2.82402E-05-2.84457E-05-1.60446E-06 1.23611E-19-1.33493E-19
 -1      2819 9.49087E-05-2.83370E-05-2.85258E-05-1.87304E-06 2.62891E-19-2.81655E-20
 -1      2820 9.47640E-05-2.83038E-05-2.84825E-05-1.79254E-06 1.97523E-19-3.84122E-20
 -1      2821 9.50465E-05-2.83343E-05-2.85952E-05-1.83337E-06 8.62334E-20-5.90024E-20
 -1      2822 9.51333E-05-2.83482E-05-2.86163E-05-2.06514E-06 5.82130E-19-2.47068E-19
 -1      2823 9.49598E-05-2.83282E-05-2.85574E-05-1.97086E-06 3.76341E-19-1.52336E-19
 -1      2824 9.51335E-05-2.83380E-05-2.86300E-05-2.04866E-06 4.45748E-19-1.21479E-19
 -1      2825 9.54043E-05-2.83372E-05-2.87361E-05-2.31259E-06 6.47914E-19 3.84754E-20
 -1      2826 9.52013E-05-2.83250E-05-2.86632E-05-2.18639E-06 7.08692E-19-6.10202E-20
 -1      2827 9.52538E-05-2.82941E-05-2.86999E-05-2.28548E-06 5.48793E-19 7.31958E-20
 -1      2828 9.57262E-05-2.83150E-05-2.88824E-05-2.64587E-06 3.20185E-19 1.44162E-19
 -1      2829 9.54891E-05-2.83044E-05-2.87961E-05-2.47449E-06 5.37618E-19 6.37450E-20
 -1      2830 9.54060E-05-2.82163E-05-2.87982E-05-2.58594E-06 4.60265E-19 3.04229E-19
 -1      2831 9.61086E-05-2.82946E-05-2.90539E-05-3.08582E-06-5.40379E-19 3.26171E-19
 -1      2832 9.58301E-05-2.82781E-05-2.89538E-05-2.86083E-06-4.36465E-20 3.20739E-19
 -1      2833 9.55930E-05-2.81181E-05-2.89203E-05-2.98113E-06 2.94876E-20 8.27502E-19
 -1      2834 9.65661E-05-2.82945E-05-2.92491E-05-3.64257E-06-2.53656E-19 4.68865E-19
 -1      2835 9.62362E-05-2.82613E-05-2.91352E-05-3.36127E-06-4.68906E-19 3.99804E-19
 -1      2836 9.58221E-05-2.80159E-05-2.90623E-05-3.49182E-06-3.97552E-19 3.25646E-19
 -1      2837 9.71196E-05-2.83422E-05-2.94653E-05-4.31196E-06 1.81173E-19 3.40067E-19
 -1      2838 9.67259E-05-2.82767E-05-2.93383E-05-3.97977E-06 3.20293E-20 5.93420E-19
 -1      2839 9.61067E-05-2.79334E-05-2.92199E-05-4.12731E-06-2.24689E-19 9.11040E-20
 -1      2840 9.77987E-05-2.84805E-05-2.96972E-05-5.06892E-06-3.27012E-19 8.41574E-19
 -1      2841 9.73261E-05-2.83595E-05-2.95593E-05-4.70337E-06-6.49978E-20 5.01642E-19
 -1      2842 9.64699E-05-2.79081E-05-2.93870E-05-4.88188E-06-3.66097E-20-2.01037E-20
 -1      2843 9.86471E-05-2.87748E-05-2.99360E-05-5.85752E-06-8.08342E-19 1.20480E-18
 -1      2844 9.80763E-05-2.85638E-05-2.97915E-05-5.49406E-06-4.30343E-19 1.29675E-18
 -1      2845 9.69503E-05-2.79987E-05-2.95553E-05-5.72838E-06-5.73871E-19 7.85791E-19
 -1      2846 9.97298E-05-2.93208E-05-3.01693E-05-6.57706E-06-3.56446E-19 3.78593E-19
 -1      2847 9.90361E-05-2.89713E-05-3.00250E-05-6.27670E-06-5.86764E-19 5.78427E-19
 -1      2848 9.76117E-05-2.82960E-05-2.97139E-05-6.60878E-06-4.67687E-19 3.48799E-19
 -1      2849 1.01140E-04-3.02470E-05-3.03828E-05-7.06453E-06-5.81203E-19 2.25271E-19
 -1      2850 1.00294E-04-2.96977E-05-3.02471E-05-6.92238E-06-3.36320E-19 1.74638E-19
 -1      2851 9.85564E-05-2.89320E-05-2.98509E-05-7.42014E-06-3.58495E-19-1.74903E-19
 -1      2852 1.03000E-04-3.17001E-05-3.05669E-05-7.07654E-06-5.96460E-19-1.65833E-19
 -1      2853 1.01971E-04-3.08888E-05-3.04467E-05-7.22781E-06-4.89356E-19 4.27220E-20
 -1      2854 9.99386E-05-3.00818E-05-2.99582E-05-7.99503E-06-4.03959E-19-2.69462E-19
 -1      2855 1.05430E-04-3.37869E-05-3.07293E-05-6.28006E-06-2.50124E-19 3.76739E-20
 -1      2856 1.04213E-04-3.26882E-05-3.06239E-05-6.89552E-06-4.26598E-19-9.36844E-20
 -1      2857 1.01966E-04-3.19393E-05-3.00423E-05-8.07581E-06-3.73744E-19-3.47826E-19
 -1      2858 1.08466E-04-3.64328E-05-3.09156E-05-4.27700E-06-5.87712E-20 4.91676E-21
 -1      2859 1.07124E-04-3.51411E-05-3.08069E-05-5.53037E-06-1.54085E-19 8.24492E-20
 -1      2860 1.04861E-04-3.46298E-05-3.01430E-05-7.28758E-06-3.40756E-19-4.61786E-19
 -1      2861 1.11869E-04-3.91373E-05-3.12334E-05-7.30892E-07-2.29966E-19 1.57441E-19
 -1      2862 1.10619E-04-3.79917E-05-3.10762E-05-2.70507E-06-2.16909E-19 4.12609E-19
 -1      2863 1.08723E-04-3.80012E-05-3.03614E-05-5.14176E-06-4.96163E-19 4.11665E-19
 -1      2864 1.14884E-04-4.07033E-05-3.18574E-05 4.31650E-06-6.67574E-19 8.16717E-20
 -1      2865 1.14167E-04-4.03980E-05-3.15801E-05 1.81335E-06-5.18884E-20 1.85772E-19
 -1      2866 1.13254E-04-4.12982E-05-3.08839E-05-1.16441E-06-4.43544E-19 1.25594E-18
 -1      2867 1.16224E-04-3.93023E-05-3.29799E-05 9.84879E-06-5.47083E-19-1.58421E-19
 -1      2868 1.16553E-04-4.07383E-05-3.25146E-05 7.53706E-06-7.00412E-19-4.40176E-20
 -1      2869 1.17383E-04-4.28139E-05-3.19727E-05 4.64778E-06-4.34620E-19 3.79556E-19
 -1      2870 1.14604E-04-3.37391E-05-3.46087E-05 1.29441E-05 7.64580E-20-1.06078E-19
 -1      2871 1.16051E-04-3.70432E-05-3.39918E-05 1.23222E-05-1.54474E-19-5.44454E-19
 -1      2872 1.18993E-04-3.98841E-05-3.38564E-05 1.10105E-05-3.25724E-19-4.89532E-19
 -1      2873 1.10591E-04-2.58071E-05-3.63345E-05 1.08203E-05 2.86138E-20 6.09729E-19
 -1      2874 1.12682E-04-2.97809E-05-3.57484E-05 1.28744E-05-2.03553E-19 7.10217E-20
 -1      2875 1.17173E-04-3.28931E-05-3.61404E-05 1.38192E-05-2.66147E-19-1.21472E-18
 -1      2876 1.07745E-04-2.08992E-05-3.73302E-05 2.33811E-06 1.61873E-18-3.98231E-19
 -1      2877 1.08758E-04-2.25379E-05-3.71134E-05 6.56513E-06 1.08322E-18 1.04561E-19
 -1      2878 1.12731E-04-2.30146E-05-3.85036E-05 9.52093E-06 4.75635E-19-1.11643E-18
 -1      2879 1.09020E-04-2.33172E-05-3.69676E-05-7.64742E-06 1.40054E-18-3.83911E-19
 -1      2880 1.08101E-04-2.12432E-05-3.72550E-05-3.71161E-06 1.39783E-18-4.08541E-19
 -1      2881 1.10743E-04-1.86856E-05-3.94487E-05-1.20886E-06 1.67202E-18-1.57467E-18
 -1      2882 1.13311E-04-3.09001E-05-3.55128E-05-1.32576E-05 1.60579E-19 1.01142E-18
 -1      2883 1.11230E-04-2.68063E-05-3.61221E-05-1.15852E-05 1.34541E-18 5.90653E-19
 -1      2884 1.13016E-04-2.34079E-05-3.84633E-05-1.11226E-05 4.37916E-19-8.91330E-19
 -1      2885 1.16324E-04-3.78484E-05-3.37571E-05-1.17686E-05-1.01248E-18 2.15757E-19
 -1      2886 1.15006E-04-3.47772E-05-3.43589E-05-1.27377E-05-2.68152E-19 5.55678E-19
 -1      2887 1.17785E-04-3.43495E-05-3.57889E-05-1.37856E-05-1.75991E-20-5.71218E-20
 -1      2888 1.16343E-04-4.08923E-05-3.23555E-05-6.69093E-06-5.12792E-19-2.80348E-20
 -1      2889 1.16186E-04-3.97366E-05-3.27948E-05-9.10874E-06-7.21222E-19 3.75961E-19
 -1      2890 1.18946E-04-4.06135E-05-3.35534E-05-1.01756E-05-6.85289E-19-6.15634E-19
 -1      2891 1.13681E-04-4.01276E-05-3.14838E-05-1.06369E-06 6.95469E-19 6.76988E-19
 -1      2892 1.14514E-04-4.06077E-05-3.17425E-05-3.51340E-06-9.18538E-19-4.99053E-19
 -1      2893 1.16890E-04-4.27932E-05-3.17817E-05-3.72104E-06-5.41016E-19-9.84593E-19
 -1      2894 1.10101E-04-3.75959E-05-3.10217E-05 3.22493E-06 1.10859E-18 7.44683E-19
 -1      2895 1.11385E-04-3.87930E-05-3.11684E-05 1.34221E-06 1.39473E-18 7.96310E-19
 -1      2896 1.12599E-04-4.08657E-05-3.07774E-05 1.85578E-06 6.08702E-19-7.31222E-19
 -1      2897 1.06660E-04-3.47557E-05-3.07753E-05 5.82527E-06 1.02000E-18 1.49429E-18
 -1      2898 1.07997E-04-3.60384E-05-3.08804E-05 4.66937E-06 1.24286E-18 1.17736E-18
 -1      2899 1.08129E-04-3.75141E-05-3.03139E-05 5.57338E-06 1.04181E-18-3.97578E-19
 -1      2900 1.03844E-04-3.23837E-05-3.05987E-05 7.01031E-06 1.53577E-18 1.84552E-18
 -1      2901 1.05038E-04-3.34466E-05-3.07048E-05 6.47388E-06 1.60618E-18 2.24478E-18
 -1      2902 1.04389E-04-3.41924E-05-3.01259E-05 7.48891E-06 8.61458E-19 1.09457E-18
 -1      2903 1.01693E-04-3.06699E-05-3.04225E-05 7.21937E-06-5.70158E-19 2.41158E-18
 -1      2904 1.02693E-04-3.14450E-05-3.05435E-05 7.12529E-06 3.18787E-19 2.28677E-18
 -1      2905 1.01629E-04-3.16152E-05-3.00351E-05 8.11744E-06 4.41947E-19 2.00711E-18
 -1      2906 1.00087E-04-2.95445E-05-3.02248E-05 6.83075E-06-1.88212E-18 1.94530E-18
 -1      2907 1.00907E-04-3.00665E-05-3.03595E-05 7.01335E-06-9.22063E-19 2.63264E-18
 -1      2908 9.97082E-05-2.98589E-05-2.99538E-05 7.93217E-06-1.18092E-18 1.61551E-18
 -1      2909 9.88860E-05-2.88585E-05-3.00088E-05 6.12426E-06-1.97107E-18 8.37090E-19
 -1      2910 9.95546E-05-2.91915E-05-3.01492E-05 6.45570E-06-2.33368E-18 1.42863E-18
 -1      2911 9.84019E-05-2.87797E-05-2.98493E-05 7.28599E-06-1.44359E-18 2.16157E-18
 -1      2912 9.79723E-05-2.84678E-05-2.97873E-05 5.28679E-06-1.47895E-18 5.64878E-19
 -1      2913 9.85182E-05-2.86724E-05-2.99246E-05 5.67957E-06-1.73500E-18 6.09954E-19
 -1      2914 9.75091E-05-2.81813E-05-2.97189E-05 6.41837E-06-1.67423E-18 1.36098E-18
 -1      2915 9.72633E-05-2.82596E-05-2.95739E-05 4.43263E-06 9.29857E-19 1.36565E-18
 -1      2916 9.77093E-05-2.83830E-05-2.97009E-05 4.83294E-06-3.76819E-19 9.21851E-19
 -1      2917 9.68833E-05-2.78917E-05-2.95725E-05 5.48130E-06-9.85414E-19 1.54813E-18
 -1      2918 9.67026E-05-2.81538E-05-2.93792E-05 3.62368E-06 1.20143E-18 1.06750E-18
 -1      2919 9.70666E-05-2.82299E-05-2.94912E-05 4.00286E-06 1.69698E-18 1.22817E-18
 -1      2920 9.64273E-05-2.77819E-05-2.94230E-05 4.56448E-06 1.10266E-18 1.73814E-18
 -1      2921 9.62518E-05-2.80956E-05-2.92104E-05 2.88611E-06 7.61439E-19 2.23486E-18
 -1      2922 9.65477E-05-2.81479E-05-2.93049E-05 3.23273E-06 5.47201E-19 2.23954E-18
 -1      2923 9.60793E-05-2.77626E-05-2.92814E-05 3.71420E-06 1.55468E-19 1.87065E-18
 -1      2924 9.58876E-05-2.80513E-05-2.90704E-05 2.22265E-06 2.06438E-18 1.49132E-18
 -1      2925 9.61231E-05-2.80945E-05-2.91469E-05 2.53367E-06 1.90520E-18 2.13158E-18
 -1      2926 9.57965E-05-2.77727E-05-2.91557E-05 2.94734E-06 1.57383E-18 1.98446E-18
 -1      2927 9.55589E-05-2.79499E-05-2.89717E-05 1.72036E-06-6.89711E-20 1.74019E-18
 -1      2928 9.57448E-05-2.79873E-05-2.90315E-05 2.01183E-06 6.82420E-19 6.86130E-19
 -1      2929 9.55194E-05-2.77268E-05-2.90609E-05 2.35551E-06 1.42419E-18 5.02119E-19
 -1      2930 9.52772E-05-2.76252E-05-2.90007E-05 1.90803E-06-5.40794E-19-1.01010E-18
 -1      2931 9.34811E-05-2.56604E-05-2.90709E-05 2.01512E-07-3.00649E-19 1.53053E-19
 -1      2932 9.35256E-05-2.57060E-05-2.90679E-05 5.35485E-07 1.56406E-19-1.46901E-18
 -1      2933 9.55340E-05-2.77950E-05-2.90250E-05-2.04428E-06-1.74599E-18 2.93228E-19
 -1      2934 9.54300E-05-2.77858E-05-2.89891E-05-1.83550E-06-2.08693E-18 6.68208E-19
 -1      2935 9.52866E-05-2.75059E-05-2.90490E-05-2.35430E-06-1.86305E-18-2.18426E-18
 -1      2936 9.39168E-05-2.61304E-05-2.90588E-05 1.48779E-06 1.16836E-18-1.83601E-18
 -1      2937 9.41101E-05-2.63296E-05-2.90463E-05 1.69304E-06 2.18748E-18-1.31337E-18
 -1      2938 9.35219E-05-2.57016E-05-2.90685E-05-5.28287E-07-6.41030E-19 2.00292E-18
 -1      2939 9.34797E-05-2.56581E-05-2.90711E-05-1.93602E-07-3.78533E-19 1.43106E-18
 -1      2940 9.32206E-05-2.54899E-05-2.90206E-05 5.61883E-09-1.40567E-19 9.91276E-19
 -1      2941 9.36179E-05-2.58089E-05-2.90676E-05 9.04016E-07-6.24475E-19-9.69525E-19
 -1      2942 9.37440E-05-2.59382E-05-2.90594E-05 1.19308E-06 2.61732E-19-3.47440E-19
 -1      2943 9.36343E-05-2.58967E-05-2.90249E-05 1.50347E-06 5.25470E-19-1.67175E-18
 -1      2944 9.33290E-05-2.55969E-05-2.90215E-05 8.06782E-07-2.40235E-19-4.69589E-19
 -1      2945 8.34030E-05-4.22927E-05-1.73848E-05 3.78669E-05-1.71185E-18 9.99552E-19
 -1      2946 6.63311E-05-3.16153E-05-1.44305E-05 3.43373E-05-1.79338E-18 1.56235E-18
 -1      2947 9.37317E-05-2.59233E-05-2.90608E-05-1.17930E-06 7.84920E-19 2.30717E-18
 -1      2948 9.36100E-05-2.57986E-05-2.90685E-05-8.92876E-07 3.08603E-19 2.75539E-18
 -1      2949 9.33211E-05-2.55866E-05-2.90224E-05-7.91556E-07 6.49047E-20 2.52967E-18
 -1      2950 9.40944E-05-2.63086E-05-2.90483E-05-1.68932E-06-4.04272E-20-1.52442E-18
 -1      2951 9.39016E-05-2.61115E-05-2.90605E-05-1.47885E-06 2.51050E-19-6.96489E-19
 -1      2952 9.36164E-05-2.58752E-05-2.90265E-05-1.48943E-06 2.55301E-19 5.95750E-19
 -1      2953 9.45741E-05-2.68183E-05-2.90324E-05-1.98451E-06-3.77014E-19-9.41451E-19
 -1      2954 9.43257E-05-2.65687E-05-2.90476E-05-1.87583E-06 1.74732E-19-1.25129E-18
 -1      2955 9.40829E-05-2.63323E-05-2.90323E-05-2.00305E-06 6.60621E-19-8.43727E-19
 -1      2956 9.47383E-05-2.73658E-05-2.88757E-05 2.84425E-07 6.26518E-19-5.98258E-19
 -1      2957 9.49057E-05-2.70786E-05-2.90412E-05 9.12857E-07 7.08884E-19-5.18926E-19
 -1      2958 9.51496E-05-2.73120E-05-2.90834E-05 2.38336E-07 5.36088E-19-6.69445E-19
 -1      2959 1.36218E-04-2.93025E-05-4.60276E-05 1.28056E-05 7.23260E-19 2.62368E-19
 -1      2960 1.32465E-04-1.99525E-05-4.89942E-05 1.11031E-05 4.65868E-21-5.41836E-19
 -1      2961 1.34632E-04-5.78250E-05-3.33466E-05 1.06250E-05 3.88470E-19-1.69523E-18
 -1      2962 1.26428E-04-5.85018E-05-2.88953E-05 1.81074E-05 4.25105E-20-1.48914E-18
 -1      2963 5.76668E-05-3.19190E-05-1.05039E-05-3.68309E-05 2.79521E-20-2.07820E-18
 -1      2964 7.74959E-05-4.10170E-05-1.54510E-05-3.87989E-05 1.11162E-18-2.26962E-18
 -1      2965 9.28510E-05-1.79937E-05-3.20815E-05-8.79313E-06-1.14260E-18-9.79852E-19
 -1      2966 9.49767E-05-2.66561E-05-2.92850E-05 1.72219E-06 7.94091E-19-5.35152E-19
 -1      2967 9.52356E-05-2.61642E-05-2.95652E-05 2.74429E-06 9.43802E-19-5.53588E-19
 -1      2968 9.52688E-05-2.49916E-05-3.01170E-05 3.77447E-06 1.01554E-18-8.45073E-19
 -1      2969 9.52613E-05-2.64577E-05-2.94953E-05 1.65409E-06 8.15103E-19-6.43224E-19
 -1      2970 3.34877E-05-1.20756E-05-8.55195E-06 3.30920E-06 7.84564E-19-2.89304E-18
 -1      2971 3.58383E-05-1.30508E-05-9.34846E-06-1.02610E-05 1.56489E-19-2.45618E-18
 -1      2972 4.80916E-05-2.11747E-05-1.12679E-05 2.71555E-05-1.34821E-18-8.38563E-20
 -1      2973 3.68766E-05-1.57416E-05-8.37438E-06 1.73679E-05-1.00342E-18-1.41582E-18
 -1      2974 4.08543E-05-1.39782E-05-1.09185E-05 1.12364E-05-1.29498E-18-9.90605E-19
 -1      2975 9.46101E-05-2.82016E-05-2.84577E-05-1.47798E-06 1.34793E-19-1.25550E-19
 -1      2976 9.45402E-05-2.81222E-05-2.84589E-05-1.34394E-06 3.82887E-19-7.93006E-20
 -1      2977 9.49980E-05-2.82657E-05-2.86050E-05-1.58403E-06 2.01566E-19 6.58082E-20
 -1      2978 9.45583E-05-2.80441E-05-2.85041E-05-1.14821E-06 3.65721E-19-2.60346E-19
 -1      2979 9.45471E-05-2.79257E-05-2.85411E-05-9.25524E-07 3.21048E-19-3.20776E-19
 -1      2980 9.49957E-05-2.81061E-05-2.86741E-05-1.22701E-06 2.66371E-19-1.29610E-19
 -1      2981 9.51978E-05-2.39503E-05-3.05257E-05-5.27091E-06-8.54906E-19-6.93461E-19
 -1      2982 9.51554E-05-2.49670E-05-3.00986E-05-3.74972E-06-8.15244E-19-6.89502E-19
 -1      2983 9.52211E-05-2.46606E-05-3.02393E-05-3.47726E-06-7.59090E-19-7.19517E-19
 -1      2984 1.34594E-04-3.03011E-05-4.51023E-05 1.33598E-05 1.06641E-18-1.58300E-18
 -1      2985 1.31200E-04-2.28893E-05-4.71546E-05 1.20746E-05 2.78780E-19-2.22325E-18
 -1      2986 1.31942E-04-2.42144E-05-4.69736E-05-1.25844E-05 5.36172E-19-1.88200E-18
 -1      2987 1.38138E-04-3.45510E-05-4.47244E-05-1.12659E-05 7.02402E-19-1.48231E-18
 -1      2988 1.00665E-04-5.14661E-05-2.07694E-05-3.39594E-05 1.37812E-18 1.96406E-19
 -1      2989 1.17005E-04-5.77587E-05-2.55993E-05-2.75336E-05 1.32042E-18 4.60376E-19
 -1      2990 3.58539E-05-1.60919E-05-7.91054E-06-1.84516E-05-4.65286E-19 1.50094E-18
 -1      2991 4.46474E-05-2.33722E-05-8.77282E-06-3.03600E-05 3.74389E-19 5.64759E-19
 -1      2992 5.72308E-05-2.61131E-05-1.27304E-05-3.04442E-05 5.77676E-19-6.70850E-19
 -1      2993 1.40136E-04-4.34385E-05-4.19755E-05-5.75919E-06 8.13787E-19-2.09619E-18
 -1      2994 1.38105E-04-5.21497E-05-3.70164E-05 1.43202E-06 5.82362E-19-2.52649E-18
 -1      2995 1.34684E-04-5.37079E-05-3.47206E-05 7.09457E-07 3.76281E-19-3.01904E-18
 -1      2996 1.34336E-04-4.05012E-05-4.03369E-05-1.05332E-05 7.05128E-19-2.17200E-18
 -1      2997 9.12120E-05-1.60548E-05-3.22381E-05 4.89083E-06 7.23755E-19-1.02418E-18
 -1      2998 9.08724E-05-1.55526E-05-3.23019E-05 3.97110E-06 4.45813E-19-1.10513E-18
 -1      2999 9.18444E-05-1.71460E-05-3.19980E-05 3.17051E-06 3.09203E-19-1.00402E-18
 -1      3000 9.25094E-05-1.82178E-05-3.18192E-05 4.58094E-06 6.47056E-19-8.93702E-19
 -1      3001 1.26725E-04-1.11422E-05-5.03047E-05-3.28780E-06 1.48358E-18-6.62406E-19
 -1      3002 1.27839E-04-1.46179E-05-4.89449E-05-9.59904E-06 1.49671E-18-1.44229E-18
 -1      3003 1.38632E-04-4.83509E-05-3.87357E-05 4.16446E-06 1.54139E-18-4.69786E-19
 -1      3004 1.37513E-04-3.91416E-05-4.27287E-05 9.40660E-06 1.47987E-18-6.79638E-19
 -1      3005 4.41280E-05-1.98273E-05-9.91777E-06-2.52274E-05-2.51304E-19-2.81088E-18
 -1      3006 5.70279E-05-2.91928E-05-1.15065E-05-3.56367E-05-6.64603E-19-2.34459E-18
 -1      3007 1.28510E-04-5.85861E-05-2.96816E-05-1.67434E-05 1.28516E-18-1.01538E-18
 -1      3008 1.35802E-04-5.61920E-05-3.47527E-05-6.71901E-06 1.30639E-18-3.34472E-19
 -1      3009 9.08389E-05-1.55058E-05-3.23069E-05-3.90492E-06-5.98077E-19-1.40917E-18
 -1      3010 9.11683E-05-1.59934E-05-3.22445E-05-4.83487E-06-7.37609E-19-1.48064E-18
 -1      3011 1.03252E-04-5.31045E-05-2.10914E-05-3.41306E-05 8.36551E-19-1.15529E-18
 -1      3012 1.15940E-04-5.77431E-05-2.53008E-05-2.82470E-05 1.09966E-18-2.10084E-18
 -1      3013 6.75317E-05-3.56267E-05-1.35926E-05 3.83224E-05 3.84976E-19 3.73404E-18
 -1      3014 5.16731E-05-2.70430E-05-1.00031E-05 3.29459E-05 4.88420E-19 2.10784E-18
 -1      3015 7.15391E-05-3.81741E-05-1.38644E-05-3.86449E-05-6.73815E-19-1.52265E-18
 -1      3016 8.81301E-05-4.68781E-05-1.76475E-05-3.91949E-05 1.65807E-19-4.85350E-19
 -1      3017 4.18600E-05-2.02486E-05-8.79829E-06 2.62282E-05 7.33636E-19-3.55754E-20
 -1      3018 3.51290E-05-1.45651E-05-8.36627E-06 1.47158E-05 5.45277E-19-1.70402E-18
 -1      3019 5.37354E-05-2.28875E-05-1.26135E-05 2.72473E-05 9.68106E-19 1.33429E-18
 -1      3020 1.27904E-04-1.48142E-05-4.90367E-05 9.30792E-06 2.43945E-19-2.18079E-18
 -1      3021 1.26902E-04-1.05215E-05-5.05052E-05 2.57088E-06 8.96161E-19-1.29183E-18
 -1      3022 1.20947E-04-1.23597E-05-4.68707E-05-5.87942E-08 1.47003E-18-1.12360E-18
 -1      3023 9.52218E-05-2.75483E-05-2.90001E-05-1.91384E-06-1.77337E-18-1.55839E-18
 -1      3024 1.11921E-04-5.59368E-05-2.42344E-05 2.97501E-05-7.77470E-19-8.88061E-21
 -1      3025 9.69533E-05-4.94895E-05-1.99640E-05 3.48819E-05-1.45986E-18 7.34139E-19
 -1      3026 9.34201E-05-4.46866E-05-2.05300E-05 3.22182E-05-2.08021E-18 5.87788E-19
 -1      3027 1.29080E-04-1.30977E-05-5.01683E-05 7.56367E-06-2.60251E-19-4.45010E-19
 -1      3028 1.26056E-04-1.04916E-05-5.01887E-05 1.68327E-06 9.48677E-20 5.17352E-20
 -1      3029 1.02755E-04-5.24704E-05-2.15411E-05 3.40293E-05 2.59827E-19 2.75347E-18
 -1      3030 8.70626E-05-4.52393E-05-1.73699E-05 3.74843E-05 9.47618E-20 3.53859E-18
 -1      3031 1.29017E-04-5.87337E-05-2.99703E-05-1.56835E-05 1.69978E-18 1.06832E-19
 -1      3032 1.37004E-04-5.64866E-05-3.49082E-05-6.60933E-06 9.18475E-19-1.45690E-19
 -1      3033 1.26854E-04-1.24120E-05-4.97411E-05-6.21306E-06 3.59989E-19 2.95403E-20
 -1      3034 1.31199E-04-1.81131E-05-4.88581E-05-1.12262E-05 4.58668E-19 8.77103E-19
 -1      3035 9.15979E-05-1.66576E-05-3.21399E-05-5.54867E-06-7.98899E-19-1.41529E-18
 -1      3036 9.20677E-05-1.74121E-05-3.20419E-05-6.41816E-06-9.17195E-19-1.27002E-18
 -1      3037 9.24446E-05-1.81503E-05-3.18304E-05-4.52542E-06-7.01355E-19-1.39128E-18
 -1      3038 9.13211E-05-1.63274E-05-3.21286E-05 3.14000E-08-8.86084E-20-1.28885E-18
 -1      3039 9.02077E-05-1.45541E-05-3.24427E-05-3.79946E-07-9.21876E-20-1.27371E-18
 -1      3040 9.02631E-05-1.46333E-05-3.24321E-05-1.33358E-06-2.08557E-19-1.35322E-18
 -1      3041 1.33856E-04-3.54411E-05-4.23963E-05 1.26868E-05 9.94999E-19-3.49295E-19
 -1      3042 1.35598E-04-5.28494E-05-3.56075E-05 4.70119E-07 1.55290E-18 5.00596E-19
 -1      3043 4.01608E-05-1.44073E-05-1.04063E-05-1.17715E-05-4.96150E-19-2.41193E-19
 -1      3044 9.43514E-05-2.14050E-05-3.12670E-05 7.19371E-06 1.23387E-18-7.84892E-19
 -1      3045 1.24734E-04-1.99278E-05-4.52713E-05 1.13606E-05 6.06158E-19-3.08638E-18
 -1      3046 1.26017E-04-2.09806E-05-4.51581E-05-1.21768E-05 6.23416E-19-1.73456E-18
 -1      3047 9.40985E-05-2.63541E-05-2.90298E-05 2.00560E-06 1.38622E-18-8.98065E-19
 -1      3048 9.43435E-05-2.65886E-05-2.90451E-05 1.87529E-06 2.13987E-18-6.44465E-19
 -1      3049 9.45795E-05-2.68364E-05-2.90295E-05 1.96652E-06 1.50534E-18-6.40720E-19
 -1      3050 1.28849E-04-2.43288E-05-4.52046E-05-1.28459E-05 7.17860E-20 9.45395E-19
 -1      3051 1.25813E-04-1.82084E-05-4.65622E-05 1.02144E-05 1.52572E-19-2.30975E-19
 -1      3052 9.50469E-05-2.78130E-05-2.88234E-05-6.63722E-07 3.00740E-19-4.44183E-19
 -1      3053 9.48050E-05-2.70909E-05-2.90269E-05 2.00279E-06 1.14437E-18-6.27692E-19
 -1      3054 9.50539E-05-2.73607E-05-2.90078E-05 1.97169E-06 9.48102E-19-8.87706E-19
 -1      3055 9.51550E-05-2.74004E-05-2.90310E-05 2.20526E-06 7.53006E-19 3.04451E-19
 -1      3056 9.46332E-05-2.68777E-05-2.90341E-05 2.23226E-06 1.03954E-18-7.85568E-19
 -1      3057 1.34971E-04-5.76605E-05-3.31993E-05 1.07380E-05 7.52959E-19 7.37554E-19
 -1      3058 1.29689E-04-5.84691E-05-3.04559E-05 1.35836E-05 3.73383E-19 4.73756E-19
 -1      3059 1.35399E-04-5.49407E-05-3.49114E-05 3.01438E-06-1.16030E-19 1.54266E-18
 -1      3060 9.49782E-05-2.72735E-05-2.90205E-05-1.95275E-06-1.19333E-18-1.45374E-18
 -1      3061 4.64961E-05-1.36173E-05-1.37572E-05-1.01698E-05 7.49783E-19-2.06009E-18
 -1      3062 4.38239E-05-1.58081E-05-1.13955E-05-1.73827E-05 1.32931E-19-1.88486E-18
 -1      3063 5.39554E-05-1.97616E-05-1.43610E-05-2.29153E-05-1.71630E-19-2.00630E-18
 -1      3064 9.47998E-05-2.70632E-05-2.90311E-05-2.20003E-06-1.09317E-18-1.83649E-18
 -1      3065 1.23411E-04-5.73879E-05-2.81952E-05-1.75766E-05 1.42942E-18 1.34996E-19
 -1      3066 6.98083E-05-3.33379E-05-1.51349E-05-3.44068E-05-6.81756E-19-1.35779E-18
 -1      3067 8.04849E-05-3.91752E-05-1.72188E-05 3.50098E-05 1.19961E-19 3.11676E-18
 -1      3068 1.18535E-04-5.67455E-05-2.65718E-05 2.22826E-05 4.23252E-19 6.86957E-19
 -1      3069 1.11611E-04-5.54024E-05-2.38482E-05 2.90245E-05 3.00908E-19 1.77395E-18
 -1      3070 1.04878E-04-5.11111E-05-2.28698E-05 2.96800E-05 2.40028E-19 1.96149E-18
 -1      3071 9.75434E-05-4.88304E-05-2.05530E-05-3.39090E-05 2.20229E-20-1.36910E-18
 -1      3072 1.19549E-04-5.61014E-05-2.70126E-05 2.05029E-05-4.43792E-19-9.33060E-19
 -1      3073 8.14178E-05-3.88432E-05-1.79144E-05-3.45025E-05 4.55545E-19-1.52148E-18
 -1      3074 9.19866E-05-4.66096E-05-1.91567E-05-3.60348E-05 8.81761E-19-4.36857E-19
 -1      3075 1.02692E-04-4.91563E-05-2.26618E-05-2.90173E-05 4.61448E-19 9.09449E-19
 -1      3076 9.28795E-05-1.86161E-05-3.18242E-05-7.03246E-06-9.12116E-19-1.10698E-18
 -1      3077 9.42394E-05-2.09489E-05-3.14478E-05-7.70564E-06-1.14078E-18-7.90873E-19
 -1      3078 9.47428E-05-2.27536E-05-3.08570E-05-6.01355E-06-9.37454E-19-7.03544E-19
 -1      3079 9.35298E-05-2.00001E-05-3.14944E-05-5.70651E-06-8.69853E-19-1.17043E-18
 -1      3080 1.22606E-04-5.73498E-05-2.78209E-05-1.94352E-05 7.85252E-19-7.34483E-19
 -1      3081 9.46214E-05-2.24419E-05-3.09256E-05 5.66086E-06 1.14222E-18-7.90255E-19
 -1      3082 9.45962E-05-2.23875E-05-3.09271E-05-5.43302E-06-8.49740E-19-9.10284E-19
 -1      3083 6.19911E-05-2.67123E-05-1.45756E-05 3.05448E-05-1.68533E-18 9.50689E-19
 -1      3084 5.87195E-05-2.19492E-05-1.54376E-05 2.49872E-05-2.10038E-18 2.56227E-19
 -1      3085 7.49704E-05-3.18049E-05-1.83224E-05 3.01342E-05-2.85204E-18 2.18905E-19
 -1      3086 1.39324E-04-4.34259E-05-4.14975E-05-8.18941E-06-1.83277E-19 2.08180E-18
 -1      3087 1.36945E-04-4.80024E-05-3.81549E-05-6.23330E-06-5.97052E-19 1.87364E-18
 -1      3088 1.33190E-04-3.87302E-05-4.08874E-05-1.27812E-05-7.20190E-19 2.07322E-18
 -1      3089 9.03893E-05-1.48295E-05-3.24031E-05-2.16086E-06-2.99060E-19-1.27661E-18
 -1      3090 9.05717E-05-1.50940E-05-3.23690E-05-3.11127E-06-4.73330E-19-1.26306E-18
 -1      3091 9.17984E-05-1.71033E-05-3.20045E-05-3.10273E-06-4.45690E-19-1.24294E-18
 -1      3092 9.14305E-05-1.65109E-05-3.20993E-05-1.55843E-06-2.48801E-19-1.20122E-18
 -1      3093 1.31712E-04-3.56585E-05-4.12865E-05 1.26916E-05 9.96746E-19-2.22918E-18
 -1      3094 1.35032E-04-5.20199E-05-3.56512E-05 1.41366E-06 1.35824E-18-6.13675E-19
 -1      3095 4.19936E-05-1.35356E-05-1.16445E-05 8.66946E-06 8.14369E-19-2.28508E-18
 -1      3096 9.42985E-05-2.18383E-05-3.10827E-05 4.91250E-06 9.89371E-19-7.78362E-19
 -1      3097 9.38273E-05-2.08604E-05-3.12735E-05 4.57142E-06 8.60542E-19-7.50575E-19
 -1      3098 1.20438E-04-2.70081E-05-4.02524E-05 1.46194E-05-2.30181E-19-1.86117E-18
 -1      3099 1.16914E-04-2.03560E-05-4.18027E-05 1.08223E-05 3.04985E-19-1.67135E-18
 -1      3100 9.56863E-05-2.67684E-05-2.95225E-05-5.94535E-07-6.37621E-19-8.90396E-19
 -1      3101 9.56660E-05-2.71940E-05-2.93523E-05-3.18667E-08-6.44066E-19-9.03614E-19
 -1      3102 9.57005E-05-2.75496E-05-2.91972E-05 3.92347E-07-6.74942E-19-8.39520E-19
 -1      3103 9.56685E-05-2.78069E-05-2.90869E-05 7.60381E-07-6.84531E-19-9.89034E-19
 -1      3104 9.58813E-05-2.71479E-05-2.94604E-05 5.31431E-08-6.37137E-19-1.07939E-18
 -1      3105 9.56469E-05-2.80059E-05-2.89822E-05 1.04290E-06-6.78632E-19-9.90110E-19
 -1      3106 9.56212E-05-2.81494E-05-2.89170E-05 1.28329E-06-6.29576E-19-1.05474E-18
 -1      3107 9.58990E-05-2.77929E-05-2.91920E-05 7.94731E-07-6.82517E-19-1.03750E-18
 -1      3108 9.55693E-05-2.82402E-05-2.88516E-05 1.47456E-06-4.33713E-19-9.74443E-19
 -1      3109 9.55545E-05-2.83035E-05-2.88204E-05 1.64069E-06-2.80528E-19-9.42253E-19
 -1      3110 9.58313E-05-2.81411E-05-2.90135E-05 1.29738E-06-4.86755E-19-1.25511E-18
 -1      3111 9.54851E-05-2.83164E-05-2.87854E-05 1.78302E-06-2.67987E-19-8.33152E-19
 -1      3112 9.54810E-05-2.83212E-05-2.87799E-05 1.91630E-06-4.16832E-19-7.79466E-19
 -1      3113 9.57153E-05-2.82768E-05-2.89050E-05 1.65384E-06-2.16637E-19-1.13603E-18
 -1      3114 9.53994E-05-2.82759E-05-2.87681E-05 2.04371E-06-4.30701E-19-6.55601E-19
 -1      3115 9.54047E-05-2.82364E-05-2.87823E-05 2.17599E-06-1.80816E-19-6.19009E-19
 -1      3116 9.55687E-05-2.82556E-05-2.88506E-05 1.94119E-06-2.44670E-19-9.47776E-19
 -1      3117 9.53121E-05-2.81460E-05-2.87880E-05 2.31544E-06-2.87915E-19-5.88229E-19
 -1      3118 9.53254E-05-2.80726E-05-2.88176E-05 2.47124E-06-1.60388E-19-5.35722E-19
 -1      3119 9.53983E-05-2.81147E-05-2.88371E-05 2.22119E-06-2.25759E-19-6.33100E-19
 -1      3120 9.52210E-05-2.79464E-05-2.88359E-05 2.64394E-06-6.27543E-21-4.70389E-19
 -1      3121 9.52416E-05-2.78477E-05-2.88773E-05 2.84198E-06-6.92112E-21-5.59327E-19
 -1      3122 9.52045E-05-2.78803E-05-2.88538E-05 2.54266E-06-1.03349E-19-4.83513E-19
 -1      3123 9.51239E-05-2.76937E-05-2.89038E-05 3.06449E-06-2.96837E-19-6.04087E-19
 -1      3124 9.51527E-05-2.75787E-05-2.89537E-05 3.31847E-06-3.27956E-19-7.10929E-19
 -1      3125 9.49851E-05-2.75726E-05-2.88908E-05 2.94376E-06-1.86030E-19-6.65965E-19
 -1      3126 9.50205E-05-2.74060E-05-2.89839E-05 3.60333E-06-2.04503E-19-9.49885E-19
 -1      3127 9.50609E-05-2.72865E-05-2.90388E-05 3.92202E-06-7.32281E-20-1.04942E-18
 -1      3128 9.47373E-05-2.72116E-05-2.89386E-05 3.45377E-06-4.23634E-19-1.34195E-18
 -1      3129 9.49158E-05-2.71086E-05-2.90673E-05 4.27803E-06-1.55728E-19-1.02419E-18
 -1      3130 9.49755E-05-2.70027E-05-2.91231E-05 4.66462E-06-5.76549E-19-7.95878E-19
 -1      3131 9.44618E-05-2.68225E-05-2.89866E-05 4.09423E-06-2.97108E-19-9.85323E-19
 -1      3132 9.48251E-05-2.68412E-05-2.91435E-05 5.09676E-06-8.40576E-19-4.08328E-19
 -1      3133 9.49197E-05-2.67779E-05-2.91946E-05 5.54740E-06-6.95680E-19 3.27179E-20
 -1      3134 9.41669E-05-2.64435E-05-2.90223E-05 4.87948E-06-2.62974E-19-6.06940E-19
 -1      3135 9.47832E-05-2.66688E-05-2.91991E-05 6.05644E-06-4.42664E-19 6.08670E-19
 -1      3136 9.49419E-05-2.66942E-05-2.92386E-05 6.55786E-06-1.77011E-19 4.76721E-19
 -1      3137 9.38780E-05-2.61359E-05-2.90307E-05 5.81697E-06-2.15935E-19 4.74703E-19
 -1      3138 9.48584E-05-2.66953E-05-2.92182E-05 7.13945E-06-1.10380E-19 5.76356E-19
 -1      3139 9.51334E-05-2.68810E-05-2.92387E-05 7.66539E-06 9.34262E-20 3.04806E-19
 -1      3140 9.36500E-05-2.59982E-05-2.89938E-05 6.90727E-06-9.55416E-20 1.11273E-18
 -1      3141 9.51754E-05-2.70813E-05-2.91846E-05 8.30783E-06 2.06377E-19 2.22775E-19
 -1      3142 9.56540E-05-2.75329E-05-2.91797E-05 8.81312E-06 1.97614E-19 4.00333E-19
 -1      3143 9.35892E-05-2.61839E-05-2.88927E-05 8.14341E-06 7.80445E-22 7.86696E-19
 -1      3144 9.59464E-05-2.80615E-05-2.90868E-05 9.49099E-06 2.61561E-19 7.98787E-19
 -1      3145 9.67642E-05-2.89229E-05-2.90566E-05 9.90029E-06 4.89429E-19 9.81088E-19
 -1      3146 9.38839E-05-2.69224E-05-2.87120E-05 9.50622E-06 3.35710E-19 1.01199E-18
 -1      3147 9.75093E-05-2.99524E-05-2.89307E-05 1.05546E-05 1.90050E-19 1.02499E-18
 -1      3148 9.88519E-05-3.13925E-05-2.88909E-05 1.07405E-05 4.37780E-19 5.78935E-19
 -1      3149 9.48491E-05-2.85397E-05-2.84500E-05 1.09457E-05 3.57684E-19 9.60532E-19
 -1      3150 1.00351E-04-3.31149E-05-2.87655E-05 1.12186E-05 9.22237E-19 2.28825E-19
 -1      3151 1.02412E-04-3.52483E-05-2.87677E-05 1.09639E-05 6.74655E-19-8.77250E-20
 -1      3152 9.69833E-05-3.14564E-05-2.81417E-05 1.23116E-05 5.08891E-19 1.15528E-18
 -1      3153 1.05000E-04-3.77501E-05-2.87343E-05 1.09602E-05 1.89987E-19-4.04990E-19
 -1      3154 1.07906E-04-4.05008E-05-2.88856E-05 9.93881E-06-2.58138E-19 3.14042E-19
 -1      3155 1.00928E-04-3.60096E-05-2.79113E-05 1.32010E-05 4.75578E-19 4.47607E-19
 -1      3156 1.11889E-04-4.36309E-05-2.91285E-05 8.86737E-06-3.81909E-19 2.04836E-19
 -1      3157 1.15315E-04-4.62929E-05-2.96338E-05 6.62671E-06-2.61356E-20 4.39418E-19
 -1      3158 1.07332E-04-4.22715E-05-2.80324E-05 1.27737E-05-1.68472E-19 5.36754E-19
 -1      3159 1.20664E-04-4.91418E-05-3.05515E-05 3.26376E-06-2.08138E-19 3.19662E-19
 -1      3160 1.23170E-04-4.95433E-05-3.15448E-05-3.76135E-07-6.81852E-19 1.79280E-19
 -1      3161 1.16918E-04-4.94272E-05-2.91162E-05 9.67296E-06-2.84054E-19 5.41836E-20
 -1      3162 1.28419E-04-4.65175E-05-3.52356E-05-8.44464E-06-5.56884E-19 7.29467E-19
 -1      3163 1.28470E-04-4.11639E-05-3.75985E-05-1.27802E-05-3.61789E-19 1.80206E-19
 -1      3164 1.26954E-04-3.38214E-05-4.01625E-05-1.36806E-05-2.21446E-19-1.96353E-19
 -1      3165 1.21167E-04-2.06433E-05-4.37015E-05-1.20020E-05 5.28019E-19-9.59238E-19
 -1      3166 1.18937E-04-1.48520E-05-4.49036E-05-6.73902E-06 4.46069E-19-3.05686E-19
 -1      3167 1.18122E-04-1.30837E-05-4.53568E-05 9.97856E-07 3.48766E-19-1.70019E-19
 -1      3168 1.19271E-04-1.58791E-05-4.49119E-05 7.74012E-06-9.35971E-20-2.85807E-19
 -1      3169 1.25815E-04-4.86067E-05-3.32052E-05 4.66080E-06 1.12818E-18 1.48079E-18
 -1      3170 1.24181E-04-4.98370E-05-3.17706E-05 7.25486E-07 5.15595E-19 1.65547E-18
 -1      3171 1.19031E-04-4.81648E-05-3.04189E-05-3.73015E-06 3.46165E-19 2.64326E-18
 -1      3172 1.15692E-04-4.61139E-05-2.96760E-05-6.54351E-06 2.90261E-19 2.22042E-18
 -1      3173 1.21785E-04-5.11476E-05-3.04585E-05-5.33763E-06 5.80323E-19 9.87323E-19
 -1      3174 1.11195E-04-4.31552E-05-2.91900E-05-8.52109E-06 9.01031E-20 2.13141E-18
 -1      3175 1.08040E-04-4.03227E-05-2.89138E-05-1.00561E-05 5.51504E-19 2.28573E-18
 -1      3176 1.11605E-04-4.54279E-05-2.85441E-05-1.09280E-05 9.28328E-20 3.04588E-18
 -1      3177 1.04818E-04-3.75235E-05-2.88442E-05-1.05637E-05 4.56124E-19 1.50380E-18
 -1      3178 1.02414E-04-3.50797E-05-2.87939E-05-1.11179E-05-2.63905E-19 1.77849E-18
 -1      3179 1.04043E-04-3.88257E-05-2.80641E-05-1.27973E-05 2.08603E-19 2.00653E-18
 -1      3180 1.00437E-04-3.30161E-05-2.88843E-05-1.08701E-05-1.36203E-18 1.81795E-18
 -1      3181 9.88076E-05-3.12640E-05-2.89146E-05-1.08415E-05-1.64676E-18 1.27494E-18
 -1      3182 9.89867E-05-3.34674E-05-2.81552E-05-1.25501E-05-8.40019E-19 1.12187E-18
 -1      3183 9.77374E-05-2.99472E-05-2.90386E-05-1.02829E-05-1.79926E-18 6.72485E-19
 -1      3184 9.67166E-05-2.88365E-05-2.90776E-05-9.94388E-06-1.21540E-18 2.49116E-19
 -1      3185 9.60632E-05-2.98367E-05-2.84259E-05-1.14477E-05-1.72539E-18 1.21455E-18
 -1      3186 9.62196E-05-2.80968E-05-2.91821E-05-9.28854E-06-1.10595E-19 8.72445E-19
 -1      3187 9.56107E-05-2.74665E-05-2.92014E-05-8.79994E-06 1.45215E-20 8.85536E-19
 -1      3188 9.45753E-05-2.76640E-05-2.86983E-05-1.00819E-05-2.28275E-19 1.29258E-18
 -1      3189 9.54460E-05-2.71211E-05-2.92705E-05-8.14079E-06-2.44270E-19 1.43664E-18
 -1      3190 9.50919E-05-2.68130E-05-2.92648E-05-7.59640E-06-9.12313E-19 1.04634E-18
 -1      3191 9.39566E-05-2.65313E-05-2.89064E-05-8.69642E-06-3.52551E-19 2.20193E-18
 -1      3192 9.51024E-05-2.67130E-05-2.92999E-05-6.97432E-06-1.31900E-18 1.65082E-18
 -1      3193 9.48964E-05-2.66029E-05-2.92737E-05-6.42907E-06-1.23451E-18 1.16414E-18
 -1      3194 9.38215E-05-2.60744E-05-2.90379E-05-7.38584E-06-1.02567E-18 2.09155E-18
 -1      3195 9.49869E-05-2.66409E-05-2.92824E-05-5.86201E-06-9.60171E-19 4.50509E-19
 -1      3196 9.48627E-05-2.66417E-05-2.92436E-05-5.34701E-06 1.01090E-19 1.20442E-18
 -1      3197 9.39276E-05-2.60209E-05-2.91032E-05-6.18637E-06-7.25453E-19 2.08420E-18
 -1      3198 9.49786E-05-2.67442E-05-2.92353E-05-4.84325E-06 1.95848E-20 1.86436E-18
 -1      3199 9.48956E-05-2.67980E-05-2.91913E-05-4.37281E-06 6.38375E-19 1.07344E-18
 -1      3200 9.41331E-05-2.61844E-05-2.91207E-05-5.11331E-06 5.09424E-19 2.27082E-18
 -1      3201 9.50095E-05-2.69186E-05-2.91741E-05-3.93401E-06 1.23384E-19-7.36155E-19
 -1      3202 9.49453E-05-2.69862E-05-2.91309E-05-3.51322E-06-1.12123E-19-6.31076E-19
 -1      3203 9.43551E-05-2.64372E-05-2.91091E-05-4.16945E-06-2.72562E-19 6.61559E-19
 -1      3204 9.50440E-05-2.71012E-05-2.91109E-05-3.12880E-06-1.89045E-19-2.07250E-18
 -1      3205 9.49855E-05-2.71521E-05-2.90710E-05-2.76783E-06-1.35609E-18-2.30595E-18
 -1      3206 9.45475E-05-2.66954E-05-2.90829E-05-3.34238E-06-7.85855E-19-2.27636E-18
 -1      3207 9.53173E-05-2.83443E-05-2.86994E-05-1.88202E-06 1.62797E-19-1.54304E-19
 -1      3208 9.52854E-05-2.83223E-05-2.86967E-05-1.75957E-06 5.78114E-20 1.21891E-20
 -1      3209 9.53794E-05-2.80549E-05-2.88471E-05-2.72548E-06 1.13213E-19 2.34400E-19
 -1      3210 9.52965E-05-2.81139E-05-2.87959E-05-2.54791E-06 3.14680E-19-3.13531E-20
 -1      3211 9.54324E-05-2.78756E-05-2.89458E-05-3.16241E-06-2.37450E-19 6.20301E-19
 -1      3212 9.53308E-05-2.79445E-05-2.88841E-05-2.93243E-06 4.62755E-20 4.23007E-19
 -1      3213 9.52003E-05-2.78278E-05-2.88748E-05-2.88799E-06-1.92681E-19-9.48607E-20
 -1      3214 9.55083E-05-2.76854E-05-2.90590E-05-3.71905E-06-1.16269E-19 1.23999E-19
 -1      3215 9.53829E-05-2.77533E-05-2.89892E-05-3.42873E-06 1.10914E-19 5.86082E-19
 -1      3216 9.51032E-05-2.75628E-05-2.89463E-05-3.37005E-06 3.68806E-20 2.68073E-19
 -1      3217 9.56194E-05-2.75131E-05-2.91797E-05-4.40464E-06 6.54437E-20-3.73162E-19
 -1      3218 9.54615E-05-2.75635E-05-2.91048E-05-4.05229E-06-2.82119E-19-2.09344E-19
 -1      3219 9.50072E-05-2.72829E-05-2.90248E-05-3.97718E-06 1.15276E-19 4.01925E-20
 -1      3220 9.57908E-05-2.74043E-05-2.92992E-05-5.21456E-06-4.84985E-19 4.74040E-19
 -1      3221 9.55853E-05-2.74116E-05-2.92230E-05-4.80702E-06-1.20799E-19-1.39656E-20
 -1      3222 9.49257E-05-2.70244E-05-2.91007E-05-4.72000E-06-2.38122E-19-2.38804E-19
 -1      3223 9.60680E-05-2.74309E-05-2.94060E-05-6.12533E-06-5.95550E-19 3.45767E-19
 -1      3224 9.57897E-05-2.73554E-05-2.93338E-05-5.68125E-06-3.56985E-19 4.72615E-19
 -1      3225 9.48876E-05-2.68446E-05-2.91622E-05-5.59755E-06-4.95385E-19 6.35556E-19
 -1      3226 9.65311E-05-2.77039E-05-2.94871E-05-7.08724E-06-6.01553E-19-3.65688E-20
 -1      3227 9.61383E-05-2.74857E-05-2.94251E-05-6.64195E-06-6.02220E-19-4.85845E-21
 -1      3228 9.49494E-05-2.68340E-05-2.91953E-05-6.59419E-06-6.30966E-19-8.48588E-20
 -1      3229 9.73129E-05-2.83856E-05-2.95300E-05-8.01262E-06-3.09509E-19 1.24805E-19
 -1      3230 9.67400E-05-2.79392E-05-2.94838E-05-7.62519E-06-5.38359E-19 4.23226E-19
 -1      3231 9.52127E-05-2.71306E-05-2.91855E-05-7.67455E-06-7.15881E-19 1.42948E-19
 -1      3232 9.86183E-05-2.96942E-05-2.95296E-05-8.75669E-06-6.13232E-20 2.05827E-19
 -1      3233 9.77700E-05-2.89096E-05-2.95009E-05-8.51992E-06-1.49655E-19 6.13479E-19
 -1      3234 9.58487E-05-2.79355E-05-2.91216E-05-8.77246E-06-2.70034E-19 6.62958E-19
 -1      3235 1.00731E-04-3.18795E-05-2.95024E-05-9.08634E-06-8.17969E-19 1.94310E-19
 -1      3236 9.94890E-05-3.06416E-05-2.94809E-05-9.14006E-06-3.20418E-19 2.58999E-19
 -1      3237 9.71262E-05-2.95171E-05-2.90056E-05-9.76733E-06-4.02959E-19 1.30335E-18
 -1      3238 1.03976E-04-3.51297E-05-2.95105E-05-8.63228E-06-4.99827E-19 4.75791E-19
 -1      3239 1.02236E-04-3.33814E-05-2.94623E-05-9.17720E-06-7.73899E-19 2.71017E-19
 -1      3240 9.94282E-05-3.21828E-05-2.88715E-05-1.04350E-05-8.22705E-19 8.72416E-19
 -1      3241 1.08566E-04-3.93222E-05-2.97008E-05-6.83048E-06-9.28715E-19 9.52896E-19
 -1      3242 1.06347E-04-3.72207E-05-2.95502E-05-8.12417E-06-5.84071E-19 5.85050E-19
 -1      3243 1.03227E-04-3.61685E-05-2.88194E-05-1.03512E-05-7.93209E-19 9.94663E-19
 -1      3244 1.14226E-04-4.35785E-05-3.03396E-05-3.03878E-06-3.34639E-19 7.71179E-19
 -1      3245 1.11850E-04-4.17174E-05-2.99615E-05-5.27935E-06-5.46326E-19 7.91759E-19
 -1      3246 1.08842E-04-4.12574E-05-2.90743E-05-8.72214E-06-7.02706E-19 5.80092E-19
 -1      3247 1.19656E-04-4.56098E-05-3.18210E-05 3.11497E-06-2.44584E-19 1.39832E-19
 -1      3248 1.17998E-04-4.53307E-05-3.10509E-05 1.02289E-07 6.65417E-20 5.55118E-19
 -1      3249 1.16086E-04-4.63599E-05-3.00410E-05-4.54533E-06 1.40958E-19 3.56889E-19
 -1      3250 1.22394E-04-4.20701E-05-3.43986E-05 1.06871E-05 8.23342E-20-9.07113E-19
 -1      3251 1.22832E-04-4.53798E-05-3.32652E-05 7.64705E-06 4.40788E-20-3.87842E-19
 -1      3252 1.23177E-04-4.82584E-05-3.23240E-05 2.69903E-06 3.85016E-19-3.77810E-19
 -1      3253 1.23053E-04-3.38988E-05-3.85173E-05 1.43112E-05-1.41613E-21-1.71524E-18
 -1      3254 1.15038E-04-1.61750E-05-4.28577E-05 6.54792E-06 1.57564E-18-1.44348E-18
 -1      3255 1.14942E-04-1.64512E-05-4.28685E-05-6.50840E-06 1.03730E-18-9.63222E-19
 -1      3256 1.14304E-04-1.50984E-05-4.29608E-05-1.10677E-07 1.72371E-18-9.62044E-19
 -1      3257 1.21958E-04-2.96233E-05-3.99021E-05-1.45060E-05 2.01170E-19-1.39385E-18
 -1      3258 1.19513E-04-2.32529E-05-4.15677E-05-1.14956E-05 4.26905E-19-1.39190E-18
 -1      3259 1.24186E-04-3.62041E-05-3.79444E-05-1.38786E-05-1.20543E-19-1.21655E-18
 -1      3260 1.22288E-04-4.56560E-05-3.28907E-05-6.57230E-06-2.67695E-19-1.94800E-18
 -1      3261 1.22167E-04-4.30378E-05-3.39095E-05-9.53776E-06-6.11531E-19-1.53916E-18
 -1      3262 1.17117E-04-4.49197E-05-3.08635E-05 8.23774E-07-1.40435E-19-1.48638E-18
 -1      3263 1.18980E-04-4.55767E-05-3.15736E-05-2.17959E-06-3.64016E-19-1.40434E-18
 -1      3264 1.22202E-04-4.82065E-05-3.18936E-05-1.56060E-06-2.85702E-19-2.60271E-18
 -1      3265 1.11074E-04-4.11348E-05-2.98759E-05 5.78510E-06 7.36896E-19-3.41053E-19
 -1      3266 1.13437E-04-4.30279E-05-3.02177E-05 3.61382E-06 2.49239E-19-6.63683E-19
 -1      3267 1.15057E-04-4.53392E-05-2.98784E-05 4.91720E-06-3.34982E-19-1.48868E-18
 -1      3268 1.05701E-04-3.66120E-05-2.95393E-05 8.35407E-06 3.22002E-19 5.99178E-19
 -1      3269 1.07856E-04-3.86960E-05-2.96650E-05 7.18923E-06 8.01965E-19 4.00805E-19
 -1      3270 1.08037E-04-4.05798E-05-2.90303E-05 9.05000E-06 5.13481E-20 1.12191E-18
 -1      3271 1.01813E-04-3.29302E-05-2.94780E-05 9.21366E-06 5.76509E-19 8.39047E-19
 -1      3272 1.03477E-04-3.46106E-05-2.95182E-05 8.75618E-06 2.48549E-19 8.48706E-19
 -1      3273 1.02665E-04-3.55270E-05-2.88474E-05 1.03750E-05 3.87186E-19 6.67005E-20
 -1      3274 9.92313E-05-3.03383E-05-2.95030E-05 9.06977E-06 6.67638E-20 1.33611E-18
 -1      3275 1.00409E-04-3.15118E-05-2.95224E-05 9.07351E-06 5.96554E-19 1.63797E-18
 -1      3276 9.91142E-05-3.17492E-05-2.89190E-05 1.03457E-05 4.60196E-19 6.14737E-19
 -1      3277 9.76256E-05-2.87166E-05-2.95230E-05 8.38379E-06-2.27226E-18 1.47670E-18
 -1      3278 9.84272E-05-2.94541E-05-2.95512E-05 8.65916E-06-1.56504E-18 1.16069E-18
 -1      3279 9.69731E-05-2.92426E-05-2.90552E-05 9.61684E-06-4.26284E-19 1.02397E-18
 -1      3280 9.66658E-05-2.78128E-05-2.95066E-05 7.44263E-06-8.94106E-19 1.48950E-18
 -1      3281 9.72070E-05-2.82318E-05-2.95511E-05 7.85884E-06-1.09286E-18 2.09368E-18
 -1      3282 9.57947E-05-2.77693E-05-2.91682E-05 8.58624E-06-2.15685E-18 1.87581E-18
 -1      3283 9.61037E-05-2.73857E-05-2.94528E-05 6.41634E-06-2.07939E-18 1.56918E-18
 -1      3284 9.64754E-05-2.75945E-05-2.95108E-05 6.88826E-06-1.22003E-18 1.91750E-18
 -1      3285 9.52107E-05-2.70213E-05-2.92307E-05 7.45853E-06-1.07346E-18 2.44301E-18
 -1      3286 9.57737E-05-2.72475E-05-2.93725E-05 5.40378E-06-3.58696E-19 1.07531E-18
 -1      3287 9.60379E-05-2.73290E-05-2.94375E-05 5.87881E-06-1.99652E-18 1.15311E-18
 -1      3288 9.49668E-05-2.67365E-05-2.92441E-05 6.34205E-06-1.86933E-18 1.77414E-18
 -1      3289 9.55720E-05-2.72648E-05-2.92791E-05 4.45882E-06 8.48428E-19 1.18746E-18
 -1      3290 9.57686E-05-2.72778E-05-2.93447E-05 4.90738E-06 1.36124E-18 1.09089E-18
 -1      3291 9.49010E-05-2.67209E-05-2.92207E-05 5.29451E-06 1.52514E-19 5.29418E-19
 -1      3292 9.54359E-05-2.73480E-05-2.91851E-05 3.60630E-06 4.84407E-19 6.83056E-19
 -1      3293 9.55904E-05-2.73323E-05-2.92460E-05 4.01394E-06 8.30581E-19 1.09530E-18
 -1      3294 9.49158E-05-2.68403E-05-2.91753E-05 4.34406E-06 1.03608E-18 1.93278E-18
 -1      3295 9.53342E-05-2.74381E-05-2.90992E-05 2.85168E-06 2.47675E-18-3.81001E-20
 -1      3296 9.54570E-05-2.74210E-05-2.91519E-05 3.21214E-06 8.63429E-19-9.46682E-22
 -1      3297 9.49516E-05-2.70003E-05-2.91212E-05 3.50086E-06 1.46226E-18-1.53864E-18
 -1      3298 9.51760E-05-2.73987E-05-2.90456E-05 2.39848E-06 9.51020E-19 3.30960E-19
 -1      3299 9.53101E-05-2.74445E-05-2.90797E-05 2.63993E-06 2.19037E-18 5.70639E-20
 -1      3300 9.49408E-05-2.70997E-05-2.90760E-05 2.88679E-06 1.44866E-18-1.29352E-18
 -1      3301 9.48970E-05-2.71350E-05-2.90474E-05 2.45982E-06 8.10067E-19 2.35486E-19
 -1      3302 1.22768E-04-1.25557E-05-4.77873E-05-2.78404E-06 3.46966E-19-8.63577E-21
 -1      3303 9.23926E-05-1.82574E-05-3.17874E-05 1.78698E-06 8.75844E-20-1.16395E-18
 -1      3304 9.22722E-05-1.80516E-05-3.18207E-05 1.04238E-06-3.98843E-20-1.29406E-18
 -1      3305 1.01158E-04-4.71354E-05-2.32920E-05 2.77983E-05-2.16793E-18-1.99582E-20
 -1      3306 8.96334E-05-3.97284E-05-2.12099E-05 2.91410E-05-2.57090E-18-9.10296E-20
 -1      3307 9.28535E-05-2.52674E-05-2.89689E-05-2.04161E-07 3.02525E-19 1.13455E-18
 -1      3308 9.28559E-05-2.52695E-05-2.89686E-05 2.21203E-07 2.64376E-19 4.53631E-19
 -1      3309 9.40557E-05-2.63285E-05-2.90197E-05-2.34911E-06 8.14698E-19-1.52523E-18
 -1      3310 9.37355E-05-2.60596E-05-2.90130E-05-2.14836E-06 7.79022E-19-9.56505E-19
 -1      3311 9.30322E-05-2.54207E-05-2.89764E-05-1.07484E-06 4.84617E-19 4.04571E-18
 -1      3312 9.29152E-05-2.53241E-05-2.89733E-05-6.81407E-07 3.21478E-19 2.28892E-18
 -1      3313 9.25545E-05-2.50562E-05-2.89208E-05-4.83168E-07 4.80722E-19 1.81694E-18
 -1      3314 9.54324E-05-2.72484E-05-2.92278E-05 1.09695E-07 3.56217E-19-4.54460E-19
 -1      3315 9.54866E-05-2.68568E-05-2.93977E-05 7.03209E-07 5.71500E-19-5.77725E-19
 -1      3316 6.31701E-05-2.63423E-05-1.56093E-05 2.97120E-05 6.38292E-19 2.80156E-18
 -1      3317 5.42415E-05-1.96434E-05-1.45528E-05 2.26242E-05 9.30360E-19 8.19187E-19
 -1      3318 1.30448E-04-5.56082E-05-3.20017E-05-4.29472E-06 1.16549E-18 5.99964E-19
 -1      3319 1.31307E-04-5.00978E-05-3.50192E-05 3.81156E-06 1.71297E-18 6.55815E-19
 -1      3320 9.34440E-05-2.57832E-05-2.89940E-05-1.81961E-06-9.62817E-20-1.04145E-18
 -1      3321 9.32211E-05-2.55983E-05-2.89887E-05-1.49935E-06 7.16877E-19 2.07583E-18
 -1      3322 9.28379E-05-2.52939E-05-2.89408E-05-1.42245E-06 5.06103E-19 2.68083E-18
 -1      3323 9.33452E-05-2.57370E-05-2.89758E-05-2.18939E-06 6.02446E-19-4.67618E-19
 -1      3324 9.53434E-05-2.82037E-05-2.87688E-05-2.38825E-06 4.84588E-19-1.77495E-20
 -1      3325 9.52770E-05-2.82441E-05-2.87304E-05-2.24978E-06 5.61050E-19 9.22904E-20
 -1      3326 9.52942E-05-2.80537E-05-2.88188E-05-2.51090E-06 3.18969E-19-1.96330E-19
 -1      3327 9.53225E-05-2.83057E-05-2.87171E-05-2.12065E-06 4.15901E-19-2.40101E-19
 -1      3328 9.52725E-05-2.83196E-05-2.86945E-05-2.00260E-06 3.34699E-19-1.26116E-19
 -1      3329 9.54707E-05-2.83106E-05-2.87858E-05-1.94356E-06 2.90649E-19-2.36255E-19
 -1      3330 9.53841E-05-2.82212E-05-2.87862E-05-2.20933E-06 3.95116E-19-2.26360E-19
 -1      3331 4.83857E-05-1.45495E-05-1.43093E-05 1.29831E-05-1.53148E-18-2.17687E-18
 -1      3332 4.37082E-05-1.19672E-05-1.31139E-05 3.17025E-06-1.01102E-18-1.40766E-18
 -1      3333 9.53290E-05-2.82985E-05-2.87255E-05-1.61927E-06 2.38832E-20-9.56634E-20
 -1      3334 9.53188E-05-2.82280E-05-2.87487E-05-1.45972E-06 1.49995E-19-1.39199E-19
 -1      3335 9.55542E-05-2.82977E-05-2.88278E-05-1.66207E-06-2.63263E-20-1.26011E-19
 -1      3336 9.55041E-05-2.54917E-05-2.99907E-05-2.04770E-06-6.47754E-19-1.01760E-18
 -1      3337 9.55474E-05-2.61770E-05-2.97417E-05-1.21174E-06-6.14502E-19-1.01978E-18
 -1      3338 9.57091E-05-2.60810E-05-2.98423E-05-1.02942E-06-6.03258E-19-1.09174E-18
 -1      3339 9.53582E-05-2.81379E-05-2.88087E-05-1.26345E-06 5.29252E-20-2.29646E-19
 -1      3340 9.53738E-05-2.79996E-05-2.88666E-05-1.02349E-06-5.78820E-21-4.25909E-19
 -1      3341 9.56307E-05-2.81478E-05-2.89257E-05-1.29874E-06-3.04112E-20-4.32569E-19
 -1      3342 6.67343E-05-2.86560E-05-1.59976E-05-3.08936E-05-7.94782E-19-1.37018E-18
 -1      3343 7.95969E-05-3.73472E-05-1.79621E-05-3.42275E-05-8.34116E-19-1.15260E-18
 -1      3344 5.56235E-05-2.18953E-05-1.41487E-05-2.59402E-05 6.47821E-19-4.11234E-19
 -1      3345 6.71036E-05-3.01657E-05-1.55546E-05-3.28330E-05 6.36598E-19-2.79796E-18
 -1      3346 1.21690E-04-5.49301E-05-2.85335E-05-1.41236E-05 1.00281E-18 6.03193E-19
 -1      3347 1.29966E-04-5.19513E-05-3.31879E-05 8.97963E-07 9.88223E-19-5.33525E-19
 -1      3348 1.30373E-04-4.71953E-05-3.62358E-05 8.47227E-06 7.90745E-19-1.04566E-18
 -1      3349 9.49414E-05-2.34382E-05-3.06413E-05-4.06271E-06-7.31052E-19-1.11980E-18
 -1      3350 9.51751E-05-2.45369E-05-3.02886E-05-2.90245E-06-6.44480E-19-1.06903E-18
 -1      3351 9.52497E-05-2.43889E-05-3.03647E-05-2.54044E-06-5.86474E-19-1.28474E-18
 -1      3352 9.17185E-05-4.29911E-05-2.08578E-05 3.16093E-05-2.11758E-19 2.71924E-18
 -1      3353 7.59471E-05-3.38210E-05-1.76570E-05 3.20348E-05 2.70309E-19 2.82845E-18
 -1      3354 7.61599E-05-3.06390E-05-1.91453E-05 2.77183E-05 2.57048E-19 2.44279E-18
 -1      3355 4.85789E-05-1.49246E-05-1.40049E-05 1.49759E-05 8.77420E-19-1.80111E-18
 -1      3356 4.60038E-05-1.25026E-05-1.41431E-05 4.13235E-06 9.80269E-19-3.09538E-18
 -1      3357 9.52078E-05-2.42366E-05-3.04191E-05 4.22380E-06 9.34608E-19-8.09663E-19
 -1      3358 9.46479E-05-2.26812E-05-3.08270E-05 4.73962E-06 1.00282E-18-6.86635E-19
 -1      3359 9.49758E-05-2.35471E-05-3.05932E-05 3.63608E-06 8.87567E-19-6.56843E-19
 -1      3360 9.52471E-05-2.51600E-05-3.00504E-05 2.92651E-06 8.98083E-19-7.19988E-19
 -1      3361 1.24365E-04-5.59714E-05-2.96314E-05 1.18882E-05-1.02519E-18-2.60660E-18
 -1      3362 1.12685E-04-5.19654E-05-2.57444E-05 2.14046E-05-1.31428E-18-1.38663E-18
 -1      3363 9.13732E-05-4.37778E-05-1.99937E-05-3.30833E-05-6.97532E-19-1.48101E-18
 -1      3364 1.03434E-04-5.05059E-05-2.29456E-05-2.98250E-05-6.93508E-20-2.02669E-18
 -1      3365 8.80394E-05-3.95335E-05-2.04278E-05-3.04630E-05-4.19811E-19-1.64033E-18
 -1      3366 9.53998E-05-2.78145E-05-2.89678E-05-7.25193E-07 8.71325E-20-5.05305E-19
 -1      3367 9.54431E-05-2.75777E-05-2.90728E-05-3.46989E-07 1.75560E-19-4.80008E-19
 -1      3368 9.56881E-05-2.78081E-05-2.90966E-05-7.69597E-07-2.96979E-20-5.94864E-19
 -1      3369 9.40693E-05-2.12785E-05-3.12199E-05-5.23117E-06-8.31124E-19-1.15761E-18
 -1      3370 9.45196E-05-2.23939E-05-3.09112E-05-4.57119E-06-8.23558E-19-1.11348E-18
 -1      3371 9.34579E-05-2.00415E-05-3.14552E-05-4.83760E-06-8.23786E-19-1.26304E-18
 -1      3372 4.37785E-05-1.23935E-05-1.31398E-05-5.87207E-06-8.68315E-19-1.18934E-18
 -1      3373 4.91224E-05-1.57322E-05-1.39421E-05-1.72207E-05-2.40690E-19-4.30610E-19
 -1      3374 5.21073E-05-1.33751E-05-1.61946E-05-2.56669E-06-1.11207E-18-1.47654E-18
 -1      3375 1.22799E-04-2.10024E-05-4.38692E-05 1.26042E-05 5.53748E-20-1.43890E-19
 -1      3376 1.16809E-04-5.48859E-05-2.60936E-05-2.15875E-05 8.66144E-19-1.03424E-18
 -1      3377 1.25874E-04-5.70539E-05-2.99487E-05-1.22437E-05 1.13913E-18-4.35957E-19
 -1      3378 1.25494E-04-2.94820E-05-4.17693E-05 1.47382E-05 4.36857E-19-7.68153E-20
 -1      3379 1.29227E-04-3.84361E-05-3.90883E-05 1.29926E-05 1.04460E-18-2.44528E-19
 -1      3380 1.30299E-04-4.55397E-05-3.65527E-05 9.91095E-06 1.60635E-18 1.24644E-18
 -1      3381 9.22104E-05-1.79472E-05-3.18398E-05 4.02487E-07-1.38471E-19-1.31336E-18
 -1      3382 9.22066E-05-1.79346E-05-3.18404E-05-3.49807E-07-1.85346E-19-1.16941E-18
 -1      3383 9.31523E-05-1.95106E-05-3.15427E-05 6.14528E-07-1.43066E-19-1.20303E-18
 -1      3384 1.25234E-04-5.18829E-05-3.13758E-05-3.34068E-06 9.86069E-19-5.70093E-19
 -1      3385 1.28776E-04-5.04470E-05-3.36993E-05-2.12564E-06-4.52114E-19 3.23911E-19
 -1      3386 9.37652E-05-2.60920E-05-2.90106E-05 2.14707E-06 5.86483E-19-1.14053E-18
 -1      3387 9.40701E-05-2.63555E-05-2.90177E-05 2.34210E-06 3.75478E-19 8.83852E-19
 -1      3388 1.26380E-04-2.81599E-05-4.23299E-05-1.49804E-05-1.18267E-19 2.12923E-19
 -1      3389 5.66489E-05-1.77332E-05-1.62027E-05 1.85052E-05-2.17714E-18-1.08060E-18
 -1      3390 5.78857E-05-1.56746E-05-1.78807E-05 1.18451E-05-1.65647E-18-1.94622E-18
 -1      3391 6.65811E-05-2.24964E-05-1.88235E-05 2.14387E-05-2.74291E-18-3.17690E-19
 -1      3392 9.27032E-05-1.87259E-05-3.17059E-05-3.69865E-06-6.12307E-19-1.31779E-18
 -1      3393 9.30400E-05-1.93693E-05-3.15950E-05-4.31003E-06-7.15699E-19-1.34150E-18
 -1      3394 9.36753E-05-2.05417E-05-3.13372E-05-3.96063E-06-6.88266E-19-1.30076E-18
 -1      3395 1.27664E-04-3.92203E-05-3.81455E-05 1.21805E-05 5.22619E-19-1.93076E-18
 -1      3396 1.28341E-04-4.15537E-05-3.73923E-05-1.11699E-05-9.28560E-20-2.16359E-18
 -1      3397 1.08760E-04-4.80578E-05-2.59006E-05 1.99180E-05-2.03672E-18-1.29454E-18
 -1      3398 5.33482E-05-1.33657E-05-1.69395E-05 3.08697E-06 4.70328E-19-2.49022E-18
 -1      3399 4.84296E-05-1.23109E-05-1.49796E-05-2.69926E-06 4.39915E-19-2.84052E-18
 -1      3400 5.32223E-05-1.43708E-05-1.65123E-05-9.35928E-06 3.52000E-19-1.82546E-18
 -1      3401 9.32391E-05-2.56204E-05-2.89872E-05 1.52029E-06 5.49979E-19-1.70070E-18
 -1      3402 9.34689E-05-2.58135E-05-2.89924E-05 1.83871E-06 8.21281E-19-2.71964E-18
 -1      3403 9.33989E-05-2.57799E-05-2.89753E-05 2.20634E-06 2.29562E-19-1.77933E-18
 -1      3404 1.33966E-04-5.15872E-05-3.54083E-05-2.32744E-06-4.22272E-19 1.49189E-18
 -1      3405 9.48120E-05-2.70257E-05-2.90500E-05-2.42349E-06-1.16382E-18-1.60044E-18
 -1      3406 9.25686E-05-1.85591E-05-3.17295E-05 2.38838E-06 1.78508E-19-9.21668E-19
 -1      3407 9.33686E-05-1.99086E-05-3.14639E-05 1.76586E-06 1.53755E-19-9.24516E-19
 -1      3408 9.28071E-05-1.89794E-05-3.16595E-05 3.08384E-06 3.75954E-19-7.92648E-19
 -1      3409 9.24861E-05-3.78378E-05-2.33375E-05 2.42651E-05-3.65735E-18 7.17384E-19
 -1      3410 8.47920E-05-3.56958E-05-2.07945E-05 2.86347E-05-3.43226E-18 3.58824E-19
 -1      3411 7.89403E-05-3.05636E-05-2.06575E-05 2.58962E-05-3.82660E-18 4.52395E-19
 -1      3412 9.29244E-05-2.53352E-05-2.89726E-05 7.03204E-07 4.15837E-19 7.68884E-20
 -1      3413 9.30478E-05-2.54387E-05-2.89753E-05 1.10009E-06 3.07880E-19-9.38036E-19
 -1      3414 9.28553E-05-2.53158E-05-2.89394E-05 1.44869E-06 1.12081E-18-1.48274E-18
 -1      3415 9.25619E-05-2.50650E-05-2.89203E-05 5.12027E-07 5.98539E-19-6.66686E-19
 -1      3416 9.56961E-05-2.71962E-05-2.93627E-05 2.86412E-08 2.71146E-19-4.63777E-19
 -1      3417 5.79539E-05-1.81637E-05-1.66830E-05 1.75830E-05 8.27591E-19-1.49078E-19
 -1      3418 5.98694E-05-1.93083E-05-1.72349E-05-1.96399E-05-1.96141E-20-1.41979E-18
 -1      3419 6.26675E-05-2.36773E-05-1.62925E-05-2.60455E-05-2.78515E-19-1.52678E-18
 -1      3420 7.15394E-05-2.76457E-05-1.87462E-05-2.66244E-05-4.35110E-19-1.07679E-18
 -1      3421 1.23977E-04-5.75574E-05-2.83885E-05 1.67688E-05 3.59565E-19 1.56410E-19
 -1      3422 1.16659E-04-5.41967E-05-2.66348E-05 1.97228E-05-7.86152E-21 3.89811E-19
 -1      3423 1.26804E-04-5.65583E-05-3.01696E-05 9.97495E-06 2.13558E-19 2.03182E-19
 -1      3424 8.00346E-05-3.51483E-05-1.88639E-05-3.07807E-05 3.78094E-19-1.45361E-18
 -1      3425 5.87864E-05-1.95539E-05-1.63919E-05-1.98450E-05 9.30148E-20-1.01459E-18
 -1      3426 9.53954E-05-2.64259E-05-2.95649E-05 1.26535E-06 6.44026E-19-6.98018E-19
 -1      3427 9.54405E-05-2.58317E-05-2.98178E-05 2.16303E-06 7.75112E-19-7.57023E-19
 -1      3428 9.53659E-05-2.51718E-05-3.01005E-05 2.51668E-06 8.09707E-19-7.00983E-19
 -1      3429 9.55896E-05-2.63056E-05-2.96978E-05 1.11005E-06 5.32566E-19-6.31957E-19
 -1      3430 9.34523E-05-2.01545E-05-3.14379E-05 4.19558E-06 7.22527E-19-7.22930E-19
 -1      3431 9.30950E-05-1.94873E-05-3.15554E-05 3.60666E-06 5.19895E-19-7.01385E-19
 -1      3432 9.37828E-05-2.07053E-05-3.12982E-05 2.79162E-06 4.37659E-19-6.60252E-19
 -1      3433 9.43506E-05-2.19090E-05-3.10241E-05 3.56994E-06 7.61872E-19-5.93922E-19
 -1      3434 9.44919E-05-2.22870E-05-3.09333E-05-3.94927E-06-7.09308E-19-1.32950E-18
 -1      3435 1.15717E-04-5.20402E-05-2.71155E-05-1.71108E-05 3.75709E-19 5.56924E-19
 -1      3436 1.07473E-04-4.93643E-05-2.49814E-05-2.37578E-05 6.79294E-19 4.94217E-19
 -1      3437 1.11625E-04-4.72266E-05-2.74864E-05-1.47408E-05 3.06507E-19 1.26893E-18
 -1      3438 1.06501E-04-4.30829E-05-2.69833E-05-1.61070E-05 2.46123E-19 1.53678E-18
 -1      3439 9.91561E-05-4.38150E-05-2.35455E-05-2.53397E-05 4.18004E-19 5.68611E-19
 -1      3440 9.91882E-05-4.62613E-05-2.23546E-05 2.88088E-05-6.58648E-19 1.95858E-18
 -1      3441 9.40902E-05-4.13138E-05-2.24255E-05 2.75154E-05-7.30195E-19 1.81493E-18
 -1      3442 1.06032E-04-4.95647E-05-2.42666E-05 2.57526E-05-7.54627E-19 6.43666E-19
 -1      3443 1.10527E-04-5.10107E-05-2.52510E-05-2.27181E-05 8.93037E-19-1.84492E-18
 -1      3444 9.21896E-05-1.78712E-05-3.18593E-05-2.35675E-06-2.79493E-19-1.04802E-18
 -1      3445 9.24126E-05-1.82596E-05-3.17942E-05-3.07227E-06-4.68002E-19-1.22427E-18
 -1      3446 9.30579E-05-1.93872E-05-3.15684E-05-2.91653E-06-4.89877E-19-1.11277E-18
 -1      3447 1.28626E-04-5.22300E-05-3.25809E-05 3.79513E-07-2.14193E-19-3.46164E-18
 -1      3448 1.23523E-04-5.12466E-05-3.09361E-05 3.59977E-06-8.97385E-19-3.12252E-18
 -1      3449 9.44510E-05-2.66960E-05-2.90452E-05-2.57519E-06-2.49099E-19-2.37751E-18
 -1      3450 9.41698E-05-2.64137E-05-2.90338E-05-2.75758E-06-1.92452E-19-2.99401E-18
 -1      3451 1.21522E-04-5.16058E-05-2.97311E-05-7.42841E-06 6.60911E-19-2.76080E-19
 -1      3452 9.60966E-05-2.75447E-05-2.93730E-05 5.27486E-07-7.04097E-19-8.71273E-19
 -1      3453 9.60779E-05-2.78135E-05-2.92596E-05 8.41474E-07-7.00243E-19-9.15776E-19
 -1      3454 9.60473E-05-2.80123E-05-2.91538E-05 1.06856E-06-7.16505E-19-9.55827E-19
 -1      3455 9.59971E-05-2.81458E-05-2.90800E-05 1.28636E-06-4.15827E-19-7.89467E-19
 -1      3456 9.62067E-05-2.77945E-05-2.93205E-05 8.38820E-07-6.75407E-19-5.99738E-19
 -1      3457 9.59092E-05-2.82176E-05-2.90088E-05 1.45012E-06-2.26196E-19-1.14555E-18
 -1      3458 9.58403E-05-2.82511E-05-2.89659E-05 1.61355E-06-3.05339E-19-1.12144E-18
 -1      3459 9.60908E-05-2.81070E-05-2.91371E-05 1.24709E-06-5.18737E-19-7.92149E-19
 -1      3460 9.57111E-05-2.82273E-05-2.89218E-05 1.74665E-06-2.63945E-19-1.13538E-18
 -1      3461 9.56292E-05-2.81849E-05-2.89025E-05 1.88987E-06-1.41510E-19-8.37315E-19
 -1      3462 9.58772E-05-2.81762E-05-2.90156E-05 1.55804E-06-1.60149E-19-9.89779E-19
 -1      3463 9.54663E-05-2.80871E-05-2.88787E-05 2.01950E-06-1.83231E-19-8.50043E-19
 -1      3464 9.53729E-05-2.79856E-05-2.88771E-05 2.16972E-06-2.42390E-19-7.56820E-19
 -1      3465 9.55889E-05-2.80589E-05-2.89417E-05 1.83071E-06-1.92283E-19-1.20929E-18
 -1      3466 9.51784E-05-2.78287E-05-2.88678E-05 2.31798E-06-3.10915E-19-8.79336E-19
 -1      3467 9.50729E-05-2.76805E-05-2.88786E-05 2.49655E-06-1.87648E-19-1.00453E-18
 -1      3468 9.52357E-05-2.77948E-05-2.89027E-05 2.11391E-06-3.81324E-19-9.90518E-19
 -1      3469 9.48453E-05-2.74758E-05-2.88778E-05 2.68123E-06-3.68810E-19-1.19166E-18
 -1      3470 9.47259E-05-2.72915E-05-2.88960E-05 2.90468E-06-4.71212E-19-1.27688E-18
 -1      3471 9.48181E-05-2.74132E-05-2.88863E-05 2.44701E-06-3.61354E-19-1.77662E-18
 -1      3472 9.44620E-05-2.70491E-05-2.88978E-05 3.14012E-06-2.47052E-19-1.17733E-18
 -1      3473 9.43278E-05-2.68403E-05-2.89183E-05 3.42085E-06-2.77578E-19-1.18888E-18
 -1      3474 9.43314E-05-2.69375E-05-2.88803E-05 2.86166E-06-3.31426E-19-1.57789E-18
 -1      3475 9.40240E-05-2.65722E-05-2.89159E-05 3.71885E-06-2.38286E-19-8.83710E-19
 -1      3476 9.38767E-05-2.63543E-05-2.89326E-05 4.06569E-06-1.49881E-19-7.21713E-19
 -1      3477 9.37686E-05-2.63921E-05-2.88716E-05 3.38345E-06 1.19466E-19-9.36758E-19
 -1      3478 9.35322E-05-2.60781E-05-2.89183E-05 4.43667E-06-5.21090E-20-6.13048E-19
 -1      3479 9.33794E-05-2.58751E-05-2.89240E-05 4.85527E-06-9.51661E-20-2.39117E-19
 -1      3480 9.31250E-05-2.58076E-05-2.88450E-05 4.03424E-06 2.81765E-20-8.77623E-19
 -1      3481 9.29995E-05-2.56186E-05-2.88881E-05 5.30973E-06-1.54380E-19 6.55853E-20
 -1      3482 9.28602E-05-2.54685E-05-2.88742E-05 5.80304E-06 1.37727E-19 4.05020E-19
 -1      3483 9.24038E-05-2.52303E-05-2.87824E-05 4.83524E-06 2.90246E-19-7.13776E-19
 -1      3484 9.24620E-05-2.52763E-05-2.88052E-05 6.35400E-06-5.34072E-20 7.08598E-19
 -1      3485 9.23753E-05-2.52390E-05-2.87617E-05 6.92316E-06-1.42010E-19 5.08529E-19
 -1      3486 9.16252E-05-2.47323E-05-2.86618E-05 5.81159E-06-4.93065E-20 3.14612E-19
 -1      3487 9.19968E-05-2.51809E-05-2.86468E-05 7.58974E-06-1.09843E-19 4.56076E-19
 -1      3488 9.20352E-05-2.53488E-05-2.85638E-05 8.23451E-06 1.82535E-19 3.29383E-19
 -1      3489 9.08401E-05-2.44260E-05-2.84577E-05 7.00016E-06-6.19321E-20-1.10891E-20
 -1      3490 9.17509E-05-2.55303E-05-2.83900E-05 9.04534E-06 4.54061E-19 5.24903E-19
 -1      3491 9.20394E-05-2.60401E-05-2.82609E-05 9.76246E-06 5.91222E-19 5.58940E-19
 -1      3492 9.01532E-05-2.44840E-05-2.81423E-05 8.45955E-06 5.26800E-19 1.85091E-19
 -1      3493 9.19829E-05-2.66153E-05-2.80196E-05 1.07567E-05 5.14030E-19 5.62377E-19
 -1      3494 9.27280E-05-2.76610E-05-2.78482E-05 1.15270E-05 5.79536E-19 7.72530E-19
 -1      3495 8.97584E-05-2.51648E-05-2.76910E-05 1.02785E-05 6.46572E-19 1.68614E-19
 -1      3496 9.31431E-05-2.88607E-05-2.75397E-05 1.27501E-05 4.13067E-19 1.17692E-18
 -1      3497 9.46575E-05-3.07038E-05-2.73540E-05 1.34866E-05 4.56246E-19 8.76498E-19
 -1      3498 8.99992E-05-2.68573E-05-2.70906E-05 1.25879E-05 7.48494E-19 4.85064E-19
 -1      3499 9.59985E-05-3.28562E-05-2.70183E-05 1.48521E-05 8.24658E-19 1.06564E-18
 -1      3500 9.86723E-05-3.56514E-05-2.69174E-05 1.52511E-05 4.10507E-19 1.23698E-18
 -1      3501 9.15495E-05-3.01478E-05-2.63602E-05 1.55218E-05 6.40536E-19 9.66676E-19
 -1      3502 1.01429E-04-3.89849E-05-2.66875E-05 1.66508E-05-6.56728E-19 1.37143E-18
 -1      3503 1.05836E-04-4.28292E-05-2.68875E-05 1.60512E-05-6.96089E-19 8.82694E-19
 -1      3504 9.52905E-05-3.54855E-05-2.56237E-05 1.88368E-05-4.38472E-20 1.49750E-18
 -1      3505 1.07549E-04-4.58293E-05-2.62627E-05 1.84225E-05-5.55905E-19 5.99038E-19
 -1      3506 1.13126E-04-4.99476E-05-2.69948E-05 1.67958E-05-6.32244E-19 3.21211E-20
 -1      3507 9.39241E-05-2.62171E-05-2.90188E-05-3.09541E-06-1.01546E-18-3.28775E-18
 -1      3508 9.34425E-05-2.58226E-05-2.89786E-05-2.83179E-06 3.63039E-19-2.35125E-18
 -1      3509 9.38279E-05-2.60779E-05-2.90264E-05-3.47094E-06-8.84373E-19-3.36875E-18
 -1      3510 9.56667E-05-2.53900E-05-3.01139E-05-1.37646E-06-5.36632E-19-1.10201E-18
 -1      3511 9.58184E-05-2.61037E-05-2.98870E-05-7.23480E-07-5.52679E-19-1.10771E-18
 -1      3512 1.02374E-04-3.92149E-05-2.70142E-05-1.55437E-05-1.02488E-19 1.62736E-18
 -1      3513 9.90516E-05-3.58128E-05-2.70162E-05-1.54043E-05-3.04111E-19 1.25120E-18
 -1      3514 1.00053E-04-4.02707E-05-2.57625E-05-1.94441E-05 2.99208E-19 1.16409E-18
 -1      3515 9.69562E-05-3.31656E-05-2.72909E-05-1.42126E-05-3.18505E-19 1.12993E-18
 -1      3516 9.49300E-05-3.08262E-05-2.74411E-05-1.35981E-05-9.85288E-19 9.24697E-19
 -1      3517 9.41653E-05-3.32145E-05-2.62131E-05-1.67681E-05-6.97695E-19 1.54387E-18
 -1      3518 9.40370E-05-2.92034E-05-2.77470E-05-1.23749E-05-1.37989E-18 5.04485E-19
 -1      3519 9.29430E-05-2.77783E-05-2.79188E-05-1.16365E-05-1.32993E-18 1.19666E-18
 -1      3520 9.13753E-05-2.87264E-05-2.68934E-05-1.39002E-05-9.98645E-19 1.25819E-19
 -1      3521 9.27178E-05-2.68969E-05-2.81817E-05-1.05760E-05-1.12592E-18 2.30126E-18
 -1      3522 9.22094E-05-2.61221E-05-2.83247E-05-9.84286E-06 1.58543E-19 2.46737E-18
 -1      3523 9.03774E-05-2.61927E-05-2.75256E-05-1.14300E-05-8.65355E-19 1.25312E-18
 -1      3524 9.23367E-05-2.57355E-05-2.85249E-05-8.95493E-06-7.13098E-20 2.17697E-18
 -1      3525 9.21656E-05-2.53886E-05-2.86251E-05-8.27114E-06-1.00139E-18 1.98031E-18
 -1      3526 9.03434E-05-2.49432E-05-2.80333E-05-9.41203E-06-3.98781E-19 1.76066E-18
 -1      3527 9.24569E-05-2.53091E-05-2.87651E-05-7.52814E-06-7.49538E-19 1.50944E-18
 -1      3528 9.24634E-05-2.52241E-05-2.88250E-05-6.90572E-06-9.63388E-19 1.81173E-18
 -1      3529 9.07937E-05-2.45086E-05-2.84060E-05-7.77006E-06-1.08301E-18 1.46795E-18
 -1      3530 9.28114E-05-2.53198E-05-2.89158E-05-6.27907E-06-9.39926E-19 1.68420E-18
 -1      3531 9.29002E-05-2.53820E-05-2.89443E-05-5.72060E-06-5.15853E-20 2.28187E-18
 -1      3532 9.14478E-05-2.45611E-05-2.86613E-05-6.41336E-06-7.44643E-19 8.52631E-19
 -1      3533 9.32423E-05-2.55612E-05-2.89986E-05-5.18460E-06-4.28253E-19 1.33538E-18
 -1      3534 9.33558E-05-2.56949E-05-2.90057E-05-4.68840E-06-1.52961E-19 5.65644E-20
 -1      3535 9.21406E-05-2.48753E-05-2.88251E-05-5.28283E-06-9.37801E-19 3.70914E-19
 -1      3536 9.35309E-05-2.57982E-05-2.90186E-05-4.26757E-06-3.66879E-19-1.75122E-18
 -1      3537 9.36435E-05-2.59526E-05-2.90159E-05-3.83349E-06-1.04650E-18-2.81900E-18
 -1      3538 9.29677E-05-2.54519E-05-2.89385E-05-3.54098E-06-1.62741E-18-4.44528E-18
 -1      3539 9.26287E-05-2.51941E-05-2.89029E-05-4.34363E-06-1.20216E-18-2.84836E-18
 -1      3540 1.19270E-04-5.01561E-05-2.95338E-05 7.65142E-06-7.85332E-19-2.42871E-18
 -1      3541 9.43469E-05-2.66171E-05-2.90337E-05 2.42472E-06 2.00563E-19 5.06231E-20
 -1      3542 9.46304E-05-2.68745E-05-2.90375E-05 2.46707E-06 6.67749E-20-1.02726E-18
 -1      3543 9.46308E-05-2.68502E-05-2.90473E-05 2.67480E-06-1.86335E-19-1.35529E-18
 -1      3544 9.40365E-05-2.63256E-05-2.90167E-05 2.60275E-06-2.33188E-19 5.25867E-19
 -1      3545 9.50090E-05-2.75811E-05-2.88925E-05-2.91159E-06-2.48849E-19 6.07840E-20
 -1      3546 9.50592E-05-2.77206E-05-2.88639E-05-2.69807E-06 2.66809E-20-4.90543E-20
 -1      3547 9.42335E-05-2.65041E-05-2.90195E-05-4.81011E-06-7.85537E-19 3.67740E-19
 -1      3548 9.42694E-05-2.66425E-05-2.89908E-05-4.40971E-06-4.10063E-19-1.72702E-19
 -1      3549 9.39854E-05-2.62366E-05-2.90265E-05-5.72023E-06-6.42955E-19 6.34896E-19
 -1      3550 9.39880E-05-2.63174E-05-2.90100E-05-5.25547E-06-6.65717E-19 5.30063E-19
 -1      3551 9.33474E-05-2.59147E-05-2.88964E-05-4.92193E-06-8.38299E-19 1.77941E-19
 -1      3552 9.38223E-05-2.61543E-05-2.89897E-05-6.76901E-06-8.62588E-19 2.59276E-19
 -1      3553 9.37529E-05-2.61210E-05-2.89932E-05-6.24908E-06-5.78038E-19 5.80099E-19
 -1      3554 9.28661E-05-2.55720E-05-2.88376E-05-5.88402E-06-5.40746E-19 6.01904E-19
 -1      3555 9.38589E-05-2.64109E-05-2.88919E-05-7.94264E-06-5.62401E-19-2.23766E-19
 -1      3556 9.36495E-05-2.61781E-05-2.89228E-05-7.38586E-06-8.56177E-19-1.32485E-19
 -1      3557 9.24495E-05-2.54422E-05-2.87169E-05-7.02252E-06-4.88656E-19 4.31226E-19
 -1      3558 9.42908E-05-2.72311E-05-2.87203E-05-9.21064E-06-5.63028E-19 6.59078E-19
 -1      3559 9.38300E-05-2.66759E-05-2.87827E-05-8.64997E-06-4.64323E-19 7.18154E-20
 -1      3560 9.22217E-05-2.56995E-05-2.85145E-05-8.35611E-06-7.75688E-19 2.82578E-19
 -1      3561 9.54310E-05-2.89218E-05-2.84774E-05-1.05045E-05-6.56900E-19 1.17162E-18
 -1      3562 9.45494E-05-2.78816E-05-2.85655E-05-1.00016E-05-4.01587E-19 8.48978E-19
 -1      3563 9.23995E-05-2.65992E-05-2.82161E-05-9.90337E-06-5.21218E-19 3.52535E-19
 -1      3564 9.77405E-05-3.18555E-05-2.82027E-05-1.16630E-05-5.32825E-19 4.25364E-19
 -1      3565 9.62078E-05-3.01448E-05-2.82884E-05-1.13384E-05-4.13658E-19 7.35638E-19
 -1      3566 9.33426E-05-2.84976E-05-2.78261E-05-1.16585E-05-3.32779E-20 2.27607E-19
 -1      3567 1.01829E-04-3.63700E-05-2.80140E-05-1.23062E-05-9.04593E-19-2.70704E-20
 -1      3568 9.93786E-05-3.38522E-05-2.80245E-05-1.24040E-05-9.55364E-19 8.08772E-20
 -1      3569 9.56107E-05-3.18423E-05-2.73945E-05-1.35136E-05-6.43084E-19-1.17142E-19
 -1      3570 1.08414E-04-4.24288E-05-2.82041E-05-1.15446E-05-3.57014E-19-2.59029E-19
 -1      3571 1.04818E-04-3.93090E-05-2.79646E-05-1.26054E-05-7.09814E-19 1.69655E-20
 -1      3572 9.99725E-05-3.70685E-05-2.70716E-05-1.50882E-05-8.43445E-19-9.34846E-19
 -1      3573 1.16371E-04-4.85113E-05-2.89986E-05-9.02440E-06-3.09233E-20-1.71643E-19
 -1      3574 1.11978E-04-4.56313E-05-2.82640E-05-1.15531E-05-2.90761E-19-4.94667E-19
 -1      3575 1.06444E-04-4.39646E-05-2.69864E-05-1.62088E-05-4.14861E-19-8.99496E-19
 -1      3576 1.14856E-04-5.13898E-05-2.75092E-05-1.62007E-05 5.28853E-19-1.04720E-18
 -1      3577 1.03951E-04-3.83297E-05-2.79891E-05 1.25681E-05-3.00482E-19 8.66554E-19
 -1      3578 1.07136E-04-4.15720E-05-2.80973E-05 1.19218E-05-1.13980E-18-1.10349E-19
 -1      3579 1.09183E-04-4.55797E-05-2.73694E-05 1.50163E-05-1.62888E-18-1.71728E-18
 -1      3580 1.00846E-04-4.08624E-05-2.54732E-05 1.98408E-05-2.46313E-18-4.15541E-19
 -1      3581 1.14748E-04-4.75855E-05-2.87049E-05 1.04166E-05-1.11185E-18-1.80232E-18
 -1      3582 9.89430E-05-3.32866E-05-2.80896E-05 1.22647E-05 5.21268E-19 9.51436E-19
 -1      3583 1.01241E-04-3.56788E-05-2.80646E-05 1.22148E-05 5.90160E-19 1.47291E-18
 -1      3584 9.94177E-05-3.62503E-05-2.71345E-05 1.49078E-05-3.32179E-19 5.52196E-19
 -1      3585 9.59982E-05-2.97709E-05-2.83622E-05 1.11408E-05 2.19125E-19 2.13607E-18
 -1      3586 9.74310E-05-3.13802E-05-2.82734E-05 1.14932E-05-4.30605E-20 2.00231E-18
 -1      3587 9.53025E-05-3.12922E-05-2.74895E-05 1.32484E-05-2.88687E-19 3.36685E-18
 -1      3588 9.44875E-05-2.76612E-05-2.86348E-05 9.79118E-06-1.42202E-18 3.24522E-18
 -1      3589 9.53024E-05-2.86320E-05-2.85483E-05 1.03099E-05 1.16099E-19 3.45292E-18
 -1      3590 9.32503E-05-2.81747E-05-2.79214E-05 1.13913E-05-4.89490E-19 5.42060E-18
 -1      3591 9.38468E-05-2.65464E-05-2.88457E-05 8.43260E-06-1.86320E-18 3.45754E-18
 -1      3592 9.42695E-05-2.70616E-05-2.87852E-05 9.00537E-06-1.85339E-18 3.17419E-18
 -1      3593 9.24218E-05-2.64164E-05-2.83023E-05 9.65799E-06-1.66268E-18 6.00595E-18
 -1      3594 9.36984E-05-2.60856E-05-2.89832E-05 7.15389E-06-1.55057E-18 3.59153E-18
 -1      3595 9.38900E-05-2.63041E-05-2.89522E-05 7.72530E-06-1.11131E-18 3.18078E-18
 -1      3596 9.22952E-05-2.55893E-05-2.85925E-05 8.12213E-06-1.30001E-18 4.15612E-18
 -1      3597 9.38023E-05-2.60208E-05-2.90567E-05 5.98788E-06-5.39197E-19 1.78687E-18
 -1      3598 9.38679E-05-2.60610E-05-2.90503E-05 6.52878E-06-1.10729E-18 2.65684E-18
 -1      3599 9.25323E-05-2.53499E-05-2.87916E-05 6.78261E-06-5.87034E-19 2.42954E-18
 -1      3600 9.40144E-05-2.61714E-05-2.90831E-05 4.94545E-06 2.56381E-19 1.78777E-18
 -1      3601 9.40181E-05-2.61154E-05-2.90934E-05 5.44075E-06-1.21306E-19 1.22387E-18
 -1      3602 9.29285E-05-2.54525E-05-2.89152E-05 5.61818E-06 4.98625E-19 1.81923E-18
 -1      3603 9.42466E-05-2.64117E-05-2.90793E-05 4.02517E-06 1.68029E-18 1.28596E-18
 -1      3604 9.42301E-05-2.63159E-05-2.90991E-05 4.47139E-06 1.45987E-18 1.87553E-18
 -1      3605 9.33644E-05-2.57288E-05-2.89835E-05 4.61037E-06 9.98547E-19 1.26401E-18
 -1      3606 9.52267E-05-2.78852E-05-2.88562E-05-2.51585E-06 1.87565E-19 5.65334E-21
 -1      3607 9.52748E-05-2.79957E-05-2.88370E-05-2.34601E-06 4.53972E-19-7.16560E-20
 -1      3608 9.50297E-05-2.76515E-05-2.88759E-05-2.52634E-06 7.35852E-20 6.04464E-20
 -1      3609 9.21466E-05-2.47995E-05-2.88652E-05-7.83717E-07-3.79162E-20 2.13489E-18
 -1      3610 9.20683E-05-2.47405E-05-2.88591E-05-2.80965E-07-1.96174E-19 7.89384E-19
 -1      3611 9.60027E-05-2.67180E-05-2.96855E-05-2.59103E-07-5.42019E-19-1.03742E-18
 -1      3612 9.60420E-05-2.71729E-05-2.95220E-05 1.99692E-07-5.89165E-19-1.03026E-18
 -1      3613 9.61821E-05-2.71583E-05-2.95815E-05 2.64913E-07-5.69432E-19-8.22160E-19
 -1      3614 9.45045E-05-2.68566E-05-2.89854E-05-4.04276E-06 8.31071E-20-1.07318E-19
 -1      3615 9.45531E-05-2.70160E-05-2.89514E-05-3.70944E-06 1.58200E-19-8.91068E-20
 -1      3616 9.38273E-05-2.63561E-05-2.89133E-05-4.12074E-06-1.98581E-19 5.22528E-20
 -1      3617 7.64361E-05-2.99873E-05-1.97669E-05-2.67437E-05 5.59981E-19-1.40780E-18
 -1      3618 8.92550E-05-3.85763E-05-2.17500E-05-2.81667E-05 9.34251E-20 5.60789E-19
 -1      3619 9.57078E-05-3.91962E-05-2.40431E-05-2.30355E-05 2.17767E-19 6.73517E-19
 -1      3620 1.30777E-04-4.93177E-05-3.53360E-05-6.20812E-06 1.93368E-19-3.23053E-18
 -1      3621 9.20945E-05-1.77415E-05-3.18789E-05-9.57913E-07-1.96005E-19-1.21165E-18
 -1      3622 9.22008E-05-1.79103E-05-3.18484E-05-1.70602E-06-2.83319E-19-1.15563E-18
 -1      3623 9.28393E-05-1.89754E-05-3.16446E-05-1.71321E-06-2.98504E-19-1.07722E-18
 -1      3624 9.29939E-05-1.92282E-05-3.15978E-05-5.37163E-07-1.99225E-19-1.09251E-18
 -1      3625 9.57368E-05-2.82879E-05-2.89055E-05-1.64778E-06 5.00910E-21-3.08057E-19
 -1      3626 9.57798E-05-2.82397E-05-2.89431E-05-1.48251E-06-1.32414E-19-2.85447E-19
 -1      3627 9.58872E-05-2.71920E-05-2.94471E-05-1.20288E-07 2.59300E-19-5.08709E-19
 -1      3628 9.58654E-05-2.67497E-05-2.96124E-05 3.79889E-07 3.42973E-19-5.00473E-19
 -1      3629 6.49832E-05-2.09642E-05-1.87433E-05 2.04475E-05 6.09678E-19 1.12356E-18
 -1      3630 5.92845E-05-1.65202E-05-1.82431E-05 1.32480E-05 6.44129E-19-8.42877E-19
 -1      3631 8.34054E-05-3.33063E-05-2.14613E-05 2.62046E-05-9.39942E-20 1.93605E-18
 -1      3632 7.27588E-05-2.62695E-05-1.97344E-05 2.41812E-05 4.33469E-19 1.94402E-18
 -1      3633 7.35843E-05-2.40935E-05-2.09993E-05 1.97841E-05 3.60360E-19 1.45238E-18
 -1      3634 9.58499E-05-2.81585E-05-2.90113E-05-1.30605E-06-2.34949E-19-3.64816E-19
 -1      3635 9.58874E-05-2.80198E-05-2.90809E-05-1.07804E-06-2.18738E-19-5.04945E-19
 -1      3636 9.59932E-05-2.81326E-05-2.90852E-05-1.29260E-06-1.25603E-19-4.59849E-19
 -1      3637 9.38600E-05-2.09303E-05-3.12502E-05-3.25052E-06-5.55187E-19-1.18480E-18
 -1      3638 9.41728E-05-2.16228E-05-3.11063E-05-3.66705E-06-6.56853E-19-1.30884E-18
 -1      3639 9.46079E-05-2.26109E-05-3.08560E-05-3.20670E-06-5.28130E-19-1.24901E-18
 -1      3640 6.09485E-05-1.76260E-05-1.85335E-05-1.52885E-05-1.10048E-19-1.05776E-18
 -1      3641 6.79327E-05-2.35949E-05-1.88615E-05-2.34141E-05 3.25075E-19-2.20790E-18
 -1      3642 7.81172E-05-2.72794E-05-2.15329E-05-2.16832E-05-1.40766E-19-1.41642E-18
 -1      3643 9.50514E-05-2.36290E-05-3.06117E-05-2.66122E-06-4.28633E-19-1.20832E-18
 -1      3644 9.53854E-05-2.46667E-05-3.03154E-05-1.81568E-06-4.47646E-19-1.14660E-18
 -1      3645 9.54865E-05-2.46616E-05-3.03473E-05-1.48404E-06-4.75650E-19-1.06618E-18
 -1      3646 9.47953E-05-2.29457E-05-3.07849E-05-2.45351E-06-3.90617E-19-1.11840E-18
 -1      3647 8.42723E-05-3.50006E-05-2.07467E-05-2.81732E-05-2.40504E-19-1.51571E-18
 -1      3648 9.36669E-05-4.15284E-05-2.25236E-05-2.77469E-05-1.35949E-19-2.27868E-18
 -1      3649 9.59122E-05-2.78206E-05-2.91855E-05-8.26594E-07-8.73371E-20-4.91008E-19
 -1      3650 9.59346E-05-2.75572E-05-2.92966E-05-4.89312E-07 9.12169E-20-4.12918E-19
 -1      3651 9.60843E-05-2.78034E-05-2.92653E-05-8.42525E-07-1.65239E-19-3.76428E-19
 -1      3652 1.05319E-04-4.67004E-05-2.48287E-05-2.26473E-05 1.74740E-19-1.83141E-18
 -1      3653 5.57690E-05-1.34716E-05-1.80699E-05 1.69773E-06-1.46516E-18-1.74425E-18
 -1      3654 5.65778E-05-1.39842E-05-1.80782E-05-6.76727E-06-1.47729E-18-5.21190E-19
 -1      3655 9.47672E-05-2.72292E-05-2.89390E-05-3.41409E-06-4.97371E-20-1.79993E-19
 -1      3656 9.48185E-05-2.73862E-05-2.89054E-05-3.14459E-06-2.66974E-19-1.49539E-19
 -1      3657 9.46752E-05-2.72641E-05-2.88891E-05-2.94207E-06 1.21868E-19 5.46136E-20
 -1      3658 9.42739E-05-2.68219E-05-2.89058E-05-3.46655E-06-3.87974E-20-5.39324E-19
 -1      3659 1.27373E-04-5.55697E-05-3.09036E-05 6.95767E-06 1.89788E-20 1.82416E-19
 -1      3660 9.95050E-05-4.21050E-05-2.46374E-05 2.27218E-05-8.08116E-19 9.25668E-19
 -1      3661 9.30464E-05-2.55166E-05-2.89468E-05-2.48953E-06 8.74144E-20-6.40307E-19
 -1      3662 9.16588E-05-2.44432E-05-2.87996E-05 2.93909E-08 5.72432E-19 1.59379E-19
 -1      3663 9.20744E-05-2.47477E-05-2.88589E-05 3.21302E-07 3.63322E-19 1.50660E-19
 -1      3664 9.21633E-05-2.48156E-05-2.88646E-05 8.28960E-07 4.66130E-19-7.63550E-19
 -1      3665 7.47076E-05-2.59517E-05-2.06393E-05 2.28335E-05-2.70174E-18 7.51212E-20
 -1      3666 7.13890E-05-2.19928E-05-2.11529E-05 1.79398E-05-2.17985E-18-3.51333E-19
 -1      3667 8.26184E-05-2.93257E-05-2.27750E-05 2.12273E-05-2.38223E-18 6.60990E-19
 -1      3668 7.88163E-05-2.99533E-05-2.07498E-05-2.47639E-05-5.83923E-20-1.64065E-18
 -1      3669 9.59488E-05-2.60905E-05-2.99375E-05-5.46049E-07-4.46510E-19-9.68227E-19
 -1      3670 9.37896E-05-2.61254E-05-2.90043E-05 2.87332E-06 1.29141E-18-3.93262E-21
 -1      3671 9.41274E-05-2.63915E-05-2.90265E-05 2.96856E-06 1.32173E-18-9.98781E-20
 -1      3672 9.55911E-05-2.82626E-05-2.88525E-05-1.92580E-06 2.01579E-19-2.31980E-19
 -1      3673 9.56361E-05-2.82820E-05-2.88656E-05-1.78602E-06 1.77069E-19-3.29346E-19
 -1      3674 9.58265E-05-2.82337E-05-2.89700E-05-1.62516E-06-3.21949E-20-5.71733E-19
 -1      3675 6.43968E-05-1.70494E-05-2.01047E-05-1.08251E-05-7.26321E-19-2.03157E-18
 -1      3676 9.33386E-05-2.57506E-05-2.89616E-05 2.60179E-06 1.09124E-18-8.26605E-19
 -1      3677 9.34045E-05-2.57970E-05-2.89691E-05 2.99622E-06 1.86718E-18-1.13710E-18
 -1      3678 9.29652E-05-2.54673E-05-2.89364E-05 2.27337E-06 1.20129E-18-2.06265E-18
 -1      3679 1.22423E-04-5.34918E-05-2.92012E-05 1.05686E-05-2.95310E-19-3.44001E-19
 -1      3680 9.53392E-05-2.79593E-05-2.88775E-05-2.19288E-06 4.16492E-19-8.07340E-20
 -1      3681 9.54205E-05-2.81196E-05-2.88396E-05-2.19950E-06 4.58886E-19-3.21576E-19
 -1      3682 9.54668E-05-2.81906E-05-2.88341E-05-2.05604E-06 3.94392E-19-2.24488E-19
 -1      3683 9.44011E-05-2.65404E-05-2.90782E-05 3.59062E-06 2.53737E-18 1.54313E-19
 -1      3684 9.37291E-05-2.60372E-05-2.90110E-05 3.70530E-06 2.84589E-18-4.72787E-19
 -1      3685 9.44303E-05-2.66389E-05-2.90572E-05 3.20161E-06 2.81645E-18-1.34692E-18
 -1      3686 9.46461E-05-2.68330E-05-2.90619E-05 2.89522E-06 9.59569E-19-1.54152E-18
 -1      3687 5.80327E-05-1.45248E-05-1.83702E-05 8.33398E-06 7.41445E-19-2.24803E-18
 -1      3688 5.84087E-05-1.41108E-05-1.89506E-05 2.08278E-06-4.36751E-20-1.86945E-18
 -1      3689 6.43529E-05-1.69451E-05-2.01806E-05 1.11183E-05 4.06390E-19-8.95896E-19
 -1      3690 9.23140E-05-2.49376E-05-2.88836E-05-1.35651E-06-5.64956E-19 3.94411E-18
 -1      3691 9.18393E-05-2.45786E-05-2.88200E-05-1.17751E-06-6.23395E-19 2.36403E-18
 -1      3692 9.25548E-05-2.51151E-05-2.88989E-05-1.80994E-06 2.18092E-20 3.18895E-18
 -1      3693 5.81852E-05-1.61457E-05-1.76518E-05-1.39206E-05 2.35952E-19-1.48673E-18
 -1      3694 6.46827E-05-1.93625E-05-1.92957E-05-1.66891E-05 2.92099E-19-1.19453E-18
 -1      3695 5.83774E-05-1.47912E-05-1.86470E-05-7.67091E-06-1.05456E-19-1.78962E-18
 -1      3696 9.38555E-05-2.09097E-05-3.12745E-05 7.85278E-07-6.55866E-20-9.85151E-19
 -1      3697 9.38087E-05-2.08082E-05-3.12947E-05 2.38951E-07-2.33037E-19-1.13136E-18
 -1      3698 9.49488E-05-2.34500E-05-3.06602E-05 2.97833E-06 7.78372E-19-5.88298E-19
 -1      3699 9.46779E-05-2.27378E-05-3.08322E-05 2.73288E-06 6.45338E-19-4.01999E-19
 -1      3700 9.57264E-05-2.62707E-05-2.97735E-05 8.34499E-07 3.76599E-19-4.83243E-19
 -1      3701 9.56466E-05-2.57617E-05-2.99508E-05 1.45046E-06 5.21256E-19-5.76518E-19
 -1      3702 9.58713E-05-2.62262E-05-2.98473E-05 6.55931E-07 4.15101E-19-5.69179E-19
 -1      3703 1.01344E-04-4.27132E-05-2.49159E-05-2.14303E-05-3.22270E-19-2.08788E-18
 -1      3704 9.60597E-05-2.71658E-05-2.95276E-05-1.97279E-07 2.12815E-19-2.56765E-19
 -1      3705 9.35915E-05-2.04396E-05-3.13628E-05-2.81292E-06-5.27633E-19-1.14118E-18
 -1      3706 9.41034E-05-2.14301E-05-3.11430E-05-2.56332E-06-4.86975E-19-1.07941E-18
 -1      3707 9.33667E-05-1.99927E-05-3.14501E-05-2.25111E-06-3.25511E-19-9.13867E-19
 -1      3708 6.49349E-05-1.72794E-05-2.04661E-05 1.15509E-05-2.28912E-18-2.01488E-18
 -1      3709 5.95314E-05-1.45356E-05-1.90173E-05 6.64320E-06-1.80182E-18-2.27746E-18
 -1      3710 6.33392E-05-1.50303E-05-2.06372E-05 2.83993E-06-1.95268E-18-2.01369E-18
 -1      3711 9.40864E-05-2.13853E-05-3.11717E-05 1.71411E-06 2.28193E-19-7.35975E-19
 -1      3712 9.39463E-05-2.10882E-05-3.12325E-05 1.20740E-06 9.31695E-20-8.97064E-19
 -1      3713 9.45859E-05-2.22209E-05-3.09959E-05 7.88455E-07-9.73274E-20-8.01733E-19
 -1      3714 9.47274E-05-3.94323E-05-2.36428E-05 2.38038E-05-7.89153E-19 1.17171E-18
 -1      3715 8.87735E-05-3.60449E-05-2.23891E-05 2.55166E-05-3.90277E-19 1.43583E-18
 -1      3716 8.48935E-05-3.18785E-05-2.27646E-05 2.30650E-05-4.43236E-19 1.02438E-18
 -1      3717 9.37978E-05-3.67831E-05-2.44238E-05 2.17076E-05-7.31836E-19 1.02686E-18
 -1      3718 9.11034E-05-2.46594E-05-2.84641E-05-6.92686E-06-3.24476E-19-2.26750E-19
 -1      3719 9.12815E-05-2.46878E-05-2.85535E-05-6.32871E-06-7.33057E-20 8.72067E-20
 -1      3720 9.62449E-05-2.80011E-05-2.92456E-05 1.00305E-06-5.28876E-19-4.61745E-19
 -1      3721 9.61580E-05-2.81015E-05-2.91681E-05 1.18285E-06-3.12774E-19-5.82912E-19
 -1      3722 9.60223E-05-2.81338E-05-2.90948E-05 1.30813E-06-2.10638E-19-6.90942E-19
 -1      3723 9.58933E-05-2.81216E-05-2.90446E-05 1.45354E-06-1.80376E-19-7.34134E-19
 -1      3724 9.61589E-05-2.80399E-05-2.91934E-05 1.07934E-06-3.28581E-19-4.35352E-19
 -1      3725 9.56991E-05-2.80477E-05-2.89948E-05 1.56432E-06-2.21104E-19-8.29547E-19
 -1      3726 9.55358E-05-2.79475E-05-2.89651E-05 1.70141E-06-2.89119E-19-9.06577E-19
 -1      3727 9.58319E-05-2.80098E-05-2.90658E-05 1.32169E-06-1.96821E-19-7.34980E-19
 -1      3728 9.52904E-05-2.77889E-05-2.89321E-05 1.81751E-06-3.28078E-19-7.98244E-19
 -1      3729 9.50951E-05-2.76184E-05-2.89166E-05 1.96757E-06-2.66442E-19-9.12189E-19
 -1      3730 9.53963E-05-2.77761E-05-2.89786E-05 1.55069E-06-3.81096E-19-6.81674E-19
 -1      3731 9.47997E-05-2.73909E-05-2.88939E-05 2.10535E-06-3.91716E-19-1.34024E-18
 -1      3732 9.45710E-05-2.71636E-05-2.88865E-05 2.28531E-06-4.51009E-19-1.19008E-18
 -1      3733 9.48606E-05-2.73786E-05-2.89184E-05 1.80127E-06-4.91756E-19-5.13427E-19
 -1      3734 9.42222E-05-2.68794E-05-2.88672E-05 2.45836E-06-2.59456E-19-1.24204E-18
 -1      3735 9.39567E-05-2.66073E-05-2.88615E-05 2.68182E-06-1.19866E-19-8.98670E-19
 -1      3736 9.42226E-05-2.68468E-05-2.88715E-05 2.10185E-06-2.85385E-19-5.03977E-19
 -1      3737 9.35485E-05-2.62779E-05-2.88380E-05 2.90177E-06 7.60209E-20-6.07551E-19
 -1      3738 9.32429E-05-2.59742E-05-2.88267E-05 3.17968E-06 3.25700E-19-5.97653E-19
 -1      3739 9.34728E-05-2.62063E-05-2.88230E-05 2.47661E-06 2.06300E-19-5.08668E-19
 -1      3740 9.27678E-05-2.56131E-05-2.87901E-05 3.45761E-06 3.22872E-19-6.62850E-19
 -1      3741 9.24207E-05-2.52957E-05-2.87648E-05 3.80003E-06 2.14267E-19-4.17818E-19
 -1      3742 9.25975E-05-2.54826E-05-2.87562E-05 2.94658E-06 3.32597E-19-2.86842E-19
 -1      3743 9.18725E-05-2.49227E-05-2.87045E-05 4.14858E-06 4.14726E-19-2.37786E-19
 -1      3744 9.14889E-05-2.46186E-05-2.86548E-05 4.56616E-06 3.86673E-19-3.79030E-20
 -1      3745 9.15827E-05-2.47082E-05-2.86511E-05 3.53455E-06 4.43634E-19-8.78602E-20
 -1      3746 9.08643E-05-2.42629E-05-2.85577E-05 5.00255E-06 1.57266E-19 2.66335E-20
 -1      3747 9.04605E-05-2.40137E-05-2.84713E-05 5.51014E-06 1.00130E-19 2.18113E-19
 -1      3748 9.04181E-05-2.39299E-05-2.84834E-05 4.26920E-06 3.21689E-19 3.98072E-19
 -1      3749 8.97621E-05-2.37196E-05-2.83214E-05 6.06228E-06 2.80145E-21 2.54568E-19
 -1      3750 8.93749E-05-2.35889E-05-2.81840E-05 6.68410E-06 1.29063E-19 2.77251E-19
 -1      3751 8.91013E-05-2.32156E-05-2.82230E-05 5.19517E-06 1.38479E-19 6.20576E-20
 -1      3752 8.86176E-05-2.34232E-05-2.79619E-05 7.39963E-06 5.38801E-19 2.09006E-19
 -1      3753 8.83197E-05-2.35079E-05-2.77584E-05 8.17553E-06 7.01059E-19 2.32325E-19
 -1      3754 8.76459E-05-2.26657E-05-2.78330E-05 6.38948E-06 3.55088E-19 1.38446E-19
 -1      3755 8.75413E-05-2.35711E-05-2.74416E-05 9.13513E-06 5.80311E-19 1.53776E-19
 -1      3756 8.74632E-05-2.40203E-05-2.71603E-05 1.01291E-05 8.08809E-19 2.10295E-19
 -1      3757 8.60951E-05-2.24288E-05-2.72687E-05 7.98601E-06 7.15276E-19-4.97584E-20
 -1      3758 8.67387E-05-2.44365E-05-2.67266E-05 1.14396E-05 9.86453E-19 4.63529E-19
 -1      3759 8.71022E-05-2.54854E-05-2.63600E-05 1.27788E-05 9.73468E-19 7.05677E-19
 -1      3760 8.45623E-05-2.27336E-05-2.64797E-05 1.02047E-05 7.74901E-19 1.27426E-19
 -1      3761 8.65692E-05-2.65015E-05-2.57744E-05 1.45179E-05 6.97550E-19 1.22681E-18
 -1      3762 8.75716E-05-2.85324E-05-2.53191E-05 1.64417E-05 5.30951E-19 1.27935E-18
 -1      3763 8.33048E-05-2.40578E-05-2.54237E-05 1.34298E-05 1.01778E-18 5.55718E-19
 -1      3764 9.25540E-05-2.51302E-05-2.88920E-05-2.49109E-06-3.45311E-19 9.48466E-19
 -1      3765 9.63351E-05-2.75844E-05-2.94613E-05 5.94875E-07-6.15130E-19-7.20144E-19
 -1      3766 9.63063E-05-2.78318E-05-2.93492E-05 8.39977E-07-7.32262E-19-5.18520E-19
 -1      3767 9.63549E-05-2.78117E-05-2.93747E-05 7.82333E-07-5.30840E-19-6.22000E-19
 -1      3768 1.11081E-04-5.07852E-05-2.59294E-05 2.07361E-05-7.51530E-19 6.29822E-19
 -1      3769 9.03199E-05-3.16405E-05-2.50241E-05-1.83490E-05-6.84757E-19 5.82982E-19
 -1      3770 8.81526E-05-2.88803E-05-2.54077E-05-1.66583E-05-7.70286E-19 2.08154E-19
 -1      3771 8.82526E-05-2.73253E-05-2.60310E-05-1.44758E-05-1.23726E-18-1.69541E-19
 -1      3772 8.73407E-05-2.57823E-05-2.64065E-05-1.30795E-05-1.04043E-18 5.89892E-19
 -1      3773 8.37895E-05-2.57545E-05-2.48832E-05-1.58984E-05-9.94049E-19 4.23614E-19
 -1      3774 8.78393E-05-2.49759E-05-2.68967E-05-1.15013E-05-1.58899E-19-6.68039E-20
 -1      3775 8.76287E-05-2.41956E-05-2.72084E-05-1.03903E-05 2.26461E-19 5.51241E-19
 -1      3776 8.45055E-05-2.35931E-05-2.60810E-05-1.20179E-05-9.53798E-19-1.65046E-19
 -1      3777 8.82964E-05-2.38953E-05-2.75755E-05-9.25181E-06-5.13717E-19 5.21065E-19
 -1      3778 8.84386E-05-2.35939E-05-2.78114E-05-8.36858E-06-1.13159E-18 2.79681E-19
 -1      3779 8.57657E-05-2.27382E-05-2.69917E-05-9.27214E-06-6.19538E-20-1.53914E-18
 -1      3780 8.91490E-05-2.36060E-05-2.80759E-05-7.52266E-06-1.37598E-18 3.36556E-19
 -1      3781 8.94511E-05-2.35920E-05-2.82429E-05-6.80895E-06-1.13661E-18-1.16034E-19
 -1      3782 8.71811E-05-2.26156E-05-2.76554E-05-7.33299E-06-1.16764E-18-2.09478E-19
 -1      3783 9.01288E-05-2.37796E-05-2.84275E-05-6.15604E-06-1.05063E-18-6.29766E-19
 -1      3784 9.04882E-05-2.39280E-05-2.85392E-05-5.56553E-06-9.45998E-19-3.88405E-19
 -1      3785 8.85831E-05-2.29212E-05-2.81266E-05-5.90159E-06-9.19626E-19 1.35347E-19
 -1      3786 9.11061E-05-2.42086E-05-2.86642E-05-5.03280E-06-8.20225E-19-9.35131E-19
 -1      3787 9.14623E-05-2.44260E-05-2.87320E-05-4.55445E-06-1.23850E-18-9.27104E-19
 -1      3788 8.98665E-05-2.34526E-05-2.84527E-05-4.78599E-06-1.12085E-18-8.10842E-19
 -1      3789 9.17839E-05-2.48856E-05-2.86627E-05-5.75867E-06-5.86644E-19 2.44968E-19
 -1      3790 9.20202E-05-2.50487E-05-2.87138E-05-5.25346E-06-5.95815E-19 2.83743E-19
 -1      3791 9.04923E-05-2.41326E-05-2.84315E-05-5.65483E-06-2.93994E-19-4.66583E-19
 -1      3792 9.16174E-05-3.48057E-05-2.42541E-05-2.13301E-05-2.56942E-19 9.36868E-19
 -1      3793 9.24967E-05-2.53261E-05-2.87815E-05-4.79364E-06-6.32723E-19 2.90668E-19
 -1      3794 9.27450E-05-2.55566E-05-2.88051E-05-4.37027E-06-6.40608E-19 4.28364E-19
 -1      3795 9.14716E-05-2.46657E-05-2.86232E-05-4.66421E-06-5.80851E-19 5.96545E-19
 -1      3796 9.05764E-05-2.48237E-05-2.81609E-05-8.34763E-06-6.10436E-19-3.40787E-19
 -1      3797 9.06127E-05-2.46158E-05-2.82989E-05-7.64032E-06-8.08335E-19-1.88348E-19
 -1      3798 8.94899E-05-2.38180E-05-2.81377E-05-6.89828E-06-3.79910E-19-9.33758E-19
 -1      3799 9.04202E-05-2.56395E-05-2.77333E-05-1.00920E-05-3.27711E-19-6.60730E-19
 -1      3800 9.01711E-05-2.50457E-05-2.79253E-05-9.25603E-06-2.37100E-19-2.77582E-19
 -1      3801 8.85665E-05-2.39003E-05-2.77104E-05-8.49074E-06-2.64577E-19-9.53379E-19
 -1      3802 9.10074E-05-2.74807E-05-2.71777E-05-1.22341E-05-1.94654E-19-3.86618E-19
 -1      3803 9.02383E-05-2.62908E-05-2.74165E-05-1.12645E-05-2.34773E-19-7.89440E-19
 -1      3804 8.79166E-05-2.46496E-05-2.71202E-05-1.05790E-05-1.72884E-19-1.18799E-18
 -1      3805 9.29340E-05-3.08517E-05-2.65352E-05-1.47779E-05-8.58693E-19-6.03695E-19
 -1      3806 9.13012E-05-2.88006E-05-2.67814E-05-1.37440E-05-4.88910E-19-3.25565E-19
 -1      3807 8.78959E-05-2.64695E-05-2.63497E-05-1.33517E-05-5.88020E-19-7.20429E-19
 -1      3808 9.72891E-05-3.64044E-05-2.59841E-05-1.74063E-05-5.37684E-19-1.61407E-18
 -1      3809 9.41975E-05-3.31867E-05-2.61006E-05-1.66208E-05-5.95261E-19-1.24956E-18
 -1      3810 8.91992E-05-2.99460E-05-2.54211E-05-1.69887E-05-4.17468E-19-9.14894E-19
 -1      3811 9.77836E-05-3.90168E-05-2.50595E-05-2.04169E-05-6.75112E-19-2.12656E-18
 -1      3812 9.12044E-05-2.84124E-05-2.69151E-05 1.33638E-05-1.77925E-18 3.87741E-18
 -1      3813 9.26583E-05-3.03177E-05-2.66610E-05 1.43955E-05-1.49186E-18 2.89578E-18
 -1      3814 9.57508E-05-3.72115E-05-2.50906E-05 1.99099E-05-2.62417E-18 4.70219E-19
 -1      3815 9.02893E-05-2.60724E-05-2.75340E-05 1.09577E-05-9.43883E-19 5.79685E-18
 -1      3816 9.09723E-05-2.71701E-05-2.73004E-05 1.19026E-05-1.01562E-18 4.81453E-18
 -1      3817 8.79786E-05-2.61524E-05-2.65079E-05 1.29065E-05-2.01259E-18 3.62805E-18
 -1      3818 9.02906E-05-2.49279E-05-2.80269E-05 8.99896E-06-1.00540E-18 3.84684E-18
 -1      3819 9.04984E-05-2.54728E-05-2.78404E-05 9.82183E-06-6.54968E-19 4.48794E-18
 -1      3820 8.80801E-05-2.44980E-05-2.72542E-05 1.02574E-05-1.52326E-19 3.83750E-18
 -1      3821 9.07473E-05-2.45386E-05-2.83892E-05 7.40809E-06-9.62661E-19 1.54236E-18
 -1      3822 9.06965E-05-2.47289E-05-2.82549E-05 8.11328E-06-9.65253E-19 2.48585E-18
 -1      3823 8.87538E-05-2.38215E-05-2.78242E-05 8.23843E-06-8.29377E-20 9.51998E-19
 -1      3824 9.13994E-05-2.46036E-05-2.86395E-05 6.09604E-06 1.99680E-19 9.12769E-19
 -1      3825 9.12248E-05-2.45819E-05-2.85505E-05 6.70171E-06-5.52818E-19 1.65501E-18
 -1      3826 8.96615E-05-2.37532E-05-2.82388E-05 6.67565E-06-9.66416E-19-3.23043E-19
 -1      3827 9.20957E-05-2.49150E-05-2.88028E-05 4.99755E-06 7.94128E-19 6.88062E-19
 -1      3828 9.18762E-05-2.47793E-05-2.87488E-05 5.52068E-06 7.69838E-19 8.28815E-19
 -1      3829 9.06241E-05-2.40387E-05-2.85282E-05 5.43473E-06 4.18884E-19 7.40781E-19
 -1      3830 9.27544E-05-2.53359E-05-2.89035E-05 4.07492E-06 2.10367E-18-7.16578E-19
 -1      3831 9.25368E-05-2.51528E-05-2.88740E-05 4.51966E-06 1.47937E-18 2.88934E-19
 -1      3832 9.15417E-05-2.45030E-05-2.87230E-05 4.42191E-06 1.54682E-18 1.09989E-18
 -1      3833 8.46006E-05-3.02688E-05-2.33271E-05-2.14715E-05-4.01666E-19-6.70069E-19
 -1      3834 9.48312E-05-2.74221E-05-2.88864E-05-2.42166E-06 1.10496E-19-5.77444E-20
 -1      3835 9.50000E-05-2.76095E-05-2.88857E-05-2.23900E-06 1.68688E-19 2.50505E-20
 -1      3836 9.51759E-05-2.43436E-05-3.03496E-05 2.78833E-06 8.15253E-19-7.61391E-19
 -1      3837 9.54261E-05-2.49751E-05-3.01863E-05 1.98781E-06 6.80361E-19-5.93416E-19
 -1      3838 9.62386E-05-2.67950E-05-2.97574E-05 2.32671E-08-4.16342E-19-6.95153E-19
 -1      3839 9.62961E-05-2.72364E-05-2.96025E-05 3.67794E-07-5.04049E-19-6.78901E-19
 -1      3840 9.63779E-05-2.72511E-05-2.96238E-05 3.83168E-07-6.28304E-19-5.19037E-19
 -1      3841 9.50883E-05-2.35822E-05-3.06338E-05 1.99024E-06 6.10133E-19-3.21752E-19
 -1      3842 9.44683E-05-2.22329E-05-3.09747E-05 2.49068E-06 4.87195E-19-5.42288E-19
 -1      3843 9.42525E-05-2.17352E-05-3.10838E-05 2.07307E-06 3.69629E-19-6.02940E-19
 -1      3844 9.31777E-05-2.58638E-05-2.88441E-05-3.99902E-06-5.39187E-19 2.61123E-19
 -1      3845 9.34150E-05-2.61185E-05-2.88500E-05-3.64895E-06-1.14580E-19 9.16753E-20
 -1      3846 9.23772E-05-2.52979E-05-2.87414E-05-3.86737E-06-6.93000E-19 1.07324E-18
 -1      3847 9.23439E-05-2.49679E-05-2.88822E-05 1.39089E-06 1.18116E-18-3.18205E-19
 -1      3848 9.25921E-05-2.51556E-05-2.88990E-05 1.83613E-06 1.05654E-18-1.80607E-18
 -1      3849 9.18681E-05-2.46092E-05-2.88190E-05 1.22777E-06 1.23844E-19-1.28715E-18
 -1      3850 9.61941E-05-2.72184E-05-2.95666E-05-3.19141E-07 8.04462E-20-3.12920E-20
 -1      3851 9.61417E-05-2.67720E-05-2.97244E-05 7.17035E-08 2.24372E-19-1.64280E-19
 -1      3852 9.45021E-05-2.20325E-05-3.10404E-05 3.13813E-09-1.43757E-19-1.05071E-18
 -1      3853 9.37997E-05-2.08040E-05-3.12959E-05-2.13539E-07-1.82217E-19-1.10462E-18
 -1      3854 9.31792E-05-2.56461E-05-2.89463E-05 3.28662E-06 2.53013E-18-1.55773E-18
 -1      3855 9.30107E-05-2.54815E-05-2.89335E-05 3.71844E-06 2.50746E-18-1.50590E-18
 -1      3856 9.22016E-05-2.49148E-05-2.88310E-05 3.62234E-06 2.39425E-18-7.67831E-19
 -1      3857 9.26835E-05-2.52749E-05-2.88961E-05 2.99581E-06 1.94997E-18-1.17058E-18
 -1      3858 7.90746E-05-2.59425E-05-2.26515E-05 1.96098E-05-9.46625E-21 1.27703E-18
 -1      3859 7.23879E-05-2.12715E-05-2.18442E-05 1.62367E-05 4.96623E-20 1.10309E-18
 -1      3860 9.61023E-05-2.81309E-05-2.91316E-05-1.25378E-06-1.29622E-19-2.02118E-19
 -1      3861 9.61713E-05-2.80151E-05-2.92070E-05-1.05682E-06-1.82172E-19-2.55343E-19
 -1      3862 7.43815E-05-2.51624E-05-2.09375E-05-2.15283E-05 3.50053E-19-1.26001E-18
 -1      3863 8.49882E-05-3.20493E-05-2.26736E-05-2.31003E-05 8.05542E-20-1.86472E-18
 -1      3864 9.62179E-05-2.78328E-05-2.93110E-05-8.65292E-07-9.17531E-20-2.54587E-19
 -1      3865 9.62407E-05-2.75764E-05-2.94229E-05-5.90295E-07 3.97730E-20-1.67202E-20
 -1      3866 9.63007E-05-2.78126E-05-2.93519E-05-8.33698E-07-1.03189E-19-1.73152E-19
 -1      3867 9.58701E-05-2.55140E-05-3.01504E-05-7.68343E-07-3.86775E-19-8.00884E-19
 -1      3868 9.60591E-05-2.62083E-05-2.99432E-05-2.93369E-07-3.52602E-19-6.56203E-19
 -1      3869 9.61658E-05-2.62615E-05-2.99546E-05-1.66710E-07-3.44739E-19-6.25991E-19
 -1      3870 6.51111E-05-1.57737E-05-2.11453E-05-6.25999E-06-1.04225E-18-2.38203E-18
 -1      3871 6.95410E-05-1.91954E-05-2.15677E-05-1.40723E-05 1.58422E-20-2.30768E-18
 -1      3872 7.69293E-05-2.43862E-05-2.25006E-05-1.83748E-05-4.49477E-19-1.69721E-18
 -1      3873 9.61663E-05-3.50922E-05-2.61348E-05 1.67756E-05-1.34608E-18 7.84046E-19
 -1      3874 8.87419E-05-3.22410E-05-2.41212E-05 2.07127E-05-2.33388E-18 1.00665E-18
 -1      3875 8.38786E-05-2.79926E-05-2.40187E-05 1.84151E-05-1.01373E-18 3.91597E-19
 -1      3876 9.33539E-05-3.20065E-05-2.62816E-05 1.58849E-05-9.81134E-19 1.90813E-18
 -1      3877 9.54883E-05-2.48936E-05-3.02488E-05 1.66860E-06 5.25706E-19-4.43552E-19
 -1      3878 9.21827E-05-2.48918E-05-2.88444E-05-2.78553E-06-1.17933E-18-5.59365E-20
 -1      3879 9.16524E-05-2.44844E-05-2.87879E-05-2.04186E-06-2.97292E-19 3.49935E-18
 -1      3880 9.19887E-05-2.47222E-05-2.88209E-05-3.15226E-06-1.82928E-18-1.94867E-19
 -1      3881 8.53957E-05-2.80077E-05-2.46040E-05 1.73698E-05 3.72281E-19 1.06743E-18
 -1      3882 8.72502E-05-3.08603E-05-2.41218E-05 1.94563E-05-3.99766E-19 5.61927E-19
 -1      3883 9.47930E-05-2.27387E-05-3.08653E-05 1.47724E-06 2.86282E-19-5.54485E-19
 -1      3884 9.11076E-05-2.40905E-05-2.87245E-05-2.75137E-07 5.35151E-19 3.97511E-19
 -1      3885 9.11199E-05-2.41039E-05-2.87245E-05 3.55913E-07 8.43485E-19-5.86394E-19
 -1      3886 9.56054E-05-2.81629E-05-2.89050E-05-1.90710E-06 2.86172E-19-1.48284E-19
 -1      3887 9.50524E-05-2.75825E-05-2.89141E-05-1.98077E-06 9.40126E-20 1.76539E-20
 -1      3888 9.52471E-05-2.78020E-05-2.89024E-05-2.09277E-06 2.02683E-19 1.59061E-20
 -1      3889 9.53935E-05-2.79387E-05-2.89116E-05-1.94001E-06 3.20013E-19-1.68116E-19
 -1      3890 9.13645E-05-2.43198E-05-2.87289E-05-3.92146E-06-1.58882E-18-1.65594E-19
 -1      3891 9.15657E-05-2.44737E-05-2.87599E-05-3.50323E-06-1.97475E-18-1.05203E-18
 -1      3892 9.08144E-05-2.39263E-05-2.86642E-05-2.64657E-06-1.93810E-18 1.43904E-18
 -1      3893 9.58889E-05-2.81910E-05-2.90127E-05-1.55105E-06 9.42935E-20-2.36802E-19
 -1      3894 9.59894E-05-2.81817E-05-2.90595E-05-1.39689E-06 7.88427E-21-2.23635E-19
 -1      3895 9.61427E-05-2.80793E-05-2.91704E-05-1.18091E-06 3.82654E-21 5.99178E-20
 -1      3896 9.49931E-05-2.31146E-05-3.08147E-05 1.83799E-07-1.80814E-19-1.02217E-18
 -1      3897 9.49949E-05-2.31094E-05-3.08164E-05-1.77643E-07-1.88183E-19-1.13721E-18
 -1      3898 9.06278E-05-3.48127E-05-2.39097E-05-2.20807E-05-2.91551E-19-2.30237E-18
 -1      3899 9.24919E-05-2.50906E-05-2.88808E-05 2.26030E-06 1.87891E-18-1.66013E-18
 -1      3900 9.59826E-05-2.62859E-05-2.98774E-05 4.00657E-07 3.35000E-19-2.07779E-19
 -1      3901 9.58449E-05-2.57363E-05-3.00444E-05 8.76960E-07 3.51716E-19-3.12173E-19
 -1      3902 9.61003E-05-2.63113E-05-2.99077E-05 2.50711E-07 1.82145E-19 5.49703E-20
 -1      3903 6.32595E-05-1.49354E-05-2.06830E-05 2.11572E-06-1.47337E-20-1.84362E-18
 -1      3904 5.99827E-05-1.39930E-05-1.94627E-05-2.32664E-06-2.56676E-19-1.85621E-18
 -1      3905 6.32695E-05-1.55512E-05-2.03996E-05-6.43405E-06-2.08380E-19-2.12419E-18
 -1      3906 7.66360E-05-2.21404E-05-2.32488E-05-1.44318E-05-4.03849E-19-1.92986E-18
 -1      3907 9.45414E-05-2.71788E-05-2.88753E-05-2.60586E-06 3.74274E-19 1.63915E-19
 -1      3908 9.45201E-05-2.71252E-05-2.88808E-05-2.30617E-06 4.61606E-19-4.33326E-19
 -1      3909 9.43496E-05-2.69538E-05-2.88803E-05-2.83363E-06 3.40583E-19 2.67460E-20
 -1      3910 6.97719E-05-1.89975E-05-2.16637E-05 1.34811E-05 4.51399E-19 4.09289E-20
 -1      3911 6.76477E-05-1.70632E-05-2.16927E-05 8.94744E-06 4.48557E-19-1.11346E-18
 -1      3912 7.52688E-05-2.12039E-05-2.32119E-05 1.35438E-05 4.25009E-19 6.72107E-19
 -1      3913 7.65299E-05-2.25894E-05-2.31335E-05 1.53760E-05-1.83766E-18-5.66850E-20
 -1      3914 7.04407E-05-1.95794E-05-2.16327E-05 1.41647E-05-2.03827E-18-7.61036E-19
 -1      3915 7.06607E-05-1.82201E-05-2.25004E-05 1.01468E-05-1.73870E-18-1.43706E-18
 -1      3916 6.83605E-05-1.88204E-05-2.12464E-05-1.33915E-05 7.31476E-19-1.85547E-18
 -1      3917 7.08921E-05-2.17431E-05-2.09423E-05-1.83072E-05 7.58849E-19-1.37513E-18
 -1      3918 7.73844E-05-2.41318E-05-2.27086E-05-1.73009E-05 5.62999E-19-1.25101E-18
 -1      3919 9.53313E-05-2.40930E-05-3.05316E-05-1.51564E-06-3.31574E-19-9.83949E-19
 -1      3920 9.55920E-05-2.48310E-05-3.03316E-05-1.06878E-06-3.30506E-19-7.77715E-19
 -1      3921 9.57062E-05-2.49273E-05-3.03277E-05-7.88901E-07-3.20359E-19-5.45202E-19
 -1      3922 9.56384E-05-2.51453E-05-3.02126E-05 1.16936E-06 4.81860E-19-2.65097E-19
 -1      3923 9.53838E-05-2.43646E-05-3.04436E-05 1.66249E-06 6.79944E-19-1.43872E-19
 -1      3924 9.52390E-05-2.38737E-05-3.05834E-05 1.49478E-06 3.95886E-19-1.46742E-19
 -1      3925 9.57476E-05-2.52027E-05-3.02314E-05 8.94668E-07 3.27044E-19-8.31861E-21
 -1      3926 9.63010E-05-2.72208E-05-2.96047E-05-3.59094E-07 1.88230E-20 8.48319E-20
 -1      3927 9.36990E-05-2.06009E-05-3.13304E-05-7.30432E-07-2.37780E-19-1.08218E-18
 -1      3928 6.56448E-05-1.50866E-05-2.14896E-05-2.04927E-06-6.88062E-19-3.15721E-18
 -1      3929 6.97409E-05-1.67436E-05-2.27307E-05-5.30717E-06-1.31793E-19-2.99576E-18
 -1      3930 6.76391E-05-1.59707E-05-2.21896E-05 2.61009E-06-9.73287E-19-2.70237E-18
 -1      3931 8.88688E-05-2.89589E-05-2.56723E-05 1.60189E-05-2.20365E-18 1.32526E-18
 -1      3932 9.13920E-05-2.43016E-05-2.87576E-05-1.46925E-06 4.63246E-19 2.69068E-18
 -1      3933 9.12039E-05-2.41634E-05-2.87361E-05-8.82604E-07 2.05925E-19 1.60109E-18
 -1      3934 9.06371E-05-2.37716E-05-2.86538E-05-5.66905E-07 9.74042E-19 3.40697E-19
 -1      3935 9.09967E-05-2.40211E-05-2.86989E-05-1.73671E-06 6.46595E-19 1.81487E-18
 -1      3936 8.52977E-05-2.97848E-05-2.38410E-05-1.98562E-05 9.66743E-20-1.67090E-18
 -1      3937 9.31881E-05-2.59512E-05-2.88104E-05-3.22504E-06-2.29123E-19 5.25075E-19
 -1      3938 9.37987E-05-2.64234E-05-2.88711E-05-3.35289E-06-7.12445E-20 4.76451E-20
 -1      3939 9.40141E-05-2.66722E-05-2.88680E-05-3.06841E-06-1.17212E-19-8.73193E-22
 -1      3940 9.45510E-05-2.23656E-05-3.09429E-05-2.26393E-06-3.85709E-19-1.03219E-18
 -1      3941 9.49841E-05-2.33388E-05-3.07090E-05-1.76648E-06-3.29411E-19-1.03210E-18
 -1      3942 9.51350E-05-2.35483E-05-3.06813E-05-1.36087E-06-3.05475E-19-7.37931E-19
 -1      3943 9.43375E-05-2.18626E-05-3.10537E-05-1.89655E-06-3.35756E-19-8.08649E-19
 -1      3944 9.35153E-05-2.02953E-05-3.13955E-05-1.16047E-06-2.88517E-19-1.20777E-18
 -1      3945 9.34873E-05-2.02278E-05-3.14035E-05-1.73381E-06-3.09928E-19-1.00636E-18
 -1      3946 9.40244E-05-2.11962E-05-3.12082E-05-1.66960E-06-3.04315E-19-9.93679E-19
 -1      3947 9.43506E-05-2.17370E-05-3.11002E-05-7.84985E-07-2.56786E-19-1.04036E-18
 -1      3948 9.50824E-05-2.33545E-05-3.07503E-05 7.69589E-07 6.92829E-20-7.17033E-19
 -1      3949 9.50200E-05-2.31850E-05-3.07934E-05 4.44034E-07-8.71634E-20-7.74344E-19
 -1      3950 9.55026E-05-2.41058E-05-3.05816E-05 2.19422E-07-1.44148E-19-9.77650E-19
 -1      3951 9.59578E-05-2.80040E-05-2.91240E-05 1.03097E-06-5.94741E-20-6.00098E-19
 -1      3952 9.57636E-05-2.79344E-05-2.90697E-05 1.14602E-06-1.37945E-19-5.79331E-19
 -1      3953 9.55043E-05-2.78025E-05-2.90172E-05 1.22326E-06-2.29781E-19-5.10942E-19
 -1      3954 9.52585E-05-2.76382E-05-2.89797E-05 1.33844E-06-2.94737E-19-5.02931E-19
 -1      3955 9.56312E-05-2.77985E-05-2.90691E-05 9.33469E-07-1.98414E-19-2.26084E-19
 -1      3956 9.49354E-05-2.74167E-05-2.89400E-05 1.42534E-06-4.98565E-19-3.54081E-19
 -1      3957 9.46394E-05-2.71755E-05-2.89126E-05 1.55544E-06-6.26527E-19-2.45760E-19
 -1      3958 9.50538E-05-2.74409E-05-2.89741E-05 1.09255E-06-4.01649E-19-1.66879E-19
 -1      3959 9.42518E-05-2.68800E-05-2.88785E-05 1.66171E-06-3.43271E-19-2.30217E-19
 -1      3960 9.39019E-05-2.65752E-05-2.88539E-05 1.81851E-06 7.30423E-20-1.18470E-19
 -1      3961 9.43499E-05-2.69128E-05-2.88973E-05 1.27417E-06-2.52333E-19-5.06824E-20
 -1      3962 9.34427E-05-2.62173E-05-2.88174E-05 1.95356E-06 1.52724E-19-3.97147E-19
 -1      3963 9.30331E-05-2.58618E-05-2.87876E-05 2.14763E-06 9.79606E-20-3.16657E-19
 -1      3964 9.35116E-05-2.62424E-05-2.88235E-05 1.49403E-06 5.89320E-20-3.53089E-20
 -1      3965 9.24929E-05-2.54539E-05-2.87395E-05 2.31910E-06 2.69122E-19-4.98952E-19
 -1      3966 9.20157E-05-2.50603E-05-2.86955E-05 2.55963E-06 5.45576E-19-4.64185E-19
 -1      3967 9.25220E-05-2.54538E-05-2.87351E-05 1.77039E-06 2.15945E-19-8.23345E-19
 -1      3968 9.13812E-05-2.46155E-05-2.86249E-05 2.77830E-06 5.90793E-19-4.92524E-19
 -1      3969 9.08302E-05-2.42026E-05-2.85552E-05 3.07656E-06 5.34389E-19-2.68679E-19
 -1      3970 9.13587E-05-2.45728E-05-2.86118E-05 2.11447E-06 5.12085E-19-6.66787E-19
 -1      3971 9.00865E-05-2.37397E-05-2.84485E-05 3.35387E-06 5.18465E-19-1.63649E-19
 -1      3972 8.94571E-05-2.33324E-05-2.83395E-05 3.72536E-06 3.31981E-19-3.93755E-20
 -1      3973 8.99956E-05-2.36289E-05-2.84286E-05 2.55073E-06 4.61196E-19-5.57628E-19
 -1      3974 8.85840E-05-2.28754E-05-2.81794E-05 4.08201E-06 6.88323E-20-1.60877E-20
 -1      3975 8.78773E-05-2.25094E-05-2.80141E-05 4.55345E-06 2.03619E-19 8.09585E-20
 -1      3976 8.83967E-05-2.26601E-05-2.81544E-05 3.10480E-06 3.39900E-19-1.43681E-19
 -1      3977 8.68491E-05-2.20913E-05-2.77785E-05 5.02567E-06 2.26726E-19 1.19819E-19
 -1      3978 8.60760E-05-2.18177E-05-2.75356E-05 5.64429E-06 4.12732E-19 1.47178E-19
 -1      3979 8.65170E-05-2.17131E-05-2.77492E-05 3.82939E-06 2.67423E-19-9.35665E-21
 -1      3980 8.48553E-05-2.14830E-05-2.71951E-05 6.29571E-06 6.47450E-19-2.03981E-19
 -1      3981 8.40417E-05-2.13737E-05-2.68484E-05 7.14342E-06 7.35874E-19-4.91129E-19
 -1      3982 8.42945E-05-2.08473E-05-2.71600E-05 4.81766E-06 3.59858E-19-6.18833E-19
 -1      3983 8.25758E-05-2.11905E-05-2.63625E-05 8.08687E-06 9.26578E-19-2.41519E-19
 -1      3984 8.19296E-05-2.13989E-05-2.59182E-05 9.25778E-06 1.19797E-18 5.07062E-21
 -1      3985 8.16517E-05-2.01398E-05-2.63147E-05 6.24381E-06 1.04140E-18-5.98546E-19
 -1      3986 9.52070E-05-2.37330E-05-3.06403E-05 1.27858E-06 3.06700E-19-3.69590E-19
 -1      3987 9.50948E-05-2.34065E-05-3.07277E-05 1.00389E-06 1.30864E-19-5.62704E-19
 -1      3988 9.55266E-05-2.42428E-05-3.05351E-05 6.32063E-07 1.89278E-19-5.20838E-19
 -1      3989 9.55244E-05-2.44408E-05-3.04567E-05 1.01015E-06 3.48252E-19-2.10361E-19
 -1      3990 9.56004E-05-2.80683E-05-2.89405E-05-1.81524E-06 2.35614E-19-1.58136E-19
 -1      3991 9.57248E-05-2.81406E-05-2.89655E-05-1.67378E-06 1.36114E-19-2.72506E-19
 -1      3992 9.55015E-05-2.79156E-05-2.89648E-05-1.70875E-06 2.14638E-19-1.96998E-19
 -1      3993 7.70995E-05-2.10747E-05-2.40387E-05-1.22584E-05-1.39010E-18-1.89454E-18
 -1      3994 9.62826E-05-2.79766E-05-2.92739E-05 8.17615E-07-4.73686E-19-3.91277E-19
 -1      3995 9.61475E-05-2.80252E-05-2.91962E-05 9.50681E-07-3.48081E-19-4.25163E-19
 -1      3996 9.60770E-05-2.79475E-05-2.91966E-05 7.76354E-07-2.97460E-19-7.48694E-20
 -1      3997 9.03703E-05-2.36929E-05-2.85850E-05-3.63051E-06-1.47125E-18-1.78505E-19
 -1      3998 8.79676E-05-2.29606E-05-2.78504E-05-6.44736E-06-9.19798E-20-6.56894E-19
 -1      3999 8.84700E-05-2.30983E-05-2.80374E-05-5.79094E-06-9.32614E-20-4.68744E-19
 -1      4000 8.33299E-05-2.15264E-05-2.64838E-05-8.46841E-06-6.54742E-19-1.42852E-18
 -1      4001 8.40850E-05-2.14488E-05-2.68858E-05-7.41149E-06-8.83294E-19-2.19899E-18
 -1      4002 8.53623E-05-2.16629E-05-2.72928E-05-6.60350E-06-6.18022E-19-2.58221E-18
 -1      4003 8.61031E-05-2.18104E-05-2.75826E-05-5.85122E-06-5.29947E-19-1.37136E-18
 -1      4004 8.32815E-05-2.05702E-05-2.68336E-05-5.82044E-06-8.98184E-19-2.71084E-18
 -1      4005 8.71771E-05-2.21414E-05-2.78692E-05-5.26352E-06-2.11331E-19-1.23931E-18
 -1      4006 8.78678E-05-2.24122E-05-2.80726E-05-4.69464E-06-5.10898E-19-1.18736E-18
 -1      4007 8.55874E-05-2.12551E-05-2.75434E-05-4.54520E-06-1.62801E-19-2.90490E-18
 -1      4008 8.87756E-05-2.28069E-05-2.82725E-05-4.24586E-06-6.92731E-19-4.22287E-19
 -1      4009 8.94108E-05-2.31399E-05-2.84131E-05-3.80234E-06-9.14456E-19 1.22641E-19
 -1      4010 8.75426E-05-2.20620E-05-2.80426E-05-3.63403E-06 3.07489E-19-1.86962E-18
 -1      4011 8.92893E-05-2.34076E-05-2.82297E-05-5.23095E-06 7.93452E-21-2.45628E-19
 -1      4012 8.97986E-05-2.36735E-05-2.83556E-05-4.71466E-06 2.11598E-19 2.13617E-19
 -1      4013 8.79019E-05-2.25966E-05-2.79705E-05-4.78166E-06 3.08641E-19 3.50311E-20
 -1      4014 8.66288E-05-2.28690E-05-2.73074E-05-8.05898E-06-2.56630E-19-8.10309E-19
 -1      4015 8.70544E-05-2.27817E-05-2.75730E-05-7.20011E-06-3.92237E-19-7.56370E-19
 -1      4016 8.61758E-05-2.19965E-05-2.74843E-05-6.00214E-06-2.04327E-19-4.65081E-19
 -1      4017 9.05234E-05-2.40504E-05-2.84853E-05-4.28476E-06-5.58864E-21 3.49994E-19
 -1      4018 9.10043E-05-2.43803E-05-2.85659E-05-3.87092E-06-4.49357E-19 7.76379E-19
 -1      4019 8.94358E-05-2.33583E-05-2.83046E-05-3.86762E-06 1.33037E-19 4.17392E-19
 -1      4020 8.54252E-05-2.33781E-05-2.65574E-05-1.02649E-05-2.89209E-19-8.44057E-19
 -1      4021 8.56366E-05-2.29134E-05-2.69172E-05-9.10929E-06-4.72957E-20-7.83907E-19
 -1      4022 8.42653E-05-2.16923E-05-2.67925E-05-7.70079E-06-4.51893E-19-6.66201E-19
 -1      4023 8.45954E-05-2.48483E-05-2.55491E-05-1.33698E-05-6.63765E-19-4.36476E-19
 -1      4024 8.43954E-05-2.37879E-05-2.60196E-05-1.17764E-05-4.27780E-19-6.25354E-19
 -1      4025 8.22001E-05-2.18855E-05-2.58270E-05-1.01346E-05-4.01587E-19-7.05668E-19
 -1      4026 8.51623E-05-2.79191E-05-2.44593E-05-1.74167E-05 1.84769E-19-1.24789E-18
 -1      4027 8.41479E-05-2.58967E-05-2.50101E-05-1.52584E-05-2.99785E-19-1.05286E-18
 -1      4028 8.06801E-05-2.30503E-05-2.46806E-05-1.34570E-05 1.23643E-19-1.09016E-18
 -1      4029 8.03474E-05-2.55468E-05-2.34257E-05-1.78459E-05 4.19717E-19-1.21543E-18
 -1      4030 9.17284E-05-2.45601E-05-2.87910E-05 2.03363E-06 1.12524E-18-3.14134E-18
 -1      4031 9.21419E-05-2.48638E-05-2.88347E-05 2.49663E-06 2.31259E-18-2.98433E-18
 -1      4032 9.18740E-05-2.46796E-05-2.87990E-05 2.79241E-06 2.40276E-18-2.40477E-18
 -1      4033 8.59266E-05-2.28557E-05-2.70629E-05 8.82559E-06 1.00448E-18 4.23065E-19
 -1      4034 8.56627E-05-2.32644E-05-2.67114E-05 9.94309E-06-2.47211E-19 1.31517E-18
 -1      4035 8.73075E-05-2.27460E-05-2.76948E-05 6.98435E-06-1.01062E-18 6.63375E-19
 -1      4036 8.68849E-05-2.28241E-05-2.74381E-05 7.82140E-06 4.61489E-19 1.09974E-18
 -1      4037 8.46157E-05-2.17043E-05-2.69451E-05 7.45400E-06 3.08337E-19-9.46064E-19
 -1      4038 8.86771E-05-2.30508E-05-2.81457E-05 5.59679E-06-6.89473E-19-3.63726E-20
 -1      4039 8.81878E-05-2.29193E-05-2.79634E-05 6.24671E-06-1.19415E-18 1.40988E-19
 -1      4040 8.64591E-05-2.19870E-05-2.76121E-05 5.81519E-06-3.12284E-19 6.01032E-19
 -1      4041 8.99449E-05-2.35726E-05-2.84599E-05 4.51844E-06 5.29049E-19-1.44111E-19
 -1      4042 8.94590E-05-2.33343E-05-2.83344E-05 5.04350E-06 2.17406E-19-2.85720E-19
 -1      4043 8.81169E-05-2.25478E-05-2.80853E-05 4.62176E-06-4.32229E-19-9.00130E-19
 -1      4044 9.10606E-05-2.41836E-05-2.86728E-05 3.64933E-06 2.35085E-18-1.45169E-18
 -1      4045 9.06224E-05-2.39049E-05-2.85901E-05 4.08627E-06 1.45419E-18-9.60429E-19
 -1      4046 8.95716E-05-2.32429E-05-2.84171E-05 3.71029E-06 1.51259E-18-3.45100E-18
 -1      4047 8.56162E-05-2.71844E-05-2.50044E-05 1.60654E-05-2.56389E-18 5.44017E-19
 -1      4048 8.03232E-05-2.45687E-05-2.38055E-05 1.64271E-05-2.37466E-18 9.32216E-20
 -1      4049 7.83819E-05-2.22446E-05-2.41462E-05 1.34838E-05-3.02434E-18-7.80773E-19
 -1      4050 8.49222E-05-2.57572E-05-2.54317E-05 1.44545E-05-3.36980E-18 8.65625E-19
 -1      4051 9.64085E-05-2.69726E-05-2.97575E-05 1.82269E-07-4.59042E-19-8.35693E-19
 -1      4052 9.64509E-05-2.73641E-05-2.96124E-05 4.17536E-07-7.09648E-19-7.09825E-19
 -1      4053 9.64500E-05-2.76603E-05-2.94806E-05 5.48084E-07-6.40289E-19-4.56941E-19
 -1      4054 9.63900E-05-2.78593E-05-2.93726E-05 7.19686E-07-4.26751E-19-4.85315E-19
 -1      4055 9.64823E-05-2.74029E-05-2.96034E-05 3.64381E-07-5.23097E-19-6.16806E-19
 -1      4056 8.50918E-05-2.37595E-05-2.63355E-05 1.12497E-05-1.92367E-18 1.65300E-18
 -1      4057 8.52222E-05-2.47242E-05-2.58897E-05 1.27410E-05-2.85070E-18 1.23715E-18
 -1      4058 8.22219E-05-2.31247E-05-2.52760E-05 1.25940E-05-3.18669E-18-6.27752E-19
 -1      4059 8.30440E-05-2.19623E-05-2.61520E-05 9.65722E-06-1.03979E-18-2.34011E-18
 -1      4060 9.63915E-05-2.73181E-05-2.96076E-05-4.21290E-07 5.01507E-21-1.63227E-19
 -1      4061 9.63517E-05-2.69108E-05-2.97561E-05-1.39984E-07 3.10753E-20-1.77222E-19
 -1      4062 9.16393E-05-2.47812E-05-2.86512E-05-3.53530E-06-6.36804E-19 7.39417E-19
 -1      4063 9.20734E-05-2.51301E-05-2.87004E-05-3.20136E-06-5.30287E-19 7.75685E-19
 -1      4064 9.07847E-05-2.41908E-05-2.85287E-05-3.16222E-06-2.63767E-19 4.33424E-19
 -1      4065 9.12443E-05-2.41967E-05-2.87387E-05 9.29238E-07 1.71128E-19-1.24266E-18
 -1      4066 9.14462E-05-2.43477E-05-2.87593E-05 1.51624E-06 5.91041E-19-1.19759E-18
 -1      4067 9.10952E-05-2.40973E-05-2.87068E-05 1.74636E-06 5.71747E-19-2.56211E-18
 -1      4068 9.06998E-05-2.38104E-05-2.86588E-05 6.36209E-07 7.83666E-19-9.74632E-20
 -1      4069 9.54905E-05-2.40931E-05-3.05827E-05-2.20550E-07-2.76092E-19-1.08268E-18
 -1      4070 9.50147E-05-2.31944E-05-3.07943E-05-4.33930E-07-2.44478E-19-9.83565E-19
 -1      4071 9.60877E-05-2.58165E-05-3.01186E-05-3.20563E-07-2.88853E-19-9.03648E-19
 -1      4072 9.62695E-05-2.64487E-05-2.99284E-05 4.61205E-09-2.82654E-19-9.59008E-19
 -1      4073 9.63466E-05-2.65524E-05-2.99085E-05 5.66058E-08-3.37505E-19-1.17852E-18
 -1      4074 7.42407E-05-1.84959E-05-2.37812E-05-8.99499E-06-1.09977E-18-2.90687E-18
 -1      4075 8.04879E-05-2.16517E-05-2.52092E-05-1.09328E-05-1.41714E-18-1.29558E-18
 -1      4076 9.63639E-05-2.78558E-05-2.93633E-05-8.00438E-07-8.25688E-20-2.81633E-19
 -1      4077 9.64097E-05-2.76352E-05-2.94725E-05-5.97255E-07 1.83589E-20-2.18664E-19
 -1      4078 9.64431E-05-2.73421E-05-2.96119E-05-4.01044E-07 8.52258E-20-3.53746E-19
 -1      4079 8.94573E-05-2.30945E-05-2.84286E-05-3.09250E-06-1.33050E-18 8.89159E-19
 -1      4080 8.06642E-05-2.41171E-05-2.40821E-05 1.59008E-05 2.45578E-19 9.11090E-19
 -1      4081 7.67683E-05-1.93883E-05-2.45425E-05 8.88741E-06 1.31806E-18-1.40637E-20
 -1      4082 7.85233E-05-2.11171E-05-2.46242E-05 1.14033E-05 1.16383E-18 3.78078E-19
 -1      4083 9.62768E-05-2.64418E-05-2.99290E-05 1.00024E-08 1.03741E-19-2.06743E-19
 -1      4084 9.61822E-05-2.63552E-05-2.99338E-05 9.60000E-08 5.88335E-20-1.79731E-19
 -1      4085 9.62766E-05-2.79938E-05-2.92629E-05-9.26983E-07-9.72376E-20-2.47105E-19
 -1      4086 9.63748E-05-2.78345E-05-2.93730E-05-7.06440E-07-4.18174E-20-3.84452E-19
 -1      4087 9.61637E-05-2.80674E-05-2.91855E-05-1.08366E-06 1.66456E-19-4.14117E-19
 -1      4088 9.63726E-05-2.78382E-05-2.93703E-05 5.95339E-07-5.46814E-19-1.87660E-19
 -1      4089 8.11730E-05-2.11830E-05-2.57647E-05-9.39510E-06-7.06468E-19-1.76546E-18
 -1      4090 7.99461E-05-1.97945E-05-2.56988E-05-7.34426E-06-1.10791E-18-1.76459E-18
 -1      4091 9.48622E-05-2.73883E-05-2.89164E-05-1.78465E-06 2.33899E-19-3.42570E-19
 -1      4092 9.51102E-05-2.75946E-05-2.89385E-05-1.64145E-06 2.25468E-19-6.70311E-20
 -1      4093 9.60343E-05-2.58058E-05-3.00921E-05 4.42956E-07 1.92285E-19-2.55950E-19
 -1      4094 9.45203E-05-2.71259E-05-2.88875E-05-1.90788E-06 4.33499E-19-3.01618E-19
 -1      4095 9.45962E-05-2.71346E-05-2.89078E-05-1.56401E-06 4.46339E-19-4.00629E-19
 -1      4096 9.42270E-05-2.68590E-05-2.88705E-05-2.08121E-06 6.52381E-19-2.78807E-19
 -1      4097 7.78782E-05-2.19631E-05-2.38816E-05 1.34236E-05 7.36191E-19 9.06514E-19
 -1      4098 9.58682E-05-2.80948E-05-2.90460E-05-1.45596E-06 1.59740E-19-2.28570E-19
 -1      4099 9.39002E-05-2.65718E-05-2.88511E-05-2.71323E-06 2.17673E-19-1.61817E-22
 -1      4100 9.58034E-05-2.48825E-05-3.04013E-05-5.48347E-08-3.11233E-19-1.15025E-18
 -1      4101 9.58217E-05-2.49500E-05-3.03803E-05-2.43791E-07-3.70370E-19-9.63646E-19
 -1      4102 7.69584E-05-2.25169E-05-2.33802E-05-1.50084E-05 6.69771E-19-9.59622E-19
 -1      4103 6.72716E-05-1.61201E-05-2.18054E-05 5.86748E-06 3.21760E-19-1.54959E-18
 -1      4104 6.74016E-05-1.57737E-05-2.21531E-05 1.62220E-06 4.40398E-19-1.87589E-18
 -1      4105 7.14528E-05-1.76478E-05-2.31006E-05 7.82402E-06 7.60406E-19-6.41240E-19
 -1      4106 8.86542E-05-2.26109E-05-2.83149E-05-2.33041E-06-3.62616E-19-8.46651E-19
 -1      4107 8.96594E-05-2.32007E-05-2.84883E-05-2.24047E-06-2.23011E-18 2.66965E-19
 -1      4108 8.30513E-05-2.85316E-05-2.33507E-05 1.99181E-05-3.49924E-19 2.74015E-19
 -1      4109 6.75344E-05-1.70187E-05-2.15431E-05-9.48129E-06 6.09473E-19-2.31033E-18
 -1      4110 7.27236E-05-1.91222E-05-2.29151E-05-1.07998E-05 7.57845E-19-2.16533E-18
 -1      4111 6.76391E-05-1.60248E-05-2.21506E-05-4.83155E-06 5.40099E-19-2.73681E-18
 -1      4112 9.19673E-05-2.50296E-05-2.86765E-05-2.60778E-06-6.75534E-19 7.29912E-19
 -1      4113 9.26268E-05-2.55255E-05-2.87557E-05-2.93935E-06-3.95825E-19 5.58113E-19
 -1      4114 9.30044E-05-2.58645E-05-2.87851E-05-2.67474E-06-1.44760E-19 5.53683E-19
 -1      4115 9.00014E-05-2.33765E-05-2.85534E-05 4.52927E-07 1.28508E-18 3.16269E-20
 -1      4116 9.01362E-05-2.34748E-05-2.85721E-05 1.03262E-06 8.52767E-19-1.71115E-20
 -1      4117 9.48622E-05-2.28731E-05-3.08538E-05-7.95954E-07-3.45715E-19-9.93584E-19
 -1      4118 7.03316E-05-1.67169E-05-2.28357E-05 6.04846E-06-1.27972E-18-3.07897E-18
 -1      4119 7.14831E-05-1.67082E-05-2.35466E-05 1.97109E-06-3.32173E-19-3.56285E-18
 -1      4120 7.42582E-05-1.87839E-05-2.37892E-05 8.52601E-06-1.60075E-18-2.34706E-18
 -1      4121 7.34663E-05-1.76497E-05-2.39632E-05-5.16738E-06-3.87855E-19-2.39274E-18
 -1      4122 9.16066E-05-2.44976E-05-2.87596E-05 3.10969E-06 2.48556E-18-1.91019E-18
 -1      4123 9.07961E-05-2.39478E-05-2.86463E-05 2.76790E-06 2.10737E-18-3.68975E-18
 -1      4124 9.44747E-05-2.20892E-05-3.10143E-05-1.43071E-06-3.04415E-19-8.70724E-19
 -1      4125 9.58215E-05-2.49464E-05-3.03821E-05 2.27664E-07-5.34415E-20-7.02275E-19
 -1      4126 9.57975E-05-2.48786E-05-3.04015E-05 5.30125E-08-2.35428E-19-9.82006E-19
 -1      4127 9.61119E-05-2.55938E-05-3.02121E-05-1.41955E-08-2.97188E-19-8.94219E-19
 -1      4128 9.01240E-05-2.34822E-05-2.85624E-05-2.13644E-06-1.78820E-18 3.96499E-19
 -1      4129 9.05662E-05-2.37674E-05-2.86364E-05-1.82420E-06-9.41356E-20 1.07665E-18
 -1      4130 9.03532E-05-2.35904E-05-2.86050E-05-1.24588E-06 4.94451E-19 1.09477E-18
 -1      4131 8.94636E-05-2.30357E-05-2.84619E-05-1.42266E-06-1.32982E-18 5.14885E-19
 -1      4132 9.54872E-05-2.42078E-05-3.05408E-05-7.85259E-07-3.43453E-19-7.59867E-19
 -1      4133 9.57583E-05-2.49222E-05-3.03615E-05-4.98640E-07-3.38746E-19-8.90358E-19
 -1      4134 9.01970E-05-2.35012E-05-2.85882E-05-6.21019E-07 5.46079E-19 8.35734E-20
 -1      4135 8.96090E-05-2.31232E-05-2.84930E-05-2.43506E-07 5.03797E-19 1.26387E-19
 -1      4136 9.58730E-05-2.51293E-05-3.03184E-05-3.06741E-07-3.86932E-19-1.07045E-18
 -1      4137 9.51875E-05-2.75209E-05-2.90024E-05 7.20944E-07-3.12049E-19 1.20602E-19
 -1      4138 9.48641E-05-2.72932E-05-2.89598E-05 7.99547E-07-5.41260E-19 6.84093E-20
 -1      4139 9.44782E-05-2.70149E-05-2.89162E-05 8.41816E-07-3.58575E-19 2.90146E-19
 -1      4140 9.40896E-05-2.67088E-05-2.88789E-05 9.30923E-07-7.22944E-20 3.87858E-19
 -1      4141 9.46355E-05-2.70953E-05-2.89420E-05 4.61453E-07-2.75217E-19 3.86232E-19
 -1      4142 9.36285E-05-2.63556E-05-2.88361E-05 9.85503E-07-2.53900E-20 1.55760E-19
 -1      4143 9.31671E-05-2.59816E-05-2.87960E-05 1.09258E-06-7.48275E-20 8.01272E-20
 -1      4144 9.37935E-05-2.64532E-05-2.88543E-05 5.40132E-07-1.71606E-19 3.82350E-19
 -1      4145 9.26256E-05-2.55686E-05-2.87449E-05 1.15988E-06-1.75715E-19 3.30367E-20
 -1      4146 9.20782E-05-2.51399E-05-2.86924E-05 1.28569E-06 2.28211E-19-1.13233E-19
 -1      4147 9.28073E-05-2.56764E-05-2.87590E-05 6.38784E-07-1.71164E-19 4.79140E-19
 -1      4148 9.14321E-05-2.46683E-05-2.86226E-05 1.38506E-06 6.11203E-19-5.16880E-19
 -1      4149 9.07979E-05-2.41988E-05-2.85468E-05 1.54387E-06 5.43248E-19-2.97664E-19
 -1      4150 9.16061E-05-2.47480E-05-2.86342E-05 7.66008E-07 1.12208E-19-6.20799E-22
 -1      4151 9.00339E-05-2.36948E-05-2.84446E-05 1.66282E-06 4.03250E-19-3.92610E-19
 -1      4152 8.92901E-05-2.31983E-05-2.83312E-05 1.85768E-06 3.55641E-19-3.03626E-19
 -1      4153 9.02264E-05-2.37536E-05-2.84589E-05 9.11209E-07 4.13375E-19-4.81701E-19
 -1      4154 8.83811E-05-2.26684E-05-2.81804E-05 2.01341E-06 4.62791E-19-3.64492E-19
 -1      4155 8.75056E-05-2.21637E-05-2.80118E-05 2.25990E-06 6.08241E-19-2.78284E-21
 -1      4156 8.85782E-05-2.26797E-05-2.82019E-05 1.09417E-06 4.04117E-19-5.79927E-19
 -1      4157 8.64141E-05-2.16258E-05-2.77911E-05 2.46614E-06 3.42077E-19 1.32938E-19
 -1      4158 8.53793E-05-2.11345E-05-2.75442E-05 2.79138E-06 1.44664E-19-4.20108E-20
 -1      4159 8.66123E-05-2.15579E-05-2.78253E-05 1.33179E-06 3.88220E-19-5.25614E-19
 -1      4160 8.40428E-05-2.06027E-05-2.72243E-05 3.07433E-06 1.14430E-19 1.35874E-19
 -1      4161 8.28074E-05-2.01492E-05-2.68679E-05 3.52948E-06 4.12675E-19-1.73844E-19
 -1      4162 8.42333E-05-2.04064E-05-2.72780E-05 1.64968E-06 3.55888E-19-2.69963E-19
 -1      4163 8.11138E-05-1.96271E-05-2.64066E-05 3.93394E-06 7.33848E-19-3.37888E-19
 -1      4164 7.96271E-05-1.92310E-05-2.59047E-05 4.63560E-06 1.19026E-18-5.25241E-19
 -1      4165 8.12791E-05-1.92278E-05-2.64878E-05 2.09205E-06 6.32654E-19-5.21302E-19
 -1      4166 8.14417E-05-1.97444E-05-2.64680E-05-4.46299E-06-1.32543E-18-1.78965E-18
 -1      4167 8.27684E-05-2.01042E-05-2.68961E-05-3.81320E-06-1.10515E-18-1.94898E-18
 -1      4168 9.52160E-05-2.75966E-05-2.89773E-05-1.33754E-06 2.66808E-19-1.70136E-19
 -1      4169 9.53974E-05-2.77858E-05-2.89752E-05-1.53607E-06 1.87354E-19-8.45468E-20
 -1      4170 9.56049E-05-2.79213E-05-2.90092E-05-1.40774E-06 2.17794E-19-1.10162E-19
 -1      4171 9.02362E-05-2.35560E-05-2.85815E-05 1.65851E-06 1.46003E-18-2.24438E-18
 -1      4172 9.05276E-05-2.37625E-05-2.86170E-05 2.18466E-06 1.53606E-18-4.01785E-18
 -1      4173 8.99521E-05-2.34108E-05-2.85148E-05 2.71418E-06 2.22415E-18-3.96355E-18
 -1      4174 8.95422E-05-2.31020E-05-2.84709E-05 1.50133E-06 1.78657E-18-2.16109E-18
 -1      4175 8.21516E-05-2.06195E-05-2.63631E-05-6.59629E-06-2.63042E-19-2.85116E-19
 -1      4176 8.31659E-05-2.07864E-05-2.67820E-05-5.73087E-06-1.21749E-19-3.75974E-19
 -1      4177 8.42488E-05-2.05989E-05-2.72865E-05-3.45449E-06-7.06183E-19-2.14957E-18
 -1      4178 8.53239E-05-2.10247E-05-2.75876E-05-3.02599E-06 5.93204E-20-1.93523E-18
 -1      4179 8.28953E-05-1.98450E-05-2.69691E-05-2.14556E-06-8.01269E-19-2.07388E-18
 -1      4180 8.65057E-05-2.15119E-05-2.78626E-05-2.72927E-06 8.86609E-19-2.31284E-18
 -1      4181 8.74451E-05-2.19617E-05-2.80754E-05-2.39959E-06 7.72762E-19-2.09706E-18
 -1      4182 8.54004E-05-2.08485E-05-2.76312E-05-1.66456E-06 4.55227E-19-6.88162E-19
 -1      4183 8.66800E-05-2.19141E-05-2.77593E-05-3.98948E-06 5.85017E-19-6.39651E-19
 -1      4184 8.75059E-05-2.23084E-05-2.79655E-05-3.54320E-06 5.28039E-19-2.07382E-20
 -1      4185 7.93491E-05-2.04678E-05-2.51959E-05-8.86756E-06-1.39704E-19-1.24877E-18
 -1      4186 8.03760E-05-2.03761E-05-2.57869E-05-7.62816E-06-2.09414E-19-9.33607E-19
 -1      4187 7.96394E-05-1.91916E-05-2.57904E-05-5.36185E-06 3.11172E-19-1.43866E-18
 -1      4188 8.84801E-05-2.27837E-05-2.81585E-05-3.20022E-06 2.82884E-19-3.39297E-20
 -1      4189 8.92084E-05-2.32189E-05-2.82986E-05-2.85872E-06 2.85170E-19 2.30124E-19
 -1      4190 8.74500E-05-2.20949E-05-2.79657E-05-2.43956E-06 6.44040E-19-7.04760E-19
 -1      4191 7.77497E-05-2.14837E-05-2.40480E-05-1.25514E-05 4.75424E-19-1.54762E-18
 -1      4192 7.80203E-05-2.07616E-05-2.46459E-05-1.07624E-05 3.24259E-20-1.14502E-18
 -1      4193 7.65251E-05-1.88543E-05-2.45985E-05-7.85861E-06 1.72560E-19-1.89327E-18
 -1      4194 7.48071E-05-2.01094E-05-2.33628E-05-1.20756E-05 3.98372E-19-1.29588E-18
 -1      4195 8.77398E-05-2.22575E-05-2.80833E-05 3.41287E-06 2.78698E-19-2.69815E-18
 -1      4196 8.69364E-05-2.18893E-05-2.78811E-05 3.85867E-06-7.31587E-20-1.74971E-18
 -1      4197 8.58075E-05-2.14551E-05-2.76099E-05 4.33097E-06-6.45158E-19-6.11890E-20
 -1      4198 8.49404E-05-2.11707E-05-2.73225E-05 4.95644E-06-6.71613E-20 7.72748E-20
 -1      4199 8.55985E-05-2.10866E-05-2.76151E-05 3.05062E-06 1.00492E-18-1.53825E-18
 -1      4200 8.35762E-05-2.08125E-05-2.69344E-05 5.56604E-06-8.26202E-19-3.61076E-19
 -1      4201 8.25740E-05-2.06786E-05-2.65257E-05 6.43461E-06-9.58363E-19-2.30043E-18
 -1      4202 8.32494E-05-2.02679E-05-2.69573E-05 3.90637E-06-7.09154E-19-8.86198E-19
 -1      4203 8.78712E-05-2.21210E-05-2.81587E-05-1.48004E-06 2.92384E-19-2.26130E-18
 -1      4204 8.92556E-05-2.30259E-05-2.83934E-05 2.86435E-06 2.17324E-18-3.84512E-18
 -1      4205 8.85532E-05-2.26382E-05-2.82504E-05 3.23216E-06 7.89212E-19-3.62462E-18
 -1      4206 8.75480E-05-2.20280E-05-2.80683E-05 2.48455E-06 1.43592E-18-3.75252E-18
 -1      4207 8.90236E-05-2.28340E-05-2.83609E-05 2.25812E-06 2.08478E-18-3.75629E-18
 -1      4208 7.96596E-05-2.17358E-05-2.47989E-05 1.15510E-05-2.66177E-18-1.82401E-18
 -1      4209 7.65596E-05-1.98664E-05-2.41899E-05 1.04066E-05-1.84453E-18-2.11680E-18
 -1      4210 7.54537E-05-1.86014E-05-2.44748E-05 6.98069E-06-1.66440E-18-3.03785E-18
 -1      4211 7.98995E-05-2.10950E-05-2.52972E-05 9.99520E-06-1.80079E-18-2.40691E-18
 -1      4212 9.65093E-05-2.72108E-05-2.97007E-05 1.83019E-07-2.01275E-19-7.71363E-19
 -1      4213 9.65141E-05-2.75295E-05-2.95659E-05 3.18992E-07-2.43195E-19-4.65002E-19
 -1      4214 9.61537E-05-2.57935E-05-3.01487E-05-1.00921E-07-4.03642E-19-1.01430E-18
 -1      4215 9.58340E-05-2.80248E-05-2.90606E-05-1.31432E-06 8.21086E-20-3.78454E-19
 -1      4216 9.60001E-05-2.80691E-05-2.91129E-05-1.18048E-06 1.78627E-19-3.89959E-19
 -1      4217 9.61241E-05-2.79947E-05-2.91981E-05-9.42985E-07 1.62549E-19-4.13716E-19
 -1      4218 9.57282E-05-2.78953E-05-2.90703E-05-1.14291E-06 1.35983E-19 6.60045E-20
 -1      4219 9.64566E-05-2.77540E-05-2.94456E-05 3.59081E-07-3.35781E-19-2.30714E-19
 -1      4220 9.63515E-05-2.78841E-05-2.93442E-05 4.63426E-07-3.56340E-19-1.26253E-20
 -1      4221 9.64960E-05-2.75759E-05-2.95354E-05 1.87048E-07 2.34585E-20-3.43132E-19
 -1      4222 7.68814E-05-1.84780E-05-2.50798E-05-5.06934E-06-8.24845E-19-2.33599E-18
 -1      4223 7.92227E-05-1.90855E-05-2.58223E-05-4.54659E-06-1.35931E-18-2.19657E-18
 -1      4224 7.92962E-05-1.85989E-05-2.59339E-05-2.37385E-06-1.25920E-18-2.04351E-18
 -1      4225 9.00319E-05-2.37016E-05-2.84298E-05-2.60093E-06-1.50530E-19 4.90451E-19
 -1      4226 9.06697E-05-2.41458E-05-2.85230E-05-2.33161E-06-3.57917E-19 7.03296E-19
 -1      4227 8.92229E-05-2.31212E-05-2.82972E-05-1.95982E-06 2.07263E-19 1.62108E-19
 -1      4228 9.61946E-05-2.79398E-05-2.92532E-05 4.98223E-07-4.41884E-19 1.44091E-19
 -1      4229 9.60051E-05-2.79252E-05-2.91782E-05 5.79717E-07-2.79027E-19 7.18859E-20
 -1      4230 9.62835E-05-2.78634E-05-2.93207E-05 2.69782E-07-1.52430E-19 5.06116E-20
 -1      4231 9.57399E-05-2.50734E-05-3.02913E-05 7.34162E-07 2.99495E-19-2.12682E-19
 -1      4232 9.63287E-05-2.63402E-05-2.99970E-05-2.71752E-08-3.36590E-19-1.03445E-18
 -1      4233 9.64576E-05-2.68695E-05-2.98252E-05 1.36474E-07-3.30415E-19-1.00351E-18
 -1      4234 9.64835E-05-2.69809E-05-2.97831E-05 8.63464E-08-1.98971E-20-8.09626E-19
 -1      4235 9.62786E-05-2.61455E-05-3.00558E-05-1.36969E-08-3.90509E-19-8.98296E-19
 -1      4236 8.45888E-05-2.11641E-05-2.71831E-05-5.06581E-06-3.59738E-19-5.28783E-19
 -1      4237 8.55157E-05-2.14745E-05-2.74797E-05-4.45843E-06 3.01054E-20-2.92143E-19
 -1      4238 8.53463E-05-2.10799E-05-2.74831E-05-3.09045E-06 2.62267E-19-3.01543E-19
 -1      4239 7.36491E-05-1.69440E-05-2.41796E-05-1.95556E-06-3.89763E-19-3.06774E-18
 -1      4240 9.64924E-05-2.74676E-05-2.95864E-05-3.95895E-07 2.99620E-20-3.56687E-19
 -1      4241 9.64839E-05-2.71293E-05-2.97242E-05-2.00677E-07 1.19383E-19-3.70455E-19
 -1      4242 9.34835E-05-2.62258E-05-2.88226E-05-2.45827E-06-7.68562E-20 1.06141E-19
 -1      4243 9.38183E-05-2.65383E-05-2.88416E-05-2.24388E-06 2.22385E-19 1.82132E-19
 -1      4244 9.38439E-05-2.65207E-05-2.88452E-05-1.83571E-06 1.66527E-19 3.49535E-19
 -1      4245 9.57629E-05-2.78435E-05-2.91099E-05 6.11837E-07-2.65700E-19 1.80378E-19
 -1      4246 9.55037E-05-2.77115E-05-2.90546E-05 6.86468E-07-2.05892E-19 7.19488E-20
 -1      4247 9.58849E-05-2.78392E-05-2.91604E-05 3.34461E-07-3.08533E-19 1.42144E-19
 -1      4248 7.68396E-05-1.85065E-05-2.50628E-05 5.19226E-06 1.71506E-18-8.51839E-19
 -1      4249 7.29800E-05-1.77560E-05-2.36396E-05 6.51846E-06 1.42930E-18-8.11147E-19
 -1      4250 9.53310E-05-2.75676E-05-2.90389E-05 3.95438E-07-2.99917E-19 9.64599E-20
 -1      4251 7.69014E-05-1.78586E-05-2.51718E-05 2.58421E-06 1.14198E-18-1.51345E-18
 -1      4252 9.07214E-05-2.41196E-05-2.85222E-05-1.59923E-06-4.50577E-19 3.81621E-19
 -1      4253 9.13660E-05-2.46102E-05-2.86113E-05-2.13309E-06-4.42953E-19 5.04688E-19
 -1      4254 9.19025E-05-2.50309E-05-2.86719E-05-1.90635E-06-6.48005E-19 7.32670E-19
 -1      4255 9.48328E-05-2.29014E-05-3.08352E-05-1.19386E-06-3.43344E-19-9.35047E-19
 -1      4256 9.63759E-05-2.78772E-05-2.93590E-05-6.01043E-07 4.61373E-20-5.77422E-19
 -1      4257 9.64663E-05-2.77215E-05-2.94611E-05-4.69536E-07-8.03775E-20-5.49701E-19
 -1      4258 9.65004E-05-2.75084E-05-2.95667E-05-2.96845E-07 1.28443E-19-5.40033E-19
 -1      4259 9.58184E-05-2.51050E-05-3.03067E-05 5.39333E-07 2.57226E-19-3.66576E-19
 -1      4260 8.87475E-05-2.26163E-05-2.83384E-05 8.68313E-07 1.25580E-18-1.09080E-18
 -1      4261 8.88500E-05-2.27139E-05-2.83470E-05 1.55339E-06 2.03688E-18-2.56591E-18
 -1      4262 8.81825E-05-2.23361E-05-2.82195E-05 1.63584E-06 1.74903E-18-2.72446E-18
 -1      4263 7.51094E-05-1.75804E-05-2.46745E-05 1.17096E-06-1.14385E-18-3.41343E-18
 -1      4264 7.32654E-05-1.83502E-05-2.35591E-05-8.52219E-06 3.33748E-19-2.46481E-18
 -1      4265 9.58286E-05-2.50646E-05-3.03339E-05 3.77833E-07 1.81622E-19-5.75786E-19
 -1      4266 8.89027E-05-2.27011E-05-2.83728E-05-3.10363E-07-1.17934E-19-1.17824E-18
 -1      4267 7.03479E-05-1.65502E-05-2.30431E-05-1.35602E-06 1.09629E-18-2.63831E-18
 -1      4268 9.43271E-05-2.69181E-05-2.88933E-05-1.27099E-06 2.46501E-19 3.35192E-19
 -1      4269 9.46780E-05-2.71920E-05-2.89268E-05-1.14829E-06 3.65581E-19 7.15278E-20
 -1      4270 9.63621E-05-2.64862E-05-2.99440E-05-4.17918E-08 3.98013E-20-3.73789E-19
 -1      4271 9.63051E-05-2.63493E-05-2.99839E-05-3.14686E-08 1.06753E-20-4.21458E-19
 -1      4272 8.15741E-05-2.06398E-05-2.61619E-05 7.36839E-06-2.08261E-19-3.25202E-18
 -1      4273 8.09975E-05-2.08424E-05-2.57540E-05 8.57530E-06-1.06406E-18-2.89705E-18
 -1      4274 7.88085E-05-1.95436E-05-2.53361E-05 7.42123E-06-8.11750E-19-3.07704E-18
 -1      4275 8.08415E-05-1.97170E-05-2.61770E-05 5.38056E-06-7.62772E-19-2.71845E-18
 -1      4276 9.61159E-05-2.56998E-05-3.01690E-05 1.94113E-07 2.49545E-20-3.66131E-19
 -1      4277 8.28131E-05-2.01119E-05-2.67885E-05-4.00327E-06-2.29554E-19-4.47872E-19
 -1      4278 9.29626E-05-2.57978E-05-2.87741E-05-2.17074E-06-4.11539E-19 6.01239E-19
 -1      4279 9.62971E-05-2.61695E-05-3.00586E-05 3.40875E-08-2.71138E-19-7.92396E-19
 -1      4280 9.48144E-05-2.72441E-05-2.89560E-05-7.83259E-07 3.12747E-20 3.76583E-19
 -1      4281 9.50433E-05-2.74486E-05-2.89693E-05-1.08090E-06 2.00907E-19-1.68913E-19
 -1      4282 9.53340E-05-2.76515E-05-2.90097E-05-9.76298E-07 9.60255E-20-1.31813E-19
 -1      4283 9.54877E-05-2.76704E-05-2.90664E-05 5.83051E-08-2.28610E-19 1.78383E-19
 -1      4284 9.51723E-05-2.74771E-05-2.90132E-05 8.72118E-08-2.78636E-19 2.34563E-19
 -1      4285 7.78884E-05-1.85156E-05-2.55260E-05-1.81575E-06 7.85782E-19-1.80180E-18
 -1      4286 7.49115E-05-1.76949E-05-2.46184E-05-2.03962E-06 9.96213E-19-1.98170E-18
 -1      4287 9.40061E-05-2.66354E-05-2.88757E-05 8.13754E-08-4.98157E-20 3.80299E-19
 -1      4288 9.35406E-05-2.62774E-05-2.88315E-05 1.08932E-07-5.69762E-21 6.38416E-19
 -1      4289 9.30263E-05-2.58786E-05-2.87829E-05 9.42738E-08-7.06421E-20 4.39477E-19
 -1      4290 9.24596E-05-2.54485E-05-2.87283E-05 1.43507E-07-8.50290E-21 6.44643E-19
 -1      4291 9.32855E-05-2.60485E-05-2.88051E-05-3.83552E-07-1.30944E-20 6.15140E-19
 -1      4292 9.17378E-05-2.49017E-05-2.86502E-05-3.47955E-07-4.47091E-19 4.20149E-19
 -1      4293 9.10635E-05-2.44205E-05-2.85750E-05-3.28641E-07-2.87466E-19 1.13241E-19
 -1      4294 9.03425E-05-2.39277E-05-2.84818E-05-4.43779E-07 3.37455E-20-1.58866E-19
 -1      4295 8.95541E-05-2.33980E-05-2.83732E-05-4.13700E-07 5.85880E-20-6.04103E-19
 -1      4296 8.87063E-05-2.28837E-05-2.82362E-05-5.67596E-07 3.99518E-19-5.08826E-19
 -1      4297 8.77701E-05-2.23243E-05-2.80771E-05-5.28757E-07 4.06268E-19-5.48703E-19
 -1      4298 8.67614E-05-2.18010E-05-2.78766E-05-7.36098E-07 4.50066E-19-4.16490E-19
 -1      4299 8.56321E-05-2.12231E-05-2.76444E-05-6.87390E-07 4.75589E-19-4.78598E-19
 -1      4300 8.44159E-05-2.07078E-05-2.73542E-05-9.74320E-07 1.23893E-19-4.86759E-19
 -1      4301 8.30247E-05-2.01169E-05-2.70183E-05-9.10085E-07 1.51184E-19-6.64276E-19
 -1      4302 8.15273E-05-1.96210E-05-2.66016E-05-1.31791E-06 2.74175E-19-1.05869E-18
 -1      4303 7.97697E-05-1.90206E-05-2.61183E-05-1.22071E-06 5.58118E-19-1.33833E-18
 -1      4304 8.18487E-05-1.94950E-05-2.67521E-05-5.63271E-07-1.44699E-18-2.23414E-18
 -1      4305 8.32473E-05-1.99646E-05-2.71321E-05-4.04482E-07-9.35856E-19-3.21338E-18
 -1      4306 8.51614E-05-2.08369E-05-2.75887E-05 5.63920E-07 1.17959E-18-2.36985E-18
 -1      4307 8.63735E-05-2.13886E-05-2.78652E-05 5.84612E-07 2.10530E-18-3.18338E-18
 -1      4308 9.64965E-05-2.69418E-05-2.98080E-05-6.30542E-08 2.04793E-20-5.94492E-19
 -1      4309 8.34569E-05-2.02184E-05-2.71297E-05 2.28980E-06-9.63491E-19-1.36179E-18
 -1      4310 8.21621E-05-1.97467E-05-2.67539E-05 2.68422E-06-8.39107E-19-1.99949E-18
 -1      4311 9.39742E-05-2.66370E-05-2.88635E-05-1.03330E-06 1.24114E-19 4.39589E-19
 -1      4312 9.41211E-05-2.67179E-05-2.88836E-05-6.04399E-07 2.14196E-20 9.30778E-19
 -1      4313 9.63713E-05-2.78450E-05-2.93713E-05 3.65851E-08-1.48448E-20-2.67542E-19
 -1      4314 9.62165E-05-2.79054E-05-2.92769E-05 6.95413E-08-2.51468E-19-2.13885E-19
 -1      4315 9.25720E-05-2.55185E-05-2.87385E-05-1.38152E-06-4.51018E-19 6.78288E-19
 -1      4316 9.30485E-05-2.59136E-05-2.87810E-05-1.22654E-06-2.29605E-19 5.15133E-19
 -1      4317 9.35570E-05-2.63010E-05-2.88282E-05-1.16021E-06-1.62681E-19 6.92108E-19
 -1      4318 9.60104E-05-2.78887E-05-2.91966E-05 4.68134E-08-1.88989E-19-3.67270E-19
 -1      4319 9.57717E-05-2.78089E-05-2.91273E-05 8.06522E-08-1.33777E-19-1.05146E-19
 -1      4320 9.61061E-05-2.78762E-05-2.92400E-05-1.90789E-07-2.18545E-19-5.82233E-19
 -1      4321 7.60779E-05-1.77855E-05-2.48768E-05 3.36430E-06-1.20679E-18-3.34168E-18
 -1      4322 7.71725E-05-1.80604E-05-2.54155E-05 1.56575E-08-1.27512E-18-2.92475E-18
 -1      4323 7.95560E-05-1.87487E-05-2.60853E-05-2.95498E-07-1.29326E-18-2.81145E-18
 -1      4324 7.76485E-05-1.87903E-05-2.52104E-05 5.26803E-06-6.95884E-19-2.42397E-18
 -1      4325 9.65198E-05-2.75588E-05-2.95574E-05-9.16129E-08 1.69028E-19-5.12011E-19
 -1      4326 9.64537E-05-2.77630E-05-2.94376E-05-6.50438E-08 1.86310E-19-2.98584E-19
 -1      4327 7.34494E-05-1.75845E-05-2.39828E-05-3.41912E-06 8.07118E-19-2.36033E-18
 -1      4328 8.04892E-05-1.90026E-05-2.63169E-05 1.59005E-06-1.09432E-18-2.94826E-18
 -1      4329 7.98514E-05-1.90283E-05-2.60854E-05 3.36809E-06-4.31703E-19-3.07427E-18
 -1      4330 9.20904E-05-2.51322E-05-2.86839E-05-9.13220E-07-3.54912E-19 4.62887E-19
 -1      4331 9.65409E-05-2.72701E-05-2.96873E-05-1.56443E-08 1.73074E-19-4.47103E-19
 -1      4332 9.42628E-05-2.68152E-05-2.89027E-05-2.62113E-07-1.38380E-19 5.75707E-19
 -1      4333 9.45865E-05-2.70752E-05-2.89323E-05-5.06755E-07-1.56029E-19 6.98360E-19
 -1      4334 9.49435E-05-2.73382E-05-2.89762E-05-4.57542E-07-2.06949E-19 4.82917E-19
 -1      4335 9.44717E-05-2.69878E-05-2.89244E-05 1.55194E-07-2.08285E-19 5.35640E-19
 -1      4336 9.63009E-05-2.79174E-05-2.93054E-05-4.98587E-07-4.00487E-20-4.63825E-19
 -1      4337 9.63855E-05-2.78186E-05-2.93848E-05-2.88975E-07-7.14695E-20-5.55180E-19
 -1      4338 8.73237E-05-2.18449E-05-2.80467E-05 1.75353E-06 1.90698E-18-2.42820E-18
 -1      4339 8.71877E-05-2.17810E-05-2.80479E-05-2.95912E-07 1.57328E-18-2.51470E-18
 -1      4340 8.40087E-05-2.03553E-05-2.72961E-05 7.59391E-07-3.92399E-19-1.92021E-18
 -1      4341 9.48574E-05-2.72662E-05-2.89694E-05 1.25273E-07-3.85513E-19 4.25440E-19
 -1      4342 8.84378E-05-2.24374E-05-2.82911E-05-3.50847E-07-3.74746E-19-1.88145E-18
 -1      4343 9.57006E-05-2.78233E-05-2.90906E-05-7.14055E-07 1.22988E-19-1.05762E-19
 -1      4344 9.59313E-05-2.79183E-05-2.91485E-05-6.22543E-07 8.65241E-21-2.46702E-19
 -1      4345 9.55402E-05-2.76927E-05-2.90769E-05-4.51899E-07 1.01229E-19-7.99948E-20
 -1      4346 9.61416E-05-2.79498E-05-2.92267E-05-5.93900E-07-1.20741E-19-4.32218E-19
 -1      4347 9.50315E-05-2.73697E-05-2.89947E-05-2.12639E-07-2.64719E-19 4.86930E-19
 -1      4348 7.87500E-05-1.89299E-05-2.56799E-05 4.22997E-06-5.67630E-19-2.78672E-18
 -1      4349 7.23527E-05-1.67065E-05-2.36889E-05 3.72050E-06 1.53825E-18-1.93909E-18
 -1      4350 9.56270E-05-2.77348E-05-2.90971E-05-2.23181E-07-1.09677E-20 7.79032E-20
 -1      4351 7.16491E-05-1.67332E-05-2.35844E-05-1.97825E-06 1.38728E-18-2.81822E-18
 -1      4352 9.52564E-05-2.75413E-05-2.90185E-05-4.81144E-07-7.93741E-20 2.11584E-19
 -3
    1PSTEP                         4           1           1          
  100CL  101 1.000000000        4352                     0    1           1
 -4  ERROR       1    1
 -5  STR(%)      1    1    0    0
 -1         1 2.45648E+01
 -1         2 2.39438E+01
 -1         3 2.62227E-02
 -1         4 2.98878E-02
 -1         5 1.40466E+01
 -1         6 1.31507E+01
 -1         7 1.31507E+01
 -1         8 3.65492E+00
 -1         9 1.81393E+00
 -1        10 1.28596E+00
 -1        11 1.04125E+00
 -1        12 8.95401E-01
 -1        13 8.05694E-01
 -1        14 7.52422E-01
 -1        15 7.54355E-01
 -1        16 8.09940E-01
 -1        17 8.96995E-01
 -1        18 1.04789E+00
 -1        19 1.30217E+00
 -1        20 1.82577E+00
 -1        21 3.49664E+00
 -1        22 8.64154E+00
 -1        23 1.31507E+01
 -1        24 4.33077E+00
 -1        25 3.35723E+00
 -1        26 2.12983E+00
 -1        27 1.38345E+00
 -1        28 1.04080E+00
 -1        29 8.09032E-01
 -1        30 6.38343E-01
 -1        31 5.09210E-01
 -1        32 4.11874E-01
 -1        33 3.40240E-01
 -1        34 2.89478E-01
 -1        35 2.57285E-01
 -1        36 2.95943E-01
 -1        37 3.48660E-01
 -1        38 4.14188E-01
 -1        39 4.88600E-01
 -1        40 5.63890E-01
 -1        41 6.91793E-01
 -1        42 8.68438E-01
 -1        43 1.08771E+00
 -1        44 1.29070E+00
 -1        45 1.39308E+00
 -1        46 1.39308E+00
 -1        47 1.40618E+00
 -1        48 1.43666E+00
 -1        49 1.85818E+00
 -1        50 3.28323E+00
 -1        51 4.09517E+00
 -1        52 4.09517E+00
 -1        53 4.06096E+00
 -1        54 3.78168E+00
 -1        55 2.48187E+00
 -1        56 1.66903E+00
 -1        57 1.40303E+00
 -1        58 1.40303E+00
 -1        59 1.37395E+00
 -1        60 1.35145E+00
 -1        61 1.17960E+00
 -1        62 9.52147E-01
 -1        63 7.59098E-01
 -1        64 5.95399E-01
 -1        65 5.20117E-01
 -1        66 4.37693E-01
 -1        67 3.57049E-01
 -1        68 2.81288E-01
 -1        69 2.22530E-01
 -1        70 1.93500E-01
 -1        71 1.17656E-01
 -1        72 1.40466E+01
 -1        73 3.40569E+00
 -1        74 2.42660E+00
 -1        75 1.68161E+00
 -1        76 1.16325E+00
 -1        77 9.31106E-01
 -1        78 7.64840E-01
 -1        79 6.32451E-01
 -1        80 5.27094E-01
 -1        81 4.45377E-01
 -1        82 3.85202E-01
 -1        83 3.44653E-01
 -1        84 3.21547E-01
 -1        85 3.15802E-01
 -1        86 3.43821E-01
 -1        87 4.06077E-01
 -1        88 4.75707E-01
 -1        89 5.44351E-01
 -1        90 5.98059E-01
 -1        91 6.15877E-01
 -1        92 7.15500E-01
 -1        93 9.15429E-01
 -1        94 1.06439E+00
 -1        95 1.19512E+00
 -1        96 1.45698E+00
 -1        97 1.45698E+00
 -1        98 1.77107E+00
 -1        99 2.32379E+00
 -1       100 3.19174E+00
 -1       101 3.53929E+00
 -1       102 3.67811E+00
 -1       103 3.67811E+00
 -1       104 2.75634E+00
 -1       105 1.58330E+00
 -1       106 1.07260E+00
 -1       107 1.14836E+00
 -1       108 1.27631E+00
 -1       109 1.27631E+00
 -1       110 1.21772E+00
 -1       111 1.06251E+00
 -1       112 8.94272E-01
 -1       113 7.31113E-01
 -1       114 5.70891E-01
 -1       115 4.26015E-01
 -1       116 3.49707E-01
 -1       117 2.76816E-01
 -1       118 2.05957E-01
 -1       119 1.34495E-01
 -1       120 9.00774E-02
 -1       121 3.83587E-02
 -1       122 3.83587E-02
 -1       123 3.54745E-02
 -1       124 2.06885E-02
 -1       125 1.54656E-02
 -1       126 2.81807E-02
 -1       127 3.61526E-02
 -1       128 3.86153E-02
 -1       129 3.86153E-02
 -1       130 3.62519E-02
 -1       131 2.81002E-02
 -1       132 1.57587E-02
 -1       133 2.10857E-02
 -1       134 3.55395E-02
 -1       135 5.14119E-02
 -1       136 5.47880E-02
 -1       137 2.45326E+01
 -1       138 4.85121E+01
 -1       139 4.85121E+01
 -1       140 2.38157E+01
 -1       141 1.24613E+01
 -1       142 1.24613E+01
 -1       143 1.20991E+01
 -1       144 1.23830E+01
 -1       145 1.23830E+01
 -1       146 1.17582E+01
 -1       147 1.87112E+01
 -1       148 4.64052E+01
 -1       149 4.64052E+01
 -1       150 2.48948E+01
 -1       151 2.48948E+01
 -1       152 2.81731E+01
 -1       153 3.08324E+01
 -1       154 3.00073E+01
 -1       155 1.30316E+01
 -1       156 1.19770E+01
 -1       157 1.19770E+01
 -1       158 1.26817E+01
 -1       159 1.26817E+01
 -1       160 1.19480E+01
 -1       161 2.10697E+01
 -1       162 4.84479E+01
 -1       163 4.84479E+01
 -1       164 2.51666E+01
 -1       165 6.06802E+00
 -1       166 2.28875E+00
 -1       167 1.50267E+00
 -1       168 1.15285E+00
 -1       169 9.69570E-01
 -1       170 8.61293E-01
 -1       171 7.93933E-01
 -1       172 7.54355E-01
 -1       173 7.97292E-01
 -1       174 8.64433E-01
 -1       175 9.77337E-01
 -1       176 1.16787E+00
 -1       177 1.52193E+00
 -1       178 2.25449E+00
 -1       179 3.92502E+00
 -1       180 1.40466E+01
 -1       181 4.33077E+00
 -1       182 3.35723E+00
 -1       183 2.12983E+00
 -1       184 1.46356E+00
 -1       185 1.04376E+00
 -1       186 8.09032E-01
 -1       187 6.38343E-01
 -1       188 5.09210E-01
 -1       189 4.14988E-01
 -1       190 3.41053E-01
 -1       191 2.89478E-01
 -1       192 2.55116E-01
 -1       193 2.57285E-01
 -1       194 2.95943E-01
 -1       195 3.48660E-01
 -1       196 4.14188E-01
 -1       197 5.10409E-01
 -1       198 6.47278E-01
 -1       199 7.81564E-01
 -1       200 9.08906E-01
 -1       201 1.08771E+00
 -1       202 1.29070E+00
 -1       203 1.39308E+00
 -1       204 1.34071E+00
 -1       205 1.40618E+00
 -1       206 1.43666E+00
 -1       207 2.02448E+00
 -1       208 3.28323E+00
 -1       209 4.09517E+00
 -1       210 4.06096E+00
 -1       211 3.78168E+00
 -1       212 2.48187E+00
 -1       213 1.66903E+00
 -1       214 1.31195E+00
 -1       215 1.40303E+00
 -1       216 1.37395E+00
 -1       217 1.35145E+00
 -1       218 1.17960E+00
 -1       219 9.73051E-01
 -1       220 8.26498E-01
 -1       221 6.97898E-01
 -1       222 5.57617E-01
 -1       223 4.37693E-01
 -1       224 3.57049E-01
 -1       225 2.81288E-01
 -1       226 2.22530E-01
 -1       227 1.93500E-01
 -1       228 1.17656E-01
 -1       229 3.40569E+00
 -1       230 2.42660E+00
 -1       231 1.68161E+00
 -1       232 1.16325E+00
 -1       233 9.31106E-01
 -1       234 7.64840E-01
 -1       235 6.32451E-01
 -1       236 5.27094E-01
 -1       237 4.45377E-01
 -1       238 3.85202E-01
 -1       239 3.44653E-01
 -1       240 3.21547E-01
 -1       241 3.13143E-01
 -1       242 3.15802E-01
 -1       243 3.53336E-01
 -1       244 4.09634E-01
 -1       245 4.75707E-01
 -1       246 5.44351E-01
 -1       247 5.98059E-01
 -1       248 6.31246E-01
 -1       249 7.65523E-01
 -1       250 9.15429E-01
 -1       251 1.06439E+00
 -1       252 1.19512E+00
 -1       253 1.45698E+00
 -1       254 1.40554E+00
 -1       255 1.77107E+00
 -1       256 2.32379E+00
 -1       257 3.19174E+00
 -1       258 3.53929E+00
 -1       259 3.67811E+00
 -1       260 2.75634E+00
 -1       261 1.58330E+00
 -1       262 1.07260E+00
 -1       263 1.05697E+00
 -1       264 1.14836E+00
 -1       265 1.27631E+00
 -1       266 1.21772E+00
 -1       267 1.06251E+00
 -1       268 8.94272E-01
 -1       269 7.37273E-01
 -1       270 5.92110E-01
 -1       271 4.54627E-01
 -1       272 3.49707E-01
 -1       273 2.76816E-01
 -1       274 2.05957E-01
 -1       275 1.38119E-01
 -1       276 9.00774E-02
 -1       277 5.50446E-02
 -1       278 5.70788E-02
 -1       279 5.70788E-02
 -1       280 2.77759E-02
 -1       281 5.11741E-02
 -1       282 6.77040E-02
 -1       283 7.46869E-02
 -1       284 7.47330E-02
 -1       285 7.47330E-02
 -1       286 6.77242E-02
 -1       287 5.20996E-02
 -1       288 2.79881E-02
 -1       289 5.80359E-02
 -1       290 5.80359E-02
 -1       291 7.19689E-02
 -1       292 2.95218E+01
 -1       293 3.04202E+01
 -1       294 4.85121E+01
 -1       295 2.50632E+01
 -1       296 1.17341E+01
 -1       297 1.24613E+01
 -1       298 1.20991E+01
 -1       299 1.18462E+01
 -1       300 1.23830E+01
 -1       301 1.17582E+01
 -1       302 1.07392E+01
 -1       303 2.01201E+01
 -1       304 4.64052E+01
 -1       305 2.73215E+01
 -1       306 3.17150E+01
 -1       307 3.17150E+01
 -1       308 2.57838E+01
 -1       309 3.08324E+01
 -1       310 3.08324E+01
 -1       311 1.30316E+01
 -1       312 1.14329E+01
 -1       313 1.19770E+01
 -1       314 1.16062E+01
 -1       315 1.26817E+01
 -1       316 1.19480E+01
 -1       317 1.11550E+01
 -1       318 2.25322E+01
 -1       319 4.84479E+01
 -1       320 2.94074E+01
 -1       321 2.95218E+01
 -1       322 1.03763E+00
 -1       323 2.47036E+00
 -1       324 7.87488E-01
 -1       325 6.90641E-01
 -1       326 6.28873E-01
 -1       327 5.85293E-01
 -1       328 5.88506E-01
 -1       329 6.31658E-01
 -1       330 6.97760E-01
 -1       331 7.92368E-01
 -1       332 9.27248E-01
 -1       333 1.15088E+00
 -1       334 1.31946E+00
 -1       335 2.20324E+00
 -1       336 1.91636E+00
 -1       337 1.74176E+00
 -1       338 1.28132E+00
 -1       339 9.22049E-01
 -1       340 6.71611E-01
 -1       341 5.67008E-01
 -1       342 4.75771E-01
 -1       343 3.96623E-01
 -1       344 3.29850E-01
 -1       345 2.74679E-01
 -1       346 2.29343E-01
 -1       347 2.08272E-01
 -1       348 2.38876E-01
 -1       349 2.78992E-01
 -1       350 3.42049E-01
 -1       351 4.57230E-01
 -1       352 5.81521E-01
 -1       353 7.05683E-01
 -1       354 8.12813E-01
 -1       355 9.10316E-01
 -1       356 1.02161E+00
 -1       357 1.06032E+00
 -1       358 9.45112E-01
 -1       359 8.49631E-01
 -1       360 8.80425E-01
 -1       361 1.38209E+00
 -1       362 1.86917E+00
 -1       363 2.41621E+00
 -1       364 2.38054E+00
 -1       365 2.46933E+00
 -1       366 2.18092E+00
 -1       367 1.64201E+00
 -1       368 1.04417E+00
 -1       369 8.89307E-01
 -1       370 8.40176E-01
 -1       371 1.02838E+00
 -1       372 1.04734E+00
 -1       373 9.53407E-01
 -1       374 8.45563E-01
 -1       375 7.49886E-01
 -1       376 6.30264E-01
 -1       377 5.04852E-01
 -1       378 3.86909E-01
 -1       379 2.83657E-01
 -1       380 2.13878E-01
 -1       381 1.56821E-01
 -1       382 1.03655E-01
 -1       383 1.14105E+00
 -1       384 9.02651E-01
 -1       385 7.15231E-01
 -1       386 5.55665E-01
 -1       387 4.61565E-01
 -1       388 3.98398E-01
 -1       389 3.45762E-01
 -1       390 3.06475E-01
 -1       391 2.76457E-01
 -1       392 2.55841E-01
 -1       393 2.43718E-01
 -1       394 2.58104E-01
 -1       395 3.06901E-01
 -1       396 4.16387E-01
 -1       397 5.35487E-01
 -1       398 6.55797E-01
 -1       399 7.61502E-01
 -1       400 8.56650E-01
 -1       401 9.07783E-01
 -1       402 9.07783E-01
 -1       403 8.55898E-01
 -1       404 6.45196E-01
 -1       405 6.46954E-01
 -1       406 1.13847E+00
 -1       407 1.72895E+00
 -1       408 1.91202E+00
 -1       409 1.91202E+00
 -1       410 1.90795E+00
 -1       411 2.19770E+00
 -1       412 1.88831E+00
 -1       413 1.20360E+00
 -1       414 7.49612E-01
 -1       415 6.72998E-01
 -1       416 8.63167E-01
 -1       417 9.08221E-01
 -1       418 9.37202E-01
 -1       419 8.70358E-01
 -1       420 7.78391E-01
 -1       421 6.73389E-01
 -1       422 5.53951E-01
 -1       423 4.35965E-01
 -1       424 3.28283E-01
 -1       425 2.57888E-01
 -1       426 1.97792E-01
 -1       427 1.38119E-01
 -1       428 7.90589E-02
 -1       429 6.11185E-02
 -1       430 1.07652E-01
 -1       431 1.07652E-01
 -1       432 6.88329E-02
 -1       433 9.38306E-02
 -1       434 1.06215E-01
 -1       435 1.06215E-01
 -1       436 1.06212E-01
 -1       437 1.06212E-01
 -1       438 9.48335E-02
 -1       439 7.05832E-02
 -1       440 6.52524E-02
 -1       441 9.52801E-02
 -1       442 3.04202E+01
 -1       443 3.18484E+01
 -1       444 3.06192E+01
 -1       445 1.75308E+01
 -1       446 1.05421E+01
 -1       447 9.13732E-01
 -1       448 9.43598E+00
 -1       449 1.05901E+01
 -1       450 1.05464E+01
 -1       451 9.12822E+00
 -1       452 7.01604E+00
 -1       453 9.02434E+00
 -1       454 1.60617E+01
 -1       455 2.73215E+01
 -1       456 2.75989E+01
 -1       457 3.62118E+01
 -1       458 3.62118E+01
 -1       459 2.54712E+01
 -1       460 2.08566E+01
 -1       461 1.14737E+01
 -1       462 7.79117E+00
 -1       463 9.29755E+00
 -1       464 1.09114E+01
 -1       465 1.06748E+01
 -1       466 9.12261E+00
 -1       467 7.23342E+00
 -1       468 9.47146E+00
 -1       469 1.73381E+01
 -1       470 2.94074E+01
 -1       471 3.18484E+01
 -1       472 6.17165E+00
 -1       473 6.14852E+00
 -1       474 2.54474E+01
 -1       475 6.08774E+00
 -1       476 1.05863E+00
 -1       477 4.82895E-01
 -1       478 5.07326E-01
 -1       479 4.29221E-01
 -1       480 4.54745E-01
 -1       481 4.83934E-01
 -1       482 5.07687E-01
 -1       483 5.07687E-01
 -1       484 5.97012E-01
 -1       485 3.06192E+01
 -1       486 9.02651E-01
 -1       487 8.01584E-01
 -1       488 7.11977E-01
 -1       489 5.97270E-01
 -1       490 4.83082E-01
 -1       491 3.90801E-01
 -1       492 3.44017E-01
 -1       493 2.94241E-01
 -1       494 2.45269E-01
 -1       495 1.98342E-01
 -1       496 1.52997E-01
 -1       497 1.67621E-01
 -1       498 1.95097E-01
 -1       499 2.82423E-01
 -1       500 3.87740E-01
 -1       501 5.05016E-01
 -1       502 6.30469E-01
 -1       503 7.55636E-01
 -1       504 8.65589E-01
 -1       505 9.52229E-01
 -1       506 1.10162E+00
 -1       507 1.22401E+00
 -1       508 1.27736E+00
 -1       509 1.51922E+00
 -1       510 1.61370E+00
 -1       511 1.78157E+00
 -1       512 2.07772E+00
 -1       513 3.05270E+00
 -1       514 3.15877E+00
 -1       515 2.61662E+00
 -1       516 1.79063E+00
 -1       517 1.67271E+00
 -1       518 1.62359E+00
 -1       519 1.30280E+00
 -1       520 1.25747E+00
 -1       521 1.15949E+00
 -1       522 1.01547E+00
 -1       523 8.99629E-01
 -1       524 8.03338E-01
 -1       525 6.83235E-01
 -1       526 5.58037E-01
 -1       527 4.39478E-01
 -1       528 3.34002E-01
 -1       529 2.44636E-01
 -1       530 1.72414E-01
 -1       531 1.87897E+01
 -1       532 5.55665E-01
 -1       533 4.61565E-01
 -1       534 3.98398E-01
 -1       535 3.37558E-01
 -1       536 2.81844E-01
 -1       537 2.31882E-01
 -1       538 1.86782E-01
 -1       539 1.84303E-01
 -1       540 2.12767E-01
 -1       541 2.61768E-01
 -1       542 3.62651E-01
 -1       543 4.73514E-01
 -1       544 5.89507E-01
 -1       545 7.00599E-01
 -1       546 7.90254E-01
 -1       547 8.64424E-01
 -1       548 9.52285E-01
 -1       549 9.99437E-01
 -1       550 9.50556E-01
 -1       551 1.10346E+00
 -1       552 1.15620E+00
 -1       553 1.45685E+00
 -1       554 1.80890E+00
 -1       555 2.31834E+00
 -1       556 2.41677E+00
 -1       557 2.20258E+00
 -1       558 1.74998E+00
 -1       559 1.38822E+00
 -1       560 1.16090E+00
 -1       561 1.05650E+00
 -1       562 9.67916E-01
 -1       563 9.92065E-01
 -1       564 9.36619E-01
 -1       565 8.51338E-01
 -1       566 7.73818E-01
 -1       567 6.79939E-01
 -1       568 5.67939E-01
 -1       569 4.54167E-01
 -1       570 3.48682E-01
 -1       571 2.56988E-01
 -1       572 1.79565E-01
 -1       573 1.27736E-01
 -1       574 1.18029E-01
 -1       575 1.39704E-01
 -1       576 1.07781E-01
 -1       577 9.48876E-02
 -1       578 1.42416E-01
 -1       579 1.42416E-01
 -1       580 1.42198E-01
 -1       581 1.40447E-01
 -1       582 1.20646E-01
 -1       583 1.34050E-01
 -1       584 1.20967E-01
 -1       585 8.58878E+00
 -1       586 7.15231E-01
 -1       587 5.15102E+00
 -1       588 1.40206E+01
 -1       589 3.18484E+01
 -1       590 2.54712E+01
 -1       591 1.97445E+01
 -1       592 8.06726E+00
 -1       593 4.54482E-01
 -1       594 7.37488E+00
 -1       595 6.92141E+00
 -1       596 2.75989E+01
 -1       597 7.83569E+00
 -1       598 5.36314E+00
 -1       599 5.58515E+00
 -1       600 1.15300E+01
 -1       601 1.52356E+01
 -1       602 3.62118E+01
 -1       603 4.07557E+00
 -1       604 1.02176E+01
 -1       605 6.62485E+00
 -1       606 8.66657E+00
 -1       607 7.57597E+00
 -1       608 5.23757E+00
 -1       609 5.38902E+00
 -1       610 9.20377E+00
 -1       611 1.63035E+01
 -1       612 8.75940E-01
 -1       613 1.32860E+00
 -1       614 7.11030E-01
 -1       615 5.74873E+00
 -1       616 1.03655E-01
 -1       617 3.36880E+00
 -1       618 3.56916E-01
 -1       619 3.41284E-01
 -1       620 3.60424E-01
 -1       621 3.36450E-01
 -1       622 2.99543E+00
 -1       623 5.41660E-01
 -1       624 1.36629E+01
 -1       625 4.02334E-01
 -1       626 3.86343E-01
 -1       627 3.41407E-01
 -1       628 2.85405E-01
 -1       629 2.39212E-01
 -1       630 2.03619E-01
 -1       631 1.62913E-01
 -1       632 1.18456E-01
 -1       633 9.74338E-02
 -1       634 1.31643E-01
 -1       635 2.11129E-01
 -1       636 3.03339E-01
 -1       637 4.10280E-01
 -1       638 5.33472E-01
 -1       639 6.73304E-01
 -1       640 8.27870E-01
 -1       641 9.90430E-01
 -1       642 1.14463E+00
 -1       643 1.40254E+00
 -1       644 1.70793E+00
 -1       645 2.05093E+00
 -1       646 2.46869E+00
 -1       647 3.37476E+00
 -1       648 2.16114E+00
 -1       649 3.51508E+00
 -1       650 4.80635E+00
 -1       651 3.73159E+00
 -1       652 2.72754E+00
 -1       653 2.99543E+00
 -1       654 2.78010E+00
 -1       655 1.99305E+00
 -1       656 1.73207E+00
 -1       657 1.42781E+00
 -1       658 1.15949E+00
 -1       659 1.01547E+00
 -1       660 8.70821E-01
 -1       661 7.21923E-01
 -1       662 5.77929E-01
 -1       663 4.48097E-01
 -1       664 3.36007E-01
 -1       665 2.47220E-01
 -1       666 2.22623E-01
 -1       667 3.51508E+00
 -1       668 3.98220E-01
 -1       669 2.42205E-01
 -1       670 1.98672E-01
 -1       671 1.53719E-01
 -1       672 1.19770E-01
 -1       673 1.39639E-01
 -1       674 2.02214E-01
 -1       675 2.92875E-01
 -1       676 3.95685E-01
 -1       677 5.10135E-01
 -1       678 6.33291E-01
 -1       679 7.58389E-01
 -1       680 8.73026E-01
 -1       681 9.88880E-01
 -1       682 1.18046E+00
 -1       683 1.35907E+00
 -1       684 1.45823E+00
 -1       685 1.86120E+00
 -1       686 2.13258E+00
 -1       687 2.71641E+00
 -1       688 4.12157E+00
 -1       689 4.64265E+00
 -1       690 5.23632E+00
 -1       691 3.12697E+00
 -1       692 3.08317E+00
 -1       693 2.05999E+00
 -1       694 1.80066E+00
 -1       695 1.44222E+00
 -1       696 1.30206E+00
 -1       697 1.13183E+00
 -1       698 9.46544E-01
 -1       699 8.41962E-01
 -1       700 7.26916E-01
 -1       701 6.04640E-01
 -1       702 4.86752E-01
 -1       703 3.79852E-01
 -1       704 2.87055E-01
 -1       705 2.07748E-01
 -1       706 1.53391E-01
 -1       707 1.88306E-01
 -1       708 2.04236E-01
 -1       709 1.77464E-01
 -1       710 1.89463E-01
 -1       711 1.88306E-01
 -1       712 1.13628E+01
 -1       713 1.89463E-01
 -1       714 1.76368E-01
 -1       715 2.22623E-01
 -1       716 4.69087E-01
 -1       717 3.86318E+00
 -1       718 6.39320E+00
 -1       719 1.17824E+01
 -1       720 5.22180E-01
 -1       721 1.25382E+01
 -1       722 1.40675E+01
 -1       723 2.82897E-01
 -1       724 3.24309E-01
 -1       725 4.05070E-01
 -1       726 4.12157E+00
 -1       727 5.23632E+00
 -1       728 7.48557E+00
 -1       729 1.55808E+01
 -1       730 3.02916E+00
 -1       731 3.60424E-01
 -1       732 5.36223E+00
 -1       733 3.30248E+00
 -1       734 1.50572E+01
 -1       735 5.96998E+00
 -1       736 3.60158E-01
 -1       737 7.36069E+00
 -1       738 1.25763E+01
 -1       739 1.00967E+01
 -1       740 1.52096E+01
 -1       741 5.35605E+00
 -1       742 6.92557E+00
 -1       743 5.39669E+00
 -1       744 1.03538E+01
 -1       745 5.34609E+00
 -1       746 5.10221E+00
 -1       747 4.12567E-01
 -1       748 3.40638E-01
 -1       749 1.37353E-01
 -1       750 1.12785E-01
 -1       751 3.44608E+00
 -1       752 1.02356E+01
 -1       753 5.09740E+00
 -1       754 8.41133E+00
 -1       755 4.38616E-01
 -1       756 1.01564E+01
 -1       757 3.37476E+00
 -1       758 3.55989E-01
 -1       759 2.39817E-01
 -1       760 2.52439E-01
 -1       761 2.39889E-01
 -1       762 2.09813E-01
 -1       763 1.69760E-01
 -1       764 1.40649E-01
 -1       765 1.02695E-01
 -1       766 8.34130E-02
 -1       767 9.77952E-02
 -1       768 1.61497E-01
 -1       769 2.45788E-01
 -1       770 3.43736E-01
 -1       771 4.55441E-01
 -1       772 5.78554E-01
 -1       773 7.32371E-01
 -1       774 9.39424E-01
 -1       775 1.21680E+00
 -1       776 1.56222E+00
 -1       777 1.93409E+00
 -1       778 2.35530E+00
 -1       779 3.39724E+00
 -1       780 5.19731E+00
 -1       781 4.48967E+00
 -1       782 3.44831E+00
 -1       783 2.69608E+00
 -1       784 2.02616E+00
 -1       785 1.58857E+00
 -1       786 1.28342E+00
 -1       787 1.00938E+00
 -1       788 7.98399E-01
 -1       789 6.38633E-01
 -1       790 4.99140E-01
 -1       791 4.02821E-01
 -1       792 3.76169E-01
 -1       793 3.10051E-01
 -1       794 1.59639E-01
 -1       795 7.33251E-02
 -1       796 1.36269E-01
 -1       797 2.12500E-01
 -1       798 3.01955E-01
 -1       799 4.09987E-01
 -1       800 5.39151E-01
 -1       801 6.88024E-01
 -1       802 8.55042E-01
 -1       803 1.05235E+00
 -1       804 1.25911E+00
 -1       805 1.56457E+00
 -1       806 2.03115E+00
 -1       807 2.34482E+00
 -1       808 3.21863E+00
 -1       809 3.45452E+00
 -1       810 3.17467E+00
 -1       811 2.05999E+00
 -1       812 3.06048E+00
 -1       813 1.90444E+00
 -1       814 1.50407E+00
 -1       815 1.22277E+00
 -1       816 1.01863E+00
 -1       817 8.26630E-01
 -1       818 6.63761E-01
 -1       819 5.20034E-01
 -1       820 3.98317E-01
 -1       821 3.00460E-01
 -1       822 2.38171E-01
 -1       823 1.63022E-01
 -1       824 2.86552E-01
 -1       825 5.61286E+00
 -1       826 2.32479E-01
 -1       827 3.10051E-01
 -1       828 2.48585E-01
 -1       829 3.04777E-01
 -1       830 8.52327E+00
 -1       831 2.48585E-01
 -1       832 7.49550E-02
 -1       833 1.19493E-01
 -1       834 9.99749E+00
 -1       835 1.94059E-01
 -1       836 2.34013E-01
 -1       837 2.40420E-01
 -1       838 8.35489E+00
 -1       839 9.70547E+00
 -1       840 1.93494E-01
 -1       841 7.89234E+00
 -1       842 7.65967E+00
 -1       843 2.79233E-01
 -1       844 4.72755E+00
 -1       845 5.78849E+00
 -1       846 2.80618E-01
 -1       847 2.00337E-01
 -1       848 9.99749E+00
 -1       849 5.78849E+00
 -1       850 2.79398E-01
 -1       851 1.92541E-01
 -1       852 6.91974E+00
 -1       853 1.98822E-01
 -1       854 7.54756E+00
 -1       855 2.37208E-01
 -1       856 2.86552E-01
 -1       857 5.65455E+00
 -1       858 2.37208E-01
 -1       859 6.98042E+00
 -1       860 5.19731E+00
 -1       861 2.75094E-01
 -1       862 2.78483E-01
 -1       863 4.47873E+00
 -1       864 5.19731E+00
 -1       865 1.98822E-01
 -1       866 1.69783E-01
 -1       867 1.53601E-01
 -1       868 1.27515E-01
 -1       869 1.06540E-01
 -1       870 1.11225E-01
 -1       871 1.22581E-01
 -1       872 1.56140E-01
 -1       873 2.34097E-01
 -1       874 3.27694E-01
 -1       875 4.39905E-01
 -1       876 5.73899E-01
 -1       877 7.32371E-01
 -1       878 9.15571E-01
 -1       879 1.16107E+00
 -1       880 1.53152E+00
 -1       881 2.35090E+00
 -1       882 4.63674E+00
 -1       883 4.71820E+00
 -1       884 4.21601E-01
 -1       885 1.39932E-01
 -1       886 3.41917E+00
 -1       887 2.60192E+00
 -1       888 1.82839E+00
 -1       889 1.31373E+00
 -1       890 1.01003E+00
 -1       891 7.98399E-01
 -1       892 6.38633E-01
 -1       893 5.49676E-01
 -1       894 5.50290E-01
 -1       895 2.04475E-01
 -1       896 1.28627E-01
 -1       897 3.89545E-01
 -1       898 5.06022E-01
 -1       899 6.35759E-01
 -1       900 7.94185E-01
 -1       901 1.00722E+00
 -1       902 1.34765E+00
 -1       903 1.80995E+00
 -1       904 2.32746E+00
 -1       905 3.38526E+00
 -1       906 4.94576E+00
 -1       907 3.96879E+00
 -1       908 2.54605E+00
 -1       909 1.73682E+00
 -1       910 1.28923E+00
 -1       911 9.70316E-01
 -1       912 7.64878E-01
 -1       913 6.14188E-01
 -1       914 4.88294E-01
 -1       915 3.76848E-01
 -1       916 1.03767E-01
 -1       917 3.04193E-01
 -1       918 1.68332E-01
 -1       919 2.88039E-01
 -1       920 6.63352E+00
 -1       921 2.65678E-01
 -1       922 1.44290E-01
 -1       923 2.02598E-01
 -1       924 5.42983E+00
 -1       925 5.61975E+00
 -1       926 1.76222E-01
 -1       927 1.54143E-01
 -1       928 6.64821E+00
 -1       929 1.13959E-01
 -1       930 6.98042E+00
 -1       931 1.98110E-01
 -1       932 6.64685E+00
 -1       933 2.00898E-01
 -1       934 2.99520E-01
 -1       935 4.95023E+00
 -1       936 3.24740E-01
 -1       937 1.19716E-01
 -1       938 3.54537E-01
 -1       939 9.65440E-02
 -1       940 5.28119E+00
 -1       941 4.18786E-01
 -1       942 4.78792E+00
 -1       943 2.14294E-01
 -1       944 1.64866E-01
 -1       945 1.65730E-01
 -1       946 1.93620E-01
 -1       947 6.46606E+00
 -1       948 2.14294E-01
 -1       949 4.71820E+00
 -1       950 7.94185E-01
 -1       951 1.14261E-01
 -1       952 1.09227E-01
 -1       953 1.24380E-01
 -1       954 1.39741E-01
 -1       955 1.57696E-01
 -1       956 2.03638E-01
 -1       957 2.84520E-01
 -1       958 3.84808E-01
 -1       959 5.10835E-01
 -1       960 6.72024E-01
 -1       961 8.82249E-01
 -1       962 1.16107E+00
 -1       963 1.53152E+00
 -1       964 3.04639E+00
 -1       965 3.27364E+00
 -1       966 1.22978E-01
 -1       967 4.42545E+00
 -1       968 3.80838E+00
 -1       969 2.15298E+00
 -1       970 1.31373E+00
 -1       971 1.01003E+00
 -1       972 7.72583E-01
 -1       973 5.96230E-01
 -1       974 6.19182E-01
 -1       975 4.76309E-01
 -1       976 1.00722E+00
 -1       977 1.27817E+00
 -1       978 1.76952E+00
 -1       979 2.47384E+00
 -1       980 2.92524E+00
 -1       981 1.96095E+00
 -1       982 1.47419E+00
 -1       983 1.22091E+00
 -1       984 9.70316E-01
 -1       985 7.64878E-01
 -1       986 5.95540E-01
 -1       987 4.57511E-01
 -1       988 1.37632E-01
 -1       989 1.16403E-01
 -1       990 2.02184E-01
 -1       991 3.59301E-01
 -1       992 3.54537E-01
 -1       993 1.38214E-01
 -1       994 2.41936E-01
 -1       995 3.63142E-01
 -1       996 4.71820E+00
 -1       997 1.29861E-01
 -1       998 4.99540E+00
 -1       999 1.41960E-01
 -1      1000 8.82069E-02
 -1      1001 4.42545E+00
 -1      1002 3.19506E+00
 -1      1003 5.50290E-01
 -1      1004 3.47054E-01
 -1      1005 1.26987E-01
 -1      1006 5.50290E-01
 -1      1007 1.10533E-01
 -1      1008 1.47020E-01
 -1      1009 1.03715E-01
 -1      1010 4.11975E+00
 -1      1011 1.85188E-01
 -1      1012 3.75820E+00
 -1      1013 3.76411E+00
 -1      1014 3.90027E+00
 -1      1015 1.79783E-01
 -1      1016 1.01099E-01
 -1      1017 3.61452E+00
 -1      1018 3.04193E-01
 -1      1019 2.63681E-01
 -1      1020 1.39098E-01
 -1      1021 2.41936E-01
 -1      1022 1.47020E-01
 -1      1023 1.25617E-01
 -1      1024 1.42848E-01
 -1      1025 1.61279E-01
 -1      1026 1.90853E-01
 -1      1027 2.33680E-01
 -1      1028 3.02413E-01
 -1      1029 4.02532E-01
 -1      1030 5.35501E-01
 -1      1031 7.18634E-01
 -1      1032 9.82052E-01
 -1      1033 1.36488E+00
 -1      1034 3.04639E+00
 -1      1035 1.33110E-01
 -1      1036 1.14231E-01
 -1      1037 1.10484E-01
 -1      1038 9.44860E-01
 -1      1039 1.91008E+00
 -1      1040 1.15729E+00
 -1      1041 8.54469E-01
 -1      1042 6.30009E-01
 -1      1043 7.07322E-01
 -1      1044 1.27817E+00
 -1      1045 5.33777E-01
 -1      1046 1.76952E+00
 -1      1047 2.07296E+00
 -1      1048 2.47384E+00
 -1      1049 4.12944E-01
 -1      1050 1.42576E+00
 -1      1051 1.22091E+00
 -1      1052 9.06437E-01
 -1      1053 6.79747E-01
 -1      1054 5.12513E-01
 -1      1055 2.54530E+00
 -1      1056 8.50505E-02
 -1      1057 9.49298E-02
 -1      1058 1.57860E+00
 -1      1059 9.86941E-02
 -1      1060 4.02612E-01
 -1      1061 4.12944E-01
 -1      1062 1.79783E-01
 -1      1063 8.60137E-02
 -1      1064 3.55227E+00
 -1      1065 1.05133E-01
 -1      1066 8.35758E-02
 -1      1067 1.17337E-01
 -1      1068 1.53417E-01
 -1      1069 1.67940E-01
 -1      1070 9.20507E-02
 -1      1071 3.34847E+00
 -1      1072 6.18421E-01
 -1      1073 3.66787E+00
 -1      1074 3.17545E-01
 -1      1075 4.31650E-01
 -1      1076 2.74983E+00
 -1      1077 9.20507E-02
 -1      1078 4.97811E-01
 -1      1079 1.61279E-01
 -1      1080 1.90192E-01
 -1      1081 2.28758E-01
 -1      1082 2.86633E-01
 -1      1083 3.63141E-01
 -1      1084 4.55605E-01
 -1      1085 5.81559E-01
 -1      1086 7.60590E-01
 -1      1087 1.02784E+00
 -1      1088 1.83498E+00
 -1      1089 1.42098E+00
 -1      1090 1.71958E-01
 -1      1091 4.55099E-01
 -1      1092 1.49823E+00
 -1      1093 8.96987E-01
 -1      1094 6.54692E-01
 -1      1095 7.24471E-01
 -1      1096 2.16666E+00
 -1      1097 5.33081E-01
 -1      1098 2.16666E+00
 -1      1099 8.96987E-01
 -1      1100 9.64482E-01
 -1      1101 1.39281E+00
 -1      1102 5.07579E-01
 -1      1103 1.85884E+00
 -1      1104 8.80650E-02
 -1      1105 1.17337E-01
 -1      1106 1.07700E-01
 -1      1107 2.49708E+00
 -1      1108 4.08308E-01
 -1      1109 1.25617E-01
 -1      1110 4.95321E-02
 -1      1111 1.01037E+00
 -1      1112 7.88999E-02
 -1      1113 2.27723E-01
 -1      1114 1.42848E-01
 -1      1115 2.35737E+00
 -1      1116 3.25856E-01
 -1      1117 8.97201E-02
 -1      1118 6.18421E-01
 -1      1119 1.94053E-01
 -1      1120 1.36060E+00
 -1      1121 1.71958E-01
 -1      1122 1.70562E-01
 -1      1123 2.12002E-01
 -1      1124 3.17545E-01
 -1      1125 1.39281E+00
 -1      1126 1.19662E-01
 -1      1127 1.71958E-01
 -1      1128 1.58327E+00
 -1      1129 1.94053E-01
 -1      1130 1.31507E+01
 -1      1131 8.40279E+00
 -1      1132 2.73443E+00
 -1      1133 1.54995E+00
 -1      1134 1.16361E+00
 -1      1135 9.68325E-01
 -1      1136 8.50548E-01
 -1      1137 7.79058E-01
 -1      1138 7.53388E-01
 -1      1139 7.82148E-01
 -1      1140 8.53468E-01
 -1      1141 9.72441E-01
 -1      1142 1.17503E+00
 -1      1143 1.56397E+00
 -1      1144 2.66120E+00
 -1      1145 6.06909E+00
 -1      1146 1.13441E+01
 -1      1147 1.31507E+01
 -1      1148 8.74071E+00
 -1      1149 3.84400E+00
 -1      1150 2.74353E+00
 -1      1151 1.75664E+00
 -1      1152 1.21212E+00
 -1      1153 9.24916E-01
 -1      1154 7.23687E-01
 -1      1155 5.73776E-01
 -1      1156 4.60542E-01
 -1      1157 3.76057E-01
 -1      1158 3.14859E-01
 -1      1159 2.73382E-01
 -1      1160 2.76614E-01
 -1      1161 3.22301E-01
 -1      1162 3.81424E-01
 -1      1163 4.51394E-01
 -1      1164 5.26245E-01
 -1      1165 6.27842E-01
 -1      1166 7.80116E-01
 -1      1167 9.78075E-01
 -1      1168 1.18921E+00
 -1      1169 1.34189E+00
 -1      1170 1.39308E+00
 -1      1171 1.39963E+00
 -1      1172 1.42142E+00
 -1      1173 1.64742E+00
 -1      1174 2.57071E+00
 -1      1175 3.68920E+00
 -1      1176 4.09517E+00
 -1      1177 4.07807E+00
 -1      1178 3.92132E+00
 -1      1179 3.13177E+00
 -1      1180 2.07545E+00
 -1      1181 1.53603E+00
 -1      1182 1.40303E+00
 -1      1183 1.38849E+00
 -1      1184 1.36270E+00
 -1      1185 1.26553E+00
 -1      1186 1.06587E+00
 -1      1187 8.55622E-01
 -1      1188 6.77249E-01
 -1      1189 5.57758E-01
 -1      1190 4.78905E-01
 -1      1191 3.97371E-01
 -1      1192 3.19169E-01
 -1      1193 2.51909E-01
 -1      1194 2.08015E-01
 -1      1195 1.55578E-01
 -1      1196 7.37721E-02
 -1      1197 1.40466E+01
 -1      1198 8.72614E+00
 -1      1199 2.91615E+00
 -1      1200 2.05410E+00
 -1      1201 1.42243E+00
 -1      1202 1.04718E+00
 -1      1203 8.47973E-01
 -1      1204 6.98646E-01
 -1      1205 5.79772E-01
 -1      1206 4.86235E-01
 -1      1207 4.15289E-01
 -1      1208 3.64927E-01
 -1      1209 3.33100E-01
 -1      1210 3.18674E-01
 -1      1211 3.29811E-01
 -1      1212 3.74949E-01
 -1      1213 4.40892E-01
 -1      1214 5.10029E-01
 -1      1215 5.71205E-01
 -1      1216 6.06968E-01
 -1      1217 6.65689E-01
 -1      1218 8.15464E-01
 -1      1219 9.89908E-01
 -1      1220 1.12975E+00
 -1      1221 1.32605E+00
 -1      1222 1.45698E+00
 -1      1223 1.61402E+00
 -1      1224 2.04743E+00
 -1      1225 2.75776E+00
 -1      1226 3.36552E+00
 -1      1227 3.60870E+00
 -1      1228 3.67811E+00
 -1      1229 3.21723E+00
 -1      1230 2.16982E+00
 -1      1231 1.32795E+00
 -1      1232 1.11048E+00
 -1      1233 1.21234E+00
 -1      1234 1.27631E+00
 -1      1235 1.24702E+00
 -1      1236 1.14011E+00
 -1      1237 9.78389E-01
 -1      1238 8.12692E-01
 -1      1239 6.51002E-01
 -1      1240 4.98453E-01
 -1      1241 3.87861E-01
 -1      1242 3.13262E-01
 -1      1243 2.41386E-01
 -1      1244 1.70226E-01
 -1      1245 1.12286E-01
 -1      1246 5.81501E-02
 -1      1247 3.22907E-02
 -1      1248 3.83587E-02
 -1      1249 3.69166E-02
 -1      1250 2.80815E-02
 -1      1251 1.80770E-02
 -1      1252 2.18231E-02
 -1      1253 3.21667E-02
 -1      1254 3.73840E-02
 -1      1255 3.86153E-02
 -1      1256 3.74336E-02
 -1      1257 3.21760E-02
 -1      1258 2.19295E-02
 -1      1259 1.84222E-02
 -1      1260 2.83126E-02
 -1      1261 4.34757E-02
 -1      1262 5.30999E-02
 -1      1263 4.23379E-02
 -1      1264 2.42382E+01
 -1      1265 3.65224E+01
 -1      1266 4.85121E+01
 -1      1267 3.61639E+01
 -1      1268 1.81385E+01
 -1      1269 1.24613E+01
 -1      1270 1.22802E+01
 -1      1271 1.22411E+01
 -1      1272 1.23830E+01
 -1      1273 1.20706E+01
 -1      1274 1.52347E+01
 -1      1275 3.25582E+01
 -1      1276 4.64052E+01
 -1      1277 3.56500E+01
 -1      1278 2.48948E+01
 -1      1279 2.47298E+01
 -1      1280 2.63689E+01
 -1      1281 2.95027E+01
 -1      1282 3.04198E+01
 -1      1283 2.15195E+01
 -1      1284 1.25043E+01
 -1      1285 1.19770E+01
 -1      1286 1.23293E+01
 -1      1287 1.26817E+01
 -1      1288 1.23149E+01
 -1      1289 1.65089E+01
 -1      1290 3.47588E+01
 -1      1291 4.84479E+01
 -1      1292 3.68073E+01
 -1      1293 2.45552E+01
 -1      1294 1.31507E+01
 -1      1295 4.86147E+00
 -1      1296 9.60933E+00
 -1      1297 2.05134E+00
 -1      1298 2.97183E+00
 -1      1299 4.17838E+00
 -1      1300 1.39432E+00
 -1      1301 1.65830E+00
 -1      1302 1.89571E+00
 -1      1303 1.09705E+00
 -1      1304 1.21940E+00
 -1      1305 1.32776E+00
 -1      1306 9.32485E-01
 -1      1307 1.00541E+00
 -1      1308 1.06121E+00
 -1      1309 8.33494E-01
 -1      1310 8.78347E-01
 -1      1311 9.15431E-01
 -1      1312 7.73177E-01
 -1      1313 7.99814E-01
 -1      1314 8.27613E-01
 -1      1315 7.54355E-01
 -1      1316 7.53388E-01
 -1      1317 7.74144E-01
 -1      1318 8.03616E-01
 -1      1319 7.75823E-01
 -1      1320 7.75823E-01
 -1      1321 8.80714E-01
 -1      1322 8.37187E-01
 -1      1323 8.30862E-01
 -1      1324 1.01261E+00
 -1      1325 9.37166E-01
 -1      1326 9.20885E-01
 -1      1327 1.23502E+00
 -1      1328 1.10788E+00
 -1      1329 1.07260E+00
 -1      1330 1.67385E+00
 -1      1331 1.41205E+00
 -1      1332 1.34490E+00
 -1      1333 2.87556E+00
 -1      1334 2.04013E+00
 -1      1335 1.88821E+00
 -1      1336 6.28328E+00
 -1      1337 3.71083E+00
 -1      1338 3.08976E+00
 -1      1339 1.40466E+01
 -1      1340 1.13441E+01
 -1      1341 8.98580E+00
 -1      1342 1.40466E+01
 -1      1343 8.74071E+00
 -1      1344 4.33077E+00
 -1      1345 3.84400E+00
 -1      1346 3.35723E+00
 -1      1347 3.84400E+00
 -1      1348 2.74353E+00
 -1      1349 2.12983E+00
 -1      1350 2.74353E+00
 -1      1351 1.79669E+00
 -1      1352 1.42350E+00
 -1      1353 1.79669E+00
 -1      1354 1.21360E+00
 -1      1355 1.04228E+00
 -1      1356 1.25366E+00
 -1      1357 9.24916E-01
 -1      1358 8.09032E-01
 -1      1359 9.26394E-01
 -1      1360 7.23687E-01
 -1      1361 6.38343E-01
 -1      1362 7.23687E-01
 -1      1363 5.73776E-01
 -1      1364 5.09210E-01
 -1      1365 5.73776E-01
 -1      1366 4.62099E-01
 -1      1367 4.13431E-01
 -1      1368 4.62099E-01
 -1      1369 3.76464E-01
 -1      1370 3.40647E-01
 -1      1371 3.78021E-01
 -1      1372 3.14859E-01
 -1      1373 2.89478E-01
 -1      1374 3.15266E-01
 -1      1375 2.72297E-01
 -1      1376 2.56201E-01
 -1      1377 2.72297E-01
 -1      1378 2.57285E-01
 -1      1379 2.76614E-01
 -1      1380 2.56201E-01
 -1      1381 2.95943E-01
 -1      1382 3.22301E-01
 -1      1383 2.76614E-01
 -1      1384 3.48660E-01
 -1      1385 3.81424E-01
 -1      1386 3.22301E-01
 -1      1387 4.14188E-01
 -1      1388 4.51394E-01
 -1      1389 3.81424E-01
 -1      1390 4.99505E-01
 -1      1391 5.37150E-01
 -1      1392 4.62299E-01
 -1      1393 6.05584E-01
 -1      1394 6.69535E-01
 -1      1395 5.78843E-01
 -1      1396 7.36678E-01
 -1      1397 8.25001E-01
 -1      1398 7.14421E-01
 -1      1399 8.88672E-01
 -1      1400 9.98309E-01
 -1      1401 8.45235E-01
 -1      1402 1.08771E+00
 -1      1403 1.18921E+00
 -1      1404 9.98309E-01
 -1      1405 1.29070E+00
 -1      1406 1.34189E+00
 -1      1407 1.18921E+00
 -1      1408 1.39308E+00
 -1      1409 1.39308E+00
 -1      1410 1.34189E+00
 -1      1411 1.36690E+00
 -1      1412 1.37345E+00
 -1      1413 1.36690E+00
 -1      1414 1.40618E+00
 -1      1415 1.42142E+00
 -1      1416 1.37345E+00
 -1      1417 1.43666E+00
 -1      1418 1.64742E+00
 -1      1419 1.42142E+00
 -1      1420 1.94133E+00
 -1      1421 2.65386E+00
 -1      1422 1.73057E+00
 -1      1423 3.28323E+00
 -1      1424 3.68920E+00
 -1      1425 2.65386E+00
 -1      1426 4.09517E+00
 -1      1427 4.09517E+00
 -1      1428 3.68920E+00
 -1      1429 4.07807E+00
 -1      1430 4.06096E+00
 -1      1431 4.07807E+00
 -1      1432 3.92132E+00
 -1      1433 3.78168E+00
 -1      1434 3.92132E+00
 -1      1435 3.13177E+00
 -1      1436 2.48187E+00
 -1      1437 3.13177E+00
 -1      1438 2.07545E+00
 -1      1439 1.66903E+00
 -1      1440 2.07545E+00
 -1      1441 1.49049E+00
 -1      1442 1.35749E+00
 -1      1443 1.49049E+00
 -1      1444 1.40303E+00
 -1      1445 1.40303E+00
 -1      1446 1.35749E+00
 -1      1447 1.38849E+00
 -1      1448 1.37395E+00
 -1      1449 1.38849E+00
 -1      1450 1.36270E+00
 -1      1451 1.35145E+00
 -1      1452 1.36270E+00
 -1      1453 1.26553E+00
 -1      1454 1.17960E+00
 -1      1455 1.26553E+00
 -1      1456 1.07633E+00
 -1      1457 9.62599E-01
 -1      1458 1.07633E+00
 -1      1459 8.89322E-01
 -1      1460 7.92798E-01
 -1      1461 8.99774E-01
 -1      1462 7.28498E-01
 -1      1463 6.46649E-01
 -1      1464 7.62198E-01
 -1      1465 5.76508E-01
 -1      1466 5.38867E-01
 -1      1467 6.27758E-01
 -1      1468 4.78905E-01
 -1      1469 4.37693E-01
 -1      1470 4.97655E-01
 -1      1471 3.97371E-01
 -1      1472 3.57049E-01
 -1      1473 3.97371E-01
 -1      1474 3.19169E-01
 -1      1475 2.81288E-01
 -1      1476 3.19169E-01
 -1      1477 2.51909E-01
 -1      1478 2.22530E-01
 -1      1479 2.51909E-01
 -1      1480 2.08015E-01
 -1      1481 1.93500E-01
 -1      1482 2.08015E-01
 -1      1483 1.55578E-01
 -1      1484 1.17656E-01
 -1      1485 1.55578E-01
 -1      1486 8.62222E-02
 -1      1487 8.62222E-02
 -1      1488 3.40569E+00
 -1      1489 8.72614E+00
 -1      1490 8.72614E+00
 -1      1491 2.42660E+00
 -1      1492 2.91615E+00
 -1      1493 2.91615E+00
 -1      1494 1.68161E+00
 -1      1495 2.05410E+00
 -1      1496 2.05410E+00
 -1      1497 1.16325E+00
 -1      1498 1.42243E+00
 -1      1499 1.42243E+00
 -1      1500 9.31106E-01
 -1      1501 1.04718E+00
 -1      1502 1.04718E+00
 -1      1503 7.64840E-01
 -1      1504 8.47973E-01
 -1      1505 8.47973E-01
 -1      1506 6.32451E-01
 -1      1507 6.98646E-01
 -1      1508 6.98646E-01
 -1      1509 5.27094E-01
 -1      1510 5.79772E-01
 -1      1511 5.79772E-01
 -1      1512 4.45377E-01
 -1      1513 4.86235E-01
 -1      1514 4.86235E-01
 -1      1515 3.85202E-01
 -1      1516 4.15289E-01
 -1      1517 4.15289E-01
 -1      1518 3.44653E-01
 -1      1519 3.64927E-01
 -1      1520 3.64927E-01
 -1      1521 3.21547E-01
 -1      1522 3.33100E-01
 -1      1523 3.33100E-01
 -1      1524 3.14472E-01
 -1      1525 3.17345E-01
 -1      1526 3.17345E-01
 -1      1527 3.29811E-01
 -1      1528 3.15802E-01
 -1      1529 3.14472E-01
 -1      1530 3.79706E-01
 -1      1531 3.48578E-01
 -1      1532 3.34569E-01
 -1      1533 4.42670E-01
 -1      1534 4.07855E-01
 -1      1535 3.81485E-01
 -1      1536 5.10029E-01
 -1      1537 4.75707E-01
 -1      1538 4.42670E-01
 -1      1539 5.71205E-01
 -1      1540 5.44351E-01
 -1      1541 5.10029E-01
 -1      1542 6.06968E-01
 -1      1543 5.98059E-01
 -1      1544 5.71205E-01
 -1      1545 6.73373E-01
 -1      1546 6.23562E-01
 -1      1547 6.14653E-01
 -1      1548 8.40476E-01
 -1      1549 7.40511E-01
 -1      1550 6.98385E-01
 -1      1551 9.89908E-01
 -1      1552 9.15429E-01
 -1      1553 8.40476E-01
 -1      1554 1.12975E+00
 -1      1555 1.06439E+00
 -1      1556 9.89908E-01
 -1      1557 1.32605E+00
 -1      1558 1.19512E+00
 -1      1559 1.12975E+00
 -1      1560 1.45698E+00
 -1      1561 1.45698E+00
 -1      1562 1.32605E+00
 -1      1563 1.58830E+00
 -1      1564 1.43126E+00
 -1      1565 1.43126E+00
 -1      1566 2.04743E+00
 -1      1567 1.77107E+00
 -1      1568 1.58830E+00
 -1      1569 2.75776E+00
 -1      1570 2.32379E+00
 -1      1571 2.04743E+00
 -1      1572 3.36552E+00
 -1      1573 3.19174E+00
 -1      1574 2.75776E+00
 -1      1575 3.60870E+00
 -1      1576 3.53929E+00
 -1      1577 3.36552E+00
 -1      1578 3.67811E+00
 -1      1579 3.67811E+00
 -1      1580 3.60870E+00
 -1      1581 2.75634E+00
 -1      1582 3.21723E+00
 -1      1583 3.21723E+00
 -1      1584 1.58330E+00
 -1      1585 2.16982E+00
 -1      1586 2.16982E+00
 -1      1587 1.07260E+00
 -1      1588 1.32795E+00
 -1      1589 1.32795E+00
 -1      1590 1.10267E+00
 -1      1591 1.06479E+00
 -1      1592 1.06479E+00
 -1      1593 1.21234E+00
 -1      1594 1.14836E+00
 -1      1595 1.10267E+00
 -1      1596 1.27631E+00
 -1      1597 1.27631E+00
 -1      1598 1.21234E+00
 -1      1599 1.21772E+00
 -1      1600 1.24702E+00
 -1      1601 1.24702E+00
 -1      1602 1.06251E+00
 -1      1603 1.14011E+00
 -1      1604 1.14011E+00
 -1      1605 8.94272E-01
 -1      1606 9.78389E-01
 -1      1607 9.78389E-01
 -1      1608 7.34193E-01
 -1      1609 8.15773E-01
 -1      1610 8.15773E-01
 -1      1611 5.81500E-01
 -1      1612 6.61611E-01
 -1      1613 6.64692E-01
 -1      1614 4.40321E-01
 -1      1615 5.12759E-01
 -1      1616 5.23368E-01
 -1      1617 3.49707E-01
 -1      1618 3.87861E-01
 -1      1619 4.02167E-01
 -1      1620 2.76816E-01
 -1      1621 3.13262E-01
 -1      1622 3.13262E-01
 -1      1623 2.05957E-01
 -1      1624 2.41386E-01
 -1      1625 2.41386E-01
 -1      1626 1.36307E-01
 -1      1627 1.72038E-01
 -1      1628 1.72038E-01
 -1      1629 9.00774E-02
 -1      1630 1.12286E-01
 -1      1631 1.14098E-01
 -1      1632 6.42181E-02
 -1      1633 4.67016E-02
 -1      1634 4.67016E-02
 -1      1635 4.62767E-02
 -1      1636 4.77188E-02
 -1      1637 5.60617E-02
 -1      1638 3.88836E-02
 -1      1639 4.62767E-02
 -1      1640 5.70788E-02
 -1      1641 2.16208E-02
 -1      1642 2.42322E-02
 -1      1643 4.24274E-02
 -1      1644 3.96774E-02
 -1      1645 3.33199E-02
 -1      1646 3.94750E-02
 -1      1647 5.19283E-02
 -1      1648 4.79423E-02
 -1      1649 5.94391E-02
 -1      1650 5.66511E-02
 -1      1651 5.54198E-02
 -1      1652 7.11955E-02
 -1      1653 5.66741E-02
 -1      1654 5.66741E-02
 -1      1655 7.47100E-02
 -1      1656 5.54924E-02
 -1      1657 5.66741E-02
 -1      1658 7.47330E-02
 -1      1659 4.79122E-02
 -1      1660 5.19880E-02
 -1      1661 7.12286E-02
 -1      1662 3.39291E-02
 -1      1663 4.00999E-02
 -1      1664 5.99119E-02
 -1      1665 2.45369E-02
 -1      1666 2.18734E-02
 -1      1667 4.00438E-02
 -1      1668 4.67877E-02
 -1      1669 3.95608E-02
 -1      1670 4.30120E-02
 -1      1671 5.47239E-02
 -1      1672 4.67877E-02
 -1      1673 5.80359E-02
 -1      1674 6.33785E-02
 -1      1675 6.16904E-02
 -1      1676 6.50024E-02
 -1      1677 9.48127E-02
 -1      1678 2.70272E+01
 -1      1679 2.67328E+01
 -1      1680 3.94661E+01
 -1      1681 2.74764E+01
 -1      1682 4.85121E+01
 -1      1683 4.85121E+01
 -1      1684 2.44394E+01
 -1      1685 3.67877E+01
 -1      1686 1.20977E+01
 -1      1687 1.77749E+01
 -1      1688 1.24613E+01
 -1      1689 1.24613E+01
 -1      1690 1.20991E+01
 -1      1691 1.22802E+01
 -1      1692 1.21146E+01
 -1      1693 1.19727E+01
 -1      1694 1.23830E+01
 -1      1695 1.23830E+01
 -1      1696 1.17582E+01
 -1      1697 1.20706E+01
 -1      1698 1.47252E+01
 -1      1699 1.12487E+01
 -1      1700 3.32626E+01
 -1      1701 1.94156E+01
 -1      1702 4.64052E+01
 -1      1703 4.64052E+01
 -1      1704 2.61082E+01
 -1      1705 3.68634E+01
 -1      1706 2.83049E+01
 -1      1707 2.83049E+01
 -1      1708 2.81399E+01
 -1      1709 2.83049E+01
 -1      1710 2.69784E+01
 -1      1711 2.51743E+01
 -1      1712 3.08324E+01
 -1      1713 2.95027E+01
 -1      1714 3.04198E+01
 -1      1715 3.08324E+01
 -1      1716 1.30316E+01
 -1      1717 2.15195E+01
 -1      1718 1.17050E+01
 -1      1719 1.22323E+01
 -1      1720 1.19770E+01
 -1      1721 1.19770E+01
 -1      1722 1.21439E+01
 -1      1723 1.17916E+01
 -1      1724 1.26817E+01
 -1      1725 1.26817E+01
 -1      1726 1.19480E+01
 -1      1727 1.23149E+01
 -1      1728 1.61124E+01
 -1      1729 1.15515E+01
 -1      1730 3.54900E+01
 -1      1731 2.18009E+01
 -1      1732 4.84479E+01
 -1      1733 4.84479E+01
 -1      1734 2.72870E+01
 -1      1735 3.89277E+01
 -1      1736 2.67328E+01
 -1      1737 2.73442E+01
 -1      1738 1.83987E+01
 -1      1739 3.67877E+01
 -1      1740 6.42181E-02
 -1      1741 7.25610E-02
 -1      1742 2.99710E+01
 -1      1743 3.94661E+01
 -1      1744 2.95218E+01
 -1      1745 1.20977E+01
 -1      1746 1.22802E+01
 -1      1747 1.19727E+01
 -1      1748 1.21146E+01
 -1      1749 1.20706E+01
 -1      1750 1.12487E+01
 -1      1751 1.54296E+01
 -1      1752 3.32626E+01
 -1      1753 3.68634E+01
 -1      1754 2.95182E+01
 -1      1755 3.17150E+01
 -1      1756 2.87494E+01
 -1      1757 2.83081E+01
 -1      1758 3.08324E+01
 -1      1759 2.19320E+01
 -1      1760 1.22323E+01
 -1      1761 1.17050E+01
 -1      1762 1.17916E+01
 -1      1763 1.21439E+01
 -1      1764 1.23149E+01
 -1      1765 1.15515E+01
 -1      1766 1.68436E+01
 -1      1767 3.54900E+01
 -1      1768 3.89277E+01
 -1      1769 2.94646E+01
 -1      1770 9.60933E+00
 -1      1771 1.27015E+00
 -1      1772 1.66319E+00
 -1      1773 2.37955E+00
 -1      1774 4.26919E+00
 -1      1775 1.75399E+00
 -1      1776 8.78529E-01
 -1      1777 9.70167E-01
 -1      1778 7.75967E-01
 -1      1779 8.30106E-01
 -1      1780 7.39065E-01
 -1      1781 7.11403E-01
 -1      1782 7.45083E-01
 -1      1783 6.59757E-01
 -1      1784 6.69824E-01
 -1      1785 6.89613E-01
 -1      1786 6.07083E-01
 -1      1787 6.92899E-01
 -1      1788 6.71430E-01
 -1      1789 5.86899E-01
 -1      1790 7.48046E-01
 -1      1791 7.14475E-01
 -1      1792 6.10082E-01
 -1      1793 8.37549E-01
 -1      1794 7.81097E-01
 -1      1795 6.64709E-01
 -1      1796 9.80120E-01
 -1      1797 8.84852E-01
 -1      1798 7.45064E-01
 -1      1799 1.22459E+00
 -1      1800 1.04756E+00
 -1      1801 8.59808E-01
 -1      1802 1.70268E+00
 -1      1803 1.33640E+00
 -1      1804 1.03906E+00
 -1      1805 2.62224E+00
 -1      1806 1.78698E+00
 -1      1807 1.23517E+00
 -1      1808 8.12491E+00
 -1      1809 3.06413E+00
 -1      1810 1.76135E+00
 -1      1811 2.80447E+00
 -1      1812 5.19940E+00
 -1      1813 2.17148E+00
 -1      1814 2.66103E+00
 -1      1815 2.05980E+00
 -1      1816 3.40056E+00
 -1      1817 2.54950E+00
 -1      1818 1.93579E+00
 -1      1819 1.70557E+00
 -1      1820 1.37244E+00
 -1      1821 1.51154E+00
 -1      1822 1.19280E+00
 -1      1823 9.82902E-01
 -1      1824 1.10168E+00
 -1      1825 8.57683E-01
 -1      1826 7.40321E-01
 -1      1827 7.96830E-01
 -1      1828 6.88020E-01
 -1      1829 6.02676E-01
 -1      1830 6.19309E-01
 -1      1831 5.57057E-01
 -1      1832 4.92491E-01
 -1      1833 5.21390E-01
 -1      1834 4.52916E-01
 -1      1835 4.05806E-01
 -1      1836 4.36197E-01
 -1      1837 3.72419E-01
 -1      1838 3.35451E-01
 -1      1839 3.63236E-01
 -1      1840 3.07866E-01
 -1      1841 2.82078E-01
 -1      1842 3.02264E-01
 -1      1843 2.59410E-01
 -1      1844 2.42229E-01
 -1      1845 2.52011E-01
 -1      1846 2.31694E-01
 -1      1847 2.32779E-01
 -1      1848 2.18807E-01
 -1      1849 2.48081E-01
 -1      1850 2.67409E-01
 -1      1851 2.23574E-01
 -1      1852 2.87467E-01
 -1      1853 3.13826E-01
 -1      1854 2.58934E-01
 -1      1855 3.45354E-01
 -1      1856 3.78119E-01
 -1      1857 3.10520E-01
 -1      1858 4.35709E-01
 -1      1859 4.83819E-01
 -1      1860 3.99639E-01
 -1      1861 5.45965E-01
 -1      1862 6.14399E-01
 -1      1863 5.19375E-01
 -1      1864 6.76480E-01
 -1      1865 7.43623E-01
 -1      1866 6.43602E-01
 -1      1867 7.97188E-01
 -1      1868 8.60859E-01
 -1      1869 7.59248E-01
 -1      1870 9.09611E-01
 -1      1871 9.99014E-01
 -1      1872 8.61564E-01
 -1      1873 1.05466E+00
 -1      1874 1.15616E+00
 -1      1875 9.65965E-01
 -1      1876 1.17551E+00
 -1      1877 1.22670E+00
 -1      1878 1.04097E+00
 -1      1879 1.16910E+00
 -1      1880 1.14291E+00
 -1      1881 1.00271E+00
 -1      1882 1.09517E+00
 -1      1883 1.12791E+00
 -1      1884 8.97371E-01
 -1      1885 1.14330E+00
 -1      1886 1.15854E+00
 -1      1887 8.65028E-01
 -1      1888 1.40937E+00
 -1      1889 1.70329E+00
 -1      1890 1.13126E+00
 -1      1891 1.94682E+00
 -1      1892 2.57620E+00
 -1      1893 1.62563E+00
 -1      1894 2.84972E+00
 -1      1895 3.25569E+00
 -1      1896 2.14269E+00
 -1      1897 3.23786E+00
 -1      1898 3.22075E+00
 -1      1899 2.39838E+00
 -1      1900 3.26514E+00
 -1      1901 3.12550E+00
 -1      1902 2.42493E+00
 -1      1903 2.98130E+00
 -1      1904 2.33139E+00
 -1      1905 2.32512E+00
 -1      1906 2.06194E+00
 -1      1907 1.65552E+00
 -1      1908 1.91147E+00
 -1      1909 1.35660E+00
 -1      1910 1.17806E+00
 -1      1911 1.34309E+00
 -1      1912 1.10063E+00
 -1      1913 1.14617E+00
 -1      1914 9.66738E-01
 -1      1915 1.12160E+00
 -1      1916 1.10706E+00
 -1      1917 8.64741E-01
 -1      1918 1.20117E+00
 -1      1919 1.18992E+00
 -1      1920 9.34279E-01
 -1      1921 1.19940E+00
 -1      1922 1.11347E+00
 -1      1923 1.03786E+00
 -1      1924 1.06650E+00
 -1      1925 9.63229E-01
 -1      1926 1.00037E+00
 -1      1927 9.09307E-01
 -1      1928 8.36031E-01
 -1      1929 8.99485E-01
 -1      1930 7.88192E-01
 -1      1931 7.23892E-01
 -1      1932 7.97725E-01
 -1      1933 6.64081E-01
 -1      1934 5.93940E-01
 -1      1935 6.90075E-01
 -1      1936 5.31234E-01
 -1      1937 4.71272E-01
 -1      1938 5.67558E-01
 -1      1939 4.12301E-01
 -1      1940 3.71979E-01
 -1      1941 4.45880E-01
 -1      1942 3.20353E-01
 -1      1943 2.82473E-01
 -1      1944 3.35283E-01
 -1      1945 2.47583E-01
 -1      1946 2.18204E-01
 -1      1947 2.48768E-01
 -1      1948 1.89676E-01
 -1      1949 1.75161E-01
 -1      1950 1.85350E-01
 -1      1951 1.48578E-01
 -1      1952 1.10656E-01
 -1      1953 8.78120E-02
 -1      1954 1.30238E-01
 -1      1955 1.41133E+00
 -1      1956 1.78382E+00
 -1      1957 1.52870E+00
 -1      1958 1.03295E+00
 -1      1959 1.29213E+00
 -1      1960 1.02185E+00
 -1      1961 8.23168E-01
 -1      1962 9.39242E-01
 -1      1963 8.08941E-01
 -1      1964 6.60253E-01
 -1      1965 7.43385E-01
 -1      1966 6.35448E-01
 -1      1967 5.47008E-01
 -1      1968 6.13203E-01
 -1      1969 5.08615E-01
 -1      1970 4.62746E-01
 -1      1971 5.15424E-01
 -1      1972 4.29982E-01
 -1      1973 3.95569E-01
 -1      1974 4.36428E-01
 -1      1975 3.72080E-01
 -1      1976 3.45838E-01
 -1      1977 3.75926E-01
 -1      1978 3.26118E-01
 -1      1979 3.10555E-01
 -1      1980 3.30829E-01
 -1      1981 2.91466E-01
 -1      1982 2.88694E-01
 -1      1983 3.00247E-01
 -1      1984 2.66149E-01
 -1      1985 2.78431E-01
 -1      1986 2.82632E-01
 -1      1987 2.49779E-01
 -1      1988 2.86953E-01
 -1      1989 2.85624E-01
 -1      1990 2.50911E-01
 -1      1991 3.30118E-01
 -1      1992 3.11351E-01
 -1      1993 2.82503E-01
 -1      1994 4.13011E-01
 -1      1995 3.84862E-01
 -1      1996 3.61644E-01
 -1      1997 5.05597E-01
 -1      1998 4.72561E-01
 -1      1999 4.75937E-01
 -1      2000 6.00074E-01
 -1      2001 5.65752E-01
 -1      2002 5.95642E-01
 -1      2003 6.79780E-01
 -1      2004 6.52926E-01
 -1      2005 7.08649E-01
 -1      2006 7.43948E-01
 -1      2007 7.27355E-01
 -1      2008 8.09076E-01
 -1      2009 8.36653E-01
 -1      2010 7.69515E-01
 -1      2011 8.82217E-01
 -1      2012 9.11606E-01
 -1      2013 8.36653E-01
 -1      2014 9.07783E-01
 -1      2015 9.60143E-01
 -1      2016 8.85663E-01
 -1      2017 8.81840E-01
 -1      2018 9.20157E-01
 -1      2019 8.54792E-01
 -1      2020 7.50547E-01
 -1      2021 1.05197E+00
 -1      2022 9.21036E-01
 -1      2023 6.46075E-01
 -1      2024 1.27200E+00
 -1      2025 1.29773E+00
 -1      2026 8.92713E-01
 -1      2027 1.75001E+00
 -1      2028 1.56724E+00
 -1      2029 1.43371E+00
 -1      2030 2.11790E+00
 -1      2031 1.84155E+00
 -1      2032 1.82049E+00
 -1      2033 2.55188E+00
 -1      2034 2.11790E+00
 -1      2035 1.91202E+00
 -1      2036 2.72362E+00
 -1      2037 2.54984E+00
 -1      2038 1.90999E+00
 -1      2039 2.93790E+00
 -1      2040 2.86850E+00
 -1      2041 2.05282E+00
 -1      2042 2.32233E+00
 -1      2043 2.78321E+00
 -1      2044 2.04301E+00
 -1      2045 1.39345E+00
 -1      2046 1.97997E+00
 -1      2047 1.54596E+00
 -1      2048 9.11106E-01
 -1      2049 1.16645E+00
 -1      2050 9.76607E-01
 -1      2051 8.64985E-01
 -1      2052 8.72799E-01
 -1      2053 7.11305E-01
 -1      2054 1.00576E+00
 -1      2055 9.60069E-01
 -1      2056 7.68083E-01
 -1      2057 1.09227E+00
 -1      2058 1.02829E+00
 -1      2059 8.85694E-01
 -1      2060 1.07746E+00
 -1      2061 1.10676E+00
 -1      2062 9.22711E-01
 -1      2063 9.66432E-01
 -1      2064 1.04404E+00
 -1      2065 9.03780E-01
 -1      2066 8.36332E-01
 -1      2067 9.20449E-01
 -1      2068 8.24375E-01
 -1      2069 7.05331E-01
 -1      2070 7.83831E-01
 -1      2071 7.25890E-01
 -1      2072 5.73031E-01
 -1      2073 6.45612E-01
 -1      2074 6.13670E-01
 -1      2075 4.45296E-01
 -1      2076 5.14037E-01
 -1      2077 4.94958E-01
 -1      2078 3.38995E-01
 -1      2079 3.91455E-01
 -1      2080 3.82124E-01
 -1      2081 2.67352E-01
 -1      2082 3.03798E-01
 -1      2083 2.93086E-01
 -1      2084 2.01874E-01
 -1      2085 2.37304E-01
 -1      2086 2.27840E-01
 -1      2087 1.38119E-01
 -1      2088 1.72038E-01
 -1      2089 1.67956E-01
 -1      2090 8.45682E-02
 -1      2091 1.08589E-01
 -1      2092 1.08589E-01
 -1      2093 6.70518E-02
 -1      2094 4.44472E-02
 -1      2095 5.90987E-02
 -1      2096 8.23656E-02
 -1      2097 8.23656E-02
 -1      2098 8.43854E-02
 -1      2099 8.23656E-02
 -1      2100 8.13485E-02
 -1      2101 9.33556E-02
 -1      2102 1.07652E-01
 -1      2103 6.00035E-02
 -1      2104 4.83044E-02
 -1      2105 6.49757E-02
 -1      2106 8.07673E-02
 -1      2107 7.25024E-02
 -1      2108 8.13318E-02
 -1      2109 9.04512E-02
 -1      2110 8.69597E-02
 -1      2111 1.00023E-01
 -1      2112 9.04742E-02
 -1      2113 9.04512E-02
 -1      2114 1.06215E-01
 -1      2115 9.04723E-02
 -1      2116 9.04723E-02
 -1      2117 1.06214E-01
 -1      2118 8.69679E-02
 -1      2119 9.04723E-02
 -1      2120 1.06212E-01
 -1      2121 7.34665E-02
 -1      2122 8.12788E-02
 -1      2123 1.00523E-01
 -1      2124 4.92856E-02
 -1      2125 6.13414E-02
 -1      2126 8.27083E-02
 -1      2127 6.16441E-02
 -1      2128 4.66202E-02
 -1      2129 6.79178E-02
 -1      2130 7.66580E-02
 -1      2131 7.66580E-02
 -1      2132 8.02663E-02
 -1      2133 3.94661E+01
 -1      2134 3.04202E+01
 -1      2135 3.06851E+01
 -1      2136 3.06851E+01
 -1      2137 3.05197E+01
 -1      2138 3.00705E+01
 -1      2139 3.05197E+01
 -1      2140 2.12970E+01
 -1      2141 3.30215E+01
 -1      2142 1.11381E+01
 -1      2143 1.78027E+01
 -1      2144 1.03329E+00
 -1      2145 1.20820E+00
 -1      2146 9.75680E-01
 -1      2147 8.50610E-01
 -1      2148 1.07676E+01
 -1      2149 1.09487E+01
 -1      2150 1.12182E+01
 -1      2151 1.13446E+01
 -1      2152 1.00131E+01
 -1      2153 1.14647E+01
 -1      2154 1.11963E+01
 -1      2155 1.04432E+01
 -1      2156 1.07556E+01
 -1      2157 8.87762E+00
 -1      2158 9.38712E+00
 -1      2159 1.45722E+01
 -1      2160 9.88177E+00
 -1      2161 3.12335E+01
 -1      2162 1.80909E+01
 -1      2163 2.73215E+01
 -1      2164 3.68634E+01
 -1      2165 2.16916E+01
 -1      2166 2.96569E+01
 -1      2167 2.74602E+01
 -1      2168 3.39634E+01
 -1      2169 3.39634E+01
 -1      2170 3.09978E+01
 -1      2171 3.39634E+01
 -1      2172 3.62118E+01
 -1      2173 2.81518E+01
 -1      2174 2.56275E+01
 -1      2175 2.58445E+01
 -1      2176 2.58445E+01
 -1      2177 1.22527E+01
 -1      2178 2.11531E+01
 -1      2179 1.61652E+01
 -1      2180 9.61205E+00
 -1      2181 1.04114E+01
 -1      2182 1.06373E+01
 -1      2183 1.03652E+01
 -1      2184 1.12588E+01
 -1      2185 1.14442E+01
 -1      2186 1.16782E+01
 -1      2187 1.11405E+01
 -1      2188 1.05353E+01
 -1      2189 1.09021E+01
 -1      2190 9.19421E+00
 -1      2191 9.59074E+00
 -1      2192 1.60018E+01
 -1      2193 1.03132E+01
 -1      2194 3.28930E+01
 -1      2195 1.99351E+01
 -1      2196 2.94074E+01
 -1      2197 3.89277E+01
 -1      2198 3.06851E+01
 -1      2199 3.06279E+01
 -1      2200 3.18484E+01
 -1      2201 9.31649E+00
 -1      2202 8.95287E+00
 -1      2203 8.35686E+00
 -1      2204 2.91379E+00
 -1      2205 7.79225E+00
 -1      2206 9.30493E+00
 -1      2207 6.16009E+00
 -1      2208 2.10606E+00
 -1      2209 3.12338E+01
 -1      2210 2.39755E+01
 -1      2211 8.36245E-02
 -1      2212 1.40364E+01
 -1      2213 2.74274E+01
 -1      2214 2.74274E+01
 -1      2215 2.86479E+01
 -1      2216 2.33728E+01
 -1      2217 1.34048E+01
 -1      2218 8.35244E+00
 -1      2219 8.17802E+00
 -1      2220 9.89872E+00
 -1      2221 1.07931E+01
 -1      2222 1.01045E+01
 -1      2223 9.55968E+00
 -1      2224 8.78074E+00
 -1      2225 6.93945E+00
 -1      2226 3.08415E+01
 -1      2227 2.74602E+01
 -1      2228 1.25430E+01
 -1      2229 8.02019E+00
 -1      2230 8.07213E+00
 -1      2231 1.05683E+01
 -1      2232 9.83730E+00
 -1      2233 3.19053E+01
 -1      2234 2.31639E+01
 -1      2235 8.54436E+00
 -1      2236 1.09984E+00
 -1      2237 1.48749E+00
 -1      2238 5.55884E-01
 -1      2239 5.86768E-01
 -1      2240 5.98984E-01
 -1      2241 6.47407E-01
 -1      2242 4.95110E-01
 -1      2243 5.08863E-01
 -1      2244 5.07257E-01
 -1      2245 5.43201E-01
 -1      2246 5.21625E-01
 -1      2247 4.41983E-01
 -1      2248 5.90847E-01
 -1      2249 5.57796E-01
 -1      2250 4.69340E-01
 -1      2251 6.50027E-01
 -1      2252 6.02723E-01
 -1      2253 4.95810E-01
 -1      2254 7.17467E-01
 -1      2255 6.50027E-01
 -1      2256 5.07687E-01
 -1      2257 8.73944E-01
 -1      2258 7.62130E-01
 -1      2259 5.52349E-01
 -1      2260 3.06192E+01
 -1      2261 3.12338E+01
 -1      2262 9.02651E-01
 -1      2263 1.02185E+00
 -1      2264 9.80641E-01
 -1      2265 1.27167E+00
 -1      2266 1.04145E+00
 -1      2267 9.96648E-01
 -1      2268 8.17013E-01
 -1      2269 7.56781E-01
 -1      2270 7.59659E-01
 -1      2271 6.34440E-01
 -1      2272 6.54624E-01
 -1      2273 5.77346E-01
 -1      2274 5.25045E-01
 -1      2275 5.40176E-01
 -1      2276 4.78904E-01
 -1      2277 4.33286E-01
 -1      2278 4.36942E-01
 -1      2279 4.09894E-01
 -1      2280 3.70320E-01
 -1      2281 3.67409E-01
 -1      2282 3.45432E-01
 -1      2283 3.12045E-01
 -1      2284 3.19129E-01
 -1      2285 2.87559E-01
 -1      2286 2.59974E-01
 -1      2287 2.69755E-01
 -1      2288 2.36510E-01
 -1      2289 2.13842E-01
 -1      2290 2.21806E-01
 -1      2291 1.91170E-01
 -1      2292 1.80634E-01
 -1      2293 1.75669E-01
 -1      2294 1.87946E-01
 -1      2295 2.03248E-01
 -1      2296 1.60309E-01
 -1      2297 2.16987E-01
 -1      2298 2.37045E-01
 -1      2299 1.81359E-01
 -1      2300 2.80708E-01
 -1      2301 3.12236E-01
 -1      2302 2.38760E-01
 -1      2303 3.64894E-01
 -1      2304 4.22485E-01
 -1      2305 3.35082E-01
 -1      2306 4.81123E-01
 -1      2307 5.43268E-01
 -1      2308 4.46378E-01
 -1      2309 6.05995E-01
 -1      2310 6.68076E-01
 -1      2311 5.67742E-01
 -1      2312 7.30660E-01
 -1      2313 7.84225E-01
 -1      2314 6.93053E-01
 -1      2315 8.39201E-01
 -1      2316 8.87953E-01
 -1      2317 8.10613E-01
 -1      2318 9.31272E-01
 -1      2319 9.86922E-01
 -1      2320 9.08909E-01
 -1      2321 1.06162E+00
 -1      2322 1.08097E+00
 -1      2323 1.02692E+00
 -1      2324 1.14216E+00
 -1      2325 1.08456E+00
 -1      2326 1.16281E+00
 -1      2327 1.11124E+00
 -1      2328 1.06350E+00
 -1      2329 1.25068E+00
 -1      2330 1.18442E+00
 -1      2331 1.19982E+00
 -1      2332 1.39829E+00
 -1      2333 1.24706E+00
 -1      2334 1.49790E+00
 -1      2335 1.56646E+00
 -1      2336 1.58183E+00
 -1      2337 1.82537E+00
 -1      2338 1.69764E+00
 -1      2339 1.97344E+00
 -1      2340 2.24697E+00
 -1      2341 1.92965E+00
 -1      2342 2.73446E+00
 -1      2343 2.71662E+00
 -1      2344 2.56521E+00
 -1      2345 2.76965E+00
 -1      2346 2.81405E+00
 -1      2347 3.10573E+00
 -1      2348 2.54297E+00
 -1      2349 2.39877E+00
 -1      2350 2.88769E+00
 -1      2351 1.98578E+00
 -1      2352 1.71632E+00
 -1      2353 2.20363E+00
 -1      2354 1.65736E+00
 -1      2355 1.35844E+00
 -1      2356 1.73167E+00
 -1      2357 1.33388E+00
 -1      2358 1.25645E+00
 -1      2359 1.64815E+00
 -1      2360 1.09606E+00
 -1      2361 1.07149E+00
 -1      2362 1.46320E+00
 -1      2363 1.04882E+00
 -1      2364 1.14293E+00
 -1      2365 1.28014E+00
 -1      2366 1.09394E+00
 -1      2367 1.10342E+00
 -1      2368 1.20848E+00
 -1      2369 1.03141E+00
 -1      2370 9.84440E-01
 -1      2371 1.08748E+00
 -1      2372 9.26518E-01
 -1      2373 8.72596E-01
 -1      2374 9.57551E-01
 -1      2375 8.24451E-01
 -1      2376 7.76612E-01
 -1      2377 8.51483E-01
 -1      2378 7.16561E-01
 -1      2379 6.56750E-01
 -1      2380 7.43287E-01
 -1      2381 5.94150E-01
 -1      2382 5.31444E-01
 -1      2383 6.20636E-01
 -1      2384 4.72165E-01
 -1      2385 4.13193E-01
 -1      2386 4.98757E-01
 -1      2387 3.60455E-01
 -1      2388 3.08829E-01
 -1      2389 3.86740E-01
 -1      2390 2.64146E-01
 -1      2391 2.29257E-01
 -1      2392 2.89319E-01
 -1      2393 1.93146E-01
 -1      2394 1.64618E-01
 -1      2395 2.08525E-01
 -1      2396 2.46049E+01
 -1      2397 2.47045E+01
 -1      2398 5.55665E-01
 -1      2399 6.35448E-01
 -1      2400 4.61565E-01
 -1      2401 5.08615E-01
 -1      2402 5.08615E-01
 -1      2403 3.98398E-01
 -1      2404 4.29982E-01
 -1      2405 4.29982E-01
 -1      2406 3.41660E-01
 -1      2407 3.67978E-01
 -1      2408 3.67978E-01
 -1      2409 2.94159E-01
 -1      2410 3.13803E-01
 -1      2411 3.09701E-01
 -1      2412 2.54169E-01
 -1      2413 2.69178E-01
 -1      2414 2.56863E-01
 -1      2415 2.21311E-01
 -1      2416 2.31619E-01
 -1      2417 2.09332E-01
 -1      2418 2.14011E-01
 -1      2419 2.20072E-01
 -1      2420 1.85542E-01
 -1      2421 2.35436E-01
 -1      2422 2.28243E-01
 -1      2423 1.98535E-01
 -1      2424 2.84335E-01
 -1      2425 2.59936E-01
 -1      2426 2.37268E-01
 -1      2427 3.89519E-01
 -1      2428 3.34776E-01
 -1      2429 3.12210E-01
 -1      2430 5.04501E-01
 -1      2431 4.44951E-01
 -1      2432 4.18083E-01
 -1      2433 6.22652E-01
 -1      2434 5.62497E-01
 -1      2435 5.31510E-01
 -1      2436 7.31050E-01
 -1      2437 6.78198E-01
 -1      2438 6.45053E-01
 -1      2439 8.23452E-01
 -1      2440 7.75878E-01
 -1      2441 7.45426E-01
 -1      2442 8.86103E-01
 -1      2443 8.60537E-01
 -1      2444 8.27339E-01
 -1      2445 9.30034E-01
 -1      2446 9.30034E-01
 -1      2447 9.08355E-01
 -1      2448 9.27668E-01
 -1      2449 9.53610E-01
 -1      2450 9.75861E-01
 -1      2451 7.97876E-01
 -1      2452 9.03227E-01
 -1      2453 9.74997E-01
 -1      2454 8.75205E-01
 -1      2455 8.74326E-01
 -1      2456 1.02701E+00
 -1      2457 1.14734E+00
 -1      2458 9.01578E-01
 -1      2459 1.12983E+00
 -1      2460 1.59290E+00
 -1      2461 1.29766E+00
 -1      2462 1.30653E+00
 -1      2463 1.86046E+00
 -1      2464 1.76893E+00
 -1      2465 1.63288E+00
 -1      2466 2.11518E+00
 -1      2467 2.11518E+00
 -1      2468 2.06362E+00
 -1      2469 2.16236E+00
 -1      2470 2.16440E+00
 -1      2471 2.36756E+00
 -1      2472 2.20014E+00
 -1      2473 2.05527E+00
 -1      2474 2.30968E+00
 -1      2475 1.81914E+00
 -1      2476 1.97384E+00
 -1      2477 1.97628E+00
 -1      2478 1.29591E+00
 -1      2479 1.63827E+00
 -1      2480 1.56910E+00
 -1      2481 9.55258E-01
 -1      2482 1.18225E+00
 -1      2483 1.27456E+00
 -1      2484 8.64748E-01
 -1      2485 9.03055E-01
 -1      2486 1.10870E+00
 -1      2487 9.15542E-01
 -1      2488 8.20457E-01
 -1      2489 1.01221E+00
 -1      2490 9.50143E-01
 -1      2491 9.27616E-01
 -1      2492 9.79990E-01
 -1      2493 9.36911E-01
 -1      2494 9.22420E-01
 -1      2495 9.64342E-01
 -1      2496 8.60848E-01
 -1      2497 8.94270E-01
 -1      2498 8.93979E-01
 -1      2499 7.76105E-01
 -1      2500 8.22088E-01
 -1      2501 8.12578E-01
 -1      2502 6.76664E-01
 -1      2503 7.29165E-01
 -1      2504 7.26878E-01
 -1      2505 5.60945E-01
 -1      2506 6.20664E-01
 -1      2507 6.23939E-01
 -1      2508 4.45066E-01
 -1      2509 5.04059E-01
 -1      2510 5.11053E-01
 -1      2511 3.38483E-01
 -1      2512 3.92323E-01
 -1      2513 4.01425E-01
 -1      2514 2.57438E-01
 -1      2515 2.92636E-01
 -1      2516 3.02835E-01
 -1      2517 1.88679E-01
 -1      2518 2.18727E-01
 -1      2519 2.18276E-01
 -1      2520 1.32927E-01
 -1      2521 1.62764E-01
 -1      2522 1.53651E-01
 -1      2523 1.22886E-01
 -1      2524 1.05930E-01
 -1      2525 9.34310E-02
 -1      2526 1.22960E-01
 -1      2527 1.16768E-01
 -1      2528 1.28867E-01
 -1      2529 8.44496E-02
 -1      2530 1.07716E-01
 -1      2531 8.18603E-02
 -1      2532 7.80031E-02
 -1      2533 1.01334E-01
 -1      2534 1.06458E-01
 -1      2535 1.24316E-01
 -1      2536 1.24316E-01
 -1      2537 1.41060E-01
 -1      2538 1.24314E-01
 -1      2539 1.24316E-01
 -1      2540 1.42416E-01
 -1      2541 1.24205E-01
 -1      2542 1.24205E-01
 -1      2543 1.42307E-01
 -1      2544 1.17640E-01
 -1      2545 1.23329E-01
 -1      2546 1.41322E-01
 -1      2547 9.56144E-02
 -1      2548 1.07740E-01
 -1      2549 1.30546E-01
 -1      2550 9.96510E-02
 -1      2551 1.02316E-01
 -1      2552 1.27348E-01
 -1      2553 1.08124E-01
 -1      2554 9.31099E-02
 -1      2555 1.27508E-01
 -1      2556 9.94675E-02
 -1      2557 9.56543E+00
 -1      2558 1.30598E+01
 -1      2559 7.15231E-01
 -1      2560 8.08941E-01
 -1      2561 6.35448E-01
 -1      2562 5.66134E+00
 -1      2563 7.84655E+00
 -1      2564 1.57757E+01
 -1      2565 2.22204E+01
 -1      2566 3.18484E+01
 -1      2567 3.18484E+01
 -1      2568 2.54712E+01
 -1      2569 3.08415E+01
 -1      2570 2.36717E+01
 -1      2571 2.35330E+01
 -1      2572 1.20645E+01
 -1      2573 8.54580E+00
 -1      2574 5.19888E-01
 -1      2575 5.41678E-01
 -1      2576 4.68689E-01
 -1      2577 4.41852E-01
 -1      2578 8.25155E+00
 -1      2579 8.96064E+00
 -1      2580 8.75578E+00
 -1      2581 8.17869E+00
 -1      2582 3.19053E+01
 -1      2583 2.75989E+01
 -1      2584 9.19104E+00
 -1      2585 9.21292E+00
 -1      2586 7.37855E+00
 -1      2587 6.18959E+00
 -1      2588 7.24568E+00
 -1      2589 6.36901E+00
 -1      2590 7.30474E+00
 -1      2591 6.30059E+00
 -1      2592 1.94257E+01
 -1      2593 1.37959E+01
 -1      2594 1.80461E+01
 -1      2595 2.03534E+01
 -1      2596 3.62118E+01
 -1      2597 3.62118E+01
 -1      2598 6.68656E+00
 -1      2599 5.93337E+00
 -1      2600 1.08457E+01
 -1      2601 1.55371E+01
 -1      2602 8.76813E+00
 -1      2603 7.96120E+00
 -1      2604 9.67069E+00
 -1      2605 9.78899E+00
 -1      2606 8.34929E+00
 -1      2607 9.12540E+00
 -1      2608 8.12127E+00
 -1      2609 6.23550E+00
 -1      2610 7.18009E+00
 -1      2611 7.43024E+00
 -1      2612 6.31122E+00
 -1      2613 1.32709E+01
 -1      2614 9.33761E+00
 -1      2615 2.28554E+01
 -1      2616 1.68208E+01
 -1      2617 1.67315E+00
 -1      2618 1.30885E+00
 -1      2619 8.38762E-01
 -1      2620 9.56784E-01
 -1      2621 1.62248E+00
 -1      2622 1.76592E+00
 -1      2623 1.32403E+00
 -1      2624 1.19362E+00
 -1      2625 7.60529E+00
 -1      2626 6.09178E-01
 -1      2627 7.49259E-01
 -1      2628 8.12381E-01
 -1      2629 3.12338E+01
 -1      2630 2.47045E+01
 -1      2631 1.23974E+00
 -1      2632 6.53497E+00
 -1      2633 5.64977E+00
 -1      2634 6.40677E+00
 -1      2635 7.64571E+00
 -1      2636 1.13047E+01
 -1      2637 1.64052E+01
 -1      2638 6.86990E+00
 -1      2639 1.17694E-01
 -1      2640 1.17694E-01
 -1      2641 8.61124E+00
 -1      2642 7.98318E+00
 -1      2643 5.91824E+00
 -1      2644 1.03655E-01
 -1      2645 9.94675E-02
 -1      2646 1.12311E-01
 -1      2647 1.30238E-01
 -1      2648 5.35021E+00
 -1      2649 3.08415E+01
 -1      2650 8.08941E-01
 -1      2651 2.86479E+01
 -1      2652 2.08754E+01
 -1      2653 8.94836E-01
 -1      2654 1.27536E+01
 -1      2655 7.29639E+00
 -1      2656 1.27266E+01
 -1      2657 1.56372E+01
 -1      2658 3.19053E+01
 -1      2659 9.79862E+00
 -1      2660 2.36717E+01
 -1      2661 5.57999E+00
 -1      2662 4.72827E+00
 -1      2663 3.72219E+00
 -1      2664 2.03534E+01
 -1      2665 6.82620E+00
 -1      2666 5.47415E+00
 -1      2667 9.62807E-01
 -1      2668 5.31329E+00
 -1      2669 1.17758E-01
 -1      2670 1.38035E-01
 -1      2671 4.20425E-01
 -1      2672 4.05830E-01
 -1      2673 3.98015E-01
 -1      2674 3.85253E-01
 -1      2675 3.49100E-01
 -1      2676 4.34055E-01
 -1      2677 4.34055E-01
 -1      2678 4.66731E-01
 -1      2679 4.22068E-01
 -1      2680 3.48437E-01
 -1      2681 4.19223E+00
 -1      2682 4.11650E+00
 -1      2683 7.22156E-01
 -1      2684 8.00145E-01
 -1      2685 2.21410E+01
 -1      2686 2.27557E+01
 -1      2687 8.27821E-01
 -1      2688 5.57155E-01
 -1      2689 4.99802E-01
 -1      2690 4.91806E-01
 -1      2691 4.34712E-01
 -1      2692 3.94338E-01
 -1      2693 4.12244E-01
 -1      2694 3.66104E-01
 -1      2695 3.63875E-01
 -1      2696 3.38103E-01
 -1      2697 3.14711E-01
 -1      2698 3.13406E-01
 -1      2699 2.91614E-01
 -1      2700 2.66726E-01
 -1      2701 2.62308E-01
 -1      2702 2.48930E-01
 -1      2703 2.24444E-01
 -1      2704 2.21415E-01
 -1      2705 2.04091E-01
 -1      2706 1.80628E-01
 -1      2707 1.83266E-01
 -1      2708 1.58399E-01
 -1      2709 1.35726E-01
 -1      2710 1.40685E-01
 -1      2711 1.25215E-01
 -1      2712 1.32527E-01
 -1      2713 1.07945E-01
 -1      2714 1.49632E-01
 -1      2715 1.63370E-01
 -1      2716 1.14538E-01
 -1      2717 2.03113E-01
 -1      2718 2.46776E-01
 -1      2719 1.71386E-01
 -1      2720 2.92881E-01
 -1      2721 3.45539E-01
 -1      2722 2.57234E-01
 -1      2723 3.99010E-01
 -1      2724 4.57648E-01
 -1      2725 3.56809E-01
 -1      2726 5.19244E-01
 -1      2727 5.81971E-01
 -1      2728 4.71876E-01
 -1      2729 6.51887E-01
 -1      2730 7.14470E-01
 -1      2731 6.03388E-01
 -1      2732 7.91753E-01
 -1      2733 8.46729E-01
 -1      2734 7.50587E-01
 -1      2735 9.28009E-01
 -1      2736 9.71329E-01
 -1      2737 9.09150E-01
 -1      2738 1.04843E+00
 -1      2739 1.12312E+00
 -1      2740 1.06753E+00
 -1      2741 1.25208E+00
 -1      2742 1.31327E+00
 -1      2743 1.27358E+00
 -1      2744 1.46597E+00
 -1      2745 1.49265E+00
 -1      2746 1.55524E+00
 -1      2747 1.66414E+00
 -1      2748 1.78507E+00
 -1      2749 1.87943E+00
 -1      2750 1.99395E+00
 -1      2751 2.04120E+00
 -1      2752 2.25981E+00
 -1      2753 2.49423E+00
 -1      2754 2.57817E+00
 -1      2755 2.92172E+00
 -1      2756 1.97136E+00
 -1      2757 2.11943E+00
 -1      2758 2.76795E+00
 -1      2759 2.79640E+00
 -1      2760 3.28389E+00
 -1      2761 2.83811E+00
 -1      2762 3.92952E+00
 -1      2763 3.98256E+00
 -1      2764 4.16072E+00
 -1      2765 3.44518E+00
 -1      2766 3.17411E+00
 -1      2767 4.26897E+00
 -1      2768 2.67208E+00
 -1      2769 2.25908E+00
 -1      2770 3.22956E+00
 -1      2771 2.39303E+00
 -1      2772 2.33407E+00
 -1      2773 2.86149E+00
 -1      2774 2.22641E+00
 -1      2775 2.20185E+00
 -1      2776 2.88777E+00
 -1      2777 1.80832E+00
 -1      2778 1.64793E+00
 -1      2779 2.38657E+00
 -1      2780 1.51744E+00
 -1      2781 1.49477E+00
 -1      2782 1.86256E+00
 -1      2783 1.34264E+00
 -1      2784 1.29365E+00
 -1      2785 1.57994E+00
 -1      2786 1.15949E+00
 -1      2787 1.08748E+00
 -1      2788 1.29365E+00
 -1      2789 1.01547E+00
 -1      2790 9.57551E-01
 -1      2791 1.08748E+00
 -1      2792 8.85225E-01
 -1      2793 8.37079E-01
 -1      2794 9.43147E-01
 -1      2795 7.62630E-01
 -1      2796 7.02579E-01
 -1      2797 7.96372E-01
 -1      2798 6.30582E-01
 -1      2799 5.67983E-01
 -1      2800 6.49926E-01
 -1      2801 5.03067E-01
 -1      2802 4.43788E-01
 -1      2803 5.13013E-01
 -1      2804 3.87742E-01
 -1      2805 3.35004E-01
 -1      2806 3.92052E-01
 -1      2807 2.90611E-01
 -1      2808 2.45928E-01
 -1      2809 2.91613E-01
 -1      2810 2.33629E-01
 -1      2811 1.97519E-01
 -1      2812 2.34922E-01
 -1      2813 5.06997E+00
 -1      2814 3.79532E+00
 -1      2815 4.29893E-01
 -1      2816 4.76942E-01
 -1      2817 2.62025E-01
 -1      2818 2.89882E-01
 -1      2819 2.15277E-01
 -1      2820 2.40258E-01
 -1      2821 2.20439E-01
 -1      2822 1.70250E-01
 -1      2823 1.92800E-01
 -1      2824 1.76196E-01
 -1      2825 1.52037E-01
 -1      2826 1.53276E-01
 -1      2827 1.36744E-01
 -1      2828 1.76203E-01
 -1      2829 1.61971E-01
 -1      2830 1.29705E-01
 -1      2831 2.31991E-01
 -1      2832 2.07491E-01
 -1      2833 1.70927E-01
 -1      2834 3.27763E-01
 -1      2835 2.77322E-01
 -1      2836 2.47544E-01
 -1      2837 4.34599E-01
 -1      2838 3.79168E-01
 -1      2839 3.44280E-01
 -1      2840 5.49821E-01
 -1      2841 4.91825E-01
 -1      2842 4.52910E-01
 -1      2843 6.66945E-01
 -1      2844 6.11399E-01
 -1      2845 5.71713E-01
 -1      2846 7.74322E-01
 -1      2847 7.29494E-01
 -1      2848 6.95840E-01
 -1      2849 8.68725E-01
 -1      2850 8.31640E-01
 -1      2851 8.15708E-01
 -1      2852 9.70583E-01
 -1      2853 9.26652E-01
 -1      2854 9.30953E-01
 -1      2855 1.08995E+00
 -1      2856 1.06637E+00
 -1      2857 1.08467E+00
 -1      2858 1.15481E+00
 -1      2859 1.17926E+00
 -1      2860 1.26977E+00
 -1      2861 1.28085E+00
 -1      2862 1.20439E+00
 -1      2863 1.40865E+00
 -1      2864 1.50870E+00
 -1      2865 1.48233E+00
 -1      2866 1.65972E+00
 -1      2867 1.79472E+00
 -1      2868 1.64439E+00
 -1      2869 1.99689E+00
 -1      2870 2.26265E+00
 -1      2871 2.08663E+00
 -1      2872 2.42449E+00
 -1      2873 3.21996E+00
 -1      2874 2.96523E+00
 -1      2875 3.41899E+00
 -1      2876 3.52971E+00
 -1      2877 3.48050E+00
 -1      2878 4.38211E+00
 -1      2879 3.71945E+00
 -1      2880 3.82654E+00
 -1      2881 4.93948E+00
 -1      2882 2.43847E+00
 -1      2883 2.66478E+00
 -1      2884 4.18164E+00
 -1      2885 2.23569E+00
 -1      2886 2.41657E+00
 -1      2887 3.10507E+00
 -1      2888 1.61045E+00
 -1      2889 1.72410E+00
 -1      2890 2.57158E+00
 -1      2891 1.42858E+00
 -1      2892 1.48078E+00
 -1      2893 1.93032E+00
 -1      2894 1.20507E+00
 -1      2895 1.24936E+00
 -1      2896 1.62144E+00
 -1      2897 1.14706E+00
 -1      2898 1.13499E+00
 -1      2899 1.37214E+00
 -1      2900 1.03422E+00
 -1      2901 1.06195E+00
 -1      2902 1.21695E+00
 -1      2903 8.98941E-01
 -1      2904 9.41581E-01
 -1      2905 1.03919E+00
 -1      2906 8.07890E-01
 -1      2907 8.46650E-01
 -1      2908 8.94253E-01
 -1      2909 7.03428E-01
 -1      2910 7.50367E-01
 -1      2911 7.84439E-01
 -1      2912 5.86290E-01
 -1      2913 6.42290E-01
 -1      2914 6.65778E-01
 -1      2915 4.70460E-01
 -1      2916 5.27346E-01
 -1      2917 5.45696E-01
 -1      2918 3.64267E-01
 -1      2919 4.17010E-01
 -1      2920 4.33302E-01
 -1      2921 2.72021E-01
 -1      2922 3.17868E-01
 -1      2923 3.33453E-01
 -1      2924 1.93656E-01
 -1      2925 2.32368E-01
 -1      2926 2.47401E-01
 -1      2927 1.40563E-01
 -1      2928 1.66478E-01
 -1      2929 1.80569E-01
 -1      2930 1.30586E-01
 -1      2931 1.65361E-01
 -1      2932 1.65361E-01
 -1      2933 1.88325E-01
 -1      2934 1.53945E-01
 -1      2935 2.13429E-01
 -1      2936 1.58584E-01
 -1      2937 1.47746E-01
 -1      2938 1.65831E-01
 -1      2939 1.65939E-01
 -1      2940 1.88884E-01
 -1      2941 1.65361E-01
 -1      2942 1.64005E-01
 -1      2943 1.82885E-01
 -1      2944 1.88306E-01
 -1      2945 1.26917E+01
 -1      2946 1.50763E+01
 -1      2947 1.64955E-01
 -1      2948 1.65831E-01
 -1      2949 1.89463E-01
 -1      2950 1.48507E-01
 -1      2951 1.58407E-01
 -1      2952 1.82915E-01
 -1      2953 1.78336E-01
 -1      2954 1.71634E-01
 -1      2955 1.99495E-01
 -1      2956 5.12376E-01
 -1      2957 5.92159E-01
 -1      2958 4.33654E-01
 -1      2959 4.55037E+00
 -1      2960 5.71958E+00
 -1      2961 5.77211E+00
 -1      2962 7.49099E+00
 -1      2963 1.86149E+01
 -1      2964 1.40429E+01
 -1      2965 7.93485E-01
 -1      2966 6.18705E-01
 -1      2967 7.12416E-01
 -1      2968 5.31920E-01
 -1      2969 4.95634E-01
 -1      2970 2.43750E+01
 -1      2971 2.00685E+01
 -1      2972 1.64286E+01
 -1      2973 2.23434E+01
 -1      2974 1.38652E+01
 -1      2975 3.10228E-01
 -1      2976 3.40647E-01
 -1      2977 2.62551E-01
 -1      2978 3.61353E-01
 -1      2979 3.92937E-01
 -1      2980 3.03603E-01
 -1      2981 6.03327E-01
 -1      2982 5.58524E-01
 -1      2983 4.03702E-01
 -1      2984 4.74236E+00
 -1      2985 5.74822E+00
 -1      2986 6.07886E+00
 -1      2987 5.69242E+00
 -1      2988 1.18945E+01
 -1      2989 8.34467E+00
 -1      2990 2.37146E+01
 -1      2991 2.05141E+01
 -1      2992 1.36816E+01
 -1      2993 4.58884E+00
 -1      2994 4.09009E+00
 -1      2995 4.71118E+00
 -1      2996 4.13274E+00
 -1      2997 4.34055E-01
 -1      2998 4.22179E-01
 -1      2999 3.58670E-01
 -1      3000 3.60424E-01
 -1      3001 6.59896E+00
 -1      3002 6.14182E+00
 -1      3003 4.44381E+00
 -1      3004 4.33281E+00
 -1      3005 2.13280E+01
 -1      3006 1.74009E+01
 -1      3007 7.01862E+00
 -1      3008 5.77757E+00
 -1      3009 4.21526E-01
 -1      3010 4.33742E-01
 -1      3011 9.44533E+00
 -1      3012 7.71398E+00
 -1      3013 1.39059E+01
 -1      3014 1.90237E+01
 -1      3015 1.49206E+01
 -1      3016 1.08134E+01
 -1      3017 2.03404E+01
 -1      3018 2.57107E+01
 -1      3019 1.38929E+01
 -1      3020 6.36547E+00
 -1      3021 6.59587E+00
 -1      3022 5.35914E+00
 -1      3023 1.62602E-01
 -1      3024 7.75718E+00
 -1      3025 1.04731E+01
 -1      3026 9.14420E+00
 -1      3027 6.48633E+00
 -1      3028 7.03163E+00
 -1      3029 1.02857E+01
 -1      3030 1.27947E+01
 -1      3031 7.27493E+00
 -1      3032 5.36756E+00
 -1      3033 6.88439E+00
 -1      3034 5.86353E+00
 -1      3035 4.59946E-01
 -1      3036 5.61799E-01
 -1      3037 3.86362E-01
 -1      3038 3.40961E-01
 -1      3039 3.84929E-01
 -1      3040 3.97560E-01
 -1      3041 3.42931E+00
 -1      3042 4.17076E+00
 -1      3043 1.46218E+01
 -1      3044 5.69336E-01
 -1      3045 4.73881E+00
 -1      3046 5.29927E+00
 -1      3047 1.57409E-01
 -1      3048 1.27691E-01
 -1      3049 1.16120E-01
 -1      3050 4.30864E+00
 -1      3051 4.62993E+00
 -1      3052 3.61264E-01
 -1      3053 1.03836E-01
 -1      3054 1.10283E-01
 -1      3055 1.33088E-01
 -1      3056 1.25069E-01
 -1      3057 4.76691E+00
 -1      3058 4.59740E+00
 -1      3059 3.40744E+00
 -1      3060 1.69143E-01
 -1      3061 1.13869E+01
 -1      3062 1.89172E+01
 -1      3063 1.26464E+01
 -1      3064 2.13429E-01
 -1      3065 6.41583E+00
 -1      3066 1.25770E+01
 -1      3067 1.14650E+01
 -1      3068 5.42307E+00
 -1      3069 7.65751E+00
 -1      3070 7.72561E+00
 -1      3071 8.72871E+00
 -1      3072 6.65939E+00
 -1      3073 1.00968E+01
 -1      3074 1.23574E+01
 -1      3075 7.94845E+00
 -1      3076 5.74823E-01
 -1      3077 6.57278E-01
 -1      3078 6.20100E-01
 -1      3079 4.25592E-01
 -1      3080 6.66534E+00
 -1      3081 4.39055E-01
 -1      3082 4.21843E-01
 -1      3083 1.44731E+01
 -1      3084 1.21120E+01
 -1      3085 1.07596E+01
 -1      3086 3.72516E+00
 -1      3087 3.37178E+00
 -1      3088 3.44492E+00
 -1      3089 4.05236E-01
 -1      3090 4.19442E-01
 -1      3091 3.58074E-01
 -1      3092 3.48314E-01
 -1      3093 3.71202E+00
 -1      3094 4.63623E+00
 -1      3095 1.38739E+01
 -1      3096 2.88133E-01
 -1      3097 3.00120E-01
 -1      3098 4.12157E+00
 -1      3099 4.73881E+00
 -1      3100 3.19391E-01
 -1      3101 2.96923E-01
 -1      3102 2.90648E-01
 -1      3103 2.62647E-01
 -1      3104 2.46164E-01
 -1      3105 2.47609E-01
 -1      3106 2.24513E-01
 -1      3107 2.24851E-01
 -1      3108 2.04486E-01
 -1      3109 1.86690E-01
 -1      3110 1.89787E-01
 -1      3111 1.72134E-01
 -1      3112 1.51781E-01
 -1      3113 1.55204E-01
 -1      3114 1.32804E-01
 -1      3115 1.10576E-01
 -1      3116 1.21672E-01
 -1      3117 1.00935E-01
 -1      3118 9.04234E-02
 -1      3119 9.30540E-02
 -1      3120 9.76145E-02
 -1      3121 1.14719E-01
 -1      3122 9.06041E-02
 -1      3123 1.46570E-01
 -1      3124 1.86313E-01
 -1      3125 1.29646E-01
 -1      3126 2.28459E-01
 -1      3127 2.74563E-01
 -1      3128 2.03642E-01
 -1      3129 3.23538E-01
 -1      3130 3.77008E-01
 -1      3131 2.94762E-01
 -1      3132 4.32860E-01
 -1      3133 4.94456E-01
 -1      3134 3.99589E-01
 -1      3135 5.56013E-01
 -1      3136 6.25929E-01
 -1      3137 5.16997E-01
 -1      3138 7.02838E-01
 -1      3139 7.80120E-01
 -1      3140 6.55463E-01
 -1      3141 8.83647E-01
 -1      3142 9.64927E-01
 -1      3143 8.35897E-01
 -1      3144 1.10361E+00
 -1      3145 1.18071E+00
 -1      3146 1.07811E+00
 -1      3147 1.35342E+00
 -1      3148 1.48238E+00
 -1      3149 1.38951E+00
 -1      3150 1.66831E+00
 -1      3151 1.82101E+00
 -1      3152 1.74815E+00
 -1      3153 2.03162E+00
 -1      3154 2.20311E+00
 -1      3155 2.14470E+00
 -1      3156 2.72408E+00
 -1      3157 2.93296E+00
 -1      3158 2.87627E+00
 -1      3159 3.83300E+00
 -1      3160 4.28603E+00
 -1      3161 4.29728E+00
 -1      3162 3.37476E+00
 -1      3163 2.76795E+00
 -1      3164 3.44492E+00
 -1      3165 4.30864E+00
 -1      3166 4.95428E+00
 -1      3167 5.10152E+00
 -1      3168 4.56414E+00
 -1      3169 3.74255E+00
 -1      3170 3.63488E+00
 -1      3171 3.11420E+00
 -1      3172 2.72068E+00
 -1      3173 3.96899E+00
 -1      3174 2.34456E+00
 -1      3175 2.21407E+00
 -1      3176 3.07220E+00
 -1      3177 1.87911E+00
 -1      3178 1.72698E+00
 -1      3179 2.36112E+00
 -1      3180 1.50819E+00
 -1      3181 1.37403E+00
 -1      3182 1.80736E+00
 -1      3183 1.22146E+00
 -1      3184 1.14945E+00
 -1      3185 1.43600E+00
 -1      3186 1.01243E+00
 -1      3187 9.40101E-01
 -1      3188 1.14640E+00
 -1      3189 8.34610E-01
 -1      3190 7.60161E-01
 -1      3191 9.03891E-01
 -1      3192 6.80278E-01
 -1      3193 6.08281E-01
 -1      3194 7.18516E-01
 -1      3195 5.38535E-01
 -1      3196 4.73619E-01
 -1      3197 5.68886E-01
 -1      3198 4.25459E-01
 -1      3199 3.69414E-01
 -1      3200 4.50980E-01
 -1      3201 3.56088E-01
 -1      3202 3.11694E-01
 -1      3203 3.89495E-01
 -1      3204 2.78636E-01
 -1      3205 2.66337E-01
 -1      3206 3.43110E-01
 -1      3207 1.79156E-01
 -1      3208 2.00922E-01
 -1      3209 1.06482E-01
 -1      3210 9.65475E-02
 -1      3211 1.69241E-01
 -1      3212 1.37954E-01
 -1      3213 1.04797E-01
 -1      3214 2.52687E-01
 -1      3215 2.07357E-01
 -1      3216 1.74384E-01
 -1      3217 3.48820E-01
 -1      3218 2.97415E-01
 -1      3219 2.57227E-01
 -1      3220 4.60061E-01
 -1      3221 4.02836E-01
 -1      3222 3.55971E-01
 -1      3223 5.86221E-01
 -1      3224 5.24643E-01
 -1      3225 4.74569E-01
 -1      3226 7.23207E-01
 -1      3227 6.60657E-01
 -1      3228 6.13588E-01
 -1      3229 8.64034E-01
 -1      3230 8.06716E-01
 -1      3231 7.71533E-01
 -1      3232 1.02061E+00
 -1      3233 9.62687E-01
 -1      3234 9.53695E-01
 -1      3235 1.21979E+00
 -1      3236 1.12399E+00
 -1      3237 1.15573E+00
 -1      3238 1.46182E+00
 -1      3239 1.37252E+00
 -1      3240 1.41184E+00
 -1      3241 1.74469E+00
 -1      3242 1.69511E+00
 -1      3243 1.79786E+00
 -1      3244 2.10301E+00
 -1      3245 1.90153E+00
 -1      3246 2.18798E+00
 -1      3247 2.67560E+00
 -1      3248 2.53991E+00
 -1      3249 2.78172E+00
 -1      3250 3.08546E+00
 -1      3251 2.79355E+00
 -1      3252 3.33657E+00
 -1      3253 3.41899E+00
 -1      3254 4.99935E+00
 -1      3255 5.29927E+00
 -1      3256 5.00244E+00
 -1      3257 4.18164E+00
 -1      3258 5.23632E+00
 -1      3259 4.15974E+00
 -1      3260 2.61733E+00
 -1      3261 3.12892E+00
 -1      3262 1.93032E+00
 -1      3263 2.05999E+00
 -1      3264 2.61733E+00
 -1      3265 2.25135E+00
 -1      3266 2.43057E+00
 -1      3267 2.56023E+00
 -1      3268 1.60325E+00
 -1      3269 1.67333E+00
 -1      3270 2.48246E+00
 -1      3271 1.31795E+00
 -1      3272 1.40307E+00
 -1      3273 1.70426E+00
 -1      3274 1.08466E+00
 -1      3275 1.17730E+00
 -1      3276 1.36342E+00
 -1      3277 9.30298E-01
 -1      3278 9.82589E-01
 -1      3279 1.12070E+00
 -1      3280 7.76773E-01
 -1      3281 8.34296E-01
 -1      3282 9.22633E-01
 -1      3283 6.34200E-01
 -1      3284 6.95338E-01
 -1      3285 7.45195E-01
 -1      3286 5.03393E-01
 -1      3287 5.62337E-01
 -1      3288 5.91897E-01
 -1      3289 3.89084E-01
 -1      3290 4.42535E-01
 -1      3291 4.59176E-01
 -1      3292 2.93757E-01
 -1      3293 3.40156E-01
 -1      3294 3.49389E-01
 -1      3295 2.22959E-01
 -1      3296 2.62613E-01
 -1      3297 2.69316E-01
 -1      3298 1.58206E-01
 -1      3299 1.85385E-01
 -1      3300 2.00597E-01
 -1      3301 1.37903E-01
 -1      3302 6.73646E+00
 -1      3303 3.21734E-01
 -1      3304 3.13918E-01
 -1      3305 6.26922E+00
 -1      3306 8.48785E+00
 -1      3307 2.10971E-01
 -1      3308 2.10392E-01
 -1      3309 2.66337E-01
 -1      3310 2.43209E-01
 -1      3311 2.19024E-01
 -1      3312 2.19024E-01
 -1      3313 2.40532E-01
 -1      3314 3.51498E-01
 -1      3315 3.86932E-01
 -1      3316 1.05498E+01
 -1      3317 1.18664E+01
 -1      3318 4.91788E+00
 -1      3319 3.74255E+00
 -1      3320 2.12476E-01
 -1      3321 2.19024E-01
 -1      3322 2.48585E-01
 -1      3323 2.79318E-01
 -1      3324 9.73625E-02
 -1      3325 1.14337E-01
 -1      3326 7.41400E-02
 -1      3327 1.36606E-01
 -1      3328 1.59083E-01
 -1      3329 1.39566E-01
 -1      3330 9.72241E-02
 -1      3331 1.20325E+01
 -1      3332 1.18302E+01
 -1      3333 2.18132E-01
 -1      3334 2.38478E-01
 -1      3335 1.76849E-01
 -1      3336 3.18173E-01
 -1      3337 3.10178E-01
 -1      3338 2.43226E-01
 -1      3339 2.61658E-01
 -1      3340 2.82364E-01
 -1      3341 2.17240E-01
 -1      3342 1.17061E+01
 -1      3343 9.22581E+00
 -1      3344 1.26431E+01
 -1      3345 1.07439E+01
 -1      3346 5.98762E+00
 -1      3347 4.71225E+00
 -1      3348 3.37850E+00
 -1      3349 2.99282E-01
 -1      3350 2.97914E-01
 -1      3351 2.13754E-01
 -1      3352 9.12308E+00
 -1      3353 1.02343E+01
 -1      3354 8.20780E+00
 -1      3355 1.14346E+01
 -1      3356 1.00989E+01
 -1      3357 4.10446E-01
 -1      3358 3.07841E-01
 -1      3359 2.59525E-01
 -1      3360 4.00706E-01
 -1      3361 5.56038E+00
 -1      3362 5.82656E+00
 -1      3363 7.94261E+00
 -1      3364 6.57459E+00
 -1      3365 7.07169E+00
 -1      3366 3.02463E-01
 -1      3367 3.39419E-01
 -1      3368 2.60519E-01
 -1      3369 3.19477E-01
 -1      3370 3.02704E-01
 -1      3371 3.06452E-01
 -1      3372 1.18302E+01
 -1      3373 1.27891E+01
 -1      3374 9.99749E+00
 -1      3375 3.79738E+00
 -1      3376 6.57459E+00
 -1      3377 5.87923E+00
 -1      3378 3.29536E+00
 -1      3379 2.86149E+00
 -1      3380 2.99543E+00
 -1      3381 3.10341E-01
 -1      3382 3.10018E-01
 -1      3383 2.82975E-01
 -1      3384 4.62150E+00
 -1      3385 4.28603E+00
 -1      3386 1.85002E-01
 -1      3387 1.64947E-01
 -1      3388 3.51508E+00
 -1      3389 1.04936E+01
 -1      3390 8.45862E+00
 -1      3391 8.53809E+00
 -1      3392 2.79490E-01
 -1      3393 3.05695E-01
 -1      3394 1.99580E-01
 -1      3395 3.78804E+00
 -1      3396 4.20549E+00
 -1      3397 5.17021E+00
 -1      3398 7.60361E+00
 -1      3399 1.00429E+01
 -1      3400 8.89158E+00
 -1      3401 2.12757E-01
 -1      3402 2.07336E-01
 -1      3403 2.14875E-01
 -1      3404 3.41042E+00
 -1      3405 2.22623E-01
 -1      3406 3.21734E-01
 -1      3407 2.86552E-01
 -1      3408 3.23488E-01
 -1      3409 5.63370E+00
 -1      3410 8.50869E+00
 -1      3411 7.90549E+00
 -1      3412 2.12757E-01
 -1      3413 2.12757E-01
 -1      3414 2.37208E-01
 -1      3415 2.34844E-01
 -1      3416 2.92697E-01
 -1      3417 8.09147E+00
 -1      3418 8.60801E+00
 -1      3419 1.10188E+01
 -1      3420 7.66765E+00
 -1      3421 5.47302E+00
 -1      3422 5.14736E+00
 -1      3423 4.32169E+00
 -1      3424 9.05840E+00
 -1      3425 9.85148E+00
 -1      3426 3.72091E-01
 -1      3427 3.98637E-01
 -1      3428 2.77164E-01
 -1      3429 2.89936E-01
 -1      3430 3.19454E-01
 -1      3431 3.19454E-01
 -1      3432 2.82518E-01
 -1      3433 2.59150E-01
 -1      3434 1.96916E-01
 -1      3435 5.46694E+00
 -1      3436 5.98215E+00
 -1      3437 3.96352E+00
 -1      3438 3.58740E+00
 -1      3439 6.44503E+00
 -1      3440 7.77557E+00
 -1      3441 6.54483E+00
 -1      3442 5.14736E+00
 -1      3443 5.78849E+00
 -1      3444 2.77406E-01
 -1      3445 2.79490E-01
 -1      3446 1.98822E-01
 -1      3447 4.78394E+00
 -1      3448 3.95111E+00
 -1      3449 2.66337E-01
 -1      3450 3.10051E-01
 -1      3451 4.50356E+00
 -1      3452 2.04836E-01
 -1      3453 1.89798E-01
 -1      3454 1.81707E-01
 -1      3455 1.61680E-01
 -1      3456 1.61692E-01
 -1      3457 1.48638E-01
 -1      3458 1.34082E-01
 -1      3459 1.40558E-01
 -1      3460 1.23595E-01
 -1      3461 1.04618E-01
 -1      3462 1.17028E-01
 -1      3463 1.06960E-01
 -1      3464 9.73192E-02
 -1      3465 1.08883E-01
 -1      3466 1.02997E-01
 -1      3467 1.10188E-01
 -1      3468 1.16903E-01
 -1      3469 1.26968E-01
 -1      3470 1.58819E-01
 -1      3471 1.39361E-01
 -1      3472 1.97797E-01
 -1      3473 2.39942E-01
 -1      3474 1.95118E-01
 -1      3475 2.86741E-01
 -1      3476 3.35715E-01
 -1      3477 2.80895E-01
 -1      3478 3.91821E-01
 -1      3479 4.47673E-01
 -1      3480 3.83799E-01
 -1      3481 5.14670E-01
 -1      3482 5.76227E-01
 -1      3483 5.06902E-01
 -1      3484 6.55463E-01
 -1      3485 7.32371E-01
 -1      3486 6.53135E-01
 -1      3487 8.23971E-01
 -1      3488 9.27497E-01
 -1      3489 8.23971E-01
 -1      3490 1.05025E+00
 -1      3491 1.18894E+00
 -1      3492 1.03832E+00
 -1      3493 1.37416E+00
 -1      3494 1.54687E+00
 -1      3495 1.34629E+00
 -1      3496 1.95656E+00
 -1      3497 2.14250E+00
 -1      3498 1.94121E+00
 -1      3499 3.28542E+00
 -1      3500 3.49602E+00
 -1      3501 3.49382E+00
 -1      3502 3.53675E+00
 -1      3503 4.05772E+00
 -1      3504 4.67747E+00
 -1      3505 4.29728E+00
 -1      3506 5.19731E+00
 -1      3507 3.65826E-01
 -1      3508 3.65826E-01
 -1      3509 3.98885E-01
 -1      3510 1.86973E-01
 -1      3511 1.96185E-01
 -1      3512 3.05762E+00
 -1      3513 2.72266E+00
 -1      3514 3.94895E+00
 -1      3515 2.31404E+00
 -1      3516 2.09524E+00
 -1      3517 3.01054E+00
 -1      3518 1.70848E+00
 -1      3519 1.55591E+00
 -1      3520 2.21516E+00
 -1      3521 1.29858E+00
 -1      3522 1.16156E+00
 -1      3523 1.57106E+00
 -1      3524 1.00971E+00
 -1      3525 9.04215E-01
 -1      3526 1.16188E+00
 -1      3527 7.98399E-01
 -1      3528 7.18516E-01
 -1      3529 9.04215E-01
 -1      3530 6.38633E-01
 -1      3531 5.68886E-01
 -1      3532 7.18516E-01
 -1      3533 5.24408E-01
 -1      3534 4.76249E-01
 -1      3535 5.94154E-01
 -1      3536 4.76555E-01
 -1      3537 4.63229E-01
 -1      3538 4.85945E-01
 -1      3539 5.49983E-01
 -1      3540 3.39377E+00
 -1      3541 1.70914E-01
 -1      3542 1.58630E-01
 -1      3543 1.83749E-01
 -1      3544 1.98508E-01
 -1      3545 1.32448E-01
 -1      3546 1.00976E-01
 -1      3547 3.99766E-01
 -1      3548 3.45750E-01
 -1      3549 5.22586E-01
 -1      3550 4.58004E-01
 -1      3551 4.47783E-01
 -1      3552 6.61892E-01
 -1      3553 5.87455E-01
 -1      3554 5.70891E-01
 -1      3555 8.24613E-01
 -1      3556 7.41104E-01
 -1      3557 7.14972E-01
 -1      3558 1.02979E+00
 -1      3559 9.31132E-01
 -1      3560 9.00703E-01
 -1      3561 1.30338E+00
 -1      3562 1.20000E+00
 -1      3563 1.17744E+00
 -1      3564 1.68726E+00
 -1      3565 1.53453E+00
 -1      3566 1.57880E+00
 -1      3567 2.17930E+00
 -1      3568 1.94602E+00
 -1      3569 2.06871E+00
 -1      3570 2.86504E+00
 -1      3571 2.70820E+00
 -1      3572 2.85636E+00
 -1      3573 4.08219E+00
 -1      3574 3.64529E+00
 -1      3575 4.16551E+00
 -1      3576 5.36712E+00
 -1      3577 2.93661E+00
 -1      3578 3.51463E+00
 -1      3579 4.34817E+00
 -1      3580 4.79082E+00
 -1      3581 3.89402E+00
 -1      3582 2.02506E+00
 -1      3583 2.22525E+00
 -1      3584 3.25742E+00
 -1      3585 1.47980E+00
 -1      3586 1.62045E+00
 -1      3587 2.14144E+00
 -1      3588 1.15393E+00
 -1      3589 1.25600E+00
 -1      3590 1.51303E+00
 -1      3591 8.98473E-01
 -1      3592 9.94475E-01
 -1      3593 1.12977E+00
 -1      3594 7.14319E-01
 -1      3595 7.95754E-01
 -1      3596 8.67597E-01
 -1      3597 5.67111E-01
 -1      3598 6.38974E-01
 -1      3599 6.89533E-01
 -1      3600 4.43306E-01
 -1      3601 5.04164E-01
 -1      3602 5.51241E-01
 -1      3603 3.38654E-01
 -1      3604 3.87583E-01
 -1      3605 4.32571E-01
 -1      3606 8.85459E-02
 -1      3607 8.93609E-02
 -1      3608 1.16197E-01
 -1      3609 2.76389E-01
 -1      3610 2.68336E-01
 -1      3611 2.10385E-01
 -1      3612 2.04110E-01
 -1      3613 1.69057E-01
 -1      3614 2.94997E-01
 -1      3615 2.50269E-01
 -1      3616 3.38792E-01
 -1      3617 8.16949E+00
 -1      3618 7.52243E+00
 -1      3619 5.55612E+00
 -1      3620 3.10192E+00
 -1      3621 3.03158E-01
 -1      3622 3.10834E-01
 -1      3623 2.32250E-01
 -1      3624 2.72538E-01
 -1      3625 1.51965E-01
 -1      3626 1.69174E-01
 -1      3627 2.41608E-01
 -1      3628 2.53688E-01
 -1      3629 6.97655E+00
 -1      3630 6.54475E+00
 -1      3631 6.75605E+00
 -1      3632 7.07151E+00
 -1      3633 5.52479E+00
 -1      3634 1.85141E-01
 -1      3635 2.08321E-01
 -1      3636 1.60256E-01
 -1      3637 1.76482E-01
 -1      3638 1.77240E-01
 -1      3639 1.73818E-01
 -1      3640 8.32285E+00
 -1      3641 8.17684E+00
 -1      3642 6.64087E+00
 -1      3643 1.53727E-01
 -1      3644 1.73986E-01
 -1      3645 1.26946E-01
 -1      3646 1.34051E-01
 -1      3647 7.66765E+00
 -1      3648 6.38445E+00
 -1      3649 2.19265E-01
 -1      3650 2.39364E-01
 -1      3651 1.87166E-01
 -1      3652 5.36712E+00
 -1      3653 8.32217E+00
 -1      3654 8.32217E+00
 -1      3655 2.06699E-01
 -1      3656 1.68583E-01
 -1      3657 1.64762E-01
 -1      3658 2.44468E-01
 -1      3659 4.32169E+00
 -1      3660 4.95776E+00
 -1      3661 3.35093E-01
 -1      3662 3.01857E-01
 -1      3663 2.66000E-01
 -1      3664 2.68364E-01
 -1      3665 7.55333E+00
 -1      3666 5.93499E+00
 -1      3667 5.30239E+00
 -1      3668 6.98042E+00
 -1      3669 1.54132E-01
 -1      3670 2.58640E-01
 -1      3671 2.64607E-01
 -1      3672 1.19604E-01
 -1      3673 1.39678E-01
 -1      3674 1.32003E-01
 -1      3675 6.64753E+00
 -1      3676 2.73539E-01
 -1      3677 3.39638E-01
 -1      3678 2.95873E-01
 -1      3679 5.19731E+00
 -1      3680 1.00155E-01
 -1      3681 8.57495E-02
 -1      3682 1.08019E-01
 -1      3683 3.12600E-01
 -1      3684 3.50794E-01
 -1      3685 2.81455E-01
 -1      3686 2.21323E-01
 -1      3687 6.47043E+00
 -1      3688 6.41437E+00
 -1      3689 5.35551E+00
 -1      3690 3.33686E-01
 -1      3691 3.61490E-01
 -1      3692 3.33686E-01
 -1      3693 7.51176E+00
 -1      3694 5.88417E+00
 -1      3695 6.16774E+00
 -1      3696 2.50423E-01
 -1      3697 2.46846E-01
 -1      3698 2.02341E-01
 -1      3699 2.21674E-01
 -1      3700 2.35253E-01
 -1      3701 2.20412E-01
 -1      3702 1.84164E-01
 -1      3703 5.96309E+00
 -1      3704 2.00354E-01
 -1      3705 1.96221E-01
 -1      3706 1.73881E-01
 -1      3707 1.96221E-01
 -1      3708 6.69290E+00
 -1      3709 8.23178E+00
 -1      3710 6.55646E+00
 -1      3711 2.50423E-01
 -1      3712 2.50423E-01
 -1      3713 2.14294E-01
 -1      3714 4.95776E+00
 -1      3715 6.30527E+00
 -1      3716 5.16898E+00
 -1      3717 4.71820E+00
 -1      3718 7.94185E-01
 -1      3719 7.14972E-01
 -1      3720 1.33931E-01
 -1      3721 1.20888E-01
 -1      3722 1.18371E-01
 -1      3723 1.07884E-01
 -1      3724 1.11744E-01
 -1      3725 1.15460E-01
 -1      3726 1.17803E-01
 -1      3727 1.16804E-01
 -1      3728 1.25483E-01
 -1      3729 1.31161E-01
 -1      3730 1.32061E-01
 -1      3731 1.40139E-01
 -1      3732 1.56918E-01
 -1      3733 1.48719E-01
 -1      3734 1.79889E-01
 -1      3735 2.18867E-01
 -1      3736 1.80667E-01
 -1      3737 2.59308E-01
 -1      3738 3.06107E-01
 -1      3739 2.44079E-01
 -1      3740 3.56251E-01
 -1      3741 4.12356E-01
 -1      3742 3.34664E-01
 -1      3743 4.75370E-01
 -1      3744 5.42367E-01
 -1      3745 4.47822E-01
 -1      3746 6.22961E-01
 -1      3747 7.02197E-01
 -1      3748 5.91429E-01
 -1      3749 8.07310E-01
 -1      3750 8.98910E-01
 -1      3751 7.77136E-01
 -1      3752 1.03832E+00
 -1      3753 1.16107E+00
 -1      3754 1.02166E+00
 -1      3755 1.34629E+00
 -1      3756 1.53152E+00
 -1      3757 1.34629E+00
 -1      3758 2.28896E+00
 -1      3759 2.69865E+00
 -1      3760 2.28896E+00
 -1      3761 2.81227E+00
 -1      3762 3.95519E+00
 -1      3763 3.16002E+00
 -1      3764 4.20193E-01
 -1      3765 1.46381E-01
 -1      3766 1.38290E-01
 -1      3767 1.18620E-01
 -1      3768 5.19731E+00
 -1      3769 3.92231E+00
 -1      3770 3.51368E+00
 -1      3771 3.20515E+00
 -1      3772 2.81839E+00
 -1      3773 4.11691E+00
 -1      3774 1.99069E+00
 -1      3775 1.73335E+00
 -1      3776 2.98068E+00
 -1      3777 1.31373E+00
 -1      3778 1.16188E+00
 -1      3779 1.73335E+00
 -1      3780 1.01003E+00
 -1      3781 9.04215E-01
 -1      3782 1.16188E+00
 -1      3783 7.85491E-01
 -1      3784 7.05608E-01
 -1      3785 8.91307E-01
 -1      3786 6.17431E-01
 -1      3787 5.72953E-01
 -1      3788 6.84407E-01
 -1      3789 6.27471E-01
 -1      3790 5.62602E-01
 -1      3791 7.06683E-01
 -1      3792 5.02634E+00
 -1      3793 4.91165E-01
 -1      3794 4.32927E-01
 -1      3795 5.47746E-01
 -1      3796 1.00722E+00
 -1      3797 9.00703E-01
 -1      3798 9.00703E-01
 -1      3799 1.31291E+00
 -1      3800 1.14269E+00
 -1      3801 1.14269E+00
 -1      3802 1.78974E+00
 -1      3803 1.55858E+00
 -1      3804 1.52384E+00
 -1      3805 2.40065E+00
 -1      3806 2.14190E+00
 -1      3807 2.12168E+00
 -1      3808 3.15525E+00
 -1      3809 2.62635E+00
 -1      3810 2.69954E+00
 -1      3811 5.18284E+00
 -1      3812 1.84888E+00
 -1      3813 2.25350E+00
 -1      3814 4.81167E+00
 -1      3815 1.38171E+00
 -1      3816 1.60551E+00
 -1      3817 1.71757E+00
 -1      3818 1.09561E+00
 -1      3819 1.25507E+00
 -1      3820 1.34755E+00
 -1      3821 8.67597E-01
 -1      3822 9.70316E-01
 -1      3823 1.09561E+00
 -1      3824 6.89533E-01
 -1      3825 7.64878E-01
 -1      3826 8.67597E-01
 -1      3827 5.41917E-01
 -1      3828 6.04864E-01
 -1      3829 6.80209E-01
 -1      3830 4.17179E-01
 -1      3831 4.72902E-01
 -1      3832 5.26525E-01
 -1      3833 5.52949E+00
 -1      3834 1.33130E-01
 -1      3835 1.20700E-01
 -1      3836 2.57455E-01
 -1      3837 2.19980E-01
 -1      3838 1.42367E-01
 -1      3839 1.43093E-01
 -1      3840 1.19691E-01
 -1      3841 1.83525E-01
 -1      3842 2.40334E-01
 -1      3843 2.44368E-01
 -1      3844 3.74423E-01
 -1      3845 3.23670E-01
 -1      3846 4.17805E-01
 -1      3847 2.95873E-01
 -1      3848 2.95873E-01
 -1      3849 3.27029E-01
 -1      3850 1.68162E-01
 -1      3851 1.70406E-01
 -1      3852 2.28115E-01
 -1      3853 2.60667E-01
 -1      3854 3.43941E-01
 -1      3855 3.69995E-01
 -1      3856 4.10327E-01
 -1      3857 3.58840E-01
 -1      3858 5.16898E+00
 -1      3859 5.07402E+00
 -1      3860 1.37075E-01
 -1      3861 1.53042E-01
 -1      3862 5.98791E+00
 -1      3863 5.98791E+00
 -1      3864 1.59091E-01
 -1      3865 1.70035E-01
 -1      3866 1.35911E-01
 -1      3867 1.14069E-01
 -1      3868 1.28269E-01
 -1      3869 1.02305E-01
 -1      3870 5.53615E+00
 -1      3871 5.53683E+00
 -1      3872 5.53683E+00
 -1      3873 3.58192E+00
 -1      3874 4.42480E+00
 -1      3875 4.07264E+00
 -1      3876 2.87055E+00
 -1      3877 1.65298E-01
 -1      3878 4.85945E-01
 -1      3879 4.84538E-01
 -1      3880 5.50290E-01
 -1      3881 4.67747E+00
 -1      3882 4.71820E+00
 -1      3883 2.08239E-01
 -1      3884 3.25623E-01
 -1      3885 3.23287E-01
 -1      3886 1.08130E-01
 -1      3887 1.32310E-01
 -1      3888 1.15377E-01
 -1      3889 1.11766E-01
 -1      3890 5.49983E-01
 -1      3891 5.50290E-01
 -1      3892 5.50290E-01
 -1      3893 1.15124E-01
 -1      3894 1.27411E-01
 -1      3895 1.20197E-01
 -1      3896 1.80657E-01
 -1      3897 1.94478E-01
 -1      3898 4.95283E+00
 -1      3899 3.54537E-01
 -1      3900 1.53156E-01
 -1      3901 1.34722E-01
 -1      3902 1.20964E-01
 -1      3903 4.70047E+00
 -1      3904 5.83365E+00
 -1      3905 4.45383E+00
 -1      3906 4.42545E+00
 -1      3907 1.56907E-01
 -1      3908 1.61410E-01
 -1      3909 1.93043E-01
 -1      3910 4.59402E+00
 -1      3911 4.51970E+00
 -1      3912 4.23820E+00
 -1      3913 4.35717E+00
 -1      3914 5.34193E+00
 -1      3915 5.11509E+00
 -1      3916 4.34410E+00
 -1      3917 5.44034E+00
 -1      3918 4.44784E+00
 -1      3919 1.46871E-01
 -1      3920 1.59858E-01
 -1      3921 1.33995E-01
 -1      3922 1.33414E-01
 -1      3923 1.32982E-01
 -1      3924 1.51642E-01
 -1      3925 1.02407E-01
 -1      3926 1.40087E-01
 -1      3927 2.53807E-01
 -1      3928 5.13069E+00
 -1      3929 4.01999E+00
 -1      3930 5.04029E+00
 -1      3931 2.57800E+00
 -1      3932 3.61490E-01
 -1      3933 3.04193E-01
 -1      3934 3.25623E-01
 -1      3935 4.27241E-01
 -1      3936 3.96032E+00
 -1      3937 3.11491E-01
 -1      3938 2.75860E-01
 -1      3939 2.32290E-01
 -1      3940 1.46620E-01
 -1      3941 1.26528E-01
 -1      3942 1.59440E-01
 -1      3943 1.66359E-01
 -1      3944 2.53807E-01
 -1      3945 2.20379E-01
 -1      3946 2.17778E-01
 -1      3947 2.41936E-01
 -1      3948 1.80657E-01
 -1      3949 1.80657E-01
 -1      3950 1.47020E-01
 -1      3951 1.17422E-01
 -1      3952 1.24998E-01
 -1      3953 1.33614E-01
 -1      3954 1.41294E-01
 -1      3955 1.34232E-01
 -1      3956 1.50510E-01
 -1      3957 1.59488E-01
 -1      3958 1.52063E-01
 -1      3959 1.74275E-01
 -1      3960 1.97246E-01
 -1      3961 1.76066E-01
 -1      3962 2.18659E-01
 -1      3963 2.59100E-01
 -1      3964 2.12266E-01
 -1      3965 2.93466E-01
 -1      3966 3.43610E-01
 -1      3967 2.68047E-01
 -1      3968 3.93670E-01
 -1      3969 4.56684E-01
 -1      3970 3.52473E-01
 -1      3971 5.23168E-01
 -1      3972 6.03762E-01
 -1      3973 4.69017E-01
 -1      3974 6.95329E-01
 -1      3975 8.00442E-01
 -1      3976 6.27068E-01
 -1      3977 9.32151E-01
 -1      3978 1.07156E+00
 -1      3979 8.50343E-01
 -1      3980 1.26297E+00
 -1      3981 1.44820E+00
 -1      3982 1.17346E+00
 -1      3983 2.28896E+00
 -1      3984 3.04639E+00
 -1      3985 2.20563E+00
 -1      3986 1.67647E-01
 -1      3987 1.73702E-01
 -1      3988 1.40065E-01
 -1      3989 1.17105E-01
 -1      3990 1.05388E-01
 -1      3991 1.16973E-01
 -1      3992 1.20609E-01
 -1      3993 4.11691E+00
 -1      3994 1.12373E-01
 -1      3995 1.09856E-01
 -1      3996 1.18051E-01
 -1      3997 5.73260E-01
 -1      3998 9.76041E-01
 -1      3999 8.69523E-01
 -1      4000 2.03153E+00
 -1      4001 1.61190E+00
 -1      4002 1.23551E+00
 -1      4003 1.08366E+00
 -1      4004 1.53369E+00
 -1      4005 9.32250E-01
 -1      4006 8.13526E-01
 -1      4007 1.00588E+00
 -1      4008 7.01296E-01
 -1      4009 6.13119E-01
 -1      4010 7.42239E-01
 -1      4011 7.50753E-01
 -1      4012 6.63252E-01
 -1      4013 8.26091E-01
 -1      4014 1.27817E+00
 -1      4015 1.14269E+00
 -1      4016 1.11151E+00
 -1      4017 5.76480E-01
 -1      4018 5.05043E-01
 -1      4019 6.20550E-01
 -1      4020 1.76952E+00
 -1      4021 1.52384E+00
 -1      4022 1.52384E+00
 -1      4023 2.27340E+00
 -1      4024 1.92124E+00
 -1      4025 1.92124E+00
 -1      4026 2.69954E+00
 -1      4027 2.47384E+00
 -1      4028 2.27340E+00
 -1      4029 3.73462E+00
 -1      4030 3.83741E-01
 -1      4031 3.83741E-01
 -1      4032 3.88043E-01
 -1      4033 1.32334E+00
 -1      4034 1.44998E+00
 -1      4035 1.09561E+00
 -1      4036 1.22091E+00
 -1      4037 1.32334E+00
 -1      4038 8.35658E-01
 -1      4039 9.38376E-01
 -1      4040 1.06367E+00
 -1      4041 6.37644E-01
 -1      4042 7.22313E-01
 -1      4043 7.93092E-01
 -1      4044 4.85012E-01
 -1      4045 5.54027E-01
 -1      4046 5.96130E-01
 -1      4047 2.87018E+00
 -1      4048 3.74776E+00
 -1      4049 3.15470E+00
 -1      4050 2.25312E+00
 -1      4051 1.00727E-01
 -1      4052 1.04014E-01
 -1      4053 1.08954E-01
 -1      4054 1.04595E-01
 -1      4055 8.99901E-02
 -1      4056 1.52640E+00
 -1      4057 1.76977E+00
 -1      4058 2.06195E+00
 -1      4059 1.50218E+00
 -1      4060 1.20327E-01
 -1      4061 1.18454E-01
 -1      4062 4.39461E-01
 -1      4063 3.80956E-01
 -1      4064 4.68195E-01
 -1      4065 3.56232E-01
 -1      4066 3.83741E-01
 -1      4067 4.12944E-01
 -1      4068 3.79999E-01
 -1      4069 1.63402E-01
 -1      4070 2.10860E-01
 -1      4071 8.71103E-02
 -1      4072 1.01208E-01
 -1      4073 8.55321E-02
 -1      4074 3.98886E+00
 -1      4075 3.68032E+00
 -1      4076 1.17497E-01
 -1      4077 1.23547E-01
 -1      4078 1.01913E-01
 -1      4079 5.90149E-01
 -1      4080 3.99592E+00
 -1      4081 3.40230E+00
 -1      4082 3.40230E+00
 -1      4083 9.11349E-02
 -1      4084 1.10895E-01
 -1      4085 1.23599E-01
 -1      4086 1.11235E-01
 -1      4087 1.13935E-01
 -1      4088 1.02707E-01
 -1      4089 2.85262E+00
 -1      4090 2.73117E+00
 -1      4091 1.45525E-01
 -1      4092 1.40202E-01
 -1      4093 9.36452E-02
 -1      4094 1.52786E-01
 -1      4095 1.60678E-01
 -1      4096 1.76564E-01
 -1      4097 3.51592E+00
 -1      4098 1.12382E-01
 -1      4099 2.24435E-01
 -1      4100 1.19535E-01
 -1      4101 1.35917E-01
 -1      4102 3.18705E+00
 -1      4103 4.31483E+00
 -1      4104 3.73411E+00
 -1      4105 3.55334E+00
 -1      4106 6.24215E-01
 -1      4107 5.84355E-01
 -1      4108 4.71820E+00
 -1      4109 4.22790E+00
 -1      4110 3.78407E+00
 -1      4111 3.89381E+00
 -1      4112 3.60078E-01
 -1      4113 3.38423E-01
 -1      4114 2.90613E-01
 -1      4115 3.89352E-01
 -1      4116 4.22297E-01
 -1      4117 2.10860E-01
 -1      4118 4.60795E+00
 -1      4119 3.18218E+00
 -1      4120 3.25697E+00
 -1      4121 3.58340E+00
 -1      4122 4.35227E-01
 -1      4123 4.62729E-01
 -1      4124 1.90517E-01
 -1      4125 1.19535E-01
 -1      4126 1.19535E-01
 -1      4127 9.20507E-02
 -1      4128 5.24050E-01
 -1      4129 5.24050E-01
 -1      4130 4.01002E-01
 -1      4131 5.58116E-01
 -1      4132 1.79783E-01
 -1      4133 1.33995E-01
 -1      4134 4.22432E-01
 -1      4135 4.64730E-01
 -1      4136 1.32898E-01
 -1      4137 1.52063E-01
 -1      4138 1.61279E-01
 -1      4139 1.75736E-01
 -1      4140 1.90522E-01
 -1      4141 1.75736E-01
 -1      4142 2.09806E-01
 -1      4143 2.31219E-01
 -1      4144 2.09475E-01
 -1      4145 2.60157E-01
 -1      4146 2.94523E-01
 -1      4147 2.57696E-01
 -1      4148 3.32777E-01
 -1      4149 3.82837E-01
 -1      4150 3.24887E-01
 -1      4151 4.29069E-01
 -1      4152 4.95553E-01
 -1      4153 4.09373E-01
 -1      4154 5.58530E-01
 -1      4155 6.50097E-01
 -1      4156 5.18582E-01
 -1      4157 7.39612E-01
 -1      4158 8.71321E-01
 -1      4159 6.71075E-01
 -1      4160 1.00495E+00
 -1      4161 1.19636E+00
 -1      4162 8.94217E-01
 -1      4163 1.59993E+00
 -1      4164 2.44069E+00
 -1      4165 1.43141E+00
 -1      4166 1.66553E+00
 -1      4167 1.28914E+00
 -1      4168 1.62687E-01
 -1      4169 1.49473E-01
 -1      4170 1.43094E-01
 -1      4171 4.34022E-01
 -1      4172 4.34022E-01
 -1      4173 4.83806E-01
 -1      4174 4.43374E-01
 -1      4175 1.63387E+00
 -1      4176 1.38820E+00
 -1      4177 1.02714E+00
 -1      4178 8.75728E-01
 -1      4179 1.15898E+00
 -1      4180 7.54580E-01
 -1      4181 6.42350E-01
 -1      4182 7.75839E-01
 -1      4183 8.34666E-01
 -1      4184 7.15896E-01
 -1      4185 2.11981E+00
 -1      4186 1.96809E+00
 -1      4187 1.83244E+00
 -1      4188 6.20201E-01
 -1      4189 5.33429E-01
 -1      4190 6.28776E-01
 -1      4191 2.32025E+00
 -1      4192 2.11981E+00
 -1      4193 2.16666E+00
 -1      4194 3.03346E+00
 -1      4195 7.88367E-01
 -1      4196 9.01712E-01
 -1      4197 9.35460E-01
 -1      4198 1.09270E+00
 -1      4199 9.30735E-01
 -1      4200 1.30686E+00
 -1      4201 1.40929E+00
 -1      4202 1.17865E+00
 -1      4203 6.36556E-01
 -1      4204 5.10046E-01
 -1      4205 5.93663E-01
 -1      4206 7.02283E-01
 -1      4207 4.81339E-01
 -1      4208 2.20207E+00
 -1      4209 2.81148E+00
 -1      4210 2.30434E+00
 -1      4211 1.71872E+00
 -1      4212 8.65577E-02
 -1      4213 9.14974E-02
 -1      4214 8.90322E-02
 -1      4215 1.15784E-01
 -1      4216 1.13935E-01
 -1      4217 1.17337E-01
 -1      4218 1.44647E-01
 -1      4219 1.01315E-01
 -1      4220 1.09092E-01
 -1      4221 9.78824E-02
 -1      4222 3.02468E+00
 -1      4223 2.20358E+00
 -1      4224 1.95903E+00
 -1      4225 4.71043E-01
 -1      4226 4.05460E-01
 -1      4227 4.70695E-01
 -1      4228 1.18051E-01
 -1      4229 1.25617E-01
 -1      4230 1.16658E-01
 -1      4231 1.18412E-01
 -1      4232 6.77729E-02
 -1      4233 6.72913E-02
 -1      4234 6.87985E-02
 -1      4235 7.07914E-02
 -1      4236 1.14427E+00
 -1      4237 9.77616E-01
 -1      4238 8.67422E-01
 -1      4239 3.05580E+00
 -1      4240 9.20164E-02
 -1      4241 8.87970E-02
 -1      4242 2.45702E-01
 -1      4243 2.06456E-01
 -1      4244 1.97832E-01
 -1      4245 1.34232E-01
 -1      4246 1.42848E-01
 -1      4247 1.34232E-01
 -1      4248 2.70188E+00
 -1      4249 3.05779E+00
 -1      4250 1.52063E-01
 -1      4251 2.09618E+00
 -1      4252 3.67082E-01
 -1      4253 3.64234E-01
 -1      4254 3.21701E-01
 -1      4255 2.10860E-01
 -1      4256 1.03528E-01
 -1      4257 9.74265E-02
 -1      4258 8.43100E-02
 -1      4259 1.08343E-01
 -1      4260 5.25035E-01
 -1      4261 5.36760E-01
 -1      4262 5.63000E-01
 -1      4263 2.62346E+00
 -1      4264 2.91727E+00
 -1      4265 1.15298E-01
 -1      4266 5.58116E-01
 -1      4267 3.50817E+00
 -1      4268 1.80996E-01
 -1      4269 1.73735E-01
 -1      4270 8.54753E-02
 -1      4271 9.53724E-02
 -1      4272 1.39318E+00
 -1      4273 1.46960E+00
 -1      4274 1.60972E+00
 -1      4275 1.37671E+00
 -1      4276 8.78132E-02
 -1      4277 1.25430E+00
 -1      4278 2.72634E-01
 -1      4279 7.07914E-02
 -1      4280 1.83005E-01
 -1      4281 1.62687E-01
 -1      4282 1.71958E-01
 -1      4283 1.56705E-01
 -1      4284 1.65921E-01
 -1      4285 2.00082E+00
 -1      4286 2.26201E+00
 -1      4287 2.01097E-01
 -1      4288 2.20380E-01
 -1      4289 2.73152E-01
 -1      4290 3.02089E-01
 -1      4291 2.64774E-01
 -1      4292 3.06245E-01
 -1      4293 3.44499E-01
 -1      4294 3.85725E-01
 -1      4295 4.31957E-01
 -1      4296 4.94343E-01
 -1      4297 5.57320E-01
 -1      4298 6.53015E-01
 -1      4299 7.42531E-01
 -1      4300 8.85482E-01
 -1      4301 1.01911E+00
 -1      4302 1.26304E+00
 -1      4303 1.66661E+00
 -1      4304 1.40690E+00
 -1      4305 1.14490E+00
 -1      4306 8.96987E-01
 -1      4307 7.75839E-01
 -1      4308 6.42160E-02
 -1      4309 1.17865E+00
 -1      4310 1.39281E+00
 -1      4311 1.89971E-01
 -1      4312 2.03028E-01
 -1      4313 1.13681E-01
 -1      4314 1.22639E-01
 -1      4315 3.17545E-01
 -1      4316 2.72634E-01
 -1      4317 2.19863E-01
 -1      4318 1.48787E-01
 -1      4319 1.57403E-01
 -1      4320 1.45810E-01
 -1      4321 2.16655E+00
 -1      4322 2.04018E+00
 -1      4323 1.50212E+00
 -1      4324 1.72105E+00
 -1      4325 8.88925E-02
 -1      4326 9.87099E-02
 -1      4327 2.26201E+00
 -1      4328 1.48804E+00
 -1      4329 1.48804E+00
 -1      4330 3.21701E-01
 -1      4331 8.34825E-02
 -1      4332 2.03028E-01
 -1      4333 1.94053E-01
 -1      4334 1.83005E-01
 -1      4335 1.92122E-01
 -1      4336 1.18499E-01
 -1      4337 1.04691E-01
 -1      4338 7.57704E-01
 -1      4339 6.36556E-01
 -1      4340 9.30735E-01
 -1      4341 1.77666E-01
 -1      4342 6.18421E-01
 -1      4343 1.71958E-01
 -1      4344 1.44647E-01
 -1      4345 1.71958E-01
 -1      4346 1.18499E-01
 -1      4347 1.82308E-01
 -1      4348 1.47193E+00
 -1      4349 2.85292E+00
 -1      4350 1.71260E-01
 -1      4351 3.01262E+00
 -1      4352 1.71260E-01
 -3
 9999
