    1C
    1UUSER                                                              
    1UDATE              27.october.2022                                 
    1UTIME              00:24:51                                        
    1UHOST                                                              
    1UPGM               CalculiX                                        
    1UVERSION           Version 2.17                             
    1UCOMPILETIME       Thu Jul 23 21:43:50 CEST 2020                    
    1UDIR                                                               
    1UDBN                                                               
    1UMAT    1SOLIDMATERIAL                                             
    2C                          4317                                     1
 -1         1 1.25455E+02 3.07364E+01 0.00000E+00
 -1         2 1.31666E+02 2.37810E+01 0.00000E+00
 -1         3 1.50000E+02 0.00000E+00 0.00000E+00
 -1         4 1.50000E+02 5.00000E+01 0.00000E+00
 -1         5 0.00000E+00 0.00000E+00 0.00000E+00
 -1         6 0.00000E+00 5.00000E+01 0.00000E+00
 -1         7 0.00000E+00 4.70500E+01 0.00000E+00
 -1         8 0.00000E+00 4.41000E+01 0.00000E+00
 -1         9 0.00000E+00 4.11500E+01 0.00000E+00
 -1        10 0.00000E+00 3.82000E+01 0.00000E+00
 -1        11 0.00000E+00 3.52500E+01 0.00000E+00
 -1        12 0.00000E+00 3.23500E+01 0.00000E+00
 -1        13 0.00000E+00 2.94000E+01 0.00000E+00
 -1        14 0.00000E+00 2.64500E+01 0.00000E+00
 -1        15 0.00000E+00 2.35000E+01 0.00000E+00
 -1        16 0.00000E+00 2.05500E+01 0.00000E+00
 -1        17 0.00000E+00 1.76000E+01 0.00000E+00
 -1        18 0.00000E+00 1.47000E+01 0.00000E+00
 -1        19 0.00000E+00 1.17500E+01 0.00000E+00
 -1        20 0.00000E+00 8.80000E+00 0.00000E+00
 -1        21 0.00000E+00 5.85000E+00 0.00000E+00
 -1        22 0.00000E+00 2.90000E+00 0.00000E+00
 -1        23 3.15000E+00 5.00000E+01 0.00000E+00
 -1        24 6.15000E+00 5.00000E+01 0.00000E+00
 -1        25 9.15000E+00 5.00000E+01 0.00000E+00
 -1        26 1.21500E+01 5.00000E+01 0.00000E+00
 -1        27 1.51500E+01 5.00000E+01 0.00000E+00
 -1        28 1.81500E+01 5.00000E+01 0.00000E+00
 -1        29 2.11500E+01 5.00000E+01 0.00000E+00
 -1        30 2.41500E+01 5.00000E+01 0.00000E+00
 -1        31 2.71500E+01 5.00000E+01 0.00000E+00
 -1        32 3.01500E+01 5.00000E+01 0.00000E+00
 -1        33 3.31500E+01 5.00000E+01 0.00000E+00
 -1        34 3.61500E+01 5.00000E+01 0.00000E+00
 -1        35 3.91500E+01 5.00000E+01 0.00000E+00
 -1        36 4.21500E+01 5.00000E+01 0.00000E+00
 -1        37 4.51500E+01 5.00000E+01 0.00000E+00
 -1        38 4.81500E+01 5.00000E+01 0.00000E+00
 -1        39 5.11500E+01 5.00000E+01 0.00000E+00
 -1        40 5.41500E+01 5.00000E+01 0.00000E+00
 -1        41 5.71500E+01 5.00000E+01 0.00000E+00
 -1        42 6.01500E+01 5.00000E+01 0.00000E+00
 -1        43 6.31500E+01 5.00000E+01 0.00000E+00
 -1        44 6.61500E+01 5.00000E+01 0.00000E+00
 -1        45 6.91500E+01 5.00000E+01 0.00000E+00
 -1        46 7.21500E+01 5.00000E+01 0.00000E+00
 -1        47 7.51500E+01 5.00000E+01 0.00000E+00
 -1        48 7.81500E+01 5.00000E+01 0.00000E+00
 -1        49 8.11500E+01 5.00000E+01 0.00000E+00
 -1        50 8.41500E+01 5.00000E+01 0.00000E+00
 -1        51 8.71500E+01 5.00000E+01 0.00000E+00
 -1        52 9.01500E+01 5.00000E+01 0.00000E+00
 -1        53 9.31500E+01 5.00000E+01 0.00000E+00
 -1        54 9.61500E+01 5.00000E+01 0.00000E+00
 -1        55 9.91500E+01 5.00000E+01 0.00000E+00
 -1        56 1.02150E+02 5.00000E+01 0.00000E+00
 -1        57 1.05150E+02 5.00000E+01 0.00000E+00
 -1        58 1.08150E+02 5.00000E+01 0.00000E+00
 -1        59 1.11150E+02 5.00000E+01 0.00000E+00
 -1        60 1.14150E+02 5.00000E+01 0.00000E+00
 -1        61 1.17150E+02 5.00000E+01 0.00000E+00
 -1        62 1.20150E+02 5.00000E+01 0.00000E+00
 -1        63 1.23150E+02 5.00000E+01 0.00000E+00
 -1        64 1.26150E+02 5.00000E+01 0.00000E+00
 -1        65 1.29150E+02 5.00000E+01 0.00000E+00
 -1        66 1.32150E+02 5.00000E+01 0.00000E+00
 -1        67 1.35150E+02 5.00000E+01 0.00000E+00
 -1        68 1.38150E+02 5.00000E+01 0.00000E+00
 -1        69 1.41150E+02 5.00000E+01 0.00000E+00
 -1        70 1.44150E+02 5.00000E+01 0.00000E+00
 -1        71 1.47150E+02 5.00000E+01 0.00000E+00
 -1        72 3.15000E+00 0.00000E+00 0.00000E+00
 -1        73 6.15000E+00 0.00000E+00 0.00000E+00
 -1        74 9.15000E+00 0.00000E+00 0.00000E+00
 -1        75 1.21500E+01 0.00000E+00 0.00000E+00
 -1        76 1.51500E+01 0.00000E+00 0.00000E+00
 -1        77 1.81500E+01 0.00000E+00 0.00000E+00
 -1        78 2.11500E+01 0.00000E+00 0.00000E+00
 -1        79 2.41500E+01 0.00000E+00 0.00000E+00
 -1        80 2.71500E+01 0.00000E+00 0.00000E+00
 -1        81 3.01500E+01 0.00000E+00 0.00000E+00
 -1        82 3.31500E+01 0.00000E+00 0.00000E+00
 -1        83 3.61500E+01 0.00000E+00 0.00000E+00
 -1        84 3.91500E+01 0.00000E+00 0.00000E+00
 -1        85 4.21500E+01 0.00000E+00 0.00000E+00
 -1        86 4.51500E+01 0.00000E+00 0.00000E+00
 -1        87 4.81500E+01 0.00000E+00 0.00000E+00
 -1        88 5.11500E+01 0.00000E+00 0.00000E+00
 -1        89 5.41500E+01 0.00000E+00 0.00000E+00
 -1        90 5.71500E+01 0.00000E+00 0.00000E+00
 -1        91 6.01500E+01 0.00000E+00 0.00000E+00
 -1        92 6.31500E+01 0.00000E+00 0.00000E+00
 -1        93 6.61500E+01 0.00000E+00 0.00000E+00
 -1        94 6.91500E+01 0.00000E+00 0.00000E+00
 -1        95 7.21500E+01 0.00000E+00 0.00000E+00
 -1        96 7.51500E+01 0.00000E+00 0.00000E+00
 -1        97 7.81500E+01 0.00000E+00 0.00000E+00
 -1        98 8.11500E+01 0.00000E+00 0.00000E+00
 -1        99 8.41500E+01 0.00000E+00 0.00000E+00
 -1       100 8.71500E+01 0.00000E+00 0.00000E+00
 -1       101 9.01500E+01 0.00000E+00 0.00000E+00
 -1       102 9.31500E+01 0.00000E+00 0.00000E+00
 -1       103 9.61500E+01 0.00000E+00 0.00000E+00
 -1       104 9.91500E+01 0.00000E+00 0.00000E+00
 -1       105 1.02150E+02 0.00000E+00 0.00000E+00
 -1       106 1.05150E+02 0.00000E+00 0.00000E+00
 -1       107 1.08150E+02 0.00000E+00 0.00000E+00
 -1       108 1.11150E+02 0.00000E+00 0.00000E+00
 -1       109 1.14150E+02 0.00000E+00 0.00000E+00
 -1       110 1.17150E+02 0.00000E+00 0.00000E+00
 -1       111 1.20150E+02 0.00000E+00 0.00000E+00
 -1       112 1.23150E+02 0.00000E+00 0.00000E+00
 -1       113 1.26150E+02 0.00000E+00 0.00000E+00
 -1       114 1.29150E+02 0.00000E+00 0.00000E+00
 -1       115 1.32150E+02 0.00000E+00 0.00000E+00
 -1       116 1.35150E+02 0.00000E+00 0.00000E+00
 -1       117 1.38150E+02 0.00000E+00 0.00000E+00
 -1       118 1.41150E+02 0.00000E+00 0.00000E+00
 -1       119 1.44150E+02 0.00000E+00 0.00000E+00
 -1       120 1.47150E+02 0.00000E+00 0.00000E+00
 -1       121 1.50000E+02 2.95000E+00 0.00000E+00
 -1       122 1.50000E+02 5.90000E+00 0.00000E+00
 -1       123 1.50000E+02 8.85000E+00 0.00000E+00
 -1       124 1.50000E+02 1.18000E+01 0.00000E+00
 -1       125 1.50000E+02 1.47500E+01 0.00000E+00
 -1       126 1.50000E+02 1.76500E+01 0.00000E+00
 -1       127 1.50000E+02 2.06000E+01 0.00000E+00
 -1       128 1.50000E+02 2.35500E+01 0.00000E+00
 -1       129 1.50000E+02 2.65000E+01 0.00000E+00
 -1       130 1.50000E+02 2.94500E+01 0.00000E+00
 -1       131 1.50000E+02 3.24000E+01 0.00000E+00
 -1       132 1.50000E+02 3.53000E+01 0.00000E+00
 -1       133 1.50000E+02 3.82500E+01 0.00000E+00
 -1       134 1.50000E+02 4.12000E+01 0.00000E+00
 -1       135 1.50000E+02 4.41500E+01 0.00000E+00
 -1       136 1.50000E+02 4.71000E+01 0.00000E+00
 -1       137 1.31509E+02 2.23088E+01 0.00000E+00
 -1       138 1.30994E+02 2.07895E+01 0.00000E+00
 -1       139 1.30274E+02 1.95920E+01 0.00000E+00
 -1       140 1.29292E+02 1.85274E+01 0.00000E+00
 -1       141 1.27951E+02 1.76000E+01 0.00000E+00
 -1       142 1.26457E+02 1.70140E+01 0.00000E+00
 -1       143 1.25027E+02 1.67903E+01 0.00000E+00
 -1       144 1.23487E+02 1.68809E+01 0.00000E+00
 -1       145 1.21911E+02 1.73456E+01 0.00000E+00
 -1       146 1.20574E+02 1.81012E+01 0.00000E+00
 -1       147 1.19375E+02 1.91969E+01 0.00000E+00
 -1       148 1.18557E+02 2.03622E+01 0.00000E+00
 -1       149 1.17959E+02 2.17756E+01 0.00000E+00
 -1       150 1.17687E+02 2.32391E+01 0.00000E+00
 -1       151 1.17717E+02 2.46286E+01 0.00000E+00
 -1       152 1.18046E+02 2.60569E+01 0.00000E+00
 -1       153 1.18675E+02 2.74027E+01 0.00000E+00
 -1       154 1.19656E+02 2.86701E+01 0.00000E+00
 -1       155 1.21008E+02 2.97494E+01 0.00000E+00
 -1       156 1.22398E+02 3.04035E+01 0.00000E+00
 -1       157 1.23910E+02 3.07402E+01 0.00000E+00
 -1       158 1.26864E+02 3.04269E+01 0.00000E+00
 -1       159 1.28214E+02 2.98150E+01 0.00000E+00
 -1       160 1.29347E+02 2.89854E+01 0.00000E+00
 -1       161 1.30320E+02 2.79074E+01 0.00000E+00
 -1       162 1.31066E+02 2.66153E+01 0.00000E+00
 -1       163 1.31503E+02 2.52805E+01 0.00000E+00
 -1       164 2.59800E+00 4.55750E+01 0.00000E+00
 -1       165 2.59800E+00 4.26250E+01 0.00000E+00
 -1       166 2.59800E+00 3.96750E+01 0.00000E+00
 -1       167 2.59800E+00 3.67250E+01 0.00000E+00
 -1       168 2.59800E+00 3.38250E+01 0.00000E+00
 -1       169 2.59800E+00 3.08750E+01 0.00000E+00
 -1       170 2.59800E+00 2.79250E+01 0.00000E+00
 -1       171 2.59800E+00 2.49750E+01 0.00000E+00
 -1       172 2.59800E+00 2.20250E+01 0.00000E+00
 -1       173 2.59800E+00 1.90750E+01 0.00000E+00
 -1       174 2.59800E+00 1.61750E+01 0.00000E+00
 -1       175 2.59800E+00 1.32250E+01 0.00000E+00
 -1       176 2.59800E+00 1.02750E+01 0.00000E+00
 -1       177 2.59800E+00 7.32500E+00 0.00000E+00
 -1       178 2.59800E+00 4.37500E+00 0.00000E+00
 -1       179 2.87400E+00 2.18750E+00 0.00000E+00
 -1       180 4.65000E+00 4.74020E+01 0.00000E+00
 -1       181 7.65000E+00 4.74020E+01 0.00000E+00
 -1       182 1.06500E+01 4.74020E+01 0.00000E+00
 -1       183 1.36500E+01 4.74020E+01 0.00000E+00
 -1       184 1.66500E+01 4.74020E+01 0.00000E+00
 -1       185 1.96500E+01 4.74020E+01 0.00000E+00
 -1       186 2.26500E+01 4.74020E+01 0.00000E+00
 -1       187 2.56500E+01 4.74020E+01 0.00000E+00
 -1       188 2.86500E+01 4.74020E+01 0.00000E+00
 -1       189 3.16500E+01 4.74020E+01 0.00000E+00
 -1       190 3.46500E+01 4.74020E+01 0.00000E+00
 -1       191 3.76500E+01 4.74020E+01 0.00000E+00
 -1       192 4.06500E+01 4.74020E+01 0.00000E+00
 -1       193 4.36500E+01 4.74020E+01 0.00000E+00
 -1       194 4.66500E+01 4.74020E+01 0.00000E+00
 -1       195 4.96500E+01 4.74020E+01 0.00000E+00
 -1       196 5.26500E+01 4.74020E+01 0.00000E+00
 -1       197 5.56500E+01 4.74020E+01 0.00000E+00
 -1       198 5.86500E+01 4.74020E+01 0.00000E+00
 -1       199 6.16500E+01 4.74020E+01 0.00000E+00
 -1       200 6.46500E+01 4.74020E+01 0.00000E+00
 -1       201 6.76500E+01 4.74020E+01 0.00000E+00
 -1       202 7.06500E+01 4.74020E+01 0.00000E+00
 -1       203 7.36500E+01 4.74020E+01 0.00000E+00
 -1       204 7.66500E+01 4.74020E+01 0.00000E+00
 -1       205 7.96500E+01 4.74020E+01 0.00000E+00
 -1       206 8.26500E+01 4.74020E+01 0.00000E+00
 -1       207 8.56500E+01 4.74020E+01 0.00000E+00
 -1       208 8.86500E+01 4.74020E+01 0.00000E+00
 -1       209 9.16500E+01 4.74020E+01 0.00000E+00
 -1       210 9.46500E+01 4.74020E+01 0.00000E+00
 -1       211 9.76500E+01 4.74020E+01 0.00000E+00
 -1       212 1.00650E+02 4.74020E+01 0.00000E+00
 -1       213 1.03650E+02 4.74020E+01 0.00000E+00
 -1       214 1.06650E+02 4.74020E+01 0.00000E+00
 -1       215 1.09650E+02 4.74020E+01 0.00000E+00
 -1       216 1.12650E+02 4.74020E+01 0.00000E+00
 -1       217 1.15650E+02 4.74020E+01 0.00000E+00
 -1       218 1.18650E+02 4.74020E+01 0.00000E+00
 -1       219 1.21650E+02 4.74020E+01 0.00000E+00
 -1       220 1.24650E+02 4.74020E+01 0.00000E+00
 -1       221 1.27650E+02 4.74020E+01 0.00000E+00
 -1       222 1.30650E+02 4.74020E+01 0.00000E+00
 -1       223 1.33650E+02 4.74020E+01 0.00000E+00
 -1       224 1.36650E+02 4.74020E+01 0.00000E+00
 -1       225 1.39650E+02 4.74020E+01 0.00000E+00
 -1       226 1.42650E+02 4.74020E+01 0.00000E+00
 -1       227 1.45650E+02 4.74020E+01 0.00000E+00
 -1       228 5.87400E+00 2.18750E+00 0.00000E+00
 -1       229 8.87400E+00 2.18750E+00 0.00000E+00
 -1       230 1.18740E+01 2.18750E+00 0.00000E+00
 -1       231 1.48740E+01 2.18750E+00 0.00000E+00
 -1       232 1.78740E+01 2.18750E+00 0.00000E+00
 -1       233 2.08740E+01 2.18750E+00 0.00000E+00
 -1       234 2.38740E+01 2.18750E+00 0.00000E+00
 -1       235 2.68740E+01 2.18750E+00 0.00000E+00
 -1       236 2.98740E+01 2.18750E+00 0.00000E+00
 -1       237 3.28740E+01 2.18750E+00 0.00000E+00
 -1       238 3.58740E+01 2.18750E+00 0.00000E+00
 -1       239 3.88740E+01 2.18750E+00 0.00000E+00
 -1       240 4.18740E+01 2.18750E+00 0.00000E+00
 -1       241 4.48740E+01 2.18750E+00 0.00000E+00
 -1       242 4.78740E+01 2.18750E+00 0.00000E+00
 -1       243 5.08740E+01 2.18750E+00 0.00000E+00
 -1       244 5.38740E+01 2.18750E+00 0.00000E+00
 -1       245 5.68740E+01 2.18750E+00 0.00000E+00
 -1       246 5.98740E+01 2.18750E+00 0.00000E+00
 -1       247 6.28740E+01 2.18750E+00 0.00000E+00
 -1       248 6.58740E+01 2.18750E+00 0.00000E+00
 -1       249 6.88740E+01 2.18750E+00 0.00000E+00
 -1       250 7.18740E+01 2.18750E+00 0.00000E+00
 -1       251 7.48740E+01 2.18750E+00 0.00000E+00
 -1       252 7.78740E+01 2.18750E+00 0.00000E+00
 -1       253 8.08740E+01 2.18750E+00 0.00000E+00
 -1       254 8.38740E+01 2.18750E+00 0.00000E+00
 -1       255 8.68740E+01 2.18750E+00 0.00000E+00
 -1       256 8.98740E+01 2.18750E+00 0.00000E+00
 -1       257 9.28740E+01 2.18750E+00 0.00000E+00
 -1       258 9.58740E+01 2.18750E+00 0.00000E+00
 -1       259 9.88740E+01 2.18750E+00 0.00000E+00
 -1       260 1.01874E+02 2.18750E+00 0.00000E+00
 -1       261 1.04874E+02 2.18750E+00 0.00000E+00
 -1       262 1.07874E+02 2.18750E+00 0.00000E+00
 -1       263 1.10874E+02 2.18750E+00 0.00000E+00
 -1       264 1.13874E+02 2.18750E+00 0.00000E+00
 -1       265 1.16874E+02 2.18750E+00 0.00000E+00
 -1       266 1.19874E+02 2.18750E+00 0.00000E+00
 -1       267 1.22874E+02 2.18750E+00 0.00000E+00
 -1       268 1.25874E+02 2.18750E+00 0.00000E+00
 -1       269 1.28874E+02 2.18750E+00 0.00000E+00
 -1       270 1.31874E+02 2.18750E+00 0.00000E+00
 -1       271 1.34874E+02 2.18750E+00 0.00000E+00
 -1       272 1.37874E+02 2.18750E+00 0.00000E+00
 -1       273 1.40874E+02 2.18750E+00 0.00000E+00
 -1       274 1.43874E+02 2.18750E+00 0.00000E+00
 -1       275 1.46874E+02 2.18750E+00 0.00000E+00
 -1       276 1.47402E+02 4.42500E+00 0.00000E+00
 -1       277 1.47402E+02 7.37500E+00 0.00000E+00
 -1       278 1.47402E+02 1.03250E+01 0.00000E+00
 -1       279 1.47402E+02 1.32750E+01 0.00000E+00
 -1       280 1.47402E+02 1.61750E+01 0.00000E+00
 -1       281 1.47402E+02 1.91250E+01 0.00000E+00
 -1       282 1.47402E+02 2.20750E+01 0.00000E+00
 -1       283 1.47402E+02 2.50250E+01 0.00000E+00
 -1       284 1.47402E+02 2.79750E+01 0.00000E+00
 -1       285 1.47402E+02 3.09250E+01 0.00000E+00
 -1       286 1.47402E+02 3.38250E+01 0.00000E+00
 -1       287 1.47402E+02 3.67750E+01 0.00000E+00
 -1       288 1.47402E+02 3.97250E+01 0.00000E+00
 -1       289 1.47402E+02 4.26750E+01 0.00000E+00
 -1       290 1.46526E+02 4.50385E+01 0.00000E+00
 -1       291 1.32793E+02 2.29167E+01 0.00000E+00
 -1       292 1.32638E+02 2.10794E+01 0.00000E+00
 -1       293 1.31673E+02 1.95658E+01 0.00000E+00
 -1       294 1.30674E+02 1.82375E+01 0.00000E+00
 -1       295 1.29502E+02 1.67911E+01 0.00000E+00
 -1       296 1.27769E+02 1.58662E+01 0.00000E+00
 -1       297 1.25929E+02 1.57043E+01 0.00000E+00
 -1       298 1.24181E+02 1.55417E+01 0.00000E+00
 -1       299 1.22285E+02 1.57093E+01 0.00000E+00
 -1       300 1.20605E+02 1.65950E+01 0.00000E+00
 -1       301 1.19044E+02 1.76305E+01 0.00000E+00
 -1       302 1.17974E+02 1.90829E+01 0.00000E+00
 -1       303 1.17142E+02 2.05963E+01 0.00000E+00
 -1       304 1.16631E+02 2.22855E+01 0.00000E+00
 -1       305 1.16490E+02 2.39604E+01 0.00000E+00
 -1       306 1.16618E+02 2.56335E+01 0.00000E+00
 -1       307 1.17262E+02 2.72434E+01 0.00000E+00
 -1       308 1.17942E+02 2.89834E+01 0.00000E+00
 -1       309 1.19366E+02 3.04192E+01 0.00000E+00
 -1       310 1.21187E+02 3.11734E+01 0.00000E+00
 -1       311 1.22891E+02 3.17552E+01 0.00000E+00
 -1       312 1.24686E+02 3.21182E+01 0.00000E+00
 -1       313 1.26419E+02 3.17658E+01 0.00000E+00
 -1       314 1.28074E+02 3.13015E+01 0.00000E+00
 -1       315 1.29497E+02 3.03784E+01 0.00000E+00
 -1       316 1.30733E+02 2.92589E+01 0.00000E+00
 -1       317 1.31816E+02 2.79095E+01 0.00000E+00
 -1       318 1.32437E+02 2.63251E+01 0.00000E+00
 -1       319 1.32873E+02 2.46704E+01 0.00000E+00
 -1       320 5.19600E+00 4.11500E+01 0.00000E+00
 -1       321 5.19600E+00 4.41000E+01 0.00000E+00
 -1       322 5.19600E+00 3.52750E+01 0.00000E+00
 -1       323 5.19600E+00 3.23250E+01 0.00000E+00
 -1       324 5.19600E+00 2.93750E+01 0.00000E+00
 -1       325 5.19600E+00 2.64250E+01 0.00000E+00
 -1       326 5.19600E+00 2.34750E+01 0.00000E+00
 -1       327 5.19600E+00 2.05250E+01 0.00000E+00
 -1       328 5.19600E+00 1.76250E+01 0.00000E+00
 -1       329 5.19600E+00 1.46750E+01 0.00000E+00
 -1       330 5.19600E+00 1.17250E+01 0.00000E+00
 -1       331 5.19600E+00 8.77500E+00 0.00000E+00
 -1       332 5.19600E+00 5.82500E+00 0.00000E+00
 -1       333 5.53500E+00 4.00625E+00 0.00000E+00
 -1       334 8.53500E+00 4.00625E+00 0.00000E+00
 -1       335 9.15000E+00 4.48040E+01 0.00000E+00
 -1       336 1.21500E+01 4.48040E+01 0.00000E+00
 -1       337 1.51500E+01 4.48040E+01 0.00000E+00
 -1       338 1.81500E+01 4.48040E+01 0.00000E+00
 -1       339 2.11500E+01 4.48040E+01 0.00000E+00
 -1       340 2.41500E+01 4.48040E+01 0.00000E+00
 -1       341 2.71500E+01 4.48040E+01 0.00000E+00
 -1       342 3.01500E+01 4.48040E+01 0.00000E+00
 -1       343 3.31500E+01 4.48040E+01 0.00000E+00
 -1       344 3.61500E+01 4.48040E+01 0.00000E+00
 -1       345 3.91500E+01 4.48040E+01 0.00000E+00
 -1       346 4.21500E+01 4.48040E+01 0.00000E+00
 -1       347 4.51500E+01 4.48040E+01 0.00000E+00
 -1       348 4.81500E+01 4.48040E+01 0.00000E+00
 -1       349 5.11500E+01 4.48040E+01 0.00000E+00
 -1       350 5.41500E+01 4.48040E+01 0.00000E+00
 -1       351 5.71500E+01 4.48040E+01 0.00000E+00
 -1       352 6.01500E+01 4.48040E+01 0.00000E+00
 -1       353 6.31500E+01 4.48040E+01 0.00000E+00
 -1       354 6.61500E+01 4.48040E+01 0.00000E+00
 -1       355 6.91500E+01 4.48040E+01 0.00000E+00
 -1       356 7.21500E+01 4.48040E+01 0.00000E+00
 -1       357 7.51500E+01 4.48040E+01 0.00000E+00
 -1       358 7.81500E+01 4.48040E+01 0.00000E+00
 -1       359 8.11500E+01 4.48040E+01 0.00000E+00
 -1       360 8.41500E+01 4.48040E+01 0.00000E+00
 -1       361 8.71500E+01 4.48040E+01 0.00000E+00
 -1       362 9.01500E+01 4.48040E+01 0.00000E+00
 -1       363 9.31500E+01 4.48040E+01 0.00000E+00
 -1       364 9.61500E+01 4.48040E+01 0.00000E+00
 -1       365 9.91500E+01 4.48040E+01 0.00000E+00
 -1       366 1.02150E+02 4.48040E+01 0.00000E+00
 -1       367 1.05150E+02 4.48040E+01 0.00000E+00
 -1       368 1.08150E+02 4.48040E+01 0.00000E+00
 -1       369 1.11150E+02 4.48040E+01 0.00000E+00
 -1       370 1.14150E+02 4.48040E+01 0.00000E+00
 -1       371 1.17150E+02 4.48040E+01 0.00000E+00
 -1       372 1.20150E+02 4.48040E+01 0.00000E+00
 -1       373 1.23150E+02 4.48040E+01 0.00000E+00
 -1       374 1.26150E+02 4.48040E+01 0.00000E+00
 -1       375 1.29150E+02 4.48040E+01 0.00000E+00
 -1       376 1.32150E+02 4.48040E+01 0.00000E+00
 -1       377 1.35150E+02 4.48040E+01 0.00000E+00
 -1       378 1.38150E+02 4.48040E+01 0.00000E+00
 -1       379 1.41150E+02 4.48040E+01 0.00000E+00
 -1       380 1.43838E+02 4.49212E+01 0.00000E+00
 -1       381 1.15350E+01 4.00625E+00 0.00000E+00
 -1       382 1.45350E+01 4.00625E+00 0.00000E+00
 -1       383 1.75350E+01 4.00625E+00 0.00000E+00
 -1       384 2.05350E+01 4.00625E+00 0.00000E+00
 -1       385 2.35350E+01 4.00625E+00 0.00000E+00
 -1       386 2.65350E+01 4.00625E+00 0.00000E+00
 -1       387 2.95350E+01 4.00625E+00 0.00000E+00
 -1       388 3.25350E+01 4.00625E+00 0.00000E+00
 -1       389 3.55350E+01 4.00625E+00 0.00000E+00
 -1       390 3.85350E+01 4.00625E+00 0.00000E+00
 -1       391 4.15350E+01 4.00625E+00 0.00000E+00
 -1       392 4.45350E+01 4.00625E+00 0.00000E+00
 -1       393 4.75350E+01 4.00625E+00 0.00000E+00
 -1       394 5.05350E+01 4.00625E+00 0.00000E+00
 -1       395 5.35350E+01 4.00625E+00 0.00000E+00
 -1       396 5.65350E+01 4.00625E+00 0.00000E+00
 -1       397 5.95350E+01 4.00625E+00 0.00000E+00
 -1       398 6.25350E+01 4.00625E+00 0.00000E+00
 -1       399 6.55350E+01 4.00625E+00 0.00000E+00
 -1       400 6.85350E+01 4.00625E+00 0.00000E+00
 -1       401 7.15350E+01 4.00625E+00 0.00000E+00
 -1       402 7.45350E+01 4.00625E+00 0.00000E+00
 -1       403 7.75350E+01 4.00625E+00 0.00000E+00
 -1       404 8.05350E+01 4.00625E+00 0.00000E+00
 -1       405 8.35350E+01 4.00625E+00 0.00000E+00
 -1       406 8.65350E+01 4.00625E+00 0.00000E+00
 -1       407 8.95350E+01 4.00625E+00 0.00000E+00
 -1       408 9.25350E+01 4.00625E+00 0.00000E+00
 -1       409 9.55350E+01 4.00625E+00 0.00000E+00
 -1       410 9.85350E+01 4.00625E+00 0.00000E+00
 -1       411 1.01535E+02 4.00625E+00 0.00000E+00
 -1       412 1.04535E+02 4.00625E+00 0.00000E+00
 -1       413 1.07535E+02 4.00625E+00 0.00000E+00
 -1       414 1.10535E+02 4.00625E+00 0.00000E+00
 -1       415 1.13535E+02 4.00625E+00 0.00000E+00
 -1       416 1.16535E+02 4.00625E+00 0.00000E+00
 -1       417 1.19535E+02 4.00625E+00 0.00000E+00
 -1       418 1.22535E+02 4.00625E+00 0.00000E+00
 -1       419 1.25535E+02 4.00625E+00 0.00000E+00
 -1       420 1.28535E+02 4.00625E+00 0.00000E+00
 -1       421 1.31535E+02 4.00625E+00 0.00000E+00
 -1       422 1.34535E+02 4.00625E+00 0.00000E+00
 -1       423 1.37535E+02 4.00625E+00 0.00000E+00
 -1       424 1.40535E+02 4.00625E+00 0.00000E+00
 -1       425 1.43535E+02 4.00625E+00 0.00000E+00
 -1       426 1.45469E+02 4.21562E+00 0.00000E+00
 -1       427 1.44804E+02 1.18000E+01 0.00000E+00
 -1       428 1.44804E+02 8.85000E+00 0.00000E+00
 -1       429 1.45136E+02 6.53281E+00 0.00000E+00
 -1       430 1.44804E+02 1.47000E+01 0.00000E+00
 -1       431 1.44804E+02 1.76500E+01 0.00000E+00
 -1       432 1.44804E+02 2.06000E+01 0.00000E+00
 -1       433 1.44804E+02 2.35500E+01 0.00000E+00
 -1       434 1.44804E+02 2.65000E+01 0.00000E+00
 -1       435 1.44804E+02 2.94500E+01 0.00000E+00
 -1       436 1.44804E+02 3.23500E+01 0.00000E+00
 -1       437 1.44804E+02 3.53000E+01 0.00000E+00
 -1       438 1.44804E+02 3.82500E+01 0.00000E+00
 -1       439 1.44804E+02 4.12000E+01 0.00000E+00
 -1       440 1.33248E+02 1.96258E+01 0.00000E+00
 -1       441 1.34546E+02 2.37153E+01 0.00000E+00
 -1       442 1.34391E+02 2.18780E+01 0.00000E+00
 -1       443 1.32410E+02 1.79714E+01 0.00000E+00
 -1       444 1.31238E+02 1.65249E+01 0.00000E+00
 -1       445 5.19600E+00 3.82125E+01 0.00000E+00
 -1       446 1.26970E+02 1.44106E+01 0.00000E+00
 -1       447 1.25222E+02 1.42480E+01 0.00000E+00
 -1       448 1.23089E+02 1.40005E+01 0.00000E+00
 -1       449 1.20841E+02 1.50055E+01 0.00000E+00
 -1       450 1.19062E+02 1.59627E+01 0.00000E+00
 -1       451 1.17263E+02 1.74390E+01 0.00000E+00
 -1       452 1.16422E+02 1.92149E+01 0.00000E+00
 -1       453 1.15565E+02 2.10415E+01 0.00000E+00
 -1       454 1.15269E+02 2.30141E+01 0.00000E+00
 -1       455 1.15095E+02 2.49092E+01 0.00000E+00
 -1       456 1.15426E+02 2.70444E+01 0.00000E+00
 -1       457 1.16105E+02 2.87844E+01 0.00000E+00
 -1       458 1.17556E+02 3.07914E+01 0.00000E+00
 -1       459 1.19748E+02 3.20711E+01 0.00000E+00
 -1       460 1.21620E+02 3.26910E+01 0.00000E+00
 -1       461 1.23448E+02 3.36178E+01 0.00000E+00
 -1       462 1.25878E+02 3.35407E+01 0.00000E+00
 -1       463 1.27532E+02 3.30764E+01 0.00000E+00
 -1       464 1.29537E+02 3.19976E+01 0.00000E+00
 -1       465 1.30985E+02 3.07795E+01 0.00000E+00
 -1       466 1.32416E+02 2.95000E+01 0.00000E+00
 -1       467 1.33645E+02 2.77128E+01 0.00000E+00
 -1       468 1.33908E+02 2.58281E+01 0.00000E+00
 -1       469 1.29443E+02 1.48155E+01 0.00000E+00
 -1       470 1.35002E+02 2.04244E+01 0.00000E+00
 -1       471 1.17937E+02 3.24433E+01 0.00000E+00
 -1       472 1.00350E+01 6.60425E+00 0.00000E+00
 -1       473 7.79400E+00 3.08500E+01 0.00000E+00
 -1       474 7.79400E+00 3.38000E+01 0.00000E+00
 -1       475 7.79400E+00 2.49500E+01 0.00000E+00
 -1       476 7.79400E+00 2.20000E+01 0.00000E+00
 -1       477 7.79400E+00 1.91000E+01 0.00000E+00
 -1       478 7.79400E+00 1.61500E+01 0.00000E+00
 -1       479 7.79400E+00 1.32000E+01 0.00000E+00
 -1       480 7.79400E+00 1.02500E+01 0.00000E+00
 -1       481 1.30350E+01 6.60425E+00 0.00000E+00
 -1       482 1.06500E+01 4.22060E+01 0.00000E+00
 -1       483 1.19258E+02 1.41951E+01 0.00000E+00
 -1       484 1.36500E+01 4.22060E+01 0.00000E+00
 -1       485 1.66500E+01 4.22060E+01 0.00000E+00
 -1       486 1.96500E+01 4.22060E+01 0.00000E+00
 -1       487 2.26500E+01 4.22060E+01 0.00000E+00
 -1       488 2.56500E+01 4.22060E+01 0.00000E+00
 -1       489 2.86500E+01 4.22060E+01 0.00000E+00
 -1       490 3.16500E+01 4.22060E+01 0.00000E+00
 -1       491 3.46500E+01 4.22060E+01 0.00000E+00
 -1       492 3.76500E+01 4.22060E+01 0.00000E+00
 -1       493 4.06500E+01 4.22060E+01 0.00000E+00
 -1       494 4.36500E+01 4.22060E+01 0.00000E+00
 -1       495 4.66500E+01 4.22060E+01 0.00000E+00
 -1       496 4.96500E+01 4.22060E+01 0.00000E+00
 -1       497 5.26500E+01 4.22060E+01 0.00000E+00
 -1       498 5.56500E+01 4.22060E+01 0.00000E+00
 -1       499 5.86500E+01 4.22060E+01 0.00000E+00
 -1       500 6.16500E+01 4.22060E+01 0.00000E+00
 -1       501 6.46500E+01 4.22060E+01 0.00000E+00
 -1       502 6.76500E+01 4.22060E+01 0.00000E+00
 -1       503 7.06500E+01 4.22060E+01 0.00000E+00
 -1       504 7.36500E+01 4.22060E+01 0.00000E+00
 -1       505 7.66500E+01 4.22060E+01 0.00000E+00
 -1       506 7.96500E+01 4.22060E+01 0.00000E+00
 -1       507 8.26500E+01 4.22060E+01 0.00000E+00
 -1       508 8.56500E+01 4.22060E+01 0.00000E+00
 -1       509 8.86500E+01 4.22060E+01 0.00000E+00
 -1       510 9.16500E+01 4.22060E+01 0.00000E+00
 -1       511 9.46500E+01 4.22060E+01 0.00000E+00
 -1       512 9.76500E+01 4.22060E+01 0.00000E+00
 -1       513 1.00650E+02 4.22060E+01 0.00000E+00
 -1       514 1.03650E+02 4.22060E+01 0.00000E+00
 -1       515 1.06650E+02 4.22060E+01 0.00000E+00
 -1       516 1.09650E+02 4.22060E+01 0.00000E+00
 -1       517 1.12650E+02 4.22060E+01 0.00000E+00
 -1       518 1.15650E+02 4.22060E+01 0.00000E+00
 -1       519 1.18650E+02 4.22060E+01 0.00000E+00
 -1       520 1.21650E+02 4.22060E+01 0.00000E+00
 -1       521 1.24650E+02 4.22060E+01 0.00000E+00
 -1       522 1.27650E+02 4.22060E+01 0.00000E+00
 -1       523 1.30650E+02 4.22060E+01 0.00000E+00
 -1       524 1.33650E+02 4.22060E+01 0.00000E+00
 -1       525 1.36650E+02 4.22060E+01 0.00000E+00
 -1       526 1.39650E+02 4.22060E+01 0.00000E+00
 -1       527 1.90350E+01 6.60425E+00 0.00000E+00
 -1       528 2.20350E+01 6.60425E+00 0.00000E+00
 -1       529 2.50350E+01 6.60425E+00 0.00000E+00
 -1       530 2.80350E+01 6.60425E+00 0.00000E+00
 -1       531 3.10350E+01 6.60425E+00 0.00000E+00
 -1       532 3.40350E+01 6.60425E+00 0.00000E+00
 -1       533 3.70350E+01 6.60425E+00 0.00000E+00
 -1       534 4.00350E+01 6.60425E+00 0.00000E+00
 -1       535 4.30350E+01 6.60425E+00 0.00000E+00
 -1       536 4.60350E+01 6.60425E+00 0.00000E+00
 -1       537 4.90350E+01 6.60425E+00 0.00000E+00
 -1       538 5.20350E+01 6.60425E+00 0.00000E+00
 -1       539 5.50350E+01 6.60425E+00 0.00000E+00
 -1       540 5.80350E+01 6.60425E+00 0.00000E+00
 -1       541 6.10350E+01 6.60425E+00 0.00000E+00
 -1       542 6.40350E+01 6.60425E+00 0.00000E+00
 -1       543 6.70350E+01 6.60425E+00 0.00000E+00
 -1       544 7.00350E+01 6.60425E+00 0.00000E+00
 -1       545 7.30350E+01 6.60425E+00 0.00000E+00
 -1       546 7.60350E+01 6.60425E+00 0.00000E+00
 -1       547 7.90350E+01 6.60425E+00 0.00000E+00
 -1       548 8.20350E+01 6.60425E+00 0.00000E+00
 -1       549 8.50350E+01 6.60425E+00 0.00000E+00
 -1       550 8.80350E+01 6.60425E+00 0.00000E+00
 -1       551 9.10350E+01 6.60425E+00 0.00000E+00
 -1       552 9.40350E+01 6.60425E+00 0.00000E+00
 -1       553 9.70350E+01 6.60425E+00 0.00000E+00
 -1       554 1.00035E+02 6.60425E+00 0.00000E+00
 -1       555 1.03035E+02 6.60425E+00 0.00000E+00
 -1       556 1.06035E+02 6.60425E+00 0.00000E+00
 -1       557 1.09035E+02 6.60425E+00 0.00000E+00
 -1       558 1.12035E+02 6.60425E+00 0.00000E+00
 -1       559 1.15035E+02 6.60425E+00 0.00000E+00
 -1       560 1.18035E+02 6.60425E+00 0.00000E+00
 -1       561 1.21035E+02 6.60425E+00 0.00000E+00
 -1       562 1.24035E+02 6.60425E+00 0.00000E+00
 -1       563 1.27035E+02 6.60425E+00 0.00000E+00
 -1       564 1.30035E+02 6.60425E+00 0.00000E+00
 -1       565 1.33035E+02 6.60425E+00 0.00000E+00
 -1       566 1.36035E+02 6.60425E+00 0.00000E+00
 -1       567 1.39035E+02 6.60425E+00 0.00000E+00
 -1       568 1.42035E+02 6.60425E+00 0.00000E+00
 -1       569 1.42206E+02 1.61750E+01 0.00000E+00
 -1       570 1.42206E+02 1.91250E+01 0.00000E+00
 -1       571 1.42206E+02 1.03250E+01 0.00000E+00
 -1       572 1.42206E+02 1.32500E+01 0.00000E+00
 -1       573 1.42206E+02 2.20750E+01 0.00000E+00
 -1       574 1.42206E+02 2.50250E+01 0.00000E+00
 -1       575 1.42206E+02 2.79750E+01 0.00000E+00
 -1       576 1.42206E+02 3.08750E+01 0.00000E+00
 -1       577 1.42206E+02 3.38250E+01 0.00000E+00
 -1       578 1.42206E+02 3.67750E+01 0.00000E+00
 -1       579 1.42206E+02 3.97250E+01 0.00000E+00
 -1       580 1.34359E+02 1.80233E+01 0.00000E+00
 -1       581 1.35869E+02 2.52675E+01 0.00000E+00
 -1       582 1.60350E+01 6.60425E+00 0.00000E+00
 -1       583 1.36178E+02 2.26525E+01 0.00000E+00
 -1       584 1.33157E+02 1.61685E+01 0.00000E+00
 -1       585 7.92300E+00 4.16780E+01 0.00000E+00
 -1       586 1.35606E+02 2.71522E+01 0.00000E+00
 -1       587 1.24717E+02 3.52935E+01 0.00000E+00
 -1       588 1.13234E+02 2.62910E+01 0.00000E+00
 -1       589 7.79400E+00 2.79000E+01 0.00000E+00
 -1       590 1.21402E+02 1.32431E+01 0.00000E+00
 -1       591 1.26239E+02 1.27884E+01 0.00000E+00
 -1       592 1.28483E+02 1.29205E+01 0.00000E+00
 -1       593 1.24107E+02 1.25409E+01 0.00000E+00
 -1       594 1.17180E+02 1.55046E+01 0.00000E+00
 -1       595 1.15444E+02 1.76648E+01 0.00000E+00
 -1       596 1.14587E+02 1.94914E+01 0.00000E+00
 -1       597 1.13721E+02 2.17728E+01 0.00000E+00
 -1       598 1.13547E+02 2.36678E+01 0.00000E+00
 -1       599 1.13913E+02 2.80310E+01 0.00000E+00
 -1       600 1.31311E+02 3.26371E+01 0.00000E+00
 -1       601 1.15440E+02 3.07925E+01 0.00000E+00
 -1       602 1.20197E+02 3.38501E+01 0.00000E+00
 -1       603 1.22026E+02 3.47770E+01 0.00000E+00
 -1       604 1.27146E+02 3.48792E+01 0.00000E+00
 -1       605 1.29268E+02 3.38997E+01 0.00000E+00
 -1       606 1.32742E+02 3.13576E+01 0.00000E+00
 -1       607 1.34444E+02 2.95780E+01 0.00000E+00
 -1       608 7.61550E+00 6.21462E+00 0.00000E+00
 -1       609 1.31361E+02 1.44591E+01 0.00000E+00
 -1       610 1.22419E+02 1.17836E+01 0.00000E+00
 -1       611 7.79400E+00 3.67375E+01 0.00000E+00
 -1       612 1.30402E+02 1.25641E+01 0.00000E+00
 -1       613 1.41678E+02 4.22645E+01 0.00000E+00
 -1       614 1.36788E+02 2.11989E+01 0.00000E+00
 -1       615 7.85850E+00 3.92077E+01 0.00000E+00
 -1       616 1.15822E+02 3.24445E+01 0.00000E+00
 -1       617 1.18387E+02 3.42223E+01 0.00000E+00
 -1       618 1.15361E+02 1.57304E+01 0.00000E+00
 -1       619 1.13249E+02 3.00391E+01 0.00000E+00
 -1       620 1.03920E+01 2.05500E+01 0.00000E+00
 -1       621 1.03920E+01 2.35000E+01 0.00000E+00
 -1       622 1.03920E+01 1.46750E+01 0.00000E+00
 -1       623 1.03920E+01 1.17250E+01 0.00000E+00
 -1       624 1.15350E+01 9.20225E+00 0.00000E+00
 -1       625 1.37602E+02 2.64704E+01 0.00000E+00
 -1       626 1.51500E+01 3.96080E+01 0.00000E+00
 -1       627 1.81500E+01 3.96080E+01 0.00000E+00
 -1       628 2.11500E+01 3.96080E+01 0.00000E+00
 -1       629 2.41500E+01 3.96080E+01 0.00000E+00
 -1       630 2.71500E+01 3.96080E+01 0.00000E+00
 -1       631 3.01500E+01 3.96080E+01 0.00000E+00
 -1       632 3.31500E+01 3.96080E+01 0.00000E+00
 -1       633 3.61500E+01 3.96080E+01 0.00000E+00
 -1       634 3.91500E+01 3.96080E+01 0.00000E+00
 -1       635 4.21500E+01 3.96080E+01 0.00000E+00
 -1       636 4.51500E+01 3.96080E+01 0.00000E+00
 -1       637 4.81500E+01 3.96080E+01 0.00000E+00
 -1       638 5.11500E+01 3.96080E+01 0.00000E+00
 -1       639 5.41500E+01 3.96080E+01 0.00000E+00
 -1       640 5.71500E+01 3.96080E+01 0.00000E+00
 -1       641 6.01500E+01 3.96080E+01 0.00000E+00
 -1       642 6.31500E+01 3.96080E+01 0.00000E+00
 -1       643 6.61500E+01 3.96080E+01 0.00000E+00
 -1       644 6.91500E+01 3.96080E+01 0.00000E+00
 -1       645 7.21500E+01 3.96080E+01 0.00000E+00
 -1       646 7.51500E+01 3.96080E+01 0.00000E+00
 -1       647 7.81500E+01 3.96080E+01 0.00000E+00
 -1       648 8.11500E+01 3.96080E+01 0.00000E+00
 -1       649 8.41500E+01 3.96080E+01 0.00000E+00
 -1       650 8.71500E+01 3.96080E+01 0.00000E+00
 -1       651 9.01500E+01 3.96080E+01 0.00000E+00
 -1       652 9.31500E+01 3.96080E+01 0.00000E+00
 -1       653 9.61500E+01 3.96080E+01 0.00000E+00
 -1       654 9.91500E+01 3.96080E+01 0.00000E+00
 -1       655 1.02150E+02 3.96080E+01 0.00000E+00
 -1       656 1.05150E+02 3.96080E+01 0.00000E+00
 -1       657 1.08150E+02 3.96080E+01 0.00000E+00
 -1       658 1.11150E+02 3.96080E+01 0.00000E+00
 -1       659 1.14150E+02 3.96080E+01 0.00000E+00
 -1       660 1.17150E+02 3.96080E+01 0.00000E+00
 -1       661 1.20150E+02 3.96080E+01 0.00000E+00
 -1       662 1.23150E+02 3.96080E+01 0.00000E+00
 -1       663 1.26150E+02 3.96080E+01 0.00000E+00
 -1       664 1.29150E+02 3.96080E+01 0.00000E+00
 -1       665 1.32150E+02 3.96080E+01 0.00000E+00
 -1       666 1.35150E+02 3.96080E+01 0.00000E+00
 -1       667 1.38150E+02 3.96080E+01 0.00000E+00
 -1       668 2.35350E+01 9.20225E+00 0.00000E+00
 -1       669 1.37911E+02 2.38554E+01 0.00000E+00
 -1       670 2.05350E+01 9.20225E+00 0.00000E+00
 -1       671 2.95350E+01 9.20225E+00 0.00000E+00
 -1       672 3.25350E+01 9.20225E+00 0.00000E+00
 -1       673 3.55350E+01 9.20225E+00 0.00000E+00
 -1       674 3.85350E+01 9.20225E+00 0.00000E+00
 -1       675 4.15350E+01 9.20225E+00 0.00000E+00
 -1       676 4.45350E+01 9.20225E+00 0.00000E+00
 -1       677 4.75350E+01 9.20225E+00 0.00000E+00
 -1       678 5.05350E+01 9.20225E+00 0.00000E+00
 -1       679 5.35350E+01 9.20225E+00 0.00000E+00
 -1       680 5.65350E+01 9.20225E+00 0.00000E+00
 -1       681 5.95350E+01 9.20225E+00 0.00000E+00
 -1       682 6.25350E+01 9.20225E+00 0.00000E+00
 -1       683 6.55350E+01 9.20225E+00 0.00000E+00
 -1       684 6.85350E+01 9.20225E+00 0.00000E+00
 -1       685 7.15350E+01 9.20225E+00 0.00000E+00
 -1       686 7.45350E+01 9.20225E+00 0.00000E+00
 -1       687 7.75350E+01 9.20225E+00 0.00000E+00
 -1       688 8.05350E+01 9.20225E+00 0.00000E+00
 -1       689 8.35350E+01 9.20225E+00 0.00000E+00
 -1       690 8.65350E+01 9.20225E+00 0.00000E+00
 -1       691 8.95350E+01 9.20225E+00 0.00000E+00
 -1       692 9.25350E+01 9.20225E+00 0.00000E+00
 -1       693 9.55350E+01 9.20225E+00 0.00000E+00
 -1       694 9.85350E+01 9.20225E+00 0.00000E+00
 -1       695 1.01535E+02 9.20225E+00 0.00000E+00
 -1       696 1.04535E+02 9.20225E+00 0.00000E+00
 -1       697 1.07535E+02 9.20225E+00 0.00000E+00
 -1       698 1.10535E+02 9.20225E+00 0.00000E+00
 -1       699 1.13535E+02 9.20225E+00 0.00000E+00
 -1       700 1.16535E+02 9.20225E+00 0.00000E+00
 -1       701 1.19535E+02 9.20225E+00 0.00000E+00
 -1       702 1.25535E+02 9.15721E+00 0.00000E+00
 -1       703 1.28535E+02 9.15721E+00 0.00000E+00
 -1       704 1.31535E+02 9.15721E+00 0.00000E+00
 -1       705 1.34535E+02 9.15721E+00 0.00000E+00
 -1       706 1.37535E+02 9.15721E+00 0.00000E+00
 -1       707 1.39870E+02 9.74111E+00 0.00000E+00
 -1       708 1.39821E+02 2.35500E+01 0.00000E+00
 -1       709 1.40178E+02 3.96665E+01 0.00000E+00
 -1       710 1.39653E+02 1.76500E+01 0.00000E+00
 -1       711 1.39737E+02 2.06000E+01 0.00000E+00
 -1       712 1.75350E+01 9.20225E+00 0.00000E+00
 -1       713 1.39608E+02 3.23500E+01 0.00000E+00
 -1       714 1.39608E+02 3.53000E+01 0.00000E+00
 -1       715 1.23017E+02 3.68842E+01 0.00000E+00
 -1       716 1.34954E+02 3.17691E+01 0.00000E+00
 -1       717 1.05855E+01 3.97357E+01 0.00000E+00
 -1       718 1.35338E+02 1.60718E+01 0.00000E+00
 -1       719 1.27472E+02 1.09750E+01 0.00000E+00
 -1       720 1.12394E+02 1.99640E+01 0.00000E+00
 -1       721 2.65350E+01 9.20225E+00 0.00000E+00
 -1       722 1.28678E+01 3.96719E+01 0.00000E+00
 -1       723 1.03920E+01 1.76125E+01 0.00000E+00
 -1       724 1.36572E+02 2.91060E+01 0.00000E+00
 -1       725 1.45350E+01 9.20225E+00 0.00000E+00
 -1       726 1.03920E+01 3.23250E+01 0.00000E+00
 -1       727 1.17349E+02 1.34698E+01 0.00000E+00
 -1       728 1.19702E+02 1.23047E+01 0.00000E+00
 -1       729 1.11355E+02 2.47367E+01 0.00000E+00
 -1       730 1.13251E+02 1.81373E+01 0.00000E+00
 -1       731 1.11976E+02 2.77847E+01 0.00000E+00
 -1       732 1.11874E+02 2.23503E+01 0.00000E+00
 -1       733 1.31191E+02 3.47273E+01 0.00000E+00
 -1       734 1.36499E+02 1.87371E+01 0.00000E+00
 -1       735 1.28996E+02 3.60988E+01 0.00000E+00
 -1       736 1.20185E+02 3.61423E+01 0.00000E+00
 -1       737 1.33442E+02 1.40716E+01 0.00000E+00
 -1       738 1.33522E+02 3.30486E+01 0.00000E+00
 -1       739 1.26220E+02 3.67770E+01 0.00000E+00
 -1       740 1.03920E+01 3.52625E+01 0.00000E+00
 -1       741 1.03920E+01 2.64500E+01 0.00000E+00
 -1       742 1.32482E+02 1.21766E+01 0.00000E+00
 -1       743 1.39653E+02 1.47250E+01 0.00000E+00
 -1       744 1.22535E+02 9.17973E+00 0.00000E+00
 -1       745 1.39762E+02 1.22331E+01 0.00000E+00
 -1       746 1.39988E+02 2.94250E+01 0.00000E+00
 -1       747 1.38879E+02 3.74540E+01 0.00000E+00
 -1       748 1.13630E+02 3.16911E+01 0.00000E+00
 -1       749 1.16271E+02 3.42235E+01 0.00000E+00
 -1       750 1.03920E+01 2.93875E+01 0.00000E+00
 -1       751 1.24034E+02 1.04447E+01 0.00000E+00
 -1       752 1.15530E+02 1.36957E+01 0.00000E+00
 -1       753 1.13168E+02 1.62029E+01 0.00000E+00
 -1       754 1.25409E+02 1.06281E+01 0.00000E+00
 -1       755 1.29900E+01 1.32000E+01 0.00000E+00
 -1       756 1.38064E+02 2.25897E+01 0.00000E+00
 -1       757 1.29068E+02 1.07265E+01 0.00000E+00
 -1       758 1.35879E+02 3.10164E+01 0.00000E+00
 -1       759 1.35604E+02 3.39374E+01 0.00000E+00
 -1       760 1.96500E+01 3.70100E+01 0.00000E+00
 -1       761 2.26500E+01 3.70100E+01 0.00000E+00
 -1       762 2.56500E+01 3.70100E+01 0.00000E+00
 -1       763 2.86500E+01 3.70100E+01 0.00000E+00
 -1       764 3.16500E+01 3.70100E+01 0.00000E+00
 -1       765 3.46500E+01 3.70100E+01 0.00000E+00
 -1       766 3.76500E+01 3.70100E+01 0.00000E+00
 -1       767 4.06500E+01 3.70100E+01 0.00000E+00
 -1       768 4.36500E+01 3.70100E+01 0.00000E+00
 -1       769 4.66500E+01 3.70100E+01 0.00000E+00
 -1       770 4.96500E+01 3.70100E+01 0.00000E+00
 -1       771 5.26500E+01 3.70100E+01 0.00000E+00
 -1       772 5.56500E+01 3.70100E+01 0.00000E+00
 -1       773 5.86500E+01 3.70100E+01 0.00000E+00
 -1       774 6.16500E+01 3.70100E+01 0.00000E+00
 -1       775 6.46500E+01 3.70100E+01 0.00000E+00
 -1       776 6.76500E+01 3.70100E+01 0.00000E+00
 -1       777 7.06500E+01 3.70100E+01 0.00000E+00
 -1       778 7.36500E+01 3.70100E+01 0.00000E+00
 -1       779 7.66500E+01 3.70100E+01 0.00000E+00
 -1       780 7.96500E+01 3.70100E+01 0.00000E+00
 -1       781 8.26500E+01 3.70100E+01 0.00000E+00
 -1       782 8.56500E+01 3.70100E+01 0.00000E+00
 -1       783 8.86500E+01 3.70100E+01 0.00000E+00
 -1       784 9.16500E+01 3.70100E+01 0.00000E+00
 -1       785 9.46500E+01 3.70100E+01 0.00000E+00
 -1       786 9.76500E+01 3.70100E+01 0.00000E+00
 -1       787 1.00650E+02 3.70100E+01 0.00000E+00
 -1       788 1.03650E+02 3.70100E+01 0.00000E+00
 -1       789 1.06650E+02 3.70100E+01 0.00000E+00
 -1       790 1.09650E+02 3.70100E+01 0.00000E+00
 -1       791 1.12650E+02 3.70100E+01 0.00000E+00
 -1       792 1.15650E+02 3.70100E+01 0.00000E+00
 -1       793 1.30650E+02 3.73902E+01 0.00000E+00
 -1       794 1.33650E+02 3.73902E+01 0.00000E+00
 -1       795 1.36264E+02 3.74221E+01 0.00000E+00
 -1       796 2.20350E+01 1.18003E+01 0.00000E+00
 -1       797 3.40350E+01 1.18003E+01 0.00000E+00
 -1       798 3.10350E+01 1.18003E+01 0.00000E+00
 -1       799 4.00350E+01 1.18003E+01 0.00000E+00
 -1       800 4.30350E+01 1.18003E+01 0.00000E+00
 -1       801 4.60350E+01 1.18003E+01 0.00000E+00
 -1       802 4.90350E+01 1.18003E+01 0.00000E+00
 -1       803 5.20350E+01 1.18003E+01 0.00000E+00
 -1       804 5.50350E+01 1.18003E+01 0.00000E+00
 -1       805 5.80350E+01 1.18003E+01 0.00000E+00
 -1       806 6.10350E+01 1.18003E+01 0.00000E+00
 -1       807 6.40350E+01 1.18003E+01 0.00000E+00
 -1       808 6.70350E+01 1.18003E+01 0.00000E+00
 -1       809 7.00350E+01 1.18003E+01 0.00000E+00
 -1       810 7.30350E+01 1.18003E+01 0.00000E+00
 -1       811 7.60350E+01 1.18003E+01 0.00000E+00
 -1       812 7.90350E+01 1.18003E+01 0.00000E+00
 -1       813 8.20350E+01 1.18003E+01 0.00000E+00
 -1       814 8.50350E+01 1.18003E+01 0.00000E+00
 -1       815 8.80350E+01 1.18003E+01 0.00000E+00
 -1       816 9.10350E+01 1.18003E+01 0.00000E+00
 -1       817 9.40350E+01 1.18003E+01 0.00000E+00
 -1       818 9.70350E+01 1.18003E+01 0.00000E+00
 -1       819 1.00035E+02 1.18003E+01 0.00000E+00
 -1       820 1.03035E+02 1.18003E+01 0.00000E+00
 -1       821 1.06035E+02 1.18003E+01 0.00000E+00
 -1       822 1.09035E+02 1.18003E+01 0.00000E+00
 -1       823 1.12035E+02 1.18003E+01 0.00000E+00
 -1       824 1.36035E+02 1.17552E+01 0.00000E+00
 -1       825 1.37898E+02 1.19941E+01 0.00000E+00
 -1       826 1.33555E+02 3.55517E+01 0.00000E+00
 -1       827 1.29900E+01 2.20250E+01 0.00000E+00
 -1       828 1.90350E+01 1.18003E+01 0.00000E+00
 -1       829 1.10966E+02 1.81800E+01 0.00000E+00
 -1       830 1.04888E+01 3.74991E+01 0.00000E+00
 -1       831 3.70350E+01 1.18003E+01 0.00000E+00
 -1       832 1.17764E+02 1.13503E+01 0.00000E+00
 -1       833 1.66500E+01 3.70100E+01 0.00000E+00
 -1       834 1.10827E+02 2.99197E+01 0.00000E+00
 -1       835 1.09821E+02 2.66368E+01 0.00000E+00
 -1       836 1.35878E+02 1.36612E+01 0.00000E+00
 -1       837 1.37798E+02 1.65854E+01 0.00000E+00
 -1       838 1.38087E+02 1.90472E+01 0.00000E+00
 -1       839 1.37625E+01 1.12011E+01 0.00000E+00
 -1       840 1.29900E+01 2.49750E+01 0.00000E+00
 -1       841 1.08992E+02 2.43989E+01 0.00000E+00
 -1       842 1.27710E+01 3.74352E+01 0.00000E+00
 -1       843 1.29900E+01 3.37938E+01 0.00000E+00
 -1       844 1.29900E+01 1.61375E+01 0.00000E+00
 -1       845 2.80350E+01 1.18003E+01 0.00000E+00
 -1       846 1.29900E+01 1.90812E+01 0.00000E+00
 -1       847 1.10079E+02 2.03531E+01 0.00000E+00
 -1       848 2.50350E+01 1.18003E+01 0.00000E+00
 -1       849 1.14080E+02 3.34701E+01 0.00000E+00
 -1       850 1.11209E+02 3.15717E+01 0.00000E+00
 -1       851 1.63988E+01 1.15007E+01 0.00000E+00
 -1       852 1.29900E+01 3.08563E+01 0.00000E+00
 -1       853 1.21666E+02 1.06433E+01 0.00000E+00
 -1       854 2.41500E+01 3.44120E+01 0.00000E+00
 -1       855 2.71500E+01 3.44120E+01 0.00000E+00
 -1       856 3.01500E+01 3.44120E+01 0.00000E+00
 -1       857 3.31500E+01 3.44120E+01 0.00000E+00
 -1       858 3.61500E+01 3.44120E+01 0.00000E+00
 -1       859 3.91500E+01 3.44120E+01 0.00000E+00
 -1       860 4.21500E+01 3.44120E+01 0.00000E+00
 -1       861 4.51500E+01 3.44120E+01 0.00000E+00
 -1       862 4.81500E+01 3.44120E+01 0.00000E+00
 -1       863 5.11500E+01 3.44120E+01 0.00000E+00
 -1       864 5.41500E+01 3.44120E+01 0.00000E+00
 -1       865 5.71500E+01 3.44120E+01 0.00000E+00
 -1       866 6.01500E+01 3.44120E+01 0.00000E+00
 -1       867 6.31500E+01 3.44120E+01 0.00000E+00
 -1       868 6.61500E+01 3.44120E+01 0.00000E+00
 -1       869 6.91500E+01 3.44120E+01 0.00000E+00
 -1       870 7.21500E+01 3.44120E+01 0.00000E+00
 -1       871 7.51500E+01 3.44120E+01 0.00000E+00
 -1       872 7.81500E+01 3.44120E+01 0.00000E+00
 -1       873 8.11500E+01 3.44120E+01 0.00000E+00
 -1       874 8.41500E+01 3.44120E+01 0.00000E+00
 -1       875 8.71500E+01 3.44120E+01 0.00000E+00
 -1       876 9.01500E+01 3.44120E+01 0.00000E+00
 -1       877 9.31500E+01 3.44120E+01 0.00000E+00
 -1       878 9.61500E+01 3.44120E+01 0.00000E+00
 -1       879 9.91500E+01 3.44120E+01 0.00000E+00
 -1       880 1.02150E+02 3.44120E+01 0.00000E+00
 -1       881 1.05150E+02 3.44120E+01 0.00000E+00
 -1       882 1.08150E+02 3.44120E+01 0.00000E+00
 -1       883 1.11150E+02 3.44120E+01 0.00000E+00
 -1       884 4.45350E+01 1.43982E+01 0.00000E+00
 -1       885 4.15350E+01 1.43982E+01 0.00000E+00
 -1       886 5.05350E+01 1.43982E+01 0.00000E+00
 -1       887 5.35350E+01 1.43982E+01 0.00000E+00
 -1       888 5.65350E+01 1.43982E+01 0.00000E+00
 -1       889 5.95350E+01 1.43982E+01 0.00000E+00
 -1       890 6.25350E+01 1.43982E+01 0.00000E+00
 -1       891 6.55350E+01 1.43982E+01 0.00000E+00
 -1       892 6.85350E+01 1.43982E+01 0.00000E+00
 -1       893 7.15350E+01 1.43982E+01 0.00000E+00
 -1       894 7.45350E+01 1.43982E+01 0.00000E+00
 -1       895 7.75350E+01 1.43982E+01 0.00000E+00
 -1       896 8.05350E+01 1.43982E+01 0.00000E+00
 -1       897 8.35350E+01 1.43982E+01 0.00000E+00
 -1       898 8.65350E+01 1.43982E+01 0.00000E+00
 -1       899 8.95350E+01 1.43982E+01 0.00000E+00
 -1       900 9.25350E+01 1.43982E+01 0.00000E+00
 -1       901 9.55350E+01 1.43982E+01 0.00000E+00
 -1       902 9.85350E+01 1.43982E+01 0.00000E+00
 -1       903 1.01535E+02 1.43982E+01 0.00000E+00
 -1       904 1.04535E+02 1.43982E+01 0.00000E+00
 -1       905 1.07535E+02 1.43982E+01 0.00000E+00
 -1       906 1.10535E+02 1.43982E+01 0.00000E+00
 -1       907 2.05350E+01 1.43982E+01 0.00000E+00
 -1       908 1.08043E+02 2.89773E+01 0.00000E+00
 -1       909 1.08469E+02 1.84285E+01 0.00000E+00
 -1       910 1.36710E+02 3.29836E+01 0.00000E+00
 -1       911 4.75350E+01 1.43982E+01 0.00000E+00
 -1       912 3.25350E+01 1.43982E+01 0.00000E+00
 -1       913 1.07382E+02 2.24743E+01 0.00000E+00
 -1       914 1.29900E+01 2.79188E+01 0.00000E+00
 -1       915 1.81500E+01 3.44120E+01 0.00000E+00
 -1       916 2.11500E+01 3.44120E+01 0.00000E+00
 -1       917 1.07215E+02 2.67394E+01 0.00000E+00
 -1       918 1.55700E+01 3.26341E+01 0.00000E+00
 -1       919 2.35350E+01 1.43982E+01 0.00000E+00
 -1       920 1.55880E+01 1.46687E+01 0.00000E+00
 -1       921 2.95350E+01 1.43982E+01 0.00000E+00
 -1       922 3.85350E+01 1.43982E+01 0.00000E+00
 -1       923 1.08425E+02 3.06293E+01 0.00000E+00
 -1       924 1.08002E+02 1.64134E+01 0.00000E+00
 -1       925 1.75351E+01 1.43983E+01 0.00000E+00
 -1       926 1.05605E+02 2.48148E+01 0.00000E+00
 -1       927 3.55350E+01 1.43982E+01 0.00000E+00
 -1       928 1.55880E+01 2.05531E+01 0.00000E+00
 -1       929 1.55880E+01 2.35031E+01 0.00000E+00
 -1       930 1.55880E+01 1.76109E+01 0.00000E+00
 -1       931 2.56500E+01 3.18140E+01 0.00000E+00
 -1       932 2.86500E+01 3.18140E+01 0.00000E+00
 -1       933 3.16500E+01 3.18140E+01 0.00000E+00
 -1       934 3.46500E+01 3.18140E+01 0.00000E+00
 -1       935 3.76500E+01 3.18140E+01 0.00000E+00
 -1       936 4.06500E+01 3.18140E+01 0.00000E+00
 -1       937 4.36500E+01 3.18140E+01 0.00000E+00
 -1       938 4.66500E+01 3.18140E+01 0.00000E+00
 -1       939 4.96500E+01 3.18140E+01 0.00000E+00
 -1       940 5.26500E+01 3.18140E+01 0.00000E+00
 -1       941 5.56500E+01 3.18140E+01 0.00000E+00
 -1       942 5.86500E+01 3.18140E+01 0.00000E+00
 -1       943 6.16500E+01 3.18140E+01 0.00000E+00
 -1       944 6.46500E+01 3.18140E+01 0.00000E+00
 -1       945 6.76500E+01 3.18140E+01 0.00000E+00
 -1       946 7.06500E+01 3.18140E+01 0.00000E+00
 -1       947 7.36500E+01 3.18140E+01 0.00000E+00
 -1       948 7.66500E+01 3.18140E+01 0.00000E+00
 -1       949 7.96500E+01 3.18140E+01 0.00000E+00
 -1       950 8.26500E+01 3.18140E+01 0.00000E+00
 -1       951 8.56500E+01 3.18140E+01 0.00000E+00
 -1       952 8.86500E+01 3.18140E+01 0.00000E+00
 -1       953 9.16500E+01 3.18140E+01 0.00000E+00
 -1       954 9.46500E+01 3.18140E+01 0.00000E+00
 -1       955 9.76500E+01 3.18140E+01 0.00000E+00
 -1       956 1.00650E+02 3.18140E+01 0.00000E+00
 -1       957 1.03650E+02 3.18140E+01 0.00000E+00
 -1       958 4.30350E+01 1.69963E+01 0.00000E+00
 -1       959 1.05622E+02 1.98326E+01 0.00000E+00
 -1       960 5.50350E+01 1.69963E+01 0.00000E+00
 -1       961 5.20350E+01 1.69963E+01 0.00000E+00
 -1       962 6.10350E+01 1.69963E+01 0.00000E+00
 -1       963 6.40350E+01 1.69963E+01 0.00000E+00
 -1       964 6.70350E+01 1.69963E+01 0.00000E+00
 -1       965 7.00350E+01 1.69963E+01 0.00000E+00
 -1       966 7.30350E+01 1.69963E+01 0.00000E+00
 -1       967 7.60350E+01 1.69963E+01 0.00000E+00
 -1       968 7.90350E+01 1.69963E+01 0.00000E+00
 -1       969 8.20350E+01 1.69963E+01 0.00000E+00
 -1       970 8.50350E+01 1.69963E+01 0.00000E+00
 -1       971 8.80350E+01 1.69963E+01 0.00000E+00
 -1       972 9.10350E+01 1.69963E+01 0.00000E+00
 -1       973 9.40350E+01 1.69963E+01 0.00000E+00
 -1       974 9.70350E+01 1.69963E+01 0.00000E+00
 -1       975 1.00035E+02 1.69963E+01 0.00000E+00
 -1       976 1.03035E+02 1.69963E+01 0.00000E+00
 -1       977 1.05519E+02 1.67048E+01 0.00000E+00
 -1       978 1.90351E+01 1.69963E+01 0.00000E+00
 -1       979 1.55700E+01 2.96966E+01 0.00000E+00
 -1       980 2.65350E+01 1.43982E+01 0.00000E+00
 -1       981 1.96500E+01 3.18140E+01 0.00000E+00
 -1       982 1.55880E+01 2.64469E+01 0.00000E+00
 -1       983 2.26500E+01 3.18140E+01 0.00000E+00
 -1       984 1.05193E+02 2.87601E+01 0.00000E+00
 -1       985 5.80350E+01 1.69963E+01 0.00000E+00
 -1       986 1.73115E+01 1.73036E+01 0.00000E+00
 -1       987 4.00350E+01 1.69963E+01 0.00000E+00
 -1       988 4.60350E+01 1.69963E+01 0.00000E+00
 -1       989 2.20351E+01 1.69963E+01 0.00000E+00
 -1       990 1.03845E+02 2.21731E+01 0.00000E+00
 -1       991 1.03582E+02 2.68355E+01 0.00000E+00
 -1       992 4.90350E+01 1.69963E+01 0.00000E+00
 -1       993 1.81860E+01 2.20281E+01 0.00000E+00
 -1       994 3.10350E+01 1.69963E+01 0.00000E+00
 -1       995 3.40350E+01 1.69963E+01 0.00000E+00
 -1       996 1.77488E+01 1.96659E+01 0.00000E+00
 -1       997 5.05350E+01 1.95942E+01 0.00000E+00
 -1       998 2.41500E+01 2.92160E+01 0.00000E+00
 -1       999 3.01500E+01 2.92160E+01 0.00000E+00
 -1      1000 3.31500E+01 2.92160E+01 0.00000E+00
 -1      1001 3.61500E+01 2.92160E+01 0.00000E+00
 -1      1002 3.91500E+01 2.92160E+01 0.00000E+00
 -1      1003 4.21500E+01 2.92160E+01 0.00000E+00
 -1      1004 4.51500E+01 2.92160E+01 0.00000E+00
 -1      1005 4.81500E+01 2.92160E+01 0.00000E+00
 -1      1006 5.11500E+01 2.92160E+01 0.00000E+00
 -1      1007 5.41500E+01 2.92160E+01 0.00000E+00
 -1      1008 5.71500E+01 2.92160E+01 0.00000E+00
 -1      1009 6.01500E+01 2.92160E+01 0.00000E+00
 -1      1010 6.31500E+01 2.92160E+01 0.00000E+00
 -1      1011 6.61500E+01 2.92160E+01 0.00000E+00
 -1      1012 6.91500E+01 2.92160E+01 0.00000E+00
 -1      1013 7.21500E+01 2.92160E+01 0.00000E+00
 -1      1014 7.51500E+01 2.92160E+01 0.00000E+00
 -1      1015 7.81500E+01 2.92160E+01 0.00000E+00
 -1      1016 8.11500E+01 2.92160E+01 0.00000E+00
 -1      1017 8.41500E+01 2.92160E+01 0.00000E+00
 -1      1018 8.71500E+01 2.92160E+01 0.00000E+00
 -1      1019 9.01500E+01 2.92160E+01 0.00000E+00
 -1      1020 9.31500E+01 2.92160E+01 0.00000E+00
 -1      1021 9.61500E+01 2.92160E+01 0.00000E+00
 -1      1022 9.91500E+01 2.92160E+01 0.00000E+00
 -1      1023 2.80350E+01 1.69963E+01 0.00000E+00
 -1      1024 1.81860E+01 2.49719E+01 0.00000E+00
 -1      1025 6.85350E+01 1.95942E+01 0.00000E+00
 -1      1026 6.55350E+01 1.95942E+01 0.00000E+00
 -1      1027 6.25350E+01 1.95942E+01 0.00000E+00
 -1      1028 7.15350E+01 1.95942E+01 0.00000E+00
 -1      1029 7.45350E+01 1.95942E+01 0.00000E+00
 -1      1030 7.75350E+01 1.95942E+01 0.00000E+00
 -1      1031 8.05350E+01 1.95942E+01 0.00000E+00
 -1      1032 8.35350E+01 1.95942E+01 0.00000E+00
 -1      1033 8.65350E+01 1.95942E+01 0.00000E+00
 -1      1034 8.95350E+01 1.95942E+01 0.00000E+00
 -1      1035 9.25350E+01 1.95942E+01 0.00000E+00
 -1      1036 9.55350E+01 1.95942E+01 0.00000E+00
 -1      1037 9.85350E+01 1.95942E+01 0.00000E+00
 -1      1038 1.01535E+02 1.95942E+01 0.00000E+00
 -1      1039 2.71500E+01 2.92160E+01 0.00000E+00
 -1      1040 5.65350E+01 1.95942E+01 0.00000E+00
 -1      1041 5.35350E+01 1.95942E+01 0.00000E+00
 -1      1042 1.88067E+01 2.84493E+01 0.00000E+00
 -1      1043 2.14784E+01 2.88327E+01 0.00000E+00
 -1      1044 5.95350E+01 1.95942E+01 0.00000E+00
 -1      1045 2.50350E+01 1.69963E+01 0.00000E+00
 -1      1046 3.70350E+01 1.69963E+01 0.00000E+00
 -1      1047 4.15350E+01 1.95942E+01 0.00000E+00
 -1      1048 2.95350E+01 1.95942E+01 0.00000E+00
 -1      1049 1.02150E+02 2.92160E+01 0.00000E+00
 -1      1050 2.07840E+01 2.35000E+01 0.00000E+00
 -1      1051 4.75350E+01 1.95942E+01 0.00000E+00
 -1      1052 4.45350E+01 1.95942E+01 0.00000E+00
 -1      1053 1.01822E+02 2.41938E+01 0.00000E+00
 -1      1054 2.03468E+01 2.11377E+01 0.00000E+00
 -1      1055 3.25350E+01 1.95942E+01 0.00000E+00
 -1      1056 2.11909E+01 1.90670E+01 0.00000E+00
 -1      1057 2.11312E+01 2.61663E+01 0.00000E+00
 -1      1058 2.86500E+01 2.66180E+01 0.00000E+00
 -1      1059 3.46500E+01 2.66180E+01 0.00000E+00
 -1      1060 3.76500E+01 2.66180E+01 0.00000E+00
 -1      1061 4.06500E+01 2.66180E+01 0.00000E+00
 -1      1062 4.36500E+01 2.66180E+01 0.00000E+00
 -1      1063 4.66500E+01 2.66180E+01 0.00000E+00
 -1      1064 4.96500E+01 2.66180E+01 0.00000E+00
 -1      1065 5.26500E+01 2.66180E+01 0.00000E+00
 -1      1066 5.56500E+01 2.66180E+01 0.00000E+00
 -1      1067 5.86500E+01 2.66180E+01 0.00000E+00
 -1      1068 6.16500E+01 2.66180E+01 0.00000E+00
 -1      1069 6.46500E+01 2.66180E+01 0.00000E+00
 -1      1070 6.76500E+01 2.66180E+01 0.00000E+00
 -1      1071 7.06500E+01 2.66180E+01 0.00000E+00
 -1      1072 7.36500E+01 2.66180E+01 0.00000E+00
 -1      1073 7.66500E+01 2.66180E+01 0.00000E+00
 -1      1074 7.96500E+01 2.66180E+01 0.00000E+00
 -1      1075 8.26500E+01 2.66180E+01 0.00000E+00
 -1      1076 8.56500E+01 2.66180E+01 0.00000E+00
 -1      1077 8.86500E+01 2.66180E+01 0.00000E+00
 -1      1078 9.16500E+01 2.66180E+01 0.00000E+00
 -1      1079 9.46500E+01 2.66180E+01 0.00000E+00
 -1      1080 9.76500E+01 2.66180E+01 0.00000E+00
 -1      1081 7.30350E+01 2.21922E+01 0.00000E+00
 -1      1082 7.00350E+01 2.21922E+01 0.00000E+00
 -1      1083 6.40350E+01 2.21922E+01 0.00000E+00
 -1      1084 7.60350E+01 2.21922E+01 0.00000E+00
 -1      1085 7.90350E+01 2.21922E+01 0.00000E+00
 -1      1086 8.20350E+01 2.21922E+01 0.00000E+00
 -1      1087 8.50350E+01 2.21922E+01 0.00000E+00
 -1      1088 8.80350E+01 2.21922E+01 0.00000E+00
 -1      1089 9.10350E+01 2.21922E+01 0.00000E+00
 -1      1090 9.40350E+01 2.21922E+01 0.00000E+00
 -1      1091 9.70350E+01 2.21922E+01 0.00000E+00
 -1      1092 1.00440E+02 2.21827E+01 0.00000E+00
 -1      1093 3.85350E+01 1.95942E+01 0.00000E+00
 -1      1094 5.50350E+01 2.21922E+01 0.00000E+00
 -1      1095 2.56500E+01 2.66180E+01 0.00000E+00
 -1      1096 5.20350E+01 2.21922E+01 0.00000E+00
 -1      1097 6.70350E+01 2.21922E+01 0.00000E+00
 -1      1098 1.00486E+02 2.67049E+01 0.00000E+00
 -1      1099 2.65350E+01 1.95943E+01 0.00000E+00
 -1      1100 5.80350E+01 2.21922E+01 0.00000E+00
 -1      1101 3.16500E+01 2.66180E+01 0.00000E+00
 -1      1102 6.10350E+01 2.21922E+01 0.00000E+00
 -1      1103 3.55350E+01 1.95942E+01 0.00000E+00
 -1      1104 3.10350E+01 2.21922E+01 0.00000E+00
 -1      1105 4.30350E+01 2.21922E+01 0.00000E+00
 -1      1106 4.00350E+01 2.21922E+01 0.00000E+00
 -1      1107 2.80350E+01 2.21923E+01 0.00000E+00
 -1      1108 4.90350E+01 2.21922E+01 0.00000E+00
 -1      1109 2.35338E+01 2.44977E+01 0.00000E+00
 -1      1110 2.38630E+01 1.93306E+01 0.00000E+00
 -1      1111 2.30966E+01 2.21355E+01 0.00000E+00
 -1      1112 3.31500E+01 2.40200E+01 0.00000E+00
 -1      1113 3.91500E+01 2.40200E+01 0.00000E+00
 -1      1114 4.81500E+01 2.40200E+01 0.00000E+00
 -1      1115 4.55925E+01 2.31061E+01 0.00000E+00
 -1      1116 2.26501E+01 2.66180E+01 0.00000E+00
 -1      1117 2.71500E+01 2.40200E+01 0.00000E+00
 -1      1118 3.01500E+01 2.40200E+01 0.00000E+00
 -1      1119 3.61500E+01 2.40200E+01 0.00000E+00
 -1      1120 2.55658E+01 2.21639E+01 0.00000E+00
 -1      1121 0.00000E+00 4.85250E+01 0.00000E+00
 -1      1122 0.00000E+00 4.55750E+01 0.00000E+00
 -1      1123 0.00000E+00 4.26250E+01 0.00000E+00
 -1      1124 0.00000E+00 3.96750E+01 0.00000E+00
 -1      1125 0.00000E+00 3.67250E+01 0.00000E+00
 -1      1126 0.00000E+00 3.38000E+01 0.00000E+00
 -1      1127 0.00000E+00 3.08750E+01 0.00000E+00
 -1      1128 0.00000E+00 2.79250E+01 0.00000E+00
 -1      1129 0.00000E+00 2.49750E+01 0.00000E+00
 -1      1130 0.00000E+00 2.20250E+01 0.00000E+00
 -1      1131 0.00000E+00 1.90750E+01 0.00000E+00
 -1      1132 0.00000E+00 1.61500E+01 0.00000E+00
 -1      1133 0.00000E+00 1.32250E+01 0.00000E+00
 -1      1134 0.00000E+00 1.02750E+01 0.00000E+00
 -1      1135 0.00000E+00 7.32500E+00 0.00000E+00
 -1      1136 0.00000E+00 4.37500E+00 0.00000E+00
 -1      1137 0.00000E+00 1.45000E+00 0.00000E+00
 -1      1138 1.57500E+00 5.00000E+01 0.00000E+00
 -1      1139 4.65000E+00 5.00000E+01 0.00000E+00
 -1      1140 7.65000E+00 5.00000E+01 0.00000E+00
 -1      1141 1.06500E+01 5.00000E+01 0.00000E+00
 -1      1142 1.36500E+01 5.00000E+01 0.00000E+00
 -1      1143 1.66500E+01 5.00000E+01 0.00000E+00
 -1      1144 1.96500E+01 5.00000E+01 0.00000E+00
 -1      1145 2.26500E+01 5.00000E+01 0.00000E+00
 -1      1146 2.56500E+01 5.00000E+01 0.00000E+00
 -1      1147 2.86500E+01 5.00000E+01 0.00000E+00
 -1      1148 3.16500E+01 5.00000E+01 0.00000E+00
 -1      1149 3.46500E+01 5.00000E+01 0.00000E+00
 -1      1150 3.76500E+01 5.00000E+01 0.00000E+00
 -1      1151 4.06500E+01 5.00000E+01 0.00000E+00
 -1      1152 4.36500E+01 5.00000E+01 0.00000E+00
 -1      1153 4.66500E+01 5.00000E+01 0.00000E+00
 -1      1154 4.96500E+01 5.00000E+01 0.00000E+00
 -1      1155 5.26500E+01 5.00000E+01 0.00000E+00
 -1      1156 5.56500E+01 5.00000E+01 0.00000E+00
 -1      1157 5.86500E+01 5.00000E+01 0.00000E+00
 -1      1158 6.16500E+01 5.00000E+01 0.00000E+00
 -1      1159 6.46500E+01 5.00000E+01 0.00000E+00
 -1      1160 6.76500E+01 5.00000E+01 0.00000E+00
 -1      1161 7.06500E+01 5.00000E+01 0.00000E+00
 -1      1162 7.36500E+01 5.00000E+01 0.00000E+00
 -1      1163 7.66500E+01 5.00000E+01 0.00000E+00
 -1      1164 7.96500E+01 5.00000E+01 0.00000E+00
 -1      1165 8.26500E+01 5.00000E+01 0.00000E+00
 -1      1166 8.56500E+01 5.00000E+01 0.00000E+00
 -1      1167 8.86500E+01 5.00000E+01 0.00000E+00
 -1      1168 9.16500E+01 5.00000E+01 0.00000E+00
 -1      1169 9.46500E+01 5.00000E+01 0.00000E+00
 -1      1170 9.76500E+01 5.00000E+01 0.00000E+00
 -1      1171 1.00650E+02 5.00000E+01 0.00000E+00
 -1      1172 1.03650E+02 5.00000E+01 0.00000E+00
 -1      1173 1.06650E+02 5.00000E+01 0.00000E+00
 -1      1174 1.09650E+02 5.00000E+01 0.00000E+00
 -1      1175 1.12650E+02 5.00000E+01 0.00000E+00
 -1      1176 1.15650E+02 5.00000E+01 0.00000E+00
 -1      1177 1.18650E+02 5.00000E+01 0.00000E+00
 -1      1178 1.21650E+02 5.00000E+01 0.00000E+00
 -1      1179 1.24650E+02 5.00000E+01 0.00000E+00
 -1      1180 1.27650E+02 5.00000E+01 0.00000E+00
 -1      1181 1.30650E+02 5.00000E+01 0.00000E+00
 -1      1182 1.33650E+02 5.00000E+01 0.00000E+00
 -1      1183 1.36650E+02 5.00000E+01 0.00000E+00
 -1      1184 1.39650E+02 5.00000E+01 0.00000E+00
 -1      1185 1.42650E+02 5.00000E+01 0.00000E+00
 -1      1186 1.45650E+02 5.00000E+01 0.00000E+00
 -1      1187 1.48575E+02 5.00000E+01 0.00000E+00
 -1      1188 1.57500E+00 0.00000E+00 0.00000E+00
 -1      1189 4.65000E+00 0.00000E+00 0.00000E+00
 -1      1190 7.65000E+00 0.00000E+00 0.00000E+00
 -1      1191 1.06500E+01 0.00000E+00 0.00000E+00
 -1      1192 1.36500E+01 0.00000E+00 0.00000E+00
 -1      1193 1.66500E+01 0.00000E+00 0.00000E+00
 -1      1194 1.96500E+01 0.00000E+00 0.00000E+00
 -1      1195 2.26500E+01 0.00000E+00 0.00000E+00
 -1      1196 2.56500E+01 0.00000E+00 0.00000E+00
 -1      1197 2.86500E+01 0.00000E+00 0.00000E+00
 -1      1198 3.16500E+01 0.00000E+00 0.00000E+00
 -1      1199 3.46500E+01 0.00000E+00 0.00000E+00
 -1      1200 3.76500E+01 0.00000E+00 0.00000E+00
 -1      1201 4.06500E+01 0.00000E+00 0.00000E+00
 -1      1202 4.36500E+01 0.00000E+00 0.00000E+00
 -1      1203 4.66500E+01 0.00000E+00 0.00000E+00
 -1      1204 4.96500E+01 0.00000E+00 0.00000E+00
 -1      1205 5.26500E+01 0.00000E+00 0.00000E+00
 -1      1206 5.56500E+01 0.00000E+00 0.00000E+00
 -1      1207 5.86500E+01 0.00000E+00 0.00000E+00
 -1      1208 6.16500E+01 0.00000E+00 0.00000E+00
 -1      1209 6.46500E+01 0.00000E+00 0.00000E+00
 -1      1210 6.76500E+01 0.00000E+00 0.00000E+00
 -1      1211 7.06500E+01 0.00000E+00 0.00000E+00
 -1      1212 7.36500E+01 0.00000E+00 0.00000E+00
 -1      1213 7.66500E+01 0.00000E+00 0.00000E+00
 -1      1214 7.96500E+01 0.00000E+00 0.00000E+00
 -1      1215 8.26500E+01 0.00000E+00 0.00000E+00
 -1      1216 8.56500E+01 0.00000E+00 0.00000E+00
 -1      1217 8.86500E+01 0.00000E+00 0.00000E+00
 -1      1218 9.16500E+01 0.00000E+00 0.00000E+00
 -1      1219 9.46500E+01 0.00000E+00 0.00000E+00
 -1      1220 9.76500E+01 0.00000E+00 0.00000E+00
 -1      1221 1.00650E+02 0.00000E+00 0.00000E+00
 -1      1222 1.03650E+02 0.00000E+00 0.00000E+00
 -1      1223 1.06650E+02 0.00000E+00 0.00000E+00
 -1      1224 1.09650E+02 0.00000E+00 0.00000E+00
 -1      1225 1.12650E+02 0.00000E+00 0.00000E+00
 -1      1226 1.15650E+02 0.00000E+00 0.00000E+00
 -1      1227 1.18650E+02 0.00000E+00 0.00000E+00
 -1      1228 1.21650E+02 0.00000E+00 0.00000E+00
 -1      1229 1.24650E+02 0.00000E+00 0.00000E+00
 -1      1230 1.27650E+02 0.00000E+00 0.00000E+00
 -1      1231 1.30650E+02 0.00000E+00 0.00000E+00
 -1      1232 1.33650E+02 0.00000E+00 0.00000E+00
 -1      1233 1.36650E+02 0.00000E+00 0.00000E+00
 -1      1234 1.39650E+02 0.00000E+00 0.00000E+00
 -1      1235 1.42650E+02 0.00000E+00 0.00000E+00
 -1      1236 1.45650E+02 0.00000E+00 0.00000E+00
 -1      1237 1.48575E+02 0.00000E+00 0.00000E+00
 -1      1238 1.50000E+02 1.47500E+00 0.00000E+00
 -1      1239 1.50000E+02 4.42500E+00 0.00000E+00
 -1      1240 1.50000E+02 7.37500E+00 0.00000E+00
 -1      1241 1.50000E+02 1.03250E+01 0.00000E+00
 -1      1242 1.50000E+02 1.32750E+01 0.00000E+00
 -1      1243 1.50000E+02 1.62000E+01 0.00000E+00
 -1      1244 1.50000E+02 1.91250E+01 0.00000E+00
 -1      1245 1.50000E+02 2.20750E+01 0.00000E+00
 -1      1246 1.50000E+02 2.50250E+01 0.00000E+00
 -1      1247 1.50000E+02 2.79750E+01 0.00000E+00
 -1      1248 1.50000E+02 3.09250E+01 0.00000E+00
 -1      1249 1.50000E+02 3.38500E+01 0.00000E+00
 -1      1250 1.50000E+02 3.67750E+01 0.00000E+00
 -1      1251 1.50000E+02 3.97250E+01 0.00000E+00
 -1      1252 1.50000E+02 4.26750E+01 0.00000E+00
 -1      1253 1.50000E+02 4.56250E+01 0.00000E+00
 -1      1254 1.50000E+02 4.85500E+01 0.00000E+00
 -1      1255 1.31626E+02 2.30408E+01 0.00000E+00
 -1      1256 1.31295E+02 2.15344E+01 0.00000E+00
 -1      1257 1.30664E+02 2.01727E+01 0.00000E+00
 -1      1258 1.29810E+02 1.90342E+01 0.00000E+00
 -1      1259 1.28648E+02 1.80245E+01 0.00000E+00
 -1      1260 1.27221E+02 1.72640E+01 0.00000E+00
 -1      1261 1.25747E+02 1.68651E+01 0.00000E+00
 -1      1262 1.24254E+02 1.67931E+01 0.00000E+00
 -1      1263 1.22686E+02 1.70669E+01 0.00000E+00
 -1      1264 1.21222E+02 1.76867E+01 0.00000E+00
 -1      1265 1.19943E+02 1.86142E+01 0.00000E+00
 -1      1266 1.18937E+02 1.97587E+01 0.00000E+00
 -1      1267 1.18219E+02 2.10524E+01 0.00000E+00
 -1      1268 1.17784E+02 2.25001E+01 0.00000E+00
 -1      1269 1.17667E+02 2.39346E+01 0.00000E+00
 -1      1270 1.17844E+02 2.53514E+01 0.00000E+00
 -1      1271 1.18325E+02 2.67466E+01 0.00000E+00
 -1      1272 1.19129E+02 2.80646E+01 0.00000E+00
 -1      1273 1.20298E+02 2.92517E+01 0.00000E+00
 -1      1274 1.21685E+02 3.01147E+01 0.00000E+00
 -1      1275 1.23145E+02 3.06138E+01 0.00000E+00
 -1      1276 1.24683E+02 3.07810E+01 0.00000E+00
 -1      1277 1.26167E+02 3.06180E+01 0.00000E+00
 -1      1278 1.27555E+02 3.01568E+01 0.00000E+00
 -1      1279 1.28801E+02 2.94287E+01 0.00000E+00
 -1      1280 1.29861E+02 2.84717E+01 0.00000E+00
 -1      1281 1.30728E+02 2.72813E+01 0.00000E+00
 -1      1282 1.31318E+02 2.59589E+01 0.00000E+00
 -1      1283 1.31625E+02 2.45351E+01 0.00000E+00
 -1      1284 1.57500E+00 4.85250E+01 0.00000E+00
 -1      1285 1.29900E+00 4.48375E+01 0.00000E+00
 -1      1286 1.29900E+00 4.63125E+01 0.00000E+00
 -1      1287 1.29900E+00 4.18875E+01 0.00000E+00
 -1      1288 1.29900E+00 4.33625E+01 0.00000E+00
 -1      1289 2.59800E+00 4.41000E+01 0.00000E+00
 -1      1290 1.29900E+00 3.89375E+01 0.00000E+00
 -1      1291 1.29900E+00 4.04125E+01 0.00000E+00
 -1      1292 2.59800E+00 4.11500E+01 0.00000E+00
 -1      1293 1.29900E+00 3.59875E+01 0.00000E+00
 -1      1294 1.29900E+00 3.74625E+01 0.00000E+00
 -1      1295 2.59800E+00 3.82000E+01 0.00000E+00
 -1      1296 1.29900E+00 3.30875E+01 0.00000E+00
 -1      1297 1.29900E+00 3.45375E+01 0.00000E+00
 -1      1298 2.59800E+00 3.52750E+01 0.00000E+00
 -1      1299 1.29900E+00 3.01375E+01 0.00000E+00
 -1      1300 1.29900E+00 3.16125E+01 0.00000E+00
 -1      1301 2.59800E+00 3.23500E+01 0.00000E+00
 -1      1302 1.29900E+00 2.71875E+01 0.00000E+00
 -1      1303 1.29900E+00 2.86625E+01 0.00000E+00
 -1      1304 2.59800E+00 2.94000E+01 0.00000E+00
 -1      1305 1.29900E+00 2.42375E+01 0.00000E+00
 -1      1306 1.29900E+00 2.57125E+01 0.00000E+00
 -1      1307 2.59800E+00 2.64500E+01 0.00000E+00
 -1      1308 1.29900E+00 2.12875E+01 0.00000E+00
 -1      1309 1.29900E+00 2.27625E+01 0.00000E+00
 -1      1310 2.59800E+00 2.35000E+01 0.00000E+00
 -1      1311 1.29900E+00 1.83375E+01 0.00000E+00
 -1      1312 1.29900E+00 1.98125E+01 0.00000E+00
 -1      1313 2.59800E+00 2.05500E+01 0.00000E+00
 -1      1314 1.29900E+00 1.54375E+01 0.00000E+00
 -1      1315 1.29900E+00 1.68875E+01 0.00000E+00
 -1      1316 2.59800E+00 1.76250E+01 0.00000E+00
 -1      1317 1.29900E+00 1.24875E+01 0.00000E+00
 -1      1318 1.29900E+00 1.39625E+01 0.00000E+00
 -1      1319 2.59800E+00 1.47000E+01 0.00000E+00
 -1      1320 1.29900E+00 9.53750E+00 0.00000E+00
 -1      1321 1.29900E+00 1.10125E+01 0.00000E+00
 -1      1322 2.59800E+00 1.17500E+01 0.00000E+00
 -1      1323 1.29900E+00 6.58750E+00 0.00000E+00
 -1      1324 1.29900E+00 8.06250E+00 0.00000E+00
 -1      1325 2.59800E+00 8.80000E+00 0.00000E+00
 -1      1326 1.29900E+00 3.63750E+00 0.00000E+00
 -1      1327 1.29900E+00 5.11250E+00 0.00000E+00
 -1      1328 2.59800E+00 5.85000E+00 0.00000E+00
 -1      1329 1.43700E+00 1.09375E+00 0.00000E+00
 -1      1330 1.43700E+00 2.54375E+00 0.00000E+00
 -1      1331 2.73600E+00 3.28125E+00 0.00000E+00
 -1      1332 3.01200E+00 1.09375E+00 0.00000E+00
 -1      1333 3.90000E+00 4.87010E+01 0.00000E+00
 -1      1334 5.40000E+00 4.87010E+01 0.00000E+00
 -1      1335 6.90000E+00 4.87010E+01 0.00000E+00
 -1      1336 8.40000E+00 4.87010E+01 0.00000E+00
 -1      1337 6.15000E+00 4.74020E+01 0.00000E+00
 -1      1338 9.90000E+00 4.87010E+01 0.00000E+00
 -1      1339 1.14000E+01 4.87010E+01 0.00000E+00
 -1      1340 9.15000E+00 4.74020E+01 0.00000E+00
 -1      1341 1.29000E+01 4.87010E+01 0.00000E+00
 -1      1342 1.44000E+01 4.87010E+01 0.00000E+00
 -1      1343 1.21500E+01 4.74020E+01 0.00000E+00
 -1      1344 1.59000E+01 4.87010E+01 0.00000E+00
 -1      1345 1.74000E+01 4.87010E+01 0.00000E+00
 -1      1346 1.51500E+01 4.74020E+01 0.00000E+00
 -1      1347 1.89000E+01 4.87010E+01 0.00000E+00
 -1      1348 2.04000E+01 4.87010E+01 0.00000E+00
 -1      1349 1.81500E+01 4.74020E+01 0.00000E+00
 -1      1350 2.19000E+01 4.87010E+01 0.00000E+00
 -1      1351 2.34000E+01 4.87010E+01 0.00000E+00
 -1      1352 2.11500E+01 4.74020E+01 0.00000E+00
 -1      1353 2.49000E+01 4.87010E+01 0.00000E+00
 -1      1354 2.64000E+01 4.87010E+01 0.00000E+00
 -1      1355 2.41500E+01 4.74020E+01 0.00000E+00
 -1      1356 2.79000E+01 4.87010E+01 0.00000E+00
 -1      1357 2.94000E+01 4.87010E+01 0.00000E+00
 -1      1358 2.71500E+01 4.74020E+01 0.00000E+00
 -1      1359 3.09000E+01 4.87010E+01 0.00000E+00
 -1      1360 3.24000E+01 4.87010E+01 0.00000E+00
 -1      1361 3.01500E+01 4.74020E+01 0.00000E+00
 -1      1362 3.39000E+01 4.87010E+01 0.00000E+00
 -1      1363 3.54000E+01 4.87010E+01 0.00000E+00
 -1      1364 3.31500E+01 4.74020E+01 0.00000E+00
 -1      1365 3.69000E+01 4.87010E+01 0.00000E+00
 -1      1366 3.84000E+01 4.87010E+01 0.00000E+00
 -1      1367 3.61500E+01 4.74020E+01 0.00000E+00
 -1      1368 3.99000E+01 4.87010E+01 0.00000E+00
 -1      1369 4.14000E+01 4.87010E+01 0.00000E+00
 -1      1370 3.91500E+01 4.74020E+01 0.00000E+00
 -1      1371 4.29000E+01 4.87010E+01 0.00000E+00
 -1      1372 4.44000E+01 4.87010E+01 0.00000E+00
 -1      1373 4.21500E+01 4.74020E+01 0.00000E+00
 -1      1374 4.59000E+01 4.87010E+01 0.00000E+00
 -1      1375 4.74000E+01 4.87010E+01 0.00000E+00
 -1      1376 4.51500E+01 4.74020E+01 0.00000E+00
 -1      1377 4.89000E+01 4.87010E+01 0.00000E+00
 -1      1378 5.04000E+01 4.87010E+01 0.00000E+00
 -1      1379 4.81500E+01 4.74020E+01 0.00000E+00
 -1      1380 5.19000E+01 4.87010E+01 0.00000E+00
 -1      1381 5.34000E+01 4.87010E+01 0.00000E+00
 -1      1382 5.11500E+01 4.74020E+01 0.00000E+00
 -1      1383 5.49000E+01 4.87010E+01 0.00000E+00
 -1      1384 5.64000E+01 4.87010E+01 0.00000E+00
 -1      1385 5.41500E+01 4.74020E+01 0.00000E+00
 -1      1386 5.79000E+01 4.87010E+01 0.00000E+00
 -1      1387 5.94000E+01 4.87010E+01 0.00000E+00
 -1      1388 5.71500E+01 4.74020E+01 0.00000E+00
 -1      1389 6.09000E+01 4.87010E+01 0.00000E+00
 -1      1390 6.24000E+01 4.87010E+01 0.00000E+00
 -1      1391 6.01500E+01 4.74020E+01 0.00000E+00
 -1      1392 6.39000E+01 4.87010E+01 0.00000E+00
 -1      1393 6.54000E+01 4.87010E+01 0.00000E+00
 -1      1394 6.31500E+01 4.74020E+01 0.00000E+00
 -1      1395 6.69000E+01 4.87010E+01 0.00000E+00
 -1      1396 6.84000E+01 4.87010E+01 0.00000E+00
 -1      1397 6.61500E+01 4.74020E+01 0.00000E+00
 -1      1398 6.99000E+01 4.87010E+01 0.00000E+00
 -1      1399 7.14000E+01 4.87010E+01 0.00000E+00
 -1      1400 6.91500E+01 4.74020E+01 0.00000E+00
 -1      1401 7.29000E+01 4.87010E+01 0.00000E+00
 -1      1402 7.44000E+01 4.87010E+01 0.00000E+00
 -1      1403 7.21500E+01 4.74020E+01 0.00000E+00
 -1      1404 7.59000E+01 4.87010E+01 0.00000E+00
 -1      1405 7.74000E+01 4.87010E+01 0.00000E+00
 -1      1406 7.51500E+01 4.74020E+01 0.00000E+00
 -1      1407 7.89000E+01 4.87010E+01 0.00000E+00
 -1      1408 8.04000E+01 4.87010E+01 0.00000E+00
 -1      1409 7.81500E+01 4.74020E+01 0.00000E+00
 -1      1410 8.19000E+01 4.87010E+01 0.00000E+00
 -1      1411 8.34000E+01 4.87010E+01 0.00000E+00
 -1      1412 8.11500E+01 4.74020E+01 0.00000E+00
 -1      1413 8.49000E+01 4.87010E+01 0.00000E+00
 -1      1414 8.64000E+01 4.87010E+01 0.00000E+00
 -1      1415 8.41500E+01 4.74020E+01 0.00000E+00
 -1      1416 8.79000E+01 4.87010E+01 0.00000E+00
 -1      1417 8.94000E+01 4.87010E+01 0.00000E+00
 -1      1418 8.71500E+01 4.74020E+01 0.00000E+00
 -1      1419 9.09000E+01 4.87010E+01 0.00000E+00
 -1      1420 9.24000E+01 4.87010E+01 0.00000E+00
 -1      1421 9.01500E+01 4.74020E+01 0.00000E+00
 -1      1422 9.39000E+01 4.87010E+01 0.00000E+00
 -1      1423 9.54000E+01 4.87010E+01 0.00000E+00
 -1      1424 9.31500E+01 4.74020E+01 0.00000E+00
 -1      1425 9.69000E+01 4.87010E+01 0.00000E+00
 -1      1426 9.84000E+01 4.87010E+01 0.00000E+00
 -1      1427 9.61500E+01 4.74020E+01 0.00000E+00
 -1      1428 9.99000E+01 4.87010E+01 0.00000E+00
 -1      1429 1.01400E+02 4.87010E+01 0.00000E+00
 -1      1430 9.91500E+01 4.74020E+01 0.00000E+00
 -1      1431 1.02900E+02 4.87010E+01 0.00000E+00
 -1      1432 1.04400E+02 4.87010E+01 0.00000E+00
 -1      1433 1.02150E+02 4.74020E+01 0.00000E+00
 -1      1434 1.05900E+02 4.87010E+01 0.00000E+00
 -1      1435 1.07400E+02 4.87010E+01 0.00000E+00
 -1      1436 1.05150E+02 4.74020E+01 0.00000E+00
 -1      1437 1.08900E+02 4.87010E+01 0.00000E+00
 -1      1438 1.10400E+02 4.87010E+01 0.00000E+00
 -1      1439 1.08150E+02 4.74020E+01 0.00000E+00
 -1      1440 1.11900E+02 4.87010E+01 0.00000E+00
 -1      1441 1.13400E+02 4.87010E+01 0.00000E+00
 -1      1442 1.11150E+02 4.74020E+01 0.00000E+00
 -1      1443 1.14900E+02 4.87010E+01 0.00000E+00
 -1      1444 1.16400E+02 4.87010E+01 0.00000E+00
 -1      1445 1.14150E+02 4.74020E+01 0.00000E+00
 -1      1446 1.17900E+02 4.87010E+01 0.00000E+00
 -1      1447 1.19400E+02 4.87010E+01 0.00000E+00
 -1      1448 1.17150E+02 4.74020E+01 0.00000E+00
 -1      1449 1.20900E+02 4.87010E+01 0.00000E+00
 -1      1450 1.22400E+02 4.87010E+01 0.00000E+00
 -1      1451 1.20150E+02 4.74020E+01 0.00000E+00
 -1      1452 1.23900E+02 4.87010E+01 0.00000E+00
 -1      1453 1.25400E+02 4.87010E+01 0.00000E+00
 -1      1454 1.23150E+02 4.74020E+01 0.00000E+00
 -1      1455 1.26900E+02 4.87010E+01 0.00000E+00
 -1      1456 1.28400E+02 4.87010E+01 0.00000E+00
 -1      1457 1.26150E+02 4.74020E+01 0.00000E+00
 -1      1458 1.29900E+02 4.87010E+01 0.00000E+00
 -1      1459 1.31400E+02 4.87010E+01 0.00000E+00
 -1      1460 1.29150E+02 4.74020E+01 0.00000E+00
 -1      1461 1.32900E+02 4.87010E+01 0.00000E+00
 -1      1462 1.34400E+02 4.87010E+01 0.00000E+00
 -1      1463 1.32150E+02 4.74020E+01 0.00000E+00
 -1      1464 1.35900E+02 4.87010E+01 0.00000E+00
 -1      1465 1.37400E+02 4.87010E+01 0.00000E+00
 -1      1466 1.35150E+02 4.74020E+01 0.00000E+00
 -1      1467 1.38900E+02 4.87010E+01 0.00000E+00
 -1      1468 1.40400E+02 4.87010E+01 0.00000E+00
 -1      1469 1.38150E+02 4.74020E+01 0.00000E+00
 -1      1470 1.41900E+02 4.87010E+01 0.00000E+00
 -1      1471 1.43400E+02 4.87010E+01 0.00000E+00
 -1      1472 1.41150E+02 4.74020E+01 0.00000E+00
 -1      1473 1.44900E+02 4.87010E+01 0.00000E+00
 -1      1474 1.46400E+02 4.87010E+01 0.00000E+00
 -1      1475 1.44150E+02 4.74020E+01 0.00000E+00
 -1      1476 1.48575E+02 4.85500E+01 0.00000E+00
 -1      1477 1.47825E+02 4.72510E+01 0.00000E+00
 -1      1478 6.01200E+00 1.09375E+00 0.00000E+00
 -1      1479 4.51200E+00 1.09375E+00 0.00000E+00
 -1      1480 4.37400E+00 2.18750E+00 0.00000E+00
 -1      1481 9.01200E+00 1.09375E+00 0.00000E+00
 -1      1482 7.51200E+00 1.09375E+00 0.00000E+00
 -1      1483 7.37400E+00 2.18750E+00 0.00000E+00
 -1      1484 1.20120E+01 1.09375E+00 0.00000E+00
 -1      1485 1.05120E+01 1.09375E+00 0.00000E+00
 -1      1486 1.03740E+01 2.18750E+00 0.00000E+00
 -1      1487 1.50120E+01 1.09375E+00 0.00000E+00
 -1      1488 1.35120E+01 1.09375E+00 0.00000E+00
 -1      1489 1.33740E+01 2.18750E+00 0.00000E+00
 -1      1490 1.80120E+01 1.09375E+00 0.00000E+00
 -1      1491 1.65120E+01 1.09375E+00 0.00000E+00
 -1      1492 1.63740E+01 2.18750E+00 0.00000E+00
 -1      1493 2.10120E+01 1.09375E+00 0.00000E+00
 -1      1494 1.95120E+01 1.09375E+00 0.00000E+00
 -1      1495 1.93740E+01 2.18750E+00 0.00000E+00
 -1      1496 2.40120E+01 1.09375E+00 0.00000E+00
 -1      1497 2.25120E+01 1.09375E+00 0.00000E+00
 -1      1498 2.23740E+01 2.18750E+00 0.00000E+00
 -1      1499 2.70120E+01 1.09375E+00 0.00000E+00
 -1      1500 2.55120E+01 1.09375E+00 0.00000E+00
 -1      1501 2.53740E+01 2.18750E+00 0.00000E+00
 -1      1502 3.00120E+01 1.09375E+00 0.00000E+00
 -1      1503 2.85120E+01 1.09375E+00 0.00000E+00
 -1      1504 2.83740E+01 2.18750E+00 0.00000E+00
 -1      1505 3.30120E+01 1.09375E+00 0.00000E+00
 -1      1506 3.15120E+01 1.09375E+00 0.00000E+00
 -1      1507 3.13740E+01 2.18750E+00 0.00000E+00
 -1      1508 3.60120E+01 1.09375E+00 0.00000E+00
 -1      1509 3.45120E+01 1.09375E+00 0.00000E+00
 -1      1510 3.43740E+01 2.18750E+00 0.00000E+00
 -1      1511 3.90120E+01 1.09375E+00 0.00000E+00
 -1      1512 3.75120E+01 1.09375E+00 0.00000E+00
 -1      1513 3.73740E+01 2.18750E+00 0.00000E+00
 -1      1514 4.20120E+01 1.09375E+00 0.00000E+00
 -1      1515 4.05120E+01 1.09375E+00 0.00000E+00
 -1      1516 4.03740E+01 2.18750E+00 0.00000E+00
 -1      1517 4.50120E+01 1.09375E+00 0.00000E+00
 -1      1518 4.35120E+01 1.09375E+00 0.00000E+00
 -1      1519 4.33740E+01 2.18750E+00 0.00000E+00
 -1      1520 4.80120E+01 1.09375E+00 0.00000E+00
 -1      1521 4.65120E+01 1.09375E+00 0.00000E+00
 -1      1522 4.63740E+01 2.18750E+00 0.00000E+00
 -1      1523 5.10120E+01 1.09375E+00 0.00000E+00
 -1      1524 4.95120E+01 1.09375E+00 0.00000E+00
 -1      1525 4.93740E+01 2.18750E+00 0.00000E+00
 -1      1526 5.40120E+01 1.09375E+00 0.00000E+00
 -1      1527 5.25120E+01 1.09375E+00 0.00000E+00
 -1      1528 5.23740E+01 2.18750E+00 0.00000E+00
 -1      1529 5.70120E+01 1.09375E+00 0.00000E+00
 -1      1530 5.55120E+01 1.09375E+00 0.00000E+00
 -1      1531 5.53740E+01 2.18750E+00 0.00000E+00
 -1      1532 6.00120E+01 1.09375E+00 0.00000E+00
 -1      1533 5.85120E+01 1.09375E+00 0.00000E+00
 -1      1534 5.83740E+01 2.18750E+00 0.00000E+00
 -1      1535 6.30120E+01 1.09375E+00 0.00000E+00
 -1      1536 6.15120E+01 1.09375E+00 0.00000E+00
 -1      1537 6.13740E+01 2.18750E+00 0.00000E+00
 -1      1538 6.60120E+01 1.09375E+00 0.00000E+00
 -1      1539 6.45120E+01 1.09375E+00 0.00000E+00
 -1      1540 6.43740E+01 2.18750E+00 0.00000E+00
 -1      1541 6.90120E+01 1.09375E+00 0.00000E+00
 -1      1542 6.75120E+01 1.09375E+00 0.00000E+00
 -1      1543 6.73740E+01 2.18750E+00 0.00000E+00
 -1      1544 7.20120E+01 1.09375E+00 0.00000E+00
 -1      1545 7.05120E+01 1.09375E+00 0.00000E+00
 -1      1546 7.03740E+01 2.18750E+00 0.00000E+00
 -1      1547 7.50120E+01 1.09375E+00 0.00000E+00
 -1      1548 7.35120E+01 1.09375E+00 0.00000E+00
 -1      1549 7.33740E+01 2.18750E+00 0.00000E+00
 -1      1550 7.80120E+01 1.09375E+00 0.00000E+00
 -1      1551 7.65120E+01 1.09375E+00 0.00000E+00
 -1      1552 7.63740E+01 2.18750E+00 0.00000E+00
 -1      1553 8.10120E+01 1.09375E+00 0.00000E+00
 -1      1554 7.95120E+01 1.09375E+00 0.00000E+00
 -1      1555 7.93740E+01 2.18750E+00 0.00000E+00
 -1      1556 8.40120E+01 1.09375E+00 0.00000E+00
 -1      1557 8.25120E+01 1.09375E+00 0.00000E+00
 -1      1558 8.23740E+01 2.18750E+00 0.00000E+00
 -1      1559 8.70120E+01 1.09375E+00 0.00000E+00
 -1      1560 8.55120E+01 1.09375E+00 0.00000E+00
 -1      1561 8.53740E+01 2.18750E+00 0.00000E+00
 -1      1562 9.00120E+01 1.09375E+00 0.00000E+00
 -1      1563 8.85120E+01 1.09375E+00 0.00000E+00
 -1      1564 8.83740E+01 2.18750E+00 0.00000E+00
 -1      1565 9.30120E+01 1.09375E+00 0.00000E+00
 -1      1566 9.15120E+01 1.09375E+00 0.00000E+00
 -1      1567 9.13740E+01 2.18750E+00 0.00000E+00
 -1      1568 9.60120E+01 1.09375E+00 0.00000E+00
 -1      1569 9.45120E+01 1.09375E+00 0.00000E+00
 -1      1570 9.43740E+01 2.18750E+00 0.00000E+00
 -1      1571 9.90120E+01 1.09375E+00 0.00000E+00
 -1      1572 9.75120E+01 1.09375E+00 0.00000E+00
 -1      1573 9.73740E+01 2.18750E+00 0.00000E+00
 -1      1574 1.02012E+02 1.09375E+00 0.00000E+00
 -1      1575 1.00512E+02 1.09375E+00 0.00000E+00
 -1      1576 1.00374E+02 2.18750E+00 0.00000E+00
 -1      1577 1.05012E+02 1.09375E+00 0.00000E+00
 -1      1578 1.03512E+02 1.09375E+00 0.00000E+00
 -1      1579 1.03374E+02 2.18750E+00 0.00000E+00
 -1      1580 1.08012E+02 1.09375E+00 0.00000E+00
 -1      1581 1.06512E+02 1.09375E+00 0.00000E+00
 -1      1582 1.06374E+02 2.18750E+00 0.00000E+00
 -1      1583 1.11012E+02 1.09375E+00 0.00000E+00
 -1      1584 1.09512E+02 1.09375E+00 0.00000E+00
 -1      1585 1.09374E+02 2.18750E+00 0.00000E+00
 -1      1586 1.14012E+02 1.09375E+00 0.00000E+00
 -1      1587 1.12512E+02 1.09375E+00 0.00000E+00
 -1      1588 1.12374E+02 2.18750E+00 0.00000E+00
 -1      1589 1.17012E+02 1.09375E+00 0.00000E+00
 -1      1590 1.15512E+02 1.09375E+00 0.00000E+00
 -1      1591 1.15374E+02 2.18750E+00 0.00000E+00
 -1      1592 1.20012E+02 1.09375E+00 0.00000E+00
 -1      1593 1.18512E+02 1.09375E+00 0.00000E+00
 -1      1594 1.18374E+02 2.18750E+00 0.00000E+00
 -1      1595 1.23012E+02 1.09375E+00 0.00000E+00
 -1      1596 1.21512E+02 1.09375E+00 0.00000E+00
 -1      1597 1.21374E+02 2.18750E+00 0.00000E+00
 -1      1598 1.26012E+02 1.09375E+00 0.00000E+00
 -1      1599 1.24512E+02 1.09375E+00 0.00000E+00
 -1      1600 1.24374E+02 2.18750E+00 0.00000E+00
 -1      1601 1.29012E+02 1.09375E+00 0.00000E+00
 -1      1602 1.27512E+02 1.09375E+00 0.00000E+00
 -1      1603 1.27374E+02 2.18750E+00 0.00000E+00
 -1      1604 1.32012E+02 1.09375E+00 0.00000E+00
 -1      1605 1.30512E+02 1.09375E+00 0.00000E+00
 -1      1606 1.30374E+02 2.18750E+00 0.00000E+00
 -1      1607 1.35012E+02 1.09375E+00 0.00000E+00
 -1      1608 1.33512E+02 1.09375E+00 0.00000E+00
 -1      1609 1.33374E+02 2.18750E+00 0.00000E+00
 -1      1610 1.38012E+02 1.09375E+00 0.00000E+00
 -1      1611 1.36512E+02 1.09375E+00 0.00000E+00
 -1      1612 1.36374E+02 2.18750E+00 0.00000E+00
 -1      1613 1.41012E+02 1.09375E+00 0.00000E+00
 -1      1614 1.39512E+02 1.09375E+00 0.00000E+00
 -1      1615 1.39374E+02 2.18750E+00 0.00000E+00
 -1      1616 1.44012E+02 1.09375E+00 0.00000E+00
 -1      1617 1.42512E+02 1.09375E+00 0.00000E+00
 -1      1618 1.42374E+02 2.18750E+00 0.00000E+00
 -1      1619 1.47012E+02 1.09375E+00 0.00000E+00
 -1      1620 1.45512E+02 1.09375E+00 0.00000E+00
 -1      1621 1.45374E+02 2.18750E+00 0.00000E+00
 -1      1622 1.48575E+02 1.47500E+00 0.00000E+00
 -1      1623 1.48701E+02 5.16250E+00 0.00000E+00
 -1      1624 1.48701E+02 3.68750E+00 0.00000E+00
 -1      1625 1.48701E+02 8.11250E+00 0.00000E+00
 -1      1626 1.48701E+02 6.63750E+00 0.00000E+00
 -1      1627 1.47402E+02 5.90000E+00 0.00000E+00
 -1      1628 1.48701E+02 1.10625E+01 0.00000E+00
 -1      1629 1.48701E+02 9.58750E+00 0.00000E+00
 -1      1630 1.47402E+02 8.85000E+00 0.00000E+00
 -1      1631 1.48701E+02 1.40125E+01 0.00000E+00
 -1      1632 1.48701E+02 1.25375E+01 0.00000E+00
 -1      1633 1.47402E+02 1.18000E+01 0.00000E+00
 -1      1634 1.48701E+02 1.69125E+01 0.00000E+00
 -1      1635 1.48701E+02 1.54625E+01 0.00000E+00
 -1      1636 1.47402E+02 1.47250E+01 0.00000E+00
 -1      1637 1.48701E+02 1.98625E+01 0.00000E+00
 -1      1638 1.48701E+02 1.83875E+01 0.00000E+00
 -1      1639 1.47402E+02 1.76500E+01 0.00000E+00
 -1      1640 1.48701E+02 2.28125E+01 0.00000E+00
 -1      1641 1.48701E+02 2.13375E+01 0.00000E+00
 -1      1642 1.47402E+02 2.06000E+01 0.00000E+00
 -1      1643 1.48701E+02 2.57625E+01 0.00000E+00
 -1      1644 1.48701E+02 2.42875E+01 0.00000E+00
 -1      1645 1.47402E+02 2.35500E+01 0.00000E+00
 -1      1646 1.48701E+02 2.87125E+01 0.00000E+00
 -1      1647 1.48701E+02 2.72375E+01 0.00000E+00
 -1      1648 1.47402E+02 2.65000E+01 0.00000E+00
 -1      1649 1.48701E+02 3.16625E+01 0.00000E+00
 -1      1650 1.48701E+02 3.01875E+01 0.00000E+00
 -1      1651 1.47402E+02 2.94500E+01 0.00000E+00
 -1      1652 1.48701E+02 3.45625E+01 0.00000E+00
 -1      1653 1.48701E+02 3.31125E+01 0.00000E+00
 -1      1654 1.47402E+02 3.23750E+01 0.00000E+00
 -1      1655 1.48701E+02 3.75125E+01 0.00000E+00
 -1      1656 1.48701E+02 3.60375E+01 0.00000E+00
 -1      1657 1.47402E+02 3.53000E+01 0.00000E+00
 -1      1658 1.48701E+02 4.04625E+01 0.00000E+00
 -1      1659 1.48701E+02 3.89875E+01 0.00000E+00
 -1      1660 1.47402E+02 3.82500E+01 0.00000E+00
 -1      1661 1.48701E+02 4.34125E+01 0.00000E+00
 -1      1662 1.48701E+02 4.19375E+01 0.00000E+00
 -1      1663 1.47402E+02 4.12000E+01 0.00000E+00
 -1      1664 1.48263E+02 4.60692E+01 0.00000E+00
 -1      1665 1.48263E+02 4.45942E+01 0.00000E+00
 -1      1666 1.46964E+02 4.38568E+01 0.00000E+00
 -1      1667 1.46088E+02 4.62202E+01 0.00000E+00
 -1      1668 1.32151E+02 2.26128E+01 0.00000E+00
 -1      1669 1.32229E+02 2.33489E+01 0.00000E+00
 -1      1670 1.31816E+02 2.09345E+01 0.00000E+00
 -1      1671 1.32073E+02 2.16941E+01 0.00000E+00
 -1      1672 1.30973E+02 1.95789E+01 0.00000E+00
 -1      1673 1.31334E+02 2.01777E+01 0.00000E+00
 -1      1674 1.29983E+02 1.83825E+01 0.00000E+00
 -1      1675 1.30474E+02 1.89147E+01 0.00000E+00
 -1      1676 1.28726E+02 1.71955E+01 0.00000E+00
 -1      1677 1.29397E+02 1.76592E+01 0.00000E+00
 -1      1678 1.27113E+02 1.64401E+01 0.00000E+00
 -1      1679 1.27860E+02 1.67331E+01 0.00000E+00
 -1      1680 1.25478E+02 1.62473E+01 0.00000E+00
 -1      1681 1.26193E+02 1.63592E+01 0.00000E+00
 -1      1682 1.23834E+02 1.62113E+01 0.00000E+00
 -1      1683 1.24604E+02 1.61660E+01 0.00000E+00
 -1      1684 1.22098E+02 1.65275E+01 0.00000E+00
 -1      1685 1.22886E+02 1.62951E+01 0.00000E+00
 -1      1686 1.20590E+02 1.73481E+01 0.00000E+00
 -1      1687 1.21258E+02 1.69703E+01 0.00000E+00
 -1      1688 1.19210E+02 1.84137E+01 0.00000E+00
 -1      1689 1.19809E+02 1.78659E+01 0.00000E+00
 -1      1690 1.18266E+02 1.97225E+01 0.00000E+00
 -1      1691 1.18675E+02 1.91399E+01 0.00000E+00
 -1      1692 1.17550E+02 2.11860E+01 0.00000E+00
 -1      1693 1.17849E+02 2.04792E+01 0.00000E+00
 -1      1694 1.17159E+02 2.27623E+01 0.00000E+00
 -1      1695 1.17295E+02 2.20306E+01 0.00000E+00
 -1      1696 1.17103E+02 2.42945E+01 0.00000E+00
 -1      1697 1.17088E+02 2.35998E+01 0.00000E+00
 -1      1698 1.17332E+02 2.58452E+01 0.00000E+00
 -1      1699 1.17168E+02 2.51311E+01 0.00000E+00
 -1      1700 1.17969E+02 2.73231E+01 0.00000E+00
 -1      1701 1.17654E+02 2.66502E+01 0.00000E+00
 -1      1702 1.18799E+02 2.88268E+01 0.00000E+00
 -1      1703 1.18309E+02 2.81931E+01 0.00000E+00
 -1      1704 1.20187E+02 3.00843E+01 0.00000E+00
 -1      1705 1.19511E+02 2.95446E+01 0.00000E+00
 -1      1706 1.21792E+02 3.07884E+01 0.00000E+00
 -1      1707 1.21097E+02 3.04614E+01 0.00000E+00
 -1      1708 1.23401E+02 3.12477E+01 0.00000E+00
 -1      1709 1.22644E+02 3.10794E+01 0.00000E+00
 -1      1710 1.25070E+02 3.14273E+01 0.00000E+00
 -1      1711 1.24298E+02 3.14292E+01 0.00000E+00
 -1      1712 1.26642E+02 3.10963E+01 0.00000E+00
 -1      1713 1.25937E+02 3.12511E+01 0.00000E+00
 -1      1714 1.28144E+02 3.05583E+01 0.00000E+00
 -1      1715 1.27469E+02 3.08642E+01 0.00000E+00
 -1      1716 1.29422E+02 2.96819E+01 0.00000E+00
 -1      1717 1.28855E+02 3.00967E+01 0.00000E+00
 -1      1718 1.30527E+02 2.85832E+01 0.00000E+00
 -1      1719 1.30040E+02 2.91221E+01 0.00000E+00
 -1      1720 1.31441E+02 2.72624E+01 0.00000E+00
 -1      1721 1.31068E+02 2.79085E+01 0.00000E+00
 -1      1722 1.31970E+02 2.58028E+01 0.00000E+00
 -1      1723 1.31751E+02 2.64702E+01 0.00000E+00
 -1      1724 1.32269E+02 2.42257E+01 0.00000E+00
 -1      1725 1.32188E+02 2.49754E+01 0.00000E+00
 -1      1726 1.30088E+02 1.75143E+01 0.00000E+00
 -1      1727 1.31173E+02 1.89017E+01 0.00000E+00
 -1      1728 1.48437E+02 2.56875E+00 0.00000E+00
 -1      1729 1.47138E+02 3.30625E+00 0.00000E+00
 -1      1730 1.32715E+02 2.19980E+01 0.00000E+00
 -1      1731 1.32155E+02 2.03226E+01 0.00000E+00
 -1      1732 1.32833E+02 2.37935E+01 0.00000E+00
 -1      1733 1.28635E+02 1.63286E+01 0.00000E+00
 -1      1734 1.26849E+02 1.57853E+01 0.00000E+00
 -1      1735 1.25055E+02 1.56230E+01 0.00000E+00
 -1      1736 1.23233E+02 1.56255E+01 0.00000E+00
 -1      1737 1.21445E+02 1.61521E+01 0.00000E+00
 -1      1738 1.19824E+02 1.71127E+01 0.00000E+00
 -1      1739 1.18509E+02 1.83567E+01 0.00000E+00
 -1      1740 1.17558E+02 1.98396E+01 0.00000E+00
 -1      1741 1.16886E+02 2.14409E+01 0.00000E+00
 -1      1742 1.16560E+02 2.31230E+01 0.00000E+00
 -1      1743 1.16554E+02 2.47970E+01 0.00000E+00
 -1      1744 1.16940E+02 2.64385E+01 0.00000E+00
 -1      1745 1.17602E+02 2.81134E+01 0.00000E+00
 -1      1746 1.18654E+02 2.97013E+01 0.00000E+00
 -1      1747 1.20276E+02 3.07963E+01 0.00000E+00
 -1      1748 1.22039E+02 3.14643E+01 0.00000E+00
 -1      1749 1.23788E+02 3.19367E+01 0.00000E+00
 -1      1750 1.25553E+02 3.19420E+01 0.00000E+00
 -1      1751 1.27247E+02 3.15337E+01 0.00000E+00
 -1      1752 1.28785E+02 3.08400E+01 0.00000E+00
 -1      1753 1.30115E+02 2.98186E+01 0.00000E+00
 -1      1754 1.31274E+02 2.85842E+01 0.00000E+00
 -1      1755 1.32126E+02 2.71173E+01 0.00000E+00
 -1      1756 1.32655E+02 2.54977E+01 0.00000E+00
 -1      1757 2.87400E+00 4.77875E+01 0.00000E+00
 -1      1758 3.89700E+00 4.04125E+01 0.00000E+00
 -1      1759 3.89700E+00 4.18875E+01 0.00000E+00
 -1      1760 3.89700E+00 4.33625E+01 0.00000E+00
 -1      1761 3.89700E+00 4.48375E+01 0.00000E+00
 -1      1762 5.19600E+00 4.26250E+01 0.00000E+00
 -1      1763 3.89700E+00 3.45500E+01 0.00000E+00
 -1      1764 3.89700E+00 3.60000E+01 0.00000E+00
 -1      1765 3.89700E+00 3.16000E+01 0.00000E+00
 -1      1766 3.89700E+00 3.30750E+01 0.00000E+00
 -1      1767 5.19600E+00 3.38000E+01 0.00000E+00
 -1      1768 3.89700E+00 2.86500E+01 0.00000E+00
 -1      1769 3.89700E+00 3.01250E+01 0.00000E+00
 -1      1770 5.19600E+00 3.08500E+01 0.00000E+00
 -1      1771 3.89700E+00 2.57000E+01 0.00000E+00
 -1      1772 3.89700E+00 2.71750E+01 0.00000E+00
 -1      1773 5.19600E+00 2.79000E+01 0.00000E+00
 -1      1774 3.89700E+00 2.27500E+01 0.00000E+00
 -1      1775 3.89700E+00 2.42250E+01 0.00000E+00
 -1      1776 5.19600E+00 2.49500E+01 0.00000E+00
 -1      1777 3.89700E+00 1.98000E+01 0.00000E+00
 -1      1778 3.89700E+00 2.12750E+01 0.00000E+00
 -1      1779 5.19600E+00 2.20000E+01 0.00000E+00
 -1      1780 3.89700E+00 1.69000E+01 0.00000E+00
 -1      1781 3.89700E+00 1.83500E+01 0.00000E+00
 -1      1782 5.19600E+00 1.90750E+01 0.00000E+00
 -1      1783 3.89700E+00 1.39500E+01 0.00000E+00
 -1      1784 3.89700E+00 1.54250E+01 0.00000E+00
 -1      1785 5.19600E+00 1.61500E+01 0.00000E+00
 -1      1786 3.89700E+00 1.10000E+01 0.00000E+00
 -1      1787 3.89700E+00 1.24750E+01 0.00000E+00
 -1      1788 5.19600E+00 1.32000E+01 0.00000E+00
 -1      1789 3.89700E+00 8.05000E+00 0.00000E+00
 -1      1790 3.89700E+00 9.52500E+00 0.00000E+00
 -1      1791 5.19600E+00 1.02500E+01 0.00000E+00
 -1      1792 3.89700E+00 5.10000E+00 0.00000E+00
 -1      1793 3.89700E+00 6.57500E+00 0.00000E+00
 -1      1794 5.19600E+00 7.30000E+00 0.00000E+00
 -1      1795 4.20450E+00 3.09687E+00 0.00000E+00
 -1      1796 4.06650E+00 4.19063E+00 0.00000E+00
 -1      1797 5.36550E+00 4.91563E+00 0.00000E+00
 -1      1798 5.70450E+00 3.09687E+00 0.00000E+00
 -1      1799 3.62400E+00 4.64885E+01 0.00000E+00
 -1      1800 8.70450E+00 3.09687E+00 0.00000E+00
 -1      1801 7.20450E+00 3.09687E+00 0.00000E+00
 -1      1802 7.03500E+00 4.00625E+00 0.00000E+00
 -1      1803 4.92300E+00 4.57510E+01 0.00000E+00
 -1      1804 8.40000E+00 4.61030E+01 0.00000E+00
 -1      1805 9.90000E+00 4.61030E+01 0.00000E+00
 -1      1806 1.14000E+01 4.61030E+01 0.00000E+00
 -1      1807 1.29000E+01 4.61030E+01 0.00000E+00
 -1      1808 1.06500E+01 4.48040E+01 0.00000E+00
 -1      1809 1.44000E+01 4.61030E+01 0.00000E+00
 -1      1810 1.59000E+01 4.61030E+01 0.00000E+00
 -1      1811 1.36500E+01 4.48040E+01 0.00000E+00
 -1      1812 1.74000E+01 4.61030E+01 0.00000E+00
 -1      1813 1.89000E+01 4.61030E+01 0.00000E+00
 -1      1814 1.66500E+01 4.48040E+01 0.00000E+00
 -1      1815 2.04000E+01 4.61030E+01 0.00000E+00
 -1      1816 2.19000E+01 4.61030E+01 0.00000E+00
 -1      1817 1.96500E+01 4.48040E+01 0.00000E+00
 -1      1818 2.34000E+01 4.61030E+01 0.00000E+00
 -1      1819 2.49000E+01 4.61030E+01 0.00000E+00
 -1      1820 2.26500E+01 4.48040E+01 0.00000E+00
 -1      1821 2.64000E+01 4.61030E+01 0.00000E+00
 -1      1822 2.79000E+01 4.61030E+01 0.00000E+00
 -1      1823 2.56500E+01 4.48040E+01 0.00000E+00
 -1      1824 2.94000E+01 4.61030E+01 0.00000E+00
 -1      1825 3.09000E+01 4.61030E+01 0.00000E+00
 -1      1826 2.86500E+01 4.48040E+01 0.00000E+00
 -1      1827 3.24000E+01 4.61030E+01 0.00000E+00
 -1      1828 3.39000E+01 4.61030E+01 0.00000E+00
 -1      1829 3.16500E+01 4.48040E+01 0.00000E+00
 -1      1830 3.54000E+01 4.61030E+01 0.00000E+00
 -1      1831 3.69000E+01 4.61030E+01 0.00000E+00
 -1      1832 3.46500E+01 4.48040E+01 0.00000E+00
 -1      1833 3.84000E+01 4.61030E+01 0.00000E+00
 -1      1834 3.99000E+01 4.61030E+01 0.00000E+00
 -1      1835 3.76500E+01 4.48040E+01 0.00000E+00
 -1      1836 4.14000E+01 4.61030E+01 0.00000E+00
 -1      1837 4.29000E+01 4.61030E+01 0.00000E+00
 -1      1838 4.06500E+01 4.48040E+01 0.00000E+00
 -1      1839 4.44000E+01 4.61030E+01 0.00000E+00
 -1      1840 4.59000E+01 4.61030E+01 0.00000E+00
 -1      1841 4.36500E+01 4.48040E+01 0.00000E+00
 -1      1842 4.74000E+01 4.61030E+01 0.00000E+00
 -1      1843 4.89000E+01 4.61030E+01 0.00000E+00
 -1      1844 4.66500E+01 4.48040E+01 0.00000E+00
 -1      1845 5.04000E+01 4.61030E+01 0.00000E+00
 -1      1846 5.19000E+01 4.61030E+01 0.00000E+00
 -1      1847 4.96500E+01 4.48040E+01 0.00000E+00
 -1      1848 5.34000E+01 4.61030E+01 0.00000E+00
 -1      1849 5.49000E+01 4.61030E+01 0.00000E+00
 -1      1850 5.26500E+01 4.48040E+01 0.00000E+00
 -1      1851 5.64000E+01 4.61030E+01 0.00000E+00
 -1      1852 5.79000E+01 4.61030E+01 0.00000E+00
 -1      1853 5.56500E+01 4.48040E+01 0.00000E+00
 -1      1854 5.94000E+01 4.61030E+01 0.00000E+00
 -1      1855 6.09000E+01 4.61030E+01 0.00000E+00
 -1      1856 5.86500E+01 4.48040E+01 0.00000E+00
 -1      1857 6.24000E+01 4.61030E+01 0.00000E+00
 -1      1858 6.39000E+01 4.61030E+01 0.00000E+00
 -1      1859 6.16500E+01 4.48040E+01 0.00000E+00
 -1      1860 6.54000E+01 4.61030E+01 0.00000E+00
 -1      1861 6.69000E+01 4.61030E+01 0.00000E+00
 -1      1862 6.46500E+01 4.48040E+01 0.00000E+00
 -1      1863 6.84000E+01 4.61030E+01 0.00000E+00
 -1      1864 6.99000E+01 4.61030E+01 0.00000E+00
 -1      1865 6.76500E+01 4.48040E+01 0.00000E+00
 -1      1866 7.14000E+01 4.61030E+01 0.00000E+00
 -1      1867 7.29000E+01 4.61030E+01 0.00000E+00
 -1      1868 7.06500E+01 4.48040E+01 0.00000E+00
 -1      1869 7.44000E+01 4.61030E+01 0.00000E+00
 -1      1870 7.59000E+01 4.61030E+01 0.00000E+00
 -1      1871 7.36500E+01 4.48040E+01 0.00000E+00
 -1      1872 7.74000E+01 4.61030E+01 0.00000E+00
 -1      1873 7.89000E+01 4.61030E+01 0.00000E+00
 -1      1874 7.66500E+01 4.48040E+01 0.00000E+00
 -1      1875 8.04000E+01 4.61030E+01 0.00000E+00
 -1      1876 8.19000E+01 4.61030E+01 0.00000E+00
 -1      1877 7.96500E+01 4.48040E+01 0.00000E+00
 -1      1878 8.34000E+01 4.61030E+01 0.00000E+00
 -1      1879 8.49000E+01 4.61030E+01 0.00000E+00
 -1      1880 8.26500E+01 4.48040E+01 0.00000E+00
 -1      1881 8.64000E+01 4.61030E+01 0.00000E+00
 -1      1882 8.79000E+01 4.61030E+01 0.00000E+00
 -1      1883 8.56500E+01 4.48040E+01 0.00000E+00
 -1      1884 8.94000E+01 4.61030E+01 0.00000E+00
 -1      1885 9.09000E+01 4.61030E+01 0.00000E+00
 -1      1886 8.86500E+01 4.48040E+01 0.00000E+00
 -1      1887 9.24000E+01 4.61030E+01 0.00000E+00
 -1      1888 9.39000E+01 4.61030E+01 0.00000E+00
 -1      1889 9.16500E+01 4.48040E+01 0.00000E+00
 -1      1890 9.54000E+01 4.61030E+01 0.00000E+00
 -1      1891 9.69000E+01 4.61030E+01 0.00000E+00
 -1      1892 9.46500E+01 4.48040E+01 0.00000E+00
 -1      1893 9.84000E+01 4.61030E+01 0.00000E+00
 -1      1894 9.99000E+01 4.61030E+01 0.00000E+00
 -1      1895 9.76500E+01 4.48040E+01 0.00000E+00
 -1      1896 1.01400E+02 4.61030E+01 0.00000E+00
 -1      1897 1.02900E+02 4.61030E+01 0.00000E+00
 -1      1898 1.00650E+02 4.48040E+01 0.00000E+00
 -1      1899 1.04400E+02 4.61030E+01 0.00000E+00
 -1      1900 1.05900E+02 4.61030E+01 0.00000E+00
 -1      1901 1.03650E+02 4.48040E+01 0.00000E+00
 -1      1902 1.07400E+02 4.61030E+01 0.00000E+00
 -1      1903 1.08900E+02 4.61030E+01 0.00000E+00
 -1      1904 1.06650E+02 4.48040E+01 0.00000E+00
 -1      1905 1.10400E+02 4.61030E+01 0.00000E+00
 -1      1906 1.11900E+02 4.61030E+01 0.00000E+00
 -1      1907 1.09650E+02 4.48040E+01 0.00000E+00
 -1      1908 1.13400E+02 4.61030E+01 0.00000E+00
 -1      1909 1.14900E+02 4.61030E+01 0.00000E+00
 -1      1910 1.12650E+02 4.48040E+01 0.00000E+00
 -1      1911 1.16400E+02 4.61030E+01 0.00000E+00
 -1      1912 1.17900E+02 4.61030E+01 0.00000E+00
 -1      1913 1.15650E+02 4.48040E+01 0.00000E+00
 -1      1914 1.19400E+02 4.61030E+01 0.00000E+00
 -1      1915 1.20900E+02 4.61030E+01 0.00000E+00
 -1      1916 1.18650E+02 4.48040E+01 0.00000E+00
 -1      1917 1.22400E+02 4.61030E+01 0.00000E+00
 -1      1918 1.23900E+02 4.61030E+01 0.00000E+00
 -1      1919 1.21650E+02 4.48040E+01 0.00000E+00
 -1      1920 1.25400E+02 4.61030E+01 0.00000E+00
 -1      1921 1.26900E+02 4.61030E+01 0.00000E+00
 -1      1922 1.24650E+02 4.48040E+01 0.00000E+00
 -1      1923 1.28400E+02 4.61030E+01 0.00000E+00
 -1      1924 1.29900E+02 4.61030E+01 0.00000E+00
 -1      1925 1.27650E+02 4.48040E+01 0.00000E+00
 -1      1926 1.31400E+02 4.61030E+01 0.00000E+00
 -1      1927 1.32900E+02 4.61030E+01 0.00000E+00
 -1      1928 1.30650E+02 4.48040E+01 0.00000E+00
 -1      1929 1.34400E+02 4.61030E+01 0.00000E+00
 -1      1930 1.35900E+02 4.61030E+01 0.00000E+00
 -1      1931 1.33650E+02 4.48040E+01 0.00000E+00
 -1      1932 1.37400E+02 4.61030E+01 0.00000E+00
 -1      1933 1.38900E+02 4.61030E+01 0.00000E+00
 -1      1934 1.36650E+02 4.48040E+01 0.00000E+00
 -1      1935 1.40400E+02 4.61030E+01 0.00000E+00
 -1      1936 1.41900E+02 4.61030E+01 0.00000E+00
 -1      1937 1.39650E+02 4.48040E+01 0.00000E+00
 -1      1938 1.43244E+02 4.61616E+01 0.00000E+00
 -1      1939 1.44744E+02 4.61616E+01 0.00000E+00
 -1      1940 1.45182E+02 4.49799E+01 0.00000E+00
 -1      1941 1.42494E+02 4.48626E+01 0.00000E+00
 -1      1942 1.17045E+01 3.09687E+00 0.00000E+00
 -1      1943 1.02045E+01 3.09687E+00 0.00000E+00
 -1      1944 1.00350E+01 4.00625E+00 0.00000E+00
 -1      1945 1.47045E+01 3.09687E+00 0.00000E+00
 -1      1946 1.32045E+01 3.09687E+00 0.00000E+00
 -1      1947 1.30350E+01 4.00625E+00 0.00000E+00
 -1      1948 1.77045E+01 3.09687E+00 0.00000E+00
 -1      1949 1.62045E+01 3.09687E+00 0.00000E+00
 -1      1950 1.60350E+01 4.00625E+00 0.00000E+00
 -1      1951 2.07045E+01 3.09687E+00 0.00000E+00
 -1      1952 1.92045E+01 3.09687E+00 0.00000E+00
 -1      1953 1.90350E+01 4.00625E+00 0.00000E+00
 -1      1954 2.37045E+01 3.09687E+00 0.00000E+00
 -1      1955 2.22045E+01 3.09687E+00 0.00000E+00
 -1      1956 2.20350E+01 4.00625E+00 0.00000E+00
 -1      1957 2.67045E+01 3.09687E+00 0.00000E+00
 -1      1958 2.52045E+01 3.09687E+00 0.00000E+00
 -1      1959 2.50350E+01 4.00625E+00 0.00000E+00
 -1      1960 2.97045E+01 3.09687E+00 0.00000E+00
 -1      1961 2.82045E+01 3.09687E+00 0.00000E+00
 -1      1962 2.80350E+01 4.00625E+00 0.00000E+00
 -1      1963 3.27045E+01 3.09687E+00 0.00000E+00
 -1      1964 3.12045E+01 3.09687E+00 0.00000E+00
 -1      1965 3.10350E+01 4.00625E+00 0.00000E+00
 -1      1966 3.57045E+01 3.09687E+00 0.00000E+00
 -1      1967 3.42045E+01 3.09687E+00 0.00000E+00
 -1      1968 3.40350E+01 4.00625E+00 0.00000E+00
 -1      1969 3.87045E+01 3.09687E+00 0.00000E+00
 -1      1970 3.72045E+01 3.09687E+00 0.00000E+00
 -1      1971 3.70350E+01 4.00625E+00 0.00000E+00
 -1      1972 4.17045E+01 3.09687E+00 0.00000E+00
 -1      1973 4.02045E+01 3.09687E+00 0.00000E+00
 -1      1974 4.00350E+01 4.00625E+00 0.00000E+00
 -1      1975 4.47045E+01 3.09687E+00 0.00000E+00
 -1      1976 4.32045E+01 3.09687E+00 0.00000E+00
 -1      1977 4.30350E+01 4.00625E+00 0.00000E+00
 -1      1978 4.77045E+01 3.09687E+00 0.00000E+00
 -1      1979 4.62045E+01 3.09687E+00 0.00000E+00
 -1      1980 4.60350E+01 4.00625E+00 0.00000E+00
 -1      1981 5.07045E+01 3.09687E+00 0.00000E+00
 -1      1982 4.92045E+01 3.09687E+00 0.00000E+00
 -1      1983 4.90350E+01 4.00625E+00 0.00000E+00
 -1      1984 5.37045E+01 3.09687E+00 0.00000E+00
 -1      1985 5.22045E+01 3.09687E+00 0.00000E+00
 -1      1986 5.20350E+01 4.00625E+00 0.00000E+00
 -1      1987 5.67045E+01 3.09687E+00 0.00000E+00
 -1      1988 5.52045E+01 3.09687E+00 0.00000E+00
 -1      1989 5.50350E+01 4.00625E+00 0.00000E+00
 -1      1990 5.97045E+01 3.09687E+00 0.00000E+00
 -1      1991 5.82045E+01 3.09687E+00 0.00000E+00
 -1      1992 5.80350E+01 4.00625E+00 0.00000E+00
 -1      1993 6.27045E+01 3.09687E+00 0.00000E+00
 -1      1994 6.12045E+01 3.09687E+00 0.00000E+00
 -1      1995 6.10350E+01 4.00625E+00 0.00000E+00
 -1      1996 6.57045E+01 3.09687E+00 0.00000E+00
 -1      1997 6.42045E+01 3.09687E+00 0.00000E+00
 -1      1998 6.40350E+01 4.00625E+00 0.00000E+00
 -1      1999 6.87045E+01 3.09687E+00 0.00000E+00
 -1      2000 6.72045E+01 3.09687E+00 0.00000E+00
 -1      2001 6.70350E+01 4.00625E+00 0.00000E+00
 -1      2002 7.17045E+01 3.09687E+00 0.00000E+00
 -1      2003 7.02045E+01 3.09687E+00 0.00000E+00
 -1      2004 7.00350E+01 4.00625E+00 0.00000E+00
 -1      2005 7.47045E+01 3.09687E+00 0.00000E+00
 -1      2006 7.32045E+01 3.09687E+00 0.00000E+00
 -1      2007 7.30350E+01 4.00625E+00 0.00000E+00
 -1      2008 7.77045E+01 3.09687E+00 0.00000E+00
 -1      2009 7.62045E+01 3.09687E+00 0.00000E+00
 -1      2010 7.60350E+01 4.00625E+00 0.00000E+00
 -1      2011 8.07045E+01 3.09687E+00 0.00000E+00
 -1      2012 7.92045E+01 3.09687E+00 0.00000E+00
 -1      2013 7.90350E+01 4.00625E+00 0.00000E+00
 -1      2014 8.37045E+01 3.09687E+00 0.00000E+00
 -1      2015 8.22045E+01 3.09687E+00 0.00000E+00
 -1      2016 8.20350E+01 4.00625E+00 0.00000E+00
 -1      2017 8.67045E+01 3.09687E+00 0.00000E+00
 -1      2018 8.52045E+01 3.09687E+00 0.00000E+00
 -1      2019 8.50350E+01 4.00625E+00 0.00000E+00
 -1      2020 8.97045E+01 3.09687E+00 0.00000E+00
 -1      2021 8.82045E+01 3.09687E+00 0.00000E+00
 -1      2022 8.80350E+01 4.00625E+00 0.00000E+00
 -1      2023 9.27045E+01 3.09687E+00 0.00000E+00
 -1      2024 9.12045E+01 3.09687E+00 0.00000E+00
 -1      2025 9.10350E+01 4.00625E+00 0.00000E+00
 -1      2026 9.57045E+01 3.09687E+00 0.00000E+00
 -1      2027 9.42045E+01 3.09687E+00 0.00000E+00
 -1      2028 9.40350E+01 4.00625E+00 0.00000E+00
 -1      2029 9.87045E+01 3.09687E+00 0.00000E+00
 -1      2030 9.72045E+01 3.09687E+00 0.00000E+00
 -1      2031 9.70350E+01 4.00625E+00 0.00000E+00
 -1      2032 1.01704E+02 3.09687E+00 0.00000E+00
 -1      2033 1.00204E+02 3.09687E+00 0.00000E+00
 -1      2034 1.00035E+02 4.00625E+00 0.00000E+00
 -1      2035 1.04704E+02 3.09687E+00 0.00000E+00
 -1      2036 1.03204E+02 3.09687E+00 0.00000E+00
 -1      2037 1.03035E+02 4.00625E+00 0.00000E+00
 -1      2038 1.07704E+02 3.09687E+00 0.00000E+00
 -1      2039 1.06204E+02 3.09687E+00 0.00000E+00
 -1      2040 1.06035E+02 4.00625E+00 0.00000E+00
 -1      2041 1.10704E+02 3.09687E+00 0.00000E+00
 -1      2042 1.09204E+02 3.09687E+00 0.00000E+00
 -1      2043 1.09035E+02 4.00625E+00 0.00000E+00
 -1      2044 1.13704E+02 3.09687E+00 0.00000E+00
 -1      2045 1.12204E+02 3.09687E+00 0.00000E+00
 -1      2046 1.12035E+02 4.00625E+00 0.00000E+00
 -1      2047 1.16704E+02 3.09687E+00 0.00000E+00
 -1      2048 1.15204E+02 3.09687E+00 0.00000E+00
 -1      2049 1.15035E+02 4.00625E+00 0.00000E+00
 -1      2050 1.19704E+02 3.09687E+00 0.00000E+00
 -1      2051 1.18204E+02 3.09687E+00 0.00000E+00
 -1      2052 1.18035E+02 4.00625E+00 0.00000E+00
 -1      2053 1.22704E+02 3.09687E+00 0.00000E+00
 -1      2054 1.21204E+02 3.09687E+00 0.00000E+00
 -1      2055 1.21035E+02 4.00625E+00 0.00000E+00
 -1      2056 1.25704E+02 3.09687E+00 0.00000E+00
 -1      2057 1.24204E+02 3.09687E+00 0.00000E+00
 -1      2058 1.24035E+02 4.00625E+00 0.00000E+00
 -1      2059 1.28704E+02 3.09687E+00 0.00000E+00
 -1      2060 1.27204E+02 3.09687E+00 0.00000E+00
 -1      2061 1.27035E+02 4.00625E+00 0.00000E+00
 -1      2062 1.31704E+02 3.09687E+00 0.00000E+00
 -1      2063 1.30204E+02 3.09687E+00 0.00000E+00
 -1      2064 1.30035E+02 4.00625E+00 0.00000E+00
 -1      2065 1.34704E+02 3.09687E+00 0.00000E+00
 -1      2066 1.33204E+02 3.09687E+00 0.00000E+00
 -1      2067 1.33035E+02 4.00625E+00 0.00000E+00
 -1      2068 1.37704E+02 3.09687E+00 0.00000E+00
 -1      2069 1.36204E+02 3.09687E+00 0.00000E+00
 -1      2070 1.36035E+02 4.00625E+00 0.00000E+00
 -1      2071 1.40704E+02 3.09687E+00 0.00000E+00
 -1      2072 1.39204E+02 3.09687E+00 0.00000E+00
 -1      2073 1.39035E+02 4.00625E+00 0.00000E+00
 -1      2074 1.43704E+02 3.09687E+00 0.00000E+00
 -1      2075 1.42204E+02 3.09687E+00 0.00000E+00
 -1      2076 1.42035E+02 4.00625E+00 0.00000E+00
 -1      2077 1.46171E+02 3.20156E+00 0.00000E+00
 -1      2078 1.44671E+02 3.20156E+00 0.00000E+00
 -1      2079 1.44502E+02 4.11094E+00 0.00000E+00
 -1      2080 1.46435E+02 4.32031E+00 0.00000E+00
 -1      2081 1.46103E+02 1.25375E+01 0.00000E+00
 -1      2082 1.46103E+02 1.10625E+01 0.00000E+00
 -1      2083 1.46103E+02 9.58750E+00 0.00000E+00
 -1      2084 1.46103E+02 8.11250E+00 0.00000E+00
 -1      2085 1.44804E+02 1.03250E+01 0.00000E+00
 -1      2086 1.46269E+02 6.95391E+00 0.00000E+00
 -1      2087 1.46269E+02 5.47891E+00 0.00000E+00
 -1      2088 1.45302E+02 5.37422E+00 0.00000E+00
 -1      2089 1.44970E+02 7.69141E+00 0.00000E+00
 -1      2090 1.46103E+02 1.54375E+01 0.00000E+00
 -1      2091 1.46103E+02 1.39875E+01 0.00000E+00
 -1      2092 1.44804E+02 1.32500E+01 0.00000E+00
 -1      2093 1.46103E+02 1.83875E+01 0.00000E+00
 -1      2094 1.46103E+02 1.69125E+01 0.00000E+00
 -1      2095 1.44804E+02 1.61750E+01 0.00000E+00
 -1      2096 1.46103E+02 2.13375E+01 0.00000E+00
 -1      2097 1.46103E+02 1.98625E+01 0.00000E+00
 -1      2098 1.44804E+02 1.91250E+01 0.00000E+00
 -1      2099 1.46103E+02 2.42875E+01 0.00000E+00
 -1      2100 1.46103E+02 2.28125E+01 0.00000E+00
 -1      2101 1.44804E+02 2.20750E+01 0.00000E+00
 -1      2102 1.46103E+02 2.72375E+01 0.00000E+00
 -1      2103 1.46103E+02 2.57625E+01 0.00000E+00
 -1      2104 1.44804E+02 2.50250E+01 0.00000E+00
 -1      2105 1.46103E+02 3.01875E+01 0.00000E+00
 -1      2106 1.46103E+02 2.87125E+01 0.00000E+00
 -1      2107 1.44804E+02 2.79750E+01 0.00000E+00
 -1      2108 1.46103E+02 3.30875E+01 0.00000E+00
 -1      2109 1.46103E+02 3.16375E+01 0.00000E+00
 -1      2110 1.44804E+02 3.09000E+01 0.00000E+00
 -1      2111 1.46103E+02 3.60375E+01 0.00000E+00
 -1      2112 1.46103E+02 3.45625E+01 0.00000E+00
 -1      2113 1.44804E+02 3.38250E+01 0.00000E+00
 -1      2114 1.46103E+02 3.89875E+01 0.00000E+00
 -1      2115 1.46103E+02 3.75125E+01 0.00000E+00
 -1      2116 1.44804E+02 3.67750E+01 0.00000E+00
 -1      2117 1.46103E+02 4.19375E+01 0.00000E+00
 -1      2118 1.46103E+02 4.04625E+01 0.00000E+00
 -1      2119 1.44804E+02 3.97250E+01 0.00000E+00
 -1      2120 1.32461E+02 1.95958E+01 0.00000E+00
 -1      2121 1.32943E+02 2.03526E+01 0.00000E+00
 -1      2122 1.33670E+02 2.33160E+01 0.00000E+00
 -1      2123 1.33710E+02 2.41929E+01 0.00000E+00
 -1      2124 1.33515E+02 2.14787E+01 0.00000E+00
 -1      2125 1.33592E+02 2.23973E+01 0.00000E+00
 -1      2126 1.34469E+02 2.27967E+01 0.00000E+00
 -1      2127 1.31542E+02 1.81045E+01 0.00000E+00
 -1      2128 1.32041E+02 1.87686E+01 0.00000E+00
 -1      2129 1.30370E+02 1.66580E+01 0.00000E+00
 -1      2130 1.30956E+02 1.73812E+01 0.00000E+00
 -1      2131 1.31824E+02 1.72481E+01 0.00000E+00
 -1      2132 3.89700E+00 3.74688E+01 0.00000E+00
 -1      2133 3.89700E+00 3.89437E+01 0.00000E+00
 -1      2134 5.19600E+00 3.96813E+01 0.00000E+00
 -1      2135 5.19600E+00 3.67438E+01 0.00000E+00
 -1      2136 1.26449E+02 1.50575E+01 0.00000E+00
 -1      2137 1.27369E+02 1.51384E+01 0.00000E+00
 -1      2138 1.24701E+02 1.48948E+01 0.00000E+00
 -1      2139 1.25575E+02 1.49761E+01 0.00000E+00
 -1      2140 1.26096E+02 1.43293E+01 0.00000E+00
 -1      2141 1.22687E+02 1.48549E+01 0.00000E+00
 -1      2142 1.23635E+02 1.47711E+01 0.00000E+00
 -1      2143 1.20723E+02 1.58002E+01 0.00000E+00
 -1      2144 1.21563E+02 1.53574E+01 0.00000E+00
 -1      2145 1.19053E+02 1.67966E+01 0.00000E+00
 -1      2146 1.19833E+02 1.62788E+01 0.00000E+00
 -1      2147 1.17618E+02 1.82609E+01 0.00000E+00
 -1      2148 1.18153E+02 1.75347E+01 0.00000E+00
 -1      2149 1.16782E+02 1.99056E+01 0.00000E+00
 -1      2150 1.17198E+02 1.91489E+01 0.00000E+00
 -1      2151 1.16098E+02 2.16635E+01 0.00000E+00
 -1      2152 1.16353E+02 2.08189E+01 0.00000E+00
 -1      2153 1.15879E+02 2.34873E+01 0.00000E+00
 -1      2154 1.15950E+02 2.26498E+01 0.00000E+00
 -1      2155 1.15856E+02 2.52714E+01 0.00000E+00
 -1      2156 1.15792E+02 2.44348E+01 0.00000E+00
 -1      2157 1.16344E+02 2.71439E+01 0.00000E+00
 -1      2158 1.16022E+02 2.63390E+01 0.00000E+00
 -1      2159 1.17023E+02 2.88839E+01 0.00000E+00
 -1      2160 1.16684E+02 2.80139E+01 0.00000E+00
 -1      2161 1.15765E+02 2.79144E+01 0.00000E+00
 -1      2162 1.18461E+02 3.06053E+01 0.00000E+00
 -1      2163 1.17749E+02 2.98874E+01 0.00000E+00
 -1      2164 1.20467E+02 3.16223E+01 0.00000E+00
 -1      2165 1.19557E+02 3.12452E+01 0.00000E+00
 -1      2166 1.22255E+02 3.22231E+01 0.00000E+00
 -1      2167 1.21403E+02 3.19322E+01 0.00000E+00
 -1      2168 1.24067E+02 3.28680E+01 0.00000E+00
 -1      2169 1.23169E+02 3.26865E+01 0.00000E+00
 -1      2170 1.26148E+02 3.26532E+01 0.00000E+00
 -1      2171 1.25282E+02 3.28294E+01 0.00000E+00
 -1      2172 1.27803E+02 3.21889E+01 0.00000E+00
 -1      2173 1.26976E+02 3.24211E+01 0.00000E+00
 -1      2174 1.26705E+02 3.33085E+01 0.00000E+00
 -1      2175 1.29517E+02 3.11880E+01 0.00000E+00
 -1      2176 1.28805E+02 3.16496E+01 0.00000E+00
 -1      2177 1.30859E+02 3.00192E+01 0.00000E+00
 -1      2178 1.30241E+02 3.05790E+01 0.00000E+00
 -1      2179 1.32116E+02 2.87048E+01 0.00000E+00
 -1      2180 1.31575E+02 2.93794E+01 0.00000E+00
 -1      2181 1.33041E+02 2.70190E+01 0.00000E+00
 -1      2182 1.32730E+02 2.78112E+01 0.00000E+00
 -1      2183 1.33391E+02 2.52493E+01 0.00000E+00
 -1      2184 1.33173E+02 2.60766E+01 0.00000E+00
 -1      2185 1.28606E+02 1.53409E+01 0.00000E+00
 -1      2186 1.29472E+02 1.58033E+01 0.00000E+00
 -1      2187 1.30340E+02 1.56702E+01 0.00000E+00
 -1      2188 6.42300E+00 4.57510E+01 0.00000E+00
 -1      2189 1.19951E+02 1.54841E+01 0.00000E+00
 -1      2190 1.28206E+02 1.46131E+01 0.00000E+00
 -1      2191 7.17300E+00 4.44520E+01 0.00000E+00
 -1      2192 1.33820E+02 2.07519E+01 0.00000E+00
 -1      2193 1.34697E+02 2.11512E+01 0.00000E+00
 -1      2194 1.34125E+02 2.00251E+01 0.00000E+00
 -1      2195 1.32829E+02 1.87986E+01 0.00000E+00
 -1      2196 1.45665E+02 4.31193E+01 0.00000E+00
 -1      2197 1.34227E+02 2.47717E+01 0.00000E+00
 -1      2198 1.33777E+02 2.67705E+01 0.00000E+00
 -1      2199 1.33031E+02 2.86064E+01 0.00000E+00
 -1      2200 1.31701E+02 3.01398E+01 0.00000E+00
 -1      2201 1.28534E+02 3.25370E+01 0.00000E+00
 -1      2202 1.24663E+02 3.35792E+01 0.00000E+00
 -1      2203 1.22534E+02 3.31544E+01 0.00000E+00
 -1      2204 1.20684E+02 3.23811E+01 0.00000E+00
 -1      2205 1.16830E+02 2.97879E+01 0.00000E+00
 -1      2206 1.15260E+02 2.59768E+01 0.00000E+00
 -1      2207 1.15182E+02 2.39617E+01 0.00000E+00
 -1      2208 1.15417E+02 2.20278E+01 0.00000E+00
 -1      2209 1.15994E+02 2.01282E+01 0.00000E+00
 -1      2210 1.16842E+02 1.83269E+01 0.00000E+00
 -1      2211 1.18162E+02 1.67008E+01 0.00000E+00
 -1      2212 1.24155E+02 1.41242E+01 0.00000E+00
 -1      2213 1.21965E+02 1.45030E+01 0.00000E+00
 -1      2214 1.18652E+02 3.14313E+01 0.00000E+00
 -1      2215 1.17746E+02 3.16173E+01 0.00000E+00
 -1      2216 1.18843E+02 3.22572E+01 0.00000E+00
 -1      2217 1.30261E+02 3.13886E+01 0.00000E+00
 -1      2218 1.07850E+01 5.30525E+00 0.00000E+00
 -1      2219 9.28500E+00 5.30525E+00 0.00000E+00
 -1      2220 6.49500E+00 3.01125E+01 0.00000E+00
 -1      2221 6.49500E+00 3.15875E+01 0.00000E+00
 -1      2222 6.49500E+00 3.30625E+01 0.00000E+00
 -1      2223 6.49500E+00 3.45375E+01 0.00000E+00
 -1      2224 7.79400E+00 3.23250E+01 0.00000E+00
 -1      2225 6.49500E+00 2.42125E+01 0.00000E+00
 -1      2226 6.49500E+00 2.56875E+01 0.00000E+00
 -1      2227 6.49500E+00 2.12625E+01 0.00000E+00
 -1      2228 6.49500E+00 2.27375E+01 0.00000E+00
 -1      2229 7.79400E+00 2.34750E+01 0.00000E+00
 -1      2230 6.49500E+00 1.83625E+01 0.00000E+00
 -1      2231 6.49500E+00 1.98125E+01 0.00000E+00
 -1      2232 7.79400E+00 2.05500E+01 0.00000E+00
 -1      2233 6.49500E+00 1.54125E+01 0.00000E+00
 -1      2234 6.49500E+00 1.68875E+01 0.00000E+00
 -1      2235 7.79400E+00 1.76250E+01 0.00000E+00
 -1      2236 6.49500E+00 1.24625E+01 0.00000E+00
 -1      2237 6.49500E+00 1.39375E+01 0.00000E+00
 -1      2238 7.79400E+00 1.46750E+01 0.00000E+00
 -1      2239 6.49500E+00 9.51250E+00 0.00000E+00
 -1      2240 6.49500E+00 1.09875E+01 0.00000E+00
 -1      2241 7.79400E+00 1.17250E+01 0.00000E+00
 -1      2242 1.37850E+01 5.30525E+00 0.00000E+00
 -1      2243 1.22850E+01 5.30525E+00 0.00000E+00
 -1      2244 1.15350E+01 6.60425E+00 0.00000E+00
 -1      2245 9.90000E+00 4.35050E+01 0.00000E+00
 -1      2246 1.14000E+01 4.35050E+01 0.00000E+00
 -1      2247 1.19160E+02 1.50789E+01 0.00000E+00
 -1      2248 1.20049E+02 1.46003E+01 0.00000E+00
 -1      2249 1.29000E+01 4.35050E+01 0.00000E+00
 -1      2250 1.44000E+01 4.35050E+01 0.00000E+00
 -1      2251 1.21500E+01 4.22060E+01 0.00000E+00
 -1      2252 1.59000E+01 4.35050E+01 0.00000E+00
 -1      2253 1.74000E+01 4.35050E+01 0.00000E+00
 -1      2254 1.51500E+01 4.22060E+01 0.00000E+00
 -1      2255 1.89000E+01 4.35050E+01 0.00000E+00
 -1      2256 2.04000E+01 4.35050E+01 0.00000E+00
 -1      2257 1.81500E+01 4.22060E+01 0.00000E+00
 -1      2258 2.19000E+01 4.35050E+01 0.00000E+00
 -1      2259 2.34000E+01 4.35050E+01 0.00000E+00
 -1      2260 2.11500E+01 4.22060E+01 0.00000E+00
 -1      2261 2.49000E+01 4.35050E+01 0.00000E+00
 -1      2262 2.64000E+01 4.35050E+01 0.00000E+00
 -1      2263 2.41500E+01 4.22060E+01 0.00000E+00
 -1      2264 2.79000E+01 4.35050E+01 0.00000E+00
 -1      2265 2.94000E+01 4.35050E+01 0.00000E+00
 -1      2266 2.71500E+01 4.22060E+01 0.00000E+00
 -1      2267 3.09000E+01 4.35050E+01 0.00000E+00
 -1      2268 3.24000E+01 4.35050E+01 0.00000E+00
 -1      2269 3.01500E+01 4.22060E+01 0.00000E+00
 -1      2270 3.39000E+01 4.35050E+01 0.00000E+00
 -1      2271 3.54000E+01 4.35050E+01 0.00000E+00
 -1      2272 3.31500E+01 4.22060E+01 0.00000E+00
 -1      2273 3.69000E+01 4.35050E+01 0.00000E+00
 -1      2274 3.84000E+01 4.35050E+01 0.00000E+00
 -1      2275 3.61500E+01 4.22060E+01 0.00000E+00
 -1      2276 3.99000E+01 4.35050E+01 0.00000E+00
 -1      2277 4.14000E+01 4.35050E+01 0.00000E+00
 -1      2278 3.91500E+01 4.22060E+01 0.00000E+00
 -1      2279 4.29000E+01 4.35050E+01 0.00000E+00
 -1      2280 4.44000E+01 4.35050E+01 0.00000E+00
 -1      2281 4.21500E+01 4.22060E+01 0.00000E+00
 -1      2282 4.59000E+01 4.35050E+01 0.00000E+00
 -1      2283 4.74000E+01 4.35050E+01 0.00000E+00
 -1      2284 4.51500E+01 4.22060E+01 0.00000E+00
 -1      2285 4.89000E+01 4.35050E+01 0.00000E+00
 -1      2286 5.04000E+01 4.35050E+01 0.00000E+00
 -1      2287 4.81500E+01 4.22060E+01 0.00000E+00
 -1      2288 5.19000E+01 4.35050E+01 0.00000E+00
 -1      2289 5.34000E+01 4.35050E+01 0.00000E+00
 -1      2290 5.11500E+01 4.22060E+01 0.00000E+00
 -1      2291 5.49000E+01 4.35050E+01 0.00000E+00
 -1      2292 5.64000E+01 4.35050E+01 0.00000E+00
 -1      2293 5.41500E+01 4.22060E+01 0.00000E+00
 -1      2294 5.79000E+01 4.35050E+01 0.00000E+00
 -1      2295 5.94000E+01 4.35050E+01 0.00000E+00
 -1      2296 5.71500E+01 4.22060E+01 0.00000E+00
 -1      2297 6.09000E+01 4.35050E+01 0.00000E+00
 -1      2298 6.24000E+01 4.35050E+01 0.00000E+00
 -1      2299 6.01500E+01 4.22060E+01 0.00000E+00
 -1      2300 6.39000E+01 4.35050E+01 0.00000E+00
 -1      2301 6.54000E+01 4.35050E+01 0.00000E+00
 -1      2302 6.31500E+01 4.22060E+01 0.00000E+00
 -1      2303 6.69000E+01 4.35050E+01 0.00000E+00
 -1      2304 6.84000E+01 4.35050E+01 0.00000E+00
 -1      2305 6.61500E+01 4.22060E+01 0.00000E+00
 -1      2306 6.99000E+01 4.35050E+01 0.00000E+00
 -1      2307 7.14000E+01 4.35050E+01 0.00000E+00
 -1      2308 6.91500E+01 4.22060E+01 0.00000E+00
 -1      2309 7.29000E+01 4.35050E+01 0.00000E+00
 -1      2310 7.44000E+01 4.35050E+01 0.00000E+00
 -1      2311 7.21500E+01 4.22060E+01 0.00000E+00
 -1      2312 7.59000E+01 4.35050E+01 0.00000E+00
 -1      2313 7.74000E+01 4.35050E+01 0.00000E+00
 -1      2314 7.51500E+01 4.22060E+01 0.00000E+00
 -1      2315 7.89000E+01 4.35050E+01 0.00000E+00
 -1      2316 8.04000E+01 4.35050E+01 0.00000E+00
 -1      2317 7.81500E+01 4.22060E+01 0.00000E+00
 -1      2318 8.19000E+01 4.35050E+01 0.00000E+00
 -1      2319 8.34000E+01 4.35050E+01 0.00000E+00
 -1      2320 8.11500E+01 4.22060E+01 0.00000E+00
 -1      2321 8.49000E+01 4.35050E+01 0.00000E+00
 -1      2322 8.64000E+01 4.35050E+01 0.00000E+00
 -1      2323 8.41500E+01 4.22060E+01 0.00000E+00
 -1      2324 8.79000E+01 4.35050E+01 0.00000E+00
 -1      2325 8.94000E+01 4.35050E+01 0.00000E+00
 -1      2326 8.71500E+01 4.22060E+01 0.00000E+00
 -1      2327 9.09000E+01 4.35050E+01 0.00000E+00
 -1      2328 9.24000E+01 4.35050E+01 0.00000E+00
 -1      2329 9.01500E+01 4.22060E+01 0.00000E+00
 -1      2330 9.39000E+01 4.35050E+01 0.00000E+00
 -1      2331 9.54000E+01 4.35050E+01 0.00000E+00
 -1      2332 9.31500E+01 4.22060E+01 0.00000E+00
 -1      2333 9.69000E+01 4.35050E+01 0.00000E+00
 -1      2334 9.84000E+01 4.35050E+01 0.00000E+00
 -1      2335 9.61500E+01 4.22060E+01 0.00000E+00
 -1      2336 9.99000E+01 4.35050E+01 0.00000E+00
 -1      2337 1.01400E+02 4.35050E+01 0.00000E+00
 -1      2338 9.91500E+01 4.22060E+01 0.00000E+00
 -1      2339 1.02900E+02 4.35050E+01 0.00000E+00
 -1      2340 1.04400E+02 4.35050E+01 0.00000E+00
 -1      2341 1.02150E+02 4.22060E+01 0.00000E+00
 -1      2342 1.05900E+02 4.35050E+01 0.00000E+00
 -1      2343 1.07400E+02 4.35050E+01 0.00000E+00
 -1      2344 1.05150E+02 4.22060E+01 0.00000E+00
 -1      2345 1.08900E+02 4.35050E+01 0.00000E+00
 -1      2346 1.10400E+02 4.35050E+01 0.00000E+00
 -1      2347 1.08150E+02 4.22060E+01 0.00000E+00
 -1      2348 1.11900E+02 4.35050E+01 0.00000E+00
 -1      2349 1.13400E+02 4.35050E+01 0.00000E+00
 -1      2350 1.11150E+02 4.22060E+01 0.00000E+00
 -1      2351 1.14900E+02 4.35050E+01 0.00000E+00
 -1      2352 1.16400E+02 4.35050E+01 0.00000E+00
 -1      2353 1.14150E+02 4.22060E+01 0.00000E+00
 -1      2354 1.17900E+02 4.35050E+01 0.00000E+00
 -1      2355 1.19400E+02 4.35050E+01 0.00000E+00
 -1      2356 1.17150E+02 4.22060E+01 0.00000E+00
 -1      2357 1.20900E+02 4.35050E+01 0.00000E+00
 -1      2358 1.22400E+02 4.35050E+01 0.00000E+00
 -1      2359 1.20150E+02 4.22060E+01 0.00000E+00
 -1      2360 1.23900E+02 4.35050E+01 0.00000E+00
 -1      2361 1.25400E+02 4.35050E+01 0.00000E+00
 -1      2362 1.23150E+02 4.22060E+01 0.00000E+00
 -1      2363 1.26900E+02 4.35050E+01 0.00000E+00
 -1      2364 1.28400E+02 4.35050E+01 0.00000E+00
 -1      2365 1.26150E+02 4.22060E+01 0.00000E+00
 -1      2366 1.29900E+02 4.35050E+01 0.00000E+00
 -1      2367 1.31400E+02 4.35050E+01 0.00000E+00
 -1      2368 1.29150E+02 4.22060E+01 0.00000E+00
 -1      2369 1.32900E+02 4.35050E+01 0.00000E+00
 -1      2370 1.34400E+02 4.35050E+01 0.00000E+00
 -1      2371 1.32150E+02 4.22060E+01 0.00000E+00
 -1      2372 1.35900E+02 4.35050E+01 0.00000E+00
 -1      2373 1.37400E+02 4.35050E+01 0.00000E+00
 -1      2374 1.35150E+02 4.22060E+01 0.00000E+00
 -1      2375 1.38900E+02 4.35050E+01 0.00000E+00
 -1      2376 1.40400E+02 4.35050E+01 0.00000E+00
 -1      2377 1.38150E+02 4.22060E+01 0.00000E+00
 -1      2378 1.97850E+01 5.30525E+00 0.00000E+00
 -1      2379 1.82850E+01 5.30525E+00 0.00000E+00
 -1      2380 2.27850E+01 5.30525E+00 0.00000E+00
 -1      2381 2.12850E+01 5.30525E+00 0.00000E+00
 -1      2382 2.05350E+01 6.60425E+00 0.00000E+00
 -1      2383 2.57850E+01 5.30525E+00 0.00000E+00
 -1      2384 2.42850E+01 5.30525E+00 0.00000E+00
 -1      2385 2.35350E+01 6.60425E+00 0.00000E+00
 -1      2386 2.87850E+01 5.30525E+00 0.00000E+00
 -1      2387 2.72850E+01 5.30525E+00 0.00000E+00
 -1      2388 2.65350E+01 6.60425E+00 0.00000E+00
 -1      2389 3.17850E+01 5.30525E+00 0.00000E+00
 -1      2390 3.02850E+01 5.30525E+00 0.00000E+00
 -1      2391 2.95350E+01 6.60425E+00 0.00000E+00
 -1      2392 3.47850E+01 5.30525E+00 0.00000E+00
 -1      2393 3.32850E+01 5.30525E+00 0.00000E+00
 -1      2394 3.25350E+01 6.60425E+00 0.00000E+00
 -1      2395 3.77850E+01 5.30525E+00 0.00000E+00
 -1      2396 3.62850E+01 5.30525E+00 0.00000E+00
 -1      2397 3.55350E+01 6.60425E+00 0.00000E+00
 -1      2398 4.07850E+01 5.30525E+00 0.00000E+00
 -1      2399 3.92850E+01 5.30525E+00 0.00000E+00
 -1      2400 3.85350E+01 6.60425E+00 0.00000E+00
 -1      2401 4.37850E+01 5.30525E+00 0.00000E+00
 -1      2402 4.22850E+01 5.30525E+00 0.00000E+00
 -1      2403 4.15350E+01 6.60425E+00 0.00000E+00
 -1      2404 4.67850E+01 5.30525E+00 0.00000E+00
 -1      2405 4.52850E+01 5.30525E+00 0.00000E+00
 -1      2406 4.45350E+01 6.60425E+00 0.00000E+00
 -1      2407 4.97850E+01 5.30525E+00 0.00000E+00
 -1      2408 4.82850E+01 5.30525E+00 0.00000E+00
 -1      2409 4.75350E+01 6.60425E+00 0.00000E+00
 -1      2410 5.27850E+01 5.30525E+00 0.00000E+00
 -1      2411 5.12850E+01 5.30525E+00 0.00000E+00
 -1      2412 5.05350E+01 6.60425E+00 0.00000E+00
 -1      2413 5.57850E+01 5.30525E+00 0.00000E+00
 -1      2414 5.42850E+01 5.30525E+00 0.00000E+00
 -1      2415 5.35350E+01 6.60425E+00 0.00000E+00
 -1      2416 5.87850E+01 5.30525E+00 0.00000E+00
 -1      2417 5.72850E+01 5.30525E+00 0.00000E+00
 -1      2418 5.65350E+01 6.60425E+00 0.00000E+00
 -1      2419 6.17850E+01 5.30525E+00 0.00000E+00
 -1      2420 6.02850E+01 5.30525E+00 0.00000E+00
 -1      2421 5.95350E+01 6.60425E+00 0.00000E+00
 -1      2422 6.47850E+01 5.30525E+00 0.00000E+00
 -1      2423 6.32850E+01 5.30525E+00 0.00000E+00
 -1      2424 6.25350E+01 6.60425E+00 0.00000E+00
 -1      2425 6.77850E+01 5.30525E+00 0.00000E+00
 -1      2426 6.62850E+01 5.30525E+00 0.00000E+00
 -1      2427 6.55350E+01 6.60425E+00 0.00000E+00
 -1      2428 7.07850E+01 5.30525E+00 0.00000E+00
 -1      2429 6.92850E+01 5.30525E+00 0.00000E+00
 -1      2430 6.85350E+01 6.60425E+00 0.00000E+00
 -1      2431 7.37850E+01 5.30525E+00 0.00000E+00
 -1      2432 7.22850E+01 5.30525E+00 0.00000E+00
 -1      2433 7.15350E+01 6.60425E+00 0.00000E+00
 -1      2434 7.67850E+01 5.30525E+00 0.00000E+00
 -1      2435 7.52850E+01 5.30525E+00 0.00000E+00
 -1      2436 7.45350E+01 6.60425E+00 0.00000E+00
 -1      2437 7.97850E+01 5.30525E+00 0.00000E+00
 -1      2438 7.82850E+01 5.30525E+00 0.00000E+00
 -1      2439 7.75350E+01 6.60425E+00 0.00000E+00
 -1      2440 8.27850E+01 5.30525E+00 0.00000E+00
 -1      2441 8.12850E+01 5.30525E+00 0.00000E+00
 -1      2442 8.05350E+01 6.60425E+00 0.00000E+00
 -1      2443 8.57850E+01 5.30525E+00 0.00000E+00
 -1      2444 8.42850E+01 5.30525E+00 0.00000E+00
 -1      2445 8.35350E+01 6.60425E+00 0.00000E+00
 -1      2446 8.87850E+01 5.30525E+00 0.00000E+00
 -1      2447 8.72850E+01 5.30525E+00 0.00000E+00
 -1      2448 8.65350E+01 6.60425E+00 0.00000E+00
 -1      2449 9.17850E+01 5.30525E+00 0.00000E+00
 -1      2450 9.02850E+01 5.30525E+00 0.00000E+00
 -1      2451 8.95350E+01 6.60425E+00 0.00000E+00
 -1      2452 9.47850E+01 5.30525E+00 0.00000E+00
 -1      2453 9.32850E+01 5.30525E+00 0.00000E+00
 -1      2454 9.25350E+01 6.60425E+00 0.00000E+00
 -1      2455 9.77850E+01 5.30525E+00 0.00000E+00
 -1      2456 9.62850E+01 5.30525E+00 0.00000E+00
 -1      2457 9.55350E+01 6.60425E+00 0.00000E+00
 -1      2458 1.00785E+02 5.30525E+00 0.00000E+00
 -1      2459 9.92850E+01 5.30525E+00 0.00000E+00
 -1      2460 9.85350E+01 6.60425E+00 0.00000E+00
 -1      2461 1.03785E+02 5.30525E+00 0.00000E+00
 -1      2462 1.02285E+02 5.30525E+00 0.00000E+00
 -1      2463 1.01535E+02 6.60425E+00 0.00000E+00
 -1      2464 1.06785E+02 5.30525E+00 0.00000E+00
 -1      2465 1.05285E+02 5.30525E+00 0.00000E+00
 -1      2466 1.04535E+02 6.60425E+00 0.00000E+00
 -1      2467 1.09785E+02 5.30525E+00 0.00000E+00
 -1      2468 1.08285E+02 5.30525E+00 0.00000E+00
 -1      2469 1.07535E+02 6.60425E+00 0.00000E+00
 -1      2470 1.12785E+02 5.30525E+00 0.00000E+00
 -1      2471 1.11285E+02 5.30525E+00 0.00000E+00
 -1      2472 1.10535E+02 6.60425E+00 0.00000E+00
 -1      2473 1.15785E+02 5.30525E+00 0.00000E+00
 -1      2474 1.14285E+02 5.30525E+00 0.00000E+00
 -1      2475 1.13535E+02 6.60425E+00 0.00000E+00
 -1      2476 1.18785E+02 5.30525E+00 0.00000E+00
 -1      2477 1.17285E+02 5.30525E+00 0.00000E+00
 -1      2478 1.16535E+02 6.60425E+00 0.00000E+00
 -1      2479 1.21785E+02 5.30525E+00 0.00000E+00
 -1      2480 1.20285E+02 5.30525E+00 0.00000E+00
 -1      2481 1.19535E+02 6.60425E+00 0.00000E+00
 -1      2482 1.24785E+02 5.30525E+00 0.00000E+00
 -1      2483 1.23285E+02 5.30525E+00 0.00000E+00
 -1      2484 1.22535E+02 6.60425E+00 0.00000E+00
 -1      2485 1.27785E+02 5.30525E+00 0.00000E+00
 -1      2486 1.26285E+02 5.30525E+00 0.00000E+00
 -1      2487 1.25535E+02 6.60425E+00 0.00000E+00
 -1      2488 1.30785E+02 5.30525E+00 0.00000E+00
 -1      2489 1.29285E+02 5.30525E+00 0.00000E+00
 -1      2490 1.28535E+02 6.60425E+00 0.00000E+00
 -1      2491 1.33785E+02 5.30525E+00 0.00000E+00
 -1      2492 1.32285E+02 5.30525E+00 0.00000E+00
 -1      2493 1.31535E+02 6.60425E+00 0.00000E+00
 -1      2494 1.36785E+02 5.30525E+00 0.00000E+00
 -1      2495 1.35285E+02 5.30525E+00 0.00000E+00
 -1      2496 1.34535E+02 6.60425E+00 0.00000E+00
 -1      2497 1.39785E+02 5.30525E+00 0.00000E+00
 -1      2498 1.38285E+02 5.30525E+00 0.00000E+00
 -1      2499 1.37535E+02 6.60425E+00 0.00000E+00
 -1      2500 1.42785E+02 5.30525E+00 0.00000E+00
 -1      2501 1.41285E+02 5.30525E+00 0.00000E+00
 -1      2502 1.40535E+02 6.60425E+00 0.00000E+00
 -1      2503 1.44336E+02 5.26953E+00 0.00000E+00
 -1      2504 1.43505E+02 1.69125E+01 0.00000E+00
 -1      2505 1.43505E+02 1.54375E+01 0.00000E+00
 -1      2506 1.43505E+02 1.98625E+01 0.00000E+00
 -1      2507 1.43505E+02 1.83875E+01 0.00000E+00
 -1      2508 1.42206E+02 1.76500E+01 0.00000E+00
 -1      2509 1.43505E+02 1.10625E+01 0.00000E+00
 -1      2510 1.43505E+02 9.58750E+00 0.00000E+00
 -1      2511 1.43505E+02 1.39750E+01 0.00000E+00
 -1      2512 1.43505E+02 1.25250E+01 0.00000E+00
 -1      2513 1.42206E+02 1.17875E+01 0.00000E+00
 -1      2514 1.42206E+02 1.47125E+01 0.00000E+00
 -1      2515 1.43505E+02 2.28125E+01 0.00000E+00
 -1      2516 1.43505E+02 2.13375E+01 0.00000E+00
 -1      2517 1.42206E+02 2.06000E+01 0.00000E+00
 -1      2518 1.43505E+02 2.57625E+01 0.00000E+00
 -1      2519 1.43505E+02 2.42875E+01 0.00000E+00
 -1      2520 1.42206E+02 2.35500E+01 0.00000E+00
 -1      2521 1.43505E+02 2.87125E+01 0.00000E+00
 -1      2522 1.43505E+02 2.72375E+01 0.00000E+00
 -1      2523 1.42206E+02 2.65000E+01 0.00000E+00
 -1      2524 1.43505E+02 3.16125E+01 0.00000E+00
 -1      2525 1.43505E+02 3.01625E+01 0.00000E+00
 -1      2526 1.42206E+02 2.94250E+01 0.00000E+00
 -1      2527 1.43505E+02 3.45625E+01 0.00000E+00
 -1      2528 1.43505E+02 3.30875E+01 0.00000E+00
 -1      2529 1.42206E+02 3.23500E+01 0.00000E+00
 -1      2530 1.43505E+02 3.75125E+01 0.00000E+00
 -1      2531 1.43505E+02 3.60375E+01 0.00000E+00
 -1      2532 1.42206E+02 3.53000E+01 0.00000E+00
 -1      2533 1.43505E+02 4.04625E+01 0.00000E+00
 -1      2534 1.43505E+02 3.89875E+01 0.00000E+00
 -1      2535 1.42206E+02 3.82500E+01 0.00000E+00
 -1      2536 1.33385E+02 1.79973E+01 0.00000E+00
 -1      2537 1.33804E+02 1.88245E+01 0.00000E+00
 -1      2538 1.44321E+02 4.30606E+01 0.00000E+00
 -1      2539 1.35208E+02 2.44914E+01 0.00000E+00
 -1      2540 1.34889E+02 2.55478E+01 0.00000E+00
 -1      2541 1.67850E+01 5.30525E+00 0.00000E+00
 -1      2542 1.52850E+01 5.30525E+00 0.00000E+00
 -1      2543 1.75350E+01 6.60425E+00 0.00000E+00
 -1      2544 1.35285E+02 2.22652E+01 0.00000E+00
 -1      2545 1.35362E+02 2.31839E+01 0.00000E+00
 -1      2546 1.32197E+02 1.63467E+01 0.00000E+00
 -1      2547 1.32783E+02 1.70699E+01 0.00000E+00
 -1      2548 6.55950E+00 4.28890E+01 0.00000E+00
 -1      2549 8.53650E+00 4.32410E+01 0.00000E+00
 -1      2550 9.28650E+00 4.19420E+01 0.00000E+00
 -1      2551 6.55950E+00 4.14140E+01 0.00000E+00
 -1      2552 1.34757E+02 2.64902E+01 0.00000E+00
 -1      2553 1.34625E+02 2.74325E+01 0.00000E+00
 -1      2554 1.35738E+02 2.62099E+01 0.00000E+00
 -1      2555 1.25298E+02 3.44171E+01 0.00000E+00
 -1      2556 1.24083E+02 3.44557E+01 0.00000E+00
 -1      2557 1.14330E+02 2.66677E+01 0.00000E+00
 -1      2558 1.14164E+02 2.56001E+01 0.00000E+00
 -1      2559 6.49500E+00 2.71625E+01 0.00000E+00
 -1      2560 6.49500E+00 2.86375E+01 0.00000E+00
 -1      2561 7.79400E+00 2.93750E+01 0.00000E+00
 -1      2562 7.79400E+00 2.64250E+01 0.00000E+00
 -1      2563 1.21121E+02 1.41243E+01 0.00000E+00
 -1      2564 1.22246E+02 1.36218E+01 0.00000E+00
 -1      2565 1.25730E+02 1.35182E+01 0.00000E+00
 -1      2566 1.26604E+02 1.35995E+01 0.00000E+00
 -1      2567 1.27727E+02 1.36655E+01 0.00000E+00
 -1      2568 1.28963E+02 1.38680E+01 0.00000E+00
 -1      2569 1.23598E+02 1.32707E+01 0.00000E+00
 -1      2570 1.24664E+02 1.33945E+01 0.00000E+00
 -1      2571 1.25173E+02 1.26647E+01 0.00000E+00
 -1      2572 1.17222E+02 1.64718E+01 0.00000E+00
 -1      2573 1.18121E+02 1.57336E+01 0.00000E+00
 -1      2574 1.15933E+02 1.84398E+01 0.00000E+00
 -1      2575 1.16353E+02 1.75519E+01 0.00000E+00
 -1      2576 1.15076E+02 2.02665E+01 0.00000E+00
 -1      2577 1.15505E+02 1.93531E+01 0.00000E+00
 -1      2578 1.15015E+02 1.85781E+01 0.00000E+00
 -1      2579 1.14495E+02 2.23935E+01 0.00000E+00
 -1      2580 1.14643E+02 2.14071E+01 0.00000E+00
 -1      2581 1.14321E+02 2.42885E+01 0.00000E+00
 -1      2582 1.14408E+02 2.33410E+01 0.00000E+00
 -1      2583 1.13634E+02 2.27203E+01 0.00000E+00
 -1      2584 1.15009E+02 2.84077E+01 0.00000E+00
 -1      2585 1.14670E+02 2.75377E+01 0.00000E+00
 -1      2586 1.13574E+02 2.71610E+01 0.00000E+00
 -1      2587 1.31148E+02 3.17083E+01 0.00000E+00
 -1      2588 1.30424E+02 3.23173E+01 0.00000E+00
 -1      2589 1.16498E+02 3.07919E+01 0.00000E+00
 -1      2590 1.15773E+02 2.97884E+01 0.00000E+00
 -1      2591 1.20909E+02 3.32706E+01 0.00000E+00
 -1      2592 1.19973E+02 3.29606E+01 0.00000E+00
 -1      2593 1.22737E+02 3.41974E+01 0.00000E+00
 -1      2594 1.21823E+02 3.37340E+01 0.00000E+00
 -1      2595 1.21112E+02 3.43136E+01 0.00000E+00
 -1      2596 1.27339E+02 3.39778E+01 0.00000E+00
 -1      2597 1.26512E+02 3.42099E+01 0.00000E+00
 -1      2598 1.29402E+02 3.29486E+01 0.00000E+00
 -1      2599 1.28400E+02 3.34880E+01 0.00000E+00
 -1      2600 1.32579E+02 3.04288E+01 0.00000E+00
 -1      2601 1.31864E+02 3.10686E+01 0.00000E+00
 -1      2602 1.32026E+02 3.19973E+01 0.00000E+00
 -1      2603 1.34044E+02 2.86454E+01 0.00000E+00
 -1      2604 1.33430E+02 2.95390E+01 0.00000E+00
 -1      2605 8.07525E+00 5.11044E+00 0.00000E+00
 -1      2606 6.57525E+00 5.11044E+00 0.00000E+00
 -1      2607 6.40575E+00 6.01981E+00 0.00000E+00
 -1      2608 8.82525E+00 6.40944E+00 0.00000E+00
 -1      2609 1.30402E+02 1.46373E+01 0.00000E+00
 -1      2610 1.31300E+02 1.54920E+01 0.00000E+00
 -1      2611 1.32259E+02 1.53138E+01 0.00000E+00
 -1      2612 1.21911E+02 1.25134E+01 0.00000E+00
 -1      2613 1.22754E+02 1.28920E+01 0.00000E+00
 -1      2614 1.23263E+02 1.21623E+01 0.00000E+00
 -1      2615 7.79400E+00 3.52687E+01 0.00000E+00
 -1      2616 6.49500E+00 3.60062E+01 0.00000E+00
 -1      2617 6.49500E+00 3.74750E+01 0.00000E+00
 -1      2618 1.45350E+01 6.60425E+00 0.00000E+00
 -1      2619 6.40575E+00 7.49481E+00 0.00000E+00
 -1      2620 1.29922E+02 1.36898E+01 0.00000E+00
 -1      2621 1.30882E+02 1.35116E+01 0.00000E+00
 -1      2622 1.29443E+02 1.27423E+01 0.00000E+00
 -1      2623 1.20330E+02 1.37191E+01 0.00000E+00
 -1      2624 1.34680E+02 1.92238E+01 0.00000E+00
 -1      2625 1.23372E+02 3.50352E+01 0.00000E+00
 -1      2626 1.33593E+02 3.04678E+01 0.00000E+00
 -1      2627 1.43586E+02 6.56853E+00 0.00000E+00
 -1      2628 1.43419E+02 7.72713E+00 0.00000E+00
 -1      2629 1.30289E+02 3.32684E+01 0.00000E+00
 -1      2630 1.33758E+02 1.70959E+01 0.00000E+00
 -1      2631 1.42758E+02 4.35929E+01 0.00000E+00
 -1      2632 1.43241E+02 4.17323E+01 0.00000E+00
 -1      2633 1.41942E+02 4.09948E+01 0.00000E+00
 -1      2634 1.41414E+02 4.35342E+01 0.00000E+00
 -1      2635 1.36023E+02 2.39600E+01 0.00000E+00
 -1      2636 7.70475E+00 8.23231E+00 0.00000E+00
 -1      2637 1.35590E+02 2.15384E+01 0.00000E+00
 -1      2638 1.36483E+02 2.19257E+01 0.00000E+00
 -1      2639 1.35895E+02 2.08116E+01 0.00000E+00
 -1      2640 1.25932E+02 3.50863E+01 0.00000E+00
 -1      2641 6.52725E+00 3.87101E+01 0.00000E+00
 -1      2642 6.52725E+00 4.01789E+01 0.00000E+00
 -1      2643 7.89075E+00 4.04429E+01 0.00000E+00
 -1      2644 7.82625E+00 3.79726E+01 0.00000E+00
 -1      2645 1.16689E+02 3.16179E+01 0.00000E+00
 -1      2646 1.15631E+02 3.16185E+01 0.00000E+00
 -1      2647 1.16880E+02 3.24439E+01 0.00000E+00
 -1      2648 1.13391E+02 2.49794E+01 0.00000E+00
 -1      2649 1.14154E+02 2.06321E+01 0.00000E+00
 -1      2650 1.27361E+02 1.28544E+01 0.00000E+00
 -1      2651 1.18219E+02 1.48498E+01 0.00000E+00
 -1      2652 1.35025E+02 2.83651E+01 0.00000E+00
 -1      2653 1.19067E+02 3.31467E+01 0.00000E+00
 -1      2654 1.18162E+02 3.33328E+01 0.00000E+00
 -1      2655 1.19292E+02 3.40362E+01 0.00000E+00
 -1      2656 1.16312E+02 1.65847E+01 0.00000E+00
 -1      2657 1.16271E+02 1.56175E+01 0.00000E+00
 -1      2658 1.15403E+02 1.66976E+01 0.00000E+00
 -1      2659 1.14677E+02 2.94117E+01 0.00000E+00
 -1      2660 1.13581E+02 2.90350E+01 0.00000E+00
 -1      2661 1.14344E+02 3.04158E+01 0.00000E+00
 -1      2662 1.28207E+02 3.43894E+01 0.00000E+00
 -1      2663 1.42120E+02 8.46463E+00 0.00000E+00
 -1      2664 1.40664E+02 4.22352E+01 0.00000E+00
 -1      2665 9.09300E+00 1.98250E+01 0.00000E+00
 -1      2666 9.09300E+00 2.12750E+01 0.00000E+00
 -1      2667 9.09300E+00 2.27500E+01 0.00000E+00
 -1      2668 9.09300E+00 2.42250E+01 0.00000E+00
 -1      2669 1.03920E+01 2.20250E+01 0.00000E+00
 -1      2670 9.09300E+00 1.39375E+01 0.00000E+00
 -1      2671 9.09300E+00 1.54125E+01 0.00000E+00
 -1      2672 9.09300E+00 1.09875E+01 0.00000E+00
 -1      2673 9.09300E+00 1.24625E+01 0.00000E+00
 -1      2674 1.03920E+01 1.32000E+01 0.00000E+00
 -1      2675 1.22850E+01 7.90325E+00 0.00000E+00
 -1      2676 1.07850E+01 7.90325E+00 0.00000E+00
 -1      2677 1.36736E+02 2.58689E+01 0.00000E+00
 -1      2678 1.36604E+02 2.68113E+01 0.00000E+00
 -1      2679 8.91450E+00 8.42712E+00 0.00000E+00
 -1      2680 1.44000E+01 4.09070E+01 0.00000E+00
 -1      2681 1.59000E+01 4.09070E+01 0.00000E+00
 -1      2682 1.74000E+01 4.09070E+01 0.00000E+00
 -1      2683 1.89000E+01 4.09070E+01 0.00000E+00
 -1      2684 1.66500E+01 3.96080E+01 0.00000E+00
 -1      2685 2.04000E+01 4.09070E+01 0.00000E+00
 -1      2686 2.19000E+01 4.09070E+01 0.00000E+00
 -1      2687 1.96500E+01 3.96080E+01 0.00000E+00
 -1      2688 2.34000E+01 4.09070E+01 0.00000E+00
 -1      2689 2.49000E+01 4.09070E+01 0.00000E+00
 -1      2690 2.26500E+01 3.96080E+01 0.00000E+00
 -1      2691 2.64000E+01 4.09070E+01 0.00000E+00
 -1      2692 2.79000E+01 4.09070E+01 0.00000E+00
 -1      2693 2.56500E+01 3.96080E+01 0.00000E+00
 -1      2694 2.94000E+01 4.09070E+01 0.00000E+00
 -1      2695 3.09000E+01 4.09070E+01 0.00000E+00
 -1      2696 2.86500E+01 3.96080E+01 0.00000E+00
 -1      2697 3.24000E+01 4.09070E+01 0.00000E+00
 -1      2698 3.39000E+01 4.09070E+01 0.00000E+00
 -1      2699 3.16500E+01 3.96080E+01 0.00000E+00
 -1      2700 3.54000E+01 4.09070E+01 0.00000E+00
 -1      2701 3.69000E+01 4.09070E+01 0.00000E+00
 -1      2702 3.46500E+01 3.96080E+01 0.00000E+00
 -1      2703 3.84000E+01 4.09070E+01 0.00000E+00
 -1      2704 3.99000E+01 4.09070E+01 0.00000E+00
 -1      2705 3.76500E+01 3.96080E+01 0.00000E+00
 -1      2706 4.14000E+01 4.09070E+01 0.00000E+00
 -1      2707 4.29000E+01 4.09070E+01 0.00000E+00
 -1      2708 4.06500E+01 3.96080E+01 0.00000E+00
 -1      2709 4.44000E+01 4.09070E+01 0.00000E+00
 -1      2710 4.59000E+01 4.09070E+01 0.00000E+00
 -1      2711 4.36500E+01 3.96080E+01 0.00000E+00
 -1      2712 4.74000E+01 4.09070E+01 0.00000E+00
 -1      2713 4.89000E+01 4.09070E+01 0.00000E+00
 -1      2714 4.66500E+01 3.96080E+01 0.00000E+00
 -1      2715 5.04000E+01 4.09070E+01 0.00000E+00
 -1      2716 5.19000E+01 4.09070E+01 0.00000E+00
 -1      2717 4.96500E+01 3.96080E+01 0.00000E+00
 -1      2718 5.34000E+01 4.09070E+01 0.00000E+00
 -1      2719 5.49000E+01 4.09070E+01 0.00000E+00
 -1      2720 5.26500E+01 3.96080E+01 0.00000E+00
 -1      2721 5.64000E+01 4.09070E+01 0.00000E+00
 -1      2722 5.79000E+01 4.09070E+01 0.00000E+00
 -1      2723 5.56500E+01 3.96080E+01 0.00000E+00
 -1      2724 5.94000E+01 4.09070E+01 0.00000E+00
 -1      2725 6.09000E+01 4.09070E+01 0.00000E+00
 -1      2726 5.86500E+01 3.96080E+01 0.00000E+00
 -1      2727 6.24000E+01 4.09070E+01 0.00000E+00
 -1      2728 6.39000E+01 4.09070E+01 0.00000E+00
 -1      2729 6.16500E+01 3.96080E+01 0.00000E+00
 -1      2730 6.54000E+01 4.09070E+01 0.00000E+00
 -1      2731 6.69000E+01 4.09070E+01 0.00000E+00
 -1      2732 6.46500E+01 3.96080E+01 0.00000E+00
 -1      2733 6.84000E+01 4.09070E+01 0.00000E+00
 -1      2734 6.99000E+01 4.09070E+01 0.00000E+00
 -1      2735 6.76500E+01 3.96080E+01 0.00000E+00
 -1      2736 7.14000E+01 4.09070E+01 0.00000E+00
 -1      2737 7.29000E+01 4.09070E+01 0.00000E+00
 -1      2738 7.06500E+01 3.96080E+01 0.00000E+00
 -1      2739 7.44000E+01 4.09070E+01 0.00000E+00
 -1      2740 7.59000E+01 4.09070E+01 0.00000E+00
 -1      2741 7.36500E+01 3.96080E+01 0.00000E+00
 -1      2742 7.74000E+01 4.09070E+01 0.00000E+00
 -1      2743 7.89000E+01 4.09070E+01 0.00000E+00
 -1      2744 7.66500E+01 3.96080E+01 0.00000E+00
 -1      2745 8.04000E+01 4.09070E+01 0.00000E+00
 -1      2746 8.19000E+01 4.09070E+01 0.00000E+00
 -1      2747 7.96500E+01 3.96080E+01 0.00000E+00
 -1      2748 8.34000E+01 4.09070E+01 0.00000E+00
 -1      2749 8.49000E+01 4.09070E+01 0.00000E+00
 -1      2750 8.26500E+01 3.96080E+01 0.00000E+00
 -1      2751 8.64000E+01 4.09070E+01 0.00000E+00
 -1      2752 8.79000E+01 4.09070E+01 0.00000E+00
 -1      2753 8.56500E+01 3.96080E+01 0.00000E+00
 -1      2754 8.94000E+01 4.09070E+01 0.00000E+00
 -1      2755 9.09000E+01 4.09070E+01 0.00000E+00
 -1      2756 8.86500E+01 3.96080E+01 0.00000E+00
 -1      2757 9.24000E+01 4.09070E+01 0.00000E+00
 -1      2758 9.39000E+01 4.09070E+01 0.00000E+00
 -1      2759 9.16500E+01 3.96080E+01 0.00000E+00
 -1      2760 9.54000E+01 4.09070E+01 0.00000E+00
 -1      2761 9.69000E+01 4.09070E+01 0.00000E+00
 -1      2762 9.46500E+01 3.96080E+01 0.00000E+00
 -1      2763 9.84000E+01 4.09070E+01 0.00000E+00
 -1      2764 9.99000E+01 4.09070E+01 0.00000E+00
 -1      2765 9.76500E+01 3.96080E+01 0.00000E+00
 -1      2766 1.01400E+02 4.09070E+01 0.00000E+00
 -1      2767 1.02900E+02 4.09070E+01 0.00000E+00
 -1      2768 1.00650E+02 3.96080E+01 0.00000E+00
 -1      2769 1.04400E+02 4.09070E+01 0.00000E+00
 -1      2770 1.05900E+02 4.09070E+01 0.00000E+00
 -1      2771 1.03650E+02 3.96080E+01 0.00000E+00
 -1      2772 1.07400E+02 4.09070E+01 0.00000E+00
 -1      2773 1.08900E+02 4.09070E+01 0.00000E+00
 -1      2774 1.06650E+02 3.96080E+01 0.00000E+00
 -1      2775 1.10400E+02 4.09070E+01 0.00000E+00
 -1      2776 1.11900E+02 4.09070E+01 0.00000E+00
 -1      2777 1.09650E+02 3.96080E+01 0.00000E+00
 -1      2778 1.13400E+02 4.09070E+01 0.00000E+00
 -1      2779 1.14900E+02 4.09070E+01 0.00000E+00
 -1      2780 1.12650E+02 3.96080E+01 0.00000E+00
 -1      2781 1.16400E+02 4.09070E+01 0.00000E+00
 -1      2782 1.17900E+02 4.09070E+01 0.00000E+00
 -1      2783 1.15650E+02 3.96080E+01 0.00000E+00
 -1      2784 1.19400E+02 4.09070E+01 0.00000E+00
 -1      2785 1.20900E+02 4.09070E+01 0.00000E+00
 -1      2786 1.18650E+02 3.96080E+01 0.00000E+00
 -1      2787 1.22400E+02 4.09070E+01 0.00000E+00
 -1      2788 1.23900E+02 4.09070E+01 0.00000E+00
 -1      2789 1.21650E+02 3.96080E+01 0.00000E+00
 -1      2790 1.25400E+02 4.09070E+01 0.00000E+00
 -1      2791 1.26900E+02 4.09070E+01 0.00000E+00
 -1      2792 1.24650E+02 3.96080E+01 0.00000E+00
 -1      2793 1.28400E+02 4.09070E+01 0.00000E+00
 -1      2794 1.29900E+02 4.09070E+01 0.00000E+00
 -1      2795 1.27650E+02 3.96080E+01 0.00000E+00
 -1      2796 1.31400E+02 4.09070E+01 0.00000E+00
 -1      2797 1.32900E+02 4.09070E+01 0.00000E+00
 -1      2798 1.30650E+02 3.96080E+01 0.00000E+00
 -1      2799 1.34400E+02 4.09070E+01 0.00000E+00
 -1      2800 1.35900E+02 4.09070E+01 0.00000E+00
 -1      2801 1.33650E+02 3.96080E+01 0.00000E+00
 -1      2802 1.37400E+02 4.09070E+01 0.00000E+00
 -1      2803 1.38900E+02 4.09070E+01 0.00000E+00
 -1      2804 1.36650E+02 3.96080E+01 0.00000E+00
 -1      2805 2.42850E+01 7.90325E+00 0.00000E+00
 -1      2806 2.27850E+01 7.90325E+00 0.00000E+00
 -1      2807 1.37044E+02 2.32539E+01 0.00000E+00
 -1      2808 1.36890E+02 2.45614E+01 0.00000E+00
 -1      2809 1.37756E+02 2.51629E+01 0.00000E+00
 -1      2810 2.12850E+01 7.90325E+00 0.00000E+00
 -1      2811 1.97850E+01 7.90325E+00 0.00000E+00
 -1      2812 2.20350E+01 9.20225E+00 0.00000E+00
 -1      2813 3.02850E+01 7.90325E+00 0.00000E+00
 -1      2814 2.87850E+01 7.90325E+00 0.00000E+00
 -1      2815 3.32850E+01 7.90325E+00 0.00000E+00
 -1      2816 3.17850E+01 7.90325E+00 0.00000E+00
 -1      2817 3.10350E+01 9.20225E+00 0.00000E+00
 -1      2818 3.62850E+01 7.90325E+00 0.00000E+00
 -1      2819 3.47850E+01 7.90325E+00 0.00000E+00
 -1      2820 3.40350E+01 9.20225E+00 0.00000E+00
 -1      2821 3.92850E+01 7.90325E+00 0.00000E+00
 -1      2822 3.77850E+01 7.90325E+00 0.00000E+00
 -1      2823 3.70350E+01 9.20225E+00 0.00000E+00
 -1      2824 4.22850E+01 7.90325E+00 0.00000E+00
 -1      2825 4.07850E+01 7.90325E+00 0.00000E+00
 -1      2826 4.00350E+01 9.20225E+00 0.00000E+00
 -1      2827 4.52850E+01 7.90325E+00 0.00000E+00
 -1      2828 4.37850E+01 7.90325E+00 0.00000E+00
 -1      2829 4.30350E+01 9.20225E+00 0.00000E+00
 -1      2830 4.82850E+01 7.90325E+00 0.00000E+00
 -1      2831 4.67850E+01 7.90325E+00 0.00000E+00
 -1      2832 4.60350E+01 9.20225E+00 0.00000E+00
 -1      2833 5.12850E+01 7.90325E+00 0.00000E+00
 -1      2834 4.97850E+01 7.90325E+00 0.00000E+00
 -1      2835 4.90350E+01 9.20225E+00 0.00000E+00
 -1      2836 5.42850E+01 7.90325E+00 0.00000E+00
 -1      2837 5.27850E+01 7.90325E+00 0.00000E+00
 -1      2838 5.20350E+01 9.20225E+00 0.00000E+00
 -1      2839 5.72850E+01 7.90325E+00 0.00000E+00
 -1      2840 5.57850E+01 7.90325E+00 0.00000E+00
 -1      2841 5.50350E+01 9.20225E+00 0.00000E+00
 -1      2842 6.02850E+01 7.90325E+00 0.00000E+00
 -1      2843 5.87850E+01 7.90325E+00 0.00000E+00
 -1      2844 5.80350E+01 9.20225E+00 0.00000E+00
 -1      2845 6.32850E+01 7.90325E+00 0.00000E+00
 -1      2846 6.17850E+01 7.90325E+00 0.00000E+00
 -1      2847 6.10350E+01 9.20225E+00 0.00000E+00
 -1      2848 6.62850E+01 7.90325E+00 0.00000E+00
 -1      2849 6.47850E+01 7.90325E+00 0.00000E+00
 -1      2850 6.40350E+01 9.20225E+00 0.00000E+00
 -1      2851 6.92850E+01 7.90325E+00 0.00000E+00
 -1      2852 6.77850E+01 7.90325E+00 0.00000E+00
 -1      2853 6.70350E+01 9.20225E+00 0.00000E+00
 -1      2854 7.22850E+01 7.90325E+00 0.00000E+00
 -1      2855 7.07850E+01 7.90325E+00 0.00000E+00
 -1      2856 7.00350E+01 9.20225E+00 0.00000E+00
 -1      2857 7.52850E+01 7.90325E+00 0.00000E+00
 -1      2858 7.37850E+01 7.90325E+00 0.00000E+00
 -1      2859 7.30350E+01 9.20225E+00 0.00000E+00
 -1      2860 7.82850E+01 7.90325E+00 0.00000E+00
 -1      2861 7.67850E+01 7.90325E+00 0.00000E+00
 -1      2862 7.60350E+01 9.20225E+00 0.00000E+00
 -1      2863 8.12850E+01 7.90325E+00 0.00000E+00
 -1      2864 7.97850E+01 7.90325E+00 0.00000E+00
 -1      2865 7.90350E+01 9.20225E+00 0.00000E+00
 -1      2866 8.42850E+01 7.90325E+00 0.00000E+00
 -1      2867 8.27850E+01 7.90325E+00 0.00000E+00
 -1      2868 8.20350E+01 9.20225E+00 0.00000E+00
 -1      2869 8.72850E+01 7.90325E+00 0.00000E+00
 -1      2870 8.57850E+01 7.90325E+00 0.00000E+00
 -1      2871 8.50350E+01 9.20225E+00 0.00000E+00
 -1      2872 9.02850E+01 7.90325E+00 0.00000E+00
 -1      2873 8.87850E+01 7.90325E+00 0.00000E+00
 -1      2874 8.80350E+01 9.20225E+00 0.00000E+00
 -1      2875 9.32850E+01 7.90325E+00 0.00000E+00
 -1      2876 9.17850E+01 7.90325E+00 0.00000E+00
 -1      2877 9.10350E+01 9.20225E+00 0.00000E+00
 -1      2878 9.62850E+01 7.90325E+00 0.00000E+00
 -1      2879 9.47850E+01 7.90325E+00 0.00000E+00
 -1      2880 9.40350E+01 9.20225E+00 0.00000E+00
 -1      2881 9.92850E+01 7.90325E+00 0.00000E+00
 -1      2882 9.77850E+01 7.90325E+00 0.00000E+00
 -1      2883 9.70350E+01 9.20225E+00 0.00000E+00
 -1      2884 1.02285E+02 7.90325E+00 0.00000E+00
 -1      2885 1.00785E+02 7.90325E+00 0.00000E+00
 -1      2886 1.00035E+02 9.20225E+00 0.00000E+00
 -1      2887 1.05285E+02 7.90325E+00 0.00000E+00
 -1      2888 1.03785E+02 7.90325E+00 0.00000E+00
 -1      2889 1.03035E+02 9.20225E+00 0.00000E+00
 -1      2890 1.08285E+02 7.90325E+00 0.00000E+00
 -1      2891 1.06785E+02 7.90325E+00 0.00000E+00
 -1      2892 1.06035E+02 9.20225E+00 0.00000E+00
 -1      2893 1.11285E+02 7.90325E+00 0.00000E+00
 -1      2894 1.09785E+02 7.90325E+00 0.00000E+00
 -1      2895 1.09035E+02 9.20225E+00 0.00000E+00
 -1      2896 1.14285E+02 7.90325E+00 0.00000E+00
 -1      2897 1.12785E+02 7.90325E+00 0.00000E+00
 -1      2898 1.12035E+02 9.20225E+00 0.00000E+00
 -1      2899 1.17285E+02 7.90325E+00 0.00000E+00
 -1      2900 1.15785E+02 7.90325E+00 0.00000E+00
 -1      2901 1.15035E+02 9.20225E+00 0.00000E+00
 -1      2902 1.20285E+02 7.90325E+00 0.00000E+00
 -1      2903 1.18785E+02 7.90325E+00 0.00000E+00
 -1      2904 1.18035E+02 9.20225E+00 0.00000E+00
 -1      2905 1.26285E+02 7.88073E+00 0.00000E+00
 -1      2906 1.24785E+02 7.88073E+00 0.00000E+00
 -1      2907 1.29285E+02 7.88073E+00 0.00000E+00
 -1      2908 1.27785E+02 7.88073E+00 0.00000E+00
 -1      2909 1.27035E+02 9.15721E+00 0.00000E+00
 -1      2910 1.32285E+02 7.88073E+00 0.00000E+00
 -1      2911 1.30785E+02 7.88073E+00 0.00000E+00
 -1      2912 1.30035E+02 9.15721E+00 0.00000E+00
 -1      2913 1.35285E+02 7.88073E+00 0.00000E+00
 -1      2914 1.33785E+02 7.88073E+00 0.00000E+00
 -1      2915 1.33035E+02 9.15721E+00 0.00000E+00
 -1      2916 1.38285E+02 7.88073E+00 0.00000E+00
 -1      2917 1.36785E+02 7.88073E+00 0.00000E+00
 -1      2918 1.36035E+02 9.15721E+00 0.00000E+00
 -1      2919 1.40953E+02 8.17268E+00 0.00000E+00
 -1      2920 1.39453E+02 8.17268E+00 0.00000E+00
 -1      2921 1.38703E+02 9.44916E+00 0.00000E+00
 -1      2922 1.41038E+02 1.00331E+01 0.00000E+00
 -1      2923 1.41013E+02 2.42875E+01 0.00000E+00
 -1      2924 1.41013E+02 2.28125E+01 0.00000E+00
 -1      2925 1.39914E+02 4.09362E+01 0.00000E+00
 -1      2926 1.40928E+02 4.09655E+01 0.00000E+00
 -1      2927 1.39164E+02 3.96372E+01 0.00000E+00
 -1      2928 1.40930E+02 1.83875E+01 0.00000E+00
 -1      2929 1.40930E+02 1.69125E+01 0.00000E+00
 -1      2930 1.39904E+02 2.72227E+01 0.00000E+00
 -1      2931 1.39904E+02 2.57477E+01 0.00000E+00
 -1      2932 1.40971E+02 2.13375E+01 0.00000E+00
 -1      2933 1.40971E+02 1.98625E+01 0.00000E+00
 -1      2934 1.39695E+02 1.91250E+01 0.00000E+00
 -1      2935 1.39779E+02 2.20750E+01 0.00000E+00
 -1      2936 1.82850E+01 7.90325E+00 0.00000E+00
 -1      2937 1.67850E+01 7.90325E+00 0.00000E+00
 -1      2938 1.90350E+01 9.20225E+00 0.00000E+00
 -1      2939 1.40907E+02 3.30875E+01 0.00000E+00
 -1      2940 1.40907E+02 3.16125E+01 0.00000E+00
 -1      2941 1.40907E+02 3.60375E+01 0.00000E+00
 -1      2942 1.40907E+02 3.45625E+01 0.00000E+00
 -1      2943 1.39608E+02 3.38250E+01 0.00000E+00
 -1      2944 1.23867E+02 3.60888E+01 0.00000E+00
 -1      2945 1.22521E+02 3.58306E+01 0.00000E+00
 -1      2946 1.34699E+02 3.06736E+01 0.00000E+00
 -1      2947 1.33848E+02 3.15633E+01 0.00000E+00
 -1      2948 1.41192E+02 3.96958E+01 0.00000E+00
 -1      2949 9.25425E+00 4.07069E+01 0.00000E+00
 -1      2950 1.06178E+01 4.09709E+01 0.00000E+00
 -1      2951 9.22200E+00 3.94717E+01 0.00000E+00
 -1      2952 1.34247E+02 1.61201E+01 0.00000E+00
 -1      2953 1.34848E+02 1.70476E+01 0.00000E+00
 -1      2954 1.26855E+02 1.18817E+01 0.00000E+00
 -1      2955 1.27978E+02 1.19477E+01 0.00000E+00
 -1      2956 1.13057E+02 2.08684E+01 0.00000E+00
 -1      2957 1.13490E+02 1.97277E+01 0.00000E+00
 -1      2958 2.72850E+01 7.90325E+00 0.00000E+00
 -1      2959 2.57850E+01 7.90325E+00 0.00000E+00
 -1      2960 2.50350E+01 9.20225E+00 0.00000E+00
 -1      2961 2.80350E+01 9.20225E+00 0.00000E+00
 -1      2962 1.17589E+01 4.09389E+01 0.00000E+00
 -1      2963 1.32589E+01 4.09389E+01 0.00000E+00
 -1      2964 1.40089E+01 3.96399E+01 0.00000E+00
 -1      2965 1.17266E+01 3.97038E+01 0.00000E+00
 -1      2966 9.09300E+00 1.68813E+01 0.00000E+00
 -1      2967 9.09300E+00 1.83563E+01 0.00000E+00
 -1      2968 1.03920E+01 1.90812E+01 0.00000E+00
 -1      2969 1.03920E+01 1.61437E+01 0.00000E+00
 -1      2970 1.36089E+02 2.81291E+01 0.00000E+00
 -1      2971 1.35508E+02 2.93420E+01 0.00000E+00
 -1      2972 1.52850E+01 7.90325E+00 0.00000E+00
 -1      2973 1.37850E+01 7.90325E+00 0.00000E+00
 -1      2974 1.30350E+01 9.20225E+00 0.00000E+00
 -1      2975 1.60350E+01 9.20225E+00 0.00000E+00
 -1      2976 9.09300E+00 3.15875E+01 0.00000E+00
 -1      2977 9.09300E+00 3.30625E+01 0.00000E+00
 -1      2978 1.17265E+02 1.44872E+01 0.00000E+00
 -1      2979 1.18303E+02 1.38325E+01 0.00000E+00
 -1      2980 1.19480E+02 1.32499E+01 0.00000E+00
 -1      2981 1.20552E+02 1.27739E+01 0.00000E+00
 -1      2982 1.12294E+02 2.55138E+01 0.00000E+00
 -1      2983 1.12451E+02 2.42022E+01 0.00000E+00
 -1      2984 1.13919E+02 1.88144E+01 0.00000E+00
 -1      2985 1.14347E+02 1.79011E+01 0.00000E+00
 -1      2986 1.12822E+02 1.90507E+01 0.00000E+00
 -1      2987 1.12945E+02 2.79078E+01 0.00000E+00
 -1      2988 1.12605E+02 2.70379E+01 0.00000E+00
 -1      2989 1.12711E+02 2.30091E+01 0.00000E+00
 -1      2990 1.12798E+02 2.20616E+01 0.00000E+00
 -1      2991 1.12134E+02 2.11571E+01 0.00000E+00
 -1      2992 1.11614E+02 2.35435E+01 0.00000E+00
 -1      2993 1.31251E+02 3.36822E+01 0.00000E+00
 -1      2994 1.30229E+02 3.43135E+01 0.00000E+00
 -1      2995 1.35429E+02 1.83802E+01 0.00000E+00
 -1      2996 1.35750E+02 1.95807E+01 0.00000E+00
 -1      2997 1.29132E+02 3.49992E+01 0.00000E+00
 -1      2998 1.28071E+02 3.54890E+01 0.00000E+00
 -1      2999 1.21105E+02 3.54596E+01 0.00000E+00
 -1      3000 1.20191E+02 3.49962E+01 0.00000E+00
 -1      3001 1.32402E+02 1.42653E+01 0.00000E+00
 -1      3002 1.33299E+02 1.51200E+01 0.00000E+00
 -1      3003 1.33132E+02 3.22031E+01 0.00000E+00
 -1      3004 1.32416E+02 3.28429E+01 0.00000E+00
 -1      3005 1.34238E+02 3.24088E+01 0.00000E+00
 -1      3006 1.26683E+02 3.58281E+01 0.00000E+00
 -1      3007 1.25469E+02 3.60353E+01 0.00000E+00
 -1      3008 9.09300E+00 3.45313E+01 0.00000E+00
 -1      3009 9.09300E+00 3.60000E+01 0.00000E+00
 -1      3010 1.03920E+01 3.37938E+01 0.00000E+00
 -1      3011 1.03920E+01 2.49750E+01 0.00000E+00
 -1      3012 9.09300E+00 2.57000E+01 0.00000E+00
 -1      3013 9.09300E+00 2.71750E+01 0.00000E+00
 -1      3014 1.37087E+02 2.77882E+01 0.00000E+00
 -1      3015 9.66450E+00 9.72612E+00 0.00000E+00
 -1      3016 1.31922E+02 1.33178E+01 0.00000E+00
 -1      3017 1.32962E+02 1.31241E+01 0.00000E+00
 -1      3018 1.31442E+02 1.23703E+01 0.00000E+00
 -1      3019 1.39653E+02 1.61875E+01 0.00000E+00
 -1      3020 1.40930E+02 1.54500E+01 0.00000E+00
 -1      3021 1.40930E+02 1.39875E+01 0.00000E+00
 -1      3022 1.21601E+02 3.65132E+01 0.00000E+00
 -1      3023 1.23285E+02 7.89199E+00 0.00000E+00
 -1      3024 1.21785E+02 7.89199E+00 0.00000E+00
 -1      3025 1.21035E+02 9.19099E+00 0.00000E+00
 -1      3026 1.24035E+02 9.16847E+00 0.00000E+00
 -1      3027 1.30093E+02 3.54131E+01 0.00000E+00
 -1      3028 1.40984E+02 1.27415E+01 0.00000E+00
 -1      3029 1.40984E+02 1.12790E+01 0.00000E+00
 -1      3030 1.39816E+02 1.09871E+01 0.00000E+00
 -1      3031 1.39707E+02 1.34790E+01 0.00000E+00
 -1      3032 1.41097E+02 3.01500E+01 0.00000E+00
 -1      3033 1.41097E+02 2.87000E+01 0.00000E+00
 -1      3034 1.24618E+02 3.68306E+01 0.00000E+00
 -1      3035 1.41192E+02 3.82207E+01 0.00000E+00
 -1      3036 1.39529E+02 3.85602E+01 0.00000E+00
 -1      3037 1.40542E+02 3.71145E+01 0.00000E+00
 -1      3038 1.39243E+02 3.63770E+01 0.00000E+00
 -1      3039 1.38514E+02 3.85310E+01 0.00000E+00
 -1      3040 1.32357E+02 3.38880E+01 0.00000E+00
 -1      3041 1.09635E+01 1.04636E+01 0.00000E+00
 -1      3042 1.36644E+02 1.99680E+01 0.00000E+00
 -1      3043 1.34390E+02 1.50717E+01 0.00000E+00
 -1      3044 1.35918E+02 1.74044E+01 0.00000E+00
 -1      3045 1.11665E+02 2.62607E+01 0.00000E+00
 -1      3046 1.14726E+02 3.20678E+01 0.00000E+00
 -1      3047 1.14535E+02 3.12418E+01 0.00000E+00
 -1      3048 1.13440E+02 3.08651E+01 0.00000E+00
 -1      3049 1.17104E+02 3.33334E+01 0.00000E+00
 -1      3050 1.16047E+02 3.33340E+01 0.00000E+00
 -1      3051 1.17329E+02 3.42229E+01 0.00000E+00
 -1      3052 9.09300E+00 2.86437E+01 0.00000E+00
 -1      3053 9.09300E+00 3.01187E+01 0.00000E+00
 -1      3054 1.03920E+01 3.08563E+01 0.00000E+00
 -1      3055 1.03920E+01 2.79188E+01 0.00000E+00
 -1      3056 1.23227E+02 1.11141E+01 0.00000E+00
 -1      3057 1.24070E+02 1.14928E+01 0.00000E+00
 -1      3058 1.18525E+02 1.28873E+01 0.00000E+00
 -1      3059 1.19286E+02 3.51823E+01 0.00000E+00
 -1      3060 1.16355E+02 1.46001E+01 0.00000E+00
 -1      3061 1.16440E+02 1.35827E+01 0.00000E+00
 -1      3062 1.15446E+02 1.47130E+01 0.00000E+00
 -1      3063 1.21061E+02 1.20441E+01 0.00000E+00
 -1      3064 1.14306E+02 1.69339E+01 0.00000E+00
 -1      3065 1.14265E+02 1.59667E+01 0.00000E+00
 -1      3066 1.13209E+02 1.71701E+01 0.00000E+00
 -1      3067 1.24758E+02 1.15845E+01 0.00000E+00
 -1      3068 1.25824E+02 1.17082E+01 0.00000E+00
 -1      3069 1.12612E+02 2.89119E+01 0.00000E+00
 -1      3070 1.39798E+02 3.08875E+01 0.00000E+00
 -1      3071 1.27608E+02 3.64379E+01 0.00000E+00
 -1      3072 1.24722E+02 1.05364E+01 0.00000E+00
 -1      3073 1.26441E+02 1.08015E+01 0.00000E+00
 -1      3074 1.16910E+01 1.24625E+01 0.00000E+00
 -1      3075 1.16910E+01 1.39375E+01 0.00000E+00
 -1      3076 1.37426E+02 2.18943E+01 0.00000E+00
 -1      3077 1.37121E+02 2.26211E+01 0.00000E+00
 -1      3078 1.28776E+02 1.18235E+01 0.00000E+00
 -1      3079 1.29735E+02 1.16453E+01 0.00000E+00
 -1      3080 1.36226E+02 3.00612E+01 0.00000E+00
 -1      3081 1.35162E+02 3.02972E+01 0.00000E+00
 -1      3082 1.35279E+02 3.28532E+01 0.00000E+00
 -1      3083 1.34563E+02 3.34930E+01 0.00000E+00
 -1      3084 1.89000E+01 3.83090E+01 0.00000E+00
 -1      3085 2.04000E+01 3.83090E+01 0.00000E+00
 -1      3086 2.19000E+01 3.83090E+01 0.00000E+00
 -1      3087 2.34000E+01 3.83090E+01 0.00000E+00
 -1      3088 2.11500E+01 3.70100E+01 0.00000E+00
 -1      3089 2.49000E+01 3.83090E+01 0.00000E+00
 -1      3090 2.64000E+01 3.83090E+01 0.00000E+00
 -1      3091 2.41500E+01 3.70100E+01 0.00000E+00
 -1      3092 2.79000E+01 3.83090E+01 0.00000E+00
 -1      3093 2.94000E+01 3.83090E+01 0.00000E+00
 -1      3094 2.71500E+01 3.70100E+01 0.00000E+00
 -1      3095 3.09000E+01 3.83090E+01 0.00000E+00
 -1      3096 3.24000E+01 3.83090E+01 0.00000E+00
 -1      3097 3.01500E+01 3.70100E+01 0.00000E+00
 -1      3098 3.39000E+01 3.83090E+01 0.00000E+00
 -1      3099 3.54000E+01 3.83090E+01 0.00000E+00
 -1      3100 3.31500E+01 3.70100E+01 0.00000E+00
 -1      3101 3.69000E+01 3.83090E+01 0.00000E+00
 -1      3102 3.84000E+01 3.83090E+01 0.00000E+00
 -1      3103 3.61500E+01 3.70100E+01 0.00000E+00
 -1      3104 3.99000E+01 3.83090E+01 0.00000E+00
 -1      3105 4.14000E+01 3.83090E+01 0.00000E+00
 -1      3106 3.91500E+01 3.70100E+01 0.00000E+00
 -1      3107 4.29000E+01 3.83090E+01 0.00000E+00
 -1      3108 4.44000E+01 3.83090E+01 0.00000E+00
 -1      3109 4.21500E+01 3.70100E+01 0.00000E+00
 -1      3110 4.59000E+01 3.83090E+01 0.00000E+00
 -1      3111 4.74000E+01 3.83090E+01 0.00000E+00
 -1      3112 4.51500E+01 3.70100E+01 0.00000E+00
 -1      3113 4.89000E+01 3.83090E+01 0.00000E+00
 -1      3114 5.04000E+01 3.83090E+01 0.00000E+00
 -1      3115 4.81500E+01 3.70100E+01 0.00000E+00
 -1      3116 5.19000E+01 3.83090E+01 0.00000E+00
 -1      3117 5.34000E+01 3.83090E+01 0.00000E+00
 -1      3118 5.11500E+01 3.70100E+01 0.00000E+00
 -1      3119 5.49000E+01 3.83090E+01 0.00000E+00
 -1      3120 5.64000E+01 3.83090E+01 0.00000E+00
 -1      3121 5.41500E+01 3.70100E+01 0.00000E+00
 -1      3122 5.79000E+01 3.83090E+01 0.00000E+00
 -1      3123 5.94000E+01 3.83090E+01 0.00000E+00
 -1      3124 5.71500E+01 3.70100E+01 0.00000E+00
 -1      3125 6.09000E+01 3.83090E+01 0.00000E+00
 -1      3126 6.24000E+01 3.83090E+01 0.00000E+00
 -1      3127 6.01500E+01 3.70100E+01 0.00000E+00
 -1      3128 6.39000E+01 3.83090E+01 0.00000E+00
 -1      3129 6.54000E+01 3.83090E+01 0.00000E+00
 -1      3130 6.31500E+01 3.70100E+01 0.00000E+00
 -1      3131 6.69000E+01 3.83090E+01 0.00000E+00
 -1      3132 6.84000E+01 3.83090E+01 0.00000E+00
 -1      3133 6.61500E+01 3.70100E+01 0.00000E+00
 -1      3134 6.99000E+01 3.83090E+01 0.00000E+00
 -1      3135 7.14000E+01 3.83090E+01 0.00000E+00
 -1      3136 6.91500E+01 3.70100E+01 0.00000E+00
 -1      3137 7.29000E+01 3.83090E+01 0.00000E+00
 -1      3138 7.44000E+01 3.83090E+01 0.00000E+00
 -1      3139 7.21500E+01 3.70100E+01 0.00000E+00
 -1      3140 7.59000E+01 3.83090E+01 0.00000E+00
 -1      3141 7.74000E+01 3.83090E+01 0.00000E+00
 -1      3142 7.51500E+01 3.70100E+01 0.00000E+00
 -1      3143 7.89000E+01 3.83090E+01 0.00000E+00
 -1      3144 8.04000E+01 3.83090E+01 0.00000E+00
 -1      3145 7.81500E+01 3.70100E+01 0.00000E+00
 -1      3146 8.19000E+01 3.83090E+01 0.00000E+00
 -1      3147 8.34000E+01 3.83090E+01 0.00000E+00
 -1      3148 8.11500E+01 3.70100E+01 0.00000E+00
 -1      3149 8.49000E+01 3.83090E+01 0.00000E+00
 -1      3150 8.64000E+01 3.83090E+01 0.00000E+00
 -1      3151 8.41500E+01 3.70100E+01 0.00000E+00
 -1      3152 8.79000E+01 3.83090E+01 0.00000E+00
 -1      3153 8.94000E+01 3.83090E+01 0.00000E+00
 -1      3154 8.71500E+01 3.70100E+01 0.00000E+00
 -1      3155 9.09000E+01 3.83090E+01 0.00000E+00
 -1      3156 9.24000E+01 3.83090E+01 0.00000E+00
 -1      3157 9.01500E+01 3.70100E+01 0.00000E+00
 -1      3158 9.39000E+01 3.83090E+01 0.00000E+00
 -1      3159 9.54000E+01 3.83090E+01 0.00000E+00
 -1      3160 9.31500E+01 3.70100E+01 0.00000E+00
 -1      3161 9.69000E+01 3.83090E+01 0.00000E+00
 -1      3162 9.84000E+01 3.83090E+01 0.00000E+00
 -1      3163 9.61500E+01 3.70100E+01 0.00000E+00
 -1      3164 9.99000E+01 3.83090E+01 0.00000E+00
 -1      3165 1.01400E+02 3.83090E+01 0.00000E+00
 -1      3166 9.91500E+01 3.70100E+01 0.00000E+00
 -1      3167 1.02900E+02 3.83090E+01 0.00000E+00
 -1      3168 1.04400E+02 3.83090E+01 0.00000E+00
 -1      3169 1.02150E+02 3.70100E+01 0.00000E+00
 -1      3170 1.05900E+02 3.83090E+01 0.00000E+00
 -1      3171 1.07400E+02 3.83090E+01 0.00000E+00
 -1      3172 1.05150E+02 3.70100E+01 0.00000E+00
 -1      3173 1.08900E+02 3.83090E+01 0.00000E+00
 -1      3174 1.10400E+02 3.83090E+01 0.00000E+00
 -1      3175 1.08150E+02 3.70100E+01 0.00000E+00
 -1      3176 1.11900E+02 3.83090E+01 0.00000E+00
 -1      3177 1.13400E+02 3.83090E+01 0.00000E+00
 -1      3178 1.11150E+02 3.70100E+01 0.00000E+00
 -1      3179 1.14900E+02 3.83090E+01 0.00000E+00
 -1      3180 1.16400E+02 3.83090E+01 0.00000E+00
 -1      3181 1.14150E+02 3.70100E+01 0.00000E+00
 -1      3182 1.18667E+02 3.78751E+01 0.00000E+00
 -1      3183 1.20167E+02 3.78751E+01 0.00000E+00
 -1      3184 1.21583E+02 3.82461E+01 0.00000E+00
 -1      3185 1.23083E+02 3.82461E+01 0.00000E+00
 -1      3186 1.24685E+02 3.81925E+01 0.00000E+00
 -1      3187 1.26185E+02 3.81925E+01 0.00000E+00
 -1      3188 1.27685E+02 3.81925E+01 0.00000E+00
 -1      3189 1.29900E+02 3.84991E+01 0.00000E+00
 -1      3190 1.31400E+02 3.84991E+01 0.00000E+00
 -1      3191 1.32900E+02 3.84991E+01 0.00000E+00
 -1      3192 1.34400E+02 3.84991E+01 0.00000E+00
 -1      3193 1.32150E+02 3.73902E+01 0.00000E+00
 -1      3194 1.35707E+02 3.85150E+01 0.00000E+00
 -1      3195 1.37207E+02 3.85150E+01 0.00000E+00
 -1      3196 1.37572E+02 3.74380E+01 0.00000E+00
 -1      3197 1.34957E+02 3.74061E+01 0.00000E+00
 -1      3198 2.27850E+01 1.05013E+01 0.00000E+00
 -1      3199 2.12850E+01 1.05013E+01 0.00000E+00
 -1      3200 3.47850E+01 1.05013E+01 0.00000E+00
 -1      3201 3.32850E+01 1.05013E+01 0.00000E+00
 -1      3202 3.17850E+01 1.05013E+01 0.00000E+00
 -1      3203 3.02850E+01 1.05013E+01 0.00000E+00
 -1      3204 3.25350E+01 1.18003E+01 0.00000E+00
 -1      3205 4.07850E+01 1.05013E+01 0.00000E+00
 -1      3206 3.92850E+01 1.05013E+01 0.00000E+00
 -1      3207 4.37850E+01 1.05013E+01 0.00000E+00
 -1      3208 4.22850E+01 1.05013E+01 0.00000E+00
 -1      3209 4.15350E+01 1.18003E+01 0.00000E+00
 -1      3210 4.67850E+01 1.05013E+01 0.00000E+00
 -1      3211 4.52850E+01 1.05013E+01 0.00000E+00
 -1      3212 4.45350E+01 1.18003E+01 0.00000E+00
 -1      3213 4.97850E+01 1.05013E+01 0.00000E+00
 -1      3214 4.82850E+01 1.05013E+01 0.00000E+00
 -1      3215 4.75350E+01 1.18003E+01 0.00000E+00
 -1      3216 5.27850E+01 1.05013E+01 0.00000E+00
 -1      3217 5.12850E+01 1.05013E+01 0.00000E+00
 -1      3218 5.05350E+01 1.18003E+01 0.00000E+00
 -1      3219 5.57850E+01 1.05013E+01 0.00000E+00
 -1      3220 5.42850E+01 1.05013E+01 0.00000E+00
 -1      3221 5.35350E+01 1.18003E+01 0.00000E+00
 -1      3222 5.87850E+01 1.05013E+01 0.00000E+00
 -1      3223 5.72850E+01 1.05013E+01 0.00000E+00
 -1      3224 5.65350E+01 1.18003E+01 0.00000E+00
 -1      3225 6.17850E+01 1.05013E+01 0.00000E+00
 -1      3226 6.02850E+01 1.05013E+01 0.00000E+00
 -1      3227 5.95350E+01 1.18003E+01 0.00000E+00
 -1      3228 6.47850E+01 1.05013E+01 0.00000E+00
 -1      3229 6.32850E+01 1.05013E+01 0.00000E+00
 -1      3230 6.25350E+01 1.18003E+01 0.00000E+00
 -1      3231 6.77850E+01 1.05013E+01 0.00000E+00
 -1      3232 6.62850E+01 1.05013E+01 0.00000E+00
 -1      3233 6.55350E+01 1.18003E+01 0.00000E+00
 -1      3234 7.07850E+01 1.05013E+01 0.00000E+00
 -1      3235 6.92850E+01 1.05013E+01 0.00000E+00
 -1      3236 6.85350E+01 1.18003E+01 0.00000E+00
 -1      3237 7.37850E+01 1.05013E+01 0.00000E+00
 -1      3238 7.22850E+01 1.05013E+01 0.00000E+00
 -1      3239 7.15350E+01 1.18003E+01 0.00000E+00
 -1      3240 7.67850E+01 1.05013E+01 0.00000E+00
 -1      3241 7.52850E+01 1.05013E+01 0.00000E+00
 -1      3242 7.45350E+01 1.18003E+01 0.00000E+00
 -1      3243 7.97850E+01 1.05013E+01 0.00000E+00
 -1      3244 7.82850E+01 1.05013E+01 0.00000E+00
 -1      3245 7.75350E+01 1.18003E+01 0.00000E+00
 -1      3246 8.27850E+01 1.05013E+01 0.00000E+00
 -1      3247 8.12850E+01 1.05013E+01 0.00000E+00
 -1      3248 8.05350E+01 1.18003E+01 0.00000E+00
 -1      3249 8.57850E+01 1.05013E+01 0.00000E+00
 -1      3250 8.42850E+01 1.05013E+01 0.00000E+00
 -1      3251 8.35350E+01 1.18003E+01 0.00000E+00
 -1      3252 8.87850E+01 1.05013E+01 0.00000E+00
 -1      3253 8.72850E+01 1.05013E+01 0.00000E+00
 -1      3254 8.65350E+01 1.18003E+01 0.00000E+00
 -1      3255 9.17850E+01 1.05013E+01 0.00000E+00
 -1      3256 9.02850E+01 1.05013E+01 0.00000E+00
 -1      3257 8.95350E+01 1.18003E+01 0.00000E+00
 -1      3258 9.47850E+01 1.05013E+01 0.00000E+00
 -1      3259 9.32850E+01 1.05013E+01 0.00000E+00
 -1      3260 9.25350E+01 1.18003E+01 0.00000E+00
 -1      3261 9.77850E+01 1.05013E+01 0.00000E+00
 -1      3262 9.62850E+01 1.05013E+01 0.00000E+00
 -1      3263 9.55350E+01 1.18003E+01 0.00000E+00
 -1      3264 1.00785E+02 1.05013E+01 0.00000E+00
 -1      3265 9.92850E+01 1.05013E+01 0.00000E+00
 -1      3266 9.85350E+01 1.18003E+01 0.00000E+00
 -1      3267 1.03785E+02 1.05013E+01 0.00000E+00
 -1      3268 1.02285E+02 1.05013E+01 0.00000E+00
 -1      3269 1.01535E+02 1.18003E+01 0.00000E+00
 -1      3270 1.06785E+02 1.05013E+01 0.00000E+00
 -1      3271 1.05285E+02 1.05013E+01 0.00000E+00
 -1      3272 1.04535E+02 1.18003E+01 0.00000E+00
 -1      3273 1.09785E+02 1.05013E+01 0.00000E+00
 -1      3274 1.08285E+02 1.05013E+01 0.00000E+00
 -1      3275 1.07535E+02 1.18003E+01 0.00000E+00
 -1      3276 1.12785E+02 1.05013E+01 0.00000E+00
 -1      3277 1.11285E+02 1.05013E+01 0.00000E+00
 -1      3278 1.10535E+02 1.18003E+01 0.00000E+00
 -1      3279 1.16033E+02 1.14490E+01 0.00000E+00
 -1      3280 1.14533E+02 1.14490E+01 0.00000E+00
 -1      3281 1.30920E+02 3.60588E+01 0.00000E+00
 -1      3282 1.29823E+02 3.67445E+01 0.00000E+00
 -1      3283 1.30302E+02 9.94185E+00 0.00000E+00
 -1      3284 1.28802E+02 9.94185E+00 0.00000E+00
 -1      3285 1.36785E+02 1.04562E+01 0.00000E+00
 -1      3286 1.35285E+02 1.04562E+01 0.00000E+00
 -1      3287 1.38884E+02 1.08676E+01 0.00000E+00
 -1      3288 1.37717E+02 1.05757E+01 0.00000E+00
 -1      3289 1.36967E+02 1.18747E+01 0.00000E+00
 -1      3290 1.38830E+02 1.21136E+01 0.00000E+00
 -1      3291 1.38711E+02 2.50102E+01 0.00000E+00
 -1      3292 1.33538E+02 3.43002E+01 0.00000E+00
 -1      3293 1.32373E+02 3.51395E+01 0.00000E+00
 -1      3294 1.16910E+01 2.12875E+01 0.00000E+00
 -1      3295 1.16910E+01 2.27625E+01 0.00000E+00
 -1      3296 1.97850E+01 1.05013E+01 0.00000E+00
 -1      3297 1.82850E+01 1.05013E+01 0.00000E+00
 -1      3298 2.05350E+01 1.18003E+01 0.00000E+00
 -1      3299 1.30968E+02 1.08606E+01 0.00000E+00
 -1      3300 1.11680E+02 1.90720E+01 0.00000E+00
 -1      3301 1.12108E+02 1.81587E+01 0.00000E+00
 -1      3302 1.37606E+02 3.46187E+01 0.00000E+00
 -1      3303 1.37606E+02 3.31437E+01 0.00000E+00
 -1      3304 1.35416E+02 3.13927E+01 0.00000E+00
 -1      3305 9.14137E+00 3.71183E+01 0.00000E+00
 -1      3306 9.17362E+00 3.83534E+01 0.00000E+00
 -1      3307 1.05371E+01 3.86174E+01 0.00000E+00
 -1      3308 1.04404E+01 3.63808E+01 0.00000E+00
 -1      3309 1.28270E+02 1.08508E+01 0.00000E+00
 -1      3310 1.38795E+02 2.79477E+01 0.00000E+00
 -1      3311 3.77850E+01 1.05013E+01 0.00000E+00
 -1      3312 3.62850E+01 1.05013E+01 0.00000E+00
 -1      3313 3.55350E+01 1.18003E+01 0.00000E+00
 -1      3314 3.85350E+01 1.18003E+01 0.00000E+00
 -1      3315 1.37988E+02 2.32226E+01 0.00000E+00
 -1      3316 1.38280E+02 2.92655E+01 0.00000E+00
 -1      3317 1.17557E+02 1.24101E+01 0.00000E+00
 -1      3318 1.18733E+02 1.18275E+01 0.00000E+00
 -1      3319 1.59000E+01 3.83090E+01 0.00000E+00
 -1      3320 1.74000E+01 3.83090E+01 0.00000E+00
 -1      3321 1.81500E+01 3.70100E+01 0.00000E+00
 -1      3322 1.25472E+02 9.89265E+00 0.00000E+00
 -1      3323 1.26503E+02 1.00661E+01 0.00000E+00
 -1      3324 1.12038E+02 2.99794E+01 0.00000E+00
 -1      3325 1.11402E+02 2.88522E+01 0.00000E+00
 -1      3326 1.38090E+02 3.07280E+01 0.00000E+00
 -1      3327 1.10898E+02 2.72108E+01 0.00000E+00
 -1      3328 1.10588E+02 2.56868E+01 0.00000E+00
 -1      3329 1.34660E+02 1.38664E+01 0.00000E+00
 -1      3330 1.35608E+02 1.48665E+01 0.00000E+00
 -1      3331 1.36568E+02 1.63286E+01 0.00000E+00
 -1      3332 1.37149E+02 1.76613E+01 0.00000E+00
 -1      3333 1.37293E+02 1.88921E+01 0.00000E+00
 -1      3334 1.37438E+02 2.01230E+01 0.00000E+00
 -1      3335 1.37943E+02 1.78163E+01 0.00000E+00
 -1      3336 1.26488E+01 1.02017E+01 0.00000E+00
 -1      3337 1.20772E+01 1.14631E+01 0.00000E+00
 -1      3338 1.33763E+01 1.22006E+01 0.00000E+00
 -1      3339 1.41488E+01 1.02017E+01 0.00000E+00
 -1      3340 1.24785E+02 9.80094E+00 0.00000E+00
 -1      3341 1.28003E+02 1.00661E+01 0.00000E+00
 -1      3342 1.17917E+02 3.65761E+01 0.00000E+00
 -1      3343 1.32009E+02 1.06669E+01 0.00000E+00
 -1      3344 1.23285E+02 9.81220E+00 0.00000E+00
 -1      3345 1.16910E+01 2.42375E+01 0.00000E+00
 -1      3346 1.16910E+01 2.57125E+01 0.00000E+00
 -1      3347 1.29900E+01 2.35000E+01 0.00000E+00
 -1      3348 1.34259E+02 1.19659E+01 0.00000E+00
 -1      3349 1.34738E+02 1.29134E+01 0.00000E+00
 -1      3350 1.09407E+02 2.55178E+01 0.00000E+00
 -1      3351 1.10174E+02 2.45678E+01 0.00000E+00
 -1      3352 1.22477E+02 1.04817E+01 0.00000E+00
 -1      3353 1.12067E+02 1.71915E+01 0.00000E+00
 -1      3354 1.16299E+01 3.74672E+01 0.00000E+00
 -1      3355 1.16783E+01 3.85855E+01 0.00000E+00
 -1      3356 1.28194E+01 3.85536E+01 0.00000E+00
 -1      3357 1.16910E+01 3.30594E+01 0.00000E+00
 -1      3358 1.16910E+01 3.45281E+01 0.00000E+00
 -1      3359 1.34579E+02 3.47446E+01 0.00000E+00
 -1      3360 1.16910E+01 1.54063E+01 0.00000E+00
 -1      3361 1.16910E+01 1.68750E+01 0.00000E+00
 -1      3362 1.29900E+01 1.46687E+01 0.00000E+00
 -1      3363 1.33509E+02 1.06669E+01 0.00000E+00
 -1      3364 1.38725E+02 1.71177E+01 0.00000E+00
 -1      3365 1.38725E+02 1.56552E+01 0.00000E+00
 -1      3366 1.29073E+02 3.78534E+01 0.00000E+00
 -1      3367 1.38866E+02 2.37027E+01 0.00000E+00
 -1      3368 1.38942E+02 2.30699E+01 0.00000E+00
 -1      3369 2.95350E+01 1.18003E+01 0.00000E+00
 -1      3370 2.87850E+01 1.05013E+01 0.00000E+00
 -1      3371 2.72850E+01 1.05013E+01 0.00000E+00
 -1      3372 1.13783E+02 1.27480E+01 0.00000E+00
 -1      3373 1.18650E+02 1.02763E+01 0.00000E+00
 -1      3374 1.17150E+02 1.02763E+01 0.00000E+00
 -1      3375 1.17018E+02 3.56162E+01 0.00000E+00
 -1      3376 1.16910E+01 1.83469E+01 0.00000E+00
 -1      3377 1.16910E+01 1.98156E+01 0.00000E+00
 -1      3378 1.29900E+01 2.05531E+01 0.00000E+00
 -1      3379 1.29900E+01 1.76094E+01 0.00000E+00
 -1      3380 1.32102E+02 3.64710E+01 0.00000E+00
 -1      3381 1.38912E+02 1.98236E+01 0.00000E+00
 -1      3382 1.38870E+02 1.83486E+01 0.00000E+00
 -1      3383 1.11237E+02 2.01585E+01 0.00000E+00
 -1      3384 1.10523E+02 1.92665E+01 0.00000E+00
 -1      3385 1.10433E+02 2.33746E+01 0.00000E+00
 -1      3386 2.42850E+01 1.05013E+01 0.00000E+00
 -1      3387 2.35350E+01 1.18003E+01 0.00000E+00
 -1      3388 2.57850E+01 1.05013E+01 0.00000E+00
 -1      3389 1.10977E+02 2.13517E+01 0.00000E+00
 -1      3390 1.38901E+02 2.15949E+01 0.00000E+00
 -1      3391 1.14951E+02 3.29573E+01 0.00000E+00
 -1      3392 1.13855E+02 3.25806E+01 0.00000E+00
 -1      3393 1.15175E+02 3.38468E+01 0.00000E+00
 -1      3394 1.36838E+02 1.51233E+01 0.00000E+00
 -1      3395 1.19618E+02 1.07535E+01 0.00000E+00
 -1      3396 1.12420E+02 3.16314E+01 0.00000E+00
 -1      3397 1.12229E+02 3.08054E+01 0.00000E+00
 -1      3398 1.11018E+02 3.07457E+01 0.00000E+00
 -1      3399 1.69669E+01 1.03515E+01 0.00000E+00
 -1      3400 1.54669E+01 1.03515E+01 0.00000E+00
 -1      3401 1.50806E+01 1.13509E+01 0.00000E+00
 -1      3402 1.77169E+01 1.16505E+01 0.00000E+00
 -1      3403 1.10324E+02 2.82783E+01 0.00000E+00
 -1      3404 1.37744E+02 3.16832E+01 0.00000E+00
 -1      3405 1.16910E+01 3.15906E+01 0.00000E+00
 -1      3406 1.29900E+01 3.23250E+01 0.00000E+00
 -1      3407 1.16910E+01 3.01219E+01 0.00000E+00
 -1      3408 1.38263E+02 2.08994E+01 0.00000E+00
 -1      3409 1.20600E+02 9.92280E+00 0.00000E+00
 -1      3410 1.20684E+02 1.14740E+01 0.00000E+00
 -1      3411 1.39605E+01 3.85216E+01 0.00000E+00
 -1      3412 1.47105E+01 3.72226E+01 0.00000E+00
 -1      3413 1.15815E+01 3.63489E+01 0.00000E+00
 -1      3414 1.16647E+02 1.25230E+01 0.00000E+00
 -1      3415 2.34000E+01 3.57110E+01 0.00000E+00
 -1      3416 2.49000E+01 3.57110E+01 0.00000E+00
 -1      3417 2.64000E+01 3.57110E+01 0.00000E+00
 -1      3418 2.79000E+01 3.57110E+01 0.00000E+00
 -1      3419 2.56500E+01 3.44120E+01 0.00000E+00
 -1      3420 2.94000E+01 3.57110E+01 0.00000E+00
 -1      3421 3.09000E+01 3.57110E+01 0.00000E+00
 -1      3422 2.86500E+01 3.44120E+01 0.00000E+00
 -1      3423 3.24000E+01 3.57110E+01 0.00000E+00
 -1      3424 3.39000E+01 3.57110E+01 0.00000E+00
 -1      3425 3.16500E+01 3.44120E+01 0.00000E+00
 -1      3426 3.54000E+01 3.57110E+01 0.00000E+00
 -1      3427 3.69000E+01 3.57110E+01 0.00000E+00
 -1      3428 3.46500E+01 3.44120E+01 0.00000E+00
 -1      3429 3.84000E+01 3.57110E+01 0.00000E+00
 -1      3430 3.99000E+01 3.57110E+01 0.00000E+00
 -1      3431 3.76500E+01 3.44120E+01 0.00000E+00
 -1      3432 4.14000E+01 3.57110E+01 0.00000E+00
 -1      3433 4.29000E+01 3.57110E+01 0.00000E+00
 -1      3434 4.06500E+01 3.44120E+01 0.00000E+00
 -1      3435 4.44000E+01 3.57110E+01 0.00000E+00
 -1      3436 4.59000E+01 3.57110E+01 0.00000E+00
 -1      3437 4.36500E+01 3.44120E+01 0.00000E+00
 -1      3438 4.74000E+01 3.57110E+01 0.00000E+00
 -1      3439 4.89000E+01 3.57110E+01 0.00000E+00
 -1      3440 4.66500E+01 3.44120E+01 0.00000E+00
 -1      3441 5.04000E+01 3.57110E+01 0.00000E+00
 -1      3442 5.19000E+01 3.57110E+01 0.00000E+00
 -1      3443 4.96500E+01 3.44120E+01 0.00000E+00
 -1      3444 5.34000E+01 3.57110E+01 0.00000E+00
 -1      3445 5.49000E+01 3.57110E+01 0.00000E+00
 -1      3446 5.26500E+01 3.44120E+01 0.00000E+00
 -1      3447 5.64000E+01 3.57110E+01 0.00000E+00
 -1      3448 5.79000E+01 3.57110E+01 0.00000E+00
 -1      3449 5.56500E+01 3.44120E+01 0.00000E+00
 -1      3450 5.94000E+01 3.57110E+01 0.00000E+00
 -1      3451 6.09000E+01 3.57110E+01 0.00000E+00
 -1      3452 5.86500E+01 3.44120E+01 0.00000E+00
 -1      3453 6.24000E+01 3.57110E+01 0.00000E+00
 -1      3454 6.39000E+01 3.57110E+01 0.00000E+00
 -1      3455 6.16500E+01 3.44120E+01 0.00000E+00
 -1      3456 6.54000E+01 3.57110E+01 0.00000E+00
 -1      3457 6.69000E+01 3.57110E+01 0.00000E+00
 -1      3458 6.46500E+01 3.44120E+01 0.00000E+00
 -1      3459 6.84000E+01 3.57110E+01 0.00000E+00
 -1      3460 6.99000E+01 3.57110E+01 0.00000E+00
 -1      3461 6.76500E+01 3.44120E+01 0.00000E+00
 -1      3462 7.14000E+01 3.57110E+01 0.00000E+00
 -1      3463 7.29000E+01 3.57110E+01 0.00000E+00
 -1      3464 7.06500E+01 3.44120E+01 0.00000E+00
 -1      3465 7.44000E+01 3.57110E+01 0.00000E+00
 -1      3466 7.59000E+01 3.57110E+01 0.00000E+00
 -1      3467 7.36500E+01 3.44120E+01 0.00000E+00
 -1      3468 7.74000E+01 3.57110E+01 0.00000E+00
 -1      3469 7.89000E+01 3.57110E+01 0.00000E+00
 -1      3470 7.66500E+01 3.44120E+01 0.00000E+00
 -1      3471 8.04000E+01 3.57110E+01 0.00000E+00
 -1      3472 8.19000E+01 3.57110E+01 0.00000E+00
 -1      3473 7.96500E+01 3.44120E+01 0.00000E+00
 -1      3474 8.34000E+01 3.57110E+01 0.00000E+00
 -1      3475 8.49000E+01 3.57110E+01 0.00000E+00
 -1      3476 8.26500E+01 3.44120E+01 0.00000E+00
 -1      3477 8.64000E+01 3.57110E+01 0.00000E+00
 -1      3478 8.79000E+01 3.57110E+01 0.00000E+00
 -1      3479 8.56500E+01 3.44120E+01 0.00000E+00
 -1      3480 8.94000E+01 3.57110E+01 0.00000E+00
 -1      3481 9.09000E+01 3.57110E+01 0.00000E+00
 -1      3482 8.86500E+01 3.44120E+01 0.00000E+00
 -1      3483 9.24000E+01 3.57110E+01 0.00000E+00
 -1      3484 9.39000E+01 3.57110E+01 0.00000E+00
 -1      3485 9.16500E+01 3.44120E+01 0.00000E+00
 -1      3486 9.54000E+01 3.57110E+01 0.00000E+00
 -1      3487 9.69000E+01 3.57110E+01 0.00000E+00
 -1      3488 9.46500E+01 3.44120E+01 0.00000E+00
 -1      3489 9.84000E+01 3.57110E+01 0.00000E+00
 -1      3490 9.99000E+01 3.57110E+01 0.00000E+00
 -1      3491 9.76500E+01 3.44120E+01 0.00000E+00
 -1      3492 1.01400E+02 3.57110E+01 0.00000E+00
 -1      3493 1.02900E+02 3.57110E+01 0.00000E+00
 -1      3494 1.00650E+02 3.44120E+01 0.00000E+00
 -1      3495 1.04400E+02 3.57110E+01 0.00000E+00
 -1      3496 1.05900E+02 3.57110E+01 0.00000E+00
 -1      3497 1.03650E+02 3.44120E+01 0.00000E+00
 -1      3498 1.07400E+02 3.57110E+01 0.00000E+00
 -1      3499 1.08900E+02 3.57110E+01 0.00000E+00
 -1      3500 1.06650E+02 3.44120E+01 0.00000E+00
 -1      3501 1.10400E+02 3.57110E+01 0.00000E+00
 -1      3502 1.11900E+02 3.57110E+01 0.00000E+00
 -1      3503 1.09650E+02 3.44120E+01 0.00000E+00
 -1      3504 1.28805E+01 3.56145E+01 0.00000E+00
 -1      3505 4.52850E+01 1.30992E+01 0.00000E+00
 -1      3506 4.37850E+01 1.30992E+01 0.00000E+00
 -1      3507 4.22850E+01 1.30992E+01 0.00000E+00
 -1      3508 4.07850E+01 1.30992E+01 0.00000E+00
 -1      3509 4.30350E+01 1.43982E+01 0.00000E+00
 -1      3510 5.12850E+01 1.30992E+01 0.00000E+00
 -1      3511 4.97850E+01 1.30992E+01 0.00000E+00
 -1      3512 5.42850E+01 1.30992E+01 0.00000E+00
 -1      3513 5.27850E+01 1.30992E+01 0.00000E+00
 -1      3514 5.20350E+01 1.43982E+01 0.00000E+00
 -1      3515 5.72850E+01 1.30992E+01 0.00000E+00
 -1      3516 5.57850E+01 1.30992E+01 0.00000E+00
 -1      3517 5.50350E+01 1.43982E+01 0.00000E+00
 -1      3518 6.02850E+01 1.30992E+01 0.00000E+00
 -1      3519 5.87850E+01 1.30992E+01 0.00000E+00
 -1      3520 5.80350E+01 1.43982E+01 0.00000E+00
 -1      3521 6.32850E+01 1.30992E+01 0.00000E+00
 -1      3522 6.17850E+01 1.30992E+01 0.00000E+00
 -1      3523 6.10350E+01 1.43982E+01 0.00000E+00
 -1      3524 6.62850E+01 1.30992E+01 0.00000E+00
 -1      3525 6.47850E+01 1.30992E+01 0.00000E+00
 -1      3526 6.40350E+01 1.43982E+01 0.00000E+00
 -1      3527 6.92850E+01 1.30992E+01 0.00000E+00
 -1      3528 6.77850E+01 1.30992E+01 0.00000E+00
 -1      3529 6.70350E+01 1.43982E+01 0.00000E+00
 -1      3530 7.22850E+01 1.30992E+01 0.00000E+00
 -1      3531 7.07850E+01 1.30992E+01 0.00000E+00
 -1      3532 7.00350E+01 1.43982E+01 0.00000E+00
 -1      3533 7.52850E+01 1.30992E+01 0.00000E+00
 -1      3534 7.37850E+01 1.30992E+01 0.00000E+00
 -1      3535 7.30350E+01 1.43982E+01 0.00000E+00
 -1      3536 7.82850E+01 1.30992E+01 0.00000E+00
 -1      3537 7.67850E+01 1.30992E+01 0.00000E+00
 -1      3538 7.60350E+01 1.43982E+01 0.00000E+00
 -1      3539 8.12850E+01 1.30992E+01 0.00000E+00
 -1      3540 7.97850E+01 1.30992E+01 0.00000E+00
 -1      3541 7.90350E+01 1.43982E+01 0.00000E+00
 -1      3542 8.42850E+01 1.30992E+01 0.00000E+00
 -1      3543 8.27850E+01 1.30992E+01 0.00000E+00
 -1      3544 8.20350E+01 1.43982E+01 0.00000E+00
 -1      3545 8.72850E+01 1.30992E+01 0.00000E+00
 -1      3546 8.57850E+01 1.30992E+01 0.00000E+00
 -1      3547 8.50350E+01 1.43982E+01 0.00000E+00
 -1      3548 9.02850E+01 1.30992E+01 0.00000E+00
 -1      3549 8.87850E+01 1.30992E+01 0.00000E+00
 -1      3550 8.80350E+01 1.43982E+01 0.00000E+00
 -1      3551 9.32850E+01 1.30992E+01 0.00000E+00
 -1      3552 9.17850E+01 1.30992E+01 0.00000E+00
 -1      3553 9.10350E+01 1.43982E+01 0.00000E+00
 -1      3554 9.62850E+01 1.30992E+01 0.00000E+00
 -1      3555 9.47850E+01 1.30992E+01 0.00000E+00
 -1      3556 9.40350E+01 1.43982E+01 0.00000E+00
 -1      3557 9.92850E+01 1.30992E+01 0.00000E+00
 -1      3558 9.77850E+01 1.30992E+01 0.00000E+00
 -1      3559 9.70350E+01 1.43982E+01 0.00000E+00
 -1      3560 1.02285E+02 1.30992E+01 0.00000E+00
 -1      3561 1.00785E+02 1.30992E+01 0.00000E+00
 -1      3562 1.00035E+02 1.43982E+01 0.00000E+00
 -1      3563 1.05285E+02 1.30992E+01 0.00000E+00
 -1      3564 1.03785E+02 1.30992E+01 0.00000E+00
 -1      3565 1.03035E+02 1.43982E+01 0.00000E+00
 -1      3566 1.08285E+02 1.30992E+01 0.00000E+00
 -1      3567 1.06785E+02 1.30992E+01 0.00000E+00
 -1      3568 1.06035E+02 1.43982E+01 0.00000E+00
 -1      3569 1.11285E+02 1.30992E+01 0.00000E+00
 -1      3570 1.09785E+02 1.30992E+01 0.00000E+00
 -1      3571 1.09035E+02 1.43982E+01 0.00000E+00
 -1      3572 1.15961E+02 3.56167E+01 0.00000E+00
 -1      3573 1.10751E+02 1.62891E+01 0.00000E+00
 -1      3574 1.11852E+02 1.53006E+01 0.00000E+00
 -1      3575 2.12850E+01 1.30992E+01 0.00000E+00
 -1      3576 1.97850E+01 1.30992E+01 0.00000E+00
 -1      3577 1.33602E+02 3.64710E+01 0.00000E+00
 -1      3578 1.35956E+02 1.27082E+01 0.00000E+00
 -1      3579 1.38776E+02 1.33596E+01 0.00000E+00
 -1      3580 1.09435E+02 2.94485E+01 0.00000E+00
 -1      3581 1.08932E+02 2.78071E+01 0.00000E+00
 -1      3582 1.09274E+02 1.93908E+01 0.00000E+00
 -1      3583 1.09718E+02 1.83043E+01 0.00000E+00
 -1      3584 1.09536E+02 2.23760E+01 0.00000E+00
 -1      3585 1.36295E+02 3.20000E+01 0.00000E+00
 -1      3586 1.35832E+02 3.23763E+01 0.00000E+00
 -1      3587 4.82850E+01 1.30992E+01 0.00000E+00
 -1      3588 4.67850E+01 1.30992E+01 0.00000E+00
 -1      3589 4.60350E+01 1.43982E+01 0.00000E+00
 -1      3590 4.90350E+01 1.43982E+01 0.00000E+00
 -1      3591 1.13033E+02 1.40470E+01 0.00000E+00
 -1      3592 1.37242E+02 3.56957E+01 0.00000E+00
 -1      3593 3.32850E+01 1.30992E+01 0.00000E+00
 -1      3594 3.17850E+01 1.30992E+01 0.00000E+00
 -1      3595 1.36888E+02 1.28277E+01 0.00000E+00
 -1      3596 1.37765E+02 1.41931E+01 0.00000E+00
 -1      3597 1.14865E+02 3.52400E+01 0.00000E+00
 -1      3598 1.34910E+02 3.64869E+01 0.00000E+00
 -1      3599 1.08187E+02 2.34366E+01 0.00000E+00
 -1      3600 1.08731E+02 2.14137E+01 0.00000E+00
 -1      3601 1.07926E+02 2.04514E+01 0.00000E+00
 -1      3602 1.16910E+01 2.71844E+01 0.00000E+00
 -1      3603 1.16910E+01 2.86531E+01 0.00000E+00
 -1      3604 1.29900E+01 2.93875E+01 0.00000E+00
 -1      3605 1.74000E+01 3.57110E+01 0.00000E+00
 -1      3606 1.89000E+01 3.57110E+01 0.00000E+00
 -1      3607 2.04000E+01 3.57110E+01 0.00000E+00
 -1      3608 2.19000E+01 3.57110E+01 0.00000E+00
 -1      3609 2.26500E+01 3.44120E+01 0.00000E+00
 -1      3610 1.14349E+02 1.49493E+01 0.00000E+00
 -1      3611 1.08518E+02 2.66881E+01 0.00000E+00
 -1      3612 1.08104E+02 2.55691E+01 0.00000E+00
 -1      3613 1.07629E+02 2.78583E+01 0.00000E+00
 -1      3614 1.48200E+01 3.54019E+01 0.00000E+00
 -1      3615 1.22043E+02 1.12135E+01 0.00000E+00
 -1      3616 1.42800E+01 3.32139E+01 0.00000E+00
 -1      3617 1.61100E+01 3.48221E+01 0.00000E+00
 -1      3618 1.68600E+01 3.35231E+01 0.00000E+00
 -1      3619 1.42800E+01 3.17452E+01 0.00000E+00
 -1      3620 2.42850E+01 1.30992E+01 0.00000E+00
 -1      3621 2.27850E+01 1.30992E+01 0.00000E+00
 -1      3622 2.20350E+01 1.43982E+01 0.00000E+00
 -1      3623 1.22100E+02 9.91154E+00 0.00000E+00
 -1      3624 1.35934E+02 3.56797E+01 0.00000E+00
 -1      3625 1.42890E+01 1.39344E+01 0.00000E+00
 -1      3626 1.42890E+01 1.54031E+01 0.00000E+00
 -1      3627 1.12615E+02 3.39410E+01 0.00000E+00
 -1      3628 1.13365E+02 3.52400E+01 0.00000E+00
 -1      3629 3.02850E+01 1.30992E+01 0.00000E+00
 -1      3630 2.87850E+01 1.30992E+01 0.00000E+00
 -1      3631 3.10350E+01 1.43982E+01 0.00000E+00
 -1      3632 1.29900E+01 2.64469E+01 0.00000E+00
 -1      3633 4.00350E+01 1.43982E+01 0.00000E+00
 -1      3634 3.92850E+01 1.30992E+01 0.00000E+00
 -1      3635 3.77850E+01 1.30992E+01 0.00000E+00
 -1      3636 1.09817E+02 3.11005E+01 0.00000E+00
 -1      3637 1.09626E+02 3.02745E+01 0.00000E+00
 -1      3638 1.08234E+02 2.98033E+01 0.00000E+00
 -1      3639 2.65350E+01 1.18003E+01 0.00000E+00
 -1      3640 1.09484E+02 1.72967E+01 0.00000E+00
 -1      3641 1.09269E+02 1.54058E+01 0.00000E+00
 -1      3642 1.07769E+02 1.54058E+01 0.00000E+00
 -1      3643 1.08236E+02 1.74210E+01 0.00000E+00
 -1      3644 1.90350E+01 1.43983E+01 0.00000E+00
 -1      3645 1.82850E+01 1.30993E+01 0.00000E+00
 -1      3646 1.07299E+02 2.46068E+01 0.00000E+00
 -1      3647 1.06494E+02 2.36446E+01 0.00000E+00
 -1      3648 1.06410E+02 2.57771E+01 0.00000E+00
 -1      3649 1.69669E+01 1.29495E+01 0.00000E+00
 -1      3650 3.47850E+01 1.30992E+01 0.00000E+00
 -1      3651 3.40350E+01 1.43982E+01 0.00000E+00
 -1      3652 3.62850E+01 1.30992E+01 0.00000E+00
 -1      3653 1.42890E+01 1.98172E+01 0.00000E+00
 -1      3654 1.42890E+01 2.12891E+01 0.00000E+00
 -1      3655 1.96500E+01 3.44120E+01 0.00000E+00
 -1      3656 1.42890E+01 2.27641E+01 0.00000E+00
 -1      3657 1.42890E+01 2.42391E+01 0.00000E+00
 -1      3658 1.55880E+01 2.20281E+01 0.00000E+00
 -1      3659 1.42890E+01 1.68742E+01 0.00000E+00
 -1      3660 1.42890E+01 1.83461E+01 0.00000E+00
 -1      3661 1.55880E+01 1.90820E+01 0.00000E+00
 -1      3662 1.55880E+01 1.61398E+01 0.00000E+00
 -1      3663 2.49000E+01 3.31130E+01 0.00000E+00
 -1      3664 2.64000E+01 3.31130E+01 0.00000E+00
 -1      3665 1.46944E+01 1.23503E+01 0.00000E+00
 -1      3666 1.59934E+01 1.30847E+01 0.00000E+00
 -1      3667 2.79000E+01 3.31130E+01 0.00000E+00
 -1      3668 2.94000E+01 3.31130E+01 0.00000E+00
 -1      3669 2.71500E+01 3.18140E+01 0.00000E+00
 -1      3670 3.09000E+01 3.31130E+01 0.00000E+00
 -1      3671 3.24000E+01 3.31130E+01 0.00000E+00
 -1      3672 3.01500E+01 3.18140E+01 0.00000E+00
 -1      3673 3.39000E+01 3.31130E+01 0.00000E+00
 -1      3674 3.54000E+01 3.31130E+01 0.00000E+00
 -1      3675 3.31500E+01 3.18140E+01 0.00000E+00
 -1      3676 3.69000E+01 3.31130E+01 0.00000E+00
 -1      3677 3.84000E+01 3.31130E+01 0.00000E+00
 -1      3678 3.61500E+01 3.18140E+01 0.00000E+00
 -1      3679 3.99000E+01 3.31130E+01 0.00000E+00
 -1      3680 4.14000E+01 3.31130E+01 0.00000E+00
 -1      3681 3.91500E+01 3.18140E+01 0.00000E+00
 -1      3682 4.29000E+01 3.31130E+01 0.00000E+00
 -1      3683 4.44000E+01 3.31130E+01 0.00000E+00
 -1      3684 4.21500E+01 3.18140E+01 0.00000E+00
 -1      3685 4.59000E+01 3.31130E+01 0.00000E+00
 -1      3686 4.74000E+01 3.31130E+01 0.00000E+00
 -1      3687 4.51500E+01 3.18140E+01 0.00000E+00
 -1      3688 4.89000E+01 3.31130E+01 0.00000E+00
 -1      3689 5.04000E+01 3.31130E+01 0.00000E+00
 -1      3690 4.81500E+01 3.18140E+01 0.00000E+00
 -1      3691 5.19000E+01 3.31130E+01 0.00000E+00
 -1      3692 5.34000E+01 3.31130E+01 0.00000E+00
 -1      3693 5.11500E+01 3.18140E+01 0.00000E+00
 -1      3694 5.49000E+01 3.31130E+01 0.00000E+00
 -1      3695 5.64000E+01 3.31130E+01 0.00000E+00
 -1      3696 5.41500E+01 3.18140E+01 0.00000E+00
 -1      3697 5.79000E+01 3.31130E+01 0.00000E+00
 -1      3698 5.94000E+01 3.31130E+01 0.00000E+00
 -1      3699 5.71500E+01 3.18140E+01 0.00000E+00
 -1      3700 6.09000E+01 3.31130E+01 0.00000E+00
 -1      3701 6.24000E+01 3.31130E+01 0.00000E+00
 -1      3702 6.01500E+01 3.18140E+01 0.00000E+00
 -1      3703 6.39000E+01 3.31130E+01 0.00000E+00
 -1      3704 6.54000E+01 3.31130E+01 0.00000E+00
 -1      3705 6.31500E+01 3.18140E+01 0.00000E+00
 -1      3706 6.69000E+01 3.31130E+01 0.00000E+00
 -1      3707 6.84000E+01 3.31130E+01 0.00000E+00
 -1      3708 6.61500E+01 3.18140E+01 0.00000E+00
 -1      3709 6.99000E+01 3.31130E+01 0.00000E+00
 -1      3710 7.14000E+01 3.31130E+01 0.00000E+00
 -1      3711 6.91500E+01 3.18140E+01 0.00000E+00
 -1      3712 7.29000E+01 3.31130E+01 0.00000E+00
 -1      3713 7.44000E+01 3.31130E+01 0.00000E+00
 -1      3714 7.21500E+01 3.18140E+01 0.00000E+00
 -1      3715 7.59000E+01 3.31130E+01 0.00000E+00
 -1      3716 7.74000E+01 3.31130E+01 0.00000E+00
 -1      3717 7.51500E+01 3.18140E+01 0.00000E+00
 -1      3718 7.89000E+01 3.31130E+01 0.00000E+00
 -1      3719 8.04000E+01 3.31130E+01 0.00000E+00
 -1      3720 7.81500E+01 3.18140E+01 0.00000E+00
 -1      3721 8.19000E+01 3.31130E+01 0.00000E+00
 -1      3722 8.34000E+01 3.31130E+01 0.00000E+00
 -1      3723 8.11500E+01 3.18140E+01 0.00000E+00
 -1      3724 8.49000E+01 3.31130E+01 0.00000E+00
 -1      3725 8.64000E+01 3.31130E+01 0.00000E+00
 -1      3726 8.41500E+01 3.18140E+01 0.00000E+00
 -1      3727 8.79000E+01 3.31130E+01 0.00000E+00
 -1      3728 8.94000E+01 3.31130E+01 0.00000E+00
 -1      3729 8.71500E+01 3.18140E+01 0.00000E+00
 -1      3730 9.09000E+01 3.31130E+01 0.00000E+00
 -1      3731 9.24000E+01 3.31130E+01 0.00000E+00
 -1      3732 9.01500E+01 3.18140E+01 0.00000E+00
 -1      3733 9.39000E+01 3.31130E+01 0.00000E+00
 -1      3734 9.54000E+01 3.31130E+01 0.00000E+00
 -1      3735 9.31500E+01 3.18140E+01 0.00000E+00
 -1      3736 9.69000E+01 3.31130E+01 0.00000E+00
 -1      3737 9.84000E+01 3.31130E+01 0.00000E+00
 -1      3738 9.61500E+01 3.18140E+01 0.00000E+00
 -1      3739 9.99000E+01 3.31130E+01 0.00000E+00
 -1      3740 1.01400E+02 3.31130E+01 0.00000E+00
 -1      3741 9.91500E+01 3.18140E+01 0.00000E+00
 -1      3742 1.02900E+02 3.31130E+01 0.00000E+00
 -1      3743 1.04400E+02 3.31130E+01 0.00000E+00
 -1      3744 1.02150E+02 3.18140E+01 0.00000E+00
 -1      3745 1.06787E+02 3.25206E+01 0.00000E+00
 -1      3746 1.08287E+02 3.25206E+01 0.00000E+00
 -1      3747 1.09787E+02 3.25206E+01 0.00000E+00
 -1      3748 4.37850E+01 1.56973E+01 0.00000E+00
 -1      3749 4.22850E+01 1.56973E+01 0.00000E+00
 -1      3750 1.06502E+02 2.11535E+01 0.00000E+00
 -1      3751 1.07046E+02 1.91306E+01 0.00000E+00
 -1      3752 5.57850E+01 1.56973E+01 0.00000E+00
 -1      3753 5.42850E+01 1.56973E+01 0.00000E+00
 -1      3754 5.27850E+01 1.56973E+01 0.00000E+00
 -1      3755 5.12850E+01 1.56973E+01 0.00000E+00
 -1      3756 5.35350E+01 1.69963E+01 0.00000E+00
 -1      3757 6.17850E+01 1.56973E+01 0.00000E+00
 -1      3758 6.02850E+01 1.56973E+01 0.00000E+00
 -1      3759 6.47850E+01 1.56973E+01 0.00000E+00
 -1      3760 6.32850E+01 1.56973E+01 0.00000E+00
 -1      3761 6.25350E+01 1.69963E+01 0.00000E+00
 -1      3762 6.77850E+01 1.56973E+01 0.00000E+00
 -1      3763 6.62850E+01 1.56973E+01 0.00000E+00
 -1      3764 6.55350E+01 1.69963E+01 0.00000E+00
 -1      3765 7.07850E+01 1.56973E+01 0.00000E+00
 -1      3766 6.92850E+01 1.56973E+01 0.00000E+00
 -1      3767 6.85350E+01 1.69963E+01 0.00000E+00
 -1      3768 7.37850E+01 1.56973E+01 0.00000E+00
 -1      3769 7.22850E+01 1.56973E+01 0.00000E+00
 -1      3770 7.15350E+01 1.69963E+01 0.00000E+00
 -1      3771 7.67850E+01 1.56973E+01 0.00000E+00
 -1      3772 7.52850E+01 1.56973E+01 0.00000E+00
 -1      3773 7.45350E+01 1.69963E+01 0.00000E+00
 -1      3774 7.97850E+01 1.56973E+01 0.00000E+00
 -1      3775 7.82850E+01 1.56973E+01 0.00000E+00
 -1      3776 7.75350E+01 1.69963E+01 0.00000E+00
 -1      3777 8.27850E+01 1.56973E+01 0.00000E+00
 -1      3778 8.12850E+01 1.56973E+01 0.00000E+00
 -1      3779 8.05350E+01 1.69963E+01 0.00000E+00
 -1      3780 8.57850E+01 1.56973E+01 0.00000E+00
 -1      3781 8.42850E+01 1.56973E+01 0.00000E+00
 -1      3782 8.35350E+01 1.69963E+01 0.00000E+00
 -1      3783 8.87850E+01 1.56973E+01 0.00000E+00
 -1      3784 8.72850E+01 1.56973E+01 0.00000E+00
 -1      3785 8.65350E+01 1.69963E+01 0.00000E+00
 -1      3786 9.17850E+01 1.56973E+01 0.00000E+00
 -1      3787 9.02850E+01 1.56973E+01 0.00000E+00
 -1      3788 8.95350E+01 1.69963E+01 0.00000E+00
 -1      3789 9.47850E+01 1.56973E+01 0.00000E+00
 -1      3790 9.32850E+01 1.56973E+01 0.00000E+00
 -1      3791 9.25350E+01 1.69963E+01 0.00000E+00
 -1      3792 9.77850E+01 1.56973E+01 0.00000E+00
 -1      3793 9.62850E+01 1.56973E+01 0.00000E+00
 -1      3794 9.55350E+01 1.69963E+01 0.00000E+00
 -1      3795 1.00785E+02 1.56973E+01 0.00000E+00
 -1      3796 9.92850E+01 1.56973E+01 0.00000E+00
 -1      3797 9.85350E+01 1.69963E+01 0.00000E+00
 -1      3798 1.03785E+02 1.56973E+01 0.00000E+00
 -1      3799 1.02285E+02 1.56973E+01 0.00000E+00
 -1      3800 1.01535E+02 1.69963E+01 0.00000E+00
 -1      3801 1.06527E+02 1.55515E+01 0.00000E+00
 -1      3802 1.05027E+02 1.55515E+01 0.00000E+00
 -1      3803 1.04277E+02 1.68505E+01 0.00000E+00
 -1      3804 1.06760E+02 1.65591E+01 0.00000E+00
 -1      3805 1.97850E+01 1.56973E+01 0.00000E+00
 -1      3806 1.82851E+01 1.56973E+01 0.00000E+00
 -1      3807 1.42800E+01 2.88077E+01 0.00000E+00
 -1      3808 1.42800E+01 3.02764E+01 0.00000E+00
 -1      3809 1.55700E+01 3.11654E+01 0.00000E+00
 -1      3810 2.72850E+01 1.30992E+01 0.00000E+00
 -1      3811 2.57850E+01 1.30992E+01 0.00000E+00
 -1      3812 2.50350E+01 1.43982E+01 0.00000E+00
 -1      3813 1.89000E+01 3.31130E+01 0.00000E+00
 -1      3814 2.04000E+01 3.31130E+01 0.00000E+00
 -1      3815 1.42890E+01 2.57109E+01 0.00000E+00
 -1      3816 1.42890E+01 2.71828E+01 0.00000E+00
 -1      3817 1.55880E+01 2.49750E+01 0.00000E+00
 -1      3818 2.19000E+01 3.31130E+01 0.00000E+00
 -1      3819 2.34000E+01 3.31130E+01 0.00000E+00
 -1      3820 2.41500E+01 3.18140E+01 0.00000E+00
 -1      3821 1.12390E+02 3.30515E+01 0.00000E+00
 -1      3822 1.11179E+02 3.29919E+01 0.00000E+00
 -1      3823 1.06618E+02 2.88687E+01 0.00000E+00
 -1      3824 1.06204E+02 2.77497E+01 0.00000E+00
 -1      3825 1.38159E+02 3.26668E+01 0.00000E+00
 -1      3826 5.87850E+01 1.56973E+01 0.00000E+00
 -1      3827 5.72850E+01 1.56973E+01 0.00000E+00
 -1      3828 5.95350E+01 1.69963E+01 0.00000E+00
 -1      3829 1.65615E+01 1.45335E+01 0.00000E+00
 -1      3830 1.74233E+01 1.58509E+01 0.00000E+00
 -1      3831 1.64498E+01 1.59862E+01 0.00000E+00
 -1      3832 1.64498E+01 1.74573E+01 0.00000E+00
 -1      3833 1.81733E+01 1.71499E+01 0.00000E+00
 -1      3834 5.65350E+01 1.69963E+01 0.00000E+00
 -1      3835 4.15350E+01 1.69963E+01 0.00000E+00
 -1      3836 4.07850E+01 1.56973E+01 0.00000E+00
 -1      3837 3.92850E+01 1.56973E+01 0.00000E+00
 -1      3838 1.06037E+02 3.12216E+01 0.00000E+00
 -1      3839 4.52850E+01 1.56973E+01 0.00000E+00
 -1      3840 4.45350E+01 1.69963E+01 0.00000E+00
 -1      3841 4.67850E+01 1.56973E+01 0.00000E+00
 -1      3842 2.12850E+01 1.56973E+01 0.00000E+00
 -1      3843 2.05351E+01 1.69963E+01 0.00000E+00
 -1      3844 2.27850E+01 1.56973E+01 0.00000E+00
 -1      3845 1.55790E+01 2.80718E+01 0.00000E+00
 -1      3846 1.05613E+02 2.23237E+01 0.00000E+00
 -1      3847 1.04733E+02 2.10028E+01 0.00000E+00
 -1      3848 1.04725E+02 2.34940E+01 0.00000E+00
 -1      3849 1.06994E+02 1.75667E+01 0.00000E+00
 -1      3850 1.05399E+02 2.67875E+01 0.00000E+00
 -1      3851 1.04594E+02 2.58252E+01 0.00000E+00
 -1      3852 1.04387E+02 2.77978E+01 0.00000E+00
 -1      3853 1.05570E+02 1.82687E+01 0.00000E+00
 -1      3854 4.97850E+01 1.56973E+01 0.00000E+00
 -1      3855 4.82850E+01 1.56973E+01 0.00000E+00
 -1      3856 4.75350E+01 1.69963E+01 0.00000E+00
 -1      3857 2.80350E+01 1.43982E+01 0.00000E+00
 -1      3858 1.76100E+01 3.22241E+01 0.00000E+00
 -1      3859 3.70350E+01 1.43982E+01 0.00000E+00
 -1      3860 1.68870E+01 2.12906E+01 0.00000E+00
 -1      3861 1.68870E+01 2.27656E+01 0.00000E+00
 -1      3862 3.17850E+01 1.56973E+01 0.00000E+00
 -1      3863 3.02850E+01 1.56973E+01 0.00000E+00
 -1      3864 1.36157E+02 3.34605E+01 0.00000E+00
 -1      3865 2.11500E+01 3.18140E+01 0.00000E+00
 -1      3866 3.47850E+01 1.56973E+01 0.00000E+00
 -1      3867 3.32850E+01 1.56973E+01 0.00000E+00
 -1      3868 3.25350E+01 1.69963E+01 0.00000E+00
 -1      3869 1.66684E+01 1.86384E+01 0.00000E+00
 -1      3870 1.66684E+01 2.01095E+01 0.00000E+00
 -1      3871 1.79674E+01 2.08470E+01 0.00000E+00
 -1      3872 1.75301E+01 1.84847E+01 0.00000E+00
 -1      3873 5.05350E+01 1.69963E+01 0.00000E+00
 -1      3874 5.12850E+01 1.82952E+01 0.00000E+00
 -1      3875 4.97850E+01 1.82952E+01 0.00000E+00
 -1      3876 2.34000E+01 3.05150E+01 0.00000E+00
 -1      3877 2.49000E+01 3.05150E+01 0.00000E+00
 -1      3878 2.94000E+01 3.05150E+01 0.00000E+00
 -1      3879 3.09000E+01 3.05150E+01 0.00000E+00
 -1      3880 3.24000E+01 3.05150E+01 0.00000E+00
 -1      3881 3.39000E+01 3.05150E+01 0.00000E+00
 -1      3882 3.16500E+01 2.92160E+01 0.00000E+00
 -1      3883 3.54000E+01 3.05150E+01 0.00000E+00
 -1      3884 3.69000E+01 3.05150E+01 0.00000E+00
 -1      3885 3.46500E+01 2.92160E+01 0.00000E+00
 -1      3886 3.84000E+01 3.05150E+01 0.00000E+00
 -1      3887 3.99000E+01 3.05150E+01 0.00000E+00
 -1      3888 3.76500E+01 2.92160E+01 0.00000E+00
 -1      3889 4.14000E+01 3.05150E+01 0.00000E+00
 -1      3890 4.29000E+01 3.05150E+01 0.00000E+00
 -1      3891 4.06500E+01 2.92160E+01 0.00000E+00
 -1      3892 4.44000E+01 3.05150E+01 0.00000E+00
 -1      3893 4.59000E+01 3.05150E+01 0.00000E+00
 -1      3894 4.36500E+01 2.92160E+01 0.00000E+00
 -1      3895 4.74000E+01 3.05150E+01 0.00000E+00
 -1      3896 4.89000E+01 3.05150E+01 0.00000E+00
 -1      3897 4.66500E+01 2.92160E+01 0.00000E+00
 -1      3898 5.04000E+01 3.05150E+01 0.00000E+00
 -1      3899 5.19000E+01 3.05150E+01 0.00000E+00
 -1      3900 4.96500E+01 2.92160E+01 0.00000E+00
 -1      3901 5.34000E+01 3.05150E+01 0.00000E+00
 -1      3902 5.49000E+01 3.05150E+01 0.00000E+00
 -1      3903 5.26500E+01 2.92160E+01 0.00000E+00
 -1      3904 5.64000E+01 3.05150E+01 0.00000E+00
 -1      3905 5.79000E+01 3.05150E+01 0.00000E+00
 -1      3906 5.56500E+01 2.92160E+01 0.00000E+00
 -1      3907 5.94000E+01 3.05150E+01 0.00000E+00
 -1      3908 6.09000E+01 3.05150E+01 0.00000E+00
 -1      3909 5.86500E+01 2.92160E+01 0.00000E+00
 -1      3910 6.24000E+01 3.05150E+01 0.00000E+00
 -1      3911 6.39000E+01 3.05150E+01 0.00000E+00
 -1      3912 6.16500E+01 2.92160E+01 0.00000E+00
 -1      3913 6.54000E+01 3.05150E+01 0.00000E+00
 -1      3914 6.69000E+01 3.05150E+01 0.00000E+00
 -1      3915 6.46500E+01 2.92160E+01 0.00000E+00
 -1      3916 6.84000E+01 3.05150E+01 0.00000E+00
 -1      3917 6.99000E+01 3.05150E+01 0.00000E+00
 -1      3918 6.76500E+01 2.92160E+01 0.00000E+00
 -1      3919 7.14000E+01 3.05150E+01 0.00000E+00
 -1      3920 7.29000E+01 3.05150E+01 0.00000E+00
 -1      3921 7.06500E+01 2.92160E+01 0.00000E+00
 -1      3922 7.44000E+01 3.05150E+01 0.00000E+00
 -1      3923 7.59000E+01 3.05150E+01 0.00000E+00
 -1      3924 7.36500E+01 2.92160E+01 0.00000E+00
 -1      3925 7.74000E+01 3.05150E+01 0.00000E+00
 -1      3926 7.89000E+01 3.05150E+01 0.00000E+00
 -1      3927 7.66500E+01 2.92160E+01 0.00000E+00
 -1      3928 8.04000E+01 3.05150E+01 0.00000E+00
 -1      3929 8.19000E+01 3.05150E+01 0.00000E+00
 -1      3930 7.96500E+01 2.92160E+01 0.00000E+00
 -1      3931 8.34000E+01 3.05150E+01 0.00000E+00
 -1      3932 8.49000E+01 3.05150E+01 0.00000E+00
 -1      3933 8.26500E+01 2.92160E+01 0.00000E+00
 -1      3934 8.64000E+01 3.05150E+01 0.00000E+00
 -1      3935 8.79000E+01 3.05150E+01 0.00000E+00
 -1      3936 8.56500E+01 2.92160E+01 0.00000E+00
 -1      3937 8.94000E+01 3.05150E+01 0.00000E+00
 -1      3938 9.09000E+01 3.05150E+01 0.00000E+00
 -1      3939 8.86500E+01 2.92160E+01 0.00000E+00
 -1      3940 9.24000E+01 3.05150E+01 0.00000E+00
 -1      3941 9.39000E+01 3.05150E+01 0.00000E+00
 -1      3942 9.16500E+01 2.92160E+01 0.00000E+00
 -1      3943 9.54000E+01 3.05150E+01 0.00000E+00
 -1      3944 9.69000E+01 3.05150E+01 0.00000E+00
 -1      3945 9.46500E+01 2.92160E+01 0.00000E+00
 -1      3946 9.84000E+01 3.05150E+01 0.00000E+00
 -1      3947 9.99000E+01 3.05150E+01 0.00000E+00
 -1      3948 9.76500E+01 2.92160E+01 0.00000E+00
 -1      3949 2.87850E+01 1.56973E+01 0.00000E+00
 -1      3950 2.72850E+01 1.56973E+01 0.00000E+00
 -1      3951 2.95350E+01 1.69963E+01 0.00000E+00
 -1      3952 1.81860E+01 2.35000E+01 0.00000E+00
 -1      3953 1.68870E+01 2.42375E+01 0.00000E+00
 -1      3954 1.68870E+01 2.57094E+01 0.00000E+00
 -1      3955 6.92850E+01 1.82952E+01 0.00000E+00
 -1      3956 6.77850E+01 1.82952E+01 0.00000E+00
 -1      3957 6.62850E+01 1.82952E+01 0.00000E+00
 -1      3958 6.47850E+01 1.82952E+01 0.00000E+00
 -1      3959 6.70350E+01 1.95942E+01 0.00000E+00
 -1      3960 6.32850E+01 1.82952E+01 0.00000E+00
 -1      3961 6.17850E+01 1.82952E+01 0.00000E+00
 -1      3962 6.40350E+01 1.95942E+01 0.00000E+00
 -1      3963 7.22850E+01 1.82952E+01 0.00000E+00
 -1      3964 7.07850E+01 1.82952E+01 0.00000E+00
 -1      3965 7.00350E+01 1.95942E+01 0.00000E+00
 -1      3966 7.52850E+01 1.82952E+01 0.00000E+00
 -1      3967 7.37850E+01 1.82952E+01 0.00000E+00
 -1      3968 7.30350E+01 1.95942E+01 0.00000E+00
 -1      3969 7.82850E+01 1.82952E+01 0.00000E+00
 -1      3970 7.67850E+01 1.82952E+01 0.00000E+00
 -1      3971 7.60350E+01 1.95942E+01 0.00000E+00
 -1      3972 8.12850E+01 1.82952E+01 0.00000E+00
 -1      3973 7.97850E+01 1.82952E+01 0.00000E+00
 -1      3974 7.90350E+01 1.95942E+01 0.00000E+00
 -1      3975 8.42850E+01 1.82952E+01 0.00000E+00
 -1      3976 8.27850E+01 1.82952E+01 0.00000E+00
 -1      3977 8.20350E+01 1.95942E+01 0.00000E+00
 -1      3978 8.72850E+01 1.82952E+01 0.00000E+00
 -1      3979 8.57850E+01 1.82952E+01 0.00000E+00
 -1      3980 8.50350E+01 1.95942E+01 0.00000E+00
 -1      3981 9.02850E+01 1.82952E+01 0.00000E+00
 -1      3982 8.87850E+01 1.82952E+01 0.00000E+00
 -1      3983 8.80350E+01 1.95942E+01 0.00000E+00
 -1      3984 9.32850E+01 1.82952E+01 0.00000E+00
 -1      3985 9.17850E+01 1.82952E+01 0.00000E+00
 -1      3986 9.10350E+01 1.95942E+01 0.00000E+00
 -1      3987 9.62850E+01 1.82952E+01 0.00000E+00
 -1      3988 9.47850E+01 1.82952E+01 0.00000E+00
 -1      3989 9.40350E+01 1.95942E+01 0.00000E+00
 -1      3990 9.92850E+01 1.82952E+01 0.00000E+00
 -1      3991 9.77850E+01 1.82952E+01 0.00000E+00
 -1      3992 9.70350E+01 1.95942E+01 0.00000E+00
 -1      3993 1.02285E+02 1.82952E+01 0.00000E+00
 -1      3994 1.00785E+02 1.82952E+01 0.00000E+00
 -1      3995 1.00035E+02 1.95942E+01 0.00000E+00
 -1      3996 1.04329E+02 1.84144E+01 0.00000E+00
 -1      3997 1.76100E+01 3.07553E+01 0.00000E+00
 -1      3998 2.64000E+01 3.05150E+01 0.00000E+00
 -1      3999 2.79000E+01 3.05150E+01 0.00000E+00
 -1      4000 2.56500E+01 2.92160E+01 0.00000E+00
 -1      4001 5.72850E+01 1.82952E+01 0.00000E+00
 -1      4002 5.57850E+01 1.82952E+01 0.00000E+00
 -1      4003 5.42850E+01 1.82952E+01 0.00000E+00
 -1      4004 5.27850E+01 1.82952E+01 0.00000E+00
 -1      4005 5.50350E+01 1.95942E+01 0.00000E+00
 -1      4006 1.71884E+01 2.90730E+01 0.00000E+00
 -1      4007 1.92284E+01 3.01317E+01 0.00000E+00
 -1      4008 2.05642E+01 3.03233E+01 0.00000E+00
 -1      4009 2.20642E+01 3.03233E+01 0.00000E+00
 -1      4010 2.28142E+01 2.90243E+01 0.00000E+00
 -1      4011 2.01425E+01 2.86410E+01 0.00000E+00
 -1      4012 1.71974E+01 2.74481E+01 0.00000E+00
 -1      4013 6.02850E+01 1.82952E+01 0.00000E+00
 -1      4014 5.87850E+01 1.82952E+01 0.00000E+00
 -1      4015 5.80350E+01 1.95942E+01 0.00000E+00
 -1      4016 2.57850E+01 1.56973E+01 0.00000E+00
 -1      4017 2.42850E+01 1.56973E+01 0.00000E+00
 -1      4018 2.35350E+01 1.69963E+01 0.00000E+00
 -1      4019 2.65350E+01 1.69963E+01 0.00000E+00
 -1      4020 3.77850E+01 1.56973E+01 0.00000E+00
 -1      4021 3.62850E+01 1.56973E+01 0.00000E+00
 -1      4022 3.55350E+01 1.69963E+01 0.00000E+00
 -1      4023 3.85350E+01 1.69963E+01 0.00000E+00
 -1      4024 1.03579E+02 1.97134E+01 0.00000E+00
 -1      4025 4.22850E+01 1.82952E+01 0.00000E+00
 -1      4026 4.07850E+01 1.82952E+01 0.00000E+00
 -1      4027 1.84964E+01 2.67106E+01 0.00000E+00
 -1      4028 3.02850E+01 1.82952E+01 0.00000E+00
 -1      4029 2.87850E+01 1.82952E+01 0.00000E+00
 -1      4030 1.01400E+02 3.05150E+01 0.00000E+00
 -1      4031 1.02900E+02 3.05150E+01 0.00000E+00
 -1      4032 1.94850E+01 2.27641E+01 0.00000E+00
 -1      4033 1.94850E+01 2.42359E+01 0.00000E+00
 -1      4034 4.82850E+01 1.82952E+01 0.00000E+00
 -1      4035 4.67850E+01 1.82952E+01 0.00000E+00
 -1      4036 4.90350E+01 1.95942E+01 0.00000E+00
 -1      4037 6.10350E+01 1.95942E+01 0.00000E+00
 -1      4038 1.04421E+02 3.02870E+01 0.00000E+00
 -1      4039 1.06809E+02 2.96947E+01 0.00000E+00
 -1      4040 4.37850E+01 1.82952E+01 0.00000E+00
 -1      4041 4.30350E+01 1.95942E+01 0.00000E+00
 -1      4042 4.52850E+01 1.82952E+01 0.00000E+00
 -1      4043 1.02702E+02 2.55147E+01 0.00000E+00
 -1      4044 1.03714E+02 2.45043E+01 0.00000E+00
 -1      4045 1.02833E+02 2.31835E+01 0.00000E+00
 -1      4046 1.02690E+02 2.08837E+01 0.00000E+00
 -1      4047 1.03671E+02 2.89880E+01 0.00000E+00
 -1      4048 1.02866E+02 2.80258E+01 0.00000E+00
 -1      4049 5.20350E+01 1.95942E+01 0.00000E+00
 -1      4050 1.90478E+01 2.04018E+01 0.00000E+00
 -1      4051 1.92664E+01 2.15829E+01 0.00000E+00
 -1      4052 2.05654E+01 2.23189E+01 0.00000E+00
 -1      4053 1.00650E+02 2.92160E+01 0.00000E+00
 -1      4054 3.32850E+01 1.82952E+01 0.00000E+00
 -1      4055 3.17850E+01 1.82952E+01 0.00000E+00
 -1      4056 3.10350E+01 1.95942E+01 0.00000E+00
 -1      4057 2.86500E+01 2.92160E+01 0.00000E+00
 -1      4058 1.83919E+01 1.83311E+01 0.00000E+00
 -1      4059 2.01130E+01 1.80316E+01 0.00000E+00
 -1      4060 1.94698E+01 1.93664E+01 0.00000E+00
 -1      4061 2.07688E+01 2.01024E+01 0.00000E+00
 -1      4062 2.16130E+01 1.80316E+01 0.00000E+00
 -1      4063 1.96586E+01 2.55691E+01 0.00000E+00
 -1      4064 1.99689E+01 2.73078E+01 0.00000E+00
 -1      4065 2.13048E+01 2.74995E+01 0.00000E+00
 -1      4066 2.09576E+01 2.48332E+01 0.00000E+00
 -1      4067 2.79000E+01 2.79170E+01 0.00000E+00
 -1      4068 2.94000E+01 2.79170E+01 0.00000E+00
 -1      4069 3.39000E+01 2.79170E+01 0.00000E+00
 -1      4070 3.54000E+01 2.79170E+01 0.00000E+00
 -1      4071 3.69000E+01 2.79170E+01 0.00000E+00
 -1      4072 3.84000E+01 2.79170E+01 0.00000E+00
 -1      4073 3.61500E+01 2.66180E+01 0.00000E+00
 -1      4074 3.99000E+01 2.79170E+01 0.00000E+00
 -1      4075 4.14000E+01 2.79170E+01 0.00000E+00
 -1      4076 3.91500E+01 2.66180E+01 0.00000E+00
 -1      4077 4.29000E+01 2.79170E+01 0.00000E+00
 -1      4078 4.44000E+01 2.79170E+01 0.00000E+00
 -1      4079 4.21500E+01 2.66180E+01 0.00000E+00
 -1      4080 4.59000E+01 2.79170E+01 0.00000E+00
 -1      4081 4.74000E+01 2.79170E+01 0.00000E+00
 -1      4082 4.51500E+01 2.66180E+01 0.00000E+00
 -1      4083 4.89000E+01 2.79170E+01 0.00000E+00
 -1      4084 5.04000E+01 2.79170E+01 0.00000E+00
 -1      4085 4.81500E+01 2.66180E+01 0.00000E+00
 -1      4086 5.19000E+01 2.79170E+01 0.00000E+00
 -1      4087 5.34000E+01 2.79170E+01 0.00000E+00
 -1      4088 5.11500E+01 2.66180E+01 0.00000E+00
 -1      4089 5.49000E+01 2.79170E+01 0.00000E+00
 -1      4090 5.64000E+01 2.79170E+01 0.00000E+00
 -1      4091 5.41500E+01 2.66180E+01 0.00000E+00
 -1      4092 5.79000E+01 2.79170E+01 0.00000E+00
 -1      4093 5.94000E+01 2.79170E+01 0.00000E+00
 -1      4094 5.71500E+01 2.66180E+01 0.00000E+00
 -1      4095 6.09000E+01 2.79170E+01 0.00000E+00
 -1      4096 6.24000E+01 2.79170E+01 0.00000E+00
 -1      4097 6.01500E+01 2.66180E+01 0.00000E+00
 -1      4098 6.39000E+01 2.79170E+01 0.00000E+00
 -1      4099 6.54000E+01 2.79170E+01 0.00000E+00
 -1      4100 6.31500E+01 2.66180E+01 0.00000E+00
 -1      4101 6.69000E+01 2.79170E+01 0.00000E+00
 -1      4102 6.84000E+01 2.79170E+01 0.00000E+00
 -1      4103 6.61500E+01 2.66180E+01 0.00000E+00
 -1      4104 6.99000E+01 2.79170E+01 0.00000E+00
 -1      4105 7.14000E+01 2.79170E+01 0.00000E+00
 -1      4106 6.91500E+01 2.66180E+01 0.00000E+00
 -1      4107 7.29000E+01 2.79170E+01 0.00000E+00
 -1      4108 7.44000E+01 2.79170E+01 0.00000E+00
 -1      4109 7.21500E+01 2.66180E+01 0.00000E+00
 -1      4110 7.59000E+01 2.79170E+01 0.00000E+00
 -1      4111 7.74000E+01 2.79170E+01 0.00000E+00
 -1      4112 7.51500E+01 2.66180E+01 0.00000E+00
 -1      4113 7.89000E+01 2.79170E+01 0.00000E+00
 -1      4114 8.04000E+01 2.79170E+01 0.00000E+00
 -1      4115 7.81500E+01 2.66180E+01 0.00000E+00
 -1      4116 8.19000E+01 2.79170E+01 0.00000E+00
 -1      4117 8.34000E+01 2.79170E+01 0.00000E+00
 -1      4118 8.11500E+01 2.66180E+01 0.00000E+00
 -1      4119 8.49000E+01 2.79170E+01 0.00000E+00
 -1      4120 8.64000E+01 2.79170E+01 0.00000E+00
 -1      4121 8.41500E+01 2.66180E+01 0.00000E+00
 -1      4122 8.79000E+01 2.79170E+01 0.00000E+00
 -1      4123 8.94000E+01 2.79170E+01 0.00000E+00
 -1      4124 8.71500E+01 2.66180E+01 0.00000E+00
 -1      4125 9.09000E+01 2.79170E+01 0.00000E+00
 -1      4126 9.24000E+01 2.79170E+01 0.00000E+00
 -1      4127 9.01500E+01 2.66180E+01 0.00000E+00
 -1      4128 9.39000E+01 2.79170E+01 0.00000E+00
 -1      4129 9.54000E+01 2.79170E+01 0.00000E+00
 -1      4130 9.31500E+01 2.66180E+01 0.00000E+00
 -1      4131 9.69000E+01 2.79170E+01 0.00000E+00
 -1      4132 9.84000E+01 2.79170E+01 0.00000E+00
 -1      4133 9.61500E+01 2.66180E+01 0.00000E+00
 -1      4134 7.37850E+01 2.08932E+01 0.00000E+00
 -1      4135 7.22850E+01 2.08932E+01 0.00000E+00
 -1      4136 7.07850E+01 2.08932E+01 0.00000E+00
 -1      4137 6.92850E+01 2.08932E+01 0.00000E+00
 -1      4138 7.15350E+01 2.21922E+01 0.00000E+00
 -1      4139 6.47850E+01 2.08932E+01 0.00000E+00
 -1      4140 6.32850E+01 2.08932E+01 0.00000E+00
 -1      4141 7.67850E+01 2.08932E+01 0.00000E+00
 -1      4142 7.52850E+01 2.08932E+01 0.00000E+00
 -1      4143 7.45350E+01 2.21922E+01 0.00000E+00
 -1      4144 7.97850E+01 2.08932E+01 0.00000E+00
 -1      4145 7.82850E+01 2.08932E+01 0.00000E+00
 -1      4146 7.75350E+01 2.21922E+01 0.00000E+00
 -1      4147 8.27850E+01 2.08932E+01 0.00000E+00
 -1      4148 8.12850E+01 2.08932E+01 0.00000E+00
 -1      4149 8.05350E+01 2.21922E+01 0.00000E+00
 -1      4150 8.57850E+01 2.08932E+01 0.00000E+00
 -1      4151 8.42850E+01 2.08932E+01 0.00000E+00
 -1      4152 8.35350E+01 2.21922E+01 0.00000E+00
 -1      4153 8.87850E+01 2.08932E+01 0.00000E+00
 -1      4154 8.72850E+01 2.08932E+01 0.00000E+00
 -1      4155 8.65350E+01 2.21922E+01 0.00000E+00
 -1      4156 9.17850E+01 2.08932E+01 0.00000E+00
 -1      4157 9.02850E+01 2.08932E+01 0.00000E+00
 -1      4158 8.95350E+01 2.21922E+01 0.00000E+00
 -1      4159 9.47850E+01 2.08932E+01 0.00000E+00
 -1      4160 9.32850E+01 2.08932E+01 0.00000E+00
 -1      4161 9.25350E+01 2.21922E+01 0.00000E+00
 -1      4162 9.77850E+01 2.08932E+01 0.00000E+00
 -1      4163 9.62850E+01 2.08932E+01 0.00000E+00
 -1      4164 9.55350E+01 2.21922E+01 0.00000E+00
 -1      4165 1.00987E+02 2.08885E+01 0.00000E+00
 -1      4166 9.94874E+01 2.08885E+01 0.00000E+00
 -1      4167 9.87374E+01 2.21875E+01 0.00000E+00
 -1      4168 1.02142E+02 2.21779E+01 0.00000E+00
 -1      4169 4.00350E+01 1.95942E+01 0.00000E+00
 -1      4170 3.92850E+01 1.82952E+01 0.00000E+00
 -1      4171 3.77850E+01 1.82952E+01 0.00000E+00
 -1      4172 5.57850E+01 2.08932E+01 0.00000E+00
 -1      4173 5.42850E+01 2.08932E+01 0.00000E+00
 -1      4174 2.49000E+01 2.79170E+01 0.00000E+00
 -1      4175 2.64000E+01 2.79170E+01 0.00000E+00
 -1      4176 2.71500E+01 2.66180E+01 0.00000E+00
 -1      4177 5.27850E+01 2.08932E+01 0.00000E+00
 -1      4178 5.12850E+01 2.08932E+01 0.00000E+00
 -1      4179 5.35350E+01 2.21922E+01 0.00000E+00
 -1      4180 6.77850E+01 2.08932E+01 0.00000E+00
 -1      4181 6.62850E+01 2.08932E+01 0.00000E+00
 -1      4182 6.55350E+01 2.21922E+01 0.00000E+00
 -1      4183 6.85350E+01 2.21922E+01 0.00000E+00
 -1      4184 1.01318E+02 2.79605E+01 0.00000E+00
 -1      4185 1.02034E+02 2.67702E+01 0.00000E+00
 -1      4186 1.01154E+02 2.54494E+01 0.00000E+00
 -1      4187 9.98180E+01 2.79605E+01 0.00000E+00
 -1      4188 2.80350E+01 1.95943E+01 0.00000E+00
 -1      4189 2.72850E+01 1.82953E+01 0.00000E+00
 -1      4190 2.57850E+01 1.82953E+01 0.00000E+00
 -1      4191 5.87850E+01 2.08932E+01 0.00000E+00
 -1      4192 5.72850E+01 2.08932E+01 0.00000E+00
 -1      4193 5.65350E+01 2.21922E+01 0.00000E+00
 -1      4194 3.09000E+01 2.79170E+01 0.00000E+00
 -1      4195 3.24000E+01 2.79170E+01 0.00000E+00
 -1      4196 3.01500E+01 2.66180E+01 0.00000E+00
 -1      4197 6.17850E+01 2.08932E+01 0.00000E+00
 -1      4198 6.02850E+01 2.08932E+01 0.00000E+00
 -1      4199 6.25350E+01 2.21922E+01 0.00000E+00
 -1      4200 3.31500E+01 2.66180E+01 0.00000E+00
 -1      4201 3.62850E+01 1.82952E+01 0.00000E+00
 -1      4202 3.47850E+01 1.82952E+01 0.00000E+00
 -1      4203 3.40350E+01 1.95942E+01 0.00000E+00
 -1      4204 3.70350E+01 1.95942E+01 0.00000E+00
 -1      4205 3.17850E+01 2.08932E+01 0.00000E+00
 -1      4206 3.02850E+01 2.08932E+01 0.00000E+00
 -1      4207 9.90680E+01 2.66615E+01 0.00000E+00
 -1      4208 5.95350E+01 2.21922E+01 0.00000E+00
 -1      4209 4.60350E+01 1.95942E+01 0.00000E+00
 -1      4210 4.37850E+01 2.08932E+01 0.00000E+00
 -1      4211 4.22850E+01 2.08932E+01 0.00000E+00
 -1      4212 4.07850E+01 2.08932E+01 0.00000E+00
 -1      4213 3.92850E+01 2.08932E+01 0.00000E+00
 -1      4214 4.15350E+01 2.21922E+01 0.00000E+00
 -1      4215 1.01131E+02 2.31882E+01 0.00000E+00
 -1      4216 2.87850E+01 2.08933E+01 0.00000E+00
 -1      4217 2.72850E+01 2.08933E+01 0.00000E+00
 -1      4218 2.95350E+01 2.21923E+01 0.00000E+00
 -1      4219 5.05350E+01 2.21922E+01 0.00000E+00
 -1      4220 4.97850E+01 2.08932E+01 0.00000E+00
 -1      4221 4.82850E+01 2.08932E+01 0.00000E+00
 -1      4222 2.21589E+01 2.39989E+01 0.00000E+00
 -1      4223 2.23325E+01 2.53320E+01 0.00000E+00
 -1      4224 2.44490E+01 1.81634E+01 0.00000E+00
 -1      4225 2.29490E+01 1.81634E+01 0.00000E+00
 -1      4226 2.25269E+01 1.91988E+01 0.00000E+00
 -1      4227 2.51990E+01 1.94624E+01 0.00000E+00
 -1      4228 2.17217E+01 2.16366E+01 0.00000E+00
 -1      4229 2.19403E+01 2.28177E+01 0.00000E+00
 -1      4230 2.33152E+01 2.33166E+01 0.00000E+00
 -1      4231 3.24000E+01 2.53190E+01 0.00000E+00
 -1      4232 3.39000E+01 2.53190E+01 0.00000E+00
 -1      4233 3.84000E+01 2.53190E+01 0.00000E+00
 -1      4234 3.99000E+01 2.53190E+01 0.00000E+00
 -1      4235 4.18425E+01 2.44051E+01 0.00000E+00
 -1      4236 4.33425E+01 2.44051E+01 0.00000E+00
 -1      4237 4.74000E+01 2.53190E+01 0.00000E+00
 -1      4238 4.89000E+01 2.53190E+01 0.00000E+00
 -1      4239 5.08425E+01 2.44051E+01 0.00000E+00
 -1      4240 5.23425E+01 2.44051E+01 0.00000E+00
 -1      4241 5.38425E+01 2.44051E+01 0.00000E+00
 -1      4242 5.53425E+01 2.44051E+01 0.00000E+00
 -1      4243 5.68425E+01 2.44051E+01 0.00000E+00
 -1      4244 5.83425E+01 2.44051E+01 0.00000E+00
 -1      4245 5.98425E+01 2.44051E+01 0.00000E+00
 -1      4246 6.13425E+01 2.44051E+01 0.00000E+00
 -1      4247 6.28425E+01 2.44051E+01 0.00000E+00
 -1      4248 6.43425E+01 2.44051E+01 0.00000E+00
 -1      4249 6.58425E+01 2.44051E+01 0.00000E+00
 -1      4250 6.73425E+01 2.44051E+01 0.00000E+00
 -1      4251 6.88425E+01 2.44051E+01 0.00000E+00
 -1      4252 7.03425E+01 2.44051E+01 0.00000E+00
 -1      4253 7.18425E+01 2.44051E+01 0.00000E+00
 -1      4254 7.33425E+01 2.44051E+01 0.00000E+00
 -1      4255 7.48425E+01 2.44051E+01 0.00000E+00
 -1      4256 7.63425E+01 2.44051E+01 0.00000E+00
 -1      4257 7.78425E+01 2.44051E+01 0.00000E+00
 -1      4258 7.93425E+01 2.44051E+01 0.00000E+00
 -1      4259 8.08425E+01 2.44051E+01 0.00000E+00
 -1      4260 8.23425E+01 2.44051E+01 0.00000E+00
 -1      4261 8.38425E+01 2.44051E+01 0.00000E+00
 -1      4262 8.53425E+01 2.44051E+01 0.00000E+00
 -1      4263 8.68425E+01 2.44051E+01 0.00000E+00
 -1      4264 8.83425E+01 2.44051E+01 0.00000E+00
 -1      4265 8.98425E+01 2.44051E+01 0.00000E+00
 -1      4266 9.13425E+01 2.44051E+01 0.00000E+00
 -1      4267 9.28425E+01 2.44051E+01 0.00000E+00
 -1      4268 9.43425E+01 2.44051E+01 0.00000E+00
 -1      4269 9.58425E+01 2.44051E+01 0.00000E+00
 -1      4270 9.73425E+01 2.44051E+01 0.00000E+00
 -1      4271 4.50638E+01 2.13502E+01 0.00000E+00
 -1      4272 4.43138E+01 2.26492E+01 0.00000E+00
 -1      4273 4.46213E+01 2.48621E+01 0.00000E+00
 -1      4274 4.65638E+01 2.13502E+01 0.00000E+00
 -1      4275 9.90449E+01 2.44003E+01 0.00000E+00
 -1      4276 2.34000E+01 2.79170E+01 0.00000E+00
 -1      4277 2.41500E+01 2.66180E+01 0.00000E+00
 -1      4278 2.64000E+01 2.53190E+01 0.00000E+00
 -1      4279 2.79000E+01 2.53190E+01 0.00000E+00
 -1      4280 2.21438E+01 2.06012E+01 0.00000E+00
 -1      4281 2.94000E+01 2.53190E+01 0.00000E+00
 -1      4282 3.09000E+01 2.53190E+01 0.00000E+00
 -1      4283 3.16500E+01 2.40200E+01 0.00000E+00
 -1      4284 2.86500E+01 2.40200E+01 0.00000E+00
 -1      4285 2.20642E+01 2.77253E+01 0.00000E+00
 -1      4286 3.54000E+01 2.53190E+01 0.00000E+00
 -1      4287 3.69000E+01 2.53190E+01 0.00000E+00
 -1      4288 3.46500E+01 2.40200E+01 0.00000E+00
 -1      4289 3.73425E+01 2.18071E+01 0.00000E+00
 -1      4290 3.58425E+01 2.18071E+01 0.00000E+00
 -1      4291 4.61213E+01 2.48621E+01 0.00000E+00
 -1      4292 4.68713E+01 2.35631E+01 0.00000E+00
 -1      4293 1.00463E+02 2.44438E+01 0.00000E+00
 -1      4294 4.10925E+01 2.31061E+01 0.00000E+00
 -1      4295 2.34798E+01 2.07330E+01 0.00000E+00
 -1      4296 2.18906E+01 2.63922E+01 0.00000E+00
 -1      4297 3.80925E+01 2.31061E+01 0.00000E+00
 -1      4298 2.60504E+01 2.08791E+01 0.00000E+00
 -1      4299 2.47144E+01 2.07472E+01 0.00000E+00
 -1      4300 2.43312E+01 2.21497E+01 0.00000E+00
 -1      4301 2.68004E+01 2.21781E+01 0.00000E+00
 -1      4302 3.05925E+01 2.31061E+01 0.00000E+00
 -1      4303 2.90925E+01 2.31061E+01 0.00000E+00
 -1      4304 3.43425E+01 2.18071E+01 0.00000E+00
 -1      4305 3.28425E+01 2.18071E+01 0.00000E+00
 -1      4306 2.30920E+01 2.55578E+01 0.00000E+00
 -1      4307 3.20925E+01 2.31061E+01 0.00000E+00
 -1      4308 5.00925E+01 2.31061E+01 0.00000E+00
 -1      4309 2.45919E+01 2.55579E+01 0.00000E+00
 -1      4310 2.53419E+01 2.42589E+01 0.00000E+00
 -1      4311 2.45498E+01 2.33308E+01 0.00000E+00
 -1      4312 2.63579E+01 2.30919E+01 0.00000E+00
 -1      4313 2.75925E+01 2.31061E+01 0.00000E+00
 -1      4314 4.73138E+01 2.26492E+01 0.00000E+00
 -1      4315 3.76500E+01 2.40200E+01 0.00000E+00
 -1      4316 4.85925E+01 2.31061E+01 0.00000E+00
 -1      4317 3.95925E+01 2.31061E+01 0.00000E+00
 -3
    3C                          2077                                     1
 -1       164    8    0    1
 -2         6         7        23      1121      1284      1138
 -1       165    8    0    1
 -2         7         8       164      1122      1285      1286
 -1       166    8    0    1
 -2         8         9       165      1123      1287      1288
 -1       167    8    0    1
 -2         8       165       164      1288      1289      1285
 -1       168    8    0    1
 -2         9        10       166      1124      1290      1291
 -1       169    8    0    1
 -2         9       166       165      1291      1292      1287
 -1       170    8    0    1
 -2        10        11       167      1125      1293      1294
 -1       171    8    0    1
 -2        10       167       166      1294      1295      1290
 -1       172    8    0    1
 -2        11        12       168      1126      1296      1297
 -1       173    8    0    1
 -2        11       168       167      1297      1298      1293
 -1       174    8    0    1
 -2        12        13       169      1127      1299      1300
 -1       175    8    0    1
 -2        12       169       168      1300      1301      1296
 -1       176    8    0    1
 -2        13        14       170      1128      1302      1303
 -1       177    8    0    1
 -2        13       170       169      1303      1304      1299
 -1       178    8    0    1
 -2        14        15       171      1129      1305      1306
 -1       179    8    0    1
 -2        14       171       170      1306      1307      1302
 -1       180    8    0    1
 -2        15        16       172      1130      1308      1309
 -1       181    8    0    1
 -2        15       172       171      1309      1310      1305
 -1       182    8    0    1
 -2        16        17       173      1131      1311      1312
 -1       183    8    0    1
 -2        16       173       172      1312      1313      1308
 -1       184    8    0    1
 -2        17        18       174      1132      1314      1315
 -1       185    8    0    1
 -2        17       174       173      1315      1316      1311
 -1       186    8    0    1
 -2        18        19       175      1133      1317      1318
 -1       187    8    0    1
 -2        18       175       174      1318      1319      1314
 -1       188    8    0    1
 -2        19        20       176      1134      1320      1321
 -1       189    8    0    1
 -2        19       176       175      1321      1322      1317
 -1       190    8    0    1
 -2        20        21       177      1135      1323      1324
 -1       191    8    0    1
 -2        20       177       176      1324      1325      1320
 -1       192    8    0    1
 -2        21        22       178      1136      1326      1327
 -1       193    8    0    1
 -2        21       178       177      1327      1328      1323
 -1       194    8    0    1
 -2        22         5       179      1137      1329      1330
 -1       195    8    0    1
 -2       178        22       179      1326      1330      1331
 -1       196    8    0    1
 -2         5        72       179      1188      1332      1329
 -1       197    8    0    1
 -2        24        23       180      1139      1333      1334
 -1       198    8    0    1
 -2        25        24       181      1140      1335      1336
 -1       199    8    0    1
 -2        24       180       181      1334      1337      1335
 -1       200    8    0    1
 -2        26        25       182      1141      1338      1339
 -1       201    8    0    1
 -2        25       181       182      1336      1340      1338
 -1       202    8    0    1
 -2        27        26       183      1142      1341      1342
 -1       203    8    0    1
 -2        26       182       183      1339      1343      1341
 -1       204    8    0    1
 -2        28        27       184      1143      1344      1345
 -1       205    8    0    1
 -2        27       183       184      1342      1346      1344
 -1       206    8    0    1
 -2        29        28       185      1144      1347      1348
 -1       207    8    0    1
 -2        28       184       185      1345      1349      1347
 -1       208    8    0    1
 -2        30        29       186      1145      1350      1351
 -1       209    8    0    1
 -2        29       185       186      1348      1352      1350
 -1       210    8    0    1
 -2        31        30       187      1146      1353      1354
 -1       211    8    0    1
 -2        30       186       187      1351      1355      1353
 -1       212    8    0    1
 -2        32        31       188      1147      1356      1357
 -1       213    8    0    1
 -2        31       187       188      1354      1358      1356
 -1       214    8    0    1
 -2        33        32       189      1148      1359      1360
 -1       215    8    0    1
 -2        32       188       189      1357      1361      1359
 -1       216    8    0    1
 -2        34        33       190      1149      1362      1363
 -1       217    8    0    1
 -2        33       189       190      1360      1364      1362
 -1       218    8    0    1
 -2        35        34       191      1150      1365      1366
 -1       219    8    0    1
 -2        34       190       191      1363      1367      1365
 -1       220    8    0    1
 -2        36        35       192      1151      1368      1369
 -1       221    8    0    1
 -2        35       191       192      1366      1370      1368
 -1       222    8    0    1
 -2        37        36       193      1152      1371      1372
 -1       223    8    0    1
 -2        36       192       193      1369      1373      1371
 -1       224    8    0    1
 -2        38        37       194      1153      1374      1375
 -1       225    8    0    1
 -2        37       193       194      1372      1376      1374
 -1       226    8    0    1
 -2        39        38       195      1154      1377      1378
 -1       227    8    0    1
 -2        38       194       195      1375      1379      1377
 -1       228    8    0    1
 -2        40        39       196      1155      1380      1381
 -1       229    8    0    1
 -2        39       195       196      1378      1382      1380
 -1       230    8    0    1
 -2        41        40       197      1156      1383      1384
 -1       231    8    0    1
 -2        40       196       197      1381      1385      1383
 -1       232    8    0    1
 -2        42        41       198      1157      1386      1387
 -1       233    8    0    1
 -2        41       197       198      1384      1388      1386
 -1       234    8    0    1
 -2        43        42       199      1158      1389      1390
 -1       235    8    0    1
 -2        42       198       199      1387      1391      1389
 -1       236    8    0    1
 -2        44        43       200      1159      1392      1393
 -1       237    8    0    1
 -2        43       199       200      1390      1394      1392
 -1       238    8    0    1
 -2        45        44       201      1160      1395      1396
 -1       239    8    0    1
 -2        44       200       201      1393      1397      1395
 -1       240    8    0    1
 -2        46        45       202      1161      1398      1399
 -1       241    8    0    1
 -2        45       201       202      1396      1400      1398
 -1       242    8    0    1
 -2        47        46       203      1162      1401      1402
 -1       243    8    0    1
 -2        46       202       203      1399      1403      1401
 -1       244    8    0    1
 -2        48        47       204      1163      1404      1405
 -1       245    8    0    1
 -2        47       203       204      1402      1406      1404
 -1       246    8    0    1
 -2        49        48       205      1164      1407      1408
 -1       247    8    0    1
 -2        48       204       205      1405      1409      1407
 -1       248    8    0    1
 -2        50        49       206      1165      1410      1411
 -1       249    8    0    1
 -2        49       205       206      1408      1412      1410
 -1       250    8    0    1
 -2        51        50       207      1166      1413      1414
 -1       251    8    0    1
 -2        50       206       207      1411      1415      1413
 -1       252    8    0    1
 -2        52        51       208      1167      1416      1417
 -1       253    8    0    1
 -2        51       207       208      1414      1418      1416
 -1       254    8    0    1
 -2        53        52       209      1168      1419      1420
 -1       255    8    0    1
 -2        52       208       209      1417      1421      1419
 -1       256    8    0    1
 -2        54        53       210      1169      1422      1423
 -1       257    8    0    1
 -2        53       209       210      1420      1424      1422
 -1       258    8    0    1
 -2        55        54       211      1170      1425      1426
 -1       259    8    0    1
 -2        54       210       211      1423      1427      1425
 -1       260    8    0    1
 -2        56        55       212      1171      1428      1429
 -1       261    8    0    1
 -2        55       211       212      1426      1430      1428
 -1       262    8    0    1
 -2        57        56       213      1172      1431      1432
 -1       263    8    0    1
 -2        56       212       213      1429      1433      1431
 -1       264    8    0    1
 -2        58        57       214      1173      1434      1435
 -1       265    8    0    1
 -2        57       213       214      1432      1436      1434
 -1       266    8    0    1
 -2        59        58       215      1174      1437      1438
 -1       267    8    0    1
 -2        58       214       215      1435      1439      1437
 -1       268    8    0    1
 -2        60        59       216      1175      1440      1441
 -1       269    8    0    1
 -2        59       215       216      1438      1442      1440
 -1       270    8    0    1
 -2        61        60       217      1176      1443      1444
 -1       271    8    0    1
 -2        60       216       217      1441      1445      1443
 -1       272    8    0    1
 -2        62        61       218      1177      1446      1447
 -1       273    8    0    1
 -2        61       217       218      1444      1448      1446
 -1       274    8    0    1
 -2        63        62       219      1178      1449      1450
 -1       275    8    0    1
 -2        62       218       219      1447      1451      1449
 -1       276    8    0    1
 -2        64        63       220      1179      1452      1453
 -1       277    8    0    1
 -2        63       219       220      1450      1454      1452
 -1       278    8    0    1
 -2        65        64       221      1180      1455      1456
 -1       279    8    0    1
 -2        64       220       221      1453      1457      1455
 -1       280    8    0    1
 -2        66        65       222      1181      1458      1459
 -1       281    8    0    1
 -2        65       221       222      1456      1460      1458
 -1       282    8    0    1
 -2        67        66       223      1182      1461      1462
 -1       283    8    0    1
 -2        66       222       223      1459      1463      1461
 -1       284    8    0    1
 -2        68        67       224      1183      1464      1465
 -1       285    8    0    1
 -2        67       223       224      1462      1466      1464
 -1       286    8    0    1
 -2        69        68       225      1184      1467      1468
 -1       287    8    0    1
 -2        68       224       225      1465      1469      1467
 -1       288    8    0    1
 -2        70        69       226      1185      1470      1471
 -1       289    8    0    1
 -2        69       225       226      1468      1472      1470
 -1       290    8    0    1
 -2        71        70       227      1186      1473      1474
 -1       291    8    0    1
 -2        70       226       227      1471      1475      1473
 -1       292    8    0    1
 -2         4        71       136      1187      1476      1254
 -1       293    8    0    1
 -2       136        71       227      1476      1474      1477
 -1       294    8    0    1
 -2        72        73       228      1189      1478      1479
 -1       295    8    0    1
 -2        72       228       179      1479      1480      1332
 -1       296    8    0    1
 -2        73        74       229      1190      1481      1482
 -1       297    8    0    1
 -2        73       229       228      1482      1483      1478
 -1       298    8    0    1
 -2        74        75       230      1191      1484      1485
 -1       299    8    0    1
 -2        74       230       229      1485      1486      1481
 -1       300    8    0    1
 -2        75        76       231      1192      1487      1488
 -1       301    8    0    1
 -2        75       231       230      1488      1489      1484
 -1       302    8    0    1
 -2        76        77       232      1193      1490      1491
 -1       303    8    0    1
 -2        76       232       231      1491      1492      1487
 -1       304    8    0    1
 -2        77        78       233      1194      1493      1494
 -1       305    8    0    1
 -2        77       233       232      1494      1495      1490
 -1       306    8    0    1
 -2        78        79       234      1195      1496      1497
 -1       307    8    0    1
 -2        78       234       233      1497      1498      1493
 -1       308    8    0    1
 -2        79        80       235      1196      1499      1500
 -1       309    8    0    1
 -2        79       235       234      1500      1501      1496
 -1       310    8    0    1
 -2        80        81       236      1197      1502      1503
 -1       311    8    0    1
 -2        80       236       235      1503      1504      1499
 -1       312    8    0    1
 -2        81        82       237      1198      1505      1506
 -1       313    8    0    1
 -2        81       237       236      1506      1507      1502
 -1       314    8    0    1
 -2        82        83       238      1199      1508      1509
 -1       315    8    0    1
 -2        82       238       237      1509      1510      1505
 -1       316    8    0    1
 -2        83        84       239      1200      1511      1512
 -1       317    8    0    1
 -2        83       239       238      1512      1513      1508
 -1       318    8    0    1
 -2        84        85       240      1201      1514      1515
 -1       319    8    0    1
 -2        84       240       239      1515      1516      1511
 -1       320    8    0    1
 -2        85        86       241      1202      1517      1518
 -1       321    8    0    1
 -2        85       241       240      1518      1519      1514
 -1       322    8    0    1
 -2        86        87       242      1203      1520      1521
 -1       323    8    0    1
 -2        86       242       241      1521      1522      1517
 -1       324    8    0    1
 -2        87        88       243      1204      1523      1524
 -1       325    8    0    1
 -2        87       243       242      1524      1525      1520
 -1       326    8    0    1
 -2        88        89       244      1205      1526      1527
 -1       327    8    0    1
 -2        88       244       243      1527      1528      1523
 -1       328    8    0    1
 -2        89        90       245      1206      1529      1530
 -1       329    8    0    1
 -2        89       245       244      1530      1531      1526
 -1       330    8    0    1
 -2        90        91       246      1207      1532      1533
 -1       331    8    0    1
 -2        90       246       245      1533      1534      1529
 -1       332    8    0    1
 -2        91        92       247      1208      1535      1536
 -1       333    8    0    1
 -2        91       247       246      1536      1537      1532
 -1       334    8    0    1
 -2        92        93       248      1209      1538      1539
 -1       335    8    0    1
 -2        92       248       247      1539      1540      1535
 -1       336    8    0    1
 -2        93        94       249      1210      1541      1542
 -1       337    8    0    1
 -2        93       249       248      1542      1543      1538
 -1       338    8    0    1
 -2        94        95       250      1211      1544      1545
 -1       339    8    0    1
 -2        94       250       249      1545      1546      1541
 -1       340    8    0    1
 -2        95        96       251      1212      1547      1548
 -1       341    8    0    1
 -2        95       251       250      1548      1549      1544
 -1       342    8    0    1
 -2        96        97       252      1213      1550      1551
 -1       343    8    0    1
 -2        96       252       251      1551      1552      1547
 -1       344    8    0    1
 -2        97        98       253      1214      1553      1554
 -1       345    8    0    1
 -2        97       253       252      1554      1555      1550
 -1       346    8    0    1
 -2        98        99       254      1215      1556      1557
 -1       347    8    0    1
 -2        98       254       253      1557      1558      1553
 -1       348    8    0    1
 -2        99       100       255      1216      1559      1560
 -1       349    8    0    1
 -2        99       255       254      1560      1561      1556
 -1       350    8    0    1
 -2       100       101       256      1217      1562      1563
 -1       351    8    0    1
 -2       100       256       255      1563      1564      1559
 -1       352    8    0    1
 -2       101       102       257      1218      1565      1566
 -1       353    8    0    1
 -2       101       257       256      1566      1567      1562
 -1       354    8    0    1
 -2       102       103       258      1219      1568      1569
 -1       355    8    0    1
 -2       102       258       257      1569      1570      1565
 -1       356    8    0    1
 -2       103       104       259      1220      1571      1572
 -1       357    8    0    1
 -2       103       259       258      1572      1573      1568
 -1       358    8    0    1
 -2       104       105       260      1221      1574      1575
 -1       359    8    0    1
 -2       104       260       259      1575      1576      1571
 -1       360    8    0    1
 -2       105       106       261      1222      1577      1578
 -1       361    8    0    1
 -2       105       261       260      1578      1579      1574
 -1       362    8    0    1
 -2       106       107       262      1223      1580      1581
 -1       363    8    0    1
 -2       106       262       261      1581      1582      1577
 -1       364    8    0    1
 -2       107       108       263      1224      1583      1584
 -1       365    8    0    1
 -2       107       263       262      1584      1585      1580
 -1       366    8    0    1
 -2       108       109       264      1225      1586      1587
 -1       367    8    0    1
 -2       108       264       263      1587      1588      1583
 -1       368    8    0    1
 -2       109       110       265      1226      1589      1590
 -1       369    8    0    1
 -2       109       265       264      1590      1591      1586
 -1       370    8    0    1
 -2       110       111       266      1227      1592      1593
 -1       371    8    0    1
 -2       110       266       265      1593      1594      1589
 -1       372    8    0    1
 -2       111       112       267      1228      1595      1596
 -1       373    8    0    1
 -2       111       267       266      1596      1597      1592
 -1       374    8    0    1
 -2       112       113       268      1229      1598      1599
 -1       375    8    0    1
 -2       112       268       267      1599      1600      1595
 -1       376    8    0    1
 -2       113       114       269      1230      1601      1602
 -1       377    8    0    1
 -2       113       269       268      1602      1603      1598
 -1       378    8    0    1
 -2       114       115       270      1231      1604      1605
 -1       379    8    0    1
 -2       114       270       269      1605      1606      1601
 -1       380    8    0    1
 -2       115       116       271      1232      1607      1608
 -1       381    8    0    1
 -2       115       271       270      1608      1609      1604
 -1       382    8    0    1
 -2       116       117       272      1233      1610      1611
 -1       383    8    0    1
 -2       116       272       271      1611      1612      1607
 -1       384    8    0    1
 -2       117       118       273      1234      1613      1614
 -1       385    8    0    1
 -2       117       273       272      1614      1615      1610
 -1       386    8    0    1
 -2       118       119       274      1235      1616      1617
 -1       387    8    0    1
 -2       118       274       273      1617      1618      1613
 -1       388    8    0    1
 -2       119       120       275      1236      1619      1620
 -1       389    8    0    1
 -2       119       275       274      1620      1621      1616
 -1       390    8    0    1
 -2       120         3       121      1237      1238      1622
 -1       391    8    0    1
 -2       121       122       276      1239      1623      1624
 -1       392    8    0    1
 -2       122       123       277      1240      1625      1626
 -1       393    8    0    1
 -2       122       277       276      1626      1627      1623
 -1       394    8    0    1
 -2       123       124       278      1241      1628      1629
 -1       395    8    0    1
 -2       123       278       277      1629      1630      1625
 -1       396    8    0    1
 -2       124       125       279      1242      1631      1632
 -1       397    8    0    1
 -2       124       279       278      1632      1633      1628
 -1       398    8    0    1
 -2       125       126       280      1243      1634      1635
 -1       399    8    0    1
 -2       125       280       279      1635      1636      1631
 -1       400    8    0    1
 -2       126       127       281      1244      1637      1638
 -1       401    8    0    1
 -2       126       281       280      1638      1639      1634
 -1       402    8    0    1
 -2       127       128       282      1245      1640      1641
 -1       403    8    0    1
 -2       127       282       281      1641      1642      1637
 -1       404    8    0    1
 -2       128       129       283      1246      1643      1644
 -1       405    8    0    1
 -2       128       283       282      1644      1645      1640
 -1       406    8    0    1
 -2       129       130       284      1247      1646      1647
 -1       407    8    0    1
 -2       129       284       283      1647      1648      1643
 -1       408    8    0    1
 -2       130       131       285      1248      1649      1650
 -1       409    8    0    1
 -2       130       285       284      1650      1651      1646
 -1       410    8    0    1
 -2       131       132       286      1249      1652      1653
 -1       411    8    0    1
 -2       131       286       285      1653      1654      1649
 -1       412    8    0    1
 -2       132       133       287      1250      1655      1656
 -1       413    8    0    1
 -2       132       287       286      1656      1657      1652
 -1       414    8    0    1
 -2       133       134       288      1251      1658      1659
 -1       415    8    0    1
 -2       133       288       287      1659      1660      1655
 -1       416    8    0    1
 -2       134       135       289      1252      1661      1662
 -1       417    8    0    1
 -2       134       289       288      1662      1663      1658
 -1       418    8    0    1
 -2       135       136       290      1253      1664      1665
 -1       419    8    0    1
 -2       289       135       290      1661      1665      1666
 -1       420    8    0    1
 -2       136       227       290      1477      1667      1664
 -1       421    8    0    1
 -2         2       137       291      1255      1668      1669
 -1       422    8    0    1
 -2       137       138       292      1256      1670      1671
 -1       423    8    0    1
 -2       138       139       293      1257      1672      1673
 -1       424    8    0    1
 -2       139       140       294      1258      1674      1675
 -1       425    8    0    1
 -2       140       141       295      1259      1676      1677
 -1       426    8    0    1
 -2       141       142       296      1260      1678      1679
 -1       427    8    0    1
 -2       142       143       297      1261      1680      1681
 -1       428    8    0    1
 -2       143       144       298      1262      1682      1683
 -1       429    8    0    1
 -2       144       145       299      1263      1684      1685
 -1       430    8    0    1
 -2       145       146       300      1264      1686      1687
 -1       431    8    0    1
 -2       146       147       301      1265      1688      1689
 -1       432    8    0    1
 -2       147       148       302      1266      1690      1691
 -1       433    8    0    1
 -2       148       149       303      1267      1692      1693
 -1       434    8    0    1
 -2       149       150       304      1268      1694      1695
 -1       435    8    0    1
 -2       150       151       305      1269      1696      1697
 -1       436    8    0    1
 -2       151       152       306      1270      1698      1699
 -1       437    8    0    1
 -2       152       153       307      1271      1700      1701
 -1       438    8    0    1
 -2       153       154       308      1272      1702      1703
 -1       439    8    0    1
 -2       154       155       309      1273      1704      1705
 -1       440    8    0    1
 -2       155       156       310      1274      1706      1707
 -1       441    8    0    1
 -2       156       157       311      1275      1708      1709
 -1       442    8    0    1
 -2       157         1       312      1276      1710      1711
 -1       443    8    0    1
 -2         1       158       313      1277      1712      1713
 -1       444    8    0    1
 -2       158       159       314      1278      1714      1715
 -1       445    8    0    1
 -2       159       160       315      1279      1716      1717
 -1       446    8    0    1
 -2       160       161       316      1280      1718      1719
 -1       447    8    0    1
 -2       161       162       317      1281      1720      1721
 -1       448    8    0    1
 -2       162       163       318      1282      1722      1723
 -1       449    8    0    1
 -2       163         2       319      1283      1724      1725
 -1       450    8    0    1
 -2       294       140       295      1674      1677      1726
 -1       451    8    0    1
 -2       293       139       294      1672      1675      1727
 -1       452    8    0    1
 -2       120       121       275      1622      1728      1619
 -1       453    8    0    1
 -2       121       276       275      1624      1729      1728
 -1       454    8    0    1
 -2       291       137       292      1668      1671      1730
 -1       455    8    0    1
 -2       292       138       293      1670      1673      1731
 -1       456    8    0    1
 -2         2       291       319      1669      1732      1724
 -1       457    8    0    1
 -2       141       296       295      1679      1733      1676
 -1       458    8    0    1
 -2       142       297       296      1681      1734      1678
 -1       459    8    0    1
 -2       143       298       297      1683      1735      1680
 -1       460    8    0    1
 -2       144       299       298      1685      1736      1682
 -1       461    8    0    1
 -2       145       300       299      1687      1737      1684
 -1       462    8    0    1
 -2       146       301       300      1689      1738      1686
 -1       463    8    0    1
 -2       147       302       301      1691      1739      1688
 -1       464    8    0    1
 -2       148       303       302      1693      1740      1690
 -1       465    8    0    1
 -2       149       304       303      1695      1741      1692
 -1       466    8    0    1
 -2       150       305       304      1697      1742      1694
 -1       467    8    0    1
 -2       151       306       305      1699      1743      1696
 -1       468    8    0    1
 -2       152       307       306      1701      1744      1698
 -1       469    8    0    1
 -2       153       308       307      1703      1745      1700
 -1       470    8    0    1
 -2       154       309       308      1705      1746      1702
 -1       471    8    0    1
 -2       155       310       309      1707      1747      1704
 -1       472    8    0    1
 -2       156       311       310      1709      1748      1706
 -1       473    8    0    1
 -2       157       312       311      1711      1749      1708
 -1       474    8    0    1
 -2         1       313       312      1713      1750      1710
 -1       475    8    0    1
 -2       158       314       313      1715      1751      1712
 -1       476    8    0    1
 -2       159       315       314      1717      1752      1714
 -1       477    8    0    1
 -2       160       316       315      1719      1753      1716
 -1       478    8    0    1
 -2       161       317       316      1721      1754      1718
 -1       479    8    0    1
 -2       162       318       317      1723      1755      1720
 -1       480    8    0    1
 -2       163       319       318      1725      1756      1722
 -1       481    8    0    1
 -2        23         7       164      1284      1286      1757
 -1       482    8    0    1
 -2       165       166       320      1292      1758      1759
 -1       483    8    0    1
 -2       164       165       321      1289      1760      1761
 -1       484    8    0    1
 -2       165       320       321      1759      1762      1760
 -1       485    8    0    1
 -2       167       168       322      1298      1763      1764
 -1       486    8    0    1
 -2       168       169       323      1301      1765      1766
 -1       487    8    0    1
 -2       168       323       322      1766      1767      1763
 -1       488    8    0    1
 -2       169       170       324      1304      1768      1769
 -1       489    8    0    1
 -2       169       324       323      1769      1770      1765
 -1       490    8    0    1
 -2       170       171       325      1307      1771      1772
 -1       491    8    0    1
 -2       170       325       324      1772      1773      1768
 -1       492    8    0    1
 -2       171       172       326      1310      1774      1775
 -1       493    8    0    1
 -2       171       326       325      1775      1776      1771
 -1       494    8    0    1
 -2       172       173       327      1313      1777      1778
 -1       495    8    0    1
 -2       172       327       326      1778      1779      1774
 -1       496    8    0    1
 -2       173       174       328      1316      1780      1781
 -1       497    8    0    1
 -2       173       328       327      1781      1782      1777
 -1       498    8    0    1
 -2       174       175       329      1319      1783      1784
 -1       499    8    0    1
 -2       174       329       328      1784      1785      1780
 -1       500    8    0    1
 -2       175       176       330      1322      1786      1787
 -1       501    8    0    1
 -2       175       330       329      1787      1788      1783
 -1       502    8    0    1
 -2       176       177       331      1325      1789      1790
 -1       503    8    0    1
 -2       176       331       330      1790      1791      1786
 -1       504    8    0    1
 -2       177       178       332      1328      1792      1793
 -1       505    8    0    1
 -2       177       332       331      1793      1794      1789
 -1       506    8    0    1
 -2       178       179       333      1331      1795      1796
 -1       507    8    0    1
 -2       332       178       333      1792      1796      1797
 -1       508    8    0    1
 -2       179       228       333      1480      1798      1795
 -1       509    8    0    1
 -2       180        23       164      1333      1757      1799
 -1       510    8    0    1
 -2       228       229       334      1483      1800      1801
 -1       511    8    0    1
 -2       228       334       333      1801      1802      1798
 -1       512    8    0    1
 -2       180       164       321      1799      1761      1803
 -1       513    8    0    1
 -2       182       181       335      1340      1804      1805
 -1       514    8    0    1
 -2       183       182       336      1343      1806      1807
 -1       515    8    0    1
 -2       182       335       336      1805      1808      1806
 -1       516    8    0    1
 -2       184       183       337      1346      1809      1810
 -1       517    8    0    1
 -2       183       336       337      1807      1811      1809
 -1       518    8    0    1
 -2       185       184       338      1349      1812      1813
 -1       519    8    0    1
 -2       184       337       338      1810      1814      1812
 -1       520    8    0    1
 -2       186       185       339      1352      1815      1816
 -1       521    8    0    1
 -2       185       338       339      1813      1817      1815
 -1       522    8    0    1
 -2       187       186       340      1355      1818      1819
 -1       523    8    0    1
 -2       186       339       340      1816      1820      1818
 -1       524    8    0    1
 -2       188       187       341      1358      1821      1822
 -1       525    8    0    1
 -2       187       340       341      1819      1823      1821
 -1       526    8    0    1
 -2       189       188       342      1361      1824      1825
 -1       527    8    0    1
 -2       188       341       342      1822      1826      1824
 -1       528    8    0    1
 -2       190       189       343      1364      1827      1828
 -1       529    8    0    1
 -2       189       342       343      1825      1829      1827
 -1       530    8    0    1
 -2       191       190       344      1367      1830      1831
 -1       531    8    0    1
 -2       190       343       344      1828      1832      1830
 -1       532    8    0    1
 -2       192       191       345      1370      1833      1834
 -1       533    8    0    1
 -2       191       344       345      1831      1835      1833
 -1       534    8    0    1
 -2       193       192       346      1373      1836      1837
 -1       535    8    0    1
 -2       192       345       346      1834      1838      1836
 -1       536    8    0    1
 -2       194       193       347      1376      1839      1840
 -1       537    8    0    1
 -2       193       346       347      1837      1841      1839
 -1       538    8    0    1
 -2       195       194       348      1379      1842      1843
 -1       539    8    0    1
 -2       194       347       348      1840      1844      1842
 -1       540    8    0    1
 -2       196       195       349      1382      1845      1846
 -1       541    8    0    1
 -2       195       348       349      1843      1847      1845
 -1       542    8    0    1
 -2       197       196       350      1385      1848      1849
 -1       543    8    0    1
 -2       196       349       350      1846      1850      1848
 -1       544    8    0    1
 -2       198       197       351      1388      1851      1852
 -1       545    8    0    1
 -2       197       350       351      1849      1853      1851
 -1       546    8    0    1
 -2       199       198       352      1391      1854      1855
 -1       547    8    0    1
 -2       198       351       352      1852      1856      1854
 -1       548    8    0    1
 -2       200       199       353      1394      1857      1858
 -1       549    8    0    1
 -2       199       352       353      1855      1859      1857
 -1       550    8    0    1
 -2       201       200       354      1397      1860      1861
 -1       551    8    0    1
 -2       200       353       354      1858      1862      1860
 -1       552    8    0    1
 -2       202       201       355      1400      1863      1864
 -1       553    8    0    1
 -2       201       354       355      1861      1865      1863
 -1       554    8    0    1
 -2       203       202       356      1403      1866      1867
 -1       555    8    0    1
 -2       202       355       356      1864      1868      1866
 -1       556    8    0    1
 -2       204       203       357      1406      1869      1870
 -1       557    8    0    1
 -2       203       356       357      1867      1871      1869
 -1       558    8    0    1
 -2       205       204       358      1409      1872      1873
 -1       559    8    0    1
 -2       204       357       358      1870      1874      1872
 -1       560    8    0    1
 -2       206       205       359      1412      1875      1876
 -1       561    8    0    1
 -2       205       358       359      1873      1877      1875
 -1       562    8    0    1
 -2       207       206       360      1415      1878      1879
 -1       563    8    0    1
 -2       206       359       360      1876      1880      1878
 -1       564    8    0    1
 -2       208       207       361      1418      1881      1882
 -1       565    8    0    1
 -2       207       360       361      1879      1883      1881
 -1       566    8    0    1
 -2       209       208       362      1421      1884      1885
 -1       567    8    0    1
 -2       208       361       362      1882      1886      1884
 -1       568    8    0    1
 -2       210       209       363      1424      1887      1888
 -1       569    8    0    1
 -2       209       362       363      1885      1889      1887
 -1       570    8    0    1
 -2       211       210       364      1427      1890      1891
 -1       571    8    0    1
 -2       210       363       364      1888      1892      1890
 -1       572    8    0    1
 -2       212       211       365      1430      1893      1894
 -1       573    8    0    1
 -2       211       364       365      1891      1895      1893
 -1       574    8    0    1
 -2       213       212       366      1433      1896      1897
 -1       575    8    0    1
 -2       212       365       366      1894      1898      1896
 -1       576    8    0    1
 -2       214       213       367      1436      1899      1900
 -1       577    8    0    1
 -2       213       366       367      1897      1901      1899
 -1       578    8    0    1
 -2       215       214       368      1439      1902      1903
 -1       579    8    0    1
 -2       214       367       368      1900      1904      1902
 -1       580    8    0    1
 -2       216       215       369      1442      1905      1906
 -1       581    8    0    1
 -2       215       368       369      1903      1907      1905
 -1       582    8    0    1
 -2       217       216       370      1445      1908      1909
 -1       583    8    0    1
 -2       216       369       370      1906      1910      1908
 -1       584    8    0    1
 -2       218       217       371      1448      1911      1912
 -1       585    8    0    1
 -2       217       370       371      1909      1913      1911
 -1       586    8    0    1
 -2       219       218       372      1451      1914      1915
 -1       587    8    0    1
 -2       218       371       372      1912      1916      1914
 -1       588    8    0    1
 -2       220       219       373      1454      1917      1918
 -1       589    8    0    1
 -2       219       372       373      1915      1919      1917
 -1       590    8    0    1
 -2       221       220       374      1457      1920      1921
 -1       591    8    0    1
 -2       220       373       374      1918      1922      1920
 -1       592    8    0    1
 -2       222       221       375      1460      1923      1924
 -1       593    8    0    1
 -2       221       374       375      1921      1925      1923
 -1       594    8    0    1
 -2       223       222       376      1463      1926      1927
 -1       595    8    0    1
 -2       222       375       376      1924      1928      1926
 -1       596    8    0    1
 -2       224       223       377      1466      1929      1930
 -1       597    8    0    1
 -2       223       376       377      1927      1931      1929
 -1       598    8    0    1
 -2       225       224       378      1469      1932      1933
 -1       599    8    0    1
 -2       224       377       378      1930      1934      1932
 -1       600    8    0    1
 -2       226       225       379      1472      1935      1936
 -1       601    8    0    1
 -2       225       378       379      1933      1937      1935
 -1       602    8    0    1
 -2       227       226       380      1475      1938      1939
 -1       603    8    0    1
 -2       290       227       380      1667      1939      1940
 -1       604    8    0    1
 -2       226       379       380      1936      1941      1938
 -1       605    8    0    1
 -2       229       230       381      1486      1942      1943
 -1       606    8    0    1
 -2       229       381       334      1943      1944      1800
 -1       607    8    0    1
 -2       230       231       382      1489      1945      1946
 -1       608    8    0    1
 -2       230       382       381      1946      1947      1942
 -1       609    8    0    1
 -2       231       232       383      1492      1948      1949
 -1       610    8    0    1
 -2       231       383       382      1949      1950      1945
 -1       611    8    0    1
 -2       232       233       384      1495      1951      1952
 -1       612    8    0    1
 -2       232       384       383      1952      1953      1948
 -1       613    8    0    1
 -2       233       234       385      1498      1954      1955
 -1       614    8    0    1
 -2       233       385       384      1955      1956      1951
 -1       615    8    0    1
 -2       234       235       386      1501      1957      1958
 -1       616    8    0    1
 -2       234       386       385      1958      1959      1954
 -1       617    8    0    1
 -2       235       236       387      1504      1960      1961
 -1       618    8    0    1
 -2       235       387       386      1961      1962      1957
 -1       619    8    0    1
 -2       236       237       388      1507      1963      1964
 -1       620    8    0    1
 -2       236       388       387      1964      1965      1960
 -1       621    8    0    1
 -2       237       238       389      1510      1966      1967
 -1       622    8    0    1
 -2       237       389       388      1967      1968      1963
 -1       623    8    0    1
 -2       238       239       390      1513      1969      1970
 -1       624    8    0    1
 -2       238       390       389      1970      1971      1966
 -1       625    8    0    1
 -2       239       240       391      1516      1972      1973
 -1       626    8    0    1
 -2       239       391       390      1973      1974      1969
 -1       627    8    0    1
 -2       240       241       392      1519      1975      1976
 -1       628    8    0    1
 -2       240       392       391      1976      1977      1972
 -1       629    8    0    1
 -2       241       242       393      1522      1978      1979
 -1       630    8    0    1
 -2       241       393       392      1979      1980      1975
 -1       631    8    0    1
 -2       242       243       394      1525      1981      1982
 -1       632    8    0    1
 -2       242       394       393      1982      1983      1978
 -1       633    8    0    1
 -2       243       244       395      1528      1984      1985
 -1       634    8    0    1
 -2       243       395       394      1985      1986      1981
 -1       635    8    0    1
 -2       244       245       396      1531      1987      1988
 -1       636    8    0    1
 -2       244       396       395      1988      1989      1984
 -1       637    8    0    1
 -2       245       246       397      1534      1990      1991
 -1       638    8    0    1
 -2       245       397       396      1991      1992      1987
 -1       639    8    0    1
 -2       246       247       398      1537      1993      1994
 -1       640    8    0    1
 -2       246       398       397      1994      1995      1990
 -1       641    8    0    1
 -2       247       248       399      1540      1996      1997
 -1       642    8    0    1
 -2       247       399       398      1997      1998      1993
 -1       643    8    0    1
 -2       248       249       400      1543      1999      2000
 -1       644    8    0    1
 -2       248       400       399      2000      2001      1996
 -1       645    8    0    1
 -2       249       250       401      1546      2002      2003
 -1       646    8    0    1
 -2       249       401       400      2003      2004      1999
 -1       647    8    0    1
 -2       250       251       402      1549      2005      2006
 -1       648    8    0    1
 -2       250       402       401      2006      2007      2002
 -1       649    8    0    1
 -2       251       252       403      1552      2008      2009
 -1       650    8    0    1
 -2       251       403       402      2009      2010      2005
 -1       651    8    0    1
 -2       252       253       404      1555      2011      2012
 -1       652    8    0    1
 -2       252       404       403      2012      2013      2008
 -1       653    8    0    1
 -2       253       254       405      1558      2014      2015
 -1       654    8    0    1
 -2       253       405       404      2015      2016      2011
 -1       655    8    0    1
 -2       254       255       406      1561      2017      2018
 -1       656    8    0    1
 -2       254       406       405      2018      2019      2014
 -1       657    8    0    1
 -2       255       256       407      1564      2020      2021
 -1       658    8    0    1
 -2       255       407       406      2021      2022      2017
 -1       659    8    0    1
 -2       256       257       408      1567      2023      2024
 -1       660    8    0    1
 -2       256       408       407      2024      2025      2020
 -1       661    8    0    1
 -2       257       258       409      1570      2026      2027
 -1       662    8    0    1
 -2       257       409       408      2027      2028      2023
 -1       663    8    0    1
 -2       258       259       410      1573      2029      2030
 -1       664    8    0    1
 -2       258       410       409      2030      2031      2026
 -1       665    8    0    1
 -2       259       260       411      1576      2032      2033
 -1       666    8    0    1
 -2       259       411       410      2033      2034      2029
 -1       667    8    0    1
 -2       260       261       412      1579      2035      2036
 -1       668    8    0    1
 -2       260       412       411      2036      2037      2032
 -1       669    8    0    1
 -2       261       262       413      1582      2038      2039
 -1       670    8    0    1
 -2       261       413       412      2039      2040      2035
 -1       671    8    0    1
 -2       262       263       414      1585      2041      2042
 -1       672    8    0    1
 -2       262       414       413      2042      2043      2038
 -1       673    8    0    1
 -2       263       264       415      1588      2044      2045
 -1       674    8    0    1
 -2       263       415       414      2045      2046      2041
 -1       675    8    0    1
 -2       264       265       416      1591      2047      2048
 -1       676    8    0    1
 -2       264       416       415      2048      2049      2044
 -1       677    8    0    1
 -2       265       266       417      1594      2050      2051
 -1       678    8    0    1
 -2       265       417       416      2051      2052      2047
 -1       679    8    0    1
 -2       266       267       418      1597      2053      2054
 -1       680    8    0    1
 -2       266       418       417      2054      2055      2050
 -1       681    8    0    1
 -2       267       268       419      1600      2056      2057
 -1       682    8    0    1
 -2       267       419       418      2057      2058      2053
 -1       683    8    0    1
 -2       268       269       420      1603      2059      2060
 -1       684    8    0    1
 -2       268       420       419      2060      2061      2056
 -1       685    8    0    1
 -2       269       270       421      1606      2062      2063
 -1       686    8    0    1
 -2       269       421       420      2063      2064      2059
 -1       687    8    0    1
 -2       270       271       422      1609      2065      2066
 -1       688    8    0    1
 -2       270       422       421      2066      2067      2062
 -1       689    8    0    1
 -2       271       272       423      1612      2068      2069
 -1       690    8    0    1
 -2       271       423       422      2069      2070      2065
 -1       691    8    0    1
 -2       272       273       424      1615      2071      2072
 -1       692    8    0    1
 -2       272       424       423      2072      2073      2068
 -1       693    8    0    1
 -2       273       274       425      1618      2074      2075
 -1       694    8    0    1
 -2       273       425       424      2075      2076      2071
 -1       695    8    0    1
 -2       274       275       426      1621      2077      2078
 -1       696    8    0    1
 -2       425       274       426      2074      2078      2079
 -1       697    8    0    1
 -2       275       276       426      1729      2080      2077
 -1       698    8    0    1
 -2       278       279       427      1633      2081      2082
 -1       699    8    0    1
 -2       277       278       428      1630      2083      2084
 -1       700    8    0    1
 -2       278       427       428      2082      2085      2083
 -1       701    8    0    1
 -2       276       277       429      1627      2086      2087
 -1       702    8    0    1
 -2       426       276       429      2080      2087      2088
 -1       703    8    0    1
 -2       277       428       429      2084      2089      2086
 -1       704    8    0    1
 -2       279       280       430      1636      2090      2091
 -1       705    8    0    1
 -2       279       430       427      2091      2092      2081
 -1       706    8    0    1
 -2       280       281       431      1639      2093      2094
 -1       707    8    0    1
 -2       280       431       430      2094      2095      2090
 -1       708    8    0    1
 -2       281       282       432      1642      2096      2097
 -1       709    8    0    1
 -2       281       432       431      2097      2098      2093
 -1       710    8    0    1
 -2       282       283       433      1645      2099      2100
 -1       711    8    0    1
 -2       282       433       432      2100      2101      2096
 -1       712    8    0    1
 -2       283       284       434      1648      2102      2103
 -1       713    8    0    1
 -2       283       434       433      2103      2104      2099
 -1       714    8    0    1
 -2       284       285       435      1651      2105      2106
 -1       715    8    0    1
 -2       284       435       434      2106      2107      2102
 -1       716    8    0    1
 -2       285       286       436      1654      2108      2109
 -1       717    8    0    1
 -2       285       436       435      2109      2110      2105
 -1       718    8    0    1
 -2       286       287       437      1657      2111      2112
 -1       719    8    0    1
 -2       286       437       436      2112      2113      2108
 -1       720    8    0    1
 -2       287       288       438      1660      2114      2115
 -1       721    8    0    1
 -2       287       438       437      2115      2116      2111
 -1       722    8    0    1
 -2       288       289       439      1663      2117      2118
 -1       723    8    0    1
 -2       288       439       438      2118      2119      2114
 -1       724    8    0    1
 -2       292       293       440      1731      2120      2121
 -1       725    8    0    1
 -2       319       291       441      1732      2122      2123
 -1       726    8    0    1
 -2       291       292       442      1730      2124      2125
 -1       727    8    0    1
 -2       291       442       441      2125      2126      2122
 -1       728    8    0    1
 -2       293       294       443      1727      2127      2128
 -1       729    8    0    1
 -2       294       295       444      1726      2129      2130
 -1       730    8    0    1
 -2       294       444       443      2130      2131      2127
 -1       731    8    0    1
 -2       166       167       445      1295      2132      2133
 -1       732    8    0    1
 -2       320       166       445      1758      2133      2134
 -1       733    8    0    1
 -2       167       322       445      1764      2135      2132
 -1       734    8    0    1
 -2       296       297       446      1734      2136      2137
 -1       735    8    0    1
 -2       297       298       447      1735      2138      2139
 -1       736    8    0    1
 -2       297       447       446      2139      2140      2136
 -1       737    8    0    1
 -2       298       299       448      1736      2141      2142
 -1       738    8    0    1
 -2       299       300       449      1737      2143      2144
 -1       739    8    0    1
 -2       300       301       450      1738      2145      2146
 -1       740    8    0    1
 -2       301       302       451      1739      2147      2148
 -1       741    8    0    1
 -2       302       303       452      1740      2149      2150
 -1       742    8    0    1
 -2       303       304       453      1741      2151      2152
 -1       743    8    0    1
 -2       304       305       454      1742      2153      2154
 -1       744    8    0    1
 -2       305       306       455      1743      2155      2156
 -1       745    8    0    1
 -2       306       307       456      1744      2157      2158
 -1       746    8    0    1
 -2       307       308       457      1745      2159      2160
 -1       747    8    0    1
 -2       307       457       456      2160      2161      2157
 -1       748    8    0    1
 -2       308       309       458      1746      2162      2163
 -1       749    8    0    1
 -2       309       310       459      1747      2164      2165
 -1       750    8    0    1
 -2       310       311       460      1748      2166      2167
 -1       751    8    0    1
 -2       311       312       461      1749      2168      2169
 -1       752    8    0    1
 -2       312       313       462      1750      2170      2171
 -1       753    8    0    1
 -2       313       314       463      1751      2172      2173
 -1       754    8    0    1
 -2       313       463       462      2173      2174      2170
 -1       755    8    0    1
 -2       314       315       464      1752      2175      2176
 -1       756    8    0    1
 -2       315       316       465      1753      2177      2178
 -1       757    8    0    1
 -2       316       317       466      1754      2179      2180
 -1       758    8    0    1
 -2       317       318       467      1755      2181      2182
 -1       759    8    0    1
 -2       318       319       468      1756      2183      2184
 -1       760    8    0    1
 -2       295       296       469      1733      2185      2186
 -1       761    8    0    1
 -2       444       295       469      2129      2186      2187
 -1       762    8    0    1
 -2       180       321       181      1803      2188      1337
 -1       763    8    0    1
 -2       449       300       450      2143      2146      2189
 -1       764    8    0    1
 -2       296       446       469      2137      2190      2185
 -1       765    8    0    1
 -2       335       181       321      1804      2188      2191
 -1       766    8    0    1
 -2       442       292       470      2124      2192      2193
 -1       767    8    0    1
 -2       292       440       470      2121      2194      2192
 -1       768    8    0    1
 -2       293       443       440      2128      2195      2120
 -1       769    8    0    1
 -2       439       289       290      2117      1666      2196
 -1       770    8    0    1
 -2       319       441       468      2123      2197      2183
 -1       771    8    0    1
 -2       467       318       468      2181      2184      2198
 -1       772    8    0    1
 -2       466       317       467      2179      2182      2199
 -1       773    8    0    1
 -2       465       316       466      2177      2180      2200
 -1       774    8    0    1
 -2       463       314       464      2172      2176      2201
 -1       775    8    0    1
 -2       461       312       462      2168      2171      2202
 -1       776    8    0    1
 -2       460       311       461      2166      2169      2203
 -1       777    8    0    1
 -2       459       310       460      2164      2167      2204
 -1       778    8    0    1
 -2       457       308       458      2159      2163      2205
 -1       779    8    0    1
 -2       455       306       456      2155      2158      2206
 -1       780    8    0    1
 -2       454       305       455      2153      2156      2207
 -1       781    8    0    1
 -2       453       304       454      2151      2154      2208
 -1       782    8    0    1
 -2       452       303       453      2149      2152      2209
 -1       783    8    0    1
 -2       451       302       452      2147      2150      2210
 -1       784    8    0    1
 -2       450       301       451      2145      2148      2211
 -1       785    8    0    1
 -2       298       448       447      2142      2212      2138
 -1       786    8    0    1
 -2       448       299       449      2141      2144      2213
 -1       787    8    0    1
 -2       458       309       471      2162      2214      2215
 -1       788    8    0    1
 -2       309       459       471      2165      2216      2214
 -1       789    8    0    1
 -2       464       315       465      2175      2178      2217
 -1       790    8    0    1
 -2       334       381       472      1944      2218      2219
 -1       791    8    0    1
 -2       323       324       473      1770      2220      2221
 -1       792    8    0    1
 -2       322       323       474      1767      2222      2223
 -1       793    8    0    1
 -2       323       473       474      2221      2224      2222
 -1       794    8    0    1
 -2       325       326       475      1776      2225      2226
 -1       795    8    0    1
 -2       326       327       476      1779      2227      2228
 -1       796    8    0    1
 -2       326       476       475      2228      2229      2225
 -1       797    8    0    1
 -2       327       328       477      1782      2230      2231
 -1       798    8    0    1
 -2       327       477       476      2231      2232      2227
 -1       799    8    0    1
 -2       328       329       478      1785      2233      2234
 -1       800    8    0    1
 -2       328       478       477      2234      2235      2230
 -1       801    8    0    1
 -2       329       330       479      1788      2236      2237
 -1       802    8    0    1
 -2       329       479       478      2237      2238      2233
 -1       803    8    0    1
 -2       330       331       480      1791      2239      2240
 -1       804    8    0    1
 -2       330       480       479      2240      2241      2236
 -1       805    8    0    1
 -2       381       382       481      1947      2242      2243
 -1       806    8    0    1
 -2       381       481       472      2243      2244      2218
 -1       807    8    0    1
 -2       336       335       482      1808      2245      2246
 -1       808    8    0    1
 -2       449       450       483      2189      2247      2248
 -1       809    8    0    1
 -2       337       336       484      1811      2249      2250
 -1       810    8    0    1
 -2       336       482       484      2246      2251      2249
 -1       811    8    0    1
 -2       338       337       485      1814      2252      2253
 -1       812    8    0    1
 -2       337       484       485      2250      2254      2252
 -1       813    8    0    1
 -2       339       338       486      1817      2255      2256
 -1       814    8    0    1
 -2       338       485       486      2253      2257      2255
 -1       815    8    0    1
 -2       340       339       487      1820      2258      2259
 -1       816    8    0    1
 -2       339       486       487      2256      2260      2258
 -1       817    8    0    1
 -2       341       340       488      1823      2261      2262
 -1       818    8    0    1
 -2       340       487       488      2259      2263      2261
 -1       819    8    0    1
 -2       342       341       489      1826      2264      2265
 -1       820    8    0    1
 -2       341       488       489      2262      2266      2264
 -1       821    8    0    1
 -2       343       342       490      1829      2267      2268
 -1       822    8    0    1
 -2       342       489       490      2265      2269      2267
 -1       823    8    0    1
 -2       344       343       491      1832      2270      2271
 -1       824    8    0    1
 -2       343       490       491      2268      2272      2270
 -1       825    8    0    1
 -2       345       344       492      1835      2273      2274
 -1       826    8    0    1
 -2       344       491       492      2271      2275      2273
 -1       827    8    0    1
 -2       346       345       493      1838      2276      2277
 -1       828    8    0    1
 -2       345       492       493      2274      2278      2276
 -1       829    8    0    1
 -2       347       346       494      1841      2279      2280
 -1       830    8    0    1
 -2       346       493       494      2277      2281      2279
 -1       831    8    0    1
 -2       348       347       495      1844      2282      2283
 -1       832    8    0    1
 -2       347       494       495      2280      2284      2282
 -1       833    8    0    1
 -2       349       348       496      1847      2285      2286
 -1       834    8    0    1
 -2       348       495       496      2283      2287      2285
 -1       835    8    0    1
 -2       350       349       497      1850      2288      2289
 -1       836    8    0    1
 -2       349       496       497      2286      2290      2288
 -1       837    8    0    1
 -2       351       350       498      1853      2291      2292
 -1       838    8    0    1
 -2       350       497       498      2289      2293      2291
 -1       839    8    0    1
 -2       352       351       499      1856      2294      2295
 -1       840    8    0    1
 -2       351       498       499      2292      2296      2294
 -1       841    8    0    1
 -2       353       352       500      1859      2297      2298
 -1       842    8    0    1
 -2       352       499       500      2295      2299      2297
 -1       843    8    0    1
 -2       354       353       501      1862      2300      2301
 -1       844    8    0    1
 -2       353       500       501      2298      2302      2300
 -1       845    8    0    1
 -2       355       354       502      1865      2303      2304
 -1       846    8    0    1
 -2       354       501       502      2301      2305      2303
 -1       847    8    0    1
 -2       356       355       503      1868      2306      2307
 -1       848    8    0    1
 -2       355       502       503      2304      2308      2306
 -1       849    8    0    1
 -2       357       356       504      1871      2309      2310
 -1       850    8    0    1
 -2       356       503       504      2307      2311      2309
 -1       851    8    0    1
 -2       358       357       505      1874      2312      2313
 -1       852    8    0    1
 -2       357       504       505      2310      2314      2312
 -1       853    8    0    1
 -2       359       358       506      1877      2315      2316
 -1       854    8    0    1
 -2       358       505       506      2313      2317      2315
 -1       855    8    0    1
 -2       360       359       507      1880      2318      2319
 -1       856    8    0    1
 -2       359       506       507      2316      2320      2318
 -1       857    8    0    1
 -2       361       360       508      1883      2321      2322
 -1       858    8    0    1
 -2       360       507       508      2319      2323      2321
 -1       859    8    0    1
 -2       362       361       509      1886      2324      2325
 -1       860    8    0    1
 -2       361       508       509      2322      2326      2324
 -1       861    8    0    1
 -2       363       362       510      1889      2327      2328
 -1       862    8    0    1
 -2       362       509       510      2325      2329      2327
 -1       863    8    0    1
 -2       364       363       511      1892      2330      2331
 -1       864    8    0    1
 -2       363       510       511      2328      2332      2330
 -1       865    8    0    1
 -2       365       364       512      1895      2333      2334
 -1       866    8    0    1
 -2       364       511       512      2331      2335      2333
 -1       867    8    0    1
 -2       366       365       513      1898      2336      2337
 -1       868    8    0    1
 -2       365       512       513      2334      2338      2336
 -1       869    8    0    1
 -2       367       366       514      1901      2339      2340
 -1       870    8    0    1
 -2       366       513       514      2337      2341      2339
 -1       871    8    0    1
 -2       368       367       515      1904      2342      2343
 -1       872    8    0    1
 -2       367       514       515      2340      2344      2342
 -1       873    8    0    1
 -2       369       368       516      1907      2345      2346
 -1       874    8    0    1
 -2       368       515       516      2343      2347      2345
 -1       875    8    0    1
 -2       370       369       517      1910      2348      2349
 -1       876    8    0    1
 -2       369       516       517      2346      2350      2348
 -1       877    8    0    1
 -2       371       370       518      1913      2351      2352
 -1       878    8    0    1
 -2       370       517       518      2349      2353      2351
 -1       879    8    0    1
 -2       372       371       519      1916      2354      2355
 -1       880    8    0    1
 -2       371       518       519      2352      2356      2354
 -1       881    8    0    1
 -2       373       372       520      1919      2357      2358
 -1       882    8    0    1
 -2       372       519       520      2355      2359      2357
 -1       883    8    0    1
 -2       374       373       521      1922      2360      2361
 -1       884    8    0    1
 -2       373       520       521      2358      2362      2360
 -1       885    8    0    1
 -2       375       374       522      1925      2363      2364
 -1       886    8    0    1
 -2       374       521       522      2361      2365      2363
 -1       887    8    0    1
 -2       376       375       523      1928      2366      2367
 -1       888    8    0    1
 -2       375       522       523      2364      2368      2366
 -1       889    8    0    1
 -2       377       376       524      1931      2369      2370
 -1       890    8    0    1
 -2       376       523       524      2367      2371      2369
 -1       891    8    0    1
 -2       378       377       525      1934      2372      2373
 -1       892    8    0    1
 -2       377       524       525      2370      2374      2372
 -1       893    8    0    1
 -2       379       378       526      1937      2375      2376
 -1       894    8    0    1
 -2       378       525       526      2373      2377      2375
 -1       895    8    0    1
 -2       383       384       527      1953      2378      2379
 -1       896    8    0    1
 -2       384       385       528      1956      2380      2381
 -1       897    8    0    1
 -2       384       528       527      2381      2382      2378
 -1       898    8    0    1
 -2       385       386       529      1959      2383      2384
 -1       899    8    0    1
 -2       385       529       528      2384      2385      2380
 -1       900    8    0    1
 -2       386       387       530      1962      2386      2387
 -1       901    8    0    1
 -2       386       530       529      2387      2388      2383
 -1       902    8    0    1
 -2       387       388       531      1965      2389      2390
 -1       903    8    0    1
 -2       387       531       530      2390      2391      2386
 -1       904    8    0    1
 -2       388       389       532      1968      2392      2393
 -1       905    8    0    1
 -2       388       532       531      2393      2394      2389
 -1       906    8    0    1
 -2       389       390       533      1971      2395      2396
 -1       907    8    0    1
 -2       389       533       532      2396      2397      2392
 -1       908    8    0    1
 -2       390       391       534      1974      2398      2399
 -1       909    8    0    1
 -2       390       534       533      2399      2400      2395
 -1       910    8    0    1
 -2       391       392       535      1977      2401      2402
 -1       911    8    0    1
 -2       391       535       534      2402      2403      2398
 -1       912    8    0    1
 -2       392       393       536      1980      2404      2405
 -1       913    8    0    1
 -2       392       536       535      2405      2406      2401
 -1       914    8    0    1
 -2       393       394       537      1983      2407      2408
 -1       915    8    0    1
 -2       393       537       536      2408      2409      2404
 -1       916    8    0    1
 -2       394       395       538      1986      2410      2411
 -1       917    8    0    1
 -2       394       538       537      2411      2412      2407
 -1       918    8    0    1
 -2       395       396       539      1989      2413      2414
 -1       919    8    0    1
 -2       395       539       538      2414      2415      2410
 -1       920    8    0    1
 -2       396       397       540      1992      2416      2417
 -1       921    8    0    1
 -2       396       540       539      2417      2418      2413
 -1       922    8    0    1
 -2       397       398       541      1995      2419      2420
 -1       923    8    0    1
 -2       397       541       540      2420      2421      2416
 -1       924    8    0    1
 -2       398       399       542      1998      2422      2423
 -1       925    8    0    1
 -2       398       542       541      2423      2424      2419
 -1       926    8    0    1
 -2       399       400       543      2001      2425      2426
 -1       927    8    0    1
 -2       399       543       542      2426      2427      2422
 -1       928    8    0    1
 -2       400       401       544      2004      2428      2429
 -1       929    8    0    1
 -2       400       544       543      2429      2430      2425
 -1       930    8    0    1
 -2       401       402       545      2007      2431      2432
 -1       931    8    0    1
 -2       401       545       544      2432      2433      2428
 -1       932    8    0    1
 -2       402       403       546      2010      2434      2435
 -1       933    8    0    1
 -2       402       546       545      2435      2436      2431
 -1       934    8    0    1
 -2       403       404       547      2013      2437      2438
 -1       935    8    0    1
 -2       403       547       546      2438      2439      2434
 -1       936    8    0    1
 -2       404       405       548      2016      2440      2441
 -1       937    8    0    1
 -2       404       548       547      2441      2442      2437
 -1       938    8    0    1
 -2       405       406       549      2019      2443      2444
 -1       939    8    0    1
 -2       405       549       548      2444      2445      2440
 -1       940    8    0    1
 -2       406       407       550      2022      2446      2447
 -1       941    8    0    1
 -2       406       550       549      2447      2448      2443
 -1       942    8    0    1
 -2       407       408       551      2025      2449      2450
 -1       943    8    0    1
 -2       407       551       550      2450      2451      2446
 -1       944    8    0    1
 -2       408       409       552      2028      2452      2453
 -1       945    8    0    1
 -2       408       552       551      2453      2454      2449
 -1       946    8    0    1
 -2       409       410       553      2031      2455      2456
 -1       947    8    0    1
 -2       409       553       552      2456      2457      2452
 -1       948    8    0    1
 -2       410       411       554      2034      2458      2459
 -1       949    8    0    1
 -2       410       554       553      2459      2460      2455
 -1       950    8    0    1
 -2       411       412       555      2037      2461      2462
 -1       951    8    0    1
 -2       411       555       554      2462      2463      2458
 -1       952    8    0    1
 -2       412       413       556      2040      2464      2465
 -1       953    8    0    1
 -2       412       556       555      2465      2466      2461
 -1       954    8    0    1
 -2       413       414       557      2043      2467      2468
 -1       955    8    0    1
 -2       413       557       556      2468      2469      2464
 -1       956    8    0    1
 -2       414       415       558      2046      2470      2471
 -1       957    8    0    1
 -2       414       558       557      2471      2472      2467
 -1       958    8    0    1
 -2       415       416       559      2049      2473      2474
 -1       959    8    0    1
 -2       415       559       558      2474      2475      2470
 -1       960    8    0    1
 -2       416       417       560      2052      2476      2477
 -1       961    8    0    1
 -2       416       560       559      2477      2478      2473
 -1       962    8    0    1
 -2       417       418       561      2055      2479      2480
 -1       963    8    0    1
 -2       417       561       560      2480      2481      2476
 -1       964    8    0    1
 -2       418       419       562      2058      2482      2483
 -1       965    8    0    1
 -2       418       562       561      2483      2484      2479
 -1       966    8    0    1
 -2       419       420       563      2061      2485      2486
 -1       967    8    0    1
 -2       419       563       562      2486      2487      2482
 -1       968    8    0    1
 -2       420       421       564      2064      2488      2489
 -1       969    8    0    1
 -2       420       564       563      2489      2490      2485
 -1       970    8    0    1
 -2       421       422       565      2067      2491      2492
 -1       971    8    0    1
 -2       421       565       564      2492      2493      2488
 -1       972    8    0    1
 -2       422       423       566      2070      2494      2495
 -1       973    8    0    1
 -2       422       566       565      2495      2496      2491
 -1       974    8    0    1
 -2       423       424       567      2073      2497      2498
 -1       975    8    0    1
 -2       423       567       566      2498      2499      2494
 -1       976    8    0    1
 -2       424       425       568      2076      2500      2501
 -1       977    8    0    1
 -2       424       568       567      2501      2502      2497
 -1       978    8    0    1
 -2       425       426       429      2079      2088      2503
 -1       979    8    0    1
 -2       430       431       569      2095      2504      2505
 -1       980    8    0    1
 -2       431       432       570      2098      2506      2507
 -1       981    8    0    1
 -2       431       570       569      2507      2508      2504
 -1       982    8    0    1
 -2       428       427       571      2085      2509      2510
 -1       983    8    0    1
 -2       427       430       572      2092      2511      2512
 -1       984    8    0    1
 -2       571       427       572      2509      2512      2513
 -1       985    8    0    1
 -2       430       569       572      2505      2514      2511
 -1       986    8    0    1
 -2       432       433       573      2101      2515      2516
 -1       987    8    0    1
 -2       432       573       570      2516      2517      2506
 -1       988    8    0    1
 -2       433       434       574      2104      2518      2519
 -1       989    8    0    1
 -2       433       574       573      2519      2520      2515
 -1       990    8    0    1
 -2       434       435       575      2107      2521      2522
 -1       991    8    0    1
 -2       434       575       574      2522      2523      2518
 -1       992    8    0    1
 -2       435       436       576      2110      2524      2525
 -1       993    8    0    1
 -2       435       576       575      2525      2526      2521
 -1       994    8    0    1
 -2       436       437       577      2113      2527      2528
 -1       995    8    0    1
 -2       436       577       576      2528      2529      2524
 -1       996    8    0    1
 -2       437       438       578      2116      2530      2531
 -1       997    8    0    1
 -2       437       578       577      2531      2532      2527
 -1       998    8    0    1
 -2       438       439       579      2119      2533      2534
 -1       999    8    0    1
 -2       438       579       578      2534      2535      2530
 -1      1000    8    0    1
 -2       440       443       580      2195      2536      2537
 -1      1001    8    0    1
 -2       439       290       380      2196      1940      2538
 -1      1002    8    0    1
 -2       468       441       581      2197      2539      2540
 -1      1003    8    0    1
 -2       382       383       582      1950      2541      2542
 -1      1004    8    0    1
 -2       383       527       582      2379      2543      2541
 -1      1005    8    0    1
 -2       441       442       583      2126      2544      2545
 -1      1006    8    0    1
 -2       443       444       584      2131      2546      2547
 -1      1007    8    0    1
 -2       335       321       585      2191      2548      2549
 -1      1008    8    0    1
 -2       482       335       585      2245      2549      2550
 -1      1009    8    0    1
 -2       321       320       585      1762      2551      2548
 -1      1010    8    0    1
 -2       467       468       586      2198      2552      2553
 -1      1011    8    0    1
 -2       468       581       586      2540      2554      2552
 -1      1012    8    0    1
 -2       461       462       587      2202      2555      2556
 -1      1013    8    0    1
 -2       455       456       588      2206      2557      2558
 -1      1014    8    0    1
 -2       324       325       589      1773      2559      2560
 -1      1015    8    0    1
 -2       473       324       589      2220      2560      2561
 -1      1016    8    0    1
 -2       325       475       589      2226      2562      2559
 -1      1017    8    0    1
 -2       448       449       590      2213      2563      2564
 -1      1018    8    0    1
 -2       446       447       591      2140      2565      2566
 -1      1019    8    0    1
 -2       469       446       592      2190      2567      2568
 -1      1020    8    0    1
 -2       447       448       593      2212      2569      2570
 -1      1021    8    0    1
 -2       447       593       591      2570      2571      2565
 -1      1022    8    0    1
 -2       450       451       594      2211      2572      2573
 -1      1023    8    0    1
 -2       451       452       595      2210      2574      2575
 -1      1024    8    0    1
 -2       452       453       596      2209      2576      2577
 -1      1025    8    0    1
 -2       452       596       595      2577      2578      2574
 -1      1026    8    0    1
 -2       453       454       597      2208      2579      2580
 -1      1027    8    0    1
 -2       454       455       598      2207      2581      2582
 -1      1028    8    0    1
 -2       454       598       597      2582      2583      2579
 -1      1029    8    0    1
 -2       456       457       599      2161      2584      2585
 -1      1030    8    0    1
 -2       456       599       588      2585      2586      2557
 -1      1031    8    0    1
 -2       464       465       600      2217      2587      2588
 -1      1032    8    0    1
 -2       457       458       601      2205      2589      2590
 -1      1033    8    0    1
 -2       459       460       602      2204      2591      2592
 -1      1034    8    0    1
 -2       460       461       603      2203      2593      2594
 -1      1035    8    0    1
 -2       460       603       602      2594      2595      2591
 -1      1036    8    0    1
 -2       462       463       604      2174      2596      2597
 -1      1037    8    0    1
 -2       463       464       605      2201      2598      2599
 -1      1038    8    0    1
 -2       465       466       606      2200      2600      2601
 -1      1039    8    0    1
 -2       465       606       600      2601      2602      2587
 -1      1040    8    0    1
 -2       466       467       607      2199      2603      2604
 -1      1041    8    0    1
 -2       333       334       608      1802      2605      2606
 -1      1042    8    0    1
 -2       332       333       608      1797      2606      2607
 -1      1043    8    0    1
 -2       334       472       608      2219      2608      2605
 -1      1044    8    0    1
 -2       444       469       609      2187      2609      2610
 -1      1045    8    0    1
 -2       444       609       584      2610      2611      2546
 -1      1046    8    0    1
 -2       448       590       610      2564      2612      2613
 -1      1047    8    0    1
 -2       448       610       593      2613      2614      2569
 -1      1048    8    0    1
 -2       322       474       611      2223      2615      2616
 -1      1049    8    0    1
 -2       322       611       445      2616      2617      2135
 -1      1050    8    0    1
 -2       481       382       582      2242      2542      2618
 -1      1051    8    0    1
 -2       331       332       608      1794      2607      2619
 -1      1052    8    0    1
 -2       609       469       612      2609      2620      2621
 -1      1053    8    0    1
 -2       469       592       612      2568      2622      2620
 -1      1054    8    0    1
 -2       449       483       590      2248      2623      2563
 -1      1055    8    0    1
 -2       470       440       580      2194      2537      2624
 -1      1056    8    0    1
 -2       461       587       603      2556      2625      2593
 -1      1057    8    0    1
 -2       606       466       607      2600      2604      2626
 -1      1058    8    0    1
 -2       425       429       568      2503      2627      2500
 -1      1059    8    0    1
 -2       429       428       568      2089      2628      2627
 -1      1060    8    0    1
 -2       605       464       600      2598      2588      2629
 -1      1061    8    0    1
 -2       580       443       584      2536      2547      2630
 -1      1062    8    0    1
 -2       439       380       613      2538      2631      2632
 -1      1063    8    0    1
 -2       579       439       613      2533      2632      2633
 -1      1064    8    0    1
 -2       380       379       613      1941      2634      2631
 -1      1065    8    0    1
 -2       581       441       583      2539      2545      2635
 -1      1066    8    0    1
 -2       331       608       480      2619      2636      2239
 -1      1067    8    0    1
 -2       583       442       614      2544      2637      2638
 -1      1068    8    0    1
 -2       442       470       614      2193      2639      2637
 -1      1069    8    0    1
 -2       462       604       587      2597      2640      2555
 -1      1070    8    0    1
 -2       320       445       615      2134      2641      2642
 -1      1071    8    0    1
 -2       585       320       615      2551      2642      2643
 -1      1072    8    0    1
 -2       445       611       615      2617      2644      2641
 -1      1073    8    0    1
 -2       601       458       616      2589      2645      2646
 -1      1074    8    0    1
 -2       458       471       616      2215      2647      2645
 -1      1075    8    0    1
 -2       598       455       588      2581      2558      2648
 -1      1076    8    0    1
 -2       596       453       597      2576      2580      2649
 -1      1077    8    0    1
 -2       592       446       591      2567      2566      2650
 -1      1078    8    0    1
 -2       483       450       594      2247      2573      2651
 -1      1079    8    0    1
 -2       467       586       607      2553      2652      2603
 -1      1080    8    0    1
 -2       471       459       617      2216      2653      2654
 -1      1081    8    0    1
 -2       459       602       617      2592      2655      2653
 -1      1082    8    0    1
 -2       594       451       618      2572      2656      2657
 -1      1083    8    0    1
 -2       451       595       618      2575      2658      2656
 -1      1084    8    0    1
 -2       599       457       619      2584      2659      2660
 -1      1085    8    0    1
 -2       457       601       619      2590      2661      2659
 -1      1086    8    0    1
 -2       604       463       605      2596      2599      2662
 -1      1087    8    0    1
 -2       568       428       571      2628      2510      2663
 -1      1088    8    0    1
 -2       613       379       526      2634      2376      2664
 -1      1089    8    0    1
 -2       476       477       620      2232      2665      2666
 -1      1090    8    0    1
 -2       475       476       621      2229      2667      2668
 -1      1091    8    0    1
 -2       476       620       621      2666      2669      2667
 -1      1092    8    0    1
 -2       478       479       622      2238      2670      2671
 -1      1093    8    0    1
 -2       479       480       623      2241      2672      2673
 -1      1094    8    0    1
 -2       479       623       622      2673      2674      2670
 -1      1095    8    0    1
 -2       472       481       624      2244      2675      2676
 -1      1096    8    0    1
 -2       586       581       625      2554      2677      2678
 -1      1097    8    0    1
 -2       608       472       480      2608      2679      2636
 -1      1098    8    0    1
 -2       485       484       626      2254      2680      2681
 -1      1099    8    0    1
 -2       486       485       627      2257      2682      2683
 -1      1100    8    0    1
 -2       485       626       627      2681      2684      2682
 -1      1101    8    0    1
 -2       487       486       628      2260      2685      2686
 -1      1102    8    0    1
 -2       486       627       628      2683      2687      2685
 -1      1103    8    0    1
 -2       488       487       629      2263      2688      2689
 -1      1104    8    0    1
 -2       487       628       629      2686      2690      2688
 -1      1105    8    0    1
 -2       489       488       630      2266      2691      2692
 -1      1106    8    0    1
 -2       488       629       630      2689      2693      2691
 -1      1107    8    0    1
 -2       490       489       631      2269      2694      2695
 -1      1108    8    0    1
 -2       489       630       631      2692      2696      2694
 -1      1109    8    0    1
 -2       491       490       632      2272      2697      2698
 -1      1110    8    0    1
 -2       490       631       632      2695      2699      2697
 -1      1111    8    0    1
 -2       492       491       633      2275      2700      2701
 -1      1112    8    0    1
 -2       491       632       633      2698      2702      2700
 -1      1113    8    0    1
 -2       493       492       634      2278      2703      2704
 -1      1114    8    0    1
 -2       492       633       634      2701      2705      2703
 -1      1115    8    0    1
 -2       494       493       635      2281      2706      2707
 -1      1116    8    0    1
 -2       493       634       635      2704      2708      2706
 -1      1117    8    0    1
 -2       495       494       636      2284      2709      2710
 -1      1118    8    0    1
 -2       494       635       636      2707      2711      2709
 -1      1119    8    0    1
 -2       496       495       637      2287      2712      2713
 -1      1120    8    0    1
 -2       495       636       637      2710      2714      2712
 -1      1121    8    0    1
 -2       497       496       638      2290      2715      2716
 -1      1122    8    0    1
 -2       496       637       638      2713      2717      2715
 -1      1123    8    0    1
 -2       498       497       639      2293      2718      2719
 -1      1124    8    0    1
 -2       497       638       639      2716      2720      2718
 -1      1125    8    0    1
 -2       499       498       640      2296      2721      2722
 -1      1126    8    0    1
 -2       498       639       640      2719      2723      2721
 -1      1127    8    0    1
 -2       500       499       641      2299      2724      2725
 -1      1128    8    0    1
 -2       499       640       641      2722      2726      2724
 -1      1129    8    0    1
 -2       501       500       642      2302      2727      2728
 -1      1130    8    0    1
 -2       500       641       642      2725      2729      2727
 -1      1131    8    0    1
 -2       502       501       643      2305      2730      2731
 -1      1132    8    0    1
 -2       501       642       643      2728      2732      2730
 -1      1133    8    0    1
 -2       503       502       644      2308      2733      2734
 -1      1134    8    0    1
 -2       502       643       644      2731      2735      2733
 -1      1135    8    0    1
 -2       504       503       645      2311      2736      2737
 -1      1136    8    0    1
 -2       503       644       645      2734      2738      2736
 -1      1137    8    0    1
 -2       505       504       646      2314      2739      2740
 -1      1138    8    0    1
 -2       504       645       646      2737      2741      2739
 -1      1139    8    0    1
 -2       506       505       647      2317      2742      2743
 -1      1140    8    0    1
 -2       505       646       647      2740      2744      2742
 -1      1141    8    0    1
 -2       507       506       648      2320      2745      2746
 -1      1142    8    0    1
 -2       506       647       648      2743      2747      2745
 -1      1143    8    0    1
 -2       508       507       649      2323      2748      2749
 -1      1144    8    0    1
 -2       507       648       649      2746      2750      2748
 -1      1145    8    0    1
 -2       509       508       650      2326      2751      2752
 -1      1146    8    0    1
 -2       508       649       650      2749      2753      2751
 -1      1147    8    0    1
 -2       510       509       651      2329      2754      2755
 -1      1148    8    0    1
 -2       509       650       651      2752      2756      2754
 -1      1149    8    0    1
 -2       511       510       652      2332      2757      2758
 -1      1150    8    0    1
 -2       510       651       652      2755      2759      2757
 -1      1151    8    0    1
 -2       512       511       653      2335      2760      2761
 -1      1152    8    0    1
 -2       511       652       653      2758      2762      2760
 -1      1153    8    0    1
 -2       513       512       654      2338      2763      2764
 -1      1154    8    0    1
 -2       512       653       654      2761      2765      2763
 -1      1155    8    0    1
 -2       514       513       655      2341      2766      2767
 -1      1156    8    0    1
 -2       513       654       655      2764      2768      2766
 -1      1157    8    0    1
 -2       515       514       656      2344      2769      2770
 -1      1158    8    0    1
 -2       514       655       656      2767      2771      2769
 -1      1159    8    0    1
 -2       516       515       657      2347      2772      2773
 -1      1160    8    0    1
 -2       515       656       657      2770      2774      2772
 -1      1161    8    0    1
 -2       517       516       658      2350      2775      2776
 -1      1162    8    0    1
 -2       516       657       658      2773      2777      2775
 -1      1163    8    0    1
 -2       518       517       659      2353      2778      2779
 -1      1164    8    0    1
 -2       517       658       659      2776      2780      2778
 -1      1165    8    0    1
 -2       519       518       660      2356      2781      2782
 -1      1166    8    0    1
 -2       518       659       660      2779      2783      2781
 -1      1167    8    0    1
 -2       520       519       661      2359      2784      2785
 -1      1168    8    0    1
 -2       519       660       661      2782      2786      2784
 -1      1169    8    0    1
 -2       521       520       662      2362      2787      2788
 -1      1170    8    0    1
 -2       520       661       662      2785      2789      2787
 -1      1171    8    0    1
 -2       522       521       663      2365      2790      2791
 -1      1172    8    0    1
 -2       521       662       663      2788      2792      2790
 -1      1173    8    0    1
 -2       523       522       664      2368      2793      2794
 -1      1174    8    0    1
 -2       522       663       664      2791      2795      2793
 -1      1175    8    0    1
 -2       524       523       665      2371      2796      2797
 -1      1176    8    0    1
 -2       523       664       665      2794      2798      2796
 -1      1177    8    0    1
 -2       525       524       666      2374      2799      2800
 -1      1178    8    0    1
 -2       524       665       666      2797      2801      2799
 -1      1179    8    0    1
 -2       526       525       667      2377      2802      2803
 -1      1180    8    0    1
 -2       525       666       667      2800      2804      2802
 -1      1181    8    0    1
 -2       528       529       668      2385      2805      2806
 -1      1182    8    0    1
 -2       581       583       669      2635      2807      2808
 -1      1183    8    0    1
 -2       581       669       625      2808      2809      2677
 -1      1184    8    0    1
 -2       527       528       670      2382      2810      2811
 -1      1185    8    0    1
 -2       528       668       670      2806      2812      2810
 -1      1186    8    0    1
 -2       530       531       671      2391      2813      2814
 -1      1187    8    0    1
 -2       531       532       672      2394      2815      2816
 -1      1188    8    0    1
 -2       531       672       671      2816      2817      2813
 -1      1189    8    0    1
 -2       532       533       673      2397      2818      2819
 -1      1190    8    0    1
 -2       532       673       672      2819      2820      2815
 -1      1191    8    0    1
 -2       533       534       674      2400      2821      2822
 -1      1192    8    0    1
 -2       533       674       673      2822      2823      2818
 -1      1193    8    0    1
 -2       534       535       675      2403      2824      2825
 -1      1194    8    0    1
 -2       534       675       674      2825      2826      2821
 -1      1195    8    0    1
 -2       535       536       676      2406      2827      2828
 -1      1196    8    0    1
 -2       535       676       675      2828      2829      2824
 -1      1197    8    0    1
 -2       536       537       677      2409      2830      2831
 -1      1198    8    0    1
 -2       536       677       676      2831      2832      2827
 -1      1199    8    0    1
 -2       537       538       678      2412      2833      2834
 -1      1200    8    0    1
 -2       537       678       677      2834      2835      2830
 -1      1201    8    0    1
 -2       538       539       679      2415      2836      2837
 -1      1202    8    0    1
 -2       538       679       678      2837      2838      2833
 -1      1203    8    0    1
 -2       539       540       680      2418      2839      2840
 -1      1204    8    0    1
 -2       539       680       679      2840      2841      2836
 -1      1205    8    0    1
 -2       540       541       681      2421      2842      2843
 -1      1206    8    0    1
 -2       540       681       680      2843      2844      2839
 -1      1207    8    0    1
 -2       541       542       682      2424      2845      2846
 -1      1208    8    0    1
 -2       541       682       681      2846      2847      2842
 -1      1209    8    0    1
 -2       542       543       683      2427      2848      2849
 -1      1210    8    0    1
 -2       542       683       682      2849      2850      2845
 -1      1211    8    0    1
 -2       543       544       684      2430      2851      2852
 -1      1212    8    0    1
 -2       543       684       683      2852      2853      2848
 -1      1213    8    0    1
 -2       544       545       685      2433      2854      2855
 -1      1214    8    0    1
 -2       544       685       684      2855      2856      2851
 -1      1215    8    0    1
 -2       545       546       686      2436      2857      2858
 -1      1216    8    0    1
 -2       545       686       685      2858      2859      2854
 -1      1217    8    0    1
 -2       546       547       687      2439      2860      2861
 -1      1218    8    0    1
 -2       546       687       686      2861      2862      2857
 -1      1219    8    0    1
 -2       547       548       688      2442      2863      2864
 -1      1220    8    0    1
 -2       547       688       687      2864      2865      2860
 -1      1221    8    0    1
 -2       548       549       689      2445      2866      2867
 -1      1222    8    0    1
 -2       548       689       688      2867      2868      2863
 -1      1223    8    0    1
 -2       549       550       690      2448      2869      2870
 -1      1224    8    0    1
 -2       549       690       689      2870      2871      2866
 -1      1225    8    0    1
 -2       550       551       691      2451      2872      2873
 -1      1226    8    0    1
 -2       550       691       690      2873      2874      2869
 -1      1227    8    0    1
 -2       551       552       692      2454      2875      2876
 -1      1228    8    0    1
 -2       551       692       691      2876      2877      2872
 -1      1229    8    0    1
 -2       552       553       693      2457      2878      2879
 -1      1230    8    0    1
 -2       552       693       692      2879      2880      2875
 -1      1231    8    0    1
 -2       553       554       694      2460      2881      2882
 -1      1232    8    0    1
 -2       553       694       693      2882      2883      2878
 -1      1233    8    0    1
 -2       554       555       695      2463      2884      2885
 -1      1234    8    0    1
 -2       554       695       694      2885      2886      2881
 -1      1235    8    0    1
 -2       555       556       696      2466      2887      2888
 -1      1236    8    0    1
 -2       555       696       695      2888      2889      2884
 -1      1237    8    0    1
 -2       556       557       697      2469      2890      2891
 -1      1238    8    0    1
 -2       556       697       696      2891      2892      2887
 -1      1239    8    0    1
 -2       557       558       698      2472      2893      2894
 -1      1240    8    0    1
 -2       557       698       697      2894      2895      2890
 -1      1241    8    0    1
 -2       558       559       699      2475      2896      2897
 -1      1242    8    0    1
 -2       558       699       698      2897      2898      2893
 -1      1243    8    0    1
 -2       559       560       700      2478      2899      2900
 -1      1244    8    0    1
 -2       559       700       699      2900      2901      2896
 -1      1245    8    0    1
 -2       560       561       701      2481      2902      2903
 -1      1246    8    0    1
 -2       560       701       700      2903      2904      2899
 -1      1247    8    0    1
 -2       562       563       702      2487      2905      2906
 -1      1248    8    0    1
 -2       563       564       703      2490      2907      2908
 -1      1249    8    0    1
 -2       563       703       702      2908      2909      2905
 -1      1250    8    0    1
 -2       564       565       704      2493      2910      2911
 -1      1251    8    0    1
 -2       564       704       703      2911      2912      2907
 -1      1252    8    0    1
 -2       565       566       705      2496      2913      2914
 -1      1253    8    0    1
 -2       565       705       704      2914      2915      2910
 -1      1254    8    0    1
 -2       566       567       706      2499      2916      2917
 -1      1255    8    0    1
 -2       566       706       705      2917      2918      2913
 -1      1256    8    0    1
 -2       567       568       707      2502      2919      2920
 -1      1257    8    0    1
 -2       706       567       707      2916      2920      2921
 -1      1258    8    0    1
 -2       568       571       707      2663      2922      2919
 -1      1259    8    0    1
 -2       573       574       708      2520      2923      2924
 -1      1260    8    0    1
 -2       613       526       709      2664      2925      2926
 -1      1261    8    0    1
 -2       526       667       709      2803      2927      2925
 -1      1262    8    0    1
 -2       569       570       710      2508      2928      2929
 -1      1263    8    0    1
 -2       574       575       625      2523      2930      2931
 -1      1264    8    0    1
 -2       570       573       711      2517      2932      2933
 -1      1265    8    0    1
 -2       710       570       711      2928      2933      2934
 -1      1266    8    0    1
 -2       573       708       711      2924      2935      2932
 -1      1267    8    0    1
 -2       582       527       712      2543      2936      2937
 -1      1268    8    0    1
 -2       527       670       712      2811      2938      2936
 -1      1269    8    0    1
 -2       576       577       713      2529      2939      2940
 -1      1270    8    0    1
 -2       577       578       714      2532      2941      2942
 -1      1271    8    0    1
 -2       577       714       713      2942      2943      2939
 -1      1272    8    0    1
 -2       603       587       715      2625      2944      2945
 -1      1273    8    0    1
 -2       606       607       716      2626      2946      2947
 -1      1274    8    0    1
 -2       579       613       709      2633      2926      2948
 -1      1275    8    0    1
 -2       482       585       717      2550      2949      2950
 -1      1276    8    0    1
 -2       585       615       717      2643      2951      2949
 -1      1277    8    0    1
 -2       580       584       718      2630      2952      2953
 -1      1278    8    0    1
 -2       592       591       719      2650      2954      2955
 -1      1279    8    0    1
 -2       596       597       720      2649      2956      2957
 -1      1280    8    0    1
 -2       529       530       721      2388      2958      2959
 -1      1281    8    0    1
 -2       668       529       721      2805      2959      2960
 -1      1282    8    0    1
 -2       530       671       721      2814      2961      2958
 -1      1283    8    0    1
 -2       484       482       722      2251      2962      2963
 -1      1284    8    0    1
 -2       626       484       722      2680      2963      2964
 -1      1285    8    0    1
 -2       482       717       722      2950      2965      2962
 -1      1286    8    0    1
 -2       477       478       723      2235      2966      2967
 -1      1287    8    0    1
 -2       620       477       723      2665      2967      2968
 -1      1288    8    0    1
 -2       478       622       723      2671      2969      2966
 -1      1289    8    0    1
 -2       607       586       724      2652      2970      2971
 -1      1290    8    0    1
 -2       481       582       725      2618      2972      2973
 -1      1291    8    0    1
 -2       624       481       725      2675      2973      2974
 -1      1292    8    0    1
 -2       582       712       725      2937      2975      2972
 -1      1293    8    0    1
 -2       474       473       726      2224      2976      2977
 -1      1294    8    0    1
 -2       483       594       727      2651      2978      2979
 -1      1295    8    0    1
 -2       590       483       728      2623      2980      2981
 -1      1296    8    0    1
 -2       598       588       729      2648      2982      2983
 -1      1297    8    0    1
 -2       595       596       730      2578      2984      2985
 -1      1298    8    0    1
 -2       596       720       730      2957      2986      2984
 -1      1299    8    0    1
 -2       588       599       731      2586      2987      2988
 -1      1300    8    0    1
 -2       597       598       732      2583      2989      2990
 -1      1301    8    0    1
 -2       720       597       732      2956      2990      2991
 -1      1302    8    0    1
 -2       598       729       732      2983      2992      2989
 -1      1303    8    0    1
 -2       605       600       733      2629      2993      2994
 -1      1304    8    0    1
 -2       470       580       734      2624      2995      2996
 -1      1305    8    0    1
 -2       604       605       735      2662      2997      2998
 -1      1306    8    0    1
 -2       602       603       736      2595      2999      3000
 -1      1307    8    0    1
 -2       584       609       737      2611      3001      3002
 -1      1308    8    0    1
 -2       600       606       738      2602      3003      3004
 -1      1309    8    0    1
 -2       606       716       738      2947      3005      3003
 -1      1310    8    0    1
 -2       587       604       739      2640      3006      3007
 -1      1311    8    0    1
 -2       611       474       740      2615      3008      3009
 -1      1312    8    0    1
 -2       474       726       740      2977      3010      3008
 -1      1313    8    0    1
 -2       475       621       741      2668      3011      3012
 -1      1314    8    0    1
 -2       475       741       589      3012      3013      2562
 -1      1315    8    0    1
 -2       586       625       724      2678      3014      2970
 -1      1316    8    0    1
 -2       480       472       624      2679      2676      3015
 -1      1317    8    0    1
 -2       737       609       742      3001      3016      3017
 -1      1318    8    0    1
 -2       609       612       742      2621      3018      3016
 -1      1319    8    0    1
 -2       569       710       743      2929      3019      3020
 -1      1320    8    0    1
 -2       569       743       572      3020      3021      2514
 -1      1321    8    0    1
 -2       736       603       715      2999      2945      3022
 -1      1322    8    0    1
 -2       561       562       744      2484      3023      3024
 -1      1323    8    0    1
 -2       701       561       744      2902      3024      3025
 -1      1324    8    0    1
 -2       562       702       744      2906      3026      3023
 -1      1325    8    0    1
 -2       735       605       733      2997      2994      3027
 -1      1326    8    0    1
 -2       571       572       745      2513      3028      3029
 -1      1327    8    0    1
 -2       707       571       745      2922      3029      3030
 -1      1328    8    0    1
 -2       572       743       745      3021      3031      3028
 -1      1329    8    0    1
 -2       575       576       746      2526      3032      3033
 -1      1330    8    0    1
 -2       715       587       739      2944      3007      3034
 -1      1331    8    0    1
 -2       578       579       709      2535      2948      3035
 -1      1332    8    0    1
 -2       578       709       747      3035      3036      3037
 -1      1333    8    0    1
 -2       714       578       747      2941      3037      3038
 -1      1334    8    0    1
 -2       709       667       747      2927      3039      3036
 -1      1335    8    0    1
 -2       733       600       738      2993      3004      3040
 -1      1336    8    0    1
 -2       480       624       623      3015      3041      2672
 -1      1337    8    0    1
 -2       614       470       734      2639      2996      3042
 -1      1338    8    0    1
 -2       718       584       737      2952      3002      3043
 -1      1339    8    0    1
 -2       580       718       734      2953      3044      2995
 -1      1340    8    0    1
 -2       588       731       729      2988      3045      2982
 -1      1341    8    0    1
 -2       601       616       748      2646      3046      3047
 -1      1342    8    0    1
 -2       601       748       619      3047      3048      2661
 -1      1343    8    0    1
 -2       616       471       749      2647      3049      3050
 -1      1344    8    0    1
 -2       471       617       749      2654      3051      3049
 -1      1345    8    0    1
 -2       473       589       750      2561      3052      3053
 -1      1346    8    0    1
 -2       726       473       750      2976      3053      3054
 -1      1347    8    0    1
 -2       589       741       750      3013      3055      3052
 -1      1348    8    0    1
 -2       593       610       751      2614      3056      3057
 -1      1349    8    0    1
 -2       728       483       727      2980      2979      3058
 -1      1350    8    0    1
 -2       617       602       736      2655      3000      3059
 -1      1351    8    0    1
 -2       727       594       752      2978      3060      3061
 -1      1352    8    0    1
 -2       594       618       752      2657      3062      3060
 -1      1353    8    0    1
 -2       590       728       610      2981      3063      2612
 -1      1354    8    0    1
 -2       618       595       753      2658      3064      3065
 -1      1355    8    0    1
 -2       595       730       753      2985      3066      3064
 -1      1356    8    0    1
 -2       591       593       754      2571      3067      3068
 -1      1357    8    0    1
 -2       599       619       731      2660      3069      2987
 -1      1358    8    0    1
 -2       576       713       746      2940      3070      3032
 -1      1359    8    0    1
 -2       604       735       739      2998      3071      3006
 -1      1360    8    0    1
 -2       593       751       754      3057      3072      3067
 -1      1361    8    0    1
 -2       591       754       719      3068      3073      2954
 -1      1362    8    0    1
 -2       622       623       755      2674      3074      3075
 -1      1363    8    0    1
 -2       583       614       756      2638      3076      3077
 -1      1364    8    0    1
 -2       612       592       757      2622      3078      3079
 -1      1365    8    0    1
 -2       607       724       758      2971      3080      3081
 -1      1366    8    0    1
 -2       738       716       759      3005      3082      3083
 -1      1367    8    0    1
 -2       628       627       760      2687      3084      3085
 -1      1368    8    0    1
 -2       629       628       761      2690      3086      3087
 -1      1369    8    0    1
 -2       628       760       761      3085      3088      3086
 -1      1370    8    0    1
 -2       630       629       762      2693      3089      3090
 -1      1371    8    0    1
 -2       629       761       762      3087      3091      3089
 -1      1372    8    0    1
 -2       631       630       763      2696      3092      3093
 -1      1373    8    0    1
 -2       630       762       763      3090      3094      3092
 -1      1374    8    0    1
 -2       632       631       764      2699      3095      3096
 -1      1375    8    0    1
 -2       631       763       764      3093      3097      3095
 -1      1376    8    0    1
 -2       633       632       765      2702      3098      3099
 -1      1377    8    0    1
 -2       632       764       765      3096      3100      3098
 -1      1378    8    0    1
 -2       634       633       766      2705      3101      3102
 -1      1379    8    0    1
 -2       633       765       766      3099      3103      3101
 -1      1380    8    0    1
 -2       635       634       767      2708      3104      3105
 -1      1381    8    0    1
 -2       634       766       767      3102      3106      3104
 -1      1382    8    0    1
 -2       636       635       768      2711      3107      3108
 -1      1383    8    0    1
 -2       635       767       768      3105      3109      3107
 -1      1384    8    0    1
 -2       637       636       769      2714      3110      3111
 -1      1385    8    0    1
 -2       636       768       769      3108      3112      3110
 -1      1386    8    0    1
 -2       638       637       770      2717      3113      3114
 -1      1387    8    0    1
 -2       637       769       770      3111      3115      3113
 -1      1388    8    0    1
 -2       639       638       771      2720      3116      3117
 -1      1389    8    0    1
 -2       638       770       771      3114      3118      3116
 -1      1390    8    0    1
 -2       640       639       772      2723      3119      3120
 -1      1391    8    0    1
 -2       639       771       772      3117      3121      3119
 -1      1392    8    0    1
 -2       641       640       773      2726      3122      3123
 -1      1393    8    0    1
 -2       640       772       773      3120      3124      3122
 -1      1394    8    0    1
 -2       642       641       774      2729      3125      3126
 -1      1395    8    0    1
 -2       641       773       774      3123      3127      3125
 -1      1396    8    0    1
 -2       643       642       775      2732      3128      3129
 -1      1397    8    0    1
 -2       642       774       775      3126      3130      3128
 -1      1398    8    0    1
 -2       644       643       776      2735      3131      3132
 -1      1399    8    0    1
 -2       643       775       776      3129      3133      3131
 -1      1400    8    0    1
 -2       645       644       777      2738      3134      3135
 -1      1401    8    0    1
 -2       644       776       777      3132      3136      3134
 -1      1402    8    0    1
 -2       646       645       778      2741      3137      3138
 -1      1403    8    0    1
 -2       645       777       778      3135      3139      3137
 -1      1404    8    0    1
 -2       647       646       779      2744      3140      3141
 -1      1405    8    0    1
 -2       646       778       779      3138      3142      3140
 -1      1406    8    0    1
 -2       648       647       780      2747      3143      3144
 -1      1407    8    0    1
 -2       647       779       780      3141      3145      3143
 -1      1408    8    0    1
 -2       649       648       781      2750      3146      3147
 -1      1409    8    0    1
 -2       648       780       781      3144      3148      3146
 -1      1410    8    0    1
 -2       650       649       782      2753      3149      3150
 -1      1411    8    0    1
 -2       649       781       782      3147      3151      3149
 -1      1412    8    0    1
 -2       651       650       783      2756      3152      3153
 -1      1413    8    0    1
 -2       650       782       783      3150      3154      3152
 -1      1414    8    0    1
 -2       652       651       784      2759      3155      3156
 -1      1415    8    0    1
 -2       651       783       784      3153      3157      3155
 -1      1416    8    0    1
 -2       653       652       785      2762      3158      3159
 -1      1417    8    0    1
 -2       652       784       785      3156      3160      3158
 -1      1418    8    0    1
 -2       654       653       786      2765      3161      3162
 -1      1419    8    0    1
 -2       653       785       786      3159      3163      3161
 -1      1420    8    0    1
 -2       655       654       787      2768      3164      3165
 -1      1421    8    0    1
 -2       654       786       787      3162      3166      3164
 -1      1422    8    0    1
 -2       656       655       788      2771      3167      3168
 -1      1423    8    0    1
 -2       655       787       788      3165      3169      3167
 -1      1424    8    0    1
 -2       657       656       789      2774      3170      3171
 -1      1425    8    0    1
 -2       656       788       789      3168      3172      3170
 -1      1426    8    0    1
 -2       658       657       790      2777      3173      3174
 -1      1427    8    0    1
 -2       657       789       790      3171      3175      3173
 -1      1428    8    0    1
 -2       659       658       791      2780      3176      3177
 -1      1429    8    0    1
 -2       658       790       791      3174      3178      3176
 -1      1430    8    0    1
 -2       660       659       792      2783      3179      3180
 -1      1431    8    0    1
 -2       659       791       792      3177      3181      3179
 -1      1432    8    0    1
 -2       661       660       736      2786      3182      3183
 -1      1433    8    0    1
 -2       662       661       715      2789      3184      3185
 -1      1434    8    0    1
 -2       663       662       739      2792      3186      3187
 -1      1435    8    0    1
 -2       664       663       739      2795      3187      3188
 -1      1436    8    0    1
 -2       665       664       793      2798      3189      3190
 -1      1437    8    0    1
 -2       666       665       794      2801      3191      3192
 -1      1438    8    0    1
 -2       665       793       794      3190      3193      3191
 -1      1439    8    0    1
 -2       667       666       795      2804      3194      3195
 -1      1440    8    0    1
 -2       747       667       795      3039      3195      3196
 -1      1441    8    0    1
 -2       666       794       795      3192      3197      3194
 -1      1442    8    0    1
 -2       670       668       796      2812      3198      3199
 -1      1443    8    0    1
 -2       672       673       797      2820      3200      3201
 -1      1444    8    0    1
 -2       671       672       798      2817      3202      3203
 -1      1445    8    0    1
 -2       672       797       798      3201      3204      3202
 -1      1446    8    0    1
 -2       674       675       799      2826      3205      3206
 -1      1447    8    0    1
 -2       675       676       800      2829      3207      3208
 -1      1448    8    0    1
 -2       675       800       799      3208      3209      3205
 -1      1449    8    0    1
 -2       676       677       801      2832      3210      3211
 -1      1450    8    0    1
 -2       676       801       800      3211      3212      3207
 -1      1451    8    0    1
 -2       677       678       802      2835      3213      3214
 -1      1452    8    0    1
 -2       677       802       801      3214      3215      3210
 -1      1453    8    0    1
 -2       678       679       803      2838      3216      3217
 -1      1454    8    0    1
 -2       678       803       802      3217      3218      3213
 -1      1455    8    0    1
 -2       679       680       804      2841      3219      3220
 -1      1456    8    0    1
 -2       679       804       803      3220      3221      3216
 -1      1457    8    0    1
 -2       680       681       805      2844      3222      3223
 -1      1458    8    0    1
 -2       680       805       804      3223      3224      3219
 -1      1459    8    0    1
 -2       681       682       806      2847      3225      3226
 -1      1460    8    0    1
 -2       681       806       805      3226      3227      3222
 -1      1461    8    0    1
 -2       682       683       807      2850      3228      3229
 -1      1462    8    0    1
 -2       682       807       806      3229      3230      3225
 -1      1463    8    0    1
 -2       683       684       808      2853      3231      3232
 -1      1464    8    0    1
 -2       683       808       807      3232      3233      3228
 -1      1465    8    0    1
 -2       684       685       809      2856      3234      3235
 -1      1466    8    0    1
 -2       684       809       808      3235      3236      3231
 -1      1467    8    0    1
 -2       685       686       810      2859      3237      3238
 -1      1468    8    0    1
 -2       685       810       809      3238      3239      3234
 -1      1469    8    0    1
 -2       686       687       811      2862      3240      3241
 -1      1470    8    0    1
 -2       686       811       810      3241      3242      3237
 -1      1471    8    0    1
 -2       687       688       812      2865      3243      3244
 -1      1472    8    0    1
 -2       687       812       811      3244      3245      3240
 -1      1473    8    0    1
 -2       688       689       813      2868      3246      3247
 -1      1474    8    0    1
 -2       688       813       812      3247      3248      3243
 -1      1475    8    0    1
 -2       689       690       814      2871      3249      3250
 -1      1476    8    0    1
 -2       689       814       813      3250      3251      3246
 -1      1477    8    0    1
 -2       690       691       815      2874      3252      3253
 -1      1478    8    0    1
 -2       690       815       814      3253      3254      3249
 -1      1479    8    0    1
 -2       691       692       816      2877      3255      3256
 -1      1480    8    0    1
 -2       691       816       815      3256      3257      3252
 -1      1481    8    0    1
 -2       692       693       817      2880      3258      3259
 -1      1482    8    0    1
 -2       692       817       816      3259      3260      3255
 -1      1483    8    0    1
 -2       693       694       818      2883      3261      3262
 -1      1484    8    0    1
 -2       693       818       817      3262      3263      3258
 -1      1485    8    0    1
 -2       694       695       819      2886      3264      3265
 -1      1486    8    0    1
 -2       694       819       818      3265      3266      3261
 -1      1487    8    0    1
 -2       695       696       820      2889      3267      3268
 -1      1488    8    0    1
 -2       695       820       819      3268      3269      3264
 -1      1489    8    0    1
 -2       696       697       821      2892      3270      3271
 -1      1490    8    0    1
 -2       696       821       820      3271      3272      3267
 -1      1491    8    0    1
 -2       697       698       822      2895      3273      3274
 -1      1492    8    0    1
 -2       697       822       821      3274      3275      3270
 -1      1493    8    0    1
 -2       698       699       823      2898      3276      3277
 -1      1494    8    0    1
 -2       698       823       822      3277      3278      3273
 -1      1495    8    0    1
 -2       699       700       752      2901      3279      3280
 -1      1496    8    0    1
 -2       735       733       793      3027      3281      3282
 -1      1497    8    0    1
 -2       703       704       757      2912      3283      3284
 -1      1498    8    0    1
 -2       705       706       824      2918      3285      3286
 -1      1499    8    0    1
 -2       706       707       825      2921      3287      3288
 -1      1500    8    0    1
 -2       824       706       825      3285      3288      3289
 -1      1501    8    0    1
 -2       707       745       825      3030      3290      3287
 -1      1502    8    0    1
 -2       708       574       625      2923      2931      3291
 -1      1503    8    0    1
 -2       733       738       826      3040      3292      3293
 -1      1504    8    0    1
 -2       621       620       827      2669      3294      3295
 -1      1505    8    0    1
 -2       712       670       828      2938      3296      3297
 -1      1506    8    0    1
 -2       670       796       828      3199      3298      3296
 -1      1507    8    0    1
 -2       757       704       612      3283      3299      3079
 -1      1508    8    0    1
 -2       730       720       829      2986      3300      3301
 -1      1509    8    0    1
 -2       715       739       662      3034      3186      3185
 -1      1510    8    0    1
 -2       713       714       759      2943      3302      3303
 -1      1511    8    0    1
 -2       716       607       758      2946      3081      3304
 -1      1512    8    0    1
 -2       615       611       830      2644      3305      3306
 -1      1513    8    0    1
 -2       717       615       830      2951      3306      3307
 -1      1514    8    0    1
 -2       611       740       830      3009      3308      3305
 -1      1515    8    0    1
 -2       592       719       757      2955      3309      3078
 -1      1516    8    0    1
 -2       625       575       746      2930      3033      3310
 -1      1517    8    0    1
 -2       673       674       831      2823      3311      3312
 -1      1518    8    0    1
 -2       797       673       831      3200      3312      3313
 -1      1519    8    0    1
 -2       674       799       831      3206      3314      3311
 -1      1520    8    0    1
 -2       669       583       756      2807      3077      3315
 -1      1521    8    0    1
 -2       724       625       746      3014      3310      3316
 -1      1522    8    0    1
 -2       715       661       736      3184      3183      3022
 -1      1523    8    0    1
 -2       728       727       832      3058      3317      3318
 -1      1524    8    0    1
 -2       627       626       833      2684      3319      3320
 -1      1525    8    0    1
 -2       627       833       760      3320      3321      3084
 -1      1526    8    0    1
 -2       719       754       702      3073      3322      3323
 -1      1527    8    0    1
 -2       731       619       834      3069      3324      3325
 -1      1528    8    0    1
 -2       746       713       724      3070      3326      3316
 -1      1529    8    0    1
 -2       729       731       835      3045      3327      3328
 -1      1530    8    0    1
 -2       718       737       836      3043      3329      3330
 -1      1531    8    0    1
 -2       734       718       837      3044      3331      3332
 -1      1532    8    0    1
 -2       614       734       838      3042      3333      3334
 -1      1533    8    0    1
 -2       734       837       838      3332      3335      3333
 -1      1534    8    0    1
 -2       623       624       839      3041      3336      3337
 -1      1535    8    0    1
 -2       755       623       839      3074      3337      3338
 -1      1536    8    0    1
 -2       624       725       839      2974      3339      3336
 -1      1537    8    0    1
 -2       754       751       702      3072      3340      3322
 -1      1538    8    0    1
 -2       757       719       703      3309      3341      3284
 -1      1539    8    0    1
 -2       736       660       792      3182      3180      3342
 -1      1540    8    0    1
 -2       612       704       742      3299      3343      3018
 -1      1541    8    0    1
 -2       703       719       702      3341      3323      2909
 -1      1542    8    0    1
 -2       702       751       744      3340      3344      3026
 -1      1543    8    0    1
 -2       741       621       840      3011      3345      3346
 -1      1544    8    0    1
 -2       621       827       840      3295      3347      3345
 -1      1545    8    0    1
 -2       737       742       824      3017      3348      3349
 -1      1546    8    0    1
 -2       729       835       841      3328      3350      3351
 -1      1547    8    0    1
 -2       751       610       744      3056      3352      3344
 -1      1548    8    0    1
 -2       730       829       753      3301      3353      3066
 -1      1549    8    0    1
 -2       717       830       842      3307      3354      3355
 -1      1550    8    0    1
 -2       717       842       722      3355      3356      2965
 -1      1551    8    0    1
 -2       740       726       843      3010      3357      3358
 -1      1552    8    0    1
 -2       738       759       826      3083      3359      3292
 -1      1553    8    0    1
 -2       723       622       844      2969      3360      3361
 -1      1554    8    0    1
 -2       622       755       844      3075      3362      3360
 -1      1555    8    0    1
 -2       742       704       705      3343      2915      3363
 -1      1556    8    0    1
 -2       743       710       837      3019      3364      3365
 -1      1557    8    0    1
 -2       664       739       735      3188      3071      3366
 -1      1558    8    0    1
 -2       793       664       735      3189      3366      3282
 -1      1559    8    0    1
 -2       625       669       708      2809      3367      3291
 -1      1560    8    0    1
 -2       669       756       708      3315      3368      3367
 -1      1561    8    0    1
 -2       671       798       845      3203      3369      3370
 -1      1562    8    0    1
 -2       671       845       721      3370      3371      2961
 -1      1563    8    0    1
 -2       699       752       823      3280      3372      3276
 -1      1564    8    0    1
 -2       700       701       832      2904      3373      3374
 -1      1565    8    0    1
 -2       736       792       617      3342      3375      3059
 -1      1566    8    0    1
 -2       705       824       742      3286      3348      3363
 -1      1567    8    0    1
 -2       620       723       846      2968      3376      3377
 -1      1568    8    0    1
 -2       827       620       846      3294      3377      3378
 -1      1569    8    0    1
 -2       723       844       846      3361      3379      3376
 -1      1570    8    0    1
 -2       733       826       793      3293      3380      3281
 -1      1571    8    0    1
 -2       710       711       838      2934      3381      3382
 -1      1572    8    0    1
 -2       829       720       847      3300      3383      3384
 -1      1573    8    0    1
 -2       732       729       841      2992      3351      3385
 -1      1574    8    0    1
 -2       796       668       848      3198      3386      3387
 -1      1575    8    0    1
 -2       668       721       848      2960      3388      3386
 -1      1576    8    0    1
 -2       847       720       732      3383      2991      3389
 -1      1577    8    0    1
 -2       710       838       837      3382      3335      3364
 -1      1578    8    0    1
 -2       711       708       756      2935      3368      3390
 -1      1579    8    0    1
 -2       748       616       849      3046      3391      3392
 -1      1580    8    0    1
 -2       616       749       849      3050      3393      3391
 -1      1581    8    0    1
 -2       837       718       836      3331      3330      3394
 -1      1582    8    0    1
 -2       728       832       701      3318      3373      3395
 -1      1583    8    0    1
 -2       619       748       850      3048      3396      3397
 -1      1584    8    0    1
 -2       619       850       834      3397      3398      3324
 -1      1585    8    0    1
 -2       725       712       851      2975      3399      3400
 -1      1586    8    0    1
 -2       839       725       851      3339      3400      3401
 -1      1587    8    0    1
 -2       712       828       851      3297      3402      3399
 -1      1588    8    0    1
 -2       731       834       835      3325      3403      3327
 -1      1589    8    0    1
 -2       724       713       758      3326      3404      3080
 -1      1590    8    0    1
 -2       843       726       852      3357      3405      3406
 -1      1591    8    0    1
 -2       726       750       852      3054      3407      3405
 -1      1592    8    0    1
 -2       711       756       614      3390      3076      3408
 -1      1593    8    0    1
 -2       728       701       853      3395      3409      3410
 -1      1594    8    0    1
 -2       614       838       711      3334      3381      3408
 -1      1595    8    0    1
 -2       626       722       842      2964      3356      3411
 -1      1596    8    0    1
 -2       626       842       833      3411      3412      3319
 -1      1597    8    0    1
 -2       842       830       740      3354      3308      3413
 -1      1598    8    0    1
 -2       832       727       752      3317      3061      3414
 -1      1599    8    0    1
 -2       762       761       854      3091      3415      3416
 -1      1600    8    0    1
 -2       763       762       855      3094      3417      3418
 -1      1601    8    0    1
 -2       762       854       855      3416      3419      3417
 -1      1602    8    0    1
 -2       764       763       856      3097      3420      3421
 -1      1603    8    0    1
 -2       763       855       856      3418      3422      3420
 -1      1604    8    0    1
 -2       765       764       857      3100      3423      3424
 -1      1605    8    0    1
 -2       764       856       857      3421      3425      3423
 -1      1606    8    0    1
 -2       766       765       858      3103      3426      3427
 -1      1607    8    0    1
 -2       765       857       858      3424      3428      3426
 -1      1608    8    0    1
 -2       767       766       859      3106      3429      3430
 -1      1609    8    0    1
 -2       766       858       859      3427      3431      3429
 -1      1610    8    0    1
 -2       768       767       860      3109      3432      3433
 -1      1611    8    0    1
 -2       767       859       860      3430      3434      3432
 -1      1612    8    0    1
 -2       769       768       861      3112      3435      3436
 -1      1613    8    0    1
 -2       768       860       861      3433      3437      3435
 -1      1614    8    0    1
 -2       770       769       862      3115      3438      3439
 -1      1615    8    0    1
 -2       769       861       862      3436      3440      3438
 -1      1616    8    0    1
 -2       771       770       863      3118      3441      3442
 -1      1617    8    0    1
 -2       770       862       863      3439      3443      3441
 -1      1618    8    0    1
 -2       772       771       864      3121      3444      3445
 -1      1619    8    0    1
 -2       771       863       864      3442      3446      3444
 -1      1620    8    0    1
 -2       773       772       865      3124      3447      3448
 -1      1621    8    0    1
 -2       772       864       865      3445      3449      3447
 -1      1622    8    0    1
 -2       774       773       866      3127      3450      3451
 -1      1623    8    0    1
 -2       773       865       866      3448      3452      3450
 -1      1624    8    0    1
 -2       775       774       867      3130      3453      3454
 -1      1625    8    0    1
 -2       774       866       867      3451      3455      3453
 -1      1626    8    0    1
 -2       776       775       868      3133      3456      3457
 -1      1627    8    0    1
 -2       775       867       868      3454      3458      3456
 -1      1628    8    0    1
 -2       777       776       869      3136      3459      3460
 -1      1629    8    0    1
 -2       776       868       869      3457      3461      3459
 -1      1630    8    0    1
 -2       778       777       870      3139      3462      3463
 -1      1631    8    0    1
 -2       777       869       870      3460      3464      3462
 -1      1632    8    0    1
 -2       779       778       871      3142      3465      3466
 -1      1633    8    0    1
 -2       778       870       871      3463      3467      3465
 -1      1634    8    0    1
 -2       780       779       872      3145      3468      3469
 -1      1635    8    0    1
 -2       779       871       872      3466      3470      3468
 -1      1636    8    0    1
 -2       781       780       873      3148      3471      3472
 -1      1637    8    0    1
 -2       780       872       873      3469      3473      3471
 -1      1638    8    0    1
 -2       782       781       874      3151      3474      3475
 -1      1639    8    0    1
 -2       781       873       874      3472      3476      3474
 -1      1640    8    0    1
 -2       783       782       875      3154      3477      3478
 -1      1641    8    0    1
 -2       782       874       875      3475      3479      3477
 -1      1642    8    0    1
 -2       784       783       876      3157      3480      3481
 -1      1643    8    0    1
 -2       783       875       876      3478      3482      3480
 -1      1644    8    0    1
 -2       785       784       877      3160      3483      3484
 -1      1645    8    0    1
 -2       784       876       877      3481      3485      3483
 -1      1646    8    0    1
 -2       786       785       878      3163      3486      3487
 -1      1647    8    0    1
 -2       785       877       878      3484      3488      3486
 -1      1648    8    0    1
 -2       787       786       879      3166      3489      3490
 -1      1649    8    0    1
 -2       786       878       879      3487      3491      3489
 -1      1650    8    0    1
 -2       788       787       880      3169      3492      3493
 -1      1651    8    0    1
 -2       787       879       880      3490      3494      3492
 -1      1652    8    0    1
 -2       789       788       881      3172      3495      3496
 -1      1653    8    0    1
 -2       788       880       881      3493      3497      3495
 -1      1654    8    0    1
 -2       790       789       882      3175      3498      3499
 -1      1655    8    0    1
 -2       789       881       882      3496      3500      3498
 -1      1656    8    0    1
 -2       791       790       883      3178      3501      3502
 -1      1657    8    0    1
 -2       790       882       883      3499      3503      3501
 -1      1658    8    0    1
 -2       740       843       842      3358      3504      3413
 -1      1659    8    0    1
 -2       800       801       884      3212      3505      3506
 -1      1660    8    0    1
 -2       799       800       885      3209      3507      3508
 -1      1661    8    0    1
 -2       800       884       885      3506      3509      3507
 -1      1662    8    0    1
 -2       802       803       886      3218      3510      3511
 -1      1663    8    0    1
 -2       803       804       887      3221      3512      3513
 -1      1664    8    0    1
 -2       803       887       886      3513      3514      3510
 -1      1665    8    0    1
 -2       804       805       888      3224      3515      3516
 -1      1666    8    0    1
 -2       804       888       887      3516      3517      3512
 -1      1667    8    0    1
 -2       805       806       889      3227      3518      3519
 -1      1668    8    0    1
 -2       805       889       888      3519      3520      3515
 -1      1669    8    0    1
 -2       806       807       890      3230      3521      3522
 -1      1670    8    0    1
 -2       806       890       889      3522      3523      3518
 -1      1671    8    0    1
 -2       807       808       891      3233      3524      3525
 -1      1672    8    0    1
 -2       807       891       890      3525      3526      3521
 -1      1673    8    0    1
 -2       808       809       892      3236      3527      3528
 -1      1674    8    0    1
 -2       808       892       891      3528      3529      3524
 -1      1675    8    0    1
 -2       809       810       893      3239      3530      3531
 -1      1676    8    0    1
 -2       809       893       892      3531      3532      3527
 -1      1677    8    0    1
 -2       810       811       894      3242      3533      3534
 -1      1678    8    0    1
 -2       810       894       893      3534      3535      3530
 -1      1679    8    0    1
 -2       811       812       895      3245      3536      3537
 -1      1680    8    0    1
 -2       811       895       894      3537      3538      3533
 -1      1681    8    0    1
 -2       812       813       896      3248      3539      3540
 -1      1682    8    0    1
 -2       812       896       895      3540      3541      3536
 -1      1683    8    0    1
 -2       813       814       897      3251      3542      3543
 -1      1684    8    0    1
 -2       813       897       896      3543      3544      3539
 -1      1685    8    0    1
 -2       814       815       898      3254      3545      3546
 -1      1686    8    0    1
 -2       814       898       897      3546      3547      3542
 -1      1687    8    0    1
 -2       815       816       899      3257      3548      3549
 -1      1688    8    0    1
 -2       815       899       898      3549      3550      3545
 -1      1689    8    0    1
 -2       816       817       900      3260      3551      3552
 -1      1690    8    0    1
 -2       816       900       899      3552      3553      3548
 -1      1691    8    0    1
 -2       817       818       901      3263      3554      3555
 -1      1692    8    0    1
 -2       817       901       900      3555      3556      3551
 -1      1693    8    0    1
 -2       818       819       902      3266      3557      3558
 -1      1694    8    0    1
 -2       818       902       901      3558      3559      3554
 -1      1695    8    0    1
 -2       819       820       903      3269      3560      3561
 -1      1696    8    0    1
 -2       819       903       902      3561      3562      3557
 -1      1697    8    0    1
 -2       820       821       904      3272      3563      3564
 -1      1698    8    0    1
 -2       820       904       903      3564      3565      3560
 -1      1699    8    0    1
 -2       821       822       905      3275      3566      3567
 -1      1700    8    0    1
 -2       821       905       904      3567      3568      3563
 -1      1701    8    0    1
 -2       822       823       906      3278      3569      3570
 -1      1702    8    0    1
 -2       822       906       905      3570      3571      3566
 -1      1703    8    0    1
 -2       700       832       752      3374      3414      3279
 -1      1704    8    0    1
 -2       617       792       749      3375      3572      3051
 -1      1705    8    0    1
 -2       753       829       906      3353      3573      3574
 -1      1706    8    0    1
 -2       828       796       907      3298      3575      3576
 -1      1707    8    0    1
 -2       793       826       794      3380      3577      3193
 -1      1708    8    0    1
 -2       737       824       836      3349      3578      3329
 -1      1709    8    0    1
 -2       745       743       825      3031      3579      3290
 -1      1710    8    0    1
 -2       835       834       908      3403      3580      3581
 -1      1711    8    0    1
 -2       829       847       909      3384      3582      3583
 -1      1712    8    0    1
 -2       732       841       847      3385      3584      3389
 -1      1713    8    0    1
 -2       716       758       910      3304      3585      3586
 -1      1714    8    0    1
 -2       801       802       911      3215      3587      3588
 -1      1715    8    0    1
 -2       884       801       911      3505      3588      3589
 -1      1716    8    0    1
 -2       802       886       911      3511      3590      3587
 -1      1717    8    0    1
 -2       823       752       906      3372      3591      3569
 -1      1718    8    0    1
 -2       714       747       759      3038      3592      3302
 -1      1719    8    0    1
 -2       798       797       912      3204      3593      3594
 -1      1720    8    0    1
 -2       836       824       825      3578      3289      3595
 -1      1721    8    0    1
 -2       743       837       836      3365      3394      3596
 -1      1722    8    0    1
 -2       749       792       849      3572      3597      3393
 -1      1723    8    0    1
 -2       743       836       825      3596      3595      3579
 -1      1724    8    0    1
 -2       794       826       795      3577      3598      3197
 -1      1725    8    0    1
 -2       847       841       913      3584      3599      3600
 -1      1726    8    0    1
 -2       847       913       909      3600      3601      3582
 -1      1727    8    0    1
 -2       750       741       914      3055      3602      3603
 -1      1728    8    0    1
 -2       750       914       852      3603      3604      3407
 -1      1729    8    0    1
 -2       760       833       915      3321      3605      3606
 -1      1730    8    0    1
 -2       761       760       916      3088      3607      3608
 -1      1731    8    0    1
 -2       761       916       854      3608      3609      3415
 -1      1732    8    0    1
 -2       752       618       753      3062      3065      3610
 -1      1733    8    0    1
 -2       841       835       917      3350      3611      3612
 -1      1734    8    0    1
 -2       835       908       917      3581      3613      3611
 -1      1735    8    0    1
 -2       833       842       843      3412      3504      3614
 -1      1736    8    0    1
 -2       610       728       853      3063      3410      3615
 -1      1737    8    0    1
 -2       833       843       918      3614      3616      3617
 -1      1738    8    0    1
 -2       915       833       918      3605      3617      3618
 -1      1739    8    0    1
 -2       843       852       918      3406      3619      3616
 -1      1740    8    0    1
 -2       796       848       919      3387      3620      3621
 -1      1741    8    0    1
 -2       796       919       907      3621      3622      3575
 -1      1742    8    0    1
 -2       744       610       853      3352      3615      3623
 -1      1743    8    0    1
 -2       826       759       795      3359      3624      3598
 -1      1744    8    0    1
 -2       844       755       920      3362      3625      3626
 -1      1745    8    0    1
 -2       853       701       744      3409      3025      3623
 -1      1746    8    0    1
 -2       791       883       849      3502      3627      3628
 -1      1747    8    0    1
 -2       792       791       849      3181      3628      3597
 -1      1748    8    0    1
 -2       845       798       921      3369      3629      3630
 -1      1749    8    0    1
 -2       798       912       921      3594      3631      3629
 -1      1750    8    0    1
 -2       741       840       914      3346      3632      3602
 -1      1751    8    0    1
 -2       799       885       922      3508      3633      3634
 -1      1752    8    0    1
 -2       799       922       831      3634      3635      3314
 -1      1753    8    0    1
 -2       759       747       795      3592      3196      3624
 -1      1754    8    0    1
 -2       834       850       923      3398      3636      3637
 -1      1755    8    0    1
 -2       834       923       908      3637      3638      3580
 -1      1756    8    0    1
 -2       721       845       848      3371      3639      3388
 -1      1757    8    0    1
 -2       906       829       924      3573      3640      3641
 -1      1758    8    0    1
 -2       905       906       924      3571      3641      3642
 -1      1759    8    0    1
 -2       829       909       924      3583      3643      3640
 -1      1760    8    0    1
 -2       828       907       925      3576      3644      3645
 -1      1761    8    0    1
 -2       913       841       926      3599      3646      3647
 -1      1762    8    0    1
 -2       841       917       926      3612      3648      3646
 -1      1763    8    0    1
 -2       828       925       851      3645      3649      3402
 -1      1764    8    0    1
 -2       912       797       927      3593      3650      3651
 -1      1765    8    0    1
 -2       797       831       927      3313      3652      3650
 -1      1766    8    0    1
 -2       827       846       928      3378      3653      3654
 -1      1767    8    0    1
 -2       916       760       915      3607      3606      3655
 -1      1768    8    0    1
 -2       840       827       929      3347      3656      3657
 -1      1769    8    0    1
 -2       827       928       929      3654      3658      3656
 -1      1770    8    0    1
 -2       846       844       930      3379      3659      3660
 -1      1771    8    0    1
 -2       928       846       930      3653      3660      3661
 -1      1772    8    0    1
 -2       844       920       930      3626      3662      3659
 -1      1773    8    0    1
 -2       855       854       931      3419      3663      3664
 -1      1774    8    0    1
 -2       920       755       851      3625      3665      3666
 -1      1775    8    0    1
 -2       856       855       932      3422      3667      3668
 -1      1776    8    0    1
 -2       855       931       932      3664      3669      3667
 -1      1777    8    0    1
 -2       857       856       933      3425      3670      3671
 -1      1778    8    0    1
 -2       856       932       933      3668      3672      3670
 -1      1779    8    0    1
 -2       858       857       934      3428      3673      3674
 -1      1780    8    0    1
 -2       857       933       934      3671      3675      3673
 -1      1781    8    0    1
 -2       859       858       935      3431      3676      3677
 -1      1782    8    0    1
 -2       858       934       935      3674      3678      3676
 -1      1783    8    0    1
 -2       860       859       936      3434      3679      3680
 -1      1784    8    0    1
 -2       859       935       936      3677      3681      3679
 -1      1785    8    0    1
 -2       861       860       937      3437      3682      3683
 -1      1786    8    0    1
 -2       860       936       937      3680      3684      3682
 -1      1787    8    0    1
 -2       862       861       938      3440      3685      3686
 -1      1788    8    0    1
 -2       861       937       938      3683      3687      3685
 -1      1789    8    0    1
 -2       863       862       939      3443      3688      3689
 -1      1790    8    0    1
 -2       862       938       939      3686      3690      3688
 -1      1791    8    0    1
 -2       864       863       940      3446      3691      3692
 -1      1792    8    0    1
 -2       863       939       940      3689      3693      3691
 -1      1793    8    0    1
 -2       865       864       941      3449      3694      3695
 -1      1794    8    0    1
 -2       864       940       941      3692      3696      3694
 -1      1795    8    0    1
 -2       866       865       942      3452      3697      3698
 -1      1796    8    0    1
 -2       865       941       942      3695      3699      3697
 -1      1797    8    0    1
 -2       867       866       943      3455      3700      3701
 -1      1798    8    0    1
 -2       866       942       943      3698      3702      3700
 -1      1799    8    0    1
 -2       868       867       944      3458      3703      3704
 -1      1800    8    0    1
 -2       867       943       944      3701      3705      3703
 -1      1801    8    0    1
 -2       869       868       945      3461      3706      3707
 -1      1802    8    0    1
 -2       868       944       945      3704      3708      3706
 -1      1803    8    0    1
 -2       870       869       946      3464      3709      3710
 -1      1804    8    0    1
 -2       869       945       946      3707      3711      3709
 -1      1805    8    0    1
 -2       871       870       947      3467      3712      3713
 -1      1806    8    0    1
 -2       870       946       947      3710      3714      3712
 -1      1807    8    0    1
 -2       872       871       948      3470      3715      3716
 -1      1808    8    0    1
 -2       871       947       948      3713      3717      3715
 -1      1809    8    0    1
 -2       873       872       949      3473      3718      3719
 -1      1810    8    0    1
 -2       872       948       949      3716      3720      3718
 -1      1811    8    0    1
 -2       874       873       950      3476      3721      3722
 -1      1812    8    0    1
 -2       873       949       950      3719      3723      3721
 -1      1813    8    0    1
 -2       875       874       951      3479      3724      3725
 -1      1814    8    0    1
 -2       874       950       951      3722      3726      3724
 -1      1815    8    0    1
 -2       876       875       952      3482      3727      3728
 -1      1816    8    0    1
 -2       875       951       952      3725      3729      3727
 -1      1817    8    0    1
 -2       877       876       953      3485      3730      3731
 -1      1818    8    0    1
 -2       876       952       953      3728      3732      3730
 -1      1819    8    0    1
 -2       878       877       954      3488      3733      3734
 -1      1820    8    0    1
 -2       877       953       954      3731      3735      3733
 -1      1821    8    0    1
 -2       879       878       955      3491      3736      3737
 -1      1822    8    0    1
 -2       878       954       955      3734      3738      3736
 -1      1823    8    0    1
 -2       880       879       956      3494      3739      3740
 -1      1824    8    0    1
 -2       879       955       956      3737      3741      3739
 -1      1825    8    0    1
 -2       881       880       957      3497      3742      3743
 -1      1826    8    0    1
 -2       880       956       957      3740      3744      3742
 -1      1827    8    0    1
 -2       882       881       923      3500      3745      3746
 -1      1828    8    0    1
 -2       883       882       923      3503      3746      3747
 -1      1829    8    0    1
 -2       885       884       958      3509      3748      3749
 -1      1830    8    0    1
 -2       909       913       959      3601      3750      3751
 -1      1831    8    0    1
 -2       887       888       960      3517      3752      3753
 -1      1832    8    0    1
 -2       886       887       961      3514      3754      3755
 -1      1833    8    0    1
 -2       887       960       961      3753      3756      3754
 -1      1834    8    0    1
 -2       889       890       962      3523      3757      3758
 -1      1835    8    0    1
 -2       890       891       963      3526      3759      3760
 -1      1836    8    0    1
 -2       890       963       962      3760      3761      3757
 -1      1837    8    0    1
 -2       891       892       964      3529      3762      3763
 -1      1838    8    0    1
 -2       891       964       963      3763      3764      3759
 -1      1839    8    0    1
 -2       892       893       965      3532      3765      3766
 -1      1840    8    0    1
 -2       892       965       964      3766      3767      3762
 -1      1841    8    0    1
 -2       893       894       966      3535      3768      3769
 -1      1842    8    0    1
 -2       893       966       965      3769      3770      3765
 -1      1843    8    0    1
 -2       894       895       967      3538      3771      3772
 -1      1844    8    0    1
 -2       894       967       966      3772      3773      3768
 -1      1845    8    0    1
 -2       895       896       968      3541      3774      3775
 -1      1846    8    0    1
 -2       895       968       967      3775      3776      3771
 -1      1847    8    0    1
 -2       896       897       969      3544      3777      3778
 -1      1848    8    0    1
 -2       896       969       968      3778      3779      3774
 -1      1849    8    0    1
 -2       897       898       970      3547      3780      3781
 -1      1850    8    0    1
 -2       897       970       969      3781      3782      3777
 -1      1851    8    0    1
 -2       898       899       971      3550      3783      3784
 -1      1852    8    0    1
 -2       898       971       970      3784      3785      3780
 -1      1853    8    0    1
 -2       899       900       972      3553      3786      3787
 -1      1854    8    0    1
 -2       899       972       971      3787      3788      3783
 -1      1855    8    0    1
 -2       900       901       973      3556      3789      3790
 -1      1856    8    0    1
 -2       900       973       972      3790      3791      3786
 -1      1857    8    0    1
 -2       901       902       974      3559      3792      3793
 -1      1858    8    0    1
 -2       901       974       973      3793      3794      3789
 -1      1859    8    0    1
 -2       902       903       975      3562      3795      3796
 -1      1860    8    0    1
 -2       902       975       974      3796      3797      3792
 -1      1861    8    0    1
 -2       903       904       976      3565      3798      3799
 -1      1862    8    0    1
 -2       903       976       975      3799      3800      3795
 -1      1863    8    0    1
 -2       904       905       977      3568      3801      3802
 -1      1864    8    0    1
 -2       976       904       977      3798      3802      3803
 -1      1865    8    0    1
 -2       905       924       977      3642      3804      3801
 -1      1866    8    0    1
 -2       925       907       978      3644      3805      3806
 -1      1867    8    0    1
 -2       852       914       979      3604      3807      3808
 -1      1868    8    0    1
 -2       852       979       918      3808      3809      3619
 -1      1869    8    0    1
 -2       848       845       980      3639      3810      3811
 -1      1870    8    0    1
 -2       848       980       919      3811      3812      3620
 -1      1871    8    0    1
 -2       916       915       981      3655      3813      3814
 -1      1872    8    0    1
 -2       914       840       982      3632      3815      3816
 -1      1873    8    0    1
 -2       840       929       982      3657      3817      3815
 -1      1874    8    0    1
 -2       753       906       752      3574      3591      3610
 -1      1875    8    0    1
 -2       854       916       983      3609      3818      3819
 -1      1876    8    0    1
 -2       854       983       931      3819      3820      3663
 -1      1877    8    0    1
 -2       850       748       883      3396      3821      3822
 -1      1878    8    0    1
 -2       917       908       984      3613      3823      3824
 -1      1879    8    0    1
 -2       748       849       883      3392      3627      3821
 -1      1880    8    0    1
 -2       758       713       910      3404      3825      3585
 -1      1881    8    0    1
 -2       755       839       851      3338      3401      3665
 -1      1882    8    0    1
 -2       888       889       985      3520      3826      3827
 -1      1883    8    0    1
 -2       889       962       985      3758      3828      3826
 -1      1884    8    0    1
 -2       851       925       920      3649      3829      3666
 -1      1885    8    0    1
 -2       920       925       986      3829      3830      3831
 -1      1886    8    0    1
 -2       930       920       986      3662      3831      3832
 -1      1887    8    0    1
 -2       925       978       986      3806      3833      3830
 -1      1888    8    0    1
 -2       888       985       960      3827      3834      3752
 -1      1889    8    0    1
 -2       885       958       987      3749      3835      3836
 -1      1890    8    0    1
 -2       885       987       922      3836      3837      3633
 -1      1891    8    0    1
 -2       923       881       957      3745      3743      3838
 -1      1892    8    0    1
 -2       958       884       988      3748      3839      3840
 -1      1893    8    0    1
 -2       884       911       988      3589      3841      3839
 -1      1894    8    0    1
 -2       978       907       989      3805      3842      3843
 -1      1895    8    0    1
 -2       907       919       989      3622      3844      3842
 -1      1896    8    0    1
 -2       979       914       982      3807      3816      3845
 -1      1897    8    0    1
 -2       959       913       990      3750      3846      3847
 -1      1898    8    0    1
 -2       913       926       990      3647      3848      3846
 -1      1899    8    0    1
 -2       924       909       977      3643      3849      3804
 -1      1900    8    0    1
 -2       926       917       991      3648      3850      3851
 -1      1901    8    0    1
 -2       917       984       991      3824      3852      3850
 -1      1902    8    0    1
 -2       977       909       959      3849      3751      3853
 -1      1903    8    0    1
 -2       911       886       992      3590      3854      3855
 -1      1904    8    0    1
 -2       911       992       988      3855      3856      3841
 -1      1905    8    0    1
 -2       980       845       921      3810      3630      3857
 -1      1906    8    0    1
 -2       981       915       918      3813      3618      3858
 -1      1907    8    0    1
 -2       927       831       922      3652      3635      3859
 -1      1908    8    0    1
 -2       850       883       923      3822      3747      3636
 -1      1909    8    0    1
 -2       929       928       993      3658      3860      3861
 -1      1910    8    0    1
 -2       921       912       994      3631      3862      3863
 -1      1911    8    0    1
 -2       716       910       759      3586      3864      3082
 -1      1912    8    0    1
 -2       916       981       983      3814      3865      3818
 -1      1913    8    0    1
 -2       912       927       995      3651      3866      3867
 -1      1914    8    0    1
 -2       912       995       994      3867      3868      3862
 -1      1915    8    0    1
 -2       928       930       996      3661      3869      3870
 -1      1916    8    0    1
 -2       993       928       996      3860      3870      3871
 -1      1917    8    0    1
 -2       930       986       996      3832      3872      3869
 -1      1918    8    0    1
 -2       992       886       961      3854      3755      3873
 -1      1919    8    0    1
 -2       992       961       997      3873      3874      3875
 -1      1920    8    0    1
 -2       931       983       998      3820      3876      3877
 -1      1921    8    0    1
 -2       933       932       999      3672      3878      3879
 -1      1922    8    0    1
 -2       934       933      1000      3675      3880      3881
 -1      1923    8    0    1
 -2       933       999      1000      3879      3882      3880
 -1      1924    8    0    1
 -2       935       934      1001      3678      3883      3884
 -1      1925    8    0    1
 -2       934      1000      1001      3881      3885      3883
 -1      1926    8    0    1
 -2       936       935      1002      3681      3886      3887
 -1      1927    8    0    1
 -2       935      1001      1002      3884      3888      3886
 -1      1928    8    0    1
 -2       937       936      1003      3684      3889      3890
 -1      1929    8    0    1
 -2       936      1002      1003      3887      3891      3889
 -1      1930    8    0    1
 -2       938       937      1004      3687      3892      3893
 -1      1931    8    0    1
 -2       937      1003      1004      3890      3894      3892
 -1      1932    8    0    1
 -2       939       938      1005      3690      3895      3896
 -1      1933    8    0    1
 -2       938      1004      1005      3893      3897      3895
 -1      1934    8    0    1
 -2       940       939      1006      3693      3898      3899
 -1      1935    8    0    1
 -2       939      1005      1006      3896      3900      3898
 -1      1936    8    0    1
 -2       941       940      1007      3696      3901      3902
 -1      1937    8    0    1
 -2       940      1006      1007      3899      3903      3901
 -1      1938    8    0    1
 -2       942       941      1008      3699      3904      3905
 -1      1939    8    0    1
 -2       941      1007      1008      3902      3906      3904
 -1      1940    8    0    1
 -2       943       942      1009      3702      3907      3908
 -1      1941    8    0    1
 -2       942      1008      1009      3905      3909      3907
 -1      1942    8    0    1
 -2       944       943      1010      3705      3910      3911
 -1      1943    8    0    1
 -2       943      1009      1010      3908      3912      3910
 -1      1944    8    0    1
 -2       945       944      1011      3708      3913      3914
 -1      1945    8    0    1
 -2       944      1010      1011      3911      3915      3913
 -1      1946    8    0    1
 -2       946       945      1012      3711      3916      3917
 -1      1947    8    0    1
 -2       945      1011      1012      3914      3918      3916
 -1      1948    8    0    1
 -2       947       946      1013      3714      3919      3920
 -1      1949    8    0    1
 -2       946      1012      1013      3917      3921      3919
 -1      1950    8    0    1
 -2       948       947      1014      3717      3922      3923
 -1      1951    8    0    1
 -2       947      1013      1014      3920      3924      3922
 -1      1952    8    0    1
 -2       949       948      1015      3720      3925      3926
 -1      1953    8    0    1
 -2       948      1014      1015      3923      3927      3925
 -1      1954    8    0    1
 -2       950       949      1016      3723      3928      3929
 -1      1955    8    0    1
 -2       949      1015      1016      3926      3930      3928
 -1      1956    8    0    1
 -2       951       950      1017      3726      3931      3932
 -1      1957    8    0    1
 -2       950      1016      1017      3929      3933      3931
 -1      1958    8    0    1
 -2       952       951      1018      3729      3934      3935
 -1      1959    8    0    1
 -2       951      1017      1018      3932      3936      3934
 -1      1960    8    0    1
 -2       953       952      1019      3732      3937      3938
 -1      1961    8    0    1
 -2       952      1018      1019      3935      3939      3937
 -1      1962    8    0    1
 -2       954       953      1020      3735      3940      3941
 -1      1963    8    0    1
 -2       953      1019      1020      3938      3942      3940
 -1      1964    8    0    1
 -2       955       954      1021      3738      3943      3944
 -1      1965    8    0    1
 -2       954      1020      1021      3941      3945      3943
 -1      1966    8    0    1
 -2       956       955      1022      3741      3946      3947
 -1      1967    8    0    1
 -2       955      1021      1022      3944      3948      3946
 -1      1968    8    0    1
 -2       980       921      1023      3857      3949      3950
 -1      1969    8    0    1
 -2       921       994      1023      3863      3951      3949
 -1      1970    8    0    1
 -2       929       993      1024      3861      3952      3953
 -1      1971    8    0    1
 -2       929      1024       982      3953      3954      3817
 -1      1972    8    0    1
 -2       964       965      1025      3767      3955      3956
 -1      1973    8    0    1
 -2       963       964      1026      3764      3957      3958
 -1      1974    8    0    1
 -2       964      1025      1026      3956      3959      3957
 -1      1975    8    0    1
 -2       962       963      1027      3761      3960      3961
 -1      1976    8    0    1
 -2       963      1026      1027      3958      3962      3960
 -1      1977    8    0    1
 -2       965       966      1028      3770      3963      3964
 -1      1978    8    0    1
 -2       965      1028      1025      3964      3965      3955
 -1      1979    8    0    1
 -2       966       967      1029      3773      3966      3967
 -1      1980    8    0    1
 -2       966      1029      1028      3967      3968      3963
 -1      1981    8    0    1
 -2       967       968      1030      3776      3969      3970
 -1      1982    8    0    1
 -2       967      1030      1029      3970      3971      3966
 -1      1983    8    0    1
 -2       968       969      1031      3779      3972      3973
 -1      1984    8    0    1
 -2       968      1031      1030      3973      3974      3969
 -1      1985    8    0    1
 -2       969       970      1032      3782      3975      3976
 -1      1986    8    0    1
 -2       969      1032      1031      3976      3977      3972
 -1      1987    8    0    1
 -2       970       971      1033      3785      3978      3979
 -1      1988    8    0    1
 -2       970      1033      1032      3979      3980      3975
 -1      1989    8    0    1
 -2       971       972      1034      3788      3981      3982
 -1      1990    8    0    1
 -2       971      1034      1033      3982      3983      3978
 -1      1991    8    0    1
 -2       972       973      1035      3791      3984      3985
 -1      1992    8    0    1
 -2       972      1035      1034      3985      3986      3981
 -1      1993    8    0    1
 -2       973       974      1036      3794      3987      3988
 -1      1994    8    0    1
 -2       973      1036      1035      3988      3989      3984
 -1      1995    8    0    1
 -2       974       975      1037      3797      3990      3991
 -1      1996    8    0    1
 -2       974      1037      1036      3991      3992      3987
 -1      1997    8    0    1
 -2       975       976      1038      3800      3993      3994
 -1      1998    8    0    1
 -2       975      1038      1037      3994      3995      3990
 -1      1999    8    0    1
 -2       976       977       959      3803      3853      3996
 -1      2000    8    0    1
 -2       918       979       981      3809      3997      3858
 -1      2001    8    0    1
 -2       932       931      1039      3669      3998      3999
 -1      2002    8    0    1
 -2       931       998      1039      3877      4000      3998
 -1      2003    8    0    1
 -2       960       985      1040      3834      4001      4002
 -1      2004    8    0    1
 -2       961       960      1041      3756      4003      4004
 -1      2005    8    0    1
 -2       960      1040      1041      4002      4005      4003
 -1      2006    8    0    1
 -2       981       979      1042      3997      4006      4007
 -1      2007    8    0    1
 -2       983       981      1043      3865      4008      4009
 -1      2008    8    0    1
 -2       998       983      1043      3876      4009      4010
 -1      2009    8    0    1
 -2       981      1042      1043      4007      4011      4008
 -1      2010    8    0    1
 -2       979       982      1042      3845      4012      4006
 -1      2011    8    0    1
 -2       985       962      1044      3828      4013      4014
 -1      2012    8    0    1
 -2       985      1044      1040      4014      4015      4001
 -1      2013    8    0    1
 -2       919       980      1045      3812      4016      4017
 -1      2014    8    0    1
 -2       989       919      1045      3844      4017      4018
 -1      2015    8    0    1
 -2       980      1023      1045      3950      4019      4016
 -1      2016    8    0    1
 -2       927       922      1046      3859      4020      4021
 -1      2017    8    0    1
 -2       995       927      1046      3866      4021      4022
 -1      2018    8    0    1
 -2       922       987      1046      3837      4023      4020
 -1      2019    8    0    1
 -2       976       959      1038      3996      4024      3993
 -1      2020    8    0    1
 -2       987       958      1047      3835      4025      4026
 -1      2021    8    0    1
 -2      1042       982      1024      4012      3954      4027
 -1      2022    8    0    1
 -2      1023       994      1048      3951      4028      4029
 -1      2023    8    0    1
 -2       957       956      1049      3744      4030      4031
 -1      2024    8    0    1
 -2      1024       993      1050      3952      4032      4033
 -1      2025    8    0    1
 -2       988       992      1051      3856      4034      4035
 -1      2026    8    0    1
 -2       992       997      1051      3875      4036      4034
 -1      2027    8    0    1
 -2       713       759       910      3303      3864      3825
 -1      2028    8    0    1
 -2       962      1027      1044      3961      4037      4013
 -1      2029    8    0    1
 -2       923       957       984      3838      4038      4039
 -1      2030    8    0    1
 -2      1047       958      1052      4025      4040      4041
 -1      2031    8    0    1
 -2       958       988      1052      3840      4042      4040
 -1      2032    8    0    1
 -2       926       991      1053      3851      4043      4044
 -1      2033    8    0    1
 -2       926      1053       990      4044      4045      3848
 -1      2034    8    0    1
 -2      1038       959       990      4024      3847      4046
 -1      2035    8    0    1
 -2       991       984      1049      3852      4047      4048
 -1      2036    8    0    1
 -2       997       961      1041      3874      4004      4049
 -1      2037    8    0    1
 -2       993       996      1054      3871      4050      4051
 -1      2038    8    0    1
 -2       993      1054      1050      4051      4052      4032
 -1      2039    8    0    1
 -2       984       908       923      3823      3638      4039
 -1      2040    8    0    1
 -2      1049       956      1022      4030      3947      4053
 -1      2041    8    0    1
 -2       994       995      1055      3868      4054      4055
 -1      2042    8    0    1
 -2       994      1055      1048      4055      4056      4028
 -1      2043    8    0    1
 -2       932      1039       999      3999      4057      3878
 -1      2044    8    0    1
 -2       986       978       996      3833      4058      3872
 -1      2045    8    0    1
 -2       984       957      1049      4038      4031      4047
 -1      2046    8    0    1
 -2       996       978      1056      4058      4059      4060
 -1      2047    8    0    1
 -2      1054       996      1056      4050      4060      4061
 -1      2048    8    0    1
 -2       978       989      1056      3843      4062      4059
 -1      2049    8    0    1
 -2      1042      1024      1057      4027      4063      4064
 -1      2050    8    0    1
 -2      1043      1042      1057      4011      4064      4065
 -1      2051    8    0    1
 -2      1024      1050      1057      4033      4066      4063
 -1      2052    8    0    1
 -2       999      1039      1058      4057      4067      4068
 -1      2053    8    0    1
 -2      1001      1000      1059      3885      4069      4070
 -1      2054    8    0    1
 -2      1002      1001      1060      3888      4071      4072
 -1      2055    8    0    1
 -2      1001      1059      1060      4070      4073      4071
 -1      2056    8    0    1
 -2      1003      1002      1061      3891      4074      4075
 -1      2057    8    0    1
 -2      1002      1060      1061      4072      4076      4074
 -1      2058    8    0    1
 -2      1004      1003      1062      3894      4077      4078
 -1      2059    8    0    1
 -2      1003      1061      1062      4075      4079      4077
 -1      2060    8    0    1
 -2      1005      1004      1063      3897      4080      4081
 -1      2061    8    0    1
 -2      1004      1062      1063      4078      4082      4080
 -1      2062    8    0    1
 -2      1006      1005      1064      3900      4083      4084
 -1      2063    8    0    1
 -2      1005      1063      1064      4081      4085      4083
 -1      2064    8    0    1
 -2      1007      1006      1065      3903      4086      4087
 -1      2065    8    0    1
 -2      1006      1064      1065      4084      4088      4086
 -1      2066    8    0    1
 -2      1008      1007      1066      3906      4089      4090
 -1      2067    8    0    1
 -2      1007      1065      1066      4087      4091      4089
 -1      2068    8    0    1
 -2      1009      1008      1067      3909      4092      4093
 -1      2069    8    0    1
 -2      1008      1066      1067      4090      4094      4092
 -1      2070    8    0    1
 -2      1010      1009      1068      3912      4095      4096
 -1      2071    8    0    1
 -2      1009      1067      1068      4093      4097      4095
 -1      2072    8    0    1
 -2      1011      1010      1069      3915      4098      4099
 -1      2073    8    0    1
 -2      1010      1068      1069      4096      4100      4098
 -1      2074    8    0    1
 -2      1012      1011      1070      3918      4101      4102
 -1      2075    8    0    1
 -2      1011      1069      1070      4099      4103      4101
 -1      2076    8    0    1
 -2      1013      1012      1071      3921      4104      4105
 -1      2077    8    0    1
 -2      1012      1070      1071      4102      4106      4104
 -1      2078    8    0    1
 -2      1014      1013      1072      3924      4107      4108
 -1      2079    8    0    1
 -2      1013      1071      1072      4105      4109      4107
 -1      2080    8    0    1
 -2      1015      1014      1073      3927      4110      4111
 -1      2081    8    0    1
 -2      1014      1072      1073      4108      4112      4110
 -1      2082    8    0    1
 -2      1016      1015      1074      3930      4113      4114
 -1      2083    8    0    1
 -2      1015      1073      1074      4111      4115      4113
 -1      2084    8    0    1
 -2      1017      1016      1075      3933      4116      4117
 -1      2085    8    0    1
 -2      1016      1074      1075      4114      4118      4116
 -1      2086    8    0    1
 -2      1018      1017      1076      3936      4119      4120
 -1      2087    8    0    1
 -2      1017      1075      1076      4117      4121      4119
 -1      2088    8    0    1
 -2      1019      1018      1077      3939      4122      4123
 -1      2089    8    0    1
 -2      1018      1076      1077      4120      4124      4122
 -1      2090    8    0    1
 -2      1020      1019      1078      3942      4125      4126
 -1      2091    8    0    1
 -2      1019      1077      1078      4123      4127      4125
 -1      2092    8    0    1
 -2      1021      1020      1079      3945      4128      4129
 -1      2093    8    0    1
 -2      1020      1078      1079      4126      4130      4128
 -1      2094    8    0    1
 -2      1022      1021      1080      3948      4131      4132
 -1      2095    8    0    1
 -2      1021      1079      1080      4129      4133      4131
 -1      2096    8    0    1
 -2      1028      1029      1081      3968      4134      4135
 -1      2097    8    0    1
 -2      1025      1028      1082      3965      4136      4137
 -1      2098    8    0    1
 -2      1028      1081      1082      4135      4138      4136
 -1      2099    8    0    1
 -2      1027      1026      1083      3962      4139      4140
 -1      2100    8    0    1
 -2      1029      1030      1084      3971      4141      4142
 -1      2101    8    0    1
 -2      1029      1084      1081      4142      4143      4134
 -1      2102    8    0    1
 -2      1030      1031      1085      3974      4144      4145
 -1      2103    8    0    1
 -2      1030      1085      1084      4145      4146      4141
 -1      2104    8    0    1
 -2      1031      1032      1086      3977      4147      4148
 -1      2105    8    0    1
 -2      1031      1086      1085      4148      4149      4144
 -1      2106    8    0    1
 -2      1032      1033      1087      3980      4150      4151
 -1      2107    8    0    1
 -2      1032      1087      1086      4151      4152      4147
 -1      2108    8    0    1
 -2      1033      1034      1088      3983      4153      4154
 -1      2109    8    0    1
 -2      1033      1088      1087      4154      4155      4150
 -1      2110    8    0    1
 -2      1034      1035      1089      3986      4156      4157
 -1      2111    8    0    1
 -2      1034      1089      1088      4157      4158      4153
 -1      2112    8    0    1
 -2      1035      1036      1090      3989      4159      4160
 -1      2113    8    0    1
 -2      1035      1090      1089      4160      4161      4156
 -1      2114    8    0    1
 -2      1036      1037      1091      3992      4162      4163
 -1      2115    8    0    1
 -2      1036      1091      1090      4163      4164      4159
 -1      2116    8    0    1
 -2      1037      1038      1092      3995      4165      4166
 -1      2117    8    0    1
 -2      1091      1037      1092      4162      4166      4167
 -1      2118    8    0    1
 -2      1038       990      1092      4046      4168      4165
 -1      2119    8    0    1
 -2       987      1047      1093      4026      4169      4170
 -1      2120    8    0    1
 -2       987      1093      1046      4170      4171      4023
 -1      2121    8    0    1
 -2      1041      1040      1094      4005      4172      4173
 -1      2122    8    0    1
 -2      1039       998      1095      4000      4174      4175
 -1      2123    8    0    1
 -2      1039      1095      1058      4175      4176      4067
 -1      2124    8    0    1
 -2       997      1041      1096      4049      4177      4178
 -1      2125    8    0    1
 -2      1041      1094      1096      4173      4179      4177
 -1      2126    8    0    1
 -2      1026      1025      1097      3959      4180      4181
 -1      2127    8    0    1
 -2      1083      1026      1097      4139      4181      4182
 -1      2128    8    0    1
 -2      1025      1082      1097      4137      4183      4180
 -1      2129    8    0    1
 -2       991      1049      1098      4048      4184      4185
 -1      2130    8    0    1
 -2      1053       991      1098      4043      4185      4186
 -1      2131    8    0    1
 -2      1049      1022      1098      4053      4187      4184
 -1      2132    8    0    1
 -2      1023      1048      1099      4029      4188      4189
 -1      2133    8    0    1
 -2      1023      1099      1045      4189      4190      4019
 -1      2134    8    0    1
 -2      1040      1044      1100      4015      4191      4192
 -1      2135    8    0    1
 -2      1040      1100      1094      4192      4193      4172
 -1      2136    8    0    1
 -2      1000       999      1101      3882      4194      4195
 -1      2137    8    0    1
 -2       999      1058      1101      4068      4196      4194
 -1      2138    8    0    1
 -2      1044      1027      1102      4037      4197      4198
 -1      2139    8    0    1
 -2      1027      1083      1102      4140      4199      4197
 -1      2140    8    0    1
 -2      1059      1000      1101      4069      4195      4200
 -1      2141    8    0    1
 -2       995      1046      1103      4022      4201      4202
 -1      2142    8    0    1
 -2      1055       995      1103      4054      4202      4203
 -1      2143    8    0    1
 -2      1046      1093      1103      4171      4204      4201
 -1      2144    8    0    1
 -2      1048      1055      1104      4056      4205      4206
 -1      2145    8    0    1
 -2      1022      1080      1098      4132      4207      4187
 -1      2146    8    0    1
 -2      1044      1102      1100      4198      4208      4191
 -1      2147    8    0    1
 -2       988      1051      1052      4035      4209      4042
 -1      2148    8    0    1
 -2      1047      1052      1105      4041      4210      4211
 -1      2149    8    0    1
 -2      1093      1047      1106      4169      4212      4213
 -1      2150    8    0    1
 -2      1047      1105      1106      4211      4214      4212
 -1      2151    8    0    1
 -2      1092       990      1053      4168      4045      4215
 -1      2152    8    0    1
 -2      1099      1048      1107      4188      4216      4217
 -1      2153    8    0    1
 -2      1048      1104      1107      4206      4218      4216
 -1      2154    8    0    1
 -2       997      1096      1108      4178      4219      4220
 -1      2155    8    0    1
 -2       997      1108      1051      4220      4221      4036
 -1      2156    8    0    1
 -2      1057      1050      1109      4066      4222      4223
 -1      2157    8    0    1
 -2       989      1045      1110      4018      4224      4225
 -1      2158    8    0    1
 -2      1056       989      1110      4062      4225      4226
 -1      2159    8    0    1
 -2      1045      1099      1110      4190      4227      4224
 -1      2160    8    0    1
 -2      1050      1054      1111      4052      4228      4229
 -1      2161    8    0    1
 -2      1050      1111      1109      4229      4230      4222
 -1      2162    8    0    1
 -2      1059      1101      1112      4200      4231      4232
 -1      2163    8    0    1
 -2      1061      1060      1113      4076      4233      4234
 -1      2164    8    0    1
 -2      1062      1061      1105      4079      4235      4236
 -1      2165    8    0    1
 -2      1064      1063      1114      4085      4237      4238
 -1      2166    8    0    1
 -2      1065      1064      1096      4088      4239      4240
 -1      2167    8    0    1
 -2      1066      1065      1094      4091      4241      4242
 -1      2168    8    0    1
 -2      1067      1066      1100      4094      4243      4244
 -1      2169    8    0    1
 -2      1068      1067      1102      4097      4245      4246
 -1      2170    8    0    1
 -2      1069      1068      1083      4100      4247      4248
 -1      2171    8    0    1
 -2      1070      1069      1097      4103      4249      4250
 -1      2172    8    0    1
 -2      1071      1070      1082      4106      4251      4252
 -1      2173    8    0    1
 -2      1072      1071      1081      4109      4253      4254
 -1      2174    8    0    1
 -2      1073      1072      1084      4112      4255      4256
 -1      2175    8    0    1
 -2      1074      1073      1085      4115      4257      4258
 -1      2176    8    0    1
 -2      1075      1074      1086      4118      4259      4260
 -1      2177    8    0    1
 -2      1076      1075      1087      4121      4261      4262
 -1      2178    8    0    1
 -2      1077      1076      1088      4124      4263      4264
 -1      2179    8    0    1
 -2      1078      1077      1089      4127      4265      4266
 -1      2180    8    0    1
 -2      1079      1078      1090      4130      4267      4268
 -1      2181    8    0    1
 -2      1080      1079      1091      4133      4269      4270
 -1      2182    8    0    1
 -2      1084      1085      1073      4146      4257      4256
 -1      2183    8    0    1
 -2      1105      1052      1115      4210      4271      4272
 -1      2184    8    0    1
 -2      1062      1105      1115      4236      4272      4273
 -1      2185    8    0    1
 -2      1052      1051      1115      4209      4274      4271
 -1      2186    8    0    1
 -2      1090      1078      1089      4267      4266      4161
 -1      2187    8    0    1
 -2      1089      1077      1088      4265      4264      4158
 -1      2188    8    0    1
 -2      1087      1075      1086      4261      4260      4152
 -1      2189    8    0    1
 -2      1082      1081      1071      4138      4253      4252
 -1      2190    8    0    1
 -2      1100      1102      1067      4208      4245      4244
 -1      2191    8    0    1
 -2      1088      1076      1087      4263      4262      4155
 -1      2192    8    0    1
 -2      1081      1084      1072      4143      4255      4254
 -1      2193    8    0    1
 -2      1090      1091      1079      4164      4269      4268
 -1      2194    8    0    1
 -2      1091      1092      1080      4167      4275      4270
 -1      2195    8    0    1
 -2      1095       998      1116      4174      4276      4277
 -1      2196    8    0    1
 -2      1058      1095      1117      4176      4278      4279
 -1      2197    8    0    1
 -2      1086      1074      1085      4259      4258      4149
 -1      2198    8    0    1
 -2      1096      1094      1065      4179      4241      4240
 -1      2199    8    0    1
 -2      1054      1056      1111      4061      4280      4228
 -1      2200    8    0    1
 -2      1100      1066      1094      4243      4242      4193
 -1      2201    8    0    1
 -2      1101      1058      1118      4196      4281      4282
 -1      2202    8    0    1
 -2      1112      1101      1118      4231      4282      4283
 -1      2203    8    0    1
 -2      1058      1117      1118      4279      4284      4281
 -1      2204    8    0    1
 -2      1102      1083      1068      4199      4247      4246
 -1      2205    8    0    1
 -2       998      1043      1116      4010      4285      4276
 -1      2206    8    0    1
 -2      1082      1070      1097      4251      4250      4183
 -1      2207    8    0    1
 -2      1060      1059      1119      4073      4286      4287
 -1      2208    8    0    1
 -2      1059      1112      1119      4232      4288      4286
 -1      2209    8    0    1
 -2      1069      1083      1097      4248      4182      4249
 -1      2210    8    0    1
 -2      1103      1093      1119      4204      4289      4290
 -1      2211    8    0    1
 -2      1114      1063      1115      4237      4291      4292
 -1      2212    8    0    1
 -2      1098      1080      1092      4207      4275      4293
 -1      2213    8    0    1
 -2      1105      1061      1113      4235      4234      4294
 -1      2214    8    0    1
 -2      1063      1062      1115      4082      4273      4291
 -1      2215    8    0    1
 -2      1111      1056      1110      4280      4226      4295
 -1      2216    8    0    1
 -2      1116      1043      1057      4285      4065      4296
 -1      2217    8    0    1
 -2      1119      1093      1106      4289      4213      4297
 -1      2218    8    0    1
 -2      1110      1099      1120      4227      4298      4299
 -1      2219    8    0    1
 -2      1111      1110      1120      4295      4299      4300
 -1      2220    8    0    1
 -2      1099      1107      1120      4217      4301      4298
 -1      2221    8    0    1
 -2      1107      1104      1118      4218      4302      4303
 -1      2222    8    0    1
 -2      1055      1103      1112      4203      4304      4305
 -1      2223    8    0    1
 -2      1116      1057      1109      4296      4223      4306
 -1      2224    8    0    1
 -2      1104      1055      1112      4205      4305      4307
 -1      2225    8    0    1
 -2      1096      1064      1114      4239      4238      4308
 -1      2226    8    0    1
 -2      1117      1095      1109      4278      4309      4310
 -1      2227    8    0    1
 -2      1109      1111      1120      4230      4300      4311
 -1      2228    8    0    1
 -2      1104      1112      1118      4307      4283      4302
 -1      2229    8    0    1
 -2      1116      1109      1095      4306      4309      4277
 -1      2230    8    0    1
 -2      1117      1109      1120      4310      4311      4312
 -1      2231    8    0    1
 -2      1098      1092      1053      4293      4215      4186
 -1      2232    8    0    1
 -2      1118      1117      1107      4284      4313      4303
 -1      2233    8    0    1
 -2      1119      1112      1103      4288      4304      4290
 -1      2234    8    0    1
 -2      1117      1120      1107      4312      4301      4313
 -1      2235    8    0    1
 -2      1051      1108      1115      4221      4314      4274
 -1      2236    8    0    1
 -2      1060      1119      1113      4287      4315      4233
 -1      2237    8    0    1
 -2      1115      1108      1114      4314      4316      4292
 -1      2238    8    0    1
 -2      1105      1113      1106      4294      4317      4214
 -1      2239    8    0    1
 -2      1096      1114      1108      4308      4316      4219
 -1      2240    8    0    1
 -2      1106      1113      1119      4317      4315      4297
 -3
    1PSTEP                         1           1           1          
  100CL  101 1.000000000        4317                     0    1           1
 -4  DISP        4    1
 -5  D1          1    2    1    0
 -5  D2          1    2    2    0
 -5  D3          1    2    3    0
 -5  ALL         1    2    0    0    1ALL
 -1         1 1.26205E-02-8.29834E-04-1.22147E-13
 -1         2 1.47934E-02 1.42148E-04-1.30889E-13
 -1         3 1.46245E-02 3.55950E-04-1.56951E-13
 -1         4 1.44039E-02-8.85192E-05-1.63025E-13
 -1         5 0.00000E+00 0.00000E+00 0.00000E+00
 -1         6 0.00000E+00 0.00000E+00 0.00000E+00
 -1         7 0.00000E+00 0.00000E+00 0.00000E+00
 -1         8 0.00000E+00 0.00000E+00 0.00000E+00
 -1         9 0.00000E+00 0.00000E+00 0.00000E+00
 -1        10 0.00000E+00 0.00000E+00 0.00000E+00
 -1        11 0.00000E+00 0.00000E+00 0.00000E+00
 -1        12 0.00000E+00 0.00000E+00 0.00000E+00
 -1        13 0.00000E+00 0.00000E+00 0.00000E+00
 -1        14 0.00000E+00 0.00000E+00 0.00000E+00
 -1        15 0.00000E+00 0.00000E+00 0.00000E+00
 -1        16 0.00000E+00 0.00000E+00 0.00000E+00
 -1        17 0.00000E+00 0.00000E+00 0.00000E+00
 -1        18 0.00000E+00 0.00000E+00 0.00000E+00
 -1        19 0.00000E+00 0.00000E+00 0.00000E+00
 -1        20 0.00000E+00 0.00000E+00 0.00000E+00
 -1        21 0.00000E+00 0.00000E+00 0.00000E+00
 -1        22 0.00000E+00 0.00000E+00 0.00000E+00
 -1        23 4.11415E-04-2.60745E-04 4.57872E-17
 -1        24 7.03434E-04-4.01001E-04-1.28054E-16
 -1        25 9.73540E-04-4.98393E-04-5.14088E-16
 -1        26 1.23807E-03-5.67158E-04-1.10742E-15
 -1        27 1.50165E-03-6.16444E-04-1.90004E-15
 -1        28 1.76636E-03-6.51640E-04-2.88898E-15
 -1        29 2.03317E-03-6.76454E-04-4.07112E-15
 -1        30 2.30243E-03-6.93586E-04-5.44098E-15
 -1        31 2.57419E-03-7.05059E-04-6.99656E-15
 -1        32 2.84831E-03-7.12400E-04-8.72865E-15
 -1        33 3.12457E-03-7.16766E-04-1.06283E-14
 -1        34 3.40267E-03-7.19018E-04-1.26841E-14
 -1        35 3.68232E-03-7.19790E-04-1.48959E-14
 -1        36 3.96326E-03-7.19530E-04-1.72561E-14
 -1        37 4.24524E-03-7.18549E-04-1.97617E-14
 -1        38 4.52805E-03-7.17040E-04-2.24076E-14
 -1        39 4.81152E-03-7.15114E-04-2.51833E-14
 -1        40 5.09554E-03-7.12812E-04-2.80919E-14
 -1        41 5.38004E-03-7.10124E-04-3.11289E-14
 -1        42 5.66502E-03-7.07005E-04-3.42882E-14
 -1        43 5.95052E-03-7.03389E-04-3.75640E-14
 -1        44 6.23668E-03-6.99202E-04-4.09552E-14
 -1        45 6.52372E-03-6.94382E-04-4.44618E-14
 -1        46 6.81195E-03-6.88902E-04-4.80787E-14
 -1        47 7.10180E-03-6.82803E-04-5.17991E-14
 -1        48 7.39385E-03-6.76235E-04-5.56124E-14
 -1        49 7.68883E-03-6.69513E-04-5.95106E-14
 -1        50 7.98760E-03-6.63195E-04-6.34983E-14
 -1        51 8.29120E-03-6.58172E-04-6.75700E-14
 -1        52 8.60073E-03-6.55784E-04-7.17161E-14
 -1        53 8.91728E-03-6.57926E-04-7.59325E-14
 -1        54 9.24171E-03-6.67149E-04-8.02085E-14
 -1        55 9.57432E-03-6.86655E-04-8.45321E-14
 -1        56 9.91429E-03-7.20096E-04-8.89040E-14
 -1        57 1.02591E-02-7.70997E-04-9.33223E-14
 -1        58 1.06039E-02-8.41589E-04-9.77753E-14
 -1        59 1.09411E-02-9.30974E-04-1.02262E-13
 -1        60 1.12615E-02-1.03293E-03-1.06786E-13
 -1        61 1.15567E-02-1.13443E-03-1.11345E-13
 -1        62 1.18226E-02-1.21663E-03-1.15938E-13
 -1        63 1.20629E-02-1.25946E-03-1.20576E-13
 -1        64 1.22889E-02-1.24885E-03-1.25243E-13
 -1        65 1.25158E-02-1.18238E-03-1.29937E-13
 -1        66 1.27555E-02-1.06949E-03-1.34658E-13
 -1        67 1.30127E-02-9.25923E-04-1.39396E-13
 -1        68 1.32847E-02-7.66359E-04-1.44144E-13
 -1        69 1.35653E-02-5.99874E-04-1.48894E-13
 -1        70 1.38488E-02-4.29559E-04-1.53653E-13
 -1        71 1.41330E-02-2.55660E-04-1.58447E-13
 -1        72 4.13858E-04 2.61450E-04 8.37817E-17
 -1        73 7.03255E-04 4.03705E-04-2.72745E-17
 -1        74 9.74075E-04 5.00163E-04-3.27497E-16
 -1        75 1.23890E-03 5.68869E-04-8.19308E-16
 -1        76 1.50260E-03 6.18205E-04-1.50301E-15
 -1        77 1.76739E-03 6.53491E-04-2.37566E-15
 -1        78 2.03423E-03 6.78415E-04-3.43297E-15
 -1        79 2.30351E-03 6.95669E-04-4.66774E-15
 -1        80 2.57529E-03 7.07269E-04-6.07628E-15
 -1        81 2.84942E-03 7.14743E-04-7.65658E-15
 -1        82 3.12568E-03 7.19242E-04-9.40809E-15
 -1        83 3.40378E-03 7.21628E-04-1.13203E-14
 -1        84 3.68344E-03 7.22534E-04-1.33882E-14
 -1        85 3.96438E-03 7.22409E-04-1.56095E-14
 -1        86 4.24636E-03 7.21561E-04-1.79823E-14
 -1        87 4.52916E-03 7.20186E-04-2.05054E-14
 -1        88 4.81263E-03 7.18392E-04-2.31699E-14
 -1        89 5.09664E-03 7.16218E-04-2.59725E-14
 -1        90 5.38113E-03 7.13653E-04-2.89072E-14
 -1        91 5.66609E-03 7.10648E-04-3.19613E-14
 -1        92 5.95157E-03 7.07130E-04-3.51289E-14
 -1        93 6.23771E-03 7.03017E-04-3.84043E-14
 -1        94 6.52471E-03 6.98231E-04-4.17932E-14
 -1        95 6.81292E-03 6.92728E-04-4.52856E-14
 -1        96 7.10279E-03 6.86519E-04-4.88723E-14
 -1        97 7.39492E-03 6.79718E-04-5.25404E-14
 -1        98 7.69012E-03 6.72599E-04-5.62895E-14
 -1        99 7.98937E-03 6.65675E-04-6.01207E-14
 -1       100 8.29390E-03 6.59808E-04-6.40180E-14
 -1       101 8.60513E-03 6.56347E-04-6.79748E-14
 -1       102 8.92463E-03 6.57307E-04-7.19920E-14
 -1       103 9.25392E-03 6.65555E-04-7.60724E-14
 -1       104 9.59417E-03 6.84959E-04-8.02086E-14
 -1       105 9.94559E-03 7.20381E-04-8.44084E-14
 -1       106 1.03065E-02 7.77256E-04-8.86617E-14
 -1       107 1.06723E-02 8.60389E-04-9.29524E-14
 -1       108 1.10343E-02 9.71567E-04-9.72670E-14
 -1       109 1.13803E-02 1.10600E-03-1.01624E-13
 -1       110 1.16972E-02 1.24886E-03-1.06032E-13
 -1       111 1.19767E-02 1.37504E-03-1.10483E-13
 -1       112 1.22215E-02 1.45525E-03-1.14997E-13
 -1       113 1.24471E-02 1.46796E-03-1.19557E-13
 -1       114 1.26752E-02 1.40980E-03-1.24152E-13
 -1       115 1.29226E-02 1.29608E-03-1.28776E-13
 -1       116 1.31937E-02 1.15083E-03-1.33435E-13
 -1       117 1.34819E-02 9.94505E-04-1.38143E-13
 -1       118 1.37760E-02 8.37193E-04-1.42895E-13
 -1       119 1.40674E-02 6.79119E-04-1.47666E-13
 -1       120 1.43538E-02 5.16069E-04-1.52437E-13
 -1       121 1.47918E-02 2.70905E-04-1.57370E-13
 -1       122 1.49658E-02 1.87448E-04-1.57821E-13
 -1       123 1.51497E-02 1.13086E-04-1.58251E-13
 -1       124 1.53403E-02 5.80918E-05-1.58669E-13
 -1       125 1.55265E-02 3.34593E-05-1.59074E-13
 -1       126 1.56859E-02 4.61148E-05-1.59458E-13
 -1       127 1.57990E-02 9.51640E-05-1.59814E-13
 -1       128 1.58403E-02 1.67725E-04-1.60140E-13
 -1       129 1.57999E-02 2.41840E-04-1.60447E-13
 -1       130 1.56853E-02 2.94814E-04-1.60773E-13
 -1       131 1.55179E-02 3.11923E-04-1.61098E-13
 -1       132 1.53270E-02 2.90972E-04-1.61452E-13
 -1       133 1.51270E-02 2.37988E-04-1.61806E-13
 -1       134 1.49333E-02 1.64279E-04-1.62126E-13
 -1       135 1.47498E-02 8.05522E-05-1.62432E-13
 -1       136 1.45739E-02-5.01755E-06-1.62732E-13
 -1       137 1.47395E-02 3.45857E-04-1.30460E-13
 -1       138 1.45558E-02 5.53399E-04-1.29472E-13
 -1       139 1.43002E-02 7.19438E-04-1.28209E-13
 -1       140 1.39538E-02 8.65900E-04-1.26563E-13
 -1       141 1.34896E-02 9.91791E-04-1.24383E-13
 -1       142 1.29802E-02 1.06717E-03-1.22009E-13
 -1       143 1.24950E-02 1.08746E-03-1.19788E-13
 -1       144 1.19809E-02 1.05907E-03-1.17445E-13
 -1       145 1.14636E-02 9.75016E-04-1.15102E-13
 -1       146 1.10280E-02 8.54408E-04-1.13164E-13
 -1       147 1.06431E-02 6.92513E-04-1.11477E-13
 -1       148 1.03827E-02 5.30073E-04-1.10375E-13
 -1       149 1.01937E-02 3.41534E-04-1.09638E-13
 -1       150 1.01080E-02 1.52247E-04-1.09388E-13
 -1       151 1.01174E-02-2.48496E-05-1.09586E-13
 -1       152 1.02204E-02-2.05677E-04-1.10249E-13
 -1       153 1.04186E-02-3.78749E-04-1.11368E-13
 -1       154 1.07294E-02-5.43753E-04-1.13016E-13
 -1       155 1.11610E-02-6.89713E-04-1.15217E-13
 -1       156 1.16117E-02-7.80906E-04-1.17425E-13
 -1       157 1.21088E-02-8.29429E-04-1.19780E-13
 -1       158 1.30974E-02-7.86252E-04-1.24284E-13
 -1       159 1.35599E-02-6.98856E-04-1.26298E-13
 -1       160 1.39553E-02-5.81164E-04-1.27952E-13
 -1       161 1.43007E-02-4.29214E-04-1.29333E-13
 -1       162 1.45702E-02-2.49258E-04-1.30324E-13
 -1       163 1.47311E-02-6.39203E-05-1.30829E-13
 -1       164 2.40422E-04-1.25513E-04-4.62040E-17
 -1       165 2.25278E-04-9.46104E-05-7.43526E-17
 -1       166 2.19529E-04-7.27751E-05-8.92502E-17
 -1       167 2.16710E-04-5.50979E-05-9.70598E-17
 -1       168 2.15211E-04-3.99602E-05-1.00661E-16
 -1       169 2.14373E-04-2.59107E-05-1.01895E-16
 -1       170 2.13952E-04-1.26419E-05-1.01813E-16
 -1       171 2.13830E-04 2.72783E-07-1.00878E-16
 -1       172 2.13972E-04 1.31999E-05-9.92113E-17
 -1       173 2.14415E-04 2.65087E-05-9.63381E-17
 -1       174 2.15261E-04 4.03870E-05-9.18692E-17
 -1       175 2.16815E-04 5.59062E-05-8.47575E-17
 -1       176 2.19676E-04 7.38089E-05-7.32887E-17
 -1       177 2.25455E-04 9.60120E-05-5.38713E-17
 -1       178 2.39352E-04 1.27594E-04-2.09149E-17
 -1       179 2.97733E-04 1.85503E-04 1.44029E-17
 -1       180 4.68667E-04-2.63556E-04-1.23602E-16
 -1       181 7.66837E-04-3.82160E-04-4.42653E-16
 -1       182 1.05071E-03-4.65055E-04-9.58774E-16
 -1       183 1.32814E-03-5.23852E-04-1.67086E-15
 -1       184 1.60277E-03-5.65574E-04-2.57539E-15
 -1       185 1.87669E-03-5.94910E-04-3.67034E-15
 -1       186 2.15103E-03-6.15164E-04-4.95151E-15
 -1       187 2.42638E-03-6.28764E-04-6.41391E-15
 -1       188 2.70299E-03-6.37523E-04-8.05389E-15
 -1       189 2.98094E-03-6.42803E-04-9.86351E-15
 -1       190 3.26017E-03-6.45621E-04-1.18328E-14
 -1       191 3.54056E-03-6.46723E-04-1.39577E-14
 -1       192 3.82197E-03-6.46645E-04-1.62361E-14
 -1       193 4.10425E-03-6.45757E-04-1.86582E-14
 -1       194 4.38726E-03-6.44302E-04-2.12230E-14
 -1       195 4.67088E-03-6.42418E-04-2.39222E-14
 -1       196 4.95503E-03-6.40169E-04-2.67519E-14
 -1       197 5.23965E-03-6.37558E-04-2.97100E-14
 -1       198 5.52474E-03-6.34543E-04-3.27948E-14
 -1       199 5.81032E-03-6.31051E-04-3.59981E-14
 -1       200 6.09648E-03-6.26993E-04-3.93205E-14
 -1       201 6.38338E-03-6.22279E-04-4.27570E-14
 -1       202 6.67124E-03-6.16838E-04-4.63048E-14
 -1       203 6.96035E-03-6.10646E-04-4.99575E-14
 -1       204 7.25112E-03-6.03761E-04-5.37083E-14
 -1       205 7.54405E-03-5.96376E-04-5.75508E-14
 -1       206 7.83973E-03-5.88881E-04-6.14778E-14
 -1       207 8.13885E-03-5.81960E-04-6.54904E-14
 -1       208 8.44217E-03-5.76692E-04-6.95805E-14
 -1       209 8.75043E-03-5.74684E-04-7.37457E-14
 -1       210 9.06429E-03-5.78197E-04-7.79710E-14
 -1       211 9.38412E-03-5.90233E-04-8.22510E-14
 -1       212 9.70975E-03-6.14481E-04-8.65778E-14
 -1       213 1.00402E-02-6.54991E-04-9.09536E-14
 -1       214 1.03732E-02-7.15330E-04-9.53737E-14
 -1       215 1.07050E-02-7.97016E-04-9.98299E-14
 -1       216 1.10306E-02-8.97223E-04-1.04325E-13
 -1       217 1.13444E-02-1.00639E-03-1.08850E-13
 -1       218 1.16422E-02-1.10734E-03-1.13413E-13
 -1       219 1.19230E-02-1.17805E-03-1.18019E-13
 -1       220 1.21911E-02-1.19855E-03-1.22665E-13
 -1       221 1.24543E-02-1.15925E-03-1.27338E-13
 -1       222 1.27207E-02-1.06483E-03-1.32034E-13
 -1       223 1.29951E-02-9.30677E-04-1.36756E-13
 -1       224 1.32776E-02-7.74547E-04-1.41494E-13
 -1       225 1.35651E-02-6.09371E-04-1.46244E-13
 -1       226 1.38538E-02-4.40757E-04-1.51006E-13
 -1       227 1.41414E-02-2.68914E-04-1.55785E-13
 -1       228 6.04618E-04 3.31045E-04-1.26174E-16
 -1       229 8.93741E-04 4.32672E-04-4.44875E-16
 -1       230 1.17266E-03 5.04436E-04-9.47776E-16
 -1       231 1.44704E-03 5.55548E-04-1.63736E-15
 -1       232 1.71989E-03 5.91832E-04-2.51185E-15
 -1       233 1.99282E-03 6.17268E-04-3.56835E-15
 -1       234 2.26668E-03 6.34732E-04-4.80122E-15
 -1       235 2.54186E-03 6.46358E-04-6.20665E-15
 -1       236 2.81851E-03 6.53750E-04-7.78086E-15
 -1       237 3.09660E-03 6.58112E-04-9.52348E-15
 -1       238 3.37602E-03 6.60340E-04-1.14274E-14
 -1       239 3.65661E-03 6.61086E-04-1.34860E-14
 -1       240 3.93822E-03 6.60813E-04-1.56981E-14
 -1       241 4.22069E-03 6.59837E-04-1.80593E-14
 -1       242 4.50386E-03 6.58355E-04-2.05671E-14
 -1       243 4.78762E-03 6.56473E-04-2.32168E-14
 -1       244 5.07190E-03 6.54227E-04-2.60054E-14
 -1       245 5.35665E-03 6.51601E-04-2.89223E-14
 -1       246 5.64187E-03 6.48536E-04-3.19607E-14
 -1       247 5.92762E-03 6.44947E-04-3.51157E-14
 -1       248 6.21402E-03 6.40735E-04-3.83816E-14
 -1       249 6.50126E-03 6.35804E-04-4.17581E-14
 -1       250 6.78961E-03 6.30082E-04-4.52356E-14
 -1       251 7.07946E-03 6.23547E-04-4.88068E-14
 -1       252 7.37128E-03 6.16269E-04-5.24670E-14
 -1       253 7.66572E-03 6.08468E-04-5.62089E-14
 -1       254 7.96353E-03 6.00590E-04-6.00342E-14
 -1       255 8.26563E-03 5.93418E-04-6.39248E-14
 -1       256 8.57307E-03 5.88218E-04-6.78776E-14
 -1       257 8.88694E-03 5.86916E-04-7.18931E-14
 -1       258 9.20830E-03 5.92319E-04-7.59683E-14
 -1       259 9.53790E-03 6.08300E-04-8.01007E-14
 -1       260 9.87586E-03 6.39863E-04-8.42959E-14
 -1       261 1.02211E-02 6.92837E-04-8.85462E-14
 -1       262 1.05709E-02 7.72795E-04-9.28322E-14
 -1       263 1.09200E-02 8.82725E-04-9.71461E-14
 -1       264 1.12612E-02 1.01925E-03-1.01495E-13
 -1       265 1.15862E-02 1.16851E-03-1.05895E-13
 -1       266 1.18893E-02 1.30478E-03-1.10347E-13
 -1       267 1.21709E-02 1.39611E-03-1.14857E-13
 -1       268 1.24390E-02 1.41736E-03-1.19418E-13
 -1       269 1.27061E-02 1.36300E-03-1.24015E-13
 -1       270 1.29822E-02 1.24892E-03-1.28644E-13
 -1       271 1.32703E-02 1.10160E-03-1.33307E-13
 -1       272 1.35667E-02 9.43794E-04-1.38012E-13
 -1       273 1.38651E-02 7.86683E-04-1.42759E-13
 -1       274 1.41601E-02 6.30201E-04-1.47529E-13
 -1       275 1.44499E-02 4.68921E-04-1.52302E-13
 -1       276 1.46303E-02 3.77189E-04-1.53460E-13
 -1       277 1.48112E-02 2.99341E-04-1.53882E-13
 -1       278 1.50034E-02 2.31306E-04-1.54293E-13
 -1       279 1.52005E-02 1.79344E-04-1.54700E-13
 -1       280 1.53832E-02 1.49598E-04-1.55083E-13
 -1       281 1.55329E-02 1.43196E-04-1.55457E-13
 -1       282 1.56180E-02 1.56489E-04-1.55812E-13
 -1       283 1.56191E-02 1.78065E-04-1.56145E-13
 -1       284 1.55344E-02 1.93137E-04-1.56471E-13
 -1       285 1.53817E-02 1.89446E-04-1.56797E-13
 -1       286 1.51923E-02 1.62162E-04-1.57126E-13
 -1       287 1.49859E-02 1.11800E-04-1.57460E-13
 -1       288 1.47836E-02 4.43107E-05-1.57784E-13
 -1       289 1.45930E-02-3.35197E-05-1.58101E-13
 -1       290 1.43645E-02-1.50703E-04-1.56944E-13
 -1       291 1.48065E-02 1.99991E-04-1.32578E-13
 -1       292 1.46397E-02 3.13149E-04-1.32113E-13
 -1       293 1.43468E-02 4.85013E-04-1.30413E-13
 -1       294 1.39847E-02 6.62613E-04-1.28694E-13
 -1       295 1.35222E-02 8.53990E-04-1.26702E-13
 -1       296 1.30679E-02 1.05036E-03-1.23909E-13
 -1       297 1.26713E-02 1.15052E-03-1.21056E-13
 -1       298 1.22720E-02 1.15908E-03-1.18365E-13
 -1       299 1.18593E-02 1.06078E-03-1.15507E-13
 -1       300 1.14179E-02 8.75996E-04-1.13069E-13
 -1       301 1.09978E-02 6.56277E-04-1.10846E-13
 -1       302 1.06088E-02 4.68300E-04-1.09406E-13
 -1       303 1.03145E-02 3.07321E-04-1.08335E-13
 -1       304 1.01249E-02 1.76196E-04-1.07763E-13
 -1       305 1.00726E-02 7.09147E-05-1.07736E-13
 -1       306 1.01510E-02-3.04801E-05-1.08113E-13
 -1       307 1.03574E-02-1.62430E-04-1.09252E-13
 -1       308 1.06967E-02-3.07333E-04-1.10478E-13
 -1       309 1.11222E-02-5.20805E-04-1.12793E-13
 -1       310 1.15345E-02-7.29774E-04-1.15652E-13
 -1       311 1.19490E-02-8.64156E-04-1.18327E-13
 -1       312 1.23583E-02-9.21329E-04-1.21124E-13
 -1       313 1.27609E-02-8.67748E-04-1.23754E-13
 -1       314 1.31603E-02-7.40422E-04-1.26258E-13
 -1       315 1.35813E-02-5.62863E-04-1.28355E-13
 -1       316 1.39852E-02-3.69851E-04-1.30145E-13
 -1       317 1.43559E-02-1.77780E-04-1.31669E-13
 -1       318 1.46434E-02-3.38166E-05-1.32444E-13
 -1       319 1.48034E-02 9.05764E-05-1.32923E-13
 -1       320 4.55308E-04-1.64735E-04-3.01347E-16
 -1       321 4.74288E-04-2.12975E-04-2.55946E-16
 -1       322 4.40435E-04-9.40049E-05-3.42201E-16
 -1       323 4.37462E-04-6.49041E-05-3.49347E-16
 -1       324 4.35836E-04-3.79015E-05-3.51539E-16
 -1       325 4.35124E-04-1.20159E-05-3.50441E-16
 -1       326 4.35155E-04 1.35347E-05-3.46538E-16
 -1       327 4.35935E-04 3.94778E-05-3.39535E-16
 -1       328 4.37606E-04 6.61321E-05-3.28696E-16
 -1       329 4.40670E-04 9.54057E-05-3.12531E-16
 -1       330 4.46068E-04 1.28317E-04-2.88293E-16
 -1       331 4.55914E-04 1.67298E-04-2.51159E-16
 -1       332 4.75920E-04 2.17044E-04-1.94221E-16
 -1       333 5.32057E-04 2.69975E-04-1.70599E-16
 -1       334 8.24560E-04 3.73517E-04-4.98747E-16
 -1       335 8.63334E-04-3.57416E-04-7.92135E-16
 -1       336 1.14971E-03-4.26186E-04-1.42893E-15
 -1       337 1.43251E-03-4.75379E-04-2.25468E-15
 -1       338 1.71325E-03-5.10149E-04-3.26660E-15
 -1       339 1.99305E-03-5.34290E-04-4.46198E-15
 -1       340 2.27267E-03-5.50628E-04-5.83734E-15
 -1       341 2.55257E-03-5.61282E-04-7.38765E-15
 -1       342 2.83301E-03-5.67843E-04-9.10874E-15
 -1       343 3.11411E-03-5.71501E-04-1.09931E-14
 -1       344 3.39590E-03-5.73136E-04-1.30334E-14
 -1       345 3.67834E-03-5.73385E-04-1.52274E-14
 -1       346 3.96137E-03-5.72693E-04-1.75695E-14
 -1       347 4.24493E-03-5.71360E-04-2.00538E-14
 -1       348 4.52896E-03-5.69566E-04-2.26754E-14
 -1       349 4.81340E-03-5.67405E-04-2.54280E-14
 -1       350 5.09822E-03-5.64900E-04-2.83091E-14
 -1       351 5.38341E-03-5.62021E-04-3.13181E-14
 -1       352 5.66897E-03-5.58701E-04-3.44505E-14
 -1       353 5.95498E-03-5.54847E-04-3.77027E-14
 -1       354 6.24151E-03-5.50354E-04-4.10708E-14
 -1       355 6.52871E-03-5.45125E-04-4.45499E-14
 -1       356 6.81676E-03-5.39091E-04-4.81364E-14
 -1       357 7.10591E-03-5.32241E-04-5.18226E-14
 -1       358 7.39647E-03-5.24670E-04-5.56043E-14
 -1       359 7.68882E-03-5.16629E-04-5.94735E-14
 -1       360 7.98341E-03-5.08606E-04-6.34304E-14
 -1       361 8.28076E-03-5.01425E-04-6.74677E-14
 -1       362 8.58142E-03-4.96366E-04-7.15779E-14
 -1       363 8.88600E-03-4.95302E-04-7.57543E-14
 -1       364 9.19509E-03-5.00822E-04-7.99875E-14
 -1       365 9.50916E-03-5.16297E-04-8.42752E-14
 -1       366 9.82853E-03-5.45775E-04-8.86089E-14
 -1       367 1.01530E-02-5.93536E-04-9.29912E-14
 -1       368 1.04817E-02-6.63044E-04-9.74144E-14
 -1       369 1.08123E-02-7.55037E-04-1.01874E-13
 -1       370 1.11408E-02-8.64734E-04-1.06371E-13
 -1       371 1.14620E-02-9.79022E-04-1.10901E-13
 -1       372 1.17714E-02-1.07604E-03-1.15473E-13
 -1       373 1.20685E-02-1.13015E-03-1.20090E-13
 -1       374 1.23583E-02-1.12234E-03-1.24747E-13
 -1       375 1.26486E-02-1.04994E-03-1.29425E-13
 -1       376 1.29450E-02-9.27154E-04-1.34123E-13
 -1       377 1.32474E-02-7.75381E-04-1.38848E-13
 -1       378 1.35516E-02-6.12350E-04-1.43590E-13
 -1       379 1.38531E-02-4.46876E-04-1.48349E-13
 -1       380 1.41115E-02-3.00672E-04-1.52637E-13
 -1       381 1.11006E-03 4.47852E-04-1.00546E-15
 -1       382 1.39084E-03 5.00936E-04-1.69433E-15
 -1       383 1.66918E-03 5.38580E-04-2.56519E-15
 -1       384 1.94661E-03 5.64904E-04-3.61559E-15
 -1       385 2.22405E-03 5.82921E-04-4.84146E-15
 -1       386 2.50206E-03 5.94868E-04-6.23839E-15
 -1       387 2.78090E-03 6.02426E-04-7.80269E-15
 -1       388 3.06066E-03 6.06853E-04-9.53311E-15
 -1       389 3.34136E-03 6.09082E-04-1.14240E-14
 -1       390 3.62291E-03 6.09796E-04-1.34701E-14
 -1       391 3.90524E-03 6.09475E-04-1.56694E-14
 -1       392 4.18825E-03 6.08448E-04-1.80160E-14
 -1       393 4.47183E-03 6.06918E-04-2.05077E-14
 -1       394 4.75592E-03 6.04998E-04-2.31414E-14
 -1       395 5.04044E-03 6.02725E-04-2.59128E-14
 -1       396 5.32539E-03 6.00079E-04-2.88130E-14
 -1       397 5.61077E-03 5.97001E-04-3.18361E-14
 -1       398 5.89662E-03 5.93398E-04-3.49758E-14
 -1       399 6.18304E-03 5.89164E-04-3.82297E-14
 -1       400 6.47020E-03 5.84189E-04-4.15926E-14
 -1       401 6.75830E-03 5.78382E-04-4.50558E-14
 -1       402 7.04764E-03 5.71699E-04-4.86133E-14
 -1       403 7.33860E-03 5.64176E-04-5.22628E-14
 -1       404 7.63167E-03 5.55990E-04-5.59954E-14
 -1       405 7.92741E-03 5.47531E-04-5.98128E-14
 -1       406 8.22654E-03 5.39506E-04-6.36957E-14
 -1       407 8.52981E-03 5.33083E-04-6.76438E-14
 -1       408 8.83809E-03 5.30072E-04-7.16542E-14
 -1       409 9.15223E-03 5.33140E-04-7.57269E-14
 -1       410 9.47300E-03 5.46020E-04-7.98552E-14
 -1       411 9.80088E-03 5.73634E-04-8.40417E-14
 -1       412 1.01358E-02 6.21902E-04-8.82862E-14
 -1       413 1.04768E-02 6.96891E-04-9.25709E-14
 -1       414 1.08214E-02 8.02766E-04-9.68836E-14
 -1       415 1.11647E-02 9.38139E-04-1.01228E-13
 -1       416 1.15003E-02 1.09131E-03-1.05620E-13
 -1       417 1.18214E-02 1.23727E-03-1.10066E-13
 -1       418 1.21257E-02 1.34149E-03-1.14569E-13
 -1       419 1.24180E-02 1.37374E-03-1.19127E-13
 -1       420 1.27088E-02 1.32481E-03-1.23727E-13
 -1       421 1.30065E-02 1.21108E-03-1.28354E-13
 -1       422 1.33125E-02 1.06216E-03-1.33020E-13
 -1       423 1.36223E-02 9.03624E-04-1.37726E-13
 -1       424 1.39296E-02 7.47763E-04-1.42471E-13
 -1       425 1.42300E-02 5.94304E-04-1.47240E-13
 -1       426 1.44317E-02 4.87499E-04-1.50349E-13
 -1       427 1.48550E-02 3.14043E-04-1.50333E-13
 -1       428 1.46552E-02 3.91084E-04-1.49932E-13
 -1       429 1.45395E-02 4.39436E-04-1.50143E-13
 -1       430 1.50540E-02 2.49900E-04-1.50718E-13
 -1       431 1.52375E-02 2.02861E-04-1.51097E-13
 -1       432 1.53699E-02 1.76571E-04-1.51463E-13
 -1       433 1.54199E-02 1.65067E-04-1.51816E-13
 -1       434 1.53729E-02 1.54612E-04-1.52156E-13
 -1       435 1.52398E-02 1.30838E-04-1.52491E-13
 -1       436 1.50543E-02 8.71895E-05-1.52816E-13
 -1       437 1.48427E-02 2.34403E-05-1.53140E-13
 -1       438 1.46322E-02-5.37629E-05-1.53462E-13
 -1       439 1.44347E-02-1.37766E-04-1.53785E-13
 -1       440 1.44597E-02 3.42005E-04-1.32910E-13
 -1       441 1.48524E-02 1.49423E-04-1.35466E-13
 -1       442 1.47781E-02 2.03494E-04-1.34993E-13
 -1       443 1.41122E-02 4.91549E-04-1.31396E-13
 -1       444 1.37238E-02 6.82518E-04-1.29387E-13
 -1       445 4.45681E-04-1.26478E-04-3.27588E-16
 -1       446 1.27801E-02 1.14521E-03-1.22516E-13
 -1       447 1.24757E-02 1.20172E-03-1.19817E-13
 -1       448 1.21205E-02 1.15838E-03-1.16546E-13
 -1       449 1.16816E-02 9.61569E-04-1.13264E-13
 -1       450 1.12891E-02 7.36291E-04-1.10710E-13
 -1       451 1.08337E-02 4.75492E-04-1.08206E-13
 -1       452 1.04810E-02 3.12404E-04-1.07152E-13
 -1       453 1.02054E-02 1.83068E-04-1.06090E-13
 -1       454 1.00671E-02 1.04355E-04-1.05864E-13
 -1       455 1.00768E-02 4.42272E-05-1.05812E-13
 -1       456 1.02516E-02-3.89627E-05-1.06531E-13
 -1       457 1.05133E-02-1.49223E-04-1.07724E-13
 -1       458 1.09533E-02-3.64306E-04-1.10109E-13
 -1       459 1.14308E-02-6.32786E-04-1.13562E-13
 -1       460 1.17947E-02-8.16424E-04-1.16486E-13
 -1       461 1.21441E-02-9.35970E-04-1.19388E-13
 -1       462 1.25433E-02-9.34832E-04-1.23120E-13
 -1       463 1.28444E-02-8.39080E-04-1.25627E-13
 -1       464 1.32945E-02-6.22459E-04-1.28610E-13
 -1       465 1.37046E-02-4.08573E-04-1.30722E-13
 -1       466 1.41064E-02-1.96909E-04-1.32808E-13
 -1       467 1.45036E-02-1.67465E-05-1.34526E-13
 -1       468 1.47435E-02 7.28912E-05-1.34713E-13
 -1       469 1.32202E-02 9.44646E-04-1.26389E-13
 -1       470 1.46713E-02 2.40393E-04-1.35787E-13
 -1       471 1.12031E-02-4.94535E-04-1.10866E-13
 -1       472 9.31304E-04 3.46044E-04-8.56828E-16
 -1       473 6.65807E-04-7.51339E-05-7.43187E-16
 -1       474 6.69772E-04-1.15892E-04-7.34357E-16
 -1       475 6.63133E-04 1.10521E-06-7.39907E-16
 -1       476 6.63854E-04 3.87671E-05-7.29428E-16
 -1       477 6.65997E-04 7.68206E-05-7.12595E-16
 -1       478 6.70095E-04 1.17732E-04-6.87279E-16
 -1       479 6.77112E-04 1.62350E-04-6.51128E-16
 -1       480 6.89039E-04 2.12715E-04-5.98903E-16
 -1       481 1.21720E-03 4.06548E-04-1.48581E-15
 -1       482 9.76341E-04-3.28653E-04-1.17923E-15
 -1       483 1.15092E-02 8.48352E-04-1.10822E-13
 -1       484 1.26225E-03-3.83532E-04-1.92895E-15
 -1       485 1.54730E-03-4.23318E-04-2.86170E-15
 -1       486 1.83143E-03-4.51411E-04-3.97520E-15
 -1       487 2.11498E-03-4.70723E-04-5.26657E-15
 -1       488 2.39826E-03-4.83547E-04-6.73104E-15
 -1       489 2.68152E-03-4.91654E-04-8.36514E-15
 -1       490 2.96491E-03-4.96389E-04-1.01637E-14
 -1       491 3.24853E-03-4.98757E-04-1.21209E-14
 -1       492 3.53242E-03-4.99496E-04-1.42327E-14
 -1       493 3.81658E-03-4.99133E-04-1.64932E-14
 -1       494 4.10102E-03-4.98027E-04-1.88984E-14
 -1       495 4.38572E-03-4.96408E-04-2.14417E-14
 -1       496 4.67064E-03-4.94405E-04-2.41180E-14
 -1       497 4.95579E-03-4.92070E-04-2.69240E-14
 -1       498 5.24115E-03-4.89393E-04-2.98584E-14
 -1       499 5.52674E-03-4.86320E-04-3.29181E-14
 -1       500 5.81258E-03-4.82765E-04-3.61011E-14
 -1       501 6.09871E-03-4.78623E-04-3.94017E-14
 -1       502 6.38520E-03-4.73784E-04-4.28153E-14
 -1       503 6.67214E-03-4.68152E-04-4.63352E-14
 -1       504 6.95965E-03-4.61670E-04-4.99579E-14
 -1       505 7.24790E-03-4.54355E-04-5.36764E-14
 -1       506 7.53707E-03-4.46341E-04-5.74881E-14
 -1       507 7.82744E-03-4.37941E-04-6.13858E-14
 -1       508 8.11930E-03-4.29734E-04-6.53693E-14
 -1       509 8.41305E-03-4.22655E-04-6.94289E-14
 -1       510 8.70922E-03-4.18127E-04-7.35569E-14
 -1       511 9.00849E-03-4.18186E-04-7.77456E-14
 -1       512 9.31176E-03-4.25604E-04-8.19907E-14
 -1       513 9.62020E-03-4.43956E-04-8.62848E-14
 -1       514 9.93523E-03-4.77544E-04-9.06264E-14
 -1       515 1.02582E-02-5.30987E-04-9.50141E-14
 -1       516 1.05898E-02-6.08170E-04-9.94401E-14
 -1       517 1.09286E-02-7.09970E-04-1.03903E-13
 -1       518 1.12697E-02-8.30341E-04-1.08402E-13
 -1       519 1.16054E-02-9.51633E-04-1.12939E-13
 -1       520 1.19293E-02-1.04428E-03-1.17523E-13
 -1       521 1.22420E-02-1.07597E-03-1.22155E-13
 -1       522 1.25524E-02-1.03031E-03-1.26819E-13
 -1       523 1.28701E-02-9.18095E-04-1.31497E-13
 -1       524 1.31962E-02-7.67348E-04-1.36203E-13
 -1       525 1.35242E-02-6.04237E-04-1.40933E-13
 -1       526 1.38459E-02-4.42380E-04-1.45682E-13
 -1       527 1.78409E-03 4.81168E-04-3.27611E-15
 -1       528 2.06609E-03 5.02561E-04-4.43418E-15
 -1       529 2.34785E-03 5.16930E-04-5.76248E-15
 -1       530 2.62970E-03 5.26186E-04-7.25776E-15
 -1       531 2.91185E-03 5.31776E-04-8.91761E-15
 -1       532 3.19440E-03 5.34782E-04-1.07377E-14
 -1       533 3.47739E-03 5.36000E-04-1.27143E-14
 -1       534 3.76082E-03 5.36002E-04-1.48439E-14
 -1       535 4.04465E-03 5.35183E-04-1.71227E-14
 -1       536 4.32886E-03 5.33800E-04-1.95455E-14
 -1       537 4.61341E-03 5.32003E-04-2.21107E-14
 -1       538 4.89826E-03 5.29859E-04-2.48147E-14
 -1       539 5.18340E-03 5.27370E-04-2.76493E-14
 -1       540 5.46884E-03 5.24488E-04-3.06099E-14
 -1       541 5.75460E-03 5.21130E-04-3.36917E-14
 -1       542 6.04073E-03 5.17187E-04-3.68887E-14
 -1       543 6.32731E-03 5.12541E-04-4.01956E-14
 -1       544 6.61448E-03 5.07079E-04-4.36090E-14
 -1       545 6.90237E-03 5.00715E-04-4.71169E-14
 -1       546 7.19121E-03 4.93423E-04-5.07188E-14
 -1       547 7.48125E-03 4.85280E-04-5.44101E-14
 -1       548 7.77280E-03 4.76523E-04-5.81873E-14
 -1       549 8.06626E-03 4.67642E-04-6.20375E-14
 -1       550 8.36207E-03 4.59484E-04-6.59568E-14
 -1       551 8.66078E-03 4.53413E-04-6.99408E-14
 -1       552 8.96307E-03 4.51487E-04-7.39869E-14
 -1       553 9.26978E-03 4.56676E-04-7.80919E-14
 -1       554 9.58198E-03 4.73064E-04-8.22521E-14
 -1       555 9.90104E-03 5.05947E-04-8.64685E-14
 -1       556 1.02285E-02 5.61641E-04-9.07369E-14
 -1       557 1.05657E-02 6.46604E-04-9.50383E-14
 -1       558 1.09124E-02 7.65169E-04-9.93678E-14
 -1       559 1.12650E-02 9.14853E-04-1.03735E-13
 -1       560 1.16151E-02 1.07972E-03-1.08151E-13
 -1       561 1.19532E-02 1.22538E-03-1.12623E-13
 -1       562 1.22765E-02 1.30730E-03-1.17154E-13
 -1       563 1.25938E-02 1.29585E-03-1.21735E-13
 -1       564 1.29176E-02 1.19827E-03-1.26356E-13
 -1       565 1.32513E-02 1.05064E-03-1.31011E-13
 -1       566 1.35876E-02 8.89738E-04-1.35709E-13
 -1       567 1.39168E-02 7.35125E-04-1.40443E-13
 -1       568 1.42328E-02 5.88902E-04-1.45209E-13
 -1       569 1.49094E-02 2.77054E-04-1.46743E-13
 -1       570 1.50948E-02 2.13674E-04-1.47112E-13
 -1       571 1.44907E-02 4.57673E-04-1.45978E-13
 -1       572 1.46983E-02 3.61792E-04-1.46364E-13
 -1       573 1.52077E-02 1.75248E-04-1.47477E-13
 -1       574 1.52108E-02 1.49530E-04-1.47828E-13
 -1       575 1.51013E-02 1.13783E-04-1.48170E-13
 -1       576 1.49161E-02 5.55567E-05-1.48502E-13
 -1       577 1.46940E-02-2.74664E-05-1.48832E-13
 -1       578 1.44725E-02-1.24441E-04-1.49152E-13
 -1       579 1.42680E-02-2.24660E-04-1.49476E-13
 -1       580 1.43223E-02 3.70742E-04-1.34478E-13
 -1       581 1.48459E-02 1.22366E-04-1.37758E-13
 -1       582 1.50133E-03 4.50245E-04-2.29234E-15
 -1       583 1.48774E-02 1.69746E-04-1.37928E-13
 -1       584 1.39316E-02 5.49926E-04-1.32360E-13
 -1       585 7.12702E-04-2.51878E-04-6.68614E-16
 -1       586 1.46904E-02 6.94191E-05-1.37564E-13
 -1       587 1.23326E-02-9.73080E-04-1.21525E-13
 -1       588 1.00950E-02 2.17860E-05-1.03250E-13
 -1       589 6.63742E-04-3.65209E-05-7.44742E-16
 -1       590 1.18900E-02 1.06912E-03-1.13922E-13
 -1       591 1.25999E-02 1.20358E-03-1.21216E-13
 -1       592 1.29284E-02 1.09013E-03-1.24686E-13
 -1       593 1.22963E-02 1.21487E-03-1.17935E-13
 -1       594 1.10816E-02 5.88413E-04-1.07888E-13
 -1       595 1.06108E-02 3.37845E-04-1.05569E-13
 -1       596 1.03219E-02 2.10864E-04-1.04509E-13
 -1       597 1.00868E-02 1.17631E-04-1.03488E-13
 -1       598 1.00237E-02 7.64724E-05-1.03432E-13
 -1       599 1.02676E-02-4.12127E-05-1.04421E-13
 -1       600 1.34833E-02-4.83918E-04-1.31452E-13
 -1       601 1.07025E-02-2.30058E-04-1.06959E-13
 -1       602 1.16502E-02-7.47870E-04-1.14443E-13
 -1       603 1.19548E-02-8.96076E-04-1.17334E-13
 -1       604 1.26804E-02-9.01870E-04-1.25231E-13
 -1       605 1.30504E-02-7.27648E-04-1.28414E-13
 -1       606 1.38516E-02-2.85351E-04-1.33542E-13
 -1       607 1.43027E-02-7.35729E-05-1.36012E-13
 -1       608 7.03854E-04 2.90899E-04-4.65055E-16
 -1       609 1.34763E-02 7.94210E-04-1.29339E-13
 -1       610 1.20738E-02 1.16585E-03-1.15299E-13
 -1       611 6.76583E-04-1.60064E-04-7.15516E-16
 -1       612 1.31833E-02 9.66716E-04-1.27623E-13
 -1       613 1.40535E-02-3.36527E-04-1.48913E-13
 -1       614 1.48321E-02 1.96915E-04-1.38723E-13
 -1       615 6.91820E-04-2.02895E-04-6.99517E-16
 -1       616 1.09169E-02-3.52275E-04-1.07700E-13
 -1       617 1.14079E-02-6.27605E-04-1.11735E-13
 -1       618 1.08234E-02 4.50311E-04-1.05247E-13
 -1       619 1.04034E-02-1.18114E-04-1.03654E-13
 -1       620 8.99745E-04 7.41207E-05-1.23976E-15
 -1       621 8.97653E-04 2.51823E-05-1.26124E-15
 -1       622 9.11827E-04 1.78244E-04-1.16083E-15
 -1       623 9.24211E-04 2.36811E-04-1.09661E-15
 -1       624 1.04891E-03 3.13947E-04-1.26056E-15
 -1       625 1.48597E-02 1.10142E-04-1.40656E-13
 -1       626 1.38333E-03-3.37112E-04-2.45950E-15
 -1       627 1.66951E-03-3.68051E-04-3.49295E-15
 -1       628 1.95573E-03-3.89864E-04-4.70266E-15
 -1       629 2.24177E-03-4.04706E-04-6.08443E-15
 -1       630 2.52763E-03-4.14364E-04-7.63373E-15
 -1       631 2.81334E-03-4.20255E-04-9.34815E-15
 -1       632 3.09896E-03-4.23470E-04-1.12216E-14
 -1       633 3.38453E-03-4.24824E-04-1.32509E-14
 -1       634 3.67008E-03-4.24908E-04-1.54306E-14
 -1       635 3.95564E-03-4.24139E-04-1.77563E-14
 -1       636 4.24121E-03-4.22792E-04-2.02226E-14
 -1       637 4.52681E-03-4.21035E-04-2.28222E-14
 -1       638 4.81244E-03-4.18950E-04-2.55535E-14
 -1       639 5.09811E-03-4.16553E-04-2.84144E-14
 -1       640 5.38382E-03-4.13811E-04-3.14030E-14
 -1       641 5.66958E-03-4.10654E-04-3.45145E-14
 -1       642 5.95539E-03-4.06985E-04-3.77481E-14
 -1       643 6.24128E-03-4.02697E-04-4.10962E-14
 -1       644 6.52726E-03-3.97683E-04-4.45505E-14
 -1       645 6.81334E-03-3.91858E-04-4.81099E-14
 -1       646 7.09957E-03-3.85184E-04-5.17664E-14
 -1       647 7.38599E-03-3.77703E-04-5.55173E-14
 -1       648 7.67268E-03-3.69586E-04-5.93589E-14
 -1       649 7.95978E-03-3.61189E-04-6.32850E-14
 -1       650 8.24749E-03-3.53131E-04-6.72941E-14
 -1       651 8.53616E-03-3.46385E-04-7.13747E-14
 -1       652 8.82637E-03-3.42387E-04-7.55190E-14
 -1       653 9.11908E-03-3.43159E-04-7.97229E-14
 -1       654 9.41578E-03-3.51449E-04-8.39782E-14
 -1       655 9.71868E-03-3.70880E-04-8.82792E-14
 -1       656 1.00307E-02-4.06068E-04-9.26329E-14
 -1       657 1.03554E-02-4.62538E-04-9.70233E-14
 -1       658 1.06951E-02-5.46052E-04-1.01449E-13
 -1       659 1.10492E-02-6.59551E-04-1.05913E-13
 -1       660 1.14099E-02-7.96563E-04-1.10418E-13
 -1       661 1.17658E-02-9.30927E-04-1.14969E-13
 -1       662 1.21070E-02-1.01644E-03-1.19567E-13
 -1       663 1.24387E-02-1.01121E-03-1.24208E-13
 -1       664 1.27777E-02-9.11665E-04-1.28876E-13
 -1       665 1.31298E-02-7.54275E-04-1.33562E-13
 -1       666 1.34866E-02-5.83342E-04-1.38280E-13
 -1       667 1.38344E-02-4.21849E-04-1.43019E-13
 -1       668 2.19072E-03 4.37594E-04-5.27796E-15
 -1       669 1.49650E-02 1.52404E-04-1.40831E-13
 -1       670 1.90572E-03 4.20799E-04-4.01643E-15
 -1       671 2.76016E-03 4.55580E-04-8.29655E-15
 -1       672 3.04484E-03 4.59529E-04-1.00478E-14
 -1       673 3.32958E-03 4.61409E-04-1.19550E-14
 -1       674 3.61443E-03 4.61873E-04-1.40165E-14
 -1       675 3.89940E-03 4.61383E-04-1.62278E-14
 -1       676 4.18449E-03 4.60249E-04-1.85846E-14
 -1       677 4.46971E-03 4.58663E-04-2.10838E-14
 -1       678 4.75505E-03 4.56726E-04-2.37199E-14
 -1       679 5.04051E-03 4.54466E-04-2.64918E-14
 -1       680 5.32609E-03 4.51858E-04-2.93905E-14
 -1       681 5.61182E-03 4.48834E-04-3.24125E-14
 -1       682 5.89769E-03 4.45296E-04-3.55535E-14
 -1       683 6.18375E-03 4.41129E-04-3.88048E-14
 -1       684 6.47002E-03 4.36216E-04-4.21637E-14
 -1       685 6.75657E-03 4.30451E-04-4.56250E-14
 -1       686 7.04345E-03 4.23768E-04-4.91792E-14
 -1       687 7.33075E-03 4.16174E-04-5.28288E-14
 -1       688 7.61857E-03 4.07793E-04-5.65652E-14
 -1       689 7.90704E-03 3.98931E-04-6.03804E-14
 -1       690 8.19634E-03 3.90161E-04-6.42671E-14
 -1       691 8.48671E-03 3.82431E-04-6.82248E-14
 -1       692 8.77858E-03 3.77202E-04-7.22451E-14
 -1       693 9.07260E-03 3.76613E-04-7.63252E-14
 -1       694 9.36993E-03 3.83672E-04-8.04633E-14
 -1       695 9.67244E-03 4.02471E-04-8.46560E-14
 -1       696 9.98303E-03 4.38400E-04-8.88998E-14
 -1       697 1.03057E-02 4.98281E-04-9.31871E-14
 -1       698 1.06449E-02 5.90055E-04-9.75063E-14
 -1       699 1.10025E-02 7.21038E-04-1.01856E-13
 -1       700 1.13752E-02 8.89083E-04-1.06245E-13
 -1       701 1.17492E-02 1.07367E-03-1.10686E-13
 -1       702 1.24564E-02 1.26563E-03-1.19733E-13
 -1       703 1.28062E-02 1.18963E-03-1.24340E-13
 -1       704 1.31706E-02 1.03576E-03-1.28986E-13
 -1       705 1.35397E-02 8.63482E-04-1.33675E-13
 -1       706 1.38976E-02 7.06646E-04-1.38404E-13
 -1       707 1.42000E-02 5.75102E-04-1.42182E-13
 -1       708 1.50668E-02 1.58633E-04-1.43840E-13
 -1       709 1.40557E-02-3.22101E-04-1.46241E-13
 -1       710 1.47805E-02 2.73028E-04-1.42845E-13
 -1       711 1.49813E-02 1.99532E-04-1.43348E-13
 -1       712 1.62037E-03 3.96286E-04-2.92435E-15
 -1       713 1.45458E-02-4.88695E-05-1.44529E-13
 -1       714 1.43020E-02-1.70631E-04-1.44857E-13
 -1       715 1.21045E-02-9.70108E-04-1.19078E-13
 -1       716 1.40815E-02-1.77184E-04-1.37076E-13
 -1       717 9.50414E-04-2.70054E-04-1.22672E-15
 -1       718 1.41903E-02 4.42629E-04-1.35792E-13
 -1       719 1.27192E-02 1.19091E-03-1.22907E-13
 -1       720 1.01447E-02 1.51093E-04-1.01375E-13
 -1       721 2.47549E-03 4.48667E-04-6.70539E-15
 -1       722 1.16640E-03-3.07547E-04-1.79042E-15
 -1       723 9.04199E-04 1.24630E-04-1.20720E-15
 -1       724 1.45570E-02 1.58184E-05-1.39329E-13
 -1       725 1.33465E-03 3.61594E-04-2.00516E-15
 -1       726 9.03823E-04-1.22217E-04-1.26811E-15
 -1       727 1.12879E-02 7.25971E-04-1.07922E-13
 -1       728 1.16865E-02 9.71544E-04-1.11280E-13
 -1       729 9.95990E-03 5.23363E-05-1.00360E-13
 -1       730 1.03603E-02 2.34377E-04-1.02426E-13
 -1       731 1.01250E-02-1.46901E-05-1.01568E-13
 -1       732 9.99526E-03 9.21567E-05-1.00871E-13
 -1       733 1.32678E-02-6.07514E-04-1.31510E-13
 -1       734 1.46011E-02 2.76841E-04-1.37960E-13
 -1       735 1.28807E-02-8.22081E-04-1.28240E-13
 -1       736 1.17335E-02-8.29388E-04-1.14667E-13
 -1       737 1.37356E-02 6.65543E-04-1.32558E-13
 -1       738 1.37522E-02-3.38025E-04-1.34970E-13
 -1       739 1.25007E-02-9.66860E-04-1.24008E-13
 -1       740 9.11219E-04-1.75640E-04-1.24780E-15
 -1       741 8.97590E-04-2.31588E-05-1.27321E-15
 -1       742 1.34495E-02 8.38296E-04-1.30826E-13
 -1       743 1.45452E-02 3.78927E-04-1.42476E-13
 -1       744 1.21098E-02 1.22061E-03-1.15181E-13
 -1       745 1.43633E-02 4.77590E-04-1.42333E-13
 -1       746 1.48235E-02 5.88022E-05-1.44800E-13
 -1       747 1.40588E-02-2.94566E-04-1.43938E-13
 -1       748 1.05881E-02-2.14113E-04-1.04378E-13
 -1       749 1.11129E-02-4.86631E-04-1.08555E-13
 -1       750 8.99537E-04-7.18313E-05-1.27575E-15
 -1       751 1.22869E-02 1.23910E-03-1.17593E-13
 -1       752 1.10244E-02 5.86217E-04-1.05277E-13
 -1       753 1.05294E-02 3.27298E-04-1.02102E-13
 -1       754 1.24556E-02 1.24472E-03-1.19707E-13
 -1       755 1.16153E-03 2.43656E-04-1.74096E-15
 -1       756 1.49580E-02 1.69596E-04-1.40922E-13
 -1       757 1.29165E-02 1.12041E-03-1.25341E-13
 -1       758 1.42755E-02-9.57943E-05-1.38454E-13
 -1       759 1.39393E-02-2.72106E-04-1.38357E-13
 -1       760 1.79731E-03-3.09573E-04-4.14857E-15
 -1       761 2.08496E-03-3.25688E-04-5.44853E-15
 -1       762 2.37276E-03-3.36502E-04-6.91560E-15
 -1       763 2.66046E-03-3.43370E-04-8.54583E-15
 -1       764 2.94796E-03-3.47376E-04-1.03376E-14
 -1       765 3.23522E-03-3.49360E-04-1.22847E-14
 -1       766 3.52225E-03-3.49948E-04-1.43836E-14
 -1       767 3.80905E-03-3.49592E-04-1.66294E-14
 -1       768 4.09564E-03-3.48600E-04-1.90174E-14
 -1       769 4.38205E-03-3.47172E-04-2.15418E-14
 -1       770 4.66830E-03-3.45417E-04-2.41987E-14
 -1       771 4.95441E-03-3.43378E-04-2.69858E-14
 -1       772 5.24037E-03-3.41046E-04-2.99030E-14
 -1       773 5.52619E-03-3.38372E-04-3.29456E-14
 -1       774 5.81185E-03-3.35277E-04-3.61095E-14
 -1       775 6.09733E-03-3.31667E-04-3.93906E-14
 -1       776 6.38259E-03-3.27437E-04-4.27831E-14
 -1       777 6.66758E-03-3.22494E-04-4.62799E-14
 -1       778 6.95224E-03-3.16766E-04-4.98758E-14
 -1       779 7.23649E-03-3.10235E-04-5.35665E-14
 -1       780 7.52028E-03-3.02962E-04-5.73482E-14
 -1       781 7.80354E-03-2.95130E-04-6.12194E-14
 -1       782 8.08629E-03-2.87094E-04-6.51746E-14
 -1       783 8.36866E-03-2.79439E-04-6.92057E-14
 -1       784 8.65095E-03-2.73057E-04-7.33066E-14
 -1       785 8.93385E-03-2.69230E-04-7.74697E-14
 -1       786 9.21860E-03-2.69752E-04-8.16873E-14
 -1       787 9.50731E-03-2.77115E-04-8.59529E-14
 -1       788 9.80333E-03-2.94868E-04-9.02661E-14
 -1       789 1.01115E-02-3.28107E-04-9.46218E-14
 -1       790 1.04379E-02-3.84506E-04-9.90145E-14
 -1       791 1.07879E-02-4.74061E-04-1.03440E-13
 -1       792 1.11627E-02-6.04847E-04-1.07908E-13
 -1       793 1.30395E-02-7.60383E-04-1.30967E-13
 -1       794 1.34249E-02-5.70683E-04-1.35670E-13
 -1       795 1.37508E-02-4.22414E-04-1.39795E-13
 -1       796 2.03274E-03 3.57752E-04-4.78657E-15
 -1       797 3.18002E-03 3.85975E-04-1.11955E-14
 -1       798 2.89345E-03 3.83375E-04-9.35557E-15
 -1       799 3.75271E-03 3.86921E-04-1.53327E-14
 -1       800 4.03887E-03 3.86130E-04-1.76238E-14
 -1       801 4.32493E-03 3.84845E-04-2.00568E-14
 -1       802 4.61092E-03 3.83199E-04-2.26292E-14
 -1       803 4.89683E-03 3.81248E-04-2.53365E-14
 -1       804 5.18269E-03 3.78993E-04-2.81732E-14
 -1       805 5.46850E-03 3.76388E-04-3.11373E-14
 -1       806 5.75424E-03 3.73355E-04-3.42206E-14
 -1       807 6.03991E-03 3.69794E-04-3.74188E-14
 -1       808 6.32550E-03 3.65593E-04-4.07251E-14
 -1       809 6.61096E-03 3.60647E-04-4.41353E-14
 -1       810 6.89626E-03 3.54871E-04-4.76452E-14
 -1       811 7.18135E-03 3.48229E-04-5.12480E-14
 -1       812 7.46615E-03 3.40767E-04-5.49443E-14
 -1       813 7.75060E-03 3.32656E-04-5.87230E-14
 -1       814 8.03463E-03 3.24253E-04-6.25756E-14
 -1       815 8.31820E-03 3.16169E-04-6.65042E-14
 -1       816 8.60141E-03 3.09359E-04-7.05002E-14
 -1       817 8.88455E-03 3.05221E-04-7.45570E-14
 -1       818 9.16834E-03 3.05721E-04-7.86720E-14
 -1       819 9.45429E-03 3.13558E-04-8.28450E-14
 -1       820 9.74514E-03 3.32444E-04-8.70651E-14
 -1       821 1.00455E-02 3.67661E-04-9.13321E-14
 -1       822 1.03623E-02 4.27041E-04-9.56409E-14
 -1       823 1.07039E-02 5.21483E-04-9.99751E-14
 -1       824 1.38876E-02 6.55170E-04-1.36363E-13
 -1       825 1.41317E-02 5.59286E-04-1.39343E-13
 -1       826 1.35344E-02-4.82494E-04-1.35313E-13
 -1       827 1.13824E-03 5.90661E-05-1.90600E-15
 -1       828 1.74570E-03 3.39164E-04-3.59144E-15
 -1       829 1.01717E-02 1.94124E-04-9.91204E-14
 -1       830 9.28913E-04-2.20911E-04-1.24352E-15
 -1       831 3.46643E-03 3.86987E-04-1.31889E-14
 -1       832 1.14602E-02 8.70107E-04-1.08303E-13
 -1       833 1.51024E-03-2.86595E-04-3.01949E-15
 -1       834 1.01821E-02-8.32872E-05-1.00100E-13
 -1       835 9.93678E-03 1.39988E-05-9.83236E-14
 -1       836 1.40192E-02 5.58546E-04-1.36350E-13
 -1       837 1.45128E-02 3.43084E-04-1.39756E-13
 -1       838 1.47580E-02 2.45676E-04-1.40525E-13
 -1       839 1.24622E-03 3.00886E-04-1.87895E-15
 -1       840 1.13687E-03 1.19817E-06-1.92941E-15
 -1       841 9.84426E-03 5.10867E-05-9.69075E-14
 -1       842 1.14348E-03-2.53647E-04-1.81125E-15
 -1       843 1.14917E-03-1.76097E-04-1.91903E-15
 -1       844 1.14979E-03 1.79139E-04-1.81467E-15
 -1       845 2.60671E-03 3.78481E-04-7.67166E-15
 -1       846 1.14236E-03 1.17955E-04-1.86853E-15
 -1       847 9.98369E-03 1.24247E-04-9.80682E-14
 -1       848 2.31979E-03 3.70348E-04-6.14785E-15
 -1       849 1.07786E-02-3.33132E-04-1.05218E-13
 -1       850 1.03269E-02-1.57128E-04-1.00814E-13
 -1       851 1.49561E-03 3.24202E-04-2.66704E-15
 -1       852 1.14200E-03-1.15213E-04-1.93725E-15
 -1       853 1.19921E-02 1.15138E-03-1.14038E-13
 -1       854 2.21833E-03-2.58969E-04-6.21210E-15
 -1       855 2.50740E-03-2.66296E-04-7.76072E-15
 -1       856 2.79642E-03-2.70801E-04-9.46969E-15
 -1       857 3.08518E-03-2.73271E-04-1.13354E-14
 -1       858 3.37360E-03-2.74312E-04-1.33532E-14
 -1       859 3.66164E-03-2.74375E-04-1.55180E-14
 -1       860 3.94930E-03-2.73777E-04-1.78281E-14
 -1       861 4.23660E-03-2.72732E-04-2.02772E-14
 -1       862 4.52356E-03-2.71368E-04-2.28601E-14
 -1       863 4.81020E-03-2.69750E-04-2.55750E-14
 -1       864 5.09654E-03-2.67891E-04-2.84195E-14
 -1       865 5.38256E-03-2.65765E-04-3.13931E-14
 -1       866 5.66824E-03-2.63315E-04-3.44885E-14
 -1       867 5.95354E-03-2.60467E-04-3.77019E-14
 -1       868 6.23839E-03-2.57131E-04-4.10297E-14
 -1       869 6.52268E-03-2.53219E-04-4.44656E-14
 -1       870 6.80628E-03-2.48650E-04-4.80021E-14
 -1       871 7.08904E-03-2.43370E-04-5.16327E-14
 -1       872 7.37077E-03-2.37372E-04-5.53593E-14
 -1       873 7.65127E-03-2.30717E-04-5.91734E-14
 -1       874 7.93037E-03-2.23568E-04-6.30742E-14
 -1       875 8.20793E-03-2.16220E-04-6.70549E-14
 -1       876 8.48395E-03-2.09139E-04-7.11100E-14
 -1       877 8.75867E-03-2.03006E-04-7.52307E-14
 -1       878 9.03271E-03-1.98780E-04-7.94106E-14
 -1       879 9.30740E-03-1.97808E-04-8.36412E-14
 -1       880 9.58513E-03-2.02083E-04-8.79179E-14
 -1       881 9.87004E-03-2.15153E-04-9.22395E-14
 -1       882 1.01689E-02-2.41755E-04-9.65980E-14
 -1       883 1.04915E-02-2.94801E-04-1.00989E-13
 -1       884 4.17930E-03 3.10451E-04-1.90315E-14
 -1       885 3.89229E-03 3.11368E-04-1.66633E-14
 -1       886 4.75253E-03 3.07596E-04-2.41857E-14
 -1       887 5.03879E-03 3.05765E-04-2.69610E-14
 -1       888 5.32481E-03 3.03650E-04-2.98644E-14
 -1       889 5.61058E-03 3.01199E-04-3.28910E-14
 -1       890 5.89607E-03 2.98332E-04-3.60350E-14
 -1       891 6.18122E-03 2.94957E-04-3.92900E-14
 -1       892 6.46595E-03 2.90978E-04-4.26501E-14
 -1       893 6.75014E-03 2.86311E-04-4.61123E-14
 -1       894 7.03364E-03 2.80903E-04-4.96717E-14
 -1       895 7.31627E-03 2.74752E-04-5.33257E-14
 -1       896 7.59781E-03 2.67941E-04-5.70671E-14
 -1       897 7.87799E-03 2.60675E-04-6.08849E-14
 -1       898 8.15655E-03 2.53326E-04-6.47809E-14
 -1       899 8.43324E-03 2.46478E-04-6.87489E-14
 -1       900 8.70793E-03 2.40977E-04-7.27823E-14
 -1       901 8.98072E-03 2.37979E-04-7.68800E-14
 -1       902 9.25220E-03 2.39016E-04-8.10304E-14
 -1       903 9.52385E-03 2.46139E-04-8.52329E-14
 -1       904 9.79872E-03 2.62236E-04-8.94829E-14
 -1       905 1.00823E-02 2.92228E-04-9.37718E-14
 -1       906 1.03851E-02 3.46209E-04-9.80922E-14
 -1       907 1.87589E-03 2.78821E-04-4.29243E-15
 -1       908 9.91090E-03-4.67402E-05-9.59701E-14
 -1       909 9.96457E-03 1.66281E-04-9.55460E-14
 -1       910 1.41652E-02-1.70386E-04-1.39999E-13
 -1       911 4.46604E-03 3.09166E-04-2.15408E-14
 -1       912 3.02943E-03 3.09837E-04-1.04348E-14
 -1       913 9.76101E-03 7.68091E-05-9.43989E-14
 -1       914 1.13807E-03-5.65242E-05-1.93991E-15
 -1       915 1.64159E-03-2.31795E-04-3.60920E-15
 -1       916 1.92953E-03-2.47851E-04-4.82716E-15
 -1       917 9.77767E-03 4.44765E-06-9.45680E-14
 -1       918 1.38941E-03-1.71373E-04-2.71495E-15
 -1       919 2.16420E-03 2.92140E-04-5.58700E-15
 -1       920 1.40129E-03 2.37106E-04-2.52906E-15
 -1       921 2.74119E-03 3.06624E-04-8.66173E-15
 -1       922 3.60498E-03 3.11760E-04-1.44377E-14
 -1       923 1.00170E-02-9.76364E-05-9.66724E-14
 -1       924 1.00267E-02 2.25793E-04-9.46597E-14
 -1       925 1.58832E-03 2.59753E-04-3.16419E-15
 -1       926 9.64335E-03 3.41215E-05-9.20722E-14
 -1       927 3.31736E-03 3.11374E-04-1.23615E-14
 -1       928 1.38418E-03 1.00077E-04-2.66739E-15
 -1       929 1.38101E-03 3.40451E-05-2.70701E-15
 -1       930 1.39073E-03 1.67396E-04-2.60909E-15
 -1       931 2.35527E-03-1.89833E-04-6.99225E-15
 -1       932 2.64527E-03-1.94279E-04-8.61890E-15
 -1       933 2.93518E-03-1.96892E-04-1.04029E-14
 -1       934 3.22477E-03-1.98193E-04-1.23396E-14
 -1       935 3.51392E-03-1.98581E-04-1.44249E-14
 -1       936 3.80259E-03-1.98347E-04-1.66553E-14
 -1       937 4.09076E-03-1.97693E-04-1.90272E-14
 -1       938 4.37845E-03-1.96749E-04-2.15367E-14
 -1       939 4.66568E-03-1.95589E-04-2.41792E-14
 -1       940 4.95247E-03-1.94240E-04-2.69530E-14
 -1       941 5.23880E-03-1.92698E-04-2.98563E-14
 -1       942 5.52467E-03-1.90929E-04-3.28829E-14
 -1       943 5.81001E-03-1.88881E-04-3.60304E-14
 -1       944 6.09473E-03-1.86489E-04-3.92924E-14
 -1       945 6.37871E-03-1.83679E-04-4.26648E-14
 -1       946 6.66177E-03-1.80380E-04-4.61421E-14
 -1       947 6.94370E-03-1.76528E-04-4.97170E-14
 -1       948 7.22424E-03-1.72081E-04-5.33862E-14
 -1       949 7.50309E-03-1.67031E-04-5.71466E-14
 -1       950 7.77991E-03-1.61417E-04-6.09922E-14
 -1       951 8.05437E-03-1.55344E-04-6.49204E-14
 -1       952 8.32617E-03-1.48995E-04-6.89268E-14
 -1       953 8.59508E-03-1.42643E-04-7.30055E-14
 -1       954 8.86106E-03-1.36662E-04-7.71467E-14
 -1       955 9.12441E-03-1.31560E-04-8.13393E-14
 -1       956 9.38600E-03-1.28074E-04-8.55824E-14
 -1       957 9.64789E-03-1.27329E-04-8.98732E-14
 -1       958 4.03311E-03 2.35445E-04-1.80073E-14
 -1       959 9.70146E-03 1.22743E-04-9.16093E-14
 -1       960 5.18088E-03 2.30486E-04-2.85943E-14
 -1       961 4.89452E-03 2.32061E-04-2.57509E-14
 -1       962 5.75234E-03 2.26539E-04-3.46529E-14
 -1       963 6.03733E-03 2.24047E-04-3.78553E-14
 -1       964 6.32168E-03 2.21110E-04-4.11674E-14
 -1       965 6.60525E-03 2.17660E-04-4.45816E-14
 -1       966 6.88782E-03 2.13642E-04-4.80978E-14
 -1       967 7.16914E-03 2.09035E-04-5.17093E-14
 -1       968 7.44887E-03 2.03873E-04-5.54117E-14
 -1       969 7.72665E-03 1.98268E-04-5.91958E-14
 -1       970 8.00203E-03 1.92436E-04-6.30570E-14
 -1       971 8.27453E-03 1.86725E-04-6.69945E-14
 -1       972 8.54365E-03 1.81629E-04-7.10030E-14
 -1       973 8.80892E-03 1.77797E-04-7.50781E-14
 -1       974 9.07000E-03 1.76014E-04-7.92130E-14
 -1       975 9.32684E-03 1.77208E-04-8.33972E-14
 -1       976 9.57999E-03 1.82645E-04-8.76305E-14
 -1       977 9.79936E-03 1.99643E-04-9.11337E-14
 -1       978 1.72170E-03 2.02513E-04-3.80048E-15
 -1       979 1.38267E-03-1.03996E-04-2.72885E-15
 -1       980 2.45274E-03 3.01029E-04-7.04420E-15
 -1       981 1.77677E-03-1.72759E-04-4.22416E-15
 -1       982 1.38091E-03-3.13229E-05-2.72939E-15
 -1       983 2.06556E-03-1.82910E-04-5.52639E-15
 -1       984 9.68585E-03-4.58303E-05-9.18375E-14
 -1       985 5.46683E-03 2.28663E-04-3.15637E-14
 -1       986 1.55575E-03 1.85449E-04-3.17867E-15
 -1       987 3.74514E-03 2.35971E-04-1.57035E-14
 -1       988 4.32065E-03 2.34563E-04-2.04524E-14
 -1       989 2.01015E-03 2.15269E-04-5.02694E-15
 -1       990 9.53149E-03 7.52888E-05-8.93049E-14
 -1       991 9.52459E-03-8.44464E-06-8.93603E-14
 -1       992 4.60778E-03 2.33421E-04-2.30363E-14
 -1       993 1.62927E-03 7.32806E-05-3.59899E-15
 -1       994 2.87862E-03 2.33325E-04-9.67416E-15
 -1       995 3.16787E-03 2.35215E-04-1.15344E-14
 -1       996 1.59134E-03 1.29665E-04-3.39246E-15
 -1       997 4.75007E-03 1.57812E-04-2.45433E-14
 -1       998 2.20495E-03-1.14916E-04-6.24423E-15
 -1       999 2.78597E-03-1.20696E-04-9.48851E-15
 -1      1000 3.07640E-03-1.21906E-04-1.13432E-14
 -1      1001 3.36643E-03-1.22408E-04-1.33483E-14
 -1      1002 3.65593E-03-1.22423E-04-1.54997E-14
 -1      1003 3.94487E-03-1.22106E-04-1.77944E-14
 -1      1004 4.23324E-03-1.21564E-04-2.02277E-14
 -1      1005 4.52105E-03-1.20862E-04-2.27983E-14
 -1      1006 4.80831E-03-1.20031E-04-2.55014E-14
 -1      1007 5.09504E-03-1.19077E-04-2.83332E-14
 -1      1008 5.38119E-03-1.17989E-04-3.12925E-14
 -1      1009 5.66674E-03-1.16737E-04-3.43733E-14
 -1      1010 5.95158E-03-1.15280E-04-3.75691E-14
 -1      1011 6.23558E-03-1.13571E-04-4.08783E-14
 -1      1012 6.51856E-03-1.11557E-04-4.42946E-14
 -1      1013 6.80027E-03-1.09186E-04-4.78145E-14
 -1      1014 7.08042E-03-1.06408E-04-5.14284E-14
 -1      1015 7.35864E-03-1.03186E-04-5.51340E-14
 -1      1016 7.63451E-03-9.94978E-05-5.89281E-14
 -1      1017 7.90756E-03-9.53393E-05-6.28017E-14
 -1      1018 8.17727E-03-9.07306E-05-6.67579E-14
 -1      1019 8.44310E-03-8.57111E-05-7.07912E-14
 -1      1020 8.70449E-03-8.03306E-05-7.48919E-14
 -1      1021 8.96087E-03-7.46331E-05-7.90497E-14
 -1      1022 9.21174E-03-6.86763E-05-8.32575E-14
 -1      1023 2.58908E-03 2.29820E-04-7.96662E-15
 -1      1024 1.62753E-03 1.55748E-06-3.63774E-15
 -1      1025 6.46153E-03 1.48536E-04-4.30542E-14
 -1      1026 6.17815E-03 1.50753E-04-3.96836E-14
 -1      1027 5.89384E-03 1.52639E-04-3.64218E-14
 -1      1028 6.74376E-03 1.45948E-04-4.65252E-14
 -1      1029 7.02454E-03 1.42970E-04-5.00956E-14
 -1      1030 7.30350E-03 1.39614E-04-5.37582E-14
 -1      1031 7.58021E-03 1.35941E-04-5.75074E-14
 -1      1032 7.85413E-03 1.32078E-04-6.13356E-14
 -1      1033 8.12465E-03 1.28232E-04-6.52412E-14
 -1      1034 8.39107E-03 1.24700E-04-6.92216E-14
 -1      1035 8.65257E-03 1.21861E-04-7.32716E-14
 -1      1036 8.90822E-03 1.20143E-04-7.73856E-14
 -1      1037 9.15691E-03 1.19968E-04-8.15552E-14
 -1      1038 9.39735E-03 1.21700E-04-8.57733E-14
 -1      1039 2.49536E-03-1.18488E-04-7.78764E-15
 -1      1040 5.32309E-03 1.55614E-04-3.02386E-14
 -1      1041 5.03684E-03 1.56794E-04-2.73279E-14
 -1      1042 1.68912E-03-8.46645E-05-3.89611E-15
 -1      1043 1.94637E-03-1.00088E-04-5.00494E-15
 -1      1044 5.60878E-03 1.54243E-04-3.32722E-14
 -1      1045 2.29947E-03 2.24065E-04-6.41625E-15
 -1      1046 3.45673E-03 2.35979E-04-1.35452E-14
 -1      1047 3.88673E-03 1.59865E-04-1.69861E-14
 -1      1048 2.72843E-03 1.56940E-04-8.91438E-15
 -1      1049 9.45671E-03-6.25610E-05-8.75144E-14
 -1      1050 1.87719E-03 3.99000E-05-4.65810E-15
 -1      1051 4.46281E-03 1.58679E-04-2.18874E-14
 -1      1052 4.17503E-03 1.59379E-04-1.93667E-14
 -1      1053 9.37656E-03 3.62123E-05-8.66165E-14
 -1      1054 1.83768E-03 1.00472E-04-4.43139E-15
 -1      1055 3.01865E-03 1.58837E-04-1.07087E-14
 -1      1056 1.92300E-03 1.56954E-04-4.73216E-15
 -1      1057 1.91038E-03-2.95436E-05-4.83932E-15
 -1      1058 2.63824E-03-4.52435E-05-8.59460E-15
 -1      1059 3.21972E-03-4.61433E-05-1.22896E-14
 -1      1060 3.50982E-03-4.61969E-05-1.43613E-14
 -1      1061 3.79934E-03-4.60952E-05-1.65782E-14
 -1      1062 4.08826E-03-4.58823E-05-1.89346E-14
 -1      1063 4.37656E-03-4.55970E-05-2.14306E-14
 -1      1064 4.66425E-03-4.52559E-05-2.40631E-14
 -1      1065 4.95136E-03-4.48646E-05-2.68244E-14
 -1      1066 5.23785E-03-4.44233E-05-2.97141E-14
 -1      1067 5.52371E-03-4.39214E-05-3.27283E-14
 -1      1068 5.80883E-03-4.33432E-05-3.58594E-14
 -1      1069 6.09311E-03-4.26679E-05-3.91049E-14
 -1      1070 6.37637E-03-4.18700E-05-4.24590E-14
 -1      1071 6.65835E-03-4.09197E-05-4.59205E-14
 -1      1072 6.93877E-03-3.97831E-05-4.94815E-14
 -1      1073 7.21724E-03-3.84219E-05-5.31360E-14
 -1      1074 7.49331E-03-3.67927E-05-5.68766E-14
 -1      1075 7.76645E-03-3.48450E-05-6.06996E-14
 -1      1076 8.03604E-03-3.25182E-05-6.46031E-14
 -1      1077 8.30137E-03-2.97360E-05-6.85888E-14
 -1      1078 8.56163E-03-2.63983E-05-7.26461E-14
 -1      1079 8.81581E-03-2.23699E-05-7.67654E-14
 -1      1080 9.06260E-03-1.74431E-05-8.09416E-14
 -1      1081 6.88203E-03 7.60305E-05-4.84798E-14
 -1      1082 6.60114E-03 7.74248E-05-4.49516E-14
 -1      1083 6.03523E-03 7.96818E-05-3.82020E-14
 -1      1084 7.16107E-03 7.44680E-05-5.21031E-14
 -1      1085 7.43782E-03 7.27763E-05-5.58158E-14
 -1      1086 7.71173E-03 7.10331E-05-5.96100E-14
 -1      1087 7.98216E-03 6.93641E-05-6.34826E-14
 -1      1088 8.24836E-03 6.79516E-05-6.74366E-14
 -1      1089 8.50943E-03 6.70340E-05-7.14613E-14
 -1      1090 8.76425E-03 6.68953E-05-7.55505E-14
 -1      1091 9.01137E-03 6.78353E-05-7.97038E-14
 -1      1092 9.27973E-03 7.05551E-05-8.44752E-14
 -1      1093 3.59790E-03 1.60048E-04-1.47471E-14
 -1      1094 5.17942E-03 8.19713E-05-2.89149E-14
 -1      1095 2.34740E-03-4.41683E-05-6.97743E-15
 -1      1096 4.89282E-03 8.25250E-05-2.60628E-14
 -1      1097 6.31878E-03 7.86395E-05-4.15232E-14
 -1      1098 9.28825E-03-1.36087E-05-8.49415E-14
 -1      1099 2.43806E-03 1.53694E-04-7.27395E-15
 -1      1100 5.46541E-03 8.13254E-05-3.18942E-14
 -1      1101 2.92912E-03-4.58586E-05-1.03661E-14
 -1      1102 5.75072E-03 8.05696E-05-3.49898E-14
 -1      1103 3.30851E-03 1.59776E-04-1.26536E-14
 -1      1104 2.87040E-03 8.26646E-05-9.88635E-15
 -1      1105 4.02953E-03 8.36756E-05-1.82852E-14
 -1      1106 3.74057E-03 8.38237E-05-1.59678E-14
 -1      1107 2.57960E-03 8.12831E-05-8.15930E-15
 -1      1108 4.60563E-03 8.29955E-05-2.33367E-14
 -1      1109 2.14214E-03 1.46945E-05-5.90571E-15
 -1      1110 2.18019E-03 1.56536E-04-5.93837E-15
 -1      1111 2.10146E-03 7.85866E-05-5.65649E-15
 -1      1112 3.07431E-03 2.98652E-05-1.12516E-14
 -1      1113 3.65458E-03 3.01611E-05-1.53787E-14
 -1      1114 4.52047E-03 3.00390E-05-2.26377E-14
 -1      1115 4.27513E-03 5.67781E-05-2.04108E-14
 -1      1116 2.05713E-03-4.24881E-05-5.51984E-15
 -1      1117 2.49256E-03 2.88907E-05-7.72312E-15
 -1      1118 2.78351E-03 2.94996E-05-9.41094E-15
 -1      1119 3.36472E-03 3.00693E-05-1.32411E-14
 -1      1120 2.34034E-03 8.03142E-05-6.85359E-15
 -1      1121 0.00000E+00 0.00000E+00 0.00000E+00
 -1      1122 0.00000E+00 0.00000E+00 0.00000E+00
 -1      1123 0.00000E+00 0.00000E+00 0.00000E+00
 -1      1124 0.00000E+00 0.00000E+00 0.00000E+00
 -1      1125 0.00000E+00 0.00000E+00 0.00000E+00
 -1      1126 0.00000E+00 0.00000E+00 0.00000E+00
 -1      1127 0.00000E+00 0.00000E+00 0.00000E+00
 -1      1128 0.00000E+00 0.00000E+00 0.00000E+00
 -1      1129 0.00000E+00 0.00000E+00 0.00000E+00
 -1      1130 0.00000E+00 0.00000E+00 0.00000E+00
 -1      1131 0.00000E+00 0.00000E+00 0.00000E+00
 -1      1132 0.00000E+00 0.00000E+00 0.00000E+00
 -1      1133 0.00000E+00 0.00000E+00 0.00000E+00
 -1      1134 0.00000E+00 0.00000E+00 0.00000E+00
 -1      1135 0.00000E+00 0.00000E+00 0.00000E+00
 -1      1136 0.00000E+00 0.00000E+00 0.00000E+00
 -1      1137 0.00000E+00 0.00000E+00 0.00000E+00
 -1      1138 2.11679E-04-1.48334E-04 1.91226E-17
 -1      1139 5.51677E-04-3.37517E-04-7.04054E-17
 -1      1140 8.33528E-04-4.59015E-04-3.45522E-16
 -1      1141 1.10314E-03-5.40706E-04-8.36570E-16
 -1      1142 1.36859E-03-5.97970E-04-1.53079E-15
 -1      1143 1.63345E-03-6.38708E-04-2.42196E-15
 -1      1144 1.89957E-03-6.67568E-04-3.50688E-15
 -1      1145 2.16778E-03-6.87671E-04-4.78183E-15
 -1      1146 2.43838E-03-7.01306E-04-6.24373E-15
 -1      1147 2.71137E-03-7.10199E-04-7.88677E-15
 -1      1148 2.98658E-03-7.15660E-04-9.70174E-15
 -1      1149 3.26375E-03-7.18673E-04-1.16793E-14
 -1      1150 3.54262E-03-7.19965E-04-1.38123E-14
 -1      1151 3.82291E-03-7.20064E-04-1.60980E-14
 -1      1152 4.10436E-03-7.19334E-04-1.85297E-14
 -1      1153 4.38674E-03-7.18019E-04-2.11049E-14
 -1      1154 4.66987E-03-7.16262E-04-2.38147E-14
 -1      1155 4.95361E-03-7.14130E-04-2.66554E-14
 -1      1156 5.23788E-03-7.11633E-04-2.96277E-14
 -1      1157 5.52262E-03-7.08738E-04-3.27278E-14
 -1      1158 5.80788E-03-7.05383E-04-3.59455E-14
 -1      1159 6.09373E-03-7.01489E-04-3.92791E-14
 -1      1160 6.38037E-03-6.96981E-04-4.27266E-14
 -1      1161 6.66804E-03-6.91803E-04-4.62867E-14
 -1      1162 6.95714E-03-6.85947E-04-4.99542E-14
 -1      1163 7.24816E-03-6.79487E-04-5.37203E-14
 -1      1164 7.54175E-03-6.72634E-04-5.75740E-14
 -1      1165 7.83871E-03-6.65795E-04-6.15147E-14
 -1      1166 8.13997E-03-6.59661E-04-6.55468E-14
 -1      1167 8.44659E-03-6.55315E-04-6.96552E-14
 -1      1168 8.75964E-03-6.54353E-04-7.38324E-14
 -1      1169 9.08009E-03-6.59009E-04-7.80786E-14
 -1      1170 9.40847E-03-6.72228E-04-8.23801E-14
 -1      1171 9.74453E-03-6.97618E-04-8.67243E-14
 -1      1172 1.00866E-02-7.39101E-04-9.11176E-14
 -1      1173 1.04311E-02-8.00060E-04-9.55556E-14
 -1      1174 1.07718E-02-8.81768E-04-1.00025E-13
 -1      1175 1.11006E-02-9.81114E-04-1.04529E-13
 -1      1176 1.14086E-02-1.08838E-03-1.09070E-13
 -1      1177 1.16894E-02-1.18663E-03-1.13647E-13
 -1      1178 1.19424E-02-1.25460E-03-1.18261E-13
 -1      1179 1.21754E-02-1.27340E-03-1.22914E-13
 -1      1180 1.24016E-02-1.23395E-03-1.27597E-13
 -1      1181 1.26349E-02-1.14053E-03-1.32304E-13
 -1      1182 1.28837E-02-1.00750E-03-1.37031E-13
 -1      1183 1.31487E-02-8.51853E-04-1.41771E-13
 -1      1184 1.34252E-02-6.86321E-04-1.46524E-13
 -1      1185 1.37072E-02-5.16772E-04-1.51280E-13
 -1      1186 1.39908E-02-3.44011E-04-1.56052E-13
 -1      1187 1.42681E-02-1.72898E-04-1.60742E-13
 -1      1188 2.28438E-04 1.60713E-04 4.30835E-17
 -1      1189 5.53847E-04 3.42148E-04 6.28837E-18
 -1      1190 8.34456E-04 4.61179E-04-2.00144E-16
 -1      1191 1.10404E-03 5.42391E-04-5.97924E-16
 -1      1192 1.36950E-03 5.99652E-04-1.18700E-15
 -1      1193 1.63441E-03 6.40478E-04-1.96505E-15
 -1      1194 1.90057E-03 6.69443E-04-2.93038E-15
 -1      1195 2.16882E-03 6.89664E-04-4.07519E-15
 -1      1196 2.43945E-03 7.03426E-04-5.39693E-15
 -1      1197 2.71246E-03 7.12453E-04-6.89046E-15
 -1      1198 2.98768E-03 7.18049E-04-8.55606E-15
 -1      1199 3.26486E-03 7.21199E-04-1.03871E-14
 -1      1200 3.54374E-03 7.22629E-04-1.23762E-14
 -1      1201 3.82403E-03 7.22864E-04-1.45209E-14
 -1      1202 4.10548E-03 7.22272E-04-1.68174E-14
 -1      1203 4.38786E-03 7.21093E-04-1.92656E-14
 -1      1204 4.67098E-03 7.19470E-04-2.18591E-14
 -1      1205 4.95472E-03 7.17471E-04-2.45908E-14
 -1      1206 5.23897E-03 7.15103E-04-2.74587E-14
 -1      1207 5.52370E-03 7.12330E-04-3.04536E-14
 -1      1208 5.80894E-03 7.09085E-04-3.35644E-14
 -1      1209 6.09477E-03 7.05283E-04-3.67842E-14
 -1      1210 6.38138E-03 7.00836E-04-4.01123E-14
 -1      1211 6.66903E-03 6.95672E-04-4.35520E-14
 -1      1212 6.95813E-03 6.89758E-04-4.70923E-14
 -1      1213 7.24921E-03 6.83137E-04-5.07214E-14
 -1      1214 7.54296E-03 6.75976E-04-5.44289E-14
 -1      1215 7.84028E-03 6.68632E-04-5.82174E-14
 -1      1216 8.14228E-03 6.61748E-04-6.20785E-14
 -1      1217 8.45025E-03 6.56377E-04-6.60045E-14
 -1      1218 8.76568E-03 6.54152E-04-6.99918E-14
 -1      1219 9.09008E-03 6.57476E-04-7.40413E-14
 -1      1220 9.42476E-03 6.69742E-04-7.81495E-14
 -1      1221 9.77037E-03 6.95458E-04-8.23152E-14
 -1      1222 1.01262E-02 7.40129E-04-8.65376E-14
 -1      1223 1.04892E-02 8.09538E-04-9.08085E-14
 -1      1224 1.08528E-02 9.07929E-04-9.51135E-14
 -1      1225 1.12069E-02 1.03476E-03-9.94542E-14
 -1      1226 1.15387E-02 1.18056E-03-1.03840E-13
 -1      1227 1.18371E-02 1.32419E-03-1.08269E-13
 -1      1228 1.20991E-02 1.43565E-03-1.12746E-13
 -1      1229 1.23337E-02 1.48620E-03-1.17284E-13
 -1      1230 1.25600E-02 1.46172E-03-1.21860E-13
 -1      1231 1.27976E-02 1.36956E-03-1.26467E-13
 -1      1232 1.30573E-02 1.23277E-03-1.31106E-13
 -1      1233 1.33375E-02 1.07661E-03-1.35790E-13
 -1      1234 1.36290E-02 9.17466E-04-1.40520E-13
 -1      1235 1.39218E-02 7.59745E-04-1.45282E-13
 -1      1236 1.42103E-02 5.99779E-04-1.50052E-13
 -1      1237 1.44882E-02 4.37843E-04-1.54699E-13
 -1      1238 1.47068E-02 3.15116E-04-1.57155E-13
 -1      1239 1.48767E-02 2.30759E-04-1.57595E-13
 -1      1240 1.50564E-02 1.51962E-04-1.58042E-13
 -1      1241 1.52467E-02 8.72930E-05-1.58460E-13
 -1      1242 1.54407E-02 4.71828E-05-1.58875E-13
 -1      1243 1.56208E-02 4.08107E-05-1.59269E-13
 -1      1244 1.57647E-02 7.09790E-05-1.59644E-13
 -1      1245 1.58469E-02 1.31495E-04-1.59980E-13
 -1      1246 1.58477E-02 2.04705E-04-1.60295E-13
 -1      1247 1.57657E-02 2.68008E-04-1.60609E-13
 -1      1248 1.56173E-02 3.02568E-04-1.60933E-13
 -1      1249 1.54305E-02 2.99952E-04-1.61272E-13
 -1      1250 1.52291E-02 2.62796E-04-1.61634E-13
 -1      1251 1.50290E-02 1.99430E-04-1.61968E-13
 -1      1252 1.48394E-02 1.20985E-04-1.62274E-13
 -1      1253 1.46604E-02 3.66686E-05-1.62580E-13
 -1      1254 1.44884E-02-4.76585E-05-1.62885E-13
 -1      1255 1.48274E-02 2.29439E-04-1.30733E-13
 -1      1256 1.46907E-02 4.12708E-04-1.30030E-13
 -1      1257 1.44376E-02 5.92963E-04-1.28886E-13
 -1      1258 1.41084E-02 7.61034E-04-1.27437E-13
 -1      1259 1.36863E-02 9.23930E-04-1.25529E-13
 -1      1260 1.31994E-02 1.05646E-03-1.23237E-13
 -1      1261 1.27199E-02 1.12582E-03-1.20924E-13
 -1      1262 1.22469E-02 1.12435E-03-1.18628E-13
 -1      1263 1.17529E-02 1.05036E-03-1.16270E-13
 -1      1264 1.12838E-02 9.18378E-04-1.14118E-13
 -1      1265 1.08600E-02 7.48234E-04-1.12283E-13
 -1      1266 1.05140E-02 5.69399E-04-1.10891E-13
 -1      1267 1.02595E-02 3.95975E-04-1.09958E-13
 -1      1268 1.01013E-02 2.24806E-04-1.09461E-13
 -1      1269 1.00584E-02 6.69262E-05-1.09435E-13
 -1      1270 1.01241E-02-8.81698E-05-1.09866E-13
 -1      1271 1.02978E-02-2.50870E-04-1.10768E-13
 -1      1272 1.05808E-02-4.22644E-04-1.12158E-13
 -1      1273 1.09749E-02-6.00541E-04-1.14090E-13
 -1      1274 1.14244E-02-7.49942E-04-1.16318E-13
 -1      1275 1.18851E-02-8.45357E-04-1.18605E-13
 -1      1276 1.23651E-02-8.79793E-04-1.20976E-13
 -1      1277 1.28352E-02-8.50457E-04-1.23235E-13
 -1      1278 1.32910E-02-7.61873E-04-1.25326E-13
 -1      1279 1.37217E-02-6.30306E-04-1.27172E-13
 -1      1280 1.41110E-02-4.72012E-04-1.28701E-13
 -1      1281 1.44485E-02-2.95642E-04-1.29895E-13
 -1      1282 1.46920E-02-1.20092E-04-1.30636E-13
 -1      1283 1.48232E-02 5.33951E-05-1.30924E-13
 -1      1284 1.66711E-04-1.10340E-04-1.09233E-17
 -1      1285 1.12547E-04-5.69687E-05-4.49673E-17
 -1      1286 1.17630E-04-6.75779E-05-3.54941E-17
 -1      1287 1.08419E-04-4.34862E-05-6.06069E-17
 -1      1288 1.10283E-04-4.95983E-05-5.59719E-17
 -1      1289 2.26334E-04-1.07612E-04-1.31541E-16
 -1      1290 1.06848E-04-3.36151E-05-6.87520E-17
 -1      1291 1.07692E-04-3.83403E-05-6.64345E-17
 -1      1292 2.19103E-04-8.24615E-05-1.59025E-16
 -1      1293 1.06066E-04-2.53448E-05-7.35360E-17
 -1      1294 1.06499E-04-2.93769E-05-7.23976E-17
 -1      1295 2.15882E-04-6.32745E-05-1.74624E-16
 -1      1296 1.05655E-04-1.80882E-05-7.57857E-17
 -1      1297 1.05886E-04-2.16556E-05-7.53656E-17
 -1      1298 2.14208E-04-4.71796E-05-1.83339E-16
 -1      1299 1.05434E-04-1.12375E-05-7.68293E-17
 -1      1300 1.05558E-04-1.46222E-05-7.67886E-17
 -1      1301 2.13285E-04-3.27484E-05-1.87621E-16
 -1      1302 1.05334E-04-4.68848E-06-7.68970E-17
 -1      1303 1.05386E-04-7.94138E-06-7.70597E-17
 -1      1304 2.12786E-04-1.91876E-05-1.89247E-16
 -1      1305 1.05322E-04 1.74270E-06-7.62872E-17
 -1      1306 1.05320E-04-1.47033E-06-7.65447E-17
 -1      1307 2.12571E-04-6.15961E-06-1.88922E-16
 -1      1308 1.05395E-04 8.22356E-06-7.49861E-17
 -1      1309 1.05338E-04 4.96413E-06-7.53792E-17
 -1      1310 2.12579E-04 6.70762E-06-1.86727E-16
 -1      1311 1.05574E-04 1.49300E-05-7.28719E-17
 -1      1312 1.05446E-04 1.15304E-05-7.35089E-17
 -1      1313 2.12812E-04 1.97618E-05-1.82946E-16
 -1      1314 1.05909E-04 2.19481E-05-6.91992E-17
 -1      1315 1.05673E-04 1.83572E-05-7.02699E-17
 -1      1316 2.13326E-04 3.32627E-05-1.76644E-16
 -1      1317 1.06535E-04 2.98145E-05-6.39950E-17
 -1      1318 1.06095E-04 2.57377E-05-6.57975E-17
 -1      1319 2.14271E-04 4.77894E-05-1.67279E-16
 -1      1320 1.07728E-04 3.89134E-05-5.59584E-17
 -1      1321 1.06875E-04 3.41196E-05-5.90484E-17
 -1      1322 2.15980E-04 6.42017E-05-1.53686E-16
 -1      1323 1.10270E-04 5.03411E-05-4.24601E-17
 -1      1324 1.08431E-04 4.41569E-05-4.81521E-17
 -1      1325 2.19211E-04 8.37002E-05-1.32571E-16
 -1      1326 1.16946E-04 6.76159E-05-2.10335E-17
 -1      1327 1.12194E-04 5.77704E-05-3.14961E-17
 -1      1328 2.26330E-04 1.09438E-04-1.00329E-16
 -1      1329 1.57590E-04 1.09859E-04 1.30104E-17
 -1      1330 1.35671E-04 8.60885E-05-8.30770E-18
 -1      1331 2.56057E-04 1.52088E-04-6.18808E-17
 -1      1332 3.35108E-04 2.20736E-04-5.65140E-18
 -1      1333 4.21572E-04-2.61736E-04-9.04089E-17
 -1      1334 5.74683E-04-3.36798E-04-1.83515E-16
 -1      1335 7.21884E-04-3.97402E-04-3.33324E-16
 -1      1336 8.65067E-04-4.46700E-04-5.35027E-16
 -1      1337 6.12122E-04-3.30890E-04-3.12982E-16
 -1      1338 1.00511E-03-4.87776E-04-7.86182E-16
 -1      1339 1.14297E-03-5.21770E-04-1.08797E-15
 -1      1340 9.05380E-04-4.31593E-04-7.29912E-16
 -1      1341 1.27948E-03-5.50550E-04-1.43906E-15
 -1      1342 1.41514E-03-5.74597E-04-1.83970E-15
 -1      1343 1.18784E-03-5.01023E-04-1.34384E-15
 -1      1344 1.55040E-03-5.94975E-04-2.28837E-15
 -1      1345 1.68552E-03-6.12018E-04-2.78537E-15
 -1      1346 1.46480E-03-5.49815E-04-2.15207E-15
 -1      1347 1.82072E-03-6.26354E-04-3.32996E-15
 -1      1348 1.95613E-03-6.38276E-04-3.92164E-15
 -1      1349 1.73952E-03-5.84151E-04-3.15134E-15
 -1      1350 2.09187E-03-6.48187E-04-4.56037E-15
 -1      1351 2.22797E-03-6.56335E-04-5.24541E-15
 -1      1352 2.01386E-03-6.08011E-04-4.33856E-15
 -1      1353 2.36450E-03-6.62997E-04-5.97633E-15
 -1      1354 2.50145E-03-6.68379E-04-6.75236E-15
 -1      1355 2.28881E-03-6.24209E-04-5.70954E-15
 -1      1356 2.63886E-03-6.72675E-04-7.57246E-15
 -1      1357 2.77671E-03-6.76049E-04-8.43570E-15
 -1      1358 2.56484E-03-6.34823E-04-7.25993E-15
 -1      1359 2.91498E-03-6.78642E-04-9.34081E-15
 -1      1360 3.05367E-03-6.80581E-04-1.02875E-14
 -1      1361 2.84214E-03-6.41405E-04-8.98298E-15
 -1      1362 3.19275E-03-6.81967E-04-1.12738E-14
 -1      1363 3.33219E-03-6.82898E-04-1.22994E-14
 -1      1364 3.12073E-03-6.45120E-04-1.08714E-14
 -1      1365 3.47198E-03-6.83441E-04-1.33639E-14
 -1      1366 3.61208E-03-6.83673E-04-1.44666E-14
 -1      1367 3.40053E-03-6.46829E-04-1.29180E-14
 -1      1368 3.75248E-03-6.83637E-04-1.56075E-14
 -1      1369 3.89314E-03-6.83389E-04-1.67846E-14
 -1      1370 3.68141E-03-6.47157E-04-1.51195E-14
 -1      1371 4.03405E-03-6.82955E-04-1.79980E-14
 -1      1372 4.17518E-03-6.82375E-04-1.92476E-14
 -1      1373 3.96323E-03-6.46544E-04-1.74695E-14
 -1      1374 4.31650E-03-6.81662E-04-2.05318E-14
 -1      1375 4.45801E-03-6.80842E-04-2.18502E-14
 -1      1376 4.24586E-03-6.45285E-04-1.99622E-14
 -1      1377 4.59968E-03-6.79918E-04-2.32018E-14
 -1      1378 4.74151E-03-6.78907E-04-2.45866E-14
 -1      1379 4.52916E-03-6.43561E-04-2.25926E-14
 -1      1380 4.88347E-03-6.77804E-04-2.60041E-14
 -1      1381 5.02556E-03-6.76618E-04-2.74535E-14
 -1      1382 4.81304E-03-6.41466E-04-2.53558E-14
 -1      1383 5.16778E-03-6.75337E-04-2.89365E-14
 -1      1384 5.31012E-03-6.73964E-04-3.04516E-14
 -1      1385 5.09743E-03-6.39026E-04-2.82497E-14
 -1      1386 5.45259E-03-6.72484E-04-3.19972E-14
 -1      1387 5.59518E-03-6.70897E-04-3.35734E-14
 -1      1388 5.38228E-03-6.36216E-04-3.12713E-14
 -1      1389 5.73790E-03-6.69183E-04-3.51785E-14
 -1      1390 5.88077E-03-6.67342E-04-3.68127E-14
 -1      1391 5.66763E-03-6.32971E-04-3.44157E-14
 -1      1392 6.02380E-03-6.65350E-04-3.84763E-14
 -1      1393 6.16701E-03-6.63209E-04-4.01688E-14
 -1      1394 5.95352E-03-6.29205E-04-3.76777E-14
 -1      1395 6.31044E-03-6.60896E-04-4.18907E-14
 -1      1396 6.45409E-03-6.58416E-04-4.36389E-14
 -1      1397 6.24008E-03-6.24820E-04-4.10572E-14
 -1      1398 6.59803E-03-6.55746E-04-4.54154E-14
 -1      1399 6.74228E-03-6.52902E-04-4.72191E-14
 -1      1400 6.52750E-03-6.19725E-04-4.45494E-14
 -1      1401 6.88691E-03-6.49864E-04-4.90483E-14
 -1      1402 7.03195E-03-6.46661E-04-5.09032E-14
 -1      1403 6.81604E-03-6.13861E-04-4.81477E-14
 -1      1404 7.17749E-03-6.43285E-04-5.27818E-14
 -1      1405 7.32358E-03-6.39782E-04-5.46827E-14
 -1      1406 7.10605E-03-6.07228E-04-5.18476E-14
 -1      1407 7.47032E-03-6.36162E-04-5.66064E-14
 -1      1408 7.61778E-03-6.32498E-04-5.85511E-14
 -1      1409 7.39798E-03-5.99930E-04-5.56423E-14
 -1      1410 7.76606E-03-6.28827E-04-6.05185E-14
 -1      1411 7.91525E-03-6.25261E-04-6.25087E-14
 -1      1412 7.69238E-03-5.92232E-04-5.95261E-14
 -1      1413 8.06548E-03-6.21876E-04-6.45188E-14
 -1      1414 8.21684E-03-6.18834E-04-6.65504E-14
 -1      1415 7.98987E-03-5.84642E-04-6.34969E-14
 -1      1416 8.36945E-03-6.16271E-04-6.85996E-14
 -1      1417 8.52342E-03-6.14409E-04-7.06655E-14
 -1      1418 8.29118E-03-5.78008E-04-6.75479E-14
 -1      1419 8.67886E-03-6.13468E-04-7.27509E-14
 -1      1420 8.83585E-03-6.13737E-04-7.48519E-14
 -1      1421 8.59703E-03-5.73645E-04-7.16734E-14
 -1      1422 8.99447E-03-6.15550E-04-7.69697E-14
 -1      1423 9.15477E-03-6.19260E-04-7.91030E-14
 -1      1424 8.90810E-03-5.73478E-04-7.58677E-14
 -1      1425 9.31677E-03-6.25334E-04-8.12471E-14
 -1      1426 9.48041E-03-6.34177E-04-8.34025E-14
 -1      1427 9.22487E-03-5.80169E-04-8.01198E-14
 -1      1428 9.64561E-03-6.46382E-04-8.55715E-14
 -1      1429 9.81219E-03-6.62358E-04-8.77515E-14
 -1      1430 9.54740E-03-5.97171E-04-8.44225E-14
 -1      1431 9.97987E-03-6.82763E-04-8.99438E-14
 -1      1432 1.01483E-02-7.07911E-04-9.21469E-14
 -1      1433 9.87510E-03-6.28591E-04-8.87749E-14
 -1      1434 1.03170E-02-7.38365E-04-9.43604E-14
 -1      1435 1.04853E-02-7.74163E-04-9.65836E-14
 -1      1436 1.02064E-02-6.78645E-04-9.31720E-14
 -1      1437 1.06526E-02-8.15484E-04-9.88151E-14
 -1      1438 1.08180E-02-8.61839E-04-1.01056E-13
 -1      1439 1.05383E-02-7.50449E-04-9.76087E-14
 -1      1440 1.09807E-02-9.12628E-04-1.03305E-13
 -1      1441 1.11399E-02-9.66568E-04-1.05563E-13
 -1      1442 1.08667E-02-8.43966E-04-1.02083E-13
 -1      1443 1.12948E-02-1.02196E-03-1.07831E-13
 -1      1444 1.14447E-02-1.07665E-03-1.10106E-13
 -1      1445 1.11863E-02-9.53315E-04-1.06594E-13
 -1      1446 1.15893E-02-1.12790E-03-1.12391E-13
 -1      1447 1.17286E-02-1.17300E-03-1.14688E-13
 -1      1448 1.14923E-02-1.06469E-03-1.11139E-13
 -1      1449 1.18627E-02-1.20889E-03-1.16991E-13
 -1      1450 1.19926E-02-1.23313E-03-1.19305E-13
 -1      1451 1.17818E-02-1.15700E-03-1.15722E-13
 -1      1452 1.21190E-02-1.24356E-03-1.21628E-13
 -1      1453 1.22434E-02-1.23899E-03-1.23960E-13
 -1      1454 1.20564E-02-1.20711E-03-1.20346E-13
 -1      1455 1.23669E-02-1.21914E-03-1.26299E-13
 -1      1456 1.24911E-02-1.18451E-03-1.28644E-13
 -1      1457 1.23221E-02-1.19861E-03-1.25006E-13
 -1      1458 1.26168E-02-1.13675E-03-1.30998E-13
 -1      1459 1.27449E-02-1.07767E-03-1.33354E-13
 -1      1460 1.25871E-02-1.12898E-03-1.29691E-13
 -1      1461 1.28759E-02-1.00981E-03-1.35714E-13
 -1      1462 1.30097E-02-9.35328E-04-1.38078E-13
 -1      1463 1.28578E-02-1.00985E-03-1.34400E-13
 -1      1464 1.31463E-02-8.56436E-04-1.40448E-13
 -1      1465 1.32850E-02-7.74758E-04-1.42820E-13
 -1      1466 1.31366E-02-8.59912E-04-1.39126E-13
 -1      1467 1.34255E-02-6.91442E-04-1.45196E-13
 -1      1468 1.35672E-02-6.07289E-04-1.47576E-13
 -1      1469 1.34218E-02-6.95943E-04-1.43871E-13
 -1      1470 1.37095E-02-5.22408E-04-1.49957E-13
 -1      1471 1.38520E-02-4.36948E-04-1.52337E-13
 -1      1472 1.37099E-02-5.27470E-04-1.48629E-13
 -1      1473 1.39946E-02-3.50569E-04-1.54726E-13
 -1      1474 1.41372E-02-2.63378E-04-1.57124E-13
 -1      1475 1.39978E-02-3.56714E-04-1.53400E-13
 -1      1476 1.43528E-02-1.31479E-04-1.60594E-13
 -1      1477 1.43574E-02-1.38621E-04-1.59259E-13
 -1      1478 6.43128E-04 3.72010E-04-1.28071E-16
 -1      1479 4.92988E-04 3.03687E-04-4.27718E-17
 -1      1480 4.44916E-04 2.65888E-04-8.45136E-17
 -1      1481 9.28743E-04 4.71979E-04-4.39454E-16
 -1      1482 7.87865E-04 4.26485E-04-2.60330E-16
 -1      1483 7.44802E-04 3.90711E-04-3.10854E-16
 -1      1484 1.20367E-03 5.41411E-04-9.38052E-16
 -1      1485 1.06698E-03 5.09725E-04-6.64955E-16
 -1      1486 1.03088E-03 4.76158E-04-7.22607E-16
 -1      1487 1.47425E-03 5.90629E-04-1.62464E-15
 -1      1488 1.33918E-03 5.68159E-04-1.25789E-15
 -1      1489 1.30882E-03 5.35998E-04-1.31960E-15
 -1      1490 1.74382E-03 6.25554E-04-2.49709E-15
 -1      1491 1.60899E-03 6.09637E-04-2.03741E-15
 -1      1492 1.58308E-03 5.78310E-04-2.10150E-15
 -1      1493 2.01406E-03 6.50056E-04-3.55243E-15
 -1      1494 1.87877E-03 6.38935E-04-3.00233E-15
 -1      1495 1.85628E-03 6.08072E-04-3.06641E-15
 -1      1496 2.28578E-03 6.66884E-04-4.78495E-15
 -1      1497 2.14970E-03 6.59298E-04-4.14688E-15
 -1      1498 2.12982E-03 6.28668E-04-4.21039E-15
 -1      1499 2.55930E-03 6.78082E-04-6.19098E-15
 -1      1500 2.42230E-03 6.73086E-04-5.46626E-15
 -1      1501 2.40441E-03 6.42550E-04-5.52897E-15
 -1      1502 2.83466E-03 6.85192E-04-7.76798E-15
 -1      1503 2.69675E-03 6.82071E-04-6.95834E-15
 -1      1504 2.68036E-03 6.51545E-04-7.01822E-15
 -1      1505 3.11177E-03 6.89374E-04-9.51329E-15
 -1      1506 2.97301E-03 6.87591E-04-8.62006E-15
 -1      1507 2.95773E-03 6.57028E-04-8.67682E-15
 -1      1508 3.39045E-03 6.91494E-04-1.14185E-14
 -1      1509 3.25093E-03 6.90649E-04-1.04460E-14
 -1      1510 3.23648E-03 6.60023E-04-1.04986E-14
 -1      1511 3.67050E-03 6.92180E-04-1.34816E-14
 -1      1512 3.53032E-03 6.91985E-04-1.24306E-14
 -1      1513 3.51647E-03 6.61287E-04-1.24786E-14
 -1      1514 3.95170E-03 6.91882E-04-1.56974E-14
 -1      1515 3.81097E-03 6.92133E-04-1.45706E-14
 -1      1516 3.79756E-03 6.61363E-04-1.46138E-14
 -1      1517 4.23385E-03 6.90902E-04-1.80639E-14
 -1      1518 4.09267E-03 6.91463E-04-1.68617E-14
 -1      1519 4.07957E-03 6.60627E-04-1.68999E-14
 -1      1520 4.51678E-03 6.89429E-04-2.05783E-14
 -1      1521 4.37523E-03 6.90219E-04-1.93031E-14
 -1      1522 4.36237E-03 6.59325E-04-1.93346E-14
 -1      1523 4.80036E-03 6.87566E-04-2.32343E-14
 -1      1524 4.65850E-03 6.88543E-04-2.18890E-14
 -1      1525 4.64583E-03 6.57600E-04-2.19133E-14
 -1      1526 5.08449E-03 6.85346E-04-2.60263E-14
 -1      1527 4.94236E-03 6.86500E-04-2.46134E-14
 -1      1528 4.92984E-03 6.55517E-04-2.46309E-14
 -1      1529 5.36911E-03 6.82749E-04-2.89510E-14
 -1      1530 5.22674E-03 6.84096E-04-2.74734E-14
 -1      1531 5.21435E-03 6.53079E-04-2.74830E-14
 -1      1532 5.65423E-03 6.79716E-04-3.19967E-14
 -1      1533 5.51161E-03 6.81290E-04-3.04590E-14
 -1      1534 5.49934E-03 6.50241E-04-3.04611E-14
 -1      1535 5.93990E-03 6.76165E-04-3.51559E-14
 -1      1536 5.79699E-03 6.78009E-04-3.35621E-14
 -1      1537 5.78485E-03 6.46927E-04-3.35567E-14
 -1      1538 6.22625E-03 6.71999E-04-3.84261E-14
 -1      1539 6.08298E-03 6.74161E-04-3.67776E-14
 -1      1540 6.07095E-03 6.43037E-04-3.67662E-14
 -1      1541 6.51350E-03 6.67123E-04-4.18034E-14
 -1      1542 6.36975E-03 6.69649E-04-4.01013E-14
 -1      1543 6.35781E-03 6.38467E-04-4.00855E-14
 -1      1544 6.80195E-03 6.61469E-04-4.52885E-14
 -1      1545 6.65756E-03 6.64388E-04-4.35335E-14
 -1      1546 6.64565E-03 6.33119E-04-4.35113E-14
 -1      1547 7.09203E-03 6.55019E-04-4.88664E-14
 -1      1548 6.94676E-03 6.58330E-04-4.70662E-14
 -1      1549 6.93482E-03 6.26934E-04-4.70361E-14
 -1      1550 7.38428E-03 6.47848E-04-5.25290E-14
 -1      1551 7.23785E-03 6.51498E-04-5.06871E-14
 -1      1552 7.22574E-03 6.19915E-04-5.06520E-14
 -1      1553 7.67943E-03 6.40181E-04-5.62757E-14
 -1      1554 7.53145E-03 6.44034E-04-5.43917E-14
 -1      1555 7.51897E-03 6.12183E-04-5.43514E-14
 -1      1556 7.97836E-03 6.32471E-04-6.00960E-14
 -1      1557 7.82837E-03 6.36265E-04-5.81761E-14
 -1      1558 7.81521E-03 6.04037E-04-5.81330E-14
 -1      1559 8.28211E-03 6.25508E-04-6.39882E-14
 -1      1560 8.12956E-03 6.28798E-04-6.20354E-14
 -1      1561 8.11530E-03 5.96050E-04-6.19885E-14
 -1      1562 8.59188E-03 6.20568E-04-6.79445E-14
 -1      1563 8.43616E-03 6.22646E-04-6.59586E-14
 -1      1564 8.42020E-03 5.89198E-04-6.59104E-14
 -1      1565 8.90893E-03 6.19598E-04-7.19608E-14
 -1      1566 8.74941E-03 6.19397E-04-6.99446E-14
 -1      1567 8.73096E-03 5.85026E-04-6.98946E-14
 -1      1568 9.23445E-03 6.25441E-04-7.60378E-14
 -1      1569 9.07056E-03 6.21423E-04-7.39919E-14
 -1      1570 9.04862E-03 5.85868E-04-7.39400E-14
 -1      1571 9.56922E-03 6.42036E-04-8.01745E-14
 -1      1572 9.40063E-03 6.32098E-04-7.80986E-14
 -1      1573 9.37404E-03 5.95073E-04-7.80453E-14
 -1      1574 9.91317E-03 6.74502E-04-8.43668E-14
 -1      1575 9.74007E-03 6.55964E-04-8.22629E-14
 -1      1576 9.70761E-03 6.17196E-04-8.22077E-14
 -1      1577 1.02648E-02 7.28823E-04-8.86105E-14
 -1      1578 1.00882E-02 6.98654E-04-8.64826E-14
 -1      1579 1.00488E-02 6.57954E-04-8.64251E-14
 -1      1580 1.06202E-02 8.10731E-04-9.28976E-14
 -1      1581 1.04423E-02 7.66232E-04-9.07502E-14
 -1      1582 1.03958E-02 7.23636E-04-9.06910E-14
 -1      1583 1.09728E-02 9.23227E-04-9.72180E-14
 -1      1584 1.07974E-02 8.63442E-04-9.50538E-14
 -1      1585 1.07447E-02 8.19420E-04-9.49929E-14
 -1      1586 1.13137E-02 1.06262E-03-1.01577E-13
 -1      1587 1.11454E-02 9.90456E-04-9.93921E-14
 -1      1588 1.10894E-02 9.46138E-04-9.93290E-14
 -1      1589 1.16334E-02 1.21424E-03-1.05983E-13
 -1      1590 1.14768E-02 1.13848E-03-1.03773E-13
 -1      1591 1.14225E-02 1.09574E-03-1.03706E-13
 -1      1592 1.19257E-02 1.35133E-03-1.10434E-13
 -1      1593 1.17831E-02 1.28658E-03-1.08203E-13
 -1      1594 1.17368E-02 1.24760E-03-1.08135E-13
 -1      1595 1.21922E-02 1.44135E-03-1.14941E-13
 -1      1596 1.20617E-02 1.40387E-03-1.12680E-13
 -1      1597 1.20293E-02 1.37024E-03-1.12612E-13
 -1      1598 1.24433E-02 1.45937E-03-1.19497E-13
 -1      1599 1.23187E-02 1.45986E-03-1.17213E-13
 -1      1600 1.23042E-02 1.43149E-03-1.17144E-13
 -1      1601 1.26943E-02 1.40074E-03-1.24091E-13
 -1      1602 1.25679E-02 1.43873E-03-1.21790E-13
 -1      1603 1.25718E-02 1.41382E-03-1.21718E-13
 -1      1604 1.29571E-02 1.28247E-03-1.28715E-13
 -1      1605 1.28237E-02 1.34733E-03-1.26401E-13
 -1      1606 1.28437E-02 1.32351E-03-1.26330E-13
 -1      1607 1.32355E-02 1.13181E-03-1.33382E-13
 -1      1608 1.30945E-02 1.20958E-03-1.31044E-13
 -1      1609 1.31262E-02 1.18525E-03-1.30979E-13
 -1      1610 1.35256E-02 9.71848E-04-1.38088E-13
 -1      1611 1.33796E-02 1.05212E-03-1.35730E-13
 -1      1612 1.34188E-02 1.02693E-03-1.35664E-13
 -1      1613 1.38200E-02 8.13490E-04-1.42834E-13
 -1      1614 1.36728E-02 8.92371E-04-1.40457E-13
 -1      1615 1.37162E-02 8.66872E-04-1.40392E-13
 -1      1616 1.41124E-02 6.56125E-04-1.47599E-13
 -1      1617 1.39667E-02 7.35008E-04-1.45215E-13
 -1      1618 1.40127E-02 7.10033E-04-1.45148E-13
 -1      1619 1.44006E-02 4.94021E-04-1.52364E-13
 -1      1620 1.42570E-02 5.75962E-04-1.49982E-13
 -1      1621 1.43048E-02 5.52032E-04-1.49915E-13
 -1      1622 1.45710E-02 3.95831E-04-1.54900E-13
 -1      1623 1.47971E-02 2.86380E-04-1.55635E-13
 -1      1624 1.47098E-02 3.26463E-04-1.55417E-13
 -1      1625 1.49810E-02 2.12484E-04-1.56067E-13
 -1      1626 1.48875E-02 2.48122E-04-1.55853E-13
 -1      1627 1.47186E-02 3.39982E-04-1.53670E-13
 -1      1628 1.51758E-02 1.52742E-04-1.56476E-13
 -1      1629 1.50774E-02 1.80360E-04-1.56271E-13
 -1      1630 1.49069E-02 2.67435E-04-1.54086E-13
 -1      1631 1.53725E-02 1.14680E-04-1.56885E-13
 -1      1632 1.52748E-02 1.30548E-04-1.56684E-13
 -1      1633 1.51058E-02 2.07538E-04-1.54494E-13
 -1      1634 1.55494E-02 1.03969E-04-1.57268E-13
 -1      1635 1.54644E-02 1.05828E-04-1.57077E-13
 -1      1636 1.53023E-02 1.66450E-04-1.54891E-13
 -1      1637 1.56857E-02 1.20539E-04-1.57635E-13
 -1      1638 1.56247E-02 1.09072E-04-1.57456E-13
 -1      1639 1.54767E-02 1.47623E-04-1.55270E-13
 -1      1640 1.57511E-02 1.57172E-04-1.57972E-13
 -1      1641 1.57286E-02 1.37144E-04-1.57806E-13
 -1      1642 1.56011E-02 1.50387E-04-1.55631E-13
 -1      1643 1.57300E-02 1.99169E-04-1.58296E-13
 -1      1644 1.57516E-02 1.78595E-04-1.58139E-13
 -1      1645 1.56472E-02 1.67283E-04-1.55973E-13
 -1      1646 1.56259E-02 2.29661E-04-1.58618E-13
 -1      1647 1.56874E-02 2.16804E-04-1.58455E-13
 -1      1648 1.56030E-02 1.85086E-04-1.56303E-13
 -1      1649 1.54601E-02 2.36044E-04-1.58949E-13
 -1      1650 1.55491E-02 2.36359E-04-1.58785E-13
 -1      1651 1.54777E-02 1.90128E-04-1.56630E-13
 -1      1652 1.52646E-02 2.14240E-04-1.59283E-13
 -1      1653 1.53647E-02 2.28584E-04-1.59114E-13
 -1      1654 1.52984E-02 1.73885E-04-1.56959E-13
 -1      1655 1.50575E-02 1.66256E-04-1.59632E-13
 -1      1656 1.51609E-02 1.93112E-04-1.59459E-13
 -1      1657 1.50935E-02 1.34807E-04-1.57294E-13
 -1      1658 1.48576E-02 9.92939E-05-1.59955E-13
 -1      1659 1.49561E-02 1.34630E-04-1.59799E-13
 -1      1660 1.48846E-02 7.59292E-05-1.57628E-13
 -1      1661 1.46701E-02 2.12939E-05-1.60266E-13
 -1      1662 1.47623E-02 6.11915E-05-1.60113E-13
 -1      1663 1.46862E-02 3.62187E-06-1.57950E-13
 -1      1664 1.44686E-02-7.92339E-05-1.59841E-13
 -1      1665 1.45564E-02-3.76352E-05-1.59685E-13
 -1      1666 1.44772E-02-9.35993E-05-1.57529E-13
 -1      1667 1.42520E-02-2.10998E-04-1.56373E-13
 -1      1668 1.48216E-02 2.30521E-04-1.31520E-13
 -1      1669 1.48575E-02 1.75397E-04-1.31735E-13
 -1      1670 1.46138E-02 3.62104E-04-1.30794E-13
 -1      1671 1.47317E-02 2.93587E-04-1.31289E-13
 -1      1672 1.43045E-02 5.38842E-04-1.29313E-13
 -1      1673 1.44559E-02 4.62219E-04-1.29944E-13
 -1      1674 1.39240E-02 7.25751E-04-1.27642E-13
 -1      1675 1.41083E-02 6.36418E-04-1.28462E-13
 -1      1676 1.34495E-02 9.23644E-04-1.25558E-13
 -1      1677 1.36639E-02 8.24573E-04-1.26651E-13
 -1      1678 1.29898E-02 1.10108E-03-1.22981E-13
 -1      1679 1.31946E-02 1.02848E-03-1.24166E-13
 -1      1680 1.25876E-02 1.17742E-03-1.20443E-13
 -1      1681 1.27725E-02 1.15321E-03-1.21555E-13
 -1      1682 1.21735E-02 1.15997E-03-1.17926E-13
 -1      1683 1.23658E-02 1.18203E-03-1.19095E-13
 -1      1684 1.17394E-02 1.03656E-03-1.15331E-13
 -1      1685 1.19432E-02 1.10777E-03-1.16497E-13
 -1      1686 1.12953E-02 8.45732E-04-1.13138E-13
 -1      1687 1.14913E-02 9.38104E-04-1.14108E-13
 -1      1688 1.08679E-02 6.23126E-04-1.11177E-13
 -1      1689 1.10661E-02 7.26380E-04-1.12019E-13
 -1      1690 1.05037E-02 4.42774E-04-1.09906E-13
 -1      1691 1.06541E-02 5.23400E-04-1.10453E-13
 -1      1692 1.02264E-02 2.83880E-04-1.08996E-13
 -1      1693 1.03445E-02 3.54747E-04-1.09365E-13
 -1      1694 1.00681E-02 1.55150E-04-1.08581E-13
 -1      1695 1.01246E-02 2.10717E-04-1.08709E-13
 -1      1696 1.00472E-02 4.81691E-05-1.08661E-13
 -1      1697 1.00405E-02 9.56996E-05-1.08563E-13
 -1      1698 1.01578E-02-6.30260E-05-1.09187E-13
 -1      1699 1.00899E-02-9.15254E-06-1.08855E-13
 -1      1700 1.03908E-02-2.06790E-04-1.10323E-13
 -1      1701 1.02684E-02-1.38328E-04-1.09767E-13
 -1      1702 1.07542E-02-3.69358E-04-1.11761E-13
 -1      1703 1.05793E-02-2.81109E-04-1.10943E-13
 -1      1704 1.11992E-02-5.89861E-04-1.14023E-13
 -1      1705 1.09879E-02-4.86332E-04-1.12928E-13
 -1      1706 1.16159E-02-7.81044E-04-1.16553E-13
 -1      1707 1.14207E-02-7.04426E-04-1.15456E-13
 -1      1708 1.20392E-02-8.98255E-04-1.19066E-13
 -1      1709 1.18439E-02-8.53196E-04-1.17889E-13
 -1      1710 1.24586E-02-9.30701E-04-1.21644E-13
 -1      1711 1.22689E-02-9.29550E-04-1.20460E-13
 -1      1712 1.28695E-02-8.62152E-04-1.24023E-13
 -1      1713 1.26834E-02-9.02541E-04-1.22957E-13
 -1      1714 1.32851E-02-7.19005E-04-1.26286E-13
 -1      1715 1.30889E-02-7.94158E-04-1.25273E-13
 -1      1716 1.37064E-02-5.38311E-04-1.28168E-13
 -1      1717 1.35173E-02-6.24876E-04-1.27338E-13
 -1      1718 1.41112E-02-3.43966E-04-1.29751E-13
 -1      1719 1.39261E-02-4.34424E-04-1.29059E-13
 -1      1720 1.44707E-02-1.56398E-04-1.31010E-13
 -1      1721 1.43108E-02-2.37610E-04-1.30511E-13
 -1      1722 1.47288E-02-1.45099E-05-1.31644E-13
 -1      1723 1.46266E-02-7.71606E-05-1.31391E-13
 -1      1724 1.48556E-02 1.11728E-04-1.31907E-13
 -1      1725 1.48150E-02 5.67093E-05-1.31878E-13
 -1      1726 1.37147E-02 7.32856E-04-1.27711E-13
 -1      1727 1.41557E-02 5.28148E-04-1.29560E-13
 -1      1728 1.46200E-02 3.72634E-04-1.54836E-13
 -1      1729 1.45385E-02 4.24644E-04-1.52875E-13
 -1      1730 1.47778E-02 2.29460E-04-1.32348E-13
 -1      1731 1.45176E-02 3.48518E-04-1.31264E-13
 -1      1732 1.48685E-02 1.43961E-04-1.32752E-13
 -1      1733 1.32506E-02 9.61314E-04-1.25322E-13
 -1      1734 1.28449E-02 1.14164E-03-1.22502E-13
 -1      1735 1.24654E-02 1.20767E-03-1.19728E-13
 -1      1736 1.20863E-02 1.15507E-03-1.16954E-13
 -1      1737 1.16837E-02 9.85401E-04-1.14309E-13
 -1      1738 1.12463E-02 7.50497E-04-1.11973E-13
 -1      1739 1.08222E-02 5.21303E-04-1.10139E-13
 -1      1740 1.04501E-02 3.40227E-04-1.08880E-13
 -1      1741 1.01803E-02 2.05951E-04-1.08055E-13
 -1      1742 1.00456E-02 1.12798E-04-1.07752E-13
 -1      1743 1.00615E-02 3.68133E-05-1.07925E-13
 -1      1744 1.02215E-02-5.56886E-05-1.08691E-13
 -1      1745 1.05232E-02-1.88563E-04-1.09880E-13
 -1      1746 1.09341E-02-3.79387E-04-1.11652E-13
 -1      1747 1.13664E-02-6.22470E-04-1.14239E-13
 -1      1748 1.17791E-02-8.24656E-04-1.17004E-13
 -1      1749 1.21735E-02-9.39587E-04-1.19735E-13
 -1      1750 1.25425E-02-9.42607E-04-1.22446E-13
 -1      1751 1.29261E-02-8.35239E-04-1.25011E-13
 -1      1752 1.33257E-02-6.52512E-04-1.27316E-13
 -1      1753 1.37498E-02-4.38918E-04-1.29262E-13
 -1      1754 1.41636E-02-2.27205E-04-1.30919E-13
 -1      1755 1.45250E-02-5.88550E-05-1.32066E-13
 -1      1756 1.47756E-02 5.92705E-05-1.32688E-13
 -1      1757 2.85263E-04-1.76224E-04-8.07324E-17
 -1      1758 3.32154E-04-1.16776E-04-2.52036E-16
 -1      1759 3.36260E-04-1.32979E-04-2.37318E-16
 -1      1760 3.42217E-04-1.51982E-04-2.19036E-16
 -1      1761 3.51786E-04-1.73994E-04-1.93042E-16
 -1      1762 4.58316E-04-1.88047E-04-3.44112E-16
 -1      1763 3.24550E-04-6.53667E-05-2.82299E-16
 -1      1764 3.25700E-04-7.66590E-05-2.77773E-16
 -1      1765 3.23058E-04-4.38774E-05-2.87408E-16
 -1      1766 3.23712E-04-5.43640E-05-2.85376E-16
 -1      1767 4.36489E-04-7.92717E-05-4.18421E-16
 -1      1768 3.22274E-04-2.37647E-05-2.88940E-16
 -1      1769 3.22606E-04-3.36753E-05-2.88533E-16
 -1      1770 4.34492E-04-5.13046E-05-4.24208E-16
 -1      1771 3.21980E-04-4.33579E-06-2.87530E-16
 -1      1772 3.22077E-04-1.39853E-05-2.88574E-16
 -1      1773 4.33472E-04-2.49171E-05-4.25292E-16
 -1      1774 3.22103E-04 1.49765E-05-2.83614E-16
 -1      1775 3.21989E-04 5.31690E-06-2.85918E-16
 -1      1776 4.33175E-04 7.57360E-07-4.22270E-16
 -1      1777 3.22670E-04 3.47201E-05-2.77217E-16
 -1      1778 3.22318E-04 2.47768E-05-2.80863E-16
 -1      1779 4.33532E-04 2.64606E-05-4.15927E-16
 -1      1780 3.23800E-04 5.51524E-05-2.66781E-16
 -1      1781 3.23136E-04 4.47922E-05-2.72704E-16
 -1      1782 4.34609E-04 5.27095E-05-4.05410E-16
 -1      1783 3.25860E-04 7.77993E-05-2.51887E-16
 -1      1784 3.24660E-04 6.62204E-05-2.60263E-16
 -1      1785 4.36666E-04 8.05832E-05-3.89689E-16
 -1      1786 3.29552E-04 1.03634E-04-2.29580E-16
 -1      1787 3.27402E-04 9.02853E-05-2.42116E-16
 -1      1788 4.40318E-04 1.11548E-04-3.66731E-16
 -1      1789 3.36591E-04 1.35092E-04-1.95034E-16
 -1      1790 3.32406E-04 1.18594E-04-2.14591E-16
 -1      1791 4.46794E-04 1.47314E-04-3.32552E-16
 -1      1792 3.52322E-04 1.77589E-04-1.43223E-16
 -1      1793 3.42824E-04 1.54741E-04-1.72198E-16
 -1      1794 4.59335E-04 1.91436E-04-2.81594E-16
 -1      1795 4.07727E-04 2.33674E-04-1.07417E-16
 -1      1796 3.78114E-04 2.02648E-04-1.31175E-16
 -1      1797 4.95885E-04 2.43977E-04-2.36166E-16
 -1      1798 5.58586E-04 3.02489E-04-1.99859E-16
 -1      1799 3.40048E-04-1.90897E-04-1.40851E-16
 -1      1800 8.53633E-04 4.07101E-04-5.24754E-16
 -1      1801 7.07216E-04 3.59360E-04-3.39884E-16
 -1      1802 6.73446E-04 3.28791E-04-3.63113E-16
 -1      1803 4.58990E-04-2.36705E-04-2.50708E-16
 -1      1804 8.07290E-04-3.74103E-04-6.68153E-16
 -1      1805 9.52569E-04-4.15288E-04-9.32753E-16
 -1      1806 1.09542E-03-4.49974E-04-1.24502E-15
 -1      1807 1.23710E-03-4.78871E-04-1.60574E-15
 -1      1808 1.00400E-03-3.97901E-04-1.14336E-15
 -1      1809 1.37752E-03-5.03361E-04-2.01358E-15
 -1      1810 1.51722E-03-5.23741E-04-2.46928E-15
 -1      1811 1.28970E-03-4.55867E-04-1.87349E-15
 -1      1812 1.65640E-03-5.40929E-04-2.97174E-15
 -1      1813 1.79526E-03-5.55166E-04-3.52082E-15
 -1      1814 1.57213E-03-4.96829E-04-2.79106E-15
 -1      1815 1.93399E-03-5.67059E-04-4.11611E-15
 -1      1816 2.07266E-03-5.76810E-04-4.75707E-15
 -1      1817 1.85277E-03-5.25396E-04-3.89363E-15
 -1      1818 2.21143E-03-5.84839E-04-5.44355E-15
 -1      1819 2.35028E-03-5.91316E-04-6.17429E-15
 -1      1820 2.13269E-03-5.44908E-04-5.17823E-15
 -1      1821 2.48934E-03-5.96539E-04-6.94911E-15
 -1      1822 2.62856E-03-6.00647E-04-7.76708E-15
 -1      1823 2.41258E-03-5.57820E-04-6.64016E-15
 -1      1824 2.76804E-03-6.03852E-04-8.62786E-15
 -1      1825 2.90772E-03-6.06267E-04-9.52981E-15
 -1      1826 2.69282E-03-5.65966E-04-8.27464E-15
 -1      1827 3.04766E-03-6.08044E-04-1.04726E-14
 -1      1828 3.18781E-03-6.09270E-04-1.14545E-14
 -1      1829 2.97364E-03-5.70716E-04-1.00764E-14
 -1      1830 3.32821E-03-6.10053E-04-1.24761E-14
 -1      1831 3.46882E-03-6.10458E-04-1.35366E-14
 -1      1832 3.25510E-03-5.73086E-04-1.20374E-14
 -1      1833 3.60965E-03-6.10560E-04-1.46352E-14
 -1      1834 3.75066E-03-6.10408E-04-1.57716E-14
 -1      1835 3.53721E-03-5.73821E-04-1.41544E-14
 -1      1836 3.89187E-03-6.10049E-04-1.69432E-14
 -1      1837 4.03323E-03-6.09519E-04-1.81519E-14
 -1      1838 3.81995E-03-5.73448E-04-1.64212E-14
 -1      1839 4.17478E-03-6.08846E-04-1.93963E-14
 -1      1840 4.31646E-03-6.08054E-04-2.06746E-14
 -1      1841 4.10324E-03-5.72329E-04-1.88329E-14
 -1      1842 4.45828E-03-6.07157E-04-2.19872E-14
 -1      1843 4.60023E-03-6.06169E-04-2.33327E-14
 -1      1844 4.38703E-03-5.70694E-04-2.13850E-14
 -1      1845 4.74231E-03-6.05091E-04-2.47120E-14
 -1      1846 4.88449E-03-6.03933E-04-2.61233E-14
 -1      1847 4.67127E-03-5.68673E-04-2.40714E-14
 -1      1848 5.02679E-03-6.02687E-04-2.75668E-14
 -1      1849 5.16920E-03-6.01356E-04-2.90423E-14
 -1      1850 4.95589E-03-5.66317E-04-2.68880E-14
 -1      1851 5.31172E-03-5.99926E-04-3.05502E-14
 -1      1852 5.45434E-03-5.98396E-04-3.20891E-14
 -1      1853 5.24090E-03-5.63617E-04-2.98329E-14
 -1      1854 5.59708E-03-5.96748E-04-3.36578E-14
 -1      1855 5.73994E-03-5.94978E-04-3.52563E-14
 -1      1856 5.52629E-03-5.60519E-04-3.29043E-14
 -1      1857 5.88293E-03-5.93063E-04-3.68844E-14
 -1      1858 6.02607E-03-5.91002E-04-3.85421E-14
 -1      1859 5.81209E-03-5.56935E-04-3.60951E-14
 -1      1860 6.16937E-03-5.88770E-04-4.02286E-14
 -1      1861 6.31285E-03-5.86366E-04-4.19443E-14
 -1      1862 6.09838E-03-5.52759E-04-3.94053E-14
 -1      1863 6.45654E-03-5.83766E-04-4.36868E-14
 -1      1864 6.60047E-03-5.80975E-04-4.54559E-14
 -1      1865 6.38528E-03-5.47883E-04-4.28284E-14
 -1      1866 6.74466E-03-5.77973E-04-4.72513E-14
 -1      1867 6.88917E-03-5.74772E-04-4.90722E-14
 -1      1868 6.67294E-03-5.42212E-04-4.63603E-14
 -1      1869 7.03401E-03-5.71361E-04-5.09188E-14
 -1      1870 7.17926E-03-5.67766E-04-5.27889E-14
 -1      1871 6.96159E-03-5.35692E-04-4.99944E-14
 -1      1872 7.32494E-03-5.63992E-04-5.46827E-14
 -1      1873 7.47115E-03-5.60083E-04-5.65981E-14
 -1      1874 7.25150E-03-5.28349E-04-5.37276E-14
 -1      1875 7.61790E-03-5.56071E-04-5.85378E-14
 -1      1876 7.76532E-03-5.52026E-04-6.04985E-14
 -1      1877 7.54301E-03-5.20332E-04-5.75527E-14
 -1      1878 7.91341E-03-5.48022E-04-6.24784E-14
 -1      1879 8.06231E-03-5.44163E-04-6.44804E-14
 -1      1880 7.83654E-03-5.11985E-04-6.14654E-14
 -1      1881 8.21203E-03-5.40582E-04-6.65020E-14
 -1      1882 8.36274E-03-5.37429E-04-6.85424E-14
 -1      1883 8.13256E-03-5.03938E-04-6.54603E-14
 -1      1884 8.51441E-03-5.34921E-04-7.06015E-14
 -1      1885 8.66722E-03-5.33266E-04-7.26765E-14
 -1      1886 8.43158E-03-4.97214E-04-6.95328E-14
 -1      1887 8.82115E-03-5.32787E-04-7.47688E-14
 -1      1888 8.97634E-03-5.33763E-04-7.68768E-14
 -1      1889 8.73418E-03-4.93373E-04-7.36758E-14
 -1      1890 9.13279E-03-5.36643E-04-7.89986E-14
 -1      1891 9.29053E-03-5.41783E-04-8.11322E-14
 -1      1892 9.04091E-03-4.94652E-04-7.78817E-14
 -1      1893 9.44962E-03-5.49761E-04-8.32778E-14
 -1      1894 9.60993E-03-5.61001E-04-8.54379E-14
 -1      1895 9.35232E-03-5.04089E-04-8.21401E-14
 -1      1896 9.77158E-03-5.76165E-04-8.76101E-14
 -1      1897 9.93419E-03-5.95709E-04-8.97929E-14
 -1      1898 9.66880E-03-5.25537E-04-8.64499E-14
 -1      1899 1.00980E-02-6.20253E-04-9.19876E-14
 -1      1900 1.02622E-02-6.50177E-04-9.41924E-14
 -1      1901 9.99048E-03-5.63437E-04-9.08076E-14
 -1      1902 1.04272E-02-6.85831E-04-9.64071E-14
 -1      1903 1.05918E-02-7.27294E-04-9.86318E-14
 -1      1904 1.03169E-02-6.22110E-04-9.52101E-14
 -1      1905 1.07565E-02-7.74300E-04-1.00866E-13
 -1      1906 1.09196E-02-8.26285E-04-1.03108E-13
 -1      1907 1.06467E-02-7.04271E-04-9.96513E-14
 -1      1908 1.10816E-02-8.81995E-04-1.05358E-13
 -1      1909 1.12409E-02-9.39833E-04-1.07618E-13
 -1      1910 1.09768E-02-8.08516E-04-1.04129E-13
 -1      1911 1.13977E-02-9.97387E-04-1.09889E-13
 -1      1912 1.15511E-02-1.05199E-03-1.12169E-13
 -1      1913 1.13024E-02-9.26087E-04-1.08642E-13
 -1      1914 1.17008E-02-1.10042E-03-1.14458E-13
 -1      1915 1.18473E-02-1.13953E-03-1.16756E-13
 -1      1916 1.16182E-02-1.03869E-03-1.13195E-13
 -1      1917 1.19901E-02-1.16635E-03-1.19066E-13
 -1      1918 1.21311E-02-1.17852E-03-1.21385E-13
 -1      1919 1.19210E-02-1.12053E-03-1.17788E-13
 -1      1920 1.22698E-02-1.17462E-03-1.23711E-13
 -1      1921 1.24088E-02-1.15436E-03-1.26048E-13
 -1      1922 1.22130E-02-1.14678E-03-1.22421E-13
 -1      1923 1.25475E-02-1.11847E-03-1.28387E-13
 -1      1924 1.26880E-02-1.06873E-03-1.30735E-13
 -1      1925 1.25016E-02-1.10535E-03-1.27087E-13
 -1      1926 1.28298E-02-1.00748E-03-1.33090E-13
 -1      1927 1.29736E-02-9.37411E-04-1.35446E-13
 -1      1928 1.27945E-02-1.00310E-03-1.31776E-13
 -1      1929 1.31190E-02-8.61144E-04-1.37808E-13
 -1      1930 1.32654E-02-7.80879E-04-1.40174E-13
 -1      1931 1.30945E-02-8.60350E-04-1.36490E-13
 -1      1932 1.34129E-02-6.98424E-04-1.42544E-13
 -1      1933 1.35603E-02-6.14872E-04-1.44921E-13
 -1      1934 1.33989E-02-6.98762E-04-1.41221E-13
 -1      1935 1.37077E-02-5.30909E-04-1.47300E-13
 -1      1936 1.38543E-02-4.46607E-04-1.49683E-13
 -1      1937 1.37026E-02-5.32317E-04-1.45970E-13
 -1      1938 1.39817E-02-3.72457E-04-1.51827E-13
 -1      1939 1.41265E-02-2.86892E-04-1.54217E-13
 -1      1940 1.42381E-02-2.27816E-04-1.54793E-13
 -1      1941 1.39827E-02-3.75987E-04-1.50495E-13
 -1      1942 1.13871E-03 4.80069E-04-1.03020E-15
 -1      1943 9.96928E-04 4.46815E-04-7.54185E-16
 -1      1944 9.64537E-04 4.17358E-04-7.80436E-16
 -1      1945 1.41786E-03 5.31562E-04-1.71934E-15
 -1      1946 1.27869E-03 5.08107E-04-1.35162E-15
 -1      1947 1.24904E-03 4.79967E-04-1.37803E-15
 -1      1948 1.69426E-03 5.67875E-04-2.59119E-15
 -1      1949 1.55622E-03 5.51371E-04-2.13267E-15
 -1      1950 1.52933E-03 5.24196E-04-2.15789E-15
 -1      1951 1.96986E-03 5.93189E-04-3.64288E-15
 -1      1952 1.83207E-03 5.81737E-04-3.09461E-15
 -1      1953 1.80760E-03 5.55199E-04-3.11779E-15
 -1      1954 2.24573E-03 6.10461E-04-4.87125E-15
 -1      1955 2.10772E-03 6.02705E-04-4.23522E-15
 -1      1956 2.08525E-03 5.76572E-04-4.25501E-15
 -1      1957 2.52242E-03 6.21869E-04-6.27047E-15
 -1      1958 2.38395E-03 6.16804E-04-5.54977E-15
 -1      1959 2.36309E-03 5.90918E-04-5.56567E-15
 -1      1960 2.80018E-03 6.29042E-04-7.83999E-15
 -1      1961 2.66116E-03 6.25915E-04-7.03392E-15
 -1      1962 2.64157E-03 6.00168E-04-7.04523E-15
 -1      1963 3.07909E-03 6.33199E-04-9.57501E-15
 -1      1964 2.93950E-03 6.31445E-04-8.68709E-15
 -1      1965 2.92090E-03 6.05770E-04-8.69252E-15
 -1      1966 3.35910E-03 6.35245E-04-1.14696E-14
 -1      1967 3.21897E-03 6.34448E-04-1.05026E-14
 -1      1968 3.20114E-03 6.08799E-04-1.05022E-14
 -1      1969 3.64013E-03 6.35836E-04-1.35218E-14
 -1      1970 3.49950E-03 6.35695E-04-1.24764E-14
 -1      1971 3.48226E-03 6.10045E-04-1.24699E-14
 -1      1972 3.92205E-03 6.35438E-04-1.57262E-14
 -1      1973 3.78099E-03 6.35742E-04-1.46047E-14
 -1      1974 3.76420E-03 6.10076E-04-1.45918E-14
 -1      1975 4.20474E-03 6.34363E-04-1.80789E-14
 -1      1976 4.06331E-03 6.34974E-04-1.68838E-14
 -1      1977 4.04685E-03 6.09285E-04-1.68639E-14
 -1      1978 4.48808E-03 6.32809E-04-2.05782E-14
 -1      1979 4.34633E-03 6.33640E-04-1.93107E-14
 -1      1980 4.33014E-03 6.07928E-04-1.92830E-14
 -1      1981 4.77197E-03 6.30877E-04-2.32198E-14
 -1      1982 4.62996E-03 6.31887E-04-2.18817E-14
 -1      1983 4.61396E-03 6.06155E-04-2.18461E-14
 -1      1984 5.05636E-03 6.28600E-04-2.59963E-14
 -1      1985 4.91411E-03 6.29782E-04-2.45917E-14
 -1      1986 4.89826E-03 6.04033E-04-2.45486E-14
 -1      1987 5.34121E-03 6.25955E-04-2.89041E-14
 -1      1988 5.19873E-03 6.27325E-04-2.74340E-14
 -1      1989 5.18300E-03 6.01566E-04-2.73831E-14
 -1      1990 5.62653E-03 6.22878E-04-3.19334E-14
 -1      1991 5.48381E-03 6.24474E-04-3.04034E-14
 -1      1992 5.46817E-03 5.98707E-04-3.03436E-14
 -1      1993 5.91238E-03 6.19275E-04-3.50793E-14
 -1      1994 5.76939E-03 6.21146E-04-3.34925E-14
 -1      1995 5.75380E-03 5.95374E-04-3.34248E-14
 -1      1996 6.19886E-03 6.15039E-04-3.83386E-14
 -1      1997 6.05553E-03 6.17240E-04-3.66947E-14
 -1      1998 6.03996E-03 5.91461E-04-3.66212E-14
 -1      1999 6.48615E-03 6.10059E-04-4.17040E-14
 -1      2000 6.34239E-03 6.12643E-04-4.00086E-14
 -1      2001 6.32679E-03 5.86853E-04-3.99282E-14
 -1      2002 6.77451E-03 6.04243E-04-4.51736E-14
 -1      2003 6.63018E-03 6.07253E-04-4.34265E-14
 -1      2004 6.61446E-03 5.81437E-04-4.33403E-14
 -1      2005 7.06426E-03 5.97546E-04-4.87383E-14
 -1      2006 6.91918E-03 6.00997E-04-4.69442E-14
 -1      2007 6.90324E-03 5.75134E-04-4.68506E-14
 -1      2008 7.35586E-03 5.90007E-04-5.23898E-14
 -1      2009 7.20980E-03 5.93865E-04-5.05535E-14
 -1      2010 7.19346E-03 5.67920E-04-5.04538E-14
 -1      2011 7.64985E-03 5.81803E-04-5.61289E-14
 -1      2012 7.50251E-03 5.85959E-04-5.42485E-14
 -1      2013 7.48556E-03 5.59878E-04-5.41438E-14
 -1      2014 7.94691E-03 5.73330E-04-5.99417E-14
 -1      2015 7.79794E-03 5.77553E-04-5.80255E-14
 -1      2016 7.78007E-03 5.51260E-04-5.79165E-14
 -1      2017 8.24782E-03 5.65305E-04-6.38275E-14
 -1      2018 8.09681E-03 5.69188E-04-6.18765E-14
 -1      2019 8.07760E-03 5.42577E-04-6.17635E-14
 -1      2020 8.55346E-03 5.58921E-04-6.77798E-14
 -1      2021 8.39997E-03 5.61801E-04-6.57958E-14
 -1      2022 8.37889E-03 5.34721E-04-6.56787E-14
 -1      2023 8.86477E-03 5.56030E-04-7.17919E-14
 -1      2024 8.70832E-03 5.56887E-04-6.97778E-14
 -1      2025 8.68472E-03 5.29133E-04-6.96595E-14
 -1      2026 9.18262E-03 5.59381E-04-7.58645E-14
 -1      2027 9.02280E-03 5.56719E-04-7.38205E-14
 -1      2028 8.99593E-03 5.28016E-04-7.37004E-14
 -1      2029 9.50767E-03 5.72846E-04-7.99977E-14
 -1      2030 9.34419E-03 5.64583E-04-7.79241E-14
 -1      2031 9.31328E-03 5.34572E-04-7.78012E-14
 -1      2032 9.84011E-03 6.01556E-04-8.41858E-14
 -1      2033 9.67297E-03 5.84979E-04-8.20857E-14
 -1      2034 9.63736E-03 5.53219E-04-8.19596E-14
 -1      2035 1.01793E-02 6.51692E-04-8.84251E-14
 -1      2036 1.00090E-02 6.23621E-04-8.62991E-14
 -1      2037 9.96839E-03 5.89628E-04-8.61723E-14
 -1      2038 1.05234E-02 7.29550E-04-9.27080E-14
 -1      2039 1.03510E-02 6.86931E-04-9.05626E-14
 -1      2040 1.03059E-02 6.50318E-04-9.04338E-14
 -1      2041 1.08687E-02 8.39236E-04-9.70244E-14
 -1      2042 1.06964E-02 7.80480E-04-9.48613E-14
 -1      2043 1.06484E-02 7.41253E-04-9.47309E-14
 -1      2044 1.12097E-02 9.78752E-04-1.01377E-13
 -1      2045 1.10404E-02 9.05913E-04-9.91957E-14
 -1      2046 1.09925E-02 8.64919E-04-9.90624E-14
 -1      2047 1.15394E-02 1.13503E-03-1.05777E-13
 -1      2048 1.13766E-02 1.05621E-03-1.03570E-13
 -1      2049 1.13327E-02 1.01556E-03-1.03433E-13
 -1      2050 1.18520E-02 1.28153E-03-1.10226E-13
 -1      2051 1.16982E-02 1.21152E-03-1.07995E-13
 -1      2052 1.16619E-02 1.17429E-03-1.07855E-13
 -1      2053 1.21461E-02 1.38330E-03-1.14730E-13
 -1      2054 1.20009E-02 1.33988E-03-1.12471E-13
 -1      2055 1.19747E-02 1.30875E-03-1.12328E-13
 -1      2056 1.24279E-02 1.41121E-03-1.19280E-13
 -1      2057 1.22874E-02 1.40719E-03-1.16998E-13
 -1      2058 1.22717E-02 1.38259E-03-1.16854E-13
 -1      2059 1.27082E-02 1.35769E-03-1.23876E-13
 -1      2060 1.25671E-02 1.39375E-03-1.21574E-13
 -1      2061 1.25616E-02 1.37347E-03-1.21427E-13
 -1      2062 1.29958E-02 1.24005E-03-1.28506E-13
 -1      2063 1.28506E-02 1.30508E-03-1.26189E-13
 -1      2064 1.28552E-02 1.28602E-03-1.26042E-13
 -1      2065 1.32927E-02 1.08797E-03-1.33174E-13
 -1      2066 1.31432E-02 1.16663E-03-1.30835E-13
 -1      2067 1.31578E-02 1.14698E-03-1.30691E-13
 -1      2068 1.35950E-02 9.26971E-04-1.37880E-13
 -1      2069 1.34437E-02 1.00772E-03-1.35520E-13
 -1      2070 1.34668E-02 9.87345E-04-1.35376E-13
 -1      2071 1.38969E-02 7.69168E-04-1.42622E-13
 -1      2072 1.37465E-02 8.47651E-04-1.40248E-13
 -1      2073 1.37762E-02 8.27465E-04-1.40103E-13
 -1      2074 1.41940E-02 6.13903E-04-1.47386E-13
 -1      2075 1.40463E-02 6.91664E-04-1.45003E-13
 -1      2076 1.40804E-02 6.72740E-04-1.44858E-13
 -1      2077 1.44396E-02 4.80274E-04-1.51325E-13
 -1      2078 1.42944E-02 5.60280E-04-1.48940E-13
 -1      2079 1.43306E-02 5.42826E-04-1.48796E-13
 -1      2080 1.45305E-02 4.34846E-04-1.51904E-13
 -1      2081 1.50346E-02 2.50110E-04-1.52516E-13
 -1      2082 1.49326E-02 2.80472E-04-1.52313E-13
 -1      2083 1.48321E-02 3.14707E-04-1.52109E-13
 -1      2084 1.47342E-02 3.50960E-04-1.51908E-13
 -1      2085 1.47561E-02 3.53556E-04-1.50133E-13
 -1      2086 1.46758E-02 3.72711E-04-1.52011E-13
 -1      2087 1.45841E-02 4.11880E-04-1.51801E-13
 -1      2088 1.44841E-02 4.65277E-04-1.50247E-13
 -1      2089 1.45966E-02 4.17326E-04-1.50037E-13
 -1      2090 1.52306E-02 2.02244E-04-1.52899E-13
 -1      2091 1.51342E-02 2.23738E-04-1.52708E-13
 -1      2092 1.49606E-02 2.81789E-04-1.50529E-13
 -1      2093 1.54020E-02 1.73713E-04-1.53275E-13
 -1      2094 1.53217E-02 1.85408E-04-1.53088E-13
 -1      2095 1.51596E-02 2.24763E-04-1.50908E-13
 -1      2096 1.55135E-02 1.64685E-04-1.53632E-13
 -1      2097 1.54671E-02 1.67509E-04-1.53457E-13
 -1      2098 1.53260E-02 1.87575E-04-1.51278E-13
 -1      2099 1.55387E-02 1.66826E-04-1.53979E-13
 -1      2100 1.55379E-02 1.65759E-04-1.53806E-13
 -1      2101 1.54232E-02 1.69679E-04-1.51637E-13
 -1      2102 1.54698E-02 1.66455E-04-1.54309E-13
 -1      2103 1.55155E-02 1.68419E-04-1.54145E-13
 -1      2104 1.54251E-02 1.60597E-04-1.51981E-13
 -1      2105 1.53226E-02 1.51014E-04-1.54645E-13
 -1      2106 1.54044E-02 1.61496E-04-1.54477E-13
 -1      2107 1.53297E-02 1.44794E-04-1.52319E-13
 -1      2108 1.51306E-02 1.15337E-04-1.54969E-13
 -1      2109 1.52305E-02 1.35726E-04-1.54807E-13
 -1      2110 1.51619E-02 1.10695E-04-1.52653E-13
 -1      2111 1.49180E-02 5.95363E-05-1.55301E-13
 -1      2112 1.50250E-02 8.93874E-05-1.55134E-13
 -1      2113 1.49554E-02 5.58204E-05-1.52979E-13
 -1      2114 1.47091E-02-1.07521E-05-1.55628E-13
 -1      2115 1.48122E-02 2.55058E-05-1.55466E-13
 -1      2116 1.47387E-02-1.59602E-05-1.53306E-13
 -1      2117 1.45139E-02-8.95805E-05-1.55946E-13
 -1      2118 1.46097E-02-4.96880E-05-1.55789E-13
 -1      2119 1.45319E-02-9.73211E-05-1.53630E-13
 -1      2120 1.44013E-02 3.53738E-04-1.31665E-13
 -1      2121 1.45661E-02 2.84131E-04-1.32517E-13
 -1      2122 1.48743E-02 1.56540E-04-1.34025E-13
 -1      2123 1.48735E-02 1.37642E-04-1.34196E-13
 -1      2124 1.47429E-02 2.12410E-04-1.33557E-13
 -1      2125 1.48314E-02 1.84471E-04-1.33791E-13
 -1      2126 1.48671E-02 1.63556E-04-1.35233E-13
 -1      2127 1.40185E-02 5.24985E-04-1.30054E-13
 -1      2128 1.42081E-02 4.34800E-04-1.30910E-13
 -1      2129 1.35812E-02 7.44389E-04-1.28056E-13
 -1      2130 1.38017E-02 6.31696E-04-1.29054E-13
 -1      2131 1.38940E-02 5.52122E-04-1.30399E-13
 -1      2132 3.27203E-04-8.89615E-05-2.71579E-16
 -1      2133 3.29314E-04-1.02138E-04-2.62851E-16
 -1      2134 4.46343E-04-1.45111E-04-3.82696E-16
 -1      2135 4.40033E-04-1.09935E-04-4.05681E-16
 -1      2136 1.27080E-02 1.18860E-03-1.21809E-13
 -1      2137 1.28725E-02 1.12418E-03-1.23234E-13
 -1      2138 1.23912E-02 1.22793E-03-1.19110E-13
 -1      2139 1.25463E-02 1.22109E-03-1.20457E-13
 -1      2140 1.26119E-02 1.21622E-03-1.21185E-13
 -1      2141 1.20401E-02 1.14277E-03-1.16050E-13
 -1      2142 1.22042E-02 1.20308E-03-1.17474E-13
 -1      2143 1.16139E-02 9.19847E-04-1.13190E-13
 -1      2144 1.18065E-02 1.03085E-03-1.14406E-13
 -1      2145 1.11987E-02 6.67100E-04-1.10796E-13
 -1      2146 1.14016E-02 7.93200E-04-1.11908E-13
 -1      2147 1.07527E-02 4.21328E-04-1.08822E-13
 -1      2148 1.09498E-02 5.21715E-04-1.09537E-13
 -1      2149 1.03941E-02 2.62736E-04-1.07753E-13
 -1      2150 1.05540E-02 3.33962E-04-1.08290E-13
 -1      2151 1.01354E-02 1.52546E-04-1.06933E-13
 -1      2152 1.02418E-02 1.94552E-04-1.07219E-13
 -1      2153 1.00286E-02 9.05704E-05-1.06802E-13
 -1      2154 1.00584E-02 1.14276E-04-1.06819E-13
 -1      2155 1.00801E-02 3.98251E-05-1.06967E-13
 -1      2156 1.00360E-02 6.24073E-05-1.06778E-13
 -1      2157 1.02939E-02-4.53080E-05-1.07903E-13
 -1      2158 1.01786E-02-1.27586E-06-1.07332E-13
 -1      2159 1.06180E-02-1.73895E-04-1.09112E-13
 -1      2160 1.04426E-02-1.04745E-04-1.08506E-13
 -1      2161 1.03676E-02-5.35128E-05-1.07139E-13
 -1      2162 1.10764E-02-4.08448E-04-1.11468E-13
 -1      2163 1.08633E-02-2.92426E-04-1.10313E-13
 -1      2164 1.15309E-02-6.81355E-04-1.14623E-13
 -1      2165 1.13334E-02-5.60422E-04-1.13198E-13
 -1      2166 1.19007E-02-8.70549E-04-1.17418E-13
 -1      2167 1.17256E-02-7.86202E-04-1.16084E-13
 -1      2168 1.22472E-02-9.73052E-04-1.20264E-13
 -1      2169 1.20907E-02-9.38270E-04-1.18868E-13
 -1      2170 1.26129E-02-9.41560E-04-1.23444E-13
 -1      2171 1.24582E-02-9.73304E-04-1.22128E-13
 -1      2172 1.29412E-02-8.07954E-04-1.25950E-13
 -1      2173 1.27757E-02-8.87307E-04-1.24698E-13
 -1      2174 1.26688E-02-9.23247E-04-1.24380E-13
 -1      2175 1.33746E-02-5.78161E-04-1.28498E-13
 -1      2176 1.31832E-02-6.85697E-04-1.27443E-13
 -1      2177 1.37989E-02-3.49178E-04-1.30448E-13
 -1      2178 1.35983E-02-4.58789E-04-1.29553E-13
 -1      2179 1.42140E-02-1.35407E-04-1.32255E-13
 -1      2180 1.40175E-02-2.30520E-04-1.31490E-13
 -1      2181 1.45885E-02 2.06053E-05-1.33496E-13
 -1      2182 1.44324E-02-3.60729E-05-1.33107E-13
 -1      2183 1.48148E-02 1.00095E-04-1.33820E-13
 -1      2184 1.47244E-02 6.58390E-05-1.33581E-13
 -1      2185 1.31031E-02 1.00909E-03-1.25166E-13
 -1      2186 1.33053E-02 8.91559E-04-1.26562E-13
 -1      2187 1.34280E-02 8.06774E-04-1.27898E-13
 -1      2188 6.07925E-04-2.98117E-04-4.06210E-16
 -1      2189 1.15274E-02 8.48398E-04-1.12004E-13
 -1      2190 1.29690E-02 1.07277E-03-1.24466E-13
 -1      2191 6.63646E-04-2.92405E-04-5.44798E-16
 -1      2192 1.46681E-02 2.27024E-04-1.33956E-13
 -1      2193 1.47530E-02 1.96070E-04-1.35397E-13
 -1      2194 1.45850E-02 2.45460E-04-1.34354E-13
 -1      2195 1.42882E-02 3.71169E-04-1.32158E-13
 -1      2196 1.43975E-02-1.47100E-04-1.55372E-13
 -1      2197 1.48572E-02 1.29879E-04-1.35091E-13
 -1      2198 1.46580E-02 6.42564E-05-1.34627E-13
 -1      2199 1.43155E-02-5.89246E-05-1.33679E-13
 -1      2200 1.38848E-02-2.65179E-04-1.31782E-13
 -1      2201 1.30265E-02-7.49812E-04-1.27129E-13
 -1      2202 1.23439E-02-9.86651E-04-1.21259E-13
 -1      2203 1.20046E-02-9.12060E-04-1.17946E-13
 -1      2204 1.16518E-02-7.36006E-04-1.15037E-13
 -1      2205 1.07421E-02-2.15432E-04-1.08929E-13
 -1      2206 1.01227E-02 2.98243E-05-1.06178E-13
 -1      2207 1.00231E-02 7.55083E-05-1.05843E-13
 -1      2208 1.00916E-02 1.20651E-04-1.05981E-13
 -1      2209 1.03190E-02 2.05024E-04-1.06627E-13
 -1      2210 1.06640E-02 3.50779E-04-1.07689E-13
 -1      2211 1.10890E-02 5.76271E-04-1.09470E-13
 -1      2212 1.23017E-02 1.22927E-03-1.18198E-13
 -1      2213 1.19407E-02 1.09455E-03-1.14922E-13
 -1      2214 1.12258E-02-4.77237E-04-1.11851E-13
 -1      2215 1.11168E-02-4.06618E-04-1.10506E-13
 -1      2216 1.13524E-02-5.48539E-04-1.12229E-13
 -1      2217 1.34585E-02-5.01915E-04-1.29681E-13
 -1      2218 1.01665E-03 3.99797E-04-9.86407E-16
 -1      2219 8.72173E-04 3.63411E-04-7.24396E-16
 -1      2220 5.47758E-04-5.52941E-05-6.02003E-16
 -1      2221 5.48796E-04-7.20091E-05-5.99808E-16
 -1      2222 5.50216E-04-8.93304E-05-5.96108E-16
 -1      2223 5.52086E-04-1.07305E-04-5.90199E-16
 -1      2224 6.65257E-04-9.54874E-05-8.09194E-16
 -1      2225 5.46374E-04 8.85583E-06-5.96826E-16
 -1      2226 5.46354E-04-6.98004E-06-6.00052E-16
 -1      2227 5.47131E-04 4.08637E-05-5.86960E-16
 -1      2228 5.46630E-04 2.47907E-05-5.92679E-16
 -1      2229 6.61305E-04 1.99296E-05-8.05007E-16
 -1      2230 5.48963E-04 7.34823E-05-5.71402E-16
 -1      2231 5.47897E-04 5.69914E-05-5.80197E-16
 -1      2232 6.62635E-04 5.77826E-05-7.90573E-16
 -1      2233 5.52363E-04 1.08952E-04-5.47956E-16
 -1      2234 5.50435E-04 9.08784E-05-5.60763E-16
 -1      2235 6.65504E-04 9.72485E-05-7.68062E-16
 -1      2236 5.58253E-04 1.48283E-04-5.14196E-16
 -1      2237 5.54929E-04 1.28060E-04-5.32669E-16
 -1      2238 6.70605E-04 1.40016E-04-7.35116E-16
 -1      2239 5.68596E-04 1.93880E-04-4.65069E-16
 -1      2240 5.62750E-04 1.70163E-04-4.92133E-16
 -1      2241 6.79269E-04 1.87558E-04-6.88360E-16
 -1      2242 1.30212E-03 4.56744E-04-1.64421E-15
 -1      2243 1.15979E-03 4.30799E-04-1.29260E-15
 -1      2244 1.07182E-03 3.81318E-04-1.20224E-15
 -1      2245 9.15237E-04-3.46360E-04-1.03858E-15
 -1      2246 1.05934E-03-3.79687E-04-1.36188E-15
 -1      2247 1.14490E-02 7.83605E-04-1.10785E-13
 -1      2248 1.16322E-02 9.06149E-04-1.12061E-13
 -1      2249 1.20259E-03-4.08070E-04-1.73161E-15
 -1      2250 1.34540E-03-4.31950E-04-2.14782E-15
 -1      2251 1.11703E-03-3.60510E-04-1.58867E-15
 -1      2252 1.48758E-03-4.52166E-04-2.60982E-15
 -1      2253 1.62937E-03-4.69012E-04-3.11799E-15
 -1      2254 1.40334E-03-4.07268E-04-2.42852E-15
 -1      2255 1.77080E-03-4.83153E-04-3.67165E-15
 -1      2256 1.91198E-03-4.94800E-04-4.27058E-15
 -1      2257 1.68848E-03-4.40518E-04-3.44997E-15
 -1      2258 2.05301E-03-5.04452E-04-4.91388E-15
 -1      2259 2.19394E-03-5.12282E-04-5.60179E-15
 -1      2260 1.97267E-03-4.63580E-04-4.65119E-15
 -1      2261 2.33484E-03-5.18653E-04-6.33297E-15
 -1      2262 2.47573E-03-5.23708E-04-7.10724E-15
 -1      2263 2.25631E-03-4.79098E-04-6.02772E-15
 -1      2264 2.61668E-03-5.27709E-04-7.92418E-15
 -1      2265 2.75767E-03-5.30771E-04-8.78285E-15
 -1      2266 2.53972E-03-4.89110E-04-7.57611E-15
 -1      2267 2.89877E-03-5.33086E-04-9.68258E-15
 -1      2268 3.03995E-03-5.34743E-04-1.06224E-14
 -1      2269 2.82314E-03-4.95165E-04-9.29180E-15
 -1      2270 3.18125E-03-5.35879E-04-1.16013E-14
 -1      2271 3.32264E-03-5.36563E-04-1.26196E-14
 -1      2272 3.10671E-03-4.98429E-04-1.11684E-14
 -1      2273 3.46416E-03-5.36891E-04-1.36764E-14
 -1      2274 3.60577E-03-5.36913E-04-1.47713E-14
 -1      2275 3.39050E-03-4.99761E-04-1.32017E-14
 -1      2276 3.74751E-03-5.36696E-04-1.59025E-14
 -1      2277 3.88933E-03-5.36275E-04-1.70702E-14
 -1      2278 3.67455E-03-4.99782E-04-1.53867E-14
 -1      2279 4.03127E-03-5.35693E-04-1.82734E-14
 -1      2280 4.17330E-03-5.34972E-04-1.95128E-14
 -1      2281 3.95887E-03-4.98926E-04-1.77179E-14
 -1      2282 4.31542E-03-5.34138E-04-2.07870E-14
 -1      2283 4.45762E-03-5.33205E-04-2.20942E-14
 -1      2284 4.24344E-03-4.97479E-04-2.01913E-14
 -1      2285 4.59991E-03-5.32183E-04-2.34341E-14
 -1      2286 4.74228E-03-5.31079E-04-2.48073E-14
 -1      2287 4.52825E-03-4.95611E-04-2.28007E-14
 -1      2288 4.88473E-03-5.29893E-04-2.62135E-14
 -1      2289 5.02724E-03-5.28627E-04-2.76510E-14
 -1      2290 4.81329E-03-4.93408E-04-2.55417E-14
 -1      2291 5.16984E-03-5.27272E-04-2.91199E-14
 -1      2292 5.31251E-03-5.25825E-04-3.06219E-14
 -1      2293 5.09856E-03-4.90883E-04-2.84119E-14
 -1      2294 5.45527E-03-5.24272E-04-3.21549E-14
 -1      2295 5.59810E-03-5.22606E-04-3.37174E-14
 -1      2296 5.38404E-03-4.88000E-04-3.14087E-14
 -1      2297 5.74102E-03-5.20810E-04-3.53108E-14
 -1      2298 5.88404E-03-5.18876E-04-3.69341E-14
 -1      2299 5.66977E-03-4.84683E-04-3.45301E-14
 -1      2300 6.02716E-03-5.16781E-04-3.85857E-14
 -1      2301 6.17041E-03-5.14521E-04-4.02666E-14
 -1      2302 5.95577E-03-4.80829E-04-3.77706E-14
 -1      2303 6.31377E-03-5.12073E-04-4.19756E-14
 -1      2304 6.45729E-03-5.09432E-04-4.37115E-14
 -1      2305 6.24211E-03-4.76324E-04-4.11263E-14
 -1      2306 6.60097E-03-5.06578E-04-4.54746E-14
 -1      2307 6.74484E-03-5.03515E-04-4.72624E-14
 -1      2308 6.52885E-03-4.71055E-04-4.45927E-14
 -1      2309 6.88891E-03-5.00227E-04-4.90762E-14
 -1      2310 7.03323E-03-4.96725E-04-5.09150E-14
 -1      2311 6.81611E-03-4.64936E-04-4.81627E-14
 -1      2312 7.17780E-03-4.93009E-04-5.27774E-14
 -1      2313 7.32269E-03-4.89102E-04-5.46632E-14
 -1      2314 7.10403E-03-4.57931E-04-5.18319E-14
 -1      2315 7.46790E-03-4.85027E-04-5.65724E-14
 -1      2316 7.61351E-03-4.80825E-04-5.85046E-14
 -1      2317 7.39277E-03-4.50098E-04-5.55968E-14
 -1      2318 7.75951E-03-4.76551E-04-6.04559E-14
 -1      2319 7.90602E-03-4.72276E-04-6.24285E-14
 -1      2320 7.68257E-03-4.41641E-04-5.94501E-14
 -1      2321 8.05301E-03-4.68104E-04-6.44222E-14
 -1      2322 8.20062E-03-4.64142E-04-6.64366E-14
 -1      2323 7.97368E-03-4.32980E-04-6.33887E-14
 -1      2324 8.34883E-03-4.60561E-04-6.84698E-14
 -1      2325 8.49778E-03-4.57522E-04-7.05203E-14
 -1      2326 8.26647E-03-4.24849E-04-6.74093E-14
 -1      2327 8.64748E-03-4.55282E-04-7.25877E-14
 -1      2328 8.79806E-03-4.54071E-04-7.46706E-14
 -1      2329 8.56136E-03-4.18405E-04-7.15034E-14
 -1      2330 8.94955E-03-4.54248E-04-7.67688E-14
 -1      2331 9.10208E-03-4.56138E-04-7.88816E-14
 -1      2332 8.85894E-03-4.15367E-04-7.56610E-14
 -1      2333 9.25573E-03-4.60204E-04-8.10060E-14
 -1      2334 9.41058E-03-4.66884E-04-8.31439E-14
 -1      2335 9.16000E-03-4.18154E-04-7.98762E-14
 -1      2336 9.56682E-03-4.76726E-04-8.52957E-14
 -1      2337 9.72438E-03-4.90292E-04-8.74588E-14
 -1      2338 9.46559E-03-4.30000E-04-8.41458E-14
 -1      2339 9.88362E-03-5.08147E-04-8.96341E-14
 -1      2340 1.00442E-02-5.30936E-04-9.18205E-14
 -1      2341 9.77709E-03-4.54988E-04-8.84636E-14
 -1      2342 1.02068E-02-5.59103E-04-9.40172E-14
 -1      2343 1.03706E-02-5.93254E-04-9.62240E-14
 -1      2344 1.00960E-02-4.97850E-04-9.28296E-14
 -1      2345 1.05362E-02-6.33482E-04-9.84410E-14
 -1      2346 1.07026E-02-6.80009E-04-1.00667E-13
 -1      2347 1.04237E-02-5.63328E-04-9.72342E-14
 -1      2348 1.08703E-02-7.32268E-04-1.02901E-13
 -1      2349 1.10376E-02-7.89498E-04-1.05144E-13
 -1      2350 1.07600E-02-6.54576E-04-1.01677E-13
 -1      2351 1.12047E-02-8.50155E-04-1.07397E-13
 -1      2352 1.13699E-02-9.11728E-04-1.09660E-13
 -1      2353 1.11019E-02-7.69956E-04-1.06156E-13
 -1      2354 1.15328E-02-9.71530E-04-1.11936E-13
 -1      2355 1.16927E-02-1.02551E-03-1.14219E-13
 -1      2356 1.14421E-02-8.97885E-04-1.10676E-13
 -1      2357 1.18488E-02-1.07038E-03-1.16513E-13
 -1      2358 1.20022E-02-1.10160E-03-1.18817E-13
 -1      2359 1.17722E-02-1.01341E-03-1.15241E-13
 -1      2360 1.21520E-02-1.11682E-03-1.21133E-13
 -1      2361 1.23016E-02-1.11354E-03-1.23456E-13
 -1      2362 1.20878E-02-1.08223E-03-1.19846E-13
 -1      2363 1.24499E-02-1.09143E-03-1.25785E-13
 -1      2364 1.26006E-02-1.05225E-03-1.28123E-13
 -1      2365 1.23950E-02-1.07627E-03-1.24488E-13
 -1      2366 1.27526E-02-9.97674E-04-1.30467E-13
 -1      2367 1.29073E-02-9.31822E-04-1.32817E-13
 -1      2368 1.27063E-02-9.92305E-04-1.29160E-13
 -1      2369 1.30640E-02-8.57358E-04-1.35173E-13
 -1      2370 1.32218E-02-7.78042E-04-1.37532E-13
 -1      2371 1.30283E-02-8.53597E-04-1.33854E-13
 -1      2372 1.33804E-02-6.95988E-04-1.39897E-13
 -1      2373 1.35382E-02-6.13143E-04-1.42265E-13
 -1      2374 1.33575E-02-6.90879E-04-1.38573E-13
 -1      2375 1.36950E-02-5.30561E-04-1.44641E-13
 -1      2376 1.38496E-02-4.48279E-04-1.47022E-13
 -1      2377 1.36845E-02-5.25464E-04-1.43312E-13
 -1      2378 1.86532E-03 5.25263E-04-3.49727E-15
 -1      2379 1.72508E-03 5.12512E-04-2.96762E-15
 -1      2380 2.14540E-03 5.44544E-04-4.68779E-15
 -1      2381 2.00541E-03 5.35880E-04-4.07076E-15
 -1      2382 1.92462E-03 4.94645E-04-3.88361E-15
 -1      2383 2.42546E-03 5.57329E-04-6.04824E-15
 -1      2384 2.28542E-03 5.51643E-04-5.34691E-15
 -1      2385 2.20672E-03 5.11906E-04-5.12584E-15
 -1      2386 2.70586E-03 5.65422E-04-7.57739E-15
 -1      2387 2.56561E-03 5.61881E-04-6.79182E-15
 -1      2388 2.48866E-03 5.23212E-04-6.53640E-15
 -1      2389 2.98682E-03 5.70175E-04-9.27084E-15
 -1      2390 2.84628E-03 5.68154E-04-8.40326E-15
 -1      2391 2.77075E-03 5.30230E-04-8.11296E-15
 -1      2392 3.26841E-03 5.72589E-04-1.11245E-14
 -1      2393 3.12754E-03 5.71627E-04-1.01783E-14
 -1      2394 3.05315E-03 5.34211E-04-9.85224E-15
 -1      2395 3.55063E-03 5.73396E-04-1.31349E-14
 -1      2396 3.40945E-03 5.73159E-04-1.21100E-14
 -1      2397 3.33595E-03 5.36080E-04-1.17499E-14
 -1      2398 3.83345E-03 5.73115E-04-1.52977E-14
 -1      2399 3.69197E-03 5.73367E-04-1.41975E-14
 -1      2400 3.61917E-03 5.36507E-04-1.38022E-14
 -1      2401 4.11682E-03 5.72102E-04-1.76087E-14
 -1      2402 3.97507E-03 5.72684E-04-1.64349E-14
 -1      2403 3.90281E-03 5.35965E-04-1.60054E-14
 -1      2404 4.40066E-03 5.70581E-04-2.00654E-14
 -1      2405 4.25869E-03 5.71395E-04-1.88192E-14
 -1      2406 4.18684E-03 5.34770E-04-1.83556E-14
 -1      2407 4.68494E-03 5.68678E-04-2.26647E-14
 -1      2408 4.54275E-03 5.69672E-04-2.13474E-14
 -1      2409 4.47121E-03 5.33118E-04-2.08495E-14
 -1      2410 4.96961E-03 5.66439E-04-2.53996E-14
 -1      2411 4.82723E-03 5.67598E-04-2.40156E-14
 -1      2412 4.75591E-03 5.31110E-04-2.34835E-14
 -1      2413 5.25465E-03 5.63850E-04-2.82657E-14
 -1      2414 5.11208E-03 5.65189E-04-2.68168E-14
 -1      2415 5.04091E-03 5.28775E-04-2.62519E-14
 -1      2416 5.54006E-03 5.60853E-04-3.12555E-14
 -1      2417 5.39731E-03 5.62405E-04-2.97449E-14
 -1      2418 5.32621E-03 5.26082E-04-2.91486E-14
 -1      2419 5.82589E-03 5.57353E-04-3.43655E-14
 -1      2420 5.68292E-03 5.59170E-04-3.27962E-14
 -1      2421 5.61182E-03 5.22962E-04-3.21694E-14
 -1      2422 6.11221E-03 5.53237E-04-3.75905E-14
 -1      2423 5.96898E-03 5.55376E-04-3.59642E-14
 -1      2424 5.89779E-03 5.19312E-04-3.53084E-14
 -1      2425 6.39915E-03 5.48382E-04-4.09227E-14
 -1      2426 6.25559E-03 5.50905E-04-3.92433E-14
 -1      2427 6.18417E-03 5.15012E-04-3.85600E-14
 -1      2428 6.68686E-03 5.42676E-04-4.43589E-14
 -1      2429 6.54289E-03 5.45637E-04-4.26276E-14
 -1      2430 6.47108E-03 5.09936E-04-4.19181E-14
 -1      2431 6.97557E-03 5.36041E-04-4.78921E-14
 -1      2432 6.83106E-03 5.39473E-04-4.61133E-14
 -1      2433 6.75865E-03 5.03973E-04-4.53778E-14
 -1      2434 7.26558E-03 5.28467E-04-5.15145E-14
 -1      2435 7.12038E-03 5.32364E-04-4.96923E-14
 -1      2436 7.04707E-03 4.97054E-04-4.89322E-14
 -1      2437 7.55724E-03 5.20059E-04-5.52286E-14
 -1      2438 7.41116E-03 5.24350E-04-5.33605E-14
 -1      2439 7.33657E-03 4.89182E-04-5.25791E-14
 -1      2440 7.85101E-03 5.11107E-04-5.90182E-14
 -1      2441 7.70381E-03 5.15620E-04-5.71142E-14
 -1      2442 7.62742E-03 4.80491E-04-5.63117E-14
 -1      2443 8.14738E-03 5.02182E-04-6.28849E-14
 -1      2444 7.99881E-03 5.06590E-04-6.09440E-14
 -1      2445 7.91998E-03 4.71313E-04-6.01243E-14
 -1      2446 8.44697E-03 4.94266E-04-6.68191E-14
 -1      2447 8.29670E-03 4.98018E-04-6.48426E-14
 -1      2448 8.21464E-03 4.62279E-04-6.40080E-14
 -1      2449 8.75043E-03 4.88925E-04-7.08155E-14
 -1      2450 8.59814E-03 4.91155E-04-6.88094E-14
 -1      2451 8.51190E-03 4.54455E-04-6.79594E-14
 -1      2452 9.05851E-03 4.88526E-04-7.48731E-14
 -1      2453 8.90382E-03 4.87936E-04-7.28363E-14
 -1      2454 8.81234E-03 4.49512E-04-7.19729E-14
 -1      2455 9.37198E-03 4.96476E-04-7.89916E-14
 -1      2456 9.21451E-03 4.91218E-04-7.69244E-14
 -1      2457 9.11668E-03 4.49945E-04-7.60482E-14
 -1      2458 9.69167E-03 5.17423E-04-8.31642E-14
 -1      2459 9.53102E-03 5.05004E-04-8.10711E-14
 -1      2460 9.42587E-03 4.59302E-04-8.01817E-14
 -1      2461 1.00183E-02 5.57273E-04-8.73896E-14
 -1      2462 9.85417E-03 5.34587E-04-8.52719E-14
 -1      2463 9.74114E-03 4.82382E-04-8.43699E-14
 -1      2464 1.03525E-02 6.22725E-04-9.16620E-14
 -1      2465 1.01846E-02 5.86364E-04-8.95207E-14
 -1      2466 1.00641E-02 5.25257E-04-8.86097E-14
 -1      2467 1.06938E-02 7.19811E-04-9.59683E-14
 -1      2468 1.05226E-02 6.67003E-04-9.38104E-14
 -1      2469 1.03964E-02 5.94877E-04-9.28913E-14
 -1      2470 1.10400E-02 8.50654E-04-1.00311E-13
 -1      2471 1.08669E-02 7.81095E-04-9.81345E-14
 -1      2472 1.07391E-02 6.97580E-04-9.72076E-14
 -1      2473 1.13856E-02 1.00829E-03-1.04693E-13
 -1      2474 1.12137E-02 9.27151E-04-1.02496E-13
 -1      2475 1.10905E-02 8.35764E-04-1.01559E-13
 -1      2476 1.17225E-02 1.17046E-03-1.09126E-13
 -1      2477 1.15558E-02 1.09087E-03-1.06903E-13
 -1      2478 1.14443E-02 1.00107E-03-1.05952E-13
 -1      2479 1.20433E-02 1.30051E-03-1.13612E-13
 -1      2480 1.18847E-02 1.24242E-03-1.11362E-13
 -1      2481 1.17898E-02 1.16768E-03-1.10398E-13
 -1      2482 1.23495E-02 1.35864E-03-1.18151E-13
 -1      2483 1.21969E-02 1.34058E-03-1.15878E-13
 -1      2484 1.21183E-02 1.29189E-03-1.14897E-13
 -1      2485 1.26520E-02 1.32581E-03-1.22738E-13
 -1      2486 1.24996E-02 1.35332E-03-1.20438E-13
 -1      2487 1.24335E-02 1.33031E-03-1.19450E-13
 -1      2488 1.29623E-02 1.21602E-03-1.27363E-13
 -1      2489 1.28055E-02 1.27837E-03-1.25047E-13
 -1      2490 1.27501E-02 1.27019E-03-1.24049E-13
 -1      2491 1.32823E-02 1.06387E-03-1.32028E-13
 -1      2492 1.31215E-02 1.14284E-03-1.29692E-13
 -1      2493 1.30787E-02 1.13776E-03-1.28687E-13
 -1      2494 1.36053E-02 9.01406E-04-1.36730E-13
 -1      2495 1.34443E-02 9.82495E-04-1.34373E-13
 -1      2496 1.34162E-02 9.75228E-04-1.33367E-13
 -1      2497 1.39232E-02 7.44778E-04-1.41465E-13
 -1      2498 1.37656E-02 8.22052E-04-1.39092E-13
 -1      2499 1.37516E-02 8.13332E-04-1.38082E-13
 -1      2500 1.42308E-02 5.94528E-04-1.46228E-13
 -1      2501 1.40787E-02 6.69388E-04-1.43844E-13
 -1      2502 1.40759E-02 6.62580E-04-1.42828E-13
 -1      2503 1.43831E-02 5.17800E-04-1.48691E-13
 -1      2504 1.50885E-02 2.36022E-04-1.48918E-13
 -1      2505 1.49893E-02 2.67148E-04-1.48732E-13
 -1      2506 1.52513E-02 1.91139E-04-1.49286E-13
 -1      2507 1.51778E-02 2.10742E-04-1.49103E-13
 -1      2508 1.50197E-02 2.38571E-04-1.46930E-13
 -1      2509 1.46773E-02 3.84834E-04-1.48156E-13
 -1      2510 1.45754E-02 4.28679E-04-1.47957E-13
 -1      2511 1.48855E-02 3.03217E-04-1.48541E-13
 -1      2512 1.47812E-02 3.42255E-04-1.48349E-13
 -1      2513 1.45955E-02 4.08314E-04-1.46176E-13
 -1      2514 1.48114E-02 3.14893E-04-1.46556E-13
 -1      2515 1.53332E-02 1.67227E-04-1.49644E-13
 -1      2516 1.53048E-02 1.77799E-04-1.49466E-13
 -1      2517 1.51791E-02 1.88852E-04-1.47297E-13
 -1      2518 1.53084E-02 1.49536E-04-1.49990E-13
 -1      2519 1.53345E-02 1.59411E-04-1.49819E-13
 -1      2520 1.52422E-02 1.61377E-04-1.47654E-13
 -1      2521 1.51828E-02 1.19950E-04-1.50332E-13
 -1      2522 1.52565E-02 1.38005E-04-1.50159E-13
 -1      2523 1.51855E-02 1.36371E-04-1.48002E-13
 -1      2524 1.49932E-02 6.78314E-05-1.50660E-13
 -1      2525 1.50934E-02 9.69265E-05-1.50496E-13
 -1      2526 1.50278E-02 9.13979E-05-1.48338E-13
 -1      2527 1.47732E-02-6.38366E-06-1.50988E-13
 -1      2528 1.48845E-02 3.27309E-05-1.50825E-13
 -1      2529 1.48140E-02 1.91610E-05-1.48671E-13
 -1      2530 1.45548E-02-9.35455E-05-1.51315E-13
 -1      2531 1.46626E-02-4.93107E-05-1.51151E-13
 -1      2532 1.45847E-02-7.40026E-05-1.48999E-13
 -1      2533 1.43525E-02-1.85016E-04-1.51635E-13
 -1      2534 1.44514E-02-1.39476E-04-1.51472E-13
 -1      2535 1.43680E-02-1.75183E-04-1.49321E-13
 -1      2536 1.42100E-02 3.85842E-04-1.32943E-13
 -1      2537 1.43855E-02 3.15571E-04-1.33703E-13
 -1      2538 1.42700E-02-2.20487E-04-1.53216E-13
 -1      2539 1.48895E-02 1.39396E-04-1.36612E-13
 -1      2540 1.48261E-02 1.23776E-04-1.36234E-13
 -1      2541 1.58456E-03 4.97078E-04-2.48221E-15
 -1      2542 1.44361E-03 4.78749E-04-2.04081E-15
 -1      2543 1.64188E-03 4.69223E-04-2.81378E-15
 -1      2544 1.48611E-02 1.66581E-04-1.36465E-13
 -1      2545 1.48995E-02 1.57012E-04-1.36699E-13
 -1      2546 1.38015E-02 5.83881E-04-1.30884E-13
 -1      2547 1.39927E-02 4.85473E-04-1.31888E-13
 -1      2548 5.88547E-04-2.37979E-04-5.01200E-16
 -1      2549 7.81344E-04-3.04836E-04-7.93717E-16
 -1      2550 8.40806E-04-2.93587E-04-9.65997E-16
 -1      2551 5.78975E-04-2.10154E-04-5.30161E-16
 -1      2552 1.47375E-02 9.88027E-05-1.36142E-13
 -1      2553 1.46164E-02 6.72589E-05-1.36051E-13
 -1      2554 1.48053E-02 1.16975E-04-1.37662E-13
 -1      2555 1.24223E-02-9.90359E-04-1.22330E-13
 -1      2556 1.22570E-02-9.90917E-04-1.20464E-13
 -1      2557 1.01507E-02 2.60654E-05-1.04896E-13
 -1      2558 1.00632E-02 4.93652E-05-1.04539E-13
 -1      2559 5.46568E-04-2.28983E-05-6.02139E-16
 -1      2560 5.47026E-04-3.89375E-05-6.02857E-16
 -1      2561 6.62484E-04-5.58115E-05-8.14832E-16
 -1      2562 6.61252E-04-1.77035E-05-8.13233E-16
 -1      2563 1.18334E-02 1.03110E-03-1.13615E-13
 -1      2564 1.20250E-02 1.14133E-03-1.15253E-13
 -1      2565 1.25343E-02 1.23887E-03-1.20535E-13
 -1      2566 1.26612E-02 1.20681E-03-1.21885E-13
 -1      2567 1.28311E-02 1.14055E-03-1.23622E-13
 -1      2568 1.30287E-02 1.03343E-03-1.25554E-13
 -1      2569 1.22299E-02 1.22212E-03-1.17261E-13
 -1      2570 1.23776E-02 1.24638E-03-1.18894E-13
 -1      2571 1.24433E-02 1.25161E-03-1.19591E-13
 -1      2572 1.09935E-02 5.02267E-04-1.08061E-13
 -1      2573 1.12185E-02 6.37201E-04-1.09312E-13
 -1      2574 1.05587E-02 2.83904E-04-1.06370E-13
 -1      2575 1.07340E-02 3.64204E-04-1.06896E-13
 -1      2576 1.02510E-02 1.64321E-04-1.05305E-13
 -1      2577 1.03953E-02 2.16087E-04-1.05837E-13
 -1      2578 1.04585E-02 2.37259E-04-1.05045E-13
 -1      2579 1.00484E-02 9.89043E-05-1.04681E-13
 -1      2580 1.01203E-02 1.18947E-04-1.04794E-13
 -1      2581 1.00156E-02 7.17008E-05-1.04624E-13
 -1      2582 1.00149E-02 8.22287E-05-1.04651E-13
 -1      2583 1.00173E-02 8.72167E-05-1.03464E-13
 -1      2584 1.03796E-02-5.07395E-05-1.06081E-13
 -1      2585 1.02528E-02-6.89179E-06-1.05488E-13
 -1      2586 1.01574E-02 1.67111E-05-1.03844E-13
 -1      2587 1.35465E-02-4.25035E-04-1.31104E-13
 -1      2588 1.33525E-02-5.41262E-04-1.30045E-13
 -1      2589 1.08456E-02-2.58759E-04-1.08547E-13
 -1      2590 1.06266E-02-1.53401E-04-1.07359E-13
 -1      2591 1.17561E-02-7.93823E-04-1.15476E-13
 -1      2592 1.15903E-02-6.93428E-04-1.14018E-13
 -1      2593 1.20641E-02-9.45230E-04-1.18370E-13
 -1      2594 1.19197E-02-8.79491E-04-1.16922E-13
 -1      2595 1.18345E-02-8.44207E-04-1.15899E-13
 -1      2596 1.27280E-02-8.95952E-04-1.25438E-13
 -1      2597 1.26004E-02-9.49508E-04-1.24182E-13
 -1      2598 1.31213E-02-6.79411E-04-1.28528E-13
 -1      2599 1.29196E-02-7.99900E-04-1.27030E-13
 -1      2600 1.39508E-02-2.05706E-04-1.33195E-13
 -1      2601 1.37477E-02-3.13114E-04-1.32150E-13
 -1      2602 1.36407E-02-3.64575E-04-1.32514E-13
 -1      2603 1.44028E-02-6.80123E-06-1.35284E-13
 -1      2604 1.41971E-02-8.88833E-05-1.34425E-13
 -1      2605 7.57927E-04 3.34206E-04-5.37697E-16
 -1      2606 6.11505E-04 2.84845E-04-3.56323E-16
 -1      2607 5.84777E-04 2.58075E-04-3.68222E-16
 -1      2608 8.13748E-04 3.22878E-04-6.99500E-16
 -1      2609 1.33170E-02 8.63784E-04-1.27879E-13
 -1      2610 1.35530E-02 7.21341E-04-1.29379E-13
 -1      2611 1.36781E-02 6.53296E-04-1.30863E-13
 -1      2612 1.20094E-02 1.14153E-03-1.14628E-13
 -1      2613 1.21173E-02 1.18869E-03-1.15941E-13
 -1      2614 1.21927E-02 1.22156E-03-1.16632E-13
 -1      2615 6.70190E-04-1.37959E-04-7.94097E-16
 -1      2616 5.54569E-04-1.26206E-04-5.81783E-16
 -1      2617 5.57783E-04-1.46180E-04-5.70494E-16
 -1      2618 1.35785E-03 4.32728E-04-1.91934E-15
 -1      2619 5.72271E-04 2.27877E-04-4.09517E-16
 -1      2620 1.31610E-02 9.58005E-04-1.27021E-13
 -1      2621 1.32940E-02 8.83567E-04-1.28498E-13
 -1      2622 1.30332E-02 1.04057E-03-1.26169E-13
 -1      2623 1.17345E-02 9.73343E-04-1.12387E-13
 -1      2624 1.45183E-02 2.68338E-04-1.35140E-13
 -1      2625 1.21594E-02-9.78347E-04-1.19435E-13
 -1      2626 1.40738E-02-1.42267E-04-1.34794E-13
 -1      2627 1.43877E-02 5.16602E-04-1.47675E-13
 -1      2628 1.44443E-02 4.89535E-04-1.47568E-13
 -1      2629 1.32310E-02-6.08768E-04-1.29947E-13
 -1      2630 1.41209E-02 4.26703E-04-1.33429E-13
 -1      2631 1.40828E-02-3.22276E-04-1.50779E-13
 -1      2632 1.42446E-02-2.38530E-04-1.51350E-13
 -1      2633 1.41582E-02-2.81883E-04-1.49197E-13
 -1      2634 1.39513E-02-3.93919E-04-1.48633E-13
 -1      2635 1.49187E-02 1.48805E-04-1.37844E-13
 -1      2636 6.89555E-04 2.51230E-04-5.94454E-16
 -1      2637 1.48247E-02 1.78558E-04-1.36862E-13
 -1      2638 1.48859E-02 1.71223E-04-1.38329E-13
 -1      2639 1.47777E-02 1.92534E-04-1.37259E-13
 -1      2640 1.24947E-02-9.79439E-04-1.23385E-13
 -1      2641 5.64285E-04-1.64947E-04-5.63311E-16
 -1      2642 5.69724E-04-1.88015E-04-5.44906E-16
 -1      2643 6.97845E-04-2.27760E-04-7.49265E-16
 -1      2644 6.80701E-04-1.81664E-04-7.74568E-16
 -1      2645 1.09699E-02-3.27057E-04-1.08924E-13
 -1      2646 1.08291E-02-2.66109E-04-1.07349E-13
 -1      2647 1.10812E-02-3.99270E-04-1.09300E-13
 -1      2648 1.00154E-02 5.92944E-05-1.03345E-13
 -1      2649 1.01700E-02 1.33592E-04-1.04003E-13
 -1      2650 1.27450E-02 1.18044E-03-1.22966E-13
 -1      2651 1.13269E-02 7.05996E-04-1.09366E-13
 -1      2652 1.45238E-02 3.62651E-05-1.36797E-13
 -1      2653 1.14668E-02-6.21375E-04-1.12666E-13
 -1      2654 1.13435E-02-5.54725E-04-1.11320E-13
 -1      2655 1.15566E-02-6.88680E-04-1.13102E-13
 -1      2656 1.08608E-02 4.25352E-04-1.06737E-13
 -1      2657 1.09693E-02 4.91521E-04-1.06575E-13
 -1      2658 1.07341E-02 3.64981E-04-1.05416E-13
 -1      2659 1.04716E-02-9.12582E-05-1.05700E-13
 -1      2660 1.03338E-02-5.23848E-05-1.04050E-13
 -1      2661 1.05513E-02-1.39643E-04-1.05317E-13
 -1      2662 1.28344E-02-8.42096E-04-1.26832E-13
 -1      2663 1.43584E-02 5.24135E-04-1.45599E-13
 -1      2664 1.39496E-02-3.91187E-04-1.47301E-13
 -1      2665 7.80168E-04 7.73332E-05-1.02509E-15
 -1      2666 7.78905E-04 5.54719E-05-1.03642E-15
 -1      2667 7.78057E-04 3.35603E-05-1.04560E-15
 -1      2668 7.77634E-04 1.18965E-05-1.05261E-15
 -1      2669 8.96466E-04 4.96819E-05-1.31729E-15
 -1      2670 7.91526E-04 1.73128E-04-9.49788E-16
 -1      2671 7.87516E-04 1.47714E-04-9.73817E-16
 -1      2672 8.03402E-04 2.28325E-04-8.88056E-16
 -1      2673 7.96773E-04 1.99934E-04-9.21721E-16
 -1      2674 9.14828E-04 2.07827E-04-1.19119E-15
 -1      2675 1.12983E-03 3.61957E-04-1.42876E-15
 -1      2676 9.86232E-04 3.32887E-04-1.10747E-15
 -1      2677 1.48760E-02 1.28402E-04-1.39208E-13
 -1      2678 1.47990E-02 1.11550E-04-1.39113E-13
 -1      2679 8.03102E-04 2.78232E-04-7.85884E-16
 -1      2680 1.32016E-03-3.62758E-04-2.24739E-15
 -1      2681 1.46339E-03-3.81757E-04-2.71609E-15
 -1      2682 1.60642E-03-3.97855E-04-3.22951E-15
 -1      2683 1.74936E-03-4.11272E-04-3.78762E-15
 -1      2684 1.52498E-03-3.55441E-04-3.01050E-15
 -1      2685 1.89213E-03-4.22485E-04-4.38965E-15
 -1      2686 2.03478E-03-4.31686E-04-5.03556E-15
 -1      2687 1.81166E-03-3.81356E-04-4.13020E-15
 -1      2688 2.17733E-03-4.39248E-04-5.72495E-15
 -1      2689 2.31980E-03-4.45324E-04-6.45682E-15
 -1      2690 2.09812E-03-3.99225E-04-5.42430E-15
 -1      2691 2.46221E-03-4.50204E-04-7.23087E-15
 -1      2692 2.60458E-03-4.54007E-04-8.04685E-15
 -1      2693 2.38429E-03-4.11066E-04-6.88870E-15
 -1      2694 2.74693E-03-4.56953E-04-8.90392E-15
 -1      2695 2.88926E-03-4.59136E-04-9.80126E-15
 -1      2696 2.67023E-03-4.18495E-04-8.51944E-15
 -1      2697 3.03160E-03-4.60717E-04-1.07385E-14
 -1      2698 3.17395E-03-4.61767E-04-1.17150E-14
 -1      2699 2.95601E-03-4.22767E-04-1.03124E-14
 -1      2700 3.31632E-03-4.62403E-04-1.27303E-14
 -1      2701 3.45871E-03-4.62679E-04-1.37838E-14
 -1      2702 3.24168E-03-4.24827E-04-1.22627E-14
 -1      2703 3.60113E-03-4.62675E-04-1.48747E-14
 -1      2704 3.74358E-03-4.62429E-04-1.60021E-14
 -1      2705 3.52729E-03-4.25374E-04-1.43659E-14
 -1      2706 3.88606E-03-4.61997E-04-1.71659E-14
 -1      2707 4.02857E-03-4.61404E-04-1.83651E-14
 -1      2708 3.81288E-03-4.24902E-04-1.66172E-14
 -1      2709 4.17112E-03-4.60685E-04-1.95993E-14
 -1      2710 4.31369E-03-4.59854E-04-2.08685E-14
 -1      2711 4.09847E-03-4.23749E-04-1.90116E-14
 -1      2712 4.45630E-03-4.58931E-04-2.21709E-14
 -1      2713 4.59894E-03-4.57922E-04-2.35054E-14
 -1      2714 4.38407E-03-4.22132E-04-2.15439E-14
 -1      2715 4.74161E-03-4.56836E-04-2.48732E-14
 -1      2716 4.88432E-03-4.55672E-04-2.62740E-14
 -1      2717 4.66970E-03-4.20167E-04-2.42092E-14
 -1      2718 5.02706E-03-4.54429E-04-2.77074E-14
 -1      2719 5.16983E-03-4.53104E-04-2.91716E-14
 -1      2720 4.95536E-03-4.17900E-04-2.70055E-14
 -1      2721 5.31263E-03-4.51685E-04-3.06675E-14
 -1      2722 5.45548E-03-4.50168E-04-3.21951E-14
 -1      2723 5.24106E-03-4.15315E-04-2.99306E-14
 -1      2724 5.59836E-03-4.48537E-04-3.37527E-14
 -1      2725 5.74128E-03-4.46782E-04-3.53414E-14
 -1      2726 5.52681E-03-4.12357E-04-3.29800E-14
 -1      2727 5.88425E-03-4.44887E-04-3.69597E-14
 -1      2728 6.02726E-03-4.42840E-04-3.86062E-14
 -1      2729 5.81262E-03-4.08935E-04-3.61517E-14
 -1      2730 6.17033E-03-4.40622E-04-4.02811E-14
 -1      2731 6.31346E-03-4.38225E-04-4.19847E-14
 -1      2732 6.09849E-03-4.04943E-04-3.94404E-14
 -1      2733 6.45665E-03-4.35629E-04-4.37143E-14
 -1      2734 6.59993E-03-4.32828E-04-4.54702E-14
 -1      2735 6.38444E-03-4.00265E-04-4.28403E-14
 -1      2736 6.74328E-03-4.29809E-04-4.72533E-14
 -1      2737 6.88673E-03-4.26569E-04-4.90596E-14
 -1      2738 6.67050E-03-3.94797E-04-4.63467E-14
 -1      2739 7.03028E-03-4.23105E-04-5.08911E-14
 -1      2740 7.17397E-03-4.19423E-04-5.27458E-14
 -1      2741 6.95668E-03-3.88466E-04-4.99544E-14
 -1      2742 7.31777E-03-4.15537E-04-5.46255E-14
 -1      2743 7.46174E-03-4.11466E-04-5.65271E-14
 -1      2744 7.24302E-03-3.81260E-04-5.36586E-14
 -1      2745 7.60587E-03-4.07249E-04-5.84508E-14
 -1      2746 7.75022E-03-4.02924E-04-6.03944E-14
 -1      2747 7.52958E-03-3.73268E-04-5.74541E-14
 -1      2748 7.89477E-03-3.98567E-04-6.23599E-14
 -1      2749 8.03961E-03-3.94246E-04-6.43464E-14
 -1      2750 7.81645E-03-3.64736E-04-6.13359E-14
 -1      2751 8.18472E-03-3.90086E-04-6.63536E-14
 -1      2752 8.33021E-03-3.86197E-04-6.83800E-14
 -1      2753 8.10380E-03-3.56128E-04-6.53024E-14
 -1      2754 8.47608E-03-3.82766E-04-7.04221E-14
 -1      2755 8.62246E-03-3.79964E-04-7.24818E-14
 -1      2756 8.39188E-03-3.48220E-04-6.93460E-14
 -1      2757 8.76938E-03-3.78052E-04-7.45566E-14
 -1      2758 8.91701E-03-3.77289E-04-7.66467E-14
 -1      2759 8.68115E-03-3.42197E-04-7.34558E-14
 -1      2760 9.06544E-03-3.78013E-04-7.87510E-14
 -1      2761 9.21485E-03-3.80604E-04-8.08680E-14
 -1      2762 8.97236E-03-3.39774E-04-7.76291E-14
 -1      2763 9.36545E-03-3.85470E-04-8.30002E-14
 -1      2764 9.51742E-03-3.93158E-04-8.51434E-14
 -1      2765 9.26674E-03-3.43338E-04-8.18585E-14
 -1      2766 9.67114E-03-4.04111E-04-8.72999E-14
 -1      2767 9.82674E-03-4.19097E-04-8.94676E-14
 -1      2768 9.56620E-03-3.56095E-04-8.61393E-14
 -1      2769 9.98480E-03-4.38526E-04-9.16438E-14
 -1      2770 1.01453E-02-4.63372E-04-9.38325E-14
 -1      2771 9.87348E-03-3.82261E-04-9.04650E-14
 -1      2772 1.03089E-02-4.93909E-04-9.60323E-14
 -1      2773 1.04753E-02-5.31237E-04-9.82405E-14
 -1      2774 1.01921E-02-4.27109E-04-9.48341E-14
 -1      2775 1.06453E-02-5.75300E-04-1.00458E-13
 -1      2776 1.08175E-02-6.26737E-04-1.02684E-13
 -1      2777 1.05255E-02-4.96880E-04-9.92423E-14
 -1      2778 1.09926E-02-6.84910E-04-1.04919E-13
 -1      2779 1.11683E-02-7.48862E-04-1.07164E-13
 -1      2780 1.08749E-02-5.97174E-04-1.03685E-13
 -1      2781 1.13447E-02-8.16804E-04-1.09422E-13
 -1      2782 1.15187E-02-8.84552E-04-1.11693E-13
 -1      2783 1.12364E-02-7.28264E-04-1.08172E-13
 -1      2784 1.16898E-02-9.48939E-04-1.13971E-13
 -1      2785 1.18571E-02-1.00330E-03-1.16260E-13
 -1      2786 1.15975E-02-8.73934E-04-1.12703E-13
 -1      2787 1.20190E-02-1.04395E-03-1.18561E-13
 -1      2788 1.21789E-02-1.06386E-03-1.20871E-13
 -1      2789 1.19438E-02-9.96720E-04-1.17277E-13
 -1      2790 1.23355E-02-1.06171E-03-1.23190E-13
 -1      2791 1.24946E-02-1.03599E-03-1.25515E-13
 -1      2792 1.22730E-02-1.04446E-03-1.21893E-13
 -1      2793 1.26547E-02-9.88057E-04-1.27851E-13
 -1      2794 1.28196E-02-9.24912E-04-1.30194E-13
 -1      2795 1.26014E-02-9.86779E-04-1.26545E-13
 -1      2796 1.29878E-02-8.49152E-04-1.32538E-13
 -1      2797 1.31586E-02-7.67475E-04-1.34892E-13
 -1      2798 1.29444E-02-8.46750E-04-1.31223E-13
 -1      2799 1.33311E-02-6.82476E-04-1.37248E-13
 -1      2800 1.35024E-02-5.98207E-04-1.39612E-13
 -1      2801 1.33017E-02-6.73183E-04-1.35926E-13
 -1      2802 1.36724E-02-5.16056E-04-1.41981E-13
 -1      2803 1.38385E-02-4.35822E-04-1.44358E-13
 -1      2804 1.36583E-02-5.02620E-04-1.40652E-13
 -1      2805 2.26920E-03 4.78629E-04-5.56932E-15
 -1      2806 2.12738E-03 4.71776E-04-4.90202E-15
 -1      2807 1.49519E-02 1.55438E-04-1.39384E-13
 -1      2808 1.49379E-02 1.45806E-04-1.39296E-13
 -1      2809 1.49551E-02 1.39637E-04-1.40749E-13
 -1      2810 1.98547E-03 4.63300E-04-4.27665E-15
 -1      2811 1.84342E-03 4.53038E-04-3.69358E-15
 -1      2812 2.04763E-03 4.31371E-04-4.67631E-15
 -1      2813 2.83625E-03 4.94579E-04-8.65322E-15
 -1      2814 2.69449E-03 4.91981E-04-7.82118E-15
 -1      2815 3.11992E-03 4.97869E-04-1.04376E-14
 -1      2816 2.97807E-03 4.96515E-04-9.52552E-15
 -1      2817 2.90239E-03 4.58558E-04-9.19813E-15
 -1      2818 3.40380E-03 4.99264E-04-1.23786E-14
 -1      2819 3.26184E-03 4.98766E-04-1.13890E-14
 -1      2820 3.18717E-03 4.61222E-04-1.10271E-14
 -1      2821 3.68793E-03 4.99374E-04-1.44726E-14
 -1      2822 3.54584E-03 4.99453E-04-1.34064E-14
 -1      2823 3.47201E-03 4.62202E-04-1.30106E-14
 -1      2824 3.97231E-03 4.98622E-04-1.67160E-14
 -1      2825 3.83010E-03 4.99087E-04-1.55761E-14
 -1      2826 3.75694E-03 4.62044E-04-1.51458E-14
 -1      2827 4.25694E-03 4.97290E-04-1.91048E-14
 -1      2828 4.11460E-03 4.98017E-04-1.78921E-14
 -1      2829 4.04199E-03 4.61127E-04-1.74289E-14
 -1      2830 4.54180E-03 4.95543E-04-2.16362E-14
 -1      2831 4.39935E-03 4.96462E-04-2.03530E-14
 -1      2832 4.32716E-03 4.59693E-04-1.98566E-14
 -1      2833 4.82688E-03 4.93461E-04-2.43045E-14
 -1      2834 4.68432E-03 4.94542E-04-2.29534E-14
 -1      2835 4.61245E-03 4.57883E-04-2.24239E-14
 -1      2836 5.11217E-03 4.91056E-04-2.71060E-14
 -1      2837 4.96950E-03 4.92300E-04-2.56887E-14
 -1      2838 4.89786E-03 4.55755E-04-2.51266E-14
 -1      2839 5.39768E-03 4.88285E-04-3.00336E-14
 -1      2840 5.25490E-03 4.89719E-04-2.85545E-14
 -1      2841 5.18339E-03 4.53306E-04-2.79610E-14
 -1      2842 5.68343E-03 4.85067E-04-3.30846E-14
 -1      2843 5.54053E-03 4.86736E-04-3.15440E-14
 -1      2844 5.46906E-03 4.50482E-04-3.09200E-14
 -1      2845 5.96945E-03 4.81295E-04-3.62522E-14
 -1      2846 5.82641E-03 4.83256E-04-3.46536E-14
 -1      2847 5.75488E-03 4.47196E-04-3.40006E-14
 -1      2848 6.25580E-03 4.76844E-04-3.95305E-14
 -1      2849 6.11258E-03 4.79161E-04-3.78784E-14
 -1      2850 6.04087E-03 4.43335E-04-3.71967E-14
 -1      2851 6.54255E-03 4.71590E-04-4.29132E-14
 -1      2852 6.39911E-03 4.74323E-04-4.12093E-14
 -1      2853 6.32706E-03 4.38775E-04-4.05014E-14
 -1      2854 6.82980E-03 4.65427E-04-4.63980E-14
 -1      2855 6.68610E-03 4.68626E-04-4.46438E-14
 -1      2856 6.61350E-03 4.33394E-04-4.39105E-14
 -1      2857 7.11769E-03 4.58296E-04-4.99743E-14
 -1      2858 6.97365E-03 4.61982E-04-4.81748E-14
 -1      2859 6.90025E-03 4.27097E-04-4.74178E-14
 -1      2860 7.40638E-03 4.50219E-04-5.36445E-14
 -1      2861 7.26191E-03 4.54369E-04-5.17974E-14
 -1      2862 7.18738E-03 4.19836E-04-5.10181E-14
 -1      2863 7.69607E-03 4.41360E-04-5.73978E-14
 -1      2864 7.55107E-03 4.45871E-04-5.55110E-14
 -1      2865 7.47497E-03 4.11658E-04-5.47096E-14
 -1      2866 7.98699E-03 4.32092E-04-6.12282E-14
 -1      2867 7.84133E-03 4.36746E-04-5.93040E-14
 -1      2868 7.76314E-03 4.02754E-04-5.84847E-14
 -1      2869 8.27945E-03 4.23099E-04-6.51322E-14
 -1      2870 8.13298E-03 4.27508E-04-6.31724E-14
 -1      2871 8.05201E-03 3.93534E-04-6.23353E-14
 -1      2872 8.57384E-03 4.15511E-04-6.91009E-14
 -1      2873 8.42634E-03 4.19046E-04-6.71074E-14
 -1      2874 8.34180E-03 3.84727E-04-6.62565E-14
 -1      2875 8.87068E-03 4.11072E-04-7.31323E-14
 -1      2876 8.72188E-03 4.12771E-04-7.11097E-14
 -1      2877 8.63280E-03 3.77500E-04-7.02440E-14
 -1      2878 9.17076E-03 4.12341E-04-7.72248E-14
 -1      2879 9.02023E-03 4.10805E-04-7.51721E-14
 -1      2880 8.92553E-03 3.73622E-04-7.42953E-14
 -1      2881 9.47525E-03 4.22917E-04-8.13751E-14
 -1      2882 9.32235E-03 4.16193E-04-7.92926E-14
 -1      2883 9.22088E-03 3.75644E-04-7.84042E-14
 -1      2884 9.78597E-03 4.47646E-04-8.55770E-14
 -1      2885 9.62972E-03 4.33131E-04-8.34693E-14
 -1      2886 9.52036E-03 3.87121E-04-8.25690E-14
 -1      2887 1.01055E-02 4.92704E-04-8.98289E-14
 -1      2888 9.94453E-03 4.67125E-04-8.76985E-14
 -1      2889 9.82645E-03 4.12846E-04-8.67859E-14
 -1      2890 1.04369E-02 5.65350E-04-9.41195E-14
 -1      2891 1.02697E-02 5.24941E-04-9.19698E-14
 -1      2892 1.01429E-02 4.59082E-04-9.10487E-14
 -1      2893 1.07828E-02 6.72798E-04-9.84470E-14
 -1      2894 1.06083E-02 6.14221E-04-9.62795E-14
 -1      2895 1.04744E-02 5.33786E-04-9.53506E-14
 -1      2896 1.11418E-02 8.18400E-04-1.02808E-13
 -1      2897 1.09614E-02 7.40876E-04-1.00623E-13
 -1      2898 1.08250E-02 6.45739E-04-9.96860E-14
 -1      2899 1.15078E-02 9.93012E-04-1.07213E-13
 -1      2900 1.13257E-02 9.03405E-04-1.05004E-13
 -1      2901 1.11947E-02 7.99777E-04-1.04058E-13
 -1      2902 1.18637E-02 1.16674E-03-1.11668E-13
 -1      2903 1.16877E-02 1.08372E-03-1.09434E-13
 -1      2904 1.15730E-02 9.87857E-04-1.08472E-13
 -1      2905 1.25249E-02 1.29968E-03-1.20746E-13
 -1      2906 1.23617E-02 1.30714E-03-1.18458E-13
 -1      2907 1.28568E-02 1.20700E-03-1.25357E-13
 -1      2908 1.26880E-02 1.26404E-03-1.23046E-13
 -1      2909 1.26240E-02 1.25971E-03-1.22043E-13
 -1      2910 1.32052E-02 1.05070E-03-1.30013E-13
 -1      2911 1.30294E-02 1.13259E-03-1.27680E-13
 -1      2912 1.29772E-02 1.13030E-03-1.26671E-13
 -1      2913 1.35598E-02 8.81054E-04-1.34706E-13
 -1      2914 1.33834E-02 9.65141E-04-1.32354E-13
 -1      2915 1.33471E-02 9.54150E-04-1.31340E-13
 -1      2916 1.39053E-02 7.23774E-04-1.39432E-13
 -1      2917 1.37350E-02 8.00362E-04-1.37065E-13
 -1      2918 1.37162E-02 7.83431E-04-1.36046E-13
 -1      2919 1.42159E-02 5.86432E-04-1.43702E-13
 -1      2920 1.40532E-02 6.55843E-04-1.41321E-13
 -1      2921 1.40482E-02 6.38341E-04-1.40300E-13
 -1      2922 1.43472E-02 5.14657E-04-1.44086E-13
 -1      2923 1.51592E-02 1.53116E-04-1.45836E-13
 -1      2924 1.51568E-02 1.66860E-04-1.45659E-13
 -1      2925 1.39473E-02-3.84106E-04-1.45971E-13
 -1      2926 1.40536E-02-3.32749E-04-1.47582E-13
 -1      2927 1.39444E-02-3.72335E-04-1.44638E-13
 -1      2928 1.49567E-02 2.32812E-04-1.44983E-13
 -1      2929 1.48519E-02 2.71722E-04-1.44796E-13
 -1      2930 1.49842E-02 1.16627E-04-1.44413E-13
 -1      2931 1.50546E-02 1.38896E-04-1.44238E-13
 -1      2932 1.51170E-02 1.80827E-04-1.45413E-13
 -1      2933 1.50510E-02 2.02959E-04-1.45231E-13
 -1      2934 1.49053E-02 2.23325E-04-1.43104E-13
 -1      2935 1.50623E-02 1.72960E-04-1.43598E-13
 -1      2936 1.70121E-03 4.40570E-04-3.15340E-15
 -1      2937 1.55875E-03 4.25690E-04-2.65677E-15
 -1      2938 1.76212E-03 4.11249E-04-3.50121E-15
 -1      2939 1.46238E-02-3.62585E-05-1.46683E-13
 -1      2940 1.47442E-02 1.40273E-05-1.46515E-13
 -1      2941 1.43891E-02-1.48386E-04-1.47011E-13
 -1      2942 1.45041E-02-9.20358E-05-1.46848E-13
 -1      2943 1.44231E-02-1.03148E-04-1.44698E-13
 -1      2944 1.22193E-02-1.00075E-03-1.20310E-13
 -1      2945 1.20532E-02-9.59351E-04-1.18216E-13
 -1      2946 1.41801E-02-9.93363E-05-1.36559E-13
 -1      2947 1.39540E-02-2.01549E-04-1.35323E-13
 -1      2948 1.41623E-02-2.74082E-04-1.47864E-13
 -1      2949 8.28037E-04-2.65281E-04-9.89226E-16
 -1      2950 9.59662E-04-3.00539E-04-1.26530E-15
 -1      2951 8.17435E-04-2.38647E-04-1.00768E-15
 -1      2952 1.40527E-02 4.67280E-04-1.34084E-13
 -1      2953 1.42456E-02 3.80145E-04-1.35145E-13
 -1      2954 1.26494E-02 1.22212E-03-1.22078E-13
 -1      2955 1.27963E-02 1.16456E-03-1.23813E-13
 -1      2956 1.00986E-02 1.15683E-04-1.02437E-13
 -1      2957 1.02188E-02 1.50636E-04-1.02946E-13
 -1      2958 2.55273E-03 4.88547E-04-7.02982E-15
 -1      2959 2.41098E-03 4.84175E-04-6.27891E-15
 -1      2960 2.33274E-03 4.44840E-04-6.01967E-15
 -1      2961 2.61761E-03 4.53443E-04-7.52813E-15
 -1      2962 1.06817E-03-3.21631E-04-1.53121E-15
 -1      2963 1.21147E-03-3.46861E-04-1.92018E-15
 -1      2964 1.27288E-03-3.24833E-04-2.17002E-15
 -1      2965 1.05583E-03-2.91423E-04-1.55523E-15
 -1      2966 7.84365E-04 1.23459E-04-9.93820E-16
 -1      2967 7.81975E-04 1.00023E-04-1.01096E-15
 -1      2968 8.99582E-04 9.94512E-05-1.28914E-15
 -1      2969 9.05327E-04 1.51591E-04-1.24826E-15
 -1      2970 1.46363E-02 6.65612E-05-1.38449E-13
 -1      2971 1.44395E-02 3.94857E-06-1.37678E-13
 -1      2972 1.41608E-03 4.07863E-04-2.20393E-15
 -1      2973 1.27303E-03 3.86827E-04-1.79423E-15
 -1      2974 1.18967E-03 3.41504E-04-1.66623E-15
 -1      2975 1.47611E-03 3.82216E-04-2.49696E-15
 -1      2976 7.81704E-04-9.79683E-05-1.05710E-15
 -1      2977 7.84013E-04-1.21325E-04-1.05115E-15
 -1      2978 1.12199E-02 6.44452E-04-1.07918E-13
 -1      2979 1.14254E-02 7.77792E-04-1.09384E-13
 -1      2980 1.16356E-02 9.15673E-04-1.11069E-13
 -1      2981 1.18115E-02 1.03178E-03-1.12619E-13
 -1      2982 9.99916E-03 5.15574E-05-1.01808E-13
 -1      2983 9.97036E-03 6.62676E-05-1.01898E-13
 -1      2984 1.03406E-02 1.94096E-04-1.03472E-13
 -1      2985 1.04813E-02 2.49742E-04-1.04001E-13
 -1      2986 1.02363E-02 1.67188E-04-1.01905E-13
 -1      2987 1.01842E-02-2.45019E-06-1.03002E-13
 -1      2988 1.00959E-02 2.17226E-05-1.02417E-13
 -1      2989 9.98468E-03 8.09399E-05-1.02153E-13
 -1      2990 1.00190E-02 9.09665E-05-1.02184E-13
 -1      2991 1.00392E-02 1.04753E-04-1.01128E-13
 -1      2992 9.94362E-03 7.07694E-05-1.00620E-13
 -1      2993 1.33381E-02-5.42211E-04-1.31494E-13
 -1      2994 1.31341E-02-6.69454E-04-1.29972E-13
 -1      2995 1.44736E-02 2.89327E-04-1.36226E-13
 -1      2996 1.46453E-02 2.32159E-04-1.36881E-13
 -1      2997 1.29321E-02-7.89436E-04-1.28341E-13
 -1      2998 1.27651E-02-8.82159E-04-1.26744E-13
 -1      2999 1.18625E-02-8.78500E-04-1.16012E-13
 -1      3000 1.17270E-02-7.99318E-04-1.14570E-13
 -1      3001 1.35858E-02 7.14661E-04-1.30964E-13
 -1      3002 1.38066E-02 5.90601E-04-1.32473E-13
 -1      3003 1.37758E-02-2.91468E-04-1.34273E-13
 -1      3004 1.35966E-02-3.91737E-04-1.33223E-13
 -1      3005 1.39059E-02-2.37449E-04-1.36035E-13
 -1      3006 1.25718E-02-9.61326E-04-1.24628E-13
 -1      3007 1.24179E-02-9.99207E-04-1.22773E-13
 -1      3008 7.87060E-04-1.45477E-04-1.04216E-15
 -1      3009 7.90944E-04-1.70650E-04-1.02930E-15
 -1      3010 9.04845E-04-1.49075E-04-1.32465E-15
 -1      3011 8.95439E-04 1.01118E-06-1.33472E-15
 -1      3012 7.77604E-04-9.72008E-06-1.05782E-15
 -1      3013 7.77968E-04-3.13672E-05-1.06110E-15
 -1      3014 1.47419E-02 8.76711E-05-1.39996E-13
 -1      3015 8.64860E-04 2.66553E-04-9.57174E-16
 -1      3016 1.34321E-02 8.10511E-04-1.30101E-13
 -1      3017 1.35692E-02 7.47276E-04-1.31706E-13
 -1      3018 1.32981E-02 9.02889E-04-1.29238E-13
 -1      3019 1.46713E-02 3.14606E-04-1.42671E-13
 -1      3020 1.47395E-02 3.18008E-04-1.44614E-13
 -1      3021 1.46255E-02 3.69126E-04-1.44427E-13
 -1      3022 1.19384E-02-9.29221E-04-1.16879E-13
 -1      3023 1.22004E-02 1.28547E-03-1.16182E-13
 -1      3024 1.20338E-02 1.23770E-03-1.13918E-13
 -1      3025 1.19398E-02 1.17049E-03-1.12941E-13
 -1      3026 1.22858E-02 1.27831E-03-1.17465E-13
 -1      3027 1.30466E-02-7.29436E-04-1.29884E-13
 -1      3028 1.45359E-02 4.14346E-04-1.44350E-13
 -1      3029 1.44284E-02 4.69278E-04-1.44163E-13
 -1      3030 1.42790E-02 5.24868E-04-1.42267E-13
 -1      3031 1.44542E-02 4.22796E-04-1.42416E-13
 -1      3032 1.48778E-02 6.07669E-05-1.46652E-13
 -1      3033 1.49814E-02 9.54517E-05-1.46486E-13
 -1      3034 1.23037E-02-1.01039E-03-1.21547E-13
 -1      3035 1.42620E-02-2.20016E-04-1.47705E-13
 -1      3036 1.40552E-02-3.10218E-04-1.45097E-13
 -1      3037 1.42692E-02-2.06117E-04-1.46549E-13
 -1      3038 1.41772E-02-2.29383E-04-1.44403E-13
 -1      3039 1.39418E-02-3.58266E-04-1.43485E-13
 -1      3040 1.34857E-02-4.65182E-04-1.33248E-13
 -1      3041 9.82951E-04 2.75794E-04-1.23733E-15
 -1      3042 1.47462E-02 2.12839E-04-1.38347E-13
 -1      3043 1.39534E-02 5.31827E-04-1.34184E-13
 -1      3044 1.44069E-02 3.29695E-04-1.36882E-13
 -1      3045 1.00055E-02 3.57926E-05-1.00970E-13
 -1      3046 1.07586E-02-2.56440E-04-1.06052E-13
 -1      3047 1.06574E-02-1.94978E-04-1.05684E-13
 -1      3048 1.04981E-02-1.43489E-04-1.04030E-13
 -1      3049 1.11895E-02-4.73654E-04-1.09730E-13
 -1      3050 1.10389E-02-4.05318E-04-1.08149E-13
 -1      3051 1.12805E-02-5.47858E-04-1.10161E-13
 -1      3052 7.78747E-04-5.31515E-05-1.06183E-15
 -1      3053 7.79967E-04-7.53406E-05-1.06049E-15
 -1      3054 8.99299E-04-9.70979E-05-1.33917E-15
 -1      3055 8.96334E-04-4.75271E-05-1.34209E-15
 -1      3056 1.21945E-02 1.23252E-03-1.16461E-13
 -1      3057 1.22971E-02 1.25243E-03-1.17783E-13
 -1      3058 1.15140E-02 8.50837E-04-1.09612E-13
 -1      3059 1.16044E-02-7.40235E-04-1.13215E-13
 -1      3060 1.10809E-02 5.67417E-04-1.06592E-13
 -1      3061 1.11735E-02 6.42805E-04-1.06607E-13
 -1      3062 1.09446E-02 5.00449E-04-1.05270E-13
 -1      3063 1.19027E-02 1.09458E-03-1.13299E-13
 -1      3064 1.05838E-02 3.02108E-04-1.03842E-13
 -1      3065 1.06795E-02 3.61231E-04-1.03679E-13
 -1      3066 1.04464E-02 2.57512E-04-1.02270E-13
 -1      3067 1.23831E-02 1.26046E-03-1.18839E-13
 -1      3068 1.25145E-02 1.25324E-03-1.20479E-13
 -1      3069 1.02459E-02-3.91130E-05-1.02619E-13
 -1      3070 1.46963E-02 1.81004E-05-1.44668E-13
 -1      3071 1.26734E-02-9.26786E-04-1.26131E-13
 -1      3072 1.23715E-02 1.26973E-03-1.18666E-13
 -1      3073 1.25778E-02 1.24904E-03-1.21320E-13
 -1      3074 1.04027E-03 2.43275E-04-1.45888E-15
 -1      3075 1.03364E-03 2.11551E-04-1.49757E-15
 -1      3076 1.49263E-02 1.70788E-04-1.39827E-13
 -1      3077 1.49416E-02 1.62268E-04-1.39430E-13
 -1      3078 1.28989E-02 1.11975E-03-1.25032E-13
 -1      3079 1.30225E-02 1.06039E-03-1.26496E-13
 -1      3080 1.44248E-02-1.61640E-05-1.38896E-13
 -1      3081 1.42823E-02-5.81925E-05-1.37245E-13
 -1      3082 1.39961E-02-2.11138E-04-1.37729E-13
 -1      3083 1.38349E-02-2.89702E-04-1.36674E-13
 -1      3084 1.73166E-03-3.40509E-04-3.87287E-15
 -1      3085 1.87533E-03-3.50724E-04-4.47788E-15
 -1      3086 2.01899E-03-3.59223E-04-5.12618E-15
 -1      3087 2.16263E-03-3.66159E-04-5.81688E-15
 -1      3088 1.94014E-03-3.19413E-04-4.83118E-15
 -1      3089 2.30623E-03-3.71808E-04-6.54926E-15
 -1      3090 2.44977E-03-3.76297E-04-7.32319E-15
 -1      3091 2.22818E-03-3.32547E-04-6.21312E-15
 -1      3092 2.59327E-03-3.79847E-04-8.13839E-15
 -1      3093 2.73670E-03-3.82558E-04-8.99409E-15
 -1      3094 2.51614E-03-3.41089E-04-7.76094E-15
 -1      3095 2.88008E-03-3.84601E-04-9.88937E-15
 -1      3096 3.02340E-03-3.86050E-04-1.08246E-14
 -1      3097 2.80391E-03-3.46269E-04-9.47045E-15
 -1      3098 3.16668E-03-3.87035E-04-1.17989E-14
 -1      3099 3.30991E-03-3.87609E-04-1.28110E-14
 -1      3100 3.09141E-03-3.49054E-04-1.13384E-14
 -1      3101 3.45311E-03-3.87868E-04-1.38615E-14
 -1      3102 3.59626E-03-3.87850E-04-1.49487E-14
 -1      3103 3.37864E-03-3.50173E-04-1.33608E-14
 -1      3104 3.73938E-03-3.87620E-04-1.60723E-14
 -1      3105 3.88247E-03-3.87206E-04-1.72320E-14
 -1      3106 3.66561E-03-3.50160E-04-1.55314E-14
 -1      3107 4.02553E-03-3.86651E-04-1.84270E-14
 -1      3108 4.16857E-03-3.85971E-04-1.96568E-14
 -1      3109 3.95235E-03-3.49389E-04-1.78466E-14
 -1      3110 4.31159E-03-3.85193E-04-2.09215E-14
 -1      3111 4.45458E-03-3.84325E-04-2.22187E-14
 -1      3112 4.23888E-03-3.48109E-04-2.03021E-14
 -1      3113 4.59756E-03-3.83381E-04-2.35486E-14
 -1      3114 4.74053E-03-3.82362E-04-2.49115E-14
 -1      3115 4.52524E-03-3.46468E-04-2.28925E-14
 -1      3116 4.88348E-03-3.81273E-04-2.63085E-14
 -1      3117 5.02641E-03-3.80110E-04-2.77372E-14
 -1      3118 4.81143E-03-3.44539E-04-2.56150E-14
 -1      3119 5.16934E-03-3.78869E-04-2.91963E-14
 -1      3120 5.31225E-03-3.77543E-04-3.06884E-14
 -1      3121 5.09748E-03-3.42334E-04-2.84670E-14
 -1      3122 5.45515E-03-3.76123E-04-3.22112E-14
 -1      3123 5.59803E-03-3.74598E-04-3.37641E-14
 -1      3124 5.38339E-03-3.39818E-04-3.14458E-14
 -1      3125 5.74091E-03-3.72956E-04-3.53479E-14
 -1      3126 5.88377E-03-3.71183E-04-3.69609E-14
 -1      3127 5.66915E-03-3.36924E-04-3.45483E-14
 -1      3128 6.02661E-03-3.69266E-04-3.86031E-14
 -1      3129 6.16945E-03-3.67190E-04-4.02732E-14
 -1      3130 5.95474E-03-3.33559E-04-3.77694E-14
 -1      3131 6.31225E-03-3.64942E-04-4.19711E-14
 -1      3132 6.45505E-03-3.62509E-04-4.36949E-14
 -1      3133 6.24013E-03-3.29619E-04-4.11048E-14
 -1      3134 6.59781E-03-3.59878E-04-4.54450E-14
 -1      3135 6.74056E-03-3.57040E-04-4.72214E-14
 -1      3136 6.52527E-03-3.24997E-04-4.45481E-14
 -1      3137 6.88327E-03-3.53989E-04-4.90218E-14
 -1      3138 7.02596E-03-3.50719E-04-5.08460E-14
 -1      3139 6.81011E-03-3.19602E-04-4.80933E-14
 -1      3140 7.16860E-03-3.47238E-04-5.26952E-14
 -1      3141 7.31122E-03-3.43547E-04-5.45675E-14
 -1      3142 7.09458E-03-3.13379E-04-5.17366E-14
 -1      3143 7.45379E-03-3.39671E-04-5.64612E-14
 -1      3144 7.59635E-03-3.35623E-04-5.83772E-14
 -1      3145 7.37859E-03-3.06337E-04-5.54731E-14
 -1      3146 7.73886E-03-3.31456E-04-6.03170E-14
 -1      3147 7.88137E-03-3.27201E-04-6.22755E-14
 -1      3148 7.66208E-03-2.98582E-04-5.92997E-14
 -1      3149 8.02386E-03-3.22946E-04-6.42540E-14
 -1      3150 8.16640E-03-3.18749E-04-6.62544E-14
 -1      3151 7.94502E-03-2.90367E-04-6.32118E-14
 -1      3152 8.30895E-03-3.14742E-04-6.82728E-14
 -1      3153 8.45165E-03-3.11027E-04-7.03084E-14
 -1      3154 8.22745E-03-2.82142E-04-6.72033E-14
 -1      3155 8.59448E-03-3.07783E-04-7.23600E-14
 -1      3156 8.73760E-03-3.05178E-04-7.44281E-14
 -1      3157 8.50959E-03-2.74624E-04-7.12679E-14
 -1      3158 8.88107E-03-3.03443E-04-7.65117E-14
 -1      3159 9.02512E-03-3.02844E-04-7.86094E-14
 -1      3160 8.79190E-03-2.68876E-04-7.53981E-14
 -1      3161 9.16987E-03-3.03655E-04-8.07199E-14
 -1      3162 9.31566E-03-3.06300E-04-8.28443E-14
 -1      3163 9.07535E-03-2.66404E-04-7.95869E-14
 -1      3164 9.46277E-03-3.11081E-04-8.49820E-14
 -1      3165 9.61161E-03-3.18659E-04-8.71308E-14
 -1      3166 9.36163E-03-2.69310E-04-8.38293E-14
 -1      3167 9.76267E-03-3.29332E-04-8.92901E-14
 -1      3168 9.91646E-03-3.44166E-04-9.14593E-14
 -1      3169 9.65357E-03-2.80529E-04-8.81170E-14
 -1      3170 1.00737E-02-3.63391E-04-9.36393E-14
 -1      3171 1.02349E-02-3.88544E-04-9.58304E-14
 -1      3172 9.95549E-03-3.04399E-04-9.24511E-14
 -1      3173 1.04010E-02-4.19809E-04-9.80315E-14
 -1      3174 1.05717E-02-4.59327E-04-1.00241E-13
 -1      3175 1.02734E-02-3.47143E-04-9.68242E-14
 -1      3176 1.07486E-02-5.07003E-04-1.02459E-13
 -1      3177 1.09296E-02-5.64482E-04-1.04686E-13
 -1      3178 1.06139E-02-4.18658E-04-1.01236E-13
 -1      3179 1.11166E-02-6.31004E-04-1.06925E-13
 -1      3180 1.13047E-02-7.06378E-04-1.09177E-13
 -1      3181 1.09815E-02-5.29762E-04-1.05683E-13
 -1      3182 1.15839E-02-8.12918E-04-1.12556E-13
 -1      3183 1.17707E-02-8.92578E-04-1.14834E-13
 -1      3184 1.19393E-02-9.66748E-04-1.17033E-13
 -1      3185 1.21136E-02-1.01131E-03-1.19335E-13
 -1      3186 1.22925E-02-1.02512E-03-1.21798E-13
 -1      3187 1.24636E-02-1.00736E-03-1.24116E-13
 -1      3188 1.26373E-02-9.58083E-04-1.26444E-13
 -1      3189 1.28903E-02-8.52241E-04-1.29929E-13
 -1      3190 1.30740E-02-7.63647E-04-1.32274E-13
 -1      3191 1.32616E-02-6.69838E-04-1.34625E-13
 -1      3192 1.34480E-02-5.78976E-04-1.36981E-13
 -1      3193 1.32202E-02-6.68861E-04-1.33323E-13
 -1      3194 1.36085E-02-5.04383E-04-1.39043E-13
 -1      3195 1.37889E-02-4.23377E-04-1.41413E-13
 -1      3196 1.39035E-02-3.54770E-04-1.41870E-13
 -1      3197 1.35814E-02-4.93243E-04-1.37737E-13
 -1      3198 2.11106E-03 3.98814E-04-5.08293E-15
 -1      3199 1.96784E-03 3.90884E-04-4.44889E-15
 -1      3200 3.25491E-03 4.24267E-04-1.16207E-14
 -1      3201 3.11206E-03 4.23442E-04-1.06648E-14
 -1      3202 2.96917E-03 4.22158E-04-9.74742E-15
 -1      3203 2.82627E-03 4.20352E-04-8.86949E-15
 -1      3204 3.03657E-03 3.85452E-04-1.03020E-14
 -1      3205 3.82623E-03 4.24522E-04-1.58222E-14
 -1      3206 3.68341E-03 4.24811E-04-1.47154E-14
 -1      3207 4.11186E-03 4.23485E-04-1.81445E-14
 -1      3208 3.96905E-03 4.24073E-04-1.69654E-14
 -1      3209 3.89580E-03 3.86855E-04-1.65018E-14
 -1      3210 4.39750E-03 4.21990E-04-2.06101E-14
 -1      3211 4.25468E-03 4.22787E-04-1.93595E-14
 -1      3212 4.18194E-03 3.85737E-04-1.88629E-14
 -1      3213 4.68316E-03 4.20152E-04-2.32131E-14
 -1      3214 4.54033E-03 4.21110E-04-2.18948E-14
 -1      3215 4.46798E-03 3.84215E-04-2.13657E-14
 -1      3216 4.96885E-03 4.18010E-04-2.59502E-14
 -1      3217 4.82600E-03 4.19119E-04-2.45652E-14
 -1      3218 4.75395E-03 3.82380E-04-2.40047E-14
 -1      3219 5.25457E-03 4.15548E-04-2.88172E-14
 -1      3220 5.11171E-03 4.16822E-04-2.73677E-14
 -1      3221 5.03985E-03 3.80255E-04-2.67755E-14
 -1      3222 5.54033E-03 4.12705E-04-3.18080E-14
 -1      3223 5.39745E-03 4.14179E-04-3.02975E-14
 -1      3224 5.32570E-03 3.77812E-04-2.96753E-14
 -1      3225 5.82615E-03 4.09388E-04-3.49188E-14
 -1      3226 5.68323E-03 4.11111E-04-3.33488E-14
 -1      3227 5.61149E-03 3.74984E-04-3.26976E-14
 -1      3228 6.11201E-03 4.05483E-04-3.81424E-14
 -1      3229 5.96907E-03 4.07515E-04-3.65161E-14
 -1      3230 5.89722E-03 3.71677E-04-3.58377E-14
 -1      3231 6.39794E-03 4.00869E-04-4.14725E-14
 -1      3232 6.25496E-03 4.03271E-04-3.97944E-14
 -1      3233 6.18288E-03 3.67778E-04-3.90881E-14
 -1      3234 6.68394E-03 3.95432E-04-4.49083E-14
 -1      3235 6.54092E-03 3.98259E-04-4.31780E-14
 -1      3236 6.46842E-03 3.63172E-04-4.24466E-14
 -1      3237 6.97001E-03 3.89086E-04-4.84387E-14
 -1      3238 6.82695E-03 3.92376E-04-4.66622E-14
 -1      3239 6.75383E-03 3.57754E-04-4.59067E-14
 -1      3240 7.25616E-03 3.81801E-04-5.20653E-14
 -1      3241 7.11306E-03 3.85560E-04-5.02410E-14
 -1      3242 7.03905E-03 3.51452E-04-4.94633E-14
 -1      3243 7.54239E-03 3.73647E-04-5.57770E-14
 -1      3244 7.39925E-03 3.77826E-04-5.39095E-14
 -1      3245 7.32401E-03 3.44255E-04-5.31117E-14
 -1      3246 7.82872E-03 3.64841E-04-5.95715E-14
 -1      3247 7.68552E-03 3.69309E-04-5.76654E-14
 -1      3248 7.60864E-03 3.36255E-04-5.68459E-14
 -1      3249 8.11519E-03 3.55825E-04-6.34438E-14
 -1      3250 7.97191E-03 3.60328E-04-6.14978E-14
 -1      3251 7.89284E-03 3.27694E-04-6.06614E-14
 -1      3252 8.40189E-03 3.47349E-04-6.73829E-14
 -1      3253 8.25848E-03 3.51467E-04-6.54054E-14
 -1      3254 8.17657E-03 3.19029E-04-6.45521E-14
 -1      3255 8.68907E-03 3.40590E-04-7.13899E-14
 -1      3256 8.54537E-03 3.43672E-04-6.93781E-14
 -1      3257 8.45982E-03 3.11016E-04-6.85123E-14
 -1      3258 8.97721E-03 3.37285E-04-7.54574E-14
 -1      3259 8.83294E-03 3.38380E-04-7.34152E-14
 -1      3260 8.74275E-03 3.04799E-04-7.25363E-14
 -1      3261 9.26732E-03 3.39898E-04-7.95852E-14
 -1      3262 9.12190E-03 3.37663E-04-7.75147E-14
 -1      3263 9.02584E-03 3.02022E-04-7.66231E-14
 -1      3264 9.56124E-03 3.51830E-04-8.37658E-14
 -1      3265 9.41362E-03 3.44412E-04-8.16695E-14
 -1      3266 9.31020E-03 3.04967E-04-8.07680E-14
 -1      3267 9.86214E-03 3.77720E-04-8.79957E-14
 -1      3268 9.71056E-03 3.62592E-04-8.58743E-14
 -1      3269 9.59798E-03 3.16767E-04-8.49635E-14
 -1      3270 1.01749E-02 4.23911E-04-9.22693E-14
 -1      3271 1.00167E-02 3.97618E-04-9.01285E-14
 -1      3272 9.89301E-03 3.41799E-04-8.92064E-14
 -1      3273 1.05062E-02 4.99060E-04-9.65812E-14
 -1      3274 1.03380E-02 4.56806E-04-9.44202E-14
 -1      3275 1.02015E-02 3.86446E-04-9.34919E-14
 -1      3276 1.08630E-02 6.14809E-04-1.00925E-13
 -1      3277 1.06817E-02 5.50760E-04-9.87483E-14
 -1      3278 1.05324E-02 4.61098E-04-9.78108E-14
 -1      3279 1.12372E-02 7.42067E-04-1.05775E-13
 -1      3280 1.10403E-02 6.50361E-04-1.03579E-13
 -1      3281 1.31242E-02-6.93368E-04-1.31248E-13
 -1      3282 1.29453E-02-8.01210E-04-1.29614E-13
 -1      3283 1.30332E-02 1.08836E-03-1.27178E-13
 -1      3284 1.28464E-02 1.17203E-03-1.24854E-13
 -1      3285 1.38860E-02 6.81105E-04-1.37393E-13
 -1      3286 1.36998E-02 7.59367E-04-1.35028E-13
 -1      3287 1.41639E-02 5.67464E-04-1.40771E-13
 -1      3288 1.40070E-02 6.31857E-04-1.38882E-13
 -1      3289 1.40068E-02 6.01000E-04-1.37859E-13
 -1      3290 1.42483E-02 5.12858E-04-1.40843E-13
 -1      3291 1.50084E-02 1.45040E-04-1.42251E-13
 -1      3292 1.36179E-02-4.04378E-04-1.35153E-13
 -1      3293 1.33850E-02-5.39317E-04-1.33416E-13
 -1      3294 1.01653E-03 6.82094E-05-1.61939E-15
 -1      3295 1.01536E-03 4.12265E-05-1.63282E-15
 -1      3296 1.82456E-03 3.81206E-04-3.85647E-15
 -1      3297 1.68121E-03 3.69608E-04-3.30649E-15
 -1      3298 1.88825E-03 3.50492E-04-4.22001E-15
 -1      3299 1.31536E-02 1.00829E-03-1.28322E-13
 -1      3300 1.01525E-02 1.54537E-04-1.00255E-13
 -1      3301 1.02593E-02 1.91043E-04-1.00778E-13
 -1      3302 1.41224E-02-2.11769E-04-1.41611E-13
 -1      3303 1.42539E-02-1.35810E-04-1.41444E-13
 -1      3304 1.41762E-02-1.15640E-04-1.37775E-13
 -1      3305 7.99204E-04-1.91580E-04-1.02667E-15
 -1      3306 8.07206E-04-2.15455E-04-1.01647E-15
 -1      3307 9.36480E-04-2.46247E-04-1.29845E-15
 -1      3308 9.17268E-04-1.98757E-04-1.31043E-15
 -1      3309 1.28037E-02 1.17600E-03-1.24138E-13
 -1      3310 1.48545E-02 9.45345E-05-1.42732E-13
 -1      3311 3.54058E-03 4.24893E-04-1.36458E-14
 -1      3312 3.39776E-03 4.24736E-04-1.26143E-14
 -1      3313 3.32314E-03 3.87068E-04-1.22179E-14
 -1      3314 3.60954E-03 3.87393E-04-1.42854E-14
 -1      3315 1.49912E-02 1.58103E-04-1.40882E-13
 -1      3316 1.46996E-02 5.37023E-05-1.42065E-13
 -1      3317 1.14014E-02 7.97220E-04-1.08127E-13
 -1      3318 1.15918E-02 9.22366E-04-1.09805E-13
 -1      3319 1.44457E-03-3.13791E-04-2.79305E-15
 -1      3320 1.58807E-03-3.28261E-04-3.31129E-15
 -1      3321 1.65236E-03-3.00180E-04-3.61836E-15
 -1      3322 1.24534E-02 1.27736E-03-1.19736E-13
 -1      3323 1.25736E-02 1.25783E-03-1.21332E-13
 -1      3324 1.02868E-02-7.81808E-05-1.01884E-13
 -1      3325 1.01479E-02-3.16195E-05-1.00843E-13
 -1      3326 1.45433E-02-5.06968E-06-1.41933E-13
 -1      3327 1.00129E-02 1.51589E-05-9.99498E-14
 -1      3328 9.93120E-03 4.09552E-05-9.93467E-14
 -1      3329 1.38692E-02 5.95883E-04-1.34461E-13
 -1      3330 1.40918E-02 4.86269E-04-1.36079E-13
 -1      3331 1.43574E-02 3.69838E-04-1.37782E-13
 -1      3332 1.45589E-02 2.92109E-04-1.38869E-13
 -1      3333 1.46933E-02 2.41626E-04-1.39248E-13
 -1      3334 1.48133E-02 2.05447E-04-1.39628E-13
 -1      3335 1.46485E-02 2.76009E-04-1.40149E-13
 -1      3336 1.14501E-03 3.10581E-04-1.61184E-15
 -1      3337 1.08236E-03 2.71653E-04-1.51943E-15
 -1      3338 1.20146E-03 2.73091E-04-1.86836E-15
 -1      3339 1.28817E-03 3.32556E-04-1.99930E-15
 -1      3340 1.23748E-02 1.27839E-03-1.18677E-13
 -1      3341 1.27526E-02 1.20770E-03-1.23636E-13
 -1      3342 1.14595E-02-7.14142E-04-1.11289E-13
 -1      3343 1.32839E-02 9.46759E-04-1.29921E-13
 -1      3344 1.22017E-02 1.25319E-03-1.16402E-13
 -1      3345 1.01476E-03 1.44498E-05-1.64346E-15
 -1      3346 1.01473E-03-1.22279E-05-1.65094E-15
 -1      3347 1.13545E-03 3.01683E-05-1.98241E-15
 -1      3348 1.36626E-02 7.35822E-04-1.33600E-13
 -1      3349 1.37979E-02 6.50448E-04-1.34470E-13
 -1      3350 9.86802E-03 3.92659E-05-9.76209E-14
 -1      3351 9.88764E-03 5.51026E-05-9.86364E-14
 -1      3352 1.21059E-02 1.21343E-03-1.15258E-13
 -1      3353 1.03370E-02 2.33285E-04-1.00617E-13
 -1      3354 1.03360E-03-2.39230E-04-1.57591E-15
 -1      3355 1.04414E-03-2.64857E-04-1.56747E-15
 -1      3356 1.15231E-03-2.81607E-04-1.86275E-15
 -1      3357 1.02363E-03-1.49109E-04-1.64197E-15
 -1      3358 1.02769E-03-1.78336E-04-1.62973E-15
 -1      3359 1.37245E-02-3.67790E-04-1.36841E-13
 -1      3360 1.02830E-03 1.81173E-04-1.53049E-15
 -1      3361 1.02412E-03 1.51845E-04-1.55887E-15
 -1      3362 1.15305E-03 2.11824E-04-1.83950E-15
 -1      3363 1.34812E-02 8.51590E-04-1.32266E-13
 -1      3364 1.46589E-02 2.92824E-04-1.41309E-13
 -1      3365 1.45296E-02 3.52273E-04-1.41128E-13
 -1      3366 1.28101E-02-8.81109E-04-1.28569E-13
 -1      3367 1.50373E-02 1.56096E-04-1.42339E-13
 -1      3368 1.50367E-02 1.60763E-04-1.42385E-13
 -1      3369 2.74980E-03 3.81945E-04-8.54086E-15
 -1      3370 2.68332E-03 4.17882E-04-8.03166E-15
 -1      3371 2.54034E-03 4.14665E-04-7.23374E-15
 -1      3372 1.08729E-02 5.37705E-04-1.02629E-13
 -1      3373 1.16274E-02 9.83672E-04-1.09506E-13
 -1      3374 1.14331E-02 8.80315E-04-1.07289E-13
 -1      3375 1.13076E-02-6.07411E-04-1.09837E-13
 -1      3376 1.02082E-03 1.23302E-04-1.58269E-15
 -1      3377 1.01834E-03 9.55302E-05-1.60290E-15
 -1      3378 1.13811E-03 8.86294E-05-1.95098E-15
 -1      3379 1.14372E-03 1.48782E-04-1.90437E-15
 -1      3380 1.32633E-02-6.28559E-04-1.33145E-13
 -1      3381 1.48932E-02 2.08391E-04-1.41940E-13
 -1      3382 1.47784E-02 2.48170E-04-1.41692E-13
 -1      3383 1.00505E-02 1.21246E-04-9.97249E-14
 -1      3384 1.00597E-02 1.42109E-04-9.86005E-14
 -1      3385 9.89720E-03 6.80585E-05-9.88938E-14
 -1      3386 2.25422E-03 4.05310E-04-5.75854E-15
 -1      3387 2.17561E-03 3.65705E-04-5.49688E-15
 -1      3388 2.39731E-03 4.10511E-04-6.47591E-15
 -1      3389 9.97328E-03 9.79453E-05-9.94725E-14
 -1      3390 1.49935E-02 1.77588E-04-1.42139E-13
 -1      3391 1.08633E-02-3.23510E-04-1.06479E-13
 -1      3392 1.06938E-02-2.56444E-04-1.04815E-13
 -1      3393 1.09579E-02-3.93211E-04-1.06901E-13
 -1      3394 1.42682E-02 4.28675E-04-1.38060E-13
 -1      3395 1.17432E-02 1.03344E-03-1.11001E-13
 -1      3396 1.04564E-02-1.64119E-04-1.02605E-13
 -1      3397 1.03707E-02-1.18349E-04-1.02245E-13
 -1      3398 1.02509E-02-1.03904E-04-1.00466E-13
 -1      3399 1.55631E-03 3.61531E-04-2.85122E-15
 -1      3400 1.41294E-03 3.45343E-04-2.38210E-15
 -1      3401 1.36910E-03 3.15093E-04-2.31142E-15
 -1      3402 1.61928E-03 3.33923E-04-3.16632E-15
 -1      3403 1.00353E-02-1.48748E-05-9.92180E-14
 -1      3404 1.44105E-02-5.64776E-05-1.41495E-13
 -1      3405 1.02045E-03-1.20704E-04-1.65035E-15
 -1      3406 1.14325E-03-1.45888E-04-1.99274E-15
 -1      3407 1.01806E-03-9.29935E-05-1.65520E-15
 -1      3408 1.49203E-02 1.86934E-04-1.41037E-13
 -1      3409 1.18810E-02 1.12669E-03-1.12374E-13
 -1      3410 1.18665E-02 1.08433E-03-1.12674E-13
 -1      3411 1.26077E-03-2.96377E-04-2.18400E-15
 -1      3412 1.32461E-03-2.73570E-04-2.43702E-15
 -1      3413 1.02407E-03-2.14566E-04-1.58108E-15
 -1      3414 1.12666E-02 7.23543E-04-1.06797E-13
 -1      3415 2.15037E-03-2.93456E-04-5.88077E-15
 -1      3416 2.29473E-03-2.98369E-04-6.61340E-15
 -1      3417 2.43907E-03-3.02328E-04-7.38712E-15
 -1      3418 2.58339E-03-3.05429E-04-8.20154E-15
 -1      3419 2.36217E-03-2.63669E-04-7.01753E-15
 -1      3420 2.72766E-03-3.07836E-04-9.05538E-15
 -1      3421 2.87186E-03-3.09623E-04-9.94926E-15
 -1      3422 2.65143E-03-2.69373E-04-8.64455E-15
 -1      3423 3.01598E-03-3.10919E-04-1.08824E-14
 -1      3424 3.16002E-03-3.11779E-04-1.18539E-14
 -1      3425 2.94048E-03-2.72678E-04-1.04307E-14
 -1      3426 3.30398E-03-3.12301E-04-1.28639E-14
 -1      3427 3.44784E-03-3.12524E-04-1.39111E-14
 -1      3428 3.22919E-03-2.74284E-04-1.23711E-14
 -1      3429 3.59163E-03-3.12519E-04-1.49950E-14
 -1      3430 3.73534E-03-3.12313E-04-1.61146E-14
 -1      3431 3.51751E-03-2.74717E-04-1.44620E-14
 -1      3432 3.87896E-03-3.11955E-04-1.72698E-14
 -1      3433 4.02251E-03-3.11462E-04-1.84607E-14
 -1      3434 3.80543E-03-2.74358E-04-1.66975E-14
 -1      3435 4.16599E-03-3.10867E-04-1.96870E-14
 -1      3436 4.30940E-03-3.10177E-04-2.09472E-14
 -1      3437 4.09295E-03-2.73468E-04-1.90759E-14
 -1      3438 4.45275E-03-3.09414E-04-2.22396E-14
 -1      3439 4.59603E-03-3.08579E-04-2.35657E-14
 -1      3440 4.38012E-03-2.72215E-04-2.15912E-14
 -1      3441 4.73925E-03-3.07681E-04-2.49254E-14
 -1      3442 4.88241E-03-3.06718E-04-2.63182E-14
 -1      3443 4.66695E-03-2.70690E-04-2.42401E-14
 -1      3444 5.02551E-03-3.05691E-04-2.77418E-14
 -1      3445 5.16856E-03-3.04594E-04-2.91973E-14
 -1      3446 4.95346E-03-2.68929E-04-2.70199E-14
 -1      3447 5.31155E-03-3.03423E-04-3.06847E-14
 -1      3448 5.45448E-03-3.02168E-04-3.22036E-14
 -1      3449 5.23965E-03-2.66922E-04-2.99281E-14
 -1      3450 5.59735E-03-3.00821E-04-3.37526E-14
 -1      3451 5.74015E-03-2.99369E-04-3.53318E-14
 -1      3452 5.52553E-03-2.64623E-04-3.29612E-14
 -1      3453 5.88287E-03-2.97802E-04-3.69397E-14
 -1      3454 6.02552E-03-2.96106E-04-3.85770E-14
 -1      3455 5.81104E-03-2.61964E-04-3.61144E-14
 -1      3456 6.16808E-03-2.94271E-04-4.02430E-14
 -1      3457 6.31055E-03-2.92280E-04-4.19356E-14
 -1      3458 6.09613E-03-2.58857E-04-3.93847E-14
 -1      3459 6.45290E-03-2.90125E-04-4.36546E-14
 -1      3460 6.59515E-03-2.87790E-04-4.53999E-14
 -1      3461 6.38072E-03-2.55209E-04-4.27653E-14
 -1      3462 6.73725E-03-2.85272E-04-4.71689E-14
 -1      3463 6.87921E-03-2.82555E-04-4.89632E-14
 -1      3464 6.66468E-03-2.50928E-04-4.62497E-14
 -1      3465 7.02099E-03-2.79644E-04-5.07827E-14
 -1      3466 7.16261E-03-2.76527E-04-5.26254E-14
 -1      3467 6.94786E-03-2.45941E-04-4.98321E-14
 -1      3468 7.30402E-03-2.73222E-04-5.44907E-14
 -1      3469 7.44522E-03-2.69720E-04-5.63782E-14
 -1      3470 7.23009E-03-2.40207E-04-5.35118E-14
 -1      3471 7.58618E-03-2.66061E-04-5.82880E-14
 -1      3472 7.72691E-03-2.62243E-04-6.02208E-14
 -1      3473 7.51117E-03-2.33742E-04-5.72821E-14
 -1      3474 7.86735E-03-2.58329E-04-6.21732E-14
 -1      3475 8.00757E-03-2.54332E-04-6.41453E-14
 -1      3476 7.79090E-03-2.26646E-04-6.11380E-14
 -1      3477 8.14748E-03-2.50346E-04-6.61387E-14
 -1      3478 8.28719E-03-2.46406E-04-6.81508E-14
 -1      3479 8.06911E-03-2.19132E-04-6.50783E-14
 -1      3480 8.42663E-03-2.42637E-04-7.01788E-14
 -1      3481 8.56593E-03-2.39111E-04-7.22250E-14
 -1      3482 8.34571E-03-2.11563E-04-6.90948E-14
 -1      3483 8.70507E-03-2.35985E-04-7.42884E-14
 -1      3484 8.84426E-03-2.33389E-04-7.63653E-14
 -1      3485 8.62079E-03-2.04486E-04-7.31810E-14
 -1      3486 8.98352E-03-2.31506E-04-7.84558E-14
 -1      3487 9.12317E-03-2.30566E-04-8.05605E-14
 -1      3488 8.89478E-03-1.98685E-04-7.73292E-14
 -1      3489 9.26335E-03-2.30758E-04-8.26788E-14
 -1      3490 9.40452E-03-2.32503E-04-8.48101E-14
 -1      3491 9.16864E-03-1.95244E-04-8.15330E-14
 -1      3492 9.54700E-03-2.35978E-04-8.69518E-14
 -1      3493 9.69148E-03-2.41919E-04-8.91039E-14
 -1      3494 9.44427E-03-1.95722E-04-8.57875E-14
 -1      3495 9.83852E-03-2.50516E-04-9.12669E-14
 -1      3496 9.98905E-03-2.63134E-04-9.34385E-14
 -1      3497 9.72503E-03-2.02456E-04-9.00863E-14
 -1      3498 1.01442E-02-2.79724E-04-9.56203E-14
 -1      3499 1.03049E-02-3.03114E-04-9.78138E-14
 -1      3500 1.00169E-02-2.19731E-04-9.44245E-14
 -1      3501 1.04725E-02-3.33195E-04-1.00014E-13
 -1      3502 1.06477E-02-3.74126E-04-1.02223E-13
 -1      3503 1.03284E-02-2.55715E-04-9.87989E-14
 -1      3504 1.14341E-03-2.15252E-04-1.93023E-15
 -1      3505 4.25222E-03 3.47895E-04-1.95846E-14
 -1      3506 4.10896E-03 3.48527E-04-1.83670E-14
 -1      3507 3.96565E-03 3.49051E-04-1.71850E-14
 -1      3508 3.82230E-03 3.49458E-04-1.60386E-14
 -1      3509 4.03579E-03 3.11157E-04-1.78714E-14
 -1      3510 4.82481E-03 3.44587E-04-2.47984E-14
 -1      3511 4.68172E-03 3.45520E-04-2.34448E-14
 -1      3512 5.11087E-03 3.42513E-04-2.76030E-14
 -1      3513 4.96786E-03 3.43586E-04-2.61847E-14
 -1      3514 4.89574E-03 3.06804E-04-2.55945E-14
 -1      3515 5.39678E-03 3.40126E-04-3.05353E-14
 -1      3516 5.25385E-03 3.41362E-04-2.90535E-14
 -1      3517 5.18190E-03 3.04814E-04-2.84330E-14
 -1      3518 5.68254E-03 3.37355E-04-3.35888E-14
 -1      3519 5.53968E-03 3.38794E-04-3.20471E-14
 -1      3520 5.46781E-03 3.02520E-04-3.13974E-14
 -1      3521 5.96811E-03 3.34107E-04-3.67571E-14
 -1      3522 5.82535E-03 3.35797E-04-3.51587E-14
 -1      3523 5.75347E-03 2.99850E-04-3.44805E-14
 -1      3524 6.25346E-03 3.30275E-04-4.00367E-14
 -1      3525 6.11081E-03 3.32271E-04-3.83834E-14
 -1      3526 6.03881E-03 2.96714E-04-3.76790E-14
 -1      3527 6.53852E-03 3.25751E-04-4.34215E-14
 -1      3528 6.39603E-03 3.28106E-04-4.17166E-14
 -1      3529 6.32377E-03 2.93012E-04-4.09872E-14
 -1      3530 6.82322E-03 3.20442E-04-4.69062E-14
 -1      3531 6.68092E-03 3.23201E-04-4.51516E-14
 -1      3532 6.60825E-03 2.88648E-04-4.43975E-14
 -1      3533 7.10744E-03 3.14293E-04-5.04882E-14
 -1      3534 6.96539E-03 3.17477E-04-4.86846E-14
 -1      3535 6.89212E-03 2.83544E-04-4.79078E-14
 -1      3536 7.39103E-03 3.07312E-04-5.41586E-14
 -1      3537 7.24931E-03 3.10907E-04-5.23132E-14
 -1      3538 7.17519E-03 2.77660E-04-5.15136E-14
 -1      3539 7.67384E-03 2.99611E-04-5.79166E-14
 -1      3540 7.53253E-03 3.03546E-04-5.60279E-14
 -1      3541 7.45726E-03 2.71026E-04-5.52101E-14
 -1      3542 7.95569E-03 2.91449E-04-6.17535E-14
 -1      3543 7.81488E-03 2.95573E-04-5.98254E-14
 -1      3544 7.73808E-03 2.63769E-04-5.89897E-14
 -1      3545 8.23641E-03 2.83291E-04-6.56635E-14
 -1      3546 8.09618E-03 2.87343E-04-6.36996E-14
 -1      3547 8.01737E-03 2.56159E-04-6.28467E-14
 -1      3548 8.51589E-03 2.75872E-04-6.96429E-14
 -1      3549 8.37628E-03 2.79446E-04-6.76448E-14
 -1      3550 8.29484E-03 2.48654E-04-6.67765E-14
 -1      3551 8.79421E-03 2.70268E-04-7.36871E-14
 -1      3552 8.65515E-03 2.72775E-04-7.16573E-14
 -1      3553 8.57029E-03 2.41943E-04-7.07762E-14
 -1      3554 9.07180E-03 2.67975E-04-7.77920E-14
 -1      3555 8.93301E-03 2.68604E-04-7.57301E-14
 -1      3556 8.84366E-03 2.36994E-04-7.48395E-14
 -1      3557 9.34976E-03 2.71021E-04-8.19534E-14
 -1      3558 9.21057E-03 2.68672E-04-7.98670E-14
 -1      3559 9.11526E-03 2.35096E-04-7.89635E-14
 -1      3560 9.63041E-03 2.82164E-04-8.61632E-14
 -1      3561 9.48946E-03 2.75311E-04-8.40528E-14
 -1      3562 9.38610E-03 2.37920E-04-8.31403E-14
 -1      3563 9.91805E-03 3.05431E-04-9.04175E-14
 -1      3564 9.77288E-03 2.91803E-04-8.82844E-14
 -1      3565 9.65847E-03 2.47755E-04-8.73643E-14
 -1      3566 1.02200E-02 3.47283E-04-9.47126E-14
 -1      3567 1.00665E-02 3.23147E-04-9.25612E-14
 -1      3568 9.93689E-03 2.68143E-04-9.16303E-14
 -1      3569 1.05474E-02 4.18999E-04-9.90415E-14
 -1      3570 1.03797E-02 3.77511E-04-9.68736E-14
 -1      3571 1.02299E-02 3.05107E-04-9.59356E-14
 -1      3572 1.11622E-02-5.41618E-04-1.08251E-13
 -1      3573 1.02803E-02 2.51585E-04-9.86162E-14
 -1      3574 1.04646E-02 3.19155E-04-1.00102E-13
 -1      3575 1.95314E-03 3.19070E-04-4.59184E-15
 -1      3576 1.80916E-03 3.10477E-04-3.99089E-15
 -1      3577 1.34640E-02-5.27007E-04-1.35499E-13
 -1      3578 1.39431E-02 6.00359E-04-1.36364E-13
 -1      3579 1.43400E-02 4.56860E-04-1.40917E-13
 -1      3580 1.00349E-02-4.96409E-05-9.80373E-14
 -1      3581 9.91695E-03-6.46657E-06-9.71540E-14
 -1      3582 9.96615E-03 1.34275E-04-9.68114E-14
 -1      3583 1.00595E-02 1.65575E-04-9.73381E-14
 -1      3584 9.87167E-03 7.94280E-05-9.74960E-14
 -1      3585 1.42136E-02-1.18521E-04-1.39234E-13
 -1      3586 1.41158E-02-1.57815E-04-1.38546E-13
 -1      3587 4.53860E-03 3.46384E-04-2.21238E-14
 -1      3588 4.39543E-03 3.47179E-04-2.08365E-14
 -1      3589 4.32270E-03 3.09999E-04-2.03087E-14
 -1      3590 4.60934E-03 3.08531E-04-2.28847E-14
 -1      3591 1.06937E-02 4.28626E-04-1.01680E-13
 -1      3592 1.39905E-02-2.82639E-04-1.41154E-13
 -1      3593 3.10460E-03 3.48439E-04-1.08613E-14
 -1      3594 2.96086E-03 3.47282E-04-9.93846E-15
 -1      3595 1.40700E-02 5.52688E-04-1.37852E-13
 -1      3596 1.42914E-02 4.48124E-04-1.39416E-13
 -1      3597 1.09968E-02-4.62851E-04-1.06577E-13
 -1      3598 1.36348E-02-4.47834E-04-1.37558E-13
 -1      3599 9.78688E-03 6.32848E-05-9.56577E-14
 -1      3600 9.85231E-03 9.19608E-05-9.62382E-14
 -1      3601 9.83400E-03 1.09065E-04-9.49829E-14
 -1      3602 1.01525E-03-3.89346E-05-1.65544E-15
 -1      3603 1.01634E-03-6.57746E-05-1.65677E-15
 -1      3604 1.13786E-03-8.59855E-05-2.00377E-15
 -1      3605 1.57401E-03-2.60732E-04-3.36769E-15
 -1      3606 1.71781E-03-2.71210E-04-3.93235E-15
 -1      3607 1.86184E-03-2.80052E-04-4.53969E-15
 -1      3608 2.00607E-03-2.87390E-04-5.18934E-15
 -1      3609 2.07296E-03-2.54678E-04-5.55216E-15
 -1      3610 1.07818E-02 4.30455E-04-1.03694E-13
 -1      3611 9.84875E-03 1.57906E-05-9.64486E-14
 -1      3612 9.79641E-03 3.21404E-05-9.57436E-14
 -1      3613 9.83034E-03-1.22727E-05-9.52750E-14
 -1      3614 1.32635E-03-2.30942E-04-2.50245E-15
 -1      3615 1.20466E-02 1.17832E-03-1.14685E-13
 -1      3616 1.26718E-03-1.75672E-04-2.36170E-15
 -1      3617 1.44677E-03-2.28315E-04-2.93037E-15
 -1      3618 1.51348E-03-2.01897E-04-3.20595E-15
 -1      3619 1.26325E-03-1.43072E-04-2.37271E-15
 -1      3620 2.24122E-03 3.32016E-04-5.91758E-15
 -1      3621 2.09717E-03 3.26206E-04-5.23399E-15
 -1      3622 2.01907E-03 2.86965E-04-4.97119E-15
 -1      3623 1.20636E-02 1.20657E-03-1.14627E-13
 -1      3624 1.38280E-02-3.45811E-04-1.39085E-13
 -1      3625 1.27927E-03 2.42915E-04-2.17464E-15
 -1      3626 1.27313E-03 2.08711E-04-2.21710E-15
 -1      3627 1.06400E-02-2.97597E-04-1.03114E-13
 -1      3628 1.08049E-02-3.96969E-04-1.04349E-13
 -1      3629 2.81705E-03 3.45623E-04-9.05535E-15
 -1      3630 2.67318E-03 3.43399E-04-8.21142E-15
 -1      3631 2.88500E-03 3.08980E-04-9.57547E-15
 -1      3632 1.13537E-03-2.76974E-05-2.00003E-15
 -1      3633 3.74859E-03 3.11892E-04-1.55756E-14
 -1      3634 3.67888E-03 3.49709E-04-1.49285E-14
 -1      3635 3.53541E-03 3.49785E-04-1.38555E-14
 -1      3636 1.01634E-02-1.10618E-04-9.87466E-14
 -1      3637 1.00966E-02-7.78716E-05-9.83920E-14
 -1      3638 9.95660E-03-6.18802E-05-9.63278E-14
 -1      3639 2.46281E-03 3.75725E-04-6.93804E-15
 -1      3640 1.01008E-02 1.96988E-04-9.68956E-14
 -1      3641 1.01949E-02 2.67247E-04-9.63824E-14
 -1      3642 1.00524E-02 2.49639E-04-9.42239E-14
 -1      3643 9.98968E-03 1.85330E-04-9.51106E-14
 -1      3644 1.73075E-03 2.71039E-04-3.76144E-15
 -1      3645 1.66531E-03 3.00159E-04-3.43136E-15
 -1      3646 9.73730E-03 4.39801E-05-9.44912E-14
 -1      3647 9.68811E-03 5.51843E-05-9.32425E-14
 -1      3648 9.69700E-03 2.28283E-05-9.33244E-14
 -1      3649 1.53987E-03 2.93412E-04-2.96893E-15
 -1      3650 3.24827E-03 3.49206E-04-1.18216E-14
 -1      3651 3.17321E-03 3.11180E-04-1.14246E-14
 -1      3652 3.39187E-03 3.49627E-04-1.28195E-14
 -1      3653 1.26111E-03 1.10667E-04-2.31137E-15
 -1      3654 1.25890E-03 7.91095E-05-2.33334E-15
 -1      3655 1.78422E-03-2.41329E-04-4.25267E-15
 -1      3656 1.25743E-03 4.78232E-05-2.35088E-15
 -1      3657 1.25670E-03 1.67541E-05-2.36507E-15
 -1      3658 1.38060E-03 6.71729E-05-2.74863E-15
 -1      3659 1.26812E-03 1.75340E-04-2.25360E-15
 -1      3660 1.26417E-03 1.42686E-04-2.28498E-15
 -1      3661 1.38538E-03 1.33982E-04-2.69946E-15
 -1      3662 1.39380E-03 2.02679E-04-2.62968E-15
 -1      3663 2.28561E-03-2.25256E-04-6.65235E-15
 -1      3664 2.43049E-03-2.28444E-04-7.42539E-15
 -1      3665 1.32613E-03 2.85616E-04-2.23789E-15
 -1      3666 1.44603E-03 2.81000E-04-2.65841E-15
 -1      3667 2.57538E-03-2.30977E-04-8.23843E-15
 -1      3668 2.72024E-03-2.32921E-04-9.09120E-15
 -1      3669 2.49960E-03-1.92739E-04-7.83671E-15
 -1      3670 2.86505E-03-2.34393E-04-9.98274E-15
 -1      3671 3.00977E-03-2.35440E-04-1.09139E-14
 -1      3672 2.78976E-03-1.96127E-04-9.53977E-15
 -1      3673 3.15440E-03-2.36157E-04-1.18825E-14
 -1      3674 3.29892E-03-2.36576E-04-1.28892E-14
 -1      3675 3.07967E-03-1.97964E-04-1.13983E-14
 -1      3676 3.44333E-03-2.36771E-04-1.39331E-14
 -1      3677 3.58763E-03-2.36762E-04-1.50131E-14
 -1      3678 3.36915E-03-1.98710E-04-1.34083E-14
 -1      3679 3.73181E-03-2.36603E-04-1.61300E-14
 -1      3680 3.87587E-03-2.36307E-04-1.72813E-14
 -1      3681 3.65815E-03-1.98709E-04-1.55653E-14
 -1      3682 4.01982E-03-2.35911E-04-1.84687E-14
 -1      3683 4.16366E-03-2.35422E-04-1.96913E-14
 -1      3684 3.94663E-03-1.98206E-04-1.78662E-14
 -1      3685 4.30740E-03-2.34864E-04-2.09468E-14
 -1      3686 4.45103E-03-2.34237E-04-2.22358E-14
 -1      3687 4.23461E-03-1.97364E-04-2.03058E-14
 -1      3688 4.59456E-03-2.33558E-04-2.35582E-14
 -1      3689 4.73799E-03-2.32822E-04-2.49144E-14
 -1      3690 4.52211E-03-1.96280E-04-2.28810E-14
 -1      3691 4.88133E-03-2.32037E-04-2.63026E-14
 -1      3692 5.02457E-03-2.31195E-04-2.77232E-14
 -1      3693 4.80915E-03-1.95005E-04-2.55887E-14
 -1      3694 5.16771E-03-2.30300E-04-2.91752E-14
 -1      3695 5.31075E-03-2.29341E-04-3.06588E-14
 -1      3696 5.09574E-03-1.93545E-04-2.84262E-14
 -1      3697 5.45369E-03-2.28316E-04-3.21738E-14
 -1      3698 5.59653E-03-2.27212E-04-3.37191E-14
 -1      3699 5.38186E-03-1.91879E-04-3.13907E-14
 -1      3700 5.73924E-03-2.26026E-04-3.52941E-14
 -1      3701 5.88183E-03-2.24742E-04-3.68972E-14
 -1      3702 5.66748E-03-1.89963E-04-3.44767E-14
 -1      3703 6.02428E-03-2.23356E-04-3.85309E-14
 -1      3704 6.16659E-03-2.21851E-04-4.01920E-14
 -1      3705 5.95253E-03-1.87733E-04-3.76812E-14
 -1      3706 6.30872E-03-2.20222E-04-4.18790E-14
 -1      3707 6.45067E-03-2.18451E-04-4.35929E-14
 -1      3708 6.23690E-03-1.85117E-04-4.09967E-14
 -1      3709 6.59241E-03-2.16538E-04-4.53329E-14
 -1      3710 6.73393E-03-2.14462E-04-4.70967E-14
 -1      3711 6.52043E-03-1.82039E-04-4.44192E-14
 -1      3712 6.87518E-03-2.12229E-04-4.88863E-14
 -1      3713 7.01616E-03-2.09817E-04-5.07007E-14
 -1      3714 6.80294E-03-1.78425E-04-4.79446E-14
 -1      3715 7.15682E-03-2.07242E-04-5.25375E-14
 -1      3716 7.29714E-03-2.04481E-04-5.43979E-14
 -1      3717 7.08416E-03-1.74218E-04-5.15672E-14
 -1      3718 7.43707E-03-2.01564E-04-5.62806E-14
 -1      3719 7.57660E-03-1.98468E-04-5.81844E-14
 -1      3720 7.36382E-03-1.69384E-04-5.52817E-14
 -1      3721 7.71566E-03-1.95241E-04-6.01089E-14
 -1      3722 7.85426E-03-1.91862E-04-6.20547E-14
 -1      3723 7.64159E-03-1.63931E-04-5.90842E-14
 -1      3724 7.99233E-03-1.88400E-04-6.40215E-14
 -1      3725 8.12989E-03-1.84841E-04-6.60081E-14
 -1      3726 7.91712E-03-1.57921E-04-6.29693E-14
 -1      3727 8.26686E-03-1.81274E-04-6.80133E-14
 -1      3728 8.40331E-03-1.77697E-04-7.00361E-14
 -1      3729 8.19007E-03-1.51483E-04-6.69352E-14
 -1      3730 8.53915E-03-1.74221E-04-7.20777E-14
 -1      3731 8.67450E-03-1.70861E-04-7.41354E-14
 -1      3732 8.46016E-03-1.44826E-04-7.09768E-14
 -1      3733 8.80930E-03-1.67747E-04-7.62062E-14
 -1      3734 8.94377E-03-1.64930E-04-7.82907E-14
 -1      3735 8.72723E-03-1.38243E-04-7.50852E-14
 -1      3736 9.07785E-03-1.62545E-04-8.03898E-14
 -1      3737 9.21194E-03-1.60722E-04-8.25010E-14
 -1      3738 8.99139E-03-1.32118E-04-7.92509E-14
 -1      3739 9.34601E-03-1.59578E-04-8.46257E-14
 -1      3740 9.48077E-03-1.59441E-04-8.67634E-14
 -1      3741 9.25317E-03-1.26965E-04-8.34671E-14
 -1      3742 9.61618E-03-1.60427E-04-8.89086E-14
 -1      3743 9.75355E-03-1.63080E-04-9.10639E-14
 -1      3744 9.51398E-03-1.23606E-04-8.77335E-14
 -1      3745 9.95212E-03-1.49843E-04-9.44674E-14
 -1      3746 1.00944E-02-1.58794E-04-9.66458E-14
 -1      3747 1.02424E-02-1.71692E-04-9.88317E-14
 -1      3748 4.10621E-03 2.73185E-04-1.85607E-14
 -1      3749 3.96249E-03 2.73624E-04-1.73757E-14
 -1      3750 9.72120E-03 9.47713E-05-9.30094E-14
 -1      3751 9.82121E-03 1.35001E-04-9.35815E-14
 -1      3752 5.25293E-03 2.67184E-04-2.92652E-14
 -1      3753 5.10988E-03 2.68152E-04-2.78135E-14
 -1      3754 4.96674E-03 2.69053E-04-2.63931E-14
 -1      3755 4.82352E-03 2.69894E-04-2.50044E-14
 -1      3756 5.03779E-03 2.31364E-04-2.71938E-14
 -1      3757 5.82428E-03 2.62504E-04-3.53752E-14
 -1      3758 5.68159E-03 2.63815E-04-3.38043E-14
 -1      3759 6.10933E-03 2.59540E-04-3.86036E-14
 -1      3760 5.96686E-03 2.61084E-04-3.69756E-14
 -1      3761 5.89499E-03 2.25349E-04-3.62727E-14
 -1      3762 6.39383E-03 2.56041E-04-4.19385E-14
 -1      3763 6.25165E-03 2.57864E-04-4.02577E-14
 -1      3764 6.17969E-03 2.22617E-04-3.95293E-14
 -1      3765 6.67765E-03 2.51924E-04-4.53751E-14
 -1      3766 6.53583E-03 2.54067E-04-4.36433E-14
 -1      3767 6.46367E-03 2.19396E-04-4.28908E-14
 -1      3768 6.96059E-03 2.47128E-04-4.89124E-14
 -1      3769 6.81924E-03 2.49618E-04-4.71320E-14
 -1      3770 6.74675E-03 2.15616E-04-4.63556E-14
 -1      3771 7.24243E-03 2.41632E-04-5.25435E-14
 -1      3772 7.10166E-03 2.44472E-04-5.07167E-14
 -1      3773 7.02870E-03 2.11234E-04-4.99197E-14
 -1      3774 7.52286E-03 2.35481E-04-5.62620E-14
 -1      3775 7.38283E-03 2.38640E-04-5.43915E-14
 -1      3776 7.30921E-03 2.06247E-04-5.35748E-14
 -1      3777 7.80157E-03 2.28818E-04-6.00636E-14
 -1      3778 7.66244E-03 2.32211E-04-5.81528E-14
 -1      3779 7.58793E-03 2.00717E-04-5.73164E-14
 -1      3780 8.07815E-03 2.21917E-04-6.39411E-14
 -1      3781 7.94013E-03 2.25389E-04-6.19933E-14
 -1      3782 7.86443E-03 1.94796E-04-6.11392E-14
 -1      3783 8.35223E-03 2.15213E-04-6.78916E-14
 -1      3784 8.21551E-03 2.18524E-04-6.59077E-14
 -1      3785 8.13822E-03 1.88751E-04-6.50381E-14
 -1      3786 8.62346E-03 2.09335E-04-7.19129E-14
 -1      3787 8.48820E-03 2.12145E-04-6.98945E-14
 -1      3788 8.40881E-03 1.82990E-04-6.90113E-14
 -1      3789 8.89160E-03 2.05118E-04-7.59951E-14
 -1      3790 8.75788E-03 2.06982E-04-7.39461E-14
 -1      3791 8.67566E-03 1.78059E-04-7.30517E-14
 -1      3792 9.15676E-03 2.03612E-04-8.01369E-14
 -1      3793 9.02447E-03 2.03973E-04-7.80586E-14
 -1      3794 8.93833E-03 1.74639E-04-7.71539E-14
 -1      3795 9.41967E-03 2.06111E-04-8.43294E-14
 -1      3796 9.28832E-03 2.04279E-04-8.22267E-14
 -1      3797 9.19659E-03 1.73509E-04-8.13116E-14
 -1      3798 9.68221E-03 2.14317E-04-8.85669E-14
 -1      3799 9.55063E-03 2.09315E-04-8.64428E-14
 -1      3800 9.45062E-03 1.75487E-04-8.55202E-14
 -1      3801 9.93187E-03 2.34029E-04-9.24591E-14
 -1      3802 9.79699E-03 2.24283E-04-9.03175E-14
 -1      3803 9.68496E-03 1.84691E-04-8.93888E-14
 -1      3804 9.90704E-03 2.03315E-04-9.29029E-14
 -1      3805 1.79724E-03 2.41023E-04-4.09999E-15
 -1      3806 1.65322E-03 2.32483E-04-3.53230E-15
 -1      3807 1.25802E-03-7.96020E-05-2.38126E-15
 -1      3808 1.26020E-03-1.11087E-04-2.37906E-15
 -1      3809 1.38397E-03-1.37953E-04-2.78431E-15
 -1      3810 2.52924E-03 3.40464E-04-7.40665E-15
 -1      3811 2.38525E-03 3.36732E-04-6.64197E-15
 -1      3812 2.30778E-03 2.97797E-04-6.34555E-15
 -1      3813 1.70744E-03-2.03516E-04-3.96981E-15
 -1      3814 1.85162E-03-2.10529E-04-4.57817E-15
 -1      3815 1.25665E-03-1.41846E-05-2.37515E-15
 -1      3816 1.25730E-03-4.51740E-05-2.38129E-15
 -1      3817 1.37900E-03 1.35987E-06-2.78014E-15
 -1      3818 1.99610E-03-2.16415E-04-5.22833E-15
 -1      3819 2.14079E-03-2.21275E-04-5.91996E-15
 -1      3820 2.20948E-03-1.87208E-04-6.29211E-15
 -1      3821 1.05551E-02-2.40259E-04-1.02697E-13
 -1      3822 1.04151E-02-2.11789E-04-1.00911E-13
 -1      3823 9.79217E-03-3.87488E-05-9.39066E-14
 -1      3824 9.72627E-03-1.51157E-05-9.32093E-14
 -1      3825 1.43621E-02-9.36056E-05-1.42266E-13
 -1      3826 5.53879E-03 2.65024E-04-3.22612E-14
 -1      3827 5.39591E-03 2.66145E-04-3.07478E-14
 -1      3828 5.60972E-03 2.27668E-04-3.31279E-14
 -1      3829 1.49317E-03 2.49694E-04-2.89380E-15
 -1      3830 1.57008E-03 2.23044E-04-3.22977E-15
 -1      3831 1.47650E-03 2.12890E-04-2.90337E-15
 -1      3832 1.47157E-03 1.77178E-04-2.94411E-15
 -1      3833 1.63728E-03 1.94777E-04-3.53812E-15
 -1      3834 5.32397E-03 2.29652E-04-3.00994E-14
 -1      3835 3.88908E-03 2.35935E-04-1.68803E-14
 -1      3836 3.81867E-03 2.73951E-04-1.62260E-14
 -1      3837 3.67475E-03 2.74158E-04-1.51123E-14
 -1      3838 9.83228E-03-1.05330E-04-9.32728E-14
 -1      3839 4.24984E-03 2.72664E-04-1.97816E-14
 -1      3840 4.17688E-03 2.35177E-04-1.92538E-14
 -1      3841 4.39339E-03 2.72063E-04-2.10363E-14
 -1      3842 1.94153E-03 2.48208E-04-4.70880E-15
 -1      3843 1.86465E-03 2.10103E-04-4.44684E-15
 -1      3844 2.08602E-03 2.54165E-04-5.35840E-15
 -1      3845 1.37973E-03-6.77701E-05-2.79206E-15
 -1      3846 9.64216E-03 7.37076E-05-9.18518E-14
 -1      3847 9.60449E-03 9.48063E-05-9.04630E-14
 -1      3848 9.57521E-03 5.39199E-05-9.06931E-14
 -1      3849 9.88115E-03 1.74775E-04-9.33438E-14
 -1      3850 9.64700E-03 1.22328E-06-9.19661E-14
 -1      3851 9.57659E-03 1.52771E-05-9.07236E-14
 -1      3852 9.59576E-03-2.23711E-05-9.06034E-14
 -1      3853 9.74091E-03 1.52805E-04-9.13806E-14
 -1      3854 4.68022E-03 2.70675E-04-2.36483E-14
 -1      3855 4.53685E-03 2.71401E-04-2.23251E-14
 -1      3856 4.46425E-03 2.34126E-04-2.17668E-14
 -1      3857 2.59650E-03 3.04790E-04-7.88151E-15
 -1      3858 1.58105E-03-1.74262E-04-3.48839E-15
 -1      3859 3.46107E-03 3.12002E-04-1.34256E-14
 -1      3860 1.50485E-03 8.79326E-05-3.17487E-15
 -1      3861 1.50320E-03 5.31846E-05-3.19711E-15
 -1      3862 2.95365E-03 2.72015E-04-1.01006E-14
 -1      3863 2.80915E-03 2.70608E-04-9.21184E-15
 -1      3864 1.40477E-02-2.08692E-04-1.39185E-13
 -1      3865 1.91990E-03-1.78819E-04-4.90958E-15
 -1      3866 3.24239E-03 2.73679E-04-1.19931E-14
 -1      3867 3.09807E-03 2.73024E-04-1.10283E-14
 -1      3868 3.02293E-03 2.34785E-04-1.06313E-14
 -1      3869 1.48916E-03 1.50087E-04-3.04680E-15
 -1      3870 1.48597E-03 1.15081E-04-3.07796E-15
 -1      3871 1.60863E-03 1.01912E-04-3.55331E-15
 -1      3872 1.57181E-03 1.58161E-04-3.34253E-15
 -1      3873 4.75122E-03 2.32849E-04-2.44148E-14
 -1      3874 4.82233E-03 1.95071E-04-2.51842E-14
 -1      3875 4.67887E-03 1.95661E-04-2.38255E-14
 -1      3876 2.13392E-03-1.49680E-04-5.93670E-15
 -1      3877 2.27901E-03-1.52494E-04-6.66805E-15
 -1      3878 2.71474E-03-1.57964E-04-9.10192E-15
 -1      3879 2.85995E-03-1.59003E-04-9.99087E-15
 -1      3880 3.00510E-03-1.59762E-04-1.09191E-14
 -1      3881 3.15014E-03-1.60263E-04-1.18850E-14
 -1      3882 2.93076E-03-1.21603E-04-1.04445E-14
 -1      3883 3.29507E-03-1.60571E-04-1.28883E-14
 -1      3884 3.43987E-03-1.60699E-04-1.39287E-14
 -1      3885 3.22113E-03-1.22392E-04-1.23730E-14
 -1      3886 3.58453E-03-1.60698E-04-1.50055E-14
 -1      3887 3.72906E-03-1.60574E-04-1.61186E-14
 -1      3888 3.51101E-03-1.22595E-04-1.44498E-14
 -1      3889 3.87345E-03-1.60364E-04-1.72666E-14
 -1      3890 4.01770E-03-1.60070E-04-1.84503E-14
 -1      3891 3.80032E-03-1.22401E-04-1.66717E-14
 -1      3892 4.16181E-03-1.59719E-04-1.96685E-14
 -1      3893 4.30579E-03-1.59309E-04-2.09205E-14
 -1      3894 4.08903E-03-1.21939E-04-1.90346E-14
 -1      3895 4.44964E-03-1.58858E-04-2.22067E-14
 -1      3896 4.59335E-03-1.58361E-04-2.35262E-14
 -1      3897 4.37717E-03-1.21293E-04-2.15360E-14
 -1      3898 4.73695E-03-1.57830E-04-2.48787E-14
 -1      3899 4.88041E-03-1.57257E-04-2.62641E-14
 -1      3900 4.66474E-03-1.20510E-04-2.41726E-14
 -1      3901 5.02375E-03-1.56649E-04-2.76817E-14
 -1      3902 5.16696E-03-1.55997E-04-2.91303E-14
 -1      3903 4.95176E-03-1.19606E-04-2.69397E-14
 -1      3904 5.31004E-03-1.55304E-04-3.06100E-14
 -1      3905 5.45298E-03-1.54558E-04-3.21216E-14
 -1      3906 5.23823E-03-1.18578E-04-2.98338E-14
 -1      3907 5.59577E-03-1.53761E-04-3.36626E-14
 -1      3908 5.73841E-03-1.52898E-04-3.52334E-14
 -1      3909 5.52410E-03-1.17402E-04-3.28520E-14
 -1      3910 5.88088E-03-1.51970E-04-3.68335E-14
 -1      3911 6.02317E-03-1.50961E-04-3.84619E-14
 -1      3912 5.80932E-03-1.16042E-04-3.59895E-14
 -1      3913 6.16525E-03-1.49873E-04-4.01180E-14
 -1      3914 6.30712E-03-1.48685E-04-4.17998E-14
 -1      3915 6.09376E-03-1.14452E-04-3.92411E-14
 -1      3916 6.44873E-03-1.47402E-04-4.35105E-14
 -1      3917 6.59007E-03-1.46003E-04-4.52450E-14
 -1      3918 6.37726E-03-1.12579E-04-4.26035E-14
 -1      3919 6.73110E-03-1.44494E-04-4.70048E-14
 -1      3920 6.87179E-03-1.42851E-04-4.87912E-14
 -1      3921 6.65962E-03-1.10368E-04-4.60697E-14
 -1      3922 7.01209E-03-1.41089E-04-5.06003E-14
 -1      3923 7.15198E-03-1.39179E-04-5.24322E-14
 -1      3924 6.94054E-03-1.07764E-04-4.96358E-14
 -1      3925 7.29140E-03-1.37144E-04-5.42874E-14
 -1      3926 7.43031E-03-1.34952E-04-5.61645E-14
 -1      3927 7.21970E-03-1.04722E-04-5.32958E-14
 -1      3928 7.56864E-03-1.32639E-04-5.80633E-14
 -1      3929 7.70637E-03-1.30167E-04-5.99818E-14
 -1      3930 7.49670E-03-1.01205E-04-5.70455E-14
 -1      3931 7.84340E-03-1.27588E-04-6.19218E-14
 -1      3932 7.97973E-03-1.24858E-04-6.38817E-14
 -1      3933 7.77106E-03-9.71943E-05-6.08785E-14
 -1      3934 8.11526E-03-1.22047E-04-6.58628E-14
 -1      3935 8.24998E-03-1.19102E-04-6.78620E-14
 -1      3936 8.04229E-03-9.26900E-05-6.47927E-14
 -1      3937 8.38377E-03-1.16112E-04-6.98793E-14
 -1      3938 8.51667E-03-1.13016E-04-7.19153E-14
 -1      3939 8.30983E-03-8.77101E-05-6.87866E-14
 -1      3940 8.64854E-03-1.09921E-04-7.39669E-14
 -1      3941 8.77947E-03-1.06754E-04-7.60321E-14
 -1      3942 8.57310E-03-8.22799E-05-7.28509E-14
 -1      3943 8.90929E-03-1.03634E-04-7.81132E-14
 -1      3944 9.03819E-03-1.00488E-04-8.02058E-14
 -1      3945 8.83151E-03-7.64085E-05-7.69770E-14
 -1      3946 9.16595E-03-9.74540E-05-8.23129E-14
 -1      3947 9.29294E-03-9.44542E-05-8.44321E-14
 -1      3948 9.08449E-03-7.00720E-05-8.11607E-14
 -1      3949 2.66457E-03 2.68695E-04-8.36236E-15
 -1      3950 2.51994E-03 2.66216E-04-7.55156E-15
 -1      3951 2.73338E-03 2.32235E-04-8.84870E-15
 -1      3952 1.62660E-03 3.74886E-05-3.67774E-15
 -1      3953 1.50236E-03 1.86804E-05-3.21469E-15
 -1      3954 1.50231E-03-1.57715E-05-3.22782E-15
 -1      3955 6.53333E-03 1.83115E-04-4.38467E-14
 -1      3956 6.39174E-03 1.84609E-04-4.21393E-14
 -1      3957 6.24991E-03 1.85980E-04-4.04564E-14
 -1      3958 6.10786E-03 1.87249E-04-3.87996E-14
 -1      3959 6.32003E-03 1.49657E-04-4.13862E-14
 -1      3960 5.96562E-03 1.88414E-04-3.71708E-14
 -1      3961 5.82319E-03 1.89490E-04-3.55694E-14
 -1      3962 6.03617E-03 1.51725E-04-3.80706E-14
 -1      3963 6.81563E-03 1.79767E-04-4.73400E-14
 -1      3964 6.67463E-03 1.81508E-04-4.55811E-14
 -1      3965 6.60285E-03 1.47227E-04-4.48062E-14
 -1      3966 7.09655E-03 1.75908E-04-5.09292E-14
 -1      3967 6.95628E-03 1.77907E-04-4.91228E-14
 -1      3968 6.88436E-03 1.44403E-04-4.83264E-14
 -1      3969 7.37571E-03 1.71552E-04-5.46090E-14
 -1      3970 7.23636E-03 1.73797E-04-5.27584E-14
 -1      3971 7.16422E-03 1.41173E-04-5.19414E-14
 -1      3972 7.65268E-03 1.66777E-04-5.83726E-14
 -1      3973 7.51449E-03 1.69221E-04-5.64796E-14
 -1      3974 7.44202E-03 1.37570E-04-5.56447E-14
 -1      3975 7.92696E-03 1.61740E-04-6.22195E-14
 -1      3976 7.79018E-03 1.64293E-04-6.02874E-14
 -1      3977 7.71726E-03 1.33680E-04-5.94336E-14
 -1      3978 8.19797E-03 1.56698E-04-6.61392E-14
 -1      3979 8.06290E-03 1.59219E-04-6.41695E-14
 -1      3980 7.98936E-03 1.29661E-04-6.33009E-14
 -1      3981 8.46505E-03 1.52019E-04-7.01323E-14
 -1      3982 8.33202E-03 1.54312E-04-6.81265E-14
 -1      3983 8.25763E-03 1.25757E-04-6.72434E-14
 -1      3984 8.72752E-03 1.48171E-04-7.41935E-14
 -1      3985 8.59688E-03 1.49992E-04-7.21558E-14
 -1      3986 8.52128E-03 1.22296E-04-7.12571E-14
 -1      3987 8.98463E-03 1.45681E-04-7.83132E-14
 -1      3988 8.85675E-03 1.46766E-04-7.62458E-14
 -1      3989 8.77942E-03 1.19664E-04-7.53379E-14
 -1      3990 9.23570E-03 1.45076E-04-8.24910E-14
 -1      3991 9.11089E-03 1.45166E-04-8.03958E-14
 -1      3992 9.03097E-03 1.18247E-04-7.94783E-14
 -1      3993 9.48013E-03 1.46829E-04-8.67137E-14
 -1      3994 9.35864E-03 1.45727E-04-8.45965E-14
 -1      3995 9.27464E-03 1.18343E-04-8.36710E-14
 -1      3996 9.63896E-03 1.46882E-04-8.96254E-14
 -1      3997 1.57733E-03-1.38105E-04-3.49716E-15
 -1      3998 2.42422E-03-1.54773E-04-7.43947E-15
 -1      3999 2.56948E-03-1.56565E-04-8.25078E-15
 -1      4000 2.34930E-03-1.17175E-04-7.04761E-15
 -1      4001 5.39502E-03 1.92241E-04-3.09353E-14
 -1      4002 5.25202E-03 1.93028E-04-2.94508E-14
 -1      4003 5.10891E-03 1.93757E-04-2.79972E-14
 -1      4004 4.96568E-03 1.94439E-04-2.65746E-14
 -1      4005 5.18007E-03 1.56261E-04-2.88027E-14
 -1      4006 1.53392E-03-9.58332E-05-3.34719E-15
 -1      4007 1.73101E-03-1.28516E-04-4.11813E-15
 -1      4008 1.85985E-03-1.37549E-04-4.66584E-15
 -1      4009 2.00448E-03-1.41482E-04-5.32018E-15
 -1      4010 2.07455E-03-1.07878E-04-5.66260E-15
 -1      4011 1.81631E-03-9.27047E-05-4.49005E-15
 -1      4012 1.53284E-03-5.71384E-05-3.34761E-15
 -1      4013 5.68061E-03 1.90479E-04-3.39962E-14
 -1      4014 5.53788E-03 1.91395E-04-3.24516E-14
 -1      4015 5.46607E-03 1.54978E-04-3.17750E-14
 -1      4016 2.37528E-03 2.63036E-04-6.78018E-15
 -1      4017 2.23062E-03 2.59072E-04-6.04878E-15
 -1      4018 2.15387E-03 2.20691E-04-5.75316E-15
 -1      4019 2.44360E-03 2.27776E-04-7.22163E-15
 -1      4020 3.53073E-03 2.74201E-04-1.40358E-14
 -1      4021 3.38661E-03 2.74062E-04-1.29959E-14
 -1      4022 3.31210E-03 2.35993E-04-1.25665E-14
 -1      4023 3.60083E-03 2.36275E-04-1.46501E-14
 -1      4024 9.54731E-03 1.18146E-04-8.86913E-14
 -1      4025 3.95982E-03 1.97858E-04-1.75388E-14
 -1      4026 3.81564E-03 1.98101E-04-1.63858E-14
 -1      4027 1.65634E-03-4.12425E-05-3.82605E-15
 -1      4028 2.80291E-03 1.95417E-04-9.34112E-15
 -1      4029 2.65784E-03 1.93949E-04-8.48602E-15
 -1      4030 9.41881E-03-9.16416E-05-8.65629E-14
 -1      4031 9.54431E-03-8.90370E-05-8.87038E-14
 -1      4032 1.75163E-03 5.74670E-05-4.16857E-15
 -1      4033 1.75074E-03 2.02199E-05-4.18995E-15
 -1      4034 4.53530E-03 1.96203E-04-2.25008E-14
 -1      4035 4.39161E-03 1.96703E-04-2.12090E-14
 -1      4036 4.60649E-03 1.58329E-04-2.32380E-14
 -1      4037 5.75147E-03 1.53482E-04-3.48663E-14
 -1      4038 9.66390E-03-8.06707E-05-9.08641E-14
 -1      4039 9.83803E-03-6.00600E-05-9.42552E-14
 -1      4040 4.10387E-03 1.97540E-04-1.87267E-14
 -1      4041 4.03085E-03 1.59762E-04-1.82012E-14
 -1      4042 4.24780E-03 1.97148E-04-1.99503E-14
 -1      4043 9.44042E-03 1.54074E-05-8.79951E-14
 -1      4044 9.50632E-03 3.51920E-05-8.93452E-14
 -1      4045 9.44603E-03 5.49519E-05-8.79678E-14
 -1      4046 9.45881E-03 9.52960E-05-8.75441E-14
 -1      4047 9.56825E-03-5.03237E-05-8.96804E-14
 -1      4048 9.48531E-03-3.20255E-05-8.84491E-14
 -1      4049 4.89354E-03 1.57371E-04-2.59562E-14
 -1      4050 1.71289E-03 1.16266E-04-3.95150E-15
 -1      4051 1.73198E-03 8.69662E-05-4.06110E-15
 -1      4052 1.85597E-03 7.04961E-05-4.60053E-15
 -1      4053 9.33150E-03-6.32585E-05-8.53932E-14
 -1      4054 3.09283E-03 1.97301E-04-1.11674E-14
 -1      4055 2.94792E-03 1.96522E-04-1.02350E-14
 -1      4056 2.87309E-03 1.58294E-04-9.84008E-15
 -1      4057 2.64005E-03-1.19975E-04-8.66816E-15
 -1      4058 1.65472E-03 1.66057E-04-3.65222E-15
 -1      4059 1.82082E-03 1.81047E-04-4.30947E-15
 -1      4060 1.75556E-03 1.44010E-04-4.09145E-15
 -1      4061 1.87894E-03 1.28836E-04-4.63646E-15
 -1      4062 1.96530E-03 1.86445E-04-4.93369E-15
 -1      4063 1.76732E-03-1.35162E-05-4.27481E-15
 -1      4064 1.79809E-03-5.81243E-05-4.41369E-15
 -1      4065 1.92690E-03-6.48379E-05-4.97943E-15
 -1      4066 1.89227E-03 5.31716E-06-4.80563E-15
 -1      4067 2.56581E-03-8.22535E-05-8.23991E-15
 -1      4068 2.71130E-03-8.29942E-05-9.08818E-15
 -1      4069 3.14744E-03-8.42217E-05-1.18622E-14
 -1      4070 3.29262E-03-8.43698E-05-1.28619E-14
 -1      4071 3.43766E-03-8.44352E-05-1.38988E-14
 -1      4072 3.58256E-03-8.44147E-05-1.49724E-14
 -1      4073 3.36453E-03-4.62499E-05-1.33525E-14
 -1      4074 3.72730E-03-8.43408E-05-1.60809E-14
 -1      4075 3.87189E-03-8.42083E-05-1.72255E-14
 -1      4076 3.65444E-03-4.62060E-05-1.54952E-14
 -1      4077 4.01633E-03-8.40389E-05-1.84063E-14
 -1      4078 4.16061E-03-8.38290E-05-1.96206E-14
 -1      4079 3.94374E-03-4.60309E-05-1.77810E-14
 -1      4080 4.30475E-03-8.35961E-05-2.08695E-14
 -1      4081 4.44873E-03-8.33319E-05-2.21529E-14
 -1      4082 4.23240E-03-4.57743E-05-2.02069E-14
 -1      4083 4.59256E-03-8.30500E-05-2.34693E-14
 -1      4084 4.73625E-03-8.27424E-05-2.48191E-14
 -1      4085 4.52044E-03-4.54539E-05-2.27703E-14
 -1      4086 4.87980E-03-8.24172E-05-2.62011E-14
 -1      4087 5.02320E-03-8.20676E-05-2.76155E-14
 -1      4088 4.80788E-03-4.50803E-05-2.54663E-14
 -1      4089 5.16645E-03-8.16988E-05-2.90606E-14
 -1      4090 5.30955E-03-8.13022E-05-3.05371E-14
 -1      4091 5.09471E-03-4.46613E-05-2.82903E-14
 -1      4092 5.45248E-03-8.08809E-05-3.20450E-14
 -1      4093 5.59525E-03-8.04259E-05-3.35823E-14
 -1      4094 5.38091E-03-4.41878E-05-3.12409E-14
 -1      4095 5.73783E-03-7.99392E-05-3.51496E-14
 -1      4096 5.88022E-03-7.94103E-05-3.67453E-14
 -1      4097 5.66642E-03-4.36464E-05-3.43127E-14
 -1      4098 6.02240E-03-7.88412E-05-3.83694E-14
 -1      4099 6.16433E-03-7.82197E-05-4.00207E-14
 -1      4100 5.95115E-03-4.30184E-05-3.75002E-14
 -1      4101 6.30601E-03-7.75486E-05-4.17001E-14
 -1      4102 6.44740E-03-7.68131E-05-4.34057E-14
 -1      4103 6.23493E-03-4.22798E-05-4.08002E-14
 -1      4104 6.58846E-03-7.60186E-05-4.51374E-14
 -1      4105 6.72916E-03-7.51466E-05-4.68940E-14
 -1      4106 6.51756E-03-4.14024E-05-4.42069E-14
 -1      4107 6.86946E-03-7.42065E-05-4.86740E-14
 -1      4108 7.00932E-03-7.31751E-05-5.04794E-14
 -1      4109 6.79877E-03-4.03534E-05-4.77159E-14
 -1      4110 7.14867E-03-7.20676E-05-5.23080E-14
 -1      4111 7.28748E-03-7.08547E-05-5.41590E-14
 -1      4112 7.07820E-03-3.90956E-05-5.13228E-14
 -1      4113 7.42567E-03-6.95593E-05-5.60305E-14
 -1      4114 7.56320E-03-6.81445E-05-5.79240E-14
 -1      4115 7.35543E-03-3.75867E-05-5.50191E-14
 -1      4116 7.69997E-03-6.66426E-05-5.98381E-14
 -1      4117 7.83594E-03-6.50069E-05-6.17717E-14
 -1      4118 7.62996E-03-3.57774E-05-5.88005E-14
 -1      4119 7.97101E-03-6.32814E-05-6.37267E-14
 -1      4120 8.10512E-03-6.14061E-05-6.57019E-14
 -1      4121 7.90119E-03-3.36092E-05-6.26642E-14
 -1      4122 8.23815E-03-5.94388E-05-6.76957E-14
 -1      4123 8.37006E-03-5.73014E-05-6.97078E-14
 -1      4124 8.16846E-03-3.10081E-05-6.66082E-14
 -1      4125 8.50069E-03-5.50675E-05-7.17382E-14
 -1      4126 8.63002E-03-5.26324E-05-7.37841E-14
 -1      4127 8.43098E-03-2.78771E-05-7.06275E-14
 -1      4128 8.75782E-03-5.00903E-05-7.58453E-14
 -1      4129 8.88411E-03-4.72893E-05-7.79208E-14
 -1      4130 8.68780E-03-2.40812E-05-7.47154E-14
 -1      4131 9.00856E-03-4.43496E-05-8.00095E-14
 -1      4132 9.13129E-03-4.10817E-05-8.21120E-14
 -1      4133 8.93773E-03-1.94173E-05-7.88619E-14
 -1      4134 6.95304E-03 1.09541E-04-4.93148E-14
 -1      4135 6.81289E-03 1.10690E-04-4.75291E-14
 -1      4136 6.67232E-03 1.11751E-04-4.57679E-14
 -1      4137 6.53138E-03 1.12749E-04-4.40306E-14
 -1      4138 6.74179E-03 7.67046E-05-4.67312E-14
 -1      4139 6.10669E-03 1.15304E-04-3.89748E-14
 -1      4140 5.96460E-03 1.16031E-04-3.73435E-14
 -1      4141 7.23188E-03 1.07044E-04-5.29559E-14
 -1      4142 7.09272E-03 1.08335E-04-5.11238E-14
 -1      4143 7.02175E-03 7.51982E-05-5.03056E-14
 -1      4144 7.50836E-03 1.04304E-04-5.66830E-14
 -1      4145 7.37044E-03 1.05711E-04-5.48097E-14
 -1      4146 7.29961E-03 7.35309E-05-5.39728E-14
 -1      4147 7.78195E-03 1.01414E-04-6.04955E-14
 -1      4148 7.64555E-03 1.02884E-04-5.85777E-14
 -1      4149 7.57488E-03 7.17578E-05-5.77249E-14
 -1      4150 8.05198E-03 9.85323E-05-6.43843E-14
 -1      4151 7.91745E-03 9.99788E-05-6.24310E-14
 -1      4152 7.84694E-03 6.99776E-05-6.15577E-14
 -1      4153 8.31768E-03 9.58843E-05-6.83497E-14
 -1      4154 8.18541E-03 9.71877E-05-6.63580E-14
 -1      4155 8.11508E-03 6.83412E-05-6.54714E-14
 -1      4156 8.57813E-03 9.37594E-05-7.23863E-14
 -1      4157 8.44861E-03 9.47710E-05-7.03589E-14
 -1      4158 8.37845E-03 6.70568E-05-6.94600E-14
 -1      4159 8.83222E-03 9.24822E-05-7.64845E-14
 -1      4160 8.70602E-03 9.30436E-05-7.44284E-14
 -1      4161 8.63601E-03 6.63829E-05-7.35165E-14
 -1      4162 9.07847E-03 9.23388E-05-8.06443E-14
 -1      4163 8.95638E-03 9.23314E-05-7.85566E-14
 -1      4164 8.88644E-03 6.66043E-05-7.76357E-14
 -1      4165 9.33055E-03 9.37440E-05-8.51378E-14
 -1      4166 9.21395E-03 9.30421E-05-8.30266E-14
 -1      4167 9.14376E-03 6.82113E-05-8.20950E-14
 -1      4168 9.40263E-03 7.13917E-05-8.68920E-14
 -1      4169 3.74222E-03 1.60138E-04-1.58919E-14
 -1      4170 3.67133E-03 1.98239E-04-1.52684E-14
 -1      4171 3.52690E-03 1.98264E-04-1.41880E-14
 -1      4172 5.25128E-03 1.18893E-04-2.96129E-14
 -1      4173 5.10813E-03 1.19347E-04-2.81570E-14
 -1      4174 2.27495E-03-8.00632E-05-6.66174E-15
 -1      4175 2.42034E-03-8.12799E-05-7.43096E-15
 -1      4176 2.49206E-03-4.48726E-05-7.81753E-15
 -1      4177 4.96484E-03 1.19766E-04-2.67309E-14
 -1      4178 4.82140E-03 1.20159E-04-2.53379E-14
 -1      4179 5.03622E-03 8.22795E-05-2.75094E-14
 -1      4180 6.39010E-03 1.13666E-04-4.23186E-14
 -1      4181 6.24853E-03 1.14521E-04-4.06328E-14
 -1      4182 6.17719E-03 7.91687E-05-3.98808E-14
 -1      4183 6.46016E-03 7.80279E-05-4.32546E-14
 -1      4184 9.36440E-03-3.49896E-05-8.62386E-14
 -1      4185 9.40301E-03-9.40973E-06-8.71546E-14
 -1      4186 9.32567E-03 1.26025E-05-8.57911E-14
 -1      4187 9.24575E-03-3.88208E-05-8.41132E-14
 -1      4188 2.58261E-03 1.55827E-04-8.12410E-15
 -1      4189 2.51273E-03 1.92025E-04-7.66978E-15
 -1      4190 2.36763E-03 1.89594E-04-6.89244E-15
 -1      4191 5.53713E-03 1.17880E-04-3.26176E-14
 -1      4192 5.39428E-03 1.18408E-04-3.10995E-14
 -1      4193 5.32254E-03 8.16743E-05-3.04256E-14
 -1      4194 2.85676E-03-8.35581E-05-9.97492E-15
 -1      4195 3.00215E-03-8.39518E-05-1.08998E-14
 -1      4196 2.78314E-03-4.56823E-05-9.51049E-15
 -1      4197 5.82230E-03 1.16696E-04-3.57391E-14
 -1      4198 5.67981E-03 1.17314E-04-3.41639E-14
 -1      4199 5.89314E-03 8.01416E-05-3.66158E-14
 -1      4200 3.07405E-03-4.61044E-05-1.13565E-14
 -1      4201 3.38233E-03 1.98133E-04-1.31446E-14
 -1      4202 3.23764E-03 1.97832E-04-1.21372E-14
 -1      4203 3.16328E-03 1.59613E-04-1.17084E-14
 -1      4204 3.45302E-03 1.60146E-04-1.37269E-14
 -1      4205 2.94391E-03 1.20885E-04-1.03438E-14
 -1      4206 2.79858E-03 1.20169E-04-9.44538E-15
 -1      4207 9.17297E-03-1.46778E-05-8.29479E-14
 -1      4208 5.60821E-03 8.09689E-05-3.34619E-14
 -1      4209 4.31893E-03 1.59135E-04-2.06504E-14
 -1      4210 4.10215E-03 1.21663E-04-1.88671E-14
 -1      4211 3.95787E-03 1.21856E-04-1.76762E-14
 -1      4212 3.81344E-03 1.21988E-04-1.65194E-14
 -1      4213 3.66887E-03 1.22068E-04-1.53980E-14
 -1      4214 3.88498E-03 8.38322E-05-1.71511E-14
 -1      4215 9.32188E-03 5.25644E-05-8.55555E-14
 -1      4216 2.65320E-03 1.19206E-04-8.58505E-15
 -1      4217 2.50779E-03 1.17971E-04-7.76355E-15
 -1      4218 2.72443E-03 8.22149E-05-9.05234E-15
 -1      4219 4.74929E-03 8.27991E-05-2.47212E-14
 -1      4220 4.67783E-03 1.20518E-04-2.39781E-14
 -1      4221 4.53412E-03 1.20854E-04-2.26504E-14
 -1      4222 2.00839E-03 2.77474E-05-5.31884E-15
 -1      4223 2.02495E-03-7.90368E-06-5.41604E-15
 -1      4224 2.23878E-03 1.90590E-04-6.22903E-15
 -1      4225 2.09385E-03 1.86877E-04-5.52822E-15
 -1      4226 2.05048E-03 1.57518E-04-5.37202E-15
 -1      4227 2.30826E-03 1.55742E-04-6.64136E-15
 -1      4228 1.96826E-03 9.02753E-05-5.08034E-15
 -1      4229 1.98804E-03 5.91035E-05-5.20069E-15
 -1      4230 2.12054E-03 4.68540E-05-5.83579E-15
 -1      4231 3.00104E-03-8.09822E-06-1.08560E-14
 -1      4232 3.14643E-03-8.09265E-06-1.18143E-14
 -1      4233 3.58182E-03-8.03028E-06-1.49134E-14
 -1      4234 3.72665E-03-7.99028E-06-1.60183E-14
 -1      4235 3.91401E-03 1.88828E-05-1.74736E-14
 -1      4236 4.05846E-03 1.88906E-05-1.86600E-14
 -1      4237 4.44840E-03-7.73492E-06-2.20743E-14
 -1      4238 4.59229E-03-7.67070E-06-2.33879E-14
 -1      4239 4.77842E-03 1.88151E-05-2.51006E-14
 -1      4240 4.92195E-03 1.87905E-05-2.64880E-14
 -1      4241 5.06532E-03 1.87553E-05-2.79087E-14
 -1      4242 5.20854E-03 1.87222E-05-2.93589E-14
 -1      4243 5.35159E-03 1.86789E-05-3.08407E-14
 -1      4244 5.49447E-03 1.86371E-05-3.23526E-14
 -1      4245 5.63717E-03 1.85842E-05-3.38941E-14
 -1      4246 5.77968E-03 1.85329E-05-3.54651E-14
 -1      4247 5.92197E-03 1.84691E-05-3.70649E-14
 -1      4248 6.06402E-03 1.84084E-05-3.86924E-14
 -1      4249 6.20582E-03 1.83336E-05-4.03464E-14
 -1      4250 6.34733E-03 1.82652E-05-4.20284E-14
 -1      4251 6.48852E-03 1.81811E-05-4.37369E-14
 -1      4252 6.62936E-03 1.81095E-05-4.54711E-14
 -1      4253 6.76980E-03 1.80215E-05-4.72299E-14
 -1      4254 6.90980E-03 1.79560E-05-4.90126E-14
 -1      4255 7.04930E-03 1.78747E-05-5.08196E-14
 -1      4256 7.18825E-03 1.78313E-05-5.26506E-14
 -1      4257 7.32658E-03 1.77754E-05-5.45019E-14
 -1      4258 7.46424E-03 1.77801E-05-5.63744E-14
 -1      4259 7.60113E-03 1.77791E-05-5.82677E-14
 -1      4260 7.73720E-03 1.78709E-05-6.01816E-14
 -1      4261 7.87233E-03 1.79687E-05-6.21155E-14
 -1      4262 8.00645E-03 1.82037E-05-6.40699E-14
 -1      4263 8.13943E-03 1.84611E-05-6.60442E-14
 -1      4264 8.27120E-03 1.89160E-05-6.80369E-14
 -1      4265 8.40158E-03 1.94135E-05-7.00486E-14
 -1      4266 8.53049E-03 2.01885E-05-7.20760E-14
 -1      4267 8.65770E-03 2.10254E-05-7.41192E-14
 -1      4268 8.78312E-03 2.22467E-05-7.61781E-14
 -1      4269 8.90642E-03 2.35344E-05-7.82517E-14
 -1      4270 9.02750E-03 2.53580E-05-8.03392E-14
 -1      4271 4.22483E-03 1.08130E-04-1.99335E-14
 -1      4272 4.15227E-03 7.02565E-05-1.93773E-14
 -1      4273 4.18146E-03 5.52033E-06-1.97148E-14
 -1      4274 4.36886E-03 1.07892E-04-2.11903E-14
 -1      4275 9.16164E-03 2.76029E-05-8.27235E-14
 -1      4276 2.12974E-03-7.85404E-05-5.93232E-15
 -1      4277 2.20122E-03-4.35291E-05-6.28153E-15
 -1      4278 2.41889E-03-7.92422E-06-7.40015E-15
 -1      4279 2.56443E-03-7.99189E-06-8.20604E-15
 -1      4280 2.01062E-03 1.18764E-04-5.24111E-15
 -1      4281 2.71000E-03-8.05136E-06-9.05084E-15
 -1      4282 2.85555E-03-8.07700E-06-9.93421E-15
 -1      4283 2.92845E-03 2.97546E-05-1.03599E-14
 -1      4284 2.63738E-03 2.92831E-05-8.59696E-15
 -1      4285 2.00041E-03-7.17810E-05-5.31595E-15
 -1      4286 3.29170E-03-8.08374E-06-1.28107E-14
 -1      4287 3.43683E-03-8.05774E-06-1.38441E-14
 -1      4288 3.21921E-03 3.00340E-05-1.22740E-14
 -1      4289 3.48073E-03 9.51959E-05-1.40390E-14
 -1      4290 3.33576E-03 9.50948E-05-1.30006E-14
 -1      4291 4.32563E-03 5.54780E-06-2.09652E-14
 -1      4292 4.39779E-03 4.34046E-05-2.15528E-14
 -1      4293 9.27059E-03 2.94154E-05-8.47255E-14
 -1      4294 3.84198E-03 5.70251E-05-1.68475E-14
 -1      4295 2.13950E-03 1.17626E-04-5.85235E-15
 -1      4296 1.98261E-03-3.60471E-05-5.22894E-15
 -1      4297 3.55250E-03 5.70421E-05-1.46216E-14
 -1      4298 2.38816E-03 1.17104E-04-7.11670E-15
 -1      4299 2.25896E-03 1.19122E-04-6.44317E-15
 -1      4300 2.21993E-03 7.97565E-05-6.29390E-15
 -1      4301 2.45920E-03 8.10623E-05-7.54392E-15
 -1      4302 2.82631E-03 5.61289E-05-9.69675E-15
 -1      4303 2.68078E-03 5.56890E-05-8.82497E-15
 -1      4304 3.19064E-03 9.48828E-05-1.19990E-14
 -1      4305 3.04541E-03 9.45744E-05-1.10340E-14
 -1      4306 2.09840E-03-1.41282E-05-5.76675E-15
 -1      4307 2.97177E-03 5.64689E-05-1.06073E-14
 -1      4308 4.70674E-03 5.64237E-05-2.43635E-14
 -1      4309 2.24362E-03-1.44029E-05-6.48505E-15
 -1      4310 2.31638E-03 2.17618E-05-6.83772E-15
 -1      4311 2.24006E-03 4.72513E-05-6.42654E-15
 -1      4312 2.41550E-03 5.49388E-05-7.33452E-15
 -1      4313 2.53525E-03 5.51159E-05-7.99155E-15
 -1      4314 4.44044E-03 6.99753E-05-2.18931E-14
 -1      4315 3.50946E-03 3.01637E-05-1.43358E-14
 -1      4316 4.56300E-03 5.65674E-05-2.30271E-14
 -1      4317 3.69732E-03 5.70516E-05-1.57160E-14
 -3
    1PSTEP                         2           1           1          
  100CL  101 1.000000000        4317                     0    1           1
 -4  STRESS      6    1
 -5  SXX         1    4    1    1
 -5  SYY         1    4    2    2
 -5  SZZ         1    4    3    3
 -5  SXY         1    4    1    2
 -5  SYZ         1    4    2    3
 -5  SZX         1    4    3    1
 -1         1 6.83818E+01 1.68813E+00 3.76792E+00-7.26043E+00-8.71768E-14 6.92085E-13
 -1         2-8.21493E-01-2.90079E+01-3.96876E+00 6.87881E-02-5.88575E-13-7.93254E-14
 -1         3 1.99722E+01-2.83372E-02 5.95694E-02-2.87291E-02-4.60182E-13-5.50057E-13
 -1         4 1.99978E+01-1.15195E-03 4.57190E-02 2.23394E-03 2.14521E-13 4.78217E-14
 -1         5 3.27688E+01 6.14289E+00 2.74242E+00 6.22430E+00-5.68642E-14 4.19642E-12
 -1         6 3.57529E+01 1.22636E+01 5.12542E+00-8.64659E+00-2.60861E-13 3.83610E-12
 -1         7 2.08197E+01 6.09997E+00-1.28576E-01-4.72518E+00-3.80945E-14 5.58279E-13
 -1         8 1.96722E+01 5.93505E+00 5.07877E-02-3.27428E+00-4.62616E-14-4.15561E-13
 -1         9 1.91372E+01 5.77202E+00 4.90114E-02-2.52646E+00-4.02525E-14-9.36276E-13
 -1        10 1.88959E+01 5.69228E+00 5.12595E-02-1.95095E+00-2.76949E-14-1.17723E-12
 -1        11 1.87735E+01 5.65127E+00 5.04178E-02-1.45575E+00-2.09381E-14-1.28357E-12
 -1        12 1.87097E+01 5.62947E+00 4.87829E-02-1.01494E+00-6.64139E-15-1.32015E-12
 -1        13 1.86760E+01 5.61799E+00 4.74161E-02-5.95234E-01-5.36192E-15-1.31418E-12
 -1        14 1.86619E+01 5.61314E+00 4.66921E-02-1.91169E-01 2.72078E-15-1.29178E-12
 -1        15 1.86624E+01 5.61331E+00 4.67329E-02 2.08157E-01 1.13706E-14-1.27092E-12
 -1        16 1.86776E+01 5.61849E+00 4.75536E-02 6.13056E-01 1.53948E-14-1.24288E-12
 -1        17 1.87125E+01 5.63024E+00 4.90693E-02 1.03475E+00 1.91420E-14-1.18135E-12
 -1        18 1.87776E+01 5.65233E+00 5.08205E-02 1.47877E+00 2.78440E-14-1.07513E-12
 -1        19 1.89010E+01 5.69379E+00 5.15350E-02 1.97985E+00 4.10384E-14-8.97544E-13
 -1        20 1.91428E+01 5.77459E+00 4.87954E-02 2.56345E+00 5.07702E-14-5.73352E-13
 -1        21 1.96681E+01 5.94978E+00 4.59488E-02 3.30848E+00 5.85157E-14 6.42867E-14
 -1        22 2.12025E+01 6.38170E+00 1.39734E-01 4.52285E+00 9.57567E-15 1.34086E-12
 -1        23 2.30309E+01-1.37929E+00-9.38310E-01-7.11157E-01-1.78135E-13 2.92513E-12
 -1        24 1.93683E+01-9.94702E-02-3.09823E-01 6.32028E-02-4.04529E-14 2.13892E-12
 -1        25 1.86802E+01-5.63187E-02-6.87636E-02 6.07521E-02-2.75526E-14 1.36450E-12
 -1        26 1.84781E+01-2.20845E-02-6.42822E-03 3.29979E-02-8.90878E-15 8.09682E-13
 -1        27 1.84897E+01-1.17946E-02 1.61081E-03 2.26048E-02-3.13920E-15 4.96643E-13
 -1        28 1.86040E+01-6.22927E-03 1.79820E-03 1.63099E-02 1.38946E-15 3.05823E-13
 -1        29 1.87638E+01-3.07403E-03 1.73260E-03 1.21692E-02-7.14468E-15 5.36862E-14
 -1        30 1.89380E+01-1.21417E-03 1.92593E-03 9.21296E-03-1.19584E-14-2.90199E-13
 -1        31 1.91087E+01-1.15582E-04 2.09411E-03 6.98716E-03-8.64769E-15-5.09804E-13
 -1        32 1.92659E+01 5.12583E-04 2.13084E-03 5.26126E-03-2.63276E-14-7.56377E-13
 -1        33 1.94049E+01 8.39138E-04 2.04447E-03 3.90407E-03 3.74925E-14-8.69799E-13
 -1        34 1.95238E+01 9.68824E-04 1.87242E-03 2.83185E-03-1.22889E-14-8.98190E-13
 -1        35 1.96230E+01 9.69158E-04 1.64890E-03 1.98535E-03 2.27512E-14-9.59475E-13
 -1        36 1.97039E+01 8.84163E-04 1.39798E-03 1.31942E-03-1.93306E-14-9.95270E-13
 -1        37 1.97689E+01 7.41833E-04 1.13381E-03 7.98450E-04-1.41419E-14-1.08342E-12
 -1        38 1.98208E+01 5.58610E-04 8.62217E-04 3.94452E-04-8.87501E-15-1.12365E-12
 -1        39 1.98629E+01 3.42318E-04 5.82104E-04 8.63762E-05-5.99417E-14-1.21158E-12
 -1        40 1.98985E+01 9.42846E-05 2.86679E-04-1.39874E-04-1.95629E-14-1.29036E-12
 -1        41 1.99314E+01-1.88987E-04-3.55890E-05-2.90999E-04 3.35371E-15-1.58418E-12
 -1        42 1.99660E+01-5.14315E-04-4.00097E-04-3.65494E-04 2.82211E-14-1.37501E-12
 -1        43 2.00069E+01-8.90261E-04-8.25182E-04-3.52485E-04-6.76414E-14-1.19347E-12
 -1        44 2.00598E+01-1.32518E-03-1.33086E-03-2.30178E-04 4.44297E-14-1.10749E-12
 -1        45 2.01313E+01-1.82448E-03-1.93677E-03 3.60321E-05 1.66163E-14-9.76213E-13
 -1        46 2.02290E+01-2.38658E-03-2.65860E-03 4.95643E-04 6.27032E-15-1.15872E-12
 -1        47 2.03617E+01-2.99668E-03-3.50163E-03 1.21478E-03-1.84158E-14-1.07012E-12
 -1        48 2.05397E+01-3.61737E-03-4.44928E-03 2.27641E-03 3.61999E-14-1.00583E-12
 -1        49 2.07736E+01-4.17463E-03-5.44326E-03 3.77641E-03-1.71031E-14-1.18966E-12
 -1        50 2.10741E+01-4.53840E-03-6.35013E-03 5.81021E-03-3.88257E-14-1.35386E-12
 -1        51 2.14496E+01-4.49784E-03-6.90818E-03 8.44033E-03 5.92516E-15-1.28748E-12
 -1        52 2.19032E+01-3.73633E-03-6.65151E-03 1.16277E-02 1.14796E-14-1.13997E-12
 -1        53 2.24272E+01-1.82151E-03-4.82281E-03 1.51022E-02-4.36266E-14-1.54648E-12
 -1        54 2.29950E+01 1.75373E-03-3.29742E-04 1.81460E-02 5.94076E-14-1.54602E-12
 -1        55 2.35503E+01 7.41619E-03 8.11845E-03 1.92931E-02-3.90860E-15-1.08520E-12
 -1        56 2.39958E+01 1.51528E-02 2.14218E-02 1.60536E-02-7.00427E-15-1.02811E-12
 -1        57 2.41871E+01 2.39138E-02 3.87808E-02 5.00016E-03 8.37002E-14-1.01198E-12
 -1        58 2.39456E+01 3.09575E-02 5.56718E-02-1.70492E-02 1.61936E-14-8.70033E-13
 -1        59 2.31072E+01 3.18470E-02 6.25510E-02-4.99469E-02 1.43100E-14-5.30919E-13
 -1        60 2.16177E+01 2.20984E-02 4.73254E-02-8.58124E-02-3.62991E-15-6.07191E-13
 -1        61 1.96480E+01 9.49519E-04 4.75658E-03-1.07530E-01 7.86373E-14-6.29618E-13
 -1        62 1.76398E+01-2.52052E-02-5.30854E-02-9.60445E-02-4.14011E-14-6.74332E-13
 -1        63 1.61800E+01-4.41640E-02-9.68869E-02-4.64093E-02-5.15915E-14-7.11365E-13
 -1        64 1.57085E+01-4.53987E-02-9.87114E-02 2.12007E-02 1.33305E-13-7.25731E-13
 -1        65 1.62474E+01-2.87207E-02-5.76190E-02 7.24628E-02-1.34289E-14-5.74936E-13
 -1        66 1.73917E+01-4.68047E-03-1.27159E-03 8.53698E-02 7.85684E-14-3.02539E-13
 -1        67 1.85795E+01 1.37179E-02 3.80915E-02 6.43715E-02 1.77594E-14-1.35426E-13
 -1        68 1.94083E+01 1.94081E-02 4.59541E-02 3.05311E-02-1.58562E-14-2.98584E-13
 -1        69 1.97824E+01 1.38774E-02 2.84378E-02 5.01825E-03 1.87787E-13 1.53994E-13
 -1        70 1.98694E+01 6.43767E-03 7.18868E-03 2.26800E-03-1.32146E-13 3.10914E-13
 -1        71 1.99292E+01 9.81421E-03 1.45777E-02 1.48454E-02-1.22339E-14-4.36209E-14
 -1        72 2.10432E+01-4.04899E-01-9.80428E-01-3.11640E-01 5.54452E-14 3.81911E-12
 -1        73 1.93329E+01-6.58828E-02-2.91126E-01-5.38379E-02 3.25608E-14 2.88642E-12
 -1        74 1.86898E+01-2.05052E-02-6.42685E-02-2.03487E-02 2.54363E-14 2.22553E-12
 -1        75 1.84872E+01-9.87740E-03-9.30872E-03-1.54502E-02 1.52218E-14 1.73356E-12
 -1        76 1.84987E+01-5.16332E-03 6.82587E-04-1.23831E-02 1.60475E-14 1.38834E-12
 -1        77 1.86122E+01-2.61047E-03 1.74827E-03-1.01140E-02 7.58389E-15 1.05382E-12
 -1        78 1.87711E+01-1.13856E-03 1.88705E-03-8.37643E-03 6.84275E-15 8.87659E-13
 -1        79 1.89442E+01-2.72733E-04 2.08365E-03-6.94451E-03 3.30848E-15 6.84653E-13
 -1        80 1.91139E+01 2.28197E-04 2.22817E-03-5.71221E-03-3.29146E-14 5.52858E-13
 -1        81 1.92703E+01 4.98995E-04 2.24264E-03-4.63737E-03 4.74245E-14 3.63604E-13
 -1        82 1.94084E+01 6.21147E-04 2.13699E-03-3.70063E-03 1.72184E-14 2.19147E-13
 -1        83 1.95266E+01 6.46208E-04 1.94789E-03-2.88927E-03-2.66684E-15 9.62131E-14
 -1        84 1.96251E+01 6.07542E-04 1.70931E-03-2.19102E-03 2.29005E-14-1.85515E-14
 -1        85 1.97054E+01 5.26511E-04 1.44520E-03-1.59245E-03 1.58789E-14-1.07148E-13
 -1        86 1.97699E+01 4.16005E-04 1.16947E-03-1.07896E-03 9.64067E-15-3.41820E-13
 -1        87 1.98213E+01 2.82614E-04 8.87589E-04-6.35495E-04-4.99378E-14-3.26295E-13
 -1        88 1.98628E+01 1.28087E-04 5.97982E-04-2.47396E-04 1.28309E-14-2.09917E-13
 -1        89 1.98978E+01-4.96259E-05 2.93099E-04 9.86089E-05 2.05309E-14-4.57489E-13
 -1        90 1.99302E+01-2.55560E-04-3.97803E-05 4.13322E-04-1.30974E-14-5.71512E-13
 -1        91 1.99642E+01-4.97031E-04-4.17982E-04 7.03831E-04-3.01885E-14-4.19662E-13
 -1        92 2.00045E+01-7.82870E-04-8.63043E-04 9.71919E-04-4.98336E-15-1.96191E-13
 -1        93 2.00571E+01-1.12241E-03-1.40028E-03 1.21186E-03 3.66068E-14-6.52701E-14
 -1        94 2.01286E+01-1.52392E-03-2.05801E-03 1.40724E-03 3.52419E-14-3.14814E-13
 -1        95 2.02275E+01-1.99187E-03-2.86591E-03 1.52619E-03-1.71030E-14-6.45378E-13
 -1        96 2.03636E+01-2.52234E-03-3.85115E-03 1.51429E-03 4.08671E-14-4.11399E-13
 -1        97 2.05487E+01-3.09498E-03-5.03016E-03 1.28415E-03-2.04011E-14-3.06941E-13
 -1        98 2.07965E+01-3.65970E-03-6.39158E-03 7.00833E-04-9.95384E-15-1.25120E-13
 -1        99 2.11222E+01-4.11532E-03-7.86244E-03-4.36668E-04-3.93763E-14-1.49716E-13
 -1       100 2.15410E+01-4.27812E-03-9.24443E-03-2.41360E-03 2.51453E-14-1.06683E-13
 -1       101 2.20658E+01-3.84167E-03-1.01021E-02-5.60314E-03 5.05148E-14-1.31972E-13
 -1       102 2.27016E+01-2.34074E-03-9.58779E-03-1.04187E-02-4.61078E-14-3.21214E-13
 -1       103 2.34365E+01 8.39764E-04-6.22524E-03-1.71356E-02 2.92526E-14-1.07816E-13
 -1       104 2.42264E+01 6.31401E-03 2.20297E-03-2.54440E-02 1.89336E-14 4.69243E-15
 -1       105 2.49747E+01 1.42498E-02 1.82557E-02-3.35643E-02 4.17391E-14-1.11976E-13
 -1       106 2.55106E+01 2.34692E-02 4.30878E-02-3.69707E-02-2.28684E-14-2.67790E-13
 -1       107 2.55832E+01 3.03665E-02 7.26803E-02-2.76120E-02-7.62847E-14-3.42068E-13
 -1       108 2.49048E+01 2.88971E-02 9.30759E-02 3.85340E-03 1.25565E-13-4.61697E-13
 -1       109 2.32834E+01 1.39283E-02 8.15279E-02 5.92849E-02-4.46605E-14-4.13142E-13
 -1       110 2.08384E+01-1.22274E-02 2.10635E-02 1.20653E-01-5.54617E-14 2.81650E-13
 -1       111 1.81614E+01-3.64305E-02-7.36184E-02 1.48569E-01 7.00813E-14 3.34649E-13
 -1       112 1.61816E+01-4.32207E-02-1.47218E-01 1.09419E-01-7.74615E-14-3.33657E-14
 -1       113 1.56432E+01-2.92907E-02-1.46448E-01 1.56198E-02 3.63529E-14-2.54258E-14
 -1       114 1.65675E+01-5.49372E-03-7.23740E-02-7.52970E-02-1.65687E-13 1.61211E-13
 -1       115 1.82409E+01 1.38831E-02 2.04768E-02-1.12515E-01 8.82138E-14-4.21954E-14
 -1       116 1.97493E+01 2.07562E-02 7.60188E-02-9.12169E-02 1.27438E-13-3.98574E-13
 -1       117 2.05324E+01 1.53483E-02 7.70369E-02-4.09893E-02 1.60400E-14-1.03445E-12
 -1       118 2.05625E+01 3.95600E-03 3.96872E-02 5.20495E-03-1.59551E-14-1.32746E-12
 -1       119 2.02035E+01-5.26221E-03-3.72058E-03 2.51109E-02 6.85910E-14-1.56862E-12
 -1       120 1.99613E+01 1.63372E-02 5.59738E-03-3.62238E-03 2.60260E-13-1.54036E-12
 -1       121 1.99925E+01-1.91511E-02-1.49745E-02-2.49872E-02-1.66048E-12-9.74390E-14
 -1       122 1.99655E+01 3.00361E-01-6.18867E-02 1.69421E-04-1.54467E-12 5.42064E-14
 -1       123 1.99608E+01 1.29015E+00-7.93334E-02 3.75405E-02-6.88906E-13 2.88920E-13
 -1       124 1.99675E+01 3.06307E+00-7.45114E-02 8.59386E-02-9.78849E-13-1.79657E-14
 -1       125 1.99918E+01 5.54203E+00-3.21348E-02 1.29685E-01-3.55958E-13-2.55882E-13
 -1       126 2.00306E+01 8.24825E+00 4.40755E-02 1.40066E-01-3.47992E-13 7.41245E-14
 -1       127 2.00675E+01 1.04994E+01 1.24854E-01 9.66240E-02 8.22339E-13 1.34713E-13
 -1       128 2.00849E+01 1.14477E+01 1.64184E-01 7.17921E-03 1.03609E-12 5.27356E-14
 -1       129 2.00719E+01 1.07092E+01 1.35747E-01-8.62003E-02 9.95433E-13 1.27058E-13
 -1       130 2.00362E+01 8.56868E+00 5.76468E-02-1.38874E-01 3.63175E-13-1.00878E-13
 -1       131 1.99968E+01 5.80354E+00-2.41370E-02-1.34864E-01-2.36748E-13-1.02142E-13
 -1       132 1.99681E+01 3.26446E+00-7.32995E-02-9.42571E-02-1.16872E-12 1.66772E-13
 -1       133 1.99592E+01 1.37809E+00-8.31888E-02-4.26097E-02-1.33815E-13-6.33339E-14
 -1       134 1.99627E+01 3.15600E-01-6.62657E-02-2.21131E-03 2.78755E-13 1.10230E-13
 -1       135 1.99825E+01-6.51114E-02-3.17934E-02 1.72488E-02 1.68872E-13 2.58784E-14
 -1       136 1.99854E+01-5.63787E-02 6.10601E-04 4.20340E-02-7.81779E-14 4.18643E-14
 -1       137-1.72641E+00-2.33596E+01-3.57384E+00-4.59329E+00 4.53526E-14 3.01426E-14
 -1       138-1.51384E+00-9.14889E+00-2.44078E+00-3.04239E+00 7.56395E-13 3.22298E-13
 -1       139 3.59638E+00 4.19925E+00-1.01936E+00 4.16495E+00 1.23290E-12 1.13204E-12
 -1       140 1.76987E+01 1.14853E+01 6.57577E-01 1.40388E+01 8.49376E-13 8.79741E-13
 -1       141 4.01082E+01 1.07235E+01 2.31801E+00 1.97699E+01 1.96815E-13 2.40752E-13
 -1       142 6.08808E+01 5.02893E+00 3.47637E+00 1.57285E+01 5.64479E-14-2.80553E-13
 -1       143 7.03383E+01 1.01959E+00 3.88075E+00 3.40855E+00-1.18711E-13-7.39332E-13
 -1       144 6.45861E+01 2.71373E+00 3.52860E+00-1.06281E+01 1.50819E-13-7.52565E-13
 -1       145 4.53300E+01 7.98872E+00 2.40394E+00-1.81025E+01 4.81282E-13-1.27420E-12
 -1       146 2.30469E+01 1.07721E+01 8.77120E-01-1.55064E+01 1.14142E-12-1.43230E-12
 -1       147 5.82521E+00 5.76532E+00-7.49328E-01-6.01210E+00 1.28386E-12-1.14092E-12
 -1       148-1.14813E+00-5.24913E+00-2.03790E+00 2.08649E+00 8.68805E-13-6.74655E-13
 -1       149-1.97899E+00-1.85393E+01-3.01494E+00 4.99898E+00 4.42424E-13 3.21132E-14
 -1       150-8.08223E-01-2.62674E+01-3.44821E+00 1.91453E+00 4.32321E-13-1.21379E-13
 -1       151-1.01723E+00-2.49690E+01-3.36706E+00-2.83225E+00-1.43927E-12-4.36162E-13
 -1       152-1.98172E+00-1.56177E+01-2.80540E+00-4.62581E+00-2.67009E-12-8.43922E-13
 -1       153-4.97177E-02-2.30951E+00-1.71675E+00-3.58570E-01-2.94575E-12-1.82088E-12
 -1       154 1.02249E+01 8.14634E+00-2.36185E-01 9.23100E+00-1.97553E-12-2.03876E-12
 -1       155 3.06717E+01 1.08162E+01 1.46971E+00 1.78280E+01-1.17262E-12-1.57013E-12
 -1       156 5.25645E+01 6.30333E+00 2.82821E+00 1.72582E+01-9.51739E-14-2.23321E-13
 -1       157 6.75630E+01 1.57961E+00 3.67007E+00 6.82204E+00 6.11178E-14 5.77843E-13
 -1       158 5.57579E+01 6.45575E+00 3.17869E+00-1.77736E+01-4.53942E-14 2.00395E-13
 -1       159 3.53704E+01 1.15102E+01 2.02653E+00-1.96336E+01-4.31322E-14-2.45359E-14
 -1       160 1.61768E+01 1.15359E+01 5.49853E-01-1.35226E+01-1.12688E-13 1.38056E-13
 -1       161 3.12734E+00 3.53527E+00-1.08668E+00-3.64934E+00-9.88098E-13 4.87055E-13
 -1       162-1.86234E+00-1.04617E+01-2.56162E+00 3.72796E+00-1.86112E-12 8.34721E-13
 -1       163-1.59237E+00-2.33270E+01-3.56864E+00 4.44147E+00-1.62642E-12 8.12350E-13
 -1       164 2.10143E+01 3.69373E+00-5.73977E-02-3.60989E+00-5.90729E-13 5.36238E-14
 -1       165 1.99904E+01 4.20845E+00-4.59565E-02-2.80821E+00-5.33649E-13-5.47961E-13
 -1       166 1.95103E+01 4.47656E+00-3.13484E-02-2.19573E+00-4.23944E-13-8.70163E-13
 -1       167 1.92675E+01 4.61522E+00-2.34914E-02-1.67450E+00-3.05793E-13-1.02959E-12
 -1       168 1.91367E+01 4.69692E+00-1.95317E-02-1.21893E+00-2.06240E-13-1.09278E-12
 -1       169 1.90627E+01 4.74788E+00-1.74372E-02-7.91982E-01-1.10799E-13-1.10200E-12
 -1       170 1.90255E+01 4.77571E+00-1.64239E-02-3.86842E-01-1.06403E-14-1.09336E-12
 -1       171 1.90146E+01 4.78424E+00-1.61321E-02 8.26660E-03 7.38898E-14-1.07470E-12
 -1       172 1.90272E+01 4.77444E+00-1.64652E-02 4.03709E-01 1.64074E-13-1.04813E-12
 -1       173 1.90665E+01 4.74491E+00-1.75190E-02 8.09913E-01 2.42946E-13-1.01425E-12
 -1       174 1.91412E+01 4.69250E+00-1.96872E-02 1.23136E+00 3.30120E-13-9.39206E-13
 -1       175 1.92770E+01 4.60537E+00-2.40067E-02 1.69801E+00 4.43123E-13-8.01458E-13
 -1       176 1.95241E+01 4.45959E+00-3.28507E-02 2.22635E+00 5.47994E-13-5.74325E-13
 -1       177 2.00139E+01 4.18386E+00-4.72116E-02 2.84660E+00 6.12697E-13-1.61628E-13
 -1       178 2.11359E+01 3.46368E+00-5.97773E-02 3.53656E+00 5.87606E-13 6.12538E-13
 -1       179 2.24204E+01 1.14334E+00-3.36469E-01 3.01470E+00 4.33723E-13 1.62693E-12
 -1       180 2.19729E+01 8.58199E-01 6.89220E-04-1.95904E+00-5.12600E-13 7.88505E-13
 -1       181 2.04483E+01 1.90343E-01-9.92563E-03-7.64041E-01-4.47023E-13 5.30740E-13
 -1       182 1.96730E+01 1.01673E-01 1.36132E-02-2.85494E-01-3.28524E-13 3.40139E-13
 -1       183 1.93333E+01 4.71344E-02 1.00123E-02-6.78129E-02-2.12298E-13 1.45510E-13
 -1       184 1.92037E+01 2.25630E-02 5.16676E-03 3.93921E-02-1.52647E-13 5.78032E-15
 -1       185 1.91903E+01 9.51975E-03 2.42400E-03 9.20055E-02-1.39568E-13-1.09648E-13
 -1       186 1.92389E+01 2.10126E-03 1.12438E-03 1.14351E-01-1.77452E-13-1.73776E-13
 -1       187 1.93180E+01-2.14721E-03 4.91139E-04 1.19196E-01-1.38146E-13-2.18254E-13
 -1       188 1.94088E+01-4.45857E-03 1.56010E-04 1.13975E-01-1.60639E-13-2.90445E-13
 -1       189 1.95000E+01-5.53747E-03-3.05974E-05 1.03300E-01-8.15924E-14-3.60583E-13
 -1       190 1.95855E+01-5.82049E-03-1.31262E-04 9.01299E-02-5.79394E-14-5.27459E-13
 -1       191 1.96619E+01-5.59253E-03-1.77167E-04 7.63862E-02-6.47200E-14-6.18600E-13
 -1       192 1.97280E+01-5.04156E-03-1.86625E-04 6.33105E-02-4.33475E-14-6.89297E-13
 -1       193 1.97842E+01-4.28798E-03-1.71226E-04 5.17011E-02-4.28439E-14-6.61790E-13
 -1       194 1.98314E+01-3.40240E-03-1.38288E-04 4.20780E-02-8.00619E-14-6.36594E-13
 -1       195 1.98715E+01-2.41737E-03-9.21330E-05 3.48059E-02-2.43231E-14-6.57589E-13
 -1       196 1.99066E+01-1.33594E-03-3.49187E-05 3.01868E-02-5.30225E-14-6.20921E-13
 -1       197 1.99395E+01-1.38082E-04 3.27553E-05 2.85321E-02-1.34333E-13-7.43590E-13
 -1       198 1.99732E+01 1.21385E-03 1.11328E-04 3.02170E-02-1.74523E-14-7.94432E-13
 -1       199 2.00113E+01 2.76989E-03 2.01766E-04 3.57200E-02 4.45121E-14-9.52186E-13
 -1       200 2.00577E+01 4.58630E-03 3.04962E-04 4.56463E-02 7.50156E-14-8.25066E-13
 -1       201 2.01172E+01 6.71723E-03 4.20943E-04 6.07307E-02 3.62441E-14-7.62984E-13
 -1       202 2.01952E+01 9.20178E-03 5.47728E-04 8.18122E-02 2.14128E-14-6.26578E-13
 -1       203 2.02978E+01 1.20432E-02 6.79680E-04 1.09763E-01-2.76829E-15-5.50191E-13
 -1       204 2.04316E+01 1.51751E-02 8.05137E-04 1.45345E-01-2.00098E-14-5.56647E-13
 -1       205 2.06038E+01 1.84068E-02 9.03206E-04 1.88961E-01-1.79251E-13-7.29349E-13
 -1       206 2.08209E+01 2.13387E-02 9.39917E-04 2.40221E-01-4.79166E-14-8.35207E-13
 -1       207 2.10883E+01 2.32350E-02 8.64752E-04 2.97258E-01 5.66122E-14-7.32746E-13
 -1       208 2.14079E+01 2.28516E-02 6.10315E-04 3.55690E-01 6.52844E-14-6.30476E-13
 -1       209 2.17758E+01 1.82402E-02 1.00610E-04 4.07155E-01-1.53170E-13-6.69498E-13
 -1       210 2.21780E+01 6.62507E-03-7.23380E-04 4.37510E-01-2.62679E-14-6.00275E-13
 -1       211 2.25858E+01-1.53947E-02-1.85468E-03 4.25206E-01 1.32981E-13-5.85253E-13
 -1       212 2.29505E+01-5.08058E-02-3.14326E-03 3.41217E-01 7.42694E-14-5.68834E-13
 -1       213 2.32004E+01-9.95881E-02-4.24498E-03 1.53357E-01 1.29680E-13-3.95593E-13
 -1       214 2.32440E+01-1.53994E-01-4.62189E-03-1.60833E-01 1.59485E-13-4.38988E-13
 -1       215 2.29862E+01-1.93123E-01-3.79370E-03-5.89278E-01 1.65031E-13-3.36148E-13
 -1       216 2.23645E+01-1.83013E-01-1.76717E-03-1.05400E+00-2.17239E-14-4.42095E-13
 -1       217 2.14038E+01-9.29514E-02 4.29550E-04-1.39813E+00-4.55781E-14-2.04108E-13
 -1       218 2.02659E+01 7.12724E-02 1.80302E-03-1.43241E+00-9.67039E-14-2.80094E-13
 -1       219 1.92386E+01 2.43156E-01 2.10012E-03-1.05344E+00-5.08413E-14-2.81854E-13
 -1       220 1.86238E+01 3.22458E-01 1.98813E-03-3.63144E-01-8.75532E-14-4.33254E-13
 -1       221 1.85639E+01 2.56148E-01 2.57134E-03 3.44330E-01 2.41349E-13-5.14409E-13
 -1       222 1.89475E+01 9.22853E-02 2.99124E-03 7.67763E-01 1.65356E-13-9.59189E-14
 -1       223 1.94952E+01-6.41835E-02 2.38909E-03 7.98464E-01 3.45185E-14-1.95588E-13
 -1       224 1.99413E+01-1.38414E-01 8.69172E-04 5.49209E-01 2.56501E-14-1.50296E-13
 -1       225 2.01575E+01-1.20792E-01-9.09521E-04 2.32515E-01 8.15879E-14-4.00627E-13
 -1       226 2.01629E+01-4.49480E-02-1.23920E-03 2.65535E-02 1.88863E-13-4.22047E-13
 -1       227 2.00655E+01 2.59597E-02 3.56452E-04-5.63510E-03-6.74510E-14-1.30688E-13
 -1       228 2.09645E+01 2.77016E-01-5.13321E-02 1.16474E+00 4.44506E-13 1.38367E-12
 -1       229 1.98699E+01 1.26842E-01 8.31011E-03 4.43049E-01 3.37961E-13 1.04501E-12
 -1       230 1.93637E+01 5.80632E-02 1.27343E-02 1.50007E-01 2.47246E-13 7.62179E-13
 -1       231 1.91541E+01 2.77159E-02 7.62796E-03 1.07441E-02 2.10618E-13 5.62966E-13
 -1       232 1.91044E+01 1.30664E-02 3.82220E-03-5.83701E-02 1.53826E-13 4.38819E-13
 -1       233 1.91402E+01 5.11559E-03 1.90476E-03-9.07721E-02 8.32287E-14 3.10284E-13
 -1       234 1.92193E+01 5.68115E-04 1.00173E-03-1.02492E-01 9.86983E-14 2.53379E-13
 -1       235 1.93168E+01-2.02165E-03 5.41714E-04-1.02248E-01 8.60090E-14 1.45815E-13
 -1       236 1.94181E+01-3.39831E-03 2.79163E-04-9.52475E-02 1.18666E-13-7.20951E-15
 -1       237 1.95148E+01-3.99647E-03 1.19791E-04-8.47732E-02 2.95047E-14 1.92671E-14
 -1       238 1.96023E+01-4.09132E-03 2.37222E-05-7.29427E-02 1.03248E-13 1.48869E-14
 -1       239 1.96787E+01-3.86407E-03-2.99487E-05-6.11267E-02 8.36591E-14-1.19221E-13
 -1       240 1.97436E+01-3.43372E-03-5.41748E-05-5.02053E-02 7.08925E-14-2.52864E-13
 -1       241 1.97979E+01-2.87496E-03-5.75187E-05-4.07418E-02 9.31576E-14-2.95769E-13
 -1       242 1.98432E+01-2.22948E-03-4.56351E-05-3.31081E-02-1.87278E-14-2.28521E-13
 -1       243 1.98816E+01-1.51333E-03-2.21297E-05-2.75784E-02-1.87479E-14-3.09504E-13
 -1       244 1.99158E+01-7.22092E-04 1.08553E-05-2.44027E-02 1.37783E-13-2.69996E-13
 -1       245 1.99486E+01 1.65256E-04 5.22112E-05-2.38655E-02 9.70806E-15-3.08028E-13
 -1       246 1.99836E+01 1.18350E-03 1.01495E-04-2.63323E-02-1.30816E-13-2.72566E-13
 -1       247 2.00247E+01 2.37873E-03 1.58546E-04-3.22876E-02-8.76827E-14-2.35425E-13
 -1       248 2.00766E+01 3.80577E-03 2.23034E-04-4.23639E-02-1.63521E-14-1.63458E-13
 -1       249 2.01449E+01 5.52451E-03 2.93824E-04-5.73587E-02 1.47783E-13-1.88826E-13
 -1       250 2.02360E+01 7.59365E-03 3.68043E-04-7.82355E-02 8.69886E-14-2.53438E-13
 -1       251 2.03576E+01 1.00591E-02 4.39663E-04-1.06093E-01-8.93599E-14-1.74755E-13
 -1       252 2.05185E+01 1.29323E-02 4.97423E-04-1.42081E-01-8.03292E-14-7.29535E-14
 -1       253 2.07284E+01 1.61493E-02 5.22050E-04-1.87216E-01-1.10437E-13-2.68730E-14
 -1       254 2.09976E+01 1.94983E-02 4.83256E-04-2.42027E-01 6.57569E-16 7.28847E-14
 -1       255 2.13355E+01 2.24933E-02 3.38474E-04-3.05898E-01 5.29725E-14-8.37817E-14
 -1       256 2.17489E+01 2.41690E-02 3.83918E-05-3.75934E-01 3.34728E-14-2.90876E-13
 -1       257 2.22379E+01 2.27812E-02-4.50962E-04-4.45123E-01 3.09742E-14-2.49809E-13
 -1       258 2.27905E+01 1.54545E-02-1.09480E-03-4.99620E-01-8.95958E-14-1.35571E-13
 -1       259 2.33736E+01-2.00421E-03-1.69815E-03-5.15419E-01-4.06031E-14-6.67734E-14
 -1       260 2.39233E+01-3.45102E-02-1.82119E-03-4.55835E-01 1.78270E-13-9.22439E-15
 -1       261 2.43351E+01-8.49723E-02-7.69182E-04-2.73843E-01 3.95361E-14-2.45187E-13
 -1       262 2.44655E+01-1.47976E-01 1.88627E-03 7.27656E-02 4.77079E-14-4.11188E-13
 -1       263 2.41559E+01-2.00044E-01 5.43046E-03 5.84358E-01 8.00280E-14-5.25716E-13
 -1       264 2.32997E+01-1.96023E-01 6.89064E-03 1.16298E+00-3.55655E-13-8.90052E-14
 -1       265 2.19491E+01-9.10000E-02 2.30050E-03 1.58052E+00-2.93111E-13 1.47398E-13
 -1       266 2.04047E+01 1.06378E-01-8.36875E-03 1.55293E+00-6.54034E-15 4.85792E-13
 -1       267 1.91716E+01 2.92926E-01-1.72978E-02 9.58701E-01 1.50460E-13 7.08119E-13
 -1       268 1.86922E+01 3.32974E-01-1.61997E-02 3.52104E-02 6.97957E-14 4.12679E-13
 -1       269 1.90251E+01 1.96373E-01-5.19291E-03-7.31474E-01-3.10121E-14 7.20361E-14
 -1       270 1.98023E+01-7.67079E-03 6.50352E-03-9.84602E-01 4.33941E-13-1.95753E-13
 -1       271 2.05204E+01-1.46803E-01 1.05805E-02-7.37095E-01 2.53241E-13-6.59302E-13
 -1       272 2.08596E+01-1.69845E-01 7.45186E-03-2.65990E-01 2.37803E-13-5.92696E-13
 -1       273 2.07864E+01-1.03139E-01 1.40099E-03 1.28603E-01 7.82310E-14-5.34774E-13
 -1       274 2.04710E+01 5.03931E-03-2.59505E-03 2.64853E-01 1.67483E-13-4.26660E-13
 -1       275 2.01492E+01 8.47301E-02 5.74396E-04 1.37044E-01-1.70257E-13-5.90505E-13
 -1       276 2.01599E+01 3.19042E-01 3.50575E-03 3.17532E-01-2.29045E-13 2.31829E-13
 -1       277 2.02240E+01 8.46012E-01 4.25088E-03 7.71351E-01-4.19233E-13 2.15279E-13
 -1       278 2.02443E+01 1.75570E+00 1.20239E-03 1.33616E+00-5.22052E-13 1.18430E-13
 -1       279 2.01733E+01 3.08851E+00-1.46069E-03 1.84113E+00-3.56692E-13 3.28211E-13
 -1       280 1.99820E+01 4.66876E+00-4.95422E-03 2.02452E+00-2.04834E-13-2.64740E-14
 -1       281 1.97134E+01 6.20398E+00-6.60722E-03 1.65187E+00-1.32211E-13 3.22043E-13
 -1       282 1.95041E+01 7.18736E+00-7.23276E-03 6.94050E-01 2.82919E-13 2.22732E-13
 -1       283 1.94870E+01 7.25020E+00-6.43997E-03-5.42137E-01 5.07861E-13 2.56531E-14
 -1       284 1.96732E+01 6.36170E+00-5.69969E-03-1.57147E+00 3.32734E-13-3.74330E-13
 -1       285 1.99467E+01 4.85204E+00-4.83953E-03-2.03671E+00 8.16049E-14-3.33239E-13
 -1       286 2.01580E+01 3.23436E+00-1.64429E-03-1.91547E+00 1.61873E-13-3.92555E-13
 -1       287 2.02525E+01 1.83146E+00 1.62954E-03-1.42107E+00 1.95669E-13 4.41364E-13
 -1       288 2.02383E+01 8.60786E-01 4.17175E-03-8.28468E-01 1.77656E-13 1.60281E-13
 -1       289 2.01539E+01 3.19253E-01 2.56019E-03-3.34304E-01 7.46499E-14-4.72287E-14
 -1       290 2.01516E+01 1.20013E-01 4.57057E-03-1.24591E-01-2.77237E-14-2.25160E-13
 -1       291-1.03728E+00-1.28049E+01-1.14369E+00 1.29792E+00-2.08542E-13 6.55309E-14
 -1       292 4.10141E+00-9.38662E+00-6.81200E-01 4.94602E+00-5.57887E-14 4.27589E-13
 -1       293 1.07582E+01-5.84827E+00-5.34912E-01 6.23901E+00 3.65707E-13 6.13676E-13
 -1       294 2.04645E+01-1.24075E+00-6.11880E-02 7.98326E+00 6.11566E-13 3.73035E-14
 -1       295 3.23002E+01 1.47441E+00 3.03808E-01 6.83871E+00 2.29206E-13-2.89185E-13
 -1       296 4.05663E+01 5.33703E+00 5.68628E-01 4.85243E+00 1.99341E-13-1.26288E-13
 -1       297 4.84157E+01 6.97032E+00 1.10046E+00 3.58419E+00 6.61554E-14-2.51257E-13
 -1       298 4.83387E+01 7.09452E+00 1.03175E+00-3.09710E-01 2.19130E-13-3.28994E-13
 -1       299 4.25512E+01 5.52676E+00 6.73528E-01-3.10859E+00 3.93074E-13-4.71900E-13
 -1       300 3.43260E+01 2.83941E+00 4.42142E-01-6.40499E+00 5.66588E-13-6.58251E-13
 -1       301 2.33358E+01-1.18386E+00 1.62857E-03-6.75866E+00 4.96075E-13-5.45952E-13
 -1       302 1.21271E+01-4.67466E+00-4.30202E-01-5.76391E+00 4.83169E-13-6.39822E-13
 -1       303 4.22388E+00-8.88555E+00-8.03053E-01-3.59132E+00 4.43146E-13-6.59301E-13
 -1       304-3.74859E-01-1.19631E+01-1.01340E+00-1.49848E+00-2.66315E-14-1.52739E-13
 -1       305-1.50398E+00-1.26884E+01-1.04093E+00 3.46015E-01-4.13780E-13-9.22484E-13
 -1       306 5.92310E-01-1.07507E+01-8.69063E-01 2.50705E+00-8.00415E-13-7.69648E-13
 -1       307 5.79320E+00-7.71861E+00-6.80394E-01 4.44489E+00-1.15485E-12-1.04020E-12
 -1       308 1.63866E+01-4.38851E+00-2.02783E-01 6.72220E+00-1.05305E-12-4.40314E-13
 -1       309 2.74697E+01-5.39840E-01 9.66145E-02 6.21177E+00-7.85622E-13-1.24539E-13
 -1       310 3.79875E+01 4.38802E+00 6.49940E-01 6.62801E+00-8.23806E-13 1.86351E-13
 -1       311 4.63165E+01 6.22522E+00 1.01293E+00 3.66520E+00-2.44041E-13 2.11831E-13
 -1       312 4.75936E+01 7.48428E+00 9.54120E-01-6.22805E-01-3.53606E-14 7.65915E-14
 -1       313 4.69713E+01 6.74755E+00 1.04004E+00-4.55473E+00 1.28425E-13 2.12219E-13
 -1       314 3.97951E+01 5.16302E+00 7.39105E-01-6.87329E+00 8.48445E-14 1.67366E-14
 -1       315 3.02564E+01 2.58937E+00 3.96911E-01-8.49683E+00 2.47302E-14-3.03646E-14
 -1       316 1.96771E+01-1.40308E+00-8.61278E-02-7.84891E+00-2.80442E-13-4.15890E-13
 -1       317 1.04316E+01-6.30040E+00-5.22013E-01-6.32664E+00-6.48148E-13-3.50803E-13
 -1       318 2.86763E+00-1.03353E+01-9.38269E-01-3.78825E+00-4.09534E-13 2.91968E-13
 -1       319-9.01639E-01-1.23237E+01-1.07994E+00-1.47859E+00-4.43590E-13 7.98556E-13
 -1       320 2.01368E+01 3.00085E+00-2.19716E-02-2.09692E+00-5.55027E-13-5.11070E-13
 -1       321 2.07572E+01 2.20823E+00-1.76850E-02-2.36404E+00-6.29876E-13-1.59199E-13
 -1       322 1.95832E+01 3.69163E+00-1.55904E-02-1.31693E+00-3.13109E-13-8.17320E-13
 -1       323 1.94597E+01 3.84867E+00-1.37071E-02-9.23525E-01-2.02793E-13-8.67454E-13
 -1       324 1.93907E+01 3.93945E+00-1.27135E-02-5.43819E-01-7.61827E-14-8.49176E-13
 -1       325 1.93601E+01 3.98078E+00-1.22930E-02-1.73223E-01 2.97712E-14-8.46894E-13
 -1       326 1.93614E+01 3.97918E+00-1.23109E-02 1.94373E-01 1.47670E-13-8.31314E-13
 -1       327 1.93949E+01 3.93428E+00-1.27572E-02 5.65295E-01 2.53281E-13-8.08562E-13
 -1       328 1.94659E+01 3.84100E+00-1.37646E-02 9.39192E-01 3.54031E-13-7.70707E-13
 -1       329 1.95930E+01 3.67875E+00-1.56524E-02 1.33318E+00 4.79121E-13-6.39267E-13
 -1       330 1.98088E+01 3.41003E+00-1.88302E-02 1.73841E+00 5.90178E-13-4.85023E-13
 -1       331 2.01796E+01 2.95523E+00-2.29395E-02 2.12697E+00 6.66892E-13-2.45574E-13
 -1       332 2.07497E+01 2.12942E+00-3.04688E-02 2.32195E+00 6.76707E-13 2.37121E-13
 -1       333 2.10964E+01 1.18771E+00-2.49219E-02 1.92174E+00 6.00716E-13 6.90120E-13
 -1       334 2.03927E+01 4.89274E-01 8.33235E-03 9.27162E-01 4.92713E-13 5.06146E-13
 -1       335 2.04594E+01 6.75070E-01 1.25728E-02-1.02470E+00-4.64938E-13-6.52247E-14
 -1       336 2.00373E+01 3.37150E-01 7.18937E-03-4.57465E-01-3.62614E-13-9.95730E-14
 -1       337 1.97834E+01 1.76436E-01 4.14042E-03-1.48742E-01-2.70405E-13-1.60261E-13
 -1       338 1.96479E+01 9.04747E-02 1.86565E-03 2.24348E-02-2.03452E-13-2.36988E-13
 -1       339 1.95925E+01 4.12755E-02 7.79632E-04 1.13545E-01-1.90666E-13-2.68896E-13
 -1       340 1.95871E+01 1.22550E-02 2.67960E-04 1.56586E-01-1.51711E-13-2.47103E-13
 -1       341 1.96109E+01-4.75742E-03 1.23898E-05 1.70514E-01-1.75109E-13-2.67580E-13
 -1       342 1.96501E+01-1.42285E-02-1.21817E-04 1.67089E-01-1.58175E-13-2.54063E-13
 -1       343 1.96956E+01-1.88166E-02-1.88744E-04 1.53910E-01-1.58501E-13-2.95640E-13
 -1       344 1.97420E+01-2.02116E-02-2.13947E-04 1.35986E-01-1.23611E-13-3.83647E-13
 -1       345 1.97859E+01-1.95240E-02-2.12122E-04 1.16636E-01-1.02399E-13-4.24333E-13
 -1       346 1.98258E+01-1.74830E-02-1.92556E-04 9.80609E-02 9.76563E-15-4.08407E-13
 -1       347 1.98615E+01-1.45495E-02-1.61111E-04 8.17286E-02-3.52247E-14-3.45821E-13
 -1       348 1.98932E+01-1.09868E-02-1.21199E-04 6.86510E-02-7.58144E-14-3.70042E-13
 -1       349 1.99219E+01-6.90830E-03-7.44121E-05 5.95885E-02-4.71472E-14-3.95047E-13
 -1       350 1.99493E+01-2.31260E-03-2.09726E-05 5.52048E-02-1.24232E-13-3.96738E-13
 -1       351 1.99770E+01 2.88849E-03 3.98988E-05 5.61829E-02-6.42957E-14-2.99401E-13
 -1       352 2.00074E+01 8.84520E-03 1.09653E-04 6.33097E-02-6.71231E-14-4.43306E-13
 -1       353 2.00431E+01 1.57437E-02 1.90056E-04 7.75298E-02 6.52582E-14-4.89148E-13
 -1       354 2.00871E+01 2.37741E-02 2.82724E-04 9.99647E-02 1.57867E-13-6.21579E-13
 -1       355 2.01428E+01 3.30851E-02 3.88457E-04 1.31889E-01 1.01745E-13-5.15692E-13
 -1       356 2.02141E+01 4.37151E-02 5.06224E-04 1.74641E-01 3.13817E-14-4.36663E-13
 -1       357 2.03052E+01 5.54853E-02 6.31597E-04 2.29446E-01 2.74232E-14-4.29792E-13
 -1       358 2.04206E+01 6.78324E-02 7.54381E-04 2.97092E-01-8.91345E-14-5.00097E-13
 -1       359 2.05646E+01 7.95529E-02 8.55209E-04 3.77399E-01-1.87234E-13-4.23534E-13
 -1       360 2.07413E+01 8.84274E-02 9.01049E-04 4.68387E-01-2.01053E-14-5.06242E-13
 -1       361 2.09535E+01 9.07068E-02 8.40275E-04 5.65026E-01 1.37122E-13-6.18325E-13
 -1       362 2.12023E+01 8.04996E-02 5.99556E-04 6.57477E-01 1.34385E-14-5.35590E-13
 -1       363 2.14858E+01 4.92640E-02 8.74530E-05 7.28839E-01-7.75146E-14-3.96972E-13
 -1       364 2.17978E+01-1.40246E-02-7.85550E-04 7.52729E-01 1.29748E-13-1.97025E-13
 -1       365 2.21256E+01-1.20803E-01-2.06648E-03 6.91792E-01 1.88889E-13-1.50644E-13
 -1       366 2.24472E+01-2.76839E-01-3.65325E-03 4.99667E-01 6.91769E-14-1.95648E-13
 -1       367 2.27260E+01-4.70006E-01-5.23003E-03 1.30944E-01 2.08155E-13-1.71603E-13
 -1       368 2.29050E+01-6.51768E-01-6.06583E-03-4.34625E-01 1.79923E-13-1.82975E-13
 -1       369 2.29041E+01-7.23405E-01-5.30686E-03-1.14891E+00 3.02579E-15-1.09673E-13
 -1       370 2.26396E+01-5.56845E-01-2.65884E-03-1.84627E+00 1.27086E-13 9.37089E-14
 -1       371 2.20873E+01-8.56107E-02-1.34673E-04-2.23892E+00 2.76954E-14 1.70924E-13
 -1       372 2.13688E+01 5.70159E-01 1.47834E-03-2.03841E+00-1.56805E-13 3.56155E-13
 -1       373 2.07612E+01 1.07736E+00 2.66821E-03-1.18732E+00-3.22176E-13 1.16726E-13
 -1       374 2.05294E+01 1.10669E+00 2.96296E-03-2.46473E-02-7.22738E-14 6.68851E-14
 -1       375 2.06930E+01 6.41053E-01 2.36528E-03 8.84951E-01 4.41826E-13-3.32512E-13
 -1       376 2.10017E+01 1.36048E-02 5.50001E-04 1.17962E+00 1.71549E-13-6.51601E-14
 -1       377 2.11802E+01-4.15324E-01-1.04570E-03 9.12365E-01 2.91564E-15 2.51207E-13
 -1       378 2.11075E+01-5.02320E-01-2.50736E-03 3.99560E-01-2.44501E-13 2.31022E-13
 -1       379 2.08175E+01-3.14155E-01-3.64107E-03-3.31112E-02-1.74997E-14-2.15148E-14
 -1       380 2.04679E+01-5.75563E-02 1.45708E-03-1.83768E-01 5.89279E-14-3.56878E-13
 -1       381 1.98912E+01 2.28470E-01 1.07956E-02 3.98527E-01 3.81612E-13 3.53517E-13
 -1       382 1.96027E+01 1.15311E-01 6.17498E-03 1.19881E-01 2.90619E-13 2.11618E-13
 -1       383 1.94681E+01 5.76047E-02 2.80677E-03-2.88817E-02 2.21840E-13 1.55213E-13
 -1       384 1.94282E+01 2.56891E-02 1.17583E-03-1.05652E-01 1.45081E-13 7.16632E-14
 -1       385 1.94439E+01 7.20584E-03 4.46357E-04-1.40717E-01 1.25534E-13-4.68110E-15
 -1       386 1.94897E+01-3.52392E-03 9.85993E-05-1.51014E-01 1.46380E-13-6.31759E-14
 -1       387 1.95498E+01-9.45976E-03-8.32601E-05-1.46762E-01 1.54603E-13-9.93414E-14
 -1       388 1.96139E+01-1.23195E-02-1.78652E-04-1.34432E-01 3.46150E-14-2.59738E-14
 -1       389 1.96763E+01-1.31805E-02-2.21256E-04-1.18233E-01 1.36308E-13-7.70673E-14
 -1       390 1.97336E+01-1.27474E-02-2.29389E-04-1.00929E-01 1.29190E-13-1.14643E-13
 -1       391 1.97844E+01-1.14829E-02-2.14647E-04-8.43298E-02 1.96271E-13-1.41952E-13
 -1       392 1.98285E+01-9.68076E-03-1.84539E-04-6.96271E-02 1.05580E-13-1.84846E-13
 -1       393 1.98667E+01-7.51059E-03-1.43617E-04-5.76247E-02-5.71985E-15-2.42549E-13
 -1       394 1.99003E+01-5.04677E-03-9.42097E-05-4.89131E-02 2.88655E-14-3.00410E-13
 -1       395 1.99311E+01-2.28897E-03-3.69495E-05-4.40028E-02 1.18187E-13-2.52708E-13
 -1       396 1.99613E+01 8.22795E-04 2.88517E-05-4.34284E-02 8.48635E-14-1.62085E-13
 -1       397 1.99937E+01 4.39653E-03 1.04896E-04-4.78298E-02-8.67989E-14-2.26291E-13
 -1       398 2.00314E+01 8.57804E-03 1.93589E-04-5.80162E-02-1.15458E-13-2.86262E-13
 -1       399 2.00781E+01 1.35400E-02 2.97689E-04-7.50113E-02-3.98386E-15-3.08270E-13
 -1       400 2.01381E+01 1.94669E-02 4.19799E-04-1.00077E-01 1.68295E-13-2.80897E-13
 -1       401 2.02163E+01 2.65306E-02 5.61520E-04-1.34703E-01 2.89524E-14-1.69001E-13
 -1       402 2.03186E+01 3.48478E-02 7.22021E-04-1.80552E-01-1.61846E-13-1.25394E-13
 -1       403 2.04513E+01 4.44030E-02 8.95605E-04-2.39303E-01-7.13581E-14-2.29269E-14
 -1       404 2.06213E+01 5.49116E-02 1.06774E-03-3.12358E-01-1.61270E-13-8.62800E-14
 -1       405 2.08359E+01 6.55838E-02 1.20895E-03-4.00274E-01 2.22991E-14 8.19891E-14
 -1       406 2.11015E+01 7.47292E-02 1.26656E-03-5.01789E-01 1.81188E-13-9.14415E-14
 -1       407 2.14228E+01 7.91427E-02 1.15594E-03-6.12180E-01 1.14582E-13 7.51477E-15
 -1       408 2.18009E+01 7.32470E-02 7.56773E-04-7.20701E-01 5.19254E-14 2.59218E-14
 -1       409 2.22301E+01 4.81577E-02-7.37087E-05-8.06935E-01-3.40093E-14-5.62663E-14
 -1       410 2.26948E+01-8.65437E-03-1.44465E-03-8.36419E-01-7.66438E-14-2.39495E-13
 -1       411 2.31641E+01-1.11328E-01-3.32420E-03-7.57379E-01-1.41971E-14-1.06845E-13
 -1       412 2.35860E+01-2.67759E-01-5.38885E-03-5.03499E-01 2.56004E-13 1.32278E-13
 -1       413 2.38820E+01-4.61338E-01-6.66427E-03-1.24943E-02 1.06206E-13 1.11410E-13
 -1       414 2.39449E+01-6.24539E-01-6.50305E-03 7.26322E-01-8.63701E-14 2.26180E-13
 -1       415 2.36567E+01-6.23757E-01-3.96838E-03 1.59389E+00-4.69171E-13 3.88147E-13
 -1       416 2.29540E+01-3.20432E-01-2.55801E-03 2.27942E+00-3.86236E-13 2.95953E-13
 -1       417 2.19474E+01 2.81358E-01-3.41346E-03 2.35235E+00-3.01551E-13 4.72880E-13
 -1       418 2.10004E+01 8.84513E-01-3.53895E-03 1.56767E+00 1.30596E-13 7.03280E-13
 -1       419 2.05481E+01 1.05310E+00-2.06101E-03 2.18417E-01 2.87439E-13 6.03991E-13
 -1       420 2.07132E+01 6.54050E-01 1.03902E-03-9.57400E-01 2.52615E-13 3.41818E-13
 -1       421 2.11854E+01 1.10500E-02 2.66219E-03-1.37346E+00 5.48042E-13 5.18422E-15
 -1       422 2.15320E+01-4.46012E-01-2.21424E-04-1.02425E+00 5.13858E-13-2.45422E-13
 -1       423 2.15335E+01-5.39201E-01-4.05607E-03-3.25641E-01 1.13097E-13-4.15565E-13
 -1       424 2.12169E+01-3.41214E-01-4.17929E-03 2.75053E-01 6.27662E-14-3.19226E-13
 -1       425 2.07364E+01-2.55737E-02-2.03358E-03 5.14171E-01-1.17779E-14-3.06051E-13
 -1       426 2.04389E+01 1.73309E-01 1.13128E-03 4.88479E-01 8.32667E-15 5.98458E-14
 -1       427 2.08169E+01 1.09311E+00 5.08839E-03 2.52831E+00-3.55843E-13 3.34616E-13
 -1       428 2.08759E+01 5.11175E-01 4.57290E-03 1.64514E+00-2.04995E-13 2.55664E-13
 -1       429 2.06550E+01 3.32952E-01 4.03767E-03 9.75036E-01-2.58505E-13-1.36045E-13
 -1       430 2.03406E+01 2.01373E+00 1.21829E-03 3.16780E+00-3.54647E-13-1.52400E-13
 -1       431 1.94402E+01 3.21212E+00-3.14461E-03 3.11448E+00-1.08022E-13 5.50599E-13
 -1       432 1.84719E+01 4.31275E+00-5.77330E-03 2.03618E+00 8.22255E-14 4.92064E-13
 -1       433 1.80053E+01 4.80488E+00-7.86306E-03 1.33699E-01-3.11181E-14 2.74384E-13
 -1       434 1.83445E+01 4.42893E+00-3.97875E-03-1.83476E+00 1.29290E-13-8.74379E-14
 -1       435 1.92920E+01 3.35846E+00-2.83826E-03-3.07049E+00 7.83948E-14-4.11191E-13
 -1       436 2.02250E+01 2.14938E+00 7.92314E-04-3.26495E+00 2.66717E-13-5.27183E-13
 -1       437 2.08054E+01 1.12903E+00 4.20577E-03-2.67862E+00 2.83666E-13 4.47805E-13
 -1       438 2.09386E+01 4.76574E-01 7.64565E-03-1.76112E+00 2.77948E-13 1.79759E-13
 -1       439 2.07512E+01 1.51255E-01 7.70318E-03-8.87967E-01 6.36286E-15-7.08173E-14
 -1       440 1.25195E+01-6.60917E+00-4.47922E-02 7.92002E+00-1.79384E-13 4.08625E-13
 -1       441 2.08424E+00-4.24420E+00 2.06967E-02 1.23322E-01-4.42732E-13 2.76917E-13
 -1       442 4.72245E+00-4.64651E+00 7.28514E-02 4.80957E+00-2.30566E-13 5.68851E-13
 -1       443 2.12791E+01-6.36232E+00-4.69550E-03 7.54996E+00-7.95197E-14-2.32224E-13
 -1       444 2.85772E+01-4.30770E+00-1.31392E-02 4.96633E+00 1.99118E-13-4.46213E-13
 -1       445 1.97907E+01 3.43314E+00-1.86954E-02-1.71974E+00-4.35806E-13-7.22851E-13
 -1       446 3.69354E+01 6.57726E+00 8.05074E-02 4.42641E-01 1.77539E-13-1.83964E-13
 -1       447 3.78903E+01 8.41055E+00 1.00719E-01 7.95436E-01 1.38778E-13-3.89667E-13
 -1       448 3.58167E+01 6.99296E+00-2.42420E-02 1.62822E+00 3.98820E-13-4.52860E-13
 -1       449 3.49914E+01 2.20129E+00 5.03774E-02-7.15814E-02 5.09828E-13-5.83950E-13
 -1       450 3.02264E+01-2.58431E+00 1.81174E-02-2.57437E+00 2.63317E-13-4.01734E-13
 -1       451 2.21709E+01-6.24052E+00-1.28766E-02-5.67736E+00 1.51421E-13-3.33664E-13
 -1       452 1.27941E+01-6.82389E+00-8.17032E-02-6.78353E+00 5.17086E-14-5.56628E-13
 -1       453 5.14633E+00-6.43331E+00-9.75764E-02-5.25835E+00 7.72993E-14-4.80824E-13
 -1       454 8.73788E-01-6.08726E+00-1.17549E-01-1.50470E+00-2.40353E-13-6.76403E-13
 -1       455 1.74102E+00-5.42343E+00-4.84151E-02 2.72287E+00-1.98043E-13-1.20479E-12
 -1       456 7.70677E+00-5.91718E+00 2.71923E-02 6.42868E+00-7.33580E-14-6.67397E-13
 -1       457 1.53717E+01-6.63120E+00 3.75481E-03 7.19976E+00-9.17322E-15 9.30454E-14
 -1       458 2.51444E+01-5.39992E+00 1.06205E-02 4.84897E+00-3.51094E-13 2.97720E-13
 -1       459 3.22708E+01-3.59878E-01-1.45650E-03 1.51309E+00-8.24843E-13 5.84449E-13
 -1       460 3.65167E+01 4.44883E+00 1.00720E-01 6.06347E-02-5.38777E-13 2.19602E-13
 -1       461 3.57490E+01 7.76269E+00-3.61420E-02-1.23143E+00-7.62723E-14-4.44020E-14
 -1       462 3.62180E+01 8.06950E+00-1.88446E-02-3.16527E-01 1.44329E-14-2.11615E-13
 -1       463 3.62709E+01 5.48171E+00 3.94150E-02-4.00058E-01 2.00104E-13 5.47479E-14
 -1       464 3.36447E+01 3.99053E-01 4.74471E-02-2.71319E+00-3.40497E-14-2.69312E-13
 -1       465 2.80848E+01-3.58380E+00 2.14188E-02-5.54962E+00-2.04559E-14-7.41907E-14
 -1       466 2.06799E+01-6.32560E+00-1.14196E-02-7.63504E+00-4.12476E-13-6.04433E-13
 -1       467 1.16494E+01-6.33892E+00-8.69600E-03-8.02181E+00 1.56680E-13-1.68934E-13
 -1       468 4.10466E+00-6.09256E+00-1.07525E-01-5.10297E+00-1.26815E-13 2.41265E-13
 -1       469 3.36031E+01 5.20684E-01-5.26145E-02 7.96361E-01 1.62415E-13-1.02710E-13
 -1       470 1.06010E+01-4.27782E+00 1.29117E-01 7.23617E+00-2.15744E-13 4.20566E-13
 -1       471 2.89481E+01-4.23478E+00-5.99244E-02 1.41760E+00-4.94518E-13 5.60774E-13
 -1       472 2.03738E+01 8.31969E-01 4.01093E-03 9.71770E-01 5.06815E-13 9.00831E-15
 -1       473 1.97323E+01 3.10387E+00-5.40931E-03-6.33947E-01-1.37045E-13-7.66038E-13
 -1       474 1.98281E+01 2.93089E+00-6.01478E-03-9.50577E-01-2.47783E-13-7.56959E-13
 -1       475 1.96645E+01 3.22667E+00-5.02482E-03 8.82050E-03 8.22781E-14-7.65397E-13
 -1       476 1.96831E+01 3.19366E+00-5.10410E-03 3.30399E-01 1.94730E-13-7.41700E-13
 -1       477 1.97369E+01 3.09685E+00-5.41449E-03 6.45770E-01 2.94035E-13-7.12475E-13
 -1       478 1.98356E+01 2.91901E+00-5.94580E-03 9.61350E-01 4.15506E-13-6.21538E-13
 -1       479 1.99912E+01 2.63393E+00-6.52753E-03 1.25650E+00 5.07088E-13-5.07763E-13
 -1       480 2.02337E+01 2.18778E+00-5.70379E-03 1.50125E+00 5.77056E-13-3.36125E-13
 -1       481 2.01121E+01 4.53539E-01 5.07532E-03 4.63911E-01 3.94318E-13-4.69760E-14
 -1       482 2.03413E+01 9.73865E-01 2.88973E-03-9.38520E-01-4.14353E-13-3.36705E-13
 -1       483 3.11564E+01-1.48045E+00-7.58949E-02 1.15376E+00 1.92282E-13-6.14966E-13
 -1       484 2.01710E+01 5.46238E-01 2.28088E-03-4.67385E-01-3.50765E-13-3.20081E-13
 -1       485 2.00246E+01 3.03737E-01 9.62196E-04-1.66501E-01-2.67695E-13-3.11775E-13
 -1       486 1.99239E+01 1.61512E-01 4.28414E-04 1.50611E-02-2.05982E-13-3.12656E-13
 -1       487 1.98650E+01 7.51378E-02 1.51849E-04 1.17445E-01-1.55081E-13-3.14397E-13
 -1       488 1.98374E+01 2.23894E-02 2.04578E-05 1.68626E-01-1.92445E-13-3.44244E-13
 -1       489 1.98311E+01-9.11362E-03-4.73819E-05 1.87117E-01-1.65004E-13-3.69734E-13
 -1       490 1.98382E+01-2.67411E-02-8.24138E-05 1.85498E-01-1.88144E-13-3.55947E-13
 -1       491 1.98528E+01-3.51751E-02-9.73687E-05 1.72338E-01-1.47232E-13-2.34493E-13
 -1       492 1.98711E+01-3.75019E-02-9.92208E-05 1.53477E-01-1.05980E-13-1.78777E-13
 -1       493 1.98907E+01-3.57813E-02-9.24563E-05 1.32887E-01-4.05195E-14-1.45350E-13
 -1       494 1.99103E+01-3.13661E-02-8.00287E-05 1.13270E-01-2.48006E-14-2.85604E-13
 -1       495 1.99292E+01-2.50980E-02-6.37586E-05 9.64876E-02-7.18273E-14-2.54442E-13
 -1       496 1.99473E+01-1.74372E-02-4.46042E-05 8.38852E-02-7.26328E-14-1.96408E-13
 -1       497 1.99653E+01-8.55460E-03-2.28519E-05 7.65284E-02-1.13953E-13-1.99088E-13
 -1       498 1.99837E+01 1.59771E-03 1.71380E-06 7.53864E-02-9.74131E-14-2.92506E-13
 -1       499 2.00038E+01 1.32273E-02 2.96634E-05 8.14646E-02-1.36787E-13-3.03671E-13
 -1       500 2.00268E+01 2.66452E-02 6.17930E-05 9.58956E-02-2.37927E-14-2.60137E-13
 -1       501 2.00542E+01 4.22026E-02 9.89612E-05 1.19987E-01 4.50278E-14-3.20358E-13
 -1       502 2.00878E+01 6.02104E-02 1.41868E-04 1.55222E-01 1.48543E-13-4.06164E-13
 -1       503 2.01298E+01 8.08236E-02 1.90719E-04 2.03189E-01 1.76394E-13-3.03374E-13
 -1       504 2.01821E+01 1.03870E-01 2.44710E-04 2.65439E-01 5.03709E-14-2.40853E-13
 -1       505 2.02474E+01 1.28588E-01 3.01211E-04 3.43202E-01-7.51100E-14-3.01383E-13
 -1       506 2.03282E+01 1.53238E-01 3.54545E-04 4.36938E-01-1.96576E-13-3.46737E-13
 -1       507 2.04273E+01 1.74525E-01 3.94217E-04 5.45641E-01-1.25097E-13-2.50170E-13
 -1       508 2.05482E+01 1.86806E-01 4.02612E-04 6.65805E-01-9.86683E-14-3.54609E-13
 -1       509 2.06949E+01 1.81074E-01 3.52512E-04 7.89955E-01 6.35239E-14-4.21513E-13
 -1       510 2.08731E+01 1.43906E-01 2.05897E-04 9.04676E-01 4.88049E-14-3.07070E-13
 -1       511 2.10912E+01 5.69284E-02-8.43534E-05 9.88139E-01 4.86127E-14-1.13324E-13
 -1       512 2.13606E+01-1.01819E-01-5.62945E-04 1.00738E+00 1.35968E-13-1.80191E-13
 -1       513 2.16959E+01-3.51867E-01-1.28158E-03 9.16236E-01-7.72724E-15-2.88859E-13
 -1       514 2.21086E+01-6.95135E-01-2.14511E-03 6.56748E-01 1.55099E-13-3.16290E-13
 -1       515 2.25924E+01-1.08866E+00-3.09328E-03 1.69205E-01 3.49599E-13-2.20201E-13
 -1       516 2.30942E+01-1.40346E+00-3.46294E-03-5.77816E-01 1.06210E-13 4.90427E-14
 -1       517 2.34833E+01-1.40575E+00-2.96440E-03-1.51884E+00-1.51983E-15 2.72751E-14
 -1       518 2.35692E+01-8.30716E-01-2.35538E-03-2.39847E+00 1.07976E-14-1.69047E-13
 -1       519 2.32379E+01 3.56361E-01-8.69998E-03-2.75591E+00-3.16166E-14-7.25080E-14
 -1       520 2.26581E+01 1.71492E+00-1.41232E-02-2.17623E+00-1.16441E-13 2.93491E-14
 -1       521 2.22874E+01 2.37514E+00-1.12140E-02-7.72004E-01-2.87130E-13 3.03243E-13
 -1       522 2.23911E+01 1.82816E+00-1.21338E-02 6.87281E-01-1.85334E-13 6.45389E-14
 -1       523 2.27292E+01 5.38792E-01-9.72957E-03 1.37506E+00 2.76478E-13-3.63991E-13
 -1       524 2.28493E+01-5.99610E-01-4.83289E-03 1.14283E+00 2.54774E-13-2.65788E-13
 -1       525 2.25431E+01-1.06366E+00-1.88835E-03 4.22094E-01 5.67273E-14-9.73989E-14
 -1       526 2.19101E+01-8.63985E-01 6.19524E-04-2.72803E-01-1.72927E-13 1.78964E-13
 -1       527 1.98098E+01 1.28831E-01 1.00059E-03-1.96663E-02 2.28500E-13-1.31349E-13
 -1       528 1.97518E+01 5.93730E-02 3.63918E-04-1.18054E-01 1.96306E-13-1.56266E-13
 -1       529 1.97328E+01 1.76007E-02 8.30430E-05-1.66047E-01 1.71330E-13-1.86660E-13
 -1       530 1.97386E+01-7.14659E-03-5.31711E-05-1.82567E-01 1.21677E-13-1.45834E-13
 -1       531 1.97588E+01-2.09615E-02-1.22659E-04-1.79973E-01 5.84449E-14-1.44519E-13
 -1       532 1.97862E+01-2.76057E-02-1.54240E-04-1.66503E-01 1.35852E-13-1.47219E-13
 -1       533 1.98162E+01-2.95218E-02-1.61761E-04-1.47696E-01 1.92287E-13-1.82930E-13
 -1       534 1.98460E+01-2.83291E-02-1.53578E-04-1.27276E-01 1.09083E-13-2.09403E-13
 -1       535 1.98742E+01-2.50886E-02-1.35192E-04-1.07748E-01 1.41379E-13-1.40128E-13
 -1       536 1.99003E+01-2.04632E-02-1.10025E-04-9.08172E-02 7.62338E-14-1.06102E-13
 -1       537 1.99244E+01-1.48196E-02-7.99303E-05-7.76961E-02 2.16649E-14-1.15141E-13
 -1       538 1.99473E+01-8.29602E-03-4.56358E-05-6.93326E-02 4.18082E-14-1.09526E-13
 -1       539 1.99700E+01-8.52474E-04-6.96888E-06-6.65889E-02 7.62369E-14 4.40579E-15
 -1       540 1.99941E+01 7.69096E-03 3.69716E-05-7.03772E-02 1.66936E-14-3.47361E-14
 -1       541 2.00212E+01 1.76225E-02 8.75741E-05-8.17634E-02-9.56467E-14-1.49764E-13
 -1       542 2.00537E+01 2.93077E-02 1.46570E-04-1.02041E-01-7.39594E-14-1.01331E-13
 -1       543 2.00938E+01 4.31521E-02 2.15805E-04-1.32771E-01 1.16242E-14-6.00726E-14
 -1       544 2.01444E+01 5.95481E-02 2.96865E-04-1.75788E-01 1.10567E-13-3.53377E-14
 -1       545 2.02087E+01 7.87881E-02 3.90478E-04-2.33137E-01-1.23264E-14-1.26003E-13
 -1       546 2.02901E+01 1.00918E-01 4.95474E-04-3.06929E-01-5.82144E-14-2.52117E-13
 -1       547 2.03921E+01 1.25487E-01 6.07012E-04-3.99051E-01-4.90003E-14-2.98557E-13
 -1       548 2.05187E+01 1.51125E-01 7.13700E-04-5.10637E-01-2.01680E-13-3.10774E-13
 -1       549 2.06737E+01 1.74849E-01 7.93180E-04-6.41189E-01 1.00346E-13-3.14142E-13
 -1       550 2.08609E+01 1.90982E-01 8.06092E-04-7.87136E-01 1.40132E-14-1.73541E-13
 -1       551 2.10844E+01 1.89596E-01 6.89220E-04-9.39619E-01-7.33133E-14 3.05513E-14
 -1       552 2.13493E+01 1.54612E-01 3.50778E-04-1.08123E+00 1.00934E-13 1.45278E-13
 -1       553 2.16627E+01 6.22975E-02-3.27950E-04-1.18167E+00 1.54297E-13 9.18515E-14
 -1       554 2.20354E+01-1.17586E-01-1.44233E-03-1.19278E+00-5.28613E-14 7.07495E-14
 -1       555 2.24805E+01-4.12941E-01-2.99833E-03-1.04506E+00-4.15366E-14 6.82277E-14
 -1       556 2.30052E+01-8.24066E-01-4.77561E-03-6.51319E-01 9.56447E-14 3.62154E-13
 -1       557 2.35834E+01-1.27248E+00-5.30614E-03 6.92543E-02 1.30111E-14 3.35879E-13
 -1       558 2.41094E+01-1.54166E+00-5.72714E-03 1.12130E+00-3.51145E-13 2.61791E-13
 -1       559 2.43762E+01-1.27504E+00-3.86655E-03 2.29237E+00-4.31183E-13 3.59269E-13
 -1       560 2.41393E+01-1.96635E-01-1.54446E-02 3.07578E+00-2.52648E-13 3.38154E-13
 -1       561 2.34722E+01 1.38989E+00-2.25000E-02 2.77721E+00-1.22399E-13 7.40304E-14
 -1       562 2.28798E+01 2.45526E+00-2.86578E-02 1.24862E+00 2.85442E-13 8.01773E-14
 -1       563 2.28566E+01 2.09719E+00-2.73940E-02-6.22011E-01 4.72889E-13-9.19498E-14
 -1       564 2.32300E+01 6.48721E-01-1.65333E-02-1.62549E+00 5.81568E-13-3.85510E-13
 -1       565 2.33994E+01-7.27109E-01-7.39627E-03-1.38776E+00 5.91824E-13-3.15268E-13
 -1       566 2.30552E+01-1.28736E+00-5.48112E-03-4.45962E-01 2.09238E-13 1.06019E-13
 -1       567 2.23340E+01-1.05661E+00-5.81538E-03 4.87582E-01 2.02038E-13 9.83433E-14
 -1       568 2.14881E+01-4.04946E-01-1.49288E-03 1.01880E+00 2.00762E-15 1.90060E-13
 -1       569 1.99945E+01 5.54613E-01 9.08320E-03 4.26244E+00 8.81171E-14 3.00309E-13
 -1       570 1.78626E+01 1.81027E+00 1.62647E-02 3.74916E+00-7.69727E-14 7.46220E-13
 -1       571 2.18294E+01-5.00946E-01 4.77646E-03 2.35649E+00-7.08742E-14 3.92514E-14
 -1       572 2.14017E+01-2.52297E-01 5.17665E-03 3.54052E+00-2.92518E-13 2.45129E-13
 -1       573 1.60925E+01 2.86534E+00 1.80203E-02 1.65451E+00-3.79078E-14 4.62339E-13
 -1       574 1.59425E+01 3.00270E+00 2.74013E-02-1.27055E+00-8.77822E-14 1.76986E-13
 -1       575 1.76177E+01 1.97763E+00 1.16647E-02-3.58719E+00-2.31394E-13-4.56256E-13
 -1       576 1.96765E+01 7.32517E-01 1.57533E-02-4.34999E+00 6.08761E-15-1.58968E-13
 -1       577 2.12850E+01-2.22975E-01 4.93688E-03-3.78895E+00 4.34588E-13-1.67545E-13
 -1       578 2.19006E+01-6.05336E-01 5.67783E-03-2.59214E+00 2.40219E-13 4.65412E-14
 -1       579 2.17122E+01-5.72558E-01-1.68760E-03-1.39540E+00-2.51121E-13-2.09332E-13
 -1       580 1.94027E+01-6.03172E+00 9.81134E-02 7.82267E+00-2.47913E-13-1.16180E-13
 -1       581 6.71355E+00-1.78895E+00 1.80996E-01-3.53684E+00-9.71688E-14 6.10484E-14
 -1       582 1.99247E+01 2.46256E-01 2.45783E-03 1.58653E-01 3.08170E-13-9.73887E-14
 -1       583 6.98906E+00-1.24205E+00 2.18575E-01 2.55709E+00-1.70374E-13 3.53106E-13
 -1       584 2.61050E+01-6.21321E+00 1.70341E-02 5.29170E+00-5.57540E-14-2.85747E-13
 -1       585 2.03906E+01 1.75497E+00-5.26322E-03-1.52177E+00-5.13612E-13-3.95158E-13
 -1       586 1.11300E+01-3.33515E+00 1.50373E-01-6.90227E+00 3.60274E-13-1.86087E-13
 -1       587 3.03472E+01 7.57101E+00-1.87142E-01-7.96242E-01 5.52891E-14-3.89566E-13
 -1       588 7.81156E+00-2.56763E+00 1.97353E-01 4.74236E+00 2.95982E-13-4.69083E-13
 -1       589 1.96802E+01 3.19805E+00-5.11432E-03-3.12829E-01-1.43886E-14-7.67130E-13
 -1       590 3.19847E+01 3.59336E+00-1.38870E-01 2.75694E+00 4.03386E-13-4.82468E-13
 -1       591 3.16036E+01 6.83441E+00-1.80711E-01-3.97586E-01 1.43163E-13-4.45116E-13
 -1       592 3.11485E+01 3.15984E+00-1.65710E-01-1.40289E+00 2.73614E-13-2.18957E-13
 -1       593 3.09476E+01 7.21701E+00-1.97571E-01 1.48469E+00 2.78305E-13-6.05377E-13
 -1       594 2.72114E+01-5.57350E+00-2.94570E-02-2.37925E+00 2.12053E-14-3.39992E-13
 -1       595 1.90974E+01-6.45362E+00 6.53559E-02-6.18313E+00-1.43129E-13-3.35251E-13
 -1       596 1.20221E+01-5.21271E+00 1.24695E-01-6.63919E+00 5.72320E-14-3.01495E-13
 -1       597 5.92176E+00-2.94768E+00 1.68680E-01-3.83930E+00-2.38511E-13-7.13415E-13
 -1       598 4.10297E+00-2.22343E+00 1.79668E-01-2.13799E-02-2.10954E-13-7.75408E-13
 -1       599 1.22678E+01-4.40136E+00 1.48768E-01 6.51262E+00 3.96225E-13-2.82899E-13
 -1       600 3.03384E+01-3.52146E+00-6.29421E-02-2.07199E+00-1.12722E-13-4.07868E-14
 -1       601 2.18431E+01-6.23722E+00 4.67414E-02 5.34263E+00 1.91964E-13 2.06188E-13
 -1       602 3.15724E+01 1.23370E+00-1.22960E-01-1.89338E+00-5.72514E-13 2.20352E-13
 -1       603 3.11669E+01 5.11568E+00-1.68623E-01-2.62619E+00-8.52651E-14-3.42067E-13
 -1       604 3.11644E+01 5.75745E+00-1.75341E-01 1.06443E+00-1.02834E-14-2.71290E-13
 -1       605 3.20869E+01 1.45400E+00-1.25367E-01 7.41932E-01 1.96163E-13 2.08111E-13
 -1       606 2.65595E+01-5.99152E+00 1.52886E-02-5.23195E+00-2.34063E-13 5.87169E-14
 -1       607 1.94693E+01-5.93609E+00 9.97987E-02-7.83732E+00 1.94914E-14-3.22289E-13
 -1       608 2.05857E+01 1.30523E+00-9.99837E-04 1.54769E+00 6.08552E-13 8.79323E-14
 -1       609 3.04110E+01-3.38097E+00-6.09792E-02 1.30881E+00 1.66252E-13 4.98074E-14
 -1       610 2.92072E+01 4.90554E+00-1.56903E-01 2.95609E+00 3.68788E-13-3.21097E-13
 -1       611 1.99802E+01 2.65190E+00-6.52022E-03-1.24455E+00-3.59175E-13-6.91641E-13
 -1       612 2.97583E+01-5.39215E-01-1.04555E-01-1.23053E+00 3.63355E-13 3.11140E-14
 -1       613 2.13859E+01-5.07140E-01 1.95474E-04-5.55763E-01-2.39686E-13 2.53330E-13
 -1       614 1.07054E+01-1.35035E+00 1.72218E-01 5.02547E+00-3.00333E-13 4.63206E-13
 -1       615 2.01658E+01 2.27905E+00-5.77640E-03-1.43638E+00-4.44942E-13-5.77082E-13
 -1       616 2.56345E+01-5.84529E+00-2.58091E-03 2.86834E+00-1.07206E-13 2.27901E-13
 -1       617 2.94611E+01-2.31205E+00-1.06081E-01-1.32154E+00-6.27768E-13 4.05342E-13
 -1       618 2.39996E+01-6.12619E+00 2.59635E-02-3.76447E+00-2.13194E-13-1.89920E-13
 -1       619 1.80672E+01-4.88666E+00 1.10572E-01 5.90643E+00 2.18513E-13 3.68533E-13
 -1       620 1.99598E+01 2.44918E+00-1.58701E-03 3.94161E-01 2.19268E-13-6.48620E-13
 -1       621 1.99279E+01 2.52408E+00-1.51828E-03 1.35751E-01 1.34600E-13-6.68448E-13
 -1       622 2.01200E+01 2.04589E+00-1.58436E-03 8.50298E-01 4.04633E-13-4.90877E-13
 -1       623 2.02394E+01 1.67526E+00-2.21791E-03 9.91701E-01 4.77627E-13-3.78770E-13
 -1       624 2.03193E+01 1.03675E+00 2.86189E-03 8.31407E-01 4.55752E-13-2.34150E-13
 -1       625 1.18653E+01-5.65022E-01 1.29704E-01-4.67342E+00-2.63144E-13-4.67085E-13
 -1       626 2.02407E+01 6.68808E-01-6.65741E-04-3.96219E-01-2.89822E-13-4.19365E-13
 -1       627 2.01679E+01 3.91307E-01 2.38561E-04-1.39619E-01-2.33380E-13-3.97211E-13
 -1       628 2.01018E+01 2.11977E-01 4.97367E-05 2.16338E-02-1.64337E-13-3.67582E-13
 -1       629 2.00514E+01 9.77033E-02 5.68019E-06 1.16533E-01-1.99101E-13-3.90967E-13
 -1       630 2.00163E+01 2.60109E-02-1.47520E-05 1.65113E-01-1.79630E-13-3.70543E-13
 -1       631 1.99938E+01-1.72086E-02-2.59631E-05 1.83064E-01-1.24771E-13-3.19275E-13
 -1       632 1.99808E+01-4.12060E-02-3.14355E-05 1.81777E-01-5.64263E-14-2.35373E-13
 -1       633 1.99746E+01-5.21964E-02-3.28646E-05 1.69375E-01-9.83667E-14-1.95381E-13
 -1       634 1.99730E+01-5.44112E-02-3.14027E-05 1.51571E-01-1.03787E-13-1.57558E-13
 -1       635 1.99746E+01-5.07127E-02-2.79790E-05 1.32347E-01-4.32661E-14-1.48121E-13
 -1       636 1.99782E+01-4.29750E-02-2.32365E-05 1.14481E-01-5.95485E-14-1.46668E-13
 -1       637 1.99834E+01-3.23362E-02-1.75859E-05 9.99482E-02-1.18988E-13-1.87230E-13
 -1       638 1.99897E+01-1.93791E-02-1.12006E-05 9.02379E-02-1.53386E-13-2.72586E-13
 -1       639 1.99971E+01-4.26552E-03-4.04751E-06 8.65876E-02-1.46908E-13-2.01866E-13
 -1       640 2.00055E+01 1.31558E-02 4.02608E-06 9.01631E-02-6.53219E-14-1.22895E-13
 -1       641 2.00154E+01 3.32532E-02 1.32608E-05 1.02187E-01-7.31514E-14-1.93850E-13
 -1       642 2.00269E+01 5.65134E-02 2.39457E-05 1.24018E-01-1.00992E-13-1.75589E-13
 -1       643 2.00405E+01 8.34279E-02 3.63831E-05 1.57184E-01-6.35119E-15-1.95185E-13
 -1       644 2.00566E+01 1.14343E-01 5.08156E-05 2.03358E-01 1.51177E-13-3.69500E-13
 -1       645 2.00758E+01 1.49246E-01 6.73145E-05 2.64263E-01 9.36765E-14-4.15226E-13
 -1       646 2.00988E+01 1.87456E-01 8.56105E-05 3.41489E-01-5.28159E-14-4.60106E-13
 -1       647 2.01264E+01 2.27165E-01 1.04829E-04 4.36195E-01-1.37810E-13-4.06055E-13
 -1       648 2.01602E+01 2.64777E-01 1.23086E-04 5.48649E-01-6.72080E-14-9.35376E-14
 -1       649 2.02025E+01 2.93983E-01 1.36889E-04 6.77578E-01-1.06096E-13-1.65472E-14
 -1       650 2.02578E+01 3.04529E-01 1.40346E-04 8.19263E-01-7.24060E-15 1.28308E-14
 -1       651 2.03341E+01 2.80740E-01 1.24319E-04 9.66290E-01 5.63683E-14-1.69636E-14
 -1       652 2.04455E+01 2.00141E-01 7.71796E-05 1.10583E+00 8.79407E-14-3.95413E-14
 -1       653 2.06148E+01 3.30889E-02-1.58874E-05 1.21716E+00 1.08881E-13-1.45440E-13
 -1       654 2.08776E+01-2.54405E-01-1.65095E-04 1.26795E+00 1.15361E-13 5.78083E-16
 -1       655 2.12822E+01-6.90101E-01-5.28902E-04 1.20846E+00-1.12327E-14 3.02301E-13
 -1       656 2.18802E+01-1.26797E+00-7.65580E-04 9.66914E-01 2.08418E-13 2.57016E-13
 -1       657 2.26999E+01-1.90519E+00-2.01671E-03 4.45626E-01 1.97642E-13 1.09308E-13
 -1       658 2.36775E+01-2.34736E+00-2.94118E-03-4.38976E-01 2.00955E-14 1.38901E-13
 -1       659 2.45956E+01-2.15437E+00-4.71133E-03-1.65382E+00-1.24928E-13 4.02152E-14
 -1       660 2.50149E+01-8.65147E-01-5.83035E-03-2.77423E+00-1.01898E-13-3.82781E-13
 -1       661 2.47297E+01 1.50157E+00-4.33534E-02-3.10254E+00-9.72018E-14-4.79921E-13
 -1       662 2.42463E+01 3.60682E+00-6.82285E-02-1.88689E+00-2.29159E-13-4.71431E-13
 -1       663 2.43162E+01 3.59481E+00-5.24221E-02 1.90546E-01-3.42745E-13-3.91097E-13
 -1       664 2.46170E+01 1.78048E+00-4.43929E-02 1.53653E+00-3.40386E-13-4.37278E-13
 -1       665 2.48689E+01-5.31011E-01-2.30496E-02 1.36288E+00 2.95976E-13-5.01897E-13
 -1       666 2.43472E+01-1.74632E+00-1.12119E-02 3.28752E-01 1.30688E-13-6.73920E-13
 -1       667 2.33147E+01-1.72309E+00 8.35839E-05-7.30418E-01 1.14462E-13-5.60750E-13
 -1       668 1.99729E+01 8.75032E-02 5.61142E-05-1.19004E-01 2.11552E-13-2.32596E-13
 -1       669 9.91681E+00 5.32629E-01 1.83713E-01-1.81869E-01-7.77186E-14 4.22551E-13
 -1       670 2.00267E+01 1.88989E-01 1.73294E-04-2.07345E-02 2.25406E-13-1.98748E-13
 -1       671 1.99251E+01-1.34798E-02-2.90746E-05-1.86906E-01 1.09346E-13-1.96657E-13
 -1       672 1.99205E+01-3.46133E-02-4.48485E-05-1.85302E-01 7.61567E-14-2.27082E-13
 -1       673 1.99230E+01-4.44869E-02-5.14328E-05-1.72333E-01 1.35698E-13-1.65836E-13
 -1       674 1.99298E+01-4.68172E-02-5.16084E-05-1.53804E-01 1.62116E-13-1.45780E-13
 -1       675 1.99391E+01-4.41007E-02-4.75100E-05-1.33716E-01 1.06595E-13-1.05338E-13
 -1       676 1.99496E+01-3.79695E-02-4.05996E-05-1.14837E-01 6.39567E-14-9.33058E-14
 -1       677 1.99608E+01-2.94255E-02-3.16258E-05-9.91124E-02 1.47393E-14-5.08822E-14
 -1       678 1.99724E+01-1.89871E-02-2.10605E-05-8.79875E-02 2.56673E-15-2.13213E-14
 -1       679 1.99847E+01-6.80028E-03-9.03702E-06-8.26537E-02-1.23613E-14 4.56578E-15
 -1       680 1.99981E+01 7.27683E-03 4.75318E-06-8.42360E-02 4.65141E-14 5.91064E-14
 -1       681 2.00131E+01 2.36079E-02 2.06933E-05-9.39337E-02-2.44878E-15 4.83117E-14
 -1       682 2.00306E+01 4.27185E-02 3.93429E-05-1.13124E-01-9.20666E-14-1.19537E-14
 -1       683 2.00514E+01 6.52313E-02 6.14006E-05-1.43424E-01-5.85640E-14-5.61682E-14
 -1       684 2.00765E+01 9.17846E-02 8.75681E-05-1.86714E-01 1.03892E-13 3.01850E-15
 -1       685 2.01071E+01 1.22912E-01 1.18436E-04-2.45101E-01 7.90432E-14 1.47986E-13
 -1       686 2.01442E+01 1.58852E-01 1.54253E-04-3.20815E-01 2.22261E-14 1.60629E-13
 -1       687 2.01888E+01 1.99240E-01 1.94522E-04-4.15996E-01 3.28440E-14 5.89549E-14
 -1       688 2.02421E+01 2.42596E-01 2.37331E-04-5.32333E-01-1.59131E-13-4.84757E-14
 -1       689 2.03055E+01 2.85516E-01 2.78254E-04-6.70488E-01 8.42694E-14-2.17673E-13
 -1       690 2.03809E+01 3.21386E-01 3.08649E-04-8.29214E-01-8.36484E-15-1.87412E-13
 -1       691 2.04725E+01 3.38500E-01 3.13017E-04-1.00404E+00-8.75657E-14-2.18826E-13
 -1       692 2.05884E+01 3.17507E-01 2.64399E-04-1.18535E+00-6.49772E-14-1.57473E-13
 -1       693 2.07447E+01 2.28590E-01 1.15578E-04-1.35561E+00 1.02163E-13-1.67969E-13
 -1       694 2.09710E+01 2.98397E-02-2.26033E-04-1.48523E+00 4.47093E-14 3.55779E-14
 -1       695 2.13164E+01-3.29092E-01-7.94414E-04-1.52635E+00-1.58295E-13-1.99288E-14
 -1       696 2.18516E+01-8.89172E-01-1.62277E-03-1.40350E+00-4.22270E-14-5.50468E-14
 -1       697 2.26516E+01-1.63336E+00-2.90843E-03-1.00539E+00 1.23739E-13 3.69656E-14
 -1       698 2.37482E+01-2.38652E+00-2.25165E-04-1.87370E-01-1.63954E-13 1.29470E-13
 -1       699 2.49902E+01-2.65620E+00-5.81381E-03 1.17822E+00-3.90793E-13-6.87306E-14
 -1       700 2.58732E+01-1.76817E+00-4.94590E-02 2.72500E+00-2.36241E-13-7.03970E-14
 -1       701 2.59848E+01 6.75103E-01-6.91556E-02 3.57835E+00-6.14352E-14-2.37305E-13
 -1       702 2.52115E+01 4.30876E+00-1.12604E-01 2.14960E-01 3.68754E-13-4.73284E-13
 -1       703 2.55727E+01 2.25111E+00-7.66220E-02-1.63206E+00 6.72051E-13-3.36677E-13
 -1       704 2.57028E+01-5.93357E-01-5.08720E-02-1.68228E+00 4.75842E-13-2.45100E-13
 -1       705 2.50901E+01-2.17348E+00-1.36299E-02-3.91400E-01 2.08679E-13-1.22776E-13
 -1       706 2.38329E+01-2.12324E+00-2.55276E-03 9.32412E-01 4.46236E-14-2.32974E-13
 -1       707 2.28435E+01-1.53964E+00-1.32830E-03 1.86843E+00-1.34888E-13 2.30519E-14
 -1       708 1.29123E+01 1.78560E+00 1.07767E-01 3.42025E-01-3.92332E-13 3.71234E-13
 -1       709 2.25085E+01-1.22230E+00 4.59023E-03-1.17217E+00 4.13465E-14-2.76950E-13
 -1       710 1.87045E+01-9.44956E-01 4.74240E-02 5.38698E+00-3.70468E-14 2.40485E-13
 -1       711 1.48927E+01 7.48240E-01 7.13208E-02 3.99758E+00-1.33471E-13 5.51123E-13
 -1       712 2.01052E+01 3.52819E-01 6.09252E-04 1.49140E-01 2.78851E-13-1.91718E-13
 -1       713 2.14452E+01-1.96432E+00 1.20119E-02-4.94386E+00 3.13204E-15 8.44112E-14
 -1       714 2.29506E+01-2.10526E+00 5.49013E-03-3.34784E+00 3.36740E-13 1.33093E-13
 -1       715 2.72939E+01 5.25400E+00-1.65302E-01-2.29662E+00-3.66582E-14-7.18781E-13
 -1       716 2.42421E+01-5.47121E+00 4.14624E-02-5.54477E+00-2.80387E-13 3.41863E-13
 -1       717 2.02888E+01 1.42627E+00 1.39739E-04-9.93596E-01-4.05336E-13-4.70977E-13
 -1       718 2.34013E+01-5.43533E+00 4.76556E-02 5.91288E+00 1.81716E-13 3.58354E-14
 -1       719 2.77881E+01 4.23031E+00-1.48756E-01-1.29826E+00 3.94372E-13-2.58049E-13
 -1       720 1.16316E+01-2.63714E+00 1.53660E-01-5.13795E+00-1.59591E-13-4.89789E-13
 -1       721 1.99409E+01 2.44285E-02 6.17309E-07-1.68783E-01 1.18556E-13-2.02163E-13
 -1       722 2.02755E+01 9.90945E-01 3.85077E-04-6.58191E-01-3.28564E-13-4.45010E-13
 -1       723 2.00237E+01 2.29468E+00-1.65481E-03 6.37847E-01 3.15843E-13-5.77294E-13
 -1       724 1.73228E+01-3.47074E+00 1.14767E-01-7.12051E+00-2.69611E-14 1.71994E-13
 -1       725 2.02059E+01 6.13686E-01 9.75530E-04 4.20339E-01 3.81339E-13-2.17933E-13
 -1       726 2.00192E+01 2.30425E+00-1.61482E-03-6.29498E-01-1.78802E-13-6.71262E-13
 -1       727 2.84288E+01-3.79181E+00-5.77577E-02 7.32954E-01-1.15958E-14-6.35120E-13
 -1       728 2.95453E+01 3.36631E-01-1.11863E-01 3.18810E+00 2.35749E-13-3.47659E-13
 -1       729 8.33835E+00-5.37704E-01 1.68325E-01 1.72510E+00 6.14118E-14-5.35919E-13
 -1       730 1.62007E+01-4.53903E+00 9.88571E-02-5.89887E+00-1.74978E-13-9.47055E-14
 -1       731 1.23478E+01-2.52566E+00 1.23271E-01 5.31913E+00 3.85584E-13-2.28755E-13
 -1       732 7.85565E+00-9.24986E-01 1.40716E-01-2.13781E+00-1.08410E-13-6.92203E-13
 -1       733 2.96386E+01-1.76949E+00-8.23094E-02 4.21186E-01-1.08549E-13 5.52447E-13
 -1       734 1.66005E+01-3.48278E+00 1.18709E-01 7.15117E+00-1.72109E-13 8.06022E-14
 -1       735 2.86752E+01 2.32115E+00-1.43702E-01 1.78477E+00-2.88675E-13 1.37772E-13
 -1       736 2.83466E+01 1.52739E+00-1.24777E-01-3.28536E+00-2.12025E-13-4.20337E-13
 -1       737 2.77667E+01-4.98533E+00-2.05826E-02 2.51257E+00 9.17721E-14 6.82298E-13
 -1       738 2.74783E+01-5.21036E+00-1.76050E-02-3.17409E+00-3.21685E-13 2.41984E-13
 -1       739 2.73933E+01 5.72117E+00-1.47518E-01 4.95244E-01-2.92134E-13-3.76064E-13
 -1       740 2.01158E+01 2.06012E+00-1.08996E-03-8.43366E-01-2.77425E-13-6.38260E-13
 -1       741 1.99269E+01 2.52576E+00-1.51515E-03-1.26592E-01 1.77165E-14-6.88371E-13
 -1       742 2.81186E+01-2.92294E+00-4.87695E-02-1.20551E-01 4.56222E-13 9.57776E-14
 -1       743 2.17607E+01-1.96164E+00 2.85834E-02 4.62649E+00 1.66386E-14 4.62221E-13
 -1       744 2.54971E+01 3.47925E+00-8.78137E-02 2.64317E+00 5.87030E-15-4.52744E-13
 -1       745 2.27537E+01-1.91590E+00-5.61643E-03 3.20725E+00 4.58539E-14 2.48703E-14
 -1       746 1.81521E+01-3.93789E-01 3.04500E-02-5.24912E+00-2.18999E-13-7.22495E-14
 -1       747 2.35309E+01-2.11112E+00 4.33546E-03-1.91779E+00 1.29345E-13-4.52151E-13
 -1       748 2.18066E+01-5.42490E+00 5.97308E-02 4.45541E+00 2.37928E-13-5.09397E-14
 -1       749 2.72574E+01-4.42225E+00-2.17681E-02 1.71215E-01-3.44823E-13 3.42431E-13
 -1       750 1.99567E+01 2.45495E+00-1.55511E-03-3.84231E-01-7.81173E-14-6.71126E-13
 -1       751 2.69045E+01 5.32419E+00-1.33978E-01 1.54822E+00 2.30274E-13-6.07666E-13
 -1       752 2.65473E+01-5.19641E+00 4.09911E-03-9.42032E-01-3.27167E-13-3.30772E-13
 -1       753 2.07627E+01-5.26130E+00 4.34567E-02-4.60372E+00-1.79721E-13-1.76249E-13
 -1       754 2.71087E+01 5.50439E+00-1.81374E-01 2.81901E-01 2.05967E-13-4.09396E-13
 -1       755 2.02715E+01 1.30106E+00 8.41563E-04 6.30754E-01 3.54227E-13-3.88134E-13
 -1       756 1.06856E+01 4.45112E-01 1.40710E-01 2.08644E+00-2.21679E-13 2.75516E-13
 -1       757 2.75529E+01 1.96507E+00-1.02450E-01-1.82811E+00 6.44755E-13-3.01321E-14
 -1       758 2.20571E+01-4.81309E+00 8.38010E-02-6.38451E+00-1.23554E-13 1.50416E-13
 -1       759 2.55507E+01-4.48785E+00 1.05637E-02-3.39589E+00-1.02283E-13 6.18897E-14
 -1       760 2.02610E+01 4.32812E-01-6.02813E-06-9.46184E-02-1.64644E-13-4.27542E-13
 -1       761 2.02216E+01 2.33661E-01-4.08417E-06 3.52997E-02-1.78571E-13-4.15270E-13
 -1       762 2.01803E+01 1.03136E-01-8.56422E-06 1.12248E-01-1.72761E-13-3.62675E-13
 -1       763 2.01427E+01 2.01846E-02-8.82850E-06 1.51658E-01-1.09523E-13-3.39411E-13
 -1       764 2.01109E+01-2.97545E-02-8.79068E-06 1.65632E-01-2.57660E-14-3.03024E-13
 -1       765 2.00851E+01-5.68291E-02-8.65874E-06 1.63488E-01-4.57312E-14-1.97695E-13
 -1       766 2.00646E+01-6.81687E-02-8.19768E-06 1.52122E-01-4.18226E-14-1.18400E-13
 -1       767 2.00489E+01-6.87452E-02-7.37872E-06 1.36510E-01-5.54296E-14-5.72096E-14
 -1       768 2.00371E+01-6.19454E-02-6.25594E-06 1.20191E-01-9.15229E-14-1.77545E-13
 -1       769 2.00285E+01-4.99603E-02-4.97039E-06 1.05691E-01-1.29846E-13-2.58543E-13
 -1       770 2.00224E+01-3.40715E-02-3.63542E-06 9.48659E-02-1.32429E-13-2.39765E-13
 -1       771 2.00180E+01-1.48710E-02-2.20099E-06 8.91739E-02-1.03397E-13-1.91257E-13
 -1       772 2.00149E+01 7.57222E-03-5.60152E-07 8.98809E-02-6.79901E-14-7.47925E-14
 -1       773 2.00124E+01 3.35677E-02 1.35113E-06 9.82214E-02-9.91557E-14-8.84468E-14
 -1       774 2.00097E+01 6.36654E-02 3.55272E-06 1.15506E-01-5.87178E-14-1.36762E-13
 -1       775 2.00063E+01 9.85112E-02 6.12240E-06 1.43183E-01-5.83347E-14-1.04589E-13
 -1       776 2.00013E+01 1.38673E-01 9.17913E-06 1.82856E-01-7.46393E-14-9.61192E-14
 -1       777 1.99938E+01 1.84409E-01 1.28510E-05 2.36250E-01 1.14088E-13-1.24474E-13
 -1       778 1.99831E+01 2.35347E-01 1.72694E-05 3.05124E-01 1.63990E-14-1.98635E-13
 -1       779 1.99684E+01 2.90022E-01 2.25654E-05 3.91112E-01-8.74260E-14-1.29703E-13
 -1       780 1.99494E+01 3.45232E-01 2.88679E-05 4.95506E-01-2.62046E-14-1.36642E-13
 -1       781 1.99267E+01 3.95138E-01 3.63161E-05 6.18962E-01-6.31396E-14-1.48529E-13
 -1       782 1.99029E+01 4.30041E-01 4.51091E-05 7.61155E-01 1.41031E-14 4.02535E-14
 -1       783 1.98841E+01 4.34819E-01 5.56533E-05 9.20347E-01-1.75074E-14 1.70004E-13
 -1       784 1.98825E+01 3.87105E-01 6.92584E-05 1.09281E+00 4.99321E-15 2.15426E-13
 -1       785 1.99205E+01 2.55576E-01 9.62056E-05 1.27177E+00-6.29216E-14 8.72415E-14
 -1       786 2.00360E+01-6.67226E-04 1.57856E-04 1.44518E+00 1.39482E-13-3.12852E-14
 -1       787 2.02898E+01-4.29383E-01 3.28360E-04 1.59016E+00 1.56380E-13-3.00364E-13
 -1       788 2.07715E+01-1.07292E+00-2.77243E-05 1.65696E+00 1.77085E-13-1.23217E-14
 -1       789 2.15928E+01-1.92970E+00 8.81584E-04 1.56606E+00 1.20614E-13-1.26261E-14
 -1       790 2.28427E+01-2.86418E+00 2.18925E-04 1.11528E+00 1.36806E-13 2.08380E-14
 -1       791 2.45149E+01-3.47550E+00-2.95665E-03 1.09630E-01-2.47474E-13-5.88130E-14
 -1       792 2.61992E+01-3.01687E+00-1.53442E-02-1.50751E+00-4.51560E-13-1.72994E-13
 -1       793 2.70346E+01 1.91166E-01-6.82604E-02 1.62459E+00-1.06928E-14-4.20289E-14
 -1       794 2.62328E+01-2.22082E+00-1.37128E-02 2.84295E-01 1.09543E-13-2.16827E-14
 -1       795 2.49228E+01-2.74685E+00-1.46410E-02-1.05644E+00 1.49616E-13-1.24937E-13
 -1       796 2.01703E+01 2.23485E-01 5.75582E-06-3.17944E-02 2.26015E-13-2.43884E-13
 -1       797 2.00411E+01-4.99254E-02-1.36900E-05-1.73054E-01 3.99485E-14-1.88996E-13
 -1       798 2.00615E+01-2.41985E-02-1.28067E-05-1.75051E-01 8.37851E-14-2.04474E-13
 -1       799 2.00171E+01-6.25380E-02-1.29088E-05-1.44227E-01 1.01776E-13-1.15210E-13
 -1       800 2.00110E+01-5.72059E-02-1.17363E-05-1.26449E-01 5.44496E-14-1.48531E-13
 -1       801 2.00078E+01-4.72049E-02-9.66038E-06-1.10338E-01 7.05212E-14-1.21167E-13
 -1       802 2.00067E+01-3.37493E-02-7.07383E-06-9.78163E-02 6.34474E-15-1.62307E-13
 -1       803 2.00072E+01-1.74008E-02-4.36658E-06-9.03782E-02-6.91322E-14-9.74152E-14
 -1       804 2.00090E+01 1.76944E-03-1.04495E-06-8.93140E-02 6.60913E-15-1.14026E-13
 -1       805 2.00117E+01 2.40694E-02 2.82912E-06-9.58762E-02-8.50139E-15-2.92031E-14
 -1       806 2.00151E+01 5.00915E-02 7.29423E-06-1.11410E-01-5.58418E-14 1.54144E-15
 -1       807 2.00188E+01 8.06128E-02 1.25987E-05-1.37437E-01-5.71747E-14 3.48570E-14
 -1       808 2.00224E+01 1.16487E-01 1.89491E-05-1.75693E-01-6.75929E-14 2.02145E-14
 -1       809 2.00253E+01 1.58502E-01 2.65893E-05-2.28127E-01 1.24422E-14 7.06912E-14
 -1       810 2.00267E+01 2.07171E-01 3.57744E-05-2.96836E-01 1.94900E-14 5.82374E-14
 -1       811 2.00258E+01 2.62413E-01 4.67443E-05-3.83942E-01 7.17029E-14 1.21394E-13
 -1       812 2.00212E+01 3.23056E-01 5.96872E-05-4.91390E-01 9.01220E-14 1.51837E-13
 -1       813 2.00120E+01 3.86060E-01 7.46894E-05-6.20661E-01 9.81505E-15-1.14616E-13
 -1       814 1.99975E+01 4.45321E-01 9.16761E-05-7.72410E-01 4.26577E-14-9.43343E-14
 -1       815 1.99791E+01 4.89896E-01 1.10245E-04-9.46035E-01 2.30856E-14-9.06020E-14
 -1       816 1.99619E+01 5.01460E-01 1.28495E-04-1.13918E+00-1.50305E-14-2.22843E-13
 -1       817 1.99591E+01 4.50997E-01 1.36581E-04-1.34709E+00-2.08372E-14-4.17614E-13
 -1       818 1.99986E+01 2.95197E-01 9.51537E-05-1.56132E+00-1.59476E-13-3.23380E-13
 -1       819 2.01326E+01-2.57707E-02-1.52770E-04-1.76647E+00-1.00719E-13-2.92348E-14
 -1       820 2.04510E+01-5.84174E-01-3.05057E-04-1.93194E+00-3.76295E-14-2.97497E-14
 -1       821 2.10946E+01-1.44233E+00 5.41811E-04-1.98631E+00 2.50000E-15-2.06654E-14
 -1       822 2.22278E+01-2.57062E+00 1.25906E-03-1.77676E+00-1.65315E-14 3.68659E-14
 -1       823 2.39821E+01-3.76308E+00 2.97369E-03-1.09517E+00-1.82599E-13-8.25260E-14
 -1       824 2.53517E+01-3.57207E+00-6.45512E-03 1.83212E+00 1.49271E-13 2.23084E-13
 -1       825 2.40595E+01-2.98476E+00 6.13280E-03 2.70743E+00 1.19947E-14 1.14003E-13
 -1       826 2.74363E+01-3.43450E+00-3.05050E-02-7.06244E-01 3.19629E-14 1.25932E-13
 -1       827 2.01385E+01 1.88846E+00-3.26979E-04 1.99206E-01 1.62139E-13-6.08349E-13
 -1       828 2.02201E+01 4.13151E-01-1.53273E-04 1.11515E-01 2.37505E-13-2.38032E-13
 -1       829 1.58542E+01-2.70418E+00 7.78020E-02-4.79872E+00-9.43655E-14 2.05322E-14
 -1       830 2.02043E+01 1.78059E+00 2.29575E-05-9.53478E-01-3.60027E-13-5.67174E-13
 -1       831 2.00267E+01-6.11547E-02-1.35193E-05-1.61011E-01 1.00069E-13-9.56427E-14
 -1       832 2.78474E+01-1.92745E+00-3.55121E-02 2.55161E+00-8.79088E-14 1.36571E-13
 -1       833 2.02972E+01 7.22788E-01 4.42553E-04-2.94525E-01-2.37095E-13-4.61868E-13
 -1       834 1.67764E+01-2.96873E+00 5.66625E-02 4.90106E+00 8.08034E-15-1.39128E-13
 -1       835 1.19382E+01-6.78421E-01 7.09505E-02 3.27271E+00 1.42670E-13-2.09197E-13
 -1       836 2.52398E+01-4.44219E+00 2.51965E-02 3.53023E+00 1.37025E-13 4.32393E-13
 -1       837 2.06502E+01-3.17774E+00 4.58312E-02 5.94575E+00-3.27793E-14 2.55422E-13
 -1       838 1.61795E+01-1.57931E+00 7.58363E-02 5.97669E+00-3.16995E-13 3.76942E-13
 -1       839 2.02762E+01 9.43429E-01 1.28205E-05 5.52922E-01 3.74677E-13-2.98060E-13
 -1       840 2.01269E+01 1.92668E+00-2.98421E-04 3.26165E-03 7.40373E-14-5.71877E-13
 -1       841 1.10718E+01 3.36725E-01 7.61913E-02 8.39608E-01 1.25609E-13-2.44863E-13
 -1       842 2.02722E+01 1.28048E+00 2.55044E-04-6.70845E-01-2.96638E-13-5.09870E-13
 -1       843 2.02205E+01 1.58984E+00 2.39714E-05-5.34943E-01-1.92623E-13-5.60197E-13
 -1       844 2.02187E+01 1.58203E+00-2.76008E-04 5.34217E-01 2.85633E-13-4.75114E-13
 -1       845 2.00892E+01 2.27330E-02-1.04661E-05-1.59540E-01 1.11826E-13-2.46985E-13
 -1       846 2.01708E+01 1.77510E+00-3.55575E-04 3.81712E-01 2.36384E-13-5.56796E-13
 -1       847 1.22990E+01-8.96549E-01 7.90868E-02-3.50682E+00-2.31713E-13-4.73784E-13
 -1       848 2.01255E+01 1.00545E-01-6.43233E-06-1.16315E-01 1.55879E-13-2.12286E-13
 -1       849 2.45955E+01-5.23603E+00 9.24828E-03 2.41439E+00-4.44055E-14-6.71110E-14
 -1       850 1.95167E+01-3.83308E+00-4.06089E-04 4.31743E+00-7.35176E-15 1.16062E-13
 -1       851 2.02539E+01 6.30389E-01-4.10243E-04 2.97519E-01 2.90184E-13-2.67194E-13
 -1       852 2.01681E+01 1.78234E+00-2.74941E-04-3.76603E-01-8.92797E-14-6.14997E-13
 -1       853 2.73921E+01 3.36012E+00-1.36194E-01 3.13689E+00 1.96169E-13-3.66554E-13
 -1       854 2.03044E+01 2.26606E-01-2.20317E-05 4.68904E-02-1.20319E-13-3.54108E-13
 -1       855 2.02683E+01 9.13955E-02-5.38297E-06 1.02420E-01-1.24170E-13-2.95469E-13
 -1       856 2.02292E+01 5.25829E-03-3.79739E-06 1.30083E-01-4.64018E-14-2.77137E-13
 -1       857 2.01912E+01-4.58493E-02-2.92637E-06 1.38725E-01 3.96294E-14-2.68035E-13
 -1       858 2.01567E+01-7.22836E-02-2.33387E-06 1.35401E-01-6.90490E-15-2.67770E-13
 -1       859 2.01265E+01-8.15352E-02-1.96072E-06 1.25439E-01-6.66662E-14-1.92063E-13
 -1       860 2.01008E+01-7.88969E-02-1.42631E-06 1.12756E-01-9.62943E-14-2.53128E-13
 -1       861 2.00792E+01-6.79633E-02-8.63581E-07 1.00175E-01-1.55920E-13-2.31598E-13
 -1       862 2.00611E+01-5.09981E-02-7.45783E-07 8.97596E-02-1.17941E-13-2.32199E-13
 -1       863 2.00457E+01-2.92569E-02-9.44075E-07 8.30798E-02-1.10072E-13-2.43239E-13
 -1       864 2.00319E+01-3.22037E-03-1.05323E-06 8.14149E-02 1.08115E-14-2.13645E-13
 -1       865 2.00185E+01 2.72176E-02-9.36825E-07 8.59322E-02-5.30506E-14-1.83104E-13
 -1       866 2.00041E+01 6.25613E-02-8.42903E-07 9.78101E-02-2.36927E-14-1.20201E-13
 -1       867 1.99873E+01 1.03540E-01-8.57196E-07 1.18317E-01-3.47729E-14-7.69187E-14
 -1       868 1.99663E+01 1.50918E-01-9.27486E-07 1.48858E-01 8.02852E-15-2.44327E-14
 -1       869 1.99393E+01 2.05260E-01-9.98256E-07 1.90991E-01 1.60175E-14 1.06346E-14
 -1       870 1.99040E+01 2.66620E-01-1.00379E-06 2.46407E-01 5.11380E-14-7.49860E-15
 -1       871 1.98583E+01 3.34120E-01-8.42293E-07 3.16882E-01-6.06595E-14-1.79753E-13
 -1       872 1.98001E+01 4.05376E-01-3.36320E-07 4.04221E-01-1.64258E-14-1.36070E-13
 -1       873 1.97280E+01 4.75722E-01 8.53177E-07 5.10218E-01 1.04835E-14-1.21260E-13
 -1       874 1.96414E+01 5.37174E-01 3.43079E-06 6.36687E-01 1.43299E-14-9.14216E-14
 -1       875 1.95426E+01 5.77089E-01 8.89867E-06 7.85631E-01 7.67982E-15-1.60452E-13
 -1       876 1.94377E+01 5.76459E-01 2.03046E-05 9.59615E-01 9.54304E-14-6.48447E-14
 -1       877 1.93403E+01 5.07863E-01 4.44034E-05 1.16227E+00-1.01211E-13-3.61874E-14
 -1       878 1.92766E+01 3.33288E-01 1.22468E-04 1.39852E+00 2.58154E-14-6.15168E-14
 -1       879 1.92927E+01 2.33674E-03 3.69617E-04 1.67348E+00-1.50445E-13-2.14024E-13
 -1       880 1.94650E+01-5.47850E-01 6.13870E-04 1.98981E+00 3.38842E-13-3.37470E-13
 -1       881 1.99680E+01-1.38846E+00-1.24887E-03 2.28629E+00 1.62557E-13-1.43727E-13
 -1       882 2.08509E+01-2.57659E+00-1.36579E-02 2.54831E+00 6.33434E-14-2.61634E-13
 -1       883 2.27040E+01-3.94078E+00 2.69161E-02 2.44847E+00-3.88851E-14-5.03332E-13
 -1       884 2.00621E+01-6.56532E-02-4.56881E-07-1.09796E-01 5.54133E-14-9.11945E-14
 -1       885 2.00794E+01-7.47216E-02-3.01645E-07-1.24121E-01 8.18144E-14-6.18596E-14
 -1       886 2.00369E+01-3.18178E-02-6.62341E-07-8.91085E-02-8.42486E-14-7.89273E-14
 -1       887 2.00274E+01-8.76219E-03-3.54783E-07-8.58353E-02-7.04620E-14 3.36682E-15
 -1       888 2.00188E+01 1.83000E-02 2.55657E-07-8.89737E-02-3.73223E-14-8.50327E-15
 -1       889 2.00098E+01 4.98988E-02 7.09427E-07-9.97541E-02-6.26559E-14-1.22777E-13
 -1       890 1.99994E+01 8.68640E-02 1.36846E-06-1.19505E-01-7.43723E-14-5.91126E-14
 -1       891 1.99860E+01 1.30191E-01 2.24642E-06-1.49700E-01-3.56158E-14-1.04021E-13
 -1       892 1.99679E+01 1.80882E-01 3.42075E-06-1.91979E-01 6.98770E-14-2.53502E-13
 -1       893 1.99430E+01 2.39735E-01 5.01492E-06-2.48117E-01 2.09525E-14-2.53179E-13
 -1       894 1.99086E+01 3.07038E-01 7.21203E-06-3.19961E-01-3.10893E-14-2.01319E-13
 -1       895 1.98620E+01 3.82134E-01 1.02943E-05-4.09334E-01-2.38115E-14-1.48787E-13
 -1       896 1.97999E+01 4.62766E-01 1.47194E-05-5.17930E-01 9.49876E-14-2.05249E-14
 -1       897 1.97189E+01 5.44122E-01 2.12907E-05-6.47265E-01 2.93339E-14 5.07646E-15
 -1       898 1.96166E+01 6.17446E-01 3.15564E-05-7.98781E-01 5.21157E-14 1.06557E-13
 -1       899 1.94925E+01 6.68055E-01 4.85300E-05-9.74272E-01 1.24073E-13-2.65244E-14
 -1       900 1.93510E+01 6.72579E-01 7.61253E-05-1.17682E+00 1.12705E-13-1.60267E-13
 -1       901 1.92056E+01 5.95267E-01 1.06415E-04-1.41228E+00-2.62631E-13-2.31696E-13
 -1       902 1.90873E+01 3.83499E-01 7.56463E-05-1.69068E+00-2.41451E-13-2.78831E-13
 -1       903 1.90584E+01-3.67702E-02-4.25480E-04-2.02457E+00-1.20313E-13-2.14254E-13
 -1       904 1.92293E+01-7.61702E-01 3.61661E-04-2.42597E+00-1.45702E-13-1.07167E-13
 -1       905 1.97985E+01-1.90520E+00 1.65150E-03-2.87112E+00 3.61005E-14-9.82153E-14
 -1       906 2.11496E+01-3.52117E+00 2.68542E-02-3.20627E+00-2.92938E-14-9.10452E-14
 -1       907 2.03004E+01 4.29113E-01-2.12517E-05 6.42521E-02 2.14043E-13-3.09962E-13
 -1       908 1.55689E+01-1.06843E+00 1.89129E-02 3.52291E+00-2.13252E-14-3.57727E-13
 -1       909 1.56187E+01-1.11754E+00 3.29828E-02-3.55189E+00-2.20782E-13-3.51339E-13
 -1       910 2.37496E+01-4.19548E+00-2.73513E-02-4.63793E+00 1.20572E-13 4.02291E-13
 -1       911 2.00482E+01-5.09424E-02 2.07753E-07-9.75592E-02 1.60246E-14-1.13698E-13
 -1       912 2.01576E+01-3.89710E-02-2.81116E-06-1.52152E-01 5.10741E-14-2.13549E-13
 -1       913 1.26806E+01 5.20935E-01 2.82048E-02-9.84881E-01 8.50904E-14-3.62809E-13
 -1       914 2.01378E+01 1.89137E+00-2.26926E-04-1.93024E-01-1.99279E-14-5.93697E-13
 -1       915 2.03366E+01 7.23860E-01 1.61601E-04-1.91636E-01-1.56925E-13-4.44353E-13
 -1       916 2.03308E+01 4.29512E-01-2.12374E-05-4.62270E-02-1.26248E-13-4.02757E-13
 -1       917 1.38775E+01 7.60910E-02 2.92748E-02 2.28013E+00-1.92340E-13-3.97946E-13
 -1       918 2.02989E+01 1.19108E+00-7.53621E-04-3.09714E-01-1.28580E-13-4.91718E-13
 -1       919 2.02689E+01 2.28961E-01-1.03217E-05-4.45641E-02 1.89636E-13-2.77389E-13
 -1       920 2.03017E+01 1.00402E+00-5.27880E-04 3.66469E-01 2.62719E-13-3.56344E-13
 -1       921 2.01927E+01 1.16065E-02-8.31464E-06-1.41493E-01 5.57598E-14-2.40715E-13
 -1       922 2.01008E+01-7.58749E-02 3.64410E-06-1.38265E-01 1.15818E-13-1.37391E-13
 -1       923 1.75601E+01-1.93753E+00 2.72088E-02 3.77772E+00-5.44371E-14-1.87929E-13
 -1       924 1.80423E+01-1.68529E+00 1.38956E-02-3.38800E+00 1.44573E-14-3.77947E-13
 -1       925 2.03132E+01 7.27830E-01 4.03309E-04 2.30898E-01 2.26549E-13-3.42053E-13
 -1       926 1.39897E+01 7.17729E-01 1.03925E-02 7.33827E-01-7.46842E-14-5.39043E-13
 -1       927 2.01268E+01-6.56571E-02 4.55633E-06-1.49055E-01 1.12543E-14-2.02668E-13
 -1       928 2.02839E+01 1.33773E+00-2.30507E-04 1.96618E-01 1.74745E-13-5.19783E-13
 -1       929 2.02750E+01 1.40557E+00-2.05314E-05 6.92797E-02 9.02861E-14-5.31747E-13
 -1       930 2.02973E+01 1.20426E+00-1.78471E-04 3.01413E-01 2.22438E-13-4.78288E-13
 -1       931 2.03596E+01 1.96256E-01-8.67539E-06 5.00357E-02-8.59083E-14-3.02714E-13
 -1       932 2.03245E+01 6.59107E-02-1.37822E-06 8.48806E-02-3.36190E-14-2.63140E-13
 -1       933 2.02831E+01-1.61930E-02-3.33067E-06 1.01120E-01-2.09042E-14-2.48259E-13
 -1       934 2.02406E+01-6.34018E-02-2.83909E-06 1.04847E-01 1.96109E-14-3.09045E-13
 -1       935 2.02002E+01-8.58413E-02-1.85849E-06 1.00875E-01-9.64473E-15-2.84274E-13
 -1       936 2.01635E+01-9.08744E-02 8.02207E-08 9.28916E-02-5.26507E-14-2.91701E-13
 -1       937 2.01310E+01-8.37728E-02 9.14472E-07 8.36319E-02-1.18778E-13-1.87679E-13
 -1       938 2.01026E+01-6.80081E-02 9.54686E-07 7.50824E-02-1.22879E-13-1.18176E-13
 -1       939 2.00775E+01-4.56838E-02 1.12743E-07 6.87445E-02-9.84707E-14-1.04460E-13
 -1       940 2.00546E+01-1.78973E-02-1.28983E-06 6.57847E-02-1.02078E-14-4.22339E-14
 -1       941 2.00324E+01 1.51099E-02-2.01669E-06 6.72037E-02-4.76312E-14-1.09828E-13
 -1       942 2.00092E+01 5.36723E-02-3.08949E-06 7.39727E-02 9.52905E-14-9.25088E-14
 -1       943 1.99829E+01 9.84964E-02-4.80691E-06 8.70979E-02 9.54766E-14-5.59426E-15
 -1       944 1.99512E+01 1.50470E-01-7.12953E-06 1.07684E-01 3.33301E-14 7.32728E-14
 -1       945 1.99114E+01 2.10425E-01-1.00928E-05 1.36980E-01-4.22979E-15 1.23590E-13
 -1       946 1.98604E+01 2.78850E-01-1.38077E-05 1.76399E-01-5.86967E-14-1.25591E-13
 -1       947 1.97950E+01 3.55517E-01-1.84432E-05 2.27534E-01 3.41109E-14-2.02669E-13
 -1       948 1.97117E+01 4.38998E-01-2.42392E-05 2.92192E-01-8.86111E-14-6.73755E-14
 -1       949 1.96070E+01 5.26041E-01-3.15498E-05 3.72466E-01-9.04170E-15-9.59783E-14
 -1       950 1.94776E+01 6.10773E-01-4.09052E-05 4.70934E-01-2.08802E-14 4.65985E-14
 -1       951 1.93214E+01 6.83707E-01-5.31324E-05 5.91072E-01-6.91387E-14-2.68164E-13
 -1       952 1.91378E+01 7.30528E-01-6.99862E-05 7.38039E-01 4.57172E-14-3.18993E-13
 -1       953 1.89294E+01 7.30550E-01-9.78435E-05 9.20037E-01 2.96586E-14-2.63795E-13
 -1       954 1.87047E+01 6.54622E-01-1.58436E-04 1.15028E+00-9.05796E-14-6.18226E-14
 -1       955 1.84826E+01 4.62498E-01-2.20719E-04 1.44899E+00-9.38716E-14-9.51458E-14
 -1       956 1.82999E+01 9.87435E-02-6.09950E-04 1.84716E+00-7.00650E-14-4.90300E-14
 -1       957 1.82604E+01-5.09078E-01 2.12850E-03 2.39025E+00 3.03363E-13-2.52984E-13
 -1       958 2.01191E+01-8.19973E-02 3.20149E-06-9.72542E-02 3.60735E-14-1.73029E-13
 -1       959 1.52535E+01 2.13924E-01 9.12626E-03-2.11976E+00-5.77127E-14-2.58261E-13
 -1       960 2.00336E+01 6.94558E-03 1.74151E-06-7.47083E-02-5.72545E-14-7.57392E-14
 -1       961 2.00520E+01-2.31666E-02 1.18362E-06-7.43858E-02-7.78952E-14-1.27604E-13
 -1       962 1.99936E+01 8.35982E-02-1.03566E-06-9.38523E-02-3.26146E-14-1.10374E-13
 -1       963 1.99681E+01 1.31929E-01-2.46819E-06-1.14890E-01 3.50640E-14-2.34150E-13
 -1       964 1.99356E+01 1.88411E-01-4.00206E-06-1.45194E-01-5.52241E-16-2.05063E-13
 -1       965 1.98932E+01 2.54071E-01-5.64810E-06-1.86098E-01-7.72261E-15-7.08165E-14
 -1       966 1.98373E+01 3.29545E-01-7.41492E-06-2.38996E-01-9.64834E-14-2.20580E-13
 -1       967 1.97637E+01 4.14702E-01-9.31594E-06-3.05289E-01 1.15161E-14-1.25121E-13
 -1       968 1.96677E+01 5.08124E-01-1.13983E-05-3.86356E-01-2.85284E-14-2.15108E-13
 -1       969 1.95440E+01 6.06402E-01-1.38014E-05-4.83602E-01 4.00663E-14-2.20880E-13
 -1       970 1.93869E+01 7.03183E-01-1.67711E-05-5.98712E-01 7.06268E-14-3.10183E-13
 -1       971 1.91908E+01 7.87899E-01-2.01897E-05-7.34322E-01 5.42832E-14-2.62926E-13
 -1       972 1.89509E+01 8.44077E-01-2.11764E-05-8.95443E-01 5.89133E-14-8.89619E-14
 -1       973 1.86646E+01 8.46997E-01-4.80633E-06-1.09207E+00-2.80221E-14-1.24037E-15
 -1       974 1.83348E+01 7.60294E-01 6.54952E-05-1.34331E+00-9.93086E-14-9.57963E-14
 -1       975 1.79746E+01 5.30882E-01 1.20949E-04-1.68370E+00-1.58381E-13-2.85375E-13
 -1       976 1.76307E+01 7.75787E-02-1.04164E-03-2.16568E+00-1.83208E-13-3.06699E-13
 -1       977 1.76505E+01-6.27371E-01 3.18481E-05-2.72755E+00-1.04263E-13-4.51293E-13
 -1       978 2.03562E+01 6.93507E-01-1.78843E-04 1.35876E-01 1.89867E-13-3.93733E-13
 -1       979 2.02876E+01 1.32909E+00 3.07112E-05-2.08251E-01-2.31364E-14-5.29467E-13
 -1       980 2.02309E+01 9.62013E-02-1.10434E-05-1.09038E-01 1.34071E-13-2.89088E-13
 -1       981 2.03786E+01 6.68853E-01 1.18037E-04-1.02664E-01-9.17415E-14-3.74762E-13
 -1       982 2.02751E+01 1.40631E+00-1.21583E-05-6.69448E-02 4.20972E-14-5.05692E-13
 -1       983 2.03801E+01 3.92553E-01 1.20092E-05-1.02204E-02-8.18547E-14-3.29981E-13
 -1       984 1.60902E+01-1.00592E-01 1.49505E-02 2.43755E+00 1.07238E-13 1.95239E-14
 -1       985 2.00147E+01 4.22815E-02 3.31480E-07-8.08385E-02-1.94992E-14-9.58205E-14
 -1       986 2.03378E+01 9.31184E-01 8.81517E-04 2.16957E-01 2.12446E-13-4.34693E-13
 -1       987 2.01487E+01-8.72343E-02 3.63054E-06-1.08156E-01 5.15371E-14-2.40880E-13
 -1       988 2.00936E+01-6.83532E-02 4.85892E-06-8.69185E-02 4.54188E-14-6.60298E-14
 -1       989 2.03583E+01 4.07166E-01 3.25753E-05 2.22326E-02 1.31577E-13-3.47699E-13
 -1       990 1.50710E+01 8.60225E-01 9.29286E-03-7.43865E-01-3.38867E-14-1.88556E-13
 -1       991 1.56063E+01 6.05603E-01 2.06251E-03 1.41870E+00 9.13743E-14-2.94195E-13
 -1       992 2.00716E+01-4.84029E-02 6.80053E-07-7.88400E-02-4.23746E-14-3.33185E-14
 -1       993 2.03672E+01 9.68738E-01 9.10663E-05 7.91293E-02 1.03973E-13-4.85159E-13
 -1       994 2.02608E+01-7.28573E-03-1.48774E-05-1.15732E-01 5.51300E-14-2.74977E-13
 -1       995 2.02205E+01-5.62593E-02-3.26784E-06-1.21156E-01 6.85460E-14-2.96993E-13
 -1       996 2.03546E+01 9.65523E-01 1.86528E-04 1.48432E-01 1.37739E-13-4.73610E-13
 -1       997 2.00798E+01-3.96224E-02-5.51045E-07-5.58780E-02-1.73587E-14-8.57250E-14
 -1       998 2.04132E+01 3.28494E-01-3.99517E-05 9.44528E-03-5.34873E-14-3.26432E-13
 -1       999 2.03534E+01 3.18952E-02-6.61938E-06 5.86031E-02-2.78980E-14-2.95293E-13
 -1      1000 2.03090E+01-4.03644E-02-5.53930E-06 6.57590E-02-2.39873E-15-2.30572E-13
 -1      1001 2.02631E+01-7.97345E-02-4.24520E-06 6.62154E-02-2.38000E-14-2.38253E-13
 -1      1002 2.02192E+01-9.57367E-02 6.19691E-09 6.26820E-02-1.54853E-14-2.34713E-13
 -1      1003 2.01787E+01-9.50994E-02-7.20001E-07 5.73853E-02-2.21029E-14-1.76987E-13
 -1      1004 2.01423E+01-8.28675E-02 3.26501E-06 5.17691E-02-1.23659E-13-2.62182E-13
 -1      1005 2.01096E+01-6.20637E-02 5.30523E-07 4.70716E-02-6.62272E-14-1.95879E-13
 -1      1006 2.00798E+01-3.45117E-02-3.89166E-06 4.41944E-02-5.50934E-14-1.78249E-13
 -1      1007 2.00513E+01-9.88319E-04-5.25099E-06 4.37949E-02 5.99305E-15-1.39935E-13
 -1      1008 2.00222E+01 3.86070E-02-1.00078E-05 4.65997E-02 6.03342E-14 1.76493E-14
 -1      1009 1.99902E+01 8.48103E-02-1.57969E-05 5.32818E-02 7.85489E-14 3.49415E-14
 -1      1010 1.99527E+01 1.38533E-01-2.31337E-05 6.45679E-02 3.61254E-14-1.22928E-13
 -1      1011 1.99066E+01 2.00787E-01-3.19547E-05 8.13009E-02 6.66323E-15-6.41612E-14
 -1      1012 1.98483E+01 2.72420E-01-4.23634E-05 1.04470E-01-1.56461E-13-1.66995E-13
 -1      1013 1.97737E+01 3.53790E-01-5.45733E-05 1.35249E-01-2.57408E-14-1.39465E-13
 -1      1014 1.96786E+01 4.44359E-01-6.89426E-05 1.75062E-01 2.41347E-14-3.44364E-13
 -1      1015 1.95579E+01 5.42199E-01-8.61387E-05 2.25680E-01-4.37739E-14-2.15452E-13
 -1      1016 1.94065E+01 6.43388E-01-1.07504E-04 2.89425E-01-1.16090E-15-2.66611E-13
 -1      1017 1.92190E+01 7.41326E-01-1.35850E-04 3.69544E-01-9.75086E-14-1.94783E-13
 -1      1018 1.89896E+01 8.25983E-01-1.77358E-04 4.70894E-01-1.14701E-13-1.13837E-13
 -1      1019 1.87125E+01 8.83118E-01-2.46798E-04 6.01166E-01 7.26592E-14-3.14376E-13
 -1      1020 1.83812E+01 8.93382E-01-3.92456E-04 7.73097E-01-2.08153E-15-3.84238E-13
 -1      1021 1.79888E+01 8.30268E-01-7.24573E-04 1.00821E+00-2.47215E-14-2.22974E-13
 -1      1022 1.75305E+01 6.57603E-01-9.60790E-04 1.33819E+00 4.08332E-15-2.16303E-13
 -1      1023 2.03010E+01 7.64645E-02-1.67291E-05-9.48952E-02 9.62913E-14-2.63946E-13
 -1      1024 2.03679E+01 9.96934E-01-2.82109E-04 1.32899E-03 7.85587E-14-4.92975E-13
 -1      1025 1.98739E+01 2.50586E-01-2.87560E-05-1.20164E-01-1.67610E-14-3.54171E-13
 -1      1026 1.99256E+01 1.81776E-01-2.10388E-05-9.47755E-02 2.21872E-14-2.27759E-13
 -1      1027 1.99662E+01 1.22618E-01-1.41507E-05-7.63457E-02 5.34319E-14-2.83228E-13
 -1      1028 1.98069E+01 3.29945E-01-3.73955E-05-1.53368E-01 2.74389E-14-3.27828E-13
 -1      1029 1.97199E+01 4.20150E-01-4.71275E-05-1.95214E-01-1.34981E-13-3.48273E-13
 -1      1030 1.96074E+01 5.20470E-01-5.83355E-05-2.46473E-01-1.46864E-14-2.15022E-13
 -1      1031 1.94630E+01 6.28625E-01-7.19387E-05-3.07881E-01-2.26704E-14-1.98490E-13
 -1      1032 1.92793E+01 7.40143E-01-9.00597E-05-3.80298E-01 2.35511E-14-3.08676E-13
 -1      1033 1.90476E+01 8.47620E-01-1.17107E-04-4.65162E-01-1.48854E-14-1.68335E-13
 -1      1034 1.87577E+01 9.39927E-01-1.60212E-04-5.65484E-01-4.65078E-14-1.73643E-13
 -1      1035 1.83967E+01 1.00139E+00-2.23763E-04-6.87845E-01-3.03124E-14-4.39001E-14
 -1      1036 1.79470E+01 1.01067E+00-3.09622E-04-8.46339E-01-6.54944E-14-1.37857E-13
 -1      1037 1.73893E+01 9.37812E-01 3.80998E-04-1.06899E+00-8.03680E-14-1.47548E-13
 -1      1038 1.67012E+01 7.44759E-01 2.37878E-03-1.40395E+00 1.59111E-14-2.24552E-13
 -1      1039 2.03908E+01 1.49585E-01 4.11511E-06 4.12569E-02-5.40518E-14-3.05982E-13
 -1      1040 2.00275E+01 2.85855E-02-2.53794E-06-5.70255E-02 3.97023E-15-2.70504E-13
 -1      1041 2.00537E+01-8.42164E-03 3.34651E-06-5.45687E-02-7.63494E-14-1.76937E-13
 -1      1042 2.03810E+01 8.73909E-01-3.25233E-04-7.66429E-02 1.91164E-14-4.65182E-13
 -1      1043 2.04145E+01 5.63281E-01 2.03949E-04-3.18527E-02-2.66944E-14-3.91550E-13
 -1      1044 1.99992E+01 7.19464E-02-8.02953E-06-6.40310E-02 3.60504E-14-3.04686E-13
 -1      1045 2.03360E+01 2.08988E-01 4.70295E-06-5.16186E-02 1.38631E-13-2.60587E-13
 -1      1046 2.01826E+01-8.03298E-02 1.16940E-05-1.17200E-01 3.14528E-14-2.95337E-13
 -1      1047 2.01733E+01-9.37082E-02 1.40756E-06-7.38279E-02-1.45920E-15-1.45743E-13
 -1      1048 2.03421E+01 4.59531E-02-1.03338E-06-7.21494E-02 5.44032E-14-2.87125E-13
 -1      1049 1.70032E+01 3.32238E-01 4.56422E-04 1.82567E+00 1.13955E-13 1.31026E-13
 -1      1050 2.04178E+01 6.63216E-01 1.95660E-04 1.83248E-02 7.72429E-14-5.03263E-13
 -1      1051 2.01077E+01-6.50831E-02-3.28977E-05-6.03159E-02-3.81041E-14-9.91586E-14
 -1      1052 2.01387E+01-8.36152E-02 2.71126E-05-6.65809E-02-4.81727E-14-1.00846E-13
 -1      1053 1.57215E+01 1.01470E+00-1.06402E-02 1.94740E-01 3.55971E-14-3.59127E-13
 -1      1054 2.04023E+01 6.78990E-01-2.15675E-04 5.13763E-02 9.32542E-14-4.58541E-13
 -1      1055 2.02992E+01-2.97928E-02-7.07081E-05-8.28418E-02 3.74408E-14-2.96351E-13
 -1      1056 2.03930E+01 5.41275E-01 8.11368E-05 4.72103E-02 1.12765E-13-3.53889E-13
 -1      1057 2.04224E+01 6.28969E-01 1.10737E-04-1.10331E-02 4.92874E-14-4.06359E-13
 -1      1058 2.03983E+01 9.48080E-02 1.02508E-05 1.94916E-02-1.65357E-14-3.09509E-13
 -1      1059 2.03100E+01-6.33110E-02-2.47752E-05 2.58486E-02 3.70928E-14-1.98324E-13
 -1      1060 2.02623E+01-9.22821E-02-3.92540E-06 2.52484E-02-2.18533E-14-7.54203E-14
 -1      1061 2.02175E+01-1.00586E-01-2.78513E-05 2.32553E-02-9.34689E-15-1.60925E-13
 -1      1062 2.01761E+01-9.35268E-02-4.38678E-06 2.13593E-02-9.32397E-14-1.93833E-13
 -1      1063 2.01379E+01-7.60309E-02 5.97045E-06 1.95600E-02-7.88635E-14-1.46790E-13
 -1      1064 2.01038E+01-5.09298E-02 2.57109E-06 1.78393E-02-7.46290E-15-1.87846E-13
 -1      1065 2.00716E+01-1.86555E-02 1.12843E-05 1.72964E-02-1.07466E-14-2.79646E-14
 -1      1066 2.00392E+01 1.99940E-02 1.55763E-05 1.79783E-02 7.39401E-14-7.74461E-14
 -1      1067 2.00049E+01 6.53257E-02 1.71086E-05 2.00767E-02 9.41285E-15-2.22570E-13
 -1      1068 1.99657E+01 1.18199E-01 1.98130E-05 2.39502E-02-1.54289E-14-2.94696E-13
 -1      1069 1.99184E+01 1.79691E-01 2.45561E-05 2.99999E-02-1.83413E-14-3.03168E-13
 -1      1070 1.98594E+01 2.50884E-01 3.17460E-05 3.87198E-02-6.96578E-14-4.17398E-13
 -1      1071 1.97843E+01 3.32580E-01 4.19079E-05 5.07444E-02-1.02113E-13-2.72410E-13
 -1      1072 1.96883E+01 4.24960E-01 5.58783E-05 6.69092E-02-1.51456E-13-2.99420E-13
 -1      1073 1.95657E+01 5.27171E-01 7.50335E-05 8.83418E-02-5.06613E-14-3.87075E-13
 -1      1074 1.94104E+01 6.36855E-01 1.01671E-04 1.16604E-01 3.40018E-15-3.52151E-13
 -1      1075 1.92152E+01 7.49634E-01 1.39551E-04 1.53923E-01 3.68997E-14-2.70720E-13
 -1      1076 1.89717E+01 8.58627E-01 1.94101E-04 2.03577E-01-3.98442E-14-2.89865E-13
 -1      1077 1.86695E+01 9.54088E-01 2.69782E-04 2.70514E-01-3.73525E-14-1.28125E-13
 -1      1078 1.82945E+01 1.02327E+00 3.57587E-04 3.62358E-01-1.79812E-14-2.10843E-13
 -1      1079 1.78261E+01 1.05092E+00 4.71974E-04 4.90773E-01-4.95969E-14-2.35610E-13
 -1      1080 1.72304E+01 1.01766E+00 1.00721E-05 6.76777E-01-2.64195E-14-1.35024E-13
 -1      1081 1.97186E+01 4.02278E-01-3.17361E-05-9.08364E-02-7.07977E-14-8.02732E-14
 -1      1082 1.98082E+01 3.11754E-01-1.95036E-05-7.21108E-02 1.70321E-14-1.01260E-13
 -1      1083 1.99324E+01 1.63884E-01-6.61658E-06-4.59379E-02-2.22700E-14-1.25590E-13
 -1      1084 1.96033E+01 5.03807E-01-4.93110E-05-1.13494E-01-1.01895E-13-1.39697E-14
 -1      1085 1.94558E+01 6.14825E-01-7.37327E-05-1.40005E-01-6.83101E-14-3.85487E-14
 -1      1086 1.92682E+01 7.32055E-01-1.07246E-04-1.70121E-01 1.72106E-14-1.27062E-13
 -1      1087 1.90312E+01 8.49982E-01-1.54045E-04-2.03523E-01 4.43154E-14-2.15211E-13
 -1      1088 1.87332E+01 9.60449E-01-2.23512E-04-2.40136E-01 6.32184E-14-2.37420E-13
 -1      1089 1.83583E+01 1.05250E+00-3.36373E-04-2.80750E-01-1.72185E-13-2.16743E-13
 -1      1090 1.78833E+01 1.11268E+00-5.29362E-04-3.28090E-01-2.94665E-14-1.13544E-13
 -1      1091 1.72719E+01 1.12637E+00-1.23985E-03-3.87426E-01 3.20888E-14-2.31079E-13
 -1      1092 1.63319E+01 1.06948E+00-6.05815E-05-5.05091E-01 7.22942E-14-2.73921E-13
 -1      1093 2.02127E+01-9.24887E-02-1.34276E-04-8.09899E-02 8.71793E-15-1.83849E-13
 -1      1094 2.00451E+01 1.11025E-02-1.85941E-06-3.04099E-02-2.01837E-14-2.90419E-13
 -1      1095 2.04267E+01 2.48526E-01-9.33503E-05 9.60685E-03-2.98983E-14-3.61500E-13
 -1      1096 2.00759E+01-2.58157E-02-1.63837E-05-3.00716E-02 8.74550E-15-2.13060E-13
 -1      1097 1.98778E+01 2.32484E-01-1.14501E-05-5.72209E-02 1.99400E-14-1.06554E-13
 -1      1098 1.65588E+01 8.87748E-01 4.27517E-03 9.54089E-01 1.45450E-13-1.38200E-13
 -1      1099 2.03783E+01 1.69489E-01 1.84645E-05-4.78993E-02 1.31762E-13-3.44126E-13
 -1      1100 2.00127E+01 5.43473E-02-3.18118E-06-3.29014E-02-1.94745E-15-2.88398E-13
 -1      1101 2.03569E+01-4.69329E-03-1.10836E-05 2.42357E-02 3.00135E-14-2.55834E-13
 -1      1102 1.99761E+01 1.04906E-01-4.16137E-06-3.79501E-02-6.54989E-15-1.73851E-13
 -1      1103 2.02564E+01-7.35354E-02 1.52507E-05-8.45660E-02 4.20751E-14-2.24648E-13
 -1      1104 2.03578E+01 1.02124E-02 2.08758E-04-4.16326E-02 4.94702E-14-3.22949E-13
 -1      1105 2.01793E+01-9.56959E-02-4.86952E-05-3.81313E-02-4.44447E-14-2.73956E-13
 -1      1106 2.02193E+01-9.87987E-02 1.62678E-04-4.12734E-02-3.29765E-14-3.00817E-13
 -1      1107 2.03964E+01 1.17204E-01-1.37518E-05-3.18064E-02 3.32839E-14-3.41541E-13
 -1      1108 2.01065E+01-5.56418E-02 1.38107E-06-3.14828E-02-2.24626E-14-1.73687E-13
 -1      1109 2.04370E+01 4.04011E-01 2.87749E-04 5.92062E-04 1.08017E-14-4.53775E-13
 -1      1110 2.03941E+01 3.27085E-01 8.42101E-06-1.21013E-02 9.17250E-14-3.52230E-13
 -1      1111 2.04262E+01 4.27983E-01 1.24007E-04 4.84983E-03 5.91933E-14-4.49593E-13
 -1      1112 2.03380E+01-3.84413E-02-4.22453E-05-1.58114E-02 5.12625E-14-2.39974E-13
 -1      1113 2.02410E+01-9.83424E-02 1.81332E-04-1.50274E-02-7.68238E-14-2.36230E-13
 -1      1114 2.01217E+01-6.45687E-02 1.00170E-04-1.15018E-02-5.61626E-14-1.29141E-13
 -1      1115 2.01505E+01-8.35789E-02-7.17616E-05-2.39147E-02-6.51548E-14-2.35853E-13
 -1      1116 2.04306E+01 4.77607E-01-7.56009E-05-7.29156E-03 7.30732E-15-3.54250E-13
 -1      1117 2.04170E+01 1.65376E-01 1.03331E-04-9.25586E-03 1.80086E-14-3.29409E-13
 -1      1118 2.03807E+01 3.97367E-02-4.50373E-05-1.38121E-02 1.23623E-14-2.85175E-13
 -1      1119 2.02894E+01-8.16383E-02-4.95975E-05-1.61400E-02 2.91173E-14-2.63540E-13
 -1      1120 2.04190E+01 2.47525E-01-1.74753E-04-1.72715E-02 7.61749E-14-3.95163E-13
 -1      1121 2.79641E+01 9.08691E+00 2.32539E+00-6.69820E+00-7.37188E-14 2.15425E-12
 -1      1122 2.05482E+01 6.22738E+00 2.09699E-01-3.90372E+00-3.99680E-14 1.75575E-13
 -1      1123 1.94347E+01 5.85298E+00 7.51535E-02-2.88781E+00-2.66592E-14-6.52086E-13
 -1      1124 1.90262E+01 5.72597E+00 6.03569E-02-2.23511E+00-1.73091E-14-1.03261E-12
 -1      1125 1.88400E+01 5.66936E+00 5.78212E-02-1.70124E+00-1.18343E-14-1.20985E-12
 -1      1126 1.87456E+01 5.64035E+00 5.55574E-02-1.23398E+00-6.50695E-15-1.27716E-12
 -1      1127 1.86965E+01 5.62508E+00 5.37626E-02-8.04251E-01-2.82240E-15-1.29802E-12
 -1      1128 1.86724E+01 5.61747E+00 5.25157E-02-3.92807E-01-1.75250E-15-1.27966E-12
 -1      1129 1.86655E+01 5.61529E+00 5.21198E-02 8.47378E-03 1.62544E-15-1.25693E-12
 -1      1130 1.86735E+01 5.61783E+00 5.26325E-02 4.10165E-01 6.02686E-15-1.23717E-12
 -1      1131 1.86987E+01 5.62582E+00 5.40218E-02 8.22966E-01 8.00358E-15-1.19204E-12
 -1      1132 1.87496E+01 5.64174E+00 5.62315E-02 1.25535E+00 1.24926E-14-1.10260E-12
 -1      1133 1.88450E+01 5.67103E+00 5.84466E-02 1.72711E+00 1.69240E-14-9.63747E-13
 -1      1134 1.90317E+01 5.72764E+00 6.04051E-02 2.26816E+00 2.25583E-14-7.12088E-13
 -1      1135 1.94316E+01 5.85027E+00 6.92337E-02 2.92833E+00 2.90046E-14-2.30026E-13
 -1      1136 2.04544E+01 6.18233E+00 1.53321E-01 3.87843E+00 3.51108E-14 7.08669E-13
 -1      1137 2.52184E+01 7.99469E+00 1.43047E+00 5.84641E+00 7.32747E-14 2.65443E-12
 -1      1138 2.88139E+01 3.61635E+00 1.27124E+00-4.21709E+00-2.98456E-13 3.40028E-12
 -1      1139 2.02291E+01-1.77716E-01-6.16298E-01-1.09913E-01-1.00704E-13 2.70942E-12
 -1      1140 1.88351E+01-9.63803E-02-2.36351E-01 6.25341E-02-3.84554E-14 1.74379E-12
 -1      1141 1.85015E+01-4.80617E-02-5.95566E-02 4.05385E-02-2.90861E-14 1.07261E-12
 -1      1142 1.84467E+01-2.46076E-02-1.51573E-02 2.68062E-02-9.71922E-15 6.54209E-13
 -1      1143 1.85286E+01-1.30473E-02-4.95694E-03 1.90703E-02-5.97417E-15 4.07903E-13
 -1      1144 1.86756E+01-6.60655E-03-1.46761E-03 1.41349E-02-1.05809E-14 1.95623E-13
 -1      1145 1.88483E+01-2.82523E-03 5.77503E-04 1.07094E-02-2.09153E-14-1.12570E-13
 -1      1146 1.90239E+01-5.85692E-04 1.90839E-03 8.17156E-03-8.16158E-15-4.21218E-13
 -1      1147 1.91896E+01 7.14117E-04 2.66253E-03 6.21498E-03-1.89129E-14-6.31904E-13
 -1      1148 1.93386E+01 1.41549E-03 2.97734E-03 4.67599E-03-3.84218E-15-8.66704E-13
 -1      1149 1.94679E+01 1.72759E-03 2.98677E-03 3.45565E-03 1.29643E-14-8.60062E-13
 -1      1150 1.95769E+01 1.78475E-03 2.79708E-03 2.48707E-03 2.63635E-15-9.71948E-13
 -1      1151 1.96666E+01 1.67514E-03 2.48338E-03 1.72059E-03-6.02589E-15-9.65512E-13
 -1      1152 1.97391E+01 1.45586E-03 2.09437E-03 1.11737E-03-1.51328E-15-1.07655E-12
 -1      1153 1.97970E+01 1.16188E-03 1.65796E-03 6.46597E-04-9.97242E-15-1.14873E-12
 -1      1154 1.98434E+01 8.11695E-04 1.18568E-03 2.84411E-04-3.36977E-14-1.14075E-12
 -1      1155 1.98815E+01 4.11328E-04 6.76118E-04 1.37700E-05-2.44798E-14-1.25369E-12
 -1      1156 1.99150E+01-4.26726E-05 1.17533E-04-1.75254E-04-1.94021E-14-1.48212E-12
 -1      1157 1.99478E+01-5.60706E-04-5.09880E-04-2.84795E-04 1.55790E-14-1.51596E-12
 -1      1158 1.99846E+01-1.15769E-03-1.23184E-03-3.08179E-04-1.54736E-15-1.20583E-12
 -1      1159 2.00303E+01-1.85030E-03-2.07741E-03-2.28588E-04-1.47774E-14-1.20185E-12
 -1      1160 2.00911E+01-2.65329E-03-3.07544E-03-1.74120E-05 2.59923E-14-9.72216E-13
 -1      1161 2.01740E+01-3.57419E-03-4.24882E-03 3.67586E-04-9.61671E-15-1.08994E-12
 -1      1162 2.02874E+01-4.60507E-03-5.60499E-03 9.83889E-04 3.29538E-15-1.18249E-12
 -1      1163 2.04408E+01-5.70996E-03-7.12002E-03 1.90473E-03-1.97429E-14-1.01064E-12
 -1      1164 2.06447E+01-6.80549E-03-8.71206E-03 3.21651E-03 3.84870E-14-1.03771E-12
 -1      1165 2.09102E+01-7.73242E-03-1.01984E-02 5.00910E-03-4.72810E-14-1.38032E-12
 -1      1166 2.12472E+01-8.21580E-03-1.12289E-02 7.35169E-03-8.59566E-15-1.36621E-12
 -1      1167 2.16623E+01-7.81547E-03-1.11924E-02 1.02411E-02 2.19022E-14-1.16030E-12
 -1      1168 2.21545E+01-5.87824E-03-9.10441E-03 1.35029E-02-4.98254E-14-1.34672E-12
 -1      1169 2.27083E+01-1.52664E-03-3.53130E-03 1.66219E-02 1.71357E-14-1.65125E-12
 -1      1170 2.32843E+01 6.23374E-03 7.30882E-03 1.84934E-02 2.88619E-14-1.31048E-12
 -1      1171 2.38071E+01 1.81480E-02 2.49774E-02 1.71542E-02 2.22641E-14-1.05038E-12
 -1      1172 2.41554E+01 3.38869E-02 4.93895E-02 9.70795E-03 2.62013E-14-1.04993E-12
 -1      1173 2.41621E+01 5.07115E-02 7.63428E-02-7.04177E-03 4.47316E-14-9.50606E-13
 -1      1174 2.36428E+01 6.20453E-02 9.49745E-02-3.45217E-02 6.23685E-14-7.35439E-13
 -1      1175 2.24689E+01 5.78308E-02 8.84883E-02-6.87313E-02-4.95524E-15-5.74443E-13
 -1      1176 2.06835E+01 2.92438E-02 4.29416E-02-9.73197E-02 2.44908E-14-6.86617E-13
 -1      1177 1.85990E+01-2.13222E-02-3.68894E-02-1.02325E-01 1.71469E-14-6.98788E-13
 -1      1178 1.67684E+01-7.36811E-02-1.18431E-01-7.16786E-02-1.41276E-14-6.64968E-13
 -1      1179 1.57589E+01-9.80386E-02-1.55488E-01-1.28822E-02 3.07497E-14-6.43549E-13
 -1      1180 1.58286E+01-7.83322E-02-1.24213E-01 4.67875E-02 5.66561E-15-7.62286E-13
 -1      1181 1.67609E+01-2.91992E-02-4.65229E-02 7.90477E-02 3.55072E-14-4.89095E-13
 -1      1182 1.80165E+01 1.80894E-02 2.92156E-02 7.52339E-02 5.44712E-14-1.12119E-13
 -1      1183 1.90702E+01 4.11238E-02 6.63605E-02 4.81854E-02-6.76499E-15-2.54401E-13
 -1      1184 1.96647E+01 3.67107E-02 5.87736E-02 1.87599E-02 4.89656E-14-1.48180E-13
 -1      1185 1.98556E+01 1.62748E-02 2.64218E-02 3.89737E-03 3.46886E-14 4.19415E-13
 -1      1186 1.98978E+01-3.06950E-03 8.18743E-03 1.05312E-02-2.00079E-14-3.59296E-14
 -1      1187 1.99680E+01 1.43179E-02 3.25691E-02 9.79558E-03 4.14295E-14 2.43256E-14
 -1      1188 2.77934E+01 5.25753E-01 3.76983E-01 1.96667E+00-5.09592E-14 4.25643E-12
 -1      1189 2.00867E+01-6.62485E-02-5.73635E-01 1.29457E-01 3.25434E-14 3.39442E-12
 -1      1190 1.89098E+01-4.06151E-02-1.93236E-01 1.94080E-02 2.20006E-14 2.57742E-12
 -1      1191 1.85304E+01-2.14293E-02-5.05713E-02 1.45319E-03 2.34040E-14 1.99598E-12
 -1      1192 1.84593E+01-1.24175E-02-1.34241E-02-4.08644E-03 8.86227E-15 1.59252E-12
 -1      1193 1.85350E+01-7.41128E-03-4.67874E-03-5.54594E-03 1.74999E-14 1.23466E-12
 -1      1194 1.86789E+01-4.33047E-03-1.94560E-03-5.73968E-03 1.28178E-14 9.76715E-13
 -1      1195 1.88499E+01-2.35324E-03-3.52765E-04-5.46520E-03 1.26212E-15 8.14461E-13
 -1      1196 1.90245E+01-1.07365E-03 7.75006E-04-4.97379E-03-6.96204E-15 6.21503E-13
 -1      1197 1.91897E+01-2.59492E-04 1.49709E-03-4.37971E-03 9.11792E-15 4.86293E-13
 -1      1198 1.93384E+01 2.35880E-04 1.87731E-03-3.74987E-03 3.08971E-14 2.76751E-13
 -1      1199 1.94675E+01 5.10221E-04 2.00303E-03-3.12604E-03 4.05642E-15 1.60334E-13
 -1      1200 1.95764E+01 6.30099E-04 1.95291E-03-2.53301E-03 1.86343E-14 3.05988E-14
 -1      1201 1.96661E+01 6.40505E-04 1.78572E-03-1.98324E-03-2.99814E-15-6.22545E-14
 -1      1202 1.97385E+01 5.70647E-04 1.54052E-03-1.48024E-03 1.82111E-14-2.10653E-13
 -1      1203 1.97964E+01 4.37605E-04 1.23977E-03-1.02108E-03-1.89924E-15-3.67421E-13
 -1      1204 1.98427E+01 2.48711E-04 8.92147E-04-5.98533E-04-2.51009E-14-2.67801E-13
 -1      1205 1.98807E+01 3.18036E-06 4.94658E-04-2.02691E-04 2.10778E-14-3.41942E-13
 -1      1206 1.99140E+01-3.06731E-04 3.41580E-05 1.77502E-04 9.79285E-15-5.53861E-13
 -1      1207 1.99466E+01-6.94855E-04-5.11623E-04 5.52835E-04-1.88610E-15-4.89698E-13
 -1      1208 1.99830E+01-1.18032E-03-1.17336E-03 9.32292E-04-9.78375E-15-3.01002E-13
 -1      1209 2.00285E+01-1.78658E-03-1.98945E-03 1.32116E-03 1.22090E-14-1.11775E-13
 -1      1210 2.00893E+01-2.53974E-03-3.00498E-03 1.71836E-03 7.12180E-15-1.81514E-13
 -1      1211 2.01729E+01-3.46555E-03-4.26942E-03 2.11254E-03 3.14695E-14-4.71265E-13
 -1      1212 2.02883E+01-4.58345E-03-5.83156E-03 2.47589E-03 9.04333E-16-5.55544E-13
 -1      1213 2.04464E+01-5.89548E-03-7.72861E-03 2.75462E-03 9.22461E-15-3.86182E-13
 -1      1214 2.06597E+01-7.36588E-03-9.96398E-03 2.85417E-03-1.45502E-14-2.07624E-13
 -1      1215 2.09429E+01-8.88522E-03-1.24637E-02 2.61755E-03 1.29354E-14-1.38416E-13
 -1      1216 2.13113E+01-1.02107E-02-1.49959E-02 1.79608E-03-7.30037E-15-1.15372E-13
 -1      1217 2.17795E+01-1.08745E-02-1.70298E-02 1.71556E-05 1.80874E-14-1.19831E-13
 -1      1218 2.23577E+01-1.00632E-02-1.75142E-02-3.23227E-03 2.30111E-15-2.28260E-13
 -1      1219 2.30446E+01-6.50394E-03-1.45867E-02-8.55548E-03 1.68631E-14-2.70957E-13
 -1      1220 2.38154E+01 1.51376E-03-5.34704E-03-1.64182E-02 1.39057E-15-3.55341E-14
 -1      1221 2.46045E+01 1.56827E-02 1.38878E-02-2.65582E-02-1.72655E-14-7.48533E-14
 -1      1222 2.52824E+01 3.63383E-02 4.59621E-02-3.68486E-02 4.43443E-14-1.47209E-13
 -1      1223 2.56384E+01 5.98532E-02 8.88023E-02-4.18412E-02-4.00834E-14-3.63101E-13
 -1      1224 2.53918E+01 7.59175E-02 1.29157E-01-3.24089E-02 3.82749E-14-2.76858E-13
 -1      1225 2.42747E+01 6.86755E-02 1.39743E-01 3.58126E-04 5.44287E-14-5.77371E-13
 -1      1226 2.22138E+01 2.73954E-02 9.05727E-02 5.50284E-02-2.82396E-14-7.19841E-14
 -1      1227 1.95480E+01-3.64968E-02-2.13798E-02 1.09574E-01-5.49019E-14 4.33834E-13
 -1      1228 1.70762E+01-8.58439E-02-1.45812E-01 1.27579E-01-2.16441E-14 1.19849E-13
 -1      1229 1.57189E+01-8.74101E-02-2.03565E-01 8.71977E-02 1.26201E-14 3.09995E-14
 -1      1230 1.59184E+01-4.55037E-02-1.56595E-01 7.84049E-03-5.23435E-14 5.94386E-14
 -1      1231 1.73086E+01 4.93179E-03-4.44221E-02-6.27330E-02-2.82988E-14 8.23508E-14
 -1      1232 1.90026E+01 3.37128E-02 5.59560E-02-8.92430E-02 1.44090E-14-2.19672E-13
 -1      1233 2.02052E+01 3.37756E-02 9.50293E-02-7.08293E-02 9.73479E-14-6.71588E-13
 -1      1234 2.06084E+01 1.34705E-02 7.17384E-02-3.02159E-02 3.49113E-15-1.11065E-12
 -1      1235 2.03968E+01-1.21620E-02 1.67334E-02 5.96828E-03 5.31437E-14-1.43867E-12
 -1      1236 2.00340E+01-2.18499E-02-1.89067E-02 1.28991E-02 1.25394E-13-1.65150E-12
 -1      1237 1.99606E+01 1.61702E-02 3.64767E-02-1.32232E-02 5.37782E-14-1.08503E-12
 -1      1238 2.00121E+01-4.25538E-02 2.26992E-02-1.49711E-02-1.17893E-12-1.29179E-13
 -1      1239 1.99543E+01 3.08998E-02-7.10875E-02-1.43442E-02-1.84783E-12-2.25904E-14
 -1      1240 1.99301E+01 6.61801E-01-1.11070E-01 1.96823E-02-1.08198E-12 1.50708E-13
 -1      1241 1.99238E+01 2.03503E+00-1.21228E-01 6.23905E-02-7.53758E-13 2.24595E-14
 -1      1242 1.99493E+01 4.21002E+00-8.33386E-02 1.07765E-01-6.36505E-13-3.92364E-14
 -1      1243 2.00102E+01 6.91822E+00 1.18962E-02 1.34123E-01-5.45022E-13-2.43647E-13
 -1      1244 2.00946E+01 9.54711E+00 1.38522E-01 1.18441E-01 3.66276E-13 1.70536E-13
 -1      1245 2.01594E+01 1.12632E+01 2.36521E-01 5.18601E-02 1.02075E-12-8.41393E-14
 -1      1246 2.01649E+01 1.13776E+01 2.45147E-01-3.94670E-02 1.34202E-12 1.08967E-13
 -1      1247 2.01073E+01 9.83505E+00 1.58351E-01-1.12487E-01 3.41865E-13-8.38418E-14
 -1      1248 2.00213E+01 7.22681E+00 2.84772E-02-1.36747E-01 3.66901E-13-1.11199E-13
 -1      1249 1.99537E+01 4.44906E+00-7.65005E-02-1.13760E-01-9.70279E-13-4.02460E-14
 -1      1250 1.99217E+01 2.17660E+00-1.23664E-01-6.90249E-02-7.92894E-13 2.63930E-14
 -1      1251 1.99238E+01 7.05036E-01-1.18476E-01-2.28005E-02 1.66155E-13 1.29931E-15
 -1      1252 1.99519E+01 9.27764E-03-8.28121E-02 4.49099E-03 2.47666E-13 2.52038E-14
 -1      1253 1.99586E+01-1.08606E-01-3.29517E-02 3.37064E-02 7.80834E-14-3.45622E-14
 -1      1254 2.00076E+01-3.73606E-02 2.19995E-02 1.50535E-02 4.15935E-14 9.14289E-14
 -1      1255-1.22769E+00-2.84331E+01-4.36857E+00-2.64427E+00-2.94653E-13 3.38965E-14
 -1      1256-2.07538E+00-1.74443E+01-3.43349E+00-4.56767E+00 3.96350E-13 1.88349E-13
 -1      1257 3.70012E-01-2.71215E+00-1.99041E+00-7.70667E-02 1.03317E-12 7.10765E-13
 -1      1258 1.02450E+01 8.62670E+00-4.82516E-02 9.16032E+00 1.18727E-12 1.10179E-12
 -1      1259 2.94204E+01 1.22761E+01 1.97227E+00 1.77121E+01 5.38680E-13 6.41709E-13
 -1      1260 5.22271E+01 8.64867E+00 3.57452E+00 1.87779E+01 6.59472E-14-1.11022E-15
 -1      1261 6.83810E+01 3.12433E+00 4.47975E+00 1.01672E+01-3.31124E-14-6.21392E-13
 -1      1262 7.02656E+01 1.93130E+00 4.49204E+00-3.86749E+00-1.80481E-14-7.67886E-13
 -1      1263 5.68783E+01 5.90001E+00 3.63944E+00-1.52536E+01 2.93210E-13-1.03606E-12
 -1      1264 3.49112E+01 1.02385E+01 2.08839E+00-1.77310E+01 8.36997E-13-1.39377E-12
 -1      1265 1.40510E+01 9.02964E+00 1.81980E-01-1.09282E+01 1.22680E-12-1.44906E-12
 -1      1266 1.76681E+00 3.34639E-01-1.51591E+00-1.49472E+00 1.19993E-12-8.94063E-13
 -1      1267-1.97034E+00-1.26943E+01-2.84207E+00 4.26390E+00 4.48752E-13-3.22520E-13
 -1      1268-1.45569E+00-2.39962E+01-3.67145E+00 3.90323E+00 6.66689E-13-7.04575E-14
 -1      1269-9.34780E-01-2.74256E+01-3.91082E+00-5.36648E-01-4.24522E-13-2.14107E-13
 -1      1270-1.71200E+00-2.17205E+01-3.52659E+00-4.24937E+00-2.21390E-12-6.89143E-13
 -1      1271-1.47244E+00-9.64635E+00-2.55649E+00-3.28690E+00-3.03624E-12-1.39999E-12
 -1      1272 4.43364E+00 3.30979E+00-1.01825E+00 4.07495E+00-2.48934E-12-1.87539E-12
 -1      1273 2.02200E+01 1.03687E+01 7.88814E-01 1.39597E+01-1.66733E-12-2.00773E-12
 -1      1274 4.26208E+01 9.15958E+00 2.58026E+00 1.85254E+01-6.24167E-13-8.64420E-13
 -1      1275 6.22956E+01 4.11199E+00 3.91089E+00 1.27961E+01 1.90958E-14 2.71116E-13
 -1      1276 7.04761E+01 1.88809E+00 4.47652E+00-2.29764E-01-2.20587E-14 6.49009E-13
 -1      1277 6.44549E+01 4.30633E+00 4.20614E+00-1.32465E+01-5.25552E-14 4.75064E-13
 -1      1278 4.67893E+01 9.70761E+00 3.14247E+00-1.95789E+01-3.06422E-14 4.90719E-14
 -1      1279 2.60414E+01 1.24104E+01 1.61890E+00-1.71908E+01-1.70308E-13-4.66294E-15
 -1      1280 9.17567E+00 8.12324E+00-2.36693E-01-8.57327E+00-4.51195E-13 2.42473E-13
 -1      1281 7.38109E-03-3.68895E+00-2.04652E+00 6.42495E-01-1.52967E-12 8.25229E-13
 -1      1282-2.06141E+00-1.81943E+01-3.51288E+00 4.84825E+00-1.88893E-12 8.52096E-13
 -1      1283-1.30296E+00-2.81215E+01-4.31569E+00 2.59684E+00-1.14048E-12 2.15855E-13
 -1      1284 2.22679E+01 1.83825E+00-7.25841E-01-2.79054E+00-1.12577E-13 1.70597E-12
 -1      1285 2.03600E+01 4.69014E+00-4.87558E-02-3.30668E+00-3.00426E-13-2.15217E-13
 -1      1286 2.08677E+01 4.81069E+00-1.13363E-01-4.16099E+00-3.91381E-13 2.18534E-13
 -1      1287 1.95314E+01 4.99396E+00-1.97220E-02-2.65436E+00-2.92717E-13-8.23435E-13
 -1      1288 1.98298E+01 5.09038E+00 2.92757E-05-3.04521E+00-3.32713E-13-5.65534E-13
 -1      1289 2.05265E+01 3.95279E+00-2.59982E-02-3.07431E+00-5.20979E-13-1.97800E-13
 -1      1290 1.91851E+01 5.08415E+00-3.39603E-03-2.07066E+00-2.30455E-13-1.11161E-12
 -1      1291 1.93334E+01 5.13935E+00 1.05132E-02-2.36400E+00-2.66252E-13-9.84674E-13
 -1      1292 1.97551E+01 4.36716E+00-2.38765E-02-2.49035E+00-4.60295E-13-6.95555E-13
 -1      1293 1.90090E+01 5.13096E+00 3.47425E-03-1.56442E+00-1.65194E-13-1.24511E-12
 -1      1294 1.90872E+01 5.16068E+00 1.28118E-02-1.81440E+00-1.89709E-13-1.18807E-12
 -1      1295 1.93929E+01 4.55510E+00-1.94941E-02-1.93128E+00-3.47351E-13-9.39963E-13
 -1      1296 1.89151E+01 5.16060E+00 6.56434E-03-1.11694E+00-1.04185E-13-1.29450E-12
 -1      1297 1.89576E+01 5.17699E+00 1.27743E-02-1.33835E+00-1.29448E-13-1.27097E-12
 -1      1298 1.92054E+01 4.66144E+00-1.60387E-02-1.44462E+00-2.46160E-13-1.05103E-12
 -1      1299 1.88636E+01 5.18035E+00 8.18753E-03-6.93753E-01-5.46468E-14-1.29683E-12
 -1      1300 1.88865E+01 5.18922E+00 1.19970E-02-9.03933E-01-6.94809E-14-1.29926E-12
 -1      1301 1.91023E+01 4.72677E+00-1.39957E-02-1.00419E+00-1.52512E-13-1.09278E-12
 -1      1302 1.88396E+01 5.19225E+00 9.28399E-03-2.89137E-01 1.61402E-15-1.28435E-12
 -1      1303 1.88495E+01 5.19608E+00 1.10604E-02-4.91217E-01-1.63281E-14-1.29209E-12
 -1      1304 1.90465E+01 4.76569E+00-1.29289E-02-5.88739E-01-5.85868E-14-1.08709E-12
 -1      1305 1.88359E+01 5.19719E+00 1.02161E-02 1.08194E-01 5.18894E-14-1.26010E-12
 -1      1306 1.88355E+01 5.19705E+00 1.01443E-02-9.14379E-02 3.46478E-14-1.27290E-12
 -1      1307 1.90223E+01 4.78368E+00-1.24784E-02-1.89084E-01 3.01717E-14-1.07940E-12
 -1      1308 1.88512E+01 5.19573E+00 1.11549E-02 5.08561E-01 1.02203E-13-1.23350E-12
 -1      1309 1.88406E+01 5.19161E+00 9.21998E-03 3.06059E-01 8.76504E-14-1.25038E-12
 -1      1310 1.90232E+01 4.78305E+00-1.24953E-02 2.05749E-01 1.12230E-13-1.05396E-12
 -1      1311 1.88899E+01 5.18807E+00 1.20896E-02 9.22771E-01 1.48390E-13-1.18116E-12
 -1      1312 1.88661E+01 5.17903E+00 8.12844E-03 7.11623E-01 1.32574E-13-1.21615E-12
 -1      1313 1.90492E+01 4.76363E+00-1.29812E-02 6.06090E-01 1.93652E-13-1.02415E-12
 -1      1314 1.89620E+01 5.17512E+00 1.28969E-02 1.35595E+00 2.02667E-13-1.08705E-12
 -1      1315 1.89186E+01 5.15836E+00 6.44292E-03 1.13307E+00 1.79839E-13-1.14637E-12
 -1      1316 1.91067E+01 4.72322E+00-1.40033E-02 1.01937E+00 2.71602E-13-9.68260E-13
 -1      1317 1.90949E+01 5.15671E+00 1.28280E-02 1.84058E+00 2.74341E-13-9.27064E-13
 -1      1318 1.90152E+01 5.12633E+00 3.13731E-03 1.58778E+00 2.43446E-13-1.02295E-12
 -1      1319 1.92124E+01 4.65488E+00-1.61466E-02 1.46245E+00 3.67592E-13-8.60340E-13
 -1      1320 1.93438E+01 5.13350E+00 1.01763E-02 2.39767E+00 3.40707E-13-6.47416E-13
 -1      1321 1.91936E+01 5.07635E+00-4.38293E-03 2.10039E+00 3.06644E-13-8.18567E-13
 -1      1322 1.94053E+01 4.54246E+00-1.99842E-02 1.95811E+00 4.73522E-13-6.79595E-13
 -1      1323 1.98557E+01 5.09949E+00 6.06059E-03 3.08381E+00 3.85275E-13-1.17628E-13
 -1      1324 1.95436E+01 4.98446E+00-2.05455E-02 2.69641E+00 3.42823E-13-4.39971E-13
 -1      1325 1.97749E+01 4.34645E+00-2.45599E-02 2.52797E+00 5.50258E-13-3.51622E-13
 -1      1326 2.11038E+01 4.90706E+00 8.32343E-03 4.05393E+00 3.29681E-13 8.84848E-13
 -1      1327 2.03347E+01 4.73390E+00-4.79665E-02 3.41623E+00 3.26711E-13 2.73066E-13
 -1      1328 2.05649E+01 3.91596E+00-2.24074E-02 3.17835E+00 5.81805E-13 2.43042E-13
 -1      1329 2.72035E+01 3.20543E+00 9.29037E-01 4.58231E+00 1.61593E-13 2.79193E-12
 -1      1330 2.20206E+01 3.52223E+00-1.81998E-01 3.88499E+00 1.64202E-13 1.46744E-12
 -1      1331 2.21129E+01 2.56181E+00-3.25430E-02 3.45657E+00 5.34153E-13 1.15194E-12
 -1      1332 2.14276E+01 3.59576E-01-7.63536E-01 1.18383E+00 2.86701E-13 2.67913E-12
 -1      1333 2.20021E+01 1.31303E-01-4.00863E-01-1.28578E+00-3.19550E-13 1.82152E-12
 -1      1334 2.06794E+01 3.06730E-01-1.64791E-01-8.05841E-01-2.87423E-13 1.45287E-12
 -1      1335 2.00816E+01 1.53523E-01-7.35174E-02-4.02100E-01-2.38417E-13 1.28875E-12
 -1      1336 1.96119E+01 9.12223E-02-1.48885E-02-3.29924E-01-2.30108E-13 9.43273E-13
 -1      1337 2.09732E+01 3.69322E-01-1.04170E-01-1.27400E+00-5.12923E-13 6.79873E-13
 -1      1338 1.92545E+01 6.45175E-02 3.06624E-03-1.35272E-01-1.86490E-13 8.28081E-13
 -1      1339 1.91003E+01 4.12673E-02 1.32568E-02-1.17468E-01-1.67234E-13 5.71952E-13
 -1      1340 1.99224E+01 1.33959E-01-3.50888E-02-5.03886E-01-3.97384E-13 4.45637E-13
 -1      1341 1.89399E+01 3.15086E-02 1.32621E-02-2.79707E-02-1.10024E-13 4.63869E-13
 -1      1342 1.89205E+01 1.93633E-02 1.10697E-02-1.86108E-02-1.01732E-13 3.11310E-13
 -1      1343 1.94452E+01 5.54021E-02-8.50444E-03-1.69909E-01-2.72360E-13 2.50997E-13
 -1      1344 1.88645E+01 1.60029E-02 8.78185E-03 2.49984E-02-8.26886E-14 2.44223E-13
 -1      1345 1.89068E+01 9.07390E-03 6.43811E-03 2.96280E-02-7.29338E-14 1.48759E-13
 -1      1346 1.92363E+01 2.43856E-02-3.49168E-03-1.11556E-02-1.90609E-13 8.37984E-14
 -1      1347 1.89068E+01 7.85285E-03 4.66962E-03 5.07818E-02-6.86290E-14 8.82489E-14
 -1      1348 1.89771E+01 3.49608E-03 3.63490E-03 5.26716E-02-7.17373E-14-2.66818E-14
 -1      1349 1.91794E+01 1.01842E-02-2.21970E-03 6.74804E-02-1.53991E-13-5.18890E-14
 -1      1350 1.90065E+01 3.17602E-03 2.43906E-03 6.14458E-02-8.54593E-14-7.98164E-14
 -1      1351 1.90870E+01 3.13370E-04 2.20882E-03 6.17060E-02-9.05596E-14-2.14571E-13
 -1      1352 1.92054E+01 2.76764E-03-1.32190E-03 1.04276E-01-1.56616E-13-1.51895E-13
 -1      1353 1.91304E+01 4.22978E-04 1.33223E-03 6.33482E-02-7.18124E-14-2.59362E-13
 -1      1354 1.92111E+01-1.48743E-03 1.43938E-03 6.26538E-02-6.52425E-14-3.62542E-13
 -1      1355 1.92743E+01-1.33367E-03-5.53676E-04 1.17466E-01-1.67708E-13-1.79705E-13
 -1      1356 1.92594E+01-1.16621E-03 7.48944E-04 6.02151E-02-8.77518E-14-3.98643E-13
 -1      1357 1.93348E+01-2.43356E-03 9.71686E-04 5.90004E-02-9.35223E-14-5.06129E-13
 -1      1358 1.93622E+01-3.54663E-03 7.43924E-06 1.17018E-01-1.46981E-13-2.76071E-13
 -1      1359 1.93827E+01-2.01698E-03 4.13754E-04 5.43703E-02-6.16840E-14-5.61467E-13
 -1      1360 1.94499E+01-2.83416E-03 6.61390E-04 5.29199E-02-1.59802E-14-6.19256E-13
 -1      1361 1.94550E+01-4.61072E-03 3.60608E-04 1.08895E-01-1.36870E-13-3.34676E-13
 -1      1362 1.94943E+01-2.38777E-03 2.11406E-04 4.73081E-02-4.33911E-15-6.73508E-13
 -1      1363 1.95522E+01-2.88374E-03 4.48011E-04 4.58086E-02-3.30157E-14-7.08851E-13
 -1      1364 1.95443E+01-4.95063E-03 5.50396E-04 9.68520E-02-5.47683E-14-4.27960E-13
 -1      1365 1.95917E+01-2.44501E-03 8.97388E-05 3.99981E-02-5.65169E-14-7.31151E-13
 -1      1366 1.96403E+01-2.70982E-03 3.01473E-04 3.85699E-02-3.83482E-14-7.79976E-13
 -1      1367 1.96257E+01-4.83138E-03 6.24584E-04 8.33122E-02-6.50062E-14-5.84176E-13
 -1      1368 1.96743E+01-2.29858E-03 2.09991E-05 3.30654E-02 3.72245E-15-8.14204E-13
 -1      1369 1.97142E+01-2.39602E-03 2.03873E-04 3.17843E-02-2.41254E-14-8.25038E-13
 -1      1370 1.96970E+01-4.42508E-03 6.20531E-04 6.98452E-02-4.43770E-14-6.93263E-13
 -1      1371 1.97428E+01-2.02019E-03-1.17256E-05 2.69089E-02-3.24854E-14-8.23630E-13
 -1      1372 1.97751E+01-1.99503E-03 1.43357E-04 2.58223E-02-3.28260E-14-8.67229E-13
 -1      1373 1.97580E+01-3.84286E-03 5.64386E-04 5.74630E-02-5.20786E-14-6.58234E-13
 -1      1374 1.97991E+01-1.65400E-03-1.95648E-05 2.17857E-02-5.47134E-14-8.45612E-13
 -1      1375 1.98251E+01-1.53663E-03 1.11717E-04 2.09239E-02-4.87169E-14-8.85742E-13
 -1      1376 1.98094E+01-3.15228E-03 4.73214E-04 4.68185E-02-6.67447E-14-6.66069E-13
 -1      1377 1.98453E+01-1.22343E-03-1.01632E-05 1.78727E-02-1.59328E-14-8.77959E-13
 -1      1378 1.98665E+01-1.03324E-03 1.03175E-04 1.72587E-02-5.37335E-14-9.32067E-13
 -1      1379 1.98527E+01-2.38818E-03 3.57107E-04 3.83493E-02-4.67416E-14-6.52667E-13
 -1      1380 1.98842E+01-7.35868E-04 1.10152E-05 1.53149E-02-5.04488E-14-9.29886E-13
 -1      1381 1.99023E+01-4.83905E-04 1.13625E-04 1.49713E-02-3.40784E-14-9.56129E-13
 -1      1382 1.98898E+01-1.56008E-03 2.20821E-04 3.23850E-02-3.55916E-14-6.40060E-13
 -1      1383 1.99188E+01-1.86116E-04 3.98038E-05 1.42616E-02-9.53401E-14-1.01957E-12
 -1      1384 1.99357E+01 1.22519E-04 1.40060E-04 1.42165E-02-7.94966E-14-1.14973E-12
 -1      1385 1.99232E+01-6.57618E-04 6.50136E-05 2.92296E-02-1.14383E-13-6.97856E-13
 -1      1386 1.99525E+01 4.40752E-04 7.26362E-05 1.48954E-02 6.44359E-15-1.18360E-12
 -1      1387 1.99703E+01 8.04612E-04 1.80056E-04 1.51866E-02 2.06818E-14-1.13137E-12
 -1      1388 1.99558E+01 3.45149E-04-1.12763E-04 2.92243E-02-8.67178E-14-7.93030E-13
 -1      1389 1.99892E+01 1.16681E-03 1.05915E-04 1.74520E-02 5.27406E-14-1.13507E-12
 -1      1390 2.00104E+01 1.58559E-03 2.31213E-04 1.81305E-02-1.97315E-14-1.07982E-12
 -1      1391 1.99909E+01 1.48584E-03-3.17178E-04 3.27946E-02 3.85453E-14-8.55462E-13
 -1      1392 2.00335E+01 2.01841E-03 1.35361E-04 2.22343E-02-2.40942E-14-1.01115E-12
 -1      1393 2.00607E+01 2.48990E-03 2.90476E-04 2.33657E-02 6.58212E-14-9.60850E-13
 -1      1394 2.00323E+01 2.80957E-03-5.54233E-04 4.04821E-02 3.02802E-14-9.23505E-13
 -1      1395 2.00904E+01 3.02245E-03 1.55298E-04 2.96145E-02 6.19128E-14-9.41476E-13
 -1      1396 2.01268E+01 3.53854E-03 3.53245E-04 3.12790E-02 3.54843E-14-8.80006E-13
 -1      1397 2.00842E+01 4.36351E-03-8.30214E-04 5.29576E-02 8.56579E-14-8.03960E-13
 -1      1398 2.01659E+01 4.20069E-03 1.57827E-04 4.00237E-02-3.59212E-15-8.46980E-13
 -1      1399 2.02154E+01 4.74173E-03 4.12213E-04 4.23128E-02-3.52967E-15-8.95467E-13
 -1      1400 2.01517E+01 6.18864E-03-1.15029E-03 7.10103E-02-1.29139E-15-6.77336E-13
 -1      1401 2.02670E+01 5.56080E-03 1.31959E-04 5.39196E-02 1.30776E-14-8.33912E-13
 -1      1402 2.03339E+01 6.08756E-03 4.55916E-04 5.69280E-02 5.26727E-15-7.97422E-13
 -1      1403 2.02407E+01 8.30643E-03-1.51644E-03 9.55008E-02 1.79284E-14-6.08877E-13
 -1      1404 2.04015E+01 7.08177E-03 6.28879E-05 7.17190E-02-2.76380E-14-7.94149E-13
 -1      1405 2.04906E+01 7.52367E-03 4.67145E-04 7.55282E-02-1.28443E-14-7.77960E-13
 -1      1406 2.03575E+01 1.06967E-02-1.92436E-03 1.27256E-01-6.74244E-15-5.26402E-13
 -1      1407 2.05778E+01 8.69046E-03-6.80605E-05 9.36752E-02-3.23016E-14-8.80832E-13
 -1      1408 2.06943E+01 8.92878E-03 4.21813E-04 9.83248E-02-7.06068E-14-9.49747E-13
 -1      1409 2.05091E+01 1.32617E-02-2.35856E-03 1.66872E-01-9.54937E-14-6.21145E-13
 -1      1410 2.08046E+01 1.02246E-02-2.81554E-04 1.19670E-01-4.45900E-14-1.05866E-12
 -1      1411 2.09534E+01 1.00695E-02 2.89726E-04 1.25107E-01-4.30120E-14-1.08318E-12
 -1      1412 2.07025E+01 1.57673E-02-2.78481E-03 2.14380E-01-1.21004E-13-8.27149E-13
 -1      1413 2.10896E+01 1.13773E-02-5.93985E-04 1.48874E-01 6.94345E-15-1.00726E-12
 -1      1414 2.12744E+01 1.05393E-02 4.03524E-05 1.54870E-01 2.74117E-14-9.98853E-13
 -1      1415 2.09440E+01 1.77543E-02-3.13849E-03 2.68690E-01 1.04595E-14-8.03879E-13
 -1      1416 2.14378E+01 1.16191E-02-1.00252E-03 1.79226E-01-1.07325E-15-9.33479E-13
 -1      1417 2.16595E+01 9.68043E-03-3.41230E-04 1.85251E-01 3.29758E-14-9.26804E-13
 -1      1418 2.12376E+01 1.84100E-02-3.30731E-03 3.26732E-01 4.09887E-14-6.42843E-13
 -1      1419 2.18481E+01 1.01048E-02-1.45566E-03 2.06685E-01-7.41412E-14-9.54440E-13
 -1      1420 2.21021E+01 6.51041E-03-8.21657E-04 2.11723E-01-1.04227E-13-1.07258E-12
 -1      1421 2.15832E+01 1.64096E-02-3.10748E-03 3.82209E-01-1.40005E-14-7.31798E-13
 -1      1422 2.23090E+01 5.59828E-03-1.80563E-03 2.24286E-01-2.37191E-14-1.03410E-12
 -1      1423 2.25811E+01-2.88571E-04-1.26805E-03 2.26604E-01 2.84984E-14-1.00855E-12
 -1      1424 2.19725E+01 9.77594E-03-2.25691E-03 4.23952E-01-1.05127E-13-6.20935E-13
 -1      1425 2.27916E+01-3.48699E-03-1.75282E-03 2.21220E-01 1.43302E-13-1.04041E-12
 -1      1426 2.30535E+01-1.21746E-02-1.39222E-03 2.18158E-01 1.00572E-13-8.60458E-13
 -1      1427 2.23855E+01-4.08799E-03-3.61206E-04 4.34173E-01 6.77603E-14-5.88180E-13
 -1      1428 2.32423E+01-1.87211E-02-8.22845E-04 1.82607E-01 2.67824E-14-8.06955E-13
 -1      1429 2.34464E+01-3.00936E-02-7.52118E-04 1.70597E-01 1.82697E-14-8.06907E-13
 -1      1430 2.27842E+01-2.78654E-02 3.04501E-03 3.87520E-01 1.15169E-13-5.87957E-13
 -1      1431 2.35758E+01-4.06471E-02 1.50932E-03 9.13609E-02 8.23213E-15-6.97548E-13
 -1      1432 2.36538E+01-5.30730E-02 1.08971E-03 6.65864E-02 8.44186E-14-6.91098E-13
 -1      1433 2.31084E+01-6.27492E-02 8.31670E-03 2.53026E-01 6.08697E-14-5.03046E-13
 -1      1434 2.36753E+01-6.67840E-02 5.43207E-03-6.56380E-02 1.09121E-13-6.85081E-13
 -1      1435 2.35456E+01-7.59933E-02 4.11291E-03-1.05293E-01 7.59462E-14-6.36505E-13
 -1      1436 2.32745E+01-1.05303E-01 1.52637E-02 2.46941E-03 1.53497E-13-4.13621E-13
 -1      1437 2.34081E+01-8.89931E-02 1.00536E-02-2.85082E-01 9.65278E-14-5.73088E-13
 -1      1438 2.30001E+01-8.76921E-02 7.16561E-03-3.36386E-01 7.92361E-14-4.35693E-13
 -1      1439 2.31838E+01-1.43168E-01 2.24243E-02-3.70901E-01 1.86828E-13-3.83718E-13
 -1      1440 2.26695E+01-9.24706E-02 1.28215E-02-5.30499E-01 2.45047E-14-4.30489E-13
 -1      1441 2.19666E+01-7.27204E-02 7.61418E-03-5.80748E-01 4.45581E-14-4.72705E-13
 -1      1442 2.27480E+01-1.53241E-01 2.62970E-02-8.23679E-01 5.86059E-14-4.27809E-13
 -1      1443 2.14550E+01-6.12715E-02 1.01423E-02-7.23231E-01-3.55991E-14-3.51108E-13
 -1      1444 2.05430E+01-2.09106E-02 2.70866E-03-7.50363E-01 2.72434E-14-3.64438E-13
 -1      1445 2.19377E+01-1.09368E-01 2.17106E-02-1.23817E+00-3.81657E-14-3.65956E-13
 -1      1446 1.99364E+01 7.66718E-03 6.74417E-04-7.62648E-01 1.08472E-14-4.75529E-13
 -1      1447 1.90166E+01 5.78315E-02-7.42581E-03-7.44977E-01-6.97185E-14-5.93400E-13
 -1      1448 2.08421E+01-3.62231E-03 5.14491E-03-1.43682E+00-5.90484E-14-2.46024E-13
 -1      1449 1.84699E+01 9.05145E-02-1.18437E-02-5.85289E-01-2.72213E-14-5.16087E-13
 -1      1450 1.78007E+01 1.27526E-01-1.77652E-02-5.19419E-01-3.48246E-14-5.59504E-13
 -1      1451 1.96986E+01 1.32377E-01-1.94018E-02-1.26553E+00-6.40364E-14-2.97894E-13
 -1      1452 1.74770E+01 1.42404E-01-1.96263E-02-2.31038E-01-9.23098E-14-5.92415E-13
 -1      1453 1.72484E+01 1.45598E-01-2.06315E-02-1.42719E-01 5.93137E-14-5.66467E-13
 -1      1454 1.88318E+01 2.32142E-01-3.89395E-02-7.18912E-01-8.10862E-14-3.59882E-13
 -1      1455 1.72245E+01 1.30719E-01-1.68538E-02 1.52687E-01 1.21068E-13-6.49997E-13
 -1      1456 1.74466E+01 9.93614E-02-1.28189E-02 2.21996E-01 7.27925E-14-5.19234E-13
 -1      1457 1.84913E+01 2.36961E-01-4.00343E-02-9.76658E-04 3.84588E-14-5.25976E-13
 -1      1458 1.76618E+01 6.54977E-02-6.16441E-03 4.00074E-01 1.05969E-13-3.15706E-13
 -1      1459 1.81619E+01 2.01737E-02 4.04531E-04 4.22990E-01 1.08555E-13-1.80828E-13
 -1      1460 1.86935E+01 1.45755E-01-2.18016E-02 5.77191E-01 2.65550E-13-3.31804E-13
 -1      1461 1.84644E+01-9.51580E-03 4.55067E-03 4.37822E-01 6.92623E-14-2.62929E-13
 -1      1462 1.89982E+01-4.43759E-02 1.04963E-02 4.17503E-01 2.66187E-14-2.09624E-13
 -1      1463 1.92154E+01 1.61452E-02 1.87085E-03 8.03331E-01 7.73292E-14-1.22482E-13
 -1      1464 1.92443E+01-5.47123E-02 9.22094E-03 3.14820E-01-3.40266E-15-2.15248E-13
 -1      1465 1.96311E+01-6.70728E-02 1.28497E-02 2.75220E-01-8.24341E-15-2.59737E-13
 -1      1466 1.97527E+01-7.96545E-02 1.71679E-02 6.83698E-01-4.02759E-15-2.13102E-13
 -1      1467 1.97523E+01-5.77575E-02 6.97492E-03 1.43291E-01 3.97763E-14-3.54963E-13
 -1      1468 1.99421E+01-5.01650E-02 8.65411E-03 1.10049E-01 1.52098E-13-1.69045E-13
 -1      1469 2.00945E+01-1.05533E-01 1.89416E-02 3.89377E-01 6.43244E-14-3.01074E-13
 -1      1470 1.99506E+01-2.97658E-02 1.11457E-03 2.38154E-02 2.19551E-13-1.57953E-13
 -1      1471 2.00085E+01-1.35735E-02 3.57871E-03 1.24007E-02 3.67761E-16-2.46320E-14
 -1      1472 2.01925E+01-6.90273E-02 1.13832E-02 1.20998E-01 1.67710E-13-4.78567E-13
 -1      1473 1.99632E+01 4.98900E-03-1.72221E-03 5.74759E-04-1.16913E-13 5.37422E-14
 -1      1474 1.99967E+01 9.50717E-03 6.07340E-03 6.70138E-03 5.82780E-15-3.83291E-14
 -1      1475 2.01290E+01-2.38247E-03 5.55811E-03 1.32280E-03-3.50414E-16-2.71714E-13
 -1      1476 1.99697E+01-1.14699E-02 9.91355E-03 2.31512E-02-8.52061E-14 6.11382E-14
 -1      1477 2.00275E+01 1.68339E-03 4.22411E-03 1.96281E-02-1.92051E-14-4.77760E-14
 -1      1478 2.02603E+01 7.54744E-02-1.52091E-01 4.83843E-01 2.57089E-13 2.11174E-12
 -1      1479 2.15306E+01 2.16134E-01-2.29287E-01 7.20833E-01 2.22086E-13 2.51242E-12
 -1      1480 2.17292E+01 8.81756E-01-8.54733E-02 2.06482E+00 4.43139E-13 1.61607E-12
 -1      1481 1.93321E+01 3.23809E-02-2.13317E-02 1.86007E-01 1.87881E-13 1.61481E-12
 -1      1482 1.97527E+01 1.13619E-01-6.26995E-02 2.38017E-01 1.73413E-13 1.91016E-12
 -1      1483 2.03040E+01 1.87673E-01-5.51931E-02 7.86163E-01 3.82694E-13 1.24642E-12
 -1      1484 1.89503E+01 1.51044E-02 5.66732E-03 5.35066E-02 1.40427E-13 1.22936E-12
 -1      1485 1.90889E+01 5.16270E-02 9.78183E-04 7.98216E-02 1.40978E-13 1.46058E-12
 -1      1486 1.95589E+01 7.18367E-02-1.21573E-02 2.98979E-01 2.97783E-13 9.31588E-13
 -1      1487 1.88398E+01 7.11880E-03 6.97663E-03-8.98252E-03 1.15281E-13 9.66987E-13
 -1      1488 1.88544E+01 2.58591E-02 1.10893E-02 5.41759E-03 1.02372E-13 1.12799E-12
 -1      1489 1.92235E+01 3.10322E-02-2.46420E-03 8.34940E-02 2.17030E-13 6.78428E-13
 -1      1490 1.88658E+01 3.20567E-03 4.78317E-03-3.92213E-02 8.22478E-14 7.34230E-13
 -1      1491 1.88221E+01 1.38055E-02 8.52005E-03-3.11027E-02 9.05216E-14 8.83939E-13
 -1      1492 1.91069E+01 1.32567E-02-1.61930E-03-2.14643E-02 1.90081E-13 5.16146E-13
 -1      1493 1.89598E+01 1.04605E-03 3.29508E-03-5.26273E-02 5.08826E-14 5.89881E-13
 -1      1494 1.88894E+01 7.27304E-03 5.36684E-03-4.81578E-02 4.68758E-14 6.64920E-13
 -1      1495 1.91079E+01 4.52815E-03-1.63364E-03-7.29151E-02 1.14443E-13 3.82691E-13
 -1      1496 1.90839E+01-2.04310E-04 2.51320E-03-5.65390E-02 5.48830E-14 4.55802E-13
 -1      1497 1.90039E+01 3.43464E-03 3.43013E-03-5.43310E-02 5.63167E-14 5.44001E-13
 -1      1498 1.91705E+01-1.30893E-04-1.37753E-03-9.54919E-02 9.40677E-14 2.92781E-13
 -1      1499 1.92162E+01-9.12267E-04 2.04895E-03-5.49908E-02 3.01251E-14 3.28113E-13
 -1      1500 1.91362E+01 1.09952E-03 2.32786E-03-5.42052E-02 4.15847E-14 3.97665E-13
 -1      1501 1.92621E+01-2.65305E-03-1.00108E-03-1.01596E-01 9.05616E-14 2.23381E-13
 -1      1502 1.93443E+01-1.27401E-03 1.70502E-03-5.04203E-02 8.79141E-14 1.79279E-13
 -1      1503 1.92697E+01-3.09322E-04 1.65000E-03-5.05147E-02 4.14089E-14 2.74733E-13
 -1      1504 1.93638E+01-3.92349E-03-6.57467E-04-9.82331E-02 1.02387E-13 7.30978E-14
 -1      1505 1.94613E+01-1.40942E-03 1.41495E-03-4.43715E-02 2.70416E-14 1.22512E-13
 -1      1506 1.93948E+01-1.11566E-03 1.19041E-03-4.49837E-02 4.17404E-14 1.72656E-13
 -1      1507 1.94644E+01-4.42166E-03-3.92892E-04-8.96783E-02 8.24656E-14-1.17299E-14
 -1      1508 1.95639E+01-1.39736E-03 1.16079E-03-3.78405E-02 4.40955E-14 5.75482E-14
 -1      1509 1.95066E+01-1.52037E-03 8.59939E-04-3.87250E-02 5.15863E-14 1.29168E-13
 -1      1510 1.95575E+01-4.43616E-03-2.04186E-04-7.86528E-02 6.29646E-14 4.55397E-14
 -1      1511 1.96512E+01-1.29069E-03 9.37834E-04-3.14682E-02 6.55974E-14-6.52534E-14
 -1      1512 1.96032E+01-1.65547E-03 6.17084E-04-3.24579E-02 4.56549E-14-3.01818E-14
 -1      1513 1.96401E+01-4.15176E-03-7.66414E-05-6.69154E-02 9.45176E-14-6.40437E-14
 -1      1514 1.97238E+01-1.12413E-03 7.43770E-04-2.56618E-02 3.33227E-14-1.75918E-13
 -1      1515 1.96845E+01-1.60921E-03 4.38732E-04-2.66428E-02 3.83364E-14-1.37708E-13
 -1      1516 1.97111E+01-3.68896E-03 3.49586E-06-5.56014E-02 8.63303E-14-1.80465E-13
 -1      1517 1.97832E+01-9.18911E-04 5.75960E-04-2.06787E-02 4.02195E-14-3.01297E-13
 -1      1518 1.97515E+01-1.43937E-03 3.09833E-04-2.15720E-02 5.45984E-14-2.00719E-13
 -1      1519 1.97709E+01-3.12437E-03 4.64918E-05-4.54392E-02 8.02744E-14-2.84893E-13
 -1      1520 1.98317E+01-6.86026E-04 4.30975E-04-1.66866E-02-4.39693E-14-2.62198E-13
 -1      1521 1.98062E+01-1.18126E-03 2.19728E-04-1.74350E-02-3.35479E-15-2.88816E-13
 -1      1522 1.98208E+01-2.50281E-03 5.91379E-05-3.69006E-02 4.59437E-14-2.72035E-13
 -1      1523 1.98719E+01-4.28326E-04 3.04593E-04-1.38107E-02-7.99632E-15-2.47337E-13
 -1      1524 1.98511E+01-8.52784E-04 1.60608E-04-1.43674E-02-3.83028E-14-2.88860E-13
 -1      1525 1.98626E+01-1.84526E-03 4.50898E-05-3.03108E-02-1.87708E-14-2.40891E-13
 -1      1526 1.99067E+01-1.42106E-04 1.91887E-04-1.21690E-02 5.46162E-14-3.47145E-13
 -1      1527 1.98890E+01-4.57803E-04 1.26709E-04-1.24891E-02 6.93941E-14-2.49004E-13
 -1      1528 1.98988E+01-1.15420E-03 5.12265E-06-2.59326E-02 5.92241E-14-3.23369E-13
 -1      1529 1.99396E+01 1.81728E-04 8.73365E-05-1.19023E-02-3.25000E-14-4.39041E-13
 -1      1530 1.99231E+01 1.14930E-05 1.13809E-04-1.19347E-02 2.11997E-14-3.93715E-13
 -1      1531 1.99320E+01-4.17523E-04-6.27218E-05-2.40321E-02 1.01839E-13-2.85851E-13
 -1      1532 1.99744E+01 5.56727E-04-1.51093E-05-1.31973E-02-9.42069E-14-3.55308E-13
 -1      1533 1.99570E+01 5.72875E-04 1.18873E-04-1.28780E-02-6.35841E-14-4.20600E-13
 -1      1534 1.99655E+01 3.88536E-04-1.63086E-04-2.49320E-02-4.38780E-14-2.90718E-13
 -1      1535 2.00155E+01 1.00006E-03-1.22040E-04-1.63061E-02-5.44690E-14-2.15827E-13
 -1      1536 1.99949E+01 1.25274E-03 1.39725E-04-1.55519E-02-6.68675E-14-3.14638E-13
 -1      1537 2.00030E+01 1.29704E-03-3.03321E-04-2.90535E-02-1.21734E-13-2.49574E-13
 -1      1538 2.00682E+01 1.53149E-03-2.40655E-04-2.15615E-02 3.06757E-14-9.77117E-14
 -1      1539 2.00415E+01 2.08482E-03 1.74678E-04-2.02640E-02-8.73653E-15-1.76738E-13
 -1      1540 2.00488E+01 2.34821E-03-4.93539E-04-3.69504E-02-5.49653E-14-2.12725E-13
 -1      1541 2.01387E+01 2.17188E-03-3.78885E-04-2.93861E-02 7.75497E-14-2.40831E-13
 -1      1542 2.01025E+01 3.10843E-03 2.22032E-04-2.74069E-02 7.22916E-14-1.03258E-13
 -1      1543 2.01080E+01 3.58683E-03-7.46614E-04-4.93317E-02 5.70528E-14-1.26276E-13
 -1      1544 2.02345E+01 2.94043E-03-5.45510E-04-4.02936E-02 5.64710E-14-4.29096E-13
 -1      1545 2.01847E+01 4.36535E-03 2.79342E-04-3.74601E-02 1.01325E-13-2.79356E-13
 -1      1546 2.01865E+01 5.05837E-03-1.07798E-03-6.70719E-02 1.40308E-13-2.58503E-13
 -1      1547 2.03642E+01 3.84970E-03-7.50083E-04-5.48735E-02-3.02922E-14-2.73983E-13
 -1      1548 2.02960E+01 5.89400E-03 3.42316E-04-5.09788E-02-6.02701E-14-4.03688E-13
 -1      1549 2.02914E+01 6.80214E-03-1.50486E-03-9.11963E-02-1.53667E-14-2.09598E-13
 -1      1550 2.05383E+01 4.89629E-03-1.00219E-03-7.37484E-02-7.03235E-14-2.09080E-13
 -1      1551 2.04459E+01 7.71795E-03 4.03218E-04-6.85573E-02-2.57836E-14-2.54598E-13
 -1      1552 2.04309E+01 8.83855E-03-2.04439E-03-1.22827E-01-7.04699E-14-1.39494E-13
 -1      1553 2.07683E+01 6.04389E-03-1.30887E-03-9.74779E-02-7.19093E-14-6.80901E-14
 -1      1554 2.06452E+01 9.82418E-03 4.48798E-04-9.07465E-02-6.68108E-14-1.65063E-13
 -1      1555 2.06142E+01 1.11455E-02-2.70915E-03-1.63051E-01-1.09478E-13-2.02053E-14
 -1      1556 2.10670E+01 7.19345E-03-1.66767E-03-1.26369E-01-1.92179E-14-4.95983E-14
 -1      1557 2.09059E+01 1.21231E-02 4.58247E-04-1.17890E-01 1.61782E-14-5.39733E-14
 -1      1558 2.08513E+01 1.36152E-02-3.49789E-03-2.12660E-01-1.71519E-14 1.03649E-14
 -1      1559 2.14464E+01 8.13287E-03-2.04986E-03-1.60122E-01 3.16899E-14-7.85587E-14
 -1      1560 2.12402E+01 1.43780E-02 4.02991E-04-1.49822E-01-1.23903E-14-9.78670E-14
 -1      1561 2.11524E+01 1.59776E-02-4.37695E-03-2.71657E-01 1.15396E-14 4.67005E-14
 -1      1562 2.19161E+01 8.45850E-03-2.36475E-03-1.97217E-01 4.22626E-14-1.94000E-13
 -1      1563 2.16591E+01 1.60886E-02 2.52964E-04-1.85330E-01 2.45008E-14-1.89865E-13
 -1      1564 2.15259E+01 1.76721E-02-5.24536E-03-3.38383E-01 4.52060E-14-2.10383E-13
 -1      1565 2.24780E+01 7.46693E-03-2.39220E-03-2.33891E-01-1.66976E-14-2.65850E-13
 -1      1566 2.21686E+01 1.63147E-02-1.48035E-06-2.21279E-01 5.50330E-14-1.86403E-13
 -1      1567 2.19760E+01 1.76484E-02-5.87432E-03-4.08055E-01 5.01708E-14-2.73323E-13
 -1      1568 2.31189E+01 4.04429E-03-1.67765E-03-2.62637E-01-1.95711E-14-1.14421E-13
 -1      1569 2.27642E+01 1.34572E-02-2.98050E-04-2.51287E-01-5.35639E-14-2.36314E-13
 -1      1570 2.24980E+01 1.41019E-02-5.81596E-03-4.70528E-01-1.68210E-14-2.27741E-13
 -1      1571 2.37992E+01-3.34333E-03 5.74748E-04-2.70317E-01 2.44207E-14-6.78103E-14
 -1      1572 2.34218E+01 5.09752E-03-4.12582E-04-2.64024E-01 2.16342E-15-3.98084E-14
 -1      1573 2.30712E+01 4.23743E-03-4.29944E-03-5.07275E-01-8.46876E-14-1.29037E-14
 -1      1574 2.44369E+01-1.62984E-02 5.46361E-03-2.36727E-01 1.01504E-13-9.53786E-14
 -1      1575 2.40848E+01-1.17909E-02 1.38707E-04-2.41744E-01 6.73047E-14 2.26763E-14
 -1      1576 2.36497E+01-1.56183E-02-2.08778E-04-4.88377E-01 3.43692E-14-8.07080E-14
 -1      1577 2.48944E+01-3.52809E-02 1.38540E-02-1.35906E-01-1.13798E-14-2.19890E-13
 -1      1578 2.46496E+01-3.95780E-02 2.09164E-03-1.60844E-01 5.73448E-14-1.70454E-13
 -1      1579 2.41514E+01-4.88256E-02 7.62224E-03-3.72150E-01 1.33111E-13-1.49033E-13
 -1      1580 2.49773E+01-5.70997E-02 2.48578E-02 5.52500E-02-3.46997E-14-3.65074E-13
 -1      1581 2.49564E+01-7.67938E-02 5.97815E-03 1.83687E-03 7.96412E-15-2.75264E-13
 -1      1582 2.44521E+01-9.47771E-02 1.94812E-02-1.13211E-01 5.11310E-14-2.59104E-13
 -1      1583 2.44703E+01-7.17332E-02 3.34320E-02 3.35924E-01 1.33230E-13-4.79398E-13
 -1      1584 2.48023E+01-1.12963E-01 1.09555E-02 2.52131E-01 2.69645E-14-4.61305E-13
 -1      1585 2.43949E+01-1.42639E-01 3.27507E-02 3.12095E-01 7.58907E-14-5.28108E-13
 -1      1586 2.32361E+01-6.25785E-02 2.97468E-02 6.49805E-01-1.84422E-13-2.75786E-13
 -1      1587 2.40007E+01-1.25369E-01 1.33023E-02 5.50871E-01-7.41837E-14-3.31402E-13
 -1      1588 2.38332E+01-1.64239E-01 4.06657E-02 8.59110E-01-8.97043E-14-2.48331E-13
 -1      1589 2.13687E+01-1.68962E-02 4.54844E-03 8.68789E-01-1.72686E-13 2.14800E-13
 -1      1590 2.25017E+01-8.71798E-02 6.98509E-03 7.92774E-01-2.26782E-13-8.61394E-14
 -1      1591 2.27208E+01-1.20716E-01 3.35274E-02 1.36726E+00-3.75294E-13-7.22339E-15
 -1      1592 1.93069E+01 5.45546E-02-3.81633E-02 8.37717E-01 3.38340E-14 3.71800E-13
 -1      1593 2.05354E+01 7.49037E-03-1.10048E-02 8.31695E-01-5.23540E-14 3.38285E-13
 -1      1594 2.12253E+01 8.95039E-03 7.90089E-03 1.57704E+00-1.34811E-13 2.95187E-13
 -1      1595 1.77421E+01 1.10321E-01-7.28525E-02 4.96601E-01 2.34743E-14 2.44270E-13
 -1      1596 1.86496E+01 1.18247E-01-3.30397E-02 5.79597E-01 1.25020E-13 4.43978E-13
 -1      1597 1.97662E+01 1.82715E-01-2.43465E-02 1.27435E+00 7.01939E-14 7.01699E-13
 -1      1598 1.72416E+01 1.08509E-01-7.14241E-02-1.57109E-02 6.12375E-14 1.56458E-13
 -1      1599 1.74986E+01 1.74683E-01-4.23284E-02 1.18031E-01-2.39878E-14 1.77788E-13
 -1      1600 1.88559E+01 2.92983E-01-4.22906E-02 5.09080E-01 5.89875E-14 4.99237E-13
 -1      1601 1.78429E+01 5.12209E-02-3.22402E-02-4.29257E-01-9.53092E-14 1.01884E-13
 -1      1602 1.74404E+01 1.38934E-01-2.91732E-02-3.17848E-01 8.11677E-15 3.43232E-14
 -1      1603 1.87721E+01 2.52184E-01-3.61830E-02-3.50080E-01 6.05314E-14 3.07492E-13
 -1      1604 1.90271E+01-1.74100E-02 1.63399E-02-5.53460E-01 2.83270E-13-1.16601E-13
 -1      1605 1.82813E+01 4.38051E-02-2.06977E-03-5.14201E-01 1.28062E-13 2.10526E-14
 -1      1606 1.93547E+01 8.85948E-02-1.53173E-02-8.68033E-01 1.69635E-13-7.51274E-14
 -1      1607 2.01108E+01-5.62222E-02 4.39357E-02-4.04559E-01 1.69376E-13-5.31512E-13
 -1      1608 1.94300E+01-4.32597E-02 2.04947E-02-4.33669E-01 1.27123E-13-3.91118E-13
 -1      1609 2.01415E+01-8.03060E-02 3.55952E-03-8.68850E-01 3.27373E-13-4.59556E-13
 -1      1610 2.06655E+01-5.49522E-02 4.26202E-02-1.40979E-01 1.26081E-13-8.06636E-13
 -1      1611 2.03045E+01-7.90476E-02 2.72839E-02-1.99558E-01 2.23380E-13-5.51753E-13
 -1      1612 2.06983E+01-1.60391E-01 1.14039E-02-5.02845E-01 2.82253E-13-6.10307E-13
 -1      1613 2.06579E+01-2.63931E-02 2.28275E-02 7.24079E-02 4.22067E-14-9.02623E-13
 -1      1614 2.06338E+01-6.17645E-02 2.00540E-02 2.49619E-02 5.95669E-14-7.81370E-13
 -1      1615 2.08382E+01-1.38977E-01 8.39390E-03-6.36414E-02 1.54106E-13-5.30133E-13
 -1      1616 2.03442E+01 8.49988E-03 1.05127E-03 1.41334E-01 7.20149E-14-9.62048E-13
 -1      1617 2.04962E+01-1.34557E-02 6.73716E-03 1.28882E-01 3.70034E-14-8.57583E-13
 -1      1618 2.06325E+01-5.34060E-02-5.65989E-05 2.07245E-01 9.91334E-14-4.79129E-13
 -1      1619 2.00725E+01 3.54468E-02 3.92051E-03 6.29456E-02-9.38503E-14-1.06277E-12
 -1      1620 2.01815E+01 3.59582E-02-3.29712E-04 8.83912E-02-2.83007E-14-1.10031E-12
 -1      1621 2.02992E+01 4.61373E-02-3.37137E-03 2.11096E-01 1.14830E-13-5.36112E-13
 -1      1622 1.99993E+01 1.84870E-02 4.39636E-03-2.81611E-03-6.37381E-13-7.33022E-13
 -1      1623 2.00776E+01 3.60610E-01-8.63049E-03 1.78779E-01-8.82384E-13 1.63859E-13
 -1      1624 2.00694E+01 1.69961E-01 8.51009E-04 1.36632E-01-9.50972E-13 4.73233E-14
 -1      1625 2.01047E+01 1.12811E+00-1.07703E-02 4.27273E-01-5.39034E-13 3.36660E-13
 -1      1626 2.00985E+01 6.31904E-01-1.17152E-02 3.70670E-01-8.89531E-13 1.56793E-13
 -1      1627 2.01632E+01 5.07741E-01-2.39148E-02 5.34434E-01-3.68363E-13 1.47476E-13
 -1      1628 2.01043E+01 2.45436E+00-1.35958E-02 7.28419E-01-7.56284E-13-1.20239E-13
 -1      1629 2.01166E+01 1.60150E+00-1.76097E-02 6.63258E-01-6.08215E-13 1.59048E-13
 -1      1630 2.01954E+01 1.21452E+00-3.08861E-02 1.05172E+00-4.00940E-13 2.88018E-13
 -1      1631 2.00563E+01 4.31231E+00-1.12143E-02 9.87953E-01-3.10280E-13 1.29957E-13
 -1      1632 2.00962E+01 3.15176E+00-1.84911E-02 9.38917E-01-7.02827E-13 2.92956E-13
 -1      1633 2.01693E+01 2.34758E+00-3.15057E-02 1.59812E+00-5.38680E-13 1.73625E-13
 -1      1634 1.99560E+01 6.38537E+00-1.64815E-03 1.06170E+00-2.16577E-13 3.80895E-14
 -1      1635 2.00199E+01 5.14525E+00-1.04630E-02 1.06275E+00-2.88616E-13-1.49351E-13
 -1      1636 2.00584E+01 3.85807E+00-1.45444E-02 1.95650E+00-3.05915E-13 5.57185E-14
 -1      1637 1.98341E+01 8.21797E+00 1.35330E-02 8.30441E-01 2.41751E-13 2.97025E-13
 -1      1638 1.99001E+01 7.20037E+00 5.58908E-03 9.04332E-01-2.16216E-13 2.84845E-13
 -1      1639 1.98736E+01 5.50308E+00 1.88038E-02 1.87266E+00-1.11026E-13 2.00239E-13
 -1      1640 1.97585E+01 9.16629E+00 2.47837E-02 2.98502E-01 6.69130E-13-1.01030E-14
 -1      1641 1.97894E+01 8.74142E+00 2.09696E-02 4.30578E-01 4.45782E-13 1.37952E-13
 -1      1642 1.96845E+01 6.85287E+00 5.63114E-02 1.19985E+00-1.78017E-14 4.00468E-13
 -1      1643 1.97779E+01 8.86775E+00 2.33183E-02-3.53015E-01 8.69492E-13 7.88744E-14
 -1      1644 1.97548E+01 9.19991E+00 2.58114E-02-2.16154E-01 7.48240E-13 1.55508E-13
 -1      1645 1.95957E+01 7.41892E+00 7.48532E-02 7.81557E-02 5.03101E-13 1.23044E-13
 -1      1646 1.98810E+01 7.42833E+00 9.17266E-03-8.67323E-01 2.47052E-13-2.22709E-13
 -1      1647 1.98176E+01 8.39508E+00 1.67871E-02-7.82241E-01 4.90941E-13-1.49205E-13
 -1      1648 1.96628E+01 6.97409E+00 6.21404E-02-1.08071E+00 4.11438E-13-3.11126E-13
 -1      1649 2.00060E+01 5.36236E+00-8.17497E-03-1.07382E+00 5.20417E-15-2.51110E-13
 -1      1650 1.99378E+01 6.62744E+00 1.17215E-03-1.06367E+00 2.85674E-13-1.41572E-13
 -1      1651 1.98423E+01 5.68758E+00 2.51384E-02-1.83933E+00 2.17069E-13-2.32151E-13
 -1      1652 2.00917E+01 3.32606E+00-1.76156E-02-9.80084E-01-4.34167E-13-1.14160E-13
 -1      1653 2.00469E+01 4.50929E+00-1.02418E-02-1.02478E+00-3.55688E-14-3.64056E-13
 -1      1654 2.00401E+01 4.03115E+00-1.04794E-02-2.00222E+00 8.84848E-14-5.33979E-13
 -1      1655 2.01220E+01 1.68670E+00-1.81630E-02-7.05913E-01-5.20313E-14 1.88051E-13
 -1      1656 2.01056E+01 2.58988E+00-1.38852E-02-7.74210E-01-4.09957E-13 4.07559E-13
 -1      1657 2.01651E+01 2.46005E+00-3.10238E-02-1.68077E+00 1.33865E-13 2.31299E-13
 -1      1658 2.01069E+01 6.52583E-01-1.22097E-02-3.95979E-01 1.46426E-13 1.34677E-13
 -1      1659 2.01127E+01 1.18358E+00-1.09202E-02-4.57346E-01 5.52683E-14 8.66026E-14
 -1      1660 2.02007E+01 1.25410E+00-3.43024E-02-1.12321E+00 1.57947E-13 2.22461E-13
 -1      1661 2.00766E+01 1.74048E-01 1.90362E-03-1.59219E-01 1.05266E-13 7.00481E-14
 -1      1662 2.00759E+01 3.78757E-01-7.69156E-03-1.89200E-01 1.79367E-13 2.56019E-14
 -1      1663 2.01693E+01 5.11181E-01-2.49734E-02-5.72242E-01 7.56131E-14-7.71935E-14
 -1      1664 2.00617E+01 4.27367E-02 8.14183E-03-3.64185E-02-4.27349E-14-1.26298E-13
 -1      1665 2.00757E+01 6.68883E-02-2.32845E-03-6.24327E-02 8.86773E-14-4.72617E-14
 -1      1666 2.01528E+01 1.89258E-01-6.45000E-03-2.20456E-01 5.90604E-14-3.03889E-14
 -1      1667 2.00913E+01 4.95209E-02-9.60403E-03-6.41357E-02-4.31786E-14-2.81621E-13
 -1      1668-8.14648E-01-1.74942E+01-1.98806E+00-1.31801E+00-8.62643E-14-5.55112E-16
 -1      1669-7.56771E-01-2.00386E+01-2.24145E+00 2.94014E-01-3.50137E-13-6.82787E-15
 -1      1670 2.06444E+00-9.17342E+00-1.23251E+00 1.07281E+00 2.90434E-13 3.66318E-13
 -1      1671 1.03053E+00-1.52290E+01-1.85763E+00 2.08854E-01-5.10703E-15 1.99483E-13
 -1      1672 7.64780E+00-6.84947E-01-5.43999E-01 4.98038E+00 8.02691E-13 8.41549E-13
 -1      1673 4.40981E+00-6.77718E+00-1.38269E+00 1.91251E+00 5.32463E-13 4.77729E-13
 -1      1674 1.87207E+01 5.18920E+00 2.70029E-01 1.05033E+01 7.94032E-13 4.14113E-13
 -1      1675 1.16932E+01 1.46835E+00-6.91046E-01 6.43289E+00 9.38583E-13 6.21503E-13
 -1      1676 3.51054E+01 6.03373E+00 1.03747E+00 1.27476E+01 2.10831E-13-1.11022E-15
 -1      1677 2.50462E+01 5.60870E+00 1.60375E-01 1.06738E+01 4.17222E-13 2.69118E-13
 -1      1678 4.92999E+01 5.27970E+00 1.66074E+00 1.00542E+01 1.25223E-13-2.14606E-13
 -1      1679 4.00930E+01 6.88024E+00 9.58081E-01 1.19386E+01 1.75665E-13-8.43769E-15
 -1      1680 5.81807E+01 3.83468E+00 2.08781E+00 3.88349E+00-1.50713E-14-4.68792E-13
 -1      1681 5.38334E+01 5.22846E+00 1.79117E+00 9.23182E+00 1.13021E-13-3.08531E-13
 -1      1682 5.55289E+01 4.18412E+00 1.76236E+00-4.90040E+00 1.80606E-13-5.43121E-13
 -1      1683 5.82450E+01 3.73443E+00 2.03032E+00 1.09196E+00 4.03566E-14-4.98143E-13
 -1      1684 4.36322E+01 5.75041E+00 1.09309E+00-1.02358E+01 4.77160E-13-8.10463E-13
 -1      1685 5.20847E+01 4.18215E+00 1.71208E+00-6.97510E+00 3.55077E-13-4.84834E-13
 -1      1686 2.85272E+01 6.08294E+00 3.40999E-01-1.10855E+01 7.87592E-13-9.85878E-13
 -1      1687 3.87445E+01 5.57962E+00 1.19741E+00-1.19587E+01 5.13978E-13-9.54126E-13
 -1      1688 1.45982E+01 2.02221E+00-5.14289E-01-6.83936E+00 8.54539E-13-8.55649E-13
 -1      1689 2.29473E+01 4.81013E+00 4.38416E-01-1.05898E+01 8.40550E-13-9.52127E-13
 -1      1690 5.22104E+00-4.58261E+00-1.24232E+00-2.18723E+00 6.94778E-13-6.85230E-13
 -1      1691 9.26255E+00 6.15433E-01-4.29732E-01-5.57549E+00 9.33476E-13-8.32889E-13
 -1      1692 9.19712E-01-1.29278E+01-1.76505E+00 6.30134E-01 3.58380E-13-3.17968E-13
 -1      1693 2.17379E+00-6.94946E+00-1.15275E+00-7.54186E-01 6.03517E-13-6.78568E-13
 -1      1694-5.32257E-01-1.82819E+01-1.97256E+00 4.08226E-01 1.66200E-13-1.25261E-13
 -1      1695-5.77882E-01-1.48657E+01-1.69398E+00 1.44319E+00 2.63678E-13 4.77951E-14
 -1      1696-8.71138E-01-1.81386E+01-1.87266E+00-8.99038E-01-8.95783E-13-6.86479E-13
 -1      1697-8.73703E-01-1.87599E+01-1.94231E+00 8.09758E-01-7.96863E-14-4.71734E-13
 -1      1698-8.36937E-03-1.28481E+01-1.49681E+00-7.77412E-01-1.70064E-12-7.39880E-13
 -1      1699-2.02297E-01-1.69687E+01-1.86296E+00-2.79403E-01-1.11522E-12-6.30773E-13
 -1      1700 3.34364E+00-4.87118E+00-9.66625E-01 1.88457E+00-2.07834E-12-1.39422E-12
 -1      1701 1.58314E+00-1.09529E+01-1.64963E+00-4.78428E-02-1.85663E-12-1.00864E-12
 -1      1702 1.35612E+01 1.67710E+00-1.21953E-01 7.52003E+00-1.51479E-12-1.19382E-12
 -1      1703 8.13221E+00-3.16461E+00-9.78312E-01 3.75561E+00-1.88516E-12-1.06781E-12
 -1      1704 2.85212E+01 5.31226E+00 7.38559E-01 1.14337E+01-1.02141E-12-8.51319E-13
 -1      1705 1.89326E+01 3.49667E+00-2.20295E-01 8.22603E+00-1.26676E-12-1.10989E-12
 -1      1706 4.42981E+01 5.64349E+00 1.56816E+00 1.18571E+01-4.68403E-13-1.10134E-13
 -1      1707 3.41253E+01 6.87558E+00 7.31087E-01 1.22971E+01-9.24372E-13-6.32827E-13
 -1      1708 5.56298E+01 3.79825E+00 1.93450E+00 5.61043E+00-5.52058E-14 3.24407E-13
 -1      1709 4.90251E+01 5.45666E+00 1.52066E+00 1.01699E+01-2.05280E-13 1.66533E-14
 -1      1710 5.69434E+01 4.05383E+00 1.87976E+00-3.39046E+00-9.29257E-14 3.52274E-13
 -1      1711 5.66018E+01 3.99787E+00 1.84532E+00 2.49650E+00-3.11973E-14 3.38618E-13
 -1      1712 5.07652E+01 5.80272E+00 1.66076E+00-1.07967E+01 4.56302E-14 2.76223E-13
 -1      1713 5.64083E+01 4.09935E+00 1.99904E+00-6.23925E+00 3.98015E-14 4.87665E-13
 -1      1714 3.74044E+01 7.38948E+00 9.98095E-01-1.31465E+01 4.43534E-14-2.08722E-14
 -1      1715 4.66020E+01 5.92728E+00 1.68361E+00-1.22009E+01 3.21410E-14 1.14464E-13
 -1      1716 2.30865E+01 6.48725E+00 2.10752E-01-1.12564E+01-4.51861E-14 1.59872E-14
 -1      1717 3.20933E+01 7.17536E+00 1.08349E+00-1.36600E+01 9.76996E-15-4.13003E-14
 -1      1718 1.12256E+01 1.12029E+00-6.79720E-01-6.16277E+00-5.37570E-13 3.77476E-14
 -1      1719 1.78940E+01 5.14956E+00 2.98476E-01-1.02377E+01-1.47882E-13-7.19425E-14
 -1      1720 4.09616E+00-7.76870E+00-1.46424E+00-1.63545E+00-1.11244E-12 3.08586E-13
 -1      1721 7.34830E+00-1.40406E+00-5.80844E-01-4.76120E+00-8.60201E-13-1.77636E-15
 -1      1722 5.12999E-01-1.58703E+01-2.02764E+00 3.57443E-01-9.73222E-13 5.75710E-13
 -1      1723 1.19216E+00-1.01247E+01-1.42098E+00-1.66256E-01-1.11999E-12 4.97991E-13
 -1      1724-6.71360E-01-1.96963E+01-2.18055E+00-3.34228E-01-5.09148E-13 2.86771E-13
 -1      1725-6.66366E-01-1.72460E+01-1.95193E+00 1.11847E+00-1.06692E-12 7.87093E-13
 -1      1726 2.71197E+01 5.80480E-01 4.32074E-01 7.83234E+00 4.62630E-13-2.30260E-13
 -1      1727 1.54929E+01-3.62024E+00-3.39287E-01 7.09008E+00 5.46563E-13 4.30378E-13
 -1      1728 2.00600E+01 6.19045E-02-3.33561E-03 5.39377E-02-8.46129E-13-4.84617E-13
 -1      1729 2.01386E+01 1.75083E-01-1.09226E-02 2.19930E-01-2.50477E-13-1.19827E-13
 -1      1730 9.20048E-01-1.18224E+01-1.26444E+00 3.09384E+00-1.81910E-13 1.76692E-13
 -1      1731 6.97159E+00-8.51679E+00-9.41499E-01 5.31407E+00 1.30007E-13 5.30589E-13
 -1      1732-1.60773E+00-1.36881E+01-1.58315E+00-1.12886E-01-2.41682E-13 4.02900E-13
 -1      1733 3.74353E+01 3.99727E+00 8.81379E-01 5.94149E+00 1.99715E-13-1.01141E-13
 -1      1734 4.55015E+01 6.95167E+00 1.34564E+00 4.39022E+00 1.65923E-13-2.50133E-13
 -1      1735 4.99848E+01 7.74912E+00 1.70244E+00 1.65169E+00 7.41629E-14-2.19907E-13
 -1      1736 4.66494E+01 7.13032E+00 1.41647E+00-1.79164E+00 3.09586E-13-3.41172E-13
 -1      1737 3.96366E+01 4.70559E+00 1.01744E+00-4.97580E+00 5.28536E-13-6.38711E-13
 -1      1738 2.92104E+01 1.13585E+00 4.29462E-01-6.63830E+00 5.40845E-13-5.90528E-13
 -1      1739 1.78505E+01-2.86790E+00-1.70419E-01-6.42150E+00 5.36238E-13-6.48370E-13
 -1      1740 7.88350E+00-7.14659E+00-7.82185E-01-4.58546E+00 4.69846E-13-7.62918E-13
 -1      1741 1.46497E+00-1.11623E+01-1.22253E+00-2.44843E+00 2.24376E-13-3.02203E-13
 -1      1742-1.42340E+00-1.32713E+01-1.41093E+00-5.32719E-01-2.22239E-13-5.88474E-13
 -1      1743-9.55989E-01-1.26016E+01-1.33129E+00 1.36319E+00-5.99409E-13-9.29479E-13
 -1      1744 2.73069E+00-1.00323E+01-1.09953E+00 3.31234E+00-1.02873E-12-9.60468E-13
 -1      1745 1.09427E+01-6.06794E+00-4.98775E-01 5.76618E+00-1.19538E-12-6.70325E-13
 -1      1746 2.21605E+01-2.36083E+00 5.01688E-02 6.61908E+00-9.17599E-13-3.87579E-13
 -1      1747 3.27774E+01 2.26069E+00 4.99170E-01 6.35262E+00-9.06830E-13-1.11022E-16
 -1      1748 4.33440E+01 5.85448E+00 1.30206E+00 5.39206E+00-5.60038E-13 2.30926E-13
 -1      1749 4.84288E+01 7.63118E+00 1.59961E+00 1.50503E+00-8.23785E-14 1.01030E-13
 -1      1750 4.88452E+01 7.88093E+00 1.63939E+00-2.62802E+00 6.13953E-14 1.40221E-13
 -1      1751 4.45442E+01 6.67162E+00 1.41769E+00-5.86173E+00 7.21090E-14 1.68088E-13
 -1      1752 3.58815E+01 4.38139E+00 9.44910E-01-7.91919E+00 3.74700E-15-8.61533E-14
 -1      1753 2.52414E+01 8.61347E-01 3.10147E-01-8.28925E+00-1.51656E-13-2.53353E-13
 -1      1754 1.49060E+01-4.09775E+00-3.98885E-01-6.99462E+00-5.19140E-13-4.46643E-13
 -1      1755 6.25835E+00-8.81338E+00-9.73834E-01-5.02295E+00-5.35127E-13 1.31728E-13
 -1      1756 4.84938E-01-1.23710E+01-1.41572E+00-2.51629E+00-4.78506E-13 6.13620E-13
 -1      1757 2.28608E+01 1.98484E+00-2.35569E-02-2.72231E+00-3.92131E-13 1.37129E-12
 -1      1758 1.98223E+01 3.71854E+00-3.49150E-02-2.15486E+00-4.83254E-13-6.13187E-13
 -1      1759 2.00517E+01 3.56059E+00-4.29497E-02-2.44142E+00-5.55663E-13-4.62408E-13
 -1      1760 2.03656E+01 3.18233E+00-4.52294E-02-2.58484E+00-5.63340E-13-2.59189E-13
 -1      1761 2.05848E+01 2.80920E+00-1.42621E-01-2.85309E+00-6.04444E-13 2.33771E-14
 -1      1762 2.04305E+01 2.69121E+00-3.00067E-03-2.22121E+00-5.86141E-13-3.28060E-13
 -1      1763 1.93544E+01 4.18902E+00-2.01874E-02-1.27028E+00-2.59150E-13-8.69072E-13
 -1      1764 1.94278E+01 4.14930E+00-1.71710E-02-1.49469E+00-3.15884E-13-8.37448E-13
 -1      1765 1.92575E+01 4.29474E+00-1.68053E-02-8.59507E-01-1.57779E-13-8.99236E-13
 -1      1766 1.93003E+01 4.27080E+00-1.43565E-02-1.07025E+00-2.09749E-13-8.95159E-13
 -1      1767 1.95261E+01 3.78305E+00-9.27853E-03-1.11933E+00-2.53578E-13-8.46980E-13
 -1      1768 1.92060E+01 4.35511E+00-1.48056E-02-4.66708E-01-4.14742E-14-8.83007E-13
 -1      1769 1.92279E+01 4.34228E+00-1.33271E-02-6.66983E-01-9.65812E-14-8.88409E-13
 -1      1770 1.94288E+01 3.90333E+00-9.22746E-03-7.33091E-01-1.38852E-13-8.62786E-13
 -1      1771 1.91865E+01 4.38072E+00-1.36691E-02-8.36075E-02 5.63770E-14-8.72271E-13
 -1      1772 1.91930E+01 4.37680E+00-1.32166E-02-2.79021E-01 8.77540E-15-8.82037E-13
 -1      1773 1.93785E+01 3.96779E+00-9.16376E-03-3.58229E-01-2.32056E-14-8.53023E-13
 -1      1774 1.91946E+01 4.37543E+00-1.31697E-02 2.98076E-01 1.59352E-13-8.49586E-13
 -1      1775 1.91870E+01 4.37989E+00-1.37518E-02 1.02502E-01 1.11318E-13-8.64617E-13
 -1      1776 1.93637E+01 3.98720E+00-9.14717E-03 1.05628E-02 8.82099E-14-8.46836E-13
 -1      1777 1.92321E+01 4.33826E+00-1.33279E-02 6.86743E-01 2.52498E-13-8.24382E-13
 -1      1778 1.92088E+01 4.35194E+00-1.49161E-02 4.85970E-01 2.10141E-13-8.39136E-13
 -1      1779 1.93812E+01 3.96450E+00-9.18845E-03 3.79538E-01 1.93846E-13-8.19914E-13
 -1      1780 1.93058E+01 4.26487E+00-1.44091E-02 1.08434E+00 3.46518E-13-7.65754E-13
 -1      1781 1.92623E+01 4.28933E+00-1.69718E-02 8.76398E-01 2.94383E-13-8.04405E-13
 -1      1782 1.94342E+01 3.89701E+00-9.19333E-03 7.51634E-01 2.93923E-13-7.94495E-13
 -1      1783 1.94377E+01 4.13769E+00-1.74021E-02 1.51428E+00 4.67269E-13-6.41490E-13
 -1      1784 1.93611E+01 4.18026E+00-2.05018E-02 1.28477E+00 4.03166E-13-7.11516E-13
 -1      1785 1.95341E+01 3.77312E+00-9.23892E-03 1.13533E+00 4.10679E-13-7.08423E-13
 -1      1786 1.96673E+01 3.92115E+00-2.51921E-02 1.97930E+00 5.75763E-13-4.60257E-13
 -1      1787 1.95343E+01 3.99790E+00-2.69043E-02 1.72198E+00 5.13634E-13-5.71314E-13
 -1      1788 1.97078E+01 3.56605E+00-8.69550E-03 1.53497E+00 5.27517E-13-5.61436E-13
 -1      1789 2.00765E+01 3.52281E+00-4.51834E-02 2.47173E+00 6.47231E-13-1.46255E-13
 -1      1790 1.98361E+01 3.68326E+00-3.97250E-02 2.18262E+00 5.98775E-13-3.32810E-13
 -1      1791 2.00047E+01 3.22290E+00-5.27117E-03 1.93425E+00 6.17708E-13-3.55643E-13
 -1      1792 2.09222E+01 2.68182E+00-5.76469E-02 2.85747E+00 6.36065E-13 4.76175E-13
 -1      1793 2.04146E+01 3.09695E+00-5.04297E-02 2.61566E+00 6.30384E-13 9.84837E-14
 -1      1794 2.05183E+01 2.60994E+00 3.18785E-03 2.24423E+00 6.59969E-13-7.71258E-15
 -1      1795 2.17328E+01 1.21297E+00-1.22093E-01 2.32960E+00 5.31103E-13 1.21644E-12
 -1      1796 2.12762E+01 2.26305E+00 1.17074E-04 2.74017E+00 5.83891E-13 7.30804E-13
 -1      1797 2.09389E+01 1.68502E+00-2.29570E-02 2.13989E+00 6.43114E-13 4.67557E-13
 -1      1798 2.09542E+01 7.78672E-01-6.24455E-02 1.52391E+00 5.34392E-13 1.04226E-12
 -1      1799 2.17988E+01 2.45802E+00 9.08940E-02-3.04799E+00-5.26490E-13 5.06123E-13
 -1      1800 2.01035E+01 2.97944E-01-8.91368E-03 6.56765E-01 4.16306E-13 7.79885E-13
 -1      1801 2.06555E+01 4.40409E-01-1.24665E-02 1.03380E+00 4.48218E-13 9.40694E-13
 -1      1802 2.07465E+01 8.45120E-01 2.24635E-03 1.41484E+00 5.41935E-13 6.08154E-13
 -1      1803 2.15092E+01 1.74230E+00 7.95246E-02-2.33714E+00-5.64944E-13 3.09267E-13
 -1      1804 2.05225E+01 5.00741E-01 3.24827E-02-9.21303E-01-4.34142E-13 2.32979E-13
 -1      1805 2.00912E+01 3.52053E-01 7.72216E-03-6.29452E-01-3.78192E-13 1.29651E-13
 -1      1806 1.98964E+01 2.57343E-01 2.74066E-02-3.91047E-01-3.41714E-13 1.22935E-13
 -1      1807 1.97057E+01 1.78048E-01 1.04294E-02-2.53167E-01-2.86505E-13 2.16823E-14
 -1      1808 2.02005E+01 4.83347E-01-5.91834E-03-7.22500E-01-4.20110E-13-6.84457E-14
 -1      1809 1.95837E+01 1.32568E-01 1.66450E-02-1.19776E-01-2.43287E-13 2.40433E-15
 -1      1810 1.95056E+01 9.29762E-02 6.97498E-03-4.90571E-02-1.97339E-13-7.97470E-14
 -1      1811 1.98747E+01 2.43873E-01-5.72923E-03-2.95453E-01-3.26400E-13-1.30783E-13
 -1      1812 1.94407E+01 6.83176E-02 8.67093E-03 2.43857E-02-1.70434E-13-1.04353E-13
 -1      1813 1.94261E+01 4.66084E-02 4.08615E-03 6.04974E-02-1.61474E-13-1.67644E-13
 -1      1814 1.96920E+01 1.25020E-01-4.66097E-03-5.88389E-02-2.40490E-13-2.00751E-13
 -1      1815 1.94000E+01 3.22303E-02 4.22289E-03 9.91004E-02-1.73942E-13-1.75248E-13
 -1      1816 1.94196E+01 1.97454E-02 2.41460E-03 1.15764E-01-1.86414E-13-2.33027E-13
 -1      1817 1.96054E+01 6.07478E-02-3.46440E-03 7.05499E-02-2.05579E-13-2.48038E-13
 -1      1818 1.94177E+01 1.10748E-02 1.84422E-03 1.33508E-01-1.69011E-13-2.01345E-13
 -1      1819 1.94545E+01 3.86151E-03 1.43249E-03 1.38782E-01-1.33477E-13-2.23371E-13
 -1      1820 1.95809E+01 2.37280E-02-2.33321E-03 1.36619E-01-1.77349E-13-2.66231E-13
 -1      1821 1.94668E+01-1.35600E-03 5.44172E-04 1.43953E-01-1.64065E-13-2.26942E-13
 -1      1822 1.95106E+01-5.36585E-03 8.18259E-04 1.42555E-01-1.56899E-13-2.70759E-13
 -1      1823 1.95940E+01 2.10830E-03-1.42976E-03 1.64497E-01-1.69733E-13-2.60329E-13
 -1      1824 1.95303E+01-8.37563E-03-1.76869E-04 1.40283E-01-1.62740E-13-2.56939E-13
 -1      1825 1.95751E+01-1.03613E-02 4.21173E-04 1.35153E-01-1.25596E-13-2.88728E-13
 -1      1826 1.96281E+01-1.02239E-02-7.82993E-04 1.69358E-01-1.64377E-13-2.72403E-13
 -1      1827 1.95978E+01-1.19158E-02-5.62607E-04 1.28745E-01-1.10806E-13-3.20133E-13
 -1      1828 1.96402E+01-1.26010E-02 1.68458E-04 1.21781E-01-9.57479E-14-3.89158E-13
 -1      1829 1.96720E+01-1.66800E-02-3.50797E-04 1.60799E-01-1.65252E-13-2.70707E-13
 -1      1830 1.96632E+01-1.31866E-02-7.41837E-04 1.13411E-01-9.91405E-14-4.59944E-13
 -1      1831 1.97014E+01-1.30372E-02 1.82697E-05 1.05856E-01-6.59013E-14-5.09638E-13
 -1      1832 1.97189E+01-1.93318E-02-7.89582E-05 1.45075E-01-1.47824E-13-3.39921E-13
 -1      1833 1.97231E+01-1.29784E-02-7.90675E-04 9.69589E-02-7.14981E-14-5.58047E-13
 -1      1834 1.97564E+01-1.22985E-02-5.65414E-05 8.96238E-02-7.63732E-14-5.78532E-13
 -1      1835 1.97646E+01-1.95087E-02 7.76493E-05 1.26323E-01-1.06291E-13-4.27390E-13
 -1      1836 1.97761E+01-1.18118E-02-7.57431E-04 8.11494E-02-4.16070E-14-5.60291E-13
 -1      1837 1.98045E+01-1.07955E-02-7.40123E-05 7.45629E-02-8.65201E-15-5.54000E-13
 -1      1838 1.98067E+01-1.80811E-02 1.52394E-04 1.07283E-01-4.59262E-14-4.20678E-13
 -1      1839 1.98220E+01-1.00205E-02-6.73616E-04 6.71412E-02-3.92825E-14-5.19396E-13
 -1      1840 1.98460E+01-8.78269E-03-4.55176E-05 6.16532E-02-5.70624E-14-4.83950E-13
 -1      1841 1.98445E+01-1.56101E-02 1.68847E-04 8.97767E-02-4.07874E-15-3.92823E-13
 -1      1842 1.98616E+01-7.80142E-03-5.59631E-04 5.57169E-02-7.57142E-14-4.87245E-13
 -1      1843 1.98821E+01-6.39801E-03 2.27569E-05 5.15749E-02-3.10024E-14-4.96640E-13
 -1      1844 1.98780E+01-1.24354E-02 1.43095E-04 7.50341E-02-7.24189E-14-3.72471E-13
 -1      1845 1.98962E+01-5.24867E-03-4.28195E-04 4.74491E-02-2.52301E-14-5.08054E-13
 -1      1846 1.99143E+01-3.69036E-03 1.28747E-04 4.48556E-02-3.98747E-14-4.92589E-13
 -1      1847 1.99080E+01-8.73112E-03 8.56069E-05 6.39338E-02-4.47518E-14-3.84320E-13
 -1      1848 1.99277E+01-2.37761E-03-2.86651E-04 4.28261E-02-1.08810E-13-5.19261E-13
 -1      1849 1.99447E+01-6.40409E-04 2.73643E-04 4.19825E-02-1.21316E-13-5.52223E-13
 -1      1850 1.99357E+01-4.54563E-03 2.68813E-06 5.71819E-02-9.94431E-14-4.28861E-13
 -1      1851 1.99583E+01 8.56474E-04-1.38655E-04 4.23469E-02-7.73415E-14-5.36438E-13
 -1      1852 1.99757E+01 2.82259E-03 4.61075E-04 4.34867E-02-5.85026E-14-5.34749E-13
 -1      1853 1.99628E+01 1.68864E-04-1.02394E-04 5.54476E-02-7.96621E-14-3.75408E-13
 -1      1854 1.99906E+01 4.54219E-03 1.44935E-05 4.65917E-02-5.49445E-14-5.90140E-13
 -1      1855 2.00104E+01 6.80504E-03 6.96191E-04 5.00041E-02-9.48395E-15-6.75302E-13
 -1      1856 1.99913E+01 5.53131E-03-2.28447E-04 5.94629E-02-8.98058E-14-3.71201E-13
 -1      1857 2.00278E+01 8.79595E-03 1.72700E-04 5.62699E-02 4.41232E-14-7.04516E-13
 -1      1858 2.00519E+01 1.14318E-02 9.84455E-04 6.23130E-02 8.95475E-14-6.75228E-13
 -1      1859 2.00237E+01 1.17078E-02-3.75453E-04 7.00917E-02 6.78869E-15-4.76621E-13
 -1      1860 2.00734E+01 1.37429E-02 3.35984E-04 7.22422E-02 1.34191E-13-7.24475E-13
 -1      1861 2.01042E+01 1.68237E-02 1.32988E-03 8.13441E-02 1.01099E-13-6.65829E-13
 -1      1862 2.00629E+01 1.88838E-02-5.43681E-04 8.83673E-02 1.21325E-13-5.67691E-13
 -1      1863 2.01315E+01 1.94908E-02 5.03344E-04 9.55110E-02 1.62310E-14-5.92512E-13
 -1      1864 2.01716E+01 2.30655E-02 1.73234E-03 1.08153E-01 5.91990E-14-5.32517E-13
 -1      1865 2.01119E+01 2.72273E-02-7.32743E-04 1.15490E-01 1.25491E-13-5.69221E-13
 -1      1866 2.02066E+01 2.60906E-02 6.71513E-04 1.27166E-01 4.80225E-14-4.94786E-13
 -1      1867 2.02592E+01 3.01556E-02 2.18340E-03 1.43839E-01 1.71779E-14-5.60638E-13
 -1      1868 2.01746E+01 3.68341E-02-9.40549E-04 1.52771E-01 5.52698E-14-4.58661E-13
 -1      1869 2.03040E+01 3.34757E-02 8.33542E-04 1.68259E-01-5.36561E-15-4.99300E-13
 -1      1870 2.03723E+01 3.79277E-02 2.66000E-03 1.89378E-01-2.46808E-15-5.14160E-13
 -1      1871 2.02549E+01 4.76420E-02-1.16218E-03 2.01504E-01 5.58823E-14-4.51002E-13
 -1      1872 2.04291E+01 4.13656E-02 9.77296E-04 2.19578E-01-4.78495E-14-5.43344E-13
 -1      1873 2.05167E+01 4.59286E-02 3.11515E-03 2.45332E-01-1.66989E-13-5.96414E-13
 -1      1874 2.03572E+01 5.92979E-02-1.38878E-03 2.62712E-01-2.59122E-14-4.67586E-13
 -1      1875 2.05877E+01 4.91182E-02 1.08410E-03 2.81256E-01-2.27873E-13-5.51941E-13
 -1      1876 2.06976E+01 5.32323E-02 3.46499E-03 3.11361E-01-1.18966E-13-5.87425E-13
 -1      1877 2.04861E+01 7.09510E-02-1.60666E-03 3.36729E-01-1.53680E-13-4.55623E-13
 -1      1878 2.07850E+01 5.55081E-02 1.12822E-03 3.52145E-01-3.61329E-14-6.42823E-13
 -1      1879 2.09197E+01 5.81695E-02 3.57249E-03 3.85451E-01 2.98429E-14-6.32851E-13
 -1      1880 2.06458E+01 8.09419E-02-1.79697E-03 4.22520E-01-9.87029E-14-4.64978E-13
 -1      1881 2.10249E+01 5.84158E-02 1.07837E-03 4.28854E-01 1.00257E-13-6.22001E-13
 -1      1882 2.11849E+01 5.79672E-02 3.23085E-03 4.62764E-01 1.11195E-13-5.59036E-13
 -1      1883 2.08401E+01 8.63640E-02-1.93612E-03 5.16645E-01 6.77623E-14-5.95563E-13
 -1      1884 2.13089E+01 5.44358E-02 9.03073E-04 5.04357E-01 4.27020E-14-5.52313E-13
 -1      1885 2.14917E+01 4.83437E-02 2.15512E-03 5.34018E-01-5.40833E-14-5.56933E-13
 -1      1886 2.10711E+01 8.25041E-02-1.99636E-03 6.11765E-01 6.43730E-14-5.72759E-13
 -1      1887 2.16338E+01 3.85015E-02 5.81043E-04 5.66132E-01-1.13800E-13-5.24462E-13
 -1      1888 2.18315E+01 2.32434E-02 2.11259E-06 5.83473E-01-4.01096E-14-5.50284E-13
 -1      1889 2.13387E+01 6.22824E-02-1.94422E-03 6.94622E-01-3.12390E-14-4.53162E-13
 -1      1890 2.19893E+01 3.81736E-03 1.14150E-04 5.94057E-01 1.26289E-14-4.44858E-13
 -1      1891 2.21866E+01-2.48122E-02-3.54773E-03 5.86943E-01 6.95680E-14-3.53364E-13
 -1      1892 2.16393E+01 1.60740E-02-1.72981E-03 7.43689E-01 3.13552E-14-3.00777E-13
 -1      1893 2.23545E+01-5.72232E-02-4.74713E-04 5.58844E-01 1.02207E-13-3.81437E-13
 -1      1894 2.25262E+01-1.02785E-01-8.58963E-03 5.11117E-01 1.75374E-13-3.83495E-13
 -1      1895 2.19636E+01-6.71834E-02-1.25644E-03 7.27140E-01 1.33814E-13-1.95925E-13
 -1      1896 2.26937E+01-1.49879E-01-1.16641E-03 4.22977E-01 5.38055E-14-3.24412E-13
 -1      1897 2.28040E+01-2.12126E-01-1.46476E-02 3.16889E-01 1.15983E-13-2.76573E-13
 -1      1898 2.22945E+01-1.95942E-01-3.14902E-04 6.02926E-01 1.39536E-13-1.40128E-13
 -1      1899 2.29528E+01-2.70200E-01-2.07361E-03 1.47823E-01 1.82299E-13-2.77028E-13
 -1      1900 2.29577E+01-3.39454E-01-2.01817E-02-2.89944E-02 1.80956E-13-3.29622E-13
 -1      1901 2.26030E+01-3.66917E-01 1.48348E-03 3.24489E-01 1.48091E-13-1.96218E-13
 -1      1902 2.30577E+01-3.93677E-01-3.50102E-03-2.87891E-01 2.07675E-13-3.23606E-13
 -1      1903 2.29149E+01-4.44350E-01-2.22654E-02-5.29056E-01 2.16082E-13-2.38201E-13
 -1      1904 2.28420E+01-5.49738E-01 4.71137E-03-1.42550E-01 2.03708E-13-2.03856E-13
 -1      1905 2.29218E+01-4.64459E-01-5.88878E-03-8.54549E-01 7.16475E-14-2.38483E-13
 -1      1906 2.26089E+01-4.54959E-01-1.73626E-02-1.11774E+00-5.39039E-14-2.89165E-13
 -1      1907 2.29413E+01-6.71158E-01 9.59587E-03-7.86843E-01 1.00891E-13-1.36564E-13
 -1      1908 2.24749E+01-4.01377E-01-9.01532E-03-1.43231E+00-4.85029E-15-2.23822E-13
 -1      1909 2.20134E+01-2.93413E-01-4.46488E-03-1.63071E+00 3.57370E-14-9.18614E-14
 -1      1910 2.28141E+01-6.19438E-01 1.45480E-02-1.50403E+00 3.88474E-14-1.25525E-14
 -1      1911 2.17223E+01-1.45558E-01-1.11913E-02-1.80319E+00-1.14288E-14-4.39787E-14
 -1      1912 2.11937E+01 5.49920E-02 1.15037E-02-1.82948E+00-4.04744E-14 1.02508E-13
 -1      1913 2.23973E+01-3.02392E-01 1.42099E-02-2.06580E+00 7.66102E-14 7.86988E-14
 -1      1914 2.08102E+01 2.60192E-01-7.74749E-03-1.73176E+00-9.35727E-14 1.58542E-13
 -1      1915 2.03410E+01 4.71873E-01 2.08257E-02-1.52365E+00-9.31382E-14 2.03353E-13
 -1      1916 2.17338E+01 2.47061E-01 3.22573E-03-2.17425E+00-5.89936E-15 2.88323E-13
 -1      1917 2.00179E+01 6.30730E-01 4.13727E-03-1.13514E+00-2.12131E-13 8.45331E-15
 -1      1918 1.97310E+01 7.28829E-01 1.66857E-02-7.47670E-01-1.43467E-13-6.45139E-14
 -1      1919 2.10316E+01 8.04769E-01-1.45896E-02-1.64190E+00-3.12701E-13 2.67131E-13
 -1      1920 1.96150E+01 7.38377E-01 1.85446E-02-2.21550E-01-1.35886E-13-1.38764E-13
 -1      1921 1.95674E+01 6.56457E-01 3.38659E-03 1.76388E-01 1.00255E-13-1.49179E-13
 -1      1922 2.05910E+01 1.06097E+00-2.36725E-02-6.07854E-01-1.67619E-13 8.87625E-15
 -1      1923 1.96685E+01 5.11715E-01 2.44983E-02 5.90684E-01 4.29439E-13-4.01422E-13
 -1      1924 1.98176E+01 3.10162E-01-7.52563E-03 8.25295E-01 3.61404E-13-2.53575E-13
 -1      1925 2.05731E+01 8.53419E-01-1.56202E-02 4.57154E-01 1.55918E-13-6.26797E-14
 -1      1926 1.99967E+01 1.14488E-01 1.61446E-02 9.64776E-01 1.25669E-13-4.96105E-14
 -1      1927 2.02321E+01-7.61433E-02-9.55516E-03 9.76841E-01 9.00458E-14 9.68271E-14
 -1      1928 2.08451E+01 3.28400E-01 1.00040E-03 1.06665E+00 3.51676E-13-2.72680E-13
 -1      1929 2.03359E+01-2.10331E-01 5.58183E-04 8.60921E-01 2.06168E-14 1.47934E-13
 -1      1930 2.05438E+01-2.98653E-01-4.33303E-03 7.17892E-01 4.28112E-14 2.41143E-13
 -1      1931 2.11153E+01-1.85789E-01 1.20471E-02 1.06741E+00 5.16230E-14 9.47124E-14
 -1      1932 2.05071E+01-3.27197E-01-1.24322E-02 4.86872E-01-7.37578E-14 9.83562E-14
 -1      1933 2.06234E+01-3.03493E-01 2.27963E-03 3.09034E-01-8.88603E-14-3.48403E-14
 -1      1934 2.11738E+01-4.43311E-01 1.24652E-02 6.58628E-01-9.35918E-14 2.56899E-13
 -1      1935 2.04716E+01-2.47827E-01-1.74407E-02 1.10381E-01 4.02677E-14-1.83179E-13
 -1      1936 2.04918E+01-1.55198E-01 7.18082E-03-6.12142E-03 1.60104E-13-1.85464E-13
 -1      1937 2.09871E+01-4.03006E-01 6.18934E-03 1.72505E-01-1.28040E-13 5.54786E-14
 -1      1938 2.02970E+01-8.27276E-02-1.50162E-02-7.20179E-02 1.34605E-13-3.23323E-13
 -1      1939 2.02725E+01 5.60512E-03 1.05606E-02-9.94929E-02 1.80576E-14-2.69183E-13
 -1      1940 2.03204E+01 2.91055E-02 4.40038E-03-1.67592E-01 2.42753E-14-3.23113E-13
 -1      1941 2.06601E+01-1.61267E-01 1.06514E-02-1.21535E-01 2.76016E-14-2.81025E-13
 -1      1942 1.96210E+01 1.42037E-01 7.88397E-03 2.59138E-01 3.26711E-13 5.51956E-13
 -1      1943 1.98930E+01 2.04099E-01 1.64341E-02 4.32143E-01 3.60845E-13 6.91131E-13
 -1      1944 2.01043E+01 3.50553E-01-1.53273E-03 6.54657E-01 4.35058E-13 4.42501E-13
 -1      1945 1.93788E+01 7.19073E-02 6.94915E-03 5.61708E-02 2.58026E-13 3.76055E-13
 -1      1946 1.94937E+01 1.01795E-01 1.41957E-02 1.44689E-01 2.54125E-13 4.81044E-13
 -1      1947 1.97117E+01 1.65184E-01-1.94272E-03 2.55905E-01 3.35562E-13 3.00165E-13
 -1      1948 1.92885E+01 3.61384E-02 4.43082E-03-4.92727E-02 1.81015E-13 3.02404E-13
 -1      1949 1.93185E+01 5.19541E-02 8.33574E-03-2.06619E-03 2.12961E-13 3.57043E-13
 -1      1950 1.95116E+01 8.06681E-02-2.82268E-03 4.39383E-02 2.64450E-13 1.81912E-13
 -1      1951 1.92868E+01 1.61881E-02 2.86122E-03-1.01738E-01 1.11499E-13 1.80969E-13
 -1      1952 1.92715E+01 2.50551E-02 4.35038E-03-7.71218E-02 1.46924E-13 2.63792E-13
 -1      1953 1.94326E+01 3.74578E-02-2.83941E-03-6.79351E-02 1.84913E-13 1.22938E-13
 -1      1954 1.93341E+01 4.54308E-03 1.98556E-03-1.23780E-01 1.04617E-13 1.36396E-13
 -1      1955 1.92957E+01 9.58115E-03 2.14442E-03-1.12368E-01 9.80009E-14 1.56225E-13
 -1      1956 1.94261E+01 1.36111E-02-2.30994E-03-1.23435E-01 1.32809E-13 3.31694E-14
 -1      1957 1.94055E+01-2.25401E-03 1.44271E-03-1.27924E-01 1.02057E-13 4.97989E-14
 -1      1958 1.93570E+01 4.94378E-04 9.45495E-04-1.24449E-01 1.03145E-13 1.21182E-13
 -1      1959 1.94606E+01 1.25365E-05-1.69034E-03-1.45905E-01 1.46684E-13-2.08208E-14
 -1      1960 1.94858E+01-6.02739E-03 1.06131E-03-1.21714E-01 1.29717E-13-6.68085E-14
 -1      1961 1.94349E+01-4.70522E-03 2.73044E-04-1.22965E-01 1.28420E-13 7.48425E-16
 -1      1962 1.95161E+01-7.59929E-03-1.16834E-03-1.48820E-01 1.56651E-13-9.78442E-14
 -1      1963 1.95659E+01-7.84801E-03 7.77288E-04-1.09929E-01 1.86410E-14-1.39256E-14
 -1      1964 1.95171E+01-7.42728E-03-1.08842E-04-1.13843E-01 7.11792E-14-1.87945E-14
 -1      1965 1.95798E+01-1.14986E-02-7.76987E-04-1.40475E-01 9.27439E-14-4.94536E-14
 -1      1966 1.96406E+01-8.39369E-03 5.64075E-04-9.56710E-02 1.25091E-13-3.48574E-14
 -1      1967 1.95962E+01-8.53726E-03-3.14990E-04-1.00888E-01 7.58855E-14-1.27767E-14
 -1      1968 1.96442E+01-1.30271E-02-4.97738E-04-1.26186E-01 8.25881E-14-5.13439E-14
 -1      1969 1.97071E+01-8.10992E-03 4.06983E-04-8.09664E-02 1.03062E-13-9.09930E-14
 -1      1970 1.96683E+01-8.59609E-03-4.08310E-04-8.65831E-02 1.21691E-13-5.80110E-14
 -1      1971 1.97047E+01-1.30321E-02-3.04957E-04-1.09426E-01 1.27874E-13-1.22373E-13
 -1      1972 1.97648E+01-7.28967E-03 2.96101E-04-6.71333E-02 1.28485E-13-2.05747E-13
 -1      1973 1.97317E+01-7.97370E-03-4.27358E-04-7.25484E-02 1.29298E-13-1.48090E-13
 -1      1974 1.97591E+01-1.20647E-02-1.77341E-04-9.24740E-02 1.77652E-13-1.29961E-13
 -1      1975 1.98138E+01-6.11827E-03 2.24489E-04-5.50301E-02 9.82026E-14-2.57422E-13
 -1      1976 1.97861E+01-6.90940E-03-3.97009E-04-5.98404E-02 7.90485E-14-2.39943E-13
 -1      1977 1.98067E+01-1.04798E-02-9.91820E-05-7.68249E-02 1.37301E-13-1.58047E-13
 -1      1978 1.98555E+01-4.70145E-03 1.87671E-04-4.52330E-02-2.00684E-14-2.58731E-13
 -1      1979 1.98322E+01-5.54795E-03-3.33226E-04-4.91572E-02 4.56086E-14-2.65906E-13
 -1      1980 1.98479E+01-8.49301E-03-5.93303E-05-6.34716E-02 5.76155E-14-2.02491E-13
 -1      1981 1.98914E+01-3.08361E-03 1.83368E-04-3.81677E-02 1.24732E-15-3.11477E-13
 -1      1982 1.98717E+01-3.96263E-03-2.45698E-04-4.09891E-02-1.39277E-15-2.77329E-13
 -1      1983 1.98837E+01-6.21612E-03-5.02129E-05-5.31080E-02 7.78728E-17-2.98320E-13
 -1      1984 1.99239E+01-1.26072E-03 2.11308E-04-3.42122E-02 1.13345E-13-2.98031E-13
 -1      1985 1.99063E+01-2.17092E-03-1.39512E-04-3.57331E-02 3.93004E-14-3.05220E-13
 -1      1986 1.99157E+01-3.68081E-03-6.71562E-05-4.62811E-02 8.65525E-14-2.47576E-13
 -1      1987 1.99555E+01 8.10127E-04 2.73107E-04-3.37770E-02 3.38942E-14-2.42100E-13
 -1      1988 1.99386E+01-1.45825E-04-1.63463E-05-3.37822E-02 1.30739E-13-2.14706E-13
 -1      1989 1.99459E+01-8.55413E-04-1.07801E-04-4.35102E-02 1.04652E-13-2.13842E-13
 -1      1990 1.99893E+01 3.20326E-03 3.72165E-04-3.73690E-02-1.01490E-13-2.33390E-13
 -1      1991 1.99713E+01 2.17549E-03 1.24623E-04-3.55961E-02-4.25773E-14-2.31146E-13
 -1      1992 1.99768E+01 2.34242E-03-1.71651E-04-4.53793E-02-9.57195E-15-1.83952E-13
 -1      1993 2.00289E+01 6.01783E-03 5.13451E-04-4.56419E-02-8.48123E-14-2.82919E-13
 -1      1994 2.00078E+01 4.88454E-03 2.85932E-04-4.17565E-02-1.28698E-13-2.58720E-13
 -1      1995 2.00114E+01 6.03539E-03-2.59731E-04-5.26095E-02-9.62766E-14-2.58027E-13
 -1      1996 2.00785E+01 9.37044E-03 7.03108E-04-5.94329E-02-3.31652E-14-2.73387E-13
 -1      1997 2.00519E+01 8.09444E-03 4.71054E-04-5.30090E-02-4.42689E-14-2.56912E-13
 -1      1998 2.00529E+01 1.03766E-02-3.74234E-04-6.61138E-02-4.83522E-14-3.02873E-13
 -1      1999 2.01430E+01 1.33849E-02 9.47638E-04-7.97818E-02 1.44246E-13-2.67783E-13
 -1      2000 2.01082E+01 1.19308E-02 6.83471E-04-7.02895E-02 4.58975E-14-2.48683E-13
 -1      2001 2.01055E+01 1.55372E-02-5.18153E-04-8.70312E-02 6.82039E-14-3.32632E-13
 -1      2002 2.02282E+01 1.81752E-02 1.25229E-03-1.07927E-01 5.28873E-14-2.39796E-13
 -1      2003 2.01818E+01 1.65178E-02 9.25384E-04-9.47299E-02 1.26969E-13-2.20838E-13
 -1      2004 2.01737E+01 2.16879E-02-6.94876E-04-1.16736E-01 1.07451E-13-2.20611E-13
 -1      2005 2.03408E+01 2.38152E-02 1.61805E-03-1.45256E-01-1.25680E-13-1.61442E-13
 -1      2006 2.02790E+01 2.19537E-02 1.19578E-03-1.27630E-01-7.33565E-14-1.84182E-13
 -1      2007 2.02628E+01 2.89668E-02-9.07708E-04-1.56802E-01-6.60229E-14-1.51160E-13
 -1      2008 2.04884E+01 3.02843E-02 2.03625E-03-1.93189E-01-8.71563E-14-4.29788E-14
 -1      2009 2.04068E+01 2.82675E-02 1.48740E-03-1.70368E-01-9.46783E-14-1.07633E-13
 -1      2010 2.03791E+01 3.74220E-02-1.15929E-03-2.08906E-01-1.07873E-13-5.56113E-14
 -1      2011 2.06794E+01 3.73709E-02 2.47935E-03-2.52924E-01-1.39540E-13-3.37563E-14
 -1      2012 2.05731E+01 3.53411E-02 1.78212E-03-2.24217E-01-1.03426E-13-3.98373E-14
 -1      2013 2.05291E+01 4.69089E-02-1.45094E-03-2.74599E-01-1.17037E-13-1.00392E-13
 -1      2014 2.09222E+01 4.45043E-02 2.88635E-03-3.24971E-01-1.66119E-14 8.91781E-14
 -1      2015 2.07863E+01 4.27728E-02 2.04406E-03-2.89980E-01-5.00305E-14 6.92968E-15
 -1      2016 2.07200E+01 5.69103E-02-1.78178E-03-3.54891E-01-6.59932E-14 1.28629E-14
 -1      2017 2.12249E+01 5.04769E-02 3.14193E-03-4.08313E-01 1.31240E-13-9.08306E-14
 -1      2018 2.10548E+01 4.96470E-02 2.21050E-03-3.67332E-01 6.57241E-14 3.70515E-15
 -1      2019 2.09589E+01 6.62304E-02-2.14722E-03-4.49486E-01 8.31906E-14 7.63571E-15
 -1      2020 2.15926E+01 5.30138E-02 3.05211E-03-4.98990E-01 7.11633E-14-1.55846E-13
 -1      2021 2.13855E+01 5.41657E-02 2.18201E-03-4.53709E-01 1.17505E-13-1.31696E-13
 -1      2022 2.12514E+01 7.25067E-02-2.53534E-03-5.55498E-01 1.54206E-13-7.70652E-14
 -1      2023 2.20256E+01 4.81840E-02 2.32813E-03-5.87853E-01 5.35058E-14-1.74764E-13
 -1      2024 2.17820E+01 5.31124E-02 1.81708E-03-5.42489E-01 4.39778E-14-1.45761E-13
 -1      2025 2.16010E+01 7.14961E-02-2.91768E-03-6.65367E-01 7.72193E-14 6.57243E-14
 -1      2026 2.25141E+01 2.97883E-02 6.09528E-04-6.57339E-01-9.81218E-14-1.59989E-13
 -1      2027 2.22413E+01 4.12038E-02 9.42301E-04-6.20304E-01-3.34387E-14-1.69561E-13
 -1      2028 2.20060E+01 5.62091E-02-3.22714E-03-7.63781E-01 3.07302E-14-5.21766E-14
 -1      2029 2.30327E+01-1.07565E-02-2.41270E-03-6.77593E-01-7.49860E-14-2.04051E-13
 -1      2030 2.27485E+01 1.06468E-02-6.00863E-04-6.63559E-01-1.05849E-13-2.19576E-13
 -1      2031 2.24566E+01 1.62992E-02-3.31106E-03-8.23654E-01-5.58298E-14-1.72841E-13
 -1      2032 2.35332E+01-8.27266E-02-6.70445E-03-6.03650E-01 8.56433E-14-6.31361E-14
 -1      2033 2.32708E+01-4.81765E-02-2.86041E-03-6.35154E-01-3.35071E-14-1.19883E-13
 -1      2034 2.29302E+01-6.10783E-02-2.84984E-03-8.02189E-01-4.07677E-14-1.72419E-13
 -1      2035 2.39381E+01-1.90139E-01-1.13601E-02-3.78305E-01 1.17527E-13-6.39020E-14
 -1      2036 2.37489E+01-1.42930E-01-5.65259E-03-4.84513E-01 2.25444E-13 1.38233E-13
 -1      2037 2.33864E+01-1.86354E-01-1.27097E-03-6.40306E-01 1.42381E-13 9.09758E-14
 -1      2038 2.41397E+01-3.18761E-01-1.41229E-02 5.02120E-02 8.33153E-14-1.51915E-13
 -1      2039 2.40912E+01-2.69324E-01-8.33242E-03-1.57542E-01 6.18082E-14-1.47516E-13
 -1      2040 2.37599E+01-3.54853E-01 2.28727E-03-2.72562E-01 1.42996E-13-3.05051E-15
 -1      2041 2.40127E+01-4.18709E-01-1.21214E-02 6.84694E-01-5.67896E-14-1.78366E-13
 -1      2042 2.41736E+01-3.94426E-01-1.02513E-02 3.73137E-01-5.81826E-15-2.15613E-13
 -1      2043 2.39559E+01-5.24328E-01 8.46013E-03 3.40731E-01 4.58175E-14 1.89855E-13
 -1      2044 2.34517E+01-3.99154E-01-4.26843E-03 1.41080E+00-4.24662E-13 1.23034E-13
 -1      2045 2.38635E+01-4.41346E-01-1.04109E-02 1.05285E+00-2.19678E-13-2.81511E-14
 -1      2046 2.38567E+01-5.97248E-01 1.58367E-02 1.15099E+00-2.63307E-13 4.06156E-13
 -1      2047 2.24502E+01-1.75882E-01 3.65404E-03 1.95216E+00-3.15244E-13 2.18159E-13
 -1      2048 2.30832E+01-3.10597E-01-9.24973E-03 1.68520E+00-4.70582E-13 1.03736E-13
 -1      2049 2.33615E+01-4.40855E-01 1.97009E-02 1.94634E+00-5.05607E-13 2.57150E-13
 -1      2050 2.11954E+01 2.26429E-01 2.12092E-03 1.95211E+00-1.72405E-13 4.70055E-13
 -1      2051 2.19214E+01 3.71147E-02-5.88633E-03 1.94861E+00-2.38471E-13 2.52669E-13
 -1      2052 2.24841E+01-2.32748E-03 9.96158E-03 2.34908E+00-2.63966E-13 3.89362E-13
 -1      2053 2.01020E+01 5.97120E-01-1.06654E-02 1.24067E+00 1.45835E-13 8.53643E-13
 -1      2054 2.07055E+01 4.66959E-01 1.26975E-03 1.57169E+00 2.77348E-14 7.00880E-13
 -1      2055 2.14670E+01 5.71814E-01-9.17788E-03 1.99848E+00-1.83102E-13 6.14189E-13
 -1      2056 1.96134E+01 6.67663E-01-2.31250E-02 9.87157E-02 1.82774E-13 5.10907E-13
 -1      2057 1.98905E+01 6.99683E-01 9.78183E-03 6.17489E-01 2.53565E-13 6.82719E-13
 -1      2058 2.07372E+01 9.35263E-01-2.27149E-02 9.04180E-01 3.08288E-13 6.62701E-13
 -1      2059 1.98477E+01 3.85387E-01-2.02427E-02-8.62589E-01 1.00829E-13 2.12108E-13
 -1      2060 1.97426E+01 5.58009E-01 1.28955E-02-4.38622E-01 1.43337E-13 4.14351E-13
 -1      2061 2.05973E+01 8.29097E-01-1.61810E-02-3.95309E-01 2.27051E-13 4.38452E-13
 -1      2062 2.04810E+01-2.49249E-02-3.54465E-03-1.18412E+00 4.78011E-13-1.28893E-13
 -1      2063 2.01342E+01 1.60998E-01 7.55149E-03-1.04696E+00 2.35762E-13-1.45751E-14
 -1      2064 2.09411E+01 3.36077E-01 1.65716E-03-1.20339E+00 4.23462E-13 2.12282E-13
 -1      2065 2.10344E+01-2.98830E-01 1.18924E-02-8.77161E-01 3.87387E-13-4.71369E-13
 -1      2066 2.06772E+01-2.05954E-01-2.30711E-03-1.00843E+00 5.01205E-13-2.36255E-13
 -1      2067 2.13681E+01-1.98480E-01 1.03461E-02-1.22067E+00 5.62996E-13-7.55333E-14
 -1      2068 2.12217E+01-3.38517E-01 1.80300E-02-2.89426E-01 1.36080E-13-4.83178E-13
 -1      2069 2.10230E+01-3.55973E-01-9.69044E-03-5.35391E-01 1.79287E-13-5.36703E-13
 -1      2070 2.15435E+01-4.77211E-01 5.86063E-03-6.74170E-01 2.56394E-13-3.16262E-13
 -1      2071 2.10327E+01-1.98980E-01 1.67231E-02 2.04943E-01 4.54671E-14-3.92813E-13
 -1      2072 2.10308E+01-2.84565E-01-1.06764E-02 4.50648E-03 1.51349E-13-4.13607E-13
 -1      2073 2.13792E+01-4.35471E-01-1.55549E-03-9.66800E-03 1.20309E-13-3.42901E-13
 -1      2074 2.06289E+01 1.40337E-02 1.26170E-02 3.85691E-01 1.03648E-13-3.91274E-13
 -1      2075 2.07586E+01-9.02084E-02-7.11136E-03 3.29664E-01 3.24012E-14-4.39199E-13
 -1      2076 2.09714E+01-1.88882E-01-6.33957E-03 4.16855E-01 1.38908E-14-3.66034E-13
 -1      2077 2.02951E+01 1.55702E-01 9.37362E-03 3.08344E-01-3.49954E-14-1.66062E-13
 -1      2078 2.04534E+01 6.98395E-02-5.51425E-03 3.76899E-01 1.43067E-13-2.43334E-13
 -1      2079 2.05851E+01 4.49239E-02-8.88511E-03 5.03579E-01-1.21647E-15-1.61303E-13
 -1      2080 2.03125E+01 2.64282E-01 9.04753E-03 4.05962E-01-1.37715E-13 1.96919E-13
 -1      2081 2.04709E+01 2.10410E+00 8.57881E-03 2.19798E+00-2.59775E-13 2.52764E-13
 -1      2082 2.05555E+01 1.45258E+00 8.62752E-03 1.91164E+00-3.99718E-13 2.67852E-13
 -1      2083 2.05711E+01 1.16452E+00 1.94730E-02 1.51221E+00-3.61712E-13 2.25068E-13
 -1      2084 2.05475E+01 7.04392E-01 4.47884E-03 1.19881E+00-3.84406E-13 1.76269E-13
 -1      2085 2.08194E+01 7.55580E-01-1.70700E-02 2.08443E+00-3.08439E-13 2.95241E-13
 -1      2086 2.04635E+01 6.26995E-01 1.99932E-02 8.78536E-01-4.17147E-13-5.29229E-14
 -1      2087 2.03995E+01 3.50634E-01 6.30701E-03 6.29977E-01-1.89769E-13 4.83849E-14
 -1      2088 2.05416E+01 2.53343E-01 1.51372E-03 7.15592E-01-1.22072E-13-5.97092E-15
 -1      2089 2.07711E+01 4.05298E-01-2.36004E-04 1.29876E+00-2.76065E-13 8.18070E-14
 -1      2090 2.00831E+01 3.31843E+00-1.65188E-02 2.59069E+00-3.39600E-13-1.85276E-13
 -1      2091 2.03190E+01 2.57893E+00 1.38567E-02 2.48402E+00-3.20128E-13 7.16324E-14
 -1      2092 2.05532E+01 1.51187E+00-1.77449E-02 2.86907E+00-3.38509E-13 1.33780E-13
 -1      2093 1.94647E+01 4.64409E+00-4.00759E-02 2.35058E+00-8.23022E-14 3.03119E-13
 -1      2094 1.97994E+01 3.95250E+00 1.24920E-02 2.56048E+00-2.52829E-13 2.81126E-13
 -1      2095 1.98827E+01 2.60914E+00-5.88579E-03 3.18805E+00-2.34882E-13 1.74183E-13
 -1      2096 1.88991E+01 5.66534E+00-4.57009E-02 1.31266E+00 1.31536E-13 4.81885E-13
 -1      2097 1.91614E+01 5.23398E+00-1.15536E-03 1.86073E+00 2.77417E-14 3.96461E-13
 -1      2098 1.89847E+01 3.82660E+00 2.18960E-02 2.62958E+00 3.65172E-14 4.90963E-13
 -1      2099 1.87312E+01 5.95854E+00-2.89657E-02-2.52273E-01 2.32827E-13 1.00763E-13
 -1      2100 1.87523E+01 5.93252E+00-2.55852E-02 4.58853E-01 2.20104E-13 3.15387E-13
 -1      2101 1.83043E+01 4.68580E+00 4.95182E-02 1.11186E+00 4.07751E-14 4.70178E-13
 -1      2102 1.90729E+01 5.36410E+00-2.47886E-03-1.72540E+00 2.59310E-13-3.17326E-13
 -1      2103 1.88393E+01 5.75248E+00-4.28763E-02-1.13455E+00 3.08099E-13-1.14232E-13
 -1      2104 1.82483E+01 4.74516E+00 5.27827E-02-8.68492E-01 3.94524E-14-1.06685E-14
 -1      2105 1.97069E+01 4.11328E+00 1.17199E-02-2.54738E+00 1.15959E-13-3.12602E-13
 -1      2106 1.93675E+01 4.79147E+00-4.16602E-02-2.28578E+00 2.61680E-13-3.09352E-13
 -1      2107 1.88477E+01 3.96695E+00 2.61623E-02-2.51027E+00 6.84158E-14-2.92197E-13
 -1      2108 2.02622E+01 2.71964E+00 1.51375E-02-2.57015E+00 1.56751E-13-4.18889E-13
 -1      2109 2.00008E+01 3.47193E+00-2.03037E-02-2.64016E+00 1.18131E-13-3.11171E-13
 -1      2110 1.97576E+01 2.76083E+00-6.98132E-04-3.21459E+00 1.54798E-13-3.72680E-13
 -1      2111 2.05620E+01 1.51293E+00 1.15825E-02-2.02832E+00 2.60037E-13 4.46958E-13
 -1      2112 2.04463E+01 2.19009E+00 4.39103E-03-2.30931E+00 2.23134E-13 1.26722E-13
 -1      2113 2.04903E+01 1.59969E+00-1.77462E-02-3.00015E+00 3.25328E-13-1.78990E-13
 -1      2114 2.05875E+01 6.94561E-01 6.79515E-03-1.27740E+00 2.69900E-13 1.70770E-13
 -1      2115 2.06056E+01 1.18627E+00 2.19867E-02-1.61239E+00 3.02140E-13 2.37640E-13
 -1      2116 2.08459E+01 7.51366E-01-1.74137E-02-2.22412E+00 2.66623E-13 4.10198E-13
 -1      2117 2.04343E+01 2.51923E-01 2.82038E-03-6.01225E-01 8.36575E-14-4.08206E-14
 -1      2118 2.05275E+01 5.38907E-01 2.49373E-02-8.85627E-01 9.40860E-14 2.60139E-14
 -1      2119 2.08274E+01 2.66208E-01-1.19073E-02-1.32034E+00 2.22639E-14-1.64079E-14
 -1      2120 1.18463E+01-6.27887E+00-2.04091E-01 7.25642E+00 1.33782E-13 5.30069E-13
 -1      2121 8.27430E+00-7.62300E+00-3.18847E-01 6.46808E+00-1.12244E-13 5.46313E-13
 -1      2122 7.02773E-01-8.07724E+00-4.09305E-01 1.00704E+00-3.47555E-13 9.59233E-14
 -1      2123 7.12824E-01-7.80912E+00-3.68720E-01-9.42771E-01-3.82444E-13 4.62352E-13
 -1      2124 4.39970E+00-6.93509E+00-2.42948E-01 5.00833E+00-1.10190E-13 4.90885E-13
 -1      2125 1.83067E+00-8.40949E+00-4.81903E-01 2.91001E+00-2.83745E-13 2.91545E-13
 -1      2126 3.16348E+00-4.87352E+00-1.16676E-01 2.50803E+00-4.00791E-13 2.65121E-13
 -1      2127 2.09369E+01-3.96682E+00 8.38874E-03 7.73684E+00 2.38698E-13-7.98250E-14
 -1      2128 1.60822E+01-6.12029E+00-3.35309E-01 6.95789E+00 1.43552E-13 1.41276E-13
 -1      2129 2.99166E+01-1.48753E+00 4.24569E-02 5.89858E+00 2.78333E-13-3.55660E-13
 -1      2130 2.47112E+01-3.11923E+00-1.35594E-01 6.38595E+00 3.45668E-13-3.11751E-13
 -1      2131 2.52013E+01-5.28455E+00 9.71131E-02 6.29936E+00 5.47340E-14-4.24549E-13
 -1      2132 1.95227E+01 4.01596E+00-2.56468E-02-1.70059E+00-3.68074E-13-7.96592E-13
 -1      2133 1.96512E+01 3.94243E+00-2.43538E-02-1.95578E+00-4.37362E-13-7.17027E-13
 -1      2134 1.99734E+01 3.25308E+00-7.96834E-03-1.90899E+00-4.90060E-13-6.19884E-13
 -1      2135 1.96934E+01 3.58305E+00-9.25886E-03-1.51734E+00-3.67892E-13-7.70314E-13
 -1      2136 4.23086E+01 6.80503E+00 5.39017E-01 2.25255E+00 7.22755E-14-3.08864E-13
 -1      2137 3.83919E+01 5.72321E+00 1.22553E-01 2.52482E+00 2.06501E-13-1.95399E-13
 -1      2138 4.25017E+01 7.55247E+00 3.36517E-01 5.40909E-01 2.02449E-13-4.19380E-13
 -1      2139 4.27535E+01 7.41894E+00 4.16749E-01 1.79649E+00 5.59552E-14-3.93352E-13
 -1      2140 3.80317E+01 7.91017E+00 3.73260E-01 6.46172E-01 7.71605E-14-3.05700E-13
 -1      2141 3.88928E+01 6.02204E+00 1.38323E-01-3.25377E-01 2.44083E-13-5.07538E-13
 -1      2142 4.15456E+01 7.02458E+00 3.89693E-01 3.38420E-01 2.89213E-13-4.55025E-13
 -1      2143 3.46272E+01 2.20944E+00 1.19825E-01-2.96523E+00 5.79876E-13-5.48339E-13
 -1      2144 3.82269E+01 3.81761E+00 2.37410E-01-1.76076E+00 4.56246E-13-6.02685E-13
 -1      2145 2.66938E+01-2.05228E+00-1.20577E-01-4.55034E+00 3.78475E-13-4.88720E-13
 -1      2146 3.20161E+01 1.16813E-01 2.18264E-01-4.50430E+00 4.29906E-13-5.71987E-13
 -1      2147 1.72337E+01-5.54861E+00-2.90594E-01-5.75186E+00 2.43472E-13-4.36262E-13
 -1      2148 2.25953E+01-3.74868E+00 1.11916E-02-6.21714E+00 3.32512E-13-4.34541E-13
 -1      2149 8.41824E+00-7.67695E+00-4.67219E-01-5.15364E+00 2.37921E-13-6.33597E-13
 -1      2150 1.25946E+01-5.73787E+00-1.76566E-01-6.31306E+00 2.29705E-13-5.73291E-13
 -1      2151 2.36539E+00-8.85655E+00-5.05756E-01-3.26323E+00 5.57887E-14-3.11751E-13
 -1      2152 4.96482E+00-7.53995E+00-3.14385E-01-4.64097E+00 2.87770E-13-5.02348E-13
 -1      2153-2.49327E-01-9.08020E+00-4.86282E-01-3.75953E-01-2.88797E-13-7.23588E-13
 -1      2154 4.19737E-01-8.75745E+00-4.40282E-01-1.74383E+00-1.06026E-13-4.93328E-13
 -1      2155 1.33671E+00-7.79833E+00-3.23154E-01 2.83803E+00-5.07483E-13-9.34752E-13
 -1      2156 1.95538E-01-8.71223E+00-4.53338E-01 1.33769E+00-2.42667E-13-1.07059E-12
 -1      2157 7.09112E+00-6.79683E+00-1.98258E-01 5.67480E+00-5.95746E-13-8.37969E-13
 -1      2158 4.13004E+00-7.96030E+00-3.69576E-01 4.41458E+00-4.71123E-13-7.66720E-13
 -1      2159 1.57307E+01-5.45362E+00-6.71978E-02 6.96273E+00-5.57221E-13-2.37865E-13
 -1      2160 1.06823E+01-7.03660E+00-3.40916E-01 5.89282E+00-5.21694E-13-5.14512E-13
 -1      2161 1.14073E+01-6.42709E+00-5.25071E-02 6.88856E+00-3.34732E-14-2.85647E-13
 -1      2162 2.59443E+01-3.11358E+00-2.74161E-02 5.43342E+00-5.70710E-13 7.81597E-14
 -1      2163 2.06874E+01-4.93771E+00-2.02405E-01 5.59153E+00-6.22224E-13-1.00586E-13
 -1      2164 3.50814E+01 2.14408E+00 4.09165E-01 4.19723E+00-8.70290E-13 4.48752E-13
 -1      2165 3.00793E+01-3.91393E-01 5.59002E-02 3.99525E+00-7.95392E-13 2.68452E-13
 -1      2166 4.07379E+01 5.28363E+00 3.85879E-01 1.98707E+00-4.40648E-13 2.31926E-13
 -1      2167 3.70882E+01 4.05084E+00 1.85168E-01 3.10107E+00-7.25198E-13 2.07723E-13
 -1      2168 4.08720E+01 7.47014E+00 2.15854E-01-5.91867E-01-2.28706E-14-1.43913E-14
 -1      2169 4.06320E+01 6.75609E+00 3.16238E-01 6.67289E-01-1.42664E-13 3.67484E-14
 -1      2170 4.10942E+01 7.10885E+00 2.94175E-01-1.98474E+00 6.37823E-14-6.10623E-15
 -1      2171 4.11239E+01 7.67021E+00 2.29851E-01-7.51493E-01 3.49720E-15-3.67484E-14
 -1      2172 3.78156E+01 4.97042E+00 1.76731E-01-3.26499E+00 1.05166E-13 1.57541E-13
 -1      2173 4.09081E+01 6.03735E+00 3.68985E-01-2.55707E+00 6.98330E-14 6.49480E-14
 -1      2174 3.68400E+01 7.19888E+00 3.12897E-01-3.45962E-01 8.14349E-14-1.30312E-13
 -1      2175 3.19065E+01 1.08561E+00 5.29026E-02-5.39775E+00 1.36002E-14-1.30784E-13
 -1      2176 3.62080E+01 2.77018E+00 2.96425E-01-4.81788E+00 1.67609E-14-1.84741E-13
 -1      2177 2.38159E+01-2.67464E+00-1.59795E-01-6.67650E+00-1.86851E-13-3.57270E-13
 -1      2178 2.89752E+01-4.49857E-01 2.22564E-01-6.99108E+00 1.99285E-14-2.22045E-16
 -1      2179 1.55652E+01-6.20785E+00-3.02471E-01-7.00276E+00-5.11369E-13-4.58633E-13
 -1      2180 2.03612E+01-3.89476E+00 4.98649E-02-7.77194E+00-3.70703E-13-5.88807E-13
 -1      2181 7.32879E+00-8.06711E+00-4.49960E-01-5.93739E+00-1.04139E-13 7.21090E-14
 -1      2182 1.12626E+01-6.28501E+00-1.41532E-01-7.35196E+00-2.27818E-13-2.31301E-13
 -1      2183 1.57253E+00-8.83687E+00-5.18899E-01-3.12301E+00-2.41140E-13 6.22280E-13
 -1      2184 3.69212E+00-8.04706E+00-4.02065E-01-4.66298E+00-2.66787E-13 2.24820E-13
 -1      2185 3.66513E+01 2.89468E+00 1.99966E-01 2.99834E+00 1.96856E-13-2.02616E-14
 -1      2186 3.29908E+01 7.29002E-01 5.92405E-03 3.51559E+00 1.79232E-13-3.50830E-14
 -1      2187 3.17582E+01-1.70935E+00 1.53187E-01 3.00290E+00 2.01325E-13-7.84373E-14
 -1      2188 2.07373E+01 1.10874E+00-2.05614E-02-1.61586E+00-5.35089E-13 1.78187E-13
 -1      2189 3.29932E+01-8.61392E-03 1.94675E-01-1.29846E+00 3.37268E-13-4.65294E-13
 -1      2190 3.55630E+01 3.74088E+00 1.25467E-01 5.40192E-01 2.69867E-13-1.57263E-13
 -1      2191 2.06272E+01 1.32948E+00-1.88115E-02-1.67730E+00-5.61964E-13-8.80823E-14
 -1      2192 7.73447E+00-6.51589E+00-1.44142E-01 6.29351E+00-7.70495E-14 4.79367E-13
 -1      2193 7.80897E+00-4.32368E+00 1.59767E-01 6.12392E+00-1.97148E-13 6.55143E-13
 -1      2194 1.11696E+01-5.75830E+00-1.23484E-01 7.59520E+00-2.35034E-13 3.60906E-13
 -1      2195 1.69424E+01-6.64889E+00-4.98910E-02 7.84523E+00-9.03722E-14 7.76462E-14
 -1      2196 2.04333E+01 1.47247E-01 6.46869E-03-4.68389E-01 8.33621E-14-3.65923E-14
 -1      2197 2.69040E+00-5.63909E+00-2.16823E-01-2.45681E+00-2.06432E-13 4.33154E-13
 -1      2198 7.73872E+00-6.42200E+00-1.57883E-01-6.68771E+00-7.93809E-15-5.25135E-14
 -1      2199 1.61549E+01-6.64879E+00-5.95824E-02-7.84902E+00-1.52711E-13-3.74405E-13
 -1      2200 2.44747E+01-5.04535E+00 2.41672E-02-6.55189E+00-2.73115E-13-3.86524E-13
 -1      2201 3.56618E+01 3.20710E+00 2.58284E-01-1.60444E+00 9.81992E-14-1.40443E-14
 -1      2202 3.67733E+01 8.33323E+00 2.49805E-01-7.74258E-01-5.82867E-15-1.34857E-13
 -1      2203 3.69096E+01 6.50378E+00 3.30878E-01-6.18361E-01-2.80498E-13 1.04583E-13
 -1      2204 3.47809E+01 2.20483E+00 1.93548E-01 8.16329E-01-7.38298E-13 3.38563E-13
 -1      2205 2.04054E+01-6.17046E+00 2.17764E-02 6.13601E+00-2.21656E-13 1.73250E-13
 -1      2206 4.49335E+00-6.02157E+00-1.39401E-01 4.63560E+00-2.05336E-13-8.74967E-13
 -1      2207 1.01043E+00-6.13630E+00-2.42922E-01 6.51233E-01-1.84616E-13-9.68614E-13
 -1      2208 2.72910E+00-6.61294E+00-2.51898E-01-3.41297E+00-1.00808E-13-5.97355E-13
 -1      2209 8.81876E+00-6.93287E+00-1.78493E-01-6.02874E+00 6.35048E-14-5.23553E-13
 -1      2210 1.75965E+01-6.46394E+00-3.67421E-03-6.39690E+00 1.07303E-13-5.43676E-13
 -1      2211 2.63552E+01-4.55967E+00 2.33157E-02-4.16142E+00 2.85549E-13-3.93352E-13
 -1      2212 3.74418E+01 8.13044E+00 2.87014E-01 1.17660E+00 2.89269E-13-3.62432E-13
 -1      2213 3.61605E+01 4.91698E+00 2.24423E-01 8.05068E-01 4.99434E-13-5.46729E-13
 -1      2214 2.85020E+01-2.67896E+00 1.76260E-02 3.57909E+00-6.12121E-13 3.03368E-13
 -1      2215 2.75048E+01-4.54819E+00 1.43394E-01 3.16483E+00-4.48280E-13 4.29878E-13
 -1      2216 3.01873E+01-2.66788E+00-2.18629E-01 1.33636E+00-6.73121E-13 5.92526E-13
 -1      2217 3.12951E+01-1.42309E+00 1.95090E-01-4.21879E+00-2.38698E-14-1.41609E-13
 -1      2218 2.01488E+01 5.06446E-01 3.72960E-03 6.77717E-01 4.36047E-13 1.88420E-13
 -1      2219 2.04167E+01 6.99985E-01 2.07821E-02 9.69324E-01 4.99597E-13 2.60261E-13
 -1      2220 1.95593E+01 3.51609E+00-1.11298E-02-5.91516E-01-1.03616E-13-8.09085E-13
 -1      2221 1.95948E+01 3.47026E+00-1.05247E-02-7.75887E-01-1.74862E-13-8.23792E-13
 -1      2222 1.96414E+01 3.38233E+00-1.28104E-02-9.40356E-01-2.19120E-13-8.13740E-13
 -1      2223 1.97024E+01 3.30176E+00-1.28601E-02-1.12946E+00-2.86753E-13-7.95473E-13
 -1      2224 1.97861E+01 3.03330E+00 1.51667E-04-7.92429E-01-1.91472E-13-7.66779E-13
 -1      2225 1.95119E+01 3.59864E+00-9.61943E-03 9.94533E-02 1.22445E-13-8.05881E-13
 -1      2226 1.95112E+01 3.59946E+00-9.62727E-03-8.00452E-02 5.20994E-14-8.09186E-13
 -1      2227 1.95381E+01 3.55924E+00-9.72054E-03 4.45537E-01 2.26616E-13-7.75999E-13
 -1      2228 1.95206E+01 3.58180E+00-1.01387E-02 2.64687E-01 1.66368E-13-7.88807E-13
 -1      2229 1.96781E+01 3.22136E+00-9.02649E-04 1.69599E-01 1.42692E-13-7.59805E-13
 -1      2230 1.96001E+01 3.46272E+00-1.06071E-02 7.89543E-01 3.30748E-13-7.52245E-13
 -1      2231 1.95637E+01 3.50972E+00-1.12085E-02 6.08088E-01 2.71876E-13-7.70388E-13
 -1      2232 1.97150E+01 3.15784E+00-5.02870E-04 4.88078E-01 2.40057E-13-7.28887E-13
 -1      2233 1.97110E+01 3.28898E+00-1.29481E-02 1.14292E+00 4.51399E-13-6.36376E-13
 -1      2234 1.96482E+01 3.37231E+00-1.28721E-02 9.53639E-01 3.81398E-13-7.07894E-13
 -1      2235 1.97922E+01 3.02419E+00 2.71132E-04 8.03792E-01 3.49265E-13-6.71001E-13
 -1      2236 1.98905E+01 3.00342E+00-1.81659E-02 1.48994E+00 5.55960E-13-5.03045E-13
 -1      2237 1.97908E+01 3.14470E+00-1.51787E-02 1.29954E+00 4.88963E-13-5.77592E-13
 -1      2238 1.99216E+01 2.79907E+00 1.95977E-03 1.11006E+00 4.58443E-13-5.63255E-13
 -1      2239 2.01694E+01 2.54385E+00-2.83971E-02 1.79428E+00 6.32297E-13-2.99065E-13
 -1      2240 2.00179E+01 2.78322E+00-1.70939E-02 1.61980E+00 5.77909E-13-4.08144E-13
 -1      2241 2.01166E+01 2.44839E+00 5.81648E-03 1.37576E+00 5.36406E-13-4.15480E-13
 -1      2242 1.98718E+01 2.68194E-01 4.72937E-03 2.85195E-01 3.38328E-13 9.19109E-14
 -1      2243 2.00325E+01 3.67975E-01 2.01700E-02 4.42333E-01 3.80132E-13 1.64771E-13
 -1      2244 2.02113E+01 6.34581E-01-2.24514E-03 7.04584E-01 4.61221E-13-6.85216E-15
 -1      2245 2.04010E+01 8.53413E-01 1.24528E-02-1.00091E+00-4.31472E-13-2.06400E-13
 -1      2246 2.01913E+01 6.28437E-01-3.84365E-03-6.91506E-01-3.83395E-13-2.23556E-13
 -1      2247 3.07629E+01-1.91828E+00-1.03470E-02-5.53656E-01 2.05589E-13-4.18776E-13
 -1      2248 3.27075E+01 1.35960E-01-1.24699E-01 4.11876E-01 2.87714E-13-5.58109E-13
 -1      2249 2.01236E+01 4.68919E-01 1.55816E-02-4.74322E-01-3.52115E-13-2.08852E-13
 -1      2250 1.99845E+01 3.44203E-01 1.51594E-04-3.03174E-01-3.10389E-13-2.42488E-13
 -1      2251 2.02440E+01 7.47739E-01-1.28776E-03-6.92323E-01-3.94456E-13-3.22940E-13
 -1      2252 1.99203E+01 2.59292E-01 1.07218E-02-1.66214E-01-2.69368E-13-2.28243E-13
 -1      2253 1.98417E+01 1.88021E-01 6.52949E-04-6.89644E-02-2.38791E-13-2.75079E-13
 -1      2254 2.00810E+01 4.14708E-01-4.04630E-03-3.10455E-01-3.12200E-13-3.22642E-13
 -1      2255 1.97974E+01 1.38420E-01 6.37311E-03 1.31275E-02-2.06241E-13-2.72276E-13
 -1      2256 1.97623E+01 9.59746E-02 6.92519E-04 6.63263E-02-1.82162E-13-2.88396E-13
 -1      2257 1.99598E+01 2.27209E-01-3.67400E-03-7.15150E-02-2.38230E-13-3.04059E-13
 -1      2258 1.97363E+01 6.60084E-02 3.56727E-03 1.11863E-01-1.63879E-13-2.86112E-13
 -1      2259 1.97288E+01 4.04262E-02 6.05359E-04 1.38280E-01-1.46131E-13-2.83080E-13
 -1      2260 1.98840E+01 1.14448E-01-2.94381E-03 6.89078E-02-1.97274E-13-3.12120E-13
 -1      2261 1.97170E+01 2.21311E-02 1.85393E-03 1.60344E-01-1.74902E-13-2.84664E-13
 -1      2262 1.97259E+01 6.84131E-03 4.86899E-04 1.70296E-01-1.76112E-13-3.12896E-13
 -1      2263 1.98441E+01 4.62046E-02-2.12215E-03 1.44747E-01-1.68481E-13-3.19311E-13
 -1      2264 1.97238E+01-4.10537E-03 7.94371E-04 1.77480E-01-1.65410E-13-3.18365E-13
 -1      2265 1.97416E+01-1.28222E-02 3.71047E-04 1.77470E-01-1.45525E-13-3.33028E-13
 -1      2266 1.98297E+01 5.02206E-03-1.43175E-03 1.78946E-01-1.84839E-13-3.61054E-13
 -1      2267 1.97456E+01-1.89673E-02 1.44909E-04 1.75576E-01-1.72907E-13-3.14622E-13
 -1      2268 1.97674E+01-2.33873E-02 2.75057E-04 1.69843E-01-1.83606E-13-3.25743E-13
 -1      2269 1.98318E+01-1.88799E-02-9.13079E-04 1.86950E-01-1.76184E-13-3.70581E-13
 -1      2270 1.97748E+01-2.63431E-02-2.37755E-04 1.62810E-01-1.67265E-13-2.83842E-13
 -1      2271 1.97976E+01-2.79338E-02 2.05615E-04 1.54166E-01-1.34422E-13-3.06475E-13
 -1      2272 1.98439E+01-3.14607E-02-5.46131E-04 1.79265E-01-1.78272E-13-3.08474E-13
 -1      2273 1.98066E+01-2.87641E-02-4.44304E-04 1.44670E-01-1.09703E-13-2.87992E-13
 -1      2274 1.98286E+01-2.84962E-02 1.63765E-04 1.34994E-01-9.28434E-14-2.80415E-13
 -1      2275 1.98612E+01-3.65508E-02-2.99231E-04 1.63053E-01-1.20998E-13-2.17701E-13
 -1      2276 1.98381E+01-2.79128E-02-5.35117E-04 1.24846E-01-7.62441E-14-2.36143E-13
 -1      2277 1.98583E+01-2.64269E-02 1.48652E-04 1.15393E-01-1.42595E-14-2.28796E-13
 -1      2278 1.98806E+01-3.66810E-02-1.43348E-04 1.43190E-01-7.33984E-14-1.52383E-13
 -1      2279 1.98677E+01-2.48987E-02-5.51539E-04 1.05821E-01-9.48655E-15-2.88690E-13
 -1      2280 1.98859E+01-2.26029E-02 1.59628E-04 9.74363E-02-1.65463E-14-2.93947E-13
 -1      2281 1.99005E+01-3.35261E-02-5.52957E-05 1.22993E-01-3.96180E-14-2.12955E-13
 -1      2282 1.98949E+01-2.04227E-02-5.22131E-04 8.92822E-02-6.36699E-14-2.94342E-13
 -1      2283 1.99113E+01-1.75540E-02 1.97122E-04 8.25528E-02-8.60991E-14-3.08537E-13
 -1      2284 1.99198E+01-2.81605E-02-1.76215E-05 1.04727E-01-5.15634E-14-3.03528E-13
 -1      2285 1.99199E+01-1.48824E-02-4.66526E-04 7.64238E-02-8.48149E-14-2.82389E-13
 -1      2286 1.99349E+01-1.15489E-02 2.62863E-04 7.17901E-02-5.45311E-14-2.78007E-13
 -1      2287 1.99383E+01-2.12191E-02-1.77133E-05 8.99856E-02-7.40133E-14-2.32131E-13
 -1      2288 1.99433E+01-8.44595E-03-3.98015E-04 6.81686E-02-7.53196E-14-2.67411E-13
 -1      2289 1.99577E+01-4.65778E-03 3.59823E-04 6.60108E-02-1.03743E-13-2.36832E-13
 -1      2290 1.99562E+01-1.30066E-02-4.67155E-05 7.99639E-02-8.81826E-14-2.07831E-13
 -1      2291 1.99663E+01-1.10756E-03-3.25394E-04 6.53395E-02-8.99241E-14-3.15675E-13
 -1      2292 1.99810E+01 3.19885E-03 4.91949E-04 6.60401E-02-4.74813E-14-2.95884E-13
 -1      2293 1.99742E+01-3.57778E-03-9.85824E-05 7.56734E-02-1.29708E-13-2.39650E-13
 -1      2294 1.99904E+01 7.26807E-03-2.54290E-04 6.87845E-02-1.37090E-13-2.68006E-13
 -1      2295 2.00065E+01 1.22083E-02 6.63693E-04 7.27744E-02-1.23511E-13-3.49429E-13
 -1      2296 1.99932E+01 7.19929E-03-1.69279E-04 7.80966E-02-1.02382E-13-3.45639E-13
 -1      2297 2.00172E+01 1.69042E-02-1.88116E-04 7.94651E-02-3.44656E-14-3.62596E-13
 -1      2298 2.00361E+01 2.26236E-02 8.79285E-04 8.72523E-02 3.07792E-14-3.83382E-13
 -1      2299 2.00144E+01 1.95863E-02-2.56000E-04 8.82995E-02-8.23393E-14-2.77119E-13
 -1      2300 2.00490E+01 2.80673E-02-1.28752E-04 9.85082E-02 3.56966E-14-3.84040E-13
 -1      2301 2.00722E+01 3.47142E-02 1.14160E-03 1.10687E-01 9.43542E-14-4.83968E-13
 -1      2302 2.00392E+01 3.39160E-02-3.56482E-04 1.07501E-01 8.21286E-15-2.85428E-13
 -1      2303 2.00880E+01 4.10121E-02-7.69219E-05 1.27216E-01 1.50058E-13-5.02369E-13
 -1      2304 2.01172E+01 4.87001E-02 1.45041E-03 1.44454E-01 1.67068E-13-4.77912E-13
 -1      2305 2.00693E+01 5.05214E-02-4.68414E-04 1.37098E-01 1.06323E-13-3.77721E-13
 -1      2306 2.01371E+01 5.59026E-02-3.22103E-05 1.67021E-01 1.43263E-13-4.44639E-13
 -1      2307 2.01743E+01 6.46563E-02 1.79973E-03 1.90011E-01 9.88741E-14-3.65530E-13
 -1      2308 2.01066E+01 6.96390E-02-5.89012E-04 1.78631E-01 1.49960E-13-3.50784E-13
 -1      2309 2.01991E+01 7.26959E-02 7.41274E-06 2.19369E-01 7.12043E-14-3.47764E-13
 -1      2310 2.02465E+01 8.23661E-02 2.17390E-03 2.48731E-01 7.57462E-14-2.81537E-13
 -1      2311 2.01533E+01 9.12655E-02-7.14896E-04 2.33678E-01 1.17457E-13-3.13857E-13
 -1      2312 2.02776E+01 9.09633E-02 4.68334E-05 2.85489E-01-3.00222E-14-3.58540E-13
 -1      2313 2.03371E+01 1.01099E-01 2.54196E-03 3.21602E-01-7.65171E-14-3.97452E-13
 -1      2314 2.02117E+01 1.14943E-01-8.42641E-04 3.03645E-01-8.40501E-15-2.29680E-13
 -1      2315 2.03759E+01 1.09620E-01 9.62059E-05 3.66009E-01-1.13295E-13-4.37598E-13
 -1      2316 2.04498E+01 1.19276E-01 2.85002E-03 4.08734E-01-1.28203E-13-3.89838E-13
 -1      2317 2.02843E+01 1.39431E-01-9.70569E-04 3.89400E-01-1.55520E-13-3.63415E-13
 -1      2318 2.04978E+01 1.26523E-01 1.75068E-04 4.60337E-01-1.62515E-13-3.83264E-13
 -1      2319 2.05878E+01 1.33981E-01 3.01135E-03 5.08591E-01-9.13680E-14-3.52583E-13
 -1      2320 2.03738E+01 1.62225E-01-1.10263E-03 4.90708E-01-1.44029E-13-2.80366E-13
 -1      2321 2.06468E+01 1.37898E-01 3.18603E-04 5.65728E-01-4.52131E-14-4.40605E-13
 -1      2322 2.07541E+01 1.40291E-01 2.89507E-03 6.16852E-01 3.35979E-14-5.24634E-13
 -1      2323 2.04836E+01 1.78866E-01-1.25527E-03 6.05365E-01-1.20017E-13-2.89006E-13
 -1      2324 2.08267E+01 1.37590E-01 5.85735E-04 6.75920E-01 1.05337E-13-5.86793E-13
 -1      2325 2.09511E+01 1.30460E-01 2.31621E-03 7.24805E-01 6.81833E-14-5.71195E-13
 -1      2326 2.06171E+01 1.82023E-01-1.46759E-03 7.27956E-01-7.00134E-15-3.83236E-13
 -1      2327 2.10408E+01 1.16228E-01 1.06636E-03 7.79254E-01 5.11788E-14-5.28988E-13
 -1      2328 2.11808E+01 9.31503E-02 1.03298E-03 8.17245E-01 1.71213E-14-3.56013E-13
 -1      2329 2.07792E+01 1.60452E-01-1.81228E-03 8.48137E-01 4.00839E-14-3.97566E-13
 -1      2330 2.12924E+01 6.06688E-02 1.87781E-03 8.56312E-01-3.50962E-14-2.74458E-13
 -1      2331 2.14438E+01 1.33270E-02-1.23499E-03 8.70043E-01 1.28891E-13-1.75784E-13
 -1      2332 2.09767E+01 9.81809E-02-2.39845E-03 9.48404E-01 5.57706E-14-1.60037E-13
 -1      2333 2.15845E+01-4.53802E-02 3.12880E-03 8.77358E-01 1.39429E-13-1.93863E-13
 -1      2334 2.17397E+01-1.25831E-01-4.74823E-03 8.48066E-01 1.55152E-13-1.18482E-13
 -1      2335 2.12193E+01-2.50873E-02-3.34295E-03 1.00149E+00 1.02736E-13-1.56427E-13
 -1      2336 2.19177E+01-2.17664E-01 4.78457E-03 8.00655E-01 1.17494E-13-1.67783E-13
 -1      2337 2.20644E+01-3.36413E-01-9.55998E-03 7.05101E-01 5.89164E-14-2.49244E-13
 -1      2338 2.15198E+01-2.30218E-01-4.67013E-03 9.67912E-01 6.13207E-14-2.46806E-13
 -1      2339 2.22861E+01-4.61399E-01 6.48392E-03 5.74309E-01 1.02696E-13-3.38683E-13
 -1      2340 2.24056E+01-6.11375E-01-1.52092E-02 3.89569E-01 2.11839E-13-2.97155E-13
 -1      2341 2.18917E+01-5.27878E-01-6.04898E-03 7.95451E-01 4.41715E-14-3.17016E-13
 -1      2342 2.26666E+01-7.52509E-01 7.03822E-03 1.46663E-01 2.52740E-13-2.28526E-13
 -1      2343 2.27325E+01-9.00161E-01-1.99546E-02-1.38696E-01 2.18175E-13-2.39310E-13
 -1      2344 2.23398E+01-8.97001E-01-6.49267E-03 4.24731E-01 2.41033E-13-3.01064E-13
 -1      2345 2.30007E+01-1.00880E+00 4.46692E-03-5.06136E-01 1.05117E-13-8.03793E-14
 -1      2346 2.29805E+01-1.08078E+00-2.00933E-02-8.70902E-01 8.03281E-14-2.61511E-14
 -1      2347 2.28385E+01-1.24961E+00-3.86812E-03-1.91931E-01 2.61731E-13-8.24297E-14
 -1      2348 2.31813E+01-1.07196E+00-3.54474E-03-1.32545E+00-1.64114E-14-1.56686E-14
 -1      2349 2.30485E+01-9.64309E-01-1.08287E-02-1.69065E+00 5.12845E-14 9.83569E-14
 -1      2350 2.32998E+01-1.40234E+00 3.60808E-03-1.04163E+00 3.62312E-14 4.88752E-14
 -1      2351 2.30732E+01-7.44881E-01-1.68150E-02-2.10196E+00 8.60275E-14-1.56633E-14
 -1      2352 2.28311E+01-3.91310E-01 6.71440E-03-2.32047E+00-9.97355E-15-4.78849E-14
 -1      2353 2.35594E+01-1.10132E+00 1.46543E-02-1.97000E+00 1.72781E-14-8.08647E-14
 -1      2354 2.26233E+01 4.30135E-02-3.04998E-02-2.47125E+00-8.29285E-15-5.22507E-14
 -1      2355 2.23292E+01 5.61575E-01 2.07247E-02-2.38759E+00-9.79850E-14 6.81673E-14
 -1      2356 2.34472E+01-2.13628E-01 1.45608E-02-2.61625E+00-2.19811E-15-1.51683E-13
 -1      2357 2.19893E+01 1.05003E+00-2.86891E-02-2.09555E+00-2.11653E-13 4.02040E-14
 -1      2358 2.17405E+01 1.46170E+00 1.66622E-02-1.66218E+00-2.47545E-13 9.05083E-14
 -1      2359 2.29762E+01 1.04381E+00-5.09507E-03-2.52196E+00-1.11513E-13-4.60907E-14
 -1      2360 2.15313E+01 1.69932E+00-4.34806E-03-9.90691E-01-2.93706E-13 1.21477E-13
 -1      2361 2.14147E+01 1.72296E+00-4.92162E-03-3.85361E-01-8.74283E-14 1.39621E-13
 -1      2362 2.24716E+01 2.03708E+00-2.25607E-02-1.50130E+00-2.24185E-13 2.20638E-13
 -1      2363 2.14906E+01 1.52871E+00 1.93546E-02 3.12419E-01-5.37643E-14 5.99312E-14
 -1      2364 2.15205E+01 1.14789E+00-2.78035E-02 7.76580E-01 1.02366E-13-1.31221E-13
 -1      2365 2.23350E+01 2.10630E+00-1.89605E-02-1.65360E-02-1.80314E-13 2.13759E-13
 -1      2366 2.17386E+01 6.85484E-01 2.31073E-02 1.11837E+00 3.78529E-13-3.60764E-13
 -1      2367 2.18293E+01 1.86672E-01-3.15029E-02 1.25361E+00 3.11834E-13-3.71840E-13
 -1      2368 2.25828E+01 1.18914E+00-6.82949E-03 1.08345E+00 1.08039E-14-1.30920E-13
 -1      2369 2.19316E+01-2.28747E-01 8.30971E-03 1.16290E+00 1.81831E-13-3.49176E-13
 -1      2370 2.19890E+01-5.52573E-01-1.64836E-02 1.00957E+00 1.12462E-13-1.42333E-13
 -1      2371 2.28317E+01-7.18523E-03 1.26309E-02 1.29749E+00 2.41872E-13-3.80288E-13
 -1      2372 2.18502E+01-7.29145E-01-9.32531E-03 6.74717E-01 5.20248E-14 1.26396E-14
 -1      2373 2.18187E+01-7.78989E-01 8.99615E-04 4.05645E-01-1.18598E-13 8.52127E-14
 -1      2374 2.27288E+01-8.18836E-01 1.30820E-02 7.91458E-01 1.97797E-13-1.35221E-13
 -1      2375 2.14927E+01-7.12331E-01-1.74379E-02 6.75637E-02-2.37642E-13 1.42523E-13
 -1      2376 2.13612E+01-5.65375E-01 6.15689E-03-1.48625E-01-1.64672E-13 1.30819E-13
 -1      2377 2.22398E+01-9.68129E-01 6.16205E-03 6.03898E-02-7.25607E-14-1.02824E-14
 -1      2378 1.96242E+01 7.24989E-02 2.06691E-03-6.61486E-02 1.74912E-13-2.77508E-14
 -1      2379 1.96516E+01 1.04243E-01 6.91094E-03-2.00304E-02 2.26866E-13 1.92680E-14
 -1      2380 1.96006E+01 3.06123E-02 1.33226E-03-1.31738E-01 1.51224E-13-1.04180E-13
 -1      2381 1.95976E+01 4.95474E-02 3.68165E-03-1.09275E-01 1.71248E-13-4.43241E-14
 -1      2382 1.97686E+01 8.97342E-02-3.17067E-03-7.14743E-02 2.16206E-13-1.40000E-13
 -1      2383 1.96125E+01 5.54990E-03 8.65502E-04-1.60063E-01 1.68266E-13-1.40814E-13
 -1      2384 1.95925E+01 1.68117E-02 1.81445E-03-1.51879E-01 1.55708E-13-1.02247E-13
 -1      2385 1.97343E+01 3.57132E-02-2.28114E-03-1.43691E-01 1.84545E-13-1.67515E-13
 -1      2386 1.96444E+01-9.07202E-03 5.45643E-04-1.65617E-01 1.33167E-13-1.25086E-13
 -1      2387 1.96162E+01-2.63401E-03 7.16227E-04-1.65986E-01 1.50119E-13-1.19037E-13
 -1      2388 1.97308E+01 3.56385E-03-1.51143E-03-1.75332E-01 1.56699E-13-1.73810E-13
 -1      2389 1.96860E+01-1.69569E-02 3.24247E-04-1.57757E-01 4.51798E-14-8.79687E-14
 -1      2390 1.96549E+01-1.36458E-02 6.40251E-05-1.63010E-01 9.98312E-14-9.44032E-14
 -1      2391 1.97459E+01-1.49583E-02-9.35586E-04-1.81884E-01 8.86376E-14-1.38136E-13
 -1      2392 1.97306E+01-2.04183E-02 1.77543E-04-1.42659E-01 1.30029E-13-1.06137E-13
 -1      2393 1.96999E+01-1.91567E-02-3.10116E-04-1.50388E-01 9.42569E-14-8.36936E-14
 -1      2394 1.97711E+01-2.46865E-02-5.33776E-04-1.73574E-01 9.51300E-14-1.51021E-13
 -1      2395 1.97742E+01-2.09681E-02 8.96534E-05-1.24440E-01 1.48790E-13-1.67727E-13
 -1      2396 1.97456E+01-2.10483E-02-5.04100E-04-1.33050E-01 1.71014E-13-1.29487E-13
 -1      2397 1.98007E+01-2.86528E-02-2.67716E-04-1.57247E-01 1.77639E-13-1.72754E-13
 -1      2398 1.98145E+01-1.96080E-02 4.90071E-05-1.05841E-01 1.62096E-13-1.77646E-13
 -1      2399 1.97890E+01-2.05631E-02-5.80364E-04-1.14273E-01 1.31919E-13-1.81962E-13
 -1      2400 1.98311E+01-2.88357E-02-1.02579E-04-1.37505E-01 1.54481E-13-2.07310E-13
 -1      2401 1.98508E+01-1.69878E-02 4.76371E-05-8.86943E-02 1.25957E-13-1.31588E-13
 -1      2402 1.98284E+01-1.85197E-02-5.80655E-04-9.62417E-02 1.81626E-13-9.40483E-14
 -1      2403 1.98604E+01-2.65372E-02-1.16496E-05-1.17444E-01 1.13909E-13-1.70328E-13
 -1      2404 1.98831E+01-1.35035E-02 8.09814E-05-7.42425E-02 5.91630E-14-1.57429E-13
 -1      2405 1.98636E+01-1.54367E-02-5.33096E-04-8.04210E-02 1.27209E-13-9.58657E-14
 -1      2406 1.98876E+01-2.25929E-02 2.44855E-05-9.91535E-02 1.19154E-13-1.27609E-13
 -1      2407 1.99122E+01-9.35922E-03 1.47606E-04-6.33806E-02 1.66687E-14-2.33756E-13
 -1      2408 1.98949E+01-1.16118E-02-4.56457E-04-6.78305E-02 2.74930E-14-1.89244E-13
 -1      2409 1.99126E+01-1.74990E-02 1.97050E-05-8.40825E-02 5.48317E-14-1.24583E-13
 -1      2410 1.99393E+01-4.61043E-03 2.48750E-04-5.68356E-02 8.77524E-14-1.55663E-13
 -1      2411 1.99233E+01-7.17330E-03-3.62922E-04-5.92473E-02 4.42846E-14-1.81911E-13
 -1      2412 1.99359E+01-1.14962E-02-1.66909E-05-7.33021E-02 1.54352E-14-1.24506E-13
 -1      2413 1.99661E+01 8.04226E-04 3.87956E-04-5.53064E-02 8.86126E-14-8.80087E-14
 -1      2414 1.99503E+01-2.11742E-03-2.59930E-04-5.53627E-02 1.21350E-13-1.00600E-13
 -1      2415 1.99584E+01-4.62715E-03-7.88300E-05-6.77111E-02 6.80683E-14-5.00874E-14
 -1      2416 1.99947E+01 7.03834E-03 5.70709E-04-5.95725E-02-3.08220E-14-1.65995E-13
 -1      2417 1.99778E+01 3.66393E-03-1.51604E-04-5.69030E-02 7.22392E-14-8.12601E-14
 -1      2418 1.99815E+01 3.22149E-03-1.63178E-04-6.81920E-02 4.36879E-14 1.32052E-14
 -1      2419 2.00276E+01 1.43166E-02 8.03898E-04-7.05764E-02-1.00783E-13-2.15067E-13
 -1      2420 2.00079E+01 1.03604E-02-3.98725E-05-6.47228E-02-6.68994E-14-1.84661E-13
 -1      2421 2.00067E+01 1.22843E-02-2.67849E-04-7.57299E-02-4.06852E-14-1.29788E-13
 -1      2422 2.00676E+01 2.29131E-02 1.09508E-03-8.94827E-02-2.55939E-14-2.14303E-13
 -1      2423 2.00434E+01 1.82226E-02 7.46452E-05-7.98742E-02-1.04386E-13-2.04824E-13
 -1      2424 2.00360E+01 2.28873E-02-3.91809E-04-9.15021E-02-9.69226E-14-1.54886E-13
 -1      2425 2.01182E+01 3.31234E-02 1.45125E-03-1.17709E-01 9.44765E-14-1.71249E-13
 -1      2426 2.00872E+01 2.75378E-02 1.91862E-04-1.03651E-01 2.94112E-14-2.02759E-13
 -1      2427 2.00717E+01 3.54150E-02-5.34056E-04-1.16935E-01-1.33248E-14-6.91913E-14
 -1      2428 2.01833E+01 4.52230E-02 1.87681E-03-1.56922E-01 1.24581E-14-8.98606E-14
 -1      2429 2.01429E+01 3.85971E-02 3.11502E-04-1.37602E-01 1.30531E-13-1.23235E-13
 -1      2430 2.01164E+01 5.02662E-02-6.92850E-04-1.53728E-01 5.98979E-14-7.68193E-14
 -1      2431 2.02672E+01 5.93969E-02 2.37011E-03-2.08975E-01-8.77812E-14-1.36432E-13
 -1      2432 2.02147E+01 5.16424E-02 4.32467E-04-1.83499E-01 2.94242E-15-1.32275E-13
 -1      2433 2.01731E+01 6.77854E-02-8.64972E-04-2.03823E-01 5.38298E-14-8.24709E-14
 -1      2434 2.03748E+01 7.56201E-02 2.91773E-03-2.75754E-01-5.78724E-14-1.27298E-13
 -1      2435 2.03070E+01 6.67758E-02 5.52337E-04-2.43231E-01-1.21848E-13-1.48581E-13
 -1      2436 2.02452E+01 8.81488E-02-1.04523E-03-2.69309E-01-5.71462E-14-1.41715E-13
 -1      2437 2.05115E+01 9.34497E-02 3.48536E-03-3.58879E-01-1.15307E-13-2.22555E-13
 -1      2438 2.04249E+01 8.38043E-02 6.67246E-04-3.18588E-01-2.82064E-14-1.83340E-13
 -1      2439 2.03361E+01 1.11167E-01-1.22669E-03-3.52200E-01-4.56048E-14-3.11365E-13
 -1      2440 2.06824E+01 1.11675E-01 4.00366E-03-4.59147E-01-6.74162E-14-1.54156E-13
 -1      2441 2.05737E+01 1.01973E-01 7.72603E-04-4.10845E-01-1.79748E-13-1.91391E-13
 -1      2442 2.04498E+01 1.35949E-01-1.40244E-03-4.54035E-01-1.38482E-13-2.70854E-13
 -1      2443 2.08927E+01 1.27745E-01 4.34801E-03-5.75589E-01 1.40247E-13-2.04162E-13
 -1      2444 2.07589E+01 1.19519E-01 8.65620E-04-5.20036E-01 9.84915E-14-1.13818E-13
 -1      2445 2.05900E+01 1.60349E-01-1.57057E-03-5.75180E-01-3.38219E-14-3.30406E-13
 -1      2446 2.11463E+01 1.36885E-01 4.31268E-03-7.03912E-01 2.31137E-14-5.00727E-14
 -1      2447 2.09855E+01 1.32964E-01 9.51179E-04-6.43739E-01 9.17842E-14-9.80792E-14
 -1      2448 2.07607E+01 1.80070E-01-1.74397E-03-7.13678E-01 6.47202E-14-2.39642E-13
 -1      2449 2.14456E+01 1.30862E-01 3.58478E-03-8.34096E-01-6.28512E-16 1.09691E-13
 -1      2450 2.12579E+01 1.36059E-01 1.05276E-03-7.75132E-01 3.44035E-14 6.88282E-14
 -1      2451 2.09659E+01 1.87340E-01-1.96696E-03-8.63432E-01-4.92506E-14-9.65549E-14
 -1      2452 2.17901E+01 9.65807E-02 1.73297E-03-9.46929E-01 8.12926E-14 8.53722E-14
 -1      2453 2.15789E+01 1.18421E-01 1.22838E-03-9.00061E-01 7.16725E-14 1.49172E-13
 -1      2454 2.12101E+01 1.69158E-01-2.33632E-03-1.01148E+00-7.23309E-15 1.09925E-13
 -1      2455 2.21751E+01 1.53155E-02-1.74975E-03-1.00967E+00 2.23022E-14-2.96750E-14
 -1      2456 2.19495E+01 6.42622E-02 1.58127E-03-9.93014E-01 5.94732E-14 1.14298E-14
 -1      2457 2.14994E+01 1.05568E-01-3.01479E-03-1.13418E+00 1.41782E-13 6.26981E-14
 -1      2458 2.25906E+01-1.35249E-01-7.27971E-03-9.72018E-01-6.67127E-14-2.74958E-14
 -1      2459 2.23670E+01-4.74359E-02 2.24752E-03-1.01245E+00-3.70501E-14-5.09163E-15
 -1      2460 2.18422E+01-3.05622E-02-4.18848E-03-1.19254E+00 5.12495E-14 9.75406E-14
 -1      2461 2.30175E+01-3.71605E-01-1.47960E-02-7.65907E-01 1.20001E-13 9.18864E-14
 -1      2462 2.28226E+01-2.38123E-01 3.25569E-03-8.97517E-01-3.78799E-14-2.34391E-14
 -1      2463 2.22503E+01-2.68496E-01-5.87002E-03-1.12786E+00-6.71470E-14 4.36063E-14
 -1      2464 2.34211E+01-6.80773E-01-2.27349E-02-3.16859E-01 5.75182E-14 2.68444E-13
 -1      2465 2.32930E+01-5.14427E-01 4.15304E-03-5.71735E-01 1.72960E-13 2.02306E-13
 -1      2466 2.27346E+01-6.22195E-01-7.44392E-03-8.61485E-01 5.00646E-14 2.15852E-13
 -1      2467 2.37372E+01-9.79566E-01-2.72049E-02 4.19434E-01-4.36942E-14 3.34671E-13
 -1      2468 2.37248E+01-8.35366E-01 3.91565E-03 3.48839E-02 5.79519E-14 3.55163E-13
 -1      2469 2.32890E+01-1.05229E+00-6.78667E-03-3.07749E-01 3.49651E-14 3.54548E-13
 -1      2470 2.38596E+01-1.07809E+00-2.21103E-02 1.38185E+00-3.40949E-13 3.72149E-13
 -1      2471 2.40089E+01-1.06878E+00-1.16507E-03 9.25542E-01-2.09287E-13 3.34194E-13
 -1      2472 2.38525E+01-1.40528E+00-6.79985E-04 5.79827E-01-1.97425E-13 2.79331E-13
 -1      2473 2.36609E+01-7.29422E-01-4.33572E-03 2.30541E+00-4.25136E-13 3.21729E-13
 -1      2474 2.39845E+01-9.78237E-01-1.19943E-02 1.93496E+00-4.74113E-13 4.35514E-13
 -1      2475 2.42678E+01-1.40001E+00 8.63336E-03 1.70782E+00-3.50448E-13 3.44092E-13
 -1      2476 2.30733E+01 1.63625E-01 1.28800E-02 2.70950E+00-2.49455E-13 4.35425E-13
 -1      2477 2.35127E+01-3.49556E-01-3.14417E-02 2.65410E+00-2.54283E-13 3.39502E-13
 -1      2478 2.43101E+01-7.07775E-01 1.54409E-02 2.72218E+00-3.44280E-13 3.10468E-13
 -1      2479 2.22865E+01 1.23755E+00 1.57631E-02 2.14296E+00-2.25098E-14 3.14158E-13
 -1      2480 2.26954E+01 7.19705E-01-3.72351E-02 2.54317E+00-2.56451E-13 3.40842E-13
 -1      2481 2.38467E+01 6.16369E-01-4.18503E-03 2.99506E+00-2.31067E-13 2.82323E-13
 -1      2482 2.17479E+01 1.74349E+00-8.57080E-03 7.06115E-01 2.95201E-13 3.79981E-13
 -1      2483 2.19647E+01 1.61115E+00-1.84301E-02 1.40846E+00 2.78388E-13 3.29164E-13
 -1      2484 2.31741E+01 1.91989E+00-3.50249E-02 2.06503E+00 9.09758E-14-3.76713E-14
 -1      2485 2.17754E+01 1.26293E+00-3.51529E-02-7.85018E-01 3.91742E-13 6.31543E-14
 -1      2486 2.17528E+01 1.62320E+00 1.06532E-02-1.85586E-01 3.20230E-13 2.44130E-13
 -1      2487 2.28511E+01 2.26127E+00-4.71133E-02 2.95048E-01 3.54768E-13 1.15659E-13
 -1      2488 2.21675E+01 2.10724E-01-3.60238E-02-1.47023E+00 5.63360E-13-1.34005E-13
 -1      2489 2.20076E+01 7.59087E-01 2.23276E-02-1.28148E+00 4.50627E-13-3.13334E-14
 -1      2490 2.30604E+01 1.38105E+00-2.02900E-02-1.19229E+00 5.79790E-13-3.20599E-13
 -1      2491 2.24239E+01-6.39795E-01-1.78955E-02-1.18247E+00 6.19816E-13-2.19391E-13
 -1      2492 2.22894E+01-2.75748E-01 8.38465E-03-1.38204E+00 5.63517E-13-9.19915E-14
 -1      2493 2.33598E+01-1.71268E-02 7.92509E-03-1.56116E+00 5.17658E-13-3.05998E-13
 -1      2494 2.22730E+01-8.98322E-01 6.21424E-04-3.82363E-01 1.81992E-13-1.60465E-13
 -1      2495 2.22640E+01-8.47098E-01-1.32400E-02-7.41985E-01 3.20599E-13-6.54537E-14
 -1      2496 2.32628E+01-9.89177E-01 1.34325E-02-9.29370E-01 4.21733E-13-1.32123E-13
 -1      2497 2.17780E+01-6.46984E-01 1.35809E-02 3.76273E-01 1.34771E-13-1.67616E-13
 -1      2498 2.19005E+01-8.28154E-01-2.49058E-02 7.69862E-02 1.99381E-13-1.76683E-13
 -1      2499 2.27031E+01-1.17417E+00 1.31558E-03 3.58645E-02 2.21002E-13 1.82378E-13
 -1      2500 2.11126E+01-1.55091E-01 1.54706E-02 7.50785E-01-8.79019E-14-1.37231E-13
 -1      2501 2.13238E+01-4.14562E-01-2.15254E-02 6.39702E-01-1.17415E-14-1.49395E-13
 -1      2502 2.19070E+01-7.17570E-01 1.16168E-03 7.73485E-01 8.65999E-14 1.75203E-13
 -1      2503 2.06970E+01 1.16897E-01-6.44545E-03 7.45662E-01-1.63149E-13-2.12045E-13
 -1      2504 1.95717E+01 1.83645E+00-3.76625E-02 3.67341E+00 4.69889E-14 4.43857E-13
 -1      2505 2.02836E+01 1.33329E+00 4.10847E-02 3.68265E+00-1.33896E-13 1.32964E-13
 -1      2506 1.80090E+01 2.98512E+00-5.18064E-02 2.85131E+00 3.19267E-14 5.14920E-13
 -1      2507 1.88015E+01 2.54906E+00 4.71815E-02 3.40726E+00-6.63488E-14 6.63274E-13
 -1      2508 1.89191E+01 1.16180E+00 3.95950E-03 4.08350E+00 1.93873E-14 4.90510E-13
 -1      2509 2.13236E+01 3.07390E-01 1.82697E-02 2.45339E+00-2.56825E-13 2.01653E-13
 -1      2510 2.13468E+01 4.67758E-03 3.63608E-04 1.98907E+00-4.53808E-14 1.86118E-13
 -1      2511 2.07980E+01 8.75337E-01-6.04534E-03 3.35949E+00-3.87969E-13 1.99748E-14
 -1      2512 2.11524E+01 4.55155E-01 2.06706E-02 3.01723E+00-4.01463E-13 2.40590E-13
 -1      2513 2.16118E+01-4.16098E-01-1.24176E-02 2.95222E+00-1.50729E-13 8.58672E-14
 -1      2514 2.06746E+01 1.01436E-01-1.79740E-02 3.94321E+00-1.47230E-13 3.46296E-13
 -1      2515 1.69826E+01 3.76797E+00-3.32680E-02 8.46731E-01-3.24523E-14 4.72459E-13
 -1      2516 1.73754E+01 3.58307E+00 2.11716E-02 1.85811E+00-1.76890E-14 4.66653E-13
 -1      2517 1.70088E+01 2.39428E+00 4.84024E-02 2.77468E+00-1.23410E-13 5.38423E-13
 -1      2518 1.72271E+01 3.69711E+00 2.65514E-02-1.57370E+00 2.46270E-14 1.52447E-13
 -1      2519 1.69392E+01 3.82661E+00-1.98090E-02-5.31437E-01-1.36977E-13 2.11310E-13
 -1      2520 1.60676E+01 3.03000E+00 7.76281E-02 1.96414E-01-1.82753E-14 2.85591E-13
 -1      2521 1.85700E+01 2.71374E+00 4.99923E-02-3.30576E+00-1.25088E-13-4.72775E-13
 -1      2522 1.77811E+01 3.10796E+00-5.81357E-02-2.67499E+00-6.92823E-14-1.98369E-13
 -1      2523 1.68340E+01 2.54202E+00 5.24805E-02-2.51986E+00-1.23887E-13-8.82636E-14
 -1      2524 2.00749E+01 1.48648E+00 4.43407E-02-3.77091E+00 1.57892E-13-3.19304E-13
 -1      2525 1.93332E+01 1.98983E+00-4.00471E-02-3.68785E+00 5.36142E-14-2.97522E-13
 -1      2526 1.86150E+01 1.37437E+00 2.12201E-02-4.04596E+00-9.04147E-14-2.74571E-13
 -1      2527 2.11037E+01 4.90532E-01 2.37809E-02-3.20889E+00 4.28035E-13 1.36798E-13
 -1      2528 2.06628E+01 9.54186E-01-1.21478E-02-3.52807E+00 3.61622E-13-4.72027E-13
 -1      2529 2.04513E+01 2.10295E-01-1.49406E-02-4.11835E+00 1.18995E-13-2.21504E-13
 -1      2530 2.14149E+01-4.30139E-02 4.86556E-03-2.16793E+00 2.33746E-13 1.52892E-13
 -1      2531 2.13308E+01 2.81548E-01 1.18999E-02-2.63777E+00 2.30445E-13 3.60925E-13
 -1      2532 2.15807E+01-4.46251E-01-1.42778E-02-3.19102E+00 4.67887E-13 3.06148E-14
 -1      2533 2.12199E+01-1.97194E-01 1.37539E-03-1.15132E+00-2.04559E-13-2.06562E-13
 -1      2534 2.13622E+01-2.16687E-02 2.52181E-02-1.57773E+00-2.46374E-14-3.32746E-14
 -1      2535 2.18423E+01-5.88243E-01 5.91966E-03-1.96928E+00 1.00996E-14-1.24405E-13
 -1      2536 2.00282E+01-6.32777E+00-4.26133E-02 7.72643E+00-1.69587E-13-8.29545E-14
 -1      2537 1.62289E+01-6.26260E+00 7.44102E-02 7.76147E+00-2.71838E-13 3.39520E-14
 -1      2538 2.06081E+01-7.83791E-03-9.81042E-03-5.07239E-01 8.45279E-14-7.70547E-14
 -1      2539 4.30665E+00-2.94619E+00 9.04613E-02-1.72114E+00-2.75967E-13 3.85025E-13
 -1      2540 5.50592E+00-3.91231E+00 5.72311E-02-4.41740E+00-1.27925E-13 1.72973E-13
 -1      2541 1.97053E+01 1.43292E-01 3.26910E-03 5.98815E-02 2.57323E-13 2.75140E-14
 -1      2542 1.97839E+01 1.98112E-01 1.23810E-02 1.46078E-01 2.92512E-13 6.33881E-14
 -1      2543 1.98496E+01 1.80860E-01-3.85873E-03 6.53414E-02 2.70299E-13-1.14873E-13
 -1      2544 5.83589E+00-2.95682E+00 1.27442E-01 3.74866E+00-1.74527E-13 3.78253E-13
 -1      2545 4.64888E+00-2.70229E+00 1.36405E-01 1.28308E+00-3.04548E-13 3.90743E-13
 -1      2546 2.69513E+01-5.44511E+00-1.06214E-01 5.23365E+00 5.40401E-14-4.33320E-13
 -1      2547 2.38596E+01-6.19132E+00 3.57289E-02 6.27054E+00-6.27276E-15-3.44391E-13
 -1      2548 2.05469E+01 1.95536E+00-1.39167E-02-1.90129E+00-5.59428E-13-2.96029E-13
 -1      2549 2.04129E+01 1.21701E+00-5.71018E-03-1.28685E+00-5.04255E-13-2.48080E-13
 -1      2550 2.03729E+01 1.37264E+00 3.14012E-03-1.22947E+00-4.61215E-13-3.50119E-13
 -1      2551 2.02872E+01 2.36626E+00-7.49164E-03-1.82685E+00-5.21617E-13-4.41841E-13
 -1      2552 7.84537E+00-4.52392E+00 6.53256E-02-5.94531E+00 1.09968E-13-8.02691E-14
 -1      2553 1.11607E+01-4.81889E+00 2.80631E-02-7.52432E+00 2.40086E-13-6.74460E-14
 -1      2554 9.04278E+00-2.66172E+00 1.68516E-01-5.25213E+00 2.05613E-13-2.89213E-13
 -1      2555 3.31768E+01 7.72858E+00-1.44254E-01-4.11886E-01 3.82472E-14-2.93883E-13
 -1      2556 3.29276E+01 7.66045E+00-1.40054E-01-1.15514E+00 1.45994E-14-2.30232E-13
 -1      2557 7.63883E+00-4.20703E+00 9.73383E-02 5.59251E+00 1.24761E-13-5.31741E-13
 -1      2558 4.98346E+00-3.80482E+00 1.36439E-01 3.71183E+00 4.57273E-14-8.65086E-13
 -1      2559 1.95185E+01 3.58483E+00-1.00999E-02-2.45280E-01 9.71142E-15-8.16104E-13
 -1      2560 1.95346E+01 3.56415E+00-9.66712E-03-4.26015E-01-4.75232E-14-8.12739E-13
 -1      2561 1.97110E+01 3.16352E+00-5.92172E-04-4.73368E-01-7.01553E-14-7.60838E-13
 -1      2562 1.96766E+01 3.22347E+00-9.23424E-04-1.52001E-01 2.64992E-14-7.73240E-13
 -1      2563 3.36561E+01 2.98318E+00-2.21193E-03 1.54377E+00 3.86635E-13-5.52447E-13
 -1      2564 3.36942E+01 5.19959E+00-1.39411E-01 2.13236E+00 4.15556E-13-4.85945E-13
 -1      2565 3.45060E+01 7.50624E+00-1.13393E-01 3.58399E-01 1.15297E-13-3.89300E-13
 -1      2566 3.40653E+01 6.66085E+00-1.20035E-01-1.21601E-01 1.69142E-13-2.90962E-13
 -1      2567 3.39026E+01 4.71511E+00-7.79273E-02-4.03824E-01 2.67508E-13-1.52323E-13
 -1      2568 3.23587E+01 2.00862E+00-1.12611E-01-3.50199E-01 1.90598E-13-2.00701E-13
 -1      2569 3.31450E+01 7.08386E+00-1.78491E-01 1.60562E+00 4.23050E-13-5.04513E-13
 -1      2570 3.43453E+01 7.77990E+00-6.76832E-02 9.63017E-01 2.12275E-13-4.09690E-13
 -1      2571 3.16188E+01 7.27657E+00-6.38580E-02 5.48826E-01 1.35170E-13-5.09238E-13
 -1      2572 2.48686E+01-5.70821E+00 3.17523E-02-4.00971E+00 8.97893E-14-2.81525E-13
 -1      2573 2.84968E+01-4.22671E+00-5.34218E-02-2.62748E+00 1.64257E-13-3.50137E-13
 -1      2574 1.61505E+01-6.59906E+00 1.07345E-02-6.40083E+00-5.46785E-14-4.69008E-13
 -1      2575 2.02951E+01-6.42832E+00-5.16305E-02-5.90050E+00-1.62648E-14-3.58706E-13
 -1      2576 8.67019E+00-5.67773E+00 3.94810E-02-5.89317E+00 1.04861E-13-4.49030E-13
 -1      2577 1.23256E+01-6.08998E+00-1.30731E-04-6.78991E+00 7.61613E-14-4.01623E-13
 -1      2578 1.56498E+01-5.93006E+00 1.06287E-01-6.49604E+00-5.80092E-14-3.32401E-13
 -1      2579 3.45709E+00-4.34129E+00 5.28364E-02-2.61677E+00-2.54075E-13-6.92002E-13
 -1      2580 5.48436E+00-4.60709E+00 5.16481E-02-4.64535E+00-1.01502E-13-6.23779E-13
 -1      2581 2.77893E+00-3.74011E+00 4.75811E-02 1.38768E+00-2.49842E-13-1.06021E-12
 -1      2582 2.63956E+00-4.01956E+00 8.33412E-02-8.71861E-01-2.14065E-13-7.54563E-13
 -1      2583 5.00095E+00-2.70073E+00 1.51417E-01-1.92721E+00-1.55036E-13-7.38298E-13
 -1      2584 1.35636E+01-5.53856E+00 5.38100E-02 6.81758E+00 2.15189E-13-5.37348E-14
 -1      2585 1.01559E+01-5.15536E+00 1.01950E-01 6.32313E+00 2.17187E-13-4.87360E-13
 -1      2586 1.01495E+01-3.65185E+00 1.69280E-01 5.64876E+00 3.51899E-13-3.73868E-13
 -1      2587 2.93276E+01-3.53403E+00-2.62104E-02-3.68675E+00-2.47996E-14-3.33067E-16
 -1      2588 3.16424E+01-1.74815E+00-1.04356E-01-2.45671E+00-1.22166E-13-1.16962E-13
 -1      2589 2.32882E+01-5.92947E+00-8.55251E-03 5.15617E+00-1.23068E-13 2.43208E-13
 -1      2590 1.88560E+01-6.34883E+00 5.25472E-02 6.27585E+00 1.07137E-13 2.30708E-13
 -1      2591 3.38231E+01 2.69861E+00-6.43862E-02-7.94555E-01-4.95715E-13 3.08642E-13
 -1      2592 3.20051E+01 4.79233E-01-6.42997E-02-2.44200E-01-6.71699E-13 4.74065E-13
 -1      2593 3.31172E+01 6.24540E+00-2.23680E-01-1.83120E+00-8.38218E-14-8.86513E-14
 -1      2594 3.38874E+01 4.73614E+00-3.43971E-02-1.51184E+00-2.02283E-13 5.87308E-14
 -1      2595 3.17430E+01 3.24945E+00-3.47091E-02-2.29090E+00-3.32567E-13-1.17684E-13
 -1      2596 3.36080E+01 5.58443E+00-8.66920E-02 4.93315E-01 1.52101E-13-1.87350E-13
 -1      2597 3.33963E+01 6.75565E+00-1.82360E-01 2.50698E-01-1.80966E-14-2.69146E-13
 -1      2598 3.29705E+01 9.67709E-01-2.74445E-02-7.99780E-01 8.83182E-14-3.71370E-14
 -1      2599 3.38278E+01 3.32491E+00-1.48661E-01 4.78686E-02 2.53936E-13 9.80882E-14
 -1      2600 2.37210E+01-6.01000E+00 1.14469E-02-6.33832E+00-3.76366E-13-2.66231E-13
 -1      2601 2.71807E+01-4.92806E+00-2.43384E-02-5.45384E+00-1.66728E-13 2.32869E-14
 -1      2602 2.86051E+01-4.79199E+00 8.13252E-03-3.70559E+00-1.21514E-13 1.32672E-13
 -1      2603 1.57118E+01-5.95971E+00 9.55967E-02-7.84193E+00 5.90084E-14-2.65232E-13
 -1      2604 1.99049E+01-6.26199E+00-1.23127E-03-7.86433E+00-2.24765E-13-5.25670E-13
 -1      2605 2.04912E+01 8.74938E-01-7.31366E-03 1.22656E+00 5.57670E-13 2.92131E-13
 -1      2606 2.08417E+01 1.25693E+00-6.05245E-03 1.72727E+00 5.90750E-13 3.79930E-13
 -1      2607 2.06475E+01 1.71562E+00-1.57936E-02 1.92141E+00 6.42176E-13 1.63990E-13
 -1      2608 2.04496E+01 1.05803E+00-9.39817E-03 1.24131E+00 5.68223E-13 5.44665E-14
 -1      2609 3.16271E+01-1.58517E+00-1.60580E-01 1.13373E+00 1.63335E-13-1.18294E-13
 -1      2610 2.97732E+01-3.73246E+00 1.77299E-02 2.99419E+00 1.27093E-13-1.33393E-13
 -1      2611 2.86034E+01-4.83109E+00 5.57321E-02 3.28151E+00-1.58901E-14-2.29261E-14
 -1      2612 3.06177E+01 4.40237E+00-9.68557E-02 2.86635E+00 4.40453E-13-4.49946E-13
 -1      2613 3.22319E+01 5.76135E+00-1.28651E-01 2.29999E+00 4.78534E-13-3.80820E-13
 -1      2614 3.00870E+01 6.08627E+00-1.56240E-01 2.26362E+00 3.74312E-13-4.65378E-13
 -1      2615 1.99116E+01 2.81431E+00 1.51152E-03-1.09902E+00-3.04145E-13-7.29004E-13
 -1      2616 1.97815E+01 3.16182E+00-1.46447E-02-1.28625E+00-3.28465E-13-7.61008E-13
 -1      2617 1.98780E+01 3.02494E+00-1.73837E-02-1.47570E+00-3.98904E-13-7.14460E-13
 -1      2618 1.99953E+01 3.40199E-01-3.52940E-03 3.04461E-01 3.57976E-13-7.39027E-14
 -1      2619 2.04229E+01 2.11578E+00-1.27789E-02 1.87440E+00 6.29053E-13-8.25433E-14
 -1      2620 3.16552E+01-8.95077E-02-6.50706E-02-2.84744E-01 2.51382E-13-1.67949E-13
 -1      2621 3.02156E+01-1.83784E+00-4.31886E-02 9.80547E-02 3.31811E-13-7.56756E-14
 -1      2622 3.03723E+01 1.25721E+00-1.58823E-01-1.38757E+00 2.91794E-13-4.34097E-14
 -1      2623 3.18795E+01 1.12681E+00-3.42030E-02 2.03411E+00 2.92377E-13-4.82725E-13
 -1      2624 1.50190E+01-5.17343E+00 1.44043E-01 7.74220E+00-2.48523E-13 6.41154E-14
 -1      2625 3.10647E+01 6.53088E+00-9.52067E-02-1.74561E+00-9.49241E-15-4.52166E-13
 -1      2626 2.30738E+01-6.16430E+00 4.72159E-02-6.59318E+00-1.52628E-13-1.93748E-13
 -1      2627 2.10549E+01-4.94344E-02-5.14426E-03 1.02896E+00-1.27668E-13-5.38220E-14
 -1      2628 2.12132E+01 3.00158E-02 9.95650E-03 1.35252E+00 9.61731E-15 2.50850E-13
 -1      2629 3.15796E+01-9.96721E-01-2.60766E-03-6.22118E-01 1.02834E-14 1.29119E-13
 -1      2630 2.29431E+01-6.19015E+00 9.78672E-02 6.60307E+00-6.50591E-14-2.29913E-13
 -1      2631 2.09150E+01-2.53627E-01 7.51880E-03-3.70203E-01-9.84803E-14-5.50809E-14
 -1      2632 2.11096E+01-1.77793E-01 1.66383E-02-7.49252E-01-8.69029E-14 3.41871E-14
 -1      2633 2.15331E+01-5.74921E-01-1.75450E-02-9.69443E-01-2.26134E-13-1.59280E-15
 -1      2634 2.10672E+01-4.43295E-01-2.18424E-02-2.89098E-01-1.99652E-13 1.31487E-13
 -1      2635 6.51815E+00-1.57902E+00 1.62984E-01-4.61784E-01-1.91611E-13 4.15834E-13
 -1      2636 2.04369E+01 1.80803E+00 1.25378E-02 1.56215E+00 5.84904E-13-1.34482E-13
 -1      2637 8.02239E+00-2.91316E+00 1.69437E-01 4.89228E+00-2.78694E-13 5.71959E-13
 -1      2638 8.82487E+00-1.34757E+00 1.62945E-01 3.84145E+00-2.01131E-13 3.68705E-13
 -1      2639 1.03259E+01-2.83807E+00 5.56421E-02 5.99831E+00-2.98123E-13 5.44287E-13
 -1      2640 3.10059E+01 6.80259E+00-1.04042E-01 1.67499E-01 3.83027E-15-2.50272E-13
 -1      2641 1.99861E+01 2.83982E+00-1.48966E-02-1.58635E+00-4.32632E-13-6.52185E-13
 -1      2642 2.01316E+01 2.61212E+00-2.25258E-02-1.75230E+00-4.99135E-13-5.57781E-13
 -1      2643 2.02850E+01 2.05198E+00 3.97038E-03-1.48652E+00-4.84582E-13-4.81768E-13
 -1      2644 2.00850E+01 2.49441E+00 4.05580E-03-1.34325E+00-4.02416E-13-6.30913E-13
 -1      2645 2.55898E+01-5.68509E+00 3.61989E-02 3.75568E+00-2.65926E-13 2.63595E-13
 -1      2646 2.39120E+01-6.02249E+00 5.83805E-02 4.16244E+00-1.73611E-14 2.25337E-13
 -1      2647 2.69712E+01-5.17634E+00-1.30898E-01 2.09133E+00-3.02688E-13 3.82541E-13
 -1      2648 5.77768E+00-2.45722E+00 1.63811E-01 2.50575E+00-3.07393E-14-7.19536E-13
 -1      2649 8.83434E+00-4.19141E+00 1.30706E-01-5.31476E+00-8.17957E-14-5.44398E-13
 -1      2650 3.16590E+01 5.10146E+00-8.66444E-02-9.71832E-01 2.61041E-13-3.92797E-13
 -1      2651 2.94006E+01-3.66491E+00-2.74473E-02-6.50859E-01 1.43704E-13-4.97630E-13
 -1      2652 1.52324E+01-4.72768E+00 1.40251E-01-7.52618E+00 1.61288E-13-1.00558E-13
 -1      2653 3.08519E+01-1.52087E+00-7.69117E-02-1.04163E-01-7.13976E-13 4.59854E-13
 -1      2654 2.94227E+01-3.00035E+00 2.47044E-02 1.78701E-01-5.57304E-13 4.93994E-13
 -1      2655 3.03386E+01-5.88476E-01-1.67393E-01-1.65695E+00-6.37448E-13 3.00371E-13
 -1      2656 2.33261E+01-6.25198E+00 3.80670E-02-4.65743E+00-6.22280E-14-3.12736E-13
 -1      2657 2.54193E+01-5.92996E+00-5.14799E-02-2.97791E+00-1.21861E-13-2.74482E-13
 -1      2658 2.17564E+01-6.23047E+00 8.78319E-02-5.08552E+00-1.60455E-13-2.07171E-13
 -1      2659 1.69692E+01-5.77099E+00 9.11595E-02 6.56479E+00 1.48687E-13 3.81001E-13
 -1      2660 1.53079E+01-4.56620E+00 1.63719E-01 6.31773E+00 2.72449E-13 1.22444E-13
 -1      2661 1.98330E+01-5.70703E+00 3.40362E-02 5.56918E+00 2.68549E-13 3.36151E-13
 -1      2662 3.18921E+01 3.74066E+00-6.92845E-02 9.05908E-01 1.12438E-13-9.34808E-14
 -1      2663 2.16665E+01-4.92236E-01-1.19469E-02 1.66542E+00 8.06354E-15 2.12775E-13
 -1      2664 2.16599E+01-6.65110E-01 1.09611E-02-4.22336E-01-2.34412E-13 2.98037E-13
 -1      2665 1.98446E+01 2.76493E+00-6.30080E-03 5.16250E-01 2.56231E-13-6.74592E-13
 -1      2666 1.98197E+01 2.81469E+00-5.70083E-03 3.65381E-01 2.04506E-13-6.94942E-13
 -1      2667 1.98028E+01 2.85220E+00-5.61632E-03 2.29863E-01 1.72287E-13-7.11370E-13
 -1      2668 1.97942E+01 2.86909E+00-5.43518E-03 7.52382E-02 1.09381E-13-7.11465E-13
 -1      2669 1.99492E+01 2.50088E+00 3.64365E-03 2.65239E-01 1.79163E-13-6.67674E-13
 -1      2670 2.00434E+01 2.32394E+00-1.07260E-02 1.04592E+00 4.66785E-13-5.01325E-13
 -1      2671 1.99792E+01 2.47288E+00-6.30892E-03 9.10357E-01 4.10467E-13-5.53430E-13
 -1      2672 2.02170E+01 1.90813E+00-1.20236E-02 1.22718E+00 5.21501E-13-3.61190E-13
 -1      2673 2.01244E+01 2.14624E+00-4.80033E-03 1.13375E+00 4.88417E-13-4.34816E-13
 -1      2674 2.01892E+01 1.88647E+00 6.43318E-03 9.26419E-01 4.49671E-13-4.28841E-13
 -1      2675 2.02130E+01 7.26867E-01-3.49506E-03 6.42620E-01 4.22966E-13-1.40684E-13
 -1      2676 2.03550E+01 9.51769E-01 9.14724E-03 9.06430E-01 4.72631E-13-1.21041E-13
 -1      2677 9.46237E+00-1.08981E+00 2.00422E-01-4.02192E+00-1.45772E-13-3.80473E-13
 -1      2678 1.12992E+01-2.00887E+00 7.71297E-02-5.82213E+00 6.53505E-14-4.86361E-13
 -1      2679 2.03384E+01 1.50026E+00-1.89964E-03 1.26692E+00 5.39392E-13-1.73125E-13
 -1      2680 2.02155E+01 6.25371E-01 7.13290E-03-4.39541E-01-3.11005E-13-3.69038E-13
 -1      2681 2.01322E+01 4.77170E-01-3.02091E-03-2.79217E-01-2.70105E-13-3.83310E-13
 -1      2682 2.01067E+01 3.62745E-01 6.70025E-03-1.58528E-01-2.46416E-13-3.49482E-13
 -1      2683 2.00474E+01 2.67625E-01-1.76673E-03-6.09167E-02-2.16026E-13-3.70223E-13
 -1      2684 2.01948E+01 5.29644E-01-1.64913E-03-2.61484E-01-2.66590E-13-3.98699E-13
 -1      2685 2.00210E+01 1.97293E-01 4.49469E-03 1.41595E-02-1.92649E-13-3.46041E-13
 -1      2686 1.99851E+01 1.37786E-01-8.39008E-04 7.06842E-02-1.68230E-13-3.46271E-13
 -1      2687 2.01265E+01 2.98241E-01-2.11427E-03-5.57217E-02-2.00775E-13-3.82505E-13
 -1      2688 1.99641E+01 9.36490E-02 2.90203E-03 1.14030E-01-1.64779E-13-3.42457E-13
 -1      2689 1.99459E+01 5.63732E-02-2.96996E-04 1.43414E-01-1.81349E-13-3.70752E-13
 -1      2690 2.00697E+01 1.52270E-01-1.89873E-03 7.14699E-02-1.83580E-13-3.68616E-13
 -1      2691 1.99309E+01 2.89341E-02 1.73733E-03 1.64850E-01-1.90362E-13-3.67343E-13
 -1      2692 1.99249E+01 6.21115E-03 3.87673E-06 1.76705E-01-1.69876E-13-3.61050E-13
 -1      2693 2.00286E+01 5.99177E-02-1.51988E-03 1.42414E-01-1.93280E-13-3.89839E-13
 -1      2694 1.99151E+01-1.02104E-02 9.31346E-04 1.83763E-01-1.42789E-13-3.53166E-13
 -1      2695 1.99169E+01-2.32384E-02 1.64156E-04 1.84686E-01-1.36442E-13-3.35443E-13
 -1      2696 2.00012E+01 3.00649E-03-1.14131E-03 1.75111E-01-1.59197E-13-3.52212E-13
 -1      2697 1.99111E+01-3.22729E-02 3.91651E-04 1.82807E-01-1.19904E-13-2.97972E-13
 -1      2698 1.99175E+01-3.87915E-02 2.46153E-04 1.77332E-01-9.61521E-14-2.45728E-13
 -1      2699 1.99846E+01-3.01773E-02-8.23007E-04 1.83038E-01-9.01663E-14-2.60853E-13
 -1      2700 1.99146E+01-4.28476E-02 4.38230E-05 1.70371E-01-1.22846E-13-1.83692E-13
 -1      2701 1.99234E+01-4.49974E-02 2.86555E-04 1.61615E-01-1.09377E-13-1.81155E-13
 -1      2702 1.99758E+01-4.73571E-02-5.76816E-04 1.75908E-01-7.22461E-14-2.18317E-13
 -1      2703 1.99225E+01-4.57038E-02-1.69094E-04 1.52271E-01-1.06734E-13-1.44559E-13
 -1      2704 1.99323E+01-4.49318E-02 3.07435E-04 1.42369E-01-5.72989E-14-1.62941E-13
 -1      2705 1.99725E+01-5.37371E-02-3.96466E-04 1.60605E-01-1.09602E-13-1.67824E-13
 -1      2706 1.99328E+01-4.33857E-02-2.90033E-04 1.32515E-01-6.18017E-14-1.92394E-13
 -1      2707 1.99428E+01-4.06519E-02 3.22986E-04 1.22928E-01-4.19908E-14-2.33652E-13
 -1      2708 1.99729E+01-5.28452E-02-2.70776E-04 1.41952E-01-8.06491E-14-1.71860E-13
 -1      2709 1.99442E+01-3.75695E-02-3.51007E-04 1.13863E-01-3.01102E-14-2.55570E-13
 -1      2710 1.99541E+01-3.34784E-02 3.43200E-04 1.05607E-01-4.87397E-14-2.22509E-13
 -1      2711 1.99758E+01-4.70332E-02-1.88417E-04 1.23310E-01-4.04404E-14-1.17410E-13
 -1      2712 1.99561E+01-2.92926E-02-3.75713E-04 9.82533E-02-9.14124E-14-2.01493E-13
 -1      2713 1.99658E+01-2.41819E-02 3.75674E-04 9.20625E-02-9.81362E-14-1.99919E-13
 -1      2714 1.99804E+01-3.77941E-02-1.39703E-04 1.07040E-01-8.58031E-14-1.62964E-13
 -1      2715 1.99683E+01-1.91121E-02-3.81563E-04 8.71141E-02-1.15500E-13-2.36001E-13
 -1      2716 1.99780E+01-1.31178E-02 4.26611E-04 8.35697E-02-1.23308E-13-2.76868E-13
 -1      2717 1.99862E+01-2.59783E-02-1.16818E-04 9.48626E-02-1.47559E-13-2.55411E-13
 -1      2718 1.99810E+01-7.22103E-03-3.81350E-04 8.16065E-02-1.34766E-13-2.54829E-13
 -1      2719 1.99910E+01-3.26513E-04 5.01324E-04 8.12303E-02-1.38908E-13-2.34858E-13
 -1      2720 1.99930E+01-1.19502E-02-1.13451E-04 8.81329E-02-1.41588E-13-2.70011E-13
 -1      2721 1.99945E+01 6.46059E-03-3.84468E-04 8.28047E-02-8.84775E-14-2.21102E-13
 -1      2722 2.00054E+01 1.43829E-02 6.04312E-04 8.61286E-02-6.08505E-14-2.38965E-13
 -1      2723 2.00009E+01 4.29104E-03-1.24605E-04 8.80460E-02-1.21354E-13-1.41952E-13
 -1      2724 2.00095E+01 2.22075E-02-3.97710E-04 9.18272E-02-1.07042E-13-2.39797E-13
 -1      2725 2.00220E+01 3.13566E-02 7.39083E-04 9.94406E-02-6.36794E-14-2.16662E-13
 -1      2726 2.00099E+01 2.30100E-02-1.46173E-04 9.57916E-02-6.73136E-14-1.42783E-13
 -1      2727 2.00267E+01 4.04115E-02-4.25748E-04 1.09924E-01-5.74718E-14-1.96937E-13
 -1      2728 2.00417E+01 5.10146E-02 9.07732E-04 1.22497E-01-1.24235E-14-2.06709E-13
 -1      2729 2.00205E+01 4.46386E-02-1.74518E-04 1.12658E-01-8.39764E-14-2.16242E-13
 -1      2730 2.00473E+01 6.14931E-02-4.71230E-04 1.38514E-01 4.19069E-14-2.47720E-13
 -1      2731 2.00655E+01 7.37516E-02 1.11016E-03 1.56800E-01 9.51804E-14-3.18733E-13
 -1      2732 2.00329E+01 6.96704E-02-2.06280E-04 1.40089E-01-6.06559E-14-1.93743E-13
 -1      2733 2.00722E+01 8.57883E-02-5.34338E-04 1.79178E-01 1.04506E-13-3.54651E-13
 -1      2734 2.00948E+01 9.98020E-02 1.34289E-03 2.03973E-01 1.43702E-13-3.21998E-13
 -1      2735 2.00476E+01 9.85286E-02-2.38434E-04 1.79687E-01 6.85307E-14-2.57182E-13
 -1      2736 2.01028E+01 1.13387E-01-6.11673E-04 2.33572E-01 1.32827E-13-3.53242E-13
 -1      2737 2.01308E+01 1.29044E-01 1.59746E-03 2.65645E-01 5.55784E-14-3.17345E-13
 -1      2738 2.00652E+01 1.31385E-01-2.68783E-04 2.33155E-01 1.21338E-13-4.58170E-13
 -1      2739 2.01405E+01 1.43895E-01-6.94159E-04 3.03265E-01-1.85642E-14-3.60971E-13
 -1      2740 2.01751E+01 1.60708E-01 1.85832E-03 3.43213E-01-5.14039E-14-3.64429E-13
 -1      2741 2.00862E+01 1.67896E-01-2.97318E-04 3.02160E-01 2.29796E-14-4.02482E-13
 -1      2742 2.01870E+01 1.76086E-01-7.63506E-04 3.89448E-01-1.07814E-13-3.91123E-13
 -1      2743 2.02295E+01 1.92950E-01 2.10047E-03 4.37473E-01-1.98877E-13-3.90201E-13
 -1      2744 2.01114E+01 2.06819E-01-3.29076E-04 3.88094E-01-1.17234E-13-4.60872E-13
 -1      2745 2.02444E+01 2.07378E-01-7.86626E-04 4.92471E-01-1.47514E-13-2.31063E-13
 -1      2746 2.02961E+01 2.22224E-01 2.28677E-03 5.48044E-01-3.76137E-14-1.54684E-13
 -1      2747 2.01420E+01 2.45445E-01-3.79467E-04 4.91691E-01-9.75060E-14-2.67114E-13
 -1      2748 2.03153E+01 2.33105E-01-7.07306E-04 6.11169E-01-1.19080E-13-1.56028E-13
 -1      2749 2.03776E+01 2.42418E-01 2.36495E-03 6.72529E-01-1.45225E-13-2.14456E-13
 -1      2750 2.01799E+01 2.78801E-01-4.83306E-04 6.12483E-01-7.41738E-14-3.53059E-14
 -1      2751 2.04039E+01 2.45513E-01-4.34684E-04 7.41877E-01-5.15623E-14-1.82828E-13
 -1      2752 2.04786E+01 2.43723E-01 2.26410E-03 8.05343E-01 3.87887E-14-1.78328E-13
 -1      2753 2.02284E+01 2.98554E-01-7.08708E-04 7.48020E-01-5.81422E-14-1.78640E-14
 -1      2754 2.05164E+01 2.32540E-01 1.70751E-04 8.77055E-01 7.67265E-14-1.56885E-13
 -1      2755 2.06058E+01 2.11362E-01 1.88872E-03 9.36116E-01 3.32798E-14-1.29144E-13
 -1      2756 2.02933E+01 2.91635E-01-1.17562E-03 8.92795E-01 4.29326E-14-1.21242E-14
 -1      2757 2.06630E+01 1.76617E-01 1.31028E-03 1.00342E+00 4.68869E-14-1.19315E-13
 -1      2758 2.07705E+01 1.24627E-01 1.10456E-03 1.04761E+00 1.00220E-13-2.50359E-14
 -1      2759 2.03852E+01 2.38786E-01-2.07397E-03 1.03677E+00 4.14244E-14-5.60335E-14
 -1      2760 2.08597E+01 5.42149E-02 3.24375E-03 1.09948E+00 6.21660E-14-8.36649E-14
 -1      2761 2.09902E+01-4.26438E-02-2.92773E-04 1.11314E+00 1.35443E-13-1.07310E-13
 -1      2762 2.05218E+01 1.13659E-01-3.66762E-03 1.16330E+00 9.07466E-14-1.13166E-13
 -1      2763 2.11306E+01-1.62124E-01 6.23921E-03 1.13229E+00 1.02088E-13-7.79458E-14
 -1      2764 2.12895E+01-3.17603E-01-2.66623E-03 1.09360E+00 3.74028E-14-1.02106E-13
 -1      2765 2.07314E+01-1.15986E-01-6.24939E-03 1.24605E+00 1.09386E-13-1.43794E-13
 -1      2766 2.15067E+01-4.95873E-01 1.02831E-02 1.05379E+00-7.34913E-15 3.50966E-14
 -1      2767 2.16979E+01-7.14965E-01-6.40544E-03 9.35018E-01 1.15399E-13 6.02498E-14
 -1      2768 2.10555E+01-4.81431E-01-9.99239E-03 1.24436E+00 4.24472E-14 1.70363E-13
 -1      2769 2.20183E+01-9.46151E-01 1.49386E-02 7.99380E-01 2.03512E-13 1.76123E-14
 -1      2770 2.22364E+01-1.20961E+00-1.19643E-02 5.71430E-01 3.16402E-13 4.19285E-14
 -1      2771 2.15448E+01-9.93572E-01-1.43164E-02 1.09744E+00 1.02388E-13 2.41286E-13
 -1      2772 2.26725E+01-1.45403E+00 1.75729E-02 2.93057E-01 3.54024E-13-1.86754E-14
 -1      2773 2.28919E+01-1.68827E+00-1.80043E-02-6.36909E-02 1.93291E-13 6.60218E-14
 -1      2774 2.22443E+01-1.60650E+00-1.74383E-02 7.21833E-01 2.44373E-13 2.07779E-13
 -1      2775 2.34024E+01-1.83931E+00 1.40494E-02-5.18917E-01 5.71411E-14 6.70972E-14
 -1      2776 2.35668E+01-1.89491E+00-2.04249E-02-9.79814E-01-1.40148E-14 2.41125E-14
 -1      2777 2.31449E+01-2.14823E+00-1.60963E-02 2.24993E-02 9.76467E-14 8.64222E-14
 -1      2778 2.40265E+01-1.78234E+00-2.39074E-03-1.57958E+00-8.31610E-14 2.14303E-14
 -1      2779 2.40734E+01-1.44998E+00-7.32514E-03-2.03635E+00-5.46926E-14-8.05183E-14
 -1      2780 2.41193E+01-2.26716E+00-5.74328E-03-1.02950E+00-9.82465E-14 1.23991E-13
 -1      2781 2.42425E+01-9.02385E-01-3.63131E-02-2.55634E+00 1.25117E-15-2.53275E-13
 -1      2782 2.41522E+01-1.18569E-01 1.02900E-02-2.76451E+00-2.06848E-14-1.61204E-13
 -1      2783 2.48368E+01-1.45079E+00 1.13371E-02-2.25081E+00-6.27597E-14-1.71490E-13
 -1      2784 2.39536E+01 7.82096E-01-6.90117E-02-2.87980E+00-7.02806E-14-1.90761E-13
 -1      2785 2.37289E+01 1.74916E+00-1.62752E-03-2.61836E+00-5.69614E-14-1.81690E-13
 -1      2786 2.49830E+01 2.51435E-01-4.15313E-03-2.99695E+00-1.40570E-13-4.92726E-13
 -1      2787 2.34538E+01 2.52553E+00-5.98778E-02-2.00237E+00-1.65503E-13-2.19730E-13
 -1      2788 2.32520E+01 2.99800E+00-3.98919E-02-1.33219E+00-3.12073E-13-9.89191E-14
 -1      2789 2.46161E+01 2.56001E+00-2.52578E-02-2.49575E+00-1.32266E-13-4.56656E-13
 -1      2790 2.32877E+01 3.06453E+00-1.12207E-02-2.81375E-01-3.48208E-13-4.73892E-14
 -1      2791 2.33004E+01 2.64483E+00-5.45947E-02 4.14166E-01-2.77216E-13-1.62309E-13
 -1      2792 2.42960E+01 3.78049E+00-3.68146E-02-8.10385E-01-2.86056E-13-3.96004E-13
 -1      2793 2.35222E+01 1.93028E+00-2.88508E-03 1.08499E+00-2.62478E-13-2.10134E-13
 -1      2794 2.36334E+01 1.01461E+00-7.09304E-02 1.39952E+00-4.11025E-14-2.68097E-13
 -1      2795 2.44928E+01 2.70846E+00-4.35563E-02 8.64519E-01-3.16306E-13-4.52159E-13
 -1      2796 2.38017E+01 1.22023E-01 3.74135E-03 1.37566E+00 2.59346E-13-3.99726E-13
 -1      2797 2.38087E+01-6.39306E-01-4.05985E-02 1.22159E+00 3.33465E-13-2.79311E-13
 -1      2798 2.48289E+01 6.27955E-01-1.65670E-02 1.50909E+00-1.51060E-14-3.16320E-13
 -1      2799 2.35948E+01-1.14255E+00-1.28706E-02 7.46987E-01 2.24782E-13-3.13755E-13
 -1      2800 2.34347E+01-1.40707E+00-7.61192E-03 3.69072E-01 9.74229E-14-2.88223E-13
 -1      2801 2.46532E+01-1.14158E+00 1.89713E-03 8.59681E-01 2.20723E-13-6.23895E-13
 -1      2802 2.29269E+01-1.42020E+00-1.62683E-02-1.47490E-01 3.64908E-14-2.90025E-13
 -1      2803 2.26212E+01-1.26267E+00 9.90631E-03-4.90733E-01-1.13013E-14-2.11498E-13
 -1      2804 2.38424E+01-1.74694E+00 3.91386E-03-2.16296E-01 1.18840E-13-6.09053E-13
 -1      2805 1.98548E+01 4.90486E-02 4.36725E-05-1.43514E-01 1.84366E-13-1.97432E-13
 -1      2806 1.98689E+01 8.09464E-02 3.16256E-03-1.15274E-01 2.06710E-13-1.74780E-13
 -1      2807 8.44497E+00-3.58418E-01 1.93606E-01 1.16122E+00-1.40932E-13 4.53221E-13
 -1      2808 8.15976E+00-6.28980E-01 1.33999E-01-1.85399E+00-7.39547E-14 2.95375E-13
 -1      2809 1.05443E+01-1.17047E-02 1.15485E-01-2.49608E+00-1.75887E-13-3.08920E-14
 -1      2810 1.98919E+01 1.18553E-01-2.60825E-04-7.08450E-02 2.02393E-13-1.73707E-13
 -1      2811 1.99276E+01 1.70197E-01 5.20238E-03-1.54053E-02 2.25165E-13-1.70604E-13
 -1      2812 1.99915E+01 1.35164E-01-2.33718E-03-7.23647E-02 2.28989E-13-2.14924E-13
 -1      2813 1.98429E+01-1.84064E-02 2.42524E-04-1.83818E-01 8.79518E-14-1.69893E-13
 -1      2814 1.98345E+01-7.34885E-03 8.81657E-04-1.83406E-01 1.09133E-13-1.41940E-13
 -1      2815 1.98539E+01-3.16784E-02 2.55638E-04-1.76113E-01 9.82705E-14-1.78193E-13
 -1      2816 1.98412E+01-2.61047E-02 2.97317E-04-1.81858E-01 7.28445E-14-1.80077E-13
 -1      2817 1.99200E+01-2.50086E-02-8.54162E-04-1.86736E-01 1.00739E-13-2.23341E-13
 -1      2818 1.98700E+01-3.71563E-02 2.53150E-04-1.60122E-01 1.69578E-13-1.63269E-13
 -1      2819 1.98554E+01-3.52348E-02-6.55393E-05-1.69011E-01 1.53058E-13-1.44974E-13
 -1      2820 1.99200E+01-4.01418E-02-5.56745E-04-1.79158E-01 1.05095E-13-1.94622E-13
 -1      2821 1.98882E+01-3.74381E-02 2.49589E-04-1.40592E-01 1.40404E-13-1.47083E-13
 -1      2822 1.98733E+01-3.79402E-02-2.76327E-04-1.50584E-01 1.85836E-13-1.17025E-13
 -1      2823 1.99253E+01-4.59939E-02-3.49125E-04-1.63207E-01 1.54935E-13-1.51405E-13
 -1      2824 1.99069E+01-3.42542E-02 2.53629E-04-1.20767E-01 1.21317E-13-1.46741E-13
 -1      2825 1.98925E+01-3.63681E-02-3.85073E-04-1.30478E-01 1.12155E-13-1.39973E-13
 -1      2826 1.99338E+01-4.56419E-02-2.11926E-04-1.43760E-01 1.34273E-13-1.31915E-13
 -1      2827 1.99252E+01-2.87173E-02 2.71115E-04-1.02874E-01 5.67702E-14-1.23929E-13
 -1      2828 1.99117E+01-3.19301E-02-4.27610E-04-1.11355E-01 1.25283E-13-1.46470E-13
 -1      2829 1.99440E+01-4.11287E-02-1.29394E-04-1.24180E-01 1.00240E-13-9.89832E-14
 -1      2830 1.99429E+01-2.14848E-02 3.07120E-04-8.84870E-02-6.69908E-16-6.82542E-14
 -1      2831 1.99303E+01-2.55064E-02-4.29503E-04-9.50611E-02 9.22821E-15-8.18947E-14
 -1      2832 1.99550E+01-3.37537E-02-8.82459E-05-1.06809E-01 3.12371E-14-7.41272E-14
 -1      2833 1.99602E+01-1.28636E-02 3.66508E-04-7.87994E-02 2.40522E-14-7.46839E-14
 -1      2834 1.99482E+01-1.75761E-02-4.09293E-04-8.29376E-02 1.12988E-14-4.61413E-14
 -1      2835 1.99664E+01-2.42643E-02-7.84410E-05-9.33298E-02 1.20588E-14-1.87559E-14
 -1      2836 1.99779E+01-2.88989E-03 4.54180E-04-7.48367E-02-1.59257E-15-5.60514E-15
 -1      2837 1.99658E+01-8.30851E-03-3.80235E-04-7.60642E-02 6.78780E-15-5.56407E-14
 -1      2838 1.99783E+01-1.29845E-02-9.29706E-05-8.50527E-02 9.76909E-15-1.51179E-14
 -1      2839 1.99968E+01 8.61051E-03 5.75368E-04-7.76168E-02 2.24238E-14 3.99292E-14
 -1      2840 1.99839E+01 2.36705E-03-3.51803E-04-7.54411E-02 5.73942E-14 2.74535E-14
 -1      2841 1.99910E+01 9.04872E-05-1.26222E-04-8.31289E-02 1.44852E-14 4.63811E-14
 -1      2842 2.00181E+01 2.19737E-02 7.35339E-04-8.82721E-02-4.89277E-14-3.92586E-14
 -1      2843 2.00035E+01 1.47074E-02-3.31035E-04-8.21284E-02 2.14649E-14 4.17078E-15
 -1      2844 2.00050E+01 1.52178E-02-1.73877E-04-8.87152E-02 1.84828E-14 4.89647E-14
 -1      2845 2.00433E+01 3.76514E-02 9.39064E-04-1.08137E-01-1.02617E-13-6.83646E-14
 -1      2846 2.00260E+01 2.91091E-02-3.23281E-04-9.73506E-02-1.06036E-13-9.60442E-14
 -1      2847 2.00210E+01 3.28457E-02-2.32321E-04-1.03096E-01-2.99703E-14 4.42029E-15
 -1      2848 2.00741E+01 5.61591E-02 1.19054E-03-1.38800E-01-3.67262E-14-1.20330E-14
 -1      2849 2.00527E+01 4.60606E-02-3.32736E-04-1.22565E-01-7.24168E-14-4.52623E-14
 -1      2850 2.00399E+01 5.35521E-02-2.97771E-04-1.27768E-01-1.06475E-13-3.75617E-14
 -1      2851 2.01124E+01 7.80059E-02 1.49158E-03-1.82112E-01 1.50231E-13-3.19037E-14
 -1      2852 2.00854E+01 6.60832E-02-3.62715E-04-1.59495E-01 8.33084E-14 5.76900E-15
 -1      2853 2.00626E+01 7.79720E-02-3.65807E-04-1.64479E-01 5.91736E-14-5.74568E-15
 -1      2854 2.01602E+01 1.03588E-01 1.84007E-03-2.40143E-01 1.44243E-14-1.95226E-14
 -1      2855 2.01262E+01 8.96467E-02-4.15409E-04-2.10113E-01 1.38385E-13 1.67405E-14
 -1      2856 2.00902E+01 1.06697E-01-4.31024E-04-2.15225E-01 1.03993E-13 1.53143E-14
 -1      2857 2.02198E+01 1.33014E-01 2.22716E-03-3.15050E-01 9.76541E-16-7.12146E-14
 -1      2858 2.01769E+01 1.17034E-01-4.90878E-04-2.76559E-01 2.48372E-15-6.29366E-16
 -1      2859 2.01238E+01 1.40123E-01-4.87151E-04-2.82182E-01 2.78005E-15 1.90090E-13
 -1      2860 2.02934E+01 1.65819E-01 2.63345E-03-4.08827E-01-3.56597E-14-1.66785E-13
 -1      2861 2.02400E+01 1.48122E-01-5.84756E-04-3.60962E-01 6.92968E-15-1.46284E-13
 -1      2862 2.01645E+01 1.78197E-01-5.28283E-04-3.67545E-01 4.91220E-14 1.02652E-13
 -1      2863 2.03836E+01 2.00485E-01 3.02365E-03-5.22861E-01-1.87562E-13-1.64551E-13
 -1      2864 2.03177E+01 1.82008E-01-6.83749E-04-4.65110E-01-9.26098E-14-1.75677E-13
 -1      2865 2.02133E+01 2.20008E-01-5.52352E-04-4.73251E-01-8.58088E-14-3.63305E-15
 -1      2866 2.04929E+01 2.33673E-01 3.33974E-03-6.57204E-01 7.22389E-14-2.73147E-13
 -1      2867 2.04128E+01 2.16415E-01-7.57522E-04-5.89896E-01-4.72355E-14-2.47925E-13
 -1      2868 2.02716E+01 2.63119E-01-5.68720E-04-6.00504E-01-2.25541E-14-1.00665E-13
 -1      2869 2.06242E+01 2.59028E-01 3.49241E-03-8.09421E-01 1.34603E-14-2.14314E-13
 -1      2870 2.05282E+01 2.46724E-01-7.45055E-04-7.34423E-01 1.91159E-14-2.75818E-13
 -1      2871 2.03410E+01 3.02512E-01-6.12784E-04-7.49058E-01 2.60397E-14-2.56978E-13
 -1      2872 2.07815E+01 2.65430E-01 3.35081E-03-9.72841E-01-8.99392E-14-1.50914E-13
 -1      2873 2.06680E+01 2.64530E-01-5.33616E-04-8.94613E-01-9.76779E-15-2.16997E-13
 -1      2874 2.04244E+01 3.28978E-01-7.71134E-04-9.16120E-01-2.60701E-14-1.91931E-13
 -1      2875 2.09715E+01 2.34759E-01 2.72868E-03-1.13401E+00 1.67871E-14-7.02224E-14
 -1      2876 2.08387E+01 2.55631E-01 6.91344E-05-1.06111E+00-7.33359E-14-5.46756E-14
 -1      2877 2.05274E+01 3.26859E-01-1.21996E-03-1.09475E+00-1.11016E-13-1.59643E-13
 -1      2878 2.12062E+01 1.39714E-01 1.35630E-03-1.26913E+00 1.48349E-13-4.20337E-14
 -1      2879 2.10514E+01 1.97705E-01 1.36205E-03-1.21619E+00 1.08237E-13-1.63606E-14
 -1      2880 2.06614E+01 2.71306E-01-2.27339E-03-1.27150E+00 5.10899E-14-1.90239E-13
 -1      2881 2.15057E+01-5.63999E-02-1.15321E-03-1.33961E+00-8.07541E-15 6.46244E-15
 -1      2882 2.13251E+01 5.87422E-02 3.74225E-03-1.32954E+00 1.31525E-13 9.55017E-14
 -1      2883 2.08480E+01 1.25990E-01-4.42140E-03-1.42303E+00 5.22467E-14-7.40975E-14
 -1      2884 2.19011E+01-3.93284E-01-5.33761E-03-1.28707E+00-9.80372E-14 3.57752E-14
 -1      2885 2.16906E+01-2.00718E-01 7.65837E-03-1.35265E+00-8.60288E-14 6.48081E-14
 -1      2886 2.11250E+01-1.55966E-01-8.24559E-03-1.51095E+00-4.16724E-14-1.59559E-15
 -1      2887 2.24301E+01-8.91086E-01-1.18034E-02-1.03023E+00 4.35101E-14 1.80350E-13
 -1      2888 2.21894E+01-6.14968E-01 1.31971E-02-1.21277E+00-3.71897E-14 7.62518E-14
 -1      2889 2.15511E+01-6.21109E-01-1.40060E-02-1.47419E+00-1.18401E-13-3.37645E-14
 -1      2890 2.31149E+01-1.49879E+00-2.00944E-02-4.71931E-01 7.96620E-14 1.67294E-13
 -1      2891 2.28596E+01-1.17827E+00 1.89877E-02-8.11571E-01 1.46743E-13 2.32703E-13
 -1      2892 2.22007E+01-1.28093E+00-2.07675E-02-1.21979E+00 5.24387E-14 1.91969E-15
 -1      2893 2.39163E+01-2.00420E+00-2.56654E-02 4.64020E-01-3.00453E-13 1.38483E-13
 -1      2894 2.36933E+01-1.77271E+00 2.25725E-02-4.03264E-02-3.75004E-14 1.71322E-13
 -1      2895 2.31350E+01-2.04237E+00-2.45815E-02-6.20391E-01-3.41198E-15 5.36762E-14
 -1      2896 2.46485E+01-1.95029E+00-1.77434E-02 1.69097E+00-3.52008E-13 1.01483E-13
 -1      2897 2.45295E+01-2.06207E+00 1.09286E-02 1.12766E+00-3.69416E-13 1.31950E-13
 -1      2898 2.42752E+01-2.56310E+00-2.86814E-02 4.70337E-01-3.11720E-13 7.22226E-14
 -1      2899 2.50091E+01-8.88214E-01-1.24314E-02 2.87706E+00-2.40828E-13 6.13854E-14
 -1      2900 2.51076E+01-1.59508E+00-2.31102E-02 2.45405E+00-3.56221E-13 4.21569E-14
 -1      2901 2.54447E+01-2.22087E+00-1.88899E-02 1.95843E+00-3.39742E-13-1.05727E-13
 -1      2902 2.47397E+01 1.21291E+00-7.50232E-03 3.14331E+00-8.58202E-14-8.70545E-14
 -1      2903 2.49935E+01 8.02312E-02-8.13231E-02 3.25646E+00-1.86455E-13 4.32310E-14
 -1      2904 2.60124E+01-5.61995E-01-2.14464E-02 3.19802E+00-1.55757E-13-9.73874E-14
 -1      2905 2.39800E+01 3.10779E+00-8.73461E-02-1.86528E-01 4.67903E-13-2.45344E-13
 -1      2906 2.40206E+01 3.37911E+00-5.87934E-02 7.50585E-01 3.41643E-13-2.03363E-13
 -1      2907 2.43283E+01 1.28002E+00-9.27272E-02-1.59919E+00 6.44918E-13-3.24693E-13
 -1      2908 2.42197E+01 2.35420E+00-1.10158E-02-1.12164E+00 5.52614E-13-2.52555E-13
 -1      2909 2.54287E+01 3.38420E+00-8.39952E-02-7.88630E-01 5.31158E-13-3.77497E-13
 -1      2910 2.45072E+01-7.51999E-01-5.60839E-02-1.47765E+00 5.10170E-13-3.90479E-13
 -1      2911 2.44961E+01 2.00326E-01 2.11874E-03-1.62805E+00 5.29844E-13-3.98132E-13
 -1      2912 2.57263E+01 8.00023E-01-4.28547E-02-1.71065E+00 6.10460E-13-3.25968E-13
 -1      2913 2.40576E+01-1.71876E+00-7.33079E-03-4.07242E-01 2.04275E-13-1.11407E-13
 -1      2914 2.42389E+01-1.38924E+00-1.23231E-02-8.91402E-01 4.06981E-13-2.99311E-13
 -1      2915 2.54438E+01-1.37965E+00-1.25401E-02-1.07654E+00 3.42937E-13-1.14121E-13
 -1      2916 2.30939E+01-1.54992E+00 1.14359E-02 7.00461E-01 1.15891E-13-3.25295E-14
 -1      2917 2.34227E+01-1.74307E+00-2.66759E-02 2.53413E-01 1.53393E-13-1.97472E-14
 -1      2918 2.44321E+01-2.16754E+00-1.11069E-02 2.96230E-01 1.06631E-13-1.70621E-13
 -1      2919 2.21814E+01-9.23399E-01 1.18088E-02 1.41231E+00-3.21696E-14 2.19741E-13
 -1      2920 2.25804E+01-1.34947E+00-2.60363E-02 1.16886E+00 2.18030E-14 1.17292E-13
 -1      2921 2.33333E+01-1.83654E+00 2.34920E-03 1.41671E+00-4.23659E-14-7.81927E-14
 -1      2922 2.23234E+01-9.84230E-01 1.35843E-02 2.11575E+00-1.39121E-13 2.48937E-14
 -1      2923 1.43379E+01 2.33206E+00 1.14071E-02-4.51723E-01-1.64501E-13 2.17541E-13
 -1      2924 1.45685E+01 2.26711E+00 4.74358E-02 9.90596E-01-1.33215E-13 3.82999E-13
 -1      2925 2.21831E+01-1.05557E+00-1.28039E-02-7.12335E-01-5.40397E-14-2.25570E-14
 -1      2926 2.19541E+01-8.29095E-01 1.25044E-02-8.35489E-01-1.01230E-13-1.26466E-14
 -1      2927 2.28775E+01-1.44441E+00 1.37419E-03-9.66081E-01 7.86502E-14-3.86614E-13
 -1      2928 1.80415E+01 3.79004E-01-3.46428E-02 4.54926E+00-5.00806E-14 5.37174E-13
 -1      2929 1.95417E+01-1.14915E-01 9.02464E-02 4.77237E+00 4.74967E-14 2.37817E-13
 -1      2930 1.51481E+01 6.99965E-01 7.55866E-02-4.08649E+00-2.70070E-13-4.63435E-13
 -1      2931 1.38593E+01 1.25546E+00 4.96128E-02-2.78308E+00-1.88884E-13-1.10932E-13
 -1      2932 1.52816E+01 1.75731E+00-1.87839E-02 2.76403E+00-1.58510E-13 5.08080E-13
 -1      2933 1.65694E+01 1.32875E+00 9.64479E-02 3.82867E+00-1.81788E-13 6.68087E-13
 -1      2934 1.67821E+01-1.22902E-01 6.23330E-02 4.78937E+00-1.07286E-13 3.90597E-13
 -1      2935 1.37988E+01 1.30837E+00 9.83446E-02 2.19019E+00-2.45335E-13 4.98664E-13
 -1      2936 1.99613E+01 2.31078E-01-7.82214E-04 6.26772E-02 2.51114E-13-1.78674E-13
 -1      2937 2.00268E+01 3.14954E-01 7.81482E-03 1.60415E-01 3.02180E-13-1.47964E-13
 -1      2938 2.00562E+01 2.65668E-01-2.73540E-03 6.06128E-02 2.47243E-13-2.03947E-13
 -1      2939 2.14226E+01-1.02850E+00 3.45982E-02-4.32135E+00 7.63674E-14-1.67820E-13
 -1      2940 2.03531E+01-6.46119E-01-3.35371E-02-4.61887E+00-7.51673E-14-1.97483E-13
 -1      2941 2.24645E+01-1.30969E+00 2.40783E-02-2.95131E+00 3.27622E-13-2.09529E-14
 -1      2942 2.21055E+01-1.14176E+00 1.53561E-02-3.53918E+00 4.53464E-13 1.48393E-14
 -1      2943 2.21901E+01-2.04049E+00 8.01621E-03-4.16692E+00 1.54197E-13 2.37367E-13
 -1      2944 2.87465E+01 6.38493E+00-1.97912E-01-1.44707E+00-2.87825E-14-5.86446E-13
 -1      2945 2.92306E+01 5.27090E+00-1.49470E-01-2.53254E+00-5.78149E-14-5.80508E-13
 -1      2946 2.20601E+01-5.63393E+00 9.04618E-02-6.61519E+00-1.06776E-13 2.77590E-14
 -1      2947 2.52117E+01-5.83673E+00-8.37597E-03-5.47685E+00-2.06210E-13 1.77365E-13
 -1      2948 2.21017E+01-9.28296E-01-7.53949E-03-1.29686E+00-8.48651E-14-2.32142E-13
 -1      2949 2.03215E+01 1.57892E+00-8.99655E-03-1.24186E+00-4.54325E-13-4.38276E-13
 -1      2950 2.03054E+01 1.21397E+00 8.11489E-04-9.70550E-01-4.10211E-13-4.11528E-13
 -1      2951 2.02400E+01 1.84367E+00-4.45539E-04-1.21891E+00-4.21481E-13-5.20239E-13
 -1      2952 2.43505E+01-5.99657E+00-1.02350E-01 5.69360E+00 1.49603E-14-6.01810E-14
 -1      2953 2.17221E+01-5.54151E+00 1.78933E-01 6.71756E+00-6.32688E-14-1.41858E-13
 -1      2954 2.95456E+01 5.39682E+00-2.08609E-01-8.02222E-01 2.45248E-13-3.83402E-13
 -1      2955 2.94565E+01 3.74643E+00-1.63503E-01-1.38813E+00 3.61822E-13-3.22117E-13
 -1      2956 8.82968E+00-2.76417E+00 1.60471E-01-4.50333E+00-2.53492E-13-5.91582E-13
 -1      2957 1.16896E+01-3.94733E+00 1.02949E-01-5.90551E+00-8.63754E-14-3.93074E-13
 -1      2958 1.98412E+01 6.53370E-03 1.87571E-04-1.76307E-01 1.14091E-13-1.68646E-13
 -1      2959 1.98412E+01 2.58422E-02 1.78701E-03-1.65288E-01 1.51419E-13-1.86965E-13
 -1      2960 1.99509E+01 5.37728E-02-1.76983E-03-1.45544E-01 1.67436E-13-2.31534E-13
 -1      2961 1.99288E+01 3.98873E-03-1.25839E-03-1.78895E-01 1.07634E-13-1.85703E-13
 -1      2962 2.03054E+01 9.88543E-01 2.81501E-03-7.97395E-01-3.75539E-13-3.96147E-13
 -1      2963 2.02189E+01 7.60538E-01-3.70756E-03-5.61078E-01-3.43250E-13-3.93132E-13
 -1      2964 2.02520E+01 8.20582E-01-4.03278E-03-5.23097E-01-3.14567E-13-4.30943E-13
 -1      2965 2.02841E+01 1.21517E+00 3.26388E-03-8.29099E-01-3.59461E-13-4.41230E-13
 -1      2966 1.99232E+01 2.59586E+00-7.88458E-03 7.94469E-01 3.73004E-13-6.04635E-13
 -1      2967 1.98793E+01 2.68801E+00-6.12340E-03 6.45478E-01 3.00506E-13-6.45676E-13
 -1      2968 1.99980E+01 2.38834E+00 4.33498E-03 5.16785E-01 2.62070E-13-6.12654E-13
 -1      2969 2.00795E+01 2.19058E+00 5.59977E-03 7.45748E-01 3.54219E-13-5.36476E-13
 -1      2970 1.43036E+01-3.34874E+00 1.62334E-01-6.99169E+00 1.34892E-13 4.40481E-14
 -1      2971 1.79891E+01-4.79583E+00 1.26292E-02-7.52508E+00-4.05231E-15-5.83561E-14
 -1      2972 2.00703E+01 4.15404E-01-1.54448E-03 2.87849E-01 3.49493E-13-1.60086E-13
 -1      2973 2.01715E+01 5.53675E-01 1.04324E-02 4.50517E-01 3.75024E-13-1.39040E-13
 -1      2974 2.02537E+01 8.21438E-01 6.16118E-04 6.17209E-01 4.21964E-13-2.22605E-13
 -1      2975 2.01459E+01 4.76803E-01-2.18679E-03 2.80477E-01 3.39833E-13-2.02216E-13
 -1      2976 1.98745E+01 2.69637E+00-6.14631E-03-6.35267E-01-1.54531E-13-7.23945E-13
 -1      2977 1.99173E+01 2.60697E+00-7.76186E-03-7.84840E-01-2.17777E-13-7.15101E-13
 -1      2978 2.79656E+01-4.55724E+00 1.00950E-03-8.18820E-01 1.02487E-14-5.22027E-13
 -1      2979 2.95886E+01-2.87467E+00-1.47942E-01 8.13639E-01 1.02570E-13-6.77097E-13
 -1      2980 3.04804E+01-3.55468E-01-1.13212E-02 2.27259E+00 1.77372E-13-6.18894E-13
 -1      2981 3.05418E+01 1.72013E+00-2.29910E-01 2.82207E+00 3.54772E-13-4.45116E-13
 -1      2982 7.80027E+00-1.59772E+00 1.08010E-01 3.19442E+00 1.33504E-13-5.21944E-13
 -1      2983 6.41826E+00-1.33224E+00 2.07536E-01 8.14227E-01-6.79483E-14-6.57252E-13
 -1      2984 1.42781E+01-4.83317E+00 1.33733E-01-6.17195E+00-9.55624E-14-1.70766E-13
 -1      2985 1.74311E+01-5.55341E+00 3.97312E-02-6.04980E+00-1.25983E-13-2.35978E-13
 -1      2986 1.40261E+01-3.64841E+00 1.53481E-01-5.53440E+00-1.56569E-13-2.45415E-13
 -1      2987 1.22459E+01-3.51689E+00 8.83304E-02 5.96621E+00 4.02761E-13-2.75446E-13
 -1      2988 1.02422E+01-2.50348E+00 1.91658E-01 4.97684E+00 3.43614E-13-2.76335E-13
 -1      2989 5.92840E+00-1.56940E+00 1.19517E-01-1.11050E+00-1.30694E-13-6.35630E-13
 -1      2990 6.91242E+00-1.95128E+00 1.35253E-01-3.00726E+00-1.90070E-13-7.26141E-13
 -1      2991 9.80205E+00-1.77869E+00 1.95713E-01-3.66730E+00-1.53350E-13-6.72629E-13
 -1      2992 8.15367E+00-7.41904E-01 1.80727E-01-2.20454E-01-4.59442E-15-5.81063E-13
 -1      2993 3.01752E+01-2.45995E+00 8.67777E-03-7.12968E-01-1.34816E-13 1.45245E-13
 -1      2994 3.05506E+01-3.71006E-01-2.11714E-01 4.76266E-01 7.13180E-14 3.82083E-13
 -1      2995 1.75254E+01-4.90854E+00-3.38090E-02 7.55753E+00-1.91819E-13-1.28231E-14
 -1      2996 1.38622E+01-3.68995E+00 2.16545E-01 7.06077E+00-1.96454E-13 1.80772E-13
 -1      2997 3.04396E+01 1.99995E+00-8.91950E-02 1.36207E+00-3.46945E-14 1.30090E-13
 -1      2998 2.97411E+01 3.94060E+00-2.12794E-01 1.33871E+00-1.60705E-13-5.61218E-14
 -1      2999 2.95090E+01 3.21565E+00-2.28883E-01-2.82088E+00-1.36308E-13-3.94379E-13
 -1      3000 3.00961E+01 1.40644E+00-1.06868E-01-2.73053E+00-3.77476E-13-1.78496E-13
 -1      3001 2.87813E+01-4.32040E+00-1.32987E-01 1.97828E+00 1.04070E-13 4.32862E-13
 -1      3002 2.71704E+01-5.40774E+00 7.76767E-02 3.76242E+00-3.61447E-14 2.75432E-13
 -1      3003 2.70638E+01-5.43216E+00 4.38826E-02-4.07912E+00-2.31828E-13 2.12830E-13
 -1      3004 2.86198E+01-4.58771E+00-1.35974E-01-2.74772E+00-1.61933E-13 4.92661E-14
 -1      3005 2.59472E+01-5.38216E+00 4.69684E-02-4.41403E+00-3.49956E-13 3.85227E-13
 -1      3006 2.93161E+01 5.74147E+00-1.52165E-01 8.75766E-01-1.09995E-13-2.08181E-13
 -1      3007 2.87679E+01 6.55740E+00-2.13371E-01-2.29858E-01-7.30527E-14-3.03702E-13
 -1      3008 1.99712E+01 2.48626E+00-6.60172E-03-9.02387E-01-2.55779E-13-6.86610E-13
 -1      3009 2.00363E+01 2.34022E+00-1.01107E-02-1.03594E+00-3.25405E-13-6.63961E-13
 -1      3010 2.00744E+01 2.20286E+00 5.82060E-03-7.39098E-01-2.25612E-13-6.48126E-13
 -1      3011 1.99326E+01 2.53842E+00 3.43339E-03 4.59633E-03 7.49825E-14-6.68301E-13
 -1      3012 1.97935E+01 2.86993E+00-5.49212E-03-6.18949E-02 4.86262E-14-7.23838E-13
 -1      3013 1.98010E+01 2.85529E+00-5.56004E-03-2.16612E-01-3.12212E-15-7.31103E-13
 -1      3014 1.46185E+01-2.04334E+00 1.83091E-01-6.08262E+00-8.55843E-14-1.26052E-13
 -1      3015 2.02907E+01 1.58788E+00-1.13188E-03 1.16585E+00 5.20676E-13-2.73850E-13
 -1      3016 2.93388E+01-3.11965E+00-2.41223E-02 5.27587E-01 3.26239E-13 6.41709E-14
 -1      3017 2.80163E+01-3.91406E+00-2.04291E-02 1.23614E+00 2.71309E-13 4.17957E-13
 -1      3018 2.88074E+01-1.76866E+00-1.17074E-01-7.16831E-01 3.94303E-13 3.20022E-14
 -1      3019 2.02781E+01-1.53409E+00 6.92828E-03 5.05164E+00 1.35239E-14 3.90254E-13
 -1      3020 2.07343E+01-7.32330E-01-1.98021E-02 4.42587E+00 5.81078E-14 4.35673E-13
 -1      3021 2.16568E+01-1.04652E+00 4.20778E-02 4.02963E+00-1.22324E-13 4.92609E-13
 -1      3022 2.79699E+01 3.54647E+00-1.13036E-01-2.83971E+00-7.22478E-14-6.04093E-13
 -1      3023 2.41705E+01 3.09110E+00-3.20373E-02 1.91602E+00 1.52107E-13-2.27244E-13
 -1      3024 2.44156E+01 2.29558E+00-8.85691E-02 2.67546E+00 9.11771E-15-2.04673E-13
 -1      3025 2.58041E+01 2.09449E+00-6.62376E-02 3.16741E+00-4.56440E-14-4.12219E-13
 -1      3026 2.53829E+01 4.01579E+00-9.40425E-02 1.44774E+00 2.23252E-13-4.43258E-13
 -1      3027 2.93492E+01 3.46463E-01-7.16989E-02 1.17196E+00-1.36439E-13 3.37397E-13
 -1      3028 2.20637E+01-1.06448E+00 1.07117E-02 3.35504E+00-4.80076E-14 1.01852E-13
 -1      3029 2.23290E+01-1.18165E+00 1.22051E-02 2.76898E+00-6.74216E-14 5.64123E-14
 -1      3030 2.27930E+01-1.76593E+00-2.33616E-02 2.54946E+00-1.12605E-13 5.83691E-15
 -1      3031 2.23288E+01-1.90934E+00 2.56948E-02 3.88883E+00 5.06791E-14 1.64400E-13
 -1      3032 1.91113E+01 2.39821E-01 1.00140E-01-4.78460E+00-1.23106E-13-1.23263E-13
 -1      3033 1.77303E+01 7.77348E-01-2.39841E-02-4.35250E+00-2.20426E-13-2.68525E-13
 -1      3034 2.74839E+01 5.73330E+00-1.14215E-01-8.60215E-01-1.74472E-13-5.34051E-13
 -1      3035 2.22342E+01-9.87304E-01-2.47267E-03-1.89440E+00 1.34650E-13-1.55065E-13
 -1      3036 2.30451E+01-1.61558E+00 2.61480E-02-1.55277E+00 9.12798E-14-4.29923E-13
 -1      3037 2.26500E+01-1.38911E+00-8.00316E-03-2.29001E+00 1.86401E-13-2.87285E-13
 -1      3038 2.32699E+01-2.16386E+00-7.25739E-03-2.64722E+00 1.89737E-13-2.09395E-13
 -1      3039 2.34102E+01-1.93833E+00-1.03019E-02-1.34773E+00 1.22755E-13-4.79905E-13
 -1      3040 2.88042E+01-3.62021E+00-2.28518E-02-1.37735E+00-2.45186E-13 2.98608E-13
 -1      3041 2.02804E+01 1.36649E+00 2.30639E-03 9.19854E-01 4.65568E-13-3.10767E-13
 -1      3042 1.36512E+01-2.37775E+00 1.87621E-01 6.21664E+00-2.92696E-13 3.66665E-13
 -1      3043 2.58368E+01-5.28669E+00 6.41013E-02 4.18402E+00 1.62217E-13 4.41425E-13
 -1      3044 2.00542E+01-4.53992E+00 9.45332E-02 6.71284E+00-4.62130E-15-1.77983E-14
 -1      3045 1.01106E+01-1.47959E+00 1.51686E-01 3.62166E+00 1.76852E-13-3.77740E-13
 -1      3046 2.35825E+01-5.73047E+00-6.80278E-03 3.66823E+00 9.68323E-14 9.11701E-14
 -1      3047 2.18990E+01-5.85753E+00 7.65185E-02 4.91038E+00 2.54838E-13 5.96519E-14
 -1      3048 1.99128E+01-5.09997E+00 9.51974E-02 5.26321E+00 2.38948E-13 1.39218E-13
 -1      3049 2.80989E+01-4.35239E+00-3.24382E-02 8.25889E-01-3.87572E-13 3.77517E-13
 -1      3050 2.64628E+01-5.03508E+00-1.65342E-03 1.61754E+00-2.25216E-13 2.93744E-13
 -1      3051 2.82938E+01-3.51620E+00-1.01162E-01-6.42075E-01-4.75226E-13 4.46088E-13
 -1      3052 1.98166E+01 2.81981E+00-5.71864E-03-3.51680E-01-4.04796E-14-7.08602E-13
 -1      3053 1.98409E+01 2.77145E+00-6.20929E-03-5.05341E-01-1.09309E-13-7.12471E-13
 -1      3054 1.99942E+01 2.39609E+00 4.39218E-03-5.07463E-01-1.26578E-13-6.73930E-13
 -1      3055 1.99473E+01 2.50449E+00 3.64657E-03-2.55711E-01-2.89535E-14-6.87278E-13
 -1      3056 2.80330E+01 5.17893E+00-1.49420E-01 2.16135E+00 2.14884E-13-5.17149E-13
 -1      3057 2.88805E+01 6.10708E+00-1.83398E-01 1.53060E+00 2.40086E-13-5.94566E-13
 -1      3058 2.92645E+01-1.80792E+00-3.09746E-02 1.99849E+00 7.32261E-14-5.41081E-13
 -1      3059 2.91279E+01-1.77390E-01-4.84168E-02-2.31331E+00-4.39065E-13-3.43475E-14
 -1      3060 2.69053E+01-5.45285E+00-1.81720E-02-1.65071E+00-1.52364E-13-4.23814E-13
 -1      3061 2.72194E+01-4.65232E+00-1.47113E-01-1.20976E-01-1.75950E-13-5.48235E-13
 -1      3062 2.54755E+01-5.43655E+00 1.29870E-01-2.40769E+00-2.18603E-13-2.90743E-13
 -1      3063 2.95319E+01 2.67424E+00-1.23835E-01 3.16513E+00 3.19661E-13-2.90185E-13
 -1      3064 2.01778E+01-5.77656E+00 1.17906E-01-5.31401E+00-1.57860E-13-2.66825E-13
 -1      3065 2.21394E+01-5.91026E+00-8.02303E-02-4.24539E+00-1.65395E-13-1.35858E-13
 -1      3066 1.84412E+01-4.81717E+00 6.85648E-02-5.26568E+00-1.86837E-13-1.34802E-13
 -1      3067 2.89098E+01 6.34137E+00-2.16456E-01 9.40130E-01 2.10554E-13-4.96674E-13
 -1      3068 2.92611E+01 6.20088E+00-1.79388E-01-1.28793E-01 1.63286E-13-3.84338E-13
 -1      3069 1.52137E+01-3.78386E+00 1.19024E-01 5.65040E+00 3.23949E-13 2.27873E-14
 -1      3070 1.99692E+01-1.21985E+00 4.62017E-02-5.16067E+00-1.45261E-13-4.33611E-14
 -1      3071 2.81918E+01 4.07831E+00-1.10267E-01 1.20815E+00-2.95902E-13-1.48229E-13
 -1      3072 2.70909E+01 5.45842E+00-1.20799E-01 9.93966E-01 2.52381E-13-5.17889E-13
 -1      3073 2.76088E+01 5.01313E+00-9.71552E-02-5.57349E-01 2.80470E-13-3.03930E-13
 -1      3074 2.02397E+01 1.47519E+00-7.99421E-03 8.01024E-01 4.18371E-13-3.90627E-13
 -1      3075 2.02001E+01 1.66966E+00-4.70680E-04 7.46182E-01 3.75911E-13-4.30051E-13
 -1      3076 1.05733E+01-4.58181E-01 1.35589E-01 3.41886E+00-1.84495E-13 3.10030E-13
 -1      3077 9.04747E+00-4.02897E-01 2.05953E-01 2.27018E+00-2.15317E-13 2.84300E-13
 -1      3078 2.93621E+01 2.44005E+00-1.37753E-01-1.62088E+00 4.51666E-13-9.15656E-14
 -1      3079 2.87010E+01 7.90601E-01-9.31119E-02-1.48944E+00 4.89678E-13 3.36953E-14
 -1      3080 1.98439E+01-4.23589E+00 1.19580E-01-6.81840E+00-1.17503E-13 9.91256E-14
 -1      3081 2.09346E+01-5.31017E+00 1.19266E-01-6.99807E+00-5.56361E-14 1.75190E-14
 -1      3082 2.49750E+01-4.83444E+00 5.63277E-02-4.41486E+00-1.96041E-13 2.46395E-13
 -1      3083 2.63342E+01-4.93433E+00-7.50551E-02-3.35408E+00-2.74211E-13 2.75540E-13
 -1      3084 2.02212E+01 4.22406E-01 4.18536E-03-1.20730E-01-2.08149E-13-3.99162E-13
 -1      3085 2.01813E+01 3.14814E-01-2.30987E-03-3.59747E-02-1.68696E-13-4.08076E-13
 -1      3086 2.01673E+01 2.31158E-01 3.20965E-03 2.56124E-02-1.66556E-13-3.91124E-13
 -1      3087 2.01369E+01 1.60467E-01-1.31442E-03 7.64388E-02-1.97529E-13-4.14609E-13
 -1      3088 2.02372E+01 3.31564E-01-8.06196E-04-2.68450E-02-1.74071E-13-4.27522E-13
 -1      3089 2.01202E+01 1.06389E-01 2.24118E-03 1.12159E-01-1.94312E-13-3.73892E-13
 -1      3090 2.00990E+01 6.11749E-02-6.30047E-04 1.39204E-01-1.61438E-13-3.78113E-13
 -1      3091 2.01967E+01 1.66755E-01-1.00777E-03 7.56720E-02-1.81373E-13-3.74716E-13
 -1      3092 2.00828E+01 2.71788E-02 1.47050E-03 1.56733E-01-1.52339E-13-3.41979E-13
 -1      3093 2.00691E+01-5.89400E-04-1.93742E-04 1.67834E-01-1.37811E-13-3.26554E-13
 -1      3094 2.01578E+01 6.02610E-02-9.68875E-04 1.33267E-01-1.38211E-13-3.51347E-13
 -1      3095 2.00547E+01-2.08410E-02 8.85735E-04 1.73168E-01-9.03064E-14-2.97602E-13
 -1      3096 2.00467E+01-3.66161E-02 7.54726E-05 1.74116E-01-4.30746E-14-2.65525E-13
 -1      3097 2.01238E+01-5.92882E-03-8.43968E-04 1.59503E-01-8.03324E-14-3.36351E-13
 -1      3098 2.00345E+01-4.74375E-02 4.64336E-04 1.71816E-01-6.66346E-14-2.37395E-13
 -1      3099 2.00306E+01-5.49904E-02 2.35726E-04 1.66785E-01-6.59245E-14-2.30744E-13
 -1      3100 2.00955E+01-4.42012E-02-7.00159E-04 1.65077E-01-3.65849E-14-2.56589E-13
 -1      3101 2.00206E+01-5.93639E-02 1.72537E-04 1.60204E-01-6.50862E-14-1.94855E-13
 -1      3102 2.00195E+01-6.13130E-02 3.27134E-04 1.52152E-01-7.02383E-14-1.43012E-13
 -1      3103 2.00729E+01-6.32088E-02-5.64727E-04 1.58075E-01-4.56158E-14-1.59962E-13
 -1      3104 2.00115E+01-6.12971E-02-2.32086E-05 1.43693E-01-9.47237E-14-1.37732E-13
 -1      3105 2.00124E+01-5.94384E-02 3.77442E-04 1.34698E-01-2.81221E-14-1.15710E-13
 -1      3106 2.00553E+01-6.90054E-02-4.47704E-04 1.44410E-01-6.33842E-14-6.37896E-14
 -1      3107 2.00062E+01-5.64253E-02-1.51864E-04 1.26062E-01-4.08535E-14-1.49377E-13
 -1      3108 2.00083E+01-5.19480E-02 4.06419E-04 1.17582E-01-8.43309E-14-1.57555E-13
 -1      3109 2.00419E+01-6.57670E-02-3.50885E-04 1.28320E-01-4.63105E-14-9.31041E-14
 -1      3110 2.00035E+01-4.68327E-02-2.37147E-04 1.09977E-01-1.13042E-13-2.00221E-13
 -1      3111 2.00065E+01-4.04683E-02 4.28378E-04 1.03054E-01-1.06438E-13-2.14559E-13
 -1      3112 2.00319E+01-5.62769E-02-2.72433E-04 1.12821E-01-1.33809E-13-2.50194E-13
 -1      3113 2.00029E+01-3.37703E-02-2.97778E-04 9.73657E-02-1.41861E-13-2.04992E-13
 -1      3114 2.00066E+01-2.59033E-02 4.53731E-04 9.27861E-02-1.52276E-13-2.39138E-13
 -1      3115 2.00247E+01-4.22662E-02-2.09499E-04 1.00091E-01-1.27986E-13-2.42721E-13
 -1      3116 2.00038E+01-1.78571E-02-3.48351E-04 8.97116E-02-1.34470E-13-2.02509E-13
 -1      3117 2.00081E+01-8.60846E-03 4.90330E-04 8.81253E-02-1.24578E-13-1.84887E-13
 -1      3118 2.00197E+01-2.46655E-02-1.58216E-04 9.17769E-02-1.04722E-13-2.59590E-13
 -1      3119 2.00058E+01 7.67231E-04-4.00365E-04 8.82743E-02-1.22089E-13-1.05424E-13
 -1      3120 2.00109E+01 1.14729E-02 5.43990E-04 9.02860E-02-9.14261E-14-8.51341E-14
 -1      3121 2.00161E+01-3.79970E-03-1.14469E-04 8.92330E-02-7.92909E-14-1.23986E-13
 -1      3122 2.00087E+01 2.23152E-02-4.62762E-04 9.42603E-02-1.02870E-13-1.11894E-13
 -1      3123 2.00146E+01 3.46893E-02 6.18678E-04 1.00495E-01-6.36517E-14-1.72588E-13
 -1      3124 2.00133E+01 2.04568E-02-7.42912E-05 9.37040E-02-9.54299E-14-7.48600E-14
 -1      3125 2.00122E+01 4.72340E-02-5.42330E-04 1.08941E-01-5.98356E-14-1.63939E-13
 -1      3126 2.00191E+01 6.15631E-02 7.16677E-04 1.20083E-01-8.22354E-14-1.66385E-13
 -1      3127 2.00108E+01 4.85394E-02-3.35436E-05 1.06459E-01-8.50055E-14-1.40368E-13
 -1      3128 2.00161E+01 7.60842E-02-6.43817E-04 1.33726E-01-8.79107E-14-1.30231E-13
 -1      3129 2.00242E+01 9.26609E-02 8.38596E-04 1.50535E-01-5.64547E-14-1.37088E-13
 -1      3130 2.00079E+01 8.10520E-02 1.18712E-05 1.28876E-01-3.75316E-14-1.21070E-13
 -1      3131 2.00203E+01 1.09396E-01-7.69522E-04 1.70183E-01-6.76984E-14-1.31724E-13
 -1      3132 2.00299E+01 1.28431E-01 9.83132E-04 1.93484E-01 7.79767E-14-2.33013E-13
 -1      3133 2.00038E+01 1.18607E-01 6.55950E-05 1.62481E-01-9.41298E-14-1.16265E-13
 -1      3134 2.00245E+01 1.47482E-01-9.18361E-04 2.20013E-01 1.27458E-13-3.10460E-13
 -1      3135 2.00359E+01 1.68979E-01 1.14686E-03 2.50647E-01 1.03698E-13-3.25968E-13
 -1      3136 1.99978E+01 1.61623E-01 1.30079E-04 2.08941E-01 2.05238E-14-1.17070E-13
 -1      3137 2.00286E+01 1.90169E-01-1.08422E-03 2.84957E-01 5.80698E-14-3.23131E-13
 -1      3138 2.00420E+01 2.13750E-01 1.32432E-03 3.23691E-01-2.26931E-14-3.10566E-13
 -1      3139 1.99889E+01 2.10046E-01 2.05069E-04 2.70004E-01 8.85542E-14-1.72133E-13
 -1      3140 2.00326E+01 2.36419E-01-1.25326E-03 3.66622E-01-6.93817E-14-3.08964E-13
 -1      3141 2.00486E+01 2.61073E-01 1.50875E-03 4.14010E-01-1.09582E-13-2.43318E-13
 -1      3142 1.99765E+01 2.62956E-01 2.84816E-04 3.47373E-01-3.58569E-14-1.77506E-13
 -1      3143 2.00368E+01 2.83781E-01-1.39974E-03 4.66219E-01-9.60408E-14-2.46500E-13
 -1      3144 2.00560E+01 3.07503E-01 1.69398E-03 5.22383E-01-7.52582E-14-1.16637E-13
 -1      3145 1.99599E+01 3.18013E-01 3.53190E-04 4.42523E-01-7.71765E-14-1.03066E-13
 -1      3146 2.00423E+01 3.27621E-01-1.47960E-03 5.84185E-01-7.97914E-14-9.90054E-14
 -1      3147 2.00658E+01 3.46912E-01 1.87786E-03 6.48519E-01-4.29005E-14-1.79872E-14
 -1      3148 1.99393E+01 3.70669E-01 3.75527E-04 5.56443E-01-3.91326E-14-2.12186E-13
 -1      3149 2.00518E+01 3.60054E-01-1.42072E-03 7.19667E-01-4.12428E-14 5.52001E-14
 -1      3150 2.00818E+01 3.69265E-01 2.06674E-03 7.90435E-01-1.48723E-14 5.48031E-14
 -1      3151 1.99160E+01 4.13100E-01 2.85601E-04 6.89314E-01-8.53928E-15-4.51818E-14
 -1      3152 2.00707E+01 3.68573E-01-1.10784E-03 8.69838E-01-4.73387E-14 1.17391E-13
 -1      3153 2.01110E+01 3.59097E-01 2.27790E-03 9.43642E-01-1.96164E-14 9.02984E-14
 -1      3154 1.98941E+01 4.32791E-01-3.40370E-05 8.40122E-01 9.77771E-15 1.39550E-13
 -1      3155 2.01097E+01 3.34433E-01-3.59665E-04 1.02896E+00-1.22385E-15 9.42956E-14
 -1      3156 2.01670E+01 2.93877E-01 2.53342E-03 1.10001E+00 5.55634E-14 1.00669E-13
 -1      3157 1.98823E+01 4.10808E-01-7.79088E-04 1.00616E+00-5.05184E-14 1.69936E-13
 -1      3158 2.01873E+01 2.31184E-01 1.10885E-03 1.18695E+00-8.25445E-15 2.33663E-14
 -1      3159 2.02727E+01 1.42892E-01 2.82438E-03 1.24604E+00 4.12799E-14-4.40973E-14
 -1      3160 1.98969E+01 3.19990E-01-2.25245E-03 1.18223E+00 1.01773E-15 1.64171E-13
 -1      3161 2.03349E+01 2.43077E-02 3.73117E-03 1.32700E+00 1.15384E-13-1.35134E-13
 -1      3162 2.04653E+01-1.31903E-01 3.00317E-03 1.35983E+00 1.53181E-13-6.60692E-14
 -1      3163 1.99668E+01 1.23749E-01-4.88647E-03 1.35904E+00 7.18853E-15 2.68988E-14
 -1      3164 2.06015E+01-3.25718E-01 8.14464E-03 1.42082E+00 1.65604E-13-1.58076E-13
 -1      3165 2.07989E+01-5.69740E-01 2.30793E-03 1.40555E+00 5.92437E-14-3.44376E-14
 -1      3166 2.01394E+01-2.23020E-01-9.25183E-03 1.51940E+00 1.58742E-13-2.29743E-13
 -1      3167 2.10562E+01-8.52008E-01 1.46408E-02 1.41898E+00 7.13585E-14 8.71216E-14
 -1      3168 2.13430E+01-1.18850E+00 1.34422E-05 1.32212E+00 1.78801E-13 9.20948E-14
 -1      3169 2.04875E+01-7.66620E-01-1.62201E-02 1.62885E+00 1.80359E-13-1.57319E-13
 -1      3170 2.17791E+01-1.54967E+00 2.38672E-02 1.24230E+00 1.30730E-13 1.96648E-13
 -1      3171 2.21645E+01-1.95340E+00-6.92640E-03 1.01853E+00 1.28098E-13 7.80896E-14
 -1      3172 2.11100E+01-1.52678E+00-2.56443E-02 1.62063E+00 1.53241E-13 3.02913E-14
 -1      3173 2.28232E+01-2.31924E+00 3.06559E-02 7.50542E-01 1.22010E-13 6.18615E-14
 -1      3174 2.32713E+01-2.65357E+00-1.70715E-02 3.54444E-01 1.03103E-13 1.15573E-13
 -1      3175 2.21245E+01-2.43835E+00-3.18524E-02 1.35978E+00 1.06169E-13-6.57183E-14
 -1      3176 2.41191E+01-2.83561E+00 2.90999E-02-1.76520E-01-8.46719E-14 1.37857E-13
 -1      3177 2.45368E+01-2.84624E+00-2.48592E-02-7.37024E-01-1.94882E-13 1.35712E-14
 -1      3178 2.35415E+01-3.22696E+00-4.26986E-02 6.48713E-01-1.16669E-14 3.50176E-14
 -1      3179 2.54092E+01-2.57027E+00-7.75852E-03-1.56888E+00-2.34567E-13-5.29013E-14
 -1      3180 2.55935E+01-1.83287E+00 1.06290E-03-2.15832E+00-2.76914E-13-2.59657E-13
 -1      3181 2.52824E+01-3.28739E+00-4.55063E-02-6.48443E-01-3.62268E-13-8.85017E-14
 -1      3182 2.65141E+01 4.11648E-02-8.23648E-02-2.98901E+00-2.19047E-13-4.52641E-13
 -1      3183 2.64325E+01 1.65600E+00-6.20182E-02-3.21047E+00-1.66922E-13-5.49560E-13
 -1      3184 2.58277E+01 3.25448E+00-1.31089E-01-2.73215E+00-6.20476E-14-6.21919E-13
 -1      3185 2.56607E+01 4.34338E+00-1.38541E-01-2.12840E+00-1.26232E-13-5.84116E-13
 -1      3186 2.57091E+01 4.82240E+00-1.08309E-01-7.95145E-01-2.82677E-13-4.54709E-13
 -1      3187 2.57440E+01 4.55414E+00-1.09975E-01 3.11925E-01-3.62710E-13-4.20051E-13
 -1      3188 2.58727E+01 3.60703E+00-1.08509E-01 1.09894E+00-4.05884E-13-5.17530E-13
 -1      3189 2.58668E+01 1.12441E+00-1.87016E-02 1.52821E+00-2.02074E-13-2.92668E-13
 -1      3190 2.59047E+01-2.73500E-01-6.32056E-02 1.44847E+00 1.22969E-13-3.49491E-13
 -1      3191 2.55561E+01-1.34691E+00-2.42369E-02 8.10279E-01 1.18454E-13-4.68138E-13
 -1      3192 2.52793E+01-2.02853E+00-2.45920E-02 2.99472E-01 1.12911E-13-5.24669E-13
 -1      3193 2.66463E+01-1.15143E+00-6.09091E-02 9.69717E-01 4.21052E-14 2.42861E-17
 -1      3194 2.46449E+01-2.26044E+00-2.23041E-02-3.80476E-01 1.53503E-13-4.51281E-13
 -1      3195 2.41440E+01-2.21899E+00 7.13025E-03-8.96130E-01 1.69082E-13-3.48314E-13
 -1      3196 2.42201E+01-2.40858E+00-6.50095E-04-1.46135E+00 1.21982E-13-2.58302E-13
 -1      3197 2.56017E+01-2.55271E+00-4.79238E-03-3.95145E-01 1.91559E-13 5.85573E-14
 -1      3198 2.00725E+01 1.50038E-01-1.14038E-03-7.61730E-02 2.20903E-13-2.34078E-13
 -1      3199 2.01052E+01 2.15449E-01 3.70955E-03-2.28541E-02 2.34280E-13-2.05875E-13
 -1      3200 1.99828E+01-4.77420E-02 2.43340E-04-1.73013E-01 7.06722E-14-1.96515E-13
 -1      3201 1.99824E+01-4.06341E-02 4.42682E-04-1.78356E-01 7.05687E-14-2.16276E-13
 -1      3202 1.99918E+01-3.06082E-02 1.11392E-04-1.80582E-01 7.49893E-14-2.25739E-13
 -1      3203 1.99957E+01-1.60586E-02 9.13744E-04-1.79737E-01 8.95367E-14-2.13643E-13
 -1      3204 2.00487E+01-3.79926E-02-7.44879E-04-1.74614E-01 7.47591E-14-2.06290E-13
 -1      3205 1.99786E+01-5.30802E-02 3.55175E-04-1.39189E-01 9.18449E-14-1.33127E-13
 -1      3206 1.99740E+01-5.44086E-02-7.71597E-05-1.48706E-01 1.31493E-13-1.71580E-13
 -1      3207 1.99808E+01-4.71224E-02 3.79540E-04-1.20840E-01 4.40868E-14-9.70600E-14
 -1      3208 1.99753E+01-5.07699E-02-2.03837E-04-1.29917E-01 6.82300E-14-1.14670E-13
 -1      3209 2.00130E+01-6.02385E-02-3.16024E-04-1.35316E-01 7.22955E-14-1.31857E-13
 -1      3210 1.99848E+01-3.76776E-02 4.01758E-04-1.04918E-01 4.89993E-14-1.05315E-13
 -1      3211 1.99787E+01-4.29703E-02-2.79690E-04-1.12516E-01 6.49039E-14-7.57218E-14
 -1      3212 2.00086E+01-5.24785E-02-2.38813E-04-1.18278E-01 6.94725E-14-1.38314E-13
 -1      3213 1.99901E+01-2.55819E-02 4.31693E-04-9.31069E-02-8.52683E-15-1.19928E-13
 -1      3214 1.99837E+01-3.21623E-02-3.25894E-04-9.84510E-02 2.89414E-14-1.14422E-13
 -1      3215 2.00066E+01-4.06873E-02-1.83910E-04-1.03892E-01 3.69169E-14-1.44160E-13
 -1      3216 1.99965E+01-1.11672E-02 4.76615E-04-8.67472E-02-3.14852E-14-5.50071E-14
 -1      3217 1.99897E+01-1.89212E-02-3.58878E-04-8.92026E-02-4.17039E-14-6.29307E-14
 -1      3218 2.00065E+01-2.57479E-02-1.47255E-04-9.38555E-02-3.06365E-14-1.35632E-13
 -1      3219 2.00042E+01 5.61860E-03 5.42646E-04-8.70452E-02 3.04500E-14-3.94075E-14
 -1      3220 1.99967E+01-3.38101E-03-3.90787E-04-8.60200E-02 3.56445E-14-3.16818E-14
 -1      3221 2.00077E+01-7.96916E-03-1.23362E-04-8.95521E-02-2.20914E-14-6.37797E-14
 -1      3222 2.00132E+01 2.51234E-02 6.34518E-04-9.52253E-02-3.33519E-14 1.72888E-14
 -1      3223 2.00047E+01 1.46631E-02-4.31622E-04-9.00993E-02 2.04445E-14 1.40358E-14
 -1      3224 2.00100E+01 1.27740E-02-1.06856E-04-9.22475E-02 6.74754E-15-1.09318E-13
 -1      3225 2.00237E+01 4.79133E-02 7.55698E-04-1.12646E-01-6.10102E-14 1.87608E-14
 -1      3226 2.00139E+01 3.56740E-02-4.89626E-04-1.02718E-01-3.55636E-14 1.86689E-14
 -1      3227 2.00130E+01 3.69370E-02-9.31719E-05-1.03236E-01-5.38126E-14-2.50384E-14
 -1      3228 2.00361E+01 7.46900E-02 9.08292E-04-1.40873E-01-7.27372E-14-3.74039E-14
 -1      3229 2.00244E+01 6.02935E-02-5.71485E-04-1.25330E-01-7.30713E-14 3.57395E-14
 -1      3230 2.00166E+01 6.52114E-02-7.68343E-05-1.23948E-01-4.25914E-14 4.73140E-14
 -1      3231 2.00506E+01 1.06195E-01 1.09252E-03-1.81710E-01-6.68800E-15 2.43744E-14
 -1      3232 2.00365E+01 8.92549E-02-6.82717E-04-1.59618E-01-2.81165E-14-3.35508E-14
 -1      3233 2.00202E+01 9.84200E-02-5.17120E-05-1.56012E-01-5.55346E-14-3.19913E-15
 -1      3234 2.00675E+01 1.43075E-01 1.30612E-03-2.37174E-01 6.11197E-14 1.35580E-13
 -1      3235 2.00505E+01 1.23272E-01-8.27354E-04-2.07501E-01 5.24455E-14 1.08986E-14
 -1      3236 2.00236E+01 1.37392E-01-1.09439E-05-2.01272E-01-9.85345E-15 3.27983E-14
 -1      3237 2.00869E+01 1.85685E-01 1.54373E-03-3.09419E-01-2.89495E-14 1.93287E-13
 -1      3238 2.00663E+01 1.62879E-01-1.00698E-03-2.71084E-01 2.43381E-14 1.93746E-13
 -1      3239 2.00259E+01 1.82789E-01 5.27290E-05-2.61754E-01 1.89923E-14 5.10824E-14
 -1      3240 2.01089E+01 2.33763E-01 1.79648E-03-4.00563E-01 6.52041E-14 1.17118E-13
 -1      3241 2.00842E+01 2.08175E-01-1.21880E-03-3.52548E-01 4.46565E-14 1.73586E-13
 -1      3242 2.00264E+01 2.34837E-01 1.45606E-04-3.39576E-01 2.85894E-14 6.32289E-14
 -1      3243 2.01333E+01 2.85935E-01 2.05258E-03-5.12407E-01-6.86731E-14-1.15424E-14
 -1      3244 2.01040E+01 2.58430E-01-1.45210E-03-4.53935E-01 7.94872E-14 1.67575E-13
 -1      3245 2.00240E+01 2.92920E-01 2.69771E-04-4.36780E-01 8.36535E-14 1.83722E-13
 -1      3246 2.01603E+01 3.38910E-01 2.29971E-03-6.46017E-01 5.67867E-14-1.42465E-13
 -1      3247 2.01259E+01 3.11449E-01-1.68201E-03-5.76824E-01-6.79930E-14-9.24883E-14
 -1      3248 2.00176E+01 3.54932E-01 4.16366E-04-5.55096E-01 3.25160E-14-4.47482E-14
 -1      3249 2.01907E+01 3.86253E-01 2.53043E-03-8.01103E-01 2.21330E-14-1.50226E-13
 -1      3250 2.01501E+01 3.62577E-01-1.85914E-03-7.21849E-01 8.80477E-14-1.42470E-13
 -1      3251 2.00063E+01 4.16288E-01 5.52902E-04-6.95608E-01 4.15545E-14-6.24477E-14
 -1      3252 2.02273E+01 4.16549E-01 2.75040E-03-9.75175E-01-4.64369E-14-1.58324E-13
 -1      3253 2.01787E+01 4.03196E-01-1.89245E-03-8.88022E-01 3.07565E-14-1.28179E-13
 -1      3254 1.99903E+01 4.68407E-01 6.00814E-04-8.58364E-01 4.01132E-14-1.45778E-13
 -1      3255 2.02771E+01 4.10859E-01 2.98476E-03-1.16238E+00-6.31482E-14-1.98929E-13
 -1      3256 2.02166E+01 4.18545E-01-1.62212E-03-1.07180E+00-6.69787E-14-1.92925E-13
 -1      3257 1.99722E+01 4.96524E-01 3.98125E-04-1.04190E+00-1.68959E-14-1.42473E-13
 -1      3258 2.03552E+01 3.39604E-01 3.26541E-03-1.35180E+00 5.97602E-14-3.12575E-13
 -1      3259 2.02749E+01 3.84856E-01-7.80165E-04-1.26574E+00-3.03548E-14-3.03413E-13
 -1      3260 1.99607E+01 4.76700E-01-3.59037E-04-1.24270E+00-2.99121E-14-3.38142E-13
 -1      3261 2.04910E+01 1.59818E-01 3.54155E-03-1.52485E+00-1.64053E-14-1.25404E-13
 -1      3262 2.03768E+01 2.66278E-01 1.06239E-03-1.45639E+00 6.94686E-15-2.25268E-13
 -1      3263 1.99747E+01 3.72271E-01-2.20040E-03-1.45421E+00-8.60824E-14-3.75538E-13
 -1      3264 2.07360E+01-1.84487E-01 3.53907E-03-1.65050E+00-1.43658E-13-4.62595E-14
 -1      3265 2.05643E+01 1.31807E-02 4.53065E-03-1.62051E+00-2.30174E-14-1.29665E-15
 -1      3266 2.00519E+01 1.30880E-01-5.98828E-03-1.66469E+00-1.19985E-13-2.34874E-13
 -1      3267 2.11704E+01-7.52550E-01 2.33960E-03-1.67627E+00-1.59204E-14-1.14149E-13
 -1      3268 2.09090E+01-4.33658E-01 1.07593E-02-1.71747E+00-1.03493E-13-5.68236E-14
 -1      3269 2.02601E+01-3.14930E-01-1.27851E-02-1.85152E+00-9.95817E-14 3.35181E-14
 -1      3270 2.18996E+01-1.56894E+00-1.81961E-03-1.51084E+00 7.49956E-14-7.29766E-14
 -1      3271 2.15163E+01-1.12296E+00 2.09474E-02-1.67284E+00 4.08083E-14-1.38569E-13
 -1      3272 2.07107E+01-1.03408E+00-2.27697E-02-1.96568E+00 3.30988E-14-4.87483E-14
 -1      3273 2.30244E+01-2.53011E+00-5.97813E-03-1.00395E+00-1.12756E-13 7.36793E-14
 -1      3274 2.25059E+01-2.03368E+00 3.42764E-02-1.35843E+00-2.09381E-15-2.36916E-14
 -1      3275 2.15597E+01-2.04513E+00-3.49019E-02-1.89788E+00-4.35129E-14-1.90438E-14
 -1      3276 2.46333E+01-3.24605E+00 1.08206E-02 8.52073E-02-2.97345E-13-7.55836E-14
 -1      3277 2.39817E+01-2.98482E+00 4.90987E-02-5.90650E-01-1.65402E-13 3.91000E-14
 -1      3278 2.29657E+01-3.21824E+00-4.79170E-02-1.46983E+00-5.54279E-14-1.93942E-14
 -1      3279 2.65023E+01-3.33084E+00-1.92755E-02 1.13307E+00-3.06706E-13-8.98483E-14
 -1      3280 2.57794E+01-3.79832E+00-8.44731E-03 3.06943E-01-4.18244E-13-9.02056E-14
 -1      3281 2.84093E+01-5.24042E-01-8.96243E-03 1.15413E+00-3.17663E-14 3.30236E-13
 -1      3282 2.76810E+01 1.19871E+00-1.49938E-01 1.63053E+00-1.71002E-13 1.01044E-13
 -1      3283 2.64961E+01 5.52122E-01-1.18818E-01-1.75785E+00 5.67879E-13-1.62981E-13
 -1      3284 2.65887E+01 2.20846E+00-4.81846E-02-1.73954E+00 7.01744E-13-2.83745E-13
 -1      3285 2.46515E+01-2.77033E+00 1.66693E-02 1.35565E+00 1.05231E-13-1.11366E-13
 -1      3286 2.52803E+01-2.91119E+00-2.01672E-02 7.44250E-01 1.98509E-13-1.14405E-15
 -1      3287 2.34885E+01-2.21499E+00 1.97367E-02 2.26040E+00-8.04261E-14 3.39906E-14
 -1      3288 2.39486E+01-2.54162E+00-1.16628E-02 1.80327E+00-8.47759E-15-1.02271E-13
 -1      3289 2.46178E+01-3.20233E+00-1.09696E-02 2.24623E+00 4.44839E-14 2.07300E-13
 -1      3290 2.33668E+01-2.50520E+00-1.88845E-02 2.99002E+00 3.32460E-14 6.80168E-14
 -1      3291 1.21234E+01 7.13409E-01 1.39556E-01-2.04094E+00-3.44828E-13 1.73472E-14
 -1      3292 2.76212E+01-4.09027E+00 5.22394E-02-1.82710E+00-1.60208E-13 1.13014E-13
 -1      3293 2.83341E+01-2.84363E+00-1.51220E-01-2.26468E-01-6.80150E-14 4.25104E-13
 -1      3294 2.00446E+01 2.16038E+00-4.29279E-03 2.92694E-01 2.00503E-13-6.34029E-13
 -1      3295 2.00314E+01 2.19917E+00-3.32070E-03 1.70928E-01 1.41929E-13-6.36970E-13
 -1      3296 2.01240E+01 2.93340E-01-2.01237E-03 4.44374E-02 2.33406E-13-2.09814E-13
 -1      3297 2.01699E+01 3.94386E-01 4.50903E-03 1.34971E-01 2.56899E-13-1.93098E-13
 -1      3298 2.01892E+01 3.15693E-01-1.49024E-03 3.64692E-02 2.36654E-13-2.51645E-13
 -1      3299 2.76833E+01-5.79874E-01-7.19506E-02-1.47791E+00 3.99722E-13 1.02973E-14
 -1      3300 1.38025E+01-2.62818E+00 1.18235E-01-4.91036E+00-9.79911E-14-1.57166E-13
 -1      3301 1.59817E+01-3.61723E+00 8.54894E-02-5.38002E+00-1.45495E-13-2.28151E-14
 -1      3302 2.41204E+01-3.31541E+00 3.09201E-03-3.42327E+00 1.90384E-13 1.62358E-13
 -1      3303 2.33465E+01-3.40070E+00 1.86180E-02-4.37732E+00 9.10019E-14 2.72700E-13
 -1      3304 2.31346E+01-5.11157E+00 6.38993E-02-5.91483E+00-1.93096E-13 2.91170E-13
 -1      3305 2.00996E+01 2.20129E+00-4.74066E-03-1.10318E+00-3.56509E-13-6.21574E-13
 -1      3306 2.01722E+01 2.01056E+00-1.03205E-02-1.18499E+00-4.04904E-13-5.66760E-13
 -1      3307 2.02482E+01 1.61709E+00 3.07175E-03-9.74219E-01-3.90700E-13-5.17769E-13
 -1      3308 2.01729E+01 1.93688E+00 7.04645E-03-9.01843E-01-3.19070E-13-6.13444E-13
 -1      3309 2.77227E+01 3.04477E+00-1.24265E-01-1.63055E+00 5.62925E-13-1.13611E-13
 -1      3310 1.52482E+01-5.12255E-01 7.88659E-02-5.10970E+00-2.08330E-13-2.64774E-13
 -1      3311 1.99789E+01-5.40645E-02 3.15749E-04-1.57665E-01 1.15750E-13-1.58001E-13
 -1      3312 1.99758E+01-5.19929E-02 1.26632E-04-1.66151E-01 1.12965E-13-1.43562E-13
 -1      3313 2.00320E+01-5.62266E-02-5.64658E-04-1.67329E-01 6.21244E-14-1.37682E-13
 -1      3314 2.00205E+01-6.23474E-02-4.22636E-04-1.52730E-01 1.13577E-13-1.10428E-13
 -1      3315 1.03646E+01 4.40521E-01 1.62345E-01 1.05658E+00-1.66193E-13 3.85997E-13
 -1      3316 1.76275E+01-1.93689E+00 2.95399E-02-6.18085E+00-9.69155E-14 5.90708E-14
 -1      3317 2.83927E+01-2.72886E+00 4.73150E-02 1.77291E+00-6.03406E-14-2.96069E-13
 -1      3318 2.84571E+01-9.84775E-01-1.48572E-01 2.76736E+00 8.72150E-14-7.60364E-14
 -1      3319 2.02776E+01 7.14658E-01 7.81936E-03-3.46654E-01-2.73370E-13-4.37216E-13
 -1      3320 2.02272E+01 5.50562E-01-3.37086E-03-2.15428E-01-2.36054E-13-4.40008E-13
 -1      3321 2.02708E+01 5.78625E-01-6.54140E-04-1.89575E-01-1.99776E-13-4.30033E-13
 -1      3322 2.61026E+01 4.71664E+00-2.15667E-01 2.67266E-01 2.32953E-13-4.60215E-13
 -1      3323 2.65498E+01 4.43523E+00-9.29038E-02-5.71105E-01 3.52163E-13-3.56751E-13
 -1      3324 1.72291E+01-3.95587E+00 2.25197E-02 5.38286E+00 1.33643E-13 3.97390E-14
 -1      3325 1.47178E+01-2.73960E+00 1.11857E-01 5.09656E+00 1.94122E-13-2.13399E-13
 -1      3326 1.97206E+01-2.59041E+00 7.77378E-02-5.90944E+00 7.87738E-15 8.66945E-14
 -1      3327 1.19568E+01-1.64975E+00 4.33094E-02 4.30130E+00 2.33306E-13-2.27596E-13
 -1      3328 1.01291E+01-5.93536E-01 1.10688E-01 2.48934E+00 1.44100E-13-2.93432E-13
 -1      3329 2.62989E+01-4.83243E+00-6.84537E-02 3.01515E+00 6.85528E-14 6.74419E-13
 -1      3330 2.46155E+01-4.75135E+00 1.37561E-01 4.55219E+00 1.43666E-13 3.24719E-13
 -1      3331 2.16678E+01-4.51344E+00-8.81627E-02 6.03592E+00 1.14762E-13 1.35586E-13
 -1      3332 1.89246E+01-3.16251E+00 1.76894E-01 6.43783E+00-1.04534E-13 1.46633E-13
 -1      3333 1.61792E+01-2.61351E+00 9.94709E-03 6.55399E+00-2.53186E-13 2.81719E-13
 -1      3334 1.35067E+01-1.42337E+00 1.35200E-01 5.56448E+00-3.55431E-13 4.20830E-13
 -1      3335 1.85565E+01-2.35703E+00 1.01112E-01 6.02757E+00-1.95316E-13 2.79644E-13
 -1      3336 2.02897E+01 9.89625E-01-7.75421E-04 6.89950E-01 4.08860E-13-2.73720E-13
 -1      3337 2.02685E+01 1.31124E+00 4.56770E-03 7.73237E-01 4.22311E-13-3.39787E-13
 -1      3338 2.02831E+01 1.13068E+00 5.32913E-03 5.97245E-01 3.68834E-13-3.52172E-13
 -1      3339 2.02321E+01 7.75589E-01-3.85428E-03 4.82849E-01 3.78716E-13-2.54666E-13
 -1      3340 2.60797E+01 4.88442E+00-1.02385E-01 9.12864E-01 2.90087E-13-5.28627E-13
 -1      3341 2.66112E+01 3.05970E+00-1.68129E-01-1.42569E+00 5.84338E-13-2.68653E-13
 -1      3342 2.72339E+01-1.03018E+00-7.26609E-02-2.48546E+00-3.80335E-13-2.60854E-13
 -1      3343 2.69656E+01-1.61067E+00-3.72229E-02-9.05888E-01 4.22801E-13 1.82042E-14
 -1      3344 2.61285E+01 4.37643E+00-1.41898E-01 2.09178E+00 1.01127E-13-5.13894E-13
 -1      3345 2.00243E+01 2.21796E+00-3.67867E-03 6.60007E-02 1.06721E-13-6.14875E-13
 -1      3346 2.00239E+01 2.21889E+00-3.60767E-03-5.80726E-02 4.06749E-14-6.22613E-13
 -1      3347 2.01383E+01 1.92213E+00 4.97937E-03 1.01523E-01 1.16552E-13-5.88288E-13
 -1      3348 2.66444E+01-3.41671E+00-4.45803E-02 8.89146E-01 3.09702E-13 2.12334E-13
 -1      3349 2.65424E+01-4.27522E+00 4.09530E-03 2.13387E+00 1.16299E-13 4.57245E-13
 -1      3350 1.15131E+01-1.99037E-01 7.26758E-02 1.96710E+00 1.58919E-13-2.03337E-13
 -1      3351 9.82663E+00-1.12391E-01 1.16854E-01 1.31708E+00 7.80764E-14-3.47777E-13
 -1      3352 2.72465E+01 4.14273E+00-1.34617E-01 2.76451E+00 9.41192E-14-4.58494E-13
 -1      3353 1.81234E+01-3.92855E+00 6.10659E-02-4.75763E+00-1.70100E-13-1.17670E-13
 -1      3354 2.02323E+01 1.52510E+00-3.02086E-03-8.12887E-01-3.26602E-13-5.37706E-13
 -1      3355 2.02747E+01 1.35409E+00-1.42359E-03-8.27334E-01-3.54445E-13-4.86074E-13
 -1      3356 2.02792E+01 1.15124E+00 5.78311E-03-6.65720E-01-3.09833E-13-4.81418E-13
 -1      3357 2.01173E+01 1.94120E+00-2.95750E-03-5.83820E-01-1.83332E-13-6.08494E-13
 -1      3358 2.01536E+01 1.81444E+00-7.22197E-03-6.78757E-01-2.42260E-13-6.05904E-13
 -1      3359 2.66620E+01-3.99581E+00 1.85719E-02-2.00226E+00-1.43965E-13 1.71113E-14
 -1      3360 2.01585E+01 1.80102E+00-6.96697E-03 6.85583E-01 3.42853E-13-4.84420E-13
 -1      3361 2.01233E+01 1.93059E+00-2.51158E-03 5.90049E-01 3.01857E-13-5.22147E-13
 -1      3362 2.02507E+01 1.46205E+00 6.24433E-03 5.86328E-01 3.19371E-13-4.17359E-13
 -1      3363 2.65846E+01-2.58388E+00-2.72616E-02-2.47219E-01 3.41071E-13 6.38031E-15
 -1      3364 1.93950E+01-2.10578E+00-3.96171E-02 5.63446E+00-5.93622E-14 2.67626E-13
 -1      3365 2.14214E+01-2.43576E+00 1.25423E-01 5.23477E+00 4.44263E-15 3.63229E-13
 -1      3366 2.65191E+01 2.06809E+00-9.53246E-02 1.69979E+00-3.75477E-13-2.66204E-13
 -1      3367 1.15970E+01 1.28226E+00 2.28484E-01 9.19827E-02-3.05728E-13 3.50969E-13
 -1      3368 1.17133E+01 1.06923E+00 7.76688E-02 1.17418E+00-3.82069E-13 2.89962E-13
 -1      3369 2.00719E+01-1.97749E-03-9.62484E-04-1.68226E-01 8.50733E-14-2.31155E-13
 -1      3370 2.00081E+01 2.46269E-03-1.18544E-04-1.73739E-01 1.00832E-13-2.45536E-13
 -1      3371 2.00186E+01 2.79467E-02 1.58746E-03-1.62358E-01 1.17495E-13-2.17244E-13
 -1      3372 2.50506E+01-4.41563E+00 2.49183E-02-1.02634E+00-2.71679E-13-1.31280E-13
 -1      3373 2.68831E+01-5.54261E-01-6.41588E-02 3.05138E+00-6.22107E-14 5.85920E-14
 -1      3374 2.67285E+01-1.94596E+00-1.10690E-01 2.63036E+00-1.57463E-13 1.06812E-13
 -1      3375 2.76722E+01-2.87079E+00-9.48431E-02-1.40189E+00-5.24905E-13 1.81591E-14
 -1      3376 2.00902E+01 2.02457E+00-5.40387E-03 5.04825E-01 2.79054E-13-5.59623E-13
 -1      3377 2.00650E+01 2.10483E+00-3.06430E-03 3.91501E-01 2.26344E-13-5.99401E-13
 -1      3378 2.01607E+01 1.84713E+00 5.22979E-03 2.91312E-01 2.04791E-13-5.92613E-13
 -1      3379 2.02015E+01 1.69550E+00 5.73599E-03 4.59739E-01 2.64224E-13-5.16989E-13
 -1      3380 2.74030E+01-1.67560E+00-4.52857E-02 5.72104E-01 3.41758E-14 1.42185E-13
 -1      3381 1.53233E+01-4.63368E-01 1.19911E-02 4.93077E+00-1.97752E-13 4.24244E-13
 -1      3382 1.77041E+01-1.15092E+00 1.61768E-01 5.68325E+00-1.88034E-13 2.99177E-13
 -1      3383 1.19435E+01-1.82973E+00 7.09699E-02-4.32163E+00-1.77747E-13-5.49949E-13
 -1      3384 1.41999E+01-1.80486E+00 1.21075E-01-4.13400E+00-1.83357E-13-1.83548E-13
 -1      3385 9.36939E+00-2.27917E-01 9.24149E-02-5.54365E-01-6.42542E-15-4.89830E-13
 -1      3386 2.00542E+01 1.00523E-01 2.50991E-03-1.15134E-01 1.85877E-13-2.17109E-13
 -1      3387 2.01426E+01 1.59980E-01-1.38068E-03-7.61741E-02 1.98226E-13-2.16395E-13
 -1      3388 2.00342E+01 5.89520E-02-5.07104E-04-1.43192E-01 1.31806E-13-2.25937E-13
 -1      3389 1.01074E+01-9.17499E-01 9.75171E-02-2.86747E+00-1.39354E-13-6.40932E-13
 -1      3390 1.28093E+01 6.52821E-01 1.11855E-01 3.11041E+00-1.00309E-13 4.17555E-13
 -1      3391 2.51089E+01-5.49711E+00 3.51708E-02 2.71630E+00-5.13548E-14 9.15865E-14
 -1      3392 2.32609E+01-5.29645E+00 6.49301E-02 3.48443E+00 3.95448E-14-5.16804E-14
 -1      3393 2.58421E+01-4.92262E+00-4.92826E-02 1.34244E+00-1.84604E-13 1.98626E-13
 -1      3394 2.30387E+01-4.01905E+00 1.80246E-02 4.87276E+00 1.02529E-13 2.54781E-13
 -1      3395 2.76932E+01 5.69094E-01-7.75299E-02 3.44895E+00 1.30507E-13-1.58741E-13
 -1      3396 2.05463E+01-4.59911E+00 8.99676E-03 4.34548E+00 1.18582E-13 3.04756E-14
 -1      3397 1.88710E+01-4.24910E+00 8.21262E-02 4.98370E+00 8.36067E-14 1.64389E-13
 -1      3398 1.82022E+01-3.47300E+00 1.81224E-02 4.64732E+00-1.06304E-14 1.00753E-14
 -1      3399 2.01759E+01 4.88555E-01-2.16758E-03 2.20931E-01 2.86755E-13-2.21309E-13
 -1      3400 2.02325E+01 6.34967E-01 4.23136E-03 3.62576E-01 3.44662E-13-2.37330E-13
 -1      3401 2.02562E+01 7.76552E-01-4.82766E-03 4.19791E-01 3.46127E-13-2.74790E-13
 -1      3402 2.02285E+01 5.22269E-01-2.00113E-03 1.99546E-01 2.57734E-13-2.42262E-13
 -1      3403 1.42984E+01-1.80122E+00 8.84186E-02 4.22443E+00 5.38111E-14-2.68320E-13
 -1      3404 2.16422E+01-3.39373E+00-4.88413E-03-5.61764E+00-5.53377E-15 4.98351E-14
 -1      3405 2.00870E+01 2.03293E+00-5.26302E-03-4.97510E-01-1.34226E-13-6.40823E-13
 -1      3406 2.02017E+01 1.70834E+00 7.88106E-03-4.57704E-01-1.32657E-13-5.85212E-13
 -1      3407 2.00618E+01 2.11118E+00-3.13098E-03-3.83745E-01-8.24408E-14-6.45787E-13
 -1      3408 1.30403E+01-2.87366E-01 1.48438E-01 4.48608E+00-1.60191E-13 3.74450E-13
 -1      3409 2.65721E+01 1.93139E+00-1.37021E-01 3.36511E+00 6.18672E-14-3.81847E-13
 -1      3410 2.85526E+01 2.02038E+00-1.00635E-01 3.22205E+00 2.75280E-13-2.28845E-13
 -1      3411 2.02547E+01 9.58623E-01-4.76550E-03-5.29671E-01-2.95996E-13-4.71204E-13
 -1      3412 2.02749E+01 9.84304E-01-4.49538E-03-4.70673E-01-2.78913E-13-4.82934E-13
 -1      3413 2.02009E+01 1.66533E+00-1.20340E-03-7.68275E-01-2.82447E-13-5.77817E-13
 -1      3414 2.75410E+01-3.49522E+00 4.31094E-02 1.01761E+00-2.50007E-13-1.97869E-13
 -1      3415 2.02666E+01 2.36146E-01 2.11663E-03 3.91480E-02-1.50749E-13-3.82226E-13
 -1      3416 2.02422E+01 1.60712E-01-1.28640E-03 7.97865E-02-1.49638E-13-3.42354E-13
 -1      3417 2.02274E+01 1.01800E-01 1.61894E-03 1.05708E-01-1.53672E-13-3.32065E-13
 -1      3418 2.02059E+01 5.30413E-02-6.53122E-04 1.27392E-01-9.55010E-14-3.07659E-13
 -1      3419 2.02837E+01 1.58005E-01-4.42958E-04 7.60657E-02-1.25132E-13-3.16695E-13
 -1      3420 2.01884E+01 1.59218E-02 1.13235E-03 1.39574E-01-7.25499E-14-2.95757E-13
 -1      3421 2.01707E+01-1.38994E-02-2.18677E-04 1.48266E-01-3.31309E-14-2.85853E-13
 -1      3422 2.02460E+01 4.73173E-02-5.89788E-04 1.17235E-01-7.93956E-14-2.73702E-13
 -1      3423 2.01530E+01-3.56785E-02 7.33643E-04 1.51180E-01 6.44939E-15-2.72522E-13
 -1      3424 2.01389E+01-5.21843E-02 6.49286E-05 1.51527E-01 4.53789E-15-2.36207E-13
 -1      3425 2.02077E+01-2.12395E-02-6.28270E-04 1.35045E-01-5.69758E-15-2.87911E-13
 -1      3426 2.01223E+01-6.32572E-02 4.28407E-04 1.48696E-01-1.79504E-14-2.11096E-13
 -1      3427 2.01115E+01-7.05000E-02 2.40414E-04 1.44166E-01-2.24502E-14-1.93991E-13
 -1      3428 2.01717E+01-5.99053E-02-6.02941E-04 1.37443E-01 1.49824E-14-2.74287E-13
 -1      3429 2.00966E+01-7.41658E-02 2.03003E-04 1.38236E-01-6.80757E-14-1.34065E-13
 -1      3430 2.00885E+01-7.50188E-02 3.42324E-04 1.31351E-01-6.80505E-14-1.19456E-13
 -1      3431 2.01397E+01-7.76280E-02-5.43701E-04 1.30607E-01-3.97081E-14-2.16472E-13
 -1      3432 2.00755E+01-7.35838E-02 3.91317E-05 1.24249E-01-8.22841E-14-1.68080E-13
 -1      3433 2.00697E+01-7.00294E-02 3.97091E-04 1.16818E-01-1.02942E-13-2.16708E-13
 -1      3434 2.01121E+01-8.08162E-02-4.69612E-04 1.19145E-01-7.42920E-14-2.01665E-13
 -1      3435 2.00586E+01-6.50478E-02-8.18239E-05 1.09926E-01-1.33534E-13-2.13267E-13
 -1      3436 2.00545E+01-5.83805E-02 4.24875E-04 1.03245E-01-1.31673E-13-2.26850E-13
 -1      3437 2.00887E+01-7.39169E-02-3.88687E-04 1.06413E-01-1.33002E-13-2.79158E-13
 -1      3438 2.00450E+01-5.08251E-02-1.76673E-04 9.75702E-02-1.27836E-13-2.42622E-13
 -1      3439 2.00424E+01-4.18121E-02 4.40051E-04 9.25962E-02-1.34228E-13-2.37381E-13
 -1      3440 2.00692E+01-5.98626E-02-3.06501E-04 9.48403E-02-1.13032E-13-2.20541E-13
 -1      3441 2.00341E+01-3.22157E-02-2.59021E-04 8.89018E-02-1.11844E-13-2.54311E-13
 -1      3442 2.00325E+01-2.12231E-02 4.53181E-04 8.63846E-02-8.60455E-14-2.32388E-13
 -1      3443 2.00527E+01-4.04120E-02-2.24500E-04 8.62345E-02-1.35878E-13-2.57193E-13
 -1      3444 2.00248E+01-9.78226E-03-3.40421E-04 8.52973E-02-6.10731E-14-1.81697E-13
 -1      3445 2.00239E+01 3.13079E-03 4.72179E-04 8.58835E-02-3.05101E-14-1.54263E-13
 -1      3446 2.00383E+01-1.64284E-02-1.40458E-04 8.20123E-02-2.37690E-14-2.14916E-13
 -1      3447 2.00164E+01 1.64731E-02-4.30460E-04 8.79797E-02-6.26829E-14-1.25755E-13
 -1      3448 2.00159E+01 3.14697E-02 5.02076E-04 9.22918E-02-7.50244E-14-9.19422E-14
 -1      3449 2.00249E+01 1.19033E-02-5.24476E-05 8.33902E-02-3.28584E-14-1.98494E-13
 -1      3450 2.00078E+01 4.69429E-02-5.36886E-04 9.81617E-02-6.35791E-14-9.36663E-14
 -1      3451 2.00074E+01 6.43275E-02 5.45644E-04 1.06851E-01-3.43386E-14-1.42942E-13
 -1      3452 2.00113E+01 4.48944E-02 4.32221E-05 9.15372E-02-4.28092E-14-1.51390E-13
 -1      3453 1.99979E+01 8.22566E-02-6.65991E-04 1.17138E-01-4.55068E-14-9.94094E-14
 -1      3454 1.99973E+01 1.02393E-01 6.04249E-04 1.30915E-01-3.81149E-14-1.08897E-13
 -1      3455 1.99960E+01 8.31685E-02 1.50911E-04 1.07674E-01-1.60624E-14-9.42528E-14
 -1      3456 1.99855E+01 1.23114E-01-8.22209E-04 1.46342E-01-3.49784E-14-7.48002E-14
 -1      3457 1.99842E+01 1.46331E-01 6.78086E-04 1.65984E-01-4.15776E-14-4.94979E-14
 -1      3458 1.99774E+01 1.27479E-01 2.74882E-04 1.33136E-01-2.13369E-14-6.38863E-14
 -1      3459 1.99692E+01 1.70083E-01-1.00757E-03 1.87356E-01-3.11497E-14-3.80655E-15
 -1      3460 1.99669E+01 1.96543E-01 7.66594E-04 2.13694E-01 7.71226E-14-1.12324E-14
 -1      3461 1.99538E+01 1.78496E-01 4.18731E-04 1.69406E-01 1.70254E-14-8.58577E-15
 -1      3462 1.99475E+01 2.23326E-01-1.22088E-03 2.41892E-01 1.15294E-13-3.21134E-14
 -1      3463 1.99438E+01 2.52860E-01 8.69499E-04 2.75764E-01 3.77185E-14-1.02130E-13
 -1      3464 1.99231E+01 2.36536E-01 5.84063E-04 2.18108E-01 4.75966E-14 1.85419E-15
 -1      3465 1.99190E+01 2.82231E-01-1.45644E-03 3.11715E-01-4.38663E-14-1.81129E-13
 -1      3466 1.99135E+01 3.14097E-01 9.88852E-04 3.53898E-01-7.69249E-14-1.80026E-13
 -1      3467 1.98832E+01 3.01187E-01 7.68392E-04 2.80980E-01-2.49048E-14-6.96256E-14
 -1      3468 1.98822E+01 3.44897E-01-1.70217E-03 3.98538E-01-6.67832E-14-1.47587E-13
 -1      3469 1.98748E+01 3.77454E-01 1.13279E-03 4.49648E-01-1.16028E-14-1.00365E-13
 -1      3470 1.98319E+01 3.70816E-01 9.61770E-04 3.59815E-01-2.51081E-14-2.04814E-13
 -1      3471 1.98363E+01 4.07421E-01-1.93683E-03 5.03888E-01-3.84433E-15-1.72148E-13
 -1      3472 1.98273E+01 4.37679E-01 1.32192E-03 5.64259E-01-3.31166E-14-1.65357E-13
 -1      3473 1.97674E+01 4.41880E-01 1.14137E-03 4.56413E-01-3.56230E-14-7.47411E-14
 -1      3474 1.97815E+01 4.62931E-01-2.12563E-03 6.28965E-01-2.47094E-14-8.86113E-14
 -1      3475 1.97723E+01 4.85958E-01 1.59902E-03 6.98515E-01 4.56631E-14-6.31091E-14
 -1      3476 1.96886E+01 5.08022E-01 1.26284E-03 5.72576E-01 4.79030E-14-1.04882E-13
 -1      3477 1.97203E+01 5.00311E-01-2.21189E-03 7.74545E-01 6.68222E-15-7.01006E-14
 -1      3478 1.97139E+01 5.08472E-01 2.04141E-03 8.52633E-01 4.23275E-14 6.38903E-15
 -1      3479 1.95962E+01 5.58857E-01 1.24632E-03 7.10198E-01 1.27505E-14-1.41506E-13
 -1      3480 1.96590E+01 5.02595E-01-2.09973E-03 9.40922E-01 5.19578E-14 2.53931E-14
 -1      3481 1.96617E+01 4.84620E-01 2.77093E-03 1.02618E+00 5.47359E-14 9.81045E-14
 -1      3482 1.94939E+01 5.78434E-01 9.53598E-04 8.71541E-01 3.58936E-14-1.11596E-13
 -1      3483 1.96112E+01 4.45089E-01-1.61777E-03 1.12784E+00-8.21624E-14 8.06576E-14
 -1      3484 1.96344E+01 3.85096E-01 3.95751E-03 1.21782E+00-7.79291E-14 2.62504E-14
 -1      3485 1.93910E+01 5.43316E-01 1.50980E-04 1.05967E+00-5.62040E-15-9.84704E-15
 -1      3486 1.96017E+01 2.93572E-01-4.30398E-04 1.33400E+00-5.72836E-14 1.58227E-14
 -1      3487 1.96645E+01 1.70333E-01 5.79368E-03 1.42435E+00 5.72674E-14 4.75123E-14
 -1      3488 1.93063E+01 4.20398E-01-1.53473E-03 1.27886E+00-2.11557E-14-1.06075E-13
 -1      3489 1.96741E+01 3.41276E-03 2.11909E-03 1.55529E+00 1.48577E-14-1.10803E-13
 -1      3490 1.98068E+01-2.09531E-01 8.46116E-03 1.63736E+00-1.00094E-15-2.57802E-13
 -1      3491 1.92740E+01 1.64893E-01-4.66569E-03 1.53416E+00-8.33015E-14-1.50130E-13
 -1      3492 1.99009E+01-4.78528E-01 7.47076E-03 1.77908E+00 2.68081E-13-2.93442E-13
 -1      3493 2.01456E+01-8.14094E-01 9.66110E-03 1.83546E+00 2.78006E-13-1.54544E-13
 -1      3494 1.93530E+01-2.81467E-01-1.02883E-02 1.82810E+00 1.15746E-13-2.98580E-13
 -1      3495 2.03967E+01-1.19334E+00 1.94334E-02 1.95928E+00 1.39181E-13-1.04649E-13
 -1      3496 2.08155E+01-1.65450E+00 1.85176E-02 1.96134E+00 1.72644E-13-1.09137E-13
 -1      3497 1.96396E+01-9.94590E-01-2.41227E-02 2.14316E+00 2.38925E-13-2.40427E-13
 -1      3498 2.13129E+01-2.20682E+00 2.73198E-02 2.01762E+00 9.17131E-14-1.73607E-13
 -1      3499 2.19293E+01-2.76454E+00 4.98535E-03 1.84689E+00 1.02305E-13-1.52345E-13
 -1      3500 2.03222E+01-1.99589E+00-4.03999E-02 2.41300E+00 8.94896E-14-1.69238E-13
 -1      3501 2.28453E+01-3.28187E+00 5.88919E-02 1.70612E+00 2.24707E-14-2.22786E-13
 -1      3502 2.36996E+01-3.73943E+00 1.79877E-02 1.26619E+00-1.69300E-13-3.55356E-13
 -1      3503 2.16080E+01-3.28301E+00-2.90841E-02 2.55498E+00 7.66921E-15-3.58808E-13
 -1      3504 2.02589E+01 1.45790E+00 8.39764E-03-6.09963E-01-2.43551E-13-5.32155E-13
 -1      3505 2.00356E+01-5.58673E-02 4.25161E-04-1.10356E-01 4.77354E-14-9.29973E-14
 -1      3506 2.00369E+01-6.15303E-02-1.09227E-04-1.17884E-01 6.60879E-14-1.20791E-13
 -1      3507 2.00459E+01-6.56059E-02 3.96071E-04-1.25601E-01 5.81844E-14-1.05993E-13
 -1      3508 2.00489E+01-6.83762E-02 1.63413E-05-1.33806E-01 6.80387E-14-7.29191E-14
 -1      3509 2.00695E+01-7.06522E-02-3.73741E-04-1.16910E-01 7.44416E-14-7.66995E-14
 -1      3510 2.00227E+01-2.37575E-02 4.64643E-04-8.99998E-02-8.73140E-14-6.77135E-14
 -1      3511 2.00218E+01-3.33495E-02-2.74918E-04-9.34007E-02-4.51099E-14-1.12931E-13
 -1      3512 2.00188E+01-2.51561E-03 4.93179E-04-8.78249E-02-4.91675E-14-2.56572E-14
 -1      3513 2.00172E+01-1.38282E-02-3.45117E-04-8.81061E-02-6.63726E-14-5.39648E-14
 -1      3514 2.00317E+01-2.04908E-02-1.53812E-04-8.72278E-02-8.82954E-14-2.07627E-14
 -1      3515 2.00159E+01 2.23057E-02 5.35539E-04-9.26734E-02-3.95783E-14-3.33369E-14
 -1      3516 2.00137E+01 9.11162E-03-4.21660E-04-8.91979E-02-3.61882E-14-8.50338E-14
 -1      3517 2.00228E+01 4.64118E-03-8.43679E-05-8.71104E-02-4.18516E-14 2.09679E-14
 -1      3518 2.00131E+01 5.12756E-02 5.94739E-04-1.05830E-01-7.28885E-14-9.41402E-14
 -1      3519 2.00104E+01 3.58697E-02-5.14572E-04-9.79236E-02-4.03824E-14-8.36436E-14
 -1      3520 2.00142E+01 3.40455E-02-1.06544E-05-9.40166E-02-3.95641E-14-6.51931E-14
 -1      3521 2.00097E+01 8.52003E-02 6.72226E-04-1.28715E-01-6.06531E-14 1.72041E-15
 -1      3522 2.00067E+01 6.71449E-02-6.31481E-04-1.15626E-01-4.40588E-14-2.42459E-14
 -1      3523 2.00047E+01 6.84112E-02 7.37112E-05-1.09224E-01-7.31909E-14-1.08389E-13
 -1      3524 2.00048E+01 1.25002E-01 7.67440E-04-1.62928E-01-8.46251E-14-1.97215E-14
 -1      3525 2.00017E+01 1.03816E-01-7.79170E-04-1.43811E-01-5.51144E-14-2.52608E-14
 -1      3526 1.99931E+01 1.08659E-01 1.75760E-04-1.34132E-01-5.81888E-14-8.61779E-14
 -1      3527 1.99972E+01 1.71565E-01 8.77968E-04-2.10253E-01 1.72556E-14-1.10341E-13
 -1      3528 1.99942E+01 1.46807E-01-9.63203E-04-1.84172E-01 5.87996E-15-1.21405E-13
 -1      3529 1.99776E+01 1.55799E-01 3.03340E-04-1.70297E-01 3.78233E-14-1.60514E-13
 -1      3530 1.99854E+01 2.25532E-01 9.99796E-04-2.72617E-01 6.53533E-14-1.58797E-13
 -1      3531 1.99829E+01 1.96913E-01-1.18741E-03-2.38576E-01 7.67444E-15-1.01882E-13
 -1      3532 1.99566E+01 2.10742E-01 4.64964E-04-2.19430E-01 1.45438E-14-2.59456E-13
 -1      3533 1.99676E+01 2.86984E-01 1.12839E-03-3.51992E-01 1.77910E-14-8.35158E-14
 -1      3534 1.99661E+01 2.54543E-01-1.45307E-03-3.09004E-01 3.05186E-14-1.38793E-13
 -1      3535 1.99275E+01 2.74044E-01 6.68852E-04-2.83344E-01 2.25586E-14-2.36776E-13
 -1      3536 1.99418E+01 3.54984E-01 1.26148E-03-4.50251E-01 4.13490E-14 1.71263E-15
 -1      3537 1.99419E+01 3.19345E-01-1.75747E-03-3.97431E-01 2.76016E-14 4.29333E-14
 -1      3538 1.98878E+01 3.45533E-01 9.20867E-04-3.63881E-01-5.14505E-14-1.39584E-13
 -1      3539 1.99059E+01 4.26866E-01 1.40494E-03-5.68978E-01 4.84297E-14-5.60226E-14
 -1      3540 1.99080E+01 3.89626E-01-2.09163E-03-5.05677E-01 1.13304E-13 7.62065E-14
 -1      3541 1.98343E+01 4.23758E-01 1.22045E-03-4.62804E-01 6.10344E-14-1.44054E-13
 -1      3542 1.98579E+01 4.97177E-01 1.58387E-03-7.09271E-01 4.70874E-14-2.76109E-14
 -1      3543 1.98624E+01 4.61487E-01-2.43676E-03-6.35231E-01 3.81442E-14-3.10902E-14
 -1      3544 1.97638E+01 5.05184E-01 1.55310E-03-5.81717E-01 4.42499E-14 5.01103E-15
 -1      3545 1.97973E+01 5.56118E-01 1.86112E-03-8.71597E-01 2.65195E-14 5.90802E-14
 -1      3546 1.98036E+01 5.27532E-01-2.75783E-03-7.87110E-01 3.86847E-14 1.39658E-14
 -1      3547 1.96733E+01 5.83000E-01 1.87703E-03-7.22092E-01 5.46058E-14-8.54595E-15
 -1      3548 1.97269E+01 5.87308E-01 2.36293E-03-1.05579E+00 5.51733E-14-6.67456E-14
 -1      3549 1.97322E+01 5.74990E-01-2.99103E-03-9.61836E-01 6.52165E-14 3.12293E-14
 -1      3550 1.95611E+01 6.45416E-01 2.09992E-03-8.85518E-01 5.15655E-14 5.58938E-14
 -1      3551 1.96560E+01 5.64754E-01 3.30179E-03-1.26124E+00 4.87109E-14-2.61411E-13
 -1      3552 1.96533E+01 5.83094E-01-3.01731E-03-1.15962E+00 6.38375E-14-1.57490E-13
 -1      3553 1.94287E+01 6.73251E-01 2.03784E-03-1.07438E+00 1.19379E-13-1.15178E-13
 -1      3554 1.96061E+01 4.49117E-01 4.96557E-03-1.48706E+00-2.60703E-13-3.19376E-13
 -1      3555 1.95810E+01 5.19684E-01-2.61042E-03-1.38069E+00-1.33221E-13-3.29381E-13
 -1      3556 1.92839E+01 6.36640E-01 1.34006E-03-1.29304E+00-4.09915E-14-2.17611E-13
 -1      3557 1.96202E+01 1.84047E-01 7.53722E-03-1.73127E+00-1.69352E-13-1.57683E-13
 -1      3558 1.95461E+01 3.37459E-01-1.32890E-03-1.62522E+00-2.44070E-13-2.31850E-13
 -1      3559 1.91472E+01 4.90813E-01-6.50776E-04-1.54937E+00-2.79096E-13-2.40363E-13
 -1      3560 1.97758E+01-3.04093E-01 1.12507E-02-1.98593E+00-1.06466E-13-2.07256E-14
 -1      3561 1.96081E+01-2.86784E-02 1.61570E-03-1.89109E+00-9.84411E-14-2.52410E-14
 -1      3562 1.90619E+01 1.71558E-01-5.20964E-03-1.85504E+00-1.74744E-13-2.76178E-13
 -1      3563 2.02044E+01-1.10147E+00 1.61564E-02-2.21946E+00-1.29478E-13 1.21301E-15
 -1      3564 1.98742E+01-6.61694E-01 8.46938E-03-2.16574E+00-6.54754E-14-9.62208E-14
 -1      3565 1.91112E+01-4.09895E-01-1.42910E-02-2.22248E+00-8.16877E-14-1.96775E-13
 -1      3566 2.10906E+01-2.26875E+00 1.47848E-02-2.34630E+00 2.97141E-14 8.63025E-16
 -1      3567 2.05248E+01-1.64029E+00 2.36445E-02-2.39633E+00-5.36728E-14-1.63911E-14
 -1      3568 1.94485E+01-1.33975E+00-2.05556E-02-2.64355E+00-1.16947E-13-9.20345E-14
 -1      3569 2.25077E+01-3.72334E+00-8.47138E-03-2.19557E+00-1.23353E-13-8.78117E-15
 -1      3570 2.18203E+01-2.91993E+00 6.14980E-02-2.38744E+00 9.37445E-15-8.89089E-15
 -1      3571 2.03955E+01-2.69430E+00-6.07114E-03-3.02839E+00 3.41040E-14-1.48362E-13
 -1      3572 2.68514E+01-3.49532E+00 5.74617E-02-6.69759E-01-4.29018E-13 4.24730E-14
 -1      3573 1.86470E+01-3.25601E+00 1.14626E-02-4.11118E+00-5.01196E-14-1.32599E-13
 -1      3574 2.10956E+01-4.23811E+00 1.17735E-01-3.86966E+00-8.95117E-14-1.25067E-13
 -1      3575 2.02348E+01 3.19832E-01-2.15496E-03 1.60350E-02 2.18568E-13-2.80095E-13
 -1      3576 2.02655E+01 4.29207E-01 3.06643E-03 8.98980E-02 2.34149E-13-2.76616E-13
 -1      3577 2.68551E+01-2.75358E+00-8.57547E-04-2.10178E-01 1.35700E-13 1.92152E-13
 -1      3578 2.52597E+01-3.93664E+00-3.85219E-03 2.67266E+00 1.12185E-13 4.44996E-13
 -1      3579 2.28787E+01-2.60953E+00-1.25620E-02 3.75573E+00 5.27703E-14 1.74577E-13
 -1      3580 1.60356E+01-2.02046E+00 1.03946E-02 4.20116E+00-1.64192E-14-2.47184E-13
 -1      3581 1.38520E+01-8.72735E-01 5.36271E-02 3.45253E+00-1.67921E-15-3.46216E-13
 -1      3582 1.40613E+01-1.02943E+00 6.41404E-02-3.52693E+00-2.67147E-13-3.05103E-13
 -1      3583 1.56247E+01-1.93734E+00 9.12264E-03-4.10771E+00-1.51886E-13-1.38878E-13
 -1      3584 1.13669E+01-1.28021E-01 9.99565E-02-1.37529E+00-3.78174E-14-4.49640E-13
 -1      3585 2.28481E+01-4.45101E+00 1.00760E-02-5.49522E+00 2.87617E-14 2.50841E-13
 -1      3586 2.39908E+01-4.79845E+00 3.40652E-03-5.08152E+00-9.30367E-14 3.41709E-13
 -1      3587 2.00281E+01-4.16281E-02 4.44745E-04-9.79567E-02 9.51088E-15-1.27946E-13
 -1      3588 2.00282E+01-4.94335E-02-2.00131E-04-1.03810E-01 3.94523E-14-1.25545E-13
 -1      3589 2.00542E+01-5.86592E-02-2.93314E-04-1.03551E-01 3.29135E-14-9.87655E-14
 -1      3590 2.00418E+01-4.16566E-02-2.21524E-04-9.31442E-02-2.71425E-14-1.24611E-13
 -1      3591 2.35333E+01-4.59205E+00-4.77872E-03-2.29515E+00-1.55896E-13-1.39319E-13
 -1      3592 2.45401E+01-3.20475E+00 6.11388E-03-2.58690E+00-6.26062E-15-2.43529E-13
 -1      3593 2.01001E+01-4.54204E-02 6.88030E-05-1.63012E-01 5.37814E-14-1.87820E-13
 -1      3594 2.01116E+01-2.92380E-02 8.01472E-04-1.62528E-01 8.89093E-14-1.98260E-13
 -1      3595 2.47148E+01-3.63571E+00 6.02158E-02 3.09507E+00 1.36320E-13 2.62613E-13
 -1      3596 2.32528E+01-3.35846E+00-3.13891E-02 4.17834E+00 1.24917E-13 2.54640E-13
 -1      3597 2.56817E+01-4.12257E+00 2.03459E-03 4.00176E-01-2.80909E-13-6.09027E-14
 -1      3598 2.60402E+01-3.16175E+00-5.80561E-02-9.75943E-01 9.46227E-14-3.35496E-14
 -1      3599 1.18265E+01 4.13321E-01 3.97986E-02-1.06839E-01 1.51546E-13-2.65905E-13
 -1      3600 1.23069E+01-1.47353E-01 3.35701E-02-2.20467E+00-3.96384E-14-4.23293E-13
 -1      3601 1.39886E+01-2.23540E-01 5.35704E-02-2.37528E+00-9.11805E-14-3.30375E-13
 -1      3602 2.00300E+01 2.20143E+00-3.42303E-03-1.63085E-01 6.81778E-15-6.39883E-13
 -1      3603 2.00423E+01 2.16482E+00-4.29226E-03-2.84449E-01-5.55227E-14-6.36587E-13
 -1      3604 2.01596E+01 1.85229E+00 5.56231E-03-2.86237E-01-6.34435E-14-6.11079E-13
 -1      3605 2.03133E+01 7.26483E-01-1.18601E-03-2.44111E-01-1.87826E-13-4.58756E-13
 -1      3606 2.02944E+01 5.71742E-01-3.30937E-03-1.42070E-01-1.45158E-13-4.41599E-13
 -1      3607 2.02994E+01 4.39012E-01 2.58454E-03-7.22095E-02-1.39062E-13-4.30731E-13
 -1      3608 2.02749E+01 3.25829E-01-2.17483E-03-5.60359E-03-1.55964E-13-4.08105E-13
 -1      3609 2.03154E+01 3.27222E-01-1.32272E-04 2.00480E-03-1.30363E-13-3.79366E-13
 -1      3610 2.36430E+01-5.49364E+00-1.84432E-02-3.08146E+00-1.65257E-13-2.54134E-13
 -1      3611 1.29819E+01-2.86523E-01 5.59799E-02 2.76596E+00-5.52978E-14-2.62089E-13
 -1      3612 1.24631E+01 1.25852E-01 1.61175E-02 1.62270E+00-3.05676E-14-2.76883E-13
 -1      3613 1.47831E+01-4.88291E-01 5.17458E-02 2.86856E+00-1.07450E-13-3.99562E-13
 -1      3614 2.02695E+01 1.13844E+00-1.61733E-03-4.22992E-01-2.09719E-13-5.05137E-13
 -1      3615 2.82634E+01 4.04812E+00-1.76848E-01 3.05043E+00 2.93154E-13-2.66565E-13
 -1      3616 2.02522E+01 1.37612E+00-6.20160E-03-4.20957E-01-1.63181E-13-5.29726E-13
 -1      3617 2.03094E+01 9.74319E-01 4.83725E-03-3.11793E-01-1.82491E-13-4.75220E-13
 -1      3618 2.03191E+01 9.54965E-01-6.11884E-04-2.53362E-01-1.41303E-13-4.58899E-13
 -1      3619 2.02354E+01 1.47802E+00-2.26688E-03-3.48177E-01-9.61461E-14-5.52215E-13
 -1      3620 2.01973E+01 1.60130E-01-1.30275E-03-8.07783E-02 1.72033E-13-2.42958E-13
 -1      3621 2.02241E+01 2.33170E-01 2.56385E-03-3.58973E-02 2.02736E-13-2.59564E-13
 -1      3622 2.02817E+01 3.27828E-01-4.04545E-04 7.60999E-03 1.93036E-13-2.91813E-13
 -1      3623 2.65323E+01 3.48056E+00-5.73793E-02 2.92858E+00 1.53905E-14-5.14998E-13
 -1      3624 2.53806E+01-3.53495E+00 8.27251E-03-2.14776E+00-1.00173E-13-2.40100E-13
 -1      3625 2.02777E+01 1.14121E+00-4.90132E-03 4.93306E-01 3.10996E-13-3.71742E-13
 -1      3626 2.02658E+01 1.28570E+00-1.55505E-04 4.53696E-01 2.60464E-13-4.11433E-13
 -1      3627 2.33286E+01-4.58957E+00-6.01075E-02 2.42341E+00-2.39565E-15-3.82453E-13
 -1      3628 2.47101E+01-4.24706E+00 4.35852E-02 1.12690E+00-1.59569E-13-1.34878E-13
 -1      3629 2.01278E+01-8.13989E-03-2.15552E-04-1.58702E-01 5.84169E-14-2.15048E-13
 -1      3630 2.01438E+01 2.07471E-02 1.27461E-03-1.49075E-01 7.00880E-14-2.41117E-13
 -1      3631 2.01724E+01-1.47125E-02-7.16619E-04-1.47559E-01 5.22651E-14-2.31453E-13
 -1      3632 2.01381E+01 1.92375E+00 5.13501E-03-9.50224E-02 3.01354E-14-5.83977E-13
 -1      3633 2.00886E+01-7.58778E-02-4.55223E-04-1.31261E-01 1.02191E-13-1.14864E-13
 -1      3634 2.00597E+01-6.91458E-02 3.42719E-04-1.41594E-01 1.15804E-13-1.09721E-13
 -1      3635 2.00648E+01-6.77745E-02 1.96130E-04-1.49094E-01 1.26485E-13-9.53861E-14
 -1      3636 1.83558E+01-2.93644E+00-2.85626E-02 4.12313E+00-5.44287E-14 7.68829E-14
 -1      3637 1.72599E+01-2.33853E+00 9.44022E-02 4.20533E+00-7.80313E-14-6.80116E-14
 -1      3638 1.64319E+01-1.50355E+00-6.47379E-03 3.66062E+00-5.04995E-14-2.75426E-13
 -1      3639 2.01030E+01 6.00232E-02-1.19275E-03-1.39362E-01 1.36560E-13-2.33818E-13
 -1      3640 1.71070E+01-2.15792E+00 6.55172E-02-4.02784E+00-3.64604E-14-1.95297E-13
 -1      3641 1.95073E+01-2.61841E+00-3.35248E-03-3.33493E+00 1.56819E-14-2.73954E-13
 -1      3642 1.88668E+01-1.78955E+00 1.61369E-03-3.11611E+00 7.43264E-14-2.45469E-13
 -1      3643 1.69477E+01-1.44971E+00 2.68308E-02-3.49231E+00-9.28849E-14-3.98839E-13
 -1      3644 2.03054E+01 5.74583E-01 2.06966E-05 1.44147E-01 2.26787E-13-3.27598E-13
 -1      3645 2.02674E+01 5.62445E-01-2.10408E-03 1.71590E-01 2.17734E-13-2.91502E-13
 -1      3646 1.27594E+01 5.14043E-01 6.97566E-02 7.71734E-01 5.46418E-14-3.22118E-13
 -1      3647 1.33239E+01 5.94335E-01 1.13495E-03-1.37272E-02 3.24740E-14-3.52454E-13
 -1      3648 1.38685E+01 4.09114E-01 1.13228E-02 1.46832E+00-1.73147E-13-5.10845E-13
 -1      3649 2.02863E+01 6.85952E-01 1.14288E-03 2.68025E-01 2.37267E-13-2.95732E-13
 -1      3650 2.00854E+01-5.63801E-02 4.48898E-04-1.60280E-01 1.44000E-14-1.58323E-13
 -1      3651 2.01399E+01-5.31707E-02-6.29135E-04-1.51036E-01 3.54762E-14-1.98820E-13
 -1      3652 2.00775E+01-6.37707E-02 2.43796E-04-1.55416E-01 3.58621E-14-1.37440E-13
 -1      3653 2.02219E+01 1.54757E+00-3.96189E-03 2.85597E-01 2.09094E-13-5.51666E-13
 -1      3654 2.02114E+01 1.60597E+00-2.00646E-03 2.01713E-01 1.63536E-13-5.66398E-13
 -1      3655 2.03318E+01 5.78159E-01 9.30396E-04-1.14984E-01-1.45422E-13-4.21820E-13
 -1      3656 2.02026E+01 1.63913E+00-3.33259E-03 1.30449E-01 1.27069E-13-5.67242E-13
 -1      3657 2.01986E+01 1.65893E+00-2.64464E-03 3.98316E-02 8.13880E-14-5.53839E-13
 -1      3658 2.02854E+01 1.38482E+00 4.75420E-03 1.33548E-01 1.31629E-13-5.25315E-13
 -1      3659 2.02507E+01 1.38262E+00-4.66562E-03 4.13807E-01 2.56877E-13-4.85903E-13
 -1      3660 2.02369E+01 1.48186E+00-1.28194E-03 3.45139E-01 2.16343E-13-5.12453E-13
 -1      3661 2.02957E+01 1.28311E+00 4.03540E-03 2.49950E-01 1.98867E-13-5.04125E-13
 -1      3662 2.03040E+01 1.11424E+00 2.98183E-03 3.36055E-01 2.50588E-13-4.29883E-13
 -1      3663 2.03344E+01 2.15518E-01 1.33095E-03 4.71968E-02-9.78420E-14-3.37785E-13
 -1      3664 2.03137E+01 1.40816E-01-1.03589E-03 7.63530E-02-1.09065E-13-3.21678E-13
 -1      3665 2.02717E+01 9.55818E-01 1.88231E-03 4.63383E-01 3.24227E-13-3.29963E-13
 -1      3666 2.02852E+01 8.22641E-01 1.89065E-03 3.37939E-01 2.77190E-13-3.16350E-13
 -1      3667 2.02986E+01 8.18400E-02 1.08057E-03 9.24905E-02-8.02637E-14-2.88308E-13
 -1      3668 2.02771E+01 3.36426E-02-5.13420E-04 1.07783E-01-4.23358E-14-2.81247E-13
 -1      3669 2.03403E+01 1.30458E-01-1.25754E-04 6.84184E-02-5.96601E-14-2.88195E-13
 -1      3670 2.02580E+01-3.17183E-03 7.97585E-04 1.14599E-01-4.12586E-14-2.73747E-13
 -1      3671 2.02378E+01-3.21213E-02-1.40927E-04 1.20326E-01 1.63900E-14-2.70319E-13
 -1      3672 2.03017E+01 2.40774E-02-3.79517E-04 9.36510E-02-3.85077E-14-2.36453E-13
 -1      3673 2.02174E+01-5.30711E-02 5.52803E-04 1.20954E-01 3.22457E-14-2.78189E-13
 -1      3674 2.01994E+01-6.83258E-02 1.05399E-04 1.20567E-01 5.56657E-15-2.93620E-13
 -1      3675 2.02597E+01-4.06166E-02-5.06897E-04 1.03400E-01-1.49495E-15-2.79258E-13
 -1      3676 2.01797E+01-7.80928E-02 3.52757E-04 1.17471E-01-1.37873E-14-2.57858E-13
 -1      3677 2.01642E+01-8.37331E-02 2.57736E-04 1.13597E-01-2.62288E-14-2.47041E-13
 -1      3678 2.02183E+01-7.54078E-02-5.44772E-04 1.03100E-01 1.87507E-15-2.92359E-13
 -1      3679 2.01459E+01-8.56897E-02 1.93058E-04 1.08647E-01-5.28359E-14-2.45669E-13
 -1      3680 2.01329E+01-8.46362E-02 3.42933E-04 1.03240E-01-6.68883E-14-2.36473E-13
 -1      3681 2.01800E+01-8.90661E-02-5.23393E-04 9.69844E-02-2.18327E-14-2.96556E-13
 -1      3682 2.01166E+01-8.11623E-02 6.59303E-05 9.78078E-02-1.05010E-13-2.06201E-13
 -1      3683 2.01059E+01-7.54201E-02 3.83514E-04 9.22804E-02-1.48331E-13-2.09552E-13
 -1      3684 2.01456E+01-8.79330E-02-4.66640E-04 8.82689E-02-1.03719E-13-2.44370E-13
 -1      3685 2.00913E+01-6.80805E-02-4.08920E-05 8.73587E-02-1.47178E-13-1.55271E-13
 -1      3686 2.00825E+01-5.89179E-02 3.97126E-04 8.27512E-02-1.06664E-13-1.51531E-13
 -1      3687 2.01155E+01-7.63913E-02-3.89598E-04 7.92937E-02-1.05485E-13-1.52703E-13
 -1      3688 2.00695E+01-4.86575E-02-1.37348E-04 7.90858E-02-1.20280E-13-1.53534E-13
 -1      3689 2.00622E+01-3.67903E-02 3.95671E-04 7.61920E-02-1.35387E-13-1.65358E-13
 -1      3690 2.00890E+01-5.72289E-02-2.96876E-04 7.17927E-02-1.21605E-13-1.20065E-13
 -1      3691 2.00502E+01-2.40875E-02-2.32430E-04 7.43656E-02-6.21019E-14-1.11508E-13
 -1      3692 2.00437E+01-9.80016E-03 3.89460E-04 7.38264E-02 1.95503E-14-1.24758E-13
 -1      3693 2.00653E+01-3.20468E-02-1.90371E-04 6.71016E-02-5.71726E-14-6.67069E-14
 -1      3694 2.00319E+01 5.24450E-03-3.35036E-04 7.43406E-02-6.59796E-15-1.66742E-13
 -1      3695 2.00258E+01 2.19982E-02 3.84863E-04 7.67385E-02-2.33849E-14-1.77789E-13
 -1      3696 2.00431E+01-1.51902E-03-7.31338E-05 6.62906E-02-2.56924E-14-7.05115E-14
 -1      3697 2.00134E+01 3.95445E-02-4.52044E-04 8.00865E-02 1.77784E-14-1.89876E-13
 -1      3698 2.00069E+01 5.90307E-02 3.84561E-04 8.59996E-02 5.04242E-15-1.34892E-13
 -1      3699 2.00208E+01 3.44080E-02 5.78487E-05 7.03435E-02 3.36949E-14-1.12366E-13
 -1      3700 1.99929E+01 7.94065E-02-5.90440E-04 9.27025E-02 3.94442E-14-5.23234E-14
 -1      3701 1.99853E+01 1.02020E-01 3.90347E-04 1.02743E-01 6.39248E-14-3.69846E-14
 -1      3702 1.99965E+01 7.62627E-02 2.07047E-04 8.02471E-02 6.66489E-14-7.47838E-14
 -1      3703 1.99683E+01 1.25629E-01-7.56187E-04 1.13381E-01 2.68347E-15 6.39745E-15
 -1      3704 1.99588E+01 1.51793E-01 4.03161E-04 1.28219E-01 2.71635E-14 5.71154E-14
 -1      3705 1.99679E+01 1.24848E-01 3.78533E-04 9.70541E-02 7.59140E-14 1.15043E-14
 -1      3706 1.99376E+01 1.79006E-01-9.53682E-04 1.43454E-01-1.74819E-14 6.22004E-14
 -1      3707 1.99252E+01 2.09047E-01 4.23491E-04 1.63826E-01 5.95073E-15 3.93476E-14
 -1      3708 1.99327E+01 1.81031E-01 5.77036E-04 1.21940E-01-4.16736E-15 1.20512E-13
 -1      3709 1.98982E+01 2.40061E-01-1.18592E-03 1.84413E-01-1.80050E-14-3.72945E-14
 -1      3710 1.98818E+01 2.74050E-01 4.52641E-04 2.11111E-01-1.18785E-14-7.15260E-14
 -1      3711 1.98880E+01 2.45481E-01 8.06513E-04 1.56235E-01-1.53683E-14 4.42536E-14
 -1      3712 1.98474E+01 3.08705E-01-1.45426E-03 2.37902E-01 1.70301E-14-1.09581E-13
 -1      3713 1.98260E+01 3.46248E-01 4.94825E-04 2.71756E-01-1.94830E-14-1.69664E-13
 -1      3714 1.98306E+01 3.18333E-01 1.06879E-03 2.01443E-01-9.98285E-15-2.26003E-13
 -1      3715 1.97824E+01 3.83786E-01-1.75837E-03 3.05714E-01-5.85739E-14-1.47487E-13
 -1      3716 1.97550E+01 4.23744E-01 5.60716E-04 3.47567E-01-4.61620E-14-1.79096E-13
 -1      3717 1.97572E+01 3.98763E-01 1.36183E-03 2.59262E-01-2.92027E-14-1.08987E-13
 -1      3718 1.97004E+01 4.62481E-01-2.09662E-03 3.89794E-01-3.73600E-14-1.38337E-13
 -1      3719 1.96663E+01 5.02605E-01 6.73447E-04 4.40499E-01-1.06366E-14-8.35424E-14
 -1      3720 1.96642E+01 4.84428E-01 1.67731E-03 3.31636E-01-5.31801E-14-1.28228E-13
 -1      3721 1.95990E+01 5.39506E-01-2.46706E-03 4.92317E-01 1.64655E-14-9.39064E-15
 -1      3722 1.95582E+01 5.75964E-01 8.78377E-04 5.52774E-01-5.00113E-15-2.25192E-14
 -1      3723 1.95482E+01 5.70754E-01 1.99716E-03 4.20891E-01 4.80749E-15 2.99785E-14
 -1      3724 1.94771E+01 6.06093E-01-2.86827E-03 6.15906E-01-5.14868E-14-2.07388E-13
 -1      3725 1.94306E+01 6.32876E-01 1.25826E-03 6.87183E-01-7.13916E-15-2.13941E-13
 -1      3726 1.94065E+01 6.50039E-01 2.28817E-03 5.30030E-01-8.20470E-14-1.82140E-13
 -1      3727 1.93355E+01 6.48701E-01-3.29753E-03 7.64098E-01 6.32972E-15-2.16249E-13
 -1      3728 1.92868E+01 6.56878E-01 1.95453E-03 8.47685E-01 5.27957E-14-1.83588E-13
 -1      3729 1.92376E+01 7.10335E-01 2.49228E-03 6.63324E-01 2.37376E-14-2.94668E-13
 -1      3730 1.91788E+01 6.47417E-01-3.73802E-03 9.42185E-01 3.69861E-14-2.25000E-13
 -1      3731 1.91353E+01 6.24196E-01 3.18589E-03 1.04037E+00-1.74091E-14-1.04683E-13
 -1      3732 1.90423E+01 7.34064E-01 2.50505E-03 8.27376E-01 1.46805E-14-2.94346E-13
 -1      3733 1.90186E+01 5.73960E-01-4.11918E-03 1.15841E+00-6.88129E-14-3.62402E-14
 -1      3734 1.89940E+01 5.01554E-01 5.27424E-03 1.27459E+00 4.12390E-14-3.81771E-14
 -1      3735 1.88254E+01 6.96154E-01 2.12144E-03 1.03279E+00-3.94663E-14-7.64783E-14
 -1      3736 1.88781E+01 3.89440E-01-4.17558E-03 1.42503E+00-3.55533E-14-7.13624E-14
 -1      3737 1.88965E+01 2.44073E-01 8.76240E-03 1.56343E+00-1.71478E-13-1.34643E-13
 -1      3738 1.85998E+01 5.61516E-01 9.71769E-04 1.29624E+00-5.31029E-14-7.69251E-14
 -1      3739 1.88010E+01 4.16669E-02-3.31151E-03 1.75921E+00-1.19303E-13-1.00400E-13
 -1      3740 1.89005E+01-2.08748E-01 1.33174E-02 1.92210E+00 1.23460E-13-1.94908E-13
 -1      3741 1.83911E+01 2.82702E-01-1.44805E-03 1.64298E+00-1.00749E-13-4.78066E-14
 -1      3742 1.88731E+01-5.37127E-01 1.85213E-03 2.17808E+00 3.07381E-13-2.56612E-13
 -1      3743 1.91720E+01-9.41647E-01 2.05545E-02 2.33306E+00 2.72218E-13-1.74326E-13
 -1      3744 1.82646E+01-2.09587E-01-2.94805E-03 2.11252E+00 1.22868E-13-1.44360E-13
 -1      3745 1.89288E+01-1.68938E+00 6.52050E-03 2.97446E+00 6.16755E-14-1.65616E-13
 -1      3746 1.94013E+01-2.29240E+00 4.29799E-02 3.21984E+00-1.69309E-14-2.08322E-13
 -1      3747 2.01115E+01-3.06914E+00 2.71004E-02 3.34482E+00-8.28296E-14-2.25159E-13
 -1      3748 2.00913E+01-7.33892E-02 3.97990E-04-1.03893E-01 4.43796E-14-1.34692E-13
 -1      3749 2.00999E+01-7.81717E-02 5.39871E-05-1.10299E-01 8.18567E-14-1.11781E-13
 -1      3750 1.39742E+01 3.56782E-01 1.84352E-02-1.62461E+00-1.85537E-14-2.89747E-13
 -1      3751 1.53141E+01-4.41793E-01 3.27131E-03-2.81809E+00-1.34762E-13-2.81868E-13
 -1      3752 2.00266E+01 1.35276E-02 4.33688E-04-8.20467E-02-4.40258E-14-7.25577E-14
 -1      3753 2.00303E+01-1.63718E-03-3.40340E-04-8.02886E-02-4.17767E-14-4.73289E-14
 -1      3754 2.00403E+01-1.51533E-02 4.27512E-04-8.03583E-02-6.74283E-14-8.27645E-14
 -1      3755 2.00445E+01-2.80345E-02-2.46342E-04-8.16752E-02-7.68575E-14-9.91058E-14
 -1      3756 2.00424E+01-8.26672E-03-1.01561E-04-7.43268E-02-5.47364E-14-6.96711E-14
 -1      3757 1.99968E+01 8.63396E-02 4.63348E-04-1.06784E-01-8.00090E-14-7.32018E-14
 -1      3758 2.00011E+01 6.56059E-02-5.79239E-04-9.70084E-02-6.72237E-14-6.66012E-14
 -1      3759 1.99772E+01 1.32281E-01 4.87885E-04-1.32331E-01-1.62093E-14-2.02795E-13
 -1      3760 1.99829E+01 1.08007E-01-7.37426E-04-1.17518E-01-2.93008E-14-1.44588E-13
 -1      3761 1.99815E+01 1.08031E-01 2.98444E-04-1.04010E-01 1.26953E-14-1.84677E-13
 -1      3762 1.99518E+01 1.85980E-01 5.15894E-04-1.68527E-01 6.14804E-14-2.07264E-13
 -1      3763 1.99597E+01 1.57629E-01-9.30079E-04-1.47907E-01 2.95483E-14-2.00644E-13
 -1      3764 1.99530E+01 1.60636E-01 4.84645E-04-1.29627E-01 3.63729E-15-2.70774E-13
 -1      3765 1.99179E+01 2.48337E-01 5.43301E-04-2.16919E-01 1.68698E-14-1.66231E-13
 -1      3766 1.99290E+01 2.15484E-01-1.16240E-03-1.89670E-01 4.75913E-14-1.42618E-13
 -1      3767 1.99162E+01 2.21954E-01 7.11525E-04-1.65174E-01-1.52181E-14-8.93886E-14
 -1      3768 1.98725E+01 3.19803E-01 5.65875E-04-2.79115E-01-7.73007E-14-1.81158E-13
 -1      3769 1.98881E+01 2.82289E-01-1.43862E-03-2.44399E-01-1.90862E-14-2.32040E-13
 -1      3770 1.98678E+01 2.92828E-01 9.88918E-04-2.12018E-01-1.04352E-14-1.59701E-13
 -1      3771 1.98120E+01 3.99970E-01 5.81867E-04-3.56715E-01-4.82894E-15-1.01070E-13
 -1      3772 1.98336E+01 3.58125E-01-1.76213E-03-3.13728E-01-2.16924E-14-8.66566E-14
 -1      3773 1.98041E+01 3.73527E-01 1.32649E-03-2.71557E-01-8.72810E-14-1.67284E-13
 -1      3774 1.97324E+01 4.87001E-01 5.97297E-04-4.51249E-01 2.99584E-14-1.39669E-13
 -1      3775 1.97617E+01 4.41953E-01-2.13623E-03-3.99264E-01-1.27028E-14-1.63435E-13
 -1      3776 1.97205E+01 4.63290E-01 1.73232E-03-3.45185E-01 1.70597E-14-1.52045E-13
 -1      3777 1.96295E+01 5.76818E-01 6.35844E-04-5.64177E-01 2.84057E-14-8.90011E-14
 -1      3778 1.96679E+01 5.30925E-01-2.56600E-03-5.02563E-01 7.02261E-14-1.24668E-13
 -1      3779 1.96121E+01 5.59718E-01 2.21060E-03-4.34287E-01-9.11356E-15-2.41821E-13
 -1      3780 1.94992E+01 6.61956E-01 7.56246E-04-6.97085E-01 8.22375E-14-1.35215E-13
 -1      3781 1.95480E+01 6.19419E-01-3.06182E-03-6.25228E-01 3.98915E-14-1.32035E-13
 -1      3782 1.94735E+01 6.57935E-01 2.75779E-03-5.40393E-01 5.03701E-14-2.25762E-13
 -1      3783 1.93387E+01 7.29993E-01 1.08133E-03-8.52246E-01 1.03489E-13-1.92797E-13
 -1      3784 1.93978E+01 6.97680E-01-3.64398E-03-7.69290E-01 9.01645E-14-8.98922E-14
 -1      3785 1.92989E+01 7.49477E-01 3.35668E-03-6.65625E-01 6.29238E-14-3.12808E-13
 -1      3786 1.91480E+01 7.61369E-01 1.84113E-03-1.03383E+00 5.38779E-14-7.33335E-14
 -1      3787 1.92149E+01 7.49961E-01-4.34405E-03-9.38121E-01 1.03475E-13-5.50789E-14
 -1      3788 1.90831E+01 8.20803E-01 3.96584E-03-8.13722E-01 6.00386E-14-1.68259E-13
 -1      3789 1.89334E+01 7.26410E-01 3.41997E-03-1.25002E+00-1.31608E-13-6.22636E-14
 -1      3790 1.90003E+01 7.51978E-01-5.18811E-03-1.13818E+00 5.01620E-14-5.94788E-14
 -1      3791 1.88222E+01 8.51258E-01 4.49650E-03-9.92037E-01 3.93906E-14-4.39131E-14
 -1      3792 1.87129E+01 5.81308E-01 6.41837E-03-1.51580E+00-2.12010E-13-2.48162E-13
 -1      3793 1.87629E+01 6.67445E-01-6.13449E-03-1.38171E+00-2.03126E-13-1.52082E-13
 -1      3794 1.85156E+01 8.10112E-01 4.75269E-03-1.21488E+00-5.57145E-14-6.43217E-14
 -1      3795 1.85270E+01 2.62222E-01 1.13371E-02-1.85592E+00-1.67253E-13-3.60157E-13
 -1      3796 1.85268E+01 4.43582E-01-6.86110E-03-1.69018E+00-2.00159E-13-3.66693E-13
 -1      3797 1.81705E+01 6.52083E-01 4.27511E-03-1.50837E+00-1.64781E-13-2.09442E-13
 -1      3798 1.84397E+01-3.21438E-01 1.61596E-02-2.31306E+00-1.65242E-13-2.25095E-13
 -1      3799 1.83454E+01 1.07418E-02-5.19529E-03-2.09558E+00-1.53968E-13-3.60827E-13
 -1      3800 1.78070E+01 3.10960E-01 1.38899E-03-1.91521E+00-1.42674E-13-2.99728E-13
 -1      3801 1.86927E+01-1.23376E+00 1.43062E-02-2.82039E+00-5.05282E-14-2.86402E-13
 -1      3802 1.84371E+01-7.00383E-01-9.47896E-04-2.56679E+00-1.20275E-13-2.53696E-13
 -1      3803 1.76027E+01-3.18793E-01-2.35138E-02-2.45071E+00-1.43004E-13-3.33313E-13
 -1      3804 1.77663E+01-1.17709E+00-2.28059E-02-3.03729E+00-5.24802E-14-4.11963E-13
 -1      3805 2.03273E+01 5.55714E-01-2.24061E-03 1.01014E-01 1.89772E-13-3.57916E-13
 -1      3806 2.03350E+01 7.14753E-01 8.90001E-04 1.83371E-01 2.13239E-13-3.91446E-13
 -1      3807 2.02104E+01 1.60593E+00-2.23279E-03-2.04151E-01-2.09899E-14-5.66526E-13
 -1      3808 2.02199E+01 1.54628E+00-4.93765E-03-2.87467E-01-6.32573E-14-5.72734E-13
 -1      3809 2.03033E+01 1.27423E+00 6.33292E-03-2.59804E-01-7.50045E-14-5.09052E-13
 -1      3810 2.01606E+01 5.64279E-02-6.53185E-04-1.34703E-01 1.19032E-13-2.67585E-13
 -1      3811 2.01818E+01 1.03506E-01 1.87440E-03-1.10807E-01 1.46215E-13-2.61355E-13
 -1      3812 2.02466E+01 1.61289E-01-6.77344E-04-7.84167E-02 1.77384E-13-2.90010E-13
 -1      3813 2.03623E+01 7.07221E-01 4.45235E-03-1.47501E-01-1.35030E-13-3.96055E-13
 -1      3814 2.03509E+01 5.46148E-01-2.53622E-03-7.49795E-02-1.04508E-13-3.81059E-13
 -1      3815 2.01977E+01 1.65981E+00-2.77854E-03-3.45850E-02 6.49575E-14-5.35512E-13
 -1      3816 2.02018E+01 1.64100E+00-3.51208E-03-1.24748E-01 3.28015E-15-5.44518E-13
 -1      3817 2.02807E+01 1.42105E+00 5.40951E-03 1.19237E-03 7.15190E-14-5.18058E-13
 -1      3818 2.03577E+01 4.15621E-01 1.48958E-03-2.98099E-02-9.84863E-14-3.64678E-13
 -1      3819 2.03414E+01 3.05241E-01-1.63693E-03 1.82255E-02-9.52356E-14-3.59937E-13
 -1      3820 2.03690E+01 2.93549E-01 2.48268E-04 2.12488E-02-8.44337E-14-3.10622E-13
 -1      3821 2.23647E+01-4.63516E+00 4.92832E-02 3.31475E+00 1.30739E-13-2.45334E-13
 -1      3822 2.13121E+01-3.87761E+00 6.36656E-02 3.40944E+00 1.93925E-14-1.61317E-13
 -1      3823 1.58739E+01-5.12642E-01 5.17624E-02 2.94901E+00 8.58827E-14-1.78212E-13
 -1      3824 1.49851E+01-6.10994E-02 5.41471E-04 2.37658E+00-4.32640E-14-1.97905E-13
 -1      3825 2.25018E+01-3.15412E+00-3.01143E-03-4.82349E+00 1.34190E-13 3.47382E-13
 -1      3826 2.00127E+01 4.70930E-02 4.44990E-04-9.04566E-02-5.25103E-14-7.21969E-14
 -1      3827 2.00164E+01 2.93648E-02-4.49261E-04-8.50124E-02-9.84135E-15-5.61811E-14
 -1      3828 2.00044E+01 6.30440E-02 1.43766E-04-8.70340E-02-5.18142E-14-8.31149E-14
 -1      3829 2.03053E+01 8.71712E-01 1.11960E-03 2.99222E-01 2.47814E-13-3.24076E-13
 -1      3830 2.03229E+01 8.30728E-01-6.44391E-04 2.23808E-01 2.30228E-13-4.03041E-13
 -1      3831 2.03166E+01 9.67188E-01-1.41941E-03 2.89603E-01 2.36307E-13-4.09983E-13
 -1      3832 2.03176E+01 1.06759E+00 6.56820E-04 2.60328E-01 2.16466E-13-4.47156E-13
 -1      3833 2.03462E+01 8.15924E-01 1.28255E-03 1.76555E-01 2.05937E-13-4.12263E-13
 -1      3834 2.00240E+01 2.45783E-02 1.27248E-05-7.75077E-02-2.95956E-14-1.33869E-13
 -1      3835 2.01322E+01-8.52020E-02-4.69406E-04-1.02702E-01 6.19381E-14-2.10722E-13
 -1      3836 2.01148E+01-8.07467E-02 3.50860E-04-1.16527E-01 8.20517E-14-1.50043E-13
 -1      3837 2.01257E+01-8.09358E-02 2.05391E-04-1.22674E-01 6.66425E-14-2.08856E-13
 -1      3838 1.78880E+01-1.17796E+00-3.39568E-03 3.01157E+00 1.99312E-13-3.25693E-13
 -1      3839 2.00783E+01-6.71078E-02-5.66059E-05-9.80950E-02 5.84318E-14-7.34393E-14
 -1      3840 2.01050E+01-7.56676E-02-3.84384E-04-9.20198E-02 3.54274E-14-1.16134E-13
 -1      3841 2.00716E+01-5.90572E-02 4.19169E-04-9.25669E-02 2.82576E-14-9.25408E-14
 -1      3842 2.03318E+01 4.23727E-01 1.66958E-03 4.49039E-02 1.67312E-13-3.32884E-13
 -1      3843 2.03578E+01 5.49583E-01 9.10322E-04 7.73826E-02 1.59848E-13-3.60350E-13
 -1      3844 2.03132E+01 3.13054E-01-1.74312E-03-1.07884E-02 1.58680E-13-3.13413E-13
 -1      3845 2.02877E+01 1.38718E+00 6.48382E-03-1.39228E-01 4.43157E-15-5.22417E-13
 -1      3846 1.40524E+01 7.21468E-01 4.98648E-02-8.53314E-01-2.02121E-14-2.94398E-13
 -1      3847 1.51303E+01 5.61426E-01 1.27189E-02-1.36902E+00-6.57712E-14-2.23438E-13
 -1      3848 1.44754E+01 7.82373E-01 1.24087E-03-5.65241E-02-2.60573E-14-2.98632E-13
 -1      3849 1.67713E+01-8.39808E-01 3.93095E-02-3.07425E+00-1.27250E-13-4.54443E-13
 -1      3850 1.48383E+01 3.58672E-01 3.48633E-02 1.83421E+00-7.54459E-14-3.15119E-13
 -1      3851 1.47438E+01 6.17942E-01-2.31112E-02 1.10649E+00-4.89248E-14-4.96841E-13
 -1      3852 1.58526E+01 2.47889E-01 1.12120E-02 1.90474E+00 1.00935E-13-4.96825E-14
 -1      3853 1.64990E+01-2.18094E-01 2.00155E-02-2.48173E+00-7.74051E-14-3.89981E-13
 -1      3854 2.00549E+01-3.93891E-02 4.24015E-04-8.42589E-02-6.01205E-14-8.24613E-14
 -1      3855 2.00601E+01-5.00026E-02-1.54292E-04-8.80358E-02-7.54392E-15-7.93648E-14
 -1      3856 2.00816E+01-5.87829E-02-3.08142E-04-8.27612E-02 9.64914E-15-7.40907E-14
 -1      3857 2.02087E+01 5.27355E-02-7.44835E-04-1.26393E-01 8.91109E-14-2.76285E-13
 -1      3858 2.03332E+01 9.17054E-01-3.27246E-03-1.98716E-01-1.11976E-13-4.28399E-13
 -1      3859 2.01119E+01-7.14749E-02-5.39301E-04-1.43884E-01 6.43527E-14-1.71797E-13
 -1      3860 2.03219E+01 1.14731E+00-2.49835E-03 1.34423E-01 1.42236E-13-4.87940E-13
 -1      3861 2.03202E+01 1.18105E+00-1.74411E-03 7.79277E-02 9.34151E-14-5.07912E-13
 -1      3862 2.02098E+01-2.44685E-02-1.84830E-04-1.34355E-01 3.13111E-14-2.42630E-13
 -1      3863 2.02289E+01 4.85413E-03 9.31500E-04-1.27491E-01 6.35741E-14-2.36254E-13
 -1      3864 2.46647E+01-4.34340E+00 1.22716E-02-4.04647E+00 3.30985E-14 2.43880E-13
 -1      3865 2.03768E+01 5.32680E-01 3.33305E-04-5.45876E-02-9.30306E-14-3.51131E-13
 -1      3866 2.01744E+01-6.15547E-02 9.60245E-05-1.35528E-01 3.44953E-14-2.65820E-13
 -1      3867 2.01907E+01-4.57973E-02 6.36893E-04-1.35773E-01 4.36961E-14-2.62923E-13
 -1      3868 2.02383E+01-3.27212E-02-5.93641E-04-1.18980E-01 6.18604E-14-2.94939E-13
 -1      3869 2.03205E+01 1.08250E+00-2.42786E-03 2.21213E-01 1.84166E-13-4.83836E-13
 -1      3870 2.03182E+01 1.14839E+00-1.10540E-03 1.74593E-01 1.54350E-13-4.89575E-13
 -1      3871 2.03644E+01 9.78431E-01 4.04151E-03 1.13138E-01 1.19840E-13-4.74024E-13
 -1      3872 2.03461E+01 9.53174E-01 1.41743E-03 1.83804E-01 1.80554E-13-4.53409E-13
 -1      3873 2.00611E+01-3.60558E-02-2.08403E-04-7.64291E-02-7.64639E-14-7.70898E-14
 -1      3874 2.00665E+01-3.07624E-02 3.50672E-04-6.53861E-02-4.67971E-14-1.16456E-13
 -1      3875 2.00760E+01-4.42941E-02-1.13058E-04-6.71932E-02-2.38538E-14-3.92306E-14
 -1      3876 2.03974E+01 3.62534E-01 2.99401E-04-1.00578E-03-7.00777E-14-3.24912E-13
 -1      3877 2.03855E+01 2.59787E-01-1.17493E-03 2.97519E-02-7.27405E-14-3.05408E-13
 -1      3878 2.03404E+01 5.09057E-02 6.37053E-04 7.09045E-02-2.24912E-14-2.86557E-13
 -1      3879 2.03186E+01 6.74682E-03-2.97342E-04 8.02020E-02-2.16603E-14-2.83684E-13
 -1      3880 2.02974E+01-2.68002E-02 5.15296E-04 8.26496E-02-1.25678E-14-2.66990E-13
 -1      3881 2.02755E+01-5.24214E-02-1.42671E-05 8.57415E-02 6.32701E-15-2.74448E-13
 -1      3882 2.03294E+01-4.91973E-03-3.11328E-04 6.25298E-02-1.71902E-14-2.70231E-13
 -1      3883 2.02531E+01-7.05360E-02 3.95028E-04 8.48328E-02-5.27832E-15-2.88063E-13
 -1      3884 2.02325E+01-8.29248E-02 1.66796E-04 8.40219E-02-1.86400E-14-2.84792E-13
 -1      3885 2.02841E+01-6.07992E-02-4.57870E-04 6.62043E-02-1.45286E-14-2.15733E-13
 -1      3886 2.02107E+01-9.01028E-02 2.82609E-04 8.11957E-02-2.64149E-14-2.80943E-13
 -1      3887 2.01922E+01-9.31226E-02 2.78998E-04 7.82553E-02-2.99793E-14-2.63186E-13
 -1      3888 2.02392E+01-8.84789E-02-5.19880E-04 6.45865E-02-2.62177E-14-2.69215E-13
 -1      3889 2.01719E+01-9.26186E-02 1.81096E-04 7.46587E-02-3.14708E-14-2.68860E-13
 -1      3890 2.01557E+01-8.91068E-02 3.29877E-04 7.09269E-02-6.53741E-14-1.99086E-13
 -1      3891 2.01971E+01-9.61201E-02-5.19900E-04 6.00448E-02-1.32201E-14-1.96331E-13
 -1      3892 2.01373E+01-8.31797E-02 8.74456E-05 6.73276E-02-1.16128E-13-2.28452E-13
 -1      3893 2.01231E+01-7.49838E-02 3.40671E-04 6.37963E-02-1.10067E-13-1.92768E-13
 -1      3894 2.01589E+01-8.96094E-02-4.59700E-04 5.45671E-02-8.07133E-14-1.92836E-13
 -1      3895 2.01065E+01-6.50966E-02-4.92748E-06 6.08157E-02-1.16051E-13-1.80617E-13
 -1      3896 2.00942E+01-5.33454E-02 3.29817E-04 5.82155E-02-7.00299E-14-1.30641E-13
 -1      3897 2.01247E+01-7.29445E-02-3.73387E-04 4.93654E-02-9.77252E-14-2.63100E-13
 -1      3898 2.00788E+01-4.03430E-02-9.92395E-05 5.63201E-02-4.15819E-14-1.65667E-13
 -1      3899 2.00677E+01-2.56485E-02 3.05229E-04 5.52187E-02-3.39193E-14-1.17701E-13
 -1      3900 2.00938E+01-4.86188E-02-2.60593E-04 4.55321E-02-4.81333E-14-1.80859E-13
 -1      3901 2.00529E+01-9.85815E-03-2.02993E-04 5.47500E-02-7.96523E-15-1.19732E-13
 -1      3902 2.00422E+01 7.65485E-03 2.74150E-04 5.56486E-02-2.82658E-14-1.01200E-13
 -1      3903 2.00650E+01-1.79519E-02-1.34008E-04 4.38745E-02-4.13363E-14-1.58094E-13
 -1      3904 2.00270E+01 2.62577E-02-3.19655E-04 5.69782E-02-1.97771E-14-3.57921E-14
 -1      3905 2.00158E+01 4.67550E-02 2.38057E-04 6.03453E-02 9.03393E-14-1.78977E-14
 -1      3906 2.00366E+01 1.87801E-02 1.24628E-05 4.50412E-02 4.12082E-14-5.67144E-14
 -1      3907 1.99991E+01 6.84395E-02-4.55495E-04 6.38349E-02 9.86476E-14-2.42586E-14
 -1      3908 1.99865E+01 9.22903E-02 1.99444E-04 7.01452E-02 8.32590E-14 2.95724E-15
 -1      3909 2.00066E+01 6.18715E-02 1.83573E-04 4.97553E-02 6.33150E-14-1.66747E-14
 -1      3910 1.99669E+01 1.17482E-01-6.17716E-04 7.61906E-02 4.79585E-14-4.12329E-14
 -1      3911 1.99517E+01 1.45162E-01 1.59311E-04 8.59598E-02 2.96051E-14-5.46932E-14
 -1      3912 1.99724E+01 1.12054E-01 3.80579E-04 5.87043E-02 5.44766E-14-4.21905E-14
 -1      3913 1.99277E+01 1.74326E-01-8.11430E-04 9.50257E-02 7.90260E-15-7.34202E-15
 -1      3914 1.99085E+01 2.06294E-01 1.17883E-04 1.08829E-01 2.55206E-14 2.60394E-14
 -1      3915 1.99312E+01 1.70300E-01 6.09420E-04 7.26727E-02 1.79974E-14-1.10676E-13
 -1      3916 1.98781E+01 2.39803E-01-1.04210E-03 1.21466E-01-7.54051E-14-5.47285E-14
 -1      3917 1.98535E+01 2.76352E-01 7.58820E-05 1.39948E-01-1.19129E-13-1.45575E-13
 -1      3918 1.98798E+01 2.37548E-01 8.76676E-04 9.25748E-02-5.80432E-14-1.00630E-13
 -1      3919 1.98149E+01 3.14327E-01-1.31546E-03 1.56811E-01-3.41519E-14-1.92864E-13
 -1      3920 1.97832E+01 3.55404E-01 3.60495E-05 1.80696E-01 3.93668E-14-1.71964E-13
 -1      3921 1.98142E+01 3.14412E-01 1.18856E-03 1.19491E-01-1.05704E-13-1.55988E-13
 -1      3922 1.97340E+01 3.97503E-01-1.63824E-03 2.02577E-01 4.75623E-14-2.51379E-13
 -1      3923 1.96936E+01 4.42477E-01 5.46906E-06 2.32684E-01-2.81766E-14-1.72336E-13
 -1      3924 1.97305E+01 4.00811E-01 1.55041E-03 1.54717E-01 1.87235E-14-2.06053E-13
 -1      3925 1.96313E+01 4.87630E-01-2.02014E-03 2.60557E-01-8.41560E-14-8.84806E-14
 -1      3926 1.95804E+01 5.35007E-01-7.22790E-07 2.97846E-01-8.34497E-15-1.42089E-13
 -1      3927 1.96238E+01 4.95522E-01 1.96644E-03 1.99843E-01-3.29424E-14-3.03594E-13
 -1      3928 1.95024E+01 5.81084E-01-2.47765E-03 3.32966E-01 2.90626E-14-1.32222E-13
 -1      3929 1.94395E+01 6.28150E-01 4.66441E-05 3.78638E-01 1.56030E-14-8.25194E-14
 -1      3930 1.94893E+01 5.95629E-01 2.44004E-03 2.56906E-01-3.62950E-15-2.40758E-13
 -1      3931 1.93430E+01 6.71557E-01-3.04085E-03 4.22724E-01-8.97084E-14-1.41817E-13
 -1      3932 1.92672E+01 7.13964E-01 2.00424E-04 4.78438E-01-1.18819E-13-2.06613E-13
 -1      3933 1.93216E+01 6.95884E-01 2.97516E-03 3.28670E-01-5.72640E-14-2.56589E-13
 -1      3934 1.91491E+01 7.49165E-01-3.76444E-03 5.34008E-01-1.05901E-13-1.70429E-13
 -1      3935 1.90603E+01 7.80461E-01 5.53099E-04 6.02285E-01-5.14524E-15-2.88309E-13
 -1      3936 1.91153E+01 7.87987E-01 3.57902E-03 4.19146E-01-1.21717E-13-1.31426E-13
 -1      3937 1.89174E+01 7.99415E-01-4.74321E-03 6.73262E-01 5.94772E-14-3.53485E-13
 -1      3938 1.88175E+01 8.10496E-01 1.26597E-03 7.58173E-01 6.33966E-14-3.22768E-13
 -1      3939 1.88646E+01 8.59836E-01 4.26504E-03 5.34537E-01-3.05269E-15-2.35050E-13
 -1      3940 1.86460E+01 8.01955E-01-6.12517E-03 8.50974E-01 4.38557E-14-3.53519E-13
 -1      3941 1.85401E+01 7.80278E-01 2.59034E-03 9.59203E-01-7.33075E-14-3.07758E-13
 -1      3942 1.85634E+01 8.94699E-01 5.04568E-03 6.84916E-01 3.24162E-14-3.47043E-13
 -1      3943 1.83359E+01 7.28686E-01-8.09956E-03 1.08442E+00-9.85869E-14-2.30237E-13
 -1      3944 1.82346E+01 6.56935E-01 4.90190E-03 1.22656E+00-2.52420E-14-1.83621E-13
 -1      3945 1.82051E+01 8.69839E-01 5.85874E-03 8.87220E-01-2.78953E-14-3.07117E-13
 -1      3946 1.79942E+01 5.41226E-01-1.06944E-02 1.40020E+00-1.01187E-14-1.98371E-13
 -1      3947 1.79171E+01 3.97675E-01 9.00866E-03 1.59253E+00-9.64056E-15-1.52608E-13
 -1      3948 1.77832E+01 7.53331E-01 6.39053E-03 1.16857E+00-7.49346E-15-2.05384E-13
 -1      3949 2.02472E+01 4.17526E-02-5.78106E-04-1.18505E-01 7.91407E-14-2.26227E-13
 -1      3950 2.02685E+01 9.00643E-02 1.28309E-03-1.00607E-01 1.05614E-13-2.47425E-13
 -1      3951 2.02786E+01 3.37355E-02-4.75535E-04-1.06112E-01 8.37141E-14-2.67636E-13
 -1      3952 2.03726E+01 9.94844E-01 4.15458E-03 4.10605E-02 8.73168E-14-5.02595E-13
 -1      3953 2.03190E+01 1.19398E+00-2.62703E-03 3.22122E-02 8.54543E-14-5.14329E-13
 -1      3954 2.03184E+01 1.19205E+00-3.49285E-03-3.02025E-02 5.77754E-14-5.01223E-13
 -1      3955 1.98828E+01 2.53121E-01 1.51387E-04-1.52728E-01-5.82946E-14-2.31519E-13
 -1      3956 1.99032E+01 2.17888E-01-1.01477E-03-1.33350E-01-3.79844E-14-2.67786E-13
 -1      3957 1.99302E+01 1.85890E-01 2.03114E-04-1.19756E-01 3.38367E-15-2.28351E-13
 -1      3958 1.99457E+01 1.55530E-01-7.94982E-04-1.05309E-01 6.41036E-14-2.38008E-13
 -1      3959 1.99018E+01 2.17006E-01 7.97207E-04-1.07161E-01 8.14077E-15-2.92688E-13
 -1      3960 1.99670E+01 1.28053E-01 2.43371E-04-9.55264E-02 6.82109E-14-2.38464E-13
 -1      3961 1.99791E+01 1.02039E-01-6.10786E-04-8.54127E-02 6.29006E-14-2.44827E-13
 -1      3962 1.99473E+01 1.52732E-01 5.35361E-04-8.52873E-02 2.23229E-14-2.32475E-13
 -1      3963 1.98210E+01 3.30500E-01 8.25924E-05-1.95555E-01-2.43754E-14-2.78880E-13
 -1      3964 1.98480E+01 2.90072E-01-1.27542E-03-1.70640E-01 1.19964E-14-2.37082E-13
 -1      3965 1.98434E+01 2.91446E-01 1.11370E-03-1.36422E-01 1.25717E-14-3.59408E-13
 -1      3966 1.97402E+01 4.18098E-01-8.22285E-06-2.49340E-01-9.15623E-14-2.84246E-13
 -1      3967 1.97760E+01 3.72542E-01-1.58279E-03-2.18300E-01-1.37278E-13-3.08876E-13
 -1      3968 1.97675E+01 3.76665E-01 1.49707E-03-1.73913E-01-5.97617E-14-3.06728E-13
 -1      3969 1.96353E+01 5.14838E-01-1.22438E-04-3.15143E-01-6.27935E-15-2.15787E-13
 -1      3970 1.96822E+01 4.64859E-01-1.94514E-03-2.77429E-01 1.00348E-14-2.10164E-13
 -1      3971 1.96692E+01 4.72465E-01 1.96110E-03-2.20435E-01-8.23037E-14-2.94470E-13
 -1      3972 1.95005E+01 6.17893E-01-2.52516E-04-3.94023E-01-2.88243E-14-2.43676E-13
 -1      3973 1.95611E+01 5.65150E-01-2.37725E-03-3.49097E-01-5.17464E-14-2.28287E-13
 -1      3974 1.95424E+01 5.77364E-01 2.52202E-03-2.76738E-01-2.21733E-14-1.61270E-13
 -1      3975 1.93291E+01 7.21911E-01-3.72696E-04-4.87247E-01 2.80483E-14-2.70352E-13
 -1      3976 1.94063E+01 6.69415E-01-2.90828E-03-4.34459E-01-1.21488E-14-2.88674E-13
 -1      3977 1.93805E+01 6.88012E-01 3.20070E-03-3.43610E-01-1.41194E-14-2.96168E-13
 -1      3978 1.91141E+01 8.18053E-01-4.22859E-04-5.96854E-01-2.58731E-14-1.77552E-13
 -1      3979 1.92105E+01 7.70654E-01-3.59587E-03-5.35106E-01 2.96417E-14-2.94285E-13
 -1      3980 1.91754E+01 7.98510E-01 4.02758E-03-4.22174E-01 1.19877E-14-2.70960E-13
 -1      3981 1.88480E+01 8.92809E-01-2.77775E-04-7.26865E-01-4.17965E-15-1.36388E-13
 -1      3982 1.89657E+01 8.57780E-01-4.54853E-03-6.53914E-01-3.43745E-14-1.98612E-13
 -1      3983 1.89180E+01 8.99651E-01 5.05323E-03-5.14596E-01-3.70480E-14-1.30214E-13
 -1      3984 1.85233E+01 9.26525E-01 3.22729E-04-8.85599E-01-4.52499E-14-4.07834E-14
 -1      3985 1.86629E+01 9.14288E-01-5.95326E-03-7.96767E-01 2.41962E-14-1.60287E-13
 -1      3986 1.85970E+01 9.78131E-01 6.37068E-03-6.25560E-01-2.77511E-14-1.05475E-13
 -1      3987 1.81330E+01 8.91082E-01 1.80811E-03-1.08973E+00-4.47924E-14-6.26545E-14
 -1      3988 1.82920E+01 9.16451E-01-8.08287E-03-9.75805E-01-6.06563E-14-8.40363E-14
 -1      3989 1.81977E+01 1.01567E+00 8.15181E-03-7.65139E-01-4.30513E-14-5.42412E-14
 -1      3990 1.76721E+01 7.45420E-01 4.61330E-03-1.37024E+00-1.44563E-13-1.60595E-13
 -1      3991 1.78428E+01 8.30509E-01-1.11001E-02-1.21437E+00-9.59813E-14-6.34288E-14
 -1      3992 1.77008E+01 9.86990E-01 1.08103E-02-9.54228E-01-5.49685E-14-1.62849E-13
 -1      3993 1.71725E+01 4.34091E-01 1.40184E-02-1.77038E+00-9.43642E-14-2.56387E-13
 -1      3994 1.73072E+01 6.07994E-01-1.46873E-02-1.55187E+00-7.31218E-14-2.01564E-13
 -1      3995 1.70830E+01 8.53811E-01 1.49754E-02-1.23128E+00-6.00424E-14-1.90517E-13
 -1      3996 1.64999E+01 1.34897E-01 3.32313E-03-2.16282E+00-9.99279E-14-3.07769E-13
 -1      3997 2.03364E+01 9.84453E-01-1.49491E-03-1.59278E-01-4.88691E-14-4.42145E-13
 -1      3998 2.03766E+01 1.75460E-01 7.25561E-04 4.48610E-02-6.98339E-14-2.89879E-13
 -1      3999 2.03576E+01 1.05903E-01-6.99680E-04 6.32347E-02-3.26286E-14-2.87391E-13
 -1      4000 2.04015E+01 2.38904E-01 4.56765E-04 2.62945E-02-6.14094E-14-3.15215E-13
 -1      4001 2.00214E+01 3.61513E-02 3.06794E-04-6.90402E-02 9.12344E-16-1.89418E-13
 -1      4002 2.00303E+01 1.71161E-02-3.27112E-04-6.59237E-02-2.59117E-14-1.44874E-13
 -1      4003 2.00440E+01-5.88730E-05 3.33734E-04-6.48236E-02-7.51546E-14-1.09470E-13
 -1      4004 2.00529E+01-1.62530E-02-2.14575E-04-6.44283E-02-7.55894E-14-1.35454E-13
 -1      4005 2.00404E+01 1.00007E-02-2.33443E-05-5.56191E-02-3.12867E-14-2.51780E-13
 -1      4006 2.03297E+01 1.08725E+00-4.55052E-03-1.38934E-01-3.63574E-15-5.02104E-13
 -1      4007 2.03855E+01 7.82765E-01 3.77865E-03-9.27790E-02-3.36045E-14-4.30301E-13
 -1      4008 2.03946E+01 6.17595E-01-1.07570E-03-6.64018E-02-6.23474E-14-4.01149E-13
 -1      4009 2.03966E+01 4.76454E-01-1.01858E-03-2.11675E-02-5.87226E-14-3.60447E-13
 -1      4010 2.04143E+01 4.45818E-01 8.60422E-04-1.07100E-02-3.67604E-14-3.47633E-13
 -1      4011 2.03974E+01 7.20942E-01 9.57358E-04-5.59262E-02-1.91492E-15-4.33752E-13
 -1      4012 2.03291E+01 1.13038E+00-2.05807E-03-7.65666E-02 3.50733E-14-4.85927E-13
 -1      4013 1.99965E+01 7.85233E-02 2.76905E-04-7.89595E-02 1.01852E-14-2.29153E-13
 -1      4014 2.00065E+01 5.62661E-02-4.56757E-04-7.26112E-02 6.46420E-15-1.94921E-13
 -1      4015 2.00136E+01 5.03598E-02 1.33357E-04-6.03209E-02 1.23739E-14-2.83950E-13
 -1      4016 2.02834E+01 1.48925E-01-1.12340E-03-8.04822E-02 1.51384E-13-2.58583E-13
 -1      4017 2.03052E+01 2.23636E-01 1.55298E-03-4.65590E-02 1.73769E-13-2.59962E-13
 -1      4018 2.03462E+01 3.06882E-01 1.35879E-04-1.59156E-02 1.30264E-13-2.97977E-13
 -1      4019 2.03166E+01 1.41573E-01-3.00862E-04-7.43692E-02 1.27314E-13-2.62481E-13
 -1      4020 2.01425E+01-7.82218E-02 2.65022E-04-1.28143E-01 3.68568E-14-2.29250E-13
 -1      4021 2.01560E+01-7.18587E-02 4.01589E-04-1.32436E-01 2.71569E-14-2.78785E-13
 -1      4022 2.01994E+01-6.91155E-02-5.81262E-04-1.19479E-01 5.68325E-14-3.09668E-13
 -1      4023 2.01637E+01-8.45224E-02-5.51177E-04-1.12829E-01 2.56670E-14-2.61128E-13
 -1      4024 1.60503E+01 5.04384E-01 1.78852E-02-1.73926E+00-1.65987E-14-2.69136E-13
 -1      4025 2.01470E+01-8.75060E-02 3.49478E-04-8.59503E-02 1.14035E-14-1.52886E-13
 -1      4026 2.01619E+01-9.00309E-02 2.05912E-04-9.04685E-02 2.99451E-14-1.99029E-13
 -1      4027 2.03799E+01 9.48580E-01 4.04943E-03-3.90444E-02 5.08096E-14-4.67732E-13
 -1      4028 2.03019E+01 1.79168E-02-3.62291E-04-9.42801E-02 5.44556E-14-3.06923E-13
 -1      4029 2.03233E+01 6.36371E-02 7.90905E-04-8.25632E-02 8.12128E-14-3.14247E-13
 -1      4030 1.76335E+01 1.87807E-01-1.50498E-02 1.84168E+00-1.94953E-14 1.77870E-14
 -1      4031 1.76206E+01-6.47941E-02 1.35345E-02 2.11791E+00 1.49605E-13-4.92865E-14
 -1      4032 2.03904E+01 8.11126E-01-1.66953E-03 4.59928E-02 9.48772E-14-4.92604E-13
 -1      4033 2.03904E+01 8.23851E-01-2.25286E-03 1.30064E-02 7.33419E-14-5.03412E-13
 -1      4034 2.00903E+01-5.61143E-02 3.59291E-04-6.98114E-02-3.23466E-14-4.62746E-14
 -1      4035 2.01011E+01-6.67490E-02-1.53814E-05-7.32117E-02 1.90876E-14-5.88431E-14
 -1      4036 2.00927E+01-5.27319E-02-3.39677E-04-5.79995E-02-2.81524E-14-8.41006E-14
 -1      4037 1.99834E+01 9.75777E-02 3.17240E-04-6.99491E-02 5.71684E-14-3.20496E-13
 -1      4038 1.71345E+01-3.50426E-01-2.15190E-02 2.44706E+00 1.51286E-13-1.36745E-13
 -1      4039 1.66852E+01-9.58112E-01 1.59138E-02 3.07172E+00 9.88662E-14-2.30921E-13
 -1      4040 2.01294E+01-8.26929E-02 5.70563E-05-8.15874E-02-9.67595E-15-1.32402E-13
 -1      4041 2.01543E+01-8.92326E-02-4.79348E-04-7.01738E-02-1.87348E-14-1.01588E-13
 -1      4042 2.01169E+01-7.55454E-02 4.00838E-04-7.71728E-02-1.32736E-14-8.78771E-14
 -1      4043 1.56495E+01 8.31718E-01 4.06421E-03 7.69366E-01 1.00425E-13-4.16125E-13
 -1      4044 1.49549E+01 8.97824E-01 2.73381E-02 4.50982E-01-8.06278E-15-5.07668E-13
 -1      4045 1.53581E+01 9.15225E-01-1.68504E-02-2.41744E-01-1.27255E-14-2.70012E-13
 -1      4046 1.58440E+01 7.68011E-01-1.78517E-02-1.09683E+00 3.34719E-14-1.97934E-13
 -1      4047 1.66043E+01 1.12614E-01 1.59056E-02 2.11936E+00 9.45406E-14 1.22527E-13
 -1      4048 1.62570E+01 4.26461E-01-2.35469E-02 1.64584E+00 1.32347E-13-5.31684E-14
 -1      4049 2.00662E+01-2.42332E-02-1.55184E-04-5.50885E-02-5.08881E-14-1.06822E-13
 -1      4050 2.03767E+01 8.16758E-01-1.54513E-03 9.72975E-02 1.14229E-13-4.60380E-13
 -1      4051 2.03833E+01 8.17589E-01-2.06215E-03 6.72810E-02 9.50115E-14-4.72775E-13
 -1      4052 2.04138E+01 6.79995E-01 3.19841E-03 3.47066E-02 9.07170E-14-4.68674E-13
 -1      4053 1.72945E+01 5.07553E-01 8.82313E-03 1.57146E+00 6.44684E-14-4.87386E-14
 -1      4054 2.02604E+01-4.42682E-02-9.85080E-05-1.02891E-01 6.03595E-14-2.77577E-13
 -1      4055 2.02813E+01-1.69704E-02 5.94438E-04-9.86400E-02 4.49810E-14-3.00261E-13
 -1      4056 2.03182E+01 7.12292E-03-4.36544E-04-7.79118E-02 4.62828E-14-3.02244E-13
 -1      4057 2.03707E+01 9.02680E-02-2.27223E-05 5.04550E-02-3.13893E-14-3.13985E-13
 -1      4058 2.03557E+01 8.29852E-01-3.84435E-04 1.45271E-01 1.67842E-13-4.39359E-13
 -1      4059 2.03741E+01 6.16056E-01-3.71587E-04 9.04130E-02 1.50786E-13-3.64958E-13
 -1      4060 2.03767E+01 7.47208E-01 5.83123E-04 9.76431E-02 1.20962E-13-4.04128E-13
 -1      4061 2.03982E+01 6.11145E-01 1.50298E-04 5.00513E-02 1.04747E-13-4.16463E-13
 -1      4062 2.03727E+01 4.73643E-01-1.22512E-03 3.42480E-02 1.17083E-13-3.51760E-13
 -1      4063 2.03957E+01 8.09765E-01-2.63929E-04-9.08256E-03 7.56240E-14-4.49977E-13
 -1      4064 2.03979E+01 7.47674E-01-2.49115E-03-4.12115E-02 2.93488E-14-4.35887E-13
 -1      4065 2.04184E+01 6.01345E-01 1.17963E-03-2.07496E-02 4.17972E-15-3.88174E-13
 -1      4066 2.04246E+01 6.53791E-01 3.28982E-03 3.25758E-03 6.06776E-14-4.67140E-13
 -1      4067 2.03955E+01 1.23519E-01 3.22207E-04 2.98410E-02-3.21807E-14-3.01603E-13
 -1      4068 2.03760E+01 6.25507E-02-3.43677E-04 3.93239E-02-1.62469E-14-2.92053E-13
 -1      4069 2.03106E+01-5.09609E-02 3.16210E-04 4.51812E-02 1.59414E-14-1.93574E-13
 -1      4070 2.02874E+01-7.15248E-02 1.19959E-04 4.65073E-02 6.84192E-15-1.83697E-13
 -1      4071 2.02638E+01-8.53552E-02 2.83704E-04 4.51319E-02-2.75684E-14-1.44168E-13
 -1      4072 2.02417E+01-9.38186E-02 2.48811E-04 4.44803E-02-1.01803E-14-1.63623E-13
 -1      4073 2.02842E+01-7.85997E-02-5.15243E-04 2.55826E-02 7.62716E-15-1.41567E-13
 -1      4074 2.02189E+01-9.74893E-02 2.30051E-04 4.26582E-02 6.37785E-15-1.73223E-13
 -1      4075 2.01990E+01-9.72908E-02 3.99805E-04 4.11861E-02-1.09132E-14-1.65623E-13
 -1      4076 2.02373E+01-9.71433E-02-6.84085E-04 2.42297E-02-1.24106E-14-1.05557E-13
 -1      4077 2.01779E+01-9.41008E-02 1.94145E-04 3.87695E-02-6.90823E-14-1.57709E-13
 -1      4078 2.01596E+01-8.78343E-02 2.97711E-04 3.69511E-02-1.24128E-13-1.89479E-13
 -1      4079 2.01950E+01-9.81368E-02-6.67057E-04 2.21382E-02-3.35527E-14-2.06987E-13
 -1      4080 2.01407E+01-7.93338E-02 1.40331E-04 3.51856E-02-1.20782E-13-2.03002E-13
 -1      4081 2.01243E+01-6.87107E-02 2.62065E-04 3.35793E-02-6.10414E-14-1.78485E-13
 -1      4082 2.01550E+01-8.55427E-02-5.77955E-04 2.04162E-02-1.06517E-13-1.51680E-13
 -1      4083 2.01069E+01-5.63675E-02 4.15797E-05 3.23272E-02-2.34193E-14-2.07306E-13
 -1      4084 2.00923E+01-4.22193E-02 2.91960E-04 3.14632E-02-2.90906E-14-1.78338E-13
 -1      4085 2.01193E+01-6.39152E-02-4.20014E-04 1.86723E-02-3.70686E-14-2.08491E-13
 -1      4086 2.00757E+01-2.67581E-02-6.12891E-05 3.05458E-02-5.19226E-14-9.51917E-14
 -1      4087 2.00617E+01-9.43175E-03 2.22787E-04 3.07377E-02-5.92907E-15-5.46549E-14
 -1      4088 2.00869E+01-3.52595E-02-2.82988E-04 1.73926E-02-1.51621E-14-1.07456E-13
 -1      4089 2.00451E+01 9.12436E-03-1.67508E-04 3.07422E-02 5.75084E-14-7.66237E-14
 -1      4090 2.00309E+01 2.95966E-02 1.59649E-04 3.22885E-02 9.62547E-14-2.36069E-14
 -1      4091 2.00549E+01 4.74496E-04-8.04710E-05 1.74894E-02 3.34383E-14-1.63055E-14
 -1      4092 2.00132E+01 5.13263E-02-3.09935E-04 3.32823E-02 4.74860E-14-5.48074E-14
 -1      4093 1.99976E+01 7.52488E-02 8.82687E-05 3.64803E-02 5.67586E-14-4.61153E-14
 -1      4094 2.00225E+01 4.28065E-02 2.40394E-04 1.88770E-02 2.85143E-14-1.85768E-13
 -1      4095 1.99774E+01 1.00555E-01-4.78495E-04 3.86583E-02 2.08715E-14-6.07897E-14
 -1      4096 1.99592E+01 1.28411E-01 9.46090E-06 4.38305E-02 4.86286E-15-1.90081E-13
 -1      4097 1.99867E+01 9.23184E-02 6.20149E-04 2.18640E-02 6.23919E-15-2.72499E-13
 -1      4098 1.99348E+01 1.57796E-01-6.79575E-04 4.74409E-02 3.34011E-14-1.85748E-13
 -1      4099 1.99124E+01 1.90128E-01-7.85022E-05 5.49488E-02 2.34255E-14-1.92142E-13
 -1      4100 1.99447E+01 1.49981E-01 1.06814E-03 2.68297E-02-2.03837E-14-3.01183E-13
 -1      4101 1.98820E+01 2.24081E-01-9.20621E-04 6.03062E-02-4.68372E-14-2.43605E-13
 -1      4102 1.98536E+01 2.61359E-01-1.77376E-04 7.05640E-02-1.14789E-13-2.95278E-13
 -1      4103 1.98929E+01 2.16895E-01 1.60151E-03 3.42249E-02-3.59359E-14-3.80363E-13
 -1      4104 1.98150E+01 3.00219E-01-1.21028E-03 7.80743E-02-1.19054E-13-2.29024E-13
 -1      4105 1.97787E+01 3.42684E-01-2.88004E-04 9.15667E-02-8.38730E-14-2.34885E-13
 -1      4106 1.98276E+01 2.94031E-01 2.24068E-03 4.46180E-02-9.13478E-14-3.78707E-13
 -1      4107 1.97294E+01 3.86457E-01-1.55944E-03 1.01759E-01-9.43356E-14-2.20495E-13
 -1      4108 1.96829E+01 4.33926E-01-4.09134E-04 1.19069E-01-4.89272E-14-3.18435E-13
 -1      4109 1.97441E+01 3.81910E-01 3.00943E-03 5.87482E-02-1.20900E-13-2.57595E-13
 -1      4110 1.96201E+01 4.82069E-01-1.98337E-03 1.32641E-01 1.71234E-14-4.15908E-13
 -1      4111 1.95612E+01 5.33702E-01-5.35807E-04 1.54498E-01-6.45981E-15-3.26347E-13
 -1      4112 1.96374E+01 4.80235E-01 3.93716E-03 7.76005E-02-1.08272E-13-3.76040E-13
 -1      4113 1.94816E+01 5.84857E-01-2.50618E-03 1.72392E-01-2.17972E-14-3.10417E-13
 -1      4114 1.94078E+01 6.38892E-01-6.57118E-04 1.99768E-01-1.73343E-14-3.41123E-13
 -1      4115 1.95016E+01 5.87447E-01 5.06438E-03 1.02521E-01-3.47788E-14-3.12997E-13
 -1      4116 1.93078E+01 6.90583E-01-3.16902E-03 2.23288E-01-2.49900E-14-2.86625E-13
 -1      4117 1.92163E+01 7.44040E-01-7.53211E-04 2.57568E-01-1.02860E-14-2.07995E-13
 -1      4118 1.93302E+01 7.00252E-01 6.45405E-03 1.35403E-01 1.12004E-14-3.36774E-13
 -1      4119 1.90916E+01 7.92347E-01-4.04533E-03 2.88586E-01-5.49307E-14-1.84517E-13
 -1      4120 1.89799E+01 8.40753E-01-7.91801E-04 3.31887E-01-8.32301E-14-1.53976E-13
 -1      4121 1.91158E+01 8.13135E-01 8.21264E-03 1.78989E-01 1.09667E-14-2.58743E-13
 -1      4122 1.88249E+01 8.79983E-01-5.26838E-03 3.73183E-01-1.16262E-13-1.07432E-13
 -1      4123 1.86905E+01 9.17138E-01-7.26495E-04 4.28912E-01-1.40771E-14-1.68955E-13
 -1      4124 1.88494E+01 9.17980E-01 1.05248E-02 2.37375E-01-6.63717E-14-2.61312E-13
 -1      4125 1.84975E+01 9.39532E-01-7.08170E-03 4.84747E-01 8.60943E-15-2.00950E-13
 -1      4126 1.83378E+01 9.57345E-01-5.04802E-04 5.58605E-01-9.67531E-15-2.12907E-13
 -1      4127 1.85198E+01 1.00387E+00 1.36980E-02 3.16813E-01-1.16919E-14-1.09529E-13
 -1      4128 1.80953E+01 9.53000E-01-9.89462E-03 6.35779E-01-4.16199E-14-1.86933E-13
 -1      4129 1.79082E+01 9.41368E-01 1.85848E-04 7.37470E-01-2.97641E-14-1.79878E-13
 -1      4130 1.81108E+01 1.05711E+00 1.81674E-02 4.26961E-01-3.69167E-14-2.12654E-13
 -1      4131 1.75972E+01 8.96369E-01-1.45711E-02 8.49000E-01-5.51360E-15-1.35808E-13
 -1      4132 1.73823E+01 8.40323E-01 1.57608E-03 9.94304E-01-3.84384E-14-1.34412E-13
 -1      4133 1.75949E+01 1.06186E+00 2.39634E-02 5.83370E-01-2.50583E-14-1.87403E-13
 -1      4134 1.97182E+01 4.10368E-01-5.94674E-04-1.42062E-01-7.96316E-14-1.90663E-13
 -1      4135 1.97615E+01 3.63721E-01-1.32085E-03-1.23577E-01-2.02277E-14-1.88357E-13
 -1      4136 1.98068E+01 3.20357E-01-3.88850E-04-1.12067E-01-5.26997E-15-2.07556E-13
 -1      4137 1.98400E+01 2.79243E-01-1.03352E-03-9.72048E-02-5.18927E-15-2.09133E-13
 -1      4138 1.97703E+01 3.59663E-01 2.55595E-03-8.12589E-02-2.20990E-14-1.13659E-13
 -1      4139 1.99287E+01 1.72835E-01-8.83338E-05-7.00837E-02-2.04899E-14-1.56691E-13
 -1      4140 1.99487E+01 1.42081E-01-5.91643E-04-6.16009E-02-9.07738E-15-1.63366E-13
 -1      4141 1.96039E+01 5.10849E-01-8.50633E-04-1.78647E-01-6.05520E-14-1.51260E-13
 -1      4142 1.96600E+01 4.59054E-01-1.66480E-03-1.56331E-01-9.05191E-14-1.96374E-13
 -1      4143 1.96703E+01 4.56647E-01 3.38825E-03-1.01885E-01-8.48341E-14-3.75717E-14
 -1      4144 1.94575E+01 6.19889E-01-1.16684E-03-2.22130E-01-4.98726E-14-1.15412E-13
 -1      4145 1.95296E+01 5.64095E-01-2.08115E-03-1.95839E-01-8.27076E-14-1.12438E-13
 -1      4146 1.95418E+01 5.64103E-01 4.39815E-03-1.26384E-01-9.78491E-14 1.88833E-14
 -1      4147 1.92712E+01 7.33615E-01-1.55263E-03-2.72793E-01 5.76542E-14-1.95090E-13
 -1      4148 1.93631E+01 6.76014E-01-2.59872E-03-2.42380E-01 2.56762E-14-1.18550E-13
 -1      4149 1.93779E+01 6.79696E-01 5.63641E-03-1.54582E-01-1.77539E-14-8.50930E-14
 -1      4150 1.90362E+01 8.45586E-01-2.01659E-03-3.31161E-01-3.55076E-16-2.07082E-13
 -1      4151 1.91521E+01 7.89710E-01-3.27293E-03-2.96284E-01 7.16512E-14-1.66228E-13
 -1      4152 1.91704E+01 7.99118E-01 7.18457E-03-1.86174E-01 4.47874E-14-1.44595E-13
 -1      4153 1.87413E+01 9.46213E-01-2.56957E-03-3.98650E-01 1.34312E-14-2.08836E-13
 -1      4154 1.88863E+01 8.97197E-01-4.21034E-03-3.58328E-01 3.41868E-14-1.22574E-13
 -1      4155 1.89090E+01 9.15678E-01 9.18195E-03-2.20931E-01 2.41035E-14-2.81676E-13
 -1      4156 1.83720E+01 1.02230E+00-3.23504E-03-4.78868E-01-1.23487E-13-9.82579E-14
 -1      4157 1.85526E+01 9.87058E-01-5.61159E-03-4.30593E-01-1.00810E-13-1.82530E-13
 -1      4158 1.85809E+01 1.02006E+00 1.18699E-02-2.59153E-01-4.69255E-14-2.06842E-13
 -1      4159 1.79075E+01 1.05671E+00-4.07968E-03-5.80114E-01-2.63636E-14-6.65663E-14
 -1      4160 1.81323E+01 1.04410E+00-7.84541E-03-5.18110E-01 2.02678E-14-1.43870E-14
 -1      4161 1.81678E+01 1.10045E+00 1.56501E-02-3.02516E-01-1.15175E-13-1.36920E-13
 -1      4162 1.73228E+01 1.03122E+00-2.88010E-03-7.19012E-01-1.16769E-14-1.71426E-13
 -1      4163 1.75966E+01 1.04959E+00-1.15612E-02-6.32120E-01-4.12310E-14-1.73782E-13
 -1      4164 1.76416E+01 1.14302E+00 2.10117E-02-3.55289E-01 1.33325E-14-1.39545E-13
 -1      4165 1.65164E+01 8.99374E-01 1.67832E-03-9.53738E-01 6.41817E-14-1.88361E-13
 -1      4166 1.68455E+01 9.67015E-01-1.80111E-02-8.17388E-01-1.37477E-14-1.63825E-13
 -1      4167 1.68824E+01 1.12231E+00 2.25798E-02-4.37205E-01 2.56261E-14-2.40255E-13
 -1      4168 1.58037E+01 9.60118E-01 2.29886E-02-6.22578E-01 3.52950E-14-2.11436E-13
 -1      4169 2.01903E+01-9.37128E-02-7.70293E-04-7.75317E-02 4.20711E-15-1.85534E-13
 -1      4170 2.01811E+01-8.93472E-02 2.63105E-04-9.46678E-02 1.55127E-14-1.99593E-13
 -1      4171 2.01989E+01-8.51650E-02 4.76353E-04-9.78279E-02 2.38257E-14-2.03112E-13
 -1      4172 2.00364E+01 2.02808E-02 1.98855E-04-4.37922E-02-1.09526E-14-2.81293E-13
 -1      4173 2.00493E+01 9.89484E-04-1.53923E-04-4.23524E-02-2.44834E-14-2.40919E-13
 -1      4174 2.04210E+01 2.90301E-01 3.49198E-04 9.51116E-03-3.95739E-14-3.46170E-13
 -1      4175 2.04083E+01 1.98005E-01-7.90058E-04 2.53954E-02-4.14127E-14-3.34836E-13
 -1      4176 2.04118E+01 1.72305E-01 4.26336E-04 1.48085E-02-2.09963E-14-3.54829E-13
 -1      4177 2.00651E+01-1.65245E-02 2.61587E-04-4.25139E-02-3.34931E-14-1.67730E-13
 -1      4178 2.00781E+01-3.27029E-02 2.83370E-06-4.27627E-02-2.65906E-14-1.33051E-13
 -1      4179 2.00599E+01-7.62248E-03-2.22062E-04-3.02616E-02 1.39418E-14-2.42425E-13
 -1      4180 1.98753E+01 2.41321E-01-2.23128E-04-8.82453E-02 5.09616E-14-2.04484E-13
 -1      4181 1.99009E+01 2.05607E-01-7.92960E-04-7.67323E-02 4.08296E-14-1.35719E-13
 -1      4182 1.99085E+01 1.99424E-01 1.29194E-03-5.14590E-02-5.33731E-15-1.14656E-13
 -1      4183 1.98480E+01 2.73990E-01 1.86620E-03-6.45029E-02 1.69684E-14-1.28148E-13
 -1      4184 1.67736E+01 6.31979E-01 9.40733E-03 1.38051E+00 1.99252E-13-1.82134E-14
 -1      4185 1.61486E+01 7.68626E-01 2.43887E-02 1.17271E+00 1.66832E-13-2.50365E-13
 -1      4186 1.60918E+01 9.18280E-01-2.04197E-02 5.83353E-01 8.67388E-14-2.41294E-13
 -1      4187 1.70057E+01 7.45237E-01-1.98940E-02 1.15850E+00 5.15967E-14-1.29763E-13
 -1      4188 2.03588E+01 1.06615E-01-1.07533E-04-6.07668E-02 9.68424E-14-3.11311E-13
 -1      4189 2.03397E+01 1.20527E-01-7.46861E-04-7.15369E-02 1.24907E-13-3.28291E-13
 -1      4190 2.03587E+01 1.92030E-01 8.03035E-04-4.87135E-02 1.39686E-13-3.19732E-13
 -1      4191 2.00059E+01 6.34714E-02 1.17777E-04-4.84408E-02 8.66554E-15-2.78297E-13
 -1      4192 2.00198E+01 4.08761E-02-2.79309E-04-4.49946E-02-8.81354E-15-2.94791E-13
 -1      4193 2.00289E+01 3.26497E-02 5.67246E-05-3.16442E-02-3.16993E-14-3.34118E-13
 -1      4194 2.03562E+01 1.46673E-02 3.17592E-04 4.08005E-02-1.06360E-14-2.57156E-13
 -1      4195 2.03335E+01-2.28385E-02-6.50697E-05 4.54443E-02 1.70146E-14-2.29974E-13
 -1      4196 2.03762E+01 4.45691E-02-6.95954E-05 2.20533E-02 2.08685E-15-2.85079E-13
 -1      4197 1.99710E+01 1.13944E-01 2.32974E-05-5.70114E-02 2.85670E-14-2.52967E-13
 -1      4198 1.99873E+01 8.75648E-02-4.22728E-04-5.12190E-02 6.42028E-14-2.22153E-13
 -1      4199 1.99563E+01 1.35117E-01 8.10649E-04-4.18607E-02-2.77578E-14-1.75297E-13
 -1      4200 2.03316E+01-3.46514E-02-3.67470E-04 2.51645E-02 4.10316E-14-2.36082E-13
 -1      4201 2.02196E+01-7.69622E-02 2.18159E-04-1.01477E-01 4.03288E-14-2.34604E-13
 -1      4202 2.02394E+01-6.32940E-02 6.52514E-04-1.01825E-01 6.36360E-14-2.40409E-13
 -1      4203 2.02751E+01-5.34822E-02-9.50195E-04-8.44034E-02 4.63677E-14-2.52510E-13
 -1      4204 2.02316E+01-8.44780E-02-1.07417E-03-8.35285E-02 2.11794E-14-1.84683E-13
 -1      4205 2.03300E+01-1.01752E-02 1.08341E-04-6.15574E-02 4.49777E-14-3.22566E-13
 -1      4206 2.03510E+01 2.91504E-02 3.99047E-04-5.59444E-02 5.57026E-14-3.03075E-13
 -1      4207 1.69456E+01 9.74447E-01 1.99135E-02 8.12595E-01 9.09038E-15-9.39882E-14
 -1      4208 1.99954E+01 7.99166E-02 4.03354E-04-3.53776E-02 1.28255E-14-1.72973E-13
 -1      4209 2.01220E+01-7.49905E-02-4.22718E-04-6.34173E-02-4.39340E-14-1.20350E-13
 -1      4210 2.01598E+01-8.86782E-02 5.09870E-04-5.24793E-02-5.96563E-14-1.68315E-13
 -1      4211 2.01770E+01-9.39032E-02 3.22277E-04-5.52453E-02-2.95900E-14-2.07658E-13
 -1      4212 2.01975E+01-9.63198E-02 2.81165E-04-5.82891E-02-5.00311E-15-2.20883E-13
 -1      4213 2.02180E+01-9.55012E-02 3.71415E-04-6.09241E-02-3.30729E-16-2.50544E-13
 -1      4214 2.01973E+01-9.85225E-02-5.58186E-04-4.01455E-02-3.00985E-14-3.05878E-13
 -1      4215 1.60183E+01 1.04738E+00-2.59612E-03-1.64242E-01 5.64735E-14-2.85870E-13
 -1      4216 2.03699E+01 8.04994E-02-3.26062E-04-5.20192E-02 4.37088E-14-3.00318E-13
 -1      4217 2.03883E+01 1.44758E-01 2.38975E-04-3.93491E-02 7.63939E-14-3.43235E-13
 -1      4218 2.03760E+01 6.26804E-02 7.17771E-05-3.68015E-02 3.91715E-14-3.31750E-13
 -1      4219 2.00906E+01-4.12378E-02-1.93524E-04-3.07905E-02-1.40010E-14-1.86203E-13
 -1      4220 2.00940E+01-4.73919E-02 2.44460E-04-4.39779E-02-2.51396E-14-1.35492E-13
 -1      4221 2.01079E+01-6.05164E-02 5.58983E-05-4.56881E-02-3.53913E-14-1.66802E-13
 -1      4222 2.04255E+01 5.31247E-01-6.77472E-04 6.78274E-03 4.17734E-14-4.87100E-13
 -1      4223 2.04275E+01 5.14074E-01-1.03442E-03-3.22284E-03 3.02242E-14-4.44507E-13
 -1      4224 2.03641E+01 2.65721E-01-1.01131E-03-3.19320E-02 1.02964E-13-3.17881E-13
 -1      4225 2.03767E+01 3.68716E-01 4.23230E-04 5.55036E-03 1.03950E-13-3.42636E-13
 -1      4226 2.03931E+01 4.36098E-01 8.24613E-04 1.69372E-02 1.00681E-13-3.39968E-13
 -1      4227 2.03853E+01 2.48563E-01 3.23794E-04-3.06733E-02 1.13648E-13-3.49610E-13
 -1      4228 2.04141E+01 5.53039E-01 1.55062E-04 2.62905E-02 8.18070E-14-4.58465E-13
 -1      4229 2.04200E+01 5.40008E-01-1.63161E-03 1.33640E-02 7.24277E-14-4.75784E-13
 -1      4230 2.04331E+01 4.21153E-01 1.76537E-03 3.37019E-03 3.97862E-14-4.40935E-13
 -1      4231 2.03475E+01-2.06663E-02 2.36258E-04 3.93808E-03 6.40856E-14-2.46189E-13
 -1      4232 2.03245E+01-5.02204E-02 3.24679E-04 6.11925E-03 7.07431E-14-2.20938E-13
 -1      4233 2.02530E+01-9.53354E-02 2.35128E-04 4.29731E-03-5.59186E-14-1.33001E-13
 -1      4234 2.02310E+01-9.93918E-02 4.09630E-04 4.35888E-03-5.62549E-14-1.79854E-13
 -1      4235 2.02008E+01-9.78857E-02 3.62843E-04-8.15622E-03-3.32394E-14-2.03362E-13
 -1      4236 2.01800E+01-9.38638E-02 3.10649E-04-7.81510E-03-4.80313E-14-2.39143E-13
 -1      4237 2.01309E+01-7.02086E-02 2.64580E-04 3.86451E-03-7.09726E-14-1.56780E-13
 -1      4238 2.01137E+01-5.77429E-02 2.54699E-04 3.33838E-03-2.90997E-14-1.40122E-13
 -1      4239 2.00909E+01-3.82524E-02 1.47364E-04-6.44738E-03-3.60512E-15-1.83127E-13
 -1      4240 2.00747E+01-2.17994E-02 1.57091E-04-6.19647E-03 1.96919E-15-1.51886E-13
 -1      4241 2.00590E+01-3.72270E-03 7.98637E-05-6.55310E-03-1.99522E-14-1.73340E-13
 -1      4242 2.00424E+01 1.58583E-02 2.17140E-05-6.13098E-03 2.50016E-15-1.90986E-13
 -1      4243 2.00258E+01 3.70830E-02-1.37995E-04-7.22280E-03 1.62739E-14-2.10731E-13
 -1      4244 2.00081E+01 6.01456E-02-1.69903E-04-6.43078E-03 6.78950E-15-2.56792E-13
 -1      4245 1.99893E+01 8.48547E-02-4.12759E-04-8.42641E-03-4.29293E-14-2.12609E-13
 -1      4246 1.99692E+01 1.11873E-01-3.97430E-04-7.13198E-03-3.79569E-14-2.63975E-13
 -1      4247 1.99467E+01 1.40569E-01-7.39306E-04-1.01640E-02-1.42764E-14-2.43876E-13
 -1      4248 1.99224E+01 1.72120E-01-6.66086E-04-8.23501E-03-3.56761E-14-2.32596E-13
 -1      4249 1.98944E+01 2.05359E-01-1.12745E-03-1.24066E-02-6.31536E-14-2.12968E-13
 -1      4250 1.98640E+01 2.42016E-01-9.86803E-04-9.68008E-03-3.28946E-14-2.30826E-13
 -1      4251 1.98283E+01 2.80277E-01-1.59172E-03-1.50547E-02 9.93766E-16-2.10161E-13
 -1      4252 1.97898E+01 3.22472E-01-1.37280E-03-1.13147E-02-1.65695E-14-1.65499E-13
 -1      4253 1.97438E+01 3.66001E-01-2.15031E-03-1.78945E-02-9.61492E-14-1.60368E-13
 -1      4254 1.96946E+01 4.13854E-01-1.83973E-03-1.28441E-02-1.22146E-13-1.84491E-13
 -1      4255 1.96355E+01 4.62478E-01-2.82659E-03-2.05415E-02-1.53597E-13-1.71525E-13
 -1      4256 1.95728E+01 5.15595E-01-2.40765E-03-1.37610E-02-1.16372E-13-1.78546E-13
 -1      4257 1.94972E+01 5.68496E-01-3.65349E-03-2.23703E-02-7.09195E-14-1.68088E-13
 -1      4258 1.94178E+01 6.25738E-01-3.10559E-03-1.32541E-02 1.03021E-14-1.81034E-13
 -1      4259 1.93217E+01 6.81199E-01-4.68227E-03-2.24363E-02 7.98903E-15-2.36835E-13
 -1      4260 1.92218E+01 7.40439E-01-3.98060E-03-1.00947E-02 2.98738E-14-2.13104E-13
 -1      4261 1.91003E+01 7.95580E-01-5.99929E-03-1.93962E-02 5.02648E-14-2.30410E-13
 -1      4262 1.89755E+01 8.53488E-01-5.11449E-03-2.50257E-03 1.93094E-14-2.97734E-13
 -1      4263 1.88225E+01 9.04025E-01-7.75513E-03-1.14401E-02 1.28515E-14-3.29985E-13
 -1      4264 1.86672E+01 9.55929E-01-6.65128E-03 1.20038E-02 5.48910E-14-2.56648E-13
 -1      4265 1.84743E+01 9.96025E-01-1.02076E-02 3.76153E-03-4.94550E-14-2.19059E-13
 -1      4266 1.82808E+01 1.03593E+00-8.82668E-03 3.67699E-02-7.24136E-14-3.18254E-13
 -1      4267 1.80358E+01 1.05822E+00-1.37373E-02 2.91573E-02-7.85883E-14-3.00490E-13
 -1      4268 1.77929E+01 1.07910E+00-1.18663E-02 7.61169E-02-6.00980E-14-3.37903E-13
 -1      4269 1.74777E+01 1.07467E+00-1.86974E-02 6.85236E-02 1.64055E-14-3.23391E-13
 -1      4270 1.71744E+01 1.07231E+00-1.38307E-02 1.36532E-01 1.47701E-14-2.83415E-13
 -1      4271 2.01454E+01-8.32560E-02 5.90715E-05-4.49170E-02-5.74669E-14-1.90749E-13
 -1      4272 2.01632E+01-9.01415E-02-7.30118E-04-3.11413E-02-4.81733E-14-2.50712E-13
 -1      4273 2.01653E+01-8.81224E-02 4.37154E-04-1.43488E-03-6.96572E-14-2.11129E-13
 -1      4274 2.01298E+01-7.37654E-02 2.91974E-04-4.27225E-02-7.45285E-14-1.98804E-13
 -1      4275 1.66995E+01 1.04439E+00-1.59680E-02 1.34223E-01 1.46402E-14-2.85427E-13
 -1      4276 2.04214E+01 4.01583E-01-8.78505E-04 6.55577E-04-1.88628E-14-3.46521E-13
 -1      4277 2.04293E+01 3.62458E-01 6.16942E-04 2.33133E-03-2.22050E-14-3.51305E-13
 -1      4278 2.04227E+01 2.08135E-01 2.93104E-04 6.24909E-05-7.21091E-15-3.54971E-13
 -1      4279 2.04078E+01 1.29783E-01-4.18576E-04 5.30881E-03-3.59172E-15-3.36344E-13
 -1      4280 2.04106E+01 4.86977E-01 1.46808E-04 2.53178E-02 8.61167E-14-4.13832E-13
 -1      4281 2.03906E+01 6.77207E-02 8.20328E-05 2.44739E-03-3.38677E-15-3.00871E-13
 -1      4282 2.03695E+01 1.76201E-02-9.95717E-05 5.67064E-03 2.38689E-14-2.65129E-13
 -1      4283 2.03566E+01 3.43040E-04-3.03237E-04-1.46295E-02 2.37142E-14-2.58761E-13
 -1      4284 2.03982E+01 1.02168E-01 1.08356E-04-1.16591E-02 2.11547E-14-3.18393E-13
 -1      4285 2.04218E+01 5.20344E-01-4.97115E-04-1.95135E-02-8.84743E-16-3.72054E-13
 -1      4286 2.03002E+01-7.17294E-02 2.12864E-04 4.14956E-03 4.75171E-14-2.08119E-13
 -1      4287 2.02768E+01-8.59938E-02 4.39366E-04 5.37744E-03 2.52299E-14-1.53142E-13
 -1      4288 2.03106E+01-6.14491E-02-9.88971E-04-1.65274E-02 6.28834E-14-2.32853E-13
 -1      4289 2.02545E+01-8.70741E-02 4.38259E-04-4.90958E-02 1.26289E-15-2.69634E-13
 -1      4290 2.02769E+01-7.54920E-02 7.83402E-04-4.93848E-02 3.61376E-14-2.86978E-13
 -1      4291 2.01458E+01-7.94189E-02 2.95719E-04-1.71665E-03-5.73744E-14-1.74603E-13
 -1      4292 2.01352E+01-7.46024E-02-2.87042E-04-1.75948E-02-7.58302E-14-1.93012E-13
 -1      4293 1.63354E+01 9.96867E-01-7.58454E-03 2.28363E-01 8.08483E-14-2.85373E-13
 -1      4294 2.02084E+01-9.80900E-02-3.47549E-04-2.66620E-02-4.24417E-14-2.64367E-13
 -1      4295 2.04097E+01 3.78104E-01-5.70509E-04-3.54532E-03 7.29653E-14-4.04083E-13
 -1      4296 2.04245E+01 5.52799E-01-6.99536E-04-9.45677E-03 3.06055E-14-3.67531E-13
 -1      4297 2.02522E+01-9.18797E-02-4.52514E-04-2.87758E-02-2.95341E-14-2.96452E-13
 -1      4298 2.03986E+01 2.08557E-01-5.01611E-04-3.25704E-02 8.59715E-14-3.73017E-13
 -1      4299 2.04077E+01 2.88614E-01 1.41204E-05-1.47850E-02 7.62610E-14-3.84142E-13
 -1      4300 2.04218E+01 3.38704E-01 3.36985E-04-6.83536E-03 6.74714E-14-4.04292E-13
 -1      4301 2.04067E+01 1.83936E-01 4.03264E-04-2.43710E-02 5.41978E-14-3.75748E-13
 -1      4302 2.03686E+01 2.60194E-02 2.62511E-04-2.83880E-02 2.55293E-14-2.96880E-13
 -1      4303 2.03883E+01 7.73164E-02-3.10229E-04-2.29371E-02 2.59876E-14-3.08824E-13
 -1      4304 2.03008E+01-5.64438E-02 3.83300E-04-5.04180E-02 3.85212E-14-2.63166E-13
 -1      4305 2.03227E+01-3.15156E-02 7.36338E-04-4.86559E-02 1.34519E-14-2.83455E-13
 -1      4306 2.04346E+01 4.45207E-01 1.35421E-03-2.84975E-03 4.81685E-15-4.09024E-13
 -1      4307 2.03468E+01-1.49317E-02-4.89100E-04-2.93995E-02 3.00333E-14-2.68612E-13
 -1      4308 2.00977E+01-4.57369E-02-2.12842E-04-2.07660E-02-1.85656E-15-1.69351E-13
 -1      4309 2.04310E+01 3.23483E-01-9.29217E-04 3.96761E-03-1.29917E-14-3.95060E-13
 -1      4310 2.04273E+01 2.81081E-01 2.10234E-04-3.80557E-03 1.05945E-14-3.79402E-13
 -1      4311 2.04281E+01 3.23965E-01-4.37802E-04-6.89408E-03 5.27199E-14-4.10323E-13
 -1      4312 2.04176E+01 2.06136E-01-1.58388E-04-1.31021E-02 5.11007E-14-3.61190E-13
 -1      4313 2.04060E+01 1.42401E-01 1.43642E-05-2.11600E-02 2.94426E-14-3.26581E-13
 -1      4314 2.01272E+01-7.00010E-02-2.53245E-04-2.75858E-02-5.22883E-14-2.03431E-13
 -1      4315 2.02631E+01-9.16058E-02-5.24094E-04-1.59366E-02-1.76939E-14-2.46968E-13
 -1      4316 2.01134E+01-5.95922E-02 5.48749E-05-2.15465E-02-4.21515E-14-1.30895E-13
 -1      4317 2.02292E+01-9.73951E-02 3.87123E-04-2.77919E-02-5.57152E-14-2.75700E-13
 -3
    1PSTEP                         3           1           1          
  100CL  101 1.000000000        4317                     0    1           1
 -4  TOSTRAIN    6    1
 -5  EXX         1    4    1    1
 -5  EYY         1    4    2    2
 -5  EZZ         1    4    3    3
 -5  EXY         1    4    1    2
 -5  EYZ         1    4    2    3
 -5  EZX         1    4    3    1
 -1         1 3.17833E-04-9.50323E-05-8.21573E-05-4.49455E-05-5.39732E-19 4.28398E-18
 -1         2 4.31977E-05-1.31290E-04 2.37147E-05 4.25831E-07-3.64344E-18-4.91041E-19
 -1         3 9.50611E-05-2.87518E-05-2.82076E-05-1.77847E-07-2.84874E-18-3.40512E-18
 -1         4 9.51640E-05-2.86391E-05-2.83489E-05 1.38292E-08 1.32798E-18 2.96038E-19
 -1         5 1.43349E-04-2.14785E-05-4.25290E-05 3.85314E-05-3.52207E-19 2.59773E-17
 -1         6 1.45411E-04 2.57582E-10-4.41882E-05-5.35265E-05-1.61529E-18 2.37478E-17
 -1         7 9.06109E-05-5.11290E-07-3.90690E-05-2.92511E-05-2.35475E-19 3.45589E-18
 -1         8 8.51259E-05 8.64788E-08-3.63399E-05-2.02694E-05-2.86377E-19-2.57254E-18
 -1         9 8.28139E-05 7.68714E-08-3.53513E-05-1.56400E-05-2.49147E-19-5.79599E-18
 -1        10 8.17755E-05 3.86795E-08-3.48819E-05-1.20773E-05-1.71438E-19-7.28761E-18
 -1        11 8.12524E-05 1.94922E-08-3.46524E-05-9.01177E-06-1.29619E-19-7.94592E-18
 -1        12 8.09818E-05 9.24234E-09-3.45379E-05-6.28296E-06-4.11158E-20-8.17238E-18
 -1        13 8.08398E-05 4.63105E-09-3.44799E-05-3.68478E-06-3.31956E-20-8.13538E-18
 -1        14 8.07805E-05 2.76914E-09-3.44562E-05-1.18343E-06 1.68426E-20-7.99676E-18
 -1        15 8.07826E-05 2.75450E-09-3.44570E-05 1.28859E-06 7.03883E-20-7.86760E-18
 -1        16 8.08465E-05 4.54223E-09-3.44822E-05 3.79511E-06 9.52987E-20-7.69400E-18
 -1        17 8.09939E-05 8.42372E-09-3.45417E-05 6.40560E-06 1.18509E-19-7.31312E-18
 -1        18 8.12696E-05 1.81847E-08-3.46578E-05 9.15429E-06 1.72365E-19-6.65555E-18
 -1        19 8.17972E-05 3.81975E-08-3.48900E-05 1.22562E-05 2.54077E-19-5.55624E-18
 -1        20 8.28370E-05 8.15073E-08-3.53639E-05 1.58690E-05 3.14329E-19-3.54932E-18
 -1        21 8.50921E-05 1.69407E-07-3.63781E-05 2.04810E-05 3.62186E-19 3.97991E-19
 -1        22 9.16477E-05-9.97863E-08-3.87405E-05 2.79986E-05 5.89747E-20 8.30053E-18
 -1        23 1.12982E-04-3.81289E-05-3.53990E-05-4.40240E-06-1.10276E-18 1.81078E-17
 -1        24 9.28146E-05-2.77000E-05-2.90022E-05 3.91256E-07-2.50411E-19 1.32409E-17
 -1        25 8.91321E-05-2.68560E-05-2.69330E-05 3.76084E-07-1.70543E-19 8.44692E-18
 -1        26 8.80319E-05-2.64933E-05-2.63964E-05 2.04273E-07-5.51490E-20 5.01233E-18
 -1        27 8.80609E-05-2.64724E-05-2.63894E-05 1.39935E-07-1.94325E-20 3.07446E-18
 -1        28 8.85967E-05-2.66093E-05-2.65596E-05 1.00966E-07 8.60226E-21 1.89319E-18
 -1        29 8.93536E-05-2.68226E-05-2.67929E-05 7.53330E-08-4.42292E-20 3.32348E-19
 -1        30 9.01800E-05-2.70628E-05-2.70434E-05 5.70326E-08-7.40281E-20-1.79649E-18
 -1        31 9.09908E-05-2.73016E-05-2.72879E-05 4.32538E-08-5.35334E-20-3.15594E-18
 -1        32 9.17387E-05-2.75233E-05-2.75133E-05 3.25697E-08-1.62980E-19-4.68233E-18
 -1        33 9.24001E-05-2.77202E-05-2.77127E-05 2.41680E-08 2.32097E-19-5.38447E-18
 -1        34 9.29665E-05-2.78892E-05-2.78836E-05 1.75305E-08-7.60741E-20-5.56022E-18
 -1        35 9.34389E-05-2.80305E-05-2.80263E-05 1.22903E-08 1.40841E-19-5.93961E-18
 -1        36 9.38247E-05-2.81462E-05-2.81430E-05 8.16782E-09-1.19666E-19-6.16120E-18
 -1        37 9.41348E-05-2.82393E-05-2.82369E-05 4.94278E-09-8.75447E-20-6.70689E-18
 -1        38 9.43828E-05-2.83140E-05-2.83121E-05 2.44185E-09-5.49406E-20-6.95590E-18
 -1        39 9.45837E-05-2.83747E-05-2.83732E-05 5.34710E-10-3.71067E-19-7.50028E-18
 -1        40 9.47541E-05-2.84263E-05-2.84252E-05-8.65888E-10-1.21104E-19-7.98796E-18
 -1        41 9.49119E-05-2.84743E-05-2.84734E-05-1.80142E-09 2.07610E-20-9.80686E-18
 -1        42 9.50774E-05-2.85247E-05-2.85240E-05-2.26258E-09 1.74702E-19-8.51196E-18
 -1        43 9.52735E-05-2.85844E-05-2.85840E-05-2.18205E-09-4.18733E-19-7.38814E-18
 -1        44 9.55269E-05-2.86613E-05-2.86614E-05-1.42491E-09 2.75041E-19-6.85587E-18
 -1        45 9.58687E-05-2.87649E-05-2.87656E-05 2.23056E-10 1.02862E-19-6.04322E-18
 -1        46 9.63356E-05-2.89061E-05-2.89078E-05 3.06826E-09 3.88163E-20-7.17305E-18
 -1        47 9.69700E-05-2.90975E-05-2.91006E-05 7.52008E-09-1.14002E-19-6.62454E-18
 -1        48 9.78197E-05-2.93533E-05-2.93585E-05 1.40921E-08 2.24095E-19-6.22654E-18
 -1        49 9.89359E-05-2.96887E-05-2.96966E-05 2.33778E-08-1.05876E-19-7.36456E-18
 -1        50 1.00368E-04-3.01184E-05-3.01296E-05 3.59680E-08-2.40350E-19-8.38106E-18
 -1        51 1.02157E-04-3.06538E-05-3.06688E-05 5.22496E-08 3.66788E-20-7.97013E-18
 -1        52 1.04316E-04-3.12986E-05-3.13166E-05 7.19811E-08 7.10641E-20-7.05698E-18
 -1        53 1.06806E-04-3.20407E-05-3.20593E-05 9.34897E-08-2.70070E-19-9.57345E-18
 -1        54 1.09498E-04-3.28412E-05-3.28541E-05 1.12332E-07 3.67762E-19-9.57061E-18
 -1        55 1.12122E-04-3.36196E-05-3.36152E-05 1.19434E-07-2.41950E-20-6.71788E-18
 -1        56 1.14213E-04-3.42381E-05-3.41993E-05 9.93794E-08-4.33592E-20-6.36447E-18
 -1        57 1.15087E-04-3.44945E-05-3.44025E-05 3.09534E-08 5.18150E-19-6.26465E-18
 -1        58 1.13903E-04-3.41401E-05-3.39871E-05-1.05542E-07 1.00249E-19-5.38590E-18
 -1        59 1.09899E-04-3.29479E-05-3.27579E-05-3.09195E-07 8.85944E-20-3.28665E-18
 -1        60 1.02842E-04-3.08448E-05-3.06886E-05-5.31220E-07-2.24712E-20-3.75884E-18
 -1        61 9.35539E-05-2.80709E-05-2.80473E-05-6.65665E-07 4.86804E-19-3.89762E-18
 -1        62 8.41107E-05-2.52439E-05-2.54164E-05-5.94561E-07-2.56292E-19-4.17439E-18
 -1        63 7.72490E-05-2.31861E-05-2.35125E-05-2.87295E-07-3.19369E-19-4.40372E-18
 -1        64 7.50082E-05-2.25159E-05-2.28459E-05 1.31242E-07 8.25210E-19-4.49261E-18
 -1        65 7.74917E-05-2.32650E-05-2.34439E-05 4.48579E-07-8.31333E-20-3.55915E-18
 -1        66 8.28261E-05-2.48657E-05-2.48446E-05 5.28479E-07 4.86377E-19-1.87290E-18
 -1        67 8.83999E-05-2.65313E-05-2.63804E-05 3.98490E-07 1.09942E-19-8.38364E-19
 -1        68 9.23271E-05-2.76994E-05-2.75350E-05 1.89002E-07-9.81541E-20-1.84845E-18
 -1        69 9.41416E-05-2.82351E-05-2.81450E-05 3.10654E-08 1.16249E-18 9.53286E-19
 -1        70 9.45970E-05-2.83645E-05-2.83599E-05 1.40400E-08-8.18046E-19 1.92470E-18
 -1        71 9.48662E-05-2.84444E-05-2.84149E-05 9.18999E-08-7.57357E-20-2.70040E-19
 -1        72 1.02185E-04-3.05893E-05-3.41521E-05-1.92920E-06 3.43101E-19 2.36420E-17
 -1        73 9.25715E-05-2.75163E-05-2.89106E-05-3.33282E-07 2.01548E-19 1.78682E-17
 -1        74 8.91201E-05-2.67055E-05-2.69764E-05-1.25968E-07 1.57462E-19 1.37771E-17
 -1        75 8.80618E-05-2.64440E-05-2.64405E-05-9.56444E-08 9.42316E-20 1.07315E-17
 -1        76 8.80954E-05-2.64523E-05-2.64161E-05-7.66575E-08 9.93415E-20 8.59445E-18
 -1        77 8.86307E-05-2.66038E-05-2.65768E-05-6.26103E-08 4.69477E-20 6.52364E-18
 -1        78 8.93850E-05-2.68240E-05-2.68052E-05-5.18541E-08 4.23596E-20 5.49502E-18
 -1        79 9.02080E-05-2.70675E-05-2.70529E-05-4.29898E-08 2.04809E-20 4.23832E-18
 -1        80 9.10150E-05-2.73077E-05-2.72953E-05-3.53613E-08-2.03757E-19 3.42246E-18
 -1        81 9.17592E-05-2.75298E-05-2.75190E-05-2.87075E-08 2.93580E-19 2.25089E-18
 -1        82 9.24170E-05-2.77264E-05-2.77170E-05-2.29087E-08 1.06590E-19 1.35662E-18
 -1        83 9.29801E-05-2.78948E-05-2.78868E-05-1.78859E-08-1.65089E-20 5.95601E-19
 -1        84 9.34495E-05-2.80354E-05-2.80286E-05-1.35635E-08 1.41765E-19-1.14839E-19
 -1        85 9.38324E-05-2.81501E-05-2.81444E-05-9.85803E-09 9.82980E-20-6.63297E-19
 -1        86 9.41399E-05-2.82423E-05-2.82377E-05-6.67928E-09 5.96805E-20-2.11603E-18
 -1        87 9.43853E-05-2.83160E-05-2.83123E-05-3.93402E-09-3.09139E-19-2.01992E-18
 -1        88 9.45836E-05-2.83756E-05-2.83727E-05-1.53150E-09 7.94292E-20-1.29948E-18
 -1        89 9.47512E-05-2.84261E-05-2.84240E-05 6.10436E-10 1.27096E-19-2.83208E-18
 -1        90 9.49062E-05-2.84729E-05-2.84716E-05 2.55866E-09-8.10790E-20-3.53793E-18
 -1        91 9.50687E-05-2.85220E-05-2.85215E-05 4.35705E-09-1.86881E-19-2.59791E-18
 -1        92 9.52620E-05-2.85804E-05-2.85809E-05 6.01664E-09-3.08493E-20-1.21451E-18
 -1        93 9.55134E-05-2.86563E-05-2.86580E-05 7.50200E-09 2.26613E-19-4.04053E-19
 -1        94 9.58557E-05-2.87595E-05-2.87628E-05 8.71148E-09 2.18164E-19-1.94885E-18
 -1        95 9.63283E-05-2.89018E-05-2.89072E-05 9.44782E-09-1.05876E-19-3.99520E-18
 -1        96 9.69784E-05-2.90973E-05-2.91055E-05 9.37415E-09 2.52987E-19-2.54676E-18
 -1        97 9.78624E-05-2.93628E-05-2.93748E-05 7.94951E-09-1.26292E-19-1.90011E-18
 -1        98 9.90453E-05-2.97176E-05-2.97345E-05 4.33849E-09-6.16190E-20-7.74550E-19
 -1        99 1.00599E-04-3.01829E-05-3.02061E-05-2.70318E-09-2.43758E-19-9.26813E-19
 -1       100 1.02595E-04-3.07800E-05-3.08107E-05-1.49413E-08 1.55661E-19-6.60408E-19
 -1       101 1.05095E-04-3.15264E-05-3.15652E-05-3.46861E-08 3.12708E-19-8.16940E-19
 -1       102 1.08120E-04-3.24284E-05-3.24732E-05-6.44966E-08-2.85429E-19-1.98844E-18
 -1       103 1.11610E-04-3.34678E-05-3.35116E-05-1.06078E-07 1.81088E-19-6.67389E-19
 -1       104 1.15352E-04-3.45822E-05-3.46077E-05-1.57510E-07 1.17207E-19 2.90506E-20
 -1       105 1.18881E-04-3.56364E-05-3.56116E-05-2.07779E-07 2.58387E-19-6.93197E-19
 -1       106 1.21384E-04-3.63935E-05-3.62721E-05-2.28866E-07-1.41561E-19-1.65774E-18
 -1       107 1.21678E-04-3.65067E-05-3.62448E-05-1.70931E-07-4.72249E-19-2.11758E-18
 -1       108 1.18420E-04-3.55736E-05-3.51763E-05 2.38544E-08 7.77307E-19-2.85817E-18
 -1       109 1.10737E-04-3.33122E-05-3.28937E-05 3.67002E-07-2.76470E-19-2.55759E-18
 -1       110 9.92177E-05-2.98574E-05-2.96513E-05 7.46898E-07-3.43335E-19 1.74351E-18
 -1       111 8.66400E-05-2.60132E-05-2.62434E-05 9.19711E-07 4.33830E-19 2.07168E-18
 -1       112 7.73272E-05-2.31120E-05-2.37558E-05 6.77357E-07-4.79517E-19-2.06451E-19
 -1       113 7.47424E-05-2.22777E-05-2.30029E-05 9.66942E-08 2.25038E-19-1.57356E-19
 -1       114 7.90040E-05-2.35906E-05-2.40046E-05-4.66124E-07-1.02568E-18 9.97805E-19
 -1       115 8.68123E-05-2.60216E-05-2.59808E-05-6.96523E-07 5.46080E-19-2.61230E-19
 -1       116 9.39061E-05-2.82231E-05-2.78810E-05-5.64676E-07 7.88897E-19-2.46730E-18
 -1       117 9.76412E-05-2.93689E-05-2.89870E-05-2.53743E-07 9.92948E-20-6.40373E-18
 -1       118 9.78544E-05-2.94129E-05-2.91917E-05 3.22211E-08-9.87718E-20-8.21761E-18
 -1       119 9.62202E-05-2.88820E-05-2.88724E-05 1.55449E-07 4.24611E-19-9.71049E-18
 -1       120 9.50226E-05-2.84464E-05-2.85129E-05-2.24243E-08 1.61113E-18-9.53558E-18
 -1       121 9.52510E-05-2.86305E-05-2.86046E-05-1.54683E-07-1.02792E-17-6.03193E-19
 -1       122 9.47334E-05-2.70035E-05-2.92460E-05 1.04880E-09-9.56224E-18 3.35566E-19
 -1       123 9.33217E-05-2.22585E-05-3.07363E-05 2.32394E-07-4.26469E-18 1.78856E-18
 -1       124 9.08138E-05-1.38325E-05-3.32556E-05 5.32001E-07-6.05957E-18-1.11218E-19
 -1       125 8.73277E-05-2.12316E-06-3.66299E-05 8.02809E-07-2.20334E-18-1.58403E-18
 -1       126 8.35378E-05 1.05992E-05-4.01885E-05 8.67075E-07-2.15414E-18 4.58872E-19
 -1       127 8.03822E-05 2.11509E-05-4.30725E-05 5.98149E-07 5.09067E-18 8.33937E-19
 -1       128 7.90538E-05 2.55855E-05-4.42646E-05 4.44427E-08 6.41389E-18 3.26432E-19
 -1       129 8.00879E-05 2.21280E-05-4.33266E-05-5.33621E-07 6.16222E-18 7.86559E-19
 -1       130 8.30872E-05 1.20977E-05-4.05896E-05-8.59694E-07 2.24808E-18-6.24480E-19
 -1       131 8.69665E-05-8.96476E-07-3.69726E-05-8.34872E-07-1.46571E-18-6.32305E-19
 -1       132 9.05274E-05-1.28761E-05-3.35384E-05-5.83496E-07-7.23491E-18 1.03240E-18
 -1       133 9.31940E-05-2.18320E-05-3.08780E-05-2.63774E-07-8.28306E-19-3.92070E-19
 -1       134 9.47044E-05-2.69207E-05-2.92846E-05-1.36890E-08 1.72564E-18 6.82371E-19
 -1       135 9.52932E-05-2.88111E-05-2.86048E-05 1.06779E-07 1.04541E-18 1.60195E-19
 -1       136 9.52483E-05-2.88199E-05-2.84671E-05 2.60210E-07-4.83954E-19 2.59161E-19
 -1       137 3.02553E-05-1.03664E-04 1.88188E-05-2.84347E-05 2.81215E-19 1.86347E-19
 -1       138 9.34790E-06-3.79167E-05 3.60969E-06-1.88338E-05 4.68452E-18 1.99540E-18
 -1       139 1.25829E-05 1.63150E-05-1.59907E-05 2.57830E-05 7.63177E-18 7.00877E-18
 -1       140 6.69327E-05 2.84688E-05-3.85602E-05 8.69071E-05 5.25669E-18 5.44642E-18
 -1       141 1.72361E-04-9.54444E-06-6.15786E-05 1.22385E-04 1.21846E-18 1.49290E-18
 -1       142 2.77758E-04-6.79915E-05-7.76027E-05 9.73670E-05 3.49454E-19-1.73684E-18
 -1       143 3.27944E-04-1.01172E-04-8.34601E-05 2.11006E-05-7.34801E-19-4.57678E-18
 -1       144 2.98635E-04-8.43842E-05-7.93397E-05-6.57928E-05 9.33721E-19-4.65868E-18
 -1       145 2.01011E-04-3.01498E-05-6.47223E-05-1.12063E-04 2.97944E-18-7.88842E-18
 -1       146 9.31053E-05 1.71186E-05-4.41360E-05-9.59920E-05 7.06510E-18-8.86928E-18
 -1       147 2.05734E-05 2.02027E-05-2.01261E-05-3.72177E-05 7.95025E-18-7.06129E-18
 -1       148 4.94278E-06-2.04444E-05-5.65375E-07 1.29164E-05 5.37781E-18-4.17587E-18
 -1       149 2.13680E-05-8.11481E-05 1.49550E-05 3.09461E-05 2.73888E-18 1.98788E-19
 -1       150 3.86022E-05-1.19002E-04 2.22594E-05 1.18519E-05 2.67609E-18-7.51451E-19
 -1       151 3.56362E-05-1.12637E-04 2.10896E-05-1.75330E-05-8.90952E-18-2.70010E-18
 -1       152 1.68819E-05-6.75311E-05 1.17829E-05-2.86360E-05-1.65303E-17-5.22439E-18
 -1       153 5.51505E-06-8.47415E-06-4.80465E-06-2.21972E-06-1.82362E-17-1.12713E-17
 -1       154 3.73897E-05 2.45225E-05-2.73693E-05 5.71443E-05-1.22286E-17-1.26212E-17
 -1       155 1.28505E-04 5.58956E-06-5.22699E-05 1.10364E-04-7.25907E-18-9.72013E-18
 -1       156 2.37262E-04-4.91166E-05-7.06293E-05 1.06836E-04-5.89535E-19-1.38363E-18
 -1       157 3.14229E-04-9.42396E-05-8.12987E-05 4.22316E-05 3.78452E-19 3.57723E-18
 -1       158 2.51750E-04-5.34534E-05-7.37400E-05-1.10027E-04-2.81321E-19 1.24175E-18
 -1       159 1.49092E-04 1.38647E-06-5.73222E-05-1.21541E-04-2.67451E-19-1.50348E-19
 -1       160 5.97671E-05 3.10377E-05-3.69713E-05-8.37113E-05-6.95414E-19 8.52539E-19
 -1       161 1.13941E-05 1.39194E-05-1.46927E-05-2.25912E-05-6.11897E-18 3.01417E-18
 -1       162 9.73639E-06-4.34975E-05 5.40755E-06 2.30779E-05-1.15209E-17 5.16648E-18
 -1       163 3.08396E-05-1.03708E-04 1.86055E-05 2.74948E-05-1.00680E-17 5.02862E-18
 -1       164 9.48734E-05-1.23493E-05-3.55705E-05-2.23469E-05-3.65687E-18 3.31958E-19
 -1       165 8.92461E-05-8.45186E-06-3.47887E-05-1.73841E-05-3.30355E-18-3.39209E-18
 -1       166 8.65561E-05-6.51017E-06-3.44163E-05-1.35926E-05-2.62441E-18-5.38669E-18
 -1       167 8.51905E-05-5.51423E-06-3.42301E-05-1.03659E-05-1.89300E-18-6.37364E-18
 -1       168 8.44451E-05-4.94394E-06-3.41410E-05-7.54577E-06-1.27672E-18-6.76486E-18
 -1       169 8.40171E-05-4.59862E-06-3.40982E-05-4.90274E-06-6.85897E-19-6.82190E-18
 -1       170 8.37986E-05-4.41432E-06-3.40799E-05-2.39473E-06-6.58688E-20-6.76841E-18
 -1       171 8.37342E-05-4.35857E-06-3.40752E-05 5.11742E-08 4.57413E-19-6.65289E-18
 -1       172 8.38087E-05-4.42279E-06-3.40808E-05 2.49915E-06 1.01570E-18-6.48845E-18
 -1       173 8.40394E-05-4.61802E-06-3.40997E-05 5.01375E-06 1.50395E-18-6.27867E-18
 -1       174 8.44731E-05-4.97121E-06-3.41419E-05 7.62270E-06 2.04360E-18-5.81413E-18
 -1       175 8.52502E-05-5.57388E-06-3.42319E-05 1.05115E-05 2.74314E-18-4.96144E-18
 -1       176 8.66479E-05-6.60850E-06-3.44188E-05 1.37822E-05 3.39234E-18-3.55537E-18
 -1       177 8.93948E-05-8.60068E-06-3.47930E-05 1.76218E-05 3.79287E-18-1.00058E-18
 -1       178 9.57844E-05-1.36150E-05-3.54269E-05 2.18930E-05 3.63756E-18 3.79201E-18
 -1       179 1.05611E-04-2.61040E-05-3.52647E-05 1.86625E-05 2.68494E-18 1.00715E-17
 -1       180 1.03406E-04-2.73041E-05-3.26125E-05-1.21274E-05-3.17338E-18 4.88129E-18
 -1       181 9.71153E-05-2.82913E-05-2.95311E-05-4.72978E-06-2.76732E-18 3.28555E-18
 -1       182 9.35160E-05-2.76395E-05-2.81846E-05-1.76734E-06-2.03371E-18 2.10562E-18
 -1       183 9.19819E-05-2.74089E-05-2.76387E-05-4.19794E-07-1.31423E-18 9.00770E-19
 -1       184 9.14067E-05-2.73338E-05-2.74415E-05 2.43856E-07-9.44955E-19 3.57855E-20
 -1       185 9.13655E-05-2.73729E-05-2.74168E-05 5.69558E-07-8.63990E-19-6.78772E-19
 -1       186 9.16094E-05-2.74758E-05-2.74819E-05 7.07887E-07-1.09851E-18-1.07576E-18
 -1       187 9.19929E-05-2.76081E-05-2.75918E-05 7.37881E-07-8.55189E-19-1.35110E-18
 -1       188 9.24288E-05-2.77482E-05-2.77197E-05 7.05562E-07-9.94431E-19-1.79799E-18
 -1       189 9.28652E-05-2.78835E-05-2.78494E-05 6.39476E-07-5.05096E-19-2.23218E-18
 -1       190 9.32726E-05-2.80068E-05-2.79715E-05 5.57947E-07-3.58672E-19-3.26522E-18
 -1       191 9.36361E-05-2.81147E-05-2.80812E-05 4.72867E-07-4.00647E-19-3.82943E-18
 -1       192 9.39504E-05-2.82066E-05-2.81766E-05 3.91922E-07-2.68341E-19-4.26708E-18
 -1       193 9.42167E-05-2.82833E-05-2.82578E-05 3.20054E-07-2.65224E-19-4.09680E-18
 -1       194 9.44402E-05-2.83466E-05-2.83263E-05 2.60483E-07-4.95621E-19-3.94082E-18
 -1       195 9.46296E-05-2.83992E-05-2.83848E-05 2.15465E-07-1.50572E-19-4.07079E-18
 -1       196 9.47954E-05-2.84443E-05-2.84363E-05 1.86871E-07-3.28235E-19-3.84380E-18
 -1       197 9.49503E-05-2.84857E-05-2.84847E-05 1.76627E-07-8.31583E-19-4.60318E-18
 -1       198 9.51087E-05-2.85276E-05-2.85344E-05 1.87058E-07-1.08038E-19-4.91791E-18
 -1       199 9.52874E-05-2.85746E-05-2.85905E-05 2.21124E-07 2.75551E-19-5.89449E-18
 -1       200 9.55058E-05-2.86324E-05-2.86589E-05 2.82572E-07 4.64383E-19-5.10755E-18
 -1       201 9.57860E-05-2.87075E-05-2.87464E-05 3.75952E-07 2.24369E-19-4.72324E-18
 -1       202 9.61536E-05-2.88072E-05-2.88608E-05 5.06456E-07 1.32556E-19-3.87882E-18
 -1       203 9.66379E-05-2.89404E-05-2.90108E-05 6.79482E-07-1.71367E-20-3.40594E-18
 -1       204 9.72707E-05-2.91169E-05-2.92059E-05 8.99756E-07-1.23870E-19-3.44591E-18
 -1       205 9.80857E-05-2.93476E-05-2.94560E-05 1.16976E-06-1.10965E-18-4.51502E-18
 -1       206 9.91155E-05-2.96439E-05-2.97702E-05 1.48708E-06-2.96625E-19-5.17033E-18
 -1       207 1.00386E-04-3.00167E-05-3.01552E-05 1.84017E-06 3.50457E-19-4.53604E-18
 -1       208 1.01909E-04-3.04748E-05-3.06125E-05 2.20189E-06 4.04141E-19-3.90294E-18
 -1       209 1.03668E-04-3.10216E-05-3.11339E-05 2.52048E-06-9.48194E-19-4.14451E-18
 -1       210 1.05601E-04-3.16503E-05-3.16958E-05 2.70840E-06-1.62611E-19-3.71598E-18
 -1       211 1.07576E-04-3.23361E-05-3.22523E-05 2.63223E-06 8.23218E-19-3.62300E-18
 -1       212 1.09365E-04-3.30239E-05-3.27289E-05 2.11230E-06 4.59764E-19-3.52136E-18
 -1       213 1.10627E-04-3.36116E-05-3.30214E-05 9.49351E-07 8.02789E-19-2.44891E-18
 -1       214 1.10912E-04-3.39324E-05-3.30077E-05-9.95633E-07 9.87286E-19-2.71754E-18
 -1       215 1.09739E-04-3.37517E-05-3.25796E-05-3.64791E-06 1.02162E-18-2.08091E-18
 -1       216 1.06762E-04-3.28182E-05-3.16962E-05-6.52479E-06-1.34480E-19-2.73680E-18
 -1       217 1.02055E-04-3.10201E-05-3.04420E-05-8.65509E-06-2.82156E-19-1.26353E-18
 -1       218 9.63997E-05-2.86144E-05-2.90445E-05-8.86729E-06-5.98645E-19-1.73392E-18
 -1       219 9.12621E-05-2.63289E-05-2.78211E-05-6.52130E-06-3.14726E-19-1.74480E-18
 -1       220 8.82212E-05-2.50727E-05-2.70566E-05-2.24803E-06-5.41995E-19-2.68205E-18
 -1       221 8.80300E-05-2.53038E-05-2.68736E-05 2.13156E-06 1.49406E-18-3.18445E-18
 -1       222 9.00902E-05-2.66327E-05-2.71855E-05 4.75282E-06 1.02363E-18-5.93787E-19
 -1       223 9.29228E-05-2.81594E-05-2.77473E-05 4.94287E-06 2.13687E-19-1.21078E-18
 -1       224 9.51550E-05-2.91479E-05-2.82857E-05 3.39987E-06 1.58786E-19-9.30416E-19
 -1       225 9.61621E-05-2.93704E-05-2.86282E-05 1.43938E-06 5.05067E-19-2.48007E-18
 -1       226 9.60797E-05-2.90164E-05-2.87458E-05 1.64379E-07 1.16916E-18-2.61267E-18
 -1       227 9.55123E-05-2.85419E-05-2.87004E-05-3.48840E-08-4.17552E-19-8.09026E-19
 -1       228 9.95086E-05-2.85569E-05-3.05895E-05 7.21032E-06 2.75173E-18 8.56564E-18
 -1       229 9.44255E-05-2.77934E-05-2.85272E-05 2.74268E-06 2.09215E-18 6.46908E-18
 -1       230 9.21068E-05-2.74041E-05-2.76847E-05 9.28618E-07 1.53059E-18 4.71825E-18
 -1       231 9.11595E-05-2.72419E-05-2.73663E-05 6.65109E-08 1.30383E-18 3.48504E-18
 -1       232 9.09492E-05-2.72352E-05-2.72925E-05-3.61339E-07 9.52260E-19 2.71649E-18
 -1       233 9.11339E-05-2.73215E-05-2.73414E-05-5.61922E-07 5.15226E-19 1.92081E-18
 -1       234 9.15181E-05-2.74548E-05-2.74521E-05-6.34476E-07 6.10990E-19 1.56854E-18
 -1       235 9.19868E-05-2.76058E-05-2.75899E-05-6.32963E-07 5.32436E-19 9.02662E-19
 -1       236 9.24718E-05-2.77568E-05-2.77340E-05-5.89628E-07 7.34599E-19-4.46305E-20
 -1       237 9.29333E-05-2.78975E-05-2.78721E-05-5.24786E-07 1.82648E-19 1.19273E-19
 -1       238 9.33503E-05-2.80228E-05-2.79974E-05-4.51550E-07 6.39151E-19 9.21571E-20
 -1       239 9.37135E-05-2.81307E-05-2.81070E-05-3.78403E-07 5.17890E-19-7.38032E-19
 -1       240 9.40220E-05-2.82214E-05-2.82004E-05-3.10795E-07 4.38858E-19-1.56535E-18
 -1       241 9.42797E-05-2.82963E-05-2.82788E-05-2.52211E-07 5.76690E-19-1.83095E-18
 -1       242 9.44945E-05-2.83579E-05-2.83444E-05-2.04955E-07-1.15934E-19-1.41466E-18
 -1       243 9.46766E-05-2.84095E-05-2.84003E-05-1.70723E-07-1.16059E-19-1.91598E-18
 -1       244 9.48380E-05-2.84546E-05-2.84500E-05-1.51064E-07 8.52940E-19-1.67140E-18
 -1       245 9.49931E-05-2.84973E-05-2.84980E-05-1.47739E-07 6.00976E-20-1.90684E-18
 -1       246 9.51582E-05-2.85425E-05-2.85492E-05-1.63010E-07-8.09812E-19-1.68731E-18
 -1       247 9.53521E-05-2.85956E-05-2.86094E-05-1.99876E-07-5.42798E-19-1.45739E-18
 -1       248 9.55972E-05-2.86631E-05-2.86853E-05-2.62253E-07-1.01227E-19-1.01188E-18
 -1       249 9.59196E-05-2.87525E-05-2.87849E-05-3.55078E-07 9.14848E-19-1.16893E-18
 -1       250 9.63505E-05-2.88729E-05-2.89176E-05-4.84315E-07 5.38500E-19-1.56890E-18
 -1       251 9.69260E-05-2.90350E-05-2.90946E-05-6.56766E-07-5.53181E-19-1.08182E-18
 -1       252 9.76880E-05-2.92513E-05-2.93283E-05-8.79547E-07-4.97275E-19-4.51617E-19
 -1       253 9.86830E-05-2.95359E-05-2.96326E-05-1.15896E-06-6.83657E-19-1.66357E-19
 -1       254 9.99600E-05-2.99044E-05-3.00221E-05-1.49826E-06 4.06973E-21 4.51191E-19
 -1       255 1.01565E-04-3.03727E-05-3.05098E-05-1.89365E-06 3.27923E-19-5.18648E-19
 -1       256 1.03532E-04-3.09548E-05-3.11042E-05-2.32721E-06 2.07213E-19-1.80066E-18
 -1       257 1.05863E-04-3.16594E-05-3.18032E-05-2.75552E-06 1.91745E-19-1.54643E-18
 -1       258 1.08506E-04-3.24827E-05-3.25852E-05-3.09289E-06-5.54641E-19-8.39244E-19
 -1       259 1.11308E-04-3.33980E-05-3.33961E-05-3.19069E-06-2.51353E-19-4.13360E-19
 -1       260 1.13972E-04-3.43378E-05-3.41355E-05-2.82184E-06 1.10358E-18-5.71036E-20
 -1       261 1.16004E-04-3.51680E-05-3.46468E-05-1.69522E-06 2.44740E-19-1.51783E-18
 -1       262 1.16711E-04-3.56580E-05-3.47303E-05 4.50454E-07 2.95327E-19-2.54545E-18
 -1       263 1.15306E-04-3.54688E-05-3.41969E-05 3.61746E-06 4.95405E-19-3.25444E-18
 -1       264 1.11221E-04-3.42286E-05-3.29724E-05 7.19939E-06-2.20168E-18-5.50982E-19
 -1       265 1.04646E-04-3.17924E-05-3.12149E-05 9.78415E-06-1.81450E-18 9.12466E-19
 -1       266 9.70253E-05-2.86311E-05-2.93414E-05 9.61339E-06-4.04921E-20 3.00732E-18
 -1       267 9.08998E-05-2.59685E-05-2.78889E-05 5.93482E-06 9.31438E-19 4.38360E-18
 -1       268 8.85579E-05-2.50944E-05-2.72559E-05 2.17969E-07 4.32073E-19 2.55467E-18
 -1       269 9.03225E-05-2.62362E-05-2.74840E-05-4.52817E-06-1.91982E-19 4.45989E-19
 -1       270 9.42986E-05-2.83349E-05-2.82471E-05-6.09516E-06 2.68630E-18-1.21183E-18
 -1       271 9.79109E-05-3.00291E-05-2.90548E-05-4.56297E-06 1.56768E-18-4.08140E-18
 -1       272 9.95634E-05-3.06189E-05-2.95213E-05-1.64661E-06 1.47212E-18-3.66908E-18
 -1       273 9.91281E-05-3.01880E-05-2.95408E-05 7.96113E-07 4.84284E-19-3.31051E-18
 -1       274 9.74774E-05-2.92165E-05-2.92638E-05 1.63957E-06 1.03680E-18-2.64122E-18
 -1       275 9.58268E-05-2.83819E-05-2.89029E-05 8.48365E-07-1.05397E-18-3.65551E-18
 -1       276 9.55389E-05-2.72857E-05-2.92390E-05 1.96568E-06-1.41789E-18 1.43513E-18
 -1       277 9.50900E-05-2.48688E-05-3.00797E-05 4.77503E-06-2.59525E-18 1.33268E-18
 -1       278 9.38915E-05-2.05616E-05-3.14228E-05 8.27147E-06-3.23174E-18 7.33130E-19
 -1       279 9.16534E-05-1.41098E-05-3.32381E-05 1.13975E-05-2.20808E-18 2.03178E-18
 -1       280 8.84900E-05-6.30652E-06-3.52390E-05 1.25327E-05-1.26802E-18-1.63888E-19
 -1       281 8.50199E-05 1.39021E-06-3.70563E-05 1.02259E-05-8.18465E-19 1.99360E-18
 -1       282 8.26191E-05 6.37294E-06-3.81650E-05 4.29650E-06 1.75139E-18 1.37883E-18
 -1       283 8.24472E-05 6.69534E-06-3.82267E-05-3.35609E-06 3.14391E-18 1.58799E-19
 -1       284 8.46019E-05 2.19736E-06-3.72199E-05-9.72812E-06 2.05978E-18-2.31728E-18
 -1       285 8.80595E-05-5.38335E-06-3.54498E-05-1.26082E-05 5.05196E-19-2.06291E-18
 -1       286 9.13725E-05-1.33931E-05-3.34256E-05-1.18577E-05 1.00208E-18-2.43010E-18
 -1       287 9.38218E-05-2.02133E-05-3.15408E-05-8.79711E-06 1.21128E-18 2.73225E-18
 -1       288 9.51372E-05-2.48188E-05-3.01217E-05-5.12861E-06 1.09977E-18 9.92233E-19
 -1       289 9.55113E-05-2.72747E-05-2.92352E-05-2.06950E-06 4.62123E-19-2.92375E-19
 -1       290 9.57820E-05-2.82230E-05-2.89377E-05-7.71277E-07-1.71618E-19-1.39385E-18
 -1       291 1.49872E-05-5.78602E-05 1.43284E-05 8.03475E-06-1.29120E-18 4.05835E-19
 -1       292 3.39131E-05-4.95842E-05 4.30648E-06 3.06182E-05-3.46225E-19 2.64693E-18
 -1       293 6.03483E-05-4.24536E-05-9.56135E-06 3.86225E-05 2.26433E-18 3.79926E-18
 -1       294 9.93097E-05-3.50559E-05-2.77538E-05 4.94202E-05 3.78645E-18 2.31028E-19
 -1       295 1.51270E-04-3.95562E-05-4.68028E-05 4.23349E-05 1.41878E-18-1.79042E-18
 -1       296 1.84736E-04-3.33498E-05-6.28684E-05 3.00389E-05 1.23402E-18-7.80964E-19
 -1       297 2.19022E-04-3.75454E-05-7.38827E-05 2.21878E-05 4.09858E-19-1.55600E-18
 -1       298 2.18575E-04-3.67458E-05-7.42772E-05-1.91725E-06 1.35674E-18-2.03658E-18
 -1       299 1.93767E-04-3.54316E-05-6.54755E-05-1.92436E-05 2.43331E-18-2.92120E-18
 -1       300 1.58769E-04-3.61478E-05-5.09880E-05-3.96499E-05 3.50730E-18-4.07571E-18
 -1       301 1.12812E-04-3.89766E-05-3.16379E-05-4.18393E-05 3.07134E-18-3.37966E-18
 -1       302 6.50409E-05-3.89702E-05-1.26950E-05-3.56813E-05 2.99214E-18-3.96051E-18
 -1       303 3.39546E-05-4.71990E-05 2.83546E-06-2.22320E-05 2.74439E-18-4.08132E-18
 -1       304 1.67528E-05-5.49837E-05 1.27999E-05-9.27630E-06-1.64642E-19-9.45712E-19
 -1       305 1.24515E-05-5.67853E-05 1.53180E-05 2.14200E-06-2.56151E-18-5.71048E-18
 -1       306 1.94202E-05-5.07984E-05 1.03736E-05 1.55199E-05-4.95514E-18-4.76445E-18
 -1       307 3.95852E-05-4.40593E-05-4.89384E-07 2.75160E-05-7.15044E-18-6.43917E-18
 -1       308 8.45904E-05-4.40174E-05-1.81057E-05 4.16136E-05-6.51919E-18-2.72586E-18
 -1       309 1.31441E-04-4.19511E-05-3.80111E-05 3.84538E-05-4.86313E-18-7.70588E-19
 -1       310 1.73696E-04-3.43010E-05-5.74415E-05 4.10306E-05-5.09980E-18 1.15408E-18
 -1       311 2.10215E-04-3.79696E-05-7.02362E-05 2.26893E-05-1.51047E-18 1.31184E-18
 -1       312 2.14581E-04-3.37145E-05-7.41393E-05-3.85546E-06-2.19170E-19 4.74087E-19
 -1       313 2.12548E-04-3.64564E-05-7.17886E-05-2.81960E-05 7.95046E-19 1.31354E-18
 -1       314 1.81069E-04-3.33202E-05-6.07063E-05-4.25490E-05 5.25366E-19 1.04185E-19
 -1       315 1.39812E-04-3.14601E-05-4.50325E-05-5.25994E-05 1.52995E-19-1.87194E-19
 -1       316 9.58279E-05-3.46684E-05-2.65159E-05-4.85885E-05-1.73599E-18-2.57456E-18
 -1       317 5.94206E-05-4.41585E-05-8.38748E-06-3.91649E-05-4.01112E-18-2.17163E-18
 -1       318 2.97604E-05-5.19717E-05 6.20009E-06-2.34511E-05-2.53602E-18 1.80730E-18
 -1       319 1.48545E-05-5.58534E-05 1.37508E-05-9.15316E-06-2.74566E-18 4.94318E-18
 -1       320 9.16342E-05-1.44458E-05-3.31585E-05-1.29810E-05-3.43588E-18-3.16379E-18
 -1       321 9.57147E-05-1.91126E-05-3.28920E-05-1.46345E-05-3.89924E-18-9.85523E-19
 -1       322 8.80020E-05-1.03746E-05-3.33240E-05-8.15243E-06-1.93830E-18-5.05960E-18
 -1       323 8.71867E-05-9.45299E-06-3.33629E-05-5.71706E-06-1.25538E-18-5.36997E-18
 -1       324 8.67270E-05-8.92351E-06-3.33893E-05-3.36650E-06-4.71608E-19-5.25680E-18
 -1       325 8.65217E-05-8.68362E-06-3.34027E-05-1.07233E-06 1.84298E-19-5.24268E-18
 -1       326 8.65304E-05-8.69314E-06-3.34024E-05 1.20326E-06 9.14145E-19-5.14624E-18
 -1       327 8.67546E-05-8.95411E-06-3.33882E-05 3.49944E-06 1.56793E-18-5.00538E-18
 -1       328 8.72271E-05-9.49822E-06-3.33611E-05 5.81404E-06 2.19162E-18-4.77105E-18
 -1       329 8.80668E-05-1.04497E-05-3.33198E-05 8.25300E-06 2.96599E-18-3.95737E-18
 -1       330 8.94829E-05-1.20331E-05-3.32594E-05 1.07616E-05 3.65348E-18-3.00252E-18
 -1       331 9.19045E-05-1.47228E-05-3.31590E-05 1.31669E-05 4.12838E-18-1.52022E-18
 -1       332 9.58095E-05-1.94588E-05-3.28295E-05 1.43740E-05 4.18915E-18 1.46789E-18
 -1       333 9.87978E-05-2.44463E-05-3.19531E-05 1.18965E-05 3.71873E-18 4.27218E-18
 -1       334 9.63974E-05-2.68145E-05-2.97918E-05 5.73958E-06 3.05012E-18 3.13328E-18
 -1       335 9.64432E-05-2.60310E-05-3.01322E-05-6.34339E-06-2.87819E-18-4.03777E-19
 -1       336 9.49239E-05-2.70295E-05-2.90721E-05-2.83193E-06-2.24474E-18-6.16402E-19
 -1       337 9.39485E-05-2.74277E-05-2.84943E-05-9.20785E-07-1.67393E-18-9.92091E-19
 -1       338 9.34296E-05-2.76403E-05-2.81888E-05 1.38882E-07-1.25947E-18-1.46707E-18
 -1       339 9.32376E-05-2.77939E-05-2.80446E-05 7.02895E-07-1.18031E-18-1.66459E-18
 -1       340 9.32541E-05-2.79236E-05-2.79978E-05 9.69342E-07-9.39161E-19-1.52968E-18
 -1       341 9.33922E-05-2.80383E-05-2.80088E-05 1.05556E-06-1.08401E-18-1.65645E-18
 -1       342 9.35924E-05-2.81392E-05-2.80518E-05 1.03436E-06-9.79178E-19-1.57277E-18
 -1       343 9.38159E-05-2.82259E-05-2.81106E-05 9.52778E-07-9.81195E-19-1.83015E-18
 -1       344 9.40385E-05-2.82987E-05-2.81749E-05 8.41820E-07-7.65210E-19-2.37496E-18
 -1       345 9.42467E-05-2.83582E-05-2.82387E-05 7.22033E-07-6.33901E-19-2.62682E-18
 -1       346 9.44340E-05-2.84056E-05-2.82986E-05 6.07044E-07 6.04539E-20-2.52823E-18
 -1       347 9.45994E-05-2.84426E-05-2.83535E-05 5.05939E-07-2.18058E-19-2.14080E-18
 -1       348 9.47452E-05-2.84709E-05-2.84037E-05 4.24982E-07-4.69327E-19-2.29074E-18
 -1       349 9.48763E-05-2.84927E-05-2.84504E-05 3.68881E-07-2.91864E-19-2.44553E-18
 -1       350 9.49998E-05-2.85099E-05-2.84957E-05 3.41744E-07-7.69057E-19-2.45600E-18
 -1       351 9.51244E-05-2.85249E-05-2.85425E-05 3.47799E-07-3.98021E-19-1.85343E-18
 -1       352 9.52605E-05-2.85400E-05-2.85941E-05 3.91917E-07-4.15524E-19-2.74428E-18
 -1       353 9.54205E-05-2.85583E-05-2.86546E-05 4.79946E-07 4.03979E-19-3.02806E-18
 -1       354 9.56183E-05-2.85830E-05-2.87284E-05 6.18829E-07 9.77269E-19-3.84787E-18
 -1       355 9.58702E-05-2.86184E-05-2.88208E-05 8.16453E-07 6.29853E-19-3.19238E-18
 -1       356 9.61944E-05-2.86698E-05-2.89373E-05 1.08111E-06 1.94268E-19-2.70315E-18
 -1       357 9.66114E-05-2.87441E-05-2.90837E-05 1.42038E-06 1.69762E-19-2.66062E-18
 -1       358 9.71430E-05-2.88503E-05-2.92656E-05 1.83914E-06-5.51786E-19-3.09584E-18
 -1       359 9.78119E-05-2.90004E-05-2.94876E-05 2.33628E-06-1.15907E-18-2.62188E-18
 -1       360 9.86404E-05-2.92106E-05-2.97524E-05 2.89954E-06-1.24462E-19-3.13388E-18
 -1       361 9.96477E-05-2.95028E-05-3.00591E-05 3.49778E-06 8.48854E-19-3.82772E-18
 -1       362 1.00847E-04-2.99065E-05-3.04011E-05 4.07010E-06 8.31908E-20-3.31556E-18
 -1       363 1.02243E-04-3.04596E-05-3.07640E-05 4.51186E-06-4.79852E-19-2.45744E-18
 -1       364 1.03820E-04-3.12054E-05-3.11234E-05 4.65975E-06 8.03203E-19-1.21968E-18
 -1       365 1.05536E-04-3.21803E-05-3.14453E-05 4.28252E-06 1.16932E-18-9.32558E-19
 -1       366 1.07292E-04-3.33804E-05-3.16893E-05 3.09317E-06 4.28239E-19-1.21116E-18
 -1       367 1.08898E-04-3.46963E-05-3.18191E-05 8.10608E-07 1.28858E-18-1.06230E-18
 -1       368 1.10011E-04-3.58164E-05-3.18192E-05-2.69054E-06 1.11381E-18-1.13270E-18
 -1       369 1.10108E-04-3.61573E-05-3.17119E-05-7.11233E-06 1.87307E-20-6.78930E-19
 -1       370 1.08607E-04-3.49901E-05-3.15594E-05-1.14293E-05 7.86722E-19 5.80103E-19
 -1       371 1.05300E-04-3.19607E-05-3.14316E-05-1.38600E-05 1.71446E-19 1.05811E-18
 -1       372 1.00940E-04-2.78140E-05-3.13344E-05-1.26187E-05-9.70705E-19 2.20477E-18
 -1       373 9.73201E-05-2.45324E-05-3.11853E-05-7.35009E-06-1.99441E-18 7.22586E-19
 -1       374 9.61738E-05-2.40620E-05-3.08946E-05-1.52579E-07-4.47409E-19 4.14054E-19
 -1       375 9.76187E-05-2.65121E-05-3.04659E-05 5.47827E-06 2.73511E-18-2.05841E-18
 -1       376 9.99879E-05-2.99384E-05-3.00192E-05 7.30242E-06 1.06197E-18-4.03377E-19
 -1       377 1.01453E-04-3.22337E-05-2.96691E-05 5.64798E-06 1.80474E-20 1.55509E-18
 -1       378 1.01233E-04-3.25420E-05-2.94479E-05 2.47347E-06-1.51358E-18 1.43014E-18
 -1       379 9.95852E-05-3.12301E-05-2.93079E-05-2.04974E-07-1.08332E-19-1.33187E-19
 -1       380 9.75464E-05-2.95160E-05-2.91507E-05-1.13761E-06 3.64785E-19-2.20924E-18
 -1       381 9.43782E-05-2.73435E-05-2.86910E-05 2.46707E-06 2.36236E-18 2.18845E-18
 -1       382 9.31724E-05-2.74635E-05-2.81391E-05 7.42119E-07 1.79907E-18 1.31002E-18
 -1       383 9.26187E-05-2.75412E-05-2.78804E-05-1.78791E-07 1.37329E-18 9.60843E-19
 -1       384 9.24769E-05-2.76339E-05-2.77857E-05-6.54038E-07 8.98119E-19 4.43629E-19
 -1       385 9.25789E-05-2.77433E-05-2.77851E-05-8.71104E-07 7.77119E-19-2.89784E-20
 -1       386 9.28132E-05-2.78594E-05-2.78370E-05-9.34846E-07 9.06160E-19-3.91089E-19
 -1       387 9.31077E-05-2.79732E-05-2.79151E-05-9.08526E-07 9.57064E-19-6.14970E-19
 -1       388 9.34176E-05-2.80783E-05-2.80032E-05-8.32198E-07 2.14284E-19-1.60790E-19
 -1       389 9.37159E-05-2.81715E-05-2.80912E-05-7.31921E-07 8.43811E-19-4.77083E-19
 -1       390 9.39880E-05-2.82512E-05-2.81737E-05-6.24797E-07 7.99748E-19-7.09698E-19
 -1       391 9.42281E-05-2.83178E-05-2.82480E-05-5.22042E-07 1.21501E-18-8.78749E-19
 -1       392 9.44356E-05-2.83723E-05-2.83135E-05-4.31025E-07 6.53590E-19-1.14429E-18
 -1       393 9.46142E-05-2.84165E-05-2.83709E-05-3.56724E-07-3.54087E-20-1.50149E-18
 -1       394 9.47705E-05-2.84528E-05-2.84222E-05-3.02795E-07 1.78691E-19-1.85968E-18
 -1       395 9.49131E-05-2.84838E-05-2.84698E-05-2.72398E-07 7.31635E-19-1.56439E-18
 -1       396 9.50527E-05-2.85123E-05-2.85172E-05-2.68842E-07 5.25346E-19-1.00338E-18
 -1       397 9.52018E-05-2.85417E-05-2.85683E-05-2.96089E-07-5.37327E-19-1.40085E-18
 -1       398 9.53753E-05-2.85758E-05-2.86277E-05-3.59148E-07-7.14738E-19-1.77210E-18
 -1       399 9.55904E-05-2.86190E-05-2.87010E-05-4.64356E-07-2.46622E-20-1.90834E-18
 -1       400 9.58673E-05-2.86766E-05-2.87945E-05-6.19521E-07 1.04183E-18-1.73889E-18
 -1       401 9.62296E-05-2.87550E-05-2.89157E-05-8.33876E-07 1.79229E-19-1.04620E-18
 -1       402 9.67044E-05-2.88616E-05-2.90729E-05-1.11770E-06-1.00190E-18-7.76251E-19
 -1       403 9.73223E-05-2.90059E-05-2.92753E-05-1.48140E-06-4.41740E-19-1.41928E-19
 -1       404 9.81169E-05-2.91991E-05-2.95324E-05-1.93364E-06-9.98340E-19-5.34114E-19
 -1       405 9.91232E-05-2.94550E-05-2.98535E-05-2.47789E-06 1.38041E-19 5.07551E-19
 -1       406 1.00375E-04-2.97910E-05-3.02457E-05-3.10632E-06 1.12164E-18-5.66067E-19
 -1       407 1.01899E-04-3.02288E-05-3.07116E-05-3.78969E-06 7.09314E-19 4.65204E-20
 -1       408 1.03708E-04-3.07964E-05-3.12451E-05-4.46148E-06 3.21441E-19 1.60468E-19
 -1       409 1.05789E-04-3.15279E-05-3.18265E-05-4.99531E-06-2.10534E-19-3.48316E-19
 -1       410 1.08085E-04-3.24603E-05-3.24157E-05-5.17783E-06-4.74461E-19-1.48259E-18
 -1       411 1.10469E-04-3.36169E-05-3.29483E-05-4.68854E-06-8.78863E-20-6.61422E-19
 -1       412 1.12704E-04-3.49616E-05-3.33374E-05-3.11690E-06 1.58479E-18 8.18860E-19
 -1       413 1.14392E-04-3.63045E-05-3.34899E-05-7.73458E-08 6.57460E-19 6.89684E-19
 -1       414 1.14925E-04-3.71718E-05-3.33458E-05 4.49628E-06-5.34680E-19 1.40016E-18
 -1       415 1.13548E-04-3.67599E-05-3.29231E-05 9.86693E-06-2.90439E-18 2.40282E-18
 -1       416 1.09766E-04-3.43137E-05-3.23459E-05 1.41107E-05-2.39099E-18 1.83210E-18
 -1       417 1.04114E-04-3.00087E-05-3.17716E-05 1.45622E-05-1.86674E-18 2.92735E-18
 -1       418 9.87434E-05-2.57836E-05-3.12810E-05 9.70464E-06 8.08440E-19 4.35364E-18
 -1       419 9.63467E-05-2.43368E-05-3.08687E-05 1.35210E-06 1.77939E-18 3.73900E-18
 -1       420 9.76982E-05-2.64772E-05-3.05196E-05-5.92676E-06 1.56379E-18 2.11602E-18
 -1       421 1.00863E-04-3.02160E-05-3.02679E-05-8.50237E-06 3.39264E-18 3.20946E-20
 -1       422 1.03171E-04-3.28835E-05-3.01238E-05-6.34062E-06 3.18103E-18-1.51927E-18
 -1       423 1.03317E-04-3.33240E-05-3.00112E-05-2.01587E-06 7.00129E-19-2.57254E-18
 -1       424 1.01526E-04-3.19286E-05-2.98422E-05 1.70271E-06 3.88552E-19-1.97616E-18
 -1       425 9.87844E-05-2.97424E-05-2.95966E-05 3.18296E-06-7.29143E-20-1.89460E-18
 -1       426 9.70787E-05-2.83747E-05-2.94406E-05 3.02392E-06 5.15458E-20 3.70478E-19
 -1       427 9.75591E-05-2.45404E-05-3.12757E-05 1.56515E-05-2.20283E-18 2.07143E-18
 -1       428 9.86724E-05-2.73951E-05-3.05312E-05 1.01842E-05-1.26902E-18 1.58268E-18
 -1       429 9.78758E-05-2.79274E-05-2.99636E-05 6.03593E-06-1.60027E-18-8.42181E-19
 -1       430 9.39814E-05-1.94705E-05-3.19289E-05 1.96102E-05-2.19543E-18-9.43428E-19
 -1       431 8.79883E-05-1.24715E-05-3.23755E-05 1.92801E-05-6.68711E-19 3.40847E-18
 -1       432 8.18086E-05-5.84329E-06-3.25770E-05 1.26049E-05 5.09014E-19 3.04612E-18
 -1       433 7.88868E-05-2.83029E-06-3.26235E-05 8.27661E-07-1.92637E-19 1.69856E-18
 -1       434 8.10333E-05-5.11059E-06-3.25524E-05-1.13581E-05 8.00372E-19-5.41261E-19
 -1       435 8.70729E-05-1.15633E-05-3.23713E-05-1.90078E-05 4.85295E-19-2.54546E-18
 -1       436 9.32377E-05-1.86588E-05-3.19596E-05-2.02116E-05 1.65111E-18-3.26351E-18
 -1       437 9.74546E-05-2.43517E-05-3.13149E-05-1.65819E-05 1.75603E-18 2.77213E-18
 -1       438 9.90159E-05-2.76538E-05-3.05567E-05-1.09021E-05 1.72063E-18 1.11279E-18
 -1       439 9.85882E-05-2.89353E-05-2.98240E-05-5.49694E-06 3.93893E-20-4.38394E-19
 -1       440 6.91221E-05-4.92932E-05-8.65655E-06 4.90287E-05-1.11057E-18 2.52969E-18
 -1       441 1.59585E-05-2.32175E-05 3.18421E-06 7.63420E-07-2.74072E-18 1.71450E-18
 -1       442 2.90217E-05-2.89767E-05 2.38427E-07 2.97735E-05-1.42741E-18 3.52143E-18
 -1       443 1.10425E-04-6.06887E-05-2.13320E-05 4.67379E-05-4.92232E-19-1.43768E-18
 -1       444 1.42255E-04-6.13187E-05-3.47333E-05 3.07439E-05 1.23264E-18-2.76228E-18
 -1       445 8.93637E-05-1.18974E-05-3.32659E-05-1.06460E-05-2.69785E-18-4.47477E-18
 -1       446 1.66372E-04-2.15596E-05-6.17776E-05 2.74016E-06 1.09881E-18-1.13873E-18
 -1       447 1.68271E-04-1.42226E-05-6.56645E-05 4.92413E-06 8.59527E-19-2.41228E-18
 -1       448 1.60600E-04-1.78322E-05-6.12720E-05 1.00795E-05 2.46889E-18-2.80326E-18
 -1       449 1.63409E-04-3.95774E-05-5.28926E-05-4.43123E-07 3.15610E-18-3.61482E-18
 -1       450 1.47601E-04-5.55126E-05-3.94024E-05-1.59366E-05 1.62996E-18-2.48678E-18
 -1       451 1.14509E-04-6.13712E-05-2.28191E-05-3.51455E-05 9.36924E-19-2.06575E-18
 -1       452 7.07892E-05-5.06552E-05-8.91788E-06-4.19933E-05 3.20496E-19-3.44574E-18
 -1       453 3.38362E-05-3.78473E-05 1.37389E-06-3.25517E-05 4.78679E-19-2.97690E-18
 -1       454 1.30249E-05-3.00673E-05 6.88806E-06-9.31480E-06-1.48792E-18-4.18773E-18
 -1       455 1.61075E-05-2.82439E-05 5.03004E-06 1.68559E-05-1.22608E-18-7.45865E-18
 -1       456 4.51132E-05-3.92256E-05-2.42707E-06 3.97966E-05-4.54010E-19-4.13135E-18
 -1       457 8.26664E-05-5.35421E-05-1.24686E-05 4.45700E-05-5.66453E-20 5.75969E-19
 -1       458 1.27434E-04-6.16496E-05-2.81558E-05 3.00174E-05-2.17317E-18 1.84330E-18
 -1       459 1.54187E-04-4.78127E-05-4.55939E-05 9.36677E-06-5.10615E-18 3.61800E-18
 -1       460 1.67390E-04-3.11257E-05-5.80426E-05 3.75358E-07-3.33546E-18 1.35949E-18
 -1       461 1.59196E-04-1.40532E-05-6.23317E-05-7.62314E-06-4.71797E-19-2.74862E-19
 -1       462 1.60966E-04-1.32869E-05-6.33576E-05-1.95945E-06 8.91502E-20-1.30999E-18
 -1       463 1.64831E-04-2.57685E-05-5.94589E-05-2.47655E-06 1.23847E-18 3.39025E-19
 -1       464 1.59575E-04-4.62314E-05-4.84080E-05-1.67959E-05-2.10861E-19-1.66781E-18
 -1       465 1.38826E-04-5.72174E-05-3.48994E-05-3.43548E-05-1.26420E-19-4.59304E-19
 -1       466 1.07529E-04-5.96483E-05-2.05605E-05-4.72646E-05-2.55327E-18-3.74172E-18
 -1       467 6.45415E-05-4.68150E-05-7.62785E-06-4.96588E-05 9.70382E-19-1.04582E-18
 -1       468 2.84032E-05-3.47224E-05 2.32784E-06-3.15898E-05-7.84776E-19 1.49342E-18
 -1       469 1.59346E-04-4.54499E-05-4.89989E-05 4.92985E-06 1.00532E-18-6.35486E-19
 -1       470 5.64078E-05-3.56994E-05-8.41832E-06 4.47954E-05-1.33545E-18 2.60346E-18
 -1       471 1.43984E-04-6.14345E-05-3.55901E-05 8.77560E-06-3.06124E-18 3.47135E-18
 -1       472 9.58239E-05-2.51494E-05-3.02749E-05 6.01572E-06 3.13743E-18 5.57660E-20
 -1       473 8.95372E-05-1.34010E-05-3.26489E-05-3.92443E-06-8.48372E-19-4.74214E-18
 -1       474 9.02409E-05-1.43606E-05-3.25414E-05-5.88453E-06-1.53389E-18-4.68594E-18
 -1       475 8.90383E-05-1.27199E-05-3.27257E-05 5.46031E-08 5.09341E-19-4.73817E-18
 -1       476 8.91738E-05-1.29035E-05-3.27053E-05 2.04533E-06 1.20547E-18-4.59148E-18
 -1       477 8.95691E-05-1.34410E-05-3.26455E-05 3.99762E-06 1.82022E-18-4.41056E-18
 -1       478 9.02939E-05-1.44281E-05-3.25350E-05 5.95121E-06 2.57218E-18-3.84762E-18
 -1       479 9.14427E-05-1.60070E-05-3.23527E-05 7.77832E-06 3.13912E-18-3.14330E-18
 -1       480 9.32335E-05-1.84791E-05-3.20578E-05 9.29343E-06 3.57225E-18-2.08078E-18
 -1       481 9.51169E-05-2.65792E-05-2.93554E-05 2.87183E-06 2.44102E-18-2.90802E-19
 -1       482 9.54678E-05-2.44256E-05-3.04364E-05-5.80988E-06-2.56504E-18-2.08437E-18
 -1       483 1.50587E-04-5.14504E-05-4.27556E-05 7.14234E-06 1.19027E-18-3.80672E-18
 -1       484 9.52689E-05-2.62179E-05-2.95852E-05-2.89333E-06-2.17140E-18-1.98146E-18
 -1       485 9.49198E-05-2.71615E-05-2.90358E-05-1.03072E-06-1.65716E-18-1.93004E-18
 -1       486 9.46444E-05-2.76942E-05-2.86914E-05 9.32352E-08-1.27513E-18-1.93549E-18
 -1       487 9.44877E-05-2.80210E-05-2.84852E-05 7.27043E-07-9.60024E-19-1.94626E-18
 -1       488 9.44320E-05-2.82326E-05-2.83711E-05 1.04387E-06-1.19133E-18-2.13103E-18
 -1       489 9.44471E-05-2.83735E-05-2.83174E-05 1.15834E-06-1.02145E-18-2.28883E-18
 -1       490 9.45058E-05-2.84675E-05-2.83024E-05 1.14832E-06-1.16470E-18-2.20348E-18
 -1       491 9.45874E-05-2.85285E-05-2.83113E-05 1.06685E-06-9.11437E-19-1.45162E-18
 -1       492 9.46781E-05-2.85658E-05-2.83342E-05 9.50095E-07-6.56066E-19-1.10671E-18
 -1       493 9.47691E-05-2.85856E-05-2.83647E-05 8.22634E-07-2.50835E-19-8.99784E-19
 -1       494 9.48558E-05-2.85925E-05-2.83988E-05 7.01193E-07-1.53528E-19-1.76803E-18
 -1       495 9.49367E-05-2.85896E-05-2.84347E-05 5.97304E-07-4.44645E-19-1.57511E-18
 -1       496 9.50123E-05-2.85792E-05-2.84715E-05 5.19289E-07-4.49632E-19-1.21586E-18
 -1       497 9.50850E-05-2.85625E-05-2.85097E-05 4.73748E-07-7.05422E-19-1.23245E-18
 -1       498 9.51584E-05-2.85406E-05-2.85505E-05 4.66678E-07-6.03033E-19-1.81075E-18
 -1       499 9.52373E-05-2.85139E-05-2.85956E-05 5.04305E-07-8.46779E-19-1.87987E-18
 -1       500 9.53274E-05-2.84829E-05-2.86474E-05 5.93639E-07-1.47288E-19-1.61037E-18
 -1       501 9.54356E-05-2.84480E-05-2.87086E-05 7.42779E-07 2.78743E-19-1.98317E-18
 -1       502 9.55702E-05-2.84104E-05-2.87822E-05 9.60895E-07 9.19555E-19-2.51435E-18
 -1       503 9.57402E-05-2.83722E-05-2.88713E-05 1.25784E-06 1.09197E-18-1.87803E-18
 -1       504 9.59567E-05-2.83374E-05-2.89788E-05 1.64319E-06 3.11820E-19-1.49099E-18
 -1       505 9.62321E-05-2.83130E-05-2.91071E-05 2.12458E-06-4.64967E-19-1.86570E-18
 -1       506 9.65815E-05-2.83111E-05-2.92575E-05 2.70485E-06-1.21690E-18-2.14647E-18
 -1       507 9.70232E-05-2.83514E-05-2.94294E-05 3.37778E-06-7.74412E-19-1.54867E-18
 -1       508 9.75812E-05-2.84656E-05-2.96195E-05 4.12165E-06-6.10803E-19-2.19520E-18
 -1       509 9.82880E-05-2.87024E-05-2.98212E-05 4.89020E-06 3.93243E-19-2.60937E-18
 -1       510 9.91901E-05-2.91338E-05-3.00234E-05 5.60038E-06 3.02125E-19-1.90091E-18
 -1       511 1.00353E-04-2.98590E-05-3.02119E-05 6.11705E-06 3.00936E-19-7.01531E-19
 -1       512 1.01863E-04-3.09992E-05-3.03724E-05 6.23613E-06 8.41709E-19-1.11547E-18
 -1       513 1.03818E-04-3.26679E-05-3.04976E-05 5.67194E-06-4.78353E-20-1.78817E-18
 -1       514 1.06275E-04-3.48908E-05-3.06008E-05 4.06558E-06 9.60139E-19-1.95799E-18
 -1       515 1.09143E-04-3.74546E-05-3.07344E-05 1.04746E-06 2.16418E-18-1.36315E-18
 -1       516 1.11982E-04-3.96698E-05-3.10032E-05-3.57696E-06 6.57493E-19 3.03597E-19
 -1       517 1.13838E-04-4.02374E-05-3.15535E-05-9.40236E-06-9.40753E-21 1.68847E-19
 -1       518 1.13425E-04-3.76228E-05-3.24948E-05-1.48477E-05 6.68412E-20-1.04649E-18
 -1       519 1.10160E-04-3.14876E-05-3.37475E-05-1.70604E-05-1.95724E-19-4.48863E-19
 -1       520 1.05466E-04-2.41823E-05-3.48859E-05-1.34719E-05-7.20812E-19 1.81677E-19
 -1       521 1.02753E-04-2.05129E-05-3.52856E-05-4.77907E-06-1.77746E-18 1.87721E-18
 -1       522 1.04030E-04-2.32645E-05-3.46568E-05 4.25460E-06-1.14731E-18 3.99528E-19
 -1       523 1.07478E-04-2.98907E-05-3.32863E-05 8.51227E-06 1.71153E-18-2.25328E-18
 -1       524 1.09670E-04-3.54902E-05-3.18083E-05 7.07467E-06 1.57718E-18-1.64535E-18
 -1       525 1.08870E-04-3.72668E-05-3.06940E-05 2.61296E-06 3.51168E-19-6.02945E-19
 -1       526 1.05567E-04-3.54152E-05-3.00629E-05-1.68878E-06-1.07050E-18 1.10787E-18
 -1       527 9.41470E-05-2.76877E-05-2.84790E-05-1.21744E-07 1.41453E-18-8.13111E-19
 -1       528 9.39708E-05-2.79346E-05-2.82999E-05-7.30811E-07 1.21523E-18-9.67362E-19
 -1       529 9.39405E-05-2.81060E-05-2.82145E-05-1.02791E-06 1.06061E-18-1.15552E-18
 -1       530 9.40036E-05-2.82320E-05-2.81880E-05-1.13018E-06 7.53240E-19-9.02780E-19
 -1       531 9.41195E-05-2.83264E-05-2.81974E-05-1.11412E-06 3.61802E-19-8.94642E-19
 -1       532 9.42595E-05-2.83972E-05-2.82272E-05-1.03073E-06 8.40988E-19-9.11353E-19
 -1       533 9.44051E-05-2.84492E-05-2.82674E-05-9.14308E-07 1.19035E-18-1.13242E-18
 -1       534 9.45455E-05-2.84861E-05-2.83117E-05-7.87898E-07 6.75274E-19-1.29630E-18
 -1       535 9.46751E-05-2.85110E-05-2.83565E-05-6.67009E-07 8.75202E-19-8.67459E-19
 -1       536 9.47926E-05-2.85262E-05-2.84003E-05-5.62202E-07 4.71923E-19-6.56822E-19
 -1       537 9.48993E-05-2.85339E-05-2.84426E-05-4.80976E-07 1.34116E-19-7.12779E-19
 -1       538 9.49988E-05-2.85355E-05-2.84844E-05-4.29202E-07 2.58813E-19-6.78021E-19
 -1       539 9.50964E-05-2.85326E-05-2.85274E-05-4.12217E-07 4.71942E-19 2.72739E-20
 -1       540 9.51987E-05-2.85264E-05-2.85737E-05-4.35668E-07 1.03341E-19-2.15033E-19
 -1       541 9.53139E-05-2.85180E-05-2.86265E-05-5.06155E-07-5.92098E-19-9.27113E-19
 -1       542 9.54516E-05-2.85087E-05-2.86893E-05-6.31681E-07-4.57844E-19-6.27290E-19
 -1       543 9.56228E-05-2.85003E-05-2.87661E-05-8.21918E-07 7.19591E-20-3.71878E-19
 -1       544 9.58404E-05-2.84946E-05-2.88614E-05-1.08821E-06 6.84465E-19-2.18757E-19
 -1       545 9.61188E-05-2.84950E-05-2.89803E-05-1.44323E-06-7.63059E-20-7.80017E-19
 -1       546 9.64744E-05-2.85059E-05-2.91276E-05-1.90004E-06-3.60374E-19-1.56072E-18
 -1       547 9.69253E-05-2.85349E-05-2.93080E-05-2.47032E-06-3.03335E-19-1.84821E-18
 -1       548 9.74914E-05-2.85939E-05-2.95250E-05-3.16109E-06-1.24850E-18-1.92384E-18
 -1       549 9.81954E-05-2.87024E-05-2.97799E-05-3.96926E-06 6.21190E-19-1.94469E-18
 -1       550 9.90636E-05-2.88930E-05-3.00703E-05-4.87275E-06 8.67487E-20-1.07430E-18
 -1       551 1.00130E-04-2.92187E-05-3.03881E-05-5.81669E-06-4.53845E-19 1.89127E-19
 -1       552 1.01442E-04-2.97632E-05-3.07181E-05-6.69333E-06 6.24832E-19 8.99339E-19
 -1       553 1.03067E-04-3.06496E-05-3.10372E-05-7.31509E-06 9.55174E-19 5.68604E-19
 -1       554 1.05100E-04-3.20369E-05-3.13180E-05-7.38389E-06-3.27237E-19 4.37972E-19
 -1       555 1.07644E-04-3.40772E-05-3.15394E-05-6.46940E-06-2.57131E-19 4.22360E-19
 -1       556 1.10733E-04-3.67819E-05-3.17101E-05-4.03198E-06 5.92087E-19 2.24191E-18
 -1       557 1.14127E-04-3.97424E-05-3.18980E-05 4.28717E-07 8.05467E-20 2.07925E-18
 -1       558 1.17017E-04-4.17750E-05-3.22669E-05 6.94141E-06-2.17376E-18 1.62061E-18
 -1       559 1.17904E-04-4.08893E-05-3.30201E-05 1.41908E-05-2.66924E-18 2.22405E-18
 -1       560 1.15252E-04-3.53990E-05-3.42774E-05 1.90405E-05-1.56402E-18 2.09333E-18
 -1       561 1.09819E-04-2.68810E-05-3.56244E-05 1.71923E-05-7.57704E-19 4.58285E-19
 -1       562 1.05485E-04-2.09528E-05-3.63294E-05 7.72957E-06 1.76697E-18 4.96333E-19
 -1       563 1.05884E-04-2.26265E-05-3.57787E-05-3.85054E-06 2.92742E-18-5.69218E-19
 -1       564 1.09716E-04-3.00729E-05-3.41912E-05-1.00626E-05 3.60018E-18-2.38649E-18
 -1       565 1.12475E-04-3.68796E-05-3.24242E-05-8.59090E-06 3.66368E-18-1.95165E-18
 -1       566 1.11634E-04-3.90585E-05-3.11230E-05-2.76072E-06 1.29528E-18 6.56307E-19
 -1       567 1.07870E-04-3.69289E-05-3.04240E-05 3.01837E-06 1.25071E-18 6.08792E-19
 -1       568 1.02905E-04-3.26234E-05-3.01258E-05 6.30684E-06 1.24288E-20 1.17656E-18
 -1       569 9.44066E-05-2.59355E-05-2.93126E-05 2.63865E-05 5.45488E-19 1.85906E-18
 -1       570 8.24506E-05-1.69209E-05-2.80266E-05 2.32091E-05-4.76492E-19 4.61945E-18
 -1       571 1.04658E-04-3.35771E-05-3.04465E-05 1.45878E-05-4.38744E-19 2.42987E-19
 -1       572 1.02266E-04-3.17827E-05-3.01888E-05 2.19175E-05-1.81082E-18 1.51746E-18
 -1       573 7.25117E-05-9.37051E-06-2.69968E-05 1.02422E-05-2.34665E-19 2.86211E-18
 -1       574 7.15878E-05-8.51552E-06-2.69340E-05-7.86530E-06-5.43418E-19 1.09560E-18
 -1       575 8.10521E-05-1.57675E-05-2.79378E-05-2.22064E-05-1.43246E-18-2.82444E-18
 -1       576 9.26288E-05-2.46437E-05-2.90808E-05-2.69285E-05 3.76856E-20-9.84097E-19
 -1       577 1.01669E-04-3.14760E-05-3.00651E-05-2.34554E-05 2.69030E-18-1.03719E-18
 -1       578 1.05145E-04-3.41772E-05-3.03947E-05-1.60466E-05 1.48707E-18 2.88115E-19
 -1       579 1.04212E-04-3.37415E-05-3.02075E-05-8.63821E-06-1.55456E-18-1.29586E-18
 -1       580 1.00870E-04-5.65808E-05-1.86341E-05 4.84261E-05-1.53466E-18-7.19210E-19
 -1       581 3.42664E-05-1.83682E-05-6.17326E-06-2.18947E-05-6.01552E-19 3.77883E-19
 -1       582 9.45244E-05-2.72948E-05-2.88040E-05 9.82141E-07 1.90772E-18-6.02882E-19
 -1       583 3.47434E-05-1.62112E-05-7.16919E-06 1.58296E-05-1.05466E-18 2.18556E-18
 -1       584 1.33161E-04-6.69039E-05-2.83357E-05 3.27581E-05-3.45060E-19-1.76892E-18
 -1       585 9.45986E-05-2.07649E-05-3.16616E-05-9.42046E-06-3.17950E-18-2.44621E-18
 -1       586 5.75496E-05-3.19965E-05-1.04194E-05-4.27283E-05 2.23008E-18-1.15186E-18
 -1       587 1.33962E-04-7.03343E-06-5.50601E-05-4.92911E-06 3.42519E-19-2.41162E-18
 -1       588 4.05840E-05-2.36681E-05-6.55155E-06 2.93575E-05 1.83216E-18-2.90368E-18
 -1       589 8.91538E-05-1.28784E-05-3.27075E-05-1.93656E-06-8.90725E-20-4.74890E-18
 -1       590 1.47373E-04-2.83829E-05-5.14871E-05 1.70668E-05 2.49695E-18-2.98669E-18
 -1       591 1.40988E-04-1.23451E-05-5.57720E-05-2.46125E-06 8.86632E-19-2.75556E-18
 -1       592 1.44049E-04-2.92142E-05-4.98010E-05-8.68458E-06 1.69391E-18-1.35531E-18
 -1       593 1.37342E-04-9.56191E-06-5.54617E-05 9.19093E-06 1.72308E-18-3.74753E-18
 -1       594 1.37582E-04-6.53718E-05-3.10515E-05-1.47287E-05 1.31264E-19-2.10467E-18
 -1       595 1.00066E-04-5.81069E-05-1.77513E-05-3.82765E-05-8.85838E-19-2.07542E-18
 -1       596 6.45166E-05-4.21749E-05-9.13388E-06-4.10997E-05 3.54007E-19-1.86633E-18
 -1       597 3.21689E-05-2.27372E-05-3.44544E-06-2.37671E-05-1.47640E-18-4.41664E-18
 -1       598 2.24576E-05-1.67058E-05-1.82950E-06-1.32351E-07-1.30592E-18-4.80024E-18
 -1       599 6.44932E-05-3.86968E-05-1.05293E-05 4.03162E-05 2.45264E-18-1.75145E-18
 -1       600 1.49589E-04-6.00195E-05-3.86097E-05-1.28266E-05-6.97843E-19-2.52363E-19
 -1       601 1.12858E-04-6.09722E-05-2.20715E-05 3.30734E-05 1.18828E-18 1.27641E-18
 -1       602 1.48758E-04-3.90530E-05-4.74514E-05-1.17209E-05-3.54430E-18 1.36404E-18
 -1       603 1.41347E-04-1.99229E-05-5.26353E-05-1.62573E-05-5.28019E-19-2.11748E-18
 -1       604 1.40427E-04-1.68536E-05-5.35804E-05 6.58934E-06-6.35275E-20-1.67932E-18
 -1       605 1.50897E-04-3.87356E-05-4.85126E-05 4.59291E-06 1.21433E-18 1.28839E-18
 -1       606 1.35011E-04-6.64950E-05-2.93100E-05-3.23882E-05-1.44911E-18 3.63509E-19
 -1       607 1.01048E-04-5.62230E-05-1.88579E-05-4.85167E-05 1.20437E-19-1.99511E-18
 -1       608 9.61641E-05-2.31914E-05-3.12776E-05 9.58093E-06 3.76722E-18 5.44344E-19
 -1       609 1.49731E-04-5.94570E-05-3.89047E-05 8.10214E-06 1.02916E-18 3.08267E-19
 -1       610 1.32298E-04-1.81407E-05-4.94796E-05 1.82996E-05 2.28297E-18-1.98777E-18
 -1       611 9.13647E-05-1.59057E-05-3.23626E-05-7.70436E-06-2.22347E-18-4.28158E-18
 -1       612 1.42626E-04-4.49302E-05-4.22395E-05-7.61757E-06 2.24930E-18 1.92462E-19
 -1       613 1.02562E-04-3.29665E-05-2.98258E-05-3.44044E-06-1.48377E-18 1.56824E-18
 -1       614 5.26613E-05-2.19697E-05-1.25443E-05 3.11101E-05-1.85926E-18 2.86742E-18
 -1       615 9.27803E-05-1.79475E-05-3.20917E-05-8.89189E-06-2.75440E-18-3.57241E-18
 -1       616 1.30423E-04-6.44518E-05-2.82826E-05 1.77564E-05-6.63650E-19 1.41076E-18
 -1       617 1.43745E-04-5.29455E-05-3.92895E-05-8.18095E-06-3.88618E-18 2.50928E-18
 -1       618 1.22998E-04-6.34946E-05-2.54098E-05-2.33039E-05-1.31976E-18-1.17572E-18
 -1       619 9.28573E-05-4.92381E-05-1.83028E-05 3.65636E-05 1.35271E-18 2.28139E-18
 -1       620 9.15499E-05-1.68489E-05-3.20203E-05 2.44005E-06 1.35737E-18-4.01527E-18
 -1       621 9.12909E-05-1.64468E-05-3.20814E-05 8.40361E-07 8.33237E-19-4.13801E-18
 -1       622 9.28892E-05-1.89983E-05-3.16732E-05 5.26375E-06 2.50487E-18-3.03876E-18
 -1       623 9.39881E-05-2.09328E-05-3.13172E-05 6.13910E-06 2.95674E-18-2.34476E-18
 -1       624 9.52734E-05-2.40947E-05-3.04950E-05 5.14680E-06 2.82132E-18-1.44950E-18
 -1       625 5.71231E-05-1.98262E-05-1.55256E-05-2.89307E-05-1.62899E-18-2.89140E-18
 -1       626 9.54299E-05-2.57296E-05-2.98739E-05-2.45278E-06-1.79414E-18-2.59607E-18
 -1       627 9.54783E-05-2.69483E-05-2.93692E-05-8.64309E-07-1.44474E-18-2.45892E-18
 -1       628 9.54197E-05-2.77075E-05-2.90194E-05 1.33923E-07-1.01733E-18-2.27551E-18
 -1       629 9.53432E-05-2.81796E-05-2.87844E-05 7.21394E-07-1.23253E-18-2.42027E-18
 -1       630 9.52786E-05-2.84708E-05-2.86319E-05 1.02213E-06-1.11199E-18-2.29384E-18
 -1       631 9.52331E-05-2.86445E-05-2.85381E-05 1.13325E-06-7.72389E-19-1.97646E-18
 -1       632 9.52055E-05-2.87401E-05-2.84853E-05 1.12529E-06-3.49306E-19-1.45707E-18
 -1       633 9.51915E-05-2.87836E-05-2.84607E-05 1.04851E-06-6.08937E-19-1.20950E-18
 -1       634 9.51872E-05-2.87919E-05-2.84553E-05 9.38296E-07-6.42490E-19-9.75357E-19
 -1       635 9.51895E-05-2.87765E-05-2.84628E-05 8.19292E-07-2.67838E-19-9.16940E-19
 -1       636 9.51959E-05-2.87450E-05-2.84791E-05 7.08690E-07-3.68633E-19-9.07948E-19
 -1       637 9.52053E-05-2.87017E-05-2.85016E-05 6.18727E-07-7.36593E-19-1.15904E-18
 -1       638 9.52168E-05-2.86490E-05-2.85291E-05 5.58616E-07-9.49529E-19-1.68743E-18
 -1       639 9.52302E-05-2.85875E-05-2.85611E-05 5.36018E-07-9.09428E-19-1.24964E-18
 -1       640 9.52457E-05-2.85167E-05-2.85981E-05 5.58152E-07-4.04374E-19-7.60779E-19
 -1       641 9.52638E-05-2.84351E-05-2.86408E-05 6.32585E-07-4.52842E-19-1.20002E-18
 -1       642 9.52854E-05-2.83408E-05-2.86905E-05 7.67730E-07-6.25188E-19-1.08698E-18
 -1       643 9.53116E-05-2.82320E-05-2.87483E-05 9.73046E-07-3.93169E-20-1.20829E-18
 -1       644 9.53442E-05-2.81079E-05-2.88154E-05 1.25888E-06 9.35857E-19-2.28738E-18
 -1       645 9.53858E-05-2.79691E-05-2.88926E-05 1.63591E-06 5.79902E-19-2.57045E-18
 -1       646 9.54405E-05-2.78200E-05-2.89799E-05 2.11398E-06-3.26955E-19-2.84827E-18
 -1       647 9.55154E-05-2.76704E-05-2.90760E-05 2.70025E-06-8.53111E-19-2.51368E-18
 -1       648 9.56223E-05-2.75396E-05-2.91779E-05 3.39640E-06-4.16049E-19-5.79042E-19
 -1       649 9.57821E-05-2.74609E-05-2.92800E-05 4.19453E-06-6.56783E-19-1.02435E-19
 -1       650 9.60305E-05-2.74898E-05-2.93741E-05 5.07163E-06-4.48229E-20 7.94290E-20
 -1       651 9.64280E-05-2.77121E-05-2.94492E-05 5.98180E-06 3.48947E-19-1.05013E-19
 -1       652 9.70733E-05-2.82549E-05-2.94933E-05 6.84561E-06 5.44395E-19-2.44780E-19
 -1       653 9.81185E-05-2.92921E-05-2.94971E-05 7.53483E-06 6.74025E-19-9.00344E-19
 -1       654 9.97809E-05-3.10364E-05-2.94625E-05 7.84922E-06 7.14139E-19 3.57828E-21
 -1       655 1.02330E-04-3.36886E-05-2.94198E-05 7.48094E-06-6.95370E-20 1.87139E-18
 -1       656 1.06004E-04-3.72942E-05-2.94496E-05 5.98566E-06 1.29020E-18 1.59105E-18
 -1       657 1.10819E-04-4.14979E-05-2.97163E-05 2.75864E-06 1.22350E-18 6.76663E-19
 -1       658 1.16108E-04-4.49987E-05-3.04856E-05-2.71747E-06 1.24402E-19 8.59863E-19
 -1       659 1.20206E-04-4.53887E-05-3.20814E-05-1.02379E-05-7.73367E-19 2.48950E-19
 -1       660 1.20363E-04-3.98469E-05-3.45274E-05-1.71738E-05-6.30798E-19-2.36959E-18
 -1       661 1.15677E-04-2.81159E-05-3.76797E-05-1.92062E-05-6.01698E-19-2.97095E-18
 -1       662 1.10403E-04-1.73647E-05-4.01150E-05-1.16808E-05-1.41862E-18-2.91838E-18
 -1       663 1.10731E-04-1.75444E-05-4.01226E-05 1.17957E-06-2.12177E-18-2.42105E-18
 -1       664 1.14744E-04-2.66252E-05-3.79221E-05 9.51186E-06-2.10717E-18-2.70696E-18
 -1       665 1.19215E-04-3.80227E-05-3.48782E-05 8.43689E-06 1.83224E-18-3.10699E-18
 -1       666 1.18450E-04-4.30815E-05-3.23404E-05 2.03513E-06 8.09022E-19-4.17190E-18
 -1       667 1.13484E-04-4.15121E-05-3.08448E-05-4.52164E-06 7.08570E-19-3.47131E-18
 -1       668 9.49839E-05-2.81161E-05-2.86574E-05-7.36690E-07 1.30961E-18-1.43988E-18
 -1       669 4.61996E-05-1.18930E-05-1.40530E-05-1.12586E-06-4.81118E-19 2.61590E-18
 -1       670 9.50950E-05-2.77099E-05-2.88787E-05-1.28356E-07 1.39537E-18-1.23035E-18
 -1       671 9.49008E-05-2.85286E-05-2.84453E-05-1.15704E-06 6.76903E-19-1.21740E-18
 -1       672 9.49089E-05-2.86226E-05-2.84086E-05-1.14711E-06 4.71446E-19-1.40575E-18
 -1       673 9.49350E-05-2.86732E-05-2.83981E-05-1.06682E-06 8.40035E-19-1.02660E-18
 -1       674 9.49709E-05-2.86941E-05-2.84046E-05-9.52120E-07 1.00357E-18-9.02449E-19
 -1       675 9.50111E-05-2.86944E-05-2.84216E-05-8.27769E-07 6.59872E-19-6.52091E-19
 -1       676 9.50524E-05-2.86802E-05-2.84454E-05-7.10896E-07 3.95923E-19-5.77607E-19
 -1       677 9.50934E-05-2.86555E-05-2.84735E-05-6.13553E-07 9.12433E-20-3.14985E-19
 -1       678 9.51339E-05-2.86224E-05-2.85050E-05-5.44684E-07 1.58893E-20-1.31989E-19
 -1       679 9.51750E-05-2.85820E-05-2.85399E-05-5.11666E-07-7.65225E-20 2.82643E-20
 -1       680 9.52185E-05-2.85340E-05-2.85790E-05-5.21461E-07 2.87945E-19 3.65897E-19
 -1       681 9.52667E-05-2.84777E-05-2.86238E-05-5.81495E-07-1.51591E-20 2.99072E-19
 -1       682 9.53225E-05-2.84117E-05-2.86759E-05-7.00291E-07-5.69936E-19-7.39991E-20
 -1       683 9.53895E-05-2.83343E-05-2.87377E-05-8.87865E-07-3.62539E-19-3.47708E-19
 -1       684 9.54714E-05-2.82438E-05-2.88115E-05-1.15585E-06 6.43141E-19 1.86860E-20
 -1       685 9.55725E-05-2.81393E-05-2.88995E-05-1.51729E-06 4.89315E-19 9.16103E-19
 -1       686 9.56976E-05-2.80212E-05-2.90036E-05-1.98600E-06 1.37590E-19 9.94370E-19
 -1       687 9.58524E-05-2.78927E-05-2.91249E-05-2.57521E-06 2.03320E-19 3.64959E-19
 -1       688 9.60442E-05-2.77625E-05-2.92628E-05-3.29539E-06-9.85096E-19-3.00088E-19
 -1       689 9.62844E-05-2.76486E-05-2.94144E-05-4.15064E-06 5.21668E-19-1.34750E-18
 -1       690 9.65924E-05-2.75856E-05-2.95732E-05-5.13323E-06-5.17823E-20-1.16017E-18
 -1       691 9.70041E-05-2.76350E-05-2.97285E-05-6.21547E-06-5.42074E-19-1.35464E-18
 -1       692 9.75860E-05-2.79004E-05-2.98643E-05-7.33787E-06-4.02240E-19-9.74834E-19
 -1       693 9.84576E-05-2.85469E-05-2.99613E-05-8.39185E-06 6.32436E-19-1.03981E-18
 -1       694 9.98195E-05-2.98161E-05-3.00023E-05-9.19426E-06 2.76772E-19 2.20244E-19
 -1       695 1.01978E-04-3.20180E-05-2.99857E-05-9.44885E-06-9.79920E-19-1.23369E-19
 -1       696 1.05328E-04-3.54484E-05-2.99541E-05-8.68832E-06-2.61405E-19-3.40765E-19
 -1       697 1.10202E-04-4.01332E-05-3.00399E-05-6.22386E-06 7.66000E-19 2.28831E-19
 -1       698 1.16496E-04-4.52900E-05-3.05177E-05-1.15991E-06-1.01496E-18 8.01487E-19
 -1       699 1.22804E-04-4.83406E-05-3.19335E-05 7.29374E-06-2.41920E-18-4.25488E-19
 -1       700 1.25802E-04-4.53109E-05-3.46712E-05 1.68690E-05-1.46240E-18-4.35790E-19
 -1       701 1.22872E-04-3.38076E-05-3.84149E-05 2.21517E-05-3.80331E-19-1.46900E-18
 -1       702 1.14060E-04-1.53377E-05-4.27080E-05 1.33071E-06 2.28281E-18-2.92985E-18
 -1       703 1.18669E-04-2.57035E-05-4.01132E-05-1.01032E-05 4.16039E-18-2.08416E-18
 -1       704 1.23315E-04-3.94711E-05-3.61129E-05-1.04141E-05 2.94568E-18-1.51730E-18
 -1       705 1.22601E-04-4.61734E-05-3.28029E-05-2.42296E-06 1.29182E-18-7.60043E-19
 -1       706 1.16527E-04-4.41540E-05-3.10260E-05 5.77207E-06 2.76242E-19-1.44221E-18
 -1       707 1.10980E-04-3.99634E-05-3.04405E-05 1.15665E-05-8.35020E-19 1.42700E-19
 -1       708 5.87823E-05-1.00972E-05-2.04838E-05 2.11730E-06-2.42872E-18 2.29808E-18
 -1       709 1.08923E-04-3.79820E-05-3.03869E-05-7.25627E-06 2.55956E-19-1.71445E-18
 -1       710 9.03512E-05-3.12883E-05-2.51450E-05 3.33480E-05-2.29334E-19 1.48875E-18
 -1       711 6.97470E-05-1.78142E-05-2.20046E-05 2.47469E-05-8.26261E-19 3.41173E-18
 -1       712 9.52342E-05-2.70425E-05-2.92229E-05 9.23246E-07 1.72622E-18-1.18683E-18
 -1       713 1.04909E-04-4.00071E-05-2.77726E-05-3.06048E-05 1.93759E-20 5.22555E-19
 -1       714 1.12288E-04-4.28194E-05-2.97529E-05-2.07247E-05 2.08457E-18 8.23885E-19
 -1       715 1.22701E-04-1.37360E-05-4.72841E-05-1.42172E-05-2.26952E-19-4.44960E-18
 -1       716 1.23196E-04-6.07442E-05-2.66182E-05-3.43248E-05-1.73581E-18 2.11630E-18
 -1       717 9.45756E-05-2.21924E-05-3.10209E-05-6.15083E-06-2.50922E-18-2.91557E-18
 -1       718 1.19131E-04-5.93810E-05-2.54388E-05 3.66035E-05 1.12491E-18 2.21831E-19
 -1       719 1.26493E-04-1.93404E-05-4.64489E-05-8.03684E-06 2.44147E-18-1.59746E-18
 -1       720 5.89363E-05-2.93939E-05-1.21175E-05-3.18064E-05-9.87932E-19-3.03206E-18
 -1       721 9.49218E-05-2.83707E-05-2.85219E-05-1.04484E-06 7.33916E-19-1.25148E-18
 -1       722 9.51340E-05-2.42468E-05-3.03788E-05-4.07451E-06-2.03397E-18-2.75483E-18
 -1       723 9.20751E-05-1.76759E-05-3.18912E-05 3.94858E-06 1.95522E-18-3.57372E-18
 -1       724 8.72839E-05-4.14382E-05-1.92422E-05-4.40794E-05-1.66892E-19 1.06472E-18
 -1       725 9.53405E-05-2.59447E-05-2.97376E-05 2.60210E-06 2.36067E-18-1.34911E-18
 -1       726 9.20400E-05-1.76239E-05-3.18983E-05-3.89689E-06-1.10687E-18-4.15543E-18
 -1       727 1.40875E-04-5.85864E-05-3.54708E-05 4.53733E-06-7.17662E-20-3.93166E-18
 -1       728 1.40371E-04-4.04448E-05-4.32212E-05 1.97358E-05 1.45928E-18-2.15220E-18
 -1       729 4.02341E-05-1.47129E-05-1.03422E-05 1.06792E-05 3.80192E-19-3.31756E-18
 -1       730 8.34891E-05-4.48995E-05-1.61887E-05-3.65168E-05-1.08312E-18-5.86253E-19
 -1       731 6.22311E-05-2.98428E-05-1.34447E-05 3.29279E-05 2.38694E-18-1.41611E-18
 -1       732 3.85282E-05-1.58281E-05-9.23087E-06-1.32341E-05-6.71088E-19-4.28514E-18
 -1       733 1.43782E-04-5.06495E-05-4.02050E-05 2.60734E-06-6.71949E-19 3.41984E-18
 -1       734 8.38557E-05-4.04692E-05-1.81743E-05 4.42691E-05-1.06554E-18 4.98876E-19
 -1       735 1.33438E-04-2.97063E-05-4.49648E-05 1.10486E-05-1.78705E-18 8.52909E-19
 -1       736 1.32980E-04-3.30436E-05-4.32713E-05-2.03379E-05-1.31256E-18-2.60211E-18
 -1       737 1.39374E-04-6.33770E-05-3.26428E-05 1.55540E-05 5.68161E-19 4.22370E-18
 -1       738 1.38317E-04-6.40408E-05-3.18951E-05-1.96491E-05-1.99139E-18 1.49803E-18
 -1       739 1.22482E-04-1.16789E-05-4.80088E-05 3.06580E-06-1.80857E-18-2.32797E-18
 -1       740 9.28480E-05-1.89252E-05-3.16851E-05-5.22084E-06-1.71739E-18-3.95113E-18
 -1       741 9.12839E-05-1.64374E-05-3.20824E-05-7.83663E-07 1.09674E-19-4.26135E-18
 -1       742 1.38143E-04-5.40185E-05-3.62260E-05-7.46266E-07 2.82423E-18 5.92910E-19
 -1       743 1.06384E-04-4.04686E-05-2.81482E-05 2.86402E-05 1.03008E-19 2.86137E-18
 -1       744 1.16570E-04-1.97311E-05-4.18129E-05 1.63625E-05 3.63562E-20-2.80270E-18
 -1       745 1.11096E-04-4.16206E-05-2.97951E-05 1.98544E-05 2.83858E-19 1.53971E-19
 -1       746 8.69576E-05-2.78502E-05-2.52240E-05-3.24946E-05-1.35573E-18-4.47260E-19
 -1       747 1.15062E-04-4.36747E-05-3.05790E-05-1.18720E-05 8.00712E-19-2.79904E-18
 -1       748 1.11506E-04-5.70705E-05-2.31180E-05 2.75811E-05 1.47281E-18-3.15354E-19
 -1       749 1.36146E-04-5.99663E-05-3.27253E-05 1.05990E-06-2.13461E-18 2.11986E-18
 -1       750 9.15273E-05-1.68172E-05-3.20241E-05-2.37858E-06-4.83583E-19-4.15459E-18
 -1       751 1.20702E-04-1.28903E-05-4.66789E-05 9.58422E-06 1.42529E-18-3.76175E-18
 -1       752 1.33833E-04-6.26753E-05-3.04817E-05-5.83163E-06-2.02530E-18-2.04765E-18
 -1       753 1.06324E-04-5.47769E-05-2.19379E-05-2.84992E-05-1.11250E-18-1.09104E-18
 -1       754 1.21485E-04-1.22562E-05-4.74538E-05 1.74510E-06 1.27510E-18-2.53436E-18
 -1       755 9.46712E-05-2.27650E-05-3.08140E-05 3.90467E-06 2.19283E-18-2.40273E-18
 -1       756 5.00470E-05-1.33466E-05-1.52310E-05 1.29161E-05-1.37228E-18 1.70561E-18
 -1       757 1.28544E-04-2.98575E-05-4.26564E-05-1.13169E-05 3.99140E-18-1.86546E-19
 -1       758 1.11790E-04-5.45494E-05-2.42353E-05-3.95232E-05-7.64712E-19 9.31161E-19
 -1       759 1.28066E-04-5.78868E-05-3.00395E-05-2.10222E-05-6.33172E-19 3.83130E-19
 -1       760 9.58626E-05-2.68832E-05-2.95626E-05-5.85733E-07-1.01923E-18-2.64669E-18
 -1       761 9.59595E-05-2.77753E-05-2.92218E-05 2.18522E-07-1.10544E-18-2.57072E-18
 -1       762 9.59491E-05-2.83378E-05-2.89763E-05 6.94868E-07-1.06947E-18-2.24513E-18
 -1       763 9.58890E-05-2.86792E-05-2.88042E-05 9.38838E-07-6.77998E-19-2.10112E-18
 -1       764 9.58089E-05-2.88716E-05-2.86875E-05 1.02534E-06-1.59504E-19-1.87586E-18
 -1       765 9.57244E-05-2.89636E-05-2.86118E-05 1.01207E-06-2.83098E-19-1.22383E-18
 -1       766 9.56432E-05-2.89884E-05-2.85664E-05 9.41710E-07-2.58902E-19-7.32953E-19
 -1       767 9.55692E-05-2.89686E-05-2.85431E-05 8.45060E-07-3.43136E-19-3.54155E-19
 -1       768 9.55033E-05-2.89194E-05-2.85360E-05 7.44038E-07-5.66570E-19-1.09909E-18
 -1       769 9.54451E-05-2.88500E-05-2.85408E-05 6.54275E-07-8.03806E-19-1.60051E-18
 -1       770 9.53932E-05-2.87656E-05-2.85547E-05 5.87265E-07-8.19796E-19-1.48426E-18
 -1       771 9.53452E-05-2.86680E-05-2.85760E-05 5.52029E-07-6.40078E-19-1.18397E-18
 -1       772 9.52983E-05-2.85567E-05-2.86035E-05 5.56405E-07-4.20891E-19-4.63001E-19
 -1       773 9.52490E-05-2.84292E-05-2.86370E-05 6.08037E-07-6.13821E-19-5.47528E-19
 -1       774 9.51934E-05-2.82821E-05-2.86762E-05 7.15037E-07-3.63491E-19-8.46623E-19
 -1       775 9.51272E-05-2.81113E-05-2.87211E-05 8.86371E-07-3.61119E-19-6.47453E-19
 -1       776 9.50460E-05-2.79129E-05-2.87713E-05 1.13197E-06-4.62053E-19-5.95024E-19
 -1       777 9.49453E-05-2.76845E-05-2.88260E-05 1.46250E-06 7.06256E-19-7.70551E-19
 -1       778 9.48216E-05-2.74267E-05-2.88835E-05 1.88886E-06 1.01517E-19-1.22964E-18
 -1       779 9.46735E-05-2.71453E-05-2.89406E-05 2.42117E-06-5.41208E-19-8.02921E-19
 -1       780 9.45040E-05-2.68553E-05-2.89922E-05 3.06742E-06-1.62219E-19-8.45882E-19
 -1       781 9.43247E-05-2.65852E-05-2.90311E-05 3.83167E-06-3.90864E-19-9.19468E-19
 -1       782 9.41614E-05-2.63850E-05-2.90469E-05 4.71191E-06 8.73048E-20 2.49188E-19
 -1       783 9.40649E-05-2.63354E-05-2.90268E-05 5.69738E-06-1.08379E-19 1.05241E-18
 -1       784 9.41256E-05-2.65603E-05-2.89563E-05 6.76500E-06 3.09101E-20 1.33359E-18
 -1       785 9.44944E-05-2.72410E-05-2.88225E-05 7.87287E-06-3.89514E-19 5.40066E-19
 -1       786 9.54105E-05-2.86263E-05-2.86212E-05 8.94633E-06 8.63458E-19-1.93670E-19
 -1       787 9.72312E-05-3.10306E-05-2.83705E-05 9.84386E-06 9.68067E-19-1.85939E-18
 -1       788 1.00445E-04-3.47827E-05-2.81410E-05 1.02574E-05 1.09624E-18-7.62768E-20
 -1       789 1.05578E-04-4.00371E-05-2.80859E-05 9.69464E-06 7.46660E-19-7.81586E-20
 -1       790 1.12866E-04-4.62717E-05-2.85397E-05 6.90412E-06 8.46896E-19 1.28997E-19
 -1       791 1.21707E-04-5.15672E-05-3.00704E-05 6.78663E-07-1.53199E-18-3.64075E-19
 -1       792 1.29090E-04-5.17716E-05-3.31907E-05-9.33220E-06-2.79536E-18-1.07091E-18
 -1       793 1.28560E-04-3.76130E-05-3.92189E-05 1.00570E-05-6.61877E-20-2.60185E-19
 -1       794 1.28110E-04-4.80312E-05-3.43681E-05 1.75992E-06 6.78129E-19-1.34228E-19
 -1       795 1.22625E-04-4.86633E-05-3.17496E-05-6.53989E-06 9.26191E-19-7.73430E-19
 -1       796 9.57298E-05-2.77505E-05-2.91340E-05-1.96823E-07 1.39914E-18-1.50976E-18
 -1       797 9.55051E-05-2.88679E-05-2.85589E-05-1.07129E-06 2.47300E-19-1.16998E-18
 -1       798 9.55654E-05-2.87744E-05-2.86247E-05-1.08365E-06 5.18670E-19-1.26579E-18
 -1       799 9.54087E-05-2.88936E-05-2.85065E-05-8.92833E-07 6.30044E-19-7.13208E-19
 -1       800 9.53723E-05-2.88596E-05-2.85055E-05-7.82778E-07 3.37069E-19-9.19475E-19
 -1       801 9.53426E-05-2.88073E-05-2.85152E-05-6.83042E-07 4.36560E-19-7.50080E-19
 -1       802 9.53181E-05-2.87417E-05-2.85328E-05-6.05529E-07 3.92769E-20-1.00476E-18
 -1       803 9.52973E-05-2.86646E-05-2.85569E-05-5.59484E-07-4.27962E-19-6.03046E-19
 -1       804 9.52784E-05-2.85759E-05-2.85868E-05-5.52896E-07 4.09137E-20-7.05873E-19
 -1       805 9.52596E-05-2.84736E-05-2.86226E-05-5.93519E-07-5.26277E-20-1.80781E-19
 -1       806 9.52385E-05-2.83545E-05-2.86645E-05-6.89681E-07-3.45687E-19 9.54223E-21
 -1       807 9.52124E-05-2.82144E-05-2.87134E-05-8.50798E-07-3.53939E-19 2.15782E-19
 -1       808 9.51781E-05-2.80487E-05-2.87697E-05-1.08762E-06-4.18432E-19 1.25137E-19
 -1       809 9.51319E-05-2.78528E-05-2.88338E-05-1.41222E-06 7.70229E-20 4.37612E-19
 -1       810 9.50693E-05-2.76231E-05-2.89054E-05-1.83756E-06 1.20653E-19 3.60517E-19
 -1       811 9.49858E-05-2.73587E-05-2.89829E-05-2.37679E-06 4.43875E-19 7.51486E-19
 -1       812 9.48775E-05-2.70635E-05-2.90630E-05-3.04194E-06 5.57898E-19 9.39941E-19
 -1       813 9.47436E-05-2.67503E-05-2.91397E-05-3.84218E-06 6.07598E-20-7.09525E-19
 -1       814 9.45901E-05-2.64475E-05-2.92036E-05-4.78159E-06 2.64071E-19-5.83974E-19
 -1       815 9.44385E-05-2.62089E-05-2.92409E-05-5.85641E-06 1.42911E-19-5.60870E-19
 -1       816 9.43399E-05-2.61292E-05-2.92327E-05-7.05209E-06-9.30462E-20-1.37950E-18
 -1       817 9.43989E-05-2.63656E-05-2.91566E-05-8.33916E-06-1.28992E-19-2.58523E-18
 -1       818 9.48097E-05-2.71639E-05-2.89907E-05-9.66531E-06-9.87233E-19-2.00188E-18
 -1       819 9.59067E-05-2.88834E-05-2.87248E-05-1.09353E-05-6.23496E-19-1.80977E-19
 -1       820 9.82207E-05-3.19971E-05-2.83826E-05-1.19596E-05-2.32943E-19-1.84166E-19
 -1       821 1.02510E-04-3.70041E-05-2.80721E-05-1.22962E-05 1.54723E-20-1.27930E-19
 -1       822 1.09517E-04-4.39968E-05-2.80757E-05-1.09990E-05-1.02344E-19 2.28222E-19
 -1       823 1.19572E-04-5.21839E-05-2.88702E-05-6.77965E-06-1.13035E-18-5.10870E-19
 -1       824 1.25834E-04-5.32173E-05-3.11444E-05 1.13417E-05 9.24060E-19 1.38101E-18
 -1       825 1.18824E-04-4.85926E-05-3.00776E-05 1.67603E-05 7.42808E-20 7.05731E-19
 -1       826 1.35599E-04-5.55059E-05-3.44336E-05-4.37198E-06 1.97875E-19 7.79581E-19
 -1       827 9.32001E-05-1.97761E-05-3.14686E-05 1.23318E-06 1.00372E-18-3.76597E-18
 -1       828 9.56963E-05-2.69183E-05-2.94768E-05 6.90329E-07 1.47027E-18-1.47353E-18
 -1       829 7.92482E-05-3.56371E-05-1.84153E-05-2.97064E-05-5.84135E-19 1.27095E-19
 -1       830 9.36671E-05-2.03843E-05-3.14068E-05-5.90248E-06-2.22874E-18-3.51108E-18
 -1       831 9.54527E-05-2.89008E-05-2.85223E-05-9.96735E-07 6.19477E-19-5.92074E-19
 -1       832 1.35411E-04-4.89096E-05-3.71976E-05 1.57957E-05-5.44219E-19 8.45458E-19
 -1       833 9.56203E-05-2.55548E-05-3.00265E-05-1.82325E-06-1.46773E-18-2.85918E-18
 -1       834 8.40477E-05-3.81840E-05-1.94554E-05 3.03399E-05 5.00014E-20-8.61234E-19
 -1       835 5.77164E-05-2.03865E-05-1.57475E-05 2.02596E-05 8.83211E-19-1.29505E-18
 -1       836 1.26500E-04-5.72462E-05-2.95910E-05 2.18538E-05 8.48241E-19 2.67671E-18
 -1       837 1.02808E-04-4.46978E-05-2.47424E-05 3.68070E-05-2.02917E-19 1.58117E-18
 -1       838 7.91929E-05-3.07424E-05-2.04962E-05 3.69986E-05-1.96240E-18 2.33347E-18
 -1       839 9.52054E-05-2.44735E-05-3.03136E-05 3.42285E-06 2.31943E-18-1.84513E-18
 -1       840 9.30903E-05-1.95776E-05-3.15065E-05 2.01911E-08 4.58327E-19-3.54019E-18
 -1       841 5.21331E-05-1.43223E-05-1.59351E-05 5.19757E-06 7.77582E-19-1.51583E-18
 -1       842 9.47048E-05-2.28632E-05-3.07884E-05-4.15285E-06-1.83633E-18-3.15634E-18
 -1       843 9.40168E-05-2.13158E-05-3.11575E-05-3.31155E-06-1.19243E-18-3.46788E-18
 -1       844 9.40199E-05-2.13500E-05-3.11452E-05 3.30706E-06 1.76820E-18-2.94118E-18
 -1       845 9.56305E-05-2.85906E-05-2.87314E-05-9.87627E-07 6.92254E-19-1.52895E-18
 -1       846 9.35160E-05-2.03621E-05-3.13530E-05 2.36298E-06 1.46333E-18-3.44683E-18
 -1       847 5.97347E-05-2.19523E-05-1.59127E-05-2.17089E-05-1.43440E-18-2.93298E-18
 -1       848 9.56921E-05-2.82719E-05-2.88944E-05-7.20045E-07 9.64963E-19-1.31415E-18
 -1       849 1.24588E-04-6.00831E-05-2.76123E-05 1.49462E-05-2.74902E-19-4.15451E-19
 -1       850 9.84130E-05-4.61332E-05-2.24071E-05 2.67270E-05-4.55413E-20 7.18509E-19
 -1       851 9.55472E-05-2.59317E-05-2.98367E-05 1.84178E-06 1.79638E-18-1.65406E-18
 -1       852 9.34926E-05-2.03238E-05-3.13590E-05-2.33135E-06-5.52684E-19-3.80713E-18
 -1       853 1.25833E-04-2.29364E-05-4.45803E-05 1.94189E-05 1.21433E-18-2.26916E-18
 -1       854 9.63641E-05-2.79272E-05-2.93302E-05 2.90274E-07-7.44829E-19-2.19210E-18
 -1       855 9.63851E-05-2.85195E-05-2.90853E-05 6.34030E-07-7.68671E-19-1.82909E-18
 -1       856 9.63218E-05-2.88738E-05-2.89063E-05 8.05276E-07-2.87249E-19-1.71561E-18
 -1       857 9.62143E-05-2.90630E-05-2.87791E-05 8.58776E-07 2.45325E-19-1.65926E-18
 -1       858 9.60876E-05-2.91395E-05-2.86921E-05 8.38196E-07-4.27447E-20-1.65762E-18
 -1       859 9.59570E-05-2.91404E-05-2.86357E-05 7.76528E-07-4.12695E-19-1.18896E-18
 -1       860 9.58307E-05-2.90911E-05-2.86027E-05 6.98011E-07-5.96107E-19-1.56699E-18
 -1       861 9.57124E-05-2.90082E-05-2.85875E-05 6.20131E-07-9.65219E-19-1.43370E-18
 -1       862 9.56021E-05-2.89016E-05-2.85859E-05 5.55655E-07-7.30108E-19-1.43742E-18
 -1       863 9.54975E-05-2.87760E-05-2.85949E-05 5.14303E-07-6.81395E-19-1.50577E-18
 -1       864 9.53945E-05-2.86323E-05-2.86124E-05 5.03997E-07 6.69286E-20-1.32257E-18
 -1       865 9.52871E-05-2.84682E-05-2.86367E-05 5.31961E-07-3.28409E-19-1.13350E-18
 -1       866 9.51683E-05-2.82794E-05-2.86667E-05 6.05491E-07-1.46669E-19-7.44103E-19
 -1       867 9.50298E-05-2.80603E-05-2.87012E-05 7.32437E-07-2.15261E-19-4.76163E-19
 -1       868 9.48622E-05-2.78047E-05-2.87389E-05 9.21502E-07 4.97004E-20-1.51250E-19
 -1       869 9.46556E-05-2.75072E-05-2.87779E-05 1.18233E-06 9.91557E-20 6.58331E-20
 -1       870 9.43999E-05-2.71646E-05-2.88151E-05 1.52538E-06 3.16569E-19-4.64199E-20
 -1       871 9.40859E-05-2.67779E-05-2.88463E-05 1.96165E-06-3.75511E-19-1.11276E-18
 -1       872 9.37072E-05-2.63555E-05-2.88650E-05 2.50232E-06-1.01683E-19-8.42341E-19
 -1       873 9.32631E-05-2.59175E-05-2.88624E-05 3.15849E-06 6.48976E-20-7.50659E-19
 -1       874 9.27633E-05-2.55012E-05-2.88266E-05 3.94140E-06 8.87089E-20-5.65943E-19
 -1       875 9.22355E-05-2.51699E-05-2.87424E-05 4.86343E-06 4.75419E-20-9.93273E-19
 -1       876 9.17367E-05-2.50231E-05-2.85915E-05 5.94048E-06 5.90759E-19-4.01420E-19
 -1       877 9.13712E-05-2.52107E-05-2.83543E-05 7.19502E-06-6.26545E-19-2.24017E-19
 -1       878 9.13170E-05-2.59511E-05-2.80135E-05 8.65751E-06 1.59810E-19-3.80818E-19
 -1       879 9.18660E-05-2.75503E-05-2.75625E-05 1.03597E-05-9.31325E-19-1.32491E-18
 -1       880 9.34721E-05-3.04168E-05-2.70215E-05 1.23179E-05 2.09759E-18-2.08910E-18
 -1       881 9.70711E-05-3.51357E-05-2.65482E-05 1.41532E-05 1.00630E-18-8.89736E-19
 -1       882 1.02990E-04-4.20369E-05-2.61712E-05 1.57752E-05 3.92117E-19-1.61961E-18
 -1       883 1.13706E-04-5.12384E-05-2.66765E-05 1.51572E-05-2.40736E-19-3.11587E-18
 -1       884 9.56276E-05-2.89728E-05-2.85664E-05-6.79688E-07 3.43035E-19-5.64537E-19
 -1       885 9.57231E-05-2.90407E-05-2.85782E-05-7.68367E-07 5.06470E-19-3.82941E-19
 -1       886 9.54595E-05-2.87757E-05-2.85788E-05-5.51624E-07-5.21539E-19-4.88598E-19
 -1       887 9.53813E-05-2.86524E-05-2.85981E-05-5.31362E-07-4.36194E-19 2.08422E-20
 -1       888 9.53014E-05-2.85111E-05-2.86244E-05-5.50790E-07-2.31043E-19-5.26393E-20
 -1       889 9.52137E-05-2.83479E-05-2.86568E-05-6.17525E-07-3.87870E-19-7.60045E-19
 -1       890 9.51112E-05-2.81570E-05-2.86947E-05-7.39790E-07-4.60400E-19-3.65935E-19
 -1       891 9.49856E-05-2.79315E-05-2.87374E-05-9.26715E-07-2.20479E-19-6.43937E-19
 -1       892 9.48269E-05-2.76643E-05-2.87840E-05-1.18844E-06 4.32572E-19-1.56930E-18
 -1       893 9.46240E-05-2.73484E-05-2.88324E-05-1.53596E-06 1.29706E-19-1.56730E-18
 -1       894 9.43645E-05-2.69789E-05-2.88795E-05-1.98071E-06-1.92458E-19-1.24626E-18
 -1       895 9.40352E-05-2.65547E-05-2.89202E-05-2.53397E-06-1.47404E-19-9.21061E-19
 -1       896 9.36239E-05-2.60819E-05-2.89465E-05-3.20624E-06 5.88019E-19-1.27059E-19
 -1       897 9.31221E-05-2.55788E-05-2.89470E-05-4.00688E-06 1.81591E-19 3.14256E-20
 -1       898 9.25302E-05-2.50835E-05-2.89056E-05-4.94483E-06 3.22621E-19 6.59635E-19
 -1       899 9.18671E-05-2.46653E-05-2.88006E-05-6.03121E-06 7.68074E-19-1.64199E-19
 -1       900 9.11866E-05-2.44416E-05-2.86047E-05-7.28509E-06 6.97697E-19-9.92131E-19
 -1       901 9.06045E-05-2.46020E-05-2.82864E-05-8.74268E-06-1.62581E-18-1.43431E-18
 -1       902 9.03438E-05-2.54415E-05-2.78150E-05-1.04661E-05-1.49470E-18-1.72610E-18
 -1       903 9.08072E-05-2.74007E-05-2.71757E-05-1.25330E-05-7.44794E-19-1.32634E-18
 -1       904 9.26558E-05-3.10981E-05-2.63806E-05-1.50179E-05-9.01963E-19-6.63414E-19
 -1       905 9.69980E-05-3.73584E-05-2.55540E-05-1.77736E-05 2.23481E-19-6.07998E-19
 -1       906 1.05704E-04-4.70196E-05-2.50556E-05-1.98483E-05-1.81341E-19-5.63621E-19
 -1       907 9.60557E-05-2.69572E-05-2.96137E-05 3.97751E-07 1.32503E-18-1.91881E-18
 -1       908 7.56369E-05-2.73561E-05-2.06249E-05 2.18085E-05-1.32003E-19-2.21448E-18
 -1       909 7.59242E-05-2.76812E-05-2.05589E-05-2.19879E-05-1.36675E-18-2.17497E-18
 -1       910 1.19126E-04-5.38674E-05-2.80647E-05-2.87110E-05 7.46408E-19 2.49038E-18
 -1       911 9.55404E-05-2.88829E-05-2.85675E-05-6.03938E-07 9.92000E-20-7.03843E-19
 -1       912 9.60442E-05-2.89821E-05-2.87409E-05-9.41891E-07 3.16173E-19-1.32197E-18
 -1       913 5.95992E-05-1.56748E-05-1.87250E-05-6.09688E-06 5.26742E-19-2.24595E-18
 -1       914 9.31927E-05-1.97615E-05-3.14713E-05-1.19491E-06-1.23363E-19-3.67527E-18
 -1       915 9.58068E-05-2.56056E-05-3.00856E-05-1.18632E-06-9.71442E-19-2.75076E-18
 -1       916 9.61997E-05-2.69986E-05-2.96577E-05-2.86167E-07-7.81538E-19-2.49326E-18
 -1       917 6.59329E-05-1.95045E-05-1.97943E-05 1.41151E-05-1.19067E-18-2.46347E-18
 -1       918 9.49609E-05-2.33255E-05-3.07035E-05-1.91728E-06-7.95969E-19-3.04397E-18
 -1       919 9.61914E-05-2.78652E-05-2.92827E-05-2.75873E-07 1.17394E-18-1.71717E-18
 -1       920 9.52411E-05-2.42206E-05-3.04392E-05 2.26862E-06 1.62636E-18-2.20594E-18
 -1       921 9.61393E-05-2.87915E-05-2.88634E-05-8.75912E-07 3.45179E-19-1.49014E-18
 -1       922 9.58267E-05-2.90768E-05-2.86071E-05-8.55926E-07 7.16970E-19-8.50518E-19
 -1       923 8.63485E-05-3.43511E-05-2.21884E-05 2.33859E-05-3.36992E-19-1.16336E-18
 -1       924 8.83034E-05-3.38197E-05-2.33010E-05-2.09733E-05 8.94939E-20-2.33967E-18
 -1       925 9.56894E-05-2.55536E-05-3.00568E-05 1.42937E-06 1.40245E-18-2.11747E-18
 -1       926 6.55774E-05-1.65824E-05-2.09611E-05 4.54274E-06-4.62323E-19-3.33693E-18
 -1       927 9.59358E-05-2.90653E-05-2.86588E-05-9.22722E-07 6.96698E-20-1.25461E-18
 -1       928 9.46795E-05-2.26066E-05-3.08892E-05 1.21716E-06 1.08176E-18-3.21770E-18
 -1       929 9.45397E-05-2.22710E-05-3.09723E-05 4.28874E-07 5.58914E-19-3.29177E-18
 -1       930 9.49337E-05-2.32613E-05-3.07174E-05 1.86589E-06 1.37699E-18-2.96083E-18
 -1       931 9.66700E-05-2.81506E-05-2.93655E-05 3.09745E-07-5.31814E-19-1.87394E-18
 -1       932 9.66892E-05-2.87212E-05-2.91292E-05 5.25451E-07-2.08118E-19-1.62896E-18
 -1       933 9.66092E-05-2.90529E-05-2.89527E-05 6.25981E-07-1.29407E-19-1.53684E-18
 -1       934 9.64743E-05-2.92170E-05-2.88246E-05 6.49052E-07 1.21401E-19-1.91314E-18
 -1       935 9.63139E-05-2.92662E-05-2.87348E-05 6.24461E-07-5.97054E-20-1.75979E-18
 -1       936 9.61463E-05-2.92377E-05-2.86751E-05 5.75043E-07-3.25933E-19-1.80577E-18
 -1       937 9.59815E-05-2.91575E-05-2.86389E-05 5.17721E-07-7.35293E-19-1.16182E-18
 -1       938 9.58236E-05-2.90418E-05-2.86208E-05 4.64796E-07-7.60681E-19-7.31564E-19
 -1       939 9.56722E-05-2.88996E-05-2.86168E-05 4.25561E-07-6.09581E-19-6.46656E-19
 -1       940 9.55234E-05-2.87346E-05-2.86238E-05 4.07239E-07-6.31909E-20-2.61448E-19
 -1       941 9.53707E-05-2.85457E-05-2.86393E-05 4.16023E-07-2.94860E-19-6.79887E-19
 -1       942 9.52050E-05-2.83289E-05-2.86612E-05 4.57926E-07 5.89894E-19-5.72674E-19
 -1       943 9.50159E-05-2.80779E-05-2.86877E-05 5.39177E-07 5.91046E-19-3.46312E-20
 -1       944 9.47907E-05-2.77852E-05-2.87167E-05 6.66617E-07 2.06329E-19 4.53593E-19
 -1       945 9.45154E-05-2.74428E-05-2.87455E-05 8.47971E-07-2.61844E-20 7.65079E-19
 -1       946 9.41751E-05-2.70442E-05-2.87705E-05 1.09199E-06-3.63361E-19-7.77471E-19
 -1       947 9.37543E-05-2.65857E-05-2.87866E-05 1.40855E-06 2.11163E-19-1.25462E-18
 -1       948 9.32383E-05-2.60691E-05-2.87869E-05 1.80881E-06-5.48545E-19-4.17087E-19
 -1       949 9.26152E-05-2.55050E-05-2.87616E-05 2.30574E-06-5.59725E-20-5.94151E-19
 -1       950 9.18782E-05-2.49167E-05-2.86979E-05 2.91531E-06-1.29258E-19 2.88467E-19
 -1       951 9.10300E-05-2.43462E-05-2.85790E-05 3.65902E-06-4.28002E-19-1.66006E-18
 -1       952 9.00887E-05-2.38609E-05-2.83836E-05 4.56881E-06 2.83011E-19-1.97472E-18
 -1       953 8.90965E-05-2.35631E-05-2.80861E-05 5.69547E-06 1.83601E-19-1.63302E-18
 -1       954 8.81352E-05-2.36036E-05-2.76570E-05 7.12078E-06-5.60731E-19-3.82711E-19
 -1       955 8.73519E-05-2.42010E-05-2.70654E-05 8.96997E-06-5.81110E-19-5.88998E-19
 -1       956 8.70022E-05-2.56716E-05-2.62867E-05 1.14348E-05-4.33737E-19-3.03520E-19
 -1       957 8.76784E-05-2.85135E-05-2.53489E-05 1.47968E-05 1.87795E-18-1.56609E-18
 -1       958 9.59221E-05-2.91320E-05-2.86243E-05-6.02050E-07 2.23312E-19-1.07113E-18
 -1       959 7.23171E-05-2.07851E-05-2.20529E-05-1.31223E-05-3.57269E-19-1.59878E-18
 -1       960 9.53879E-05-2.85863E-05-2.86293E-05-4.62480E-07-3.54433E-19-4.68862E-19
 -1       961 9.55188E-05-2.87560E-05-2.86126E-05-4.60484E-07-4.82209E-19-7.89931E-19
 -1       962 9.50880E-05-2.81641E-05-2.86817E-05-5.80990E-07-2.01900E-19-6.83267E-19
 -1       963 9.48975E-05-2.78976E-05-2.87143E-05-7.11227E-07 2.17063E-19-1.44950E-18
 -1       964 9.46623E-05-2.75822E-05-2.87486E-05-8.98820E-07-3.41860E-21-1.26944E-18
 -1       965 9.43666E-05-2.72090E-05-2.87818E-05-1.15204E-06-4.78066E-20-4.38388E-19
 -1       966 9.39925E-05-2.67697E-05-2.88098E-05-1.47950E-06-5.97278E-19-1.36549E-18
 -1       967 9.35205E-05-2.62591E-05-2.88263E-05-1.88988E-06 7.12902E-20-7.74559E-19
 -1       968 9.29299E-05-2.56771E-05-2.88227E-05-2.39173E-06-1.76604E-19-1.33162E-18
 -1       969 9.22004E-05-2.50324E-05-2.87864E-05-2.99373E-06 2.48029E-19-1.36735E-18
 -1       970 9.13141E-05-2.43471E-05-2.87002E-05-3.70631E-06 4.37213E-19-1.92018E-18
 -1       971 9.02592E-05-2.36635E-05-2.85411E-05-4.54580E-06 3.36039E-19-1.62764E-18
 -1       972 8.90364E-05-2.30532E-05-2.82786E-05-5.54322E-06 3.64702E-19-5.50716E-19
 -1       973 8.76691E-05-2.26304E-05-2.78737E-05-6.76045E-06-1.73470E-19-7.67804E-21
 -1       974 8.62223E-05-2.25722E-05-2.72784E-05-8.31573E-06-6.14767E-19-5.93024E-19
 -1       975 8.48349E-05-2.31502E-05-2.64359E-05-1.04229E-05-9.80455E-19-1.76661E-18
 -1       976 8.38462E-05-2.48158E-05-2.53024E-05-1.34066E-05-1.13414E-18-1.89861E-18
 -1       977 8.49462E-05-2.82025E-05-2.43186E-05-1.68848E-05-6.45433E-19-2.79372E-18
 -1       978 9.59438E-05-2.57776E-05-3.00718E-05 8.41137E-07 1.17537E-18-2.43739E-18
 -1       979 9.47087E-05-2.26533E-05-3.08808E-05-1.28917E-06-1.43226E-19-3.27765E-18
 -1       980 9.62002E-05-2.84432E-05-2.90388E-05-6.75000E-07 8.29962E-19-1.78959E-18
 -1       981 9.60853E-05-2.59274E-05-3.00672E-05-6.35538E-07-5.67923E-19-2.31996E-18
 -1       982 9.45392E-05-2.22677E-05-3.09735E-05-4.14420E-07 2.60601E-19-3.13047E-18
 -1       983 9.64875E-05-2.72452E-05-2.96752E-05-6.32689E-08-5.06720E-19-2.04274E-18
 -1       984 7.67423E-05-2.34863E-05-2.27711E-05 1.50896E-05 6.63855E-19 1.20854E-19
 -1       985 9.52476E-05-2.83911E-05-2.86528E-05-5.00429E-07-1.20709E-19-5.93175E-19
 -1       986 9.55152E-05-2.46211E-05-3.03801E-05 1.34307E-06 1.31514E-18-2.69096E-18
 -1       987 9.60707E-05-2.91992E-05-2.86592E-05-6.69538E-07 3.19039E-19-1.49116E-18
 -1       988 9.57815E-05-2.90307E-05-2.86075E-05-5.38067E-07 2.81164E-19-4.08756E-19
 -1       989 9.63623E-05-2.71444E-05-2.96647E-05 1.37630E-07 8.14526E-19-2.15242E-18
 -1       990 7.05244E-05-1.74469E-05-2.27146E-05-4.60488E-06-2.09773E-19-1.16725E-18
 -1       991 7.34476E-05-1.94138E-05-2.31500E-05 8.78242E-06 5.65653E-19-1.82121E-18
 -1       992 9.56483E-05-2.89042E-05-2.86046E-05-4.88057E-07-2.62319E-19-2.06257E-19
 -1       993 9.56028E-05-2.44831E-05-3.04795E-05 4.89848E-07 6.43642E-19-3.00336E-18
 -1       994 9.64904E-05-2.89787E-05-2.89337E-05-7.16438E-07 3.41281E-19-1.70224E-18
 -1       995 9.63685E-05-2.91543E-05-2.88061E-05-7.50012E-07 4.24332E-19-1.83853E-18
 -1       996 9.55473E-05-2.44806E-05-3.04565E-05 9.18868E-07 8.52671E-19-2.93187E-18
 -1       997 9.56748E-05-2.88741E-05-2.86289E-05-3.45911E-07-1.07458E-19-5.30679E-19
 -1       998 9.67363E-05-2.75974E-05-2.96311E-05 5.84708E-08-3.31112E-19-2.02077E-18
 -1       999 9.68752E-05-2.89243E-05-2.91218E-05 3.62781E-07-1.72702E-19-1.82801E-18
 -1      1000 9.67672E-05-2.92051E-05-2.89552E-05 4.07080E-07-1.48493E-20-1.42735E-18
 -1      1001 9.66050E-05-2.93270E-05-2.88335E-05 4.09905E-07-1.47333E-19-1.47490E-18
 -1      1002 9.64186E-05-2.93404E-05-2.87478E-05 3.88031E-07-9.58617E-20-1.45298E-18
 -1      1003 9.62247E-05-2.92795E-05-2.86908E-05 3.55242E-07-1.36828E-19-1.09563E-18
 -1      1004 9.60339E-05-2.91693E-05-2.86563E-05 3.20475E-07-7.65507E-19-1.62303E-18
 -1      1005 9.58487E-05-2.90236E-05-2.86394E-05 2.91396E-07-4.09978E-19-1.21259E-18
 -1      1006 9.56673E-05-2.88497E-05-2.86361E-05 2.73584E-07-3.41054E-19-1.10345E-18
 -1      1007 9.54837E-05-2.86494E-05-2.86433E-05 2.71111E-07 3.70999E-20-8.66267E-19
 -1      1008 9.52884E-05-2.84192E-05-2.86583E-05 2.88475E-07 3.73497E-19 1.09258E-19
 -1      1009 9.50703E-05-2.81535E-05-2.86787E-05 3.29840E-07 4.86255E-19 2.16305E-19
 -1      1010 9.48150E-05-2.78442E-05-2.87019E-05 3.99706E-07 2.23633E-19-7.60982E-19
 -1      1011 9.45064E-05-2.74818E-05-2.87250E-05 5.03291E-07 4.12485E-20-3.97189E-19
 -1      1012 9.41264E-05-2.70574E-05-2.87440E-05 6.46716E-07-9.68566E-19-1.03378E-18
 -1      1013 9.36553E-05-2.65634E-05-2.87539E-05 8.37258E-07-1.59348E-19-8.63358E-19
 -1      1014 9.30727E-05-2.59961E-05-2.87474E-05 1.08372E-06 1.49406E-19-2.13178E-18
 -1      1015 9.23583E-05-2.53578E-05-2.87148E-05 1.39706E-06-2.70982E-19-1.33375E-18
 -1      1016 9.14929E-05-2.46597E-05-2.86432E-05 1.79168E-06-7.18627E-21-1.65045E-18
 -1      1017 9.04600E-05-2.39253E-05-2.85153E-05 2.28765E-06-6.03625E-19-1.20580E-18
 -1      1018 8.92470E-05-2.31945E-05-2.83088E-05 2.91506E-06-7.10056E-19-7.04708E-19
 -1      1019 8.78461E-05-2.25265E-05-2.79950E-05 3.72150E-06 4.49795E-19-1.94614E-18
 -1      1020 8.62536E-05-2.20040E-05-2.75369E-05 4.78584E-06-1.28849E-20-2.37861E-18
 -1      1021 8.44757E-05-2.17435E-05-2.68878E-05 6.24129E-06-1.53038E-19-1.38031E-18
 -1      1022 8.25407E-05-2.19108E-05-2.59876E-05 8.28404E-06 2.52757E-20-1.33902E-18
 -1      1023 9.65624E-05-2.86373E-05-2.91108E-05-5.87446E-07 5.96089E-19-1.63395E-18
 -1      1024 9.55661E-05-2.43492E-05-3.05225E-05 8.22709E-09 4.86316E-19-3.05175E-18
 -1      1025 9.42795E-05-2.71979E-05-2.87493E-05-7.43874E-07-1.03759E-19-2.19249E-18
 -1      1026 9.46241E-05-2.75995E-05-2.87249E-05-5.86706E-07 1.37349E-19-1.40993E-18
 -1      1027 9.49020E-05-2.79392E-05-2.86984E-05-4.72616E-07 3.30769E-19-1.75332E-18
 -1      1028 9.38473E-05-2.67243E-05-2.87671E-05-9.49418E-07 1.69860E-19-2.02941E-18
 -1      1029 9.33043E-05-2.61706E-05-2.87718E-05-1.20846E-06-8.35598E-19-2.15598E-18
 -1      1030 9.26254E-05-2.55321E-05-2.87544E-05-1.52579E-06-9.09160E-20-1.33109E-18
 -1      1031 9.17831E-05-2.48108E-05-2.87027E-05-1.90593E-06-1.40341E-19-1.22875E-18
 -1      1032 9.07489E-05-2.40172E-05-2.85996E-05-2.35423E-06 1.45792E-19-1.91085E-18
 -1      1033 8.94922E-05-2.31744E-05-2.84223E-05-2.87957E-06-9.21475E-20-1.04207E-18
 -1      1034 8.79800E-05-2.23207E-05-2.81403E-05-3.50062E-06-2.87906E-19-1.07493E-18
 -1      1035 8.61730E-05-2.15121E-05-2.77126E-05-4.25809E-06-1.87649E-19-2.71763E-19
 -1      1036 8.40187E-05-2.08255E-05-2.70839E-05-5.23924E-06-4.05441E-19-8.53403E-19
 -1      1037 8.14660E-05-2.03767E-05-2.61798E-05-6.61755E-06-4.97515E-19-9.13394E-19
 -1      1038 7.84621E-05-2.03157E-05-2.49114E-05-8.69111E-06 9.85003E-20-1.39009E-18
 -1      1039 9.68854E-05-2.84174E-05-2.93434E-05 2.55400E-07-3.34606E-19-1.89417E-18
 -1      1040 9.53283E-05-2.84746E-05-2.86516E-05-3.53015E-07 2.45776E-20-1.67455E-18
 -1      1041 9.55059E-05-2.86883E-05-2.86361E-05-3.37806E-07-4.72639E-19-1.09532E-18
 -1      1042 9.58044E-05-2.49538E-05-3.03657E-05-4.74456E-07 1.18340E-19-2.87970E-18
 -1      1043 9.64069E-05-2.64816E-05-2.99673E-05-1.97183E-07-1.65251E-19-2.42388E-18
 -1      1044 9.51315E-05-2.82277E-05-2.86731E-05-3.96382E-07 2.23169E-19-1.88615E-18
 -1      1045 9.65397E-05-2.80563E-05-2.93500E-05-3.19544E-07 8.58190E-19-1.61316E-18
 -1      1046 9.62225E-05-2.92149E-05-2.87175E-05-7.25523E-07 1.94708E-19-1.82828E-18
 -1      1047 9.61972E-05-2.92652E-05-2.86851E-05-4.57030E-07-9.03316E-21-9.02217E-19
 -1      1048 9.68016E-05-2.88413E-05-2.91258E-05-4.46639E-07 3.36782E-19-1.77744E-18
 -1      1049 8.04924E-05-2.27089E-05-2.47627E-05 1.13018E-05 7.05434E-19 8.11113E-19
 -1      1050 9.62800E-05-2.60104E-05-3.01148E-05 1.13439E-07 4.78170E-19-3.11544E-18
 -1      1051 9.58440E-05-2.90352E-05-2.86325E-05-3.73384E-07-2.35882E-19-6.13839E-19
 -1      1052 9.60182E-05-2.91678E-05-2.86501E-05-4.12167E-07-2.98212E-19-6.24284E-19
 -1      1053 7.34299E-05-1.76122E-05-2.39595E-05 1.20554E-06 2.20362E-19-2.22317E-18
 -1      1054 9.61843E-05-2.59126E-05-3.01172E-05 3.18044E-07 5.77288E-19-2.83858E-18
 -1      1055 9.67054E-05-2.91406E-05-2.89566E-05-5.12830E-07 2.31776E-19-1.83456E-18
 -1      1056 9.63363E-05-2.65555E-05-2.99058E-05 2.92254E-07 6.98069E-19-2.19074E-18
 -1      1057 9.63508E-05-2.61799E-05-3.00728E-05-6.83002E-08 3.05113E-19-2.51556E-18
 -1      1058 9.69993E-05-2.86890E-05-2.92758E-05 1.20663E-07-1.02364E-19-1.91601E-18
 -1      1059 9.68048E-05-2.93157E-05-2.89240E-05 1.60015E-07 2.29622E-19-1.22772E-18
 -1      1060 9.66192E-05-2.93856E-05-2.88144E-05 1.56300E-07-1.35282E-19-4.66888E-19
 -1      1061 9.64175E-05-2.93611E-05-2.87386E-05 1.43961E-07-5.78618E-20-9.96201E-19
 -1      1062 9.62100E-05-2.92683E-05-2.86893E-05 1.32224E-07-5.77198E-19-1.19992E-18
 -1      1063 9.60035E-05-2.91305E-05-2.86598E-05 1.21086E-07-4.88203E-19-9.08697E-19
 -1      1064 9.58052E-05-2.89623E-05-2.86470E-05 1.10434E-07-4.61989E-20-1.16285E-18
 -1      1065 9.56055E-05-2.87625E-05-2.86470E-05 1.07073E-07-6.65265E-20-1.73114E-19
 -1      1066 9.53964E-05-2.85323E-05-2.86560E-05 1.11294E-07 4.57725E-19-4.79428E-19
 -1      1067 9.51679E-05-2.82673E-05-2.86716E-05 1.24284E-07 5.82701E-20-1.37781E-18
 -1      1068 9.49057E-05-2.79596E-05-2.86912E-05 1.48263E-07-9.55122E-20-1.82431E-18
 -1      1069 9.45929E-05-2.75993E-05-2.87115E-05 1.85714E-07-1.13542E-19-1.87675E-18
 -1      1070 9.42102E-05-2.71759E-05-2.87288E-05 2.39694E-07-4.31215E-19-2.58389E-18
 -1      1071 9.37359E-05-2.66797E-05-2.87382E-05 3.14132E-07-6.32130E-19-1.68635E-18
 -1      1072 9.31465E-05-2.61026E-05-2.87329E-05 4.14200E-07-9.37586E-19-1.85355E-18
 -1      1073 9.24169E-05-2.54408E-05-2.87038E-05 5.46878E-07-3.13617E-19-2.39618E-18
 -1      1074 9.15206E-05-2.46967E-05-2.86385E-05 7.21832E-07 2.10484E-20-2.17998E-18
 -1      1075 9.04299E-05-2.38808E-05-2.85205E-05 9.52858E-07 2.28427E-19-1.67588E-18
 -1      1076 8.91145E-05-2.30140E-05-2.83281E-05 1.26024E-06-2.46653E-19-1.79440E-18
 -1      1077 8.75389E-05-2.21278E-05-2.80324E-05 1.67461E-06-2.31230E-19-7.93151E-19
 -1      1078 8.56545E-05-2.12628E-05-2.75952E-05 2.24317E-06-1.11311E-19-1.30522E-18
 -1      1079 8.33841E-05-2.04621E-05-2.69649E-05 3.03812E-06-3.07028E-19-1.45854E-18
 -1      1080 8.05957E-05-1.97689E-05-2.60686E-05 4.18957E-06-1.63548E-19-8.35864E-19
 -1      1081 9.33234E-05-2.62538E-05-2.87442E-05-5.62320E-07-4.38271E-19-4.96930E-19
 -1      1082 9.38794E-05-2.68128E-05-2.87429E-05-4.46400E-07 1.05437E-19-6.26847E-19
 -1      1083 9.46819E-05-2.76944E-05-2.87090E-05-2.84377E-07-1.37862E-19-7.77463E-19
 -1      1084 9.26295E-05-2.56056E-05-2.87247E-05-7.02580E-07-6.30778E-19-8.64789E-20
 -1      1085 9.17683E-05-2.48661E-05-2.86726E-05-8.66698E-07-4.22872E-19-2.38635E-19
 -1      1086 9.07076E-05-2.40398E-05-2.85723E-05-1.05313E-06 1.06542E-19-7.86571E-19
 -1      1087 8.94109E-05-2.31397E-05-2.84025E-05-1.25991E-06 2.74334E-19-1.33226E-18
 -1      1088 8.78340E-05-2.21878E-05-2.81349E-05-1.48655E-06 3.91353E-19-1.46974E-18
 -1      1089 8.59173E-05-2.12137E-05-2.77313E-05-1.73798E-06-1.06591E-18-1.34174E-18
 -1      1090 8.35697E-05-2.02483E-05-2.71396E-05-2.03103E-06-1.82412E-19-7.02895E-19
 -1      1091 8.06400E-05-1.93087E-05-2.62892E-05-2.39835E-06 1.98648E-19-1.43049E-18
 -1      1092 7.62434E-05-1.82385E-05-2.48595E-05-3.12675E-06 4.47535E-19-1.69570E-18
 -1      1093 9.63832E-05-2.93155E-05-2.87438E-05-5.01366E-07 5.39680E-20-1.13811E-18
 -1      1094 9.54370E-05-2.85830E-05-2.86517E-05-1.88252E-07-1.24947E-19-1.79783E-18
 -1      1095 9.69153E-05-2.79975E-05-2.95365E-05 5.94710E-08-1.85084E-19-2.23786E-18
 -1      1096 9.56366E-05-2.88028E-05-2.86431E-05-1.86158E-07 5.41388E-20-1.31894E-18
 -1      1097 9.43241E-05-2.72898E-05-2.87290E-05-3.54224E-07 1.23438E-19-6.59617E-19
 -1      1098 7.75769E-05-1.94341E-05-2.49032E-05 5.90626E-06 9.00411E-19-8.55521E-19
 -1      1099 9.67973E-05-2.83048E-05-2.93539E-05-2.96520E-07 8.15670E-19-2.13031E-18
 -1      1100 9.52207E-05-2.83307E-05-2.86672E-05-2.03675E-07-1.20557E-20-1.78532E-18
 -1      1101 9.69444E-05-2.91036E-05-2.90747E-05 1.50030E-07 1.85798E-19-1.58374E-18
 -1      1102 9.49745E-05-2.80377E-05-2.86872E-05-2.34929E-07-4.05468E-20-1.07622E-18
 -1      1103 9.65639E-05-2.92879E-05-2.88325E-05-5.23504E-07 2.60465E-19-1.39068E-18
 -1      1104 9.69271E-05-2.90343E-05-2.90962E-05-2.57725E-07 3.06244E-19-1.99921E-18
 -1      1105 9.62286E-05-2.92832E-05-2.86911E-05-2.36051E-07-2.75134E-19-1.69592E-18
 -1      1106 9.64231E-05-2.93554E-05-2.87427E-05-2.55502E-07-2.04140E-19-1.86220E-18
 -1      1107 9.69581E-05-2.85795E-05-2.93052E-05-1.96897E-07 2.06043E-19-2.11430E-18
 -1      1108 9.58249E-05-2.89886E-05-2.86441E-05-1.94894E-07-1.39054E-19-1.07521E-18
 -1      1109 9.67415E-05-2.72723E-05-2.97715E-05 3.66515E-09 6.68677E-20-2.80909E-18
 -1      1110 9.66474E-05-2.75769E-05-2.96016E-05-7.49128E-08 5.67821E-19-2.18047E-18
 -1      1111 9.66562E-05-2.71425E-05-2.97912E-05 3.00227E-08 3.66435E-19-2.78320E-18
 -1      1112 9.69024E-05-2.92372E-05-2.89995E-05-9.78803E-08 3.17339E-19-1.48555E-18
 -1      1113 9.65260E-05-2.93843E-05-2.87744E-05-9.30269E-08-4.75576E-19-1.46238E-18
 -1      1114 9.59096E-05-2.90529E-05-2.86525E-05-7.12018E-08-3.47674E-19-7.99447E-19
 -1      1115 9.60744E-05-2.91844E-05-2.86674E-05-1.48044E-07-4.03339E-19-1.46004E-18
 -1      1116 9.66064E-05-2.69121E-05-2.98692E-05-4.51383E-08 4.52358E-20-2.19297E-18
 -1      1117 9.69874E-05-2.83798E-05-2.94029E-05-5.72982E-08 1.11482E-19-2.03920E-18
 -1      1118 9.69944E-05-2.89260E-05-2.91723E-05-8.55036E-08 7.65284E-20-1.76537E-18
 -1      1119 9.67327E-05-2.93735E-05-2.88684E-05-9.99144E-08 1.80250E-19-1.63144E-18
 -1      1120 9.68798E-05-2.79910E-05-2.95244E-05-1.06919E-07 4.71559E-19-2.44624E-18
 -1      1121 1.16859E-04 2.57582E-10-4.18568E-05-4.14650E-05-4.56127E-19 1.33359E-17
 -1      1122 8.86526E-05 7.19271E-11-3.72522E-05-2.41659E-05-2.47334E-19 1.08690E-18
 -1      1123 8.40776E-05 4.14377E-11-3.57674E-05-1.78769E-05-1.65066E-19-4.03669E-18
 -1      1124 8.23348E-05 3.20352E-11-3.50728E-05-1.38364E-05-1.07176E-19-6.39233E-18
 -1      1125 8.15327E-05 2.73364E-11-3.47381E-05-1.05315E-05-7.32683E-20-7.48952E-18
 -1      1126 8.11277E-05 2.46027E-11-3.45725E-05-7.63894E-06-4.02738E-20-7.90625E-18
 -1      1127 8.09182E-05 2.29473E-11-3.44891E-05-4.97870E-06-1.74734E-20-8.03534E-18
 -1      1128 8.08161E-05 2.20535E-11-3.44497E-05-2.43166E-06-1.08510E-20-7.92174E-18
 -1      1129 8.07871E-05 2.17832E-11-3.44387E-05 5.24567E-08 1.00602E-20-7.78097E-18
 -1      1130 8.08206E-05 2.20979E-11-3.44512E-05 2.53912E-06 3.73108E-20-7.65866E-18
 -1      1131 8.09274E-05 2.30482E-11-3.44921E-05 5.09455E-06 4.95448E-20-7.37930E-18
 -1      1132 8.11436E-05 2.47651E-11-3.45769E-05 7.77121E-06 7.73381E-20-6.82565E-18
 -1      1133 8.15530E-05 2.76392E-11-3.47446E-05 1.06917E-05 1.04794E-19-5.96606E-18
 -1      1134 8.23585E-05 3.24999E-11-3.50828E-05 1.40410E-05 1.39707E-19-4.40816E-18
 -1      1135 8.40752E-05 4.19270E-11-3.57873E-05 1.81278E-05 1.79571E-19-1.42396E-18
 -1      1136 8.83510E-05 6.67495E-11-3.73224E-05 2.40094E-05 2.17264E-19 4.38700E-18
 -1      1137 1.06623E-04 1.63933E-10-4.06355E-05 3.61920E-05 4.53163E-19 1.64319E-17
 -1      1138 1.30227E-04-2.57581E-05-4.02754E-05-2.61058E-05-1.84780E-18 2.10496E-17
 -1      1139 9.74635E-05-2.88646E-05-3.15796E-05-6.80415E-07-6.23310E-19 1.67724E-17
 -1      1140 9.01661E-05-2.70285E-05-2.78950E-05 3.87116E-07-2.38029E-19 1.07949E-17
 -1      1141 8.82559E-05-2.65744E-05-2.66456E-05 2.50953E-07-1.80044E-19 6.64002E-18
 -1      1142 8.78981E-05-2.64479E-05-2.63894E-05 1.65943E-07-6.01708E-20 4.04988E-18
 -1      1143 8.82572E-05-2.65245E-05-2.64744E-05 1.18054E-07-3.69832E-20 2.52514E-18
 -1      1144 8.89431E-05-2.67088E-05-2.66770E-05 8.75018E-08-6.55015E-20 1.21099E-18
 -1      1145 8.97568E-05-2.69404E-05-2.69193E-05 6.62964E-08-1.29475E-19-6.96883E-19
 -1      1146 9.05880E-05-2.71825E-05-2.71670E-05 5.05858E-08-5.05240E-20-2.60754E-18
 -1      1147 9.13743E-05-2.74141E-05-2.74021E-05 3.84737E-08-1.17080E-19-3.91180E-18
 -1      1148 9.20824E-05-2.76241E-05-2.76144E-05 2.89466E-08-2.37852E-20-5.36531E-18
 -1      1149 9.26975E-05-2.78073E-05-2.77995E-05 2.13921E-08 8.02550E-20-5.32420E-18
 -1      1150 9.32166E-05-2.79624E-05-2.79562E-05 1.53961E-08 1.63204E-20-6.01682E-18
 -1      1151 9.36444E-05-2.80907E-05-2.80857E-05 1.06513E-08-3.73033E-20-5.97698E-18
 -1      1152 9.39906E-05-2.81948E-05-2.81908E-05 6.91708E-09-9.36792E-21-6.66435E-18
 -1      1153 9.42674E-05-2.82783E-05-2.82752E-05 4.00274E-09-6.17338E-20-7.11121E-18
 -1      1154 9.44894E-05-2.83455E-05-2.83432E-05 1.76064E-09-2.08605E-19-7.06177E-18
 -1      1155 9.46722E-05-2.84011E-05-2.83995E-05 8.52429E-11-1.51541E-19-7.76092E-18
 -1      1156 9.48332E-05-2.84503E-05-2.84494E-05-1.08491E-09-1.20108E-19-9.17504E-18
 -1      1157 9.49913E-05-2.84989E-05-2.84986E-05-1.76302E-09 9.64412E-20-9.38453E-18
 -1      1158 9.51680E-05-2.85531E-05-2.85536E-05-1.90777E-09-9.57885E-21-7.46464E-18
 -1      1159 9.53880E-05-2.86206E-05-2.86220E-05-1.41507E-09-9.14795E-20-7.44002E-18
 -1      1160 9.56800E-05-2.87098E-05-2.87124E-05-1.07788E-10 1.60905E-19-6.01848E-18
 -1      1161 9.60780E-05-2.88310E-05-2.88352E-05 2.27553E-09-5.95316E-20-6.74722E-18
 -1      1162 9.66214E-05-2.89960E-05-2.90021E-05 6.09074E-09 2.03999E-20-7.32021E-18
 -1      1163 9.73555E-05-2.92182E-05-2.92269E-05 1.17912E-08-1.22218E-19-6.25635E-18
 -1      1164 9.83305E-05-2.95124E-05-2.95243E-05 1.99117E-08 2.38252E-19-6.42392E-18
 -1      1165 9.95979E-05-2.98939E-05-2.99092E-05 3.10087E-08-2.92692E-19-8.54485E-18
 -1      1166 1.01205E-04-3.03762E-05-3.03948E-05 4.55104E-08-5.32117E-20-8.45750E-18
 -1      1167 1.03181E-04-3.09673E-05-3.09882E-05 6.33973E-08 1.35586E-19-7.18283E-18
 -1      1168 1.05519E-04-3.16642E-05-3.16842E-05 8.35892E-08-3.08443E-19-8.33684E-18
 -1      1169 1.08142E-04-3.24426E-05-3.24551E-05 1.02897E-07 1.06078E-19-1.02220E-17
 -1      1170 1.10858E-04-3.32440E-05-3.32373E-05 1.14483E-07 1.78670E-19-8.11248E-18
 -1      1171 1.13306E-04-3.39594E-05-3.39171E-05 1.06193E-07 1.37825E-19-6.50235E-18
 -1      1172 1.14907E-04-3.44169E-05-3.43209E-05 6.00968E-08 1.62204E-19-6.49956E-18
 -1      1173 1.14876E-04-3.43849E-05-3.42262E-05-4.35919E-08 2.76914E-19-5.88470E-18
 -1      1174 1.12360E-04-3.36156E-05-3.34118E-05-2.13706E-07 3.86092E-19-4.55267E-18
 -1      1175 1.06786E-04-3.19495E-05-3.17597E-05-4.25479E-07-3.06752E-20-3.55606E-18
 -1      1176 9.83898E-05-2.94700E-05-2.93852E-05-6.02455E-07 1.51611E-19-4.25041E-18
 -1      1177 8.86499E-05-2.66188E-05-2.67152E-05-6.33443E-07 1.06147E-19-4.32590E-18
 -1      1178 8.01241E-05-2.41366E-05-2.44136E-05-4.43725E-07-8.74429E-20-4.11653E-18
 -1      1179 7.54047E-05-2.27575E-05-2.31131E-05-7.97470E-08 1.90338E-19-3.98381E-18
 -1      1180 7.56637E-05-2.28079E-05-2.30919E-05 2.89637E-07 3.50658E-20-4.71898E-18
 -1      1181 7.99222E-05-2.40168E-05-2.41240E-05 4.89343E-07 2.19802E-19-3.02772E-18
 -1      1182 8.57253E-05-2.56935E-05-2.56246E-05 4.65734E-07 3.37203E-19-6.94091E-19
 -1      1183 9.06569E-05-2.71421E-05-2.69859E-05 2.98291E-07-4.18752E-20-1.57495E-18
 -1      1184 9.35049E-05-2.80016E-05-2.78650E-05 1.16133E-07 3.03119E-19-9.17337E-19
 -1      1185 9.44893E-05-2.83253E-05-2.82625E-05 2.41266E-08 2.14734E-19 2.59637E-18
 -1      1186 9.47442E-05-2.84518E-05-2.83821E-05 6.51933E-08-1.23859E-19-2.22432E-19
 -1      1187 9.50187E-05-2.85041E-05-2.83911E-05 6.06393E-08 2.56466E-19 1.50587E-19
 -1      1188 1.31060E-04-3.77399E-05-3.86608E-05 1.21746E-05-3.15467E-19 2.63495E-17
 -1      1189 9.65648E-05-2.81912E-05-3.13322E-05 8.01399E-07 2.01435E-19 2.10128E-17
 -1      1190 9.03807E-05-2.69314E-05-2.78762E-05 1.20145E-07 1.36200E-19 1.59554E-17
 -1      1191 8.83427E-05-2.65018E-05-2.66822E-05 8.99595E-09 1.44879E-19 1.23561E-17
 -1      1192 8.79383E-05-2.64104E-05-2.64166E-05-2.52970E-08 5.48636E-20 9.85846E-18
 -1      1193 8.82790E-05-2.65071E-05-2.64902E-05-3.43320E-08 1.08333E-19 7.64312E-18
 -1      1194 8.89561E-05-2.67020E-05-2.66872E-05-3.55313E-08 7.93481E-20 6.04631E-18
 -1      1195 8.97651E-05-2.69391E-05-2.69267E-05-3.38322E-08 7.81293E-21 5.04191E-18
 -1      1196 9.05933E-05-2.71841E-05-2.71726E-05-3.07901E-08-4.30983E-20 3.84738E-18
 -1      1197 9.13777E-05-2.74172E-05-2.74063E-05-2.71125E-08 5.64442E-20 3.01039E-18
 -1      1198 9.20845E-05-2.76278E-05-2.76177E-05-2.32135E-08 1.91268E-19 1.71322E-18
 -1      1199 9.26987E-05-2.78111E-05-2.78019E-05-1.93517E-08 2.51111E-20 9.92541E-19
 -1      1200 9.32171E-05-2.79660E-05-2.79578E-05-1.56805E-08 1.15355E-19 1.89418E-19
 -1      1201 9.36445E-05-2.80939E-05-2.80868E-05-1.22772E-08-1.85598E-20-3.85380E-19
 -1      1202 9.39901E-05-2.81974E-05-2.81914E-05-9.16336E-09 1.12736E-19-1.30404E-18
 -1      1203 9.42663E-05-2.82803E-05-2.82753E-05-6.32098E-09-1.17572E-20-2.27451E-18
 -1      1204 9.44875E-05-2.83468E-05-2.83428E-05-3.70521E-09-1.55386E-19-1.65782E-18
 -1      1205 9.46693E-05-2.84017E-05-2.83986E-05-1.25476E-09 1.30481E-19-2.11679E-18
 -1      1206 9.48289E-05-2.84501E-05-2.84480E-05 1.09882E-09 6.06224E-20-3.42866E-18
 -1      1207 9.49855E-05-2.84977E-05-2.84966E-05 3.42231E-09-1.16759E-20-3.03146E-18
 -1      1208 9.51606E-05-2.85511E-05-2.85511E-05 5.77133E-09-6.05662E-20-1.86334E-18
 -1      1209 9.53792E-05-2.86178E-05-2.86191E-05 8.17858E-09 7.55796E-20-6.91942E-19
 -1      1210 9.56713E-05-2.87068E-05-2.87097E-05 1.06375E-08 4.40871E-20-1.12366E-18
 -1      1211 9.60725E-05-2.88288E-05-2.88338E-05 1.30776E-08 1.94812E-19-2.91735E-18
 -1      1212 9.66259E-05-2.89968E-05-2.90045E-05 1.53269E-08 5.59836E-21-3.43908E-18
 -1      1213 9.73830E-05-2.92261E-05-2.92375E-05 1.70524E-08 5.71036E-20-2.39065E-18
 -1      1214 9.84044E-05-2.95347E-05-2.95508E-05 1.76687E-08-9.00725E-20-1.28530E-18
 -1      1215 9.97585E-05-2.99429E-05-2.99651E-05 1.62039E-08 8.00752E-20-8.56860E-19
 -1      1216 1.01518E-04-3.04719E-05-3.05015E-05 1.11186E-08-4.51930E-20-7.14208E-19
 -1      1217 1.03752E-04-3.11410E-05-3.11791E-05 1.06201E-10 1.11970E-19-7.41802E-19
 -1      1218 1.06505E-04-3.19625E-05-3.20086E-05-2.00093E-08 1.42432E-20-1.41305E-18
 -1      1219 1.09766E-04-3.29309E-05-3.29810E-05-5.29625E-08 1.04390E-19-1.67734E-18
 -1      1220 1.13412E-04-3.40071E-05-3.40496E-05-1.01637E-07 8.60806E-21-2.19990E-19
 -1      1221 1.17122E-04-3.50944E-05-3.51055E-05-1.64408E-07-1.06883E-19-4.63327E-19
 -1      1222 1.20275E-04-3.60103E-05-3.59508E-05-2.28111E-07 2.74515E-19-9.11302E-19
 -1      1223 1.21875E-04-3.64681E-05-3.62889E-05-2.59017E-07-2.48128E-19-2.24777E-18
 -1      1224 1.20620E-04-3.60970E-05-3.57674E-05-2.00627E-07 2.36931E-19-1.71394E-18
 -1      1225 1.15296E-04-3.45508E-05-3.41109E-05 2.21697E-09 3.36940E-19-3.57416E-18
 -1      1226 1.05611E-04-3.17329E-05-3.13418E-05 3.40652E-07-1.74810E-19-4.45433E-19
 -1      1227 9.31682E-05-2.80689E-05-2.79753E-05 6.78318E-07-3.39871E-19 2.68552E-18
 -1      1228 8.16464E-05-2.45951E-05-2.49663E-05 7.89775E-07-1.33997E-19 7.42001E-19
 -1      1229 7.52676E-05-2.25810E-05-2.33001E-05 5.39795E-07 7.81388E-20 1.91985E-19
 -1      1230 7.60908E-05-2.27336E-05-2.34213E-05 4.85363E-08-3.24036E-19 3.67983E-19
 -1      1231 8.24782E-05-2.46396E-05-2.49451E-05-3.88347E-07-1.75187E-19 5.09702E-19
 -1      1232 9.03605E-05-2.70660E-05-2.69283E-05-5.52457E-07 8.91932E-20-1.35991E-18
 -1      1233 9.60315E-05-2.88396E-05-2.84604E-05-4.38467E-07 6.02628E-19-4.15745E-18
 -1      1234 9.80133E-05-2.94788E-05-2.91181E-05-1.87051E-07 2.16126E-20-6.87545E-18
 -1      1235 9.71210E-05-2.92201E-05-2.90412E-05 3.69465E-08 3.28985E-19-8.90607E-18
 -1      1236 9.54581E-05-2.86970E-05-2.86788E-05 7.98513E-08 7.76251E-19-1.02236E-17
 -1      1237 9.49754E-05-2.84903E-05-2.83646E-05-8.18581E-08 3.32915E-19-6.71685E-18
 -1      1238 9.53238E-05-2.88237E-05-2.84198E-05-9.26782E-08-7.29814E-18-7.99678E-19
 -1      1239 9.50779E-05-2.82575E-05-2.88888E-05-8.87977E-08-1.14390E-17-1.39840E-19
 -1      1240 9.41184E-05-2.51615E-05-2.99459E-05 1.21843E-07-6.69799E-18 9.32967E-19
 -1      1241 9.21412E-05-1.85988E-05-3.19470E-05 3.86227E-07-4.66620E-18 1.39039E-19
 -1      1242 8.91012E-05-8.33219E-06-3.49101E-05 6.67116E-07-3.94019E-18-2.42883E-19
 -1      1243 8.53863E-05 4.34095E-06-3.84125E-05 8.30287E-07-3.37363E-18-1.50829E-18
 -1      1244 8.18519E-05 1.65580E-05-4.16856E-05 7.33205E-07 2.26730E-18 1.05569E-18
 -1      1245 7.95692E-05 2.44971E-05-4.37632E-05 3.21039E-07 6.31887E-18-5.20872E-19
 -1      1246 7.94193E-05 2.50218E-05-4.38933E-05-2.44319E-07 8.30773E-18 6.74543E-19
 -1      1247 8.14725E-05 1.78827E-05-4.20207E-05-6.96347E-07 2.11621E-18-5.19019E-19
 -1      1248 8.49748E-05 5.77084E-06-3.87902E-05-8.46531E-07 2.27111E-18-6.88375E-19
 -1      1249 8.87713E-05-7.21006E-06-3.52254E-05-7.04226E-07-6.00642E-18-2.49130E-19
 -1      1250 9.19323E-05-1.79181E-05-3.21578E-05-4.27297E-07-4.90850E-18 1.63378E-19
 -1      1251 9.40372E-05-2.49360E-05-3.00339E-05-1.41146E-07 1.02862E-18 8.04681E-21
 -1      1252 9.51142E-05-2.83403E-05-2.89103E-05 2.78014E-08 1.53318E-18 1.56023E-19
 -1      1253 9.52432E-05-2.89824E-05-2.85141E-05 2.08658E-07 4.83391E-19-2.13959E-19
 -1      1254 9.52961E-05-2.87916E-05-2.84241E-05 9.31881E-08 2.57485E-19 5.65988E-19
 -1      1255 4.10134E-05-1.27401E-04 2.15698E-05-1.63693E-05-1.82409E-18 2.09747E-19
 -1      1256 1.99427E-05-7.51984E-05 1.15353E-05-2.82761E-05 2.45470E-18 1.16552E-18
 -1      1257 8.47991E-06-1.06002E-05-6.13223E-06-4.77079E-07 6.39510E-18 4.40118E-18
 -1      1258 3.65308E-05 2.65127E-05-2.71894E-05 5.67067E-05 7.34886E-18 6.82031E-18
 -1      1259 1.19742E-04 1.36110E-05-5.01747E-05 1.09646E-04 3.33307E-18 3.97597E-18
 -1      1260 2.31239E-04-3.85324E-05-6.99439E-05 1.16244E-04 4.07846E-19-3.38813E-21
 -1      1261 3.14761E-04-8.92091E-05-8.08184E-05 6.29400E-05-2.04929E-19-3.84765E-18
 -1      1262 3.25422E-04-9.76000E-05-8.17478E-05-2.39416E-05-1.11570E-19-4.75440E-18
 -1      1263 2.57221E-04-5.83586E-05-7.23526E-05-9.44269E-05 1.81477E-18-6.41373E-18
 -1      1264 1.48634E-04-4.10177E-06-5.45549E-05-1.09763E-04 5.18130E-18-8.62957E-18
 -1      1265 5.37499E-05 2.26655E-05-3.21057E-05-6.76509E-05 7.59280E-18-8.97177E-18
 -1      1266 1.01009E-05 1.23510E-06-1.02207E-05-9.25302E-06 7.42509E-18-5.53367E-18
 -1      1267 1.28122E-05-5.35739E-05 7.41574E-06 2.63956E-05 2.77912E-18-1.99646E-18
 -1      1268 3.25934E-05-1.06943E-04 1.88768E-05 2.41629E-05 4.12844E-18-4.36222E-19
 -1      1269 4.03150E-05-1.23676E-04 2.18918E-05-3.32211E-06-2.62834E-18-1.32555E-18
 -1      1270 2.79149E-05-9.59473E-05 1.66818E-05-2.63056E-05-1.37041E-17-4.26608E-18
 -1      1271 1.04210E-05-4.01794E-05 3.71023E-06-2.03475E-05-1.87990E-17-8.66599E-18
 -1      1272 1.78389E-05 1.08818E-05-1.59109E-05 2.52259E-05-1.54109E-17-1.16103E-17
 -1      1273 8.03462E-05 1.93623E-05-3.99419E-05 8.64169E-05-1.03202E-17-1.24294E-17
 -1      1274 1.86185E-04-2.09558E-05-6.16850E-05 1.14681E-04-3.86332E-18-5.34986E-18
 -1      1275 2.85184E-04-7.49998E-05-7.62447E-05 7.92137E-05 1.17949E-19 1.67713E-18
 -1      1276 3.26508E-04-9.80843E-05-8.20607E-05-1.42235E-06-1.36425E-19 4.01748E-18
 -1      1277 2.94767E-04-7.75809E-05-7.82011E-05-8.20023E-05-3.25367E-19 2.94090E-18
 -1      1278 2.04449E-04-2.51044E-05-6.57457E-05-1.21202E-04-1.90582E-19 3.04932E-19
 -1      1279 1.03965E-04 1.95823E-05-4.72221E-05-1.06420E-04-1.05371E-18-3.04932E-20
 -1      1280 3.24272E-05 2.59121E-05-2.58398E-05-5.30726E-05-2.79351E-18 1.50094E-18
 -1      1281 8.22869E-06-1.46534E-05-4.48597E-06 3.97735E-06-9.46813E-18 5.10676E-18
 -1      1282 2.11940E-05-7.86761E-05 1.22087E-05 3.00130E-05-1.16924E-17 5.27574E-18
 -1      1283 4.01343E-05-1.25885E-04 2.14841E-05 1.60757E-05-7.05960E-18 1.33638E-18
 -1      1284 1.04449E-04-2.20209E-05-3.78938E-05-1.72748E-05-6.96685E-19 1.05606E-17
 -1      1285 9.03216E-05-6.68202E-06-3.60180E-05-2.04699E-05-1.85977E-18-1.33233E-18
 -1      1286 9.26595E-05-6.74101E-06-3.72232E-05-2.57585E-05-2.42294E-18 1.35282E-18
 -1      1287 8.59008E-05-4.09310E-06-3.51302E-05-1.64317E-05-1.81204E-18-5.09739E-18
 -1      1288 8.71554E-05-4.08835E-06-3.56001E-05-1.88513E-05-2.05967E-18-3.50084E-18
 -1      1289 9.21355E-05-1.04636E-05-3.50942E-05-1.90314E-05-3.22508E-18-1.22439E-18
 -1      1290 8.40995E-05-3.19220E-06-3.46866E-05-1.28184E-05-1.42659E-18-6.88141E-18
 -1      1291 8.47067E-05-3.16103E-06-3.49110E-05-1.46343E-05-1.64817E-18-6.09562E-18
 -1      1292 8.78673E-05-7.39151E-06-3.45741E-05-1.54164E-05-2.84945E-18-4.30573E-18
 -1      1293 8.31842E-05-2.72756E-06-3.44691E-05-9.68452E-06-1.02263E-18-7.70783E-18
 -1      1294 8.35008E-05-2.71109E-06-3.45788E-05-1.12320E-05-1.17440E-18-7.35475E-18
 -1      1295 8.58679E-05-5.98540E-06-3.43043E-05-1.19556E-05-2.15026E-18-5.81880E-18
 -1      1296 8.26902E-05-2.45665E-06-3.43626E-05-6.91437E-06-6.44959E-19-8.01358E-18
 -1      1297 8.28602E-05-2.44818E-06-3.44171E-05-8.28505E-06-8.01346E-19-7.86792E-18
 -1      1298 8.48178E-05-5.21600E-06-3.41718E-05-8.94288E-06-1.52385E-18-6.50635E-18
 -1      1299 8.24143E-05-2.29128E-06-3.43095E-05-4.29466E-06-3.38292E-19-8.02798E-18
 -1      1300 8.25056E-05-2.28733E-06-3.43368E-05-5.59578E-06-4.30114E-19-8.04303E-18
 -1      1301 8.42310E-05-4.76063E-06-3.41082E-05-6.21642E-06-9.44119E-19-6.76486E-18
 -1      1302 8.22815E-05-2.20196E-06-3.42870E-05-1.78990E-06 9.99151E-21-7.95073E-18
 -1      1303 8.23206E-05-2.20038E-06-3.42981E-05-3.04087E-06-1.01083E-19-7.99864E-18
 -1      1304 8.39081E-05-4.49709E-06-3.40790E-05-3.64457E-06-3.62681E-19-6.72957E-18
 -1      1305 8.22555E-05-2.17445E-06-3.42843E-05 6.69774E-07 3.21219E-19-7.80063E-18
 -1      1306 8.22541E-05-2.17450E-06-3.42839E-05-5.66044E-07 2.14486E-19-7.87984E-18
 -1      1307 8.37665E-05-4.37749E-06-3.40680E-05-1.17052E-06 1.86777E-19-6.68203E-18
 -1      1308 8.23294E-05-2.20472E-06-3.42997E-05 3.14823E-06 6.32684E-19-7.63595E-18
 -1      1309 8.22874E-05-2.20635E-06-3.42878E-05 1.89465E-06 5.42598E-19-7.74044E-18
 -1      1310 8.37716E-05-4.38171E-06-3.40684E-05 1.27368E-06 6.94757E-19-6.52450E-18
 -1      1311 8.25232E-05-2.29777E-06-3.43396E-05 5.71239E-06 9.18611E-19-7.31196E-18
 -1      1312 8.24283E-05-2.30113E-06-3.43115E-05 4.40528E-06 8.20696E-19-7.52852E-18
 -1      1313 8.39239E-05-4.51067E-06-3.40802E-05 3.75199E-06 1.19880E-18-6.34000E-18
 -1      1314 8.28836E-05-2.46352E-06-3.44201E-05 8.39395E-06 1.25461E-18-6.72939E-18
 -1      1315 8.27104E-05-2.47220E-06-3.43650E-05 7.01426E-06 1.11330E-18-7.09660E-18
 -1      1316 8.42571E-05-4.78383E-06-3.41095E-05 6.31036E-06 1.68135E-18-5.99400E-18
 -1      1317 8.35428E-05-2.74093E-06-3.45840E-05 1.13940E-05 1.69829E-18-5.73897E-18
 -1      1318 8.32209E-05-2.75801E-06-3.44730E-05 9.82914E-06 1.50704E-18-6.33260E-18
 -1      1319 8.48608E-05-5.25713E-06-3.41730E-05 9.05323E-06 2.27558E-18-5.32590E-18
 -1      1320 8.47653E-05-3.20330E-06-3.49191E-05 1.48427E-05 2.10914E-18-4.00784E-18
 -1      1321 8.41522E-05-3.24001E-06-3.46922E-05 1.30024E-05 1.89828E-18-5.06732E-18
 -1      1322 8.59453E-05-6.06250E-06-3.43062E-05 1.21216E-05 2.93132E-18-4.20700E-18
 -1      1323 8.72573E-05-4.09066E-06-3.56214E-05 1.90902E-05 2.38509E-18-7.28078E-19
 -1      1324 8.59732E-05-4.15450E-06-3.51379E-05 1.66921E-05 2.12227E-18-2.72363E-18
 -1      1325 8.79919E-05-7.51734E-06-3.45760E-05 1.56493E-05 3.40637E-18-2.17666E-18
 -1      1326 9.34722E-05-6.79318E-06-3.71187E-05 2.50957E-05 2.04082E-18 5.47771E-18
 -1      1327 9.01375E-05-6.43861E-06-3.60407E-05 2.11481E-05 2.02245E-18 1.69047E-18
 -1      1328 9.23660E-05-1.06990E-05-3.50794E-05 1.96755E-05 3.60166E-18 1.50454E-18
 -1      1329 1.23634E-04-2.49253E-05-3.90173E-05 2.83667E-05 1.00013E-18 1.72833E-17
 -1      1330 1.00088E-04-1.44255E-05-3.73564E-05 2.40500E-05 1.01644E-18 9.08411E-18
 -1      1331 1.01686E-04-1.93443E-05-3.54046E-05 2.13978E-05 3.30671E-18 7.13096E-18
 -1      1332 1.02613E-04-2.78078E-05-3.47604E-05 7.32846E-06 1.77477E-18 1.65858E-17
 -1      1333 1.05157E-04-3.02337E-05-3.35280E-05-7.95959E-06-1.97825E-18 1.12759E-17
 -1      1334 9.82704E-05-2.78459E-05-3.07649E-05-4.98854E-06-1.77935E-18 8.99401E-18
 -1      1335 9.55123E-05-2.78519E-05-2.92574E-05-2.48919E-06-1.47590E-18 7.97800E-18
 -1      1336 9.32808E-05-2.75613E-05-2.82182E-05-2.04238E-06-1.42444E-18 5.83929E-18
 -1      1337 9.94935E-05-2.80542E-05-3.09853E-05-7.88669E-06-3.17531E-18 4.20880E-18
 -1      1338 9.15915E-05-2.72036E-05-2.75840E-05-8.37400E-07-1.15445E-18 5.12624E-18
 -1      1339 9.08758E-05-2.71085E-05-2.72819E-05-7.27186E-07-1.03525E-18 3.54065E-18
 -1      1340 9.47274E-05-2.77726E-05-2.88190E-05-3.11929E-06-2.46000E-18 2.75871E-18
 -1      1341 9.01262E-05-2.69260E-05-2.70389E-05-1.73152E-07-6.81101E-19 2.87157E-18
 -1      1342 9.00544E-05-2.69530E-05-2.70043E-05-1.15210E-07-6.29766E-19 1.92716E-18
 -1      1343 9.25291E-05-2.75029E-05-2.78985E-05-1.05182E-06-1.68605E-18 1.55379E-18
 -1      1344 8.97954E-05-2.68856E-05-2.69303E-05 1.54752E-07-5.11881E-19 1.51187E-18
 -1      1345 9.00103E-05-2.69757E-05-2.69920E-05 1.83411E-07-4.51495E-19 9.20910E-19
 -1      1346 9.15715E-05-2.73593E-05-2.75319E-05-6.90587E-08-1.17995E-18 5.18755E-19
 -1      1347 9.00145E-05-2.69790E-05-2.69987E-05 3.14364E-07-4.24846E-19 5.46290E-19
 -1      1348 9.03570E-05-2.70987E-05-2.70978E-05 3.26062E-07-4.44089E-19-1.65171E-19
 -1      1349 9.13192E-05-2.73475E-05-2.74243E-05 4.17736E-07-9.53276E-19-3.21217E-19
 -1      1350 9.04991E-05-2.71405E-05-2.71451E-05 3.80379E-07-5.29033E-19-4.94105E-19
 -1      1351 9.08867E-05-2.72687E-05-2.72570E-05 3.81990E-07-5.60607E-19-1.32831E-18
 -1      1352 9.14524E-05-2.74213E-05-2.74466E-05 6.45519E-07-9.69527E-19-9.40303E-19
 -1      1353 9.10946E-05-2.73290E-05-2.73234E-05 3.92155E-07-4.44553E-19-1.60559E-18
 -1      1354 9.14813E-05-2.74535E-05-2.74354E-05 3.87857E-07-4.03882E-19-2.24431E-18
 -1      1355 9.17850E-05-2.75402E-05-2.75354E-05 7.27171E-07-1.03819E-18-1.11246E-18
 -1      1356 9.17121E-05-2.75201E-05-2.75082E-05 3.72760E-07-5.43225E-19-2.46779E-18
 -1      1357 9.20724E-05-2.76341E-05-2.76130E-05 3.65241E-07-5.78947E-19-3.13317E-18
 -1      1358 9.22060E-05-2.76772E-05-2.76552E-05 7.24398E-07-9.09880E-19-1.70901E-18
 -1      1359 9.23007E-05-2.76997E-05-2.76847E-05 3.36578E-07-3.81853E-19-3.47574E-18
 -1      1360 9.26216E-05-2.78000E-05-2.77784E-05 3.27599E-07-9.89252E-20-3.83348E-18
 -1      1361 9.26488E-05-2.78153E-05-2.77845E-05 6.74112E-07-8.47288E-19-2.07181E-18
 -1      1362 9.28331E-05-2.78607E-05-2.78446E-05 2.92860E-07-2.68610E-20-4.16933E-18
 -1      1363 9.31094E-05-2.79462E-05-2.79255E-05 2.83577E-07-2.04383E-19-4.38812E-18
 -1      1364 9.30744E-05-2.79448E-05-2.79107E-05 5.99560E-07-3.39042E-19-2.64928E-18
 -1      1365 9.32971E-05-2.79999E-05-2.79842E-05 2.47607E-07-3.49866E-19-4.52618E-18
 -1      1366 9.35287E-05-2.80709E-05-2.80523E-05 2.38766E-07-2.37393E-19-4.82842E-18
 -1      1367 9.34616E-05-2.80606E-05-2.80268E-05 5.15742E-07-4.02419E-19-3.61633E-18
 -1      1368 9.36902E-05-2.81171E-05-2.81027E-05 2.04690E-07 2.30436E-20-5.04031E-18
 -1      1369 9.38801E-05-2.81748E-05-2.81587E-05 1.96760E-07-1.49347E-19-5.10738E-18
 -1      1370 9.38009E-05-2.81606E-05-2.81293E-05 4.32375E-07-2.74715E-19-4.29163E-18
 -1      1371 9.40164E-05-2.82137E-05-2.82012E-05 1.66579E-07-2.01100E-19-5.09866E-18
 -1      1372 9.41698E-05-2.82599E-05-2.82466E-05 1.59852E-07-2.03208E-19-5.36856E-18
 -1      1373 9.40906E-05-2.82449E-05-2.82176E-05 3.55723E-07-3.22391E-19-4.07478E-18
 -1      1374 9.42838E-05-2.82923E-05-2.82822E-05 1.34864E-07-3.38702E-19-5.23474E-18
 -1      1375 9.44072E-05-2.83290E-05-2.83188E-05 1.29529E-07-3.01581E-19-5.48317E-18
 -1      1376 9.43345E-05-2.83149E-05-2.82924E-05 2.89829E-07-4.13181E-19-4.12328E-18
 -1      1377 9.45033E-05-2.83563E-05-2.83488E-05 1.10641E-07-9.86318E-20-5.43499E-18
 -1      1378 9.46039E-05-2.83858E-05-2.83788E-05 1.06840E-07-3.32636E-19-5.76994E-18
 -1      1379 9.45394E-05-2.83728E-05-2.83558E-05 2.37400E-07-2.89353E-19-4.04032E-18
 -1      1380 9.46877E-05-2.84095E-05-2.84049E-05 9.48065E-08-3.12302E-19-5.75644E-18
 -1      1381 9.47736E-05-2.84344E-05-2.84307E-05 9.26795E-08-2.10961E-19-5.91889E-18
 -1      1382 9.47152E-05-2.84217E-05-2.84107E-05 2.00479E-07-2.20329E-19-3.96228E-18
 -1      1383 9.48515E-05-2.84563E-05-2.84549E-05 8.82864E-08-5.90201E-19-6.31165E-18
 -1      1384 9.49316E-05-2.84792E-05-2.84791E-05 8.80071E-08-4.92122E-19-7.11740E-18
 -1      1385 9.48734E-05-2.84650E-05-2.84605E-05 1.80945E-07-7.08083E-19-4.32006E-18
 -1      1386 9.50111E-05-2.85016E-05-2.85038E-05 9.22094E-08 3.98890E-20-7.32707E-18
 -1      1387 9.50954E-05-2.85255E-05-2.85293E-05 9.40122E-08 1.28030E-19-7.00373E-18
 -1      1388 9.50275E-05-2.85066E-05-2.85094E-05 1.80912E-07-5.36825E-19-4.90923E-18
 -1      1389 9.51851E-05-2.85507E-05-2.85572E-05 1.08036E-07 3.26490E-19-7.02659E-18
 -1      1390 9.52849E-05-2.85790E-05-2.85874E-05 1.12237E-07-1.22148E-19-6.68459E-18
 -1      1391 9.51932E-05-2.85509E-05-2.85621E-05 2.03014E-07 2.38613E-19-5.29572E-18
 -1      1392 9.53945E-05-2.86099E-05-2.86215E-05 1.37641E-07-1.49155E-19-6.25948E-18
 -1      1393 9.55230E-05-2.86466E-05-2.86603E-05 1.44645E-07 4.07465E-19-5.94812E-18
 -1      1394 9.53885E-05-2.86033E-05-2.86242E-05 2.50604E-07 1.87449E-19-5.71694E-18
 -1      1395 9.56640E-05-2.86864E-05-2.87041E-05 1.83328E-07 3.83270E-19-5.82818E-18
 -1      1396 9.58365E-05-2.87363E-05-2.87560E-05 1.93632E-07 2.19664E-19-5.44766E-18
 -1      1397 9.56339E-05-2.86697E-05-2.87019E-05 3.27833E-07 5.30263E-19-4.97689E-18
 -1      1398 9.60220E-05-2.87887E-05-2.88137E-05 2.47766E-07-2.22367E-20-5.24321E-18
 -1      1399 9.62565E-05-2.88572E-05-2.88840E-05 2.61937E-07-2.18500E-20-5.54336E-18
 -1      1400 9.59535E-05-2.87571E-05-2.88025E-05 4.39588E-07-7.99346E-21-4.19303E-18
 -1      1401 9.65015E-05-2.89266E-05-2.89602E-05 3.33788E-07 8.09566E-20-5.16231E-18
 -1      1402 9.68187E-05-2.90201E-05-2.90549E-05 3.52411E-07 3.26075E-20-4.93642E-18
 -1      1403 9.63746E-05-2.88736E-05-2.89344E-05 5.91195E-07 1.10984E-19-3.76924E-18
 -1      1404 9.71396E-05-2.91113E-05-2.91548E-05 4.43974E-07-1.71093E-19-4.91616E-18
 -1      1405 9.75628E-05-2.92371E-05-2.92808E-05 4.67556E-07-7.95127E-20-4.81594E-18
 -1      1406 9.69280E-05-2.90285E-05-2.91066E-05 7.87773E-07-4.17379E-20-3.25868E-18
 -1      1407 9.79770E-05-2.93553E-05-2.94095E-05 5.79894E-07-1.99962E-19-5.45277E-18
 -1      1408 9.85308E-05-2.95213E-05-2.95740E-05 6.08677E-07-4.37090E-19-5.87938E-18
 -1      1409 9.76468E-05-2.92322E-05-2.93289E-05 1.03302E-06-5.91151E-19-3.84518E-18
 -1      1410 9.90551E-05-2.96717E-05-2.97367E-05 7.40815E-07-2.76033E-19-6.55361E-18
 -1      1411 9.97631E-05-2.98858E-05-2.99464E-05 7.74471E-07-2.66266E-19-6.70543E-18
 -1      1412 9.85647E-05-2.94959E-05-2.96108E-05 1.32711E-06-7.49075E-19-5.12045E-18
 -1      1413 1.00411E-04-3.00730E-05-3.01471E-05 9.21602E-07 4.29828E-20-6.23544E-18
 -1      1414 1.01292E-04-3.03419E-05-3.04069E-05 9.58721E-07 1.69690E-19-6.18338E-18
 -1      1415 9.97122E-05-2.98309E-05-2.99602E-05 1.66332E-06 6.47500E-20-4.97639E-18
 -1      1416 1.02070E-04-3.05686E-05-3.06468E-05 1.10949E-06-6.64391E-21-5.77868E-18
 -1      1417 1.03127E-04-3.08956E-05-3.09576E-05 1.14679E-06 2.04137E-19-5.73736E-18
 -1      1418 1.01110E-04-3.02471E-05-3.03815E-05 2.02263E-06 2.53739E-19-3.97950E-18
 -1      1419 1.04026E-04-3.11614E-05-3.12330E-05 1.27948E-06-4.58969E-19-5.90843E-18
 -1      1420 1.05240E-04-3.15422E-05-3.15876E-05 1.31067E-06-6.45217E-19-6.63979E-18
 -1      1421 1.02758E-04-3.07505E-05-3.08713E-05 2.36605E-06-8.66687E-20-4.53018E-18
 -1      1422 1.06228E-04-3.18408E-05-3.18866E-05 1.38844E-06-1.46833E-19-6.40160E-18
 -1      1423 1.07531E-04-3.22583E-05-3.22644E-05 1.40278E-06 1.76418E-19-6.24339E-18
 -1      1424 1.04620E-04-3.13396E-05-3.14140E-05 2.62446E-06-6.50786E-19-3.84388E-18
 -1      1425 1.08539E-04-3.25735E-05-3.25628E-05 1.36946E-06 8.87105E-19-6.44065E-18
 -1      1426 1.09798E-04-3.29896E-05-3.29228E-05 1.35050E-06 6.22588E-19-5.32665E-18
 -1      1427 1.06604E-04-3.19982E-05-3.19751E-05 2.68774E-06 4.19468E-19-3.64111E-18
 -1      1428 1.10705E-04-3.32912E-05-3.31804E-05 1.13042E-06 1.65793E-19-4.99544E-18
 -1      1429 1.11694E-04-3.36371E-05-3.34554E-05 1.05608E-06 1.13097E-19-4.99515E-18
 -1      1430 1.08531E-04-3.26859E-05-3.24945E-05 2.39893E-06 7.12950E-19-3.63973E-18
 -1      1431 1.12321E-04-3.38754E-05-3.36144E-05 5.65568E-07 5.09676E-20-4.31816E-18
 -1      1432 1.12711E-04-3.40454E-05-3.37101E-05 4.12201E-07 5.22590E-19-4.27823E-18
 -1      1433 1.10118E-04-3.33227E-05-3.28828E-05 1.56635E-06 3.76817E-19-3.11410E-18
 -1      1434 1.12827E-04-3.41476E-05-3.37005E-05-4.06330E-07 6.75515E-19-4.24098E-18
 -1      1435 1.12225E-04-3.40043E-05-3.35084E-05-6.51816E-07 4.70150E-19-3.94027E-18
 -1      1436 1.10960E-04-3.37726E-05-3.30262E-05 1.52868E-08 9.50225E-19-2.56051E-18
 -1      1437 1.11580E-04-3.38783E-05-3.32652E-05-1.76480E-06 5.97555E-19-3.54767E-18
 -1      1438 1.09639E-04-3.32851E-05-3.26979E-05-2.08239E-06 4.90498E-19-2.69711E-18
 -1      1439 1.10572E-04-3.38335E-05-3.28085E-05-2.29605E-06 1.15656E-18-2.37539E-18
 -1      1440 1.08064E-04-3.28436E-05-3.21918E-05-3.28404E-06 1.51692E-19-2.66492E-18
 -1      1441 1.04696E-04-3.17381E-05-3.12408E-05-3.59511E-06 2.75835E-19-2.92629E-18
 -1      1442 1.08505E-04-3.32645E-05-3.21531E-05-5.09896E-06 3.62788E-19-2.64835E-18
 -1      1443 1.02240E-04-3.09563E-05-3.05142E-05-4.47714E-06-2.20381E-19-2.17354E-18
 -1      1444 9.78496E-05-2.94505E-05-2.93043E-05-4.64510E-06 1.68646E-19-2.25602E-18
 -1      1445 1.04590E-04-3.18913E-05-3.10799E-05-7.66487E-06-2.36256E-19-2.26547E-18
 -1      1446 9.49233E-05-2.84450E-05-2.84883E-05-4.72115E-06 6.71439E-20-2.94381E-18
 -1      1447 9.04831E-05-2.68805E-05-2.72845E-05-4.61176E-06-4.31593E-19-3.67348E-18
 -1      1448 9.92457E-05-2.97990E-05-2.97447E-05-8.89463E-06-3.65539E-19-1.52302E-18
 -1      1449 8.78396E-05-2.59377E-05-2.65713E-05-3.62322E-06-1.68507E-19-3.19480E-18
 -1      1450 8.46083E-05-2.47969E-05-2.56963E-05-3.21545E-06-2.15557E-19-3.46365E-18
 -1      1451 9.36417E-05-2.74828E-05-2.84224E-05-7.83422E-06-3.96411E-19-1.84411E-18
 -1      1452 8.30485E-05-2.42610E-05-2.52641E-05-1.43023E-06-5.71456E-19-3.66734E-18
 -1      1453 8.19565E-05-2.39177E-05-2.49467E-05-8.83500E-07 3.67162E-19-3.50669E-18
 -1      1454 8.93994E-05-2.57416E-05-2.74197E-05-4.45041E-06-5.01973E-19-2.22786E-18
 -1      1455 8.18589E-05-2.39599E-05-2.48735E-05 9.45204E-07 7.49459E-19-4.02379E-18
 -1      1456 8.29552E-05-2.44322E-05-2.51267E-05 1.37426E-06 4.50635E-19-3.21428E-18
 -1      1457 8.77725E-05-2.52306E-05-2.69453E-05-6.04598E-09 2.38082E-19-3.25605E-18
 -1      1458 8.40191E-05-2.49105E-05-2.53541E-05 2.47665E-06 6.56001E-19-1.95437E-18
 -1      1459 8.64557E-05-2.58500E-05-2.59724E-05 2.61851E-06 6.71998E-19-1.11941E-18
 -1      1460 8.88397E-05-2.59798E-05-2.70171E-05 3.57309E-06 1.64388E-18-2.05403E-18
 -1      1461 8.79327E-05-2.64295E-05-2.63424E-05 2.71033E-06 4.28767E-19-1.62768E-18
 -1      1462 9.05161E-05-2.73666E-05-2.70269E-05 2.58454E-06 1.64784E-19-1.29771E-18
 -1      1463 9.14760E-05-2.73763E-05-2.74647E-05 4.97300E-06 4.78704E-19-7.58214E-19
 -1      1464 9.17044E-05-2.77655E-05-2.73698E-05 1.94889E-06-2.10567E-20-1.33249E-18
 -1      1465 9.35588E-05-2.83822E-05-2.78874E-05 1.70374E-06-5.10271E-20-1.60791E-18
 -1      1466 9.41496E-05-2.86219E-05-2.80226E-05 4.23242E-06-2.49312E-20-1.31921E-18
 -1      1467 9.41309E-05-2.85025E-05-2.81018E-05 8.87040E-07 2.46242E-19-2.19740E-18
 -1      1468 9.50219E-05-2.87400E-05-2.83759E-05 6.81255E-07 9.41553E-19-1.04647E-18
 -1      1469 9.58117E-05-2.92360E-05-2.84654E-05 2.41043E-06 3.98198E-19-1.86379E-18
 -1      1470 9.50440E-05-2.86442E-05-2.84531E-05 1.47429E-07 1.35912E-18-9.77804E-19
 -1      1471 9.52927E-05-2.86533E-05-2.85471E-05 7.67662E-08 2.27309E-21-1.52479E-19
 -1      1472 9.62373E-05-2.91915E-05-2.86937E-05 7.49038E-07 1.03821E-18-2.96255E-18
 -1      1473 9.50584E-05-2.84927E-05-2.85343E-05 3.55803E-09-7.23748E-19 3.32689E-19
 -1      1474 9.52003E-05-2.85302E-05-2.85514E-05 4.14847E-08 3.60733E-20-2.37280E-19
 -1      1475 9.58479E-05-2.87750E-05-2.87259E-05 8.18878E-09-2.17052E-21-1.68204E-18
 -1      1476 9.50958E-05-2.85969E-05-2.84645E-05 1.43317E-07-5.27470E-19 3.78476E-19
 -1      1477 9.53608E-05-2.86088E-05-2.85931E-05 1.21507E-07-1.18889E-19-2.95757E-19
 -1      1478 9.65873E-05-2.83667E-05-2.97754E-05 2.99522E-06 1.59152E-18 1.30727E-17
 -1      1479 1.02545E-04-2.94013E-05-3.21586E-05 4.46230E-06 1.37484E-18 1.55530E-17
 -1      1480 1.02335E-04-2.67207E-05-3.27083E-05 1.27822E-05 2.74317E-18 1.00044E-17
 -1      1481 9.20417E-05-2.74326E-05-2.77651E-05 1.15147E-06 1.16307E-18 9.99642E-18
 -1      1482 9.39878E-05-2.75875E-05-2.86790E-05 1.47344E-06 1.07348E-18 1.18248E-17
 -1      1483 9.64962E-05-2.80331E-05-2.95366E-05 4.86673E-06 2.36907E-18 7.71595E-18
 -1      1484 9.02099E-05-2.70081E-05-2.70665E-05 3.31231E-07 8.69307E-19 7.61033E-18
 -1      1485 9.08243E-05-2.70254E-05-2.73389E-05 4.94134E-07 8.72722E-19 9.04171E-18
 -1      1486 9.30523E-05-2.75818E-05-2.81018E-05 1.85082E-06 1.84342E-18 5.76697E-18
 -1      1487 8.96934E-05-2.68901E-05-2.68910E-05-5.56061E-08 7.13652E-19 5.98611E-18
 -1      1488 8.97303E-05-2.68276E-05-2.69191E-05 3.35375E-08 6.33735E-19 6.98281E-18
 -1      1489 9.14997E-05-2.73109E-05-2.75182E-05 5.16868E-07 1.34353E-18 4.19980E-18
 -1      1490 8.98258E-05-2.69427E-05-2.69330E-05-2.42799E-07 5.09154E-19 4.54523E-18
 -1      1491 8.95969E-05-2.68351E-05-2.68678E-05-1.92540E-07 5.60369E-19 5.47199E-18
 -1      1492 9.09685E-05-2.72301E-05-2.73222E-05-1.32874E-07 1.17669E-18 3.19518E-18
 -1      1493 9.02786E-05-2.70852E-05-2.70712E-05-3.25788E-07 3.14988E-19 3.65165E-18
 -1      1494 8.99315E-05-2.69579E-05-2.69697E-05-2.98120E-07 2.90185E-19 4.11617E-18
 -1      1495 9.09861E-05-2.72732E-05-2.73113E-05-4.51379E-07 7.08455E-19 2.36904E-18
 -1      1496 9.08723E-05-2.72672E-05-2.72504E-05-3.50003E-07 3.39752E-19 2.82163E-18
 -1      1497 9.04848E-05-2.71369E-05-2.71370E-05-3.36335E-07 3.48628E-19 3.36762E-18
 -1      1498 9.12901E-05-2.73851E-05-2.73928E-05-5.91140E-07 5.82324E-19 1.81245E-18
 -1      1499 9.15041E-05-2.74590E-05-2.74407E-05-3.40419E-07 1.86489E-19 2.03118E-18
 -1      1500 9.11200E-05-2.73356E-05-2.73280E-05-3.35556E-07 2.57429E-19 2.46172E-18
 -1      1501 9.17296E-05-2.75285E-05-2.75183E-05-6.28929E-07 5.60619E-19 1.38284E-18
 -1      1502 9.21150E-05-2.76432E-05-2.76248E-05-3.12125E-07 5.44230E-19 1.10982E-18
 -1      1503 9.17585E-05-2.75320E-05-2.75198E-05-3.12710E-07 2.56340E-19 1.70073E-18
 -1      1504 9.22152E-05-2.76803E-05-2.76601E-05-6.08110E-07 6.33822E-19 4.52510E-19
 -1      1505 9.26726E-05-2.78105E-05-2.77930E-05-2.74681E-07 1.67400E-19 7.58415E-19
 -1      1506 9.23560E-05-2.77139E-05-2.76996E-05-2.78471E-07 2.58393E-19 1.06883E-18
 -1      1507 9.26944E-05-2.78267E-05-2.78018E-05-5.55151E-07 5.10502E-19-7.26141E-20
 -1      1508 9.31616E-05-2.79567E-05-2.79409E-05-2.34251E-07 2.72972E-19 3.56253E-19
 -1      1509 9.28897E-05-2.78751E-05-2.78603E-05-2.39726E-07 3.19343E-19 7.99612E-19
 -1      1510 9.31376E-05-2.79601E-05-2.79339E-05-4.86898E-07 3.89781E-19 2.81913E-19
 -1      1511 9.35776E-05-2.80806E-05-2.80668E-05-1.94803E-07 4.06079E-19-4.03947E-19
 -1      1512 9.33502E-05-2.80134E-05-2.79993E-05-2.00930E-07 2.82625E-19-1.86840E-19
 -1      1513 9.35303E-05-2.80769E-05-2.80517E-05-4.14238E-07 5.85108E-19-3.96460E-19
 -1      1514 9.39234E-05-2.81833E-05-2.81717E-05-1.58859E-07 2.06284E-19-1.08902E-18
 -1      1515 9.37372E-05-2.81290E-05-2.81163E-05-1.64932E-07 2.37321E-19-8.52479E-19
 -1      1516 9.38678E-05-2.81763E-05-2.81535E-05-3.44199E-07 5.34426E-19-1.11716E-18
 -1      1517 9.42064E-05-2.82670E-05-2.82577E-05-1.28011E-07 2.48978E-19-1.86517E-18
 -1      1518 9.40564E-05-2.82237E-05-2.82129E-05-1.33541E-07 3.37991E-19-1.24255E-18
 -1      1519 9.41518E-05-2.82592E-05-2.82395E-05-2.81290E-07 4.96936E-19-1.76362E-18
 -1      1520 9.44372E-05-2.83349E-05-2.83280E-05-1.03298E-07-2.72191E-19-1.62313E-18
 -1      1521 9.43168E-05-2.83006E-05-2.82919E-05-1.07931E-07-2.07678E-20-1.78791E-18
 -1      1522 9.43883E-05-2.83275E-05-2.83116E-05-2.28432E-07 2.84414E-19-1.68403E-18
 -1      1523 9.46282E-05-2.83909E-05-2.83863E-05-8.54947E-08-4.95010E-20-1.53114E-18
 -1      1524 9.45302E-05-2.83630E-05-2.83568E-05-8.89413E-08-2.37113E-19-1.78818E-18
 -1      1525 9.45865E-05-2.83840E-05-2.83723E-05-1.87638E-07-1.16200E-19-1.49123E-18
 -1      1526 9.47937E-05-2.84391E-05-2.84370E-05-7.53321E-08 3.38100E-19-2.14899E-18
 -1      1527 9.47101E-05-2.84152E-05-2.84116E-05-7.73137E-08 4.29583E-19-1.54145E-18
 -1      1528 9.47576E-05-2.84323E-05-2.84251E-05-1.60535E-07 3.66625E-19-2.00181E-18
 -1      1529 9.49500E-05-2.84844E-05-2.84849E-05-7.36809E-08-2.01190E-19-2.71787E-18
 -1      1530 9.48717E-05-2.84617E-05-2.84610E-05-7.38816E-08 1.31236E-19-2.43729E-18
 -1      1531 9.49149E-05-2.84762E-05-2.84740E-05-1.48770E-07 6.30429E-19-1.76955E-18
 -1      1532 9.51152E-05-2.85321E-05-2.85357E-05-8.16973E-08-5.83185E-19-2.19953E-18
 -1      1533 9.50324E-05-2.85074E-05-2.85103E-05-7.97208E-08-3.93616E-19-2.60371E-18
 -1      1534 9.50735E-05-2.85201E-05-2.85235E-05-1.54341E-07-2.71626E-19-1.79968E-18
 -1      1535 9.53106E-05-2.85886E-05-2.85956E-05-1.00942E-07-3.37189E-19-1.33607E-18
 -1      1536 9.52116E-05-2.85583E-05-2.85652E-05-9.62736E-08-4.13942E-19-1.94776E-18
 -1      1537 9.52509E-05-2.85691E-05-2.85790E-05-1.79855E-07-7.53589E-19-1.54498E-18
 -1      1538 9.55611E-05-2.86612E-05-2.86722E-05-1.33476E-07 1.89897E-19-6.04882E-19
 -1      1539 9.54323E-05-2.86210E-05-2.86328E-05-1.25444E-07-5.40827E-20-1.09409E-18
 -1      1540 9.54678E-05-2.86292E-05-2.86468E-05-2.28741E-07-3.40262E-19-1.31687E-18
 -1      1541 9.58962E-05-2.87587E-05-2.87745E-05-1.81914E-07 4.80069E-19-1.49086E-18
 -1      1542 9.57214E-05-2.87034E-05-2.87212E-05-1.69662E-07 4.47519E-19-6.39213E-19
 -1      1543 9.57481E-05-2.87075E-05-2.87343E-05-3.05387E-07 3.53184E-19-7.81710E-19
 -1      1544 9.63511E-05-2.88916E-05-2.89132E-05-2.49437E-07 3.49583E-19-2.65631E-18
 -1      1545 9.61108E-05-2.88148E-05-2.88401E-05-2.31896E-07 6.27249E-19-1.72935E-18
 -1      1546 9.61204E-05-2.88122E-05-2.88502E-05-4.15207E-07 8.68576E-19-1.60026E-18
 -1      1547 9.69679E-05-2.90723E-05-2.91008E-05-3.39693E-07-1.87523E-19-1.69608E-18
 -1      1548 9.66387E-05-2.89667E-05-2.90011E-05-3.15583E-07-3.73101E-19-2.49902E-18
 -1      1549 9.66181E-05-2.89531E-05-2.90046E-05-5.64549E-07-9.51283E-20-1.29751E-18
 -1      1550 9.77957E-05-2.93156E-05-2.93521E-05-4.56538E-07-4.35336E-19-1.29431E-18
 -1      1551 9.73498E-05-2.91722E-05-2.92175E-05-4.24403E-07-1.59613E-19-1.57608E-18
 -1      1552 9.72801E-05-2.91419E-05-2.92093E-05-7.60355E-07-4.36243E-19-8.63532E-19
 -1      1553 9.88900E-05-2.96384E-05-2.96839E-05-6.03435E-07-4.45151E-19-4.21511E-19
 -1      1554 9.82958E-05-2.94470E-05-2.95050E-05-5.61764E-07-4.13590E-19-1.02182E-18
 -1      1555 9.81507E-05-2.93919E-05-2.94776E-05-1.00936E-06-6.77717E-19-1.25080E-19
 -1      1556 1.00311E-04-3.00590E-05-3.01139E-05-7.82282E-07-1.18968E-19-3.07036E-19
 -1      1557 9.95339E-05-2.98085E-05-2.98807E-05-7.29797E-07 1.00150E-19-3.34115E-19
 -1      1558 9.92776E-05-2.97178E-05-2.98237E-05-1.31647E-06-1.06177E-19 6.41627E-20
 -1      1559 1.02117E-04-3.05961E-05-3.06591E-05-9.91233E-07 1.96176E-19-4.86309E-19
 -1      1560 1.01123E-04-3.02753E-05-3.03618E-05-9.27468E-07-7.67028E-20-6.05834E-19
 -1      1561 1.00709E-04-3.01354E-05-3.02614E-05-1.68169E-06 7.14337E-20 2.89099E-19
 -1      1562 1.04354E-04-3.12650E-05-3.13320E-05-1.22086E-06 2.61624E-19-1.20095E-18
 -1      1563 1.03115E-04-3.08653E-05-3.09634E-05-1.14728E-06 1.51672E-19-1.17534E-18
 -1      1564 1.02486E-04-3.06596E-05-3.08015E-05-2.09475E-06 2.79848E-19-1.30237E-18
 -1      1565 1.07031E-04-3.20724E-05-3.21334E-05-1.44790E-06-1.03364E-19-1.64575E-18
 -1      1566 1.05541E-04-3.15917E-05-3.16927E-05-1.36982E-06 3.40679E-19-1.15394E-18
 -1      1567 1.04631E-04-3.13018E-05-3.14474E-05-2.52605E-06 3.10582E-19-1.69200E-18
 -1      1568 1.10087E-04-3.30054E-05-3.30408E-05-1.62585E-06-1.21154E-19-7.08292E-19
 -1      1569 1.08382E-04-3.24557E-05-3.25409E-05-1.55558E-06-3.31585E-19-1.46288E-18
 -1      1570 1.07121E-04-3.20645E-05-3.21878E-05-2.91279E-06-1.04130E-19-1.40982E-18
 -1      1571 1.13333E-04-3.40156E-05-3.39913E-05-1.67339E-06 1.51175E-19-4.19797E-19
 -1      1572 1.11526E-04-3.34348E-05-3.34690E-05-1.63443E-06 1.33916E-20-2.46407E-19
 -1      1573 1.09863E-04-3.29326E-05-3.29854E-05-3.14027E-06-5.24257E-19-7.98726E-20
 -1      1574 1.16382E-04-3.49953E-05-3.48606E-05-1.46545E-06 6.28356E-19-5.90448E-19
 -1      1575 1.14706E-04-3.44632E-05-3.43894E-05-1.49651E-06 4.16644E-19 1.40382E-19
 -1      1576 1.12640E-04-3.38594E-05-3.37640E-05-3.02329E-06 2.12754E-19-4.99624E-19
 -1      1577 1.18576E-04-3.57513E-05-3.54471E-05-8.41320E-07-7.04427E-20-1.36122E-18
 -1      1578 1.17433E-04-3.54051E-05-3.51472E-05-9.95699E-07 3.54986E-19-1.05520E-18
 -1      1579 1.15066E-04-3.47454E-05-3.43960E-05-2.30379E-06 8.24017E-19-9.22584E-19
 -1      1580 1.18985E-04-3.59892E-05-3.54819E-05 3.42024E-07-2.14802E-19-2.25999E-18
 -1      1581 1.18941E-04-3.60262E-05-3.55138E-05 1.13711E-08 4.92933E-20-1.70402E-18
 -1      1582 1.16546E-04-3.54107E-05-3.47034E-05-7.00828E-07 3.16512E-19-1.60398E-18
 -1      1583 1.16580E-04-3.53469E-05-3.46958E-05 2.07953E-06 8.24765E-19-2.96771E-18
 -1      1584 1.18252E-04-3.59855E-05-3.52184E-05 1.56081E-06 1.66918E-19-2.85568E-18
 -1      1585 1.16323E-04-3.55758E-05-3.44901E-05 1.93202E-06 4.69786E-19-3.26923E-18
 -1      1586 1.10695E-04-3.35350E-05-3.29634E-05 4.02260E-06-1.14165E-18-1.70735E-18
 -1      1587 1.14449E-04-3.49027E-05-3.40443E-05 3.41015E-06-4.59224E-19-2.05151E-18
 -1      1588 1.13668E-04-3.48876E-05-3.36191E-05 5.31830E-06-5.55310E-19-1.53729E-18
 -1      1589 1.01773E-04-3.06136E-05-3.04809E-05 5.37822E-06-1.06901E-18 1.32984E-18
 -1      1590 1.07265E-04-3.25704E-05-3.19875E-05 4.90765E-06-1.40389E-18-5.33260E-19
 -1      1591 1.08319E-04-3.30810E-05-3.21262E-05 8.46397E-06-2.32325E-18-4.47339E-20
 -1      1592 9.19140E-05-2.72669E-05-2.78409E-05 5.18587E-06 2.09445E-19 2.30171E-18
 -1      1593 9.77927E-05-2.92849E-05-2.93994E-05 5.14859E-06-3.24096E-19 2.09408E-18
 -1      1594 1.01049E-04-3.02905E-05-3.02970E-05 9.76263E-06-8.34552E-19 1.82737E-18
 -1      1595 8.44326E-05-2.47164E-05-2.58503E-05 3.07420E-06 1.45306E-19 1.51214E-18
 -1      1596 8.86860E-05-2.60320E-05-2.69686E-05 3.58798E-06 7.73950E-19 2.74841E-18
 -1      1597 9.38987E-05-2.73326E-05-2.86144E-05 7.88882E-06 4.34554E-19 4.34380E-18
 -1      1598 8.20500E-05-2.40122E-05-2.51260E-05-9.72579E-08 3.79074E-19 9.68569E-19
 -1      1599 8.31378E-05-2.41058E-05-2.54492E-05 7.30668E-07-1.48469E-19 1.10064E-18
 -1      1600 8.94316E-05-2.54814E-05-2.75569E-05 3.15145E-06 3.65230E-19 3.09051E-18
 -1      1601 8.49389E-05-2.51998E-05-2.57165E-05-2.65731E-06-5.90005E-19 6.30669E-19
 -1      1602 8.28928E-05-2.42116E-05-2.52523E-05-1.96763E-06 5.02396E-20 2.12499E-19
 -1      1603 8.90824E-05-2.55647E-05-2.73499E-05-2.16716E-06 3.74693E-19 1.90355E-18
 -1      1604 9.06066E-05-2.72878E-05-2.70788E-05-3.42618E-06 1.75357E-18-7.21884E-19
 -1      1605 8.69942E-05-2.59046E-05-2.61886E-05-3.18315E-06 7.92765E-19 1.30231E-19
 -1      1606 9.20604E-05-2.72058E-05-2.78490E-05-5.37354E-06 1.05012E-18-4.65021E-19
 -1      1607 9.57835E-05-2.90603E-05-2.84402E-05-2.50441E-06 1.04851E-18-3.29025E-18
 -1      1608 9.25565E-05-2.79925E-05-2.75978E-05-2.68462E-06 7.86940E-19-2.42130E-18
 -1      1609 9.60216E-05-2.91611E-05-2.86419E-05-5.37859E-06 2.02659E-18-2.84487E-18
 -1      1610 9.84248E-05-2.98447E-05-2.92407E-05-8.72729E-07 7.80501E-19-4.99348E-18
 -1      1611 9.67623E-05-2.94219E-05-2.87637E-05-1.23536E-06 1.38283E-18-3.41558E-18
 -1      1612 9.87760E-05-3.03490E-05-2.92855E-05-3.11285E-06 1.74727E-18-3.77807E-18
 -1      1613 9.83762E-05-2.96696E-05-2.93649E-05 4.48239E-07 2.61273E-19-5.58766E-18
 -1      1614 9.83158E-05-2.97996E-05-2.92931E-05 1.54526E-07 3.68750E-19-4.83707E-18
 -1      1615 9.94160E-05-3.04426E-05-2.95303E-05-3.93971E-07 9.53984E-19-3.28178E-18
 -1      1616 9.68636E-05-2.90242E-05-2.90703E-05 8.74925E-07 4.45806E-19-5.95554E-18
 -1      1617 9.76106E-05-2.93540E-05-2.92290E-05 7.97841E-07 2.29069E-19-5.30885E-18
 -1      1618 9.83263E-05-2.97292E-05-2.93989E-05 1.28294E-06 6.13682E-19-2.96604E-18
 -1      1619 9.55273E-05-2.85119E-05-2.87070E-05 3.89663E-07-5.80985E-19-6.57908E-18
 -1      1620 9.60513E-05-2.86590E-05-2.88836E-05 5.47184E-07-1.75197E-19-6.81145E-18
 -1      1621 9.66019E-05-2.87744E-05-2.90809E-05 1.30679E-06 7.10856E-19-3.31879E-18
 -1      1622 9.52023E-05-2.84887E-05-2.85760E-05-1.74330E-08-3.94570E-18-4.53775E-18
 -1      1623 9.51049E-05-2.69528E-05-2.92386E-05 1.10672E-06-5.46237E-18 1.01436E-18
 -1      1624 9.53247E-05-2.78625E-05-2.89094E-05 8.45820E-07-5.88698E-18 2.92954E-19
 -1      1625 9.41404E-05-2.33337E-05-3.03839E-05 2.64502E-06-3.33691E-18 2.08408E-18
 -1      1626 9.48212E-05-2.56863E-05-2.96707E-05 2.29462E-06-5.50662E-18 9.70627E-19
 -1      1627 9.53238E-05-2.63525E-05-2.96437E-05 3.30840E-06-2.28034E-18 9.12949E-19
 -1      1628 9.22479E-05-1.70136E-05-3.22914E-05 4.50926E-06-4.68176E-18-7.44350E-19
 -1      1629 9.35306E-05-2.10866E-05-3.11097E-05 4.10588E-06-3.76511E-18 9.84570E-19
 -1      1630 9.44778E-05-2.30231E-05-3.07327E-05 6.51065E-06-2.48201E-18 1.78295E-18
 -1      1631 8.93617E-05-8.10100E-06-3.48657E-05 6.11590E-06-1.92070E-18 8.04496E-19
 -1      1632 9.12200E-05-1.36740E-05-3.32994E-05 5.81234E-06-4.35078E-18 1.81354E-18
 -1      1633 9.27355E-05-1.75893E-05-3.23170E-05 9.89312E-06-3.33469E-18 1.07483E-18
 -1      1634 8.59091E-05 1.90029E-06-3.76384E-05 6.57243E-06-1.34064E-18 2.35793E-19
 -1      1635 8.79975E-05-4.08373E-06-3.60001E-05 6.57893E-06-1.78655E-18-9.24551E-19
 -1      1636 9.00254E-05-1.02623E-05-3.42356E-05 1.21117E-05-1.89374E-18 3.44921E-19
 -1      1637 8.26890E-05 1.07794E-05-4.00100E-05 5.14083E-06 1.49655E-18 1.83871E-18
 -1      1638 8.44681E-05 5.85078E-06-3.86883E-05 5.59825E-06-1.33858E-18 1.76332E-18
 -1      1639 8.67476E-05-2.21253E-06-3.61628E-05 1.15927E-05-6.87288E-19 1.23955E-18
 -1      1640 8.09580E-05 1.53872E-05-4.12031E-05 1.84787E-06 4.14223E-18-6.25746E-20
 -1      1641 8.17175E-05 1.33253E-05-4.06585E-05 2.66548E-06 2.75963E-18 8.54008E-19
 -1      1642 8.38653E-05 4.43157E-06-3.76423E-05 7.42765E-06-1.10233E-19 2.47908E-18
 -1      1643 8.14788E-05 1.39400E-05-4.08113E-05-2.18533E-06 5.38252E-18 4.88288E-19
 -1      1644 8.08907E-05 1.55512E-05-4.12409E-05-1.33809E-06 4.63196E-18 9.62666E-19
 -1      1645 8.26077E-05 7.22734E-06-3.82359E-05 4.83821E-07 3.11443E-18 7.61694E-19
 -1      1646 8.40466E-05 6.95841E-06-3.89697E-05-5.36914E-06 1.52921E-18-1.37867E-18
 -1      1647 8.23526E-05 1.16417E-05-4.02239E-05-4.84245E-06 3.03915E-18-9.23636E-19
 -1      1648 8.35807E-05 5.03146E-06-3.77568E-05-6.69011E-06 2.54698E-18-1.92599E-18
 -1      1649 8.76179E-05-3.03330E-06-3.62795E-05-6.64748E-06 3.21343E-20-1.55449E-18
 -1      1650 8.54725E-05 3.07500E-06-3.79448E-05-6.58461E-06 1.76839E-18-8.76395E-19
 -1      1651 8.63259E-05-1.29828E-06-3.63515E-05-1.13863E-05 1.34378E-18-1.43712E-18
 -1      1652 9.09482E-05-1.28388E-05-3.35378E-05-6.06718E-06-2.68769E-18-7.06700E-19
 -1      1653 8.90342E-05-7.15101E-06-3.51290E-05-6.34385E-06-2.20123E-19-2.25367E-18
 -1      1654 8.96854E-05-9.41783E-06-3.44374E-05-1.23947E-05 5.47779E-19-3.30558E-18
 -1      1655 9.34356E-05-2.06879E-05-3.12418E-05-4.36994E-06-3.22058E-19 1.16413E-18
 -1      1656 9.20609E-05-1.63697E-05-3.24882E-05-4.79273E-06-2.53782E-18 2.52299E-18
 -1      1657 9.25544E-05-1.70485E-05-3.24694E-05-1.04048E-05 8.28650E-19 1.43186E-18
 -1      1658 9.48322E-05-2.55991E-05-2.97145E-05-2.45130E-06 9.06458E-19 8.33705E-19
 -1      1659 9.40993E-05-2.30807E-05-3.04752E-05-2.83119E-06 3.42175E-19 5.36112E-19
 -1      1660 9.44514E-05-2.28373E-05-3.08131E-05-6.95319E-06 9.77770E-19 1.37714E-18
 -1      1661 9.53517E-05-2.78548E-05-2.89205E-05-9.85643E-07 6.51673E-19 4.33615E-19
 -1      1662 9.50696E-05-2.68653E-05-2.92576E-05-1.17124E-06 1.11037E-18 1.58488E-19
 -1      1663 9.53495E-05-2.63434E-05-2.96624E-05-3.54245E-06 4.68078E-19-4.77859E-19
 -1      1664 9.54591E-05-2.84677E-05-2.86818E-05-2.25448E-07-2.64539E-19-7.81848E-19
 -1      1665 9.55064E-05-2.83578E-05-2.87862E-05-3.86488E-07 5.48977E-19-2.92567E-19
 -1      1666 9.57045E-05-2.78792E-05-2.90908E-05-1.36473E-06 3.65607E-19-1.88127E-19
 -1      1667 9.56158E-05-2.84523E-05-2.88183E-05-3.97031E-07-2.67292E-19-1.74337E-18
 -1      1668 2.39526E-05-7.93021E-05 1.66886E-05-8.15912E-06-5.34054E-19-3.38813E-21
 -1      1669 2.82250E-05-9.11389E-05 1.90341E-05 1.82008E-06-2.16745E-18-4.23516E-20
 -1      1670 2.46963E-05-4.48715E-05 4.28662E-06 6.64123E-06 1.79910E-18 2.26708E-18
 -1      1671 2.93167E-05-7.13373E-05 1.14376E-05 1.29291E-06-3.13402E-20 1.23466E-18
 -1      1672 3.81737E-05-1.34099E-05-1.25374E-05 3.08309E-05 4.96870E-18 5.20925E-18
 -1      1673 3.26560E-05-3.65967E-05-3.20226E-06 1.18393E-05 3.29496E-18 2.95869E-18
 -1      1674 8.13474E-05-2.41917E-06-3.28712E-05 6.50206E-05 4.91364E-18 2.56312E-18
 -1      1675 5.45714E-05-8.72517E-06-2.20929E-05 3.98227E-05 5.80980E-18 3.84638E-18
 -1      1676 1.57067E-04-2.29006E-05-5.38298E-05 7.89140E-05 1.30528E-18-5.92923E-21
 -1      1677 1.11026E-04-9.30134E-06-4.30291E-05 6.60757E-05 2.58345E-18 1.66527E-18
 -1      1678 2.24846E-04-4.76594E-05-7.00625E-05 6.22405E-05 7.75247E-19-1.32899E-18
 -1      1679 1.79722E-04-2.58814E-05-6.25423E-05 7.39058E-05 1.08717E-18-5.16690E-20
 -1      1680 2.68590E-04-6.78374E-05-7.86514E-05 2.40407E-05-9.31736E-20-2.90215E-18
 -1      1681 2.46322E-04-5.45662E-05-7.58447E-05 5.71494E-05 6.99226E-19-1.91175E-18
 -1      1682 2.55928E-04-6.19202E-05-7.69121E-05-3.03358E-05 1.11808E-18-3.36230E-18
 -1      1683 2.69122E-04-6.83246E-05-7.88739E-05 6.75976E-06 2.49875E-19-3.08384E-18
 -1      1684 1.97996E-04-3.65104E-05-6.53414E-05-6.33645E-05 2.95392E-18-5.01782E-18
 -1      1685 2.39602E-04-5.69376E-05-7.22285E-05-4.31792E-05 2.19826E-18-3.00188E-18
 -1      1686 1.26667E-04-1.22739E-05-4.78193E-05-6.86244E-05 4.87552E-18-6.10287E-18
 -1      1687 1.74816E-04-3.04903E-05-5.76183E-05-7.40302E-05 3.18188E-18-5.90805E-18
 -1      1688 6.73609E-05-1.04902E-05-2.61924E-05-4.23389E-05 5.29141E-18-5.29734E-18
 -1      1689 1.01775E-04-1.05028E-05-3.75658E-05-6.55561E-05 5.20332E-18-5.89450E-18
 -1      1690 3.31834E-05-2.75058E-05-6.82788E-06-1.35400E-05 4.29954E-18-4.24152E-18
 -1      1691 4.38421E-05-9.68768E-06-1.61577E-05-3.45149E-05 5.78015E-18-5.15420E-18
 -1      1692 2.53694E-05-6.03535E-05 8.74947E-06 3.90083E-06 2.21923E-18-1.96840E-18
 -1      1693 2.19260E-05-3.45513E-05 1.33312E-06-4.66877E-06 3.73796E-18-4.20001E-18
 -1      1694 2.64004E-05-8.34784E-05 1.74842E-05 2.52711E-06 1.02915E-18-7.75247E-19
 -1      1695 2.09049E-05-6.75436E-05 1.39957E-05 8.93402E-06 1.63308E-18 2.95826E-19
 -1      1696 2.44393E-05-8.24547E-05 1.82394E-05-5.56547E-06-5.54552E-18-4.24956E-18
 -1      1697 2.54140E-05-8.53098E-05 1.87988E-05 5.01279E-06-4.93291E-19-2.91993E-18
 -1      1698 2.04528E-05-5.90309E-05 1.12386E-05-4.81255E-06-1.05286E-17-4.58022E-18
 -1      1699 2.59390E-05-7.78527E-05 1.56587E-05-1.72964E-06-6.90417E-18-3.90461E-18
 -1      1700 2.42618E-05-2.65918E-05-2.42079E-06 1.16664E-05-1.28664E-17-8.63000E-18
 -1      1701 2.55424E-05-5.20616E-05 5.52994E-06-2.96169E-07-1.14951E-17-6.24412E-18
 -1      1702 6.23556E-05-1.12128E-05-2.23498E-05 4.65525E-05-9.37750E-18-7.38952E-18
 -1      1703 4.46433E-05-2.52894E-05-1.17552E-05 2.32490E-05-1.16713E-17-6.61067E-18
 -1      1704 1.27171E-04-1.65031E-05-4.48166E-05 7.07799E-05-6.32310E-18-5.27109E-18
 -1      1705 8.54748E-05-1.00811E-05-3.30909E-05 5.09230E-05-7.84098E-18-6.87198E-18
 -1      1706 2.00641E-04-3.86495E-05-6.38777E-05 7.34011E-05-2.89961E-18-6.84403E-19
 -1      1707 1.51635E-04-1.70540E-05-5.50914E-05 7.61252E-05-5.72298E-18-3.91668E-18
 -1      1708 2.56714E-04-6.41477E-05-7.56852E-05 3.47312E-05-3.41672E-19 2.00747E-18
 -1      1709 2.23485E-04-4.62241E-05-7.05898E-05 6.29562E-05-1.27103E-18 1.02491E-19
 -1      1710 2.62683E-04-6.47292E-05-7.81877E-05-2.09885E-05-5.75135E-19 2.18026E-18
 -1      1711 2.61185E-04-6.44584E-05-7.77838E-05 1.54545E-05-1.93335E-19 2.09619E-18
 -1      1712 2.31077E-04-4.72622E-05-7.29029E-05-6.68366E-05 2.82485E-19 1.71101E-18
 -1      1713 2.59899E-04-6.39184E-05-7.69203E-05-3.86239E-05 2.46275E-19 3.01798E-18
 -1      1714 1.66134E-04-1.96727E-05-5.92384E-05-8.13832E-05 2.74439E-19-1.27902E-19
 -1      1715 2.11041E-04-4.07542E-05-6.70246E-05-7.55292E-05 1.98841E-19 7.08967E-19
 -1      1716 1.00367E-04-2.39006E-06-4.12446E-05-6.96824E-05-2.78674E-19 9.82558E-20
 -1      1717 1.41027E-04-1.32271E-05-5.09387E-05-8.45616E-05 5.92923E-20-2.54110E-19
 -1      1718 5.28258E-05-9.73081E-06-2.08737E-05-3.81505E-05-3.32799E-18 2.32934E-19
 -1      1719 7.74267E-05-1.46753E-06-3.14981E-05-6.33762E-05-9.13949E-19-4.47233E-19
 -1      1720 3.26954E-05-4.07537E-05-1.72608E-06-1.01242E-05-6.88638E-18 1.90964E-18
 -1      1721 3.78275E-05-1.63538E-05-1.12577E-05-2.94741E-05-5.32445E-18-1.18585E-20
 -1      1722 2.80113E-05-7.34090E-05 1.22836E-05 2.21274E-06-6.02495E-18 3.56376E-18
 -1      1723 2.21708E-05-4.78861E-05 5.99425E-06-1.02920E-06-6.93381E-18 3.08299E-18
 -1      1724 2.80557E-05-8.97177E-05 1.87131E-05-2.06903E-06-3.15181E-18 1.77580E-18
 -1      1725 2.42525E-05-7.83834E-05 1.62942E-05 6.92388E-06-6.60474E-18 4.87277E-18
 -1      1726 1.27695E-04-3.65955E-05-3.75142E-05 4.84859E-05 2.86382E-18-1.42556E-18
 -1      1727 7.94321E-05-3.88873E-05-1.85766E-05 4.38909E-05 3.38305E-18 2.66477E-18
 -1      1728 9.54401E-05-2.83576E-05-2.87615E-05 3.33900E-07-5.23793E-18-3.00001E-18
 -1      1729 9.56636E-05-2.79201E-05-2.90716E-05 1.36147E-06-1.55057E-18-7.41789E-19
 -1      1730 2.30767E-05-5.58052E-05 9.55366E-06 1.91523E-05-1.12698E-18 1.09437E-18
 -1      1731 4.67099E-05-4.91705E-05-2.27590E-06 3.28966E-05 8.04681E-19 3.28474E-18
 -1      1732 1.41602E-05-6.06229E-05 1.43123E-05-6.98818E-07-1.49597E-18 2.49366E-18
 -1      1733 1.71294E-04-3.57035E-05-5.49923E-05 3.67807E-05 1.23635E-18-6.25110E-19
 -1      1734 2.04820E-04-3.38212E-05-6.85252E-05 2.71775E-05 1.02703E-18-1.54838E-18
 -1      1735 2.24520E-04-3.69383E-05-7.43701E-05 1.02247E-05 4.58668E-19-1.36166E-18
 -1      1736 2.09930E-04-3.47116E-05-7.00831E-05-1.10911E-05 1.91684E-18-2.11123E-18
 -1      1737 1.80570E-04-3.56696E-05-5.85010E-05-3.08026E-05 3.27156E-18-3.95480E-18
 -1      1738 1.36861E-04-3.69339E-05-4.13068E-05-4.10942E-05 3.34790E-18-3.65495E-18
 -1      1739 8.93426E-05-3.89138E-05-2.22152E-05-3.97521E-05 3.31952E-18-4.01324E-18
 -1      1740 4.88673E-05-4.41761E-05-4.77742E-06-2.83862E-05 2.90871E-18-4.72263E-18
 -1      1741 2.46687E-05-5.35002E-05 8.03177E-06-1.51569E-05 1.38956E-18-1.87067E-18
 -1      1742 1.41965E-05-5.91475E-05 1.42737E-05-3.29778E-06-1.37579E-18-3.64267E-18
 -1      1743 1.53518E-05-5.67402E-05 1.30286E-05 8.43880E-06-3.71022E-18-5.75474E-18
 -1      1744 2.89059E-05-5.01032E-05 5.19505E-06 2.05050E-05-6.36799E-18-5.94554E-18
 -1      1745 6.14891E-05-4.38149E-05-9.33906E-06 3.56954E-05-7.40053E-18-4.14940E-18
 -1      1746 1.08827E-04-4.29716E-05-2.80463E-05 4.09753E-05-5.67978E-18-2.40007E-18
 -1      1747 1.52140E-04-3.67727E-05-4.76774E-05 3.93258E-05-5.61413E-18 1.69407E-21
 -1      1748 1.96176E-04-3.59016E-05-6.40832E-05 3.33794E-05-3.46691E-18 1.43064E-18
 -1      1749 2.17426E-04-3.51302E-05-7.24684E-05 9.31684E-06-5.10337E-19 6.24899E-19
 -1      1750 2.18996E-04-3.45926E-05-7.32307E-05-1.62687E-05 3.79894E-19 8.67362E-19
 -1      1751 2.00559E-04-3.38902E-05-6.64145E-05-3.62869E-05 4.46386E-19 1.04016E-18
 -1      1752 1.63255E-04-3.17454E-05-5.30188E-05-4.90236E-05 2.32934E-20-5.33631E-19
 -1      1753 1.18524E-04-3.24006E-05-3.58128E-05-5.13144E-05-9.37665E-19-1.56871E-18
 -1      1754 7.74045E-05-4.02375E-05-1.73397E-05-4.33000E-05-3.21364E-18-2.76472E-18
 -1      1755 4.37834E-05-4.95178E-05-9.87273E-07-3.10945E-05-3.31275E-18 8.15534E-19
 -1      1756 2.20045E-05-5.75798E-05 1.02386E-05-1.55771E-05-2.96250E-18 3.79810E-18
 -1      1757 1.06059E-04-2.31731E-05-3.56060E-05-1.68524E-05-2.42748E-18 8.48896E-18
 -1      1758 8.91295E-05-1.05604E-05-3.37960E-05-1.33396E-05-2.99157E-18-3.79593E-18
 -1      1759 9.04589E-05-1.16287E-05-3.39363E-05-1.51135E-05-3.43981E-18-2.86255E-18
 -1      1760 9.24973E-05-1.38751E-05-3.38552E-05-1.60014E-05-3.48734E-18-1.60452E-18
 -1      1761 9.42133E-05-1.58259E-05-3.40991E-05-1.76620E-05-3.74174E-18 1.44790E-19
 -1      1762 9.34480E-05-1.63669E-05-3.30454E-05-1.37503E-05-3.62849E-18-2.03087E-18
 -1      1763 8.62082E-05-7.67255E-06-3.37295E-05-7.86363E-06-1.60427E-18-5.38000E-18
 -1      1764 8.66105E-05-7.97096E-06-3.37634E-05-9.25284E-06-1.95547E-18-5.18421E-18
 -1      1765 8.55913E-05-7.03564E-06-3.37261E-05-5.32076E-06-9.76723E-19-5.56670E-18
 -1      1766 8.58256E-05-7.21421E-06-3.37414E-05-6.62534E-06-1.29845E-18-5.54145E-18
 -1      1767 8.75904E-05-9.86670E-06-3.33430E-05-6.92919E-06-1.56977E-18-5.24321E-18
 -1      1768 8.52565E-05-6.67731E-06-3.37292E-05-2.88914E-06-2.56745E-19-5.46625E-18
 -1      1769 8.53773E-05-6.77190E-06-3.37352E-05-4.12894E-06-5.97884E-19-5.49968E-18
 -1      1770 8.69552E-05-9.15499E-06-3.33756E-05-4.53818E-06-8.59560E-19-5.34105E-18
 -1      1771 8.51258E-05-6.52921E-06-3.37326E-05-5.17570E-07 3.49001E-19-5.39978E-18
 -1      1772 8.51613E-05-6.55770E-06-3.37340E-05-1.72727E-06 5.43239E-20-5.46023E-18
 -1      1773 8.66235E-05-8.77628E-06-3.33955E-05-2.21761E-06-1.43653E-19-5.28061E-18
 -1      1774 8.51712E-05-6.56670E-06-3.37342E-05 1.84523E-06 9.86464E-19-5.25936E-18
 -1      1775 8.51294E-05-6.53376E-06-3.37325E-05 6.34535E-07 6.89110E-19-5.35239E-18
 -1      1776 8.65253E-05-8.66272E-06-3.34020E-05 6.53885E-08 5.46061E-19-5.24233E-18
 -1      1777 8.54027E-05-6.79694E-06-3.37353E-05 4.25126E-06 1.56308E-18-5.10333E-18
 -1      1778 8.52745E-05-6.69624E-06-3.37292E-05 3.00839E-06 1.30087E-18-5.19464E-18
 -1      1779 8.66412E-05-8.79580E-06-3.33948E-05 2.34952E-06 1.20000E-18-5.07565E-18
 -1      1780 8.58602E-05-7.25019E-06-3.37410E-05 6.71258E-06 2.14511E-18-4.74039E-18
 -1      1781 8.56219E-05-7.06796E-06-3.37260E-05 5.42532E-06 1.82237E-18-4.97965E-18
 -1      1782 8.69898E-05-9.19281E-06-3.33741E-05 4.65297E-06 1.81952E-18-4.91830E-18
 -1      1783 8.66744E-05-8.04002E-06-3.37620E-05 9.37413E-06 2.89262E-18-3.97116E-18
 -1      1784 8.62530E-05-7.72340E-06-3.37281E-05 7.95336E-06 2.49579E-18-4.40461E-18
 -1      1785 8.76425E-05-9.92541E-06-3.33400E-05 7.02821E-06 2.54230E-18-4.38549E-18
 -1      1786 8.80883E-05-9.38806E-06-3.38178E-05 1.22528E-05 3.56425E-18-2.84926E-18
 -1      1787 8.73475E-05-8.83002E-06-3.37455E-05 1.06599E-05 3.17965E-18-3.53672E-18
 -1      1788 8.87648E-05-1.11604E-05-3.32898E-05 9.50220E-06 3.26558E-18-3.47554E-18
 -1      1789 9.06341E-05-1.18408E-05-3.39284E-05 1.53012E-05 4.00666E-18-9.05399E-19
 -1      1790 8.92528E-05-1.07413E-05-3.37883E-05 1.35115E-05 3.70670E-18-2.06028E-18
 -1      1791 9.06638E-05-1.32234E-05-3.32074E-05 1.19739E-05 3.82391E-18-2.20158E-18
 -1      1792 9.58808E-05-1.70360E-05-3.39946E-05 1.76891E-05 3.93757E-18 2.94778E-18
 -1      1793 9.28603E-05-1.43443E-05-3.38281E-05 1.61922E-05 3.90237E-18 6.09599E-19
 -1      1794 9.39733E-05-1.68882E-05-3.30252E-05 1.38928E-05 4.08552E-18-4.78044E-20
 -1      1795 1.01931E-04-2.50964E-05-3.33610E-05 1.44214E-05 3.28776E-18 7.53033E-18
 -1      1796 9.80820E-05-1.96183E-05-3.36269E-05 1.69629E-05 3.61456E-18 4.52400E-18
 -1      1797 9.73345E-05-2.18560E-05-3.24292E-05 1.32469E-05 3.98116E-18 2.89444E-18
 -1      1798 9.87587E-05-2.61374E-05-3.13443E-05 9.43374E-06 3.30814E-18 6.45209E-18
 -1      1799 1.00162E-04-1.95661E-05-3.42197E-05-1.88685E-05-3.25922E-18 3.13317E-18
 -1      1800 9.53182E-05-2.72878E-05-2.91874E-05 4.06569E-06 2.57712E-18 4.82786E-18
 -1      1801 9.77483E-05-2.73929E-05-3.01964E-05 6.39974E-06 2.77475E-18 5.82334E-18
 -1      1802 9.75825E-05-2.56167E-05-3.08345E-05 8.75850E-06 3.35489E-18 3.76474E-18
 -1      1803 9.98220E-05-2.25443E-05-3.28377E-05-1.44680E-05-3.49721E-18 1.91461E-18
 -1      1804 9.69646E-05-2.69798E-05-2.98786E-05-5.70330E-06-2.68753E-18 1.44225E-18
 -1      1805 9.51585E-05-2.70363E-05-2.91679E-05-3.89661E-06-2.34117E-18 8.02590E-19
 -1      1806 9.43382E-05-2.72372E-05-2.86606E-05-2.42076E-06-2.11536E-18 7.61019E-19
 -1      1807 9.35673E-05-2.73180E-05-2.83556E-05-1.56723E-06-1.77361E-18 1.34218E-19
 -1      1808 9.55106E-05-2.65477E-05-2.95765E-05-4.47262E-06-2.60068E-18-4.23707E-19
 -1      1809 9.30425E-05-2.73692E-05-2.80868E-05-7.41472E-07-1.50606E-18 1.48793E-20
 -1      1810 9.27411E-05-2.74324E-05-2.79648E-05-3.03687E-07-1.22162E-18-4.93671E-19
 -1      1811 9.43011E-05-2.72229E-05-2.87681E-05-1.82899E-06-2.02057E-18-8.09605E-19
 -1      1812 9.24647E-05-2.74595E-05-2.78287E-05 1.50959E-07-1.05506E-18-6.45990E-19
 -1      1813 9.24329E-05-2.75355E-05-2.77987E-05 3.74508E-07-9.99601E-19-1.03780E-18
 -1      1814 9.35995E-05-2.75294E-05-2.83322E-05-3.64241E-07-1.48874E-18-1.24274E-18
 -1      1815 9.23288E-05-2.75668E-05-2.77402E-05 6.13479E-07-1.07679E-18-1.08487E-18
 -1      1816 9.24428E-05-2.76518E-05-2.77590E-05 7.16633E-07-1.15400E-18-1.44255E-18
 -1      1817 9.32770E-05-2.77134E-05-2.81109E-05 4.36737E-07-1.27263E-18-1.53547E-18
 -1      1818 9.24470E-05-2.76895E-05-2.77467E-05 8.26477E-07-1.04626E-18-1.24642E-18
 -1      1819 9.26331E-05-2.77759E-05-2.77909E-05 8.59129E-07-8.26285E-19-1.38277E-18
 -1      1820 9.32118E-05-2.78564E-05-2.80177E-05 8.45739E-07-1.09788E-18-1.64810E-18
 -1      1821 9.27002E-05-2.78169E-05-2.78052E-05 8.91141E-07-1.01564E-18-1.40488E-18
 -1      1822 9.29143E-05-2.78991E-05-2.78608E-05 8.82483E-07-9.71276E-19-1.67613E-18
 -1      1823 9.33039E-05-2.79794E-05-2.80013E-05 1.01831E-06-1.05073E-18-1.61156E-18
 -1      1824 9.30135E-05-2.79400E-05-2.78893E-05 8.68420E-07-1.00744E-18-1.59057E-18
 -1      1825 9.32291E-05-2.80144E-05-2.79477E-05 8.36660E-07-7.77498E-19-1.78737E-18
 -1      1826 9.34826E-05-2.80876E-05-2.80292E-05 1.04841E-06-1.01757E-18-1.68630E-18
 -1      1827 9.33406E-05-2.80528E-05-2.79825E-05 7.96991E-07-6.85939E-19-1.98177E-18
 -1      1828 9.35426E-05-2.81177E-05-2.80386E-05 7.53885E-07-5.92725E-19-2.40907E-18
 -1      1829 9.37006E-05-2.81818E-05-2.80807E-05 9.95421E-07-1.02299E-18-1.67580E-18
 -1      1830 9.36541E-05-2.81520E-05-2.80749E-05 7.02066E-07-6.13727E-19-2.84727E-18
 -1      1831 9.38346E-05-2.82069E-05-2.81261E-05 6.55298E-07-4.07960E-19-3.15490E-18
 -1      1832 9.39274E-05-2.82618E-05-2.81426E-05 8.98084E-07-9.15101E-19-2.10428E-18
 -1      1833 9.39391E-05-2.82365E-05-2.81611E-05 6.00222E-07-4.42607E-19-3.45457E-18
 -1      1834 9.40955E-05-2.82819E-05-2.82061E-05 5.54814E-07-4.72786E-19-3.58139E-18
 -1      1835 9.41448E-05-2.83281E-05-2.82069E-05 7.81998E-07-6.57991E-19-2.64575E-18
 -1      1836 9.41898E-05-2.83067E-05-2.82383E-05 5.02354E-07-2.57567E-19-3.46847E-18
 -1      1837 9.43225E-05-2.83434E-05-2.82770E-05 4.61580E-07-5.35602E-20-3.42953E-18
 -1      1838 9.43434E-05-2.83817E-05-2.82688E-05 6.64132E-07-2.84305E-19-2.60420E-18
 -1      1839 9.44058E-05-2.83639E-05-2.83060E-05 4.15636E-07-2.43177E-19-3.21531E-18
 -1      1840 9.45174E-05-2.83932E-05-2.83391E-05 3.81663E-07-3.53244E-19-2.99588E-18
 -1      1841 9.45199E-05-2.84239E-05-2.83262E-05 5.55760E-07-2.52494E-20-2.43176E-18
 -1      1842 9.45910E-05-2.84101E-05-2.83652E-05 3.44914E-07-4.68707E-19-3.01628E-18
 -1      1843 9.46857E-05-2.84335E-05-2.83937E-05 3.19273E-07-1.91919E-19-3.07444E-18
 -1      1844 9.46749E-05-2.84566E-05-2.83788E-05 4.64497E-07-4.48308E-19-2.30577E-18
 -1      1845 9.47519E-05-2.84475E-05-2.84177E-05 2.93733E-07-1.56186E-19-3.14509E-18
 -1      1846 9.48350E-05-2.84667E-05-2.84431E-05 2.77678E-07-2.46843E-19-3.04936E-18
 -1      1847 9.48124E-05-2.84817E-05-2.84271E-05 3.95781E-07-2.77035E-19-2.37912E-18
 -1      1848 9.48975E-05-2.84790E-05-2.84661E-05 2.65114E-07-6.73583E-19-3.21447E-18
 -1      1849 9.49752E-05-2.84958E-05-2.84902E-05 2.59892E-07-7.51003E-19-3.41852E-18
 -1      1850 9.49384E-05-2.85012E-05-2.84731E-05 3.53983E-07-6.15600E-19-2.65486E-18
 -1      1851 9.50383E-05-2.85075E-05-2.85137E-05 2.62147E-07-4.78781E-19-3.32081E-18
 -1      1852 9.51179E-05-2.85240E-05-2.85386E-05 2.69203E-07-3.62159E-19-3.31035E-18
 -1      1853 9.50608E-05-2.85173E-05-2.85190E-05 3.43247E-07-4.93147E-19-2.32395E-18
 -1      1854 9.51869E-05-2.85364E-05-2.85644E-05 2.88425E-07-3.40133E-19-3.65325E-18
 -1      1855 9.52767E-05-2.85548E-05-2.85926E-05 3.09549E-07-5.87101E-20-4.18044E-18
 -1      1856 9.51892E-05-2.85324E-05-2.85680E-05 3.68103E-07-5.55941E-19-2.29791E-18
 -1      1857 9.53578E-05-2.85695E-05-2.86229E-05 3.48338E-07 2.73143E-19-4.36129E-18
 -1      1858 9.54674E-05-2.85925E-05-2.86572E-05 3.85747E-07 5.54342E-19-4.17998E-18
 -1      1859 9.53350E-05-2.85491E-05-2.86239E-05 4.33901E-07 4.20252E-20-2.95051E-18
 -1      1860 9.55676E-05-2.86113E-05-2.86943E-05 4.47213E-07 8.30708E-19-4.48485E-18
 -1      1861 9.57082E-05-2.86420E-05-2.87379E-05 5.03559E-07 6.25849E-19-4.12180E-18
 -1      1862 9.55112E-05-2.85705E-05-2.86908E-05 5.47036E-07 7.51060E-19-3.51428E-18
 -1      1863 9.58356E-05-2.86671E-05-2.87847E-05 5.91258E-07 1.00477E-19-3.66793E-18
 -1      1864 9.60199E-05-2.87092E-05-2.88413E-05 6.69519E-07 3.66470E-19-3.29653E-18
 -1      1865 9.57332E-05-2.86006E-05-2.87737E-05 7.14936E-07 7.76847E-19-3.52375E-18
 -1      1866 9.61837E-05-2.87433E-05-2.89007E-05 7.87216E-07 2.97282E-19-3.06296E-18
 -1      1867 9.64262E-05-2.88012E-05-2.89744E-05 8.90429E-07 1.06340E-19-3.47061E-18
 -1      1868 9.60181E-05-2.86441E-05-2.88779E-05 9.45726E-07 3.42145E-19-2.83933E-18
 -1      1869 9.66366E-05-2.88475E-05-2.90495E-05 1.04160E-06-3.32154E-20-3.09091E-18
 -1      1870 9.69532E-05-2.89265E-05-2.91449E-05 1.17234E-06-1.52789E-20-3.18290E-18
 -1      1871 9.63853E-05-2.87070E-05-2.90091E-05 1.24741E-06 3.45939E-19-2.79192E-18
 -1      1872 9.72211E-05-2.89889E-05-2.92389E-05 1.35929E-06-2.96212E-19-3.36356E-18
 -1      1873 9.76284E-05-2.90953E-05-2.93603E-05 1.51872E-06-1.03374E-18-3.69209E-18
 -1      1874 9.68563E-05-2.87974E-05-2.91730E-05 1.62631E-06-1.60410E-19-2.89458E-18
 -1      1875 9.79650E-05-2.91787E-05-2.94760E-05 1.74111E-06-1.41064E-18-3.41678E-18
 -1      1876 9.84792E-05-2.93195E-05-2.96276E-05 1.92747E-06-7.36455E-19-3.63644E-18
 -1      1877 9.74537E-05-2.89257E-05-2.93748E-05 2.08451E-06-9.51350E-19-2.82052E-18
 -1      1878 9.88952E-05-2.94301E-05-2.97668E-05 2.17994E-06-2.23679E-19-3.97938E-18
 -1      1879 9.95293E-05-2.96133E-05-2.99513E-05 2.38612E-06 1.84741E-19-3.91765E-18
 -1      1880 9.82004E-05-2.91060E-05-2.96182E-05 2.61560E-06-6.11018E-19-2.87843E-18
 -1      1881 1.00034E-04-2.97590E-05-3.01139E-05 2.65481E-06 6.20641E-19-3.85048E-18
 -1      1882 1.00793E-04-2.99928E-05-3.03316E-05 2.86473E-06 6.88352E-19-3.46070E-18
 -1      1883 9.91178E-05-2.93575E-05-2.99041E-05 3.19828E-06 4.19481E-19-3.68682E-18
 -1      1884 1.01392E-04-3.01834E-05-3.05148E-05 3.12221E-06 2.64345E-19-3.41908E-18
 -1      1885 1.02269E-04-3.04752E-05-3.07612E-05 3.30583E-06-3.34800E-19-3.44768E-18
 -1      1886 1.00223E-04-2.97058E-05-3.02289E-05 3.78712E-06 3.98500E-19-3.54565E-18
 -1      1887 1.02962E-04-3.07229E-05-3.09577E-05 3.50463E-06-7.04477E-19-3.24667E-18
 -1      1888 1.03926E-04-3.10772E-05-3.12210E-05 3.61198E-06-2.48298E-19-3.40652E-18
 -1      1889 1.01527E-04-3.01845E-05-3.05821E-05 4.30004E-06-1.93384E-19-2.80529E-18
 -1      1890 1.04705E-04-3.13953E-05-3.14182E-05 3.67750E-06 7.81793E-20-2.75388E-18
 -1      1891 1.05691E-04-3.18082E-05-3.16766E-05 3.63346E-06 4.30660E-19-2.18750E-18
 -1      1892 1.03024E-04-3.08342E-05-3.09444E-05 4.60379E-06 1.94103E-19-1.86196E-18
 -1      1893 1.06532E-04-3.22068E-05-3.18555E-05 3.45951E-06 6.32709E-19-2.36127E-18
 -1      1894 1.07427E-04-3.26575E-05-3.20743E-05 3.16406E-06 1.08565E-18-2.37402E-18
 -1      1895 1.04686E-04-3.16947E-05-3.12865E-05 4.50135E-06 8.28369E-19-1.21287E-18
 -1      1896 1.08281E-04-3.31316E-05-3.22110E-05 2.61843E-06 3.33079E-19-2.00826E-18
 -1      1897 1.08914E-04-3.35663E-05-3.23438E-05 1.96169E-06 7.17999E-19-1.71212E-18
 -1      1898 1.06445E-04-3.27819E-05-3.15709E-05 3.73240E-06 8.63793E-19-8.67461E-19
 -1      1899 1.09688E-04-3.40735E-05-3.24136E-05 9.15095E-07 1.12852E-18-1.71494E-18
 -1      1900 1.09836E-04-3.43844E-05-3.24079E-05-1.79489E-07 1.12020E-18-2.04052E-18
 -1      1901 1.08155E-04-3.40393E-05-3.17588E-05 2.00874E-06 9.16758E-19-1.21468E-18
 -1      1902 1.10366E-04-3.48093E-05-3.23939E-05-1.78218E-06 1.28561E-18-2.00327E-18
 -1      1903 1.09785E-04-3.48197E-05-3.22068E-05-3.27511E-06 1.33766E-18-1.47457E-18
 -1      1904 1.09550E-04-3.52559E-05-3.18236E-05-8.82451E-07 1.26105E-18-1.26196E-18
 -1      1905 1.09823E-04-3.49488E-05-3.21100E-05-5.29006E-06 4.43541E-19-1.47632E-18
 -1      1906 1.08336E-04-3.44401E-05-3.17312E-05-6.91935E-06-3.33691E-19-1.79008E-18
 -1      1907 1.10189E-04-3.59830E-05-3.17688E-05-4.87093E-06 6.24558E-19-8.45400E-19
 -1      1908 1.07610E-04-3.40054E-05-3.15765E-05-8.86668E-06-3.00233E-20-1.38557E-18
 -1      1909 1.05251E-04-3.28385E-05-3.10498E-05-1.00949E-05 2.21234E-19-5.68677E-19
 -1      1910 1.09503E-04-3.55621E-05-3.16374E-05-9.31064E-06 2.40485E-19-7.76987E-20
 -1      1911 1.03664E-04-3.17090E-05-3.08772E-05-1.11626E-05-7.07521E-20-2.72255E-19
 -1      1912 1.00827E-04-3.00312E-05-3.03004E-05-1.13253E-05-2.50555E-19 6.34573E-19
 -1      1913 1.07065E-04-3.34564E-05-3.14965E-05-1.27883E-05 4.74254E-19 4.87183E-19
 -1      1914 9.87356E-05-2.84788E-05-3.01375E-05-1.07204E-05-5.79258E-19 9.81460E-19
 -1      1915 9.61582E-05-2.68414E-05-2.96336E-05-9.43212E-06-5.76571E-19 1.25886E-18
 -1      1916 1.03137E-04-2.98763E-05-3.13858E-05-1.34596E-05-3.65217E-20 1.78486E-18
 -1      1917 9.44166E-05-2.55995E-05-2.94784E-05-7.02703E-06-1.31318E-18 5.23241E-20
 -1      1918 9.28923E-05-2.47404E-05-2.91489E-05-4.62843E-06-8.88127E-19-3.99373E-19
 -1      1919 9.90215E-05-2.61920E-05-3.12643E-05-1.01641E-05-1.93577E-18 1.65366E-18
 -1      1920 9.23236E-05-2.45319E-05-2.89880E-05-1.37150E-06-8.41183E-19-8.59017E-19
 -1      1921 9.22355E-05-2.48323E-05-2.88751E-05 1.09193E-06 6.20610E-19-9.23491E-19
 -1      1922 9.65706E-05-2.43297E-05-3.10441E-05-3.76291E-06-1.03764E-18 5.49463E-20
 -1      1923 9.28933E-05-2.56961E-05-2.87122E-05 3.65662E-06 2.65843E-18-2.48500E-18
 -1      1924 9.39372E-05-2.68231E-05-2.87898E-05 5.10897E-06 2.23726E-18-1.56975E-18
 -1      1925 9.67704E-05-2.53040E-05-3.06837E-05 2.83000E-06 9.65187E-19-3.88016E-19
 -1      1926 9.50358E-05-2.80446E-05-2.86534E-05 5.97242E-06 7.77947E-19-3.07122E-19
 -1      1927 9.64656E-05-2.92519E-05-2.88397E-05 6.04711E-06 5.57428E-19 5.99395E-19
 -1      1928 9.87917E-05-2.82163E-05-3.02431E-05 6.60306E-06 2.17704E-18-1.68802E-18
 -1      1929 9.71374E-05-3.00537E-05-2.87482E-05 5.32951E-06 1.27631E-19 9.15775E-19
 -1      1930 9.82604E-05-3.07642E-05-2.89423E-05 4.44409E-06 2.65025E-19 1.49278E-18
 -1      1931 1.00797E-04-3.10667E-05-2.98420E-05 6.60778E-06 3.19569E-19 5.86312E-19
 -1      1932 9.81382E-05-3.08362E-05-2.88877E-05 3.01397E-06-4.56594E-19 6.08871E-19
 -1      1933 9.86368E-05-3.09104E-05-2.90175E-05 1.91307E-06-5.50082E-19-2.15676E-19
 -1      1934 1.01443E-04-3.23771E-05-2.95556E-05 4.07722E-06-5.79377E-19 1.59033E-18
 -1      1935 9.78628E-05-3.04004E-05-2.89742E-05 6.83311E-07 2.49276E-19-1.13397E-18
 -1      1936 9.77916E-05-3.00234E-05-2.90181E-05-3.78945E-08 9.91121E-19-1.14811E-18
 -1      1937 1.00505E-04-3.19095E-05-2.93764E-05 1.06789E-06-7.92628E-19 3.43438E-19
 -1      1938 9.67918E-05-2.93681E-05-2.89490E-05-4.45825E-07 8.33272E-19-2.00152E-18
 -1      1939 9.65126E-05-2.89491E-05-2.89184E-05-6.15909E-07 1.11785E-19-1.66638E-18
 -1      1940 9.67159E-05-2.88968E-05-2.90497E-05-1.03747E-06 1.50279E-19-2.00022E-18
 -1      1941 9.85968E-05-3.02976E-05-2.92334E-05-7.52359E-07 1.70866E-19-1.73968E-18
 -1      1942 9.32191E-05-2.73649E-05-2.81953E-05 1.60419E-06 2.02251E-18 3.41686E-18
 -1      1943 9.44134E-05-2.74701E-05-2.86318E-05 2.67517E-06 2.23380E-18 4.27846E-18
 -1      1944 9.52364E-05-2.70490E-05-2.92286E-05 4.05264E-06 2.69321E-18 2.73928E-18
 -1      1945 9.21674E-05-2.73515E-05-2.77536E-05 3.47724E-07 1.59731E-18 2.32796E-18
 -1      1946 9.26615E-05-2.73837E-05-2.79260E-05 8.95691E-07 1.57316E-18 2.97788E-18
 -1      1947 9.36323E-05-2.73703E-05-2.84049E-05 1.58417E-06 2.07730E-18 1.85817E-18
 -1      1948 9.17919E-05-2.73892E-05-2.75855E-05-3.05022E-07 1.12057E-18 1.87202E-18
 -1      1949 9.19069E-05-2.73624E-05-2.76324E-05-1.27907E-08 1.31833E-18 2.21026E-18
 -1      1950 9.28011E-05-2.74855E-05-2.80024E-05 2.71999E-07 1.63707E-18 1.12612E-18
 -1      1951 9.18148E-05-2.74796E-05-2.75621E-05-6.29805E-07 6.90233E-19 1.12028E-18
 -1      1952 9.17273E-05-2.74177E-05-2.75459E-05-4.77421E-07 9.09531E-19 1.63300E-18
 -1      1953 9.24868E-05-2.75784E-05-2.78279E-05-4.20551E-07 1.14470E-18 7.61043E-19
 -1      1954 9.20576E-05-2.76013E-05-2.76171E-05-7.66260E-07 6.47631E-19 8.44359E-19
 -1      1955 9.18675E-05-2.75227E-05-2.75688E-05-6.95612E-07 6.06673E-19 9.67106E-19
 -1      1956 9.24891E-05-2.76835E-05-2.77820E-05-7.64124E-07 8.22154E-19 2.05334E-19
 -1      1957 9.24081E-05-2.77349E-05-2.77120E-05-7.91909E-07 6.31783E-19 3.08279E-19
 -1      1958 9.21741E-05-2.76519E-05-2.76491E-05-7.70399E-07 6.38515E-19 7.50173E-19
 -1      1959 9.26719E-05-2.77984E-05-2.78089E-05-9.03223E-07 9.08046E-19-1.28890E-19
 -1      1960 9.27967E-05-2.78671E-05-2.78232E-05-7.53466E-07 8.03011E-19-4.13577E-19
 -1      1961 9.25537E-05-2.77870E-05-2.77562E-05-7.61213E-07 7.94980E-19 4.63469E-21
 -1      1962 9.29461E-05-2.79146E-05-2.78748E-05-9.21269E-07 9.69745E-19-6.05701E-19
 -1      1963 9.31812E-05-2.79898E-05-2.79364E-05-6.80512E-07 1.15397E-19-8.62061E-20
 -1      1964 9.29494E-05-2.79168E-05-2.78715E-05-7.04742E-07 4.40634E-19-1.16346E-19
 -1      1965 9.32548E-05-2.80248E-05-2.79584E-05-8.69609E-07 5.74129E-19-3.06141E-19
 -1      1966 9.35378E-05-2.80987E-05-2.80433E-05-5.92249E-07 7.74373E-19-2.15784E-19
 -1      1967 9.33280E-05-2.80348E-05-2.79839E-05-6.24546E-07 4.69767E-19-7.90940E-20
 -1      1968 9.35631E-05-2.81244E-05-2.80469E-05-7.81153E-07 5.11260E-19-3.17843E-19
 -1      1969 9.38545E-05-2.81923E-05-2.81395E-05-5.01221E-07 6.38002E-19-5.63290E-19
 -1      1970 9.36715E-05-2.81380E-05-2.80873E-05-5.35990E-07 7.53324E-19-3.59115E-19
 -1      1971 9.38509E-05-2.82112E-05-2.81324E-05-6.77401E-07 7.91601E-19-7.57545E-19
 -1      1972 9.41280E-05-2.82705E-05-2.82236E-05-4.15587E-07 7.95382E-19-1.27367E-18
 -1      1973 9.39724E-05-2.82255E-05-2.81788E-05-4.49109E-07 8.00416E-19-9.16748E-19
 -1      1974 9.41085E-05-2.82845E-05-2.82109E-05-5.72458E-07 1.09975E-18-8.04523E-19
 -1      1975 9.43600E-05-2.83349E-05-2.82957E-05-3.40663E-07 6.07921E-19-1.59356E-18
 -1      1976 9.42298E-05-2.82982E-05-2.82578E-05-3.70441E-07 4.89348E-19-1.48536E-18
 -1      1977 9.43330E-05-2.83451E-05-2.82809E-05-4.75582E-07 8.49961E-19-9.78386E-19
 -1      1978 9.45562E-05-2.83876E-05-2.83573E-05-2.80014E-07-1.24233E-19-1.60167E-18
 -1      1979 9.44477E-05-2.83577E-05-2.83254E-05-3.04307E-07 2.82339E-19-1.64608E-18
 -1      1980 9.45261E-05-2.83945E-05-2.83423E-05-3.92920E-07 3.56667E-19-1.25352E-18
 -1      1981 9.47251E-05-2.84312E-05-2.84110E-05-2.36277E-07 7.72142E-21-1.92819E-18
 -1      1982 9.46330E-05-2.84066E-05-2.83836E-05-2.53742E-07-8.62181E-21-1.71680E-18
 -1      1983 9.46932E-05-2.84348E-05-2.83966E-05-3.28764E-07 4.82040E-22-1.84675E-18
 -1      1984 9.48771E-05-2.84690E-05-2.84599E-05-2.11790E-07 7.01657E-19-1.84495E-18
 -1      1985 9.47952E-05-2.84477E-05-2.84351E-05-2.21205E-07 2.43288E-19-1.88946E-18
 -1      1986 9.48418E-05-2.84684E-05-2.84460E-05-2.86502E-07 5.35801E-19-1.53262E-18
 -1      1987 9.50245E-05-2.85044E-05-2.85077E-05-2.09095E-07 2.09821E-19-1.49872E-18
 -1      1988 9.49458E-05-2.84844E-05-2.84835E-05-2.09128E-07 8.09339E-19-1.32914E-18
 -1      1989 9.49818E-05-2.84980E-05-2.84934E-05-2.69349E-07 6.47843E-19-1.32379E-18
 -1      1990 9.51820E-05-2.85414E-05-2.85589E-05-2.31332E-07-6.28269E-19-1.44479E-18
 -1      1991 9.50982E-05-2.85203E-05-2.85330E-05-2.20357E-07-2.63574E-19-1.43090E-18
 -1      1992 9.51246E-05-2.85269E-05-2.85425E-05-2.80919E-07-5.92549E-20-1.13875E-18
 -1      1993 9.53664E-05-2.85848E-05-2.86189E-05-2.82545E-07-5.25028E-19-1.75140E-18
 -1      1994 9.52679E-05-2.85597E-05-2.85882E-05-2.58493E-07-7.96699E-19-1.60160E-18
 -1      1995 9.52840E-05-2.85586E-05-2.85975E-05-3.25678E-07-5.95998E-19-1.59731E-18
 -1      1996 9.55975E-05-2.86399E-05-2.86936E-05-3.67918E-07-2.05308E-19-1.69240E-18
 -1      1997 9.54732E-05-2.86078E-05-2.86549E-05-3.28151E-07-2.74046E-19-1.59041E-18
 -1      1998 9.54759E-05-2.85971E-05-2.86637E-05-4.09276E-07-2.99323E-19-1.87493E-18
 -1      1999 9.58986E-05-2.87133E-05-2.87903E-05-4.93887E-07 8.92950E-19-1.65770E-18
 -1      2000 9.57352E-05-2.86701E-05-2.87398E-05-4.35125E-07 2.84127E-19-1.53947E-18
 -1      2001 9.57190E-05-2.86474E-05-2.87468E-05-5.38764E-07 4.22215E-19-2.05915E-18
 -1      2002 9.62971E-05-2.88127E-05-2.89174E-05-6.68118E-07 3.27398E-19-1.48445E-18
 -1      2003 9.60790E-05-2.87538E-05-2.88504E-05-5.86423E-07 7.85998E-19-1.36709E-18
 -1      2004 9.60352E-05-2.87153E-05-2.88538E-05-7.22648E-07 6.65170E-19-1.36569E-18
 -1      2005 9.68247E-05-2.89472E-05-2.90846E-05-8.99205E-07-7.78022E-19-9.99400E-19
 -1      2006 9.65337E-05-2.88672E-05-2.89957E-05-7.90088E-07-4.54113E-19-1.14017E-18
 -1      2007 9.64497E-05-2.88077E-05-2.89926E-05-9.70680E-07-4.08714E-19-9.35753E-19
 -1      2008 9.75178E-05-2.91279E-05-2.93027E-05-1.19593E-06-5.39538E-19-2.66059E-19
 -1      2009 9.71328E-05-2.90201E-05-2.91859E-05-1.05466E-06-5.86104E-19-6.66300E-19
 -1      2010 9.69914E-05-2.89331E-05-2.91720E-05-1.29323E-06-6.67787E-19-3.44260E-19
 -1      2011 9.84163E-05-2.93675E-05-2.95835E-05-1.56572E-06-8.63816E-19-2.08967E-19
 -1      2012 9.79142E-05-2.92244E-05-2.94322E-05-1.38801E-06-6.40255E-19-2.46612E-19
 -1      2013 9.76927E-05-2.91018E-05-2.94012E-05-1.69990E-06-7.24518E-19-6.21476E-19
 -1      2014 9.95620E-05-2.96811E-05-2.99387E-05-2.01172E-06-1.02837E-19 5.52055E-19
 -1      2015 9.89185E-05-2.94940E-05-2.97461E-05-1.79511E-06-3.09713E-19 4.28980E-20
 -1      2016 9.85881E-05-2.93265E-05-2.96898E-05-2.19694E-06-4.08528E-19 7.96271E-20
 -1      2017 1.00994E-04-3.00853E-05-3.03784E-05-2.52765E-06 8.12440E-19-5.62285E-19
 -1      2018 1.00187E-04-2.98450E-05-3.01386E-05-2.27396E-06 4.06862E-19 2.29369E-20
 -1      2019 9.97125E-05-2.96228E-05-3.00461E-05-2.78254E-06 5.14989E-19 4.72685E-20
 -1      2020 1.02742E-04-3.05985E-05-3.09078E-05-3.08898E-06 4.40537E-19-9.64761E-19
 -1      2021 1.01755E-04-3.02959E-05-3.06177E-05-2.80868E-06 7.27406E-19-8.15261E-19
 -1      2022 1.01097E-04-3.00103E-05-3.04748E-05-3.43880E-06 9.54606E-19-4.77070E-19
 -1      2023 1.04812E-04-3.12390E-05-3.15229E-05-3.63909E-06 3.31226E-19-1.08187E-18
 -1      2024 1.03645E-04-3.08668E-05-3.11844E-05-3.35826E-06 2.72245E-19-9.02327E-19
 -1      2025 1.02764E-04-3.05140E-05-3.09746E-05-4.11894E-06 4.78023E-19 4.06865E-19
 -1      2026 1.07166E-04-3.20220E-05-3.22026E-05-4.06924E-06-6.07420E-19-9.90413E-19
 -1      2027 1.05851E-04-3.15784E-05-3.18276E-05-3.83998E-06-2.07004E-19-1.04966E-18
 -1      2028 1.04715E-04-3.11649E-05-3.15328E-05-4.72817E-06 1.90233E-19-3.22997E-19
 -1      2029 1.09698E-04-3.29516E-05-3.29000E-05-4.19462E-06-4.64199E-19-1.26317E-18
 -1      2030 1.08312E-04-3.24463E-05-3.25159E-05-4.10775E-06-6.55256E-19-1.35928E-18
 -1      2031 1.06917E-04-3.19985E-05-3.21198E-05-5.09881E-06-3.45613E-19-1.06996E-18
 -1      2032 1.12191E-04-3.40032E-05-3.35326E-05-3.73688E-06 5.30173E-19-3.90846E-19
 -1      2033 1.10886E-04-3.34693E-05-3.31887E-05-3.93190E-06-2.07424E-19-7.42143E-19
 -1      2034 1.09283E-04-3.30442E-05-3.26838E-05-4.96593E-06-2.52371E-19-1.06736E-18
 -1      2035 1.14279E-04-3.50865E-05-3.39798E-05-2.34189E-06 7.27545E-19-3.95591E-19
 -1      2036 1.13302E-04-3.45996E-05-3.37498E-05-2.99937E-06 1.39561E-18 8.55722E-19
 -1      2037 1.11632E-04-3.42947E-05-3.31490E-05-3.96380E-06 8.81407E-19 5.63188E-19
 -1      2038 1.15427E-04-3.59831E-05-3.40972E-05 3.10836E-07 5.15770E-19-9.40429E-19
 -1      2039 1.15117E-04-3.56866E-05-3.40709E-05-9.75261E-07 3.82607E-19-9.13201E-19
 -1      2040 1.13646E-04-3.56358E-05-3.34249E-05-1.68729E-06 8.85216E-19-1.88895E-20
 -1      2041 1.14962E-04-3.62804E-05-3.37634E-05 4.23858E-06-3.51572E-19-1.10416E-18
 -1      2042 1.15691E-04-3.63973E-05-3.40191E-05 2.30990E-06-3.60254E-20-1.33475E-18
 -1      2043 1.14813E-04-3.67316E-05-3.34334E-05 2.10929E-06 2.83644E-19 1.17529E-18
 -1      2044 1.12251E-04-3.53970E-05-3.29525E-05 8.73349E-06-2.62888E-18 7.61641E-19
 -1      2045 1.14281E-04-3.61774E-05-3.35098E-05 6.51764E-06-1.35994E-18-1.74251E-19
 -1      2046 1.14434E-04-3.69476E-05-3.31523E-05 7.12516E-06-1.63000E-18 2.51431E-18
 -1      2047 1.07152E-04-3.29145E-05-3.18031E-05 1.20848E-05-1.95150E-18 1.35054E-18
 -1      2048 1.10377E-04-3.44418E-05-3.25763E-05 1.04322E-05-2.91312E-18 6.42183E-19
 -1      2049 1.11847E-04-3.55010E-05-3.26500E-05 1.20487E-05-3.12995E-18 1.59189E-18
 -1      2050 1.00604E-04-2.92039E-05-3.05925E-05 1.20845E-05-1.06727E-18 2.90986E-18
 -1      2051 1.04343E-04-3.11311E-05-3.13973E-05 1.20628E-05-1.47625E-18 1.56415E-18
 -1      2052 1.07056E-04-3.21455E-05-3.20694E-05 1.45419E-05-1.63407E-18 2.41034E-18
 -1      2053 9.48860E-05-2.58585E-05-2.96209E-05 7.68035E-06 9.02792E-19 5.28446E-18
 -1      2054 9.79288E-05-2.73575E-05-3.02403E-05 9.72953E-06 1.71696E-19 4.33877E-18
 -1      2055 1.01420E-04-2.79311E-05-3.15278E-05 1.23715E-05-1.13350E-18 3.80212E-18
 -1      2056 9.24762E-05-2.48067E-05-2.90830E-05 6.11097E-07 1.13148E-18 3.16277E-18
 -1      2057 9.37032E-05-2.50972E-05-2.93680E-05 3.82255E-06 1.56971E-18 4.22636E-18
 -1      2058 9.74451E-05-2.51386E-05-3.10689E-05 5.59730E-06 1.90844E-18 4.10244E-18
 -1      2059 9.39913E-05-2.64898E-05-2.90008E-05-5.33983E-06 6.24184E-19 1.31309E-18
 -1      2060 9.31970E-05-2.55650E-05-2.89395E-05-2.71528E-06 8.87320E-19 2.56505E-18
 -1      2061 9.69209E-05-2.54535E-05-3.06861E-05-2.44715E-06 1.40557E-18 2.71422E-18
 -1      2062 9.75693E-05-2.93722E-05-2.92399E-05-7.33026E-06 2.95911E-18-7.97918E-19
 -1      2063 9.56362E-05-2.80072E-05-2.89571E-05-6.48116E-06 1.45949E-18-9.02222E-20
 -1      2064 9.92369E-05-2.83178E-05-3.03880E-05-7.44957E-06 2.62143E-18 1.31415E-18
 -1      2065 1.00574E-04-3.14892E-05-2.95656E-05-5.43004E-06 2.39811E-18-2.91799E-18
 -1      2066 9.87603E-05-3.05163E-05-2.92556E-05-6.24268E-06 3.10269E-18-1.46255E-18
 -1      2067 1.02022E-04-3.14858E-05-3.01930E-05-7.55654E-06 3.48521E-18-4.67602E-19
 -1      2068 1.01513E-04-3.19544E-05-2.97472E-05-1.79168E-06 8.42401E-19-2.99110E-18
 -1      2069 1.00632E-04-3.17141E-05-2.95705E-05-3.31433E-06 1.10986E-18-3.32243E-18
 -1      2070 1.03262E-04-3.30573E-05-3.00669E-05-4.17343E-06 1.58720E-18-1.95780E-18
 -1      2071 1.00416E-04-3.10182E-05-2.96829E-05 1.26869E-06 2.81463E-19-2.43171E-18
 -1      2072 1.00568E-04-3.13838E-05-2.96883E-05 2.78972E-08 9.36924E-19-2.56043E-18
 -1      2073 1.02430E-04-3.26132E-05-2.99270E-05-5.98495E-08 7.44774E-19-2.12272E-18
 -1      2074 9.81949E-05-2.94211E-05-2.94299E-05 2.38761E-06 6.41627E-19-2.42216E-18
 -1      2075 9.89894E-05-3.00745E-05-2.95601E-05 2.04078E-06 2.00571E-19-2.71886E-18
 -1      2076 1.00143E-04-3.08496E-05-2.97195E-05 2.58053E-06 8.59904E-20-2.26593E-18
 -1      2077 9.64074E-05-2.82649E-05-2.91708E-05 1.90880E-06-2.16635E-19-1.02801E-18
 -1      2078 9.73051E-05-2.88787E-05-2.93451E-05 2.33319E-06 8.85654E-19-1.50636E-18
 -1      2079 9.79727E-05-2.91807E-05-2.95138E-05 3.11740E-06-7.53065E-21-9.98539E-19
 -1      2080 9.63356E-05-2.77723E-05-2.93523E-05 2.51310E-06-8.52525E-19 1.21902E-18
 -1      2081 9.44625E-05-1.92369E-05-3.22092E-05 1.36066E-05-1.60811E-18 1.56473E-18
 -1      2082 9.57959E-05-2.24603E-05-3.13990E-05 1.18339E-05-2.47444E-18 1.65813E-18
 -1      2083 9.62661E-05-2.38697E-05-3.09581E-05 9.36132E-06-2.23917E-18 1.39328E-18
 -1      2084 9.68323E-05-2.60057E-05-3.03384E-05 7.42123E-06-2.37966E-18 1.09119E-18
 -1      2085 9.80848E-05-2.61196E-05-3.09026E-05 1.29036E-05-1.90939E-18 1.82769E-18
 -1      2086 9.65210E-05-2.62765E-05-3.00341E-05 5.43856E-06-2.58234E-18-3.27623E-19
 -1      2087 9.66307E-05-2.74815E-05-2.96131E-05 3.89986E-06-1.17476E-18 2.99525E-19
 -1      2088 9.74531E-05-2.81409E-05-2.96999E-05 4.42985E-06-7.55682E-19-3.69650E-20
 -1      2089 9.83311E-05-2.77426E-05-3.02531E-05 8.03996E-06-1.70897E-18 5.06420E-19
 -1      2090 9.09167E-05-1.28645E-05-3.35094E-05 1.60376E-05-2.10228E-18-1.14695E-18
 -1      2091 9.30532E-05-1.67663E-05-3.26453E-05 1.53773E-05-1.98174E-18 4.43438E-19
 -1      2092 9.57378E-05-2.21369E-05-3.16060E-05 1.77609E-05-2.09552E-18 8.28157E-19
 -1      2093 8.61121E-05-5.63482E-06-3.46320E-05 1.45512E-05-5.09504E-19 1.87645E-18
 -1      2094 8.86188E-05-9.48132E-06-3.38719E-05 1.58506E-05-1.56516E-18 1.74030E-18
 -1      2095 9.09605E-05-1.59709E-05-3.21592E-05 1.97355E-05-1.45403E-18 1.07828E-18
 -1      2096 8.19676E-05 4.43872E-08-3.53097E-05 8.12599E-06 8.14270E-19 2.98310E-18
 -1      2097 8.37693E-05-2.44807E-06-3.48561E-05 1.15188E-05 1.71736E-19 2.45426E-18
 -1      2098 8.49053E-05-8.93030E-06-3.24833E-05 1.62784E-05 2.26055E-19 3.03929E-18
 -1      2099 8.07254E-05 1.65650E-06-3.54090E-05-1.56169E-06 1.44132E-18 6.23760E-19
 -1      2100 8.08581E-05 1.49767E-06-3.53858E-05 2.84052E-06 1.36255E-18 1.95242E-18
 -1      2101 8.03984E-05-3.90635E-06-3.26071E-05 6.88294E-06 2.52424E-19 2.91063E-18
 -1      2102 8.31637E-05-1.70008E-06-3.49218E-05-1.06810E-05 1.60525E-18-1.96439E-18
 -1      2103 8.15545E-05 5.40677E-07-3.53353E-05-7.02339E-06 1.90729E-18-7.07167E-19
 -1      2104 8.00423E-05-3.54835E-06-3.25964E-05-5.37638E-06 2.44228E-19-6.60421E-20
 -1      2105 8.79497E-05-8.58244E-06-3.39731E-05-1.57695E-05 7.17874E-19-1.93515E-18
 -1      2106 8.54406E-05-4.79176E-06-3.47112E-05-1.41501E-05 1.61995E-18-1.91504E-18
 -1      2107 8.40464E-05-8.07240E-06-3.24677E-05-1.55398E-05 4.23526E-19-1.80881E-18
 -1      2108 9.25799E-05-1.60170E-05-3.27591E-05-1.59105E-05 9.70362E-19-2.59312E-18
 -1      2109 9.03108E-05-1.20105E-05-3.36291E-05-1.63438E-05 7.31307E-19-1.92629E-18
 -1      2110 9.01409E-05-1.50774E-05-3.21725E-05-1.98999E-05 9.58279E-19-2.30706E-18
 -1      2111 9.57366E-05-2.21864E-05-3.14805E-05-1.25563E-05 1.60974E-18 2.76689E-18
 -1      2112 9.42285E-05-1.87863E-05-3.23168E-05-1.42957E-05 1.38129E-18 7.84458E-19
 -1      2113 9.53130E-05-2.16290E-05-3.16416E-05-1.85724E-05 2.01393E-18-1.10804E-18
 -1      2114 9.70339E-05-2.61130E-05-3.03706E-05-7.90768E-06 1.67081E-18 1.05714E-18
 -1      2115 9.63956E-05-2.38190E-05-3.10265E-05-9.98147E-06 1.87040E-18 1.47111E-18
 -1      2116 9.82179E-05-2.61771E-05-3.09362E-05-1.37683E-05 1.65052E-18 2.53933E-18
 -1      2117 9.69422E-05-2.79962E-05-2.95383E-05-3.72187E-06 5.17881E-19-2.52707E-19
 -1      2118 9.69446E-05-2.67944E-05-2.99762E-05-5.48245E-06 5.82434E-19 1.61042E-19
 -1      2119 9.88147E-05-2.84687E-05-3.01904E-05-8.17351E-06 1.37823E-19-1.01578E-19
 -1      2120 6.56721E-05-4.65310E-05-8.92528E-06 4.49207E-05 8.27551E-19 3.28135E-18
 -1      2121 5.07469E-05-4.76650E-05-2.44874E-06 4.00405E-05-6.95414E-19 3.38199E-18
 -1      2122 1.54702E-05-3.88823E-05 8.58588E-06 6.23404E-06-2.15146E-18 5.94617E-19
 -1      2123 1.50770E-05-3.76778E-05 8.38175E-06-5.83620E-06-2.36735E-18 2.86212E-18
 -1      2124 3.12053E-05-3.89625E-05 2.46510E-06 3.10039E-05-6.81862E-19 3.03852E-18
 -1      2125 2.14195E-05-4.19720E-05 7.10354E-06 1.80144E-05-1.75675E-18 1.80460E-18
 -1      2126 2.21930E-05-2.75598E-05 1.88731E-06 1.55259E-05-2.48107E-18 1.64197E-18
 -1      2127 1.05355E-04-4.88115E-05-2.42031E-05 4.78947E-05 1.47850E-18-4.94244E-19
 -1      2128 8.58042E-05-5.16398E-05-1.58280E-05 4.30727E-05 8.88961E-19 8.74773E-19
 -1      2129 1.44524E-04-4.98822E-05-4.04108E-05 3.65150E-05 1.72287E-18-2.20186E-18
 -1      2130 1.22322E-04-4.99616E-05-3.14914E-05 3.95321E-05 2.14003E-18-1.92954E-18
 -1      2131 1.27417E-04-6.13051E-05-2.79900E-05 3.89960E-05 3.38813E-19-2.62792E-18
 -1      2132 8.72650E-05-8.72936E-06-3.37489E-05-1.05275E-05-2.27856E-18-4.93128E-18
 -1      2133 8.79798E-05-9.26487E-06-3.38211E-05-1.21072E-05-2.70747E-18-4.43874E-18
 -1      2134 9.04755E-05-1.30312E-05-3.32186E-05-1.18175E-05-3.03370E-18-3.83738E-18
 -1      2135 8.86726E-05-1.10580E-05-3.32962E-05-9.39307E-06-2.27743E-18-4.76860E-18
 -1      2136 1.90978E-04-2.88059E-05-6.75956E-05 1.39444E-05 4.47657E-19-1.91260E-18
 -1      2137 1.74467E-04-2.77672E-05-6.24379E-05 1.56299E-05 1.27902E-18-1.20914E-18
 -1      2138 1.91119E-04-2.52333E-05-6.99035E-05 3.34848E-06 1.25361E-18-2.59600E-18
 -1      2139 1.92394E-04-2.63435E-05-6.96904E-05 1.11211E-05 3.47284E-19-2.43522E-18
 -1      2140 1.69270E-04-1.71968E-05-6.38538E-05 4.00011E-06 4.77727E-19-1.89227E-18
 -1      2141 1.76403E-04-2.70823E-05-6.35053E-05-2.01424E-06 1.51111E-18-3.14165E-18
 -1      2142 1.87244E-04-2.64572E-05-6.75303E-05 2.09498E-06 1.79063E-18-2.81681E-18
 -1      2143 1.61564E-04-3.91175E-05-5.20532E-05-1.83562E-05 3.58967E-18-3.39491E-18
 -1      2144 1.76240E-04-3.67699E-05-5.89330E-05-1.08999E-05 2.82422E-18-3.73076E-18
 -1      2145 1.30217E-04-4.77345E-05-3.57763E-05-2.81688E-05 2.34353E-18-3.02475E-18
 -1      2146 1.51979E-04-4.54929E-05-4.48649E-05-2.78837E-05 2.66180E-18-3.54060E-18
 -1      2147 9.04070E-05-5.06264E-05-1.80768E-05-3.56067E-05 1.50730E-18-2.70076E-18
 -1      2148 1.12936E-04-5.01458E-05-2.68704E-05-3.84871E-05 2.05914E-18-2.69018E-18
 -1      2149 5.17214E-05-4.79155E-05-3.28384E-06-3.19035E-05 1.47341E-18-3.92223E-18
 -1      2150 6.84233E-05-4.50632E-05-1.06361E-05-3.90808E-05 1.42132E-18-3.54886E-18
 -1      2151 2.46385E-05-4.48307E-05 6.86473E-06-2.02009E-05 3.45589E-19-1.92975E-18
 -1      2152 3.48625E-05-4.25480E-05 2.18168E-06-2.87298E-05 1.78258E-18-3.11009E-18
 -1      2153 1.24791E-05-4.21882E-05 1.10123E-05-2.32733E-06-1.78777E-18-4.47953E-18
 -1      2154 1.51384E-05-4.16728E-05 9.81444E-06-1.07952E-05-6.56662E-19-3.05398E-18
 -1      2155 1.79674E-05-3.85828E-05 7.69205E-06 1.75687E-05-3.14165E-18-5.78693E-18
 -1      2156 1.40248E-05-4.11185E-05 1.00079E-05 8.28092E-06-1.50221E-18-6.62676E-18
 -1      2157 4.37602E-05-4.22128E-05-1.36450E-06 3.51297E-05-3.68840E-18-5.18723E-18
 -1      2158 3.15667E-05-4.32783E-05 3.71190E-06 2.73283E-05-2.91591E-18-4.74614E-18
 -1      2159 8.27950E-05-4.83461E-05-1.50016E-05 4.31026E-05-3.44912E-18-1.47257E-18
 -1      2160 6.14074E-05-4.82810E-05-6.83156E-06 3.64794E-05-3.22974E-18-3.18506E-18
 -1      2161 6.35772E-05-4.68264E-05-7.36467E-06 4.26435E-05-2.07947E-19-1.76839E-18
 -1      2162 1.28032E-04-5.18508E-05-3.27459E-05 3.36355E-05-3.53255E-18 4.84503E-19
 -1      2163 1.05855E-04-5.27772E-05-2.34634E-05 3.46142E-05-3.85231E-18-6.22993E-19
 -1      2164 1.63407E-04-4.04908E-05-5.12308E-05 2.59828E-05-5.38745E-18 2.77869E-18
 -1      2165 1.43714E-04-4.49140E-05-4.21451E-05 2.47325E-05-4.92380E-18 1.66230E-18
 -1      2166 1.85891E-04-3.35881E-05-6.39075E-05 1.23009E-05-2.72787E-18 1.43614E-18
 -1      2167 1.70559E-04-3.39580E-05-5.78883E-05 1.91971E-05-4.48927E-18 1.28537E-18
 -1      2168 1.83649E-04-2.31248E-05-6.80323E-05-3.66394E-06-1.41878E-19-8.91502E-20
 -1      2169 1.83382E-04-2.63256E-05-6.61913E-05 4.13084E-06-8.81761E-19 2.27852E-19
 -1      2170 1.85111E-04-2.52745E-05-6.74606E-05-1.22865E-05 3.94717E-19-3.81165E-20
 -1      2171 1.84542E-04-2.25520E-05-6.86114E-05-4.65210E-06 2.15993E-20-2.27481E-19
 -1      2172 1.72721E-04-3.06061E-05-6.02813E-05-2.02118E-05 6.50945E-19 9.75358E-19
 -1      2173 1.85648E-04-3.02179E-05-6.53078E-05-1.58295E-05 4.32199E-19 4.01494E-19
 -1      2174 1.64698E-04-1.87952E-05-6.14227E-05-2.14167E-06 5.03985E-19-8.06587E-19
 -1      2175 1.50309E-04-4.04867E-05-4.68797E-05-3.34147E-05 8.36445E-20-8.09763E-19
 -1      2176 1.68038E-04-3.89578E-05-5.42715E-05-2.98250E-05 1.03795E-19-1.14349E-18
 -1      2177 1.17458E-04-4.65308E-05-3.09627E-05-4.13307E-05-1.15705E-18-2.21160E-18
 -1      2178 1.38302E-04-4.38532E-05-3.96906E-05-4.32781E-05 1.23243E-19-1.69407E-21
 -1      2179 8.34204E-05-5.13651E-05-1.48080E-05-4.33504E-05-3.16367E-18-2.83947E-18
 -1      2180 1.02451E-04-4.77052E-05-2.32861E-05-4.81120E-05-2.29504E-18-3.64478E-18
 -1      2181 4.70662E-05-4.82417E-05-1.08793E-06-3.67552E-05-6.44592E-19 4.46386E-19
 -1      2182 6.28120E-05-4.58158E-05-7.78474E-06-4.55121E-05-1.40946E-18-1.43175E-18
 -1      2183 2.08536E-05-4.35855E-05 7.90667E-06-1.93329E-05-1.49290E-18 3.85188E-18
 -1      2184 2.96517E-05-4.30194E-05 4.30676E-06-2.88661E-05-1.65214E-18 1.39125E-18
 -1      2185 1.70109E-04-3.88605E-05-5.55420E-05 1.85611E-05 1.21867E-18-1.24514E-19
 -1      2186 1.56049E-04-4.36668E-05-4.81430E-05 2.17631E-05 1.10943E-18-2.17264E-19
 -1      2187 1.53453E-04-5.37274E-05-4.21975E-05 1.85894E-05 1.24620E-18-4.85350E-19
 -1      2188 9.71946E-05-2.43156E-05-3.13066E-05-1.00029E-05-3.31248E-18 1.10306E-18
 -1      2189 1.56845E-04-4.74522E-05-4.61938E-05-8.03811E-06 2.08786E-18-2.87991E-18
 -1      2190 1.63824E-04-3.31698E-05-5.55509E-05 3.34404E-06 1.67077E-18-9.73241E-19
 -1      2191 9.63522E-05-2.31097E-05-3.14562E-05-1.03833E-05-3.47884E-18-5.45277E-19
 -1      2192 4.63451E-05-4.18714E-05-2.42722E-06 3.89598E-05-4.77303E-19 2.96737E-18
 -1      2193 4.31340E-05-3.19729E-05-4.21819E-06 3.79100E-05-1.22036E-18 4.05538E-18
 -1      2194 6.15911E-05-4.32007E-05-8.31844E-06 4.70179E-05-1.45499E-18 2.23426E-18
 -1      2195 9.02478E-05-5.57935E-05-1.49426E-05 4.85657E-05-5.59042E-19 4.80612E-19
 -1      2196 9.70819E-05-2.84985E-05-2.93700E-05-2.89955E-06 5.16053E-19-2.26528E-19
 -1      2197 2.11770E-05-3.03865E-05 3.17991E-06-1.52088E-05-1.27807E-18 2.68128E-18
 -1      2198 4.62509E-05-4.14107E-05-2.63286E-06-4.14001E-05-4.91279E-20-3.25261E-19
 -1      2199 8.65116E-05-5.46543E-05-1.38639E-05-4.85891E-05-9.45712E-19-2.31780E-18
 -1      2200 1.23719E-04-5.90238E-05-2.76411E-05-4.05593E-05-1.69068E-18-2.39329E-18
 -1      2201 1.64868E-04-3.60425E-05-5.42971E-05-9.93228E-06 6.07852E-19-8.68209E-20
 -1      2202 1.62850E-04-1.32081E-05-6.32484E-05-4.79303E-06-3.64224E-20-8.34910E-19
 -1      2203 1.65996E-04-2.22303E-05-6.04434E-05-3.82795E-06-1.73684E-18 6.47345E-19
 -1      2204 1.62197E-04-3.94643E-05-5.19151E-05 5.05347E-06-4.57038E-18 2.09598E-18
 -1      2205 1.05952E-04-5.85649E-05-2.02319E-05 3.79848E-05-1.37219E-18 1.07256E-18
 -1      2206 3.01983E-05-3.48941E-05 1.51935E-06 2.86966E-05-1.27097E-18-5.41699E-18
 -1      2207 1.39248E-05-3.03169E-05 6.16590E-06 4.03144E-06-1.14283E-18-5.99657E-18
 -1      2208 2.28026E-05-3.50291E-05 4.34883E-06-2.11279E-05-6.23840E-19-3.69772E-18
 -1      2209 5.21532E-05-4.53569E-05-3.54410E-06-3.73208E-05 3.93023E-19-3.24096E-18
 -1      2210 9.30322E-05-5.59132E-05-1.59211E-05-3.95998E-05 6.64074E-19-3.36547E-18
 -1      2211 1.31982E-04-5.93963E-05-3.10255E-05-2.57612E-05 1.76797E-18-2.43522E-18
 -1      2212 1.66269E-04-1.51819E-05-6.37364E-05 7.28370E-06 1.79147E-18-2.24368E-18
 -1      2213 1.64848E-04-2.85642E-05-5.76134E-05 4.98375E-06 3.09167E-18-3.38390E-18
 -1      2214 1.39526E-04-5.34992E-05-3.68061E-05 2.21563E-05-3.78920E-18 1.87787E-18
 -1      2215 1.37268E-04-6.11554E-05-3.21123E-05 1.95918E-05-2.77488E-18 2.66138E-18
 -1      2216 1.47873E-04-5.55166E-05-4.03546E-05 8.27270E-06-4.16687E-18 3.66850E-18
 -1      2217 1.50779E-04-5.17626E-05-4.17453E-05-2.61163E-05-1.47913E-19-8.76679E-19
 -1      2218 9.52180E-05-2.63777E-05-2.94898E-05 4.19539E-06 2.69935E-18 1.16640E-18
 -1      2219 9.61927E-05-2.58631E-05-3.00677E-05 6.00058E-06 3.09276E-18 1.61114E-18
 -1      2220 8.81324E-05-1.11826E-05-3.30178E-05-3.66177E-06-6.41431E-19-5.00861E-18
 -1      2221 8.83661E-05-1.14525E-05-3.30002E-05-4.80311E-06-1.08248E-18-5.09967E-18
 -1      2222 8.87168E-05-1.19345E-05-3.29520E-05-5.82125E-06-1.35646E-18-5.03744E-18
 -1      2223 8.91226E-05-1.24053E-05-3.29243E-05-6.99192E-06-1.77513E-18-4.92435E-18
 -1      2224 8.98858E-05-1.38217E-05-3.25984E-05-4.90551E-06-1.18530E-18-4.74673E-18
 -1      2225 8.77866E-05-1.07240E-05-3.30609E-05 6.15663E-07 7.57991E-19-4.98880E-18
 -1      2226 8.77822E-05-1.07191E-05-3.30611E-05-4.95518E-07 3.22520E-19-5.00925E-18
 -1      2227 8.79678E-05-1.09489E-05-3.30425E-05 2.75808E-06 1.40286E-18-4.80380E-18
 -1      2228 8.78529E-05-1.08159E-05-3.30517E-05 1.63854E-06 1.02990E-18-4.88309E-18
 -1      2229 8.91044E-05-1.27704E-05-3.27178E-05 1.04990E-06 8.83329E-19-4.70356E-18
 -1      2230 8.84022E-05-1.14959E-05-3.29974E-05 4.88765E-06 2.04749E-18-4.65676E-18
 -1      2231 8.81626E-05-1.12192E-05-3.30154E-05 3.76436E-06 1.68304E-18-4.76906E-18
 -1      2232 8.93703E-05-1.31262E-05-3.26778E-05 3.02144E-06 1.48606E-18-4.51216E-18
 -1      2233 8.91819E-05-1.24783E-05-3.29188E-05 7.07523E-06 2.79437E-18-3.93946E-18
 -1      2234 8.87638E-05-1.19919E-05-3.29478E-05 5.90348E-06 2.36104E-18-4.38219E-18
 -1      2235 8.99278E-05-1.38740E-05-3.25935E-05 4.97585E-06 2.16212E-18-4.15382E-18
 -1      2236 9.04521E-05-1.40871E-05-3.27921E-05 9.22342E-06 3.44166E-18-3.11408E-18
 -1      2237 8.97712E-05-1.32761E-05-3.28373E-05 8.04478E-06 3.02691E-18-3.57556E-18
 -1      2238 9.08633E-05-1.51333E-05-3.24488E-05 6.87177E-06 2.83798E-18-3.48681E-18
 -1      2239 9.24511E-05-1.66593E-05-3.25827E-05 1.11075E-05 3.91422E-18-1.85136E-18
 -1      2240 9.13719E-05-1.53192E-05-3.26545E-05 1.00273E-05 3.57754E-18-2.52661E-18
 -1      2241 9.22873E-05-1.70873E-05-3.22080E-05 8.51662E-06 3.32061E-18-2.57203E-18
 -1      2242 9.42376E-05-2.71179E-05-2.87489E-05 1.76549E-06 2.09441E-18 5.68973E-19
 -1      2243 9.48381E-05-2.68943E-05-2.90474E-05 2.73825E-06 2.35320E-18 1.02001E-18
 -1      2244 9.53408E-05-2.58482E-05-2.97905E-05 4.36171E-06 2.85518E-18-4.24211E-20
 -1      2245 9.59105E-05-2.50982E-05-3.03041E-05-6.19609E-06-2.67102E-18-1.27772E-18
 -1      2246 9.52569E-05-2.58467E-05-2.97608E-05-4.28075E-06-2.37339E-18-1.38392E-18
 -1      2247 1.49245E-04-5.30669E-05-4.12559E-05-3.42739E-06 1.27263E-18-2.59192E-18
 -1      2248 1.55734E-04-4.58994E-05-4.75130E-05 2.54971E-06 1.78110E-18-3.45462E-18
 -1      2249 9.51343E-05-2.65372E-05-2.93436E-05-2.93628E-06-2.17976E-18-1.29290E-18
 -1      2250 9.46722E-05-2.69104E-05-2.90402E-05-1.87679E-06-1.92146E-18-1.50112E-18
 -1      2251 9.53338E-05-2.53575E-05-2.99944E-05-4.28581E-06-2.44187E-18-1.99915E-18
 -1      2252 9.44729E-05-2.72382E-05-2.87770E-05-1.02895E-06-1.66751E-18-1.41293E-18
 -1      2253 9.42149E-05-2.74509E-05-2.86108E-05-4.26923E-07-1.47823E-18-1.70287E-18
 -1      2254 9.50373E-05-2.67066E-05-2.92989E-05-1.92186E-06-1.93267E-18-1.99731E-18
 -1      2255 9.40664E-05-2.76319E-05-2.84494E-05 8.12653E-08-1.27673E-18-1.68552E-18
 -1      2256 9.39679E-05-2.77758E-05-2.83656E-05 4.10591E-07-1.12767E-18-1.78531E-18
 -1      2257 9.47271E-05-2.74267E-05-2.88560E-05-4.42712E-07-1.47476E-18-1.88227E-18
 -1      2258 9.38828E-05-2.78854E-05-2.82720E-05 6.92488E-07-1.01449E-18-1.77117E-18
 -1      2259 9.38880E-05-2.79923E-05-2.82388E-05 8.56017E-07-9.04618E-19-1.75240E-18
 -1      2260 9.45262E-05-2.78565E-05-2.85832E-05 4.26572E-07-1.22122E-18-1.93217E-18
 -1      2261 9.38560E-05-2.80643E-05-2.81899E-05 9.92603E-07-1.08273E-18-1.76220E-18
 -1      2262 9.39224E-05-2.81480E-05-2.81873E-05 1.05421E-06-1.09022E-18-1.93697E-18
 -1      2263 9.44325E-05-2.81256E-05-2.84248E-05 8.96054E-07-1.04298E-18-1.97669E-18
 -1      2264 9.39275E-05-2.81975E-05-2.81672E-05 1.09869E-06-1.02397E-18-1.97083E-18
 -1      2265 9.40256E-05-2.82639E-05-2.81823E-05 1.09863E-06-9.00871E-19-2.06160E-18
 -1      2266 9.44218E-05-2.83021E-05-2.83421E-05 1.10776E-06-1.14424E-18-2.23510E-18
 -1      2267 9.40535E-05-2.82985E-05-2.81802E-05 1.08690E-06-1.07038E-18-1.94766E-18
 -1      2268 9.41637E-05-2.83510E-05-2.82045E-05 1.05141E-06-1.13661E-18-2.01650E-18
 -1      2269 9.44655E-05-2.84198E-05-2.83085E-05 1.15731E-06-1.09066E-18-2.29407E-18
 -1      2270 9.42038E-05-2.83748E-05-2.82132E-05 1.00787E-06-1.03545E-18-1.75712E-18
 -1      2271 9.43140E-05-2.84156E-05-2.82414E-05 9.54363E-07-8.32137E-19-1.89723E-18
 -1      2272 9.45404E-05-2.84974E-05-2.83061E-05 1.10974E-06-1.10359E-18-1.90960E-18
 -1      2273 9.43590E-05-2.84315E-05-2.82562E-05 8.95574E-07-6.79113E-19-1.78281E-18
 -1      2274 9.44623E-05-2.84625E-05-2.82851E-05 8.35676E-07-5.74745E-19-1.73590E-18
 -1      2275 9.46296E-05-2.85467E-05-2.83223E-05 1.00938E-06-7.49038E-19-1.34767E-18
 -1      2276 9.45078E-05-2.84723E-05-2.83028E-05 7.72854E-07-4.71987E-19-1.46184E-18
 -1      2277 9.46009E-05-2.84951E-05-2.83306E-05 7.14338E-07-8.82728E-20-1.41636E-18
 -1      2278 9.47223E-05-2.85754E-05-2.83492E-05 8.86417E-07-4.54371E-19-9.43326E-19
 -1      2279 9.46445E-05-2.85002E-05-2.83495E-05 6.55080E-07-5.87262E-20-1.78713E-18
 -1      2280 9.47268E-05-2.85163E-05-2.83754E-05 6.03177E-07-1.02430E-19-1.81967E-18
 -1      2281 9.48122E-05-2.85888E-05-2.83816E-05 7.61385E-07-2.45255E-19-1.31829E-18
 -1      2282 9.47676E-05-2.85178E-05-2.83946E-05 5.52700E-07-3.94147E-19-1.82212E-18
 -1      2283 9.48403E-05-2.85285E-05-2.84186E-05 5.11041E-07-5.32994E-19-1.90999E-18
 -1      2284 9.48964E-05-2.85909E-05-2.84167E-05 6.48312E-07-3.19202E-19-1.87899E-18
 -1      2285 9.48785E-05-2.85272E-05-2.84379E-05 4.73100E-07-5.25045E-19-1.74812E-18
 -1      2286 9.49440E-05-2.85337E-05-2.84606E-05 4.44415E-07-3.37573E-19-1.72100E-18
 -1      2287 9.49746E-05-2.85843E-05-2.84530E-05 5.57054E-07-4.58178E-19-1.43700E-18
 -1      2288 9.49809E-05-2.85301E-05-2.84803E-05 4.21996E-07-4.66264E-19-1.65540E-18
 -1      2289 9.50426E-05-2.85336E-05-2.85026E-05 4.08638E-07-6.42218E-19-1.46610E-18
 -1      2290 9.50483E-05-2.85708E-05-2.84905E-05 4.95015E-07-5.45892E-19-1.28657E-18
 -1      2291 9.50799E-05-2.85282E-05-2.85233E-05 4.04483E-07-5.56673E-19-1.95418E-18
 -1      2292 9.51423E-05-2.85297E-05-2.85465E-05 4.08820E-07-2.93932E-19-1.83166E-18
 -1      2293 9.51206E-05-2.85515E-05-2.85299E-05 4.68455E-07-8.02955E-19-1.48354E-18
 -1      2294 9.51823E-05-2.85227E-05-2.85693E-05 4.25809E-07-8.48652E-19-1.65908E-18
 -1      2295 9.52505E-05-2.85235E-05-2.85950E-05 4.50508E-07-7.64590E-19-2.16313E-18
 -1      2296 9.51957E-05-2.85272E-05-2.85728E-05 4.83455E-07-6.33791E-19-2.13967E-18
 -1      2297 9.52964E-05-2.85153E-05-2.86211E-05 4.91927E-07-2.13358E-19-2.24464E-18
 -1      2298 9.53764E-05-2.85165E-05-2.86511E-05 5.40133E-07 1.90538E-19-2.37332E-18
 -1      2299 9.52789E-05-2.84983E-05-2.86212E-05 5.46616E-07-5.09719E-19-1.71550E-18
 -1      2300 9.54315E-05-2.85076E-05-2.86821E-05 6.09813E-07 2.20979E-19-2.37739E-18
 -1      2301 9.55305E-05-2.85108E-05-2.87187E-05 6.85208E-07 5.84097E-19-2.99599E-18
 -1      2302 9.53767E-05-2.84654E-05-2.86775E-05 6.65485E-07 5.08415E-20-1.76693E-18
 -1      2303 9.55987E-05-2.85018E-05-2.87561E-05 7.87527E-07 9.28931E-19-3.10990E-18
 -1      2304 9.57248E-05-2.85091E-05-2.88016E-05 8.94242E-07 1.03423E-18-2.95850E-18
 -1      2305 9.54965E-05-2.84292E-05-2.87448E-05 8.48704E-07 6.58189E-19-2.33827E-18
 -1      2306 9.58109E-05-2.85010E-05-2.88472E-05 1.03394E-06 8.86869E-19-2.75253E-18
 -1      2307 9.59731E-05-2.85151E-05-2.89042E-05 1.17626E-06 6.12078E-19-2.26280E-18
 -1      2308 9.56472E-05-2.83913E-05-2.88260E-05 1.10581E-06 9.28322E-19-2.17152E-18
 -1      2309 9.60825E-05-2.85098E-05-2.89597E-05 1.35800E-06 4.40789E-19-2.15283E-18
 -1      2310 9.62909E-05-2.85344E-05-2.90308E-05 1.53976E-06 4.68904E-19-1.74285E-18
 -1      2311 9.58387E-05-2.83548E-05-2.89242E-05 1.44658E-06 7.27113E-19-1.94293E-18
 -1      2312 9.64299E-05-2.85349E-05-2.90977E-05 1.76731E-06-1.85852E-19-2.21954E-18
 -1      2313 9.66955E-05-2.85753E-05-2.91854E-05 1.99087E-06-4.73678E-19-2.46042E-18
 -1      2314 9.60830E-05-2.83252E-05-2.90420E-05 1.87970E-06-5.20310E-20-1.42183E-18
 -1      2315 9.68714E-05-2.85866E-05-2.92646E-05 2.26577E-06-7.01348E-19-2.70894E-18
 -1      2316 9.72056E-05-2.86501E-05-2.93708E-05 2.53026E-06-7.93634E-19-2.41329E-18
 -1      2317 9.63939E-05-2.83122E-05-2.91813E-05 2.41057E-06-9.62741E-19-2.24971E-18
 -1      2318 9.74274E-05-2.86803E-05-2.94624E-05 2.84971E-06-1.00605E-18-2.37259E-18
 -1      2319 9.78413E-05-2.87774E-05-2.95882E-05 3.14842E-06-5.65611E-19-2.18266E-18
 -1      2320 9.67881E-05-2.83314E-05-2.93425E-05 3.03771E-06-8.91606E-19-1.73560E-18
 -1      2321 9.81208E-05-2.88393E-05-2.96909E-05 3.50213E-06-2.79891E-19-2.72755E-18
 -1      2322 9.86243E-05-2.89847E-05-2.98353E-05 3.81861E-06 2.07988E-19-3.24773E-18
 -1      2323 9.72870E-05-2.84087E-05-2.95237E-05 3.74750E-06-7.42959E-19-1.78908E-18
 -1      2324 9.89772E-05-2.90980E-05-2.99461E-05 4.18426E-06 6.52083E-19-3.63253E-18
 -1      2325 9.95776E-05-2.93123E-05-3.01055E-05 4.48689E-06 4.22087E-19-3.53597E-18
 -1      2326 9.79186E-05-2.85841E-05-2.97200E-05 4.50640E-06-4.33418E-20-2.37242E-18
 -1      2327 1.00027E-04-2.95063E-05-3.02192E-05 4.82395E-06 3.16821E-19-3.27469E-18
 -1      2328 1.00726E-04-2.98161E-05-3.03864E-05 5.05913E-06 1.05989E-19-2.20389E-18
 -1      2329 9.87220E-05-2.89179E-05-2.99224E-05 5.25037E-06 2.48138E-19-2.46112E-18
 -1      2330 1.01303E-04-3.01316E-05-3.04955E-05 5.30098E-06-2.17262E-19-1.69903E-18
 -1      2331 1.02096E-04-3.05688E-05-3.06589E-05 5.38598E-06 7.97896E-19-1.08819E-18
 -1      2332 9.97522E-05-2.94958E-05-3.01184E-05 5.87107E-06 3.45246E-19-9.90706E-19
 -1      2333 1.02844E-04-3.10556E-05-3.07553E-05 5.43126E-06 8.63132E-19-1.20010E-18
 -1      2334 1.03709E-04-3.16491E-05-3.08995E-05 5.24993E-06 9.60465E-19-7.33459E-19
 -1      2335 1.01085E-04-3.04279E-05-3.02933E-05 6.19968E-06 6.35983E-19-9.68358E-19
 -1      2336 1.04674E-04-3.23544E-05-3.09773E-05 4.95643E-06 7.27345E-19-1.03865E-18
 -1      2337 1.05563E-04-3.31089E-05-3.10855E-05 4.36491E-06 3.64720E-19-1.54294E-18
 -1      2338 1.02811E-04-3.18321E-05-3.04359E-05 5.99184E-06 3.79604E-19-1.52785E-18
 -1      2339 1.06774E-04-3.40437E-05-3.11473E-05 3.55525E-06 6.35738E-19-2.09661E-18
 -1      2340 1.07589E-04-3.48976E-05-3.12071E-05 2.41162E-06 1.31139E-18-1.83953E-18
 -1      2341 1.05009E-04-3.37790E-05-3.05486E-05 4.92422E-06 2.73444E-19-1.96248E-18
 -1      2342 1.09001E-04-3.59742E-05-3.12723E-05 9.07914E-07 1.56458E-18-1.41469E-18
 -1      2343 1.09564E-04-3.67329E-05-3.12840E-05-8.58596E-07 1.35061E-18-1.48144E-18
 -1      2344 1.07671E-04-3.61762E-05-3.06635E-05 2.62928E-06 1.49211E-18-1.86373E-18
 -1      2345 1.10962E-04-3.76684E-05-3.13958E-05-3.13322E-06 6.50726E-19-4.97586E-19
 -1      2346 1.11004E-04-3.79472E-05-3.13810E-05-5.39130E-06 4.97268E-19-1.61887E-19
 -1      2347 1.10545E-04-3.85714E-05-3.08597E-05-1.18814E-06 1.62024E-18-5.10279E-19
 -1      2348 1.11924E-04-3.82156E-05-3.16016E-05-8.20519E-06-1.01591E-19-9.69960E-20
 -1      2349 1.11148E-04-3.75030E-05-3.16005E-05-1.04659E-05 3.17479E-19 6.08874E-19
 -1      2350 1.12950E-04-3.99684E-05-3.12649E-05-6.44820E-06 2.24289E-19 3.02562E-19
 -1      2351 1.10961E-04-3.64848E-05-3.19777E-05-1.30121E-05 5.32555E-19-9.69638E-20
 -1      2352 1.09269E-04-3.44888E-05-3.20248E-05-1.43648E-05-6.17416E-20-2.96419E-19
 -1      2353 1.13740E-04-3.89216E-05-3.20131E-05-1.21953E-05 1.06957E-19-5.00592E-19
 -1      2354 1.07712E-04-3.20706E-05-3.25256E-05-1.52982E-05-5.13373E-20-3.23443E-19
 -1      2355 1.05498E-04-2.92543E-05-3.26024E-05-1.47803E-05-6.06575E-19 4.21991E-19
 -1      2356 1.11937E-04-3.45340E-05-3.31214E-05-1.61959E-05-1.36154E-20-9.38992E-19
 -1      2357 1.03252E-04-2.63721E-05-3.30499E-05-1.29725E-05-1.31023E-18 2.48889E-19
 -1      2358 1.01414E-04-2.41212E-05-3.30667E-05-1.02897E-05-1.53240E-18 5.60289E-19
 -1      2359 1.07927E-04-2.78453E-05-3.43385E-05-1.56121E-05-6.90305E-19-2.85328E-19
 -1      2360 1.00109E-04-2.26609E-05-3.32074E-05-6.13285E-06-1.81818E-18 7.52003E-19
 -1      2361 9.95206E-05-2.23809E-05-3.30773E-05-2.38557E-06-5.41228E-19 8.64329E-19
 -1      2362 1.04130E-04-2.23697E-05-3.51199E-05-9.29375E-06-1.38781E-18 1.36585E-18
 -1      2363 1.00125E-04-2.34489E-05-3.27926E-05 1.93402E-06-3.32844E-19 3.71004E-19
 -1      2364 1.00879E-04-2.52378E-05-3.25159E-05 4.80740E-06 6.33687E-19-8.12318E-19
 -1      2365 1.03375E-04-2.18500E-05-3.50064E-05-1.02365E-07-1.11622E-18 1.32327E-18
 -1      2366 1.02505E-04-2.78239E-05-3.19243E-05 6.92325E-06 2.34328E-18-2.23330E-18
 -1      2367 1.03727E-04-3.02508E-05-3.16014E-05 7.76043E-06 1.93041E-18-2.30186E-18
 -1      2368 1.05848E-04-2.65888E-05-3.39924E-05 6.70706E-06 6.68759E-20-8.10458E-19
 -1      2369 1.04751E-04-3.24320E-05-3.09646E-05 7.19888E-06 1.12562E-18-2.16156E-18
 -1      2370 1.05522E-04-3.40206E-05-3.07019E-05 6.24970E-06 6.96195E-19-8.81109E-19
 -1      2371 1.08714E-04-3.26689E-05-3.25463E-05 8.03210E-06 1.49731E-18-2.35416E-18
 -1      2372 1.05104E-04-3.46734E-05-3.02174E-05 4.17682E-06 3.22058E-19 7.82438E-20
 -1      2373 1.05010E-04-3.48804E-05-3.00525E-05 2.51113E-06-7.34179E-19 5.27508E-19
 -1      2374 1.09383E-04-3.63876E-05-3.12376E-05 4.89950E-06 1.22446E-18-8.37084E-19
 -1      2375 1.03389E-04-3.40710E-05-2.97693E-05 4.18252E-07-1.47111E-18 8.82288E-19
 -1      2376 1.02519E-04-3.32170E-05-2.96790E-05-9.20062E-07-1.01939E-18 8.09833E-19
 -1      2377 1.07278E-04-3.63901E-05-3.03587E-05 3.73841E-07-4.49186E-19-6.36540E-20
 -1      2378 9.33422E-05-2.76923E-05-2.81283E-05-4.09492E-07 1.08279E-18-1.71790E-19
 -1      2379 9.34204E-05-2.75872E-05-2.81898E-05-1.23997E-07 1.40441E-18 1.19277E-19
 -1      2380 9.32905E-05-2.78570E-05-2.80382E-05-8.15519E-07 9.36150E-19-6.44921E-19
 -1      2381 9.32457E-05-2.77658E-05-2.80498E-05-6.76467E-07 1.06011E-18-2.74387E-19
 -1      2382 9.40125E-05-2.78090E-05-2.83841E-05-4.42460E-07 1.33842E-18-8.66668E-19
 -1      2383 9.33836E-05-2.79926E-05-2.80216E-05-9.90863E-07 1.04165E-18-8.71703E-19
 -1      2384 9.32711E-05-2.79119E-05-2.80047E-05-9.40204E-07 9.63908E-19-6.32956E-19
 -1      2385 9.39253E-05-2.80186E-05-2.82538E-05-8.89515E-07 1.14242E-18-1.03700E-18
 -1      2386 9.35571E-05-2.81075E-05-2.80479E-05-1.02525E-06 8.24366E-19-7.74342E-19
 -1      2387 9.34132E-05-2.80367E-05-2.80160E-05-1.02753E-06 9.29306E-19-7.36894E-19
 -1      2388 9.39533E-05-2.81677E-05-2.81992E-05-1.08539E-06 9.70044E-19-1.07597E-18
 -1      2389 9.37668E-05-2.82041E-05-2.80972E-05-9.76589E-07 2.79684E-19-5.44568E-19
 -1      2390 9.36143E-05-2.81435E-05-2.80587E-05-1.00911E-06 6.18003E-19-5.84400E-19
 -1      2391 9.40508E-05-2.82783E-05-2.81915E-05-1.12595E-06 5.48709E-19-8.55129E-19
 -1      2392 9.39843E-05-2.82841E-05-2.81566E-05-8.83128E-07 8.04943E-19-6.57041E-19
 -1      2393 9.38368E-05-2.82335E-05-2.81168E-05-9.30976E-07 5.83495E-19-5.18103E-19
 -1      2394 9.41840E-05-2.83612E-05-2.82117E-05-1.07450E-06 5.88900E-19-9.34893E-19
 -1      2395 9.41926E-05-2.83488E-05-2.82185E-05-7.70342E-07 9.21079E-19-1.03831E-18
 -1      2396 9.40576E-05-2.83075E-05-2.81804E-05-8.23641E-07 1.05866E-18-8.01584E-19
 -1      2397 9.43302E-05-2.84227E-05-2.82470E-05-9.73431E-07 1.09967E-18-1.06943E-18
 -1      2398 9.43828E-05-2.83999E-05-2.82782E-05-6.55208E-07 1.00345E-18-1.09971E-18
 -1      2399 9.42634E-05-2.83671E-05-2.82434E-05-7.07405E-07 8.16643E-19-1.12643E-18
 -1      2400 9.44752E-05-2.84673E-05-2.82894E-05-8.51222E-07 9.56310E-19-1.28335E-18
 -1      2401 9.45518E-05-2.84392E-05-2.83338E-05-5.49060E-07 7.79733E-19-8.14595E-19
 -1      2402 9.44484E-05-2.84137E-05-2.83026E-05-5.95782E-07 1.12435E-18-5.82204E-19
 -1      2403 9.46112E-05-2.84983E-05-2.83341E-05-7.27033E-07 7.05152E-19-1.05441E-18
 -1      2404 9.47006E-05-2.84688E-05-2.83848E-05-4.59596E-07 3.66247E-19-9.74560E-19
 -1      2405 9.46114E-05-2.84493E-05-2.83571E-05-4.97844E-07 7.87482E-19-5.93454E-19
 -1      2406 9.47350E-05-2.85185E-05-2.83784E-05-6.13808E-07 7.37620E-19-7.89963E-19
 -1      2407 9.48330E-05-2.84907E-05-2.84319E-05-3.92356E-07 1.03187E-19-1.44706E-18
 -1      2408 9.47549E-05-2.84759E-05-2.84069E-05-4.19903E-07 1.70194E-19-1.17151E-18
 -1      2409 9.48469E-05-2.85299E-05-2.84215E-05-5.20510E-07 3.39434E-19-7.71227E-19
 -1      2410 9.49552E-05-2.85070E-05-2.84769E-05-3.51839E-07 5.43229E-19-9.63630E-19
 -1      2411 9.48838E-05-2.84955E-05-2.84534E-05-3.66769E-07 2.74143E-19-1.12611E-18
 -1      2412 9.49493E-05-2.85346E-05-2.84635E-05-4.53775E-07 9.55515E-20-7.70752E-19
 -1      2413 9.50750E-05-2.85197E-05-2.85223E-05-3.42373E-07 5.48554E-19-5.44816E-19
 -1      2414 9.50050E-05-2.85102E-05-2.84987E-05-3.42722E-07 7.51216E-19-6.22763E-19
 -1      2415 9.50469E-05-2.85340E-05-2.85058E-05-4.19164E-07 4.21375E-19-3.10065E-19
 -1      2416 9.52021E-05-2.85312E-05-2.85712E-05-3.68782E-07-1.90803E-19-1.02759E-18
 -1      2417 9.51273E-05-2.85220E-05-2.85457E-05-3.52257E-07 4.47195E-19-5.03039E-19
 -1      2418 9.51455E-05-2.85294E-05-2.85503E-05-4.22141E-07 2.70449E-19 8.17463E-20
 -1      2419 9.53479E-05-2.85438E-05-2.86275E-05-4.36902E-07-6.23894E-19-1.33137E-18
 -1      2420 9.52611E-05-2.85334E-05-2.85977E-05-4.00665E-07-4.14140E-19-1.14314E-18
 -1      2421 9.52527E-05-2.85221E-05-2.85998E-05-4.68804E-07-2.51861E-19-8.03450E-19
 -1      2422 9.55259E-05-2.85605E-05-2.86956E-05-5.53940E-07-1.58439E-19-1.32664E-18
 -1      2423 9.54185E-05-2.85467E-05-2.86591E-05-4.94459E-07-6.46199E-19-1.26796E-18
 -1      2424 9.53772E-05-2.85133E-05-2.86574E-05-5.66441E-07-5.99997E-19-9.58821E-19
 -1      2425 9.57518E-05-2.85847E-05-2.87808E-05-7.28676E-07 5.84854E-19-1.06011E-18
 -1      2426 9.56137E-05-2.85651E-05-2.87344E-05-6.41649E-07 1.82069E-19-1.25518E-18
 -1      2427 9.55295E-05-2.85044E-05-2.87269E-05-7.23884E-07-8.24866E-20-4.28327E-19
 -1      2428 9.60436E-05-2.86206E-05-2.88889E-05-9.71423E-07 7.71218E-20-5.56280E-19
 -1      2429 9.58632E-05-2.85923E-05-2.88293E-05-8.51822E-07 8.08051E-19-7.62885E-19
 -1      2430 9.57215E-05-2.84973E-05-2.88128E-05-9.51647E-07 3.70796E-19-4.75548E-19
 -1      2431 9.64222E-05-2.86737E-05-2.90267E-05-1.29365E-06-5.43408E-19-8.44577E-19
 -1      2432 9.61860E-05-2.86328E-05-2.89498E-05-1.13594E-06 1.82149E-20-8.18844E-19
 -1      2433 9.59669E-05-2.84947E-05-2.89197E-05-1.26176E-06 3.33232E-19-5.10535E-19
 -1      2434 9.69108E-05-2.87510E-05-2.92010E-05-1.70705E-06-3.58258E-19-7.88034E-19
 -1      2435 9.66039E-05-2.86928E-05-2.91028E-05-1.50571E-06-7.54299E-19-9.19786E-19
 -1      2436 9.62811E-05-2.85004E-05-2.90526E-05-1.66715E-06-3.53762E-19-8.77286E-19
 -1      2437 9.75351E-05-2.88621E-05-2.94190E-05-2.22163E-06-7.13804E-19-1.37772E-18
 -1      2438 9.71408E-05-2.87803E-05-2.92950E-05-1.97221E-06-1.74610E-19-1.13496E-18
 -1      2439 9.66816E-05-2.85205E-05-2.92162E-05-2.18028E-06-2.82315E-19-1.92750E-18
 -1      2440 9.83224E-05-2.90202E-05-2.96868E-05-2.84234E-06-4.17338E-19-9.54297E-19
 -1      2441 9.78234E-05-2.89066E-05-2.95331E-05-2.54333E-06-1.11273E-18-1.18480E-18
 -1      2442 9.71876E-05-2.85646E-05-2.94148E-05-2.81069E-06-8.57269E-19-1.67671E-18
 -1      2443 9.93003E-05-2.92446E-05-3.00085E-05-3.56317E-06 8.68199E-19-1.26386E-18
 -1      2444 9.86800E-05-2.90877E-05-2.98222E-05-3.21927E-06 6.09710E-19-7.04588E-19
 -1      2445 9.78206E-05-2.86484E-05-2.96508E-05-3.56064E-06-2.09374E-19-2.04537E-18
 -1      2446 1.00495E-04-2.95634E-05-3.03841E-05-4.35755E-06 1.43084E-19-3.09974E-19
 -1      2447 9.97397E-05-2.93475E-05-3.01647E-05-3.98505E-06 5.68189E-19-6.07157E-19
 -1      2448 9.86056E-05-2.87981E-05-2.99236E-05-4.41801E-06 4.00649E-19-1.48350E-18
 -1      2449 1.01930E-04-3.00186E-05-3.08065E-05-5.16345E-06-3.89271E-21 6.79042E-19
 -1      2450 1.01032E-04-2.97220E-05-3.05577E-05-4.79843E-06 2.12973E-19 4.26079E-19
 -1      2451 9.95727E-05-2.90564E-05-3.02283E-05-5.34505E-06-3.04885E-19-5.97721E-19
 -1      2452 1.03622E-04-3.06712E-05-3.12584E-05-5.86194E-06 5.03240E-19 5.28496E-19
 -1      2453 1.02586E-04-3.02648E-05-3.09903E-05-5.57181E-06 4.43686E-19 9.23447E-19
 -1      2454 1.00762E-04-2.94914E-05-3.05530E-05-6.26151E-06-4.47765E-20 6.80486E-19
 -1      2455 1.05576E-04-3.16033E-05-3.17089E-05-6.25035E-06 1.38061E-19-1.83701E-19
 -1      2456 1.04427E-04-3.10526E-05-3.14407E-05-6.14723E-06 3.68167E-19 7.07570E-20
 -1      2457 1.02231E-04-3.02064E-05-3.08786E-05-7.02109E-06 8.77698E-19 3.88131E-19
 -1      2458 1.07778E-04-3.29059E-05-3.21137E-05-6.01725E-06-4.12983E-19-1.70216E-19
 -1      2459 1.06574E-04-3.21819E-05-3.18744E-05-6.26753E-06-2.29357E-19-3.15255E-20
 -1      2460 1.04060E-04-3.13427E-05-3.11794E-05-7.38239E-06 3.17259E-19 6.03822E-19
 -1      2461 1.10159E-04-3.46306E-05-3.24218E-05-4.74133E-06 7.42864E-19 5.68821E-19
 -1      2462 1.09014E-04-3.37422E-05-3.22480E-05-5.55605E-06-2.34494E-19-1.45097E-19
 -1      2463 1.06346E-04-3.30563E-05-3.14305E-05-6.98199E-06-4.15671E-19 2.69943E-19
 -1      2464 1.12534E-04-3.66680E-05-3.25944E-05-1.96151E-06 3.56058E-19 1.66180E-18
 -1      2465 1.11648E-04-3.57314E-05-3.25211E-05-3.53931E-06 1.07070E-18 1.25237E-18
 -1      2466 1.09159E-04-3.54302E-05-3.16245E-05-5.33300E-06 3.09925E-19 1.33623E-18
 -1      2467 1.14473E-04-3.85361E-05-3.26405E-05 2.59650E-06-2.70475E-19 2.07177E-18
 -1      2468 1.14163E-04-3.78762E-05-3.26806E-05 2.15948E-07 3.58752E-19 2.19863E-18
 -1      2469 1.12413E-04-3.82712E-05-3.17991E-05-1.90511E-06 2.16450E-19 2.19482E-18
 -1      2470 1.15189E-04-3.91873E-05-3.26502E-05 8.55433E-06-2.11064E-18 2.30379E-18
 -1      2471 1.15856E-04-3.93861E-05-3.27771E-05 5.72955E-06-1.29558E-18 2.06882E-18
 -1      2472 1.15592E-04-4.07658E-05-3.20707E-05 3.58941E-06-1.22215E-18 1.72920E-18
 -1      2473 1.13719E-04-3.72685E-05-3.27798E-05 1.42716E-05-2.63180E-18 1.99166E-18
 -1      2474 1.15627E-04-3.89047E-05-3.29232E-05 1.19783E-05-2.93499E-18 2.69603E-18
 -1      2475 1.17549E-04-4.13474E-05-3.26272E-05 1.05722E-05-2.16945E-18 2.13010E-18
 -1      2476 1.09621E-04-3.22011E-05-3.31343E-05 1.67731E-05-1.54424E-18 2.69548E-18
 -1      2477 1.12510E-04-3.52093E-05-3.32400E-05 1.64302E-05-1.57412E-18 2.10169E-18
 -1      2478 1.16752E-04-3.81212E-05-3.36441E-05 1.68516E-05-2.13126E-18 1.92195E-18
 -1      2479 1.04336E-04-2.59673E-05-3.35308E-05 1.32659E-05-1.39350E-19 1.94479E-18
 -1      2480 1.07098E-04-2.89416E-05-3.36275E-05 1.57435E-05-1.58756E-18 2.10995E-18
 -1      2481 1.12681E-04-3.11257E-05-3.49672E-05 1.85408E-05-1.43043E-18 1.74772E-18
 -1      2482 1.01083E-04-2.27539E-05-3.36000E-05 4.37119E-06 1.82747E-18 2.35227E-18
 -1      2483 1.02318E-04-2.36797E-05-3.37675E-05 8.71904E-06 1.72335E-18 2.03769E-18
 -1      2484 1.07660E-04-2.39134E-05-3.60153E-05 1.27835E-05 5.63158E-19-2.33202E-19
 -1      2485 1.01939E-04-2.50436E-05-3.30793E-05-4.85963E-06 2.42508E-18 3.90952E-19
 -1      2486 1.01251E-04-2.33612E-05-3.33436E-05-1.14887E-06 1.98237E-18 1.51128E-18
 -1      2487 1.05652E-04-2.18092E-05-3.60992E-05 1.82649E-06 2.19614E-18 7.15983E-19
 -1      2488 1.05310E-04-3.06129E-05-3.21404E-05-9.10141E-06 3.48748E-18-8.29543E-19
 -1      2489 1.03682E-04-2.78566E-05-3.24175E-05-7.93295E-06 2.78958E-18-1.93977E-19
 -1      2490 1.07867E-04-2.63380E-05-3.50129E-05-7.38085E-06 3.58918E-18-1.98466E-18
 -1      2491 1.07720E-04-3.50553E-05-3.12054E-05-7.32008E-06 3.83696E-18-1.35813E-18
 -1      2492 1.06522E-04-3.31670E-05-3.14081E-05-8.55547E-06 3.48844E-18-5.69458E-19
 -1      2493 1.11250E-04-3.34640E-05-3.33089E-05-9.66431E-06 3.20458E-18-1.89426E-18
 -1      2494 1.07344E-04-3.60972E-05-3.05323E-05-2.36701E-06 1.12662E-18-9.93353E-19
 -1      2495 1.07248E-04-3.58205E-05-3.06586E-05-4.59324E-06 1.98466E-18-4.05180E-19
 -1      2496 1.12169E-04-3.79621E-05-3.17555E-05-5.75324E-06 2.61073E-18-8.17905E-19
 -1      2497 1.04609E-04-3.42117E-05-3.01224E-05 2.32931E-06 8.34301E-19-1.03762E-18
 -1      2498 1.05507E-04-3.51944E-05-3.02219E-05 4.76581E-07 1.23427E-18-1.09375E-18
 -1      2499 1.09785E-04-3.80261E-05-3.07493E-05 2.22019E-07 1.36811E-18 1.12901E-18
 -1      2500 1.00735E-04-3.09214E-05-2.98656E-05 4.64772E-06-5.44156E-19-8.49518E-19
 -1      2501 1.02165E-04-3.24060E-05-2.99729E-05 3.96006E-06-7.26893E-20-9.24834E-19
 -1      2502 1.05342E-04-3.47143E-05-3.02650E-05 4.78824E-06 5.36095E-19 1.08459E-18
 -1      2503 9.83991E-05-2.90012E-05-2.97648E-05 4.61600E-06-1.00997E-18-1.31266E-18
 -1      2504 9.06291E-05-1.91608E-05-3.07625E-05 2.27402E-05 2.90890E-19 2.74768E-18
 -1      2505 9.46253E-05-2.26863E-05-3.06857E-05 2.27974E-05-8.28883E-19 8.23111E-19
 -1      2506 8.15665E-05-1.14382E-05-3.02382E-05 1.76510E-05 1.97640E-19 3.18761E-18
 -1      2507 8.58219E-05-1.47883E-05-3.02761E-05 2.10925E-05-4.10735E-19 4.10599E-18
 -1      2508 8.84258E-05-2.15006E-05-2.86682E-05 2.52788E-05 1.20021E-19 3.03651E-18
 -1      2509 1.01076E-04-2.90246E-05-3.08144E-05 1.51876E-05-1.58987E-18 1.24833E-18
 -1      2510 1.01644E-04-3.04737E-05-3.05004E-05 1.23133E-05-2.80924E-19 1.15216E-18
 -1      2511 9.77963E-05-2.55345E-05-3.09907E-05 2.07968E-05-2.40171E-18 1.23654E-19
 -1      2512 1.00046E-04-2.80798E-05-3.07695E-05 1.86781E-05-2.48525E-18 1.48936E-18
 -1      2513 1.03526E-04-3.28377E-05-3.03388E-05 1.82756E-05-9.33085E-19 5.31559E-19
 -1      2514 9.83315E-05-2.90265E-05-2.97657E-05 2.44103E-05-9.11427E-19 2.14373E-18
 -1      2515 7.55343E-05-6.27063E-06-2.98021E-05 5.24167E-06-2.00899E-19 2.92477E-18
 -1      2516 7.75909E-05-7.78993E-06-2.98398E-05 1.15026E-05-1.09512E-19 2.88882E-18
 -1      2517 7.75047E-05-1.29661E-05-2.74882E-05 1.71766E-05-7.63971E-19 3.33310E-18
 -1      2518 7.67142E-05-7.04276E-06-2.97653E-05-9.74197E-06 1.52446E-19 9.43740E-19
 -1      2519 7.52244E-05-5.94855E-06-2.97597E-05-3.28985E-06-8.47959E-19 1.30810E-18
 -1      2520 7.20731E-05-8.63610E-06-2.69127E-05 1.21590E-06-1.13132E-19 1.76797E-18
 -1      2521 8.44805E-05-1.36775E-05-3.01673E-05-2.04642E-05-7.74360E-19-2.92671E-18
 -1      2522 8.03148E-05-1.05186E-05-3.01183E-05-1.65595E-05-4.28895E-19-1.22799E-18
 -1      2523 7.64555E-05-1.20187E-05-2.74301E-05-1.55991E-05-7.66962E-19-5.46396E-19
 -1      2524 9.34081E-05-2.16634E-05-3.05909E-05-2.33437E-05 9.77430E-19-1.97664E-18
 -1      2525 8.92773E-05-1.80862E-05-3.06521E-05-2.28295E-05 3.31895E-19-1.84181E-18
 -1      2526 8.66490E-05-2.00785E-05-2.84552E-05-2.50464E-05-5.59717E-19-1.69973E-18
 -1      2527 9.97590E-05-2.78462E-05-3.07356E-05-1.98646E-05 2.64974E-18 8.46841E-19
 -1      2528 9.70487E-05-2.49572E-05-3.09393E-05-2.18405E-05 2.23861E-18-2.92207E-18
 -1      2529 9.71078E-05-2.81933E-05-2.95876E-05-2.54945E-05 7.36637E-19-1.37123E-18
 -1      2530 1.02030E-04-3.08045E-05-3.05081E-05-1.34205E-05 1.44700E-18 9.46477E-19
 -1      2531 1.01156E-04-2.91488E-05-3.08181E-05-1.63291E-05 1.42657E-18 2.23430E-18
 -1      2532 1.03423E-04-3.29342E-05-3.02600E-05-1.97539E-05 2.89644E-18 1.89519E-19
 -1      2533 1.01327E-04-3.12552E-05-3.00259E-05-7.12722E-06-1.26632E-18-1.27872E-18
 -1      2534 1.01720E-04-3.06567E-05-3.03664E-05-9.76689E-06-1.52515E-19-2.05991E-19
 -1      2535 1.04843E-04-3.40128E-05-3.03347E-05-1.21908E-05 6.25224E-20-7.70127E-19
 -1      2536 1.04473E-04-5.86831E-05-1.97749E-05 4.78303E-05-1.04926E-18-5.13567E-19
 -1      2537 8.61210E-05-5.31124E-05-1.38833E-05 4.80472E-05-1.68263E-18 2.10276E-19
 -1      2538 9.81590E-05-2.94634E-05-2.94756E-05-3.14005E-06 5.23268E-19-4.77012E-19
 -1      2539 2.45875E-05-2.03111E-05-1.51275E-06-1.06547E-05-1.70841E-18 2.38440E-18
 -1      2540 3.17259E-05-2.65774E-05-2.00406E-06-2.73458E-05-7.91976E-19 1.07023E-18
 -1      2541 9.36255E-05-2.74728E-05-2.83396E-05 3.70695E-07 1.59295E-18 1.70325E-19
 -1      2542 9.39081E-05-2.73369E-05-2.84867E-05 9.04290E-07 1.81079E-18 3.92401E-19
 -1      2543 9.42690E-05-2.74898E-05-2.86333E-05 4.04494E-07 1.67328E-18-7.11115E-19
 -1      2544 3.18319E-05-2.25991E-05-3.50610E-06 2.32060E-05-1.08039E-18 2.34120E-18
 -1      2545 2.58031E-05-1.97042E-05-2.13130E-06 7.94290E-06-1.88526E-18 2.41913E-18
 -1      2546 1.36270E-04-6.42792E-05-3.12289E-05 3.23988E-05 3.34578E-19-2.68224E-18
 -1      2547 1.22411E-04-6.36187E-05-2.50703E-05 3.88176E-05-3.89635E-20-2.13188E-18
 -1      2548 9.50691E-05-2.00216E-05-3.22124E-05-1.17699E-05-3.46313E-18-1.83253E-18
 -1      2549 9.54740E-05-2.33579E-05-3.09271E-05-7.96619E-06-3.12157E-18-1.53574E-18
 -1      2550 9.50482E-05-2.25722E-05-3.10500E-05-7.61101E-06-2.85514E-18-2.16741E-18
 -1      2551 9.32360E-05-1.77031E-05-3.23977E-05-1.13091E-05-3.22906E-18-2.73520E-18
 -1      2552 4.37283E-05-3.28435E-05-4.43386E-06-3.68043E-05 6.80379E-19-4.96997E-19
 -1      2553 5.99905E-05-3.89311E-05-8.92616E-06-4.65791E-05 1.48591E-18-4.17375E-19
 -1      2554 4.66226E-05-2.58338E-05-8.31335E-06-3.25132E-05 1.27277E-18-1.79042E-18
 -1      2555 1.47150E-04-1.03867E-05-5.91232E-05-2.54977E-06 2.37169E-19-1.81932E-18
 -1      2556 1.46055E-04-1.03610E-05-5.86498E-05-7.15084E-06 9.06325E-20-1.42540E-18
 -1      2557 4.22464E-05-3.10851E-05-4.43907E-06 3.46203E-05 7.72494E-19-3.29157E-18
 -1      2558 2.89713E-05-2.54323E-05-1.03406E-06 2.29780E-05 2.83015E-19-5.35558E-18
 -1      2559 8.78386E-05-1.07986E-05-3.30529E-05-1.51840E-06 6.01182E-20-5.05207E-18
 -1      2560 8.79441E-05-1.09206E-05-3.30443E-05-2.63724E-06-2.94191E-19-5.03124E-18
 -1      2561 8.93435E-05-1.30934E-05-3.26807E-05-2.93037E-06-4.34295E-19-4.70995E-18
 -1      2562 8.90946E-05-1.27583E-05-3.27188E-05-9.40962E-07 1.64043E-19-4.78673E-18
 -1      2563 1.56009E-04-3.38713E-05-5.23523E-05 9.55667E-06 2.39350E-18-3.41968E-18
 -1      2564 1.53220E-04-2.31755E-05-5.62265E-05 1.32003E-05 2.57265E-18-3.00845E-18
 -1      2565 1.53753E-04-1.33883E-05-6.05575E-05 2.21866E-06 7.13625E-19-2.41002E-18
 -1      2566 1.52872E-04-1.67749E-05-5.87518E-05-7.52771E-07 1.04736E-18-1.80079E-18
 -1      2567 1.54817E-04-2.58681E-05-5.55393E-05-2.49986E-06 1.65595E-18-9.42748E-19
 -1      2568 1.51381E-04-3.65010E-05-4.96324E-05-2.16790E-06 1.17971E-18-1.24217E-18
 -1      2569 1.47969E-04-1.33624E-05-5.83198E-05 9.93956E-06 2.61818E-18-3.12333E-18
 -1      2570 1.52532E-04-1.19209E-05-6.05012E-05 5.96154E-06 1.31375E-18-2.53617E-18
 -1      2571 1.40262E-04-1.04281E-05-5.58689E-05 3.39749E-06 8.37080E-19-3.15248E-18
 -1      2572 1.26531E-04-6.27540E-05-2.72208E-05-2.48220E-05 5.56077E-19-1.74288E-18
 -1      2573 1.41814E-04-6.07606E-05-3.49260E-05-1.62654E-05 1.01686E-18-2.16735E-18
 -1      2574 8.63191E-05-5.45116E-05-1.35938E-05-3.96242E-05-3.37966E-19-2.90338E-18
 -1      2575 1.05901E-04-5.95304E-05-2.00556E-05-3.65269E-05-1.01009E-19-2.22066E-18
 -1      2576 4.93413E-05-3.94792E-05-4.08694E-06-3.64815E-05 6.49251E-19-2.77975E-18
 -1      2577 6.73933E-05-4.66077E-05-8.90860E-06-4.20328E-05 4.71797E-19-2.48647E-18
 -1      2578 8.28426E-05-5.07471E-05-1.33792E-05-4.02136E-05-3.59142E-19-2.05755E-18
 -1      2579 2.25887E-05-2.56870E-05 1.51474E-06-1.61991E-05-1.57262E-18-4.28429E-18
 -1      2580 3.26238E-05-2.98471E-05-1.00731E-06-2.87569E-05-6.28075E-19-3.86162E-18
 -1      2581 1.85081E-05-2.18479E-05 1.59968E-06 8.59040E-06-1.54652E-18-6.56366E-18
 -1      2582 1.81925E-05-2.30307E-05 2.36829E-06-5.39724E-06-1.32518E-18-4.67054E-18
 -1      2583 2.74559E-05-2.02211E-05-2.56500E-06-1.19304E-05-9.59635E-19-4.57059E-18
 -1      2584 7.24240E-05-4.58275E-05-1.12081E-05 4.22041E-05 1.33196E-18-3.32884E-19
 -1      2585 5.55808E-05-3.92035E-05-6.65821E-06 3.91432E-05 1.34466E-18-3.01713E-18
 -1      2586 5.33058E-05-3.21308E-05-8.47620E-06 3.49685E-05 2.17825E-18-2.31409E-18
 -1      2587 1.44741E-04-5.86878E-05-3.69727E-05-2.28227E-05-1.53313E-19-1.90582E-21
 -1      2588 1.53324E-04-5.33789E-05-4.32030E-05-1.52082E-05-7.56347E-19-7.23790E-19
 -1      2589 1.19379E-04-6.14922E-05-2.48389E-05 3.19192E-05-7.61694E-19 1.50555E-18
 -1      2590 9.87850E-05-5.72447E-05-1.76171E-05 3.88505E-05 6.63227E-19 1.42820E-18
 -1      2591 1.57299E-04-3.53762E-05-5.24804E-05-4.91867E-06-3.06880E-18 1.91048E-18
 -1      2592 1.51813E-04-4.33477E-05-4.67124E-05-1.51172E-06-4.15830E-18 2.93455E-18
 -1      2593 1.49098E-04-1.72507E-05-5.72974E-05-1.13360E-05-5.18172E-19-5.48877E-19
 -1      2594 1.54652E-04-2.58084E-05-5.53403E-05-9.35898E-06-1.25213E-18 3.63589E-19
 -1      2595 1.46565E-04-2.98240E-05-5.01546E-05-1.41817E-05-2.05914E-18-7.28448E-19
 -1      2596 1.52184E-04-2.12951E-05-5.64021E-05 3.05386E-06 9.41689E-19-1.15938E-18
 -1      2597 1.49640E-04-1.52787E-05-5.82283E-05 1.55194E-06-1.12232E-19-1.66611E-18
 -1      2598 1.55659E-04-4.24533E-05-4.86138E-05-4.95102E-06 5.46760E-19-2.29546E-19
 -1      2599 1.56547E-04-3.22801E-05-5.37832E-05 2.96329E-07 1.57188E-18 6.07746E-19
 -1      2600 1.21526E-04-6.25225E-05-2.52469E-05-3.92372E-05-2.33019E-18-1.64790E-18
 -1      2601 1.36507E-04-6.22617E-05-3.19054E-05-3.37619E-05-1.03211E-18 1.43996E-19
 -1      2602 1.43049E-04-6.36950E-05-3.39800E-05-2.29394E-05-7.52271E-19 8.21410E-19
 -1      2603 8.31956E-05-5.09616E-05-1.34764E-05-4.85453E-05 3.64859E-19-1.64166E-18
 -1      2604 1.03733E-04-5.82528E-05-1.94957E-05-4.86839E-05-1.39125E-18-3.25417E-18
 -1      2605 9.63376E-05-2.50963E-05-3.05578E-05 7.59301E-06 3.45228E-18 1.80843E-18
 -1      2606 9.74591E-05-2.37798E-05-3.15982E-05 1.06926E-05 3.65701E-18 2.35196E-18
 -1      2607 9.58929E-05-2.13042E-05-3.20225E-05 1.18944E-05 3.97538E-18 1.01518E-18
 -1      2608 9.58812E-05-2.41621E-05-3.07700E-05 7.68432E-06 3.51758E-18 3.37178E-19
 -1      2609 1.53099E-04-5.25006E-05-4.36817E-05 7.01830E-06 1.01115E-18-7.32048E-19
 -1      2610 1.47084E-04-6.03321E-05-3.71166E-05 1.85355E-05 7.86470E-19-8.26281E-19
 -1      2611 1.43028E-04-6.39468E-05-3.36950E-05 2.03141E-05-9.84676E-20-1.42196E-19
 -1      2612 1.39648E-04-2.26375E-05-5.04899E-05 1.77441E-05 2.72639E-18-2.78536E-18
 -1      2613 1.45439E-04-1.84268E-05-5.48887E-05 1.42380E-05 2.96250E-18-2.35750E-18
 -1      2614 1.34800E-04-1.37761E-05-5.24201E-05 1.40129E-05 2.31727E-18-2.88086E-18
 -1      2615 9.07944E-05-1.50458E-05-3.24583E-05-6.80346E-06-1.88280E-18-4.51288E-18
 -1      2616 8.97018E-05-1.31822E-05-3.28460E-05-7.96253E-06-2.03335E-18-4.71099E-18
 -1      2617 9.03605E-05-1.39678E-05-3.28012E-05-9.13529E-06-2.46940E-18-4.42284E-18
 -1      2618 9.47349E-05-2.69397E-05-2.90676E-05 1.88476E-06 2.21604E-18-4.57490E-19
 -1      2619 9.42478E-05-1.90823E-05-3.22590E-05 1.16034E-05 3.89414E-18-5.10999E-19
 -1      2620 1.50960E-04-4.55549E-05-4.54037E-05-1.76270E-06 1.55621E-18-1.03952E-18
 -1      2621 1.46571E-04-5.18550E-05-4.07453E-05 6.07005E-07 2.05405E-18-4.68515E-19
 -1      2622 1.43061E-04-3.71755E-05-4.59413E-05-8.58971E-06 1.80651E-18-2.68827E-19
 -1      2623 1.50246E-04-4.01276E-05-4.73148E-05 1.25921E-05 1.81000E-18-2.98770E-18
 -1      2624 7.87037E-05-4.62968E-05-1.33791E-05 4.79279E-05-1.53864E-18 3.96835E-19
 -1      2625 1.38734E-04-1.31428E-05-5.41614E-05-1.08062E-05-5.84453E-20-2.79913E-18
 -1      2626 1.18614E-04-6.23838E-05-2.39316E-05-4.08149E-05-9.44653E-19-1.19929E-18
 -1      2627 1.00340E-04-3.03065E-05-3.00324E-05 6.36976E-06-7.90325E-19-3.33180E-19
 -1      2628 1.00958E-04-3.01759E-05-3.03001E-05 8.37274E-06 5.95372E-20 1.55288E-18
 -1      2629 1.51807E-04-4.98562E-05-4.37022E-05-3.85121E-06 6.36334E-20 7.99176E-19
 -1      2630 1.17956E-04-6.23926E-05-2.34668E-05 4.08761E-05-4.02764E-19-1.42320E-18
 -1      2631 9.99468E-05-3.10971E-05-2.94804E-05-2.29173E-06-6.09644E-19-3.40980E-19
 -1      2632 1.00752E-04-3.10269E-05-2.98233E-05-4.63823E-06-5.37970E-19 2.11633E-19
 -1      2633 1.03385E-04-3.34743E-05-3.00239E-05-6.00131E-06-1.39988E-18-9.85668E-21
 -1      2634 1.00984E-04-3.21757E-05-2.95667E-05-1.78965E-06-1.23594E-18 8.13972E-19
 -1      2635 3.30617E-05-1.70636E-05-6.27978E-06-2.85866E-06-1.18622E-18 2.57413E-18
 -1      2636 9.47176E-05-2.06038E-05-3.17187E-05 9.67046E-06 3.62084E-18-8.32508E-19
 -1      2637 4.21214E-05-2.55748E-05-6.49205E-06 3.02855E-05-1.72541E-18 3.54102E-18
 -1      2638 4.37155E-05-1.92567E-05-9.90592E-06 2.37804E-05-1.24514E-18 2.28233E-18
 -1      2639 5.31458E-05-2.83454E-05-1.04319E-05 3.71324E-05-1.84547E-18 3.36950E-18
 -1      2640 1.38078E-04-1.17522E-05-5.45076E-05 1.03690E-06 2.39287E-20-1.54938E-18
 -1      2641 9.11364E-05-1.50073E-05-3.26794E-05-9.82026E-06-2.67820E-18-4.03732E-18
 -1      2642 9.21654E-05-1.62886E-05-3.25983E-05-1.08476E-05-3.08989E-18-3.45293E-18
 -1      2643 9.36581E-05-1.92129E-05-3.18910E-05-9.20229E-06-2.99980E-18-2.98237E-18
 -1      2644 9.20738E-05-1.68206E-05-3.22371E-05-8.31537E-06-2.49115E-18-3.90565E-18
 -1      2645 1.29926E-04-6.36805E-05-2.82630E-05 2.32495E-05-1.64631E-18 1.63202E-18
 -1      2646 1.22387E-04-6.29219E-05-2.52784E-05 2.57675E-05-1.07573E-19 1.39491E-18
 -1      2647 1.36016E-04-6.29925E-05-3.17588E-05 1.29464E-05-1.87374E-18 2.36809E-18
 -1      2648 3.07890E-05-2.01889E-05-3.96347E-06 1.55118E-05-1.90371E-19-4.45476E-18
 -1      2649 4.78693E-05-3.27663E-05-6.01034E-06-3.29009E-05-5.06102E-19-3.36971E-18
 -1      2650 1.43593E-04-2.08107E-05-5.29276E-05-6.01610E-06 1.61614E-18-2.43162E-18
 -1      2651 1.45278E-04-5.94136E-05-3.68960E-05-4.02913E-06 8.89649E-19-3.08066E-18
 -1      2652 7.90885E-05-4.44736E-05-1.43388E-05-4.65906E-05 9.98228E-19-6.22252E-19
 -1      2653 1.49196E-04-5.12065E-05-4.22677E-05-6.44818E-07-4.41982E-18 2.84667E-18
 -1      2654 1.44359E-04-5.63551E-05-3.76285E-05 1.10624E-06-3.44994E-18 3.05811E-18
 -1      2655 1.45549E-04-4.59040E-05-4.32973E-05-1.02573E-05-3.94633E-18 1.85924E-18
 -1      2656 1.19954E-04-6.31487E-05-2.42104E-05-2.88317E-05-3.85612E-19-1.93611E-18
 -1      2657 1.29589E-04-6.44777E-05-2.80871E-05-1.84347E-05-7.54442E-19-1.69931E-18
 -1      2658 1.12377E-04-6.08750E-05-2.17617E-05-3.14818E-05-9.93252E-19-1.28247E-18
 -1      2659 8.89196E-05-5.18528E-05-1.55633E-05 4.06392E-05 9.20301E-19 2.35862E-18
 -1      2660 7.91842E-05-4.38462E-05-1.45657E-05 3.91097E-05 1.68644E-18 7.57883E-19
 -1      2661 1.02547E-04-5.55578E-05-2.00178E-05 3.44759E-05 1.66241E-18 2.08092E-18
 -1      2662 1.46622E-04-2.76485E-05-5.12339E-05 5.60800E-06 6.95838E-19-5.78735E-19
 -1      2663 1.03894E-04-3.32790E-05-3.03058E-05 1.03097E-05 4.99177E-20 1.31718E-18
 -1      2664 1.04077E-04-3.41256E-05-2.99403E-05-2.61446E-06-1.45112E-18 1.84499E-18
 -1      2665 9.05571E-05-1.51741E-05-3.23293E-05 3.19583E-06 1.58619E-18-4.17605E-18
 -1      2666 9.03667E-05-1.49025E-05-3.23620E-05 2.26188E-06 1.26599E-18-4.30203E-18
 -1      2667 9.02323E-05-1.46997E-05-3.23910E-05 1.42296E-06 1.06654E-18-4.40372E-18
 -1      2668 9.01671E-05-1.46073E-05-3.24020E-05 4.65760E-07 6.77123E-19-4.40431E-18
 -1      2669 9.14185E-05-1.65952E-05-3.20542E-05 1.64196E-06 1.10910E-18-4.13322E-18
 -1      2670 9.21402E-05-1.75517E-05-3.20044E-05 6.47475E-06 2.88962E-18-3.10344E-18
 -1      2671 9.16153E-05-1.67571E-05-3.21044E-05 5.63554E-06 2.54099E-18-3.42600E-18
 -1      2672 9.35628E-05-1.97780E-05-3.16646E-05 7.59684E-06 3.22834E-18-2.23594E-18
 -1      2673 9.27712E-05-1.85221E-05-3.18380E-05 7.01846E-06 3.02354E-18-2.69172E-18
 -1      2674 9.34350E-05-1.98678E-05-3.15061E-05 5.73498E-06 2.78368E-18-2.65473E-18
 -1      2675 9.52191E-05-2.54095E-05-2.99308E-05 3.97813E-06 2.61836E-18-8.70898E-19
 -1      2676 9.55557E-05-2.45594E-05-3.03947E-05 5.61123E-06 2.92580E-18-7.49302E-19
 -1      2677 4.63294E-05-1.89936E-05-1.10064E-05-2.48976E-05-9.02461E-19-2.35496E-18
 -1      2678 5.65655E-05-2.58180E-05-1.29047E-05-3.60418E-05 4.04564E-19-3.01078E-18
 -1      2679 9.47088E-05-2.19080E-05-3.12071E-05 7.84282E-06 3.33910E-18-1.07172E-18
 -1      2680 9.53607E-05-2.59115E-05-2.97387E-05-2.72097E-06-1.92527E-18-2.28452E-18
 -1      2681 9.51901E-05-2.64837E-05-2.94563E-05-1.72849E-06-1.67208E-18-2.37287E-18
 -1      2682 9.52186E-05-2.70061E-05-2.92102E-05-9.81366E-07-1.52543E-18-2.16346E-18
 -1      2683 9.50839E-05-2.73622E-05-2.90298E-05-3.77103E-07-1.33730E-18-2.29186E-18
 -1      2684 9.54113E-05-2.63252E-05-2.96141E-05-1.61871E-06-1.65032E-18-2.46814E-18
 -1      2685 9.50499E-05-2.76684E-05-2.88619E-05 8.76542E-08-1.19259E-18-2.14216E-18
 -1      2686 9.49717E-05-2.78929E-05-2.87510E-05 4.37569E-07-1.04142E-18-2.14358E-18
 -1      2687 9.54175E-05-2.73289E-05-2.91883E-05-3.44944E-07-1.24290E-18-2.36789E-18
 -1      2688 9.49294E-05-2.80784E-05-2.86402E-05 7.05899E-07-1.02006E-18-2.11997E-18
 -1      2689 9.49006E-05-2.82253E-05-2.85761E-05 8.87804E-07-1.12264E-18-2.29513E-18
 -1      2690 9.53553E-05-2.79432E-05-2.88976E-05 4.42433E-07-1.13645E-18-2.28191E-18
 -1      2691 9.48654E-05-2.83375E-05-2.85058E-05 1.02050E-06-1.17843E-18-2.27403E-18
 -1      2692 9.48717E-05-2.84346E-05-2.84730E-05 1.09389E-06-1.05161E-18-2.23507E-18
 -1      2693 9.52908E-05-2.83248E-05-2.87051E-05 8.81611E-07-1.19649E-18-2.41329E-18
 -1      2694 9.48471E-05-2.85001E-05-2.84311E-05 1.13758E-06-8.83930E-19-2.18627E-18
 -1      2695 9.48753E-05-2.85636E-05-2.84187E-05 1.14330E-06-8.44643E-19-2.07655E-18
 -1      2696 9.52411E-05-2.85572E-05-2.85829E-05 1.08402E-06-9.85508E-19-2.18036E-18
 -1      2697 9.48603E-05-2.85987E-05-2.83965E-05 1.13166E-06-7.42265E-19-1.84459E-18
 -1      2698 9.49002E-05-2.86386E-05-2.83969E-05 1.09777E-06-5.95227E-19-1.52117E-18
 -1      2699 9.52088E-05-2.86919E-05-2.85102E-05 1.13309E-06-5.58172E-19-1.61480E-18
 -1      2700 9.48925E-05-2.86535E-05-2.83880E-05 1.05468E-06-7.60478E-19-1.13714E-18
 -1      2701 9.49371E-05-2.86766E-05-2.83963E-05 1.00048E-06-6.77097E-19-1.12143E-18
 -1      2702 9.51913E-05-2.87615E-05-2.84719E-05 1.08895E-06-4.47238E-19-1.35149E-18
 -1      2703 9.49345E-05-2.86781E-05-2.83962E-05 9.42631E-07-6.60732E-19-8.94891E-19
 -1      2704 9.49794E-05-2.86891E-05-2.84091E-05 8.81331E-07-3.54707E-19-1.00869E-18
 -1      2705 9.51845E-05-2.87875E-05-2.84573E-05 9.94222E-07-6.78490E-19-1.03891E-18
 -1      2706 9.49804E-05-2.86816E-05-2.84148E-05 8.20329E-07-3.82582E-19-1.19101E-18
 -1      2707 9.50233E-05-2.86838E-05-2.84301E-05 7.60982E-07-2.59943E-19-1.44642E-18
 -1      2708 9.51851E-05-2.87840E-05-2.84586E-05 8.78753E-07-4.99256E-19-1.06390E-18
 -1      2709 9.50266E-05-2.86701E-05-2.84397E-05 7.04867E-07-1.86397E-19-1.58210E-18
 -1      2710 9.50667E-05-2.86657E-05-2.84564E-05 6.53756E-07-3.01722E-19-1.37743E-18
 -1      2711 9.51904E-05-2.87606E-05-2.84706E-05 7.63349E-07-2.50345E-19-7.26825E-19
 -1      2712 9.50716E-05-2.86477E-05-2.84687E-05 6.08235E-07-5.65886E-19-1.24734E-18
 -1      2713 9.51091E-05-2.86382E-05-2.84862E-05 5.69911E-07-6.07510E-19-1.23759E-18
 -1      2714 9.51989E-05-2.87232E-05-2.84901E-05 6.62628E-07-5.31162E-19-1.00883E-18
 -1      2715 9.51151E-05-2.86167E-05-2.85007E-05 5.39278E-07-7.14999E-19-1.46096E-18
 -1      2716 9.51513E-05-2.86030E-05-2.85192E-05 5.17337E-07-7.63337E-19-1.71394E-18
 -1      2717 9.52096E-05-2.86752E-05-2.85151E-05 5.87245E-07-9.13459E-19-1.58112E-18
 -1      2718 9.51584E-05-2.85781E-05-2.85358E-05 5.05183E-07-8.34264E-19-1.57751E-18
 -1      2719 9.51950E-05-2.85608E-05-2.85557E-05 5.02854E-07-8.59904E-19-1.45388E-18
 -1      2720 9.52221E-05-2.86182E-05-2.85449E-05 5.45584E-07-8.76499E-19-1.67150E-18
 -1      2721 9.52031E-05-2.85322E-05-2.85746E-05 5.12600E-07-5.47718E-19-1.36873E-18
 -1      2722 9.52425E-05-2.85115E-05-2.85968E-05 5.33177E-07-3.76693E-19-1.47931E-18
 -1      2723 9.52363E-05-2.85521E-05-2.85794E-05 5.45046E-07-7.51238E-19-8.78752E-19
 -1      2724 9.52520E-05-2.84786E-05-2.86186E-05 5.68454E-07-6.62639E-19-1.48445E-18
 -1      2725 9.52969E-05-2.84546E-05-2.86441E-05 6.15585E-07-3.94206E-19-1.34124E-18
 -1      2726 9.52528E-05-2.84759E-05-2.86192E-05 5.92996E-07-4.16703E-19-8.83894E-19
 -1      2727 9.53083E-05-2.84166E-05-2.86694E-05 6.80480E-07-3.55778E-19-1.21914E-18
 -1      2728 9.53623E-05-2.83893E-05-2.86995E-05 7.58317E-07-7.69073E-20-1.27963E-18
 -1      2729 9.52722E-05-2.83879E-05-2.86653E-05 6.97408E-07-5.19854E-19-1.33864E-18
 -1      2730 9.53760E-05-2.83455E-05-2.87291E-05 8.57469E-07 2.59424E-19-1.53351E-18
 -1      2731 9.54431E-05-2.83154E-05-2.87651E-05 9.70665E-07 5.89212E-19-1.97311E-18
 -1      2732 9.52956E-05-2.82864E-05-2.87190E-05 8.67219E-07-3.75489E-19-1.19936E-18
 -1      2733 9.54601E-05-2.82653E-05-2.87997E-05 1.10919E-06 6.46941E-19-2.19546E-18
 -1      2734 9.55449E-05-2.82335E-05-2.88430E-05 1.26269E-06 8.89585E-19-1.99332E-18
 -1      2735 9.53246E-05-2.81700E-05-2.87814E-05 1.11235E-06 4.24237E-19-1.59208E-18
 -1      2736 9.55665E-05-2.81775E-05-2.88832E-05 1.44592E-06 8.22265E-19-2.18673E-18
 -1      2737 9.56744E-05-2.81461E-05-2.89350E-05 1.64447E-06 3.44057E-19-1.96452E-18
 -1      2738 9.53613E-05-2.80386E-05-2.88536E-05 1.44334E-06 7.51142E-19-2.83629E-18
 -1      2739 9.57026E-05-2.80859E-05-2.89810E-05 1.87736E-06-1.14921E-19-2.23458E-18
 -1      2740 9.58399E-05-2.80590E-05-2.90424E-05 2.12465E-06-3.18215E-19-2.25599E-18
 -1      2741 9.54092E-05-2.78946E-05-2.89358E-05 1.87052E-06 1.42255E-19-2.49155E-18
 -1      2742 9.58781E-05-2.79990E-05-2.90938E-05 2.41087E-06-6.67419E-19-2.42123E-18
 -1      2743 9.60524E-05-2.79835E-05-2.91649E-05 2.70817E-06-1.23114E-18-2.41553E-18
 -1      2744 9.54737E-05-2.77453E-05-2.90276E-05 2.40248E-06-7.25732E-19-2.85302E-18
 -1      2745 9.61066E-05-2.79319E-05-2.92205E-05 3.04863E-06-9.13183E-19-1.43039E-18
 -1      2746 9.63271E-05-2.79394E-05-2.93009E-05 3.39265E-06-2.32847E-19-9.57567E-19
 -1      2747 9.55644E-05-2.76050E-05-2.91268E-05 3.04380E-06-6.03608E-19-1.65356E-18
 -1      2748 9.64076E-05-2.79109E-05-2.93583E-05 3.78343E-06-7.37161E-19-9.65885E-19
 -1      2749 9.66867E-05-2.79599E-05-2.94460E-05 4.16327E-06-8.99012E-19-1.32758E-18
 -1      2750 9.56973E-05-2.75002E-05-2.92291E-05 3.79156E-06-4.59171E-19-2.18560E-19
 -1      2751 9.68114E-05-2.79787E-05-2.95013E-05 4.59257E-06-3.19195E-19-1.13180E-18
 -1      2752 9.71658E-05-2.80978E-05-2.95925E-05 4.98545E-06 2.40120E-19-1.10393E-18
 -1      2753 9.59001E-05-2.74750E-05-2.93275E-05 4.63060E-06-3.59928E-19-1.10586E-19
 -1      2754 9.73648E-05-2.82021E-05-2.96406E-05 5.42939E-06 4.74974E-19-9.71192E-19
 -1      2755 9.78184E-05-2.84331E-05-2.97299E-05 5.79500E-06 2.06018E-19-7.99464E-19
 -1      2756 9.62198E-05-2.76000E-05-2.94126E-05 5.52683E-06 2.65773E-19-7.50545E-20
 -1      2757 9.81410E-05-2.86794E-05-2.97646E-05 6.21168E-06 2.90252E-19-7.38618E-19
 -1      2758 9.87277E-05-2.90803E-05-2.98450E-05 6.48522E-06 6.20412E-19-1.54984E-19
 -1      2759 9.67341E-05-2.79816E-05-2.94727E-05 6.41811E-06 2.56437E-19-3.46874E-19
 -1      2760 9.92499E-05-2.95461E-05-2.98616E-05 6.80631E-06 3.84837E-19-5.17925E-19
 -1      2761 1.00015E-04-3.01886E-05-2.99265E-05 6.89085E-06 8.38460E-19-6.64298E-19
 -1      2762 9.75655E-05-2.87703E-05-2.94966E-05 7.20138E-06 5.61765E-19-7.00553E-19
 -1      2763 1.00844E-04-3.09674E-05-2.99252E-05 7.00939E-06 6.31972E-19-4.82522E-19
 -1      2764 1.01836E-04-3.19222E-05-2.99726E-05 6.76992E-06 2.31542E-19-6.32086E-19
 -1      2765 9.88957E-05-3.01597E-05-2.94804E-05 7.71362E-06 6.77152E-19-8.90153E-19
 -1      2766 1.03107E-04-3.30998E-05-2.99665E-05 6.52349E-06-4.54947E-20 2.17266E-19
 -1      2767 1.04354E-04-3.43925E-05-3.00062E-05 5.78821E-06 7.14376E-19 3.72975E-19
 -1      2768 1.00966E-04-3.23575E-05-2.94390E-05 7.70319E-06 2.62768E-19 1.05463E-18
 -1      2769 1.06180E-04-3.59816E-05-3.00320E-05 4.94854E-06 1.25983E-18 1.09030E-19
 -1      2770 1.07633E-04-3.75092E-05-3.00952E-05 3.53742E-06 1.95868E-18 2.59554E-19
 -1      2771 1.04034E-04-3.54892E-05-2.94271E-05 6.79366E-06 6.33830E-19 1.49368E-18
 -1      2772 1.10016E-04-3.93383E-05-3.02284E-05 1.81416E-06 2.19157E-18-1.15613E-19
 -1      2773 1.11447E-04-4.07164E-05-3.03766E-05-3.94277E-07 1.19656E-18 4.08704E-19
 -1      2774 1.08245E-04-3.94027E-05-2.95656E-05 4.46849E-06 1.51279E-18 1.28625E-18
 -1      2775 1.14048E-04-4.22107E-05-3.07376E-05-3.21234E-06 3.53729E-19 4.15364E-19
 -1      2776 1.14959E-04-4.26611E-05-3.10572E-05-6.06551E-06-8.67564E-20 1.49271E-19
 -1      2777 1.13306E-04-4.32708E-05-3.00719E-05 1.39281E-07 6.04480E-19 5.34995E-19
 -1      2778 1.16961E-04-4.28075E-05-3.17887E-05-9.77832E-06-5.14807E-19 1.32668E-19
 -1      2779 1.16717E-04-4.12847E-05-3.23540E-05-1.26060E-05-3.38574E-19-4.98455E-19
 -1      2780 1.18101E-04-4.52439E-05-3.12446E-05-6.37307E-06-6.08192E-19 7.67564E-19
 -1      2781 1.16782E-04-3.88774E-05-3.35160E-05-1.58250E-05 7.74241E-21-1.56790E-18
 -1      2782 1.15165E-04-3.50825E-05-3.42848E-05-1.71136E-05-1.28054E-19-9.97931E-19
 -1      2783 1.20327E-04-4.24059E-05-3.33547E-05-1.39336E-05-3.88530E-19-1.06161E-18
 -1      2784 1.13046E-04-3.03965E-05-3.56653E-05-1.78274E-05-4.35044E-19-1.18090E-18
 -1      2785 1.10498E-04-2.55668E-05-3.64050E-05-1.62089E-05-3.52604E-19-1.12478E-18
 -1      2786 1.18613E-04-3.44867E-05-3.60690E-05-1.85525E-05-8.70181E-19-3.05019E-18
 -1      2787 1.08163E-04-2.13936E-05-3.73985E-05-1.23956E-05-1.02457E-18-1.36025E-18
 -1      2788 1.06498E-04-1.88840E-05-3.76899E-05-8.24686E-06-1.93190E-18-6.12352E-19
 -1      2789 1.13598E-04-2.29392E-05-3.89433E-05-1.54499E-05-8.18790E-19-2.82693E-18
 -1      2790 1.06532E-04-1.86591E-05-3.76995E-05-1.74184E-06-2.15559E-18-2.93351E-19
 -1      2791 1.07254E-04-2.06138E-05-3.73245E-05 2.56388E-06-1.71610E-18-1.00476E-18
 -1      2792 1.10347E-04-1.66537E-05-4.02846E-05-5.01667E-06-1.77088E-18-2.45143E-18
 -1      2793 1.09257E-04-2.44072E-05-3.63744E-05 6.71661E-06-1.62485E-18-1.30082E-18
 -1      2794 1.11192E-04-2.88291E-05-3.55492E-05 8.66370E-06-2.54454E-19-1.65965E-18
 -1      2795 1.12825E-04-2.20300E-05-3.90663E-05 5.35179E-06-1.95813E-18-2.79905E-18
 -1      2796 1.13162E-04-3.34267E-05-3.41589E-05 8.51602E-06 1.60548E-18-2.47450E-18
 -1      2797 1.14346E-04-3.69988E-05-3.32925E-05 7.56224E-06 2.06431E-18-1.72907E-18
 -1      2798 1.17359E-04-3.24559E-05-3.64458E-05 9.34196E-06-9.35177E-20-1.95819E-18
 -1      2799 1.14007E-04-3.91292E-05-3.21360E-05 4.62421E-06 1.39151E-18-1.94229E-18
 -1      2800 1.13615E-04-4.01675E-05-3.15042E-05 2.28473E-06 6.03094E-19-1.78424E-18
 -1      2801 1.19024E-04-4.06576E-05-3.35789E-05 5.32184E-06 1.36636E-18-3.86221E-18
 -1      2802 1.11228E-04-3.94924E-05-3.08014E-05-9.13033E-07 2.25896E-19-1.79539E-18
 -1      2803 1.09509E-04-3.83428E-05-3.04650E-05-3.03787E-06-6.99613E-20-1.30927E-18
 -1      2804 1.16025E-04-4.23849E-05-3.15462E-05-1.33898E-06 7.35681E-19-3.77033E-18
 -1      2805 9.44767E-05-2.81305E-05-2.84339E-05-8.88421E-07 1.14131E-18-1.22220E-18
 -1      2806 9.44936E-05-2.80032E-05-2.84847E-05-7.13599E-07 1.27963E-18-1.08197E-18
 -1      2807 4.04496E-05-1.40476E-05-1.06303E-05 7.18849E-06-8.72417E-19 2.80537E-18
 -1      2808 3.95631E-05-1.48434E-05-1.01202E-05-1.14771E-05-4.57874E-19 1.82832E-18
 -1      2809 5.00628E-05-1.52840E-05-1.44967E-05-1.54519E-05-1.08886E-18-1.91429E-19
 -1      2810 9.45542E-05-2.78521E-05-2.85876E-05-4.38564E-07 1.25291E-18-1.07533E-18
 -1      2811 9.46428E-05-2.76650E-05-2.86864E-05-9.53662E-08 1.39388E-18-1.05612E-18
 -1      2812 9.50078E-05-2.79123E-05-2.87635E-05-4.47972E-07 1.41755E-18-1.33048E-18
 -1      2813 9.45159E-05-2.84350E-05-2.83195E-05-1.13792E-06 5.44463E-19-1.05172E-18
 -1      2814 9.44595E-05-2.83713E-05-2.83204E-05-1.13537E-06 6.75588E-19-8.78676E-19
 -1      2815 9.45874E-05-2.85140E-05-2.83163E-05-1.09022E-06 6.08341E-19-1.10310E-18
 -1      2816 9.45186E-05-2.84693E-05-2.83058E-05-1.12579E-06 4.50942E-19-1.11476E-18
 -1      2817 9.48942E-05-2.85751E-05-2.84255E-05-1.15599E-06 6.23624E-19-1.38259E-18
 -1      2818 9.46717E-05-2.85630E-05-2.83314E-05-9.91229E-07 1.04977E-18-1.01071E-18
 -1      2819 9.45997E-05-2.85325E-05-2.83148E-05-1.04626E-06 9.47501E-19-8.97456E-19
 -1      2820 9.49152E-05-2.86475E-05-2.84024E-05-1.10907E-06 6.50589E-19-1.20480E-18
 -1      2821 9.47588E-05-2.85903E-05-2.83570E-05-8.70333E-07 8.69166E-19-9.10516E-19
 -1      2822 9.46893E-05-2.85707E-05-2.83375E-05-9.32187E-07 1.15041E-18-7.24441E-19
 -1      2823 9.49488E-05-2.86833E-05-2.84007E-05-1.01033E-06 9.59122E-19-9.37269E-19
 -1      2824 9.48432E-05-2.86019E-05-2.83882E-05-7.47606E-07 7.51012E-19-9.08396E-19
 -1      2825 9.47788E-05-2.85905E-05-2.83678E-05-8.07723E-07 6.94293E-19-8.66502E-19
 -1      2826 9.49886E-05-2.86940E-05-2.84127E-05-8.89944E-07 8.31216E-19-8.16616E-19
 -1      2827 9.49224E-05-2.86017E-05-2.84222E-05-6.36840E-07 3.51434E-19-7.67179E-19
 -1      2828 9.48639E-05-2.85968E-05-2.84017E-05-6.89343E-07 7.75564E-19-9.06721E-19
 -1      2829 9.50303E-05-2.86871E-05-2.84333E-05-7.68733E-07 6.20533E-19-6.12753E-19
 -1      2830 9.49962E-05-2.85925E-05-2.84576E-05-5.47777E-07-4.14704E-21-4.22526E-19
 -1      2831 9.49431E-05-2.85927E-05-2.84374E-05-5.88474E-07 5.71270E-20-5.06967E-19
 -1      2832 9.50719E-05-2.86677E-05-2.84593E-05-6.61196E-07 1.93372E-19-4.58883E-19
 -1      2833 9.50665E-05-2.85764E-05-2.84945E-05-4.87806E-07 1.48895E-19-4.62329E-19
 -1      2834 9.50169E-05-2.85805E-05-2.84742E-05-5.13423E-07 6.99452E-20-2.85636E-19
 -1      2835 9.51128E-05-2.86388E-05-2.84891E-05-5.77756E-07 7.46498E-20-1.16108E-19
 -1      2836 9.51362E-05-2.85542E-05-2.85335E-05-4.63275E-07-9.85874E-21-3.46985E-20
 -1      2837 9.50875E-05-2.85616E-05-2.85125E-05-4.70874E-07 4.20197E-20-3.44443E-19
 -1      2838 9.51534E-05-2.86021E-05-2.85223E-05-5.26517E-07 6.04753E-20-9.35871E-20
 -1      2839 9.52096E-05-2.85266E-05-2.85764E-05-4.80485E-07 1.38814E-19 2.47181E-19
 -1      2840 9.51585E-05-2.85366E-05-2.85535E-05-4.67016E-07 3.55297E-19 1.69950E-19
 -1      2841 9.51952E-05-2.85579E-05-2.85593E-05-5.14607E-07 8.96703E-20 2.87121E-19
 -1      2842 9.52919E-05-2.84937E-05-2.86252E-05-5.46446E-07-3.02886E-19-2.43029E-19
 -1      2843 9.52343E-05-2.85060E-05-2.85990E-05-5.08414E-07 1.32878E-19 2.58191E-20
 -1      2844 9.52403E-05-2.85058E-05-2.86011E-05-5.49190E-07 1.14417E-19 3.03115E-19
 -1      2845 9.53893E-05-2.84554E-05-2.86827E-05-6.69420E-07-6.35251E-19-4.23209E-19
 -1      2846 9.53206E-05-2.84694E-05-2.86516E-05-6.02647E-07-6.56410E-19-5.94559E-19
 -1      2847 9.52915E-05-2.84447E-05-2.86495E-05-6.38216E-07-1.85530E-19 2.73637E-20
 -1      2848 9.55092E-05-2.84116E-05-2.87519E-05-8.59238E-07-2.27353E-19-7.44903E-20
 -1      2849 9.54237E-05-2.84269E-05-2.87141E-05-7.58738E-07-4.48294E-19-2.80195E-19
 -1      2850 9.53520E-05-2.83730E-05-2.87063E-05-7.90945E-07-6.59129E-19-2.32525E-19
 -1      2851 9.56597E-05-2.83627E-05-2.88363E-05-1.12736E-06 9.30000E-19-1.97499E-19
 -1      2852 9.55511E-05-2.83783E-05-2.87896E-05-9.87352E-07 5.15719E-19 3.57129E-20
 -1      2853 9.54254E-05-2.82891E-05-2.87740E-05-1.01820E-06 3.66313E-19-3.55685E-20
 -1      2854 9.58502E-05-2.83096E-05-2.89395E-05-1.48660E-06 8.92931E-20-1.20854E-19
 -1      2855 9.57114E-05-2.83242E-05-2.88817E-05-1.30070E-06 8.56667E-19 1.03632E-19
 -1      2856 9.55160E-05-2.81916E-05-2.88548E-05-1.33235E-06 6.43766E-19 9.48025E-20
 -1      2857 9.60913E-05-2.82551E-05-2.90648E-05-1.95031E-06 6.04566E-21-4.40853E-19
 -1      2858 9.59141E-05-2.82662E-05-2.89937E-05-1.71203E-06 1.53752E-20-3.89612E-21
 -1      2859 9.56282E-05-2.80804E-05-2.89508E-05-1.74684E-06 1.72097E-20 1.17675E-18
 -1      2860 9.63948E-05-2.82048E-05-2.92150E-05-2.53084E-06-2.20751E-19-1.03248E-18
 -1      2861 9.61701E-05-2.82081E-05-2.91286E-05-2.23453E-06 4.28984E-20-9.05568E-19
 -1      2862 9.57676E-05-2.79571E-05-2.90635E-05-2.27528E-06 3.04089E-19 6.35466E-19
 -1      2863 9.67742E-05-2.81691E-05-2.93915E-05-3.23676E-06-1.16110E-18-1.01865E-18
 -1      2864 9.64921E-05-2.81577E-05-2.92886E-05-2.87925E-06-5.73299E-19-1.08752E-18
 -1      2865 9.59405E-05-2.78278E-05-2.91931E-05-2.92965E-06-5.31197E-19-2.24903E-20
 -1      2866 9.72467E-05-2.81676E-05-2.95935E-05-4.06841E-06 4.47192E-19-1.69091E-18
 -1      2867 9.68957E-05-2.81295E-05-2.94739E-05-3.65174E-06-2.92411E-19-1.53477E-18
 -1      2868 9.61565E-05-2.77057E-05-2.93381E-05-3.71741E-06-1.39620E-19-6.23166E-19
 -1      2869 9.78352E-05-2.82346E-05-2.98165E-05-5.01070E-06 8.33269E-20-1.32670E-18
 -1      2870 9.74018E-05-2.81500E-05-2.96820E-05-4.54643E-06 1.18337E-19-1.70745E-18
 -1      2871 9.64306E-05-2.76172E-05-2.94937E-05-4.63703E-06 1.61198E-19-1.59082E-18
 -1      2872 9.85754E-05-2.84287E-05-3.00511E-05-6.02235E-06-5.56767E-19-9.34230E-19
 -1      2873 9.80419E-05-2.82653E-05-2.99061E-05-5.53808E-06-6.04669E-20-1.34331E-18
 -1      2874 9.67900E-05-2.76100E-05-2.96513E-05-5.67122E-06-1.61386E-19-1.18814E-18
 -1      2875 9.95252E-05-2.88453E-05-3.02817E-05-7.02003E-06 1.03920E-19-4.34710E-19
 -1      2876 9.88666E-05-2.85524E-05-3.01344E-05-6.56875E-06-4.53984E-19-3.38468E-19
 -1      2877 9.72842E-05-2.77666E-05-2.97976E-05-6.77700E-06-6.87241E-19-9.88265E-19
 -1      2878 1.00780E-04-2.96312E-05-3.04877E-05-7.85653E-06 9.18352E-19-2.60209E-19
 -1      2879 9.99602E-05-2.91339E-05-3.03493E-05-7.52880E-06 6.70041E-19-1.01280E-19
 -1      2880 9.80033E-05-2.82211E-05-2.99147E-05-7.87120E-06 3.16271E-19-1.17767E-18
 -1      2881 1.02490E-04-3.09893E-05-3.06473E-05-8.29281E-06-4.99907E-20 4.00064E-20
 -1      2882 1.01459E-04-3.01901E-05-3.05306E-05-8.23049E-06 8.14202E-19 5.91201E-19
 -1      2883 9.91026E-05-2.91766E-05-2.99839E-05-8.80926E-06 3.23432E-19-4.58699E-19
 -1      2884 1.04860E-04-3.31524E-05-3.07509E-05-7.96755E-06-6.06898E-19 2.21464E-19
 -1      2885 1.03564E-04-3.19533E-05-3.06633E-05-8.37354E-06-5.32559E-19 4.01194E-19
 -1      2886 1.00830E-04-3.09095E-05-2.99950E-05-9.35353E-06-2.57971E-19-9.87695E-21
 -1      2887 1.08100E-04-3.62694E-05-3.08262E-05-6.37760E-06 2.69350E-19 1.11645E-18
 -1      2888 1.06523E-04-3.46464E-05-3.07578E-05-7.50762E-06-2.30221E-19 4.72034E-19
 -1      2889 1.03532E-04-3.37249E-05-2.99667E-05-9.12593E-06-7.32960E-19-2.09019E-19
 -1      2890 1.12241E-04-4.01297E-05-3.09759E-05-2.92148E-06 4.93139E-19 1.03563E-18
 -1      2891 1.10511E-04-3.82945E-05-3.08829E-05-5.02401E-06 9.08406E-19 1.44054E-18
 -1      2892 1.07577E-04-3.77853E-05-2.99843E-05-7.55106E-06 3.24619E-19 1.18841E-20
 -1      2893 1.16787E-04-4.36732E-05-3.14251E-05 2.87251E-06-1.85995E-18 8.57274E-19
 -1      2894 1.15325E-04-4.23213E-05-3.12076E-05-2.49639E-07-2.32142E-19 1.06056E-18
 -1      2895 1.13120E-04-4.27405E-05-3.02494E-05-3.84052E-06-2.11278E-20 3.32282E-19
 -1      2896 1.20185E-04-4.44738E-05-3.25104E-05 1.04679E-05-2.17910E-18 6.28227E-19
 -1      2897 1.19738E-04-4.48772E-05-3.20444E-05 6.98073E-06-2.28685E-18 8.16831E-19
 -1      2898 1.19299E-04-4.68432E-05-3.11539E-05 2.91161E-06-1.92970E-18 4.47094E-19
 -1      2899 1.20378E-04-3.99391E-05-3.45176E-05 1.78104E-05-1.49083E-18 3.80007E-19
 -1      2900 1.21872E-04-4.34306E-05-3.36994E-05 1.51917E-05-2.20519E-18 2.60975E-19
 -1      2901 1.24365E-04-4.68982E-05-3.32669E-05 1.21236E-05-2.10313E-18-6.54505E-19
 -1      2902 1.16086E-04-2.95559E-05-3.71108E-05 1.94586E-05-5.31301E-19-5.38905E-19
 -1      2903 1.19018E-04-3.52068E-05-3.62069E-05 2.01590E-05-1.15427E-18 2.67623E-19
 -1      2904 1.24702E-04-3.98061E-05-3.64599E-05 1.97973E-05-9.64215E-19-6.02876E-19
 -1      2905 1.09875E-04-1.93333E-05-3.91127E-05-1.15470E-06 2.89654E-18-1.51880E-18
 -1      2906 1.09640E-04-1.81401E-05-3.94224E-05 4.64648E-06 2.11494E-18-1.25892E-18
 -1      2907 1.14153E-04-2.85269E-05-3.70249E-05-9.89974E-06 3.99238E-18-2.01000E-18
 -1      2908 1.11984E-04-2.33733E-05-3.80151E-05-6.94346E-06 3.42106E-18-1.56344E-18
 -1      2909 1.16374E-04-2.00915E-05-4.15613E-05-4.88200E-06 3.28818E-18-2.33686E-18
 -1      2910 1.17855E-04-3.85111E-05-3.42031E-05-9.14736E-06 3.15820E-18-2.41725E-18
 -1      2911 1.16359E-04-3.40435E-05-3.52705E-05-1.00784E-05 3.28000E-18-2.46464E-18
 -1      2912 1.21424E-04-3.28810E-05-3.80988E-05-1.05897E-05 3.77906E-18-2.01790E-18
 -1      2913 1.17026E-04-4.25421E-05-3.19476E-05-2.52102E-06 1.26456E-18-6.89657E-19
 -1      2914 1.17426E-04-4.12249E-05-3.27011E-05-5.51820E-06 2.51940E-18-1.85283E-18
 -1      2915 1.23150E-04-4.29001E-05-3.44371E-05-6.66430E-06 2.12293E-18-7.06452E-19
 -1      2916 1.12169E-04-4.03881E-05-3.07226E-05 4.33619E-06 7.17422E-19-2.01369E-19
 -1      2917 1.14065E-04-4.17233E-05-3.10979E-05 1.56875E-06 9.49577E-19-1.22244E-19
 -1      2918 1.19456E-04-4.52087E-05-3.18594E-05 1.83381E-06 6.60097E-19-1.05624E-18
 -1      2919 1.06928E-04-3.61018E-05-3.03124E-05 8.74289E-06-1.99142E-19 1.36030E-18
 -1      2920 1.09491E-04-3.86466E-05-3.04539E-05 7.23581E-06 1.34973E-19 7.26093E-19
 -1      2921 1.13731E-04-4.20820E-05-3.06984E-05 8.77008E-06-2.62263E-19-4.84040E-19
 -1      2922 1.07688E-04-3.65967E-05-3.04198E-05 1.30975E-05-8.61226E-19 1.54104E-19
 -1      2923 6.49280E-05-9.39399E-06-2.37600E-05-2.79638E-06-1.01832E-18 1.34668E-18
 -1      2924 6.60674E-05-1.00841E-05-2.38250E-05 6.13226E-06-8.24663E-19 2.37095E-18
 -1      2925 1.07160E-04-3.66983E-05-3.02431E-05-4.40969E-06-3.34528E-19-1.39640E-19
 -1      2926 1.05710E-04-3.53290E-05-3.01190E-05-5.17208E-06-6.26661E-19-7.82877E-20
 -1      2927 1.11002E-04-3.95622E-05-3.06121E-05-5.98050E-06 4.86885E-19-2.39332E-18
 -1      2928 8.54200E-05-2.39193E-05-2.64800E-05 2.81621E-05-3.10021E-19 3.32535E-18
 -1      2929 9.30908E-05-2.85928E-05-2.73228E-05 2.95433E-05 2.94026E-19 1.47220E-18
 -1      2930 7.10260E-05-1.84150E-05-2.22802E-05-2.52973E-05-1.67190E-18-2.86885E-18
 -1      2931 6.41323E-05-1.38915E-05-2.13563E-05-1.72286E-05-1.16928E-18-6.86679E-19
 -1      2932 7.02857E-05-1.34358E-05-2.44307E-05 1.71106E-05-9.81241E-19 3.14530E-18
 -1      2933 7.68660E-05-1.74810E-05-2.51095E-05 2.37013E-05-1.12536E-18 4.13580E-18
 -1      2934 8.00013E-05-2.46487E-05-2.35020E-05 2.96485E-05-6.64153E-19 2.41807E-18
 -1      2935 6.36989E-05-1.36227E-05-2.11133E-05 1.35583E-05-1.51876E-18 3.08696E-18
 -1      2936 9.47246E-05-2.74146E-05-2.88499E-05 3.88002E-07 1.55452E-18-1.10607E-18
 -1      2937 9.49048E-05-2.71212E-05-2.90225E-05 9.93043E-07 1.87064E-18-9.15967E-19
 -1      2938 9.51300E-05-2.73827E-05-2.90442E-05 3.75222E-07 1.53055E-18-1.26253E-18
 -1      2939 1.03432E-04-3.55508E-05-2.89697E-05-2.67512E-05 4.72748E-19-1.03889E-18
 -1      2940 9.78906E-05-3.21047E-05-2.83126E-05-2.85930E-05-4.65325E-19-1.22253E-18
 -1      2941 1.08810E-04-3.83632E-05-3.01065E-05-1.82700E-05 2.02813E-18-1.29709E-19
 -1      2942 1.06873E-04-3.70382E-05-2.98751E-05-2.19092E-05 2.80716E-18 9.18601E-20
 -1      2943 1.08571E-04-4.14282E-05-2.87469E-05-2.57952E-05 9.54547E-19 1.46943E-18
 -1      2944 1.28050E-04-1.03793E-05-5.11302E-05-8.95804E-06-1.78300E-19-3.63040E-18
 -1      2945 1.31877E-04-1.64450E-05-4.99997E-05-1.56777E-05-3.57871E-19-3.59343E-18
 -1      2946 1.12968E-04-5.84720E-05-2.30352E-05-4.09512E-05-6.61215E-19 1.71829E-19
 -1      2947 1.28406E-04-6.37987E-05-2.77184E-05-3.39043E-05-1.27648E-18 1.09799E-18
 -1      2948 1.06583E-04-3.59836E-05-3.02837E-05-8.02819E-06-5.25354E-19-1.43707E-18
 -1      2949 9.45263E-05-2.14992E-05-3.13292E-05-7.68769E-06-2.81248E-18-2.71314E-18
 -1      2950 9.49568E-05-2.32280E-05-3.07380E-05-6.00817E-06-2.53940E-18-2.54755E-18
 -1      2951 9.37476E-05-2.01342E-05-3.15502E-05-7.54563E-06-2.60917E-18-3.22053E-18
 -1      2952 1.24668E-04-6.31954E-05-2.67073E-05 3.52461E-05 9.25383E-20-3.72562E-19
 -1      2953 1.11099E-04-5.76753E-05-2.22630E-05 4.15849E-05-3.91435E-19-8.78168E-19
 -1      2954 1.33281E-04-1.62108E-05-5.09111E-05-4.96614E-06 1.51831E-18-2.37344E-18
 -1      2955 1.35151E-04-2.40071E-05-4.82114E-05-8.59317E-06 2.24019E-18-1.99402E-18
 -1      2956 4.57657E-05-2.60058E-05-7.90087E-06-2.78777E-05-1.56923E-18-3.66215E-18
 -1      2957 6.11569E-05-3.56434E-05-1.05702E-05-3.65579E-05-5.34690E-19-2.43342E-18
 -1      2958 9.44721E-05-2.83137E-05-2.83529E-05-1.09143E-06 7.06279E-19-1.04400E-18
 -1      2959 9.44422E-05-2.82240E-05-2.83729E-05-1.02321E-06 9.37359E-19-1.15740E-18
 -1      2960 9.49298E-05-2.82427E-05-2.85865E-05-9.00984E-07 1.03651E-18-1.43331E-18
 -1      2961 9.48953E-05-2.84490E-05-2.84815E-05-1.10745E-06 6.66307E-19-1.14959E-18
 -1      2962 9.52764E-05-2.43044E-05-3.04066E-05-4.93625E-06-2.32477E-18-2.45234E-18
 -1      2963 9.51991E-05-2.52572E-05-2.99882E-05-3.47334E-06-2.12488E-18-2.43367E-18
 -1      2964 9.52715E-05-2.50181E-05-3.01229E-05-3.23822E-06-1.94732E-18-2.66774E-18
 -1      2965 9.48505E-05-2.31955E-05-3.06978E-05-5.13252E-06-2.22523E-18-2.73142E-18
 -1      2966 9.11753E-05-1.60892E-05-3.22076E-05 4.91814E-06 2.30907E-18-3.74298E-18
 -1      2967 9.08323E-05-1.55903E-05-3.22682E-05 3.99582E-06 1.86027E-18-3.99704E-18
 -1      2968 9.18104E-05-1.72017E-05-3.19598E-05 3.19915E-06 1.62234E-18-3.79262E-18
 -1      2969 9.24792E-05-1.82617E-05-3.17877E-05 4.61653E-06 2.19278E-18-3.32104E-18
 -1      2970 7.26642E-05-3.66119E-05-1.48767E-05-4.32819E-05 8.34857E-19 2.72639E-19
 -1      2971 9.24953E-05-4.85540E-05-1.87873E-05-4.65839E-05-2.48816E-20-3.61471E-19
 -1      2972 9.49816E-05-2.66915E-05-2.92726E-05 1.78192E-06 2.16353E-18-9.91011E-19
 -1      2973 9.52487E-05-2.61947E-05-2.95577E-05 2.78892E-06 2.32158E-18-8.60722E-19
 -1      2974 9.52718E-05-2.50231E-05-3.01044E-05 3.82082E-06 2.61215E-18-1.37803E-18
 -1      2975 9.52550E-05-2.65063E-05-2.94715E-05 1.73628E-06 2.10373E-18-1.25182E-18
 -1      2976 9.07975E-05-1.55436E-05-3.22734E-05-3.93261E-06-9.56619E-19-4.48157E-18
 -1      2977 9.11309E-05-1.60280E-05-3.22144E-05-4.85853E-06-1.34814E-18-4.42681E-18
 -1      2978 1.39678E-04-6.16534E-05-3.34357E-05-5.06889E-06 6.34613E-20-3.23132E-18
 -1      2979 1.45216E-04-5.57470E-05-3.88672E-05 5.03681E-06 6.34931E-19-4.19144E-18
 -1      2980 1.45669E-04-4.52200E-05-4.30895E-05 1.40684E-05 1.09797E-18-3.83113E-18
 -1      2981 1.43308E-04-3.51115E-05-4.71832E-05 1.74700E-05 2.19593E-18-2.75561E-18
 -1      2982 3.92723E-05-1.89057E-05-8.34646E-06 1.97750E-05 8.26492E-19-3.23122E-18
 -1      2983 3.21699E-05-1.58094E-05-6.27748E-06 5.04045E-06-4.20621E-19-4.06872E-18
 -1      2984 7.47044E-05-4.36034E-05-1.28559E-05-3.82073E-05-5.91335E-19-1.05699E-18
 -1      2985 9.08818E-05-5.14031E-05-1.67789E-05-3.74512E-05-7.79588E-19-1.46092E-18
 -1      2986 7.17837E-05-3.76299E-05-1.40944E-05-3.42606E-05-9.69217E-19-1.51926E-18
 -1      2987 6.32118E-05-3.43674E-05-1.20494E-05 3.69337E-05 2.49303E-18-1.70539E-18
 -1      2988 5.20749E-05-2.68268E-05-1.01426E-05 3.08090E-05 2.12711E-18-1.71079E-18
 -1      2989 3.03017E-05-1.61132E-05-5.65801E-06-6.87454E-06-8.09075E-19-3.93510E-18
 -1      2990 3.55106E-05-1.93599E-05-6.44328E-06-1.86164E-05-1.17663E-18-4.49520E-18
 -1      2991 4.89378E-05-2.27525E-05-1.05300E-05-2.27024E-05-9.49312E-19-4.16380E-18
 -1      2992 3.96287E-05-1.54392E-05-9.72764E-06-1.36471E-06-2.84385E-20-3.59703E-18
 -1      2993 1.47193E-04-5.48339E-05-3.95519E-05-4.41361E-06-8.34592E-19 8.99125E-19
 -1      2994 1.46312E-04-4.51080E-05-4.41219E-05 2.94832E-06 4.41516E-19 2.36523E-18
 -1      2995 9.05149E-05-4.83620E-05-1.81851E-05 4.67847E-05-1.18754E-18-7.94093E-20
 -1      2996 7.09726E-05-3.76837E-05-1.35007E-05 4.37095E-05-1.21602E-18 1.11914E-18
 -1      2997 1.42221E-04-3.38341E-05-4.67669E-05 8.43185E-06-2.14617E-19 8.05211E-19
 -1      2998 1.36299E-04-2.34186E-05-4.91301E-05 8.28724E-06-9.94734E-19-3.47495E-19
 -1      2999 1.36252E-04-2.65161E-05-4.78394E-05-1.74626E-05-8.44068E-19-2.44115E-18
 -1      3000 1.41458E-04-3.61444E-05-4.55125E-05-1.69033E-05-2.33718E-18-1.10506E-18
 -1      3001 1.43416E-04-6.14995E-05-3.55774E-05 1.22465E-05 6.44195E-19 2.67959E-18
 -1      3002 1.36997E-04-6.46770E-05-3.07196E-05 2.32912E-05-2.23776E-19 1.70487E-18
 -1      3003 1.36573E-04-6.45928E-05-3.06934E-05-2.52517E-05-1.43530E-18 1.31745E-18
 -1      3004 1.43033E-04-6.25374E-05-3.49790E-05-1.70097E-05-1.00246E-18 3.04720E-19
 -1      3005 1.31180E-04-6.27638E-05-2.91549E-05-2.73249E-05-2.16645E-18 2.38477E-18
 -1      3006 1.31616E-04-1.43224E-05-5.08068E-05 5.42141E-06-6.81014E-19-1.28876E-18
 -1      3007 1.27927E-04-9.56649E-06-5.14808E-05-1.42293E-06-4.52316E-19-1.88002E-18
 -1      3008 9.15584E-05-1.66814E-05-3.21135E-05-5.58620E-06-1.58340E-18-4.25044E-18
 -1      3009 9.20821E-05-1.74649E-05-3.20146E-05-6.41295E-06-2.01441E-18-4.11023E-18
 -1      3010 9.24372E-05-1.81963E-05-3.17970E-05-4.57537E-06-1.39665E-18-4.01221E-18
 -1      3011 9.12859E-05-1.63923E-05-3.20851E-05 2.84535E-08 4.64177E-19-4.13710E-18
 -1      3012 9.01629E-05-1.46023E-05-3.24025E-05-3.83159E-07 3.01020E-19-4.48090E-18
 -1      3013 9.02194E-05-1.46826E-05-3.23926E-05-1.34093E-06-1.93274E-20-4.52587E-18
 -1      3014 7.22694E-05-3.08753E-05-1.70926E-05-3.76543E-05-5.29819E-19-7.80329E-19
 -1      3015 9.43554E-05-2.14237E-05-3.12605E-05 7.21719E-06 3.22323E-18-1.69526E-18
 -1      3016 1.44200E-04-5.67335E-05-3.75707E-05 3.26602E-06 2.01954E-18 3.97153E-19
 -1      3017 1.39032E-04-5.86325E-05-3.45290E-05 7.65230E-06 1.67952E-18 2.58737E-18
 -1      3018 1.39872E-04-4.94084E-05-3.91843E-05-4.43752E-06 2.44088E-18 1.97994E-19
 -1      3019 9.87440E-05-3.62838E-05-2.67441E-05 3.12721E-05 8.37239E-20 2.41588E-18
 -1      3020 9.98094E-05-3.30795E-05-2.86686E-05 2.73982E-05 3.59721E-19 2.69703E-18
 -1      3021 1.04562E-04-3.59818E-05-2.92429E-05 2.49454E-05-7.57244E-19 3.04948E-18
 -1      3022 1.28285E-04-2.29076E-05-4.55617E-05-1.75792E-05-4.47339E-19-3.73965E-18
 -1      3023 1.10728E-04-1.97640E-05-3.90978E-05 1.18611E-05 9.41583E-19-1.40675E-18
 -1      3024 1.13112E-04-2.38216E-05-3.85806E-05 1.65624E-05 5.64865E-20-1.26704E-18
 -1      3025 1.19979E-04-2.67946E-05-4.01705E-05 1.96077E-05-2.82538E-19-2.55185E-18
 -1      3026 1.15268E-04-1.70042E-05-4.24460E-05 8.96223E-06 1.38199E-18-2.74395E-18
 -1      3027 1.39366E-04-4.01752E-05-4.27638E-05 7.25498E-06-8.44598E-19 2.08868E-18
 -1      3028 1.06570E-04-3.66038E-05-2.99478E-05 2.07693E-05-2.97193E-19 6.30520E-19
 -1      3029 1.07999E-04-3.75429E-05-3.01523E-05 1.71413E-05-4.17373E-19 3.49222E-19
 -1      3030 1.11094E-04-4.09373E-05-3.01499E-05 1.57824E-05-6.97076E-19 3.61346E-20
 -1      3031 1.09018E-04-4.10271E-05-2.90483E-05 2.40737E-05 3.13723E-19 1.01772E-18
 -1      3032 9.05203E-05-2.63029E-05-2.71675E-05-2.96189E-05-7.62091E-19-7.63084E-19
 -1      3033 8.33536E-05-2.15930E-05-2.65537E-05-2.69440E-05-1.36456E-18-1.66233E-18
 -1      3034 1.22848E-04-1.17981E-05-4.79970E-05-5.32514E-06-1.08007E-18-3.30599E-18
 -1      3035 1.07291E-04-3.64611E-05-3.03645E-05-1.17273E-05 8.33553E-19-9.59913E-19
 -1      3036 1.12009E-04-4.06522E-05-3.04891E-05-9.61237E-06 5.65070E-19-2.66144E-18
 -1      3037 1.09853E-04-3.89605E-05-3.04108E-05-1.41763E-05 1.15391E-18-1.77843E-18
 -1      3038 1.13911E-04-4.35364E-05-3.01860E-05-1.63875E-05 1.17457E-18-1.29627E-18
 -1      3039 1.14261E-04-4.26585E-05-3.07231E-05-8.34312E-06 7.59914E-19-2.97084E-18
 -1      3040 1.42367E-04-5.83553E-05-3.60859E-05-8.52645E-06-1.51783E-18 1.84865E-18
 -1      3041 9.46180E-05-2.24682E-05-3.09132E-05 5.69434E-06 2.88209E-18-1.92380E-18
 -1      3042 6.81346E-05-3.10924E-05-1.52115E-05 3.84840E-05-1.81202E-18 2.26994E-18
 -1      3043 1.30493E-04-6.21760E-05-2.90520E-05 2.59011E-05 1.00426E-18 2.73258E-18
 -1      3044 1.01847E-04-5.04027E-05-2.17132E-05 4.15557E-05-2.85874E-20-1.10167E-19
 -1      3045 5.00425E-05-2.17060E-05-1.16076E-05 2.24198E-05 1.09474E-18-2.33845E-18
 -1      3046 1.20494E-04-6.09675E-05-2.55352E-05 2.27081E-05 5.99435E-19 5.64336E-19
 -1      3047 1.12539E-04-5.92866E-05-2.25520E-05 3.03976E-05 1.57749E-18 3.69273E-19
 -1      3048 1.01972E-04-5.28684E-05-2.07078E-05 3.25818E-05 1.47913E-18 8.61830E-19
 -1      3049 1.40068E-04-6.08206E-05-3.40780E-05 5.11264E-06-2.39927E-18 2.33707E-18
 -1      3050 1.33209E-04-6.17782E-05-3.06189E-05 1.00133E-05-1.39418E-18 1.81847E-18
 -1      3051 1.39900E-04-5.70190E-05-3.58783E-05-3.97475E-06-2.94185E-18 2.76154E-18
 -1      3052 9.03448E-05-1.48737E-05-3.23650E-05-2.17707E-06-2.50588E-19-4.38659E-18
 -1      3053 9.05303E-05-1.51379E-05-3.23330E-05-3.12830E-06-6.76674E-19-4.41053E-18
 -1      3054 9.17814E-05-1.71595E-05-3.19653E-05-3.14144E-06-7.83576E-19-4.17195E-18
 -1      3055 9.14039E-05-1.65752E-05-3.20566E-05-1.58297E-06-1.79236E-19-4.25458E-18
 -1      3056 1.26306E-04-1.51722E-05-4.81572E-05 1.33798E-05 1.33027E-18-3.20144E-18
 -1      3057 1.29064E-04-1.19145E-05-5.08556E-05 9.47512E-06 1.48612E-18-3.68064E-18
 -1      3058 1.41982E-04-5.03714E-05-3.93712E-05 1.23716E-05 4.53321E-19-3.34959E-18
 -1      3059 1.39027E-04-4.23868E-05-4.15884E-05-1.43205E-05-2.71802E-18-2.12605E-19
 -1      3060 1.35936E-04-6.43761E-05-3.07328E-05-1.02187E-05-9.43277E-19-2.62358E-18
 -1      3061 1.36472E-04-6.08285E-05-3.29392E-05-7.48897E-07-1.08920E-18-3.39385E-18
 -1      3062 1.28893E-04-6.24674E-05-2.80086E-05-1.49047E-05-1.35324E-18-1.79981E-18
 -1      3063 1.36985E-04-2.92770E-05-4.65984E-05 1.95937E-05 1.97867E-18-1.79645E-18
 -1      3064 1.04169E-04-5.65013E-05-2.00117E-05-3.28962E-05-9.77158E-19-1.65175E-18
 -1      3065 1.13983E-04-5.96571E-05-2.35665E-05-2.62810E-05-1.02375E-18-8.41024E-19
 -1      3066 9.45988E-05-4.93814E-05-1.91363E-05-3.25970E-05-1.15652E-18-8.34380E-19
 -1      3067 1.28916E-04-1.07935E-05-5.13896E-05 5.81985E-06 1.30358E-18-3.07464E-18
 -1      3068 1.30737E-04-1.20173E-05-5.15142E-05-7.97290E-07 1.01072E-18-2.37932E-18
 -1      3069 7.76816E-05-3.99222E-05-1.57616E-05 3.49786E-05 2.00546E-18 1.41137E-19
 -1      3070 9.67681E-05-3.44023E-05-2.65648E-05-3.19470E-05-8.99258E-19-2.68430E-19
 -1      3071 1.28578E-04-2.06959E-05-4.66252E-05 7.47903E-06-1.83171E-18-9.17548E-19
 -1      3072 1.21379E-04-1.25363E-05-4.70743E-05 6.15312E-06 1.56246E-18-3.20598E-18
 -1      3073 1.24448E-04-1.54304E-05-4.70655E-05-3.45026E-06 1.73621E-18-1.88145E-18
 -1      3074 9.42835E-05-2.18777E-05-3.10593E-05 4.95872E-06 2.58991E-18-2.41816E-18
 -1      3075 9.38062E-05-2.09058E-05-3.12447E-05 4.61922E-06 2.32707E-18-2.66222E-18
 -1      3076 5.08099E-05-1.74802E-05-1.38045E-05 2.11643E-05-1.14204E-18 1.91916E-18
 -1      3077 4.33645E-05-1.51377E-05-1.13687E-05 1.40535E-05-1.33286E-18 1.75971E-18
 -1      3078 1.36531E-04-3.01298E-05-4.60877E-05-1.00340E-05 2.79616E-18-5.66771E-19
 -1      3079 1.35675E-04-3.71036E-05-4.25742E-05-9.22036E-06 3.03132E-18 2.08582E-19
 -1      3080 1.00375E-04-4.86901E-05-2.17277E-05-4.22092E-05-7.27178E-19 6.13596E-19
 -1      3081 1.07104E-04-5.53635E-05-2.17527E-05-4.33214E-05-3.44531E-19 1.08460E-19
 -1      3082 1.25754E-04-5.87802E-05-2.85040E-05-2.73301E-05-1.21353E-18 1.52532E-18
 -1      3083 1.32557E-04-6.10099E-05-3.09287E-05-2.07633E-05-1.69748E-18 1.70569E-18
 -1      3084 9.56820E-05-2.68820E-05-2.94709E-05-7.47378E-07-1.28854E-18-2.47100E-18
 -1      3085 9.56548E-05-2.73280E-05-2.92911E-05-2.22701E-07-1.04431E-18-2.52619E-18
 -1      3086 9.57000E-05-2.77143E-05-2.91254E-05 1.58553E-07-1.03106E-18-2.42124E-18
 -1      3087 9.56627E-05-2.80010E-05-2.90025E-05 4.73192E-07-1.22280E-18-2.56663E-18
 -1      3088 9.58949E-05-2.73302E-05-2.93877E-05-1.66183E-07-1.07758E-18-2.64657E-18
 -1      3089 9.56553E-05-2.82397E-05-2.88845E-05 6.94318E-07-1.20288E-18-2.31457E-18
 -1      3090 9.56231E-05-2.84207E-05-2.88033E-05 8.61741E-07-9.99376E-19-2.34070E-18
 -1      3091 9.59380E-05-2.80569E-05-2.90955E-05 4.68445E-07-1.12278E-18-2.31967E-18
 -1      3092 9.55913E-05-2.85624E-05-2.87215E-05 9.70252E-07-9.43051E-19-2.11701E-18
 -1      3093 9.55682E-05-2.86727E-05-2.86702E-05 1.03897E-06-8.53118E-19-2.02152E-18
 -1      3094 9.59047E-05-2.85085E-05-2.88875E-05 8.24987E-07-8.55591E-19-2.17501E-18
 -1      3095 9.55269E-05-2.87500E-05-2.86155E-05 1.07199E-06-5.59040E-19-1.84230E-18
 -1      3096 9.55126E-05-2.88126E-05-2.85854E-05 1.07786E-06-2.66653E-19-1.64373E-18
 -1      3097 9.58371E-05-2.87752E-05-2.87438E-05 9.87397E-07-4.97296E-19-2.08217E-18
 -1      3098 9.54694E-05-2.88472E-05-2.85507E-05 1.06363E-06-4.12500E-19-1.46959E-18
 -1      3099 9.54619E-05-2.88773E-05-2.85354E-05 1.03248E-06-4.08104E-19-1.42842E-18
 -1      3100 9.57572E-05-2.89174E-05-2.86481E-05 1.02190E-06-2.26478E-19-1.58841E-18
 -1      3101 9.54207E-05-2.88838E-05-2.85152E-05 9.91739E-07-4.02914E-19-1.20625E-18
 -1      3102 9.54181E-05-2.88917E-05-2.85101E-05 9.41895E-07-4.34808E-19-8.85311E-19
 -1      3103 9.56764E-05-2.89758E-05-2.85880E-05 9.78562E-07-2.82384E-19-9.90243E-19
 -1      3104 9.53807E-05-2.88798E-05-2.85005E-05 8.89527E-07-5.86385E-19-8.52624E-19
 -1      3105 9.53814E-05-2.88727E-05-2.85024E-05 8.33845E-07-1.74089E-19-7.16301E-19
 -1      3106 9.56005E-05-2.89783E-05-2.85539E-05 8.93968E-07-3.92379E-19-3.94888E-19
 -1      3107 9.53482E-05-2.88487E-05-2.85003E-05 7.80383E-07-2.52903E-19-9.24717E-19
 -1      3108 9.53511E-05-2.88312E-05-2.85071E-05 7.27887E-07-5.22048E-19-9.75342E-19
 -1      3109 9.55318E-05-2.89439E-05-2.85389E-05 7.94362E-07-2.86684E-19-5.76359E-19
 -1      3110 9.53220E-05-2.87991E-05-2.85106E-05 6.80808E-07-6.99781E-19-1.23946E-18
 -1      3111 9.53263E-05-2.87741E-05-2.85209E-05 6.37952E-07-6.58900E-19-1.32822E-18
 -1      3112 9.54708E-05-2.88846E-05-2.85379E-05 6.98416E-07-8.28339E-19-1.54882E-18
 -1      3113 9.53004E-05-2.87359E-05-2.85287E-05 6.02740E-07-8.78189E-19-1.26900E-18
 -1      3114 9.53059E-05-2.87048E-05-2.85417E-05 5.74390E-07-9.42658E-19-1.48038E-18
 -1      3115 9.54166E-05-2.88077E-05-2.85474E-05 6.19610E-07-7.92295E-19-1.50256E-18
 -1      3116 9.52820E-05-2.86613E-05-2.85529E-05 5.55357E-07-8.32432E-19-1.25363E-18
 -1      3117 9.52884E-05-2.86247E-05-2.85684E-05 5.45538E-07-7.71198E-19-1.14454E-18
 -1      3118 9.53672E-05-2.87167E-05-2.85650E-05 5.68143E-07-6.48279E-19-1.60699E-18
 -1      3119 9.52651E-05-2.85755E-05-2.85827E-05 5.46460E-07-7.55789E-19-6.52622E-19
 -1      3120 9.52726E-05-2.85331E-05-2.86007E-05 5.58914E-07-5.65971E-19-5.27021E-19
 -1      3121 9.53202E-05-2.86123E-05-2.85895E-05 5.52395E-07-4.90849E-19-7.67535E-19
 -1      3122 9.52482E-05-2.84769E-05-2.86179E-05 5.83516E-07-6.36814E-19-6.92678E-19
 -1      3123 9.52570E-05-2.84279E-05-2.86388E-05 6.22110E-07-3.94035E-19-1.06840E-18
 -1      3124 9.52724E-05-2.84929E-05-2.86200E-05 5.80073E-07-5.90757E-19-4.63419E-19
 -1      3125 9.52295E-05-2.83632E-05-2.86589E-05 6.74399E-07-3.70411E-19-1.01486E-18
 -1      3126 9.52400E-05-2.83065E-05-2.86832E-05 7.43371E-07-5.09076E-19-1.03000E-18
 -1      3127 9.52203E-05-2.83557E-05-2.86564E-05 6.59032E-07-5.26224E-19-8.68945E-19
 -1      3128 9.52072E-05-2.82313E-05-2.87062E-05 8.27827E-07-5.44209E-19-8.06190E-19
 -1      3129 9.52199E-05-2.81660E-05-2.87344E-05 9.31885E-07-3.49481E-19-8.48641E-19
 -1      3130 9.51599E-05-2.81968E-05-2.86984E-05 7.97803E-07-2.32339E-19-7.49482E-19
 -1      3131 9.51797E-05-2.80784E-05-2.87604E-05 1.05351E-06-4.19085E-19-8.15437E-19
 -1      3132 9.51955E-05-2.80039E-05-2.87929E-05 1.19776E-06 4.82713E-19-1.44246E-18
 -1      3133 9.50867E-05-2.80122E-05-2.87460E-05 1.00583E-06-5.82708E-19-7.19734E-19
 -1      3134 9.51455E-05-2.79029E-05-2.88215E-05 1.36199E-06 7.89028E-19-1.92190E-18
 -1      3135 9.51658E-05-2.78196E-05-2.88586E-05 1.55162E-06 6.41939E-19-2.01789E-18
 -1      3136 9.49964E-05-2.77988E-05-2.87985E-05 1.29345E-06 1.27052E-19-7.24717E-19
 -1      3137 9.51043E-05-2.77052E-05-2.88892E-05 1.76402E-06 3.59480E-19-2.00034E-18
 -1      3138 9.51311E-05-2.76155E-05-2.89306E-05 2.00380E-06-1.40481E-19-1.92255E-18
 -1      3139 9.48850E-05-2.75557E-05-2.88547E-05 1.67145E-06 5.48193E-19-1.06558E-18
 -1      3140 9.50574E-05-2.74904E-05-2.89617E-05 2.26956E-06-4.29506E-19-1.91263E-18
 -1      3141 9.50942E-05-2.73998E-05-2.90066E-05 2.56292E-06-6.78367E-19-1.50626E-18
 -1      3142 9.47501E-05-2.72861E-05-2.89121E-05 2.15040E-06-2.21971E-19-1.09885E-18
 -1      3143 9.50099E-05-2.72707E-05-2.90361E-05 2.88612E-06-5.94538E-19-1.52595E-18
 -1      3144 9.50628E-05-2.71895E-05-2.90826E-05 3.23380E-06-4.65884E-19-7.22040E-19
 -1      3145 9.45924E-05-2.70003E-05-2.89668E-05 2.73943E-06-4.77760E-19-6.38028E-19
 -1      3146 9.49737E-05-2.70697E-05-2.91070E-05 3.61639E-06-4.93947E-19-6.12890E-19
 -1      3147 9.50532E-05-2.70162E-05-2.91521E-05 4.01464E-06-2.65574E-19-1.11349E-19
 -1      3148 9.44189E-05-2.67201E-05-2.90124E-05 3.44465E-06-2.42249E-19-1.31353E-18
 -1      3149 9.49724E-05-2.69289E-05-2.91666E-05 4.45508E-06-2.55313E-19 3.41715E-19
 -1      3150 9.50970E-05-2.69328E-05-2.92059E-05 4.89317E-06-9.20669E-20 3.39257E-19
 -1      3151 9.42476E-05-2.64847E-05-2.90402E-05 4.26718E-06-5.28620E-20-2.79697E-19
 -1      3152 9.50500E-05-2.69158E-05-2.92043E-05 5.38471E-06-2.93049E-19 7.26707E-19
 -1      3153 9.52505E-05-2.70233E-05-2.92322E-05 5.84159E-06-1.21435E-19 5.58990E-19
 -1      3154 9.41158E-05-2.63592E-05-2.90386E-05 5.20075E-06 6.05288E-20 8.63878E-19
 -1      3155 9.52831E-05-2.71350E-05-2.92076E-05 6.36974E-06-7.57633E-21 5.83734E-19
 -1      3156 9.56097E-05-2.74141E-05-2.92177E-05 6.80959E-06 3.43964E-19 6.23188E-19
 -1      3157 9.40919E-05-2.64459E-05-2.89939E-05 6.22861E-06-3.12734E-19 1.05198E-18
 -1      3158 9.57980E-05-2.77397E-05-2.91639E-05 7.34780E-06-5.10990E-20 1.44648E-19
 -1      3159 9.63284E-05-2.82846E-05-2.91517E-05 7.71356E-06 2.55543E-19-2.72983E-19
 -1      3160 9.42933E-05-2.68972E-05-2.88920E-05 7.31856E-06 6.30017E-21 1.01630E-18
 -1      3161 9.67926E-05-2.89394E-05-2.90668E-05 8.21475E-06 7.14282E-19-8.36545E-19
 -1      3162 9.76378E-05-2.98685E-05-2.90334E-05 8.41801E-06 9.48265E-19-4.09000E-19
 -1      3163 9.49102E-05-2.79277E-05-2.87240E-05 8.41307E-06 4.45008E-20 1.66516E-19
 -1      3164 9.85560E-05-3.09934E-05-2.89266E-05 8.79554E-06 1.02517E-18-9.78568E-19
 -1      3165 9.98531E-05-3.24291E-05-2.88878E-05 8.70101E-06 3.66745E-19-2.13187E-19
 -1      3166 9.62335E-05-2.98193E-05-2.84960E-05 9.40584E-06 9.82685E-19-1.42222E-18
 -1      3167 1.01464E-04-3.41584E-05-2.87935E-05 8.78417E-06 4.41742E-19 5.39323E-19
 -1      3168 1.03331E-04-3.61495E-05-2.87920E-05 8.18458E-06 1.10686E-18 5.70111E-19
 -1      3169 9.86781E-05-3.28953E-05-2.82500E-05 1.00834E-05 1.11651E-18-9.73884E-19
 -1      3170 1.05890E-04-3.85265E-05-2.87856E-05 7.69043E-06 8.09282E-19 1.21734E-18
 -1      3171 1.08346E-04-4.09555E-05-2.89059E-05 6.30521E-06 7.92988E-19 4.83409E-19
 -1      3172 1.02742E-04-3.73909E-05-2.80981E-05 1.00324E-05 9.48632E-19 1.87515E-19
 -1      3173 1.11951E-04-4.36923E-05-2.91454E-05 4.64621E-06 7.55289E-19 3.82952E-19
 -1      3174 1.14631E-04-4.58563E-05-2.95352E-05 2.19418E-06 6.38256E-19 7.15452E-19
 -1      3175 1.08884E-04-4.31721E-05-2.82748E-05 8.41766E-06 6.57241E-19-4.06822E-19
 -1      3176 1.18862E-04-4.80003E-05-3.02664E-05-1.09274E-06-5.24161E-19 8.53399E-19
 -1      3177 1.20944E-04-4.85706E-05-3.11049E-05-4.56253E-06-1.20641E-18 8.40118E-20
 -1      3178 1.16773E-04-4.89362E-05-2.92241E-05 4.01584E-06-7.22228E-20 2.16774E-19
 -1      3179 1.24679E-04-4.85272E-05-3.26641E-05-9.71213E-06-1.45209E-18-3.27484E-19
 -1      3180 1.24491E-04-4.52916E-05-3.39387E-05-1.33610E-05-1.71425E-18-1.60740E-18
 -1      3181 1.25154E-04-5.17070E-05-3.16381E-05-4.01417E-06-2.24260E-18-5.47871E-19
 -1      3182 1.26316E-04-3.75636E-05-3.83283E-05-1.85034E-05-1.35602E-18-2.80206E-18
 -1      3183 1.23592E-04-2.97864E-05-4.04218E-05-1.98743E-05-1.03343E-18-3.40200E-18
 -1      3184 1.18527E-04-2.12118E-05-4.21701E-05-1.69133E-05-3.84077E-19-3.85000E-18
 -1      3185 1.16187E-04-1.57775E-05-4.35227E-05-1.31758E-05-7.81494E-19-3.61593E-18
 -1      3186 1.15690E-04-1.36087E-05-4.41321E-05-4.92233E-06-1.75008E-18-2.81485E-18
 -1      3187 1.16241E-04-1.49336E-05-4.38067E-05 1.93096E-06-2.24548E-18-2.60031E-18
 -1      3188 1.18205E-04-1.96296E-05-4.26306E-05 6.80295E-06-2.51272E-18-3.20380E-18
 -1      3189 1.21595E-04-3.15715E-05-3.86479E-05 9.46035E-06-1.25096E-18-1.81175E-18
 -1      3190 1.23837E-04-3.82188E-05-3.69170E-05 8.96675E-06 7.61258E-19-2.16352E-18
 -1      3191 1.23654E-04-4.28879E-05-3.46999E-05 5.01601E-06 7.33306E-19-2.89800E-18
 -1      3192 1.23311E-04-4.57379E-05-3.33325E-05 1.85388E-06 6.98974E-19-3.24795E-18
 -1      3193 1.28619E-04-4.34621E-05-3.67112E-05 6.00301E-06 2.60648E-19 1.32349E-22
 -1      3194 1.20618E-04-4.59391E-05-3.20840E-05-2.35533E-06 9.50258E-19-2.79365E-18
 -1      3195 1.18131E-04-4.50683E-05-3.12875E-05-5.54747E-06 1.04670E-18-2.15623E-18
 -1      3196 1.18775E-04-4.60686E-05-3.11624E-05-9.04643E-06 7.55130E-19-1.59901E-18
 -1      3197 1.25567E-04-4.87228E-05-3.29500E-05-2.44614E-06 1.18585E-18 3.62507E-19
 -1      3198 9.53708E-05-2.79590E-05-2.88948E-05-4.71547E-07 1.36749E-18-1.44906E-18
 -1      3199 9.54259E-05-2.77010E-05-2.90118E-05-1.41478E-07 1.45030E-18-1.27446E-18
 -1      3200 9.52239E-05-2.87745E-05-2.84775E-05-1.07103E-06 4.37494E-19-1.21652E-18
 -1      3201 9.52116E-05-2.87404E-05-2.84861E-05-1.10411E-06 4.36854E-19-1.33885E-18
 -1      3202 9.52427E-05-2.87056E-05-2.85155E-05-1.11789E-06 4.64219E-19-1.39743E-18
 -1      3203 9.52394E-05-2.86431E-05-2.85380E-05-1.11266E-06 5.54275E-19-1.32255E-18
 -1      3204 9.55254E-05-2.88209E-05-2.85903E-05-1.08094E-06 4.62794E-19-1.27703E-18
 -1      3205 9.52116E-05-2.87942E-05-2.84634E-05-8.61646E-07 5.68564E-19-8.24120E-19
 -1      3206 9.51920E-05-2.87932E-05-2.84569E-05-9.20564E-07 8.14003E-19-1.06216E-18
 -1      3207 9.52136E-05-2.87690E-05-2.84749E-05-7.48055E-07 2.72918E-19-6.00848E-19
 -1      3208 9.51933E-05-2.87776E-05-2.84646E-05-8.04251E-07 4.22376E-19-7.09860E-19
 -1      3209 9.53865E-05-2.88764E-05-2.85055E-05-8.37672E-07 4.47543E-19-8.16261E-19
 -1      3210 9.52188E-05-2.87297E-05-2.84939E-05-6.49493E-07 3.03329E-19-6.51949E-19
 -1      3211 9.51987E-05-2.87453E-05-2.84810E-05-6.96526E-07 4.01786E-19-4.68754E-19
 -1      3212 9.53545E-05-2.88333E-05-2.85099E-05-7.32196E-07 4.30068E-19-8.56230E-19
 -1      3213 9.52267E-05-2.86797E-05-2.85186E-05-5.76376E-07-5.27852E-20-7.42414E-19
 -1      3214 9.52067E-05-2.87008E-05-2.85037E-05-6.09459E-07 1.79161E-19-7.08326E-19
 -1      3215 9.53281E-05-2.87744E-05-2.85237E-05-6.43143E-07 2.28533E-19-8.92420E-19
 -1      3216 9.52369E-05-2.86203E-05-2.85483E-05-5.37007E-07-1.94909E-19-3.40520E-19
 -1      3217 9.52165E-05-2.86463E-05-2.85314E-05-5.52206E-07-2.58167E-19-3.89571E-19
 -1      3218 9.53059E-05-2.87031E-05-2.85446E-05-5.81010E-07-1.89655E-19-8.39626E-19
 -1      3219 9.52492E-05-2.85514E-05-2.85828E-05-5.38851E-07 1.88500E-19-2.43951E-19
 -1      3220 9.52277E-05-2.85822E-05-2.85637E-05-5.32505E-07 2.20657E-19-1.96126E-19
 -1      3221 9.52862E-05-2.86202E-05-2.85716E-05-5.54370E-07-1.36756E-19-3.94827E-19
 -1      3222 9.52640E-05-2.84715E-05-2.86231E-05-5.89490E-07-2.06464E-19 1.07026E-19
 -1      3223 9.52401E-05-2.85077E-05-2.86011E-05-5.57757E-07 1.26561E-19 8.68885E-20
 -1      3224 9.52675E-05-2.85247E-05-2.86044E-05-5.71056E-07 4.17705E-20-6.76733E-19
 -1      3225 9.52815E-05-2.83782E-05-2.86702E-05-6.97333E-07-3.77682E-19 1.16138E-19
 -1      3226 9.52538E-05-2.84206E-05-2.86445E-05-6.35873E-07-2.20156E-19 1.15569E-19
 -1      3227 9.52475E-05-2.84140E-05-2.86433E-05-6.39078E-07-3.33126E-19-1.55000E-19
 -1      3228 9.53021E-05-2.82687E-05-2.87254E-05-8.72073E-07-4.50278E-19-2.31548E-19
 -1      3229 9.52689E-05-2.83183E-05-2.86951E-05-7.75854E-07-4.52346E-19 2.21244E-19
 -1      3230 9.52240E-05-2.82845E-05-2.86886E-05-7.67295E-07-2.63661E-19 2.92896E-19
 -1      3231 9.53260E-05-2.81397E-05-2.87903E-05-1.12487E-06-4.14020E-20 1.50889E-19
 -1      3232 9.52854E-05-2.81976E-05-2.87544E-05-9.88114E-07-1.74054E-19-2.07695E-19
 -1      3233 9.51940E-05-2.81316E-05-2.87412E-05-9.65787E-07-3.43785E-19-1.98041E-20
 -1      3234 9.53535E-05-2.79885E-05-2.88661E-05-1.46822E-06 3.78360E-19 8.39307E-19
 -1      3235 9.53034E-05-2.80553E-05-2.88235E-05-1.28453E-06 3.24662E-19 6.74676E-20
 -1      3236 9.51540E-05-2.79508E-05-2.88014E-05-1.24597E-06-6.09976E-20 2.03037E-19
 -1      3237 9.53846E-05-2.78136E-05-2.89535E-05-1.91545E-06-1.79211E-19 1.19654E-18
 -1      3238 9.53227E-05-2.78891E-05-2.89037E-05-1.67814E-06 1.50664E-19 1.19938E-18
 -1      3239 9.51002E-05-2.77381E-05-2.88693E-05-1.62038E-06 1.17572E-19 3.16224E-19
 -1      3240 9.54200E-05-2.76164E-05-2.90523E-05-2.47967E-06 4.03645E-19 7.25019E-19
 -1      3241 9.53435E-05-2.76987E-05-2.89949E-05-2.18244E-06 2.76445E-19 1.07458E-18
 -1      3242 9.50282E-05-2.74911E-05-2.89439E-05-2.10214E-06 1.76982E-19 3.91417E-19
 -1      3243 9.54613E-05-2.74031E-05-2.91605E-05-3.17205E-06-4.25119E-19-7.14528E-20
 -1      3244 9.53664E-05-2.74874E-05-2.90962E-05-2.81007E-06 4.92064E-19 1.03737E-18
 -1      3245 9.49337E-05-2.72113E-05-2.90229E-05-2.70388E-06 5.17855E-19 1.13733E-18
 -1      3246 9.55139E-05-2.71898E-05-2.92736E-05-3.99915E-06 3.51537E-19-8.81925E-19
 -1      3247 9.53949E-05-2.72657E-05-2.92042E-05-3.57082E-06-4.20909E-19-5.72546E-19
 -1      3248 9.48145E-05-2.69071E-05-2.91017E-05-3.43631E-06 2.01290E-19-2.77013E-19
 -1      3249 9.55908E-05-2.70082E-05-2.93836E-05-4.95921E-06 1.37014E-19-9.29969E-19
 -1      3250 9.54378E-05-2.70567E-05-2.93127E-05-4.46859E-06 5.45057E-19-8.81955E-19
 -1      3251 9.46727E-05-2.65989E-05-2.91725E-05-4.30615E-06 2.57242E-19-3.86581E-19
 -1      3252 9.57216E-05-2.69165E-05-2.94781E-05-6.03680E-06-2.87467E-19-9.80100E-19
 -1      3253 9.55159E-05-2.69041E-05-2.94118E-05-5.49728E-06 1.90397E-19-7.93492E-19
 -1      3254 9.45217E-05-2.63279E-05-2.92238E-05-5.31368E-06 2.48320E-19-9.02435E-19
 -1      3255 9.59664E-05-2.70151E-05-2.95400E-05-7.19566E-06-3.90918E-19-1.23147E-18
 -1      3256 9.56738E-05-2.68854E-05-2.94865E-05-6.63495E-06-4.14630E-19-1.19430E-18
 -1      3257 9.43960E-05-2.61679E-05-2.92392E-05-6.44989E-06-1.04594E-19-8.81978E-19
 -1      3258 9.64396E-05-2.74663E-05-2.95484E-05-8.36828E-06 3.69945E-19-1.93499E-18
 -1      3259 9.59987E-05-2.71304E-05-2.95177E-05-7.83555E-06-1.87911E-19-1.87827E-18
 -1      3260 9.43705E-05-2.62448E-05-2.91980E-05-7.69292E-06-1.85170E-19-2.09326E-18
 -1      3261 9.73426E-05-2.85168E-05-2.94843E-05-9.43956E-06-1.01556E-19-7.76313E-19
 -1      3262 9.66502E-05-2.78432E-05-2.94850E-05-9.01576E-06 4.30045E-20-1.39452E-18
 -1      3263 9.45889E-05-2.67594E-05-2.90776E-05-9.00224E-06-5.32891E-19-2.32476E-18
 -1      3264 9.90013E-05-3.05064E-05-2.93424E-05-1.02174E-05-8.89313E-19-2.86368E-19
 -1      3265 9.79001E-05-2.93213E-05-2.93749E-05-1.00317E-05-1.42489E-19-8.02655E-21
 -1      3266 9.53070E-05-2.80138E-05-2.88611E-05-1.03052E-05-7.42764E-19-1.45398E-18
 -1      3267 1.01883E-04-3.38304E-05-2.91573E-05-1.03769E-05-9.85528E-20-7.06634E-19
 -1      3268 1.00171E-04-3.19504E-05-2.91992E-05-1.06320E-05-6.40674E-19-3.51766E-19
 -1      3269 9.69446E-05-3.04243E-05-2.85539E-05-1.14618E-05-6.16459E-19 2.07495E-19
 -1      3270 1.06528E-04-3.87536E-05-2.90524E-05-9.35284E-06 4.64255E-19-4.51766E-19
 -1      3271 1.04033E-04-3.61149E-05-2.90336E-05-1.03557E-05 2.52623E-19-8.57804E-19
 -1      3272 1.00132E-04-3.44785E-05-2.82179E-05-1.21685E-05 2.04901E-19-3.01779E-19
 -1      3273 1.13263E-04-4.49316E-05-2.93060E-05-6.21490E-06-6.98018E-19 4.56117E-19
 -1      3274 1.10027E-04-4.18845E-05-2.90829E-05-8.40930E-06-1.29636E-20-1.46664E-19
 -1      3275 1.05637E-04-4.04884E-05-2.80442E-05-1.17488E-05-2.69370E-19-1.17890E-19
 -1      3276 1.21923E-04-5.06632E-05-3.05017E-05 5.27474E-07-1.84070E-18-4.67880E-19
 -1      3277 1.18392E-04-4.85431E-05-2.97617E-05-3.65641E-06-1.02390E-18 2.42060E-19
 -1      3278 1.14026E-04-4.80646E-05-2.84388E-05-9.09896E-06-3.43121E-19-1.20040E-19
 -1      3279 1.30987E-04-5.36940E-05-3.31938E-05 7.01426E-06-1.89857E-18-5.56262E-19
 -1      3280 1.28197E-04-5.49028E-05-3.14417E-05 1.90012E-06-2.58915E-18-5.58406E-19
 -1      3281 1.36044E-04-4.30673E-05-3.98787E-05 7.14463E-06-1.96512E-19 2.04437E-18
 -1      3282 1.30316E-04-3.36220E-05-4.19707E-05 1.00937E-05-1.05853E-18 6.25534E-19
 -1      3283 1.25553E-04-3.50527E-05-3.92062E-05-1.08819E-05 3.51545E-18-1.00890E-18
 -1      3284 1.23527E-04-2.73986E-05-4.13683E-05-1.07686E-05 4.34417E-18-1.75656E-18
 -1      3285 1.21322E-04-4.84323E-05-3.11795E-05 8.39210E-06 6.51421E-19-6.89405E-19
 -1      3286 1.24570E-04-4.99487E-05-3.20518E-05 4.60726E-06 1.22887E-18-7.08728E-21
 -1      3287 1.14986E-04-4.41308E-05-3.02968E-05 1.39930E-05-4.97877E-19 2.10418E-19
 -1      3288 1.17689E-04-4.62986E-05-3.06370E-05 1.11631E-05-5.24763E-20-6.33091E-19
 -1      3289 1.21818E-04-5.04019E-05-3.06458E-05 1.39052E-05 2.75375E-19 1.28328E-18
 -1      3290 1.14876E-04-4.52837E-05-2.98922E-05 1.85096E-05 2.05803E-19 4.21071E-19
 -1      3291 5.65120E-05-1.41213E-05-1.76738E-05-1.26344E-05-2.13464E-18 1.07361E-19
 -1      3292 1.37298E-04-5.90110E-05-3.33669E-05-1.13106E-05-9.91750E-19 6.99596E-19
 -1      3293 1.39203E-04-5.38024E-05-3.71351E-05-1.40195E-06-4.21002E-19 2.63168E-18
 -1      3294 9.23702E-05-1.83414E-05-3.17418E-05 1.81191E-06 1.24121E-18-3.92494E-18
 -1      3295 9.22505E-05-1.81393E-05-3.17737E-05 1.05812E-06 8.78606E-19-3.94315E-18
 -1      3296 9.54122E-05-2.73488E-05-2.91771E-05 2.75088E-07 1.44490E-18-1.29885E-18
 -1      3297 9.54771E-05-2.69425E-05-2.93560E-05 8.35533E-07 1.59033E-18-1.19537E-18
 -1      3298 9.56903E-05-2.73363E-05-2.92998E-05 2.25762E-07 1.46500E-18-1.55780E-18
 -1      3299 1.32756E-04-4.22061E-05-3.90618E-05-9.14898E-06 2.47445E-18 6.37392E-20
 -1      3300 6.93120E-05-3.24020E-05-1.54003E-05-3.03975E-05-6.06581E-19-9.72923E-19
 -1      3301 8.11486E-05-4.01780E-05-1.72564E-05-3.33049E-05-9.00714E-19-1.41296E-19
 -1      3302 1.19591E-04-5.02497E-05-2.97066E-05-2.11917E-05 1.17855E-18 1.00508E-18
 -1      3303 1.16005E-04-4.95725E-05-2.84053E-05-2.70977E-05 5.63370E-19 1.68815E-18
 -1      3304 1.17376E-04-5.74815E-05-2.54429E-05-3.66156E-05-1.19548E-18 1.80249E-18
 -1      3305 9.25746E-05-1.82247E-05-3.18810E-05-6.82924E-06-2.20696E-18-3.84783E-18
 -1      3306 9.32005E-05-1.92286E-05-3.17388E-05-7.33566E-06-2.50655E-18-3.50851E-18
 -1      3307 9.41055E-05-2.12300E-05-3.12215E-05-6.03088E-06-2.41862E-18-3.20524E-18
 -1      3308 9.32846E-05-1.96053E-05-3.15519E-05-5.58284E-06-1.97519E-18-3.79751E-18
 -1      3309 1.27841E-04-2.49274E-05-4.45452E-05-1.00939E-05 3.48501E-18-7.03302E-19
 -1      3310 7.32296E-05-2.43351E-05-2.06758E-05-3.16314E-05-1.28966E-18-1.63896E-18
 -1      3311 9.52144E-05-2.87992E-05-2.84625E-05-9.76023E-07 7.16550E-19-9.78099E-19
 -1      3312 9.51971E-05-2.87847E-05-2.84620E-05-1.02855E-06 6.99308E-19-8.88716E-19
 -1      3313 9.54716E-05-2.88841E-05-2.85395E-05-1.03584E-06 3.84579E-19-8.52320E-19
 -1      3314 9.54253E-05-2.88970E-05-2.85136E-05-9.45469E-07 7.03095E-19-6.83601E-19
 -1      3315 4.84940E-05-1.29408E-05-1.46628E-05 6.54072E-06-1.02881E-18 2.38969E-18
 -1      3316 8.66654E-05-3.44477E-05-2.22745E-05-3.82624E-05-5.99964E-19 3.65654E-19
 -1      3317 1.39034E-04-5.36231E-05-3.64373E-05 1.09751E-05-3.73542E-19-1.83277E-18
 -1      3318 1.37129E-04-4.51302E-05-3.99537E-05 1.71313E-05 5.39772E-19-4.70739E-19
 -1      3319 9.55280E-05-2.55761E-05-2.99517E-05-2.14595E-06-1.69229E-18-2.70657E-18
 -1      3320 9.55384E-05-2.62695E-05-2.96986E-05-1.33360E-06-1.46129E-18-2.72386E-18
 -1      3321 9.57018E-05-2.62020E-05-2.97880E-05-1.17356E-06-1.23671E-18-2.66211E-18
 -1      3322 1.17868E-04-1.45211E-05-4.50544E-05 1.65450E-06 1.44207E-18-2.84894E-18
 -1      3323 1.20224E-04-1.66754E-05-4.47067E-05-3.53541E-06 2.18005E-18-2.20847E-18
 -1      3324 8.76626E-05-4.34827E-05-1.88546E-05 3.33225E-05 8.27234E-19 2.46010E-19
 -1      3325 7.38385E-05-3.42309E-05-1.65790E-05 3.15501E-05 1.20165E-18-1.32100E-18
 -1      3326 9.74971E-05-4.06186E-05-2.41015E-05-3.65823E-05 4.87838E-20 5.36675E-19
 -1      3327 5.92318E-05-2.49989E-05-1.45181E-05 2.66271E-05 1.44424E-18-1.40883E-18
 -1      3328 4.89238E-05-1.74547E-05-1.30952E-05 1.54102E-05 8.92045E-19-1.81657E-18
 -1      3329 1.32234E-04-6.04837E-05-3.09924E-05 1.86652E-05 4.24403E-19 4.17495E-18
 -1      3330 1.23808E-04-5.79869E-05-2.77222E-05 2.81802E-05 8.89385E-19 2.01019E-18
 -1      3331 1.09754E-04-5.23207E-05-2.49261E-05 3.73652E-05 7.10449E-19 8.39330E-19
 -1      3332 9.43821E-05-4.23474E-05-2.16748E-05 3.98532E-05-6.47133E-19 9.07702E-19
 -1      3333 8.07630E-05-3.55726E-05-1.93321E-05 4.05723E-05-1.56743E-18 1.74404E-18
 -1      3334 6.61579E-05-2.62664E-05-1.66181E-05 3.44468E-05-2.20027E-18 2.60484E-18
 -1      3335 9.15869E-05-3.78776E-05-2.26606E-05 3.73135E-05-1.20914E-18 1.73107E-18
 -1      3336 9.52051E-05-2.42717E-05-3.04028E-05 4.27112E-06 2.53104E-18-1.69445E-18
 -1      3337 9.46371E-05-2.27176E-05-3.08065E-05 4.78670E-06 2.61431E-18-2.10344E-18
 -1      3338 9.49631E-05-2.35992E-05-3.05657E-05 3.69723E-06 2.28326E-18-2.18011E-18
 -1      3339 9.52407E-05-2.52042E-05-3.00293E-05 2.98907E-06 2.34443E-18-1.57650E-18
 -1      3340 1.17358E-04-1.38513E-05-4.47220E-05 5.65106E-06 1.79592E-18-3.27245E-18
 -1      3341 1.22589E-04-2.32059E-05-4.31877E-05-8.82573E-06 3.61747E-18-1.66310E-18
 -1      3342 1.31261E-04-4.37074E-05-3.77799E-05-1.53862E-05-2.35454E-18-1.61482E-18
 -1      3343 1.30762E-04-4.61389E-05-3.63985E-05-5.60788E-06 2.61733E-18 1.12642E-19
 -1      3344 1.18372E-04-1.62835E-05-4.42541E-05 1.29491E-05 6.26063E-19-3.18126E-18
 -1      3345 9.21903E-05-1.80391E-05-3.17921E-05 4.08576E-07 6.60655E-19-3.80637E-18
 -1      3346 9.21873E-05-1.80343E-05-3.17926E-05-3.59497E-07 2.51797E-19-3.85427E-18
 -1      3347 9.31438E-05-1.96232E-05-3.14912E-05 6.28474E-07 7.21515E-19-3.64179E-18
 -1      3348 1.31823E-04-5.42698E-05-3.33947E-05 5.50424E-06 1.91722E-18 1.31446E-18
 -1      3349 1.32494E-04-5.82818E-05-3.17908E-05 1.32097E-05 7.19925E-19 2.83055E-18
 -1      3350 5.50050E-05-1.74990E-05-1.58169E-05 1.21773E-05 9.83787E-19-1.25880E-18
 -1      3351 4.67871E-05-1.47402E-05-1.33210E-05 8.15333E-06 4.83338E-19-2.15305E-18
 -1      3352 1.24019E-04-1.90040E-05-4.54828E-05 1.71136E-05 5.82653E-19-2.83828E-18
 -1      3353 9.18268E-05-4.46852E-05-1.99875E-05-2.94520E-05-1.05297E-18-7.28369E-19
 -1      3354 9.41698E-05-2.16366E-05-3.10964E-05-5.03216E-06-2.02182E-18-3.32866E-18
 -1      3355 9.46136E-05-2.25137E-05-3.09050E-05-5.12159E-06-2.19418E-18-3.00903E-18
 -1      3356 9.49146E-05-2.34964E-05-3.05873E-05-4.12112E-06-1.91801E-18-2.98021E-18
 -1      3357 9.30276E-05-1.94909E-05-3.15262E-05-3.61413E-06-1.13491E-18-3.76687E-18
 -1      3358 9.33876E-05-2.01403E-05-3.14172E-05-4.20183E-06-1.49970E-18-3.75084E-18
 -1      3359 1.32643E-04-5.71427E-05-3.22918E-05-1.23950E-05-8.91204E-19 1.05932E-19
 -1      3360 9.34298E-05-2.02116E-05-3.14039E-05 4.24408E-06 2.12242E-18-2.99879E-18
 -1      3361 9.30706E-05-1.95506E-05-3.15175E-05 3.65269E-06 1.86864E-18-3.23234E-18
 -1      3362 9.43342E-05-2.19763E-05-3.09885E-05 3.62965E-06 1.97706E-18-2.58365E-18
 -1      3363 1.30324E-04-5.02433E-05-3.44166E-05-1.53040E-06 2.11140E-18 3.94929E-20
 -1      3364 9.54222E-05-3.76781E-05-2.48876E-05 3.48800E-05-3.67480E-19 1.65674E-18
 -1      3365 1.05307E-04-4.23800E-05-2.65250E-05 3.24057E-05 2.74756E-20 2.24855E-18
 -1      3366 1.23463E-04-2.79002E-05-4.12927E-05 1.05225E-05-2.32447E-18-1.64790E-18
 -1      3367 5.30655E-05-1.07875E-05-1.73109E-05 5.69417E-07-1.89262E-18 2.17253E-18
 -1      3368 5.41390E-05-1.17526E-05-1.78908E-05 7.26876E-06-2.36517E-18 1.79518E-18
 -1      3369 9.55849E-05-2.86823E-05-2.86760E-05-1.04140E-06 5.26644E-19-1.43096E-18
 -1      3370 9.52735E-05-2.85712E-05-2.85871E-05-1.07553E-06 6.24197E-19-1.51999E-18
 -1      3371 9.52847E-05-2.84673E-05-2.86304E-05-1.00507E-06 7.27350E-19-1.34484E-18
 -1      3372 1.25561E-04-5.68489E-05-2.93598E-05-6.35354E-06-1.68178E-18-8.12682E-19
 -1      3373 1.28898E-04-4.09521E-05-3.79181E-05 1.88895E-05-3.85162E-19 3.62768E-19
 -1      3374 1.30217E-04-4.72919E-05-3.59307E-05 1.62832E-05-9.74763E-19 6.61202E-19
 -1      3375 1.36009E-04-5.30667E-05-3.58822E-05-8.67836E-06-3.24940E-18 1.12497E-19
 -1      3376 9.27833E-05-1.90518E-05-3.16183E-05 3.12511E-06 1.72748E-18-3.46434E-18
 -1      3377 9.25450E-05-1.86369E-05-3.16857E-05 2.42358E-06 1.40117E-18-3.71058E-18
 -1      3378 9.33572E-05-2.00126E-05-3.14149E-05 1.80336E-06 1.26775E-18-3.66856E-18
 -1      3379 9.37675E-05-2.07938E-05-3.12542E-05 2.84600E-06 1.63567E-18-3.20041E-18
 -1      3380 1.32949E-04-4.70614E-05-3.69690E-05 3.54159E-06 2.11560E-19 8.80279E-19
 -1      3381 7.36129E-05-2.41141E-05-2.11714E-05 3.05238E-05-1.22415E-18 2.62623E-18
 -1      3382 8.57181E-05-3.10032E-05-2.28770E-05 3.51820E-05-1.16406E-18 1.85209E-18
 -1      3383 5.93865E-05-2.58766E-05-1.41103E-05-2.67530E-05-1.10035E-18-3.40444E-18
 -1      3384 7.00239E-05-2.90531E-05-1.71306E-05-2.55914E-05-1.13505E-18-1.13619E-18
 -1      3385 4.48097E-05-1.46022E-05-1.26192E-05-3.43178E-06-3.97742E-20-3.03248E-18
 -1      3386 9.53490E-05-2.81738E-05-2.87805E-05-7.12734E-07 1.15067E-18-1.34401E-18
 -1      3387 9.56908E-05-2.80114E-05-2.90103E-05-4.71554E-07 1.22712E-18-1.33959E-18
 -1      3388 9.53176E-05-2.83389E-05-2.87070E-05-8.86427E-07 8.15943E-19-1.39866E-18
 -1      3389 4.93018E-05-1.89475E-05-1.26641E-05-1.77510E-05-8.62663E-19-3.96771E-18
 -1      3390 5.99041E-05-1.53501E-05-1.86989E-05 1.92549E-05-6.20955E-19 2.58472E-18
 -1      3391 1.27369E-04-6.20968E-05-2.78493E-05 1.68152E-05-3.17955E-19 5.66983E-19
 -1      3392 1.18240E-04-5.85439E-05-2.53544E-05 2.15703E-05 2.44740E-19-3.19930E-19
 -1      3393 1.30160E-04-6.02879E-05-3.01196E-05 8.31031E-06-1.14282E-18 1.22968E-18
 -1      3394 1.15424E-04-5.20766E-05-2.70851E-05 3.01647E-05 6.34745E-19 1.57718E-18
 -1      3395 1.31170E-04-3.67409E-05-4.07438E-05 2.13507E-05 8.07858E-19-9.82664E-19
 -1      3396 1.04397E-04-5.12653E-05-2.27389E-05 2.69006E-05 7.34086E-19 1.88677E-19
 -1      3397 9.58150E-05-4.73098E-05-2.04974E-05 3.08514E-05 5.17617E-19 1.01766E-18
 -1      3398 9.16127E-05-4.25671E-05-2.09554E-05 2.87691E-05-6.58568E-20 6.24157E-20
 -1      3399 9.53808E-05-2.64932E-05-2.95310E-05 1.36767E-06 1.77515E-18-1.37001E-18
 -1      3400 9.54323E-05-2.58860E-05-2.97906E-05 2.24452E-06 2.13362E-18-1.46918E-18
 -1      3401 9.53556E-05-2.52326E-05-3.00698E-05 2.59871E-06 2.14269E-18-1.70108E-18
 -1      3402 9.55828E-05-2.64080E-05-2.96534E-05 1.23528E-06 1.59549E-18-1.49972E-18
 -1      3403 7.05343E-05-2.91298E-05-1.74320E-05 2.61512E-05 3.33096E-19-1.66103E-18
 -1      3404 1.07913E-04-4.70710E-05-2.60925E-05-3.47759E-05-3.42254E-20 3.08505E-19
 -1      3405 9.27558E-05-1.90076E-05-3.16250E-05-3.07982E-06-8.30923E-19-3.96700E-18
 -1      3406 9.37466E-05-2.07358E-05-3.12625E-05-2.83341E-06-8.21211E-19-3.62274E-18
 -1      3407 9.25208E-05-1.86020E-05-3.16906E-05-2.37557E-06-5.10348E-19-3.99773E-18
 -1      3408 6.22949E-05-2.02094E-05-1.75116E-05 2.77710E-05-9.91664E-19 2.31791E-18
 -1      3409 1.23971E-04-2.85673E-05-4.13718E-05 2.08316E-05 3.82806E-19-2.36386E-18
 -1      3410 1.33222E-04-3.10248E-05-4.41549E-05 1.99461E-05 1.70391E-18-1.41661E-18
 -1      3411 9.50882E-05-2.43636E-05-3.03274E-05-3.27892E-06-1.83236E-18-2.91698E-18
 -1      3412 9.51473E-05-2.42705E-05-3.03917E-05-2.91369E-06-1.72660E-18-2.98959E-18
 -1      3413 9.38172E-05-2.09265E-05-3.12431E-05-4.75599E-06-1.74848E-18-3.57696E-18
 -1      3414 1.36079E-04-5.60498E-05-3.41459E-05 6.29949E-06-1.54767E-18-1.22486E-18
 -1      3415 9.61674E-05-2.78309E-05-2.92796E-05 2.42345E-07-9.33211E-19-2.36616E-18
 -1      3416 9.61637E-05-2.81503E-05-2.91531E-05 4.93917E-07-9.26329E-19-2.11934E-18
 -1      3417 9.61732E-05-2.84138E-05-2.90340E-05 6.54384E-07-9.51305E-19-2.05564E-18
 -1      3418 9.61436E-05-2.86120E-05-2.89444E-05 7.88615E-07-5.91197E-19-1.90456E-18
 -1      3419 9.63641E-05-2.82237E-05-2.92046E-05 4.70883E-07-7.74629E-19-1.96049E-18
 -1      3420 9.61111E-05-2.87664E-05-2.88580E-05 8.64031E-07-4.49118E-19-1.83088E-18
 -1      3421 9.60711E-05-2.88811E-05-2.87965E-05 9.17840E-07-2.05096E-19-1.76956E-18
 -1      3422 9.63429E-05-2.86967E-05-2.89933E-05 7.25743E-07-4.91496E-19-1.69434E-18
 -1      3423 9.60165E-05-2.89609E-05-2.87355E-05 9.35876E-07 3.99248E-20-1.68704E-18
 -1      3424 9.59740E-05-2.90185E-05-2.86950E-05 9.38022E-07 2.80918E-20-1.46224E-18
 -1      3425 9.62583E-05-2.89684E-05-2.88408E-05 8.35991E-07-3.52708E-20-1.78230E-18
 -1      3426 9.59102E-05-2.90480E-05-2.86537E-05 9.20502E-07-1.11122E-19-1.30678E-18
 -1      3427 9.58693E-05-2.90667E-05-2.86288E-05 8.92457E-07-1.38978E-19-1.20090E-18
 -1      3428 9.61424E-05-2.91012E-05-2.87341E-05 8.50835E-07 9.27482E-20-1.69796E-18
 -1      3429 9.58035E-05-2.90628E-05-2.86024E-05 8.55747E-07-4.21421E-19-8.29928E-19
 -1      3430 9.57661E-05-2.90556E-05-2.85890E-05 8.13128E-07-4.21265E-19-7.39492E-19
 -1      3431 9.60150E-05-2.91399E-05-2.86627E-05 8.08517E-07-2.45812E-19-1.34006E-18
 -1      3432 9.57027E-05-2.90298E-05-2.85740E-05 7.69159E-07-5.09378E-19-1.04050E-18
 -1      3433 9.56694E-05-2.90050E-05-2.85690E-05 7.23158E-07-6.37259E-19-1.34153E-18
 -1      3434 9.58878E-05-2.91157E-05-2.86183E-05 7.37561E-07-4.59903E-19-1.24840E-18
 -1      3435 9.56100E-05-2.89647E-05-2.85626E-05 6.80496E-07-8.26640E-19-1.32022E-18
 -1      3436 9.55806E-05-2.89280E-05-2.85639E-05 6.39137E-07-8.15122E-19-1.40431E-18
 -1      3437 9.57667E-05-2.90496E-05-2.85944E-05 6.58745E-07-8.23344E-19-1.72812E-18
 -1      3438 9.55253E-05-2.88775E-05-2.85640E-05 6.04006E-07-7.91366E-19-1.50194E-18
 -1      3439 9.54990E-05-2.88317E-05-2.85701E-05 5.73215E-07-8.30934E-19-1.46950E-18
 -1      3440 9.56534E-05-2.89549E-05-2.85862E-05 5.87106E-07-6.99719E-19-1.36526E-18
 -1      3441 9.54467E-05-2.87731E-05-2.85753E-05 5.50344E-07-6.92366E-19-1.57430E-18
 -1      3442 9.54224E-05-2.87195E-05-2.85853E-05 5.34762E-07-5.32663E-19-1.43859E-18
 -1      3443 9.55469E-05-2.88388E-05-2.85900E-05 5.33832E-07-8.41152E-19-1.59215E-18
 -1      3444 9.53708E-05-2.86530E-05-2.85945E-05 5.28031E-07-3.78071E-19-1.12479E-18
 -1      3445 9.53470E-05-2.85914E-05-2.86079E-05 5.31660E-07-1.88872E-19-9.54964E-19
 -1      3446 9.54440E-05-2.87041E-05-2.86033E-05 5.07695E-07-1.47142E-19-1.33044E-18
 -1      3447 9.52933E-05-2.85158E-05-2.86205E-05 5.44636E-07-3.88037E-19-7.78485E-19
 -1      3448 9.52683E-05-2.84450E-05-2.86368E-05 5.71330E-07-4.64437E-19-5.69166E-19
 -1      3449 9.53397E-05-2.85502E-05-2.86243E-05 5.16225E-07-2.03409E-19-1.22877E-18
 -1      3450 9.52089E-05-2.83583E-05-2.86522E-05 6.07668E-07-3.93585E-19-5.79839E-19
 -1      3451 9.51807E-05-2.82765E-05-2.86713E-05 6.61458E-07-2.12572E-19-8.84879E-19
 -1      3452 9.52276E-05-2.83738E-05-2.86515E-05 5.66659E-07-2.65009E-19-9.37175E-19
 -1      3453 9.51115E-05-2.81758E-05-2.86891E-05 7.25142E-07-2.81709E-19-6.15391E-19
 -1      3454 9.50779E-05-2.80808E-05-2.87109E-05 8.10426E-07-2.35950E-19-6.74123E-19
 -1      3455 9.51000E-05-2.81699E-05-2.86838E-05 6.66553E-07-9.94340E-20-5.83470E-19
 -1      3456 9.49942E-05-2.79632E-05-2.87305E-05 9.05925E-07-2.16533E-19-4.63049E-19
 -1      3457 9.49529E-05-2.78530E-05-2.87547E-05 1.02752E-06-2.57385E-19-3.06416E-19
 -1      3458 9.49482E-05-2.79326E-05-2.87200E-05 8.24176E-07-1.32086E-19-3.95487E-19
 -1      3459 9.48497E-05-2.77160E-05-2.87751E-05 1.15983E-06-1.92831E-19-2.35644E-20
 -1      3460 9.47986E-05-2.75893E-05-2.88013E-05 1.32287E-06 4.77426E-19-6.95338E-20
 -1      3461 9.47626E-05-2.76561E-05-2.87584E-05 1.04870E-06 1.05395E-19-5.31501E-20
 -1      3462 9.46708E-05-2.74312E-05-2.88213E-05 1.49743E-06 7.13722E-19-1.98797E-19
 -1      3463 9.46081E-05-2.72883E-05-2.88483E-05 1.70711E-06 2.33496E-19-6.32230E-19
 -1      3464 9.45332E-05-2.73360E-05-2.87967E-05 1.35020E-06 2.94646E-19 1.14784E-20
 -1      3465 9.44512E-05-2.71096E-05-2.88658E-05 1.92966E-06-2.71553E-19-1.12128E-18
 -1      3466 9.43762E-05-2.69536E-05-2.88919E-05 2.19079E-06-4.76202E-19-1.11445E-18
 -1      3467 9.42504E-05-2.69714E-05-2.88311E-05 1.73940E-06-1.54172E-19-4.31015E-19
 -1      3468 9.41869E-05-2.67584E-05-2.89040E-05 2.46714E-06-4.13420E-19-9.13637E-19
 -1      3469 9.41012E-05-2.65968E-05-2.89264E-05 2.78354E-06-7.18272E-20-6.21308E-19
 -1      3470 9.39064E-05-2.65668E-05-2.88564E-05 2.22743E-06-1.55431E-19-1.26789E-18
 -1      3471 9.38794E-05-2.63947E-05-2.89288E-05 3.11931E-06-2.37980E-20-1.06568E-18
 -1      3472 9.37888E-05-2.62425E-05-2.89437E-05 3.49303E-06-2.05008E-19-1.02364E-18
 -1      3473 9.34974E-05-2.61365E-05-2.88649E-05 2.82542E-06-2.20523E-19-4.62683E-19
 -1      3474 9.35394E-05-2.60518E-05-2.89308E-05 3.89360E-06-1.52963E-19-5.48546E-19
 -1      3475 9.34572E-05-2.59343E-05-2.89327E-05 4.32414E-06 2.82676E-19-3.90675E-19
 -1      3476 9.30277E-05-2.57092E-05-2.88463E-05 3.54452E-06 2.96543E-19-6.49272E-19
 -1      3477 9.31945E-05-2.57862E-05-2.88971E-05 4.79480E-06 4.13663E-20-4.33956E-19
 -1      3478 9.31463E-05-2.57443E-05-2.88793E-05 5.27820E-06 2.62028E-19 3.95511E-20
 -1      3479 9.25150E-05-2.53351E-05-2.87870E-05 4.39646E-06 7.89318E-20-8.75991E-19
 -1      3480 9.28994E-05-2.56880E-05-2.88123E-05 5.82476E-06 3.21644E-19 1.57195E-19
 -1      3481 9.29310E-05-2.57844E-05-2.87673E-05 6.35252E-06 3.38841E-19 6.07314E-19
 -1      3482 9.20004E-05-2.50953E-05-2.86702E-05 5.39525E-06 2.22199E-19-6.90830E-19
 -1      3483 9.27531E-05-2.58942E-05-2.86595E-05 6.98186E-06-5.08625E-19 4.99309E-19
 -1      3484 9.29412E-05-2.62210E-05-2.85804E-05 7.53888E-06-4.82418E-19 1.62503E-19
 -1      3485 9.15619E-05-2.51145E-05-2.84769E-05 6.55988E-06-3.47930E-20-6.09578E-20
 -1      3486 9.29228E-05-2.66039E-05-2.84239E-05 8.25810E-06-3.54613E-19 9.79500E-20
 -1      3487 9.33890E-05-2.72893E-05-2.83079E-05 8.81737E-06 3.54513E-19 2.94124E-19
 -1      3488 9.13366E-05-2.55764E-05-2.81884E-05 7.91674E-06-1.30964E-19-6.56656E-19
 -1      3489 9.36783E-05-2.80926E-05-2.81007E-05 9.62797E-06 9.19765E-20-6.85925E-19
 -1      3490 9.46056E-05-2.93054E-05-2.79559E-05 1.01360E-05-6.19765E-21-1.59591E-18
 -1      3491 9.15520E-05-2.67424E-05-2.77920E-05 9.49721E-06-5.15675E-19-9.29376E-19
 -1      3492 9.54391E-05-3.07192E-05-2.77107E-05 1.10134E-05 1.65955E-18-1.81655E-18
 -1      3493 9.70805E-05-3.26698E-05-2.75704E-05 1.13624E-05 1.72099E-18-9.56703E-19
 -1      3494 9.25740E-05-2.89728E-05-2.72941E-05 1.13168E-05 7.16519E-19-1.84835E-18
 -1      3495 9.88042E-05-3.48485E-05-2.73408E-05 1.21289E-05 8.61591E-19-6.47825E-19
 -1      3496 1.01459E-04-3.76415E-05-2.72847E-05 1.21416E-05 1.06875E-18-6.75609E-19
 -1      3497 9.49773E-05-3.27583E-05-2.67506E-05 1.32672E-05 1.47906E-18-1.48836E-18
 -1      3498 1.04603E-04-4.09946E-05-2.71643E-05 1.24901E-05 5.67752E-19-1.07471E-18
 -1      3499 1.08367E-04-4.44991E-05-2.73544E-05 1.14331E-05 6.33309E-19-9.43077E-19
 -1      3500 9.96815E-05-3.84783E-05-2.63729E-05 1.49376E-05 5.53986E-19-1.04767E-18
 -1      3501 1.13391E-04-4.83482E-05-2.76673E-05 1.05617E-05 1.39102E-19-1.37915E-18
 -1      3502 1.18172E-04-5.16891E-05-2.84289E-05 7.83834E-06-1.04805E-18-2.19982E-18
 -1      3503 1.07627E-04-4.64604E-05-2.63171E-05 1.58165E-05 4.74735E-20-2.22119E-18
 -1      3504 9.43761E-05-2.20109E-05-3.09840E-05-3.77596E-06-1.50770E-18-3.29429E-18
 -1      3505 9.54868E-05-2.88889E-05-2.85405E-05-6.83155E-07 2.95505E-19-5.75697E-19
 -1      3506 9.55021E-05-2.89170E-05-2.85368E-05-7.29759E-07 4.09116E-19-7.47754E-19
 -1      3507 9.55500E-05-2.89500E-05-2.85414E-05-7.77530E-07 3.60189E-19-6.56146E-19
 -1      3508 9.55685E-05-2.89669E-05-2.85435E-05-8.28321E-07 4.21192E-19-4.51404E-19
 -1      3509 9.56706E-05-2.90067E-05-2.85716E-05-7.23730E-07 4.60829E-19-4.74806E-19
 -1      3510 9.53794E-05-2.87176E-05-2.85677E-05-5.57142E-07-5.40515E-19-4.19179E-19
 -1      3511 9.53901E-05-2.87610E-05-2.85563E-05-5.78195E-07-2.79252E-19-6.99094E-19
 -1      3512 9.53306E-05-2.86110E-05-2.85924E-05-5.43678E-07-3.04371E-19-1.58831E-19
 -1      3513 9.53403E-05-2.86614E-05-2.85779E-05-5.45419E-07-4.10878E-19-3.34068E-19
 -1      3514 9.54183E-05-2.87140E-05-2.85881E-05-5.39981E-07-5.46591E-19-1.28531E-19
 -1      3515 9.52810E-05-2.84886E-05-2.86234E-05-5.73692E-07-2.45009E-19-2.06371E-19
 -1      3516 9.52907E-05-2.85469E-05-2.86060E-05-5.52178E-07-2.24022E-19-5.26400E-19
 -1      3517 9.53400E-05-2.85817E-05-2.86110E-05-5.39255E-07-2.59081E-19 1.29801E-19
 -1      3518 9.52263E-05-2.83468E-05-2.86605E-05-6.55140E-07-4.51215E-19-5.82773E-19
 -1      3519 9.52372E-05-2.84148E-05-2.86400E-05-6.06193E-07-2.49986E-19-5.17794E-19
 -1      3520 9.52569E-05-2.84295E-05-2.86403E-05-5.82008E-07-2.44921E-19-4.03576E-19
 -1      3521 9.51617E-05-2.81806E-05-2.87038E-05-7.96809E-07-3.75472E-19 1.06502E-20
 -1      3522 9.51752E-05-2.82604E-05-2.86800E-05-7.15782E-07-2.72745E-19-1.50094E-19
 -1      3523 9.51626E-05-2.82525E-05-2.86755E-05-6.76146E-07-4.53086E-19-6.70979E-19
 -1      3524 9.50813E-05-2.79842E-05-2.87532E-05-1.00860E-06-5.23870E-19-1.22086E-19
 -1      3525 9.50990E-05-2.80784E-05-2.87259E-05-8.90258E-07-3.41184E-19-1.56376E-19
 -1      3526 9.50495E-05-2.80443E-05-2.87159E-05-8.30338E-07-3.60217E-19-5.33482E-19
 -1      3527 9.49783E-05-2.77517E-05-2.88083E-05-1.30157E-06 1.06820E-19-6.83062E-19
 -1      3528 9.50022E-05-2.78627E-05-2.87775E-05-1.14011E-06 3.63998E-20-7.51552E-19
 -1      3529 9.49086E-05-2.77980E-05-2.87606E-05-1.05422E-06 2.34144E-19-9.93658E-19
 -1      3530 9.48448E-05-2.74780E-05-2.88680E-05-1.68763E-06 4.04568E-19-9.83028E-19
 -1      3531 9.48770E-05-2.76076E-05-2.88339E-05-1.47690E-06 4.75084E-20-6.30701E-19
 -1      3532 9.47295E-05-2.75065E-05-2.88082E-05-1.35837E-06 9.00331E-20-1.60616E-18
 -1      3533 9.46723E-05-2.71602E-05-2.89298E-05-2.17900E-06 1.10135E-19-5.17003E-19
 -1      3534 9.47151E-05-2.73088E-05-2.88936E-05-1.91288E-06 1.88925E-19-8.59198E-19
 -1      3535 9.45004E-05-2.71638E-05-2.88562E-05-1.75404E-06 1.39649E-19-1.46576E-18
 -1      3536 9.44522E-05-2.67997E-05-2.89894E-05-2.78727E-06 2.55970E-19 1.06018E-20
 -1      3537 9.45077E-05-2.69652E-05-2.89530E-05-2.46029E-06 1.70867E-19 2.65777E-19
 -1      3538 9.42088E-05-2.67670E-05-2.89003E-05-2.25260E-06-3.18503E-19-8.64094E-19
 -1      3539 9.41780E-05-2.64063E-05-2.90401E-05-3.52224E-06 2.99803E-19-3.46807E-19
 -1      3540 9.42466E-05-2.65817E-05-2.90066E-05-3.13038E-06 7.01408E-19 4.71754E-19
 -1      3541 9.38420E-05-2.63186E-05-2.89343E-05-2.86498E-06 3.77832E-19-8.91762E-19
 -1      3542 9.38488E-05-2.60031E-05-2.90711E-05-4.39073E-06 2.91494E-19-1.70925E-19
 -1      3543 9.39272E-05-2.61739E-05-2.90458E-05-3.93238E-06 2.36130E-19-1.92463E-19
 -1      3544 9.33895E-05-2.58306E-05-2.89483E-05-3.60111E-06 2.73928E-19 3.10209E-20
 -1      3545 9.34759E-05-2.56364E-05-2.90675E-05-5.39560E-06 1.64168E-19 3.65735E-19
 -1      3546 9.35532E-05-2.57749E-05-2.90576E-05-4.87258E-06 2.39477E-19 8.64551E-20
 -1      3547 9.28470E-05-2.53312E-05-2.89287E-05-4.47009E-06 3.38035E-19-5.29036E-20
 -1      3548 9.30955E-05-2.53880E-05-2.90091E-05-6.53585E-06 3.41549E-19-4.13187E-19
 -1      3549 9.31456E-05-2.54465E-05-2.90245E-05-5.95422E-06 4.03721E-19 1.93324E-19
 -1      3550 9.22232E-05-2.48741E-05-2.88565E-05-5.48178E-06 3.19215E-19 3.46009E-19
 -1      3551 9.27885E-05-2.53954E-05-2.88711E-05-7.80769E-06 3.01543E-19-1.61826E-18
 -1      3552 9.27582E-05-2.52951E-05-2.89234E-05-7.17860E-06 3.95184E-19-9.74938E-19
 -1      3553 9.15527E-05-2.45522E-05-2.87073E-05-6.65090E-06 7.39011E-19-7.13005E-19
 -1      3554 9.27136E-05-2.58771E-05-2.86267E-05-9.20559E-06-1.61387E-18-1.97709E-18
 -1      3555 9.25041E-05-2.54944E-05-2.87277E-05-8.54713E-06-8.24703E-19-2.03903E-18
 -1      3556 9.09165E-05-2.45187E-05-2.84515E-05-8.00455E-06-2.53757E-19-1.34712E-18
 -1      3557 9.31557E-05-2.71632E-05-2.82559E-05-1.07174E-05-1.04837E-18-9.76136E-19
 -1      3558 9.25966E-05-2.63142E-05-2.84115E-05-1.00609E-05-1.51091E-18-1.43526E-18
 -1      3559 9.04771E-05-2.50151E-05-2.80574E-05-9.59133E-06-1.72774E-18-1.48796E-18
 -1      3560 9.45889E-05-2.97153E-05-2.77632E-05-1.22939E-05-6.59073E-19-1.28301E-19
 -1      3561 9.34104E-05-2.81504E-05-2.79628E-05-1.17067E-05-6.09397E-19-1.56253E-19
 -1      3562 9.05334E-05-2.64069E-05-2.75012E-05-1.14836E-05-1.08175E-18-1.70968E-18
 -1      3563 9.77618E-05-3.41316E-05-2.72129E-05-1.37395E-05-8.01531E-19 7.50997E-21
 -1      3564 9.55722E-05-3.15547E-05-2.74061E-05-1.34069E-05-4.05323E-19-5.95652E-19
 -1      3565 9.16116E-05-2.92331E-05-2.67842E-05-1.37582E-05-5.05684E-19-1.21813E-18
 -1      3566 1.03652E-04-4.09542E-05-2.68180E-05-1.45247E-05 1.83958E-19 5.33697E-21
 -1      3567 1.00047E-04-3.71659E-05-2.68653E-05-1.48344E-05-3.32260E-19-1.01469E-19
 -1      3568 9.45552E-05-3.41340E-05-2.59675E-05-1.63648E-05-7.23962E-19-5.69736E-19
 -1      3569 1.12511E-04-4.98720E-05-2.68752E-05-1.35916E-05-7.63560E-19-5.43954E-20
 -1      3570 1.07990E-04-4.51641E-05-2.67076E-05-1.47794E-05 5.80218E-20-5.50373E-20
 -1      3571 1.00979E-04-4.19578E-05-2.53164E-05-1.87471E-05 2.11131E-19-9.18422E-19
 -1      3572 1.32775E-04-5.50856E-05-3.30922E-05-4.14612E-06-2.65577E-18 2.63004E-19
 -1      3573 9.34305E-05-4.21598E-05-2.19326E-05-2.54501E-05-3.10266E-19-8.20854E-19
 -1      3574 1.06341E-04-5.04862E-05-2.35215E-05-2.39550E-05-5.54039E-19-7.74215E-19
 -1      3575 9.59024E-05-2.73808E-05-2.93740E-05 9.92642E-08 1.35304E-18-1.73392E-18
 -1      3576 9.58847E-05-2.69112E-05-2.95492E-05 5.56512E-07 1.44950E-18-1.71239E-18
 -1      3577 1.31816E-04-5.14755E-05-3.44348E-05-1.30110E-06 8.40045E-19 1.18953E-18
 -1      3578 1.25914E-04-5.48257E-05-3.04799E-05 1.65450E-05 6.94474E-19 2.75474E-18
 -1      3579 1.12692E-04-4.50922E-05-2.90158E-05 2.32498E-05 3.26690E-19 1.08072E-18
 -1      3580 7.92315E-05-3.25441E-05-1.99721E-05 2.60072E-05-1.01631E-19-1.53014E-18
 -1      3581 6.71320E-05-2.40210E-05-1.82864E-05 2.13728E-05-1.03762E-20-2.14326E-18
 -1      3582 6.83377E-05-2.50813E-05-1.83116E-05-2.18333E-05-1.65376E-18-1.88875E-18
 -1      3583 7.71578E-05-3.15595E-05-1.95099E-05-2.54287E-05-9.40240E-19-8.59738E-19
 -1      3584 5.41683E-05-1.69909E-05-1.55796E-05-8.51371E-06-2.34099E-19-2.78351E-18
 -1      3585 1.15145E-04-5.38498E-05-2.62335E-05-3.40181E-05 1.78089E-19 1.55282E-18
 -1      3586 1.21092E-04-5.71272E-05-2.74014E-05-3.14570E-05-5.75929E-19 2.11535E-18
 -1      3587 9.54306E-05-2.88104E-05-2.85499E-05-6.06398E-07 5.88769E-20-7.92046E-19
 -1      3588 9.54431E-05-2.88468E-05-2.85420E-05-6.42635E-07 2.44228E-19-7.77181E-19
 -1      3589 9.55803E-05-2.89277E-05-2.85664E-05-6.41031E-07 2.03750E-19-6.11406E-19
 -1      3590 9.54971E-05-2.88292E-05-2.85727E-05-5.76607E-07-1.68025E-19-7.71400E-19
 -1      3591 1.18630E-04-5.54790E-05-2.70816E-05-1.42081E-05-9.65022E-19-8.62452E-19
 -1      3592 1.21427E-04-5.03268E-05-3.04500E-05-1.60141E-05-3.87518E-20-1.50756E-18
 -1      3593 9.57796E-05-2.89308E-05-2.86492E-05-1.00912E-06 3.32933E-19-1.16269E-18
 -1      3594 9.58101E-05-2.88712E-05-2.86853E-05-1.00613E-06 5.50391E-19-1.22732E-18
 -1      3595 1.22797E-04-5.27057E-05-2.98262E-05 1.91600E-05 8.43903E-19 1.62570E-18
 -1      3596 1.15570E-04-4.91661E-05-2.85700E-05 2.58659E-05 7.73295E-19 1.57632E-18
 -1      3597 1.28180E-04-5.63224E-05-3.07891E-05 2.47728E-06-1.73897E-18-3.77022E-19
 -1      3598 1.28601E-04-5.21733E-05-3.29600E-05-6.04155E-06 5.85753E-19-2.07708E-19
 -1      3599 5.56696E-05-1.49837E-05-1.72960E-05-6.61381E-07 9.38140E-19-1.64608E-18
 -1      3600 5.87667E-05-1.83309E-05-1.72109E-05-1.36479E-05-2.45388E-19-2.62040E-18
 -1      3601 6.68553E-05-2.11248E-05-1.94093E-05-1.47041E-05-5.64461E-19-2.04521E-18
 -1      3602 9.22408E-05-1.81263E-05-3.17754E-05-1.00957E-06 4.22054E-20-3.96118E-18
 -1      3603 9.23531E-05-1.83171E-05-3.17449E-05-1.76087E-06-3.43712E-19-3.94078E-18
 -1      3604 9.33438E-05-1.99869E-05-3.14190E-05-1.77194E-06-3.92746E-19-3.78287E-18
 -1      3605 9.56937E-05-2.55578E-05-3.00624E-05-1.51116E-06-1.16273E-18-2.83992E-18
 -1      3606 9.58282E-05-2.62648E-05-2.98246E-05-8.79480E-07-8.98595E-19-2.73371E-18
 -1      3607 9.60331E-05-2.69124E-05-2.96140E-05-4.47011E-07-8.60860E-19-2.66643E-18
 -1      3608 9.60849E-05-2.74095E-05-2.94400E-05-3.46889E-08-9.65489E-19-2.52637E-18
 -1      3609 9.62725E-05-2.74635E-05-2.94900E-05 1.24107E-08-8.07007E-19-2.34845E-18
 -1      3610 1.20460E-04-5.99096E-05-2.60155E-05-1.90757E-05-1.02290E-18-1.57315E-18
 -1      3611 6.21480E-05-1.99900E-05-1.78697E-05 1.71226E-05-3.42307E-19-1.62249E-18
 -1      3612 5.91451E-05-1.72281E-05-1.79074E-05 1.00453E-05-1.89219E-19-1.71408E-18
 -1      3613 7.10194E-05-2.35179E-05-2.01748E-05 1.77577E-05-6.65169E-19-2.47346E-18
 -1      3614 9.48973E-05-2.35329E-05-3.05904E-05-2.61852E-06-1.29826E-18-3.12704E-18
 -1      3615 1.29057E-04-2.08468E-05-4.70014E-05 1.88836E-05 1.81477E-18-1.65023E-18
 -1      3616 9.44819E-05-2.23699E-05-3.09271E-05-2.60592E-06-1.01017E-18-3.27926E-18
 -1      3617 9.53128E-05-2.43808E-05-3.03823E-05-1.93015E-06-1.12970E-18-2.94184E-18
 -1      3618 9.53941E-05-2.44789E-05-3.03944E-05-1.56843E-06-8.74732E-19-2.84080E-18
 -1      3619 9.42509E-05-2.18663E-05-3.10300E-05-2.15538E-06-5.95190E-19-3.41848E-18
 -1      3620 9.59506E-05-2.80889E-05-2.90882E-05-5.00056E-07 1.06497E-18-1.50403E-18
 -1      3621 9.59682E-05-2.77848E-05-2.92124E-05-2.22222E-07 1.25503E-18-1.60683E-18
 -1      3622 9.61116E-05-2.74121E-05-2.94441E-05 4.71095E-08 1.19498E-18-1.80646E-18
 -1      3623 1.21454E-04-2.12473E-05-4.31488E-05 1.81293E-05 9.52912E-20-3.18813E-18
 -1      3624 1.25898E-04-5.31029E-05-3.11687E-05-1.32956E-05-6.20108E-19-1.48634E-18
 -1      3625 9.49374E-05-2.35269E-05-3.06218E-05 3.05380E-06 1.92521E-18-2.30126E-18
 -1      3626 9.46674E-05-2.28285E-05-3.07886E-05 2.80860E-06 1.61239E-18-2.54697E-18
 -1      3627 1.17731E-04-5.50958E-05-2.70563E-05 1.50020E-05-1.48562E-20-2.36759E-18
 -1      3628 1.23672E-04-5.55865E-05-2.90254E-05 6.97606E-06-9.87812E-19-8.34963E-19
 -1      3629 9.58586E-05-2.87924E-05-2.87434E-05-9.82438E-07 3.61628E-19-1.33125E-18
 -1      3630 9.58913E-05-2.86798E-05-2.88004E-05-9.22848E-07 4.33878E-19-1.49263E-18
 -1      3631 9.60812E-05-2.88868E-05-2.88001E-05-9.13461E-07 3.23546E-19-1.43280E-18
 -1      3632 9.31402E-05-1.96153E-05-3.14925E-05-5.88234E-07 1.86553E-19-3.61510E-18
 -1      3633 9.57690E-05-2.90587E-05-2.85918E-05-8.12566E-07 6.32612E-19-7.11063E-19
 -1      3634 9.56206E-05-2.89865E-05-2.85563E-05-8.76537E-07 7.16879E-19-6.79223E-19
 -1      3635 9.56431E-05-2.89870E-05-2.85662E-05-9.22965E-07 7.83004E-19-5.90485E-19
 -1      3636 9.16444E-05-4.01649E-05-2.21637E-05 2.55242E-05-3.36934E-19 4.76006E-19
 -1      3637 8.53957E-05-3.59277E-05-2.08667E-05 2.60330E-05-4.83054E-19-4.20989E-19
 -1      3638 8.04044E-05-3.06247E-05-2.13571E-05 2.26610E-05-3.12621E-19-1.70502E-18
 -1      3639 9.56446E-05-2.84311E-05-2.88100E-05-8.62719E-07 8.45369E-19-1.44745E-18
 -1      3640 8.44513E-05-3.48081E-05-2.10439E-05-2.49343E-05-2.25708E-19-1.20898E-18
 -1      3641 9.66375E-05-4.03315E-05-2.41430E-05-2.06448E-05 9.70746E-20-1.69591E-18
 -1      3642 9.23962E-05-3.54766E-05-2.43884E-05-1.92902E-05 4.60115E-19-1.51956E-18
 -1      3643 8.27362E-05-3.11528E-05-2.20123E-05-2.16191E-05-5.75003E-19-2.46900E-18
 -1      3644 9.58715E-05-2.62716E-05-2.98284E-05 8.92339E-07 1.40392E-18-2.02799E-18
 -1      3645 9.57111E-05-2.62721E-05-2.97670E-05 1.06222E-06 1.34787E-18-1.80454E-18
 -1      3646 5.99248E-05-1.58795E-05-1.86298E-05 4.77740E-06 3.38267E-19-1.99406E-18
 -1      3647 6.25967E-05-1.62057E-05-1.98778E-05-8.49776E-08 2.01045E-19-2.18185E-18
 -1      3648 6.54398E-05-1.78802E-05-2.03427E-05 9.08963E-06-1.07185E-18-3.16236E-18
 -1      3649 9.56198E-05-2.57156E-05-2.99549E-05 1.65920E-06 1.46880E-18-1.83072E-18
 -1      3650 9.57248E-05-2.89626E-05-2.86108E-05-9.92207E-07 8.91431E-20-9.80094E-19
 -1      3651 9.59811E-05-2.90236E-05-2.86983E-05-9.34983E-07 2.19614E-19-1.23079E-18
 -1      3652 9.56981E-05-2.89862E-05-2.85899E-05-9.62101E-07 2.22003E-19-8.50822E-19
 -1      3653 9.40898E-05-2.15134E-05-3.11182E-05 1.76798E-06 1.29439E-18-3.41508E-18
 -1      3654 9.39535E-05-2.12231E-05-3.11773E-05 1.24870E-06 1.01237E-18-3.50627E-18
 -1      3655 9.59910E-05-2.62937E-05-2.98670E-05-7.11808E-07-9.00229E-19-2.61127E-18
 -1      3656 9.38658E-05-2.10507E-05-3.12183E-05 8.07539E-07 7.86619E-19-3.51150E-18
 -1      3657 9.38179E-05-2.09518E-05-3.12377E-05 2.46576E-07 5.03831E-19-3.42853E-18
 -1      3658 9.46119E-05-2.23915E-05-3.09348E-05 8.26725E-07 8.14848E-19-3.25195E-18
 -1      3659 9.44636E-05-2.23391E-05-3.09270E-05 2.56166E-06 1.59019E-18-3.00797E-18
 -1      3660 9.42509E-05-2.18515E-05-3.10328E-05 2.13657E-06 1.33927E-18-3.17233E-18
 -1      3661 9.48076E-05-2.28896E-05-3.08077E-05 1.54731E-06 1.23108E-18-3.12077E-18
 -1      3662 9.50897E-05-2.37041E-05-3.05833E-05 2.08034E-06 1.55126E-18-2.66118E-18
 -1      3663 9.65206E-05-2.80247E-05-2.93507E-05 2.92170E-07-6.05689E-19-2.09105E-18
 -1      3664 9.65322E-05-2.83475E-05-2.92257E-05 4.72661E-07-6.75163E-19-1.99134E-18
 -1      3665 9.51638E-05-2.44108E-05-3.03161E-05 2.86856E-06 2.00712E-18-2.04263E-18
 -1      3666 9.54184E-05-2.50643E-05-3.01451E-05 2.09200E-06 1.71594E-18-1.95835E-18
 -1      3667 9.65414E-05-2.86098E-05-2.91097E-05 5.72560E-07-4.96871E-19-1.78476E-18
 -1      3668 9.65104E-05-2.88064E-05-2.90178E-05 6.67230E-07-2.62079E-19-1.74105E-18
 -1      3669 9.66725E-05-2.84362E-05-2.92446E-05 4.23543E-07-3.69324E-19-1.78406E-18
 -1      3670 9.64700E-05-2.89562E-05-2.89316E-05 7.09421E-07-2.55411E-19-1.69462E-18
 -1      3671 9.64164E-05-2.90638E-05-2.88659E-05 7.44875E-07 1.01462E-19-1.67340E-18
 -1      3672 9.66410E-05-2.88873E-05-2.90387E-05 5.79744E-07-2.38381E-19-1.46376E-18
 -1      3673 9.63486E-05-2.91356E-05-2.88036E-05 7.48764E-07 1.99616E-19-1.72212E-18
 -1      3674 9.62852E-05-2.91818E-05-2.87582E-05 7.46364E-07 3.44597E-20-1.81765E-18
 -1      3675 9.65334E-05-2.91351E-05-2.88868E-05 6.40097E-07-9.25444E-21-1.72874E-18
 -1      3676 9.62047E-05-2.92005E-05-2.87148E-05 7.27202E-07-8.53500E-20-1.59626E-18
 -1      3677 9.61391E-05-2.92051E-05-2.86851E-05 7.03221E-07-1.62369E-19-1.52930E-18
 -1      3678 9.63862E-05-2.92416E-05-2.87782E-05 6.38241E-07 1.16077E-20-1.80984E-18
 -1      3679 9.60550E-05-2.91882E-05-2.86565E-05 6.72577E-07-3.27079E-19-1.52081E-18
 -1      3680 9.59916E-05-2.91649E-05-2.86388E-05 6.39104E-07-4.14071E-19-1.46388E-18
 -1      3681 9.62231E-05-2.92519E-05-2.87038E-05 6.00380E-07-1.35155E-19-1.83582E-18
 -1      3682 9.59089E-05-2.91245E-05-2.86217E-05 6.05477E-07-6.50063E-19-1.27649E-18
 -1      3683 9.58494E-05-2.90824E-05-2.86131E-05 5.71260E-07-9.18238E-19-1.29723E-18
 -1      3684 9.60579E-05-2.91975E-05-2.86561E-05 5.46426E-07-6.42072E-19-1.51277E-18
 -1      3685 9.57703E-05-2.90260E-05-2.86048E-05 5.40792E-07-9.11103E-19-9.61203E-19
 -1      3686 9.57148E-05-2.89705E-05-2.86033E-05 5.12269E-07-6.60302E-19-9.38047E-19
 -1      3687 9.58977E-05-2.90996E-05-2.86291E-05 4.90866E-07-6.53001E-19-9.45302E-19
 -1      3688 9.56389E-05-2.89023E-05-2.86019E-05 4.89579E-07-7.44593E-19-9.50448E-19
 -1      3689 9.55862E-05-2.88360E-05-2.86058E-05 4.71665E-07-8.38110E-19-1.02365E-18
 -1      3690 9.57442E-05-2.89707E-05-2.86183E-05 4.44431E-07-7.52790E-19-7.43257E-19
 -1      3691 9.55117E-05-2.87574E-05-2.86098E-05 4.60359E-07-3.84440E-19-6.90286E-19
 -1      3692 9.54597E-05-2.86811E-05-2.86180E-05 4.57021E-07 1.21025E-19-7.72310E-19
 -1      3693 9.55953E-05-2.88171E-05-2.86199E-05 4.15391E-07-3.53926E-19-4.12947E-19
 -1      3694 9.53832E-05-2.85916E-05-2.86262E-05 4.60204E-07-4.08446E-20-1.03221E-18
 -1      3695 9.53291E-05-2.85041E-05-2.86379E-05 4.75048E-07-1.44764E-19-1.10060E-18
 -1      3696 9.54457E-05-2.86402E-05-2.86312E-05 4.10370E-07-1.59048E-19-4.36500E-19
 -1      3697 9.52461E-05-2.84016E-05-2.86492E-05 4.95774E-07 1.10057E-19-1.17542E-18
 -1      3698 9.51862E-05-2.83008E-05-2.86638E-05 5.32378E-07 3.12150E-20-8.35046E-19
 -1      3699 9.52879E-05-2.84374E-05-2.86500E-05 4.35460E-07 2.08588E-19-6.95601E-19
 -1      3700 9.50915E-05-2.81823E-05-2.86775E-05 5.73873E-07 2.44178E-19-3.23907E-19
 -1      3701 9.50216E-05-2.80651E-05-2.86943E-05 6.36028E-07 3.95725E-19-2.28952E-19
 -1      3702 9.51120E-05-2.82035E-05-2.86743E-05 4.96768E-07 4.12588E-19-4.62947E-19
 -1      3703 9.49088E-05-2.79269E-05-2.87092E-05 7.01881E-07 1.66119E-20 3.96033E-20
 -1      3704 9.48244E-05-2.77903E-05-2.87275E-05 7.93739E-07 1.68155E-19 3.53571E-19
 -1      3705 9.49065E-05-2.79316E-05-2.87022E-05 6.00811E-07 4.69944E-19 7.12170E-20
 -1      3706 9.46865E-05-2.76285E-05-2.87425E-05 8.88049E-07-1.08221E-19 3.85050E-19
 -1      3707 9.45824E-05-2.74696E-05-2.87611E-05 1.01416E-06 3.68379E-20 2.43581E-19
 -1      3708 9.46583E-05-2.76141E-05-2.87312E-05 7.54867E-07-2.57979E-20 7.46026E-19
 -1      3709 9.44120E-05-2.72811E-05-2.87746E-05 1.14160E-06-1.11460E-19-2.30870E-19
 -1      3710 9.42832E-05-2.70983E-05-2.87919E-05 1.30688E-06-7.35334E-20-4.42780E-19
 -1      3711 9.43530E-05-2.72436E-05-2.87583E-05 9.67170E-07-9.51375E-20 2.73951E-19
 -1      3712 9.40725E-05-2.68813E-05-2.88013E-05 1.47273E-06 1.05424E-19-6.78359E-19
 -1      3713 9.39144E-05-2.66748E-05-2.88152E-05 1.68230E-06-1.20609E-19-1.05030E-18
 -1      3714 9.39752E-05-2.68151E-05-2.87791E-05 1.24703E-06-6.17986E-20-1.39906E-18
 -1      3715 9.36560E-05-2.64305E-05-2.88172E-05 1.89251E-06-3.62601E-19-9.13015E-19
 -1      3716 9.34654E-05-2.62044E-05-2.88242E-05 2.15160E-06-2.85765E-19-1.10869E-18
 -1      3717 9.35102E-05-2.63276E-05-2.87877E-05 1.60495E-06-1.80779E-19-6.74681E-19
 -1      3718 9.31536E-05-2.59381E-05-2.88140E-05 2.41301E-06-2.31276E-19-8.56371E-19
 -1      3719 9.29301E-05-2.57023E-05-2.88095E-05 2.72690E-06-6.58461E-20-5.17167E-19
 -1      3720 9.29444E-05-2.57873E-05-2.87757E-05 2.05298E-06-3.29210E-19-7.93793E-19
 -1      3721 9.25615E-05-2.54260E-05-2.87811E-05 3.04768E-06 1.01929E-19-5.81326E-20
 -1      3722 9.23101E-05-2.51988E-05-2.87589E-05 3.42193E-06-3.09594E-20-1.39405E-19
 -1      3723 9.22685E-05-2.52110E-05-2.87319E-05 2.60551E-06 2.97606E-20 1.85581E-19
 -1      3724 9.18864E-05-2.49342E-05-2.87039E-05 3.81275E-06-3.18728E-19-1.28383E-18
 -1      3725 9.16210E-05-2.47462E-05-2.86562E-05 4.25399E-06-4.41950E-20-1.32440E-18
 -1      3726 9.14802E-05-2.46315E-05-2.86414E-05 3.28114E-06-5.07910E-19-1.12753E-18
 -1      3727 9.11517E-05-2.45283E-05-2.85645E-05 4.73013E-06 3.91844E-20-1.33869E-18
 -1      3728 9.09009E-05-2.44274E-05-2.84817E-05 5.24757E-06 3.26831E-19-1.13650E-18
 -1      3729 9.05894E-05-2.41033E-05-2.84852E-05 4.10629E-06 1.46947E-19-1.82414E-18
 -1      3730 9.04080E-05-2.43100E-05-2.83410E-05 5.83258E-06 2.28962E-19-1.39286E-18
 -1      3731 9.02243E-05-2.43684E-05-2.82127E-05 6.44038E-06-1.07771E-19-6.48037E-19
 -1      3732 8.96252E-05-2.37113E-05-2.82400E-05 5.12185E-06 9.08792E-20-1.82214E-18
 -1      3733 8.97505E-05-2.44303E-05-2.80089E-05 7.17108E-06-4.25984E-19-2.24344E-19
 -1      3734 8.97236E-05-2.47535E-05-2.78257E-05 7.89030E-06 2.55289E-19-2.36334E-19
 -1      3735 8.86474E-05-2.35815E-05-2.78779E-05 6.39344E-06-2.44315E-19-4.73437E-19
 -1      3736 8.93451E-05-2.51082E-05-2.75449E-05 8.82164E-06-2.20092E-19-4.41767E-19
 -1      3737 8.96224E-05-2.58453E-05-2.73020E-05 9.67839E-06-1.06153E-18-8.33506E-19
 -1      3738 8.77668E-05-2.38986E-05-2.73686E-05 8.02436E-06-3.28732E-19-4.76203E-19
 -1      3739 8.94736E-05-2.66554E-05-2.69338E-05 1.08904E-05-7.38540E-19-6.21523E-19
 -1      3740 9.02817E-05-2.80138E-05-2.66391E-05 1.18987E-05 7.64276E-19-1.20657E-18
 -1      3741 8.71749E-05-2.49247E-05-2.66838E-05 1.01708E-05-6.23682E-19-2.95946E-19
 -1      3742 9.06365E-05-2.95219E-05-2.61854E-05 1.34833E-05 1.90283E-18-1.58855E-18
 -1      3743 9.26112E-05-3.19020E-05-2.59455E-05 1.44428E-05 1.68516E-18-1.07916E-18
 -1      3744 8.72781E-05-2.70862E-05-2.58070E-05 1.30775E-05 7.60607E-19-8.93658E-19
 -1      3745 9.25414E-05-3.50952E-05-2.45967E-05 1.84133E-05 3.81813E-19-1.02524E-18
 -1      3746 9.56007E-05-3.86938E-05-2.42367E-05 1.99323E-05-1.04814E-19-1.28961E-18
 -1      3747 1.00115E-04-4.33844E-05-2.42172E-05 2.07061E-05-5.12759E-19-1.39385E-18
 -1      3748 9.57774E-05-2.90520E-05-2.85952E-05-6.43145E-07 2.74731E-19-8.33805E-19
 -1      3749 9.58254E-05-2.90865E-05-2.86022E-05-6.82804E-07 5.06732E-19-6.91977E-19
 -1      3750 6.60079E-05-1.82905E-05-2.03851E-05-1.00571E-05-1.14872E-19-1.79370E-18
 -1      3751 7.35510E-05-2.39858E-05-2.12306E-05-1.74453E-05-8.34241E-19-1.74493E-18
 -1      3752 9.53451E-05-2.85457E-05-2.86268E-05-5.07908E-07-2.72541E-19-4.49167E-19
 -1      3753 9.53854E-05-2.86221E-05-2.86141E-05-4.97025E-07-2.58618E-19-2.92988E-19
 -1      3754 9.54510E-05-2.87018E-05-2.86053E-05-4.97456E-07-4.17413E-19-5.12352E-19
 -1      3755 9.54904E-05-2.87682E-05-2.85961E-05-5.05608E-07-4.75784E-19-6.13512E-19
 -1      3756 9.54518E-05-2.86712E-05-2.86206E-05-4.60118E-07-3.38844E-19-4.31297E-19
 -1      3757 9.50988E-05-2.81564E-05-2.86880E-05-6.61044E-07-4.95294E-19-4.53154E-19
 -1      3758 9.51506E-05-2.82598E-05-2.86695E-05-6.00528E-07-4.16147E-19-4.12293E-19
 -1      3759 9.49400E-05-2.79097E-05-2.87255E-05-8.19189E-07-1.00343E-19-1.25540E-18
 -1      3760 9.50035E-05-2.80316E-05-2.87048E-05-7.27493E-07-1.81386E-19-8.95066E-19
 -1      3761 9.49951E-05-2.80310E-05-2.86979E-05-6.43874E-07 7.85897E-20-1.14324E-18
 -1      3762 9.47421E-05-2.76177E-05-2.87658E-05-1.04326E-06 3.80593E-19-1.28306E-18
 -1      3763 9.48222E-05-2.77619E-05-2.87434E-05-9.15615E-07 1.82918E-19-1.24208E-18
 -1      3764 9.47841E-05-2.77400E-05-2.87315E-05-8.02456E-07 2.25166E-20-1.67622E-18
 -1      3765 9.44916E-05-2.72724E-05-2.88063E-05-1.34283E-06 1.04432E-19-1.02905E-18
 -1      3766 9.45940E-05-2.74423E-05-2.87834E-05-1.17415E-06 2.94613E-19-8.82873E-19
 -1      3767 9.45210E-05-2.73958E-05-2.87654E-05-1.02251E-06-9.42070E-20-5.53358E-19
 -1      3768 9.41732E-05-2.68672E-05-2.88434E-05-1.72785E-06-4.78528E-19-1.12146E-18
 -1      3769 9.43042E-05-2.70653E-05-2.88218E-05-1.51295E-06-1.18153E-19-1.43644E-18
 -1      3770 9.41890E-05-2.69896E-05-2.87962E-05-1.31249E-06-6.45989E-20-9.88625E-19
 -1      3771 9.37706E-05-2.63991E-05-2.88715E-05-2.20824E-06-2.98934E-20-6.25671E-19
 -1      3772 9.39368E-05-2.66259E-05-2.88538E-05-1.94212E-06-1.34286E-19-5.36446E-19
 -1      3773 9.37696E-05-2.65147E-05-2.88188E-05-1.68107E-06-5.40311E-19-1.03557E-18
 -1      3774 9.32674E-05-2.58710E-05-2.88820E-05-2.79345E-06 1.85457E-19-8.64617E-19
 -1      3775 9.34748E-05-2.61233E-05-2.88725E-05-2.47163E-06-7.86363E-20-1.01174E-18
 -1      3776 9.32429E-05-2.59685E-05-2.88257E-05-2.13686E-06 1.05608E-19-9.41232E-19
 -1      3777 9.26489E-05-2.52963E-05-2.88632E-05-3.49253E-06 1.75845E-19-5.50960E-19
 -1      3778 9.29020E-05-2.55652E-05-2.88677E-05-3.11111E-06 4.34733E-19-7.71753E-19
 -1      3779 9.25884E-05-2.53552E-05-2.88064E-05-2.68844E-06-5.64171E-20-1.49699E-18
 -1      3780 9.19067E-05-2.47049E-05-2.87981E-05-4.31529E-06 5.09089E-19-8.37043E-19
 -1      3781 9.22052E-05-2.49717E-05-2.88252E-05-3.87046E-06 2.46947E-19-8.17359E-19
 -1      3782 9.17871E-05-2.46902E-05-2.87461E-05-3.34529E-06 3.11815E-19-1.39757E-18
 -1      3783 9.10447E-05-2.41521E-05-2.86644E-05-5.27581E-06 6.40647E-19-1.19350E-18
 -1      3784 9.13792E-05-2.43837E-05-2.87252E-05-4.76227E-06 5.58161E-19-5.56476E-19
 -1      3785 9.08241E-05-2.40057E-05-2.86246E-05-4.12054E-06 3.89528E-19-1.93643E-18
 -1      3786 9.00909E-05-2.37314E-05-2.84333E-05-6.39992E-06 3.33530E-19-4.53970E-19
 -1      3787 9.04344E-05-2.38724E-05-2.85419E-05-5.80742E-06 6.40562E-19-3.40965E-19
 -1      3788 8.96937E-05-2.33587E-05-2.84153E-05-5.03733E-06 3.71667E-19-1.04160E-18
 -1      3789 8.91164E-05-2.35935E-05-2.80692E-05-7.73820E-06-8.14719E-19-3.85441E-19
 -1      3790 8.94109E-05-2.35551E-05-2.82423E-05-7.04585E-06 3.10527E-19-3.68202E-19
 -1      3791 8.84069E-05-2.28416E-05-2.80835E-05-6.14118E-06 2.43847E-19-2.71843E-19
 -1      3792 8.82693E-05-2.39737E-05-2.75326E-05-9.38352E-06-1.31244E-18-1.53624E-18
 -1      3793 8.84024E-05-2.36171E-05-2.77868E-05-8.55345E-06-1.25745E-18-9.41461E-19
 -1      3794 8.70056E-05-2.26000E-05-2.75856E-05-7.52071E-06-3.44900E-19-3.98182E-19
 -1      3795 8.78330E-05-2.52347E-05-2.67878E-05-1.14890E-05-1.03538E-18-2.22954E-18
 -1      3796 8.75989E-05-2.43447E-05-2.71332E-05-1.04630E-05-1.23908E-18-2.27000E-18
 -1      3797 8.55887E-05-2.28589E-05-2.68691E-05-9.33755E-06-1.02007E-18-1.29655E-18
 -1      3798 8.82443E-05-2.78962E-05-2.58063E-05-1.43190E-05-1.02293E-18-1.39345E-18
 -1      3799 8.73513E-05-2.61492E-05-2.62478E-05-1.29727E-05-9.53138E-19-2.23369E-18
 -1      3800 8.43489E-05-2.39598E-05-2.58762E-05-1.18560E-05-8.83215E-19-1.85546E-18
 -1      3801 9.07550E-05-3.25994E-05-2.48732E-05-1.74595E-05-3.12793E-19-1.77296E-18
 -1      3802 8.87977E-05-2.96725E-05-2.53427E-05-1.58896E-05-7.44560E-19-1.57050E-18
 -1      3803 8.43112E-05-2.66311E-05-2.48032E-05-1.51711E-05-8.85262E-19-2.06337E-18
 -1      3804 8.63155E-05-3.09530E-05-2.38074E-05-1.88023E-05-3.24880E-19-2.55026E-18
 -1      3805 9.60058E-05-2.63895E-05-2.98435E-05 6.25327E-07 1.17478E-18-2.21567E-18
 -1      3806 9.58111E-05-2.56477E-05-3.00669E-05 1.13516E-06 1.32005E-18-2.42324E-18
 -1      3807 9.39488E-05-2.12215E-05-3.11768E-05-1.26379E-06-1.29938E-19-3.50707E-18
 -1      3808 9.40834E-05-2.15153E-05-3.11181E-05-1.77956E-06-3.91593E-19-3.54550E-18
 -1      3809 9.48528E-05-2.29459E-05-3.07948E-05-1.60831E-06-4.64314E-19-3.15128E-18
 -1      3810 9.59230E-05-2.85312E-05-2.88845E-05-8.33873E-07 7.36864E-19-1.65648E-18
 -1      3811 9.59535E-05-2.83410E-05-2.89701E-05-6.85948E-07 9.05140E-19-1.61791E-18
 -1      3812 9.61831E-05-2.81548E-05-2.91574E-05-4.85436E-07 1.09809E-18-1.79530E-18
 -1      3813 9.59469E-05-2.57277E-05-3.00782E-05-9.13104E-07-8.35899E-19-2.45177E-18
 -1      3814 9.61325E-05-2.64684E-05-2.98650E-05-4.64159E-07-6.46957E-19-2.35894E-18
 -1      3815 9.38124E-05-2.09461E-05-3.12382E-05-2.14098E-07 4.02118E-19-3.31508E-18
 -1      3816 9.38596E-05-2.10403E-05-3.12207E-05-7.72248E-07 2.03056E-20-3.37082E-18
 -1      3817 9.45369E-05-2.22132E-05-3.09767E-05 7.38134E-09 4.42737E-19-3.20703E-18
 -1      3818 9.63455E-05-2.71054E-05-2.96691E-05-1.84537E-07-6.09677E-19-2.25753E-18
 -1      3819 9.64301E-05-2.76033E-05-2.95030E-05 1.12824E-07-5.89553E-19-2.22818E-18
 -1      3820 9.65756E-05-2.77011E-05-2.95168E-05 1.31540E-07-5.22684E-19-1.92290E-18
 -1      3821 1.13050E-04-5.40921E-05-2.50932E-05 2.05199E-05 8.09300E-19-1.51875E-18
 -1      3822 1.06935E-04-4.90016E-05-2.46033E-05 2.11060E-05 1.20040E-19-9.98599E-19
 -1      3823 7.62482E-05-2.51920E-05-2.16981E-05 1.82558E-05 5.31669E-19-1.10322E-18
 -1      3824 7.14443E-05-2.16991E-05-2.13175E-05 1.47121E-05-2.67825E-19-1.22513E-18
 -1      3825 1.11662E-04-4.71608E-05-2.76539E-05-2.98597E-05 8.30661E-19 2.15046E-18
 -1      3826 9.52305E-05-2.83659E-05-2.86547E-05-5.59969E-07-3.25064E-19-4.46933E-19
 -1      3827 9.52748E-05-2.84544E-05-2.86389E-05-5.26267E-07-6.09227E-20-3.47788E-19
 -1      3828 9.51686E-05-2.82777E-05-2.86670E-05-5.38782E-07-3.20754E-19-5.14521E-19
 -1      3829 9.54448E-05-2.48581E-05-3.02475E-05 1.85232E-06 1.53409E-18-2.00618E-18
 -1      3830 9.55900E-05-2.50760E-05-3.02226E-05 1.38548E-06 1.42522E-18-2.49502E-18
 -1      3831 9.53658E-05-2.44160E-05-3.04121E-05 1.79278E-06 1.46285E-18-2.53799E-18
 -1      3832 9.52243E-05-2.39423E-05-3.05471E-05 1.61156E-06 1.34003E-18-2.76811E-18
 -1      3833 9.57193E-05-2.51825E-05-3.02255E-05 1.09296E-06 1.27485E-18-2.55210E-18
 -1      3834 9.53173E-05-2.84887E-05-2.86408E-05-4.79810E-07-1.83211E-19-8.28714E-19
 -1      3835 9.59902E-05-2.91654E-05-2.86409E-05-6.35774E-07 3.83427E-19-1.30447E-18
 -1      3836 9.58998E-05-2.91205E-05-2.86185E-05-7.21356E-07 5.07939E-19-9.28840E-19
 -1      3837 9.59520E-05-2.91367E-05-2.86344E-05-7.59409E-07 4.12549E-19-1.29292E-18
 -1      3838 8.68684E-05-3.11587E-05-2.38876E-05 1.86431E-05 1.23383E-18-2.01620E-18
 -1      3839 9.57069E-05-2.90028E-05-2.85877E-05-6.07255E-07 3.61721E-19-4.54624E-19
 -1      3840 9.58470E-05-2.90813E-05-2.86152E-05-5.69646E-07 2.19313E-19-7.18922E-19
 -1      3841 9.56629E-05-2.89556E-05-2.85874E-05-5.73033E-07 1.74928E-19-5.72872E-19
 -1      3842 9.62103E-05-2.70300E-05-2.96428E-05 2.77977E-07 1.03574E-18-2.06071E-18
 -1      3843 9.61556E-05-2.64668E-05-2.98634E-05 4.79035E-07 9.89537E-19-2.23074E-18
 -1      3844 9.62848E-05-2.75256E-05-2.94744E-05-6.67852E-08 9.82305E-19-1.94018E-18
 -1      3845 9.46173E-05-2.23861E-05-3.09333E-05-8.61890E-07 2.74331E-20-3.23401E-18
 -1      3846 6.58142E-05-1.67105E-05-2.08680E-05-5.28242E-06-1.25116E-19-1.82248E-18
 -1      3847 7.12291E-05-1.89595E-05-2.23563E-05-8.47489E-06-4.07161E-19-1.38319E-18
 -1      3848 6.78110E-05-1.69553E-05-2.17909E-05-3.49911E-07-1.61307E-19-1.84868E-18
 -1      3849 8.10068E-05-2.80142E-05-2.25721E-05-1.90310E-05-7.87742E-19-2.81322E-18
 -1      3850 7.00964E-05-1.95394E-05-2.15439E-05 1.13546E-05-4.67041E-19-1.95074E-18
 -1      3851 6.93586E-05-1.80869E-05-2.20553E-05 6.84969E-06-3.02864E-19-3.07568E-18
 -1      3852 7.51185E-05-2.14822E-05-2.29473E-05 1.17912E-05 6.24832E-19-3.07572E-19
 -1      3853 7.88499E-05-2.46372E-05-2.31632E-05-1.53631E-05-4.79169E-19-2.41418E-18
 -1      3854 9.55552E-05-2.88380E-05-2.85916E-05-5.21603E-07-3.72174E-19-5.10475E-19
 -1      3855 9.55961E-05-2.88952E-05-2.85866E-05-5.44983E-07-4.67004E-20-4.91306E-19
 -1      3856 9.57111E-05-2.89675E-05-2.86055E-05-5.12331E-07 5.97328E-20-4.58657E-19
 -1      3857 9.61577E-05-2.86174E-05-2.89485E-05-7.82433E-07 5.51639E-19-1.71034E-18
 -1      3858 9.55191E-05-2.46758E-05-3.03730E-05-1.23015E-06-6.93182E-19-2.65199E-18
 -1      3859 9.58740E-05-2.90709E-05-2.86318E-05-8.90711E-07 3.98374E-19-1.06350E-18
 -1      3860 9.51353E-05-2.35643E-05-3.06821E-05 8.32141E-07 8.80509E-19-3.02058E-18
 -1      3861 9.50781E-05-2.34023E-05-3.07244E-05 4.82409E-07 5.78284E-19-3.14422E-18
 -1      3862 9.62723E-05-2.89874E-05-2.88371E-05-8.31719E-07 1.93831E-19-1.50200E-18
 -1      3863 9.63197E-05-2.88766E-05-2.89009E-05-7.89230E-07 3.93554E-19-1.46252E-18
 -1      3864 1.23638E-04-5.59357E-05-2.89720E-05-2.50496E-05 2.04929E-19 1.50975E-18
 -1      3865 9.62707E-05-2.65735E-05-2.98690E-05-3.37923E-07-5.75904E-19-2.17367E-18
 -1      3866 9.61564E-05-2.91138E-05-2.87322E-05-8.38983E-07 2.13543E-19-1.64555E-18
 -1      3867 9.62108E-05-2.90629E-05-2.87754E-05-8.40501E-07 2.70500E-19-1.62762E-18
 -1      3868 9.64205E-05-2.90668E-05-2.88680E-05-7.36544E-07 3.82945E-19-1.82581E-18
 -1      3869 9.52214E-05-2.38711E-05-3.05873E-05 1.36941E-06 1.14008E-18-2.99517E-18
 -1      3870 9.51145E-05-2.35559E-05-3.06719E-05 1.08081E-06 9.55497E-19-3.03070E-18
 -1      3871 9.55697E-05-2.44386E-05-3.04705E-05 7.00377E-07 7.41864E-19-2.93443E-18
 -1      3872 9.55222E-05-2.45289E-05-3.04207E-05 1.13783E-06 1.11772E-18-2.80682E-18
 -1      3873 9.55808E-05-2.88301E-05-2.86082E-05-4.73133E-07-4.73348E-19-4.77222E-19
 -1      3874 9.55980E-05-2.88133E-05-2.86207E-05-4.04771E-07-2.89697E-19-7.20917E-19
 -1      3875 9.56632E-05-2.88907E-05-2.86172E-05-4.15958E-07-1.47667E-19-2.42856E-19
 -1      3876 9.66123E-05-2.74133E-05-2.96557E-05-6.22627E-09-4.33814E-19-2.01136E-18
 -1      3877 9.67046E-05-2.78834E-05-2.94989E-05 1.84178E-07-4.50298E-19-1.89062E-18
 -1      3878 9.67855E-05-2.88163E-05-2.91274E-05 4.38933E-07-1.39231E-19-1.77392E-18
 -1      3879 9.67461E-05-2.89940E-05-2.90376E-05 4.96489E-07-1.34088E-19-1.75614E-18
 -1      3880 9.66920E-05-2.91247E-05-2.89556E-05 5.11640E-07-7.78004E-20-1.65280E-18
 -1      3881 9.66248E-05-2.92146E-05-2.88901E-05 5.30781E-07 3.91673E-20-1.69896E-18
 -1      3882 9.68140E-05-2.90649E-05-2.90364E-05 3.87089E-07-1.06416E-19-1.67286E-18
 -1      3883 9.65436E-05-2.92695E-05-2.88304E-05 5.25155E-07-3.26753E-20-1.78325E-18
 -1      3884 9.64634E-05-2.92987E-05-2.87843E-05 5.20136E-07-1.15391E-19-1.76300E-18
 -1      3885 9.66785E-05-2.92662E-05-2.88926E-05 4.09836E-07-8.99392E-20-1.33549E-18
 -1      3886 9.63698E-05-2.93019E-05-2.87424E-05 5.02640E-07-1.63521E-19-1.73917E-18
 -1      3887 9.62858E-05-2.92898E-05-2.87116E-05 4.84437E-07-1.85586E-19-1.62925E-18
 -1      3888 9.65043E-05-2.93337E-05-2.87892E-05 3.99821E-07-1.62300E-19-1.66657E-18
 -1      3889 9.61887E-05-2.92583E-05-2.86838E-05 4.62173E-07-1.94819E-19-1.66437E-18
 -1      3890 9.61062E-05-2.92186E-05-2.86649E-05 4.39071E-07-4.04697E-19-1.23244E-18
 -1      3891 9.63148E-05-2.93100E-05-2.87182E-05 3.71706E-07-8.18385E-20-1.21538E-18
 -1      3892 9.60104E-05-2.91637E-05-2.86483E-05 4.16790E-07-7.18889E-19-1.41422E-18
 -1      3893 9.59311E-05-2.91049E-05-2.86386E-05 3.94929E-07-6.81366E-19-1.19333E-18
 -1      3894 9.61236E-05-2.92245E-05-2.86727E-05 3.37796E-07-4.99654E-19-1.19375E-18
 -1      3895 9.58383E-05-2.90336E-05-2.86306E-05 3.76478E-07-7.18408E-19-1.11810E-18
 -1      3896 9.57622E-05-2.89604E-05-2.86282E-05 3.60382E-07-4.33518E-19-8.08727E-19
 -1      3897 9.59366E-05-2.90964E-05-2.86471E-05 3.05596E-07-6.04966E-19-1.62871E-18
 -1      3898 9.56712E-05-2.88760E-05-2.86269E-05 3.48649E-07-2.57412E-19-1.02556E-18
 -1      3899 9.55965E-05-2.87907E-05-2.86300E-05 3.41830E-07-2.09976E-19-7.28627E-19
 -1      3900 9.57546E-05-2.89366E-05-2.86372E-05 2.81865E-07-2.97968E-19-1.11961E-18
 -1      3901 9.55043E-05-2.86936E-05-2.86339E-05 3.38928E-07-4.93086E-20-7.41201E-19
 -1      3902 9.54275E-05-2.85956E-05-2.86413E-05 3.44491E-07-1.74979E-19-6.26478E-19
 -1      3903 9.55735E-05-2.87496E-05-2.86393E-05 2.71604E-07-2.55892E-19-9.78674E-19
 -1      3904 9.53296E-05-2.84845E-05-2.86490E-05 3.52722E-07-1.22430E-19-2.21570E-19
 -1      3905 9.52463E-05-2.83717E-05-2.86597E-05 3.73566E-07 5.59243E-19-1.10796E-19
 -1      3906 9.53856E-05-2.85343E-05-2.86505E-05 2.78827E-07 2.55098E-19-3.51089E-19
 -1      3907 9.51369E-05-2.82436E-05-2.86701E-05 3.95168E-07 6.10676E-19-1.50172E-19
 -1      3908 9.50418E-05-2.81130E-05-2.86831E-05 4.34232E-07 5.15413E-19 1.83067E-20
 -1      3909 9.51807E-05-2.82864E-05-2.86683E-05 3.08009E-07 3.91950E-19-1.03224E-19
 -1      3910 9.49137E-05-2.79639E-05-2.86950E-05 4.71656E-07 2.96886E-19-2.55251E-19
 -1      3911 9.48005E-05-2.78114E-05-2.87090E-05 5.32132E-07 1.83270E-19-3.38577E-19
 -1      3912 9.49460E-05-2.79989E-05-2.86902E-05 3.63407E-07 3.37236E-19-2.61179E-19
 -1      3913 9.46457E-05-2.76368E-05-2.87210E-05 5.88255E-07 4.89208E-20-4.54506E-20
 -1      3914 9.45073E-05-2.74585E-05-2.87348E-05 6.73702E-07 1.57985E-19 1.61196E-19
 -1      3915 9.46664E-05-2.76631E-05-2.87136E-05 4.49878E-07 1.11412E-19-6.85137E-19
 -1      3916 9.43167E-05-2.72539E-05-2.87449E-05 7.51930E-07-4.66794E-19-3.38795E-19
 -1      3917 9.41457E-05-2.70463E-05-2.87566E-05 8.66342E-07-7.37462E-19-9.01177E-19
 -1      3918 9.43249E-05-2.72697E-05-2.87348E-05 5.73082E-07-3.59315E-19-6.22950E-19
 -1      3919 9.39095E-05-2.68083E-05-2.87623E-05 9.70737E-07-2.11417E-19-1.19392E-18
 -1      3920 9.36980E-05-2.65694E-05-2.87693E-05 1.11859E-06 2.43699E-19-1.06454E-18
 -1      3921 9.39027E-05-2.68106E-05-2.87496E-05 7.39706E-07-6.54360E-19-9.65639E-19
 -1      3922 9.34059E-05-2.62962E-05-2.87671E-05 1.25405E-06 2.94433E-19-1.55615E-18
 -1      3923 9.31467E-05-2.60266E-05-2.87657E-05 1.44042E-06-1.74427E-19-1.06684E-18
 -1      3924 9.33799E-05-2.62800E-05-2.87516E-05 9.57770E-07 1.15908E-19-1.27557E-18
 -1      3925 9.27886E-05-2.57198E-05-2.87509E-05 1.61297E-06-5.20965E-19-5.47737E-19
 -1      3926 9.24756E-05-2.54243E-05-2.87363E-05 1.84381E-06-5.16592E-20-8.79599E-19
 -1      3927 9.27362E-05-2.56772E-05-2.87326E-05 1.23712E-06-2.03929E-19-1.87939E-18
 -1      3928 9.20420E-05-2.50900E-05-2.87025E-05 2.06122E-06 1.79911E-19-8.18517E-19
 -1      3929 9.16717E-05-2.47796E-05-2.86679E-05 2.34395E-06 9.65904E-20-5.10834E-19
 -1      3930 9.19519E-05-2.50090E-05-2.86812E-05 1.59037E-06-2.24686E-20-1.49041E-18
 -1      3931 9.11544E-05-2.44306E-05-2.86067E-05 2.61686E-06-5.55337E-19-8.77917E-19
 -1      3932 9.07281E-05-2.41250E-05-2.85435E-05 2.96176E-06-7.35547E-19-1.27903E-18
 -1      3933 9.10094E-05-2.42929E-05-2.85823E-05 2.03462E-06-3.54491E-19-1.58841E-18
 -1      3934 9.01211E-05-2.37830E-05-2.84440E-05 3.30576E-06-6.55580E-19-1.05504E-18
 -1      3935 8.96477E-05-2.35133E-05-2.83413E-05 3.72843E-06-3.18514E-20-1.78477E-18
 -1      3936 8.98944E-05-2.35604E-05-2.84162E-05 2.59471E-06-7.53483E-19-8.13592E-19
 -1      3937 8.89475E-05-2.32113E-05-2.81894E-05 4.16781E-06 3.68192E-19-2.18824E-18
 -1      3938 8.84476E-05-2.30245E-05-2.80340E-05 4.69345E-06 3.92455E-19-1.99809E-18
 -1      3939 8.85970E-05-2.28611E-05-2.81575E-05 3.30904E-06-1.88973E-20-1.45507E-18
 -1      3940 8.76536E-05-2.28096E-05-2.78120E-05 5.26793E-06 2.71488E-19-2.18845E-18
 -1      3941 8.71678E-05-2.27739E-05-2.75882E-05 5.93792E-06-4.53808E-19-1.90517E-18
 -1      3942 8.71120E-05-2.22659E-05-2.77733E-05 4.23996E-06 2.00672E-19-2.14836E-18
 -1      3943 8.62844E-05-2.27127E-05-2.72737E-05 6.71310E-06-6.10299E-19-1.42528E-18
 -1      3944 8.58860E-05-2.29282E-05-2.69646E-05 7.59302E-06-1.56260E-19-1.13670E-18
 -1      3945 8.54400E-05-2.18736E-05-2.72220E-05 5.49231E-06-1.72685E-19-1.90120E-18
 -1      3946 8.49289E-05-2.31135E-05-2.65302E-05 8.66788E-06-6.26399E-20-1.22801E-18
 -1      3947 8.47387E-05-2.37151E-05-2.61211E-05 9.85853E-06-5.96798E-20-9.44714E-19
 -1      3948 8.35964E-05-2.18264E-05-2.64503E-05 7.23403E-06-4.63881E-20-1.27142E-18
 -1      3949 9.63564E-05-2.87249E-05-2.89870E-05-7.33603E-07 4.89919E-19-1.40045E-18
 -1      3950 9.63862E-05-2.85280E-05-2.90776E-05-6.22807E-07 6.53800E-19-1.53168E-18
 -1      3951 9.65172E-05-2.88081E-05-2.90199E-05-6.56881E-07 5.18230E-19-1.65679E-18
 -1      3952 9.55852E-05-2.43723E-05-3.05051E-05 2.54184E-07 5.40532E-19-3.11130E-18
 -1      3953 9.50551E-05-2.33378E-05-3.07453E-05 1.99409E-07 5.29002E-19-3.18394E-18
 -1      3954 9.50562E-05-2.33448E-05-3.07458E-05-1.86968E-07 3.57657E-19-3.10281E-18
 -1      3955 9.43184E-05-2.71989E-05-2.87649E-05-9.45461E-07-3.60871E-19-1.43321E-18
 -1      3956 9.44673E-05-2.73941E-05-2.87492E-05-8.25497E-07-2.35141E-19-1.65772E-18
 -1      3957 9.46401E-05-2.75869E-05-2.87364E-05-7.41348E-07 2.09465E-20-1.41360E-18
 -1      3958 9.47585E-05-2.77521E-05-2.87198E-05-6.51911E-07 3.96832E-19-1.47339E-18
 -1      3959 9.44594E-05-2.73989E-05-2.87374E-05-6.63379E-07 5.03953E-20-1.81188E-18
 -1      3960 9.48978E-05-2.79149E-05-2.87061E-05-5.91354E-07 4.22258E-19-1.47621E-18
 -1      3961 9.49937E-05-2.80548E-05-2.86903E-05-5.28745E-07 3.89385E-19-1.51560E-18
 -1      3962 9.47680E-05-2.77695E-05-2.87117E-05-5.27969E-07 1.38189E-19-1.43913E-18
 -1      3963 9.39134E-05-2.67420E-05-2.87875E-05-1.21058E-06-1.50895E-19-1.72640E-18
 -1      3964 9.41017E-05-2.69712E-05-2.87748E-05-1.05634E-06 7.42632E-20-1.46765E-18
 -1      3965 9.40743E-05-2.69614E-05-2.87587E-05-8.44515E-07 7.78250E-20-2.22490E-18
 -1      3966 9.34037E-05-2.62094E-05-2.87976E-05-1.54353E-06-5.66814E-19-1.75962E-18
 -1      3967 9.36413E-05-2.64751E-05-2.87911E-05-1.35138E-06-8.49819E-19-1.91209E-18
 -1      3968 9.35908E-05-2.64478E-05-2.87703E-05-1.07660E-06-3.69953E-19-1.89879E-18
 -1      3969 9.27662E-05-2.55987E-05-2.87865E-05-1.95088E-06-3.88723E-20-1.33582E-18
 -1      3970 9.30634E-05-2.59010E-05-2.87908E-05-1.71742E-06 6.21204E-20-1.30101E-18
 -1      3971 9.29850E-05-2.58518E-05-2.87644E-05-1.36460E-06-5.09499E-19-1.82291E-18
 -1      3972 9.19769E-05-2.49151E-05-2.87417E-05-2.43919E-06-1.78436E-19-1.50847E-18
 -1      3973 9.23440E-05-2.52498E-05-2.87631E-05-2.16108E-06-3.20335E-19-1.41320E-18
 -1      3974 9.22308E-05-2.51720E-05-2.87305E-05-1.71314E-06-1.37264E-19-9.98341E-19
 -1      3975 9.10124E-05-2.41748E-05-2.86460E-05-3.01629E-06 1.73632E-19-1.67361E-18
 -1      3976 9.14586E-05-2.45314E-05-2.86934E-05-2.68951E-06-7.52068E-20-1.78703E-18
 -1      3977 9.13005E-05-2.44147E-05-2.86540E-05-2.12711E-06-8.74058E-20-1.83342E-18
 -1      3978 8.98514E-05-2.34097E-05-2.84765E-05-3.69481E-06-1.60167E-19-1.09913E-18
 -1      3979 9.03827E-05-2.37686E-05-2.85616E-05-3.31256E-06 1.83496E-19-1.82176E-18
 -1      3980 9.01650E-05-2.35968E-05-2.85150E-05-2.61346E-06 7.42095E-20-1.67737E-18
 -1      3981 8.84774E-05-2.26739E-05-2.82025E-05-4.49964E-06-2.58740E-20-8.44307E-19
 -1      3982 8.90941E-05-2.30027E-05-2.83410E-05-4.04804E-06-2.12795E-19-1.22950E-18
 -1      3983 8.87934E-05-2.27489E-05-2.82869E-05-3.18560E-06-2.29345E-19-8.06085E-19
 -1      3984 8.68821E-05-2.20503E-05-2.77839E-05-5.48228E-06-2.80119E-19-2.52468E-19
 -1      3985 8.75735E-05-2.22991E-05-2.79958E-05-4.93237E-06 1.49786E-19-9.92253E-19
 -1      3986 8.71507E-05-2.19185E-05-2.79341E-05-3.87252E-06-1.71793E-19-6.52942E-19
 -1      3987 8.50718E-05-2.16636E-05-2.71686E-05-6.74595E-06-2.77287E-19-3.87861E-19
 -1      3988 8.58071E-05-2.17558E-05-2.74791E-05-6.04070E-06-3.75492E-19-5.20224E-19
 -1      3989 8.51932E-05-2.11719E-05-2.74089E-05-4.73657E-06-2.66508E-19-3.35778E-19
 -1      3990 8.30814E-05-2.17028E-05-2.62888E-05-8.48246E-06-8.94913E-19-9.94163E-19
 -1      3991 8.37950E-05-2.15190E-05-2.67290E-05-7.51756E-06-5.94170E-19-3.92655E-19
 -1      3992 8.28643E-05-2.06024E-05-2.66454E-05-5.90713E-06-3.40281E-19-1.00811E-18
 -1      3993 8.11339E-05-2.24851E-05-2.50856E-05-1.09595E-05-5.84158E-19-1.58716E-18
 -1      3994 8.15677E-05-2.18084E-05-2.56631E-05-9.60682E-06-4.52658E-19-1.24778E-18
 -1      3995 8.01067E-05-2.03600E-05-2.55528E-05-7.62218E-06-3.71689E-19-1.17939E-18
 -1      3996 7.83733E-05-2.29336E-05-2.37481E-05-1.33889E-05-6.18592E-19-1.90524E-18
 -1      3997 9.54357E-05-2.43620E-05-3.04655E-05-9.86009E-07-3.02523E-19-2.73709E-18
 -1      3998 9.67799E-05-2.82750E-05-2.93567E-05 2.77711E-07-4.32305E-19-1.79449E-18
 -1      3999 9.67904E-05-2.85769E-05-2.92368E-05 3.91453E-07-2.01986E-19-1.77908E-18
 -1      4000 9.68083E-05-2.80081E-05-2.94842E-05 1.62776E-07-3.80153E-19-1.95133E-18
 -1      4001 9.52877E-05-2.84302E-05-2.86521E-05-4.27392E-07 5.64785E-21-1.17259E-18
 -1      4002 9.53584E-05-2.85327E-05-2.86407E-05-4.08099E-07-1.60406E-19-8.96837E-19
 -1      4003 9.54474E-05-2.86351E-05-2.86327E-05-4.01289E-07-4.65243E-19-6.77674E-19
 -1      4004 9.55133E-05-2.87240E-05-2.86247E-05-3.98842E-07-4.67934E-19-8.38522E-19
 -1      4005 9.54162E-05-2.85815E-05-2.86435E-05-3.44309E-07-1.93680E-19-1.55864E-18
 -1      4006 9.52614E-05-2.38585E-05-3.06173E-05-8.60069E-07-2.25074E-20-3.10827E-18
 -1      4007 9.59502E-05-2.54001E-05-3.02224E-05-5.74346E-07-2.08028E-19-2.66377E-18
 -1      4008 9.62364E-05-2.61927E-05-3.00225E-05-4.11059E-07-3.85960E-19-2.48330E-18
 -1      4009 9.64474E-05-2.68677E-05-2.98235E-05-1.31037E-07-3.63521E-19-2.23134E-18
 -1      4010 9.65729E-05-2.70416E-05-2.97961E-05-6.62998E-08-2.27564E-19-2.15201E-18
 -1      4011 9.60990E-05-2.57074E-05-3.01644E-05-3.46210E-07-1.18543E-20-2.68513E-18
 -1      4012 9.51933E-05-2.36558E-05-3.06662E-05-4.73984E-07 2.17120E-19-3.00812E-18
 -1      4013 9.51087E-05-2.81929E-05-2.86773E-05-4.88797E-07 6.30515E-20-1.41857E-18
 -1      4014 9.51891E-05-2.83121E-05-2.86632E-05-4.49498E-07 4.00164E-20-1.20665E-18
 -1      4015 9.52307E-05-2.83512E-05-2.86621E-05-3.73415E-07 7.66005E-20-1.75778E-18
 -1      4016 9.63766E-05-2.82656E-05-2.91944E-05-4.98223E-07 9.37140E-19-1.60075E-18
 -1      4017 9.63695E-05-2.79446E-05-2.93194E-05-2.88223E-07 1.07571E-18-1.60929E-18
 -1      4018 9.64483E-05-2.76049E-05-2.95038E-05-9.85249E-08 8.06395E-19-1.84462E-18
 -1      4019 9.65441E-05-2.83492E-05-2.92275E-05-4.60381E-07 7.88136E-19-1.62488E-18
 -1      4020 9.60282E-05-2.91479E-05-2.86620E-05-7.93266E-07 2.28161E-19-1.41916E-18
 -1      4021 9.60831E-05-2.91371E-05-2.86897E-05-8.19839E-07 1.68114E-19-1.72581E-18
 -1      4022 9.62872E-05-2.91846E-05-2.87603E-05-7.39630E-07 3.51820E-19-1.91699E-18
 -1      4023 9.61393E-05-2.92070E-05-2.86872E-05-6.98464E-07 1.58891E-19-1.61650E-18
 -1      4024 7.56838E-05-2.05527E-05-2.35644E-05-1.07668E-05-1.02746E-19-1.66608E-18
 -1      4025 9.60626E-05-2.91986E-05-2.86547E-05-5.32073E-07 7.05931E-20-9.46434E-19
 -1      4026 9.61374E-05-2.92317E-05-2.86731E-05-5.60043E-07 1.85375E-19-1.23209E-18
 -1      4027 9.56864E-05-2.46029E-05-3.04500E-05-2.41704E-07 3.14536E-19-2.89548E-18
 -1      4028 9.66505E-05-2.89168E-05-2.90300E-05-5.83639E-07 3.37106E-19-1.90000E-18
 -1      4029 9.66857E-05-2.87314E-05-2.91205E-05-5.11105E-07 5.02746E-19-1.94534E-18
 -1      4030 8.37223E-05-2.42749E-05-2.55307E-05 1.14009E-05-1.20686E-19 1.10108E-19
 -1      4031 8.39807E-05-2.55001E-05-2.50152E-05 1.31109E-05 9.26121E-19-3.05106E-19
 -1      4032 9.59408E-05-2.52643E-05-3.02958E-05 2.84718E-07 5.87335E-19-3.04945E-18
 -1      4033 9.59232E-05-2.52028E-05-3.03167E-05 8.05157E-08 4.54021E-19-3.11636E-18
 -1      4034 9.57475E-05-2.89681E-05-2.86185E-05-4.32166E-07-2.00241E-19-2.86462E-19
 -1      4035 9.58148E-05-2.90336E-05-2.86205E-05-4.53215E-07 1.18161E-19-3.64267E-19
 -1      4036 9.57551E-05-2.89544E-05-2.86301E-05-3.59044E-07-1.74277E-19-5.20623E-19
 -1      4037 9.50194E-05-2.80836E-05-2.86857E-05-4.33018E-07 3.53900E-19-1.98402E-18
 -1      4038 8.21241E-05-2.61158E-05-2.40797E-05 1.51485E-05 9.36522E-19-8.46523E-19
 -1      4039 8.07992E-05-2.84211E-05-2.23915E-05 1.90154E-05 6.12041E-19-1.42951E-18
 -1      4040 9.59722E-05-2.91501E-05-2.86379E-05-5.05065E-07-5.98987E-20-8.19634E-19
 -1      4041 9.61008E-05-2.92160E-05-2.86666E-05-4.34409E-07-1.15977E-19-6.28878E-19
 -1      4042 9.59023E-05-2.90988E-05-2.86287E-05-4.77736E-07-8.21699E-20-5.44001E-19
 -1      4043 7.33277E-05-1.84017E-05-2.35253E-05 4.76274E-06 6.21679E-19-2.57602E-18
 -1      4044 6.98920E-05-1.71278E-05-2.25165E-05 2.79180E-06-4.99113E-20-3.14271E-18
 -1      4045 7.18502E-05-1.75578E-05-2.33278E-05-1.49651E-06-7.87774E-20-1.67150E-18
 -1      4046 7.43758E-05-1.89515E-05-2.38164E-05-6.78989E-06 2.07209E-19-1.22530E-18
 -1      4047 7.88844E-05-2.32069E-05-2.38055E-05 1.31199E-05 5.85245E-19 7.58501E-19
 -1      4048 7.68387E-05-2.11599E-05-2.39456E-05 1.01885E-05 8.19288E-19-3.29135E-19
 -1      4049 9.55881E-05-2.87811E-05-2.86321E-05-3.41024E-07-3.15022E-19-6.61278E-19
 -1      4050 9.58675E-05-2.52181E-05-3.02838E-05 6.02318E-07 7.07134E-19-2.84997E-18
 -1      4051 9.58982E-05-2.52227E-05-3.02968E-05 4.16501E-07 5.88167E-19-2.92670E-18
 -1      4052 9.62325E-05-2.59290E-05-3.01187E-05 2.14850E-07 5.61581E-19-2.90131E-18
 -1      4053 8.16172E-05-2.23022E-05-2.53895E-05 9.72808E-06 3.99088E-19-3.01714E-19
 -1      4054 9.65415E-05-2.91541E-05-2.88807E-05-6.36942E-07 3.73654E-19-1.71834E-18
 -1      4055 9.66011E-05-2.90550E-05-2.89462E-05-6.10628E-07 2.78454E-19-1.85876E-18
 -1      4056 9.67440E-05-2.89915E-05-2.90383E-05-4.82311E-07 2.86512E-19-1.87103E-18
 -1      4057 9.68745E-05-2.86712E-05-2.92301E-05 3.12340E-07-1.94315E-19-1.94372E-18
 -1      4058 9.57468E-05-2.51273E-05-3.02668E-05 8.99294E-07 1.03902E-18-2.71984E-18
 -1      4059 9.61400E-05-2.61717E-05-2.99877E-05 5.59700E-07 9.33439E-19-2.25926E-18
 -1      4060 9.59636E-05-2.55523E-05-3.01742E-05 6.04457E-07 7.48811E-19-2.50174E-18
 -1      4061 9.62611E-05-2.62303E-05-3.00127E-05 3.09841E-07 6.48432E-19-2.57811E-18
 -1      4062 9.63380E-05-2.68467E-05-2.97863E-05 2.12011E-07 7.24803E-19-2.17756E-18
 -1      4063 9.59661E-05-2.52804E-05-3.02948E-05-5.62254E-08 4.68149E-19-2.78557E-18
 -1      4064 9.60681E-05-2.55759E-05-3.02198E-05-2.55119E-07 1.81683E-19-2.69835E-18
 -1      4065 9.63698E-05-2.63073E-05-3.00226E-05-1.28450E-07 2.58744E-20-2.40298E-18
 -1      4066 9.63215E-05-2.60695E-05-3.00964E-05 2.01660E-08 3.75623E-19-2.89182E-18
 -1      4067 9.69444E-05-2.85487E-05-2.93113E-05 1.84730E-07-1.99214E-19-1.86707E-18
 -1      4068 9.69399E-05-2.88103E-05-2.91996E-05 2.43434E-07-1.00576E-19-1.80795E-18
 -1      4069 9.67894E-05-2.92582E-05-2.89408E-05 2.79693E-07 9.86847E-20-1.19831E-18
 -1      4070 9.67086E-05-2.93227E-05-2.88792E-05 2.87902E-07 4.23548E-20-1.13717E-18
 -1      4071 9.66157E-05-2.93551E-05-2.88249E-05 2.79388E-07-1.70662E-19-8.92468E-19
 -1      4072 9.65226E-05-2.93638E-05-2.87815E-05 2.75354E-07-6.30212E-20-1.01290E-18
 -1      4073 9.67045E-05-2.93510E-05-2.88676E-05 1.58368E-07 4.72158E-20-8.76365E-19
 -1      4074 9.64194E-05-2.93487E-05-2.87438E-05 2.64074E-07 3.94819E-20-1.07233E-18
 -1      4075 9.63241E-05-2.93196E-05-2.87148E-05 2.54962E-07-6.75580E-20-1.02529E-18
 -1      4076 9.65080E-05-2.93721E-05-2.87749E-05 1.49993E-07-7.68277E-20-6.53449E-19
 -1      4077 9.62194E-05-2.92740E-05-2.86902E-05 2.40002E-07-4.27653E-19-9.76295E-19
 -1      4078 9.61233E-05-2.92182E-05-2.86726E-05 2.28745E-07-7.68410E-19-1.17297E-18
 -1      4079 9.63078E-05-2.93164E-05-2.87130E-05 1.37046E-07-2.07707E-19-1.28135E-18
 -1      4080 9.60211E-05-2.91504E-05-2.86584E-05 2.17815E-07-7.47700E-19-1.25668E-18
 -1      4081 9.59279E-05-2.90766E-05-2.86496E-05 2.07872E-07-3.77875E-19-1.10491E-18
 -1      4082 9.60994E-05-2.91994E-05-2.86735E-05 1.26386E-07-6.59390E-19-9.38973E-19
 -1      4083 9.58277E-05-2.89927E-05-2.86435E-05 2.00121E-07-1.44976E-19-1.28332E-18
 -1      4084 9.57375E-05-2.89048E-05-2.86416E-05 1.94772E-07-1.80084E-19-1.10400E-18
 -1      4085 9.58980E-05-2.90456E-05-2.86525E-05 1.15591E-07-2.29473E-19-1.29066E-18
 -1      4086 9.56367E-05-2.88069E-05-2.86416E-05 1.89093E-07-3.21426E-19-5.89282E-19
 -1      4087 9.55449E-05-2.87048E-05-2.86450E-05 1.90281E-07-3.67038E-20-3.38340E-19
 -1      4088 9.57025E-05-2.88630E-05-2.86465E-05 1.07668E-07-9.38605E-20-6.65201E-19
 -1      4089 9.54401E-05-2.85922E-05-2.86497E-05 1.90309E-07 3.56004E-19-4.74337E-19
 -1      4090 9.53425E-05-2.84748E-05-2.86570E-05 1.99881E-07 5.95862E-19-1.46138E-19
 -1      4091 9.54992E-05-2.86475E-05-2.86510E-05 1.08268E-07 2.06999E-19-1.00939E-19
 -1      4092 9.52280E-05-2.83454E-05-2.86651E-05 2.06033E-07 2.93961E-19-3.39284E-19
 -1      4093 9.51191E-05-2.82098E-05-2.86751E-05 2.25831E-07 3.51363E-19-2.85476E-19
 -1      4094 9.52835E-05-2.84000E-05-2.86635E-05 1.16858E-07 1.76517E-19-1.14999E-18
 -1      4095 9.49876E-05-2.80596E-05-2.86851E-05 2.39313E-07 1.29205E-19-3.76317E-19
 -1      4096 9.48602E-05-2.79016E-05-2.86965E-05 2.71332E-07 3.01033E-20-1.17669E-18
 -1      4097 9.50419E-05-2.81137E-05-2.86813E-05 1.35349E-07 3.86237E-20-1.68690E-18
 -1      4098 9.47033E-05-2.77259E-05-2.87070E-05 2.93682E-07 2.06769E-19-1.14987E-18
 -1      4099 9.45494E-05-2.75408E-05-2.87183E-05 3.40159E-07 1.45015E-19-1.18945E-18
 -1      4100 9.47588E-05-2.77797E-05-2.87015E-05 1.66088E-07-1.26185E-19-1.86446E-18
 -1      4101 9.43573E-05-2.73345E-05-2.87273E-05 3.73324E-07-2.89945E-19-1.50803E-18
 -1      4102 9.41679E-05-2.71175E-05-2.87365E-05 4.36825E-07-7.10601E-19-1.82791E-18
 -1      4103 9.44162E-05-2.73879E-05-2.87207E-05 2.11869E-07-2.22460E-19-2.35463E-18
 -1      4104 9.39299E-05-2.68758E-05-2.87418E-05 4.83317E-07-7.37000E-19-1.41777E-18
 -1      4105 9.36951E-05-2.66230E-05-2.87462E-05 5.66842E-07-5.19214E-19-1.45405E-18
 -1      4106 9.39940E-05-2.69282E-05-2.87345E-05 2.76207E-07-5.65486E-19-2.34438E-18
 -1      4107 9.33994E-05-2.63423E-05-2.87443E-05 6.29935E-07-5.83982E-19-1.36497E-18
 -1      4108 9.31090E-05-2.60516E-05-2.87403E-05 7.37091E-07-3.02883E-19-1.97126E-18
 -1      4109 9.34698E-05-2.63916E-05-2.87372E-05 3.63680E-07-7.48428E-19-1.59463E-18
 -1      4110 9.27432E-05-2.57303E-05-2.87268E-05 8.21108E-07 1.06002E-19-2.57467E-18
 -1      4111 9.23869E-05-2.54024E-05-2.87096E-05 9.56417E-07-3.99896E-20-2.02024E-18
 -1      4112 9.28197E-05-2.57722E-05-2.87207E-05 4.80384E-07-6.70254E-19-2.32786E-18
 -1      4113 9.19377E-05-2.50423E-05-2.86783E-05 1.06719E-06-1.34935E-19-1.92163E-18
 -1      4114 9.15061E-05-2.46821E-05-2.86412E-05 1.23666E-06-1.07308E-19-2.11172E-18
 -1      4115 9.20183E-05-2.50693E-05-2.86745E-05 6.34654E-07-2.15297E-19-1.93760E-18
 -1      4116 9.09598E-05-2.42895E-05-2.85842E-05 1.38226E-06-1.54700E-19-1.77434E-18
 -1      4117 9.04445E-05-2.39078E-05-2.85184E-05 1.59447E-06-6.36753E-20-1.28759E-18
 -1      4118 9.10391E-05-2.42893E-05-2.85842E-05 8.38207E-07 6.93355E-20-2.08479E-18
 -1      4119 8.97860E-05-2.34948E-05-2.84248E-05 1.78649E-06-3.40047E-19-1.14225E-18
 -1      4120 8.91808E-05-2.31095E-05-2.83191E-05 2.05454E-06-5.15234E-19-9.53186E-19
 -1      4121 8.98543E-05-2.34480E-05-2.84308E-05 1.10803E-06 6.78896E-20-1.60174E-18
 -1      4122 8.83926E-05-2.26947E-05-2.81749E-05 2.31018E-06-7.19714E-19-6.65053E-19
 -1      4123 8.76933E-05-2.23324E-05-2.80144E-05 2.65517E-06-8.71431E-20-1.04591E-18
 -1      4124 8.84328E-05-2.25715E-05-2.81891E-05 1.46946E-06-4.10872E-19-1.61764E-18
 -1      4125 8.67513E-05-2.19409E-05-2.78009E-05 3.00081E-06 5.32962E-20-1.24397E-18
 -1      4126 8.59558E-05-2.16373E-05-2.75669E-05 3.45803E-06-5.98937E-20-1.31799E-18
 -1      4127 8.67358E-05-2.16961E-05-2.78257E-05 1.96123E-06-7.23791E-20-6.78038E-19
 -1      4128 8.48210E-05-2.12983E-05-2.72590E-05 3.93577E-06-2.57646E-19-1.15721E-18
 -1      4129 8.39319E-05-2.11006E-05-2.69270E-05 4.56529E-06-1.84254E-19-1.11353E-18
 -1      4130 8.47057E-05-2.08646E-05-2.72962E-05 2.64309E-06-2.28532E-19-1.31643E-18
 -1      4131 8.25365E-05-2.08496E-05-2.64888E-05 5.25571E-06-3.41322E-20-8.40712E-19
 -1      4132 8.15701E-05-2.08326E-05-2.60248E-05 6.15522E-06-2.37953E-19-8.32075E-19
 -1      4133 8.22340E-05-2.01133E-05-2.65384E-05 3.61134E-06-1.55119E-19-1.16011E-18
 -1      4134 9.33108E-05-2.62139E-05-2.87579E-05-8.79430E-07-4.92958E-19-1.18030E-18
 -1      4135 9.35845E-05-2.64968E-05-2.87566E-05-7.64999E-07-1.25219E-19-1.16602E-18
 -1      4136 9.38609E-05-2.67693E-05-2.87549E-05-6.93747E-07-3.26237E-20-1.28487E-18
 -1      4137 9.40789E-05-2.70117E-05-2.87467E-05-6.01744E-07-3.21240E-20-1.29463E-18
 -1      4138 9.36271E-05-2.65343E-05-2.87450E-05-5.03031E-07-1.36803E-19-7.03606E-19
 -1      4139 9.46517E-05-2.76464E-05-2.87169E-05-4.33851E-07-1.26842E-19-9.69993E-19
 -1      4140 9.47918E-05-2.78208E-05-2.87040E-05-3.81339E-07-5.61933E-20-1.01131E-18
 -1      4141 9.26235E-05-2.55718E-05-2.87395E-05-1.10591E-06-3.74846E-19-9.36369E-19
 -1      4142 9.29657E-05-2.58974E-05-2.87495E-05-9.67761E-07-5.60356E-19-1.21565E-18
 -1      4143 9.30109E-05-2.59308E-05-2.87366E-05-6.30717E-07-5.25163E-19-2.32587E-19
 -1      4144 9.17707E-05-2.48429E-05-2.86875E-05-1.37509E-06-3.08736E-19-7.14455E-19
 -1      4145 9.21952E-05-2.52103E-05-2.87152E-05-1.21233E-06-5.11999E-19-6.96045E-19
 -1      4146 9.22442E-05-2.52370E-05-2.87018E-05-7.82379E-07-6.05733E-19 1.16897E-19
 -1      4147 9.07219E-05-2.40347E-05-2.85857E-05-1.68872E-06 3.56907E-19-1.20770E-18
 -1      4148 9.12431E-05-2.44387E-05-2.86397E-05-1.50045E-06 1.58948E-19-7.33883E-19
 -1      4149 9.12969E-05-2.44542E-05-2.86269E-05-9.56934E-07-1.09906E-19-5.26766E-19
 -1      4150 8.94435E-05-2.31651E-05-2.84122E-05-2.05004E-06-2.19803E-21-1.28194E-18
 -1      4151 9.00769E-05-2.35949E-05-2.85039E-05-1.83414E-06 4.43555E-19-1.02903E-18
 -1      4152 9.01356E-05-2.35912E-05-2.84936E-05-1.15251E-06 2.77256E-19-8.95113E-19
 -1      4153 8.78963E-05-2.22639E-05-2.81373E-05-2.46784E-06 8.31453E-20-1.29280E-18
 -1      4154 8.86593E-05-2.27021E-05-2.82822E-05-2.21822E-06 2.11633E-19-7.58789E-19
 -1      4155 8.87216E-05-2.26656E-05-2.82772E-05-1.36767E-06 1.49213E-19-1.74371E-18
 -1      4156 8.60300E-05-2.13730E-05-2.77216E-05-2.96442E-06-7.64444E-19-6.08263E-19
 -1      4157 8.69436E-05-2.17954E-05-2.79405E-05-2.66558E-06-6.24062E-19-1.12995E-18
 -1      4158 8.70061E-05-2.17036E-05-2.79448E-05-1.60428E-06-2.90492E-19-1.28045E-18
 -1      4159 8.37699E-05-2.05443E-05-2.71111E-05-3.59118E-06-1.63203E-19-4.12078E-19
 -1      4160 8.48639E-05-2.09202E-05-2.74322E-05-3.20735E-06 1.25467E-19-8.90634E-20
 -1      4161 8.49189E-05-2.07361E-05-2.74515E-05-1.87272E-06-7.12988E-19-8.47600E-19
 -1      4162 8.10203E-05-1.98321E-05-2.62337E-05-4.45103E-06-7.22824E-20-1.06121E-18
 -1      4163 8.23105E-05-2.01235E-05-2.66925E-05-3.91313E-06-2.55239E-19-1.07579E-18
 -1      4164 8.23447E-05-1.97893E-05-2.67351E-05-2.19941E-06 8.25344E-20-8.63851E-19
 -1      4165 7.73625E-05-1.93146E-05-2.48717E-05-5.90409E-06 3.97316E-19-1.16604E-18
 -1      4166 7.88609E-05-1.94344E-05-2.55322E-05-5.06002E-06-8.51053E-20-1.01416E-18
 -1      4167 7.87567E-05-1.88056E-05-2.56134E-05-2.70651E-06 1.58640E-19-1.48729E-18
 -1      4168 7.38511E-05-1.80375E-05-2.38388E-05-3.85406E-06 2.18494E-19-1.30889E-18
 -1      4169 9.62791E-05-2.92884E-05-2.87130E-05-4.79958E-07 2.60441E-20-1.14854E-18
 -1      4170 9.62276E-05-2.92559E-05-2.87012E-05-5.86038E-07 9.60310E-20-1.23558E-18
 -1      4171 9.63060E-05-2.92617E-05-2.87316E-05-6.05601E-07 1.47492E-19-1.25736E-18
 -1      4172 9.53823E-05-2.85272E-05-2.86515E-05-2.71094E-07-6.78021E-20-1.74134E-18
 -1      4173 9.54716E-05-2.86369E-05-2.86440E-05-2.62181E-07-1.51564E-19-1.49141E-18
 -1      4174 9.68278E-05-2.77910E-05-2.95860E-05 5.88786E-08-2.44981E-19-2.14296E-18
 -1      4175 9.69007E-05-2.82107E-05-2.94414E-05 1.57210E-07-2.56364E-19-2.07279E-18
 -1      4176 9.69524E-05-2.83399E-05-2.94039E-05 9.16717E-08-1.29977E-19-2.19656E-18
 -1      4177 9.55714E-05-2.87435E-05-2.86396E-05-2.63182E-07-2.07338E-19-1.03833E-18
 -1      4178 9.56568E-05-2.88387E-05-2.86363E-05-2.64721E-07-1.64608E-19-8.23650E-19
 -1      4179 9.55343E-05-2.86929E-05-2.86471E-05-1.87334E-07 8.63064E-20-1.50073E-18
 -1      4180 9.42999E-05-2.72438E-05-2.87391E-05-5.46281E-07 3.15477E-19-1.26585E-18
 -1      4181 9.44738E-05-2.74497E-05-2.87274E-05-4.75009E-07 2.52755E-19-8.40167E-19
 -1      4182 9.45157E-05-2.74929E-05-2.87195E-05-3.18556E-07-3.30405E-20-7.09772E-19
 -1      4183 9.41203E-05-2.70523E-05-2.87368E-05-3.99304E-07 1.05042E-19-7.93295E-19
 -1      4184 7.89581E-05-2.09663E-05-2.48204E-05 8.54601E-06 1.23347E-18-1.12749E-19
 -1      4185 7.57650E-05-1.94441E-05-2.40513E-05 7.25963E-06 1.03277E-18-1.54988E-18
 -1      4186 7.53450E-05-1.85864E-05-2.43974E-05 3.61123E-06 5.36953E-19-1.49373E-18
 -1      4187 7.99436E-05-2.07168E-05-2.54533E-05 7.17168E-06 3.19406E-19-8.03294E-19
 -1      4188 9.67947E-05-2.85762E-05-2.92369E-05-3.76176E-07 5.99501E-19-1.92716E-18
 -1      4189 9.66844E-05-2.84817E-05-2.92324E-05-4.42848E-07 7.73236E-19-2.03228E-18
 -1      4190 9.66705E-05-2.81705E-05-2.93543E-05-3.01560E-07 8.64723E-19-1.97930E-18
 -1      4191 9.51754E-05-2.82778E-05-2.86700E-05-2.99871E-07 5.36438E-20-1.72279E-18
 -1      4192 9.52745E-05-2.84047E-05-2.86595E-05-2.78538E-07-5.45600E-20-1.82490E-18
 -1      4193 9.53291E-05-2.84573E-05-2.86591E-05-1.95893E-07-1.96234E-19-2.06835E-18
 -1      4194 9.69128E-05-2.90109E-05-2.90997E-05 2.52574E-07-6.58419E-20-1.59192E-18
 -1      4195 9.68591E-05-2.91566E-05-2.90156E-05 2.81322E-07 1.05328E-19-1.42365E-18
 -1      4196 9.69661E-05-2.88966E-05-2.91729E-05 1.36520E-07 1.29186E-20-1.76477E-18
 -1      4197 9.49373E-05-2.79875E-05-2.86927E-05-3.52928E-07 1.76843E-19-1.56599E-18
 -1      4198 9.50529E-05-2.81356E-05-2.86803E-05-3.17070E-07 3.97446E-19-1.37523E-18
 -1      4199 9.48360E-05-2.78668E-05-2.86982E-05-2.59138E-07-1.71834E-19-1.08517E-18
 -1      4200 9.68671E-05-2.92096E-05-2.89974E-05 1.55780E-07 2.54005E-19-1.46146E-18
 -1      4201 9.63933E-05-2.92519E-05-2.87741E-05-6.28189E-07 2.49654E-19-1.45231E-18
 -1      4202 9.64675E-05-2.92157E-05-2.88199E-05-6.30343E-07 3.93937E-19-1.48825E-18
 -1      4203 9.66256E-05-2.92177E-05-2.88925E-05-5.22497E-07 2.87038E-19-1.56316E-18
 -1      4204 9.64630E-05-2.93030E-05-2.87867E-05-5.17081E-07 1.31111E-19-1.14328E-18
 -1      4205 9.68240E-05-2.90915E-05-2.90278E-05-3.81070E-07 2.78433E-19-1.99683E-18
 -1      4206 9.68674E-05-2.89346E-05-2.91126E-05-3.46323E-07 3.44826E-19-1.87618E-18
 -1      4207 7.92726E-05-1.95962E-05-2.55052E-05 5.03035E-06 5.62814E-20-5.81831E-19
 -1      4208 9.51013E-05-2.81848E-05-2.86771E-05-2.19004E-07 7.93962E-20-1.07079E-18
 -1      4209 9.59268E-05-2.91022E-05-2.86406E-05-3.92583E-07-2.71973E-19-7.45024E-19
 -1      4210 9.61251E-05-2.92228E-05-2.86706E-05-3.24872E-07-3.69301E-19-1.04195E-18
 -1      4211 9.62147E-05-2.92719E-05-2.86886E-05-3.41995E-07-1.83176E-19-1.28550E-18
 -1      4212 9.63160E-05-2.93127E-05-2.87147E-05-3.60837E-07-3.09716E-20-1.36737E-18
 -1      4213 9.64121E-05-2.93382E-05-2.87447E-05-3.77149E-07-2.04732E-21-1.55099E-18
 -1      4214 9.63193E-05-2.93217E-05-2.87153E-05-2.48520E-07-1.86324E-19-1.89353E-18
 -1      4215 7.47849E-05-1.78920E-05-2.43919E-05-1.01674E-06 3.49600E-19-1.76967E-18
 -1      4216 9.68851E-05-2.87161E-05-2.92165E-05-3.22023E-07 2.70578E-19-1.85911E-18
 -1      4217 9.68802E-05-2.84372E-05-2.93318E-05-2.43589E-07 4.72914E-19-2.12479E-18
 -1      4218 9.69390E-05-2.88102E-05-2.91978E-05-2.27819E-07 2.42490E-19-2.05369E-18
 -1      4219 9.57287E-05-2.88969E-05-2.86429E-05-1.90608E-07-8.66728E-20-1.15268E-18
 -1      4220 9.57530E-05-2.89317E-05-2.86368E-05-2.72244E-07-1.55626E-19-8.38763E-19
 -1      4221 9.58385E-05-2.90139E-05-2.86389E-05-2.82831E-07-2.19089E-19-1.03259E-18
 -1      4222 9.65065E-05-2.66486E-05-2.99415E-05 4.19884E-08 2.58597E-19-3.01538E-18
 -1      4223 9.65407E-05-2.67326E-05-2.99214E-05-1.99509E-08 1.87102E-19-2.75171E-18
 -1      4224 9.65937E-05-2.78248E-05-2.94760E-05-1.97674E-07 6.37394E-19-1.96783E-18
 -1      4225 9.65045E-05-2.73544E-05-2.96343E-05 3.43593E-08 6.43502E-19-2.12108E-18
 -1      4226 9.64857E-05-2.70575E-05-2.97520E-05 1.04849E-07 6.23264E-19-2.10456E-18
 -1      4227 9.67172E-05-2.79387E-05-2.94754E-05-1.89882E-07 7.03535E-19-2.16425E-18
 -1      4228 9.64198E-05-2.65297E-05-2.99524E-05 1.62751E-07 5.06424E-19-2.83812E-18
 -1      4229 9.64688E-05-2.65976E-05-2.99506E-05 8.27294E-08 4.48362E-19-2.94533E-18
 -1      4230 9.66965E-05-2.71872E-05-2.97834E-05 2.08631E-08 2.46296E-19-2.72960E-18
 -1      4231 9.69221E-05-2.91666E-05-2.90372E-05 2.43786E-08 3.96721E-19-1.52403E-18
 -1      4232 9.68545E-05-2.92746E-05-2.89617E-05 3.78811E-08 4.37934E-19-1.36771E-18
 -1      4233 9.65786E-05-2.93871E-05-2.87955E-05 2.66024E-08-3.46163E-19-8.23341E-19
 -1      4234 9.64794E-05-2.93753E-05-2.87574E-05 2.69835E-08-3.48245E-19-1.11338E-18
 -1      4235 9.63337E-05-2.93250E-05-2.87168E-05-5.04909E-08-2.05768E-19-1.25891E-18
 -1      4236 9.62291E-05-2.92761E-05-2.86931E-05-4.83792E-08-2.97337E-19-1.48041E-18
 -1      4237 9.59614E-05-2.90931E-05-2.86569E-05 2.39231E-08-4.39354E-19-9.70544E-19
 -1      4238 9.58616E-05-2.90092E-05-2.86501E-05 2.06662E-08-1.80141E-19-8.67422E-19
 -1      4239 9.57254E-05-2.88836E-05-2.86459E-05-3.99123E-08-2.23174E-20-1.13364E-18
 -1      4240 9.56250E-05-2.87822E-05-2.86463E-05-3.83591E-08 1.21902E-20-9.40244E-19
 -1      4241 9.55242E-05-2.86735E-05-2.86500E-05-4.05668E-08-1.23514E-19-1.07306E-18
 -1      4242 9.54175E-05-2.85566E-05-2.86546E-05-3.79537E-08 1.54772E-20-1.18229E-18
 -1      4243 9.53081E-05-2.84315E-05-2.86619E-05-4.47126E-08 1.00743E-19-1.30452E-18
 -1      4244 9.51910E-05-2.82964E-05-2.86697E-05-3.98096E-08 4.20302E-20-1.58966E-18
 -1      4245 9.50667E-05-2.81515E-05-2.86794E-05-5.21635E-08-2.65753E-19-1.31615E-18
 -1      4246 9.49320E-05-2.79941E-05-2.86891E-05-4.41503E-08-2.34971E-19-1.63413E-18
 -1      4247 9.47844E-05-2.78248E-05-2.86996E-05-6.29203E-08-8.83775E-20-1.50971E-18
 -1      4248 9.46235E-05-2.76400E-05-2.87096E-05-5.09786E-08-2.20852E-19-1.43988E-18
 -1      4249 9.44433E-05-2.74410E-05-2.87192E-05-7.68030E-08-3.90951E-19-1.31837E-18
 -1      4250 9.42463E-05-2.72233E-05-2.87276E-05-5.99243E-08-2.03633E-19-1.42892E-18
 -1      4251 9.40224E-05-2.69892E-05-2.87341E-05-9.31959E-08 6.15221E-21-1.30100E-18
 -1      4252 9.37783E-05-2.67336E-05-2.87383E-05-7.00437E-08-1.02573E-19-1.02452E-18
 -1      4253 9.34985E-05-2.64595E-05-2.87386E-05-1.10776E-07-5.95210E-19-9.92753E-19
 -1      4254 9.31953E-05-2.61618E-05-2.87351E-05-7.95112E-08-7.56144E-19-1.14209E-18
 -1      4255 9.28460E-05-2.58445E-05-2.87249E-05-1.27161E-07-9.50839E-19-1.06182E-18
 -1      4256 9.24707E-05-2.55025E-05-2.87092E-05-8.51869E-08-7.20395E-19-1.10528E-18
 -1      4257 9.20370E-05-2.51408E-05-2.86827E-05-1.38483E-07-4.39025E-19-1.04054E-18
 -1      4258 9.15761E-05-2.47555E-05-2.86484E-05-8.20493E-08 6.37747E-20-1.12069E-18
 -1      4259 9.10415E-05-2.43519E-05-2.85978E-05-1.38892E-07 4.94550E-20-1.46612E-18
 -1      4260 9.04801E-05-2.39281E-05-2.85364E-05-6.24911E-08 1.84933E-19-1.31921E-18
 -1      4261 8.98258E-05-2.34891E-05-2.84513E-05-1.20071E-07 3.11164E-19-1.42635E-18
 -1      4262 8.91476E-05-2.30363E-05-2.83515E-05-1.54921E-08 1.19535E-19-1.84311E-18
 -1      4263 8.83507E-05-2.25734E-05-2.82177E-05-7.08195E-08 7.95595E-20-2.04276E-18
 -1      4264 8.75354E-05-2.21059E-05-2.80647E-05 7.43091E-08 3.39802E-19-1.58877E-18
 -1      4265 8.65646E-05-2.16343E-05-2.78634E-05 2.32857E-08-3.06151E-19-1.35608E-18
 -1      4266 8.55840E-05-2.11698E-05-2.76373E-05 2.27623E-07-4.48276E-19-1.97014E-18
 -1      4267 8.43926E-05-2.07066E-05-2.73426E-05 1.80498E-07-4.86499E-19-1.86018E-18
 -1      4268 8.32036E-05-2.02629E-05-2.70166E-05 4.71200E-07-3.72036E-19-2.09178E-18
 -1      4269 8.17188E-05-1.98240E-05-2.65925E-05 4.24194E-07 1.01560E-19-2.00194E-18
 -1      4270 8.02710E-05-1.94089E-05-2.61327E-05 8.45199E-07 9.14341E-20-1.75447E-18
 -1      4271 9.60493E-05-2.91757E-05-2.86599E-05-2.78058E-07-3.55748E-19-1.18083E-18
 -1      4272 9.61448E-05-2.92327E-05-2.86792E-05-1.92779E-07-2.98216E-19-1.55203E-18
 -1      4273 9.61505E-05-2.92278E-05-2.86796E-05-8.88257E-09-4.31211E-19-1.30699E-18
 -1      4274 9.59614E-05-2.91086E-05-2.86502E-05-2.64473E-07-4.61367E-19-1.23069E-18
 -1      4275 7.80524E-05-1.88604E-05-2.54245E-05 8.30904E-07 9.06300E-20-1.76693E-18
 -1      4276 9.66723E-05-2.72599E-05-2.97513E-05 4.05834E-09-1.16770E-19-2.14513E-18
 -1      4277 9.67638E-05-2.74596E-05-2.96996E-05 1.44320E-08-1.37460E-19-2.17475E-18
 -1      4278 9.69534E-05-2.81846E-05-2.94713E-05 3.86849E-10-4.46390E-20-2.19744E-18
 -1      4279 9.69950E-05-2.85353E-05-2.93413E-05 3.28641E-08-2.22345E-20-2.08213E-18
 -1      4280 9.64975E-05-2.68393E-05-2.98530E-05 1.56729E-07 5.33103E-19-2.56182E-18
 -1      4281 9.70012E-05-2.88070E-05-2.92258E-05 1.51505E-08-2.09657E-20-1.86253E-18
 -1      4282 9.69728E-05-2.90153E-05-2.91250E-05 3.51040E-08 1.47760E-19-1.64128E-18
 -1      4283 9.69361E-05-2.90788E-05-2.90828E-05-9.05635E-08 1.46802E-19-1.60186E-18
 -1      4284 9.69880E-05-2.86539E-05-2.92857E-05-7.21756E-08 1.30958E-19-1.97101E-18
 -1      4285 9.65042E-05-2.66955E-05-2.99198E-05-1.20798E-07-5.47687E-21-2.30319E-18
 -1      4286 9.67696E-05-2.93421E-05-2.88967E-05 2.56877E-08 2.94154E-19-1.28835E-18
 -1      4287 9.66782E-05-2.93769E-05-2.88419E-05 3.32889E-08 1.56185E-19-9.48022E-19
 -1      4288 9.68063E-05-2.93063E-05-2.89321E-05-1.02312E-07 3.89278E-19-1.44147E-18
 -1      4289 9.65736E-05-2.93502E-05-2.88085E-05-3.03926E-07 7.81789E-21-1.66916E-18
 -1      4290 9.66634E-05-2.93276E-05-2.88554E-05-3.05715E-07 2.23709E-19-1.77653E-18
 -1      4291 9.60452E-05-2.91583E-05-2.86648E-05-1.06269E-08-3.55175E-19-1.08088E-18
 -1      4292 9.59887E-05-2.91194E-05-2.86593E-05-1.08920E-07-4.69425E-19-1.19484E-18
 -1      4293 7.63743E-05-1.85785E-05-2.47965E-05 1.41368E-06 5.00492E-19-1.76660E-18
 -1      4294 9.63710E-05-2.93357E-05-2.87306E-05-1.65050E-07-2.62734E-19-1.63656E-18
 -1      4295 9.66497E-05-2.73554E-05-2.96996E-05-2.19472E-08 4.51690E-19-2.50147E-18
 -1      4296 9.64707E-05-2.65444E-05-2.99709E-05-5.85419E-08 1.89463E-19-2.27519E-18
 -1      4297 9.65710E-05-2.93686E-05-2.88026E-05-1.78136E-07-1.82830E-19-1.83518E-18
 -1      4298 9.68388E-05-2.81470E-05-2.94411E-05-2.01626E-07 5.32205E-19-2.30915E-18
 -1      4299 9.67670E-05-2.77795E-05-2.95660E-05-9.15261E-08 4.72092E-19-2.37802E-18
 -1      4300 9.67621E-05-2.75616E-05-2.96562E-05-4.23141E-08 4.17680E-19-2.50276E-18
 -1      4301 9.69115E-05-2.82771E-05-2.94133E-05-1.50868E-07 3.35510E-19-2.32606E-18
 -1      4302 9.69560E-05-2.89745E-05-2.91340E-05-1.75735E-07 1.58039E-19-1.83783E-18
 -1      4303 9.69772E-05-2.87575E-05-2.92381E-05-1.41992E-07 1.60875E-19-1.91177E-18
 -1      4304 9.67507E-05-2.92705E-05-2.89187E-05-3.12112E-07 2.38465E-19-1.62912E-18
 -1      4305 9.68190E-05-2.91836E-05-2.89840E-05-3.01203E-07 8.32734E-20-1.75472E-18
 -1      4306 9.66698E-05-2.70742E-05-2.98219E-05-1.76413E-08 2.98186E-20-2.53205E-18
 -1      4307 9.69117E-05-2.91373E-05-2.90479E-05-1.81997E-07 1.85920E-19-1.66283E-18
 -1      4308 9.57692E-05-2.89285E-05-2.86467E-05-1.28552E-07-1.14930E-20-1.04836E-18
 -1      4309 9.68296E-05-2.76454E-05-2.96537E-05 2.45614E-08-8.04246E-20-2.44561E-18
 -1      4310 9.68710E-05-2.78437E-05-2.95824E-05-2.35583E-08 6.55849E-20-2.34868E-18
 -1      4311 9.68144E-05-2.76397E-05-2.96479E-05-4.26776E-08 3.26361E-19-2.54009E-18
 -1      4312 9.69323E-05-2.81861E-05-2.94632E-05-8.11080E-08 3.16338E-19-2.23594E-18
 -1      4313 9.69681E-05-2.84734E-05-2.93548E-05-1.30990E-07 1.82264E-19-2.02169E-18
 -1      4314 9.59441E-05-2.90861E-05-2.86543E-05-1.70769E-07-3.23689E-19-1.25933E-18
 -1      4315 9.66226E-05-2.93828E-05-2.88189E-05-9.86553E-08-1.09534E-19-1.52885E-18
 -1      4316 9.58630E-05-2.90172E-05-2.86480E-05-1.33383E-07-2.60938E-19-8.10305E-19
 -1      4317 9.64680E-05-2.93632E-05-2.87578E-05-1.72045E-07-3.44903E-19-1.70672E-18
 -3
    1PSTEP                         4           1           1          
  100CL  101 1.000000000        4317                     0    1           1
 -4  ERROR       1    1
 -5  STR(%)      1    1    0    0
 -1         1 1.23405E+01
 -1         2 2.41891E+01
 -1         3 1.22466E-01
 -1         4 1.08470E-01
 -1         5 1.40392E+01
 -1         6 1.31433E+01
 -1         7 1.31433E+01
 -1         8 3.66390E+00
 -1         9 1.82693E+00
 -1        10 1.29030E+00
 -1        11 1.04379E+00
 -1        12 8.99994E-01
 -1        13 8.08879E-01
 -1        14 7.53883E-01
 -1        15 7.55870E-01
 -1        16 8.13185E-01
 -1        17 9.00872E-01
 -1        18 1.05265E+00
 -1        19 1.30784E+00
 -1        20 1.83586E+00
 -1        21 3.50552E+00
 -1        22 8.64133E+00
 -1        23 1.31433E+01
 -1        24 4.31791E+00
 -1        25 3.34098E+00
 -1        26 2.11119E+00
 -1        27 1.36237E+00
 -1        28 1.01381E+00
 -1        29 7.74997E-01
 -1        30 5.95260E-01
 -1        31 4.55080E-01
 -1        32 3.47684E-01
 -1        33 2.68990E-01
 -1        34 2.05860E-01
 -1        35 1.56253E-01
 -1        36 1.18214E-01
 -1        37 8.99685E-02
 -1        38 6.99571E-02
 -1        39 5.68436E-02
 -1        40 4.94970E-02
 -1        41 5.38950E-02
 -1        42 6.39065E-02
 -1        43 7.70242E-02
 -1        44 9.27048E-02
 -1        45 1.25308E-01
 -1        46 1.67454E-01
 -1        47 2.19659E-01
 -1        48 2.81543E-01
 -1        49 3.51128E-01
 -1        50 4.23882E-01
 -1        51 4.97608E-01
 -1        52 6.45981E-01
 -1        53 8.08388E-01
 -1        54 1.00961E+00
 -1        55 1.17891E+00
 -1        56 1.24998E+00
 -1        57 1.31174E+00
 -1        58 1.38664E+00
 -1        59 1.56051E+00
 -1        60 2.06992E+00
 -1        61 3.35145E+00
 -1        62 4.55597E+00
 -1        63 4.74731E+00
 -1        64 4.74731E+00
 -1        65 4.50226E+00
 -1        66 3.75016E+00
 -1        67 2.44438E+00
 -1        68 1.42469E+00
 -1        69 7.28100E-01
 -1        70 4.62473E-01
 -1        71 2.48458E-01
 -1        72 1.40392E+01
 -1        73 3.39466E+00
 -1        74 2.41303E+00
 -1        75 1.66581E+00
 -1        76 1.14470E+00
 -1        77 9.05843E-01
 -1        78 7.31166E-01
 -1        79 5.87705E-01
 -1        80 4.68152E-01
 -1        81 3.68685E-01
 -1        82 2.94525E-01
 -1        83 2.32880E-01
 -1        84 1.82117E-01
 -1        85 1.41484E-01
 -1        86 1.10047E-01
 -1        87 8.68548E-02
 -1        88 7.10397E-02
 -1        89 6.18695E-02
 -1        90 6.65728E-02
 -1        91 7.99236E-02
 -1        92 9.93470E-02
 -1        93 1.24767E-01
 -1        94 1.55914E-01
 -1        95 1.92072E-01
 -1        96 2.31701E-01
 -1        97 3.00315E-01
 -1        98 3.83021E-01
 -1        99 4.75571E-01
 -1       100 5.71517E-01
 -1       101 6.58651E-01
 -1       102 7.16680E-01
 -1       103 7.61971E-01
 -1       104 1.02826E+00
 -1       105 1.28294E+00
 -1       106 1.43230E+00
 -1       107 1.84142E+00
 -1       108 2.06388E+00
 -1       109 2.37459E+00
 -1       110 2.91460E+00
 -1       111 4.27983E+00
 -1       112 4.94960E+00
 -1       113 5.17096E+00
 -1       114 5.17096E+00
 -1       115 4.29653E+00
 -1       116 2.62092E+00
 -1       117 1.17604E+00
 -1       118 4.77103E-01
 -1       119 4.66400E-01
 -1       120 3.67272E-01
 -1       121 3.22018E-01
 -1       122 5.08500E-01
 -1       123 6.33991E-01
 -1       124 6.33991E-01
 -1       125 6.05830E-01
 -1       126 4.39527E-01
 -1       127 1.04902E+00
 -1       128 1.09586E+00
 -1       129 1.09586E+00
 -1       130 5.40536E-01
 -1       131 5.95600E-01
 -1       132 6.69580E-01
 -1       133 6.69580E-01
 -1       134 5.53775E-01
 -1       135 3.24701E-01
 -1       136 2.69543E-01
 -1       137 2.45534E+01
 -1       138 4.73437E+01
 -1       139 4.73437E+01
 -1       140 2.05734E+01
 -1       141 1.35077E+01
 -1       142 1.35077E+01
 -1       143 1.23854E+01
 -1       144 1.33001E+01
 -1       145 1.33001E+01
 -1       146 1.72460E+01
 -1       147 4.38803E+01
 -1       148 4.38803E+01
 -1       149 2.32905E+01
 -1       150 2.32682E+01
 -1       151 2.41517E+01
 -1       152 2.62326E+01
 -1       153 3.44627E+01
 -1       154 3.42696E+01
 -1       155 1.43538E+01
 -1       156 1.22142E+01
 -1       157 1.23405E+01
 -1       158 1.21959E+01
 -1       159 1.21860E+01
 -1       160 2.12884E+01
 -1       161 4.79252E+01
 -1       162 4.79252E+01
 -1       163 2.41891E+01
 -1       164 6.07812E+00
 -1       165 2.30093E+00
 -1       166 1.50600E+00
 -1       167 1.15836E+00
 -1       168 9.72094E-01
 -1       169 8.64408E-01
 -1       170 7.96040E-01
 -1       171 7.55870E-01
 -1       172 7.99492E-01
 -1       173 8.67267E-01
 -1       174 9.81050E-01
 -1       175 1.17256E+00
 -1       176 1.52764E+00
 -1       177 2.26088E+00
 -1       178 3.93116E+00
 -1       179 1.40392E+01
 -1       180 4.31791E+00
 -1       181 3.34098E+00
 -1       182 2.11119E+00
 -1       183 1.44719E+00
 -1       184 1.02537E+00
 -1       185 7.74997E-01
 -1       186 5.95260E-01
 -1       187 4.67937E-01
 -1       188 3.67963E-01
 -1       189 2.90125E-01
 -1       190 2.33590E-01
 -1       191 1.85731E-01
 -1       192 1.46384E-01
 -1       193 1.14923E-01
 -1       194 9.04957E-02
 -1       195 7.21626E-02
 -1       196 5.89640E-02
 -1       197 4.99473E-02
 -1       198 5.38950E-02
 -1       199 6.39065E-02
 -1       200 7.77090E-02
 -1       201 1.02239E-01
 -1       202 1.33962E-01
 -1       203 1.73244E-01
 -1       204 2.19828E-01
 -1       205 2.81543E-01
 -1       206 3.73568E-01
 -1       207 4.82255E-01
 -1       208 5.98109E-01
 -1       209 7.07693E-01
 -1       210 8.33385E-01
 -1       211 1.00961E+00
 -1       212 1.17891E+00
 -1       213 1.24998E+00
 -1       214 1.31174E+00
 -1       215 1.38664E+00
 -1       216 1.56051E+00
 -1       217 2.16118E+00
 -1       218 3.35145E+00
 -1       219 4.55597E+00
 -1       220 4.74731E+00
 -1       221 4.50226E+00
 -1       222 3.75016E+00
 -1       223 2.68663E+00
 -1       224 1.82603E+00
 -1       225 1.25078E+00
 -1       226 8.28923E-01
 -1       227 5.65465E-01
 -1       228 3.39466E+00
 -1       229 2.41303E+00
 -1       230 1.66581E+00
 -1       231 1.14470E+00
 -1       232 9.05843E-01
 -1       233 7.31166E-01
 -1       234 5.87705E-01
 -1       235 4.68152E-01
 -1       236 3.68685E-01
 -1       237 2.94525E-01
 -1       238 2.32880E-01
 -1       239 1.85002E-01
 -1       240 1.46257E-01
 -1       241 1.15407E-01
 -1       242 9.18262E-02
 -1       243 7.48324E-02
 -1       244 6.37685E-02
 -1       245 6.29328E-02
 -1       246 7.16920E-02
 -1       247 8.52527E-02
 -1       248 1.03244E-01
 -1       249 1.25078E-01
 -1       250 1.58415E-01
 -1       251 2.07002E-01
 -1       252 2.65636E-01
 -1       253 3.33511E-01
 -1       254 4.07907E-01
 -1       255 4.85012E-01
 -1       256 5.71517E-01
 -1       257 6.58651E-01
 -1       258 7.16680E-01
 -1       259 8.90143E-01
 -1       260 1.04807E+00
 -1       261 1.28294E+00
 -1       262 1.43230E+00
 -1       263 1.84142E+00
 -1       264 2.06388E+00
 -1       265 2.37459E+00
 -1       266 2.97974E+00
 -1       267 4.27983E+00
 -1       268 4.94960E+00
 -1       269 5.17096E+00
 -1       270 4.29653E+00
 -1       271 2.62092E+00
 -1       272 1.42013E+00
 -1       273 6.31252E-01
 -1       274 4.77103E-01
 -1       275 4.41701E-01
 -1       276 7.15853E-01
 -1       277 1.01969E+00
 -1       278 1.16773E+00
 -1       279 1.16773E+00
 -1       280 1.06350E+00
 -1       281 1.81764E+00
 -1       282 2.33519E+00
 -1       283 2.33519E+00
 -1       284 1.97467E+00
 -1       285 9.98974E-01
 -1       286 1.21523E+00
 -1       287 1.21523E+00
 -1       288 1.15965E+00
 -1       289 8.71131E-01
 -1       290 6.94934E-01
 -1       291 3.19939E+01
 -1       292 2.73237E+01
 -1       293 4.73437E+01
 -1       294 2.17963E+01
 -1       295 1.16815E+01
 -1       296 1.35077E+01
 -1       297 1.22043E+01
 -1       298 1.23854E+01
 -1       299 1.33001E+01
 -1       300 1.17068E+01
 -1       301 1.80259E+01
 -1       302 4.38803E+01
 -1       303 3.82081E+01
 -1       304 2.58801E+01
 -1       305 2.58801E+01
 -1       306 2.52282E+01
 -1       307 3.44627E+01
 -1       308 3.44627E+01
 -1       309 1.43538E+01
 -1       310 1.17333E+01
 -1       311 1.22142E+01
 -1       312 1.23405E+01
 -1       313 1.21959E+01
 -1       314 1.21860E+01
 -1       315 1.10669E+01
 -1       316 2.29121E+01
 -1       317 4.79252E+01
 -1       318 2.97187E+01
 -1       319 3.19939E+01
 -1       320 1.07043E+00
 -1       321 2.47960E+00
 -1       322 7.88894E-01
 -1       323 6.95079E-01
 -1       324 6.31928E-01
 -1       325 5.87648E-01
 -1       326 5.90886E-01
 -1       327 6.34563E-01
 -1       328 7.01283E-01
 -1       329 7.96475E-01
 -1       330 9.31920E-01
 -1       331 1.16025E+00
 -1       332 1.32921E+00
 -1       333 2.20067E+00
 -1       334 1.91416E+00
 -1       335 1.72954E+00
 -1       336 1.26729E+00
 -1       337 9.07005E-01
 -1       338 6.55882E-01
 -1       339 5.38399E-01
 -1       340 4.41329E-01
 -1       341 3.55826E-01
 -1       342 2.90528E-01
 -1       343 2.35443E-01
 -1       344 1.88226E-01
 -1       345 1.52789E-01
 -1       346 1.23744E-01
 -1       347 9.94585E-02
 -1       348 7.96595E-02
 -1       349 6.38104E-02
 -1       350 5.12041E-02
 -1       351 4.67250E-02
 -1       352 4.77122E-02
 -1       353 5.97076E-02
 -1       354 7.77090E-02
 -1       355 1.02239E-01
 -1       356 1.39361E-01
 -1       357 1.94999E-01
 -1       358 2.64086E-01
 -1       359 3.46806E-01
 -1       360 4.41246E-01
 -1       361 5.42102E-01
 -1       362 6.39100E-01
 -1       363 7.23620E-01
 -1       364 8.17190E-01
 -1       365 9.09767E-01
 -1       366 9.20817E-01
 -1       367 7.87277E-01
 -1       368 6.83513E-01
 -1       369 8.29092E-01
 -1       370 1.55168E+00
 -1       371 2.17907E+00
 -1       372 2.81835E+00
 -1       373 3.08562E+00
 -1       374 2.87043E+00
 -1       375 2.84583E+00
 -1       376 2.41726E+00
 -1       377 2.05487E+00
 -1       378 1.71624E+00
 -1       379 1.37472E+00
 -1       380 1.18186E+00
 -1       381 1.13036E+00
 -1       382 8.91145E-01
 -1       383 7.03674E-01
 -1       384 5.44903E-01
 -1       385 4.37570E-01
 -1       386 3.71071E-01
 -1       387 3.07350E-01
 -1       388 2.51959E-01
 -1       389 2.06772E-01
 -1       390 1.67276E-01
 -1       391 1.33966E-01
 -1       392 1.06710E-01
 -1       393 8.58990E-02
 -1       394 7.05614E-02
 -1       395 6.01576E-02
 -1       396 5.42811E-02
 -1       397 5.65657E-02
 -1       398 6.35729E-02
 -1       399 7.81435E-02
 -1       400 1.02189E-01
 -1       401 1.33097E-01
 -1       402 1.79688E-01
 -1       403 2.53614E-01
 -1       404 3.47322E-01
 -1       405 4.62015E-01
 -1       406 5.96138E-01
 -1       407 7.43222E-01
 -1       408 8.88981E-01
 -1       409 1.00930E+00
 -1       410 1.12794E+00
 -1       411 1.15337E+00
 -1       412 1.15337E+00
 -1       413 1.01112E+00
 -1       414 9.00052E-01
 -1       415 1.12445E+00
 -1       416 2.17831E+00
 -1       417 2.86823E+00
 -1       418 3.04044E+00
 -1       419 2.86667E+00
 -1       420 2.93369E+00
 -1       421 2.71817E+00
 -1       422 2.24355E+00
 -1       423 1.85552E+00
 -1       424 1.39737E+00
 -1       425 9.52891E-01
 -1       426 4.96678E-01
 -1       427 1.68323E+00
 -1       428 1.46572E+00
 -1       429 9.52891E-01
 -1       430 1.74112E+00
 -1       431 2.14957E+00
 -1       432 3.80597E+00
 -1       433 3.90179E+00
 -1       434 3.90179E+00
 -1       435 2.29947E+00
 -1       436 1.85004E+00
 -1       437 1.74021E+00
 -1       438 1.44679E+00
 -1       439 1.32085E+00
 -1       440 2.73237E+01
 -1       441 3.26398E+01
 -1       442 3.26398E+01
 -1       443 1.63286E+01
 -1       444 8.55702E+00
 -1       445 9.13064E-01
 -1       446 1.03287E+01
 -1       447 1.06010E+01
 -1       448 1.10643E+01
 -1       449 7.83146E+00
 -1       450 8.41360E+00
 -1       451 1.50101E+01
 -1       452 2.63804E+01
 -1       453 2.26729E+01
 -1       454 3.32132E+01
 -1       455 3.32132E+01
 -1       456 2.48277E+01
 -1       457 2.19787E+01
 -1       458 1.21960E+01
 -1       459 8.32404E+00
 -1       460 9.42090E+00
 -1       461 1.10993E+01
 -1       462 1.11624E+01
 -1       463 1.01705E+01
 -1       464 7.05234E+00
 -1       465 9.57417E+00
 -1       466 1.69067E+01
 -1       467 2.97187E+01
 -1       468 2.90412E+01
 -1       469 7.31155E+00
 -1       470 2.28087E+01
 -1       471 5.79878E+00
 -1       472 1.04766E+00
 -1       473 4.86503E-01
 -1       474 5.11101E-01
 -1       475 4.31668E-01
 -1       476 4.57580E-01
 -1       477 4.87149E-01
 -1       478 5.11206E-01
 -1       479 5.11206E-01
 -1       480 6.09239E-01
 -1       481 8.91145E-01
 -1       482 8.02979E-01
 -1       483 4.71577E+00
 -1       484 7.02268E-01
 -1       485 5.88751E-01
 -1       486 4.76435E-01
 -1       487 3.77855E-01
 -1       488 3.22970E-01
 -1       489 2.73021E-01
 -1       490 2.25830E-01
 -1       491 1.87338E-01
 -1       492 1.53858E-01
 -1       493 1.24733E-01
 -1       494 1.00186E-01
 -1       495 8.00988E-02
 -1       496 6.40674E-02
 -1       497 5.12041E-02
 -1       498 4.25514E-02
 -1       499 3.84098E-02
 -1       500 4.63852E-02
 -1       501 5.81674E-02
 -1       502 8.61077E-02
 -1       503 1.24406E-01
 -1       504 1.72766E-01
 -1       505 2.32672E-01
 -1       506 3.04969E-01
 -1       507 3.89287E-01
 -1       508 4.83205E-01
 -1       509 5.81160E-01
 -1       510 6.73191E-01
 -1       511 7.56323E-01
 -1       512 8.28210E-01
 -1       513 9.18481E-01
 -1       514 9.70115E-01
 -1       515 9.78542E-01
 -1       516 1.25892E+00
 -1       517 1.41889E+00
 -1       518 1.82122E+00
 -1       519 2.20540E+00
 -1       520 2.81897E+00
 -1       521 2.81383E+00
 -1       522 2.95749E+00
 -1       523 2.38269E+00
 -1       524 2.33244E+00
 -1       525 2.11734E+00
 -1       526 1.71624E+00
 -1       527 5.44903E-01
 -1       528 4.37570E-01
 -1       529 3.71071E-01
 -1       530 3.07350E-01
 -1       531 2.51959E-01
 -1       532 2.07436E-01
 -1       533 1.68471E-01
 -1       534 1.35294E-01
 -1       535 1.09655E-01
 -1       536 8.88154E-02
 -1       537 7.13205E-02
 -1       538 5.67473E-02
 -1       539 4.64490E-02
 -1       540 4.26779E-02
 -1       541 4.75610E-02
 -1       542 6.01980E-02
 -1       543 7.89650E-02
 -1       544 1.17753E-01
 -1       545 1.68366E-01
 -1       546 2.33371E-01
 -1       547 3.15112E-01
 -1       548 4.15172E-01
 -1       549 5.33462E-01
 -1       550 6.66812E-01
 -1       551 8.06970E-01
 -1       552 9.38195E-01
 -1       553 1.04838E+00
 -1       554 1.13416E+00
 -1       555 1.25246E+00
 -1       556 1.30443E+00
 -1       557 1.31914E+00
 -1       558 1.54925E+00
 -1       559 2.10764E+00
 -1       560 2.42474E+00
 -1       561 3.04044E+00
 -1       562 3.70938E+00
 -1       563 3.61396E+00
 -1       564 2.93369E+00
 -1       565 2.64365E+00
 -1       566 2.35228E+00
 -1       567 1.85552E+00
 -1       568 1.77164E+00
 -1       569 3.71719E+00
 -1       570 4.48565E+00
 -1       571 1.77164E+00
 -1       572 2.61379E+00
 -1       573 5.96504E+00
 -1       574 7.76478E+00
 -1       575 7.76478E+00
 -1       576 3.90121E+00
 -1       577 2.65110E+00
 -1       578 2.07000E+00
 -1       579 1.42618E+00
 -1       580 1.46241E+01
 -1       581 2.90412E+01
 -1       582 7.03674E-01
 -1       583 3.26398E+01
 -1       584 8.30140E+00
 -1       585 8.76819E-01
 -1       586 2.01483E+01
 -1       587 8.16749E+00
 -1       588 2.48277E+01
 -1       589 4.57532E-01
 -1       590 5.54636E+00
 -1       591 8.13530E+00
 -1       592 5.77220E+00
 -1       593 8.49334E+00
 -1       594 7.44899E+00
 -1       595 1.16568E+01
 -1       596 1.94047E+01
 -1       597 2.50755E+01
 -1       598 3.32132E+01
 -1       599 1.41975E+01
 -1       600 4.53721E+00
 -1       601 1.03503E+01
 -1       602 4.72278E+00
 -1       603 7.15669E+00
 -1       604 7.11211E+00
 -1       605 4.97322E+00
 -1       606 7.91979E+00
 -1       607 1.29776E+01
 -1       608 1.32803E+00
 -1       609 5.33525E+00
 -1       610 6.10888E+00
 -1       611 5.11101E-01
 -1       612 3.85456E+00
 -1       613 1.42618E+00
 -1       614 1.56375E+01
 -1       615 4.63965E-01
 -1       616 5.73044E+00
 -1       617 3.66915E+00
 -1       618 7.94012E+00
 -1       619 1.07335E+01
 -1       620 3.58526E-01
 -1       621 3.42875E-01
 -1       622 3.62003E-01
 -1       623 3.38070E-01
 -1       624 5.43936E-01
 -1       625 1.27891E+01
 -1       626 3.96939E-01
 -1       627 3.84022E-01
 -1       628 3.43288E-01
 -1       629 2.93761E-01
 -1       630 2.44208E-01
 -1       631 2.12941E-01
 -1       632 1.80552E-01
 -1       633 1.49639E-01
 -1       634 1.21716E-01
 -1       635 9.88435E-02
 -1       636 8.00988E-02
 -1       637 6.40674E-02
 -1       638 5.04602E-02
 -1       639 3.94750E-02
 -1       640 2.96428E-02
 -1       641 3.12297E-02
 -1       642 4.27792E-02
 -1       643 6.81151E-02
 -1       644 9.98838E-02
 -1       645 1.39746E-01
 -1       646 1.89378E-01
 -1       647 2.50335E-01
 -1       648 3.23842E-01
 -1       649 4.10457E-01
 -1       650 5.09595E-01
 -1       651 6.21446E-01
 -1       652 7.35763E-01
 -1       653 8.41202E-01
 -1       654 9.74255E-01
 -1       655 1.17516E+00
 -1       656 1.37803E+00
 -1       657 1.49879E+00
 -1       658 2.02311E+00
 -1       659 2.42261E+00
 -1       660 3.36120E+00
 -1       661 4.40876E+00
 -1       662 4.73719E+00
 -1       663 3.13374E+00
 -1       664 4.89965E+00
 -1       665 2.39587E+00
 -1       666 2.33244E+00
 -1       667 2.13870E+00
 -1       668 3.27887E-01
 -1       669 1.11016E+01
 -1       670 3.96448E-01
 -1       671 2.33739E-01
 -1       672 1.96726E-01
 -1       673 1.62649E-01
 -1       674 1.34891E-01
 -1       675 1.10232E-01
 -1       676 8.90070E-02
 -1       677 7.13205E-02
 -1       678 5.67473E-02
 -1       679 4.51461E-02
 -1       680 3.64685E-02
 -1       681 3.56669E-02
 -1       682 4.35756E-02
 -1       683 6.59641E-02
 -1       684 9.89445E-02
 -1       685 1.41207E-01
 -1       686 1.95019E-01
 -1       687 2.62723E-01
 -1       688 3.46539E-01
 -1       689 4.48246E-01
 -1       690 5.68652E-01
 -1       691 7.06773E-01
 -1       692 8.58573E-01
 -1       693 1.01514E+00
 -1       694 1.15991E+00
 -1       695 1.33247E+00
 -1       696 1.61828E+00
 -1       697 1.89404E+00
 -1       698 2.21724E+00
 -1       699 2.29913E+00
 -1       700 2.57081E+00
 -1       701 3.53506E+00
 -1       702 4.20659E+00
 -1       703 3.61396E+00
 -1       704 3.85456E+00
 -1       705 3.17653E+00
 -1       706 2.35228E+00
 -1       707 1.84376E+00
 -1       708 8.22621E+00
 -1       709 1.82351E+00
 -1       710 7.08492E+00
 -1       711 9.38410E+00
 -1       712 4.64046E-01
 -1       713 4.88135E+00
 -1       714 4.04229E+00
 -1       715 5.73376E+00
 -1       716 6.98161E+00
 -1       717 3.49064E-01
 -1       718 8.96264E+00
 -1       719 5.06184E+00
 -1       720 1.56649E+01
 -1       721 2.73338E-01
 -1       722 3.92870E-01
 -1       723 3.62003E-01
 -1       724 1.10257E+01
 -1       725 5.15264E-01
 -1       726 3.59830E-01
 -1       727 3.53452E+00
 -1       728 3.53506E+00
 -1       729 1.56908E+01
 -1       730 9.56060E+00
 -1       731 1.20366E+01
 -1       732 1.61680E+01
 -1       733 3.40892E+00
 -1       734 1.19261E+01
 -1       735 4.89965E+00
 -1       736 4.40876E+00
 -1       737 5.38341E+00
 -1       738 4.01153E+00
 -1       739 5.73873E+00
 -1       740 3.59830E-01
 -1       741 3.42398E-01
 -1       742 3.65029E+00
 -1       743 4.41240E+00
 -1       744 4.43279E+00
 -1       745 1.82922E+00
 -1       746 8.76993E+00
 -1       747 2.60482E+00
 -1       748 6.16044E+00
 -1       749 3.96104E+00
 -1       750 3.57903E-01
 -1       751 4.85075E+00
 -1       752 6.83524E+00
 -1       753 7.23355E+00
 -1       754 6.59719E+00
 -1       755 2.40775E-01
 -1       756 9.38410E+00
 -1       757 3.85456E+00
 -1       758 6.83179E+00
 -1       759 4.04229E+00
 -1       760 2.54900E-01
 -1       761 2.48518E-01
 -1       762 2.26938E-01
 -1       763 1.98697E-01
 -1       764 1.72051E-01
 -1       765 1.50889E-01
 -1       766 1.28597E-01
 -1       767 1.07030E-01
 -1       768 8.71529E-02
 -1       769 6.93159E-02
 -1       770 5.34275E-02
 -1       771 3.90841E-02
 -1       772 2.56526E-02
 -1       773 1.97512E-02
 -1       774 2.74480E-02
 -1       775 4.82461E-02
 -1       776 7.43502E-02
 -1       777 1.08237E-01
 -1       778 1.51811E-01
 -1       779 2.05752E-01
 -1       780 2.71039E-01
 -1       781 3.47689E-01
 -1       782 4.33957E-01
 -1       783 5.41226E-01
 -1       784 6.80630E-01
 -1       785 8.40057E-01
 -1       786 1.03973E+00
 -1       787 1.26352E+00
 -1       788 1.60270E+00
 -1       789 2.04447E+00
 -1       790 2.47497E+00
 -1       791 2.92879E+00
 -1       792 3.66915E+00
 -1       793 3.12433E+00
 -1       794 2.39587E+00
 -1       795 2.78975E+00
 -1       796 2.86649E-01
 -1       797 1.63434E-01
 -1       798 1.89053E-01
 -1       799 1.13505E-01
 -1       800 9.17703E-02
 -1       801 7.26504E-02
 -1       802 5.59385E-02
 -1       803 4.29695E-02
 -1       804 3.17339E-02
 -1       805 2.15035E-02
 -1       806 2.61705E-02
 -1       807 4.71267E-02
 -1       808 7.31099E-02
 -1       809 1.05776E-01
 -1       810 1.47002E-01
 -1       811 1.98918E-01
 -1       812 2.64038E-01
 -1       813 3.51459E-01
 -1       814 4.56833E-01
 -1       815 5.82315E-01
 -1       816 7.42768E-01
 -1       817 9.35177E-01
 -1       818 1.15746E+00
 -1       819 1.44797E+00
 -1       820 1.77834E+00
 -1       821 2.22357E+00
 -1       822 2.92928E+00
 -1       823 5.81828E+00
 -1       824 3.17653E+00
 -1       825 4.08742E+00
 -1       826 2.78975E+00
 -1       827 2.88616E-01
 -1       828 3.05901E-01
 -1       829 7.82375E+00
 -1       830 3.01378E-01
 -1       831 1.37671E-01
 -1       832 3.53452E+00
 -1       833 2.35407E-01
 -1       834 8.24243E+00
 -1       835 1.04187E+01
 -1       836 5.56816E+00
 -1       837 6.25296E+00
 -1       838 9.60349E+00
 -1       839 2.81921E-01
 -1       840 2.81727E-01
 -1       841 1.03694E+01
 -1       842 2.47182E-01
 -1       843 2.80643E-01
 -1       844 2.80118E-01
 -1       845 2.17550E-01
 -1       846 2.88616E-01
 -1       847 1.03694E+01
 -1       848 2.54200E-01
 -1       849 4.85202E+00
 -1       850 6.13922E+00
 -1       851 2.72601E-01
 -1       852 2.88829E-01
 -1       853 3.53506E+00
 -1       854 1.82759E-01
 -1       855 1.75501E-01
 -1       856 1.59808E-01
 -1       857 1.40153E-01
 -1       858 1.23536E-01
 -1       859 1.07060E-01
 -1       860 9.02816E-02
 -1       861 7.42269E-02
 -1       862 5.93741E-02
 -1       863 4.57746E-02
 -1       864 3.31879E-02
 -1       865 2.95472E-02
 -1       866 3.25419E-02
 -1       867 4.62126E-02
 -1       868 7.10245E-02
 -1       869 1.03323E-01
 -1       870 1.44184E-01
 -1       871 1.95384E-01
 -1       872 2.58694E-01
 -1       873 3.35722E-01
 -1       874 4.27641E-01
 -1       875 5.34676E-01
 -1       876 6.55059E-01
 -1       877 7.98627E-01
 -1       878 1.00800E+00
 -1       879 1.34865E+00
 -1       880 1.82905E+00
 -1       881 2.75361E+00
 -1       882 4.77655E+00
 -1       883 6.13922E+00
 -1       884 7.99293E-02
 -1       885 9.76300E-02
 -1       886 4.90917E-02
 -1       887 3.56261E-02
 -1       888 2.49444E-02
 -1       889 2.70969E-02
 -1       890 3.95778E-02
 -1       891 6.31129E-02
 -1       892 9.44893E-02
 -1       893 1.35609E-01
 -1       894 1.88266E-01
 -1       895 2.55096E-01
 -1       896 3.38965E-01
 -1       897 4.42865E-01
 -1       898 5.69675E-01
 -1       899 7.21571E-01
 -1       900 8.98631E-01
 -1       901 1.09624E+00
 -1       902 1.42098E+00
 -1       903 1.90327E+00
 -1       904 2.56067E+00
 -1       905 3.86958E+00
 -1       906 6.73654E+00
 -1       907 2.08196E-01
 -1       908 6.93541E+00
 -1       909 6.71834E+00
 -1       910 3.89833E+00
 -1       911 6.37359E-02
 -1       912 1.52385E-01
 -1       913 6.71834E+00
 -1       914 2.88829E-01
 -1       915 1.55401E-01
 -1       916 1.74871E-01
 -1       917 5.85316E+00
 -1       918 2.14157E-01
 -1       919 2.09688E-01
 -1       920 1.65070E-01
 -1       921 1.76097E-01
 -1       922 1.16405E-01
 -1       923 6.13922E+00
 -1       924 4.81230E+00
 -1       925 1.81463E-01
 -1       926 5.67709E+00
 -1       927 1.35278E-01
 -1       928 2.17575E-01
 -1       929 2.17575E-01
 -1       930 2.04037E-01
 -1       931 1.36259E-01
 -1       932 1.35562E-01
 -1       933 1.26746E-01
 -1       934 1.13446E-01
 -1       935 9.82320E-02
 -1       936 8.57878E-02
 -1       937 7.27995E-02
 -1       938 6.01920E-02
 -1       939 4.84145E-02
 -1       940 3.75861E-02
 -1       941 3.60951E-02
 -1       942 3.86955E-02
 -1       943 4.43097E-02
 -1       944 6.13819E-02
 -1       945 8.88126E-02
 -1       946 1.23888E-01
 -1       947 1.68476E-01
 -1       948 2.24747E-01
 -1       949 2.95281E-01
 -1       950 3.83245E-01
 -1       951 4.92690E-01
 -1       952 6.28927E-01
 -1       953 7.98627E-01
 -1       954 1.00800E+00
 -1       955 1.26795E+00
 -1       956 1.75635E+00
 -1       957 3.00454E+00
 -1       958 8.04094E-02
 -1       959 4.98671E+00
 -1       960 3.30907E-02
 -1       961 4.09722E-02
 -1       962 3.95624E-02
 -1       963 5.64018E-02
 -1       964 8.40542E-02
 -1       965 1.19602E-01
 -1       966 1.65153E-01
 -1       967 2.23211E-01
 -1       968 2.96810E-01
 -1       969 3.89785E-01
 -1       970 5.07238E-01
 -1       971 6.56373E-01
 -1       972 8.47707E-01
 -1       973 1.09624E+00
 -1       974 1.42098E+00
 -1       975 1.85671E+00
 -1       976 3.25146E+00
 -1       977 3.95674E+00
 -1       978 1.12457E-01
 -1       979 2.17397E-01
 -1       980 1.96780E-01
 -1       981 1.70553E-01
 -1       982 2.17397E-01
 -1       983 1.23631E-01
 -1       984 3.31827E+00
 -1       985 3.49118E-02
 -1       986 1.01502E-01
 -1       987 9.51650E-02
 -1       988 6.62710E-02
 -1       989 1.45089E-01
 -1       990 4.09119E+00
 -1       991 3.31827E+00
 -1       992 5.31527E-02
 -1       993 1.52586E-01
 -1       994 1.40806E-01
 -1       995 1.24993E-01
 -1       996 1.40536E-01
 -1       997 4.18319E-02
 -1       998 8.98995E-02
 -1       999 1.03359E-01
 -1      1000 9.79633E-02
 -1      1001 8.86060E-02
 -1      1002 7.73481E-02
 -1      1003 6.55508E-02
 -1      1004 5.54845E-02
 -1      1005 4.61351E-02
 -1      1006 4.12215E-02
 -1      1007 3.98678E-02
 -1      1008 4.16278E-02
 -1      1009 4.65458E-02
 -1      1010 5.59799E-02
 -1      1011 7.14612E-02
 -1      1012 9.61497E-02
 -1      1013 1.31139E-01
 -1      1014 1.76099E-01
 -1      1015 2.33718E-01
 -1      1016 3.07686E-01
 -1      1017 4.03395E-01
 -1      1018 5.29213E-01
 -1      1019 6.98838E-01
 -1      1020 9.34819E-01
 -1      1021 1.26795E+00
 -1      1022 1.74176E+00
 -1      1023 1.52432E-01
 -1      1024 1.76920E-01
 -1      1025 9.54546E-02
 -1      1026 6.76111E-02
 -1      1027 5.00423E-02
 -1      1028 1.31224E-01
 -1      1029 1.76929E-01
 -1      1030 2.35101E-01
 -1      1031 3.09124E-01
 -1      1032 4.03901E-01
 -1      1033 5.27144E-01
 -1      1034 6.91916E-01
 -1      1035 9.21600E-01
 -1      1036 1.25475E+00
 -1      1037 1.75017E+00
 -1      1038 3.25146E+00
 -1      1039 1.01953E-01
 -1      1040 3.89670E-02
 -1      1041 3.82324E-02
 -1      1042 1.76920E-01
 -1      1043 8.39373E-02
 -1      1044 4.26629E-02
 -1      1045 1.55683E-01
 -1      1046 1.09363E-01
 -1      1047 7.29111E-02
 -1      1048 1.17289E-01
 -1      1049 2.71228E+00
 -1      1050 1.12018E-01
 -1      1051 5.84288E-02
 -1      1052 6.29372E-02
 -1      1053 3.11068E+00
 -1      1054 1.01649E-01
 -1      1055 1.22153E-01
 -1      1056 8.71879E-02
 -1      1057 1.12018E-01
 -1      1058 7.41963E-02
 -1      1059 7.19127E-02
 -1      1060 6.57687E-02
 -1      1061 8.03330E-02
 -1      1062 5.54012E-02
 -1      1063 4.82640E-02
 -1      1064 5.71734E-02
 -1      1065 4.12215E-02
 -1      1066 4.16278E-02
 -1      1067 4.65458E-02
 -1      1068 5.59799E-02
 -1      1069 7.14612E-02
 -1      1070 9.25400E-02
 -1      1071 1.20899E-01
 -1      1072 1.60155E-01
 -1      1073 2.11129E-01
 -1      1074 2.77533E-01
 -1      1075 3.65092E-01
 -1      1076 4.83118E-01
 -1      1077 6.47360E-01
 -1      1078 8.84651E-01
 -1      1079 1.23462E+00
 -1      1080 1.86003E+00
 -1      1081 1.41154E-01
 -1      1082 1.08072E-01
 -1      1083 6.36814E-02
 -1      1084 1.83497E-01
 -1      1085 2.37176E-01
 -1      1086 3.05738E-01
 -1      1087 3.93184E-01
 -1      1088 5.06966E-01
 -1      1089 6.60587E-01
 -1      1090 8.84651E-01
 -1      1091 1.44543E+00
 -1      1092 2.39325E+00
 -1      1093 1.12523E-01
 -1      1094 3.89670E-02
 -1      1095 6.52002E-02
 -1      1096 5.71734E-02
 -1      1097 8.26712E-02
 -1      1098 2.05720E+00
 -1      1099 1.16799E-01
 -1      1100 4.26629E-02
 -1      1101 7.56111E-02
 -1      1102 5.00423E-02
 -1      1103 1.22153E-01
 -1      1104 8.95458E-02
 -1      1105 8.03330E-02
 -1      1106 8.79321E-02
 -1      1107 8.66246E-02
 -1      1108 5.49531E-02
 -1      1109 6.02814E-02
 -1      1110 9.67870E-02
 -1      1111 6.97258E-02
 -1      1112 1.22153E-01
 -1      1113 8.79321E-02
 -1      1114 5.71734E-02
 -1      1115 5.84288E-02
 -1      1116 5.36942E-02
 -1      1117 5.92070E-02
 -1      1118 6.75091E-02
 -1      1119 1.12523E-01
 -1      1120 7.26083E-02
 -1      1121 1.31433E+01
 -1      1122 8.40358E+00
 -1      1123 2.74541E+00
 -1      1124 1.55861E+00
 -1      1125 1.16705E+00
 -1      1126 9.71893E-01
 -1      1127 8.54436E-01
 -1      1128 7.81381E-01
 -1      1129 7.54876E-01
 -1      1130 7.84527E-01
 -1      1131 8.57029E-01
 -1      1132 9.76763E-01
 -1      1133 1.18025E+00
 -1      1134 1.57185E+00
 -1      1135 2.67069E+00
 -1      1136 6.07342E+00
 -1      1137 1.13402E+01
 -1      1138 1.31433E+01
 -1      1139 8.73059E+00
 -1      1140 3.82945E+00
 -1      1141 2.72609E+00
 -1      1142 1.73678E+00
 -1      1143 1.18809E+00
 -1      1144 8.94402E-01
 -1      1145 6.85128E-01
 -1      1146 5.25170E-01
 -1      1147 4.01382E-01
 -1      1148 3.08337E-01
 -1      1149 2.37425E-01
 -1      1150 1.81056E-01
 -1      1151 1.37234E-01
 -1      1152 1.04091E-01
 -1      1153 7.99628E-02
 -1      1154 6.34004E-02
 -1      1155 5.31703E-02
 -1      1156 5.16960E-02
 -1      1157 5.89007E-02
 -1      1158 7.04653E-02
 -1      1159 8.48645E-02
 -1      1160 1.09007E-01
 -1      1161 1.46381E-01
 -1      1162 1.93557E-01
 -1      1163 2.50601E-01
 -1      1164 3.16336E-01
 -1      1165 3.87505E-01
 -1      1166 4.60745E-01
 -1      1167 5.71794E-01
 -1      1168 7.27184E-01
 -1      1169 9.08997E-01
 -1      1170 1.09426E+00
 -1      1171 1.21444E+00
 -1      1172 1.28086E+00
 -1      1173 1.34919E+00
 -1      1174 1.47357E+00
 -1      1175 1.81521E+00
 -1      1176 2.71069E+00
 -1      1177 3.95371E+00
 -1      1178 4.65164E+00
 -1      1179 4.74731E+00
 -1      1180 4.62479E+00
 -1      1181 4.12621E+00
 -1      1182 3.09727E+00
 -1      1183 1.93454E+00
 -1      1184 1.07640E+00
 -1      1185 5.95287E-01
 -1      1186 3.55466E-01
 -1      1187 1.78464E-01
 -1      1188 1.40392E+01
 -1      1189 8.71691E+00
 -1      1190 2.90385E+00
 -1      1191 2.03942E+00
 -1      1192 1.40525E+00
 -1      1193 1.02527E+00
 -1      1194 8.18505E-01
 -1      1195 6.59436E-01
 -1      1196 5.27928E-01
 -1      1197 4.18418E-01
 -1      1198 3.31605E-01
 -1      1199 2.63703E-01
 -1      1200 2.07498E-01
 -1      1201 1.61800E-01
 -1      1202 1.25765E-01
 -1      1203 9.84508E-02
 -1      1204 7.89473E-02
 -1      1205 6.64546E-02
 -1      1206 6.42211E-02
 -1      1207 7.32482E-02
 -1      1208 8.96353E-02
 -1      1209 1.12057E-01
 -1      1210 1.40340E-01
 -1      1211 1.73993E-01
 -1      1212 2.11886E-01
 -1      1213 2.66008E-01
 -1      1214 3.41668E-01
 -1      1215 4.29296E-01
 -1      1216 5.23544E-01
 -1      1217 6.15084E-01
 -1      1218 6.87666E-01
 -1      1219 7.39326E-01
 -1      1220 8.95116E-01
 -1      1221 1.15560E+00
 -1      1222 1.35762E+00
 -1      1223 1.63686E+00
 -1      1224 1.95265E+00
 -1      1225 2.21923E+00
 -1      1226 2.64460E+00
 -1      1227 3.59722E+00
 -1      1228 4.61472E+00
 -1      1229 5.06028E+00
 -1      1230 5.17096E+00
 -1      1231 4.73374E+00
 -1      1232 3.45872E+00
 -1      1233 1.89848E+00
 -1      1234 8.26573E-01
 -1      1235 4.71752E-01
 -1      1236 4.16836E-01
 -1      1237 2.44869E-01
 -1      1238 2.22242E-01
 -1      1239 4.15259E-01
 -1      1240 5.71246E-01
 -1      1241 6.33991E-01
 -1      1242 6.19910E-01
 -1      1243 5.22678E-01
 -1      1244 7.44275E-01
 -1      1245 1.07244E+00
 -1      1246 1.09586E+00
 -1      1247 8.18200E-01
 -1      1248 5.68068E-01
 -1      1249 6.32590E-01
 -1      1250 6.69580E-01
 -1      1251 6.11677E-01
 -1      1252 4.39238E-01
 -1      1253 2.97122E-01
 -1      1254 1.89006E-01
 -1      1255 2.43712E+01
 -1      1256 3.59485E+01
 -1      1257 4.73437E+01
 -1      1258 3.39586E+01
 -1      1259 1.70406E+01
 -1      1260 1.35077E+01
 -1      1261 1.29466E+01
 -1      1262 1.28428E+01
 -1      1263 1.33001E+01
 -1      1264 1.52731E+01
 -1      1265 3.05632E+01
 -1      1266 4.38803E+01
 -1      1267 3.35854E+01
 -1      1268 2.32793E+01
 -1      1269 2.37099E+01
 -1      1270 2.51921E+01
 -1      1271 3.03477E+01
 -1      1272 3.43662E+01
 -1      1273 2.43117E+01
 -1      1274 1.32840E+01
 -1      1275 1.22773E+01
 -1      1276 1.23405E+01
 -1      1277 1.22682E+01
 -1      1278 1.21909E+01
 -1      1279 1.67372E+01
 -1      1280 3.46068E+01
 -1      1281 4.79252E+01
 -1      1282 3.60572E+01
 -1      1283 2.41891E+01
 -1      1284 1.31433E+01
 -1      1285 4.87101E+00
 -1      1286 9.61069E+00
 -1      1287 2.06393E+00
 -1      1288 2.98242E+00
 -1      1289 4.18953E+00
 -1      1290 1.39815E+00
 -1      1291 1.66646E+00
 -1      1292 1.90347E+00
 -1      1293 1.10107E+00
 -1      1294 1.22433E+00
 -1      1295 1.33218E+00
 -1      1296 9.36044E-01
 -1      1297 1.00794E+00
 -1      1298 1.06523E+00
 -1      1299 8.36643E-01
 -1      1300 8.82201E-01
 -1      1301 9.18251E-01
 -1      1302 7.74961E-01
 -1      1303 8.02459E-01
 -1      1304 8.30224E-01
 -1      1305 7.55870E-01
 -1      1306 7.54876E-01
 -1      1307 7.75955E-01
 -1      1308 8.06338E-01
 -1      1309 7.77681E-01
 -1      1310 7.77681E-01
 -1      1311 8.84070E-01
 -1      1312 8.40226E-01
 -1      1313 8.33380E-01
 -1      1314 1.01685E+00
 -1      1315 9.40961E-01
 -1      1316 9.24159E-01
 -1      1317 1.24020E+00
 -1      1318 1.11260E+00
 -1      1319 1.07680E+00
 -1      1320 1.68175E+00
 -1      1321 1.41774E+00
 -1      1322 1.35010E+00
 -1      1323 2.88320E+00
 -1      1324 2.04837E+00
 -1      1325 1.89426E+00
 -1      1326 6.28624E+00
 -1      1327 3.71834E+00
 -1      1328 3.09602E+00
 -1      1329 1.40392E+01
 -1      1330 1.13402E+01
 -1      1331 8.98515E+00
 -1      1332 1.40392E+01
 -1      1333 8.73059E+00
 -1      1334 4.31791E+00
 -1      1335 3.82945E+00
 -1      1336 3.34098E+00
 -1      1337 3.82945E+00
 -1      1338 2.72609E+00
 -1      1339 2.11119E+00
 -1      1340 2.72609E+00
 -1      1341 1.77919E+00
 -1      1342 1.40478E+00
 -1      1343 1.77919E+00
 -1      1344 1.19387E+00
 -1      1345 1.01959E+00
 -1      1346 1.23628E+00
 -1      1347 8.94402E-01
 -1      1348 7.74997E-01
 -1      1349 9.00185E-01
 -1      1350 6.85128E-01
 -1      1351 5.95260E-01
 -1      1352 6.85128E-01
 -1      1353 5.31598E-01
 -1      1354 4.61508E-01
 -1      1355 5.31598E-01
 -1      1356 4.11522E-01
 -1      1357 3.57823E-01
 -1      1358 4.17950E-01
 -1      1359 3.18905E-01
 -1      1360 2.79557E-01
 -1      1361 3.29044E-01
 -1      1362 2.51290E-01
 -1      1363 2.19725E-01
 -1      1364 2.61858E-01
 -1      1365 1.95796E-01
 -1      1366 1.70992E-01
 -1      1367 2.09661E-01
 -1      1368 1.51319E-01
 -1      1369 1.32299E-01
 -1      1370 1.66058E-01
 -1      1371 1.16569E-01
 -1      1372 1.02446E-01
 -1      1373 1.30654E-01
 -1      1374 9.02321E-02
 -1      1375 8.02264E-02
 -1      1376 1.02709E-01
 -1      1377 7.10599E-02
 -1      1378 6.45031E-02
 -1      1379 8.13291E-02
 -1      1380 5.79038E-02
 -1      1381 5.42305E-02
 -1      1382 6.55633E-02
 -1      1383 4.97221E-02
 -1      1384 5.19211E-02
 -1      1385 5.44556E-02
 -1      1386 5.38950E-02
 -1      1387 5.89007E-02
 -1      1388 5.19211E-02
 -1      1389 6.39065E-02
 -1      1390 7.04653E-02
 -1      1391 5.89007E-02
 -1      1392 7.73666E-02
 -1      1393 8.52069E-02
 -1      1394 7.08078E-02
 -1      1395 9.74718E-02
 -1      1396 1.13774E-01
 -1      1397 8.99740E-02
 -1      1398 1.29635E-01
 -1      1399 1.50708E-01
 -1      1400 1.18101E-01
 -1      1401 1.70349E-01
 -1      1402 1.96452E-01
 -1      1403 1.53603E-01
 -1      1404 2.19744E-01
 -1      1405 2.50685E-01
 -1      1406 1.96536E-01
 -1      1407 2.81543E-01
 -1      1408 3.16336E-01
 -1      1409 2.50685E-01
 -1      1410 3.62348E-01
 -1      1411 3.98725E-01
 -1      1412 3.27555E-01
 -1      1413 4.53069E-01
 -1      1414 4.89931E-01
 -1      1415 4.27911E-01
 -1      1416 5.47859E-01
 -1      1417 6.22045E-01
 -1      1418 5.40182E-01
 -1      1419 6.76837E-01
 -1      1420 7.58041E-01
 -1      1421 6.52901E-01
 -1      1422 8.20887E-01
 -1      1423 9.21495E-01
 -1      1424 7.70539E-01
 -1      1425 1.00961E+00
 -1      1426 1.09426E+00
 -1      1427 9.21495E-01
 -1      1428 1.17891E+00
 -1      1429 1.21444E+00
 -1      1430 1.09426E+00
 -1      1431 1.24998E+00
 -1      1432 1.28086E+00
 -1      1433 1.21444E+00
 -1      1434 1.31174E+00
 -1      1435 1.34919E+00
 -1      1436 1.28086E+00
 -1      1437 1.38664E+00
 -1      1438 1.47357E+00
 -1      1439 1.34919E+00
 -1      1440 1.56051E+00
 -1      1441 1.81521E+00
 -1      1442 1.47357E+00
 -1      1443 2.11555E+00
 -1      1444 2.75631E+00
 -1      1445 1.86084E+00
 -1      1446 3.35145E+00
 -1      1447 3.95371E+00
 -1      1448 2.75631E+00
 -1      1449 4.55597E+00
 -1      1450 4.65164E+00
 -1      1451 3.95371E+00
 -1      1452 4.74731E+00
 -1      1453 4.74731E+00
 -1      1454 4.65164E+00
 -1      1455 4.62479E+00
 -1      1456 4.50226E+00
 -1      1457 4.62479E+00
 -1      1458 4.12621E+00
 -1      1459 3.75016E+00
 -1      1460 4.12621E+00
 -1      1461 3.21839E+00
 -1      1462 2.56550E+00
 -1      1463 3.21839E+00
 -1      1464 2.13520E+00
 -1      1465 1.62536E+00
 -1      1466 2.25633E+00
 -1      1467 1.33774E+00
 -1      1468 9.89439E-01
 -1      1469 1.53840E+00
 -1      1470 7.78512E-01
 -1      1471 6.45698E-01
 -1      1472 1.03985E+00
 -1      1473 5.13969E-01
 -1      1474 4.06962E-01
 -1      1475 6.97194E-01
 -1      1476 2.59000E-01
 -1      1477 4.17504E-01
 -1      1478 3.39466E+00
 -1      1479 8.71691E+00
 -1      1480 8.71691E+00
 -1      1481 2.41303E+00
 -1      1482 2.90385E+00
 -1      1483 2.90385E+00
 -1      1484 1.66581E+00
 -1      1485 2.03942E+00
 -1      1486 2.03942E+00
 -1      1487 1.14470E+00
 -1      1488 1.40525E+00
 -1      1489 1.40525E+00
 -1      1490 9.05843E-01
 -1      1491 1.02527E+00
 -1      1492 1.02527E+00
 -1      1493 7.31166E-01
 -1      1494 8.18505E-01
 -1      1495 8.18505E-01
 -1      1496 5.87705E-01
 -1      1497 6.59436E-01
 -1      1498 6.59436E-01
 -1      1499 4.68152E-01
 -1      1500 5.27928E-01
 -1      1501 5.27928E-01
 -1      1502 3.68685E-01
 -1      1503 4.18418E-01
 -1      1504 4.18418E-01
 -1      1505 2.94525E-01
 -1      1506 3.31605E-01
 -1      1507 3.31605E-01
 -1      1508 2.32880E-01
 -1      1509 2.63703E-01
 -1      1510 2.63703E-01
 -1      1511 1.83559E-01
 -1      1512 2.08941E-01
 -1      1513 2.08941E-01
 -1      1514 1.43871E-01
 -1      1515 1.64187E-01
 -1      1516 1.65629E-01
 -1      1517 1.12727E-01
 -1      1518 1.28446E-01
 -1      1519 1.30832E-01
 -1      1520 8.93405E-02
 -1      1521 1.00937E-01
 -1      1522 1.03617E-01
 -1      1523 7.29361E-02
 -1      1524 8.08436E-02
 -1      1525 8.33293E-02
 -1      1526 6.28190E-02
 -1      1527 6.74041E-02
 -1      1528 6.93005E-02
 -1      1529 6.47528E-02
 -1      1530 6.24011E-02
 -1      1531 6.33506E-02
 -1      1532 7.58078E-02
 -1      1533 6.91324E-02
 -1      1534 6.73124E-02
 -1      1535 9.22999E-02
 -1      1536 8.25882E-02
 -1      1537 7.84724E-02
 -1      1538 1.14005E-01
 -1      1539 1.01295E-01
 -1      1540 9.42482E-02
 -1      1541 1.40496E-01
 -1      1542 1.24922E-01
 -1      1543 1.14161E-01
 -1      1544 1.75243E-01
 -1      1545 1.57164E-01
 -1      1546 1.41746E-01
 -1      1547 2.19351E-01
 -1      1548 1.99537E-01
 -1      1549 1.82708E-01
 -1      1550 2.82976E-01
 -1      1551 2.48668E-01
 -1      1552 2.36319E-01
 -1      1553 3.58266E-01
 -1      1554 3.16913E-01
 -1      1555 2.99574E-01
 -1      1556 4.41739E-01
 -1      1557 3.95464E-01
 -1      1558 3.70709E-01
 -1      1559 5.28265E-01
 -1      1560 4.80292E-01
 -1      1561 4.46460E-01
 -1      1562 6.15084E-01
 -1      1563 5.71517E-01
 -1      1564 5.28265E-01
 -1      1565 6.87666E-01
 -1      1566 6.58651E-01
 -1      1567 6.15084E-01
 -1      1568 7.39326E-01
 -1      1569 7.16680E-01
 -1      1570 6.87666E-01
 -1      1571 9.59202E-01
 -1      1572 8.26057E-01
 -1      1573 8.03411E-01
 -1      1574 1.16550E+00
 -1      1575 1.03816E+00
 -1      1576 9.69106E-01
 -1      1577 1.35762E+00
 -1      1578 1.28294E+00
 -1      1579 1.16550E+00
 -1      1580 1.63686E+00
 -1      1581 1.43230E+00
 -1      1582 1.35762E+00
 -1      1583 1.95265E+00
 -1      1584 1.84142E+00
 -1      1585 1.63686E+00
 -1      1586 2.21923E+00
 -1      1587 2.06388E+00
 -1      1588 1.95265E+00
 -1      1589 2.64460E+00
 -1      1590 2.37459E+00
 -1      1591 2.21923E+00
 -1      1592 3.62978E+00
 -1      1593 2.94717E+00
 -1      1594 2.67716E+00
 -1      1595 4.61472E+00
 -1      1596 4.27983E+00
 -1      1597 3.62978E+00
 -1      1598 5.06028E+00
 -1      1599 4.94960E+00
 -1      1600 4.61472E+00
 -1      1601 5.17096E+00
 -1      1602 5.17096E+00
 -1      1603 5.06028E+00
 -1      1604 4.29653E+00
 -1      1605 4.73374E+00
 -1      1606 4.73374E+00
 -1      1607 2.62092E+00
 -1      1608 3.45872E+00
 -1      1609 3.45872E+00
 -1      1610 1.29809E+00
 -1      1611 2.02053E+00
 -1      1612 2.02053E+00
 -1      1613 5.54177E-01
 -1      1614 9.03647E-01
 -1      1615 1.02569E+00
 -1      1616 4.71752E-01
 -1      1617 4.77103E-01
 -1      1618 5.54177E-01
 -1      1619 4.04487E-01
 -1      1620 4.54051E-01
 -1      1621 4.59402E-01
 -1      1622 3.44645E-01
 -1      1623 6.12176E-01
 -1      1624 5.18935E-01
 -1      1625 8.26840E-01
 -1      1626 7.64094E-01
 -1      1627 8.67770E-01
 -1      1628 9.00861E-01
 -1      1629 9.00861E-01
 -1      1630 1.09371E+00
 -1      1631 8.86780E-01
 -1      1632 9.00861E-01
 -1      1633 1.16773E+00
 -1      1634 7.51513E-01
 -1      1635 8.34664E-01
 -1      1636 1.11561E+00
 -1      1637 1.43333E+00
 -1      1638 1.12859E+00
 -1      1639 1.44057E+00
 -1      1640 1.71552E+00
 -1      1641 1.69210E+00
 -1      1642 2.07641E+00
 -1      1643 1.71552E+00
 -1      1644 1.71552E+00
 -1      1645 2.33519E+00
 -1      1646 1.25760E+00
 -1      1647 1.53527E+00
 -1      1648 2.15493E+00
 -1      1649 7.97287E-01
 -1      1650 7.69755E-01
 -1      1651 1.48682E+00
 -1      1652 9.42404E-01
 -1      1653 9.05414E-01
 -1      1654 1.10710E+00
 -1      1655 9.42404E-01
 -1      1656 9.42404E-01
 -1      1657 1.21523E+00
 -1      1658 8.56710E-01
 -1      1659 9.14613E-01
 -1      1660 1.18744E+00
 -1      1661 5.97916E-01
 -1      1662 7.12453E-01
 -1      1663 1.01539E+00
 -1      1664 4.82238E-01
 -1      1665 5.09818E-01
 -1      1666 7.83033E-01
 -1      1667 6.30200E-01
 -1      1668 2.82736E+01
 -1      1669 2.80915E+01
 -1      1670 3.73337E+01
 -1      1671 2.59385E+01
 -1      1672 4.73437E+01
 -1      1673 4.73437E+01
 -1      1674 2.11849E+01
 -1      1675 3.45700E+01
 -1      1676 1.25946E+01
 -1      1677 1.61274E+01
 -1      1678 1.35077E+01
 -1      1679 1.35077E+01
 -1      1680 1.22948E+01
 -1      1681 1.28560E+01
 -1      1682 1.28428E+01
 -1      1683 1.23854E+01
 -1      1684 1.33001E+01
 -1      1685 1.33001E+01
 -1      1686 1.44764E+01
 -1      1687 1.25035E+01
 -1      1688 3.09531E+01
 -1      1689 1.76360E+01
 -1      1690 4.38803E+01
 -1      1691 4.38803E+01
 -1      1692 3.07493E+01
 -1      1693 4.10442E+01
 -1      1694 2.45741E+01
 -1      1695 2.45853E+01
 -1      1696 2.50159E+01
 -1      1697 2.45741E+01
 -1      1698 2.57304E+01
 -1      1699 2.46899E+01
 -1      1700 3.44627E+01
 -1      1701 3.03477E+01
 -1      1702 3.43662E+01
 -1      1703 3.44627E+01
 -1      1704 1.43538E+01
 -1      1705 2.43117E+01
 -1      1706 1.19738E+01
 -1      1707 1.30435E+01
 -1      1708 1.22773E+01
 -1      1709 1.22142E+01
 -1      1710 1.23405E+01
 -1      1711 1.23405E+01
 -1      1712 1.21959E+01
 -1      1713 1.22682E+01
 -1      1714 1.21860E+01
 -1      1715 1.21909E+01
 -1      1716 1.61776E+01
 -1      1717 1.16264E+01
 -1      1718 3.54187E+01
 -1      1719 2.21003E+01
 -1      1720 4.79252E+01
 -1      1721 4.79252E+01
 -1      1722 2.69539E+01
 -1      1723 3.88219E+01
 -1      1724 2.80915E+01
 -1      1725 2.80915E+01
 -1      1726 1.67389E+01
 -1      1727 3.45700E+01
 -1      1728 3.81860E-01
 -1      1729 5.78777E-01
 -1      1730 2.96588E+01
 -1      1731 3.73337E+01
 -1      1732 3.19939E+01
 -1      1733 1.25946E+01
 -1      1734 1.28560E+01
 -1      1735 1.22948E+01
 -1      1736 1.28428E+01
 -1      1737 1.25035E+01
 -1      1738 1.48664E+01
 -1      1739 3.09531E+01
 -1      1740 4.10442E+01
 -1      1741 3.20441E+01
 -1      1742 2.58801E+01
 -1      1743 2.55541E+01
 -1      1744 2.98455E+01
 -1      1745 3.44627E+01
 -1      1746 2.44082E+01
 -1      1747 1.30435E+01
 -1      1748 1.19738E+01
 -1      1749 1.22773E+01
 -1      1750 1.22682E+01
 -1      1751 1.21909E+01
 -1      1752 1.16264E+01
 -1      1753 1.69895E+01
 -1      1754 3.54187E+01
 -1      1755 3.88219E+01
 -1      1756 3.08563E+01
 -1      1757 9.61069E+00
 -1      1758 1.28822E+00
 -1      1759 1.68568E+00
 -1      1760 2.39027E+00
 -1      1761 4.27886E+00
 -1      1762 1.77501E+00
 -1      1763 8.80494E-01
 -1      1764 9.73626E-01
 -1      1765 7.79743E-01
 -1      1766 8.33586E-01
 -1      1767 7.41986E-01
 -1      1768 7.13984E-01
 -1      1769 7.48168E-01
 -1      1770 6.63503E-01
 -1      1771 6.71759E-01
 -1      1772 6.91844E-01
 -1      1773 6.09788E-01
 -1      1774 6.95189E-01
 -1      1775 6.73378E-01
 -1      1776 5.89267E-01
 -1      1777 7.50915E-01
 -1      1778 7.17027E-01
 -1      1779 6.12724E-01
 -1      1780 8.41167E-01
 -1      1781 7.84275E-01
 -1      1782 6.67923E-01
 -1      1783 9.84515E-01
 -1      1784 8.88763E-01
 -1      1785 7.48879E-01
 -1      1786 1.22978E+00
 -1      1787 1.05224E+00
 -1      1788 8.64197E-01
 -1      1789 1.71057E+00
 -1      1790 1.34395E+00
 -1      1791 1.04608E+00
 -1      1792 2.63018E+00
 -1      1793 1.79504E+00
 -1      1794 1.24473E+00
 -1      1795 8.11991E+00
 -1      1796 3.06591E+00
 -1      1797 1.76494E+00
 -1      1798 2.79766E+00
 -1      1799 5.19802E+00
 -1      1800 2.16359E+00
 -1      1801 2.65441E+00
 -1      1802 2.05741E+00
 -1      1803 3.39875E+00
 -1      1804 2.53526E+00
 -1      1805 1.92037E+00
 -1      1806 1.68924E+00
 -1      1807 1.35724E+00
 -1      1808 1.49842E+00
 -1      1809 1.17710E+00
 -1      1810 9.66189E-01
 -1      1811 1.08715E+00
 -1      1812 8.40627E-01
 -1      1813 7.15440E-01
 -1      1814 7.81444E-01
 -1      1815 6.56698E-01
 -1      1816 5.66829E-01
 -1      1817 5.97140E-01
 -1      1818 5.18294E-01
 -1      1819 4.54633E-01
 -1      1820 4.89864E-01
 -1      1821 4.11881E-01
 -1      1822 3.61895E-01
 -1      1823 3.98577E-01
 -1      1824 3.29246E-01
 -1      1825 2.90327E-01
 -1      1826 3.23177E-01
 -1      1827 2.62784E-01
 -1      1828 2.34517E-01
 -1      1829 2.62986E-01
 -1      1830 2.10908E-01
 -1      1831 1.86979E-01
 -1      1832 2.11834E-01
 -1      1833 1.69260E-01
 -1      1834 1.49587E-01
 -1      1835 1.70507E-01
 -1      1836 1.35064E-01
 -1      1837 1.19334E-01
 -1      1838 1.38267E-01
 -1      1839 1.07191E-01
 -1      1840 9.49771E-02
 -1      1841 1.11601E-01
 -1      1842 8.50776E-02
 -1      1843 7.59111E-02
 -1      1844 8.95590E-02
 -1      1845 6.79865E-02
 -1      1846 6.13872E-02
 -1      1847 7.17350E-02
 -1      1848 5.50840E-02
 -1      1849 5.05757E-02
 -1      1850 5.75073E-02
 -1      1851 4.83361E-02
 -1      1852 5.03100E-02
 -1      1853 4.89645E-02
 -1      1854 5.08036E-02
 -1      1855 5.58093E-02
 -1      1856 4.72186E-02
 -1      1857 6.18070E-02
 -1      1858 6.87083E-02
 -1      1859 5.37099E-02
 -1      1860 7.77090E-02
 -1      1861 8.99740E-02
 -1      1862 6.87083E-02
 -1      1863 1.02239E-01
 -1      1864 1.18101E-01
 -1      1865 8.99740E-02
 -1      1866 1.36662E-01
 -1      1867 1.56303E-01
 -1      1868 1.20800E-01
 -1      1869 1.84122E-01
 -1      1870 2.07414E-01
 -1      1871 1.67180E-01
 -1      1872 2.41957E-01
 -1      1873 2.72814E-01
 -1      1874 2.29543E-01
 -1      1875 3.14174E-01
 -1      1876 3.60187E-01
 -1      1877 3.05446E-01
 -1      1878 4.07407E-01
 -1      1879 4.61750E-01
 -1      1880 3.94026E-01
 -1      1881 5.12179E-01
 -1      1882 5.70106E-01
 -1      1883 4.91674E-01
 -1      1884 6.18605E-01
 -1      1885 6.73397E-01
 -1      1886 5.90601E-01
 -1      1887 7.15656E-01
 -1      1888 7.78503E-01
 -1      1889 6.81360E-01
 -1      1890 8.25288E-01
 -1      1891 9.13398E-01
 -1      1892 7.70405E-01
 -1      1893 9.59686E-01
 -1      1894 1.04434E+00
 -1      1895 8.63479E-01
 -1      1896 1.04986E+00
 -1      1897 1.08540E+00
 -1      1898 9.15292E-01
 -1      1899 1.01863E+00
 -1      1900 1.04951E+00
 -1      1901 8.54047E-01
 -1      1902 9.97627E-01
 -1      1903 1.03507E+00
 -1      1904 7.35395E-01
 -1      1905 1.10786E+00
 -1      1906 1.19480E+00
 -1      1907 7.56302E-01
 -1      1908 1.55609E+00
 -1      1909 1.85643E+00
 -1      1910 1.19038E+00
 -1      1911 2.17012E+00
 -1      1912 2.76526E+00
 -1      1913 1.86537E+00
 -1      1914 3.08490E+00
 -1      1915 3.68716E+00
 -1      1916 2.49871E+00
 -1      1917 3.82079E+00
 -1      1918 3.91646E+00
 -1      1919 2.95198E+00
 -1      1920 3.80887E+00
 -1      1921 3.68635E+00
 -1      1922 2.97802E+00
 -1      1923 3.67405E+00
 -1      1924 3.29799E+00
 -1      1925 2.85813E+00
 -1      1926 3.08371E+00
 -1      1927 2.55194E+00
 -1      1928 2.63155E+00
 -1      1929 2.37075E+00
 -1      1930 1.94045E+00
 -1      1931 2.23607E+00
 -1      1932 1.77113E+00
 -1      1933 1.48351E+00
 -1      1934 1.88556E+00
 -1      1935 1.31275E+00
 -1      1936 1.10182E+00
 -1      1937 1.54548E+00
 -1      1938 1.00539E+00
 -1      1939 8.73664E-01
 -1      1940 9.38398E-01
 -1      1941 1.27829E+00
 -1      1942 1.39808E+00
 -1      1943 1.77170E+00
 -1      1944 1.52226E+00
 -1      1945 1.01792E+00
 -1      1946 1.27848E+00
 -1      1947 1.01075E+00
 -1      1948 8.04758E-01
 -1      1949 9.24187E-01
 -1      1950 7.97410E-01
 -1      1951 6.38035E-01
 -1      1952 7.25373E-01
 -1      1953 6.24288E-01
 -1      1954 5.12637E-01
 -1      1955 5.84368E-01
 -1      1956 4.91236E-01
 -1      1957 4.19611E-01
 -1      1958 4.79388E-01
 -1      1959 4.04321E-01
 -1      1960 3.38018E-01
 -1      1961 3.87751E-01
 -1      1962 3.39211E-01
 -1      1963 2.73242E-01
 -1      1964 3.10322E-01
 -1      1965 2.79655E-01
 -1      1966 2.19826E-01
 -1      1967 2.50649E-01
 -1      1968 2.29365E-01
 -1      1969 1.76139E-01
 -1      1970 2.00078E-01
 -1      1971 1.87024E-01
 -1      1972 1.40112E-01
 -1      1973 1.59484E-01
 -1      1974 1.50621E-01
 -1      1975 1.11058E-01
 -1      1976 1.26484E-01
 -1      1977 1.20338E-01
 -1      1978 8.88626E-02
 -1      1979 1.00653E-01
 -1      1980 9.63043E-02
 -1      1981 7.26969E-02
 -1      1982 8.11938E-02
 -1      1983 7.82302E-02
 -1      1984 6.19630E-02
 -1      1985 6.74950E-02
 -1      1986 6.53595E-02
 -1      1987 5.86070E-02
 -1      1988 5.90248E-02
 -1      1989 5.72194E-02
 -1      1990 6.41289E-02
 -1      1991 5.97493E-02
 -1      1992 5.54234E-02
 -1      1993 7.44128E-02
 -1      1994 6.76324E-02
 -1      1995 6.00693E-02
 -1      1996 9.06935E-02
 -1      1997 8.16981E-02
 -1      1998 7.08582E-02
 -1      1999 1.13633E-01
 -1      2000 1.02716E-01
 -1      2001 9.01663E-02
 -1      2002 1.45756E-01
 -1      2003 1.29087E-01
 -1      2004 1.17643E-01
 -1      2005 1.93345E-01
 -1      2006 1.69051E-01
 -1      2007 1.56392E-01
 -1      2008 2.59625E-01
 -1      2009 2.30308E-01
 -1      2010 2.16651E-01
 -1      2011 3.40416E-01
 -1      2012 3.06479E-01
 -1      2013 3.00468E-01
 -1      2014 4.34961E-01
 -1      2015 3.97763E-01
 -1      2016 4.04668E-01
 -1      2017 5.40575E-01
 -1      2018 5.02023E-01
 -1      2019 5.29077E-01
 -1      2020 6.57369E-01
 -1      2021 6.14117E-01
 -1      2022 6.69680E-01
 -1      2023 7.73816E-01
 -1      2024 7.30249E-01
 -1      2025 8.16101E-01
 -1      2026 8.62992E-01
 -1      2027 8.33978E-01
 -1      2028 9.49143E-01
 -1      2029 1.00904E+00
 -1      2030 9.22311E-01
 -1      2031 1.06862E+00
 -1      2032 1.10072E+00
 -1      2033 1.02176E+00
 -1      2034 1.14066E+00
 -1      2035 1.21815E+00
 -1      2036 1.10072E+00
 -1      2037 1.15337E+00
 -1      2038 1.22171E+00
 -1      2039 1.14703E+00
 -1      2040 1.08225E+00
 -1      2041 1.37074E+00
 -1      2042 1.16618E+00
 -1      2043 9.55588E-01
 -1      2044 1.59416E+00
 -1      2045 1.48293E+00
 -1      2046 1.01225E+00
 -1      2047 2.27645E+00
 -1      2048 2.12109E+00
 -1      2049 1.65138E+00
 -1      2050 2.92399E+00
 -1      2051 2.62141E+00
 -1      2052 2.52327E+00
 -1      2053 3.66013E+00
 -1      2054 3.01009E+00
 -1      2055 2.95433E+00
 -1      2056 3.90814E+00
 -1      2057 3.57325E+00
 -1      2058 2.95356E+00
 -1      2059 4.05232E+00
 -1      2060 3.94165E+00
 -1      2061 2.90018E+00
 -1      2062 3.50735E+00
 -1      2063 3.94456E+00
 -1      2064 2.82593E+00
 -1      2065 2.43224E+00
 -1      2066 3.27004E+00
 -1      2067 2.48086E+00
 -1      2068 1.63782E+00
 -1      2069 2.23822E+00
 -1      2070 2.04954E+00
 -1      2071 1.01431E+00
 -1      2072 1.40875E+00
 -1      2073 1.62644E+00
 -1      2074 7.14997E-01
 -1      2075 7.92071E-01
 -1      2076 1.17513E+00
 -1      2077 4.69190E-01
 -1      2078 4.86891E-01
 -1      2079 7.24784E-01
 -1      2080 6.06265E-01
 -1      2081 1.42548E+00
 -1      2082 1.42548E+00
 -1      2083 1.31672E+00
 -1      2084 1.24270E+00
 -1      2085 1.57448E+00
 -1      2086 9.86290E-01
 -1      2087 8.34372E-01
 -1      2088 7.24784E-01
 -1      2089 1.20930E+00
 -1      2090 1.40231E+00
 -1      2091 1.45443E+00
 -1      2092 1.71218E+00
 -1      2093 1.98361E+00
 -1      2094 1.60654E+00
 -1      2095 1.94535E+00
 -1      2096 3.07058E+00
 -1      2097 2.81181E+00
 -1      2098 2.97777E+00
 -1      2099 3.11849E+00
 -1      2100 3.11849E+00
 -1      2101 3.85388E+00
 -1      2102 2.93823E+00
 -1      2103 3.11849E+00
 -1      2104 3.90179E+00
 -1      2105 1.64922E+00
 -1      2106 2.13707E+00
 -1      2107 3.10063E+00
 -1      2108 1.53263E+00
 -1      2109 1.42451E+00
 -1      2110 2.07476E+00
 -1      2111 1.47772E+00
 -1      2112 1.47772E+00
 -1      2113 1.79513E+00
 -1      2114 1.30322E+00
 -1      2115 1.33101E+00
 -1      2116 1.59350E+00
 -1      2117 1.09599E+00
 -1      2118 1.24025E+00
 -1      2119 1.38382E+00
 -1      2120 3.73337E+01
 -1      2121 2.73237E+01
 -1      2122 3.23168E+01
 -1      2123 3.23168E+01
 -1      2124 2.99817E+01
 -1      2125 3.23168E+01
 -1      2126 3.26398E+01
 -1      2127 1.90625E+01
 -1      2128 3.18362E+01
 -1      2129 1.01192E+01
 -1      2130 1.51767E+01
 -1      2131 1.24428E+01
 -1      2132 1.03571E+00
 -1      2133 1.20953E+00
 -1      2134 9.91748E-01
 -1      2135 8.50979E-01
 -1      2136 1.12665E+01
 -1      2137 1.19182E+01
 -1      2138 1.14932E+01
 -1      2139 1.14026E+01
 -1      2140 1.04648E+01
 -1      2141 1.21822E+01
 -1      2142 1.17249E+01
 -1      2143 9.76915E+00
 -1      2144 1.05658E+01
 -1      2145 1.32198E+01
 -1      2146 1.00602E+01
 -1      2147 2.94452E+01
 -1      2148 1.65180E+01
 -1      2149 3.22942E+01
 -1      2150 3.51304E+01
 -1      2151 2.42765E+01
 -1      2152 3.04405E+01
 -1      2153 2.95466E+01
 -1      2154 2.95466E+01
 -1      2155 2.92207E+01
 -1      2156 2.95466E+01
 -1      2157 2.96452E+01
 -1      2158 2.50279E+01
 -1      2159 2.82207E+01
 -1      2160 2.82207E+01
 -1      2161 2.34032E+01
 -1      2162 1.32749E+01
 -1      2163 2.33294E+01
 -1      2164 1.00287E+01
 -1      2165 1.13389E+01
 -1      2166 1.08175E+01
 -1      2167 1.05771E+01
 -1      2168 1.17199E+01
 -1      2169 1.16567E+01
 -1      2170 1.16792E+01
 -1      2171 1.17514E+01
 -1      2172 1.11782E+01
 -1      2173 1.11832E+01
 -1      2174 1.06664E+01
 -1      2175 9.05960E+00
 -1      2176 9.61917E+00
 -1      2177 1.62431E+01
 -1      2178 1.03205E+01
 -1      2179 3.24160E+01
 -1      2180 1.99094E+01
 -1      2181 2.97187E+01
 -1      2182 3.88219E+01
 -1      2183 3.05175E+01
 -1      2184 2.93799E+01
 -1      2185 1.04096E+01
 -1      2186 9.49650E+00
 -1      2187 7.93429E+00
 -1      2188 2.91029E+00
 -1      2189 8.12253E+00
 -1      2190 8.82014E+00
 -1      2191 2.10457E+00
 -1      2192 2.50662E+01
 -1      2193 2.77242E+01
 -1      2194 2.50662E+01
 -1      2195 2.18261E+01
 -1      2196 1.00789E+00
 -1      2197 3.08405E+01
 -1      2198 2.93799E+01
 -1      2199 2.33127E+01
 -1      2200 1.32404E+01
 -1      2201 8.61140E+00
 -1      2202 1.11308E+01
 -1      2203 1.02601E+01
 -1      2204 8.87247E+00
 -1      2205 1.70873E+01
 -1      2206 2.90205E+01
 -1      2207 3.32132E+01
 -1      2208 2.79431E+01
 -1      2209 2.45267E+01
 -1      2210 2.06952E+01
 -1      2211 1.17119E+01
 -1      2212 1.08327E+01
 -1      2213 9.44789E+00
 -1      2214 1.00763E+01
 -1      2215 8.99739E+00
 -1      2216 7.06141E+00
 -1      2217 8.31326E+00
 -1      2218 1.08901E+00
 -1      2219 1.48091E+00
 -1      2220 5.59215E-01
 -1      2221 5.90791E-01
 -1      2222 6.03090E-01
 -1      2223 6.49998E-01
 -1      2224 4.98802E-01
 -1      2225 5.11277E-01
 -1      2226 5.09658E-01
 -1      2227 5.46072E-01
 -1      2228 5.24233E-01
 -1      2229 4.44624E-01
 -1      2230 5.94216E-01
 -1      2231 5.60856E-01
 -1      2232 4.72365E-01
 -1      2233 6.53841E-01
 -1      2234 6.06245E-01
 -1      2235 4.99178E-01
 -1      2236 7.21563E-01
 -1      2237 6.53841E-01
 -1      2238 5.11206E-01
 -1      2239 8.84744E-01
 -1      2240 7.70580E-01
 -1      2241 5.60223E-01
 -1      2242 8.91145E-01
 -1      2243 1.01075E+00
 -1      2244 9.69404E-01
 -1      2245 1.26626E+00
 -1      2246 1.03513E+00
 -1      2247 6.56469E+00
 -1      2248 6.27361E+00
 -1      2249 9.84779E-01
 -1      2250 8.04637E-01
 -1      2251 7.52623E-01
 -1      2252 7.47878E-01
 -1      2253 6.22317E-01
 -1      2254 6.45510E-01
 -1      2255 5.66159E-01
 -1      2256 5.07417E-01
 -1      2257 5.32593E-01
 -1      2258 4.58127E-01
 -1      2259 4.09592E-01
 -1      2260 4.27145E-01
 -1      2261 3.82149E-01
 -1      2262 3.39398E-01
 -1      2263 3.50412E-01
 -1      2264 3.14424E-01
 -1      2265 2.81775E-01
 -1      2266 2.97996E-01
 -1      2267 2.58179E-01
 -1      2268 2.30637E-01
 -1      2269 2.49426E-01
 -1      2270 2.11390E-01
 -1      2271 1.87782E-01
 -1      2272 2.06584E-01
 -1      2273 1.71042E-01
 -1      2274 1.53323E-01
 -1      2275 1.70598E-01
 -1      2276 1.38761E-01
 -1      2277 1.24239E-01
 -1      2278 1.39295E-01
 -1      2279 1.11965E-01
 -1      2280 9.98222E-02
 -1      2281 1.12459E-01
 -1      2282 8.97787E-02
 -1      2283 7.98791E-02
 -1      2284 9.01423E-02
 -1      2285 7.18635E-02
 -1      2286 6.39389E-02
 -1      2287 7.20831E-02
 -1      2288 5.75073E-02
 -1      2289 5.12041E-02
 -1      2290 5.76358E-02
 -1      2291 4.68778E-02
 -1      2292 4.46382E-02
 -1      2293 4.68778E-02
 -1      2294 4.25674E-02
 -1      2295 4.30610E-02
 -1      2296 4.04806E-02
 -1      2297 4.70487E-02
 -1      2298 5.30464E-02
 -1      2299 4.23975E-02
 -1      2300 5.89375E-02
 -1      2301 6.79382E-02
 -1      2302 5.22763E-02
 -1      2303 8.19084E-02
 -1      2304 9.41733E-02
 -1      2305 7.21375E-02
 -1      2306 1.13323E-01
 -1      2307 1.31884E-01
 -1      2308 1.05257E-01
 -1      2309 1.56063E-01
 -1      2310 1.83883E-01
 -1      2311 1.48586E-01
 -1      2312 2.13835E-01
 -1      2313 2.48379E-01
 -1      2314 2.02719E-01
 -1      2315 2.84528E-01
 -1      2316 3.25888E-01
 -1      2317 2.68820E-01
 -1      2318 3.68046E-01
 -1      2319 4.15266E-01
 -1      2320 3.47128E-01
 -1      2321 4.62225E-01
 -1      2322 5.12654E-01
 -1      2323 4.36246E-01
 -1      2324 5.61631E-01
 -1      2325 6.10130E-01
 -1      2326 5.32183E-01
 -1      2327 6.56145E-01
 -1      2328 6.98405E-01
 -1      2329 6.27175E-01
 -1      2330 7.39971E-01
 -1      2331 7.86756E-01
 -1      2332 7.14757E-01
 -1      2333 8.22700E-01
 -1      2334 8.68989E-01
 -1      2335 7.92266E-01
 -1      2336 9.14124E-01
 -1      2337 9.19649E-01
 -1      2338 8.73345E-01
 -1      2339 9.45466E-01
 -1      2340 8.78696E-01
 -1      2341 9.44298E-01
 -1      2342 8.82910E-01
 -1      2343 8.31027E-01
 -1      2344 9.74329E-01
 -1      2345 9.71214E-01
 -1      2346 1.04400E+00
 -1      2347 1.11873E+00
 -1      2348 1.12399E+00
 -1      2349 1.48528E+00
 -1      2350 1.33891E+00
 -1      2351 1.68645E+00
 -1      2352 2.00014E+00
 -1      2353 1.62006E+00
 -1      2354 2.19223E+00
 -1      2355 2.51188E+00
 -1      2356 2.01331E+00
 -1      2357 2.81866E+00
 -1      2358 2.95230E+00
 -1      2359 2.51219E+00
 -1      2360 2.94972E+00
 -1      2361 2.84213E+00
 -1      2362 2.81640E+00
 -1      2363 2.91396E+00
 -1      2364 2.90166E+00
 -1      2365 2.88566E+00
 -1      2366 2.61426E+00
 -1      2367 2.39998E+00
 -1      2368 2.67009E+00
 -1      2369 2.37485E+00
 -1      2370 2.19366E+00
 -1      2371 2.35756E+00
 -1      2372 2.08610E+00
 -1      2373 1.91679E+00
 -1      2374 2.22489E+00
 -1      2375 1.71624E+00
 -1      2376 1.54548E+00
 -1      2377 1.91679E+00
 -1      2378 5.44903E-01
 -1      2379 6.24288E-01
 -1      2380 4.37570E-01
 -1      2381 4.91236E-01
 -1      2382 4.91236E-01
 -1      2383 3.71071E-01
 -1      2384 4.04321E-01
 -1      2385 4.04321E-01
 -1      2386 3.07350E-01
 -1      2387 3.39211E-01
 -1      2388 3.39211E-01
 -1      2389 2.51959E-01
 -1      2390 2.79655E-01
 -1      2391 2.79655E-01
 -1      2392 2.07104E-01
 -1      2393 2.29698E-01
 -1      2394 2.29698E-01
 -1      2395 1.67874E-01
 -1      2396 1.87621E-01
 -1      2397 1.87954E-01
 -1      2398 1.34630E-01
 -1      2399 1.51285E-01
 -1      2400 1.51883E-01
 -1      2401 1.08182E-01
 -1      2402 1.21810E-01
 -1      2403 1.22474E-01
 -1      2404 8.73572E-02
 -1      2405 9.77625E-02
 -1      2406 9.92350E-02
 -1      2407 7.09410E-02
 -1      2408 7.86098E-02
 -1      2409 8.00680E-02
 -1      2410 5.84524E-02
 -1      2411 6.36544E-02
 -1      2412 6.40339E-02
 -1      2413 5.03651E-02
 -1      2414 5.33033E-02
 -1      2415 5.15981E-02
 -1      2416 4.96218E-02
 -1      2417 4.84795E-02
 -1      2418 4.45634E-02
 -1      2419 5.55670E-02
 -1      2420 5.20634E-02
 -1      2421 4.51195E-02
 -1      2422 6.91707E-02
 -1      2423 6.18854E-02
 -1      2424 5.38795E-02
 -1      2425 9.05770E-02
 -1      2426 7.85542E-02
 -1      2427 6.95815E-02
 -1      2428 1.25425E-01
 -1      2429 1.09971E-01
 -1      2430 9.83591E-02
 -1      2431 1.74027E-01
 -1      2432 1.50732E-01
 -1      2433 1.43060E-01
 -1      2434 2.43492E-01
 -1      2435 2.06529E-01
 -1      2436 2.00869E-01
 -1      2437 3.31217E-01
 -1      2438 2.84363E-01
 -1      2439 2.74242E-01
 -1      2440 4.38593E-01
 -1      2441 3.81247E-01
 -1      2442 3.65142E-01
 -1      2443 5.64800E-01
 -1      2444 4.97738E-01
 -1      2445 4.74317E-01
 -1      2446 7.05017E-01
 -1      2447 6.31475E-01
 -1      2448 6.00137E-01
 -1      2449 8.47976E-01
 -1      2450 7.75096E-01
 -1      2451 7.36891E-01
 -1      2452 9.73750E-01
 -1      2453 9.13588E-01
 -1      2454 8.72583E-01
 -1      2455 1.08816E+00
 -1      2456 1.02884E+00
 -1      2457 9.93286E-01
 -1      2458 1.14377E+00
 -1      2459 1.13105E+00
 -1      2460 1.09127E+00
 -1      2461 1.20291E+00
 -1      2462 1.20291E+00
 -1      2463 1.19331E+00
 -1      2464 1.15778E+00
 -1      2465 1.22890E+00
 -1      2466 1.27844E+00
 -1      2467 1.10959E+00
 -1      2468 1.16513E+00
 -1      2469 1.31178E+00
 -1      2470 1.33685E+00
 -1      2471 1.22465E+00
 -1      2472 1.43420E+00
 -1      2473 2.14297E+00
 -1      2474 1.61605E+00
 -1      2475 1.82845E+00
 -1      2476 2.64649E+00
 -1      2477 2.30152E+00
 -1      2478 2.26619E+00
 -1      2479 3.04044E+00
 -1      2480 2.95433E+00
 -1      2481 2.73259E+00
 -1      2482 3.28803E+00
 -1      2483 3.37491E+00
 -1      2484 3.37491E+00
 -1      2485 3.27382E+00
 -1      2486 3.24031E+00
 -1      2487 3.66167E+00
 -1      2488 2.82593E+00
 -1      2489 2.93369E+00
 -1      2490 3.27382E+00
 -1      2491 2.44360E+00
 -1      2492 2.68091E+00
 -1      2493 2.78867E+00
 -1      2494 2.10390E+00
 -1      2495 2.29791E+00
 -1      2496 2.49796E+00
 -1      2497 1.62644E+00
 -1      2498 1.85552E+00
 -1      2499 2.10390E+00
 -1      2500 1.36227E+00
 -1      2501 1.58451E+00
 -1      2502 1.81358E+00
 -1      2503 9.52891E-01
 -1      2504 2.93338E+00
 -1      2505 2.72915E+00
 -1      2506 4.14581E+00
 -1      2507 3.31761E+00
 -1      2508 4.10142E+00
 -1      2509 1.72744E+00
 -1      2510 1.61868E+00
 -1      2511 2.17745E+00
 -1      2512 2.14851E+00
 -1      2513 2.19271E+00
 -1      2514 3.16549E+00
 -1      2515 4.93341E+00
 -1      2516 4.88550E+00
 -1      2517 5.22534E+00
 -1      2518 5.83328E+00
 -1      2519 5.83328E+00
 -1      2520 6.86491E+00
 -1      2521 5.03212E+00
 -1      2522 5.83328E+00
 -1      2523 7.76478E+00
 -1      2524 2.87563E+00
 -1      2525 3.10034E+00
 -1      2526 5.83299E+00
 -1      2527 2.19566E+00
 -1      2528 2.25057E+00
 -1      2529 3.27616E+00
 -1      2530 1.75840E+00
 -1      2531 1.90511E+00
 -1      2532 2.36055E+00
 -1      2533 1.37351E+00
 -1      2534 1.43648E+00
 -1      2535 1.74809E+00
 -1      2536 1.54764E+01
 -1      2537 2.09739E+01
 -1      2538 1.25135E+00
 -1      2539 3.08405E+01
 -1      2540 2.90412E+01
 -1      2541 7.03674E-01
 -1      2542 7.97410E-01
 -1      2543 6.24288E-01
 -1      2544 3.26398E+01
 -1      2545 3.26398E+01
 -1      2546 8.42921E+00
 -1      2547 1.23150E+01
 -1      2548 1.67821E+00
 -1      2549 1.30318E+00
 -1      2550 8.39899E-01
 -1      2551 9.73626E-01
 -1      2552 2.45947E+01
 -1      2553 2.49335E+01
 -1      2554 2.45947E+01
 -1      2555 9.66496E+00
 -1      2556 9.63338E+00
 -1      2557 2.48277E+01
 -1      2558 2.90205E+01
 -1      2559 5.22590E-01
 -1      2560 5.44730E-01
 -1      2561 4.72017E-01
 -1      2562 4.44600E-01
 -1      2563 6.68891E+00
 -1      2564 8.30534E+00
 -1      2565 9.36814E+00
 -1      2566 9.23201E+00
 -1      2567 8.05046E+00
 -1      2568 6.54188E+00
 -1      2569 9.77884E+00
 -1      2570 9.54716E+00
 -1      2571 8.31432E+00
 -1      2572 1.12295E+01
 -1      2573 7.93130E+00
 -1      2574 1.90186E+01
 -1      2575 1.33334E+01
 -1      2576 2.10388E+01
 -1      2577 2.28925E+01
 -1      2578 1.55307E+01
 -1      2579 2.91444E+01
 -1      2580 2.38742E+01
 -1      2581 3.32132E+01
 -1      2582 3.32132E+01
 -1      2583 2.91444E+01
 -1      2584 1.80881E+01
 -1      2585 1.95126E+01
 -1      2586 1.95126E+01
 -1      2587 7.05569E+00
 -1      2588 5.79477E+00
 -1      2589 1.12732E+01
 -1      2590 1.61645E+01
 -1      2591 7.07184E+00
 -1      2592 6.52341E+00
 -1      2593 9.12798E+00
 -1      2594 8.28879E+00
 -1      2595 5.93973E+00
 -1      2596 8.64128E+00
 -1      2597 9.13726E+00
 -1      2598 6.01278E+00
 -1      2599 7.57184E+00
 -1      2600 1.24133E+01
 -1      2601 8.74698E+00
 -1      2602 6.22850E+00
 -1      2603 2.13481E+01
 -1      2604 1.49422E+01
 -1      2605 1.62110E+00
 -1      2606 1.76435E+00
 -1      2607 1.32862E+00
 -1      2608 1.18785E+00
 -1      2609 6.32340E+00
 -1      2610 6.94614E+00
 -1      2611 6.81833E+00
 -1      2612 5.82762E+00
 -1      2613 8.58661E+00
 -1      2614 7.30111E+00
 -1      2615 5.11101E-01
 -1      2616 6.49998E-01
 -1      2617 7.12083E-01
 -1      2618 7.97410E-01
 -1      2619 1.24414E+00
 -1      2620 5.58306E+00
 -1      2621 4.59491E+00
 -1      2622 4.81338E+00
 -1      2623 5.13107E+00
 -1      2624 1.87164E+01
 -1      2625 7.66209E+00
 -1      2626 1.04487E+01
 -1      2627 1.36227E+00
 -1      2628 1.61868E+00
 -1      2629 4.75522E+00
 -1      2630 1.14628E+01
 -1      2631 1.30402E+00
 -1      2632 1.37351E+00
 -1      2633 1.42618E+00
 -1      2634 1.40045E+00
 -1      2635 3.08405E+01
 -1      2636 9.68637E-01
 -1      2637 2.41386E+01
 -1      2638 2.41386E+01
 -1      2639 1.92231E+01
 -1      2640 7.63980E+00
 -1      2641 6.88515E-01
 -1      2642 7.67199E-01
 -1      2643 6.70392E-01
 -1      2644 4.87533E-01
 -1      2645 8.96321E+00
 -1      2646 8.04038E+00
 -1      2647 5.76461E+00
 -1      2648 2.90205E+01
 -1      2649 2.22401E+01
 -1      2650 6.95375E+00
 -1      2651 6.08238E+00
 -1      2652 1.65630E+01
 -1      2653 5.99659E+00
 -1      2654 4.73396E+00
 -1      2655 4.19596E+00
 -1      2656 1.14751E+01
 -1      2657 7.69456E+00
 -1      2658 9.79845E+00
 -1      2659 1.63561E+01
 -1      2660 1.24655E+01
 -1      2661 1.05419E+01
 -1      2662 6.04267E+00
 -1      2663 1.77164E+00
 -1      2664 1.57121E+00
 -1      2665 4.22838E-01
 -1      2666 4.08053E-01
 -1      2667 4.00228E-01
 -1      2668 3.87272E-01
 -1      2669 3.50700E-01
 -1      2670 4.36604E-01
 -1      2671 4.36604E-01
 -1      2672 4.73654E-01
 -1      2673 4.24638E-01
 -1      2674 3.50036E-01
 -1      2675 7.17541E-01
 -1      2676 7.95799E-01
 -1      2677 2.09151E+01
 -1      2678 1.64687E+01
 -1      2679 8.28451E-01
 -1      2680 5.49603E-01
 -1      2681 4.92845E-01
 -1      2682 4.86387E-01
 -1      2683 4.30229E-01
 -1      2684 3.90480E-01
 -1      2685 4.09862E-01
 -1      2686 3.60572E-01
 -1      2687 3.63655E-01
 -1      2688 3.35808E-01
 -1      2689 3.08365E-01
 -1      2690 3.18524E-01
 -1      2691 2.83589E-01
 -1      2692 2.58615E-01
 -1      2693 2.68984E-01
 -1      2694 2.42981E-01
 -1      2695 2.19386E-01
 -1      2696 2.28575E-01
 -1      2697 2.03191E-01
 -1      2698 1.83945E-01
 -1      2699 1.96747E-01
 -1      2700 1.68489E-01
 -1      2701 1.51749E-01
 -1      2702 1.65096E-01
 -1      2703 1.37787E-01
 -1      2704 1.23225E-01
 -1      2705 1.35678E-01
 -1      2706 1.11788E-01
 -1      2707 9.95146E-02
 -1      2708 1.10280E-01
 -1      2709 9.01423E-02
 -1      2710 8.00988E-02
 -1      2711 8.94711E-02
 -1      2712 7.20831E-02
 -1      2713 6.40674E-02
 -1      2714 7.20831E-02
 -1      2715 5.72638E-02
 -1      2716 5.08322E-02
 -1      2717 5.72638E-02
 -1      2718 4.53395E-02
 -1      2719 4.10132E-02
 -1      2720 4.49676E-02
 -1      2721 3.60971E-02
 -1      2722 3.40263E-02
 -1      2723 3.45589E-02
 -1      2724 3.48198E-02
 -1      2725 3.88075E-02
 -1      2726 3.04363E-02
 -1      2727 4.45822E-02
 -1      2728 5.04733E-02
 -1      2729 3.70045E-02
 -1      2730 6.31412E-02
 -1      2731 7.71114E-02
 -1      2732 5.54471E-02
 -1      2733 9.29957E-02
 -1      2734 1.12145E-01
 -1      2735 8.39994E-02
 -1      2736 1.32076E-01
 -1      2737 1.56256E-01
 -1      2738 1.19815E-01
 -1      2739 1.81072E-01
 -1      2740 2.11025E-01
 -1      2741 1.64562E-01
 -1      2742 2.41504E-01
 -1      2743 2.77652E-01
 -1      2744 2.19857E-01
 -1      2745 3.14405E-01
 -1      2746 3.56564E-01
 -1      2747 2.87089E-01
 -1      2748 3.99872E-01
 -1      2749 4.46831E-01
 -1      2750 3.67150E-01
 -1      2751 4.96400E-01
 -1      2752 5.45377E-01
 -1      2753 4.60026E-01
 -1      2754 6.01303E-01
 -1      2755 6.47318E-01
 -1      2756 5.65521E-01
 -1      2757 7.04477E-01
 -1      2758 7.46043E-01
 -1      2759 6.78605E-01
 -1      2760 7.98763E-01
 -1      2761 8.34706E-01
 -1      2762 7.88483E-01
 -1      2763 9.01232E-01
 -1      2764 9.46368E-01
 -1      2765 9.07728E-01
 -1      2766 1.04682E+00
 -1      2767 1.07264E+00
 -1      2768 1.07471E+00
 -1      2769 1.17407E+00
 -1      2770 1.17828E+00
 -1      2771 1.27659E+00
 -1      2772 1.23867E+00
 -1      2773 1.37885E+00
 -1      2774 1.43841E+00
 -1      2775 1.64101E+00
 -1      2776 1.72100E+00
 -1      2777 1.76095E+00
 -1      2778 1.92075E+00
 -1      2779 2.12192E+00
 -1      2780 2.22286E+00
 -1      2781 2.59121E+00
 -1      2782 2.78330E+00
 -1      2783 2.89190E+00
 -1      2784 3.30708E+00
 -1      2785 3.61387E+00
 -1      2786 3.88498E+00
 -1      2787 3.77808E+00
 -1      2788 3.77551E+00
 -1      2789 4.57298E+00
 -1      2790 2.97378E+00
 -1      2791 3.04562E+00
 -1      2792 3.93547E+00
 -1      2793 3.92857E+00
 -1      2794 3.64117E+00
 -1      2795 4.01670E+00
 -1      2796 2.38928E+00
 -1      2797 2.36415E+00
 -1      2798 3.64776E+00
 -1      2799 2.33244E+00
 -1      2800 2.22489E+00
 -1      2801 2.36415E+00
 -1      2802 2.12802E+00
 -1      2803 1.92747E+00
 -1      2804 2.23557E+00
 -1      2805 3.49479E-01
 -1      2806 3.82729E-01
 -1      2807 2.18707E+01
 -1      2808 2.00714E+01
 -1      2809 1.19453E+01
 -1      2810 4.17009E-01
 -1      2811 4.70675E-01
 -1      2812 3.62167E-01
 -1      2813 2.42849E-01
 -1      2814 2.70545E-01
 -1      2815 2.02081E-01
 -1      2816 2.24342E-01
 -1      2817 2.15232E-01
 -1      2818 1.65560E-01
 -1      2819 1.85043E-01
 -1      2820 1.79687E-01
 -1      2821 1.35092E-01
 -1      2822 1.51681E-01
 -1      2823 1.48770E-01
 -1      2824 1.09943E-01
 -1      2825 1.22763E-01
 -1      2826 1.22562E-01
 -1      2827 8.89112E-02
 -1      2828 9.93308E-02
 -1      2829 9.96197E-02
 -1      2830 7.13205E-02
 -1      2831 8.00680E-02
 -1      2832 8.01638E-02
 -1      2833 5.67473E-02
 -1      2834 6.40339E-02
 -1      2835 6.40339E-02
 -1      2836 4.57975E-02
 -1      2837 5.09467E-02
 -1      2838 5.09467E-02
 -1      2839 3.95732E-02
 -1      2840 4.14587E-02
 -1      2841 4.08073E-02
 -1      2842 4.16140E-02
 -1      2843 3.91724E-02
 -1      2844 3.60677E-02
 -1      2845 5.18868E-02
 -1      2846 4.55683E-02
 -1      2847 3.96213E-02
 -1      2848 7.24645E-02
 -1      2849 6.30810E-02
 -1      2850 5.47698E-02
 -1      2851 1.08349E-01
 -1      2852 8.89547E-02
 -1      2853 8.24543E-02
 -1      2854 1.54786E-01
 -1      2855 1.29480E-01
 -1      2856 1.20076E-01
 -1      2857 2.14195E-01
 -1      2858 1.81693E-01
 -1      2859 1.68113E-01
 -1      2860 2.88917E-01
 -1      2861 2.48047E-01
 -1      2862 2.28871E-01
 -1      2863 3.80855E-01
 -1      2864 3.30825E-01
 -1      2865 3.04631E-01
 -1      2866 4.90854E-01
 -1      2867 4.31709E-01
 -1      2868 3.97392E-01
 -1      2869 6.17732E-01
 -1      2870 5.51057E-01
 -1      2871 5.08449E-01
 -1      2872 7.56871E-01
 -1      2873 6.86792E-01
 -1      2874 6.37712E-01
 -1      2875 8.98384E-01
 -1      2876 8.32772E-01
 -1      2877 7.82673E-01
 -1      2878 1.03176E+00
 -1      2879 9.76667E-01
 -1      2880 9.36856E-01
 -1      2881 1.14704E+00
 -1      2882 1.10415E+00
 -1      2883 1.08753E+00
 -1      2884 1.29246E+00
 -1      2885 1.23332E+00
 -1      2886 1.24619E+00
 -1      2887 1.46136E+00
 -1      2888 1.43537E+00
 -1      2889 1.47538E+00
 -1      2890 1.60659E+00
 -1      2891 1.59924E+00
 -1      2892 1.75616E+00
 -1      2893 1.88325E+00
 -1      2894 1.76819E+00
 -1      2895 2.05564E+00
 -1      2896 2.20339E+00
 -1      2897 1.92419E+00
 -1      2898 2.25819E+00
 -1      2899 2.49778E+00
 -1      2900 2.33923E+00
 -1      2901 2.43497E+00
 -1      2902 3.28775E+00
 -1      2903 2.97990E+00
 -1      2904 3.05294E+00
 -1      2905 3.91027E+00
 -1      2906 3.95799E+00
 -1      2907 3.27382E+00
 -1      2908 3.61396E+00
 -1      2909 3.91027E+00
 -1      2910 3.24911E+00
 -1      2911 3.39413E+00
 -1      2912 3.73426E+00
 -1      2913 2.76440E+00
 -1      2914 2.91009E+00
 -1      2915 3.51555E+00
 -1      2916 2.10390E+00
 -1      2917 2.35228E+00
 -1      2918 2.76440E+00
 -1      2919 1.80770E+00
 -1      2920 1.84964E+00
 -1      2921 2.09802E+00
 -1      2922 1.80770E+00
 -1      2923 7.99549E+00
 -1      2924 7.09562E+00
 -1      2925 1.76988E+00
 -1      2926 1.62485E+00
 -1      2927 1.98111E+00
 -1      2928 5.78529E+00
 -1      2929 5.40105E+00
 -1      2930 1.02769E+01
 -1      2931 1.02769E+01
 -1      2932 7.67457E+00
 -1      2933 6.93488E+00
 -1      2934 8.23451E+00
 -1      2935 8.80515E+00
 -1      2936 5.04474E-01
 -1      2937 5.83860E-01
 -1      2938 4.30247E-01
 -1      2939 3.76623E+00
 -1      2940 4.39128E+00
 -1      2941 3.05615E+00
 -1      2942 3.34670E+00
 -1      2943 4.46182E+00
 -1      2944 6.95063E+00
 -1      2945 6.44523E+00
 -1      2946 9.97960E+00
 -1      2947 7.45070E+00
 -1      2948 1.62485E+00
 -1      2949 6.12941E-01
 -1      2950 5.76022E-01
 -1      2951 4.06515E-01
 -1      2952 8.63202E+00
 -1      2953 1.17934E+01
 -1      2954 6.59857E+00
 -1      2955 5.41702E+00
 -1      2956 2.03702E+01
 -1      2957 1.75348E+01
 -1      2958 2.90344E-01
 -1      2959 3.22205E-01
 -1      2960 3.00613E-01
 -1      2961 2.53538E-01
 -1      2962 5.97925E-01
 -1      2963 5.47569E-01
 -1      2964 3.94904E-01
 -1      2965 3.70967E-01
 -1      2966 4.36604E-01
 -1      2967 4.24576E-01
 -1      2968 3.60264E-01
 -1      2969 3.62003E-01
 -1      2970 1.55870E+01
 -1      2971 1.20016E+01
 -1      2972 6.09469E-01
 -1      2973 7.03205E-01
 -1      2974 5.29600E-01
 -1      2975 4.89655E-01
 -1      2976 4.23166E-01
 -1      2977 4.35466E-01
 -1      2978 5.49175E+00
 -1      2979 4.12515E+00
 -1      2980 4.12542E+00
 -1      2981 4.54071E+00
 -1      2982 2.02593E+01
 -1      2983 2.44520E+01
 -1      2984 1.44826E+01
 -1      2985 1.06087E+01
 -1      2986 1.26128E+01
 -1      2987 1.31170E+01
 -1      2988 1.84322E+01
 -1      2989 2.46906E+01
 -1      2990 2.06218E+01
 -1      2991 1.59165E+01
 -1      2992 1.59294E+01
 -1      2993 3.97306E+00
 -1      2994 4.19107E+00
 -1      2995 1.32751E+01
 -1      2996 1.73674E+01
 -1      2997 4.93644E+00
 -1      2998 6.00588E+00
 -1      2999 5.78273E+00
 -1      3000 4.56577E+00
 -1      3001 5.35933E+00
 -1      3002 6.84241E+00
 -1      3003 5.96566E+00
 -1      3004 4.27437E+00
 -1      3005 5.49657E+00
 -1      3006 6.42542E+00
 -1      3007 6.95311E+00
 -1      3008 4.35466E-01
 -1      3009 4.35466E-01
 -1      3010 3.59830E-01
 -1      3011 3.42637E-01
 -1      3012 3.87033E-01
 -1      3013 3.99965E-01
 -1      3014 1.19074E+01
 -1      3015 5.76588E-01
 -1      3016 4.49277E+00
 -1      3017 4.51685E+00
 -1      3018 3.75243E+00
 -1      3019 5.74866E+00
 -1      3020 4.06479E+00
 -1      3021 3.51309E+00
 -1      3022 5.07126E+00
 -1      3023 4.07109E+00
 -1      3024 3.73661E+00
 -1      3025 3.98392E+00
 -1      3026 4.31969E+00
 -1      3027 4.15428E+00
 -1      3028 2.22150E+00
 -1      3029 1.80043E+00
 -1      3030 1.83649E+00
 -1      3031 3.12081E+00
 -1      3032 6.33557E+00
 -1      3033 8.26735E+00
 -1      3034 5.73625E+00
 -1      3035 1.94676E+00
 -1      3036 2.21417E+00
 -1      3037 2.33741E+00
 -1      3038 3.32356E+00
 -1      3039 2.37176E+00
 -1      3040 3.71022E+00
 -1      3041 4.41003E-01
 -1      3042 1.37818E+01
 -1      3043 7.17302E+00
 -1      3044 1.04443E+01
 -1      3045 1.38637E+01
 -1      3046 5.94544E+00
 -1      3047 8.25538E+00
 -1      3048 8.44698E+00
 -1      3049 4.87991E+00
 -1      3050 4.84574E+00
 -1      3051 3.81509E+00
 -1      3052 4.07717E-01
 -1      3053 4.22203E-01
 -1      3054 3.58866E-01
 -1      3055 3.50151E-01
 -1      3056 5.47982E+00
 -1      3057 6.67205E+00
 -1      3058 3.53479E+00
 -1      3059 4.03895E+00
 -1      3060 7.14211E+00
 -1      3061 5.18488E+00
 -1      3062 7.38768E+00
 -1      3063 4.82197E+00
 -1      3064 9.44516E+00
 -1      3065 7.58683E+00
 -1      3066 8.39707E+00
 -1      3067 7.54527E+00
 -1      3068 7.36624E+00
 -1      3069 1.13851E+01
 -1      3070 6.82564E+00
 -1      3071 5.31919E+00
 -1      3072 5.72397E+00
 -1      3073 5.82951E+00
 -1      3074 2.89422E-01
 -1      3075 3.01389E-01
 -1      3076 1.25108E+01
 -1      3077 2.10119E+01
 -1      3078 4.81338E+00
 -1      3079 3.85456E+00
 -1      3080 8.92873E+00
 -1      3081 9.90469E+00
 -1      3082 5.51195E+00
 -1      3083 4.02691E+00
 -1      3084 3.19461E-01
 -1      3085 2.99094E-01
 -1      3086 2.95903E-01
 -1      3087 2.71139E-01
 -1      3088 2.51709E-01
 -1      3089 2.60349E-01
 -1      3090 2.35573E-01
 -1      3091 2.37728E-01
 -1      3092 2.21453E-01
 -1      3093 2.05819E-01
 -1      3094 2.12817E-01
 -1      3095 1.92496E-01
 -1      3096 1.76301E-01
 -1      3097 1.85374E-01
 -1      3098 1.65721E-01
 -1      3099 1.50264E-01
 -1      3100 1.61470E-01
 -1      3101 1.39118E-01
 -1      3102 1.25157E-01
 -1      3103 1.39743E-01
 -1      3104 1.14373E-01
 -1      3105 1.02937E-01
 -1      3106 1.17813E-01
 -1      3107 9.29982E-02
 -1      3108 8.36259E-02
 -1      3109 9.70913E-02
 -1      3110 7.47074E-02
 -1      3111 6.66917E-02
 -1      3112 7.82344E-02
 -1      3113 5.87475E-02
 -1      3114 5.19439E-02
 -1      3115 6.13717E-02
 -1      3116 4.47721E-02
 -1      3117 3.92795E-02
 -1      3118 4.62558E-02
 -1      3119 3.25638E-02
 -1      3120 2.76477E-02
 -1      3121 3.23683E-02
 -1      3122 2.46970E-02
 -1      3123 2.54905E-02
 -1      3124 2.27019E-02
 -1      3125 2.93389E-02
 -1      3126 3.51136E-02
 -1      3127 2.35996E-02
 -1      3128 4.55127E-02
 -1      3129 5.81806E-02
 -1      3130 3.78471E-02
 -1      3131 7.12326E-02
 -1      3132 8.71170E-02
 -1      3133 6.12982E-02
 -1      3134 1.04060E-01
 -1      3135 1.23992E-01
 -1      3136 9.12936E-02
 -1      3137 1.45778E-01
 -1      3138 1.70594E-01
 -1      3139 1.30024E-01
 -1      3140 1.97565E-01
 -1      3141 2.28044E-01
 -1      3142 1.78781E-01
 -1      3143 2.60687E-01
 -1      3144 2.97440E-01
 -1      3145 2.38396E-01
 -1      3146 3.35765E-01
 -1      3147 3.79073E-01
 -1      3148 3.09364E-01
 -1      3149 4.22207E-01
 -1      3150 4.71776E-01
 -1      3151 3.90823E-01
 -1      3152 5.25410E-01
 -1      3153 5.81336E-01
 -1      3154 4.87591E-01
 -1      3155 6.51038E-01
 -1      3156 7.08196E-01
 -1      3157 6.10928E-01
 -1      3158 7.87910E-01
 -1      3159 8.40630E-01
 -1      3160 7.60343E-01
 -1      3161 9.40464E-01
 -1      3162 1.00699E+00
 -1      3163 9.39892E-01
 -1      3164 1.11889E+00
 -1      3165 1.21934E+00
 -1      3166 1.15162E+00
 -1      3167 1.38893E+00
 -1      3168 1.49037E+00
 -1      3169 1.43311E+00
 -1      3170 1.71125E+00
 -1      3171 1.77163E+00
 -1      3172 1.82359E+00
 -1      3173 1.98688E+00
 -1      3174 2.24904E+00
 -1      3175 2.25972E+00
 -1      3176 2.47595E+00
 -1      3177 2.67570E+00
 -1      3178 2.70188E+00
 -1      3179 3.04588E+00
 -1      3180 3.51517E+00
 -1      3181 3.29897E+00
 -1      3182 3.88498E+00
 -1      3183 4.40876E+00
 -1      3184 5.07126E+00
 -1      3185 5.23548E+00
 -1      3186 5.23796E+00
 -1      3187 4.43623E+00
 -1      3188 5.31919E+00
 -1      3189 4.01199E+00
 -1      3190 2.76010E+00
 -1      3191 2.39587E+00
 -1      3192 2.36415E+00
 -1      3193 2.76010E+00
 -1      3194 2.56109E+00
 -1      3195 2.46423E+00
 -1      3196 2.69728E+00
 -1      3197 2.59281E+00
 -1      3198 3.07268E-01
 -1      3199 3.41548E-01
 -1      3200 1.63042E-01
 -1      3201 1.80080E-01
 -1      3202 1.92889E-01
 -1      3203 2.11396E-01
 -1      3204 1.76243E-01
 -1      3205 1.11869E-01
 -1      3206 1.24198E-01
 -1      3207 9.03887E-02
 -1      3208 1.01001E-01
 -1      3209 1.02637E-01
 -1      3210 7.19855E-02
 -1      3211 8.08287E-02
 -1      3212 8.22103E-02
 -1      3213 5.63429E-02
 -1      3214 6.36295E-02
 -1      3215 6.42945E-02
 -1      3216 4.40578E-02
 -1      3217 4.98584E-02
 -1      3218 4.94540E-02
 -1      3219 3.41012E-02
 -1      3220 3.84400E-02
 -1      3221 3.73517E-02
 -1      3222 2.85852E-02
 -1      3223 2.89860E-02
 -1      3224 2.66187E-02
 -1      3225 3.48731E-02
 -1      3226 3.09187E-02
 -1      3227 2.38370E-02
 -1      3228 5.65454E-02
 -1      3229 4.53512E-02
 -1      3230 3.66486E-02
 -1      3231 8.60272E-02
 -1      3232 6.95370E-02
 -1      3233 6.01183E-02
 -1      3234 1.23491E-01
 -1      3235 1.02360E-01
 -1      3236 8.94429E-02
 -1      3237 1.71011E-01
 -1      3238 1.44105E-01
 -1      3239 1.26389E-01
 -1      3240 2.30820E-01
 -1      3241 1.96969E-01
 -1      3242 1.72960E-01
 -1      3243 3.05289E-01
 -1      3244 2.63380E-01
 -1      3245 2.31478E-01
 -1      3246 3.99852E-01
 -1      3247 3.48999E-01
 -1      3248 3.07748E-01
 -1      3249 5.12743E-01
 -1      3250 4.52540E-01
 -1      3251 4.04146E-01
 -1      3252 6.44544E-01
 -1      3253 5.75483E-01
 -1      3254 5.19574E-01
 -1      3255 8.00671E-01
 -1      3256 7.24770E-01
 -1      3257 6.62541E-01
 -1      3258 9.75158E-01
 -1      3259 8.96875E-01
 -1      3260 8.38973E-01
 -1      3261 1.15869E+00
 -1      3262 1.08630E+00
 -1      3263 1.04632E+00
 -1      3264 1.39022E+00
 -1      3265 1.30394E+00
 -1      3266 1.30271E+00
 -1      3267 1.69831E+00
 -1      3268 1.55540E+00
 -1      3269 1.61315E+00
 -1      3270 2.05881E+00
 -1      3271 1.92093E+00
 -1      3272 2.00095E+00
 -1      3273 2.57326E+00
 -1      3274 2.41166E+00
 -1      3275 2.57643E+00
 -1      3276 4.05870E+00
 -1      3277 4.01776E+00
 -1      3278 4.37378E+00
 -1      3279 4.70302E+00
 -1      3280 4.56719E+00
 -1      3281 3.26662E+00
 -1      3282 4.01199E+00
 -1      3283 3.85456E+00
 -1      3284 3.73426E+00
 -1      3285 2.76440E+00
 -1      3286 3.17653E+00
 -1      3287 2.96559E+00
 -1      3288 3.21985E+00
 -1      3289 3.63198E+00
 -1      3290 2.95832E+00
 -1      3291 1.05076E+01
 -1      3292 3.40064E+00
 -1      3293 3.09933E+00
 -1      3294 3.23571E-01
 -1      3295 3.15746E-01
 -1      3296 3.51174E-01
 -1      3297 3.84973E-01
 -1      3298 2.96275E-01
 -1      3299 3.85456E+00
 -1      3300 1.17443E+01
 -1      3301 8.69218E+00
 -1      3302 4.04229E+00
 -1      3303 4.46182E+00
 -1      3304 6.90670E+00
 -1      3305 4.06240E-01
 -1      3306 3.82672E-01
 -1      3307 3.25221E-01
 -1      3308 3.30604E-01
 -1      3309 4.45820E+00
 -1      3310 1.07795E+01
 -1      3311 1.36281E-01
 -1      3312 1.50160E-01
 -1      3313 1.50552E-01
 -1      3314 1.25588E-01
 -1      3315 1.02428E+01
 -1      3316 9.89780E+00
 -1      3317 3.53452E+00
 -1      3318 3.53479E+00
 -1      3319 3.16173E-01
 -1      3320 3.09715E-01
 -1      3321 2.45154E-01
 -1      3322 5.40189E+00
 -1      3323 4.63422E+00
 -1      3324 9.48798E+00
 -1      3325 1.01395E+01
 -1      3326 7.95351E+00
 -1      3327 1.12277E+01
 -1      3328 1.30548E+01
 -1      3329 5.47578E+00
 -1      3330 7.26540E+00
 -1      3331 7.60780E+00
 -1      3332 9.08951E+00
 -1      3333 1.07648E+01
 -1      3334 1.26205E+01
 -1      3335 7.92823E+00
 -1      3336 4.12929E-01
 -1      3337 3.09996E-01
 -1      3338 2.61348E-01
 -1      3339 3.98593E-01
 -1      3340 4.52867E+00
 -1      3341 4.33790E+00
 -1      3342 4.03895E+00
 -1      3343 3.75243E+00
 -1      3344 4.64177E+00
 -1      3345 3.12301E-01
 -1      3346 3.12063E-01
 -1      3347 2.85172E-01
 -1      3348 3.41341E+00
 -1      3349 4.27997E+00
 -1      3350 1.03940E+01
 -1      3351 1.30301E+01
 -1      3352 5.27084E+00
 -1      3353 7.52865E+00
 -1      3354 2.74280E-01
 -1      3355 2.98123E-01
 -1      3356 3.20026E-01
 -1      3357 3.20236E-01
 -1      3358 3.20236E-01
 -1      3359 3.41602E+00
 -1      3360 3.21060E-01
 -1      3361 3.21060E-01
 -1      3362 2.60446E-01
 -1      3363 3.41341E+00
 -1      3364 6.66894E+00
 -1      3365 5.33268E+00
 -1      3366 4.89965E+00
 -1      3367 9.66389E+00
 -1      3368 8.80515E+00
 -1      3369 2.03301E-01
 -1      3370 2.25644E-01
 -1      3371 2.45444E-01
 -1      3372 6.32676E+00
 -1      3373 3.53479E+00
 -1      3374 3.05266E+00
 -1      3375 3.66915E+00
 -1      3376 3.25309E-01
 -1      3377 3.23571E-01
 -1      3378 2.88616E-01
 -1      3379 2.84367E-01
 -1      3380 2.95704E+00
 -1      3381 9.49379E+00
 -1      3382 8.34420E+00
 -1      3383 1.30171E+01
 -1      3384 9.09655E+00
 -1      3385 1.32687E+01
 -1      3386 2.91044E-01
 -1      3387 2.70424E-01
 -1      3388 2.63769E-01
 -1      3389 1.32687E+01
 -1      3390 9.38410E+00
 -1      3391 5.29123E+00
 -1      3392 5.50623E+00
 -1      3393 4.40653E+00
 -1      3394 5.91056E+00
 -1      3395 3.53506E+00
 -1      3396 6.14983E+00
 -1      3397 8.43637E+00
 -1      3398 7.19083E+00
 -1      3399 3.68323E-01
 -1      3400 3.93932E-01
 -1      3401 2.77261E-01
 -1      3402 2.89251E-01
 -1      3403 9.33056E+00
 -1      3404 5.85657E+00
 -1      3405 3.24329E-01
 -1      3406 2.84736E-01
 -1      3407 3.23366E-01
 -1      3408 1.25108E+01
 -1      3409 3.53506E+00
 -1      3410 3.53506E+00
 -1      3411 3.22060E-01
 -1      3412 2.41295E-01
 -1      3413 3.03506E-01
 -1      3414 5.18488E+00
 -1      3415 2.15638E-01
 -1      3416 2.04849E-01
 -1      3417 2.01220E-01
 -1      3418 1.87099E-01
 -1      3419 1.79130E-01
 -1      3420 1.79252E-01
 -1      3421 1.65929E-01
 -1      3422 1.67654E-01
 -1      3423 1.56102E-01
 -1      3424 1.45521E-01
 -1      3425 1.49980E-01
 -1      3426 1.37213E-01
 -1      3427 1.26067E-01
 -1      3428 1.31845E-01
 -1      3429 1.17829E-01
 -1      3430 1.07045E-01
 -1      3431 1.15298E-01
 -1      3432 9.86557E-02
 -1      3433 8.87173E-02
 -1      3434 9.86710E-02
 -1      3435 8.06899E-02
 -1      3436 7.17714E-02
 -1      3437 8.22543E-02
 -1      3438 6.43450E-02
 -1      3439 5.64008E-02
 -1      3440 6.68005E-02
 -1      3441 4.96010E-02
 -1      3442 4.24293E-02
 -1      3443 5.25743E-02
 -1      3444 3.61360E-02
 -1      3445 2.94202E-02
 -1      3446 3.94812E-02
 -1      3447 2.75999E-02
 -1      3448 2.46492E-02
 -1      3449 3.13675E-02
 -1      3450 2.61465E-02
 -1      3451 2.99949E-02
 -1      3452 3.10445E-02
 -1      3453 3.68303E-02
 -1      3454 4.72294E-02
 -1      3455 3.93772E-02
 -1      3456 5.96353E-02
 -1      3457 7.26874E-02
 -1      3458 5.86186E-02
 -1      3459 8.88367E-02
 -1      3460 1.05780E-01
 -1      3461 8.71739E-02
 -1      3462 1.26210E-01
 -1      3463 1.47997E-01
 -1      3464 1.23754E-01
 -1      3465 1.73597E-01
 -1      3466 2.00568E-01
 -1      3467 1.69784E-01
 -1      3468 2.32223E-01
 -1      3469 2.64866E-01
 -1      3470 2.27039E-01
 -1      3471 3.03381E-01
 -1      3472 3.41705E-01
 -1      3473 2.97208E-01
 -1      3474 3.87665E-01
 -1      3475 4.30799E-01
 -1      3476 3.81681E-01
 -1      3477 4.84316E-01
 -1      3478 5.37951E-01
 -1      3479 4.81158E-01
 -1      3480 5.98142E-01
 -1      3481 6.67844E-01
 -1      3482 5.94867E-01
 -1      3483 7.39628E-01
 -1      3484 8.19342E-01
 -1      3485 7.26843E-01
 -1      3486 9.24027E-01
 -1      3487 1.02386E+00
 -1      3488 9.03312E-01
 -1      3489 1.19419E+00
 -1      3490 1.30608E+00
 -1      3491 1.17832E+00
 -1      3492 1.54629E+00
 -1      3493 1.71588E+00
 -1      3494 1.58885E+00
 -1      3495 2.17816E+00
 -1      3496 2.39904E+00
 -1      3497 2.29133E+00
 -1      3498 3.41051E+00
 -1      3499 3.62576E+00
 -1      3500 3.76508E+00
 -1      3501 4.30710E+00
 -1      3502 4.53401E+00
 -1      3503 5.45789E+00
 -1      3504 2.63913E-01
 -1      3505 7.62899E-02
 -1      3506 8.58498E-02
 -1      3507 9.47001E-02
 -1      3508 1.05567E-01
 -1      3509 8.87797E-02
 -1      3510 4.60306E-02
 -1      3511 5.25151E-02
 -1      3512 3.36800E-02
 -1      3513 3.92978E-02
 -1      3514 4.23589E-02
 -1      3515 2.32240E-02
 -1      3516 2.83391E-02
 -1      3517 3.02853E-02
 -1      3518 2.66337E-02
 -1      3519 2.43002E-02
 -1      3520 2.60207E-02
 -1      3521 4.33522E-02
 -1      3522 3.28742E-02
 -1      3523 3.33373E-02
 -1      3524 6.81114E-02
 -1      3525 5.51198E-02
 -1      3526 5.13453E-02
 -1      3527 1.00133E-01
 -1      3528 8.37996E-02
 -1      3529 7.88011E-02
 -1      3530 1.41306E-01
 -1      3531 1.20692E-01
 -1      3532 1.15049E-01
 -1      3533 1.93592E-01
 -1      3534 1.67634E-01
 -1      3535 1.61937E-01
 -1      3536 2.59567E-01
 -1      3537 2.27007E-01
 -1      3538 2.21681E-01
 -1      3539 3.45212E-01
 -1      3540 3.01501E-01
 -1      3541 2.97030E-01
 -1      3542 4.49849E-01
 -1      3543 3.97162E-01
 -1      3544 3.90915E-01
 -1      3545 5.75995E-01
 -1      3546 5.13254E-01
 -1      3547 5.06270E-01
 -1      3548 7.32169E-01
 -1      3549 6.51943E-01
 -1      3550 6.45623E-01
 -1      3551 9.16904E-01
 -1      3552 8.20700E-01
 -1      3553 8.10101E-01
 -1      3554 1.12685E+00
 -1      3555 1.01571E+00
 -1      3556 9.97436E-01
 -1      3557 1.43448E+00
 -1      3558 1.28922E+00
 -1      3559 1.25861E+00
 -1      3560 1.84080E+00
 -1      3561 1.67562E+00
 -1      3562 1.66213E+00
 -1      3563 2.39212E+00
 -1      3564 2.16950E+00
 -1      3565 2.23197E+00
 -1      3566 3.39943E+00
 -1      3567 3.04657E+00
 -1      3568 3.21512E+00
 -1      3569 6.27741E+00
 -1      3570 4.83291E+00
 -1      3571 5.30306E+00
 -1      3572 3.81509E+00
 -1      3573 7.28014E+00
 -1      3574 6.98504E+00
 -1      3575 2.47422E-01
 -1      3576 2.57048E-01
 -1      3577 2.59281E+00
 -1      3578 4.37234E+00
 -1      3579 4.24991E+00
 -1      3580 7.58892E+00
 -1      3581 8.67705E+00
 -1      3582 8.54385E+00
 -1      3583 7.27105E+00
 -1      3584 1.03694E+01
 -1      3585 5.36506E+00
 -1      3586 5.43997E+00
 -1      3587 5.98372E-02
 -1      3588 6.81932E-02
 -1      3589 7.18326E-02
 -1      3590 5.64138E-02
 -1      3591 6.78589E+00
 -1      3592 3.32356E+00
 -1      3593 1.57909E-01
 -1      3594 1.70719E-01
 -1      3595 4.82779E+00
 -1      3596 4.99028E+00
 -1      3597 4.26058E+00
 -1      3598 2.78975E+00
 -1      3599 8.54385E+00
 -1      3600 8.54385E+00
 -1      3601 6.71834E+00
 -1      3602 3.15614E-01
 -1      3603 3.23366E-01
 -1      3604 2.88829E-01
 -1      3605 1.95404E-01
 -1      3606 2.05150E-01
 -1      3607 2.14886E-01
 -1      3608 2.11694E-01
 -1      3609 1.78815E-01
 -1      3610 7.03439E+00
 -1      3611 8.13592E+00
 -1      3612 8.11126E+00
 -1      3613 6.39428E+00
 -1      3614 2.58025E-01
 -1      3615 4.82197E+00
 -1      3616 2.47400E-01
 -1      3617 2.24782E-01
 -1      3618 1.84779E-01
 -1      3619 2.51493E-01
 -1      3620 2.31944E-01
 -1      3621 2.48168E-01
 -1      3622 2.08942E-01
 -1      3623 3.98392E+00
 -1      3624 3.41602E+00
 -1      3625 2.02922E-01
 -1      3626 2.22594E-01
 -1      3627 5.49562E+00
 -1      3628 3.89040E+00
 -1      3629 1.82575E-01
 -1      3630 1.96823E-01
 -1      3631 1.64241E-01
 -1      3632 2.85278E-01
 -1      3633 1.07017E-01
 -1      3634 1.14955E-01
 -1      3635 1.27038E-01
 -1      3636 6.13922E+00
 -1      3637 7.19083E+00
 -1      3638 6.53732E+00
 -1      3639 2.35875E-01
 -1      3640 6.31802E+00
 -1      3641 5.77442E+00
 -1      3642 4.34094E+00
 -1      3643 5.76532E+00
 -1      3644 1.94829E-01
 -1      3645 2.43682E-01
 -1      3646 8.02323E+00
 -1      3647 6.19772E+00
 -1      3648 5.76512E+00
 -1      3649 2.27032E-01
 -1      3650 1.49356E-01
 -1      3651 1.43831E-01
 -1      3652 1.36474E-01
 -1      3653 2.53096E-01
 -1      3654 2.53096E-01
 -1      3655 1.65136E-01
 -1      3656 2.53096E-01
 -1      3657 2.49651E-01
 -1      3658 2.17575E-01
 -1      3659 2.42078E-01
 -1      3660 2.46327E-01
 -1      3661 2.10806E-01
 -1      3662 1.84554E-01
 -1      3663 1.59509E-01
 -1      3664 1.55880E-01
 -1      3665 2.56688E-01
 -1      3666 2.18835E-01
 -1      3667 1.55532E-01
 -1      3668 1.47685E-01
 -1      3669 1.35911E-01
 -1      3670 1.43277E-01
 -1      3671 1.33449E-01
 -1      3672 1.31154E-01
 -1      3673 1.26799E-01
 -1      3674 1.18491E-01
 -1      3675 1.20096E-01
 -1      3676 1.10884E-01
 -1      3677 1.02646E-01
 -1      3678 1.05839E-01
 -1      3679 9.64241E-02
 -1      3680 8.80347E-02
 -1      3681 9.20099E-02
 -1      3682 8.15406E-02
 -1      3683 7.35132E-02
 -1      3684 7.92936E-02
 -1      3685 6.72095E-02
 -1      3686 5.97831E-02
 -1      3687 6.64958E-02
 -1      3688 5.38943E-02
 -1      3689 4.70945E-02
 -1      3690 5.43033E-02
 -1      3691 4.16803E-02
 -1      3692 3.53870E-02
 -1      3693 4.30003E-02
 -1      3694 3.46415E-02
 -1      3695 3.28212E-02
 -1      3696 3.68406E-02
 -1      3697 3.41213E-02
 -1      3698 3.56187E-02
 -1      3699 3.73953E-02
 -1      3700 3.84258E-02
 -1      3701 4.52611E-02
 -1      3702 4.15026E-02
 -1      3703 5.37973E-02
 -1      3704 6.62032E-02
 -1      3705 5.28458E-02
 -1      3706 7.99185E-02
 -1      3707 9.60679E-02
 -1      3708 7.50972E-02
 -1      3709 1.13606E-01
 -1      3710 1.34036E-01
 -1      3711 1.06350E-01
 -1      3712 1.56330E-01
 -1      3713 1.81930E-01
 -1      3714 1.46182E-01
 -1      3715 2.10065E-01
 -1      3716 2.41720E-01
 -1      3717 1.96611E-01
 -1      3718 2.76987E-01
 -1      3719 3.15501E-01
 -1      3720 2.60014E-01
 -1      3721 3.59483E-01
 -1      3722 4.05443E-01
 -1      3723 3.39263E-01
 -1      3724 4.60166E-01
 -1      3725 5.13683E-01
 -1      3726 4.37968E-01
 -1      3727 5.81801E-01
 -1      3728 6.41993E-01
 -1      3729 5.60809E-01
 -1      3730 7.26843E-01
 -1      3731 7.98627E-01
 -1      3732 7.13777E-01
 -1      3733 9.03312E-01
 -1      3734 1.00800E+00
 -1      3735 9.03312E-01
 -1      3736 1.13797E+00
 -1      3737 1.30830E+00
 -1      3738 1.13797E+00
 -1      3739 1.55250E+00
 -1      3740 1.79270E+00
 -1      3741 1.51215E+00
 -1      3742 2.41679E+00
 -1      3743 2.87907E+00
 -1      3744 2.38044E+00
 -1      3745 4.44642E+00
 -1      3746 5.45789E+00
 -1      3747 6.13922E+00
 -1      3748 8.01694E-02
 -1      3749 8.90197E-02
 -1      3750 5.85253E+00
 -1      3751 5.85253E+00
 -1      3752 2.90176E-02
 -1      3753 3.43584E-02
 -1      3754 3.82991E-02
 -1      3755 4.50319E-02
 -1      3756 3.70314E-02
 -1      3757 3.95701E-02
 -1      3758 3.33297E-02
 -1      3759 5.97574E-02
 -1      3760 4.79898E-02
 -1      3761 4.79821E-02
 -1      3762 8.92718E-02
 -1      3763 7.35835E-02
 -1      3764 7.02280E-02
 -1      3765 1.27606E-01
 -1      3766 1.07046E-01
 -1      3767 1.01828E-01
 -1      3768 1.76710E-01
 -1      3769 1.50381E-01
 -1      3770 1.42378E-01
 -1      3771 2.39153E-01
 -1      3772 2.05738E-01
 -1      3773 1.94182E-01
 -1      3774 3.17888E-01
 -1      3775 2.75953E-01
 -1      3776 2.60010E-01
 -1      3777 4.16325E-01
 -1      3778 3.64375E-01
 -1      3779 3.43298E-01
 -1      3780 5.38456E-01
 -1      3781 4.75052E-01
 -1      3782 4.48512E-01
 -1      3783 6.88972E-01
 -1      3784 6.13024E-01
 -1      3785 5.81806E-01
 -1      3786 8.73169E-01
 -1      3787 7.84639E-01
 -1      3788 7.52040E-01
 -1      3789 1.09624E+00
 -1      3790 9.97436E-01
 -1      3791 9.71974E-01
 -1      3792 1.42098E+00
 -1      3793 1.25861E+00
 -1      3794 1.25861E+00
 -1      3795 1.87999E+00
 -1      3796 1.63885E+00
 -1      3797 1.63885E+00
 -1      3798 2.90607E+00
 -1      3799 2.57737E+00
 -1      3800 2.55409E+00
 -1      3801 3.91316E+00
 -1      3802 3.25870E+00
 -1      3803 3.60410E+00
 -1      3804 4.38452E+00
 -1      3805 1.60326E-01
 -1      3806 1.46960E-01
 -1      3807 2.53113E-01
 -1      3808 2.53113E-01
 -1      3809 2.15777E-01
 -1      3810 2.07165E-01
 -1      3811 2.25490E-01
 -1      3812 2.03234E-01
 -1      3813 1.62977E-01
 -1      3814 1.72712E-01
 -1      3815 2.49562E-01
 -1      3816 2.53113E-01
 -1      3817 2.17486E-01
 -1      3818 1.49251E-01
 -1      3819 1.53195E-01
 -1      3820 1.29945E-01
 -1      3821 6.14983E+00
 -1      3822 6.13922E+00
 -1      3823 5.12684E+00
 -1      3824 4.58571E+00
 -1      3825 4.38984E+00
 -1      3826 3.10044E-02
 -1      3827 2.99281E-02
 -1      3828 3.72371E-02
 -1      3829 1.73266E-01
 -1      3830 1.41483E-01
 -1      3831 1.33286E-01
 -1      3832 1.52770E-01
 -1      3833 1.06979E-01
 -1      3834 3.40013E-02
 -1      3835 8.77872E-02
 -1      3836 9.63975E-02
 -1      3837 1.05785E-01
 -1      3838 4.57188E+00
 -1      3839 7.31002E-02
 -1      3840 7.33402E-02
 -1      3841 6.50035E-02
 -1      3842 1.76643E-01
 -1      3843 1.28773E-01
 -1      3844 1.77388E-01
 -1      3845 2.17397E-01
 -1      3846 5.40477E+00
 -1      3847 4.53895E+00
 -1      3848 4.88414E+00
 -1      3849 5.33754E+00
 -1      3850 4.58571E+00
 -1      3851 4.49768E+00
 -1      3852 3.31827E+00
 -1      3853 4.47173E+00
 -1      3854 5.11222E-02
 -1      3855 5.84443E-02
 -1      3856 5.97119E-02
 -1      3857 1.86438E-01
 -1      3858 1.92355E-01
 -1      3859 1.25842E-01
 -1      3860 1.85081E-01
 -1      3861 1.85081E-01
 -1      3862 1.46595E-01
 -1      3863 1.58452E-01
 -1      3864 3.97031E+00
 -1      3865 1.47092E-01
 -1      3866 1.30136E-01
 -1      3867 1.38689E-01
 -1      3868 1.32900E-01
 -1      3869 1.72287E-01
 -1      3870 1.79056E-01
 -1      3871 1.46561E-01
 -1      3872 1.21019E-01
 -1      3873 4.70624E-02
 -1      3874 4.14020E-02
 -1      3875 4.74923E-02
 -1      3876 1.06765E-01
 -1      3877 1.13079E-01
 -1      3878 1.19461E-01
 -1      3879 1.15052E-01
 -1      3880 1.12355E-01
 -1      3881 1.05705E-01
 -1      3882 1.00661E-01
 -1      3883 1.01026E-01
 -1      3884 9.34190E-02
 -1      3885 9.32847E-02
 -1      3886 8.77900E-02
 -1      3887 8.15680E-02
 -1      3888 8.29770E-02
 -1      3889 7.56693E-02
 -1      3890 6.91752E-02
 -1      3891 7.14495E-02
 -1      3892 6.41420E-02
 -1      3893 5.78383E-02
 -1      3894 6.05177E-02
 -1      3895 5.31636E-02
 -1      3896 4.72748E-02
 -1      3897 5.08098E-02
 -1      3898 4.48180E-02
 -1      3899 3.94038E-02
 -1      3900 4.36783E-02
 -1      3901 3.87269E-02
 -1      3902 3.79814E-02
 -1      3903 4.05446E-02
 -1      3904 3.88615E-02
 -1      3905 4.01617E-02
 -1      3906 4.07478E-02
 -1      3907 4.26207E-02
 -1      3908 4.54278E-02
 -1      3909 4.40868E-02
 -1      3910 5.01448E-02
 -1      3911 5.86809E-02
 -1      3912 5.12629E-02
 -1      3913 6.64216E-02
 -1      3914 8.01369E-02
 -1      3915 6.37205E-02
 -1      3916 9.24811E-02
 -1      3917 1.10019E-01
 -1      3918 8.38055E-02
 -1      3919 1.27514E-01
 -1      3920 1.49808E-01
 -1      3921 1.13644E-01
 -1      3922 1.72287E-01
 -1      3923 2.00423E-01
 -1      3924 1.53619E-01
 -1      3925 2.29232E-01
 -1      3926 2.64499E-01
 -1      3927 2.04908E-01
 -1      3928 3.01484E-01
 -1      3929 3.45466E-01
 -1      3930 2.70702E-01
 -1      3931 3.93320E-01
 -1      3932 4.48043E-01
 -1      3933 3.55541E-01
 -1      3934 5.10952E-01
 -1      3935 5.79070E-01
 -1      3936 4.66304E-01
 -1      3937 6.63883E-01
 -1      3938 7.48733E-01
 -1      3939 6.14026E-01
 -1      3940 8.66723E-01
 -1      3941 9.71408E-01
 -1      3942 8.16828E-01
 -1      3943 1.13797E+00
 -1      3944 1.26795E+00
 -1      3945 1.10138E+00
 -1      3946 1.50485E+00
 -1      3947 1.74906E+00
 -1      3948 1.50485E+00
 -1      3949 1.64264E-01
 -1      3950 1.74606E-01
 -1      3951 1.46619E-01
 -1      3952 1.64753E-01
 -1      3953 1.97248E-01
 -1      3954 1.97158E-01
 -1      3955 1.07528E-01
 -1      3956 8.97544E-02
 -1      3957 7.58327E-02
 -1      3958 6.20065E-02
 -1      3959 8.15329E-02
 -1      3960 5.32221E-02
 -1      3961 4.48024E-02
 -1      3962 5.88267E-02
 -1      3963 1.48189E-01
 -1      3964 1.25413E-01
 -1      3965 1.13339E-01
 -1      3966 2.00070E-01
 -1      3967 1.71041E-01
 -1      3968 1.54077E-01
 -1      3969 2.65956E-01
 -1      3970 2.29156E-01
 -1      3971 2.06015E-01
 -1      3972 3.49455E-01
 -1      3973 3.02967E-01
 -1      3974 2.72112E-01
 -1      3975 4.55569E-01
 -1      3976 3.96843E-01
 -1      3977 3.56512E-01
 -1      3978 5.91758E-01
 -1      3979 5.17191E-01
 -1      3980 4.65522E-01
 -1      3981 7.69812E-01
 -1      3982 6.74145E-01
 -1      3983 6.09530E-01
 -1      3984 1.00892E+00
 -1      3985 8.84654E-01
 -1      3986 8.06758E-01
 -1      3987 1.33787E+00
 -1      3988 1.17550E+00
 -1      3989 1.08817E+00
 -1      3990 1.80344E+00
 -1      3991 1.58558E+00
 -1      3992 1.50246E+00
 -1      3993 3.25146E+00
 -1      3994 2.55409E+00
 -1      3995 2.50082E+00
 -1      3996 4.11909E+00
 -1      3997 1.93975E-01
 -1      3998 1.19106E-01
 -1      3999 1.18758E-01
 -1      4000 9.59262E-02
 -1      4001 3.69394E-02
 -1      4002 3.60289E-02
 -1      4003 3.56616E-02
 -1      4004 3.96023E-02
 -1      4005 3.85997E-02
 -1      4006 1.97158E-01
 -1      4007 1.73737E-01
 -1      4008 1.27245E-01
 -1      4009 1.03784E-01
 -1      4010 8.69184E-02
 -1      4011 1.30429E-01
 -1      4012 1.97158E-01
 -1      4013 4.11127E-02
 -1      4014 3.87874E-02
 -1      4015 4.08150E-02
 -1      4016 1.76231E-01
 -1      4017 1.82685E-01
 -1      4018 1.50386E-01
 -1      4019 1.54058E-01
 -1      4020 1.12884E-01
 -1      4021 1.22320E-01
 -1      4022 1.17178E-01
 -1      4023 1.02264E-01
 -1      4024 4.11909E+00
 -1      4025 7.66603E-02
 -1      4026 8.40381E-02
 -1      4027 1.76920E-01
 -1      4028 1.29047E-01
 -1      4029 1.34860E-01
 -1      4030 2.23432E+00
 -1      4031 2.85841E+00
 -1      4032 1.32302E-01
 -1      4033 1.44469E-01
 -1      4034 5.57908E-02
 -1      4035 6.23499E-02
 -1      4036 5.01304E-02
 -1      4037 4.63526E-02
 -1      4038 3.16140E+00
 -1      4039 4.72875E+00
 -1      4040 7.16733E-02
 -1      4041 6.79242E-02
 -1      4042 6.46041E-02
 -1      4043 3.21447E+00
 -1      4044 4.39388E+00
 -1      4045 3.60093E+00
 -1      4046 3.67133E+00
 -1      4047 3.01528E+00
 -1      4048 3.01528E+00
 -1      4049 4.00322E-02
 -1      4050 1.21093E-01
 -1      4051 1.27118E-01
 -1      4052 1.06834E-01
 -1      4053 2.22702E+00
 -1      4054 1.23573E-01
 -1      4055 1.31479E-01
 -1      4056 1.19721E-01
 -1      4057 1.02656E-01
 -1      4058 1.26496E-01
 -1      4059 9.98223E-02
 -1      4060 1.13862E-01
 -1      4061 9.44186E-02
 -1      4062 1.16139E-01
 -1      4063 1.44469E-01
 -1      4064 1.44469E-01
 -1      4065 9.79775E-02
 -1      4066 1.12018E-01
 -1      4067 8.80746E-02
 -1      4068 8.87775E-02
 -1      4069 8.49380E-02
 -1      4070 8.02593E-02
 -1      4071 7.71873E-02
 -1      4072 7.15584E-02
 -1      4073 6.88407E-02
 -1      4074 7.88406E-02
 -1      4075 7.29419E-02
 -1      4076 7.30509E-02
 -1      4077 6.04760E-02
 -1      4078 5.54428E-02
 -1      4079 6.78671E-02
 -1      4080 5.18743E-02
 -1      4081 4.71996E-02
 -1      4082 5.18326E-02
 -1      4083 5.16542E-02
 -1      4084 4.91974E-02
 -1      4085 5.27187E-02
 -1      4086 4.12215E-02
 -1      4087 4.05446E-02
 -1      4088 4.91974E-02
 -1      4089 4.07478E-02
 -1      4090 4.16278E-02
 -1      4091 4.14246E-02
 -1      4092 4.40868E-02
 -1      4093 4.65458E-02
 -1      4094 4.40868E-02
 -1      4095 5.12629E-02
 -1      4096 5.59799E-02
 -1      4097 5.12629E-02
 -1      4098 6.37205E-02
 -1      4099 7.14612E-02
 -1      4100 6.37205E-02
 -1      4101 8.20006E-02
 -1      4102 9.43449E-02
 -1      4103 8.20006E-02
 -1      4104 1.08525E-01
 -1      4105 1.26019E-01
 -1      4106 1.06720E-01
 -1      4107 1.45647E-01
 -1      4108 1.68127E-01
 -1      4109 1.40527E-01
 -1      4110 1.93614E-01
 -1      4111 2.22423E-01
 -1      4112 1.85642E-01
 -1      4113 2.55625E-01
 -1      4114 2.92610E-01
 -1      4115 2.44331E-01
 -1      4116 3.36389E-01
 -1      4117 3.84244E-01
 -1      4118 3.21312E-01
 -1      4119 4.43257E-01
 -1      4120 5.06166E-01
 -1      4121 4.24105E-01
 -1      4122 5.88287E-01
 -1      4123 6.73099E-01
 -1      4124 5.65239E-01
 -1      4125 7.91745E-01
 -1      4126 9.09735E-01
 -1      4127 7.66005E-01
 -1      4128 1.08472E+00
 -1      4129 1.25128E+00
 -1      4130 1.05964E+00
 -1      4131 1.56399E+00
 -1      4132 1.80090E+00
 -1      4133 1.54733E+00
 -1      4134 1.59042E-01
 -1      4135 1.36189E-01
 -1      4136 1.19648E-01
 -1      4137 1.01763E-01
 -1      4138 1.24613E-01
 -1      4139 6.56463E-02
 -1      4140 5.68619E-02
 -1      4141 2.09299E-01
 -1      4142 1.80213E-01
 -1      4143 1.62326E-01
 -1      4144 2.73150E-01
 -1      4145 2.36138E-01
 -1      4146 2.10336E-01
 -1      4147 3.54820E-01
 -1      4148 3.07431E-01
 -1      4149 2.71457E-01
 -1      4150 4.60164E-01
 -1      4151 3.98542E-01
 -1      4152 3.49461E-01
 -1      4153 5.99441E-01
 -1      4154 5.17055E-01
 -1      4155 4.50075E-01
 -1      4156 7.91093E-01
 -1      4157 6.76252E-01
 -1      4158 5.83777E-01
 -1      4159 1.06970E+00
 -1      4160 9.03125E-01
 -1      4161 7.72619E-01
 -1      4162 1.59780E+00
 -1      4163 1.35009E+00
 -1      4164 1.16504E+00
 -1      4165 2.82236E+00
 -1      4166 2.07171E+00
 -1      4167 1.91934E+00
 -1      4168 3.24222E+00
 -1      4169 9.27171E-02
 -1      4170 1.03844E-01
 -1      4171 1.10943E-01
 -1      4172 3.89670E-02
 -1      4173 3.85997E-02
 -1      4174 7.75499E-02
 -1      4175 8.35765E-02
 -1      4176 6.96982E-02
 -1      4177 4.77029E-02
 -1      4178 4.95026E-02
 -1      4179 4.80702E-02
 -1      4180 8.90629E-02
 -1      4181 7.51411E-02
 -1      4182 7.31763E-02
 -1      4183 9.53715E-02
 -1      4184 2.38474E+00
 -1      4185 2.68774E+00
 -1      4186 2.58394E+00
 -1      4187 1.89948E+00
 -1      4188 1.17044E-01
 -1      4189 1.34615E-01
 -1      4190 1.36241E-01
 -1      4191 4.26629E-02
 -1      4192 4.08150E-02
 -1      4193 4.08150E-02
 -1      4194 8.94849E-02
 -1      4195 8.67872E-02
 -1      4196 7.49037E-02
 -1      4197 5.00423E-02
 -1      4198 4.63526E-02
 -1      4199 5.68619E-02
 -1      4200 7.37619E-02
 -1      4201 1.15758E-01
 -1      4202 1.23573E-01
 -1      4203 1.22153E-01
 -1      4204 1.17338E-01
 -1      4205 1.05849E-01
 -1      4206 1.03417E-01
 -1      4207 1.95862E+00
 -1      4208 4.63526E-02
 -1      4209 6.06830E-02
 -1      4210 7.16351E-02
 -1      4211 7.66221E-02
 -1      4212 8.04216E-02
 -1      4213 1.00228E-01
 -1      4214 8.41326E-02
 -1      4215 2.75196E+00
 -1      4216 1.01957E-01
 -1      4217 1.01712E-01
 -1      4218 8.80852E-02
 -1      4219 5.60632E-02
 -1      4220 4.83925E-02
 -1      4221 5.66910E-02
 -1      4222 8.61496E-02
 -1      4223 8.61496E-02
 -1      4224 1.26235E-01
 -1      4225 1.20938E-01
 -1      4226 9.19874E-02
 -1      4227 1.06793E-01
 -1      4228 8.56876E-02
 -1      4229 9.08718E-02
 -1      4230 6.50036E-02
 -1      4231 9.88818E-02
 -1      4232 9.70326E-02
 -1      4233 7.68504E-02
 -1      4234 8.41326E-02
 -1      4235 8.03330E-02
 -1      4236 6.78671E-02
 -1      4237 5.27187E-02
 -1      4238 5.71734E-02
 -1      4239 5.71734E-02
 -1      4240 4.91974E-02
 -1      4241 4.00942E-02
 -1      4242 4.02974E-02
 -1      4243 4.21454E-02
 -1      4244 4.46044E-02
 -1      4245 4.82941E-02
 -1      4246 5.30111E-02
 -1      4247 5.98306E-02
 -1      4248 6.75713E-02
 -1      4249 7.70662E-02
 -1      4250 8.76056E-02
 -1      4251 1.00306E-01
 -1      4252 1.14486E-01
 -1      4253 1.31027E-01
 -1      4254 1.50655E-01
 -1      4255 1.71826E-01
 -1      4256 1.97313E-01
 -1      4257 2.24152E-01
 -1      4258 2.57354E-01
 -1      4259 2.91636E-01
 -1      4260 3.35415E-01
 -1      4261 3.79138E-01
 -1      4262 4.38151E-01
 -1      4263 4.95042E-01
 -1      4264 5.77163E-01
 -1      4265 6.53973E-01
 -1      4266 7.72619E-01
 -1      4267 8.84651E-01
 -1      4268 1.05964E+00
 -1      4269 1.34003E+00
 -1      4270 1.65273E+00
 -1      4271 6.06830E-02
 -1      4272 6.93809E-02
 -1      4273 5.69150E-02
 -1      4274 5.84288E-02
 -1      4275 2.12664E+00
 -1      4276 7.17969E-02
 -1      4277 5.94472E-02
 -1      4278 6.22036E-02
 -1      4279 6.67016E-02
 -1      4280 7.84568E-02
 -1      4281 7.08527E-02
 -1      4282 7.15601E-02
 -1      4283 9.48308E-02
 -1      4284 6.33581E-02
 -1      4285 6.88158E-02
 -1      4286 9.22178E-02
 -1      4287 8.91458E-02
 -1      4288 1.17338E-01
 -1      4289 1.12523E-01
 -1      4290 1.17338E-01
 -1      4291 5.33464E-02
 -1      4292 5.78011E-02
 -1      4293 2.22523E+00
 -1      4294 8.41326E-02
 -1      4295 8.32564E-02
 -1      4296 8.28560E-02
 -1      4297 1.00228E-01
 -1      4298 9.47035E-02
 -1      4299 8.46976E-02
 -1      4300 7.11670E-02
 -1      4301 7.96164E-02
 -1      4302 7.85275E-02
 -1      4303 7.70669E-02
 -1      4304 1.22153E-01
 -1      4305 1.22153E-01
 -1      4306 5.69878E-02
 -1      4307 1.05849E-01
 -1      4308 5.71734E-02
 -1      4309 6.27408E-02
 -1      4310 5.97442E-02
 -1      4311 6.64448E-02
 -1      4312 6.59076E-02
 -1      4313 7.29158E-02
 -1      4314 5.66910E-02
 -1      4315 1.00228E-01
 -1      4316 5.60632E-02
 -1      4317 8.79321E-02
 -3
 9999
