    1C
    1UUSER                                                              
    1UDATE              27.october.2022                                 
    1UTIME              00:40:41                                        
    1UHOST                                                              
    1UPGM               CalculiX                                        
    1UVERSION           Version 2.17                             
    1UCOMPILETIME       Thu Jul 23 21:43:50 CEST 2020                    
    1UDIR                                                               
    1UDBN                                                               
    1UMAT    1SOLIDMATERIAL                                             
    2C                          4244                                     1
 -1         1 1.23856E+02 3.82320E+01 0.00000E+00
 -1         2 1.33084E+02 3.15958E+01 0.00000E+00
 -1         3 1.50000E+02 0.00000E+00 0.00000E+00
 -1         4 1.50000E+02 5.00000E+01 0.00000E+00
 -1         5 0.00000E+00 0.00000E+00 0.00000E+00
 -1         6 0.00000E+00 5.00000E+01 0.00000E+00
 -1         7 0.00000E+00 4.70500E+01 0.00000E+00
 -1         8 0.00000E+00 4.41000E+01 0.00000E+00
 -1         9 0.00000E+00 4.11500E+01 0.00000E+00
 -1        10 0.00000E+00 3.82000E+01 0.00000E+00
 -1        11 0.00000E+00 3.52500E+01 0.00000E+00
 -1        12 0.00000E+00 3.23500E+01 0.00000E+00
 -1        13 0.00000E+00 2.94000E+01 0.00000E+00
 -1        14 0.00000E+00 2.64500E+01 0.00000E+00
 -1        15 0.00000E+00 2.35000E+01 0.00000E+00
 -1        16 0.00000E+00 2.05500E+01 0.00000E+00
 -1        17 0.00000E+00 1.76000E+01 0.00000E+00
 -1        18 0.00000E+00 1.47000E+01 0.00000E+00
 -1        19 0.00000E+00 1.17500E+01 0.00000E+00
 -1        20 0.00000E+00 8.80000E+00 0.00000E+00
 -1        21 0.00000E+00 5.85000E+00 0.00000E+00
 -1        22 0.00000E+00 2.90000E+00 0.00000E+00
 -1        23 3.15000E+00 5.00000E+01 0.00000E+00
 -1        24 6.15000E+00 5.00000E+01 0.00000E+00
 -1        25 9.15000E+00 5.00000E+01 0.00000E+00
 -1        26 1.21500E+01 5.00000E+01 0.00000E+00
 -1        27 1.51500E+01 5.00000E+01 0.00000E+00
 -1        28 1.81500E+01 5.00000E+01 0.00000E+00
 -1        29 2.11500E+01 5.00000E+01 0.00000E+00
 -1        30 2.41500E+01 5.00000E+01 0.00000E+00
 -1        31 2.71500E+01 5.00000E+01 0.00000E+00
 -1        32 3.01500E+01 5.00000E+01 0.00000E+00
 -1        33 3.31500E+01 5.00000E+01 0.00000E+00
 -1        34 3.61500E+01 5.00000E+01 0.00000E+00
 -1        35 3.91500E+01 5.00000E+01 0.00000E+00
 -1        36 4.21500E+01 5.00000E+01 0.00000E+00
 -1        37 4.51500E+01 5.00000E+01 0.00000E+00
 -1        38 4.81500E+01 5.00000E+01 0.00000E+00
 -1        39 5.11500E+01 5.00000E+01 0.00000E+00
 -1        40 5.41500E+01 5.00000E+01 0.00000E+00
 -1        41 5.71500E+01 5.00000E+01 0.00000E+00
 -1        42 6.01500E+01 5.00000E+01 0.00000E+00
 -1        43 6.31500E+01 5.00000E+01 0.00000E+00
 -1        44 6.61500E+01 5.00000E+01 0.00000E+00
 -1        45 6.91500E+01 5.00000E+01 0.00000E+00
 -1        46 7.21500E+01 5.00000E+01 0.00000E+00
 -1        47 7.51500E+01 5.00000E+01 0.00000E+00
 -1        48 7.81500E+01 5.00000E+01 0.00000E+00
 -1        49 8.11500E+01 5.00000E+01 0.00000E+00
 -1        50 8.41500E+01 5.00000E+01 0.00000E+00
 -1        51 8.71500E+01 5.00000E+01 0.00000E+00
 -1        52 9.01500E+01 5.00000E+01 0.00000E+00
 -1        53 9.31500E+01 5.00000E+01 0.00000E+00
 -1        54 9.61500E+01 5.00000E+01 0.00000E+00
 -1        55 9.91500E+01 5.00000E+01 0.00000E+00
 -1        56 1.02150E+02 5.00000E+01 0.00000E+00
 -1        57 1.05150E+02 5.00000E+01 0.00000E+00
 -1        58 1.08150E+02 5.00000E+01 0.00000E+00
 -1        59 1.11150E+02 5.00000E+01 0.00000E+00
 -1        60 1.14150E+02 5.00000E+01 0.00000E+00
 -1        61 1.17150E+02 5.00000E+01 0.00000E+00
 -1        62 1.20150E+02 5.00000E+01 0.00000E+00
 -1        63 1.23150E+02 5.00000E+01 0.00000E+00
 -1        64 1.26150E+02 5.00000E+01 0.00000E+00
 -1        65 1.29000E+02 5.00000E+01 0.00000E+00
 -1        66 1.32000E+02 5.00000E+01 0.00000E+00
 -1        67 1.35000E+02 5.00000E+01 0.00000E+00
 -1        68 1.38000E+02 5.00000E+01 0.00000E+00
 -1        69 1.41000E+02 5.00000E+01 0.00000E+00
 -1        70 1.44000E+02 5.00000E+01 0.00000E+00
 -1        71 1.47000E+02 5.00000E+01 0.00000E+00
 -1        72 3.15000E+00 0.00000E+00 0.00000E+00
 -1        73 6.15000E+00 0.00000E+00 0.00000E+00
 -1        74 9.15000E+00 0.00000E+00 0.00000E+00
 -1        75 1.21500E+01 0.00000E+00 0.00000E+00
 -1        76 1.51500E+01 0.00000E+00 0.00000E+00
 -1        77 1.81500E+01 0.00000E+00 0.00000E+00
 -1        78 2.11500E+01 0.00000E+00 0.00000E+00
 -1        79 2.41500E+01 0.00000E+00 0.00000E+00
 -1        80 2.71500E+01 0.00000E+00 0.00000E+00
 -1        81 3.01500E+01 0.00000E+00 0.00000E+00
 -1        82 3.31500E+01 0.00000E+00 0.00000E+00
 -1        83 3.61500E+01 0.00000E+00 0.00000E+00
 -1        84 3.91500E+01 0.00000E+00 0.00000E+00
 -1        85 4.21500E+01 0.00000E+00 0.00000E+00
 -1        86 4.51500E+01 0.00000E+00 0.00000E+00
 -1        87 4.81500E+01 0.00000E+00 0.00000E+00
 -1        88 5.11500E+01 0.00000E+00 0.00000E+00
 -1        89 5.41500E+01 0.00000E+00 0.00000E+00
 -1        90 5.71500E+01 0.00000E+00 0.00000E+00
 -1        91 6.01500E+01 0.00000E+00 0.00000E+00
 -1        92 6.31500E+01 0.00000E+00 0.00000E+00
 -1        93 6.61500E+01 0.00000E+00 0.00000E+00
 -1        94 6.91500E+01 0.00000E+00 0.00000E+00
 -1        95 7.21500E+01 0.00000E+00 0.00000E+00
 -1        96 7.51500E+01 0.00000E+00 0.00000E+00
 -1        97 7.81500E+01 0.00000E+00 0.00000E+00
 -1        98 8.11500E+01 0.00000E+00 0.00000E+00
 -1        99 8.41500E+01 0.00000E+00 0.00000E+00
 -1       100 8.71500E+01 0.00000E+00 0.00000E+00
 -1       101 9.01500E+01 0.00000E+00 0.00000E+00
 -1       102 9.31500E+01 0.00000E+00 0.00000E+00
 -1       103 9.61500E+01 0.00000E+00 0.00000E+00
 -1       104 9.91500E+01 0.00000E+00 0.00000E+00
 -1       105 1.02150E+02 0.00000E+00 0.00000E+00
 -1       106 1.05150E+02 0.00000E+00 0.00000E+00
 -1       107 1.08150E+02 0.00000E+00 0.00000E+00
 -1       108 1.11150E+02 0.00000E+00 0.00000E+00
 -1       109 1.14150E+02 0.00000E+00 0.00000E+00
 -1       110 1.17150E+02 0.00000E+00 0.00000E+00
 -1       111 1.20150E+02 0.00000E+00 0.00000E+00
 -1       112 1.23150E+02 0.00000E+00 0.00000E+00
 -1       113 1.26150E+02 0.00000E+00 0.00000E+00
 -1       114 1.29150E+02 0.00000E+00 0.00000E+00
 -1       115 1.32150E+02 0.00000E+00 0.00000E+00
 -1       116 1.35150E+02 0.00000E+00 0.00000E+00
 -1       117 1.38150E+02 0.00000E+00 0.00000E+00
 -1       118 1.41150E+02 0.00000E+00 0.00000E+00
 -1       119 1.44150E+02 0.00000E+00 0.00000E+00
 -1       120 1.47150E+02 0.00000E+00 0.00000E+00
 -1       121 1.50000E+02 2.95000E+00 0.00000E+00
 -1       122 1.50000E+02 5.90000E+00 0.00000E+00
 -1       123 1.50000E+02 8.85000E+00 0.00000E+00
 -1       124 1.50000E+02 1.18000E+01 0.00000E+00
 -1       125 1.50000E+02 1.47500E+01 0.00000E+00
 -1       126 1.50000E+02 1.77000E+01 0.00000E+00
 -1       127 1.50000E+02 2.06500E+01 0.00000E+00
 -1       128 1.50000E+02 2.35500E+01 0.00000E+00
 -1       129 1.50000E+02 2.65000E+01 0.00000E+00
 -1       130 1.50000E+02 2.94500E+01 0.00000E+00
 -1       131 1.50000E+02 3.23500E+01 0.00000E+00
 -1       132 1.50000E+02 3.53000E+01 0.00000E+00
 -1       133 1.50000E+02 3.82500E+01 0.00000E+00
 -1       134 1.50000E+02 4.12000E+01 0.00000E+00
 -1       135 1.50000E+02 4.41500E+01 0.00000E+00
 -1       136 1.50000E+02 4.71000E+01 0.00000E+00
 -1       137 1.32934E+02 3.01552E+01 0.00000E+00
 -1       138 1.32467E+02 2.87223E+01 0.00000E+00
 -1       139 1.31750E+02 2.74859E+01 0.00000E+00
 -1       140 1.30802E+02 2.64252E+01 0.00000E+00
 -1       141 1.29540E+02 2.55088E+01 0.00000E+00
 -1       142 1.28264E+02 2.49439E+01 0.00000E+00
 -1       143 1.26863E+02 2.46392E+01 0.00000E+00
 -1       144 1.25285E+02 2.46415E+01 0.00000E+00
 -1       145 1.23885E+02 2.49499E+01 0.00000E+00
 -1       146 1.22553E+02 2.55515E+01 0.00000E+00
 -1       147 1.21446E+02 2.63525E+01 0.00000E+00
 -1       148 1.20460E+02 2.74277E+01 0.00000E+00
 -1       149 1.19717E+02 2.86856E+01 0.00000E+00
 -1       150 1.19259E+02 3.00381E+01 0.00000E+00
 -1       151 1.19085E+02 3.14774E+01 0.00000E+00
 -1       152 1.19215E+02 3.29458E+01 0.00000E+00
 -1       153 1.19662E+02 3.43822E+01 0.00000E+00
 -1       154 1.20376E+02 3.56484E+01 0.00000E+00
 -1       155 1.21310E+02 3.67157E+01 0.00000E+00
 -1       156 1.22528E+02 3.76256E+01 0.00000E+00
 -1       157 1.25285E+02 3.85500E+01 0.00000E+00
 -1       158 1.26858E+02 3.85528E+01 0.00000E+00
 -1       159 1.28246E+02 3.82535E+01 0.00000E+00
 -1       160 1.29593E+02 3.76528E+01 0.00000E+00
 -1       161 1.30740E+02 3.68223E+01 0.00000E+00
 -1       162 1.31759E+02 3.56929E+01 0.00000E+00
 -1       163 1.32470E+02 3.44613E+01 0.00000E+00
 -1       164 1.32920E+02 3.31003E+01 0.00000E+00
 -1       165 2.59800E+00 4.55750E+01 0.00000E+00
 -1       166 2.59800E+00 4.26250E+01 0.00000E+00
 -1       167 2.59800E+00 3.96750E+01 0.00000E+00
 -1       168 2.59800E+00 3.67250E+01 0.00000E+00
 -1       169 2.59800E+00 3.38250E+01 0.00000E+00
 -1       170 2.59800E+00 3.08750E+01 0.00000E+00
 -1       171 2.59800E+00 2.79250E+01 0.00000E+00
 -1       172 2.59800E+00 2.49750E+01 0.00000E+00
 -1       173 2.59800E+00 2.20250E+01 0.00000E+00
 -1       174 2.59800E+00 1.90750E+01 0.00000E+00
 -1       175 2.59800E+00 1.61750E+01 0.00000E+00
 -1       176 2.59800E+00 1.32250E+01 0.00000E+00
 -1       177 2.59800E+00 1.02750E+01 0.00000E+00
 -1       178 2.59800E+00 7.32500E+00 0.00000E+00
 -1       179 2.59800E+00 4.37500E+00 0.00000E+00
 -1       180 2.87400E+00 2.18750E+00 0.00000E+00
 -1       181 4.65000E+00 4.74020E+01 0.00000E+00
 -1       182 7.65000E+00 4.74020E+01 0.00000E+00
 -1       183 1.06500E+01 4.74020E+01 0.00000E+00
 -1       184 1.36500E+01 4.74020E+01 0.00000E+00
 -1       185 1.66500E+01 4.74020E+01 0.00000E+00
 -1       186 1.96500E+01 4.74020E+01 0.00000E+00
 -1       187 2.26500E+01 4.74020E+01 0.00000E+00
 -1       188 2.56500E+01 4.74020E+01 0.00000E+00
 -1       189 2.86500E+01 4.74020E+01 0.00000E+00
 -1       190 3.16500E+01 4.74020E+01 0.00000E+00
 -1       191 3.46500E+01 4.74020E+01 0.00000E+00
 -1       192 3.76500E+01 4.74020E+01 0.00000E+00
 -1       193 4.06500E+01 4.74020E+01 0.00000E+00
 -1       194 4.36500E+01 4.74020E+01 0.00000E+00
 -1       195 4.66500E+01 4.74020E+01 0.00000E+00
 -1       196 4.96500E+01 4.74020E+01 0.00000E+00
 -1       197 5.26500E+01 4.74020E+01 0.00000E+00
 -1       198 5.56500E+01 4.74020E+01 0.00000E+00
 -1       199 5.86500E+01 4.74020E+01 0.00000E+00
 -1       200 6.16500E+01 4.74020E+01 0.00000E+00
 -1       201 6.46500E+01 4.74020E+01 0.00000E+00
 -1       202 6.76500E+01 4.74020E+01 0.00000E+00
 -1       203 7.06500E+01 4.74020E+01 0.00000E+00
 -1       204 7.36500E+01 4.74020E+01 0.00000E+00
 -1       205 7.66500E+01 4.74020E+01 0.00000E+00
 -1       206 7.96500E+01 4.74020E+01 0.00000E+00
 -1       207 8.26500E+01 4.74020E+01 0.00000E+00
 -1       208 8.56500E+01 4.74020E+01 0.00000E+00
 -1       209 8.86500E+01 4.74020E+01 0.00000E+00
 -1       210 9.16500E+01 4.74020E+01 0.00000E+00
 -1       211 9.46500E+01 4.74020E+01 0.00000E+00
 -1       212 9.76500E+01 4.74020E+01 0.00000E+00
 -1       213 1.00650E+02 4.74020E+01 0.00000E+00
 -1       214 1.03650E+02 4.74020E+01 0.00000E+00
 -1       215 1.06650E+02 4.74020E+01 0.00000E+00
 -1       216 1.09650E+02 4.74020E+01 0.00000E+00
 -1       217 1.12650E+02 4.74020E+01 0.00000E+00
 -1       218 1.15650E+02 4.74020E+01 0.00000E+00
 -1       219 1.18650E+02 4.74020E+01 0.00000E+00
 -1       220 1.21650E+02 4.74020E+01 0.00000E+00
 -1       221 1.24650E+02 4.74020E+01 0.00000E+00
 -1       222 1.27500E+02 4.74020E+01 0.00000E+00
 -1       223 1.30500E+02 4.74020E+01 0.00000E+00
 -1       224 1.33500E+02 4.74020E+01 0.00000E+00
 -1       225 1.36500E+02 4.74020E+01 0.00000E+00
 -1       226 1.39500E+02 4.74020E+01 0.00000E+00
 -1       227 1.42500E+02 4.74020E+01 0.00000E+00
 -1       228 1.45500E+02 4.74020E+01 0.00000E+00
 -1       229 1.47750E+02 4.72510E+01 0.00000E+00
 -1       230 5.87400E+00 2.18750E+00 0.00000E+00
 -1       231 8.87400E+00 2.18750E+00 0.00000E+00
 -1       232 1.18740E+01 2.18750E+00 0.00000E+00
 -1       233 1.48740E+01 2.18750E+00 0.00000E+00
 -1       234 1.78740E+01 2.18750E+00 0.00000E+00
 -1       235 2.08740E+01 2.18750E+00 0.00000E+00
 -1       236 2.38740E+01 2.18750E+00 0.00000E+00
 -1       237 2.68740E+01 2.18750E+00 0.00000E+00
 -1       238 2.98740E+01 2.18750E+00 0.00000E+00
 -1       239 3.28740E+01 2.18750E+00 0.00000E+00
 -1       240 3.58740E+01 2.18750E+00 0.00000E+00
 -1       241 3.88740E+01 2.18750E+00 0.00000E+00
 -1       242 4.18740E+01 2.18750E+00 0.00000E+00
 -1       243 4.48740E+01 2.18750E+00 0.00000E+00
 -1       244 4.78740E+01 2.18750E+00 0.00000E+00
 -1       245 5.08740E+01 2.18750E+00 0.00000E+00
 -1       246 5.38740E+01 2.18750E+00 0.00000E+00
 -1       247 5.68740E+01 2.18750E+00 0.00000E+00
 -1       248 5.98740E+01 2.18750E+00 0.00000E+00
 -1       249 6.28740E+01 2.18750E+00 0.00000E+00
 -1       250 6.58740E+01 2.18750E+00 0.00000E+00
 -1       251 6.88740E+01 2.18750E+00 0.00000E+00
 -1       252 7.18740E+01 2.18750E+00 0.00000E+00
 -1       253 7.48740E+01 2.18750E+00 0.00000E+00
 -1       254 7.78740E+01 2.18750E+00 0.00000E+00
 -1       255 8.08740E+01 2.18750E+00 0.00000E+00
 -1       256 8.38740E+01 2.18750E+00 0.00000E+00
 -1       257 8.68740E+01 2.18750E+00 0.00000E+00
 -1       258 8.98740E+01 2.18750E+00 0.00000E+00
 -1       259 9.28740E+01 2.18750E+00 0.00000E+00
 -1       260 9.58740E+01 2.18750E+00 0.00000E+00
 -1       261 9.88740E+01 2.18750E+00 0.00000E+00
 -1       262 1.01874E+02 2.18750E+00 0.00000E+00
 -1       263 1.04874E+02 2.18750E+00 0.00000E+00
 -1       264 1.07874E+02 2.18750E+00 0.00000E+00
 -1       265 1.10874E+02 2.18750E+00 0.00000E+00
 -1       266 1.13874E+02 2.18750E+00 0.00000E+00
 -1       267 1.16874E+02 2.18750E+00 0.00000E+00
 -1       268 1.19874E+02 2.18750E+00 0.00000E+00
 -1       269 1.22874E+02 2.18750E+00 0.00000E+00
 -1       270 1.25874E+02 2.18750E+00 0.00000E+00
 -1       271 1.28874E+02 2.18750E+00 0.00000E+00
 -1       272 1.31874E+02 2.18750E+00 0.00000E+00
 -1       273 1.34874E+02 2.18750E+00 0.00000E+00
 -1       274 1.37874E+02 2.18750E+00 0.00000E+00
 -1       275 1.40874E+02 2.18750E+00 0.00000E+00
 -1       276 1.43874E+02 2.18750E+00 0.00000E+00
 -1       277 1.46874E+02 2.18750E+00 0.00000E+00
 -1       278 1.47402E+02 4.42500E+00 0.00000E+00
 -1       279 1.47402E+02 7.37500E+00 0.00000E+00
 -1       280 1.47402E+02 1.03250E+01 0.00000E+00
 -1       281 1.47402E+02 1.32750E+01 0.00000E+00
 -1       282 1.47402E+02 1.62250E+01 0.00000E+00
 -1       283 1.47402E+02 1.91750E+01 0.00000E+00
 -1       284 1.47402E+02 2.20750E+01 0.00000E+00
 -1       285 1.47402E+02 2.50250E+01 0.00000E+00
 -1       286 1.47402E+02 2.79750E+01 0.00000E+00
 -1       287 1.47402E+02 3.08750E+01 0.00000E+00
 -1       288 1.47402E+02 3.38250E+01 0.00000E+00
 -1       289 1.47402E+02 3.67750E+01 0.00000E+00
 -1       290 1.47402E+02 3.97250E+01 0.00000E+00
 -1       291 1.47402E+02 4.26750E+01 0.00000E+00
 -1       292 1.47576E+02 4.49630E+01 0.00000E+00
 -1       293 1.34215E+02 3.07501E+01 0.00000E+00
 -1       294 1.34092E+02 2.89851E+01 0.00000E+00
 -1       295 1.33157E+02 2.74962E+01 0.00000E+00
 -1       296 1.32180E+02 2.61477E+01 0.00000E+00
 -1       297 1.31081E+02 2.47148E+01 0.00000E+00
 -1       298 1.29393E+02 2.41176E+01 0.00000E+00
 -1       299 1.27839E+02 2.35250E+01 0.00000E+00
 -1       300 1.26072E+02 2.32604E+01 0.00000E+00
 -1       301 1.24324E+02 2.36117E+01 0.00000E+00
 -1       302 1.22651E+02 2.39930E+01 0.00000E+00
 -1       303 1.21240E+02 2.49019E+01 0.00000E+00
 -1       304 1.19998E+02 2.60140E+01 0.00000E+00
 -1       305 1.19045E+02 2.74403E+01 0.00000E+00
 -1       306 1.18261E+02 2.89460E+01 0.00000E+00
 -1       307 1.17968E+02 3.06118E+01 0.00000E+00
 -1       308 1.17859E+02 3.23263E+01 0.00000E+00
 -1       309 1.18201E+02 3.40492E+01 0.00000E+00
 -1       310 1.18890E+02 3.56520E+01 0.00000E+00
 -1       311 1.19931E+02 3.69805E+01 0.00000E+00
 -1       312 1.21043E+02 3.83433E+01 0.00000E+00
 -1       313 1.22654E+02 3.91079E+01 0.00000E+00
 -1       314 1.24307E+02 3.95744E+01 0.00000E+00
 -1       315 1.26069E+02 3.99314E+01 0.00000E+00
 -1       316 1.27808E+02 3.95883E+01 0.00000E+00
 -1       317 1.29447E+02 3.91369E+01 0.00000E+00
 -1       318 1.30877E+02 3.82197E+01 0.00000E+00
 -1       319 1.32212E+02 3.71259E+01 0.00000E+00
 -1       320 1.33165E+02 3.56832E+01 0.00000E+00
 -1       321 1.33926E+02 3.41875E+01 0.00000E+00
 -1       322 1.34290E+02 3.24882E+01 0.00000E+00
 -1       323 5.19600E+00 4.11500E+01 0.00000E+00
 -1       324 5.19600E+00 4.41000E+01 0.00000E+00
 -1       325 5.19600E+00 3.52750E+01 0.00000E+00
 -1       326 5.19600E+00 3.23250E+01 0.00000E+00
 -1       327 5.19600E+00 2.93750E+01 0.00000E+00
 -1       328 5.19600E+00 2.64250E+01 0.00000E+00
 -1       329 5.19600E+00 2.34750E+01 0.00000E+00
 -1       330 5.19600E+00 2.05250E+01 0.00000E+00
 -1       331 5.19600E+00 1.76250E+01 0.00000E+00
 -1       332 5.19600E+00 1.46750E+01 0.00000E+00
 -1       333 5.19600E+00 1.17250E+01 0.00000E+00
 -1       334 5.19600E+00 8.77500E+00 0.00000E+00
 -1       335 5.19600E+00 5.82500E+00 0.00000E+00
 -1       336 5.53500E+00 4.00625E+00 0.00000E+00
 -1       337 8.53500E+00 4.00625E+00 0.00000E+00
 -1       338 9.15000E+00 4.48040E+01 0.00000E+00
 -1       339 1.21500E+01 4.48040E+01 0.00000E+00
 -1       340 1.51500E+01 4.48040E+01 0.00000E+00
 -1       341 1.81500E+01 4.48040E+01 0.00000E+00
 -1       342 2.11500E+01 4.48040E+01 0.00000E+00
 -1       343 2.41500E+01 4.48040E+01 0.00000E+00
 -1       344 2.71500E+01 4.48040E+01 0.00000E+00
 -1       345 3.01500E+01 4.48040E+01 0.00000E+00
 -1       346 3.31500E+01 4.48040E+01 0.00000E+00
 -1       347 3.61500E+01 4.48040E+01 0.00000E+00
 -1       348 3.91500E+01 4.48040E+01 0.00000E+00
 -1       349 4.21500E+01 4.48040E+01 0.00000E+00
 -1       350 4.51500E+01 4.48040E+01 0.00000E+00
 -1       351 4.81500E+01 4.48040E+01 0.00000E+00
 -1       352 5.11500E+01 4.48040E+01 0.00000E+00
 -1       353 5.41500E+01 4.48040E+01 0.00000E+00
 -1       354 5.71500E+01 4.48040E+01 0.00000E+00
 -1       355 6.01500E+01 4.48040E+01 0.00000E+00
 -1       356 6.31500E+01 4.48040E+01 0.00000E+00
 -1       357 6.61500E+01 4.48040E+01 0.00000E+00
 -1       358 6.91500E+01 4.48040E+01 0.00000E+00
 -1       359 7.21500E+01 4.48040E+01 0.00000E+00
 -1       360 7.51500E+01 4.48040E+01 0.00000E+00
 -1       361 7.81500E+01 4.48040E+01 0.00000E+00
 -1       362 8.11500E+01 4.48040E+01 0.00000E+00
 -1       363 8.41500E+01 4.48040E+01 0.00000E+00
 -1       364 8.71500E+01 4.48040E+01 0.00000E+00
 -1       365 9.01500E+01 4.48040E+01 0.00000E+00
 -1       366 9.31500E+01 4.48040E+01 0.00000E+00
 -1       367 9.61500E+01 4.48040E+01 0.00000E+00
 -1       368 9.91500E+01 4.48040E+01 0.00000E+00
 -1       369 1.02150E+02 4.48040E+01 0.00000E+00
 -1       370 1.05150E+02 4.48040E+01 0.00000E+00
 -1       371 1.08150E+02 4.48040E+01 0.00000E+00
 -1       372 1.11150E+02 4.48040E+01 0.00000E+00
 -1       373 1.14150E+02 4.48040E+01 0.00000E+00
 -1       374 1.17150E+02 4.48040E+01 0.00000E+00
 -1       375 1.20150E+02 4.48040E+01 0.00000E+00
 -1       376 1.23150E+02 4.48040E+01 0.00000E+00
 -1       377 1.26000E+02 4.48040E+01 0.00000E+00
 -1       378 1.29000E+02 4.48040E+01 0.00000E+00
 -1       379 1.32000E+02 4.48040E+01 0.00000E+00
 -1       380 1.35000E+02 4.48040E+01 0.00000E+00
 -1       381 1.38000E+02 4.48040E+01 0.00000E+00
 -1       382 1.41000E+02 4.48040E+01 0.00000E+00
 -1       383 1.44000E+02 4.48040E+01 0.00000E+00
 -1       384 1.33740E+01 4.78550E+00 0.00000E+00
 -1       385 1.63740E+01 4.78550E+00 0.00000E+00
 -1       386 1.93740E+01 4.78550E+00 0.00000E+00
 -1       387 2.23740E+01 4.78550E+00 0.00000E+00
 -1       388 2.53740E+01 4.78550E+00 0.00000E+00
 -1       389 2.83740E+01 4.78550E+00 0.00000E+00
 -1       390 3.13740E+01 4.78550E+00 0.00000E+00
 -1       391 3.43740E+01 4.78550E+00 0.00000E+00
 -1       392 3.73740E+01 4.78550E+00 0.00000E+00
 -1       393 4.03740E+01 4.78550E+00 0.00000E+00
 -1       394 4.33740E+01 4.78550E+00 0.00000E+00
 -1       395 4.63740E+01 4.78550E+00 0.00000E+00
 -1       396 4.93740E+01 4.78550E+00 0.00000E+00
 -1       397 5.23740E+01 4.78550E+00 0.00000E+00
 -1       398 5.53740E+01 4.78550E+00 0.00000E+00
 -1       399 5.83740E+01 4.78550E+00 0.00000E+00
 -1       400 6.13740E+01 4.78550E+00 0.00000E+00
 -1       401 6.43740E+01 4.78550E+00 0.00000E+00
 -1       402 6.73740E+01 4.78550E+00 0.00000E+00
 -1       403 7.03740E+01 4.78550E+00 0.00000E+00
 -1       404 7.33740E+01 4.78550E+00 0.00000E+00
 -1       405 7.63740E+01 4.78550E+00 0.00000E+00
 -1       406 7.93740E+01 4.78550E+00 0.00000E+00
 -1       407 8.23740E+01 4.78550E+00 0.00000E+00
 -1       408 8.53740E+01 4.78550E+00 0.00000E+00
 -1       409 8.83740E+01 4.78550E+00 0.00000E+00
 -1       410 9.13740E+01 4.78550E+00 0.00000E+00
 -1       411 9.43740E+01 4.78550E+00 0.00000E+00
 -1       412 9.73740E+01 4.78550E+00 0.00000E+00
 -1       413 1.00374E+02 4.78550E+00 0.00000E+00
 -1       414 1.03374E+02 4.78550E+00 0.00000E+00
 -1       415 1.06374E+02 4.78550E+00 0.00000E+00
 -1       416 1.09374E+02 4.78550E+00 0.00000E+00
 -1       417 1.12374E+02 4.78550E+00 0.00000E+00
 -1       418 1.15374E+02 4.78550E+00 0.00000E+00
 -1       419 1.18374E+02 4.78550E+00 0.00000E+00
 -1       420 1.21374E+02 4.78550E+00 0.00000E+00
 -1       421 1.24374E+02 4.78550E+00 0.00000E+00
 -1       422 1.27374E+02 4.78550E+00 0.00000E+00
 -1       423 1.30374E+02 4.78550E+00 0.00000E+00
 -1       424 1.33374E+02 4.78550E+00 0.00000E+00
 -1       425 1.36374E+02 4.78550E+00 0.00000E+00
 -1       426 1.39374E+02 4.78550E+00 0.00000E+00
 -1       427 1.42374E+02 4.78550E+00 0.00000E+00
 -1       428 1.44888E+02 4.60525E+00 0.00000E+00
 -1       429 1.44804E+02 1.18000E+01 0.00000E+00
 -1       430 1.44804E+02 8.85000E+00 0.00000E+00
 -1       431 1.44804E+02 1.47500E+01 0.00000E+00
 -1       432 1.44804E+02 1.77000E+01 0.00000E+00
 -1       433 1.44804E+02 2.06000E+01 0.00000E+00
 -1       434 1.44804E+02 2.35500E+01 0.00000E+00
 -1       435 1.44804E+02 2.65000E+01 0.00000E+00
 -1       436 1.44804E+02 2.94000E+01 0.00000E+00
 -1       437 1.44804E+02 3.23500E+01 0.00000E+00
 -1       438 1.44804E+02 3.53000E+01 0.00000E+00
 -1       439 1.44804E+02 3.82500E+01 0.00000E+00
 -1       440 1.44804E+02 4.12000E+01 0.00000E+00
 -1       441 1.09545E+01 4.39587E+00 0.00000E+00
 -1       442 1.34935E+02 2.74179E+01 0.00000E+00
 -1       443 1.32858E+02 2.44891E+01 0.00000E+00
 -1       444 1.35631E+02 3.15590E+01 0.00000E+00
 -1       445 1.33897E+02 2.59535E+01 0.00000E+00
 -1       446 5.19600E+00 3.82125E+01 0.00000E+00
 -1       447 1.30865E+02 2.26413E+01 0.00000E+00
 -1       448 1.29310E+02 2.20487E+01 0.00000E+00
 -1       449 1.27160E+02 2.20280E+01 0.00000E+00
 -1       450 1.24893E+02 2.19189E+01 0.00000E+00
 -1       451 1.23220E+02 2.23001E+01 0.00000E+00
 -1       452 1.21198E+02 2.32872E+01 0.00000E+00
 -1       453 1.19698E+02 2.44300E+01 0.00000E+00
 -1       454 1.18234E+02 2.58673E+01 0.00000E+00
 -1       455 1.17503E+02 2.75945E+01 0.00000E+00
 -1       456 1.16673E+02 2.95260E+01 0.00000E+00
 -1       457 1.16563E+02 3.12404E+01 0.00000E+00
 -1       458 1.16594E+02 3.34729E+01 0.00000E+00
 -1       459 1.17278E+02 3.53956E+01 0.00000E+00
 -1       460 1.18192E+02 3.72705E+01 0.00000E+00
 -1       461 1.19305E+02 3.86334E+01 0.00000E+00
 -1       462 1.21113E+02 4.02751E+01 0.00000E+00
 -1       463 1.23106E+02 4.06693E+01 0.00000E+00
 -1       464 1.24868E+02 4.10262E+01 0.00000E+00
 -1       465 1.27205E+02 4.11137E+01 0.00000E+00
 -1       466 1.28971E+02 4.06123E+01 0.00000E+00
 -1       467 1.31088E+02 4.01220E+01 0.00000E+00
 -1       468 1.32313E+02 3.86106E+01 0.00000E+00
 -1       469 1.33840E+02 3.71650E+01 0.00000E+00
 -1       470 1.34925E+02 3.56372E+01 0.00000E+00
 -1       471 1.35539E+02 3.36449E+01 0.00000E+00
 -1       472 1.35530E+02 2.97719E+01 0.00000E+00
 -1       473 1.36373E+02 2.82047E+01 0.00000E+00
 -1       474 1.26004E+02 4.22085E+01 0.00000E+00
 -1       475 7.79400E+00 3.08500E+01 0.00000E+00
 -1       476 7.79400E+00 3.38000E+01 0.00000E+00
 -1       477 7.79400E+00 2.49500E+01 0.00000E+00
 -1       478 7.79400E+00 2.20000E+01 0.00000E+00
 -1       479 7.79400E+00 1.91000E+01 0.00000E+00
 -1       480 7.79400E+00 1.61500E+01 0.00000E+00
 -1       481 7.79400E+00 1.32000E+01 0.00000E+00
 -1       482 7.79400E+00 1.02500E+01 0.00000E+00
 -1       483 7.79400E+00 7.30000E+00 0.00000E+00
 -1       484 8.16450E+00 5.65312E+00 0.00000E+00
 -1       485 1.06500E+01 4.22060E+01 0.00000E+00
 -1       486 1.21530E+02 2.14030E+01 0.00000E+00
 -1       487 1.36500E+01 4.22060E+01 0.00000E+00
 -1       488 1.66500E+01 4.22060E+01 0.00000E+00
 -1       489 1.96500E+01 4.22060E+01 0.00000E+00
 -1       490 2.26500E+01 4.22060E+01 0.00000E+00
 -1       491 2.56500E+01 4.22060E+01 0.00000E+00
 -1       492 2.86500E+01 4.22060E+01 0.00000E+00
 -1       493 3.16500E+01 4.22060E+01 0.00000E+00
 -1       494 3.46500E+01 4.22060E+01 0.00000E+00
 -1       495 3.76500E+01 4.22060E+01 0.00000E+00
 -1       496 4.06500E+01 4.22060E+01 0.00000E+00
 -1       497 4.36500E+01 4.22060E+01 0.00000E+00
 -1       498 4.66500E+01 4.22060E+01 0.00000E+00
 -1       499 4.96500E+01 4.22060E+01 0.00000E+00
 -1       500 5.26500E+01 4.22060E+01 0.00000E+00
 -1       501 5.56500E+01 4.22060E+01 0.00000E+00
 -1       502 5.86500E+01 4.22060E+01 0.00000E+00
 -1       503 6.16500E+01 4.22060E+01 0.00000E+00
 -1       504 6.46500E+01 4.22060E+01 0.00000E+00
 -1       505 6.76500E+01 4.22060E+01 0.00000E+00
 -1       506 7.06500E+01 4.22060E+01 0.00000E+00
 -1       507 7.36500E+01 4.22060E+01 0.00000E+00
 -1       508 7.66500E+01 4.22060E+01 0.00000E+00
 -1       509 7.96500E+01 4.22060E+01 0.00000E+00
 -1       510 8.26500E+01 4.22060E+01 0.00000E+00
 -1       511 8.56500E+01 4.22060E+01 0.00000E+00
 -1       512 8.86500E+01 4.22060E+01 0.00000E+00
 -1       513 9.16500E+01 4.22060E+01 0.00000E+00
 -1       514 9.46500E+01 4.22060E+01 0.00000E+00
 -1       515 9.76500E+01 4.22060E+01 0.00000E+00
 -1       516 1.00650E+02 4.22060E+01 0.00000E+00
 -1       517 1.03650E+02 4.22060E+01 0.00000E+00
 -1       518 1.06650E+02 4.22060E+01 0.00000E+00
 -1       519 1.09650E+02 4.22060E+01 0.00000E+00
 -1       520 1.12650E+02 4.22060E+01 0.00000E+00
 -1       521 1.15650E+02 4.22060E+01 0.00000E+00
 -1       522 1.18650E+02 4.22060E+01 0.00000E+00
 -1       523 1.21650E+02 4.27537E+01 0.00000E+00
 -1       524 1.24575E+02 4.29213E+01 0.00000E+00
 -1       525 1.27500E+02 4.27537E+01 0.00000E+00
 -1       526 1.30500E+02 4.25862E+01 0.00000E+00
 -1       527 1.33500E+02 4.24186E+01 0.00000E+00
 -1       528 1.36500E+02 4.24186E+01 0.00000E+00
 -1       529 1.39500E+02 4.24186E+01 0.00000E+00
 -1       530 1.42152E+02 4.18093E+01 0.00000E+00
 -1       531 2.08740E+01 7.38350E+00 0.00000E+00
 -1       532 1.78740E+01 7.38350E+00 0.00000E+00
 -1       533 1.48740E+01 7.38350E+00 0.00000E+00
 -1       534 2.38740E+01 7.38350E+00 0.00000E+00
 -1       535 2.68740E+01 7.38350E+00 0.00000E+00
 -1       536 2.98740E+01 7.38350E+00 0.00000E+00
 -1       537 3.28740E+01 7.38350E+00 0.00000E+00
 -1       538 3.58740E+01 7.38350E+00 0.00000E+00
 -1       539 3.88740E+01 7.38350E+00 0.00000E+00
 -1       540 4.18740E+01 7.38350E+00 0.00000E+00
 -1       541 4.48740E+01 7.38350E+00 0.00000E+00
 -1       542 4.78740E+01 7.38350E+00 0.00000E+00
 -1       543 5.08740E+01 7.38350E+00 0.00000E+00
 -1       544 5.38740E+01 7.38350E+00 0.00000E+00
 -1       545 5.68740E+01 7.38350E+00 0.00000E+00
 -1       546 5.98740E+01 7.38350E+00 0.00000E+00
 -1       547 6.28740E+01 7.38350E+00 0.00000E+00
 -1       548 6.58740E+01 7.38350E+00 0.00000E+00
 -1       549 6.88740E+01 7.38350E+00 0.00000E+00
 -1       550 7.18740E+01 7.38350E+00 0.00000E+00
 -1       551 7.48740E+01 7.38350E+00 0.00000E+00
 -1       552 7.78740E+01 7.38350E+00 0.00000E+00
 -1       553 8.08740E+01 7.38350E+00 0.00000E+00
 -1       554 8.38740E+01 7.38350E+00 0.00000E+00
 -1       555 8.68740E+01 7.38350E+00 0.00000E+00
 -1       556 8.98740E+01 7.38350E+00 0.00000E+00
 -1       557 9.28740E+01 7.38350E+00 0.00000E+00
 -1       558 9.58740E+01 7.38350E+00 0.00000E+00
 -1       559 9.88740E+01 7.38350E+00 0.00000E+00
 -1       560 1.01874E+02 7.38350E+00 0.00000E+00
 -1       561 1.04874E+02 7.38350E+00 0.00000E+00
 -1       562 1.07874E+02 7.38350E+00 0.00000E+00
 -1       563 1.10874E+02 7.38350E+00 0.00000E+00
 -1       564 1.13874E+02 7.38350E+00 0.00000E+00
 -1       565 1.16874E+02 7.38350E+00 0.00000E+00
 -1       566 1.19874E+02 7.38350E+00 0.00000E+00
 -1       567 1.22874E+02 7.38350E+00 0.00000E+00
 -1       568 1.25874E+02 7.38350E+00 0.00000E+00
 -1       569 1.28874E+02 7.38350E+00 0.00000E+00
 -1       570 1.31874E+02 7.38350E+00 0.00000E+00
 -1       571 1.34874E+02 7.38350E+00 0.00000E+00
 -1       572 1.37874E+02 7.38350E+00 0.00000E+00
 -1       573 1.40874E+02 7.38350E+00 0.00000E+00
 -1       574 1.42206E+02 1.62250E+01 0.00000E+00
 -1       575 1.42206E+02 1.32750E+01 0.00000E+00
 -1       576 1.42206E+02 1.03250E+01 0.00000E+00
 -1       577 1.36958E+02 3.05873E+01 0.00000E+00
 -1       578 1.42206E+02 1.91250E+01 0.00000E+00
 -1       579 1.42206E+02 2.20750E+01 0.00000E+00
 -1       580 1.42206E+02 2.50250E+01 0.00000E+00
 -1       581 1.42206E+02 2.79250E+01 0.00000E+00
 -1       582 1.42206E+02 3.08750E+01 0.00000E+00
 -1       583 1.42206E+02 3.38250E+01 0.00000E+00
 -1       584 1.42206E+02 3.67750E+01 0.00000E+00
 -1       585 1.42179E+02 3.92922E+01 0.00000E+00
 -1       586 7.92300E+00 4.16780E+01 0.00000E+00
 -1       587 1.37299E+02 3.26774E+01 0.00000E+00
 -1       588 1.36631E+02 3.50726E+01 0.00000E+00
 -1       589 1.19056E+02 4.07242E+01 0.00000E+00
 -1       590 1.16344E+02 3.70114E+01 0.00000E+00
 -1       591 1.15743E+02 2.79823E+01 0.00000E+00
 -1       592 7.79400E+00 2.79000E+01 0.00000E+00
 -1       593 1.32970E+02 2.23688E+01 0.00000E+00
 -1       594 1.26105E+02 2.03440E+01 0.00000E+00
 -1       595 1.30639E+02 2.08991E+01 0.00000E+00
 -1       596 1.19460E+02 2.25608E+01 0.00000E+00
 -1       597 1.23676E+02 2.04373E+01 0.00000E+00
 -1       598 1.15162E+02 3.50649E+01 0.00000E+00
 -1       599 1.28256E+02 2.03647E+01 0.00000E+00
 -1       600 1.17882E+02 2.40445E+01 0.00000E+00
 -1       601 1.16475E+02 2.62550E+01 0.00000E+00
 -1       602 1.14906E+02 3.02738E+01 0.00000E+00
 -1       603 1.14937E+02 3.25063E+01 0.00000E+00
 -1       604 1.17290E+02 3.91425E+01 0.00000E+00
 -1       605 1.32903E+02 4.03407E+01 0.00000E+00
 -1       606 1.34430E+02 3.88951E+01 0.00000E+00
 -1       607 1.35514E+02 3.73672E+01 0.00000E+00
 -1       608 7.79400E+00 3.67375E+01 0.00000E+00
 -1       609 1.05840E+01 6.04275E+00 0.00000E+00
 -1       610 1.34776E+02 2.42291E+01 0.00000E+00
 -1       611 1.37802E+02 2.90202E+01 0.00000E+00
 -1       612 1.27290E+01 6.71313E+00 0.00000E+00
 -1       613 1.36478E+02 2.63067E+01 0.00000E+00
 -1       614 1.16122E+02 2.44322E+01 0.00000E+00
 -1       615 1.03920E+01 2.05500E+01 0.00000E+00
 -1       616 1.03920E+01 2.35000E+01 0.00000E+00
 -1       617 1.03920E+01 1.46750E+01 0.00000E+00
 -1       618 1.03920E+01 1.17250E+01 0.00000E+00
 -1       619 1.02135E+01 7.68962E+00 0.00000E+00
 -1       620 1.37766E+02 3.70435E+01 0.00000E+00
 -1       621 1.39206E+02 1.03250E+01 0.00000E+00
 -1       622 1.36371E+02 3.91240E+01 0.00000E+00
 -1       623 1.38739E+02 3.13701E+01 0.00000E+00
 -1       624 1.21500E+01 3.96080E+01 0.00000E+00
 -1       625 1.51500E+01 3.96080E+01 0.00000E+00
 -1       626 1.81500E+01 3.96080E+01 0.00000E+00
 -1       627 2.11500E+01 3.96080E+01 0.00000E+00
 -1       628 2.41500E+01 3.96080E+01 0.00000E+00
 -1       629 2.71500E+01 3.96080E+01 0.00000E+00
 -1       630 3.01500E+01 3.96080E+01 0.00000E+00
 -1       631 3.31500E+01 3.96080E+01 0.00000E+00
 -1       632 3.61500E+01 3.96080E+01 0.00000E+00
 -1       633 3.91500E+01 3.96080E+01 0.00000E+00
 -1       634 4.21500E+01 3.96080E+01 0.00000E+00
 -1       635 4.51500E+01 3.96080E+01 0.00000E+00
 -1       636 4.81500E+01 3.96080E+01 0.00000E+00
 -1       637 5.11500E+01 3.96080E+01 0.00000E+00
 -1       638 5.41500E+01 3.96080E+01 0.00000E+00
 -1       639 5.71500E+01 3.96080E+01 0.00000E+00
 -1       640 6.01500E+01 3.96080E+01 0.00000E+00
 -1       641 6.31500E+01 3.96080E+01 0.00000E+00
 -1       642 6.61500E+01 3.96080E+01 0.00000E+00
 -1       643 6.91500E+01 3.96080E+01 0.00000E+00
 -1       644 7.21500E+01 3.96080E+01 0.00000E+00
 -1       645 7.51500E+01 3.96080E+01 0.00000E+00
 -1       646 7.81500E+01 3.96080E+01 0.00000E+00
 -1       647 8.11500E+01 3.96080E+01 0.00000E+00
 -1       648 8.41500E+01 3.96080E+01 0.00000E+00
 -1       649 8.71500E+01 3.96080E+01 0.00000E+00
 -1       650 9.01500E+01 3.96080E+01 0.00000E+00
 -1       651 9.31500E+01 3.96080E+01 0.00000E+00
 -1       652 9.61500E+01 3.96080E+01 0.00000E+00
 -1       653 9.91500E+01 3.96080E+01 0.00000E+00
 -1       654 1.02150E+02 3.96080E+01 0.00000E+00
 -1       655 1.05150E+02 3.96080E+01 0.00000E+00
 -1       656 1.08150E+02 3.96080E+01 0.00000E+00
 -1       657 1.11150E+02 3.96080E+01 0.00000E+00
 -1       658 1.14150E+02 3.96080E+01 0.00000E+00
 -1       659 1.37906E+02 2.71222E+01 0.00000E+00
 -1       660 1.38000E+02 4.02008E+01 0.00000E+00
 -1       661 1.40089E+02 3.97465E+01 0.00000E+00
 -1       662 1.93740E+01 9.98150E+00 0.00000E+00
 -1       663 2.23740E+01 9.98150E+00 0.00000E+00
 -1       664 1.63740E+01 9.98150E+00 0.00000E+00
 -1       665 2.83740E+01 9.98150E+00 0.00000E+00
 -1       666 3.13740E+01 9.98150E+00 0.00000E+00
 -1       667 3.43740E+01 9.98150E+00 0.00000E+00
 -1       668 3.73740E+01 9.98150E+00 0.00000E+00
 -1       669 4.03740E+01 9.98150E+00 0.00000E+00
 -1       670 4.33740E+01 9.98150E+00 0.00000E+00
 -1       671 4.63740E+01 9.98150E+00 0.00000E+00
 -1       672 4.93740E+01 9.98150E+00 0.00000E+00
 -1       673 5.23740E+01 9.98150E+00 0.00000E+00
 -1       674 5.53740E+01 9.98150E+00 0.00000E+00
 -1       675 5.83740E+01 9.98150E+00 0.00000E+00
 -1       676 6.13740E+01 9.98150E+00 0.00000E+00
 -1       677 6.43740E+01 9.98150E+00 0.00000E+00
 -1       678 6.73740E+01 9.98150E+00 0.00000E+00
 -1       679 7.03740E+01 9.98150E+00 0.00000E+00
 -1       680 7.33740E+01 9.98150E+00 0.00000E+00
 -1       681 7.63740E+01 9.98150E+00 0.00000E+00
 -1       682 7.93740E+01 9.98150E+00 0.00000E+00
 -1       683 8.23740E+01 9.98150E+00 0.00000E+00
 -1       684 8.53740E+01 9.98150E+00 0.00000E+00
 -1       685 8.83740E+01 9.98150E+00 0.00000E+00
 -1       686 9.13740E+01 9.98150E+00 0.00000E+00
 -1       687 9.43740E+01 9.98150E+00 0.00000E+00
 -1       688 9.73740E+01 9.98150E+00 0.00000E+00
 -1       689 1.00374E+02 9.98150E+00 0.00000E+00
 -1       690 1.03374E+02 9.98150E+00 0.00000E+00
 -1       691 1.06374E+02 9.98150E+00 0.00000E+00
 -1       692 1.09374E+02 9.98150E+00 0.00000E+00
 -1       693 1.12374E+02 9.98150E+00 0.00000E+00
 -1       694 1.15374E+02 9.98150E+00 0.00000E+00
 -1       695 1.18374E+02 9.98150E+00 0.00000E+00
 -1       696 1.21374E+02 9.98150E+00 0.00000E+00
 -1       697 1.24374E+02 9.98150E+00 0.00000E+00
 -1       698 1.27374E+02 9.98150E+00 0.00000E+00
 -1       699 1.30374E+02 9.98150E+00 0.00000E+00
 -1       700 1.33374E+02 9.98150E+00 0.00000E+00
 -1       701 1.36290E+02 1.01532E+01 0.00000E+00
 -1       702 1.21761E+02 1.90506E+01 0.00000E+00
 -1       703 1.39608E+02 2.06000E+01 0.00000E+00
 -1       704 1.39608E+02 1.77000E+01 0.00000E+00
 -1       705 1.39988E+02 2.64750E+01 0.00000E+00
 -1       706 1.40156E+02 2.94000E+01 0.00000E+00
 -1       707 1.39988E+02 3.23500E+01 0.00000E+00
 -1       708 1.39988E+02 3.53000E+01 0.00000E+00
 -1       709 1.19691E+02 2.02084E+01 0.00000E+00
 -1       710 1.35224E+02 2.19875E+01 0.00000E+00
 -1       711 1.14375E+02 2.63844E+01 0.00000E+00
 -1       712 1.27198E+02 1.84718E+01 0.00000E+00
 -1       713 1.13341E+02 3.39357E+01 0.00000E+00
 -1       714 1.17496E+02 2.20532E+01 0.00000E+00
 -1       715 1.39608E+02 2.35500E+01 0.00000E+00
 -1       716 1.39608E+02 1.47500E+01 0.00000E+00
 -1       717 1.38536E+02 3.43133E+01 0.00000E+00
 -1       718 1.32719E+02 2.01831E+01 0.00000E+00
 -1       719 1.13538E+02 2.86760E+01 0.00000E+00
 -1       720 1.24769E+02 1.85650E+01 0.00000E+00
 -1       721 1.13039E+02 3.14162E+01 0.00000E+00
 -1       722 1.13746E+02 3.67718E+01 0.00000E+00
 -1       723 1.29823E+02 1.89583E+01 0.00000E+00
 -1       724 1.03920E+01 1.76125E+01 0.00000E+00
 -1       725 1.03920E+01 3.23250E+01 0.00000E+00
 -1       726 2.53740E+01 9.98150E+00 0.00000E+00
 -1       727 1.37084E+02 2.40751E+01 0.00000E+00
 -1       728 1.03920E+01 2.64500E+01 0.00000E+00
 -1       729 1.03920E+01 3.52625E+01 0.00000E+00
 -1       730 9.78035E+00 3.93914E+01 0.00000E+00
 -1       731 1.40039E+02 3.75232E+01 0.00000E+00
 -1       732 1.33741E+01 9.98153E+00 0.00000E+00
 -1       733 1.31903E+02 1.82423E+01 0.00000E+00
 -1       734 1.15736E+02 2.24409E+01 0.00000E+00
 -1       735 1.03920E+01 2.93875E+01 0.00000E+00
 -1       736 1.29900E+01 1.32000E+01 0.00000E+00
 -1       737 1.66500E+01 3.70100E+01 0.00000E+00
 -1       738 1.96500E+01 3.70100E+01 0.00000E+00
 -1       739 2.26500E+01 3.70100E+01 0.00000E+00
 -1       740 2.56500E+01 3.70100E+01 0.00000E+00
 -1       741 2.86500E+01 3.70100E+01 0.00000E+00
 -1       742 3.16500E+01 3.70100E+01 0.00000E+00
 -1       743 3.46500E+01 3.70100E+01 0.00000E+00
 -1       744 3.76500E+01 3.70100E+01 0.00000E+00
 -1       745 4.06500E+01 3.70100E+01 0.00000E+00
 -1       746 4.36500E+01 3.70100E+01 0.00000E+00
 -1       747 4.66500E+01 3.70100E+01 0.00000E+00
 -1       748 4.96500E+01 3.70100E+01 0.00000E+00
 -1       749 5.26500E+01 3.70100E+01 0.00000E+00
 -1       750 5.56500E+01 3.70100E+01 0.00000E+00
 -1       751 5.86500E+01 3.70100E+01 0.00000E+00
 -1       752 6.16500E+01 3.70100E+01 0.00000E+00
 -1       753 6.46500E+01 3.70100E+01 0.00000E+00
 -1       754 6.76500E+01 3.70100E+01 0.00000E+00
 -1       755 7.06500E+01 3.70100E+01 0.00000E+00
 -1       756 7.36500E+01 3.70100E+01 0.00000E+00
 -1       757 7.66500E+01 3.70100E+01 0.00000E+00
 -1       758 7.96500E+01 3.70100E+01 0.00000E+00
 -1       759 8.26500E+01 3.70100E+01 0.00000E+00
 -1       760 8.56500E+01 3.70100E+01 0.00000E+00
 -1       761 8.86500E+01 3.70100E+01 0.00000E+00
 -1       762 9.16500E+01 3.70100E+01 0.00000E+00
 -1       763 9.46500E+01 3.70100E+01 0.00000E+00
 -1       764 9.76500E+01 3.70100E+01 0.00000E+00
 -1       765 1.00650E+02 3.70100E+01 0.00000E+00
 -1       766 1.03650E+02 3.70100E+01 0.00000E+00
 -1       767 1.06650E+02 3.70100E+01 0.00000E+00
 -1       768 1.09650E+02 3.70100E+01 0.00000E+00
 -1       769 1.38291E+02 2.47884E+01 0.00000E+00
 -1       770 1.37935E+02 2.14447E+01 0.00000E+00
 -1       771 2.08740E+01 1.25795E+01 0.00000E+00
 -1       772 1.78740E+01 1.25795E+01 0.00000E+00
 -1       773 3.28740E+01 1.25795E+01 0.00000E+00
 -1       774 2.98740E+01 1.25795E+01 0.00000E+00
 -1       775 3.88740E+01 1.25795E+01 0.00000E+00
 -1       776 4.18740E+01 1.25795E+01 0.00000E+00
 -1       777 4.48740E+01 1.25795E+01 0.00000E+00
 -1       778 4.78740E+01 1.25795E+01 0.00000E+00
 -1       779 5.08740E+01 1.25795E+01 0.00000E+00
 -1       780 5.38740E+01 1.25795E+01 0.00000E+00
 -1       781 5.68740E+01 1.25795E+01 0.00000E+00
 -1       782 5.98740E+01 1.25795E+01 0.00000E+00
 -1       783 6.28740E+01 1.25795E+01 0.00000E+00
 -1       784 6.58740E+01 1.25795E+01 0.00000E+00
 -1       785 6.88740E+01 1.25795E+01 0.00000E+00
 -1       786 7.18740E+01 1.25795E+01 0.00000E+00
 -1       787 7.48740E+01 1.25795E+01 0.00000E+00
 -1       788 7.78740E+01 1.25795E+01 0.00000E+00
 -1       789 8.08740E+01 1.25795E+01 0.00000E+00
 -1       790 8.38740E+01 1.25795E+01 0.00000E+00
 -1       791 8.68740E+01 1.25795E+01 0.00000E+00
 -1       792 8.98740E+01 1.25795E+01 0.00000E+00
 -1       793 9.28740E+01 1.25795E+01 0.00000E+00
 -1       794 9.58740E+01 1.25795E+01 0.00000E+00
 -1       795 9.88740E+01 1.25795E+01 0.00000E+00
 -1       796 1.01874E+02 1.25795E+01 0.00000E+00
 -1       797 1.04874E+02 1.25795E+01 0.00000E+00
 -1       798 1.07874E+02 1.25795E+01 0.00000E+00
 -1       799 1.10874E+02 1.25795E+01 0.00000E+00
 -1       800 1.13874E+02 1.25795E+01 0.00000E+00
 -1       801 1.16874E+02 1.25795E+01 0.00000E+00
 -1       802 1.19874E+02 1.25795E+01 0.00000E+00
 -1       803 1.22874E+02 1.25795E+01 0.00000E+00
 -1       804 1.25874E+02 1.25795E+01 0.00000E+00
 -1       805 1.28874E+02 1.25795E+01 0.00000E+00
 -1       806 1.31874E+02 1.25795E+01 0.00000E+00
 -1       807 1.12031E+02 2.68270E+01 0.00000E+00
 -1       808 1.36692E+02 1.45782E+01 0.00000E+00
 -1       809 1.25905E+02 1.64697E+01 0.00000E+00
 -1       810 1.17382E+02 1.96896E+01 0.00000E+00
 -1       811 1.11272E+02 2.96787E+01 0.00000E+00
 -1       812 1.35170E+02 1.94217E+01 0.00000E+00
 -1       813 3.58740E+01 1.25795E+01 0.00000E+00
 -1       814 1.36500E+01 3.70100E+01 0.00000E+00
 -1       815 1.13846E+02 2.41529E+01 0.00000E+00
 -1       816 1.22965E+02 1.69492E+01 0.00000E+00
 -1       817 1.11321E+02 3.28999E+01 0.00000E+00
 -1       818 1.29900E+01 2.20250E+01 0.00000E+00
 -1       819 1.19644E+02 1.76937E+01 0.00000E+00
 -1       820 1.28884E+02 1.66992E+01 0.00000E+00
 -1       821 1.29900E+01 1.90875E+01 0.00000E+00
 -1       822 1.29900E+01 3.37938E+01 0.00000E+00
 -1       823 2.38740E+01 1.25795E+01 0.00000E+00
 -1       824 1.34354E+02 1.74810E+01 0.00000E+00
 -1       825 2.68740E+01 1.25795E+01 0.00000E+00
 -1       826 1.34283E+02 1.35789E+01 0.00000E+00
 -1       827 1.37010E+02 1.91500E+01 0.00000E+00
 -1       828 1.15622E+02 2.00773E+01 0.00000E+00
 -1       829 1.30965E+02 1.59832E+01 0.00000E+00
 -1       830 1.48741E+01 1.25795E+01 0.00000E+00
 -1       831 1.29900E+01 3.08563E+01 0.00000E+00
 -1       832 1.11472E+02 3.50931E+01 0.00000E+00
 -1       833 1.29900E+01 2.49750E+01 0.00000E+00
 -1       834 1.29900E+01 1.61375E+01 0.00000E+00
 -1       835 1.09017E+02 3.41606E+01 0.00000E+00
 -1       836 2.11500E+01 3.44120E+01 0.00000E+00
 -1       837 2.41500E+01 3.44120E+01 0.00000E+00
 -1       838 2.71500E+01 3.44120E+01 0.00000E+00
 -1       839 3.01500E+01 3.44120E+01 0.00000E+00
 -1       840 3.31500E+01 3.44120E+01 0.00000E+00
 -1       841 3.61500E+01 3.44120E+01 0.00000E+00
 -1       842 3.91500E+01 3.44120E+01 0.00000E+00
 -1       843 4.21500E+01 3.44120E+01 0.00000E+00
 -1       844 4.51500E+01 3.44120E+01 0.00000E+00
 -1       845 4.81500E+01 3.44120E+01 0.00000E+00
 -1       846 5.11500E+01 3.44120E+01 0.00000E+00
 -1       847 5.41500E+01 3.44120E+01 0.00000E+00
 -1       848 5.71500E+01 3.44120E+01 0.00000E+00
 -1       849 6.01500E+01 3.44120E+01 0.00000E+00
 -1       850 6.31500E+01 3.44120E+01 0.00000E+00
 -1       851 6.61500E+01 3.44120E+01 0.00000E+00
 -1       852 6.91500E+01 3.44120E+01 0.00000E+00
 -1       853 7.21500E+01 3.44120E+01 0.00000E+00
 -1       854 7.51500E+01 3.44120E+01 0.00000E+00
 -1       855 7.81500E+01 3.44120E+01 0.00000E+00
 -1       856 8.11500E+01 3.44120E+01 0.00000E+00
 -1       857 8.41500E+01 3.44120E+01 0.00000E+00
 -1       858 8.71500E+01 3.44120E+01 0.00000E+00
 -1       859 9.01500E+01 3.44120E+01 0.00000E+00
 -1       860 9.31500E+01 3.44120E+01 0.00000E+00
 -1       861 9.61500E+01 3.44120E+01 0.00000E+00
 -1       862 9.91500E+01 3.44120E+01 0.00000E+00
 -1       863 1.02150E+02 3.44120E+01 0.00000E+00
 -1       864 1.05150E+02 3.44120E+01 0.00000E+00
 -1       865 1.51500E+01 3.44120E+01 0.00000E+00
 -1       866 4.33740E+01 1.51775E+01 0.00000E+00
 -1       867 4.03740E+01 1.51775E+01 0.00000E+00
 -1       868 4.93740E+01 1.51775E+01 0.00000E+00
 -1       869 5.23740E+01 1.51775E+01 0.00000E+00
 -1       870 5.53740E+01 1.51775E+01 0.00000E+00
 -1       871 5.83740E+01 1.51775E+01 0.00000E+00
 -1       872 6.13740E+01 1.51775E+01 0.00000E+00
 -1       873 6.43740E+01 1.51775E+01 0.00000E+00
 -1       874 6.73740E+01 1.51775E+01 0.00000E+00
 -1       875 7.03740E+01 1.51775E+01 0.00000E+00
 -1       876 7.33740E+01 1.51775E+01 0.00000E+00
 -1       877 7.63740E+01 1.51775E+01 0.00000E+00
 -1       878 7.93740E+01 1.51775E+01 0.00000E+00
 -1       879 8.23740E+01 1.51775E+01 0.00000E+00
 -1       880 8.53740E+01 1.51775E+01 0.00000E+00
 -1       881 8.83740E+01 1.51775E+01 0.00000E+00
 -1       882 9.13740E+01 1.51775E+01 0.00000E+00
 -1       883 9.43740E+01 1.51775E+01 0.00000E+00
 -1       884 9.73740E+01 1.51775E+01 0.00000E+00
 -1       885 1.00374E+02 1.51775E+01 0.00000E+00
 -1       886 1.03374E+02 1.51775E+01 0.00000E+00
 -1       887 1.06374E+02 1.51775E+01 0.00000E+00
 -1       888 1.09374E+02 1.51775E+01 0.00000E+00
 -1       889 1.12374E+02 1.51775E+01 0.00000E+00
 -1       890 1.15374E+02 1.51775E+01 0.00000E+00
 -1       891 1.21374E+02 1.51325E+01 0.00000E+00
 -1       892 1.08968E+02 3.09393E+01 0.00000E+00
 -1       893 4.63740E+01 1.51775E+01 0.00000E+00
 -1       894 1.48741E+01 1.55170E+01 0.00000E+00
 -1       895 3.13740E+01 1.51775E+01 0.00000E+00
 -1       896 1.16934E+02 1.69031E+01 0.00000E+00
 -1       897 1.93740E+01 1.51775E+01 0.00000E+00
 -1       898 1.29900E+01 2.79188E+01 0.00000E+00
 -1       899 1.81500E+01 3.44120E+01 0.00000E+00
 -1       900 1.09832E+02 2.77686E+01 0.00000E+00
 -1       901 1.13190E+02 2.15288E+01 0.00000E+00
 -1       902 1.11242E+02 2.43387E+01 0.00000E+00
 -1       903 1.71240E+01 1.53473E+01 0.00000E+00
 -1       904 2.23740E+01 1.51775E+01 0.00000E+00
 -1       905 1.09043E+02 2.52802E+01 0.00000E+00
 -1       906 1.55880E+01 2.05562E+01 0.00000E+00
 -1       907 2.83740E+01 1.51775E+01 0.00000E+00
 -1       908 3.73740E+01 1.51775E+01 0.00000E+00
 -1       909 1.18259E+02 1.51366E+01 0.00000E+00
 -1       910 1.55880E+01 2.35063E+01 0.00000E+00
 -1       911 3.43740E+01 1.51775E+01 0.00000E+00
 -1       912 1.51500E+01 3.14745E+01 0.00000E+00
 -1       913 1.05101E+02 3.11908E+01 0.00000E+00
 -1       914 2.56500E+01 3.18140E+01 0.00000E+00
 -1       915 2.86500E+01 3.18140E+01 0.00000E+00
 -1       916 3.16500E+01 3.18140E+01 0.00000E+00
 -1       917 3.46500E+01 3.18140E+01 0.00000E+00
 -1       918 3.76500E+01 3.18140E+01 0.00000E+00
 -1       919 4.06500E+01 3.18140E+01 0.00000E+00
 -1       920 4.36500E+01 3.18140E+01 0.00000E+00
 -1       921 4.66500E+01 3.18140E+01 0.00000E+00
 -1       922 4.96500E+01 3.18140E+01 0.00000E+00
 -1       923 5.26500E+01 3.18140E+01 0.00000E+00
 -1       924 5.56500E+01 3.18140E+01 0.00000E+00
 -1       925 5.86500E+01 3.18140E+01 0.00000E+00
 -1       926 6.16500E+01 3.18140E+01 0.00000E+00
 -1       927 6.46500E+01 3.18140E+01 0.00000E+00
 -1       928 6.76500E+01 3.18140E+01 0.00000E+00
 -1       929 7.06500E+01 3.18140E+01 0.00000E+00
 -1       930 7.36500E+01 3.18140E+01 0.00000E+00
 -1       931 7.66500E+01 3.18140E+01 0.00000E+00
 -1       932 7.96500E+01 3.18140E+01 0.00000E+00
 -1       933 8.26500E+01 3.18140E+01 0.00000E+00
 -1       934 8.56500E+01 3.18140E+01 0.00000E+00
 -1       935 8.86500E+01 3.18140E+01 0.00000E+00
 -1       936 9.16500E+01 3.18140E+01 0.00000E+00
 -1       937 9.46500E+01 3.18140E+01 0.00000E+00
 -1       938 9.76500E+01 3.18140E+01 0.00000E+00
 -1       939 1.00650E+02 3.18140E+01 0.00000E+00
 -1       940 1.50570E+01 1.72174E+01 0.00000E+00
 -1       941 2.26500E+01 3.18140E+01 0.00000E+00
 -1       942 5.38740E+01 1.77755E+01 0.00000E+00
 -1       943 5.08740E+01 1.77755E+01 0.00000E+00
 -1       944 5.98740E+01 1.77755E+01 0.00000E+00
 -1       945 6.28740E+01 1.77755E+01 0.00000E+00
 -1       946 6.58740E+01 1.77755E+01 0.00000E+00
 -1       947 6.88740E+01 1.77755E+01 0.00000E+00
 -1       948 7.18740E+01 1.77755E+01 0.00000E+00
 -1       949 7.48740E+01 1.77755E+01 0.00000E+00
 -1       950 7.78740E+01 1.77755E+01 0.00000E+00
 -1       951 8.08740E+01 1.77755E+01 0.00000E+00
 -1       952 8.38740E+01 1.77755E+01 0.00000E+00
 -1       953 8.68740E+01 1.77755E+01 0.00000E+00
 -1       954 8.98740E+01 1.77755E+01 0.00000E+00
 -1       955 9.28740E+01 1.77755E+01 0.00000E+00
 -1       956 9.58740E+01 1.77755E+01 0.00000E+00
 -1       957 9.88740E+01 1.77755E+01 0.00000E+00
 -1       958 1.01874E+02 1.77755E+01 0.00000E+00
 -1       959 1.04874E+02 1.77755E+01 0.00000E+00
 -1       960 1.07874E+02 1.77755E+01 0.00000E+00
 -1       961 1.10874E+02 1.77755E+01 0.00000E+00
 -1       962 1.13269E+02 1.88985E+01 0.00000E+00
 -1       963 1.96500E+01 3.18140E+01 0.00000E+00
 -1       964 1.15102E+02 1.79008E+01 0.00000E+00
 -1       965 1.05965E+02 2.80200E+01 0.00000E+00
 -1       966 4.18740E+01 1.77755E+01 0.00000E+00
 -1       967 1.51500E+01 2.85370E+01 0.00000E+00
 -1       968 1.74000E+01 3.16443E+01 0.00000E+00
 -1       969 2.53740E+01 1.51775E+01 0.00000E+00
 -1       970 1.53690E+01 2.60216E+01 0.00000E+00
 -1       971 1.10393E+02 2.16702E+01 0.00000E+00
 -1       972 5.68740E+01 1.77755E+01 0.00000E+00
 -1       973 2.98740E+01 1.77755E+01 0.00000E+00
 -1       974 4.78740E+01 1.77755E+01 0.00000E+00
 -1       975 3.28740E+01 1.77755E+01 0.00000E+00
 -1       976 4.48740E+01 1.77755E+01 0.00000E+00
 -1       977 1.81860E+01 2.20313E+01 0.00000E+00
 -1       978 2.08740E+01 1.77755E+01 0.00000E+00
 -1       979 1.08194E+02 2.26118E+01 0.00000E+00
 -1       980 3.88740E+01 1.77755E+01 0.00000E+00
 -1       981 1.79655E+01 1.74964E+01 0.00000E+00
 -1       982 3.01500E+01 2.92160E+01 0.00000E+00
 -1       983 3.31500E+01 2.92160E+01 0.00000E+00
 -1       984 3.61500E+01 2.92160E+01 0.00000E+00
 -1       985 3.91500E+01 2.92160E+01 0.00000E+00
 -1       986 4.21500E+01 2.92160E+01 0.00000E+00
 -1       987 4.51500E+01 2.92160E+01 0.00000E+00
 -1       988 4.81500E+01 2.92160E+01 0.00000E+00
 -1       989 5.11500E+01 2.92160E+01 0.00000E+00
 -1       990 5.41500E+01 2.92160E+01 0.00000E+00
 -1       991 5.71500E+01 2.92160E+01 0.00000E+00
 -1       992 6.01500E+01 2.92160E+01 0.00000E+00
 -1       993 6.31500E+01 2.92160E+01 0.00000E+00
 -1       994 6.61500E+01 2.92160E+01 0.00000E+00
 -1       995 6.91500E+01 2.92160E+01 0.00000E+00
 -1       996 7.21500E+01 2.92160E+01 0.00000E+00
 -1       997 7.51500E+01 2.92160E+01 0.00000E+00
 -1       998 7.81500E+01 2.92160E+01 0.00000E+00
 -1       999 8.11500E+01 2.92160E+01 0.00000E+00
 -1      1000 8.41500E+01 2.92160E+01 0.00000E+00
 -1      1001 8.71500E+01 2.92160E+01 0.00000E+00
 -1      1002 9.01500E+01 2.92160E+01 0.00000E+00
 -1      1003 9.31500E+01 2.92160E+01 0.00000E+00
 -1      1004 9.61500E+01 2.92160E+01 0.00000E+00
 -1      1005 9.91500E+01 2.92160E+01 0.00000E+00
 -1      1006 6.73740E+01 2.03735E+01 0.00000E+00
 -1      1007 5.23740E+01 2.03735E+01 0.00000E+00
 -1      1008 6.43740E+01 2.03735E+01 0.00000E+00
 -1      1009 6.13740E+01 2.03735E+01 0.00000E+00
 -1      1010 7.03740E+01 2.03735E+01 0.00000E+00
 -1      1011 7.33740E+01 2.03735E+01 0.00000E+00
 -1      1012 7.63740E+01 2.03735E+01 0.00000E+00
 -1      1013 7.93740E+01 2.03735E+01 0.00000E+00
 -1      1014 8.23740E+01 2.03735E+01 0.00000E+00
 -1      1015 8.53740E+01 2.03735E+01 0.00000E+00
 -1      1016 8.83740E+01 2.03735E+01 0.00000E+00
 -1      1017 9.13740E+01 2.03735E+01 0.00000E+00
 -1      1018 9.43740E+01 2.03735E+01 0.00000E+00
 -1      1019 9.73740E+01 2.03735E+01 0.00000E+00
 -1      1020 1.00374E+02 2.03735E+01 0.00000E+00
 -1      1021 1.03374E+02 2.03735E+01 0.00000E+00
 -1      1022 1.06374E+02 2.03735E+01 0.00000E+00
 -1      1023 1.09822E+02 1.96360E+01 0.00000E+00
 -1      1024 1.02558E+02 2.86180E+01 0.00000E+00
 -1      1025 1.79670E+01 2.45466E+01 0.00000E+00
 -1      1026 2.71500E+01 2.92160E+01 0.00000E+00
 -1      1027 2.11500E+01 2.92160E+01 0.00000E+00
 -1      1028 4.33740E+01 2.03735E+01 0.00000E+00
 -1      1029 2.38740E+01 1.77755E+01 0.00000E+00
 -1      1030 3.58740E+01 1.77755E+01 0.00000E+00
 -1      1031 1.05116E+02 2.53515E+01 0.00000E+00
 -1      1032 5.53740E+01 2.03735E+01 0.00000E+00
 -1      1033 5.83740E+01 2.03735E+01 0.00000E+00
 -1      1034 2.41500E+01 2.92160E+01 0.00000E+00
 -1      1035 1.74000E+01 2.87068E+01 0.00000E+00
 -1      1036 2.17265E+01 2.12907E+01 0.00000E+00
 -1      1037 4.93740E+01 2.03735E+01 0.00000E+00
 -1      1038 4.03740E+01 2.03735E+01 0.00000E+00
 -1      1039 4.63740E+01 2.03735E+01 0.00000E+00
 -1      1040 2.15075E+01 2.38061E+01 0.00000E+00
 -1      1041 1.92750E+01 2.89614E+01 0.00000E+00
 -1      1042 2.68741E+01 1.77755E+01 0.00000E+00
 -1      1043 3.13740E+01 2.03735E+01 0.00000E+00
 -1      1044 2.83741E+01 2.03735E+01 0.00000E+00
 -1      1045 2.86500E+01 2.66180E+01 0.00000E+00
 -1      1046 3.46500E+01 2.66180E+01 0.00000E+00
 -1      1047 3.76500E+01 2.66180E+01 0.00000E+00
 -1      1048 4.06500E+01 2.66180E+01 0.00000E+00
 -1      1049 4.36500E+01 2.66180E+01 0.00000E+00
 -1      1050 4.66500E+01 2.66180E+01 0.00000E+00
 -1      1051 4.96500E+01 2.66180E+01 0.00000E+00
 -1      1052 5.26500E+01 2.66180E+01 0.00000E+00
 -1      1053 5.56500E+01 2.66180E+01 0.00000E+00
 -1      1054 5.86500E+01 2.66180E+01 0.00000E+00
 -1      1055 6.16500E+01 2.66180E+01 0.00000E+00
 -1      1056 6.46500E+01 2.66180E+01 0.00000E+00
 -1      1057 6.76500E+01 2.66180E+01 0.00000E+00
 -1      1058 7.06500E+01 2.66180E+01 0.00000E+00
 -1      1059 7.36500E+01 2.66180E+01 0.00000E+00
 -1      1060 7.66500E+01 2.66180E+01 0.00000E+00
 -1      1061 7.96500E+01 2.66180E+01 0.00000E+00
 -1      1062 8.26500E+01 2.66180E+01 0.00000E+00
 -1      1063 8.56500E+01 2.66180E+01 0.00000E+00
 -1      1064 8.86500E+01 2.66180E+01 0.00000E+00
 -1      1065 9.16500E+01 2.66180E+01 0.00000E+00
 -1      1066 9.46500E+01 2.66180E+01 0.00000E+00
 -1      1067 9.76500E+01 2.66180E+01 0.00000E+00
 -1      1068 7.18740E+01 2.29715E+01 0.00000E+00
 -1      1069 3.16500E+01 2.66180E+01 0.00000E+00
 -1      1070 6.88740E+01 2.29715E+01 0.00000E+00
 -1      1071 3.43740E+01 2.03735E+01 0.00000E+00
 -1      1072 6.28740E+01 2.29715E+01 0.00000E+00
 -1      1073 7.48740E+01 2.29715E+01 0.00000E+00
 -1      1074 7.78740E+01 2.29715E+01 0.00000E+00
 -1      1075 8.08740E+01 2.29715E+01 0.00000E+00
 -1      1076 8.38740E+01 2.29715E+01 0.00000E+00
 -1      1077 8.68740E+01 2.29715E+01 0.00000E+00
 -1      1078 8.98740E+01 2.29715E+01 0.00000E+00
 -1      1079 9.28740E+01 2.29715E+01 0.00000E+00
 -1      1080 9.58740E+01 2.29715E+01 0.00000E+00
 -1      1081 9.88740E+01 2.29715E+01 0.00000E+00
 -1      1082 1.01874E+02 2.29715E+01 0.00000E+00
 -1      1083 1.01058E+02 2.60200E+01 0.00000E+00
 -1      1084 5.68740E+01 2.29715E+01 0.00000E+00
 -1      1085 2.50173E+01 2.08875E+01 0.00000E+00
 -1      1086 3.73740E+01 2.03735E+01 0.00000E+00
 -1      1087 2.56500E+01 2.66180E+01 0.00000E+00
 -1      1088 4.48740E+01 2.29715E+01 0.00000E+00
 -1      1089 5.98740E+01 2.29715E+01 0.00000E+00
 -1      1090 2.26500E+01 2.66180E+01 0.00000E+00
 -1      1091 5.38740E+01 2.29715E+01 0.00000E+00
 -1      1092 6.58740E+01 2.29715E+01 0.00000E+00
 -1      1093 2.02577E+01 2.69775E+01 0.00000E+00
 -1      1094 5.08740E+01 2.29715E+01 0.00000E+00
 -1      1095 4.18740E+01 2.29715E+01 0.00000E+00
 -1      1096 4.78740E+01 2.29715E+01 0.00000E+00
 -1      1097 2.47983E+01 2.34029E+01 0.00000E+00
 -1      1098 3.28740E+01 2.29715E+01 0.00000E+00
 -1      1099 2.98741E+01 2.29715E+01 0.00000E+00
 -1      1100 3.91500E+01 2.40200E+01 0.00000E+00
 -1      1101 2.73362E+01 2.31872E+01 0.00000E+00
 -1      1102 3.60120E+01 2.34958E+01 0.00000E+00
 -1      1103 0.00000E+00 4.85250E+01 0.00000E+00
 -1      1104 0.00000E+00 4.55750E+01 0.00000E+00
 -1      1105 0.00000E+00 4.26250E+01 0.00000E+00
 -1      1106 0.00000E+00 3.96750E+01 0.00000E+00
 -1      1107 0.00000E+00 3.67250E+01 0.00000E+00
 -1      1108 0.00000E+00 3.38000E+01 0.00000E+00
 -1      1109 0.00000E+00 3.08750E+01 0.00000E+00
 -1      1110 0.00000E+00 2.79250E+01 0.00000E+00
 -1      1111 0.00000E+00 2.49750E+01 0.00000E+00
 -1      1112 0.00000E+00 2.20250E+01 0.00000E+00
 -1      1113 0.00000E+00 1.90750E+01 0.00000E+00
 -1      1114 0.00000E+00 1.61500E+01 0.00000E+00
 -1      1115 0.00000E+00 1.32250E+01 0.00000E+00
 -1      1116 0.00000E+00 1.02750E+01 0.00000E+00
 -1      1117 0.00000E+00 7.32500E+00 0.00000E+00
 -1      1118 0.00000E+00 4.37500E+00 0.00000E+00
 -1      1119 0.00000E+00 1.45000E+00 0.00000E+00
 -1      1120 1.57500E+00 5.00000E+01 0.00000E+00
 -1      1121 4.65000E+00 5.00000E+01 0.00000E+00
 -1      1122 7.65000E+00 5.00000E+01 0.00000E+00
 -1      1123 1.06500E+01 5.00000E+01 0.00000E+00
 -1      1124 1.36500E+01 5.00000E+01 0.00000E+00
 -1      1125 1.66500E+01 5.00000E+01 0.00000E+00
 -1      1126 1.96500E+01 5.00000E+01 0.00000E+00
 -1      1127 2.26500E+01 5.00000E+01 0.00000E+00
 -1      1128 2.56500E+01 5.00000E+01 0.00000E+00
 -1      1129 2.86500E+01 5.00000E+01 0.00000E+00
 -1      1130 3.16500E+01 5.00000E+01 0.00000E+00
 -1      1131 3.46500E+01 5.00000E+01 0.00000E+00
 -1      1132 3.76500E+01 5.00000E+01 0.00000E+00
 -1      1133 4.06500E+01 5.00000E+01 0.00000E+00
 -1      1134 4.36500E+01 5.00000E+01 0.00000E+00
 -1      1135 4.66500E+01 5.00000E+01 0.00000E+00
 -1      1136 4.96500E+01 5.00000E+01 0.00000E+00
 -1      1137 5.26500E+01 5.00000E+01 0.00000E+00
 -1      1138 5.56500E+01 5.00000E+01 0.00000E+00
 -1      1139 5.86500E+01 5.00000E+01 0.00000E+00
 -1      1140 6.16500E+01 5.00000E+01 0.00000E+00
 -1      1141 6.46500E+01 5.00000E+01 0.00000E+00
 -1      1142 6.76500E+01 5.00000E+01 0.00000E+00
 -1      1143 7.06500E+01 5.00000E+01 0.00000E+00
 -1      1144 7.36500E+01 5.00000E+01 0.00000E+00
 -1      1145 7.66500E+01 5.00000E+01 0.00000E+00
 -1      1146 7.96500E+01 5.00000E+01 0.00000E+00
 -1      1147 8.26500E+01 5.00000E+01 0.00000E+00
 -1      1148 8.56500E+01 5.00000E+01 0.00000E+00
 -1      1149 8.86500E+01 5.00000E+01 0.00000E+00
 -1      1150 9.16500E+01 5.00000E+01 0.00000E+00
 -1      1151 9.46500E+01 5.00000E+01 0.00000E+00
 -1      1152 9.76500E+01 5.00000E+01 0.00000E+00
 -1      1153 1.00650E+02 5.00000E+01 0.00000E+00
 -1      1154 1.03650E+02 5.00000E+01 0.00000E+00
 -1      1155 1.06650E+02 5.00000E+01 0.00000E+00
 -1      1156 1.09650E+02 5.00000E+01 0.00000E+00
 -1      1157 1.12650E+02 5.00000E+01 0.00000E+00
 -1      1158 1.15650E+02 5.00000E+01 0.00000E+00
 -1      1159 1.18650E+02 5.00000E+01 0.00000E+00
 -1      1160 1.21650E+02 5.00000E+01 0.00000E+00
 -1      1161 1.24650E+02 5.00000E+01 0.00000E+00
 -1      1162 1.27575E+02 5.00000E+01 0.00000E+00
 -1      1163 1.30500E+02 5.00000E+01 0.00000E+00
 -1      1164 1.33500E+02 5.00000E+01 0.00000E+00
 -1      1165 1.36500E+02 5.00000E+01 0.00000E+00
 -1      1166 1.39500E+02 5.00000E+01 0.00000E+00
 -1      1167 1.42500E+02 5.00000E+01 0.00000E+00
 -1      1168 1.45500E+02 5.00000E+01 0.00000E+00
 -1      1169 1.48500E+02 5.00000E+01 0.00000E+00
 -1      1170 1.57500E+00 0.00000E+00 0.00000E+00
 -1      1171 4.65000E+00 0.00000E+00 0.00000E+00
 -1      1172 7.65000E+00 0.00000E+00 0.00000E+00
 -1      1173 1.06500E+01 0.00000E+00 0.00000E+00
 -1      1174 1.36500E+01 0.00000E+00 0.00000E+00
 -1      1175 1.66500E+01 0.00000E+00 0.00000E+00
 -1      1176 1.96500E+01 0.00000E+00 0.00000E+00
 -1      1177 2.26500E+01 0.00000E+00 0.00000E+00
 -1      1178 2.56500E+01 0.00000E+00 0.00000E+00
 -1      1179 2.86500E+01 0.00000E+00 0.00000E+00
 -1      1180 3.16500E+01 0.00000E+00 0.00000E+00
 -1      1181 3.46500E+01 0.00000E+00 0.00000E+00
 -1      1182 3.76500E+01 0.00000E+00 0.00000E+00
 -1      1183 4.06500E+01 0.00000E+00 0.00000E+00
 -1      1184 4.36500E+01 0.00000E+00 0.00000E+00
 -1      1185 4.66500E+01 0.00000E+00 0.00000E+00
 -1      1186 4.96500E+01 0.00000E+00 0.00000E+00
 -1      1187 5.26500E+01 0.00000E+00 0.00000E+00
 -1      1188 5.56500E+01 0.00000E+00 0.00000E+00
 -1      1189 5.86500E+01 0.00000E+00 0.00000E+00
 -1      1190 6.16500E+01 0.00000E+00 0.00000E+00
 -1      1191 6.46500E+01 0.00000E+00 0.00000E+00
 -1      1192 6.76500E+01 0.00000E+00 0.00000E+00
 -1      1193 7.06500E+01 0.00000E+00 0.00000E+00
 -1      1194 7.36500E+01 0.00000E+00 0.00000E+00
 -1      1195 7.66500E+01 0.00000E+00 0.00000E+00
 -1      1196 7.96500E+01 0.00000E+00 0.00000E+00
 -1      1197 8.26500E+01 0.00000E+00 0.00000E+00
 -1      1198 8.56500E+01 0.00000E+00 0.00000E+00
 -1      1199 8.86500E+01 0.00000E+00 0.00000E+00
 -1      1200 9.16500E+01 0.00000E+00 0.00000E+00
 -1      1201 9.46500E+01 0.00000E+00 0.00000E+00
 -1      1202 9.76500E+01 0.00000E+00 0.00000E+00
 -1      1203 1.00650E+02 0.00000E+00 0.00000E+00
 -1      1204 1.03650E+02 0.00000E+00 0.00000E+00
 -1      1205 1.06650E+02 0.00000E+00 0.00000E+00
 -1      1206 1.09650E+02 0.00000E+00 0.00000E+00
 -1      1207 1.12650E+02 0.00000E+00 0.00000E+00
 -1      1208 1.15650E+02 0.00000E+00 0.00000E+00
 -1      1209 1.18650E+02 0.00000E+00 0.00000E+00
 -1      1210 1.21650E+02 0.00000E+00 0.00000E+00
 -1      1211 1.24650E+02 0.00000E+00 0.00000E+00
 -1      1212 1.27650E+02 0.00000E+00 0.00000E+00
 -1      1213 1.30650E+02 0.00000E+00 0.00000E+00
 -1      1214 1.33650E+02 0.00000E+00 0.00000E+00
 -1      1215 1.36650E+02 0.00000E+00 0.00000E+00
 -1      1216 1.39650E+02 0.00000E+00 0.00000E+00
 -1      1217 1.42650E+02 0.00000E+00 0.00000E+00
 -1      1218 1.45650E+02 0.00000E+00 0.00000E+00
 -1      1219 1.48575E+02 0.00000E+00 0.00000E+00
 -1      1220 1.50000E+02 1.47500E+00 0.00000E+00
 -1      1221 1.50000E+02 4.42500E+00 0.00000E+00
 -1      1222 1.50000E+02 7.37500E+00 0.00000E+00
 -1      1223 1.50000E+02 1.03250E+01 0.00000E+00
 -1      1224 1.50000E+02 1.32750E+01 0.00000E+00
 -1      1225 1.50000E+02 1.62250E+01 0.00000E+00
 -1      1226 1.50000E+02 1.91750E+01 0.00000E+00
 -1      1227 1.50000E+02 2.21000E+01 0.00000E+00
 -1      1228 1.50000E+02 2.50250E+01 0.00000E+00
 -1      1229 1.50000E+02 2.79750E+01 0.00000E+00
 -1      1230 1.50000E+02 3.09000E+01 0.00000E+00
 -1      1231 1.50000E+02 3.38250E+01 0.00000E+00
 -1      1232 1.50000E+02 3.67750E+01 0.00000E+00
 -1      1233 1.50000E+02 3.97250E+01 0.00000E+00
 -1      1234 1.50000E+02 4.26750E+01 0.00000E+00
 -1      1235 1.50000E+02 4.56250E+01 0.00000E+00
 -1      1236 1.50000E+02 4.85500E+01 0.00000E+00
 -1      1237 1.33046E+02 3.08716E+01 0.00000E+00
 -1      1238 1.32739E+02 2.94261E+01 0.00000E+00
 -1      1239 1.32140E+02 2.80858E+01 0.00000E+00
 -1      1240 1.31303E+02 2.69314E+01 0.00000E+00
 -1      1241 1.30197E+02 2.59317E+01 0.00000E+00
 -1      1242 1.28916E+02 2.51945E+01 0.00000E+00
 -1      1243 1.27571E+02 2.47556E+01 0.00000E+00
 -1      1244 1.26074E+02 2.45958E+01 0.00000E+00
 -1      1245 1.24577E+02 2.47598E+01 0.00000E+00
 -1      1246 1.23203E+02 2.52158E+01 0.00000E+00
 -1      1247 1.21980E+02 2.59249E+01 0.00000E+00
 -1      1248 1.20925E+02 2.68644E+01 0.00000E+00
 -1      1249 1.20056E+02 2.80372E+01 0.00000E+00
 -1      1250 1.19454E+02 2.93501E+01 0.00000E+00
 -1      1251 1.19135E+02 3.07532E+01 0.00000E+00
 -1      1252 1.19111E+02 3.22150E+01 0.00000E+00
 -1      1253 1.19400E+02 3.36760E+01 0.00000E+00
 -1      1254 1.19986E+02 3.50339E+01 0.00000E+00
 -1      1255 1.20816E+02 3.62058E+01 0.00000E+00
 -1      1256 1.21894E+02 3.72038E+01 0.00000E+00
 -1      1257 1.23176E+02 3.79635E+01 0.00000E+00
 -1      1258 1.24562E+02 3.84284E+01 0.00000E+00
 -1      1259 1.26071E+02 3.85958E+01 0.00000E+00
 -1      1260 1.27560E+02 3.84384E+01 0.00000E+00
 -1      1261 1.28935E+02 3.79887E+01 0.00000E+00
 -1      1262 1.30188E+02 3.72666E+01 0.00000E+00
 -1      1263 1.31281E+02 3.62853E+01 0.00000E+00
 -1      1264 1.32146E+02 3.50952E+01 0.00000E+00
 -1      1265 1.32730E+02 3.37923E+01 0.00000E+00
 -1      1266 1.33043E+02 3.23525E+01 0.00000E+00
 -1      1267 1.57500E+00 4.85250E+01 0.00000E+00
 -1      1268 1.29900E+00 4.48375E+01 0.00000E+00
 -1      1269 1.29900E+00 4.63125E+01 0.00000E+00
 -1      1270 1.29900E+00 4.18875E+01 0.00000E+00
 -1      1271 1.29900E+00 4.33625E+01 0.00000E+00
 -1      1272 2.59800E+00 4.41000E+01 0.00000E+00
 -1      1273 1.29900E+00 3.89375E+01 0.00000E+00
 -1      1274 1.29900E+00 4.04125E+01 0.00000E+00
 -1      1275 2.59800E+00 4.11500E+01 0.00000E+00
 -1      1276 1.29900E+00 3.59875E+01 0.00000E+00
 -1      1277 1.29900E+00 3.74625E+01 0.00000E+00
 -1      1278 2.59800E+00 3.82000E+01 0.00000E+00
 -1      1279 1.29900E+00 3.30875E+01 0.00000E+00
 -1      1280 1.29900E+00 3.45375E+01 0.00000E+00
 -1      1281 2.59800E+00 3.52750E+01 0.00000E+00
 -1      1282 1.29900E+00 3.01375E+01 0.00000E+00
 -1      1283 1.29900E+00 3.16125E+01 0.00000E+00
 -1      1284 2.59800E+00 3.23500E+01 0.00000E+00
 -1      1285 1.29900E+00 2.71875E+01 0.00000E+00
 -1      1286 1.29900E+00 2.86625E+01 0.00000E+00
 -1      1287 2.59800E+00 2.94000E+01 0.00000E+00
 -1      1288 1.29900E+00 2.42375E+01 0.00000E+00
 -1      1289 1.29900E+00 2.57125E+01 0.00000E+00
 -1      1290 2.59800E+00 2.64500E+01 0.00000E+00
 -1      1291 1.29900E+00 2.12875E+01 0.00000E+00
 -1      1292 1.29900E+00 2.27625E+01 0.00000E+00
 -1      1293 2.59800E+00 2.35000E+01 0.00000E+00
 -1      1294 1.29900E+00 1.83375E+01 0.00000E+00
 -1      1295 1.29900E+00 1.98125E+01 0.00000E+00
 -1      1296 2.59800E+00 2.05500E+01 0.00000E+00
 -1      1297 1.29900E+00 1.54375E+01 0.00000E+00
 -1      1298 1.29900E+00 1.68875E+01 0.00000E+00
 -1      1299 2.59800E+00 1.76250E+01 0.00000E+00
 -1      1300 1.29900E+00 1.24875E+01 0.00000E+00
 -1      1301 1.29900E+00 1.39625E+01 0.00000E+00
 -1      1302 2.59800E+00 1.47000E+01 0.00000E+00
 -1      1303 1.29900E+00 9.53750E+00 0.00000E+00
 -1      1304 1.29900E+00 1.10125E+01 0.00000E+00
 -1      1305 2.59800E+00 1.17500E+01 0.00000E+00
 -1      1306 1.29900E+00 6.58750E+00 0.00000E+00
 -1      1307 1.29900E+00 8.06250E+00 0.00000E+00
 -1      1308 2.59800E+00 8.80000E+00 0.00000E+00
 -1      1309 1.29900E+00 3.63750E+00 0.00000E+00
 -1      1310 1.29900E+00 5.11250E+00 0.00000E+00
 -1      1311 2.59800E+00 5.85000E+00 0.00000E+00
 -1      1312 1.43700E+00 1.09375E+00 0.00000E+00
 -1      1313 1.43700E+00 2.54375E+00 0.00000E+00
 -1      1314 2.73600E+00 3.28125E+00 0.00000E+00
 -1      1315 3.01200E+00 1.09375E+00 0.00000E+00
 -1      1316 3.90000E+00 4.87010E+01 0.00000E+00
 -1      1317 5.40000E+00 4.87010E+01 0.00000E+00
 -1      1318 6.90000E+00 4.87010E+01 0.00000E+00
 -1      1319 8.40000E+00 4.87010E+01 0.00000E+00
 -1      1320 6.15000E+00 4.74020E+01 0.00000E+00
 -1      1321 9.90000E+00 4.87010E+01 0.00000E+00
 -1      1322 1.14000E+01 4.87010E+01 0.00000E+00
 -1      1323 9.15000E+00 4.74020E+01 0.00000E+00
 -1      1324 1.29000E+01 4.87010E+01 0.00000E+00
 -1      1325 1.44000E+01 4.87010E+01 0.00000E+00
 -1      1326 1.21500E+01 4.74020E+01 0.00000E+00
 -1      1327 1.59000E+01 4.87010E+01 0.00000E+00
 -1      1328 1.74000E+01 4.87010E+01 0.00000E+00
 -1      1329 1.51500E+01 4.74020E+01 0.00000E+00
 -1      1330 1.89000E+01 4.87010E+01 0.00000E+00
 -1      1331 2.04000E+01 4.87010E+01 0.00000E+00
 -1      1332 1.81500E+01 4.74020E+01 0.00000E+00
 -1      1333 2.19000E+01 4.87010E+01 0.00000E+00
 -1      1334 2.34000E+01 4.87010E+01 0.00000E+00
 -1      1335 2.11500E+01 4.74020E+01 0.00000E+00
 -1      1336 2.49000E+01 4.87010E+01 0.00000E+00
 -1      1337 2.64000E+01 4.87010E+01 0.00000E+00
 -1      1338 2.41500E+01 4.74020E+01 0.00000E+00
 -1      1339 2.79000E+01 4.87010E+01 0.00000E+00
 -1      1340 2.94000E+01 4.87010E+01 0.00000E+00
 -1      1341 2.71500E+01 4.74020E+01 0.00000E+00
 -1      1342 3.09000E+01 4.87010E+01 0.00000E+00
 -1      1343 3.24000E+01 4.87010E+01 0.00000E+00
 -1      1344 3.01500E+01 4.74020E+01 0.00000E+00
 -1      1345 3.39000E+01 4.87010E+01 0.00000E+00
 -1      1346 3.54000E+01 4.87010E+01 0.00000E+00
 -1      1347 3.31500E+01 4.74020E+01 0.00000E+00
 -1      1348 3.69000E+01 4.87010E+01 0.00000E+00
 -1      1349 3.84000E+01 4.87010E+01 0.00000E+00
 -1      1350 3.61500E+01 4.74020E+01 0.00000E+00
 -1      1351 3.99000E+01 4.87010E+01 0.00000E+00
 -1      1352 4.14000E+01 4.87010E+01 0.00000E+00
 -1      1353 3.91500E+01 4.74020E+01 0.00000E+00
 -1      1354 4.29000E+01 4.87010E+01 0.00000E+00
 -1      1355 4.44000E+01 4.87010E+01 0.00000E+00
 -1      1356 4.21500E+01 4.74020E+01 0.00000E+00
 -1      1357 4.59000E+01 4.87010E+01 0.00000E+00
 -1      1358 4.74000E+01 4.87010E+01 0.00000E+00
 -1      1359 4.51500E+01 4.74020E+01 0.00000E+00
 -1      1360 4.89000E+01 4.87010E+01 0.00000E+00
 -1      1361 5.04000E+01 4.87010E+01 0.00000E+00
 -1      1362 4.81500E+01 4.74020E+01 0.00000E+00
 -1      1363 5.19000E+01 4.87010E+01 0.00000E+00
 -1      1364 5.34000E+01 4.87010E+01 0.00000E+00
 -1      1365 5.11500E+01 4.74020E+01 0.00000E+00
 -1      1366 5.49000E+01 4.87010E+01 0.00000E+00
 -1      1367 5.64000E+01 4.87010E+01 0.00000E+00
 -1      1368 5.41500E+01 4.74020E+01 0.00000E+00
 -1      1369 5.79000E+01 4.87010E+01 0.00000E+00
 -1      1370 5.94000E+01 4.87010E+01 0.00000E+00
 -1      1371 5.71500E+01 4.74020E+01 0.00000E+00
 -1      1372 6.09000E+01 4.87010E+01 0.00000E+00
 -1      1373 6.24000E+01 4.87010E+01 0.00000E+00
 -1      1374 6.01500E+01 4.74020E+01 0.00000E+00
 -1      1375 6.39000E+01 4.87010E+01 0.00000E+00
 -1      1376 6.54000E+01 4.87010E+01 0.00000E+00
 -1      1377 6.31500E+01 4.74020E+01 0.00000E+00
 -1      1378 6.69000E+01 4.87010E+01 0.00000E+00
 -1      1379 6.84000E+01 4.87010E+01 0.00000E+00
 -1      1380 6.61500E+01 4.74020E+01 0.00000E+00
 -1      1381 6.99000E+01 4.87010E+01 0.00000E+00
 -1      1382 7.14000E+01 4.87010E+01 0.00000E+00
 -1      1383 6.91500E+01 4.74020E+01 0.00000E+00
 -1      1384 7.29000E+01 4.87010E+01 0.00000E+00
 -1      1385 7.44000E+01 4.87010E+01 0.00000E+00
 -1      1386 7.21500E+01 4.74020E+01 0.00000E+00
 -1      1387 7.59000E+01 4.87010E+01 0.00000E+00
 -1      1388 7.74000E+01 4.87010E+01 0.00000E+00
 -1      1389 7.51500E+01 4.74020E+01 0.00000E+00
 -1      1390 7.89000E+01 4.87010E+01 0.00000E+00
 -1      1391 8.04000E+01 4.87010E+01 0.00000E+00
 -1      1392 7.81500E+01 4.74020E+01 0.00000E+00
 -1      1393 8.19000E+01 4.87010E+01 0.00000E+00
 -1      1394 8.34000E+01 4.87010E+01 0.00000E+00
 -1      1395 8.11500E+01 4.74020E+01 0.00000E+00
 -1      1396 8.49000E+01 4.87010E+01 0.00000E+00
 -1      1397 8.64000E+01 4.87010E+01 0.00000E+00
 -1      1398 8.41500E+01 4.74020E+01 0.00000E+00
 -1      1399 8.79000E+01 4.87010E+01 0.00000E+00
 -1      1400 8.94000E+01 4.87010E+01 0.00000E+00
 -1      1401 8.71500E+01 4.74020E+01 0.00000E+00
 -1      1402 9.09000E+01 4.87010E+01 0.00000E+00
 -1      1403 9.24000E+01 4.87010E+01 0.00000E+00
 -1      1404 9.01500E+01 4.74020E+01 0.00000E+00
 -1      1405 9.39000E+01 4.87010E+01 0.00000E+00
 -1      1406 9.54000E+01 4.87010E+01 0.00000E+00
 -1      1407 9.31500E+01 4.74020E+01 0.00000E+00
 -1      1408 9.69000E+01 4.87010E+01 0.00000E+00
 -1      1409 9.84000E+01 4.87010E+01 0.00000E+00
 -1      1410 9.61500E+01 4.74020E+01 0.00000E+00
 -1      1411 9.99000E+01 4.87010E+01 0.00000E+00
 -1      1412 1.01400E+02 4.87010E+01 0.00000E+00
 -1      1413 9.91500E+01 4.74020E+01 0.00000E+00
 -1      1414 1.02900E+02 4.87010E+01 0.00000E+00
 -1      1415 1.04400E+02 4.87010E+01 0.00000E+00
 -1      1416 1.02150E+02 4.74020E+01 0.00000E+00
 -1      1417 1.05900E+02 4.87010E+01 0.00000E+00
 -1      1418 1.07400E+02 4.87010E+01 0.00000E+00
 -1      1419 1.05150E+02 4.74020E+01 0.00000E+00
 -1      1420 1.08900E+02 4.87010E+01 0.00000E+00
 -1      1421 1.10400E+02 4.87010E+01 0.00000E+00
 -1      1422 1.08150E+02 4.74020E+01 0.00000E+00
 -1      1423 1.11900E+02 4.87010E+01 0.00000E+00
 -1      1424 1.13400E+02 4.87010E+01 0.00000E+00
 -1      1425 1.11150E+02 4.74020E+01 0.00000E+00
 -1      1426 1.14900E+02 4.87010E+01 0.00000E+00
 -1      1427 1.16400E+02 4.87010E+01 0.00000E+00
 -1      1428 1.14150E+02 4.74020E+01 0.00000E+00
 -1      1429 1.17900E+02 4.87010E+01 0.00000E+00
 -1      1430 1.19400E+02 4.87010E+01 0.00000E+00
 -1      1431 1.17150E+02 4.74020E+01 0.00000E+00
 -1      1432 1.20900E+02 4.87010E+01 0.00000E+00
 -1      1433 1.22400E+02 4.87010E+01 0.00000E+00
 -1      1434 1.20150E+02 4.74020E+01 0.00000E+00
 -1      1435 1.23900E+02 4.87010E+01 0.00000E+00
 -1      1436 1.25400E+02 4.87010E+01 0.00000E+00
 -1      1437 1.23150E+02 4.74020E+01 0.00000E+00
 -1      1438 1.26825E+02 4.87010E+01 0.00000E+00
 -1      1439 1.28250E+02 4.87010E+01 0.00000E+00
 -1      1440 1.26075E+02 4.74020E+01 0.00000E+00
 -1      1441 1.29750E+02 4.87010E+01 0.00000E+00
 -1      1442 1.31250E+02 4.87010E+01 0.00000E+00
 -1      1443 1.29000E+02 4.74020E+01 0.00000E+00
 -1      1444 1.32750E+02 4.87010E+01 0.00000E+00
 -1      1445 1.34250E+02 4.87010E+01 0.00000E+00
 -1      1446 1.32000E+02 4.74020E+01 0.00000E+00
 -1      1447 1.35750E+02 4.87010E+01 0.00000E+00
 -1      1448 1.37250E+02 4.87010E+01 0.00000E+00
 -1      1449 1.35000E+02 4.74020E+01 0.00000E+00
 -1      1450 1.38750E+02 4.87010E+01 0.00000E+00
 -1      1451 1.40250E+02 4.87010E+01 0.00000E+00
 -1      1452 1.38000E+02 4.74020E+01 0.00000E+00
 -1      1453 1.41750E+02 4.87010E+01 0.00000E+00
 -1      1454 1.43250E+02 4.87010E+01 0.00000E+00
 -1      1455 1.41000E+02 4.74020E+01 0.00000E+00
 -1      1456 1.44750E+02 4.87010E+01 0.00000E+00
 -1      1457 1.46250E+02 4.87010E+01 0.00000E+00
 -1      1458 1.44000E+02 4.74020E+01 0.00000E+00
 -1      1459 1.47375E+02 4.86255E+01 0.00000E+00
 -1      1460 1.48875E+02 4.86255E+01 0.00000E+00
 -1      1461 1.48875E+02 4.71755E+01 0.00000E+00
 -1      1462 1.46625E+02 4.73265E+01 0.00000E+00
 -1      1463 6.01200E+00 1.09375E+00 0.00000E+00
 -1      1464 4.51200E+00 1.09375E+00 0.00000E+00
 -1      1465 4.37400E+00 2.18750E+00 0.00000E+00
 -1      1466 9.01200E+00 1.09375E+00 0.00000E+00
 -1      1467 7.51200E+00 1.09375E+00 0.00000E+00
 -1      1468 7.37400E+00 2.18750E+00 0.00000E+00
 -1      1469 1.20120E+01 1.09375E+00 0.00000E+00
 -1      1470 1.05120E+01 1.09375E+00 0.00000E+00
 -1      1471 1.03740E+01 2.18750E+00 0.00000E+00
 -1      1472 1.50120E+01 1.09375E+00 0.00000E+00
 -1      1473 1.35120E+01 1.09375E+00 0.00000E+00
 -1      1474 1.33740E+01 2.18750E+00 0.00000E+00
 -1      1475 1.80120E+01 1.09375E+00 0.00000E+00
 -1      1476 1.65120E+01 1.09375E+00 0.00000E+00
 -1      1477 1.63740E+01 2.18750E+00 0.00000E+00
 -1      1478 2.10120E+01 1.09375E+00 0.00000E+00
 -1      1479 1.95120E+01 1.09375E+00 0.00000E+00
 -1      1480 1.93740E+01 2.18750E+00 0.00000E+00
 -1      1481 2.40120E+01 1.09375E+00 0.00000E+00
 -1      1482 2.25120E+01 1.09375E+00 0.00000E+00
 -1      1483 2.23740E+01 2.18750E+00 0.00000E+00
 -1      1484 2.70120E+01 1.09375E+00 0.00000E+00
 -1      1485 2.55120E+01 1.09375E+00 0.00000E+00
 -1      1486 2.53740E+01 2.18750E+00 0.00000E+00
 -1      1487 3.00120E+01 1.09375E+00 0.00000E+00
 -1      1488 2.85120E+01 1.09375E+00 0.00000E+00
 -1      1489 2.83740E+01 2.18750E+00 0.00000E+00
 -1      1490 3.30120E+01 1.09375E+00 0.00000E+00
 -1      1491 3.15120E+01 1.09375E+00 0.00000E+00
 -1      1492 3.13740E+01 2.18750E+00 0.00000E+00
 -1      1493 3.60120E+01 1.09375E+00 0.00000E+00
 -1      1494 3.45120E+01 1.09375E+00 0.00000E+00
 -1      1495 3.43740E+01 2.18750E+00 0.00000E+00
 -1      1496 3.90120E+01 1.09375E+00 0.00000E+00
 -1      1497 3.75120E+01 1.09375E+00 0.00000E+00
 -1      1498 3.73740E+01 2.18750E+00 0.00000E+00
 -1      1499 4.20120E+01 1.09375E+00 0.00000E+00
 -1      1500 4.05120E+01 1.09375E+00 0.00000E+00
 -1      1501 4.03740E+01 2.18750E+00 0.00000E+00
 -1      1502 4.50120E+01 1.09375E+00 0.00000E+00
 -1      1503 4.35120E+01 1.09375E+00 0.00000E+00
 -1      1504 4.33740E+01 2.18750E+00 0.00000E+00
 -1      1505 4.80120E+01 1.09375E+00 0.00000E+00
 -1      1506 4.65120E+01 1.09375E+00 0.00000E+00
 -1      1507 4.63740E+01 2.18750E+00 0.00000E+00
 -1      1508 5.10120E+01 1.09375E+00 0.00000E+00
 -1      1509 4.95120E+01 1.09375E+00 0.00000E+00
 -1      1510 4.93740E+01 2.18750E+00 0.00000E+00
 -1      1511 5.40120E+01 1.09375E+00 0.00000E+00
 -1      1512 5.25120E+01 1.09375E+00 0.00000E+00
 -1      1513 5.23740E+01 2.18750E+00 0.00000E+00
 -1      1514 5.70120E+01 1.09375E+00 0.00000E+00
 -1      1515 5.55120E+01 1.09375E+00 0.00000E+00
 -1      1516 5.53740E+01 2.18750E+00 0.00000E+00
 -1      1517 6.00120E+01 1.09375E+00 0.00000E+00
 -1      1518 5.85120E+01 1.09375E+00 0.00000E+00
 -1      1519 5.83740E+01 2.18750E+00 0.00000E+00
 -1      1520 6.30120E+01 1.09375E+00 0.00000E+00
 -1      1521 6.15120E+01 1.09375E+00 0.00000E+00
 -1      1522 6.13740E+01 2.18750E+00 0.00000E+00
 -1      1523 6.60120E+01 1.09375E+00 0.00000E+00
 -1      1524 6.45120E+01 1.09375E+00 0.00000E+00
 -1      1525 6.43740E+01 2.18750E+00 0.00000E+00
 -1      1526 6.90120E+01 1.09375E+00 0.00000E+00
 -1      1527 6.75120E+01 1.09375E+00 0.00000E+00
 -1      1528 6.73740E+01 2.18750E+00 0.00000E+00
 -1      1529 7.20120E+01 1.09375E+00 0.00000E+00
 -1      1530 7.05120E+01 1.09375E+00 0.00000E+00
 -1      1531 7.03740E+01 2.18750E+00 0.00000E+00
 -1      1532 7.50120E+01 1.09375E+00 0.00000E+00
 -1      1533 7.35120E+01 1.09375E+00 0.00000E+00
 -1      1534 7.33740E+01 2.18750E+00 0.00000E+00
 -1      1535 7.80120E+01 1.09375E+00 0.00000E+00
 -1      1536 7.65120E+01 1.09375E+00 0.00000E+00
 -1      1537 7.63740E+01 2.18750E+00 0.00000E+00
 -1      1538 8.10120E+01 1.09375E+00 0.00000E+00
 -1      1539 7.95120E+01 1.09375E+00 0.00000E+00
 -1      1540 7.93740E+01 2.18750E+00 0.00000E+00
 -1      1541 8.40120E+01 1.09375E+00 0.00000E+00
 -1      1542 8.25120E+01 1.09375E+00 0.00000E+00
 -1      1543 8.23740E+01 2.18750E+00 0.00000E+00
 -1      1544 8.70120E+01 1.09375E+00 0.00000E+00
 -1      1545 8.55120E+01 1.09375E+00 0.00000E+00
 -1      1546 8.53740E+01 2.18750E+00 0.00000E+00
 -1      1547 9.00120E+01 1.09375E+00 0.00000E+00
 -1      1548 8.85120E+01 1.09375E+00 0.00000E+00
 -1      1549 8.83740E+01 2.18750E+00 0.00000E+00
 -1      1550 9.30120E+01 1.09375E+00 0.00000E+00
 -1      1551 9.15120E+01 1.09375E+00 0.00000E+00
 -1      1552 9.13740E+01 2.18750E+00 0.00000E+00
 -1      1553 9.60120E+01 1.09375E+00 0.00000E+00
 -1      1554 9.45120E+01 1.09375E+00 0.00000E+00
 -1      1555 9.43740E+01 2.18750E+00 0.00000E+00
 -1      1556 9.90120E+01 1.09375E+00 0.00000E+00
 -1      1557 9.75120E+01 1.09375E+00 0.00000E+00
 -1      1558 9.73740E+01 2.18750E+00 0.00000E+00
 -1      1559 1.02012E+02 1.09375E+00 0.00000E+00
 -1      1560 1.00512E+02 1.09375E+00 0.00000E+00
 -1      1561 1.00374E+02 2.18750E+00 0.00000E+00
 -1      1562 1.05012E+02 1.09375E+00 0.00000E+00
 -1      1563 1.03512E+02 1.09375E+00 0.00000E+00
 -1      1564 1.03374E+02 2.18750E+00 0.00000E+00
 -1      1565 1.08012E+02 1.09375E+00 0.00000E+00
 -1      1566 1.06512E+02 1.09375E+00 0.00000E+00
 -1      1567 1.06374E+02 2.18750E+00 0.00000E+00
 -1      1568 1.11012E+02 1.09375E+00 0.00000E+00
 -1      1569 1.09512E+02 1.09375E+00 0.00000E+00
 -1      1570 1.09374E+02 2.18750E+00 0.00000E+00
 -1      1571 1.14012E+02 1.09375E+00 0.00000E+00
 -1      1572 1.12512E+02 1.09375E+00 0.00000E+00
 -1      1573 1.12374E+02 2.18750E+00 0.00000E+00
 -1      1574 1.17012E+02 1.09375E+00 0.00000E+00
 -1      1575 1.15512E+02 1.09375E+00 0.00000E+00
 -1      1576 1.15374E+02 2.18750E+00 0.00000E+00
 -1      1577 1.20012E+02 1.09375E+00 0.00000E+00
 -1      1578 1.18512E+02 1.09375E+00 0.00000E+00
 -1      1579 1.18374E+02 2.18750E+00 0.00000E+00
 -1      1580 1.23012E+02 1.09375E+00 0.00000E+00
 -1      1581 1.21512E+02 1.09375E+00 0.00000E+00
 -1      1582 1.21374E+02 2.18750E+00 0.00000E+00
 -1      1583 1.26012E+02 1.09375E+00 0.00000E+00
 -1      1584 1.24512E+02 1.09375E+00 0.00000E+00
 -1      1585 1.24374E+02 2.18750E+00 0.00000E+00
 -1      1586 1.29012E+02 1.09375E+00 0.00000E+00
 -1      1587 1.27512E+02 1.09375E+00 0.00000E+00
 -1      1588 1.27374E+02 2.18750E+00 0.00000E+00
 -1      1589 1.32012E+02 1.09375E+00 0.00000E+00
 -1      1590 1.30512E+02 1.09375E+00 0.00000E+00
 -1      1591 1.30374E+02 2.18750E+00 0.00000E+00
 -1      1592 1.35012E+02 1.09375E+00 0.00000E+00
 -1      1593 1.33512E+02 1.09375E+00 0.00000E+00
 -1      1594 1.33374E+02 2.18750E+00 0.00000E+00
 -1      1595 1.38012E+02 1.09375E+00 0.00000E+00
 -1      1596 1.36512E+02 1.09375E+00 0.00000E+00
 -1      1597 1.36374E+02 2.18750E+00 0.00000E+00
 -1      1598 1.41012E+02 1.09375E+00 0.00000E+00
 -1      1599 1.39512E+02 1.09375E+00 0.00000E+00
 -1      1600 1.39374E+02 2.18750E+00 0.00000E+00
 -1      1601 1.44012E+02 1.09375E+00 0.00000E+00
 -1      1602 1.42512E+02 1.09375E+00 0.00000E+00
 -1      1603 1.42374E+02 2.18750E+00 0.00000E+00
 -1      1604 1.47012E+02 1.09375E+00 0.00000E+00
 -1      1605 1.45512E+02 1.09375E+00 0.00000E+00
 -1      1606 1.45374E+02 2.18750E+00 0.00000E+00
 -1      1607 1.48575E+02 1.47500E+00 0.00000E+00
 -1      1608 1.48701E+02 5.16250E+00 0.00000E+00
 -1      1609 1.48701E+02 3.68750E+00 0.00000E+00
 -1      1610 1.48701E+02 8.11250E+00 0.00000E+00
 -1      1611 1.48701E+02 6.63750E+00 0.00000E+00
 -1      1612 1.47402E+02 5.90000E+00 0.00000E+00
 -1      1613 1.48701E+02 1.10625E+01 0.00000E+00
 -1      1614 1.48701E+02 9.58750E+00 0.00000E+00
 -1      1615 1.47402E+02 8.85000E+00 0.00000E+00
 -1      1616 1.48701E+02 1.40125E+01 0.00000E+00
 -1      1617 1.48701E+02 1.25375E+01 0.00000E+00
 -1      1618 1.47402E+02 1.18000E+01 0.00000E+00
 -1      1619 1.48701E+02 1.69625E+01 0.00000E+00
 -1      1620 1.48701E+02 1.54875E+01 0.00000E+00
 -1      1621 1.47402E+02 1.47500E+01 0.00000E+00
 -1      1622 1.48701E+02 1.99125E+01 0.00000E+00
 -1      1623 1.48701E+02 1.84375E+01 0.00000E+00
 -1      1624 1.47402E+02 1.77000E+01 0.00000E+00
 -1      1625 1.48701E+02 2.28125E+01 0.00000E+00
 -1      1626 1.48701E+02 2.13625E+01 0.00000E+00
 -1      1627 1.47402E+02 2.06250E+01 0.00000E+00
 -1      1628 1.48701E+02 2.57625E+01 0.00000E+00
 -1      1629 1.48701E+02 2.42875E+01 0.00000E+00
 -1      1630 1.47402E+02 2.35500E+01 0.00000E+00
 -1      1631 1.48701E+02 2.87125E+01 0.00000E+00
 -1      1632 1.48701E+02 2.72375E+01 0.00000E+00
 -1      1633 1.47402E+02 2.65000E+01 0.00000E+00
 -1      1634 1.48701E+02 3.16125E+01 0.00000E+00
 -1      1635 1.48701E+02 3.01625E+01 0.00000E+00
 -1      1636 1.47402E+02 2.94250E+01 0.00000E+00
 -1      1637 1.48701E+02 3.45625E+01 0.00000E+00
 -1      1638 1.48701E+02 3.30875E+01 0.00000E+00
 -1      1639 1.47402E+02 3.23500E+01 0.00000E+00
 -1      1640 1.48701E+02 3.75125E+01 0.00000E+00
 -1      1641 1.48701E+02 3.60375E+01 0.00000E+00
 -1      1642 1.47402E+02 3.53000E+01 0.00000E+00
 -1      1643 1.48701E+02 4.04625E+01 0.00000E+00
 -1      1644 1.48701E+02 3.89875E+01 0.00000E+00
 -1      1645 1.47402E+02 3.82500E+01 0.00000E+00
 -1      1646 1.48701E+02 4.34125E+01 0.00000E+00
 -1      1647 1.48701E+02 4.19375E+01 0.00000E+00
 -1      1648 1.47402E+02 4.12000E+01 0.00000E+00
 -1      1649 1.48788E+02 4.60315E+01 0.00000E+00
 -1      1650 1.48788E+02 4.45565E+01 0.00000E+00
 -1      1651 1.47489E+02 4.38190E+01 0.00000E+00
 -1      1652 1.47663E+02 4.61070E+01 0.00000E+00
 -1      1653 1.33574E+02 3.04527E+01 0.00000E+00
 -1      1654 1.33649E+02 3.11729E+01 0.00000E+00
 -1      1655 1.33279E+02 2.88537E+01 0.00000E+00
 -1      1656 1.33513E+02 2.95702E+01 0.00000E+00
 -1      1657 1.32454E+02 2.74911E+01 0.00000E+00
 -1      1658 1.32812E+02 2.81092E+01 0.00000E+00
 -1      1659 1.31491E+02 2.62865E+01 0.00000E+00
 -1      1660 1.31965E+02 2.68168E+01 0.00000E+00
 -1      1661 1.30310E+02 2.51118E+01 0.00000E+00
 -1      1662 1.30941E+02 2.55700E+01 0.00000E+00
 -1      1663 1.28828E+02 2.45308E+01 0.00000E+00
 -1      1664 1.29466E+02 2.48132E+01 0.00000E+00
 -1      1665 1.27351E+02 2.40821E+01 0.00000E+00
 -1      1666 1.28051E+02 2.42345E+01 0.00000E+00
 -1      1667 1.25679E+02 2.39509E+01 0.00000E+00
 -1      1668 1.26467E+02 2.39498E+01 0.00000E+00
 -1      1669 1.24105E+02 2.42808E+01 0.00000E+00
 -1      1670 1.24805E+02 2.41266E+01 0.00000E+00
 -1      1671 1.22602E+02 2.47722E+01 0.00000E+00
 -1      1672 1.23268E+02 2.44715E+01 0.00000E+00
 -1      1673 1.21343E+02 2.56272E+01 0.00000E+00
 -1      1674 1.21896E+02 2.52267E+01 0.00000E+00
 -1      1675 1.20229E+02 2.67209E+01 0.00000E+00
 -1      1676 1.20722E+02 2.61833E+01 0.00000E+00
 -1      1677 1.19381E+02 2.80629E+01 0.00000E+00
 -1      1678 1.19752E+02 2.74340E+01 0.00000E+00
 -1      1679 1.18760E+02 2.94920E+01 0.00000E+00
 -1      1680 1.18989E+02 2.88158E+01 0.00000E+00
 -1      1681 1.18526E+02 3.10446E+01 0.00000E+00
 -1      1682 1.18614E+02 3.03249E+01 0.00000E+00
 -1      1683 1.18537E+02 3.26360E+01 0.00000E+00
 -1      1684 1.18472E+02 3.19018E+01 0.00000E+00
 -1      1685 1.18932E+02 3.42157E+01 0.00000E+00
 -1      1686 1.18708E+02 3.34975E+01 0.00000E+00
 -1      1687 1.19633E+02 3.56502E+01 0.00000E+00
 -1      1688 1.19276E+02 3.50171E+01 0.00000E+00
 -1      1689 1.20620E+02 3.68481E+01 0.00000E+00
 -1      1690 1.20153E+02 3.63145E+01 0.00000E+00
 -1      1691 1.21786E+02 3.79845E+01 0.00000E+00
 -1      1692 1.21177E+02 3.75295E+01 0.00000E+00
 -1      1693 1.23255E+02 3.86699E+01 0.00000E+00
 -1      1694 1.22591E+02 3.83668E+01 0.00000E+00
 -1      1695 1.24796E+02 3.90622E+01 0.00000E+00
 -1      1696 1.24082E+02 3.89032E+01 0.00000E+00
 -1      1697 1.26463E+02 3.92421E+01 0.00000E+00
 -1      1698 1.25677E+02 3.92407E+01 0.00000E+00
 -1      1699 1.28027E+02 3.89209E+01 0.00000E+00
 -1      1700 1.27333E+02 3.90706E+01 0.00000E+00
 -1      1701 1.29520E+02 3.83948E+01 0.00000E+00
 -1      1702 1.28847E+02 3.86952E+01 0.00000E+00
 -1      1703 1.30809E+02 3.75210E+01 0.00000E+00
 -1      1704 1.30235E+02 3.79362E+01 0.00000E+00
 -1      1705 1.31986E+02 3.64094E+01 0.00000E+00
 -1      1706 1.31476E+02 3.69741E+01 0.00000E+00
 -1      1707 1.32818E+02 3.50722E+01 0.00000E+00
 -1      1708 1.32462E+02 3.56881E+01 0.00000E+00
 -1      1709 1.33423E+02 3.36439E+01 0.00000E+00
 -1      1710 1.33198E+02 3.43244E+01 0.00000E+00
 -1      1711 1.33687E+02 3.20420E+01 0.00000E+00
 -1      1712 1.33605E+02 3.27942E+01 0.00000E+00
 -1      1713 1.32669E+02 2.68219E+01 0.00000E+00
 -1      1714 1.34253E+02 3.16191E+01 0.00000E+00
 -1      1715 1.48437E+02 2.56875E+00 0.00000E+00
 -1      1716 1.47138E+02 3.30625E+00 0.00000E+00
 -1      1717 1.34153E+02 2.98676E+01 0.00000E+00
 -1      1718 1.33625E+02 2.82406E+01 0.00000E+00
 -1      1719 1.31630E+02 2.54313E+01 0.00000E+00
 -1      1720 1.30237E+02 2.44162E+01 0.00000E+00
 -1      1721 1.28616E+02 2.38213E+01 0.00000E+00
 -1      1722 1.26955E+02 2.33927E+01 0.00000E+00
 -1      1723 1.25198E+02 2.34360E+01 0.00000E+00
 -1      1724 1.23488E+02 2.38023E+01 0.00000E+00
 -1      1725 1.21945E+02 2.44475E+01 0.00000E+00
 -1      1726 1.20619E+02 2.54580E+01 0.00000E+00
 -1      1727 1.19521E+02 2.67272E+01 0.00000E+00
 -1      1728 1.18653E+02 2.81931E+01 0.00000E+00
 -1      1729 1.18114E+02 2.97789E+01 0.00000E+00
 -1      1730 1.17914E+02 3.14690E+01 0.00000E+00
 -1      1731 1.18030E+02 3.31877E+01 0.00000E+00
 -1      1732 1.18546E+02 3.48506E+01 0.00000E+00
 -1      1733 1.19410E+02 3.63162E+01 0.00000E+00
 -1      1734 1.20487E+02 3.76619E+01 0.00000E+00
 -1      1735 1.21849E+02 3.87256E+01 0.00000E+00
 -1      1736 1.23480E+02 3.93412E+01 0.00000E+00
 -1      1737 1.25188E+02 3.97529E+01 0.00000E+00
 -1      1738 1.26938E+02 3.97598E+01 0.00000E+00
 -1      1739 1.28627E+02 3.93626E+01 0.00000E+00
 -1      1740 1.30162E+02 3.86783E+01 0.00000E+00
 -1      1741 1.31545E+02 3.76728E+01 0.00000E+00
 -1      1742 1.32688E+02 3.64046E+01 0.00000E+00
 -1      1743 1.33545E+02 3.49354E+01 0.00000E+00
 -1      1744 1.34108E+02 3.33378E+01 0.00000E+00
 -1      1745 2.87400E+00 4.77875E+01 0.00000E+00
 -1      1746 3.89700E+00 4.04125E+01 0.00000E+00
 -1      1747 3.89700E+00 4.18875E+01 0.00000E+00
 -1      1748 3.89700E+00 4.33625E+01 0.00000E+00
 -1      1749 3.89700E+00 4.48375E+01 0.00000E+00
 -1      1750 5.19600E+00 4.26250E+01 0.00000E+00
 -1      1751 3.89700E+00 3.45500E+01 0.00000E+00
 -1      1752 3.89700E+00 3.60000E+01 0.00000E+00
 -1      1753 3.89700E+00 3.16000E+01 0.00000E+00
 -1      1754 3.89700E+00 3.30750E+01 0.00000E+00
 -1      1755 5.19600E+00 3.38000E+01 0.00000E+00
 -1      1756 3.89700E+00 2.86500E+01 0.00000E+00
 -1      1757 3.89700E+00 3.01250E+01 0.00000E+00
 -1      1758 5.19600E+00 3.08500E+01 0.00000E+00
 -1      1759 3.89700E+00 2.57000E+01 0.00000E+00
 -1      1760 3.89700E+00 2.71750E+01 0.00000E+00
 -1      1761 5.19600E+00 2.79000E+01 0.00000E+00
 -1      1762 3.89700E+00 2.27500E+01 0.00000E+00
 -1      1763 3.89700E+00 2.42250E+01 0.00000E+00
 -1      1764 5.19600E+00 2.49500E+01 0.00000E+00
 -1      1765 3.89700E+00 1.98000E+01 0.00000E+00
 -1      1766 3.89700E+00 2.12750E+01 0.00000E+00
 -1      1767 5.19600E+00 2.20000E+01 0.00000E+00
 -1      1768 3.89700E+00 1.69000E+01 0.00000E+00
 -1      1769 3.89700E+00 1.83500E+01 0.00000E+00
 -1      1770 5.19600E+00 1.90750E+01 0.00000E+00
 -1      1771 3.89700E+00 1.39500E+01 0.00000E+00
 -1      1772 3.89700E+00 1.54250E+01 0.00000E+00
 -1      1773 5.19600E+00 1.61500E+01 0.00000E+00
 -1      1774 3.89700E+00 1.10000E+01 0.00000E+00
 -1      1775 3.89700E+00 1.24750E+01 0.00000E+00
 -1      1776 5.19600E+00 1.32000E+01 0.00000E+00
 -1      1777 3.89700E+00 8.05000E+00 0.00000E+00
 -1      1778 3.89700E+00 9.52500E+00 0.00000E+00
 -1      1779 5.19600E+00 1.02500E+01 0.00000E+00
 -1      1780 3.89700E+00 5.10000E+00 0.00000E+00
 -1      1781 3.89700E+00 6.57500E+00 0.00000E+00
 -1      1782 5.19600E+00 7.30000E+00 0.00000E+00
 -1      1783 4.20450E+00 3.09687E+00 0.00000E+00
 -1      1784 4.06650E+00 4.19063E+00 0.00000E+00
 -1      1785 5.36550E+00 4.91563E+00 0.00000E+00
 -1      1786 5.70450E+00 3.09687E+00 0.00000E+00
 -1      1787 3.62400E+00 4.64885E+01 0.00000E+00
 -1      1788 8.70450E+00 3.09687E+00 0.00000E+00
 -1      1789 7.20450E+00 3.09687E+00 0.00000E+00
 -1      1790 7.03500E+00 4.00625E+00 0.00000E+00
 -1      1791 4.92300E+00 4.57510E+01 0.00000E+00
 -1      1792 8.40000E+00 4.61030E+01 0.00000E+00
 -1      1793 9.90000E+00 4.61030E+01 0.00000E+00
 -1      1794 1.14000E+01 4.61030E+01 0.00000E+00
 -1      1795 1.29000E+01 4.61030E+01 0.00000E+00
 -1      1796 1.06500E+01 4.48040E+01 0.00000E+00
 -1      1797 1.44000E+01 4.61030E+01 0.00000E+00
 -1      1798 1.59000E+01 4.61030E+01 0.00000E+00
 -1      1799 1.36500E+01 4.48040E+01 0.00000E+00
 -1      1800 1.74000E+01 4.61030E+01 0.00000E+00
 -1      1801 1.89000E+01 4.61030E+01 0.00000E+00
 -1      1802 1.66500E+01 4.48040E+01 0.00000E+00
 -1      1803 2.04000E+01 4.61030E+01 0.00000E+00
 -1      1804 2.19000E+01 4.61030E+01 0.00000E+00
 -1      1805 1.96500E+01 4.48040E+01 0.00000E+00
 -1      1806 2.34000E+01 4.61030E+01 0.00000E+00
 -1      1807 2.49000E+01 4.61030E+01 0.00000E+00
 -1      1808 2.26500E+01 4.48040E+01 0.00000E+00
 -1      1809 2.64000E+01 4.61030E+01 0.00000E+00
 -1      1810 2.79000E+01 4.61030E+01 0.00000E+00
 -1      1811 2.56500E+01 4.48040E+01 0.00000E+00
 -1      1812 2.94000E+01 4.61030E+01 0.00000E+00
 -1      1813 3.09000E+01 4.61030E+01 0.00000E+00
 -1      1814 2.86500E+01 4.48040E+01 0.00000E+00
 -1      1815 3.24000E+01 4.61030E+01 0.00000E+00
 -1      1816 3.39000E+01 4.61030E+01 0.00000E+00
 -1      1817 3.16500E+01 4.48040E+01 0.00000E+00
 -1      1818 3.54000E+01 4.61030E+01 0.00000E+00
 -1      1819 3.69000E+01 4.61030E+01 0.00000E+00
 -1      1820 3.46500E+01 4.48040E+01 0.00000E+00
 -1      1821 3.84000E+01 4.61030E+01 0.00000E+00
 -1      1822 3.99000E+01 4.61030E+01 0.00000E+00
 -1      1823 3.76500E+01 4.48040E+01 0.00000E+00
 -1      1824 4.14000E+01 4.61030E+01 0.00000E+00
 -1      1825 4.29000E+01 4.61030E+01 0.00000E+00
 -1      1826 4.06500E+01 4.48040E+01 0.00000E+00
 -1      1827 4.44000E+01 4.61030E+01 0.00000E+00
 -1      1828 4.59000E+01 4.61030E+01 0.00000E+00
 -1      1829 4.36500E+01 4.48040E+01 0.00000E+00
 -1      1830 4.74000E+01 4.61030E+01 0.00000E+00
 -1      1831 4.89000E+01 4.61030E+01 0.00000E+00
 -1      1832 4.66500E+01 4.48040E+01 0.00000E+00
 -1      1833 5.04000E+01 4.61030E+01 0.00000E+00
 -1      1834 5.19000E+01 4.61030E+01 0.00000E+00
 -1      1835 4.96500E+01 4.48040E+01 0.00000E+00
 -1      1836 5.34000E+01 4.61030E+01 0.00000E+00
 -1      1837 5.49000E+01 4.61030E+01 0.00000E+00
 -1      1838 5.26500E+01 4.48040E+01 0.00000E+00
 -1      1839 5.64000E+01 4.61030E+01 0.00000E+00
 -1      1840 5.79000E+01 4.61030E+01 0.00000E+00
 -1      1841 5.56500E+01 4.48040E+01 0.00000E+00
 -1      1842 5.94000E+01 4.61030E+01 0.00000E+00
 -1      1843 6.09000E+01 4.61030E+01 0.00000E+00
 -1      1844 5.86500E+01 4.48040E+01 0.00000E+00
 -1      1845 6.24000E+01 4.61030E+01 0.00000E+00
 -1      1846 6.39000E+01 4.61030E+01 0.00000E+00
 -1      1847 6.16500E+01 4.48040E+01 0.00000E+00
 -1      1848 6.54000E+01 4.61030E+01 0.00000E+00
 -1      1849 6.69000E+01 4.61030E+01 0.00000E+00
 -1      1850 6.46500E+01 4.48040E+01 0.00000E+00
 -1      1851 6.84000E+01 4.61030E+01 0.00000E+00
 -1      1852 6.99000E+01 4.61030E+01 0.00000E+00
 -1      1853 6.76500E+01 4.48040E+01 0.00000E+00
 -1      1854 7.14000E+01 4.61030E+01 0.00000E+00
 -1      1855 7.29000E+01 4.61030E+01 0.00000E+00
 -1      1856 7.06500E+01 4.48040E+01 0.00000E+00
 -1      1857 7.44000E+01 4.61030E+01 0.00000E+00
 -1      1858 7.59000E+01 4.61030E+01 0.00000E+00
 -1      1859 7.36500E+01 4.48040E+01 0.00000E+00
 -1      1860 7.74000E+01 4.61030E+01 0.00000E+00
 -1      1861 7.89000E+01 4.61030E+01 0.00000E+00
 -1      1862 7.66500E+01 4.48040E+01 0.00000E+00
 -1      1863 8.04000E+01 4.61030E+01 0.00000E+00
 -1      1864 8.19000E+01 4.61030E+01 0.00000E+00
 -1      1865 7.96500E+01 4.48040E+01 0.00000E+00
 -1      1866 8.34000E+01 4.61030E+01 0.00000E+00
 -1      1867 8.49000E+01 4.61030E+01 0.00000E+00
 -1      1868 8.26500E+01 4.48040E+01 0.00000E+00
 -1      1869 8.64000E+01 4.61030E+01 0.00000E+00
 -1      1870 8.79000E+01 4.61030E+01 0.00000E+00
 -1      1871 8.56500E+01 4.48040E+01 0.00000E+00
 -1      1872 8.94000E+01 4.61030E+01 0.00000E+00
 -1      1873 9.09000E+01 4.61030E+01 0.00000E+00
 -1      1874 8.86500E+01 4.48040E+01 0.00000E+00
 -1      1875 9.24000E+01 4.61030E+01 0.00000E+00
 -1      1876 9.39000E+01 4.61030E+01 0.00000E+00
 -1      1877 9.16500E+01 4.48040E+01 0.00000E+00
 -1      1878 9.54000E+01 4.61030E+01 0.00000E+00
 -1      1879 9.69000E+01 4.61030E+01 0.00000E+00
 -1      1880 9.46500E+01 4.48040E+01 0.00000E+00
 -1      1881 9.84000E+01 4.61030E+01 0.00000E+00
 -1      1882 9.99000E+01 4.61030E+01 0.00000E+00
 -1      1883 9.76500E+01 4.48040E+01 0.00000E+00
 -1      1884 1.01400E+02 4.61030E+01 0.00000E+00
 -1      1885 1.02900E+02 4.61030E+01 0.00000E+00
 -1      1886 1.00650E+02 4.48040E+01 0.00000E+00
 -1      1887 1.04400E+02 4.61030E+01 0.00000E+00
 -1      1888 1.05900E+02 4.61030E+01 0.00000E+00
 -1      1889 1.03650E+02 4.48040E+01 0.00000E+00
 -1      1890 1.07400E+02 4.61030E+01 0.00000E+00
 -1      1891 1.08900E+02 4.61030E+01 0.00000E+00
 -1      1892 1.06650E+02 4.48040E+01 0.00000E+00
 -1      1893 1.10400E+02 4.61030E+01 0.00000E+00
 -1      1894 1.11900E+02 4.61030E+01 0.00000E+00
 -1      1895 1.09650E+02 4.48040E+01 0.00000E+00
 -1      1896 1.13400E+02 4.61030E+01 0.00000E+00
 -1      1897 1.14900E+02 4.61030E+01 0.00000E+00
 -1      1898 1.12650E+02 4.48040E+01 0.00000E+00
 -1      1899 1.16400E+02 4.61030E+01 0.00000E+00
 -1      1900 1.17900E+02 4.61030E+01 0.00000E+00
 -1      1901 1.15650E+02 4.48040E+01 0.00000E+00
 -1      1902 1.19400E+02 4.61030E+01 0.00000E+00
 -1      1903 1.20900E+02 4.61030E+01 0.00000E+00
 -1      1904 1.18650E+02 4.48040E+01 0.00000E+00
 -1      1905 1.22400E+02 4.61030E+01 0.00000E+00
 -1      1906 1.23900E+02 4.61030E+01 0.00000E+00
 -1      1907 1.21650E+02 4.48040E+01 0.00000E+00
 -1      1908 1.25325E+02 4.61030E+01 0.00000E+00
 -1      1909 1.26750E+02 4.61030E+01 0.00000E+00
 -1      1910 1.24575E+02 4.48040E+01 0.00000E+00
 -1      1911 1.28250E+02 4.61030E+01 0.00000E+00
 -1      1912 1.29750E+02 4.61030E+01 0.00000E+00
 -1      1913 1.27500E+02 4.48040E+01 0.00000E+00
 -1      1914 1.31250E+02 4.61030E+01 0.00000E+00
 -1      1915 1.32750E+02 4.61030E+01 0.00000E+00
 -1      1916 1.30500E+02 4.48040E+01 0.00000E+00
 -1      1917 1.34250E+02 4.61030E+01 0.00000E+00
 -1      1918 1.35750E+02 4.61030E+01 0.00000E+00
 -1      1919 1.33500E+02 4.48040E+01 0.00000E+00
 -1      1920 1.37250E+02 4.61030E+01 0.00000E+00
 -1      1921 1.38750E+02 4.61030E+01 0.00000E+00
 -1      1922 1.36500E+02 4.48040E+01 0.00000E+00
 -1      1923 1.40250E+02 4.61030E+01 0.00000E+00
 -1      1924 1.41750E+02 4.61030E+01 0.00000E+00
 -1      1925 1.39500E+02 4.48040E+01 0.00000E+00
 -1      1926 1.43250E+02 4.61030E+01 0.00000E+00
 -1      1927 1.44750E+02 4.61030E+01 0.00000E+00
 -1      1928 1.42500E+02 4.48040E+01 0.00000E+00
 -1      1929 1.46538E+02 4.61825E+01 0.00000E+00
 -1      1930 1.41240E+01 3.48650E+00 0.00000E+00
 -1      1931 1.26240E+01 3.48650E+00 0.00000E+00
 -1      1932 1.71240E+01 3.48650E+00 0.00000E+00
 -1      1933 1.56240E+01 3.48650E+00 0.00000E+00
 -1      1934 1.48740E+01 4.78550E+00 0.00000E+00
 -1      1935 2.01240E+01 3.48650E+00 0.00000E+00
 -1      1936 1.86240E+01 3.48650E+00 0.00000E+00
 -1      1937 1.78740E+01 4.78550E+00 0.00000E+00
 -1      1938 2.31240E+01 3.48650E+00 0.00000E+00
 -1      1939 2.16240E+01 3.48650E+00 0.00000E+00
 -1      1940 2.08740E+01 4.78550E+00 0.00000E+00
 -1      1941 2.61240E+01 3.48650E+00 0.00000E+00
 -1      1942 2.46240E+01 3.48650E+00 0.00000E+00
 -1      1943 2.38740E+01 4.78550E+00 0.00000E+00
 -1      1944 2.91240E+01 3.48650E+00 0.00000E+00
 -1      1945 2.76240E+01 3.48650E+00 0.00000E+00
 -1      1946 2.68740E+01 4.78550E+00 0.00000E+00
 -1      1947 3.21240E+01 3.48650E+00 0.00000E+00
 -1      1948 3.06240E+01 3.48650E+00 0.00000E+00
 -1      1949 2.98740E+01 4.78550E+00 0.00000E+00
 -1      1950 3.51240E+01 3.48650E+00 0.00000E+00
 -1      1951 3.36240E+01 3.48650E+00 0.00000E+00
 -1      1952 3.28740E+01 4.78550E+00 0.00000E+00
 -1      1953 3.81240E+01 3.48650E+00 0.00000E+00
 -1      1954 3.66240E+01 3.48650E+00 0.00000E+00
 -1      1955 3.58740E+01 4.78550E+00 0.00000E+00
 -1      1956 4.11240E+01 3.48650E+00 0.00000E+00
 -1      1957 3.96240E+01 3.48650E+00 0.00000E+00
 -1      1958 3.88740E+01 4.78550E+00 0.00000E+00
 -1      1959 4.41240E+01 3.48650E+00 0.00000E+00
 -1      1960 4.26240E+01 3.48650E+00 0.00000E+00
 -1      1961 4.18740E+01 4.78550E+00 0.00000E+00
 -1      1962 4.71240E+01 3.48650E+00 0.00000E+00
 -1      1963 4.56240E+01 3.48650E+00 0.00000E+00
 -1      1964 4.48740E+01 4.78550E+00 0.00000E+00
 -1      1965 5.01240E+01 3.48650E+00 0.00000E+00
 -1      1966 4.86240E+01 3.48650E+00 0.00000E+00
 -1      1967 4.78740E+01 4.78550E+00 0.00000E+00
 -1      1968 5.31240E+01 3.48650E+00 0.00000E+00
 -1      1969 5.16240E+01 3.48650E+00 0.00000E+00
 -1      1970 5.08740E+01 4.78550E+00 0.00000E+00
 -1      1971 5.61240E+01 3.48650E+00 0.00000E+00
 -1      1972 5.46240E+01 3.48650E+00 0.00000E+00
 -1      1973 5.38740E+01 4.78550E+00 0.00000E+00
 -1      1974 5.91240E+01 3.48650E+00 0.00000E+00
 -1      1975 5.76240E+01 3.48650E+00 0.00000E+00
 -1      1976 5.68740E+01 4.78550E+00 0.00000E+00
 -1      1977 6.21240E+01 3.48650E+00 0.00000E+00
 -1      1978 6.06240E+01 3.48650E+00 0.00000E+00
 -1      1979 5.98740E+01 4.78550E+00 0.00000E+00
 -1      1980 6.51240E+01 3.48650E+00 0.00000E+00
 -1      1981 6.36240E+01 3.48650E+00 0.00000E+00
 -1      1982 6.28740E+01 4.78550E+00 0.00000E+00
 -1      1983 6.81240E+01 3.48650E+00 0.00000E+00
 -1      1984 6.66240E+01 3.48650E+00 0.00000E+00
 -1      1985 6.58740E+01 4.78550E+00 0.00000E+00
 -1      1986 7.11240E+01 3.48650E+00 0.00000E+00
 -1      1987 6.96240E+01 3.48650E+00 0.00000E+00
 -1      1988 6.88740E+01 4.78550E+00 0.00000E+00
 -1      1989 7.41240E+01 3.48650E+00 0.00000E+00
 -1      1990 7.26240E+01 3.48650E+00 0.00000E+00
 -1      1991 7.18740E+01 4.78550E+00 0.00000E+00
 -1      1992 7.71240E+01 3.48650E+00 0.00000E+00
 -1      1993 7.56240E+01 3.48650E+00 0.00000E+00
 -1      1994 7.48740E+01 4.78550E+00 0.00000E+00
 -1      1995 8.01240E+01 3.48650E+00 0.00000E+00
 -1      1996 7.86240E+01 3.48650E+00 0.00000E+00
 -1      1997 7.78740E+01 4.78550E+00 0.00000E+00
 -1      1998 8.31240E+01 3.48650E+00 0.00000E+00
 -1      1999 8.16240E+01 3.48650E+00 0.00000E+00
 -1      2000 8.08740E+01 4.78550E+00 0.00000E+00
 -1      2001 8.61240E+01 3.48650E+00 0.00000E+00
 -1      2002 8.46240E+01 3.48650E+00 0.00000E+00
 -1      2003 8.38740E+01 4.78550E+00 0.00000E+00
 -1      2004 8.91240E+01 3.48650E+00 0.00000E+00
 -1      2005 8.76240E+01 3.48650E+00 0.00000E+00
 -1      2006 8.68740E+01 4.78550E+00 0.00000E+00
 -1      2007 9.21240E+01 3.48650E+00 0.00000E+00
 -1      2008 9.06240E+01 3.48650E+00 0.00000E+00
 -1      2009 8.98740E+01 4.78550E+00 0.00000E+00
 -1      2010 9.51240E+01 3.48650E+00 0.00000E+00
 -1      2011 9.36240E+01 3.48650E+00 0.00000E+00
 -1      2012 9.28740E+01 4.78550E+00 0.00000E+00
 -1      2013 9.81240E+01 3.48650E+00 0.00000E+00
 -1      2014 9.66240E+01 3.48650E+00 0.00000E+00
 -1      2015 9.58740E+01 4.78550E+00 0.00000E+00
 -1      2016 1.01124E+02 3.48650E+00 0.00000E+00
 -1      2017 9.96240E+01 3.48650E+00 0.00000E+00
 -1      2018 9.88740E+01 4.78550E+00 0.00000E+00
 -1      2019 1.04124E+02 3.48650E+00 0.00000E+00
 -1      2020 1.02624E+02 3.48650E+00 0.00000E+00
 -1      2021 1.01874E+02 4.78550E+00 0.00000E+00
 -1      2022 1.07124E+02 3.48650E+00 0.00000E+00
 -1      2023 1.05624E+02 3.48650E+00 0.00000E+00
 -1      2024 1.04874E+02 4.78550E+00 0.00000E+00
 -1      2025 1.10124E+02 3.48650E+00 0.00000E+00
 -1      2026 1.08624E+02 3.48650E+00 0.00000E+00
 -1      2027 1.07874E+02 4.78550E+00 0.00000E+00
 -1      2028 1.13124E+02 3.48650E+00 0.00000E+00
 -1      2029 1.11624E+02 3.48650E+00 0.00000E+00
 -1      2030 1.10874E+02 4.78550E+00 0.00000E+00
 -1      2031 1.16124E+02 3.48650E+00 0.00000E+00
 -1      2032 1.14624E+02 3.48650E+00 0.00000E+00
 -1      2033 1.13874E+02 4.78550E+00 0.00000E+00
 -1      2034 1.19124E+02 3.48650E+00 0.00000E+00
 -1      2035 1.17624E+02 3.48650E+00 0.00000E+00
 -1      2036 1.16874E+02 4.78550E+00 0.00000E+00
 -1      2037 1.22124E+02 3.48650E+00 0.00000E+00
 -1      2038 1.20624E+02 3.48650E+00 0.00000E+00
 -1      2039 1.19874E+02 4.78550E+00 0.00000E+00
 -1      2040 1.25124E+02 3.48650E+00 0.00000E+00
 -1      2041 1.23624E+02 3.48650E+00 0.00000E+00
 -1      2042 1.22874E+02 4.78550E+00 0.00000E+00
 -1      2043 1.28124E+02 3.48650E+00 0.00000E+00
 -1      2044 1.26624E+02 3.48650E+00 0.00000E+00
 -1      2045 1.25874E+02 4.78550E+00 0.00000E+00
 -1      2046 1.31124E+02 3.48650E+00 0.00000E+00
 -1      2047 1.29624E+02 3.48650E+00 0.00000E+00
 -1      2048 1.28874E+02 4.78550E+00 0.00000E+00
 -1      2049 1.34124E+02 3.48650E+00 0.00000E+00
 -1      2050 1.32624E+02 3.48650E+00 0.00000E+00
 -1      2051 1.31874E+02 4.78550E+00 0.00000E+00
 -1      2052 1.37124E+02 3.48650E+00 0.00000E+00
 -1      2053 1.35624E+02 3.48650E+00 0.00000E+00
 -1      2054 1.34874E+02 4.78550E+00 0.00000E+00
 -1      2055 1.40124E+02 3.48650E+00 0.00000E+00
 -1      2056 1.38624E+02 3.48650E+00 0.00000E+00
 -1      2057 1.37874E+02 4.78550E+00 0.00000E+00
 -1      2058 1.43124E+02 3.48650E+00 0.00000E+00
 -1      2059 1.41624E+02 3.48650E+00 0.00000E+00
 -1      2060 1.40874E+02 4.78550E+00 0.00000E+00
 -1      2061 1.45881E+02 3.39637E+00 0.00000E+00
 -1      2062 1.44381E+02 3.39637E+00 0.00000E+00
 -1      2063 1.43631E+02 4.69537E+00 0.00000E+00
 -1      2064 1.46145E+02 4.51512E+00 0.00000E+00
 -1      2065 1.46103E+02 1.25375E+01 0.00000E+00
 -1      2066 1.46103E+02 1.10625E+01 0.00000E+00
 -1      2067 1.46103E+02 9.58750E+00 0.00000E+00
 -1      2068 1.46103E+02 8.11250E+00 0.00000E+00
 -1      2069 1.44804E+02 1.03250E+01 0.00000E+00
 -1      2070 1.46145E+02 5.99013E+00 0.00000E+00
 -1      2071 1.46103E+02 1.54875E+01 0.00000E+00
 -1      2072 1.46103E+02 1.40125E+01 0.00000E+00
 -1      2073 1.44804E+02 1.32750E+01 0.00000E+00
 -1      2074 1.46103E+02 1.84375E+01 0.00000E+00
 -1      2075 1.46103E+02 1.69625E+01 0.00000E+00
 -1      2076 1.44804E+02 1.62250E+01 0.00000E+00
 -1      2077 1.46103E+02 2.13375E+01 0.00000E+00
 -1      2078 1.46103E+02 1.98875E+01 0.00000E+00
 -1      2079 1.44804E+02 1.91500E+01 0.00000E+00
 -1      2080 1.46103E+02 2.42875E+01 0.00000E+00
 -1      2081 1.46103E+02 2.28125E+01 0.00000E+00
 -1      2082 1.44804E+02 2.20750E+01 0.00000E+00
 -1      2083 1.46103E+02 2.72375E+01 0.00000E+00
 -1      2084 1.46103E+02 2.57625E+01 0.00000E+00
 -1      2085 1.44804E+02 2.50250E+01 0.00000E+00
 -1      2086 1.46103E+02 3.01375E+01 0.00000E+00
 -1      2087 1.46103E+02 2.86875E+01 0.00000E+00
 -1      2088 1.44804E+02 2.79500E+01 0.00000E+00
 -1      2089 1.46103E+02 3.30875E+01 0.00000E+00
 -1      2090 1.46103E+02 3.16125E+01 0.00000E+00
 -1      2091 1.44804E+02 3.08750E+01 0.00000E+00
 -1      2092 1.46103E+02 3.60375E+01 0.00000E+00
 -1      2093 1.46103E+02 3.45625E+01 0.00000E+00
 -1      2094 1.44804E+02 3.38250E+01 0.00000E+00
 -1      2095 1.46103E+02 3.89875E+01 0.00000E+00
 -1      2096 1.46103E+02 3.75125E+01 0.00000E+00
 -1      2097 1.44804E+02 3.67750E+01 0.00000E+00
 -1      2098 1.46103E+02 4.19375E+01 0.00000E+00
 -1      2099 1.46103E+02 4.04625E+01 0.00000E+00
 -1      2100 1.44804E+02 3.97250E+01 0.00000E+00
 -1      2101 1.14143E+01 3.29169E+00 0.00000E+00
 -1      2102 9.91425E+00 3.29169E+00 0.00000E+00
 -1      2103 9.74475E+00 4.20106E+00 0.00000E+00
 -1      2104 1.21643E+01 4.59069E+00 0.00000E+00
 -1      2105 1.34046E+02 2.74570E+01 0.00000E+00
 -1      2106 1.34514E+02 2.82015E+01 0.00000E+00
 -1      2107 1.31969E+02 2.46020E+01 0.00000E+00
 -1      2108 1.32519E+02 2.53184E+01 0.00000E+00
 -1      2109 1.34923E+02 3.11545E+01 0.00000E+00
 -1      2110 1.34961E+02 3.20236E+01 0.00000E+00
 -1      2111 1.33039E+02 2.60506E+01 0.00000E+00
 -1      2112 1.33527E+02 2.67248E+01 0.00000E+00
 -1      2113 1.34416E+02 2.66857E+01 0.00000E+00
 -1      2114 1.33377E+02 2.52213E+01 0.00000E+00
 -1      2115 3.89700E+00 3.74688E+01 0.00000E+00
 -1      2116 3.89700E+00 3.89437E+01 0.00000E+00
 -1      2117 5.19600E+00 3.96813E+01 0.00000E+00
 -1      2118 5.19600E+00 3.67438E+01 0.00000E+00
 -1      2119 1.30129E+02 2.33795E+01 0.00000E+00
 -1      2120 1.30973E+02 2.36781E+01 0.00000E+00
 -1      2121 1.28575E+02 2.27869E+01 0.00000E+00
 -1      2122 1.29352E+02 2.30832E+01 0.00000E+00
 -1      2123 1.30088E+02 2.23450E+01 0.00000E+00
 -1      2124 1.26616E+02 2.26442E+01 0.00000E+00
 -1      2125 1.27499E+02 2.27765E+01 0.00000E+00
 -1      2126 1.24609E+02 2.27653E+01 0.00000E+00
 -1      2127 1.25483E+02 2.25896E+01 0.00000E+00
 -1      2128 1.22936E+02 2.31466E+01 0.00000E+00
 -1      2129 1.23772E+02 2.29559E+01 0.00000E+00
 -1      2130 1.24057E+02 2.21095E+01 0.00000E+00
 -1      2131 1.21219E+02 2.40946E+01 0.00000E+00
 -1      2132 1.21925E+02 2.36401E+01 0.00000E+00
 -1      2133 1.19848E+02 2.52220E+01 0.00000E+00
 -1      2134 1.20469E+02 2.46659E+01 0.00000E+00
 -1      2135 1.18639E+02 2.66538E+01 0.00000E+00
 -1      2136 1.19116E+02 2.59407E+01 0.00000E+00
 -1      2137 1.17882E+02 2.82703E+01 0.00000E+00
 -1      2138 1.18274E+02 2.75174E+01 0.00000E+00
 -1      2139 1.17321E+02 3.00689E+01 0.00000E+00
 -1      2140 1.17467E+02 2.92360E+01 0.00000E+00
 -1      2141 1.17211E+02 3.17834E+01 0.00000E+00
 -1      2142 1.17266E+02 3.09261E+01 0.00000E+00
 -1      2143 1.16618E+02 3.03832E+01 0.00000E+00
 -1      2144 1.17398E+02 3.37611E+01 0.00000E+00
 -1      2145 1.17226E+02 3.28996E+01 0.00000E+00
 -1      2146 1.18084E+02 3.55238E+01 0.00000E+00
 -1      2147 1.17739E+02 3.47224E+01 0.00000E+00
 -1      2148 1.19061E+02 3.71255E+01 0.00000E+00
 -1      2149 1.18541E+02 3.64612E+01 0.00000E+00
 -1      2150 1.20174E+02 3.84884E+01 0.00000E+00
 -1      2151 1.19618E+02 3.78069E+01 0.00000E+00
 -1      2152 1.18748E+02 3.79520E+01 0.00000E+00
 -1      2153 1.21884E+02 3.96915E+01 0.00000E+00
 -1      2154 1.21078E+02 3.93092E+01 0.00000E+00
 -1      2155 1.23706E+02 4.01218E+01 0.00000E+00
 -1      2156 1.22880E+02 3.98886E+01 0.00000E+00
 -1      2157 1.25468E+02 4.04788E+01 0.00000E+00
 -1      2158 1.24587E+02 4.03003E+01 0.00000E+00
 -1      2159 1.23987E+02 4.08478E+01 0.00000E+00
 -1      2160 1.27507E+02 4.03510E+01 0.00000E+00
 -1      2161 1.26637E+02 4.05225E+01 0.00000E+00
 -1      2162 1.29209E+02 3.98746E+01 0.00000E+00
 -1      2163 1.28390E+02 4.01003E+01 0.00000E+00
 -1      2164 1.30983E+02 3.91708E+01 0.00000E+00
 -1      2165 1.30268E+02 3.96294E+01 0.00000E+00
 -1      2166 1.32263E+02 3.78683E+01 0.00000E+00
 -1      2167 1.31595E+02 3.84152E+01 0.00000E+00
 -1      2168 1.33502E+02 3.64241E+01 0.00000E+00
 -1      2169 1.33026E+02 3.71455E+01 0.00000E+00
 -1      2170 1.34425E+02 3.49123E+01 0.00000E+00
 -1      2171 1.34045E+02 3.56602E+01 0.00000E+00
 -1      2172 1.34915E+02 3.30665E+01 0.00000E+00
 -1      2173 1.34733E+02 3.39162E+01 0.00000E+00
 -1      2174 1.34811E+02 2.93785E+01 0.00000E+00
 -1      2175 1.34872E+02 3.02610E+01 0.00000E+00
 -1      2176 1.45788E+02 4.48835E+01 0.00000E+00
 -1      2177 6.42300E+00 4.57510E+01 0.00000E+00
 -1      2178 1.22209E+02 2.27937E+01 0.00000E+00
 -1      2179 1.31861E+02 2.35652E+01 0.00000E+00
 -1      2180 7.17300E+00 4.44520E+01 0.00000E+00
 -1      2181 1.44846E+02 6.72762E+00 0.00000E+00
 -1      2182 1.35581E+02 3.06654E+01 0.00000E+00
 -1      2183 1.45701E+02 4.37395E+01 0.00000E+00
 -1      2184 1.35654E+02 2.78113E+01 0.00000E+00
 -1      2185 1.35233E+02 2.85949E+01 0.00000E+00
 -1      2186 1.35952E+02 2.89883E+01 0.00000E+00
 -1      2187 1.35585E+02 3.26019E+01 0.00000E+00
 -1      2188 1.35232E+02 3.46410E+01 0.00000E+00
 -1      2189 1.34382E+02 3.64011E+01 0.00000E+00
 -1      2190 1.33077E+02 3.78878E+01 0.00000E+00
 -1      2191 1.31701E+02 3.93663E+01 0.00000E+00
 -1      2192 1.30030E+02 4.03671E+01 0.00000E+00
 -1      2193 1.26036E+02 4.10700E+01 0.00000E+00
 -1      2194 1.25436E+02 4.16174E+01 0.00000E+00
 -1      2195 1.26605E+02 4.16611E+01 0.00000E+00
 -1      2196 1.20209E+02 3.94542E+01 0.00000E+00
 -1      2197 1.17735E+02 3.63331E+01 0.00000E+00
 -1      2198 1.16579E+02 3.23567E+01 0.00000E+00
 -1      2199 1.17088E+02 2.85603E+01 0.00000E+00
 -1      2200 1.17869E+02 2.67309E+01 0.00000E+00
 -1      2201 1.18966E+02 2.51486E+01 0.00000E+00
 -1      2202 1.28235E+02 2.20383E+01 0.00000E+00
 -1      2203 1.26026E+02 2.19734E+01 0.00000E+00
 -1      2204 1.20448E+02 2.38586E+01 0.00000E+00
 -1      2205 1.16936E+02 3.44343E+01 0.00000E+00
 -1      2206 1.22109E+02 4.04722E+01 0.00000E+00
 -1      2207 1.28088E+02 4.08630E+01 0.00000E+00
 -1      2208 1.44402E+02 4.30020E+01 0.00000E+00
 -1      2209 6.49500E+00 3.01125E+01 0.00000E+00
 -1      2210 6.49500E+00 3.15875E+01 0.00000E+00
 -1      2211 6.49500E+00 3.30625E+01 0.00000E+00
 -1      2212 6.49500E+00 3.45375E+01 0.00000E+00
 -1      2213 7.79400E+00 3.23250E+01 0.00000E+00
 -1      2214 6.49500E+00 2.42125E+01 0.00000E+00
 -1      2215 6.49500E+00 2.56875E+01 0.00000E+00
 -1      2216 6.49500E+00 2.12625E+01 0.00000E+00
 -1      2217 6.49500E+00 2.27375E+01 0.00000E+00
 -1      2218 7.79400E+00 2.34750E+01 0.00000E+00
 -1      2219 6.49500E+00 1.83625E+01 0.00000E+00
 -1      2220 6.49500E+00 1.98125E+01 0.00000E+00
 -1      2221 7.79400E+00 2.05500E+01 0.00000E+00
 -1      2222 6.49500E+00 1.54125E+01 0.00000E+00
 -1      2223 6.49500E+00 1.68875E+01 0.00000E+00
 -1      2224 7.79400E+00 1.76250E+01 0.00000E+00
 -1      2225 6.49500E+00 1.24625E+01 0.00000E+00
 -1      2226 6.49500E+00 1.39375E+01 0.00000E+00
 -1      2227 7.79400E+00 1.46750E+01 0.00000E+00
 -1      2228 6.49500E+00 9.51250E+00 0.00000E+00
 -1      2229 6.49500E+00 1.09875E+01 0.00000E+00
 -1      2230 7.79400E+00 1.17250E+01 0.00000E+00
 -1      2231 6.49500E+00 6.56250E+00 0.00000E+00
 -1      2232 6.49500E+00 8.03750E+00 0.00000E+00
 -1      2233 7.79400E+00 8.77500E+00 0.00000E+00
 -1      2234 6.84975E+00 4.82969E+00 0.00000E+00
 -1      2235 6.68025E+00 5.73906E+00 0.00000E+00
 -1      2236 7.97925E+00 6.47656E+00 0.00000E+00
 -1      2237 8.34975E+00 4.82969E+00 0.00000E+00
 -1      2238 9.90000E+00 4.35050E+01 0.00000E+00
 -1      2239 1.14000E+01 4.35050E+01 0.00000E+00
 -1      2240 1.21364E+02 2.23451E+01 0.00000E+00
 -1      2241 1.22375E+02 2.18516E+01 0.00000E+00
 -1      2242 1.43589E+02 6.81775E+00 0.00000E+00
 -1      2243 1.29000E+01 4.35050E+01 0.00000E+00
 -1      2244 1.44000E+01 4.35050E+01 0.00000E+00
 -1      2245 1.21500E+01 4.22060E+01 0.00000E+00
 -1      2246 1.59000E+01 4.35050E+01 0.00000E+00
 -1      2247 1.74000E+01 4.35050E+01 0.00000E+00
 -1      2248 1.51500E+01 4.22060E+01 0.00000E+00
 -1      2249 1.89000E+01 4.35050E+01 0.00000E+00
 -1      2250 2.04000E+01 4.35050E+01 0.00000E+00
 -1      2251 1.81500E+01 4.22060E+01 0.00000E+00
 -1      2252 2.19000E+01 4.35050E+01 0.00000E+00
 -1      2253 2.34000E+01 4.35050E+01 0.00000E+00
 -1      2254 2.11500E+01 4.22060E+01 0.00000E+00
 -1      2255 2.49000E+01 4.35050E+01 0.00000E+00
 -1      2256 2.64000E+01 4.35050E+01 0.00000E+00
 -1      2257 2.41500E+01 4.22060E+01 0.00000E+00
 -1      2258 2.79000E+01 4.35050E+01 0.00000E+00
 -1      2259 2.94000E+01 4.35050E+01 0.00000E+00
 -1      2260 2.71500E+01 4.22060E+01 0.00000E+00
 -1      2261 3.09000E+01 4.35050E+01 0.00000E+00
 -1      2262 3.24000E+01 4.35050E+01 0.00000E+00
 -1      2263 3.01500E+01 4.22060E+01 0.00000E+00
 -1      2264 3.39000E+01 4.35050E+01 0.00000E+00
 -1      2265 3.54000E+01 4.35050E+01 0.00000E+00
 -1      2266 3.31500E+01 4.22060E+01 0.00000E+00
 -1      2267 3.69000E+01 4.35050E+01 0.00000E+00
 -1      2268 3.84000E+01 4.35050E+01 0.00000E+00
 -1      2269 3.61500E+01 4.22060E+01 0.00000E+00
 -1      2270 3.99000E+01 4.35050E+01 0.00000E+00
 -1      2271 4.14000E+01 4.35050E+01 0.00000E+00
 -1      2272 3.91500E+01 4.22060E+01 0.00000E+00
 -1      2273 4.29000E+01 4.35050E+01 0.00000E+00
 -1      2274 4.44000E+01 4.35050E+01 0.00000E+00
 -1      2275 4.21500E+01 4.22060E+01 0.00000E+00
 -1      2276 4.59000E+01 4.35050E+01 0.00000E+00
 -1      2277 4.74000E+01 4.35050E+01 0.00000E+00
 -1      2278 4.51500E+01 4.22060E+01 0.00000E+00
 -1      2279 4.89000E+01 4.35050E+01 0.00000E+00
 -1      2280 5.04000E+01 4.35050E+01 0.00000E+00
 -1      2281 4.81500E+01 4.22060E+01 0.00000E+00
 -1      2282 5.19000E+01 4.35050E+01 0.00000E+00
 -1      2283 5.34000E+01 4.35050E+01 0.00000E+00
 -1      2284 5.11500E+01 4.22060E+01 0.00000E+00
 -1      2285 5.49000E+01 4.35050E+01 0.00000E+00
 -1      2286 5.64000E+01 4.35050E+01 0.00000E+00
 -1      2287 5.41500E+01 4.22060E+01 0.00000E+00
 -1      2288 5.79000E+01 4.35050E+01 0.00000E+00
 -1      2289 5.94000E+01 4.35050E+01 0.00000E+00
 -1      2290 5.71500E+01 4.22060E+01 0.00000E+00
 -1      2291 6.09000E+01 4.35050E+01 0.00000E+00
 -1      2292 6.24000E+01 4.35050E+01 0.00000E+00
 -1      2293 6.01500E+01 4.22060E+01 0.00000E+00
 -1      2294 6.39000E+01 4.35050E+01 0.00000E+00
 -1      2295 6.54000E+01 4.35050E+01 0.00000E+00
 -1      2296 6.31500E+01 4.22060E+01 0.00000E+00
 -1      2297 6.69000E+01 4.35050E+01 0.00000E+00
 -1      2298 6.84000E+01 4.35050E+01 0.00000E+00
 -1      2299 6.61500E+01 4.22060E+01 0.00000E+00
 -1      2300 6.99000E+01 4.35050E+01 0.00000E+00
 -1      2301 7.14000E+01 4.35050E+01 0.00000E+00
 -1      2302 6.91500E+01 4.22060E+01 0.00000E+00
 -1      2303 7.29000E+01 4.35050E+01 0.00000E+00
 -1      2304 7.44000E+01 4.35050E+01 0.00000E+00
 -1      2305 7.21500E+01 4.22060E+01 0.00000E+00
 -1      2306 7.59000E+01 4.35050E+01 0.00000E+00
 -1      2307 7.74000E+01 4.35050E+01 0.00000E+00
 -1      2308 7.51500E+01 4.22060E+01 0.00000E+00
 -1      2309 7.89000E+01 4.35050E+01 0.00000E+00
 -1      2310 8.04000E+01 4.35050E+01 0.00000E+00
 -1      2311 7.81500E+01 4.22060E+01 0.00000E+00
 -1      2312 8.19000E+01 4.35050E+01 0.00000E+00
 -1      2313 8.34000E+01 4.35050E+01 0.00000E+00
 -1      2314 8.11500E+01 4.22060E+01 0.00000E+00
 -1      2315 8.49000E+01 4.35050E+01 0.00000E+00
 -1      2316 8.64000E+01 4.35050E+01 0.00000E+00
 -1      2317 8.41500E+01 4.22060E+01 0.00000E+00
 -1      2318 8.79000E+01 4.35050E+01 0.00000E+00
 -1      2319 8.94000E+01 4.35050E+01 0.00000E+00
 -1      2320 8.71500E+01 4.22060E+01 0.00000E+00
 -1      2321 9.09000E+01 4.35050E+01 0.00000E+00
 -1      2322 9.24000E+01 4.35050E+01 0.00000E+00
 -1      2323 9.01500E+01 4.22060E+01 0.00000E+00
 -1      2324 9.39000E+01 4.35050E+01 0.00000E+00
 -1      2325 9.54000E+01 4.35050E+01 0.00000E+00
 -1      2326 9.31500E+01 4.22060E+01 0.00000E+00
 -1      2327 9.69000E+01 4.35050E+01 0.00000E+00
 -1      2328 9.84000E+01 4.35050E+01 0.00000E+00
 -1      2329 9.61500E+01 4.22060E+01 0.00000E+00
 -1      2330 9.99000E+01 4.35050E+01 0.00000E+00
 -1      2331 1.01400E+02 4.35050E+01 0.00000E+00
 -1      2332 9.91500E+01 4.22060E+01 0.00000E+00
 -1      2333 1.02900E+02 4.35050E+01 0.00000E+00
 -1      2334 1.04400E+02 4.35050E+01 0.00000E+00
 -1      2335 1.02150E+02 4.22060E+01 0.00000E+00
 -1      2336 1.05900E+02 4.35050E+01 0.00000E+00
 -1      2337 1.07400E+02 4.35050E+01 0.00000E+00
 -1      2338 1.05150E+02 4.22060E+01 0.00000E+00
 -1      2339 1.08900E+02 4.35050E+01 0.00000E+00
 -1      2340 1.10400E+02 4.35050E+01 0.00000E+00
 -1      2341 1.08150E+02 4.22060E+01 0.00000E+00
 -1      2342 1.11900E+02 4.35050E+01 0.00000E+00
 -1      2343 1.13400E+02 4.35050E+01 0.00000E+00
 -1      2344 1.11150E+02 4.22060E+01 0.00000E+00
 -1      2345 1.14900E+02 4.35050E+01 0.00000E+00
 -1      2346 1.16400E+02 4.35050E+01 0.00000E+00
 -1      2347 1.14150E+02 4.22060E+01 0.00000E+00
 -1      2348 1.17900E+02 4.35050E+01 0.00000E+00
 -1      2349 1.19400E+02 4.35050E+01 0.00000E+00
 -1      2350 1.17150E+02 4.22060E+01 0.00000E+00
 -1      2351 1.20900E+02 4.37789E+01 0.00000E+00
 -1      2352 1.22400E+02 4.37789E+01 0.00000E+00
 -1      2353 1.23863E+02 4.38627E+01 0.00000E+00
 -1      2354 1.25287E+02 4.38627E+01 0.00000E+00
 -1      2355 1.26750E+02 4.37789E+01 0.00000E+00
 -1      2356 1.28250E+02 4.37789E+01 0.00000E+00
 -1      2357 1.29750E+02 4.36951E+01 0.00000E+00
 -1      2358 1.31250E+02 4.36951E+01 0.00000E+00
 -1      2359 1.32750E+02 4.36113E+01 0.00000E+00
 -1      2360 1.34250E+02 4.36113E+01 0.00000E+00
 -1      2361 1.35750E+02 4.36113E+01 0.00000E+00
 -1      2362 1.37250E+02 4.36113E+01 0.00000E+00
 -1      2363 1.35000E+02 4.24186E+01 0.00000E+00
 -1      2364 1.38750E+02 4.36113E+01 0.00000E+00
 -1      2365 1.40250E+02 4.36113E+01 0.00000E+00
 -1      2366 1.38000E+02 4.24186E+01 0.00000E+00
 -1      2367 1.41576E+02 4.33067E+01 0.00000E+00
 -1      2368 1.43076E+02 4.33067E+01 0.00000E+00
 -1      2369 1.43478E+02 4.15047E+01 0.00000E+00
 -1      2370 1.40826E+02 4.21140E+01 0.00000E+00
 -1      2371 2.16240E+01 6.08450E+00 0.00000E+00
 -1      2372 2.01240E+01 6.08450E+00 0.00000E+00
 -1      2373 1.86240E+01 6.08450E+00 0.00000E+00
 -1      2374 1.71240E+01 6.08450E+00 0.00000E+00
 -1      2375 1.93740E+01 7.38350E+00 0.00000E+00
 -1      2376 1.56240E+01 6.08450E+00 0.00000E+00
 -1      2377 1.41240E+01 6.08450E+00 0.00000E+00
 -1      2378 1.63740E+01 7.38350E+00 0.00000E+00
 -1      2379 2.46240E+01 6.08450E+00 0.00000E+00
 -1      2380 2.31240E+01 6.08450E+00 0.00000E+00
 -1      2381 2.23740E+01 7.38350E+00 0.00000E+00
 -1      2382 2.76240E+01 6.08450E+00 0.00000E+00
 -1      2383 2.61240E+01 6.08450E+00 0.00000E+00
 -1      2384 2.53740E+01 7.38350E+00 0.00000E+00
 -1      2385 3.06240E+01 6.08450E+00 0.00000E+00
 -1      2386 2.91240E+01 6.08450E+00 0.00000E+00
 -1      2387 2.83740E+01 7.38350E+00 0.00000E+00
 -1      2388 3.36240E+01 6.08450E+00 0.00000E+00
 -1      2389 3.21240E+01 6.08450E+00 0.00000E+00
 -1      2390 3.13740E+01 7.38350E+00 0.00000E+00
 -1      2391 3.66240E+01 6.08450E+00 0.00000E+00
 -1      2392 3.51240E+01 6.08450E+00 0.00000E+00
 -1      2393 3.43740E+01 7.38350E+00 0.00000E+00
 -1      2394 3.96240E+01 6.08450E+00 0.00000E+00
 -1      2395 3.81240E+01 6.08450E+00 0.00000E+00
 -1      2396 3.73740E+01 7.38350E+00 0.00000E+00
 -1      2397 4.26240E+01 6.08450E+00 0.00000E+00
 -1      2398 4.11240E+01 6.08450E+00 0.00000E+00
 -1      2399 4.03740E+01 7.38350E+00 0.00000E+00
 -1      2400 4.56240E+01 6.08450E+00 0.00000E+00
 -1      2401 4.41240E+01 6.08450E+00 0.00000E+00
 -1      2402 4.33740E+01 7.38350E+00 0.00000E+00
 -1      2403 4.86240E+01 6.08450E+00 0.00000E+00
 -1      2404 4.71240E+01 6.08450E+00 0.00000E+00
 -1      2405 4.63740E+01 7.38350E+00 0.00000E+00
 -1      2406 5.16240E+01 6.08450E+00 0.00000E+00
 -1      2407 5.01240E+01 6.08450E+00 0.00000E+00
 -1      2408 4.93740E+01 7.38350E+00 0.00000E+00
 -1      2409 5.46240E+01 6.08450E+00 0.00000E+00
 -1      2410 5.31240E+01 6.08450E+00 0.00000E+00
 -1      2411 5.23740E+01 7.38350E+00 0.00000E+00
 -1      2412 5.76240E+01 6.08450E+00 0.00000E+00
 -1      2413 5.61240E+01 6.08450E+00 0.00000E+00
 -1      2414 5.53740E+01 7.38350E+00 0.00000E+00
 -1      2415 6.06240E+01 6.08450E+00 0.00000E+00
 -1      2416 5.91240E+01 6.08450E+00 0.00000E+00
 -1      2417 5.83740E+01 7.38350E+00 0.00000E+00
 -1      2418 6.36240E+01 6.08450E+00 0.00000E+00
 -1      2419 6.21240E+01 6.08450E+00 0.00000E+00
 -1      2420 6.13740E+01 7.38350E+00 0.00000E+00
 -1      2421 6.66240E+01 6.08450E+00 0.00000E+00
 -1      2422 6.51240E+01 6.08450E+00 0.00000E+00
 -1      2423 6.43740E+01 7.38350E+00 0.00000E+00
 -1      2424 6.96240E+01 6.08450E+00 0.00000E+00
 -1      2425 6.81240E+01 6.08450E+00 0.00000E+00
 -1      2426 6.73740E+01 7.38350E+00 0.00000E+00
 -1      2427 7.26240E+01 6.08450E+00 0.00000E+00
 -1      2428 7.11240E+01 6.08450E+00 0.00000E+00
 -1      2429 7.03740E+01 7.38350E+00 0.00000E+00
 -1      2430 7.56240E+01 6.08450E+00 0.00000E+00
 -1      2431 7.41240E+01 6.08450E+00 0.00000E+00
 -1      2432 7.33740E+01 7.38350E+00 0.00000E+00
 -1      2433 7.86240E+01 6.08450E+00 0.00000E+00
 -1      2434 7.71240E+01 6.08450E+00 0.00000E+00
 -1      2435 7.63740E+01 7.38350E+00 0.00000E+00
 -1      2436 8.16240E+01 6.08450E+00 0.00000E+00
 -1      2437 8.01240E+01 6.08450E+00 0.00000E+00
 -1      2438 7.93740E+01 7.38350E+00 0.00000E+00
 -1      2439 8.46240E+01 6.08450E+00 0.00000E+00
 -1      2440 8.31240E+01 6.08450E+00 0.00000E+00
 -1      2441 8.23740E+01 7.38350E+00 0.00000E+00
 -1      2442 8.76240E+01 6.08450E+00 0.00000E+00
 -1      2443 8.61240E+01 6.08450E+00 0.00000E+00
 -1      2444 8.53740E+01 7.38350E+00 0.00000E+00
 -1      2445 9.06240E+01 6.08450E+00 0.00000E+00
 -1      2446 8.91240E+01 6.08450E+00 0.00000E+00
 -1      2447 8.83740E+01 7.38350E+00 0.00000E+00
 -1      2448 9.36240E+01 6.08450E+00 0.00000E+00
 -1      2449 9.21240E+01 6.08450E+00 0.00000E+00
 -1      2450 9.13740E+01 7.38350E+00 0.00000E+00
 -1      2451 9.66240E+01 6.08450E+00 0.00000E+00
 -1      2452 9.51240E+01 6.08450E+00 0.00000E+00
 -1      2453 9.43740E+01 7.38350E+00 0.00000E+00
 -1      2454 9.96240E+01 6.08450E+00 0.00000E+00
 -1      2455 9.81240E+01 6.08450E+00 0.00000E+00
 -1      2456 9.73740E+01 7.38350E+00 0.00000E+00
 -1      2457 1.02624E+02 6.08450E+00 0.00000E+00
 -1      2458 1.01124E+02 6.08450E+00 0.00000E+00
 -1      2459 1.00374E+02 7.38350E+00 0.00000E+00
 -1      2460 1.05624E+02 6.08450E+00 0.00000E+00
 -1      2461 1.04124E+02 6.08450E+00 0.00000E+00
 -1      2462 1.03374E+02 7.38350E+00 0.00000E+00
 -1      2463 1.08624E+02 6.08450E+00 0.00000E+00
 -1      2464 1.07124E+02 6.08450E+00 0.00000E+00
 -1      2465 1.06374E+02 7.38350E+00 0.00000E+00
 -1      2466 1.11624E+02 6.08450E+00 0.00000E+00
 -1      2467 1.10124E+02 6.08450E+00 0.00000E+00
 -1      2468 1.09374E+02 7.38350E+00 0.00000E+00
 -1      2469 1.14624E+02 6.08450E+00 0.00000E+00
 -1      2470 1.13124E+02 6.08450E+00 0.00000E+00
 -1      2471 1.12374E+02 7.38350E+00 0.00000E+00
 -1      2472 1.17624E+02 6.08450E+00 0.00000E+00
 -1      2473 1.16124E+02 6.08450E+00 0.00000E+00
 -1      2474 1.15374E+02 7.38350E+00 0.00000E+00
 -1      2475 1.20624E+02 6.08450E+00 0.00000E+00
 -1      2476 1.19124E+02 6.08450E+00 0.00000E+00
 -1      2477 1.18374E+02 7.38350E+00 0.00000E+00
 -1      2478 1.23624E+02 6.08450E+00 0.00000E+00
 -1      2479 1.22124E+02 6.08450E+00 0.00000E+00
 -1      2480 1.21374E+02 7.38350E+00 0.00000E+00
 -1      2481 1.26624E+02 6.08450E+00 0.00000E+00
 -1      2482 1.25124E+02 6.08450E+00 0.00000E+00
 -1      2483 1.24374E+02 7.38350E+00 0.00000E+00
 -1      2484 1.29624E+02 6.08450E+00 0.00000E+00
 -1      2485 1.28124E+02 6.08450E+00 0.00000E+00
 -1      2486 1.27374E+02 7.38350E+00 0.00000E+00
 -1      2487 1.32624E+02 6.08450E+00 0.00000E+00
 -1      2488 1.31124E+02 6.08450E+00 0.00000E+00
 -1      2489 1.30374E+02 7.38350E+00 0.00000E+00
 -1      2490 1.35624E+02 6.08450E+00 0.00000E+00
 -1      2491 1.34124E+02 6.08450E+00 0.00000E+00
 -1      2492 1.33374E+02 7.38350E+00 0.00000E+00
 -1      2493 1.38624E+02 6.08450E+00 0.00000E+00
 -1      2494 1.37124E+02 6.08450E+00 0.00000E+00
 -1      2495 1.36374E+02 7.38350E+00 0.00000E+00
 -1      2496 1.41624E+02 6.08450E+00 0.00000E+00
 -1      2497 1.40124E+02 6.08450E+00 0.00000E+00
 -1      2498 1.39374E+02 7.38350E+00 0.00000E+00
 -1      2499 1.43505E+02 1.69625E+01 0.00000E+00
 -1      2500 1.43505E+02 1.54875E+01 0.00000E+00
 -1      2501 1.43505E+02 1.40125E+01 0.00000E+00
 -1      2502 1.43505E+02 1.25375E+01 0.00000E+00
 -1      2503 1.42206E+02 1.47500E+01 0.00000E+00
 -1      2504 1.43505E+02 1.10625E+01 0.00000E+00
 -1      2505 1.43505E+02 9.58750E+00 0.00000E+00
 -1      2506 1.42206E+02 1.18000E+01 0.00000E+00
 -1      2507 1.36244E+02 3.01796E+01 0.00000E+00
 -1      2508 1.36295E+02 3.10732E+01 0.00000E+00
 -1      2509 1.43505E+02 1.98625E+01 0.00000E+00
 -1      2510 1.43505E+02 1.84125E+01 0.00000E+00
 -1      2511 1.42206E+02 1.76750E+01 0.00000E+00
 -1      2512 1.43505E+02 2.28125E+01 0.00000E+00
 -1      2513 1.43505E+02 2.13375E+01 0.00000E+00
 -1      2514 1.42206E+02 2.06000E+01 0.00000E+00
 -1      2515 1.43505E+02 2.57625E+01 0.00000E+00
 -1      2516 1.43505E+02 2.42875E+01 0.00000E+00
 -1      2517 1.42206E+02 2.35500E+01 0.00000E+00
 -1      2518 1.43505E+02 2.86625E+01 0.00000E+00
 -1      2519 1.43505E+02 2.72125E+01 0.00000E+00
 -1      2520 1.42206E+02 2.64750E+01 0.00000E+00
 -1      2521 1.43505E+02 3.16125E+01 0.00000E+00
 -1      2522 1.43505E+02 3.01375E+01 0.00000E+00
 -1      2523 1.42206E+02 2.94000E+01 0.00000E+00
 -1      2524 1.43505E+02 3.45625E+01 0.00000E+00
 -1      2525 1.43505E+02 3.30875E+01 0.00000E+00
 -1      2526 1.42206E+02 3.23500E+01 0.00000E+00
 -1      2527 1.43505E+02 3.75125E+01 0.00000E+00
 -1      2528 1.43505E+02 3.60375E+01 0.00000E+00
 -1      2529 1.42206E+02 3.53000E+01 0.00000E+00
 -1      2530 1.43492E+02 4.02461E+01 0.00000E+00
 -1      2531 1.43492E+02 3.87711E+01 0.00000E+00
 -1      2532 1.42193E+02 3.80336E+01 0.00000E+00
 -1      2533 1.42165E+02 4.05507E+01 0.00000E+00
 -1      2534 6.55950E+00 4.28890E+01 0.00000E+00
 -1      2535 8.53650E+00 4.32410E+01 0.00000E+00
 -1      2536 9.28650E+00 4.19420E+01 0.00000E+00
 -1      2537 6.55950E+00 4.14140E+01 0.00000E+00
 -1      2538 1.36465E+02 3.21182E+01 0.00000E+00
 -1      2539 1.36419E+02 3.31611E+01 0.00000E+00
 -1      2540 1.36085E+02 3.43587E+01 0.00000E+00
 -1      2541 1.35778E+02 3.53549E+01 0.00000E+00
 -1      2542 1.20085E+02 4.04996E+01 0.00000E+00
 -1      2543 1.19180E+02 3.96788E+01 0.00000E+00
 -1      2544 1.17268E+02 3.71410E+01 0.00000E+00
 -1      2545 1.16811E+02 3.62035E+01 0.00000E+00
 -1      2546 1.16208E+02 2.87541E+01 0.00000E+00
 -1      2547 1.16623E+02 2.77884E+01 0.00000E+00
 -1      2548 6.49500E+00 2.71625E+01 0.00000E+00
 -1      2549 6.49500E+00 2.86375E+01 0.00000E+00
 -1      2550 7.79400E+00 2.93750E+01 0.00000E+00
 -1      2551 7.79400E+00 2.64250E+01 0.00000E+00
 -1      2552 1.31917E+02 2.25051E+01 0.00000E+00
 -1      2553 1.32914E+02 2.34290E+01 0.00000E+00
 -1      2554 1.25499E+02 2.11314E+01 0.00000E+00
 -1      2555 1.26632E+02 2.11860E+01 0.00000E+00
 -1      2556 1.29975E+02 2.14739E+01 0.00000E+00
 -1      2557 1.30752E+02 2.17702E+01 0.00000E+00
 -1      2558 1.19579E+02 2.34954E+01 0.00000E+00
 -1      2559 1.20329E+02 2.29240E+01 0.00000E+00
 -1      2560 1.23448E+02 2.13687E+01 0.00000E+00
 -1      2561 1.24284E+02 2.11781E+01 0.00000E+00
 -1      2562 1.16220E+02 3.52303E+01 0.00000E+00
 -1      2563 1.15878E+02 3.42689E+01 0.00000E+00
 -1      2564 1.27708E+02 2.11963E+01 0.00000E+00
 -1      2565 1.28783E+02 2.12067E+01 0.00000E+00
 -1      2566 1.27180E+02 2.03543E+01 0.00000E+00
 -1      2567 1.18058E+02 2.49559E+01 0.00000E+00
 -1      2568 1.18790E+02 2.42372E+01 0.00000E+00
 -1      2569 1.16989E+02 2.69248E+01 0.00000E+00
 -1      2570 1.17354E+02 2.60612E+01 0.00000E+00
 -1      2571 1.16109E+02 2.71186E+01 0.00000E+00
 -1      2572 1.15735E+02 3.07571E+01 0.00000E+00
 -1      2573 1.15789E+02 2.98999E+01 0.00000E+00
 -1      2574 1.22378E+02 4.17115E+01 0.00000E+00
 -1      2575 1.21382E+02 4.15144E+01 0.00000E+00
 -1      2576 1.15766E+02 3.29896E+01 0.00000E+00
 -1      2577 1.15750E+02 3.18734E+01 0.00000E+00
 -1      2578 1.14922E+02 3.13900E+01 0.00000E+00
 -1      2579 1.18297E+02 3.88879E+01 0.00000E+00
 -1      2580 1.17741E+02 3.82065E+01 0.00000E+00
 -1      2581 1.28236E+02 4.16830E+01 0.00000E+00
 -1      2582 1.27353E+02 4.19337E+01 0.00000E+00
 -1      2583 1.24721E+02 4.19738E+01 0.00000E+00
 -1      2584 1.23840E+02 4.17953E+01 0.00000E+00
 -1      2585 1.30794E+02 4.13541E+01 0.00000E+00
 -1      2586 1.29736E+02 4.15992E+01 0.00000E+00
 -1      2587 1.32608E+02 3.94756E+01 0.00000E+00
 -1      2588 1.31996E+02 4.02313E+01 0.00000E+00
 -1      2589 1.34135E+02 3.80300E+01 0.00000E+00
 -1      2590 1.33371E+02 3.87528E+01 0.00000E+00
 -1      2591 1.33666E+02 3.96179E+01 0.00000E+00
 -1      2592 1.35220E+02 3.65022E+01 0.00000E+00
 -1      2593 1.34677E+02 3.72661E+01 0.00000E+00
 -1      2594 1.34972E+02 3.81311E+01 0.00000E+00
 -1      2595 1.42839E+02 8.11675E+00 0.00000E+00
 -1      2596 7.79400E+00 3.52687E+01 0.00000E+00
 -1      2597 6.49500E+00 3.60062E+01 0.00000E+00
 -1      2598 6.49500E+00 3.74750E+01 0.00000E+00
 -1      2599 1.37129E+02 3.16324E+01 0.00000E+00
 -1      2600 9.55950E+00 5.02450E+00 0.00000E+00
 -1      2601 9.37425E+00 5.84794E+00 0.00000E+00
 -1      2602 1.07692E+01 5.21931E+00 0.00000E+00
 -1      2603 1.20495E+02 2.19819E+01 0.00000E+00
 -1      2604 1.33817E+02 2.43591E+01 0.00000E+00
 -1      2605 1.34337E+02 2.50913E+01 0.00000E+00
 -1      2606 1.41540E+02 8.85425E+00 0.00000E+00
 -1      2607 1.22603E+02 2.09201E+01 0.00000E+00
 -1      2608 1.25290E+02 4.25649E+01 0.00000E+00
 -1      2609 1.20150E+02 4.24799E+01 0.00000E+00
 -1      2610 1.26002E+02 4.35063E+01 0.00000E+00
 -1      2611 1.29000E+02 4.26700E+01 0.00000E+00
 -1      2612 1.32000E+02 4.25024E+01 0.00000E+00
 -1      2613 1.23113E+02 4.28375E+01 0.00000E+00
 -1      2614 1.36666E+02 2.93960E+01 0.00000E+00
 -1      2615 1.37380E+02 2.98038E+01 0.00000E+00
 -1      2616 1.37088E+02 2.86124E+01 0.00000E+00
 -1      2617 1.15050E+02 3.37856E+01 0.00000E+00
 -1      2618 6.55950E+00 3.99453E+01 0.00000E+00
 -1      2619 1.33873E+02 2.32990E+01 0.00000E+00
 -1      2620 1.30515E+01 5.74931E+00 0.00000E+00
 -1      2621 1.18418E+01 5.55450E+00 0.00000E+00
 -1      2622 1.16565E+01 6.37794E+00 0.00000E+00
 -1      2623 1.38015E+01 7.04831E+00 0.00000E+00
 -1      2624 1.35707E+02 2.68623E+01 0.00000E+00
 -1      2625 1.36426E+02 2.72557E+01 0.00000E+00
 -1      2626 1.36965E+02 3.38750E+01 0.00000E+00
 -1      2627 1.35187E+02 2.61301E+01 0.00000E+00
 -1      2628 1.36073E+02 3.62199E+01 0.00000E+00
 -1      2629 1.18173E+02 3.99333E+01 0.00000E+00
 -1      2630 1.15753E+02 3.60382E+01 0.00000E+00
 -1      2631 1.18671E+02 2.33027E+01 0.00000E+00
 -1      2632 1.26752E+02 4.24811E+01 0.00000E+00
 -1      2633 1.29447E+02 2.06319E+01 0.00000E+00
 -1      2634 1.15325E+02 2.91280E+01 0.00000E+00
 -1      2635 1.16817E+02 3.80770E+01 0.00000E+00
 -1      2636 1.24890E+02 2.03906E+01 0.00000E+00
 -1      2637 1.31805E+02 2.16339E+01 0.00000E+00
 -1      2638 1.17178E+02 2.51498E+01 0.00000E+00
 -1      2639 1.17002E+02 2.42384E+01 0.00000E+00
 -1      2640 1.16298E+02 2.53436E+01 0.00000E+00
 -1      2641 9.09300E+00 1.98250E+01 0.00000E+00
 -1      2642 9.09300E+00 2.12750E+01 0.00000E+00
 -1      2643 9.09300E+00 2.27500E+01 0.00000E+00
 -1      2644 9.09300E+00 2.42250E+01 0.00000E+00
 -1      2645 1.03920E+01 2.20250E+01 0.00000E+00
 -1      2646 9.09300E+00 1.39375E+01 0.00000E+00
 -1      2647 9.09300E+00 1.54125E+01 0.00000E+00
 -1      2648 9.09300E+00 1.09875E+01 0.00000E+00
 -1      2649 9.09300E+00 1.24625E+01 0.00000E+00
 -1      2650 1.03920E+01 1.32000E+01 0.00000E+00
 -1      2651 9.18900E+00 6.67137E+00 0.00000E+00
 -1      2652 9.00375E+00 7.49481E+00 0.00000E+00
 -1      2653 1.03988E+01 6.86619E+00 0.00000E+00
 -1      2654 1.37198E+02 3.60580E+01 0.00000E+00
 -1      2655 1.36640E+02 3.72053E+01 0.00000E+00
 -1      2656 1.40706E+02 1.03250E+01 0.00000E+00
 -1      2657 1.40040E+02 8.85425E+00 0.00000E+00
 -1      2658 1.38540E+02 8.85425E+00 0.00000E+00
 -1      2659 1.35943E+02 3.82456E+01 0.00000E+00
 -1      2660 1.35400E+02 3.90095E+01 0.00000E+00
 -1      2661 1.37848E+02 3.09787E+01 0.00000E+00
 -1      2662 1.38019E+02 3.20237E+01 0.00000E+00
 -1      2663 1.14000E+01 4.09070E+01 0.00000E+00
 -1      2664 1.29000E+01 4.09070E+01 0.00000E+00
 -1      2665 1.44000E+01 4.09070E+01 0.00000E+00
 -1      2666 1.59000E+01 4.09070E+01 0.00000E+00
 -1      2667 1.36500E+01 3.96080E+01 0.00000E+00
 -1      2668 1.74000E+01 4.09070E+01 0.00000E+00
 -1      2669 1.89000E+01 4.09070E+01 0.00000E+00
 -1      2670 1.66500E+01 3.96080E+01 0.00000E+00
 -1      2671 2.04000E+01 4.09070E+01 0.00000E+00
 -1      2672 2.19000E+01 4.09070E+01 0.00000E+00
 -1      2673 1.96500E+01 3.96080E+01 0.00000E+00
 -1      2674 2.34000E+01 4.09070E+01 0.00000E+00
 -1      2675 2.49000E+01 4.09070E+01 0.00000E+00
 -1      2676 2.26500E+01 3.96080E+01 0.00000E+00
 -1      2677 2.64000E+01 4.09070E+01 0.00000E+00
 -1      2678 2.79000E+01 4.09070E+01 0.00000E+00
 -1      2679 2.56500E+01 3.96080E+01 0.00000E+00
 -1      2680 2.94000E+01 4.09070E+01 0.00000E+00
 -1      2681 3.09000E+01 4.09070E+01 0.00000E+00
 -1      2682 2.86500E+01 3.96080E+01 0.00000E+00
 -1      2683 3.24000E+01 4.09070E+01 0.00000E+00
 -1      2684 3.39000E+01 4.09070E+01 0.00000E+00
 -1      2685 3.16500E+01 3.96080E+01 0.00000E+00
 -1      2686 3.54000E+01 4.09070E+01 0.00000E+00
 -1      2687 3.69000E+01 4.09070E+01 0.00000E+00
 -1      2688 3.46500E+01 3.96080E+01 0.00000E+00
 -1      2689 3.84000E+01 4.09070E+01 0.00000E+00
 -1      2690 3.99000E+01 4.09070E+01 0.00000E+00
 -1      2691 3.76500E+01 3.96080E+01 0.00000E+00
 -1      2692 4.14000E+01 4.09070E+01 0.00000E+00
 -1      2693 4.29000E+01 4.09070E+01 0.00000E+00
 -1      2694 4.06500E+01 3.96080E+01 0.00000E+00
 -1      2695 4.44000E+01 4.09070E+01 0.00000E+00
 -1      2696 4.59000E+01 4.09070E+01 0.00000E+00
 -1      2697 4.36500E+01 3.96080E+01 0.00000E+00
 -1      2698 4.74000E+01 4.09070E+01 0.00000E+00
 -1      2699 4.89000E+01 4.09070E+01 0.00000E+00
 -1      2700 4.66500E+01 3.96080E+01 0.00000E+00
 -1      2701 5.04000E+01 4.09070E+01 0.00000E+00
 -1      2702 5.19000E+01 4.09070E+01 0.00000E+00
 -1      2703 4.96500E+01 3.96080E+01 0.00000E+00
 -1      2704 5.34000E+01 4.09070E+01 0.00000E+00
 -1      2705 5.49000E+01 4.09070E+01 0.00000E+00
 -1      2706 5.26500E+01 3.96080E+01 0.00000E+00
 -1      2707 5.64000E+01 4.09070E+01 0.00000E+00
 -1      2708 5.79000E+01 4.09070E+01 0.00000E+00
 -1      2709 5.56500E+01 3.96080E+01 0.00000E+00
 -1      2710 5.94000E+01 4.09070E+01 0.00000E+00
 -1      2711 6.09000E+01 4.09070E+01 0.00000E+00
 -1      2712 5.86500E+01 3.96080E+01 0.00000E+00
 -1      2713 6.24000E+01 4.09070E+01 0.00000E+00
 -1      2714 6.39000E+01 4.09070E+01 0.00000E+00
 -1      2715 6.16500E+01 3.96080E+01 0.00000E+00
 -1      2716 6.54000E+01 4.09070E+01 0.00000E+00
 -1      2717 6.69000E+01 4.09070E+01 0.00000E+00
 -1      2718 6.46500E+01 3.96080E+01 0.00000E+00
 -1      2719 6.84000E+01 4.09070E+01 0.00000E+00
 -1      2720 6.99000E+01 4.09070E+01 0.00000E+00
 -1      2721 6.76500E+01 3.96080E+01 0.00000E+00
 -1      2722 7.14000E+01 4.09070E+01 0.00000E+00
 -1      2723 7.29000E+01 4.09070E+01 0.00000E+00
 -1      2724 7.06500E+01 3.96080E+01 0.00000E+00
 -1      2725 7.44000E+01 4.09070E+01 0.00000E+00
 -1      2726 7.59000E+01 4.09070E+01 0.00000E+00
 -1      2727 7.36500E+01 3.96080E+01 0.00000E+00
 -1      2728 7.74000E+01 4.09070E+01 0.00000E+00
 -1      2729 7.89000E+01 4.09070E+01 0.00000E+00
 -1      2730 7.66500E+01 3.96080E+01 0.00000E+00
 -1      2731 8.04000E+01 4.09070E+01 0.00000E+00
 -1      2732 8.19000E+01 4.09070E+01 0.00000E+00
 -1      2733 7.96500E+01 3.96080E+01 0.00000E+00
 -1      2734 8.34000E+01 4.09070E+01 0.00000E+00
 -1      2735 8.49000E+01 4.09070E+01 0.00000E+00
 -1      2736 8.26500E+01 3.96080E+01 0.00000E+00
 -1      2737 8.64000E+01 4.09070E+01 0.00000E+00
 -1      2738 8.79000E+01 4.09070E+01 0.00000E+00
 -1      2739 8.56500E+01 3.96080E+01 0.00000E+00
 -1      2740 8.94000E+01 4.09070E+01 0.00000E+00
 -1      2741 9.09000E+01 4.09070E+01 0.00000E+00
 -1      2742 8.86500E+01 3.96080E+01 0.00000E+00
 -1      2743 9.24000E+01 4.09070E+01 0.00000E+00
 -1      2744 9.39000E+01 4.09070E+01 0.00000E+00
 -1      2745 9.16500E+01 3.96080E+01 0.00000E+00
 -1      2746 9.54000E+01 4.09070E+01 0.00000E+00
 -1      2747 9.69000E+01 4.09070E+01 0.00000E+00
 -1      2748 9.46500E+01 3.96080E+01 0.00000E+00
 -1      2749 9.84000E+01 4.09070E+01 0.00000E+00
 -1      2750 9.99000E+01 4.09070E+01 0.00000E+00
 -1      2751 9.76500E+01 3.96080E+01 0.00000E+00
 -1      2752 1.01400E+02 4.09070E+01 0.00000E+00
 -1      2753 1.02900E+02 4.09070E+01 0.00000E+00
 -1      2754 1.00650E+02 3.96080E+01 0.00000E+00
 -1      2755 1.04400E+02 4.09070E+01 0.00000E+00
 -1      2756 1.05900E+02 4.09070E+01 0.00000E+00
 -1      2757 1.03650E+02 3.96080E+01 0.00000E+00
 -1      2758 1.07400E+02 4.09070E+01 0.00000E+00
 -1      2759 1.08900E+02 4.09070E+01 0.00000E+00
 -1      2760 1.06650E+02 3.96080E+01 0.00000E+00
 -1      2761 1.10400E+02 4.09070E+01 0.00000E+00
 -1      2762 1.11900E+02 4.09070E+01 0.00000E+00
 -1      2763 1.09650E+02 3.96080E+01 0.00000E+00
 -1      2764 1.13400E+02 4.09070E+01 0.00000E+00
 -1      2765 1.14900E+02 4.09070E+01 0.00000E+00
 -1      2766 1.12650E+02 3.96080E+01 0.00000E+00
 -1      2767 1.37192E+02 2.67144E+01 0.00000E+00
 -1      2768 1.37140E+02 2.76634E+01 0.00000E+00
 -1      2769 1.37854E+02 2.80712E+01 0.00000E+00
 -1      2770 1.37250E+02 4.13097E+01 0.00000E+00
 -1      2771 1.38750E+02 4.13097E+01 0.00000E+00
 -1      2772 1.39795E+02 4.10825E+01 0.00000E+00
 -1      2773 1.41121E+02 4.07779E+01 0.00000E+00
 -1      2774 1.41134E+02 3.95193E+01 0.00000E+00
 -1      2775 1.39045E+02 3.99736E+01 0.00000E+00
 -1      2776 2.01240E+01 8.68250E+00 0.00000E+00
 -1      2777 1.86240E+01 8.68250E+00 0.00000E+00
 -1      2778 2.31240E+01 8.68250E+00 0.00000E+00
 -1      2779 2.16240E+01 8.68250E+00 0.00000E+00
 -1      2780 2.08740E+01 9.98150E+00 0.00000E+00
 -1      2781 1.71240E+01 8.68250E+00 0.00000E+00
 -1      2782 1.56240E+01 8.68250E+00 0.00000E+00
 -1      2783 1.78740E+01 9.98150E+00 0.00000E+00
 -1      2784 2.91240E+01 8.68250E+00 0.00000E+00
 -1      2785 2.76240E+01 8.68250E+00 0.00000E+00
 -1      2786 3.21240E+01 8.68250E+00 0.00000E+00
 -1      2787 3.06240E+01 8.68250E+00 0.00000E+00
 -1      2788 2.98740E+01 9.98150E+00 0.00000E+00
 -1      2789 3.51240E+01 8.68250E+00 0.00000E+00
 -1      2790 3.36240E+01 8.68250E+00 0.00000E+00
 -1      2791 3.28740E+01 9.98150E+00 0.00000E+00
 -1      2792 3.81240E+01 8.68250E+00 0.00000E+00
 -1      2793 3.66240E+01 8.68250E+00 0.00000E+00
 -1      2794 3.58740E+01 9.98150E+00 0.00000E+00
 -1      2795 4.11240E+01 8.68250E+00 0.00000E+00
 -1      2796 3.96240E+01 8.68250E+00 0.00000E+00
 -1      2797 3.88740E+01 9.98150E+00 0.00000E+00
 -1      2798 4.41240E+01 8.68250E+00 0.00000E+00
 -1      2799 4.26240E+01 8.68250E+00 0.00000E+00
 -1      2800 4.18740E+01 9.98150E+00 0.00000E+00
 -1      2801 4.71240E+01 8.68250E+00 0.00000E+00
 -1      2802 4.56240E+01 8.68250E+00 0.00000E+00
 -1      2803 4.48740E+01 9.98150E+00 0.00000E+00
 -1      2804 5.01240E+01 8.68250E+00 0.00000E+00
 -1      2805 4.86240E+01 8.68250E+00 0.00000E+00
 -1      2806 4.78740E+01 9.98150E+00 0.00000E+00
 -1      2807 5.31240E+01 8.68250E+00 0.00000E+00
 -1      2808 5.16240E+01 8.68250E+00 0.00000E+00
 -1      2809 5.08740E+01 9.98150E+00 0.00000E+00
 -1      2810 5.61240E+01 8.68250E+00 0.00000E+00
 -1      2811 5.46240E+01 8.68250E+00 0.00000E+00
 -1      2812 5.38740E+01 9.98150E+00 0.00000E+00
 -1      2813 5.91240E+01 8.68250E+00 0.00000E+00
 -1      2814 5.76240E+01 8.68250E+00 0.00000E+00
 -1      2815 5.68740E+01 9.98150E+00 0.00000E+00
 -1      2816 6.21240E+01 8.68250E+00 0.00000E+00
 -1      2817 6.06240E+01 8.68250E+00 0.00000E+00
 -1      2818 5.98740E+01 9.98150E+00 0.00000E+00
 -1      2819 6.51240E+01 8.68250E+00 0.00000E+00
 -1      2820 6.36240E+01 8.68250E+00 0.00000E+00
 -1      2821 6.28740E+01 9.98150E+00 0.00000E+00
 -1      2822 6.81240E+01 8.68250E+00 0.00000E+00
 -1      2823 6.66240E+01 8.68250E+00 0.00000E+00
 -1      2824 6.58740E+01 9.98150E+00 0.00000E+00
 -1      2825 7.11240E+01 8.68250E+00 0.00000E+00
 -1      2826 6.96240E+01 8.68250E+00 0.00000E+00
 -1      2827 6.88740E+01 9.98150E+00 0.00000E+00
 -1      2828 7.41240E+01 8.68250E+00 0.00000E+00
 -1      2829 7.26240E+01 8.68250E+00 0.00000E+00
 -1      2830 7.18740E+01 9.98150E+00 0.00000E+00
 -1      2831 7.71240E+01 8.68250E+00 0.00000E+00
 -1      2832 7.56240E+01 8.68250E+00 0.00000E+00
 -1      2833 7.48740E+01 9.98150E+00 0.00000E+00
 -1      2834 8.01240E+01 8.68250E+00 0.00000E+00
 -1      2835 7.86240E+01 8.68250E+00 0.00000E+00
 -1      2836 7.78740E+01 9.98150E+00 0.00000E+00
 -1      2837 8.31240E+01 8.68250E+00 0.00000E+00
 -1      2838 8.16240E+01 8.68250E+00 0.00000E+00
 -1      2839 8.08740E+01 9.98150E+00 0.00000E+00
 -1      2840 8.61240E+01 8.68250E+00 0.00000E+00
 -1      2841 8.46240E+01 8.68250E+00 0.00000E+00
 -1      2842 8.38740E+01 9.98150E+00 0.00000E+00
 -1      2843 8.91240E+01 8.68250E+00 0.00000E+00
 -1      2844 8.76240E+01 8.68250E+00 0.00000E+00
 -1      2845 8.68740E+01 9.98150E+00 0.00000E+00
 -1      2846 9.21240E+01 8.68250E+00 0.00000E+00
 -1      2847 9.06240E+01 8.68250E+00 0.00000E+00
 -1      2848 8.98740E+01 9.98150E+00 0.00000E+00
 -1      2849 9.51240E+01 8.68250E+00 0.00000E+00
 -1      2850 9.36240E+01 8.68250E+00 0.00000E+00
 -1      2851 9.28740E+01 9.98150E+00 0.00000E+00
 -1      2852 9.81240E+01 8.68250E+00 0.00000E+00
 -1      2853 9.66240E+01 8.68250E+00 0.00000E+00
 -1      2854 9.58740E+01 9.98150E+00 0.00000E+00
 -1      2855 1.01124E+02 8.68250E+00 0.00000E+00
 -1      2856 9.96240E+01 8.68250E+00 0.00000E+00
 -1      2857 9.88740E+01 9.98150E+00 0.00000E+00
 -1      2858 1.04124E+02 8.68250E+00 0.00000E+00
 -1      2859 1.02624E+02 8.68250E+00 0.00000E+00
 -1      2860 1.01874E+02 9.98150E+00 0.00000E+00
 -1      2861 1.07124E+02 8.68250E+00 0.00000E+00
 -1      2862 1.05624E+02 8.68250E+00 0.00000E+00
 -1      2863 1.04874E+02 9.98150E+00 0.00000E+00
 -1      2864 1.10124E+02 8.68250E+00 0.00000E+00
 -1      2865 1.08624E+02 8.68250E+00 0.00000E+00
 -1      2866 1.07874E+02 9.98150E+00 0.00000E+00
 -1      2867 1.13124E+02 8.68250E+00 0.00000E+00
 -1      2868 1.11624E+02 8.68250E+00 0.00000E+00
 -1      2869 1.10874E+02 9.98150E+00 0.00000E+00
 -1      2870 1.16124E+02 8.68250E+00 0.00000E+00
 -1      2871 1.14624E+02 8.68250E+00 0.00000E+00
 -1      2872 1.13874E+02 9.98150E+00 0.00000E+00
 -1      2873 1.19124E+02 8.68250E+00 0.00000E+00
 -1      2874 1.17624E+02 8.68250E+00 0.00000E+00
 -1      2875 1.16874E+02 9.98150E+00 0.00000E+00
 -1      2876 1.22124E+02 8.68250E+00 0.00000E+00
 -1      2877 1.20624E+02 8.68250E+00 0.00000E+00
 -1      2878 1.19874E+02 9.98150E+00 0.00000E+00
 -1      2879 1.25124E+02 8.68250E+00 0.00000E+00
 -1      2880 1.23624E+02 8.68250E+00 0.00000E+00
 -1      2881 1.22874E+02 9.98150E+00 0.00000E+00
 -1      2882 1.28124E+02 8.68250E+00 0.00000E+00
 -1      2883 1.26624E+02 8.68250E+00 0.00000E+00
 -1      2884 1.25874E+02 9.98150E+00 0.00000E+00
 -1      2885 1.31124E+02 8.68250E+00 0.00000E+00
 -1      2886 1.29624E+02 8.68250E+00 0.00000E+00
 -1      2887 1.28874E+02 9.98150E+00 0.00000E+00
 -1      2888 1.34124E+02 8.68250E+00 0.00000E+00
 -1      2889 1.32624E+02 8.68250E+00 0.00000E+00
 -1      2890 1.31874E+02 9.98150E+00 0.00000E+00
 -1      2891 1.37082E+02 8.76838E+00 0.00000E+00
 -1      2892 1.35582E+02 8.76838E+00 0.00000E+00
 -1      2893 1.34832E+02 1.00674E+01 0.00000E+00
 -1      2894 1.37748E+02 1.02391E+01 0.00000E+00
 -1      2895 1.21646E+02 2.02268E+01 0.00000E+00
 -1      2896 1.22718E+02 1.97439E+01 0.00000E+00
 -1      2897 1.40907E+02 2.13375E+01 0.00000E+00
 -1      2898 1.40907E+02 1.98625E+01 0.00000E+00
 -1      2899 1.40706E+02 1.18000E+01 0.00000E+00
 -1      2900 1.40907E+02 1.84125E+01 0.00000E+00
 -1      2901 1.40907E+02 1.69625E+01 0.00000E+00
 -1      2902 1.39608E+02 1.91500E+01 0.00000E+00
 -1      2903 1.41097E+02 2.72000E+01 0.00000E+00
 -1      2904 1.41097E+02 2.57500E+01 0.00000E+00
 -1      2905 1.41181E+02 3.01375E+01 0.00000E+00
 -1      2906 1.41181E+02 2.86625E+01 0.00000E+00
 -1      2907 1.41097E+02 3.30875E+01 0.00000E+00
 -1      2908 1.41097E+02 3.16125E+01 0.00000E+00
 -1      2909 1.41097E+02 3.60375E+01 0.00000E+00
 -1      2910 1.41097E+02 3.45625E+01 0.00000E+00
 -1      2911 1.39988E+02 3.38250E+01 0.00000E+00
 -1      2912 1.20353E+02 4.17389E+01 0.00000E+00
 -1      2913 1.19575E+02 2.13846E+01 0.00000E+00
 -1      2914 1.20611E+02 2.08057E+01 0.00000E+00
 -1      2915 1.20726E+02 1.96295E+01 0.00000E+00
 -1      2916 1.34097E+02 2.21782E+01 0.00000E+00
 -1      2917 1.35000E+02 2.31083E+01 0.00000E+00
 -1      2918 1.15059E+02 2.71833E+01 0.00000E+00
 -1      2919 1.15425E+02 2.63197E+01 0.00000E+00
 -1      2920 1.26652E+02 1.94079E+01 0.00000E+00
 -1      2921 1.27727E+02 1.94182E+01 0.00000E+00
 -1      2922 1.14252E+02 3.45003E+01 0.00000E+00
 -1      2923 1.14139E+02 3.32210E+01 0.00000E+00
 -1      2924 1.17689E+02 2.30489E+01 0.00000E+00
 -1      2925 1.18478E+02 2.23070E+01 0.00000E+00
 -1      2926 1.15720E+02 3.93752E+01 0.00000E+00
 -1      2927 1.15247E+02 3.83097E+01 0.00000E+00
 -1      2928 1.40907E+02 2.42875E+01 0.00000E+00
 -1      2929 1.40907E+02 2.28125E+01 0.00000E+00
 -1      2930 1.39608E+02 2.20750E+01 0.00000E+00
 -1      2931 1.40907E+02 1.54875E+01 0.00000E+00
 -1      2932 1.40907E+02 1.40125E+01 0.00000E+00
 -1      2933 1.39608E+02 1.62250E+01 0.00000E+00
 -1      2934 1.34935E+02 4.07713E+01 0.00000E+00
 -1      2935 1.36435E+02 4.07713E+01 0.00000E+00
 -1      2936 1.35627E+02 2.52679E+01 0.00000E+00
 -1      2937 1.37917E+02 3.34953E+01 0.00000E+00
 -1      2938 1.37583E+02 3.46929E+01 0.00000E+00
 -1      2939 1.31679E+02 2.05411E+01 0.00000E+00
 -1      2940 1.32845E+02 2.12759E+01 0.00000E+00
 -1      2941 7.85850E+00 3.92077E+01 0.00000E+00
 -1      2942 1.14222E+02 2.94749E+01 0.00000E+00
 -1      2943 1.14641E+02 2.83291E+01 0.00000E+00
 -1      2944 1.13957E+02 2.75302E+01 0.00000E+00
 -1      2945 1.24222E+02 1.95012E+01 0.00000E+00
 -1      2946 1.25437E+02 1.94545E+01 0.00000E+00
 -1      2947 1.25984E+02 1.85184E+01 0.00000E+00
 -1      2948 1.13988E+02 3.19612E+01 0.00000E+00
 -1      2949 1.13973E+02 3.08450E+01 0.00000E+00
 -1      2950 1.15045E+02 3.68916E+01 0.00000E+00
 -1      2951 1.14454E+02 3.59184E+01 0.00000E+00
 -1      2952 1.13543E+02 3.53538E+01 0.00000E+00
 -1      2953 1.13948E+02 3.81899E+01 0.00000E+00
 -1      2954 1.29039E+02 1.96615E+01 0.00000E+00
 -1      2955 1.30231E+02 1.99287E+01 0.00000E+00
 -1      2956 9.09300E+00 1.68813E+01 0.00000E+00
 -1      2957 9.09300E+00 1.83563E+01 0.00000E+00
 -1      2958 1.03920E+01 1.90812E+01 0.00000E+00
 -1      2959 1.03920E+01 1.61437E+01 0.00000E+00
 -1      2960 9.09300E+00 3.15875E+01 0.00000E+00
 -1      2961 9.09300E+00 3.30625E+01 0.00000E+00
 -1      2962 2.61240E+01 8.68250E+00 0.00000E+00
 -1      2963 2.46240E+01 8.68250E+00 0.00000E+00
 -1      2964 2.38740E+01 9.98150E+00 0.00000E+00
 -1      2965 2.68740E+01 9.98150E+00 0.00000E+00
 -1      2966 1.31701E+02 4.14634E+01 0.00000E+00
 -1      2967 1.33201E+02 4.13796E+01 0.00000E+00
 -1      2968 1.35930E+02 2.41521E+01 0.00000E+00
 -1      2969 1.36781E+02 2.51909E+01 0.00000E+00
 -1      2970 1.03920E+01 2.49750E+01 0.00000E+00
 -1      2971 9.09300E+00 2.57000E+01 0.00000E+00
 -1      2972 9.09300E+00 2.71750E+01 0.00000E+00
 -1      2973 9.00375E+00 8.96981E+00 0.00000E+00
 -1      2974 1.38151E+02 3.56784E+01 0.00000E+00
 -1      2975 1.23265E+02 1.88078E+01 0.00000E+00
 -1      2976 1.37068E+02 3.80837E+01 0.00000E+00
 -1      2977 1.38637E+02 3.28417E+01 0.00000E+00
 -1      2978 1.16470E+02 4.06742E+01 0.00000E+00
 -1      2979 9.09300E+00 3.45313E+01 0.00000E+00
 -1      2980 9.09300E+00 3.60000E+01 0.00000E+00
 -1      2981 1.03920E+01 3.37938E+01 0.00000E+00
 -1      2982 1.34637E+02 3.97323E+01 0.00000E+00
 -1      2983 1.17970E+02 4.06742E+01 0.00000E+00
 -1      2984 1.37185E+02 3.96624E+01 0.00000E+00
 -1      2985 8.85168E+00 4.05347E+01 0.00000E+00
 -1      2986 1.02152E+01 4.07987E+01 0.00000E+00
 -1      2987 1.36154E+02 2.30313E+01 0.00000E+00
 -1      2988 1.39407E+02 1.25375E+01 0.00000E+00
 -1      2989 1.39798E+02 2.50125E+01 0.00000E+00
 -1      2990 1.40072E+02 2.79375E+01 0.00000E+00
 -1      2991 1.40072E+02 3.08750E+01 0.00000E+00
 -1      2992 1.41109E+02 3.84077E+01 0.00000E+00
 -1      2993 1.41122E+02 3.71491E+01 0.00000E+00
 -1      2994 1.40014E+02 3.64116E+01 0.00000E+00
 -1      2995 1.40064E+02 3.86349E+01 0.00000E+00
 -1      2996 1.48740E+01 9.98151E+00 0.00000E+00
 -1      2997 1.41240E+01 8.68251E+00 0.00000E+00
 -1      2998 1.18593E+02 2.11308E+01 0.00000E+00
 -1      2999 1.33972E+02 2.10853E+01 0.00000E+00
 -1      3000 1.30515E+01 8.34733E+00 0.00000E+00
 -1      3001 1.31271E+02 1.95707E+01 0.00000E+00
 -1      3002 1.32311E+02 1.92127E+01 0.00000E+00
 -1      3003 1.30863E+02 1.86003E+01 0.00000E+00
 -1      3004 1.16809E+02 2.32427E+01 0.00000E+00
 -1      3005 1.16616E+02 2.22470E+01 0.00000E+00
 -1      3006 1.15929E+02 2.34366E+01 0.00000E+00
 -1      3007 1.15249E+02 2.54083E+01 0.00000E+00
 -1      3008 1.28510E+02 1.87150E+01 0.00000E+00
 -1      3009 1.13289E+02 3.00461E+01 0.00000E+00
 -1      3010 1.13190E+02 3.26759E+01 0.00000E+00
 -1      3011 1.03027E+01 9.70731E+00 0.00000E+00
 -1      3012 1.09652E+01 3.94997E+01 0.00000E+00
 -1      3013 9.09300E+00 2.86437E+01 0.00000E+00
 -1      3014 9.09300E+00 3.01187E+01 0.00000E+00
 -1      3015 1.03920E+01 3.08563E+01 0.00000E+00
 -1      3016 1.03920E+01 2.79188E+01 0.00000E+00
 -1      3017 1.38270E+02 3.01951E+01 0.00000E+00
 -1      3018 1.16910E+01 1.24625E+01 0.00000E+00
 -1      3019 1.16910E+01 1.39375E+01 0.00000E+00
 -1      3020 1.14712E+01 7.20138E+00 0.00000E+00
 -1      3021 1.39031E+02 2.82611E+01 0.00000E+00
 -1      3022 1.38979E+02 2.92101E+01 0.00000E+00
 -1      3023 1.59000E+01 3.83090E+01 0.00000E+00
 -1      3024 1.74000E+01 3.83090E+01 0.00000E+00
 -1      3025 1.89000E+01 3.83090E+01 0.00000E+00
 -1      3026 2.04000E+01 3.83090E+01 0.00000E+00
 -1      3027 1.81500E+01 3.70100E+01 0.00000E+00
 -1      3028 2.19000E+01 3.83090E+01 0.00000E+00
 -1      3029 2.34000E+01 3.83090E+01 0.00000E+00
 -1      3030 2.11500E+01 3.70100E+01 0.00000E+00
 -1      3031 2.49000E+01 3.83090E+01 0.00000E+00
 -1      3032 2.64000E+01 3.83090E+01 0.00000E+00
 -1      3033 2.41500E+01 3.70100E+01 0.00000E+00
 -1      3034 2.79000E+01 3.83090E+01 0.00000E+00
 -1      3035 2.94000E+01 3.83090E+01 0.00000E+00
 -1      3036 2.71500E+01 3.70100E+01 0.00000E+00
 -1      3037 3.09000E+01 3.83090E+01 0.00000E+00
 -1      3038 3.24000E+01 3.83090E+01 0.00000E+00
 -1      3039 3.01500E+01 3.70100E+01 0.00000E+00
 -1      3040 3.39000E+01 3.83090E+01 0.00000E+00
 -1      3041 3.54000E+01 3.83090E+01 0.00000E+00
 -1      3042 3.31500E+01 3.70100E+01 0.00000E+00
 -1      3043 3.69000E+01 3.83090E+01 0.00000E+00
 -1      3044 3.84000E+01 3.83090E+01 0.00000E+00
 -1      3045 3.61500E+01 3.70100E+01 0.00000E+00
 -1      3046 3.99000E+01 3.83090E+01 0.00000E+00
 -1      3047 4.14000E+01 3.83090E+01 0.00000E+00
 -1      3048 3.91500E+01 3.70100E+01 0.00000E+00
 -1      3049 4.29000E+01 3.83090E+01 0.00000E+00
 -1      3050 4.44000E+01 3.83090E+01 0.00000E+00
 -1      3051 4.21500E+01 3.70100E+01 0.00000E+00
 -1      3052 4.59000E+01 3.83090E+01 0.00000E+00
 -1      3053 4.74000E+01 3.83090E+01 0.00000E+00
 -1      3054 4.51500E+01 3.70100E+01 0.00000E+00
 -1      3055 4.89000E+01 3.83090E+01 0.00000E+00
 -1      3056 5.04000E+01 3.83090E+01 0.00000E+00
 -1      3057 4.81500E+01 3.70100E+01 0.00000E+00
 -1      3058 5.19000E+01 3.83090E+01 0.00000E+00
 -1      3059 5.34000E+01 3.83090E+01 0.00000E+00
 -1      3060 5.11500E+01 3.70100E+01 0.00000E+00
 -1      3061 5.49000E+01 3.83090E+01 0.00000E+00
 -1      3062 5.64000E+01 3.83090E+01 0.00000E+00
 -1      3063 5.41500E+01 3.70100E+01 0.00000E+00
 -1      3064 5.79000E+01 3.83090E+01 0.00000E+00
 -1      3065 5.94000E+01 3.83090E+01 0.00000E+00
 -1      3066 5.71500E+01 3.70100E+01 0.00000E+00
 -1      3067 6.09000E+01 3.83090E+01 0.00000E+00
 -1      3068 6.24000E+01 3.83090E+01 0.00000E+00
 -1      3069 6.01500E+01 3.70100E+01 0.00000E+00
 -1      3070 6.39000E+01 3.83090E+01 0.00000E+00
 -1      3071 6.54000E+01 3.83090E+01 0.00000E+00
 -1      3072 6.31500E+01 3.70100E+01 0.00000E+00
 -1      3073 6.69000E+01 3.83090E+01 0.00000E+00
 -1      3074 6.84000E+01 3.83090E+01 0.00000E+00
 -1      3075 6.61500E+01 3.70100E+01 0.00000E+00
 -1      3076 6.99000E+01 3.83090E+01 0.00000E+00
 -1      3077 7.14000E+01 3.83090E+01 0.00000E+00
 -1      3078 6.91500E+01 3.70100E+01 0.00000E+00
 -1      3079 7.29000E+01 3.83090E+01 0.00000E+00
 -1      3080 7.44000E+01 3.83090E+01 0.00000E+00
 -1      3081 7.21500E+01 3.70100E+01 0.00000E+00
 -1      3082 7.59000E+01 3.83090E+01 0.00000E+00
 -1      3083 7.74000E+01 3.83090E+01 0.00000E+00
 -1      3084 7.51500E+01 3.70100E+01 0.00000E+00
 -1      3085 7.89000E+01 3.83090E+01 0.00000E+00
 -1      3086 8.04000E+01 3.83090E+01 0.00000E+00
 -1      3087 7.81500E+01 3.70100E+01 0.00000E+00
 -1      3088 8.19000E+01 3.83090E+01 0.00000E+00
 -1      3089 8.34000E+01 3.83090E+01 0.00000E+00
 -1      3090 8.11500E+01 3.70100E+01 0.00000E+00
 -1      3091 8.49000E+01 3.83090E+01 0.00000E+00
 -1      3092 8.64000E+01 3.83090E+01 0.00000E+00
 -1      3093 8.41500E+01 3.70100E+01 0.00000E+00
 -1      3094 8.79000E+01 3.83090E+01 0.00000E+00
 -1      3095 8.94000E+01 3.83090E+01 0.00000E+00
 -1      3096 8.71500E+01 3.70100E+01 0.00000E+00
 -1      3097 9.09000E+01 3.83090E+01 0.00000E+00
 -1      3098 9.24000E+01 3.83090E+01 0.00000E+00
 -1      3099 9.01500E+01 3.70100E+01 0.00000E+00
 -1      3100 9.39000E+01 3.83090E+01 0.00000E+00
 -1      3101 9.54000E+01 3.83090E+01 0.00000E+00
 -1      3102 9.31500E+01 3.70100E+01 0.00000E+00
 -1      3103 9.69000E+01 3.83090E+01 0.00000E+00
 -1      3104 9.84000E+01 3.83090E+01 0.00000E+00
 -1      3105 9.61500E+01 3.70100E+01 0.00000E+00
 -1      3106 9.99000E+01 3.83090E+01 0.00000E+00
 -1      3107 1.01400E+02 3.83090E+01 0.00000E+00
 -1      3108 9.91500E+01 3.70100E+01 0.00000E+00
 -1      3109 1.02900E+02 3.83090E+01 0.00000E+00
 -1      3110 1.04400E+02 3.83090E+01 0.00000E+00
 -1      3111 1.02150E+02 3.70100E+01 0.00000E+00
 -1      3112 1.05900E+02 3.83090E+01 0.00000E+00
 -1      3113 1.07400E+02 3.83090E+01 0.00000E+00
 -1      3114 1.05150E+02 3.70100E+01 0.00000E+00
 -1      3115 1.08900E+02 3.83090E+01 0.00000E+00
 -1      3116 1.10400E+02 3.83090E+01 0.00000E+00
 -1      3117 1.08150E+02 3.70100E+01 0.00000E+00
 -1      3118 1.12448E+02 3.81899E+01 0.00000E+00
 -1      3119 1.37385E+02 2.55475E+01 0.00000E+00
 -1      3120 1.38099E+02 2.59553E+01 0.00000E+00
 -1      3121 8.78718E+00 3.80644E+01 0.00000E+00
 -1      3122 1.36580E+02 2.17161E+01 0.00000E+00
 -1      3123 1.37509E+02 2.27599E+01 0.00000E+00
 -1      3124 2.16240E+01 1.12805E+01 0.00000E+00
 -1      3125 2.01240E+01 1.12805E+01 0.00000E+00
 -1      3126 1.86240E+01 1.12805E+01 0.00000E+00
 -1      3127 1.71240E+01 1.12805E+01 0.00000E+00
 -1      3128 1.93740E+01 1.25795E+01 0.00000E+00
 -1      3129 3.36240E+01 1.12805E+01 0.00000E+00
 -1      3130 3.21240E+01 1.12805E+01 0.00000E+00
 -1      3131 3.06240E+01 1.12805E+01 0.00000E+00
 -1      3132 2.91240E+01 1.12805E+01 0.00000E+00
 -1      3133 3.13740E+01 1.25795E+01 0.00000E+00
 -1      3134 3.96240E+01 1.12805E+01 0.00000E+00
 -1      3135 3.81240E+01 1.12805E+01 0.00000E+00
 -1      3136 4.26240E+01 1.12805E+01 0.00000E+00
 -1      3137 4.11240E+01 1.12805E+01 0.00000E+00
 -1      3138 4.03740E+01 1.25795E+01 0.00000E+00
 -1      3139 4.56240E+01 1.12805E+01 0.00000E+00
 -1      3140 4.41240E+01 1.12805E+01 0.00000E+00
 -1      3141 4.33740E+01 1.25795E+01 0.00000E+00
 -1      3142 4.86240E+01 1.12805E+01 0.00000E+00
 -1      3143 4.71240E+01 1.12805E+01 0.00000E+00
 -1      3144 4.63740E+01 1.25795E+01 0.00000E+00
 -1      3145 5.16240E+01 1.12805E+01 0.00000E+00
 -1      3146 5.01240E+01 1.12805E+01 0.00000E+00
 -1      3147 4.93740E+01 1.25795E+01 0.00000E+00
 -1      3148 5.46240E+01 1.12805E+01 0.00000E+00
 -1      3149 5.31240E+01 1.12805E+01 0.00000E+00
 -1      3150 5.23740E+01 1.25795E+01 0.00000E+00
 -1      3151 5.76240E+01 1.12805E+01 0.00000E+00
 -1      3152 5.61240E+01 1.12805E+01 0.00000E+00
 -1      3153 5.53740E+01 1.25795E+01 0.00000E+00
 -1      3154 6.06240E+01 1.12805E+01 0.00000E+00
 -1      3155 5.91240E+01 1.12805E+01 0.00000E+00
 -1      3156 5.83740E+01 1.25795E+01 0.00000E+00
 -1      3157 6.36240E+01 1.12805E+01 0.00000E+00
 -1      3158 6.21240E+01 1.12805E+01 0.00000E+00
 -1      3159 6.13740E+01 1.25795E+01 0.00000E+00
 -1      3160 6.66240E+01 1.12805E+01 0.00000E+00
 -1      3161 6.51240E+01 1.12805E+01 0.00000E+00
 -1      3162 6.43740E+01 1.25795E+01 0.00000E+00
 -1      3163 6.96240E+01 1.12805E+01 0.00000E+00
 -1      3164 6.81240E+01 1.12805E+01 0.00000E+00
 -1      3165 6.73740E+01 1.25795E+01 0.00000E+00
 -1      3166 7.26240E+01 1.12805E+01 0.00000E+00
 -1      3167 7.11240E+01 1.12805E+01 0.00000E+00
 -1      3168 7.03740E+01 1.25795E+01 0.00000E+00
 -1      3169 7.56240E+01 1.12805E+01 0.00000E+00
 -1      3170 7.41240E+01 1.12805E+01 0.00000E+00
 -1      3171 7.33740E+01 1.25795E+01 0.00000E+00
 -1      3172 7.86240E+01 1.12805E+01 0.00000E+00
 -1      3173 7.71240E+01 1.12805E+01 0.00000E+00
 -1      3174 7.63740E+01 1.25795E+01 0.00000E+00
 -1      3175 8.16240E+01 1.12805E+01 0.00000E+00
 -1      3176 8.01240E+01 1.12805E+01 0.00000E+00
 -1      3177 7.93740E+01 1.25795E+01 0.00000E+00
 -1      3178 8.46240E+01 1.12805E+01 0.00000E+00
 -1      3179 8.31240E+01 1.12805E+01 0.00000E+00
 -1      3180 8.23740E+01 1.25795E+01 0.00000E+00
 -1      3181 8.76240E+01 1.12805E+01 0.00000E+00
 -1      3182 8.61240E+01 1.12805E+01 0.00000E+00
 -1      3183 8.53740E+01 1.25795E+01 0.00000E+00
 -1      3184 9.06240E+01 1.12805E+01 0.00000E+00
 -1      3185 8.91240E+01 1.12805E+01 0.00000E+00
 -1      3186 8.83740E+01 1.25795E+01 0.00000E+00
 -1      3187 9.36240E+01 1.12805E+01 0.00000E+00
 -1      3188 9.21240E+01 1.12805E+01 0.00000E+00
 -1      3189 9.13740E+01 1.25795E+01 0.00000E+00
 -1      3190 9.66240E+01 1.12805E+01 0.00000E+00
 -1      3191 9.51240E+01 1.12805E+01 0.00000E+00
 -1      3192 9.43740E+01 1.25795E+01 0.00000E+00
 -1      3193 9.96240E+01 1.12805E+01 0.00000E+00
 -1      3194 9.81240E+01 1.12805E+01 0.00000E+00
 -1      3195 9.73740E+01 1.25795E+01 0.00000E+00
 -1      3196 1.02624E+02 1.12805E+01 0.00000E+00
 -1      3197 1.01124E+02 1.12805E+01 0.00000E+00
 -1      3198 1.00374E+02 1.25795E+01 0.00000E+00
 -1      3199 1.05624E+02 1.12805E+01 0.00000E+00
 -1      3200 1.04124E+02 1.12805E+01 0.00000E+00
 -1      3201 1.03374E+02 1.25795E+01 0.00000E+00
 -1      3202 1.08624E+02 1.12805E+01 0.00000E+00
 -1      3203 1.07124E+02 1.12805E+01 0.00000E+00
 -1      3204 1.06374E+02 1.25795E+01 0.00000E+00
 -1      3205 1.11624E+02 1.12805E+01 0.00000E+00
 -1      3206 1.10124E+02 1.12805E+01 0.00000E+00
 -1      3207 1.09374E+02 1.25795E+01 0.00000E+00
 -1      3208 1.14624E+02 1.12805E+01 0.00000E+00
 -1      3209 1.13124E+02 1.12805E+01 0.00000E+00
 -1      3210 1.12374E+02 1.25795E+01 0.00000E+00
 -1      3211 1.17624E+02 1.12805E+01 0.00000E+00
 -1      3212 1.16124E+02 1.12805E+01 0.00000E+00
 -1      3213 1.15374E+02 1.25795E+01 0.00000E+00
 -1      3214 1.20624E+02 1.12805E+01 0.00000E+00
 -1      3215 1.19124E+02 1.12805E+01 0.00000E+00
 -1      3216 1.18374E+02 1.25795E+01 0.00000E+00
 -1      3217 1.23624E+02 1.12805E+01 0.00000E+00
 -1      3218 1.22124E+02 1.12805E+01 0.00000E+00
 -1      3219 1.21374E+02 1.25795E+01 0.00000E+00
 -1      3220 1.26624E+02 1.12805E+01 0.00000E+00
 -1      3221 1.25124E+02 1.12805E+01 0.00000E+00
 -1      3222 1.24374E+02 1.25795E+01 0.00000E+00
 -1      3223 1.29624E+02 1.12805E+01 0.00000E+00
 -1      3224 1.28124E+02 1.12805E+01 0.00000E+00
 -1      3225 1.27374E+02 1.25795E+01 0.00000E+00
 -1      3226 1.32624E+02 1.12805E+01 0.00000E+00
 -1      3227 1.31124E+02 1.12805E+01 0.00000E+00
 -1      3228 1.30374E+02 1.25795E+01 0.00000E+00
 -1      3229 1.12785E+02 2.77515E+01 0.00000E+00
 -1      3230 1.13203E+02 2.66057E+01 0.00000E+00
 -1      3231 1.39140E+02 2.56317E+01 0.00000E+00
 -1      3232 1.38950E+02 2.41692E+01 0.00000E+00
 -1      3233 1.38150E+02 1.46641E+01 0.00000E+00
 -1      3234 1.37949E+02 1.24516E+01 0.00000E+00
 -1      3235 1.36491E+02 1.23658E+01 0.00000E+00
 -1      3236 1.39363E+02 3.18600E+01 0.00000E+00
 -1      3237 1.39262E+02 3.33316E+01 0.00000E+00
 -1      3238 1.39447E+02 3.03850E+01 0.00000E+00
 -1      3239 1.39262E+02 3.48066E+01 0.00000E+00
 -1      3240 1.25337E+02 1.75174E+01 0.00000E+00
 -1      3241 1.26552E+02 1.74707E+01 0.00000E+00
 -1      3242 1.17439E+02 2.08714E+01 0.00000E+00
 -1      3243 1.18536E+02 1.99490E+01 0.00000E+00
 -1      3244 1.38947E+02 2.67986E+01 0.00000E+00
 -1      3245 1.12156E+02 3.05474E+01 0.00000E+00
 -1      3246 1.12405E+02 2.91773E+01 0.00000E+00
 -1      3247 1.18853E+02 4.14651E+01 0.00000E+00
 -1      3248 1.33945E+02 1.98024E+01 0.00000E+00
 -1      3249 1.35197E+02 2.07046E+01 0.00000E+00
 -1      3250 3.66240E+01 1.12805E+01 0.00000E+00
 -1      3251 3.51240E+01 1.12805E+01 0.00000E+00
 -1      3252 3.43740E+01 1.25795E+01 0.00000E+00
 -1      3253 3.73740E+01 1.25795E+01 0.00000E+00
 -1      3254 1.29000E+01 3.83090E+01 0.00000E+00
 -1      3255 1.44000E+01 3.83090E+01 0.00000E+00
 -1      3256 1.51500E+01 3.70100E+01 0.00000E+00
 -1      3257 1.38772E+02 2.24974E+01 0.00000E+00
 -1      3258 1.38772E+02 2.10224E+01 0.00000E+00
 -1      3259 1.38150E+02 1.61391E+01 0.00000E+00
 -1      3260 1.37883E+02 3.86221E+01 0.00000E+00
 -1      3261 1.14110E+02 2.52686E+01 0.00000E+00
 -1      3262 1.14984E+02 2.42926E+01 0.00000E+00
 -1      3263 1.17938E+01 8.83558E+00 0.00000E+00
 -1      3264 1.22363E+02 1.79999E+01 0.00000E+00
 -1      3265 1.23867E+02 1.77571E+01 0.00000E+00
 -1      3266 1.37688E+02 2.44318E+01 0.00000E+00
 -1      3267 1.12331E+02 3.34178E+01 0.00000E+00
 -1      3268 1.12180E+02 3.21581E+01 0.00000E+00
 -1      3269 1.16910E+01 2.12875E+01 0.00000E+00
 -1      3270 1.16910E+01 2.27625E+01 0.00000E+00
 -1      3271 1.18830E+01 1.08533E+01 0.00000E+00
 -1      3272 1.19667E+02 1.89511E+01 0.00000E+00
 -1      3273 1.20702E+02 1.83722E+01 0.00000E+00
 -1      3274 1.28041E+02 1.75855E+01 0.00000E+00
 -1      3275 1.29353E+02 1.78287E+01 0.00000E+00
 -1      3276 1.00862E+01 3.73269E+01 0.00000E+00
 -1      3277 1.38877E+02 3.61717E+01 0.00000E+00
 -1      3278 1.38928E+02 3.83950E+01 0.00000E+00
 -1      3279 1.31820E+01 1.15908E+01 0.00000E+00
 -1      3280 1.24435E+02 1.67094E+01 0.00000E+00
 -1      3281 1.11296E+02 3.12893E+01 0.00000E+00
 -1      3282 1.16910E+01 1.98188E+01 0.00000E+00
 -1      3283 1.29900E+01 2.05562E+01 0.00000E+00
 -1      3284 1.16910E+01 1.83500E+01 0.00000E+00
 -1      3285 1.16910E+01 3.30594E+01 0.00000E+00
 -1      3286 1.16910E+01 3.45281E+01 0.00000E+00
 -1      3287 1.11698E+02 3.68909E+01 0.00000E+00
 -1      3288 2.31240E+01 1.12805E+01 0.00000E+00
 -1      3289 2.23740E+01 1.25795E+01 0.00000E+00
 -1      3290 2.46240E+01 1.12805E+01 0.00000E+00
 -1      3291 1.36553E+02 2.04332E+01 0.00000E+00
 -1      3292 1.33128E+02 1.78617E+01 0.00000E+00
 -1      3293 1.33536E+02 1.88320E+01 0.00000E+00
 -1      3294 1.34762E+02 1.84514E+01 0.00000E+00
 -1      3295 2.83740E+01 1.25795E+01 0.00000E+00
 -1      3296 2.76240E+01 1.12805E+01 0.00000E+00
 -1      3297 2.61240E+01 1.12805E+01 0.00000E+00
 -1      3298 1.12938E+02 2.54900E+01 0.00000E+00
 -1      3299 1.11651E+02 2.82528E+01 0.00000E+00
 -1      3300 1.35286E+02 1.18661E+01 0.00000E+00
 -1      3301 1.33829E+02 1.17802E+01 0.00000E+00
 -1      3302 1.33079E+02 1.30792E+01 0.00000E+00
 -1      3303 1.35488E+02 1.40786E+01 0.00000E+00
 -1      3304 1.27395E+02 1.65844E+01 0.00000E+00
 -1      3305 1.38113E+02 2.31165E+01 0.00000E+00
 -1      3306 1.38309E+02 1.98750E+01 0.00000E+00
 -1      3307 1.38309E+02 1.84250E+01 0.00000E+00
 -1      3308 1.16559E+02 2.10652E+01 0.00000E+00
 -1      3309 1.16502E+02 1.98834E+01 0.00000E+00
 -1      3310 1.15679E+02 2.12591E+01 0.00000E+00
 -1      3311 1.18513E+02 1.86917E+01 0.00000E+00
 -1      3312 1.30394E+02 1.74707E+01 0.00000E+00
 -1      3313 1.31434E+02 1.71127E+01 0.00000E+00
 -1      3314 1.29924E+02 1.63412E+01 0.00000E+00
 -1      3315 1.14791E+02 2.32969E+01 0.00000E+00
 -1      3316 1.56240E+01 1.12805E+01 0.00000E+00
 -1      3317 1.41241E+01 1.12805E+01 0.00000E+00
 -1      3318 1.39320E+01 1.28898E+01 0.00000E+00
 -1      3319 1.36851E+02 1.68641E+01 0.00000E+00
 -1      3320 1.21304E+02 1.73215E+01 0.00000E+00
 -1      3321 1.16910E+01 3.01219E+01 0.00000E+00
 -1      3322 1.16910E+01 3.15906E+01 0.00000E+00
 -1      3323 1.29900E+01 3.23250E+01 0.00000E+00
 -1      3324 1.12407E+02 3.45144E+01 0.00000E+00
 -1      3325 1.11397E+02 3.39965E+01 0.00000E+00
 -1      3326 1.29900E+01 2.35000E+01 0.00000E+00
 -1      3327 1.16910E+01 2.42375E+01 0.00000E+00
 -1      3328 1.16910E+01 2.57125E+01 0.00000E+00
 -1      3329 1.37473E+02 2.02974E+01 0.00000E+00
 -1      3330 1.29900E+01 1.46687E+01 0.00000E+00
 -1      3331 1.16910E+01 1.54063E+01 0.00000E+00
 -1      3332 1.16910E+01 1.68750E+01 0.00000E+00
 -1      3333 1.38902E+02 3.72834E+01 0.00000E+00
 -1      3334 1.12710E+01 3.74352E+01 0.00000E+00
 -1      3335 1.63740E+01 1.25795E+01 0.00000E+00
 -1      3336 1.20210E+01 3.61362E+01 0.00000E+00
 -1      3337 1.10244E+02 3.46268E+01 0.00000E+00
 -1      3338 1.10169E+02 3.35302E+01 0.00000E+00
 -1      3339 2.04000E+01 3.57110E+01 0.00000E+00
 -1      3340 2.19000E+01 3.57110E+01 0.00000E+00
 -1      3341 2.34000E+01 3.57110E+01 0.00000E+00
 -1      3342 2.49000E+01 3.57110E+01 0.00000E+00
 -1      3343 2.26500E+01 3.44120E+01 0.00000E+00
 -1      3344 2.64000E+01 3.57110E+01 0.00000E+00
 -1      3345 2.79000E+01 3.57110E+01 0.00000E+00
 -1      3346 2.56500E+01 3.44120E+01 0.00000E+00
 -1      3347 2.94000E+01 3.57110E+01 0.00000E+00
 -1      3348 3.09000E+01 3.57110E+01 0.00000E+00
 -1      3349 2.86500E+01 3.44120E+01 0.00000E+00
 -1      3350 3.24000E+01 3.57110E+01 0.00000E+00
 -1      3351 3.39000E+01 3.57110E+01 0.00000E+00
 -1      3352 3.16500E+01 3.44120E+01 0.00000E+00
 -1      3353 3.54000E+01 3.57110E+01 0.00000E+00
 -1      3354 3.69000E+01 3.57110E+01 0.00000E+00
 -1      3355 3.46500E+01 3.44120E+01 0.00000E+00
 -1      3356 3.84000E+01 3.57110E+01 0.00000E+00
 -1      3357 3.99000E+01 3.57110E+01 0.00000E+00
 -1      3358 3.76500E+01 3.44120E+01 0.00000E+00
 -1      3359 4.14000E+01 3.57110E+01 0.00000E+00
 -1      3360 4.29000E+01 3.57110E+01 0.00000E+00
 -1      3361 4.06500E+01 3.44120E+01 0.00000E+00
 -1      3362 4.44000E+01 3.57110E+01 0.00000E+00
 -1      3363 4.59000E+01 3.57110E+01 0.00000E+00
 -1      3364 4.36500E+01 3.44120E+01 0.00000E+00
 -1      3365 4.74000E+01 3.57110E+01 0.00000E+00
 -1      3366 4.89000E+01 3.57110E+01 0.00000E+00
 -1      3367 4.66500E+01 3.44120E+01 0.00000E+00
 -1      3368 5.04000E+01 3.57110E+01 0.00000E+00
 -1      3369 5.19000E+01 3.57110E+01 0.00000E+00
 -1      3370 4.96500E+01 3.44120E+01 0.00000E+00
 -1      3371 5.34000E+01 3.57110E+01 0.00000E+00
 -1      3372 5.49000E+01 3.57110E+01 0.00000E+00
 -1      3373 5.26500E+01 3.44120E+01 0.00000E+00
 -1      3374 5.64000E+01 3.57110E+01 0.00000E+00
 -1      3375 5.79000E+01 3.57110E+01 0.00000E+00
 -1      3376 5.56500E+01 3.44120E+01 0.00000E+00
 -1      3377 5.94000E+01 3.57110E+01 0.00000E+00
 -1      3378 6.09000E+01 3.57110E+01 0.00000E+00
 -1      3379 5.86500E+01 3.44120E+01 0.00000E+00
 -1      3380 6.24000E+01 3.57110E+01 0.00000E+00
 -1      3381 6.39000E+01 3.57110E+01 0.00000E+00
 -1      3382 6.16500E+01 3.44120E+01 0.00000E+00
 -1      3383 6.54000E+01 3.57110E+01 0.00000E+00
 -1      3384 6.69000E+01 3.57110E+01 0.00000E+00
 -1      3385 6.46500E+01 3.44120E+01 0.00000E+00
 -1      3386 6.84000E+01 3.57110E+01 0.00000E+00
 -1      3387 6.99000E+01 3.57110E+01 0.00000E+00
 -1      3388 6.76500E+01 3.44120E+01 0.00000E+00
 -1      3389 7.14000E+01 3.57110E+01 0.00000E+00
 -1      3390 7.29000E+01 3.57110E+01 0.00000E+00
 -1      3391 7.06500E+01 3.44120E+01 0.00000E+00
 -1      3392 7.44000E+01 3.57110E+01 0.00000E+00
 -1      3393 7.59000E+01 3.57110E+01 0.00000E+00
 -1      3394 7.36500E+01 3.44120E+01 0.00000E+00
 -1      3395 7.74000E+01 3.57110E+01 0.00000E+00
 -1      3396 7.89000E+01 3.57110E+01 0.00000E+00
 -1      3397 7.66500E+01 3.44120E+01 0.00000E+00
 -1      3398 8.04000E+01 3.57110E+01 0.00000E+00
 -1      3399 8.19000E+01 3.57110E+01 0.00000E+00
 -1      3400 7.96500E+01 3.44120E+01 0.00000E+00
 -1      3401 8.34000E+01 3.57110E+01 0.00000E+00
 -1      3402 8.49000E+01 3.57110E+01 0.00000E+00
 -1      3403 8.26500E+01 3.44120E+01 0.00000E+00
 -1      3404 8.64000E+01 3.57110E+01 0.00000E+00
 -1      3405 8.79000E+01 3.57110E+01 0.00000E+00
 -1      3406 8.56500E+01 3.44120E+01 0.00000E+00
 -1      3407 8.94000E+01 3.57110E+01 0.00000E+00
 -1      3408 9.09000E+01 3.57110E+01 0.00000E+00
 -1      3409 8.86500E+01 3.44120E+01 0.00000E+00
 -1      3410 9.24000E+01 3.57110E+01 0.00000E+00
 -1      3411 9.39000E+01 3.57110E+01 0.00000E+00
 -1      3412 9.16500E+01 3.44120E+01 0.00000E+00
 -1      3413 9.54000E+01 3.57110E+01 0.00000E+00
 -1      3414 9.69000E+01 3.57110E+01 0.00000E+00
 -1      3415 9.46500E+01 3.44120E+01 0.00000E+00
 -1      3416 9.84000E+01 3.57110E+01 0.00000E+00
 -1      3417 9.99000E+01 3.57110E+01 0.00000E+00
 -1      3418 9.76500E+01 3.44120E+01 0.00000E+00
 -1      3419 1.01400E+02 3.57110E+01 0.00000E+00
 -1      3420 1.02900E+02 3.57110E+01 0.00000E+00
 -1      3421 1.00650E+02 3.44120E+01 0.00000E+00
 -1      3422 1.04400E+02 3.57110E+01 0.00000E+00
 -1      3423 1.05900E+02 3.57110E+01 0.00000E+00
 -1      3424 1.03650E+02 3.44120E+01 0.00000E+00
 -1      3425 1.44000E+01 3.57110E+01 0.00000E+00
 -1      3426 1.59000E+01 3.57110E+01 0.00000E+00
 -1      3427 4.41240E+01 1.38785E+01 0.00000E+00
 -1      3428 4.26240E+01 1.38785E+01 0.00000E+00
 -1      3429 4.11240E+01 1.38785E+01 0.00000E+00
 -1      3430 3.96240E+01 1.38785E+01 0.00000E+00
 -1      3431 4.18740E+01 1.51775E+01 0.00000E+00
 -1      3432 5.01240E+01 1.38785E+01 0.00000E+00
 -1      3433 4.86240E+01 1.38785E+01 0.00000E+00
 -1      3434 5.31240E+01 1.38785E+01 0.00000E+00
 -1      3435 5.16240E+01 1.38785E+01 0.00000E+00
 -1      3436 5.08740E+01 1.51775E+01 0.00000E+00
 -1      3437 5.61240E+01 1.38785E+01 0.00000E+00
 -1      3438 5.46240E+01 1.38785E+01 0.00000E+00
 -1      3439 5.38740E+01 1.51775E+01 0.00000E+00
 -1      3440 5.91240E+01 1.38785E+01 0.00000E+00
 -1      3441 5.76240E+01 1.38785E+01 0.00000E+00
 -1      3442 5.68740E+01 1.51775E+01 0.00000E+00
 -1      3443 6.21240E+01 1.38785E+01 0.00000E+00
 -1      3444 6.06240E+01 1.38785E+01 0.00000E+00
 -1      3445 5.98740E+01 1.51775E+01 0.00000E+00
 -1      3446 6.51240E+01 1.38785E+01 0.00000E+00
 -1      3447 6.36240E+01 1.38785E+01 0.00000E+00
 -1      3448 6.28740E+01 1.51775E+01 0.00000E+00
 -1      3449 6.81240E+01 1.38785E+01 0.00000E+00
 -1      3450 6.66240E+01 1.38785E+01 0.00000E+00
 -1      3451 6.58740E+01 1.51775E+01 0.00000E+00
 -1      3452 7.11240E+01 1.38785E+01 0.00000E+00
 -1      3453 6.96240E+01 1.38785E+01 0.00000E+00
 -1      3454 6.88740E+01 1.51775E+01 0.00000E+00
 -1      3455 7.41240E+01 1.38785E+01 0.00000E+00
 -1      3456 7.26240E+01 1.38785E+01 0.00000E+00
 -1      3457 7.18740E+01 1.51775E+01 0.00000E+00
 -1      3458 7.71240E+01 1.38785E+01 0.00000E+00
 -1      3459 7.56240E+01 1.38785E+01 0.00000E+00
 -1      3460 7.48740E+01 1.51775E+01 0.00000E+00
 -1      3461 8.01240E+01 1.38785E+01 0.00000E+00
 -1      3462 7.86240E+01 1.38785E+01 0.00000E+00
 -1      3463 7.78740E+01 1.51775E+01 0.00000E+00
 -1      3464 8.31240E+01 1.38785E+01 0.00000E+00
 -1      3465 8.16240E+01 1.38785E+01 0.00000E+00
 -1      3466 8.08740E+01 1.51775E+01 0.00000E+00
 -1      3467 8.61240E+01 1.38785E+01 0.00000E+00
 -1      3468 8.46240E+01 1.38785E+01 0.00000E+00
 -1      3469 8.38740E+01 1.51775E+01 0.00000E+00
 -1      3470 8.91240E+01 1.38785E+01 0.00000E+00
 -1      3471 8.76240E+01 1.38785E+01 0.00000E+00
 -1      3472 8.68740E+01 1.51775E+01 0.00000E+00
 -1      3473 9.21240E+01 1.38785E+01 0.00000E+00
 -1      3474 9.06240E+01 1.38785E+01 0.00000E+00
 -1      3475 8.98740E+01 1.51775E+01 0.00000E+00
 -1      3476 9.51240E+01 1.38785E+01 0.00000E+00
 -1      3477 9.36240E+01 1.38785E+01 0.00000E+00
 -1      3478 9.28740E+01 1.51775E+01 0.00000E+00
 -1      3479 9.81240E+01 1.38785E+01 0.00000E+00
 -1      3480 9.66240E+01 1.38785E+01 0.00000E+00
 -1      3481 9.58740E+01 1.51775E+01 0.00000E+00
 -1      3482 1.01124E+02 1.38785E+01 0.00000E+00
 -1      3483 9.96240E+01 1.38785E+01 0.00000E+00
 -1      3484 9.88740E+01 1.51775E+01 0.00000E+00
 -1      3485 1.04124E+02 1.38785E+01 0.00000E+00
 -1      3486 1.02624E+02 1.38785E+01 0.00000E+00
 -1      3487 1.01874E+02 1.51775E+01 0.00000E+00
 -1      3488 1.07124E+02 1.38785E+01 0.00000E+00
 -1      3489 1.05624E+02 1.38785E+01 0.00000E+00
 -1      3490 1.04874E+02 1.51775E+01 0.00000E+00
 -1      3491 1.10124E+02 1.38785E+01 0.00000E+00
 -1      3492 1.08624E+02 1.38785E+01 0.00000E+00
 -1      3493 1.07874E+02 1.51775E+01 0.00000E+00
 -1      3494 1.13124E+02 1.38785E+01 0.00000E+00
 -1      3495 1.11624E+02 1.38785E+01 0.00000E+00
 -1      3496 1.10874E+02 1.51775E+01 0.00000E+00
 -1      3497 1.16124E+02 1.38785E+01 0.00000E+00
 -1      3498 1.14624E+02 1.38785E+01 0.00000E+00
 -1      3499 1.13874E+02 1.51775E+01 0.00000E+00
 -1      3500 1.22124E+02 1.38560E+01 0.00000E+00
 -1      3501 1.20624E+02 1.38560E+01 0.00000E+00
 -1      3502 1.25890E+02 1.45246E+01 0.00000E+00
 -1      3503 1.24390E+02 1.45246E+01 0.00000E+00
 -1      3504 1.27390E+02 1.45246E+01 0.00000E+00
 -1      3505 1.31419E+02 1.42813E+01 0.00000E+00
 -1      3506 1.29919E+02 1.42813E+01 0.00000E+00
 -1      3507 1.10144E+02 3.19196E+01 0.00000E+00
 -1      3508 1.10120E+02 3.03090E+01 0.00000E+00
 -1      3509 1.08992E+02 3.25499E+01 0.00000E+00
 -1      3510 4.71240E+01 1.38785E+01 0.00000E+00
 -1      3511 4.56240E+01 1.38785E+01 0.00000E+00
 -1      3512 4.48740E+01 1.51775E+01 0.00000E+00
 -1      3513 4.78740E+01 1.51775E+01 0.00000E+00
 -1      3514 1.48741E+01 1.40483E+01 0.00000E+00
 -1      3515 1.39320E+01 1.43585E+01 0.00000E+00
 -1      3516 1.39320E+01 1.58273E+01 0.00000E+00
 -1      3517 3.21240E+01 1.38785E+01 0.00000E+00
 -1      3518 3.06240E+01 1.38785E+01 0.00000E+00
 -1      3519 1.17158E+02 1.82963E+01 0.00000E+00
 -1      3520 1.18289E+02 1.72984E+01 0.00000E+00
 -1      3521 2.01240E+01 1.38785E+01 0.00000E+00
 -1      3522 1.86240E+01 1.38785E+01 0.00000E+00
 -1      3523 1.20509E+02 1.64131E+01 0.00000E+00
 -1      3524 1.22170E+02 1.60408E+01 0.00000E+00
 -1      3525 1.16910E+01 2.71844E+01 0.00000E+00
 -1      3526 1.16910E+01 2.86531E+01 0.00000E+00
 -1      3527 1.29900E+01 2.93875E+01 0.00000E+00
 -1      3528 1.74000E+01 3.57110E+01 0.00000E+00
 -1      3529 1.89000E+01 3.57110E+01 0.00000E+00
 -1      3530 1.66500E+01 3.44120E+01 0.00000E+00
 -1      3531 1.10552E+02 2.87236E+01 0.00000E+00
 -1      3532 1.10931E+02 2.72978E+01 0.00000E+00
 -1      3533 1.12609E+02 3.59325E+01 0.00000E+00
 -1      3534 1.13518E+02 2.28408E+01 0.00000E+00
 -1      3535 1.14463E+02 2.19848E+01 0.00000E+00
 -1      3536 1.11636E+02 2.55829E+01 0.00000E+00
 -1      3537 1.12544E+02 2.42458E+01 0.00000E+00
 -1      3538 1.74990E+01 1.39634E+01 0.00000E+00
 -1      3539 1.59990E+01 1.39634E+01 0.00000E+00
 -1      3540 1.59990E+01 1.54321E+01 0.00000E+00
 -1      3541 1.82490E+01 1.52624E+01 0.00000E+00
 -1      3542 1.10561E+02 3.60516E+01 0.00000E+00
 -1      3543 1.09333E+02 3.55853E+01 0.00000E+00
 -1      3544 1.29900E+01 1.76125E+01 0.00000E+00
 -1      3545 1.96500E+01 3.44120E+01 0.00000E+00
 -1      3546 1.07083E+02 3.42863E+01 0.00000E+00
 -1      3547 1.07833E+02 3.55853E+01 0.00000E+00
 -1      3548 2.53740E+01 1.25795E+01 0.00000E+00
 -1      3549 2.31240E+01 1.38785E+01 0.00000E+00
 -1      3550 2.16240E+01 1.38785E+01 0.00000E+00
 -1      3551 2.08740E+01 1.51775E+01 0.00000E+00
 -1      3552 1.09437E+02 2.65244E+01 0.00000E+00
 -1      3553 1.10537E+02 2.60536E+01 0.00000E+00
 -1      3554 1.10142E+02 2.48095E+01 0.00000E+00
 -1      3555 1.33200E+01 3.54019E+01 0.00000E+00
 -1      3556 1.40700E+01 3.41029E+01 0.00000E+00
 -1      3557 1.42890E+01 1.98219E+01 0.00000E+00
 -1      3558 1.42890E+01 2.12906E+01 0.00000E+00
 -1      3559 1.32659E+02 1.67321E+01 0.00000E+00
 -1      3560 2.91240E+01 1.38785E+01 0.00000E+00
 -1      3561 2.76240E+01 1.38785E+01 0.00000E+00
 -1      3562 2.98740E+01 1.51775E+01 0.00000E+00
 -1      3563 3.88740E+01 1.51775E+01 0.00000E+00
 -1      3564 3.81240E+01 1.38785E+01 0.00000E+00
 -1      3565 3.66240E+01 1.38785E+01 0.00000E+00
 -1      3566 1.19816E+02 1.51345E+01 0.00000E+00
 -1      3567 1.19066E+02 1.38581E+01 0.00000E+00
 -1      3568 1.17566E+02 1.38581E+01 0.00000E+00
 -1      3569 1.18951E+02 1.64152E+01 0.00000E+00
 -1      3570 1.16816E+02 1.51571E+01 0.00000E+00
 -1      3571 1.22920E+02 1.47643E+01 0.00000E+00
 -1      3572 1.28879E+02 1.46393E+01 0.00000E+00
 -1      3573 1.32624E+02 1.47810E+01 0.00000E+00
 -1      3574 1.09400E+02 2.93539E+01 0.00000E+00
 -1      3575 1.35523E+02 1.60296E+01 0.00000E+00
 -1      3576 1.34318E+02 1.55299E+01 0.00000E+00
 -1      3577 1.14406E+02 2.08030E+01 0.00000E+00
 -1      3578 1.55880E+01 2.20313E+01 0.00000E+00
 -1      3579 1.42890E+01 2.27656E+01 0.00000E+00
 -1      3580 1.42890E+01 2.42406E+01 0.00000E+00
 -1      3581 1.17597E+02 1.60199E+01 0.00000E+00
 -1      3582 3.51240E+01 1.38785E+01 0.00000E+00
 -1      3583 3.36240E+01 1.38785E+01 0.00000E+00
 -1      3584 3.28740E+01 1.51775E+01 0.00000E+00
 -1      3585 3.58740E+01 1.51775E+01 0.00000E+00
 -1      3586 1.40700E+01 3.11654E+01 0.00000E+00
 -1      3587 1.40700E+01 3.26341E+01 0.00000E+00
 -1      3588 1.51500E+01 3.29432E+01 0.00000E+00
 -1      3589 1.29900E+01 2.64469E+01 0.00000E+00
 -1      3590 1.12216E+02 2.29337E+01 0.00000E+00
 -1      3591 1.35682E+02 1.83155E+01 0.00000E+00
 -1      3592 1.36090E+02 1.92859E+01 0.00000E+00
 -1      3593 1.05125E+02 3.28014E+01 0.00000E+00
 -1      3594 1.07059E+02 3.26757E+01 0.00000E+00
 -1      3595 1.07034E+02 3.10650E+01 0.00000E+00
 -1      3596 2.49000E+01 3.31130E+01 0.00000E+00
 -1      3597 2.64000E+01 3.31130E+01 0.00000E+00
 -1      3598 2.79000E+01 3.31130E+01 0.00000E+00
 -1      3599 2.94000E+01 3.31130E+01 0.00000E+00
 -1      3600 2.71500E+01 3.18140E+01 0.00000E+00
 -1      3601 3.09000E+01 3.31130E+01 0.00000E+00
 -1      3602 3.24000E+01 3.31130E+01 0.00000E+00
 -1      3603 3.01500E+01 3.18140E+01 0.00000E+00
 -1      3604 3.39000E+01 3.31130E+01 0.00000E+00
 -1      3605 3.54000E+01 3.31130E+01 0.00000E+00
 -1      3606 3.31500E+01 3.18140E+01 0.00000E+00
 -1      3607 3.69000E+01 3.31130E+01 0.00000E+00
 -1      3608 3.84000E+01 3.31130E+01 0.00000E+00
 -1      3609 3.61500E+01 3.18140E+01 0.00000E+00
 -1      3610 3.99000E+01 3.31130E+01 0.00000E+00
 -1      3611 4.14000E+01 3.31130E+01 0.00000E+00
 -1      3612 3.91500E+01 3.18140E+01 0.00000E+00
 -1      3613 4.29000E+01 3.31130E+01 0.00000E+00
 -1      3614 4.44000E+01 3.31130E+01 0.00000E+00
 -1      3615 4.21500E+01 3.18140E+01 0.00000E+00
 -1      3616 4.59000E+01 3.31130E+01 0.00000E+00
 -1      3617 4.74000E+01 3.31130E+01 0.00000E+00
 -1      3618 4.51500E+01 3.18140E+01 0.00000E+00
 -1      3619 4.89000E+01 3.31130E+01 0.00000E+00
 -1      3620 5.04000E+01 3.31130E+01 0.00000E+00
 -1      3621 4.81500E+01 3.18140E+01 0.00000E+00
 -1      3622 5.19000E+01 3.31130E+01 0.00000E+00
 -1      3623 5.34000E+01 3.31130E+01 0.00000E+00
 -1      3624 5.11500E+01 3.18140E+01 0.00000E+00
 -1      3625 5.49000E+01 3.31130E+01 0.00000E+00
 -1      3626 5.64000E+01 3.31130E+01 0.00000E+00
 -1      3627 5.41500E+01 3.18140E+01 0.00000E+00
 -1      3628 5.79000E+01 3.31130E+01 0.00000E+00
 -1      3629 5.94000E+01 3.31130E+01 0.00000E+00
 -1      3630 5.71500E+01 3.18140E+01 0.00000E+00
 -1      3631 6.09000E+01 3.31130E+01 0.00000E+00
 -1      3632 6.24000E+01 3.31130E+01 0.00000E+00
 -1      3633 6.01500E+01 3.18140E+01 0.00000E+00
 -1      3634 6.39000E+01 3.31130E+01 0.00000E+00
 -1      3635 6.54000E+01 3.31130E+01 0.00000E+00
 -1      3636 6.31500E+01 3.18140E+01 0.00000E+00
 -1      3637 6.69000E+01 3.31130E+01 0.00000E+00
 -1      3638 6.84000E+01 3.31130E+01 0.00000E+00
 -1      3639 6.61500E+01 3.18140E+01 0.00000E+00
 -1      3640 6.99000E+01 3.31130E+01 0.00000E+00
 -1      3641 7.14000E+01 3.31130E+01 0.00000E+00
 -1      3642 6.91500E+01 3.18140E+01 0.00000E+00
 -1      3643 7.29000E+01 3.31130E+01 0.00000E+00
 -1      3644 7.44000E+01 3.31130E+01 0.00000E+00
 -1      3645 7.21500E+01 3.18140E+01 0.00000E+00
 -1      3646 7.59000E+01 3.31130E+01 0.00000E+00
 -1      3647 7.74000E+01 3.31130E+01 0.00000E+00
 -1      3648 7.51500E+01 3.18140E+01 0.00000E+00
 -1      3649 7.89000E+01 3.31130E+01 0.00000E+00
 -1      3650 8.04000E+01 3.31130E+01 0.00000E+00
 -1      3651 7.81500E+01 3.18140E+01 0.00000E+00
 -1      3652 8.19000E+01 3.31130E+01 0.00000E+00
 -1      3653 8.34000E+01 3.31130E+01 0.00000E+00
 -1      3654 8.11500E+01 3.18140E+01 0.00000E+00
 -1      3655 8.49000E+01 3.31130E+01 0.00000E+00
 -1      3656 8.64000E+01 3.31130E+01 0.00000E+00
 -1      3657 8.41500E+01 3.18140E+01 0.00000E+00
 -1      3658 8.79000E+01 3.31130E+01 0.00000E+00
 -1      3659 8.94000E+01 3.31130E+01 0.00000E+00
 -1      3660 8.71500E+01 3.18140E+01 0.00000E+00
 -1      3661 9.09000E+01 3.31130E+01 0.00000E+00
 -1      3662 9.24000E+01 3.31130E+01 0.00000E+00
 -1      3663 9.01500E+01 3.18140E+01 0.00000E+00
 -1      3664 9.39000E+01 3.31130E+01 0.00000E+00
 -1      3665 9.54000E+01 3.31130E+01 0.00000E+00
 -1      3666 9.31500E+01 3.18140E+01 0.00000E+00
 -1      3667 9.69000E+01 3.31130E+01 0.00000E+00
 -1      3668 9.84000E+01 3.31130E+01 0.00000E+00
 -1      3669 9.61500E+01 3.18140E+01 0.00000E+00
 -1      3670 9.99000E+01 3.31130E+01 0.00000E+00
 -1      3671 1.01400E+02 3.31130E+01 0.00000E+00
 -1      3672 9.91500E+01 3.18140E+01 0.00000E+00
 -1      3673 1.03625E+02 3.28014E+01 0.00000E+00
 -1      3674 1.49655E+01 1.63672E+01 0.00000E+00
 -1      3675 1.40235E+01 1.66774E+01 0.00000E+00
 -1      3676 1.40235E+01 1.81524E+01 0.00000E+00
 -1      3677 1.60905E+01 1.62823E+01 0.00000E+00
 -1      3678 2.19000E+01 3.31130E+01 0.00000E+00
 -1      3679 2.34000E+01 3.31130E+01 0.00000E+00
 -1      3680 2.41500E+01 3.18140E+01 0.00000E+00
 -1      3681 5.46240E+01 1.64765E+01 0.00000E+00
 -1      3682 5.31240E+01 1.64765E+01 0.00000E+00
 -1      3683 5.16240E+01 1.64765E+01 0.00000E+00
 -1      3684 5.01240E+01 1.64765E+01 0.00000E+00
 -1      3685 5.23740E+01 1.77755E+01 0.00000E+00
 -1      3686 6.06240E+01 1.64765E+01 0.00000E+00
 -1      3687 5.91240E+01 1.64765E+01 0.00000E+00
 -1      3688 6.36240E+01 1.64765E+01 0.00000E+00
 -1      3689 6.21240E+01 1.64765E+01 0.00000E+00
 -1      3690 6.13740E+01 1.77755E+01 0.00000E+00
 -1      3691 6.66240E+01 1.64765E+01 0.00000E+00
 -1      3692 6.51240E+01 1.64765E+01 0.00000E+00
 -1      3693 6.43740E+01 1.77755E+01 0.00000E+00
 -1      3694 6.96240E+01 1.64765E+01 0.00000E+00
 -1      3695 6.81240E+01 1.64765E+01 0.00000E+00
 -1      3696 6.73740E+01 1.77755E+01 0.00000E+00
 -1      3697 7.26240E+01 1.64765E+01 0.00000E+00
 -1      3698 7.11240E+01 1.64765E+01 0.00000E+00
 -1      3699 7.03740E+01 1.77755E+01 0.00000E+00
 -1      3700 7.56240E+01 1.64765E+01 0.00000E+00
 -1      3701 7.41240E+01 1.64765E+01 0.00000E+00
 -1      3702 7.33740E+01 1.77755E+01 0.00000E+00
 -1      3703 7.86240E+01 1.64765E+01 0.00000E+00
 -1      3704 7.71240E+01 1.64765E+01 0.00000E+00
 -1      3705 7.63740E+01 1.77755E+01 0.00000E+00
 -1      3706 8.16240E+01 1.64765E+01 0.00000E+00
 -1      3707 8.01240E+01 1.64765E+01 0.00000E+00
 -1      3708 7.93740E+01 1.77755E+01 0.00000E+00
 -1      3709 8.46240E+01 1.64765E+01 0.00000E+00
 -1      3710 8.31240E+01 1.64765E+01 0.00000E+00
 -1      3711 8.23740E+01 1.77755E+01 0.00000E+00
 -1      3712 8.76240E+01 1.64765E+01 0.00000E+00
 -1      3713 8.61240E+01 1.64765E+01 0.00000E+00
 -1      3714 8.53740E+01 1.77755E+01 0.00000E+00
 -1      3715 9.06240E+01 1.64765E+01 0.00000E+00
 -1      3716 8.91240E+01 1.64765E+01 0.00000E+00
 -1      3717 8.83740E+01 1.77755E+01 0.00000E+00
 -1      3718 9.36240E+01 1.64765E+01 0.00000E+00
 -1      3719 9.21240E+01 1.64765E+01 0.00000E+00
 -1      3720 9.13740E+01 1.77755E+01 0.00000E+00
 -1      3721 9.66240E+01 1.64765E+01 0.00000E+00
 -1      3722 9.51240E+01 1.64765E+01 0.00000E+00
 -1      3723 9.43740E+01 1.77755E+01 0.00000E+00
 -1      3724 9.96240E+01 1.64765E+01 0.00000E+00
 -1      3725 9.81240E+01 1.64765E+01 0.00000E+00
 -1      3726 9.73740E+01 1.77755E+01 0.00000E+00
 -1      3727 1.02624E+02 1.64765E+01 0.00000E+00
 -1      3728 1.01124E+02 1.64765E+01 0.00000E+00
 -1      3729 1.00374E+02 1.77755E+01 0.00000E+00
 -1      3730 1.05624E+02 1.64765E+01 0.00000E+00
 -1      3731 1.04124E+02 1.64765E+01 0.00000E+00
 -1      3732 1.03374E+02 1.77755E+01 0.00000E+00
 -1      3733 1.08624E+02 1.64765E+01 0.00000E+00
 -1      3734 1.07124E+02 1.64765E+01 0.00000E+00
 -1      3735 1.06374E+02 1.77755E+01 0.00000E+00
 -1      3736 1.11624E+02 1.64765E+01 0.00000E+00
 -1      3737 1.10124E+02 1.64765E+01 0.00000E+00
 -1      3738 1.09374E+02 1.77755E+01 0.00000E+00
 -1      3739 1.13229E+02 2.02136E+01 0.00000E+00
 -1      3740 1.14446E+02 1.94879E+01 0.00000E+00
 -1      3741 1.89000E+01 3.31130E+01 0.00000E+00
 -1      3742 2.04000E+01 3.31130E+01 0.00000E+00
 -1      3743 2.11500E+01 3.18140E+01 0.00000E+00
 -1      3744 1.15362E+02 1.89890E+01 0.00000E+00
 -1      3745 1.16242E+02 1.87952E+01 0.00000E+00
 -1      3746 1.16018E+02 1.74020E+01 0.00000E+00
 -1      3747 1.14186E+02 1.83997E+01 0.00000E+00
 -1      3748 1.07466E+02 2.94797E+01 0.00000E+00
 -1      3749 1.07899E+02 2.78943E+01 0.00000E+00
 -1      3750 1.05533E+02 2.96054E+01 0.00000E+00
 -1      3751 4.26240E+01 1.64765E+01 0.00000E+00
 -1      3752 4.11240E+01 1.64765E+01 0.00000E+00
 -1      3753 1.16154E+02 1.60403E+01 0.00000E+00
 -1      3754 1.40700E+01 2.82279E+01 0.00000E+00
 -1      3755 1.40700E+01 2.96966E+01 0.00000E+00
 -1      3756 1.51500E+01 3.00058E+01 0.00000E+00
 -1      3757 1.62750E+01 3.30281E+01 0.00000E+00
 -1      3758 1.77750E+01 3.30281E+01 0.00000E+00
 -1      3759 1.85250E+01 3.17291E+01 0.00000E+00
 -1      3760 1.62750E+01 3.15594E+01 0.00000E+00
 -1      3761 2.61240E+01 1.38785E+01 0.00000E+00
 -1      3762 2.46240E+01 1.38785E+01 0.00000E+00
 -1      3763 2.38740E+01 1.51775E+01 0.00000E+00
 -1      3764 2.68740E+01 1.51775E+01 0.00000E+00
 -1      3765 1.41795E+01 2.54983E+01 0.00000E+00
 -1      3766 1.41795E+01 2.69702E+01 0.00000E+00
 -1      3767 1.52595E+01 2.72793E+01 0.00000E+00
 -1      3768 1.54785E+01 2.47639E+01 0.00000E+00
 -1      3769 1.10817E+02 2.30045E+01 0.00000E+00
 -1      3770 1.11791E+02 2.15995E+01 0.00000E+00
 -1      3771 5.76240E+01 1.64765E+01 0.00000E+00
 -1      3772 5.61240E+01 1.64765E+01 0.00000E+00
 -1      3773 5.53740E+01 1.77755E+01 0.00000E+00
 -1      3774 1.15238E+02 1.65392E+01 0.00000E+00
 -1      3775 5.83740E+01 1.77755E+01 0.00000E+00
 -1      3776 1.07504E+02 2.66501E+01 0.00000E+00
 -1      3777 1.02875E+02 3.15024E+01 0.00000E+00
 -1      3778 1.53225E+01 1.88868E+01 0.00000E+00
 -1      3779 3.06240E+01 1.64765E+01 0.00000E+00
 -1      3780 2.91240E+01 1.64765E+01 0.00000E+00
 -1      3781 1.13738E+02 1.65392E+01 0.00000E+00
 -1      3782 4.93740E+01 1.77755E+01 0.00000E+00
 -1      3783 4.86240E+01 1.64765E+01 0.00000E+00
 -1      3784 4.71240E+01 1.64765E+01 0.00000E+00
 -1      3785 1.11831E+02 2.02844E+01 0.00000E+00
 -1      3786 3.36240E+01 1.64765E+01 0.00000E+00
 -1      3787 3.21240E+01 1.64765E+01 0.00000E+00
 -1      3788 3.13740E+01 1.77755E+01 0.00000E+00
 -1      3789 4.56240E+01 1.64765E+01 0.00000E+00
 -1      3790 4.41240E+01 1.64765E+01 0.00000E+00
 -1      3791 4.63740E+01 1.77755E+01 0.00000E+00
 -1      3792 1.68870E+01 2.12938E+01 0.00000E+00
 -1      3793 1.68870E+01 2.27687E+01 0.00000E+00
 -1      3794 4.33740E+01 1.77755E+01 0.00000E+00
 -1      3795 2.16240E+01 1.64765E+01 0.00000E+00
 -1      3796 2.01240E+01 1.64765E+01 0.00000E+00
 -1      3797 1.08618E+02 2.39460E+01 0.00000E+00
 -1      3798 1.09718E+02 2.34752E+01 0.00000E+00
 -1      3799 1.09293E+02 2.21410E+01 0.00000E+00
 -1      3800 4.03740E+01 1.77755E+01 0.00000E+00
 -1      3801 3.96240E+01 1.64765E+01 0.00000E+00
 -1      3802 3.81240E+01 1.64765E+01 0.00000E+00
 -1      3803 1.86698E+01 1.63370E+01 0.00000E+00
 -1      3804 1.75448E+01 1.64218E+01 0.00000E+00
 -1      3805 1.65113E+01 1.73569E+01 0.00000E+00
 -1      3806 1.94198E+01 1.76360E+01 0.00000E+00
 -1      3807 1.67768E+01 1.90263E+01 0.00000E+00
 -1      3808 1.80758E+01 1.97638E+01 0.00000E+00
 -1      3809 1.12822E+02 1.70380E+01 0.00000E+00
 -1      3810 1.12072E+02 1.83370E+01 0.00000E+00
 -1      3811 2.94000E+01 3.05150E+01 0.00000E+00
 -1      3812 3.09000E+01 3.05150E+01 0.00000E+00
 -1      3813 3.24000E+01 3.05150E+01 0.00000E+00
 -1      3814 3.39000E+01 3.05150E+01 0.00000E+00
 -1      3815 3.16500E+01 2.92160E+01 0.00000E+00
 -1      3816 3.54000E+01 3.05150E+01 0.00000E+00
 -1      3817 3.69000E+01 3.05150E+01 0.00000E+00
 -1      3818 3.46500E+01 2.92160E+01 0.00000E+00
 -1      3819 3.84000E+01 3.05150E+01 0.00000E+00
 -1      3820 3.99000E+01 3.05150E+01 0.00000E+00
 -1      3821 3.76500E+01 2.92160E+01 0.00000E+00
 -1      3822 4.14000E+01 3.05150E+01 0.00000E+00
 -1      3823 4.29000E+01 3.05150E+01 0.00000E+00
 -1      3824 4.06500E+01 2.92160E+01 0.00000E+00
 -1      3825 4.44000E+01 3.05150E+01 0.00000E+00
 -1      3826 4.59000E+01 3.05150E+01 0.00000E+00
 -1      3827 4.36500E+01 2.92160E+01 0.00000E+00
 -1      3828 4.74000E+01 3.05150E+01 0.00000E+00
 -1      3829 4.89000E+01 3.05150E+01 0.00000E+00
 -1      3830 4.66500E+01 2.92160E+01 0.00000E+00
 -1      3831 5.04000E+01 3.05150E+01 0.00000E+00
 -1      3832 5.19000E+01 3.05150E+01 0.00000E+00
 -1      3833 4.96500E+01 2.92160E+01 0.00000E+00
 -1      3834 5.34000E+01 3.05150E+01 0.00000E+00
 -1      3835 5.49000E+01 3.05150E+01 0.00000E+00
 -1      3836 5.26500E+01 2.92160E+01 0.00000E+00
 -1      3837 5.64000E+01 3.05150E+01 0.00000E+00
 -1      3838 5.79000E+01 3.05150E+01 0.00000E+00
 -1      3839 5.56500E+01 2.92160E+01 0.00000E+00
 -1      3840 5.94000E+01 3.05150E+01 0.00000E+00
 -1      3841 6.09000E+01 3.05150E+01 0.00000E+00
 -1      3842 5.86500E+01 2.92160E+01 0.00000E+00
 -1      3843 6.24000E+01 3.05150E+01 0.00000E+00
 -1      3844 6.39000E+01 3.05150E+01 0.00000E+00
 -1      3845 6.16500E+01 2.92160E+01 0.00000E+00
 -1      3846 6.54000E+01 3.05150E+01 0.00000E+00
 -1      3847 6.69000E+01 3.05150E+01 0.00000E+00
 -1      3848 6.46500E+01 2.92160E+01 0.00000E+00
 -1      3849 6.84000E+01 3.05150E+01 0.00000E+00
 -1      3850 6.99000E+01 3.05150E+01 0.00000E+00
 -1      3851 6.76500E+01 2.92160E+01 0.00000E+00
 -1      3852 7.14000E+01 3.05150E+01 0.00000E+00
 -1      3853 7.29000E+01 3.05150E+01 0.00000E+00
 -1      3854 7.06500E+01 2.92160E+01 0.00000E+00
 -1      3855 7.44000E+01 3.05150E+01 0.00000E+00
 -1      3856 7.59000E+01 3.05150E+01 0.00000E+00
 -1      3857 7.36500E+01 2.92160E+01 0.00000E+00
 -1      3858 7.74000E+01 3.05150E+01 0.00000E+00
 -1      3859 7.89000E+01 3.05150E+01 0.00000E+00
 -1      3860 7.66500E+01 2.92160E+01 0.00000E+00
 -1      3861 8.04000E+01 3.05150E+01 0.00000E+00
 -1      3862 8.19000E+01 3.05150E+01 0.00000E+00
 -1      3863 7.96500E+01 2.92160E+01 0.00000E+00
 -1      3864 8.34000E+01 3.05150E+01 0.00000E+00
 -1      3865 8.49000E+01 3.05150E+01 0.00000E+00
 -1      3866 8.26500E+01 2.92160E+01 0.00000E+00
 -1      3867 8.64000E+01 3.05150E+01 0.00000E+00
 -1      3868 8.79000E+01 3.05150E+01 0.00000E+00
 -1      3869 8.56500E+01 2.92160E+01 0.00000E+00
 -1      3870 8.94000E+01 3.05150E+01 0.00000E+00
 -1      3871 9.09000E+01 3.05150E+01 0.00000E+00
 -1      3872 8.86500E+01 2.92160E+01 0.00000E+00
 -1      3873 9.24000E+01 3.05150E+01 0.00000E+00
 -1      3874 9.39000E+01 3.05150E+01 0.00000E+00
 -1      3875 9.16500E+01 2.92160E+01 0.00000E+00
 -1      3876 9.54000E+01 3.05150E+01 0.00000E+00
 -1      3877 9.69000E+01 3.05150E+01 0.00000E+00
 -1      3878 9.46500E+01 2.92160E+01 0.00000E+00
 -1      3879 9.84000E+01 3.05150E+01 0.00000E+00
 -1      3880 9.99000E+01 3.05150E+01 0.00000E+00
 -1      3881 9.76500E+01 2.92160E+01 0.00000E+00
 -1      3882 6.81240E+01 1.90745E+01 0.00000E+00
 -1      3883 6.66240E+01 1.90745E+01 0.00000E+00
 -1      3884 5.31240E+01 1.90745E+01 0.00000E+00
 -1      3885 5.16240E+01 1.90745E+01 0.00000E+00
 -1      3886 6.51240E+01 1.90745E+01 0.00000E+00
 -1      3887 6.36240E+01 1.90745E+01 0.00000E+00
 -1      3888 6.58740E+01 2.03735E+01 0.00000E+00
 -1      3889 6.21240E+01 1.90745E+01 0.00000E+00
 -1      3890 6.06240E+01 1.90745E+01 0.00000E+00
 -1      3891 6.28740E+01 2.03735E+01 0.00000E+00
 -1      3892 7.11240E+01 1.90745E+01 0.00000E+00
 -1      3893 6.96240E+01 1.90745E+01 0.00000E+00
 -1      3894 6.88740E+01 2.03735E+01 0.00000E+00
 -1      3895 7.41240E+01 1.90745E+01 0.00000E+00
 -1      3896 7.26240E+01 1.90745E+01 0.00000E+00
 -1      3897 7.18740E+01 2.03735E+01 0.00000E+00
 -1      3898 7.71240E+01 1.90745E+01 0.00000E+00
 -1      3899 7.56240E+01 1.90745E+01 0.00000E+00
 -1      3900 7.48740E+01 2.03735E+01 0.00000E+00
 -1      3901 8.01240E+01 1.90745E+01 0.00000E+00
 -1      3902 7.86240E+01 1.90745E+01 0.00000E+00
 -1      3903 7.78740E+01 2.03735E+01 0.00000E+00
 -1      3904 8.31240E+01 1.90745E+01 0.00000E+00
 -1      3905 8.16240E+01 1.90745E+01 0.00000E+00
 -1      3906 8.08740E+01 2.03735E+01 0.00000E+00
 -1      3907 8.61240E+01 1.90745E+01 0.00000E+00
 -1      3908 8.46240E+01 1.90745E+01 0.00000E+00
 -1      3909 8.38740E+01 2.03735E+01 0.00000E+00
 -1      3910 8.91240E+01 1.90745E+01 0.00000E+00
 -1      3911 8.76240E+01 1.90745E+01 0.00000E+00
 -1      3912 8.68740E+01 2.03735E+01 0.00000E+00
 -1      3913 9.21240E+01 1.90745E+01 0.00000E+00
 -1      3914 9.06240E+01 1.90745E+01 0.00000E+00
 -1      3915 8.98740E+01 2.03735E+01 0.00000E+00
 -1      3916 9.51240E+01 1.90745E+01 0.00000E+00
 -1      3917 9.36240E+01 1.90745E+01 0.00000E+00
 -1      3918 9.28740E+01 2.03735E+01 0.00000E+00
 -1      3919 9.81240E+01 1.90745E+01 0.00000E+00
 -1      3920 9.66240E+01 1.90745E+01 0.00000E+00
 -1      3921 9.58740E+01 2.03735E+01 0.00000E+00
 -1      3922 1.01124E+02 1.90745E+01 0.00000E+00
 -1      3923 9.96240E+01 1.90745E+01 0.00000E+00
 -1      3924 9.88740E+01 2.03735E+01 0.00000E+00
 -1      3925 1.04124E+02 1.90745E+01 0.00000E+00
 -1      3926 1.02624E+02 1.90745E+01 0.00000E+00
 -1      3927 1.01874E+02 2.03735E+01 0.00000E+00
 -1      3928 1.07124E+02 1.90745E+01 0.00000E+00
 -1      3929 1.05624E+02 1.90745E+01 0.00000E+00
 -1      3930 1.04874E+02 2.03735E+01 0.00000E+00
 -1      3931 1.10348E+02 1.87058E+01 0.00000E+00
 -1      3932 1.08848E+02 1.87058E+01 0.00000E+00
 -1      3933 1.08098E+02 2.00048E+01 0.00000E+00
 -1      3934 1.11546E+02 1.92673E+01 0.00000E+00
 -1      3935 1.01604E+02 3.02160E+01 0.00000E+00
 -1      3936 1.03829E+02 2.99044E+01 0.00000E+00
 -1      3937 1.04261E+02 2.83190E+01 0.00000E+00
 -1      3938 1.00854E+02 2.89170E+01 0.00000E+00
 -1      3939 1.80765E+01 2.32889E+01 0.00000E+00
 -1      3940 1.67775E+01 2.40264E+01 0.00000E+00
 -1      3941 1.66680E+01 2.52841E+01 0.00000E+00
 -1      3942 2.64000E+01 3.05150E+01 0.00000E+00
 -1      3943 2.79000E+01 3.05150E+01 0.00000E+00
 -1      3944 2.86500E+01 2.92160E+01 0.00000E+00
 -1      3945 2.04000E+01 3.05150E+01 0.00000E+00
 -1      3946 2.19000E+01 3.05150E+01 0.00000E+00
 -1      3947 1.10107E+02 2.06531E+01 0.00000E+00
 -1      3948 4.41240E+01 1.90745E+01 0.00000E+00
 -1      3949 4.26240E+01 1.90745E+01 0.00000E+00
 -1      3950 2.31240E+01 1.64765E+01 0.00000E+00
 -1      3951 2.23740E+01 1.77755E+01 0.00000E+00
 -1      3952 2.46240E+01 1.64765E+01 0.00000E+00
 -1      3953 3.66240E+01 1.64765E+01 0.00000E+00
 -1      3954 3.51240E+01 1.64765E+01 0.00000E+00
 -1      3955 3.73740E+01 1.77755E+01 0.00000E+00
 -1      3956 1.05541E+02 2.66858E+01 0.00000E+00
 -1      3957 1.07080E+02 2.53159E+01 0.00000E+00
 -1      3958 1.06655E+02 2.39816E+01 0.00000E+00
 -1      3959 1.95300E+01 1.99034E+01 0.00000E+00
 -1      3960 5.61240E+01 1.90745E+01 0.00000E+00
 -1      3961 5.46240E+01 1.90745E+01 0.00000E+00
 -1      3962 5.38740E+01 2.03735E+01 0.00000E+00
 -1      3963 5.91240E+01 1.90745E+01 0.00000E+00
 -1      3964 5.76240E+01 1.90745E+01 0.00000E+00
 -1      3965 5.98740E+01 2.03735E+01 0.00000E+00
 -1      3966 2.34000E+01 3.05150E+01 0.00000E+00
 -1      3967 2.49000E+01 3.05150E+01 0.00000E+00
 -1      3968 2.26500E+01 2.92160E+01 0.00000E+00
 -1      3969 1.62750E+01 2.86219E+01 0.00000E+00
 -1      3970 1.62750E+01 3.00906E+01 0.00000E+00
 -1      3971 1.74000E+01 3.01755E+01 0.00000E+00
 -1      3972 2.13003E+01 1.95331E+01 0.00000E+00
 -1      3973 1.99563E+01 2.16610E+01 0.00000E+00
 -1      3974 3.43740E+01 1.77755E+01 0.00000E+00
 -1      3975 5.68740E+01 2.03735E+01 0.00000E+00
 -1      3976 5.08740E+01 2.03735E+01 0.00000E+00
 -1      3977 5.01240E+01 1.90745E+01 0.00000E+00
 -1      3978 4.86240E+01 1.90745E+01 0.00000E+00
 -1      3979 4.18740E+01 2.03735E+01 0.00000E+00
 -1      3980 4.11240E+01 1.90745E+01 0.00000E+00
 -1      3981 3.96240E+01 1.90745E+01 0.00000E+00
 -1      3982 2.56500E+01 2.92160E+01 0.00000E+00
 -1      3983 4.71240E+01 1.90745E+01 0.00000E+00
 -1      3984 4.56240E+01 1.90745E+01 0.00000E+00
 -1      3985 4.78740E+01 2.03735E+01 0.00000E+00
 -1      3986 1.09008E+02 2.11239E+01 0.00000E+00
 -1      3987 1.03837E+02 2.69848E+01 0.00000E+00
 -1      3988 4.48740E+01 2.03735E+01 0.00000E+00
 -1      3989 2.28003E+01 1.95331E+01 0.00000E+00
 -1      3990 1.98468E+01 2.29187E+01 0.00000E+00
 -1      3991 1.97373E+01 2.41764E+01 0.00000E+00
 -1      3992 2.16170E+01 2.25484E+01 0.00000E+00
 -1      3993 1.83375E+01 3.03028E+01 0.00000E+00
 -1      3994 1.94625E+01 3.03877E+01 0.00000E+00
 -1      3995 2.02125E+01 2.90887E+01 0.00000E+00
 -1      3996 1.83375E+01 2.88341E+01 0.00000E+00
 -1      3997 2.83740E+01 1.77755E+01 0.00000E+00
 -1      3998 2.76240E+01 1.64765E+01 0.00000E+00
 -1      3999 3.21240E+01 1.90745E+01 0.00000E+00
 -1      4000 3.06240E+01 1.90745E+01 0.00000E+00
 -1      4001 1.63845E+01 2.73642E+01 0.00000E+00
 -1      4002 2.61240E+01 1.64765E+01 0.00000E+00
 -1      4003 2.91240E+01 1.90745E+01 0.00000E+00
 -1      4004 2.76241E+01 1.90745E+01 0.00000E+00
 -1      4005 2.98740E+01 2.03735E+01 0.00000E+00
 -1      4006 2.79000E+01 2.79170E+01 0.00000E+00
 -1      4007 2.94000E+01 2.79170E+01 0.00000E+00
 -1      4008 1.76835E+01 2.66267E+01 0.00000E+00
 -1      4009 3.39000E+01 2.79170E+01 0.00000E+00
 -1      4010 3.54000E+01 2.79170E+01 0.00000E+00
 -1      4011 3.69000E+01 2.79170E+01 0.00000E+00
 -1      4012 3.84000E+01 2.79170E+01 0.00000E+00
 -1      4013 3.61500E+01 2.66180E+01 0.00000E+00
 -1      4014 3.99000E+01 2.79170E+01 0.00000E+00
 -1      4015 4.14000E+01 2.79170E+01 0.00000E+00
 -1      4016 3.91500E+01 2.66180E+01 0.00000E+00
 -1      4017 4.29000E+01 2.79170E+01 0.00000E+00
 -1      4018 4.44000E+01 2.79170E+01 0.00000E+00
 -1      4019 4.21500E+01 2.66180E+01 0.00000E+00
 -1      4020 4.59000E+01 2.79170E+01 0.00000E+00
 -1      4021 4.74000E+01 2.79170E+01 0.00000E+00
 -1      4022 4.51500E+01 2.66180E+01 0.00000E+00
 -1      4023 4.89000E+01 2.79170E+01 0.00000E+00
 -1      4024 5.04000E+01 2.79170E+01 0.00000E+00
 -1      4025 4.81500E+01 2.66180E+01 0.00000E+00
 -1      4026 5.19000E+01 2.79170E+01 0.00000E+00
 -1      4027 5.34000E+01 2.79170E+01 0.00000E+00
 -1      4028 5.11500E+01 2.66180E+01 0.00000E+00
 -1      4029 5.49000E+01 2.79170E+01 0.00000E+00
 -1      4030 5.64000E+01 2.79170E+01 0.00000E+00
 -1      4031 5.41500E+01 2.66180E+01 0.00000E+00
 -1      4032 5.79000E+01 2.79170E+01 0.00000E+00
 -1      4033 5.94000E+01 2.79170E+01 0.00000E+00
 -1      4034 5.71500E+01 2.66180E+01 0.00000E+00
 -1      4035 6.09000E+01 2.79170E+01 0.00000E+00
 -1      4036 6.24000E+01 2.79170E+01 0.00000E+00
 -1      4037 6.01500E+01 2.66180E+01 0.00000E+00
 -1      4038 6.39000E+01 2.79170E+01 0.00000E+00
 -1      4039 6.54000E+01 2.79170E+01 0.00000E+00
 -1      4040 6.31500E+01 2.66180E+01 0.00000E+00
 -1      4041 6.69000E+01 2.79170E+01 0.00000E+00
 -1      4042 6.84000E+01 2.79170E+01 0.00000E+00
 -1      4043 6.61500E+01 2.66180E+01 0.00000E+00
 -1      4044 6.99000E+01 2.79170E+01 0.00000E+00
 -1      4045 7.14000E+01 2.79170E+01 0.00000E+00
 -1      4046 6.91500E+01 2.66180E+01 0.00000E+00
 -1      4047 7.29000E+01 2.79170E+01 0.00000E+00
 -1      4048 7.44000E+01 2.79170E+01 0.00000E+00
 -1      4049 7.21500E+01 2.66180E+01 0.00000E+00
 -1      4050 7.59000E+01 2.79170E+01 0.00000E+00
 -1      4051 7.74000E+01 2.79170E+01 0.00000E+00
 -1      4052 7.51500E+01 2.66180E+01 0.00000E+00
 -1      4053 7.89000E+01 2.79170E+01 0.00000E+00
 -1      4054 8.04000E+01 2.79170E+01 0.00000E+00
 -1      4055 7.81500E+01 2.66180E+01 0.00000E+00
 -1      4056 8.19000E+01 2.79170E+01 0.00000E+00
 -1      4057 8.34000E+01 2.79170E+01 0.00000E+00
 -1      4058 8.11500E+01 2.66180E+01 0.00000E+00
 -1      4059 8.49000E+01 2.79170E+01 0.00000E+00
 -1      4060 8.64000E+01 2.79170E+01 0.00000E+00
 -1      4061 8.41500E+01 2.66180E+01 0.00000E+00
 -1      4062 8.79000E+01 2.79170E+01 0.00000E+00
 -1      4063 8.94000E+01 2.79170E+01 0.00000E+00
 -1      4064 8.71500E+01 2.66180E+01 0.00000E+00
 -1      4065 9.09000E+01 2.79170E+01 0.00000E+00
 -1      4066 9.24000E+01 2.79170E+01 0.00000E+00
 -1      4067 9.01500E+01 2.66180E+01 0.00000E+00
 -1      4068 9.39000E+01 2.79170E+01 0.00000E+00
 -1      4069 9.54000E+01 2.79170E+01 0.00000E+00
 -1      4070 9.31500E+01 2.66180E+01 0.00000E+00
 -1      4071 9.69000E+01 2.79170E+01 0.00000E+00
 -1      4072 9.84000E+01 2.79170E+01 0.00000E+00
 -1      4073 9.61500E+01 2.66180E+01 0.00000E+00
 -1      4074 7.26240E+01 2.16725E+01 0.00000E+00
 -1      4075 7.11240E+01 2.16725E+01 0.00000E+00
 -1      4076 3.09000E+01 2.79170E+01 0.00000E+00
 -1      4077 3.24000E+01 2.79170E+01 0.00000E+00
 -1      4078 3.01500E+01 2.66180E+01 0.00000E+00
 -1      4079 6.96240E+01 2.16725E+01 0.00000E+00
 -1      4080 6.81240E+01 2.16725E+01 0.00000E+00
 -1      4081 7.03740E+01 2.29715E+01 0.00000E+00
 -1      4082 3.51240E+01 1.90745E+01 0.00000E+00
 -1      4083 3.36240E+01 1.90745E+01 0.00000E+00
 -1      4084 3.28740E+01 2.03735E+01 0.00000E+00
 -1      4085 6.36240E+01 2.16725E+01 0.00000E+00
 -1      4086 6.21240E+01 2.16725E+01 0.00000E+00
 -1      4087 7.56240E+01 2.16725E+01 0.00000E+00
 -1      4088 7.41240E+01 2.16725E+01 0.00000E+00
 -1      4089 7.33740E+01 2.29715E+01 0.00000E+00
 -1      4090 7.86240E+01 2.16725E+01 0.00000E+00
 -1      4091 7.71240E+01 2.16725E+01 0.00000E+00
 -1      4092 7.63740E+01 2.29715E+01 0.00000E+00
 -1      4093 8.16240E+01 2.16725E+01 0.00000E+00
 -1      4094 8.01240E+01 2.16725E+01 0.00000E+00
 -1      4095 7.93740E+01 2.29715E+01 0.00000E+00
 -1      4096 8.46240E+01 2.16725E+01 0.00000E+00
 -1      4097 8.31240E+01 2.16725E+01 0.00000E+00
 -1      4098 8.23740E+01 2.29715E+01 0.00000E+00
 -1      4099 8.76240E+01 2.16725E+01 0.00000E+00
 -1      4100 8.61240E+01 2.16725E+01 0.00000E+00
 -1      4101 8.53740E+01 2.29715E+01 0.00000E+00
 -1      4102 9.06240E+01 2.16725E+01 0.00000E+00
 -1      4103 8.91240E+01 2.16725E+01 0.00000E+00
 -1      4104 8.83740E+01 2.29715E+01 0.00000E+00
 -1      4105 9.36240E+01 2.16725E+01 0.00000E+00
 -1      4106 9.21240E+01 2.16725E+01 0.00000E+00
 -1      4107 9.13740E+01 2.29715E+01 0.00000E+00
 -1      4108 9.66240E+01 2.16725E+01 0.00000E+00
 -1      4109 9.51240E+01 2.16725E+01 0.00000E+00
 -1      4110 9.43740E+01 2.29715E+01 0.00000E+00
 -1      4111 9.96240E+01 2.16725E+01 0.00000E+00
 -1      4112 9.81240E+01 2.16725E+01 0.00000E+00
 -1      4113 9.73740E+01 2.29715E+01 0.00000E+00
 -1      4114 1.02624E+02 2.16725E+01 0.00000E+00
 -1      4115 1.01124E+02 2.16725E+01 0.00000E+00
 -1      4116 1.00374E+02 2.29715E+01 0.00000E+00
 -1      4117 1.07284E+02 2.14926E+01 0.00000E+00
 -1      4118 1.00104E+02 2.76180E+01 0.00000E+00
 -1      4119 1.01808E+02 2.73190E+01 0.00000E+00
 -1      4120 9.93538E+01 2.63190E+01 0.00000E+00
 -1      4121 2.53740E+01 1.77755E+01 0.00000E+00
 -1      4122 5.76240E+01 2.16725E+01 0.00000E+00
 -1      4123 5.61240E+01 2.16725E+01 0.00000E+00
 -1      4124 2.44457E+01 1.93315E+01 0.00000E+00
 -1      4125 2.33719E+01 2.10891E+01 0.00000E+00
 -1      4126 3.81240E+01 1.90745E+01 0.00000E+00
 -1      4127 3.66240E+01 1.90745E+01 0.00000E+00
 -1      4128 3.88740E+01 2.03735E+01 0.00000E+00
 -1      4129 1.03087E+02 2.56858E+01 0.00000E+00
 -1      4130 2.49000E+01 2.79170E+01 0.00000E+00
 -1      4131 2.64000E+01 2.79170E+01 0.00000E+00
 -1      4132 2.71500E+01 2.66180E+01 0.00000E+00
 -1      4133 4.56240E+01 2.16725E+01 0.00000E+00
 -1      4134 4.41240E+01 2.16725E+01 0.00000E+00
 -1      4135 1.05745E+02 2.28625E+01 0.00000E+00
 -1      4136 6.06240E+01 2.16725E+01 0.00000E+00
 -1      4137 5.91240E+01 2.16725E+01 0.00000E+00
 -1      4138 6.13740E+01 2.29715E+01 0.00000E+00
 -1      4139 2.19000E+01 2.79170E+01 0.00000E+00
 -1      4140 2.34000E+01 2.79170E+01 0.00000E+00
 -1      4141 2.41500E+01 2.66180E+01 0.00000E+00
 -1      4142 5.46240E+01 2.16725E+01 0.00000E+00
 -1      4143 5.31240E+01 2.16725E+01 0.00000E+00
 -1      4144 5.53740E+01 2.29715E+01 0.00000E+00
 -1      4145 6.66240E+01 2.16725E+01 0.00000E+00
 -1      4146 6.51240E+01 2.16725E+01 0.00000E+00
 -1      4147 6.43740E+01 2.29715E+01 0.00000E+00
 -1      4148 2.59457E+01 1.93315E+01 0.00000E+00
 -1      4149 1.04245E+02 2.28625E+01 0.00000E+00
 -1      4150 1.91124E+01 2.57621E+01 0.00000E+00
 -1      4151 1.88288E+01 2.78421E+01 0.00000E+00
 -1      4152 3.31500E+01 2.66180E+01 0.00000E+00
 -1      4153 5.16240E+01 2.16725E+01 0.00000E+00
 -1      4154 5.01240E+01 2.16725E+01 0.00000E+00
 -1      4155 5.23740E+01 2.29715E+01 0.00000E+00
 -1      4156 4.26240E+01 2.16725E+01 0.00000E+00
 -1      4157 4.11240E+01 2.16725E+01 0.00000E+00
 -1      4158 4.33740E+01 2.29715E+01 0.00000E+00
 -1      4159 3.58740E+01 2.03735E+01 0.00000E+00
 -1      4160 2.66957E+01 2.06305E+01 0.00000E+00
 -1      4161 5.83740E+01 2.29715E+01 0.00000E+00
 -1      4162 1.03495E+02 2.41615E+01 0.00000E+00
 -1      4163 1.01466E+02 2.44957E+01 0.00000E+00
 -1      4164 4.86240E+01 2.16725E+01 0.00000E+00
 -1      4165 4.71240E+01 2.16725E+01 0.00000E+00
 -1      4166 4.93740E+01 2.29715E+01 0.00000E+00
 -1      4167 2.49078E+01 2.21452E+01 0.00000E+00
 -1      4168 2.32624E+01 2.23468E+01 0.00000E+00
 -1      4169 2.31529E+01 2.36045E+01 0.00000E+00
 -1      4170 4.63740E+01 2.29715E+01 0.00000E+00
 -1      4171 2.08826E+01 2.53918E+01 0.00000E+00
 -1      4172 6.73740E+01 2.29715E+01 0.00000E+00
 -1      4173 3.36240E+01 2.16725E+01 0.00000E+00
 -1      4174 3.21240E+01 2.16725E+01 0.00000E+00
 -1      4175 2.07038E+01 2.80968E+01 0.00000E+00
 -1      4176 2.14538E+01 2.67978E+01 0.00000E+00
 -1      4177 3.13740E+01 2.29715E+01 0.00000E+00
 -1      4178 3.06240E+01 2.16725E+01 0.00000E+00
 -1      4179 2.91241E+01 2.16725E+01 0.00000E+00
 -1      4180 3.22620E+01 2.47948E+01 0.00000E+00
 -1      4181 3.37620E+01 2.47948E+01 0.00000E+00
 -1      4182 3.84000E+01 2.53190E+01 0.00000E+00
 -1      4183 3.99000E+01 2.53190E+01 0.00000E+00
 -1      4184 4.12620E+01 2.47948E+01 0.00000E+00
 -1      4185 4.27620E+01 2.47948E+01 0.00000E+00
 -1      4186 4.42620E+01 2.47948E+01 0.00000E+00
 -1      4187 4.57620E+01 2.47948E+01 0.00000E+00
 -1      4188 4.72620E+01 2.47948E+01 0.00000E+00
 -1      4189 4.87620E+01 2.47948E+01 0.00000E+00
 -1      4190 5.02620E+01 2.47948E+01 0.00000E+00
 -1      4191 5.17620E+01 2.47948E+01 0.00000E+00
 -1      4192 5.32620E+01 2.47948E+01 0.00000E+00
 -1      4193 5.47620E+01 2.47948E+01 0.00000E+00
 -1      4194 5.62620E+01 2.47948E+01 0.00000E+00
 -1      4195 5.77620E+01 2.47948E+01 0.00000E+00
 -1      4196 5.92620E+01 2.47948E+01 0.00000E+00
 -1      4197 6.07620E+01 2.47948E+01 0.00000E+00
 -1      4198 6.22620E+01 2.47948E+01 0.00000E+00
 -1      4199 6.37620E+01 2.47948E+01 0.00000E+00
 -1      4200 6.52620E+01 2.47948E+01 0.00000E+00
 -1      4201 6.67620E+01 2.47948E+01 0.00000E+00
 -1      4202 6.82620E+01 2.47948E+01 0.00000E+00
 -1      4203 6.97620E+01 2.47948E+01 0.00000E+00
 -1      4204 7.12620E+01 2.47948E+01 0.00000E+00
 -1      4205 7.27620E+01 2.47948E+01 0.00000E+00
 -1      4206 7.42620E+01 2.47948E+01 0.00000E+00
 -1      4207 7.57620E+01 2.47948E+01 0.00000E+00
 -1      4208 7.72620E+01 2.47948E+01 0.00000E+00
 -1      4209 7.87620E+01 2.47948E+01 0.00000E+00
 -1      4210 8.02620E+01 2.47948E+01 0.00000E+00
 -1      4211 8.17620E+01 2.47948E+01 0.00000E+00
 -1      4212 8.32620E+01 2.47948E+01 0.00000E+00
 -1      4213 8.47620E+01 2.47948E+01 0.00000E+00
 -1      4214 8.62620E+01 2.47948E+01 0.00000E+00
 -1      4215 8.77620E+01 2.47948E+01 0.00000E+00
 -1      4216 8.92620E+01 2.47948E+01 0.00000E+00
 -1      4217 9.07620E+01 2.47948E+01 0.00000E+00
 -1      4218 9.22620E+01 2.47948E+01 0.00000E+00
 -1      4219 9.37620E+01 2.47948E+01 0.00000E+00
 -1      4220 9.52620E+01 2.47948E+01 0.00000E+00
 -1      4221 9.67620E+01 2.47948E+01 0.00000E+00
 -1      4222 2.20788E+01 2.52121E+01 0.00000E+00
 -1      4223 9.82620E+01 2.47948E+01 0.00000E+00
 -1      4224 9.99658E+01 2.44957E+01 0.00000E+00
 -1      4225 3.97620E+01 2.21968E+01 0.00000E+00
 -1      4226 3.82620E+01 2.21968E+01 0.00000E+00
 -1      4227 1.97663E+01 2.79695E+01 0.00000E+00
 -1      4228 2.78551E+01 2.17804E+01 0.00000E+00
 -1      4229 2.61768E+01 2.20374E+01 0.00000E+00
 -1      4230 2.60673E+01 2.32950E+01 0.00000E+00
 -1      4231 2.86051E+01 2.30794E+01 0.00000E+00
 -1      4232 3.66930E+01 2.19346E+01 0.00000E+00
 -1      4233 3.51930E+01 2.19346E+01 0.00000E+00
 -1      4234 3.44430E+01 2.32336E+01 0.00000E+00
 -1      4235 3.75810E+01 2.37579E+01 0.00000E+00
 -1      4236 2.92620E+01 2.47948E+01 0.00000E+00
 -1      4237 3.07620E+01 2.47948E+01 0.00000E+00
 -1      4238 2.37242E+01 2.50104E+01 0.00000E+00
 -1      4239 2.52242E+01 2.50104E+01 0.00000E+00
 -1      4240 3.53310E+01 2.50569E+01 0.00000E+00
 -1      4241 3.68310E+01 2.50569E+01 0.00000E+00
 -1      4242 2.64931E+01 2.49026E+01 0.00000E+00
 -1      4243 2.79931E+01 2.49026E+01 0.00000E+00
 -1      4244 4.05120E+01 2.34958E+01 0.00000E+00
 -3
    3C                          2040                                     1
 -1       165    8    0    1
 -2         6         7        23      1103      1267      1120
 -1       166    8    0    1
 -2         7         8       165      1104      1268      1269
 -1       167    8    0    1
 -2         8         9       166      1105      1270      1271
 -1       168    8    0    1
 -2         8       166       165      1271      1272      1268
 -1       169    8    0    1
 -2         9        10       167      1106      1273      1274
 -1       170    8    0    1
 -2         9       167       166      1274      1275      1270
 -1       171    8    0    1
 -2        10        11       168      1107      1276      1277
 -1       172    8    0    1
 -2        10       168       167      1277      1278      1273
 -1       173    8    0    1
 -2        11        12       169      1108      1279      1280
 -1       174    8    0    1
 -2        11       169       168      1280      1281      1276
 -1       175    8    0    1
 -2        12        13       170      1109      1282      1283
 -1       176    8    0    1
 -2        12       170       169      1283      1284      1279
 -1       177    8    0    1
 -2        13        14       171      1110      1285      1286
 -1       178    8    0    1
 -2        13       171       170      1286      1287      1282
 -1       179    8    0    1
 -2        14        15       172      1111      1288      1289
 -1       180    8    0    1
 -2        14       172       171      1289      1290      1285
 -1       181    8    0    1
 -2        15        16       173      1112      1291      1292
 -1       182    8    0    1
 -2        15       173       172      1292      1293      1288
 -1       183    8    0    1
 -2        16        17       174      1113      1294      1295
 -1       184    8    0    1
 -2        16       174       173      1295      1296      1291
 -1       185    8    0    1
 -2        17        18       175      1114      1297      1298
 -1       186    8    0    1
 -2        17       175       174      1298      1299      1294
 -1       187    8    0    1
 -2        18        19       176      1115      1300      1301
 -1       188    8    0    1
 -2        18       176       175      1301      1302      1297
 -1       189    8    0    1
 -2        19        20       177      1116      1303      1304
 -1       190    8    0    1
 -2        19       177       176      1304      1305      1300
 -1       191    8    0    1
 -2        20        21       178      1117      1306      1307
 -1       192    8    0    1
 -2        20       178       177      1307      1308      1303
 -1       193    8    0    1
 -2        21        22       179      1118      1309      1310
 -1       194    8    0    1
 -2        21       179       178      1310      1311      1306
 -1       195    8    0    1
 -2        22         5       180      1119      1312      1313
 -1       196    8    0    1
 -2       179        22       180      1309      1313      1314
 -1       197    8    0    1
 -2         5        72       180      1170      1315      1312
 -1       198    8    0    1
 -2        24        23       181      1121      1316      1317
 -1       199    8    0    1
 -2        25        24       182      1122      1318      1319
 -1       200    8    0    1
 -2        24       181       182      1317      1320      1318
 -1       201    8    0    1
 -2        26        25       183      1123      1321      1322
 -1       202    8    0    1
 -2        25       182       183      1319      1323      1321
 -1       203    8    0    1
 -2        27        26       184      1124      1324      1325
 -1       204    8    0    1
 -2        26       183       184      1322      1326      1324
 -1       205    8    0    1
 -2        28        27       185      1125      1327      1328
 -1       206    8    0    1
 -2        27       184       185      1325      1329      1327
 -1       207    8    0    1
 -2        29        28       186      1126      1330      1331
 -1       208    8    0    1
 -2        28       185       186      1328      1332      1330
 -1       209    8    0    1
 -2        30        29       187      1127      1333      1334
 -1       210    8    0    1
 -2        29       186       187      1331      1335      1333
 -1       211    8    0    1
 -2        31        30       188      1128      1336      1337
 -1       212    8    0    1
 -2        30       187       188      1334      1338      1336
 -1       213    8    0    1
 -2        32        31       189      1129      1339      1340
 -1       214    8    0    1
 -2        31       188       189      1337      1341      1339
 -1       215    8    0    1
 -2        33        32       190      1130      1342      1343
 -1       216    8    0    1
 -2        32       189       190      1340      1344      1342
 -1       217    8    0    1
 -2        34        33       191      1131      1345      1346
 -1       218    8    0    1
 -2        33       190       191      1343      1347      1345
 -1       219    8    0    1
 -2        35        34       192      1132      1348      1349
 -1       220    8    0    1
 -2        34       191       192      1346      1350      1348
 -1       221    8    0    1
 -2        36        35       193      1133      1351      1352
 -1       222    8    0    1
 -2        35       192       193      1349      1353      1351
 -1       223    8    0    1
 -2        37        36       194      1134      1354      1355
 -1       224    8    0    1
 -2        36       193       194      1352      1356      1354
 -1       225    8    0    1
 -2        38        37       195      1135      1357      1358
 -1       226    8    0    1
 -2        37       194       195      1355      1359      1357
 -1       227    8    0    1
 -2        39        38       196      1136      1360      1361
 -1       228    8    0    1
 -2        38       195       196      1358      1362      1360
 -1       229    8    0    1
 -2        40        39       197      1137      1363      1364
 -1       230    8    0    1
 -2        39       196       197      1361      1365      1363
 -1       231    8    0    1
 -2        41        40       198      1138      1366      1367
 -1       232    8    0    1
 -2        40       197       198      1364      1368      1366
 -1       233    8    0    1
 -2        42        41       199      1139      1369      1370
 -1       234    8    0    1
 -2        41       198       199      1367      1371      1369
 -1       235    8    0    1
 -2        43        42       200      1140      1372      1373
 -1       236    8    0    1
 -2        42       199       200      1370      1374      1372
 -1       237    8    0    1
 -2        44        43       201      1141      1375      1376
 -1       238    8    0    1
 -2        43       200       201      1373      1377      1375
 -1       239    8    0    1
 -2        45        44       202      1142      1378      1379
 -1       240    8    0    1
 -2        44       201       202      1376      1380      1378
 -1       241    8    0    1
 -2        46        45       203      1143      1381      1382
 -1       242    8    0    1
 -2        45       202       203      1379      1383      1381
 -1       243    8    0    1
 -2        47        46       204      1144      1384      1385
 -1       244    8    0    1
 -2        46       203       204      1382      1386      1384
 -1       245    8    0    1
 -2        48        47       205      1145      1387      1388
 -1       246    8    0    1
 -2        47       204       205      1385      1389      1387
 -1       247    8    0    1
 -2        49        48       206      1146      1390      1391
 -1       248    8    0    1
 -2        48       205       206      1388      1392      1390
 -1       249    8    0    1
 -2        50        49       207      1147      1393      1394
 -1       250    8    0    1
 -2        49       206       207      1391      1395      1393
 -1       251    8    0    1
 -2        51        50       208      1148      1396      1397
 -1       252    8    0    1
 -2        50       207       208      1394      1398      1396
 -1       253    8    0    1
 -2        52        51       209      1149      1399      1400
 -1       254    8    0    1
 -2        51       208       209      1397      1401      1399
 -1       255    8    0    1
 -2        53        52       210      1150      1402      1403
 -1       256    8    0    1
 -2        52       209       210      1400      1404      1402
 -1       257    8    0    1
 -2        54        53       211      1151      1405      1406
 -1       258    8    0    1
 -2        53       210       211      1403      1407      1405
 -1       259    8    0    1
 -2        55        54       212      1152      1408      1409
 -1       260    8    0    1
 -2        54       211       212      1406      1410      1408
 -1       261    8    0    1
 -2        56        55       213      1153      1411      1412
 -1       262    8    0    1
 -2        55       212       213      1409      1413      1411
 -1       263    8    0    1
 -2        57        56       214      1154      1414      1415
 -1       264    8    0    1
 -2        56       213       214      1412      1416      1414
 -1       265    8    0    1
 -2        58        57       215      1155      1417      1418
 -1       266    8    0    1
 -2        57       214       215      1415      1419      1417
 -1       267    8    0    1
 -2        59        58       216      1156      1420      1421
 -1       268    8    0    1
 -2        58       215       216      1418      1422      1420
 -1       269    8    0    1
 -2        60        59       217      1157      1423      1424
 -1       270    8    0    1
 -2        59       216       217      1421      1425      1423
 -1       271    8    0    1
 -2        61        60       218      1158      1426      1427
 -1       272    8    0    1
 -2        60       217       218      1424      1428      1426
 -1       273    8    0    1
 -2        62        61       219      1159      1429      1430
 -1       274    8    0    1
 -2        61       218       219      1427      1431      1429
 -1       275    8    0    1
 -2        63        62       220      1160      1432      1433
 -1       276    8    0    1
 -2        62       219       220      1430      1434      1432
 -1       277    8    0    1
 -2        64        63       221      1161      1435      1436
 -1       278    8    0    1
 -2        63       220       221      1433      1437      1435
 -1       279    8    0    1
 -2        65        64       222      1162      1438      1439
 -1       280    8    0    1
 -2        64       221       222      1436      1440      1438
 -1       281    8    0    1
 -2        66        65       223      1163      1441      1442
 -1       282    8    0    1
 -2        65       222       223      1439      1443      1441
 -1       283    8    0    1
 -2        67        66       224      1164      1444      1445
 -1       284    8    0    1
 -2        66       223       224      1442      1446      1444
 -1       285    8    0    1
 -2        68        67       225      1165      1447      1448
 -1       286    8    0    1
 -2        67       224       225      1445      1449      1447
 -1       287    8    0    1
 -2        69        68       226      1166      1450      1451
 -1       288    8    0    1
 -2        68       225       226      1448      1452      1450
 -1       289    8    0    1
 -2        70        69       227      1167      1453      1454
 -1       290    8    0    1
 -2        69       226       227      1451      1455      1453
 -1       291    8    0    1
 -2        71        70       228      1168      1456      1457
 -1       292    8    0    1
 -2        70       227       228      1454      1458      1456
 -1       293    8    0    1
 -2         4        71       229      1169      1459      1460
 -1       294    8    0    1
 -2       136         4       229      1236      1460      1461
 -1       295    8    0    1
 -2        71       228       229      1457      1462      1459
 -1       296    8    0    1
 -2        72        73       230      1171      1463      1464
 -1       297    8    0    1
 -2        72       230       180      1464      1465      1315
 -1       298    8    0    1
 -2        73        74       231      1172      1466      1467
 -1       299    8    0    1
 -2        73       231       230      1467      1468      1463
 -1       300    8    0    1
 -2        74        75       232      1173      1469      1470
 -1       301    8    0    1
 -2        74       232       231      1470      1471      1466
 -1       302    8    0    1
 -2        75        76       233      1174      1472      1473
 -1       303    8    0    1
 -2        75       233       232      1473      1474      1469
 -1       304    8    0    1
 -2        76        77       234      1175      1475      1476
 -1       305    8    0    1
 -2        76       234       233      1476      1477      1472
 -1       306    8    0    1
 -2        77        78       235      1176      1478      1479
 -1       307    8    0    1
 -2        77       235       234      1479      1480      1475
 -1       308    8    0    1
 -2        78        79       236      1177      1481      1482
 -1       309    8    0    1
 -2        78       236       235      1482      1483      1478
 -1       310    8    0    1
 -2        79        80       237      1178      1484      1485
 -1       311    8    0    1
 -2        79       237       236      1485      1486      1481
 -1       312    8    0    1
 -2        80        81       238      1179      1487      1488
 -1       313    8    0    1
 -2        80       238       237      1488      1489      1484
 -1       314    8    0    1
 -2        81        82       239      1180      1490      1491
 -1       315    8    0    1
 -2        81       239       238      1491      1492      1487
 -1       316    8    0    1
 -2        82        83       240      1181      1493      1494
 -1       317    8    0    1
 -2        82       240       239      1494      1495      1490
 -1       318    8    0    1
 -2        83        84       241      1182      1496      1497
 -1       319    8    0    1
 -2        83       241       240      1497      1498      1493
 -1       320    8    0    1
 -2        84        85       242      1183      1499      1500
 -1       321    8    0    1
 -2        84       242       241      1500      1501      1496
 -1       322    8    0    1
 -2        85        86       243      1184      1502      1503
 -1       323    8    0    1
 -2        85       243       242      1503      1504      1499
 -1       324    8    0    1
 -2        86        87       244      1185      1505      1506
 -1       325    8    0    1
 -2        86       244       243      1506      1507      1502
 -1       326    8    0    1
 -2        87        88       245      1186      1508      1509
 -1       327    8    0    1
 -2        87       245       244      1509      1510      1505
 -1       328    8    0    1
 -2        88        89       246      1187      1511      1512
 -1       329    8    0    1
 -2        88       246       245      1512      1513      1508
 -1       330    8    0    1
 -2        89        90       247      1188      1514      1515
 -1       331    8    0    1
 -2        89       247       246      1515      1516      1511
 -1       332    8    0    1
 -2        90        91       248      1189      1517      1518
 -1       333    8    0    1
 -2        90       248       247      1518      1519      1514
 -1       334    8    0    1
 -2        91        92       249      1190      1520      1521
 -1       335    8    0    1
 -2        91       249       248      1521      1522      1517
 -1       336    8    0    1
 -2        92        93       250      1191      1523      1524
 -1       337    8    0    1
 -2        92       250       249      1524      1525      1520
 -1       338    8    0    1
 -2        93        94       251      1192      1526      1527
 -1       339    8    0    1
 -2        93       251       250      1527      1528      1523
 -1       340    8    0    1
 -2        94        95       252      1193      1529      1530
 -1       341    8    0    1
 -2        94       252       251      1530      1531      1526
 -1       342    8    0    1
 -2        95        96       253      1194      1532      1533
 -1       343    8    0    1
 -2        95       253       252      1533      1534      1529
 -1       344    8    0    1
 -2        96        97       254      1195      1535      1536
 -1       345    8    0    1
 -2        96       254       253      1536      1537      1532
 -1       346    8    0    1
 -2        97        98       255      1196      1538      1539
 -1       347    8    0    1
 -2        97       255       254      1539      1540      1535
 -1       348    8    0    1
 -2        98        99       256      1197      1541      1542
 -1       349    8    0    1
 -2        98       256       255      1542      1543      1538
 -1       350    8    0    1
 -2        99       100       257      1198      1544      1545
 -1       351    8    0    1
 -2        99       257       256      1545      1546      1541
 -1       352    8    0    1
 -2       100       101       258      1199      1547      1548
 -1       353    8    0    1
 -2       100       258       257      1548      1549      1544
 -1       354    8    0    1
 -2       101       102       259      1200      1550      1551
 -1       355    8    0    1
 -2       101       259       258      1551      1552      1547
 -1       356    8    0    1
 -2       102       103       260      1201      1553      1554
 -1       357    8    0    1
 -2       102       260       259      1554      1555      1550
 -1       358    8    0    1
 -2       103       104       261      1202      1556      1557
 -1       359    8    0    1
 -2       103       261       260      1557      1558      1553
 -1       360    8    0    1
 -2       104       105       262      1203      1559      1560
 -1       361    8    0    1
 -2       104       262       261      1560      1561      1556
 -1       362    8    0    1
 -2       105       106       263      1204      1562      1563
 -1       363    8    0    1
 -2       105       263       262      1563      1564      1559
 -1       364    8    0    1
 -2       106       107       264      1205      1565      1566
 -1       365    8    0    1
 -2       106       264       263      1566      1567      1562
 -1       366    8    0    1
 -2       107       108       265      1206      1568      1569
 -1       367    8    0    1
 -2       107       265       264      1569      1570      1565
 -1       368    8    0    1
 -2       108       109       266      1207      1571      1572
 -1       369    8    0    1
 -2       108       266       265      1572      1573      1568
 -1       370    8    0    1
 -2       109       110       267      1208      1574      1575
 -1       371    8    0    1
 -2       109       267       266      1575      1576      1571
 -1       372    8    0    1
 -2       110       111       268      1209      1577      1578
 -1       373    8    0    1
 -2       110       268       267      1578      1579      1574
 -1       374    8    0    1
 -2       111       112       269      1210      1580      1581
 -1       375    8    0    1
 -2       111       269       268      1581      1582      1577
 -1       376    8    0    1
 -2       112       113       270      1211      1583      1584
 -1       377    8    0    1
 -2       112       270       269      1584      1585      1580
 -1       378    8    0    1
 -2       113       114       271      1212      1586      1587
 -1       379    8    0    1
 -2       113       271       270      1587      1588      1583
 -1       380    8    0    1
 -2       114       115       272      1213      1589      1590
 -1       381    8    0    1
 -2       114       272       271      1590      1591      1586
 -1       382    8    0    1
 -2       115       116       273      1214      1592      1593
 -1       383    8    0    1
 -2       115       273       272      1593      1594      1589
 -1       384    8    0    1
 -2       116       117       274      1215      1595      1596
 -1       385    8    0    1
 -2       116       274       273      1596      1597      1592
 -1       386    8    0    1
 -2       117       118       275      1216      1598      1599
 -1       387    8    0    1
 -2       117       275       274      1599      1600      1595
 -1       388    8    0    1
 -2       118       119       276      1217      1601      1602
 -1       389    8    0    1
 -2       118       276       275      1602      1603      1598
 -1       390    8    0    1
 -2       119       120       277      1218      1604      1605
 -1       391    8    0    1
 -2       119       277       276      1605      1606      1601
 -1       392    8    0    1
 -2       120         3       121      1219      1220      1607
 -1       393    8    0    1
 -2       121       122       278      1221      1608      1609
 -1       394    8    0    1
 -2       122       123       279      1222      1610      1611
 -1       395    8    0    1
 -2       122       279       278      1611      1612      1608
 -1       396    8    0    1
 -2       123       124       280      1223      1613      1614
 -1       397    8    0    1
 -2       123       280       279      1614      1615      1610
 -1       398    8    0    1
 -2       124       125       281      1224      1616      1617
 -1       399    8    0    1
 -2       124       281       280      1617      1618      1613
 -1       400    8    0    1
 -2       125       126       282      1225      1619      1620
 -1       401    8    0    1
 -2       125       282       281      1620      1621      1616
 -1       402    8    0    1
 -2       126       127       283      1226      1622      1623
 -1       403    8    0    1
 -2       126       283       282      1623      1624      1619
 -1       404    8    0    1
 -2       127       128       284      1227      1625      1626
 -1       405    8    0    1
 -2       127       284       283      1626      1627      1622
 -1       406    8    0    1
 -2       128       129       285      1228      1628      1629
 -1       407    8    0    1
 -2       128       285       284      1629      1630      1625
 -1       408    8    0    1
 -2       129       130       286      1229      1631      1632
 -1       409    8    0    1
 -2       129       286       285      1632      1633      1628
 -1       410    8    0    1
 -2       130       131       287      1230      1634      1635
 -1       411    8    0    1
 -2       130       287       286      1635      1636      1631
 -1       412    8    0    1
 -2       131       132       288      1231      1637      1638
 -1       413    8    0    1
 -2       131       288       287      1638      1639      1634
 -1       414    8    0    1
 -2       132       133       289      1232      1640      1641
 -1       415    8    0    1
 -2       132       289       288      1641      1642      1637
 -1       416    8    0    1
 -2       133       134       290      1233      1643      1644
 -1       417    8    0    1
 -2       133       290       289      1644      1645      1640
 -1       418    8    0    1
 -2       134       135       291      1234      1646      1647
 -1       419    8    0    1
 -2       134       291       290      1647      1648      1643
 -1       420    8    0    1
 -2       135       136       292      1235      1649      1650
 -1       421    8    0    1
 -2       291       135       292      1646      1650      1651
 -1       422    8    0    1
 -2       136       229       292      1461      1652      1649
 -1       423    8    0    1
 -2         2       137       293      1237      1653      1654
 -1       424    8    0    1
 -2       137       138       294      1238      1655      1656
 -1       425    8    0    1
 -2       138       139       295      1239      1657      1658
 -1       426    8    0    1
 -2       139       140       296      1240      1659      1660
 -1       427    8    0    1
 -2       140       141       297      1241      1661      1662
 -1       428    8    0    1
 -2       141       142       298      1242      1663      1664
 -1       429    8    0    1
 -2       142       143       299      1243      1665      1666
 -1       430    8    0    1
 -2       143       144       300      1244      1667      1668
 -1       431    8    0    1
 -2       144       145       301      1245      1669      1670
 -1       432    8    0    1
 -2       145       146       302      1246      1671      1672
 -1       433    8    0    1
 -2       146       147       303      1247      1673      1674
 -1       434    8    0    1
 -2       147       148       304      1248      1675      1676
 -1       435    8    0    1
 -2       148       149       305      1249      1677      1678
 -1       436    8    0    1
 -2       149       150       306      1250      1679      1680
 -1       437    8    0    1
 -2       150       151       307      1251      1681      1682
 -1       438    8    0    1
 -2       151       152       308      1252      1683      1684
 -1       439    8    0    1
 -2       152       153       309      1253      1685      1686
 -1       440    8    0    1
 -2       153       154       310      1254      1687      1688
 -1       441    8    0    1
 -2       154       155       311      1255      1689      1690
 -1       442    8    0    1
 -2       155       156       312      1256      1691      1692
 -1       443    8    0    1
 -2       156         1       313      1257      1693      1694
 -1       444    8    0    1
 -2         1       157       314      1258      1695      1696
 -1       445    8    0    1
 -2       157       158       315      1259      1697      1698
 -1       446    8    0    1
 -2       158       159       316      1260      1699      1700
 -1       447    8    0    1
 -2       159       160       317      1261      1701      1702
 -1       448    8    0    1
 -2       160       161       318      1262      1703      1704
 -1       449    8    0    1
 -2       161       162       319      1263      1705      1706
 -1       450    8    0    1
 -2       162       163       320      1264      1707      1708
 -1       451    8    0    1
 -2       163       164       321      1265      1709      1710
 -1       452    8    0    1
 -2       164         2       322      1266      1711      1712
 -1       453    8    0    1
 -2       295       139       296      1657      1660      1713
 -1       454    8    0    1
 -2         2       293       322      1654      1714      1711
 -1       455    8    0    1
 -2       120       121       277      1607      1715      1604
 -1       456    8    0    1
 -2       121       278       277      1609      1716      1715
 -1       457    8    0    1
 -2       293       137       294      1653      1656      1717
 -1       458    8    0    1
 -2       294       138       295      1655      1658      1718
 -1       459    8    0    1
 -2       140       297       296      1662      1719      1659
 -1       460    8    0    1
 -2       141       298       297      1664      1720      1661
 -1       461    8    0    1
 -2       142       299       298      1666      1721      1663
 -1       462    8    0    1
 -2       143       300       299      1668      1722      1665
 -1       463    8    0    1
 -2       144       301       300      1670      1723      1667
 -1       464    8    0    1
 -2       145       302       301      1672      1724      1669
 -1       465    8    0    1
 -2       146       303       302      1674      1725      1671
 -1       466    8    0    1
 -2       147       304       303      1676      1726      1673
 -1       467    8    0    1
 -2       148       305       304      1678      1727      1675
 -1       468    8    0    1
 -2       149       306       305      1680      1728      1677
 -1       469    8    0    1
 -2       150       307       306      1682      1729      1679
 -1       470    8    0    1
 -2       151       308       307      1684      1730      1681
 -1       471    8    0    1
 -2       152       309       308      1686      1731      1683
 -1       472    8    0    1
 -2       153       310       309      1688      1732      1685
 -1       473    8    0    1
 -2       154       311       310      1690      1733      1687
 -1       474    8    0    1
 -2       155       312       311      1692      1734      1689
 -1       475    8    0    1
 -2       156       313       312      1694      1735      1691
 -1       476    8    0    1
 -2         1       314       313      1696      1736      1693
 -1       477    8    0    1
 -2       157       315       314      1698      1737      1695
 -1       478    8    0    1
 -2       158       316       315      1700      1738      1697
 -1       479    8    0    1
 -2       159       317       316      1702      1739      1699
 -1       480    8    0    1
 -2       160       318       317      1704      1740      1701
 -1       481    8    0    1
 -2       161       319       318      1706      1741      1703
 -1       482    8    0    1
 -2       162       320       319      1708      1742      1705
 -1       483    8    0    1
 -2       163       321       320      1710      1743      1707
 -1       484    8    0    1
 -2       164       322       321      1712      1744      1709
 -1       485    8    0    1
 -2        23         7       165      1267      1269      1745
 -1       486    8    0    1
 -2       166       167       323      1275      1746      1747
 -1       487    8    0    1
 -2       165       166       324      1272      1748      1749
 -1       488    8    0    1
 -2       166       323       324      1747      1750      1748
 -1       489    8    0    1
 -2       168       169       325      1281      1751      1752
 -1       490    8    0    1
 -2       169       170       326      1284      1753      1754
 -1       491    8    0    1
 -2       169       326       325      1754      1755      1751
 -1       492    8    0    1
 -2       170       171       327      1287      1756      1757
 -1       493    8    0    1
 -2       170       327       326      1757      1758      1753
 -1       494    8    0    1
 -2       171       172       328      1290      1759      1760
 -1       495    8    0    1
 -2       171       328       327      1760      1761      1756
 -1       496    8    0    1
 -2       172       173       329      1293      1762      1763
 -1       497    8    0    1
 -2       172       329       328      1763      1764      1759
 -1       498    8    0    1
 -2       173       174       330      1296      1765      1766
 -1       499    8    0    1
 -2       173       330       329      1766      1767      1762
 -1       500    8    0    1
 -2       174       175       331      1299      1768      1769
 -1       501    8    0    1
 -2       174       331       330      1769      1770      1765
 -1       502    8    0    1
 -2       175       176       332      1302      1771      1772
 -1       503    8    0    1
 -2       175       332       331      1772      1773      1768
 -1       504    8    0    1
 -2       176       177       333      1305      1774      1775
 -1       505    8    0    1
 -2       176       333       332      1775      1776      1771
 -1       506    8    0    1
 -2       177       178       334      1308      1777      1778
 -1       507    8    0    1
 -2       177       334       333      1778      1779      1774
 -1       508    8    0    1
 -2       178       179       335      1311      1780      1781
 -1       509    8    0    1
 -2       178       335       334      1781      1782      1777
 -1       510    8    0    1
 -2       179       180       336      1314      1783      1784
 -1       511    8    0    1
 -2       335       179       336      1780      1784      1785
 -1       512    8    0    1
 -2       180       230       336      1465      1786      1783
 -1       513    8    0    1
 -2       181        23       165      1316      1745      1787
 -1       514    8    0    1
 -2       230       231       337      1468      1788      1789
 -1       515    8    0    1
 -2       230       337       336      1789      1790      1786
 -1       516    8    0    1
 -2       181       165       324      1787      1749      1791
 -1       517    8    0    1
 -2       183       182       338      1323      1792      1793
 -1       518    8    0    1
 -2       184       183       339      1326      1794      1795
 -1       519    8    0    1
 -2       183       338       339      1793      1796      1794
 -1       520    8    0    1
 -2       185       184       340      1329      1797      1798
 -1       521    8    0    1
 -2       184       339       340      1795      1799      1797
 -1       522    8    0    1
 -2       186       185       341      1332      1800      1801
 -1       523    8    0    1
 -2       185       340       341      1798      1802      1800
 -1       524    8    0    1
 -2       187       186       342      1335      1803      1804
 -1       525    8    0    1
 -2       186       341       342      1801      1805      1803
 -1       526    8    0    1
 -2       188       187       343      1338      1806      1807
 -1       527    8    0    1
 -2       187       342       343      1804      1808      1806
 -1       528    8    0    1
 -2       189       188       344      1341      1809      1810
 -1       529    8    0    1
 -2       188       343       344      1807      1811      1809
 -1       530    8    0    1
 -2       190       189       345      1344      1812      1813
 -1       531    8    0    1
 -2       189       344       345      1810      1814      1812
 -1       532    8    0    1
 -2       191       190       346      1347      1815      1816
 -1       533    8    0    1
 -2       190       345       346      1813      1817      1815
 -1       534    8    0    1
 -2       192       191       347      1350      1818      1819
 -1       535    8    0    1
 -2       191       346       347      1816      1820      1818
 -1       536    8    0    1
 -2       193       192       348      1353      1821      1822
 -1       537    8    0    1
 -2       192       347       348      1819      1823      1821
 -1       538    8    0    1
 -2       194       193       349      1356      1824      1825
 -1       539    8    0    1
 -2       193       348       349      1822      1826      1824
 -1       540    8    0    1
 -2       195       194       350      1359      1827      1828
 -1       541    8    0    1
 -2       194       349       350      1825      1829      1827
 -1       542    8    0    1
 -2       196       195       351      1362      1830      1831
 -1       543    8    0    1
 -2       195       350       351      1828      1832      1830
 -1       544    8    0    1
 -2       197       196       352      1365      1833      1834
 -1       545    8    0    1
 -2       196       351       352      1831      1835      1833
 -1       546    8    0    1
 -2       198       197       353      1368      1836      1837
 -1       547    8    0    1
 -2       197       352       353      1834      1838      1836
 -1       548    8    0    1
 -2       199       198       354      1371      1839      1840
 -1       549    8    0    1
 -2       198       353       354      1837      1841      1839
 -1       550    8    0    1
 -2       200       199       355      1374      1842      1843
 -1       551    8    0    1
 -2       199       354       355      1840      1844      1842
 -1       552    8    0    1
 -2       201       200       356      1377      1845      1846
 -1       553    8    0    1
 -2       200       355       356      1843      1847      1845
 -1       554    8    0    1
 -2       202       201       357      1380      1848      1849
 -1       555    8    0    1
 -2       201       356       357      1846      1850      1848
 -1       556    8    0    1
 -2       203       202       358      1383      1851      1852
 -1       557    8    0    1
 -2       202       357       358      1849      1853      1851
 -1       558    8    0    1
 -2       204       203       359      1386      1854      1855
 -1       559    8    0    1
 -2       203       358       359      1852      1856      1854
 -1       560    8    0    1
 -2       205       204       360      1389      1857      1858
 -1       561    8    0    1
 -2       204       359       360      1855      1859      1857
 -1       562    8    0    1
 -2       206       205       361      1392      1860      1861
 -1       563    8    0    1
 -2       205       360       361      1858      1862      1860
 -1       564    8    0    1
 -2       207       206       362      1395      1863      1864
 -1       565    8    0    1
 -2       206       361       362      1861      1865      1863
 -1       566    8    0    1
 -2       208       207       363      1398      1866      1867
 -1       567    8    0    1
 -2       207       362       363      1864      1868      1866
 -1       568    8    0    1
 -2       209       208       364      1401      1869      1870
 -1       569    8    0    1
 -2       208       363       364      1867      1871      1869
 -1       570    8    0    1
 -2       210       209       365      1404      1872      1873
 -1       571    8    0    1
 -2       209       364       365      1870      1874      1872
 -1       572    8    0    1
 -2       211       210       366      1407      1875      1876
 -1       573    8    0    1
 -2       210       365       366      1873      1877      1875
 -1       574    8    0    1
 -2       212       211       367      1410      1878      1879
 -1       575    8    0    1
 -2       211       366       367      1876      1880      1878
 -1       576    8    0    1
 -2       213       212       368      1413      1881      1882
 -1       577    8    0    1
 -2       212       367       368      1879      1883      1881
 -1       578    8    0    1
 -2       214       213       369      1416      1884      1885
 -1       579    8    0    1
 -2       213       368       369      1882      1886      1884
 -1       580    8    0    1
 -2       215       214       370      1419      1887      1888
 -1       581    8    0    1
 -2       214       369       370      1885      1889      1887
 -1       582    8    0    1
 -2       216       215       371      1422      1890      1891
 -1       583    8    0    1
 -2       215       370       371      1888      1892      1890
 -1       584    8    0    1
 -2       217       216       372      1425      1893      1894
 -1       585    8    0    1
 -2       216       371       372      1891      1895      1893
 -1       586    8    0    1
 -2       218       217       373      1428      1896      1897
 -1       587    8    0    1
 -2       217       372       373      1894      1898      1896
 -1       588    8    0    1
 -2       219       218       374      1431      1899      1900
 -1       589    8    0    1
 -2       218       373       374      1897      1901      1899
 -1       590    8    0    1
 -2       220       219       375      1434      1902      1903
 -1       591    8    0    1
 -2       219       374       375      1900      1904      1902
 -1       592    8    0    1
 -2       221       220       376      1437      1905      1906
 -1       593    8    0    1
 -2       220       375       376      1903      1907      1905
 -1       594    8    0    1
 -2       222       221       377      1440      1908      1909
 -1       595    8    0    1
 -2       221       376       377      1906      1910      1908
 -1       596    8    0    1
 -2       223       222       378      1443      1911      1912
 -1       597    8    0    1
 -2       222       377       378      1909      1913      1911
 -1       598    8    0    1
 -2       224       223       379      1446      1914      1915
 -1       599    8    0    1
 -2       223       378       379      1912      1916      1914
 -1       600    8    0    1
 -2       225       224       380      1449      1917      1918
 -1       601    8    0    1
 -2       224       379       380      1915      1919      1917
 -1       602    8    0    1
 -2       226       225       381      1452      1920      1921
 -1       603    8    0    1
 -2       225       380       381      1918      1922      1920
 -1       604    8    0    1
 -2       227       226       382      1455      1923      1924
 -1       605    8    0    1
 -2       226       381       382      1921      1925      1923
 -1       606    8    0    1
 -2       228       227       383      1458      1926      1927
 -1       607    8    0    1
 -2       227       382       383      1924      1928      1926
 -1       608    8    0    1
 -2       229       228       292      1462      1929      1652
 -1       609    8    0    1
 -2       232       233       384      1474      1930      1931
 -1       610    8    0    1
 -2       233       234       385      1477      1932      1933
 -1       611    8    0    1
 -2       233       385       384      1933      1934      1930
 -1       612    8    0    1
 -2       234       235       386      1480      1935      1936
 -1       613    8    0    1
 -2       234       386       385      1936      1937      1932
 -1       614    8    0    1
 -2       235       236       387      1483      1938      1939
 -1       615    8    0    1
 -2       235       387       386      1939      1940      1935
 -1       616    8    0    1
 -2       236       237       388      1486      1941      1942
 -1       617    8    0    1
 -2       236       388       387      1942      1943      1938
 -1       618    8    0    1
 -2       237       238       389      1489      1944      1945
 -1       619    8    0    1
 -2       237       389       388      1945      1946      1941
 -1       620    8    0    1
 -2       238       239       390      1492      1947      1948
 -1       621    8    0    1
 -2       238       390       389      1948      1949      1944
 -1       622    8    0    1
 -2       239       240       391      1495      1950      1951
 -1       623    8    0    1
 -2       239       391       390      1951      1952      1947
 -1       624    8    0    1
 -2       240       241       392      1498      1953      1954
 -1       625    8    0    1
 -2       240       392       391      1954      1955      1950
 -1       626    8    0    1
 -2       241       242       393      1501      1956      1957
 -1       627    8    0    1
 -2       241       393       392      1957      1958      1953
 -1       628    8    0    1
 -2       242       243       394      1504      1959      1960
 -1       629    8    0    1
 -2       242       394       393      1960      1961      1956
 -1       630    8    0    1
 -2       243       244       395      1507      1962      1963
 -1       631    8    0    1
 -2       243       395       394      1963      1964      1959
 -1       632    8    0    1
 -2       244       245       396      1510      1965      1966
 -1       633    8    0    1
 -2       244       396       395      1966      1967      1962
 -1       634    8    0    1
 -2       245       246       397      1513      1968      1969
 -1       635    8    0    1
 -2       245       397       396      1969      1970      1965
 -1       636    8    0    1
 -2       246       247       398      1516      1971      1972
 -1       637    8    0    1
 -2       246       398       397      1972      1973      1968
 -1       638    8    0    1
 -2       247       248       399      1519      1974      1975
 -1       639    8    0    1
 -2       247       399       398      1975      1976      1971
 -1       640    8    0    1
 -2       248       249       400      1522      1977      1978
 -1       641    8    0    1
 -2       248       400       399      1978      1979      1974
 -1       642    8    0    1
 -2       249       250       401      1525      1980      1981
 -1       643    8    0    1
 -2       249       401       400      1981      1982      1977
 -1       644    8    0    1
 -2       250       251       402      1528      1983      1984
 -1       645    8    0    1
 -2       250       402       401      1984      1985      1980
 -1       646    8    0    1
 -2       251       252       403      1531      1986      1987
 -1       647    8    0    1
 -2       251       403       402      1987      1988      1983
 -1       648    8    0    1
 -2       252       253       404      1534      1989      1990
 -1       649    8    0    1
 -2       252       404       403      1990      1991      1986
 -1       650    8    0    1
 -2       253       254       405      1537      1992      1993
 -1       651    8    0    1
 -2       253       405       404      1993      1994      1989
 -1       652    8    0    1
 -2       254       255       406      1540      1995      1996
 -1       653    8    0    1
 -2       254       406       405      1996      1997      1992
 -1       654    8    0    1
 -2       255       256       407      1543      1998      1999
 -1       655    8    0    1
 -2       255       407       406      1999      2000      1995
 -1       656    8    0    1
 -2       256       257       408      1546      2001      2002
 -1       657    8    0    1
 -2       256       408       407      2002      2003      1998
 -1       658    8    0    1
 -2       257       258       409      1549      2004      2005
 -1       659    8    0    1
 -2       257       409       408      2005      2006      2001
 -1       660    8    0    1
 -2       258       259       410      1552      2007      2008
 -1       661    8    0    1
 -2       258       410       409      2008      2009      2004
 -1       662    8    0    1
 -2       259       260       411      1555      2010      2011
 -1       663    8    0    1
 -2       259       411       410      2011      2012      2007
 -1       664    8    0    1
 -2       260       261       412      1558      2013      2014
 -1       665    8    0    1
 -2       260       412       411      2014      2015      2010
 -1       666    8    0    1
 -2       261       262       413      1561      2016      2017
 -1       667    8    0    1
 -2       261       413       412      2017      2018      2013
 -1       668    8    0    1
 -2       262       263       414      1564      2019      2020
 -1       669    8    0    1
 -2       262       414       413      2020      2021      2016
 -1       670    8    0    1
 -2       263       264       415      1567      2022      2023
 -1       671    8    0    1
 -2       263       415       414      2023      2024      2019
 -1       672    8    0    1
 -2       264       265       416      1570      2025      2026
 -1       673    8    0    1
 -2       264       416       415      2026      2027      2022
 -1       674    8    0    1
 -2       265       266       417      1573      2028      2029
 -1       675    8    0    1
 -2       265       417       416      2029      2030      2025
 -1       676    8    0    1
 -2       266       267       418      1576      2031      2032
 -1       677    8    0    1
 -2       266       418       417      2032      2033      2028
 -1       678    8    0    1
 -2       267       268       419      1579      2034      2035
 -1       679    8    0    1
 -2       267       419       418      2035      2036      2031
 -1       680    8    0    1
 -2       268       269       420      1582      2037      2038
 -1       681    8    0    1
 -2       268       420       419      2038      2039      2034
 -1       682    8    0    1
 -2       269       270       421      1585      2040      2041
 -1       683    8    0    1
 -2       269       421       420      2041      2042      2037
 -1       684    8    0    1
 -2       270       271       422      1588      2043      2044
 -1       685    8    0    1
 -2       270       422       421      2044      2045      2040
 -1       686    8    0    1
 -2       271       272       423      1591      2046      2047
 -1       687    8    0    1
 -2       271       423       422      2047      2048      2043
 -1       688    8    0    1
 -2       272       273       424      1594      2049      2050
 -1       689    8    0    1
 -2       272       424       423      2050      2051      2046
 -1       690    8    0    1
 -2       273       274       425      1597      2052      2053
 -1       691    8    0    1
 -2       273       425       424      2053      2054      2049
 -1       692    8    0    1
 -2       274       275       426      1600      2055      2056
 -1       693    8    0    1
 -2       274       426       425      2056      2057      2052
 -1       694    8    0    1
 -2       275       276       427      1603      2058      2059
 -1       695    8    0    1
 -2       275       427       426      2059      2060      2055
 -1       696    8    0    1
 -2       276       277       428      1606      2061      2062
 -1       697    8    0    1
 -2       427       276       428      2058      2062      2063
 -1       698    8    0    1
 -2       277       278       428      1716      2064      2061
 -1       699    8    0    1
 -2       280       281       429      1618      2065      2066
 -1       700    8    0    1
 -2       279       280       430      1615      2067      2068
 -1       701    8    0    1
 -2       280       429       430      2066      2069      2067
 -1       702    8    0    1
 -2       278       279       428      1612      2070      2064
 -1       703    8    0    1
 -2       281       282       431      1621      2071      2072
 -1       704    8    0    1
 -2       281       431       429      2072      2073      2065
 -1       705    8    0    1
 -2       282       283       432      1624      2074      2075
 -1       706    8    0    1
 -2       282       432       431      2075      2076      2071
 -1       707    8    0    1
 -2       283       284       433      1627      2077      2078
 -1       708    8    0    1
 -2       283       433       432      2078      2079      2074
 -1       709    8    0    1
 -2       284       285       434      1630      2080      2081
 -1       710    8    0    1
 -2       284       434       433      2081      2082      2077
 -1       711    8    0    1
 -2       285       286       435      1633      2083      2084
 -1       712    8    0    1
 -2       285       435       434      2084      2085      2080
 -1       713    8    0    1
 -2       286       287       436      1636      2086      2087
 -1       714    8    0    1
 -2       286       436       435      2087      2088      2083
 -1       715    8    0    1
 -2       287       288       437      1639      2089      2090
 -1       716    8    0    1
 -2       287       437       436      2090      2091      2086
 -1       717    8    0    1
 -2       288       289       438      1642      2092      2093
 -1       718    8    0    1
 -2       288       438       437      2093      2094      2089
 -1       719    8    0    1
 -2       289       290       439      1645      2095      2096
 -1       720    8    0    1
 -2       289       439       438      2096      2097      2092
 -1       721    8    0    1
 -2       290       291       440      1648      2098      2099
 -1       722    8    0    1
 -2       290       440       439      2099      2100      2095
 -1       723    8    0    1
 -2       231       232       441      1471      2101      2102
 -1       724    8    0    1
 -2       337       231       441      1788      2102      2103
 -1       725    8    0    1
 -2       232       384       441      1931      2104      2101
 -1       726    8    0    1
 -2       294       295       442      1718      2105      2106
 -1       727    8    0    1
 -2       296       297       443      1719      2107      2108
 -1       728    8    0    1
 -2       322       293       444      1714      2109      2110
 -1       729    8    0    1
 -2       295       296       445      1713      2111      2112
 -1       730    8    0    1
 -2       442       295       445      2105      2112      2113
 -1       731    8    0    1
 -2       296       443       445      2108      2114      2111
 -1       732    8    0    1
 -2       167       168       446      1278      2115      2116
 -1       733    8    0    1
 -2       323       167       446      1746      2116      2117
 -1       734    8    0    1
 -2       168       325       446      1752      2118      2115
 -1       735    8    0    1
 -2       297       298       447      1720      2119      2120
 -1       736    8    0    1
 -2       298       299       448      1721      2121      2122
 -1       737    8    0    1
 -2       298       448       447      2122      2123      2119
 -1       738    8    0    1
 -2       299       300       449      1722      2124      2125
 -1       739    8    0    1
 -2       300       301       450      1723      2126      2127
 -1       740    8    0    1
 -2       301       302       451      1724      2128      2129
 -1       741    8    0    1
 -2       301       451       450      2129      2130      2126
 -1       742    8    0    1
 -2       302       303       452      1725      2131      2132
 -1       743    8    0    1
 -2       303       304       453      1726      2133      2134
 -1       744    8    0    1
 -2       304       305       454      1727      2135      2136
 -1       745    8    0    1
 -2       305       306       455      1728      2137      2138
 -1       746    8    0    1
 -2       306       307       456      1729      2139      2140
 -1       747    8    0    1
 -2       307       308       457      1730      2141      2142
 -1       748    8    0    1
 -2       307       457       456      2142      2143      2139
 -1       749    8    0    1
 -2       308       309       458      1731      2144      2145
 -1       750    8    0    1
 -2       309       310       459      1732      2146      2147
 -1       751    8    0    1
 -2       310       311       460      1733      2148      2149
 -1       752    8    0    1
 -2       311       312       461      1734      2150      2151
 -1       753    8    0    1
 -2       311       461       460      2151      2152      2148
 -1       754    8    0    1
 -2       312       313       462      1735      2153      2154
 -1       755    8    0    1
 -2       313       314       463      1736      2155      2156
 -1       756    8    0    1
 -2       314       315       464      1737      2157      2158
 -1       757    8    0    1
 -2       314       464       463      2158      2159      2155
 -1       758    8    0    1
 -2       315       316       465      1738      2160      2161
 -1       759    8    0    1
 -2       316       317       466      1739      2162      2163
 -1       760    8    0    1
 -2       317       318       467      1740      2164      2165
 -1       761    8    0    1
 -2       318       319       468      1741      2166      2167
 -1       762    8    0    1
 -2       319       320       469      1742      2168      2169
 -1       763    8    0    1
 -2       320       321       470      1743      2170      2171
 -1       764    8    0    1
 -2       321       322       471      1744      2172      2173
 -1       765    8    0    1
 -2       293       294       472      1717      2174      2175
 -1       766    8    0    1
 -2       292       228       383      1929      1927      2176
 -1       767    8    0    1
 -2       181       324       182      1791      2177      1320
 -1       768    8    0    1
 -2       451       302       452      2128      2132      2178
 -1       769    8    0    1
 -2       297       447       443      2120      2179      2107
 -1       770    8    0    1
 -2       338       182       324      1792      2177      2180
 -1       771    8    0    1
 -2       428       279       430      2070      2068      2181
 -1       772    8    0    1
 -2       444       293       472      2109      2175      2182
 -1       773    8    0    1
 -2       291       292       383      1651      2176      2183
 -1       774    8    0    1
 -2       294       442       473      2106      2184      2185
 -1       775    8    0    1
 -2       294       473       472      2185      2186      2174
 -1       776    8    0    1
 -2       322       444       471      2110      2187      2172
 -1       777    8    0    1
 -2       470       321       471      2170      2173      2188
 -1       778    8    0    1
 -2       469       320       470      2168      2171      2189
 -1       779    8    0    1
 -2       468       319       469      2166      2169      2190
 -1       780    8    0    1
 -2       467       318       468      2164      2167      2191
 -1       781    8    0    1
 -2       466       317       467      2162      2165      2192
 -1       782    8    0    1
 -2       464       315       474      2157      2193      2194
 -1       783    8    0    1
 -2       315       465       474      2161      2195      2193
 -1       784    8    0    1
 -2       461       312       462      2150      2154      2196
 -1       785    8    0    1
 -2       459       310       460      2146      2149      2197
 -1       786    8    0    1
 -2       457       308       458      2141      2145      2198
 -1       787    8    0    1
 -2       455       306       456      2137      2140      2199
 -1       788    8    0    1
 -2       454       305       455      2135      2138      2200
 -1       789    8    0    1
 -2       453       304       454      2133      2136      2201
 -1       790    8    0    1
 -2       299       449       448      2125      2202      2121
 -1       791    8    0    1
 -2       449       300       450      2124      2127      2203
 -1       792    8    0    1
 -2       452       303       453      2131      2134      2204
 -1       793    8    0    1
 -2       458       309       459      2144      2147      2205
 -1       794    8    0    1
 -2       462       313       463      2153      2156      2206
 -1       795    8    0    1
 -2       465       316       466      2160      2163      2207
 -1       796    8    0    1
 -2       291       383       440      2183      2208      2098
 -1       797    8    0    1
 -2       326       327       475      1758      2209      2210
 -1       798    8    0    1
 -2       325       326       476      1755      2211      2212
 -1       799    8    0    1
 -2       326       475       476      2210      2213      2211
 -1       800    8    0    1
 -2       328       329       477      1764      2214      2215
 -1       801    8    0    1
 -2       329       330       478      1767      2216      2217
 -1       802    8    0    1
 -2       329       478       477      2217      2218      2214
 -1       803    8    0    1
 -2       330       331       479      1770      2219      2220
 -1       804    8    0    1
 -2       330       479       478      2220      2221      2216
 -1       805    8    0    1
 -2       331       332       480      1773      2222      2223
 -1       806    8    0    1
 -2       331       480       479      2223      2224      2219
 -1       807    8    0    1
 -2       332       333       481      1776      2225      2226
 -1       808    8    0    1
 -2       332       481       480      2226      2227      2222
 -1       809    8    0    1
 -2       333       334       482      1779      2228      2229
 -1       810    8    0    1
 -2       333       482       481      2229      2230      2225
 -1       811    8    0    1
 -2       334       335       483      1782      2231      2232
 -1       812    8    0    1
 -2       334       483       482      2232      2233      2228
 -1       813    8    0    1
 -2       335       336       484      1785      2234      2235
 -1       814    8    0    1
 -2       483       335       484      2231      2235      2236
 -1       815    8    0    1
 -2       336       337       484      1790      2237      2234
 -1       816    8    0    1
 -2       339       338       485      1796      2238      2239
 -1       817    8    0    1
 -2       451       452       486      2178      2240      2241
 -1       818    8    0    1
 -2       428       430       427      2181      2242      2063
 -1       819    8    0    1
 -2       340       339       487      1799      2243      2244
 -1       820    8    0    1
 -2       339       485       487      2239      2245      2243
 -1       821    8    0    1
 -2       341       340       488      1802      2246      2247
 -1       822    8    0    1
 -2       340       487       488      2244      2248      2246
 -1       823    8    0    1
 -2       342       341       489      1805      2249      2250
 -1       824    8    0    1
 -2       341       488       489      2247      2251      2249
 -1       825    8    0    1
 -2       343       342       490      1808      2252      2253
 -1       826    8    0    1
 -2       342       489       490      2250      2254      2252
 -1       827    8    0    1
 -2       344       343       491      1811      2255      2256
 -1       828    8    0    1
 -2       343       490       491      2253      2257      2255
 -1       829    8    0    1
 -2       345       344       492      1814      2258      2259
 -1       830    8    0    1
 -2       344       491       492      2256      2260      2258
 -1       831    8    0    1
 -2       346       345       493      1817      2261      2262
 -1       832    8    0    1
 -2       345       492       493      2259      2263      2261
 -1       833    8    0    1
 -2       347       346       494      1820      2264      2265
 -1       834    8    0    1
 -2       346       493       494      2262      2266      2264
 -1       835    8    0    1
 -2       348       347       495      1823      2267      2268
 -1       836    8    0    1
 -2       347       494       495      2265      2269      2267
 -1       837    8    0    1
 -2       349       348       496      1826      2270      2271
 -1       838    8    0    1
 -2       348       495       496      2268      2272      2270
 -1       839    8    0    1
 -2       350       349       497      1829      2273      2274
 -1       840    8    0    1
 -2       349       496       497      2271      2275      2273
 -1       841    8    0    1
 -2       351       350       498      1832      2276      2277
 -1       842    8    0    1
 -2       350       497       498      2274      2278      2276
 -1       843    8    0    1
 -2       352       351       499      1835      2279      2280
 -1       844    8    0    1
 -2       351       498       499      2277      2281      2279
 -1       845    8    0    1
 -2       353       352       500      1838      2282      2283
 -1       846    8    0    1
 -2       352       499       500      2280      2284      2282
 -1       847    8    0    1
 -2       354       353       501      1841      2285      2286
 -1       848    8    0    1
 -2       353       500       501      2283      2287      2285
 -1       849    8    0    1
 -2       355       354       502      1844      2288      2289
 -1       850    8    0    1
 -2       354       501       502      2286      2290      2288
 -1       851    8    0    1
 -2       356       355       503      1847      2291      2292
 -1       852    8    0    1
 -2       355       502       503      2289      2293      2291
 -1       853    8    0    1
 -2       357       356       504      1850      2294      2295
 -1       854    8    0    1
 -2       356       503       504      2292      2296      2294
 -1       855    8    0    1
 -2       358       357       505      1853      2297      2298
 -1       856    8    0    1
 -2       357       504       505      2295      2299      2297
 -1       857    8    0    1
 -2       359       358       506      1856      2300      2301
 -1       858    8    0    1
 -2       358       505       506      2298      2302      2300
 -1       859    8    0    1
 -2       360       359       507      1859      2303      2304
 -1       860    8    0    1
 -2       359       506       507      2301      2305      2303
 -1       861    8    0    1
 -2       361       360       508      1862      2306      2307
 -1       862    8    0    1
 -2       360       507       508      2304      2308      2306
 -1       863    8    0    1
 -2       362       361       509      1865      2309      2310
 -1       864    8    0    1
 -2       361       508       509      2307      2311      2309
 -1       865    8    0    1
 -2       363       362       510      1868      2312      2313
 -1       866    8    0    1
 -2       362       509       510      2310      2314      2312
 -1       867    8    0    1
 -2       364       363       511      1871      2315      2316
 -1       868    8    0    1
 -2       363       510       511      2313      2317      2315
 -1       869    8    0    1
 -2       365       364       512      1874      2318      2319
 -1       870    8    0    1
 -2       364       511       512      2316      2320      2318
 -1       871    8    0    1
 -2       366       365       513      1877      2321      2322
 -1       872    8    0    1
 -2       365       512       513      2319      2323      2321
 -1       873    8    0    1
 -2       367       366       514      1880      2324      2325
 -1       874    8    0    1
 -2       366       513       514      2322      2326      2324
 -1       875    8    0    1
 -2       368       367       515      1883      2327      2328
 -1       876    8    0    1
 -2       367       514       515      2325      2329      2327
 -1       877    8    0    1
 -2       369       368       516      1886      2330      2331
 -1       878    8    0    1
 -2       368       515       516      2328      2332      2330
 -1       879    8    0    1
 -2       370       369       517      1889      2333      2334
 -1       880    8    0    1
 -2       369       516       517      2331      2335      2333
 -1       881    8    0    1
 -2       371       370       518      1892      2336      2337
 -1       882    8    0    1
 -2       370       517       518      2334      2338      2336
 -1       883    8    0    1
 -2       372       371       519      1895      2339      2340
 -1       884    8    0    1
 -2       371       518       519      2337      2341      2339
 -1       885    8    0    1
 -2       373       372       520      1898      2342      2343
 -1       886    8    0    1
 -2       372       519       520      2340      2344      2342
 -1       887    8    0    1
 -2       374       373       521      1901      2345      2346
 -1       888    8    0    1
 -2       373       520       521      2343      2347      2345
 -1       889    8    0    1
 -2       375       374       522      1904      2348      2349
 -1       890    8    0    1
 -2       374       521       522      2346      2350      2348
 -1       891    8    0    1
 -2       376       375       523      1907      2351      2352
 -1       892    8    0    1
 -2       377       376       524      1910      2353      2354
 -1       893    8    0    1
 -2       378       377       525      1913      2355      2356
 -1       894    8    0    1
 -2       379       378       526      1916      2357      2358
 -1       895    8    0    1
 -2       380       379       527      1919      2359      2360
 -1       896    8    0    1
 -2       381       380       528      1922      2361      2362
 -1       897    8    0    1
 -2       380       527       528      2360      2363      2361
 -1       898    8    0    1
 -2       382       381       529      1925      2364      2365
 -1       899    8    0    1
 -2       381       528       529      2362      2366      2364
 -1       900    8    0    1
 -2       383       382       530      1928      2367      2368
 -1       901    8    0    1
 -2       440       383       530      2208      2368      2369
 -1       902    8    0    1
 -2       382       529       530      2365      2370      2367
 -1       903    8    0    1
 -2       386       387       531      1940      2371      2372
 -1       904    8    0    1
 -2       385       386       532      1937      2373      2374
 -1       905    8    0    1
 -2       386       531       532      2372      2375      2373
 -1       906    8    0    1
 -2       384       385       533      1934      2376      2377
 -1       907    8    0    1
 -2       385       532       533      2374      2378      2376
 -1       908    8    0    1
 -2       387       388       534      1943      2379      2380
 -1       909    8    0    1
 -2       387       534       531      2380      2381      2371
 -1       910    8    0    1
 -2       388       389       535      1946      2382      2383
 -1       911    8    0    1
 -2       388       535       534      2383      2384      2379
 -1       912    8    0    1
 -2       389       390       536      1949      2385      2386
 -1       913    8    0    1
 -2       389       536       535      2386      2387      2382
 -1       914    8    0    1
 -2       390       391       537      1952      2388      2389
 -1       915    8    0    1
 -2       390       537       536      2389      2390      2385
 -1       916    8    0    1
 -2       391       392       538      1955      2391      2392
 -1       917    8    0    1
 -2       391       538       537      2392      2393      2388
 -1       918    8    0    1
 -2       392       393       539      1958      2394      2395
 -1       919    8    0    1
 -2       392       539       538      2395      2396      2391
 -1       920    8    0    1
 -2       393       394       540      1961      2397      2398
 -1       921    8    0    1
 -2       393       540       539      2398      2399      2394
 -1       922    8    0    1
 -2       394       395       541      1964      2400      2401
 -1       923    8    0    1
 -2       394       541       540      2401      2402      2397
 -1       924    8    0    1
 -2       395       396       542      1967      2403      2404
 -1       925    8    0    1
 -2       395       542       541      2404      2405      2400
 -1       926    8    0    1
 -2       396       397       543      1970      2406      2407
 -1       927    8    0    1
 -2       396       543       542      2407      2408      2403
 -1       928    8    0    1
 -2       397       398       544      1973      2409      2410
 -1       929    8    0    1
 -2       397       544       543      2410      2411      2406
 -1       930    8    0    1
 -2       398       399       545      1976      2412      2413
 -1       931    8    0    1
 -2       398       545       544      2413      2414      2409
 -1       932    8    0    1
 -2       399       400       546      1979      2415      2416
 -1       933    8    0    1
 -2       399       546       545      2416      2417      2412
 -1       934    8    0    1
 -2       400       401       547      1982      2418      2419
 -1       935    8    0    1
 -2       400       547       546      2419      2420      2415
 -1       936    8    0    1
 -2       401       402       548      1985      2421      2422
 -1       937    8    0    1
 -2       401       548       547      2422      2423      2418
 -1       938    8    0    1
 -2       402       403       549      1988      2424      2425
 -1       939    8    0    1
 -2       402       549       548      2425      2426      2421
 -1       940    8    0    1
 -2       403       404       550      1991      2427      2428
 -1       941    8    0    1
 -2       403       550       549      2428      2429      2424
 -1       942    8    0    1
 -2       404       405       551      1994      2430      2431
 -1       943    8    0    1
 -2       404       551       550      2431      2432      2427
 -1       944    8    0    1
 -2       405       406       552      1997      2433      2434
 -1       945    8    0    1
 -2       405       552       551      2434      2435      2430
 -1       946    8    0    1
 -2       406       407       553      2000      2436      2437
 -1       947    8    0    1
 -2       406       553       552      2437      2438      2433
 -1       948    8    0    1
 -2       407       408       554      2003      2439      2440
 -1       949    8    0    1
 -2       407       554       553      2440      2441      2436
 -1       950    8    0    1
 -2       408       409       555      2006      2442      2443
 -1       951    8    0    1
 -2       408       555       554      2443      2444      2439
 -1       952    8    0    1
 -2       409       410       556      2009      2445      2446
 -1       953    8    0    1
 -2       409       556       555      2446      2447      2442
 -1       954    8    0    1
 -2       410       411       557      2012      2448      2449
 -1       955    8    0    1
 -2       410       557       556      2449      2450      2445
 -1       956    8    0    1
 -2       411       412       558      2015      2451      2452
 -1       957    8    0    1
 -2       411       558       557      2452      2453      2448
 -1       958    8    0    1
 -2       412       413       559      2018      2454      2455
 -1       959    8    0    1
 -2       412       559       558      2455      2456      2451
 -1       960    8    0    1
 -2       413       414       560      2021      2457      2458
 -1       961    8    0    1
 -2       413       560       559      2458      2459      2454
 -1       962    8    0    1
 -2       414       415       561      2024      2460      2461
 -1       963    8    0    1
 -2       414       561       560      2461      2462      2457
 -1       964    8    0    1
 -2       415       416       562      2027      2463      2464
 -1       965    8    0    1
 -2       415       562       561      2464      2465      2460
 -1       966    8    0    1
 -2       416       417       563      2030      2466      2467
 -1       967    8    0    1
 -2       416       563       562      2467      2468      2463
 -1       968    8    0    1
 -2       417       418       564      2033      2469      2470
 -1       969    8    0    1
 -2       417       564       563      2470      2471      2466
 -1       970    8    0    1
 -2       418       419       565      2036      2472      2473
 -1       971    8    0    1
 -2       418       565       564      2473      2474      2469
 -1       972    8    0    1
 -2       419       420       566      2039      2475      2476
 -1       973    8    0    1
 -2       419       566       565      2476      2477      2472
 -1       974    8    0    1
 -2       420       421       567      2042      2478      2479
 -1       975    8    0    1
 -2       420       567       566      2479      2480      2475
 -1       976    8    0    1
 -2       421       422       568      2045      2481      2482
 -1       977    8    0    1
 -2       421       568       567      2482      2483      2478
 -1       978    8    0    1
 -2       422       423       569      2048      2484      2485
 -1       979    8    0    1
 -2       422       569       568      2485      2486      2481
 -1       980    8    0    1
 -2       423       424       570      2051      2487      2488
 -1       981    8    0    1
 -2       423       570       569      2488      2489      2484
 -1       982    8    0    1
 -2       424       425       571      2054      2490      2491
 -1       983    8    0    1
 -2       424       571       570      2491      2492      2487
 -1       984    8    0    1
 -2       425       426       572      2057      2493      2494
 -1       985    8    0    1
 -2       425       572       571      2494      2495      2490
 -1       986    8    0    1
 -2       426       427       573      2060      2496      2497
 -1       987    8    0    1
 -2       426       573       572      2497      2498      2493
 -1       988    8    0    1
 -2       431       432       574      2076      2499      2500
 -1       989    8    0    1
 -2       429       431       575      2073      2501      2502
 -1       990    8    0    1
 -2       431       574       575      2500      2503      2501
 -1       991    8    0    1
 -2       430       429       576      2069      2504      2505
 -1       992    8    0    1
 -2       429       575       576      2502      2506      2504
 -1       993    8    0    1
 -2       444       472       577      2182      2507      2508
 -1       994    8    0    1
 -2       432       433       578      2079      2509      2510
 -1       995    8    0    1
 -2       432       578       574      2510      2511      2499
 -1       996    8    0    1
 -2       433       434       579      2082      2512      2513
 -1       997    8    0    1
 -2       433       579       578      2513      2514      2509
 -1       998    8    0    1
 -2       434       435       580      2085      2515      2516
 -1       999    8    0    1
 -2       434       580       579      2516      2517      2512
 -1      1000    8    0    1
 -2       435       436       581      2088      2518      2519
 -1      1001    8    0    1
 -2       435       581       580      2519      2520      2515
 -1      1002    8    0    1
 -2       436       437       582      2091      2521      2522
 -1      1003    8    0    1
 -2       436       582       581      2522      2523      2518
 -1      1004    8    0    1
 -2       437       438       583      2094      2524      2525
 -1      1005    8    0    1
 -2       437       583       582      2525      2526      2521
 -1      1006    8    0    1
 -2       438       439       584      2097      2527      2528
 -1      1007    8    0    1
 -2       438       584       583      2528      2529      2524
 -1      1008    8    0    1
 -2       439       440       585      2100      2530      2531
 -1      1009    8    0    1
 -2       584       439       585      2527      2531      2532
 -1      1010    8    0    1
 -2       440       530       585      2369      2533      2530
 -1      1011    8    0    1
 -2       338       324       586      2180      2534      2535
 -1      1012    8    0    1
 -2       485       338       586      2238      2535      2536
 -1      1013    8    0    1
 -2       324       323       586      1750      2537      2534
 -1      1014    8    0    1
 -2       471       444       587      2187      2538      2539
 -1      1015    8    0    1
 -2       470       471       588      2188      2540      2541
 -1      1016    8    0    1
 -2       461       462       589      2196      2542      2543
 -1      1017    8    0    1
 -2       459       460       590      2197      2544      2545
 -1      1018    8    0    1
 -2       455       456       591      2199      2546      2547
 -1      1019    8    0    1
 -2       327       328       592      1761      2548      2549
 -1      1020    8    0    1
 -2       475       327       592      2209      2549      2550
 -1      1021    8    0    1
 -2       328       477       592      2215      2551      2548
 -1      1022    8    0    1
 -2       443       447       593      2179      2552      2553
 -1      1023    8    0    1
 -2       449       450       594      2203      2554      2555
 -1      1024    8    0    1
 -2       447       448       595      2123      2556      2557
 -1      1025    8    0    1
 -2       452       453       596      2204      2558      2559
 -1      1026    8    0    1
 -2       450       451       597      2130      2560      2561
 -1      1027    8    0    1
 -2       458       459       598      2205      2562      2563
 -1      1028    8    0    1
 -2       448       449       599      2202      2564      2565
 -1      1029    8    0    1
 -2       449       594       599      2555      2566      2564
 -1      1030    8    0    1
 -2       453       454       600      2201      2567      2568
 -1      1031    8    0    1
 -2       454       455       601      2200      2569      2570
 -1      1032    8    0    1
 -2       455       591       601      2547      2571      2569
 -1      1033    8    0    1
 -2       456       457       602      2143      2572      2573
 -1      1034    8    0    1
 -2       462       463       523      2206      2574      2575
 -1      1035    8    0    1
 -2       457       458       603      2198      2576      2577
 -1      1036    8    0    1
 -2       457       603       602      2577      2578      2572
 -1      1037    8    0    1
 -2       460       461       604      2152      2579      2580
 -1      1038    8    0    1
 -2       465       466       525      2207      2581      2582
 -1      1039    8    0    1
 -2       463       464       524      2159      2583      2584
 -1      1040    8    0    1
 -2       466       467       526      2192      2585      2586
 -1      1041    8    0    1
 -2       467       468       605      2191      2587      2588
 -1      1042    8    0    1
 -2       468       469       606      2190      2589      2590
 -1      1043    8    0    1
 -2       468       606       605      2590      2591      2587
 -1      1044    8    0    1
 -2       469       470       607      2189      2592      2593
 -1      1045    8    0    1
 -2       469       607       606      2593      2594      2589
 -1      1046    8    0    1
 -2       427       430       573      2242      2595      2496
 -1      1047    8    0    1
 -2       325       476       608      2212      2596      2597
 -1      1048    8    0    1
 -2       325       608       446      2597      2598      2118
 -1      1049    8    0    1
 -2       587       444       577      2538      2508      2599
 -1      1050    8    0    1
 -2       484       337       609      2237      2600      2601
 -1      1051    8    0    1
 -2       337       441       609      2103      2602      2600
 -1      1052    8    0    1
 -2       486       452       596      2240      2559      2603
 -1      1053    8    0    1
 -2       445       443       610      2114      2604      2605
 -1      1054    8    0    1
 -2       573       430       576      2595      2505      2606
 -1      1055    8    0    1
 -2       451       486       597      2241      2607      2560
 -1      1056    8    0    1
 -2       524       464       474      2583      2194      2608
 -1      1057    8    0    1
 -2       523       375       522      2351      2349      2609
 -1      1058    8    0    1
 -2       377       524       474      2354      2608      2610
 -1      1059    8    0    1
 -2       378       525       526      2356      2611      2357
 -1      1060    8    0    1
 -2       379       526       527      2358      2612      2359
 -1      1061    8    0    1
 -2       376       523       524      2352      2613      2353
 -1      1062    8    0    1
 -2       577       472       611      2507      2614      2615
 -1      1063    8    0    1
 -2       472       473       611      2186      2616      2614
 -1      1064    8    0    1
 -2       525       466       526      2581      2586      2611
 -1      1065    8    0    1
 -2       603       458       598      2576      2563      2617
 -1      1066    8    0    1
 -2       586       323       446      2537      2117      2618
 -1      1067    8    0    1
 -2       443       593       610      2553      2619      2604
 -1      1068    8    0    1
 -2       441       384       612      2104      2620      2621
 -1      1069    8    0    1
 -2       609       441       612      2602      2621      2622
 -1      1070    8    0    1
 -2       384       533       612      2377      2623      2620
 -1      1071    8    0    1
 -2       473       442       613      2184      2624      2625
 -1      1072    8    0    1
 -2       523       463       524      2574      2584      2613
 -1      1073    8    0    1
 -2       588       471       587      2540      2539      2626
 -1      1074    8    0    1
 -2       442       445       613      2113      2627      2624
 -1      1075    8    0    1
 -2       470       588       607      2541      2628      2592
 -1      1076    8    0    1
 -2       461       589       604      2543      2629      2579
 -1      1077    8    0    1
 -2       598       459       590      2562      2545      2630
 -1      1078    8    0    1
 -2       596       453       600      2558      2568      2631
 -1      1079    8    0    1
 -2       474       465       525      2195      2582      2632
 -1      1080    8    0    1
 -2       595       448       599      2556      2565      2633
 -1      1081    8    0    1
 -2       456       602       591      2573      2634      2546
 -1      1082    8    0    1
 -2       590       460       604      2544      2580      2635
 -1      1083    8    0    1
 -2       594       450       597      2554      2561      2636
 -1      1084    8    0    1
 -2       447       595       593      2557      2637      2552
 -1      1085    8    0    1
 -2       525       377       474      2355      2610      2632
 -1      1086    8    0    1
 -2       600       454       614      2567      2638      2639
 -1      1087    8    0    1
 -2       454       601       614      2570      2640      2638
 -1      1088    8    0    1
 -2       478       479       615      2221      2641      2642
 -1      1089    8    0    1
 -2       477       478       616      2218      2643      2644
 -1      1090    8    0    1
 -2       478       615       616      2642      2645      2643
 -1      1091    8    0    1
 -2       480       481       617      2227      2646      2647
 -1      1092    8    0    1
 -2       481       482       618      2230      2648      2649
 -1      1093    8    0    1
 -2       481       618       617      2649      2650      2646
 -1      1094    8    0    1
 -2       483       484       619      2236      2651      2652
 -1      1095    8    0    1
 -2       484       609       619      2601      2653      2651
 -1      1096    8    0    1
 -2       607       588       620      2628      2654      2655
 -1      1097    8    0    1
 -2       573       576       621      2606      2656      2657
 -1      1098    8    0    1
 -2       573       621       572      2657      2658      2498
 -1      1099    8    0    1
 -2       606       607       622      2594      2659      2660
 -1      1100    8    0    1
 -2       587       577       623      2599      2661      2662
 -1      1101    8    0    1
 -2       487       485       624      2245      2663      2664
 -1      1102    8    0    1
 -2       488       487       625      2248      2665      2666
 -1      1103    8    0    1
 -2       487       624       625      2664      2667      2665
 -1      1104    8    0    1
 -2       489       488       626      2251      2668      2669
 -1      1105    8    0    1
 -2       488       625       626      2666      2670      2668
 -1      1106    8    0    1
 -2       490       489       627      2254      2671      2672
 -1      1107    8    0    1
 -2       489       626       627      2669      2673      2671
 -1      1108    8    0    1
 -2       491       490       628      2257      2674      2675
 -1      1109    8    0    1
 -2       490       627       628      2672      2676      2674
 -1      1110    8    0    1
 -2       492       491       629      2260      2677      2678
 -1      1111    8    0    1
 -2       491       628       629      2675      2679      2677
 -1      1112    8    0    1
 -2       493       492       630      2263      2680      2681
 -1      1113    8    0    1
 -2       492       629       630      2678      2682      2680
 -1      1114    8    0    1
 -2       494       493       631      2266      2683      2684
 -1      1115    8    0    1
 -2       493       630       631      2681      2685      2683
 -1      1116    8    0    1
 -2       495       494       632      2269      2686      2687
 -1      1117    8    0    1
 -2       494       631       632      2684      2688      2686
 -1      1118    8    0    1
 -2       496       495       633      2272      2689      2690
 -1      1119    8    0    1
 -2       495       632       633      2687      2691      2689
 -1      1120    8    0    1
 -2       497       496       634      2275      2692      2693
 -1      1121    8    0    1
 -2       496       633       634      2690      2694      2692
 -1      1122    8    0    1
 -2       498       497       635      2278      2695      2696
 -1      1123    8    0    1
 -2       497       634       635      2693      2697      2695
 -1      1124    8    0    1
 -2       499       498       636      2281      2698      2699
 -1      1125    8    0    1
 -2       498       635       636      2696      2700      2698
 -1      1126    8    0    1
 -2       500       499       637      2284      2701      2702
 -1      1127    8    0    1
 -2       499       636       637      2699      2703      2701
 -1      1128    8    0    1
 -2       501       500       638      2287      2704      2705
 -1      1129    8    0    1
 -2       500       637       638      2702      2706      2704
 -1      1130    8    0    1
 -2       502       501       639      2290      2707      2708
 -1      1131    8    0    1
 -2       501       638       639      2705      2709      2707
 -1      1132    8    0    1
 -2       503       502       640      2293      2710      2711
 -1      1133    8    0    1
 -2       502       639       640      2708      2712      2710
 -1      1134    8    0    1
 -2       504       503       641      2296      2713      2714
 -1      1135    8    0    1
 -2       503       640       641      2711      2715      2713
 -1      1136    8    0    1
 -2       505       504       642      2299      2716      2717
 -1      1137    8    0    1
 -2       504       641       642      2714      2718      2716
 -1      1138    8    0    1
 -2       506       505       643      2302      2719      2720
 -1      1139    8    0    1
 -2       505       642       643      2717      2721      2719
 -1      1140    8    0    1
 -2       507       506       644      2305      2722      2723
 -1      1141    8    0    1
 -2       506       643       644      2720      2724      2722
 -1      1142    8    0    1
 -2       508       507       645      2308      2725      2726
 -1      1143    8    0    1
 -2       507       644       645      2723      2727      2725
 -1      1144    8    0    1
 -2       509       508       646      2311      2728      2729
 -1      1145    8    0    1
 -2       508       645       646      2726      2730      2728
 -1      1146    8    0    1
 -2       510       509       647      2314      2731      2732
 -1      1147    8    0    1
 -2       509       646       647      2729      2733      2731
 -1      1148    8    0    1
 -2       511       510       648      2317      2734      2735
 -1      1149    8    0    1
 -2       510       647       648      2732      2736      2734
 -1      1150    8    0    1
 -2       512       511       649      2320      2737      2738
 -1      1151    8    0    1
 -2       511       648       649      2735      2739      2737
 -1      1152    8    0    1
 -2       513       512       650      2323      2740      2741
 -1      1153    8    0    1
 -2       512       649       650      2738      2742      2740
 -1      1154    8    0    1
 -2       514       513       651      2326      2743      2744
 -1      1155    8    0    1
 -2       513       650       651      2741      2745      2743
 -1      1156    8    0    1
 -2       515       514       652      2329      2746      2747
 -1      1157    8    0    1
 -2       514       651       652      2744      2748      2746
 -1      1158    8    0    1
 -2       516       515       653      2332      2749      2750
 -1      1159    8    0    1
 -2       515       652       653      2747      2751      2749
 -1      1160    8    0    1
 -2       517       516       654      2335      2752      2753
 -1      1161    8    0    1
 -2       516       653       654      2750      2754      2752
 -1      1162    8    0    1
 -2       518       517       655      2338      2755      2756
 -1      1163    8    0    1
 -2       517       654       655      2753      2757      2755
 -1      1164    8    0    1
 -2       519       518       656      2341      2758      2759
 -1      1165    8    0    1
 -2       518       655       656      2756      2760      2758
 -1      1166    8    0    1
 -2       520       519       657      2344      2761      2762
 -1      1167    8    0    1
 -2       519       656       657      2759      2763      2761
 -1      1168    8    0    1
 -2       521       520       658      2347      2764      2765
 -1      1169    8    0    1
 -2       520       657       658      2762      2766      2764
 -1      1170    8    0    1
 -2       473       613       659      2625      2767      2768
 -1      1171    8    0    1
 -2       473       659       611      2768      2769      2616
 -1      1172    8    0    1
 -2       529       528       660      2366      2770      2771
 -1      1173    8    0    1
 -2       530       529       661      2370      2772      2773
 -1      1174    8    0    1
 -2       585       530       661      2533      2773      2774
 -1      1175    8    0    1
 -2       529       660       661      2771      2775      2772
 -1      1176    8    0    1
 -2       532       531       662      2375      2776      2777
 -1      1177    8    0    1
 -2       531       534       663      2381      2778      2779
 -1      1178    8    0    1
 -2       531       663       662      2779      2780      2776
 -1      1179    8    0    1
 -2       533       532       664      2378      2781      2782
 -1      1180    8    0    1
 -2       532       662       664      2777      2783      2781
 -1      1181    8    0    1
 -2       535       536       665      2387      2784      2785
 -1      1182    8    0    1
 -2       536       537       666      2390      2786      2787
 -1      1183    8    0    1
 -2       536       666       665      2787      2788      2784
 -1      1184    8    0    1
 -2       537       538       667      2393      2789      2790
 -1      1185    8    0    1
 -2       537       667       666      2790      2791      2786
 -1      1186    8    0    1
 -2       538       539       668      2396      2792      2793
 -1      1187    8    0    1
 -2       538       668       667      2793      2794      2789
 -1      1188    8    0    1
 -2       539       540       669      2399      2795      2796
 -1      1189    8    0    1
 -2       539       669       668      2796      2797      2792
 -1      1190    8    0    1
 -2       540       541       670      2402      2798      2799
 -1      1191    8    0    1
 -2       540       670       669      2799      2800      2795
 -1      1192    8    0    1
 -2       541       542       671      2405      2801      2802
 -1      1193    8    0    1
 -2       541       671       670      2802      2803      2798
 -1      1194    8    0    1
 -2       542       543       672      2408      2804      2805
 -1      1195    8    0    1
 -2       542       672       671      2805      2806      2801
 -1      1196    8    0    1
 -2       543       544       673      2411      2807      2808
 -1      1197    8    0    1
 -2       543       673       672      2808      2809      2804
 -1      1198    8    0    1
 -2       544       545       674      2414      2810      2811
 -1      1199    8    0    1
 -2       544       674       673      2811      2812      2807
 -1      1200    8    0    1
 -2       545       546       675      2417      2813      2814
 -1      1201    8    0    1
 -2       545       675       674      2814      2815      2810
 -1      1202    8    0    1
 -2       546       547       676      2420      2816      2817
 -1      1203    8    0    1
 -2       546       676       675      2817      2818      2813
 -1      1204    8    0    1
 -2       547       548       677      2423      2819      2820
 -1      1205    8    0    1
 -2       547       677       676      2820      2821      2816
 -1      1206    8    0    1
 -2       548       549       678      2426      2822      2823
 -1      1207    8    0    1
 -2       548       678       677      2823      2824      2819
 -1      1208    8    0    1
 -2       549       550       679      2429      2825      2826
 -1      1209    8    0    1
 -2       549       679       678      2826      2827      2822
 -1      1210    8    0    1
 -2       550       551       680      2432      2828      2829
 -1      1211    8    0    1
 -2       550       680       679      2829      2830      2825
 -1      1212    8    0    1
 -2       551       552       681      2435      2831      2832
 -1      1213    8    0    1
 -2       551       681       680      2832      2833      2828
 -1      1214    8    0    1
 -2       552       553       682      2438      2834      2835
 -1      1215    8    0    1
 -2       552       682       681      2835      2836      2831
 -1      1216    8    0    1
 -2       553       554       683      2441      2837      2838
 -1      1217    8    0    1
 -2       553       683       682      2838      2839      2834
 -1      1218    8    0    1
 -2       554       555       684      2444      2840      2841
 -1      1219    8    0    1
 -2       554       684       683      2841      2842      2837
 -1      1220    8    0    1
 -2       555       556       685      2447      2843      2844
 -1      1221    8    0    1
 -2       555       685       684      2844      2845      2840
 -1      1222    8    0    1
 -2       556       557       686      2450      2846      2847
 -1      1223    8    0    1
 -2       556       686       685      2847      2848      2843
 -1      1224    8    0    1
 -2       557       558       687      2453      2849      2850
 -1      1225    8    0    1
 -2       557       687       686      2850      2851      2846
 -1      1226    8    0    1
 -2       558       559       688      2456      2852      2853
 -1      1227    8    0    1
 -2       558       688       687      2853      2854      2849
 -1      1228    8    0    1
 -2       559       560       689      2459      2855      2856
 -1      1229    8    0    1
 -2       559       689       688      2856      2857      2852
 -1      1230    8    0    1
 -2       560       561       690      2462      2858      2859
 -1      1231    8    0    1
 -2       560       690       689      2859      2860      2855
 -1      1232    8    0    1
 -2       561       562       691      2465      2861      2862
 -1      1233    8    0    1
 -2       561       691       690      2862      2863      2858
 -1      1234    8    0    1
 -2       562       563       692      2468      2864      2865
 -1      1235    8    0    1
 -2       562       692       691      2865      2866      2861
 -1      1236    8    0    1
 -2       563       564       693      2471      2867      2868
 -1      1237    8    0    1
 -2       563       693       692      2868      2869      2864
 -1      1238    8    0    1
 -2       564       565       694      2474      2870      2871
 -1      1239    8    0    1
 -2       564       694       693      2871      2872      2867
 -1      1240    8    0    1
 -2       565       566       695      2477      2873      2874
 -1      1241    8    0    1
 -2       565       695       694      2874      2875      2870
 -1      1242    8    0    1
 -2       566       567       696      2480      2876      2877
 -1      1243    8    0    1
 -2       566       696       695      2877      2878      2873
 -1      1244    8    0    1
 -2       567       568       697      2483      2879      2880
 -1      1245    8    0    1
 -2       567       697       696      2880      2881      2876
 -1      1246    8    0    1
 -2       568       569       698      2486      2882      2883
 -1      1247    8    0    1
 -2       568       698       697      2883      2884      2879
 -1      1248    8    0    1
 -2       569       570       699      2489      2885      2886
 -1      1249    8    0    1
 -2       569       699       698      2886      2887      2882
 -1      1250    8    0    1
 -2       570       571       700      2492      2888      2889
 -1      1251    8    0    1
 -2       570       700       699      2889      2890      2885
 -1      1252    8    0    1
 -2       571       572       701      2495      2891      2892
 -1      1253    8    0    1
 -2       700       571       701      2888      2892      2893
 -1      1254    8    0    1
 -2       572       621       701      2658      2894      2891
 -1      1255    8    0    1
 -2       597       486       702      2607      2895      2896
 -1      1256    8    0    1
 -2       578       579       703      2514      2897      2898
 -1      1257    8    0    1
 -2       576       575       621      2506      2899      2656
 -1      1258    8    0    1
 -2       574       578       704      2511      2900      2901
 -1      1259    8    0    1
 -2       578       703       704      2898      2902      2900
 -1      1260    8    0    1
 -2       580       581       705      2520      2903      2904
 -1      1261    8    0    1
 -2       581       582       706      2523      2905      2906
 -1      1262    8    0    1
 -2       582       583       707      2526      2907      2908
 -1      1263    8    0    1
 -2       583       584       708      2529      2909      2910
 -1      1264    8    0    1
 -2       583       708       707      2910      2911      2907
 -1      1265    8    0    1
 -2       589       462       523      2542      2575      2912
 -1      1266    8    0    1
 -2       486       596       709      2603      2913      2914
 -1      1267    8    0    1
 -2       486       709       702      2914      2915      2895
 -1      1268    8    0    1
 -2       610       593       710      2619      2916      2917
 -1      1269    8    0    1
 -2       601       591       711      2571      2918      2919
 -1      1270    8    0    1
 -2       599       594       712      2566      2920      2921
 -1      1271    8    0    1
 -2       603       598       713      2617      2922      2923
 -1      1272    8    0    1
 -2       596       600       714      2631      2924      2925
 -1      1273    8    0    1
 -2       590       604       658      2635      2926      2927
 -1      1274    8    0    1
 -2       579       580       715      2517      2928      2929
 -1      1275    8    0    1
 -2       579       715       703      2929      2930      2897
 -1      1276    8    0    1
 -2       575       574       716      2503      2931      2932
 -1      1277    8    0    1
 -2       574       704       716      2901      2933      2931
 -1      1278    8    0    1
 -2       528       527       622      2363      2934      2935
 -1      1279    8    0    1
 -2       613       445       610      2627      2605      2936
 -1      1280    8    0    1
 -2       588       587       717      2626      2937      2938
 -1      1281    8    0    1
 -2       593       595       718      2637      2939      2940
 -1      1282    8    0    1
 -2       586       446       608      2618      2598      2941
 -1      1283    8    0    1
 -2       591       602       719      2634      2942      2943
 -1      1284    8    0    1
 -2       591       719       711      2943      2944      2918
 -1      1285    8    0    1
 -2       594       597       720      2636      2945      2946
 -1      1286    8    0    1
 -2       594       720       712      2946      2947      2920
 -1      1287    8    0    1
 -2       602       603       721      2578      2948      2949
 -1      1288    8    0    1
 -2       598       590       722      2630      2950      2951
 -1      1289    8    0    1
 -2       713       598       722      2922      2951      2952
 -1      1290    8    0    1
 -2       590       658       722      2927      2953      2950
 -1      1291    8    0    1
 -2       595       599       723      2633      2954      2955
 -1      1292    8    0    1
 -2       479       480       724      2224      2956      2957
 -1      1293    8    0    1
 -2       615       479       724      2641      2957      2958
 -1      1294    8    0    1
 -2       480       617       724      2647      2959      2956
 -1      1295    8    0    1
 -2       476       475       725      2213      2960      2961
 -1      1296    8    0    1
 -2       534       535       726      2384      2962      2963
 -1      1297    8    0    1
 -2       663       534       726      2778      2963      2964
 -1      1298    8    0    1
 -2       535       665       726      2785      2965      2962
 -1      1299    8    0    1
 -2       467       605       526      2588      2966      2585
 -1      1300    8    0    1
 -2       526       605       527      2966      2967      2612
 -1      1301    8    0    1
 -2       613       610       727      2936      2968      2969
 -1      1302    8    0    1
 -2       477       616       728      2644      2970      2971
 -1      1303    8    0    1
 -2       477       728       592      2971      2972      2551
 -1      1304    8    0    1
 -2       483       619       482      2652      2973      2233
 -1      1305    8    0    1
 -2       620       588       717      2654      2938      2974
 -1      1306    8    0    1
 -2       597       702       720      2896      2975      2945
 -1      1307    8    0    1
 -2       622       607       620      2659      2655      2976
 -1      1308    8    0    1
 -2       587       623       717      2662      2977      2937
 -1      1309    8    0    1
 -2       521       658       604      2765      2926      2978
 -1      1310    8    0    1
 -2       608       476       729      2596      2979      2980
 -1      1311    8    0    1
 -2       476       725       729      2961      2981      2979
 -1      1312    8    0    1
 -2       527       605       622      2967      2982      2934
 -1      1313    8    0    1
 -2       522       521       604      2350      2978      2983
 -1      1314    8    0    1
 -2       660       528       622      2770      2935      2984
 -1      1315    8    0    1
 -2       485       586       730      2536      2985      2986
 -1      1316    8    0    1
 -2       610       710       727      2917      2987      2968
 -1      1317    8    0    1
 -2       575       716       621      2932      2988      2899
 -1      1318    8    0    1
 -2       580       705       715      2904      2989      2928
 -1      1319    8    0    1
 -2       705       581       706      2903      2906      2990
 -1      1320    8    0    1
 -2       582       707       706      2908      2991      2905
 -1      1321    8    0    1
 -2       584       585       731      2532      2992      2993
 -1      1322    8    0    1
 -2       708       584       731      2909      2993      2994
 -1      1323    8    0    1
 -2       585       661       731      2774      2995      2992
 -1      1324    8    0    1
 -2       533       664       732      2782      2996      2997
 -1      1325    8    0    1
 -2       709       596       714      2913      2925      2998
 -1      1326    8    0    1
 -2       710       593       718      2916      2940      2999
 -1      1327    8    0    1
 -2       612       533       732      2623      2997      3000
 -1      1328    8    0    1
 -2       718       595       733      2939      3001      3002
 -1      1329    8    0    1
 -2       595       723       733      2955      3003      3001
 -1      1330    8    0    1
 -2       714       600       734      2924      3004      3005
 -1      1331    8    0    1
 -2       600       614       734      2639      3006      3004
 -1      1332    8    0    1
 -2       601       711       614      2919      3007      2640
 -1      1333    8    0    1
 -2       599       712       723      2921      3008      2954
 -1      1334    8    0    1
 -2       602       721       719      2949      3009      2942
 -1      1335    8    0    1
 -2       603       713       721      2923      3010      2948
 -1      1336    8    0    1
 -2       482       619       618      2973      3011      2648
 -1      1337    8    0    1
 -2       624       485       730      2663      2986      3012
 -1      1338    8    0    1
 -2       475       592       735      2550      3013      3014
 -1      1339    8    0    1
 -2       725       475       735      2960      3014      3015
 -1      1340    8    0    1
 -2       592       728       735      2972      3016      3013
 -1      1341    8    0    1
 -2       623       577       611      2661      2615      3017
 -1      1342    8    0    1
 -2       617       618       736      2650      3018      3019
 -1      1343    8    0    1
 -2       619       609       612      2653      2622      3020
 -1      1344    8    0    1
 -2       611       659       706      2769      3021      3022
 -1      1345    8    0    1
 -2       626       625       737      2670      3023      3024
 -1      1346    8    0    1
 -2       627       626       738      2673      3025      3026
 -1      1347    8    0    1
 -2       626       737       738      3024      3027      3025
 -1      1348    8    0    1
 -2       628       627       739      2676      3028      3029
 -1      1349    8    0    1
 -2       627       738       739      3026      3030      3028
 -1      1350    8    0    1
 -2       629       628       740      2679      3031      3032
 -1      1351    8    0    1
 -2       628       739       740      3029      3033      3031
 -1      1352    8    0    1
 -2       630       629       741      2682      3034      3035
 -1      1353    8    0    1
 -2       629       740       741      3032      3036      3034
 -1      1354    8    0    1
 -2       631       630       742      2685      3037      3038
 -1      1355    8    0    1
 -2       630       741       742      3035      3039      3037
 -1      1356    8    0    1
 -2       632       631       743      2688      3040      3041
 -1      1357    8    0    1
 -2       631       742       743      3038      3042      3040
 -1      1358    8    0    1
 -2       633       632       744      2691      3043      3044
 -1      1359    8    0    1
 -2       632       743       744      3041      3045      3043
 -1      1360    8    0    1
 -2       634       633       745      2694      3046      3047
 -1      1361    8    0    1
 -2       633       744       745      3044      3048      3046
 -1      1362    8    0    1
 -2       635       634       746      2697      3049      3050
 -1      1363    8    0    1
 -2       634       745       746      3047      3051      3049
 -1      1364    8    0    1
 -2       636       635       747      2700      3052      3053
 -1      1365    8    0    1
 -2       635       746       747      3050      3054      3052
 -1      1366    8    0    1
 -2       637       636       748      2703      3055      3056
 -1      1367    8    0    1
 -2       636       747       748      3053      3057      3055
 -1      1368    8    0    1
 -2       638       637       749      2706      3058      3059
 -1      1369    8    0    1
 -2       637       748       749      3056      3060      3058
 -1      1370    8    0    1
 -2       639       638       750      2709      3061      3062
 -1      1371    8    0    1
 -2       638       749       750      3059      3063      3061
 -1      1372    8    0    1
 -2       640       639       751      2712      3064      3065
 -1      1373    8    0    1
 -2       639       750       751      3062      3066      3064
 -1      1374    8    0    1
 -2       641       640       752      2715      3067      3068
 -1      1375    8    0    1
 -2       640       751       752      3065      3069      3067
 -1      1376    8    0    1
 -2       642       641       753      2718      3070      3071
 -1      1377    8    0    1
 -2       641       752       753      3068      3072      3070
 -1      1378    8    0    1
 -2       643       642       754      2721      3073      3074
 -1      1379    8    0    1
 -2       642       753       754      3071      3075      3073
 -1      1380    8    0    1
 -2       644       643       755      2724      3076      3077
 -1      1381    8    0    1
 -2       643       754       755      3074      3078      3076
 -1      1382    8    0    1
 -2       645       644       756      2727      3079      3080
 -1      1383    8    0    1
 -2       644       755       756      3077      3081      3079
 -1      1384    8    0    1
 -2       646       645       757      2730      3082      3083
 -1      1385    8    0    1
 -2       645       756       757      3080      3084      3082
 -1      1386    8    0    1
 -2       647       646       758      2733      3085      3086
 -1      1387    8    0    1
 -2       646       757       758      3083      3087      3085
 -1      1388    8    0    1
 -2       648       647       759      2736      3088      3089
 -1      1389    8    0    1
 -2       647       758       759      3086      3090      3088
 -1      1390    8    0    1
 -2       649       648       760      2739      3091      3092
 -1      1391    8    0    1
 -2       648       759       760      3089      3093      3091
 -1      1392    8    0    1
 -2       650       649       761      2742      3094      3095
 -1      1393    8    0    1
 -2       649       760       761      3092      3096      3094
 -1      1394    8    0    1
 -2       651       650       762      2745      3097      3098
 -1      1395    8    0    1
 -2       650       761       762      3095      3099      3097
 -1      1396    8    0    1
 -2       652       651       763      2748      3100      3101
 -1      1397    8    0    1
 -2       651       762       763      3098      3102      3100
 -1      1398    8    0    1
 -2       653       652       764      2751      3103      3104
 -1      1399    8    0    1
 -2       652       763       764      3101      3105      3103
 -1      1400    8    0    1
 -2       654       653       765      2754      3106      3107
 -1      1401    8    0    1
 -2       653       764       765      3104      3108      3106
 -1      1402    8    0    1
 -2       655       654       766      2757      3109      3110
 -1      1403    8    0    1
 -2       654       765       766      3107      3111      3109
 -1      1404    8    0    1
 -2       656       655       767      2760      3112      3113
 -1      1405    8    0    1
 -2       655       766       767      3110      3114      3112
 -1      1406    8    0    1
 -2       657       656       768      2763      3115      3116
 -1      1407    8    0    1
 -2       656       767       768      3113      3117      3115
 -1      1408    8    0    1
 -2       658       657       722      2766      3118      2953
 -1      1409    8    0    1
 -2       659       613       769      2767      3119      3120
 -1      1410    8    0    1
 -2       730       586       608      2985      2941      3121
 -1      1411    8    0    1
 -2       727       710       770      2987      3122      3123
 -1      1412    8    0    1
 -2       662       663       771      2780      3124      3125
 -1      1413    8    0    1
 -2       664       662       772      2783      3126      3127
 -1      1414    8    0    1
 -2       662       771       772      3125      3128      3126
 -1      1415    8    0    1
 -2       666       667       773      2791      3129      3130
 -1      1416    8    0    1
 -2       665       666       774      2788      3131      3132
 -1      1417    8    0    1
 -2       666       773       774      3130      3133      3131
 -1      1418    8    0    1
 -2       668       669       775      2797      3134      3135
 -1      1419    8    0    1
 -2       669       670       776      2800      3136      3137
 -1      1420    8    0    1
 -2       669       776       775      3137      3138      3134
 -1      1421    8    0    1
 -2       670       671       777      2803      3139      3140
 -1      1422    8    0    1
 -2       670       777       776      3140      3141      3136
 -1      1423    8    0    1
 -2       671       672       778      2806      3142      3143
 -1      1424    8    0    1
 -2       671       778       777      3143      3144      3139
 -1      1425    8    0    1
 -2       672       673       779      2809      3145      3146
 -1      1426    8    0    1
 -2       672       779       778      3146      3147      3142
 -1      1427    8    0    1
 -2       673       674       780      2812      3148      3149
 -1      1428    8    0    1
 -2       673       780       779      3149      3150      3145
 -1      1429    8    0    1
 -2       674       675       781      2815      3151      3152
 -1      1430    8    0    1
 -2       674       781       780      3152      3153      3148
 -1      1431    8    0    1
 -2       675       676       782      2818      3154      3155
 -1      1432    8    0    1
 -2       675       782       781      3155      3156      3151
 -1      1433    8    0    1
 -2       676       677       783      2821      3157      3158
 -1      1434    8    0    1
 -2       676       783       782      3158      3159      3154
 -1      1435    8    0    1
 -2       677       678       784      2824      3160      3161
 -1      1436    8    0    1
 -2       677       784       783      3161      3162      3157
 -1      1437    8    0    1
 -2       678       679       785      2827      3163      3164
 -1      1438    8    0    1
 -2       678       785       784      3164      3165      3160
 -1      1439    8    0    1
 -2       679       680       786      2830      3166      3167
 -1      1440    8    0    1
 -2       679       786       785      3167      3168      3163
 -1      1441    8    0    1
 -2       680       681       787      2833      3169      3170
 -1      1442    8    0    1
 -2       680       787       786      3170      3171      3166
 -1      1443    8    0    1
 -2       681       682       788      2836      3172      3173
 -1      1444    8    0    1
 -2       681       788       787      3173      3174      3169
 -1      1445    8    0    1
 -2       682       683       789      2839      3175      3176
 -1      1446    8    0    1
 -2       682       789       788      3176      3177      3172
 -1      1447    8    0    1
 -2       683       684       790      2842      3178      3179
 -1      1448    8    0    1
 -2       683       790       789      3179      3180      3175
 -1      1449    8    0    1
 -2       684       685       791      2845      3181      3182
 -1      1450    8    0    1
 -2       684       791       790      3182      3183      3178
 -1      1451    8    0    1
 -2       685       686       792      2848      3184      3185
 -1      1452    8    0    1
 -2       685       792       791      3185      3186      3181
 -1      1453    8    0    1
 -2       686       687       793      2851      3187      3188
 -1      1454    8    0    1
 -2       686       793       792      3188      3189      3184
 -1      1455    8    0    1
 -2       687       688       794      2854      3190      3191
 -1      1456    8    0    1
 -2       687       794       793      3191      3192      3187
 -1      1457    8    0    1
 -2       688       689       795      2857      3193      3194
 -1      1458    8    0    1
 -2       688       795       794      3194      3195      3190
 -1      1459    8    0    1
 -2       689       690       796      2860      3196      3197
 -1      1460    8    0    1
 -2       689       796       795      3197      3198      3193
 -1      1461    8    0    1
 -2       690       691       797      2863      3199      3200
 -1      1462    8    0    1
 -2       690       797       796      3200      3201      3196
 -1      1463    8    0    1
 -2       691       692       798      2866      3202      3203
 -1      1464    8    0    1
 -2       691       798       797      3203      3204      3199
 -1      1465    8    0    1
 -2       692       693       799      2869      3205      3206
 -1      1466    8    0    1
 -2       692       799       798      3206      3207      3202
 -1      1467    8    0    1
 -2       693       694       800      2872      3208      3209
 -1      1468    8    0    1
 -2       693       800       799      3209      3210      3205
 -1      1469    8    0    1
 -2       694       695       801      2875      3211      3212
 -1      1470    8    0    1
 -2       694       801       800      3212      3213      3208
 -1      1471    8    0    1
 -2       695       696       802      2878      3214      3215
 -1      1472    8    0    1
 -2       695       802       801      3215      3216      3211
 -1      1473    8    0    1
 -2       696       697       803      2881      3217      3218
 -1      1474    8    0    1
 -2       696       803       802      3218      3219      3214
 -1      1475    8    0    1
 -2       697       698       804      2884      3220      3221
 -1      1476    8    0    1
 -2       697       804       803      3221      3222      3217
 -1      1477    8    0    1
 -2       698       699       805      2887      3223      3224
 -1      1478    8    0    1
 -2       698       805       804      3224      3225      3220
 -1      1479    8    0    1
 -2       699       700       806      2890      3226      3227
 -1      1480    8    0    1
 -2       699       806       805      3227      3228      3223
 -1      1481    8    0    1
 -2       711       719       807      2944      3229      3230
 -1      1482    8    0    1
 -2       715       705       769      2989      3231      3232
 -1      1483    8    0    1
 -2       621       716       808      2988      3233      3234
 -1      1484    8    0    1
 -2       621       808       701      3234      3235      2894
 -1      1485    8    0    1
 -2       717       623       707      2977      3236      3237
 -1      1486    8    0    1
 -2       706       707       623      2991      3236      3238
 -1      1487    8    0    1
 -2       707       708       717      2911      3239      3237
 -1      1488    8    0    1
 -2       712       720       809      2947      3240      3241
 -1      1489    8    0    1
 -2       709       714       810      2998      3242      3243
 -1      1490    8    0    1
 -2       659       769       705      3120      3231      3244
 -1      1491    8    0    1
 -2       705       706       659      2990      3021      3244
 -1      1492    8    0    1
 -2       719       721       811      3009      3245      3246
 -1      1493    8    0    1
 -2       589       523       522      2912      2609      3247
 -1      1494    8    0    1
 -2       710       718       812      2999      3248      3249
 -1      1495    8    0    1
 -2       667       668       813      2794      3250      3251
 -1      1496    8    0    1
 -2       773       667       813      3129      3251      3252
 -1      1497    8    0    1
 -2       668       775       813      3135      3253      3250
 -1      1498    8    0    1
 -2       625       624       814      2667      3254      3255
 -1      1499    8    0    1
 -2       625       814       737      3255      3256      3023
 -1      1500    8    0    1
 -2       703       715       770      2930      3257      3258
 -1      1501    8    0    1
 -2       716       704       808      2933      3259      3233
 -1      1502    8    0    1
 -2       522       604       589      2983      2629      3247
 -1      1503    8    0    1
 -2       623       611       706      3017      3022      3238
 -1      1504    8    0    1
 -2       660       622       620      2984      2976      3260
 -1      1505    8    0    1
 -2       614       711       815      3007      3261      3262
 -1      1506    8    0    1
 -2       612       732       619      3000      3263      3020
 -1      1507    8    0    1
 -2       720       702       816      2975      3264      3265
 -1      1508    8    0    1
 -2       613       727       769      2969      3266      3119
 -1      1509    8    0    1
 -2       721       713       817      3010      3267      3268
 -1      1510    8    0    1
 -2       616       615       818      2645      3269      3270
 -1      1511    8    0    1
 -2       618       619       732      3011      3263      3271
 -1      1512    8    0    1
 -2       702       709       819      2915      3272      3273
 -1      1513    8    0    1
 -2       723       712       820      3008      3274      3275
 -1      1514    8    0    1
 -2       730       608       729      3121      2980      3276
 -1      1515    8    0    1
 -2       717       708       620      3239      3277      2974
 -1      1516    8    0    1
 -2       660       620       661      3260      3278      2775
 -1      1517    8    0    1
 -2       618       732       736      3271      3279      3018
 -1      1518    8    0    1
 -2       720       816       809      3265      3280      3240
 -1      1519    8    0    1
 -2       811       721       817      3245      3268      3281
 -1      1520    8    0    1
 -2       818       615       821      3269      3282      3283
 -1      1521    8    0    1
 -2       615       724       821      2958      3284      3282
 -1      1522    8    0    1
 -2       729       725       822      2981      3285      3286
 -1      1523    8    0    1
 -2       722       657       768      3118      3116      3287
 -1      1524    8    0    1
 -2       771       663       823      3124      3288      3289
 -1      1525    8    0    1
 -2       663       726       823      2964      3290      3288
 -1      1526    8    0    1
 -2       770       710       812      3122      3249      3291
 -1      1527    8    0    1
 -2       718       733       824      3002      3292      3293
 -1      1528    8    0    1
 -2       718       824       812      3293      3294      3248
 -1      1529    8    0    1
 -2       665       774       825      3132      3295      3296
 -1      1530    8    0    1
 -2       665       825       726      3296      3297      2965
 -1      1531    8    0    1
 -2       711       807       815      3230      3298      3261
 -1      1532    8    0    1
 -2       807       719       811      3229      3246      3299
 -1      1533    8    0    1
 -2       700       701       826      2893      3300      3301
 -1      1534    8    0    1
 -2       806       700       826      3226      3301      3302
 -1      1535    8    0    1
 -2       701       808       826      3235      3303      3300
 -1      1536    8    0    1
 -2       712       809       820      3241      3304      3274
 -1      1537    8    0    1
 -2       715       769       770      3232      3305      3257
 -1      1538    8    0    1
 -2       704       703       827      2902      3306      3307
 -1      1539    8    0    1
 -2       810       714       828      3242      3308      3309
 -1      1540    8    0    1
 -2       714       734       828      3005      3310      3308
 -1      1541    8    0    1
 -2       709       810       819      3243      3311      3272
 -1      1542    8    0    1
 -2       733       723       829      3003      3312      3313
 -1      1543    8    0    1
 -2       723       820       829      3275      3314      3312
 -1      1544    8    0    1
 -2       734       614       815      3006      3262      3315
 -1      1545    8    0    1
 -2       732       664       830      2996      3316      3317
 -1      1546    8    0    1
 -2       736       732       830      3279      3317      3318
 -1      1547    8    0    1
 -2       704       827       808      3307      3319      3259
 -1      1548    8    0    1
 -2       702       819       816      3273      3320      3264
 -1      1549    8    0    1
 -2       725       735       831      3015      3321      3322
 -1      1550    8    0    1
 -2       725       831       822      3322      3323      3285
 -1      1551    8    0    1
 -2       817       713       832      3267      3324      3325
 -1      1552    8    0    1
 -2       616       818       833      3270      3326      3327
 -1      1553    8    0    1
 -2       616       833       728      3327      3328      2970
 -1      1554    8    0    1
 -2       703       770       827      3258      3329      3306
 -1      1555    8    0    1
 -2       617       736       834      3019      3330      3331
 -1      1556    8    0    1
 -2       617       834       724      3331      3332      2959
 -1      1557    8    0    1
 -2       620       708       731      3277      2994      3333
 -1      1558    8    0    1
 -2       605       606       622      2591      2660      2982
 -1      1559    8    0    1
 -2       624       730       729      3012      3276      3334
 -1      1560    8    0    1
 -2       830       664       772      3316      3127      3335
 -1      1561    8    0    1
 -2       624       729       814      3334      3336      3254
 -1      1562    8    0    1
 -2       661       620       731      3278      3333      2995
 -1      1563    8    0    1
 -2       817       832       835      3325      3337      3338
 -1      1564    8    0    1
 -2       739       738       836      3030      3339      3340
 -1      1565    8    0    1
 -2       740       739       837      3033      3341      3342
 -1      1566    8    0    1
 -2       739       836       837      3340      3343      3341
 -1      1567    8    0    1
 -2       741       740       838      3036      3344      3345
 -1      1568    8    0    1
 -2       740       837       838      3342      3346      3344
 -1      1569    8    0    1
 -2       742       741       839      3039      3347      3348
 -1      1570    8    0    1
 -2       741       838       839      3345      3349      3347
 -1      1571    8    0    1
 -2       743       742       840      3042      3350      3351
 -1      1572    8    0    1
 -2       742       839       840      3348      3352      3350
 -1      1573    8    0    1
 -2       744       743       841      3045      3353      3354
 -1      1574    8    0    1
 -2       743       840       841      3351      3355      3353
 -1      1575    8    0    1
 -2       745       744       842      3048      3356      3357
 -1      1576    8    0    1
 -2       744       841       842      3354      3358      3356
 -1      1577    8    0    1
 -2       746       745       843      3051      3359      3360
 -1      1578    8    0    1
 -2       745       842       843      3357      3361      3359
 -1      1579    8    0    1
 -2       747       746       844      3054      3362      3363
 -1      1580    8    0    1
 -2       746       843       844      3360      3364      3362
 -1      1581    8    0    1
 -2       748       747       845      3057      3365      3366
 -1      1582    8    0    1
 -2       747       844       845      3363      3367      3365
 -1      1583    8    0    1
 -2       749       748       846      3060      3368      3369
 -1      1584    8    0    1
 -2       748       845       846      3366      3370      3368
 -1      1585    8    0    1
 -2       750       749       847      3063      3371      3372
 -1      1586    8    0    1
 -2       749       846       847      3369      3373      3371
 -1      1587    8    0    1
 -2       751       750       848      3066      3374      3375
 -1      1588    8    0    1
 -2       750       847       848      3372      3376      3374
 -1      1589    8    0    1
 -2       752       751       849      3069      3377      3378
 -1      1590    8    0    1
 -2       751       848       849      3375      3379      3377
 -1      1591    8    0    1
 -2       753       752       850      3072      3380      3381
 -1      1592    8    0    1
 -2       752       849       850      3378      3382      3380
 -1      1593    8    0    1
 -2       754       753       851      3075      3383      3384
 -1      1594    8    0    1
 -2       753       850       851      3381      3385      3383
 -1      1595    8    0    1
 -2       755       754       852      3078      3386      3387
 -1      1596    8    0    1
 -2       754       851       852      3384      3388      3386
 -1      1597    8    0    1
 -2       756       755       853      3081      3389      3390
 -1      1598    8    0    1
 -2       755       852       853      3387      3391      3389
 -1      1599    8    0    1
 -2       757       756       854      3084      3392      3393
 -1      1600    8    0    1
 -2       756       853       854      3390      3394      3392
 -1      1601    8    0    1
 -2       758       757       855      3087      3395      3396
 -1      1602    8    0    1
 -2       757       854       855      3393      3397      3395
 -1      1603    8    0    1
 -2       759       758       856      3090      3398      3399
 -1      1604    8    0    1
 -2       758       855       856      3396      3400      3398
 -1      1605    8    0    1
 -2       760       759       857      3093      3401      3402
 -1      1606    8    0    1
 -2       759       856       857      3399      3403      3401
 -1      1607    8    0    1
 -2       761       760       858      3096      3404      3405
 -1      1608    8    0    1
 -2       760       857       858      3402      3406      3404
 -1      1609    8    0    1
 -2       762       761       859      3099      3407      3408
 -1      1610    8    0    1
 -2       761       858       859      3405      3409      3407
 -1      1611    8    0    1
 -2       763       762       860      3102      3410      3411
 -1      1612    8    0    1
 -2       762       859       860      3408      3412      3410
 -1      1613    8    0    1
 -2       764       763       861      3105      3413      3414
 -1      1614    8    0    1
 -2       763       860       861      3411      3415      3413
 -1      1615    8    0    1
 -2       765       764       862      3108      3416      3417
 -1      1616    8    0    1
 -2       764       861       862      3414      3418      3416
 -1      1617    8    0    1
 -2       766       765       863      3111      3419      3420
 -1      1618    8    0    1
 -2       765       862       863      3417      3421      3419
 -1      1619    8    0    1
 -2       767       766       864      3114      3422      3423
 -1      1620    8    0    1
 -2       766       863       864      3420      3424      3422
 -1      1621    8    0    1
 -2       737       814       865      3256      3425      3426
 -1      1622    8    0    1
 -2       776       777       866      3141      3427      3428
 -1      1623    8    0    1
 -2       775       776       867      3138      3429      3430
 -1      1624    8    0    1
 -2       776       866       867      3428      3431      3429
 -1      1625    8    0    1
 -2       778       779       868      3147      3432      3433
 -1      1626    8    0    1
 -2       779       780       869      3150      3434      3435
 -1      1627    8    0    1
 -2       779       869       868      3435      3436      3432
 -1      1628    8    0    1
 -2       780       781       870      3153      3437      3438
 -1      1629    8    0    1
 -2       780       870       869      3438      3439      3434
 -1      1630    8    0    1
 -2       781       782       871      3156      3440      3441
 -1      1631    8    0    1
 -2       781       871       870      3441      3442      3437
 -1      1632    8    0    1
 -2       782       783       872      3159      3443      3444
 -1      1633    8    0    1
 -2       782       872       871      3444      3445      3440
 -1      1634    8    0    1
 -2       783       784       873      3162      3446      3447
 -1      1635    8    0    1
 -2       783       873       872      3447      3448      3443
 -1      1636    8    0    1
 -2       784       785       874      3165      3449      3450
 -1      1637    8    0    1
 -2       784       874       873      3450      3451      3446
 -1      1638    8    0    1
 -2       785       786       875      3168      3452      3453
 -1      1639    8    0    1
 -2       785       875       874      3453      3454      3449
 -1      1640    8    0    1
 -2       786       787       876      3171      3455      3456
 -1      1641    8    0    1
 -2       786       876       875      3456      3457      3452
 -1      1642    8    0    1
 -2       787       788       877      3174      3458      3459
 -1      1643    8    0    1
 -2       787       877       876      3459      3460      3455
 -1      1644    8    0    1
 -2       788       789       878      3177      3461      3462
 -1      1645    8    0    1
 -2       788       878       877      3462      3463      3458
 -1      1646    8    0    1
 -2       789       790       879      3180      3464      3465
 -1      1647    8    0    1
 -2       789       879       878      3465      3466      3461
 -1      1648    8    0    1
 -2       790       791       880      3183      3467      3468
 -1      1649    8    0    1
 -2       790       880       879      3468      3469      3464
 -1      1650    8    0    1
 -2       791       792       881      3186      3470      3471
 -1      1651    8    0    1
 -2       791       881       880      3471      3472      3467
 -1      1652    8    0    1
 -2       792       793       882      3189      3473      3474
 -1      1653    8    0    1
 -2       792       882       881      3474      3475      3470
 -1      1654    8    0    1
 -2       793       794       883      3192      3476      3477
 -1      1655    8    0    1
 -2       793       883       882      3477      3478      3473
 -1      1656    8    0    1
 -2       794       795       884      3195      3479      3480
 -1      1657    8    0    1
 -2       794       884       883      3480      3481      3476
 -1      1658    8    0    1
 -2       795       796       885      3198      3482      3483
 -1      1659    8    0    1
 -2       795       885       884      3483      3484      3479
 -1      1660    8    0    1
 -2       796       797       886      3201      3485      3486
 -1      1661    8    0    1
 -2       796       886       885      3486      3487      3482
 -1      1662    8    0    1
 -2       797       798       887      3204      3488      3489
 -1      1663    8    0    1
 -2       797       887       886      3489      3490      3485
 -1      1664    8    0    1
 -2       798       799       888      3207      3491      3492
 -1      1665    8    0    1
 -2       798       888       887      3492      3493      3488
 -1      1666    8    0    1
 -2       799       800       889      3210      3494      3495
 -1      1667    8    0    1
 -2       799       889       888      3495      3496      3491
 -1      1668    8    0    1
 -2       800       801       890      3213      3497      3498
 -1      1669    8    0    1
 -2       800       890       889      3498      3499      3494
 -1      1670    8    0    1
 -2       802       803       891      3219      3500      3501
 -1      1671    8    0    1
 -2       803       804       809      3222      3502      3503
 -1      1672    8    0    1
 -2       804       805       809      3225      3504      3502
 -1      1673    8    0    1
 -2       805       806       829      3228      3505      3506
 -1      1674    8    0    1
 -2       811       817       892      3281      3507      3508
 -1      1675    8    0    1
 -2       817       835       892      3338      3509      3507
 -1      1676    8    0    1
 -2       777       778       893      3144      3510      3511
 -1      1677    8    0    1
 -2       866       777       893      3427      3511      3512
 -1      1678    8    0    1
 -2       778       868       893      3433      3513      3510
 -1      1679    8    0    1
 -2       736       830       894      3318      3514      3515
 -1      1680    8    0    1
 -2       736       894       834      3515      3516      3330
 -1      1681    8    0    1
 -2       774       773       895      3133      3517      3518
 -1      1682    8    0    1
 -2       819       810       896      3311      3519      3520
 -1      1683    8    0    1
 -2       772       771       897      3128      3521      3522
 -1      1684    8    0    1
 -2       816       819       891      3320      3523      3524
 -1      1685    8    0    1
 -2       735       728       898      3016      3525      3526
 -1      1686    8    0    1
 -2       735       898       831      3526      3527      3321
 -1      1687    8    0    1
 -2       738       737       899      3027      3528      3529
 -1      1688    8    0    1
 -2       737       865       899      3426      3530      3528
 -1      1689    8    0    1
 -2       807       811       900      3299      3531      3532
 -1      1690    8    0    1
 -2       832       713       722      3324      2952      3533
 -1      1691    8    0    1
 -2       769       727       770      3266      3123      3305
 -1      1692    8    0    1
 -2       734       815       901      3315      3534      3535
 -1      1693    8    0    1
 -2       815       807       902      3298      3536      3537
 -1      1694    8    0    1
 -2       830       772       903      3335      3538      3539
 -1      1695    8    0    1
 -2       894       830       903      3514      3539      3540
 -1      1696    8    0    1
 -2       772       897       903      3522      3541      3538
 -1      1697    8    0    1
 -2       832       722       768      3533      3287      3542
 -1      1698    8    0    1
 -2       832       768       835      3542      3543      3337
 -1      1699    8    0    1
 -2       821       724       834      3284      3332      3544
 -1      1700    8    0    1
 -2       836       738       899      3339      3529      3545
 -1      1701    8    0    1
 -2       767       864       835      3423      3546      3547
 -1      1702    8    0    1
 -2       835       768       767      3543      3117      3547
 -1      1703    8    0    1
 -2       823       726       825      3290      3297      3548
 -1      1704    8    0    1
 -2       771       823       904      3289      3549      3550
 -1      1705    8    0    1
 -2       771       904       897      3550      3551      3521
 -1      1706    8    0    1
 -2       807       900       905      3532      3552      3553
 -1      1707    8    0    1
 -2       807       905       902      3553      3554      3536
 -1      1708    8    0    1
 -2       865       814       822      3425      3555      3556
 -1      1709    8    0    1
 -2       818       821       906      3283      3557      3558
 -1      1710    8    0    1
 -2       824       733       829      3292      3313      3559
 -1      1711    8    0    1
 -2       825       774       907      3295      3560      3561
 -1      1712    8    0    1
 -2       774       895       907      3518      3562      3560
 -1      1713    8    0    1
 -2       814       729       822      3336      3286      3555
 -1      1714    8    0    1
 -2       775       867       908      3430      3563      3564
 -1      1715    8    0    1
 -2       775       908       813      3564      3565      3253
 -1      1716    8    0    1
 -2       802       891       909      3501      3566      3567
 -1      1717    8    0    1
 -2       801       802       909      3216      3567      3568
 -1      1718    8    0    1
 -2       891       819       909      3523      3569      3566
 -1      1719    8    0    1
 -2       890       801       909      3497      3568      3570
 -1      1720    8    0    1
 -2       803       809       816      3503      3280      3571
 -1      1721    8    0    1
 -2       809       805       820      3504      3572      3304
 -1      1722    8    0    1
 -2       829       806       826      3505      3302      3573
 -1      1723    8    0    1
 -2       811       892       900      3508      3574      3531
 -1      1724    8    0    1
 -2       826       808       824      3303      3575      3576
 -1      1725    8    0    1
 -2       828       734       901      3310      3535      3577
 -1      1726    8    0    1
 -2       805       829       820      3506      3314      3572
 -1      1727    8    0    1
 -2       818       906       910      3558      3578      3579
 -1      1728    8    0    1
 -2       818       910       833      3579      3580      3326
 -1      1729    8    0    1
 -2       909       819       896      3569      3520      3581
 -1      1730    8    0    1
 -2       803       816       891      3571      3524      3500
 -1      1731    8    0    1
 -2       773       813       911      3252      3582      3583
 -1      1732    8    0    1
 -2       895       773       911      3517      3583      3584
 -1      1733    8    0    1
 -2       813       908       911      3565      3585      3582
 -1      1734    8    0    1
 -2       822       831       912      3323      3586      3587
 -1      1735    8    0    1
 -2       822       912       865      3587      3588      3556
 -1      1736    8    0    1
 -2       728       833       898      3328      3589      3525
 -1      1737    8    0    1
 -2       901       815       902      3534      3537      3590
 -1      1738    8    0    1
 -2       808       827       824      3319      3591      3575
 -1      1739    8    0    1
 -2       770       812       827      3291      3592      3329
 -1      1740    8    0    1
 -2       827       812       824      3592      3294      3591
 -1      1741    8    0    1
 -2       835       864       913      3546      3593      3594
 -1      1742    8    0    1
 -2       835       913       892      3594      3595      3509
 -1      1743    8    0    1
 -2       838       837       914      3346      3596      3597
 -1      1744    8    0    1
 -2       839       838       915      3349      3598      3599
 -1      1745    8    0    1
 -2       838       914       915      3597      3600      3598
 -1      1746    8    0    1
 -2       840       839       916      3352      3601      3602
 -1      1747    8    0    1
 -2       839       915       916      3599      3603      3601
 -1      1748    8    0    1
 -2       841       840       917      3355      3604      3605
 -1      1749    8    0    1
 -2       840       916       917      3602      3606      3604
 -1      1750    8    0    1
 -2       842       841       918      3358      3607      3608
 -1      1751    8    0    1
 -2       841       917       918      3605      3609      3607
 -1      1752    8    0    1
 -2       843       842       919      3361      3610      3611
 -1      1753    8    0    1
 -2       842       918       919      3608      3612      3610
 -1      1754    8    0    1
 -2       844       843       920      3364      3613      3614
 -1      1755    8    0    1
 -2       843       919       920      3611      3615      3613
 -1      1756    8    0    1
 -2       845       844       921      3367      3616      3617
 -1      1757    8    0    1
 -2       844       920       921      3614      3618      3616
 -1      1758    8    0    1
 -2       846       845       922      3370      3619      3620
 -1      1759    8    0    1
 -2       845       921       922      3617      3621      3619
 -1      1760    8    0    1
 -2       847       846       923      3373      3622      3623
 -1      1761    8    0    1
 -2       846       922       923      3620      3624      3622
 -1      1762    8    0    1
 -2       848       847       924      3376      3625      3626
 -1      1763    8    0    1
 -2       847       923       924      3623      3627      3625
 -1      1764    8    0    1
 -2       849       848       925      3379      3628      3629
 -1      1765    8    0    1
 -2       848       924       925      3626      3630      3628
 -1      1766    8    0    1
 -2       850       849       926      3382      3631      3632
 -1      1767    8    0    1
 -2       849       925       926      3629      3633      3631
 -1      1768    8    0    1
 -2       851       850       927      3385      3634      3635
 -1      1769    8    0    1
 -2       850       926       927      3632      3636      3634
 -1      1770    8    0    1
 -2       852       851       928      3388      3637      3638
 -1      1771    8    0    1
 -2       851       927       928      3635      3639      3637
 -1      1772    8    0    1
 -2       853       852       929      3391      3640      3641
 -1      1773    8    0    1
 -2       852       928       929      3638      3642      3640
 -1      1774    8    0    1
 -2       854       853       930      3394      3643      3644
 -1      1775    8    0    1
 -2       853       929       930      3641      3645      3643
 -1      1776    8    0    1
 -2       855       854       931      3397      3646      3647
 -1      1777    8    0    1
 -2       854       930       931      3644      3648      3646
 -1      1778    8    0    1
 -2       856       855       932      3400      3649      3650
 -1      1779    8    0    1
 -2       855       931       932      3647      3651      3649
 -1      1780    8    0    1
 -2       857       856       933      3403      3652      3653
 -1      1781    8    0    1
 -2       856       932       933      3650      3654      3652
 -1      1782    8    0    1
 -2       858       857       934      3406      3655      3656
 -1      1783    8    0    1
 -2       857       933       934      3653      3657      3655
 -1      1784    8    0    1
 -2       859       858       935      3409      3658      3659
 -1      1785    8    0    1
 -2       858       934       935      3656      3660      3658
 -1      1786    8    0    1
 -2       860       859       936      3412      3661      3662
 -1      1787    8    0    1
 -2       859       935       936      3659      3663      3661
 -1      1788    8    0    1
 -2       861       860       937      3415      3664      3665
 -1      1789    8    0    1
 -2       860       936       937      3662      3666      3664
 -1      1790    8    0    1
 -2       862       861       938      3418      3667      3668
 -1      1791    8    0    1
 -2       861       937       938      3665      3669      3667
 -1      1792    8    0    1
 -2       863       862       939      3421      3670      3671
 -1      1793    8    0    1
 -2       862       938       939      3668      3672      3670
 -1      1794    8    0    1
 -2       864       863       913      3424      3673      3593
 -1      1795    8    0    1
 -2       824       829       826      3559      3573      3576
 -1      1796    8    0    1
 -2       834       894       940      3516      3674      3675
 -1      1797    8    0    1
 -2       821       834       940      3544      3675      3676
 -1      1798    8    0    1
 -2       894       903       940      3540      3677      3674
 -1      1799    8    0    1
 -2       837       836       941      3343      3678      3679
 -1      1800    8    0    1
 -2       837       941       914      3679      3680      3596
 -1      1801    8    0    1
 -2       869       870       942      3439      3681      3682
 -1      1802    8    0    1
 -2       868       869       943      3436      3683      3684
 -1      1803    8    0    1
 -2       869       942       943      3682      3685      3683
 -1      1804    8    0    1
 -2       871       872       944      3445      3686      3687
 -1      1805    8    0    1
 -2       872       873       945      3448      3688      3689
 -1      1806    8    0    1
 -2       872       945       944      3689      3690      3686
 -1      1807    8    0    1
 -2       873       874       946      3451      3691      3692
 -1      1808    8    0    1
 -2       873       946       945      3692      3693      3688
 -1      1809    8    0    1
 -2       874       875       947      3454      3694      3695
 -1      1810    8    0    1
 -2       874       947       946      3695      3696      3691
 -1      1811    8    0    1
 -2       875       876       948      3457      3697      3698
 -1      1812    8    0    1
 -2       875       948       947      3698      3699      3694
 -1      1813    8    0    1
 -2       876       877       949      3460      3700      3701
 -1      1814    8    0    1
 -2       876       949       948      3701      3702      3697
 -1      1815    8    0    1
 -2       877       878       950      3463      3703      3704
 -1      1816    8    0    1
 -2       877       950       949      3704      3705      3700
 -1      1817    8    0    1
 -2       878       879       951      3466      3706      3707
 -1      1818    8    0    1
 -2       878       951       950      3707      3708      3703
 -1      1819    8    0    1
 -2       879       880       952      3469      3709      3710
 -1      1820    8    0    1
 -2       879       952       951      3710      3711      3706
 -1      1821    8    0    1
 -2       880       881       953      3472      3712      3713
 -1      1822    8    0    1
 -2       880       953       952      3713      3714      3709
 -1      1823    8    0    1
 -2       881       882       954      3475      3715      3716
 -1      1824    8    0    1
 -2       881       954       953      3716      3717      3712
 -1      1825    8    0    1
 -2       882       883       955      3478      3718      3719
 -1      1826    8    0    1
 -2       882       955       954      3719      3720      3715
 -1      1827    8    0    1
 -2       883       884       956      3481      3721      3722
 -1      1828    8    0    1
 -2       883       956       955      3722      3723      3718
 -1      1829    8    0    1
 -2       884       885       957      3484      3724      3725
 -1      1830    8    0    1
 -2       884       957       956      3725      3726      3721
 -1      1831    8    0    1
 -2       885       886       958      3487      3727      3728
 -1      1832    8    0    1
 -2       885       958       957      3728      3729      3724
 -1      1833    8    0    1
 -2       886       887       959      3490      3730      3731
 -1      1834    8    0    1
 -2       886       959       958      3731      3732      3727
 -1      1835    8    0    1
 -2       887       888       960      3493      3733      3734
 -1      1836    8    0    1
 -2       887       960       959      3734      3735      3730
 -1      1837    8    0    1
 -2       888       889       961      3496      3736      3737
 -1      1838    8    0    1
 -2       888       961       960      3737      3738      3733
 -1      1839    8    0    1
 -2       828       901       962      3577      3739      3740
 -1      1840    8    0    1
 -2       836       899       963      3545      3741      3742
 -1      1841    8    0    1
 -2       836       963       941      3742      3743      3678
 -1      1842    8    0    1
 -2       810       828       964      3309      3744      3745
 -1      1843    8    0    1
 -2       896       810       964      3519      3745      3746
 -1      1844    8    0    1
 -2       828       962       964      3740      3747      3744
 -1      1845    8    0    1
 -2       900       892       965      3574      3748      3749
 -1      1846    8    0    1
 -2       892       913       965      3595      3750      3748
 -1      1847    8    0    1
 -2       867       866       966      3431      3751      3752
 -1      1848    8    0    1
 -2       909       896       890      3581      3753      3570
 -1      1849    8    0    1
 -2       831       898       967      3527      3754      3755
 -1      1850    8    0    1
 -2       831       967       912      3755      3756      3586
 -1      1851    8    0    1
 -2       899       865       968      3530      3757      3758
 -1      1852    8    0    1
 -2       963       899       968      3741      3758      3759
 -1      1853    8    0    1
 -2       865       912       968      3588      3760      3757
 -1      1854    8    0    1
 -2       823       825       969      3548      3761      3762
 -1      1855    8    0    1
 -2       904       823       969      3549      3762      3763
 -1      1856    8    0    1
 -2       825       907       969      3561      3764      3761
 -1      1857    8    0    1
 -2       898       833       970      3589      3765      3766
 -1      1858    8    0    1
 -2       967       898       970      3754      3766      3767
 -1      1859    8    0    1
 -2       833       910       970      3580      3768      3765
 -1      1860    8    0    1
 -2       901       902       971      3590      3769      3770
 -1      1861    8    0    1
 -2       870       871       972      3442      3771      3772
 -1      1862    8    0    1
 -2       870       972       942      3772      3773      3681
 -1      1863    8    0    1
 -2       890       896       964      3753      3746      3774
 -1      1864    8    0    1
 -2       871       944       972      3687      3775      3771
 -1      1865    8    0    1
 -2       905       900       965      3552      3749      3776
 -1      1866    8    0    1
 -2       863       939       913      3671      3777      3673
 -1      1867    8    0    1
 -2       906       821       940      3557      3676      3778
 -1      1868    8    0    1
 -2       907       895       973      3562      3779      3780
 -1      1869    8    0    1
 -2       890       964       889      3774      3781      3499
 -1      1870    8    0    1
 -2       868       943       974      3684      3782      3783
 -1      1871    8    0    1
 -2       868       974       893      3783      3784      3513
 -1      1872    8    0    1
 -2       962       901       971      3739      3770      3785
 -1      1873    8    0    1
 -2       895       911       975      3584      3786      3787
 -1      1874    8    0    1
 -2       895       975       973      3787      3788      3779
 -1      1875    8    0    1
 -2       866       893       976      3512      3789      3790
 -1      1876    8    0    1
 -2       893       974       976      3784      3791      3789
 -1      1877    8    0    1
 -2       910       906       977      3578      3792      3793
 -1      1878    8    0    1
 -2       966       866       976      3751      3790      3794
 -1      1879    8    0    1
 -2       897       904       978      3551      3795      3796
 -1      1880    8    0    1
 -2       902       905       979      3554      3797      3798
 -1      1881    8    0    1
 -2       902       979       971      3798      3799      3769
 -1      1882    8    0    1
 -2       867       966       980      3752      3800      3801
 -1      1883    8    0    1
 -2       867       980       908      3801      3802      3563
 -1      1884    8    0    1
 -2       903       897       981      3541      3803      3804
 -1      1885    8    0    1
 -2       940       903       981      3677      3804      3805
 -1      1886    8    0    1
 -2       897       978       981      3796      3806      3803
 -1      1887    8    0    1
 -2       906       940       981      3778      3805      3807
 -1      1888    8    0    1
 -2       906       981       977      3807      3808      3792
 -1      1889    8    0    1
 -2       889       964       962      3781      3747      3809
 -1      1890    8    0    1
 -2       889       962       961      3809      3810      3736
 -1      1891    8    0    1
 -2       916       915       982      3603      3811      3812
 -1      1892    8    0    1
 -2       917       916       983      3606      3813      3814
 -1      1893    8    0    1
 -2       916       982       983      3812      3815      3813
 -1      1894    8    0    1
 -2       918       917       984      3609      3816      3817
 -1      1895    8    0    1
 -2       917       983       984      3814      3818      3816
 -1      1896    8    0    1
 -2       919       918       985      3612      3819      3820
 -1      1897    8    0    1
 -2       918       984       985      3817      3821      3819
 -1      1898    8    0    1
 -2       920       919       986      3615      3822      3823
 -1      1899    8    0    1
 -2       919       985       986      3820      3824      3822
 -1      1900    8    0    1
 -2       921       920       987      3618      3825      3826
 -1      1901    8    0    1
 -2       920       986       987      3823      3827      3825
 -1      1902    8    0    1
 -2       922       921       988      3621      3828      3829
 -1      1903    8    0    1
 -2       921       987       988      3826      3830      3828
 -1      1904    8    0    1
 -2       923       922       989      3624      3831      3832
 -1      1905    8    0    1
 -2       922       988       989      3829      3833      3831
 -1      1906    8    0    1
 -2       924       923       990      3627      3834      3835
 -1      1907    8    0    1
 -2       923       989       990      3832      3836      3834
 -1      1908    8    0    1
 -2       925       924       991      3630      3837      3838
 -1      1909    8    0    1
 -2       924       990       991      3835      3839      3837
 -1      1910    8    0    1
 -2       926       925       992      3633      3840      3841
 -1      1911    8    0    1
 -2       925       991       992      3838      3842      3840
 -1      1912    8    0    1
 -2       927       926       993      3636      3843      3844
 -1      1913    8    0    1
 -2       926       992       993      3841      3845      3843
 -1      1914    8    0    1
 -2       928       927       994      3639      3846      3847
 -1      1915    8    0    1
 -2       927       993       994      3844      3848      3846
 -1      1916    8    0    1
 -2       929       928       995      3642      3849      3850
 -1      1917    8    0    1
 -2       928       994       995      3847      3851      3849
 -1      1918    8    0    1
 -2       930       929       996      3645      3852      3853
 -1      1919    8    0    1
 -2       929       995       996      3850      3854      3852
 -1      1920    8    0    1
 -2       931       930       997      3648      3855      3856
 -1      1921    8    0    1
 -2       930       996       997      3853      3857      3855
 -1      1922    8    0    1
 -2       932       931       998      3651      3858      3859
 -1      1923    8    0    1
 -2       931       997       998      3856      3860      3858
 -1      1924    8    0    1
 -2       933       932       999      3654      3861      3862
 -1      1925    8    0    1
 -2       932       998       999      3859      3863      3861
 -1      1926    8    0    1
 -2       934       933      1000      3657      3864      3865
 -1      1927    8    0    1
 -2       933       999      1000      3862      3866      3864
 -1      1928    8    0    1
 -2       935       934      1001      3660      3867      3868
 -1      1929    8    0    1
 -2       934      1000      1001      3865      3869      3867
 -1      1930    8    0    1
 -2       936       935      1002      3663      3870      3871
 -1      1931    8    0    1
 -2       935      1001      1002      3868      3872      3870
 -1      1932    8    0    1
 -2       937       936      1003      3666      3873      3874
 -1      1933    8    0    1
 -2       936      1002      1003      3871      3875      3873
 -1      1934    8    0    1
 -2       938       937      1004      3669      3876      3877
 -1      1935    8    0    1
 -2       937      1003      1004      3874      3878      3876
 -1      1936    8    0    1
 -2       939       938      1005      3672      3879      3880
 -1      1937    8    0    1
 -2       938      1004      1005      3877      3881      3879
 -1      1938    8    0    1
 -2       946       947      1006      3696      3882      3883
 -1      1939    8    0    1
 -2       943       942      1007      3685      3884      3885
 -1      1940    8    0    1
 -2       945       946      1008      3693      3886      3887
 -1      1941    8    0    1
 -2       946      1006      1008      3883      3888      3886
 -1      1942    8    0    1
 -2       944       945      1009      3690      3889      3890
 -1      1943    8    0    1
 -2       945      1008      1009      3887      3891      3889
 -1      1944    8    0    1
 -2       947       948      1010      3699      3892      3893
 -1      1945    8    0    1
 -2       947      1010      1006      3893      3894      3882
 -1      1946    8    0    1
 -2       948       949      1011      3702      3895      3896
 -1      1947    8    0    1
 -2       948      1011      1010      3896      3897      3892
 -1      1948    8    0    1
 -2       949       950      1012      3705      3898      3899
 -1      1949    8    0    1
 -2       949      1012      1011      3899      3900      3895
 -1      1950    8    0    1
 -2       950       951      1013      3708      3901      3902
 -1      1951    8    0    1
 -2       950      1013      1012      3902      3903      3898
 -1      1952    8    0    1
 -2       951       952      1014      3711      3904      3905
 -1      1953    8    0    1
 -2       951      1014      1013      3905      3906      3901
 -1      1954    8    0    1
 -2       952       953      1015      3714      3907      3908
 -1      1955    8    0    1
 -2       952      1015      1014      3908      3909      3904
 -1      1956    8    0    1
 -2       953       954      1016      3717      3910      3911
 -1      1957    8    0    1
 -2       953      1016      1015      3911      3912      3907
 -1      1958    8    0    1
 -2       954       955      1017      3720      3913      3914
 -1      1959    8    0    1
 -2       954      1017      1016      3914      3915      3910
 -1      1960    8    0    1
 -2       955       956      1018      3723      3916      3917
 -1      1961    8    0    1
 -2       955      1018      1017      3917      3918      3913
 -1      1962    8    0    1
 -2       956       957      1019      3726      3919      3920
 -1      1963    8    0    1
 -2       956      1019      1018      3920      3921      3916
 -1      1964    8    0    1
 -2       957       958      1020      3729      3922      3923
 -1      1965    8    0    1
 -2       957      1020      1019      3923      3924      3919
 -1      1966    8    0    1
 -2       958       959      1021      3732      3925      3926
 -1      1967    8    0    1
 -2       958      1021      1020      3926      3927      3922
 -1      1968    8    0    1
 -2       959       960      1022      3735      3928      3929
 -1      1969    8    0    1
 -2       959      1022      1021      3929      3930      3925
 -1      1970    8    0    1
 -2       960       961      1023      3738      3931      3932
 -1      1971    8    0    1
 -2      1022       960      1023      3928      3932      3933
 -1      1972    8    0    1
 -2       961       962      1023      3810      3934      3931
 -1      1973    8    0    1
 -2       913       939      1024      3777      3935      3936
 -1      1974    8    0    1
 -2       965       913      1024      3750      3936      3937
 -1      1975    8    0    1
 -2       939      1005      1024      3880      3938      3935
 -1      1976    8    0    1
 -2       910       977      1025      3793      3939      3940
 -1      1977    8    0    1
 -2       910      1025       970      3940      3941      3768
 -1      1978    8    0    1
 -2       915       914      1026      3600      3942      3943
 -1      1979    8    0    1
 -2       915      1026       982      3943      3944      3811
 -1      1980    8    0    1
 -2       941       963      1027      3743      3945      3946
 -1      1981    8    0    1
 -2       962       971      1023      3785      3947      3934
 -1      1982    8    0    1
 -2       966       976      1028      3794      3948      3949
 -1      1983    8    0    1
 -2       978       904      1029      3795      3950      3951
 -1      1984    8    0    1
 -2       904       969      1029      3763      3952      3950
 -1      1985    8    0    1
 -2       911       908      1030      3585      3953      3954
 -1      1986    8    0    1
 -2       908       980      1030      3802      3955      3953
 -1      1987    8    0    1
 -2       905       965      1031      3776      3956      3957
 -1      1988    8    0    1
 -2       905      1031       979      3957      3958      3797
 -1      1989    8    0    1
 -2       981       978       977      3806      3959      3808
 -1      1990    8    0    1
 -2       942       972      1032      3773      3960      3961
 -1      1991    8    0    1
 -2       942      1032      1007      3961      3962      3884
 -1      1992    8    0    1
 -2       972       944      1033      3775      3963      3964
 -1      1993    8    0    1
 -2       944      1009      1033      3890      3965      3963
 -1      1994    8    0    1
 -2       914       941      1034      3680      3966      3967
 -1      1995    8    0    1
 -2       941      1027      1034      3946      3968      3966
 -1      1996    8    0    1
 -2       912       967      1035      3756      3969      3970
 -1      1997    8    0    1
 -2       912      1035       968      3970      3971      3760
 -1      1998    8    0    1
 -2       977       978      1036      3959      3972      3973
 -1      1999    8    0    1
 -2       911      1030       975      3954      3974      3786
 -1      2000    8    0    1
 -2       972      1033      1032      3964      3975      3960
 -1      2001    8    0    1
 -2       943      1007      1037      3885      3976      3977
 -1      2002    8    0    1
 -2       943      1037       974      3977      3978      3782
 -1      2003    8    0    1
 -2       966      1028      1038      3949      3979      3980
 -1      2004    8    0    1
 -2       966      1038       980      3980      3981      3800
 -1      2005    8    0    1
 -2       914      1034      1026      3967      3982      3942
 -1      2006    8    0    1
 -2       976       974      1039      3791      3983      3984
 -1      2007    8    0    1
 -2       974      1037      1039      3978      3985      3983
 -1      2008    8    0    1
 -2      1023       971       979      3947      3799      3986
 -1      2009    8    0    1
 -2       965      1024      1031      3937      3987      3956
 -1      2010    8    0    1
 -2      1028       976      1039      3948      3984      3988
 -1      2011    8    0    1
 -2       978      1029      1036      3951      3989      3972
 -1      2012    8    0    1
 -2      1025       977      1040      3939      3990      3991
 -1      2013    8    0    1
 -2       977      1036      1040      3973      3992      3990
 -1      2014    8    0    1
 -2       963       968      1041      3759      3993      3994
 -1      2015    8    0    1
 -2      1027       963      1041      3945      3994      3995
 -1      2016    8    0    1
 -2       968      1035      1041      3971      3996      3993
 -1      2017    8    0    1
 -2       907       973      1042      3780      3997      3998
 -1      2018    8    0    1
 -2       973       975      1043      3788      3999      4000
 -1      2019    8    0    1
 -2       967       970      1035      3767      4001      3969
 -1      2020    8    0    1
 -2       969       907      1042      3764      3998      4002
 -1      2021    8    0    1
 -2      1042       973      1044      3997      4003      4004
 -1      2022    8    0    1
 -2       973      1043      1044      4000      4005      4003
 -1      2023    8    0    1
 -2       982      1026      1045      3944      4006      4007
 -1      2024    8    0    1
 -2       970      1025      1035      3941      4008      4001
 -1      2025    8    0    1
 -2       984       983      1046      3818      4009      4010
 -1      2026    8    0    1
 -2       985       984      1047      3821      4011      4012
 -1      2027    8    0    1
 -2       984      1046      1047      4010      4013      4011
 -1      2028    8    0    1
 -2       986       985      1048      3824      4014      4015
 -1      2029    8    0    1
 -2       985      1047      1048      4012      4016      4014
 -1      2030    8    0    1
 -2       987       986      1049      3827      4017      4018
 -1      2031    8    0    1
 -2       986      1048      1049      4015      4019      4017
 -1      2032    8    0    1
 -2       988       987      1050      3830      4020      4021
 -1      2033    8    0    1
 -2       987      1049      1050      4018      4022      4020
 -1      2034    8    0    1
 -2       989       988      1051      3833      4023      4024
 -1      2035    8    0    1
 -2       988      1050      1051      4021      4025      4023
 -1      2036    8    0    1
 -2       990       989      1052      3836      4026      4027
 -1      2037    8    0    1
 -2       989      1051      1052      4024      4028      4026
 -1      2038    8    0    1
 -2       991       990      1053      3839      4029      4030
 -1      2039    8    0    1
 -2       990      1052      1053      4027      4031      4029
 -1      2040    8    0    1
 -2       992       991      1054      3842      4032      4033
 -1      2041    8    0    1
 -2       991      1053      1054      4030      4034      4032
 -1      2042    8    0    1
 -2       993       992      1055      3845      4035      4036
 -1      2043    8    0    1
 -2       992      1054      1055      4033      4037      4035
 -1      2044    8    0    1
 -2       994       993      1056      3848      4038      4039
 -1      2045    8    0    1
 -2       993      1055      1056      4036      4040      4038
 -1      2046    8    0    1
 -2       995       994      1057      3851      4041      4042
 -1      2047    8    0    1
 -2       994      1056      1057      4039      4043      4041
 -1      2048    8    0    1
 -2       996       995      1058      3854      4044      4045
 -1      2049    8    0    1
 -2       995      1057      1058      4042      4046      4044
 -1      2050    8    0    1
 -2       997       996      1059      3857      4047      4048
 -1      2051    8    0    1
 -2       996      1058      1059      4045      4049      4047
 -1      2052    8    0    1
 -2       998       997      1060      3860      4050      4051
 -1      2053    8    0    1
 -2       997      1059      1060      4048      4052      4050
 -1      2054    8    0    1
 -2       999       998      1061      3863      4053      4054
 -1      2055    8    0    1
 -2       998      1060      1061      4051      4055      4053
 -1      2056    8    0    1
 -2      1000       999      1062      3866      4056      4057
 -1      2057    8    0    1
 -2       999      1061      1062      4054      4058      4056
 -1      2058    8    0    1
 -2      1001      1000      1063      3869      4059      4060
 -1      2059    8    0    1
 -2      1000      1062      1063      4057      4061      4059
 -1      2060    8    0    1
 -2      1002      1001      1064      3872      4062      4063
 -1      2061    8    0    1
 -2      1001      1063      1064      4060      4064      4062
 -1      2062    8    0    1
 -2      1003      1002      1065      3875      4065      4066
 -1      2063    8    0    1
 -2      1002      1064      1065      4063      4067      4065
 -1      2064    8    0    1
 -2      1004      1003      1066      3878      4068      4069
 -1      2065    8    0    1
 -2      1003      1065      1066      4066      4070      4068
 -1      2066    8    0    1
 -2      1005      1004      1067      3881      4071      4072
 -1      2067    8    0    1
 -2      1004      1066      1067      4069      4073      4071
 -1      2068    8    0    1
 -2      1010      1011      1068      3897      4074      4075
 -1      2069    8    0    1
 -2       983       982      1069      3815      4076      4077
 -1      2070    8    0    1
 -2       982      1045      1069      4007      4078      4076
 -1      2071    8    0    1
 -2      1006      1010      1070      3894      4079      4080
 -1      2072    8    0    1
 -2      1010      1068      1070      4075      4081      4079
 -1      2073    8    0    1
 -2       975      1030      1071      3974      4082      4083
 -1      2074    8    0    1
 -2       975      1071      1043      4083      4084      3999
 -1      2075    8    0    1
 -2      1009      1008      1072      3891      4085      4086
 -1      2076    8    0    1
 -2      1011      1012      1073      3900      4087      4088
 -1      2077    8    0    1
 -2      1011      1073      1068      4088      4089      4074
 -1      2078    8    0    1
 -2      1012      1013      1074      3903      4090      4091
 -1      2079    8    0    1
 -2      1012      1074      1073      4091      4092      4087
 -1      2080    8    0    1
 -2      1013      1014      1075      3906      4093      4094
 -1      2081    8    0    1
 -2      1013      1075      1074      4094      4095      4090
 -1      2082    8    0    1
 -2      1014      1015      1076      3909      4096      4097
 -1      2083    8    0    1
 -2      1014      1076      1075      4097      4098      4093
 -1      2084    8    0    1
 -2      1015      1016      1077      3912      4099      4100
 -1      2085    8    0    1
 -2      1015      1077      1076      4100      4101      4096
 -1      2086    8    0    1
 -2      1016      1017      1078      3915      4102      4103
 -1      2087    8    0    1
 -2      1016      1078      1077      4103      4104      4099
 -1      2088    8    0    1
 -2      1017      1018      1079      3918      4105      4106
 -1      2089    8    0    1
 -2      1017      1079      1078      4106      4107      4102
 -1      2090    8    0    1
 -2      1018      1019      1080      3921      4108      4109
 -1      2091    8    0    1
 -2      1018      1080      1079      4109      4110      4105
 -1      2092    8    0    1
 -2      1019      1020      1081      3924      4111      4112
 -1      2093    8    0    1
 -2      1019      1081      1080      4112      4113      4108
 -1      2094    8    0    1
 -2      1020      1021      1082      3927      4114      4115
 -1      2095    8    0    1
 -2      1020      1082      1081      4115      4116      4111
 -1      2096    8    0    1
 -2      1022      1023       979      3933      3986      4117
 -1      2097    8    0    1
 -2      1024      1005      1083      3938      4118      4119
 -1      2098    8    0    1
 -2      1005      1067      1083      4072      4120      4118
 -1      2099    8    0    1
 -2      1029       969      1042      3952      4002      4121
 -1      2100    8    0    1
 -2      1032      1033      1084      3975      4122      4123
 -1      2101    8    0    1
 -2      1036      1029      1085      3989      4124      4125
 -1      2102    8    0    1
 -2      1030       980      1086      3955      4126      4127
 -1      2103    8    0    1
 -2       980      1038      1086      3981      4128      4126
 -1      2104    8    0    1
 -2      1031      1024      1083      3987      4119      4129
 -1      2105    8    0    1
 -2      1026      1034      1087      3982      4130      4131
 -1      2106    8    0    1
 -2      1026      1087      1045      4131      4132      4006
 -1      2107    8    0    1
 -2      1028      1039      1088      3988      4133      4134
 -1      2108    8    0    1
 -2       979      1031      1022      3958      4135      4117
 -1      2109    8    0    1
 -2      1033      1009      1089      3965      4136      4137
 -1      2110    8    0    1
 -2      1009      1072      1089      4086      4138      4136
 -1      2111    8    0    1
 -2      1034      1027      1090      3968      4139      4140
 -1      2112    8    0    1
 -2      1034      1090      1087      4140      4141      4130
 -1      2113    8    0    1
 -2      1007      1032      1091      3962      4142      4143
 -1      2114    8    0    1
 -2      1032      1084      1091      4123      4144      4142
 -1      2115    8    0    1
 -2      1008      1006      1092      3888      4145      4146
 -1      2116    8    0    1
 -2      1008      1092      1072      4146      4147      4085
 -1      2117    8    0    1
 -2      1029      1042      1085      4121      4148      4124
 -1      2118    8    0    1
 -2      1022      1031      1021      4135      4149      3930
 -1      2119    8    0    1
 -2      1035      1025      1093      4008      4150      4151
 -1      2120    8    0    1
 -2      1046       983      1069      4009      4077      4152
 -1      2121    8    0    1
 -2      1037      1007      1094      3976      4153      4154
 -1      2122    8    0    1
 -2      1007      1091      1094      4143      4155      4153
 -1      2123    8    0    1
 -2      1038      1028      1095      3979      4156      4157
 -1      2124    8    0    1
 -2      1028      1088      1095      4134      4158      4156
 -1      2125    8    0    1
 -2      1071      1030      1086      4082      4127      4159
 -1      2126    8    0    1
 -2      1085      1042      1044      4148      4004      4160
 -1      2127    8    0    1
 -2      1033      1089      1084      4137      4161      4122
 -1      2128    8    0    1
 -2      1021      1031      1082      4149      4162      4114
 -1      2129    8    0    1
 -2      1082      1031      1083      4162      4129      4163
 -1      2130    8    0    1
 -2      1039      1037      1096      3985      4164      4165
 -1      2131    8    0    1
 -2      1037      1094      1096      4154      4166      4164
 -1      2132    8    0    1
 -2      1036      1085      1097      4125      4167      4168
 -1      2133    8    0    1
 -2      1036      1097      1040      4168      4169      3992
 -1      2134    8    0    1
 -2      1088      1039      1096      4133      4165      4170
 -1      2135    8    0    1
 -2      1093      1025      1040      4150      3991      4171
 -1      2136    8    0    1
 -2      1006      1070      1092      4080      4172      4145
 -1      2137    8    0    1
 -2      1043      1071      1098      4084      4173      4174
 -1      2138    8    0    1
 -2      1090      1027      1093      4139      4175      4176
 -1      2139    8    0    1
 -2      1043      1098      1099      4174      4177      4178
 -1      2140    8    0    1
 -2      1043      1099      1044      4178      4179      4005
 -1      2141    8    0    1
 -2      1046      1069      1098      4152      4180      4181
 -1      2142    8    0    1
 -2      1048      1047      1100      4016      4182      4183
 -1      2143    8    0    1
 -2      1049      1048      1095      4019      4184      4185
 -1      2144    8    0    1
 -2      1050      1049      1088      4022      4186      4187
 -1      2145    8    0    1
 -2      1051      1050      1096      4025      4188      4189
 -1      2146    8    0    1
 -2      1052      1051      1094      4028      4190      4191
 -1      2147    8    0    1
 -2      1053      1052      1091      4031      4192      4193
 -1      2148    8    0    1
 -2      1054      1053      1084      4034      4194      4195
 -1      2149    8    0    1
 -2      1055      1054      1089      4037      4196      4197
 -1      2150    8    0    1
 -2      1056      1055      1072      4040      4198      4199
 -1      2151    8    0    1
 -2      1057      1056      1092      4043      4200      4201
 -1      2152    8    0    1
 -2      1058      1057      1070      4046      4202      4203
 -1      2153    8    0    1
 -2      1059      1058      1068      4049      4204      4205
 -1      2154    8    0    1
 -2      1060      1059      1073      4052      4206      4207
 -1      2155    8    0    1
 -2      1061      1060      1074      4055      4208      4209
 -1      2156    8    0    1
 -2      1062      1061      1075      4058      4210      4211
 -1      2157    8    0    1
 -2      1063      1062      1076      4061      4212      4213
 -1      2158    8    0    1
 -2      1064      1063      1077      4064      4214      4215
 -1      2159    8    0    1
 -2      1065      1064      1078      4067      4216      4217
 -1      2160    8    0    1
 -2      1066      1065      1079      4070      4218      4219
 -1      2161    8    0    1
 -2      1067      1066      1080      4073      4220      4221
 -1      2162    8    0    1
 -2      1073      1074      1060      4092      4208      4207
 -1      2163    8    0    1
 -2      1091      1052      1094      4192      4191      4155
 -1      2164    8    0    1
 -2      1070      1068      1058      4081      4204      4203
 -1      2165    8    0    1
 -2      1093      1040      1090      4171      4222      4176
 -1      2166    8    0    1
 -2      1096      1050      1088      4188      4187      4170
 -1      2167    8    0    1
 -2      1068      1073      1059      4089      4206      4205
 -1      2168    8    0    1
 -2      1075      1076      1062      4098      4212      4211
 -1      2169    8    0    1
 -2      1076      1077      1063      4101      4214      4213
 -1      2170    8    0    1
 -2      1077      1078      1064      4104      4216      4215
 -1      2171    8    0    1
 -2      1078      1079      1065      4107      4218      4217
 -1      2172    8    0    1
 -2      1079      1080      1066      4110      4220      4219
 -1      2173    8    0    1
 -2      1080      1081      1067      4113      4223      4221
 -1      2174    8    0    1
 -2      1081      1082      1083      4116      4163      4224
 -1      2175    8    0    1
 -2      1088      1049      1095      4186      4185      4158
 -1      2176    8    0    1
 -2      1086      1038      1100      4128      4225      4226
 -1      2177    8    0    1
 -2      1035      1093      1041      4151      4227      3996
 -1      2178    8    0    1
 -2      1083      1067      1081      4120      4223      4224
 -1      2179    8    0    1
 -2      1075      1061      1074      4210      4209      4095
 -1      2180    8    0    1
 -2      1085      1044      1101      4160      4228      4229
 -1      2181    8    0    1
 -2      1097      1085      1101      4167      4229      4230
 -1      2182    8    0    1
 -2      1044      1099      1101      4179      4231      4228
 -1      2183    8    0    1
 -2      1070      1057      1092      4202      4201      4172
 -1      2184    8    0    1
 -2      1071      1086      1102      4159      4232      4233
 -1      2185    8    0    1
 -2      1098      1071      1102      4173      4233      4234
 -1      2186    8    0    1
 -2      1086      1100      1102      4226      4235      4232
 -1      2187    8    0    1
 -2      1092      1056      1072      4200      4199      4147
 -1      2188    8    0    1
 -2      1084      1089      1054      4161      4196      4195
 -1      2189    8    0    1
 -2      1069      1045      1099      4078      4236      4237
 -1      2190    8    0    1
 -2      1072      1055      1089      4198      4197      4138
 -1      2191    8    0    1
 -2      1087      1090      1097      4141      4238      4239
 -1      2192    8    0    1
 -2      1093      1027      1041      4175      3995      4227
 -1      2193    8    0    1
 -2      1047      1046      1102      4013      4240      4241
 -1      2194    8    0    1
 -2      1045      1087      1101      4132      4242      4243
 -1      2195    8    0    1
 -2      1091      1084      1053      4144      4194      4193
 -1      2196    8    0    1
 -2      1098      1069      1099      4180      4237      4177
 -1      2197    8    0    1
 -2      1046      1098      1102      4181      4234      4240
 -1      2198    8    0    1
 -2      1051      1096      1094      4189      4166      4190
 -1      2199    8    0    1
 -2      1090      1040      1097      4222      4169      4238
 -1      2200    8    0    1
 -2      1048      1100      1095      4183      4244      4184
 -1      2201    8    0    1
 -2      1100      1038      1095      4225      4157      4244
 -1      2202    8    0    1
 -2      1047      1102      1100      4241      4235      4182
 -1      2203    8    0    1
 -2      1101      1087      1097      4242      4239      4230
 -1      2204    8    0    1
 -2      1045      1101      1099      4243      4231      4236
 -3
    1PSTEP                         1           1           1          
  100CL  101 1.000000000        4244                     0    1           1
 -4  DISP        4    1
 -5  D1          1    2    1    0
 -5  D2          1    2    2    0
 -5  D3          1    2    3    0
 -5  ALL         1    2    0    0    1ALL
 -1         1 1.18791E-02-1.53925E-03-1.02834E-13
 -1         2 1.51067E-02-7.34686E-04-1.14008E-13
 -1         3 1.39916E-02-3.88964E-04-1.34173E-13
 -1         4 1.52027E-02-9.28784E-04-1.36157E-13
 -1         5 0.00000E+00 0.00000E+00 0.00000E+00
 -1         6 0.00000E+00 0.00000E+00 0.00000E+00
 -1         7 0.00000E+00 0.00000E+00 0.00000E+00
 -1         8 0.00000E+00 0.00000E+00 0.00000E+00
 -1         9 0.00000E+00 0.00000E+00 0.00000E+00
 -1        10 0.00000E+00 0.00000E+00 0.00000E+00
 -1        11 0.00000E+00 0.00000E+00 0.00000E+00
 -1        12 0.00000E+00 0.00000E+00 0.00000E+00
 -1        13 0.00000E+00 0.00000E+00 0.00000E+00
 -1        14 0.00000E+00 0.00000E+00 0.00000E+00
 -1        15 0.00000E+00 0.00000E+00 0.00000E+00
 -1        16 0.00000E+00 0.00000E+00 0.00000E+00
 -1        17 0.00000E+00 0.00000E+00 0.00000E+00
 -1        18 0.00000E+00 0.00000E+00 0.00000E+00
 -1        19 0.00000E+00 0.00000E+00 0.00000E+00
 -1        20 0.00000E+00 0.00000E+00 0.00000E+00
 -1        21 0.00000E+00 0.00000E+00 0.00000E+00
 -1        22 0.00000E+00 0.00000E+00 0.00000E+00
 -1        23 4.11413E-04-2.60737E-04 3.48402E-17
 -1        24 7.03436E-04-4.00982E-04-1.22481E-16
 -1        25 9.73552E-04-4.98367E-04-4.64909E-16
 -1        26 1.23810E-03-5.67127E-04-9.86241E-16
 -1        27 1.50169E-03-6.16408E-04-1.68055E-15
 -1        28 1.76642E-03-6.51599E-04-2.54441E-15
 -1        29 2.03326E-03-6.76414E-04-3.57333E-15
 -1        30 2.30255E-03-6.93554E-04-4.75899E-15
 -1        31 2.57436E-03-7.05043E-04-6.10080E-15
 -1        32 2.84854E-03-7.12415E-04-7.59368E-15
 -1        33 3.12486E-03-7.16828E-04-9.23143E-15
 -1        34 3.40303E-03-7.19153E-04-1.10064E-14
 -1        35 3.68278E-03-7.20029E-04-1.29185E-14
 -1        36 3.96382E-03-7.19917E-04-1.49592E-14
 -1        37 4.24590E-03-7.19139E-04-1.71210E-14
 -1        38 4.52881E-03-7.17903E-04-1.94035E-14
 -1        39 4.81238E-03-7.16336E-04-2.18034E-14
 -1        40 5.09646E-03-7.14494E-04-2.43226E-14
 -1        41 5.38095E-03-7.12385E-04-2.69601E-14
 -1        42 5.66582E-03-7.09977E-04-2.97064E-14
 -1        43 5.95107E-03-7.07208E-04-3.25616E-14
 -1        44 6.23675E-03-7.03997E-04-3.55159E-14
 -1        45 6.52299E-03-7.00251E-04-3.85627E-14
 -1        46 6.80999E-03-6.95879E-04-4.17005E-14
 -1        47 7.09809E-03-6.90805E-04-4.49316E-14
 -1        48 7.38772E-03-6.84990E-04-4.82519E-14
 -1        49 7.67952E-03-6.78469E-04-5.16475E-14
 -1        50 7.97435E-03-6.71398E-04-5.51096E-14
 -1        51 8.27340E-03-6.64140E-04-5.86349E-14
 -1        52 8.57824E-03-6.57393E-04-6.22124E-14
 -1        53 8.89097E-03-6.52396E-04-6.58317E-14
 -1        54 9.21430E-03-6.51250E-04-6.94812E-14
 -1        55 9.55164E-03-6.57395E-04-7.31501E-14
 -1        56 9.90690E-03-6.76293E-04-7.68276E-14
 -1        57 1.02839E-02-7.16240E-04-8.05191E-14
 -1        58 1.06849E-02-7.88938E-04-8.42082E-14
 -1        59 1.11071E-02-9.08780E-04-8.79038E-14
 -1        60 1.15386E-02-1.08860E-03-9.16089E-14
 -1        61 1.19544E-02-1.32920E-03-9.53113E-14
 -1        62 1.23204E-02-1.60360E-03-9.90096E-14
 -1        63 1.26127E-02-1.84885E-03-1.02720E-13
 -1        64 1.28427E-02-1.98757E-03-1.06419E-13
 -1        65 1.30481E-02-1.98294E-03-1.09947E-13
 -1        66 1.33006E-02-1.85846E-03-1.13684E-13
 -1        67 1.36078E-02-1.67792E-03-1.17426E-13
 -1        68 1.39505E-02-1.50053E-03-1.21159E-13
 -1        69 1.42958E-02-1.34968E-03-1.24898E-13
 -1        70 1.46198E-02-1.21726E-03-1.28653E-13
 -1        71 1.49174E-02-1.08117E-03-1.32418E-13
 -1        72 4.13862E-04 2.61442E-04 7.52707E-17
 -1        73 7.03265E-04 4.03695E-04-1.06523E-17
 -1        74 9.74083E-04 5.00144E-04-2.52348E-16
 -1        75 1.23892E-03 5.68834E-04-6.53598E-16
 -1        76 1.50264E-03 6.18170E-04-1.21497E-15
 -1        77 1.76745E-03 6.53453E-04-1.93478E-15
 -1        78 2.03432E-03 6.78378E-04-2.80936E-15
 -1        79 2.30364E-03 6.95639E-04-3.83636E-15
 -1        80 2.57546E-03 7.07255E-04-5.01387E-15
 -1        81 2.84965E-03 7.14757E-04-6.34320E-15
 -1        82 3.12597E-03 7.19302E-04-7.81955E-15
 -1        83 3.40416E-03 7.21759E-04-9.43537E-15
 -1        84 3.68391E-03 7.22767E-04-1.11932E-14
 -1        85 3.96496E-03 7.22789E-04-1.30905E-14
 -1        86 4.24705E-03 7.22144E-04-1.51270E-14
 -1        87 4.52998E-03 7.21045E-04-1.72942E-14
 -1        88 4.81357E-03 7.19618E-04-1.95813E-14
 -1        89 5.09768E-03 7.17928E-04-2.19784E-14
 -1        90 5.38223E-03 7.15988E-04-2.44901E-14
 -1        91 5.66717E-03 7.13780E-04-2.71184E-14
 -1        92 5.95251E-03 7.11265E-04-2.98582E-14
 -1        93 6.23831E-03 7.08395E-04-3.27088E-14
 -1        94 6.52469E-03 7.05131E-04-3.56568E-14
 -1        95 6.81183E-03 7.01456E-04-3.86861E-14
 -1        96 7.09999E-03 6.97406E-04-4.17917E-14
 -1        97 7.38951E-03 6.93090E-04-4.49664E-14
 -1        98 7.68078E-03 6.88735E-04-4.82215E-14
 -1        99 7.97428E-03 6.84725E-04-5.15490E-14
 -1       100 8.27049E-03 6.81647E-04-5.49496E-14
 -1       101 8.56984E-03 6.80339E-04-5.84155E-14
 -1       102 8.87265E-03 6.81909E-04-6.19375E-14
 -1       103 9.17891E-03 6.87720E-04-6.55153E-14
 -1       104 9.48811E-03 6.99287E-04-6.91441E-14
 -1       105 9.79900E-03 7.18039E-04-7.28164E-14
 -1       106 1.01093E-02 7.44906E-04-7.65265E-14
 -1       107 1.04158E-02 7.79686E-04-8.02781E-14
 -1       108 1.07141E-02 8.20285E-04-8.40677E-14
 -1       109 1.09997E-02 8.62004E-04-8.78819E-14
 -1       110 1.12688E-02 8.97287E-04-9.17104E-14
 -1       111 1.15199E-02 9.16369E-04-9.55401E-14
 -1       112 1.17546E-02 9.09037E-04-9.93696E-14
 -1       113 1.19783E-02 8.67153E-04-1.03217E-13
 -1       114 1.21985E-02 7.86953E-04-1.07080E-13
 -1       115 1.24229E-02 6.69979E-04-1.10953E-13
 -1       116 1.26574E-02 5.22203E-04-1.14842E-13
 -1       117 1.29050E-02 3.51937E-04-1.18755E-13
 -1       118 1.31658E-02 1.67755E-04-1.22669E-13
 -1       119 1.34385E-02-2.26207E-05-1.26580E-13
 -1       120 1.37202E-02-2.12545E-04-1.30483E-13
 -1       121 1.41719E-02-4.73315E-04-1.34326E-13
 -1       122 1.43485E-02-5.61918E-04-1.34495E-13
 -1       123 1.45269E-02-6.58516E-04-1.34658E-13
 -1       124 1.47159E-02-7.61953E-04-1.34813E-13
 -1       125 1.49229E-02-8.65869E-04-1.34943E-13
 -1       126 1.51510E-02-9.58894E-04-1.35036E-13
 -1       127 1.53946E-02-1.02596E-03-1.35125E-13
 -1       128 1.56327E-02-1.05194E-03-1.35215E-13
 -1       129 1.58447E-02-1.02929E-03-1.35336E-13
 -1       130 1.59921E-02-9.62083E-04-1.35462E-13
 -1       131 1.60483E-02-8.72739E-04-1.35587E-13
 -1       132 1.60087E-02-7.87956E-04-1.35706E-13
 -1       133 1.58882E-02-7.36282E-04-1.35813E-13
 -1       134 1.57188E-02-7.31539E-04-1.35909E-13
 -1       135 1.55337E-02-7.72085E-04-1.35986E-13
 -1       136 1.53582E-02-8.45193E-04-1.36058E-13
 -1       137 1.50316E-02-5.25941E-04-1.13723E-13
 -1       138 1.48388E-02-3.18969E-04-1.13043E-13
 -1       139 1.45608E-02-1.34659E-04-1.12044E-13
 -1       140 1.42056E-02 2.68365E-05-1.10765E-13
 -1       141 1.37516E-02 1.73997E-04-1.09093E-13
 -1       142 1.33022E-02 2.72654E-04-1.07430E-13
 -1       143 1.28211E-02 3.38461E-04-1.05638E-13
 -1       144 1.22922E-02 3.65699E-04-1.03647E-13
 -1       145 1.18281E-02 3.49268E-04-1.01898E-13
 -1       146 1.13947E-02 2.93469E-04-1.00252E-13
 -1       147 1.10372E-02 2.09576E-04-9.89096E-14
 -1       148 1.07213E-02 8.98299E-05-9.77426E-14
 -1       149 1.04845E-02-5.66817E-05-9.69052E-14
 -1       150 1.03387E-02-2.19589E-04-9.64354E-14
 -1       151 1.02829E-02-4.02053E-04-9.63358E-14
 -1       152 1.03244E-02-5.98629E-04-9.66168E-14
 -1       153 1.04684E-02-8.06945E-04-9.72838E-14
 -1       154 1.07016E-02-1.00962E-03-9.82742E-14
 -1       155 1.10119E-02-1.20160E-03-9.95334E-14
 -1       156 1.14226E-02-1.38963E-03-1.01127E-13
 -1       157 1.23789E-02-1.64336E-03-1.04645E-13
 -1       158 1.29317E-02-1.69132E-03-1.06613E-13
 -1       159 1.34247E-02-1.67421E-03-1.08343E-13
 -1       160 1.39014E-02-1.59992E-03-1.09998E-13
 -1       161 1.43079E-02-1.48417E-03-1.11390E-13
 -1       162 1.46670E-02-1.32229E-03-1.12599E-13
 -1       163 1.49145E-02-1.14492E-03-1.13418E-13
 -1       164 1.50650E-02-9.50039E-04-1.13901E-13
 -1       165 2.40425E-04-1.25508E-04-4.23991E-17
 -1       166 2.25288E-04-9.46040E-05-6.59195E-17
 -1       167 2.19526E-04-7.27595E-05-7.79643E-17
 -1       168 2.16705E-04-5.50907E-05-8.38766E-17
 -1       169 2.15211E-04-3.99542E-05-8.62856E-17
 -1       170 2.14371E-04-2.59053E-05-8.66142E-17
 -1       171 2.13949E-04-1.26386E-05-8.57977E-17
 -1       172 2.13826E-04 2.73136E-07-8.46186E-17
 -1       173 2.13968E-04 1.31973E-05-8.24061E-17
 -1       174 2.14412E-04 2.65037E-05-7.93738E-17
 -1       175 2.15259E-04 4.03804E-05-7.53487E-17
 -1       176 2.16813E-04 5.58974E-05-6.87825E-17
 -1       177 2.19682E-04 7.37985E-05-5.86384E-17
 -1       178 2.25453E-04 9.60061E-05-4.18129E-17
 -1       179 2.39355E-04 1.27581E-04-1.37321E-17
 -1       180 2.97738E-04 1.85496E-04 1.65307E-17
 -1       181 4.68670E-04-2.63542E-04-1.13103E-16
 -1       182 7.66847E-04-3.82135E-04-3.95110E-16
 -1       183 1.05073E-03-4.65024E-04-8.47711E-16
 -1       184 1.32817E-03-5.23814E-04-1.46984E-15
 -1       185 1.60282E-03-5.65530E-04-2.25816E-15
 -1       186 1.87676E-03-5.94862E-04-3.20941E-15
 -1       187 2.15112E-03-6.15119E-04-4.31766E-15
 -1       188 2.42650E-03-6.28728E-04-5.58041E-15
 -1       189 2.70315E-03-6.37508E-04-6.99417E-15
 -1       190 2.98115E-03-6.42824E-04-8.55390E-15
 -1       191 3.26043E-03-6.45699E-04-1.02535E-14
 -1       192 3.54087E-03-6.46886E-04-1.20884E-14
 -1       193 3.82234E-03-6.46931E-04-1.40559E-14
 -1       194 4.10468E-03-6.46216E-04-1.61485E-14
 -1       195 4.38775E-03-6.44998E-04-1.83623E-14
 -1       196 4.67141E-03-6.43432E-04-2.06934E-14
 -1       197 4.95557E-03-6.41600E-04-2.31428E-14
 -1       198 5.24014E-03-6.39523E-04-2.57095E-14
 -1       199 5.52510E-03-6.37176E-04-2.83904E-14
 -1       200 5.81044E-03-6.34500E-04-3.11769E-14
 -1       201 6.09619E-03-6.31409E-04-3.40669E-14
 -1       202 6.38245E-03-6.27800E-04-3.70562E-14
 -1       203 6.66937E-03-6.23559E-04-4.01365E-14
 -1       204 6.95717E-03-6.18575E-04-4.33089E-14
 -1       205 7.24618E-03-6.12759E-04-4.65698E-14
 -1       206 7.53682E-03-6.06063E-04-4.99126E-14
 -1       207 7.82970E-03-5.98522E-04-5.33259E-14
 -1       208 8.12557E-03-5.90318E-04-5.68053E-14
 -1       209 8.42544E-03-5.81878E-04-6.03411E-14
 -1       210 8.73061E-03-5.74032E-04-6.39267E-14
 -1       211 9.04267E-03-5.68274E-04-6.75472E-14
 -1       212 9.36358E-03-5.67168E-04-7.11927E-14
 -1       213 9.69556E-03-5.74953E-04-7.48520E-14
 -1       214 1.00409E-02-5.98384E-04-7.85240E-14
 -1       215 1.04014E-02-6.47662E-04-8.22051E-14
 -1       216 1.07776E-02-7.36840E-04-8.58940E-14
 -1       217 1.11669E-02-8.82096E-04-8.95902E-14
 -1       218 1.15619E-02-1.09487E-03-9.32879E-14
 -1       219 1.19487E-02-1.36703E-03-9.69873E-14
 -1       220 1.23106E-02-1.65273E-03-1.00697E-13
 -1       221 1.26397E-02-1.86842E-03-1.04407E-13
 -1       222 1.29328E-02-1.93814E-03-1.07935E-13
 -1       223 1.32449E-02-1.85903E-03-1.11669E-13
 -1       224 1.35759E-02-1.68519E-03-1.15416E-13
 -1       225 1.39210E-02-1.49466E-03-1.19163E-13
 -1       226 1.42650E-02-1.33151E-03-1.22911E-13
 -1       227 1.45950E-02-1.19844E-03-1.26669E-13
 -1       228 1.49054E-02-1.07437E-03-1.30434E-13
 -1       229 1.51350E-02-9.67289E-04-1.33250E-13
 -1       230 6.04634E-04 3.31039E-04-9.46204E-17
 -1       231 8.93772E-04 4.32677E-04-3.53355E-16
 -1       232 1.17269E-03 5.04419E-04-7.65260E-16
 -1       233 1.44709E-03 5.55525E-04-1.33335E-15
 -1       234 1.71995E-03 5.91795E-04-2.05691E-15
 -1       235 1.99290E-03 6.17225E-04-2.93384E-15
 -1       236 2.26679E-03 6.34691E-04-3.96169E-15
 -1       237 2.54201E-03 6.46328E-04-5.13858E-15
 -1       238 2.81870E-03 6.53745E-04-6.46442E-15
 -1       239 3.09683E-03 6.58149E-04-7.93520E-15
 -1       240 3.37631E-03 6.60443E-04-9.54725E-15
 -1       241 3.65698E-03 6.61286E-04-1.12988E-14
 -1       242 3.93866E-03 6.61154E-04-1.31883E-14
 -1       243 4.22120E-03 6.60375E-04-1.52136E-14
 -1       244 4.50444E-03 6.59161E-04-1.73689E-14
 -1       245 4.78826E-03 6.57641E-04-1.96431E-14
 -1       246 5.07256E-03 6.55875E-04-2.20330E-14
 -1       247 5.35728E-03 6.53872E-04-2.45349E-14
 -1       248 5.64239E-03 6.51608E-04-2.71511E-14
 -1       249 5.92790E-03 6.49034E-04-2.98822E-14
 -1       250 6.21386E-03 6.46093E-04-3.27225E-14
 -1       251 6.50037E-03 6.42731E-04-3.56591E-14
 -1       252 6.78758E-03 6.38915E-04-3.86791E-14
 -1       253 7.07570E-03 6.34660E-04-4.17764E-14
 -1       254 7.36499E-03 6.30053E-04-4.49498E-14
 -1       255 7.65577E-03 6.25296E-04-4.81987E-14
 -1       256 7.94838E-03 6.20747E-04-5.15189E-14
 -1       257 8.24317E-03 6.16973E-04-5.49085E-14
 -1       258 8.54047E-03 6.14801E-04-5.83644E-14
 -1       259 8.84047E-03 6.15354E-04-6.18791E-14
 -1       260 9.14316E-03 6.20045E-04-6.54462E-14
 -1       261 9.44815E-03 6.30495E-04-6.90640E-14
 -1       262 9.75454E-03 6.48317E-04-7.27267E-14
 -1       263 1.00608E-02 6.74708E-04-7.64272E-14
 -1       264 1.03646E-02 7.09812E-04-8.01649E-14
 -1       265 1.06631E-02 7.51893E-04-8.39334E-14
 -1       266 1.09533E-02 7.96515E-04-8.77287E-14
 -1       267 1.12324E-02 8.36133E-04-9.15399E-14
 -1       268 1.14992E-02 8.60601E-04-9.53558E-14
 -1       269 1.17547E-02 8.58935E-04-9.91783E-14
 -1       270 1.20021E-02 8.22043E-04-1.03013E-13
 -1       271 1.22462E-02 7.45385E-04-1.06868E-13
 -1       272 1.24922E-02 6.30203E-04-1.10735E-13
 -1       273 1.27441E-02 4.82676E-04-1.14616E-13
 -1       274 1.30039E-02 3.11604E-04-1.18511E-13
 -1       275 1.32720E-02 1.26039E-04-1.22419E-13
 -1       276 1.35475E-02-6.59983E-05-1.26328E-13
 -1       277 1.38287E-02-2.57615E-04-1.30230E-13
 -1       278 1.40123E-02-3.56432E-04-1.31032E-13
 -1       279 1.41868E-02-4.46735E-04-1.31183E-13
 -1       280 1.43678E-02-5.40900E-04-1.31334E-13
 -1       281 1.45648E-02-6.36406E-04-1.31476E-13
 -1       282 1.47846E-02-7.27872E-04-1.31596E-13
 -1       283 1.50273E-02-8.07468E-04-1.31709E-13
 -1       284 1.52779E-02-8.65290E-04-1.31816E-13
 -1       285 1.55206E-02-8.95940E-04-1.31936E-13
 -1       286 1.57152E-02-8.96532E-04-1.32060E-13
 -1       287 1.58242E-02-8.75341E-04-1.32186E-13
 -1       288 1.58312E-02-8.47769E-04-1.32311E-13
 -1       289 1.57398E-02-8.32553E-04-1.32434E-13
 -1       290 1.55795E-02-8.42410E-04-1.32546E-13
 -1       291 1.53880E-02-8.80569E-04-1.32654E-13
 -1       292 1.52561E-02-9.18850E-04-1.32952E-13
 -1       293 1.51082E-02-6.91083E-04-1.15378E-13
 -1       294 1.49224E-02-5.78487E-04-1.15114E-13
 -1       295 1.46139E-02-3.95739E-04-1.13838E-13
 -1       296 1.42293E-02-2.03198E-04-1.12510E-13
 -1       297 1.37546E-02-7.77032E-07-1.11019E-13
 -1       298 1.33498E-02 2.16157E-04-1.08826E-13
 -1       299 1.29402E-02 3.64226E-04-1.06816E-13
 -1       300 1.25297E-02 4.44029E-04-1.04567E-13
 -1       301 1.21300E-02 4.21475E-04-1.02385E-13
 -1       302 1.17530E-02 3.31433E-04-1.00306E-13
 -1       303 1.13714E-02 1.91568E-04-9.85913E-14
 -1       304 1.10071E-02 3.54292E-05-9.71151E-14
 -1       305 1.06695E-02-1.11794E-04-9.60267E-14
 -1       306 1.04187E-02-2.45397E-04-9.51663E-14
 -1       307 1.02763E-02-3.50156E-04-9.49217E-14
 -1       308 1.02639E-02-4.54141E-04-9.49138E-14
 -1       309 1.03968E-02-5.77086E-04-9.54651E-14
 -1       310 1.06577E-02-7.39230E-04-9.64387E-14
 -1       311 1.09971E-02-9.50504E-04-9.78337E-14
 -1       312 1.14302E-02-1.17961E-03-9.93256E-14
 -1       313 1.18468E-02-1.44208E-03-1.01390E-13
 -1       314 1.22587E-02-1.64467E-03-1.03488E-13
 -1       315 1.26870E-02-1.76636E-03-1.05709E-13
 -1       316 1.31004E-02-1.75370E-03-1.07861E-13
 -1       317 1.35065E-02-1.64577E-03-1.09889E-13
 -1       318 1.39325E-02-1.47102E-03-1.11632E-13
 -1       319 1.43437E-02-1.26538E-03-1.13245E-13
 -1       320 1.47195E-02-1.08381E-03-1.14356E-13
 -1       321 1.49873E-02-9.28358E-04-1.15225E-13
 -1       322 1.51307E-02-8.05945E-04-1.15579E-13
 -1       323 4.55413E-04-1.64767E-04-2.63143E-16
 -1       324 4.74292E-04-2.12957E-04-2.26195E-16
 -1       325 4.40433E-04-9.39914E-05-2.94280E-16
 -1       326 4.37459E-04-6.48923E-05-2.98325E-16
 -1       327 4.35829E-04-3.78934E-05-2.98579E-16
 -1       328 4.35115E-04-1.20130E-05-2.95781E-16
 -1       329 4.35145E-04 1.35322E-05-2.90898E-16
 -1       330 4.35926E-04 3.94702E-05-2.83272E-16
 -1       331 4.37600E-04 6.61208E-05-2.72863E-16
 -1       332 4.40666E-04 9.53936E-05-2.57986E-16
 -1       333 4.46064E-04 1.28305E-04-2.36024E-16
 -1       334 4.56006E-04 1.67291E-04-2.03512E-16
 -1       335 4.75914E-04 2.16959E-04-1.54495E-16
 -1       336 5.32035E-04 2.69944E-04-1.33428E-16
 -1       337 8.24557E-04 3.73459E-04-4.00874E-16
 -1       338 8.63344E-04-3.57388E-04-6.95492E-16
 -1       339 1.14973E-03-4.26147E-04-1.25057E-15
 -1       340 1.43255E-03-4.75336E-04-1.96834E-15
 -1       341 1.71330E-03-5.10099E-04-2.84579E-15
 -1       342 1.99311E-03-5.34238E-04-3.88013E-15
 -1       343 2.27275E-03-5.50581E-04-5.06652E-15
 -1       344 2.55267E-03-5.61248E-04-6.40279E-15
 -1       345 2.83314E-03-5.67835E-04-7.88548E-15
 -1       346 3.11427E-03-5.71536E-04-9.51014E-15
 -1       347 3.39609E-03-5.73240E-04-1.12705E-14
 -1       348 3.67856E-03-5.73589E-04-1.31636E-14
 -1       349 3.96163E-03-5.73043E-04-1.51863E-14
 -1       350 4.24522E-03-5.71912E-04-1.73317E-14
 -1       351 4.52926E-03-5.70395E-04-1.95956E-14
 -1       352 4.81369E-03-5.68602E-04-2.19769E-14
 -1       353 5.09846E-03-5.66576E-04-2.44745E-14
 -1       354 5.38355E-03-5.64308E-04-2.70853E-14
 -1       355 5.66894E-03-5.61748E-04-2.98079E-14
 -1       356 5.95466E-03-5.58815E-04-3.26362E-14
 -1       357 6.24076E-03-5.55403E-04-3.55626E-14
 -1       358 6.52732E-03-5.51393E-04-3.85852E-14
 -1       359 6.81449E-03-5.46659E-04-4.17013E-14
 -1       360 7.10246E-03-5.41085E-04-4.49062E-14
 -1       361 7.39146E-03-5.34579E-04-4.81928E-14
 -1       362 7.68183E-03-5.27108E-04-5.15586E-14
 -1       363 7.97397E-03-5.18744E-04-5.49936E-14
 -1       364 8.26839E-03-5.09738E-04-5.84899E-14
 -1       365 8.56570E-03-5.00644E-04-6.20368E-14
 -1       366 8.86667E-03-4.92508E-04-6.56265E-14
 -1       367 9.17216E-03-4.87171E-04-6.92469E-14
 -1       368 9.48328E-03-4.87725E-04-7.28894E-14
 -1       369 9.80137E-03-4.99177E-04-7.65451E-14
 -1       370 1.01283E-02-5.29307E-04-8.02127E-14
 -1       371 1.04668E-02-5.89556E-04-8.38879E-14
 -1       372 1.08206E-02-6.95312E-04-8.75719E-14
 -1       373 1.11939E-02-8.63859E-04-9.12668E-14
 -1       374 1.15874E-02-1.10624E-03-9.49646E-14
 -1       375 1.19913E-02-1.40712E-03-9.86714E-14
 -1       376 1.23862E-02-1.69822E-03-1.02388E-13
 -1       377 1.27427E-02-1.86129E-03-1.05920E-13
 -1       378 1.31119E-02-1.84557E-03-1.09649E-13
 -1       379 1.34925E-02-1.68255E-03-1.13399E-13
 -1       380 1.38781E-02-1.47824E-03-1.17153E-13
 -1       381 1.42495E-02-1.30287E-03-1.20910E-13
 -1       382 1.45949E-02-1.16949E-03-1.24671E-13
 -1       383 1.49141E-02-1.05887E-03-1.28443E-13
 -1       384 1.27179E-03 4.61181E-04-1.19337E-15
 -1       385 1.55274E-03 5.04089E-04-1.86386E-15
 -1       386 1.83215E-03 5.34286E-04-2.68604E-15
 -1       387 2.11106E-03 5.55122E-04-3.65711E-15
 -1       388 2.39012E-03 5.69104E-04-4.77653E-15
 -1       389 2.66970E-03 5.78117E-04-6.04274E-15
 -1       390 2.94999E-03 5.83576E-04-7.45276E-15
 -1       391 3.23105E-03 5.86540E-04-9.00473E-15
 -1       392 3.51286E-03 5.87788E-04-1.06965E-14
 -1       393 3.79536E-03 5.87884E-04-1.25257E-14
 -1       394 4.07848E-03 5.87222E-04-1.44880E-14
 -1       395 4.36214E-03 5.86065E-04-1.65811E-14
 -1       396 4.64625E-03 5.84574E-04-1.87985E-14
 -1       397 4.93075E-03 5.82836E-04-2.11314E-14
 -1       398 5.21560E-03 5.80876E-04-2.35787E-14
 -1       399 5.50077E-03 5.78678E-04-2.61407E-14
 -1       400 5.78627E-03 5.76196E-04-2.88161E-14
 -1       401 6.07212E-03 5.73365E-04-3.16022E-14
 -1       402 6.35838E-03 5.70119E-04-3.44906E-14
 -1       403 6.64515E-03 5.66399E-04-3.74691E-14
 -1       404 6.93256E-03 5.62180E-04-4.05300E-14
 -1       405 7.22078E-03 5.57494E-04-4.36675E-14
 -1       406 7.51003E-03 5.52464E-04-4.68783E-14
 -1       407 7.80055E-03 5.47344E-04-5.01640E-14
 -1       408 8.09262E-03 5.42577E-04-5.35191E-14
 -1       409 8.38652E-03 5.38842E-04-5.69410E-14
 -1       410 8.68250E-03 5.37110E-04-6.04229E-14
 -1       411 8.98076E-03 5.38673E-04-6.39619E-14
 -1       412 9.28133E-03 5.45120E-04-6.75510E-14
 -1       413 9.58402E-03 5.58214E-04-7.11835E-14
 -1       414 9.88829E-03 5.79610E-04-7.48565E-14
 -1       415 1.01931E-02 6.10346E-04-7.85656E-14
 -1       416 1.04968E-02 6.50078E-04-8.23030E-14
 -1       417 1.07972E-02 6.96123E-04-8.60678E-14
 -1       418 1.10919E-02 7.42594E-04-8.98565E-14
 -1       419 1.13786E-02 7.80158E-04-9.36545E-14
 -1       420 1.16565E-02 7.97061E-04-9.74595E-14
 -1       421 1.19266E-02 7.81706E-04-1.01280E-13
 -1       422 1.21921E-02 7.26084E-04-1.05113E-13
 -1       423 1.24572E-02 6.28439E-04-1.08962E-13
 -1       424 1.27253E-02 4.93489E-04-1.12827E-13
 -1       425 1.29983E-02 3.30153E-04-1.16708E-13
 -1       426 1.32758E-02 1.48369E-04-1.20602E-13
 -1       427 1.35570E-02-4.31745E-05-1.24500E-13
 -1       428 1.37841E-02-2.00681E-04-1.27767E-13
 -1       429 1.42083E-02-4.18562E-04-1.28013E-13
 -1       430 1.40237E-02-3.24222E-04-1.27869E-13
 -1       431 1.44142E-02-5.15009E-04-1.28149E-13
 -1       432 1.46468E-02-6.10055E-04-1.28277E-13
 -1       433 1.48991E-02-6.96163E-04-1.28398E-13
 -1       434 1.51639E-02-7.67857E-04-1.28522E-13
 -1       435 1.54039E-02-8.15382E-04-1.28654E-13
 -1       436 1.55721E-02-8.37114E-04-1.28782E-13
 -1       437 1.56362E-02-8.44224E-04-1.28916E-13
 -1       438 1.55827E-02-8.55073E-04-1.29051E-13
 -1       439 1.54368E-02-8.85399E-04-1.29178E-13
 -1       440 1.52425E-02-9.39491E-04-1.29303E-13
 -1       441 1.04904E-03 4.24716E-04-7.44457E-16
 -1       442 1.47163E-02-5.67081E-04-1.16090E-13
 -1       443 1.39586E-02-2.08746E-04-1.13277E-13
 -1       444 1.51611E-02-7.60466E-04-1.17208E-13
 -1       445 1.43604E-02-4.03091E-04-1.14686E-13
 -1       446 4.45606E-04-1.26455E-04-2.83739E-16
 -1       447 1.33664E-02 1.12286E-04-1.10624E-13
 -1       448 1.30513E-02 2.89335E-04-1.08607E-13
 -1       449 1.26908E-02 4.39285E-04-1.05878E-13
 -1       450 1.23015E-02 4.77938E-04-1.03013E-13
 -1       451 1.20104E-02 4.17043E-04-1.00933E-13
 -1       452 1.16012E-02 2.51280E-04-9.84618E-14
 -1       453 1.12393E-02 7.82560E-05-9.66644E-14
 -1       454 1.08580E-02-1.02183E-04-9.49507E-14
 -1       455 1.05549E-02-2.25955E-04-9.41653E-14
 -1       456 1.03159E-02-3.26637E-04-9.32805E-14
 -1       457 1.02369E-02-3.82682E-04-9.32628E-14
 -1       458 1.03056E-02-4.54491E-04-9.34584E-14
 -1       459 1.05347E-02-5.67765E-04-9.44361E-14
 -1       460 1.08960E-02-7.44961E-04-9.57052E-14
 -1       461 1.12556E-02-9.53974E-04-9.71850E-14
 -1       462 1.17735E-02-1.29069E-03-9.95533E-14
 -1       463 1.21516E-02-1.56197E-03-1.02062E-13
 -1       464 1.24882E-02-1.73797E-03-1.04282E-13
 -1       465 1.29085E-02-1.81159E-03-1.07194E-13
 -1       466 1.32444E-02-1.73280E-03-1.09373E-13
 -1       467 1.36536E-02-1.53607E-03-1.11996E-13
 -1       468 1.40629E-02-1.32738E-03-1.13450E-13
 -1       469 1.45039E-02-1.09582E-03-1.15283E-13
 -1       470 1.48396E-02-9.39038E-04-1.16556E-13
 -1       471 1.50921E-02-8.31409E-04-1.17213E-13
 -1       472 1.50610E-02-6.98669E-04-1.16980E-13
 -1       473 1.49225E-02-6.72228E-04-1.17961E-13
 -1       474 1.27108E-02-1.81708E-03-1.05767E-13
 -1       475 6.65797E-04-7.51196E-05-6.33377E-16
 -1       476 6.69774E-04-1.15871E-04-6.29301E-16
 -1       477 6.63116E-04 1.10480E-06-6.23992E-16
 -1       478 6.63838E-04 3.87595E-05-6.11998E-16
 -1       479 6.65985E-04 7.68063E-05-5.95017E-16
 -1       480 6.70089E-04 1.17712E-04-5.71314E-16
 -1       481 6.77109E-04 1.62328E-04-5.38452E-16
 -1       482 6.88973E-04 2.12701E-04-4.91967E-16
 -1       483 7.09819E-04 2.71747E-04-4.26600E-16
 -1       484 7.63565E-04 3.20488E-04-4.20260E-16
 -1       485 9.76361E-04-3.28606E-04-1.02641E-15
 -1       486 1.17889E-02 3.50789E-04-9.87722E-14
 -1       487 1.26229E-03-3.83499E-04-1.67660E-15
 -1       488 1.54732E-03-4.23268E-04-2.48390E-15
 -1       489 1.83147E-03-4.51357E-04-3.44630E-15
 -1       490 2.11503E-03-4.70670E-04-4.55994E-15
 -1       491 2.39832E-03-4.83503E-04-5.82105E-15
 -1       492 2.68158E-03-4.91627E-04-7.22799E-15
 -1       493 2.96499E-03-4.96394E-04-8.77630E-15
 -1       494 3.24862E-03-4.98815E-04-1.04635E-14
 -1       495 3.53252E-03-4.99635E-04-1.22839E-14
 -1       496 3.81670E-03-4.99390E-04-1.42346E-14
 -1       497 4.10115E-03-4.98452E-04-1.63105E-14
 -1       498 4.38585E-03-4.97066E-04-1.85068E-14
 -1       499 4.67076E-03-4.95377E-04-2.08219E-14
 -1       500 4.95588E-03-4.93457E-04-2.32521E-14
 -1       501 5.24119E-03-4.91317E-04-2.57972E-14
 -1       502 5.52669E-03-4.88923E-04-2.84535E-14
 -1       503 5.81237E-03-4.86207E-04-3.12183E-14
 -1       504 6.09828E-03-4.83074E-04-3.40865E-14
 -1       505 6.38444E-03-4.79408E-04-3.70495E-14
 -1       506 6.67091E-03-4.75088E-04-4.01086E-14
 -1       507 6.95776E-03-4.69990E-04-4.32583E-14
 -1       508 7.24510E-03-4.64011E-04-4.64920E-14
 -1       509 7.53302E-03-4.57087E-04-4.98073E-14
 -1       510 7.82164E-03-4.49237E-04-5.31968E-14
 -1       511 8.11109E-03-4.40613E-04-5.66515E-14
 -1       512 8.40148E-03-4.31596E-04-6.01631E-14
 -1       513 8.69290E-03-4.22922E-04-6.37197E-14
 -1       514 8.98543E-03-4.15885E-04-6.73121E-14
 -1       515 9.27921E-03-4.12627E-04-7.09349E-14
 -1       516 9.57459E-03-4.16547E-04-7.45758E-14
 -1       517 9.87257E-03-4.32859E-04-7.82273E-14
 -1       518 1.01756E-02-4.69311E-04-8.18914E-14
 -1       519 1.04892E-02-5.37224E-04-8.55620E-14
 -1       520 1.08230E-02-6.52737E-04-8.92440E-14
 -1       521 1.11903E-02-8.37504E-04-9.29339E-14
 -1       522 1.16018E-02-1.11118E-03-9.66384E-14
 -1       523 1.20832E-02-1.47916E-03-1.00392E-13
 -1       524 1.25163E-02-1.75909E-03-1.04037E-13
 -1       525 1.29331E-02-1.83857E-03-1.07658E-13
 -1       526 1.33735E-02-1.69657E-03-1.11396E-13
 -1       527 1.38191E-02-1.45906E-03-1.15143E-13
 -1       528 1.42308E-02-1.26260E-03-1.18905E-13
 -1       529 1.45968E-02-1.12907E-03-1.22672E-13
 -1       530 1.49337E-02-1.02415E-03-1.25979E-13
 -1       531 1.95108E-03 4.73512E-04-3.34097E-15
 -1       532 1.66775E-03 4.49046E-04-2.42389E-15
 -1       533 1.38357E-03 4.14099E-04-1.65418E-15
 -1       534 2.23396E-03 4.90165E-04-4.40388E-15
 -1       535 2.51673E-03 5.01089E-04-5.61218E-15
 -1       536 2.79961E-03 5.07883E-04-6.96450E-15
 -1       537 3.08273E-03 5.11755E-04-8.45720E-15
 -1       538 3.36616E-03 5.13602E-04-1.00892E-14
 -1       539 3.64993E-03 5.14082E-04-1.18589E-14
 -1       540 3.93401E-03 5.13660E-04-1.37627E-14
 -1       541 4.21840E-03 5.12653E-04-1.57945E-14
 -1       542 4.50306E-03 5.11267E-04-1.79523E-14
 -1       543 4.78796E-03 5.09616E-04-2.02321E-14
 -1       544 5.07308E-03 5.07750E-04-2.26249E-14
 -1       545 5.35840E-03 5.05669E-04-2.51334E-14
 -1       546 5.64393E-03 5.03334E-04-2.77556E-14
 -1       547 5.92967E-03 5.00685E-04-3.04884E-14
 -1       548 6.21566E-03 4.97648E-04-3.33256E-14
 -1       549 6.50195E-03 4.94150E-04-3.62606E-14
 -1       550 6.78861E-03 4.90137E-04-3.92823E-14
 -1       551 7.07574E-03 4.85592E-04-4.23840E-14
 -1       552 7.36348E-03 4.80569E-04-4.55598E-14
 -1       553 7.65200E-03 4.75222E-04-4.88081E-14
 -1       554 7.94151E-03 4.69856E-04-5.21321E-14
 -1       555 8.23226E-03 4.64976E-04-5.55213E-14
 -1       556 8.52457E-03 4.61350E-04-5.89728E-14
 -1       557 8.81879E-03 4.60051E-04-6.24819E-14
 -1       558 9.11532E-03 4.62491E-04-6.60453E-14
 -1       559 9.41454E-03 4.70385E-04-6.96509E-14
 -1       560 9.71677E-03 4.85617E-04-7.32958E-14
 -1       561 1.00220E-02 5.09919E-04-7.69749E-14
 -1       562 1.03299E-02 5.44295E-04-8.06859E-14
 -1       563 1.06391E-02 5.88108E-04-8.44241E-14
 -1       564 1.09473E-02 6.37884E-04-8.81846E-14
 -1       565 1.12515E-02 6.86186E-04-9.19630E-14
 -1       566 1.15488E-02 7.21377E-04-9.57516E-14
 -1       567 1.18381E-02 7.29354E-04-9.95533E-14
 -1       568 1.21211E-02 6.97570E-04-1.03370E-13
 -1       569 1.24021E-02 6.19770E-04-1.07202E-13
 -1       570 1.26853E-02 4.98557E-04-1.11046E-13
 -1       571 1.29729E-02 3.43369E-04-1.14911E-13
 -1       572 1.32640E-02 1.66013E-04-1.18789E-13
 -1       573 1.35563E-02-2.34066E-05-1.22680E-13
 -1       574 1.42552E-02-4.08678E-04-1.24841E-13
 -1       575 1.40421E-02-3.02138E-04-1.24703E-13
 -1       576 1.38551E-02-2.02220E-04-1.24559E-13
 -1       577 1.51596E-02-7.53495E-04-1.18831E-13
 -1       578 1.44967E-02-5.17885E-04-1.24973E-13
 -1       579 1.47712E-02-6.26216E-04-1.25107E-13
 -1       580 1.50531E-02-7.18383E-04-1.25244E-13
 -1       581 1.52917E-02-7.80099E-04-1.25382E-13
 -1       582 1.54328E-02-8.13414E-04-1.25520E-13
 -1       583 1.54307E-02-8.38529E-04-1.25664E-13
 -1       584 1.52993E-02-8.82741E-04-1.25807E-13
 -1       585 1.51249E-02-9.44948E-04-1.25893E-13
 -1       586 7.12651E-04-2.51810E-04-5.82796E-16
 -1       587 1.51943E-02-7.96441E-04-1.19373E-13
 -1       588 1.50141E-02-8.63781E-04-1.18663E-13
 -1       589 1.15121E-02-1.06199E-03-9.70334E-14
 -1       590 1.06914E-02-5.85424E-04-9.34104E-14
 -1       591 1.04080E-02-2.80742E-04-9.20502E-14
 -1       592 6.63727E-04-3.65142E-05-6.31246E-16
 -1       593 1.36553E-02-9.41876E-05-1.13298E-13
 -1       594 1.24697E-02 4.90552E-04-1.04454E-13
 -1       595 1.31544E-02 2.03234E-04-1.10239E-13
 -1       596 1.14077E-02 1.65448E-04-9.62665E-14
 -1       597 1.21273E-02 4.73936E-04-1.01403E-13
 -1       598 1.03904E-02-4.51155E-04-9.18229E-14
 -1       599 1.27738E-02 4.03528E-04-1.07177E-13
 -1       600 1.10483E-02-1.39135E-05-9.44108E-14
 -1       601 1.06418E-02-1.93529E-04-9.28283E-14
 -1       602 1.02251E-02-3.42386E-04-9.11830E-14
 -1       603 1.02191E-02-3.84214E-04-9.13703E-14
 -1       604 1.10771E-02-7.79687E-04-9.47330E-14
 -1       605 1.39152E-02-1.37916E-03-1.14281E-13
 -1       606 1.43095E-02-1.16500E-03-1.16116E-13
 -1       607 1.46469E-02-1.00564E-03-1.17392E-13
 -1       608 6.76586E-04-1.60057E-04-6.16755E-16
 -1       609 9.90518E-04 3.72895E-04-7.61581E-16
 -1       610 1.41693E-02-3.71408E-04-1.15709E-13
 -1       611 1.50850E-02-7.32723E-04-1.19817E-13
 -1       612 1.18689E-03 3.98355E-04-1.16560E-15
 -1       613 1.46714E-02-5.95004E-04-1.17991E-13
 -1       614 1.07982E-02-1.01338E-04-9.22773E-14
 -1       615 8.99721E-04 7.41070E-05-1.03996E-15
 -1       616 8.97627E-04 2.51767E-05-1.06265E-15
 -1       617 9.11816E-04 1.78216E-04-9.65702E-16
 -1       618 9.24210E-04 2.36720E-04-9.07586E-16
 -1       619 9.36707E-04 3.23522E-04-7.65287E-16
 -1       620 1.48997E-02-9.24807E-04-1.20200E-13
 -1       621 1.35493E-02-9.83424E-06-1.20667E-13
 -1       622 1.45270E-02-1.07318E-03-1.18564E-13
 -1       623 1.52505E-02-7.86193E-04-1.21127E-13
 -1       624 1.09776E-03-2.94614E-04-1.38802E-15
 -1       625 1.38333E-03-3.37056E-04-2.12694E-15
 -1       626 1.66952E-03-3.67999E-04-3.01850E-15
 -1       627 1.95574E-03-3.89812E-04-4.06046E-15
 -1       628 2.24178E-03-4.04657E-04-5.24897E-15
 -1       629 2.52764E-03-4.14326E-04-6.58139E-15
 -1       630 2.81335E-03-4.20241E-04-8.05564E-15
 -1       631 3.09898E-03-4.23494E-04-9.66812E-15
 -1       632 3.38455E-03-4.24909E-04-1.14154E-14
 -1       633 3.67010E-03-4.25086E-04-1.32946E-14
 -1       634 3.95565E-03-4.24450E-04-1.53009E-14
 -1       635 4.24122E-03-4.23291E-04-1.74296E-14
 -1       636 4.52682E-03-4.21791E-04-1.96778E-14
 -1       637 4.81244E-03-4.20049E-04-2.20424E-14
 -1       638 5.09810E-03-4.18104E-04-2.45222E-14
 -1       639 5.38380E-03-4.15941E-04-2.71152E-14
 -1       640 5.66953E-03-4.13511E-04-2.98160E-14
 -1       641 5.95531E-03-4.10736E-04-3.26227E-14
 -1       642 6.24113E-03-4.07518E-04-3.55289E-14
 -1       643 6.52700E-03-4.03747E-04-3.85305E-14
 -1       644 6.81290E-03-3.99311E-04-4.16254E-14
 -1       645 7.09881E-03-3.94114E-04-4.48064E-14
 -1       646 7.38468E-03-3.88092E-04-4.80698E-14
 -1       647 7.67043E-03-3.81246E-04-5.14147E-14
 -1       648 7.95591E-03-3.73689E-04-5.48265E-14
 -1       649 8.24089E-03-3.65704E-04-5.82993E-14
 -1       650 8.52501E-03-3.57840E-04-6.18262E-14
 -1       651 8.80779E-03-3.51037E-04-6.53905E-14
 -1       652 9.08861E-03-3.46784E-04-6.89878E-14
 -1       653 9.36683E-03-3.47321E-04-7.26103E-14
 -1       654 9.64207E-03-3.55881E-04-7.62486E-14
 -1       655 9.91485E-03-3.76999E-04-7.99010E-14
 -1       656 1.01879E-02-4.16971E-04-8.35614E-14
 -1       657 1.04684E-02-4.85999E-04-8.72278E-14
 -1       658 1.07712E-02-6.01036E-04-9.09033E-14
 -1       659 1.48963E-02-6.78803E-04-1.19852E-13
 -1       660 1.46088E-02-1.07320E-03-1.20670E-13
 -1       661 1.48802E-02-9.97175E-04-1.23276E-13
 -1       662 1.78981E-03 3.90964E-04-3.01382E-15
 -1       663 2.07563E-03 4.10058E-04-4.02211E-15
 -1       664 1.50379E-03 3.63526E-04-2.14961E-15
 -1       665 2.64665E-03 4.31088E-04-6.46967E-15
 -1       666 2.93198E-03 4.35991E-04-7.90546E-15
 -1       667 3.21728E-03 4.38573E-04-9.47888E-15
 -1       668 3.50258E-03 4.39569E-04-1.11888E-14
 -1       669 3.78791E-03 4.39507E-04-1.30346E-14
 -1       670 4.07329E-03 4.38759E-04-1.50086E-14
 -1       671 4.35872E-03 4.37569E-04-1.71075E-14
 -1       672 4.64421E-03 4.36086E-04-1.93319E-14
 -1       673 4.92975E-03 4.34386E-04-2.16727E-14
 -1       674 5.21535E-03 4.32488E-04-2.41276E-14
 -1       675 5.50100E-03 4.30370E-04-2.66978E-14
 -1       676 5.78671E-03 4.27980E-04-2.93783E-14
 -1       677 6.07250E-03 4.25247E-04-3.21653E-14
 -1       678 6.35838E-03 4.22093E-04-3.50539E-14
 -1       679 6.64438E-03 4.18445E-04-3.80346E-14
 -1       680 6.93053E-03 4.14251E-04-4.10967E-14
 -1       681 7.21692E-03 4.09504E-04-4.42394E-14
 -1       682 7.50362E-03 4.04267E-04-4.74540E-14
 -1       683 7.79078E-03 3.98710E-04-5.07440E-14
 -1       684 8.07863E-03 3.93156E-04-5.41044E-14
 -1       685 8.36745E-03 3.88136E-04-5.75287E-14
 -1       686 8.65770E-03 3.84440E-04-6.10086E-14
 -1       687 8.94997E-03 3.83180E-04-6.45423E-14
 -1       688 9.24505E-03 3.85828E-04-6.81228E-14
 -1       689 9.54390E-03 3.94208E-04-7.17425E-14
 -1       690 9.84753E-03 4.10399E-04-7.53937E-14
 -1       691 1.01567E-02 4.36450E-04-7.90794E-14
 -1       692 1.04715E-02 4.73754E-04-8.27940E-14
 -1       693 1.07907E-02 5.21882E-04-8.65286E-14
 -1       694 1.11110E-02 5.76789E-04-9.02839E-14
 -1       695 1.14278E-02 6.28913E-04-9.40530E-14
 -1       696 1.17369E-02 6.62677E-04-9.78369E-14
 -1       697 1.20372E-02 6.59887E-04-1.01633E-13
 -1       698 1.23326E-02 6.06681E-04-1.05447E-13
 -1       699 1.26295E-02 5.00983E-04-1.09275E-13
 -1       700 1.29322E-02 3.52979E-04-1.13124E-13
 -1       701 1.32394E-02 1.78115E-04-1.16890E-13
 -1       702 1.18764E-02 4.37328E-04-9.89227E-14
 -1       703 1.43400E-02-4.49532E-04-1.21696E-13
 -1       704 1.40814E-02-3.17048E-04-1.21554E-13
 -1       705 1.49942E-02-7.06382E-04-1.22474E-13
 -1       706 1.52438E-02-7.74359E-04-1.22832E-13
 -1       707 1.53167E-02-8.08391E-04-1.22765E-13
 -1       708 1.52147E-02-8.55084E-04-1.22914E-13
 -1       709 1.15703E-02 2.98897E-04-9.64119E-14
 -1       710 1.39310E-02-2.64204E-04-1.16154E-13
 -1       711 1.04535E-02-2.21226E-04-9.02715E-14
 -1       712 1.25593E-02 4.75593E-04-1.05732E-13
 -1       713 1.02244E-02-3.76495E-04-8.95207E-14
 -1       714 1.11696E-02 9.07204E-05-9.38113E-14
 -1       715 1.46461E-02-5.85206E-04-1.21840E-13
 -1       716 1.38610E-02-1.94083E-04-1.21411E-13
 -1       717 1.51809E-02-8.31585E-04-1.21023E-13
 -1       718 1.33956E-02 4.47505E-05-1.12854E-13
 -1       719 1.02403E-02-2.91502E-04-8.94051E-14
 -1       720 1.22604E-02 5.14875E-04-1.02671E-13
 -1       721 1.01455E-02-3.33234E-04-8.89828E-14
 -1       722 1.04607E-02-4.61467E-04-9.02100E-14
 -1       723 1.29145E-02 3.25128E-04-1.09090E-13
 -1       724 9.04184E-04 1.24609E-04-1.00846E-15
 -1       725 9.03809E-04-1.22199E-04-1.08423E-15
 -1       726 2.36122E-03 4.22876E-04-5.17419E-15
 -1       727 1.44283E-02-5.05249E-04-1.18642E-13
 -1       728 8.97564E-04-2.31560E-05-1.07769E-15
 -1       729 9.11234E-04-1.75594E-04-1.07233E-15
 -1       730 8.72404E-04-2.47098E-04-9.17045E-16
 -1       731 1.50598E-02-9.15606E-04-1.23096E-13
 -1       732 1.21789E-03 3.25363E-04-1.43160E-15
 -1       733 1.31475E-02 1.91067E-04-1.11704E-13
 -1       734 1.09145E-02 6.64180E-06-9.16717E-14
 -1       735 8.99515E-04-7.18213E-05-1.08522E-15
 -1       736 1.16157E-03 2.43637E-04-1.44883E-15
 -1       737 1.51021E-03-2.86536E-04-2.60032E-15
 -1       738 1.79728E-03-3.09526E-04-3.57099E-15
 -1       739 2.08494E-03-3.25640E-04-4.68788E-15
 -1       740 2.37273E-03-3.36462E-04-5.94777E-15
 -1       741 2.66042E-03-3.43344E-04-7.34841E-15
 -1       742 2.94791E-03-3.47377E-04-8.88807E-15
 -1       743 3.23517E-03-3.49405E-04-1.05623E-14
 -1       744 3.52218E-03-3.50061E-04-1.23692E-14
 -1       745 3.80898E-03-3.49805E-04-1.43055E-14
 -1       746 4.09557E-03-3.48956E-04-1.63653E-14
 -1       747 4.38198E-03-3.47726E-04-1.85464E-14
 -1       748 4.66824E-03-3.46240E-04-2.08457E-14
 -1       749 4.95437E-03-3.44559E-04-2.32579E-14
 -1       750 5.24038E-03-3.42693E-04-2.57884E-14
 -1       751 5.52627E-03-3.40614E-04-2.84286E-14
 -1       752 5.81204E-03-3.38266E-04-3.11737E-14
 -1       753 6.09767E-03-3.35572E-04-3.40219E-14
 -1       754 6.38312E-03-3.32444E-04-3.69677E-14
 -1       755 6.66833E-03-3.28791E-04-4.00071E-14
 -1       756 6.95319E-03-3.24536E-04-4.31344E-14
 -1       757 7.23758E-03-3.19631E-04-4.63479E-14
 -1       758 7.52126E-03-3.14083E-04-4.96463E-14
 -1       759 7.80395E-03-3.07994E-04-5.30167E-14
 -1       760 8.08520E-03-3.01605E-04-5.64482E-14
 -1       761 8.36443E-03-2.95368E-04-5.99397E-14
 -1       762 8.64081E-03-2.90021E-04-6.34780E-14
 -1       763 8.91330E-03-2.86683E-04-6.70505E-14
 -1       764 9.18056E-03-2.86932E-04-7.06525E-14
 -1       765 9.44107E-03-2.92853E-04-7.42740E-14
 -1       766 9.69330E-03-3.07080E-04-7.79113E-14
 -1       767 9.93610E-03-3.32714E-04-8.15640E-14
 -1       768 1.01699E-02-3.73686E-04-8.52227E-14
 -1       769 1.46501E-02-5.93101E-04-1.20220E-13
 -1       770 1.42241E-02-4.04518E-04-1.19592E-13
 -1       771 1.91734E-03 3.29981E-04-3.63312E-15
 -1       772 1.63007E-03 3.09417E-04-2.67832E-15
 -1       773 3.06685E-03 3.62725E-04-8.86498E-15
 -1       774 2.77972E-03 3.59405E-04-7.34927E-15
 -1       775 3.64049E-03 3.64665E-04-1.23044E-14
 -1       776 3.92701E-03 3.64261E-04-1.42218E-14
 -1       777 4.21338E-03 3.63355E-04-1.62641E-14
 -1       778 4.49960E-03 3.62122E-04-1.84324E-14
 -1       779 4.78570E-03 3.60664E-04-2.07197E-14
 -1       780 5.07169E-03 3.59022E-04-2.31228E-14
 -1       781 5.35759E-03 3.57192E-04-2.56406E-14
 -1       782 5.64339E-03 3.55137E-04-2.82715E-14
 -1       783 5.92910E-03 3.52795E-04-3.10081E-14
 -1       784 6.21471E-03 3.50092E-04-3.38482E-14
 -1       785 6.50020E-03 3.46947E-04-3.67854E-14
 -1       786 6.78559E-03 3.43288E-04-3.98087E-14
 -1       787 7.07086E-03 3.39062E-04-4.29135E-14
 -1       788 7.35604E-03 3.34257E-04-4.60979E-14
 -1       789 7.64119E-03 3.28927E-04-4.93552E-14
 -1       790 7.92645E-03 3.23224E-04-5.26859E-14
 -1       791 8.21206E-03 3.17441E-04-5.60800E-14
 -1       792 8.49842E-03 3.12062E-04-5.95358E-14
 -1       793 8.78617E-03 3.07825E-04-6.30441E-14
 -1       794 9.07624E-03 3.05797E-04-6.66014E-14
 -1       795 9.36996E-03 3.07459E-04-7.01979E-14
 -1       796 9.66901E-03 3.14783E-04-7.38271E-14
 -1       797 9.97531E-03 3.30253E-04-7.74854E-14
 -1       798 1.02906E-02 3.56715E-04-8.11721E-14
 -1       799 1.06155E-02 3.96730E-04-8.48862E-14
 -1       800 1.09485E-02 4.50903E-04-8.86188E-14
 -1       801 1.12847E-02 5.14732E-04-9.23680E-14
 -1       802 1.16166E-02 5.74802E-04-9.61312E-14
 -1       803 1.19384E-02 6.07886E-04-9.99074E-14
 -1       804 1.22505E-02 5.88621E-04-1.03703E-13
 -1       805 1.25611E-02 5.04277E-04-1.07516E-13
 -1       806 1.28788E-02 3.62736E-04-1.11347E-13
 -1       807 1.02446E-02-2.22758E-04-8.74355E-14
 -1       808 1.35183E-02-1.48437E-06-1.17646E-13
 -1       809 1.23511E-02 5.29743E-04-1.03981E-13
 -1       810 1.12732E-02 2.20921E-04-9.35157E-14
 -1       811 1.00856E-02-2.78826E-04-8.67069E-14
 -1       812 1.36688E-02-1.14367E-04-1.15944E-13
 -1       813 3.35377E-03 3.64289E-04-1.05172E-14
 -1       814 1.22452E-03-2.55029E-04-1.77910E-15
 -1       815 1.05773E-02-1.19296E-04-8.94695E-14
 -1       816 1.20200E-02 5.19820E-04-1.00304E-13
 -1       817 1.00919E-02-3.24395E-04-8.69856E-14
 -1       818 1.13820E-03 5.90538E-05-1.60496E-15
 -1       819 1.16120E-02 4.01704E-04-9.61928E-14
 -1       820 1.27007E-02 4.26301E-04-1.07771E-13
 -1       821 1.14232E-03 1.17815E-04-1.56732E-15
 -1       822 1.14921E-03-1.76117E-04-1.64542E-15
 -1       823 2.20487E-03 3.44179E-04-4.73089E-15
 -1       824 1.34165E-02 3.79053E-05-1.14796E-13
 -1       825 2.49237E-03 3.53559E-04-5.96946E-15
 -1       826 1.31887E-02 1.90432E-04-1.14491E-13
 -1       827 1.38857E-02-2.27806E-04-1.18288E-13
 -1       828 1.10285E-02 1.40259E-04-9.13662E-14
 -1       829 1.29164E-02 3.24933E-04-1.10379E-13
 -1       830 1.34365E-03 2.80737E-04-1.86749E-15
 -1       831 1.14199E-03-1.15195E-04-1.65267E-15
 -1       832 1.01887E-02-3.63022E-04-8.73185E-14
 -1       833 1.13684E-03 1.19260E-06-1.63164E-15
 -1       834 1.14979E-03 1.79119E-04-1.51621E-15
 -1       835 9.99843E-03-3.09092E-04-8.42592E-14
 -1       836 1.92949E-03-2.47806E-04-4.14153E-15
 -1       837 2.21827E-03-2.58931E-04-5.32920E-15
 -1       838 2.50733E-03-2.66266E-04-6.65721E-15
 -1       839 2.79633E-03-2.70788E-04-8.12334E-15
 -1       840 3.08508E-03-2.73287E-04-9.72573E-15
 -1       841 3.37348E-03-2.74374E-04-1.14600E-14
 -1       842 3.66151E-03-2.74507E-04-1.33241E-14
 -1       843 3.94916E-03-2.74010E-04-1.53153E-14
 -1       844 4.23646E-03-2.73107E-04-1.74285E-14
 -1       845 4.52345E-03-2.71939E-04-1.96623E-14
 -1       846 4.81013E-03-2.70584E-04-2.20104E-14
 -1       847 5.09655E-03-2.69073E-04-2.44734E-14
 -1       848 5.38271E-03-2.67399E-04-2.70513E-14
 -1       849 5.66861E-03-2.65527E-04-2.97388E-14
 -1       850 5.95420E-03-2.63406E-04-3.25294E-14
 -1       851 6.23945E-03-2.60971E-04-3.54193E-14
 -1       852 6.52426E-03-2.58159E-04-3.84042E-14
 -1       853 6.80850E-03-2.54916E-04-4.14795E-14
 -1       854 7.09196E-03-2.51216E-04-4.46402E-14
 -1       855 7.37439E-03-2.47083E-04-4.78884E-14
 -1       856 7.65541E-03-2.42622E-04-5.12171E-14
 -1       857 7.93452E-03-2.38057E-04-5.46120E-14
 -1       858 8.21103E-03-2.33787E-04-5.80646E-14
 -1       859 8.48403E-03-2.30443E-04-6.15723E-14
 -1       860 8.75235E-03-2.28948E-04-6.51214E-14
 -1       861 9.01442E-03-2.30562E-04-6.87014E-14
 -1       862 9.26826E-03-2.36867E-04-7.23063E-14
 -1       863 9.51135E-03-2.49565E-04-7.59281E-14
 -1       864 9.74027E-03-2.71042E-04-7.95664E-14
 -1       865 1.35538E-03-2.09628E-04-2.19729E-15
 -1       866 4.06726E-03 2.88552E-04-1.54220E-14
 -1       867 3.77990E-03 2.89120E-04-1.34337E-14
 -1       868 4.64107E-03 2.86486E-04-1.97674E-14
 -1       869 4.92756E-03 2.85166E-04-2.21183E-14
 -1       870 5.21381E-03 2.83687E-04-2.45839E-14
 -1       871 5.49982E-03 2.82031E-04-2.71635E-14
 -1       872 5.78558E-03 2.80150E-04-2.98521E-14
 -1       873 6.07108E-03 2.77981E-04-3.26443E-14
 -1       874 6.35628E-03 2.75447E-04-3.55353E-14
 -1       875 6.64114E-03 2.72467E-04-3.85175E-14
 -1       876 6.92561E-03 2.68963E-04-4.15865E-14
 -1       877 7.20965E-03 2.64874E-04-4.47363E-14
 -1       878 7.49323E-03 2.60163E-04-4.79628E-14
 -1       879 7.77638E-03 2.54844E-04-5.12627E-14
 -1       880 8.05923E-03 2.49003E-04-5.46316E-14
 -1       881 8.34204E-03 2.42838E-04-5.80595E-14
 -1       882 8.62531E-03 2.36704E-04-6.15447E-14
 -1       883 8.90991E-03 2.31190E-04-6.50798E-14
 -1       884 9.19713E-03 2.27230E-04-6.86566E-14
 -1       885 9.48889E-03 2.26271E-04-7.22641E-14
 -1       886 9.78773E-03 2.30514E-04-7.59014E-14
 -1       887 1.00968E-02 2.43169E-04-7.95654E-14
 -1       888 1.04191E-02 2.68654E-04-8.32549E-14
 -1       889 1.07564E-02 3.11957E-04-8.69677E-14
 -1       890 1.11070E-02 3.76051E-04-9.06968E-14
 -1       891 1.18133E-02 5.31118E-04-9.81893E-14
 -1       892 9.94325E-03-2.63104E-04-8.39813E-14
 -1       893 4.35431E-03 2.87635E-04-1.75345E-14
 -1       894 1.32992E-03 2.10554E-04-1.95202E-15
 -1       895 2.91569E-03 2.86290E-04-8.24978E-15
 -1       896 1.12786E-02 3.42421E-04-9.27665E-14
 -1       897 1.76102E-03 2.51620E-04-3.24036E-15
 -1       898 1.13805E-03-5.65165E-05-1.64758E-15
 -1       899 1.64156E-03-2.31768E-04-3.09615E-15
 -1       900 1.00497E-02-2.19103E-04-8.48157E-14
 -1       901 1.06642E-02 1.11343E-05-8.84745E-14
 -1       902 1.03123E-02-1.27188E-04-8.62921E-14
 -1       903 1.54487E-03 2.32724E-04-2.55672E-15
 -1       904 2.04931E-03 2.66125E-04-4.28313E-15
 -1       905 1.00780E-02-1.42349E-04-8.36717E-14
 -1       906 1.38411E-03 9.99854E-05-2.24538E-15
 -1       907 2.62698E-03 2.82431E-04-6.78960E-15
 -1       908 3.49218E-03 2.89146E-04-1.15729E-14
 -1       909 1.14499E-02 4.54169E-04-9.42907E-14
 -1       910 1.38096E-03 3.39695E-05-2.28765E-15
 -1       911 3.20411E-03 2.88341E-04-9.84404E-15
 -1       912 1.34648E-03-1.41997E-04-2.20902E-15
 -1       913 9.69192E-03-2.20017E-04-7.92888E-14
 -1       914 2.35517E-03-1.89806E-04-5.98345E-15
 -1       915 2.64516E-03-1.94261E-04-7.37625E-15
 -1       916 2.93504E-03-1.96890E-04-8.90464E-15
 -1       917 3.22461E-03-1.98220E-04-1.05668E-14
 -1       918 3.51375E-03-1.98651E-04-1.23590E-14
 -1       919 3.80240E-03-1.98481E-04-1.42796E-14
 -1       920 4.09057E-03-1.97918E-04-1.63243E-14
 -1       921 4.37828E-03-1.97102E-04-1.84921E-14
 -1       922 4.66557E-03-1.96115E-04-2.07766E-14
 -1       923 4.95246E-03-1.95000E-04-2.31752E-14
 -1       924 5.23896E-03-1.93766E-04-2.56894E-14
 -1       925 5.52509E-03-1.92399E-04-2.83149E-14
 -1       926 5.81080E-03-1.90870E-04-3.10486E-14
 -1       927 6.09605E-03-1.89141E-04-3.38829E-14
 -1       928 6.38074E-03-1.87173E-04-3.68141E-14
 -1       929 6.66472E-03-1.84938E-04-3.98370E-14
 -1       930 6.94779E-03-1.82434E-04-4.29485E-14
 -1       931 7.22967E-03-1.79699E-04-4.61457E-14
 -1       932 7.50998E-03-1.76845E-04-4.94273E-14
 -1       933 7.78823E-03-1.74083E-04-5.27822E-14
 -1       934 8.06378E-03-1.71773E-04-5.61988E-14
 -1       935 8.33578E-03-1.70469E-04-5.96721E-14
 -1       936 8.60316E-03-1.70970E-04-6.31947E-14
 -1       937 8.86452E-03-1.74354E-04-6.67516E-14
 -1       938 9.11803E-03-1.81987E-04-7.03364E-14
 -1       939 9.36132E-03-1.95507E-04-7.39475E-14
 -1       940 1.34150E-03 1.72773E-04-2.03902E-15
 -1       941 2.06549E-03-1.82877E-04-4.72803E-15
 -1       942 5.06978E-03 2.09760E-04-2.35282E-14
 -1       943 4.78310E-03 2.10839E-04-2.11152E-14
 -1       944 5.64203E-03 2.07175E-04-2.86955E-14
 -1       945 5.92758E-03 2.05592E-04-3.14416E-14
 -1       946 6.21269E-03 2.03736E-04-3.42862E-14
 -1       947 6.49729E-03 2.01531E-04-3.72267E-14
 -1       948 6.78131E-03 1.98894E-04-4.02571E-14
 -1       949 7.06462E-03 1.95735E-04-4.33714E-14
 -1       950 7.34714E-03 1.91967E-04-4.65660E-14
 -1       951 7.62879E-03 1.87506E-04-4.98359E-14
 -1       952 7.90953E-03 1.82289E-04-5.31767E-14
 -1       953 8.18945E-03 1.76281E-04-5.65804E-14
 -1       954 8.46882E-03 1.69510E-04-6.00411E-14
 -1       955 8.74818E-03 1.62115E-04-6.35549E-14
 -1       956 9.02852E-03 1.54430E-04-6.71134E-14
 -1       957 9.31145E-03 1.47148E-04-7.07036E-14
 -1       958 9.59945E-03 1.41623E-04-7.43211E-14
 -1       959 9.89603E-03 1.40362E-04-7.79655E-14
 -1       960 1.02059E-02 1.47611E-04-8.16349E-14
 -1       961 1.05340E-02 1.70259E-04-8.53269E-14
 -1       962 1.07809E-02 1.49843E-04-8.83739E-14
 -1       963 1.77670E-03-1.72724E-04-3.61297E-15
 -1       964 1.10323E-02 2.41373E-04-9.05658E-14
 -1       965 9.76898E-03-1.73844E-04-8.01168E-14
 -1       966 3.92072E-03 2.13159E-04-1.45783E-14
 -1       967 1.34128E-03-7.65480E-05-2.20503E-15
 -1       968 1.56079E-03-1.58351E-04-2.87006E-15
 -1       969 2.33810E-03 2.76021E-04-5.46693E-15
 -1       970 1.36001E-03-2.16854E-05-2.25108E-15
 -1       971 1.03518E-02-1.21665E-05-8.50502E-14
 -1       972 5.35608E-03 2.08548E-04-2.60553E-14
 -1       973 2.76467E-03 2.09700E-04-7.63341E-15
 -1       974 4.49605E-03 2.11790E-04-1.88168E-14
 -1       975 3.05430E-03 2.11983E-04-9.17099E-15
 -1       976 4.20860E-03 2.12586E-04-1.66371E-14
 -1       977 1.62920E-03 7.31932E-05-3.03936E-15
 -1       978 1.89590E-03 1.90124E-04-3.83550E-15
 -1       979 1.00979E-02-4.50569E-05-8.24279E-14
 -1       980 3.63238E-03 2.13388E-04-1.26446E-14
 -1       981 1.61761E-03 1.84276E-04-2.86898E-15
 -1       982 2.78582E-03-1.20688E-04-8.10243E-15
 -1       983 3.07623E-03-1.21911E-04-9.69086E-15
 -1       984 3.36623E-03-1.22436E-04-1.14116E-14
 -1       985 3.65572E-03-1.22483E-04-1.32608E-14
 -1       986 3.94465E-03-1.22214E-04-1.52365E-14
 -1       987 4.23304E-03-1.21740E-04-1.73362E-14
 -1       988 4.52089E-03-1.21132E-04-1.95560E-14
 -1       989 4.80825E-03-1.20431E-04-2.18915E-14
 -1       990 5.09514E-03-1.19652E-04-2.43417E-14
 -1       991 5.38156E-03-1.18797E-04-2.69056E-14
 -1       992 5.66750E-03-1.17855E-04-2.95788E-14
 -1       993 5.95291E-03-1.16810E-04-3.23583E-14
 -1       994 6.23769E-03-1.15648E-04-3.52350E-14
 -1       995 6.52173E-03-1.14363E-04-3.82056E-14
 -1       996 6.80482E-03-1.12974E-04-4.12673E-14
 -1       997 7.08670E-03-1.11532E-04-4.44144E-14
 -1       998 7.36704E-03-1.10149E-04-4.76469E-14
 -1       999 7.64541E-03-1.09018E-04-5.09581E-14
 -1      1000 7.92126E-03-1.08456E-04-5.43398E-14
 -1      1001 8.19390E-03-1.08935E-04-5.77768E-14
 -1      1002 8.46250E-03-1.11132E-04-6.12683E-14
 -1      1003 8.72602E-03-1.15961E-04-6.48028E-14
 -1      1004 8.98315E-03-1.24589E-04-6.83664E-14
 -1      1005 9.23228E-03-1.38403E-04-7.19619E-14
 -1      1006 6.35402E-03 1.30241E-04-3.59340E-14
 -1      1007 4.92562E-03 1.35348E-04-2.24730E-14
 -1      1008 6.06943E-03 1.31631E-04-3.30379E-14
 -1      1009 5.78422E-03 1.32785E-04-3.02370E-14
 -1      1010 6.63790E-03 1.28542E-04-3.89246E-14
 -1      1011 6.92093E-03 1.26442E-04-4.20027E-14
 -1      1012 7.20293E-03 1.23836E-04-4.51637E-14
 -1      1013 7.48374E-03 1.20591E-04-4.84022E-14
 -1      1014 7.76319E-03 1.16554E-04-5.17170E-14
 -1      1015 8.04116E-03 1.11542E-04-5.50969E-14
 -1      1016 8.31764E-03 1.05351E-04-5.85367E-14
 -1      1017 8.59280E-03 9.77706E-05-6.20246E-14
 -1      1018 8.86710E-03 8.86311E-05-6.55626E-14
 -1      1019 9.14148E-03 7.79070E-05-6.91377E-14
 -1      1020 9.41760E-03 6.59073E-05-7.27381E-14
 -1      1021 9.69814E-03 5.36783E-05-7.63663E-14
 -1      1022 9.98832E-03 4.44870E-05-8.00196E-14
 -1      1023 1.03646E-02 7.71290E-05-8.41847E-14
 -1      1024 9.50504E-03-1.50911E-04-7.60275E-14
 -1      1025 1.60658E-03 1.18073E-05-3.00802E-15
 -1      1026 2.49524E-03-1.18473E-04-6.64818E-15
 -1      1027 1.91526E-03-1.09530E-04-4.14720E-15
 -1      1028 4.06279E-03 1.37003E-04-1.57395E-14
 -1      1029 2.18507E-03 1.99467E-04-4.96347E-15
 -1      1030 3.34357E-03 2.13087E-04-1.08425E-14
 -1      1031 9.74991E-03-1.04247E-04-7.88870E-14
 -1      1032 5.21228E-03 1.34605E-04-2.49481E-14
 -1      1033 5.49849E-03 1.33761E-04-2.75379E-14
 -1      1034 2.20485E-03-1.14896E-04-5.32889E-15
 -1      1035 1.55497E-03-8.73525E-05-2.86536E-15
 -1      1036 1.97020E-03 9.91997E-05-4.24325E-15
 -1      1037 4.63850E-03 1.36003E-04-2.01117E-14
 -1      1038 3.77416E-03 1.37255E-04-1.37352E-14
 -1      1039 4.35090E-03 1.36565E-04-1.78661E-14
 -1      1040 1.94664E-03 3.24060E-05-4.21579E-15
 -1      1041 1.73464E-03-9.86076E-05-3.47842E-15
 -1      1042 2.47483E-03 2.05738E-04-6.23032E-15
 -1      1043 2.90507E-03 1.35612E-04-8.49920E-15
 -1      1044 2.61462E-03 1.33539E-04-7.01842E-15
 -1      1045 2.63809E-03-4.52417E-05-7.32078E-15
 -1      1046 3.21951E-03-4.61481E-05-1.04813E-14
 -1      1047 3.50959E-03-4.62100E-05-1.22594E-14
 -1      1048 3.79910E-03-4.61192E-05-1.41652E-14
 -1      1049 4.08802E-03-4.59281E-05-1.61963E-14
 -1      1050 4.37635E-03-4.56712E-05-1.83504E-14
 -1      1051 4.66413E-03-4.53705E-05-2.06223E-14
 -1      1052 4.95137E-03-4.50382E-05-2.30085E-14
 -1      1053 5.23811E-03-4.46795E-05-2.55085E-14
 -1      1054 5.52432E-03-4.42960E-05-2.81213E-14
 -1      1055 5.80998E-03-4.38889E-05-3.08424E-14
 -1      1056 6.09502E-03-4.34636E-05-3.36660E-14
 -1      1057 6.37932E-03-4.30352E-05-3.65852E-14
 -1      1058 6.66272E-03-4.26367E-05-3.95931E-14
 -1      1059 6.94500E-03-4.23296E-05-4.26934E-14
 -1      1060 7.22589E-03-4.22200E-05-4.58770E-14
 -1      1061 7.50502E-03-4.24779E-05-4.91408E-14
 -1      1062 7.78198E-03-4.33639E-05-5.24807E-14
 -1      1063 8.05627E-03-4.52588E-05-5.58860E-14
 -1      1064 8.32730E-03-4.86970E-05-5.93451E-14
 -1      1065 8.59443E-03-5.43949E-05-6.28496E-14
 -1      1066 8.85696E-03-6.32656E-05-6.63946E-14
 -1      1067 9.11410E-03-7.64057E-05-6.99698E-14
 -1      1068 6.77836E-03 5.66315E-05-4.06295E-14
 -1      1069 2.92895E-03-4.58584E-05-8.83373E-15
 -1      1070 6.49525E-03 5.76389E-05-3.75915E-14
 -1      1071 3.19525E-03 1.36743E-04-1.01133E-14
 -1      1072 5.92645E-03 5.89911E-05-3.17889E-14
 -1      1073 7.06035E-03 5.52812E-05-4.37548E-14
 -1      1074 7.34098E-03 5.34526E-05-4.69636E-14
 -1      1075 7.61999E-03 5.09611E-05-5.02481E-14
 -1      1076 7.89710E-03 4.75576E-05-5.36051E-14
 -1      1077 8.17204E-03 4.29141E-05-5.70233E-14
 -1      1078 8.44461E-03 3.66134E-05-6.04924E-14
 -1      1079 8.71472E-03 2.81543E-05-6.40090E-14
 -1      1080 8.98255E-03 1.69932E-05-6.75644E-14
 -1      1081 9.24867E-03 2.67788E-06-7.11514E-14
 -1      1082 9.51458E-03-1.49414E-05-7.47660E-14
 -1      1083 9.40419E-03-8.47839E-05-7.40210E-14
 -1      1084 5.35504E-03 5.98412E-05-2.63824E-14
 -1      1085 2.28878E-03 1.15327E-04-5.53765E-15
 -1      1086 3.48496E-03 1.37220E-04-1.18592E-14
 -1      1087 2.34727E-03-4.41704E-05-5.94045E-15
 -1      1088 4.20589E-03 6.08621E-05-1.69163E-14
 -1      1089 5.64103E-03 5.94588E-05-2.90321E-14
 -1      1090 2.05702E-03-4.24833E-05-4.69545E-15
 -1      1091 5.06852E-03 6.01635E-05-2.38430E-14
 -1      1092 6.21123E-03 5.84017E-05-3.46423E-14
 -1      1093 1.82674E-03-4.98126E-05-3.80605E-15
 -1      1094 4.78150E-03 6.04400E-05-2.14188E-14
 -1      1095 3.91724E-03 6.09800E-05-1.48432E-14
 -1      1096 4.49397E-03 6.06751E-05-1.91097E-14
 -1      1097 2.26486E-03 4.52758E-05-5.51218E-15
 -1      1098 3.04783E-03 6.04645E-05-9.38688E-15
 -1      1099 2.75711E-03 5.97229E-05-7.83079E-15
 -1      1100 3.65433E-03 3.01866E-05-1.31107E-14
 -1      1101 2.51090E-03 5.25863E-05-6.62410E-15
 -1      1102 3.35130E-03 4.54724E-05-1.11766E-14
 -1      1103 0.00000E+00 0.00000E+00 0.00000E+00
 -1      1104 0.00000E+00 0.00000E+00 0.00000E+00
 -1      1105 0.00000E+00 0.00000E+00 0.00000E+00
 -1      1106 0.00000E+00 0.00000E+00 0.00000E+00
 -1      1107 0.00000E+00 0.00000E+00 0.00000E+00
 -1      1108 0.00000E+00 0.00000E+00 0.00000E+00
 -1      1109 0.00000E+00 0.00000E+00 0.00000E+00
 -1      1110 0.00000E+00 0.00000E+00 0.00000E+00
 -1      1111 0.00000E+00 0.00000E+00 0.00000E+00
 -1      1112 0.00000E+00 0.00000E+00 0.00000E+00
 -1      1113 0.00000E+00 0.00000E+00 0.00000E+00
 -1      1114 0.00000E+00 0.00000E+00 0.00000E+00
 -1      1115 0.00000E+00 0.00000E+00 0.00000E+00
 -1      1116 0.00000E+00 0.00000E+00 0.00000E+00
 -1      1117 0.00000E+00 0.00000E+00 0.00000E+00
 -1      1118 0.00000E+00 0.00000E+00 0.00000E+00
 -1      1119 0.00000E+00 0.00000E+00 0.00000E+00
 -1      1120 2.11678E-04-1.48331E-04 1.41353E-17
 -1      1121 5.51677E-04-3.37504E-04-6.92128E-17
 -1      1122 8.33536E-04-4.58991E-04-3.14839E-16
 -1      1123 1.10316E-03-5.40676E-04-7.47978E-16
 -1      1124 1.36863E-03-5.97935E-04-1.35695E-15
 -1      1125 1.63351E-03-6.38668E-04-2.13567E-15
 -1      1126 1.89964E-03-6.67525E-04-3.08180E-15
 -1      1127 2.16788E-03-6.87631E-04-4.18877E-15
 -1      1128 2.43853E-03-7.01277E-04-5.45163E-15
 -1      1129 2.71157E-03-7.10192E-04-6.86811E-15
 -1      1130 2.98683E-03-7.15690E-04-8.43310E-15
 -1      1131 3.26408E-03-7.18760E-04-1.01389E-14
 -1      1132 3.54304E-03-7.20137E-04-1.19817E-14
 -1      1133 3.82342E-03-7.20358E-04-1.39580E-14
 -1      1134 4.10496E-03-7.19800E-04-1.60585E-14
 -1      1135 4.38745E-03-7.18717E-04-1.82799E-14
 -1      1136 4.67068E-03-7.17270E-04-2.06209E-14
 -1      1137 4.95449E-03-7.15543E-04-2.30795E-14
 -1      1138 5.23877E-03-7.13563E-04-2.56572E-14
 -1      1139 5.52346E-03-7.11312E-04-2.83487E-14
 -1      1140 5.80853E-03-7.08740E-04-3.11493E-14
 -1      1141 6.09400E-03-7.05769E-04-3.40553E-14
 -1      1142 6.37999E-03-7.02309E-04-3.70542E-14
 -1      1143 6.66665E-03-6.98261E-04-4.01432E-14
 -1      1144 6.95425E-03-6.93530E-04-4.33281E-14
 -1      1145 7.24319E-03-6.88047E-04-4.66050E-14
 -1      1146 7.53399E-03-6.81790E-04-4.99619E-14
 -1      1147 7.82743E-03-6.74822E-04-5.33876E-14
 -1      1148 8.12452E-03-6.67357E-04-5.68830E-14
 -1      1149 8.42664E-03-6.59857E-04-6.04334E-14
 -1      1150 8.73563E-03-6.53188E-04-6.40279E-14
 -1      1151 9.05386E-03-6.48874E-04-6.76595E-14
 -1      1152 9.38434E-03-6.49499E-04-7.13168E-14
 -1      1153 9.73065E-03-6.59320E-04-7.49897E-14
 -1      1154 1.00965E-02-6.85128E-04-7.86751E-14
 -1      1155 1.04849E-02-7.37221E-04-8.23663E-14
 -1      1156 1.08958E-02-8.29824E-04-8.60567E-14
 -1      1157 1.13224E-02-9.79146E-04-8.97559E-14
 -1      1158 1.17470E-02-1.19577E-03-9.34594E-14
 -1      1159 1.21401E-02-1.46906E-03-9.71598E-14
 -1      1160 1.24705E-02-1.75087E-03-1.00866E-13
 -1      1161 1.27294E-02-1.96060E-03-1.04573E-13
 -1      1162 1.29428E-02-2.02858E-03-1.08184E-13
 -1      1163 1.31690E-02-1.95291E-03-1.11818E-13
 -1      1164 1.34498E-02-1.78150E-03-1.15557E-13
 -1      1165 1.37773E-02-1.58871E-03-1.19291E-13
 -1      1166 1.41231E-02-1.42027E-03-1.23024E-13
 -1      1167 1.44582E-02-1.28156E-03-1.26773E-13
 -1      1168 1.47683E-02-1.15252E-03-1.30534E-13
 -1      1169 1.50576E-02-1.00991E-03-1.34287E-13
 -1      1170 2.28438E-04 1.60706E-04 3.86247E-17
 -1      1171 5.53856E-04 3.42143E-04 1.40404E-17
 -1      1172 8.34470E-04 4.61186E-04-1.50487E-16
 -1      1173 1.10405E-03 5.42376E-04-4.73498E-16
 -1      1174 1.36953E-03 5.99616E-04-9.55982E-16
 -1      1175 1.63446E-03 6.40438E-04-1.59673E-15
 -1      1176 1.90065E-03 6.69403E-04-2.39432E-15
 -1      1177 2.16893E-03 6.89628E-04-3.34403E-15
 -1      1178 2.43960E-03 7.03401E-04-4.44633E-15
 -1      1179 2.71266E-03 7.12448E-04-5.69922E-15
 -1      1180 2.98794E-03 7.18079E-04-7.10274E-15
 -1      1181 3.26520E-03 7.21284E-04-8.64799E-15
 -1      1182 3.54416E-03 7.22796E-04-1.03352E-14
 -1      1183 3.82455E-03 7.23152E-04-1.21629E-14
 -1      1184 4.10611E-03 7.22729E-04-1.41278E-14
 -1      1185 4.38860E-03 7.21783E-04-1.62288E-14
 -1      1186 4.67185E-03 7.20475E-04-1.84549E-14
 -1      1187 4.95569E-03 7.18892E-04-2.07967E-14
 -1      1188 5.24002E-03 7.17069E-04-2.32516E-14
 -1      1189 5.52477E-03 7.14997E-04-2.58229E-14
 -1      1190 5.80991E-03 7.12643E-04-2.85055E-14
 -1      1191 6.09550E-03 7.09956E-04-3.12972E-14
 -1      1192 6.38160E-03 7.06887E-04-3.41942E-14
 -1      1193 6.66839E-03 7.03399E-04-3.71822E-14
 -1      1194 6.95607E-03 6.99491E-04-4.02517E-14
 -1      1195 7.24494E-03 6.95226E-04-4.33895E-14
 -1      1196 7.53537E-03 6.90756E-04-4.66023E-14
 -1      1197 7.82779E-03 6.86373E-04-4.98951E-14
 -1      1198 8.12266E-03 6.82550E-04-5.32586E-14
 -1      1199 8.42044E-03 6.79995E-04-5.66929E-14
 -1      1200 8.72150E-03 6.79689E-04-6.01837E-14
 -1      1201 9.02596E-03 6.82903E-04-6.37334E-14
 -1      1202 9.33358E-03 6.91149E-04-6.73381E-14
 -1      1203 9.64346E-03 7.06027E-04-7.09873E-14
 -1      1204 9.95387E-03 7.28900E-04-7.46756E-14
 -1      1205 1.02621E-02 7.60361E-04-7.84029E-14
 -1      1206 1.05643E-02 7.99475E-04-8.21728E-14
 -1      1207 1.08562E-02 8.42953E-04-8.59781E-14
 -1      1208 1.11336E-02 8.84545E-04-8.97984E-14
 -1      1209 1.13937E-02 9.15162E-04-9.36273E-14
 -1      1210 1.16368E-02 9.24117E-04-9.74579E-14
 -1      1211 1.18661E-02 9.01483E-04-1.01297E-13
 -1      1212 1.20882E-02 8.40812E-04-1.05153E-13
 -1      1213 1.23106E-02 7.40977E-04-1.09018E-13
 -1      1214 1.25403E-02 6.06181E-04-1.12895E-13
 -1      1215 1.27815E-02 4.44211E-04-1.16800E-13
 -1      1216 1.30358E-02 2.64057E-04-1.20713E-13
 -1      1217 1.33025E-02 7.41838E-05-1.24623E-13
 -1      1218 1.35796E-02-1.17959E-04-1.28530E-13
 -1      1219 1.38567E-02-3.01760E-04-1.32332E-13
 -1      1220 1.40829E-02-4.31721E-04-1.34247E-13
 -1      1221 1.42603E-02-5.17479E-04-1.34415E-13
 -1      1222 1.44355E-02-6.09651E-04-1.34579E-13
 -1      1223 1.46169E-02-7.09247E-04-1.34735E-13
 -1      1224 1.48137E-02-8.12455E-04-1.34879E-13
 -1      1225 1.50325E-02-9.10561E-04-1.34992E-13
 -1      1226 1.52729E-02-9.90608E-04-1.35081E-13
 -1      1227 1.55217E-02-1.03739E-03-1.35169E-13
 -1      1228 1.57570E-02-1.03994E-03-1.35273E-13
 -1      1229 1.59463E-02-9.95495E-04-1.35401E-13
 -1      1230 1.60528E-02-9.17247E-04-1.35530E-13
 -1      1231 1.60599E-02-8.30166E-04-1.35649E-13
 -1      1232 1.59724E-02-7.62190E-04-1.35763E-13
 -1      1233 1.58170E-02-7.34577E-04-1.35862E-13
 -1      1234 1.56300E-02-7.53078E-04-1.35948E-13
 -1      1235 1.54430E-02-8.10584E-04-1.36019E-13
 -1      1236 1.52760E-02-8.90337E-04-1.36100E-13
 -1      1237 1.51325E-02-6.45650E-04-1.13914E-13
 -1      1238 1.49799E-02-4.60456E-04-1.13434E-13
 -1      1239 1.47131E-02-2.72116E-04-1.12584E-13
 -1      1240 1.43663E-02-8.91973E-05-1.11438E-13
 -1      1241 1.39428E-02 8.95334E-05-1.09963E-13
 -1      1242 1.34875E-02 2.42194E-04-1.08289E-13
 -1      1243 1.30366E-02 3.47062E-04-1.06560E-13
 -1      1244 1.25562E-02 4.02567E-04-1.04659E-13
 -1      1245 1.20849E-02 3.98477E-04-1.02776E-13
 -1      1246 1.16499E-02 3.39235E-04-1.01066E-13
 -1      1247 1.12536E-02 2.41919E-04-9.95675E-14
 -1      1248 1.08994E-02 1.17947E-04-9.82975E-14
 -1      1249 1.05961E-02-2.55776E-05-9.72826E-14
 -1      1250 1.03780E-02-1.74514E-04-9.66245E-14
 -1      1251 1.02579E-02-3.27244E-04-9.63383E-14
 -1      1252 1.02471E-02-4.89697E-04-9.64362E-14
 -1      1253 1.03528E-02-6.67803E-04-9.69091E-14
 -1      1254 1.05678E-02-8.61817E-04-9.77438E-14
 -1      1255 1.08683E-02-1.06534E-03-9.88801E-14
 -1      1256 1.12498E-02-1.27823E-03-1.00310E-13
 -1      1257 1.16904E-02-1.48021E-03-1.01967E-13
 -1      1258 1.21564E-02-1.63725E-03-1.03733E-13
 -1      1259 1.26579E-02-1.72809E-03-1.05630E-13
 -1      1260 1.31547E-02-1.73472E-03-1.07493E-13
 -1      1261 1.36243E-02-1.66314E-03-1.09200E-13
 -1      1262 1.40674E-02-1.53549E-03-1.10727E-13
 -1      1263 1.44714E-02-1.37029E-03-1.12031E-13
 -1      1264 1.48045E-02-1.18896E-03-1.13044E-13
 -1      1265 1.50333E-02-1.01030E-03-1.13704E-13
 -1      1266 1.51497E-02-8.28296E-04-1.14010E-13
 -1      1267 1.66712E-04-1.10338E-04-1.17229E-17
 -1      1268 1.12549E-04-5.69670E-05-4.01697E-17
 -1      1269 1.17631E-04-6.75763E-05-3.21601E-17
 -1      1270 1.08429E-04-4.34834E-05-5.30988E-17
 -1      1271 1.10292E-04-4.95984E-05-4.92905E-17
 -1      1272 2.26345E-04-1.07610E-04-1.16050E-16
 -1      1273 1.06843E-04-3.35987E-05-5.97666E-17
 -1      1274 1.07692E-04-3.83226E-05-5.79506E-17
 -1      1275 2.19119E-04-8.24412E-05-1.38846E-16
 -1      1276 1.06058E-04-2.53455E-05-6.32632E-17
 -1      1277 1.06490E-04-2.93760E-05-6.24365E-17
 -1      1278 2.15863E-04-6.32579E-05-1.51178E-16
 -1      1279 1.05656E-04-1.80853E-05-6.48895E-17
 -1      1280 1.05887E-04-2.16528E-05-6.46998E-17
 -1      1281 2.14202E-04-4.71769E-05-1.57521E-16
 -1      1282 1.05433E-04-1.12347E-05-6.52961E-17
 -1      1283 1.05557E-04-1.46192E-05-6.54316E-17
 -1      1284 2.13285E-04-3.27423E-05-1.60286E-16
 -1      1285 1.05332E-04-4.68698E-06-6.49302E-17
 -1      1286 1.05385E-04-7.93920E-06-6.51334E-17
 -1      1287 2.12784E-04-1.91829E-05-1.60625E-16
 -1      1288 1.05320E-04 1.74257E-06-6.41306E-17
 -1      1289 1.05319E-04-1.46967E-06-6.44829E-17
 -1      1290 2.12567E-04-6.15764E-06-1.59473E-16
 -1      1291 1.05394E-04 8.22184E-06-6.24907E-17
 -1      1292 1.05336E-04 4.96313E-06-6.29515E-17
 -1      1293 2.12575E-04 6.70646E-06-1.56776E-16
 -1      1294 1.05573E-04 1.49270E-05-6.03087E-17
 -1      1295 1.05444E-04 1.15279E-05-6.09593E-17
 -1      1296 2.12809E-04 1.97577E-05-1.52439E-16
 -1      1297 1.05908E-04 2.19441E-05-5.72594E-17
 -1      1298 1.05672E-04 1.83536E-05-5.82623E-17
 -1      1299 2.13324E-04 3.32564E-05-1.46665E-16
 -1      1300 1.06534E-04 2.98087E-05-5.23399E-17
 -1      1301 1.06093E-04 2.57327E-05-5.39662E-17
 -1      1302 2.14268E-04 4.77812E-05-1.38209E-16
 -1      1303 1.07736E-04 3.89058E-05-4.52112E-17
 -1      1304 1.06881E-04 3.41108E-05-4.79895E-17
 -1      1305 2.15983E-04 6.41883E-05-1.25808E-16
 -1      1306 1.10274E-04 5.03427E-05-3.38407E-17
 -1      1307 1.08438E-04 4.41597E-05-3.86925E-17
 -1      1308 2.19231E-04 8.36952E-05-1.07580E-16
 -1      1309 1.16939E-04 6.76093E-05-1.54770E-17
 -1      1310 1.12187E-04 5.77635E-05-2.43674E-17
 -1      1311 2.26323E-04 1.09432E-04-7.99464E-17
 -1      1312 1.57590E-04 1.09853E-04 1.33492E-17
 -1      1313 1.35671E-04 8.60815E-05-4.55365E-18
 -1      1314 2.56052E-04 1.52075E-04-4.68646E-17
 -1      1315 3.35110E-04 2.20724E-04 8.67362E-19
 -1      1316 4.21574E-04-2.61726E-04-8.43645E-17
 -1      1317 5.74687E-04-3.36780E-04-1.67699E-16
 -1      1318 7.21892E-04-3.97379E-04-3.00636E-16
 -1      1319 8.65079E-04-4.46673E-04-4.78635E-16
 -1      1320 6.12128E-04-3.30868E-04-2.79968E-16
 -1      1321 1.00512E-03-4.87746E-04-6.99622E-16
 -1      1322 1.14299E-03-5.21737E-04-9.64533E-16
 -1      1323 9.05395E-04-4.31563E-04-6.46754E-16
 -1      1324 1.27951E-03-5.50515E-04-1.27178E-15
 -1      1325 1.41518E-03-5.74559E-04-1.62174E-15
 -1      1326 1.18786E-03-5.00988E-04-1.18411E-15
 -1      1327 1.55045E-03-5.94934E-04-2.01313E-15
 -1      1328 1.68557E-03-6.11974E-04-2.44595E-15
 -1      1329 1.46484E-03-5.49773E-04-1.88884E-15
 -1      1330 1.82079E-03-6.26308E-04-2.91997E-15
 -1      1331 1.95621E-03-6.38230E-04-3.43420E-15
 -1      1332 1.73958E-03-5.84103E-04-2.75799E-15
 -1      1333 2.09196E-03-6.48141E-04-3.98765E-15
 -1      1334 2.22808E-03-6.56293E-04-4.58040E-15
 -1      1335 2.01394E-03-6.07961E-04-3.78747E-15
 -1      1336 2.36463E-03-6.62960E-04-5.21181E-15
 -1      1337 2.50160E-03-6.68349E-04-5.88092E-15
 -1      1338 2.28892E-03-6.24165E-04-4.97241E-15
 -1      1339 2.63903E-03-6.72655E-04-6.58826E-15
 -1      1340 2.77690E-03-6.76043E-04-7.33253E-15
 -1      1341 2.56499E-03-6.34792E-04-6.30987E-15
 -1      1342 2.91520E-03-6.78653E-04-8.11284E-15
 -1      1343 3.05392E-03-6.80615E-04-8.92952E-15
 -1      1344 2.84233E-03-6.41401E-04-7.79559E-15
 -1      1345 3.19303E-03-6.82028E-04-9.78072E-15
 -1      1346 3.33250E-03-6.82993E-04-1.06657E-14
 -1      1347 3.12096E-03-6.45160E-04-9.42429E-15
 -1      1348 3.47233E-03-6.83579E-04-1.15850E-14
 -1      1349 3.61247E-03-6.83861E-04-1.25378E-14
 -1      1350 3.40081E-03-6.46937E-04-1.11910E-14
 -1      1351 3.75290E-03-6.83885E-04-1.35233E-14
 -1      1352 3.89360E-03-6.83709E-04-1.45402E-14
 -1      1353 3.68175E-03-6.47365E-04-1.30915E-14
 -1      1354 4.03455E-03-6.83361E-04-1.55881E-14
 -1      1355 4.17571E-03-6.82880E-04-1.66669E-14
 -1      1356 3.96364E-03-6.46896E-04-1.51209E-14
 -1      1357 4.31708E-03-6.82284E-04-1.77755E-14
 -1      1358 4.45862E-03-6.81599E-04-1.89134E-14
 -1      1359 4.24632E-03-6.45838E-04-1.72734E-14
 -1      1360 4.60032E-03-6.80832E-04-2.00818E-14
 -1      1361 4.74217E-03-6.80000E-04-2.12794E-14
 -1      1362 4.52967E-03-6.44386E-04-1.95454E-14
 -1      1363 4.88415E-03-6.79101E-04-2.25065E-14
 -1      1364 5.02625E-03-6.78146E-04-2.37628E-14
 -1      1365 4.81356E-03-6.42654E-04-2.19359E-14
 -1      1366 5.16846E-03-6.77128E-04-2.50484E-14
 -1      1367 5.31077E-03-6.76049E-04-2.63633E-14
 -1      1368 5.09792E-03-6.40685E-04-2.44431E-14
 -1      1369 5.45318E-03-6.74898E-04-2.77059E-14
 -1      1370 5.59569E-03-6.73675E-04-2.90750E-14
 -1      1371 5.38269E-03-6.38474E-04-2.70659E-14
 -1      1372 5.73830E-03-6.72362E-04-3.04717E-14
 -1      1373 5.88101E-03-6.70959E-04-3.18959E-14
 -1      1374 5.66784E-03-6.35973E-04-2.97993E-14
 -1      1375 6.02383E-03-6.69444E-04-3.33447E-14
 -1      1376 6.16678E-03-6.67814E-04-3.48170E-14
 -1      1377 5.95340E-03-6.33106E-04-3.26377E-14
 -1      1378 6.30986E-03-6.66045E-04-3.63136E-14
 -1      1379 6.45311E-03-6.64135E-04-3.78328E-14
 -1      1380 6.23943E-03-6.29773E-04-3.55767E-14
 -1      1381 6.59655E-03-6.62058E-04-3.93762E-14
 -1      1382 6.74020E-03-6.59815E-04-4.09408E-14
 -1      1383 6.52605E-03-6.25860E-04-3.86107E-14
 -1      1384 6.88411E-03-6.57375E-04-4.25293E-14
 -1      1385 7.02831E-03-6.54748E-04-4.41427E-14
 -1      1386 6.81346E-03-6.21247E-04-4.17359E-14
 -1      1387 7.17287E-03-6.51902E-04-4.57766E-14
 -1      1388 7.31785E-03-6.48857E-04-4.74310E-14
 -1      1389 7.10193E-03-6.15822E-04-4.49525E-14
 -1      1390 7.46332E-03-6.45580E-04-4.91051E-14
 -1      1391 7.60936E-03-6.42113E-04-5.07968E-14
 -1      1392 7.39184E-03-6.09500E-04-4.82526E-14
 -1      1393 7.75608E-03-6.38423E-04-5.25064E-14
 -1      1394 7.90358E-03-6.34581E-04-5.42337E-14
 -1      1395 7.68371E-03-6.02251E-04-5.16298E-14
 -1      1396 8.05201E-03-6.30566E-04-5.59764E-14
 -1      1397 8.20150E-03-6.26489E-04-5.77343E-14
 -1      1398 7.97823E-03-5.94147E-04-5.50750E-14
 -1      1399 8.35223E-03-6.22352E-04-5.95061E-14
 -1      1400 8.50440E-03-6.18332E-04-6.12889E-14
 -1      1401 8.27629E-03-5.85436E-04-5.85825E-14
 -1      1402 8.65824E-03-6.14474E-04-6.30831E-14
 -1      1403 8.81398E-03-6.11053E-04-6.48871E-14
 -1      1404 8.57904E-03-5.76666E-04-6.21415E-14
 -1      1405 8.97191E-03-6.08197E-04-6.67002E-14
 -1      1406 9.13233E-03-6.06324E-04-6.85191E-14
 -1      1407 8.88791E-03-5.68883E-04-6.57427E-14
 -1      1408 9.29558E-03-6.05723E-04-7.03425E-14
 -1      1409 9.46200E-03-6.07009E-04-7.21715E-14
 -1      1410 9.20466E-03-5.63955E-04-6.93730E-14
 -1      1411 9.63195E-03-6.10754E-04-7.40066E-14
 -1      1412 9.80579E-03-6.17851E-04-7.58435E-14
 -1      1413 9.53129E-03-5.65092E-04-7.30253E-14
 -1      1414 9.98383E-03-6.29328E-04-7.76812E-14
 -1      1415 1.01663E-02-6.46436E-04-7.95228E-14
 -1      1416 9.86994E-03-5.77620E-04-7.66922E-14
 -1      1417 1.03534E-02-6.70854E-04-8.13652E-14
 -1      1418 1.05451E-02-7.04224E-04-8.32082E-14
 -1      1419 1.02225E-02-6.10017E-04-8.03676E-14
 -1      1420 1.07410E-02-7.48921E-04-8.50542E-14
 -1      1421 1.09406E-02-8.06799E-04-8.69006E-14
 -1      1422 1.05901E-02-6.74936E-04-8.40516E-14
 -1      1423 1.11429E-02-8.80435E-04-8.87487E-14
 -1      1424 1.13463E-02-9.71138E-04-9.05994E-14
 -1      1425 1.09717E-02-7.89116E-04-8.77429E-14
 -1      1426 1.15490E-02-1.08009E-03-9.24486E-14
 -1      1427 1.17480E-02-1.20616E-03-9.42970E-14
 -1      1428 1.13632E-02-9.69656E-04-9.14389E-14
 -1      1429 1.19411E-02-1.34643E-03-9.61489E-14
 -1      1430 1.21250E-02-1.49465E-03-9.80034E-14
 -1      1431 1.17549E-02-1.22255E-03-9.51379E-14
 -1      1432 1.22978E-02-1.64185E-03-9.98548E-14
 -1      1433 1.24584E-02-1.77684E-03-1.01708E-13
 -1      1434 1.21313E-02-1.52226E-03-9.88421E-14
 -1      1435 1.26071E-02-1.88768E-03-1.03563E-13
 -1      1436 1.27471E-02-1.96366E-03-1.05419E-13
 -1      1437 1.24772E-02-1.79730E-03-1.02553E-13
 -1      1438 1.28747E-02-1.99773E-03-1.07183E-13
 -1      1439 1.30027E-02-1.99334E-03-1.08949E-13
 -1      1440 1.27855E-02-1.95087E-03-1.06174E-13
 -1      1441 1.31406E-02-1.95150E-03-1.10812E-13
 -1      1442 1.32857E-02-1.87972E-03-1.12680E-13
 -1      1443 1.30851E-02-1.94100E-03-1.09806E-13
 -1      1444 1.34387E-02-1.78878E-03-1.14552E-13
 -1      1445 1.35993E-02-1.68928E-03-1.16421E-13
 -1      1446 1.34067E-02-1.79415E-03-1.13543E-13
 -1      1447 1.37660E-02-1.59001E-03-1.18291E-13
 -1      1448 1.39357E-02-1.49702E-03-1.20162E-13
 -1      1449 1.37469E-02-1.59308E-03-1.17290E-13
 -1      1450 1.41063E-02-1.41299E-03-1.22035E-13
 -1      1451 1.42750E-02-1.33842E-03-1.23907E-13
 -1      1452 1.40930E-02-1.40748E-03-1.21037E-13
 -1      1453 1.44402E-02-1.27105E-03-1.25780E-13
 -1      1454 1.46007E-02-1.20830E-03-1.27662E-13
 -1      1455 1.44303E-02-1.26027E-03-1.24789E-13
 -1      1456 1.47561E-02-1.14607E-03-1.29545E-13
 -1      1457 1.49065E-02-1.08120E-03-1.31424E-13
 -1      1458 1.47502E-02-1.13731E-03-1.28550E-13
 -1      1459 1.50206E-02-1.02706E-03-1.32829E-13
 -1      1460 1.51647E-02-9.52016E-04-1.34703E-13
 -1      1461 1.52445E-02-9.12382E-04-1.34654E-13
 -1      1462 1.50188E-02-1.02524E-03-1.31842E-13
 -1      1463 6.43137E-04 3.72010E-04-9.53285E-17
 -1      1464 4.92992E-04 3.03678E-04-2.73490E-17
 -1      1465 4.44917E-04 2.65876E-04-6.26262E-17
 -1      1466 9.28763E-04 4.71994E-04-3.47405E-16
 -1      1467 7.87890E-04 4.26495E-04-2.02068E-16
 -1      1468 7.44821E-04 3.90711E-04-2.45260E-16
 -1      1469 1.20369E-03 5.41388E-04-7.54957E-16
 -1      1470 1.06700E-03 5.09708E-04-5.31151E-16
 -1      1471 1.03089E-03 4.76137E-04-5.81295E-16
 -1      1472 1.47429E-03 5.90593E-04-1.32004E-15
 -1      1473 1.33921E-03 5.68117E-04-1.01801E-15
 -1      1474 1.30884E-03 5.35944E-04-1.07192E-15
 -1      1475 1.74388E-03 6.25515E-04-2.04125E-15
 -1      1476 1.60904E-03 6.09594E-04-1.66104E-15
 -1      1477 1.58313E-03 5.78260E-04-1.71826E-15
 -1      1478 2.01415E-03 6.50015E-04-2.91611E-15
 -1      1479 1.87885E-03 6.38893E-04-2.45954E-15
 -1      1480 1.85635E-03 6.08026E-04-2.51826E-15
 -1      1481 2.28590E-03 6.66847E-04-3.94257E-15
 -1      1482 2.14980E-03 6.59259E-04-3.41043E-15
 -1      1483 2.12992E-03 6.28626E-04-3.46993E-15
 -1      1484 2.55946E-03 6.78058E-04-5.11981E-15
 -1      1485 2.42244E-03 6.73056E-04-4.51245E-15
 -1      1486 2.40455E-03 6.42517E-04-4.57199E-15
 -1      1487 2.83487E-03 6.85193E-04-6.44644E-15
 -1      1488 2.69694E-03 6.82060E-04-5.76468E-15
 -1      1489 2.68053E-03 6.51530E-04-5.82310E-15
 -1      1490 3.11204E-03 6.89417E-04-7.91918E-15
 -1      1491 2.97324E-03 6.87612E-04-7.16496E-15
 -1      1492 2.95795E-03 6.57043E-04-7.22140E-15
 -1      1493 3.39079E-03 6.91602E-04-9.53247E-15
 -1      1494 3.25123E-03 6.90723E-04-8.70815E-15
 -1      1495 3.23675E-03 6.60089E-04-8.76214E-15
 -1      1496 3.67092E-03 6.92386E-04-1.12872E-14
 -1      1497 3.53070E-03 6.92139E-04-1.03921E-14
 -1      1498 3.51680E-03 6.61431E-04-1.04437E-14
 -1      1499 3.95220E-03 6.92228E-04-1.31794E-14
 -1      1500 3.81143E-03 6.92404E-04-1.22162E-14
 -1      1501 3.79796E-03 6.61621E-04-1.22638E-14
 -1      1502 4.23445E-03 6.91443E-04-1.52084E-14
 -1      1503 4.09322E-03 6.91900E-04-1.41770E-14
 -1      1504 4.08005E-03 6.61047E-04-1.42204E-14
 -1      1505 4.51747E-03 6.90239E-04-1.73662E-14
 -1      1506 4.37587E-03 6.90885E-04-1.62716E-14
 -1      1507 4.36292E-03 6.59971E-04-1.63097E-14
 -1      1508 4.80113E-03 6.88736E-04-1.96454E-14
 -1      1509 4.65923E-03 6.89520E-04-1.84919E-14
 -1      1510 4.64643E-03 6.58554E-04-1.85236E-14
 -1      1511 5.08531E-03 6.86991E-04-2.20392E-14
 -1      1512 4.94316E-03 6.87892E-04-2.08283E-14
 -1      1513 4.93048E-03 6.56883E-04-2.08554E-14
 -1      1514 5.36993E-03 6.85012E-04-2.45474E-14
 -1      1515 5.22757E-03 6.86031E-04-2.32786E-14
 -1      1516 5.21499E-03 6.54987E-04-2.33016E-14
 -1      1517 5.65497E-03 6.82774E-04-2.71701E-14
 -1      1518 5.51240E-03 6.83927E-04-2.58445E-14
 -1      1519 5.49990E-03 6.52852E-04-2.58622E-14
 -1      1520 5.94041E-03 6.80229E-04-2.99028E-14
 -1      1521 5.79764E-03 6.81542E-04-2.85229E-14
 -1      1522 5.78522E-03 6.50438E-04-2.85353E-14
 -1      1523 6.22634E-03 6.77319E-04-3.27436E-14
 -1      1524 6.08331E-03 6.78821E-04-3.13096E-14
 -1      1525 6.07096E-03 6.47684E-04-3.13186E-14
 -1      1526 6.51285E-03 6.73992E-04-3.56809E-14
 -1      1527 6.36951E-03 6.75706E-04-3.42014E-14
 -1      1528 6.35722E-03 6.44529E-04-3.42043E-14
 -1      1529 6.80012E-03 6.70218E-04-3.87061E-14
 -1      1530 6.65638E-03 6.72156E-04-3.71829E-14
 -1      1531 6.64411E-03 6.40922E-04-3.71813E-14
 -1      1532 7.08837E-03 6.66013E-04-4.18072E-14
 -1      1533 6.94411E-03 6.68159E-04-4.02470E-14
 -1      1534 6.93181E-03 6.36844E-04-4.02403E-14
 -1      1535 7.37791E-03 6.61468E-04-4.49790E-14
 -1      1536 7.23296E-03 6.63765E-04-4.33839E-14
 -1      1537 7.22055E-03 6.32336E-04-4.33743E-14
 -1      1538 7.66908E-03 6.56788E-04-4.82301E-14
 -1      1539 7.52327E-03 6.59117E-04-4.65951E-14
 -1      1540 7.51063E-03 6.27528E-04-4.65844E-14
 -1      1541 7.96227E-03 6.52336E-04-5.15540E-14
 -1      1542 7.81540E-03 6.54493E-04-4.98835E-14
 -1      1543 7.80236E-03 6.22686E-04-4.98691E-14
 -1      1544 8.25788E-03 6.48686E-04-5.49493E-14
 -1      1545 8.10975E-03 6.50356E-04-5.32420E-14
 -1      1546 8.09610E-03 6.18262E-04-5.32235E-14
 -1      1547 8.55626E-03 6.46673E-04-5.84061E-14
 -1      1548 8.40670E-03 6.47406E-04-5.66710E-14
 -1      1549 8.39215E-03 6.14947E-04-5.66462E-14
 -1      1550 8.85760E-03 6.47432E-04-6.19240E-14
 -1      1551 8.70655E-03 6.46625E-04-6.01579E-14
 -1      1552 8.69078E-03 6.13722E-04-6.01297E-14
 -1      1553 9.16184E-03 6.52391E-04-6.54946E-14
 -1      1554 9.00937E-03 6.49300E-04-6.37025E-14
 -1      1555 8.99206E-03 6.15884E-04-6.36706E-14
 -1      1556 9.46847E-03 6.63189E-04-6.91189E-14
 -1      1557 9.31490E-03 6.56984E-04-6.73007E-14
 -1      1558 9.29577E-03 6.23016E-04-6.72632E-14
 -1      1559 9.77638E-03 6.81454E-04-7.27840E-14
 -1      1560 9.62235E-03 6.71347E-04-7.09458E-14
 -1      1561 9.60126E-03 6.36851E-04-7.09025E-14
 -1      1562 1.00837E-02 7.08387E-04-7.64852E-14
 -1      1563 9.93024E-03 6.93869E-04-7.46299E-14
 -1      1564 9.90732E-03 6.58967E-04-7.45821E-14
 -1      1565 1.03876E-02 7.44100E-04-8.02267E-14
 -1      1566 1.02363E-02 7.25295E-04-7.83519E-14
 -1      1567 1.02121E-02 6.90253E-04-7.82979E-14
 -1      1568 1.06849E-02 7.86773E-04-8.40064E-14
 -1      1569 1.05373E-02 7.64877E-04-8.21128E-14
 -1      1570 1.05130E-02 7.30135E-04-8.20520E-14
 -1      1571 1.09719E-02 8.31821E-04-8.78109E-14
 -1      1572 1.08299E-02 8.09489E-04-8.59054E-14
 -1      1573 1.08071E-02 7.75659E-04-8.58337E-14
 -1      1574 1.12458E-02 8.71499E-04-9.16253E-14
 -1      1575 1.11106E-02 8.52964E-04-8.97177E-14
 -1      1576 1.10917E-02 8.20759E-04-8.96356E-14
 -1      1577 1.15054E-02 8.95480E-04-9.54494E-14
 -1      1578 1.13774E-02 8.86124E-04-9.35376E-14
 -1      1579 1.13648E-02 8.56207E-04-9.34490E-14
 -1      1580 1.17520E-02 8.92698E-04-9.92795E-14
 -1      1581 1.16301E-02 8.97985E-04-9.73631E-14
 -1      1582 1.16262E-02 8.70764E-04-9.72692E-14
 -1      1583 1.19895E-02 8.54145E-04-1.03121E-13
 -1      1584 1.18715E-02 8.78163E-04-1.01198E-13
 -1      1585 1.18779E-02 8.53628E-04-1.01099E-13
 -1      1586 1.22236E-02 7.75489E-04-1.06978E-13
 -1      1587 1.21066E-02 8.19737E-04-1.05048E-13
 -1      1588 1.21239E-02 7.97432E-04-1.04944E-13
 -1      1589 1.24604E-02 6.58247E-04-1.10847E-13
 -1      1590 1.23413E-02 7.21283E-04-1.08911E-13
 -1      1591 1.23693E-02 7.00455E-04-1.08802E-13
 -1      1592 1.27044E-02 5.08816E-04-1.14733E-13
 -1      1593 1.25813E-02 5.86974E-04-1.12788E-13
 -1      1594 1.26186E-02 5.66819E-04-1.12677E-13
 -1      1595 1.29582E-02 3.36133E-04-1.18637E-13
 -1      1596 1.28300E-02 4.24783E-04-1.16683E-13
 -1      1597 1.28747E-02 4.04654E-04-1.16567E-13
 -1      1598 1.32222E-02 1.49311E-04-1.22544E-13
 -1      1599 1.30890E-02 2.43970E-04-1.20590E-13
 -1      1600 1.31387E-02 2.23443E-04-1.20469E-13
 -1      1601 1.34954E-02-4.35655E-05-1.26450E-13
 -1      1602 1.33578E-02 5.31928E-05-1.24497E-13
 -1      1603 1.34104E-02 3.20198E-05-1.24373E-13
 -1      1604 1.37759E-02-2.35447E-04-1.30352E-13
 -1      1605 1.36349E-02-1.39976E-04-1.28403E-13
 -1      1606 1.36885E-02-1.61999E-04-1.28277E-13
 -1      1607 1.39474E-02-3.44063E-04-1.32402E-13
 -1      1608 1.41797E-02-4.60560E-04-1.32763E-13
 -1      1609 1.40926E-02-4.16281E-04-1.32682E-13
 -1      1610 1.43545E-02-5.53011E-04-1.32917E-13
 -1      1611 1.42667E-02-5.06165E-04-1.32842E-13
 -1      1612 1.40987E-02-4.01384E-04-1.31107E-13
 -1      1613 1.45382E-02-6.49584E-04-1.33069E-13
 -1      1614 1.44447E-02-6.00960E-04-1.32994E-13
 -1      1615 1.42739E-02-4.93255E-04-1.31258E-13
 -1      1616 1.47402E-02-7.46099E-04-1.33207E-13
 -1      1617 1.46365E-02-6.98251E-04-1.33140E-13
 -1      1618 1.44609E-02-5.87523E-04-1.31404E-13
 -1      1619 1.49664E-02-8.34957E-04-1.33319E-13
 -1      1620 1.48503E-02-7.92087E-04-1.33268E-13
 -1      1621 1.46691E-02-6.80283E-04-1.31537E-13
 -1      1622 1.52145E-02-9.05922E-04-1.33419E-13
 -1      1623 1.50883E-02-8.73384E-04-1.33368E-13
 -1      1624 1.49029E-02-7.65250E-04-1.31653E-13
 -1      1625 1.54659E-02-9.47918E-04-1.33521E-13
 -1      1626 1.53406E-02-9.30935E-04-1.33469E-13
 -1      1627 1.51557E-02-8.33774E-04-1.31763E-13
 -1      1628 1.57010E-02-9.55452E-04-1.33635E-13
 -1      1629 1.55882E-02-9.56288E-04-1.33575E-13
 -1      1630 1.54119E-02-8.78639E-04-1.31875E-13
 -1      1631 1.58779E-02-9.28876E-04-1.33762E-13
 -1      1632 1.57990E-02-9.45900E-04-1.33697E-13
 -1      1633 1.56415E-02-8.95078E-04-1.31996E-13
 -1      1634 1.59620E-02-8.81492E-04-1.33889E-13
 -1      1635 1.59325E-02-9.06669E-04-1.33826E-13
 -1      1636 1.58011E-02-8.85368E-04-1.32122E-13
 -1      1637 1.59425E-02-8.31878E-04-1.34008E-13
 -1      1638 1.59654E-02-8.55459E-04-1.33948E-13
 -1      1639 1.58615E-02-8.61487E-04-1.32248E-13
 -1      1640 1.58299E-02-8.01351E-04-1.34124E-13
 -1      1641 1.58962E-02-8.13168E-04-1.34070E-13
 -1      1642 1.58142E-02-8.40628E-04-1.32373E-13
 -1      1643 1.56572E-02-8.02689E-04-1.34230E-13
 -1      1644 1.57487E-02-7.97664E-04-1.34180E-13
 -1      1645 1.56783E-02-8.38729E-04-1.32494E-13
 -1      1646 1.54623E-02-8.37902E-04-1.34324E-13
 -1      1647 1.55604E-02-8.16300E-04-1.34278E-13
 -1      1648 1.54918E-02-8.63389E-04-1.32604E-13
 -1      1649 1.53038E-02-8.87980E-04-1.34511E-13
 -1      1650 1.53957E-02-8.54972E-04-1.34469E-13
 -1      1651 1.53226E-02-9.03178E-04-1.32806E-13
 -1      1652 1.51922E-02-9.46106E-04-1.33101E-13
 -1      1653 1.51211E-02-6.52049E-04-1.14553E-13
 -1      1654 1.51677E-02-7.09184E-04-1.14694E-13
 -1      1655 1.48999E-02-5.21072E-04-1.14081E-13
 -1      1656 1.50213E-02-5.89514E-04-1.14421E-13
 -1      1657 1.45718E-02-3.31083E-04-1.12942E-13
 -1      1658 1.47355E-02-4.14809E-04-1.13440E-13
 -1      1659 1.41740E-02-1.31003E-04-1.11639E-13
 -1      1660 1.43639E-02-2.26098E-04-1.12276E-13
 -1      1661 1.36939E-02 7.89753E-05-1.10063E-13
 -1      1662 1.39085E-02-2.76865E-05-1.10894E-13
 -1      1663 1.32861E-02 2.75368E-04-1.08143E-13
 -1      1664 1.34774E-02 1.96962E-04-1.08970E-13
 -1      1665 1.28718E-02 4.04878E-04-1.06246E-13
 -1      1666 1.30585E-02 3.53163E-04-1.07140E-13
 -1      1667 1.24464E-02 4.59896E-04-1.04124E-13
 -1      1668 1.26428E-02 4.46763E-04-1.05121E-13
 -1      1669 1.20414E-02 4.18878E-04-1.02153E-13
 -1      1670 1.22224E-02 4.46019E-04-1.03029E-13
 -1      1671 1.16524E-02 3.10738E-04-1.00292E-13
 -1      1672 1.18346E-02 3.69415E-04-1.01111E-13
 -1      1673 1.12702E-02 1.67192E-04-9.87669E-14
 -1      1674 1.14394E-02 2.35876E-04-9.94348E-14
 -1      1675 1.09014E-02 7.26571E-06-9.74371E-14
 -1      1676 1.10698E-02 8.24335E-05-9.80230E-14
 -1      1677 1.05753E-02-1.39474E-04-9.64686E-14
 -1      1678 1.07155E-02-7.20226E-05-9.68879E-14
 -1      1679 1.03457E-02-2.70123E-04-9.57982E-14
 -1      1680 1.04398E-02-2.15284E-04-9.60341E-14
 -1      1681 1.02284E-02-3.79443E-04-9.56296E-14
 -1      1682 1.02668E-02-3.28812E-04-9.56784E-14
 -1      1683 1.02470E-02-4.91843E-04-9.57730E-14
 -1      1684 1.02205E-02-4.39222E-04-9.56345E-14
 -1      1685 1.04090E-02-6.29726E-04-9.63795E-14
 -1      1686 1.03167E-02-5.62045E-04-9.60497E-14
 -1      1687 1.06905E-02-8.05588E-04-9.73627E-14
 -1      1688 1.05487E-02-7.19642E-04-9.68684E-14
 -1      1689 1.10444E-02-1.02559E-03-9.86919E-14
 -1      1690 1.08720E-02-9.22361E-04-9.80646E-14
 -1      1691 1.14872E-02-1.26714E-03-1.00230E-13
 -1      1692 1.12849E-02-1.14514E-03-9.94378E-14
 -1      1693 1.19116E-02-1.51733E-03-1.02114E-13
 -1      1694 1.17133E-02-1.40974E-03-1.01263E-13
 -1      1695 1.23340E-02-1.70191E-03-1.04065E-13
 -1      1696 1.21377E-02-1.62621E-03-1.03162E-13
 -1      1697 1.27775E-02-1.79466E-03-1.06162E-13
 -1      1698 1.25744E-02-1.76856E-03-1.05178E-13
 -1      1699 1.31992E-02-1.75655E-03-1.08107E-13
 -1      1700 1.30098E-02-1.78573E-03-1.07241E-13
 -1      1701 1.36236E-02-1.62620E-03-1.09953E-13
 -1      1702 1.34236E-02-1.69777E-03-1.09125E-13
 -1      1703 1.40547E-02-1.44453E-03-1.11514E-13
 -1      1704 1.38609E-02-1.53269E-03-1.10822E-13
 -1      1705 1.44720E-02-1.23509E-03-1.12919E-13
 -1      1706 1.42780E-02-1.33184E-03-1.12316E-13
 -1      1707 1.48265E-02-1.05738E-03-1.13885E-13
 -1      1708 1.46775E-02-1.13674E-03-1.13473E-13
 -1      1709 1.50695E-02-9.04067E-04-1.14563E-13
 -1      1710 1.49709E-02-9.68435E-04-1.14320E-13
 -1      1711 1.51789E-02-7.75819E-04-1.14800E-13
 -1      1712 1.51480E-02-8.33159E-04-1.14744E-13
 -1      1713 1.44147E-02-3.47210E-04-1.13175E-13
 -1      1714 1.51860E-02-7.49667E-04-1.15484E-13
 -1      1715 1.40006E-02-3.67072E-04-1.32279E-13
 -1      1716 1.39213E-02-3.07155E-04-1.30628E-13
 -1      1717 1.50714E-02-6.62062E-04-1.15249E-13
 -1      1718 1.47949E-02-5.38854E-04-1.14479E-13
 -1      1719 1.39551E-02-1.31952E-04-1.11768E-13
 -1      1720 1.35114E-02 1.09931E-04-1.09931E-13
 -1      1721 1.31061E-02 3.19770E-04-1.07835E-13
 -1      1722 1.27190E-02 4.51696E-04-1.05707E-13
 -1      1723 1.23493E-02 4.80075E-04-1.03488E-13
 -1      1724 1.19762E-02 4.05800E-04-1.01354E-13
 -1      1725 1.16088E-02 2.61222E-04-9.94586E-14
 -1      1726 1.12253E-02 8.65028E-05-9.78624E-14
 -1      1727 1.08503E-02-8.29429E-05-9.65742E-14
 -1      1728 1.05263E-02-2.25794E-04-9.55935E-14
 -1      1729 1.03042E-02-3.28260E-04-9.50395E-14
 -1      1730 1.02137E-02-4.08156E-04-9.49213E-14
 -1      1731 1.02788E-02-4.90677E-04-9.51977E-14
 -1      1732 1.04972E-02-6.12007E-04-9.59586E-14
 -1      1733 1.08280E-02-7.93884E-04-9.71446E-14
 -1      1734 1.12439E-02-1.02878E-03-9.85880E-14
 -1      1735 1.16810E-02-1.30544E-03-1.00362E-13
 -1      1736 1.20919E-02-1.57398E-03-1.02440E-13
 -1      1737 1.24957E-02-1.76221E-03-1.04601E-13
 -1      1738 1.28764E-02-1.81981E-03-1.06788E-13
 -1      1739 1.32669E-02-1.73895E-03-1.08883E-13
 -1      1740 1.36714E-02-1.56312E-03-1.10769E-13
 -1      1741 1.41042E-02-1.34142E-03-1.12441E-13
 -1      1742 1.45250E-02-1.12720E-03-1.13798E-13
 -1      1743 1.48799E-02-9.56333E-04-1.14789E-13
 -1      1744 1.51139E-02-8.36291E-04-1.15406E-13
 -1      1745 2.85264E-04-1.76218E-04-7.40104E-17
 -1      1746 3.32203E-04-1.16742E-04-2.19497E-16
 -1      1747 3.36346E-04-1.32989E-04-2.07435E-16
 -1      1748 3.42230E-04-1.51979E-04-1.92365E-16
 -1      1749 3.51788E-04-1.73984E-04-1.70857E-16
 -1      1750 4.58360E-04-1.88039E-04-3.01205E-16
 -1      1751 3.24556E-04-6.53530E-05-2.42238E-16
 -1      1752 3.25697E-04-7.66487E-05-2.39067E-16
 -1      1753 3.23057E-04-4.38676E-05-2.45233E-16
 -1      1754 3.23713E-04-5.43536E-05-2.44162E-16
 -1      1755 4.36494E-04-7.92532E-05-3.58586E-16
 -1      1756 3.22269E-04-2.37588E-05-2.44921E-16
 -1      1757 3.22602E-04-3.36676E-05-2.45423E-16
 -1      1758 4.34488E-04-5.12928E-05-3.61392E-16
 -1      1759 3.21974E-04-4.33426E-06-2.42495E-16
 -1      1760 3.22071E-04-1.39816E-05-2.43864E-16
 -1      1761 4.33464E-04-2.49112E-05-3.60131E-16
 -1      1762 3.22097E-04 1.49736E-05-2.37996E-16
 -1      1763 3.21982E-04 5.31619E-06-2.40734E-16
 -1      1764 4.33166E-04 7.57643E-07-3.56052E-16
 -1      1765 3.22665E-04 3.47133E-05-2.30894E-16
 -1      1766 3.22312E-04 2.47719E-05-2.34716E-16
 -1      1767 4.33522E-04 2.64554E-05-3.48720E-16
 -1      1768 3.23797E-04 5.51430E-05-2.21570E-16
 -1      1769 3.23132E-04 4.47840E-05-2.26734E-16
 -1      1770 4.34602E-04 5.26997E-05-3.38027E-16
 -1      1771 3.25856E-04 7.77885E-05-2.07814E-16
 -1      1772 3.24658E-04 6.62105E-05-2.15675E-16
 -1      1773 4.36662E-04 8.05710E-05-3.23567E-16
 -1      1774 3.29555E-04 1.03618E-04-1.87865E-16
 -1      1775 3.27396E-04 9.02752E-05-1.98938E-16
 -1      1776 4.40312E-04 1.11539E-04-3.02655E-16
 -1      1777 3.36646E-04 1.35102E-04-1.58090E-16
 -1      1778 3.32471E-04 1.18574E-04-1.74855E-16
 -1      1779 4.46828E-04 1.47310E-04-2.72419E-16
 -1      1780 3.52283E-04 1.77548E-04-1.13543E-16
 -1      1781 3.42808E-04 1.54708E-04-1.38507E-16
 -1      1782 4.59310E-04 1.91403E-04-2.28238E-16
 -1      1783 4.07708E-04 2.33656E-04-8.23994E-17
 -1      1784 3.78096E-04 2.02639E-04-1.02904E-16
 -1      1785 4.95879E-04 2.43982E-04-1.88976E-16
 -1      1786 5.58573E-04 3.02482E-04-1.56898E-16
 -1      1787 3.40051E-04-1.90888E-04-1.26269E-16
 -1      1788 8.53679E-04 4.07085E-04-4.21551E-16
 -1      1789 7.07230E-04 3.59327E-04-2.70454E-16
 -1      1790 6.73478E-04 3.28765E-04-2.91027E-16
 -1      1791 4.58993E-04-2.36687E-04-2.22560E-16
 -1      1792 8.07303E-04-3.74070E-04-5.89413E-16
 -1      1793 9.52585E-04-4.15252E-04-8.20944E-16
 -1      1794 1.09544E-03-4.49938E-04-1.09387E-15
 -1      1795 1.23713E-03-4.78832E-04-1.40823E-15
 -1      1796 1.00401E-03-3.97863E-04-1.00131E-15
 -1      1797 1.37755E-03-5.03319E-04-1.76328E-15
 -1      1798 1.51727E-03-5.23695E-04-2.15928E-15
 -1      1799 1.28973E-03-4.55825E-04-1.63675E-15
 -1      1800 1.65645E-03-5.40881E-04-2.59573E-15
 -1      1801 1.79532E-03-5.55115E-04-3.07203E-15
 -1      1802 1.57217E-03-4.96780E-04-2.43317E-15
 -1      1803 1.93406E-03-5.67006E-04-3.58716E-15
 -1      1804 2.07274E-03-5.76758E-04-4.14131E-15
 -1      1805 1.85282E-03-5.25342E-04-3.38793E-15
 -1      1806 2.21152E-03-5.84789E-04-4.73445E-15
 -1      1807 2.35038E-03-5.91271E-04-5.36507E-15
 -1      1808 2.13276E-03-5.44855E-04-4.49754E-15
 -1      1809 2.48945E-03-5.96500E-04-6.03325E-15
 -1      1810 2.62870E-03-6.00617E-04-6.73864E-15
 -1      1811 2.41267E-03-5.57775E-04-5.75851E-15
 -1      1812 2.76819E-03-6.03836E-04-7.48039E-15
 -1      1813 2.90789E-03-6.06267E-04-8.25785E-15
 -1      1814 2.69294E-03-5.65939E-04-7.16724E-15
 -1      1815 3.04785E-03-6.08066E-04-9.07099E-15
 -1      1816 3.18802E-03-6.09318E-04-9.91835E-15
 -1      1817 2.97378E-03-5.70721E-04-8.72009E-15
 -1      1818 3.32844E-03-6.10134E-04-1.07995E-14
 -1      1819 3.46907E-03-6.10581E-04-1.17147E-14
 -1      1820 3.25527E-03-5.73145E-04-1.04112E-14
 -1      1821 3.60992E-03-6.10733E-04-1.26631E-14
 -1      1822 3.75095E-03-6.10640E-04-1.36440E-14
 -1      1823 3.53742E-03-5.73961E-04-1.22374E-14
 -1      1824 3.89218E-03-6.10353E-04-1.46561E-14
 -1      1825 4.03357E-03-6.09908E-04-1.56997E-14
 -1      1826 3.82019E-03-5.73708E-04-1.41944E-14
 -1      1827 4.17513E-03-6.09336E-04-1.67742E-14
 -1      1828 4.31683E-03-6.08661E-04-1.78783E-14
 -1      1829 4.10351E-03-5.72759E-04-1.62770E-14
 -1      1830 4.45867E-03-6.07900E-04-1.90119E-14
 -1      1831 4.60062E-03-6.07070E-04-2.01753E-14
 -1      1832 4.38732E-03-5.71359E-04-1.84814E-14
 -1      1833 4.74270E-03-6.06176E-04-2.13686E-14
 -1      1834 4.88488E-03-6.05226E-04-2.25906E-14
 -1      1835 4.67155E-03-5.69656E-04-2.08036E-14
 -1      1836 5.02716E-03-6.04218E-04-2.38415E-14
 -1      1837 5.16953E-03-6.03156E-04-2.51211E-14
 -1      1838 4.95615E-03-5.67721E-04-2.32429E-14
 -1      1839 5.31199E-03-6.02029E-04-2.64300E-14
 -1      1840 5.45454E-03-6.00839E-04-2.77661E-14
 -1      1841 5.24108E-03-5.65564E-04-2.57972E-14
 -1      1842 5.59718E-03-5.99568E-04-2.91297E-14
 -1      1843 5.73991E-03-5.98215E-04-3.05203E-14
 -1      1844 5.52632E-03-5.63151E-04-2.84640E-14
 -1      1845 5.88274E-03-5.96759E-04-3.19358E-14
 -1      1846 6.02568E-03-5.95197E-04-3.33778E-14
 -1      1847 5.81188E-03-5.60412E-04-3.12383E-14
 -1      1848 6.16873E-03-5.93504E-04-3.48439E-14
 -1      1849 6.31191E-03-5.91675E-04-3.63337E-14
 -1      1850 6.09781E-03-5.57249E-04-3.41149E-14
 -1      1851 6.45523E-03-5.89683E-04-3.78482E-14
 -1      1852 6.59873E-03-5.87526E-04-3.93856E-14
 -1      1853 6.38417E-03-5.53544E-04-3.70893E-14
 -1      1854 6.74241E-03-5.85172E-04-4.09455E-14
 -1      1855 6.88632E-03-5.82622E-04-4.25276E-14
 -1      1856 6.67107E-03-5.49169E-04-4.01583E-14
 -1      1857 7.03047E-03-5.79845E-04-4.41324E-14
 -1      1858 7.17494E-03-5.76848E-04-4.57595E-14
 -1      1859 6.95869E-03-5.43990E-04-4.33169E-14
 -1      1860 7.31972E-03-5.73598E-04-4.74061E-14
 -1      1861 7.46493E-03-5.70114E-04-4.90713E-14
 -1      1862 7.24724E-03-5.37892E-04-4.65621E-14
 -1      1863 7.61056E-03-5.66369E-04-5.07575E-14
 -1      1864 7.75676E-03-5.62398E-04-5.24598E-14
 -1      1865 7.53701E-03-5.30790E-04-4.98883E-14
 -1      1866 7.90351E-03-5.58185E-04-5.41777E-14
 -1      1867 8.05101E-03-5.53789E-04-5.59136E-14
 -1      1868 7.82836E-03-5.22676E-04-5.32860E-14
 -1      1869 8.19923E-03-5.49219E-04-5.76648E-14
 -1      1870 8.34843E-03-5.44572E-04-5.94288E-14
 -1      1871 8.12176E-03-5.13668E-04-5.67505E-14
 -1      1872 8.49857E-03-5.39905E-04-6.12043E-14
 -1      1873 8.64996E-03-5.35368E-04-6.29905E-14
 -1      1874 8.41777E-03-5.04107E-04-6.02705E-14
 -1      1875 8.80254E-03-5.31106E-04-6.47878E-14
 -1      1876 8.95673E-03-5.27352E-04-6.65931E-14
 -1      1877 8.71705E-03-4.94703E-04-6.38371E-14
 -1      1878 9.11240E-03-5.24401E-04-6.84061E-14
 -1      1879 9.27008E-03-5.22612E-04-7.02231E-14
 -1      1880 9.02040E-03-4.86779E-04-6.74410E-14
 -1      1881 9.42959E-03-5.22528E-04-7.20455E-14
 -1      1882 9.59153E-03-5.24709E-04-7.38740E-14
 -1      1883 9.32874E-03-4.82650E-04-7.10717E-14
 -1      1884 9.75572E-03-5.30075E-04-7.57040E-14
 -1      1885 9.92275E-03-5.39500E-04-7.75368E-14
 -1      1886 9.64320E-03-4.86197E-04-7.47190E-14
 -1      1887 1.00926E-02-5.54423E-04-7.93731E-14
 -1      1888 1.02655E-02-5.76198E-04-8.12105E-14
 -1      1889 9.96528E-03-5.03698E-04-7.83806E-14
 -1      1890 1.04419E-02-6.06813E-04-8.30503E-14
 -1      1891 1.06215E-02-6.48312E-04-8.48933E-14
 -1      1892 1.02972E-02-5.44845E-04-8.20520E-14
 -1      1893 1.08055E-02-7.02928E-04-8.67378E-14
 -1      1894 1.09923E-02-7.73339E-04-8.85828E-14
 -1      1895 1.06424E-02-6.23687E-04-8.57322E-14
 -1      1896 1.11842E-02-8.61052E-04-9.04289E-14
 -1      1897 1.13775E-02-9.68421E-04-9.22757E-14
 -1      1898 1.10059E-02-7.58356E-04-8.94206E-14
 -1      1899 1.15755E-02-1.09431E-03-9.41259E-14
 -1      1900 1.17718E-02-1.23755E-03-9.59780E-14
 -1      1901 1.13917E-02-9.66929E-04-9.31142E-14
 -1      1902 1.19689E-02-1.39197E-03-9.78317E-14
 -1      1903 1.21602E-02-1.54819E-03-9.96849E-14
 -1      1904 1.17963E-02-1.25292E-03-9.68179E-14
 -1      1905 1.23444E-02-1.69494E-03-1.01541E-13
 -1      1906 1.25229E-02-1.81556E-03-1.03399E-13
 -1      1907 1.22001E-02-1.57593E-03-1.00529E-13
 -1      1908 1.26827E-02-1.89667E-03-1.05166E-13
 -1      1909 1.28434E-02-1.93440E-03-1.06934E-13
 -1      1910 1.25706E-02-1.82737E-03-1.04156E-13
 -1      1911 1.30075E-02-1.92633E-03-1.08800E-13
 -1      1912 1.31791E-02-1.87719E-03-1.10666E-13
 -1      1913 1.29219E-02-1.90706E-03-1.07788E-13
 -1      1914 1.33533E-02-1.79539E-03-1.12536E-13
 -1      1915 1.35328E-02-1.69658E-03-1.14409E-13
 -1      1916 1.32899E-02-1.79616E-03-1.11528E-13
 -1      1917 1.37162E-02-1.59119E-03-1.16282E-13
 -1      1918 1.38976E-02-1.48961E-03-1.18159E-13
 -1      1919 1.36765E-02-1.58745E-03-1.15276E-13
 -1      1920 1.40790E-02-1.39767E-03-1.20035E-13
 -1      1921 1.42541E-02-1.31641E-03-1.21914E-13
 -1      1922 1.40616E-02-1.38387E-03-1.19031E-13
 -1      1923 1.44259E-02-1.24625E-03-1.23792E-13
 -1      1924 1.45909E-02-1.18380E-03-1.25671E-13
 -1      1925 1.44236E-02-1.22835E-03-1.22790E-13
 -1      1926 1.47514E-02-1.12619E-03-1.27556E-13
 -1      1927 1.49060E-02-1.06899E-03-1.29442E-13
 -1      1928 1.47571E-02-1.11169E-03-1.26557E-13
 -1      1929 1.50788E-02-9.98684E-04-1.31692E-13
 -1      1930 1.35854E-03 5.12112E-04-1.30920E-15
 -1      1931 1.21848E-03 4.87044E-04-1.01815E-15
 -1      1932 1.63645E-03 5.51016E-04-2.00562E-15
 -1      1933 1.49775E-03 5.33342E-04-1.63827E-15
 -1      1934 1.41125E-03 4.87358E-04-1.55327E-15
 -1      1935 1.91311E-03 5.78197E-04-2.85369E-15
 -1      1936 1.77486E-03 5.65893E-04-2.41060E-15
 -1      1937 1.69193E-03 5.22911E-04-2.29912E-15
 -1      1938 2.18972E-03 5.96811E-04-3.85225E-15
 -1      1939 2.05139E-03 5.88438E-04-3.33429E-15
 -1      1940 1.97137E-03 5.47590E-04-3.19505E-15
 -1      1941 2.46692E-03 6.09182E-04-4.99968E-15
 -1      1942 2.32823E-03 6.03672E-04-4.40754E-15
 -1      1943 2.25052E-03 5.64321E-04-4.24006E-15
 -1      1944 2.74503E-03 6.17044E-04-6.29488E-15
 -1      1945 2.60586E-03 6.13595E-04-5.62899E-15
 -1      1946 2.52993E-03 5.75279E-04-5.43241E-15
 -1      1947 3.02417E-03 6.21697E-04-7.73402E-15
 -1      1948 2.88448E-03 6.19709E-04-6.99644E-15
 -1      1949 2.80992E-03 5.82091E-04-6.76989E-15
 -1      1950 3.30435E-03 6.24108E-04-9.31580E-15
 -1      1951 3.16414E-03 6.23136E-04-8.50746E-15
 -1      1952 3.09062E-03 5.85973E-04-8.25100E-15
 -1      1953 3.58549E-03 6.24989E-04-1.10365E-14
 -1      1954 3.44481E-03 6.24706E-04-1.01583E-14
 -1      1955 3.37206E-03 5.87828E-04-9.87215E-15
 -1      1956 3.86749E-03 6.24848E-04-1.28941E-14
 -1      1957 3.72640E-03 6.25022E-04-1.19479E-14
 -1      1958 3.65422E-03 5.88313E-04-1.16313E-14
 -1      1959 4.15024E-03 6.24038E-04-1.48869E-14
 -1      1960 4.00878E-03 6.24510E-04-1.38742E-14
 -1      1961 3.93702E-03 5.87893E-04-1.35271E-14
 -1      1962 4.43362E-03 6.22790E-04-1.70080E-14
 -1      1963 4.29186E-03 6.23457E-04-1.59320E-14
 -1      1964 4.22040E-03 5.86887E-04-1.55541E-14
 -1      1965 4.71753E-03 6.21243E-04-1.92523E-14
 -1      1966 4.57551E-03 6.22047E-04-1.81149E-14
 -1      1967 4.50427E-03 5.85499E-04-1.77077E-14
 -1      1968 5.00189E-03 6.19463E-04-2.16134E-14
 -1      1969 4.85966E-03 6.20378E-04-2.04185E-14
 -1      1970 4.78857E-03 5.83845E-04-1.99822E-14
 -1      1971 5.28666E-03 6.17465E-04-2.40893E-14
 -1      1972 5.14423E-03 6.18491E-04-2.28371E-14
 -1      1973 5.07324E-03 5.81974E-04-2.23730E-14
 -1      1974 5.57179E-03 6.15223E-04-2.66789E-14
 -1      1975 5.42918E-03 6.16375E-04-2.53698E-14
 -1      1976 5.35826E-03 5.79887E-04-2.48788E-14
 -1      1977 5.85731E-03 6.12685E-04-2.93805E-14
 -1      1978 5.71450E-03 6.13993E-04-2.80158E-14
 -1      1979 5.64359E-03 5.77545E-04-2.74970E-14
 -1      1980 6.14324E-03 6.09785E-04-3.21903E-14
 -1      1981 6.00022E-03 6.11282E-04-3.07726E-14
 -1      1982 5.92927E-03 5.74890E-04-3.02266E-14
 -1      1983 6.42967E-03 6.06455E-04-3.50981E-14
 -1      1984 6.28639E-03 6.08175E-04-3.36326E-14
 -1      1985 6.21534E-03 5.71848E-04-3.30625E-14
 -1      1986 6.71672E-03 6.02646E-04-3.80964E-14
 -1      1987 6.57311E-03 6.04611E-04-3.65864E-14
 -1      1988 6.50188E-03 5.68351E-04-3.59931E-14
 -1      1989 7.00456E-03 5.98344E-04-4.11747E-14
 -1      1990 6.86053E-03 6.00554E-04-3.96254E-14
 -1      1991 6.78899E-03 5.64349E-04-3.90116E-14
 -1      1992 7.29340E-03 5.93601E-04-4.43278E-14
 -1      1993 7.14884E-03 5.96019E-04-4.27419E-14
 -1      1994 7.07683E-03 5.59835E-04-4.21093E-14
 -1      1995 7.58349E-03 5.88568E-04-4.75580E-14
 -1      1996 7.43827E-03 5.91105E-04-4.59343E-14
 -1      1997 7.36560E-03 5.54875E-04-4.52830E-14
 -1      1998 7.87512E-03 5.83549E-04-5.08603E-14
 -1      1999 7.72909E-03 5.86032E-04-4.92003E-14
 -1      2000 7.65551E-03 5.49647E-04-4.85315E-14
 -1      2001 8.16860E-03 5.79044E-04-5.42322E-14
 -1      2002 8.02160E-03 5.81194E-04-5.25376E-14
 -1      2003 7.94682E-03 5.44486E-04-5.18519E-14
 -1      2004 8.46418E-03 5.75813E-04-5.76680E-14
 -1      2005 8.31610E-03 5.77216E-04-5.59424E-14
 -1      2006 8.23981E-03 5.39945E-04-5.52405E-14
 -1      2007 8.76208E-03 5.74924E-04-6.11667E-14
 -1      2008 8.61283E-03 5.75007E-04-5.94105E-14
 -1      2009 8.53473E-03 5.36851E-04-5.86919E-14
 -1      2010 9.06236E-03 5.77772E-04-6.47177E-14
 -1      2011 8.91194E-03 5.75797E-04-6.29353E-14
 -1      2012 8.83179E-03 5.36350E-04-6.22021E-14
 -1      2013 9.36482E-03 5.86036E-04-6.83187E-14
 -1      2014 9.21336E-03 5.81134E-04-6.65111E-14
 -1      2015 9.13110E-03 5.39927E-04-6.57632E-14
 -1      2016 9.66893E-03 6.01512E-04-7.19653E-14
 -1      2017 9.51676E-03 5.92785E-04-7.01368E-14
 -1      2018 9.43260E-03 5.49339E-04-6.93727E-14
 -1      2019 9.97365E-03 6.25763E-04-7.56490E-14
 -1      2020 9.82135E-03 6.12485E-04-7.38035E-14
 -1      2021 9.73592E-03 5.66431E-04-7.30258E-14
 -1      2022 1.02774E-02 6.59524E-04-7.93705E-14
 -1      2023 1.01258E-02 6.41474E-04-7.75063E-14
 -1      2024 1.00403E-02 5.92738E-04-7.67149E-14
 -1      2025 1.05781E-02 7.01848E-04-8.31224E-14
 -1      2026 1.04284E-02 6.79762E-04-8.12419E-14
 -1      2027 1.03445E-02 6.28827E-04-8.04377E-14
 -1      2028 1.08731E-02 7.49154E-04-8.69004E-14
 -1      2029 1.07266E-02 7.25206E-04-8.50079E-14
 -1      2030 1.06466E-02 6.73386E-04-8.41872E-14
 -1      2031 1.11602E-02 7.94523E-04-9.06972E-14
 -1      2032 1.10179E-02 7.72610E-04-8.87976E-14
 -1      2033 1.09443E-02 7.22202E-04-8.79629E-14
 -1      2034 1.14376E-02 8.27822E-04-9.45058E-14
 -1      2035 1.13002E-02 8.13359E-04-9.26022E-14
 -1      2036 1.12352E-02 7.67476E-04-9.17566E-14
 -1      2037 1.17054E-02 8.37209E-04-9.83227E-14
 -1      2038 1.15726E-02 8.36196E-04-9.64116E-14
 -1      2039 1.15176E-02 7.98135E-04-9.55590E-14
 -1      2040 1.19655E-02 8.11954E-04-1.02149E-13
 -1      2041 1.18360E-02 8.29415E-04-1.00234E-13
 -1      2042 1.17915E-02 8.01709E-04-9.93719E-14
 -1      2043 1.22216E-02 7.45656E-04-1.05990E-13
 -1      2044 1.20936E-02 7.84095E-04-1.04068E-13
 -1      2045 1.20591E-02 7.67630E-04-1.03196E-13
 -1      2046 1.24782E-02 6.38192E-04-1.09851E-13
 -1      2047 1.23495E-02 6.96847E-04-1.07920E-13
 -1      2048 1.23242E-02 6.90657E-04-1.07039E-13
 -1      2049 1.27387E-02 4.95305E-04-1.13725E-13
 -1      2050 1.26077E-02 5.70684E-04-1.11786E-13
 -1      2051 1.25908E-02 5.72497E-04-1.10897E-13
 -1      2052 1.30050E-02 3.26177E-04-1.17614E-13
 -1      2053 1.28711E-02 4.13442E-04-1.15667E-13
 -1      2054 1.28615E-02 4.20624E-04-1.14771E-13
 -1      2055 1.32772E-02 1.40535E-04-1.21510E-13
 -1      2056 1.31404E-02 2.34887E-04-1.19561E-13
 -1      2057 1.31370E-02 2.45167E-04-1.18656E-13
 -1      2058 1.35545E-02-5.30916E-05-1.25414E-13
 -1      2059 1.34153E-02 4.42745E-05-1.23464E-13
 -1      2060 1.34165E-02 5.58713E-05-1.22554E-13
 -1      2061 1.38077E-02-2.29302E-04-1.28998E-13
 -1      2062 1.36668E-02-1.32276E-04-1.27044E-13
 -1      2063 1.36707E-02-1.20864E-04-1.26135E-13
 -1      2064 1.38981E-02-2.79050E-04-1.29399E-13
 -1      2065 1.43836E-02-5.25228E-04-1.29745E-13
 -1      2066 1.42860E-02-4.78482E-04-1.29674E-13
 -1      2067 1.41931E-02-4.31561E-04-1.29601E-13
 -1      2068 1.41042E-02-3.85441E-04-1.29529E-13
 -1      2069 1.41118E-02-3.69785E-04-1.27945E-13
 -1      2070 1.39837E-02-3.23069E-04-1.29474E-13
 -1      2071 1.45977E-02-6.17852E-04-1.29876E-13
 -1      2072 1.44873E-02-5.72262E-04-1.29811E-13
 -1      2073 1.43057E-02-4.64966E-04-1.28087E-13
 -1      2074 1.48389E-02-7.04339E-04-1.29997E-13
 -1      2075 1.47150E-02-6.62693E-04-1.29937E-13
 -1      2076 1.45256E-02-5.60910E-04-1.28218E-13
 -1      2077 1.50960E-02-7.76486E-04-1.30114E-13
 -1      2078 1.49658E-02-7.42883E-04-1.30055E-13
 -1      2079 1.47719E-02-6.52415E-04-1.28343E-13
 -1      2080 1.53568E-02-8.29058E-04-1.30232E-13
 -1      2081 1.52284E-02-8.06030E-04-1.30173E-13
 -1      2082 1.50380E-02-7.33132E-04-1.28465E-13
 -1      2083 1.55801E-02-8.55535E-04-1.30361E-13
 -1      2084 1.54758E-02-8.45416E-04-1.30297E-13
 -1      2085 1.53014E-02-7.94447E-04-1.28593E-13
 -1      2086 1.57213E-02-8.58782E-04-1.30487E-13
 -1      2087 1.56628E-02-8.58746E-04-1.30422E-13
 -1      2088 1.55162E-02-8.29020E-04-1.28724E-13
 -1      2089 1.57553E-02-8.51758E-04-1.30617E-13
 -1      2090 1.57530E-02-8.54581E-04-1.30554E-13
 -1      2091 1.56390E-02-8.41332E-04-1.28855E-13
 -1      2092 1.56782E-02-8.52289E-04-1.30745E-13
 -1      2093 1.57294E-02-8.49349E-04-1.30680E-13
 -1      2094 1.56424E-02-8.47448E-04-1.28989E-13
 -1      2095 1.55190E-02-8.73610E-04-1.30868E-13
 -1      2096 1.56063E-02-8.59681E-04-1.30806E-13
 -1      2097 1.55336E-02-8.66895E-04-1.29120E-13
 -1      2098 1.53202E-02-9.18741E-04-1.30985E-13
 -1      2099 1.54221E-02-8.93595E-04-1.30928E-13
 -1      2100 1.53517E-02-9.10099E-04-1.29247E-13
 -1      2101 1.10812E-03 4.68623E-04-8.00561E-16
 -1      2102 9.65727E-04 4.34244E-04-5.80387E-16
 -1      2103 9.33481E-04 4.04792E-04-6.02613E-16
 -1      2104 1.15831E-03 4.47912E-04-9.99296E-16
 -1      2105 1.46643E-02-5.44747E-04-1.14968E-13
 -1      2106 1.48370E-02-6.17018E-04-1.15607E-13
 -1      2107 1.38161E-02-1.34280E-04-1.12151E-13
 -1      2108 1.40442E-02-2.50611E-04-1.12893E-13
 -1      2109 1.51833E-02-7.43243E-04-1.16301E-13
 -1      2110 1.51948E-02-7.66271E-04-1.16403E-13
 -1      2111 1.42678E-02-3.57899E-04-1.13599E-13
 -1      2112 1.44698E-02-4.53997E-04-1.14262E-13
 -1      2113 1.45438E-02-5.32421E-04-1.15393E-13
 -1      2114 1.41373E-02-3.43629E-04-1.13982E-13
 -1      2115 3.27129E-04-8.89517E-05-2.34594E-16
 -1      2116 3.29247E-04-1.02095E-04-2.28035E-16
 -1      2117 4.46328E-04-1.45063E-04-3.32362E-16
 -1      2118 4.39989E-04-1.09906E-04-3.49818E-16
 -1      2119 1.33074E-02 1.69765E-04-1.09734E-13
 -1      2120 1.34936E-02 4.41672E-05-1.10826E-13
 -1      2121 1.29685E-02 3.58814E-04-1.07727E-13
 -1      2122 1.31341E-02 2.69549E-04-1.08730E-13
 -1      2123 1.31715E-02 2.15006E-04-1.09624E-13
 -1      2124 1.26160E-02 4.86506E-04-1.05237E-13
 -1      2125 1.27780E-02 4.41028E-04-1.06361E-13
 -1      2126 1.22580E-02 4.88934E-04-1.02708E-13
 -1      2127 1.24122E-02 5.05596E-04-1.03801E-13
 -1      2128 1.19428E-02 3.91069E-04-1.00627E-13
 -1      2129 1.21002E-02 4.51590E-04-1.01665E-13
 -1      2130 1.21822E-02 4.82185E-04-1.01977E-13
 -1      2131 1.15501E-02 2.07432E-04-9.85387E-14
 -1      2132 1.17226E-02 2.94512E-04-9.93912E-14
 -1      2133 1.11726E-02 1.81118E-05-9.68985E-14
 -1      2134 1.13515E-02 1.08801E-04-9.76373E-14
 -1      2135 1.07870E-02-1.59749E-04-9.54930E-14
 -1      2136 1.09618E-02-8.39065E-05-9.60381E-14
 -1      2137 1.04763E-02-2.79872E-04-9.46622E-14
 -1      2138 1.06151E-02-2.26124E-04-9.50952E-14
 -1      2139 1.02628E-02-3.60891E-04-9.40976E-14
 -1      2140 1.03428E-02-3.32713E-04-9.42190E-14
 -1      2141 1.02065E-02-4.09204E-04-9.40915E-14
 -1      2142 1.02172E-02-3.88133E-04-9.40922E-14
 -1      2143 1.02334E-02-3.72420E-04-9.32673E-14
 -1      2144 1.03193E-02-4.74834E-04-9.44680E-14
 -1      2145 1.02452E-02-4.42814E-04-9.41954E-14
 -1      2146 1.05885E-02-5.95528E-04-9.54446E-14
 -1      2147 1.04447E-02-5.33271E-04-9.49602E-14
 -1      2148 1.09704E-02-7.89660E-04-9.67762E-14
 -1      2149 1.07883E-02-6.89402E-04-9.60801E-14
 -1      2150 1.13829E-02-1.03042E-03-9.82608E-14
 -1      2151 1.11706E-02-9.04863E-04-9.75198E-14
 -1      2152 1.10921E-02-8.07495E-04-9.64514E-14
 -1      2153 1.18618E-02-1.36450E-03-1.00474E-13
 -1      2154 1.16670E-02-1.21588E-03-9.94447E-14
 -1      2155 1.22386E-02-1.63643E-03-1.02776E-13
 -1      2156 1.20629E-02-1.51703E-03-1.01730E-13
 -1      2157 1.25881E-02-1.80449E-03-1.04994E-13
 -1      2158 1.24182E-02-1.73348E-03-1.03884E-13
 -1      2159 1.23494E-02-1.68953E-03-1.03173E-13
 -1      2160 1.29657E-02-1.82966E-03-1.07534E-13
 -1      2161 1.28049E-02-1.84341E-03-1.06458E-13
 -1      2162 1.33150E-02-1.71193E-03-1.09640E-13
 -1      2163 1.31456E-02-1.78409E-03-1.08623E-13
 -1      2164 1.37218E-02-1.48975E-03-1.11819E-13
 -1      2165 1.35330E-02-1.59835E-03-1.10950E-13
 -1      2166 1.41568E-02-1.25720E-03-1.13350E-13
 -1      2167 1.39510E-02-1.37424E-03-1.12546E-13
 -1      2168 1.45954E-02-1.03618E-03-1.14817E-13
 -1      2169 1.43980E-02-1.12778E-03-1.14263E-13
 -1      2170 1.49306E-02-8.88316E-04-1.15892E-13
 -1      2171 1.47811E-02-9.48565E-04-1.15455E-13
 -1      2172 1.51539E-02-8.00438E-04-1.16409E-13
 -1      2173 1.50722E-02-8.32181E-04-1.16225E-13
 -1      2174 1.50278E-02-6.82872E-04-1.16051E-13
 -1      2175 1.51272E-02-7.12814E-04-1.16180E-13
 -1      2176 1.50880E-02-9.96018E-04-1.30699E-13
 -1      2177 6.07930E-04-2.98091E-04-3.59210E-16
 -1      2178 1.18482E-02 3.51057E-04-9.97006E-14
 -1      2179 1.36196E-02-5.83325E-05-1.11953E-13
 -1      2180 6.63650E-04-2.92371E-04-4.78526E-16
 -1      2181 1.39022E-02-2.60674E-04-1.27819E-13
 -1      2182 1.51661E-02-7.42841E-04-1.17102E-13
 -1      2183 1.51569E-02-9.71551E-04-1.30544E-13
 -1      2184 1.48400E-02-6.62999E-04-1.17032E-13
 -1      2185 1.49368E-02-6.75304E-04-1.16540E-13
 -1      2186 1.50215E-02-7.12767E-04-1.17472E-13
 -1      2187 1.51872E-02-7.81812E-04-1.17224E-13
 -1      2188 1.50063E-02-8.45884E-04-1.16894E-13
 -1      2189 1.46803E-02-9.69096E-04-1.15921E-13
 -1      2190 1.42630E-02-1.17281E-03-1.14369E-13
 -1      2191 1.38114E-02-1.42022E-03-1.12728E-13
 -1      2192 1.34122E-02-1.65670E-03-1.10691E-13
 -1      2193 1.27027E-02-1.84276E-03-1.05741E-13
 -1      2194 1.26198E-02-1.82313E-03-1.05025E-13
 -1      2195 1.27955E-02-1.86122E-03-1.06486E-13
 -1      2196 1.15511E-02-1.10219E-03-9.83756E-14
 -1      2197 1.07018E-02-6.08805E-04-9.50771E-14
 -1      2198 1.02149E-02-4.10728E-04-9.33622E-14
 -1      2199 1.04041E-02-3.16416E-04-9.37167E-14
 -1      2200 1.07069E-02-2.07885E-04-9.45557E-14
 -1      2201 1.10715E-02-4.77463E-05-9.58090E-14
 -1      2202 1.28512E-02 4.02644E-04-1.07253E-13
 -1      2203 1.24959E-02 5.08464E-04-1.04453E-13
 -1      2204 1.14614E-02 1.51310E-04-9.75673E-14
 -1      2205 1.03806E-02-4.75186E-04-9.39541E-14
 -1      2206 1.19990E-02-1.43823E-03-1.00810E-13
 -1      2207 1.30487E-02-1.81857E-03-1.08291E-13
 -1      2208 1.50801E-02-9.95310E-04-1.28876E-13
 -1      2209 5.47750E-04-5.52821E-05-5.12489E-16
 -1      2210 5.48791E-04-7.19934E-05-5.12082E-16
 -1      2211 5.50218E-04-8.93107E-05-5.10185E-16
 -1      2212 5.52094E-04-1.07284E-04-5.06553E-16
 -1      2213 6.65254E-04-9.54654E-05-6.91789E-16
 -1      2214 5.46361E-04 8.85420E-06-5.03070E-16
 -1      2215 5.46341E-04-6.97838E-06-5.06865E-16
 -1      2216 5.47119E-04 4.08555E-05-4.91835E-16
 -1      2217 5.46617E-04 2.47858E-05-4.98096E-16
 -1      2218 6.61288E-04 1.99255E-05-6.77830E-16
 -1      2219 5.48954E-04 7.34686E-05-4.76493E-16
 -1      2220 5.47887E-04 5.69803E-05-4.84882E-16
 -1      2221 6.62620E-04 5.77711E-05-6.62407E-16
 -1      2222 5.52359E-04 1.08935E-04-4.55094E-16
 -1      2223 5.50429E-04 9.08625E-05-4.66695E-16
 -1      2224 6.65494E-04 9.72301E-05-6.40682E-16
 -1      2225 5.58247E-04 1.48272E-04-4.24384E-16
 -1      2226 5.54928E-04 1.28043E-04-4.41175E-16
 -1      2227 6.70604E-04 1.39992E-04-6.10446E-16
 -1      2228 5.68623E-04 1.93852E-04-3.81260E-16
 -1      2229 5.62720E-04 1.70156E-04-4.04882E-16
 -1      2230 6.79253E-04 1.87538E-04-5.68420E-16
 -1      2231 5.88070E-04 2.49468E-04-3.19623E-16
 -1      2232 5.76925E-04 2.20209E-04-3.53369E-16
 -1      2233 6.94266E-04 2.42462E-04-5.10049E-16
 -1      2234 6.42209E-04 3.01270E-04-3.02506E-16
 -1      2235 6.14478E-04 2.73769E-04-3.14920E-16
 -1      2236 7.31581E-04 2.97769E-04-4.70259E-16
 -1      2237 7.88666E-04 3.49661E-04-4.56002E-16
 -1      2238 9.15237E-04-3.46326E-04-9.07030E-16
 -1      2239 1.05935E-03-3.79636E-04-1.18834E-15
 -1      2240 1.17473E-02 3.05190E-04-9.86238E-14
 -1      2241 1.19293E-02 3.98927E-04-9.98560E-14
 -1      2242 1.37867E-02-1.80876E-04-1.26188E-13
 -1      2243 1.20261E-03-4.08026E-04-1.50933E-15
 -1      2244 1.34543E-03-4.31901E-04-1.87019E-15
 -1      2245 1.11703E-03-3.60451E-04-1.38157E-15
 -1      2246 1.48762E-03-4.52121E-04-2.27094E-15
 -1      2247 1.62941E-03-4.68962E-04-2.71106E-15
 -1      2248 1.40337E-03-4.07224E-04-2.10914E-15
 -1      2249 1.77084E-03-4.83098E-04-3.18963E-15
 -1      2250 1.91203E-03-4.94745E-04-3.70693E-15
 -1      2251 1.68851E-03-4.40465E-04-2.99244E-15
 -1      2252 2.05307E-03-5.04396E-04-4.26213E-15
 -1      2253 2.19400E-03-5.12229E-04-4.85567E-15
 -1      2254 1.97271E-03-4.63524E-04-4.02894E-15
 -1      2255 2.33491E-03-5.18604E-04-5.48582E-15
 -1      2256 2.47580E-03-5.23664E-04-6.15301E-15
 -1      2257 2.25636E-03-4.79046E-04-5.21505E-15
 -1      2258 2.61676E-03-5.27674E-04-6.85668E-15
 -1      2259 2.75777E-03-5.30749E-04-7.59600E-15
 -1      2260 2.53978E-03-4.89069E-04-6.54842E-15
 -1      2261 2.89888E-03-5.33079E-04-8.37123E-15
 -1      2262 3.04006E-03-5.34756E-04-9.18140E-15
 -1      2263 2.82321E-03-4.95148E-04-8.02518E-15
 -1      2264 3.18137E-03-5.35919E-04-1.00253E-14
 -1      2265 3.32278E-03-5.36635E-04-1.09032E-14
 -1      2266 3.10679E-03-4.98451E-04-9.64196E-15
 -1      2267 3.46431E-03-5.37003E-04-1.18149E-14
 -1      2268 3.60593E-03-5.37074E-04-1.27592E-14
 -1      2269 3.39060E-03-4.99848E-04-1.13948E-14
 -1      2270 3.74768E-03-5.36916E-04-1.37354E-14
 -1      2271 3.88951E-03-5.36566E-04-1.47436E-14
 -1      2272 3.67466E-03-4.99966E-04-1.32794E-14
 -1      2273 4.03146E-03-5.36068E-04-1.57823E-14
 -1      2274 4.17349E-03-5.35447E-04-1.68526E-14
 -1      2275 3.95899E-03-4.99250E-04-1.52913E-14
 -1      2276 4.31562E-03-5.34729E-04-1.79531E-14
 -1      2277 4.45782E-03-5.33932E-04-1.90830E-14
 -1      2278 4.24356E-03-4.97999E-04-1.74268E-14
 -1      2279 4.60011E-03-5.33068E-04-2.02414E-14
 -1      2280 4.74246E-03-5.32147E-04-2.14302E-14
 -1      2281 4.52837E-03-4.96401E-04-1.96826E-14
 -1      2282 4.88489E-03-5.31171E-04-2.26477E-14
 -1      2283 5.02738E-03-5.30143E-04-2.38934E-14
 -1      2284 4.81339E-03-4.94559E-04-2.20545E-14
 -1      2285 5.16995E-03-5.29059E-04-2.51684E-14
 -1      2286 5.31257E-03-5.27918E-04-2.64712E-14
 -1      2287 5.09861E-03-4.92509E-04-2.45427E-14
 -1      2288 5.45526E-03-5.26707E-04-2.78017E-14
 -1      2289 5.59801E-03-5.25425E-04-2.91597E-14
 -1      2290 5.38402E-03-4.90233E-04-2.71432E-14
 -1      2291 5.74083E-03-5.24052E-04-3.05440E-14
 -1      2292 5.88373E-03-5.22585E-04-3.19543E-14
 -1      2293 5.66962E-03-4.87678E-04-2.98531E-14
 -1      2294 6.02670E-03-5.21001E-04-3.33895E-14
 -1      2295 6.16975E-03-5.19293E-04-3.48494E-14
 -1      2296 5.95543E-03-4.84756E-04-3.26677E-14
 -1      2297 6.31290E-03-5.17437E-04-3.63347E-14
 -1      2298 6.45615E-03-5.15427E-04-3.78432E-14
 -1      2299 6.24148E-03-4.81357E-04-3.55832E-14
 -1      2300 6.59952E-03-5.13233E-04-3.93748E-14
 -1      2301 6.74302E-03-5.10852E-04-4.09289E-14
 -1      2302 6.52783E-03-4.77356E-04-3.85949E-14
 -1      2303 6.88667E-03-5.08255E-04-4.25052E-14
 -1      2304 7.03050E-03-5.05440E-04-4.41036E-14
 -1      2305 6.81453E-03-4.72623E-04-4.16973E-14
 -1      2306 7.17450E-03-5.02379E-04-4.57244E-14
 -1      2307 7.31874E-03-4.99077E-04-4.73642E-14
 -1      2308 7.10167E-03-4.67031E-04-4.48889E-14
 -1      2309 7.46320E-03-4.95511E-04-4.90240E-14
 -1      2310 7.60796E-03-4.91695E-04-5.07031E-14
 -1      2311 7.38936E-03-4.60482E-04-4.81641E-14
 -1      2312 7.75299E-03-4.87619E-04-5.23991E-14
 -1      2313 7.89841E-03-4.83310E-04-5.41107E-14
 -1      2314 7.67770E-03-4.52931E-04-5.15148E-14
 -1      2315 8.04416E-03-4.78783E-04-5.58397E-14
 -1      2316 8.19040E-03-4.74086E-04-5.75850E-14
 -1      2317 7.96682E-03-4.44430E-04-5.49339E-14
 -1      2318 8.33703E-03-4.69275E-04-5.93423E-14
 -1      2319 8.48425E-03-4.64431E-04-6.11114E-14
 -1      2320 8.25681E-03-4.35201E-04-5.84153E-14
 -1      2321 8.63194E-03-4.59684E-04-6.28911E-14
 -1      2322 8.78035E-03-4.55165E-04-6.46809E-14
 -1      2323 8.54778E-03-4.25739E-04-6.19481E-14
 -1      2324 8.92929E-03-4.51119E-04-6.64788E-14
 -1      2325 9.07911E-03-4.47758E-04-6.82850E-14
 -1      2326 8.83977E-03-4.16974E-04-6.55203E-14
 -1      2327 9.22955E-03-4.45510E-04-7.00984E-14
 -1      2328 9.38106E-03-4.44718E-04-7.19160E-14
 -1      2329 9.13284E-03-4.10514E-04-6.91262E-14
 -1      2330 9.53337E-03-4.46070E-04-7.37368E-14
 -1      2331 9.68701E-03-4.50141E-04-7.55622E-14
 -1      2332 9.42714E-03-4.08996E-04-7.27570E-14
 -1      2333 9.84182E-03-4.57950E-04-7.73911E-14
 -1      2334 9.99844E-03-4.70487E-04-7.92224E-14
 -1      2335 9.72323E-03-4.16579E-04-7.64028E-14
 -1      2336 1.01570E-02-4.89105E-04-8.10560E-14
 -1      2337 1.03183E-02-5.15534E-04-8.28914E-14
 -1      2338 1.00228E-02-4.39599E-04-8.00614E-14
 -1      2339 1.04833E-02-5.51272E-04-8.47297E-14
 -1      2340 1.06524E-02-5.99379E-04-8.65698E-14
 -1      2341 1.03298E-02-4.87440E-04-8.37290E-14
 -1      2342 1.08280E-02-6.60999E-04-8.84125E-14
 -1      2343 1.10097E-02-7.40797E-04-9.02561E-14
 -1      2344 1.06528E-02-5.74065E-04-8.74048E-14
 -1      2345 1.12014E-02-8.38789E-04-9.21018E-14
 -1      2346 1.13997E-02-9.60218E-04-9.39509E-14
 -1      2347 1.10053E-02-7.19651E-04-9.10893E-14
 -1      2348 1.16101E-02-1.10183E-03-9.58016E-14
 -1      2349 1.18222E-02-1.26358E-03-9.76570E-14
 -1      2350 1.14030E-02-9.49863E-04-9.47843E-14
 -1      2351 1.20532E-02-1.45104E-03-9.95342E-14
 -1      2352 1.22611E-02-1.61521E-03-1.01392E-13
 -1      2353 1.24580E-02-1.75651E-03-1.03210E-13
 -1      2354 1.26433E-02-1.84943E-03-1.04980E-13
 -1      2355 1.28240E-02-1.89060E-03-1.06796E-13
 -1      2356 1.30171E-02-1.87476E-03-1.08664E-13
 -1      2357 1.32120E-02-1.80346E-03-1.10529E-13
 -1      2358 1.34154E-02-1.70392E-03-1.12402E-13
 -1      2359 1.36280E-02-1.58292E-03-1.14273E-13
 -1      2360 1.38343E-02-1.46948E-03-1.16149E-13
 -1      2361 1.40393E-02-1.36707E-03-1.18029E-13
 -1      2362 1.42324E-02-1.27947E-03-1.19910E-13
 -1      2363 1.40171E-02-1.34634E-03-1.17026E-13
 -1      2364 1.44183E-02-1.20814E-03-1.21790E-13
 -1      2365 1.45930E-02-1.14724E-03-1.23672E-13
 -1      2366 1.44146E-02-1.18159E-03-1.20788E-13
 -1      2367 1.47637E-02-1.09025E-03-1.25326E-13
 -1      2368 1.49230E-02-1.04347E-03-1.27215E-13
 -1      2369 1.50956E-02-9.79537E-04-1.27643E-13
 -1      2370 1.47705E-02-1.06735E-03-1.24325E-13
 -1      2371 2.03109E-03 5.16174E-04-3.54273E-15
 -1      2372 1.89037E-03 5.06134E-04-3.05277E-15
 -1      2373 1.74947E-03 4.93899E-04-2.59954E-15
 -1      2374 1.60832E-03 4.79267E-04-2.18379E-15
 -1      2375 1.80874E-03 4.64215E-04-2.90750E-15
 -1      2376 1.46682E-03 4.61639E-04-1.80547E-15
 -1      2377 1.32479E-03 4.40771E-04-1.46403E-15
 -1      2378 1.52454E-03 4.35203E-04-2.06488E-15
 -1      2379 2.31233E-03 5.31137E-04-4.63327E-15
 -1      2380 2.17173E-03 5.24454E-04-4.06958E-15
 -1      2381 2.09213E-03 4.84149E-04-3.89672E-15
 -1      2382 2.59364E-03 5.40794E-04-5.87010E-15
 -1      2383 2.45297E-03 5.36539E-04-5.23343E-15
 -1      2384 2.37513E-03 4.97413E-04-5.03227E-15
 -1      2385 2.87527E-03 5.46659E-04-7.24952E-15
 -1      2386 2.73442E-03 5.44132E-04-6.54202E-15
 -1      2387 2.65807E-03 5.05846E-04-6.31201E-15
 -1      2388 3.15736E-03 5.49862E-04-8.77139E-15
 -1      2389 3.01627E-03 5.48541E-04-7.99267E-15
 -1      2390 2.94114E-03 5.10839E-04-7.73357E-15
 -1      2391 3.43995E-03 5.51239E-04-1.04320E-14
 -1      2392 3.29860E-03 5.50741E-04-9.58463E-15
 -1      2393 3.22446E-03 5.13433E-04-9.29529E-15
 -1      2394 3.72304E-03 5.51393E-04-1.22297E-14
 -1      2395 3.58144E-03 5.51441E-04-1.13140E-14
 -1      2396 3.50809E-03 5.14393E-04-1.09953E-14
 -1      2397 4.00659E-03 5.50749E-04-1.41617E-14
 -1      2398 3.86477E-03 5.51151E-04-1.31788E-14
 -1      2399 3.79203E-03 5.14270E-04-1.28309E-14
 -1      2400 4.29057E-03 5.49591E-04-1.62227E-14
 -1      2401 4.14854E-03 5.50221E-04-1.51767E-14
 -1      2402 4.07627E-03 5.13445E-04-1.47978E-14
 -1      2403 4.57491E-03 5.48097E-04-1.84087E-14
 -1      2404 4.43270E-03 5.48878E-04-1.73008E-14
 -1      2405 4.36080E-03 5.12171E-04-1.68929E-14
 -1      2406 4.85958E-03 5.46363E-04-2.07130E-14
 -1      2407 4.71721E-03 5.47256E-04-1.95459E-14
 -1      2408 4.64558E-03 5.10601E-04-1.91108E-14
 -1      2409 5.14454E-03 5.44422E-04-2.31348E-14
 -1      2410 5.00203E-03 5.45417E-04-2.19099E-14
 -1      2411 4.93059E-03 5.08811E-04-2.14463E-14
 -1      2412 5.42978E-03 5.42262E-04-2.56699E-14
 -1      2413 5.28713E-03 5.43370E-04-2.43880E-14
 -1      2414 5.21581E-03 5.06820E-04-2.38978E-14
 -1      2415 5.71529E-03 5.39835E-04-2.83176E-14
 -1      2416 5.57250E-03 5.41084E-04-2.69795E-14
 -1      2417 5.50124E-03 5.04604E-04-2.64631E-14
 -1      2418 6.00110E-03 5.37075E-04-3.10748E-14
 -1      2419 5.85815E-03 5.38500E-04-2.96829E-14
 -1      2420 5.78688E-03 5.02108E-04-2.91395E-14
 -1      2421 6.28724E-03 5.33906E-04-3.39346E-14
 -1      2422 6.14412E-03 5.35545E-04-3.24929E-14
 -1      2423 6.07276E-03 4.99260E-04-3.19239E-14
 -1      2424 6.57380E-03 5.30256E-04-3.68880E-14
 -1      2425 6.43046E-03 5.32143E-04-3.53998E-14
 -1      2426 6.35891E-03 4.95980E-04-3.48083E-14
 -1      2427 6.86087E-03 5.26081E-04-3.99271E-14
 -1      2428 6.71726E-03 5.28234E-04-3.83978E-14
 -1      2429 6.64540E-03 4.92199E-04-3.77842E-14
 -1      2430 7.14858E-03 5.21379E-04-4.30453E-14
 -1      2431 7.00463E-03 5.23792E-04-4.14768E-14
 -1      2432 6.93232E-03 4.87873E-04-4.08439E-14
 -1      2433 7.43711E-03 5.16231E-04-4.62387E-14
 -1      2434 7.29273E-03 5.18852E-04-4.46324E-14
 -1      2435 7.21977E-03 4.83011E-04-4.39822E-14
 -1      2436 7.72666E-03 5.10838E-04-4.95056E-14
 -1      2437 7.58174E-03 5.13548E-04-4.78632E-14
 -1      2438 7.50791E-03 4.77705E-04-4.71946E-14
 -1      2439 8.01746E-03 5.05567E-04-5.28446E-14
 -1      2440 7.87188E-03 5.08158E-04-5.11656E-14
 -1      2441 7.79692E-03 4.72176E-04-5.04808E-14
 -1      2442 8.30978E-03 5.01016E-04-5.62485E-14
 -1      2443 8.16341E-03 5.03158E-04-5.45387E-14
 -1      2444 8.08703E-03 4.66818E-04-5.38375E-14
 -1      2445 8.60388E-03 4.98066E-04-5.97148E-14
 -1      2446 8.45658E-03 4.99279E-04-5.79738E-14
 -1      2447 8.37851E-03 4.62264E-04-5.72573E-14
 -1      2448 8.90004E-03 4.97931E-04-6.32365E-14
 -1      2449 8.75169E-03 4.97565E-04-6.14691E-14
 -1      2450 8.67170E-03 4.59440E-04-6.07371E-14
 -1      2451 9.19849E-03 5.02168E-04-6.68090E-14
 -1      2452 9.04899E-03 4.99403E-04-6.50172E-14
 -1      2453 8.96698E-03 4.59610E-04-6.42719E-14
 -1      2454 9.49935E-03 5.12603E-04-7.04271E-14
 -1      2455 9.34865E-03 5.06498E-04-6.86123E-14
 -1      2456 9.26473E-03 4.64389E-04-6.78544E-14
 -1      2457 9.80251E-03 5.31123E-04-7.40838E-14
 -1      2458 9.65071E-03 5.20744E-04-7.22511E-14
 -1      2459 9.56535E-03 4.75666E-04-7.14783E-14
 -1      2460 1.01075E-02 5.59256E-04-7.77769E-14
 -1      2461 9.95492E-03 5.43920E-04-7.59259E-14
 -1      2462 9.86905E-03 4.95389E-04-7.51396E-14
 -1      2463 1.04134E-02 5.97461E-04-8.14995E-14
 -1      2464 1.02606E-02 5.77128E-04-7.96348E-14
 -1      2465 1.01757E-02 5.25129E-04-7.88344E-14
 -1      2466 1.07185E-02 6.44125E-04-8.52489E-14
 -1      2467 1.05663E-02 6.19935E-04-8.33712E-14
 -1      2468 1.04845E-02 5.65311E-04-8.25589E-14
 -1      2469 1.10202E-02 6.94454E-04-8.90216E-14
 -1      2470 1.08700E-02 6.69274E-04-8.71331E-14
 -1      2471 1.07937E-02 6.14106E-04-8.63056E-14
 -1      2472 1.13160E-02 7.39721E-04-9.28096E-14
 -1      2473 1.11690E-02 7.18424E-04-9.09130E-14
 -1      2474 1.11006E-02 6.66127E-04-9.00752E-14
 -1      2475 1.16038E-02 7.67723E-04-9.66075E-14
 -1      2476 1.14609E-02 7.56738E-04-9.47074E-14
 -1      2477 1.14017E-02 7.11543E-04-9.38573E-14
 -1      2478 1.18836E-02 7.65165E-04-1.00419E-13
 -1      2479 1.17444E-02 7.71058E-04-9.85123E-14
 -1      2480 1.16948E-02 7.36742E-04-9.76543E-14
 -1      2481 1.21580E-02 7.21540E-04-1.04242E-13
 -1      2482 1.20210E-02 7.48904E-04-1.02328E-13
 -1      2483 1.19802E-02 7.27336E-04-1.01462E-13
 -1      2484 1.24312E-02 6.33067E-04-1.08083E-13
 -1      2485 1.22943E-02 6.82831E-04-1.06160E-13
 -1      2486 1.22610E-02 6.73100E-04-1.05286E-13
 -1      2487 1.27071E-02 5.03643E-04-1.11943E-13
 -1      2488 1.25685E-02 5.72934E-04-1.10011E-13
 -1      2489 1.25422E-02 5.72121E-04-1.09125E-13
 -1      2490 1.29874E-02 3.42799E-04-1.15813E-13
 -1      2491 1.28466E-02 4.26441E-04-1.13875E-13
 -1      2492 1.28274E-02 4.31117E-04-1.12983E-13
 -1      2493 1.32715E-02 1.61579E-04-1.19698E-13
 -1      2494 1.31291E-02 2.54107E-04-1.17755E-13
 -1      2495 1.31171E-02 2.61752E-04-1.16853E-13
 -1      2496 1.35574E-02-3.05999E-05-1.23594E-13
 -1      2497 1.34144E-02 6.63861E-05-1.21644E-13
 -1      2498 1.34093E-02 7.56382E-05-1.20738E-13
 -1      2499 1.44505E-02-5.09169E-04-1.26562E-13
 -1      2500 1.43339E-02-4.58253E-04-1.26495E-13
 -1      2501 1.42254E-02-4.07173E-04-1.26430E-13
 -1      2502 1.41239E-02-3.57661E-04-1.26361E-13
 -1      2503 1.41422E-02-3.53228E-04-1.24777E-13
 -1      2504 1.40288E-02-3.08703E-04-1.26290E-13
 -1      2505 1.39386E-02-2.61350E-04-1.26217E-13
 -1      2506 1.39433E-02-2.49494E-04-1.24637E-13
 -1      2507 1.51478E-02-7.47813E-04-1.17911E-13
 -1      2508 1.51994E-02-7.59737E-04-1.18028E-13
 -1      2509 1.47021E-02-6.08843E-04-1.26693E-13
 -1      2510 1.45727E-02-5.59912E-04-1.26629E-13
 -1      2511 1.43705E-02-4.62899E-04-1.24913E-13
 -1      2512 1.49787E-02-7.01306E-04-1.26821E-13
 -1      2513 1.48390E-02-6.57359E-04-1.26759E-13
 -1      2514 1.46329E-02-5.75080E-04-1.25048E-13
 -1      2515 1.52472E-02-7.72554E-04-1.26956E-13
 -1      2516 1.51169E-02-7.40480E-04-1.26886E-13
 -1      2517 1.49211E-02-6.79685E-04-1.25184E-13
 -1      2518 1.54550E-02-8.13388E-04-1.27089E-13
 -1      2519 1.53620E-02-7.96238E-04-1.27023E-13
 -1      2520 1.51955E-02-7.58588E-04-1.25321E-13
 -1      2521 1.55569E-02-8.31274E-04-1.27226E-13
 -1      2522 1.55225E-02-8.23213E-04-1.27156E-13
 -1      2523 1.53987E-02-8.02692E-04-1.25459E-13
 -1      2524 1.55243E-02-8.47703E-04-1.27362E-13
 -1      2525 1.55569E-02-8.36996E-04-1.27294E-13
 -1      2526 1.54716E-02-8.23856E-04-1.25599E-13
 -1      2527 1.53798E-02-8.85449E-04-1.27498E-13
 -1      2528 1.54627E-02-8.62593E-04-1.27430E-13
 -1      2529 1.53961E-02-8.52172E-04-1.25741E-13
 -1      2530 1.51898E-02-9.45218E-04-1.27607E-13
 -1      2531 1.52951E-02-9.10466E-04-1.27538E-13
 -1      2532 1.52279E-02-9.05551E-04-1.25857E-13
 -1      2533 1.50354E-02-9.78522E-04-1.25941E-13
 -1      2534 5.88540E-04-2.37936E-04-4.38533E-16
 -1      2535 7.81354E-04-3.04782E-04-6.93578E-16
 -1      2536 8.40779E-04-2.93551E-04-8.41002E-16
 -1      2537 5.78997E-04-2.10137E-04-4.61911E-16
 -1      2538 1.52165E-02-7.76950E-04-1.18304E-13
 -1      2539 1.51815E-02-7.89588E-04-1.18305E-13
 -1      2540 1.50798E-02-8.20381E-04-1.17952E-13
 -1      2541 1.49470E-02-8.58556E-04-1.17618E-13
 -1      2542 1.16729E-02-1.15995E-03-9.82947E-14
 -1      2543 1.14275E-02-9.83095E-04-9.71155E-14
 -1      2544 1.07942E-02-6.17308E-04-9.45634E-14
 -1      2545 1.06100E-02-5.37706E-04-9.39325E-14
 -1      2546 1.03433E-02-3.32554E-04-9.26594E-14
 -1      2547 1.04705E-02-2.96928E-04-9.31027E-14
 -1      2548 5.46556E-04-2.28932E-05-5.09819E-16
 -1      2549 5.47016E-04-3.89292E-05-5.11757E-16
 -1      2550 6.62471E-04-5.58002E-05-6.93049E-16
 -1      2551 6.61236E-04-1.77002E-05-6.88184E-16
 -1      2552 1.34797E-02-6.50337E-08-1.11963E-13
 -1      2553 1.37606E-02-1.71647E-04-1.13285E-13
 -1      2554 1.24040E-02 5.21326E-04-1.03739E-13
 -1      2555 1.25647E-02 5.01969E-04-1.05174E-13
 -1      2556 1.30737E-02 2.59967E-04-1.09432E-13
 -1      2557 1.32177E-02 1.65198E-04-1.10436E-13
 -1      2558 1.13719E-02 1.02232E-04-9.64722E-14
 -1      2559 1.15422E-02 1.96795E-04-9.73701E-14
 -1      2560 1.21064E-02 4.70394E-04-1.01174E-13
 -1      2561 1.22284E-02 5.05895E-04-1.02214E-13
 -1      2562 1.04446E-02-4.67683E-04-9.31362E-14
 -1      2563 1.03244E-02-4.29394E-04-9.26483E-14
 -1      2564 1.27219E-02 4.52862E-04-1.06538E-13
 -1      2565 1.28767E-02 3.73819E-04-1.07903E-13
 -1      2566 1.26138E-02 4.85207E-04-1.05821E-13
 -1      2567 1.09833E-02-9.22278E-05-9.46835E-14
 -1      2568 1.11738E-02-1.91770E-07-9.55405E-14
 -1      2569 1.06045E-02-2.50506E-04-9.34931E-14
 -1      2570 1.07563E-02-1.91925E-04-9.38875E-14
 -1      2571 1.05128E-02-2.72941E-04-9.24327E-14
 -1      2572 1.02016E-02-3.71269E-04-9.22207E-14
 -1      2573 1.02419E-02-3.60138E-04-9.22274E-14
 -1      2574 1.21517E-02-1.53476E-03-1.01229E-13
 -1      2575 1.19800E-02-1.39257E-03-9.99773E-14
 -1      2576 1.02288E-02-4.00199E-04-9.24168E-14
 -1      2577 1.01923E-02-3.87734E-04-9.23167E-14
 -1      2578 1.01774E-02-3.66896E-04-9.12739E-14
 -1      2579 1.11891E-02-8.27040E-04-9.59654E-14
 -1      2580 1.10108E-02-7.23610E-04-9.52263E-14
 -1      2581 1.30427E-02-1.82951E-03-1.08523E-13
 -1      2582 1.29071E-02-1.86384E-03-1.07437E-13
 -1      2583 1.25221E-02-1.78420E-03-1.04156E-13
 -1      2584 1.23831E-02-1.69971E-03-1.03052E-13
 -1      2585 1.34584E-02-1.62982E-03-1.11701E-13
 -1      2586 1.32776E-02-1.73674E-03-1.10391E-13
 -1      2587 1.39408E-02-1.33117E-03-1.13869E-13
 -1      2588 1.37514E-02-1.44854E-03-1.13143E-13
 -1      2589 1.43795E-02-1.09375E-03-1.15701E-13
 -1      2590 1.41588E-02-1.20945E-03-1.14787E-13
 -1      2591 1.40870E-02-1.24969E-03-1.15203E-13
 -1      2592 1.47441E-02-9.32567E-04-1.16979E-13
 -1      2593 1.45666E-02-1.00532E-03-1.16340E-13
 -1      2594 1.44719E-02-1.05077E-03-1.16759E-13
 -1      2595 1.37876E-02-1.71494E-04-1.25275E-13
 -1      2596 6.70218E-04-1.37930E-04-6.82451E-16
 -1      2597 5.54590E-04-1.26186E-04-5.00847E-16
 -1      2598 5.57767E-04-1.46170E-04-4.92526E-16
 -1      2599 1.52293E-02-7.76238E-04-1.19112E-13
 -1      2600 9.02694E-04 3.77911E-04-6.14580E-16
 -1      2601 8.73548E-04 3.51522E-04-6.22847E-16
 -1      2602 1.01633E-03 4.01755E-04-7.98921E-16
 -1      2603 1.16341E-02 2.60321E-04-9.75213E-14
 -1      2604 1.40403E-02-3.26077E-04-1.14494E-13
 -1      2605 1.42387E-02-4.25334E-04-1.15199E-13
 -1      2606 1.37016E-02-1.09859E-04-1.23624E-13
 -1      2607 1.19901E-02 4.38349E-04-1.00091E-13
 -1      2608 1.26176E-02-1.82947E-03-1.04902E-13
 -1      2609 1.18630E-02-1.29490E-03-9.85150E-14
 -1      2610 1.27280E-02-1.87403E-03-1.05848E-13
 -1      2611 1.31340E-02-1.81635E-03-1.09533E-13
 -1      2612 1.35756E-02-1.58705E-03-1.13274E-13
 -1      2613 1.23194E-02-1.65795E-03-1.02215E-13
 -1      2614 1.50952E-02-7.39872E-04-1.18402E-13
 -1      2615 1.51567E-02-7.56693E-04-1.19331E-13
 -1      2616 1.50317E-02-7.29760E-04-1.18896E-13
 -1      2617 1.02602E-02-3.97948E-04-9.15987E-14
 -1      2618 5.71845E-04-1.85161E-04-4.79759E-16
 -1      2619 1.38878E-02-2.55100E-04-1.14505E-13
 -1      2620 1.22701E-03 4.32488E-04-1.22606E-15
 -1      2621 1.11423E-03 4.15411E-04-9.91842E-16
 -1      2622 1.08613E-03 3.89682E-04-9.98035E-16
 -1      2623 1.28334E-03 4.09724E-04-1.44452E-15
 -1      2624 1.46940E-02-6.21521E-04-1.17045E-13
 -1      2625 1.48140E-02-6.65949E-04-1.17980E-13
 -1      2626 1.51557E-02-8.05080E-04-1.19031E-13
 -1      2627 1.45179E-02-5.52071E-04-1.16340E-13
 -1      2628 1.48575E-02-8.93649E-04-1.18037E-13
 -1      2629 1.13130E-02-8.92946E-04-9.58872E-14
 -1      2630 1.05155E-02-4.80427E-04-9.26224E-14
 -1      2631 1.12567E-02 5.59270E-05-9.53393E-14
 -1      2632 1.28211E-02-1.87258E-03-1.06719E-13
 -1      2633 1.29387E-02 3.31270E-04-1.08713E-13
 -1      2634 1.02781E-02-3.38722E-04-9.16106E-14
 -1      2635 1.08853E-02-6.44721E-04-9.40784E-14
 -1      2636 1.23093E-02 5.22797E-04-1.02932E-13
 -1      2637 1.33693E-02 5.97543E-05-1.11771E-13
 -1      2638 1.08539E-02-1.43388E-04-9.36153E-14
 -1      2639 1.09356E-02-8.85628E-05-9.33419E-14
 -1      2640 1.07321E-02-1.78668E-04-9.25482E-14
 -1      2641 7.80150E-04 7.73183E-05-8.58973E-16
 -1      2642 7.78885E-04 5.54610E-05-8.70411E-16
 -1      2643 7.78036E-04 3.35534E-05-8.80006E-16
 -1      2644 7.77612E-04 1.18937E-05-8.88084E-16
 -1      2645 8.96440E-04 4.96721E-05-1.10858E-15
 -1      2646 7.91526E-04 1.73095E-04-7.88825E-16
 -1      2647 7.87508E-04 1.47689E-04-8.10807E-16
 -1      2648 8.03386E-04 2.28298E-04-7.33653E-16
 -1      2649 7.96786E-04 1.99899E-04-7.63685E-16
 -1      2650 9.14832E-04 2.07780E-04-9.89673E-16
 -1      2651 8.45826E-04 3.26089E-04-6.27563E-16
 -1      2652 8.19643E-04 3.01506E-04-6.29569E-16
 -1      2653 9.60008E-04 3.50372E-04-8.10563E-16
 -1      2654 1.49688E-02-8.67754E-04-1.19444E-13
 -1      2655 1.47823E-02-9.28784E-04-1.18803E-13
 -1      2656 1.37009E-02-1.03300E-04-1.22617E-13
 -1      2657 1.35522E-02-1.27013E-05-1.21677E-13
 -1      2658 1.34020E-02 8.32651E-05-1.19734E-13
 -1      2659 1.45759E-02-1.01052E-03-1.17981E-13
 -1      2660 1.44077E-02-1.08916E-03-1.17342E-13
 -1      2661 1.52371E-02-7.77596E-04-1.19988E-13
 -1      2662 1.52590E-02-7.85748E-04-1.20262E-13
 -1      2663 1.03370E-03-3.14194E-04-1.25464E-15
 -1      2664 1.17695E-03-3.40315E-04-1.58184E-15
 -1      2665 1.32017E-03-3.62735E-04-1.94788E-15
 -1      2666 1.46340E-03-3.81717E-04-2.35300E-15
 -1      2667 1.23840E-03-3.19050E-04-1.78870E-15
 -1      2668 1.60644E-03-3.97802E-04-2.79651E-15
 -1      2669 1.74938E-03-4.11216E-04-3.27780E-15
 -1      2670 1.52498E-03-3.55391E-04-2.60211E-15
 -1      2671 1.89215E-03-4.22430E-04-3.79690E-15
 -1      2672 2.03481E-03-4.31631E-04-4.35336E-15
 -1      2673 1.81167E-03-3.81302E-04-3.56721E-15
 -1      2674 2.17736E-03-4.39195E-04-4.94692E-15
 -1      2675 2.31983E-03-4.45274E-04-5.57691E-15
 -1      2676 2.09813E-03-3.99172E-04-4.68103E-15
 -1      2677 2.46225E-03-4.50159E-04-6.24301E-15
 -1      2678 2.60461E-03-4.53971E-04-6.94495E-15
 -1      2679 2.38430E-03-4.11019E-04-5.94032E-15
 -1      2680 2.74697E-03-4.56928E-04-7.68259E-15
 -1      2681 2.88930E-03-4.59126E-04-8.45518E-15
 -1      2682 2.67025E-03-4.18464E-04-7.34299E-15
 -1      2683 3.03165E-03-4.60726E-04-9.26224E-15
 -1      2684 3.17400E-03-4.61801E-04-1.01030E-14
 -1      2685 2.95602E-03-4.22764E-04-8.88576E-15
 -1      2686 3.31637E-03-4.62468E-04-1.09780E-14
 -1      2687 3.45876E-03-4.62782E-04-1.18864E-14
 -1      2688 3.24169E-03-4.24873E-04-1.05648E-14
 -1      2689 3.60119E-03-4.62825E-04-1.28264E-14
 -1      2690 3.74364E-03-4.62636E-04-1.37989E-14
 -1      2691 3.52730E-03-4.25494E-04-1.23771E-14
 -1      2692 3.88612E-03-4.62273E-04-1.48033E-14
 -1      2693 4.02863E-03-4.61761E-04-1.58382E-14
 -1      2694 3.81289E-03-4.25132E-04-1.43182E-14
 -1      2695 4.17118E-03-4.61137E-04-1.69041E-14
 -1      2696 4.31375E-03-4.60419E-04-1.80004E-14
 -1      2697 4.09847E-03-4.24137E-04-1.63850E-14
 -1      2698 4.45636E-03-4.59628E-04-1.91263E-14
 -1      2699 4.59899E-03-4.58772E-04-2.02811E-14
 -1      2700 4.38407E-03-4.22739E-04-1.85727E-14
 -1      2701 4.74166E-03-4.57863E-04-2.14653E-14
 -1      2702 4.88435E-03-4.56902E-04-2.26783E-14
 -1      2703 4.66969E-03-4.21072E-04-2.08793E-14
 -1      2704 5.02707E-03-4.55892E-04-2.39197E-14
 -1      2705 5.16982E-03-4.54830E-04-2.51904E-14
 -1      2706 4.95534E-03-4.19200E-04-2.33002E-14
 -1      2707 5.31260E-03-4.53710E-04-2.64878E-14
 -1      2708 5.45541E-03-4.52529E-04-2.78132E-14
 -1      2709 5.24103E-03-4.17129E-04-2.58362E-14
 -1      2710 5.59825E-03-4.51272E-04-2.91668E-14
 -1      2711 5.74112E-03-4.49935E-04-3.05453E-14
 -1      2712 5.52675E-03-4.14825E-04-2.84831E-14
 -1      2713 5.88403E-03-4.48500E-04-3.19508E-14
 -1      2714 6.02697E-03-4.46958E-04-3.33803E-14
 -1      2715 5.81252E-03-4.12219E-04-3.12369E-14
 -1      2716 6.16995E-03-4.45290E-04-3.48353E-14
 -1      2717 6.31298E-03-4.43486E-04-3.63154E-14
 -1      2718 6.09834E-03-4.09219E-04-3.40922E-14
 -1      2719 6.45604E-03-4.41525E-04-3.78182E-14
 -1      2720 6.59916E-03-4.39396E-04-3.93440E-14
 -1      2721 6.38421E-03-4.05713E-04-3.70449E-14
 -1      2722 6.74232E-03-4.37078E-04-4.08935E-14
 -1      2723 6.88555E-03-4.34563E-04-4.24643E-14
 -1      2724 6.67013E-03-4.01586E-04-4.00923E-14
 -1      2725 7.02883E-03-4.31830E-04-4.40571E-14
 -1      2726 7.17218E-03-4.28874E-04-4.56713E-14
 -1      2727 6.95607E-03-3.96723E-04-4.32297E-14
 -1      2728 7.31558E-03-4.25682E-04-4.73061E-14
 -1      2729 7.45908E-03-4.22252E-04-4.89603E-14
 -1      2730 7.24201E-03-3.91032E-04-4.64517E-14
 -1      2731 7.60260E-03-4.18584E-04-5.06340E-14
 -1      2732 7.74623E-03-4.14685E-04-5.23245E-14
 -1      2733 7.52787E-03-3.84465E-04-4.97559E-14
 -1      2734 7.88987E-03-4.10576E-04-5.40314E-14
 -1      2735 8.03361E-03-4.06276E-04-5.57538E-14
 -1      2736 7.81353E-03-3.77054E-04-5.31328E-14
 -1      2737 8.17733E-03-4.01845E-04-5.74926E-14
 -1      2738 8.32112E-03-3.97319E-04-5.92455E-14
 -1      2739 8.09880E-03-3.68964E-04-5.65734E-14
 -1      2740 8.46483E-03-3.92817E-04-6.10089E-14
 -1      2741 8.60859E-03-3.88401E-04-6.27821E-14
 -1      2742 8.38336E-03-3.60572E-04-6.00719E-14
 -1      2743 8.75217E-03-3.84285E-04-6.45669E-14
 -1      2744 8.89574E-03-3.80565E-04-6.63586E-14
 -1      2745 8.66677E-03-3.52565E-04-6.36152E-14
 -1      2746 9.03903E-03-3.77593E-04-6.81584E-14
 -1      2747 9.18225E-03-3.75527E-04-6.99659E-14
 -1      2748 8.94843E-03-3.46087E-04-6.71944E-14
 -1      2749 9.32510E-03-3.74895E-04-7.17782E-14
 -1      2750 9.46790E-03-3.75968E-04-7.35948E-14
 -1      2751 9.22761E-03-3.42916E-04-7.08019E-14
 -1      2752 9.61033E-03-3.79486E-04-7.54156E-14
 -1      2753 9.75296E-03-3.85935E-04-7.72402E-14
 -1      2754 9.50371E-03-3.45671E-04-7.44305E-14
 -1      2755 9.89557E-03-3.96236E-04-7.90669E-14
 -1      2756 1.00391E-02-4.11332E-04-8.08976E-14
 -1      2757 9.77664E-03-3.58068E-04-7.80742E-14
 -1      2758 1.01838E-02-4.32201E-04-8.27296E-14
 -1      2759 1.03313E-02-4.60769E-04-8.45639E-14
 -1      2760 1.00480E-02-3.85196E-04-8.17321E-14
 -1      2761 1.04824E-02-4.97837E-04-8.64002E-14
 -1      2762 1.06399E-02-5.47609E-04-8.82371E-14
 -1      2763 1.03229E-02-4.34271E-04-8.53964E-14
 -1      2764 1.08063E-02-6.10215E-04-9.00803E-14
 -1      2765 1.09837E-02-6.94109E-04-9.19218E-14
 -1      2766 1.06141E-02-5.18126E-04-8.90705E-14
 -1      2767 1.47995E-02-6.66939E-04-1.18927E-13
 -1      2768 1.49221E-02-7.02518E-04-1.18912E-13
 -1      2769 1.50172E-02-7.27726E-04-1.19843E-13
 -1      2770 1.44125E-02-1.15257E-03-1.19791E-13
 -1      2771 1.45978E-02-1.09360E-03-1.21675E-13
 -1      2772 1.47390E-02-1.05223E-03-1.22977E-13
 -1      2773 1.49088E-02-1.00702E-03-1.24634E-13
 -1      2774 1.50121E-02-9.61358E-04-1.24590E-13
 -1      2775 1.47502E-02-1.01927E-03-1.21978E-13
 -1      2776 1.86966E-03 4.33802E-04-3.22192E-15
 -1      2777 1.72705E-03 4.22094E-04-2.75878E-15
 -1      2778 2.15446E-03 4.51475E-04-4.25711E-15
 -1      2779 2.01211E-03 4.43537E-04-3.72147E-15
 -1      2780 1.93194E-03 4.02772E-04-3.54366E-15
 -1      2781 1.58429E-03 4.07970E-04-2.33238E-15
 -1      2782 1.44131E-03 3.91214E-04-1.94288E-15
 -1      2783 1.64563E-03 3.80004E-04-2.60789E-15
 -1      2784 2.72324E-03 4.70423E-04-6.75879E-15
 -1      2785 2.58110E-03 4.67246E-04-6.07993E-15
 -1      2786 3.00756E-03 4.74625E-04-8.22182E-15
 -1      2787 2.86540E-03 4.72854E-04-7.47280E-15
 -1      2788 2.78913E-03 4.34615E-04-7.21103E-15
 -1      2789 3.29197E-03 4.76683E-04-9.82387E-15
 -1      2790 3.14976E-03 4.75880E-04-9.00576E-15
 -1      2791 3.07454E-03 4.38093E-04-8.71512E-15
 -1      2792 3.57651E-03 4.77290E-04-1.15628E-14
 -1      2793 3.43423E-03 4.77137E-04-1.06763E-14
 -1      2794 3.35989E-03 4.39674E-04-1.03565E-14
 -1      2795 3.86122E-03 4.76944E-04-1.34343E-14
 -1      2796 3.71885E-03 4.77214E-04-1.24817E-14
 -1      2797 3.64525E-03 4.39981E-04-1.21328E-14
 -1      2798 4.14608E-03 4.75984E-04-1.54369E-14
 -1      2799 4.00363E-03 4.76526E-04-1.44200E-14
 -1      2800 3.93063E-03 4.39457E-04-1.40416E-14
 -1      2801 4.43111E-03 4.74633E-04-1.75654E-14
 -1      2802 4.28858E-03 4.75348E-04-1.64857E-14
 -1      2803 4.21605E-03 4.38401E-04-1.60782E-14
 -1      2804 4.71628E-03 4.73019E-04-1.98137E-14
 -1      2805 4.57368E-03 4.73854E-04-1.86745E-14
 -1      2806 4.50152E-03 4.37004E-04-1.82391E-14
 -1      2807 5.00159E-03 4.71200E-04-2.21813E-14
 -1      2808 4.85892E-03 4.72133E-04-2.09831E-14
 -1      2809 4.78704E-03 4.35373E-04-2.05204E-14
 -1      2810 5.28704E-03 4.69182E-04-2.46636E-14
 -1      2811 5.14430E-03 4.70216E-04-2.34083E-14
 -1      2812 5.07262E-03 4.33549E-04-2.29184E-14
 -1      2813 5.57263E-03 4.66932E-04-2.72585E-14
 -1      2814 5.42982E-03 4.68088E-04-2.59468E-14
 -1      2815 5.35825E-03 4.31527E-04-2.54312E-14
 -1      2816 5.85835E-03 4.64388E-04-2.99627E-14
 -1      2817 5.71547E-03 4.65700E-04-2.85969E-14
 -1      2818 5.64394E-03 4.29265E-04-2.80550E-14
 -1      2819 6.14425E-03 4.61475E-04-3.27737E-14
 -1      2820 6.00128E-03 4.62982E-04-3.13555E-14
 -1      2821 5.92970E-03 4.26697E-04-3.07878E-14
 -1      2822 6.43034E-03 4.58111E-04-3.56824E-14
 -1      2823 6.28726E-03 4.59853E-04-3.42168E-14
 -1      2824 6.21555E-03 4.23744E-04-3.36250E-14
 -1      2825 6.71667E-03 4.54227E-04-3.86793E-14
 -1      2826 6.57347E-03 4.56237E-04-3.71689E-14
 -1      2827 6.50150E-03 4.20323E-04-3.65561E-14
 -1      2828 7.00332E-03 4.49783E-04-4.17616E-14
 -1      2829 6.85995E-03 4.52075E-04-4.02117E-14
 -1      2830 6.78758E-03 4.16368E-04-3.95764E-14
 -1      2831 7.29038E-03 4.44794E-04-4.49187E-14
 -1      2832 7.14679E-03 4.47353E-04-4.33306E-14
 -1      2833 7.07386E-03 4.11839E-04-4.26795E-14
 -1      2834 7.57798E-03 4.39362E-04-4.81514E-14
 -1      2835 7.43410E-03 4.42123E-04-4.65250E-14
 -1      2836 7.36040E-03 4.06757E-04-4.58566E-14
 -1      2837 7.86630E-03 4.33721E-04-5.14571E-14
 -1      2838 7.72203E-03 4.36549E-04-4.97962E-14
 -1      2839 7.64732E-03 4.01229E-04-4.91100E-14
 -1      2840 8.15556E-03 4.28283E-04-5.48300E-14
 -1      2841 8.01078E-03 4.30945E-04-5.31348E-14
 -1      2842 7.93479E-03 3.95491E-04-5.24340E-14
 -1      2843 8.44608E-03 4.23701E-04-5.82668E-14
 -1      2844 8.30064E-03 4.25836E-04-5.65418E-14
 -1      2845 8.22306E-03 3.89963E-04-5.58249E-14
 -1      2846 8.73828E-03 4.20926E-04-6.17594E-14
 -1      2847 8.59194E-03 4.22018E-04-6.00063E-14
 -1      2848 8.51250E-03 3.85303E-04-5.92763E-14
 -1      2849 9.03266E-03 4.21257E-04-6.53053E-14
 -1      2850 8.88517E-03 4.20609E-04-6.35257E-14
 -1      2851 8.80364E-03 3.82466E-04-6.27817E-14
 -1      2852 9.32988E-03 4.26349E-04-6.88965E-14
 -1      2853 9.18089E-03 4.23087E-04-6.70958E-14
 -1      2854 9.09717E-03 3.82764E-04-6.63380E-14
 -1      2855 9.63060E-03 4.38158E-04-7.25261E-14
 -1      2856 9.47979E-03 4.31273E-04-7.07067E-14
 -1      2857 9.39401E-03 3.87892E-04-6.99373E-14
 -1      2858 9.93541E-03 4.58729E-04-7.61912E-14
 -1      2859 9.78253E-03 4.47207E-04-7.43548E-14
 -1      2860 9.69520E-03 3.99885E-04-7.35727E-14
 -1      2861 1.02445E-02 4.89763E-04-7.98887E-14
 -1      2862 1.00895E-02 4.72839E-04-7.80370E-14
 -1      2863 1.00017E-02 4.20956E-04-7.72409E-14
 -1      2864 1.05574E-02 5.31790E-04-8.36132E-14
 -1      2865 1.04007E-02 5.09423E-04-8.17476E-14
 -1      2866 1.03142E-02 4.53061E-04-8.09399E-14
 -1      2867 1.08719E-02 5.82900E-04-8.73592E-14
 -1      2868 1.07147E-02 5.56466E-04-8.54839E-14
 -1      2869 1.06320E-02 4.97014E-04-8.46646E-14
 -1      2870 1.11849E-02 6.37144E-04-9.11238E-14
 -1      2871 1.10289E-02 6.10243E-04-8.92400E-14
 -1      2872 1.09529E-02 5.50948E-04-8.84092E-14
 -1      2873 1.14920E-02 6.83342E-04-9.49034E-14
 -1      2874 1.13394E-02 6.62239E-04-9.30107E-14
 -1      2875 1.12725E-02 6.08215E-04-9.21690E-14
 -1      2876 1.17905E-02 7.05933E-04-9.86972E-14
 -1      2877 1.16423E-02 6.98734E-04-9.67985E-14
 -1      2878 1.15858E-02 6.55757E-04-9.59455E-14
 -1      2879 1.20811E-02 6.89069E-04-1.02502E-13
 -1      2880 1.19364E-02 7.03356E-04-1.00599E-13
 -1      2881 1.18895E-02 6.75397E-04-9.97366E-14
 -1      2882 1.23680E-02 6.22810E-04-1.06324E-13
 -1      2883 1.22243E-02 6.62313E-04-1.04411E-13
 -1      2884 1.21852E-02 6.49532E-04-1.03540E-13
 -1      2885 1.26575E-02 5.07936E-04-1.10167E-13
 -1      2886 1.25120E-02 5.70887E-04-1.08243E-13
 -1      2887 1.24790E-02 5.69145E-04-1.07364E-13
 -1      2888 1.29523E-02 3.54719E-04-1.14021E-13
 -1      2889 1.28041E-02 4.35142E-04-1.12092E-13
 -1      2890 1.27776E-02 4.39076E-04-1.11203E-13
 -1      2891 1.32514E-02 1.77207E-04-1.17843E-13
 -1      2892 1.31012E-02 2.68097E-04-1.15906E-13
 -1      2893 1.30824E-02 2.73680E-04-1.15010E-13
 -1      2894 1.33918E-02 8.90777E-05-1.18782E-13
 -1      2895 1.18691E-02 4.07652E-04-9.88546E-14
 -1      2896 1.20186E-02 4.73995E-04-1.00170E-13
 -1      2897 1.45609E-02-5.47770E-04-1.23407E-13
 -1      2898 1.44183E-02-4.84677E-04-1.23337E-13
 -1      2899 1.37878E-02-1.53070E-04-1.22691E-13
 -1      2900 1.42881E-02-4.21628E-04-1.23269E-13
 -1      2901 1.41672E-02-3.61484E-04-1.23199E-13
 -1      2902 1.42016E-02-3.85342E-04-1.21629E-13
 -1      2903 1.51666E-02-7.56019E-04-1.23936E-13
 -1      2904 1.50326E-02-7.19128E-04-1.23866E-13
 -1      2905 1.53660E-02-7.99981E-04-1.24184E-13
 -1      2906 1.52865E-02-7.82489E-04-1.24113E-13
 -1      2907 1.53964E-02-8.20975E-04-1.24221E-13
 -1      2908 1.54007E-02-8.08905E-04-1.24150E-13
 -1      2909 1.52711E-02-8.62015E-04-1.24368E-13
 -1      2910 1.53498E-02-8.35915E-04-1.24295E-13
 -1      2911 1.53096E-02-8.20719E-04-1.22849E-13
 -1      2912 1.18351E-02-1.27484E-03-9.87163E-14
 -1      2913 1.15304E-02 2.30464E-04-9.63444E-14
 -1      2914 1.17065E-02 3.26241E-04-9.75955E-14
 -1      2915 1.17502E-02 3.81124E-04-9.76704E-14
 -1      2916 1.37738E-02-1.97916E-04-1.14728E-13
 -1      2917 1.40236E-02-3.37381E-04-1.15935E-13
 -1      2918 1.04280E-02-2.78702E-04-9.11548E-14
 -1      2919 1.05443E-02-2.41677E-04-9.15442E-14
 -1      2920 1.25164E-02 5.10634E-04-1.05096E-13
 -1      2921 1.26495E-02 4.67095E-04-1.06461E-13
 -1      2922 1.02813E-02-3.90841E-04-9.06741E-14
 -1      2923 1.01976E-02-3.70953E-04-9.04451E-14
 -1      2924 1.11407E-02 1.94165E-05-9.41145E-14
 -1      2925 1.13132E-02 1.11065E-04-9.50429E-14
 -1      2926 1.09272E-02-6.52908E-04-9.28241E-14
 -1      2927 1.07477E-02-5.63749E-04-9.21662E-14
 -1      2928 1.48651E-02-6.66468E-04-1.23549E-13
 -1      2929 1.47114E-02-6.10060E-04-1.23478E-13
 -1      2930 1.44896E-02-5.26634E-04-1.21773E-13
 -1      2931 1.40544E-02-3.01853E-04-1.23130E-13
 -1      2932 1.39504E-02-2.45625E-04-1.23061E-13
 -1      2933 1.39618E-02-2.53546E-04-1.21488E-13
 -1      2934 1.41510E-02-1.24285E-03-1.16855E-13
 -1      2935 1.43555E-02-1.15531E-03-1.18736E-13
 -1      2936 1.44258E-02-5.22744E-04-1.16854E-13
 -1      2937 1.52197E-02-8.02338E-04-1.20210E-13
 -1      2938 1.51246E-02-8.22208E-04-1.19854E-13
 -1      2939 1.32525E-02 1.26731E-04-1.11552E-13
 -1      2940 1.34897E-02-2.70363E-05-1.13078E-13
 -1      2941 6.88566E-04-2.03958E-04-6.61133E-16
 -1      2942 1.02119E-02-3.31708E-04-9.02919E-14
 -1      2943 1.03054E-02-3.14000E-04-9.07235E-14
 -1      2944 1.03246E-02-2.81631E-04-8.98330E-14
 -1      2945 1.22145E-02 5.21769E-04-1.02042E-13
 -1      2946 1.23647E-02 5.31117E-04-1.03567E-13
 -1      2947 1.24113E-02 5.29221E-04-1.04203E-13
 -1      2948 1.01564E-02-3.54773E-04-9.01743E-14
 -1      2949 1.01583E-02-3.46986E-04-9.00791E-14
 -1      2950 1.05652E-02-4.86817E-04-9.18135E-14
 -1      2951 1.04156E-02-4.32302E-04-9.10212E-14
 -1      2952 1.03122E-02-3.95940E-04-8.98660E-14
 -1      2953 1.06079E-02-5.04330E-04-9.05616E-14
 -1      2954 1.28302E-02 3.84536E-04-1.08141E-13
 -1      2955 1.30041E-02 2.82446E-04-1.09670E-13
 -1      2956 7.84354E-04 1.23437E-04-8.29347E-16
 -1      2957 7.81960E-04 1.00004E-04-8.45339E-16
 -1      2958 8.99561E-04 9.94332E-05-1.08031E-15
 -1      2959 9.05315E-04 1.51567E-04-1.04159E-15
 -1      2960 7.81692E-04-9.79486E-05-9.02815E-16
 -1      2961 7.84011E-04-1.21297E-04-8.99874E-16
 -1      2962 2.43892E-03 4.63128E-04-5.43664E-15
 -1      2963 2.29672E-03 4.57958E-04-4.82893E-15
 -1      2964 2.21792E-03 4.18268E-04-4.62372E-15
 -1      2965 2.50362E-03 4.28387E-04-5.84648E-15
 -1      2966 1.35967E-02-1.55267E-03-1.12843E-13
 -1      2967 1.38339E-02-1.41285E-03-1.14715E-13
 -1      2968 1.42926E-02-4.69623E-04-1.17177E-13
 -1      2969 1.45453E-02-5.75931E-04-1.18318E-13
 -1      2970 8.95413E-04 1.00966E-06-1.12790E-15
 -1      2971 7.77582E-04-9.71895E-06-8.94304E-16
 -1      2972 7.77948E-04-3.13620E-05-8.99183E-16
 -1      2973 8.07550E-04 2.68292E-04-6.72192E-16
 -1      2974 1.50756E-02-8.51312E-04-1.20622E-13
 -1      2975 1.20857E-02 5.08409E-04-1.00800E-13
 -1      2976 1.47226E-02-9.67294E-04-1.19387E-13
 -1      2977 1.52710E-02-7.99626E-04-1.21087E-13
 -1      2978 1.11626E-02-7.87759E-04-9.38383E-14
 -1      2979 7.87082E-04-1.45438E-04-8.94521E-16
 -1      2980 7.90992E-04-1.70606E-04-8.85793E-16
 -1      2981 9.04852E-04-1.49038E-04-1.13577E-15
 -1      2982 1.42144E-02-1.18930E-03-1.16424E-13
 -1      2983 1.13685E-02-9.24989E-04-9.56893E-14
 -1      2984 1.45626E-02-1.05450E-03-1.19621E-13
 -1      2985 7.88893E-04-2.52425E-04-7.95547E-16
 -1      2986 9.20069E-04-2.88216E-04-1.02620E-15
 -1      2987 1.41719E-02-4.08493E-04-1.17402E-13
 -1      2988 1.36946E-02-9.65197E-05-1.21047E-13
 -1      2989 1.48341E-02-6.62929E-04-1.22165E-13
 -1      2990 1.51536E-02-7.55874E-04-1.22662E-13
 -1      2991 1.53285E-02-7.94790E-04-1.22807E-13
 -1      2992 1.50992E-02-9.24354E-04-1.24504E-13
 -1      2993 1.51962E-02-8.87921E-04-1.24457E-13
 -1      2994 1.51590E-02-8.70951E-04-1.23014E-13
 -1      2995 1.49790E-02-9.43620E-04-1.23193E-13
 -1      2996 1.35907E-03 3.47636E-04-1.81830E-15
 -1      2997 1.29820E-03 3.71283E-04-1.59038E-15
 -1      2998 1.13990E-02 1.90410E-04-9.51118E-14
 -1      2999 1.36390E-02-1.17294E-04-1.14509E-13
 -1      3000 1.19883E-03 3.63621E-04-1.34673E-15
 -1      3001 1.31251E-02 2.03578E-04-1.10976E-13
 -1      3002 1.32460E-02 1.25992E-04-1.12283E-13
 -1      3003 1.30160E-02 2.70157E-04-1.10400E-13
 -1      3004 1.10056E-02-2.96434E-05-9.30436E-14
 -1      3005 1.10559E-02 3.05584E-05-9.27416E-14
 -1      3006 1.08746E-02-6.80222E-05-9.19725E-14
 -1      3007 1.06178E-02-1.94717E-04-9.12677E-14
 -1      3008 1.27224E-02 4.31884E-04-1.07413E-13
 -1      3009 1.01545E-02-3.24783E-04-8.91903E-14
 -1      3010 1.01474E-02-3.47985E-04-8.92489E-14
 -1      3011 9.25354E-04 2.80287E-04-8.89520E-16
 -1      3012 9.82156E-04-2.73216E-04-1.19318E-15
 -1      3013 7.78729E-04-5.31424E-05-9.02138E-16
 -1      3014 7.79951E-04-7.53270E-05-9.03371E-16
 -1      3015 8.99279E-04-9.70822E-05-1.14234E-15
 -1      3016 8.96311E-04-4.75200E-05-1.13920E-15
 -1      3017 1.52166E-02-7.73231E-04-1.20483E-13
 -1      3018 1.04028E-03 2.43274E-04-1.21221E-15
 -1      3019 1.03363E-03 2.11525E-04-1.24708E-15
 -1      3020 1.05914E-03 3.64463E-04-1.00060E-15
 -1      3021 1.51100E-02-7.50844E-04-1.21349E-13
 -1      3022 1.51879E-02-7.68038E-04-1.21331E-13
 -1      3023 1.44457E-03-3.13731E-04-2.41022E-15
 -1      3024 1.58807E-03-3.28206E-04-2.85641E-15
 -1      3025 1.73166E-03-3.40460E-04-3.33997E-15
 -1      3026 1.87533E-03-3.50674E-04-3.86048E-15
 -1      3027 1.65234E-03-3.00135E-04-3.11552E-15
 -1      3028 2.01898E-03-3.59171E-04-4.41743E-15
 -1      3029 2.16262E-03-3.66108E-04-5.01128E-15
 -1      3030 1.94012E-03-3.19362E-04-4.15760E-15
 -1      3031 2.30622E-03-3.71760E-04-5.64095E-15
 -1      3032 2.44976E-03-3.76254E-04-6.30622E-15
 -1      3033 2.22815E-03-3.32500E-04-5.34470E-15
 -1      3034 2.59325E-03-3.79812E-04-7.00721E-15
 -1      3035 2.73668E-03-3.82534E-04-7.74298E-15
 -1      3036 2.51611E-03-3.41052E-04-6.67458E-15
 -1      3037 2.88006E-03-3.84590E-04-8.51230E-15
 -1      3038 3.02338E-03-3.86057E-04-9.31655E-15
 -1      3039 2.80386E-03-3.46252E-04-8.14332E-15
 -1      3040 3.16666E-03-3.87064E-04-1.01550E-14
 -1      3041 3.30989E-03-3.87667E-04-1.10268E-14
 -1      3042 3.09135E-03-3.49070E-04-9.74887E-15
 -1      3043 3.45308E-03-3.87962E-04-1.19310E-14
 -1      3044 3.59623E-03-3.87986E-04-1.28676E-14
 -1      3045 3.37857E-03-3.50243E-04-1.14887E-14
 -1      3046 3.73935E-03-3.87810E-04-1.38368E-14
 -1      3047 3.88243E-03-3.87458E-04-1.48369E-14
 -1      3048 3.66553E-03-3.50312E-04-1.33587E-14
 -1      3049 4.02549E-03-3.86978E-04-1.58683E-14
 -1      3050 4.16853E-03-3.86387E-04-1.69307E-14
 -1      3051 3.95227E-03-3.49660E-04-1.53558E-14
 -1      3052 4.31154E-03-3.85714E-04-1.80229E-14
 -1      3053 4.45454E-03-3.84968E-04-1.91445E-14
 -1      3054 4.23880E-03-3.48548E-04-1.74757E-14
 -1      3055 4.59752E-03-3.84166E-04-2.02950E-14
 -1      3056 4.74048E-03-3.83312E-04-2.14749E-14
 -1      3057 4.52516E-03-3.47139E-04-1.97150E-14
 -1      3058 4.88343E-03-3.82412E-04-2.26847E-14
 -1      3059 5.02637E-03-3.81466E-04-2.39218E-14
 -1      3060 4.81137E-03-3.45522E-04-2.20711E-14
 -1      3061 5.16930E-03-3.80471E-04-2.51872E-14
 -1      3062 5.31222E-03-3.79425E-04-2.64813E-14
 -1      3063 5.09745E-03-3.43726E-04-2.45421E-14
 -1      3064 5.45513E-03-3.78319E-04-2.78023E-14
 -1      3065 5.59804E-03-3.77147E-04-2.91513E-14
 -1      3066 5.38341E-03-3.41741E-04-2.71251E-14
 -1      3067 5.74093E-03-3.75898E-04-3.05262E-14
 -1      3068 5.88381E-03-3.74563E-04-3.19261E-14
 -1      3069 5.66926E-03-3.39520E-04-2.98180E-14
 -1      3070 6.02668E-03-3.73126E-04-3.33516E-14
 -1      3071 6.16954E-03-3.71579E-04-3.48020E-14
 -1      3072 5.95498E-03-3.36991E-04-3.26146E-14
 -1      3073 6.31237E-03-3.69905E-04-3.62762E-14
 -1      3074 6.45519E-03-3.68092E-04-3.77741E-14
 -1      3075 6.24054E-03-3.34069E-04-3.55109E-14
 -1      3076 6.59797E-03-3.66126E-04-3.92960E-14
 -1      3077 6.74073E-03-3.63995E-04-4.08398E-14
 -1      3078 6.52589E-03-3.30657E-04-3.85026E-14
 -1      3079 6.88343E-03-3.61687E-04-4.24053E-14
 -1      3080 7.02609E-03-3.59192E-04-4.39922E-14
 -1      3081 6.81096E-03-3.26664E-04-4.15848E-14
 -1      3082 7.16866E-03-3.56505E-04-4.56023E-14
 -1      3083 7.31117E-03-3.53617E-04-4.72323E-14
 -1      3084 7.09562E-03-3.22019E-04-4.47560E-14
 -1      3085 7.45354E-03-3.50538E-04-4.88815E-14
 -1      3086 7.59579E-03-3.47261E-04-5.05506E-14
 -1      3087 7.37968E-03-3.16687E-04-4.80109E-14
 -1      3088 7.73785E-03-3.43818E-04-5.22362E-14
 -1      3089 7.87972E-03-3.40209E-04-5.39380E-14
 -1      3090 7.66290E-03-3.10707E-04-5.13431E-14
 -1      3091 8.02130E-03-3.36501E-04-5.56550E-14
 -1      3092 8.16259E-03-3.32701E-04-5.73881E-14
 -1      3093 7.94488E-03-3.04228E-04-5.47416E-14
 -1      3094 8.30344E-03-3.28929E-04-5.91366E-14
 -1      3095 8.44387E-03-3.25201E-04-6.08950E-14
 -1      3096 8.22511E-03-2.97570E-04-5.82020E-14
 -1      3097 8.58367E-03-3.21715E-04-6.26626E-14
 -1      3098 8.72285E-03-3.18500E-04-6.44428E-14
 -1      3099 8.50285E-03-2.91294E-04-6.17148E-14
 -1      3100 8.86115E-03-3.15857E-04-6.62306E-14
 -1      3101 8.99860E-03-3.13829E-04-6.80251E-14
 -1      3102 8.77712E-03-2.86290E-04-6.52678E-14
 -1      3103 9.13485E-03-3.12854E-04-6.98274E-14
 -1      3104 9.27000E-03-3.12989E-04-7.16346E-14
 -1      3105 9.04667E-03-2.83860E-04-6.88537E-14
 -1      3106 9.40362E-03-3.14828E-04-7.34469E-14
 -1      3107 9.53595E-03-3.18454E-04-7.52624E-14
 -1      3108 9.30996E-03-2.85781E-04-7.24653E-14
 -1      3109 9.66649E-03-3.24613E-04-7.70828E-14
 -1      3110 9.79582E-03-3.33486E-04-7.89072E-14
 -1      3111 9.56531E-03-2.94273E-04-7.60918E-14
 -1      3112 9.92332E-03-3.45864E-04-8.07339E-14
 -1      3113 1.00504E-02-3.62157E-04-8.25628E-14
 -1      3114 9.81119E-03-3.12046E-04-7.97374E-14
 -1      3115 1.01762E-02-3.83466E-04-8.43943E-14
 -1      3116 1.03039E-02-4.10433E-04-8.62275E-14
 -1      3117 1.00469E-02-3.41939E-04-8.33927E-14
 -1      3118 1.04715E-02-4.54437E-04-8.87231E-14
 -1      3119 1.46586E-02-6.18919E-04-1.19109E-13
 -1      3120 1.47822E-02-6.58377E-04-1.20043E-13
 -1      3121 7.69947E-04-2.02451E-04-8.17217E-16
 -1      3122 1.40708E-02-3.51649E-04-1.17876E-13
 -1      3123 1.43135E-02-4.68172E-04-1.19119E-13
 -1      3124 1.99555E-03 3.71078E-04-3.87250E-15
 -1      3125 1.85201E-03 3.62106E-04-3.36367E-15
 -1      3126 1.70847E-03 3.51262E-04-2.89159E-15
 -1      3127 1.56493E-03 3.38360E-04-2.45538E-15
 -1      3128 1.77252E-03 3.21745E-04-3.18308E-15
 -1      3129 3.14208E-03 4.01239E-04-9.21232E-15
 -1      3130 2.99894E-03 4.00082E-04-8.42310E-15
 -1      3131 2.85575E-03 3.98412E-04-7.66835E-15
 -1      3132 2.71252E-03 3.96159E-04-6.94810E-15
 -1      3133 2.92305E-03 3.61885E-04-8.13059E-15
 -1      3134 3.71432E-03 4.02470E-04-1.27063E-14
 -1      3135 3.57131E-03 4.02553E-04-1.17834E-14
 -1      3136 4.00029E-03 4.01815E-04-1.46510E-14
 -1      3137 3.85732E-03 4.02216E-04-1.36626E-14
 -1      3138 3.78373E-03 3.64805E-04-1.32842E-14
 -1      3139 4.28620E-03 4.00703E-04-1.67227E-14
 -1      3140 4.14326E-03 4.01306E-04-1.56713E-14
 -1      3141 4.07021E-03 3.64060E-04-1.52640E-14
 -1      3142 4.57205E-03 3.99295E-04-1.89158E-14
 -1      3143 4.42913E-03 4.00030E-04-1.78043E-14
 -1      3144 4.35652E-03 3.62925E-04-1.73691E-14
 -1      3145 4.85787E-03 3.97677E-04-2.12285E-14
 -1      3146 4.71496E-03 3.98510E-04-2.00571E-14
 -1      3147 4.64270E-03 3.61535E-04-1.95952E-14
 -1      3148 5.14366E-03 3.95875E-04-2.36589E-14
 -1      3149 5.00077E-03 3.96799E-04-2.24291E-14
 -1      3150 4.92876E-03 3.59956E-04-2.19398E-14
 -1      3151 5.42943E-03 3.93875E-04-2.62012E-14
 -1      3152 5.28654E-03 3.94902E-04-2.49154E-14
 -1      3153 5.21472E-03 3.58201E-04-2.44000E-14
 -1      3154 5.71518E-03 3.91627E-04-2.88542E-14
 -1      3155 5.57231E-03 3.92785E-04-2.75147E-14
 -1      3156 5.50058E-03 3.56247E-04-2.69735E-14
 -1      3157 6.00092E-03 3.89063E-04-3.16154E-14
 -1      3158 5.85805E-03 3.90389E-04-3.02213E-14
 -1      3159 5.78634E-03 3.54041E-04-2.96559E-14
 -1      3160 6.28666E-03 3.86101E-04-3.44781E-14
 -1      3161 6.14379E-03 3.87637E-04-3.30346E-14
 -1      3162 6.07201E-03 3.51510E-04-3.24437E-14
 -1      3163 6.57239E-03 3.82660E-04-3.74312E-14
 -1      3164 6.42952E-03 3.84445E-04-3.59443E-14
 -1      3165 6.35757E-03 3.48573E-04-3.53307E-14
 -1      3166 6.85815E-03 3.78671E-04-4.04749E-14
 -1      3167 6.71526E-03 3.80738E-04-3.89420E-14
 -1      3168 6.64302E-03 3.45148E-04-3.83090E-14
 -1      3169 7.14394E-03 3.74098E-04-4.35976E-14
 -1      3170 7.00103E-03 3.76459E-04-4.20271E-14
 -1      3171 6.92835E-03 3.41165E-04-4.13730E-14
 -1      3172 7.42984E-03 3.68959E-04-4.67958E-14
 -1      3173 7.28687E-03 3.71597E-04-4.51872E-14
 -1      3174 7.21357E-03 3.36587E-04-4.45172E-14
 -1      3175 7.71595E-03 3.63361E-04-5.00694E-14
 -1      3176 7.57286E-03 3.66208E-04-4.84228E-14
 -1      3177 7.49871E-03 3.31426E-04-4.77366E-14
 -1      3178 8.00243E-03 3.57533E-04-5.34121E-14
 -1      3179 7.85912E-03 3.60457E-04-5.17332E-14
 -1      3180 7.78388E-03 3.25778E-04-5.10300E-14
 -1      3181 8.28958E-03 3.51885E-04-5.68208E-14
 -1      3182 8.14589E-03 3.54655E-04-5.51084E-14
 -1      3183 8.06924E-03 3.19854E-04-5.43928E-14
 -1      3184 8.57781E-03 3.47058E-04-6.02864E-14
 -1      3185 8.43352E-03 3.49318E-04-5.85466E-14
 -1      3186 8.35511E-03 3.14034E-04-5.78158E-14
 -1      3187 8.86780E-03 3.43993E-04-6.38044E-14
 -1      3188 8.72254E-03 3.45229E-04-6.20392E-14
 -1      3189 8.64202E-03 3.08924E-04-6.12966E-14
 -1      3190 9.16045E-03 3.43994E-04-6.73714E-14
 -1      3191 9.01373E-03 3.43502E-04-6.55822E-14
 -1      3192 8.93076E-03 3.05423E-04-6.48276E-14
 -1      3193 9.45697E-03 3.48784E-04-7.09765E-14
 -1      3194 9.30816E-03 3.45645E-04-6.91693E-14
 -1      3195 9.22247E-03 3.04811E-04-6.84037E-14
 -1      3196 9.75883E-03 3.60505E-04-7.46168E-14
 -1      3197 9.60718E-03 3.53594E-04-7.27932E-14
 -1      3198 9.51873E-03 3.08839E-04-7.20154E-14
 -1      3199 1.00675E-02 3.81612E-04-7.82885E-14
 -1      3200 9.91229E-03 3.69678E-04-7.64479E-14
 -1      3201 9.82144E-03 3.19802E-04-7.56586E-14
 -1      3202 1.03839E-02 4.14481E-04-8.19865E-14
 -1      3203 1.02248E-02 3.96399E-04-8.01338E-14
 -1      3204 1.01326E-02 3.40523E-04-7.93321E-14
 -1      3205 1.07076E-02 4.60442E-04-8.57107E-14
 -1      3206 1.05451E-02 4.35794E-04-8.38462E-14
 -1      3207 1.04536E-02 3.74028E-04-8.30307E-14
 -1      3208 1.10359E-02 5.17855E-04-8.94542E-14
 -1      3209 1.08716E-02 4.88027E-04-8.75810E-14
 -1      3210 1.07841E-02 4.22458E-04-8.67549E-14
 -1      3211 1.13634E-02 5.79329E-04-9.32102E-14
 -1      3212 1.12003E-02 5.48982E-04-9.13302E-14
 -1      3213 1.11208E-02 4.84572E-04-9.04952E-14
 -1      3214 1.16834E-02 6.29367E-04-9.69835E-14
 -1      3215 1.15247E-02 6.07334E-04-9.50944E-14
 -1      3216 1.14565E-02 5.51908E-04-9.42482E-14
 -1      3217 1.19923E-02 6.45836E-04-1.00774E-13
 -1      3218 1.18390E-02 6.43313E-04-9.88781E-14
 -1      3219 1.17832E-02 6.04894E-04-9.80202E-14
 -1      3220 1.22930E-02 6.09533E-04-1.04577E-13
 -1      3221 1.21427E-02 6.35515E-04-1.02673E-13
 -1      3222 1.20970E-02 6.17488E-04-1.01809E-13
 -1      3223 1.25942E-02 5.12031E-04-1.08400E-13
 -1      3224 1.24425E-02 5.67674E-04-1.06485E-13
 -1      3225 1.24041E-02 5.66476E-04-1.05613E-13
 -1      3226 1.29033E-02 3.65263E-04-1.12240E-13
 -1      3227 1.27475E-02 4.43631E-04-1.10319E-13
 -1      3228 1.27149E-02 4.49308E-04-1.09435E-13
 -1      3229 1.02333E-02-2.72915E-04-8.84186E-14
 -1      3230 1.03383E-02-2.43852E-04-8.88483E-14
 -1      3231 1.48396E-02-6.71028E-04-1.21355E-13
 -1      3232 1.46497E-02-6.02866E-04-1.21036E-13
 -1      3233 1.36861E-02-9.68128E-05-1.19532E-13
 -1      3234 1.35310E-02 2.74246E-07-1.19158E-13
 -1      3235 1.33673E-02 9.66295E-05-1.17274E-13
 -1      3236 1.53128E-02-7.97043E-04-1.21958E-13
 -1      3237 1.52874E-02-8.08131E-04-1.21903E-13
 -1      3238 1.52807E-02-7.84922E-04-1.21988E-13
 -1      3239 1.52179E-02-8.30866E-04-1.21979E-13
 -1      3240 1.23136E-02 5.44442E-04-1.03329E-13
 -1      3241 1.24498E-02 5.25195E-04-1.04860E-13
 -1      3242 1.12499E-02 1.49503E-04-9.36672E-14
 -1      3243 1.14397E-02 2.54586E-04-9.49647E-14
 -1      3244 1.49564E-02-7.09823E-04-1.21170E-13
 -1      3245 1.00958E-02-3.10104E-04-8.78404E-14
 -1      3246 1.01440E-02-2.97586E-04-8.80521E-14
 -1      3247 1.15832E-02-1.07451E-03-9.68373E-14
 -1      3248 1.35174E-02-4.13146E-05-1.14404E-13
 -1      3249 1.37756E-02-1.94690E-04-1.16055E-13
 -1      3250 3.42826E-03 4.02407E-04-1.08932E-14
 -1      3251 3.28519E-03 4.01997E-04-1.00359E-14
 -1      3252 3.21018E-03 3.64127E-04-9.71455E-15
 -1      3253 3.49706E-03 3.64940E-04-1.14330E-14
 -1      3254 1.15850E-03-2.76919E-04-1.63156E-15
 -1      3255 1.30137E-03-2.96706E-04-2.00182E-15
 -1      3256 1.36543E-03-2.73116E-04-2.22135E-15
 -1      3257 1.44370E-02-5.11265E-04-1.20723E-13
 -1      3258 1.42786E-02-4.34708E-04-1.20648E-13
 -1      3259 1.37853E-02-1.58520E-04-1.19605E-13
 -1      3260 1.47546E-02-9.78206E-04-1.20444E-13
 -1      3261 1.05182E-02-1.92313E-04-8.98664E-14
 -1      3262 1.06920E-02-1.36568E-04-9.08704E-14
 -1      3263 1.07421E-03 3.29490E-04-1.12086E-15
 -1      3264 1.19690E-02 4.98064E-04-9.96213E-14
 -1      3265 1.21464E-02 5.37175E-04-1.01493E-13
 -1      3266 1.45421E-02-5.70420E-04-1.19434E-13
 -1      3267 1.01377E-02-3.40377E-04-8.82517E-14
 -1      3268 1.00973E-02-3.27035E-04-8.79806E-14
 -1      3269 1.01650E-03 6.81965E-05-1.36241E-15
 -1      3270 1.01533E-03 4.12175E-05-1.37648E-15
 -1      3271 1.06770E-03 2.82665E-04-1.20472E-15
 -1      3272 1.16181E-02 3.56543E-04-9.63064E-14
 -1      3273 1.17596E-02 4.27104E-04-9.75622E-14
 -1      3274 1.26262E-02 4.71147E-04-1.06754E-13
 -1      3275 1.27900E-02 3.95711E-04-1.08437E-13
 -1      3276 8.87854E-04-2.11785E-04-1.05210E-15
 -1      3277 1.50865E-02-8.63817E-04-1.21564E-13
 -1      3278 1.48868E-02-9.47324E-04-1.21747E-13
 -1      3279 1.18654E-03 2.84913E-04-1.49266E-15
 -1      3280 1.21933E-02 5.53203E-04-1.02145E-13
 -1      3281 1.00541E-02-3.03532E-04-8.68435E-14
 -1      3282 1.01831E-03 9.54552E-05-1.34571E-15
 -1      3283 1.13807E-03 8.85501E-05-1.64080E-15
 -1      3284 1.02079E-03 1.23222E-04-1.32598E-15
 -1      3285 1.02363E-03-1.49089E-04-1.40598E-15
 -1      3286 1.02770E-03-1.78323E-04-1.39878E-15
 -1      3287 1.03080E-02-3.94762E-04-8.77181E-14
 -1      3288 2.13905E-03 3.78493E-04-4.41692E-15
 -1      3289 2.06028E-03 3.38775E-04-4.20847E-15
 -1      3290 2.28250E-03 3.84496E-04-4.99664E-15
 -1      3291 1.39351E-02-2.72319E-04-1.17775E-13
 -1      3292 1.32701E-02 1.18316E-04-1.13252E-13
 -1      3293 1.33868E-02 4.14996E-05-1.13827E-13
 -1      3294 1.35255E-02-3.64265E-05-1.15375E-13
 -1      3295 2.63567E-03 3.57549E-04-6.68398E-15
 -1      3296 2.56923E-03 3.93169E-04-6.26247E-15
 -1      3297 2.42590E-03 3.89349E-04-5.61182E-15
 -1      3298 1.03949E-02-1.96785E-04-8.84496E-14
 -1      3299 1.01396E-02-2.65954E-04-8.70681E-14
 -1      3300 1.32115E-02 1.89751E-04-1.15695E-13
 -1      3301 1.30510E-02 2.81147E-04-1.13814E-13
 -1      3302 1.30260E-02 2.87007E-04-1.12927E-13
 -1      3303 1.33455E-02 1.00149E-04-1.16074E-13
 -1      3304 1.25209E-02 5.07024E-04-1.05878E-13
 -1      3305 1.44301E-02-5.15911E-04-1.19913E-13
 -1      3306 1.41088E-02-3.48344E-04-1.19999E-13
 -1      3307 1.39799E-02-2.74985E-04-1.19926E-13
 -1      3308 1.11198E-02 1.02970E-04-9.25933E-14
 -1      3309 1.11640E-02 1.72798E-04-9.24406E-14
 -1      3310 1.09912E-02 6.29717E-05-9.15193E-14
 -1      3311 1.14667E-02 3.16645E-04-9.48525E-14
 -1      3312 1.29018E-02 3.35873E-04-1.09741E-13
 -1      3313 1.30139E-02 2.71288E-04-1.11046E-13
 -1      3314 1.28008E-02 3.91102E-04-1.09079E-13
 -1      3315 1.07483E-02-7.95932E-05-9.05671E-14
 -1      3316 1.42153E-03 3.23050E-04-2.05553E-15
 -1      3317 1.27827E-03 3.05118E-04-1.69209E-15
 -1      3318 1.25051E-03 2.63588E-04-1.70035E-15
 -1      3319 1.36793E-02-1.07753E-04-1.17973E-13
 -1      3320 1.18332E-02 4.81183E-04-9.82488E-14
 -1      3321 1.01804E-03-9.29791E-05-1.41029E-15
 -1      3322 1.02043E-03-1.20690E-04-1.40975E-15
 -1      3323 1.14323E-03-1.45880E-04-1.70428E-15
 -1      3324 1.01934E-02-3.56740E-04-8.84193E-14
 -1      3325 1.01169E-02-3.33494E-04-8.71502E-14
 -1      3326 1.13541E-03 3.01589E-05-1.67375E-15
 -1      3327 1.01473E-03 1.44449E-05-1.38813E-15
 -1      3328 1.01470E-03-1.22291E-05-1.39732E-15
 -1      3329 1.40427E-02-3.22723E-04-1.18947E-13
 -1      3330 1.15303E-03 2.11793E-04-1.53500E-15
 -1      3331 1.02829E-03 1.81152E-04-1.27693E-15
 -1      3332 1.02411E-03 1.51821E-04-1.30328E-15
 -1      3333 1.49892E-02-9.02263E-04-1.21656E-13
 -1      3334 9.99639E-04-2.33135E-04-1.28435E-15
 -1      3335 1.48520E-03 2.97435E-04-2.30157E-15
 -1      3336 1.06451E-03-2.15879E-04-1.45858E-15
 -1      3337 1.00794E-02-3.25273E-04-8.57881E-14
 -1      3338 1.00340E-02-3.10394E-04-8.56215E-14
 -1      3339 1.86181E-03-2.80002E-04-3.90092E-15
 -1      3340 2.00603E-03-2.87342E-04-4.45836E-15
 -1      3341 2.15034E-03-2.93410E-04-5.05189E-15
 -1      3342 2.29468E-03-2.98326E-04-5.68091E-15
 -1      3343 2.07291E-03-2.54635E-04-4.76323E-15
 -1      3344 2.43902E-03-3.02290E-04-6.34514E-15
 -1      3345 2.58334E-03-3.05397E-04-7.04458E-15
 -1      3346 2.36211E-03-2.63632E-04-6.02020E-15
 -1      3347 2.72760E-03-3.07813E-04-7.77777E-15
 -1      3348 2.87178E-03-3.09612E-04-8.54494E-15
 -1      3349 2.65135E-03-2.69348E-04-7.41574E-15
 -1      3350 3.01590E-03-3.10924E-04-9.34664E-15
 -1      3351 3.15993E-03-3.11804E-04-1.01822E-14
 -1      3352 2.94038E-03-2.72675E-04-8.94888E-15
 -1      3353 3.30388E-03-3.12351E-04-1.10508E-14
 -1      3354 3.44775E-03-3.12605E-04-1.19515E-14
 -1      3355 3.22908E-03-2.74317E-04-1.06163E-14
 -1      3356 3.59153E-03-3.12638E-04-1.28845E-14
 -1      3357 3.73522E-03-3.12477E-04-1.38500E-14
 -1      3358 3.51738E-03-2.74806E-04-1.24146E-14
 -1      3359 3.87885E-03-3.12175E-04-1.48469E-14
 -1      3360 4.02239E-03-3.11747E-04-1.58742E-14
 -1      3361 3.80528E-03-2.74531E-04-1.43412E-14
 -1      3362 4.16587E-03-3.11230E-04-1.69321E-14
 -1      3363 4.30928E-03-3.10632E-04-1.80207E-14
 -1      3364 4.09280E-03-2.73761E-04-1.63924E-14
 -1      3365 4.45263E-03-3.09976E-04-1.91381E-14
 -1      3366 4.59592E-03-3.09265E-04-2.02849E-14
 -1      3367 4.37998E-03-2.72674E-04-1.85648E-14
 -1      3368 4.73916E-03-3.08512E-04-2.14618E-14
 -1      3369 4.88234E-03-3.07715E-04-2.26672E-14
 -1      3370 4.66684E-03-2.71377E-04-2.08561E-14
 -1      3371 5.02548E-03-3.06879E-04-2.39007E-14
 -1      3372 5.16856E-03-3.06000E-04-2.51621E-14
 -1      3373 4.95341E-03-2.69921E-04-2.32620E-14
 -1      3374 5.31160E-03-3.05076E-04-2.64514E-14
 -1      3375 5.45459E-03-3.04101E-04-2.77692E-14
 -1      3376 5.23972E-03-2.68312E-04-2.57815E-14
 -1      3377 5.59753E-03-3.03069E-04-2.91136E-14
 -1      3378 5.74042E-03-3.01970E-04-3.04853E-14
 -1      3379 5.52576E-03-2.66529E-04-2.84126E-14
 -1      3380 5.88326E-03-3.00797E-04-3.18814E-14
 -1      3381 6.02603E-03-2.99539E-04-3.33025E-14
 -1      3382 5.81152E-03-2.64523E-04-3.11510E-14
 -1      3383 6.16873E-03-2.98188E-04-3.47492E-14
 -1      3384 6.31136E-03-2.96730E-04-3.62196E-14
 -1      3385 6.09697E-03-2.62233E-04-3.39906E-14
 -1      3386 6.45390E-03-2.95158E-04-3.77128E-14
 -1      3387 6.59635E-03-2.93460E-04-3.92299E-14
 -1      3388 6.38202E-03-2.59592E-04-3.69275E-14
 -1      3389 6.73866E-03-2.91631E-04-4.07697E-14
 -1      3390 6.88085E-03-2.89658E-04-4.23303E-14
 -1      3391 6.66656E-03-2.56534E-04-3.99568E-14
 -1      3392 7.02287E-03-2.87545E-04-4.39131E-14
 -1      3393 7.16471E-03-2.85280E-04-4.55184E-14
 -1      3394 6.95044E-03-2.53012E-04-4.30753E-14
 -1      3395 7.30631E-03-2.82880E-04-4.71436E-14
 -1      3396 7.44765E-03-2.80334E-04-4.87888E-14
 -1      3397 7.23341E-03-2.49017E-04-4.62784E-14
 -1      3398 7.58867E-03-2.77679E-04-5.04521E-14
 -1      3399 7.72933E-03-2.74910E-04-5.21341E-14
 -1      3400 7.51515E-03-2.44600E-04-4.95651E-14
 -1      3401 7.86954E-03-2.72093E-04-5.38315E-14
 -1      3402 8.00925E-03-2.69228E-04-5.55442E-14
 -1      3403 7.79521E-03-2.39911E-04-5.29233E-14
 -1      3404 8.14833E-03-2.66427E-04-5.72728E-14
 -1      3405 8.28672E-03-2.63694E-04-5.90159E-14
 -1      3406 8.07299E-03-2.35248E-04-5.63461E-14
 -1      3407 8.42425E-03-2.61207E-04-6.07702E-14
 -1      3408 8.56084E-03-2.58968E-04-6.25338E-14
 -1      3409 8.34767E-03-2.31105E-04-5.98255E-14
 -1      3410 8.69624E-03-2.57246E-04-6.43082E-14
 -1      3411 8.83037E-03-2.56034E-04-6.60919E-14
 -1      3412 8.61818E-03-2.28241E-04-6.33514E-14
 -1      3413 8.96291E-03-2.55716E-04-6.78821E-14
 -1      3414 9.09376E-03-2.56255E-04-6.96804E-14
 -1      3415 8.88308E-03-2.27731E-04-6.69123E-14
 -1      3416 9.22249E-03-2.58172E-04-7.14837E-14
 -1      3417 9.34904E-03-2.61364E-04-7.32918E-14
 -1      3418 9.14052E-03-2.30988E-04-7.05029E-14
 -1      3419 9.47283E-03-2.66469E-04-7.51047E-14
 -1      3420 9.59389E-03-2.73312E-04-7.69211E-14
 -1      3421 9.38813E-03-2.39674E-04-7.41169E-14
 -1      3422 9.71122E-03-2.82862E-04-7.87430E-14
 -1      3423 9.82535E-03-2.94393E-04-8.05663E-14
 -1      3424 9.62260E-03-2.55628E-04-7.77482E-14
 -1      3425 1.28771E-03-2.34025E-04-2.03623E-15
 -1      3426 1.43059E-03-2.48367E-04-2.44700E-15
 -1      3427 4.14038E-03 3.26201E-04-1.58803E-14
 -1      3428 3.99696E-03 3.26651E-04-1.48562E-14
 -1      3429 3.85348E-03 3.26995E-04-1.38650E-14
 -1      3430 3.70993E-03 3.27219E-04-1.29050E-14
 -1      3431 3.92355E-03 2.89085E-04-1.44496E-14
 -1      3432 4.71348E-03 3.23738E-04-2.02767E-14
 -1      3433 4.57028E-03 3.24433E-04-1.91330E-14
 -1      3434 4.99973E-03 3.22226E-04-2.26542E-14
 -1      3435 4.85663E-03 3.23003E-04-2.14507E-14
 -1      3436 4.78437E-03 2.85934E-04-2.09624E-14
 -1      3437 5.28580E-03 3.20546E-04-2.51442E-14
 -1      3438 5.14278E-03 3.21409E-04-2.38850E-14
 -1      3439 5.07076E-03 2.84514E-04-2.33697E-14
 -1      3440 5.57170E-03 3.18667E-04-2.77478E-14
 -1      3441 5.42877E-03 3.19635E-04-2.64318E-14
 -1      3442 5.35690E-03 2.82934E-04-2.58908E-14
 -1      3443 5.85743E-03 3.16532E-04-3.04588E-14
 -1      3444 5.71459E-03 3.17636E-04-2.90906E-14
 -1      3445 5.64280E-03 2.81157E-04-2.85245E-14
 -1      3446 6.14297E-03 3.14069E-04-3.32745E-14
 -1      3447 6.00022E-03 3.15347E-04-3.18541E-14
 -1      3448 5.92844E-03 2.79125E-04-3.12645E-14
 -1      3449 6.42830E-03 3.11195E-04-3.61842E-14
 -1      3450 6.28566E-03 3.12690E-04-3.47176E-14
 -1      3451 6.21380E-03 2.76765E-04-3.41052E-14
 -1      3452 6.71339E-03 3.07828E-04-3.91864E-14
 -1      3453 6.57087E-03 3.09579E-04-3.76748E-14
 -1      3454 6.49884E-03 2.73994E-04-3.70405E-14
 -1      3455 6.99821E-03 3.03897E-04-4.22735E-14
 -1      3456 6.85583E-03 3.05938E-04-4.07195E-14
 -1      3457 6.78350E-03 2.70728E-04-4.00659E-14
 -1      3458 7.28276E-03 2.99357E-04-4.54381E-14
 -1      3459 7.14052E-03 3.01706E-04-4.38464E-14
 -1      3460 7.06775E-03 2.66893E-04-4.31740E-14
 -1      3461 7.56704E-03 2.94209E-04-4.86785E-14
 -1      3462 7.42493E-03 2.96859E-04-4.70486E-14
 -1      3463 7.35154E-03 2.62434E-04-4.63602E-14
 -1      3464 7.85115E-03 2.88528E-04-5.19924E-14
 -1      3465 7.70911E-03 2.91430E-04-5.03266E-14
 -1      3466 7.63486E-03 2.57332E-04-4.96228E-14
 -1      3467 8.13526E-03 2.82493E-04-5.53725E-14
 -1      3468 7.99318E-03 2.85540E-04-5.36750E-14
 -1      3469 7.91778E-03 2.51628E-04-5.29560E-14
 -1      3470 8.41972E-03 2.76437E-04-5.88125E-14
 -1      3471 8.27741E-03 2.79440E-04-5.70855E-14
 -1      3472 8.20050E-03 2.45455E-04-5.63539E-14
 -1      3473 8.70513E-03 2.70902E-04-6.23074E-14
 -1      3474 8.56225E-03 2.73556E-04-6.05533E-14
 -1      3475 8.48338E-03 2.39075E-04-5.98094E-14
 -1      3476 8.99244E-03 2.66723E-04-6.58500E-14
 -1      3477 8.84847E-03 2.68566E-04-6.40727E-14
 -1      3478 8.76712E-03 2.32944E-04-6.33176E-14
 -1      3479 9.28305E-03 2.65134E-04-6.94331E-14
 -1      3480 9.13722E-03 2.65485E-04-6.76373E-14
 -1      3481 9.05279E-03 2.27803E-04-6.68715E-14
 -1      3482 9.57887E-03 2.67913E-04-7.30513E-14
 -1      3483 9.43018E-03 2.65799E-04-7.12376E-14
 -1      3484 9.34205E-03 2.24818E-04-7.04615E-14
 -1      3485 9.88233E-03 2.77536E-04-7.66979E-14
 -1      3486 9.72951E-03 2.71612E-04-7.48707E-14
 -1      3487 9.63722E-03 2.25794E-04-7.40840E-14
 -1      3488 1.01960E-02 2.97309E-04-8.03733E-14
 -1      3489 1.00378E-02 2.85822E-04-7.85337E-14
 -1      3490 9.94128E-03 2.33455E-04-7.77349E-14
 -1      3491 1.05220E-02 3.31168E-04-8.40745E-14
 -1      3492 1.03576E-02 3.12141E-04-8.22202E-14
 -1      3493 1.02576E-02 2.51794E-04-8.14122E-14
 -1      3494 1.08602E-02 3.82438E-04-8.77953E-14
 -1      3495 1.06900E-02 3.54434E-04-8.59322E-14
 -1      3496 1.05890E-02 2.85998E-04-8.51133E-14
 -1      3497 1.12067E-02 4.50431E-04-9.15324E-14
 -1      3498 1.10332E-02 4.14621E-04-8.96627E-14
 -1      3499 1.09359E-02 3.40967E-04-8.88319E-14
 -1      3500 1.18862E-02 5.83568E-04-9.90509E-14
 -1      3501 1.17209E-02 5.59829E-04-9.71627E-14
 -1      3502 1.23017E-02 5.70931E-04-1.03848E-13
 -1      3503 1.21414E-02 5.84703E-04-1.01951E-13
 -1      3504 1.24616E-02 5.34973E-04-1.05749E-13
 -1      3505 1.28907E-02 3.52480E-04-1.10870E-13
 -1      3506 1.27244E-02 4.33706E-04-1.08953E-13
 -1      3507 1.00007E-02-2.91579E-04-8.54824E-14
 -1      3508 9.99951E-03-2.74057E-04-8.53419E-14
 -1      3509 9.94704E-03-2.83295E-04-8.41216E-14
 -1      3510 4.42703E-03 3.25079E-04-1.80184E-14
 -1      3511 4.28374E-03 3.25675E-04-1.69341E-14
 -1      3512 4.21079E-03 2.88278E-04-1.64986E-14
 -1      3513 4.49773E-03 2.87200E-04-1.86711E-14
 -1      3514 1.33441E-03 2.46255E-04-1.96102E-15
 -1      3515 1.24347E-03 2.29170E-04-1.74185E-15
 -1      3516 1.23776E-03 1.95690E-04-1.77787E-15
 -1      3517 2.99103E-03 3.25030E-04-8.59787E-15
 -1      3518 2.84702E-03 3.23547E-04-7.83759E-15
 -1      3519 1.12965E-02 2.82208E-04-9.31432E-14
 -1      3520 1.14561E-02 3.72302E-04-9.44805E-14
 -1      3521 1.83777E-03 2.91438E-04-3.48240E-15
 -1      3522 1.69378E-03 2.82007E-04-3.00145E-15
 -1      3523 1.17331E-02 4.82063E-04-9.71918E-14
 -1      3524 1.19244E-02 5.36779E-04-9.92518E-14
 -1      3525 1.01522E-03-3.89291E-05-1.40416E-15
 -1      3526 1.01632E-03-6.57670E-05-1.40855E-15
 -1      3527 1.13782E-03-8.59724E-05-1.70582E-15
 -1      3528 1.57397E-03-2.60695E-04-2.89490E-15
 -1      3529 1.71777E-03-2.71169E-04-3.37978E-15
 -1      3530 1.49668E-03-2.22363E-04-2.67844E-15
 -1      3531 1.00561E-02-2.56481E-04-8.57575E-14
 -1      3532 1.01342E-02-2.32989E-04-8.61223E-14
 -1      3533 1.03007E-02-3.88596E-04-8.87646E-14
 -1      3534 1.06319E-02-6.84067E-05-8.89720E-14
 -1      3535 1.07971E-02-7.96664E-06-9.00724E-14
 -1      3536 1.02757E-02-1.89209E-04-8.68625E-14
 -1      3537 1.04409E-02-1.41143E-04-8.78777E-14
 -1      3538 1.58555E-03 2.71596E-04-2.66721E-15
 -1      3539 1.44207E-03 2.59038E-04-2.24866E-15
 -1      3540 1.43561E-03 2.22906E-04-2.29326E-15
 -1      3541 1.65151E-03 2.43414E-04-2.93610E-15
 -1      3542 1.01715E-02-3.55866E-04-8.62715E-14
 -1      3543 1.00649E-02-3.29749E-04-8.47425E-14
 -1      3544 1.14369E-03 1.48695E-04-1.59516E-15
 -1      3545 1.78419E-03-2.41280E-04-3.64867E-15
 -1      3546 9.86604E-03-2.82964E-04-8.19131E-14
 -1      3547 9.96100E-03-3.11769E-04-8.29114E-14
 -1      3548 2.34806E-03 3.50230E-04-5.37596E-15
 -1      3549 2.12610E-03 3.05835E-04-4.55167E-15
 -1      3550 1.98188E-03 2.99335E-04-3.99893E-15
 -1      3551 1.90401E-03 2.60341E-04-3.78968E-15
 -1      3552 1.00567E-02-1.90173E-04-8.42421E-14
 -1      3553 1.01613E-02-1.92757E-04-8.55526E-14
 -1      3554 1.01875E-02-1.46532E-04-8.49786E-14
 -1      3555 1.18403E-03-2.15427E-04-1.76653E-15
 -1      3556 1.25016E-03-1.93761E-04-1.96398E-15
 -1      3557 1.26107E-03 1.10534E-04-1.94311E-15
 -1      3558 1.25885E-03 7.90593E-05-1.96531E-15
 -1      3559 1.31483E-02 1.96212E-04-1.12590E-13
 -1      3560 2.70293E-03 3.21516E-04-7.11161E-15
 -1      3561 2.55878E-03 3.18868E-04-6.41967E-15
 -1      3562 2.77094E-03 2.85131E-04-7.54481E-15
 -1      3563 3.63596E-03 2.89469E-04-1.25262E-14
 -1      3564 3.56630E-03 3.27276E-04-1.19777E-14
 -1      3565 3.42260E-03 3.27145E-04-1.10835E-14
 -1      3566 1.16416E-02 5.02970E-04-9.62405E-14
 -1      3567 1.15454E-02 5.25077E-04-9.52110E-14
 -1      3568 1.13737E-02 4.88028E-04-9.33343E-14
 -1      3569 1.15433E-02 4.31800E-04-9.52472E-14
 -1      3570 1.12861E-02 4.16690E-04-9.24944E-14
 -1      3571 1.19888E-02 5.74654E-04-1.00114E-13
 -1      3572 1.26233E-02 4.77237E-04-1.07649E-13
 -1      3573 1.30490E-02 2.63828E-04-1.12438E-13
 -1      3574 9.97295E-03-2.48457E-04-8.43972E-14
 -1      3575 1.34602E-02 2.07843E-05-1.16221E-13
 -1      3576 1.32856E-02 1.23265E-04-1.14649E-13
 -1      3577 1.08521E-02 6.08143E-05-8.99183E-14
 -1      3578 1.38055E-03 6.70868E-05-2.31919E-15
 -1      3579 1.25739E-03 4.77814E-05-1.98454E-15
 -1      3580 1.25665E-03 1.67190E-05-2.00019E-15
 -1      3581 1.13774E-02 4.03114E-04-9.35294E-14
 -1      3582 3.27882E-03 3.26759E-04-1.02215E-14
 -1      3583 3.13497E-03 3.26084E-04-9.39282E-15
 -1      3584 3.05964E-03 2.87908E-04-9.07069E-15
 -1      3585 3.34799E-03 2.89192E-04-1.07325E-14
 -1      3586 1.24213E-03-1.29032E-04-1.97439E-15
 -1      3587 1.24563E-03-1.61055E-04-1.97122E-15
 -1      3588 1.34875E-03-1.76167E-04-2.25702E-15
 -1      3589 1.13533E-03-2.76975E-05-1.69539E-15
 -1      3590 1.04848E-02-7.73639E-05-8.73806E-14
 -1      3591 1.36373E-02-9.61309E-05-1.16547E-13
 -1      3592 1.37678E-02-1.76543E-04-1.17123E-13
 -1      3593 9.70185E-03-2.42308E-04-7.94321E-14
 -1      3594 9.83023E-03-2.59861E-04-8.17753E-14
 -1      3595 9.81380E-03-2.39244E-04-8.16344E-14
 -1      3596 2.28554E-03-2.25222E-04-5.69938E-15
 -1      3597 2.43041E-03-2.28413E-04-6.36217E-15
 -1      3598 2.57529E-03-2.30952E-04-7.05927E-15
 -1      3599 2.72014E-03-2.32903E-04-7.79006E-15
 -1      3600 2.49950E-03-1.92714E-04-6.70678E-15
 -1      3601 2.86494E-03-2.34384E-04-8.55479E-15
 -1      3602 3.00965E-03-2.35443E-04-9.35385E-15
 -1      3603 2.78963E-03-1.96114E-04-8.16591E-15
 -1      3604 3.15427E-03-2.36176E-04-1.01859E-14
 -1      3605 3.29878E-03-2.36616E-04-1.10511E-14
 -1      3606 3.07952E-03-1.97973E-04-9.75984E-15
 -1      3607 3.44318E-03-2.36835E-04-1.19484E-14
 -1      3608 3.58746E-03-2.36857E-04-1.28774E-14
 -1      3609 3.36898E-03-1.98753E-04-1.14861E-14
 -1      3610 3.73164E-03-2.36735E-04-1.38394E-14
 -1      3611 3.87569E-03-2.36483E-04-1.48326E-14
 -1      3612 3.65796E-03-1.98805E-04-1.33414E-14
 -1      3613 4.01965E-03-2.36140E-04-1.58565E-14
 -1      3614 4.16349E-03-2.35713E-04-1.69110E-14
 -1      3615 3.94643E-03-1.98378E-04-1.53242E-14
 -1      3616 4.30723E-03-2.35229E-04-1.79954E-14
 -1      3617 4.45087E-03-2.34689E-04-1.91095E-14
 -1      3618 4.23442E-03-1.97643E-04-1.74293E-14
 -1      3619 4.59443E-03-2.34110E-04-2.02525E-14
 -1      3620 4.73789E-03-2.33491E-04-2.14257E-14
 -1      3621 4.52195E-03-1.96709E-04-1.96540E-14
 -1      3622 4.88127E-03-2.32841E-04-2.26275E-14
 -1      3623 5.02456E-03-2.32155E-04-2.38574E-14
 -1      3624 4.80907E-03-1.95635E-04-2.19956E-14
 -1      3625 5.16777E-03-2.31438E-04-2.51155E-14
 -1      3626 5.31090E-03-2.30682E-04-2.64009E-14
 -1      3627 5.09579E-03-1.94445E-04-2.44521E-14
 -1      3628 5.45395E-03-2.29888E-04-2.77154E-14
 -1      3629 5.59691E-03-2.29046E-04-2.90568E-14
 -1      3630 5.38212E-03-1.93134E-04-2.70218E-14
 -1      3631 5.73979E-03-2.28155E-04-3.04241E-14
 -1      3632 5.88257E-03-2.27204E-04-3.18173E-14
 -1      3633 5.66806E-03-1.91677E-04-2.97000E-14
 -1      3634 6.02524E-03-2.26191E-04-3.32353E-14
 -1      3635 6.16780E-03-2.25104E-04-3.46781E-14
 -1      3636 5.95356E-03-1.90037E-04-3.24830E-14
 -1      3637 6.31023E-03-2.23941E-04-3.61442E-14
 -1      3638 6.45252E-03-2.22691E-04-3.76337E-14
 -1      3639 6.23855E-03-1.88174E-04-3.53643E-14
 -1      3640 6.59464E-03-2.21354E-04-3.91474E-14
 -1      3641 6.73658E-03-2.19920E-04-4.06832E-14
 -1      3642 6.52290E-03-1.86050E-04-3.83406E-14
 -1      3643 6.87830E-03-2.18398E-04-4.22396E-14
 -1      3644 7.01978E-03-2.16774E-04-4.38182E-14
 -1      3645 6.80644E-03-1.83644E-04-4.14075E-14
 -1      3646 7.16096E-03-2.15072E-04-4.54179E-14
 -1      3647 7.30182E-03-2.13279E-04-4.70394E-14
 -1      3648 7.08893E-03-1.80968E-04-4.45611E-14
 -1      3649 7.44229E-03-2.11437E-04-4.86808E-14
 -1      3650 7.58233E-03-2.09536E-04-5.03403E-14
 -1      3651 7.37004E-03-1.78089E-04-4.77984E-14
 -1      3652 7.72184E-03-2.07645E-04-5.20181E-14
 -1      3653 7.86077E-03-2.05759E-04-5.37115E-14
 -1      3654 7.64931E-03-1.75159E-04-5.11148E-14
 -1      3655 7.99900E-03-2.03984E-04-5.54214E-14
 -1      3656 8.13645E-03-2.02318E-04-5.71458E-14
 -1      3657 7.92618E-03-1.72455E-04-5.44993E-14
 -1      3658 8.27297E-03-2.00924E-04-5.88830E-14
 -1      3659 8.40846E-03-1.99799E-04-6.06327E-14
 -1      3660 8.19987E-03-1.70425E-04-5.79416E-14
 -1      3661 8.54271E-03-1.99180E-04-6.23941E-14
 -1      3662 8.67558E-03-1.99055E-04-6.41643E-14
 -1      3663 8.46941E-03-1.69739E-04-6.14370E-14
 -1      3664 8.80683E-03-1.99757E-04-6.59432E-14
 -1      3665 8.93625E-03-2.01244E-04-6.77299E-14
 -1      3666 8.73352E-03-1.71338E-04-6.49750E-14
 -1      3667 9.06353E-03-2.03972E-04-6.95237E-14
 -1      3668 9.18839E-03-2.07822E-04-7.13230E-14
 -1      3669 8.99053E-03-1.76458E-04-6.85440E-14
 -1      3670 9.31041E-03-2.13410E-04-7.31278E-14
 -1      3671 9.42918E-03-2.20417E-04-7.49397E-14
 -1      3672 9.23825E-03-1.86594E-04-7.21409E-14
 -1      3673 9.59406E-03-2.30432E-04-7.76126E-14
 -1      3674 1.33383E-03 1.92368E-04-2.04592E-15
 -1      3675 1.24361E-03 1.77502E-04-1.81853E-15
 -1      3676 1.23956E-03 1.45067E-04-1.84836E-15
 -1      3677 1.44114E-03 2.03013E-04-2.34136E-15
 -1      3678 1.99604E-03-2.16377E-04-4.47931E-15
 -1      3679 2.14073E-03-2.21237E-04-5.07206E-15
 -1      3680 2.20940E-03-1.87177E-04-5.38382E-15
 -1      3681 5.14185E-03 2.46836E-04-2.40886E-14
 -1      3682 4.99866E-03 2.47505E-04-2.28554E-14
 -1      3683 4.85538E-03 2.48137E-04-2.16504E-14
 -1      3684 4.71203E-03 2.48737E-04-2.04737E-14
 -1      3685 4.92650E-03 2.10375E-04-2.23407E-14
 -1      3686 5.71387E-03 2.43738E-04-2.93040E-14
 -1      3687 5.57098E-03 2.44589E-04-2.79588E-14
 -1      3688 5.99938E-03 2.41843E-04-3.20713E-14
 -1      3689 5.85667E-03 2.42827E-04-3.06740E-14
 -1      3690 5.78491E-03 2.06434E-04-3.00843E-14
 -1      3691 6.28451E-03 2.39625E-04-3.49372E-14
 -1      3692 6.14200E-03 2.40780E-04-3.34930E-14
 -1      3693 6.07025E-03 2.04710E-04-3.28793E-14
 -1      3694 6.56921E-03 2.37000E-04-3.78964E-14
 -1      3695 6.42692E-03 2.38370E-04-3.64051E-14
 -1      3696 6.35512E-03 2.02673E-04-3.57709E-14
 -1      3697 6.85340E-03 2.33885E-04-4.09453E-14
 -1      3698 6.71137E-03 2.35511E-04-3.94101E-14
 -1      3699 6.63943E-03 2.00240E-04-3.87543E-14
 -1      3700 7.13700E-03 2.30195E-04-4.40763E-14
 -1      3701 6.99528E-03 2.32119E-04-4.25007E-14
 -1      3702 6.92309E-03 1.97324E-04-4.18269E-14
 -1      3703 7.41995E-03 2.25862E-04-4.72842E-14
 -1      3704 7.27856E-03 2.28116E-04-4.56707E-14
 -1      3705 7.20600E-03 1.93829E-04-4.49797E-14
 -1      3706 7.70222E-03 2.20840E-04-5.05680E-14
 -1      3707 7.56117E-03 2.23442E-04-4.89170E-14
 -1      3708 7.48804E-03 1.89668E-04-4.82104E-14
 -1      3709 7.98386E-03 2.15127E-04-5.39214E-14
 -1      3710 7.84311E-03 2.18071E-04-5.22364E-14
 -1      3711 7.76917E-03 1.84758E-04-5.15151E-14
 -1      3712 8.26503E-03 2.08788E-04-5.73359E-14
 -1      3713 8.12447E-03 2.12030E-04-5.56211E-14
 -1      3714 8.04939E-03 1.79041E-04-5.48874E-14
 -1      3715 8.54616E-03 2.01998E-04-6.08064E-14
 -1      3716 8.40556E-03 2.05432E-04-5.90648E-14
 -1      3717 8.32888E-03 1.72502E-04-5.83184E-14
 -1      3718 8.82796E-03 1.95102E-04-6.43281E-14
 -1      3719 8.68690E-03 1.98526E-04-6.25611E-14
 -1      3720 8.60803E-03 1.65200E-04-6.18043E-14
 -1      3721 9.11166E-03 1.88716E-04-6.78904E-14
 -1      3722 8.96946E-03 1.91773E-04-6.61041E-14
 -1      3723 8.88762E-03 1.57341E-04-6.53368E-14
 -1      3724 9.39914E-03 1.83913E-04-7.14872E-14
 -1      3725 9.25476E-03 1.85986E-04-6.96851E-14
 -1      3726 9.16894E-03 1.49385E-04-6.89082E-14
 -1      3727 9.69310E-03 1.82523E-04-7.51153E-14
 -1      3728 9.54510E-03 1.82571E-04-7.32994E-14
 -1      3729 9.45410E-03 1.42276E-04-7.25119E-14
 -1      3730 9.99716E-03 1.87506E-04-7.87693E-14
 -1      3731 9.84362E-03 1.83840E-04-7.69376E-14
 -1      3732 9.74621E-03 1.37837E-04-7.61433E-14
 -1      3733 1.03156E-02 2.03715E-04-8.24485E-14
 -1      3734 1.01544E-02 1.93662E-04-8.06063E-14
 -1      3735 1.00495E-02 1.39389E-04-7.98015E-14
 -1      3736 1.06526E-02 2.37939E-04-8.61509E-14
 -1      3737 1.04818E-02 2.17831E-04-8.42989E-14
 -1      3738 1.03696E-02 1.52902E-04-8.34844E-14
 -1      3739 1.07338E-02 7.26647E-05-8.84261E-14
 -1      3740 1.09127E-02 1.36079E-04-8.98730E-14
 -1      3741 1.70741E-03-2.03461E-04-3.40099E-15
 -1      3742 1.85158E-03-2.10488E-04-3.92199E-15
 -1      3743 1.91984E-03-1.78786E-04-4.20016E-15
 -1      3744 1.10452E-02 1.86967E-04-9.09692E-14
 -1      3745 1.11653E-02 2.24743E-04-9.20439E-14
 -1      3746 1.11663E-02 2.90228E-04-9.16662E-14
 -1      3747 1.09142E-02 1.89536E-04-8.94713E-14
 -1      3748 9.84817E-03-2.21425E-04-8.20505E-14
 -1      3749 9.90372E-03-2.00568E-04-8.24637E-14
 -1      3750 9.71609E-03-1.99293E-04-7.97070E-14
 -1      3751 3.99394E-03 2.51086E-04-1.50372E-14
 -1      3752 3.85004E-03 2.51362E-04-1.40414E-14
 -1      3753 1.12012E-02 3.58884E-04-9.17337E-14
 -1      3754 1.23759E-03-6.65670E-05-1.97027E-15
 -1      3755 1.23945E-03-9.75884E-05-1.97388E-15
 -1      3756 1.34181E-03-1.09462E-04-2.26124E-15
 -1      3757 1.45599E-03-1.85988E-04-2.57617E-15
 -1      3758 1.59930E-03-1.95235E-04-3.03432E-15
 -1      3759 1.66726E-03-1.66322E-04-3.28081E-15
 -1      3760 1.45185E-03-1.50959E-04-2.58065E-15
 -1      3761 2.41458E-03 3.15449E-04-5.76186E-15
 -1      3762 2.27034E-03 3.11169E-04-5.13936E-15
 -1      3763 2.19287E-03 2.72294E-04-4.90188E-15
 -1      3764 2.48196E-03 2.80208E-04-6.15449E-15
 -1      3765 1.24629E-03-9.66015E-06-1.98291E-15
 -1      3766 1.24684E-03-4.04657E-05-1.99256E-15
 -1      3767 1.34875E-03-4.93502E-05-2.28185E-15
 -1      3768 1.36862E-03 6.03081E-06-2.32258E-15
 -1      3769 1.03367E-02-7.97347E-05-8.56696E-14
 -1      3770 1.05072E-02-1.34566E-05-8.67596E-14
 -1      3771 5.42802E-03 2.45383E-04-2.66412E-14
 -1      3772 5.28497E-03 2.46131E-04-2.53510E-14
 -1      3773 5.21301E-03 2.09217E-04-2.48108E-14
 -1      3774 1.10830E-02 3.09894E-04-9.06339E-14
 -1      3775 5.49915E-03 2.07917E-04-2.73934E-14
 -1      3776 9.90620E-03-1.67475E-04-8.18931E-14
 -1      3777 9.52596E-03-2.03792E-04-7.66157E-14
 -1      3778 1.36061E-03 1.36961E-04-2.19352E-15
 -1      3779 2.83968E-03 2.48392E-04-7.98268E-15
 -1      3780 2.69496E-03 2.46714E-04-7.25108E-15
 -1      3781 1.09013E-02 2.73739E-04-8.87725E-14
 -1      3782 4.63962E-03 2.11410E-04-1.99856E-14
 -1      3783 4.56859E-03 2.49299E-04-1.93265E-14
 -1      3784 4.42507E-03 2.49826E-04-1.82091E-14
 -1      3785 1.05674E-02 5.35477E-05-8.67084E-14
 -1      3786 3.12888E-03 2.50523E-04-9.54808E-15
 -1      3787 2.98433E-03 2.49647E-04-8.74821E-15
 -1      3788 2.90910E-03 2.11356E-04-8.42664E-15
 -1      3789 4.28145E-03 2.50303E-04-1.71212E-14
 -1      3790 4.13775E-03 2.50731E-04-1.60637E-14
 -1      3791 4.35234E-03 2.12313E-04-1.77472E-14
 -1      3792 1.50479E-03 8.78486E-05-2.67817E-15
 -1      3793 1.50313E-03 5.31075E-05-2.70246E-15
 -1      3794 4.06463E-03 2.13039E-04-1.56287E-14
 -1      3795 1.97125E-03 2.28447E-04-4.10474E-15
 -1      3796 1.82684E-03 2.22044E-04-3.58032E-15
 -1      3797 1.00872E-02-1.01931E-04-8.30498E-14
 -1      3798 1.02080E-02-9.39049E-05-8.43587E-14
 -1      3799 1.02215E-02-3.78060E-05-8.37360E-14
 -1      3800 3.77647E-03 2.13497E-04-1.36340E-14
 -1      3801 3.70602E-03 2.51527E-04-1.30779E-14
 -1      3802 3.56191E-03 2.51567E-04-1.21472E-14
 -1      3803 1.68765E-03 2.18239E-04-3.10169E-15
 -1      3804 1.57953E-03 2.09455E-04-2.76024E-15
 -1      3805 1.47768E-03 1.79947E-04-2.48605E-15
 -1      3806 1.75528E-03 1.88406E-04-3.38274E-15
 -1      3807 1.49853E-03 1.41326E-04-2.60084E-15
 -1      3808 1.62095E-03 1.28944E-04-3.00817E-15
 -1      3809 1.07816E-02 2.30532E-04-8.76765E-14
 -1      3810 1.06612E-02 1.54264E-04-8.68554E-14
 -1      3811 2.71460E-03-1.57950E-04-7.78155E-15
 -1      3812 2.85981E-03-1.58995E-04-8.54281E-15
 -1      3813 3.00494E-03-1.59763E-04-9.33859E-15
 -1      3814 3.14997E-03-1.60276E-04-1.01673E-14
 -1      3815 2.93059E-03-1.21600E-04-8.92178E-15
 -1      3816 3.29488E-03-1.60598E-04-1.10285E-14
 -1      3817 3.43967E-03-1.60743E-04-1.19223E-14
 -1      3818 3.22094E-03-1.22405E-04-1.05756E-14
 -1      3819 3.58433E-03-1.60763E-04-1.28485E-14
 -1      3820 3.72885E-03-1.60665E-04-1.38065E-14
 -1      3821 3.51080E-03-1.22635E-04-1.23598E-14
 -1      3822 3.87323E-03-1.60486E-04-1.47953E-14
 -1      3823 4.01748E-03-1.60229E-04-1.58159E-14
 -1      3824 3.80009E-03-1.22481E-04-1.42713E-14
 -1      3825 4.16160E-03-1.59923E-04-1.68667E-14
 -1      3826 4.30559E-03-1.59564E-04-1.79478E-14
 -1      3827 4.08881E-03-1.22076E-04-1.63080E-14
 -1      3828 4.44946E-03-1.59174E-04-1.90587E-14
 -1      3829 4.59321E-03-1.58749E-04-2.01985E-14
 -1      3830 4.37697E-03-1.21510E-04-1.84668E-14
 -1      3831 4.73684E-03-1.58301E-04-2.13675E-14
 -1      3832 4.88036E-03-1.57825E-04-2.25660E-14
 -1      3833 4.66461E-03-1.20838E-04-2.07439E-14
 -1      3834 5.02378E-03-1.57329E-04-2.37931E-14
 -1      3835 5.16708E-03-1.56806E-04-2.50475E-14
 -1      3836 4.95176E-03-1.20085E-04-2.31365E-14
 -1      3837 5.31028E-03-1.56260E-04-2.63304E-14
 -1      3838 5.45337E-03-1.55684E-04-2.76413E-14
 -1      3839 5.23844E-03-1.19259E-04-2.56429E-14
 -1      3840 5.59634E-03-1.55080E-04-2.89787E-14
 -1      3841 5.73919E-03-1.54439E-04-3.03425E-14
 -1      3842 5.52464E-03-1.18352E-04-2.82606E-14
 -1      3843 5.88192E-03-1.53763E-04-3.17326E-14
 -1      3844 6.02451E-03-1.53042E-04-3.31475E-14
 -1      3845 5.81033E-03-1.17351E-04-3.09853E-14
 -1      3846 6.16695E-03-1.52280E-04-3.45875E-14
 -1      3847 6.30923E-03-1.51467E-04-3.60503E-14
 -1      3848 6.09544E-03-1.16237E-04-3.38125E-14
 -1      3849 6.45132E-03-1.50608E-04-3.75365E-14
 -1      3850 6.59320E-03-1.49694E-04-3.90461E-14
 -1      3851 6.37987E-03-1.14997E-04-3.67357E-14
 -1      3852 6.73484E-03-1.48737E-04-4.05778E-14
 -1      3853 6.87621E-03-1.47728E-04-4.21311E-14
 -1      3854 6.66345E-03-1.13636E-04-3.97500E-14
 -1      3855 7.01728E-03-1.46689E-04-4.37067E-14
 -1      3856 7.15800E-03-1.45613E-04-4.53024E-14
 -1      3857 6.94594E-03-1.12183E-04-4.28543E-14
 -1      3858 7.29832E-03-1.44538E-04-4.69197E-14
 -1      3859 7.43819E-03-1.43457E-04-4.85567E-14
 -1      3860 7.22706E-03-1.10715E-04-4.60427E-14
 -1      3861 7.57754E-03-1.42433E-04-5.02139E-14
 -1      3862 7.71631E-03-1.41463E-04-5.18871E-14
 -1      3863 7.50640E-03-1.09380E-04-4.93138E-14
 -1      3864 7.85440E-03-1.40641E-04-5.35763E-14
 -1      3865 7.99173E-03-1.39967E-04-5.52825E-14
 -1      3866 7.78347E-03-1.08427E-04-5.26569E-14
 -1      3867 8.12819E-03-1.39581E-04-5.70037E-14
 -1      3868 8.26367E-03-1.39485E-04-5.87364E-14
 -1      3869 8.05764E-03-1.08248E-04-5.60650E-14
 -1      3870 8.39802E-03-1.39879E-04-6.04814E-14
 -1      3871 8.53112E-03-1.40762E-04-6.22388E-14
 -1      3872 8.32812E-03-1.09419E-04-5.95276E-14
 -1      3873 8.66277E-03-1.42412E-04-6.40060E-14
 -1      3874 8.79279E-03-1.44812E-04-6.57806E-14
 -1      3875 8.59395E-03-1.12745E-04-6.30371E-14
 -1      3876 8.92098E-03-1.48338E-04-6.75646E-14
 -1      3877 9.04704E-03-1.52927E-04-6.93557E-14
 -1      3878 8.85392E-03-1.19293E-04-6.65844E-14
 -1      3879 9.17076E-03-1.59076E-04-7.11535E-14
 -1      3880 9.29167E-03-1.66621E-04-7.29563E-14
 -1      3881 9.10651E-03-1.30383E-04-7.01645E-14
 -1      3882 6.42565E-03 1.65932E-04-3.66062E-14
 -1      3883 6.28344E-03 1.66883E-04-3.51367E-14
 -1      3884 4.99772E-03 1.72662E-04-2.30343E-14
 -1      3885 4.85431E-03 1.73118E-04-2.18266E-14
 -1      3886 6.14108E-03 1.67746E-04-3.36891E-14
 -1      3887 5.99857E-03 1.68538E-04-3.22659E-14
 -1      3888 6.21186E-03 1.30971E-04-3.45014E-14
 -1      3889 5.85594E-03 1.69262E-04-3.08682E-14
 -1      3890 5.71318E-03 1.69933E-04-2.94953E-14
 -1      3891 5.92695E-03 1.32244E-04-3.16538E-14
 -1      3892 6.70954E-03 1.63740E-04-3.96151E-14
 -1      3893 6.56768E-03 1.64891E-04-3.80992E-14
 -1      3894 6.49610E-03 1.29425E-04-3.74440E-14
 -1      3895 6.99264E-03 1.61074E-04-4.27108E-14
 -1      3896 6.85120E-03 1.62475E-04-4.11524E-14
 -1      3897 6.77956E-03 1.27521E-04-4.04774E-14
 -1      3898 7.27479E-03 1.57829E-04-4.58858E-14
 -1      3899 7.13384E-03 1.59534E-04-4.42883E-14
 -1      3900 7.06206E-03 1.25160E-04-4.35957E-14
 -1      3901 7.55588E-03 1.53889E-04-4.91377E-14
 -1      3902 7.41547E-03 1.55958E-04-4.75023E-14
 -1      3903 7.34344E-03 1.22219E-04-4.67927E-14
 -1      3904 7.83579E-03 1.49130E-04-5.24649E-14
 -1      3905 7.69598E-03 1.51625E-04-5.07935E-14
 -1      3906 7.62351E-03 1.18553E-04-5.00687E-14
 -1      3907 8.11450E-03 1.43427E-04-5.58548E-14
 -1      3908 7.97528E-03 1.46409E-04-5.41517E-14
 -1      3909 7.90213E-03 1.13985E-04-5.34156E-14
 -1      3910 8.39214E-03 1.36666E-04-5.93029E-14
 -1      3911 8.25343E-03 1.40188E-04-5.75722E-14
 -1      3912 8.17923E-03 1.08311E-04-5.68247E-14
 -1      3913 8.66908E-03 1.28777E-04-6.28017E-14
 -1      3914 8.53065E-03 1.32864E-04-6.10460E-14
 -1      3915 8.45485E-03 1.01305E-04-6.02872E-14
 -1      3916 8.94608E-03 1.19800E-04-6.63439E-14
 -1      3917 8.80748E-03 1.24408E-04-6.45681E-14
 -1      3918 8.72931E-03 9.27446E-05-6.37978E-14
 -1      3919 9.22448E-03 1.10010E-04-6.99245E-14
 -1      3920 9.08496E-03 1.14951E-04-6.81305E-14
 -1      3921 9.00331E-03 8.24743E-05-6.73515E-14
 -1      3922 9.50651E-03 1.00177E-04-7.35340E-14
 -1      3923 9.36482E-03 1.04965E-04-7.17245E-14
 -1      3924 9.27816E-03 7.05449E-05-7.09380E-14
 -1      3925 9.79571E-03 9.21280E-05-7.71692E-14
 -1      3926 9.64989E-03 9.56258E-05-7.53487E-14
 -1      3927 9.55612E-03 5.75026E-05-7.45524E-14
 -1      3928 1.00967E-02 8.93878E-05-8.08318E-14
 -1      3929 9.94432E-03 8.96499E-05-7.89977E-14
 -1      3930 9.84109E-03 4.50377E-05-7.81938E-14
 -1      3931 1.04526E-02 1.17732E-04-8.47595E-14
 -1      3932 1.02882E-02 1.08637E-04-8.29135E-14
 -1      3933 1.01723E-02 5.20737E-05-8.21028E-14
 -1      3934 1.05714E-02 1.01447E-04-8.62785E-14
 -1      3935 9.42474E-03-1.72490E-04-7.49901E-14
 -1      3936 9.59227E-03-1.85864E-04-7.76603E-14
 -1      3937 9.63275E-03-1.62912E-04-7.80709E-14
 -1      3938 9.36643E-03-1.43443E-04-7.39937E-14
 -1      3939 1.61620E-03 4.25010E-05-3.07516E-15
 -1      3940 1.49195E-03 2.35310E-05-2.68676E-15
 -1      3941 1.48137E-03-5.75860E-06-2.66853E-15
 -1      3942 2.42411E-03-1.54750E-04-6.35815E-15
 -1      3943 2.56936E-03-1.56546E-04-7.05280E-15
 -1      3944 2.63991E-03-1.19961E-04-7.40083E-15
 -1      3945 1.84440E-03-1.42059E-04-3.92552E-15
 -1      3946 1.98897E-03-1.46208E-04-4.48169E-15
 -1      3947 1.03622E-02 2.59911E-05-8.46182E-14
 -1      3948 4.13561E-03 1.74958E-04-1.62248E-14
 -1      3949 3.99151E-03 1.75210E-04-1.51941E-14
 -1      3950 2.11585E-03 2.33783E-04-4.66444E-15
 -1      3951 2.03937E-03 1.95767E-04-4.42777E-15
 -1      3952 2.26059E-03 2.38142E-04-5.25949E-15
 -1      3953 3.41767E-03 2.51434E-04-1.12475E-14
 -1      3954 3.27333E-03 2.51109E-04-1.03811E-14
 -1      3955 3.48782E-03 2.13536E-04-1.17672E-14
 -1      3956 9.75333E-03-1.43630E-04-7.95057E-14
 -1      3957 9.90932E-03-1.28128E-04-8.12760E-14
 -1      3958 9.91252E-03-8.44370E-05-8.06559E-14
 -1      3959 1.76010E-03 1.30419E-04-3.48113E-15
 -1      3960 5.28422E-03 1.71672E-04-2.55353E-14
 -1      3961 5.14102E-03 1.72183E-04-2.42710E-14
 -1      3962 5.06902E-03 1.35023E-04-2.37304E-14
 -1      3963 5.57030E-03 1.70552E-04-2.81476E-14
 -1      3964 5.42731E-03 1.71132E-04-2.68274E-14
 -1      3965 5.64147E-03 1.33310E-04-2.89049E-14
 -1      3966 2.13384E-03-1.49655E-04-5.07267E-15
 -1      3967 2.27891E-03-1.52469E-04-5.69819E-15
 -1      3968 2.05890E-03-1.12772E-04-4.76652E-15
 -1      3969 1.44631E-03-8.23309E-05-2.57628E-15
 -1      3970 1.44863E-03-1.16450E-04-2.58016E-15
 -1      3971 1.55599E-03-1.23093E-04-2.92035E-15
 -1      3972 1.93128E-03 1.45310E-04-4.08697E-15
 -1      3973 1.79810E-03 8.64120E-05-3.66609E-15
 -1      3974 3.19868E-03 2.12930E-04-1.00300E-14
 -1      3975 5.35548E-03 1.34224E-04-2.62625E-14
 -1      3976 4.78211E-03 1.35733E-04-2.13124E-14
 -1      3977 4.71079E-03 1.73545E-04-2.06477E-14
 -1      3978 4.56717E-03 1.73949E-04-1.94973E-14
 -1      3979 3.91840E-03 1.37257E-04-1.47600E-14
 -1      3980 3.84728E-03 1.75393E-04-1.41946E-14
 -1      3981 3.70292E-03 1.75505E-04-1.32275E-14
 -1      3982 2.34919E-03-1.17156E-04-6.01534E-15
 -1      3983 4.42343E-03 1.74320E-04-1.83767E-14
 -1      3984 4.27958E-03 1.74662E-04-1.72859E-14
 -1      3985 4.49472E-03 1.36357E-04-1.90098E-14
 -1      3986 1.02297E-02 5.45765E-06-8.33072E-14
 -1      3987 9.61549E-03-1.31581E-04-7.74583E-14
 -1      3988 4.20683E-03 1.36880E-04-1.68246E-14
 -1      3989 2.07605E-03 1.49058E-04-4.64731E-15
 -1      3990 1.78618E-03 5.40220E-05-3.65344E-15
 -1      3991 1.77491E-03 2.18768E-05-3.63689E-15
 -1      3992 1.95701E-03 6.58881E-05-4.27825E-15
 -1      3993 1.64589E-03-1.29765E-04-3.21929E-15
 -1      3994 1.75398E-03-1.35811E-04-3.59588E-15
 -1      3995 1.82364E-03-1.04435E-04-3.85372E-15
 -1      3996 1.64330E-03-9.33083E-05-3.21423E-15
 -1      3997 2.61918E-03 2.08375E-04-6.95741E-15
 -1      3998 2.55019E-03 2.44500E-04-6.55319E-15
 -1      3999 2.97916E-03 1.74031E-04-8.87573E-15
 -1      4000 2.83407E-03 1.73103E-04-8.10512E-15
 -1      4001 1.45538E-03-5.35681E-05-2.60187E-15
 -1      4002 2.40538E-03 2.41688E-04-5.88909E-15
 -1      4003 2.68891E-03 1.71843E-04-7.36759E-15
 -1      4004 2.54372E-03 1.70216E-04-6.66443E-15
 -1      4005 2.75932E-03 1.34955E-04-7.78414E-15
 -1      4006 2.56567E-03-8.22424E-05-7.02628E-15
 -1      4007 2.71114E-03-8.29856E-05-7.75125E-15
 -1      4008 1.57853E-03-3.82317E-05-2.99043E-15
 -1      4009 3.14725E-03-8.42265E-05-1.01271E-14
 -1      4010 3.29241E-03-8.43818E-05-1.09849E-14
 -1      4011 3.43744E-03-8.44560E-05-1.18747E-14
 -1      4012 3.58232E-03-8.44469E-05-1.27974E-14
 -1      4013 3.36431E-03-4.62553E-05-1.13948E-14
 -1      4014 3.72706E-03-8.43860E-05-1.37518E-14
 -1      4015 3.87165E-03-8.42687E-05-1.47370E-14
 -1      4016 3.65420E-03-4.62241E-05-1.32358E-14
 -1      4017 4.01609E-03-8.41195E-05-1.57533E-14
 -1      4018 4.16038E-03-8.39324E-05-1.68007E-14
 -1      4019 3.94349E-03-4.60658E-05-1.52028E-14
 -1      4020 4.30453E-03-8.37264E-05-1.78789E-14
 -1      4021 4.44854E-03-8.34946E-05-1.89867E-14
 -1      4022 4.23216E-03-4.58308E-05-1.72945E-14
 -1      4023 4.59241E-03-8.32506E-05-2.01236E-14
 -1      4024 4.73615E-03-8.29876E-05-2.12895E-14
 -1      4025 4.52026E-03-4.55440E-05-1.95070E-14
 -1      4026 4.87976E-03-8.27154E-05-2.24839E-14
 -1      4027 5.02325E-03-8.24272E-05-2.37074E-14
 -1      4028 4.80780E-03-4.52215E-05-2.18355E-14
 -1      4029 5.16661E-03-8.21299E-05-2.49585E-14
 -1      4030 5.30985E-03-8.18167E-05-2.62380E-14
 -1      4031 5.09481E-03-4.48713E-05-2.42776E-14
 -1      4032 5.45296E-03-8.14930E-05-2.75463E-14
 -1      4033 5.59594E-03-8.11518E-05-2.88804E-14
 -1      4034 5.38131E-03-4.44960E-05-2.68345E-14
 -1      4035 5.73878E-03-8.07982E-05-3.02410E-14
 -1      4036 5.88147E-03-8.04250E-05-3.16282E-14
 -1      4037 5.66726E-03-4.40959E-05-2.95002E-14
 -1      4038 6.02401E-03-8.00386E-05-3.30404E-14
 -1      4039 6.16637E-03-7.96315E-05-3.44767E-14
 -1      4040 5.95263E-03-4.36732E-05-3.22711E-14
 -1      4041 6.30854E-03-7.92131E-05-3.59367E-14
 -1      4042 6.45051E-03-7.87758E-05-3.74197E-14
 -1      4043 6.23731E-03-4.32368E-05-3.51402E-14
 -1      4044 6.59224E-03-7.83346E-05-3.89255E-14
 -1      4045 6.73371E-03-7.78820E-05-4.04543E-14
 -1      4046 6.52118E-03-4.28088E-05-3.81031E-14
 -1      4047 6.87488E-03-7.74417E-05-4.20049E-14
 -1      4048 7.01572E-03-7.70067E-05-4.35765E-14
 -1      4049 6.80403E-03-4.24343E-05-4.11573E-14
 -1      4050 7.15618E-03-7.66140E-05-4.51690E-14
 -1      4051 7.29623E-03-7.62577E-05-4.67824E-14
 -1      4052 7.08561E-03-4.21947E-05-4.42976E-14
 -1      4053 7.43580E-03-7.59937E-05-4.84165E-14
 -1      4054 7.57483E-03-7.58183E-05-5.00687E-14
 -1      4055 7.36560E-03-4.22255E-05-4.75207E-14
 -1      4056 7.71327E-03-7.58136E-05-5.17381E-14
 -1      4057 7.85103E-03-7.59784E-05-5.34240E-14
 -1      4058 7.64361E-03-4.27400E-05-5.08201E-14
 -1      4059 7.98804E-03-7.64307E-05-5.51256E-14
 -1      4060 8.12422E-03-7.71716E-05-5.68439E-14
 -1      4061 7.91915E-03-4.40589E-05-5.41897E-14
 -1      4062 8.25946E-03-7.83662E-05-5.85743E-14
 -1      4063 8.39366E-03-8.00156E-05-6.03157E-14
 -1      4064 8.19168E-03-4.66442E-05-5.76195E-14
 -1      4065 8.52673E-03-8.23453E-05-6.20703E-14
 -1      4066 8.65849E-03-8.53493E-05-6.38318E-14
 -1      4067 8.46057E-03-5.11341E-05-6.11017E-14
 -1      4068 8.78888E-03-8.93292E-05-6.56045E-14
 -1      4069 8.91767E-03-9.42543E-05-6.73860E-14
 -1      4070 8.72509E-03-5.83719E-05-6.46246E-14
 -1      4071 9.04482E-03-1.00515E-04-6.91744E-14
 -1      4072 9.16996E-03-1.08020E-04-7.09702E-14
 -1      4073 8.98450E-03-6.94065E-05-6.81833E-14
 -1      4074 6.84953E-03 9.16014E-05-4.13406E-14
 -1      4075 6.70816E-03 9.24329E-05-3.98002E-14
 -1      4076 2.85659E-03-8.35529E-05-8.50959E-15
 -1      4077 3.00197E-03-8.39504E-05-9.30172E-15
 -1      4078 2.78297E-03-4.56744E-05-8.10289E-15
 -1      4079 6.56653E-03 9.31649E-05-3.82826E-14
 -1      4080 6.42468E-03 9.38199E-05-3.67883E-14
 -1      4081 6.63696E-03 5.71705E-05-3.91235E-14
 -1      4082 3.26903E-03 1.75141E-04-1.05177E-14
 -1      4083 3.12415E-03 1.74703E-04-9.67997E-15
 -1      4084 3.04980E-03 1.36474E-04-9.33049E-15
 -1      4085 5.99796E-03 9.53913E-05-3.24408E-14
 -1      4086 5.85538E-03 9.58175E-05-3.10406E-14
 -1      4087 7.13143E-03 8.96014E-05-4.44816E-14
 -1      4088 6.99063E-03 9.06672E-05-4.29006E-14
 -1      4089 6.91950E-03 5.59997E-05-4.22054E-14
 -1      4090 7.41201E-03 8.70247E-05-4.77031E-14
 -1      4091 7.27190E-03 8.83995E-05-4.60831E-14
 -1      4092 7.20080E-03 5.44198E-05-4.53703E-14
 -1      4093 7.69106E-03 8.36900E-05-5.10025E-14
 -1      4094 7.55174E-03 8.54702E-05-4.93429E-14
 -1      4095 7.48059E-03 5.22696E-05-4.86165E-14
 -1      4096 7.96835E-03 7.93649E-05-5.43677E-14
 -1      4097 7.82993E-03 8.16733E-05-5.26767E-14
 -1      4098 7.75859E-03 4.93291E-05-5.19358E-14
 -1      4099 8.24373E-03 7.37585E-05-5.77931E-14
 -1      4100 8.10627E-03 7.67475E-05-5.60728E-14
 -1      4101 8.03450E-03 4.53033E-05-5.53205E-14
 -1      4102 8.51717E-03 6.65208E-05-6.12694E-14
 -1      4103 8.38067E-03 7.03709E-05-5.95251E-14
 -1      4104 8.30809E-03 3.98063E-05-5.87612E-14
 -1      4105 8.78888E-03 5.72638E-05-6.47945E-14
 -1      4106 8.65319E-03 6.21685E-05-6.30287E-14
 -1      4107 8.57920E-03 3.23536E-05-6.22542E-14
 -1      4108 9.05940E-03 4.56246E-05-6.83559E-14
 -1      4109 8.92419E-03 5.17523E-05-6.65709E-14
 -1      4110 8.84784E-03 2.23757E-05-6.57907E-14
 -1      4111 9.32990E-03 3.14006E-05-7.19489E-14
 -1      4112 9.19447E-03 3.88143E-05-7.01490E-14
 -1      4113 9.11436E-03 9.27303E-06-6.93592E-14
 -1      4114 9.60243E-03 1.49034E-05-7.55702E-14
 -1      4115 9.46563E-03 2.33691E-05-7.37567E-14
 -1      4116 9.37967E-03-7.48114E-06-7.29591E-14
 -1      4117 1.00449E-02-4.60818E-06-8.12263E-14
 -1      4118 9.31116E-03-1.12621E-04-7.29958E-14
 -1      4119 9.45055E-03-1.19515E-04-7.50282E-14
 -1      4120 9.25703E-03-8.02926E-05-7.19958E-14
 -1      4121 2.32914E-03 2.03415E-04-5.62401E-15
 -1      4122 5.42678E-03 9.68840E-05-2.69925E-14
 -1      4123 5.28366E-03 9.71888E-05-2.56977E-14
 -1      4124 2.23555E-03 1.58042E-04-5.29486E-15
 -1      4125 2.12840E-03 1.07686E-04-4.91576E-15
 -1      4126 3.55842E-03 1.75512E-04-1.22918E-14
 -1      4127 3.41379E-03 1.75406E-04-1.13884E-14
 -1      4128 3.62942E-03 1.37405E-04-1.28208E-14
 -1      4129 9.57327E-03-9.54942E-05-7.64522E-14
 -1      4130 2.27484E-03-8.00490E-05-5.67814E-15
 -1      4131 2.42021E-03-8.12692E-05-6.33522E-15
 -1      4132 2.49192E-03-4.48617E-05-6.65722E-15
 -1      4133 4.27828E-03 9.88188E-05-1.74273E-14
 -1      4134 4.13413E-03 9.89789E-05-1.63630E-14
 -1      4135 9.86124E-03-4.18367E-05-7.94604E-14
 -1      4136 5.71265E-03 9.62028E-05-2.96654E-14
 -1      4137 5.56978E-03 9.65585E-05-2.83155E-14
 -1      4138 5.78386E-03 5.92461E-05-3.04276E-14
 -1      4139 1.98468E-03-7.66748E-05-4.46617E-15
 -1      4140 2.12963E-03-7.85268E-05-5.05475E-15
 -1      4141 2.20111E-03-4.35171E-05-5.34597E-15
 -1      4142 5.14041E-03 9.74706E-05-2.44300E-14
 -1      4143 4.99704E-03 9.77377E-05-2.31900E-14
 -1      4144 5.21186E-03 6.00226E-05-2.51325E-14
 -1      4145 6.28262E-03 9.44002E-05-3.53159E-14
 -1      4146 6.14038E-03 9.49235E-05-3.38659E-14
 -1      4147 6.06897E-03 5.87206E-05-3.32311E-14
 -1      4148 2.38071E-03 1.60598E-04-5.92702E-15
 -1      4149 9.72569E-03-3.07370E-05-7.76337E-14
 -1      4150 1.71486E-03-1.81600E-05-3.44574E-15
 -1      4151 1.68908E-03-6.97972E-05-3.37009E-15
 -1      4152 3.07385E-03-4.61006E-05-9.68283E-15
 -1      4153 4.85354E-03 9.79854E-05-2.19797E-14
 -1      4154 4.70992E-03 9.82210E-05-2.07982E-14
 -1      4155 4.92507E-03 6.03245E-05-2.26506E-14
 -1      4156 3.98983E-03 9.91040E-05-1.53290E-14
 -1      4157 3.84539E-03 9.91997E-05-1.43263E-14
 -1      4158 4.06151E-03 6.09689E-05-1.59023E-14
 -1      4159 3.33987E-03 1.37206E-04-1.10103E-14
 -1      4160 2.45095E-03 1.24833E-04-6.30088E-15
 -1      4161 5.49813E-03 5.96698E-05-2.77263E-14
 -1      4162 9.63313E-03-6.14050E-05-7.68274E-14
 -1      4163 9.45402E-03-5.34208E-05-7.43988E-14
 -1      4164 4.56617E-03 9.84371E-05-1.96454E-14
 -1      4165 4.42229E-03 9.86402E-05-1.85218E-14
 -1      4166 4.63777E-03 6.05853E-05-2.02849E-14
 -1      4167 2.27567E-03 8.04287E-05-5.57170E-15
 -1      4168 2.11617E-03 7.32165E-05-4.90470E-15
 -1      4169 2.10455E-03 3.89096E-05-4.88963E-15
 -1      4170 4.34993E-03 6.08043E-05-1.80338E-14
 -1      4171 1.88497E-03-9.27628E-06-4.05906E-15
 -1      4172 6.35339E-03 5.80491E-05-3.61315E-14
 -1      4173 3.12100E-03 9.87032E-05-9.79116E-15
 -1      4174 2.97573E-03 9.83018E-05-8.98232E-15
 -1      4175 1.86955E-03-7.96198E-05-4.02353E-15
 -1      4176 1.94061E-03-4.64698E-05-4.28657E-15
 -1      4177 2.90200E-03 6.02370E-05-8.63501E-15
 -1      4178 2.83037E-03 9.77353E-05-8.20643E-15
 -1      4179 2.68495E-03 9.69924E-05-7.46424E-15
 -1      4180 2.98748E-03 7.20973E-06-9.15624E-15
 -1      4181 3.13286E-03 7.27429E-06-9.97372E-15
 -1      4182 3.58157E-03-8.02753E-06-1.27242E-14
 -1      4183 3.72640E-03-7.98619E-06-1.36748E-14
 -1      4184 3.85777E-03 7.45829E-06-1.45468E-14
 -1      4185 4.00229E-03 7.49004E-06-1.55561E-14
 -1      4186 4.14666E-03 7.51044E-06-1.65968E-14
 -1      4187 4.29088E-03 7.53779E-06-1.76681E-14
 -1      4188 4.43496E-03 7.55606E-06-1.87689E-14
 -1      4189 4.57889E-03 7.58000E-06-1.98996E-14
 -1      4190 4.72269E-03 7.59642E-06-2.10592E-14
 -1      4191 4.86635E-03 7.61713E-06-2.22472E-14
 -1      4192 5.00987E-03 7.63094E-06-2.34635E-14
 -1      4193 5.15327E-03 7.64735E-06-2.47088E-14
 -1      4194 5.29653E-03 7.65631E-06-2.59827E-14
 -1      4195 5.43966E-03 7.66566E-06-2.72844E-14
 -1      4196 5.58265E-03 7.66547E-06-2.86125E-14
 -1      4197 5.72550E-03 7.66256E-06-2.99676E-14
 -1      4198 5.86819E-03 7.64582E-06-3.13481E-14
 -1      4199 6.01073E-03 7.62165E-06-3.27541E-14
 -1      4200 6.15308E-03 7.57621E-06-3.41854E-14
 -1      4201 6.29525E-03 7.51598E-06-3.56397E-14
 -1      4202 6.43720E-03 7.42239E-06-3.71170E-14
 -1      4203 6.57891E-03 7.30237E-06-3.86170E-14
 -1      4204 6.72037E-03 7.13012E-06-4.01405E-14
 -1      4205 6.86154E-03 6.91323E-06-4.16854E-14
 -1      4206 7.00239E-03 6.61547E-06-4.32509E-14
 -1      4207 7.14288E-03 6.24501E-06-4.48379E-14
 -1      4208 7.28297E-03 5.75127E-06-4.64448E-14
 -1      4209 7.42262E-03 5.14262E-06-4.80724E-14
 -1      4210 7.56180E-03 4.34939E-06-4.97187E-14
 -1      4211 7.70043E-03 3.37939E-06-5.13817E-14
 -1      4212 7.83849E-03 2.13852E-06-5.30633E-14
 -1      4213 7.97590E-03 6.33028E-07-5.47601E-14
 -1      4214 8.11264E-03-1.26124E-06-5.64699E-14
 -1      4215 8.24862E-03-3.54059E-06-5.81953E-14
 -1      4216 8.38383E-03-6.36406E-06-5.99316E-14
 -1      4217 8.51815E-03-9.73097E-06-6.16806E-14
 -1      4218 8.65165E-03-1.38374E-05-6.34415E-14
 -1      4219 8.78414E-03-1.86849E-05-6.52110E-14
 -1      4220 8.91578E-03-2.45018E-05-6.69874E-14
 -1      4221 9.04635E-03-3.12800E-05-6.87735E-14
 -1      4222 2.00034E-03-4.67571E-06-4.50107E-15
 -1      4223 9.17611E-03-3.92792E-05-7.05665E-14
 -1      4224 9.32531E-03-4.28021E-05-7.25899E-14
 -1      4225 3.71382E-03 8.38311E-05-1.34658E-14
 -1      4226 3.56907E-03 8.38271E-05-1.25227E-14
 -1      4227 1.77920E-03-7.47349E-05-3.68988E-15
 -1      4228 2.56178E-03 9.31018E-05-6.86586E-15
 -1      4229 2.39875E-03 8.45600E-05-6.11483E-15
 -1      4230 2.38704E-03 4.90551E-05-6.10043E-15
 -1      4231 2.63336E-03 5.62793E-05-7.25849E-15
 -1      4232 3.41766E-03 9.14509E-05-1.15600E-14
 -1      4233 3.27263E-03 9.13008E-05-1.06828E-14
 -1      4234 3.19924E-03 5.30905E-05-1.03051E-14
 -1      4235 3.50261E-03 3.78897E-05-1.21658E-14
 -1      4236 2.69646E-03 7.06676E-06-7.62137E-15
 -1      4237 2.84200E-03 7.15136E-06-8.37179E-15
 -1      4238 2.15943E-03 7.33351E-07-5.14549E-15
 -1      4239 2.30473E-03 7.72462E-07-5.77199E-15
 -1      4240 3.28479E-03-3.83101E-07-1.08714E-14
 -1      4241 3.42992E-03-3.43923E-07-1.17558E-14
 -1      4242 2.42778E-03 3.83849E-06-6.32637E-15
 -1      4243 2.57331E-03 3.91413E-06-7.01514E-15
 -1      4244 3.78565E-03 4.56403E-05-1.40037E-14
 -3
    1PSTEP                         2           1           1          
  100CL  101 1.000000000        4244                     0    1           1
 -4  STRESS      6    1
 -5  SXX         1    4    1    1
 -5  SYY         1    4    2    2
 -5  SZZ         1    4    3    3
 -5  SXY         1    4    1    2
 -5  SYZ         1    4    2    3
 -5  SZX         1    4    3    1
 -1         1 5.40425E+01 6.18915E+00 2.99854E+00 1.72076E+01-2.72254E-13-5.84754E-13
 -1         2-8.37507E-01-3.02672E+01-4.08038E+00 1.14401E-01-1.13537E-12-1.21753E-13
 -1         3 2.00364E+01 3.95788E-02 5.09379E-03 3.78168E-02-4.79426E-13-4.76203E-13
 -1         4 1.98731E+01-1.56165E-01 4.55096E-02 1.93188E-01 3.92868E-13-3.74244E-13
 -1         5 3.27688E+01 6.14281E+00 2.74219E+00 6.22413E+00-5.27356E-14 3.61677E-12
 -1         6 3.57525E+01 1.22634E+01 5.12528E+00-8.64648E+00-2.30593E-13 3.22992E-12
 -1         7 2.08199E+01 6.10003E+00-1.28545E-01-4.72509E+00-3.18773E-14 4.10144E-13
 -1         8 1.96727E+01 5.93526E+00 5.10034E-02-3.27417E+00-3.68525E-14-4.18095E-13
 -1         9 1.91381E+01 5.77214E+00 4.91848E-02-2.52587E+00-3.29372E-14-8.40439E-13
 -1        10 1.88951E+01 5.69213E+00 5.09568E-02-1.95050E+00-2.10205E-14-1.02863E-12
 -1        11 1.87733E+01 5.65114E+00 5.02579E-02-1.45562E+00-1.05397E-14-1.10742E-12
 -1        12 1.87096E+01 5.62946E+00 4.88108E-02-1.01476E+00-6.05635E-15-1.12022E-12
 -1        13 1.86758E+01 5.61794E+00 4.74112E-02-5.95077E-01-4.23815E-16-1.09735E-12
 -1        14 1.86616E+01 5.61307E+00 4.66757E-02-1.91099E-01 3.36211E-15-1.07447E-12
 -1        15 1.86621E+01 5.61323E+00 4.67159E-02 2.08123E-01 1.20283E-14-1.03879E-12
 -1        16 1.86773E+01 5.61842E+00 4.75414E-02 6.12927E-01 1.65901E-14-1.00181E-12
 -1        17 1.87123E+01 5.63020E+00 4.90654E-02 1.03455E+00 2.06361E-14-9.45452E-13
 -1        18 1.87774E+01 5.65230E+00 5.08023E-02 1.47849E+00 2.42033E-14-8.46164E-13
 -1        19 1.89012E+01 5.69390E+00 5.16594E-02 1.97944E+00 3.61525E-14-6.85324E-13
 -1        20 1.91438E+01 5.77479E+00 4.91463E-02 2.56330E+00 4.53804E-14-3.94207E-13
 -1        21 1.96677E+01 5.94975E+00 4.58356E-02 3.30827E+00 5.41164E-14 1.40845E-13
 -1        22 2.12025E+01 6.38174E+00 1.39521E-01 4.52252E+00 7.02216E-15 1.22075E-12
 -1        23 2.30309E+01-1.37929E+00-9.38339E-01-7.11059E-01-1.64573E-13 2.43652E-12
 -1        24 1.93688E+01-9.94856E-02-3.09835E-01 6.32285E-02-4.46847E-14 1.72019E-12
 -1        25 1.86810E+01-5.63226E-02-6.88183E-02 6.07322E-02-1.85529E-14 1.03467E-12
 -1        26 1.84791E+01-2.20915E-02-6.50268E-03 3.29950E-02-5.71624E-15 5.90554E-13
 -1        27 1.84910E+01-1.18000E-02 1.57593E-03 2.26202E-02-1.49059E-14 3.25703E-13
 -1        28 1.86057E+01-6.23512E-03 1.78541E-03 1.63240E-02-1.80867E-14 4.29136E-14
 -1        29 1.87661E+01-3.07754E-03 1.73002E-03 1.21805E-02 5.81379E-15-1.67402E-13
 -1        30 1.89408E+01-1.21869E-03 1.91708E-03 9.22829E-03-6.23218E-15-2.64990E-13
 -1        31 1.91121E+01-1.19016E-04 2.08333E-03 7.00959E-03-9.53596E-15-4.67536E-13
 -1        32 1.92701E+01 5.11750E-04 2.12106E-03 5.29153E-03-2.13790E-14-6.25520E-13
 -1        33 1.94099E+01 8.42892E-04 2.03757E-03 3.94297E-03 3.07680E-14-7.49774E-13
 -1        34 1.95297E+01 9.79723E-04 1.87063E-03 2.88038E-03-1.69274E-14-8.24447E-13
 -1        35 1.96296E+01 9.90662E-04 1.65556E-03 2.04430E-03 4.44601E-15-9.41606E-13
 -1        36 1.97111E+01 9.20855E-04 1.41793E-03 1.38897E-03 3.09057E-14-8.68082E-13
 -1        37 1.97763E+01 7.99614E-04 1.17377E-03 8.77611E-04-1.26274E-14-8.22765E-13
 -1        38 1.98277E+01 6.44822E-04 9.31142E-04 4.80255E-04-3.09736E-14-9.53864E-13
 -1        39 1.98682E+01 4.65732E-04 6.91581E-04 1.72787E-04-1.76824E-14-9.98750E-13
 -1        40 1.99006E+01 2.64812E-04 4.51172E-04-6.34613E-05-2.04730E-14-1.08714E-12
 -1        41 1.99280E+01 3.89196E-05 2.01176E-04-2.41779E-04 3.43282E-14-1.16564E-12
 -1        42 1.99537E+01-2.20046E-04-7.17900E-05-3.69858E-04-5.54699E-14-1.23477E-12
 -1        43 1.99816E+01-5.24954E-04-3.86148E-04-4.49204E-04-4.36169E-14-1.27646E-12
 -1        44 2.00158E+01-8.93699E-04-7.66441E-04-4.73970E-04 1.89228E-14-1.11196E-12
 -1        45 2.00617E+01-1.34987E-03-1.24533E-03-4.28857E-04 3.88000E-15-8.74321E-13
 -1        46 2.01258E+01-1.92377E-03-1.86679E-03-2.85466E-04-6.19451E-14-1.27777E-12
 -1        47 2.02165E+01-2.65348E-03-2.69089E-03 3.90749E-06 4.80829E-14-1.29426E-12
 -1        48 2.03447E+01-3.58529E-03-3.80030E-03 5.16643E-04 3.22663E-14-1.13074E-12
 -1        49 2.05248E+01-4.77178E-03-5.30825E-03 1.37680E-03 4.46616E-14-9.98162E-13
 -1        50 2.07757E+01-6.26377E-03-7.36511E-03 2.78217E-03-6.67527E-15-1.11021E-12
 -1        51 2.11220E+01-8.08841E-03-1.01550E-02 5.04500E-03-3.53874E-14-1.02156E-12
 -1        52 2.15958E+01-1.01987E-02-1.38578E-02 8.64710E-03 3.87711E-14-7.34848E-13
 -1        53 2.22369E+01-1.23687E-02-1.85144E-02 1.42958E-02-2.55265E-15-6.33400E-13
 -1        54 2.30912E+01-1.39970E-02-2.36614E-02 2.29241E-02 1.65241E-14-6.97082E-13
 -1        55 2.42029E+01-1.37869E-02-2.74893E-02 3.54648E-02-4.49783E-14-8.23007E-13
 -1        56 2.55932E+01-9.35108E-03-2.52697E-02 5.19782E-02-3.58661E-14-9.57595E-13
 -1        57 2.72129E+01 2.85699E-03-7.43456E-03 6.92745E-02 2.11606E-14-7.19442E-13
 -1        58 2.88569E+01 2.62370E-02 4.01095E-02 7.60577E-02 4.51984E-14-3.71723E-13
 -1        59 3.00465E+01 5.92961E-02 1.25334E-01 4.69869E-02-5.70290E-15-5.51469E-14
 -1        60 2.99689E+01 8.74615E-02 2.20969E-01-5.41270E-02-2.95536E-14-1.18926E-13
 -1        61 2.77241E+01 8.09109E-02 2.32326E-01-2.35813E-01 2.37839E-14-1.92346E-14
 -1        62 2.31584E+01 1.61306E-02 4.13087E-02-4.02904E-01 1.00978E-14 3.57769E-14
 -1        63 1.79013E+01-7.84092E-02-2.97313E-01-3.59526E-01 6.87063E-14 4.78659E-13
 -1        64 1.49755E+01-1.20009E-01-4.85642E-01-2.95803E-02-6.10189E-14 6.22781E-13
 -1        65 1.59586E+01-9.49362E-02-3.46051E-01 2.79969E-01-1.24567E-13 3.12882E-13
 -1        66 1.96383E+01-1.16054E-03-8.11289E-03 3.71091E-01 3.35877E-14 1.73334E-13
 -1        67 2.30927E+01 6.81640E-02 2.15167E-01 2.22343E-01 1.09717E-13 1.64091E-13
 -1        68 2.44053E+01 7.67918E-02 2.23341E-01 2.62749E-02-2.85969E-15 2.10207E-13
 -1        69 2.35778E+01 3.91561E-02 1.09961E-01-9.40500E-02-1.64567E-13-3.23040E-13
 -1        70 2.17026E+01-1.74956E-02-2.72124E-02-1.19776E-01 5.18082E-14-7.39086E-13
 -1        71 2.01928E+01-9.11060E-03-6.58918E-02 3.54633E-03-1.67015E-13-1.00089E-12
 -1        72 2.10438E+01-4.05132E-01-9.80586E-01-3.11701E-01 6.12357E-14 3.29413E-12
 -1        73 1.93334E+01-6.65857E-02-2.90788E-01-5.38788E-02 2.61748E-14 2.52717E-12
 -1        74 1.86901E+01-2.12341E-02-6.37041E-02-2.10357E-02 1.28546E-14 2.00499E-12
 -1        75 1.84886E+01-1.04775E-02-9.07747E-03-1.60765E-02 5.23420E-15 1.61800E-12
 -1        76 1.85001E+01-5.37723E-03 5.92343E-04-1.27297E-02 3.88968E-15 1.32530E-12
 -1        77 1.86139E+01-2.61231E-03 1.69898E-03-1.02169E-02-2.48182E-15 1.13678E-12
 -1        78 1.87733E+01-1.05609E-03 1.91563E-03-8.35974E-03-1.20662E-14 1.03122E-12
 -1        79 1.89470E+01-1.56540E-04 2.12689E-03-6.87529E-03 2.01172E-14 8.58159E-13
 -1        80 1.91173E+01 3.54747E-04 2.26367E-03-5.62451E-03 2.07370E-15 6.03737E-13
 -1        81 1.92745E+01 6.23942E-04 2.26866E-03-4.55038E-03 1.78483E-14 4.53984E-13
 -1        82 1.94136E+01 7.38656E-04 2.15610E-03-3.62652E-03-1.30053E-14 3.51151E-13
 -1        83 1.95327E+01 7.54509E-04 1.96347E-03-2.83631E-03 3.45762E-14 2.67376E-13
 -1        84 1.96322E+01 7.07787E-04 1.72528E-03-2.16542E-03-2.94326E-14 1.51189E-13
 -1        85 1.97133E+01 6.22166E-04 1.46642E-03-1.59949E-03 2.12035E-14 2.43758E-13
 -1        86 1.97784E+01 5.12580E-04 1.20224E-03-1.12381E-03 2.65070E-15-8.60580E-15
 -1        87 1.98299E+01 3.87684E-04 9.40132E-04-7.23774E-04-3.37882E-14-1.66141E-13
 -1        88 1.98707E+01 2.51595E-04 6.81144E-04-3.85745E-04 2.96222E-14-2.17891E-13
 -1        89 1.99038E+01 1.05240E-04 4.21383E-04-9.79845E-05 7.21793E-15-5.22292E-13
 -1        90 1.99322E+01-5.24656E-05 1.53289E-04 1.48241E-04-4.83121E-14-5.58955E-13
 -1        91 1.99594E+01-2.23446E-04-1.33081E-04 3.57402E-04 1.81721E-14-3.20181E-13
 -1        92 1.99888E+01-4.09140E-04-4.48561E-04 5.28182E-04 1.73466E-14-1.60586E-13
 -1        93 2.00245E+01-6.08844E-04-8.02846E-04 6.51611E-04-1.45060E-14-3.12703E-13
 -1        94 2.00708E+01-8.17522E-04-1.20149E-03 7.08816E-04-3.80643E-16-5.51936E-13
 -1        95 2.01327E+01-1.02290E-03-1.64138E-03 6.68518E-04-1.08215E-14-5.75747E-13
 -1        96 2.02154E+01-1.20169E-03-2.10384E-03 4.84668E-04 2.89031E-14-7.41023E-14
 -1        97 2.03240E+01-1.31506E-03-2.54470E-03 9.51753E-05-8.01984E-16-9.51780E-14
 -1        98 2.04633E+01-1.30373E-03-2.88056E-03-5.76384E-04-5.77186E-14-3.33563E-13
 -1        99 2.06364E+01-1.08415E-03-2.97143E-03-1.61266E-03-4.10762E-14-4.63369E-13
 -1       100 2.08429E+01-5.48641E-04-2.60250E-03-3.08242E-03-6.16758E-15-4.55699E-13
 -1       101 2.10767E+01 4.25194E-04-1.47263E-03-5.00024E-03 2.98623E-14-3.32017E-13
 -1       102 2.13227E+01 1.94726E-03 7.92512E-04-7.25685E-03 2.42231E-15-3.22756E-13
 -1       103 2.15530E+01 4.05939E-03 4.57088E-03-9.51480E-03 4.30838E-15-5.05421E-13
 -1       104 2.17233E+01 6.64341E-03 1.00718E-02-1.10828E-02 1.14381E-14-2.62433E-13
 -1       105 2.17719E+01 9.30088E-03 1.70199E-02-1.08254E-02 1.16630E-14 4.29045E-14
 -1       106 2.16241E+01 1.12537E-02 2.42234E-02-7.24026E-03-6.69986E-14-2.32269E-13
 -1       107 2.12054E+01 1.13826E-02 2.92325E-02 1.08866E-03-1.77164E-14-5.40673E-13
 -1       108 2.04674E+01 8.55953E-03 2.85484E-02 1.45105E-02 1.03624E-13-9.87304E-13
 -1       109 1.94233E+01 2.33451E-03 1.89278E-02 3.10255E-02-3.06156E-14-1.02169E-12
 -1       110 1.81788E+01-6.28699E-03-1.79193E-04 4.56360E-02 7.15947E-14-9.39537E-13
 -1       111 1.69365E+01-1.46955E-02-2.44790E-02 5.16352E-02-5.19777E-15-1.02362E-12
 -1       112 1.59505E+01-1.96659E-02-4.52273E-02 4.41975E-02-1.98267E-14-6.61339E-13
 -1       113 1.54383E+01-1.92289E-02-5.34486E-02 2.42152E-02 5.82212E-14-4.00182E-13
 -1       114 1.54902E+01-1.40028E-02-4.59257E-02-1.04243E-03-1.10524E-13-1.94799E-13
 -1       115 1.60340E+01-6.62337E-03-2.74686E-02-2.22174E-02 1.09737E-13-3.31634E-13
 -1       116 1.68829E+01-1.90471E-05-7.61860E-03-3.36272E-02 1.28402E-13-1.06225E-12
 -1       117 1.78291E+01 4.44886E-03 6.48281E-03-3.60950E-02-9.84526E-14-1.21645E-12
 -1       118 1.87195E+01 7.63846E-03 1.52965E-02-3.52410E-02 9.90538E-15-9.42246E-13
 -1       119 1.94603E+01 1.18983E-02 2.59996E-02-3.53326E-02 7.50826E-14-1.36433E-12
 -1       120 1.99268E+01-4.13604E-03 2.39332E-02-2.30713E-02 1.92429E-13-1.32752E-12
 -1       121 2.00029E+01-1.00022E-01 2.08999E-02-2.44465E-02-1.34270E-12-7.61891E-14
 -1       122 2.00014E+01-5.71944E-01 1.21585E-02-4.36343E-02-7.37910E-13 1.67109E-13
 -1       123 1.99832E+01-1.14760E+00-2.16334E-02-4.76841E-02-3.93685E-13 1.41595E-13
 -1       124 1.99639E+01-1.45617E+00-5.86697E-02-3.11492E-02-1.98010E-14-2.49635E-13
 -1       125 1.99489E+01-1.13142E+00-9.29879E-02 3.94525E-03 6.03474E-13 3.86635E-14
 -1       126 1.99442E+01 1.50047E-01-1.12840E-01 6.03048E-02 1.39369E-12-3.44165E-14
 -1       127 1.99595E+01 2.55053E+00-9.56964E-02 1.30321E-01 1.22164E-12-1.13427E-13
 -1       128 1.99975E+01 5.80986E+00-2.59774E-02 1.82118E-01 9.29486E-13 2.29468E-13
 -1       129 2.00509E+01 9.31330E+00 8.77144E-02 1.80748E-01 2.64379E-13-1.19924E-13
 -1       130 2.00932E+01 1.18859E+01 1.88939E-01 9.68346E-02 6.11906E-14 1.48019E-13
 -1       131 2.01074E+01 1.25449E+01 2.16071E-01-2.99420E-02 4.66007E-13-1.75216E-14
 -1       132 2.00773E+01 1.10580E+01 1.48995E-01-1.45171E-01 1.79114E-13 2.83383E-13
 -1       133 2.00259E+01 8.04910E+00 3.52179E-02-1.90076E-01 4.82621E-13 6.40657E-14
 -1       134 1.99730E+01 4.63269E+00-6.72927E-02-1.67742E-01 8.30745E-13 2.00673E-13
 -1       135 1.99704E+01 1.79751E+00-1.21945E-01-8.32500E-02 1.15496E-12 1.60754E-13
 -1       136 1.99767E+01 1.43230E-01-1.07756E-01 5.64875E-02 1.43447E-12 9.37037E-14
 -1       137-1.67682E+00-2.42617E+01-3.60539E+00-4.62127E+00-4.33098E-13 1.45446E-13
 -1       138-1.68587E+00-1.04608E+01-2.49504E+00-3.42508E+00-6.08624E-13-4.55941E-13
 -1       139 3.11499E+00 3.57684E+00-1.03334E+00 3.61681E+00-7.56506E-13-3.20077E-13
 -1       140 1.63305E+01 1.13378E+01 5.83080E-01 1.34103E+01-5.09037E-13-7.52898E-13
 -1       141 3.68794E+01 1.14577E+01 2.08172E+00 1.98995E+01-4.02900E-13-4.71623E-13
 -1       142 5.64655E+01 6.28105E+00 3.12661E+00 1.76375E+01-1.07012E-13-2.17881E-13
 -1       143 6.88809E+01 1.75133E+00 3.67752E+00 7.25818E+00-1.93526E-14-5.94164E-13
 -1       144 6.83497E+01 1.64637E+00 3.59116E+00-7.26468E+00 2.13159E-13-1.75782E-12
 -1       145 5.47956E+01 6.31080E+00 2.89119E+00-1.74480E+01 7.65818E-13-2.30066E-12
 -1       146 3.48300E+01 1.10543E+01 1.76824E+00-1.90767E+01 1.24106E-12-2.35539E-12
 -1       147 1.66138E+01 1.13551E+01 4.63985E-01-1.35684E+01 1.51024E-12-1.73905E-12
 -1       148 3.65090E+00 4.53059E+00-9.40813E-01-4.29280E+00 1.48592E-12-1.18583E-12
 -1       149-1.40903E+00-8.08478E+00-2.18714E+00 2.78697E+00 7.67886E-13-3.04257E-13
 -1       150-1.45936E+00-2.04675E+01-3.04961E+00 4.15138E+00-2.01505E-13-7.00273E-14
 -1       151-7.17944E-01-2.72799E+01-3.49941E+00 2.76480E-01-1.57603E-12-1.08188E-13
 -1       152-1.58422E+00-2.47624E+01-3.44357E+00-4.49429E+00-1.23665E-12-1.19329E-13
 -1       153-2.62886E+00-1.40957E+01-2.85062E+00-5.26625E+00-1.22607E-12-4.48308E-13
 -1       154 3.60411E-01-1.30734E+00-1.81220E+00 1.58829E-01-1.63775E-12-1.29724E-12
 -1       155 1.12513E+01 7.65773E+00-3.64570E-01 9.34923E+00-1.31051E-12-9.49296E-13
 -1       156 3.12922E+01 9.85902E+00 1.36661E+00 1.71537E+01-3.52385E-13-6.87894E-13
 -1       157 7.08518E+01 1.76168E+00 4.12430E+00 7.40253E+00-6.20632E-14-2.46886E-13
 -1       158 7.28855E+01 1.80624E+00 4.33734E+00-7.54147E+00 2.01703E-13-1.11643E-12
 -1       159 5.94839E+01 6.66211E+00 3.60425E+00-1.85341E+01 3.58824E-13-1.00248E-12
 -1       160 3.74397E+01 1.17586E+01 2.18500E+00-2.04211E+01 2.08000E-13-2.59903E-13
 -1       161 1.66838E+01 1.15386E+01 4.82908E-01-1.37450E+01-3.51830E-13 7.19425E-14
 -1       162 2.57780E+00 2.60339E+00-1.31248E+00-2.99053E+00-2.33147E-13 5.31963E-13
 -1       163-2.05465E+00-1.15838E+01-2.76961E+00 4.14096E+00-1.07636E-13 1.55598E-13
 -1       164-1.75500E+00-2.47266E+01-3.75008E+00 4.80214E+00-4.95715E-14-2.19533E-13
 -1       165 2.10145E+01 3.69397E+00-5.73306E-02-3.60974E+00-5.01533E-13 3.31332E-15
 -1       166 1.99917E+01 4.20785E+00-4.57140E-02-2.80883E+00-4.36285E-13-5.10585E-13
 -1       167 1.95093E+01 4.47710E+00-3.15954E-02-2.19373E+00-3.43801E-13-7.76578E-13
 -1       168 1.92671E+01 4.61525E+00-2.37681E-02-1.67494E+00-2.40402E-13-8.97977E-13
 -1       169 1.91367E+01 4.69690E+00-1.94995E-02-1.21871E+00-1.49943E-13-9.30090E-13
 -1       170 1.90626E+01 4.74795E+00-1.74113E-02-7.91766E-01-6.84041E-14-9.38121E-13
 -1       171 1.90252E+01 4.77582E+00-1.64172E-02-3.86723E-01 1.44779E-14-9.09448E-13
 -1       172 1.90142E+01 4.78435E+00-1.61300E-02 8.27847E-03 8.90624E-14-8.81565E-13
 -1       173 1.90269E+01 4.77454E+00-1.64634E-02 4.03618E-01 1.60709E-13-8.58424E-13
 -1       174 1.90662E+01 4.74498E+00-1.75167E-02 8.09742E-01 2.32113E-13-8.13883E-13
 -1       175 1.91410E+01 4.69256E+00-1.96825E-02 1.23118E+00 3.02099E-13-7.36642E-13
 -1       176 1.92768E+01 4.60560E+00-2.39843E-02 1.69777E+00 3.90228E-13-6.15745E-13
 -1       177 1.95245E+01 4.45975E+00-3.26180E-02 2.22519E+00 4.71218E-13-4.23281E-13
 -1       178 2.00134E+01 4.18412E+00-4.71723E-02 2.84738E+00 5.18262E-13-4.80935E-14
 -1       179 2.11361E+01 3.46356E+00-6.00597E-02 3.53581E+00 4.92760E-13 5.95489E-13
 -1       180 2.24208E+01 1.14349E+00-3.36569E-01 3.01442E+00 3.65322E-13 1.46611E-12
 -1       181 2.19731E+01 8.58207E-01 6.66202E-04-1.95866E+00-4.52239E-13 6.34076E-13
 -1       182 2.04489E+01 1.90180E-01-1.00054E-02-7.63879E-01-3.84628E-13 4.31380E-13
 -1       183 1.96737E+01 1.01704E-01 1.35351E-02-2.85298E-01-2.76679E-13 2.40590E-13
 -1       184 1.93343E+01 4.71773E-02 9.99025E-03-6.75669E-02-1.94408E-13 7.29156E-14
 -1       185 1.92050E+01 2.25756E-02 5.15899E-03 3.97305E-02-1.68275E-13-5.97948E-14
 -1       186 1.91919E+01 9.53267E-03 2.43159E-03 9.23795E-02-1.41164E-13-1.20259E-13
 -1       187 1.92409E+01 2.12820E-03 1.12728E-03 1.14776E-01-8.32446E-14-2.29694E-13
 -1       188 1.93204E+01-2.11636E-03 4.91997E-04 1.19691E-01-1.06080E-13-2.66868E-13
 -1       189 1.94116E+01-4.43358E-03 1.55619E-04 1.14533E-01-8.51650E-14-2.95112E-13
 -1       190 1.95033E+01-5.52478E-03-3.22048E-05 1.03893E-01-8.27353E-14-3.25141E-13
 -1       191 1.95892E+01-5.82855E-03-1.34682E-04 9.07124E-02-9.29275E-14-4.26015E-13
 -1       192 1.96660E+01-5.63354E-03-1.83273E-04 7.68830E-02-7.54186E-14-4.80574E-13
 -1       193 1.97323E+01-5.13253E-03-1.96523E-04 6.36077E-02-1.51354E-14-5.28905E-13
 -1       194 1.97882E+01-4.45191E-03-1.86291E-04 5.16318E-02-3.82222E-14-6.59424E-13
 -1       195 1.98346E+01-3.66932E-03-1.60182E-04 4.14058E-02-7.21655E-14-6.17076E-13
 -1       196 1.98730E+01-2.82529E-03-1.22770E-04 3.32062E-02-3.55818E-14-6.42902E-13
 -1       197 1.99052E+01-1.93105E-03-7.63505E-05 2.72270E-02-1.14517E-14-6.21250E-13
 -1       198 1.99335E+01-9.73782E-04-2.13991E-05 2.36533E-02-6.35029E-14-6.13889E-13
 -1       199 1.99602E+01 8.04610E-05 4.31412E-05 2.27232E-02-1.00893E-13-7.10527E-13
 -1       200 1.99882E+01 1.28589E-03 1.19720E-04 2.47826E-02 6.64962E-15-6.96056E-13
 -1       201 2.00207E+01 2.71833E-03 2.12150E-04 3.03409E-02 8.58977E-14-5.69865E-13
 -1       202 2.00617E+01 4.47906E-03 3.25664E-04 4.01309E-02-2.35915E-14-6.03138E-13
 -1       203 2.01160E+01 6.70135E-03 4.66988E-04 5.51808E-02-1.02914E-13-6.78555E-13
 -1       204 2.01896E+01 9.55998E-03 6.44298E-04 7.69035E-02-1.90064E-14-5.81645E-13
 -1       205 2.02897E+01 1.32829E-02 8.66737E-04 1.07208E-01 8.43299E-14-5.95108E-13
 -1       206 2.04259E+01 1.81624E-02 1.14280E-03 1.48635E-01 3.84767E-14-6.60586E-13
 -1       207 2.06099E+01 2.45563E-02 1.47621E-03 2.04489E-01-7.57748E-14-8.03135E-13
 -1       208 2.08566E+01 3.28578E-02 1.85666E-03 2.78931E-01 1.41756E-13-6.59459E-13
 -1       209 2.11837E+01 4.33833E-02 2.24158E-03 3.76857E-01 1.48785E-13-4.85623E-13
 -1       210 2.16124E+01 5.60693E-02 2.52433E-03 5.03251E-01 2.66258E-15-5.00180E-13
 -1       211 2.21653E+01 6.97681E-02 2.49060E-03 6.61307E-01-1.18176E-13-4.68424E-13
 -1       212 2.28626E+01 8.07780E-02 1.78716E-03 8.47988E-01-3.60721E-14-3.96453E-13
 -1       213 2.37137E+01 8.01438E-02-1.39135E-05 1.04488E+00-4.46878E-14-2.43365E-13
 -1       214 2.47015E+01 4.96563E-02-3.10563E-03 1.20179E+00 1.52261E-13-8.76165E-14
 -1       215 2.57577E+01-4.10045E-02-6.84164E-03 1.21333E+00 1.81544E-13-1.85954E-13
 -1       216 2.67304E+01-2.25474E-01-8.91060E-03 9.02743E-01 1.67171E-13-1.03920E-13
 -1       217 2.73585E+01-4.99191E-01-6.81524E-03 6.08463E-02-4.76459E-14-9.87656E-14
 -1       218 2.72859E+01-7.24068E-01-2.76021E-03-1.36665E+00 7.30284E-14 1.21899E-13
 -1       219 2.62085E+01-5.77486E-01-9.90553E-03-2.91409E+00 4.55053E-14 4.34965E-14
 -1       220 2.42420E+01 1.80839E-01-4.51765E-02-3.43719E+00 5.23227E-14 6.03025E-14
 -1       221 2.23639E+01 1.06491E+00-7.74713E-02-1.97745E+00 1.29233E-13-2.28722E-13
 -1       222 2.17797E+01 1.15041E+00-8.22428E-02 5.33893E-01-3.08135E-13-5.27590E-14
 -1       223 2.25668E+01 3.38488E-01-4.95019E-02 2.28089E+00-9.41278E-14-3.83409E-14
 -1       224 2.36760E+01-4.79181E-01-1.19867E-02 2.06984E+00 1.38986E-14 1.31369E-13
 -1       225 2.40628E+01-7.13226E-01-4.93683E-04 6.51594E-01-8.71681E-14-5.97729E-14
 -1       226 2.35170E+01-4.82526E-01-1.00476E-03-7.28536E-01-2.60631E-13-1.10317E-13
 -1       227 2.23892E+01-1.03616E-01-1.82730E-03-1.39105E+00-1.10597E-13-6.33625E-14
 -1       228 2.11458E+01 2.77424E-01-2.01843E-03-1.19678E+00-2.71396E-13-1.59932E-13
 -1       229 2.03693E+01 4.78411E-01-2.12983E-02-6.37877E-01 1.73020E-13-1.87150E-13
 -1       230 2.09659E+01 2.77994E-01-5.08107E-02 1.16495E+00 3.63043E-13 1.26085E-12
 -1       231 1.98764E+01 1.30594E-01 1.00174E-02 4.46723E-01 2.80066E-13 9.91150E-13
 -1       232 1.93717E+01 5.63543E-02 1.34193E-02 1.48606E-01 1.92772E-13 7.45795E-13
 -1       233 1.91597E+01 2.26540E-02 7.33849E-03 6.57113E-03 1.50917E-13 6.03168E-13
 -1       234 1.91076E+01 9.91961E-03 3.58683E-03-6.20250E-02 8.47219E-14 5.13425E-13
 -1       235 1.91423E+01 3.23906E-03 1.73498E-03-9.36733E-02 7.97638E-14 3.79803E-13
 -1       236 1.92210E+01-5.27345E-04 8.74686E-04-1.04821E-01 8.58669E-14 2.93029E-13
 -1       237 1.93186E+01-2.63369E-03 4.40845E-04-1.04149E-01 1.30425E-13 2.52305E-13
 -1       238 1.94204E+01-3.70559E-03 1.98092E-04-9.68275E-02 6.14723E-14 1.98115E-13
 -1       239 1.95177E+01-4.11474E-03 5.42893E-05-8.61028E-02 8.71476E-14 1.30803E-13
 -1       240 1.96058E+01-4.10019E-03-2.98584E-05-7.40576E-02 1.00417E-13 5.54379E-14
 -1       241 1.96827E+01-3.82143E-03-7.49011E-05-6.20256E-02 4.32889E-14 3.62015E-14
 -1       242 1.97481E+01-3.38467E-03-9.35317E-05-5.08446E-02-3.41576E-14-3.29697E-14
 -1       243 1.98024E+01-2.85804E-03-9.41900E-05-4.10263E-02 8.76781E-14 7.22426E-16
 -1       244 1.98472E+01-2.28136E-03-8.25773E-05-3.28769E-02 1.07151E-13-3.27273E-14
 -1       245 1.98843E+01-1.67308E-03-6.25123E-05-2.65864E-02 6.69437E-14-1.73588E-13
 -1       246 1.99157E+01-1.03565E-03-3.65227E-05-2.22942E-02 8.68318E-14-1.90198E-13
 -1       247 1.99438E+01-3.59915E-04-6.30628E-06-2.01374E-02 4.41385E-14-2.04828E-13
 -1       248 1.99713E+01 3.70594E-04 2.68648E-05-2.02838E-02-1.02716E-13-2.95612E-13
 -1       249 2.00010E+01 1.17516E-03 6.17461E-05-2.29487E-02-5.43008E-14-2.48380E-13
 -1       250 2.00361E+01 2.07013E-03 9.66974E-05-2.83945E-02 2.94954E-14-1.79098E-13
 -1       251 2.00800E+01 3.06112E-03 1.29217E-04-3.69074E-02 1.06558E-13-2.23580E-13
 -1       252 2.01365E+01 4.13180E-03 1.55441E-04-4.87431E-02 4.82857E-14-1.74800E-13
 -1       253 2.02093E+01 5.22791E-03 1.69678E-04-6.40283E-02-2.04858E-13-2.36973E-13
 -1       254 2.03023E+01 6.23527E-03 1.64125E-04-8.26034E-02 5.59793E-14-1.09320E-13
 -1       255 2.04185E+01 6.95099E-03 1.29093E-04-1.03786E-01 1.47873E-13-1.71074E-13
 -1       256 2.05593E+01 7.04958E-03 5.42856E-05-1.26042E-01 3.38845E-14-2.77407E-13
 -1       257 2.07238E+01 6.05056E-03-6.81394E-05-1.46562E-01-5.00384E-14-2.34129E-13
 -1       258 2.09064E+01 3.30424E-03-2.37953E-04-1.60780E-01-8.46710E-14-2.17236E-13
 -1       259 2.10954E+01-1.96981E-03-4.38723E-04-1.61949E-01-2.77267E-14-1.20210E-13
 -1       260 2.12701E+01-1.05329E-02-6.29506E-04-1.41036E-01-4.75080E-14-5.62873E-14
 -1       261 2.14000E+01-2.27834E-02-7.42116E-04-8.73873E-02-5.56092E-14-5.41564E-14
 -1       262 2.14437E+01-3.81453E-02-6.95999E-04 9.15842E-03-5.06593E-14-8.41022E-14
 -1       263 2.13530E+01-5.42223E-02-4.41670E-04 1.53995E-01 4.87264E-14-6.19237E-14
 -1       264 2.10813E+01-6.60560E-02-2.69397E-05 3.41182E-01 2.35742E-13-7.06300E-14
 -1       265 2.05996E+01-6.63346E-02 3.60494E-04 5.46194E-01 1.80755E-13-2.98666E-13
 -1       266 1.99166E+01-4.77371E-02 4.34879E-04 7.22511E-01-6.13489E-14-3.02883E-13
 -1       267 1.90974E+01-7.81630E-03 4.82860E-06 8.08941E-01 2.66110E-14-1.12996E-13
 -1       268 1.82669E+01 4.58244E-02-7.27541E-04 7.52029E-01 1.28429E-13-1.20955E-13
 -1       269 1.75839E+01 9.50070E-02-1.23383E-03 5.37212E-01-1.58893E-13-3.11438E-13
 -1       270 1.71894E+01 1.18988E-01-8.69173E-04 2.09129E-01-2.72839E-13-1.49032E-13
 -1       271 1.71499E+01 1.07655E-01 3.12587E-04-1.39924E-01 1.87003E-14-2.11695E-14
 -1       272 1.74314E+01 6.93014E-02 1.60390E-03-4.14022E-01 3.34787E-13-2.73149E-13
 -1       273 1.79233E+01 2.41956E-02 2.07273E-03-5.60243E-01 3.82929E-13-2.17546E-13
 -1       274 1.84936E+01-9.63868E-03 1.49902E-03-5.84039E-01-1.54339E-13-1.37741E-13
 -1       275 1.90372E+01-2.80037E-02 9.73337E-04-5.25124E-01 6.98919E-14-2.04087E-13
 -1       276 1.94881E+01-4.61073E-02 1.61520E-03-4.12986E-01 3.07586E-13-3.38137E-13
 -1       277 1.98232E+01-8.41955E-02 4.83158E-03-2.39429E-01-2.42244E-13-5.11643E-13
 -1       278 1.99274E+01-2.88370E-01 2.44618E-03-3.55393E-01-2.38115E-13 5.04934E-13
 -1       279 2.00280E+01-5.56644E-01 2.46730E-03-3.85270E-01-1.40873E-14 8.43007E-14
 -1       280 2.01385E+01-7.26760E-01 5.72780E-03-1.78226E-01 8.57361E-14 4.81289E-13
 -1       281 2.02442E+01-6.12477E-01 7.01371E-03 2.88320E-01 2.98598E-13 1.38748E-13
 -1       282 2.03294E+01-4.07665E-02 6.16656E-03 9.82485E-01 2.96313E-13 1.50420E-13
 -1       283 2.03370E+01 1.11724E+00 2.62594E-03 1.78647E+00 4.68685E-13 1.03103E-13
 -1       284 2.02046E+01 2.81328E+00-2.32919E-03 2.42857E+00 5.61890E-13-2.19858E-13
 -1       285 1.99041E+01 4.85692E+00-5.29631E-03 2.56023E+00 3.67069E-13-3.45635E-13
 -1       286 1.95365E+01 6.69123E+00-5.51196E-03 1.87991E+00 1.53749E-13-2.20451E-13
 -1       287 1.93166E+01 7.67352E+00-4.63858E-03 5.05833E-01-1.68643E-13 1.54699E-13
 -1       288 1.93888E+01 7.45678E+00-4.92624E-03-1.07150E+00 1.31310E-14 1.27433E-14
 -1       289 1.97026E+01 6.14055E+00-5.28758E-03-2.17475E+00 1.78989E-13 1.85896E-13
 -1       290 2.00499E+01 4.27856E+00-2.98812E-03-2.47250E+00 9.85774E-14 1.46636E-13
 -1       291 2.02720E+01 2.47450E+00-8.05821E-04-2.08734E+00-5.15100E-14 4.43699E-14
 -1       292 2.03239E+01 1.37306E+00-9.33433E-03-1.40900E+00-8.22363E-14-7.62871E-14
 -1       293-1.05088E+00-1.34593E+01-1.17893E+00 1.49924E+00-2.60653E-13 3.35260E-13
 -1       294 3.94218E+00-9.70668E+00-6.61465E-01 5.11047E+00-3.02536E-14-2.11414E-13
 -1       295 1.02808E+01-6.29341E+00-5.37087E-01 6.28553E+00-1.33726E-13-1.52572E-13
 -1       296 1.98271E+01-1.47666E+00-6.61496E-02 8.04091E+00-3.04590E-13-3.36287E-13
 -1       297 3.13929E+01 1.21537E+00 2.73302E-01 7.08901E+00-3.02369E-13-1.13048E-13
 -1       298 4.06314E+01 5.46921E+00 7.47750E-01 7.18493E+00-2.36114E-13-3.28959E-13
 -1       299 4.67270E+01 7.01304E+00 9.26278E-01 4.18413E+00 1.78607E-14-8.79963E-13
 -1       300 4.83431E+01 7.62029E+00 9.18111E-01 2.61115E-01 5.22804E-13-1.27782E-12
 -1       301 4.70364E+01 6.59941E+00 9.55336E-01-4.03187E+00 5.52697E-13-1.48029E-12
 -1       302 3.91282E+01 4.84067E+00 5.71620E-01-5.99193E+00 7.76835E-13-1.29793E-12
 -1       303 3.00739E+01 2.34906E+00 2.92342E-01-7.84676E+00 7.95891E-13-1.61404E-12
 -1       304 1.99429E+01-1.10311E+00-7.05706E-02-7.68356E+00 6.39155E-13-1.25908E-12
 -1       305 9.99377E+00-5.05010E+00-4.78553E-01-6.03341E+00 4.15223E-13-8.24049E-13
 -1       306 3.37651E+00-9.07088E+00-7.31721E-01-4.24447E+00 6.41154E-15-6.08631E-13
 -1       307-7.66841E-01-1.22379E+01-9.92478E-01-1.94433E+00-2.70395E-13-6.02185E-13
 -1       308-1.50536E+00-1.24300E+01-9.74665E-01-1.08716E-02-4.30933E-13-4.46865E-14
 -1       309 1.33442E+00-1.10000E+01-8.87504E-01 2.16683E+00-6.54282E-13-2.53630E-13
 -1       310 7.76643E+00-7.94887E+00-6.65358E-01 4.29280E+00-6.05932E-13-6.78069E-13
 -1       311 1.65703E+01-3.97900E+00-3.49785E-01 5.82352E+00-6.12344E-13-2.71810E-13
 -1       312 2.87785E+01-1.24242E+00 9.56327E-02 5.42782E+00-5.41844E-13-2.45470E-13
 -1       313 3.90534E+01 3.01820E+00 5.88123E-01 4.68443E+00-3.37758E-13-5.21527E-13
 -1       314 4.77952E+01 5.79919E+00 1.10625E+00 2.74576E+00-3.08684E-13-4.60965E-13
 -1       315 4.93938E+01 7.54535E+00 1.08542E+00-1.03106E+00 2.70922E-13-5.49196E-13
 -1       316 4.93007E+01 6.88893E+00 1.23661E+00-4.53445E+00 8.36553E-14-5.52419E-13
 -1       317 4.17885E+01 4.95131E+00 8.33164E-01-6.57966E+00-1.12977E-13-4.94105E-13
 -1       318 3.17806E+01 2.08210E+00 4.13388E-01-8.31088E+00-1.88849E-13-2.85216E-13
 -1       319 2.05704E+01-2.47433E+00-1.37293E-01-7.68878E+00-1.91291E-13-1.00669E-13
 -1       320 9.99744E+00-6.97157E+00-6.41461E-01-5.93284E+00 5.18474E-14 2.40960E-13
 -1       321 3.06023E+00-1.07656E+01-9.23335E-01-3.95586E+00-1.02557E-13-3.26128E-14
 -1       322-1.04833E+00-1.29963E+01-1.12368E+00-1.21417E+00-4.60965E-13-3.85608E-13
 -1       323 2.01460E+01 3.01531E+00-1.78523E-02-2.10952E+00-4.55410E-13-4.72579E-13
 -1       324 2.07570E+01 2.20819E+00-1.78134E-02-2.36276E+00-5.24059E-13-1.83707E-13
 -1       325 1.95836E+01 3.69212E+00-1.51396E-02-1.31657E+00-2.52888E-13-7.21065E-13
 -1       326 1.94596E+01 3.84886E+00-1.35855E-02-9.23196E-01-1.49459E-13-7.29973E-13
 -1       327 1.93903E+01 3.93972E+00-1.26811E-02-5.43616E-01-3.96954E-14-7.20351E-13
 -1       328 1.93597E+01 3.98104E+00-1.22844E-02-1.73161E-01 6.61541E-14-6.94021E-13
 -1       329 1.93610E+01 3.97943E+00-1.23080E-02 1.94317E-01 1.54643E-13-6.70870E-13
 -1       330 1.93945E+01 3.93450E+00-1.27572E-02 5.65117E-01 2.42656E-13-6.54629E-13
 -1       331 1.94656E+01 3.84112E+00-1.37697E-02 9.38925E-01 3.36033E-13-6.01846E-13
 -1       332 1.95929E+01 3.67860E+00-1.56845E-02 1.33308E+00 4.17564E-13-4.84036E-13
 -1       333 1.98082E+01 3.41002E+00-1.90558E-02 1.73914E+00 5.11963E-13-3.62152E-13
 -1       334 2.01760E+01 2.95107E+00-2.32778E-02 2.12329E+00 5.61155E-13-1.34769E-13
 -1       335 2.07606E+01 2.10609E+00-2.94937E-02 2.30664E+00 5.67530E-13 2.87510E-13
 -1       336 2.10944E+01 1.18622E+00-2.41284E-02 1.91419E+00 5.00057E-13 6.62452E-13
 -1       337 2.03834E+01 4.93732E-01 7.81102E-03 9.24883E-01 3.92974E-13 5.01483E-13
 -1       338 2.04593E+01 6.75758E-01 1.23553E-02-1.02478E+00-4.18129E-13-9.75615E-14
 -1       339 2.00384E+01 3.36789E-01 7.10763E-03-4.57228E-01-3.32716E-13-1.46102E-13
 -1       340 1.97842E+01 1.76548E-01 4.12649E-03-1.48235E-01-2.58207E-13-1.80124E-13
 -1       341 1.96490E+01 9.05182E-02 1.89680E-03 2.30128E-02-2.09440E-13-2.36542E-13
 -1       342 1.95937E+01 4.13651E-02 7.89980E-04 1.14187E-01-1.50020E-13-2.63914E-13
 -1       343 1.95886E+01 1.23620E-02 2.71323E-04 1.57338E-01-9.62874E-14-2.69965E-13
 -1       344 1.96127E+01-4.66983E-03 1.33834E-05 1.71352E-01-8.88772E-14-2.72394E-13
 -1       345 1.96521E+01-1.41851E-02-1.21700E-04 1.67971E-01-1.16281E-13-2.85772E-13
 -1       346 1.96978E+01-1.88491E-02-1.89590E-04 1.54763E-01-1.29701E-13-3.26064E-13
 -1       347 1.97442E+01-2.03647E-02-2.16313E-04 1.36692E-01-1.33473E-13-3.07865E-13
 -1       348 1.97881E+01-1.98594E-02-2.16773E-04 1.17017E-01-1.17250E-13-4.03033E-13
 -1       349 1.98277E+01-1.80834E-02-2.00487E-04 9.78588E-02-7.24091E-14-4.38983E-13
 -1       350 1.98625E+01-1.55232E-02-1.73587E-04 8.05785E-02-1.32751E-13-4.71734E-13
 -1       351 1.98929E+01-1.24706E-02-1.39783E-04 6.60543E-02-6.68290E-14-5.52408E-13
 -1       352 1.99194E+01-9.06871E-03-1.00948E-04 5.48830E-02-1.75275E-14-5.15369E-13
 -1       353 1.99433E+01-5.34284E-03-5.75023E-05 4.75365E-02-1.36733E-14-5.41308E-13
 -1       354 1.99662E+01-1.22038E-03-8.65039E-06 4.44879E-02-4.54853E-14-4.21727E-13
 -1       355 1.99897E+01 3.45853E-03 4.75039E-05 4.63164E-02-7.39079E-14-3.61213E-13
 -1       356 2.00160E+01 8.93880E-03 1.13948E-04 5.38030E-02 2.44810E-14-4.45571E-13
 -1       357 2.00476E+01 1.55567E-02 1.94858E-04 6.80245E-02 1.16375E-14-5.58675E-13
 -1       358 2.00876E+01 2.37548E-02 2.95786E-04 9.04530E-02-4.38789E-14-4.98524E-13
 -1       359 2.01394E+01 3.41058E-02 4.23921E-04 1.23071E-01-9.89318E-15-3.85557E-13
 -1       360 2.02074E+01 4.73417E-02 5.88305E-04 1.68501E-01 2.67901E-14-3.32959E-13
 -1       361 2.02965E+01 6.43802E-02 7.99771E-04 2.30155E-01 3.25609E-14-4.35125E-13
 -1       362 2.04128E+01 8.63246E-02 1.06996E-03 3.12375E-01 2.86338E-16-4.08665E-13
 -1       363 2.05628E+01 1.14380E-01 1.40813E-03 4.20511E-01 1.36793E-13-2.85171E-13
 -1       364 2.07543E+01 1.49565E-01 1.81306E-03 5.60792E-01 1.05939E-13-3.69984E-13
 -1       365 2.09953E+01 1.91959E-01 2.25543E-03 7.39693E-01 1.30955E-13-3.76857E-13
 -1       366 2.12940E+01 2.39012E-01 2.64438E-03 9.62218E-01-3.81205E-15-3.30849E-13
 -1       367 2.16584E+01 2.82086E-01 2.77434E-03 1.22803E+00 1.93003E-14-1.32690E-13
 -1       368 2.20970E+01 3.00103E-01 2.26530E-03 1.52374E+00 2.95683E-14-1.88956E-13
 -1       369 2.26217E+01 2.49625E-01 5.84300E-04 1.80908E+00 3.60523E-14-1.74654E-13
 -1       370 2.32559E+01 5.39577E-02-2.72286E-03 1.99511E+00 1.77075E-13-8.93563E-14
 -1       371 2.40457E+01-3.92814E-01-7.72000E-03 1.91638E+00 1.58576E-13-1.43705E-13
 -1       372 2.50535E+01-1.15970E+00-1.23616E-02 1.31969E+00-5.41203E-14-1.21004E-13
 -1       373 2.62899E+01-2.08996E+00-1.60885E-02-7.27245E-02 4.38980E-14-7.01223E-14
 -1       374 2.74802E+01-2.45503E+00-2.84148E-02-2.25154E+00 1.04225E-13-3.64662E-13
 -1       375 2.79612E+01-1.08731E+00-7.96862E-02-4.26847E+00 4.62096E-14-4.16896E-13
 -1       376 2.74003E+01 2.06639E+00-1.30789E-01-4.12608E+00-6.94514E-14-2.70754E-13
 -1       377 2.66431E+01 4.01333E+00-1.62029E-01-1.25735E+00 1.56444E-13-2.11854E-13
 -1       378 2.67390E+01 2.58102E+00-1.43739E-01 2.11196E+00-1.22499E-13 1.06387E-13
 -1       379 2.69222E+01-6.23221E-01-8.24361E-02 2.77641E+00 1.37675E-13 2.47085E-13
 -1       380 2.61415E+01-2.30490E+00-3.70012E-02 1.06289E+00-8.08456E-14 2.77562E-13
 -1       381 2.45953E+01-2.03687E+00-1.69049E-02-1.05817E+00-2.06566E-13 9.06510E-14
 -1       382 2.29950E+01-9.18474E-01-2.64649E-03-2.31732E+00-3.51335E-13 2.29454E-13
 -1       383 2.15936E+01 3.06060E-01 3.95596E-03-2.52711E+00-4.49913E-13 3.11556E-15
 -1       384 1.98425E+01 2.25248E-01 6.86814E-03 2.74927E-01 2.58054E-13 2.09235E-13
 -1       385 1.96485E+01 1.12661E-01 3.30100E-03 4.73902E-02 1.92430E-13 1.50439E-13
 -1       386 1.95582E+01 5.52097E-02 1.48593E-03-7.46168E-02 1.58205E-13 6.84427E-14
 -1       387 1.95357E+01 2.19241E-02 5.98398E-04-1.36248E-01 1.28959E-13 4.63699E-14
 -1       388 1.95535E+01 2.36599E-03 1.64139E-04-1.61718E-01 1.19466E-13-3.03526E-15
 -1       389 1.95932E+01-8.87295E-03-5.97678E-05-1.65473E-01 9.23695E-14-8.83713E-15
 -1       390 1.96430E+01-1.48317E-02-1.76777E-04-1.56587E-01 9.13871E-14-5.23975E-14
 -1       391 1.96954E+01-1.73745E-02-2.31606E-04-1.40946E-01 1.30093E-13-5.46784E-14
 -1       392 1.97459E+01-1.77109E-02-2.47465E-04-1.22404E-01 9.37469E-14-2.84839E-14
 -1       393 1.97920E+01-1.66449E-02-2.38445E-04-1.03478E-01-1.01962E-14-9.03984E-14
 -1       394 1.98328E+01-1.47074E-02-2.13645E-04-8.57920E-02-2.40188E-14-9.26053E-14
 -1       395 1.98682E+01-1.22355E-02-1.78887E-04-7.03809E-02 1.29435E-13-8.29904E-14
 -1       396 1.98987E+01-9.42378E-03-1.37647E-04-5.79113E-02 1.08406E-13-9.18652E-14
 -1       397 1.99254E+01-6.36130E-03-9.17178E-05-4.88419E-02 7.65554E-14-1.27235E-13
 -1       398 1.99498E+01-3.06076E-03-4.17135E-05-4.35414E-02 1.14749E-13-2.23303E-13
 -1       399 1.99734E+01 5.16512E-04 1.24929E-05-4.23705E-02 2.82703E-14-2.42054E-13
 -1       400 1.99981E+01 4.43578E-03 7.13297E-05-4.57318E-02-1.57854E-13-2.42288E-13
 -1       401 2.00260E+01 8.76081E-03 1.35032E-04-5.40868E-02-9.64772E-15-1.55955E-13
 -1       402 2.00595E+01 1.35182E-02 2.03020E-04-6.79324E-02 8.65397E-14-1.28425E-13
 -1       403 2.01011E+01 1.86490E-02 2.73090E-04-8.77288E-02 1.91426E-14 7.28765E-15
 -1       404 2.01534E+01 2.39423E-02 3.40348E-04-1.13758E-01-2.35496E-14 8.03421E-15
 -1       405 2.02190E+01 2.89447E-02 3.95880E-04-1.45893E-01-7.81200E-14-2.25616E-13
 -1       406 2.03004E+01 3.28445E-02 4.25228E-04-1.83251E-01 1.37975E-13-2.15798E-13
 -1       407 2.03992E+01 3.43340E-02 4.06959E-04-2.23707E-01 1.25008E-13-1.87785E-13
 -1       408 2.05161E+01 3.14729E-02 3.12007E-04-2.63260E-01-8.81357E-14-1.17096E-13
 -1       409 2.06498E+01 2.16101E-02 1.05032E-04-2.95287E-01-1.35729E-13-7.32686E-14
 -1       410 2.07960E+01 1.47692E-03-2.50155E-04-3.09815E-01-3.48505E-14-8.22300E-14
 -1       411 2.09466E+01-3.23412E-02-7.78544E-04-2.93112E-01-5.85697E-14-5.30270E-15
 -1       412 2.10880E+01-8.22596E-02-1.47379E-03-2.28141E-01-1.40913E-13 5.07263E-14
 -1       413 2.12003E+01-1.47552E-01-2.26750E-03-9.67938E-02-1.31039E-13 1.21111E-15
 -1       414 2.12567E+01-2.21132E-01-3.00086E-03 1.14979E-01 7.09951E-14 7.08167E-14
 -1       415 2.12247E+01-2.86013E-01-3.42100E-03 4.08209E-01 6.84863E-14 1.27237E-13
 -1       416 2.10708E+01-3.13957E-01-3.23038E-03 7.58757E-01 2.37740E-13 3.82905E-13
 -1       417 2.07709E+01-2.70852E-01-2.19357E-03 1.10637E+00 9.41043E-14 1.99297E-13
 -1       418 2.03277E+01-1.32955E-01-3.62933E-04 1.35487E+00-5.35959E-14 1.17254E-13
 -1       419 1.97902E+01 8.88749E-02 1.79932E-03 1.39597E+00 9.67347E-14 7.68802E-14
 -1       420 1.92591E+01 3.33854E-01 3.80601E-03 1.16010E+00 7.72314E-14 2.55577E-13
 -1       421 1.88607E+01 5.07748E-01 4.98192E-03 6.70672E-01-2.10177E-13 1.04605E-13
 -1       422 1.86917E+01 5.34228E-01 5.35535E-03 5.89910E-02-1.16344E-13-2.39415E-13
 -1       423 1.87637E+01 4.10051E-01 4.71741E-03-4.90890E-01 1.20776E-13-3.97862E-13
 -1       424 1.90007E+01 2.07330E-01 3.05356E-03-8.39824E-01 1.28986E-13 9.53687E-14
 -1       425 1.92893E+01 1.98052E-02 1.19247E-03-9.53825E-01 6.41175E-14 4.33539E-13
 -1       426 1.95381E+01-9.80228E-02-8.31152E-04-8.92893E-01 2.06850E-14 2.37540E-13
 -1       427 1.97209E+01-1.61547E-01-2.28573E-03-7.46840E-01 1.19150E-13 3.59532E-13
 -1       428 1.98177E+01-2.07506E-01-1.39120E-04-5.76166E-01 6.21276E-14 5.09622E-13
 -1       429 2.07126E+01-5.87203E-01 7.71485E-03 6.36887E-02 6.78426E-14 2.60479E-13
 -1       430 2.03401E+01-4.83448E-01 3.62423E-03-4.68345E-01 1.77359E-13 3.57181E-13
 -1       431 2.10710E+01-5.33367E-01 1.01374E-02 9.42196E-01 1.38779E-13 2.06475E-13
 -1       432 2.12615E+01-2.02164E-01 1.01225E-02 2.12226E+00 2.56533E-13 2.51021E-13
 -1       433 2.10659E+01 5.20709E-01 6.70325E-03 3.32185E+00 3.24880E-13-3.81119E-15
 -1       434 2.02692E+01 1.73100E+00 2.47717E-03 4.09005E+00 3.59427E-13-5.40358E-13
 -1       435 1.89581E+01 3.24408E+00-5.14258E-05 3.77072E+00 4.63076E-14-4.98009E-13
 -1       436 1.77717E+01 4.48484E+00 4.95343E-04 2.09185E+00 2.64706E-14-2.68665E-13
 -1       437 1.74557E+01 4.85088E+00 1.40441E-03-4.85958E-01-3.13088E-14 3.90341E-13
 -1       438 1.82653E+01 4.12967E+00 1.23194E-04-2.76762E+00-9.80032E-15 5.83806E-13
 -1       439 1.95985E+01 2.82380E+00 7.44561E-04-3.81861E+00 8.36527E-15-2.19434E-13
 -1       440 2.06818E+01 1.57881E+00 3.01060E-03-3.59208E+00-2.26503E-13-1.01292E-13
 -1       441 2.00416E+01 3.28885E-01 1.04963E-02 5.36687E-01 3.29949E-13 3.52037E-13
 -1       442 1.31207E+01-6.56968E+00 1.70358E-02 8.40390E+00 2.33424E-14-1.82403E-13
 -1       443 2.79752E+01-4.55389E+00-1.52783E-02 5.60080E+00-4.04884E-13-7.38021E-14
 -1       444 1.26891E+00-5.71432E+00-1.20379E-01 4.00400E-01 2.60417E-14 1.52850E-13
 -1       445 2.05323E+01-6.41320E+00-1.46445E-02 7.99274E+00-7.74381E-14-2.96756E-13
 -1       446 1.97874E+01 3.44001E+00-2.06936E-02-1.72542E+00-3.55451E-13-6.36526E-13
 -1       447 3.39809E+01 8.46243E-01-1.32060E-02 1.07166E+00-1.38931E-13-2.66620E-13
 -1       448 3.50782E+01 4.93148E+00-1.01237E-01-1.64371E-01 2.94986E-13-4.47517E-13
 -1       449 3.78622E+01 8.42748E+00 3.10258E-02 2.83153E-01 4.20192E-13-9.43044E-13
 -1       450 3.71107E+01 8.26100E+00 1.06448E-02 6.09553E-01 4.89997E-13-9.17509E-13
 -1       451 3.63851E+01 5.49003E+00 2.95599E-02 2.52336E-01 3.96363E-13-8.48488E-13
 -1       452 3.31796E+01 4.71952E-01 1.04746E-02-2.11704E+00 4.61982E-13-7.54535E-13
 -1       453 2.77430E+01-3.36209E+00 3.13454E-03-4.88233E+00 1.98508E-13-1.09469E-12
 -1       454 1.99636E+01-5.91875E+00-4.32054E-03-7.23646E+00-1.88044E-14-9.50788E-13
 -1       455 1.11185E+01-6.32829E+00-6.20163E-02-7.57237E+00-1.88738E-13-7.22578E-13
 -1       456 4.03760E+00-5.69680E+00-4.95763E-02-5.46818E+00 1.68310E-13-6.23446E-13
 -1       457 7.80357E-01-5.67685E+00-7.70256E-02-1.92200E+00 1.04670E-13-5.05235E-13
 -1       458 2.56779E+00-5.71567E+00-3.41188E-02 2.99093E+00-1.81535E-13-3.28571E-13
 -1       459 8.71879E+00-6.93164E+00-6.13800E-02 5.86022E+00-4.24549E-13-4.98823E-13
 -1       460 1.82743E+01-7.25814E+00-2.16546E-02 5.99112E+00-4.67570E-13-3.48936E-13
 -1       461 2.60079E+01-6.27913E+00-5.70120E-02 3.79507E+00-6.32119E-13-4.13419E-14
 -1       462 3.33362E+01-2.09370E+00-2.16086E-02-7.61402E-01-2.50583E-13-2.98817E-13
 -1       463 3.72715E+01 3.48777E+00 9.59352E-02-1.87851E+00-2.37740E-13-3.99236E-13
 -1       464 3.88607E+01 6.94440E+00 1.17319E-01-1.97479E+00 1.15852E-13-6.08957E-13
 -1       465 3.86695E+01 7.66090E+00 9.69341E-02-5.02890E-01-4.74620E-15-5.67969E-13
 -1       466 3.83820E+01 5.14075E+00 1.67272E-01-3.99959E-01 7.22339E-14-6.04433E-13
 -1       467 3.44255E+01-7.70404E-01-1.02129E-02-1.10401E+00-1.89015E-14-6.89337E-13
 -1       468 2.91565E+01-4.06539E+00 2.21356E-02-5.19173E+00 4.48114E-14-5.21777E-13
 -1       469 2.03526E+01-7.07016E+00-6.98955E-02-7.59175E+00 5.30409E-14-1.63689E-13
 -1       470 1.21305E+01-6.93411E+00-3.33918E-02-7.95038E+00-7.23033E-14 3.50303E-13
 -1       471 4.37893E+00-5.87522E+00-5.75414E-02-4.99512E+00-2.18436E-13-1.56708E-13
 -1       472 3.96509E+00-5.65921E+00-4.03160E-02 4.97100E+00-1.98799E-13 2.40419E-13
 -1       473 1.08855E+01-4.23564E+00 1.58925E-01 7.70436E+00-8.44186E-14-1.23568E-13
 -1       474 3.34042E+01 7.23326E+00-1.58672E-01-1.41233E+00 1.60844E-13-5.28896E-13
 -1       475 1.97319E+01 3.10440E+00-5.31695E-03-6.33623E-01-1.03655E-13-6.41457E-13
 -1       476 1.98285E+01 2.93114E+00-5.69721E-03-9.49662E-01-1.87539E-13-6.32678E-13
 -1       477 1.96640E+01 3.22702E+00-5.01709E-03 8.81578E-03 9.27793E-14-6.01340E-13
 -1       478 1.96825E+01 3.19401E+00-5.10356E-03 3.30265E-01 1.87886E-13-6.05950E-13
 -1       479 1.97365E+01 3.09719E+00-5.42338E-03 6.45481E-01 2.82214E-13-5.75819E-13
 -1       480 1.98355E+01 2.91937E+00-5.94177E-03 9.60821E-01 3.78384E-13-5.00645E-13
 -1       481 1.99920E+01 2.63326E+00-6.56094E-03 1.25566E+00 4.31053E-13-3.73402E-13
 -1       482 2.02227E+01 2.19390E+00-5.81615E-03 1.48942E+00 4.85900E-13-2.29965E-13
 -1       483 2.04791E+01 1.54601E+00-3.25758E-03 1.54181E+00 5.04079E-13 3.02627E-14
 -1       484 2.05347E+01 9.90618E-01 3.19835E-03 1.29739E+00 4.69055E-13 2.47686E-13
 -1       485 2.03457E+01 9.71365E-01 2.41606E-03-9.41529E-01-3.77773E-13-3.04135E-13
 -1       486 3.19043E+01 1.71010E+00-1.29552E-01 1.49738E+00 1.88474E-13-2.48759E-13
 -1       487 2.01724E+01 5.44133E-01 2.04379E-03-4.67021E-01-3.10503E-13-2.91976E-13
 -1       488 2.00252E+01 3.03761E-01 1.11247E-03-1.65709E-01-2.47054E-13-2.57335E-13
 -1       489 1.99245E+01 1.61693E-01 4.59970E-04 1.57431E-02-1.93817E-13-2.47909E-13
 -1       490 1.98657E+01 7.53476E-02 1.60574E-04 1.18316E-01-1.19444E-13-2.64008E-13
 -1       491 1.98383E+01 2.25582E-02 2.20296E-05 1.69584E-01-1.32399E-13-3.14873E-13
 -1       492 1.98321E+01-9.02014E-03-4.71794E-05 1.88117E-01-1.13160E-13-3.73956E-13
 -1       493 1.98391E+01-2.67822E-02-8.25104E-05 1.86461E-01-1.19824E-13-3.46700E-13
 -1       494 1.98537E+01-3.54338E-02-9.79067E-05 1.73135E-01-1.38978E-13-2.99580E-13
 -1       495 1.98719E+01-3.80918E-02-1.00508E-04 1.53908E-01-1.51630E-13-2.62437E-13
 -1       496 1.98912E+01-3.68548E-02-9.48760E-05 1.32663E-01-1.01182E-13-2.53948E-13
 -1       497 1.99101E+01-3.31231E-02-8.40671E-05 1.11980E-01-1.53562E-13-3.01425E-13
 -1       498 1.99281E+01-2.77925E-02-7.00262E-05 9.35729E-02-1.35539E-13-2.34439E-13
 -1       499 1.99448E+01-2.13814E-02-5.38392E-05 7.85992E-02-3.05411E-14-2.45515E-13
 -1       500 1.99607E+01-1.41155E-02-3.59187E-05 6.79049E-02-7.38661E-14-3.14398E-13
 -1       501 1.99762E+01-5.98659E-03-1.61191E-05 6.22116E-02-1.10638E-14-3.97665E-13
 -1       502 1.99923E+01 3.21088E-03 6.18438E-06 6.22678E-02-6.69121E-14-3.39720E-13
 -1       503 2.00099E+01 1.38608E-02 3.20764E-05 6.89747E-02-6.93615E-14-3.17421E-13
 -1       504 2.00302E+01 2.65224E-02 6.31237E-05 8.34985E-02-5.22124E-14-3.63908E-13
 -1       505 2.00547E+01 4.19435E-02 1.01446E-04 1.07376E-01 3.61979E-14-3.47349E-13
 -1       506 2.00849E+01 6.10868E-02 1.49832E-04 1.42623E-01 4.26084E-14-2.37596E-13
 -1       507 2.01225E+01 8.51675E-02 2.11882E-04 1.91838E-01-1.72015E-14-3.10438E-13
 -1       508 2.01691E+01 1.15688E-01 2.92136E-04 2.58321E-01-7.56054E-14-4.70581E-13
 -1       509 2.02262E+01 1.54444E-01 3.96038E-04 3.46165E-01-7.66095E-15-5.25608E-13
 -1       510 2.02948E+01 2.03424E-01 5.29409E-04 4.60301E-01 1.68196E-13-4.34686E-13
 -1       511 2.03751E+01 2.64478E-01 6.96653E-04 6.06423E-01 3.36045E-14-4.20259E-13
 -1       512 2.04661E+01 3.38442E-01 8.96080E-04 7.90625E-01 1.96876E-13-2.97410E-13
 -1       513 2.05655E+01 4.23207E-01 1.10945E-03 1.01851E+00 7.13770E-14-1.63685E-13
 -1       514 2.06705E+01 5.09774E-01 1.28251E-03 1.29338E+00 9.02158E-14-4.06456E-14
 -1       515 2.07814E+01 5.74903E-01 1.29693E-03 1.61285E+00-2.91611E-14-2.97294E-14
 -1       516 2.09099E+01 5.68869E-01 9.55145E-04 1.96298E+00 6.46966E-14 9.98136E-14
 -1       517 2.10984E+01 3.98782E-01 2.03889E-04 2.30904E+00 1.06979E-13-3.39038E-14
 -1       518 2.14563E+01-8.76556E-02-3.05568E-04 2.57828E+00 2.01663E-13 4.59404E-14
 -1       519 2.22013E+01-1.07898E+00-9.86213E-05 2.61896E+00 1.95828E-13 2.83679E-13
 -1       520 2.36692E+01-2.64774E+00 5.27816E-03 2.15665E+00-1.49350E-13 2.70939E-13
 -1       521 2.61610E+01-4.32708E+00-1.83499E-03 7.16377E-01-3.58394E-13 1.32909E-13
 -1       522 2.93140E+01-4.14587E+00-4.22208E-02-1.83321E+00-8.51576E-14-2.65538E-13
 -1       523 3.11378E+01 1.07918E-01-1.38741E-01-4.45540E+00-1.11640E-13-5.35218E-13
 -1       524 3.11644E+01 5.25130E+00-2.12067E-01-3.30400E+00 2.58210E-13-4.60063E-13
 -1       525 3.15373E+01 6.06199E+00-2.05137E-01 6.74129E-01-1.39472E-13-5.43534E-13
 -1       526 3.12327E+01 1.12940E+00-1.63951E-01 2.54266E+00 1.04694E-13-4.02969E-13
 -1       527 2.93965E+01-3.60997E+00-5.74333E-02 6.60454E-01-2.22929E-13-6.42222E-13
 -1       528 2.61849E+01-3.99955E+00-1.78305E-02-1.88266E+00-2.56090E-13-7.01390E-13
 -1       529 2.36251E+01-2.38365E+00 1.23274E-02-3.35163E+00-1.27301E-13-5.08595E-13
 -1       530 2.18131E+01-4.89522E-01 7.53422E-03-3.95367E+00-1.77593E-13-4.01131E-13
 -1       531 1.98539E+01 1.07251E-01 3.96694E-04-7.35561E-02 1.67727E-13-1.22264E-13
 -1       532 1.99349E+01 2.11918E-01 9.79594E-04 6.48706E-02 2.11769E-13-5.23984E-14
 -1       533 2.00679E+01 3.87543E-01 1.13481E-03 3.04568E-01 2.45206E-13-1.45128E-14
 -1       534 1.98132E+01 4.36845E-02 1.29544E-04-1.47724E-01 1.45293E-13-1.52706E-13
 -1       535 1.98005E+01 5.20054E-03 1.45261E-06-1.80738E-01 1.47213E-13-1.67460E-13
 -1       536 1.98057E+01-1.72599E-02-6.51138E-05-1.87953E-01 8.61374E-14-1.81887E-13
 -1       537 1.98212E+01-2.92353E-02-9.86338E-05-1.79714E-01 6.72980E-14-1.15141E-13
 -1       538 1.98420E+01-3.43051E-02-1.11733E-04-1.63010E-01 1.10130E-13-1.01853E-13
 -1       539 1.98646E+01-3.48568E-02-1.11652E-04-1.42550E-01 4.63305E-14-9.10668E-14
 -1       540 1.98870E+01-3.24946E-02-1.03113E-04-1.21475E-01 2.04961E-14-1.18518E-13
 -1       541 1.99082E+01-2.82772E-02-8.92608E-05-1.01864E-01 1.05278E-13-1.83321E-13
 -1       542 1.99277E+01-2.28681E-02-7.20494E-05-8.50862E-02 1.49935E-13-1.58429E-13
 -1       543 1.99456E+01-1.66395E-02-5.25598E-05-7.20712E-02 6.92979E-14-1.59058E-13
 -1       544 1.99624E+01-9.74979E-03-3.12413E-05-6.35026E-02 1.69661E-13-1.60988E-13
 -1       545 1.99789E+01-2.20733E-03-8.10975E-06-5.99595E-02 7.40247E-14-1.15353E-13
 -1       546 1.99961E+01 6.07179E-03 1.70609E-05-6.20101E-02-1.02113E-13-7.64295E-14
 -1       547 2.00150E+01 1.52039E-02 4.45453E-05-7.02628E-02-3.77859E-14-2.65556E-13
 -1       548 2.00370E+01 2.52674E-02 7.44269E-05-8.53695E-02-3.23739E-14-2.24922E-13
 -1       549 2.00636E+01 3.62120E-02 1.06286E-04-1.07973E-01-6.85947E-14-8.44639E-14
 -1       550 2.00965E+01 4.77370E-02 1.38780E-04-1.38585E-01 2.69282E-14-3.72120E-14
 -1       551 2.01374E+01 5.91286E-02 1.69092E-04-1.77370E-01 5.91544E-14-1.25089E-13
 -1       552 2.01884E+01 6.90466E-02 1.92236E-04-2.23809E-01 9.97896E-14-2.01689E-13
 -1       553 2.02513E+01 7.52660E-02 2.00281E-04-2.76223E-01 8.27972E-14-1.81459E-13
 -1       554 2.03284E+01 7.43962E-02 1.81646E-04-3.31126E-01-6.84477E-16-1.05681E-13
 -1       555 2.04215E+01 6.16537E-02 1.20861E-04-3.82414E-01-1.42818E-13-2.70492E-13
 -1       556 2.05324E+01 3.08455E-02-5.82958E-07-4.20465E-01-2.16376E-13-9.84354E-14
 -1       557 2.06623E+01-2.51356E-02-2.01037E-04-4.31321E-01-1.06548E-13 3.43735E-14
 -1       558 2.08108E+01-1.12817E-01-4.91763E-04-3.96337E-01-1.23732E-13 9.94148E-14
 -1       559 2.09749E+01-2.35003E-01-8.67257E-04-2.93030E-01-3.23313E-14-2.79395E-14
 -1       560 2.11458E+01-3.85421E-01-1.27630E-03-9.82943E-02-6.76041E-14 2.52142E-14
 -1       561 2.13054E+01-5.41337E-01-1.60394E-03 2.04400E-01-2.38105E-14-2.41585E-14
 -1       562 2.14215E+01-6.56663E-01-1.69102E-03 6.12160E-01 8.43552E-14 1.41902E-13
 -1       563 2.14473E+01-6.62488E-01-1.38906E-03 1.08444E+00 1.63897E-13 3.54727E-13
 -1       564 2.13332E+01-4.86407E-01-5.73983E-04 1.52626E+00 1.13048E-13 4.58605E-13
 -1       565 2.10551E+01-9.78835E-02 4.82371E-04 1.79050E+00 6.46823E-14 3.83239E-13
 -1       566 2.06558E+01 4.34586E-01 1.08985E-03 1.72356E+00-2.91941E-14 4.30757E-13
 -1       567 2.02588E+01 9.29305E-01 1.61247E-03 1.25931E+00-3.03142E-14 6.75466E-13
 -1       568 2.00143E+01 1.16927E+00 1.57296E-03 4.97381E-01-3.59044E-14 4.96273E-13
 -1       569 2.00043E+01 1.04208E+00 2.37938E-03-3.04033E-01 1.27371E-13 3.28501E-13
 -1       570 2.01617E+01 6.44366E-01 1.79630E-03-8.78521E-01 9.94717E-14 2.54767E-13
 -1       571 2.03389E+01 1.88695E-01 3.49356E-04-1.10724E+00 1.04440E-14 1.49325E-13
 -1       572 2.04124E+01-1.41482E-01 3.14729E-04-1.04727E+00 1.20460E-13 4.78909E-13
 -1       573 2.03573E+01-2.99265E-01 4.68560E-04-8.47207E-01 5.53017E-14 5.59708E-13
 -1       574 2.23606E+01-1.12355E+00 7.50245E-03 1.55193E+00 9.80444E-15 5.28716E-13
 -1       575 2.17284E+01-8.43123E-01 6.12096E-04 3.45290E-01-2.94121E-14 1.78533E-13
 -1       576 2.09925E+01-5.52201E-01 3.02447E-03-4.06328E-01 4.25213E-14 1.54292E-13
 -1       577 5.48585E+00-2.22968E+00 1.71606E-01 2.87063E+00 3.34836E-14 2.01464E-13
 -1       578 2.25073E+01-1.24112E+00 7.35620E-03 3.07755E+00 1.68791E-13 9.44679E-14
 -1       579 2.16716E+01-8.98195E-01 9.89663E-03 4.64331E+00-4.52421E-14-4.81034E-13
 -1       580 1.94804E+01 1.96539E-01 2.41394E-02 5.39813E+00-1.38187E-13-8.10479E-13
 -1       581 1.65727E+01 1.75165E+00 3.83298E-02 4.32497E+00 7.71648E-14-3.42195E-13
 -1       582 1.46629E+01 2.82417E+00 4.87039E-02 1.20077E+00 1.51407E-13 2.02102E-13
 -1       583 1.53145E+01 2.51530E+00 4.61535E-02-2.48554E+00-6.06416E-15 1.67011E-13
 -1       584 1.79718E+01 1.16529E+00 2.72979E-02-4.66454E+00-2.49722E-13 1.77167E-13
 -1       585 2.03098E+01 6.96674E-02 1.47667E-02-4.82376E+00-3.44603E-14-9.88393E-14
 -1       586 2.03948E+01 1.77288E+00-4.99381E-03-1.54831E+00-4.40195E-13-3.79786E-13
 -1       587 6.13738E+00-1.64942E+00 1.90994E-01-2.39446E+00 4.15883E-14 1.89820E-13
 -1       588 1.10458E+01-4.08316E+00 1.37141E-01-7.11690E+00-1.33608E-13-7.22894E-14
 -1       589 2.97602E+01-5.26915E+00-2.39191E-02-2.45815E-01-3.06023E-13-7.63417E-14
 -1       590 1.60474E+01-6.00227E+00 1.01445E-01 6.14137E+00-2.57169E-13-3.36627E-13
 -1       591 1.04816E+01-4.43127E+00 1.38747E-01-7.25789E+00-1.10190E-14-4.36866E-13
 -1       592 1.96797E+01 3.19842E+00-5.08690E-03-3.12737E-01 7.84662E-15-6.29100E-13
 -1       593 3.04994E+01-3.43042E+00-6.33150E-02 1.92653E+00-8.57899E-14 1.85872E-13
 -1       594 3.14880E+01 8.17059E+00-1.92656E-01 4.61433E-01 5.43551E-13-2.69815E-13
 -1       595 3.15824E+01 1.95317E+00-1.43741E-01-1.15538E+00 1.11820E-13-4.19373E-13
 -1       596 2.98981E+01-3.12272E+00-6.73599E-02-1.25221E+00 1.43399E-13-3.75235E-13
 -1       597 3.12938E+01 6.07950E+00-1.82457E-01 2.05608E+00 1.86406E-13-9.44383E-14
 -1       598 9.27038E+00-3.44207E+00 1.77351E-01 5.09202E+00 1.00267E-14-5.73333E-13
 -1       599 3.13894E+01 6.57907E+00-1.72236E-01-1.06436E+00 5.79120E-13-4.17763E-13
 -1       600 2.54172E+01-5.69830E+00-3.76656E-03-4.70104E+00-1.65534E-13-9.00214E-13
 -1       601 1.68548E+01-5.71094E+00 8.12210E-02-7.52887E+00-3.48901E-13-1.02097E-12
 -1       602 5.35788E+00-2.24036E+00 1.86339E-01-3.84676E+00 2.04677E-13-5.45314E-13
 -1       603 4.31931E+00-2.05338E+00 1.92704E-01 7.99844E-01 2.51622E-13-5.83145E-13
 -1       604 2.42812E+01-6.80427E+00 3.81095E-02 3.79541E+00-4.38725E-13 9.68184E-14
 -1       605 3.09197E+01-4.66660E+00-2.31418E-02-1.52494E+00-1.15616E-13-7.46209E-13
 -1       606 2.59239E+01-6.92641E+00-5.71294E-02-5.60843E+00-1.33504E-13-4.09141E-13
 -1       607 1.98347E+01-6.48062E+00 9.16483E-02-7.72875E+00-8.68750E-14 2.42341E-15
 -1       608 1.99778E+01 2.66788E+00-6.06417E-03-1.25431E+00-2.95766E-13-6.17190E-13
 -1       609 2.02678E+01 6.54384E-01 6.22703E-03 7.95710E-01 3.90996E-13 1.49094E-13
 -1       610 2.55411E+01-6.22618E+00 2.58030E-02 6.18889E+00-2.04704E-13-6.20441E-14
 -1       611 1.01906E+01-1.72724E+00 1.68876E-01 5.75016E+00 1.19550E-13 1.44745E-14
 -1       612 2.01405E+01 5.01074E-01 3.55458E-03 5.17337E-01 3.32483E-13 4.10376E-14
 -1       613 1.77939E+01-5.19041E+00 1.29348E-01 8.35650E+00-5.18058E-14-3.70901E-13
 -1       614 2.21392E+01-5.85653E+00 6.77559E-02-5.83391E+00-3.58082E-13-8.62598E-13
 -1       615 1.99590E+01 2.44962E+00-1.60151E-03 3.93960E-01 2.08451E-13-4.96076E-13
 -1       616 1.99272E+01 2.52447E+00-1.52093E-03 1.35708E-01 1.18338E-13-5.36584E-13
 -1       617 2.01189E+01 2.04685E+00-1.78556E-03 8.50400E-01 3.53479E-13-3.94352E-13
 -1       618 2.02404E+01 1.68325E+00-2.00026E-03 1.00130E+00 3.83796E-13-2.69104E-13
 -1       619 2.03644E+01 1.02599E+00 3.46361E-03 1.00967E+00 4.24194E-13-1.61857E-14
 -1       620 1.77926E+01-3.76653E+00 1.19407E-01-7.20788E+00-2.16285E-13 3.64660E-13
 -1       621 2.14884E+01-5.05539E-01 1.02261E-03-7.59740E-01-7.28611E-14 9.57038E-14
 -1       622 2.40232E+01-6.07808E+00 5.16907E-02-5.82266E+00-2.70613E-13-2.99753E-13
 -1       623 8.77446E+00 3.31149E-01 1.95416E-01 7.76408E-01 8.98755E-15 8.65558E-14
 -1       624 2.02933E+01 1.12056E+00 2.95655E-04-7.64982E-01-3.10202E-13-3.82240E-13
 -1       625 2.02396E+01 6.73656E-01 5.77772E-04-3.92925E-01-2.50985E-13-3.30119E-13
 -1       626 2.01674E+01 3.91806E-01 2.25673E-04-1.39137E-01-2.19723E-13-3.01003E-13
 -1       627 2.01019E+01 2.12289E-01 6.59009E-05 2.26223E-02-1.72458E-13-2.85942E-13
 -1       628 2.00516E+01 9.79444E-02 7.70273E-06 1.17500E-01-1.56304E-13-3.12789E-13
 -1       629 2.00164E+01 2.61717E-02-1.51806E-05 1.66112E-01-1.13319E-13-2.95123E-13
 -1       630 1.99938E+01-1.72237E-02-2.61805E-05 1.84036E-01-9.56233E-14-2.63609E-13
 -1       631 1.99807E+01-4.15172E-02-3.15307E-05 1.82598E-01-9.77640E-14-2.23130E-13
 -1       632 1.99743E+01-5.29641E-02-3.30418E-05 1.69856E-01-1.02261E-13-2.00301E-13
 -1       633 1.99725E+01-5.58513E-02-3.18297E-05 1.51435E-01-1.00856E-13-1.85438E-13
 -1       634 1.99737E+01-5.31093E-02-2.88072E-05 1.31202E-01-1.73710E-13-1.73174E-13
 -1       635 1.99769E+01-4.66919E-02-2.46485E-05 1.11787E-01-5.24107E-14-1.84406E-13
 -1       636 1.99814E+01-3.78259E-02-1.97774E-05 9.49814E-02-7.76516E-14-1.07502E-13
 -1       637 1.99867E+01-2.71828E-02-1.44138E-05 8.20533E-02-1.17784E-13-1.66378E-13
 -1       638 1.99929E+01-1.49993E-02-8.57753E-06 7.39834E-02-1.36243E-13-1.24570E-13
 -1       639 1.99998E+01-1.16004E-03-2.14474E-06 7.16553E-02-2.98117E-14-3.04827E-13
 -1       640 2.00076E+01 1.47500E-02 5.15288E-06 7.60048E-02-6.60370E-14-2.84927E-13
 -1       641 2.00164E+01 3.34177E-02 1.37222E-05 8.81412E-02-7.00170E-14-1.96539E-13
 -1       642 2.00264E+01 5.57974E-02 2.41223E-05 1.09448E-01-2.90923E-14-2.22495E-13
 -1       643 2.00375E+01 8.31245E-02 3.70947E-05 1.41667E-01 7.84294E-14-2.48375E-13
 -1       644 2.00495E+01 1.16944E-01 5.36132E-05 1.86973E-01-3.94778E-14-2.96990E-13
 -1       645 2.00617E+01 1.59141E-01 7.49526E-05 2.48019E-01-1.85005E-13-3.48533E-13
 -1       646 2.00725E+01 2.11944E-01 1.02771E-04 3.27974E-01-8.54978E-14-3.86626E-13
 -1       647 2.00792E+01 2.77849E-01 1.39161E-04 4.30496E-01 1.47184E-13-3.19344E-13
 -1       648 2.00772E+01 3.59330E-01 1.86526E-04 5.59652E-01 1.56184E-13-3.35782E-13
 -1       649 2.00598E+01 4.58119E-01 2.46805E-04 7.19730E-01 1.62437E-13-1.67776E-13
 -1       650 2.00173E+01 5.73622E-01 3.18884E-04 9.14943E-01 2.18491E-13-1.39541E-13
 -1       651 1.99377E+01 6.99741E-01 3.92465E-04 1.14910E+00 2.56473E-13-4.70539E-14
 -1       652 1.98084E+01 8.18973E-01 4.39851E-04 1.42552E+00 7.07059E-14 5.14795E-14
 -1       653 1.96226E+01 8.92117E-01 4.13100E-04 1.74774E+00 9.39447E-14 2.44193E-13
 -1       654 1.93938E+01 8.42187E-01 2.82064E-04 2.12070E+00-8.63223E-14 1.76927E-13
 -1       655 1.91815E+01 5.37382E-01 1.35708E-03 2.55723E+00 7.37459E-14 2.52791E-14
 -1       656 1.91530E+01-2.47204E-01 6.85350E-03 3.07452E+00 5.88828E-14-3.27675E-13
 -1       657 1.97075E+01-1.78220E+00 1.93104E-02 3.59295E+00 1.34674E-13-4.14684E-13
 -1       658 2.14816E+01-4.19592E+00 6.61522E-02 3.90884E+00-2.02513E-13-2.66870E-14
 -1       659 1.52281E+01-2.89540E+00 1.29059E-01 7.49403E+00 4.85723E-16-2.74100E-13
 -1       660 2.35636E+01-4.15064E+00 8.05707E-03-4.93378E+00-1.25892E-13-4.22084E-13
 -1       661 2.15250E+01-2.06235E+00 2.10459E-02-5.17859E+00-2.15001E-13-4.26522E-13
 -1       662 2.01113E+01 2.85353E-01 1.86574E-04 5.32545E-02 2.38437E-13-2.18299E-13
 -1       663 2.00500E+01 1.45888E-01 5.34884E-05-7.54257E-02 1.67523E-13-2.22552E-13
 -1       664 2.01895E+01 5.05304E-01 5.22988E-04 2.64616E-01 2.62174E-13-1.90148E-13
 -1       665 1.99803E+01 3.27514E-03-2.02087E-05-1.79345E-01 1.18248E-13-1.89490E-13
 -1       666 1.99651E+01-2.86756E-02-3.24043E-05-1.86867E-01 4.98382E-14-1.75545E-13
 -1       667 1.99584E+01-4.54973E-02-3.79978E-05-1.79103E-01 5.64494E-14-2.54713E-13
 -1       668 1.99573E+01-5.21914E-02-3.90043E-05-1.62913E-01 6.37850E-14-1.67410E-13
 -1       669 1.99597E+01-5.21818E-02-3.68291E-05-1.43040E-01 4.05144E-14-2.31716E-13
 -1       670 1.99642E+01-4.77915E-02-3.26497E-05-1.22716E-01 3.95986E-14-2.56103E-13
 -1       671 1.99700E+01-4.05480E-02-2.72394E-05-1.04123E-01 8.43765E-14-2.25744E-13
 -1       672 1.99765E+01-3.13906E-02-2.10560E-05-8.87455E-02 6.23376E-14-1.31260E-13
 -1       673 1.99835E+01-2.08229E-02-1.43126E-05-7.76386E-02 9.22556E-14-1.04653E-13
 -1       674 1.99909E+01-9.03353E-03-7.04197E-06-7.16232E-02 5.87085E-14-8.46094E-14
 -1       675 1.99991E+01 4.00121E-03 8.15412E-07-7.14278E-02-2.34002E-14 3.22104E-14
 -1       676 2.00081E+01 1.84189E-02 9.37810E-06-7.77791E-02 2.52849E-14-4.08075E-14
 -1       677 2.00186E+01 3.43648E-02 1.87552E-05-9.14445E-02-4.42109E-14-1.11222E-13
 -1       678 2.00311E+01 5.18634E-02 2.89610E-05-1.13221E-01-9.21420E-14-1.38804E-13
 -1       679 2.00463E+01 7.06521E-02 3.98024E-05-1.43864E-01-1.52989E-14-2.59214E-13
 -1       680 2.00652E+01 8.99610E-02 5.07237E-05-1.83933E-01 1.30878E-13-3.34461E-13
 -1       681 2.00892E+01 1.08224E-01 6.06005E-05-2.33542E-01 1.97965E-13-3.65439E-13
 -1       682 2.01202E+01 1.22717E-01 6.74747E-05-2.91982E-01 1.90907E-14-4.64576E-13
 -1       683 2.01608E+01 1.29136E-01 6.82473E-05-3.57190E-01-1.86083E-14-4.42591E-13
 -1       684 2.02148E+01 1.21182E-01 5.83748E-05-4.25044E-01-5.84717E-14-2.79205E-13
 -1       685 2.02876E+01 9.02934E-02 3.16563E-05-4.88474E-01-1.77654E-13-3.87970E-13
 -1       686 2.03865E+01 2.58278E-02-1.99408E-05-5.36429E-01-2.25975E-13-3.90012E-13
 -1       687 2.05207E+01-8.37672E-02-1.05358E-04-5.52807E-01-1.86076E-13-3.52967E-13
 -1       688 2.07008E+01-2.47940E-01-2.32396E-04-5.15666E-01-6.06806E-14-1.98213E-13
 -1       689 2.09360E+01-4.68068E-01-4.12559E-04-3.97473E-01-2.07663E-13-6.09077E-14
 -1       690 2.12280E+01-7.27629E-01-5.94751E-04-1.67807E-01-9.36712E-15 1.85132E-13
 -1       691 2.15613E+01-9.78817E-01-6.68785E-04 1.98676E-01-1.98578E-14 1.37224E-13
 -1       692 2.18905E+01-1.13067E+00-5.87488E-04 7.04505E-01 1.59821E-13 2.08967E-13
 -1       693 2.21328E+01-1.05334E+00-4.47915E-04 1.29871E+00 5.69503E-14 2.12164E-13
 -1       694 2.21878E+01-6.24255E-01-2.04283E-04 1.84343E+00-8.04152E-14 4.42441E-13
 -1       695 2.19958E+01 1.73225E-01-3.39514E-04 2.11188E+00 3.96607E-15 7.33416E-13
 -1       696 2.16263E+01 1.13130E+00-2.28425E-03 1.87881E+00-3.03145E-14 4.98408E-13
 -1       697 2.12874E+01 1.85425E+00-1.43336E-03 1.11044E+00 1.44638E-13 3.76852E-13
 -1       698 2.11914E+01 1.95132E+00-1.05996E-03 6.53487E-02 2.83186E-14 1.72564E-13
 -1       699 2.13523E+01 1.40055E+00-3.26550E-04-7.95735E-01-6.86210E-14 3.60988E-13
 -1       700 2.15476E+01 5.70420E-01-3.50925E-03-1.18402E+00 2.78318E-13 4.59718E-13
 -1       701 2.16501E+01-1.16417E-01-1.73535E-03-1.09620E+00 3.03799E-15 9.75251E-14
 -1       702 2.84611E+01 2.67839E+00-1.28829E-01 2.78694E+00 1.06082E-13 2.57704E-13
 -1       703 2.39267E+01-2.82169E+00 4.37233E-03 3.86666E+00-1.77206E-13-3.72053E-13
 -1       704 2.39994E+01-2.12775E+00-4.31310E-03 1.86931E+00-7.16395E-14 4.38366E-13
 -1       705 1.73198E+01-1.13321E+00 6.77334E-02 6.43195E+00 7.02494E-14-3.65192E-13
 -1       706 1.27911E+01 9.31659E-01 1.26308E-01 3.90044E+00 1.25441E-13-5.09939E-14
 -1       707 1.13350E+01 1.27205E+00 1.28387E-01-1.02231E+00 5.70574E-14-3.80113E-14
 -1       708 1.47363E+01-3.64868E-02 1.21734E-01-5.04179E+00-1.00586E-13 2.00354E-13
 -1       709 2.91153E+01-1.14198E+00-8.40462E-02 1.60587E+00 4.81126E-14 1.44613E-13
 -1       710 2.76755E+01-4.88305E+00-1.57185E-02 3.32430E+00-5.55845E-13-9.43343E-14
 -1       711 1.57177E+01-4.06701E+00 1.10711E-01-6.84991E+00-1.08531E-13-7.03999E-13
 -1       712 2.76437E+01 6.43538E+00-1.52526E-01-3.83976E-01 2.80734E-13 3.50813E-14
 -1       713 8.81110E+00-9.06947E-01 1.54099E-01 2.73540E+00 1.43632E-13-6.02546E-13
 -1       714 2.72682E+01-4.78234E+00-3.62086E-02-1.89215E+00-6.60661E-14-4.42632E-14
 -1       715 2.18691E+01-2.76153E+00 4.48559E-02 5.96792E+00-9.73960E-14-4.77362E-13
 -1       716 2.31147E+01-1.29065E+00 8.49233E-03 4.15312E-01 1.30101E-13 3.04081E-13
 -1       717 1.12265E+01-8.76201E-01 1.72179E-01-4.92412E+00 1.28005E-13 7.04228E-14
 -1       718 2.94828E+01-1.34713E+00-7.21768E-02-4.54339E-01-6.54789E-14-6.30229E-13
 -1       719 1.02934E+01-1.77422E+00 1.53986E-01-5.38564E+00-8.30204E-14-3.47153E-13
 -1       720 2.77614E+01 6.31289E+00-1.50993E-01 1.60857E+00 1.22340E-13 4.05674E-13
 -1       721 7.53425E+00-2.19385E-01 1.56731E-01-1.32492E+00 1.08537E-13-3.84186E-13
 -1       722 1.48043E+01-2.85509E+00 1.20017E-01 5.07934E+00 4.89747E-14-5.51260E-13
 -1       723 2.85586E+01 3.71298E+00-1.44588E-01-1.69107E+00 3.96030E-13-4.97588E-13
 -1       724 2.00233E+01 2.29501E+00-1.69990E-03 6.37450E-01 3.01713E-13-4.66649E-13
 -1       725 2.00177E+01 2.30526E+00-1.60387E-03-6.29128E-01-1.46422E-13-5.71254E-13
 -1       726 2.00073E+01 5.77359E-02 2.75798E-06-1.46761E-01 1.66171E-13-2.13661E-13
 -1       727 2.29650E+01-4.97885E+00 3.23042E-02 6.58320E+00-2.13884E-13-3.86667E-13
 -1       728 1.99262E+01 2.52621E+00-1.51497E-03-1.26476E-01 1.87602E-14-5.33449E-13
 -1       729 2.01167E+01 2.06428E+00-1.88444E-03-8.53547E-01-2.19917E-13-5.44149E-13
 -1       730 2.02640E+01 1.68901E+00-1.93424E-03-1.12853E+00-3.33980E-13-4.54419E-13
 -1       731 1.85379E+01-1.33240E+00 6.27233E-02-5.91570E+00-1.47583E-13 2.74048E-13
 -1       732 2.02747E+01 8.55452E-01 1.72097E-03 5.84826E-01 2.98607E-13-1.51823E-13
 -1       733 2.76012E+01 8.41504E-01-5.92419E-02-1.52301E+00-6.16208E-14-3.53996E-13
 -1       734 2.47863E+01-5.27255E+00 2.57059E-02-3.42599E+00-3.68565E-13-2.82238E-13
 -1       735 1.99560E+01 2.45531E+00-1.54496E-03-3.84180E-01-6.94022E-14-5.49372E-13
 -1       736 2.02643E+01 1.30896E+00-6.76629E-04 6.30501E-01 2.86681E-13-3.13011E-13
 -1       737 2.02886E+01 7.29737E-01-9.42473E-05-2.90563E-01-2.08008E-13-3.77395E-13
 -1       738 2.02616E+01 4.32734E-01-1.12760E-05-9.31957E-02-1.73306E-13-3.36509E-13
 -1       739 2.02213E+01 2.33905E-01-1.42879E-05 3.60960E-02-1.55922E-13-2.79677E-13
 -1       740 2.01798E+01 1.03385E-01-1.33239E-05 1.13143E-01-1.42850E-13-2.94628E-13
 -1       741 2.01421E+01 2.02380E-02-1.03843E-05 1.52560E-01-6.22023E-14-2.53089E-13
 -1       742 2.01102E+01-3.00451E-02-9.06298E-06 1.66424E-01-5.89470E-14-2.57823E-13
 -1       743 2.00841E+01-5.76567E-02-8.49816E-06 1.64009E-01-4.25511E-14-1.60857E-13
 -1       744 2.00635E+01-6.97956E-02-7.95478E-06 1.52137E-01-1.00770E-13-1.32218E-13
 -1       745 2.00476E+01-7.15208E-02-7.19997E-06 1.35684E-01-7.78372E-14-1.24335E-13
 -1       746 2.00356E+01-6.63195E-02-6.24435E-06 1.18059E-01-1.62873E-13-1.29999E-13
 -1       747 2.00269E+01-5.64998E-02-5.14384E-06 1.01626E-01-8.04176E-14-2.28216E-13
 -1       748 2.00207E+01-4.34677E-02-3.97978E-06 8.80377E-02-7.75311E-14-1.92224E-13
 -1       749 2.00165E+01-2.79307E-02-2.73328E-06 7.85104E-02-1.38599E-13-2.10432E-13
 -1       750 2.00137E+01-1.00440E-02-1.41212E-06 7.40312E-02-2.02164E-13-2.10885E-13
 -1       751 2.00117E+01 1.04867E-02 2.70932E-08 7.55220E-02-7.91234E-14-3.66621E-13
 -1       752 2.00098E+01 3.43386E-02 1.65424E-06 8.39636E-02 4.50175E-14-3.56056E-13
 -1       753 2.00073E+01 6.25331E-02 3.56318E-06 1.00486E-01-6.93587E-15-2.52476E-13
 -1       754 2.00030E+01 9.64218E-02 5.87546E-06 1.26431E-01 3.73950E-14-1.88672E-13
 -1       755 1.99954E+01 1.37688E-01 8.75035E-06 1.63382E-01 3.24284E-15-2.33562E-13
 -1       756 1.99823E+01 1.88354E-01 1.24052E-05 2.13158E-01-8.59156E-14-2.65985E-13
 -1       757 1.99604E+01 2.50772E-01 1.71528E-05 2.77770E-01-1.30982E-13-2.15634E-13
 -1       758 1.99249E+01 3.27552E-01 2.34558E-05 3.59313E-01-4.79177E-15-1.63587E-13
 -1       759 1.98688E+01 4.21350E-01 3.19481E-05 4.59812E-01 1.59349E-13-2.37096E-13
 -1       760 1.97825E+01 5.34351E-01 4.31765E-05 5.81023E-01 2.78931E-13-2.18435E-13
 -1       761 1.96525E+01 6.67205E-01 5.62755E-05 7.24272E-01 1.49295E-13-1.09725E-13
 -1       762 1.94612E+01 8.16964E-01 6.48992E-05 8.90583E-01 1.43598E-13-2.13825E-14
 -1       763 1.91865E+01 9.73411E-01 5.12395E-05 1.08161E+00 1.00704E-13-2.23081E-13
 -1       764 1.88032E+01 1.11283E+00 8.17402E-06 1.30252E+00 1.46102E-13-1.84292E-13
 -1       765 1.82863E+01 1.18799E+00-9.78792E-05 1.56981E+00 5.08498E-14-2.95435E-13
 -1       766 1.76211E+01 1.11278E+00-3.55144E-04 1.91530E+00-1.39069E-13-3.22336E-13
 -1       767 1.68316E+01 7.49148E-01 5.56172E-03 2.43950E+00-1.39120E-13-5.20947E-13
 -1       768 1.60206E+01-1.56951E-01 3.50948E-02 3.26732E+00 3.62089E-14-4.79030E-13
 -1       769 2.08589E+01-3.73837E+00 6.61731E-02 6.98943E+00-1.82909E-13-5.73786E-13
 -1       770 2.51415E+01-3.98012E+00 3.02510E-02 4.18152E+00-2.60399E-13-4.22248E-13
 -1       771 2.02272E+01 3.22679E-01-2.59177E-05 2.70027E-02 2.07694E-13-1.89531E-13
 -1       772 2.02672E+01 5.66025E-01 1.81873E-04 1.96019E-01 2.34747E-13-2.31736E-13
 -1       773 2.00815E+01-4.30606E-02-1.01570E-05-1.70466E-01 7.43777E-14-8.88176E-14
 -1       774 2.01090E+01-5.41545E-03-9.76060E-06-1.65070E-01 7.96246E-14-9.64248E-14
 -1       775 2.00436E+01-6.89233E-02-9.77016E-06-1.47882E-01 8.40420E-14-1.87491E-13
 -1       776 2.00315E+01-6.72382E-02-8.71955E-06-1.30100E-01 6.87255E-14-2.82905E-13
 -1       777 2.00228E+01-6.00188E-02-7.43613E-06-1.12318E-01-2.69603E-14-2.36724E-13
 -1       778 2.00167E+01-4.91047E-02-6.00428E-06-9.65500E-02-1.17909E-14-8.45703E-14
 -1       779 2.00127E+01-3.55936E-02-4.48550E-06-8.42078E-02 3.37086E-14-1.78416E-14
 -1       780 2.00102E+01-2.00345E-02-2.83295E-06-7.63434E-02 5.29493E-14-1.39501E-14
 -1       781 2.00087E+01-2.58719E-03-1.06138E-06-7.38247E-02-1.36270E-14-5.10798E-14
 -1       782 2.00080E+01 1.68363E-02 8.59475E-07-7.74623E-02-1.56000E-14-8.15758E-14
 -1       783 2.00077E+01 3.84306E-02 2.98138E-06-8.80906E-02 4.30742E-14-4.40564E-14
 -1       784 2.00075E+01 6.23378E-02 5.35788E-06-1.06604E-01-2.01302E-14-1.20971E-13
 -1       785 2.00074E+01 8.84523E-02 8.02460E-06-1.33943E-01 5.34886E-14-1.43914E-13
 -1       786 2.00074E+01 1.16168E-01 1.09732E-05-1.71028E-01 1.29779E-13-2.68475E-13
 -1       787 2.00083E+01 1.44046E-01 1.41130E-05-2.18615E-01 9.36291E-14-2.89248E-13
 -1       788 2.00110E+01 1.69391E-01 1.72136E-05-2.77071E-01 1.69035E-13-9.97837E-14
 -1       789 2.00181E+01 1.87733E-01 1.98219E-05-3.46028E-01-2.21004E-14-1.73159E-13
 -1       790 2.00334E+01 1.92245E-01 2.11439E-05-4.23899E-01-1.07881E-13-1.23801E-13
 -1       791 2.00635E+01 1.73201E-01 1.98635E-05-5.07198E-01-9.46640E-14-1.61240E-13
 -1       792 2.01184E+01 1.17691E-01 1.37810E-05-5.89604E-01-1.32309E-13-1.48127E-13
 -1       793 2.02124E+01 1.00223E-02-1.77350E-06-6.60691E-01-3.25594E-13-2.38321E-13
 -1       794 2.03650E+01-1.66422E-01-3.34240E-05-7.04183E-01-2.91669E-13-1.37869E-13
 -1       795 2.06001E+01-4.24493E-01-9.34749E-05-6.95732E-01-1.95608E-13-1.81864E-13
 -1       796 2.09416E+01-7.63941E-01-2.42085E-04-6.00962E-01-2.75634E-13-1.64882E-13
 -1       797 2.14045E+01-1.15592E+00-3.35570E-04-3.75165E-01-9.89735E-14-9.72395E-14
 -1       798 2.19754E+01-1.51911E+00-1.98175E-04 3.00241E-02 1.33833E-13-8.56172E-14
 -1       799 2.25881E+01-1.69851E+00-1.05845E-04 6.40789E-01-8.78755E-14-8.74696E-14
 -1       800 2.30963E+01-1.46542E+00-1.26027E-03 1.40282E+00-1.50442E-13 2.88142E-13
 -1       801 2.33166E+01-6.19515E-01-3.41767E-03 2.11093E+00-2.48439E-13 2.76108E-13
 -1       802 2.31481E+01 7.98957E-01-4.72649E-03 2.38011E+00 9.13864E-14 1.89536E-13
 -1       803 2.26822E+01 2.27795E+00-1.17320E-02 1.89344E+00 4.62438E-14 4.05315E-14
 -1       804 2.25276E+01 2.95571E+00-6.81483E-03 6.66642E-01 1.03378E-13 1.88889E-13
 -1       805 2.25448E+01 2.57996E+00-1.86599E-02-6.17888E-01 2.43477E-14 1.38952E-13
 -1       806 2.29607E+01 1.23550E+00-2.86242E-03-1.25432E+00-1.40456E-14 2.09819E-14
 -1       807 1.48067E+01-2.04339E+00 7.86374E-02-5.41121E+00 1.31796E-13-4.32704E-13
 -1       808 2.39910E+01-1.05056E+00-6.71168E-03-5.00967E-01 1.28088E-13 2.72218E-13
 -1       809 2.51099E+01 5.20795E+00-7.91489E-02 6.99027E-01 5.56777E-14 2.29513E-13
 -1       810 2.70854E+01-3.18455E+00-4.39238E-02 4.20285E-01-1.82281E-13 1.17410E-13
 -1       811 1.10344E+01 1.85991E-02 8.29882E-02-3.13012E+00 2.66020E-15-3.38382E-13
 -1       812 2.73413E+01-2.90315E+00-3.07413E-02 8.57073E-01-4.45284E-13-2.91165E-13
 -1       813 2.00600E+01-6.22472E-02-1.03781E-05-1.62743E-01 5.35744E-14-1.33167E-13
 -1       814 2.02843E+01 1.16704E+00 1.19116E-04-5.68853E-01-2.51139E-13-4.40933E-13
 -1       815 2.03570E+01-4.57981E+00 4.81033E-02-5.43637E+00-2.67290E-13-7.20629E-13
 -1       816 2.59371E+01 3.80098E+00-8.75351E-02 2.48159E+00 1.01259E-13 2.93800E-13
 -1       817 1.02934E+01 5.22368E-01 9.09484E-02 7.49521E-01 2.27018E-14-4.09620E-13
 -1       818 2.01377E+01 1.88896E+00-2.94987E-04 1.99068E-01 1.29719E-13-4.37693E-13
 -1       819 2.67850E+01 1.47713E-02-5.48021E-02 2.55749E+00 4.75123E-14 2.09575E-13
 -1       820 2.56871E+01 4.13123E+00-8.74588E-02-1.15690E+00 1.84189E-13-3.15217E-14
 -1       821 2.01703E+01 1.77695E+00-1.89611E-04 3.80759E-01 2.11788E-13-3.99224E-13
 -1       822 2.02128E+01 1.59509E+00-7.20891E-04-5.28384E-01-1.82102E-13-4.78432E-13
 -1       823 2.01834E+01 1.62696E-01-8.15349E-06-7.90186E-02 1.38879E-13-1.82729E-13
 -1       824 2.65472E+01-1.28664E+00-2.38140E-02-6.71090E-01-6.58124E-14-2.85490E-13
 -1       825 2.01430E+01 5.91413E-02-9.14011E-06-1.38275E-01 1.26778E-13-1.10214E-13
 -1       826 2.36529E+01 7.82309E-02-5.09195E-04-1.19165E+00 1.25667E-13 1.15481E-13
 -1       827 2.59750E+01-3.13438E+00-2.14226E-02 1.75598E+00-3.27796E-13 9.44132E-14
 -1       828 2.57896E+01-4.14606E+00 2.73825E-03-1.00365E+00-1.34285E-13 2.98797E-14
 -1       829 2.53589E+01 2.08045E+00-3.24794E-02-1.57297E+00 8.54351E-15-7.48126E-14
 -1       830 2.02873E+01 9.29609E-01 5.20821E-04 4.44352E-01 2.87599E-13-2.55941E-13
 -1       831 2.01662E+01 1.78405E+00-3.81366E-04-3.74375E-01-1.12452E-13-5.19322E-13
 -1       832 1.25108E+01-2.44201E-01 9.75240E-02 2.99585E+00 1.14626E-13-5.46160E-13
 -1       833 2.01253E+01 1.92727E+00-4.82187E-04 3.73496E-03 5.65176E-14-4.49695E-13
 -1       834 2.02158E+01 1.58373E+00-8.39789E-04 5.33683E-01 2.76380E-13-4.22758E-13
 -1       835 1.33444E+01 9.28509E-01 2.96911E-02 1.53489E+00-1.49091E-14-4.22239E-13
 -1       836 2.03294E+01 4.30275E-01-5.00549E-05-4.62855E-02-1.00844E-13-3.19732E-13
 -1       837 2.03036E+01 2.27019E-01-1.57109E-05 4.76011E-02-1.30928E-13-3.07743E-13
 -1       838 2.02672E+01 9.15641E-02-9.16948E-06 1.03192E-01-9.07349E-14-2.45689E-13
 -1       839 2.02279E+01 5.06130E-03-4.19665E-06 1.30793E-01-6.78292E-14-2.29662E-13
 -1       840 2.01898E+01-4.66140E-02-2.06678E-06 1.39249E-01-4.67758E-15-2.50336E-13
 -1       841 2.01551E+01-7.38995E-02-1.33101E-06 1.35562E-01-4.77392E-14-2.57270E-13
 -1       842 2.01248E+01-8.43910E-02-9.42120E-07 1.24987E-01-1.37458E-13-2.52344E-13
 -1       843 2.00992E+01-8.34991E-02-6.53495E-07 1.11328E-01-1.21146E-13-3.02317E-13
 -1       844 2.00778E+01-7.49512E-02-3.96569E-07 9.72835E-02-1.15173E-13-2.59312E-13
 -1       845 2.00603E+01-6.11721E-02-3.45021E-07 8.47493E-02-6.24287E-14-2.66305E-13
 -1       846 2.00459E+01-4.35719E-02-2.43646E-07 7.50862E-02-8.39579E-14-1.95319E-13
 -1       847 2.00336E+01-2.27707E-02-1.75500E-07 6.93279E-02-1.64957E-13-1.53617E-13
 -1       848 2.00226E+01 1.23953E-03-1.32699E-07 6.83420E-02-1.89701E-13-1.04132E-13
 -1       849 2.00115E+01 2.89761E-02-1.06594E-07 7.29489E-02 7.61782E-16-1.12027E-13
 -1       850 1.99990E+01 6.13825E-02-9.61265E-08 8.40003E-02 4.28369E-14-1.41798E-13
 -1       851 1.99833E+01 9.97726E-02-1.07040E-07 1.02420E-01 6.73470E-14-1.59029E-13
 -1       852 1.99621E+01 1.45793E-01-1.50462E-07 1.29201E-01 3.82501E-14-1.23642E-13
 -1       853 1.99323E+01 2.01389E-01-2.40298E-07 1.65356E-01-4.13119E-14-1.18118E-13
 -1       854 1.98900E+01 2.68763E-01-3.87737E-07 2.11808E-01-7.63180E-14-2.06155E-13
 -1       855 1.98296E+01 3.50284E-01-5.97945E-07 2.69209E-01 1.47785E-14-4.26598E-14
 -1       856 1.97436E+01 4.48305E-01-9.09211E-07 3.37684E-01 6.31433E-14-7.03344E-14
 -1       857 1.96216E+01 5.64793E-01-1.65115E-06 4.16521E-01 1.84132E-13-1.33325E-13
 -1       858 1.94498E+01 7.00638E-01-4.51078E-06 5.03867E-01 2.47143E-13-3.14092E-13
 -1       859 1.92096E+01 8.54445E-01-1.57771E-05 5.96631E-01 1.92447E-13-2.22983E-13
 -1       860 1.88765E+01 1.02054E+00-5.25789E-05 6.90986E-01 1.12788E-13-1.66080E-13
 -1       861 1.84178E+01 1.18596E+00-1.21108E-04 7.84250E-01 7.63840E-15-2.76606E-13
 -1       862 1.77901E+01 1.32610E+00-1.28741E-04 8.79509E-01-1.04734E-13-6.20210E-13
 -1       863 1.69242E+01 1.40508E+00-7.34339E-04 1.01086E+00 1.54060E-13-6.86936E-13
 -1       864 1.58241E+01 1.31763E+00 1.07332E-02 1.19156E+00-2.28751E-13-4.57534E-13
 -1       865 2.02939E+01 1.14777E+00 8.77734E-05-3.84470E-01-1.85452E-13-4.40886E-13
 -1       866 2.00816E+01-7.83805E-02-9.78122E-07-1.08327E-01 3.53913E-14-5.25567E-14
 -1       867 2.01040E+01-8.28943E-02-9.90191E-07-1.23044E-01 1.50665E-13-4.03648E-14
 -1       868 2.00482E+01-5.25745E-02-7.95187E-07-8.21450E-02-3.51093E-14-2.19321E-13
 -1       869 2.00357E+01-3.43428E-02-6.39723E-07-7.35525E-02-3.20133E-14-1.56596E-13
 -1       870 2.00251E+01-1.34233E-02-4.64083E-07-6.93145E-02 1.63377E-14-2.36195E-14
 -1       871 2.00152E+01 1.01177E-02-2.84577E-07-7.02704E-02-2.89456E-14-6.82108E-14
 -1       872 2.00054E+01 3.64670E-02-8.74528E-08-7.72570E-02 7.34130E-15-6.60446E-14
 -1       873 1.99947E+01 6.58822E-02 1.54863E-07-9.11818E-02-1.92154E-14-1.13574E-14
 -1       874 1.99821E+01 9.84815E-02 4.80524E-07-1.13064E-01 4.09396E-14-8.56089E-14
 -1       875 1.99671E+01 1.33982E-01 9.39749E-07-1.44041E-01 9.38381E-14-7.35901E-14
 -1       876 1.99491E+01 1.71360E-01 1.59680E-06-1.85337E-01 1.39880E-13-7.42420E-15
 -1       877 1.99284E+01 2.08416E-01 2.53107E-06-2.38190E-01 7.88039E-14-4.71629E-15
 -1       878 1.99061E+01 2.41217E-01 3.83764E-06-3.03707E-01 1.34012E-16 1.67065E-13
 -1       879 1.98853E+01 2.63433E-01 5.63057E-06-3.82649E-01-3.18954E-14 2.73254E-14
 -1       880 1.98713E+01 2.65597E-01 8.04925E-06-4.75071E-01-7.05325E-14-8.54924E-14
 -1       881 1.98735E+01 2.34423E-01 1.12310E-05-5.79754E-01-9.44784E-14-4.20809E-14
 -1       882 1.99067E+01 1.52412E-01 1.50137E-05-6.93252E-01-1.93494E-13 4.45567E-14
 -1       883 1.99930E+01-1.74843E-03 1.52465E-05-8.08267E-01-3.58455E-13-4.61510E-14
 -1       884 2.01636E+01-2.51095E-01 1.60285E-05-9.10762E-01-2.19304E-13-7.84176E-16
 -1       885 2.04585E+01-6.14438E-01 1.20347E-05-9.74830E-01-2.91924E-13 6.92124E-14
 -1       886 2.09225E+01-1.09323E+00-2.61294E-04-9.57123E-01-5.28007E-14-1.37474E-13
 -1       887 2.15951E+01-1.65029E+00-1.78918E-04-7.88584E-01-6.88111E-14-1.66125E-13
 -1       888 2.24805E+01-2.16346E+00 1.52384E-03-3.72985E-01-1.27470E-13 1.27354E-13
 -1       889 2.34778E+01-2.37688E+00-1.19835E-03 3.80912E-01-3.07754E-13 1.37707E-13
 -1       890 2.43375E+01-1.89823E+00-1.06920E-02 1.39736E+00-1.87045E-13 2.75082E-13
 -1       891 2.45673E+01 1.98430E+00-3.05516E-02 2.54841E+00 1.43495E-13 2.36042E-13
 -1       892 1.25867E+01 9.66264E-01 4.18429E-02-1.22296E+00-3.21022E-14-2.06437E-13
 -1       893 2.00632E+01-6.76235E-02-8.44240E-07-9.41400E-02-3.13962E-14-1.31775E-13
 -1       894 2.02875E+01 1.18931E+00 1.14690E-03 4.06028E-01 2.44460E-13-3.89641E-13
 -1       895 2.01977E+01-2.06292E-02-2.49431E-06-1.41373E-01 9.03558E-14-1.01769E-13
 -1       896 2.55623E+01-1.90456E+00-1.58325E-02 1.54699E+00-6.10163E-14 1.89993E-13
 -1       897 2.03264E+01 5.70790E-01-2.41428E-04 1.23690E-01 1.57583E-13-2.97759E-13
 -1       898 2.01353E+01 1.89292E+00-4.68585E-04-1.90995E-01-2.11731E-14-4.79254E-13
 -1       899 2.03324E+01 7.27205E-01 2.65807E-05-1.88228E-01-1.24079E-13-3.79482E-13
 -1       900 1.41667E+01-4.47032E-01 2.83342E-02-3.77801E+00-2.86819E-14-3.73663E-13
 -1       901 2.30054E+01-4.30417E+00 9.26612E-03-3.18826E+00-3.14580E-13-2.73765E-13
 -1       902 1.86594E+01-2.86234E+00 2.25581E-02-4.68644E+00-2.24506E-13-3.87117E-13
 -1       903 2.03225E+01 8.36300E-01-5.04658E-04 2.51590E-01 2.09478E-13-3.29045E-13
 -1       904 2.03083E+01 3.23451E-01-3.55338E-05-1.36441E-03 1.37230E-13-2.45028E-13
 -1       905 1.71123E+01-1.32322E+00 6.38545E-03-3.91313E+00-1.93315E-13-2.29291E-13
 -1       906 2.02849E+01 1.33880E+00 3.44254E-05 1.98041E-01 1.56317E-13-3.72802E-13
 -1       907 2.02362E+01 4.73604E-02-1.97977E-06-1.22792E-01 4.82762E-14-1.09346E-13
 -1       908 2.01308E+01-7.80969E-02-9.37851E-07-1.35931E-01 1.10536E-13-3.27448E-14
 -1       909 2.47760E+01-4.66620E-01-9.00356E-03 2.33973E+00-8.40136E-14 1.74410E-13
 -1       910 2.02740E+01 1.40642E+00 1.06749E-04 6.98472E-02 1.08202E-13-4.11631E-13
 -1       911 2.01622E+01-5.94845E-02-1.81612E-06-1.43614E-01 7.46902E-14-1.22283E-13
 -1       912 2.02754E+01 1.33454E+00 1.24140E-04-2.91912E-01-1.14437E-13-4.56125E-13
 -1       913 1.51244E+01 1.34983E+00 2.17774E-03-4.59403E-01-1.22118E-13-2.90739E-13
 -1       914 2.03583E+01 1.96568E-01-9.11792E-06 5.06956E-02-6.14106E-14-1.82544E-13
 -1       915 2.03229E+01 6.58638E-02-2.93999E-06 8.54549E-02-2.06040E-14-1.48896E-13
 -1       916 2.02813E+01-1.67884E-02 1.14397E-06 1.01593E-01-6.74156E-14-1.52026E-13
 -1       917 2.02386E+01-6.48358E-02 1.45465E-06 1.05094E-01-3.75045E-14-2.05665E-13
 -1       918 2.01982E+01-8.84951E-02 6.63604E-07 1.00741E-01-5.46587E-14-1.94318E-13
 -1       919 2.01616E+01-9.52991E-02 1.24552E-06 9.21418E-02-1.21083E-13-1.72465E-13
 -1       920 2.01296E+01-9.06228E-02 2.35035E-06 8.19204E-02-7.93001E-14-9.42646E-14
 -1       921 2.01020E+01-7.81356E-02 1.87792E-06 7.19591E-02-1.17340E-13-9.98057E-14
 -1       922 2.00783E+01-6.01451E-02 1.51477E-06 6.35936E-02-6.28001E-14-1.47793E-13
 -1       923 2.00577E+01-3.79112E-02 1.09097E-06 5.78013E-02-6.80157E-14-1.44415E-13
 -1       924 2.00389E+01-1.18661E-02 6.11560E-07 5.53374E-02-1.27986E-13-9.88665E-14
 -1       925 2.00204E+01 1.82096E-02 8.62053E-08 5.68397E-02-3.22137E-14-2.71993E-14
 -1       926 2.00006E+01 5.30517E-02-4.95631E-07 6.28898E-02-7.95923E-15 2.83250E-14
 -1       927 1.99772E+01 9.38090E-02-1.16041E-06 7.40348E-02 3.17417E-14-5.15783E-15
 -1       928 1.99477E+01 1.41958E-01-1.94472E-06 9.07638E-02 4.89329E-14-7.13515E-14
 -1       929 1.99088E+01 1.99221E-01-2.89282E-06 1.13429E-01-3.42253E-15-8.50595E-14
 -1       930 1.98563E+01 2.67473E-01-4.05715E-06 1.42100E-01-4.39265E-14 1.36881E-13
 -1       931 1.97849E+01 3.48612E-01-5.50780E-06 1.76335E-01 1.12584E-14 1.60136E-13
 -1       932 1.96874E+01 4.44350E-01-7.37793E-06 2.14854E-01 4.37629E-14 6.06387E-14
 -1       933 1.95547E+01 5.55893E-01-1.00375E-05 2.55124E-01 5.93597E-14 1.02716E-13
 -1       934 1.93749E+01 6.83421E-01-1.46746E-05 2.92859E-01 1.36180E-13 6.63979E-14
 -1       935 1.91319E+01 8.25293E-01-2.49752E-05 3.21554E-01 1.60527E-13-6.55458E-14
 -1       936 1.88049E+01 9.76900E-01-5.02235E-05 3.32204E-01 1.65420E-13-1.23573E-13
 -1       937 1.83651E+01 1.12917E+00-1.06774E-04 3.13541E-01-5.30153E-14-1.60293E-13
 -1       938 1.77721E+01 1.26653E+00-1.56709E-04 2.53999E-01-1.04918E-13-1.77738E-13
 -1       939 1.69681E+01 1.36733E+00-1.93301E-03 1.46482E-01-4.35170E-14-3.28745E-13
 -1       940 2.02835E+01 1.27037E+00 1.35461E-04 3.47230E-01 2.13408E-13-3.75158E-13
 -1       941 2.03790E+01 3.92437E-01-4.08030E-05-9.60507E-03-8.06062E-14-2.65571E-13
 -1       942 2.00464E+01-2.73967E-02 3.55201E-07-5.82758E-02-6.45928E-14-7.79825E-14
 -1       943 2.00654E+01-5.04163E-02 7.10592E-07-6.31681E-02-6.70835E-14-1.65745E-14
 -1       944 2.00113E+01 2.86546E-02-4.94941E-07-6.08298E-02 1.75736E-14-6.03838E-14
 -1       945 1.99924E+01 6.20992E-02-1.00398E-06-6.98584E-02-4.51164E-14-1.05441E-14
 -1       946 1.99707E+01 9.96045E-02-1.56586E-06-8.52931E-02 1.02474E-13 2.20548E-14
 -1       947 1.99447E+01 1.41277E-01-2.16665E-06-1.08300E-01 6.21015E-14-3.10264E-14
 -1       948 1.99131E+01 1.86671E-01-2.77470E-06-1.40302E-01 6.07882E-14-1.08283E-14
 -1       949 1.98748E+01 2.34382E-01-3.32931E-06-1.83022E-01 2.95699E-14-1.00841E-14
 -1       950 1.98295E+01 2.81519E-01-3.72009E-06-2.38526E-01 8.66966E-15 2.06318E-14
 -1       951 1.97783E+01 3.23043E-01-3.74112E-06-3.09237E-01 9.45464E-15 7.21092E-14
 -1       952 1.97242E+01 3.50973E-01-2.98606E-06-3.97918E-01-2.03406E-14 7.03410E-15
 -1       953 1.96735E+01 3.53488E-01-6.49842E-07-5.07548E-01-1.60462E-13 2.93352E-14
 -1       954 1.96375E+01 3.14028E-01 4.74788E-06-6.40964E-01-1.87561E-13 2.27556E-13
 -1       955 1.96348E+01 2.10620E-01 1.53721E-05-8.00006E-01-2.02023E-13 2.59016E-13
 -1       956 1.96939E+01 1.58039E-02 2.41437E-05-9.83708E-01-2.00603E-13 4.42921E-14
 -1       957 1.98576E+01-3.02330E-01 9.15312E-05-1.18453E+00-2.42828E-13-1.85389E-13
 -1       958 2.01898E+01-7.75249E-01 6.51636E-04-1.37722E+00-1.61164E-13-2.67704E-13
 -1       959 2.07534E+01-1.40737E+00-6.76251E-04-1.51024E+00-1.44822E-13 4.39144E-14
 -1       960 2.16540E+01-2.18459E+00 1.26306E-03-1.48505E+00-1.64786E-13 3.41194E-14
 -1       961 2.29108E+01-2.93504E+00-6.18663E-03-1.13945E+00-3.00013E-13 1.99823E-13
 -1       962 2.41497E+01-3.65924E+00 2.67287E-03-1.16899E+00-2.83008E-13 2.02828E-13
 -1       963 2.03729E+01 6.76622E-01 2.77772E-05-1.02039E-01-6.94031E-14-3.07043E-13
 -1       964 2.51818E+01-3.10724E+00 1.58643E-03 2.32439E-01-1.50113E-13 2.81688E-13
 -1       965 1.56102E+01 5.94980E-01 9.54560E-03-2.13367E+00-1.43430E-13-1.61864E-13
 -1       966 2.01410E+01-9.27675E-02 1.28039E-06-9.22506E-02 9.97157E-14-3.52735E-14
 -1       967 2.02582E+01 1.45134E+00 5.80619E-04-1.69427E-01-1.92286E-14-4.04385E-13
 -1       968 2.03411E+01 9.68547E-01-1.89404E-05-1.89196E-01-8.94018E-14-3.80086E-13
 -1       969 2.02748E+01 1.56550E-01-1.53295E-05-7.95198E-02 7.07447E-14-1.94474E-13
 -1       970 2.02633E+01 1.45167E+00 1.94554E-04-4.73423E-02 4.24534E-14-4.08800E-13
 -1       971 2.09898E+01-3.06538E+00-4.72690E-03-3.27192E+00-2.98180E-13-3.03067E-13
 -1       972 2.00288E+01-1.06989E-03-4.24603E-08-5.72435E-02-2.74381E-15-6.21998E-14
 -1       973 2.02959E+01 2.49281E-02 2.92519E-06-9.97721E-02 9.80342E-14-2.17147E-13
 -1       974 2.00869E+01-6.97848E-02 1.09957E-06-7.11345E-02 3.10000E-14-1.64823E-14
 -1       975 2.02539E+01-4.03032E-02 3.95335E-07-1.10141E-01 5.47982E-14-1.92203E-13
 -1       976 2.01118E+01-8.45130E-02 1.05715E-06-8.12385E-02-1.29225E-15-5.61460E-14
 -1       977 2.03695E+01 9.66491E-01-2.43710E-04 8.13745E-02 7.81409E-14-3.41748E-13
 -1       978 2.03763E+01 5.32377E-01-2.33931E-05 6.28559E-02 1.10086E-13-2.89906E-13
 -1       979 1.94646E+01-1.92155E+00 4.88725E-03-3.21330E+00-2.82540E-13-2.76448E-13
 -1       980 2.01747E+01-9.15013E-02-3.06283E-06-1.02494E-01 1.26070E-13-1.66781E-13
 -1       981 2.03503E+01 8.49134E-01 3.07904E-04 1.82081E-01 1.66570E-13-3.38090E-13
 -1       982 2.03514E+01 3.14587E-02-1.25507E-05 5.89709E-02-7.52469E-14-2.46262E-13
 -1       983 2.03069E+01-4.15794E-02-5.33889E-06 6.60193E-02-6.11440E-14-2.00484E-13
 -1       984 2.02609E+01-8.20376E-02-3.04806E-06 6.62785E-02-5.64914E-14-2.22166E-13
 -1       985 2.02170E+01-9.95881E-02 2.35098E-07 6.24756E-02-4.76473E-14-2.43408E-13
 -1       986 2.01770E+01-1.01333E-01 1.71817E-06 5.66516E-02-3.90338E-14-1.48173E-13
 -1       987 2.01415E+01-9.22576E-02 2.76842E-06 5.03071E-02-8.40405E-14-1.53826E-13
 -1       988 2.01104E+01-7.56737E-02 1.76445E-06 4.45108E-02-8.99537E-14-1.34000E-13
 -1       989 2.00830E+01-5.36301E-02 1.20876E-06 4.00300E-02-7.88050E-14-1.68582E-13
 -1       990 2.00581E+01-2.71134E-02 2.83344E-07 3.74179E-02-9.79287E-14-1.30984E-13
 -1       991 2.00343E+01 3.69005E-03-9.48354E-07 3.70961E-02-1.74234E-14-4.16120E-14
 -1       992 2.00097E+01 3.92089E-02-2.45816E-06 3.93881E-02-1.21260E-14-5.76281E-14
 -1       993 1.99821E+01 8.03360E-02-4.25452E-06 4.45231E-02 2.45099E-14-3.49740E-14
 -1       994 1.99488E+01 1.28295E-01-6.37193E-06 5.25979E-02 6.63273E-15 4.40808E-14
 -1       995 1.99066E+01 1.84512E-01-8.86517E-06 6.34882E-02-5.45068E-14-1.70758E-14
 -1       996 1.98517E+01 2.50464E-01-1.18091E-05 7.66928E-02 4.28504E-14-7.66354E-14
 -1       997 1.97792E+01 3.27498E-01-1.53077E-05 9.10961E-02 3.12736E-14-3.12651E-14
 -1       998 1.96833E+01 4.16578E-01-1.95255E-05 1.04627E-01 4.98202E-14 2.44858E-14
 -1       999 1.95567E+01 5.17925E-01-2.47653E-05 1.13798E-01-4.07470E-14-3.74137E-14
 -1      1000 1.93903E+01 6.30527E-01-3.16063E-05 1.13126E-01 3.74320E-14-1.45072E-13
 -1      1001 1.91728E+01 7.51453E-01-4.09238E-05 9.44249E-02 1.37818E-13-5.83304E-14
 -1      1002 1.88897E+01 8.74952E-01-5.29002E-05 4.60415E-02 1.76850E-13-5.87241E-14
 -1      1003 1.85223E+01 9.91290E-01-6.56735E-05-4.79459E-02-8.70264E-14-2.08441E-13
 -1      1004 1.80457E+01 1.08511E+00 1.88061E-05-2.09004E-01-4.59550E-14-1.64274E-13
 -1      1005 1.74173E+01 1.13777E+00-9.65613E-05-4.62975E-01-1.24434E-13-1.62884E-13
 -1      1006 1.99390E+01 1.37628E-01-6.80153E-06-6.88309E-02 5.07195E-15 9.88083E-14
 -1      1007 2.00700E+01-4.28531E-02 2.19706E-07-4.13533E-02 2.03731E-14-1.09194E-13
 -1      1008 1.99716E+01 9.21068E-02-5.01287E-06-5.43430E-02-3.05666E-14 1.42027E-14
 -1      1009 1.99990E+01 5.17583E-02-3.37440E-06-4.52542E-02-1.97780E-14 3.59315E-14
 -1      1010 1.98992E+01 1.88478E-01-8.66396E-06-9.00535E-02 9.08010E-14 2.03909E-13
 -1      1011 1.98501E+01 2.44151E-01-1.04712E-05-1.19798E-01 1.14685E-13 1.61680E-13
 -1      1012 1.97898E+01 3.03028E-01-1.20073E-05-1.60462E-01 5.98858E-14 1.31670E-13
 -1      1013 1.97171E+01 3.61793E-01-1.29069E-05-2.15242E-01-1.92347E-14-1.24189E-13
 -1      1014 1.96323E+01 4.14700E-01-1.25210E-05-2.88370E-01 3.45172E-14-1.96162E-13
 -1      1015 1.95374E+01 4.52675E-01-9.63131E-06-3.85365E-01-1.81225E-13 3.37004E-14
 -1      1016 1.94381E+01 4.62259E-01-2.07347E-06-5.13240E-01-2.98251E-13 1.38953E-13
 -1      1017 1.93453E+01 4.24416E-01 1.31361E-05-6.80538E-01-1.50897E-13 1.54743E-13
 -1      1018 1.92780E+01 3.13339E-01 3.82796E-05-8.96796E-01-8.03687E-14 7.43136E-14
 -1      1019 1.92671E+01 9.56309E-02 2.78126E-05-1.17097E+00-1.24047E-15-1.09631E-13
 -1      1020 1.93595E+01-2.70117E-01-1.32519E-04-1.50940E+00-1.59266E-13-2.01612E-13
 -1      1021 1.96541E+01-8.60068E-01-4.88866E-03-1.91962E+00-2.00517E-13-3.89847E-13
 -1      1022 2.02525E+01-1.64948E+00 4.99474E-03-2.31966E+00-2.56703E-13-3.82828E-13
 -1      1023 2.18811E+01-2.84265E+00 1.35112E-02-2.20984E+00-3.40176E-13-6.93321E-14
 -1      1024 1.65652E+01 1.02071E+00 3.73190E-03-1.10226E+00-7.51773E-14-1.20669E-13
 -1      1025 2.03609E+01 1.03006E+00 5.74782E-05 1.37568E-02 6.97925E-14-3.67675E-13
 -1      1026 2.03890E+01 1.49659E-01-2.38751E-05 4.16751E-02-4.40627E-14-2.38080E-13
 -1      1027 2.04078E+01 5.88759E-01 6.69814E-05-3.93560E-02-1.40853E-14-2.81045E-13
 -1      1028 2.01578E+01-9.75320E-02 7.85620E-06-5.86619E-02 3.15465E-14-8.38953E-14
 -1      1029 2.03650E+01 2.93832E-01-4.52715E-05-2.09365E-02 3.38997E-14-2.54348E-13
 -1      1030 2.02127E+01-7.61781E-02 2.54142E-07-1.09557E-01 3.49927E-14-2.27061E-13
 -1      1031 1.73224E+01-1.53118E-01-3.50396E-03-2.54183E+00-1.91583E-13-1.72566E-13
 -1      1032 2.00464E+01-1.53205E-02-7.22353E-07-3.94714E-02-2.45350E-14-4.75417E-14
 -1      1033 2.00233E+01 1.61160E-02-1.93282E-06-4.05572E-02-6.81568E-14-2.39617E-14
 -1      1034 2.04117E+01 3.28662E-01-3.37016E-05 1.00411E-02-1.61706E-14-2.55332E-13
 -1      1035 2.03431E+01 1.07016E+00-4.92593E-04-1.14573E-01-4.87508E-15-3.47479E-13
 -1      1036 2.04176E+01 5.38522E-01 5.61767E-04 2.69842E-02 5.78009E-14-2.84818E-13
 -1      1037 2.00957E+01-6.63736E-02 8.37625E-07-4.56121E-02 1.12817E-14 2.08271E-14
 -1      1038 2.01956E+01-1.00765E-01-4.89267E-06-6.57040E-02-1.41875E-14-1.60482E-13
 -1      1039 2.01247E+01-8.51474E-02 1.32851E-06-5.16247E-02 4.84022E-15-3.22989E-14
 -1      1040 2.04255E+01 5.86892E-01-3.89940E-05 9.64621E-03 4.41500E-14-3.19454E-13
 -1      1041 2.03850E+01 8.09519E-01 3.21891E-04-7.65215E-02-1.95711E-14-3.13780E-13
 -1      1042 2.03352E+01 1.30911E-01-2.79677E-05-7.25360E-02 8.72925E-15-2.01654E-13
 -1      1043 2.03274E+01-4.02090E-03-1.96226E-05-6.90038E-02 4.53833E-14-2.85246E-13
 -1      1044 2.03690E+01 9.25973E-02 8.05462E-05-5.52845E-02 3.80904E-14-2.99621E-13
 -1      1045 2.03969E+01 9.54191E-02 5.55754E-05 1.94135E-02-2.45715E-14-2.53887E-13
 -1      1046 2.03081E+01-6.49684E-02-2.36060E-05 2.60366E-02-6.49616E-14-2.06216E-13
 -1      1047 2.02602E+01-9.54812E-02-1.44659E-05 2.54042E-02-3.06086E-14-1.21060E-13
 -1      1048 2.02153E+01-1.05493E-01 2.12454E-05 2.33980E-02-4.01660E-14-6.20173E-14
 -1      1049 2.01748E+01-1.01807E-01-5.68226E-06 2.11667E-02-4.03722E-14-1.15216E-13
 -1      1050 2.01384E+01-8.83024E-02-1.22941E-06 1.89242E-02-8.97591E-14-1.75092E-13
 -1      1051 2.01062E+01-6.80086E-02-1.26400E-06 1.69712E-02-5.06316E-14-6.15454E-14
 -1      1052 2.00772E+01-4.25152E-02-6.75167E-07 1.56024E-02-9.56411E-15 2.85280E-14
 -1      1053 2.00500E+01-1.24859E-02 8.45985E-09 1.49754E-02 4.94468E-14 6.43134E-14
 -1      1054 2.00230E+01 2.21354E-02 5.86619E-07 1.51558E-02-3.43040E-14 1.01536E-14
 -1      1055 1.99939E+01 6.19301E-02 8.85884E-07 1.61025E-02 3.39641E-14 7.17407E-14
 -1      1056 1.99602E+01 1.07830E-01 6.80796E-07 1.76195E-02 1.79521E-14 8.57283E-14
 -1      1057 1.99191E+01 1.60947E-01-3.56152E-07 1.92669E-02-3.57203E-14 5.34007E-14
 -1      1058 1.98671E+01 2.22374E-01-2.71443E-06 2.02174E-02-4.57233E-14 1.31288E-13
 -1      1059 1.98002E+01 2.92958E-01-7.12969E-06 1.90415E-02 2.78717E-14 3.21530E-14
 -1      1060 1.97139E+01 3.72987E-01-1.47067E-05 1.34009E-02-2.27859E-14-4.84578E-14
 -1      1061 1.96029E+01 4.61787E-01-2.70926E-05-3.71900E-04-1.15512E-16-1.30653E-13
 -1      1062 1.94611E+01 5.57181E-01-4.66561E-05-2.78279E-02-6.66393E-14-4.77046E-14
 -1      1063 1.92818E+01 6.54783E-01-7.63083E-05-7.71063E-02 6.99333E-14-1.01728E-13
 -1      1064 1.90575E+01 7.47089E-01-1.17214E-04-1.59811E-01 1.03656E-14-2.88285E-13
 -1      1065 1.87800E+01 8.22326E-01-1.56829E-04-2.92105E-01-1.48198E-13-4.13441E-13
 -1      1066 1.84398E+01 8.63188E-01-1.34394E-04-4.96073E-01-3.54749E-14-4.35475E-13
 -1      1067 1.80247E+01 8.44695E-01-5.51014E-04-8.00144E-01-5.98676E-14-3.59656E-13
 -1      1068 1.98504E+01 2.37551E-01 1.59032E-05-5.67892E-02 2.31939E-14-1.93962E-13
 -1      1069 2.03555E+01-5.19051E-03-5.56429E-06 2.43270E-02-3.70534E-14-2.45810E-13
 -1      1070 1.99037E+01 1.77605E-01 1.10816E-05-4.07811E-02 1.02767E-14-2.57948E-13
 -1      1071 2.02822E+01-6.13393E-02-6.25071E-06-7.29904E-02 3.72155E-14-2.71567E-13
 -1      1072 1.99814E+01 7.76448E-02 5.72699E-06-2.34814E-02 2.38849E-15-1.48540E-13
 -1      1073 1.97835E+01 3.03863E-01 2.30616E-05-8.03781E-02 5.25288E-15-1.09249E-13
 -1      1074 1.97000E+01 3.74993E-01 3.37502E-05-1.14690E-01 1.03788E-13 8.43436E-15
 -1      1075 1.95974E+01 4.47634E-01 4.98495E-05-1.64205E-01 3.78121E-14-2.71597E-15
 -1      1076 1.94736E+01 5.15955E-01 7.43152E-05-2.35207E-01-1.64712E-13 1.27875E-14
 -1      1077 1.93284E+01 5.70644E-01 1.11631E-04-3.36355E-01-1.85570E-13-8.37044E-14
 -1      1078 1.91639E+01 5.97725E-01 1.66646E-04-4.79325E-01-1.50317E-13-1.60338E-13
 -1      1079 1.89868E+01 5.77018E-01 2.27099E-04-6.79455E-01-7.44492E-14-1.44522E-13
 -1      1080 1.88114E+01 4.79971E-01 2.45208E-04-9.55936E-01 9.10351E-14 1.84565E-16
 -1      1081 1.86651E+01 2.68161E-01-3.91966E-04-1.33017E+00 3.50472E-15-1.05053E-13
 -1      1082 1.86263E+01-1.06168E-01 6.37424E-03-1.81036E+00-9.44188E-14-1.69776E-13
 -1      1083 1.76113E+01 6.00579E-01-1.42969E-03-1.41546E+00-6.62759E-14-1.35415E-13
 -1      1084 2.00384E+01 7.12751E-04 3.87515E-06-1.80457E-02-5.74679E-14-8.47930E-14
 -1      1085 2.04091E+01 2.70960E-01 3.13830E-04-2.04253E-02 2.21963E-14-3.14394E-13
 -1      1086 2.02377E+01-9.08320E-02-3.27365E-06-7.10249E-02-9.15363E-15-2.59080E-13
 -1      1087 2.04254E+01 2.50642E-01 9.44158E-05 1.01772E-02-1.61796E-14-2.76361E-13
 -1      1088 2.01578E+01-9.67671E-02 6.65232E-06-2.46958E-02-3.62296E-14-1.07326E-13
 -1      1089 2.00112E+01 3.66543E-02 4.45313E-06-1.96725E-02-1.33624E-14-1.20944E-13
 -1      1090 2.04305E+01 4.77657E-01 2.46477E-05-5.02265E-03-5.13529E-16-3.13830E-13
 -1      1091 2.00650E+01-3.07355E-02 3.92974E-06-1.81012E-02 6.15136E-16-6.32624E-14
 -1      1092 1.99464E+01 1.24408E-01 7.84465E-06-3.01767E-02 2.50203E-14-2.07361E-13
 -1      1093 2.04089E+01 7.19775E-01 1.09676E-04-2.90222E-02 1.04630E-14-3.27547E-13
 -1      1094 2.00928E+01-5.78695E-02 4.58711E-06-1.94568E-02-1.25334E-14-3.61090E-14
 -1      1095 2.01967E+01-1.05073E-01-7.41073E-06-2.76975E-02-3.20482E-14-2.02880E-13
 -1      1096 2.01234E+01-8.02840E-02 5.65283E-06-2.17756E-02 2.91588E-15-5.37361E-14
 -1      1097 2.04298E+01 3.04986E-01-1.91026E-04-6.16268E-03 4.38127E-14-3.00973E-13
 -1      1098 2.03341E+01-3.38860E-02 3.63090E-05-3.19672E-02-3.07844E-15-1.73989E-13
 -1      1099 2.03786E+01 4.78814E-02-2.73481E-05-2.76522E-02 1.80148E-14-2.24539E-13
 -1      1100 2.02402E+01-1.03015E-01 1.38672E-05-1.47878E-02-2.34164E-14-1.64057E-13
 -1      1101 2.04103E+01 1.54446E-01-1.85108E-04-1.80611E-02-1.88013E-15-2.78484E-13
 -1      1102 2.02870E+01-8.17019E-02 2.73302E-05-2.42974E-02 1.74429E-14-1.35101E-13
 -1      1103 2.79640E+01 9.08687E+00 2.32534E+00-6.69810E+00-6.66689E-14 1.78396E-12
 -1      1104 2.05485E+01 6.22752E+00 2.09799E-01-3.90362E+00-3.32512E-14 8.51125E-14
 -1      1105 1.94355E+01 5.85327E+00 7.54150E-02-2.88750E+00-2.21489E-14-6.10002E-13
 -1      1106 1.90263E+01 5.72598E+00 6.03123E-02-2.23446E+00-1.32255E-14-9.14591E-13
 -1      1107 1.88394E+01 5.66908E+00 5.75046E-02-1.70102E+00-8.19483E-15-1.04500E-12
 -1      1108 1.87456E+01 5.64033E+00 5.55385E-02-1.23381E+00-4.46605E-15-1.09731E-12
 -1      1109 1.86964E+01 5.62505E+00 5.37726E-02-8.04076E-01-1.74990E-15-1.08880E-12
 -1      1110 1.86722E+01 5.61741E+00 5.25055E-02-3.92691E-01 3.51282E-17-1.06755E-12
 -1      1111 1.86652E+01 5.61521E+00 5.21016E-02 8.49203E-03 3.10071E-15-1.03734E-12
 -1      1112 1.86732E+01 5.61775E+00 5.26161E-02 4.10082E-01 5.99846E-15-1.00115E-12
 -1      1113 1.86985E+01 5.62576E+00 5.40101E-02 8.22799E-01 8.10853E-15-9.55983E-13
 -1      1114 1.87494E+01 5.64169E+00 5.62152E-02 1.25511E+00 1.09071E-14-8.78117E-13
 -1      1115 1.88450E+01 5.67104E+00 5.84705E-02 1.72677E+00 1.50643E-14-7.45895E-13
 -1      1116 1.90323E+01 5.72790E+00 6.06781E-02 2.26781E+00 1.97932E-14-5.17216E-13
 -1      1117 1.94321E+01 5.85048E+00 6.94632E-02 2.92826E+00 2.52715E-14-1.06269E-13
 -1      1118 2.04541E+01 6.18214E+00 1.53001E-01 3.87817E+00 2.94764E-14 6.85996E-13
 -1      1119 2.52185E+01 7.99468E+00 1.43030E+00 5.84613E+00 5.91194E-14 2.32298E-12
 -1      1120 2.88137E+01 3.61629E+00 1.27116E+00-4.21699E+00-2.63428E-13 2.84495E-12
 -1      1121 2.02294E+01-1.77736E-01-6.16330E-01-1.09857E-01-9.32449E-14 2.23152E-12
 -1      1122 1.88358E+01-9.63747E-02-2.36376E-01 6.25309E-02-3.48038E-14 1.35994E-12
 -1      1123 1.85023E+01-4.80811E-02-5.96339E-02 4.05283E-02-2.15583E-14 7.97667E-13
 -1      1124 1.84478E+01-2.46156E-02-1.52195E-02 2.68141E-02-1.11152E-14 4.59514E-13
 -1      1125 1.85301E+01-1.30579E-02-4.98586E-03 1.90867E-02-1.91123E-14 2.03101E-13
 -1      1126 1.86776E+01-6.60993E-03-1.47703E-03 1.41474E-02-2.16435E-14-8.73451E-14
 -1      1127 1.88507E+01-2.83442E-03 5.66922E-04 1.07231E-02 5.53377E-16-1.93883E-13
 -1      1128 1.90270E+01-5.94078E-04 1.89333E-03 8.19087E-03-1.30370E-14-3.64231E-13
 -1      1129 1.91934E+01 7.08722E-04 2.64862E-03 6.24178E-03-4.92406E-15-5.43325E-13
 -1      1130 1.93432E+01 1.41586E-03 2.96837E-03 4.71095E-03-2.25349E-15-7.25525E-13
 -1      1131 1.94733E+01 1.73731E-03 2.98669E-03 3.49962E-03 1.16968E-14-7.61579E-13
 -1      1132 1.95831E+01 1.80881E-03 2.81138E-03 2.54081E-03-1.25446E-14-8.96199E-13
 -1      1133 1.96736E+01 1.72028E-03 2.51980E-03 1.78444E-03 1.11921E-14-9.19431E-13
 -1      1134 1.97465E+01 1.53097E-03 2.16355E-03 1.19069E-03 1.49903E-14-8.26788E-13
 -1      1135 1.98043E+01 1.27831E-03 1.77398E-03 7.27106E-04-3.27550E-14-9.16870E-13
 -1      1136 1.98498E+01 9.83429E-04 1.36657E-03 3.67245E-04-7.69213E-15-9.69100E-13
 -1      1137 1.98856E+01 6.54878E-04 9.44130E-04 9.01748E-05-1.13522E-14-1.06109E-12
 -1      1138 1.99149E+01 2.91018E-04 4.98888E-04-1.19655E-04-2.84002E-15-1.17089E-12
 -1      1139 1.99408E+01-1.18481E-04 1.36723E-05-2.72239E-04-1.18447E-14-1.18410E-12
 -1      1140 1.99667E+01-5.91989E-04-5.37906E-04-3.71518E-04-2.55614E-14-1.33171E-12
 -1      1141 1.99968E+01-1.15603E-03-1.19232E-03-4.14408E-04-2.17982E-14-1.21245E-12
 -1      1142 2.00357E+01-1.84617E-03-1.99825E-03-3.89046E-04 1.67523E-14-9.86756E-13
 -1      1143 2.00892E+01-2.70865E-03-3.02022E-03-2.71785E-04-4.84007E-14-1.00706E-12
 -1      1144 2.01647E+01-3.80262E-03-4.34403E-03-2.21265E-05 3.58405E-15-1.40026E-12
 -1      1145 2.02717E+01-5.20232E-03-6.08394E-03 4.25673E-04 1.17818E-14-1.21439E-12
 -1      1146 2.04227E+01-6.99775E-03-8.39076E-03 1.17626E-03 4.94129E-14-1.07557E-12
 -1      1147 2.06340E+01-9.28998E-03-1.14572E-02 2.39476E-03-2.76797E-16-1.07798E-12
 -1      1148 2.09272E+01-1.21729E-02-1.55102E-02 4.33937E-03-1.35582E-14-1.10918E-12
 -1      1149 2.13306E+01-1.56848E-02-2.07641E-02 7.40599E-03 1.77070E-14-8.94113E-13
 -1      1150 2.18803E+01-1.96969E-02-2.72714E-02 1.21771E-02 4.84356E-15-6.71059E-13
 -1      1151 2.26200E+01-2.36830E-02-3.45412E-02 1.94381E-02 2.34433E-14-6.11764E-13
 -1      1152 2.35974E+01-2.62898E-02-4.06813E-02 3.00478E-02-1.08143E-14-8.64323E-13
 -1      1153 2.48512E+01-2.46384E-02-4.07614E-02 4.43784E-02-1.51832E-15-8.43388E-13
 -1      1154 2.63788E+01-1.34523E-02-2.44936E-02 6.07321E-02-1.57938E-14-9.21353E-13
 -1      1155 2.80705E+01 1.51001E-02 2.48296E-02 7.18689E-02 3.41348E-14-4.73538E-13
 -1      1156 2.96000E+01 6.83971E-02 1.23263E-01 5.99012E-02 7.97929E-14-2.14780E-13
 -1      1157 3.03085E+01 1.42229E-01 2.59344E-01-5.27167E-03-5.86631E-14-1.28966E-13
 -1      1158 2.92501E+01 1.98573E-01 3.48697E-01-1.46684E-01 2.07282E-14-8.25451E-14
 -1      1159 2.57286E+01 1.56163E-01 2.32129E-01-3.23921E-01 1.44156E-15 1.22125E-14
 -1      1160 2.04035E+01-4.72284E-02-1.59752E-01-3.90563E-01 6.29392E-14 2.05336E-13
 -1      1161 1.58633E+01-2.72137E-01-5.68071E-01-2.04523E-01-3.45210E-14 6.58307E-13
 -1      1162 1.48810E+01-3.12329E-01-6.07596E-01 1.34820E-01-5.16844E-14 4.49252E-13
 -1      1163 1.75835E+01-9.07941E-02-2.36361E-01 3.36249E-01-3.36710E-15 1.64230E-13
 -1      1164 2.15945E+01 1.26050E-01 1.80958E-01 3.01230E-01 5.53724E-15 2.61846E-13
 -1      1165 2.41336E+01 1.88709E-01 3.36617E-01 1.25798E-01 7.35835E-14 2.60625E-13
 -1      1166 2.42686E+01 1.27671E-01 2.46413E-01-3.21055E-02-6.65839E-14-2.61527E-14
 -1      1167 2.27025E+01 2.50206E-02 5.83894E-02-1.03825E-01-1.59226E-14-5.60857E-13
 -1      1168 2.07836E+01-6.81565E-02-1.00305E-01-6.72997E-02-2.28572E-14-8.08534E-13
 -1      1169 1.99263E+01-9.71828E-02-4.16364E-02 9.07778E-02 1.08388E-13-8.05841E-13
 -1      1170 2.77936E+01 5.25681E-01 3.76764E-01 1.96659E+00-3.92533E-14 3.66551E-12
 -1      1171 2.00870E+01-6.66425E-02-5.73641E-01 1.29489E-01 3.00177E-14 2.93479E-12
 -1      1172 1.89092E+01-4.19617E-02-1.93197E-01 1.93074E-02 1.07067E-14 2.29521E-12
 -1      1173 1.85308E+01-2.26550E-02-5.04441E-02 1.16375E-03 1.09396E-14 1.82325E-12
 -1      1174 1.84604E+01-1.37113E-02-1.37306E-02-4.39727E-03 8.85034E-15 1.49562E-12
 -1      1175 1.85364E+01-7.89464E-03-4.91360E-03-5.65202E-03 3.52561E-15 1.23112E-12
 -1      1176 1.86808E+01-4.42270E-03-1.99474E-03-5.77949E-03-5.81056E-15 1.09766E-12
 -1      1177 1.88524E+01-2.24645E-03-2.93892E-04-5.46303E-03 1.08790E-14 9.64947E-13
 -1      1178 1.90277E+01-8.72439E-04 8.65839E-04-4.95380E-03-3.78311E-15 7.60123E-13
 -1      1179 1.91936E+01-2.10364E-05 1.59081E-03-4.35549E-03 1.53834E-14 5.43852E-13
 -1      1180 1.93432E+01 4.80134E-04 1.96472E-03-3.73004E-03 4.03717E-15 3.91412E-13
 -1      1181 1.94732E+01 7.44003E-04 2.08217E-03-3.11693E-03 2.49921E-15 3.40441E-13
 -1      1182 1.95830E+01 8.46947E-04 2.02572E-03-2.54007E-03 6.12573E-15 1.94918E-13
 -1      1183 1.96736E+01 8.40941E-04 1.85731E-03-2.01188E-03-1.26435E-14 2.13113E-13
 -1      1184 1.97468E+01 7.60661E-04 1.61931E-03-1.53645E-03 1.29832E-14 9.05337E-14
 -1      1185 1.98051E+01 6.27991E-04 1.33789E-03-1.11196E-03 9.96558E-16-8.37472E-14
 -1      1186 1.98511E+01 4.55124E-04 1.02629E-03-7.32840E-04-1.25837E-14-1.99150E-13
 -1      1187 1.98878E+01 2.46888E-04 6.87460E-04-3.91491E-04 3.00729E-14-3.26176E-13
 -1      1188 1.99183E+01 2.69135E-06 3.16418E-04-8.00181E-05-4.52437E-15-5.62671E-13
 -1      1189 1.99457E+01-2.81627E-04-9.76518E-05 2.08118E-04-5.30769E-16-4.56652E-13
 -1      1190 1.99734E+01-6.11731E-04-5.69011E-04 4.76254E-04-1.12334E-14-1.98280E-13
 -1      1191 2.00053E+01-9.92163E-04-1.11235E-03 7.22341E-04 3.54394E-14-2.40285E-13
 -1      1192 2.00456E+01-1.42272E-03-1.73847E-03 9.36220E-04-8.96875E-15-4.27528E-13
 -1      1193 2.00988E+01-1.89333E-03-2.44784E-03 1.09626E-03 1.54142E-14-6.21006E-13
 -1      1194 2.01700E+01-2.37684E-03-3.22087E-03 1.16538E-03-1.31350E-14-3.64409E-13
 -1      1195 2.02645E+01-2.81929E-03-4.00387E-03 1.08675E-03-4.31621E-16 4.79759E-15
 -1      1196 2.03874E+01-3.12763E-03-4.68941E-03 7.80417E-04-2.76213E-14-2.23593E-13
 -1      1197 2.05427E+01-3.15595E-03-5.09110E-03 1.42819E-04-3.46495E-14-3.73979E-13
 -1      1198 2.07323E+01-2.69381E-03-4.91542E-03-9.46144E-04 4.20112E-15-5.23690E-13
 -1      1199 2.09533E+01-1.46455E-03-3.73924E-03-2.60135E-03-9.62067E-15-4.00479E-13
 -1      1200 2.11959E+01 8.51342E-04-1.01357E-03-4.88505E-03 7.12340E-15-3.69260E-13
 -1      1201 2.14393E+01 4.54369E-03 3.86830E-03-7.72159E-03 3.43299E-14-4.52837E-13
 -1      1202 2.16482E+01 9.72203E-03 1.13796E-02-1.07677E-02-6.77366E-15-4.17202E-13
 -1      1203 2.17700E+01 1.60683E-02 2.14829E-02-1.32574E-02-2.91160E-14-1.61491E-13
 -1      1204 2.17355E+01 2.25289E-02 3.30605E-02-1.38980E-02 3.85954E-15-4.54519E-14
 -1      1205 2.14673E+01 2.71044E-02 4.33294E-02-1.09848E-02-4.66237E-14-3.01863E-13
 -1      1206 2.08992E+01 2.70651E-02 4.77395E-02-2.96210E-03 4.65851E-14-8.11504E-13
 -1      1207 2.00070E+01 1.99470E-02 4.10990E-02 1.04646E-02 2.99090E-14-1.13172E-12
 -1      1208 1.88455E+01 5.30002E-03 2.03598E-02 2.70563E-02 4.22990E-14-9.25711E-13
 -1      1209 1.75691E+01-1.37239E-02-1.19116E-02 4.16775E-02 6.27786E-15-1.03302E-12
 -1      1210 1.64148E+01-3.07583E-02-4.62240E-02 4.79358E-02-1.63827E-14-8.39578E-13
 -1      1211 1.56322E+01-3.91287E-02-6.94649E-02 4.17741E-02 7.29321E-15-5.12663E-13
 -1      1212 1.53873E+01-3.61907E-02-7.24982E-02 2.45385E-02-1.22302E-14-3.30886E-13
 -1      1213 1.56915E+01-2.49875E-02-5.61879E-02 2.83715E-03 2.51322E-14-3.13825E-13
 -1      1214 1.64076E+01-1.17822E-02-3.05763E-02-1.55694E-02 1.91930E-14-6.10866E-13
 -1      1215 1.73268E+01-1.57625E-03-7.39018E-03-2.63815E-02 6.20487E-14-1.29893E-12
 -1      1216 1.82616E+01 5.12683E-03 8.50887E-03-3.07848E-02-2.18718E-14-9.76885E-13
 -1      1217 1.90940E+01 1.31332E-02 2.28764E-02-3.33741E-02 5.75282E-14-1.09020E-12
 -1      1218 1.97352E+01 2.61283E-02 4.17786E-02-3.35248E-02 8.18678E-14-1.43615E-12
 -1      1219 2.00012E+01 1.12780E-03 1.40691E-02 1.01912E-03 1.63849E-14-9.45722E-13
 -1      1220 1.99964E+01-2.55990E-03 1.16113E-02-3.24346E-03-1.05587E-12-1.31154E-13
 -1      1221 2.00150E+01-2.92924E-01 3.11511E-02-2.84051E-02-1.15406E-12 2.13438E-14
 -1      1222 1.99889E+01-8.79260E-01-1.08962E-02-4.47444E-02-5.08531E-13 3.19918E-14
 -1      1223 1.99523E+01-1.38908E+00-6.71519E-02-3.81275E-02-2.50782E-13-9.59042E-15
 -1      1224 1.99191E+01-1.44523E+00-1.22155E-01-1.23764E-02 2.37960E-13-1.85276E-13
 -1      1225 1.98946E+01-6.88078E-01-1.63807E-01 3.31003E-02 1.27260E-12 1.57383E-13
 -1      1226 1.98967E+01 1.15709E+00-1.64900E-01 9.53461E-02 1.27175E-12-1.42920E-13
 -1      1227 1.99396E+01 4.07581E+00-9.57367E-02 1.55992E-01 1.22907E-12-1.60514E-14
 -1      1228 2.00351E+01 7.62954E+00 5.04196E-02 1.81669E-01 5.40346E-13-1.28495E-14
 -1      1229 2.01476E+01 1.08753E+01 2.24396E-01 1.39776E-01 1.74402E-13 7.42809E-14
 -1      1230 2.02178E+01 1.26069E+01 3.28675E-01 3.17861E-02 1.92152E-13 1.29697E-13
 -1      1231 2.01935E+01 1.21572E+01 2.94655E-01-8.79628E-02 2.77514E-13-1.83343E-14
 -1      1232 2.00970E+01 9.73693E+00 1.48308E-01-1.67662E-01 3.64930E-13 8.14774E-14
 -1      1233 1.99888E+01 6.32498E+00-2.20574E-02-1.77417E-01 5.81424E-13 8.84138E-14
 -1      1234 1.99209E+01 3.05512E+00-1.42444E-01-1.26609E-01 1.09970E-12 2.17198E-13
 -1      1235 1.99299E+01 7.29294E-01-1.82288E-01 2.37141E-03 1.46391E-12 8.07713E-14
 -1      1236 1.99171E+01-9.16236E-02-5.72520E-02 1.13924E-01 9.09917E-13-4.54914E-14
 -1      1237-1.24860E+00-2.95214E+01-4.45485E+00-2.65454E+00-9.60176E-13-4.10366E-14
 -1      1238-2.14524E+00-1.85714E+01-3.49533E+00-4.71390E+00-2.44915E-13-1.38112E-13
 -1      1239 3.75784E-02-3.75265E+00-2.04188E+00-5.87903E-01-9.36140E-13-4.94271E-13
 -1      1240 9.34511E+00 8.22045E+00-9.52266E-02 8.56407E+00-5.06706E-13-4.50751E-13
 -1      1241 2.68574E+01 1.24083E+01 1.68158E+00 1.72174E+01-4.68514E-13-6.89226E-13
 -1      1242 4.81076E+01 9.51293E+00 3.18290E+00 1.97995E+01-3.00426E-13-3.93241E-13
 -1      1243 6.49284E+01 4.42240E+00 4.15221E+00 1.31370E+01-2.12469E-14-2.25819E-13
 -1      1244 7.12515E+01 1.83842E+00 4.38953E+00-1.76979E-02 5.60246E-14-1.11786E-12
 -1      1245 6.38471E+01 4.22424E+00 3.95076E+00-1.31200E+01 5.10397E-13-2.17015E-12
 -1      1246 4.59073E+01 9.45069E+00 2.84932E+00-1.90715E+01 1.04372E-12-2.26796E-12
 -1      1247 2.60141E+01 1.21033E+01 1.46071E+00-1.69038E+01 1.29763E-12-1.96421E-12
 -1      1248 9.73886E+00 8.57417E+00-1.64382E-01-8.96312E+00 1.70597E-12-1.60449E-12
 -1      1249 5.67047E-01-1.92398E+00-1.74718E+00-1.77857E-01 1.12910E-12-6.79234E-13
 -1      1250-1.80889E+00-1.52549E+01-2.98581E+00 4.08946E+00 3.02869E-13-2.12552E-13
 -1      1251-1.11650E+00-2.56346E+01-3.75905E+00 2.59823E+00-1.09468E-12-6.62664E-14
 -1      1252-1.20865E+00-2.78803E+01-3.99008E+00-2.31363E+00-1.47832E-12-4.37081E-14
 -1      1253-2.39909E+00-2.08899E+01-3.61715E+00-5.59252E+00-1.16240E-12-3.44502E-13
 -1      1254-1.78638E+00-8.23736E+00-2.65359E+00-3.25748E+00-1.35802E-12-8.19678E-13
 -1      1255 5.13732E+00 3.51290E+00-1.16365E+00 4.46648E+00-1.69220E-12-1.25855E-12
 -1      1256 2.11248E+01 9.60782E+00 7.08128E-01 1.36136E+01-7.67830E-13-7.31415E-13
 -1      1257 4.36061E+01 8.74162E+00 2.63909E+00 1.81016E+01-3.27960E-13-7.38520E-13
 -1      1258 6.48380E+01 4.25884E+00 4.30896E+00 1.31739E+01-1.21347E-13-3.64819E-13
 -1      1259 7.47589E+01 1.97729E+00 5.06203E+00-2.63169E-02 5.64063E-14-7.19202E-13
 -1      1260 6.88610E+01 4.52662E+00 4.80516E+00-1.38261E+01 2.92932E-13-1.36480E-12
 -1      1261 4.97760E+01 9.96782E+00 3.46816E+00-2.04275E+01 2.75002E-13-6.68576E-13
 -1      1262 2.73150E+01 1.25763E+01 1.66891E+00-1.77310E+01-7.77156E-14-8.70415E-14
 -1      1263 9.07977E+00 7.66443E+00-3.94184E-01-8.30191E+00-4.04343E-13 4.08118E-13
 -1      1264-3.88785E-01-4.84950E+00-2.31096E+00 1.27819E+00-2.32259E-13 1.63092E-13
 -1      1265-2.33133E+00-1.94994E+01-3.74563E+00 5.22703E+00-8.88178E-15-1.04916E-14
 -1      1266-1.36438E+00-2.96103E+01-4.49726E+00 2.81487E+00-6.25666E-13-1.33539E-13
 -1      1267 2.22680E+01 1.83826E+00-7.25849E-01-2.79043E+00-1.01585E-13 1.39133E-12
 -1      1268 2.03603E+01 4.69031E+00-4.86332E-02-3.30656E+00-2.50494E-13-2.37525E-13
 -1      1269 2.08679E+01 4.81080E+00-1.13320E-01-4.16085E+00-3.33011E-13 1.30715E-13
 -1      1270 1.95325E+01 4.99349E+00-1.95985E-02-2.65416E+00-2.38642E-13-7.48422E-13
 -1      1271 1.98306E+01 5.09042E+00 2.94588E-04-3.04521E+00-2.75162E-13-5.37459E-13
 -1      1272 2.05269E+01 3.95290E+00-2.58726E-02-3.07453E+00-4.35270E-13-2.12830E-13
 -1      1273 1.91843E+01 5.08422E+00-3.65817E-03-2.06987E+00-1.84117E-13-9.80143E-13
 -1      1274 1.93338E+01 5.13954E+00 1.06071E-02-2.36302E+00-2.17076E-13-8.78839E-13
 -1      1275 1.97548E+01 4.36614E+00-2.42480E-02-2.48917E+00-3.73760E-13-6.32591E-13
 -1      1276 1.90086E+01 5.13089E+00 3.25279E-03-1.56440E+00-1.24548E-13-1.07819E-12
 -1      1277 1.90864E+01 5.16085E+00 1.25589E-02-1.81430E+00-1.49405E-13-1.03731E-12
 -1      1278 1.93926E+01 4.55574E+00-1.95791E-02-1.93078E+00-2.77138E-13-8.32789E-13
 -1      1279 1.89151E+01 5.16058E+00 6.58460E-03-1.11674E+00-7.75599E-14-1.10357E-12
 -1      1280 1.89575E+01 5.17691E+00 1.27131E-02-1.33818E+00-9.09654E-14-1.09255E-12
 -1      1281 1.92054E+01 4.66147E+00-1.60706E-02-1.44458E+00-1.84627E-13-9.00471E-13
 -1      1282 1.88634E+01 5.18036E+00 8.19332E-03-6.93573E-01-3.19877E-14-1.09451E-12
 -1      1283 1.88865E+01 5.18924E+00 1.20229E-02-9.03730E-01-4.51375E-14-1.10362E-12
 -1      1284 1.91023E+01 4.72681E+00-1.39591E-02-1.00396E+00-1.05335E-13-9.31109E-13
 -1      1285 1.88393E+01 5.19227E+00 9.27976E-03-2.89043E-01 1.78144E-14-1.06683E-12
 -1      1286 1.88492E+01 5.19611E+00 1.10641E-02-4.91079E-01 1.32143E-15-1.07793E-12
 -1      1287 1.90463E+01 4.76578E+00-1.29113E-02-5.88573E-01-3.09635E-14-9.16638E-13
 -1      1288 1.88356E+01 5.19721E+00 1.02110E-02 1.08185E-01 5.82793E-14-1.03732E-12
 -1      1289 1.88352E+01 5.19708E+00 1.01394E-02-9.13980E-02 4.44860E-14-1.05708E-12
 -1      1290 1.90220E+01 4.78379E+00-1.24746E-02-1.89020E-01 5.37704E-14-8.88661E-13
 -1      1291 1.88510E+01 5.19575E+00 1.11529E-02 5.08451E-01 1.02059E-13-1.00158E-12
 -1      1292 1.88403E+01 5.19162E+00 9.21353E-03 3.05996E-01 8.66094E-14-1.02290E-12
 -1      1293 1.90228E+01 4.78315E+00-1.24942E-02 2.05709E-01 1.14295E-13-8.64551E-13
 -1      1294 1.88897E+01 5.18809E+00 1.20929E-02 9.22586E-01 1.43026E-13-9.46661E-13
 -1      1295 1.88658E+01 5.17903E+00 8.12344E-03 7.11473E-01 1.26044E-13-9.78816E-13
 -1      1296 1.90489E+01 4.76371E+00-1.29793E-02 6.05957E-01 1.84946E-13-8.28986E-13
 -1      1297 1.89618E+01 5.17514E+00 1.28916E-02 1.35572E+00 1.82958E-13-8.59316E-13
 -1      1298 1.89184E+01 5.15837E+00 6.44530E-03 1.13287E+00 1.67328E-13-9.13720E-13
 -1      1299 1.91065E+01 4.72327E+00-1.40020E-02 1.01918E+00 2.57872E-13-7.69385E-13
 -1      1300 1.90948E+01 5.15687E+00 1.28955E-02 1.84024E+00 2.41526E-13-7.13356E-13
 -1      1301 1.90151E+01 5.12642E+00 3.14497E-03 1.58751E+00 2.13374E-13-7.98347E-13
 -1      1302 1.92122E+01 4.65498E+00-1.61522E-02 1.46225E+00 3.26438E-13-6.65742E-13
 -1      1303 1.93448E+01 5.13340E+00 1.04425E-02 2.39719E+00 2.92977E-13-4.68708E-13
 -1      1304 1.91940E+01 5.07647E+00-4.18652E-03 2.09987E+00 2.64393E-13-6.20622E-13
 -1      1305 1.94052E+01 4.54262E+00-1.99155E-02 1.95757E+00 4.13499E-13-5.12201E-13
 -1      1306 1.98553E+01 5.09961E+00 6.03170E-03 3.08384E+00 3.30999E-13-1.21986E-14
 -1      1307 1.95442E+01 4.98468E+00-2.02539E-02 2.69660E+00 2.93127E-13-2.83742E-13
 -1      1308 1.97745E+01 4.34584E+00-2.47771E-02 2.52785E+00 4.68570E-13-2.23176E-13
 -1      1309 2.11038E+01 4.90674E+00 7.99152E-03 4.05348E+00 2.76584E-13 8.33306E-13
 -1      1310 2.03345E+01 4.73406E+00-4.80964E-02 3.41571E+00 2.76001E-13 3.15629E-13
 -1      1311 2.05636E+01 3.91600E+00-2.28610E-02 3.17844E+00 4.87534E-13 2.89560E-13
 -1      1312 2.72037E+01 3.20539E+00 9.28863E-01 4.58213E+00 1.31173E-13 2.44205E-12
 -1      1313 2.20209E+01 3.52226E+00-1.82145E-01 3.88473E+00 1.38112E-13 1.32691E-12
 -1      1314 2.21142E+01 2.56170E+00-3.25086E-02 3.45652E+00 4.50666E-13 1.05690E-12
 -1      1315 2.14279E+01 3.59578E-01-7.63680E-01 1.18359E+00 2.45123E-13 2.34712E-12
 -1      1316 2.20023E+01 1.31345E-01-4.00862E-01-1.28556E+00-2.88755E-13 1.50691E-12
 -1      1317 2.06798E+01 3.06697E-01-1.64811E-01-8.05640E-01-2.61270E-13 1.16545E-12
 -1      1318 2.00822E+01 1.53478E-01-7.35482E-02-4.02005E-01-2.08854E-13 1.04137E-12
 -1      1319 1.96125E+01 9.11963E-02-1.49473E-02-3.29854E-01-1.91947E-13 7.32185E-13
 -1      1320 2.09736E+01 3.69184E-01-1.04234E-01-1.27370E+00-4.48606E-13 5.44256E-13
 -1      1321 1.92553E+01 6.45274E-02 3.00736E-03-1.35195E-01-1.54468E-13 6.24594E-13
 -1      1322 1.91011E+01 4.12800E-02 1.31908E-02-1.17381E-01-1.36108E-13 4.17579E-13
 -1      1323 1.99230E+01 1.33865E-01-3.51973E-02-5.03723E-01-3.40634E-13 3.41492E-13
 -1      1324 1.89409E+01 3.15294E-02 1.32200E-02-2.78450E-02-1.02379E-13 3.30826E-13
 -1      1325 1.89217E+01 1.93799E-02 1.10453E-02-1.84702E-02-9.60447E-14 1.89557E-13
 -1      1326 1.94461E+01 5.54966E-02-8.53140E-03-1.69678E-01-2.39836E-13 1.70166E-13
 -1      1327 1.88657E+01 1.60145E-02 8.76629E-03 2.51715E-02-9.35237E-14 1.34823E-13
 -1      1328 1.89083E+01 9.07857E-03 6.43178E-03 2.98044E-02-8.64343E-14 6.33174E-16
 -1      1329 1.92374E+01 2.43935E-02-3.51776E-03-1.08557E-02-1.79591E-13 4.45650E-15
 -1      1330 1.89085E+01 7.85973E-03 4.66859E-03 5.09738E-02-8.79333E-14-5.28917E-14
 -1      1331 1.89790E+01 3.50306E-03 3.64003E-03 5.28662E-02-6.59761E-14-1.45847E-13
 -1      1332 1.91808E+01 1.02034E-02-2.21925E-03 6.78372E-02-1.63309E-13-9.38472E-14
 -1      1333 1.90086E+01 3.18794E-03 2.44036E-03 6.16610E-02-3.15796E-14-1.86046E-13
 -1      1334 1.90893E+01 3.25457E-04 2.20969E-03 6.19281E-02-4.50631E-14-2.54817E-13
 -1      1335 1.92072E+01 2.78033E-03-1.32155E-03 1.04674E-01-1.06938E-13-1.55393E-13
 -1      1336 1.91330E+01 4.38117E-04 1.33008E-03 6.35997E-02-5.56794E-14-2.68236E-13
 -1      1337 1.92140E+01-1.47539E-03 1.43785E-03 6.29135E-02-5.73637E-14-3.58023E-13
 -1      1338 1.92764E+01-1.30875E-03-5.55493E-04 1.17926E-01-1.00256E-13-2.57481E-13
 -1      1339 1.92626E+01-1.15276E-03 7.44883E-04 6.05017E-02-5.06975E-14-3.85628E-13
 -1      1340 1.93383E+01-2.42589E-03 9.68838E-04 5.92937E-02-5.09477E-14-4.57205E-13
 -1      1341 1.93648E+01-3.52167E-03 5.22377E-06 1.17545E-01-9.66698E-14-2.88529E-13
 -1      1342 1.93864E+01-2.00847E-03 4.08176E-04 5.46796E-02-6.92174E-14-4.79101E-13
 -1      1343 1.94540E+01-2.83421E-03 6.57104E-04 5.32330E-02-3.51118E-14-5.43420E-13
 -1      1344 1.94580E+01-4.59220E-03 3.59697E-04 1.09472E-01-8.59715E-14-3.23055E-13
 -1      1345 1.94987E+01-2.38805E-03 2.04015E-04 4.76180E-02-2.42852E-14-5.91783E-13
 -1      1346 1.95570E+01-2.89615E-03 4.41645E-04 4.61173E-02-4.35252E-14-6.44502E-13
 -1      1347 1.95478E+01-4.94415E-03 5.52216E-04 9.74432E-02-8.41963E-14-3.79894E-13
 -1      1348 1.95967E+01-2.45957E-03 8.00173E-05 4.02728E-02-5.78374E-14-6.53267E-13
 -1      1349 1.96456E+01-2.74113E-03 2.92230E-04 3.88354E-02-3.44552E-14-7.09383E-13
 -1      1350 1.96296E+01-4.84479E-03 6.30726E-04 8.38566E-02-9.71276E-14-4.71360E-13
 -1      1351 1.96797E+01-2.33514E-03 8.42927E-06 3.32500E-02-5.62620E-15-7.25890E-13
 -1      1352 1.97198E+01-2.45518E-03 1.90865E-04 3.19476E-02 7.40055E-15-6.97538E-13
 -1      1353 1.97013E+01-4.46964E-03 6.33120E-04 7.02491E-02-3.01525E-14-5.05585E-13
 -1      1354 1.97484E+01-2.08923E-03-2.75839E-05 2.69223E-02 7.10532E-15-7.46797E-13
 -1      1355 1.97807E+01-2.09386E-03 1.25631E-04 2.57965E-02-2.05077E-14-7.54796E-13
 -1      1356 1.97623E+01-3.93415E-03 5.86271E-04 5.75866E-02-3.06475E-14-5.75222E-13
 -1      1357 1.98043E+01-1.76934E-03-3.89884E-05 2.15121E-02-4.17250E-14-7.26297E-13
 -1      1358 1.98300E+01-1.69029E-03 8.83183E-05 2.05858E-02-5.43791E-14-7.65050E-13
 -1      1359 1.98132E+01-3.31113E-03 5.08108E-04 4.64608E-02-6.06643E-14-6.80134E-13
 -1      1360 1.98494E+01-1.40272E-03-3.31128E-05 1.71523E-02-2.53705E-14-7.78351E-13
 -1      1361 1.98698E+01-1.26045E-03 7.32978E-05 1.64389E-02-3.74405E-14-8.12023E-13
 -1      1362 1.98553E+01-2.64154E-03 4.09699E-04 3.72306E-02-5.06731E-14-6.01427E-13
 -1      1363 1.98860E+01-1.00080E-03-1.48556E-05 1.39331E-02-2.14307E-14-8.04871E-13
 -1      1364 1.99024E+01-8.06803E-04 7.68892E-05 1.34434E-02-2.01392E-14-8.35825E-13
 -1      1365 1.98902E+01-1.94157E-03 2.96822E-04 3.01274E-02-2.98684E-14-6.51074E-13
 -1      1366 1.99166E+01-5.62155E-04 1.25606E-05 1.19394E-02-4.65489E-14-8.32175E-13
 -1      1367 1.99306E+01-3.20671E-04 9.69764E-05 1.16878E-02-1.56281E-14-8.72927E-13
 -1      1368 1.99199E+01-1.20736E-03 1.71082E-04 2.53378E-02-3.94506E-14-6.21404E-13
 -1      1369 1.99439E+01-7.43137E-05 4.70633E-05 1.12825E-02-5.46267E-15-9.29536E-13
 -1      1370 1.99573E+01 2.16458E-04 1.32763E-04 1.12920E-02-6.22858E-14-9.71638E-13
 -1      1371 1.99469E+01-4.17911E-04 3.06669E-05 2.30709E-02-7.08091E-14-6.70051E-13
 -1      1372 1.99711E+01 4.85543E-04 8.73082E-05 1.21277E-02-2.82615E-14-9.73434E-13
 -1      1373 1.99856E+01 8.32615E-04 1.84594E-04 1.24346E-02-9.13696E-15-9.97711E-13
 -1      1374 1.99736E+01 4.63809E-04-1.29183E-04 2.36162E-02-7.44949E-14-7.41149E-13
 -1      1375 2.00017E+01 1.15091E-03 1.32270E-04 1.47224E-02 1.95135E-15-8.80274E-13
 -1      1376 2.00195E+01 1.56607E-03 2.53782E-04 1.53821E-02 4.41202E-14-8.34145E-13
 -1      1377 2.00031E+01 1.49139E-03-3.15984E-04 2.73993E-02 6.36107E-14-6.53301E-13
 -1      1378 2.00399E+01 1.96748E-03 1.80740E-04 1.94266E-02 3.92441E-14-8.45251E-13
 -1      1379 2.00636E+01 2.46712E-03 3.42345E-04 2.05193E-02 1.43594E-14-7.65850E-13
 -1      1380 2.00390E+01 2.73753E-03-5.40069E-04 3.50385E-02 4.71182E-14-6.05171E-13
 -1      1381 2.00907E+01 2.99592E-03 2.30580E-04 2.67496E-02-4.61615E-14-7.95886E-13
 -1      1382 2.01236E+01 3.60111E-03 4.52469E-04 2.83884E-02-1.09432E-13-9.27034E-13
 -1      1383 2.00856E+01 4.29880E-03-8.14910E-04 4.74117E-02-6.72287E-14-6.53851E-13
 -1      1384 2.01604E+01 4.31611E-03 2.77472E-04 3.73953E-02-4.40857E-14-9.51868E-13
 -1      1385 2.02068E+01 5.05237E-03 5.85393E-04 3.97366E-02 1.99157E-14-9.29445E-13
 -1      1386 2.01481E+01 6.30297E-03-1.15772E-03 6.57357E-02-7.70738E-14-6.34510E-13
 -1      1387 2.02570E+01 6.03253E-03 3.12721E-04 5.23202E-02 8.03023E-14-8.97574E-13
 -1      1388 2.03222E+01 6.92858E-03 7.39075E-04 5.55772E-02 6.25769E-14-8.26390E-13
 -1      1389 2.02332E+01 8.91885E-03-1.59030E-03 9.16673E-02 3.79093E-14-6.23476E-13
 -1      1390 2.03908E+01 8.27982E-03 3.19375E-04 7.28046E-02 7.21775E-14-8.89069E-13
 -1      1391 2.04820E+01 9.36313E-03 9.03569E-04 7.72643E-02 7.47989E-14-7.98111E-13
 -1      1392 2.03492E+01 1.23672E-02-2.14011E-03 1.27426E-01 7.66362E-14-6.39016E-13
 -1      1393 2.05749E+01 1.12251E-02 2.65528E-04 1.00529E-01-2.72883E-14-8.99307E-13
 -1      1394 2.07015E+01 1.25099E-02 1.05240E-03 1.06571E-01-5.06602E-14-9.19897E-13
 -1      1395 2.05066E+01 1.69283E-02-2.84114E-03 1.75932E-01-3.88684E-14-7.35666E-13
 -1      1396 2.08263E+01 1.50585E-02 9.33995E-05 1.37630E-01 5.86614E-14-8.72769E-13
 -1      1397 2.10004E+01 1.65173E-02 1.12787E-03 1.45743E-01 4.99624E-14-8.36000E-13
 -1      1398 2.07185E+01 2.29324E-02-3.73402E-03 2.40917E-01 2.87400E-14-7.57988E-13
 -1      1399 2.11666E+01 1.99524E-02-2.96367E-04 1.86672E-01 3.31879E-14-7.29536E-13
 -1      1400 2.14037E+01 2.14525E-02 1.01964E-03 1.97445E-01 9.01111E-14-5.96998E-13
 -1      1401 2.10014E+01 3.07027E-02-4.86293E-03 3.26925E-01 1.36705E-13-5.85342E-13
 -1      1402 2.16223E+01 2.59458E-02-1.06074E-03 2.50368E-01 4.23173E-14-5.99546E-13
 -1      1403 2.19414E+01 2.71191E-02 5.44471E-04 2.64421E-01 1.48700E-14-5.55252E-13
 -1      1404 2.13748E+01 4.03812E-02-6.26362E-03 4.38945E-01 9.91945E-14-5.09162E-13
 -1      1405 2.22246E+01 3.26692E-02-2.40949E-03 3.30709E-01-4.73918E-14-5.36121E-13
 -1      1406 2.26467E+01 3.26621E-02-5.40072E-04 3.48462E-01-5.12680E-14-4.94367E-13
 -1      1407 2.18611E+01 5.14935E-02-7.92752E-03 5.81192E-01-7.11826E-14-4.94604E-13
 -1      1408 2.30056E+01 3.87575E-02-4.51608E-03 4.26845E-01-3.20278E-14-5.51760E-13
 -1      1409 2.35498E+01 3.57997E-02-2.39740E-03 4.47933E-01-3.88175E-14-6.36075E-13
 -1      1410 2.24829E+01 6.19949E-02-9.70653E-03 7.54025E-01-1.00824E-13-4.26575E-13
 -1      1411 2.39901E+01 4.07381E-02-7.20014E-03 5.30572E-01-4.86191E-14-5.62200E-13
 -1      1412 2.46618E+01 3.15328E-02-4.68501E-03 5.52553E-01-3.66612E-14-6.63525E-13
 -1      1413 2.32578E+01 6.64181E-02-1.10894E-02 9.47287E-01-2.46582E-14-3.45996E-13
 -1      1414 2.51753E+01 3.12688E-02-9.18296E-03 6.17982E-01 2.93559E-14-5.02990E-13
 -1      1415 2.59432E+01 1.05624E-02-5.72426E-03 6.33857E-01 7.90401E-14-4.40717E-13
 -1      1416 2.41861E+01 5.28448E-02-1.07680E-02 1.12766E+00 4.31959E-14-1.76462E-13
 -1      1417 2.64943E+01-2.59287E-03-6.98208E-03 6.36924E-01 1.04445E-13-3.76477E-13
 -1      1418 2.72513E+01-4.07499E-02-1.58872E-03 6.31382E-01 9.21585E-14-2.81206E-13
 -1      1419 2.52313E+01-1.42236E-04-6.03857E-03 1.21870E+00 1.79953E-13-1.12419E-13
 -1      1420 2.77578E+01-7.72466E-02 5.50082E-03 4.96500E-01 1.54435E-13-2.43562E-13
 -1      1421 2.82731E+01-1.33200E-01 1.26676E-02 4.43549E-01 1.34903E-13-6.03892E-14
 -1      1422 2.62891E+01-1.20767E-01 7.31206E-03 1.07980E+00 1.60866E-13-2.07180E-13
 -1      1423 2.85915E+01-1.98074E-01 3.24395E-02 8.21157E-02-1.72744E-14-1.06148E-13
 -1      1424 2.85005E+01-2.50899E-01 3.60378E-02-4.69219E-02-1.68025E-14-6.14578E-14
 -1      1425 2.71520E+01-3.21018E-01 3.24571E-02 5.14077E-01 6.08506E-14-1.16450E-13
 -1      1426 2.84326E+01-3.19838E-01 6.29329E-02-6.54204E-01 7.38298E-15 2.56947E-14
 -1      1427 2.73691E+01-3.11540E-01 4.82211E-02-8.53476E-01 6.99024E-14 3.59296E-14
 -1      1428 2.74919E+01-5.33516E-01 6.32415E-02-6.25922E-01-9.88792E-16 2.74156E-14
 -1      1429 2.67460E+01-3.09726E-01 5.78549E-02-1.50200E+00-1.55188E-14-4.98490E-14
 -1      1430 2.47017E+01-1.73194E-01 8.06730E-03-1.67017E+00-3.44620E-14-4.09672E-14
 -1      1431 2.69261E+01-5.51668E-01 7.06114E-02-2.15922E+00 7.97626E-14 7.99430E-14
 -1      1432 2.35970E+01-3.13574E-02-2.50977E-02-1.87531E+00 1.08063E-13 5.06539E-14
 -1      1433 2.13060E+01 2.00513E-01-9.42794E-02-1.83133E+00 1.10936E-13 1.81133E-13
 -1      1434 2.53000E+01-1.41540E-01 8.25697E-03-3.27657E+00 6.62317E-14 5.15490E-14
 -1      1435 2.02605E+01 3.83606E-01-1.42110E-01-1.20948E+00 5.09107E-14 7.11098E-14
 -1      1436 1.89807E+01 5.27426E-01-1.75218E-01-9.02945E-01-5.10494E-14 1.22603E-13
 -1      1437 2.31697E+01 5.54191E-01-1.20149E-01-2.82743E+00 5.61912E-14-9.01779E-14
 -1      1438 1.86833E+01 5.37169E-01-1.79893E-01 1.56870E-01-1.36308E-13 2.39365E-13
 -1      1439 1.90473E+01 4.45512E-01-1.55213E-01 4.62225E-01-2.26548E-13 1.30826E-13
 -1      1440 2.18254E+01 9.52130E-01-1.95850E-01-7.32605E-01-4.89608E-14-9.84109E-14
 -1      1441 1.95103E+01 2.60270E-01-1.09879E-01 1.20528E+00-1.34906E-13 1.37390E-13
 -1      1442 2.10434E+01 4.09044E-02-4.35301E-02 1.29609E+00-7.37604E-15 7.67442E-14
 -1      1443 2.20047E+01 6.56083E-01-1.39725E-01 1.51505E+00-2.52715E-13-7.36217E-14
 -1      1444 2.17043E+01-1.22766E-01-8.17470E-04 1.22109E+00 1.45647E-14 1.80245E-13
 -1      1445 2.31889E+01-2.72726E-01 5.07481E-02 1.07844E+00 1.57097E-14 1.84242E-13
 -1      1446 2.31575E+01-3.31489E-02-1.10171E-02 2.28329E+00 4.28303E-14 4.70041E-14
 -1      1447 2.34562E+01-2.99552E-01 5.16242E-02 4.86233E-01 6.26894E-14-1.36141E-14
 -1      1448 2.40552E+01-3.13306E-01 6.77693E-02 2.85881E-01-3.73555E-14-2.58266E-14
 -1      1449 2.40263E+01-5.02812E-01 6.33549E-02 1.39058E+00-1.11435E-13 1.04940E-13
 -1      1450 2.38020E+01-2.46412E-01 4.49664E-02-3.01264E-01-1.50510E-13-3.50397E-14
 -1      1451 2.34700E+01-1.76833E-01 3.91413E-02-4.30745E-01-2.67545E-13-2.54713E-13
 -1      1452 2.39372E+01-5.23919E-01 6.08641E-02-6.64310E-02-1.45994E-13-7.85526E-14
 -1      1453 2.28882E+01-9.18042E-02 1.55086E-02-7.16270E-01-1.15349E-13-2.39718E-13
 -1      1454 2.20814E+01 1.00479E-04 4.06013E-03-7.40616E-01-1.49030E-14-4.87548E-13
 -1      1455 2.30197E+01-2.63673E-01 2.53753E-02-1.10513E+00-2.07745E-13-7.37049E-14
 -1      1456 2.14316E+01 8.14565E-02-1.72340E-02-6.64716E-01-1.10744E-13-4.63150E-13
 -1      1457 2.07491E+01 1.71536E-01-4.36903E-03-5.65903E-01-1.74516E-13-5.70721E-13
 -1      1458 2.17439E+01 6.52121E-02-1.49193E-02-1.34277E+00-1.89607E-13-1.64910E-13
 -1      1459 2.03517E+01 1.99336E-01-3.18063E-02-3.20272E-01-6.40807E-14-6.01762E-13
 -1      1460 2.01607E+01 1.98194E-01 3.31650E-02-2.02276E-01 3.00189E-13-3.05928E-13
 -1      1461 2.01361E+01 3.88278E-01-5.47903E-02-3.02919E-01 8.13328E-13-6.00982E-14
 -1      1462 2.07118E+01 3.19414E-01-3.96378E-02-9.20848E-01-9.73774E-14-1.18499E-13
 -1      1463 2.02608E+01 7.58199E-02-1.51753E-01 4.83555E-01 2.09766E-13 1.87001E-12
 -1      1464 2.15314E+01 2.16084E-01-2.29251E-01 7.21041E-01 1.91722E-13 2.20296E-12
 -1      1465 2.17301E+01 8.82227E-01-8.52850E-02 2.06510E+00 3.71050E-13 1.45645E-12
 -1      1466 1.93310E+01 3.41476E-02-2.07769E-02 1.85286E-01 1.51193E-13 1.48441E-12
 -1      1467 1.97539E+01 1.14135E-01-6.19630E-02 2.38986E-01 1.45436E-13 1.71347E-12
 -1      1468 2.03046E+01 1.86265E-01-5.55025E-02 7.88123E-01 3.12389E-13 1.14711E-12
 -1      1469 1.89506E+01 1.66277E-02 6.07259E-03 5.25692E-02 1.00621E-13 1.16773E-12
 -1      1470 1.90908E+01 5.13756E-02 1.68116E-03 7.99760E-02 1.01863E-13 1.34517E-12
 -1      1471 1.95559E+01 6.68043E-02-1.53478E-02 2.97270E-01 2.36143E-13 8.92741E-13
 -1      1472 1.88408E+01 8.54066E-03 7.17649E-03-8.95164E-03 7.55776E-14 9.63190E-13
 -1      1473 1.88573E+01 2.53680E-02 1.15184E-02 6.06284E-03 7.99708E-14 1.08832E-12
 -1      1474 1.92210E+01 2.11022E-02-6.93265E-03 7.65367E-02 1.77481E-13 6.81162E-13
 -1      1475 1.88673E+01 3.77653E-03 4.81568E-03-3.92959E-02 4.24047E-14 8.18606E-13
 -1      1476 1.88241E+01 1.34787E-02 8.52945E-03-3.10551E-02 4.60424E-14 8.96273E-13
 -1      1477 1.91049E+01 6.96950E-03-4.67506E-03-2.79955E-02 1.20004E-13 5.67471E-13
 -1      1478 1.89618E+01 1.13864E-03 3.27793E-03-5.27007E-02 3.86913E-14 6.90573E-13
 -1      1479 1.88913E+01 7.11731E-03 5.29887E-03-4.83129E-02 3.59566E-14 7.52761E-13
 -1      1480 1.91078E+01 9.23376E-04-3.21902E-03-7.78171E-02 8.40807E-14 4.72815E-13
 -1      1481 1.90864E+01-3.56351E-04 2.45602E-03-5.66350E-02 6.66425E-14 5.54848E-13
 -1      1482 1.90060E+01 3.41157E-03 3.37804E-03-5.46066E-02 3.95992E-14 6.40279E-13
 -1      1483 1.91716E+01-2.01059E-03-2.08360E-03-9.91524E-02 8.38665E-14 3.40163E-13
 -1      1484 1.92194E+01-1.18348E-03 1.96546E-03-5.51224E-02 8.17155E-14 4.07174E-13
 -1      1485 1.91389E+01 1.14575E-03 2.27915E-03-5.45573E-02 8.00607E-14 5.42458E-13
 -1      1486 1.92642E+01-3.47916E-03-1.20214E-03-1.04375E-01 1.11685E-13 2.92096E-13
 -1      1487 1.93481E+01-1.59281E-03 1.61063E-03-5.05914E-02 3.58223E-14 3.10545E-13
 -1      1488 1.92729E+01-2.28390E-04 1.60248E-03-5.09147E-02 2.70629E-14 3.79056E-13
 -1      1489 1.93667E+01-4.11392E-03-5.73498E-04-1.00383E-01 9.52373E-14 2.23281E-13
 -1      1490 1.94658E+01-1.73515E-03 1.32061E-03-4.45776E-02 4.80529E-14 2.50373E-13
 -1      1491 1.93987E+01-1.02158E-03 1.14584E-03-4.54081E-02 4.90539E-14 2.99381E-13
 -1      1492 1.94680E+01-4.24151E-03-1.56064E-04-9.13717E-02 6.93244E-14 1.70159E-13
 -1      1493 1.95692E+01-1.70804E-03 1.07324E-03-3.80667E-02 6.68704E-14 1.55247E-13
 -1      1494 1.95113E+01-1.42788E-03 8.19444E-04-3.91493E-02 3.34784E-14 1.88596E-13
 -1      1495 1.95618E+01-4.05869E-03 1.03326E-04-7.99991E-02 9.68171E-14 9.44446E-14
 -1      1496 1.96572E+01-1.57642E-03 8.61043E-04-3.16868E-02 2.20065E-14 9.15492E-14
 -1      1497 1.96086E+01-1.57589E-03 5.80649E-04-3.28512E-02 4.81172E-14 1.34828E-13
 -1      1498 1.96450E+01-3.69261E-03 2.50372E-04-6.79717E-02 7.14473E-14 5.91576E-14
 -1      1499 1.97304E+01-1.38328E-03 6.80111E-04-2.58284E-02-8.58406E-15 1.02031E-13
 -1      1500 1.96905E+01-1.55265E-03 4.05532E-04-2.69622E-02-3.87339E-14 6.46967E-14
 -1      1501 1.97164E+01-3.22661E-03 3.19202E-04-5.63741E-02 5.05688E-15 2.09646E-14
 -1      1502 1.97901E+01-1.15598E-03 5.26988E-04-2.07256E-02 5.75569E-14-4.48589E-15
 -1      1503 1.97580E+01-1.41657E-03 2.78463E-04-2.17554E-02 6.65997E-14 1.13178E-13
 -1      1504 1.97764E+01-2.71363E-03 3.33894E-04-4.58802E-02 1.78507E-14-2.10996E-14
 -1      1505 1.98383E+01-9.10364E-04 3.97945E-04-1.65155E-02 2.52203E-14-1.16088E-13
 -1      1506 1.98127E+01-1.20508E-03 1.88262E-04-1.73930E-02 6.06737E-14-1.00025E-14
 -1      1507 1.98259E+01-2.18437E-03 3.10760E-04-3.68980E-02 1.14130E-13-1.98768E-14
 -1      1508 1.98773E+01-6.53734E-04 2.88848E-04-1.32815E-02 5.17813E-14-2.17793E-13
 -1      1509 1.98569E+01-9.39840E-04 1.26546E-04-1.39726E-02 2.49115E-14-1.58164E-13
 -1      1510 1.98666E+01-1.65286E-03 2.60185E-04-2.96748E-02 8.38554E-14-1.03348E-13
 -1      1511 1.99096E+01-3.87102E-04 1.95202E-04-1.10857E-02 4.93837E-14-3.48663E-13
 -1      1512 1.98929E+01-6.30351E-04 8.68534E-05-1.15622E-02 7.60758E-14-2.33760E-13
 -1      1513 1.99006E+01-1.12059E-03 1.87965E-04-2.43742E-02 7.58018E-14-2.36427E-13
 -1      1514 1.99381E+01-1.07128E-04 1.12247E-04-9.99302E-03-1.60367E-15-3.90127E-13
 -1      1515 1.99236E+01-2.76932E-04 6.40985E-05-1.02261E-02 3.48463E-14-3.79659E-13
 -1      1516 1.99300E+01-5.79978E-04 9.63329E-05-2.11333E-02 7.12194E-14-1.79859E-13
 -1      1517 1.99656E+01 1.92078E-04 3.50730E-05-1.00870E-02-3.01199E-14-3.60897E-13
 -1      1518 1.99517E+01 1.26687E-04 5.41616E-05-1.00426E-02-7.52109E-14-4.24531E-13
 -1      1519 1.99574E+01-1.74664E-05-1.52020E-05-2.01034E-02-2.99078E-14-2.40329E-13
 -1      1520 1.99954E+01 5.16993E-04-4.12224E-05-1.14785E-02-2.92936E-14-2.38134E-13
 -1      1521 1.99803E+01 5.90666E-04 5.35458E-05-1.11142E-02-3.49965E-14-2.66575E-13
 -1      1522 1.99855E+01 5.83227E-04-1.49044E-04-2.14750E-02-1.00822E-13-2.67701E-13
 -1      1523 2.00310E+01 8.72273E-04-1.21293E-04-1.43052E-02 1.08441E-14-2.37218E-13
 -1      1524 2.00128E+01 1.12578E-03 5.90502E-05-1.35695E-02 3.84900E-14-1.75934E-13
 -1      1525 2.00174E+01 1.23719E-03-3.08618E-04-2.54864E-02 6.66855E-15-2.34210E-13
 -1      1526 2.00765E+01 1.25752E-03-2.09101E-04-1.87195E-02 3.53472E-14-3.74110E-13
 -1      1527 2.00529E+01 1.73898E-03 6.74563E-05-1.75532E-02 3.61338E-14-2.49770E-13
 -1      1528 2.00562E+01 1.95306E-03-4.97210E-04-3.24123E-02 8.48040E-14-1.99949E-13
 -1      1529 2.01361E+01 1.66276E-03-3.07105E-04-2.48604E-02 1.89381E-14-3.85011E-13
 -1      1530 2.01048E+01 2.42700E-03 7.52537E-05-2.32030E-02 3.39078E-14-3.70057E-13
 -1      1531 2.01057E+01 2.72549E-03-7.16319E-04-4.25259E-02 7.15741E-14-2.31118E-13
 -1      1532 2.02143E+01 2.06223E-03-4.14830E-04-3.28021E-02-6.85368E-14-1.91124E-13
 -1      1533 2.01728E+01 3.16719E-03 7.84839E-05-3.06041E-02-1.18905E-13-3.70264E-13
 -1      1534 2.01696E+01 3.52442E-03-9.63238E-04-5.60240E-02-9.21140E-14-1.94395E-13
 -1      1535 2.03155E+01 2.40602E-03-5.26452E-04-4.24719E-02 4.17261E-14-1.21623E-13
 -1      1536 2.02613E+01 3.90438E-03 7.28684E-05-3.97162E-02 4.00881E-14-5.77832E-14
 -1      1537 2.02518E+01 4.27998E-03-1.22750E-03-7.29002E-02-9.26832E-14-1.57976E-13
 -1      1538 2.04436E+01 2.60958E-03-6.26928E-04-5.35258E-02 3.01390E-14-2.64952E-13
 -1      1539 2.03745E+01 4.53343E-03 5.45145E-05-5.02614E-02 6.72820E-14-1.52531E-13
 -1      1540 2.03557E+01 4.86238E-03-1.48579E-03-9.27508E-02 1.19100E-13-1.15168E-13
 -1      1541 2.06007E+01 2.54216E-03-6.86249E-04-6.51739E-02-3.04796E-15-3.56195E-13
 -1      1542 2.05155E+01 4.87735E-03 2.16603E-05-6.15666E-02-1.43105E-14-3.34276E-13
 -1      1543 2.04838E+01 5.05749E-03-1.69498E-03-1.14495E-01 6.05418E-14-2.75292E-13
 -1      1544 2.07859E+01 2.01697E-03-6.51799E-04-7.59533E-02-2.14707E-14-3.10307E-13
 -1      1545 2.06851E+01 4.66405E-03-2.19705E-05-7.23551E-02-6.07561E-14-3.53344E-13
 -1      1546 2.06366E+01 4.54183E-03-1.78339E-03-1.36000E-01-2.90871E-14-2.66980E-13
 -1      1547 2.09932E+01 7.90351E-04-4.40318E-04-8.34668E-02-4.33475E-14-2.37485E-13
 -1      1548 2.08801E+01 3.50974E-03-6.18114E-05-8.05030E-02-5.70788E-14-3.05417E-13
 -1      1549 2.08112E+01 2.86726E-03-1.64141E-03-1.53627E-01-3.11258E-14-2.31714E-13
 -1      1550 2.12089E+01-1.41692E-03 6.56391E-05-8.41475E-02-3.68504E-14-2.21665E-13
 -1      1551 2.10912E+01 9.26558E-04-6.57210E-05-8.28080E-02 8.47087E-16-2.66694E-13
 -1      1552 2.09992E+01-5.22303E-04-1.11525E-03-1.61779E-01-6.32060E-14-1.86106E-13
 -1      1553 2.14084E+01-4.85392E-03 1.00564E-03-7.31850E-02 2.27314E-15-2.93773E-13
 -1      1554 2.13002E+01-3.61351E-03 2.07822E-05-7.48843E-02 1.18536E-14-1.77705E-13
 -1      1555 2.11850E+01-6.20317E-03-1.21993E-05-1.52610E-01-1.72013E-14-9.47196E-14
 -1      1556 2.15540E+01-9.60077E-03 2.49472E-03-4.48644E-02 1.79414E-15-1.53964E-13
 -1      1557 2.14770E+01-1.05106E-02 2.69557E-04-5.13969E-02-3.31742E-14-2.32113E-13
 -1      1558 2.13434E+01-1.45562E-02 1.86668E-03-1.16276E-01-6.97077E-14-8.38435E-14
 -1      1559 2.15947E+01-1.53348E-02 4.51829E-03 6.31013E-03-1.45231E-14-4.38504E-14
 -1      1560 2.15783E+01-1.97142E-02 7.40856E-04-6.96033E-03-3.57102E-14-1.31395E-13
 -1      1561 2.14382E+01-2.53646E-02 4.64418E-03-4.22655E-02-7.09034E-14-1.03674E-13
 -1      1562 2.14698E+01-2.10252E-02 6.76280E-03 8.33017E-02 1.36128E-14-1.32029E-13
 -1      1563 2.15488E+01-3.02392E-02 1.41549E-03 6.19254E-02 7.66219E-14 4.06195E-14
 -1      1564 2.14243E+01-3.72299E-02 8.21329E-03 7.74752E-02 3.68004E-14-8.77941E-14
 -1      1565 2.11203E+01-2.46974E-02 8.44155E-03 1.82942E-01 1.20497E-13-3.04619E-13
 -1      1566 2.13285E+01-3.96605E-02 2.09297E-03 1.53738E-01 6.40239E-14-1.46521E-13
 -1      1567 2.12524E+01-4.69931E-02 1.20244E-02 2.43156E-01 9.02230E-14-4.21254E-14
 -1      1568 2.05099E+01-2.35958E-02 8.28831E-03 2.91925E-01 1.54133E-13-5.77097E-13
 -1      1569 2.08674E+01-4.39960E-02 2.31570E-03 2.58183E-01 7.82673E-14-4.49748E-13
 -1      1570 2.08816E+01-4.96878E-02 1.49138E-02 4.40133E-01 2.40253E-13-2.33084E-13
 -1      1571 1.96514E+01-1.51679E-02 4.96816E-03 3.84943E-01-8.91075E-14-6.86264E-13
 -1      1572 2.01491E+01-3.86373E-02 1.43841E-03 3.53801E-01 1.50492E-14-6.23803E-13
 -1      1573 2.02981E+01-3.98022E-02 1.52012E-02 6.33246E-01 1.06418E-13-2.71280E-13
 -1      1574 1.86306E+01 1.04988E-03-1.96755E-03 4.28827E-01 8.26421E-14-4.42830E-13
 -1      1575 1.92170E+01-2.07432E-02-1.02200E-03 4.10281E-01 1.46078E-14-5.27318E-13
 -1      1576 1.95358E+01-1.43210E-02 1.13178E-02 7.68273E-01-6.68558E-14-2.98137E-13
 -1      1577 1.76083E+01 2.16056E-02-1.10401E-02 3.95043E-01 5.33794E-14-5.54053E-13
 -1      1578 1.81894E+01 7.69287E-03-4.79160E-03 3.98237E-01 8.29801E-14-5.18283E-13
 -1      1579 1.86896E+01 2.35297E-02 3.00029E-03 7.86510E-01 9.96616E-14-3.32269E-14
 -1      1580 1.67867E+01 3.92382E-02-1.87859E-02 2.76782E-01-7.37275E-14-4.94233E-13
 -1      1581 1.72466E+01 3.84671E-02-8.54587E-03 3.04666E-01-7.62532E-14-6.95100E-13
 -1      1582 1.79063E+01 6.29165E-02-7.67413E-03 6.52079E-01-1.41744E-14-2.62212E-13
 -1      1583 1.63404E+01 4.62865E-02-2.13139E-02 9.95885E-02-8.24696E-14-2.59935E-13
 -1      1584 1.65812E+01 6.00466E-02-1.02859E-02 1.45520E-01-1.45965E-13-4.05544E-13
 -1      1585 1.73444E+01 8.88033E-02-1.67139E-02 3.78958E-01-2.42513E-13-2.03648E-13
 -1      1586 1.63464E+01 3.96650E-02-1.71151E-02-8.59007E-02-4.13584E-14-1.15297E-13
 -1      1587 1.63268E+01 6.40858E-02-8.69155E-03-3.60329E-02 3.70606E-14-2.00083E-13
 -1      1588 1.71161E+01 9.05227E-02-2.02819E-02 3.65204E-02-1.07520E-13-6.46692E-14
 -1      1589 1.67534E+01 2.34330E-02-8.31675E-03-2.28576E-01 2.25938E-13-2.82691E-13
 -1      1590 1.65049E+01 5.10473E-02-4.27182E-03-1.88902E-01 8.38175E-14-1.68886E-13
 -1      1591 1.72404E+01 6.84287E-02-1.75539E-02-2.78685E-01 1.55188E-13-1.41786E-13
 -1      1592 1.74166E+01 5.68989E-03 6.42361E-04-3.01793E-01 2.23571E-13-6.49272E-13
 -1      1593 1.70227E+01 2.94099E-02 8.57404E-04-2.79437E-01 2.10619E-13-3.12503E-13
 -1      1594 1.76411E+01 3.39591E-02-1.10977E-02-4.90307E-01 3.41535E-13-3.02208E-13
 -1      1595 1.81686E+01-6.95250E-03 6.40293E-03-3.10654E-01-1.18671E-13-7.34093E-13
 -1      1596 1.77243E+01 9.34168E-03 4.39761E-03-3.03899E-01 5.34462E-14-5.85670E-13
 -1      1597 1.81891E+01 1.98901E-03-4.61674E-03-5.74472E-01 1.46636E-13-1.33000E-13
 -1      1598 1.88797E+01-1.33595E-02 9.28977E-03-2.77843E-01 2.27390E-14-5.89393E-13
 -1      1599 1.84590E+01-4.26355E-03 5.79902E-03-2.80410E-01-5.97202E-14-6.66606E-13
 -1      1600 1.87602E+01-1.96479E-02-2.30590E-04-5.55479E-01-7.08450E-14-1.99064E-13
 -1      1601 1.94670E+01-1.92782E-02 1.22446E-02-2.18791E-01 1.36807E-13-8.73489E-13
 -1      1602 1.91197E+01-1.56107E-02 6.53095E-03-2.27710E-01 1.26768E-13-6.87183E-13
 -1      1603 1.92678E+01-3.48040E-02 2.89485E-03-4.70233E-01 2.20282E-13-3.05122E-13
 -1      1604 1.98575E+01-3.61343E-02 1.14074E-02-1.24563E-01-1.09229E-13-9.23137E-13
 -1      1605 1.96397E+01-3.55948E-02 8.69669E-03-1.42898E-01-4.55139E-14-9.28452E-13
 -1      1606 1.96685E+01-6.22322E-02 7.34927E-03-3.28971E-01 4.74161E-14-4.13563E-13
 -1      1607 1.99566E+01-5.25961E-02 1.60733E-02-3.66145E-02-5.68097E-13-6.52815E-13
 -1      1608 1.99805E+01-4.29042E-01 8.07017E-03-1.99485E-01-4.69087E-13 3.81959E-13
 -1      1609 1.99580E+01-2.14018E-01 7.43621E-03-1.72456E-01-7.26353E-13 1.69592E-13
 -1      1610 2.00261E+01-8.18106E-01 2.50873E-03-2.07120E-01-2.46417E-13 5.63525E-14
 -1      1611 1.99996E+01-5.75984E-01 4.25406E-03-2.09621E-01-3.62484E-13 1.07631E-13
 -1      1612 1.99965E+01-4.25942E-01 6.06003E-03-3.76696E-01-1.27336E-13 3.78177E-13
 -1      1613 2.00788E+01-1.02735E+00-2.25793E-03-8.52017E-02 4.16507E-15 8.23924E-14
 -1      1614 2.00513E+01-9.17468E-01-9.41885E-04-1.19466E-01-1.70450E-13 3.82942E-13
 -1      1615 2.00658E+01-6.81064E-01-1.03305E-02-2.97626E-01 2.80019E-14 2.86217E-13
 -1      1616 2.01246E+01-7.86260E-01-8.11979E-03 1.73321E-01 3.78112E-13 2.12799E-14
 -1      1617 2.01026E+01-9.77913E-01-7.99108E-03 1.11549E-01 1.24314E-13-5.60853E-14
 -1      1618 2.01584E+01-7.48453E-01-2.36115E-02 4.27442E-02 8.81092E-14 1.89177E-13
 -1      1619 2.01543E+01 1.42215E-01-1.46441E-02 5.51082E-01 8.29361E-13 5.29889E-14
 -1      1620 2.01477E+01-4.95189E-01-1.67875E-02 4.65445E-01 5.10741E-13 2.36347E-13
 -1      1621 2.02370E+01-4.38623E-01-3.70780E-02 6.25640E-01 4.17871E-13 2.61922E-13
 -1      1622 2.01407E+01 1.88823E+00-1.79572E-02 9.79149E-01 8.42965E-13-6.52603E-14
 -1      1623 2.01632E+01 7.45219E-01-2.43016E-02 8.88380E-01 8.32355E-13-1.31353E-14
 -1      1624 2.02744E+01 4.14263E-01-4.53560E-02 1.38431E+00 3.00697E-13 4.12240E-14
 -1      1625 2.00576E+01 4.29099E+00-1.28643E-02 1.30424E+00 7.42906E-13 7.10976E-15
 -1      1626 2.01202E+01 2.78087E+00-2.32241E-02 1.24712E+00 8.49945E-13-1.09448E-13
 -1      1627 2.02176E+01 1.87236E+00-4.01488E-02 2.12401E+00 6.07073E-13-6.97515E-14
 -1      1628 1.99051E+01 6.96878E+00 4.87592E-03 1.33572E+00 3.66068E-13-2.47123E-13
 -1      1629 1.99986E+01 5.37455E+00-8.37460E-03 1.35634E+00 5.43801E-13 9.01362E-15
 -1      1630 2.00389E+01 3.82323E+00-1.19194E-02 2.53257E+00 4.26745E-13-2.68072E-13
 -1      1631 1.97469E+01 9.10250E+00 2.73848E-02 9.27514E-01 1.58464E-13-3.23352E-14
 -1      1632 1.98291E+01 7.94570E+00 1.70556E-02 1.04983E+00 2.19408E-13-1.54508E-13
 -1      1633 1.97683E+01 5.88672E+00 3.77306E-02 2.26755E+00 2.97491E-13-3.21344E-13
 -1      1634 1.96800E+01 9.92192E+00 3.90128E-02 1.73728E-01 1.63012E-13 1.95892E-13
 -1      1635 1.96996E+01 9.62313E+00 3.59350E-02 3.53025E-01-4.28546E-14 9.90319E-14
 -1      1636 1.95367E+01 7.40108E+00 8.51841E-02 1.22020E+00-8.99454E-15-1.38455E-13
 -1      1637 1.97489E+01 9.14418E+00 2.96232E-02-6.46769E-01 8.26422E-14 4.86590E-14
 -1      1638 1.96967E+01 9.80495E+00 3.64241E-02-4.83591E-01 2.69108E-13-1.49825E-13
 -1      1639 1.94781E+01 7.81366E+00 9.71159E-02-2.91717E-01-9.44297E-14 2.47045E-13
 -1      1640 1.99073E+01 7.08491E+00 5.55722E-03-1.18454E+00 2.85577E-13 7.57276E-14
 -1      1641 1.98159E+01 8.43861E+00 1.81766E-02-1.10895E+00 1.89779E-13 2.95814E-13
 -1      1642 1.96287E+01 6.97402E+00 6.51133E-02-1.66374E+00 5.21770E-14 1.37383E-13
 -1      1643 2.00586E+01 4.52857E+00-1.76380E-02-1.29405E+00 3.62307E-13 1.55046E-13
 -1      1644 1.99773E+01 6.09012E+00-3.01542E-03-1.31308E+00 2.59737E-13 1.31918E-13
 -1      1645 1.98916E+01 5.26168E+00 1.36284E-02-2.36811E+00 1.26500E-13 8.06369E-14
 -1      1646 2.01676E+01 2.25003E+00-2.83765E-02-1.04801E+00 4.79367E-13 1.26456E-13
 -1      1647 2.00993E+01 3.56296E+00-2.13096E-02-1.13707E+00 3.59185E-13 1.79502E-13
 -1      1648 2.01271E+01 3.31482E+00-2.98464E-02-2.31242E+00-1.78711E-14 1.09773E-13
 -1      1649 2.01838E+01 8.61512E-01-2.46210E-02-6.32042E-01 6.26561E-13 2.21715E-14
 -1      1650 2.01261E+01 1.68548E+00-3.91924E-02-7.48957E-01 5.31977E-13 1.10502E-13
 -1      1651 2.02445E+01 1.86235E+00-3.94818E-02-1.74611E+00 5.77993E-14 2.14412E-14
 -1      1652 2.03370E+01 8.91980E-01-2.62185E-02-1.01042E+00 6.68209E-14-9.48495E-14
 -1      1653-8.31327E-01-1.82169E+01-2.01821E+00-1.23036E+00-4.17444E-13 2.32980E-13
 -1      1654-7.90661E-01-2.09078E+01-2.29828E+00 4.45066E-01-6.68132E-13-9.93650E-15
 -1      1655 1.90572E+00-9.97471E+00-1.24142E+00 1.01433E+00-2.08500E-13-3.90687E-13
 -1      1656 1.01446E+00-1.58181E+01-1.84155E+00 3.20241E-01-1.77081E-13 3.98986E-14
 -1      1657 7.15838E+00-1.21068E+00-5.51275E-01 4.70936E+00-5.08482E-13-2.59570E-13
 -1      1658 4.06018E+00-7.61076E+00-1.40223E+00 1.68578E+00-3.88578E-13-2.97817E-13
 -1      1659 1.77829E+01 4.98578E+00 2.42458E-01 1.02374E+01-4.03233E-13-6.23723E-13
 -1      1660 1.11355E+01 1.06317E+00-6.94975E-01 6.19265E+00-4.46976E-13-3.96239E-13
 -1      1661 3.34562E+01 6.27302E+00 1.02830E+00 1.28775E+01-3.42615E-13-2.33369E-13
 -1      1662 2.40935E+01 5.42636E+00 1.65719E-01 1.05372E+01-4.07008E-13-4.34319E-13
 -1      1663 4.74577E+01 6.13263E+00 1.71124E+00 1.24496E+01-2.10054E-13-2.89102E-13
 -1      1664 3.83465E+01 7.66860E+00 1.00629E+00 1.35671E+01-3.55993E-13-3.91243E-13
 -1      1665 5.65136E+01 4.19941E+00 1.87387E+00 5.98711E+00 1.92901E-14-7.14262E-13
 -1      1666 5.09584E+01 5.75620E+00 1.53590E+00 1.04293E+01-6.67383E-14-5.59441E-13
 -1      1667 5.73433E+01 4.13558E+00 1.79072E+00-2.93938E+00 3.70759E-13-1.49353E-12
 -1      1668 5.75368E+01 4.15565E+00 1.80486E+00 3.22387E+00 2.29761E-13-1.04122E-12
 -1      1669 5.03075E+01 5.66399E+00 1.47479E+00-1.04268E+01 6.35797E-13-1.93834E-12
 -1      1670 5.64470E+01 4.05172E+00 1.89244E+00-5.95580E+00 4.23217E-13-1.68598E-12
 -1      1671 3.68282E+01 7.00281E+00 7.91684E-01-1.24023E+01 1.00142E-12-1.79567E-12
 -1      1672 4.58422E+01 5.69317E+00 1.47416E+00-1.14973E+01 7.65998E-13-1.81621E-12
 -1      1673 2.32320E+01 6.24284E+00 1.09913E-01-1.09239E+01 1.05793E-12-1.71729E-12
 -1      1674 3.17675E+01 6.76089E+00 8.92387E-01-1.30236E+01 1.01785E-12-1.99263E-12
 -1      1675 1.16765E+01 1.61563E+00-6.28962E-01-6.41272E+00 1.07692E-12-1.20215E-12
 -1      1676 1.82347E+01 5.10667E+00 2.32001E-01-1.01725E+01 1.15630E-12-1.49836E-12
 -1      1677 4.02937E+00-6.03683E+00-1.29041E+00-1.89712E+00 6.44818E-13-5.59164E-13
 -1      1678 7.22072E+00-1.77358E-01-5.14557E-01-4.92889E+00 8.98170E-13-9.20597E-13
 -1      1679 8.34293E-01-1.38988E+01-1.70104E+00-1.19800E-01-5.75096E-14-3.28786E-13
 -1      1680 1.69667E+00-8.42246E+00-1.15872E+00-8.50903E-01 3.66263E-13-4.10338E-13
 -1      1681-6.47856E-01-1.89316E+01-1.97484E+00-5.63487E-01-8.92730E-13-3.54800E-13
 -1      1682-5.94184E-01-1.58669E+01-1.69420E+00 8.06586E-01-2.53353E-13-3.37674E-13
 -1      1683-1.04251E+00-1.79219E+01-1.84594E+00-1.85784E+00-8.18845E-13-1.91513E-14
 -1      1684-8.57155E-01-1.90188E+01-1.90879E+00-1.71552E-01-8.89615E-13-9.00391E-14
 -1      1685 8.17984E-02-1.22173E+01-1.51582E+00-1.32619E+00-9.24372E-13-3.16414E-13
 -1      1686-1.82219E-01-1.69081E+01-1.90903E+00-1.22854E+00-9.36362E-13-2.43180E-13
 -1      1687 4.75724E+00-4.52422E+00-9.48115E-01 2.14273E+00-1.02562E-12-9.62563E-13
 -1      1688 2.42440E+00-1.02761E+01-1.61781E+00-1.85920E-01-9.41247E-13-5.68767E-13
 -1      1689 1.39321E+01 1.99557E+00-2.48919E-01 7.19796E+00-1.01164E-12-5.47229E-13
 -1      1690 8.16932E+00-2.37953E+00-1.13462E+00 3.38275E+00-1.11822E-12-7.87592E-13
 -1      1691 2.95663E+01 4.30541E+00 6.67308E-01 1.07182E+01-4.53526E-13-4.89608E-13
 -1      1692 2.02061E+01 2.63760E+00-3.19678E-01 7.80343E+00-9.17710E-13-6.19504E-13
 -1      1693 4.54967E+01 4.85011E+00 1.59527E+00 1.07475E+01-3.34455E-13-5.87530E-13
 -1      1694 3.50069E+01 5.62279E+00 6.20735E-01 1.09390E+01-3.19134E-13-6.98330E-13
 -1      1695 5.78890E+01 3.72074E+00 2.19056E+00 5.34935E+00-1.99341E-13-3.33622E-13
 -1      1696 5.03695E+01 5.15552E+00 1.59617E+00 9.63072E+00-3.03743E-13-4.88720E-13
 -1      1697 6.00439E+01 4.19674E+00 2.21269E+00-3.67433E+00 2.72893E-13-6.73031E-13
 -1      1698 5.91483E+01 4.08827E+00 2.10394E+00 2.57475E+00 1.04639E-13-3.69038E-13
 -1      1699 5.36981E+01 5.93293E+00 1.92987E+00-1.10961E+01 2.49287E-13-7.99916E-13
 -1      1700 5.96021E+01 4.18614E+00 2.30769E+00-6.35611E+00 1.68615E-13-7.58171E-13
 -1      1701 3.94390E+01 7.34496E+00 1.09311E+00-1.33286E+01 5.36238E-14-3.92353E-13
 -1      1702 4.93936E+01 5.88407E+00 1.90670E+00-1.23834E+01 1.40332E-13-6.51701E-13
 -1      1703 2.40619E+01 6.29488E+00 1.87883E-01-1.13590E+01-2.34368E-13-1.35447E-13
 -1      1704 3.37906E+01 7.12850E+00 1.17137E+00-1.39868E+01 3.30846E-14-1.90958E-13
 -1      1705 1.15324E+01 7.20921E-02-8.01093E-01-5.84970E+00-1.90292E-13 2.94764E-13
 -1      1706 1.86693E+01 4.47608E+00 2.34411E-01-1.02007E+01-3.44613E-13-7.59393E-14
 -1      1707 3.71267E+00-8.57420E+00-1.61573E+00-1.16118E+00-3.21965E-14 1.70086E-13
 -1      1708 6.79661E+00-2.09101E+00-7.41543E-01-4.22675E+00-6.59472E-14 3.58602E-13
 -1      1709 5.75113E-01-1.66632E+01-2.06632E+00 4.17177E-01-1.20459E-13-1.44808E-13
 -1      1710 1.29691E+00-1.09106E+01-1.48436E+00-9.92254E-02-4.21885E-15 1.41276E-13
 -1      1711-7.52797E-01-2.06483E+01-2.25111E+00-2.18690E-01-7.42212E-13-2.28706E-13
 -1      1712-8.10227E-01-1.82078E+01-2.03745E+00 1.37399E+00-2.70228E-13-3.13083E-13
 -1      1713 1.49010E+01-3.99096E+00-3.61751E-01 7.13351E+00-2.86549E-13-1.95399E-13
 -1      1714-1.66467E+00-1.43682E+01-1.61760E+00 1.44327E-01-3.63043E-13-1.20848E-13
 -1      1715 1.99381E+01-1.07592E-01 1.57281E-02-1.32450E-01-7.00232E-13-4.13091E-13
 -1      1716 1.98705E+01-1.77207E-01 7.27382E-03-2.95126E-01-2.88717E-13-5.45533E-14
 -1      1717 8.49825E-01-1.22608E+01-1.25569E+00 3.24737E+00-1.71529E-13 3.32401E-13
 -1      1718 6.58914E+00-9.01224E+00-9.85345E-01 5.42349E+00 1.14353E-14-3.75720E-13
 -1      1719 2.62738E+01 2.84656E-01 3.76149E-01 7.97653E+00-3.34621E-13-2.57239E-13
 -1      1720 3.64547E+01 3.89030E+00 8.19906E-01 7.09965E+00-2.69701E-13-1.93401E-13
 -1      1721 4.50295E+01 7.00983E+00 1.42368E+00 5.91772E+00-1.42386E-13-6.24167E-13
 -1      1722 4.91310E+01 8.01197E+00 1.55128E+00 2.30739E+00 2.94376E-13-9.85351E-13
 -1      1723 4.92224E+01 7.83687E+00 1.55560E+00-1.92109E+00 5.58387E-13-1.39608E-12
 -1      1724 4.40648E+01 6.40202E+00 1.23982E+00-5.15526E+00 6.12566E-13-1.41376E-12
 -1      1725 3.54165E+01 4.07590E+00 7.92116E-01-7.14272E+00 8.26672E-13-1.35369E-12
 -1      1726 2.53127E+01 9.15202E-01 2.84273E-01-7.87183E+00 7.53397E-13-1.51545E-12
 -1      1727 1.49417E+01-3.09345E+00-2.85731E-01-6.92204E+00 4.94715E-13-1.05405E-12
 -1      1728 6.33964E+00-7.62578E+00-8.38600E-01-4.98604E+00 2.50355E-13-6.93876E-13
 -1      1729 8.23878E-01-1.13739E+01-1.18963E+00-3.04321E+00-1.28453E-13-6.29441E-13
 -1      1730-1.64830E+00-1.33501E+01-1.39194E+00-9.47538E-01-3.75644E-13-3.56548E-13
 -1      1731-6.11713E-01-1.26350E+01-1.31961E+00 9.87324E-01-6.30773E-13-1.64369E-13
 -1      1732 4.09127E+00-1.01587E+01-1.08152E+00 3.10432E+00-6.50591E-13-4.20511E-13
 -1      1733 1.18519E+01-6.31683E+00-6.72951E-01 4.91823E+00-5.43232E-13-5.73430E-13
 -1      1734 2.30272E+01-2.39979E+00 1.20618E-02 5.93518E+00-6.97109E-13-1.92291E-13
 -1      1735 3.43334E+01 1.25307E+00 5.80664E-01 5.03403E+00-3.54272E-13-4.18554E-13
 -1      1736 4.44822E+01 5.02273E+00 1.31147E+00 3.90450E+00-3.99250E-13-4.69513E-13
 -1      1737 5.02727E+01 7.33608E+00 1.71168E+00 9.08654E-01 1.19904E-14-5.40235E-13
 -1      1738 5.09996E+01 7.95266E+00 1.79827E+00-2.80114E+00 2.06057E-13-5.05929E-13
 -1      1739 4.67856E+01 6.62581E+00 1.57878E+00-5.77663E+00 2.99760E-15-6.54699E-13
 -1      1740 3.77033E+01 4.07907E+00 1.02993E+00-7.61707E+00-1.58817E-13-3.24629E-13
 -1      1741 2.64034E+01 1.89140E-02 2.79989E-01-8.06122E+00-2.79554E-13-4.22662E-13
 -1      1742 1.51741E+01-4.85567E+00-4.60233E-01-6.87323E+00-6.17284E-14 2.47413E-13
 -1      1743 6.08537E+00-9.60306E+00-1.09443E+00-4.79490E+00 9.93650E-14 1.01905E-13
 -1      1744 4.45530E-01-1.28630E+01-1.43766E+00-2.50673E+00-3.85914E-13-2.27374E-13
 -1      1745 2.28609E+01 1.98491E+00-2.35553E-02-2.72213E+00-3.45071E-13 1.12099E-12
 -1      1746 1.98258E+01 3.71372E+00-3.54304E-02-2.15233E+00-3.90365E-13-5.59316E-13
 -1      1747 2.00587E+01 3.56277E+00-4.02184E-02-2.44454E+00-4.52511E-13-4.34253E-13
 -1      1748 2.03645E+01 3.18151E+00-4.57898E-02-2.58433E+00-4.66524E-13-2.65572E-13
 -1      1749 2.05849E+01 2.80974E+00-1.42505E-01-2.85267E+00-5.08957E-13-2.97193E-14
 -1      1750 2.04252E+01 2.69292E+00-4.14258E-03-2.22374E+00-4.89652E-13-3.23939E-13
 -1      1751 1.93544E+01 4.18904E+00-2.00880E-02-1.27005E+00-1.99370E-13-7.50794E-13
 -1      1752 1.94285E+01 4.14960E+00-1.69121E-02-1.49436E+00-2.50573E-13-7.34406E-13
 -1      1753 1.92574E+01 4.29485E+00-1.67502E-02-8.59243E-01-1.05280E-13-7.57963E-13
 -1      1754 1.93004E+01 4.27093E+00-1.42504E-02-1.06995E+00-1.54270E-13-7.56681E-13
 -1      1755 1.95264E+01 3.78338E+00-8.98187E-03-1.11917E+00-2.02767E-13-7.29354E-13
 -1      1756 1.92056E+01 4.35529E+00-1.47891E-02-4.66548E-01-1.59003E-14-7.43594E-13
 -1      1757 1.92277E+01 4.34245E+00-1.32922E-02-6.66769E-01-5.40378E-14-7.57321E-13
 -1      1758 1.94287E+01 3.90358E+00-9.14723E-03-7.32826E-01-8.69914E-14-7.28093E-13
 -1      1759 1.91861E+01 4.38091E+00-1.36642E-02-8.35690E-02 8.17386E-14-7.06702E-13
 -1      1760 1.91926E+01 4.37699E+00-1.32098E-02-2.78932E-01 3.96972E-14-7.27347E-13
 -1      1761 1.93781E+01 3.96805E+00-9.14544E-03-3.58102E-01 7.41787E-15-7.12042E-13
 -1      1762 1.91942E+01 4.37561E+00-1.31676E-02 2.98003E-01 1.59452E-13-6.92751E-13
 -1      1763 1.91866E+01 4.38007E+00-1.37497E-02 1.02479E-01 1.25167E-13-7.02098E-13
 -1      1764 1.93633E+01 3.98745E+00-9.14218E-03 1.05661E-02 1.11226E-13-6.84919E-13
 -1      1765 1.92317E+01 4.33840E+00-1.33255E-02 6.86568E-01 2.39949E-13-6.65802E-13
 -1      1766 1.92084E+01 4.35210E+00-1.49169E-02 4.85837E-01 2.02352E-13-6.86003E-13
 -1      1767 1.93808E+01 3.96473E+00-9.18648E-03 3.79421E-01 1.89536E-13-6.65197E-13
 -1      1768 1.93056E+01 4.26498E+00-1.43972E-02 1.08411E+00 3.21958E-13-5.97845E-13
 -1      1769 1.92620E+01 4.28942E+00-1.69773E-02 8.76186E-01 2.85380E-13-6.39013E-13
 -1      1770 1.94339E+01 3.89719E+00-9.19309E-03 7.51410E-01 2.83436E-13-6.31120E-13
 -1      1771 1.94375E+01 4.13778E+00-1.74143E-02 1.51415E+00 4.08106E-13-4.87103E-13
 -1      1772 1.93609E+01 4.18027E+00-2.05073E-02 1.28463E+00 3.59346E-13-5.44575E-13
 -1      1773 1.95340E+01 3.77314E+00-9.24507E-03 1.13510E+00 3.72040E-13-5.45843E-13
 -1      1774 1.96664E+01 3.92160E+00-2.53236E-02 1.97918E+00 4.98869E-13-3.32959E-13
 -1      1775 1.95340E+01 3.99825E+00-2.69124E-02 1.72189E+00 4.49605E-13-4.30579E-13
 -1      1776 1.97075E+01 3.56591E+00-8.83863E-03 1.53504E+00 4.52596E-13-4.25346E-13
 -1      1777 2.00796E+01 3.52254E+00-4.43076E-02 2.47546E+00 5.43151E-13-4.26187E-14
 -1      1778 1.98415E+01 3.68393E+00-3.79586E-02 2.18056E+00 5.08964E-13-2.21524E-13
 -1      1779 2.00031E+01 3.22175E+00-6.25481E-03 1.93130E+00 5.28793E-13-2.46020E-13
 -1      1780 2.09200E+01 2.66961E+00-6.21176E-02 2.85483E+00 5.31813E-13 4.74155E-13
 -1      1781 2.04136E+01 3.10034E+00-4.96697E-02 2.61280E+00 5.30113E-13 1.73479E-13
 -1      1782 2.04992E+01 2.60878E+00-6.82874E-04 2.23805E+00 5.59307E-13 8.01650E-14
 -1      1783 2.17309E+01 1.21146E+00-1.23385E-01 2.32829E+00 4.43791E-13 1.10660E-12
 -1      1784 2.12785E+01 2.27251E+00 3.29944E-03 2.74116E+00 4.89747E-13 6.87464E-13
 -1      1785 2.09600E+01 1.68904E+00-1.37159E-02 2.14494E+00 5.45586E-13 4.79179E-13
 -1      1786 2.09611E+01 7.78683E-01-6.06137E-02 1.52308E+00 4.35450E-13 9.68671E-13
 -1      1787 2.17989E+01 2.45820E+00 9.09141E-02-3.04770E+00-4.53720E-13 3.98237E-13
 -1      1788 2.01214E+01 2.99551E-01-4.94111E-03 6.62409E-01 3.41987E-13 7.47860E-13
 -1      1789 2.06519E+01 4.38323E-01-1.43039E-02 1.03278E+00 3.63022E-13 8.76915E-13
 -1      1790 2.07496E+01 8.47058E-01 5.41221E-03 1.40831E+00 4.40072E-13 5.96103E-13
 -1      1791 2.15093E+01 1.74229E+00 7.94453E-02-2.33660E+00-4.79235E-13 2.21934E-13
 -1      1792 2.05232E+01 5.00726E-01 3.23915E-02-9.21118E-01-3.88432E-13 1.64440E-13
 -1      1793 2.00917E+01 3.52119E-01 7.53046E-03-6.29130E-01-3.38972E-13 5.81020E-14
 -1      1794 1.98975E+01 2.57323E-01 2.73846E-02-3.90712E-01-3.04480E-13 4.26941E-14
 -1      1795 1.97066E+01 1.77986E-01 1.03700E-02-2.52924E-01-2.63440E-13-3.95985E-14
 -1      1796 2.02014E+01 4.83790E-01-5.86794E-03-7.21884E-01-3.83093E-13-1.19493E-13
 -1      1797 1.95846E+01 1.32697E-01 1.66374E-02-1.19429E-01-2.24110E-13-4.80683E-14
 -1      1798 1.95066E+01 9.30499E-02 6.96031E-03-4.86522E-02-2.00363E-13-1.27966E-13
 -1      1799 1.98755E+01 2.43848E-01-5.80595E-03-2.95087E-01-3.01744E-13-1.53781E-13
 -1      1800 1.94418E+01 6.83562E-02 8.68334E-03 2.48469E-02-1.93226E-13-1.43971E-13
 -1      1801 1.94274E+01 4.66385E-02 4.10647E-03 6.09777E-02-1.68102E-13-1.82730E-13
 -1      1802 1.96929E+01 1.25199E-01-4.62753E-03-5.82980E-02-2.35403E-13-2.04824E-13
 -1      1803 1.94014E+01 3.22756E-02 4.23041E-03 9.96049E-02-1.49865E-13-1.83195E-13
 -1      1804 1.94212E+01 1.98071E-02 2.42453E-03 1.16301E-01-1.15916E-13-2.45302E-13
 -1      1805 1.96065E+01 6.07929E-02-3.45101E-03 7.11519E-02-1.84212E-13-2.58851E-13
 -1      1806 1.94195E+01 1.11423E-02 1.84638E-03 1.34095E-01-9.98168E-14-2.57022E-13
 -1      1807 1.94565E+01 3.92987E-03 1.43713E-03 1.39407E-01-9.71441E-14-2.68628E-13
 -1      1808 1.95822E+01 2.38273E-02-2.32809E-03 1.37317E-01-1.32254E-13-2.65107E-13
 -1      1809 1.94688E+01-1.29413E-03 5.43502E-04 1.44620E-01-1.06614E-13-2.59653E-13
 -1      1810 1.95129E+01-5.31335E-03 8.19972E-04 1.43253E-01-8.36955E-14-2.59160E-13
 -1      1811 1.95956E+01 2.20588E-03-1.42740E-03 1.65294E-01-9.20478E-14-2.78602E-13
 -1      1812 1.95327E+01-8.33738E-03-1.79628E-04 1.41003E-01-1.08765E-13-2.58266E-13
 -1      1813 1.95778E+01-1.03416E-02 4.20011E-04 1.35888E-01-9.22915E-14-2.79375E-13
 -1      1814 1.96299E+01-1.01564E-02-7.80351E-04 1.70221E-01-1.00668E-13-2.68399E-13
 -1      1815 1.96005E+01-1.19199E-02-5.67638E-04 1.29470E-01-9.37950E-14-3.24613E-13
 -1      1816 1.96432E+01-1.26365E-02 1.62832E-04 1.22492E-01-1.02949E-13-3.32897E-13
 -1      1817 1.96741E+01-1.66691E-02-3.45959E-04 1.61670E-01-1.34678E-13-3.36129E-13
 -1      1818 1.96662E+01-1.32591E-02-7.50052E-04 1.14061E-01-1.23472E-13-3.42583E-13
 -1      1819 1.97045E+01-1.31591E-02 5.73603E-06 1.06444E-01-9.52620E-14-3.84648E-13
 -1      1820 1.97212E+01-1.94139E-02-7.05953E-05 1.45861E-01-1.26636E-13-3.02200E-13
 -1      1821 1.97262E+01-1.31555E-02-8.03278E-04 9.74089E-02-8.94181E-14-4.35594E-13
 -1      1822 1.97595E+01-1.25498E-02-7.92205E-05 8.99420E-02-6.55181E-14-4.82733E-13
 -1      1823 1.97668E+01-1.97345E-02 9.09951E-05 1.26876E-01-1.16756E-13-3.57448E-13
 -1      1824 1.97791E+01-1.21427E-02-7.75894E-04 8.12150E-02-4.61985E-14-5.16982E-13
 -1      1825 1.98073E+01-1.12337E-02-1.11007E-04 7.43945E-02-6.22012E-14-5.33545E-13
 -1      1826 1.98088E+01-1.85199E-02 1.72540E-04 1.07386E-01-9.01331E-14-4.55745E-13
 -1      1827 1.98245E+01-1.05700E-02-6.99700E-04 6.65591E-02-7.55576E-14-5.67208E-13
 -1      1828 1.98480E+01-9.48248E-03-1.02053E-04 6.06939E-02-7.56963E-14-5.35846E-13
 -1      1829 1.98461E+01-1.63536E-02 1.98026E-04 8.91191E-02-1.14241E-13-4.49506E-13
 -1      1830 1.98630E+01-8.65218E-03-5.95384E-04 5.41230E-02-7.15255E-14-5.84616E-13
 -1      1831 1.98826E+01-7.45286E-03-5.96187E-05 4.94083E-02-4.64851E-14-5.74470E-13
 -1      1832 1.98786E+01-1.36014E-02 1.83974E-04 7.31858E-02-1.01861E-13-5.23950E-13
 -1      1833 1.98956E+01-6.50265E-03-4.75881E-04 4.43537E-02-2.36097E-14-5.91180E-13
 -1      1834 1.99121E+01-5.21304E-03 1.33169E-05 4.09291E-02 3.27787E-15-5.67252E-13
 -1      1835 1.99068E+01-1.04658E-02 1.41252E-04 6.03155E-02-4.70343E-14-5.34727E-13
 -1      1836 1.99239E+01-4.15493E-03-3.48581E-04 3.75904E-02-1.78334E-15-5.92885E-13
 -1      1837 1.99384E+01-2.75993E-03 1.17532E-04 3.55841E-02-2.01997E-14-5.76562E-13
 -1      1838 1.99318E+01-7.02284E-03 7.64292E-05 5.10367E-02-1.87950E-14-5.42259E-13
 -1      1839 1.99496E+01-1.57723E-03-2.16881E-04 3.41639E-02-6.88191E-14-5.43559E-13
 -1      1840 1.99635E+01-3.00284E-05 2.57330E-04 3.37313E-02-8.97911E-14-5.45854E-13
 -1      1841 1.99548E+01-3.24554E-03-7.20364E-06 4.58171E-02-2.72581E-14-4.75857E-13
 -1      1842 1.99750E+01 1.31933E-03-8.13181E-05 3.44819E-02-1.22015E-13-4.97768E-13
 -1      1843 1.99896E+01 3.09540E-03 4.40583E-04 3.58386E-02-3.86115E-14-4.89107E-13
 -1      1844 1.99775E+01 9.81447E-04-1.08855E-04 4.51786E-02-6.61939E-14-4.13024E-13
 -1      1845 2.00024E+01 4.67791E-03 5.95681E-05 3.91044E-02 3.75610E-14-5.08127E-13
 -1      1846 2.00194E+01 6.79065E-03 6.79049E-04 4.25591E-02 9.00239E-14-5.04401E-13
 -1      1847 2.00019E+01 5.85634E-03-2.29599E-04 4.97973E-02-3.40963E-14-3.96463E-13
 -1      1848 2.00348E+01 8.69867E-03 2.08524E-04 4.88185E-02 4.98614E-14-5.05246E-13
 -1      1849 2.00562E+01 1.12915E-02 9.88950E-04 5.48080E-02-3.93073E-14-5.53807E-13
 -1      1850 2.00303E+01 1.16628E-02-3.71808E-04 6.05980E-02 4.08958E-14-4.83659E-13
 -1      1851 2.00757E+01 1.36471E-02 3.68920E-04 6.47192E-02-1.05595E-13-5.16386E-13
 -1      1852 2.01040E+01 1.69068E-02 1.39176E-03 7.38488E-02-7.46894E-14-5.41162E-13
 -1      1853 2.00653E+01 1.87810E-02-5.38563E-04 7.88507E-02-4.24579E-14-5.89924E-13
 -1      1854 2.01293E+01 1.98683E-02 5.43986E-04 8.83020E-02-4.50237E-14-5.02927E-13
 -1      1855 2.01674E+01 2.40359E-02 1.91504E-03 1.01395E-01-4.30862E-15-4.87238E-13
 -1      1856 2.01104E+01 2.77074E-02-7.32935E-04 1.06277E-01-3.28123E-14-3.98856E-13
 -1      1857 2.02006E+01 2.78055E-02 7.35764E-04 1.21574E-01 1.27302E-14-4.61813E-13
 -1      1858 2.02524E+01 3.31886E-02 2.59276E-03 1.39732E-01 3.92668E-14-4.74367E-13
 -1      1859 2.01692E+01 3.90820E-02-9.57013E-04 1.45174E-01 3.27438E-14-4.17236E-13
 -1      1860 2.02960E+01 3.80198E-02 9.43435E-04 1.67184E-01 2.97165E-14-5.09218E-13
 -1      1861 2.03663E+01 4.50010E-02 3.46413E-03 1.91856E-01 1.41890E-14-5.71712E-13
 -1      1862 2.02466E+01 5.37177E-02-1.21054E-03 1.98552E-01 2.47917E-14-3.60797E-13
 -1      1863 2.04230E+01 5.11982E-02 1.16058E-03 2.28561E-01-5.27944E-14-5.58413E-13
 -1      1864 2.05178E+01 6.02279E-02 4.56828E-03 2.61609E-01-4.62451E-14-5.66245E-13
 -1      1865 2.03478E+01 7.26155E-02-1.48915E-03 2.70281E-01-6.92133E-15-4.52172E-13
 -1      1866 2.05910E+01 6.81219E-02 1.37072E-03 3.10026E-01 3.94632E-14-5.25567E-13
 -1      1867 2.07178E+01 7.96639E-02 5.93008E-03 3.53751E-01 1.64553E-13-4.66495E-13
 -1      1868 2.04793E+01 9.69276E-02-1.78255E-03 3.65206E-01 6.84518E-14-2.98692E-13
 -1      1869 2.08112E+01 8.95277E-02 1.54069E-03 4.16772E-01 1.41824E-13-5.07317E-13
 -1      1870 2.09790E+01 1.03896E-01 7.52843E-03 4.73825E-01 1.46374E-13-4.27709E-13
 -1      1871 2.06483E+01 1.27778E-01-2.07399E-03 4.89127E-01 1.46016E-13-3.84259E-13
 -1      1872 2.10964E+01 1.15727E-01 1.61240E-03 5.54506E-01 1.31347E-13-4.59126E-13
 -1      1873 2.13156E+01 1.32684E-01 9.23298E-03 6.27476E-01 6.15866E-14-4.67792E-13
 -1      1874 2.08628E+01 1.65757E-01-2.34495E-03 6.48437E-01 9.02824E-14-3.51757E-13
 -1      1875 2.14613E+01 1.45704E-01 1.49889E-03 7.28269E-01-3.73161E-14-4.58204E-13
 -1      1876 2.17427E+01 1.63591E-01 1.06929E-02 8.18605E-01-4.79452E-14-4.07538E-13
 -1      1877 2.11311E+01 2.09717E-01-2.59305E-03 8.48984E-01 9.28006E-14-3.88159E-13
 -1      1878 2.19208E+01 1.75216E-01 1.10337E-03 9.39580E-01-5.73378E-14-3.18990E-13
 -1      1879 2.22737E+01 1.89235E-01 1.11714E-02 1.04513E+00 5.85252E-15-1.81702E-13
 -1      1880 2.14617E+01 2.54210E-01-2.87747E-03 1.09334E+00 7.99708E-15-2.19486E-13
 -1      1881 2.24891E+01 1.93153E-01 4.08734E-04 1.18035E+00-1.10910E-14-2.59451E-13
 -1      1882 2.29161E+01 1.92398E-01 9.37280E-03 1.29048E+00 1.71777E-14-1.41792E-13
 -1      1883 2.18631E+01 2.84583E-01-3.40694E-03 1.37510E+00 1.07171E-14-1.66967E-13
 -1      1884 2.31767E+01 1.75506E-01-2.68161E-04 1.42135E+00-1.50997E-14-1.34200E-13
 -1      1885 2.36658E+01 1.38819E-01 3.40680E-03 1.50852E+00 9.12189E-14-1.47092E-13
 -1      1886 2.23454E+01 2.68774E-01-4.65616E-03 1.66826E+00 6.00193E-14-1.81493E-13
 -1      1887 2.39870E+01 7.77423E-02 1.54215E-04 1.59295E+00 1.73433E-13-1.26250E-13
 -1      1888 2.44986E+01-2.88453E-02-8.80449E-03 1.60125E+00 1.86609E-13-1.37660E-13
 -1      1889 2.29250E+01 1.46494E-01-7.43873E-03 1.90950E+00 1.07216E-13-1.84395E-13
 -1      1890 2.49088E+01-1.66838E-01 3.49573E-03 1.55960E+00 1.74766E-13-2.08928E-13
 -1      1891 2.53616E+01-3.79905E-01-2.77196E-02 1.39734E+00 1.13392E-13-1.14696E-13
 -1      1892 2.36339E+01-1.74428E-01-1.25281E-02 1.97329E+00 1.97160E-13-1.17274E-13
 -1      1893 2.58964E+01-6.16524E-01 1.11037E-02 1.10675E+00 1.95850E-14-7.94677E-14
 -1      1894 2.61582E+01-9.31434E-01-4.92279E-02 6.67337E-01-6.19921E-14-1.04652E-13
 -1      1895 2.45245E+01-7.83709E-01-1.91007E-02 1.65039E+00 1.99406E-14-9.65092E-14
 -1      1896 2.68160E+01-1.21692E+00 1.64521E-02-3.23632E-03 3.20056E-15-3.90001E-14
 -1      1897 2.67268E+01-1.48388E+00-6.00421E-02-7.52666E-01 5.70828E-14 3.92759E-14
 -1      1898 2.56388E+01-1.63755E+00-2.25952E-02 6.72078E-01 1.11751E-14-6.89339E-14
 -1      1899 2.73457E+01-1.59037E+00-2.24150E-03-1.78240E+00 6.70020E-14-1.09760E-13
 -1      1900 2.68064E+01-1.44857E+00-4.50233E-02-2.61755E+00 1.43939E-13-9.21017E-14
 -1      1901 2.68723E+01-2.28678E+00-1.86443E-02-1.12569E+00 3.93713E-14-2.23916E-13
 -1      1902 2.70171E+01-1.01050E+00-6.69931E-02-3.53455E+00 1.47741E-13-1.25403E-14
 -1      1903 2.61281E+01-1.79382E-01-2.63607E-02-3.86500E+00 7.68829E-15-8.23057E-14
 -1      1904 2.77748E+01-1.75892E+00-2.06819E-02-3.30736E+00 1.42816E-13-3.75953E-13
 -1      1905 2.57403E+01 8.39988E-01-1.34318E-01-3.75619E+00-7.75074E-14-4.27158E-14
 -1      1906 2.49211E+01 1.82968E+00-4.71448E-02-3.00247E+00 9.36196E-14-1.64803E-13
 -1      1907 2.77672E+01 5.18794E-01-6.79135E-02-4.37897E+00-6.44207E-14-3.94934E-13
 -1      1908 2.45259E+01 2.46085E+00-1.12135E-01-1.65155E+00 2.22072E-13-1.24668E-13
 -1      1909 2.42395E+01 2.55975E+00-1.10920E-01-3.14175E-01-1.00281E-13-6.19938E-14
 -1      1910 2.70846E+01 3.07712E+00-1.49943E-01-2.81039E+00 9.45910E-14-2.46358E-13
 -1      1911 2.43013E+01 2.08917E+00-5.51228E-02 1.26127E+00-2.54421E-13 7.62133E-14
 -1      1912 2.45918E+01 1.18117E+00-1.41719E-01 2.17382E+00-8.76799E-14 1.11900E-13
 -1      1913 2.67429E+01 3.36578E+00-1.56283E-01 5.23363E-01-5.37348E-14-1.46758E-14
 -1      1914 2.47779E+01 1.56959E-01-1.77699E-02 2.52992E+00 4.55191E-14 1.12202E-13
 -1      1915 2.52275E+01-7.42258E-01-8.05701E-02 2.36848E+00 1.29228E-13 1.47231E-13
 -1      1916 2.68996E+01 1.00374E+00-8.80228E-02 2.63913E+00 6.85563E-15 1.61801E-13
 -1      1917 2.48917E+01-1.28815E+00-3.43293E-02 1.60095E+00-1.97997E-14 1.98713E-13
 -1      1918 2.50736E+01-1.52649E+00-1.25234E-02 8.28122E-01-1.30332E-13 1.84894E-13
 -1      1919 2.65804E+01-1.45195E+00-2.99301E-02 1.98242E+00 8.40092E-14 2.98376E-13
 -1      1920 2.42853E+01-1.44825E+00-5.27885E-02-1.72318E-01-1.03060E-13 1.41782E-13
 -1      1921 2.40638E+01-1.17001E+00 2.07307E-02-8.88533E-01-1.56293E-13 1.07529E-13
 -1      1922 2.53615E+01-2.19846E+00-2.30720E-02-3.33751E-02-1.76970E-13 2.13421E-13
 -1      1923 2.32103E+01-8.24122E-01-4.48254E-02-1.49820E+00-2.84509E-13 1.96177E-13
 -1      1924 2.27218E+01-3.89481E-01 3.36766E-02-1.83434E+00-2.43106E-13 2.49460E-13
 -1      1925 2.37408E+01-1.48669E+00-1.98528E-02-1.74130E+00-2.78947E-13 1.45006E-13
 -1      1926 2.19678E+01-9.97042E-03-2.99070E-02-1.92935E+00-1.94103E-13 4.82479E-14
 -1      1927 2.13877E+01 4.08877E-01 2.69705E-02-1.83434E+00-2.66719E-13 5.51642E-15
 -1      1928 2.22477E+01-3.16754E-01-1.90844E-02-2.45402E+00-3.51471E-13 8.60991E-14
 -1      1929 2.07343E+01 7.62226E-01-1.14114E-02-1.33182E+00-2.18639E-13-8.95499E-14
 -1      1930 1.95158E+01 1.12470E-01 9.63317E-03 1.27077E-01 1.96401E-13 3.99960E-13
 -1      1931 1.96314E+01 1.58973E-01 1.71402E-02 2.20830E-01 2.20275E-13 4.76133E-13
 -1      1932 1.93859E+01 5.75390E-02 6.10481E-03-1.39934E-02 1.27210E-13 3.29105E-13
 -1      1933 1.94218E+01 8.24853E-02 1.19731E-02 3.26703E-02 1.69018E-13 3.77028E-13
 -1      1934 1.97175E+01 1.54182E-01-4.67675E-03 1.53915E-01 2.26914E-13 1.77599E-13
 -1      1935 1.93541E+01 2.73711E-02 3.66146E-03-8.81659E-02 1.20420E-13 2.13411E-13
 -1      1936 1.93428E+01 4.13834E-02 6.23778E-03-6.50907E-02 1.24386E-13 2.84573E-13
 -1      1937 1.95834E+01 7.71384E-02-4.07026E-03-1.68721E-02 1.80468E-13 1.14405E-13
 -1      1938 1.93799E+01 9.73648E-03 2.22131E-03-1.22891E-01 1.00609E-13 1.59370E-13
 -1      1939 1.93439E+01 1.78147E-02 2.96112E-03-1.13179E-01 1.06836E-13 2.01725E-13
 -1      1940 1.95349E+01 3.44139E-02-2.89118E-03-1.07360E-01 1.48292E-13 7.21758E-14
 -1      1941 1.94362E+01-6.42551E-04 1.34514E-03-1.34211E-01 1.12924E-13 1.33928E-13
 -1      1942 1.93892E+01 3.96795E-03 1.18424E-03-1.32362E-01 1.00951E-13 1.46142E-13
 -1      1943 1.95376E+01 9.80192E-03-1.86649E-03-1.50158E-01 1.27691E-13 7.64970E-15
 -1      1944 1.95062E+01-6.54464E-03 7.82092E-04-1.31730E-01 7.51844E-14 9.85928E-14
 -1      1945 1.94562E+01-4.07422E-03 2.02613E-04-1.34446E-01 9.64547E-14 1.21417E-13
 -1      1946 1.95697E+01-4.41125E-03-1.09026E-03-1.64304E-01 1.11569E-13-6.65115E-15
 -1      1947 1.95793E+01-9.57505E-03 4.12051E-04-1.21484E-01 7.97439E-14 1.77267E-14
 -1      1948 1.95310E+01-8.46284E-03-3.38761E-04-1.26674E-01 9.21515E-14 9.18259E-14
 -1      1949 1.96166E+01-1.22500E-02-5.50485E-04-1.61436E-01 9.05136E-14-1.40238E-14
 -1      1950 1.96494E+01-1.07400E-02 1.72755E-04-1.07376E-01 1.22740E-13-5.19214E-15
 -1      1951 1.96053E+01-1.04934E-02-6.18760E-04-1.13684E-01 1.13685E-13 2.29316E-14
 -1      1952 1.96690E+01-1.60327E-02-1.96952E-04-1.48972E-01 1.10929E-13-6.61585E-14
 -1      1953 1.97131E+01-1.07006E-02 2.64175E-05-9.19467E-02 5.98735E-14-2.42677E-14
 -1      1954 1.96744E+01-1.09975E-02-7.36268E-04-9.84901E-02 1.08297E-13 1.08098E-14
 -1      1955 1.97212E+01-1.72059E-02 2.06747E-05-1.31747E-01 1.11282E-13-3.54307E-14
 -1      1956 1.97689E+01-9.89806E-03-5.22251E-05-7.68352E-02-3.02758E-14-7.29418E-14
 -1      1957 1.97359E+01-1.05265E-02-7.51534E-04-8.30496E-02 6.59122E-15-4.32301E-14
 -1      1958 1.97699E+01-1.67134E-02 1.42035E-04-1.12926E-01 5.54692E-14-6.76507E-14
 -1      1959 1.98167E+01-8.62206E-03-8.04353E-05-6.30841E-02 6.68763E-15-3.75989E-14
 -1      1960 1.97891E+01-9.44598E-03-7.03412E-04-6.86138E-02-1.62879E-14-5.57771E-14
 -1      1961 1.98135E+01-1.51789E-02 1.96025E-04-9.45637E-02-9.05447E-15-8.91740E-14
 -1      1962 1.98570E+01-7.05346E-03-6.96679E-05-5.13476E-02 1.13609E-13-2.44754E-14
 -1      1963 1.98341E+01-7.99154E-03-6.17382E-04-5.59704E-02 1.09541E-13-2.67329E-14
 -1      1964 1.98515E+01-1.30061E-02 2.02996E-04-7.79786E-02 4.46726E-14-9.31932E-14
 -1      1965 1.98910E+01-5.29246E-03-2.69760E-05-4.20437E-02 6.50721E-14-9.12705E-14
 -1      1966 1.98720E+01-6.30361E-03-5.09929E-04-4.56151E-02 1.15779E-13-6.09825E-14
 -1      1967 1.98843E+01-1.04406E-02 1.76879E-04-6.40140E-02 1.24143E-13-1.19920E-13
 -1      1968 1.99203E+01-3.37949E-03 4.39015E-05-3.54658E-02 6.98734E-14-1.47930E-13
 -1      1969 1.99042E+01-4.45219E-03-3.91297E-04-3.78781E-02 6.31389E-14-1.30724E-13
 -1      1970 1.99127E+01-7.61162E-03 1.26815E-04-5.32265E-02 8.17182E-14-7.62638E-14
 -1      1971 1.99469E+01-1.31204E-03 1.41588E-04-3.18652E-02 8.04668E-14-2.08954E-13
 -1      1972 1.99323E+01-2.45570E-03-2.67419E-04-3.30170E-02 1.24665E-13-1.61758E-13
 -1      1973 1.99379E+01-4.56281E-03 5.84283E-05-4.60258E-02 1.06439E-13-1.55619E-13
 -1      1974 1.99727E+01 9.40274E-04 2.66105E-04-3.15063E-02-3.30507E-14-2.32380E-13
 -1      1975 1.99585E+01-2.96794E-04-1.41381E-04-3.12825E-02 3.42734E-14-1.69775E-13
 -1      1976 1.99615E+01-1.27774E-03-2.51489E-05-4.27736E-02 5.92688E-14-2.41469E-13
 -1      1977 2.00002E+01 3.42018E-03 4.17747E-04-3.46995E-02-1.09176E-13-2.44098E-13
 -1      1978 1.99849E+01 2.06252E-03-1.46373E-05-3.29604E-02-1.25797E-13-2.35992E-13
 -1      1979 1.99852E+01 2.29658E-03-1.22389E-04-4.38501E-02-5.93384E-14-2.56810E-13
 -1      1980 2.00321E+01 6.16456E-03 5.95623E-04-4.18076E-02-3.51712E-15-1.73615E-13
 -1      1981 2.00141E+01 4.66433E-03 1.11906E-04-3.83895E-02-6.81687E-15-1.91502E-13
 -1      1982 2.00111E+01 6.22474E-03-2.32541E-04-4.96874E-02-1.09119E-13-1.99168E-13
 -1      1983 2.00712E+01 9.18065E-03 7.95680E-04-5.32211E-02 1.00286E-13-1.68179E-13
 -1      1984 2.00487E+01 7.53440E-03 2.36833E-04-4.79504E-02 5.78854E-14-1.54068E-13
 -1      1985 2.00413E+01 1.05525E-02-3.54784E-04-6.07665E-02 6.31031E-14-1.38138E-13
 -1      1986 2.01206E+01 1.24134E-02 1.00802E-03-6.92914E-02 2.97599E-14-1.05734E-13
 -1      1987 2.00918E+01 1.06546E-02 3.57127E-04-6.20177E-02 7.37933E-14-1.21152E-13
 -1      1988 2.00783E+01 1.52669E-02-4.87278E-04-7.75705E-02 5.03953E-14-8.37346E-14
 -1      1989 2.01834E+01 1.57005E-02 1.21336E-03-9.02077E-02-1.23884E-13-1.37360E-13
 -1      1990 2.01465E+01 1.39252E-02 4.67001E-04-8.08639E-02 7.34888E-15-7.56130E-14
 -1      1991 2.01247E+01 2.02408E-02-6.26095E-04-1.00478E-01-3.05924E-15 2.18227E-15
 -1      1992 2.02629E+01 1.87119E-02 1.37863E-03-1.15799E-01-1.98782E-14-2.12504E-13
 -1      1993 2.02161E+01 1.71128E-02 5.56704E-04-1.04495E-01-1.57810E-13-2.05977E-13
 -1      1994 2.01831E+01 2.51573E-02-7.63942E-04-1.29579E-01-7.36224E-14-8.78520E-14
 -1      1995 2.03616E+01 2.08729E-02 1.45206E-03-1.45235E-01 1.76031E-13-1.42827E-13
 -1      1996 2.03034E+01 1.97824E-02 6.11463E-04-1.32400E-01 1.20640E-13-1.49843E-13
 -1      1997 2.02562E+01 2.94101E-02-8.88709E-04-1.64387E-01 3.77752E-14-2.54499E-13
 -1      1998 2.04811E+01 2.12756E-02 1.35887E-03-1.76615E-01 5.26142E-14-2.11308E-13
 -1      1999 2.04109E+01 2.12147E-02 6.10880E-04-1.63190E-01 1.29367E-13-1.68287E-13
 -1      2000 2.03461E+01 3.19803E-02-9.81817E-04-2.03422E-01 1.54599E-13-1.83552E-13
 -1      2001 2.06209E+01 1.85978E-02 9.99887E-04-2.06431E-01-8.75362E-14-2.03103E-13
 -1      2002 2.05396E+01 2.03177E-02 5.29377E-04-1.94117E-01-1.70015E-14-1.56123E-13
 -1      2003 2.04541E+01 3.13029E-02-1.01639E-03-2.43652E-01-1.01961E-14-1.56235E-13
 -1      2004 2.07775E+01 1.10713E-02 2.57432E-04-2.28956E-01-1.22272E-13-1.52162E-13
 -1      2005 2.06880E+01 1.55626E-02 3.38472E-04-2.20487E-01-6.47768E-14-1.58821E-13
 -1      2006 2.05801E+01 2.51613E-02-9.55294E-04-2.79801E-01-8.01176E-14-1.50801E-13
 -1      2007 2.09428E+01-3.41432E-03-9.84637E-04-2.35678E-01-3.90884E-14-4.38733E-14
 -1      2008 2.08512E+01 5.00267E-03 1.16385E-05-2.35062E-01-7.70253E-14-1.05494E-13
 -1      2009 2.07216E+01 1.06938E-02-7.48982E-04-3.03600E-01-1.26532E-13-5.35826E-14
 -1      2010 2.11022E+01-2.69279E-02-2.79831E-03-2.15072E-01-8.02717E-14-4.16117E-16
 -1      2011 2.10189E+01-1.35119E-02-4.68083E-04-2.27630E-01-2.48078E-14-4.48685E-14
 -1      2012 2.08725E+01-1.53313E-02-3.33673E-04-3.03208E-01-2.29681E-14-8.70108E-14
 -1      2013 2.12338E+01-6.06346E-02-5.13899E-03-1.53225E-01-9.41727E-14-4.39878E-14
 -1      2014 2.11742E+01-4.17515E-02-1.09936E-03-1.85183E-01-1.10263E-13-2.43169E-14
 -1      2015 2.10221E+01-5.57264E-02 3.68119E-04-2.63194E-01-1.06328E-13 1.98186E-14
 -1      2016 2.13077E+01-1.03270E-01-7.74622E-03-3.61131E-02-1.01029E-13-6.12935E-14
 -1      2017 2.12918E+01-7.99474E-02-1.85430E-03-9.33564E-02-7.16077E-14-4.54571E-14
 -1      2018 2.11537E+01-1.11279E-01 1.43956E-03-1.65837E-01-1.16489E-13 3.06466E-14
 -1      2019 2.12873E+01-1.49000E-01-1.00498E-02 1.45552E-01 4.64377E-14-7.97924E-15
 -1      2020 2.13381E+01-1.24941E-01-2.67636E-03 5.99554E-02 3.44056E-14-1.08024E-14
 -1      2021 2.12438E+01-1.78129E-01 2.94260E-03 5.25017E-03-3.82637E-14 4.77309E-15
 -1      2022 2.11348E+01-1.85380E-01-1.11617E-02 3.88437E-01 8.74327E-14 3.58151E-14
 -1      2023 2.12733E+01-1.67935E-01-3.48015E-03 2.78012E-01-1.53380E-14-1.79148E-14
 -1      2024 2.12619E+01-2.44493E-01 4.84116E-03 2.58114E-01 4.91465E-14 8.30089E-14
 -1      2025 2.08207E+01-1.93372E-01-1.00789E-02 6.66884E-01 2.09724E-13 1.65228E-14
 -1      2026 2.10589E+01-1.93090E-01-4.12853E-03 5.45925E-01 2.73891E-13 1.22955E-13
 -1      2027 2.11735E+01-2.88352E-01 6.84906E-03 5.81831E-01 1.77620E-13 2.50635E-13
 -1      2028 2.03384E+01-1.52369E-01-6.20350E-03 9.26092E-01 4.89565E-14-1.82129E-14
 -1      2029 2.06698E+01-1.79542E-01-4.34850E-03 8.21667E-01 1.33084E-13-1.34866E-14
 -1      2030 2.09475E+01-2.79637E-01 8.24140E-03 9.34643E-01 1.75812E-13 3.16162E-13
 -1      2031 1.97211E+01-5.20221E-02-6.96836E-05 1.08670E+00-5.59964E-14-2.76177E-14
 -1      2032 2.01132E+01-1.09744E-01-3.66382E-03 1.03451E+00-5.65392E-14-4.60413E-14
 -1      2033 2.05703E+01-1.90948E-01 7.82290E-03 1.23796E+00-7.09372E-15 1.14037E-13
 -1      2034 1.90516E+01 9.31244E-02 6.37990E-03 1.06901E+00 9.00584E-14 3.86392E-14
 -1      2035 1.94463E+01 1.62023E-02-1.46507E-03 1.10040E+00 2.37835E-14-8.15537E-14
 -1      2036 2.00663E+01-1.72115E-02 4.36262E-03 1.38776E+00 3.35529E-14 2.29829E-14
 -1      2037 1.84542E+01 2.38456E-01 1.05780E-02 8.34291E-01-3.44646E-14-1.01195E-14
 -1      2038 1.87798E+01 1.68539E-01 2.66090E-03 9.57874E-01 1.15229E-13-6.52516E-15
 -1      2039 1.95120E+01 2.06047E-01-2.05984E-03 1.29208E+00 1.03845E-13 2.25345E-13
 -1      2040 1.80582E+01 3.25686E-01 1.09691E-02 4.20588E-01-3.00091E-13-4.86034E-14
 -1      2041 1.82519E+01 2.92241E-01 7.92934E-03 6.10151E-01-2.19587E-13-9.20956E-14
 -1      2042 1.90279E+01 4.05136E-01-8.91770E-03 9.25579E-01-5.99945E-14 2.23862E-13
 -1      2043 1.79449E+01 3.17382E-01 8.32456E-03-5.82508E-02-7.92422E-15-2.27973E-13
 -1      2044 1.79760E+01 3.34379E-01 1.24411E-02 1.43000E-01-1.59437E-13-1.77653E-13
 -1      2045 1.87344E+01 4.99649E-01-1.25689E-02 3.66314E-01-1.82789E-13-1.24835E-15
 -1      2046 1.81081E+01 2.24622E-01 4.90452E-03-4.64170E-01 2.85013E-13-4.12009E-13
 -1      2047 1.79880E+01 2.79777E-01 1.35153E-02-3.07094E-01 8.85750E-14-2.55213E-13
 -1      2048 1.86908E+01 4.54044E-01-1.02727E-02-2.23386E-01 1.15272E-14-3.72982E-13
 -1      2049 1.84601E+01 9.82000E-02 2.43958E-03-7.04917E-01 2.70926E-13-1.30920E-14
 -1      2050 1.82349E+01 1.62657E-01 1.01280E-02-6.21987E-01 2.66566E-13-1.42086E-13
 -1      2051 1.88608E+01 2.99147E-01-4.50727E-03-6.77163E-01 7.49067E-14-2.17878E-13
 -1      2052 1.88817E+01-7.65506E-03 1.50678E-03-7.69103E-01-1.25174E-13 2.10375E-13
 -1      2053 1.86103E+01 4.05379E-02 3.83682E-03-7.56317E-01 2.10505E-13 1.42676E-13
 -1      2054 1.91410E+01 1.13150E-01 1.27260E-03-9.07437E-01 1.45920E-13 2.39857E-13
 -1      2055 1.92755E+01-7.04954E-02 1.20673E-03-7.06643E-01 4.37257E-14 6.89102E-14
 -1      2056 1.90084E+01-4.48147E-02-2.49469E-03-7.40661E-01-1.33085E-13 4.37428E-14
 -1      2057 1.94222E+01-3.34996E-02 4.37057E-03-9.29206E-01 3.42189E-14 3.51681E-13
 -1      2058 1.95922E+01-1.12332E-01 1.37811E-03-5.73399E-01 2.79441E-13 9.88406E-14
 -1      2059 1.93661E+01-9.22587E-02-4.94524E-03-6.36661E-01 1.75235E-13 8.44190E-14
 -1      2060 1.96434E+01-1.20736E-01 5.75912E-03-8.22234E-01 1.14507E-13 2.62569E-13
 -1      2061 1.97999E+01-1.58241E-01-2.69200E-04-3.95405E-01-9.92635E-14 5.80083E-14
 -1      2062 1.96304E+01-1.23398E-01-3.21268E-03-4.86860E-01 2.24169E-13 1.13906E-13
 -1      2063 1.97687E+01-1.88204E-01-1.97738E-03-6.63021E-01 6.24826E-14 3.68630E-13
 -1      2064 1.98595E+01-2.44450E-01-1.72266E-03-4.64987E-01-1.17125E-13 5.31058E-13
 -1      2065 2.05276E+01-5.56384E-01 3.07379E-02 1.98409E-01 2.32446E-13 1.04392E-13
 -1      2066 2.03952E+01-6.43574E-01 2.30831E-03-6.48595E-02 4.49666E-14 3.36489E-13
 -1      2067 2.02817E+01-5.73557E-01 2.33963E-02-2.99881E-01 2.33522E-13 4.49209E-13
 -1      2068 2.01365E+01-5.18829E-01-4.95379E-03-4.29972E-01 1.44705E-13 1.78457E-13
 -1      2069 2.05089E+01-5.60546E-01-3.45443E-03-2.10617E-01 1.02856E-13 2.94963E-13
 -1      2070 1.99664E+01-3.65280E-01 1.01733E-02-4.82396E-01 2.29478E-14 3.96739E-13
 -1      2071 2.07426E+01-2.36683E-01 3.54411E-02 9.90968E-01 2.79824E-13 1.59778E-13
 -1      2072 2.06364E+01-5.47065E-01 6.34563E-03 6.01182E-01 2.82888E-13 2.98523E-13
 -1      2073 2.08742E+01-6.01760E-01-7.38275E-03 4.85413E-01 1.35993E-13 2.77197E-13
 -1      2074 2.08114E+01 4.99682E-01 2.90144E-02 1.98105E+00 3.49426E-13 2.28765E-13
 -1      2075 2.07990E+01-8.50542E-02 1.07630E-02 1.53003E+00 1.63771E-13 1.21328E-13
 -1      2076 2.11397E+01-4.26684E-01-1.47710E-02 1.52129E+00 1.30766E-13 1.56756E-13
 -1      2077 2.05859E+01 1.67889E+00 5.92529E-03 2.88941E+00 5.06097E-13-1.95524E-13
 -1      2078 2.07461E+01 8.61208E-01 1.61882E-02 2.52642E+00 4.36345E-13 1.95030E-13
 -1      2079 2.11297E+01 9.49780E-02-2.13431E-02 2.72694E+00 3.31635E-13 2.79311E-13
 -1      2080 1.99650E+01 3.25365E+00-2.76881E-02 3.31180E+00 3.88217E-13-4.77836E-13
 -1      2081 2.03337E+01 2.31032E+00 2.16118E-02 3.23172E+00 4.80616E-13-4.18580E-13
 -1      2082 2.06374E+01 1.07527E+00-2.09701E-02 3.74254E+00 3.65862E-13-4.11155E-13
 -1      2083 1.90993E+01 4.87877E+00-5.15044E-02 2.77571E+00 1.57187E-13-2.54321E-13
 -1      2084 1.95532E+01 4.06000E+00 1.87828E-02 3.15825E+00 2.25174E-13-4.12354E-13
 -1      2085 1.96096E+01 2.49360E+00 2.70355E-04 4.00085E+00 1.33652E-13-5.51820E-13
 -1      2086 1.84535E+01 5.97747E+00-4.64314E-02 1.23176E+00-6.87735E-14-2.11813E-13
 -1      2087 1.87258E+01 5.54554E+00-2.20410E-03 2.01353E+00 8.81968E-14-2.99059E-13
 -1      2088 1.84102E+01 3.96049E+00 4.19620E-02 2.99731E+00 1.06454E-13-3.07702E-13
 -1      2089 1.84436E+01 6.08506E+00-1.75726E-02-8.28645E-01-5.75113E-14 4.28081E-13
 -1      2090 1.83529E+01 6.17365E+00-3.32048E-02 7.40564E-02-1.46160E-13 3.38538E-13
 -1      2091 1.77007E+01 4.82916E+00 7.48190E-02 8.22643E-01-7.52393E-15-1.69829E-14
 -1      2092 1.90884E+01 5.12056E+00 1.04278E-02-2.48113E+00 1.42029E-13 4.02525E-13
 -1      2093 1.86976E+01 5.69210E+00-5.30082E-02-1.85707E+00-2.25072E-14 3.16993E-13
 -1      2094 1.79324E+01 4.62746E+00 6.29665E-02-1.67501E+00-9.46136E-14 4.39156E-13
 -1      2095 1.99346E+01 3.57664E+00 2.15933E-02-3.13078E+00 7.55923E-14-5.68373E-14
 -1      2096 1.95033E+01 4.41589E+00-4.15454E-02-2.96673E+00 1.77504E-13-6.25888E-15
 -1      2097 1.89463E+01 3.52732E+00 2.03960E-02-3.36472E+00 3.37694E-14 2.29561E-13
 -1      2098 2.05415E+01 2.07191E+00 2.25292E-02-2.81833E+00-1.28701E-13-1.22801E-13
 -1      2099 2.02646E+01 2.92794E+00-9.89383E-03-3.02213E+00-4.66571E-14 8.89469E-14
 -1      2100 2.01445E+01 2.18521E+00-4.49717E-03-3.74747E+00-1.79643E-13-9.36022E-14
 -1      2101 1.97273E+01 1.78619E-01 1.26193E-02 3.26665E-01 2.66872E-13 5.40448E-13
 -1      2102 1.99820E+01 2.56126E-01 1.69771E-02 5.04790E-01 3.05400E-13 6.76945E-13
 -1      2103 2.01792E+01 4.15290E-01-3.92954E-04 7.31784E-01 3.59587E-13 4.44702E-13
 -1      2104 1.99092E+01 2.63803E-01-3.77538E-03 4.02693E-01 3.00438E-13 2.81734E-13
 -1      2105 1.20302E+01-6.42653E+00-1.24964E-01 7.62762E+00-2.10942E-14-2.01832E-13
 -1      2106 8.58619E+00-7.63687E+00-2.33322E-01 6.83627E+00-3.78586E-14-2.64705E-13
 -1      2107 2.91687E+01-1.71261E+00 2.81964E-02 6.35231E+00-3.52884E-13-7.88258E-14
 -1      2108 2.40937E+01-3.35261E+00-1.28644E-01 6.73397E+00-2.71672E-13-5.89528E-14
 -1      2109 2.55215E-01-9.31081E+00-5.42415E-01 1.22461E+00-3.68872E-14 2.19103E-13
 -1      2110 2.08739E-01-9.00662E+00-5.01117E-01-6.47831E-01-2.69479E-13-1.14742E-13
 -1      2111 2.02709E+01-4.03713E+00 1.56878E-02 7.97360E+00-1.91736E-13-2.25597E-13
 -1      2112 1.54680E+01-6.24306E+00-3.10581E-01 7.20387E+00-1.08913E-13-1.43940E-13
 -1      2113 1.66510E+01-6.80824E+00-1.07946E-01 8.28806E+00 2.95874E-14-2.64497E-13
 -1      2114 2.45626E+01-5.40931E+00 9.48091E-02 6.85113E+00-2.21934E-13-2.18936E-13
 -1      2115 1.95186E+01 4.01570E+00-2.70320E-02-1.70214E+00-2.95701E-13-6.95555E-13
 -1      2116 1.96469E+01 3.94603E+00-2.46168E-02-1.95366E+00-3.57336E-13-6.33257E-13
 -1      2117 1.99723E+01 3.24697E+00-1.37569E-02-1.91791E+00-3.92737E-13-5.57641E-13
 -1      2118 1.96974E+01 3.58555E+00-7.07521E-03-1.52003E+00-2.97204E-13-6.77878E-13
 -1      2119 3.68855E+01 2.99705E+00 2.80827E-01 3.90846E+00-1.53419E-13-2.79332E-13
 -1      2120 3.26211E+01 8.22132E-01-2.30445E-02 3.82782E+00-2.36672E-13-1.47660E-13
 -1      2121 4.00974E+01 5.96882E+00 2.43685E-01 2.04054E+00 9.32587E-14-6.83398E-13
 -1      2122 3.76200E+01 4.64041E+00 7.08804E-02 3.01972E+00-6.38378E-15-4.83058E-13
 -1      2123 3.49155E+01 3.16742E+00 1.50449E-01 4.29482E-01 8.80684E-14-4.76508E-13
 -1      2124 4.25553E+01 7.91180E+00 3.00282E-01 5.79139E-01 4.67515E-13-1.05941E-12
 -1      2125 4.18096E+01 7.47665E+00 2.72227E-01 1.90793E+00 2.21712E-13-9.39082E-13
 -1      2126 4.16731E+01 7.12435E+00 2.85519E-01-1.26472E+00 5.15032E-13-1.20937E-12
 -1      2127 4.21032E+01 7.79343E+00 2.62620E-01 1.29637E-01 5.17086E-13-1.16765E-12
 -1      2128 3.75247E+01 4.84647E+00 9.68953E-02-2.60089E+00 5.54612E-13-1.08835E-12
 -1      2129 4.11300E+01 6.00901E+00 3.72736E-01-1.98431E+00 4.33542E-13-1.16473E-12
 -1      2130 3.72959E+01 7.28252E+00 3.01942E-01 4.54006E-01 4.09839E-13-8.98309E-13
 -1      2131 3.15492E+01 1.05689E+00-8.17242E-03-4.80556E+00 5.94247E-13-1.06137E-12
 -1      2132 3.57342E+01 2.67632E+00 2.26861E-01-4.12973E+00 6.38468E-13-9.76774E-13
 -1      2133 2.37626E+01-2.43997E+00-1.69494E-01-6.22140E+00 3.19689E-13-1.30096E-12
 -1      2134 2.87238E+01-4.71090E-01 1.60058E-01-6.34051E+00 5.47062E-13-1.36502E-12
 -1      2135 1.50326E+01-5.50603E+00-3.01625E-01-6.70612E+00 1.40554E-13-8.92786E-13
 -1      2136 1.99411E+01-3.53926E+00 1.77493E-02-7.44411E+00 2.67231E-13-1.14153E-12
 -1      2137 7.14923E+00-7.48176E+00-4.06688E-01-5.83134E+00-9.03722E-14-6.20642E-13
 -1      2138 1.07776E+01-5.65386E+00-1.69654E-01-6.90037E+00 1.49769E-13-7.43246E-13
 -1      2139 1.67813E+00-8.60940E+00-4.58627E-01-3.59624E+00-4.99045E-14-5.95413E-13
 -1      2140 3.90583E+00-7.19536E+00-2.56291E-01-5.05825E+00 8.50431E-14-6.66911E-13
 -1      2141-3.01565E-01-8.73529E+00-4.22343E-01-7.61394E-01-1.41279E-13-2.62623E-13
 -1      2142 2.12430E-01-8.66030E+00-4.08177E-01-2.18286E+00-9.17877E-14-5.74929E-13
 -1      2143 2.24532E+00-6.02034E+00-2.07538E-01-3.72238E+00 9.50073E-14-6.26499E-13
 -1      2144 2.21484E+00-8.15480E+00-3.26987E-01 2.83332E+00-4.23772E-13-2.74780E-13
 -1      2145 5.57952E-01-8.72547E+00-4.26251E-01 1.30900E+00-3.26822E-13-2.36033E-13
 -1      2146 8.47468E+00-7.32858E+00-2.38436E-01 5.21023E+00-5.69322E-13-5.44426E-13
 -1      2147 4.96685E+00-8.67779E+00-4.56511E-01 3.92802E+00-4.98046E-13-4.17361E-13
 -1      2148 1.76605E+01-5.73815E+00-9.72388E-02 5.92718E+00-4.80949E-13-3.43725E-13
 -1      2149 1.29986E+01-7.48406E+00-3.82415E-01 5.20500E+00-5.12812E-13-5.23373E-13
 -1      2150 2.70573E+01-3.76427E+00-1.26924E-02 4.61816E+00-5.74096E-13-4.39648E-14
 -1      2151 2.14090E+01-5.36492E+00-2.94134E-01 4.76531E+00-6.08513E-13-1.63924E-13
 -1      2152 2.23049E+01-6.79117E+00 1.32659E-02 4.89022E+00-5.47229E-13-2.04614E-13
 -1      2153 3.59488E+01 3.81918E-01 2.82282E-01 1.94137E+00-2.65898E-13-3.08198E-13
 -1      2154 3.10870E+01-1.88216E+00-8.65415E-02 2.14409E+00-2.88963E-13-2.84883E-13
 -1      2155 4.20223E+01 4.58429E+00 5.02469E-01 6.73037E-01-3.10529E-13-4.17555E-13
 -1      2156 3.78877E+01 2.87784E+00 1.15822E-01 1.23338E+00-3.31055E-13-4.14113E-13
 -1      2157 4.36408E+01 7.18666E+00 4.71552E-01-1.21538E+00 1.68865E-13-6.54143E-13
 -1      2158 4.31682E+01 6.24931E+00 5.17046E-01-6.75257E-02-7.94365E-14-5.68101E-13
 -1      2159 3.87239E+01 5.72160E+00 4.01117E-01-1.96416E+00-7.20535E-14-4.94160E-13
 -1      2160 4.38534E+01 7.16828E+00 5.94013E-01-2.02428E+00 1.92069E-14-4.60521E-13
 -1      2161 4.34878E+01 7.52673E+00 4.34786E-01-1.06471E+00 1.04805E-13-5.58342E-13
 -1      2162 3.97076E+01 4.67967E+00 2.63027E-01-3.27434E+00-3.54716E-14-5.01488E-13
 -1      2163 4.32468E+01 5.91698E+00 5.53965E-01-2.74391E+00 7.48290E-14-5.71820E-13
 -1      2164 3.33002E+01 1.21567E-01 4.88177E-02-4.43217E+00-1.11633E-13-3.88023E-13
 -1      2165 3.75348E+01 1.99387E+00 3.17803E-01-3.83272E+00-6.07847E-14-5.98854E-13
 -1      2166 2.46754E+01-3.35508E+00-1.95301E-01-6.35399E+00-6.30052E-14-4.11671E-13
 -1      2167 3.02328E+01-1.02693E+00 1.84102E-01-6.68032E+00-1.03195E-13-4.67182E-13
 -1      2168 1.52090E+01-6.95195E+00-3.94459E-01-6.80473E+00 2.32037E-14 1.79357E-13
 -1      2169 2.05060E+01-4.69694E+00-6.87269E-03-7.70310E+00-6.32827E-15-3.09752E-14
 -1      2170 7.64130E+00-8.49702E+00-4.32234E-01-5.97295E+00-6.99441E-15 1.78080E-13
 -1      2171 1.14175E+01-6.94842E+00-1.96921E-01-7.14654E+00 3.68594E-14 2.34861E-13
 -1      2172 1.71976E+00-9.03265E+00-5.05949E-01-2.92566E+00-3.10446E-13-2.38198E-13
 -1      2173 3.92399E+00-8.10229E+00-3.58449E-01-4.72672E+00-2.10942E-13-2.15938E-13
 -1      2174 3.88871E+00-7.72193E+00-3.50065E-01 5.07682E+00-1.42997E-13 9.90874E-14
 -1      2175 1.45735E+00-9.43207E+00-6.00338E-01 3.02465E+00-1.97342E-13 4.18443E-13
 -1      2176 2.09468E+01 8.53698E-01-1.89143E-03-2.01962E+00-2.59822E-13-9.41486E-14
 -1      2177 2.07375E+01 1.10844E+00-2.07492E-02-1.61541E+00-4.49914E-13 1.15937E-13
 -1      2178 3.54258E+01 3.19078E+00 2.10738E-01-9.84782E-01 4.42812E-13-7.47902E-13
 -1      2179 3.16033E+01-1.80124E+00 1.09101E-01 3.49187E+00-3.88148E-13-1.14020E-13
 -1      2180 2.06278E+01 1.33016E+00-1.86231E-02-1.67722E+00-4.78558E-13-1.16960E-13
 -1      2181 2.00809E+01-3.55838E-01 1.43679E-03-5.52441E-01 8.25325E-14 4.37044E-13
 -1      2182 2.33672E+00-6.08914E+00-2.31123E-01 2.72237E+00 2.57017E-14 2.65621E-13
 -1      2183 2.08703E+01 1.33918E+00-1.27401E-03-2.37601E+00-2.60485E-13-7.63278E-17
 -1      2184 1.16535E+01-5.67751E+00-7.54222E-02 7.99011E+00-6.73905E-14-1.03195E-13
 -1      2185 7.80544E+00-6.61446E+00-1.11838E-01 6.64342E+00-1.01641E-13-2.12330E-13
 -1      2186 7.60784E+00-4.73409E+00 1.42517E-01 6.50800E+00-1.81161E-13-8.59868E-14
 -1      2187 2.50445E+00-6.16712E+00-2.37951E-01-2.33963E+00-1.90264E-13 8.44880E-14
 -1      2188 8.09095E+00-6.73952E+00-1.54839E-01-6.55669E+00-1.91180E-13 2.58127E-14
 -1      2189 1.62097E+01-7.25078E+00-1.07991E-01-7.72499E+00-4.21885E-14 1.48014E-13
 -1      2190 2.48494E+01-5.67283E+00 5.47278E-03-6.44216E+00 3.79696E-14-5.23692E-13
 -1      2191 3.24260E+01-2.24312E+00 1.78567E-01-3.35622E+00 1.30174E-14-5.33795E-13
 -1      2192 3.68424E+01 2.35568E+00 2.69997E-01-6.24699E-01 1.74305E-14-5.68989E-13
 -1      2193 4.04599E+01 7.46939E+00 3.09215E-01-1.24556E+00 1.32061E-13-6.34957E-13
 -1      2194 3.61042E+01 7.15362E+00-1.24747E-02-1.62475E+00 1.44829E-13-4.88387E-13
 -1      2195 3.59683E+01 7.54012E+00-1.85835E-02-1.01799E+00 5.39568E-14-6.04832E-13
 -1      2196 3.01886E+01-4.22619E+00 6.03252E-02 1.69190E+00-4.35180E-13-2.34479E-13
 -1      2197 1.34103E+01-7.30568E+00-1.04345E-01 6.02612E+00-4.90163E-13-4.41147E-13
 -1      2198 1.31693E+00-6.08568E+00-1.99737E-01 5.45206E-01-5.37834E-14-3.56937E-13
 -1      2199 7.37738E+00-6.36304E+00-1.54817E-01-6.52285E+00-5.66214E-15-6.34520E-13
 -1      2200 1.55581E+01-6.11578E+00-3.32006E-02-7.53533E+00-1.16074E-13-8.89910E-13
 -1      2201 2.39440E+01-4.75377E+00 1.56412E-02-6.08018E+00 1.14353E-14-1.16573E-12
 -1      2202 3.70627E+01 7.10633E+00 2.41305E-01 5.00005E-02 3.34399E-13-5.95052E-13
 -1      2203 3.83043E+01 8.75608E+00 3.03656E-01 4.51000E-01 5.00155E-13-9.76774E-13
 -1      2204 3.08356E+01-1.28731E+00 1.55143E-01-3.54546E+00 4.41036E-13-8.72025E-13
 -1      2205 5.43528E+00-6.67305E+00-1.72266E-01 4.43011E+00-2.83218E-13-4.14890E-13
 -1      2206 3.55652E+01 8.21227E-01 1.76870E-01-1.48253E+00-2.86854E-13-3.37619E-13
 -1      2207 3.92933E+01 6.95313E+00 4.64102E-01-4.06625E-01 2.91989E-14-6.75848E-13
 -1      2208 2.11445E+01 8.29335E-01-1.67308E-02-3.09132E+00-3.85639E-13-1.32898E-13
 -1      2209 1.95589E+01 3.51646E+00-1.10738E-02-5.91249E-01-6.66506E-14-6.81395E-13
 -1      2210 1.95946E+01 3.47057E+00-1.04261E-02-7.75558E-01-1.29551E-13-6.93972E-13
 -1      2211 1.96414E+01 3.38243E+00-1.26675E-02-9.39811E-01-1.66099E-13-6.82678E-13
 -1      2212 1.97030E+01 3.30180E+00-1.24761E-02-1.12917E+00-2.28688E-13-6.78580E-13
 -1      2213 1.97860E+01 3.03382E+00 3.57817E-04-7.91846E-01-1.42163E-13-6.38739E-13
 -1      2214 1.95114E+01 3.59894E+00-9.61460E-03 9.94248E-02 1.26548E-13-6.38174E-13
 -1      2215 1.95107E+01 3.59977E+00-9.61804E-03-8.00168E-02 7.76760E-14-6.54339E-13
 -1      2216 1.95376E+01 3.55952E+00-9.72132E-03 4.45381E-01 2.19467E-13-6.34302E-13
 -1      2217 1.95201E+01 3.58210E+00-1.01368E-02 2.64590E-01 1.65859E-13-6.43232E-13
 -1      2218 1.96775E+01 3.22170E+00-9.00220E-04 1.69533E-01 1.37679E-13-6.04250E-13
 -1      2219 1.95998E+01 3.46293E+00-1.06197E-02 7.89266E-01 3.14979E-13-5.93530E-13
 -1      2220 1.95633E+01 3.50999E+00-1.12150E-02 6.07854E-01 2.58574E-13-6.17444E-13
 -1      2221 1.97145E+01 3.15818E+00-5.06097E-04 4.87867E-01 2.28306E-13-5.92147E-13
 -1      2222 1.97110E+01 3.28903E+00-1.29515E-02 1.14254E+00 4.04078E-13-4.92793E-13
 -1      2223 1.96480E+01 3.37247E+00-1.28938E-02 9.53249E-01 3.53260E-13-5.56694E-13
 -1      2224 1.97918E+01 3.02453E+00 2.60275E-04 8.03406E-01 3.25501E-13-5.40499E-13
 -1      2225 1.98909E+01 3.00320E+00-1.81478E-02 1.48949E+00 4.76032E-13-3.72476E-13
 -1      2226 1.97909E+01 3.14432E+00-1.52672E-02 1.29925E+00 4.17942E-13-4.30975E-13
 -1      2227 1.99219E+01 2.79929E+00 2.02862E-03 1.10938E+00 4.03331E-13-4.37961E-13
 -1      2228 2.01678E+01 2.53726E+00-2.87135E-02 1.78595E+00 5.30982E-13-1.84443E-13
 -1      2229 2.00148E+01 2.78355E+00-1.81010E-02 1.62151E+00 4.95986E-13-2.97203E-13
 -1      2230 2.01174E+01 2.44804E+00 5.83685E-03 1.37731E+00 4.54048E-13-2.97831E-13
 -1      2231 2.05858E+01 1.79493E+00-2.65774E-02 1.89033E+00 5.35669E-13 1.51365E-13
 -1      2232 2.03645E+01 2.22512E+00-1.08148E-02 1.85261E+00 5.27360E-13-5.49109E-14
 -1      2233 2.03887E+01 1.91182E+00 1.40457E-02 1.53181E+00 4.91074E-13-1.00349E-13
 -1      2234 2.07931E+01 1.06702E+00-1.78363E-02 1.59030E+00 4.77111E-13 4.51533E-13
 -1      2235 2.06794E+01 1.53575E+00 8.79882E-04 1.79149E+00 5.09114E-13 2.83268E-13
 -1      2236 2.05050E+01 1.27991E+00 4.44772E-04 1.42012E+00 4.89287E-13 1.43067E-13
 -1      2237 2.04506E+01 7.43443E-01-1.85293E-03 1.11112E+00 4.39041E-13 3.71455E-13
 -1      2238 2.04030E+01 8.54607E-01 1.30445E-02-9.99529E-01-3.93409E-13-2.08131E-13
 -1      2239 2.01909E+01 6.26427E-01-4.80755E-03-6.90904E-01-3.53870E-13-2.32142E-13
 -1      2240 3.26178E+01 1.13334E+00-5.84713E-02-1.43406E-01 2.68410E-13-5.14755E-13
 -1      2241 3.38113E+01 3.45375E+00-1.52672E-01 7.57719E-01 3.06588E-13-5.56333E-13
 -1      2242 2.00654E+01-3.18474E-01 8.68730E-04-6.31242E-01 1.03511E-14 4.45259E-13
 -1      2243 2.01259E+01 4.69593E-01 1.62336E-02-4.74669E-01-3.14703E-13-2.02785E-13
 -1      2244 1.99845E+01 3.44624E-01 2.61230E-05-3.03022E-01-2.81571E-13-2.36542E-13
 -1      2245 2.02446E+01 7.46328E-01-1.87857E-03-6.93344E-01-3.54681E-13-2.91235E-13
 -1      2246 1.99213E+01 2.59570E-01 1.08894E-02-1.65458E-01-2.59263E-13-2.16950E-13
 -1      2247 1.98426E+01 1.88017E-01 7.08280E-04-6.82666E-02-2.24413E-13-2.45627E-13
 -1      2248 2.00810E+01 4.16529E-01-3.63764E-03-3.09722E-01-2.84793E-13-2.79428E-13
 -1      2249 1.97982E+01 1.38491E-01 6.39406E-03 1.37462E-02-1.96162E-13-2.36652E-13
 -1      2250 1.97631E+01 9.61111E-02 7.13591E-04 6.69973E-02-1.59160E-13-2.60074E-13
 -1      2251 1.99604E+01 2.27188E-01-3.61582E-03-7.08613E-02-2.21001E-13-2.48597E-13
 -1      2252 1.97372E+01 6.61647E-02 3.57852E-03 1.12621E-01-1.28886E-13-2.66740E-13
 -1      2253 1.97299E+01 4.05789E-02 6.11456E-04 1.39088E-01-9.35598E-14-2.66600E-13
 -1      2254 1.98846E+01 1.14670E-01-2.92042E-03 6.96982E-02-1.67903E-13-2.59843E-13
 -1      2255 1.97181E+01 2.22726E-02 1.85493E-03 1.61200E-01-1.07944E-13-2.94664E-13
 -1      2256 1.97272E+01 6.96352E-03 4.87599E-04 1.71192E-01-9.53768E-14-3.09084E-13
 -1      2257 1.98448E+01 4.63952E-02-2.11477E-03 1.45663E-01-1.25492E-13-2.83467E-13
 -1      2258 1.97251E+01-4.00999E-03 7.92934E-04 1.78400E-01-8.97290E-14-3.45424E-13
 -1      2259 1.97431E+01-1.27647E-02 3.68706E-04 1.78407E-01-9.57202E-14-3.48690E-13
 -1      2260 1.98305E+01 5.15605E-03-1.42794E-03 1.79927E-01-1.23324E-13-3.57074E-13
 -1      2261 1.97470E+01-1.89578E-02 1.43049E-04 1.76501E-01-1.28732E-13-3.49903E-13
 -1      2262 1.97690E+01-2.34428E-02 2.68768E-04 1.70743E-01-1.46193E-13-3.50037E-13
 -1      2263 1.98328E+01-1.88480E-02-9.08005E-04 1.87936E-01-1.20502E-13-3.56926E-13
 -1      2264 1.97763E+01-2.64757E-02-2.40078E-04 1.63639E-01-1.26007E-13-3.15835E-13
 -1      2265 1.97992E+01-2.81691E-02 1.93419E-04 1.54905E-01-1.27648E-13-3.04459E-13
 -1      2266 1.98448E+01-3.16014E-02-5.38373E-04 1.80152E-01-1.25404E-13-3.25455E-13
 -1      2267 1.98081E+01-2.91163E-02-4.47285E-04 1.45245E-01-1.43224E-13-3.05843E-13
 -1      2268 1.98300E+01-2.90026E-02 1.43025E-04 1.35381E-01-1.13917E-13-3.10279E-13
 -1      2269 1.98620E+01-3.69608E-02-2.87827E-04 1.63677E-01-1.54175E-13-3.01078E-13
 -1      2270 1.98394E+01-2.85898E-02-5.38908E-04 1.24934E-01-9.94693E-14-3.10812E-13
 -1      2271 1.98594E+01-2.73268E-02 1.16004E-04 1.15151E-01-7.42346E-14-3.20853E-13
 -1      2272 1.98813E+01-3.74917E-02-1.27153E-04 1.43309E-01-1.24348E-13-2.45981E-13
 -1      2273 1.98685E+01-2.60396E-02-5.56273E-04 1.05090E-01-1.16225E-13-3.39026E-13
 -1      2274 1.98863E+01-2.40558E-02 1.10896E-04 9.61769E-02-1.60568E-13-3.73670E-13
 -1      2275 1.99007E+01-3.49115E-02-3.29365E-05 1.22256E-01-1.26075E-13-2.83915E-13
 -1      2276 1.98949E+01-2.22061E-02-5.27939E-04 8.72717E-02-1.64169E-13-3.64263E-13
 -1      2277 1.99105E+01-1.97615E-02 1.27305E-04 7.97433E-02-9.47896E-14-3.99517E-13
 -1      2278 1.99193E+01-3.03450E-02 1.24758E-05 1.02653E-01-1.59143E-13-2.77364E-13
 -1      2279 1.99184E+01-1.75303E-02-4.73563E-04 7.25126E-02-4.38285E-14-3.93868E-13
 -1      2280 1.99322E+01-1.47566E-02 1.66267E-04 6.67232E-02-2.73499E-14-4.00869E-13
 -1      2281 1.99366E+01-2.44830E-02 2.18912E-05 8.59215E-02-7.48876E-14-2.19616E-13
 -1      2282 1.99397E+01-1.22235E-02-4.06514E-04 6.15447E-02-4.73881E-14-3.97479E-13
 -1      2283 1.99522E+01-9.15141E-03 2.30404E-04 5.77734E-02-3.33278E-14-4.24412E-13
 -1      2284 1.99529E+01-1.76865E-02 4.26998E-06 7.30556E-02-5.85520E-14-3.06325E-13
 -1      2285 1.99595E+01-6.31433E-03-3.35765E-04 5.49714E-02-2.89685E-14-4.78275E-13
 -1      2286 1.99716E+01-2.89157E-03 3.24072E-04 5.34911E-02-8.18248E-15-3.85589E-13
 -1      2287 1.99684E+01-1.00573E-02-3.43391E-05 6.48317E-02-4.92995E-14-3.94918E-13
 -1      2288 1.99791E+01 3.20377E-04-2.67349E-04 5.34071E-02-5.52990E-14-3.99005E-13
 -1      2289 1.99916E+01 4.21911E-03 4.53536E-04 5.45418E-02-5.77467E-14-4.07836E-13
 -1      2290 1.99840E+01-1.48466E-03-8.99800E-05 6.19793E-02-3.88845E-14-3.54822E-13
 -1      2291 1.99998E+01 7.93936E-03-2.05531E-04 5.75937E-02-6.66929E-14-3.56448E-13
 -1      2292 2.00138E+01 1.25089E-02 6.27246E-04 6.17695E-02-4.74560E-14-4.19897E-13
 -1      2293 2.00005E+01 8.32781E-03-1.60019E-04 6.53181E-02-6.39411E-14-3.13219E-13
 -1      2294 2.00233E+01 1.69327E-02-1.53850E-04 6.85052E-02-2.39267E-14-4.42253E-13
 -1      2295 2.00401E+01 2.24407E-02 8.56170E-04 7.62996E-02 9.69391E-15-4.87840E-13
 -1      2296 2.00192E+01 1.98522E-02-2.42341E-04 7.58773E-02-6.72282E-14-3.68498E-13
 -1      2297 2.00515E+01 2.78299E-02-1.16103E-04 8.74480E-02-1.38739E-15-5.04524E-13
 -1      2298 2.00727E+01 3.46262E-02 1.15419E-03 9.96411E-02 1.28579E-14-4.53753E-13
 -1      2299 2.00412E+01 3.37420E-02-3.34425E-04 9.50044E-02-1.51853E-14-3.54566E-13
 -1      2300 2.00868E+01 4.13196E-02-9.73815E-05 1.16165E-01 2.64207E-14-3.83459E-13
 -1      2301 2.01142E+01 4.98516E-02 1.53840E-03 1.33796E-01 7.09952E-15-3.00730E-13
 -1      2302 2.00681E+01 5.08533E-02-4.32166E-04 1.24470E-01 4.49763E-14-2.81191E-13
 -1      2303 2.01317E+01 5.82792E-02-1.05198E-04 1.56948E-01 2.35256E-15-3.41818E-13
 -1      2304 2.01676E+01 6.91098E-02 2.02911E-03 1.81379E-01 2.51777E-14-3.12840E-13
 -1      2305 2.01016E+01 7.22785E-02-5.28329E-04 1.66578E-01 5.23638E-15-2.58945E-13
 -1      2306 2.01892E+01 7.98067E-02-1.50679E-04 2.12761E-01-1.91581E-14-3.75138E-13
 -1      2307 2.02361E+01 9.36282E-02 2.64901E-03 2.45744E-01 1.77201E-14-4.13366E-13
 -1      2308 2.01432E+01 9.93841E-02-6.10520E-04 2.24271E-01-3.43871E-14-3.89864E-13
 -1      2309 2.02625E+01 1.07238E-01-2.49599E-04 2.87362E-01 1.65410E-14-4.64726E-13
 -1      2310 2.03235E+01 1.24864E-01 3.42030E-03 3.31100E-01 4.11835E-14-4.72043E-13
 -1      2311 2.01947E+01 1.33834E-01-6.58777E-04 3.01243E-01-7.25641E-14-4.89928E-13
 -1      2312 2.03550E+01 1.42108E-01-4.22584E-04 3.85401E-01 1.13546E-13-4.18474E-13
 -1      2313 2.04336E+01 1.64399E-01 4.35825E-03 4.42565E-01 1.46046E-13-3.18994E-13
 -1      2314 2.02572E+01 1.77548E-01-6.43339E-04 4.02005E-01 1.02722E-13-5.07493E-13
 -1      2315 2.04701E+01 1.85952E-01-6.92910E-04 5.12421E-01 1.06112E-13-4.08964E-13
 -1      2316 2.05702E+01 2.13600E-01 5.45774E-03 5.86057E-01 7.96593E-14-4.30237E-13
 -1      2317 2.03316E+01 2.32488E-01-5.24498E-04 5.31877E-01 1.01585E-13-4.27345E-13
 -1      2318 2.06112E+01 2.39770E-01-1.07839E-03 6.74610E-01 1.34241E-13-3.89619E-13
 -1      2319 2.07367E+01 2.72757E-01 6.66872E-03 7.67786E-01 1.87539E-13-3.12649E-13
 -1      2320 2.04175E+01 3.00057E-01-2.59351E-04 6.96774E-01 9.56958E-14-4.11321E-13
 -1      2321 2.07810E+01 3.02749E-01-1.57014E-03 8.78033E-01 9.25349E-14-2.90657E-13
 -1      2322 2.09361E+01 3.39191E-01 7.85579E-03 9.92949E-01 3.47031E-14-2.92608E-13
 -1      2323 2.05136E+01 3.79695E-01 1.73789E-04 9.02602E-01 1.35831E-13-1.51130E-13
 -1      2324 2.09825E+01 3.69580E-01-2.08340E-03 1.12683E+00 1.56999E-14-1.82333E-13
 -1      2325 2.11707E+01 4.03426E-01 8.74066E-03 1.26291E+00 4.16897E-14-1.09054E-13
 -1      2326 2.06172E+01 4.65904E-01 7.12300E-04 1.15392E+00 9.23440E-14-1.20219E-13
 -1      2327 2.12202E+01 4.25271E-01-2.35361E-03 1.41949E+00-2.08557E-14-1.29379E-13
 -1      2328 2.14450E+01 4.42181E-01 8.83659E-03 1.56974E+00-2.93559E-15-8.59262E-14
 -1      2329 2.07265E+01 5.42520E-01 1.07361E-03 1.45137E+00 1.95837E-14-9.45255E-14
 -1      2330 2.15057E+01 4.36145E-01-1.73711E-03 1.74189E+00 8.46117E-14-4.81733E-14
 -1      2331 2.17717E+01 4.07179E-01 7.46570E-03 1.88657E+00 1.04237E-13-4.47285E-14
 -1      2332 2.08461E+01 5.72701E-01 5.15706E-04 1.78712E+00 1.02315E-14 3.37738E-14
 -1      2333 2.18688E+01 3.36930E-01 1.22150E-03 2.05531E+00 7.37850E-14-1.00710E-13
 -1      2334 2.21854E+01 2.10876E-01 3.76283E-03 2.15273E+00 1.43582E-13-6.13281E-14
 -1      2335 2.09991E+01 4.84191E-01-2.40906E-03 2.13725E+00 8.85211E-14 3.50257E-14
 -1      2336 2.23805E+01 1.76776E-02 9.31998E-03 2.27619E+00 1.58915E-13-2.12449E-14
 -1      2337 2.27652E+01-2.79601E-01-3.54863E-03 2.25138E+00 1.73199E-13-5.43485E-14
 -1      2338 2.12531E+01 1.51298E-01-1.01531E-02 2.44911E+00 1.47289E-13-8.23180E-14
 -1      2339 2.31761E+01-6.64963E-01 2.52972E-02 2.24336E+00 1.42050E-13-7.82620E-15
 -1      2340 2.36513E+01-1.19303E+00-1.51140E-02 1.98267E+00 5.77212E-14 4.93910E-14
 -1      2341 2.17609E+01-6.01428E-01-2.52574E-02 2.61366E+00 1.89482E-13 1.29314E-13
 -1      2342 2.44472E+01-1.78475E+00 4.93313E-02 1.68998E+00-8.33561E-14 2.41391E-14
 -1      2343 2.50119E+01-2.47527E+00-2.98339E-02 1.06906E+00-6.81330E-14 7.55108E-14
 -1      2344 2.27891E+01-1.91252E+00-4.83195E-02 2.42179E+00 2.58153E-14 2.73564E-13
 -1      2345 2.63005E+01-3.06156E+00 5.69411E-02 2.69403E-01-1.85086E-13-3.20941E-14
 -1      2346 2.68433E+01-3.44953E+00-4.44712E-02-7.21140E-01-1.32692E-13-1.82621E-13
 -1      2347 2.46540E+01-3.57333E+00-7.43768E-02 1.50234E+00-2.81497E-13 2.22525E-13
 -1      2348 2.84143E+01-3.34848E+00-8.58898E-03-2.11122E+00 3.41237E-14-3.92193E-13
 -1      2349 2.86374E+01-2.46418E+00-7.18586E-02-3.12014E+00 1.01585E-14-4.63948E-13
 -1      2350 2.75360E+01-4.43001E+00-8.48224E-02-4.98270E-01-1.98716E-13-7.46347E-14
 -1      2351 2.94062E+01-7.99883E-01-1.71132E-01-4.25429E+00-3.77545E-14-5.56763E-13
 -1      2352 2.92155E+01 1.50774E+00-7.10031E-02-4.27045E+00-9.48686E-14-4.06841E-13
 -1      2353 2.91591E+01 3.37066E+00-2.45348E-01-3.57619E+00 4.26603E-14-4.06952E-13
 -1      2354 2.88930E+01 4.80923E+00-1.24664E-01-2.19979E+00 2.19880E-13-4.16743E-13
 -1      2355 2.89917E+01 5.16898E+00-1.44322E-01-3.47330E-01-6.32827E-15-3.88231E-13
 -1      2356 2.89737E+01 4.08634E+00-2.48534E-01 1.26692E+00-1.53544E-13-2.78201E-13
 -1      2357 2.89185E+01 2.26307E+00-9.16383E-02 2.32361E+00-3.98848E-14-2.51799E-13
 -1      2358 2.89229E+01-9.69374E-02-1.84294E-01 2.57349E+00 1.35225E-13-7.94087E-14
 -1      2359 2.80717E+01-1.82232E+00-6.04922E-02 1.75350E+00-1.01724E-14-1.16594E-13
 -1      2360 2.77792E+01-2.91947E+00-4.29206E-03 9.41377E-01-1.42001E-13-2.50987E-13
 -1      2361 2.61626E+01-3.27547E+00-7.07161E-02-4.97634E-01-2.07820E-13-3.03329E-13
 -1      2362 2.54578E+01-2.92091E+00 3.66446E-02-1.44639E+00-3.05031E-13-3.92120E-13
 -1      2363 2.76290E+01-4.11837E+00-1.18728E-01-7.27742E-01-2.06747E-13-7.51163E-13
 -1      2364 2.41222E+01-2.33221E+00-3.43340E-02-2.23042E+00-1.63612E-13-3.38916E-13
 -1      2365 2.34166E+01-1.52242E+00 6.50094E-02-2.78866E+00-2.08076E-13-3.23433E-13
 -1      2366 2.46731E+01-3.25644E+00-5.47262E-02-2.66205E+00-2.48053E-13-5.62932E-13
 -1      2367 2.24182E+01-8.32242E-01-2.39102E-02-3.14698E+00-2.85065E-13-2.08025E-13
 -1      2368 2.18132E+01 2.99948E-02 5.06807E-02-3.17313E+00-3.98249E-13-2.58880E-13
 -1      2369 2.11318E+01 5.38647E-01-2.27892E-02-3.79436E+00-1.83637E-13-3.11229E-13
 -1      2370 2.25799E+01-1.49260E+00-3.19059E-02-3.69179E+00-9.22526E-14-4.44416E-13
 -1      2371 1.96984E+01 6.06031E-02 9.74266E-04-1.06618E-01 1.38185E-13-1.88611E-14
 -1      2372 1.97157E+01 9.11608E-02 5.02380E-03-6.94339E-02 1.50006E-13-2.78556E-15
 -1      2373 1.97519E+01 1.26826E-01 1.27516E-03-7.64568E-03 1.72896E-13 1.50283E-14
 -1      2374 1.98062E+01 1.77949E-01 8.85277E-03 6.34076E-02 2.01149E-13 6.28141E-14
 -1      2375 1.98811E+01 1.54604E-01-3.43942E-03-7.76259E-03 1.97102E-13-9.17273E-14
 -1      2376 1.98646E+01 2.39892E-01 1.71457E-03 1.70701E-01 2.20840E-13 6.45256E-14
 -1      2377 1.99684E+01 3.24950E-01 1.09534E-02 3.00339E-01 2.53833E-13 9.87051E-14
 -1      2378 1.99828E+01 2.92393E-01-4.23978E-03 1.77534E-01 2.30814E-13-2.91395E-14
 -1      2379 1.96856E+01 2.06412E-02 7.20154E-04-1.55724E-01 1.29114E-13-7.83481E-14
 -1      2380 1.96805E+01 3.89815E-02 2.67821E-03-1.39079E-01 1.34111E-13-4.46323E-14
 -1      2381 1.98244E+01 7.21620E-02-2.58932E-03-1.12790E-01 1.56470E-13-1.43913E-13
 -1      2382 1.96982E+01-3.24632E-03 5.13263E-04-1.73627E-01 1.19354E-13-1.04678E-13
 -1      2383 1.96806E+01 7.51225E-03 1.25720E-03-1.69496E-01 1.31430E-13-7.44645E-14
 -1      2384 1.98008E+01 2.23406E-02-1.78665E-03-1.65594E-01 1.52425E-13-1.44527E-13
 -1      2385 1.97250E+01-1.68368E-02 3.50777E-04-1.72479E-01 6.96028E-14-1.02607E-13
 -1      2386 1.97014E+01-1.09499E-02 3.92752E-04-1.75764E-01 8.33637E-14-7.48521E-14
 -1      2387 1.97994E+01-7.28244E-03-1.15281E-03-1.85184E-01 1.19197E-13-1.80295E-13
 -1      2388 1.97586E+01-2.36900E-02 2.30823E-04-1.60345E-01 1.03792E-13-6.38753E-14
 -1      2389 1.97330E+01-2.09789E-02-1.22964E-04-1.67714E-01 9.45057E-14-7.30896E-14
 -1      2390 1.98114E+01-2.39178E-02-6.92959E-04-1.84318E-01 7.62985E-14-1.54696E-13
 -1      2391 1.97940E+01-2.61212E-02 1.49176E-04-1.42614E-01 9.74007E-14-3.75951E-14
 -1      2392 1.97689E+01-2.54761E-02-4.12547E-04-1.51866E-01 1.22527E-13-3.86443E-14
 -1      2393 1.98306E+01-3.20559E-02-3.76386E-04-1.71606E-01 8.99712E-14-9.73630E-14
 -1      2394 1.98282E+01-2.56780E-02 1.00501E-04-1.22872E-01 1.55643E-14-6.64057E-14
 -1      2395 1.98051E+01-2.63582E-02-5.54018E-04-1.32560E-01 8.34917E-14-3.88552E-14
 -1      2396 1.98530E+01-3.46268E-02-1.69120E-04-1.52863E-01 1.04576E-13-1.24009E-13
 -1      2397 1.98598E+01-2.33959E-02 8.00097E-05-1.03485E-01 4.24759E-15-1.16562E-13
 -1      2398 1.98391E+01-2.49102E-02-5.99521E-04-1.12665E-01 1.37293E-14-8.65873E-14
 -1      2399 1.98759E+01-3.35859E-02-4.26095E-05-1.31988E-01 1.69575E-14-1.06002E-13
 -1      2400 1.98881E+01-1.99499E-02 8.42971E-05-8.59970E-02 9.46698E-14-1.73921E-13
 -1      2401 1.98700E+01-2.19842E-02-5.84695E-04-9.40586E-02 2.55040E-14-1.47142E-13
 -1      2402 1.98979E+01-3.02350E-02 2.50821E-05-1.11575E-01 6.15958E-14-1.36839E-13
 -1      2403 1.99131E+01-1.57517E-02 1.11563E-04-7.14182E-02 1.36152E-13-1.61170E-13
 -1      2404 1.98974E+01-1.81214E-02-5.33939E-04-7.79642E-02 1.68717E-13-1.49857E-13
 -1      2405 1.99182E+01-2.54138E-02 5.01519E-05-9.33329E-02 1.39264E-13-1.74612E-13
 -1      2406 1.99356E+01-1.10187E-02 1.61423E-04-6.04383E-02 6.27339E-14-1.74556E-13
 -1      2407 1.99217E+01-1.36347E-02-4.63742E-04-6.51927E-02 9.14586E-14-1.14615E-13
 -1      2408 1.99369E+01-1.96252E-02 4.41907E-05-7.84033E-02 1.11422E-13-1.59876E-13
 -1      2409 1.99563E+01-5.82672E-03 2.34532E-04-5.35806E-02 1.39075E-13-2.10354E-13
 -1      2410 1.99436E+01-8.66872E-03-3.84934E-04-5.63241E-02 1.41162E-13-1.78503E-13
 -1      2411 1.99541E+01-1.31247E-02 1.52361E-05-6.75854E-02 1.05484E-13-1.86166E-13
 -1      2412 1.99765E+01-1.53801E-04 3.32050E-04-5.13135E-02 5.11567E-14-2.20202E-13
 -1      2413 1.99641E+01-3.24781E-03-3.04282E-04-5.18380E-02 9.29151E-14-2.38971E-13
 -1      2414 1.99706E+01-5.98917E-03-3.12949E-05-6.15055E-02 1.32297E-13-1.38241E-13
 -1      2415 1.99976E+01 6.07749E-03 4.54906E-04-5.41215E-02-1.36437E-13-1.84576E-13
 -1      2416 1.99846E+01 2.68127E-03-2.25639E-04-5.22019E-02-4.48045E-14-2.18507E-13
 -1      2417 1.99872E+01 1.82301E-03-9.18438E-05-6.07342E-02-1.38446E-14-1.00953E-13
 -1      2418 2.00213E+01 1.29552E-02 6.02748E-04-6.25378E-02-7.64540E-14-2.57455E-13
 -1      2419 2.00066E+01 9.20683E-03-1.50749E-04-5.79232E-02-1.16569E-13-2.60345E-13
 -1      2420 2.00050E+01 1.04145E-02-1.64068E-04-6.58586E-02-6.65101E-14-1.39250E-13
 -1      2421 2.00493E+01 2.05230E-02 7.72459E-04-7.71339E-02 3.31365E-14-1.58728E-13
 -1      2422 2.00318E+01 1.64033E-02-7.97749E-05-6.95592E-02 9.59167E-15-2.06718E-13
 -1      2423 2.00251E+01 1.98844E-02-2.46296E-04-7.75098E-02-4.50342E-14-2.81132E-13
 -1      2424 2.00836E+01 2.87079E-02 9.56083E-04-9.84553E-02-3.18590E-14-1.16087E-14
 -1      2425 2.00620E+01 2.42691E-02-1.15670E-05-8.76806E-02 1.69358E-14-8.93053E-14
 -1      2426 2.00491E+01 3.02492E-02-3.37074E-04-9.63388E-02-4.36660E-14-1.48453E-13
 -1      2427 2.01264E+01 3.72227E-02 1.13806E-03-1.26889E-01 2.08553E-14 3.98669E-14
 -1      2428 2.00994E+01 3.26436E-02 5.63211E-05-1.12774E-01 3.01081E-14 4.07328E-14
 -1      2429 2.00785E+01 4.13368E-02-4.34833E-04-1.22930E-01-3.53471E-14-6.89069E-14
 -1      2430 2.01799E+01 4.54344E-02 1.29171E-03-1.62437E-01-2.17899E-14-1.58065E-13
 -1      2431 2.01462E+01 4.10945E-02 1.27878E-04-1.45065E-01 1.64013E-14-6.87057E-14
 -1      2432 2.01151E+01 5.26458E-02-5.37723E-04-1.57632E-01 5.06903E-14-1.03856E-13
 -1      2433 2.02461E+01 5.21960E-02 1.37519E-03-2.04377E-01 7.52117E-14-2.11902E-13
 -1      2434 2.02047E+01 4.87692E-02 2.09133E-04-1.84234E-01 1.66134E-14-1.85468E-13
 -1      2435 2.01607E+01 6.31575E-02-6.43660E-04-2.00286E-01 7.03713E-14-1.64552E-13
 -1      2436 2.03269E+01 5.56448E-02 1.32741E-03-2.50775E-01 1.52519E-13-1.90585E-13
 -1      2437 2.02770E+01 5.42097E-02 3.08811E-04-2.29006E-01 1.08990E-13-2.03299E-13
 -1      2438 2.02174E+01 7.11014E-02-7.50619E-04-2.49819E-01 8.05528E-14-1.83400E-13
 -1      2439 2.04236E+01 5.29950E-02 1.06546E-03-2.97848E-01-9.06627E-14-1.39514E-13
 -1      2440 2.03651E+01 5.51428E-02 4.38837E-04-2.76584E-01 4.00308E-14-1.75659E-13
 -1      2441 2.02872E+01 7.36853E-02-8.57019E-04-3.03677E-01 6.29029E-14-1.09500E-13
 -1      2442 2.05363E+01 4.03953E-02 4.86001E-04-3.39189E-01-9.53055E-14-1.75935E-13
 -1      2443 2.04703E+01 4.82927E-02 6.13903E-04-3.21926E-01-5.21447E-14-2.10334E-13
 -1      2444 2.03723E+01 6.68407E-02-9.61639E-04-3.57106E-01-4.88985E-14-2.50623E-13
 -1      2445 2.06637E+01 1.29969E-02-5.24531E-04-3.64958E-01-1.09091E-13-1.31421E-13
 -1      2446 2.05927E+01 2.93135E-02 8.48372E-04-3.56926E-01-1.60071E-13-7.16825E-14
 -1      2447 2.04744E+01 4.51009E-02-1.06166E-03-4.02285E-01-2.15319E-13-1.75806E-13
 -1      2448 2.08023E+01-3.45032E-02-2.06366E-03-3.61277E-01-8.09560E-14 3.40296E-14
 -1      2449 2.07308E+01-6.95775E-03 1.14748E-03-3.69644E-01-2.12439E-14-6.59505E-14
 -1      2450 2.05952E+01 1.84103E-03-1.14603E-03-4.27455E-01-1.28354E-13-4.38491E-14
 -1      2451 2.09450E+01-1.06435E-01-4.16153E-03-3.10304E-01-1.81563E-13 1.57015E-13
 -1      2452 2.08803E+01-6.55967E-02 1.48827E-03-3.43931E-01-1.26265E-13 8.14954E-14
 -1      2453 2.07351E+01-6.97214E-02-1.17986E-03-4.16317E-01-1.29626E-13 3.99646E-14
 -1      2454 2.10806E+01-2.03352E-01-6.69370E-03-1.91793E-01-1.01589E-13-3.44220E-14
 -1      2455 2.10327E+01-1.49572E-01 1.78509E-03-2.60106E-01-9.63053E-14 5.59454E-14
 -1      2456 2.08926E+01-1.74192E-01-1.07786E-03-3.48239E-01-8.86041E-14 4.81023E-14
 -1      2457 2.11915E+01-3.17547E-01-9.25506E-03 1.27024E-02-3.73610E-14 8.62281E-14
 -1      2458 2.11734E+01-2.56150E-01 1.85109E-03-9.76942E-02-1.28722E-13 6.62616E-15
 -1      2459 2.10620E+01-3.09734E-01-6.68632E-04-2.00222E-01-2.17635E-14-3.81902E-14
 -1      2460 2.12532E+01-4.27464E-01-1.10371E-02 3.11709E-01-3.42218E-15 1.13161E-13
 -1      2461 2.12797E+01-3.71720E-01 1.36563E-03 1.58382E-01-8.37438E-15 4.69553E-14
 -1      2462 2.12303E+01-4.61660E-01 3.33657E-04 4.79732E-02-3.59657E-14 4.63414E-15
 -1      2463 2.12340E+01-4.93788E-01-1.08313E-02 6.91268E-01 1.34688E-13 3.33352E-13
 -1      2464 2.13186E+01-4.66455E-01-8.63459E-05 5.06963E-01 1.19738E-13 2.01082E-13
 -1      2465 2.13725E+01-5.95328E-01 2.23474E-03 4.03891E-01 2.34177E-15 9.51864E-14
 -1      2466 2.11000E+01-4.63478E-01-7.38378E-03 1.10029E+00 1.39048E-13 3.49622E-13
 -1      2467 2.12502E+01-4.93164E-01-2.77092E-03 9.15700E-01 1.63255E-13 4.25040E-13
 -1      2468 2.14490E+01-6.53182E-01 5.03581E-03 8.46787E-01 1.42896E-13 1.84396E-13
 -1      2469 2.08288E+01-2.89651E-01-3.40120E-04 1.44243E+00 1.10625E-14 2.38060E-13
 -1      2470 2.10386E+01-3.98020E-01-6.24567E-03 1.30766E+00 1.22493E-13 2.90088E-13
 -1      2471 2.14095E+01-5.65340E-01 7.89728E-03 1.30960E+00 1.54005E-13 4.76768E-13
 -1      2472 2.04315E+01 3.14306E-02 8.36140E-03 1.58974E+00 9.27742E-14 2.42820E-13
 -1      2473 2.06759E+01-1.49424E-01-8.96675E-03 1.56293E+00 1.44758E-14 1.70717E-13
 -1      2474 2.12131E+01-2.82239E-01 8.83369E-03 1.67059E+00 7.72574E-14 3.58054E-13
 -1      2475 1.99756E+01 4.25262E-01 1.45569E-02 1.43242E+00 1.27589E-15 3.88552E-13
 -1      2476 2.02108E+01 2.21379E-01-8.54860E-03 1.55279E+00 7.73430E-14 2.67709E-13
 -1      2477 2.08653E+01 1.74175E-01 5.23098E-03 1.77591E+00 2.21204E-14 3.81495E-13
 -1      2478 1.95800E+01 7.47351E-01 1.44676E-02 9.52442E-01-6.79803E-14 3.88800E-13
 -1      2479 1.97567E+01 6.00854E-01-2.92334E-03 1.20959E+00 3.16093E-14 4.39219E-13
 -1      2480 2.04506E+01 6.78494E-01-2.52906E-03 1.51021E+00-3.70756E-14 5.45240E-13
 -1      2481 1.93664E+01 8.53905E-01 7.73181E-03 2.68494E-01-1.54645E-13 1.25863E-13
 -1      2482 1.94482E+01 8.32274E-01 6.11867E-03 5.92125E-01-8.59686E-14 2.92112E-13
 -1      2483 2.01152E+01 1.03717E+00-9.69549E-03 8.87830E-01-1.31659E-14 6.57515E-13
 -1      2484 1.93853E+01 7.03478E-01-4.55591E-04-3.99616E-01 9.69290E-14 3.52171E-14
 -1      2485 1.93671E+01 8.09832E-01 1.42636E-02-1.10477E-01-4.01463E-14 5.88781E-14
 -1      2486 1.99866E+01 1.09268E+00-9.95477E-03 9.08183E-02 2.76279E-14 3.91580E-13
 -1      2487 1.95729E+01 3.92241E-01-5.91230E-03-8.54414E-01 7.58198E-14 1.34777E-13
 -1      2488 1.94814E+01 5.63107E-01 1.53875E-02-6.74826E-01 8.57196E-14-2.75828E-14
 -1      2489 2.00736E+01 8.38095E-01-3.02637E-03-6.07078E-01 1.17054E-13 2.96664E-13
 -1      2490 1.98030E+01 7.60750E-02-6.10769E-03-1.02252E+00 6.96899E-14 2.86485E-13
 -1      2491 1.96812E+01 2.30520E-01 9.58946E-03-9.69167E-01 9.51552E-14 1.94291E-13
 -1      2492 2.02592E+01 4.20348E-01 4.64390E-03-1.01002E+00 4.57215E-14 1.62013E-13
 -1      2493 1.99652E+01-1.33818E-01-2.92956E-03-9.62156E-01 1.05592E-13 3.95717E-13
 -1      2494 1.98514E+01-4.23928E-02 1.18338E-03-1.00064E+00 1.23452E-13 4.87547E-13
 -1      2495 2.03935E+01 3.27529E-02 8.59950E-03-1.08876E+00 3.72071E-14 3.03353E-13
 -1      2496 2.00273E+01-2.33535E-01-2.47421E-03-7.88506E-01 9.74145E-14 3.60859E-13
 -1      2497 1.99299E+01-1.94253E-01-7.12209E-03-8.67878E-01 1.18358E-13 3.98271E-13
 -1      2498 2.03986E+01-2.07625E-01 9.68178E-03-9.48161E-01 1.39705E-13 5.84304E-13
 -1      2499 2.18464E+01-6.34415E-01 3.29788E-02 1.84840E+00 1.33323E-13 3.61203E-13
 -1      2500 2.16805E+01-8.34232E-01-5.62767E-03 1.24681E+00 4.72599E-14 2.66690E-13
 -1      2501 2.14461E+01-6.57612E-01 2.93709E-02 6.54359E-01 7.38702E-14 1.05962E-13
 -1      2502 2.11674E+01-7.26230E-01-1.30452E-02 2.19685E-01 2.11515E-14 2.53988E-13
 -1      2503 2.20466E+01-9.74109E-01 5.79109E-03 9.21200E-01-1.82593E-14 3.02062E-13
 -1      2504 2.09075E+01-5.55461E-01 2.35515E-02-1.65971E-01 3.44553E-14 2.21228E-13
 -1      2505 2.06196E+01-5.26076E-01-8.86312E-03-4.19422E-01 1.13046E-13 1.79057E-13
 -1      2506 2.13921E+01-6.93541E-01 1.01525E-02-4.68898E-02 9.37661E-15 2.30416E-13
 -1      2507 4.68136E+00-3.93412E+00 5.66292E-02 3.98134E+00-8.57647E-14 2.17326E-13
 -1      2508 3.41742E+00-3.93332E+00 2.07449E-02 1.56933E+00 2.75127E-14 2.11442E-13
 -1      2509 2.17686E+01-3.41026E-01 1.93895E-02 3.21176E+00 2.02820E-13 7.17395E-14
 -1      2510 2.18839E+01-7.06128E-01 6.92660E-03 2.59219E+00 2.50444E-13 2.47215E-13
 -1      2511 2.24307E+01-1.19119E+00-1.23445E-03 2.29909E+00 8.02080E-14 3.60787E-13
 -1      2512 2.08539E+01 4.01202E-01-1.32726E-02 4.36905E+00 1.66975E-13-4.44249E-13
 -1      2513 2.14464E+01-1.42738E-01 3.22089E-02 3.95317E+00 1.18110E-13-3.18977E-13
 -1      2514 2.20701E+01-1.11409E+00-1.72312E-02 3.87123E+00 8.56838E-14-2.54403E-13
 -1      2515 1.90153E+01 1.65266E+00-4.72289E-02 4.55738E+00-9.54467E-14-6.99602E-13
 -1      2516 2.00496E+01 1.02705E+00 6.31755E-02 4.69749E+00 7.57818E-14-6.18744E-13
 -1      2517 2.05404E+01-4.19930E-01-2.00203E-02 5.08672E+00-5.13773E-14-6.11939E-13
 -1      2518 1.69905E+01 3.03147E+00-4.77846E-02 3.14824E+00 3.91375E-14-2.02619E-13
 -1      2519 1.79599E+01 2.53629E+00 6.57509E-02 4.01970E+00 3.84892E-15-4.13055E-13
 -1      2520 1.80203E+01 9.46599E-01 2.16367E-02 4.96786E+00-1.42525E-14-5.47531E-13
 -1      2521 1.60382E+01 3.78348E+00-2.58407E-03 3.03428E-01 1.16730E-13 2.01499E-13
 -1      2522 1.62981E+01 3.63324E+00 2.70446E-02 1.67699E+00 9.28316E-14-2.32245E-14
 -1      2523 1.56550E+01 2.37981E+00 9.26841E-02 2.84088E+00 1.43392E-13-1.05999E-13
 -1      2524 1.69447E+01 3.33367E+00 5.24195E-02-2.62369E+00-2.12686E-14 4.36012E-13
 -1      2525 1.62717E+01 3.60534E+00-2.94178E-02-1.42053E+00-6.27319E-16 2.07473E-13
 -1      2526 1.50439E+01 2.79429E+00 1.14432E-01-6.71545E-01 1.86752E-14 1.41838E-13
 -1      2527 1.89601E+01 2.04617E+00 6.24912E-02-4.20192E+00-1.17019E-13-4.67959E-14
 -1      2528 1.78995E+01 2.57249E+00-5.16558E-02-3.68600E+00-1.26431E-13 4.75984E-13
 -1      2529 1.66335E+01 1.87532E+00 5.45693E-02-3.68892E+00-1.11368E-13 3.31207E-13
 -1      2530 2.06266E+01 9.03613E-01 4.84282E-02-4.16787E+00-1.37223E-13-6.75215E-14
 -1      2531 1.97856E+01 1.40987E+00-3.41054E-02-4.30879E+00-4.78385E-14-1.67390E-13
 -1      2532 1.91885E+01 5.90236E-01 2.82173E-02-4.80901E+00-1.24541E-13-2.89768E-14
 -1      2533 2.10857E+01-2.48915E-01 2.38959E-03-4.42908E+00-9.01605E-14-2.20944E-13
 -1      2534 2.05483E+01 1.95504E+00-1.37228E-02-1.89762E+00-4.64540E-13-2.99993E-13
 -1      2535 2.04115E+01 1.21478E+00-7.17792E-03-1.28664E+00-4.27174E-13-2.45442E-13
 -1      2536 2.03841E+01 1.37984E+00 7.65086E-03-1.23525E+00-4.07833E-13-3.24077E-13
 -1      2537 2.02896E+01 2.38464E+00-5.07097E-03-1.84222E+00-4.50290E-13-4.22704E-13
 -1      2538 3.82891E+00-3.53021E+00 7.48795E-02-9.37433E-01 1.04101E-14 1.71585E-13
 -1      2539 5.14933E+00-3.70690E+00 4.67675E-02-3.74875E+00-7.41074E-14 5.52891E-14
 -1      2540 7.87981E+00-4.83982E+00 8.35227E-02-5.95589E+00-1.96565E-13 5.55112E-17
 -1      2541 1.13778E+01-5.58600E+00-1.34667E-02-7.59691E+00-1.54876E-13 1.80495E-13
 -1      2542 3.11708E+01-3.89769E+00-1.41687E-01-3.57253E-01-3.07435E-13-1.79579E-13
 -1      2543 2.79977E+01-5.59634E+00 5.98435E-03 1.61436E+00-4.59299E-13-5.43732E-14
 -1      2544 1.68673E+01-6.71704E+00-3.26042E-02 6.10368E+00-4.28380E-13-3.27210E-13
 -1      2545 1.24603E+01-6.30716E+00 4.80570E-02 5.94504E+00-3.41116E-13-3.99847E-13
 -1      2546 7.30420E+00-4.93982E+00 6.60508E-02-6.31543E+00 1.18378E-13-4.70179E-13
 -1      2547 1.07334E+01-5.44480E+00 2.00944E-02-7.47914E+00-1.14131E-13-5.54334E-13
 -1      2548 1.95181E+01 3.58514E+00-1.00811E-02-2.45196E-01 4.02835E-14-6.72937E-13
 -1      2549 1.95342E+01 3.56446E+00-9.64462E-03-4.25876E-01-1.92053E-14-6.79424E-13
 -1      2550 1.97105E+01 3.16394E+00-5.43170E-04-4.73188E-01-4.67150E-14-6.32865E-13
 -1      2551 1.96761E+01 3.22382E+00-9.05033E-04-1.51952E-01 5.00007E-14-6.22964E-13
 -1      2552 3.18230E+01-1.51152E+00-1.76932E-01 1.63806E+00-1.33484E-13 4.05231E-15
 -1      2553 2.95592E+01-3.81455E+00 4.96049E-02 3.62073E+00-3.08295E-13-4.32987E-15
 -1      2554 3.41437E+01 8.19464E+00-1.47145E-01 6.60659E-01 4.54137E-13-5.69531E-13
 -1      2555 3.44982E+01 8.22437E+00-1.40649E-01 2.06477E-01 4.58633E-13-6.15910E-13
 -1      2556 3.31687E+01 3.27610E+00-1.86072E-01-4.32501E-01 3.20244E-13-4.17999E-13
 -1      2557 3.27759E+01 1.54807E+00-4.00067E-02-1.98554E-01 6.40321E-14-3.57936E-13
 -1      2558 2.89192E+01-3.20826E+00-3.10854E-02-2.95120E+00 2.36214E-13-6.74016E-13
 -1      2559 3.12027E+01-1.49311E+00-1.16537E-01-1.76835E+00 3.10474E-13-6.45983E-13
 -1      2560 3.37008E+01 5.75738E+00-1.08853E-01 1.33849E+00 3.36176E-13-5.49338E-13
 -1      2561 3.38916E+01 7.00444E+00-1.73220E-01 1.19570E+00 3.31069E-13-5.51295E-13
 -1      2562 8.98172E+00-5.19172E+00 5.18365E-02 5.58138E+00-2.03476E-13-4.94188E-13
 -1      2563 6.04449E+00-4.37163E+00 1.14368E-01 4.02261E+00-7.78821E-14-4.31100E-13
 -1      2564 3.44056E+01 7.37070E+00-1.17472E-01-2.52231E-01 5.02098E-13-5.67019E-13
 -1      2565 3.32219E+01 5.82006E+00-1.50693E-01-6.32955E-01 5.09370E-13-3.09808E-13
 -1      2566 3.16857E+01 7.52875E+00-8.39102E-02-3.37923E-01 5.62328E-13-3.81729E-13
 -1      2567 2.28175E+01-5.64424E+00 2.83483E-02-5.96540E+00-4.89608E-14-9.68753E-13
 -1      2568 2.63989E+01-4.60179E+00-2.48253E-02-4.90071E+00-2.81164E-14-9.39776E-13
 -1      2569 1.41713E+01-6.03126E+00 1.04128E-02-7.45877E+00-3.09808E-13-9.31588E-13
 -1      2570 1.81791E+01-5.87608E+00-5.79837E-03-7.33054E+00-1.89293E-13-9.49785E-13
 -1      2571 1.38195E+01-5.19702E+00 1.23607E-01-7.44546E+00-2.09055E-13-6.96096E-13
 -1      2572 3.21872E+00-3.80055E+00 8.85478E-02-2.80937E+00 1.81521E-13-6.22336E-13
 -1      2573 4.68153E+00-3.87748E+00 7.91524E-02-4.73388E+00 1.93567E-13-6.02851E-13
 -1      2574 3.38582E+01 1.42791E+00-1.39257E-01-3.13964E+00-1.94067E-13-4.59438E-13
 -1      2575 3.22339E+01-7.31902E-01-6.24680E-02-2.86604E+00-2.05835E-13-4.54303E-13
 -1      2576 3.39308E+00-3.80625E+00 7.94897E-02 1.97243E+00 5.19029E-15-4.75397E-13
 -1      2577 2.53627E+00-3.75058E+00 7.51100E-02-6.42011E-01 2.11910E-13-5.19362E-13
 -1      2578 4.76957E+00-2.22569E+00 1.75571E-01-1.58260E+00 2.94407E-13-5.52836E-13
 -1      2579 2.48169E+01-6.67285E+00-7.45036E-02 3.92308E+00-5.19695E-13-3.53467E-14
 -1      2580 2.14250E+01-6.90064E+00 4.94636E-02 4.76670E+00-4.51722E-13-1.82854E-13
 -1      2581 3.50024E+01 5.82877E+00-1.52222E-02 3.83592E-01-2.76446E-14-6.42153E-13
 -1      2582 3.49562E+01 6.63346E+00-1.37024E-01-1.31613E-01-4.37983E-14-6.10428E-13
 -1      2583 3.48975E+01 5.91212E+00-1.04286E-01-2.47532E+00 2.50355E-13-4.39454E-13
 -1      2584 3.43036E+01 4.61608E+00-5.64823E-02-2.84366E+00 6.81677E-14-4.02539E-13
 -1      2585 3.29110E+01 3.91900E-01-6.69347E-02 9.44312E-01 4.25771E-14-5.89639E-13
 -1      2586 3.43852E+01 2.75900E+00-1.40754E-01 1.01031E+00 1.13826E-13-5.11563E-13
 -1      2587 3.02629E+01-4.32713E+00 4.42717E-02-3.13341E+00 6.18949E-15-4.95659E-13
 -1      2588 3.23272E+01-2.86406E+00-1.51617E-01-1.41466E+00-7.49192E-14-8.60811E-13
 -1      2589 2.33089E+01-6.90706E+00-5.61909E-02-6.47258E+00-8.71525E-14-4.23772E-13
 -1      2590 2.72587E+01-5.64496E+00-6.03209E-02-5.42573E+00-3.01981E-14-4.35818E-13
 -1      2591 2.83232E+01-5.71667E+00-2.55286E-03-3.66163E+00-5.34017E-14-3.73701E-13
 -1      2592 1.61580E+01-6.57329E+00 6.71963E-02-7.74965E+00-3.43614E-14 9.10383E-14
 -1      2593 2.00092E+01-6.83693E+00-2.15302E-02-7.72749E+00-4.62408E-14-1.76206E-13
 -1      2594 2.31043E+01-6.77451E+00 3.85927E-02-6.57696E+00-1.83464E-13-3.54994E-13
 -1      2595 2.04001E+01-3.87628E-01 9.47775E-03-6.54091E-01 2.56726E-14 4.51655E-13
 -1      2596 1.99134E+01 2.81411E+00 2.09700E-03-1.09830E+00-2.43962E-13-6.28090E-13
 -1      2597 1.97799E+01 3.15966E+00-1.54625E-02-1.28522E+00-2.67422E-13-6.73193E-13
 -1      2598 1.98762E+01 3.03915E+00-1.70415E-02-1.48209E+00-3.29004E-13-6.30843E-13
 -1      2599 5.78971E+00-2.02601E+00 1.80372E-01 2.07565E-01 1.35673E-14 2.48523E-13
 -1      2600 2.03331E+01 5.89959E-01 9.12487E-03 8.71031E-01 3.85268E-13 3.26763E-13
 -1      2601 2.03942E+01 8.35856E-01 6.82863E-03 1.04716E+00 4.30406E-13 2.03468E-13
 -1      2602 2.01630E+01 4.88598E-01 7.89585E-03 6.62299E-01 3.51136E-13 2.57282E-13
 -1      2603 3.12377E+01-6.47595E-01-1.13381E-03 1.76785E-01 1.65493E-13-2.38753E-13
 -1      2604 2.63348E+01-5.54786E+00-1.14906E-01 6.01969E+00-3.32068E-13-1.22902E-13
 -1      2605 2.32589E+01-6.22089E+00 5.71793E-02 6.96775E+00-1.74361E-13-2.20171E-13
 -1      2606 2.06582E+01-4.32663E-01-8.03440E-03-6.35889E-01-1.69159E-14 3.87197E-13
 -1      2607 3.19014E+01 4.01855E+00-6.91700E-02 1.77875E+00 2.01200E-13-2.36311E-13
 -1      2608 3.23395E+01 6.22453E+00-1.57992E-01-2.38190E+00 2.39475E-13-4.08992E-13
 -1      2609 3.01841E+01-2.18573E+00-1.24877E-01-3.17395E+00-8.16916E-14-4.06022E-13
 -1      2610 2.99486E+01 5.38567E+00-2.06347E-01-1.36706E+00 1.86240E-13-4.25441E-13
 -1      2611 3.15460E+01 3.81657E+00-1.17880E-01 1.77369E+00-8.56815E-14-4.56940E-13
 -1      2612 3.00983E+01-1.37399E+00-1.83039E-01 1.63278E+00-5.55112E-16-4.26631E-13
 -1      2613 3.13029E+01 2.85196E+00-1.12271E-01-4.05627E+00 8.60423E-15-4.81060E-13
 -1      2614 7.47057E+00-3.53458E+00 1.39610E-01 5.44947E+00-1.32061E-13 3.95239E-14
 -1      2615 7.80281E+00-2.00890E+00 1.32776E-01 4.39669E+00 5.20139E-14-1.11022E-15
 -1      2616 1.03018E+01-3.09132E+00 6.71433E-02 6.60723E+00 4.42979E-14-8.96505E-14
 -1      2617 6.64766E+00-2.81520E+00 1.69432E-01 3.06077E+00 5.59830E-14-5.76372E-13
 -1      2618 2.01141E+01 2.61982E+00-1.19261E-02-1.67803E+00-3.96560E-13-5.07179E-13
 -1      2619 2.83444E+01-4.87963E+00 4.65538E-02 4.08243E+00-1.67866E-13 6.49480E-14
 -1      2620 2.00039E+01 3.64872E-01 8.24430E-03 3.93082E-01 2.97251E-13 1.23697E-13
 -1      2621 2.00983E+01 4.32835E-01 1.16975E-02 5.35492E-01 3.25126E-13 1.97125E-13
 -1      2622 2.01861E+01 5.65280E-01-3.11803E-03 6.52943E-01 3.64068E-13 9.75851E-14
 -1      2623 2.00856E+01 4.36941E-01-5.37804E-03 4.07934E-01 2.91874E-13 9.91937E-15
 -1      2624 1.56618E+01-5.82151E+00 1.30836E-01 8.22067E+00-7.63278E-15-2.32189E-13
 -1      2625 1.43407E+01-4.60818E+00 1.64776E-01 8.11537E+00-7.97695E-14-9.50351E-14
 -1      2626 8.52019E+00-2.91854E+00 1.84063E-01-4.81878E+00-6.02435E-14 8.84293E-14
 -1      2627 1.88015E+01-6.06492E+00-1.29956E-02 8.30293E+00-3.81917E-14-3.79606E-13
 -1      2628 1.54691E+01-5.42183E+00 1.25687E-01-7.57608E+00-8.18512E-14-4.93494E-14
 -1      2629 2.70188E+01-6.12344E+00-3.67363E-03 1.81146E+00-3.67095E-13 2.51466E-14
 -1      2630 1.26492E+01-4.84330E+00 1.47420E-01 5.66236E+00-8.86513E-14-4.69347E-13
 -1      2631 2.78754E+01-4.49512E+00 2.04656E-03-3.05733E+00 2.70617E-15-6.11206E-13
 -1      2632 3.26461E+01 6.66911E+00-1.19592E-01-3.43096E-01 4.96825E-14-5.52794E-13
 -1      2633 3.16792E+01 4.37686E+00-1.16281E-01-1.17740E+00 3.30652E-13-4.04399E-13
 -1      2634 7.78905E+00-3.44801E+00 1.50615E-01-5.60846E+00 9.16489E-14-4.50057E-13
 -1      2635 2.03561E+01-6.42068E+00 1.30166E-01 5.13584E+00-3.64986E-13-1.63498E-13
 -1      2636 3.16798E+01 7.32639E+00-9.09136E-02 1.31456E+00 3.66207E-13-2.09055E-13
 -1      2637 3.13161E+01-7.02198E-01-5.23102E-02 3.39779E-01 1.56056E-14-1.15297E-13
 -1      2638 2.12459E+01-5.98642E+00 3.30985E-02-6.48060E+00-1.71807E-13-9.29853E-13
 -1      2639 2.36021E+01-5.85910E+00-2.24331E-02-5.17730E+00-1.90986E-13-9.28542E-13
 -1      2640 1.97006E+01-5.68206E+00 1.35918E-01-6.72969E+00-3.88134E-13-1.01029E-12
 -1      2641 1.98440E+01 2.76534E+00-6.30051E-03 5.16008E-01 2.49401E-13-5.34712E-13
 -1      2642 1.98191E+01 2.81506E+00-5.70788E-03 3.65214E-01 1.95571E-13-5.47773E-13
 -1      2643 1.98021E+01 2.85257E+00-5.61553E-03 2.29768E-01 1.56489E-13-5.72228E-13
 -1      2644 1.97936E+01 2.86945E+00-5.43290E-03 7.52019E-02 1.03875E-13-5.62585E-13
 -1      2645 1.99486E+01 2.50124E+00 3.62985E-03 2.65124E-01 1.63310E-13-5.26215E-13
 -1      2646 2.00432E+01 2.32390E+00-1.09563E-02 1.04538E+00 4.00167E-13-3.89219E-13
 -1      2647 1.99787E+01 2.47359E+00-6.35248E-03 9.10057E-01 3.66337E-13-4.47519E-13
 -1      2648 2.02063E+01 1.91424E+00-1.65110E-02 1.23375E+00 4.40051E-13-2.60076E-13
 -1      2649 2.01246E+01 2.14684E+00-4.77665E-03 1.13158E+00 4.04703E-13-3.21190E-13
 -1      2650 2.01896E+01 1.89142E+00 7.79077E-03 9.27310E-01 3.73399E-13-3.30994E-13
 -1      2651 2.04446E+01 1.01303E+00 2.22116E-03 1.15380E+00 4.44294E-13 1.11832E-13
 -1      2652 2.04014E+01 1.27482E+00-7.16631E-03 1.26627E+00 4.65657E-13 1.33522E-14
 -1      2653 2.03147E+01 8.46377E-01 6.14067E-03 8.98522E-01 4.15681E-13 6.77423E-14
 -1      2654 1.46397E+01-3.75527E+00 1.98703E-01-7.11019E+00-2.03587E-13 1.29063E-13
 -1      2655 1.84516E+01-5.22562E+00 1.65885E-02-7.56023E+00-2.11470E-13 4.18110E-13
 -1      2656 2.12388E+01-5.56835E-01-5.67514E-03-5.72725E-01 2.16669E-14 1.24523E-13
 -1      2657 2.09000E+01-4.05633E-01 1.63453E-04-7.99054E-01 2.73761E-17 3.84536E-13
 -1      2658 2.09345E+01-3.10703E-01-4.23720E-03-9.04472E-01 2.57585E-15 2.64068E-13
 -1      2659 2.20331E+01-5.92106E+00 1.65581E-01-6.52584E+00-2.48870E-13-1.52192E-13
 -1      2660 2.48207E+01-6.60392E+00-2.40969E-02-5.74502E+00-2.17937E-13-3.40266E-13
 -1      2661 7.31096E+00-9.01566E-01 2.32913E-01 1.85807E+00 4.82531E-14 8.98170E-14
 -1      2662 7.31489E+00-7.35070E-01 1.12804E-01-7.98562E-01 4.04364E-14 1.73639E-13
 -1      2663 2.03221E+01 1.05996E+00 6.04415E-03-8.56559E-01-3.36545E-13-3.35799E-13
 -1      2664 2.02279E+01 8.15495E-01-5.44858E-03-6.13157E-01-3.08302E-13-3.37256E-13
 -1      2665 2.02171E+01 6.28012E-01 8.70648E-03-4.36199E-01-2.73880E-13-3.12177E-13
 -1      2666 2.01327E+01 4.75508E-01-3.29437E-03-2.77730E-01-2.35430E-13-2.95413E-13
 -1      2667 2.02629E+01 8.94164E-01 1.40597E-03-5.72213E-01-2.90938E-13-3.47491E-13
 -1      2668 2.01067E+01 3.62677E-01 6.68014E-03-1.57955E-01-2.23895E-13-2.79237E-13
 -1      2669 2.00475E+01 2.67874E-01-1.75711E-03-6.02823E-02-2.01646E-13-2.78353E-13
 -1      2670 2.01955E+01 5.29085E-01-1.50580E-03-2.61281E-01-2.37266E-13-3.15253E-13
 -1      2671 2.00214E+01 1.97601E-01 4.53492E-03 1.50238E-02-1.85821E-13-2.70910E-13
 -1      2672 1.99855E+01 1.38030E-01-8.32409E-04 7.15977E-02-1.46924E-13-2.74140E-13
 -1      2673 2.01265E+01 2.98787E-01-2.04949E-03-5.48490E-02-2.02018E-13-2.86168E-13
 -1      2674 1.99646E+01 9.38732E-02 2.90180E-03 1.14952E-01-1.28134E-13-2.79291E-13
 -1      2675 1.99464E+01 5.65750E-02-2.96463E-04 1.44375E-01-1.39116E-13-3.00228E-13
 -1      2676 2.00699E+01 1.52526E-01-1.88869E-03 7.24326E-02-1.60780E-13-3.01796E-13
 -1      2677 1.99314E+01 2.91018E-02 1.73570E-03 1.65830E-01-1.36990E-13-2.98591E-13
 -1      2678 1.99254E+01 6.32781E-03 8.52385E-07 1.77700E-01-1.20423E-13-3.11586E-13
 -1      2679 2.00287E+01 6.01209E-02-1.51735E-03 1.43398E-01-1.47921E-13-3.04054E-13
 -1      2680 1.99156E+01-1.01625E-02 9.30867E-04 1.84751E-01-1.11971E-13-3.13341E-13
 -1      2681 1.99174E+01-2.32852E-02 1.57825E-04 1.85646E-01-9.00176E-14-3.04152E-13
 -1      2682 2.00013E+01 3.08480E-03-1.13759E-03 1.76101E-01-1.05250E-13-2.89117E-13
 -1      2683 1.99115E+01-3.24343E-02 3.92446E-04 1.83702E-01-8.76775E-14-2.78835E-13
 -1      2684 1.99179E+01-3.91051E-02 2.35257E-04 1.78130E-01-1.19291E-13-2.74849E-13
 -1      2685 1.99846E+01-3.03330E-02-8.17264E-04 1.83941E-01-9.03173E-14-2.27459E-13
 -1      2686 1.99149E+01-4.33382E-02 4.63515E-05 1.71014E-01-1.39661E-13-2.48329E-13
 -1      2687 1.99236E+01-4.57183E-02 2.69163E-04 1.62056E-01-1.34041E-13-2.45554E-13
 -1      2688 1.99757E+01-4.78863E-02-5.68900E-04 1.76569E-01-1.07457E-13-2.23564E-13
 -1      2689 1.99226E+01-4.66858E-02-1.64082E-04 1.52424E-01-1.32558E-13-2.04864E-13
 -1      2690 1.99322E+01-4.62483E-02 2.81107E-04 1.42167E-01-1.08546E-13-2.22045E-13
 -1      2691 1.99722E+01-5.48273E-02-3.86042E-04 1.60792E-01-1.00872E-13-1.91309E-13
 -1      2692 1.99326E+01-4.50741E-02-2.81533E-04 1.31837E-01-1.49680E-13-2.26634E-13
 -1      2693 1.99422E+01-4.28110E-02 2.84754E-04 1.21681E-01-1.60359E-13-2.34650E-13
 -1      2694 1.99723E+01-5.47454E-02-2.57325E-04 1.41331E-01-1.40538E-13-1.90884E-13
 -1      2695 1.99435E+01-4.02426E-02-3.37749E-04 1.11880E-01-1.10994E-13-2.55928E-13
 -1      2696 1.99528E+01-3.67945E-02 2.89522E-04 1.02763E-01-9.13074E-14-2.15943E-13
 -1      2697 1.99748E+01-5.00666E-02-1.71436E-04 1.21417E-01-1.17094E-13-1.67962E-13
 -1      2698 1.99545E+01-3.32996E-02-3.56173E-04 9.43235E-02-1.04951E-13-1.57079E-13
 -1      2699 1.99634E+01-2.90431E-02 3.02539E-04 8.68854E-02-5.25401E-14-1.44414E-13
 -1      2700 1.99788E+01-4.23679E-02-1.18644E-04 1.03244E-01-5.35313E-14-1.54542E-13
 -1      2701 1.99656E+01-2.48760E-02-3.54107E-04 8.03925E-02-7.04172E-14-2.09317E-13
 -1      2702 1.99741E+01-1.99835E-02 3.29719E-04 7.51022E-02-9.24819E-14-2.36496E-13
 -1      2703 1.99838E+01-3.25884E-02-9.10883E-05 8.83321E-02-1.14291E-13-1.51445E-13
 -1      2704 1.99766E+01-1.52308E-02-3.44457E-04 7.10094E-02-1.09451E-13-2.41857E-13
 -1      2705 1.99850E+01-9.71193E-03 3.76449E-04 6.82634E-02-5.81237E-14-2.76041E-13
 -1      2706 1.99896E+01-2.11744E-02-8.24737E-05 7.77952E-02-1.17195E-13-1.41643E-13
 -1      2707 1.99878E+01-4.32386E-03-3.37194E-04 6.69839E-02-7.23332E-15-3.20478E-13
 -1      2708 1.99966E+01 1.94709E-03 4.48029E-04 6.71846E-02-2.83518E-14-3.19612E-13
 -1      2709 1.99961E+01-8.18046E-03-8.75955E-05 7.25590E-02-8.51947E-14-1.91250E-13
 -1      2710 1.99998E+01 8.13694E-03-3.40587E-04 6.91630E-02-7.22162E-14-2.57957E-13
 -1      2711 2.00094E+01 1.54059E-02 5.49977E-04 7.27843E-02-5.03819E-14-2.65157E-13
 -1      2712 2.00033E+01 6.66350E-03-1.01744E-04 7.35277E-02-5.02681E-14-3.27697E-13
 -1      2713 2.00130E+01 2.26714E-02-3.62308E-04 7.85564E-02-6.36495E-14-2.45065E-13
 -1      2714 2.00242E+01 3.12993E-02 6.88211E-04 8.61997E-02-5.69858E-14-2.56134E-13
 -1      2715 2.00115E+01 2.39134E-02-1.19953E-04 8.17190E-02-6.32757E-14-2.65331E-13
 -1      2716 2.00282E+01 4.00212E-02-4.10506E-04 9.64432E-02-5.90825E-14-2.58276E-13
 -1      2717 2.00416E+01 5.04886E-02 8.69076E-04 1.08890E-01 1.00961E-14-2.70436E-13
 -1      2718 2.00208E+01 4.43956E-02-1.36058E-04 9.83755E-02-4.73042E-14-2.36008E-13
 -1      2719 2.00460E+01 6.11625E-02-4.94906E-04 1.24469E-01 4.91363E-14-2.87295E-13
 -1      2720 2.00625E+01 7.40817E-02 1.09917E-03 1.42730E-01 4.63176E-14-2.62901E-13
 -1      2721 2.00313E+01 6.92131E-02-1.41454E-04 1.25057E-01 6.28614E-15-2.31205E-13
 -1      2722 2.00671E+01 8.73323E-02-6.27958E-04 1.64733E-01 1.47631E-14-3.07479E-13
 -1      2723 2.00876E+01 1.03465E-01 1.38487E-03 1.90100E-01-3.56246E-14-3.32446E-13
 -1      2724 2.00429E+01 9.97680E-02-1.23458E-04 1.63718E-01 4.91744E-14-3.02999E-13
 -1      2725 2.00919E+01 1.20062E-01-8.26000E-04 2.19877E-01-1.03362E-13-3.59550E-13
 -1      2726 2.01172E+01 1.40333E-01 1.73134E-03 2.53965E-01-1.12031E-13-4.27175E-13
 -1      2727 2.00551E+01 1.37794E-01-6.31954E-05 2.16772E-01-1.42809E-13-3.00883E-13
 -1      2728 2.01203E+01 1.61196E-01-1.11017E-03 2.93150E-01-1.17603E-13-4.65472E-13
 -1      2729 2.01514E+01 1.86689E-01 2.14101E-03 3.37932E-01-7.59732E-14-4.65354E-13
 -1      2730 2.00668E+01 1.85376E-01 6.69083E-05 2.87128E-01-1.28242E-13-3.55158E-13
 -1      2731 2.01518E+01 2.12862E-01-1.50651E-03 3.88452E-01 5.54038E-14-4.49420E-13
 -1      2732 2.01891E+01 2.44750E-01 2.61132E-03 4.46264E-01 1.82490E-13-3.96653E-13
 -1      2733 2.00761E+01 2.44918E-01 3.05594E-04 3.78203E-01 1.82941E-14-3.77264E-13
 -1      2734 2.01845E+01 2.77282E-01-2.04404E-03 5.10319E-01 1.79064E-13-4.26563E-13
 -1      2735 2.02282E+01 3.16628E-01 3.13244E-03 5.83788E-01 8.48061E-14-3.62349E-13
 -1      2736 2.00794E+01 3.18962E-01 7.03828E-04 4.93865E-01 1.84438E-13-3.59761E-13
 -1      2737 2.02150E+01 3.56256E-01-2.74865E-03 6.63782E-01 9.85395E-14-3.13793E-13
 -1      2738 2.02646E+01 4.03521E-01 3.68672E-03 7.55628E-01 1.92511E-13-2.71208E-13
 -1      2739 2.00714E+01 4.09689E-01 1.32118E-03 6.38301E-01 1.32109E-13-2.79395E-13
 -1      2740 2.02379E+01 4.49962E-01-3.62899E-03 8.54041E-01 2.40474E-13-2.05891E-13
 -1      2741 2.02923E+01 5.03953E-01 4.25523E-03 9.66622E-01 2.12359E-13-1.15301E-13
 -1      2742 2.00439E+01 5.17756E-01 2.21037E-03 8.15780E-01 1.99891E-13-1.65941E-13
 -1      2743 2.02462E+01 5.54437E-01-4.64745E-03 1.08582E+00 1.59045E-13-7.32425E-14
 -1      2744 2.03040E+01 6.10234E-01 4.84263E-03 1.22029E+00 1.93335E-13 4.46264E-14
 -1      2745 1.99862E+01 6.39895E-01 3.37618E-03 1.03033E+00 2.11360E-13-1.24830E-13
 -1      2746 2.02326E+01 6.56712E-01-5.66069E-03 1.36234E+00 6.79036E-14-4.53056E-15
 -1      2747 2.02940E+01 7.01882E-01 5.53908E-03 1.51719E+00 3.56427E-14 1.54212E-14
 -1      2748 1.98858E+01 7.64308E-01 4.68544E-03 1.28551E+00 1.48408E-13-8.21912E-15
 -1      2749 2.01948E+01 7.26129E-01-6.29538E-03 1.68381E+00 9.86960E-15 1.47825E-13
 -1      2750 2.02661E+01 7.34363E-01 6.60773E-03 1.85263E+00 2.11644E-14 1.51129E-13
 -1      2751 1.97321E+01 8.62437E-01 5.69356E-03 1.58466E+00 1.02523E-13 1.61628E-13
 -1      2752 2.01480E+01 7.00435E-01-5.70032E-03 2.04492E+00-2.62072E-14 1.90055E-13
 -1      2753 2.02514E+01 6.23326E-01 9.03142E-03 2.21276E+00 4.10459E-14 9.19654E-14
 -1      2754 1.95254E+01 8.75384E-01 5.34967E-03 1.93206E+00 1.50546E-14 1.93041E-13
 -1      2755 2.01484E+01 4.69315E-01-1.27862E-03 2.43229E+00 8.66131E-14 7.17265E-15
 -1      2756 2.03397E+01 2.24419E-01 1.46007E-02 2.57094E+00 1.74723E-13 9.17575E-14
 -1      2757 1.92963E+01 6.97141E-01 2.15783E-03 2.33541E+00 1.44204E-14 4.39155E-14
 -1      2758 2.03458E+01-1.47533E-01 1.34399E-02 2.81205E+00 1.90909E-13-4.27553E-14
 -1      2759 2.07289E+01-6.80213E-01 2.24485E-02 2.86555E+00 1.82382E-13 2.68396E-14
 -1      2760 1.91448E+01 1.44449E-01-6.39693E-03 2.81017E+00 5.31864E-14-1.16197E-13
 -1      2761 2.10450E+01-1.35636E+00 5.09766E-02 3.06810E+00 1.48868E-13-1.04582E-14
 -1      2762 2.17775E+01-2.25585E+00 3.96391E-02 2.93838E+00-4.80553E-14 2.85362E-16
 -1      2763 1.93150E+01-1.05271E+00-2.48298E-02 3.34117E+00 8.21331E-14-4.91210E-13
 -1      2764 2.27352E+01-3.29029E+00 1.04271E-01 2.93149E+00-1.83520E-13 2.11988E-13
 -1      2765 2.40131E+01-4.35968E+00 6.22083E-02 2.38258E+00-2.88158E-13 1.43051E-13
 -1      2766 2.02780E+01-3.08237E+00-6.79729E-02 3.77157E+00-1.84089E-14-2.13926E-13
 -1      2767 1.62918E+01-4.08144E+00 4.69605E-02 7.85734E+00-1.00114E-13-2.52492E-13
 -1      2768 1.33719E+01-3.48484E+00 2.28454E-01 7.44491E+00-2.49800E-16-1.74999E-13
 -1      2769 1.25205E+01-2.36069E+00 9.15551E-02 6.70738E+00 1.76401E-13-1.21819E-13
 -1      2770 2.51016E+01-4.11750E+00 3.42581E-02-3.34205E+00-1.46133E-13-5.10498E-13
 -1      2771 2.38049E+01-3.15464E+00 9.77235E-02-4.04271E+00-1.53988E-13-3.49200E-13
 -1      2772 2.26012E+01-2.30233E+00 5.29216E-03-4.33375E+00-1.60073E-13-2.84477E-13
 -1      2773 2.17774E+01-1.17350E+00 6.95757E-02-4.52459E+00-1.52279E-13-3.38749E-13
 -1      2774 2.06967E+01-1.03961E+00-3.98905E-02-4.96812E+00-1.34849E-13-3.24161E-13
 -1      2775 2.23253E+01-3.13635E+00-4.14319E-02-5.09308E+00-1.83558E-13-3.24622E-13
 -1      2776 1.99847E+01 1.89087E-01-1.01347E-03-1.15671E-02 2.05510E-13-1.74180E-13
 -1      2777 2.00331E+01 2.61692E-01 5.92715E-03 6.40888E-02 2.27740E-13-1.36386E-13
 -1      2778 1.99335E+01 9.01563E-02-3.96291E-04-1.12637E-01 1.57669E-13-1.92660E-13
 -1      2779 1.99593E+01 1.35576E-01 3.82812E-03-7.08081E-02 1.73546E-13-1.74682E-13
 -1      2780 2.00725E+01 2.12416E-01-2.21359E-03-1.40086E-02 2.10049E-13-2.17930E-13
 -1      2781 2.00644E+01 3.47798E-01-1.87218E-03 1.62707E-01 2.32890E-13-1.33656E-13
 -1      2782 2.01417E+01 4.61797E-01 7.98022E-03 2.89270E-01 2.47162E-13-9.84224E-14
 -1      2783 2.01409E+01 3.91209E-01-2.23610E-03 1.54410E-01 2.49174E-13-2.13193E-13
 -1      2784 1.98941E+01-8.71582E-03 1.31621E-04-1.84142E-01 1.06576E-13-1.94761E-13
 -1      2785 1.98938E+01 8.05176E-03 1.31274E-03-1.78363E-01 1.35276E-13-1.75586E-13
 -1      2786 1.98940E+01-2.98921E-02 2.17864E-04-1.83605E-01 3.20137E-14-1.62664E-13
 -1      2787 1.98875E+01-2.06762E-02 6.22323E-04-1.86349E-01 6.49047E-14-1.92198E-13
 -1      2788 1.99694E+01-1.38836E-02-9.99225E-04-1.83930E-01 7.31922E-14-1.81133E-13
 -1      2789 1.99008E+01-4.03078E-02 2.53822E-04-1.71249E-01 6.66307E-14-1.95545E-13
 -1      2790 1.98910E+01-3.61250E-02 1.73197E-04-1.78780E-01 4.85692E-14-1.92469E-13
 -1      2791 1.99595E+01-3.78722E-02-6.90630E-04-1.83465E-01 6.62830E-14-2.05918E-13
 -1      2792 1.99113E+01-4.35742E-02 2.64787E-04-1.52847E-01 5.29586E-14-1.50568E-13
 -1      2793 1.99002E+01-4.27179E-02-1.05477E-04-1.62628E-01 9.07474E-14-1.61364E-13
 -1      2794 1.99564E+01-4.93448E-02-4.61182E-04-1.71249E-01 6.52096E-14-2.07370E-13
 -1      2795 1.99236E+01-4.21479E-02 2.65766E-04-1.32331E-01 2.72449E-14-2.01880E-13
 -1      2796 1.99123E+01-4.34594E-02-2.66220E-04-1.42655E-01 4.00471E-14-1.61573E-13
 -1      2797 1.99575E+01-5.24903E-02-2.98069E-04-1.53054E-01 5.51812E-14-1.87714E-13
 -1      2798 1.99364E+01-3.76785E-02 2.66221E-04-1.12346E-01 6.45264E-14-1.72962E-13
 -1      2799 1.99256E+01-4.03863E-02-3.47804E-04-1.22077E-01 1.12811E-14-1.78736E-13
 -1      2800 1.99614E+01-5.01618E-02-1.87561E-04-1.32845E-01 2.99736E-14-2.54766E-13
 -1      2801 1.99491E+01-3.12310E-02 2.72749E-04-9.46636E-02 1.01282E-13-1.55561E-13
 -1      2802 1.99389E+01-3.48463E-02-3.78576E-04-1.03043E-01 1.23172E-13-1.68401E-13
 -1      2803 1.99667E+01-4.42678E-02-1.17521E-04-1.13311E-01 6.89847E-14-2.31840E-13
 -1      2804 1.99613E+01-2.34383E-02 2.90321E-04-8.04872E-02 8.32437E-14-9.25681E-14
 -1      2805 1.99518E+01-2.76813E-02-3.79045E-04-8.69973E-02 1.06072E-13-1.15229E-13
 -1      2806 1.99730E+01-3.60286E-02-7.81369E-05-9.62738E-02 6.39939E-14-2.17891E-13
 -1      2807 1.99733E+01-1.46149E-02 3.22838E-04-7.06831E-02 1.01645E-13-1.32366E-13
 -1      2808 1.99643E+01-1.93592E-02-3.63835E-04-7.49426E-02 7.22194E-14-1.30993E-13
 -1      2809 1.99798E+01-2.61560E-02-6.18845E-05-8.29934E-02 8.26971E-14-1.24569E-13
 -1      2810 1.99853E+01-4.84734E-03 3.73324E-04-6.59494E-02 5.60461E-14-8.76036E-14
 -1      2811 1.99765E+01-1.00747E-02-3.43116E-04-6.76392E-02 1.11336E-13-1.03064E-13
 -1      2812 1.99870E+01-1.49892E-02-6.31038E-05-7.44004E-02 7.94977E-14-1.04067E-13
 -1      2813 1.99981E+01 5.92489E-03 4.43842E-04-6.69328E-02-5.14210E-14-2.41962E-14
 -1      2814 1.99888E+01 1.65637E-04-3.23640E-04-6.57463E-02 2.60129E-14-1.83688E-14
 -1      2815 1.99947E+01-2.60523E-03-7.76580E-05-7.12647E-02 1.39638E-14-5.69035E-14
 -1      2816 2.00122E+01 1.78304E-02 5.35144E-04-7.42991E-02 1.15986E-14-1.39416E-13
 -1      2817 2.00020E+01 1.14649E-02-3.09343E-04-6.99150E-02-2.89674E-14-2.29494E-14
 -1      2818 2.00033E+01 1.10801E-02-1.02676E-04-7.43111E-02 2.79753E-15 1.04645E-14
 -1      2819 2.00286E+01 3.09761E-02 6.45994E-04-8.87553E-02-5.74161E-14-1.94600E-13
 -1      2820 2.00167E+01 2.39532E-02-3.01557E-04-8.08353E-02-8.74779E-15-1.53425E-13
 -1      2821 2.00129E+01 2.62110E-02-1.36390E-04-8.42860E-02-1.02438E-14-8.43819E-14
 -1      2822 2.00483E+01 4.53364E-02 7.72130E-04-1.11018E-01-7.57710E-14-1.25976E-13
 -1      2823 2.00340E+01 3.76884E-02-2.98808E-04-9.92323E-02-4.26226E-14-1.84132E-13
 -1      2824 2.00242E+01 4.28741E-02-1.78169E-04-1.01973E-01-6.22860E-14-1.66740E-13
 -1      2825 2.00725E+01 6.06058E-02 9.04820E-04-1.41715E-01 4.40467E-15-1.65957E-13
 -1      2826 2.00550E+01 5.25306E-02-2.96166E-04-1.25804E-01-4.57340E-14-1.33623E-13
 -1      2827 2.00379E+01 6.09511E-02-2.28810E-04-1.28154E-01-7.61397E-14-1.71047E-13
 -1      2828 2.01026E+01 7.60050E-02 1.02898E-03-1.81200E-01 1.15961E-13-1.80194E-13
 -1      2829 2.00810E+01 6.79728E-02-2.84086E-04-1.61084E-01 1.08322E-13-1.99130E-13
 -1      2830 2.00548E+01 7.99252E-02-2.91179E-04-1.63493E-01 6.69559E-14-3.27529E-13
 -1      2831 2.01401E+01 9.00259E-02 1.12088E-03-2.29262E-01 1.15016E-13-3.15957E-13
 -1      2832 2.01136E+01 8.29195E-02-2.46736E-04-2.05205E-01 1.17228E-13-2.52262E-13
 -1      2833 2.00761E+01 9.86259E-02-3.71307E-04-2.08340E-01 1.79127E-13-3.45966E-13
 -1      2834 2.01872E+01 1.00118E-01 1.14567E-03-2.84695E-01 2.57852E-14-3.30819E-13
 -1      2835 2.01548E+01 9.54022E-02-1.59895E-04-2.57546E-01 9.53928E-14-3.47112E-13
 -1      2836 2.01033E+01 1.14902E-01-4.79968E-04-2.62419E-01 9.94540E-14-3.97310E-13
 -1      2837 2.02459E+01 1.02337E-01 1.05490E-03-3.44712E-01 4.20558E-15-1.96973E-13
 -1      2838 2.02068E+01 1.02243E-01 1.11924E-05-3.16222E-01 5.28805E-15-2.90781E-13
 -1      2839 2.01388E+01 1.25226E-01-6.34606E-04-3.24369E-01-1.48891E-14-4.70871E-13
 -1      2840 2.03193E+01 9.10252E-02 7.84798E-04-4.04190E-01-9.60982E-14-2.32778E-13
 -1      2841 2.02728E+01 9.87079E-02 3.13072E-04-3.77406E-01 4.23856E-14-1.63737E-13
 -1      2842 2.01857E+01 1.24277E-01-8.60968E-04-3.91131E-01-8.99896E-15-3.61705E-13
 -1      2843 2.04108E+01 5.86779E-02 2.56227E-04-4.54778E-01-2.84058E-13-2.30797E-13
 -1      2844 2.03564E+01 7.82490E-02 8.02441E-04-4.34486E-01-2.50110E-13-2.59413E-13
 -1      2845 2.02484E+01 1.04593E-01-1.19283E-03-4.57152E-01-1.27408E-13-3.27040E-13
 -1      2846 2.05245E+01-3.68789E-03-6.21469E-04-4.83968E-01-1.88528E-13-1.58846E-13
 -1      2847 2.04622E+01 3.25696E-02 1.53753E-03-4.77093E-01-2.01794E-13-2.36201E-13
 -1      2848 2.03333E+01 5.65304E-02-1.66638E-03-5.13420E-01-2.16749E-13-4.33963E-13
 -1      2849 2.06650E+01-1.05149E-01-1.93676E-03-4.74388E-01-1.20071E-13-1.51374E-13
 -1      2850 2.05954E+01-4.75968E-02 2.55583E-03-4.90175E-01-1.54724E-13-1.76036E-13
 -1      2851 2.04485E+01-3.10483E-02-2.30269E-03-5.46403E-01-2.10758E-13-3.24074E-13
 -1      2852 2.08359E+01-2.51685E-01-3.74323E-03-4.03820E-01-2.20482E-14-9.80089E-14
 -1      2853 2.07612E+01-1.70335E-01 3.82771E-03-4.53464E-01-2.19717E-14-5.68546E-14
 -1      2854 2.06040E+01-1.68654E-01-3.06731E-03-5.37108E-01-1.28830E-13-2.97790E-13
 -1      2855 2.10373E+01-4.40335E-01-5.98084E-03-2.46910E-01-1.31899E-13-8.84617E-14
 -1      2856 2.09622E+01-3.38178E-01 5.17204E-03-3.42077E-01-1.06342E-13-7.88332E-14
 -1      2857 2.08099E+01-3.61602E-01-3.80306E-03-4.60764E-01-1.07599E-13-1.24322E-13
 -1      2858 2.12609E+01-6.50266E-01-8.30066E-03 1.98927E-02 3.78290E-14 2.09501E-14
 -1      2859 2.11943E+01-5.40775E-01 6.17521E-03-1.29583E-01 1.36141E-14 6.64297E-14
 -1      2860 2.10725E+01-6.02066E-01-4.13341E-03-2.88225E-01-1.29618E-13 8.80288E-14
 -1      2861 2.14834E+01-8.32282E-01-9.84571E-03 4.07868E-01 1.51698E-14 1.81206E-13
 -1      2862 2.14393E+01-7.44849E-01 6.07854E-03 2.04314E-01-1.69408E-14 8.26748E-14
 -1      2863 2.13865E+01-8.57229E-01-3.32289E-03 8.86886E-03-2.95054E-14 1.20654E-13
 -1      2864 2.16600E+01-9.03158E-01-9.12463E-03 8.97850E-01 1.23658E-13 2.75289E-13
 -1      2865 2.16572E+01-8.84830E-01 3.77939E-03 6.58548E-01 1.06368E-13 1.47041E-13
 -1      2866 2.17233E+01-1.05672E+00-5.15412E-04 4.45509E-01 8.32851E-14 1.30847E-13
 -1      2867 2.17267E+01-7.59278E-01-4.42712E-03 1.41597E+00 3.17255E-14 3.68066E-13
 -1      2868 2.17826E+01-8.64116E-01-1.65158E-03 1.18679E+00 7.75570E-14 2.81220E-13
 -1      2869 2.20197E+01-1.08904E+00 4.59506E-03 9.99334E-01 1.09766E-13 2.96916E-13
 -1      2870 2.16232E+01-3.26213E-01 4.58426E-03 1.81827E+00 1.51423E-14 4.79336E-13
 -1      2871 2.17423E+01-5.84499E-01-9.49335E-03 1.67361E+00 4.38866E-14 4.44724E-13
 -1      2872 2.21813E+01-8.29216E-01 1.03087E-02 1.57743E+00 2.68844E-15 3.04953E-13
 -1      2873 2.13385E+01 3.57710E-01 1.37899E-02 1.91332E+00 2.10877E-15 5.62403E-13
 -1      2874 2.15001E+01-1.42202E-02-1.64974E-02 1.93593E+00 5.29611E-14 6.13803E-13
 -1      2875 2.21196E+01-2.11113E-01 1.26139E-02 1.99681E+00-7.25451E-14 6.29635E-13
 -1      2876 2.09625E+01 1.08010E+00 1.61064E-02 1.55926E+00-5.52518E-14 5.79911E-13
 -1      2877 2.11190E+01 7.24905E-01-1.76940E-02 1.78952E+00-2.60420E-14 4.95563E-13
 -1      2878 2.18312E+01 6.63477E-01 6.38977E-03 2.02390E+00 1.32205E-14 6.16074E-13
 -1      2879 2.06636E+01 1.52797E+00 8.23064E-03 7.94196E-01 5.18648E-14 4.30816E-13
 -1      2880 2.07667E+01 1.35389E+00-8.06023E-03 1.18440E+00 3.39529E-14 5.51636E-13
 -1      2881 2.14607E+01 1.48786E+00-5.87217E-03 1.51878E+00 4.53422E-14 3.84060E-13
 -1      2882 2.05954E+01 1.46800E+00-5.32047E-03-1.20978E-01 1.37601E-13 2.25207E-13
 -1      2883 2.06127E+01 1.56591E+00 6.26925E-03 2.89783E-01 5.77312E-14 2.76401E-13
 -1      2884 2.12345E+01 1.90417E+00-6.77099E-03 5.90510E-01 8.26390E-14 2.04085E-13
 -1      2885 2.07369E+01 9.69833E-01-1.56968E-02-8.26882E-01 5.05248E-14 2.99892E-13
 -1      2886 2.06965E+01 1.26274E+00 1.60839E-02-5.39899E-01 3.74596E-14 3.34443E-13
 -1      2887 2.12750E+01 1.67022E+00-5.26366E-03-3.85448E-01-3.64662E-14 3.02929E-13
 -1      2888 2.09191E+01 3.26475E-01-1.92263E-02-1.12630E+00 1.56280E-13 2.47680E-13
 -1      2889 2.08746E+01 6.54508E-01 1.43011E-02-1.02327E+00 1.87828E-13 3.52541E-13
 -1      2890 2.14846E+01 9.99351E-01 1.06333E-02-1.01552E+00 1.23014E-13 3.76499E-13
 -1      2891 2.10118E+01-1.60797E-01-1.11504E-02-1.05439E+00-4.52226E-15 2.15350E-13
 -1      2892 2.10070E+01 6.68393E-02 5.97701E-03-1.09743E+00-2.84725E-14 4.90953E-14
 -1      2893 2.16573E+01 2.30883E-01 1.60148E-02-1.16103E+00 1.41738E-13 2.47837E-13
 -1      2894 2.16072E+01-2.84087E-01 2.02514E-02-9.36931E-01-6.25384E-14 1.50254E-13
 -1      2895 3.01742E+01 2.29836E+00-9.66114E-02 2.24272E+00 1.33490E-13 1.78746E-14
 -1      2896 2.96770E+01 4.22675E+00-2.22794E-01 2.37222E+00 9.04554E-14 1.70419E-13
 -1      2897 2.27554E+01-1.84053E+00 1.91454E-02 4.26720E+00-1.50649E-13-4.94077E-13
 -1      2898 2.32107E+01-2.02589E+00 2.95144E-03 3.47259E+00 2.27552E-14-1.12019E-13
 -1      2899 2.16850E+01-6.82166E-01 1.14528E-02-2.23444E-01-5.30236E-14 1.25196E-13
 -1      2900 2.32732E+01-1.65394E+00 2.84701E-02 2.47474E+00 3.17628E-14 2.32941E-13
 -1      2901 2.30985E+01-1.65962E+00-2.83024E-02 1.75201E+00 2.50529E-14 5.06816E-13
 -1      2902 2.39730E+01-2.43344E+00 4.85651E-03 2.82091E+00-1.38498E-13 1.26883E-13
 -1      2903 1.66474E+01 2.45203E-01-3.41129E-02 5.37240E+00 1.18624E-13-2.76300E-13
 -1      2904 1.86892E+01-3.49060E-01 1.38320E-01 5.84600E+00-6.53366E-14-5.05953E-13
 -1      2905 1.35820E+01 1.80728E+00 1.70867E-02 2.48760E+00 1.60722E-13 1.08677E-13
 -1      2906 1.49550E+01 1.39569E+00 1.42093E-01 4.07375E+00 1.04207E-13-2.46032E-13
 -1      2907 1.34676E+01 1.94829E+00 1.16238E-01-1.76975E+00-4.72539E-14-2.65066E-14
 -1      2908 1.29924E+01 2.02929E+00 6.20146E-02 1.35748E-01 1.05048E-13 1.27218E-13
 -1      2909 1.66224E+01 6.29874E-01 1.33014E-01-4.77661E+00-2.57527E-13 1.32984E-13
 -1      2910 1.47808E+01 1.14178E+00-9.69532E-03-3.74994E+00 5.91194E-15 2.41987E-13
 -1      2911 1.29392E+01 6.57897E-01 1.32967E-01-3.18276E+00 5.00502E-14 1.62231E-13
 -1      2912 3.09052E+01-2.59766E+00-3.88499E-02-2.37031E+00-1.97613E-13-3.89022E-13
 -1      2913 2.96452E+01-1.92857E+00-1.38567E-02 3.14555E-01 6.19296E-14-3.62765E-14
 -1      2914 3.02178E+01 8.32052E-02-2.00366E-01 1.45315E+00 1.39305E-13-3.49720E-15
 -1      2915 2.89392E+01 7.50071E-01-7.60895E-02 2.19330E+00 7.81944E-14 1.68296E-13
 -1      2916 2.86950E+01-4.43714E+00-1.87298E-01 2.76984E+00-2.60507E-13 8.54039E-14
 -1      2917 2.68733E+01-5.28125E+00 1.11403E-01 4.60111E+00-3.33039E-13 3.75117E-14
 -1      2918 1.32944E+01-4.14148E+00 1.56849E-01-6.98666E+00-1.12563E-13-5.93720E-13
 -1      2919 1.61555E+01-4.94669E+00 5.41180E-02-7.26635E+00-2.08694E-13-8.71747E-13
 -1      2920 2.94495E+01 7.19857E+00-2.00799E-01 1.10513E-01 3.99819E-13-1.23321E-13
 -1      2921 2.94432E+01 6.57199E+00-1.57070E-01-7.75151E-01 4.00235E-13-4.05981E-13
 -1      2922 8.79851E+00-2.26382E+00 7.74004E-02 3.94094E+00 7.64111E-14-6.53172E-13
 -1      2923 6.69432E+00-1.43753E+00 1.97217E-01 1.74783E+00 2.06633E-13-6.06654E-13
 -1      2924 2.64603E+01-5.11032E+00 2.26528E-02-3.24154E+00-1.31825E-13-4.98157E-13
 -1      2925 2.83557E+01-4.12110E+00-1.30900E-01-1.68520E+00 1.69274E-14-2.29802E-13
 -1      2926 2.23907E+01-5.58622E+00-5.83844E-02 3.90287E+00-3.10668E-13 6.42403E-14
 -1      2927 1.91400E+01-4.96643E+00 1.56676E-01 4.91086E+00-2.26791E-13-2.34014E-13
 -1      2928 2.04458E+01-1.32036E+00-1.06130E-02 5.70857E+00-1.31653E-13-7.42031E-13
 -1      2929 2.18912E+01-1.76924E+00 6.74297E-02 5.25122E+00-7.97591E-14-4.85617E-13
 -1      2930 2.29086E+01-2.82469E+00-5.36356E-03 4.91037E+00-1.34873E-13-4.06515E-13
 -1      2931 2.28220E+01-1.21608E+00 3.35750E-02 9.83585E-01 7.36204E-14 4.11892E-13
 -1      2932 2.23581E+01-1.12336E+00-2.69919E-02 3.89817E-01 4.84654E-14 2.22843E-13
 -1      2933 2.36440E+01-1.66897E+00 2.77405E-02 1.11949E+00 7.27630E-14 3.23972E-13
 -1      2934 2.71994E+01-5.14409E+00 1.98975E-02-2.71550E+00-2.62013E-13-4.42743E-13
 -1      2935 2.55493E+01-4.88152E+00 8.73649E-02-3.70907E+00-1.86344E-13-4.99427E-13
 -1      2936 2.16691E+01-5.91967E+00 8.45384E-02 7.44965E+00-5.56499E-14-3.49195E-13
 -1      2937 8.84793E+00-1.19302E+00 2.25853E-01-3.62803E+00 8.67501E-14 1.87572E-13
 -1      2938 1.09695E+01-2.57997E+00 6.61843E-02-6.06381E+00-5.11258E-14-5.78426E-14
 -1      2939 3.03157E+01 1.33573E-01-1.87170E-01-7.50658E-01-8.36831E-15-5.50393E-13
 -1      2940 3.01748E+01-2.12764E+00 2.39201E-02 5.85192E-01-1.20709E-13-2.49190E-13
 -1      2941 2.01812E+01 2.27409E+00 1.58491E-04-1.42445E+00-3.65831E-13-4.96917E-13
 -1      2942 7.87745E+00-1.96840E+00 1.73292E-01-4.60342E+00-2.99483E-14-4.40176E-13
 -1      2943 1.02401E+01-3.13703E+00 1.00152E-01-6.35216E+00-7.21506E-14-4.66405E-13
 -1      2944 1.30927E+01-2.94470E+00 1.67946E-01-6.17865E+00-1.01003E-13-5.11369E-13
 -1      2945 2.94948E+01 6.31330E+00-1.44127E-01 1.90095E+00 1.38278E-13 2.91156E-13
 -1      2946 2.95025E+01 7.14405E+00-2.07219E-01 9.67097E-01 4.00929E-13 1.54703E-13
 -1      2947 2.78098E+01 6.41638E+00-1.26708E-01 5.92881E-01 2.00007E-13 2.40953E-13
 -1      2948 5.95201E+00-1.11178E+00 1.54216E-01-2.52616E-01 2.26173E-13-5.27578E-13
 -1      2949 6.35933E+00-1.23899E+00 1.28818E-01-2.59068E+00 1.68941E-13-4.51750E-13
 -1      2950 1.51630E+01-4.53469E+00 2.65678E-02 5.64081E+00-1.06012E-13-4.44866E-13
 -1      2951 1.22283E+01-3.06526E+00 2.05448E-01 5.00110E+00 3.85247E-14-6.04683E-13
 -1      2952 1.16973E+01-1.92663E+00 1.37035E-01 4.07159E+00 4.51306E-14-5.91957E-13
 -1      2953 1.83989E+01-3.58908E+00 1.36506E-01 4.60137E+00-9.07607E-14-3.56742E-13
 -1      2954 2.98867E+01 5.01987E+00-2.01163E-01-1.32198E+00 4.78950E-13-4.80213E-13
 -1      2955 3.00518E+01 3.02551E+00-1.14453E-01-1.44929E+00 1.73930E-13-4.89275E-13
 -1      2956 1.99229E+01 2.59628E+00-7.88174E-03 7.94085E-01 3.43473E-13-4.84998E-13
 -1      2957 1.98789E+01 2.68837E+00-6.14676E-03 6.45180E-01 2.90412E-13-5.19949E-13
 -1      2958 1.99974E+01 2.38869E+00 4.30460E-03 5.16445E-01 2.51147E-13-4.83784E-13
 -1      2959 2.00790E+01 2.19091E+00 5.46836E-03 7.45651E-01 3.23198E-13-4.27983E-13
 -1      2960 1.98739E+01 2.69706E+00-6.02794E-03-6.34994E-01-1.21647E-13-6.03445E-13
 -1      2961 1.99169E+01 2.60736E+00-7.66583E-03-7.84282E-01-1.70146E-13-6.01993E-13
 -1      2962 1.99054E+01 2.85761E-02-4.88846E-05-1.64490E-01 1.55783E-13-1.89134E-13
 -1      2963 1.99153E+01 5.66944E-02 2.33964E-03-1.44708E-01 1.63576E-13-1.74262E-13
 -1      2964 2.00222E+01 9.94289E-02-1.83244E-03-1.13092E-01 1.75774E-13-2.12480E-13
 -1      2965 1.99891E+01 2.87913E-02-1.38974E-03-1.64366E-01 1.42091E-13-2.12021E-13
 -1      2966 3.16970E+01-1.64985E+00-2.96522E-02 5.48208E-01-1.23096E-14-6.71518E-13
 -1      2967 3.04953E+01-4.11765E+00 3.58929E-02-3.88455E-01-2.18978E-13-7.26308E-13
 -1      2968 2.39545E+01-5.75809E+00-5.42075E-02 6.53103E+00-1.71377E-13-1.77936E-13
 -1      2969 2.05399E+01-4.94802E+00 1.16420E-01 7.43391E+00-1.17059E-13-5.16649E-13
 -1      2970 1.99318E+01 2.53878E+00 3.40367E-03 4.59814E-03 7.14309E-14-5.28488E-13
 -1      2971 1.97929E+01 2.87032E+00-5.47692E-03-6.18743E-02 6.13002E-14-5.66609E-13
 -1      2972 1.98004E+01 2.85568E+00-5.53123E-03-2.16509E-01 8.33728E-15-5.79431E-13
 -1      2973 2.03240E+01 1.60356E+00 1.62479E-03 1.27006E+00 4.50752E-13-1.21007E-13
 -1      2974 1.44894E+01-2.35059E+00 1.67326E-01-6.23234E+00-1.28786E-13 5.08482E-14
 -1      2975 2.82545E+01 4.61386E+00-1.07879E-01 2.28042E+00 8.05467E-14 3.26045E-13
 -1      2976 2.08418E+01-4.83183E+00 1.20049E-01-6.58128E+00-2.89213E-13-5.02792E-14
 -1      2977 9.81079E+00-2.04646E-01 1.97049E-01-2.11458E+00 1.51872E-13 1.65035E-13
 -1      2978 2.54969E+01-5.42993E+00 8.47658E-02 2.04265E+00-3.79752E-13 2.23085E-13
 -1      2979 1.99715E+01 2.48756E+00-6.15020E-03-9.00869E-01-1.97147E-13-5.84548E-13
 -1      2980 2.00262E+01 2.35103E+00-1.16744E-02-1.04088E+00-2.70871E-13-5.81262E-13
 -1      2981 2.00725E+01 2.20433E+00 5.73253E-03-7.38473E-01-1.80171E-13-5.53361E-13
 -1      2982 2.70029E+01-5.83881E+00-9.57878E-02-3.94441E+00-1.89224E-13-3.81140E-13
 -1      2983 2.72654E+01-5.53533E+00 2.80049E-02 9.99599E-01-3.01439E-13 2.47580E-14
 -1      2984 2.36179E+01-5.11521E+00-4.74808E-02-5.42664E+00-1.68254E-13-4.43038E-13
 -1      2985 2.03025E+01 1.73024E+00-9.29884E-03-1.32241E+00-3.93358E-13-4.14375E-13
 -1      2986 2.02884E+01 1.32792E+00-6.62972E-03-1.03824E+00-3.62010E-13-3.75688E-13
 -1      2987 2.55429E+01-5.05260E+00 5.79691E-02 5.02434E+00-4.04544E-13-8.42139E-14
 -1      2988 2.22661E+01-8.70173E-01-2.74665E-03-1.95795E-01 1.86118E-14 2.06775E-13
 -1      2989 1.95812E+01-2.04312E+00 2.39379E-02 6.31018E+00-4.32987E-14-5.26773E-13
 -1      2990 1.49559E+01-1.45824E-01 7.47770E-02 5.30648E+00 1.08989E-13-3.06324E-13
 -1      2991 1.20307E+01 1.19496E+00 1.66917E-01 1.48206E+00 1.16204E-13 1.09412E-13
 -1      2992 1.96228E+01-5.60348E-01 9.52625E-02-5.31358E+00-9.14026E-14 1.02768E-13
 -1      2993 1.80354E+01-1.38725E-01-2.42865E-02-5.27008E+00-2.24747E-13 1.57575E-13
 -1      2994 1.65664E+01-7.37367E-01 6.42860E-02-5.53925E+00-2.38531E-13 9.93511E-14
 -1      2995 2.02084E+01-1.70901E+00 7.34945E-02-5.55585E+00-1.58429E-13-1.46825E-13
 -1      2996 2.02197E+01 6.74972E-01-1.85933E-03 4.18427E-01 2.84682E-13-1.62084E-13
 -1      2997 2.01792E+01 6.16865E-01 1.50067E-03 4.46131E-01 2.67855E-13-9.01791E-14
 -1      2998 2.84388E+01-3.05427E+00-4.24430E-02-1.47824E-01-3.92871E-14 4.35069E-14
 -1      2999 2.88396E+01-3.17448E+00-5.64479E-03 1.35315E+00-3.21899E-13-3.72771E-13
 -1      3000 2.02109E+01 6.97569E-01 6.56584E-03 5.58235E-01 3.18757E-13-5.80406E-14
 -1      3001 2.95066E+01 1.30111E+00-9.61445E-02-1.37005E+00-3.67067E-14-4.38649E-13
 -1      3002 2.85148E+01-1.62034E-01-5.91476E-02-9.13369E-01-4.07105E-14-4.21132E-13
 -1      3003 2.80742E+01 2.23389E+00-9.50317E-02-1.68195E+00 1.54141E-13-5.62578E-13
 -1      3004 2.51194E+01-5.59011E+00-7.44661E-03-4.03908E+00-2.60944E-13-6.14432E-13
 -1      3005 2.59363E+01-5.00590E+00-5.40272E-03-2.62417E+00-2.49498E-13-1.48548E-13
 -1      3006 2.35153E+01-5.41258E+00 8.08039E-02-4.60955E+00-2.64969E-13-5.18276E-13
 -1      3007 1.89204E+01-5.06627E+00 9.89858E-02-6.39326E+00-2.82593E-13-7.73819E-13
 -1      3008 2.82433E+01 5.14649E+00-1.31745E-01-1.09370E+00 3.80973E-13-2.56024E-13
 -1      3009 8.85777E+00-9.57271E-01 1.91768E-01-3.39773E+00-2.26139E-14-3.64847E-13
 -1      3010 8.18909E+00-5.20935E-01 2.00319E-01 6.91424E-01 1.67300E-13-5.65104E-13
 -1      3011 2.03171E+01 1.39036E+00 8.87677E-03 1.02334E+00 4.01360E-13-1.46828E-13
 -1      3012 2.02779E+01 1.41262E+00 2.19073E-03-9.42496E-01-3.31692E-13-4.14431E-13
 -1      3013 1.98161E+01 2.82018E+00-5.67325E-03-3.51626E-01-3.01159E-14-5.78470E-13
 -1      3014 1.98404E+01 2.77190E+00-6.15229E-03-5.05183E-01-8.77258E-14-5.91007E-13
 -1      3015 1.99931E+01 2.39629E+00 4.26322E-03-5.07423E-01-1.07765E-13-5.63946E-13
 -1      3016 1.99465E+01 2.50475E+00 3.59051E-03-2.55624E-01-2.97422E-14-5.41256E-13
 -1      3017 9.41856E+00-6.95412E-01 2.09826E-01 3.20943E+00 8.02275E-14 3.06699E-14
 -1      3018 2.02356E+01 1.47605E+00-9.97088E-03 8.07036E-01 3.41168E-13-2.88231E-13
 -1      3019 2.02001E+01 1.66667E+00-1.37773E-03 7.44309E-01 3.16503E-13-3.51330E-13
 -1      3020 2.02596E+01 7.55184E-01 6.69678E-03 7.55003E-01 3.77062E-13 1.97904E-14
 -1      3021 1.36786E+01-1.02469E+00 8.79712E-02 5.67696E+00 7.49678E-14-3.00898E-13
 -1      3022 1.16415E+01-2.87740E-01 2.23119E-01 4.76939E+00 1.73764E-13 3.14193E-14
 -1      3023 2.02695E+01 7.13597E-01 4.36311E-03-3.45334E-01-2.35814E-13-3.62140E-13
 -1      3024 2.02263E+01 5.50833E-01-3.68101E-03-2.14681E-01-2.14916E-13-3.54221E-13
 -1      3025 2.02209E+01 4.22992E-01 4.14436E-03-1.19633E-01-2.07732E-13-3.10899E-13
 -1      3026 2.01814E+01 3.15024E-01-2.31189E-03-3.48748E-02-1.80416E-13-3.14443E-13
 -1      3027 2.02718E+01 5.79693E-01-3.10305E-04-1.88464E-01-1.94173E-13-3.49617E-13
 -1      3028 2.01672E+01 2.31370E-01 3.17569E-03 2.64760E-02-1.67752E-13-2.86702E-13
 -1      3029 2.01369E+01 1.60732E-01-1.31103E-03 7.73282E-02-1.66617E-13-3.19872E-13
 -1      3030 2.02372E+01 3.31550E-01-8.57456E-04-2.59406E-02-1.59264E-13-3.02649E-13
 -1      3031 2.01201E+01 1.06634E-01 2.23905E-03 1.13088E-01-1.52415E-13-3.02691E-13
 -1      3032 2.00988E+01 6.13708E-02-6.33731E-04 1.40147E-01-1.18945E-13-3.04153E-13
 -1      3033 2.01963E+01 1.67021E-01-1.01631E-03 7.65269E-02-1.60506E-13-2.74108E-13
 -1      3034 2.00825E+01 2.72948E-02 1.47035E-03 1.57685E-01-8.62928E-14-2.78096E-13
 -1      3035 2.00688E+01-5.86868E-04-1.99889E-04 1.68764E-01-8.17199E-14-2.52826E-13
 -1      3036 2.01572E+01 6.04181E-02-9.68718E-04 1.34171E-01-1.07131E-13-2.80974E-13
 -1      3037 2.00543E+01-2.09798E-02 8.87646E-04 1.74051E-01-7.33171E-14-2.26724E-13
 -1      3038 2.00462E+01-3.69419E-02 6.64004E-05 1.74913E-01-7.53365E-14-2.20403E-13
 -1      3039 2.01231E+01-6.04149E-03-8.40754E-04 1.60355E-01-6.09120E-14-2.48466E-13
 -1      3040 2.00340E+01-4.79853E-02 4.69101E-04 1.72489E-01-8.94044E-14-1.97248E-13
 -1      3041 2.00300E+01-5.58242E-02 2.22148E-04 1.67274E-01-7.09253E-14-1.72901E-13
 -1      3042 2.00947E+01-4.47531E-02-6.95494E-04 1.65741E-01-5.19606E-14-2.39483E-13
 -1      3043 2.00199E+01-6.05288E-02 1.81278E-04 1.60453E-01-1.11055E-13-1.53936E-13
 -1      3044 2.00187E+01-6.28975E-02 3.07153E-04 1.52076E-01-1.05755E-13-1.75724E-13
 -1      3045 2.00719E+01-6.44281E-02-5.59497E-04 1.58354E-01-8.41751E-14-1.24901E-13
 -1      3046 2.00107E+01-6.33582E-02-8.99160E-06 1.43213E-01-1.06943E-13-1.61162E-13
 -1      3047 2.00112E+01-6.20943E-02 3.48986E-04 1.33692E-01-1.17836E-13-1.51015E-13
 -1      3048 2.00541E+01-7.11976E-02-4.42248E-04 1.44021E-01-1.00670E-13-1.44178E-13
 -1      3049 2.00050E+01-5.97455E-02-1.30297E-04 1.24423E-01-1.65491E-13-1.33637E-13
 -1      3050 2.00068E+01-5.60868E-02 3.67033E-04 1.15142E-01-1.13957E-13-1.53846E-13
 -1      3051 2.00405E+01-6.93318E-02-3.45602E-04 1.26864E-01-9.40236E-14-1.16955E-13
 -1      3052 2.00020E+01-5.18728E-02-2.05827E-04 1.06595E-01-6.36833E-14-1.96558E-13
 -1      3053 2.00046E+01-4.66051E-02 3.75241E-04 9.85053E-02-6.45927E-14-1.96373E-13
 -1      3054 2.00304E+01-6.17235E-02-2.68036E-04 1.09753E-01-1.32144E-13-1.85406E-13
 -1      3055 2.00010E+01-4.10970E-02-2.53955E-04 9.14635E-02-9.19630E-14-1.84524E-13
 -1      3056 2.00042E+01-3.46593E-02 3.83793E-04 8.52404E-02-9.14702E-14-1.90373E-13
 -1      3057 2.00231E+01-5.02241E-02-2.06571E-04 9.46841E-02-9.11889E-14-2.34370E-13
 -1      3058 2.00015E+01-2.81395E-02-2.89174E-04 8.02791E-02-1.28116E-13-1.70589E-13
 -1      3059 2.00052E+01-2.06996E-02 4.00284E-04 7.64451E-02-1.56705E-13-1.56262E-13
 -1      3060 2.00181E+01-3.58849E-02-1.57518E-04 8.30817E-02-7.79447E-14-1.95149E-13
 -1      3061 2.00031E+01-1.32218E-02-3.23215E-04 7.40342E-02-1.82428E-13-1.69824E-13
 -1      3062 2.00073E+01-4.72914E-03 4.30409E-04 7.30540E-02-1.34243E-13-2.55370E-13
 -1      3063 2.00147E+01-1.91317E-02-1.16668E-04 7.60395E-02-1.82121E-13-2.28138E-13
 -1      3064 2.00055E+01 3.84060E-03-3.66075E-04 7.36383E-02-7.32371E-14-3.50095E-13
 -1      3065 2.00102E+01 1.36192E-02 4.78443E-04 7.59942E-02-5.81224E-14-3.54909E-13
 -1      3066 2.00124E+01 1.10977E-04-7.91665E-05 7.45062E-02-1.40116E-13-2.64215E-13
 -1      3067 2.00084E+01 2.35766E-02-4.26955E-04 8.00560E-02-2.88248E-14-3.22438E-13
 -1      3068 2.00137E+01 3.50363E-02 5.47383E-04 8.63077E-02-1.60562E-14-2.61125E-13
 -1      3069 2.00106E+01 2.23356E-02-3.90442E-05 7.94287E-02-1.73440E-14-3.82327E-13
 -1      3070 2.00115E+01 4.68257E-02-5.15187E-04 9.44140E-02-6.55861E-14-1.98512E-13
 -1      3071 2.00175E+01 6.05151E-02 6.38836E-04 1.05247E-01-2.17289E-14-2.08476E-13
 -1      3072 2.00085E+01 4.83999E-02 1.14924E-05 9.18593E-02 2.49985E-14-2.95120E-13
 -1      3073 2.00142E+01 7.47268E-02-6.41146E-04 1.18082E-01-5.79833E-15-2.16878E-13
 -1      3074 2.00210E+01 9.13499E-02 7.52591E-04 1.34346E-01 5.59574E-14-2.00736E-13
 -1      3075 2.00052E+01 7.95017E-02 8.30910E-05 1.13032E-01-1.87646E-15-2.43518E-13
 -1      3076 2.00158E+01 1.08726E-01-8.17211E-04 1.52735E-01 6.11023E-14-2.37058E-13
 -1      3077 2.00232E+01 1.29150E-01 8.85826E-04 1.75472E-01-3.13375E-15-2.86876E-13
 -1      3078 1.99996E+01 1.17174E-01 1.90685E-04 1.44408E-01 1.55824E-14-1.83891E-13
 -1      3079 2.00150E+01 1.50595E-01-1.05874E-03 2.00382E-01-1.08877E-13-2.70892E-13
 -1      3080 2.00227E+01 1.75856E-01 1.03196E-03 2.30843E-01-1.76581E-13-2.86160E-13
 -1      3081 1.99896E+01 1.63292E-01 3.55388E-04 1.87690E-01-2.34579E-14-2.69621E-13
 -1      3082 2.00097E+01 2.02437E-01-1.38504E-03 2.63378E-01-1.68302E-13-2.51180E-13
 -1      3083 2.00170E+01 2.33735E-01 1.17929E-03 3.03021E-01-9.90741E-14-2.72658E-13
 -1      3084 1.99728E+01 2.20076E-01 6.06849E-04 2.44797E-01-1.08561E-13-2.51325E-13
 -1      3085 1.99966E+01 2.66660E-01-1.82018E-03 3.44381E-01-3.24554E-14-3.13514E-13
 -1      3086 2.00021E+01 3.05302E-01 1.30988E-03 3.94843E-01 8.41206E-14-2.31804E-13
 -1      3087 1.99451E+01 2.90050E-01 9.85882E-04 3.17786E-01-8.13660E-14-2.37140E-13
 -1      3088 1.99710E+01 3.45824E-01-2.39341E-03 4.46274E-01 1.58536E-13-2.47623E-13
 -1      3089 1.99725E+01 3.93071E-01 1.40018E-03 5.09300E-01 1.60499E-13-2.30937E-13
 -1      3090 1.99008E+01 3.75911E-01 1.54674E-03 4.08728E-01 9.34162E-14-2.19039E-13
 -1      3091 1.99256E+01 4.42243E-01-3.13929E-03 5.72021E-01 1.73603E-13-2.03174E-13
 -1      3092 1.99195E+01 4.98945E-01 1.42641E-03 6.49343E-01 1.89359E-13-1.56599E-13
 -1      3093 1.98319E+01 4.80160E-01 2.35767E-03 5.19522E-01 2.25428E-13-2.35587E-13
 -1      3094 1.98501E+01 5.57080E-01-4.09792E-03 7.24495E-01 1.31095E-13-7.47852E-14
 -1      3095 1.98317E+01 6.22915E-01 1.38085E-03 8.17669E-01 1.50153E-13-5.53311E-14
 -1      3096 1.97270E+01 6.04317E-01 3.49669E-03 6.51715E-01 2.31032E-13-2.45145E-13
 -1      3097 1.97309E+01 6.88498E-01-5.31745E-03 9.06385E-01 1.07737E-13-8.43842E-14
 -1      3098 1.96941E+01 7.60525E-01 1.31135E-03 1.01664E+00 2.15186E-13-7.95543E-14
 -1      3099 1.95709E+01 7.47351E-01 5.03762E-03 8.06473E-01 1.26379E-13-1.83081E-14
 -1      3100 1.95508E+01 8.28178E-01-6.86050E-03 1.12048E+00 1.65976E-13-1.62321E-13
 -1      3101 1.94897E+01 8.98230E-01 1.40998E-03 1.24876E+00 5.68574E-14-8.71101E-14
 -1      3102 1.93440E+01 9.02789E-01 7.01980E-03 9.85072E-01 1.46870E-13-1.04129E-13
 -1      3103 1.92911E+01 9.55142E-01-8.79940E-03 1.37103E+00 1.03812E-13-1.81362E-14
 -1      3104 1.92032E+01 1.00543E+00 2.20917E-03 1.51860E+00 1.39981E-13 2.69783E-14
 -1      3105 1.90227E+01 1.05374E+00 9.40718E-03 1.19075E+00 1.03232E-13-1.99671E-13
 -1      3106 1.89371E+01 1.02536E+00-1.11705E-02 1.66741E+00 6.11675E-14 5.78823E-15
 -1      3107 1.88310E+01 1.02055E+00 4.54482E-03 1.83759E+00-6.97476E-14-7.34279E-14
 -1      3108 1.85818E+01 1.16476E+00 1.20685E-02 1.43347E+00 1.11478E-13-2.58460E-13
 -1      3109 1.84903E+01 9.56381E-01-1.37448E-02 2.02869E+00-1.62112E-13-5.92730E-14
 -1      3110 1.83989E+01 8.40103E-01 1.17193E-02 2.22946E+00-4.62185E-14-1.93114E-13
 -1      3111 1.80007E+01 1.16821E+00 1.45310E-02 1.73825E+00-5.73917E-14-2.80394E-13
 -1      3112 1.79927E+01 6.16447E-01-1.05782E-02 2.50522E+00-5.34146E-14-2.47113E-13
 -1      3113 1.80020E+01 2.74521E-01 2.86618E-02 2.75602E+00-8.19486E-14-3.79789E-13
 -1      3114 1.72731E+01 9.53062E-01 1.85339E-02 2.16603E+00-1.25858E-13-4.98200E-13
 -1      3115 1.75932E+01-2.16012E-01 1.50240E-02 3.16171E+00-2.23242E-14-4.16705E-13
 -1      3116 1.79160E+01-9.50675E-01 6.22534E-02 3.45905E+00 1.09893E-13-4.41676E-13
 -1      3117 1.64321E+01 2.70209E-01 9.62748E-03 2.84002E+00-9.76233E-14-5.10250E-13
 -1      3118 1.75345E+01-2.25610E+00 9.81461E-02 4.25007E+00 1.48669E-13-4.53255E-13
 -1      3119 1.96093E+01-4.35137E+00 1.55085E-01 7.55798E+00-1.63619E-13-5.02182E-13
 -1      3120 1.80354E+01-3.35815E+00 5.85864E-02 7.34814E+00-1.64618E-13-4.23134E-13
 -1      3121 2.01405E+01 2.18099E+00-3.67801E-04-1.20859E+00-3.03887E-13-5.33754E-13
 -1      3122 2.60523E+01-4.62568E+00-1.12951E-01 3.89095E+00-4.44873E-13-3.20707E-13
 -1      3123 2.43525E+01-4.31870E+00 1.24025E-01 5.26909E+00-2.25334E-13-3.84649E-13
 -1      3124 2.01390E+01 2.27827E-01-1.72385E-03-2.48243E-02 1.85843E-13-2.11042E-13
 -1      3125 2.01758E+01 3.13853E-01 3.88034E-03 4.35896E-02 2.27542E-13-2.08248E-13
 -1      3126 2.01891E+01 4.16049E-01-2.76155E-03 1.23925E-01 2.34178E-13-2.27055E-13
 -1      3127 2.02347E+01 5.47130E-01 4.61103E-03 2.33884E-01 2.53820E-13-2.09375E-13
 -1      3128 2.02431E+01 4.41010E-01-9.20088E-04 1.08264E-01 2.23208E-13-2.10791E-13
 -1      3129 2.00207E+01-4.51220E-02 1.57682E-04-1.75148E-01 6.98857E-14-1.62718E-13
 -1      3130 2.00253E+01-3.37270E-02 6.68989E-04-1.77666E-01 9.06507E-14-1.31913E-13
 -1      3131 2.00379E+01-1.86789E-02-3.88191E-05-1.76408E-01 5.56074E-14-1.39711E-13
 -1      3132 2.00475E+01 2.35094E-03 1.19228E-03-1.70763E-01 9.13020E-14-1.45861E-13
 -1      3133 2.00924E+01-2.52761E-02-7.94703E-04-1.68476E-01 7.68073E-14-1.02409E-13
 -1      3134 2.00022E+01-6.04883E-02 3.24839E-04-1.45711E-01 4.67811E-14-1.92478E-13
 -1      3135 2.00012E+01-5.99838E-02 6.02828E-05-1.54970E-01 6.80221E-14-1.57113E-13
 -1      3136 1.99984E+01-5.72065E-02 3.50446E-04-1.26621E-01 6.22018E-14-2.76213E-13
 -1      3137 1.99960E+01-5.95808E-02-9.60419E-05-1.36314E-01 4.50360E-14-2.46818E-13
 -1      3138 2.00363E+01-6.85323E-02-3.78211E-04-1.39044E-01 7.75804E-14-2.37486E-13
 -1      3139 1.99969E+01-4.98100E-02 3.60461E-04-1.08409E-01 1.79572E-14-2.30730E-13
 -1      3140 1.99937E+01-5.40771E-02-1.92214E-04-1.17379E-01 3.88092E-14-2.67166E-13
 -1      3141 2.00262E+01-6.39648E-02-2.87754E-04-1.21161E-01 3.06911E-14-2.69077E-13
 -1      3142 1.99970E+01-3.96561E-02 3.66190E-04-9.28236E-02 1.86541E-14-1.13165E-13
 -1      3143 1.99934E+01-4.52026E-02-2.49675E-04-1.00278E-01 4.14593E-14-1.54266E-13
 -1      3144 2.00190E+01-5.48120E-02-2.17532E-04-1.04316E-01-3.54403E-14-1.57364E-13
 -1      3145 1.99985E+01-2.75216E-02 3.75782E-04-8.10970E-02 7.59617E-14-3.69196E-14
 -1      3146 1.99945E+01-3.40118E-02-2.84794E-04-8.64708E-02 5.72486E-14-8.11755E-14
 -1      3147 2.00142E+01-4.25371E-02-1.63997E-04-9.02106E-02 9.97668E-15-4.68701E-14
 -1      3148 2.00010E+01-1.37579E-02 3.95090E-04-7.41646E-02 4.52260E-14-3.61640E-14
 -1      3149 1.99967E+01-2.10578E-02-3.09719E-04-7.70182E-02 7.25982E-14-6.86929E-14
 -1      3150 2.00110E+01-2.79580E-02-1.23535E-04-8.00682E-02 5.39328E-14-3.13548E-14
 -1      3151 2.00044E+01 1.57836E-03 4.28153E-04-7.28231E-02-2.98579E-14 5.55895E-15
 -1      3152 1.99997E+01-6.53398E-03-3.33283E-04-7.27718E-02 2.00273E-14-3.68225E-14
 -1      3153 2.00091E+01-1.14241E-02-9.29041E-05-7.48423E-02 2.00775E-14-1.70019E-14
 -1      3154 2.00086E+01 1.86064E-02 4.77495E-04-7.78399E-02-2.25301E-14-4.37672E-14
 -1      3155 2.00033E+01 9.60258E-03-3.61492E-04-7.45059E-02-2.77552E-14 1.41174E-15
 -1      3156 2.00081E+01 7.03262E-03-6.95660E-05-7.53677E-02-1.82410E-15-1.00439E-13
 -1      3157 2.00137E+01 3.74969E-02 5.44123E-04-9.00139E-02-1.04919E-15-4.60047E-14
 -1      3158 2.00077E+01 2.75117E-02-3.97609E-04-8.30042E-02 3.80524E-14 1.35145E-15
 -1      3159 2.00076E+01 2.75563E-02-5.18804E-05-8.24644E-02-4.38646E-15-4.60123E-14
 -1      3160 2.00200E+01 5.83281E-02 6.27309E-04-1.10189E-01-6.38994E-14-1.18270E-13
 -1      3161 2.00128E+01 4.73379E-02-4.41884E-04-9.90991E-02-1.94509E-14-9.78598E-14
 -1      3162 2.00074E+01 5.03173E-02-3.95434E-05-9.69964E-02 2.10583E-14-1.03418E-13
 -1      3163 2.00276E+01 8.09030E-02 7.24176E-04-1.39211E-01-5.15218E-15-1.87096E-13
 -1      3164 2.00189E+01 6.90499E-02-4.90799E-04-1.23659E-01-4.17179E-14-1.12421E-13
 -1      3165 2.00073E+01 7.53339E-02-3.43373E-05-1.19883E-01 9.82890E-15-1.42287E-13
 -1      3166 2.00372E+01 1.04512E-01 8.29092E-04-1.77817E-01 9.85117E-14-3.52731E-13
 -1      3167 2.00265E+01 9.22329E-02-5.35747E-04-1.57518E-01 7.60533E-14-3.24405E-13
 -1      3168 2.00072E+01 1.02247E-01-4.13128E-05-1.52059E-01 1.09706E-13-1.98342E-13
 -1      3169 2.00497E+01 1.27619E-01 9.32854E-04-2.26442E-01 2.01940E-13-2.90462E-13
 -1      3170 2.00365E+01 1.15817E-01-5.61064E-04-2.01325E-01 1.19640E-13-3.50949E-13
 -1      3171 2.00076E+01 1.30028E-01-7.05463E-05-1.94369E-01 9.08381E-14-3.19167E-13
 -1      3172 2.00667E+01 1.47467E-01 1.02165E-03-2.84916E-01 6.43057E-14-2.66477E-13
 -1      3173 2.00500E+01 1.37723E-01-5.41383E-04-2.55307E-01 1.99211E-13-2.31973E-13
 -1      3174 2.00093E+01 1.56594E-01-1.39587E-04-2.47387E-01 1.43221E-13-1.66765E-13
 -1      3175 2.00906E+01 1.59607E-01 1.07559E-03-3.52030E-01-1.42013E-14-3.49144E-13
 -1      3176 2.00692E+01 1.54430E-01-4.38412E-04-3.18902E-01 4.81266E-15-3.44502E-13
 -1      3177 2.00140E+01 1.78337E-01-2.76587E-04-3.11131E-01 8.77473E-14-1.46002E-13
 -1      3178 2.01255E+01 1.57392E-01 1.06639E-03-4.24942E-01-1.35275E-13-2.59161E-13
 -1      3179 2.00976E+01 1.60476E-01-1.97486E-04-3.90250E-01-5.41375E-14-3.35173E-13
 -1      3180 2.00246E+01 1.89568E-01-5.23782E-04-3.84646E-01-6.59575E-14-1.76457E-13
 -1      3181 2.01771E+01 1.31572E-01 9.53187E-04-4.98396E-01-5.17281E-14-3.03744E-13
 -1      3182 2.01404E+01 1.47987E-01 2.55111E-04-4.65493E-01-1.00051E-13-2.35355E-13
 -1      3183 2.00464E+01 1.81951E-01-9.40293E-04-4.65429E-01-1.26176E-13-1.38738E-13
 -1      3184 2.02542E+01 7.02395E-02 6.74315E-04-5.63736E-01-2.43186E-13-3.47348E-13
 -1      3185 2.02054E+01 1.06399E-01 1.01187E-03-5.37869E-01-1.24947E-13-2.83628E-13
 -1      3186 2.00873E+01 1.44084E-01-1.60181E-03-5.48622E-01-8.77364E-14-1.18062E-13
 -1      3187 2.03686E+01-4.03927E-02 1.33178E-04-6.07728E-01-2.49873E-13-2.72418E-13
 -1      3188 2.03037E+01 2.27445E-02 2.17546E-03-5.96553E-01-2.57985E-13-3.15431E-13
 -1      3189 2.01594E+01 6.15588E-02-2.59242E-03-6.25914E-01-2.53547E-13-2.37227E-13
 -1      3190 2.05353E+01-2.13528E-01-8.16099E-04-6.11268E-01-2.25504E-13-1.94994E-13
 -1      3191 2.04497E+01-1.16874E-01 3.83246E-03-6.25283E-01-2.33418E-13-2.72378E-13
 -1      3192 2.02792E+01-8.18925E-02-3.97770E-03-6.84042E-01-2.92946E-13-1.88537E-13
 -1      3193 2.07703E+01-4.56354E-01-2.36949E-03-5.48347E-01-1.92561E-13-1.27811E-13
 -1      3194 2.06605E+01-3.23548E-01 5.98607E-03-6.00910E-01-1.77053E-13-1.73528E-13
 -1      3195 2.04685E+01-3.01076E-01-5.73538E-03-7.02808E-01-2.43313E-13-1.16185E-13
 -1      3196 2.10861E+01-7.60263E-01-4.70608E-03-3.86392E-01-1.72810E-13 1.23803E-14
 -1      3197 2.09521E+01-5.98159E-01 8.40574E-03-4.92652E-01-2.48940E-13-8.10251E-14
 -1      3198 2.07515E+01-6.02111E-01-7.63481E-03-6.52926E-01-2.40343E-13-2.09276E-13
 -1      3199 2.14818E+01-1.08567E+00-7.62806E-03-8.99255E-02-3.49292E-14 2.27248E-14
 -1      3200 2.13318E+01-9.19192E-01 1.05435E-02-2.63502E-01-6.29968E-14 1.04339E-14
 -1      3201 2.11492E+01-9.70196E-01-9.07613E-03-4.94913E-01-2.09792E-13-1.59554E-13
 -1      3202 2.19279E+01-1.34318E+00-1.02031E-02 3.66945E-01 1.86830E-13-1.75182E-14
 -1      3203 2.17828E+01-1.22514E+00 1.11259E-02 1.22091E-01 7.09989E-14 4.24317E-14
 -1      3204 2.16657E+01-1.34888E+00-8.54588E-03-1.81709E-01 2.09983E-14 3.41901E-14
 -1      3205 2.23517E+01-1.38337E+00-1.00662E-02 9.72195E-01 3.48697E-14-2.20832E-14
 -1      3206 2.22457E+01-1.39796E+00 7.77622E-03 6.76451E-01 1.06812E-13-2.79014E-14
 -1      3207 2.22648E+01-1.61735E+00-4.35577E-03 3.25227E-01 1.43711E-14-1.39800E-13
 -1      3208 2.26351E+01-1.02702E+00-4.60521E-03 1.62774E+00-1.29614E-13 2.48808E-13
 -1      3209 2.26054E+01-1.26575E+00-2.06848E-03 1.34555E+00 2.55159E-15 1.58044E-13
 -1      3210 2.28446E+01-1.58107E+00 4.17039E-03 1.01765E+00-8.41006E-14 1.34023E-13
 -1      3211 2.26586E+01-1.67863E-01 7.15154E-03 2.11468E+00-1.22373E-13 4.49973E-13
 -1      3212 2.27243E+01-6.66827E-01-1.67983E-02 1.95937E+00-1.74469E-13 3.83990E-13
 -1      3213 2.32367E+01-1.03279E+00 1.25000E-02 1.76630E+00-2.43062E-13 3.51919E-13
 -1      3214 2.24002E+01 1.04305E+00 1.64577E-02 2.12369E+00 5.56048E-14 3.74187E-13
 -1      3215 2.25295E+01 4.06394E-01-2.95374E-02 2.22022E+00 6.03957E-14 4.41352E-13
 -1      3216 2.32773E+01 1.17719E-01 1.69298E-02 2.27659E+00-6.35362E-14 1.56596E-13
 -1      3217 2.20070E+01 2.11624E+00 9.44701E-04 1.49091E+00 1.03664E-13 3.37803E-13
 -1      3218 2.21503E+01 1.62010E+00-3.42323E-02 1.85874E+00-1.21075E-14 3.32043E-13
 -1      3219 2.29813E+01 1.55181E+00 3.89043E-04 2.16908E+00 3.62210E-14 1.55026E-13
 -1      3220 2.18499E+01 2.46848E+00-4.95514E-03 3.75562E-01-1.34216E-14 2.77444E-13
 -1      3221 2.18963E+01 2.40715E+00-7.12055E-03 8.75029E-01 1.24732E-13 3.63025E-13
 -1      3222 2.26219E+01 2.66376E+00-1.03898E-03 1.26999E+00 1.09474E-13 9.51557E-14
 -1      3223 2.19486E+01 1.90110E+00-3.42422E-02-6.81329E-01-2.95484E-14 2.09699E-13
 -1      3224 2.18961E+01 2.29055E+00-1.70806E-03-2.71540E-01 5.27876E-15 2.08332E-13
 -1      3225 2.25652E+01 2.81369E+00-1.08581E-03 3.32692E-02 4.47524E-14 2.03389E-13
 -1      3226 2.21961E+01 8.40045E-01-3.48378E-02-1.19425E+00 1.35148E-13 2.50155E-13
 -1      3227 2.21557E+01 1.40509E+00 1.60500E-02-1.03216E+00-3.29539E-14 1.79667E-13
 -1      3228 2.28232E+01 1.97038E+00 1.21966E-02-9.77954E-01 3.10342E-14 6.95555E-14
 -1      3229 1.26551E+01-1.86278E+00 1.29493E-01-5.35458E+00 6.15896E-14-3.76199E-13
 -1      3230 1.50631E+01-3.12222E+00 2.53778E-02-6.16050E+00 1.60427E-14-5.70877E-13
 -1      3231 1.88092E+01-2.48484E+00 6.05981E-03 6.69927E+00-3.42712E-14-5.50698E-13
 -1      3232 2.15043E+01-3.14326E+00 1.26427E-01 6.46964E+00-1.13395E-13-4.94087E-13
 -1      3233 2.35303E+01-1.23956E+00-1.64485E-02-1.85819E-02 1.06004E-13 3.82515E-13
 -1      3234 2.26496E+01-7.86769E-01-1.37433E-02-5.91148E-01-3.81683E-15 2.44523E-13
 -1      3235 2.27684E+01-4.99082E-01 1.73982E-03-7.99968E-01 3.44507E-14 2.46145E-13
 -1      3236 1.01857E+01 8.08955E-01 1.95643E-01-1.25085E-01 2.03691E-14 2.40363E-14
 -1      3237 1.08943E+01 1.21887E-01 3.76254E-02-2.92318E+00 1.81202E-13 7.63556E-14
 -1      3238 1.06653E+01 5.97152E-01 9.22003E-02 2.42633E+00 8.02414E-14 1.26510E-13
 -1      3239 1.32955E+01-3.35099E-01 2.54435E-01-4.98894E+00 4.38191E-14 1.51781E-13
 -1      3240 2.64342E+01 5.76215E+00-1.13050E-01 1.19654E+00 8.86236E-14 3.84703E-13
 -1      3241 2.63731E+01 5.82272E+00-1.19289E-01 1.14130E-01 2.22045E-13 3.02452E-13
 -1      3242 2.73310E+01-3.87176E+00 8.32554E-03-6.74668E-01-1.34710E-13 7.38160E-14
 -1      3243 2.79468E+01-2.31324E+00-1.27046E-01 9.47462E-01-9.74498E-14 1.41429E-13
 -1      3244 1.64780E+01-1.85170E+00 1.94233E-01 6.95571E+00 2.65690E-14-3.46528E-13
 -1      3245 9.29728E+00-1.16245E-01 1.02185E-01-2.24644E+00 1.22784E-14-2.58557E-13
 -1      3246 1.05459E+01-9.13297E-01 6.53927E-02-4.24092E+00 1.03667E-14-3.01634E-13
 -1      3247 2.97155E+01-4.64013E+00 1.97449E-02-9.89604E-01-2.09062E-13-1.65562E-13
 -1      3248 2.82354E+01-2.29220E+00-1.19362E-01 2.47974E-01-2.04448E-13-4.70630E-13
 -1      3249 2.76768E+01-3.69544E+00 5.21441E-02 1.96460E+00-5.40706E-13-2.50716E-13
 -1      3250 2.00093E+01-5.75204E-02 2.67982E-04-1.63127E-01 4.59388E-14-1.41511E-13
 -1      3251 2.00105E+01-5.26523E-02 3.04109E-04-1.70253E-01 4.83528E-14-1.81153E-13
 -1      3252 2.00685E+01-5.34518E-02-6.32501E-04-1.67015E-01 6.36404E-14-9.76387E-14
 -1      3253 2.00502E+01-6.61888E-02-4.92723E-04-1.55512E-01 7.03377E-14-1.65088E-13
 -1      3254 2.02860E+01 1.14804E+00 1.52489E-04-6.69534E-01-2.75013E-13-4.17862E-13
 -1      3255 2.02543E+01 9.10038E-01-5.15417E-03-4.78507E-01-2.59178E-13-3.97070E-13
 -1      3256 2.02849E+01 9.46714E-01 8.49321E-04-4.23505E-01-2.34051E-13-4.01695E-13
 -1      3257 2.34243E+01-3.41581E+00 6.94240E-03 5.07861E+00-1.69142E-13-3.20655E-13
 -1      3258 2.44312E+01-3.43732E+00-1.78232E-02 4.04130E+00-1.97720E-13-4.41960E-13
 -1      3259 2.41670E+01-1.62331E+00 1.74250E-02 6.23304E-01 5.25517E-14 3.26485E-13
 -1      3260 2.09433E+01-3.99905E+00 7.64694E-02-6.14442E+00-1.90223E-13-1.68088E-13
 -1      3261 1.81245E+01-4.27136E+00 9.78954E-02-6.11659E+00-1.56999E-13-6.97706E-13
 -1      3262 2.10429E+01-5.27397E+00-2.64354E-03-5.67630E+00-3.25170E-13-7.66671E-13
 -1      3263 2.02904E+01 9.29543E-01-7.26694E-03 7.81293E-01 3.65756E-13-9.44622E-14
 -1      3264 2.72760E+01 3.43135E+00-5.08815E-02 2.67443E+00 1.34559E-13 2.84349E-13
 -1      3265 2.67728E+01 4.97220E+00-1.53679E-01 1.97792E+00 6.89448E-14 3.93109E-13
 -1      3266 2.17661E+01-4.39936E+00-1.64328E-02 6.78113E+00-2.32037E-13-5.39860E-13
 -1      3267 9.48495E+00-2.29806E-01 7.59680E-02 1.70810E+00 6.70158E-14-5.43093E-13
 -1      3268 8.88962E+00 1.28909E-01 1.02165E-01-2.58349E-01 5.16330E-14-4.05773E-13
 -1      3269 2.00439E+01 2.16091E+00-4.24209E-03 2.92488E-01 1.75789E-13-4.62480E-13
 -1      3270 2.00306E+01 2.19954E+00-3.33936E-03 1.70774E-01 1.17768E-13-4.90120E-13
 -1      3271 2.02760E+01 1.25970E+00 3.51296E-03 7.99235E-01 3.34383E-13-2.01662E-13
 -1      3272 2.80169E+01-3.98543E-01-1.83156E-03 2.15194E+00 3.85178E-14 9.72278E-14
 -1      3273 2.74528E+01 1.14342E+00-1.69656E-01 2.57675E+00 1.05062E-13 1.49977E-13
 -1      3274 2.66340E+01 5.25535E+00-1.27475E-01-7.37098E-01 3.13985E-13 8.78742E-14
 -1      3275 2.71190E+01 3.99513E+00-1.05341E-01-1.43747E+00 3.40089E-13-1.83242E-13
 -1      3276 2.02015E+01 1.89877E+00 4.86062E-03-1.00130E+00-2.72546E-13-5.18990E-13
 -1      3277 1.58434E+01-1.93582E+00 5.64442E-02-6.12340E+00-1.99042E-13 2.04767E-13
 -1      3278 2.00311E+01-2.85652E+00 1.00297E-01-6.07225E+00-1.51851E-13-5.62397E-14
 -1      3279 2.02805E+01 1.09459E+00 5.11183E-03 6.15290E-01 2.95024E-13-2.23100E-13
 -1      3280 2.55862E+01 4.58265E+00-6.94756E-02 1.59206E+00 5.92443E-14 3.70188E-13
 -1      3281 1.05863E+01 3.62931E-01 1.28692E-01-1.19151E+00 1.55084E-15-2.62693E-13
 -1      3282 2.00640E+01 2.10502E+00-3.25010E-03 3.91151E-01 2.07434E-13-4.42036E-13
 -1      3283 2.01604E+01 1.84727E+00 5.22171E-03 2.90569E-01 1.75406E-13-4.15977E-13
 -1      3284 2.00897E+01 2.02552E+00-5.30894E-03 5.04411E-01 2.66493E-13-4.35777E-13
 -1      3285 2.01190E+01 1.94049E+00-2.52948E-03-5.82872E-01-1.60457E-13-5.28383E-13
 -1      3286 2.01541E+01 1.81243E+00-7.19923E-03-6.81841E-01-2.00565E-13-5.09403E-13
 -1      3287 1.53756E+01-1.45421E+00 4.56872E-02 4.09497E+00 1.39909E-13-4.76896E-13
 -1      3288 2.01220E+01 1.61668E-01 2.84487E-03-7.45311E-02 1.49032E-13-2.00642E-13
 -1      3289 2.02005E+01 2.40851E-01-1.10985E-03-2.84165E-02 1.78434E-13-1.97048E-13
 -1      3290 2.00961E+01 1.05873E-01-9.04599E-04-1.13474E-01 1.46570E-13-1.80269E-13
 -1      3291 2.63510E+01-3.58791E+00 8.93413E-03 2.52571E+00-4.05523E-13-3.34389E-13
 -1      3292 2.69738E+01-3.53195E-01-1.03260E-01-1.08890E+00-7.47423E-14-2.24588E-13
 -1      3293 2.79670E+01-1.35421E+00-4.05084E-02-5.65780E-01-1.13902E-14-4.62602E-13
 -1      3294 2.70507E+01-1.91833E+00 5.15999E-02 8.41764E-02-1.61742E-13-3.94334E-13
 -1      3295 2.01224E+01 2.55427E-02-9.65002E-04-1.52789E-01 1.17644E-13-1.06315E-13
 -1      3296 2.00625E+01 2.84452E-02-3.69536E-04-1.59331E-01 1.30299E-13-1.40396E-13
 -1      3297 2.00791E+01 6.35837E-02 1.90947E-03-1.40508E-01 1.44248E-13-1.53989E-13
 -1      3298 1.75539E+01-3.34362E+00 8.65591E-02-5.55365E+00-3.42712E-14-5.07882E-13
 -1      3299 1.29062E+01-9.54333E-01 1.20178E-01-4.31477E+00 9.51739E-14-4.36082E-13
 -1      3300 2.25623E+01-8.72784E-02-4.00892E-02-1.10330E+00 1.55082E-13 9.49163E-14
 -1      3301 2.25771E+01 3.96207E-01 2.69166E-03-1.17616E+00 2.02043E-13 3.19434E-13
 -1      3302 2.33481E+01 6.24003E-01 2.13373E-03-1.20963E+00-4.03367E-15 9.20784E-14
 -1      3303 2.39180E+01-4.56027E-01 3.31001E-02-8.79392E-01 1.07888E-13 1.15352E-13
 -1      3304 2.54864E+01 4.73394E+00-7.36516E-02-2.57023E-01 1.44343E-13 8.63996E-14
 -1      3305 2.31844E+01-3.89886E+00 5.07582E-02 5.60936E+00-2.22891E-13-3.98168E-13
 -1      3306 2.50644E+01-2.96831E+00 4.92683E-02 2.81976E+00-2.01754E-13-1.02586E-13
 -1      3307 2.48899E+01-2.70665E+00-5.49331E-02 1.84571E+00-2.05513E-13 3.56317E-13
 -1      3308 2.64854E+01-4.51483E+00-3.71299E-02-1.46805E+00-1.33981E-13 5.23782E-14
 -1      3309 2.64366E+01-3.65278E+00-7.45190E-03-2.72950E-01-1.46674E-13 1.32949E-14
 -1      3310 2.53148E+01-4.61624E+00 2.56177E-02-2.18346E+00-3.07391E-13-9.65582E-14
 -1      3311 2.70938E+01-1.62955E+00-4.20252E-02 1.50835E+00-8.31089E-14 2.23658E-13
 -1      3312 2.68900E+01 2.71929E+00-1.13906E-01-1.58564E+00 1.71259E-13-2.85258E-13
 -1      3313 2.65828E+01 1.59155E+00 7.09933E-04-1.57166E+00 1.23512E-14-2.25472E-13
 -1      3314 2.55050E+01 3.15003E+00-4.62082E-02-1.39494E+00 2.61249E-14-5.66457E-14
 -1      3315 2.26686E+01-4.98563E+00 6.02468E-02-4.42115E+00-3.01044E-13-5.35973E-13
 -1      3316 2.02377E+01 7.06208E-01-3.19759E-03 3.54100E-01 2.71514E-13-2.20119E-13
 -1      3317 2.02795E+01 8.97045E-01 1.04422E-03 5.17016E-01 2.82132E-13-2.02142E-13
 -1      3318 2.02768E+01 1.12871E+00 2.90713E-03 5.41742E-01 2.87047E-13-2.80622E-13
 -1      3319 2.50669E+01-1.94664E+00 1.39163E-02 5.18387E-01-1.50314E-14 1.09792E-13
 -1      3320 2.64843E+01 1.99471E+00-4.44232E-02 2.62179E+00 1.18433E-13 2.48669E-13
 -1      3321 2.00618E+01 2.11149E+00-2.90082E-03-3.83017E-01-8.46157E-14-5.31190E-13
 -1      3322 2.00862E+01 2.03364E+00-5.11446E-03-4.98059E-01-1.35441E-13-5.41446E-13
 -1      3323 2.01945E+01 1.70227E+00 3.89211E-03-4.52493E-01-1.56031E-13-5.07497E-13
 -1      3324 1.08362E+01-5.16927E-01 1.69909E-01 2.86000E+00 1.19849E-13-5.26731E-13
 -1      3325 1.15404E+01 1.08488E-01 1.31752E-01 1.94519E+00 5.32352E-14-4.87957E-13
 -1      3326 2.01372E+01 1.92220E+00 4.75287E-03 1.01672E-01 8.68314E-14-4.51760E-13
 -1      3327 2.00237E+01 2.21833E+00-3.62993E-03 6.59482E-02 8.83167E-14-4.90418E-13
 -1      3328 2.00231E+01 2.21942E+00-3.57762E-03-5.83805E-02 3.25180E-14-4.86816E-13
 -1      3329 2.56201E+01-3.44753E+00 5.43176E-02 2.95000E+00-3.13553E-13-2.31048E-13
 -1      3330 2.02460E+01 1.45990E+00 3.86650E-03 5.84220E-01 2.80166E-13-3.74923E-13
 -1      3331 2.01583E+01 1.80207E+00-6.76095E-03 6.86482E-01 3.16224E-13-4.07017E-13
 -1      3332 2.01235E+01 1.93041E+00-2.51397E-03 5.89514E-01 2.88810E-13-4.39703E-13
 -1      3333 1.81370E+01-2.49820E+00 8.83405E-02-6.44861E+00-1.32089E-13 3.68428E-13
 -1      3334 2.02176E+01 1.59652E+00-1.13395E-03-8.28522E-01-2.63415E-13-4.87124E-13
 -1      3335 2.02760E+01 7.43733E-01 4.87526E-04 3.15725E-01 2.64710E-13-2.30976E-13
 -1      3336 2.02140E+01 1.60846E+00 1.46873E-03-7.17715E-01-2.33775E-13-4.84305E-13
 -1      3337 1.28651E+01 2.69699E-01 2.04583E-02 2.28727E+00 1.45526E-14-4.77847E-13
 -1      3338 1.19386E+01 7.48774E-01 8.31927E-02 1.12362E+00 1.01694E-14-4.45630E-13
 -1      3339 2.02993E+01 4.38838E-01 2.52058E-03-7.18781E-02-1.29113E-13-3.24517E-13
 -1      3340 2.02744E+01 3.26247E-01-2.14095E-03-5.13519E-03-1.27168E-13-2.99902E-13
 -1      3341 2.02661E+01 2.36530E-01 2.15134E-03 3.99215E-02-1.47016E-13-2.91842E-13
 -1      3342 2.02415E+01 1.61020E-01-1.29347E-03 8.05838E-02-1.43600E-13-2.95991E-13
 -1      3343 2.03144E+01 3.27826E-01-1.03250E-04 2.58877E-03-1.27146E-13-3.16953E-13
 -1      3344 2.02266E+01 1.02022E-01 1.61838E-03 1.06546E-01-1.20525E-13-2.76712E-13
 -1      3345 2.02050E+01 5.31358E-02-6.60676E-04 1.28223E-01-7.23074E-14-2.52293E-13
 -1      3346 2.02828E+01 1.58305E-01-4.37342E-04 7.68073E-02-1.13859E-13-2.67738E-13
 -1      3347 2.01875E+01 1.58623E-02 1.13392E-03 1.40382E-01-6.02811E-14-2.32788E-13
 -1      3348 2.01697E+01-1.41631E-02-2.25921E-04 1.49010E-01-6.78216E-14-2.45212E-13
 -1      3349 2.02449E+01 4.73072E-02-5.88347E-04 1.17980E-01-6.84958E-14-2.38623E-13
 -1      3350 2.01519E+01-3.61880E-02 7.38795E-04 1.51839E-01-3.12729E-14-2.77571E-13
 -1      3351 2.01377E+01-5.30082E-02 5.56227E-05 1.52040E-01 4.67030E-15-2.25763E-13
 -1      3352 2.02064E+01-2.17155E-02-6.25412E-04 1.35668E-01-4.86357E-14-2.42087E-13
 -1      3353 2.01210E+01-6.44516E-02 4.37863E-04 1.49037E-01-4.14448E-14-1.96283E-13
 -1      3354 2.01101E+01-7.21605E-02 2.27043E-04 1.44244E-01-6.19557E-14-1.73627E-13
 -1      3355 2.01702E+01-6.10909E-02-6.00493E-04 1.37794E-01-1.96999E-14-2.65001E-13
 -1      3356 2.00952E+01-7.63664E-02 2.18454E-04 1.38015E-01-1.04526E-13-1.86392E-13
 -1      3357 2.00870E+01-7.78883E-02 3.23279E-04 1.30699E-01-1.03158E-13-1.79647E-13
 -1      3358 2.01381E+01-7.98616E-02-5.43643E-04 1.30474E-01-9.20841E-14-2.50037E-13
 -1      3359 2.00741E+01-7.72149E-02 6.24603E-05 1.23117E-01-9.69610E-14-2.42716E-13
 -1      3360 2.00681E+01-7.45891E-02 3.70913E-04 1.15023E-01-1.36170E-13-2.26518E-13
 -1      3361 2.01104E+01-8.45440E-02-4.72086E-04 1.18222E-01-1.35273E-13-2.88159E-13
 -1      3362 2.00572E+01-7.06492E-02-4.80810E-05 1.07405E-01-1.47083E-13-2.13586E-13
 -1      3363 2.00530E+01-6.52382E-02 3.89648E-04 9.97493E-02-1.03633E-13-2.38119E-13
 -1      3364 2.00872E+01-7.97145E-02-3.95860E-04 1.04277E-01-1.11066E-13-2.73240E-13
 -1      3365 2.00439E+01-5.90743E-02-1.29069E-04 9.30172E-02-7.49204E-14-2.41585E-13
 -1      3366 2.00411E+01-5.17181E-02 3.93792E-04 8.66571E-02-7.80240E-14-2.21007E-13
 -1      3367 2.00681E+01-6.84516E-02-3.19985E-04 9.09209E-02-8.57718E-14-2.68070E-13
 -1      3368 2.00334E+01-4.39302E-02-1.93887E-04 8.14675E-02-8.27417E-14-1.85560E-13
 -1      3369 2.00317E+01-3.50627E-02 3.93653E-04 7.70350E-02-8.56524E-14-2.05478E-13
 -1      3370 2.00523E+01-5.26720E-02-2.45793E-04 7.97735E-02-8.40231E-14-2.45618E-13
 -1      3371 2.00250E+01-2.59060E-02-2.53831E-04 7.38880E-02-1.63526E-13-1.78174E-13
 -1      3372 2.00242E+01-1.56415E-02 3.96114E-04 7.18933E-02-1.99722E-13-1.71718E-13
 -1      3373 2.00392E+01-3.33879E-02-1.72110E-04 7.20241E-02-1.04954E-13-1.68312E-13
 -1      3374 2.00180E+01-5.09626E-03-3.18752E-04 7.12130E-02-2.06676E-13-1.44647E-13
 -1      3375 2.00176E+01 6.70906E-03 4.05407E-04 7.21248E-02-1.60740E-13-2.43375E-13
 -1      3376 2.00277E+01-1.09009E-02-9.59165E-05 6.86174E-02-1.84766E-13-1.26850E-13
 -1      3377 2.00113E+01 1.88885E-02-3.97543E-04 7.43203E-02-4.33260E-14-2.56800E-13
 -1      3378 2.00111E+01 3.25932E-02 4.23287E-04 7.86263E-02 5.47442E-14-2.62645E-13
 -1      3379 2.00169E+01 1.50579E-02-1.21133E-05 7.03932E-02-1.14118E-13-1.38216E-13
 -1      3380 2.00040E+01 4.68452E-02-4.98800E-04 8.41336E-02 4.26462E-14-2.36250E-13
 -1      3381 2.00035E+01 6.29949E-02 4.48918E-04 9.23829E-02 4.25505E-14-2.24916E-13
 -1      3382 2.00054E+01 4.52277E-02 8.67380E-05 7.81851E-02 4.85465E-14-1.28079E-13
 -1      3383 1.99946E+01 7.99311E-02-6.31409E-04 1.01688E-01 2.71959E-14-2.47860E-13
 -1      3384 1.99934E+01 9.92421E-02 4.78389E-04 1.14518E-01 6.03009E-14-1.75140E-13
 -1      3385 1.99916E+01 8.07488E-02 2.11034E-04 9.28799E-02 5.01025E-14-1.62652E-13
 -1      3386 1.99816E+01 1.19637E-01-8.05123E-04 1.28163E-01 6.32951E-14-1.55537E-13
 -1      3387 1.99789E+01 1.42987E-01 5.03812E-04 1.46306E-01 1.87294E-14-1.80638E-13
 -1      3388 1.99735E+01 1.23117E-01 3.75132E-04 1.15437E-01 5.03617E-14-1.59883E-13
 -1      3389 1.99626E+01 1.67772E-01-1.03116E-03 1.64869E-01 6.78773E-15-1.52076E-13
 -1      3390 1.99572E+01 1.96190E-01 5.12026E-04 1.89143E-01 1.77358E-15-1.69673E-13
 -1      3391 1.99487E+01 1.74150E-01 5.98775E-04 1.46863E-01 2.34528E-14-7.10754E-14
 -1      3392 1.99344E+01 2.26445E-01-1.32288E-03 2.13196E-01-9.65394E-14-2.36281E-13
 -1      3393 1.99247E+01 2.61094E-01 4.83034E-04 2.44467E-01-1.17171E-13-2.13701E-13
 -1      3394 1.99135E+01 2.35952E-01 9.08990E-04 1.88132E-01-9.62015E-14-2.05154E-13
 -1      3395 1.98925E+01 2.98015E-01-1.69666E-03 2.74503E-01-5.76311E-14-1.28208E-13
 -1      3396 1.98761E+01 3.40139E-01 3.88601E-04 3.13611E-01-3.17919E-15-7.60306E-14
 -1      3397 1.98633E+01 3.10848E-01 1.34245E-03 2.40039E-01-5.89759E-15-1.09233E-13
 -1      3398 1.98308E+01 3.84963E-01-2.17339E-03 3.49937E-01 7.01608E-15-1.02598E-13
 -1      3399 1.98040E+01 4.35764E-01 1.92003E-04 3.97598E-01 9.42167E-14-1.71257E-13
 -1      3400 1.97918E+01 4.01257E-01 1.94821E-03 3.02987E-01 2.50881E-14-5.42987E-14
 -1      3401 1.97404E+01 4.89590E-01-2.78158E-03 4.40203E-01 1.74480E-13-1.58150E-13
 -1      3402 1.96984E+01 5.49978E-01-1.49124E-04 4.96877E-01 2.64844E-13-1.82881E-13
 -1      3403 1.96901E+01 5.09411E-01 2.79069E-03 3.76698E-01 1.32197E-13-9.20011E-14
 -1      3404 1.96096E+01 6.13401E-01-3.56466E-03 5.45323E-01 2.62595E-13-2.83503E-13
 -1      3405 1.95454E+01 6.83503E-01-6.73395E-04 6.11104E-01 2.23828E-13-2.98711E-13
 -1      3406 1.95466E+01 6.36837E-01 3.95253E-03 4.59902E-01 2.08059E-13-2.47124E-13
 -1      3407 1.94220E+01 7.55920E-01-4.59825E-03 6.64510E-01 1.68022E-13-1.96664E-13
 -1      3408 1.93268E+01 8.34204E-01-1.39417E-03 7.39153E-01 1.99556E-13-1.16026E-13
 -1      3409 1.93453E+01 7.83411E-01 5.53760E-03 5.50129E-01 2.24023E-13-2.88076E-13
 -1      3410 1.91564E+01 9.12584E-01-6.02795E-03 7.96496E-01 1.16854E-13-1.43124E-13
 -1      3411 1.90191E+01 9.94376E-01-2.25516E-03 8.79854E-01 1.26189E-13-1.76813E-13
 -1      3412 1.90651E+01 9.45765E-01 7.67707E-03 6.43882E-01 1.46847E-13-1.71625E-13
 -1      3413 1.87849E+01 1.07122E+00-8.13472E-03 9.40977E-01 1.06077E-13-2.56583E-13
 -1      3414 1.85934E+01 1.14642E+00-2.99033E-03 1.03440E+00 9.99810E-14-1.95347E-13
 -1      3415 1.86783E+01 1.11480E+00 1.05633E-02 7.37810E-01 8.79111E-14-2.24714E-13
 -1      3416 1.82726E+01 1.20623E+00-1.14449E-02 1.10260E+00 2.82566E-14-4.60856E-13
 -1      3417 1.80152E+01 1.25661E+00-2.82633E-03 1.21180E+00 7.81233E-15-4.92187E-13
 -1      3418 1.81479E+01 1.27227E+00 1.46692E-02 8.32054E-01-7.07733E-14-4.65607E-13
 -1      3419 1.75768E+01 1.26538E+00-1.76807E-02 1.30085E+00 1.18162E-13-5.56561E-13
 -1      3420 1.72405E+01 1.25022E+00-5.82895E-03 1.43766E+00 2.41738E-14-5.00893E-13
 -1      3421 1.74297E+01 1.38824E+00 2.38443E-02 9.42604E-01 1.93776E-14-6.54466E-13
 -1      3422 1.66438E+01 1.18967E+00-2.30628E-02 1.57139E+00-2.05904E-13-4.12914E-13
 -1      3423 1.62819E+01 1.06998E+00 1.25960E-02 1.78703E+00-2.00483E-13-4.60820E-13
 -1      3424 1.64277E+01 1.37860E+00 2.33539E-02 1.11785E+00-5.01834E-14-5.75979E-13
 -1      3425 2.02860E+01 1.15911E+00-7.67297E-04-4.76640E-01-2.14064E-13-4.47174E-13
 -1      3426 2.02889E+01 9.30820E-01-3.38944E-03-3.38812E-01-1.89708E-13-4.15471E-13
 -1      3427 2.00528E+01-6.88046E-02 3.78331E-04-1.10620E-01-8.49232E-15-1.39383E-13
 -1      3428 2.00571E+01-7.26768E-02-8.07326E-06-1.18898E-01 3.96838E-14-1.47175E-13
 -1      3429 2.00684E+01-7.48836E-02 3.47387E-04-1.26906E-01 9.98374E-14-1.54294E-13
 -1      3430 2.00746E+01-7.53981E-02 1.27847E-04-1.35003E-01 1.21393E-13-1.36454E-13
 -1      3431 2.00914E+01-8.11697E-02-4.25567E-04-1.15706E-01 8.81018E-14-3.29517E-14
 -1      3432 2.00310E+01-4.34488E-02 3.89187E-04-8.34127E-02-1.20219E-14-1.19769E-13
 -1      3433 2.00326E+01-5.11724E-02-1.73108E-04-8.92286E-02-1.36260E-14-1.45074E-13
 -1      3434 2.00235E+01-2.64736E-02 3.90384E-04-7.51613E-02 2.00219E-14-7.23150E-14
 -1      3435 2.00242E+01-3.54532E-02-2.29715E-04-7.88288E-02-4.17022E-15-1.09952E-13
 -1      3436 2.00413E+01-4.37048E-02-2.02699E-04-7.76846E-02-3.91311E-14-2.26400E-13
 -1      3437 2.00174E+01-7.21437E-03 3.97982E-04-7.17650E-02-3.47725E-15-6.15423E-14
 -1      3438 2.00175E+01-1.73441E-02-2.82477E-04-7.28335E-02 4.43295E-14-2.72572E-14
 -1      3439 2.00299E+01-2.40538E-02-1.36226E-04-7.12329E-02 6.82313E-15-8.09005E-14
 -1      3440 2.00121E+01 1.43506E-02 4.16429E-04-7.40481E-02-5.20830E-15-8.59859E-14
 -1      3441 2.00118E+01 3.02553E-03-3.38688E-04-7.21017E-02-3.35927E-15-7.00651E-14
 -1      3442 2.00199E+01-1.75323E-03-7.19664E-05-6.95577E-02-8.58555E-16-9.01845E-15
 -1      3443 2.00070E+01 3.84182E-02 4.48822E-04-8.28451E-02 1.79569E-14-6.71778E-14
 -1      3444 2.00064E+01 2.57820E-02-4.03322E-04-7.74610E-02 6.58299E-15-3.52885E-14
 -1      3445 2.00102E+01 2.32601E-02-8.72662E-06-7.34930E-02-3.90455E-14-7.62253E-14
 -1      3446 2.00015E+01 6.51901E-02 4.97300E-04-9.90558E-02-2.94804E-14-6.21131E-14
 -1      3447 2.00008E+01 5.11458E-02-4.78893E-04-8.97851E-02 1.61788E-14-9.23813E-14
 -1      3448 2.00001E+01 5.12106E-02 5.38934E-05-8.39088E-02 9.11942E-15-6.71639E-14
 -1      3449 1.99952E+01 9.46704E-02 5.63378E-04-1.23660E-01 4.24764E-14-1.25063E-13
 -1      3450 1.99943E+01 7.92481E-02-5.64894E-04-1.10031E-01 4.80638E-15-8.41218E-14
 -1      3451 1.99886E+01 8.22868E-02 1.14474E-04-1.01767E-01 1.27189E-14-8.27854E-15
 -1      3452 1.99877E+01 1.26407E-01 6.48260E-04-1.57687E-01 1.19748E-13-1.39350E-13
 -1      3453 1.99866E+01 1.09903E-01-6.56727E-04-1.39236E-01 1.13490E-13-1.21216E-13
 -1      3454 1.99750E+01 1.16404E-01 1.68359E-04-1.28147E-01 7.37267E-14-1.02485E-13
 -1      3455 1.99792E+01 1.59158E-01 7.53146E-04-2.02131E-01 9.25162E-14-1.26997E-13
 -1      3456 1.99775E+01 1.42314E-01-7.44049E-04-1.78466E-01 1.29399E-13-7.78184E-14
 -1      3457 1.99586E+01 1.52902E-01 2.05655E-04-1.64232E-01 1.05486E-13-7.35309E-14
 -1      3458 1.99704E+01 1.90457E-01 8.79499E-04-2.57802E-01 1.29646E-13-5.55560E-14
 -1      3459 1.99676E+01 1.74694E-01-8.08376E-04-2.28704E-01 6.71938E-14-1.46814E-13
 -1      3460 1.99394E+01 1.90154E-01 2.08482E-04-2.11257E-01 1.10699E-13-4.80691E-16
 -1      3461 1.99630E+01 2.16075E-01 1.02901E-03-3.25087E-01-7.27211E-15 3.71632E-14
 -1      3462 1.99579E+01 2.03779E-01-8.19821E-04-2.90664E-01 1.30228E-13 1.54590E-14
 -1      3463 1.99178E+01 2.25068E-01 1.47311E-04-2.70401E-01 5.33152E-14 7.64016E-14
 -1      3464 1.99605E+01 2.29395E-01 1.20264E-03-4.03598E-01-7.21471E-14-6.82783E-16
 -1      3465 1.99513E+01 2.24245E-01-7.32780E-04-3.64505E-01-3.52582E-14-1.14529E-14
 -1      3466 1.98959E+01 2.52467E-01-2.36468E-05-3.42610E-01-5.30597E-15 1.25960E-13
 -1      3467 1.99691E+01 2.20764E-01 1.39723E-03-4.91658E-01-1.13346E-13-9.61574E-14
 -1      3468 1.99525E+01 2.28057E-01-4.80420E-04-4.49406E-01-8.32138E-14-8.11987E-15
 -1      3469 1.98778E+01 2.64387E-01-3.71743E-04-4.28310E-01-9.13145E-14-9.38963E-14
 -1      3470 1.99984E+01 1.76986E-01 1.59684E-03-5.85553E-01-8.69753E-14-6.59627E-14
 -1      3471 1.99697E+01 2.03872E-01 3.20416E-05-5.42929E-01-1.10602E-13-1.02769E-13
 -1      3472 1.98704E+01 2.49352E-01-9.91041E-04-5.26947E-01-7.68587E-14-6.24909E-14
 -1      3473 2.00631E+01 8.12995E-02 1.75228E-03-6.78415E-01-3.06886E-13-6.71369E-14
 -1      3474 2.00155E+01 1.36723E-01 9.34637E-04-6.40075E-01-1.38697E-13-1.53231E-14
 -1      3475 1.98857E+01 1.91831E-01-2.00521E-03-6.36236E-01-1.21888E-13-8.75410E-15
 -1      3476 2.01842E+01-8.55611E-02 1.73880E-03-7.58525E-01-3.28125E-13-6.20557E-14
 -1      3477 2.01084E+01 8.44653E-03 2.39604E-03-7.31829E-01-3.18863E-13-8.43620E-14
 -1      3478 1.99415E+01 7.22448E-02-3.56464E-03-7.50891E-01-2.65298E-13-8.76567E-15
 -1      3479 2.03887E+01-3.42039E-01 1.29059E-03-8.06709E-01-1.67433E-13-4.75649E-14
 -1      3480 2.02740E+01-2.00308E-01 4.61746E-03-8.02854E-01-2.37592E-13-5.42571E-14
 -1      3481 2.00639E+01-1.31810E-01-5.82508E-03-8.60405E-01-3.02820E-13-1.04251E-13
 -1      3482 2.07084E+01-6.97880E-01-2.20229E-05-7.92658E-01-2.46600E-13-7.58736E-14
 -1      3483 2.05444E+01-5.04909E-01 7.74774E-03-8.27937E-01-2.21960E-13-3.10223E-14
 -1      3484 2.02884E+01-4.41559E-01-8.85703E-03-9.45122E-01-2.51247E-13 1.26984E-13
 -1      3485 2.11719E+01-1.14016E+00-2.88024E-03-6.72174E-01-1.24067E-13-1.97130E-13
 -1      3486 2.09533E+01-9.05782E-01 1.15921E-02-7.68304E-01-1.88226E-13-1.22673E-13
 -1      3487 2.06577E+01-8.66550E-01-1.24028E-02-9.70531E-01-1.95527E-13-3.28218E-14
 -1      3488 2.17905E+01-1.60858E+00-7.35988E-03-3.85154E-01 5.26807E-14-1.37356E-13
 -1      3489 2.15265E+01-1.37087E+00 1.58201E-02-5.67558E-01-4.89840E-14-1.41695E-13
 -1      3490 2.12157E+01-1.39028E+00-1.60553E-02-8.81288E-01-5.71121E-14-2.34325E-13
 -1      3491 2.25323E+01-1.95753E+00-1.14625E-02 1.29765E-01-1.37404E-13 9.90701E-14
 -1      3492 2.22531E+01-1.80259E+00 1.84735E-02-1.56045E-01 2.86842E-14 1.83113E-14
 -1      3493 2.19889E+01-1.92834E+00-1.58692E-02-5.94797E-01-9.71862E-14 1.82493E-14
 -1      3494 2.32892E+01-1.93326E+00-1.03358E-02 8.85740E-01-2.35276E-13 2.44707E-13
 -1      3495 2.30447E+01-2.01036E+00 1.21207E-02 5.13104E-01-1.77354E-13 9.01054E-14
 -1      3496 2.29318E+01-2.28917E+00-1.28086E-02-1.21745E-02-1.66599E-13 7.59119E-14
 -1      3497 2.38345E+01-1.23480E+00-9.19185E-03 1.75945E+00-2.50602E-13 2.32294E-13
 -1      3498 2.37100E+01-1.69454E+00-8.05620E-03 1.39278E+00-1.86323E-13 2.93758E-13
 -1      3499 2.39240E+01-2.14230E+00 9.52312E-03 8.82209E-01-2.79626E-13 1.72845E-13
 -1      3500 2.36690E+01 2.18218E+00 5.89513E-03 2.17211E+00 7.04159E-14 1.32042E-13
 -1      3501 2.38049E+01 1.26357E+00-5.33787E-02 2.43718E+00 8.35191E-14 2.53834E-13
 -1      3502 2.37405E+01 3.98885E+00-4.12808E-02 6.81735E-01 9.54809E-14 2.39969E-14
 -1      3503 2.38009E+01 3.69587E+00-4.62793E-02 1.39146E+00 7.62966E-14-8.75862E-15
 -1      3504 2.37623E+01 3.88048E+00-4.15640E-02-5.75231E-02 2.55768E-14 7.04228E-14
 -1      3505 2.40974E+01 1.64407E+00-1.96860E-02-1.38920E+00 7.01522E-15 4.00717E-14
 -1      3506 2.39125E+01 2.48163E+00-1.35217E-02-1.05096E+00 2.41196E-14 1.04829E-13
 -1      3507 1.13337E+01 7.06265E-01 2.12873E-02-2.47575E-01 1.22016E-15-2.92183E-13
 -1      3508 1.17844E+01 4.89139E-01 5.09296E-02-2.14424E+00 2.11879E-14-2.75217E-13
 -1      3509 1.28927E+01 9.69075E-01 4.62323E-02 2.05658E-01-4.50646E-14-3.70235E-13
 -1      3510 2.00406E+01-5.78284E-02 3.88144E-04-9.56096E-02-5.77900E-14-1.24962E-13
 -1      3511 2.00433E+01-6.39578E-02-1.03210E-04-1.03025E-01-4.89274E-14-1.65481E-13
 -1      3512 2.00713E+01-7.34260E-02-3.47096E-04-1.01171E-01 4.38108E-15-8.05524E-14
 -1      3513 2.00548E+01-6.04285E-02-2.72623E-04-8.80223E-02-2.37534E-14-1.53587E-13
 -1      3514 2.02831E+01 1.06470E+00-1.76124E-04 4.25752E-01 2.73655E-13-3.21821E-13
 -1      3515 2.02681E+01 1.24539E+00-3.31811E-03 5.14509E-01 2.63567E-13-3.53077E-13
 -1      3516 2.02533E+01 1.38426E+00 3.38900E-04 4.71828E-01 2.59370E-13-4.11301E-13
 -1      3517 2.01403E+01-3.31583E-02-7.56571E-05-1.56329E-01 5.81971E-14-1.01529E-13
 -1      3518 2.01556E+01-1.02560E-02 9.67970E-04-1.52040E-01 8.20310E-14-8.84540E-14
 -1      3519 2.63867E+01-2.46597E+00-1.66524E-03 1.03592E+00-9.57602E-14 1.47347E-13
 -1      3520 2.61299E+01-1.04213E+00-5.06322E-02 2.01875E+00-1.77358E-14 1.60736E-13
 -1      3521 2.02754E+01 4.40275E-01-2.54148E-03 7.52738E-02 1.81758E-13-2.39509E-13
 -1      3522 2.02999E+01 5.75077E-01 1.98318E-03 1.62126E-01 1.92858E-13-2.68660E-13
 -1      3523 2.57029E+01 1.18615E+00-1.29925E-02 2.60397E+00 1.40769E-13 2.43961E-13
 -1      3524 2.51666E+01 2.79207E+00-9.43522E-02 2.51796E+00 1.55376E-13 1.49450E-13
 -1      3525 2.00297E+01 2.20204E+00-3.22790E-03-1.62590E-01 3.36103E-16-5.03526E-13
 -1      3526 2.00419E+01 2.16537E+00-4.13334E-03-2.84742E-01-5.04139E-14-5.16587E-13
 -1      3527 2.01550E+01 1.85115E+00 3.81060E-03-2.82928E-01-6.69606E-14-4.99668E-13
 -1      3528 2.03133E+01 7.35844E-01 2.32452E-03-2.41318E-01-1.78288E-13-3.80109E-13
 -1      3529 2.02953E+01 5.72286E-01-2.97733E-03-1.41038E-01-1.44883E-13-3.69304E-13
 -1      3530 2.03156E+01 9.35269E-01 1.41900E-03-2.83618E-01-1.66041E-13-4.02763E-13
 -1      3531 1.26258E+01-2.59492E-01 4.04588E-02-3.45768E+00-1.50904E-14-4.63803E-13
 -1      3532 1.43708E+01-1.23551E+00 2.58954E-02-4.55590E+00 6.79370E-14-4.05065E-13
 -1      3533 1.34191E+01-1.53379E+00 8.25408E-02 4.00769E+00 8.95291E-14-5.69253E-13
 -1      3534 2.18117E+01-4.36549E+00 5.60829E-02-4.24037E+00-3.21389E-13-4.67864E-13
 -1      3535 2.37293E+01-4.85011E+00-3.80544E-02-3.34222E+00-3.09516E-13-2.59086E-13
 -1      3536 1.68129E+01-2.44507E+00 6.15444E-02-5.05629E+00-4.27644E-14-4.03032E-13
 -1      3537 1.93356E+01-3.77036E+00-1.30474E-02-5.10693E+00-2.36949E-13-5.56818E-13
 -1      3538 2.02911E+01 7.00331E-01-2.41501E-03 2.23944E-01 2.23440E-13-2.85733E-13
 -1      3539 2.03040E+01 8.86428E-01 4.84561E-04 3.45474E-01 2.53870E-13-2.90885E-13
 -1      3540 2.03050E+01 1.00955E+00 4.69544E-05 3.28237E-01 2.24838E-13-3.49737E-13
 -1      3541 2.03230E+01 7.07385E-01 7.21206E-04 1.85938E-01 1.89088E-13-3.06035E-13
 -1      3542 1.42173E+01-2.00153E-01 3.71203E-02 3.11401E+00 9.31399E-14-5.12423E-13
 -1      3543 1.46807E+01 3.74267E-01 5.35076E-02 2.44898E+00-3.84935E-14-4.66720E-13
 -1      3544 2.01999E+01 1.69539E+00 4.95357E-03 4.59193E-01 2.44771E-13-4.11388E-13
 -1      3545 2.03304E+01 5.76971E-01 3.47517E-04-1.14869E-01-9.27252E-14-3.37380E-13
 -1      3546 1.47145E+01 1.13552E+00 3.21359E-02 1.31154E+00-6.96704E-14-3.92319E-13
 -1      3547 1.51018E+01 7.85990E-01-7.15066E-03 2.06558E+00-8.97884E-14-4.45160E-13
 -1      3548 2.01589E+01 1.09302E-01-1.09888E-03-1.10307E-01 1.26739E-13-1.40634E-13
 -1      3549 2.02452E+01 2.37968E-01-1.73055E-03-4.02880E-02 1.46995E-13-2.23458E-13
 -1      3550 2.02718E+01 3.30440E-01 2.58118E-03 1.49746E-02 1.75473E-13-2.12909E-13
 -1      3551 2.03154E+01 4.46016E-01-6.54935E-05 5.83338E-02 1.51484E-13-2.70357E-13
 -1      3552 1.56253E+01-9.34633E-01-1.04736E-02-3.90675E+00-7.73097E-14-2.57964E-13
 -1      3553 1.61653E+01-1.68074E+00 5.86162E-02-4.58226E+00-5.70568E-14-3.09695E-13
 -1      3554 1.78194E+01-2.04813E+00 8.09039E-03-4.23655E+00-2.06207E-13-2.51013E-13
 -1      3555 2.02542E+01 1.39183E+00 2.90067E-03-5.55229E-01-2.16843E-13-4.64367E-13
 -1      3556 2.02556E+01 1.37786E+00 2.31529E-03-4.60420E-01-1.79471E-13-4.51535E-13
 -1      3557 2.02211E+01 1.55147E+00-3.25944E-03 2.83709E-01 1.83133E-13-3.83809E-13
 -1      3558 2.02091E+01 1.60689E+00-2.32522E-03 2.01814E-01 1.42874E-13-4.01721E-13
 -1      3559 2.60670E+01 4.07322E-01-2.79833E-02-1.22764E+00-1.97724E-14-1.96430E-13
 -1      3560 2.01731E+01 1.86919E-02-4.29383E-04-1.44318E-01 6.82347E-14-7.94342E-14
 -1      3561 2.01926E+01 5.72988E-02 1.44787E-03-1.29002E-01 8.26496E-14-1.10970E-13
 -1      3562 2.02142E+01 1.23553E-02-6.49499E-04-1.32933E-01 7.74401E-14-9.25993E-14
 -1      3563 2.01156E+01-8.11439E-02-5.02755E-04-1.29626E-01 1.33973E-13-3.95627E-14
 -1      3564 2.00880E+01-7.36504E-02 2.77924E-04-1.42275E-01 9.25445E-14-1.20442E-13
 -1      3565 2.00966E+01-6.91302E-02 3.22522E-04-1.48689E-01 8.33586E-14-1.00211E-13
 -1      3566 2.47427E+01 7.98641E-01 7.40737E-03 2.52645E+00 2.89074E-14 2.73222E-13
 -1      3567 2.39684E+01 2.66063E-01 8.90263E-03 2.37503E+00-1.37685E-14 2.00024E-13
 -1      3568 2.39974E+01-6.06908E-01-3.31292E-02 2.20264E+00-1.81718E-13 1.69804E-13
 -1      3569 2.57160E+01-3.24602E-01-5.40672E-02 2.40657E+00-1.25455E-14 2.09286E-13
 -1      3570 2.46049E+01-1.19508E+00 5.82625E-03 1.87138E+00-1.48609E-13 1.90796E-13
 -1      3571 2.41756E+01 2.98259E+00-5.89311E-02 2.18833E+00 8.78290E-14 4.49502E-14
 -1      3572 2.40222E+01 3.25806E+00-7.80036E-02-8.93907E-01 7.11792E-14 4.12691E-15
 -1      3573 2.44523E+01 9.36252E-01-4.54542E-02-1.38708E+00 7.59219E-14 5.57920E-14
 -1      3574 1.33732E+01 3.29094E-01 7.91408E-02-2.50480E+00-3.55575E-14-2.67262E-13
 -1      3575 2.50865E+01-1.24173E+00-7.61315E-02-4.86744E-01 5.71854E-14-3.52821E-14
 -1      3576 2.50551E+01-4.44751E-01 6.17109E-03-9.64758E-01 5.63612E-15-1.32776E-14
 -1      3577 2.44708E+01-4.25584E+00 3.08201E-02-2.08244E+00-1.81126E-13-1.00715E-13
 -1      3578 2.02852E+01 1.38604E+00 5.17402E-03 1.34311E-01 1.23202E-13-3.96002E-13
 -1      3579 2.02023E+01 1.64020E+00-3.02315E-03 1.30105E-01 1.12817E-13-4.30368E-13
 -1      3580 2.01981E+01 1.66054E+00-2.19413E-03 4.00870E-02 8.07306E-14-4.36640E-13
 -1      3581 2.51545E+01-1.17196E+00-1.48840E-02 1.89895E+00-6.92172E-14 1.88594E-13
 -1      3582 2.01118E+01-6.14842E-02 1.47020E-04-1.53575E-01 7.37216E-14-1.28029E-13
 -1      3583 2.01235E+01-4.94943E-02 5.96276E-04-1.56153E-01 7.64847E-14-1.13426E-13
 -1      3584 2.01775E+01-4.09624E-02-6.34468E-04-1.43033E-01 8.12719E-14-1.22433E-13
 -1      3585 2.01444E+01-6.95660E-02-5.76832E-04-1.40077E-01 8.87552E-14-7.55853E-14
 -1      3586 2.02233E+01 1.55745E+00 4.65551E-04-3.36140E-01-1.09383E-13-4.93069E-13
 -1      3587 2.02371E+01 1.45997E+00-3.55053E-03-4.05677E-01-1.51417E-13-4.62210E-13
 -1      3588 2.02837E+01 1.24830E+00 1.04949E-03-3.38732E-01-1.59627E-13-4.40714E-13
 -1      3589 2.01352E+01 1.92357E+00 4.25953E-03-9.35380E-02 2.11376E-14-4.62613E-13
 -1      3590 2.09122E+01-3.64472E+00 3.78644E-02-4.04475E+00-3.26513E-13-4.01256E-13
 -1      3591 2.63970E+01-2.24171E+00-1.21376E-04 5.02312E-01-2.09539E-13-2.08465E-13
 -1      3592 2.64853E+01-3.21686E+00-1.23095E-01 1.37288E+00-4.13687E-13-1.13428E-13
 -1      3593 1.53567E+01 1.32682E+00-1.52251E-02 3.85010E-01-1.64644E-13-4.44251E-13
 -1      3594 1.41305E+01 1.17674E+00-5.82273E-03 4.01556E-01-6.70974E-14-3.98423E-13
 -1      3595 1.40113E+01 1.19164E+00 5.01309E-02-8.74707E-01-9.04311E-14-2.34263E-13
 -1      3596 2.03333E+01 2.15941E-01 1.34681E-03 4.78895E-02-9.00673E-14-2.48446E-13
 -1      3597 2.03125E+01 1.41042E-01-1.04863E-03 7.70516E-02-7.88985E-14-2.18914E-13
 -1      3598 2.02972E+01 8.19039E-02 1.07612E-03 9.31633E-02-3.83673E-14-1.99989E-13
 -1      3599 2.02757E+01 3.35058E-02-5.19144E-04 1.08421E-01-3.28460E-14-1.95125E-13
 -1      3600 2.03389E+01 1.30584E-01-1.26050E-04 6.90147E-02-4.29329E-14-1.68370E-13
 -1      3601 2.02565E+01-3.55664E-03 8.02959E-04 1.15190E-01-7.02079E-14-1.92516E-13
 -1      3602 2.02361E+01-3.28229E-02-1.45252E-04 1.20818E-01-4.49530E-14-1.92476E-13
 -1      3603 2.03000E+01 2.37611E-02-3.75224E-04 9.41795E-02-4.93314E-14-1.30740E-13
 -1      3604 2.02158E+01-5.41517E-02 5.62382E-04 1.21340E-01-3.06292E-14-2.07207E-13
 -1      3605 2.01976E+01-6.98773E-02 9.95590E-05 1.20764E-01-3.85856E-14-2.39283E-13
 -1      3606 2.02578E+01-4.16260E-02-5.00782E-04 1.03767E-01-5.66358E-14-1.81302E-13
 -1      3607 2.01779E+01-8.01984E-02 3.66900E-04 1.17482E-01-6.46167E-14-2.38170E-13
 -1      3608 2.01623E+01-8.65256E-02 2.47755E-04 1.13298E-01-1.01675E-13-2.40051E-13
 -1      3609 2.02164E+01-7.74502E-02-5.44123E-04 1.03164E-01-5.51294E-14-2.16553E-13
 -1      3610 2.01442E+01-8.92824E-02 2.14702E-04 1.08039E-01-1.28634E-13-2.17381E-13
 -1      3611 2.01312E+01-8.91976E-02 3.28535E-04 1.02143E-01-1.11323E-13-2.13599E-13
 -1      3612 2.01780E+01-9.26126E-02-5.31500E-04 9.65571E-02-8.20824E-14-1.80445E-13
 -1      3613 2.01151E+01-8.68251E-02 9.67814E-05 9.62257E-02-1.06330E-13-1.76300E-13
 -1      3614 2.01045E+01-8.24026E-02 3.64504E-04 8.99719E-02-1.06037E-13-1.60951E-13
 -1      3615 2.01440E+01-9.35800E-02-4.80212E-04 8.70535E-02-1.08221E-13-1.30497E-13
 -1      3616 2.00904E+01-7.65513E-02 2.82273E-06 8.43316E-02-1.09212E-13-1.75255E-13
 -1      3617 2.00818E+01-6.91531E-02 3.71955E-04 7.86793E-02-8.30972E-14-1.74890E-13
 -1      3618 2.01144E+01-8.48962E-02-4.11005E-04 7.68973E-02-9.84868E-14-1.02679E-13
 -1      3619 2.00696E+01-6.08559E-02-7.64962E-05 7.39760E-02-7.64600E-14-2.03680E-13
 -1      3620 2.00627E+01-5.12836E-02 3.63930E-04 6.96177E-02-7.93182E-14-1.77111E-13
 -1      3621 2.00891E+01-6.95518E-02-3.30106E-04 6.76864E-02-9.81541E-14-1.32968E-13
 -1      3622 2.00519E+01-4.10953E-02-1.49683E-04 6.63332E-02-7.63156E-14-1.57177E-13
 -1      3623 2.00462E+01-2.97156E-02 3.48578E-04 6.37937E-02-1.03412E-13-1.37751E-13
 -1      3624 2.00672E+01-4.93315E-02-2.39926E-04 6.05722E-02-5.70140E-14-1.47877E-13
 -1      3625 2.00362E+01-1.78138E-02-2.24894E-04 6.23026E-02-1.35705E-13-1.15629E-13
 -1      3626 2.00311E+01-4.64901E-03 3.30674E-04 6.20180E-02-1.13526E-13-6.31929E-14
 -1      3627 2.00478E+01-2.50809E-02-1.41027E-04 5.64155E-02-1.10665E-13-1.26504E-13
 -1      3628 2.00213E+01 9.08777E-03-3.09348E-04 6.26427E-02-9.31876E-14-3.81082E-14
 -1      3629 2.00163E+01 2.42903E-02 3.11747E-04 6.50159E-02-5.00649E-14-2.22003E-14
 -1      3630 2.00295E+01 3.09828E-03-3.06541E-05 5.59094E-02-7.51665E-14-7.96703E-14
 -1      3631 2.00056E+01 4.02256E-02-4.09817E-04 6.80611E-02-2.96169E-15 1.20302E-14
 -1      3632 1.99999E+01 5.79414E-02 2.90084E-04 7.34984E-02 3.66491E-14-4.19413E-14
 -1      3633 2.00107E+01 3.56906E-02 9.67713E-05 5.96616E-02-1.87463E-14-5.99835E-16
 -1      3634 1.99875E+01 7.66388E-02-5.32808E-04 7.92650E-02 1.07829E-14-4.27163E-14
 -1      3635 1.99802E+01 9.75276E-02 2.60321E-04 8.81916E-02 6.05356E-14-6.54298E-14
 -1      3636 1.99895E+01 7.36485E-02 2.49735E-04 6.82366E-02-8.15361E-15 2.81177E-14
 -1      3637 1.99646E+01 1.19719E-01-6.84685E-04 9.69700E-02 5.08306E-14-7.10276E-14
 -1      3638 1.99546E+01 1.44594E-01 2.12604E-04 1.09824E-01 2.00984E-14-8.62559E-14
 -1      3639 1.99635E+01 1.18298E-01 4.40079E-04 8.21545E-02 5.77913E-14-6.30874E-14
 -1      3640 1.99342E+01 1.71153E-01-8.71759E-04 1.21861E-01 2.67014E-14-6.73911E-14
 -1      3641 1.99200E+01 2.00946E-01 1.31315E-04 1.39058E-01-3.70024E-14-5.95990E-14
 -1      3642 1.99300E+01 1.71257E-01 6.83801E-04 1.01840E-01 3.16918E-14-9.89416E-14
 -1      3643 1.98926E+01 2.32857E-01-1.10040E-03 1.54493E-01-9.89528E-14-2.86031E-14
 -1      3644 1.98721E+01 2.68582E-01-6.60562E-06 1.76366E-01-2.66114E-14-1.05648E-14
 -1      3645 1.98852E+01 2.34349E-01 1.00223E-03 1.27513E-01-5.86508E-14 4.25548E-15
 -1      3646 1.98350E+01 3.06893E-01-1.37734E-03 1.95128E-01 5.41146E-14-3.93038E-15
 -1      3647 1.98054E+01 3.49576E-01-2.33511E-04 2.21815E-01 6.32129E-14 3.78874E-14
 -1      3648 1.98244E+01 3.09491E-01 1.42364E-03 1.58998E-01 1.32512E-14 1.93954E-13
 -1      3649 1.97553E+01 3.95319E-01-1.71062E-03 2.43480E-01 1.55709E-14 1.22858E-15
 -1      3650 1.97125E+01 4.45887E-01-5.92681E-04 2.74782E-01 6.79005E-14 4.29544E-14
 -1      3651 1.97415E+01 3.98531E-01 1.98544E-03 1.95452E-01 3.44634E-14 7.91531E-14
 -1      3652 1.96448E+01 4.99931E-01-2.11223E-03 2.98382E-01 6.10238E-14 4.29070E-14
 -1      3653 1.95837E+01 5.59013E-01-1.13901E-03 3.33581E-01 1.14860E-13 4.54805E-14
 -1      3654 1.96285E+01 5.02986E-01 2.73717E-03 2.34987E-01 5.09857E-14 8.66229E-14
 -1      3655 1.94923E+01 6.21803E-01-2.60473E-03 3.57391E-01 1.32671E-13-5.14585E-14
 -1      3656 1.94057E+01 6.89396E-01-1.93793E-03 3.95062E-01 1.97304E-13-9.16743E-14
 -1      3657 1.94752E+01 6.23624E-01 3.74506E-03 2.74217E-01 6.51384E-14 5.71620E-14
 -1      3658 1.92829E+01 7.60519E-01-3.23653E-03 4.16411E-01 2.11208E-13-1.59842E-13
 -1      3659 1.91611E+01 8.35457E-01-3.06218E-03 4.54325E-01 1.95424E-13-1.22627E-13
 -1      3660 1.92678E+01 7.59818E-01 5.10004E-03 3.07768E-01 1.67446E-13-2.56788E-14
 -1      3661 1.89964E+01 9.12936E-01-4.11472E-03 4.69524E-01 1.50636E-13-1.78256E-13
 -1      3662 1.88268E+01 9.92071E-01-4.58741E-03 5.04822E-01 1.65705E-13-9.71594E-14
 -1      3663 1.89884E+01 9.08590E-01 6.93372E-03 3.27893E-01 1.48332E-13-8.51191E-14
 -1      3664 1.86057E+01 1.07132E+00-5.46604E-03 5.09405E-01 6.71817E-14-1.22041E-13
 -1      3665 1.83718E+01 1.14840E+00-6.56495E-03 5.39411E-01-3.96077E-14-1.53665E-13
 -1      3666 1.86128E+01 1.06331E+00 9.45790E-03 3.24434E-01 1.00431E-13-1.17142E-13
 -1      3667 1.80733E+01 1.22063E+00-7.72316E-03 5.29005E-01-1.05828E-13-2.16105E-13
 -1      3668 1.77521E+01 1.28408E+00-9.44688E-03 5.54005E-01-1.06580E-13-3.56774E-13
 -1      3669 1.81078E+01 1.21219E+00 1.31140E-02 2.85592E-01-1.06186E-13-1.95680E-13
 -1      3670 1.73417E+01 1.33634E+00-1.21086E-02 5.21898E-01-5.20557E-14-3.92487E-13
 -1      3671 1.68933E+01 1.37382E+00-1.79176E-02 5.57417E-01 8.24935E-14-4.35193E-13
 -1      3672 1.74279E+01 1.33602E+00 1.97312E-02 1.98801E-01-5.89074E-14-2.59897E-13
 -1      3673 1.59971E+01 1.40043E+00 1.29048E-03 3.42664E-01-8.86357E-15-4.35872E-13
 -1      3674 2.02896E+01 1.23752E+00 4.28295E-03 3.77499E-01 2.28503E-13-3.88305E-13
 -1      3675 2.02432E+01 1.42143E+00-3.50626E-03 4.36510E-01 2.45770E-13-4.05350E-13
 -1      3676 2.02279E+01 1.51908E+00-1.51241E-03 3.67963E-01 2.06044E-13-3.90710E-13
 -1      3677 2.03016E+01 1.04472E+00-2.68525E-03 3.00788E-01 2.04973E-13-3.52364E-13
 -1      3678 2.03564E+01 4.16180E-01 1.44246E-03-2.91621E-02-9.60579E-14-3.07721E-13
 -1      3679 2.03403E+01 3.05497E-01-1.72545E-03 1.88173E-02-1.02891E-13-2.90411E-13
 -1      3680 2.03677E+01 2.94187E-01 2.92187E-04 2.18513E-02-7.01314E-14-2.15261E-13
 -1      3681 2.00362E+01-1.97449E-02 3.52217E-04-6.40013E-02-4.24954E-14-6.81141E-14
 -1      3682 2.00411E+01-3.13061E-02-1.90839E-04-6.58490E-02-5.59658E-14-1.14369E-13
 -1      3683 2.00511E+01-4.17700E-02 3.62502E-04-6.86105E-02-6.56104E-14-1.11936E-13
 -1      3684 2.00570E+01-5.17820E-02-1.20851E-04-7.25110E-02-5.98885E-14-1.55620E-13
 -1      3685 2.00552E+01-3.91552E-02-1.96702E-04-6.05762E-02-8.64669E-14-3.17365E-14
 -1      3686 2.00087E+01 3.33476E-02 3.49745E-04-6.91650E-02-4.27754E-15-7.21034E-14
 -1      3687 2.00130E+01 1.86613E-02-3.45129E-04-6.56369E-02-1.79692E-14-7.26866E-14
 -1      3688 1.99938E+01 6.48608E-02 3.66091E-04-8.05998E-02-4.24298E-14 1.10160E-15
 -1      3689 1.99985E+01 4.83955E-02-4.39468E-04-7.37239E-02-5.88734E-15-6.25185E-14
 -1      3690 2.00020E+01 4.54530E-02 9.51958E-05-6.50984E-02-1.05541E-14-5.51508E-14
 -1      3691 1.99766E+01 1.00019E-01 3.99645E-04-9.92163E-02 8.35361E-14-1.01417E-14
 -1      3692 1.99821E+01 8.16710E-02-5.49225E-04-8.84889E-02 4.32613E-14 9.00527E-15
 -1      3693 1.99820E+01 8.10476E-02 2.02220E-04-7.72864E-02 1.19262E-14 2.23724E-14
 -1      3694 1.99561E+01 1.38738E-01 4.55699E-04-1.26168E-01 5.65379E-14-5.58203E-14
 -1      3695 1.99626E+01 1.18597E-01-6.74494E-04-1.11025E-01 6.93763E-14-9.93967E-14
 -1      3696 1.99585E+01 1.20763E-01 3.11465E-04-9.64542E-02 1.20228E-13-9.50351E-15
 -1      3697 1.99312E+01 1.80289E-01 5.41739E-04-1.62784E-01 1.03757E-13-1.34076E-14
 -1      3698 1.99391E+01 1.58813E-01-8.11851E-04-1.42609E-01 6.77316E-14-4.81238E-14
 -1      3699 1.99300E+01 1.64426E-01 4.16218E-04-1.23894E-01 2.29743E-14-5.34632E-14
 -1      3700 1.99018E+01 2.22873E-01 6.68698E-04-2.10554E-01 5.27084E-14 2.51430E-14
 -1      3701 1.99108E+01 2.01115E-01-9.52695E-04-1.84707E-01 6.85424E-14-3.17007E-14
 -1      3702 1.98953E+01 2.11101E-01 5.03099E-04-1.61177E-01 6.04137E-14-1.07345E-14
 -1      3703 1.98682E+01 2.63085E-01 8.52268E-04-2.71082E-01-2.37983E-14 7.15587E-14
 -1      3704 1.98776E+01 2.42977E-01-1.08078E-03-2.38953E-01 5.79235E-14-3.36167E-15
 -1      3705 1.98538E+01 2.58620E-01 5.48643E-04-2.10196E-01 4.15917E-14 8.82287E-15
 -1      3706 1.98324E+01 2.95244E-01 1.11391E-03-3.45990E-01 4.22905E-14 3.12126E-14
 -1      3707 1.98409E+01 2.79952E-01-1.16856E-03-3.07085E-01 7.33039E-15 7.92448E-14
 -1      3708 1.98056E+01 3.02984E-01 5.14743E-04-2.73194E-01-2.77714E-14 5.30228E-14
 -1      3709 1.97989E+01 3.10623E-01 1.48051E-03-4.36733E-01-7.12031E-14-9.01698E-14
 -1      3710 1.98036E+01 3.04945E-01-1.17160E-03-3.90818E-01-1.86434E-14-1.57829E-14
 -1      3711 1.97526E+01 3.37626E-01 3.42700E-04-3.52767E-01 3.39387E-14 7.50522E-14
 -1      3712 1.97756E+01 2.96645E-01 1.98054E-03-5.44254E-01-1.32639E-13 3.19502E-14
 -1      3713 1.97718E+01 3.07420E-01-1.01980E-03-4.91595E-01-7.79382E-14-2.37715E-15
 -1      3714 1.96994E+01 3.52558E-01-5.45044E-05-4.51792E-01-8.79784E-14-3.00402E-14
 -1      3715 1.97757E+01 2.36201E-01 2.63265E-03-6.68340E-01-1.96663E-13 1.23989E-13
 -1      3716 1.97561E+01 2.72633E-01-6.03589E-04-6.10113E-01-1.26563E-13 8.20592E-14
 -1      3717 1.96543E+01 3.33462E-01-8.02069E-04-5.73197E-01-1.74034E-13 9.70782E-14
 -1      3718 1.98197E+01 1.07453E-01 3.41814E-03-8.06373E-01-2.92352E-13 1.39781E-13
 -1      3719 1.97735E+01 1.81156E-01 2.48349E-04-7.45402E-01-1.87294E-13 1.17587E-13
 -1      3720 1.96318E+01 2.60881E-01-2.07528E-03-7.19365E-01-2.05718E-13 2.47916E-13
 -1      3721 1.99377E+01-1.15321E-01 4.22112E-03-9.50995E-01-2.41298E-13 4.55769E-14
 -1      3722 1.98499E+01 9.13313E-03 1.80173E-03-8.93083E-01-2.98289E-13 1.16488E-14
 -1      3723 1.96548E+01 1.09853E-01-4.11454E-03-8.90825E-01-1.84493E-13 1.62789E-13
 -1      3724 2.01709E+01-4.58727E-01 4.59127E-03-1.08565E+00-2.78126E-13-5.95021E-14
 -1      3725 2.00227E+01-2.69934E-01 4.50463E-03-1.04192E+00-2.67726E-13-4.22221E-14
 -1      3726 1.97577E+01-1.49651E-01-7.24009E-03-1.08350E+00-2.28892E-13-3.01841E-14
 -1      3727 2.05727E+01-9.39097E-01 4.16763E-03-1.17545E+00-5.43009E-14-7.60332E-14
 -1      3728 2.03437E+01-6.79586E-01 8.91456E-03-1.16605E+00-2.12286E-13-1.24725E-13
 -1      3729 1.99921E+01-5.50196E-01-1.17041E-02-1.28221E+00-2.01162E-13-2.69168E-13
 -1      3730 2.11943E+01-1.54765E+00 3.92470E-06-1.16174E+00-1.24290E-13 5.87915E-14
 -1      3731 2.08711E+01-1.22440E+00 1.46859E-02-1.21824E+00-4.50098E-14 4.61468E-14
 -1      3732 2.04259E+01-1.10833E+00-1.69431E-02-1.44535E+00-1.74485E-13-1.01357E-13
 -1      3733 2.20894E+01-2.20231E+00-3.36343E-03-9.35865E-01-1.89046E-13 5.29978E-14
 -1      3734 2.16724E+01-1.87281E+00 2.34655E-02-1.11193E+00-1.52215E-13-1.03997E-15
 -1      3735 2.11405E+01-1.83054E+00-2.54545E-02-1.51347E+00-1.37579E-13 7.19169E-14
 -1      3736 2.32732E+01-2.67276E+00 2.59585E-03-3.58487E-01-3.07561E-13 1.86895E-13
 -1      3737 2.27625E+01-2.49904E+00 2.71669E-02-7.32196E-01-2.08426E-13 5.32806E-14
 -1      3738 2.22080E+01-2.56595E+00-1.99608E-02-1.32773E+00-1.94348E-13 3.46008E-14
 -1      3739 2.36804E+01-3.90320E+00 4.35463E-02-2.11740E+00-2.74981E-13-7.22838E-14
 -1      3740 2.48357E+01-3.95910E+00-4.28567E-02-1.12709E+00-1.60095E-13 1.07662E-13
 -1      3741 2.03529E+01 7.04783E-01 4.23163E-04-1.46325E-01-8.43981E-14-3.30917E-13
 -1      3742 2.03496E+01 5.48083E-01-2.11288E-03-7.46215E-02-7.47334E-14-3.18475E-13
 -1      3743 2.03768E+01 5.32956E-01 7.31394E-04-5.39336E-02-7.81163E-14-2.92556E-13
 -1      3744 2.54323E+01-3.53285E+00 9.76392E-03-3.68546E-01-8.82046E-14 1.38329E-13
 -1      3745 2.60220E+01-3.19629E+00-4.27012E-02 2.64126E-01-1.03328E-13 1.53592E-13
 -1      3746 2.54600E+01-2.50941E+00 1.32860E-02 9.14050E-01-6.76750E-14 2.29225E-13
 -1      3747 2.46985E+01-3.36581E+00 1.38557E-02-4.24475E-01-2.21149E-13 2.73046E-13
 -1      3748 1.40833E+01 7.44835E-01-1.19990E-02-1.77377E+00-7.37023E-14-1.74498E-13
 -1      3749 1.49707E+01 1.39317E-01 4.62406E-02-2.92381E+00-1.01701E-13-2.44721E-13
 -1      3750 1.53906E+01 9.52714E-01 1.68454E-02-1.27511E+00-9.24729E-14-1.91235E-13
 -1      3751 2.01121E+01-8.52813E-02 3.48585E-04-1.00667E-01 7.28672E-14-5.96584E-14
 -1      3752 2.01233E+01-8.74165E-02 1.49813E-04-1.07182E-01 1.34833E-13-4.38845E-14
 -1      3753 2.49015E+01-1.95728E+00-4.03258E-02 1.44073E+00-1.32339E-13 3.26950E-13
 -1      3754 2.01976E+01 1.66661E+00-9.51810E-04-1.81970E-01-1.73232E-14-4.38116E-13
 -1      3755 2.02070E+01 1.61175E+00-3.16398E-03-2.67548E-01-6.78299E-14-4.68641E-13
 -1      3756 2.02666E+01 1.39981E+00 1.62347E-03-2.29927E-01-7.21332E-14-4.41008E-13
 -1      3757 2.03151E+01 1.05676E+00-1.06688E-03-2.83770E-01-1.39383E-13-4.00551E-13
 -1      3758 2.03346E+01 8.47225E-01-1.41546E-03-1.89633E-01-1.06232E-13-3.64620E-13
 -1      3759 2.03586E+01 8.24563E-01 1.55614E-03-1.46226E-01-7.76323E-14-3.25387E-13
 -1      3760 2.03109E+01 1.15142E+00 1.38986E-03-2.42582E-01-1.00786E-13-4.18556E-13
 -1      3761 2.02090E+01 1.04298E-01-9.65371E-04-1.09188E-01 8.48771E-14-1.66002E-13
 -1      3762 2.02327E+01 1.65250E-01 2.01821E-03-7.73661E-02 1.07397E-13-1.86204E-13
 -1      3763 2.02886E+01 2.39014E-01-4.31920E-04-4.21677E-02 1.11492E-13-2.17795E-13
 -1      3764 2.02526E+01 1.00918E-01-5.92811E-04-1.02396E-01 5.78741E-14-1.61886E-13
 -1      3765 2.01914E+01 1.68231E+00-2.70521E-03-2.47198E-02 5.85495E-14-4.30073E-13
 -1      3766 2.01947E+01 1.66694E+00-2.79380E-03-1.14965E-01 1.18210E-14-4.47893E-13
 -1      3767 2.02626E+01 1.45875E+00 2.67518E-03-1.09491E-01 1.46613E-14-4.03092E-13
 -1      3768 2.02751E+01 1.44075E+00 5.16471E-03 1.22755E-02 8.19485E-14-4.05928E-13
 -1      3769 1.99449E+01-2.92086E+00 3.89528E-02-3.94939E+00-2.32842E-13-3.59886E-13
 -1      3770 2.18461E+01-3.77517E+00-5.58862E-02-3.27657E+00-3.46966E-13-3.43154E-13
 -1      3771 2.00224E+01 5.24480E-03 3.46440E-04-6.39205E-02-1.04972E-15-4.07792E-14
 -1      3772 2.00268E+01-7.82440E-03-2.63684E-04-6.32898E-02 2.61803E-15-2.98888E-14
 -1      3773 2.00372E+01-1.43771E-02-1.04141E-04-5.75826E-02-3.47187E-14-9.78688E-14
 -1      3774 2.47516E+01-2.45361E+00-6.01529E-03 8.24016E-01-1.61478E-13 3.16749E-13
 -1      3775 2.00199E+01 1.37560E-02-7.02814E-06-5.88274E-02 1.98786E-14-3.00787E-14
 -1      3776 1.62731E+01-3.17640E-01 2.25154E-02-3.01340E+00-1.83600E-13-1.93554E-13
 -1      3777 1.61871E+01 1.36881E+00 2.81913E-02-1.28235E-01-7.48954E-14-3.15336E-13
 -1      3778 2.02898E+01 1.31798E+00 4.48775E-03 2.74741E-01 1.83165E-13-3.65139E-13
 -1      3779 2.02473E+01 5.14928E-04-3.39635E-04-1.20919E-01 1.00067E-13-1.64677E-13
 -1      3780 2.02682E+01 3.90679E-02 1.01579E-03-1.10140E-01 7.16495E-14-1.68570E-13
 -1      3781 2.42586E+01-2.77381E+00-2.15188E-02 2.92172E-01-2.97463E-13 2.35915E-13
 -1      3782 2.00752E+01-6.04540E-02-2.84968E-04-6.70401E-02-3.18866E-15-3.95697E-16
 -1      3783 2.00682E+01-6.06392E-02 3.71276E-04-7.69348E-02-1.18260E-14-1.03297E-13
 -1      3784 2.00754E+01-6.88148E-02-4.62329E-05-8.24025E-02 2.57142E-14-9.98268E-14
 -1      3785 2.26794E+01-3.44518E+00 1.93883E-02-2.30198E+00-3.55575E-13-8.46146E-14
 -1      3786 2.02087E+01-5.07624E-02-2.57876E-05-1.27296E-01 5.79945E-14-1.53664E-13
 -1      3787 2.02276E+01-2.84252E-02 7.15339E-04-1.24810E-01 8.24662E-14-1.54603E-13
 -1      3788 2.02727E+01-8.52296E-03-4.66606E-04-1.05532E-01 8.45448E-14-2.02188E-13
 -1      3789 2.00882E+01-7.56296E-02 3.70328E-04-8.80289E-02-1.53381E-14-1.04887E-13
 -1      3790 2.00973E+01-8.13355E-02 4.10911E-05-9.44440E-02 1.18806E-14-6.85369E-14
 -1      3791 2.00982E+01-7.76073E-02-3.67845E-04-7.61200E-02 3.03533E-14-3.88134E-14
 -1      3792 2.03220E+01 1.14827E+00-2.72564E-03 1.34446E-01 1.24692E-13-3.67804E-13
 -1      3793 2.03187E+01 1.18205E+00-1.71703E-03 7.78299E-02 9.89755E-14-3.85960E-13
 -1      3794 2.01250E+01-8.91945E-02-4.44463E-04-8.67320E-02 3.17916E-14-3.25742E-14
 -1      3795 2.03387E+01 4.23812E-01-2.22083E-03 2.99432E-02 1.15593E-13-2.74614E-13
 -1      3796 2.03550E+01 5.58935E-01 2.90951E-03 9.39651E-02 1.34415E-13-3.06319E-13
 -1      3797 1.82294E+01-1.64684E+00-2.41358E-02-3.58004E+00-2.46036E-13-3.04984E-13
 -1      3798 1.91587E+01-2.36933E+00 2.67111E-02-3.88046E+00-2.23705E-13-3.22166E-13
 -1      3799 2.01410E+01-2.51581E+00-3.32518E-02-3.23079E+00-2.37035E-13-2.92240E-13
 -1      3800 2.01561E+01-9.28269E-02-5.19919E-04-9.74502E-02 1.12149E-13-1.13521E-13
 -1      3801 2.01402E+01-8.71532E-02 2.91534E-04-1.13178E-01 1.50152E-13-1.17437E-13
 -1      3802 2.01538E+01-8.39879E-02 2.91883E-04-1.18613E-01 1.38503E-13-8.63704E-14
 -1      3803 2.03341E+01 7.03508E-01-3.05847E-03 1.51765E-01 1.63357E-13-3.17662E-13
 -1      3804 2.03405E+01 8.50159E-01 3.43541E-03 2.17179E-01 1.86723E-13-3.36840E-13
 -1      3805 2.03148E+01 1.05318E+00-1.13804E-03 2.61073E-01 1.92772E-13-3.53571E-13
 -1      3806 2.03614E+01 6.87663E-01-6.40692E-04 1.18145E-01 1.44269E-13-3.05766E-13
 -1      3807 2.03193E+01 1.08765E+00-1.83215E-03 1.96594E-01 1.54279E-13-3.57658E-13
 -1      3808 2.03637E+01 9.25569E-01 3.71769E-03 1.37403E-01 1.09821E-13-3.32012E-13
 -1      3809 2.38333E+01-2.91607E+00 1.44065E-02-3.13570E-01-2.84301E-13 2.51703E-13
 -1      3810 2.34991E+01-3.26964E+00 2.10039E-03-1.13380E+00-3.22257E-13 2.53071E-13
 -1      3811 2.03386E+01 5.07048E-02 6.42114E-04 7.13773E-02-5.91974E-14-2.13451E-13
 -1      3812 2.03167E+01 6.25026E-03-2.97176E-04 8.06079E-02-7.29118E-14-2.05256E-13
 -1      3813 2.02955E+01-2.76602E-02 5.29396E-04 8.30204E-02-6.26611E-14-2.05229E-13
 -1      3814 2.02734E+01-5.37349E-02-1.33434E-05 8.59808E-02-4.41391E-14-2.04133E-13
 -1      3815 2.03273E+01-5.77446E-03-3.44094E-04 6.28527E-02-6.24220E-14-2.17579E-13
 -1      3816 2.02510E+01-7.23673E-02 4.09300E-04 8.49826E-02-4.72942E-14-2.22495E-13
 -1      3817 2.02304E+01-8.54013E-02 1.66649E-04 8.39713E-02-4.21495E-14-2.11134E-13
 -1      3818 2.02819E+01-6.25840E-02-4.84131E-04 6.63683E-02-6.16669E-14-2.03097E-13
 -1      3819 2.02087E+01-9.33340E-02 2.99697E-04 8.10086E-02-3.21413E-14-2.12274E-13
 -1      3820 2.01902E+01-9.73100E-02 2.70426E-04 7.77720E-02-8.28935E-14-1.98430E-13
 -1      3821 2.02370E+01-9.15602E-02-5.32496E-04 6.44980E-02-4.90708E-14-2.41154E-13
 -1      3822 2.01702E+01-9.78979E-02 2.06684E-04 7.39086E-02-9.46203E-14-1.85358E-13
 -1      3823 2.01541E+01-9.56767E-02 3.21812E-04 6.97122E-02-4.97274E-14-1.17182E-13
 -1      3824 2.01952E+01-1.01170E-01-5.29056E-04 5.96068E-02-4.91878E-14-1.85340E-13
 -1      3825 2.01362E+01-9.12347E-02 1.23485E-04 6.57266E-02-7.07714E-14-1.28905E-13
 -1      3826 2.01225E+01-8.47863E-02 3.33875E-04 6.15068E-02-1.07439E-13-1.17063E-13
 -1      3827 2.01577E+01-9.74248E-02-4.85132E-04 5.34813E-02-6.32954E-14-1.29903E-13
 -1      3828 2.01067E+01-7.68807E-02 4.53031E-05 5.79443E-02-1.18788E-13-1.07257E-13
 -1      3829 2.00950E+01-6.74482E-02 3.21628E-04 5.43670E-02-8.09885E-14-1.39095E-13
 -1      3830 2.01246E+01-8.44837E-02-4.12106E-04 4.73645E-02-8.30223E-14-1.37261E-13
 -1      3831 2.00810E+01-5.70132E-02-2.89662E-05 5.16149E-02-7.45314E-14-1.57921E-13
 -1      3832 2.00709E+01-4.52884E-02 2.94641E-04 4.91656E-02-7.30132E-14-1.93154E-13
 -1      3833 2.00957E+01-6.50512E-02-3.17607E-04 4.22000E-02-8.97956E-14-1.38005E-13
 -1      3834 2.00580E+01-3.27707E-02-1.05081E-04 4.75045E-02-7.20236E-14-1.87465E-13
 -1      3835 2.00489E+01-1.90060E-02 2.58101E-04 4.65574E-02-1.05621E-13-1.59042E-13
 -1      3836 2.00698E+01-4.06441E-02-2.08582E-04 3.86337E-02-9.27880E-14-1.82113E-13
 -1      3837 2.00365E+01-4.47236E-03-1.87326E-04 4.62054E-02-8.40508E-14-1.08575E-13
 -1      3838 2.00276E+01 1.14197E-02 2.13667E-04 4.70695E-02-1.04561E-14-7.06734E-14
 -1      3839 2.00459E+01-1.18471E-02-8.54583E-05 3.71516E-02-4.87819E-14-1.02040E-13
 -1      3840 2.00148E+01 2.81986E-02-2.79998E-04 4.82031E-02-8.55649E-15-5.59341E-14
 -1      3841 2.00052E+01 4.65690E-02 1.59607E-04 5.11494E-02-3.12212E-15-4.56607E-14
 -1      3842 2.00220E+01 2.14657E-02 5.48329E-05 3.81251E-02-1.02235E-14-3.83126E-14
 -1      3843 1.99908E+01 6.60528E-02-3.86970E-04 5.39090E-02-1.06488E-14-3.02927E-14
 -1      3844 1.99795E+01 8.74535E-02 9.05221E-05 5.91776E-02 4.50084E-14-1.24922E-14
 -1      3845 1.99964E+01 5.99624E-02 2.18177E-04 4.18312E-02-8.44412E-15-8.08094E-14
 -1      3846 1.99622E+01 1.10277E-01-5.11382E-04 6.36525E-02 1.68361E-14 2.39458E-16
 -1      3847 1.99478E+01 1.35406E-01-3.31064E-06 7.14356E-02 2.63014E-14-1.83269E-14
 -1      3848 1.99664E+01 1.04712E-01 4.13170E-04 4.84357E-02 2.83958E-14 2.22198E-14
 -1      3849 1.99261E+01 1.62329E-01-6.55228E-04 7.76242E-02 1.27020E-15-4.84629E-14
 -1      3850 1.99069E+01 1.91971E-01-1.37022E-04 8.80219E-02-2.06934E-14-8.26223E-14
 -1      3851 1.99294E+01 1.57052E-01 6.51238E-04 5.79296E-02-3.26156E-14 3.20554E-14
 -1      3852 1.98787E+01 2.23823E-01-8.18860E-04 9.57604E-02 2.38633E-14-1.32346E-13
 -1      3853 1.98526E+01 2.58785E-01-3.32662E-04 1.08700E-01 1.18853E-14 3.56300E-15
 -1      3854 1.98816E+01 2.18453E-01 9.46980E-04 7.00087E-02 2.29601E-15-8.61980E-14
 -1      3855 1.98157E+01 2.96390E-01-1.00047E-03 1.17551E-01-1.49730E-15 3.73587E-14
 -1      3856 1.97799E+01 3.37412E-01-6.21101E-04 1.32662E-01-2.69984E-14 5.43587E-14
 -1      3857 1.98190E+01 2.90348E-01 1.31876E-03 8.38769E-02 3.11739E-14-7.04162E-15
 -1      3858 1.97314E+01 3.81493E-01-1.19584E-03 1.41756E-01-2.05176E-14 8.92979E-14
 -1      3859 1.96822E+01 4.29111E-01-1.04423E-03 1.58197E-01 6.32733E-14 1.78826E-14
 -1      3860 1.97361E+01 3.73919E-01 1.78961E-03 9.79582E-02 4.90830E-14-2.75245E-14
 -1      3861 1.96185E+01 4.80140E-01-1.39898E-03 1.66015E-01-2.83131E-14-1.55827E-14
 -1      3862 1.95512E+01 5.34501E-01-1.65741E-03 1.82246E-01 3.01269E-14 1.69985E-14
 -1      3863 1.96266E+01 4.69793E-01 2.38876E-03 1.09497E-01-2.30266E-15 1.20464E-14
 -1      3864 1.94679E+01 5.92472E-01-1.60479E-03 1.86351E-01 5.62370E-14-6.38977E-14
 -1      3865 1.93761E+01 6.53048E-01-2.53240E-03 1.99860E-01 1.04140E-13 4.55231E-15
 -1      3866 1.94824E+01 5.77620E-01 3.15426E-03 1.14037E-01 9.47315E-15-1.27933E-13
 -1      3867 1.92678E+01 7.17147E-01-1.81601E-03 1.96581E-01 1.31600E-13 9.86165E-15
 -1      3868 1.91432E+01 7.82339E-01-3.76189E-03 2.03611E-01 1.25955E-13-4.20599E-14
 -1      3869 1.92934E+01 6.95488E-01 4.13839E-03 1.04778E-01 7.33560E-14-1.27243E-13
 -1      3870 1.90029E+01 8.50473E-01-2.05773E-03 1.87706E-01 1.42658E-13-6.02802E-14
 -1      3871 1.88345E+01 9.17058E-01-5.46869E-03 1.83051E-01 1.54350E-13-8.06000E-14
 -1      3872 1.90470E+01 8.19139E-01 5.41927E-03 7.18394E-02 1.72122E-13-2.24253E-14
 -1      3873 1.86530E+01 9.85223E-01-2.40160E-03 1.47402E-01 5.98280E-14-1.91231E-13
 -1      3874 1.84258E+01 1.04762E+00-7.85150E-03 1.24416E-01-3.61030E-14-2.11001E-13
 -1      3875 1.87271E+01 9.40965E-01 7.12379E-03 1.46743E-03 3.52276E-14-1.13213E-13
 -1      3876 1.81903E+01 1.10919E+00-2.98545E-03 5.96247E-02-8.54223E-14-2.49015E-13
 -1      3877 1.78829E+01 1.15850E+00-1.12409E-02 1.07086E-02-7.42488E-14-2.27106E-13
 -1      3878 1.83124E+01 1.04863E+00 9.45988E-03-1.24868E-01-6.48673E-14-1.65847E-13
 -1      3879 1.75745E+01 1.20427E+00-3.76985E-03-9.47825E-02-7.07110E-14-1.70223E-13
 -1      3880 1.71412E+01 1.21749E+00-2.24465E-02-1.76250E-01-9.34652E-14-2.23211E-13
 -1      3881 1.77734E+01 1.12317E+00 1.27560E-02-3.32372E-01-5.14057E-14-1.99442E-13
 -1      3882 1.99418E+01 1.40250E-01 2.53243E-04-8.84436E-02 6.27692E-14 9.13128E-14
 -1      3883 1.99540E+01 1.17518E-01-6.09066E-04-7.74301E-02 8.50861E-14 7.88153E-14
 -1      3884 2.00587E+01-3.46022E-02 2.97061E-04-5.00376E-02-2.09188E-14-8.52201E-14
 -1      3885 2.00679E+01-4.68496E-02-7.56795E-05-5.21126E-02-3.39841E-14-4.12919E-14
 -1      3886 1.99711E+01 9.65480E-02 2.34494E-04-6.97705E-02 1.26543E-14-7.95359E-15
 -1      3887 1.99814E+01 7.62382E-02-4.65926E-04-6.23464E-02-4.65087E-14 3.98327E-15
 -1      3888 1.99562E+01 1.15259E-01 3.78792E-04-6.13324E-02 9.28392E-15 6.42919E-15
 -1      3889 1.99958E+01 5.75512E-02 2.35551E-04-5.75808E-02-3.55138E-14-1.42345E-15
 -1      3890 2.00048E+01 3.95359E-02-3.45273E-04-5.31782E-02 2.07179E-14-3.31613E-14
 -1      3891 1.99858E+01 7.21519E-02 2.26154E-04-4.95929E-02-4.06662E-14 5.15542E-14
 -1      3892 1.99059E+01 1.88528E-01 3.01776E-04-1.14983E-01 3.66454E-14 1.06566E-13
 -1      3893 1.99209E+01 1.63497E-01-7.77526E-04-9.96815E-02 5.92789E-14 1.52991E-13
 -1      3894 1.99205E+01 1.63634E-01 5.41348E-04-7.91223E-02 3.08146E-14 1.57368E-13
 -1      3895 1.98622E+01 2.40445E-01 3.95052E-04-1.51151E-01 8.60136E-14 1.30386E-13
 -1      3896 1.98801E+01 2.13690E-01-9.72216E-04-1.30704E-01 8.99700E-14 1.16257E-13
 -1      3897 1.98766E+01 2.17099E-01 7.07623E-04-1.04518E-01 9.23306E-14 1.12174E-13
 -1      3898 1.98094E+01 2.93774E-01 5.55163E-04-1.99195E-01 7.62501E-15 9.07236E-14
 -1      3899 1.98305E+01 2.66580E-01-1.19082E-03-1.72550E-01 2.31042E-14 5.69469E-14
 -1      3900 1.98223E+01 2.74581E-01 8.64552E-04-1.39604E-01 9.56323E-14 1.53939E-13
 -1      3901 1.97476E+01 3.44372E-01 8.13769E-04-2.61949E-01-3.85896E-14-4.63632E-15
 -1      3902 1.97713E+01 3.19062E-01-1.42569E-03-2.27837E-01 2.85935E-14 8.69906E-15
 -1      3903 1.97563E+01 3.33595E-01 9.88669E-04-1.87168E-01 2.91315E-14 4.03588E-14
 -1      3904 1.96785E+01 3.85419E-01 1.21455E-03-3.42951E-01-1.12790E-14-5.40586E-14
 -1      3905 1.97031E+01 3.65754E-01-1.66013E-03-2.99864E-01 1.07051E-14-8.54856E-14
 -1      3906 1.96779E+01 3.89575E-01 1.04128E-03-2.50912E-01 3.80644E-15-2.40332E-13
 -1      3907 1.96065E+01 4.06512E-01 1.81488E-03-4.46507E-01-1.87253E-13 4.14525E-14
 -1      3908 1.96285E+01 3.98159E-01-1.86192E-03-3.92724E-01-8.24198E-14 8.89366E-15
 -1      3909 1.95880E+01 4.35053E-01 9.61708E-04-3.35699E-01-7.76837E-14-6.66849E-14
 -1      3910 1.95402E+01 3.92669E-01 2.68427E-03-5.77630E-01-2.92601E-13 2.05959E-13
 -1      3911 1.95539E+01 4.03716E-01-1.97130E-03-5.11334E-01-2.73910E-13 3.27438E-14
 -1      3912 1.94904E+01 4.58675E-01 6.57046E-04-4.47784E-01-2.17661E-13 5.24721E-14
 -1      3913 1.94945E+01 3.23351E-01 3.89414E-03-7.41631E-01-1.66650E-13 1.95845E-13
 -1      3914 1.94905E+01 3.64798E-01-1.87939E-03-6.61251E-01-1.51709E-13 2.23771E-13
 -1      3915 1.93928E+01 4.44054E-01-1.49358E-05-5.94945E-01-2.36687E-13 2.04750E-13
 -1      3916 1.94936E+01 1.71784E-01 5.49588E-03-9.42955E-01-1.21321E-13-7.33444E-15
 -1      3917 1.94575E+01 2.57863E-01-1.39087E-03-8.47954E-01-1.15461E-13 1.38159E-13
 -1      3918 1.93096E+01 3.68534E-01-1.27644E-03-7.86256E-01-1.04418E-13 1.36828E-13
 -1      3919 1.95749E+01-9.50281E-02 7.55672E-03-1.18258E+00-1.29327E-13-1.88666E-13
 -1      3920 1.94855E+01 5.31373E-02-1.58850E-04-1.07518E+00-1.22407E-13-1.10739E-13
 -1      3921 1.92649E+01 2.02154E-01-3.48553E-03-1.03106E+00-1.94989E-14-7.67152E-14
 -1      3922 1.97966E+01-5.15273E-01 1.05736E-02-1.45153E+00-1.79180E-13-3.65619E-13
 -1      3923 1.96222E+01-2.85361E-01 2.62293E-03-1.34166E+00-1.69046E-13-2.63055E-13
 -1      3924 1.92969E+01-9.39734E-02-7.37307E-03-1.33709E+00-7.71366E-14-1.00009E-13
 -1      3925 2.02417E+01-1.13000E+00 1.18551E-02-1.71845E+00-1.94162E-13-2.98166E-13
 -1      3926 1.99454E+01-8.03539E-01 7.19460E-03-1.63161E+00-1.83731E-13-3.85887E-13
 -1      3927 1.94663E+01-5.63726E-01-1.22309E-02-1.71056E+00-1.85178E-13-2.91711E-13
 -1      3928 2.09409E+01-1.94649E+00-7.74911E-03-1.91272E+00-1.99060E-13-1.94838E-13
 -1      3929 2.05455E+01-1.48430E+00 2.08874E-02-1.86299E+00-1.78713E-13-2.80742E-13
 -1      3930 1.99187E+01-1.29693E+00-2.20363E-02-2.11653E+00-2.27101E-13-4.44372E-13
 -1      3931 2.23420E+01-2.91856E+00-1.89863E-02-1.68807E+00-3.33251E-13 6.81469E-14
 -1      3932 2.18141E+01-2.44221E+00 3.73043E-02-1.80704E+00-2.45410E-13-3.01551E-14
 -1      3933 2.09373E+01-2.27779E+00-3.14594E-02-2.28283E+00-2.94162E-13-1.94296E-13
 -1      3934 2.29135E+01-3.35438E+00-3.01125E-02-1.76247E+00-3.47424E-13 4.54957E-14
 -1      3935 1.67575E+01 1.21274E+00 5.75743E-03-4.46617E-01-8.37069E-14-2.78592E-13
 -1      3936 1.58149E+01 1.11745E+00-2.68803E-02-8.11329E-01-2.37734E-14-2.04838E-13
 -1      3937 1.61536E+01 8.27085E-01 2.95814E-02-1.60296E+00-7.41100E-14-1.08110E-13
 -1      3938 1.70476E+01 1.10109E+00 1.95662E-02-7.64976E-01-1.50505E-13-1.32016E-13
 -1      3939 2.03703E+01 1.00897E+00 4.73719E-03 4.71366E-02 7.56777E-14-3.59743E-13
 -1      3940 2.03125E+01 1.20889E+00-3.60652E-03 3.93311E-02 1.00846E-13-3.82160E-13
 -1      3941 2.03115E+01 1.23837E+00-6.39660E-04-1.30987E-02 5.60908E-14-3.80217E-13
 -1      3942 2.03751E+01 1.75685E-01 7.20117E-04 4.53690E-02-5.40780E-14-2.05654E-13
 -1      3943 2.03559E+01 1.05941E-01-7.02067E-04 6.37051E-02-4.12782E-14-2.13944E-13
 -1      3944 2.03688E+01 9.00025E-02-8.23093E-05 5.08451E-02-5.72671E-14-2.58460E-13
 -1      3945 2.03902E+01 6.34621E-01 1.31859E-04-7.04573E-02-4.21311E-14-3.13006E-13
 -1      3946 2.03921E+01 4.87340E-01-1.48182E-03-2.51741E-02-3.96928E-14-2.83786E-13
 -1      3947 2.15643E+01-2.90451E+00 5.15036E-02-2.73090E+00-3.05078E-13-1.66756E-13
 -1      3948 2.01356E+01-9.06656E-02 3.33298E-04-7.03412E-02 1.43185E-14-5.67890E-14
 -1      3949 2.01502E+01-9.48044E-02 1.75936E-04-7.50087E-02 6.25221E-14-4.32992E-14
 -1      3950 2.03397E+01 3.14305E-01 2.05042E-03-9.62612E-03 8.65813E-14-2.53491E-13
 -1      3951 2.03671E+01 4.12504E-01-3.55485E-04 1.76203E-02 7.80759E-14-2.74596E-13
 -1      3952 2.03184E+01 2.21772E-01-1.46721E-03-5.06010E-02 6.29094E-14-2.31288E-13
 -1      3953 2.01725E+01-7.74502E-02 1.76820E-04-1.23175E-01 6.09601E-14-1.32152E-13
 -1      3954 2.01888E+01-6.64769E-02 4.78865E-04-1.25825E-01 4.52848E-14-1.71759E-13
 -1      3955 2.01917E+01-8.46093E-02-5.56286E-04-1.06208E-01 8.04790E-14-1.90519E-13
 -1      3956 1.63615E+01 1.76216E-01-3.49703E-02-2.33230E+00-1.38549E-13-1.41464E-13
 -1      3957 1.72443E+01-6.57136E-01 3.53857E-02-3.19547E+00-2.08317E-13-1.94180E-13
 -1      3958 1.82510E+01-1.01789E+00-1.64446E-02-2.92299E+00-2.66808E-13-1.91774E-13
 -1      3959 2.03776E+01 7.45973E-01-1.04464E-03 8.02777E-02 8.19335E-14-2.98769E-13
 -1      3960 2.00380E+01-7.64819E-03 2.71647E-04-4.85167E-02-2.05813E-14-7.81385E-14
 -1      3961 2.00464E+01-2.17159E-02-1.54929E-04-4.88168E-02 4.08676E-15-5.90762E-14
 -1      3962 2.00577E+01-2.93012E-02-1.62637E-04-4.02979E-02 5.18148E-15-1.11748E-13
 -1      3963 2.00175E+01 2.29624E-02 2.49625E-04-5.07868E-02-9.72488E-15-3.83278E-14
 -1      3964 2.00259E+01 7.01790E-03-2.43144E-04-4.89370E-02-4.97250E-14-3.57474E-14
 -1      3965 2.00112E+01 3.40000E-02 8.53879E-05-4.27370E-02-1.62106E-14-1.82153E-14
 -1      3966 2.03965E+01 3.63461E-01 6.76798E-04-3.92905E-04-4.87739E-14-2.54745E-13
 -1      3967 2.03842E+01 2.59960E-01-1.21746E-03 3.02436E-02-4.02319E-14-2.11486E-13
 -1      3968 2.04106E+01 4.58040E-01 8.86723E-04-1.36470E-02-1.37141E-14-2.65996E-13
 -1      3969 2.03024E+01 1.25801E+00 3.43598E-04-1.43452E-01-9.48212E-15-3.79386E-13
 -1      3970 2.03069E+01 1.19998E+00-1.52322E-03-1.99750E-01-5.85497E-14-4.13829E-13
 -1      3971 2.03421E+01 1.02547E+00 9.53690E-04-1.50922E-01-5.70813E-14-3.84978E-13
 -1      3972 2.03987E+01 5.42198E-01 1.41739E-03 4.85045E-02 8.03030E-14-2.78382E-13
 -1      3973 2.03922E+01 7.45268E-01-1.09887E-03 5.39769E-02 6.25183E-14-2.94807E-13
 -1      3974 2.02311E+01-5.90525E-02-5.43872E-04-1.10214E-01 4.53413E-14-2.07679E-13
 -1      3975 2.00346E+01 3.17140E-04-4.38348E-05-3.98749E-02-6.49854E-14-2.49897E-14
 -1      3976 2.00820E+01-5.49547E-02-2.71755E-04-4.33927E-02 1.95539E-14-5.13450E-14
 -1      3977 2.00811E+01-5.79015E-02 3.20757E-04-5.46752E-02-1.33099E-14 1.07386E-14
 -1      3978 2.00917E+01-6.81441E-02-4.71482E-07-5.81322E-02 2.02222E-14 1.25562E-14
 -1      3979 2.01746E+01-9.98341E-02-5.79866E-04-6.22450E-02 4.16733E-15-1.38130E-13
 -1      3980 2.01689E+01-9.65390E-02 2.90136E-04-7.92827E-02 4.07798E-14-1.02139E-13
 -1      3981 2.01860E+01-9.55836E-02 2.65830E-04-8.33082E-02 4.64972E-14-1.55946E-13
 -1      3982 2.03998E+01 2.38948E-01 3.46400E-04 2.65760E-02-3.24726E-14-2.32660E-13
 -1      3983 2.01065E+01-7.70201E-02 3.35869E-04-6.17241E-02-5.27135E-15-3.17260E-14
 -1      3984 2.01188E+01-8.47223E-02 7.47790E-05-6.60948E-02 2.10420E-14-4.13241E-14
 -1      3985 2.01090E+01-7.62231E-02-3.70422E-04-4.85558E-02-2.06119E-14-1.89876E-14
 -1      3986 2.07342E+01-2.42929E+00 1.64706E-02-2.75147E+00-2.84947E-13-1.53872E-13
 -1      3987 1.68811E+01 4.85744E-01 9.64245E-03-1.79896E+00-1.08870E-13-1.56593E-13
 -1      3988 2.01398E+01-9.19321E-02-4.54472E-04-5.51121E-02 3.98285E-14-5.20159E-14
 -1      3989 2.03935E+01 4.12016E-01-9.69571E-04 4.99407E-03 4.51034E-14-2.70303E-13
 -1      3990 2.03955E+01 7.66242E-01-2.45338E-03 3.92338E-02 5.69416E-14-3.33262E-13
 -1      3991 2.03954E+01 8.00378E-01-4.10275E-04 1.33343E-02 4.47857E-14-3.45317E-13
 -1      3992 2.04218E+01 5.71109E-01 2.67329E-03 1.72209E-02 4.52179E-14-3.13885E-13
 -1      3993 2.03612E+01 8.86428E-01-1.48139E-03-1.31433E-01-5.10786E-14-3.55334E-13
 -1      3994 2.03775E+01 7.44618E-01-5.57212E-04-8.96204E-02-4.72813E-14-3.19747E-13
 -1      3995 2.03965E+01 7.02340E-01 1.38963E-03-5.82318E-02-2.19989E-14-2.95366E-13
 -1      3996 2.03633E+01 9.35702E-01-8.14558E-04-9.56076E-02-7.48795E-15-3.21295E-13
 -1      3997 2.03132E+01 7.74047E-02-3.19966E-04-8.70506E-02 5.14724E-14-1.98887E-13
 -1      3998 2.02855E+01 8.67668E-02-7.94973E-04-9.78441E-02 2.34583E-14-1.73228E-13
 -1      3999 2.02912E+01-2.30406E-02-1.66584E-04-8.99525E-02 5.06963E-14-2.41406E-13
 -1      4000 2.03132E+01 1.23417E-02 6.14884E-04-8.35343E-02 8.09480E-14-2.46219E-13
 -1      4001 2.03029E+01 1.25762E+00-1.64255E-03-8.70007E-02 1.76432E-14-3.78831E-13
 -1      4002 2.03076E+01 1.47948E-01 1.45379E-03-7.45873E-02 3.08611E-14-2.00977E-13
 -1      4003 2.03326E+01 5.71084E-02-4.99091E-04-7.79417E-02 6.66646E-14-2.67982E-13
 -1      4004 2.03535E+01 1.13757E-01 6.65226E-04-6.29213E-02 3.24475E-14-2.45973E-13
 -1      4005 2.03465E+01 4.33933E-02-2.69071E-04-6.27698E-02 4.34289E-14-2.98813E-13
 -1      4006 2.03934E+01 1.23561E-01 2.98318E-04 2.98731E-02-2.19203E-14-2.41791E-13
 -1      4007 2.03740E+01 6.24744E-02-2.93236E-04 3.97778E-02-3.42711E-14-2.38744E-13
 -1      4008 2.03532E+01 1.06420E+00 2.49959E-03-5.18181E-02 3.63268E-14-3.49302E-13
 -1      4009 2.03085E+01-5.23098E-02 4.09836E-04 4.51747E-02-7.01442E-14-1.88001E-13
 -1      4010 2.02850E+01-7.34497E-02 1.28140E-04 4.66531E-02-6.35211E-14-2.06512E-13
 -1      4011 2.02616E+01-8.80408E-02 3.35840E-04 4.51106E-02-6.27369E-14-1.69232E-13
 -1      4012 2.02394E+01-9.72820E-02 2.38244E-04 4.43773E-02-5.26574E-14-1.90663E-13
 -1      4013 2.02817E+01-8.11514E-02-6.63112E-04 2.59286E-02-5.14692E-14-1.54125E-13
 -1      4014 2.02169E+01-1.02055E-01 2.47376E-04 4.25246E-02-3.91348E-14-1.63239E-13
 -1      4015 2.01970E+01-1.03151E-01 3.12055E-04 4.06976E-02-2.73273E-14-1.15634E-13
 -1      4016 2.02353E+01-1.01196E-01-6.23225E-04 2.44209E-02-2.99478E-14-8.86014E-14
 -1      4017 2.01765E+01-1.01156E-01 2.33934E-04 3.83850E-02-4.77824E-14-1.31955E-13
 -1      4018 2.01587E+01-9.65945E-02 3.15656E-04 3.62185E-02-6.31882E-14-1.27271E-13
 -1      4019 2.01930E+01-1.04682E-01-6.98698E-04 2.23222E-02-3.45335E-14-8.81468E-14
 -1      4020 2.01404E+01-8.99892E-02 1.77420E-04 3.41573E-02-8.19814E-14-1.66087E-13
 -1      4021 2.01249E+01-8.15320E-02 2.97153E-04 3.20943E-02-7.64092E-14-1.49236E-13
 -1      4022 2.01544E+01-9.59217E-02-7.07496E-04 2.01175E-02-6.98084E-14-1.31168E-13
 -1      4023 2.01086E+01-7.16908E-02 1.05302E-04 3.03863E-02-7.08083E-14-1.16685E-13
 -1      4024 2.00950E+01-6.03941E-02 2.57290E-04 2.87898E-02-6.48338E-14-8.46309E-14
 -1      4025 2.01205E+01-7.88768E-02-5.84078E-04 1.79823E-02-6.94414E-14-1.41830E-13
 -1      4026 2.00803E+01-4.80551E-02 3.28330E-05 2.75688E-02-3.63958E-14-6.51648E-14
 -1      4027 2.00679E+01-3.44486E-02 2.03568E-04 2.67106E-02-6.71226E-14 2.79726E-15
 -1      4028 2.00904E+01-5.57981E-02-4.26695E-04 1.63005E-02-3.20508E-14-1.60173E-14
 -1      4029 2.00541E+01-1.99114E-02-4.34570E-05 2.60605E-02-5.03182E-14 4.46068E-14
 -1      4030 2.00423E+01-4.11542E-03 1.37584E-04 2.61432E-02 1.23664E-14 3.80175E-14
 -1      4031 2.00628E+01-2.78373E-02-2.48054E-04 1.52894E-02 5.14784E-15 7.47972E-14
 -1      4032 2.00286E+01 1.26726E-02-1.25592E-04 2.61082E-02-4.02190E-14 6.13024E-14
 -1      4033 2.00163E+01 3.08455E-02 5.76014E-05 2.72776E-02-3.35204E-14 7.38819E-15
 -1      4034 2.00363E+01 4.70331E-03-4.88690E-05 1.50605E-02 2.00330E-14 2.11196E-14
 -1      4035 2.00015E+01 5.02017E-02-2.15059E-04 2.78583E-02-2.04535E-14 5.89699E-14
 -1      4036 1.99878E+01 7.11618E-02-4.15987E-05 3.02016E-02 1.25426E-14 3.91543E-14
 -1      4037 2.00088E+01 4.21485E-02 1.74794E-04 1.56269E-02-5.47094E-15 2.45031E-14
 -1      4038 1.99707E+01 9.35922E-02-3.12323E-04 3.13347E-02 8.48998E-15 6.95786E-14
 -1      4039 1.99540E+01 1.17895E-01-1.69179E-04 3.48574E-02 3.63402E-14 5.84255E-14
 -1      4040 1.99781E+01 8.52643E-02 4.29718E-04 1.68731E-02 1.64744E-14 6.67457E-14
 -1      4041 1.99333E+01 1.44021E-01-4.16009E-04 3.63744E-02-1.50508E-15 1.29225E-14
 -1      4042 1.99121E+01 1.72287E-01-3.39082E-04 4.09529E-02-5.53003E-14 1.78973E-14
 -1      4043 1.99415E+01 1.35083E-01 7.24507E-04 1.84863E-02 1.05959E-15 5.91224E-14
 -1      4044 1.98860E+01 2.02766E-01-5.21803E-04 4.25123E-02-6.52302E-14 9.67242E-14
 -1      4045 1.98582E+01 2.35586E-01-5.71289E-04 4.78119E-02-2.51286E-14 4.75375E-14
 -1      4046 1.98959E+01 1.92719E-01 1.06866E-03 1.98416E-02-4.61982E-14 1.42626E-13
 -1      4047 1.98248E+01 2.71019E-01-6.21109E-04 4.87960E-02 2.54370E-15 3.03667E-14
 -1      4048 1.97879E+01 3.08839E-01-8.93499E-04 5.41479E-02 2.89581E-14 4.95983E-14
 -1      4049 1.98376E+01 2.59155E-01 1.47156E-03 1.98236E-02-6.68003E-15 5.55302E-14
 -1      4050 1.97451E+01 3.49643E-01-6.99502E-04 5.35147E-02 2.02496E-14-3.21414E-14
 -1      4051 1.96960E+01 3.92603E-01-1.34326E-03 5.77402E-02 3.57426E-14-1.18100E-14
 -1      4052 1.97624E+01 3.34970E-01 1.94121E-03 1.65672E-02 1.34100E-14 1.14313E-14
 -1      4053 1.96413E+01 4.38842E-01-7.35164E-04 5.38196E-02-6.28040E-15-4.49664E-14
 -1      4054 1.95761E+01 4.86565E-01-1.97064E-03 5.49945E-02-2.47810E-14-6.76245E-14
 -1      4055 1.96654E+01 4.19977E-01 2.48279E-03 7.09518E-03-1.95272E-14-8.49579E-14
 -1      4056 1.95067E+01 5.37724E-01-6.97593E-04 4.52202E-02-8.21793E-14-1.43394E-14
 -1      4057 1.94205E+01 5.89022E-01-2.84173E-03 4.03743E-02-3.44291E-14-8.37953E-14
 -1      4058 1.95409E+01 5.12757E-01 3.09696E-03-1.31676E-02-3.39282E-14-9.83972E-14
 -1      4059 1.93335E+01 6.43691E-01-5.46775E-04 2.09447E-02 3.03473E-14-1.25254E-13
 -1      4060 1.92200E+01 6.96184E-01-4.04379E-03 5.69941E-03 1.22140E-13-1.27883E-13
 -1      4061 1.93827E+01 6.10026E-01 3.77809E-03-5.10223E-02 2.82151E-14-7.35742E-14
 -1      4062 1.91121E+01 7.51654E-01-2.32069E-04-2.88374E-02 1.13464E-13-1.32375E-13
 -1      4063 1.89635E+01 8.01260E-01-5.69335E-03-6.06791E-02 1.17351E-13-1.64230E-13
 -1      4064 1.91835E+01 7.05825E-01 4.51318E-03-1.16285E-01 3.79103E-14-2.05869E-13
 -1      4065 1.88310E+01 8.53007E-01 3.14929E-04-1.17927E-01 2.44934E-14-2.59240E-13
 -1      4066 1.86371E+01 8.93300E-01-7.93969E-03-1.74829E-01-1.35354E-13-2.79564E-13
 -1      4067 1.89356E+01 7.90483E-01 5.28197E-03-2.22764E-01-5.47537E-14-3.48426E-13
 -1      4068 1.84763E+01 9.34469E-01 1.23772E-03-2.65074E-01-6.56496E-14-3.65762E-13
 -1      4069 1.82237E+01 9.55703E-01-1.08026E-02-3.58310E-01 7.58535E-15-2.29873E-13
 -1      4070 1.86302E+01 8.49283E-01 6.03181E-03-3.89514E-01-1.20511E-13-4.74322E-13
 -1      4071 1.80307E+01 9.77040E-01 3.28187E-03-4.94340E-01-7.59592E-14-2.31373E-13
 -1      4072 1.76937E+01 9.63422E-01-1.60057E-02-6.37962E-01-1.28035E-13-3.08542E-13
 -1      4073 1.82550E+01 8.60299E-01 5.93761E-03-6.42521E-01-4.52663E-14-3.59931E-13
 -1      4074 1.98500E+01 2.41422E-01 1.41939E-04-8.76660E-02 8.57727E-14-5.88485E-14
 -1      4075 1.98735E+01 2.11289E-01-9.30967E-04-7.39518E-02 1.16864E-13-3.63487E-14
 -1      4076 2.03542E+01 1.42420E-02 4.19604E-04 4.08951E-02-5.98340E-14-2.18000E-13
 -1      4077 2.03313E+01-2.37295E-02-3.68806E-05 4.58137E-02-5.82508E-14-2.16790E-13
 -1      4078 2.03740E+01 4.39936E-02-3.71165E-04 2.22681E-02-2.94601E-14-2.37208E-13
 -1      4079 1.99013E+01 1.83463E-01 9.30464E-05-6.49636E-02 3.49425E-14-3.97351E-14
 -1      4080 1.99204E+01 1.56325E-01-6.95549E-04-5.51843E-02-3.10391E-14-1.12227E-13
 -1      4081 1.98800E+01 2.08783E-01 1.14206E-03-4.84731E-02 1.81858E-14-2.13113E-13
 -1      4082 2.02482E+01-6.91025E-02 1.10713E-04-9.18359E-02 4.05619E-14-2.53453E-13
 -1      4083 2.02693E+01-4.93961E-02 4.93284E-04-9.08581E-02 3.97093E-14-2.31070E-13
 -1      4084 2.03026E+01-3.34172E-02-4.58791E-04-7.13077E-02 3.84868E-14-2.71642E-13
 -1      4085 1.99764E+01 8.52067E-02 1.02198E-04-3.87525E-02-2.84393E-14-2.49364E-14
 -1      4086 1.99897E+01 6.40267E-02-3.50638E-04-3.44892E-02-3.43532E-14-1.45702E-14
 -1      4087 1.97865E+01 3.04284E-01 2.55897E-04-1.19602E-01 8.48809E-14 5.07619E-15
 -1      4088 1.98151E+01 2.71732E-01-1.22177E-03-1.00784E-01 9.54800E-14 1.54134E-14
 -1      4089 1.98209E+01 2.72318E-01 1.49993E-03-6.81447E-02 1.34843E-14-1.38552E-13
 -1      4090 1.97086E+01 3.69674E-01 4.70581E-04-1.63948E-01 7.19596E-15-8.26878E-14
 -1      4091 1.97428E+01 3.36042E-01-1.57899E-03-1.38442E-01 1.26307E-13 6.07150E-14
 -1      4092 1.97468E+01 3.41488E-01 1.88457E-03-9.69096E-02 6.10299E-14-6.55789E-14
 -1      4093 1.96152E+01 4.33141E-01 8.37161E-04-2.25073E-01 2.40023E-14-1.51234E-13
 -1      4094 1.96546E+01 4.00875E-01-2.01334E-03-1.90743E-01-7.59087E-15-1.43270E-13
 -1      4095 1.96549E+01 4.13850E-01 2.27813E-03-1.38555E-01 6.80121E-14 3.83349E-14
 -1      4096 1.95066E+01 4.87331E-01 1.42726E-03-3.08901E-01-1.98812E-13 1.48567E-14
 -1      4097 1.95498E+01 4.60414E-01-2.53274E-03-2.62911E-01-6.60003E-14-4.83354E-14
 -1      4098 1.95428E+01 4.84804E-01 2.64789E-03-1.98431E-01-7.72090E-14 5.39372E-15
 -1      4099 1.93854E+01 5.20977E-01 2.33915E-03-4.23305E-01-2.15124E-13 6.09334E-14
 -1      4100 1.94292E+01 5.05450E-01-3.13695E-03-3.61969E-01-1.73789E-13-3.05617E-14
 -1      4101 1.94093E+01 5.46726E-01 2.93888E-03-2.83972E-01-1.58249E-13-8.56602E-14
 -1      4102 1.92587E+01 5.17704E-01 3.70405E-03-5.78452E-01-1.75178E-13 2.95230E-14
 -1      4103 1.92969E+01 5.22286E-01-3.80596E-03-4.97156E-01-1.86181E-13 5.69405E-14
 -1      4104 1.92551E+01 5.87883E-01 3.05955E-03-4.05298E-01-1.76027E-13-8.91143E-14
 -1      4105 1.91394E+01 4.54591E-01 5.66710E-03-7.86904E-01-1.46742E-13 5.55970E-14
 -1      4106 1.91619E+01 4.91446E-01-4.47719E-03-6.80235E-01-1.23937E-13-1.57561E-14
 -1      4107 1.90841E+01 5.91051E-01 2.84074E-03-5.75854E-01-8.71102E-14-2.41979E-13
 -1      4108 1.90504E+01 3.00573E-01 8.22624E-03-1.06307E+00 6.26179E-14 2.99427E-14
 -1      4109 1.90410E+01 3.86271E-01-4.98695E-03-9.25261E-01-1.68388E-14 4.46574E-14
 -1      4110 1.89056E+01 5.31487E-01 1.86788E-03-8.12842E-01-1.60363E-14-5.72690E-14
 -1      4111 1.90225E+01 1.28352E-02 8.83102E-03-1.42376E+00-9.29658E-14-1.02865E-13
 -1      4112 1.89636E+01 1.73236E-01-4.60278E-03-1.24715E+00 4.30894E-15-9.42179E-14
 -1      4113 1.87376E+01 3.74123E-01-1.12751E-03-1.13594E+00 5.60618E-14-5.62504E-14
 -1      4114 1.91311E+01-4.62113E-01 5.63840E-03-1.87219E+00-1.73847E-13-2.10824E-13
 -1      4115 1.89795E+01-1.94462E-01-2.69311E-03-1.64889E+00-1.42004E-13-1.50945E-13
 -1      4116 1.86263E+01 6.15573E-02-8.13415E-03-1.56713E+00-4.02616E-14-1.54184E-13
 -1      4117 1.99519E+01-1.71587E+00 5.17295E-02-2.77699E+00-2.90179E-13-2.45381E-13
 -1      4118 1.75071E+01 9.02706E-01 1.17406E-02-9.28778E-01-1.23336E-13-1.85608E-13
 -1      4119 1.70426E+01 7.66316E-01-2.38101E-02-1.27083E+00-6.63283E-14-7.32314E-14
 -1      4120 1.78272E+01 7.35466E-01 3.04639E-03-1.09601E+00-6.78922E-14-3.32151E-13
 -1      4121 2.03475E+01 2.11893E-01-3.09504E-04-4.85532E-02 2.07528E-14-2.27400E-13
 -1      4122 2.00310E+01 8.78482E-03 1.74677E-04-2.93768E-02-7.63179E-14-2.19075E-14
 -1      4123 2.00423E+01-7.57072E-03-1.18087E-04-2.86702E-02-5.82496E-14-2.06041E-14
 -1      4124 2.03888E+01 2.86348E-01 9.42091E-04-1.86071E-02 9.79323E-15-2.75207E-13
 -1      4125 2.04123E+01 3.99631E-01-4.76588E-04 2.19812E-03 4.41282E-14-3.09139E-13
 -1      4126 2.02069E+01-9.11152E-02 2.84149E-04-8.73583E-02 5.83659E-14-2.14604E-13
 -1      4127 2.02261E+01-8.25134E-02 3.63098E-04-8.96153E-02 3.34692E-14-2.25804E-13
 -1      4128 2.02145E+01-9.69130E-02-7.02636E-04-6.84300E-02-6.09295E-15-1.99828E-13
 -1      4129 1.74385E+01 2.66736E-01-2.67280E-03-1.92584E+00-1.27214E-13-1.49461E-13
 -1      4130 2.04185E+01 2.90722E-01 9.58889E-05 9.42776E-03-1.63867E-14-2.70657E-13
 -1      4131 2.04068E+01 1.98752E-01-5.56110E-04 2.60866E-02-3.50370E-14-2.53390E-13
 -1      4132 2.04100E+01 1.71918E-01 9.78908E-05 1.49272E-02-2.70872E-14-2.72429E-13
 -1      4133 2.01418E+01-9.04957E-02 3.32040E-04-3.86248E-02 2.87447E-15-5.76088E-14
 -1      4134 2.01583E+01-9.68154E-02 2.02073E-04-4.12107E-02 1.40277E-14-8.99486E-14
 -1      4135 1.88270E+01-9.61850E-01 4.82787E-03-2.53462E+00-2.56247E-13-2.05247E-13
 -1      4136 2.00052E+01 4.45480E-02 1.34245E-04-3.24269E-02-4.61629E-14-4.03625E-14
 -1      4137 2.00170E+01 2.59325E-02-2.23888E-04-3.01274E-02-2.53780E-14-9.47574E-14
 -1      4138 1.99969E+01 5.74008E-02 2.76425E-04-2.14472E-02-3.04934E-14-1.18103E-13
 -1      4139 2.04196E+01 5.34765E-01 3.64415E-04-2.19096E-02-1.67351E-14-2.85663E-13
 -1      4140 2.04205E+01 4.01497E-01-8.08662E-04 1.71801E-03-9.65096E-15-2.99059E-13
 -1      4141 2.04281E+01 3.63286E-01 6.23619E-04 2.07912E-03-6.54187E-15-2.99694E-13
 -1      4142 2.00560E+01-2.26209E-02 2.18908E-04-2.89653E-02-3.40737E-14-6.11073E-14
 -1      4143 2.00676E+01-3.68990E-02-2.74992E-05-2.95418E-02 3.55755E-14-5.33777E-14
 -1      4144 2.00512E+01-1.52345E-02-1.53026E-04-1.79871E-02-5.62138E-14-9.94640E-14
 -1      4145 1.99426E+01 1.31369E-01 8.50810E-05-4.92059E-02-3.13162E-15-6.90750E-14
 -1      4146 1.99583E+01 1.07309E-01-5.05183E-04-4.25022E-02 1.83794E-14-5.56434E-14
 -1      4147 1.99651E+01 1.01556E-01 5.31120E-04-2.66607E-02 2.26284E-14-1.93791E-13
 -1      4148 2.03732E+01 1.97913E-01-7.28854E-04-4.60233E-02 1.97577E-14-2.50949E-13
 -1      4149 1.86182E+01-5.52556E-01 7.15581E-03-2.26959E+00-2.14136E-13-2.38702E-13
 -1      4150 2.03832E+01 8.68632E-01-2.37556E-03-1.01250E-02 4.14821E-14-3.59724E-13
 -1      4151 2.03757E+01 8.91955E-01-5.41796E-04-6.75594E-02 5.41432E-15-3.30042E-13
 -1      4152 2.03292E+01-3.61132E-02-6.27015E-04 2.55233E-02-4.93747E-14-2.39388E-13
 -1      4153 2.00818E+01-4.99189E-02 2.62965E-04-3.06824E-02 2.72464E-14-5.58848E-14
 -1      4154 2.00945E+01-6.20769E-02 5.26096E-05-3.22526E-02 2.18376E-14 6.54246E-15
 -1      4155 2.00779E+01-4.47365E-02-3.36349E-04-1.87049E-02 3.25366E-15-3.81206E-14
 -1      4156 2.01780E+01-1.00959E-01 3.55841E-04-4.37776E-02-1.32206E-15-1.52835E-13
 -1      4157 2.01975E+01-1.02331E-01 4.40394E-04-4.64613E-02-1.27297E-14-1.80250E-13
 -1      4158 2.01749E+01-1.01864E-01-7.27480E-04-2.61343E-02-3.38737E-14-1.46052E-13
 -1      4159 2.02574E+01-7.69770E-02-6.64597E-04-7.21004E-02 1.99096E-14-2.66084E-13
 -1      4160 2.03882E+01 1.78608E-01-9.38777E-05-3.83271E-02 3.43746E-14-2.90458E-13
 -1      4161 2.00248E+01 1.86866E-02 5.00014E-05-1.87553E-02-7.80382E-15-9.13660E-14
 -1      4162 1.80382E+01-1.50498E-01-3.31863E-03-2.15353E+00-1.61080E-13-2.11482E-13
 -1      4163 1.81493E+01 2.51649E-01 1.47588E-02-1.63029E+00-1.02005E-13-1.32958E-13
 -1      4164 2.01100E+01-7.28630E-02 3.02438E-04-3.40659E-02-1.86651E-14-3.47192E-14
 -1      4165 2.01244E+01-8.25255E-02 1.26275E-04-3.63205E-02 7.57612E-15-3.56133E-14
 -1      4166 2.01066E+01-6.97099E-02-5.01076E-04-2.05518E-02-1.15066E-14-6.05551E-14
 -1      4167 2.04187E+01 2.92630E-01 9.39052E-04-1.47445E-02 3.94110E-14-3.24615E-13
 -1      4168 2.04234E+01 4.16317E-01-8.73640E-04 6.29035E-03 4.94116E-14-3.01647E-13
 -1      4169 2.04274E+01 4.43647E-01-1.09184E-04 2.73085E-03 4.36382E-14-3.06215E-13
 -1      4170 2.01386E+01-8.93416E-02-6.42977E-04-2.31788E-02-1.72912E-14-6.40322E-14
 -1      4171 2.04192E+01 6.59256E-01 1.43682E-03-9.35206E-03 3.14825E-14-3.21771E-13
 -1      4172 1.99271E+01 1.51852E-01 8.18740E-04-3.52528E-02 1.72012E-14-2.57223E-13
 -1      4173 2.03090E+01-4.78299E-02 2.15637E-04-5.29540E-02 1.74302E-14-2.25658E-13
 -1      4174 2.03315E+01-1.79700E-02 3.69510E-04-4.96279E-02 1.72906E-14-2.25979E-13
 -1      4175 2.04063E+01 6.53296E-01-1.13269E-03-3.51944E-02-6.67725E-15-2.89013E-13
 -1      4176 2.04182E+01 6.02663E-01 1.06624E-03-1.68818E-02 5.66861E-15-3.05845E-13
 -1      4177 2.03538E+01 5.81376E-03-5.04558E-04-2.99025E-02 1.84718E-15-1.92582E-13
 -1      4178 2.03532E+01 2.12408E-02-1.04429E-04-4.88776E-02 2.46659E-14-2.60185E-13
 -1      4179 2.03744E+01 7.12110E-02 2.51692E-04-4.08439E-02 3.07010E-14-2.65492E-13
 -1      4180 2.03473E+01-1.85127E-02 3.99145E-04-4.51565E-03-8.83016E-15-2.21453E-13
 -1      4181 2.03234E+01-4.91734E-02 2.21259E-04-2.50977E-03-3.05443E-14-2.02191E-13
 -1      4182 2.02514E+01-9.88634E-02 4.18476E-04 4.78729E-03-2.17031E-14-1.45772E-13
 -1      4183 2.02291E+01-1.03733E-01 5.36420E-04 4.64103E-03-4.85379E-14-1.11641E-13
 -1      4184 2.02076E+01-1.04872E-01 2.78048E-04-2.77921E-03-5.32189E-14-1.42159E-13
 -1      4185 2.01877E+01-1.03066E-01 4.09818E-04-2.74357E-03-2.82751E-14-1.63107E-13
 -1      4186 2.01682E+01-9.88657E-02 4.23877E-04-2.25191E-03-3.79870E-14-1.29548E-13
 -1      4187 2.01499E+01-9.22616E-02 4.04407E-04-2.47903E-03-6.86934E-14-1.45912E-13
 -1      4188 2.01325E+01-8.39526E-02 3.78232E-04-1.81868E-03-3.99664E-14-1.16265E-13
 -1      4189 2.01162E+01-7.39357E-02 3.28111E-04-2.08688E-03-9.12229E-15-6.41125E-14
 -1      4190 2.01008E+01-6.26671E-02 2.91933E-04-1.54337E-03-3.86735E-14-5.14943E-14
 -1      4191 2.00861E+01-5.00607E-02 2.24809E-04-1.71443E-03-2.68496E-14-1.62071E-14
 -1      4192 2.00719E+01-3.64058E-02 1.94154E-04-1.45817E-03-1.06641E-14-2.60844E-14
 -1      4193 2.00581E+01-2.15740E-02 1.03606E-04-1.46969E-03 1.62779E-14-1.62310E-14
 -1      4194 2.00446E+01-5.70292E-03 8.91033E-05-1.65197E-03-3.19433E-15-8.60081E-14
 -1      4195 2.00308E+01 1.13445E-02-3.61218E-05-1.49111E-03-1.99696E-14-7.40354E-14
 -1      4196 2.00170E+01 2.95604E-02-2.24749E-05-2.28201E-03-1.58323E-14-9.83210E-14
 -1      4197 2.00022E+01 4.90657E-02-1.98778E-04-1.99625E-03 2.39076E-14-4.48167E-14
 -1      4198 1.99870E+01 6.99565E-02-1.40382E-04-3.61806E-03 2.94544E-14-7.65111E-14
 -1      4199 1.99698E+01 9.23195E-02-3.91557E-04-3.34245E-03 2.75859E-14-8.07071E-14
 -1      4200 1.99521E+01 1.16321E-01-2.63461E-04-6.11097E-03 1.97011E-14-8.29361E-14
 -1      4201 1.99311E+01 1.42002E-01-6.24188E-04-6.11509E-03-1.01852E-14-7.37780E-14
 -1      4202 1.99095E+01 1.69554E-01-3.88061E-04-1.04954E-02-3.12047E-18-5.84506E-14
 -1      4203 1.98829E+01 1.98964E-01-9.08910E-04-1.12568E-02 6.87569E-15-3.94822E-14
 -1      4204 1.98561E+01 2.30384E-01-5.06169E-04-1.79407E-02-3.65870E-14-5.96710E-14
 -1      4205 1.98219E+01 2.63748E-01-1.26053E-03-2.02528E-02 1.42361E-14-8.41732E-14
 -1      4206 1.97883E+01 2.99073E-01-6.03082E-04-3.02656E-02-1.17157E-15-3.08144E-14
 -1      4207 1.97441E+01 3.36255E-01-1.69647E-03-3.53908E-02-3.55178E-14-7.78653E-14
 -1      4208 1.97024E+01 3.75043E-01-6.54498E-04-5.02370E-02 1.35998E-14-3.19358E-14
 -1      4209 1.96456E+01 4.15310E-01-2.23677E-03-6.01146E-02 5.95356E-14-5.50430E-14
 -1      4210 1.95944E+01 4.56367E-01-6.22890E-04-8.19697E-02 4.06742E-14-4.57671E-14
 -1      4211 1.95218E+01 4.98090E-01-2.90365E-03-9.94888E-02 1.42347E-14-3.40899E-14
 -1      4212 1.94605E+01 5.39130E-01-4.52640E-04-1.31445E-01-8.82992E-14-4.40665E-14
 -1      4213 1.93687E+01 5.79389E-01-3.72018E-03-1.60790E-01-3.06100E-14-3.84771E-14
 -1      4214 1.92971E+01 6.16599E-01-6.23493E-05-2.07154E-01-7.24178E-14-1.04965E-13
 -1      4215 1.91824E+01 6.50684E-01-4.70603E-03-2.54234E-01-9.57136E-14-1.92234E-13
 -1      4216 1.91018E+01 6.78185E-01 6.70891E-04-3.20873E-01-1.01237E-13-2.63337E-13
 -1      4217 1.89601E+01 6.98969E-01-5.86203E-03-3.93856E-01-1.39633E-13-3.12568E-13
 -1      4218 1.88741E+01 7.08134E-01 1.95678E-03-4.88549E-01-1.07723E-13-3.40924E-13
 -1      4219 1.87011E+01 7.05365E-01-7.09023E-03-5.98666E-01-6.07148E-14-2.50191E-13
 -1      4220 1.86178E+01 6.83998E-01 4.40945E-03-7.31197E-01 1.11567E-14-2.17532E-13
 -1      4221 1.84096E+01 6.42981E-01-8.03241E-03-8.94887E-01 7.14229E-14-1.72935E-13
 -1      4222 2.04260E+01 5.33599E-01-1.05452E-03 3.36266E-03 3.68316E-14-3.03729E-13
 -1      4223 1.83490E+01 5.76766E-01 1.05010E-02-1.07333E+00 8.51034E-15-1.81951E-13
 -1      4224 1.81456E+01 4.15339E-01-7.41848E-03-1.38407E+00-4.63505E-14-1.37019E-13
 -1      4225 2.02194E+01-1.01486E-01 2.52510E-04-4.09905E-02-9.65831E-15-1.78062E-13
 -1      4226 2.02409E+01-9.63698E-02 3.20964E-04-4.22838E-02-3.04931E-14-2.04023E-13
 -1      4227 2.03994E+01 7.68087E-01 2.06417E-03-5.15142E-02-7.11810E-15-3.19411E-13
 -1      4228 2.03896E+01 1.24316E-01 4.46894E-05-3.73328E-02 1.26415E-14-2.85500E-13
 -1      4229 2.04100E+01 2.11085E-01-1.78635E-04-2.03908E-02 1.00406E-14-3.03137E-13
 -1      4230 2.04180E+01 2.30976E-01-1.04923E-04-1.14800E-02 2.49579E-14-2.91066E-13
 -1      4231 2.03921E+01 1.01889E-01-1.87875E-04-2.26664E-02 1.00655E-14-2.56364E-13
 -1      4232 2.02641E+01-8.59258E-02 4.36909E-04-4.81953E-02-1.51249E-14-2.10189E-13
 -1      4233 2.02860E+01-7.07817E-02 3.30753E-04-4.78803E-02 2.71788E-14-1.98380E-13
 -1      4234 2.03079E+01-5.90682E-02-6.68543E-04-2.83256E-02 6.62310E-15-1.61040E-13
 -1      4235 2.02609E+01-9.35123E-02-7.33270E-04-1.95054E-02-1.09685E-14-1.31233E-13
 -1      4236 2.03901E+01 7.28574E-02 2.68628E-04-4.59373E-03-1.30116E-14-2.36293E-13
 -1      4237 2.03695E+01 2.15452E-02 1.74926E-04-1.60633E-03-1.98558E-15-2.31379E-13
 -1      4238 2.04320E+01 3.90511E-01-2.19472E-04-3.98300E-03 2.40768E-14-3.07792E-13
 -1      4239 2.04278E+01 2.80840E-01-6.11745E-06 3.29925E-03 2.31548E-14-2.86778E-13
 -1      4240 2.02995E+01-7.27024E-02 4.46602E-04 3.10508E-04-2.02988E-14-1.78448E-13
 -1      4241 2.02748E+01-8.83782E-02 2.13584E-04 1.29910E-03 6.29534E-15-1.22152E-13
 -1      4242 2.04198E+01 2.02884E-01-3.46862E-05-3.41288E-03-5.44364E-16-2.77844E-13
 -1      4243 2.04053E+01 1.26005E-01 5.06548E-05 9.88551E-04-2.35475E-14-2.57215E-13
 -1      4244 2.02159E+01-1.04952E-01-7.90825E-04-2.11737E-02-1.54919E-14-2.04340E-13
 -3
    1PSTEP                         3           1           1          
  100CL  101 1.000000000        4244                     0    1           1
 -4  TOSTRAIN    6    1
 -5  EXX         1    4    1    1
 -5  EYY         1    4    2    2
 -5  EZZ         1    4    3    3
 -5  EXY         1    4    1    2
 -5  EYZ         1    4    2    3
 -5  EZX         1    4    3    1
 -1         1 2.44220E-04-5.20151E-05-7.17665E-05 1.06523E-04-1.68528E-18-3.61683E-18
 -1         2 4.50798E-05-1.37104E-04 2.50049E-05 7.08199E-07-7.02856E-18-7.53859E-19
 -1         3 9.53476E-05-2.84422E-05-2.86557E-05 2.34104E-07-2.96787E-18-2.94793E-18
 -1         4 9.47917E-05-2.91987E-05-2.79503E-05 1.19593E-06 2.43203E-18-2.31674E-18
 -1         5 1.43349E-04-2.14785E-05-4.25300E-05 3.85303E-05-3.26637E-19 2.23897E-17
 -1         6 1.45409E-04 2.57581E-10-4.41881E-05-5.35258E-05-1.42683E-18 1.99955E-17
 -1         7 9.06118E-05-5.11328E-07-3.90692E-05-2.92505E-05-1.97359E-19 2.53903E-18
 -1         8 8.51279E-05 8.63671E-08-3.63400E-05-2.02687E-05-2.28275E-19-2.58821E-18
 -1         9 8.28177E-05 7.59737E-08-3.53519E-05-1.56364E-05-2.03910E-19-5.20271E-18
 -1        10 8.17721E-05 3.96399E-08-3.48819E-05-1.20746E-05-1.30112E-19-6.36770E-18
 -1        11 8.12520E-05 1.93232E-08-3.46528E-05-9.01099E-06-6.52315E-20-6.85546E-18
 -1        12 8.09817E-05 9.17367E-09-3.45377E-05-6.28182E-06-3.74928E-20-6.93468E-18
 -1        13 8.08392E-05 4.62741E-09-3.44796E-05-3.68381E-06-2.62547E-21-6.79314E-18
 -1        14 8.07794E-05 2.78912E-09-3.44558E-05-1.18300E-06 2.08135E-20-6.65148E-18
 -1        15 8.07815E-05 2.77775E-09-3.44566E-05 1.28838E-06 7.44614E-20-6.43062E-18
 -1        16 8.08455E-05 4.55959E-09-3.44818E-05 3.79431E-06 1.02702E-19-6.20168E-18
 -1        17 8.09931E-05 8.45359E-09-3.45414E-05 6.40434E-06 1.27756E-19-5.85280E-18
 -1        18 8.12690E-05 1.82635E-08-3.46577E-05 9.15255E-06 1.49822E-19-5.23818E-18
 -1        19 8.17977E-05 3.83173E-08-3.48898E-05 1.22537E-05 2.23776E-19-4.24247E-18
 -1        20 8.28410E-05 8.05167E-08-3.53639E-05 1.58680E-05 2.80990E-19-2.44036E-18
 -1        21 8.50908E-05 1.69895E-07-3.63782E-05 2.04798E-05 3.35134E-19 8.71898E-19
 -1        22 9.16481E-05-9.93573E-08-3.87416E-05 2.79966E-05 4.38340E-20 7.55702E-18
 -1        23 1.12982E-04-3.81289E-05-3.53992E-05-4.40180E-06-1.01880E-18 1.50834E-17
 -1        24 9.28174E-05-2.77009E-05-2.90031E-05 3.91414E-07-2.76603E-19 1.06488E-17
 -1        25 8.91358E-05-2.68570E-05-2.69344E-05 3.75961E-07-1.14844E-19 6.40510E-18
 -1        26 8.80364E-05-2.64946E-05-2.63981E-05 2.04255E-07-3.53860E-20 3.65581E-18
 -1        27 8.80670E-05-2.64742E-05-2.63914E-05 1.40030E-07-9.22761E-20 2.01624E-18
 -1        28 8.86050E-05-2.66118E-05-2.65622E-05 1.01053E-07-1.11965E-19 2.65644E-19
 -1        29 8.93642E-05-2.68258E-05-2.67960E-05 7.54028E-08 3.59905E-20-1.03629E-18
 -1        30 9.01933E-05-2.70668E-05-2.70474E-05 5.71275E-08-3.85801E-20-1.64041E-18
 -1        31 9.10072E-05-2.73065E-05-2.72929E-05 4.33927E-08-5.90321E-20-2.89427E-18
 -1        32 9.17586E-05-2.75293E-05-2.75194E-05 3.27571E-08-1.32346E-19-3.87227E-18
 -1        33 9.24240E-05-2.77273E-05-2.77199E-05 2.44089E-08 1.90468E-19-4.64146E-18
 -1        34 9.29943E-05-2.78975E-05-2.78920E-05 1.78309E-08-1.04788E-19-5.10372E-18
 -1        35 9.34705E-05-2.80399E-05-2.80358E-05 1.26552E-08 2.75232E-20-5.82898E-18
 -1        36 9.38590E-05-2.81563E-05-2.81533E-05 8.59840E-09 1.91321E-19-5.37384E-18
 -1        37 9.41699E-05-2.82497E-05-2.82474E-05 5.43283E-09-7.81692E-20-5.09330E-18
 -1        38 9.44155E-05-2.83236E-05-2.83218E-05 2.97301E-09-1.91742E-19-5.90488E-18
 -1        39 9.46087E-05-2.83819E-05-2.83805E-05 1.06963E-09-1.09463E-19-6.18274E-18
 -1        40 9.47636E-05-2.84288E-05-2.84276E-05-3.92856E-10-1.26737E-19-6.72991E-18
 -1        41 9.48948E-05-2.84686E-05-2.84676E-05-1.49673E-09 2.12508E-19-7.21587E-18
 -1        42 9.50182E-05-2.85063E-05-2.85054E-05-2.28960E-09-3.43385E-19-7.64382E-18
 -1        43 9.51516E-05-2.85470E-05-2.85462E-05-2.78078E-09-2.70009E-19-7.90193E-18
 -1        44 9.53157E-05-2.85972E-05-2.85964E-05-2.93410E-09 1.17141E-19-6.88353E-18
 -1        45 9.55355E-05-2.86642E-05-2.86635E-05-2.65483E-09 2.40191E-20-5.41246E-18
 -1        46 9.58425E-05-2.87576E-05-2.87573E-05-1.76717E-09-3.83470E-19-7.90999E-18
 -1        47 9.62767E-05-2.88895E-05-2.88897E-05 2.41892E-11 2.97656E-19-8.01206E-18
 -1        48 9.68903E-05-2.90756E-05-2.90769E-05 3.19826E-09 1.99743E-19-6.99983E-18
 -1        49 9.77517E-05-2.93363E-05-2.93397E-05 8.52305E-09 2.76477E-19-6.17910E-18
 -1        50 9.89512E-05-2.96988E-05-2.97056E-05 1.72229E-08-4.13233E-20-6.87270E-18
 -1        51 1.00607E-04-3.01983E-05-3.02111E-05 3.12310E-08-2.19062E-19-6.32392E-18
 -1        52 1.02871E-04-3.08799E-05-3.09025E-05 5.35297E-08 2.40011E-19-4.54906E-18
 -1        53 1.05934E-04-3.17994E-05-3.18375E-05 8.84977E-08-1.58020E-20-3.92105E-18
 -1        54 1.10012E-04-3.30203E-05-3.30801E-05 1.41911E-07 1.02294E-19-4.31530E-18
 -1        55 1.15311E-04-3.46020E-05-3.46868E-05 2.19544E-07-2.78434E-19-5.09488E-18
 -1        56 1.21922E-04-3.65701E-05-3.66686E-05 3.21770E-07-2.22026E-19-5.92792E-18
 -1        57 1.29592E-04-3.88513E-05-3.89150E-05 4.28842E-07 1.30996E-19-4.45375E-18
 -1        58 1.37319E-04-4.11565E-05-4.10707E-05 4.70834E-07 2.79800E-19-2.30123E-18
 -1        59 1.42815E-04-4.28202E-05-4.24114E-05 2.90871E-07-3.53140E-20-3.41354E-19
 -1        60 1.42268E-04-4.27119E-05-4.18854E-05-3.35072E-07-1.82956E-19-7.36310E-19
 -1        61 1.31572E-04-3.95525E-05-3.86151E-05-1.45980E-06 1.47232E-19-1.19114E-19
 -1        62 1.10196E-04-3.30657E-05-3.29098E-05-2.49417E-06 6.25084E-20 2.21711E-19
 -1        63 8.57809E-05-2.55219E-05-2.68770E-05-2.22564E-06 4.25346E-19 2.96282E-18
 -1        64 7.21774E-05-2.12713E-05-2.35348E-05-1.83116E-07-3.77697E-19 3.85526E-18
 -1        65 7.66232E-05-2.27557E-05-2.43102E-05 1.73314E-06-7.71131E-19 1.93690E-18
 -1        66 9.35292E-05-2.80487E-05-2.80918E-05 2.29723E-06 2.07925E-19 1.07298E-18
 -1        67 1.09560E-04-3.29724E-05-3.20623E-05 1.37641E-06 6.79195E-19 1.01565E-18
 -1        68 1.15787E-04-3.48181E-05-3.39109E-05 1.62654E-07-1.76917E-20 1.30128E-18
 -1        69 1.12062E-04-3.36533E-05-3.32149E-05-5.82214E-07-1.01874E-18-1.99975E-18
 -1        70 1.03410E-04-3.10482E-05-3.11083E-05-7.41468E-07 3.20717E-19-4.57530E-18
 -1        71 9.62633E-05-2.87961E-05-2.91476E-05 2.19535E-08-1.03390E-18-6.19598E-18
 -1        72 1.02188E-04-3.05909E-05-3.41532E-05-1.92958E-06 3.79206E-19 2.03923E-17
 -1        73 9.25744E-05-2.75208E-05-2.89087E-05-3.33535E-07 1.62025E-19 1.56444E-17
 -1        74 8.91219E-05-2.67103E-05-2.69732E-05-1.30221E-07 7.95797E-20 1.24118E-17
 -1        75 8.80689E-05-2.64492E-05-2.64405E-05-9.95213E-08 3.23978E-20 1.00163E-17
 -1        76 8.81027E-05-2.64552E-05-2.64183E-05-7.88026E-08 2.40788E-20 8.20428E-18
 -1        77 8.86388E-05-2.66061E-05-2.65794E-05-6.32476E-08-1.53634E-20 7.03720E-18
 -1        78 8.93953E-05-2.68267E-05-2.68083E-05-5.17508E-08-7.46953E-20 6.38376E-18
 -1        79 9.02209E-05-2.70709E-05-2.70568E-05-4.25613E-08 1.24535E-19 5.31241E-18
 -1        80 9.10312E-05-2.73120E-05-2.73002E-05-3.48184E-08 1.28373E-20 3.73743E-18
 -1        81 9.17792E-05-2.75353E-05-2.75251E-05-2.81690E-08 1.10489E-19 2.81037E-18
 -1        82 9.24414E-05-2.77332E-05-2.77244E-05-2.24499E-08-8.05091E-20 2.17379E-18
 -1        83 9.30091E-05-2.79031E-05-2.78956E-05-1.75581E-08 2.14043E-19 1.65519E-18
 -1        84 9.34830E-05-2.80450E-05-2.80388E-05-1.34050E-08-1.82202E-19 9.35938E-19
 -1        85 9.38701E-05-2.81611E-05-2.81558E-05-9.90161E-09 1.31260E-19 1.50898E-18
 -1        86 9.41804E-05-2.82541E-05-2.82499E-05-6.95690E-09 1.64090E-20-5.32733E-20
 -1        87 9.44264E-05-2.83280E-05-2.83246E-05-4.48051E-09-2.09165E-19-1.02849E-18
 -1        88 9.46213E-05-2.83866E-05-2.83839E-05-2.38795E-09 1.83376E-19-1.34885E-18
 -1        89 9.47793E-05-2.84341E-05-2.84322E-05-6.06571E-10 4.46824E-20-3.23324E-18
 -1        90 9.49153E-05-2.84751E-05-2.84738E-05 9.17685E-10-2.99075E-19-3.46020E-18
 -1        91 9.50452E-05-2.85143E-05-2.85137E-05 2.21249E-09 1.12494E-19-1.98208E-18
 -1        92 9.51860E-05-2.85567E-05-2.85570E-05 3.26970E-09 1.07383E-19-9.94104E-19
 -1        93 9.53567E-05-2.86082E-05-2.86094E-05 4.03378E-09-8.97991E-20-1.93578E-18
 -1        94 9.55783E-05-2.86748E-05-2.86772E-05 4.38791E-09-2.35604E-21-3.41675E-18
 -1        95 9.58739E-05-2.87636E-05-2.87674E-05 4.13844E-09-6.69910E-20-3.56415E-18
 -1        96 9.62683E-05-2.88818E-05-2.88874E-05 3.00033E-09 1.78924E-19-4.58726E-19
 -1        97 9.67864E-05-2.90369E-05-2.90445E-05 5.89180E-10-4.96474E-21-5.89197E-19
 -1        98 9.74503E-05-2.92354E-05-2.92452E-05-3.56809E-09-3.57305E-19-2.06491E-18
 -1        99 9.82743E-05-2.94815E-05-2.94931E-05-9.98314E-09-2.54281E-19-2.86847E-18
 -1       100 9.92563E-05-2.97744E-05-2.97871E-05-1.90816E-08-3.81802E-20-2.82099E-18
 -1       101 1.00367E-04-3.01054E-05-3.01172E-05-3.09539E-08 1.84862E-19-2.05535E-18
 -1       102 1.01533E-04-3.04529E-05-3.04601E-05-4.49233E-08 1.49954E-20-1.99802E-18
 -1       103 1.02621E-04-3.07772E-05-3.07740E-05-5.89011E-08 2.66693E-20-3.12880E-18
 -1       104 1.03420E-04-3.10160E-05-3.09948E-05-6.86080E-08 7.08056E-20-1.62458E-18
 -1       105 1.03638E-04-3.10828E-05-3.10350E-05-6.70143E-08 7.21963E-20 2.65599E-19
 -1       106 1.02921E-04-3.08727E-05-3.07924E-05-4.48206E-08-4.14755E-19-1.43786E-18
 -1       107 1.00920E-04-3.02810E-05-3.01705E-05 6.73935E-09-1.09674E-19-3.34703E-18
 -1       108 9.74108E-05-2.92392E-05-2.91154E-05 8.98271E-08 6.41481E-19-6.11189E-18
 -1       109 9.24614E-05-2.77634E-05-2.76607E-05 1.92063E-07-1.89527E-19-6.32474E-18
 -1       110 8.65751E-05-2.59995E-05-2.59616E-05 2.82508E-07 4.43206E-19-5.81620E-18
 -1       111 8.07059E-05-2.42300E-05-2.42905E-05 3.19646E-07-3.21773E-20-6.33665E-18
 -1       112 7.60473E-05-2.28154E-05-2.29736E-05 2.73604E-07-1.22730E-19-4.09396E-18
 -1       113 7.36197E-05-2.20700E-05-2.22818E-05 1.49904E-07 3.60416E-19-2.47732E-18
 -1       114 7.38483E-05-2.21299E-05-2.23275E-05-6.45313E-09-6.84197E-19-1.20589E-18
 -1       115 7.64010E-05-2.28980E-05-2.30270E-05-1.37536E-07 6.79318E-19-2.05290E-18
 -1       116 8.04056E-05-2.41076E-05-2.41547E-05-2.08168E-07 7.94871E-19-6.57583E-18
 -1       117 8.48848E-05-2.54582E-05-2.54456E-05-2.23445E-07-6.09469E-19-7.53049E-18
 -1       118 8.91078E-05-2.67276E-05-2.66802E-05-2.18159E-07 6.13206E-20-5.83301E-18
 -1       119 9.26141E-05-2.77810E-05-2.76937E-05-2.18726E-07 4.64795E-19-8.44584E-18
 -1       120 9.48611E-05-2.85207E-05-2.83469E-05-1.42823E-07 1.19123E-18-8.21795E-18
 -1       121 9.53648E-05-2.90817E-05-2.83331E-05-1.51336E-07-8.31197E-18-4.71647E-19
 -1       122 9.60445E-05-3.13143E-05-2.76985E-05-2.70117E-07-4.56806E-18 1.03449E-18
 -1       123 9.68285E-05-3.39813E-05-2.70110E-05-2.95187E-07-2.43706E-18 8.76540E-19
 -1       124 9.72304E-05-3.53702E-05-2.67190E-05-1.92828E-07-1.22548E-19-1.54535E-18
 -1       125 9.67437E-05-3.37532E-05-2.73249E-05 2.44230E-08 3.73579E-18 2.39346E-19
 -1       126 9.49191E-05-2.76160E-05-2.92434E-05 3.73316E-07 8.62767E-18-2.13055E-19
 -1       127 9.15382E-05-1.62315E-05-3.26128E-05 8.06748E-07 7.56255E-18-7.02157E-19
 -1       128 8.69636E-05-8.64784E-07-3.69914E-05 1.12740E-06 5.75411E-18 1.42051E-18
 -1       129 8.20506E-05 1.55795E-05-4.15312E-05 1.11892E-06 1.63673E-18-7.42390E-19
 -1       130 7.84322E-05 2.76248E-05-4.47846E-05 5.99452E-07 3.78862E-19 9.16308E-19
 -1       131 7.75197E-05 3.07042E-05-4.56173E-05-1.85355E-07 2.88480E-18-1.08433E-19
 -1       132 7.95961E-05 2.37626E-05-4.37695E-05-8.98679E-07 1.10892E-18 1.75428E-18
 -1       133 8.38126E-05 9.67025E-06-3.99395E-05-1.17666E-06 2.98754E-18 3.96598E-19
 -1       134 8.85874E-05-6.37624E-06-3.54714E-05-1.03840E-06 5.14276E-18 1.24226E-18
 -1       135 9.27033E-05-1.97953E-05-3.16776E-05-5.15357E-07 7.14981E-18 9.95146E-19
 -1       136 9.50767E-05-2.77022E-05-2.92559E-05 3.49684E-07 8.87999E-18 5.80069E-19
 -1       137 3.18252E-05-1.07986E-04 1.98865E-05-2.86079E-05-2.68022E-18 9.00237E-19
 -1       138 1.04804E-05-4.38406E-05 5.47121E-06-2.12029E-05-3.76760E-18-2.82316E-18
 -1       139 1.11997E-05 1.40588E-05-1.44804E-05 2.23898E-05-4.68325E-18-1.98079E-18
 -1       140 6.07344E-05 2.98275E-05-3.67496E-05 8.30159E-05-3.15181E-18-4.66038E-18
 -1       141 1.56274E-04-1.09836E-06-5.91400E-05 1.23188E-04-2.49366E-18-2.91845E-18
 -1       142 2.55444E-04-5.52218E-05-7.47493E-05 1.09185E-04-6.62168E-19-1.34848E-18
 -1       143 3.20249E-04-9.53152E-05-8.33911E-05 4.49316E-05-1.19749E-19-3.67888E-18
 -1       144 3.17992E-04-9.49327E-05-8.28936E-05-4.49718E-05 1.31957E-18-1.08816E-17
 -1       145 2.47786E-04-5.23583E-05-7.35273E-05-1.08012E-04 4.74084E-18-1.42403E-17
 -1       146 1.47539E-04 3.56089E-07-5.71288E-05-1.18094E-04 7.68280E-18-1.45804E-17
 -1       147 6.22287E-05 2.96752E-05-3.77461E-05-8.39948E-05 9.34786E-18-1.07666E-17
 -1       148 1.22570E-05 1.77027E-05-1.61679E-05-2.65745E-05 9.19920E-18-7.34166E-18
 -1       149 7.96452E-06-3.33616E-05 3.14761E-06 1.72527E-05 4.75228E-18-1.88317E-18
 -1       150 2.66466E-05-9.10230E-05 1.68021E-05 2.56990E-05-1.24747E-18-4.33363E-19
 -1       151 4.05517E-05-1.23879E-04 2.33331E-05 1.71154E-06-9.75676E-18-6.69606E-19
 -1       152 3.27503E-05-1.10734E-04 2.12401E-05-2.78218E-05-7.65548E-18-7.38652E-19
 -1       153 1.16906E-05-5.92944E-05 1.03178E-05-3.26006E-05-7.59026E-18-2.77467E-18
 -1       154 6.17273E-06-4.15144E-06-7.27677E-06 9.83228E-07-1.01386E-17-8.03199E-18
 -1       155 4.31586E-05 2.09130E-05-2.87489E-05 5.78762E-05-8.11203E-18-5.87502E-18
 -1       156 1.32974E-04 2.92315E-07-5.22798E-05 1.06189E-04-2.18111E-18-4.25719E-18
 -1       157 3.28981E-04-9.87198E-05-8.40940E-05 4.58252E-05-3.84182E-19-1.52826E-18
 -1       158 3.38297E-04-1.01717E-04-8.60485E-05-4.66853E-05 1.24879E-18-6.91094E-18
 -1       159 2.68591E-04-5.84016E-05-7.73313E-05-1.14735E-04 2.22124E-18-6.20748E-18
 -1       160 1.58365E-04-6.13379E-07-5.98786E-05-1.26416E-04 1.28685E-18-1.60852E-18
 -1       161 6.22732E-05 3.04217E-05-3.80181E-05-8.50883E-05-2.17730E-18 4.44692E-19
 -1       162 1.04311E-05 1.05895E-05-1.36516E-05-1.85128E-05-1.44334E-18 3.29326E-18
 -1       163 1.07209E-05-4.82694E-05 6.29495E-06 2.56345E-05-6.66615E-19 9.62865E-19
 -1       164 3.23239E-05-1.09881E-04 1.99734E-05 2.97275E-05-3.05991E-19-1.35883E-18
 -1       165 9.48741E-05-1.23485E-05-3.55709E-05-2.23460E-05-3.10475E-18 2.05670E-20
 -1       166 8.92527E-05-8.45688E-06-3.47885E-05-1.73880E-05-2.70080E-18-3.16082E-18
 -1       167 8.65506E-05-6.50573E-06-3.44167E-05-1.35802E-05-2.12829E-18-4.80741E-18
 -1       168 8.51889E-05-5.51310E-06-3.42309E-05-1.03687E-05-1.48820E-18-5.55889E-18
 -1       169 8.44452E-05-4.94411E-06-3.41409E-05-7.54439E-06-9.28219E-19-5.75771E-18
 -1       170 8.40163E-05-4.59812E-06-3.40980E-05-4.90141E-06-4.23455E-19-5.80740E-18
 -1       171 8.37970E-05-4.41339E-06-3.40796E-05-2.39400E-06 8.96250E-20-5.62992E-18
 -1       172 8.37323E-05-4.35753E-06-3.40748E-05 5.12477E-08 5.51338E-19-5.45731E-18
 -1       173 8.38069E-05-4.42184E-06-3.40804E-05 2.49859E-06 9.94869E-19-5.31407E-18
 -1       174 8.40381E-05-4.61732E-06-3.40994E-05 5.01269E-06 1.43689E-18-5.03829E-18
 -1       175 8.44722E-05-4.97068E-06-3.41417E-05 7.62157E-06 1.87013E-18-4.56017E-18
 -1       176 8.52490E-05-5.57257E-06-3.42319E-05 1.05100E-05 2.41570E-18-3.81174E-18
 -1       177 8.66494E-05-6.60863E-06-3.44186E-05 1.37750E-05 2.91706E-18-2.62031E-18
 -1       178 8.93921E-05-8.59883E-06-3.47925E-05 1.76266E-05 3.20830E-18-2.97692E-19
 -1       179 9.57857E-05-1.36154E-05-3.54283E-05 2.18883E-05 3.05043E-18 3.68613E-18
 -1       180 1.05613E-04-2.61038E-05-3.52660E-05 1.86607E-05 2.26156E-18 9.07617E-18
 -1       181 1.03407E-04-2.73044E-05-3.26130E-05-1.21250E-05-2.79952E-18 3.92526E-18
 -1       182 9.71185E-05-2.82929E-05-2.95321E-05-4.72877E-06-2.38108E-18 2.67046E-18
 -1       183 9.35196E-05-2.76403E-05-2.81861E-05-1.76613E-06-1.71277E-18 1.48936E-18
 -1       184 9.19867E-05-2.74101E-05-2.76403E-05-4.18271E-07-1.20348E-18 4.51383E-19
 -1       185 9.14127E-05-2.73356E-05-2.74434E-05 2.45951E-07-1.04170E-18-3.70162E-19
 -1       186 9.13730E-05-2.73751E-05-2.74191E-05 5.71873E-07-8.73874E-19-7.44458E-19
 -1       187 9.16187E-05-2.74785E-05-2.74847E-05 7.10516E-07-5.15324E-19-1.42191E-18
 -1       188 9.20041E-05-2.76113E-05-2.75952E-05 7.40944E-07-6.56687E-19-1.65204E-18
 -1       189 9.24422E-05-2.77522E-05-2.77238E-05 7.09011E-07-5.27212E-19-1.82689E-18
 -1       190 9.28810E-05-2.78882E-05-2.78542E-05 6.43148E-07-5.12171E-19-2.01277E-18
 -1       191 9.32905E-05-2.80122E-05-2.79769E-05 5.61553E-07-5.75266E-19-2.63724E-18
 -1       192 9.36557E-05-2.81208E-05-2.80871E-05 4.75942E-07-4.66877E-19-2.97498E-18
 -1       193 9.39708E-05-2.82131E-05-2.81825E-05 3.93762E-07-9.36955E-20-3.27417E-18
 -1       194 9.42360E-05-2.82897E-05-2.82633E-05 3.19625E-07-2.36614E-19-4.08215E-18
 -1       195 9.44559E-05-2.83524E-05-2.83307E-05 2.56322E-07-4.46739E-19-3.81999E-18
 -1       196 9.46375E-05-2.84033E-05-2.83865E-05 2.05562E-07-2.20268E-19-3.97987E-18
 -1       197 9.47897E-05-2.84451E-05-2.84337E-05 1.68548E-07-7.08914E-20-3.84583E-18
 -1       198 9.49228E-05-2.84810E-05-2.84751E-05 1.46425E-07-3.93113E-19-3.80026E-18
 -1       199 9.50483E-05-2.85142E-05-2.85145E-05 1.40667E-07-6.24575E-19-4.39850E-18
 -1       200 9.51797E-05-2.85486E-05-2.85558E-05 1.53416E-07 4.11643E-20-4.30892E-18
 -1       201 9.53325E-05-2.85884E-05-2.86039E-05 1.87825E-07 5.31747E-19-3.52773E-18
 -1       202 9.55252E-05-2.86388E-05-2.86645E-05 2.48430E-07-1.46042E-19-3.73371E-18
 -1       203 9.57805E-05-2.87060E-05-2.87446E-05 3.41596E-07-6.37087E-19-4.20058E-18
 -1       204 9.61262E-05-2.87976E-05-2.88528E-05 4.76069E-07-1.17658E-19-3.60066E-18
 -1       205 9.65975E-05-2.89233E-05-2.90002E-05 6.63671E-07 5.22042E-19-3.68400E-18
 -1       206 9.72387E-05-2.90950E-05-2.92004E-05 9.20120E-07 2.38189E-19-4.08934E-18
 -1       207 9.81054E-05-2.93279E-05-2.94708E-05 1.26589E-06-4.69081E-19-4.97179E-18
 -1       208 9.92673E-05-2.96413E-05-2.98332E-05 1.72672E-06 8.77539E-19-4.08237E-18
 -1       209 1.00810E-04-3.00590E-05-3.03137E-05 2.33292E-06 9.21048E-19-3.00623E-18
 -1       210 1.02832E-04-3.06115E-05-3.09429E-05 3.11536E-06 1.64890E-20-3.09635E-18
 -1       211 1.05446E-04-3.13360E-05-3.17525E-05 4.09380E-06-7.31567E-19-2.89977E-18
 -1       212 1.08751E-04-3.22787E-05-3.27677E-05 5.24945E-06-2.23307E-19-2.45423E-18
 -1       213 1.12808E-04-3.34951E-05-3.39913E-05 6.46832E-06-2.76637E-19-1.50655E-18
 -1       214 1.17560E-04-3.50470E-05-3.53737E-05 7.43965E-06 9.42568E-19-5.42386E-19
 -1       215 1.22724E-04-3.69822E-05-3.67707E-05 7.51109E-06 1.12385E-18-1.15116E-18
 -1       216 1.27622E-04-3.92472E-05-3.79066E-05 5.58841E-06 1.03489E-18-6.43341E-19
 -1       217 1.31002E-04-4.14510E-05-3.84029E-05 3.76667E-07-2.94966E-19-6.11402E-19
 -1       218 1.30971E-04-4.24239E-05-3.79587E-05-8.46024E-06 4.52124E-19 7.54587E-19
 -1       219 1.25642E-04-4.01766E-05-3.66630E-05-1.80396E-05 2.81705E-19 2.69237E-19
 -1       220 1.15244E-04-3.37057E-05-3.51049E-05-2.12778E-05 3.23924E-19 3.73303E-19
 -1       221 1.05084E-04-2.67668E-05-3.38386E-05-1.22414E-05 8.00023E-19-1.41588E-18
 -1       222 1.02187E-04-2.55182E-05-3.31490E-05 3.30505E-06-1.90754E-18-3.26591E-19
 -1       223 1.07048E-04-3.05557E-05-3.29575E-05 1.41198E-05-5.82706E-19-2.37355E-19
 -1       224 1.13445E-04-3.60876E-05-3.31954E-05 1.28133E-05 8.60433E-20 8.13284E-19
 -1       225 1.15604E-04-3.77710E-05-3.33589E-05 4.03368E-06-5.39626E-19-3.70041E-19
 -1       226 1.12677E-04-3.58920E-05-3.29112E-05-4.50999E-06-1.61342E-18-6.82914E-19
 -1       227 1.06766E-04-3.24754E-05-3.18453E-05-8.61123E-06-6.84647E-19-3.92223E-19
 -1       228 1.00301E-04-2.88843E-05-3.06142E-05-7.40867E-06-1.68008E-18-9.90036E-19
 -1       229 9.63438E-05-2.67905E-05-2.98839E-05-3.94876E-06 1.07108E-18-1.15855E-18
 -1       230 9.95130E-05-2.85549E-05-3.05903E-05 7.21157E-06 2.24746E-18 7.80520E-18
 -1       231 9.44488E-05-2.77873E-05-2.85338E-05 2.76543E-06 1.73374E-18 6.13569E-18
 -1       232 9.21467E-05-2.74247E-05-2.76905E-05 9.19939E-07 1.19335E-18 4.61682E-18
 -1       233 9.11939E-05-2.72736E-05-2.73684E-05 4.06784E-08 9.34248E-19 3.73390E-18
 -1       234 9.09694E-05-2.72545E-05-2.72937E-05-3.83964E-07 5.24468E-19 3.17834E-18
 -1       235 9.11465E-05-2.73331E-05-2.73424E-05-5.79883E-07 4.93776E-19 2.35116E-18
 -1       236 9.15279E-05-2.74623E-05-2.74536E-05-6.48893E-07 5.31557E-19 1.81399E-18
 -1       237 9.19966E-05-2.76112E-05-2.75922E-05-6.44731E-07 8.07391E-19 1.56189E-18
 -1       238 9.24831E-05-2.77613E-05-2.77372E-05-5.99408E-07 3.80543E-19 1.22642E-18
 -1       239 9.29471E-05-2.79021E-05-2.78762E-05-5.33017E-07 5.39485E-19 8.09734E-19
 -1       240 9.33669E-05-2.80278E-05-2.80026E-05-4.58452E-07 6.21630E-19 3.43187E-19
 -1       241 9.37329E-05-2.81363E-05-2.81131E-05-3.83968E-07 2.67979E-19 2.24105E-19
 -1       242 9.40433E-05-2.82275E-05-2.82071E-05-3.14752E-07-2.11452E-19-2.04098E-19
 -1       243 9.43015E-05-2.83027E-05-2.82855E-05-2.53972E-07 5.42769E-19 4.47201E-21
 -1       244 9.45140E-05-2.83639E-05-2.83503E-05-2.03524E-07 6.63316E-19-2.02597E-19
 -1       245 9.46895E-05-2.84140E-05-2.84040E-05-1.64583E-07 4.14413E-19-1.07459E-18
 -1       246 9.48380E-05-2.84558E-05-2.84496E-05-1.38011E-07 5.37530E-19-1.17742E-18
 -1       247 9.49710E-05-2.84929E-05-2.84907E-05-1.24660E-07 2.73238E-19-1.26798E-18
 -1       248 9.51008E-05-2.85287E-05-2.85308E-05-1.25567E-07-6.35859E-19-1.82998E-18
 -1       249 9.52411E-05-2.85674E-05-2.85743E-05-1.42064E-07-3.36148E-19-1.53759E-18
 -1       250 9.54069E-05-2.86133E-05-2.86255E-05-1.75775E-07 1.82591E-19-1.10870E-18
 -1       251 9.56145E-05-2.86713E-05-2.86895E-05-2.28474E-07 6.59644E-19-1.38406E-18
 -1       252 9.58818E-05-2.87469E-05-2.87716E-05-3.01743E-07 2.98911E-19-1.08210E-18
 -1       253 9.62273E-05-2.88458E-05-2.88772E-05-3.96366E-07-1.26817E-18-1.46698E-18
 -1       254 9.66686E-05-2.89739E-05-2.90115E-05-5.11354E-07 3.46539E-19-6.76742E-19
 -1       255 9.72207E-05-2.91363E-05-2.91786E-05-6.42485E-07 9.15404E-19-1.05903E-18
 -1       256 9.78914E-05-2.93370E-05-2.93803E-05-7.80261E-07 2.09762E-19-1.71728E-18
 -1       257 9.86763E-05-2.95765E-05-2.96144E-05-9.07290E-07-3.09762E-19-1.44937E-18
 -1       258 9.95501E-05-2.98503E-05-2.98722E-05-9.95303E-07-5.24154E-19-1.34479E-18
 -1       259 1.00458E-04-3.01450E-05-3.01355E-05-1.00254E-06-1.71641E-19-7.44159E-19
 -1       260 1.01302E-04-3.04352E-05-3.03739E-05-8.73082E-07-2.94097E-19-3.48447E-19
 -1       261 1.01938E-04-3.06788E-05-3.05424E-05-5.40969E-07-3.44246E-19-3.35258E-19
 -1       262 1.02168E-04-3.08145E-05-3.05826E-05 5.66950E-08-3.13605E-19-5.20635E-19
 -1       263 1.01759E-04-3.07618E-05-3.04289E-05 9.53300E-07 3.01645E-19-3.83336E-19
 -1       264 1.00482E-04-3.04307E-05-3.00220E-05 2.11208E-06 1.45935E-18-4.37234E-19
 -1       265 9.81875E-05-2.97444E-05-2.93315E-05 3.38120E-06 1.11896E-18-1.84890E-18
 -1       266 9.49083E-05-2.86802E-05-2.83819E-05 4.47269E-06-3.79775E-19-1.87499E-18
 -1       267 9.09514E-05-2.73193E-05-2.72709E-05 5.00773E-06 1.64735E-19-6.99497E-19
 -1       268 8.69209E-05-2.58763E-05-2.61645E-05 4.65542E-06 7.95038E-19-7.48780E-19
 -1       269 8.35988E-05-2.46656E-05-2.52614E-05 3.32560E-06-9.83625E-19-1.92795E-18
 -1       270 8.16855E-05-2.39884E-05-2.47304E-05 1.29461E-06-1.68901E-18-9.22580E-19
 -1       271 8.15119E-05-2.39876E-05-2.46521E-05-8.66195E-07 1.15759E-19-1.31057E-19
 -1       272 8.29053E-05-2.45743E-05-2.49933E-05-2.56299E-06 2.07249E-18-1.69092E-18
 -1       273 8.53117E-05-2.54925E-05-2.56295E-05-3.46817E-06 2.37051E-18-1.34670E-18
 -1       274 8.80763E-05-2.64674E-05-2.63985E-05-3.61548E-06-9.55434E-19-8.52678E-19
 -1       275 9.06918E-05-2.73307E-05-2.71513E-05-3.25077E-06 4.32664E-19-1.26338E-18
 -1       276 9.28642E-05-2.80621E-05-2.77666E-05-2.55658E-06 1.90411E-18-2.09324E-18
 -1       277 9.45094E-05-2.87266E-05-2.81755E-05-1.48218E-06-1.49961E-18-3.16731E-18
 -1       278 9.53008E-05-2.98444E-05-2.80441E-05-2.20005E-06-1.47404E-18 3.12578E-18
 -1       279 9.61631E-05-3.12656E-05-2.78045E-05-2.38501E-06-8.71981E-20 5.21863E-19
 -1       280 9.69276E-05-3.22382E-05-2.77038E-05-1.10330E-06 5.30739E-19 2.97942E-18
 -1       281 9.72661E-05-3.18469E-05-2.80120E-05 1.78484E-06 1.84847E-18 8.58908E-19
 -1       282 9.68563E-05-2.92450E-05-2.89544E-05 6.08205E-06 1.83431E-18 9.31161E-19
 -1       283 9.52429E-05-2.37364E-05-3.06364E-05 1.10591E-05 2.90140E-18 6.38259E-19
 -1       284 9.21966E-05-1.54638E-05-3.28937E-05 1.50340E-05 3.47837E-18-1.36103E-18
 -1       285 8.78506E-05-5.29866E-06-3.53981E-05 1.58490E-05 2.27231E-18-2.13965E-18
 -1       286 8.34797E-05 3.96165E-06-3.74944E-05 1.16375E-05 9.51767E-19-1.36470E-18
 -1       287 8.10282E-05 8.95209E-06-3.85794E-05 3.13135E-06-1.04399E-18 9.57703E-19
 -1       288 8.16823E-05 7.81715E-06-3.83743E-05-6.63311E-06 8.12755E-20 7.88932E-20
 -1       289 8.50570E-05 1.10178E-06-3.69439E-05-1.34627E-05 1.10802E-18 1.15077E-18
 -1       290 8.93676E-05-8.26431E-06-3.47691E-05-1.53060E-05 6.10248E-19 9.07743E-19
 -1       291 9.29997E-05-1.71755E-05-3.24989E-05-1.29216E-05-3.18888E-19 2.74677E-19
 -1       292 9.48323E-05-2.24824E-05-3.10401E-05-8.72240E-06-5.09087E-19-4.72254E-19
 -1       293 1.59076E-05-6.09066E-05 1.51149E-05 9.28103E-06-1.61339E-18 2.07523E-18
 -1       294 3.35839E-05-5.09090E-05 5.08516E-06 3.16362E-05-1.87406E-19-1.30861E-18
 -1       295 5.87139E-05-4.38882E-05-8.25380E-06 3.89104E-05-8.28610E-19-9.44336E-19
 -1       296 9.66189E-05-3.52617E-05-2.65299E-05 4.97771E-05-1.88507E-18-2.08201E-18
 -1       297 1.47363E-04-3.94499E-05-4.52817E-05 4.38843E-05-1.87141E-18-6.99226E-19
 -1       298 1.84601E-04-3.30692E-05-6.22973E-05 4.44781E-05-1.46167E-18-2.03690E-18
 -1       299 2.11168E-04-3.46807E-05-7.23606E-05 2.59018E-05 1.10855E-19-5.44716E-18
 -1       300 2.18008E-04-3.40861E-05-7.55758E-05 1.61643E-06 3.23694E-18-7.91031E-18
 -1       301 2.13191E-04-3.71339E-05-7.20734E-05-2.49592E-05 3.42138E-18-9.16384E-18
 -1       302 1.78593E-04-3.36632E-05-6.00906E-05-3.70929E-05 4.80904E-18-8.03495E-18
 -1       303 1.39436E-04-3.21943E-05-4.49264E-05-4.85752E-05 4.92666E-18-9.99118E-18
 -1       304 9.66428E-05-3.36419E-05-2.72500E-05-4.75649E-05 3.95628E-18-7.79461E-18
 -1       305 5.54875E-05-3.76413E-05-9.34121E-06-3.73497E-05 2.57053E-18-5.10115E-18
 -1       306 3.00823E-05-4.69729E-05 4.65042E-06-2.62753E-05 4.02341E-20-3.76787E-18
 -1       307 1.52489E-05-5.57623E-05 1.38521E-05-1.20363E-05-1.67416E-18-3.72758E-18
 -1       308 1.19812E-05-5.56478E-05 1.52665E-05-6.73004E-08-2.66784E-18-2.76450E-19
 -1       309 2.33366E-05-5.30195E-05 9.58179E-06 1.34137E-05-4.05009E-18-1.56998E-18
 -1       310 4.92890E-05-4.79962E-05-2.90773E-06 2.65745E-05-3.75130E-18-4.19774E-18
 -1       311 8.50900E-05-4.21197E-05-1.96532E-05 3.60503E-05-3.79026E-18-1.68242E-18
 -1       312 1.38679E-04-4.71650E-05-3.88818E-05 3.36008E-05-3.35372E-18-1.51979E-18
 -1       313 1.80817E-04-4.22584E-05-5.73017E-05 2.89988E-05-2.09098E-18-3.22910E-18
 -1       314 2.17731E-04-4.22440E-05-7.12955E-05 1.69976E-05-1.91112E-18-2.85344E-18
 -1       315 2.22879E-04-3.61830E-05-7.61730E-05-6.38277E-06 1.67691E-18-3.39975E-18
 -1       316 2.23157E-04-3.93917E-05-7.43823E-05-2.80704E-05 5.17749E-19-3.41968E-18
 -1       317 1.90729E-04-3.73104E-05-6.28037E-05-4.07312E-05-6.99212E-19-3.05821E-18
 -1       318 1.47771E-04-3.60766E-05-4.64067E-05-5.14483E-05-1.16901E-18-1.76522E-18
 -1       319 1.01685E-04-4.09726E-05-2.65053E-05-4.75972E-05-1.18521E-18-6.23628E-19
 -1       320 5.84826E-05-4.65636E-05-7.37725E-06-3.67271E-05 3.21237E-19 1.49184E-18
 -1       321 3.12710E-05-5.43173E-05 6.61080E-06-2.44887E-05-6.34216E-19-2.01753E-19
 -1       322 1.51794E-05-5.87843E-05 1.47129E-05-7.51631E-06-2.85365E-18-2.38683E-18
 -1       323 9.16511E-05-1.43959E-05-3.31726E-05-1.30589E-05-2.81921E-18-2.92551E-18
 -1       324 9.57140E-05-1.91123E-05-3.28923E-05-1.46266E-05-3.24417E-18-1.13721E-18
 -1       325 8.80023E-05-1.03734E-05-3.33231E-05-8.15020E-06-1.56550E-18-4.46372E-18
 -1       326 8.71860E-05-9.45216E-06-3.33626E-05-5.71502E-06-9.25224E-19-4.51888E-18
 -1       327 8.67249E-05-8.92180E-06-3.33891E-05-3.36524E-06-2.45733E-19-4.45931E-18
 -1       328 8.65193E-05-8.68177E-06-3.34024E-05-1.07195E-06 4.09525E-19-4.29632E-18
 -1       329 8.65278E-05-8.69131E-06-3.34021E-05 1.20291E-06 9.57313E-19-4.15301E-18
 -1       330 8.67523E-05-8.95251E-06-3.33879E-05 3.49834E-06 1.50216E-18-4.05246E-18
 -1       331 8.72258E-05-9.49732E-06-3.33609E-05 5.81239E-06 2.08020E-18-3.72571E-18
 -1       332 8.80670E-05-1.04503E-05-3.33198E-05 8.25242E-06 2.58492E-18-2.99642E-18
 -1       333 8.94803E-05-1.20320E-05-3.32596E-05 1.07661E-05 3.16929E-18-2.24188E-18
 -1       334 9.18935E-05-1.47369E-05-3.31495E-05 1.31442E-05 3.47382E-18-8.34294E-19
 -1       335 9.58934E-05-1.95868E-05-3.28071E-05 1.42792E-05 3.51328E-18 1.77981E-18
 -1       336 9.87894E-05-2.44517E-05-3.19444E-05 1.18498E-05 3.09556E-18 4.10090E-18
 -1       337 9.63473E-05-2.67792E-05-2.97873E-05 5.72547E-06 2.43271E-18 3.10443E-18
 -1       338 9.64423E-05-2.60274E-05-3.01341E-05-6.34387E-06-2.58841E-18-6.03958E-19
 -1       339 9.49298E-05-2.70327E-05-2.90736E-05-2.83046E-06-2.05967E-18-9.04442E-19
 -1       340 9.39525E-05-2.74284E-05-2.84957E-05-9.17648E-07-1.59842E-18-1.11505E-18
 -1       341 9.34345E-05-2.76416E-05-2.81902E-05 1.42460E-07-1.29654E-18-1.46431E-18
 -1       342 9.32433E-05-2.77952E-05-2.80464E-05 7.06872E-07-9.28696E-19-1.63375E-18
 -1       343 9.32609E-05-2.79252E-05-2.80001E-05 9.73999E-07-5.96065E-19-1.67121E-18
 -1       344 9.34002E-05-2.80403E-05-2.80113E-05 1.06075E-06-5.50192E-19-1.68625E-18
 -1       345 9.36017E-05-2.81418E-05-2.80547E-05 1.03982E-06-7.19832E-19-1.76906E-18
 -1       346 9.38262E-05-2.82292E-05-2.81137E-05 9.58056E-07-8.02914E-19-2.01849E-18
 -1       347 9.40495E-05-2.83027E-05-2.81780E-05 8.46189E-07-8.26259E-19-1.90583E-18
 -1       348 9.42575E-05-2.83629E-05-2.82413E-05 7.24394E-07-7.25832E-19-2.49497E-18
 -1       349 9.44437E-05-2.84111E-05-2.83004E-05 6.05793E-07-4.48247E-19-2.71751E-18
 -1       350 9.46059E-05-2.84487E-05-2.83537E-05 4.98819E-07-8.21792E-19-2.92026E-18
 -1       351 9.47459E-05-2.84776E-05-2.84012E-05 4.08908E-07-4.13703E-19-3.41967E-18
 -1       352 9.48674E-05-2.84993E-05-2.84438E-05 3.39752E-07-1.08504E-19-3.19038E-18
 -1       353 9.49760E-05-2.85158E-05-2.84831E-05 2.94274E-07-8.46444E-20-3.35096E-18
 -1       354 9.50787E-05-2.85289E-05-2.85214E-05 2.75401E-07-2.81576E-19-2.61069E-18
 -1       355 9.51839E-05-2.85403E-05-2.85614E-05 2.86720E-07-4.57525E-19-2.23608E-18
 -1       356 9.53012E-05-2.85518E-05-2.86065E-05 3.33066E-07 1.51549E-19-2.75830E-18
 -1       357 9.54424E-05-2.85657E-05-2.86608E-05 4.21104E-07 7.20420E-20-3.45846E-18
 -1       358 9.56208E-05-2.85839E-05-2.87291E-05 5.59947E-07-2.71631E-19-3.08610E-18
 -1       359 9.58527E-05-2.86088E-05-2.88173E-05 7.61866E-07-6.12432E-20-2.38678E-18
 -1       360 9.61573E-05-2.86431E-05-2.89325E-05 1.04310E-06 1.65844E-19-2.06118E-18
 -1       361 9.65571E-05-2.86896E-05-2.90832E-05 1.42477E-06 2.01567E-19-2.69363E-18
 -1       362 9.70788E-05-2.87515E-05-2.92793E-05 1.93375E-06 1.77223E-21-2.52983E-18
 -1       363 9.77528E-05-2.88328E-05-2.95322E-05 2.60317E-06 8.46815E-19-1.76534E-18
 -1       364 9.86138E-05-2.89394E-05-2.98541E-05 3.47157E-06 6.55811E-19-2.29038E-18
 -1       365 9.97002E-05-2.90824E-05-3.02568E-05 4.57905E-06 8.10676E-19-2.33292E-18
 -1       366 1.01055E-04-2.92856E-05-3.07488E-05 5.95659E-06-2.35986E-20-2.04811E-18
 -1       367 1.02728E-04-2.96013E-05-3.13304E-05 7.60210E-06 1.19475E-19-8.21417E-19
 -1       368 1.04792E-04-3.01413E-05-3.19851E-05 9.43267E-06 1.83040E-19-1.16973E-18
 -1       369 1.07365E-04-3.11288E-05-3.26705E-05 1.11991E-05 2.23182E-19-1.08119E-18
 -1       370 1.10669E-04-3.29619E-05-3.33128E-05 1.23507E-05 1.09618E-18-5.53160E-19
 -1       371 1.15075E-04-3.62104E-05-3.38265E-05 1.18633E-05 9.81658E-19-8.89603E-19
 -1       372 1.20977E-04-4.12954E-05-3.41928E-05 8.16952E-06-3.35041E-19-7.49065E-19
 -1       373 1.28199E-04-4.74862E-05-3.46480E-05-4.50199E-07 2.71752E-19-4.34096E-19
 -1       374 1.34406E-04-5.09075E-05-3.58856E-05-1.39381E-05 6.45207E-19-2.25744E-18
 -1       375 1.34816E-04-4.50084E-05-3.87708E-05-2.64239E-05 2.86072E-19-2.58081E-18
 -1       376 1.27713E-04-2.91165E-05-4.27181E-05-2.55424E-05-4.29922E-19-1.67613E-18
 -1       377 1.21370E-04-1.87190E-05-4.45665E-05-7.78361E-06 9.68635E-19-1.31148E-18
 -1       378 1.23847E-04-2.57026E-05-4.25702E-05 1.30740E-05-7.58359E-19 6.58568E-19
 -1       379 1.29209E-04-4.13102E-05-3.79625E-05 1.71873E-05 8.52274E-19 1.52959E-18
 -1       380 1.27829E-04-4.82678E-05-3.42285E-05 6.57980E-06-5.00476E-19 1.71822E-18
 -1       381 1.20054E-04-4.48113E-05-3.23068E-05-6.55058E-06-1.27874E-18 5.61176E-19
 -1       382 1.10816E-04-3.72199E-05-3.15505E-05-1.43453E-05-2.17493E-18 1.42042E-18
 -1       383 1.02384E-04-2.93962E-05-3.12664E-05-1.56440E-05-2.78518E-18 1.92799E-20
 -1       384 9.41567E-05-2.72837E-05-2.86356E-05 1.70193E-06 1.59748E-18 1.29526E-18
 -1       385 9.33986E-05-2.75375E-05-2.82145E-05 2.93368E-07 1.19124E-18 9.31287E-19
 -1       386 9.30534E-05-2.76795E-05-2.80121E-05-4.61913E-07 9.79365E-19 4.23694E-19
 -1       387 9.29951E-05-2.78046E-05-2.79366E-05-8.43437E-07 7.98316E-19 2.87052E-19
 -1       388 9.31082E-05-2.79225E-05-2.79361E-05-1.00111E-06 7.39551E-19-1.87901E-20
 -1       389 9.33138E-05-2.80325E-05-2.79779E-05-1.02435E-06 5.71812E-19-5.47060E-20
 -1       390 9.35596E-05-2.81318E-05-2.80411E-05-9.69350E-07 5.65730E-19-3.24366E-19
 -1       391 9.38128E-05-2.82187E-05-2.81126E-05-8.72522E-07 8.05338E-19-3.38485E-19
 -1       392 9.40537E-05-2.82924E-05-2.81843E-05-7.57737E-07 5.80338E-19-1.76329E-19
 -1       393 9.42719E-05-2.83533E-05-2.82517E-05-6.40578E-07-6.31189E-20-5.59609E-19
 -1       394 9.44633E-05-2.84023E-05-2.83126E-05-5.31093E-07-1.48688E-19-5.73271E-19
 -1       395 9.46281E-05-2.84411E-05-2.83665E-05-4.35691E-07 8.01263E-19-5.13750E-19
 -1       396 9.47694E-05-2.84714E-05-2.84139E-05-3.58498E-07 6.71084E-19-5.68689E-19
 -1       397 9.48923E-05-2.84951E-05-2.84563E-05-3.02354E-07 4.73914E-19-7.87648E-19
 -1       398 9.50034E-05-2.85142E-05-2.84955E-05-2.69542E-07 7.10350E-19-1.38235E-18
 -1       399 9.51105E-05-2.85309E-05-2.85341E-05-2.62293E-07 1.75007E-19-1.49843E-18
 -1       400 9.52225E-05-2.85477E-05-2.85747E-05-2.83102E-07-9.77191E-19-1.49988E-18
 -1       401 9.53493E-05-2.85671E-05-2.86205E-05-3.34823E-07-5.97240E-20-9.65437E-19
 -1       402 9.55020E-05-2.85924E-05-2.86748E-05-4.20534E-07 5.35722E-19-7.95013E-19
 -1       403 9.56925E-05-2.86274E-05-2.87412E-05-5.43083E-07 1.18502E-19 4.51141E-20
 -1       404 9.59338E-05-2.86770E-05-2.88231E-05-7.04215E-07-1.45783E-19 4.97356E-20
 -1       405 9.62391E-05-2.87470E-05-2.89238E-05-9.03144E-07-4.83600E-19-1.39667E-18
 -1       406 9.66209E-05-2.88447E-05-2.90454E-05-1.13441E-06 8.54133E-19-1.33589E-18
 -1       407 9.70894E-05-2.89788E-05-2.91888E-05-1.38485E-06 7.73860E-19-1.16248E-18
 -1       408 9.76503E-05-2.91593E-05-2.93522E-05-1.62971E-06-5.45602E-19-7.24878E-19
 -1       409 9.83012E-05-2.93969E-05-2.95300E-05-1.82797E-06-8.40229E-19-4.53568E-19
 -1       410 9.90269E-05-2.97012E-05-2.97119E-05-1.91790E-06-2.15741E-19-5.09043E-19
 -1       411 9.97931E-05-3.00766E-05-2.98812E-05-1.81450E-06-3.62574E-19-3.28258E-20
 -1       412 1.00539E-04-3.05153E-05-3.00152E-05-1.41230E-06-8.72317E-19 3.14020E-19
 -1       413 1.01168E-04-3.09856E-05-3.00862E-05-5.99200E-07-8.11191E-19 7.49674E-21
 -1       414 1.01543E-04-3.14155E-05-3.00651E-05 7.11772E-07 4.39493E-19 4.38389E-19
 -1       415 1.01484E-04-3.16781E-05-2.99287E-05 2.52701E-06 4.23963E-19 7.87660E-19
 -1       416 1.00790E-04-3.15916E-05-2.96680E-05 4.69707E-06 1.47173E-18 2.37036E-18
 -1       417 9.92990E-05-3.09593E-05-2.92962E-05 6.84897E-06 5.82548E-19 1.23374E-18
 -1       418 9.69892E-05-2.96722E-05-2.88514E-05 8.38728E-06-3.31785E-19 7.25859E-19
 -1       419 9.41095E-05-2.78511E-05-2.83901E-05 8.64174E-06 5.98835E-19 4.75924E-19
 -1       420 9.12274E-05-2.59286E-05-2.79718E-05 7.18159E-06 4.78097E-19 1.58214E-18
 -1       421 8.90802E-05-2.45331E-05-2.76454E-05 4.15178E-06-1.30110E-18 6.47553E-19
 -1       422 8.82371E-05-2.41661E-05-2.74401E-05 3.65183E-07-7.20225E-19-1.48209E-18
 -1       423 8.87587E-05-2.48595E-05-2.73687E-05-3.03884E-06 7.47665E-19-2.46296E-18
 -1       424 9.01789E-05-2.61609E-05-2.74255E-05-5.19891E-06 7.98482E-19 5.90379E-19
 -1       425 9.18239E-05-2.74636E-05-2.75788E-05-5.90463E-06 3.96918E-19 2.68382E-18
 -1       426 9.31798E-05-2.83772E-05-2.77755E-05-5.52743E-06 1.28048E-19 1.47049E-18
 -1       427 9.41429E-05-2.89387E-05-2.79528E-05-4.62329E-06 7.37598E-19 2.22567E-18
 -1       428 9.46667E-05-2.92989E-05-2.80152E-05-3.56674E-06 3.84598E-19 3.15480E-18
 -1       429 9.94593E-05-3.23967E-05-2.87138E-05 3.94264E-07 4.19979E-19 1.61248E-18
 -1       430 9.75429E-05-3.13645E-05-2.83493E-05-2.89928E-06 1.09794E-18 2.21112E-18
 -1       431 1.01086E-04-3.26558E-05-2.92912E-05 5.83264E-06 8.59110E-19 1.27817E-18
 -1       432 1.01520E-04-3.13507E-05-3.00366E-05 1.31378E-05 1.58806E-18 1.55393E-18
 -1       433 9.95603E-05-2.76241E-05-3.08061E-05 2.05638E-05 2.01116E-18-2.35928E-20
 -1       434 9.40438E-05-2.07167E-05-3.14171E-05 2.53193E-05 2.22502E-18-3.34507E-18
 -1       435 8.56422E-05-1.16349E-05-3.17176E-05 2.33425E-05 2.86674E-19-3.08290E-18
 -1       436 7.82195E-05-4.03245E-06-3.17927E-05 1.29495E-05 1.63868E-19-1.66313E-18
 -1       437 7.61907E-05-1.83934E-06-3.18599E-05-3.00831E-06-1.93812E-19 2.41641E-18
 -1       438 8.10780E-05-6.42839E-06-3.19922E-05-1.71329E-05-6.06704E-20 3.61403E-18
 -1       439 8.92911E-05-1.45523E-05-3.20283E-05-2.36390E-05 5.17914E-20-1.35841E-18
 -1       440 9.62248E-05-2.20315E-05-3.17865E-05-2.22367E-05-1.40216E-18-6.27049E-19
 -1       441 9.49514E-05-2.70797E-05-2.90507E-05 3.32235E-06 2.04255E-18 2.17928E-18
 -1       442 7.18405E-05-5.00524E-05-9.27747E-06 5.20241E-05 1.44737E-19-1.12920E-18
 -1       443 1.39743E-04-6.16279E-05-3.35318E-05 3.46716E-05-2.50626E-18-4.57080E-19
 -1       444 1.43777E-05-2.88518E-05 5.77736E-06 2.47867E-06 1.61174E-19 9.46136E-19
 -1       445 1.06955E-04-5.98499E-05-2.02398E-05 4.94789E-05-4.79527E-19-1.83711E-18
 -1       446 8.93412E-05-1.18572E-05-3.32806E-05-1.06812E-05-2.20041E-18-3.94041E-18
 -1       447 1.60624E-04-4.44956E-05-4.98160E-05 6.63406E-06-8.60188E-19-1.65023E-18
 -1       448 1.60139E-04-2.64838E-05-5.76388E-05-1.01753E-06 1.82620E-18-2.77001E-18
 -1       449 1.68212E-04-1.40023E-05-6.59803E-05 1.75285E-06 2.60113E-18-5.83812E-18
 -1       450 1.64901E-04-1.36925E-05-6.47661E-05 3.77343E-06 3.03386E-18-5.67978E-18
 -1       451 1.65377E-04-2.58780E-05-5.96809E-05 1.56208E-06 2.45375E-18-5.25256E-18
 -1       452 1.57309E-04-4.51671E-05-4.80238E-05-1.31055E-05 2.85987E-18-4.67128E-18
 -1       453 1.36908E-04-5.56473E-05-3.48150E-05-3.02240E-05 1.22878E-18-6.77690E-18
 -1       454 1.03526E-04-5.66977E-05-2.00846E-05-4.47971E-05-1.16044E-19-5.88587E-18
 -1       455 6.20741E-05-4.59296E-05-7.13842E-06-4.68766E-05-1.16816E-18-4.47300E-18
 -1       456 2.74358E-05-3.28248E-05 2.13421E-06-3.38507E-05 1.04196E-18-3.85951E-18
 -1       457 1.19358E-05-2.80374E-05 6.62820E-06-1.18981E-05 6.48165E-19-3.12693E-18
 -1       458 2.04416E-05-3.08370E-05 4.33449E-06 1.85153E-05-1.12364E-18-2.03415E-18
 -1       459 5.15081E-05-4.53755E-05-2.84535E-06 3.62775E-05-2.62834E-18-3.08839E-18
 -1       460 9.74200E-05-6.06377E-05-1.58404E-05 3.70879E-05-2.89442E-18-2.16012E-18
 -1       461 1.32899E-04-6.69734E-05-2.84555E-05 2.34933E-05-3.91319E-18-2.55804E-19
 -1       462 1.61766E-04-5.75623E-05-4.47351E-05-4.71344E-06-1.55123E-18-1.84971E-18
 -1       463 1.72364E-04-3.67736E-05-5.77706E-05-1.16289E-05-1.47151E-18-2.47154E-18
 -1       464 1.74963E-04-2.26143E-05-6.48772E-05-1.22249E-05 7.17119E-19-3.76961E-18
 -1       465 1.73058E-04-1.89001E-05-6.57246E-05-3.11313E-06-2.92226E-20-3.51598E-18
 -1       466 1.75188E-04-3.05906E-05-6.13788E-05-2.47594E-06 4.47128E-19-3.74198E-18
 -1       467 1.65046E-04-5.28333E-05-4.81273E-05-6.83435E-06-1.17023E-19-4.26703E-18
 -1       468 1.44617E-04-6.10428E-05-3.57391E-05-3.21393E-05 2.77509E-19-3.22995E-18
 -1       469 1.07117E-04-6.26427E-05-1.93077E-05-4.69965E-05 3.28437E-19-1.01310E-18
 -1       470 6.77179E-05-5.03012E-05-7.58243E-06-4.92167E-05-4.47551E-19 2.16862E-18
 -1       471 2.93274E-05-3.41507E-05 1.86355E-06-3.09221E-05-1.35186E-18-9.69747E-19
 -1       472 2.70236E-05-3.25555E-05 2.22819E-06 3.07728E-05-1.23063E-18 1.48834E-18
 -1       473 5.76595E-05-3.59474E-05-8.74297E-06 4.76937E-05-5.22090E-19-7.64765E-19
 -1       474 1.48961E-04-1.30495E-05-5.88091E-05-8.74301E-06 9.95899E-19-3.27416E-18
 -1       475 8.95341E-05-1.33979E-05-3.26486E-05-3.92243E-06-6.41675E-19-3.97093E-18
 -1       476 9.02424E-05-1.43605E-05-3.25410E-05-5.87886E-06-1.16096E-18-3.91658E-18
 -1       477 8.90352E-05-1.27175E-05-3.27253E-05 5.45739E-08 5.74348E-19-3.72258E-18
 -1       478 8.91707E-05-1.29010E-05-3.27050E-05 2.04450E-06 1.16310E-18-3.75112E-18
 -1       479 8.95664E-05-1.34387E-05-3.26453E-05 3.99584E-06 1.74704E-18-3.56460E-18
 -1       480 9.02925E-05-1.44261E-05-3.25352E-05 5.94794E-06 2.34238E-18-3.09923E-18
 -1       481 9.14475E-05-1.60113E-05-3.23530E-05 7.77314E-06 2.66842E-18-2.31153E-18
 -1       482 9.31729E-05-1.84342E-05-3.20514E-05 9.22022E-06 3.00795E-18-1.42360E-18
 -1       483 9.53155E-05-2.18892E-05-3.14799E-05 9.54454E-06 3.12050E-18 1.87340E-19
 -1       484 9.63645E-05-2.46226E-05-3.07352E-05 8.03146E-06 2.90367E-18 1.53329E-18
 -1       485 9.54932E-05-2.44432E-05-3.04414E-05-5.82851E-06-2.33860E-18-1.88274E-18
 -1       486 1.49667E-04-3.72492E-05-4.86375E-05 9.26953E-06 1.16695E-18-1.53991E-18
 -1       487 9.52788E-05-2.62295E-05-2.95853E-05-2.89108E-06-1.92216E-18-1.80747E-18
 -1       488 9.49227E-05-2.71626E-05-2.90361E-05-1.02582E-06-1.52938E-18-1.59302E-18
 -1       489 9.46467E-05-2.76942E-05-2.86923E-05 9.74573E-08-1.19982E-18-1.53467E-18
 -1       490 9.44907E-05-2.80210E-05-2.84864E-05 7.32430E-07-7.39416E-19-1.63434E-18
 -1       491 9.44357E-05-2.82330E-05-2.83725E-05 1.04981E-06-8.19615E-19-1.94921E-18
 -1       492 9.44513E-05-2.83744E-05-2.83188E-05 1.16453E-06-7.00512E-19-2.31497E-18
 -1       493 9.45104E-05-2.84690E-05-2.83037E-05 1.15428E-06-7.41766E-19-2.14624E-18
 -1       494 9.45922E-05-2.85310E-05-2.83123E-05 1.07179E-06-8.60337E-19-1.85454E-18
 -1       495 9.46826E-05-2.85697E-05-2.83345E-05 9.52766E-07-9.38663E-19-1.62461E-18
 -1       496 9.47727E-05-2.85913E-05-2.83638E-05 8.21244E-07-6.26368E-19-1.57206E-18
 -1       497 9.48576E-05-2.86007E-05-2.83961E-05 6.93210E-07-9.50620E-19-1.86596E-18
 -1       498 9.49354E-05-2.86009E-05-2.84293E-05 5.79261E-07-8.39053E-19-1.45129E-18
 -1       499 9.50060E-05-2.85944E-05-2.84623E-05 4.86566E-07-1.89064E-19-1.51986E-18
 -1       500 9.50712E-05-2.85825E-05-2.84953E-05 4.20363E-07-4.57267E-19-1.94627E-18
 -1       501 9.51336E-05-2.85660E-05-2.85290E-05 3.85120E-07-6.84902E-20-2.46173E-18
 -1       502 9.51968E-05-2.85451E-05-2.85650E-05 3.85467E-07-4.14218E-19-2.10303E-18
 -1       503 9.52652E-05-2.85196E-05-2.86052E-05 4.26986E-07-4.29381E-19-1.96499E-18
 -1       504 9.53440E-05-2.84884E-05-2.86522E-05 5.16896E-07-3.23219E-19-2.25276E-18
 -1       505 9.54386E-05-2.84500E-05-2.87090E-05 6.64711E-07 2.24082E-19-2.15026E-18
 -1       506 9.55551E-05-2.84021E-05-2.87793E-05 8.82903E-07 2.63766E-19-1.47083E-18
 -1       507 9.56996E-05-2.83412E-05-2.88671E-05 1.18757E-06-1.06486E-19-1.92176E-18
 -1       508 9.58778E-05-2.82626E-05-2.89769E-05 1.59913E-06-4.68033E-19-2.91312E-18
 -1       509 9.60941E-05-2.81597E-05-2.91133E-05 2.14292E-06-4.74248E-20-3.25376E-18
 -1       510 9.63506E-05-2.80246E-05-2.92807E-05 2.84948E-06 1.04121E-18-2.69091E-18
 -1       511 9.66454E-05-2.78488E-05-2.94818E-05 3.75405E-06 2.08028E-19-2.60161E-18
 -1       512 9.69728E-05-2.76269E-05-2.97165E-05 4.89434E-06 1.21876E-18-1.84111E-18
 -1       513 9.73247E-05-2.73656E-05-2.99786E-05 6.30507E-06 4.41858E-19-1.01329E-18
 -1       514 9.77011E-05-2.71037E-05-3.02515E-05 8.00666E-06 5.58478E-19-2.51616E-19
 -1       515 9.81358E-05-2.69519E-05-3.05028E-05 9.98434E-06-1.80521E-19-1.84039E-19
 -1       516 9.87567E-05-2.71637E-05-3.06793E-05 1.21518E-05 4.00503E-19 6.17894E-19
 -1       517 9.98987E-05-2.82419E-05-3.07093E-05 1.42940E-05 6.62250E-19-2.09880E-19
 -1       518 1.02298E-04-3.10688E-05-3.05281E-05 1.59608E-05 1.24839E-18 2.84392E-19
 -1       519 1.07262E-04-3.68539E-05-3.01752E-05 1.62126E-05 1.21226E-18 1.75611E-18
 -1       520 1.16485E-04-4.64290E-05-3.00055E-05 1.33507E-05-9.24566E-19 1.67723E-18
 -1       521 1.30760E-04-5.79753E-05-3.12000E-05 4.43472E-06-2.21861E-18 8.22793E-19
 -1       522 1.45573E-04-6.15590E-05-3.61555E-05-1.13484E-05-5.27175E-19-1.64380E-18
 -1       523 1.48319E-04-4.37705E-05-4.52974E-05-2.75810E-05-6.91020E-19-3.31317E-18
 -1       524 1.41203E-04-1.92114E-05-5.30322E-05-2.04534E-05 1.59835E-18-2.84794E-18
 -1       525 1.41811E-04-1.58937E-05-5.46902E-05 4.17318E-06-8.63550E-19-3.36471E-18
 -1       526 1.47348E-04-3.90058E-05-4.70122E-05 1.57403E-05 6.48298E-19-2.49451E-18
 -1       527 1.45222E-04-5.91033E-05-3.71114E-05 4.08852E-06-1.38001E-18-3.97552E-18
 -1       528 1.30429E-04-5.64270E-05-3.17783E-05-1.16545E-05-1.58531E-18-4.34197E-18
 -1       529 1.15888E-04-4.51184E-05-3.02862E-05-2.07482E-05-7.88058E-19-3.14846E-18
 -1       530 1.04561E-04-3.35034E-05-3.04264E-05-2.44751E-05-1.09939E-18-2.48319E-18
 -1       531 9.43884E-05-2.78525E-05-2.85140E-05-4.55347E-07 1.03831E-18-7.56874E-19
 -1       532 9.46242E-05-2.74708E-05-2.87766E-05 4.01580E-07 1.31095E-18-3.24371E-19
 -1       533 9.50060E-05-2.68246E-05-2.92166E-05 1.88542E-06 1.51794E-18-8.98415E-20
 -1       534 9.42858E-05-2.80967E-05-2.83663E-05-9.14483E-07 8.99431E-19-9.45326E-19
 -1       535 9.42806E-05-2.82616E-05-2.82938E-05-1.11885E-06 9.11319E-19-1.03666E-18
 -1       536 9.43375E-05-2.83759E-05-2.82695E-05-1.16352E-06 5.33232E-19-1.12597E-18
 -1       537 9.44287E-05-2.84551E-05-2.82747E-05-1.11251E-06 4.16607E-19-7.12780E-19
 -1       538 9.45349E-05-2.85089E-05-2.82972E-05-1.00911E-06 6.81760E-19-6.30521E-19
 -1       539 9.46434E-05-2.85439E-05-2.83288E-05-8.82450E-07 2.86808E-19-5.63747E-19
 -1       540 9.47467E-05-2.85646E-05-2.83641E-05-7.51991E-07 1.26880E-19-7.33680E-19
 -1       541 9.48413E-05-2.85748E-05-2.84003E-05-6.30587E-07 6.51724E-19-1.13484E-18
 -1       542 9.49263E-05-2.85769E-05-2.84357E-05-5.26724E-07 9.28172E-19-9.80752E-19
 -1       543 9.50028E-05-2.85728E-05-2.84702E-05-4.46155E-07 4.28987E-19-9.84644E-19
 -1       544 9.50732E-05-2.85641E-05-2.85040E-05-3.93112E-07 1.05029E-18-9.96591E-19
 -1       545 9.51410E-05-2.85518E-05-2.85382E-05-3.71178E-07 4.58248E-19-7.14090E-19
 -1       546 9.52107E-05-2.85369E-05-2.85744E-05-3.83872E-07-6.32126E-19-4.73135E-19
 -1       547 9.52877E-05-2.85205E-05-2.86144E-05-4.34960E-07-2.33913E-19-1.64392E-18
 -1       548 9.53781E-05-2.85041E-05-2.86600E-05-5.28478E-07-2.00410E-19-1.39238E-18
 -1       549 9.54891E-05-2.84900E-05-2.87135E-05-6.68406E-07-4.24634E-19-5.22872E-19
 -1       550 9.56291E-05-2.84821E-05-2.87768E-05-8.57909E-07 1.66699E-19-2.30360E-19
 -1       551 9.58077E-05-2.84864E-05-2.88514E-05-1.09800E-06 3.66194E-19-7.74360E-19
 -1       552 9.60361E-05-2.85120E-05-2.89382E-05-1.38548E-06 6.17745E-19-1.24855E-18
 -1       553 9.63270E-05-2.85723E-05-2.90370E-05-1.70995E-06 5.12554E-19-1.12332E-18
 -1       554 9.66952E-05-2.86865E-05-2.91459E-05-2.04983E-06-4.23723E-21-6.54215E-19
 -1       555 9.71569E-05-2.88801E-05-2.92611E-05-2.36732E-06-8.84111E-19-1.67447E-18
 -1       556 9.77293E-05-2.91851E-05-2.93761E-05-2.60288E-06-1.33947E-18-6.09362E-19
 -1       557 9.84279E-05-2.96369E-05-2.94826E-05-2.67008E-06-6.59580E-19 2.12788E-19
 -1       558 9.92608E-05-3.02662E-05-2.95709E-05-2.45351E-06-7.65962E-19 6.15425E-19
 -1       559 1.00217E-04-3.10819E-05-2.96325E-05-1.81400E-06-2.00146E-19-1.72959E-19
 -1       560 1.01247E-04-3.20419E-05-2.96638E-05-6.08488E-07-4.18503E-19 1.56088E-19
 -1       561 1.02230E-04-3.30118E-05-2.96706E-05 1.26534E-06-1.47398E-19-1.49553E-19
 -1       562 1.02947E-04-3.37266E-05-2.96720E-05 3.78956E-06 5.22197E-19 8.78439E-19
 -1       563 1.03078E-04-3.37917E-05-2.96992E-05 6.71321E-06 1.01460E-18 2.19593E-18
 -1       564 1.02282E-04-3.27913E-05-2.97838E-05 9.44829E-06 6.99820E-19 2.83899E-18
 -1       565 1.00402E-04-3.05455E-05-2.99366E-05 1.10840E-05 4.00415E-19 2.37243E-18
 -1       566 9.77386E-05-2.74404E-05-3.01240E-05 1.06697E-05-1.80726E-19 2.66659E-18
 -1       567 9.51406E-05-2.45182E-05-3.02610E-05 7.79573E-06-1.87662E-19 4.18146E-18
 -1       568 9.36336E-05-2.30262E-05-3.02548E-05 3.07902E-06-2.22264E-19 3.07217E-18
 -1       569 9.37667E-05-2.36188E-05-3.00550E-05-1.88211E-06 7.88487E-19 2.03358E-18
 -1       570 9.50849E-05-2.57366E-05-2.97144E-05-5.43846E-06 6.15777E-19 1.57713E-18
 -1       571 9.65816E-05-2.81575E-05-2.93234E-05-6.85431E-06 6.46526E-20 9.24390E-19
 -1       572 9.74036E-05-2.98348E-05-2.89570E-05-6.48310E-06 7.45707E-19 2.96468E-18
 -1       573 9.73664E-05-3.05076E-05-2.86521E-05-5.24462E-06 3.42343E-19 3.46486E-18
 -1       574 1.08073E-04-3.73046E-05-3.03029E-05 9.60720E-06 6.06993E-20 3.27301E-18
 -1       575 1.04672E-04-3.50563E-05-2.98332E-05 2.13751E-06-1.82075E-19 1.10520E-18
 -1       576 1.00749E-04-3.26231E-05-2.91860E-05-2.51536E-06 2.63227E-19 9.55142E-19
 -1       577 2.90632E-05-1.86996E-05-3.83449E-06 1.77706E-05 2.07285E-19 1.24694E-18
 -1       578 1.08940E-04-3.80738E-05-3.03452E-05 1.90515E-05 1.04489E-18 5.84801E-19
 -1       579 1.04467E-04-3.52507E-05-2.96292E-05 2.87443E-05-2.80070E-19-2.97783E-18
 -1       580 9.24485E-05-2.69277E-05-2.79950E-05 3.34170E-05-8.55450E-19-5.01724E-18
 -1       581 7.63606E-05-1.53889E-05-2.59951E-05 2.67736E-05 4.77680E-19-2.11836E-18
 -1       582 6.57190E-05-7.56808E-06-2.47495E-05 7.43334E-06 9.37282E-19 1.25108E-18
 -1       583 6.92672E-05-9.96625E-06-2.52514E-05-1.53867E-05-3.75341E-20 1.03384E-18
 -1       584 8.38762E-05-2.01639E-05-2.72087E-05-2.88757E-05-1.54589E-18 1.09674E-18
 -1       585 9.65928E-05-2.87034E-05-2.90432E-05-2.98613E-05-2.13322E-19-6.11859E-19
 -1       586 9.45924E-05-2.06860E-05-3.16919E-05-9.58480E-06-2.72502E-18-2.35106E-18
 -1       587 3.13091E-05-1.68949E-05-5.50188E-06-1.48228E-05 2.57538E-19 1.17515E-18
 -1       588 5.82363E-05-3.54193E-05-9.29359E-06-4.40570E-05-8.27022E-19-4.47604E-19
 -1       589 1.49277E-04-6.75715E-05-3.51011E-05-1.52171E-06-1.89447E-18-4.72644E-19
 -1       590 8.48459E-05-5.16520E-05-1.38671E-05 3.80180E-05-1.59205E-18-2.08383E-18
 -1       591 5.60447E-05-3.62732E-05-7.98268E-06-4.49298E-05-6.84509E-20-2.70405E-18
 -1       592 8.91509E-05-1.28760E-05-3.27072E-05-1.93599E-06 4.85743E-20-3.89443E-18
 -1       593 1.50226E-04-5.98155E-05-3.89715E-05 1.19261E-05-5.31106E-19 1.15091E-18
 -1       594 1.38546E-04-5.80010E-06-5.75726E-05 2.85649E-06 3.36537E-18-1.67028E-18
 -1       595 1.47807E-04-3.56116E-05-4.85924E-05-7.15232E-06 6.92291E-19-2.59605E-18
 -1       596 1.46929E-04-5.74854E-05-3.85713E-05-7.75177E-06 8.87724E-19-2.32288E-18
 -1       597 1.40594E-04-1.54947E-05-5.42592E-05 1.27281E-05 1.15398E-18-5.84479E-19
 -1       598 4.88086E-05-2.98876E-05-7.48164E-06 3.15220E-05 6.18334E-20-3.54917E-18
 -1       599 1.40321E-04-1.32671E-05-5.50609E-05-6.58891E-06 3.58507E-18-2.58604E-18
 -1       600 1.29180E-04-6.34396E-05-2.81878E-05-2.91017E-05-1.02465E-18-5.57276E-18
 -1       601 8.83032E-05-5.13892E-05-1.55330E-05-4.66073E-05-2.15988E-18-6.32035E-18
 -1       602 2.84480E-05-1.85887E-05-3.56628E-06-2.38133E-05 1.26706E-18-3.37564E-18
 -1       603 2.32262E-05-1.62237E-05-2.31940E-06 4.95141E-06 1.55768E-18-3.60974E-18
 -1       604 1.25291E-04-6.71432E-05-2.47856E-05 2.34954E-05-2.71591E-18 5.99329E-19
 -1       605 1.53936E-04-6.63598E-05-3.76146E-05-9.44012E-06-7.15690E-19-4.61951E-18
 -1       606 1.33423E-04-6.99354E-05-2.74113E-05-3.47188E-05-8.26439E-19-2.53279E-18
 -1       607 1.03578E-04-5.93263E-05-1.86408E-05-4.78446E-05-5.37654E-19 1.50084E-20
 -1       608 9.13298E-05-1.58268E-05-3.23798E-05-7.76475E-06-1.83093E-18-3.82069E-18
 -1       609 9.55696E-05-2.58468E-05-2.98592E-05 4.92582E-06 2.42045E-18 9.22962E-19
 -1       610 1.30482E-04-6.61726E-05-2.74698E-05 3.83122E-05-1.26732E-18-3.84129E-19
 -1       611 5.07527E-05-2.30242E-05-1.12863E-05 3.55962E-05 7.40095E-19 8.95737E-20
 -1       612 9.51862E-05-2.63911E-05-2.94710E-05 3.20256E-06 2.05823E-18 2.54042E-19
 -1       613 9.19631E-05-5.03209E-05-1.73891E-05 5.17307E-05-3.20390E-19-2.29612E-18
 -1       614 1.13694E-04-5.96124E-05-2.29383E-05-3.61147E-05-2.21674E-18-5.33991E-18
 -1       615 9.15459E-05-1.68458E-05-3.20200E-05 2.43880E-06 1.29041E-18-3.07095E-18
 -1       616 9.12870E-05-1.64439E-05-3.20810E-05 8.40099E-07 7.32569E-19-3.32171E-18
 -1       617 9.28827E-05-1.89918E-05-3.16738E-05 5.26438E-06 2.18820E-18-2.44123E-18
 -1       618 9.39813E-05-2.08966E-05-3.13291E-05 6.19854E-06 2.37588E-18-1.66588E-18
 -1       619 9.55029E-05-2.42114E-05-3.05413E-05 6.25036E-06 2.62596E-18-1.00197E-19
 -1       620 8.99370E-05-4.35245E-05-1.94687E-05-4.46202E-05-1.33889E-18 2.25740E-18
 -1       621 1.03047E-04-3.31065E-05-2.99707E-05-4.70315E-06-4.51044E-19 5.92453E-19
 -1       622 1.23005E-04-6.33360E-05-2.53898E-05-3.60450E-05-1.67519E-18-1.85562E-18
 -1       623 4.10309E-05-1.12372E-05-1.20775E-05 4.80633E-06 5.56345E-20 5.35960E-19
 -1       624 9.50336E-05-2.36549E-05-3.05898E-05-4.73560E-06-1.92030E-18-2.36625E-18
 -1       625 9.54161E-05-2.57067E-05-2.98734E-05-2.43239E-06-1.55372E-18-2.04359E-18
 -1       626 9.54753E-05-2.69452E-05-2.93692E-05-8.61325E-07-1.36019E-18-1.86335E-18
 -1       627 9.54200E-05-2.77062E-05-2.90200E-05 1.40043E-07-1.06760E-18-1.77012E-18
 -1       628 9.53437E-05-2.81787E-05-2.87850E-05 7.27382E-07-9.67599E-19-1.93631E-18
 -1       629 9.52789E-05-2.84702E-05-2.86323E-05 1.02832E-06-7.01501E-19-1.82695E-18
 -1       630 9.52334E-05-2.86446E-05-2.85382E-05 1.13927E-06-5.91954E-19-1.63187E-18
 -1       631 9.52057E-05-2.87416E-05-2.84847E-05 1.13037E-06-6.05206E-19-1.38128E-18
 -1       632 9.51915E-05-2.87869E-05-2.84592E-05 1.05149E-06-6.33044E-19-1.23996E-18
 -1       633 9.51870E-05-2.87981E-05-2.84525E-05 9.37456E-07-6.24347E-19-1.14795E-18
 -1       634 9.51888E-05-2.87867E-05-2.84581E-05 8.12203E-07-1.07535E-18-1.07203E-18
 -1       635 9.51948E-05-2.87607E-05-2.84718E-05 6.92012E-07-3.24447E-19-1.14156E-18
 -1       636 9.52034E-05-2.87249E-05-2.84908E-05 5.87980E-07-4.80700E-19-6.65491E-19
 -1       637 9.52138E-05-2.86819E-05-2.85137E-05 5.07949E-07-7.29136E-19-1.02996E-18
 -1       638 9.52256E-05-2.86327E-05-2.85399E-05 4.57992E-07-8.43408E-19-7.71147E-19
 -1       639 9.52388E-05-2.85767E-05-2.85695E-05 4.43580E-07-1.84549E-19-1.88703E-18
 -1       640 9.52531E-05-2.85120E-05-2.86033E-05 4.70506E-07-4.08800E-19-1.76383E-18
 -1       641 9.52684E-05-2.84358E-05-2.86425E-05 5.45636E-07-4.33439E-19-1.21667E-18
 -1       642 9.52840E-05-2.83434E-05-2.86887E-05 6.77534E-07-1.80095E-19-1.37735E-18
 -1       643 9.52979E-05-2.82292E-05-2.87436E-05 8.76989E-07 4.85515E-19-1.53756E-18
 -1       644 9.53068E-05-2.80854E-05-2.88090E-05 1.15745E-06-2.44386E-19-1.83851E-18
 -1       645 9.53045E-05-2.79019E-05-2.88866E-05 1.53536E-06-1.14527E-18-2.15759E-18
 -1       646 9.52804E-05-2.76659E-05-2.89773E-05 2.03031E-06-5.29272E-19-2.39340E-18
 -1       647 9.52180E-05-2.73616E-05-2.90808E-05 2.66498E-06 9.11140E-19-1.97689E-18
 -1       648 9.50922E-05-2.69709E-05-2.91942E-05 3.46451E-06 9.66855E-19-2.07865E-18
 -1       649 9.48681E-05-2.64757E-05-2.93101E-05 4.45547E-06 1.00556E-18-1.03862E-18
 -1       650 9.45007E-05-2.58651E-05-2.94141E-05 5.66393E-06 1.35256E-18-8.63827E-19
 -1       651 9.39412E-05-2.51509E-05-2.94802E-05 7.11349E-06 1.58769E-18-2.91286E-19
 -1       652 9.31549E-05-2.43984E-05-2.94655E-05 8.82467E-06 4.37703E-19 3.18683E-19
 -1       653 9.21658E-05-2.37847E-05-2.93047E-05 1.08193E-05 5.81562E-19 1.51167E-18
 -1       654 9.11480E-05-2.36954E-05-2.89072E-05 1.31281E-05-5.34376E-19 1.09526E-18
 -1       655 9.05706E-05-2.48451E-05-2.81633E-05 1.58305E-05 4.56522E-19 1.56489E-19
 -1       656 9.15482E-05-2.85484E-05-2.69757E-05 1.90327E-05 3.64514E-19-2.02847E-18
 -1       657 9.63634E-05-3.66677E-05-2.55156E-05 2.22421E-05 8.33698E-19-2.56707E-18
 -1       658 1.08193E-04-5.07631E-05-2.43789E-05 2.41976E-05-1.25367E-18-1.65264E-19
 -1       659 7.64666E-05-3.57264E-05-1.70035E-05 4.63916E-05 2.99109E-21-1.69674E-18
 -1       660 1.18126E-04-5.34388E-05-2.76945E-05-3.05425E-05-7.79389E-19-2.61290E-18
 -1       661 1.05416E-04-4.06008E-05-2.77036E-05-3.20580E-05-1.33096E-18-2.64037E-18
 -1       662 9.53602E-05-2.73719E-05-2.91372E-05 3.29671E-07 1.47604E-18-1.35138E-18
 -1       663 9.52678E-05-2.79483E-05-2.88510E-05-4.66921E-07 1.03704E-18-1.37771E-18
 -1       664 9.54179E-05-2.64367E-05-2.95615E-05 1.63810E-06 1.62298E-18-1.17710E-18
 -1       665 9.51395E-05-2.85276E-05-2.85480E-05-1.11023E-06 7.32010E-19-1.17303E-18
 -1       666 9.51132E-05-2.86581E-05-2.84808E-05-1.15680E-06 3.08522E-19-1.08671E-18
 -1       667 9.51051E-05-2.87286E-05-2.84472E-05-1.10873E-06 3.49449E-19-1.57680E-18
 -1       668 9.51091E-05-2.87588E-05-2.84360E-05-1.00851E-06 3.94860E-19-1.03635E-18
 -1       669 9.51206E-05-2.87622E-05-2.84394E-05-8.85489E-07 2.50804E-19-1.43443E-18
 -1       670 9.51359E-05-2.87478E-05-2.84522E-05-7.59672E-07 2.45134E-19-1.58540E-18
 -1       671 9.51531E-05-2.87216E-05-2.84707E-05-6.44570E-07 5.22330E-19-1.39746E-18
 -1       672 9.51709E-05-2.86873E-05-2.84931E-05-5.49377E-07 3.85899E-19-8.12563E-19
 -1       673 9.51891E-05-2.86469E-05-2.85181E-05-4.80620E-07 5.71106E-19-6.47855E-19
 -1       674 9.52079E-05-2.86015E-05-2.85456E-05-4.43382E-07 3.63434E-19-5.23772E-19
 -1       675 9.52279E-05-2.85510E-05-2.85758E-05-4.42172E-07-1.44859E-19 1.99398E-19
 -1       676 9.52505E-05-2.84954E-05-2.86093E-05-4.81490E-07 1.56526E-19-2.52618E-19
 -1       677 9.52776E-05-2.84344E-05-2.86470E-05-5.66085E-07-2.73686E-19-6.88516E-19
 -1       678 9.53119E-05-2.83689E-05-2.86898E-05-7.00895E-07-5.70403E-19-8.59265E-19
 -1       679 9.53574E-05-2.83011E-05-2.87383E-05-8.90588E-07-9.47073E-20-1.60466E-18
 -1       680 9.54199E-05-2.82362E-05-2.87928E-05-1.13863E-06 8.10198E-19-2.07047E-18
 -1       681 9.55082E-05-2.81836E-05-2.88532E-05-1.44574E-06 1.22550E-18-2.26224E-18
 -1       682 9.56351E-05-2.81589E-05-2.89181E-05-1.80751E-06 1.18181E-19-2.87595E-18
 -1       683 9.58193E-05-2.81863E-05-2.89853E-05-2.21118E-06-1.15194E-19-2.73985E-18
 -1       684 9.60879E-05-2.83013E-05-2.90512E-05-2.63122E-06-3.61968E-19-1.72841E-18
 -1       685 9.64786E-05-2.85524E-05-2.91111E-05-3.02389E-06-1.09977E-18-2.40172E-18
 -1       686 9.70415E-05-2.90005E-05-2.91605E-05-3.32075E-06-1.39890E-18-2.41436E-18
 -1       687 9.78374E-05-2.97140E-05-2.91961E-05-3.42214E-06-1.15190E-18-2.18503E-18
 -1       688 9.89300E-05-3.07530E-05-2.92195E-05-3.19222E-06-3.75642E-19-1.22703E-18
 -1       689 1.00364E-04-3.21369E-05-2.92419E-05-2.46055E-06-1.28553E-18-3.77047E-19
 -1       690 1.02126E-04-3.37897E-05-2.92890E-05-1.03881E-06-5.79870E-20 1.14605E-18
 -1       691 1.04072E-04-3.54620E-05-2.94067E-05 1.22990E-06-1.22929E-19 8.49482E-19
 -1       692 1.05856E-04-3.66554E-05-2.96596E-05 4.36122E-06 9.89367E-19 1.29361E-18
 -1       693 1.06900E-04-3.66336E-05-3.01157E-05 8.03962E-06 3.52550E-19 1.31340E-18
 -1       694 1.06548E-04-3.46693E-05-3.08061E-05 1.14117E-05-4.97809E-19 2.73892E-18
 -1       695 1.04495E-04-3.05972E-05-3.16716E-05 1.30735E-05 2.45565E-20 4.54019E-18
 -1       696 1.01370E-04-2.55044E-05-3.25218E-05 1.16307E-05-1.87664E-19 3.08539E-18
 -1       697 9.87216E-05-2.15787E-05-3.30663E-05 6.87414E-06 8.95382E-19 2.33289E-18
 -1       698 9.81254E-05-2.09799E-05-3.30661E-05 4.04539E-07 1.75306E-19 1.06825E-18
 -1       699 9.96774E-05-2.38335E-05-3.25056E-05-4.92598E-06-4.24802E-19 2.23469E-18
 -1       700 1.01798E-04-2.80610E-05-3.16139E-05-7.32968E-06 1.72292E-18 2.84588E-18
 -1       701 1.03265E-04-3.14806E-05-3.07707E-05-6.78601E-06 1.88076E-20 6.03722E-19
 -1       702 1.31887E-04-2.77204E-05-4.50984E-05 1.72525E-05 6.56609E-19 1.59528E-18
 -1       703 1.17961E-04-4.76238E-05-3.01291E-05 2.39365E-05-1.09699E-18-2.30318E-18
 -1       704 1.17329E-04-4.44109E-05-3.12658E-05 1.15719E-05-4.43483E-19 2.71370E-18
 -1       705 8.39975E-05-3.02356E-05-2.28012E-05 3.98168E-05 4.34846E-19-2.26076E-18
 -1       706 5.93984E-05-1.40169E-05-1.90024E-05 2.41456E-05 7.76570E-19-3.15784E-19
 -1       707 5.19754E-05-1.03188E-05-1.73987E-05-6.32859E-06 3.53218E-19-2.35263E-19
 -1       708 7.00512E-05-2.13996E-05-2.04201E-05-3.12111E-05-6.22728E-19 1.24029E-18
 -1       709 1.40396E-04-4.69112E-05-4.03621E-05 9.94109E-06 2.97878E-19 8.95181E-19
 -1       710 1.38786E-04-6.27666E-05-3.26355E-05 2.05790E-05-3.44097E-18-5.83937E-19
 -1       711 8.04978E-05-4.19787E-05-1.61166E-05-4.24042E-05-6.71750E-19-4.35812E-18
 -1       712 1.22661E-04-8.62844E-06-4.94107E-05-2.37699E-06 1.73785E-18 2.17171E-19
 -1       713 4.30331E-05-1.71262E-05-1.05578E-05 1.69334E-05 8.89213E-19-3.73007E-18
 -1       714 1.36732E-04-6.16759E-05-3.22951E-05-1.17133E-05-4.09024E-19-2.73989E-19
 -1       715 1.08019E-04-4.44558E-05-2.70829E-05 3.69443E-05-6.02922E-19-2.95511E-18
 -1       716 1.11901E-04-3.91790E-05-3.11367E-05 2.57098E-06 8.05376E-19 1.88241E-18
 -1       717 5.44655E-05-2.04563E-05-1.39663E-05-3.04826E-05 7.92373E-19 4.35851E-19
 -1       718 1.42422E-04-4.84301E-05-4.05375E-05-2.81257E-06-4.05398E-19-3.90138E-18
 -1       719 5.13310E-05-2.33736E-05-1.14370E-05-3.33397E-05-5.13898E-19-2.14892E-18
 -1       720 1.23394E-04-9.38203E-06-4.93965E-05 9.95784E-06 7.57353E-19 2.51131E-18
 -1       721 3.59669E-05-1.20318E-05-9.70347E-06-8.20187E-06 6.71887E-19-2.37815E-18
 -1       722 7.44039E-05-3.49161E-05-1.64988E-05 3.14436E-05 3.03211E-19-3.41262E-18
 -1       723 1.30896E-04-2.29106E-05-4.67908E-05-1.04685E-05 2.45163E-18-3.08028E-18
 -1       724 9.20727E-05-1.76736E-05-3.18914E-05 3.94612E-06 1.86775E-18-2.88878E-18
 -1       725 9.20315E-05-1.76170E-05-3.18976E-05-3.89460E-06-9.06420E-19-3.53633E-18
 -1       726 9.51903E-05-2.83069E-05-2.86643E-05-9.08521E-07 1.02868E-18-1.32266E-18
 -1       727 1.16423E-04-5.65620E-05-2.55406E-05 4.07531E-05-1.32407E-18-2.39366E-18
 -1       728 9.12797E-05-1.64342E-05-3.20820E-05-7.82946E-07 1.16135E-19-3.30231E-18
 -1       729 9.28474E-05-1.89055E-05-3.16960E-05-5.28386E-06-1.36139E-18-3.36854E-18
 -1       730 9.40853E-05-2.09030E-05-3.13707E-05-6.98611E-06-2.06750E-18-2.81307E-18
 -1       731 9.00897E-05-3.29171E-05-2.42806E-05-3.66210E-05-9.13631E-19 1.69642E-18
 -1       732 9.53218E-05-2.48928E-05-3.01778E-05 3.62035E-06 1.84852E-18-9.39855E-19
 -1       733 1.30317E-04-3.53385E-05-4.09146E-05-9.42816E-06-3.81496E-19-2.19135E-18
 -1       734 1.25525E-04-6.05531E-05-2.77543E-05-2.12085E-05-2.28158E-18-1.74720E-18
 -1       735 9.15233E-05-1.68145E-05-3.20235E-05-2.37826E-06-4.29633E-19-3.40087E-18
 -1       736 9.46278E-05-2.27149E-05-3.08222E-05 3.90310E-06 1.77470E-18-1.93769E-18
 -1       737 9.55702E-05-2.55087E-05-3.00267E-05-1.79873E-06-1.28767E-18-2.33626E-18
 -1       738 9.58655E-05-2.68844E-05-2.95633E-05-5.76926E-07-1.07284E-18-2.08315E-18
 -1       739 9.59580E-05-2.77738E-05-2.92219E-05 2.23451E-07-9.65233E-19-1.73133E-18
 -1       740 9.59466E-05-2.83359E-05-2.89760E-05 7.00409E-07-8.84310E-19-1.82389E-18
 -1       741 9.58861E-05-2.86781E-05-2.88035E-05 9.44422E-07-3.85062E-19-1.56674E-18
 -1       742 9.58057E-05-2.88719E-05-2.86860E-05 1.03025E-06-3.64910E-19-1.59605E-18
 -1       743 9.57211E-05-2.89662E-05-2.86093E-05 1.01529E-06-2.63412E-19-9.95783E-19
 -1       744 9.56402E-05-2.89945E-05-2.85625E-05 9.41801E-07-6.23813E-19-8.18492E-19
 -1       745 9.55669E-05-2.89800E-05-2.85373E-05 8.39946E-07-4.81849E-19-7.69696E-19
 -1       746 9.55025E-05-2.89381E-05-2.85276E-05 7.30841E-07-1.00826E-18-8.04755E-19
 -1       747 9.54468E-05-2.88789E-05-2.85291E-05 6.29112E-07-4.97823E-19-1.41276E-18
 -1       748 9.53989E-05-2.88080E-05-2.85390E-05 5.44996E-07-4.79954E-19-1.18996E-18
 -1       749 9.53567E-05-2.87280E-05-2.85551E-05 4.86017E-07-8.57991E-19-1.30268E-18
 -1       750 9.53177E-05-2.86388E-05-2.85767E-05 4.58288E-07-1.25149E-18-1.30548E-18
 -1       751 9.52788E-05-2.85382E-05-2.86031E-05 4.67517E-07-4.89811E-19-2.26956E-18
 -1       752 9.52358E-05-2.84220E-05-2.86345E-05 5.19774E-07 2.78680E-19-2.20416E-18
 -1       753 9.51835E-05-2.82841E-05-2.86712E-05 6.22057E-07-4.29363E-20-1.56295E-18
 -1       754 9.51147E-05-2.81166E-05-2.87135E-05 7.82669E-07 2.31493E-19-1.16797E-18
 -1       755 9.50197E-05-2.79093E-05-2.87616E-05 1.01141E-06 2.00748E-20-1.44586E-18
 -1       756 9.48849E-05-2.76493E-05-2.88152E-05 1.31955E-06-5.31858E-19-1.64657E-18
 -1       757 9.46913E-05-2.73207E-05-2.88730E-05 1.71953E-06-8.10843E-19-1.33488E-18
 -1       758 9.44123E-05-2.69043E-05-2.89319E-05 2.22432E-06-2.96632E-20-1.01268E-18
 -1       759 9.40114E-05-2.63776E-05-2.89858E-05 2.84646E-06 9.86447E-19-1.46774E-18
 -1       760 9.34388E-05-2.57162E-05-2.90238E-05 3.59681E-06 1.72671E-18-1.35221E-18
 -1       761 9.26300E-05-2.48979E-05-2.90278E-05 4.48359E-06 9.24206E-19-6.79252E-19
 -1       762 9.15051E-05-2.39115E-05-2.89685E-05 5.51313E-06 8.88939E-19-1.32368E-19
 -1       763 8.99737E-05-2.27741E-05-2.87996E-05 6.69566E-06 6.23404E-19-1.38098E-18
 -1       764 8.79495E-05-2.15626E-05-2.84515E-05 8.06324E-06 9.04440E-19-1.14085E-18
 -1       765 8.53806E-05-2.04661E-05-2.78209E-05 9.71785E-06 3.14786E-19-1.82888E-18
 -1       766 8.23208E-05-1.98735E-05-2.67644E-05 1.18566E-05-8.60907E-19-1.99541E-18
 -1       767 7.90725E-05-2.04858E-05-2.50889E-05 1.51017E-05-8.61218E-19-3.22491E-18
 -1       768 7.64624E-05-2.36840E-05-2.24952E-05 2.02263E-05 2.24139E-19-2.96542E-18
 -1       769 1.04574E-04-4.76947E-05-2.41428E-05 4.32679E-05-1.13232E-18-3.55198E-18
 -1       770 1.25364E-04-5.49126E-05-3.00865E-05 2.58856E-05-1.61198E-18-2.61391E-18
 -1       771 9.58591E-05-2.73594E-05-2.93571E-05 1.67159E-07 1.28572E-18-1.17329E-18
 -1       772 9.57018E-05-2.62581E-05-2.97609E-05 1.21345E-06 1.45319E-18-1.43455E-18
 -1       773 9.56876E-05-2.88928E-05-2.86263E-05-1.05527E-06 4.60433E-19-5.49823E-19
 -1       774 9.57647E-05-2.87529E-05-2.87194E-05-1.02186E-06 4.92914E-19-5.96916E-19
 -1       775 9.55444E-05-2.89620E-05-2.85354E-05-9.15462E-07 5.20260E-19-1.16066E-18
 -1       776 9.54842E-05-2.89366E-05-2.85204E-05-8.05381E-07 4.25443E-19-1.75132E-18
 -1       777 9.54323E-05-2.88898E-05-2.85183E-05-6.95304E-07-1.66897E-19-1.46543E-18
 -1       778 9.53878E-05-2.88291E-05-2.85252E-05-5.97690E-07-7.29915E-20-5.23530E-19
 -1       779 9.53493E-05-2.87590E-05-2.85387E-05-5.21286E-07 2.08672E-19-1.10448E-19
 -1       780 9.53152E-05-2.86814E-05-2.85574E-05-4.72602E-07 3.27781E-19-8.63580E-20
 -1       781 9.52834E-05-2.85962E-05-2.85802E-05-4.57010E-07-8.43576E-20-3.16208E-19
 -1       782 9.52522E-05-2.85027E-05-2.86069E-05-4.79529E-07-9.65715E-20-5.04993E-19
 -1       783 9.52197E-05-2.83994E-05-2.86373E-05-5.45323E-07 2.66650E-19-2.72730E-19
 -1       784 9.51847E-05-2.82853E-05-2.86711E-05-6.59929E-07-1.24616E-19-7.48870E-19
 -1       785 9.51468E-05-2.81607E-05-2.87083E-05-8.29174E-07 3.31120E-19-8.90896E-19
 -1       786 9.51075E-05-2.80289E-05-2.87480E-05-1.05875E-06 8.03396E-19-1.66199E-18
 -1       787 9.50716E-05-2.78973E-05-2.87889E-05-1.35333E-06 5.79609E-19-1.79058E-18
 -1       788 9.50487E-05-2.77806E-05-2.88291E-05-1.71520E-06 1.04641E-18-6.17709E-19
 -1       789 9.50561E-05-2.77033E-05-2.88654E-05-2.14208E-06-1.36812E-19-1.07194E-18
 -1       790 9.51226E-05-2.77038E-05-2.88937E-05-2.62414E-06-6.67837E-19-7.66390E-19
 -1       791 9.52931E-05-2.78374E-05-2.89095E-05-3.13979E-06-5.86015E-19-9.98155E-19
 -1       792 9.56335E-05-2.81801E-05-2.89086E-05-3.64993E-06-8.19056E-19-9.16977E-19
 -1       793 9.62350E-05-2.88271E-05-2.88891E-05-4.08999E-06-2.01558E-18-1.47532E-18
 -1       794 9.72142E-05-2.98854E-05-2.88553E-05-4.35923E-06-1.80557E-18-8.53476E-19
 -1       795 9.87025E-05-3.14500E-05-2.88228E-05-4.30691E-06-1.21091E-18-1.12582E-18
 -1       796 1.00814E-04-3.35541E-05-2.88264E-05-3.72024E-06-1.70630E-18-1.02070E-18
 -1       797 1.03578E-04-3.60818E-05-2.89281E-05-2.32245E-06-6.12694E-19-6.01958E-19
 -1       798 1.06815E-04-3.86270E-05-2.92243E-05 1.85863E-07 8.28488E-19-5.30011E-19
 -1       799 1.09989E-04-4.03567E-05-2.98428E-05 3.96679E-06-5.43991E-19-5.41477E-19
 -1       800 1.12077E-04-3.99710E-05-3.09072E-05 8.68410E-06-9.31307E-19 1.78374E-18
 -1       801 1.11921E-04-3.62547E-05-3.24407E-05 1.30676E-05-1.53796E-18 1.70924E-18
 -1       802 1.09095E-04-2.92575E-05-3.42326E-05 1.47340E-05 5.65723E-19 1.17333E-18
 -1       803 1.04773E-04-2.15390E-05-3.57132E-05 1.17213E-05 2.86277E-19 2.50910E-19
 -1       804 1.03061E-04-1.80977E-05-3.64371E-05 4.12683E-06 6.39966E-19 1.16932E-18
 -1       805 1.03697E-04-1.98948E-05-3.59814E-05-3.82502E-06 1.50716E-19 8.60167E-19
 -1       806 1.07576E-04-2.69137E-05-3.45797E-05-7.76481E-06-8.69400E-20 1.29881E-19
 -1       807 7.33147E-05-3.09951E-05-1.78588E-05-3.34979E-05 8.15838E-19-2.67862E-18
 -1       808 1.15753E-04-3.92660E-05-3.28041E-05-3.10123E-06 7.92926E-19 1.68514E-18
 -1       809 1.12244E-04-1.09585E-05-4.36882E-05 4.32731E-06 3.44689E-19 1.42079E-18
 -1       810 1.33590E-04-5.37952E-05-3.43532E-05 2.60177E-06-1.12841E-18 7.26834E-19
 -1       811 5.23996E-05-1.57934E-05-1.53948E-05-1.93770E-05 1.64708E-20-2.09482E-18
 -1       812 1.34388E-04-5.28395E-05-3.50580E-05 5.30569E-06-2.75653E-18-1.80247E-18
 -1       813 9.56127E-05-2.89535E-05-2.85683E-05-1.00746E-06 3.31651E-19-8.24366E-19
 -1       814 9.49246E-05-2.34205E-05-3.06442E-05-3.52147E-06-1.55467E-18-2.72958E-18
 -1       815 1.03412E-04-5.09588E-05-2.23098E-05-3.36537E-05-1.65465E-18-4.46103E-18
 -1       816 1.18205E-04-1.88280E-05-4.28998E-05 1.53622E-05 6.26844E-19 1.81870E-18
 -1       817 4.81399E-05-1.23473E-05-1.50180E-05 4.63989E-06 1.40529E-19-2.53565E-18
 -1       818 9.31959E-05-1.97727E-05-3.14681E-05 1.23233E-06 8.03022E-19-2.70953E-18
 -1       819 1.27605E-04-3.81156E-05-3.85463E-05 1.58321E-05 2.94073E-19 1.29736E-18
 -1       820 1.16543E-04-1.68984E-05-4.30141E-05-7.16179E-06 1.14023E-18-1.95129E-19
 -1       821 9.35107E-05-2.03527E-05-3.13541E-05 2.35708E-06 1.31107E-18-2.47138E-18
 -1       822 9.39736E-05-2.12787E-05-3.11575E-05-3.27095E-06-1.12730E-18-2.96172E-18
 -1       823 9.58788E-05-2.80586E-05-2.90658E-05-4.89163E-07 8.59725E-19-1.13118E-18
 -1       824 1.28288E-04-4.40175E-05-3.62000E-05-4.15437E-06-4.07415E-19-1.76731E-18
 -1       825 9.58347E-05-2.84941E-05-2.88603E-05-8.55990E-07 7.84815E-19-6.82277E-19
 -1       826 1.12522E-04-3.34165E-05-3.39040E-05-7.37688E-06 7.77940E-19 7.14883E-19
 -1       827 1.28199E-04-5.20021E-05-3.27314E-05 1.08704E-05-2.02919E-18 5.84464E-19
 -1       828 1.28727E-04-5.65893E-05-3.09063E-05-6.21307E-06-8.31284E-19 1.84971E-19
 -1       829 1.17831E-04-2.62737E-05-3.93538E-05-9.73745E-06 5.28800E-20-4.63132E-19
 -1       830 9.52775E-05-2.45559E-05-3.03074E-05 2.75075E-06 1.78038E-18-1.58440E-18
 -1       831 9.34813E-05-2.03128E-05-3.13593E-05-2.31756E-06-6.96129E-19-3.21485E-18
 -1       832 5.97848E-05-1.91748E-05-1.70593E-05 1.85458E-05 7.09587E-19-3.38108E-18
 -1       833 9.30823E-05-1.95723E-05-3.15060E-05 2.31212E-08 3.49871E-19-2.78383E-18
 -1       834 9.40046E-05-2.13370E-05-3.11462E-05 3.30375E-06 1.71092E-18-2.61707E-18
 -1       835 6.21758E-05-1.46843E-05-2.02485E-05 9.50167E-06-9.22902E-20-2.61386E-18
 -1       836 9.61921E-05-2.69930E-05-2.96569E-05-2.86529E-07-6.24274E-19-1.97930E-18
 -1       837 9.63593E-05-2.79240E-05-2.93295E-05 2.94674E-07-8.10505E-19-1.90507E-18
 -1       838 9.63798E-05-2.85171E-05-2.90840E-05 6.38805E-07-5.61692E-19-1.52093E-18
 -1       839 9.63161E-05-2.88729E-05-2.89043E-05 8.09672E-07-4.19895E-19-1.42171E-18
 -1       840 9.62085E-05-2.90645E-05-2.87760E-05 8.62020E-07-2.89565E-20-1.54970E-18
 -1       841 9.60823E-05-2.91449E-05-2.86875E-05 8.39196E-07-2.95529E-19-1.59263E-18
 -1       842 9.59531E-05-2.91516E-05-2.86292E-05 7.73727E-07-8.50930E-19-1.56213E-18
 -1       843 9.58295E-05-2.91107E-05-2.85938E-05 6.89174E-07-7.49949E-19-1.87148E-18
 -1       844 9.57158E-05-2.90395E-05-2.85755E-05 6.02231E-07-7.12977E-19-1.60526E-18
 -1       845 9.56127E-05-2.89489E-05-2.85702E-05 5.24639E-07-3.86463E-19-1.64856E-18
 -1       846 9.55188E-05-2.88445E-05-2.85747E-05 4.64819E-07-5.19739E-19-1.20912E-18
 -1       847 9.54308E-05-2.87279E-05-2.85869E-05 4.29173E-07-1.02116E-18-9.50964E-19
 -1       848 9.53438E-05-2.85978E-05-2.86054E-05 4.23070E-07-1.17434E-18-6.44628E-19
 -1       849 9.52514E-05-2.84499E-05-2.86292E-05 4.51588E-07 4.71578E-21-6.93501E-19
 -1       850 9.51456E-05-2.82777E-05-2.86577E-05 5.20002E-07 2.65181E-19-8.77795E-19
 -1       851 9.50159E-05-2.80724E-05-2.86901E-05 6.34028E-07 4.16910E-19-9.84463E-19
 -1       852 9.48491E-05-2.78230E-05-2.87255E-05 7.99815E-07 2.36787E-19-7.65402E-19
 -1       853 9.46282E-05-2.75158E-05-2.87625E-05 1.02363E-06-2.55740E-19-7.31206E-19
 -1       854 9.43305E-05-2.71345E-05-2.87983E-05 1.31119E-06-4.72445E-19-1.27620E-18
 -1       855 9.39264E-05-2.66600E-05-2.88284E-05 1.66653E-06 9.14858E-20-2.64084E-19
 -1       856 9.33765E-05-2.60703E-05-2.88455E-05 2.09042E-06 3.90887E-19-4.35403E-19
 -1       857 9.26292E-05-2.53413E-05-2.88377E-05 2.57846E-06 1.13987E-18-8.25343E-19
 -1       858 9.16170E-05-2.44490E-05-2.87863E-05 3.11917E-06 1.52994E-18-1.94438E-18
 -1       859 9.02537E-05-2.33735E-05-2.86630E-05 3.69343E-06 1.19134E-18-1.38037E-18
 -1       860 8.84300E-05-2.21066E-05-2.84245E-05 4.27753E-06 6.98214E-19-1.02811E-18
 -1       861 8.60100E-05-2.06636E-05-2.80060E-05 4.85488E-06 4.72856E-20-1.71232E-18
 -1       862 8.28203E-05-1.90994E-05-2.73094E-05 5.44458E-06-6.48352E-19-3.83940E-18
 -1       863 7.85853E-05-1.74856E-05-2.61882E-05 6.25773E-06 9.53704E-19-4.25246E-18
 -1       864 7.34553E-05-1.63468E-05-2.44371E-05 7.37634E-06-1.41608E-18-2.83235E-18
 -1       865 9.49980E-05-2.35259E-05-3.06306E-05-2.38005E-06-1.14803E-18-2.72929E-18
 -1       866 9.57386E-05-2.90612E-05-2.85760E-05-6.70594E-07 2.19089E-19-3.25351E-19
 -1       867 9.58515E-05-2.91147E-05-2.86015E-05-7.61699E-07 9.32690E-19-2.49877E-19
 -1       868 9.55427E-05-2.88906E-05-2.85652E-05-5.08516E-07-2.17343E-19-1.35770E-18
 -1       869 9.54574E-05-2.87860E-05-2.85734E-05-4.55325E-07-1.98178E-19-9.69407E-19
 -1       870 9.53766E-05-2.86711E-05-2.85880E-05-4.29089E-07 1.01138E-19-1.46216E-19
 -1       871 9.52962E-05-2.85450E-05-2.86077E-05-4.35007E-07-1.79187E-19-4.22257E-19
 -1       872 9.52118E-05-2.84055E-05-2.86313E-05-4.78258E-07 4.54461E-20-4.08847E-19
 -1       873 9.51185E-05-2.82501E-05-2.86579E-05-5.64459E-07-1.18953E-19-7.03076E-20
 -1       874 9.50122E-05-2.80769E-05-2.86866E-05-6.99919E-07 2.53436E-19-5.29960E-19
 -1       875 9.48898E-05-2.78864E-05-2.87158E-05-8.91680E-07 5.80902E-19-4.55558E-19
 -1       876 9.47509E-05-2.76827E-05-2.87435E-05-1.14733E-06 8.65921E-19-4.59593E-20
 -1       877 9.45993E-05-2.74767E-05-2.87668E-05-1.47451E-06 4.87834E-19-2.91961E-20
 -1       878 9.44466E-05-2.72887E-05-2.87819E-05-1.88009E-06 8.29617E-22 1.03421E-18
 -1       879 9.43154E-05-2.71531E-05-2.87838E-05-2.36878E-06-1.97448E-19 1.69157E-19
 -1       880 9.42456E-05-2.71228E-05-2.87669E-05-2.94092E-06-4.36630E-19-5.29239E-19
 -1       881 9.43006E-05-2.72744E-05-2.87255E-05-3.58895E-06-5.84866E-19-2.60501E-19
 -1       882 9.45760E-05-2.77124E-05-2.86558E-05-4.29156E-06-1.19782E-18 2.75827E-19
 -1       883 9.52074E-05-2.85698E-05-2.85589E-05-5.00356E-06-2.21901E-18-2.85696E-19
 -1       884 9.63756E-05-3.00008E-05-2.84463E-05-5.63805E-06-1.35760E-18-4.85426E-21
 -1       885 9.82992E-05-3.21524E-05-2.83486E-05-6.03466E-06-1.80715E-18 4.28457E-19
 -1       886 1.01193E-04-3.50948E-05-2.83288E-05-5.92505E-06-3.26862E-19-8.51033E-19
 -1       887 1.05192E-04-3.87084E-05-2.84934E-05-4.88171E-06-4.25973E-19-1.02839E-18
 -1       888 1.10139E-04-4.24194E-05-2.90171E-05-2.30896E-06-7.89095E-19 7.88378E-19
 -1       889 1.15196E-04-4.48564E-05-3.01498E-05 2.35803E-06-1.90514E-18 8.52475E-19
 -1       890 1.18620E-04-4.37918E-05-3.21070E-05 8.65032E-06-1.15789E-18 1.70289E-18
 -1       891 1.14196E-04-2.56035E-05-3.80764E-05 1.57759E-05 8.88273E-19 1.46122E-18
 -1       892 5.84966E-05-1.34395E-05-1.91621E-05-7.57069E-06-1.98724E-19-1.27791E-18
 -1       893 9.56357E-05-2.89838E-05-2.85651E-05-5.82771E-07-1.94358E-19-8.15750E-19
 -1       894 9.49063E-05-2.33203E-05-3.06756E-05 2.51351E-06 1.51333E-18-2.41207E-18
 -1       895 9.62091E-05-2.89521E-05-2.88244E-05-8.75168E-07 5.59345E-19-6.29996E-19
 -1       896 1.24469E-04-4.55644E-05-3.38722E-05 9.57660E-06-3.77711E-19 1.17614E-18
 -1       897 9.59774E-05-2.63193E-05-2.98543E-05 7.65697E-07 9.75514E-19-1.84327E-18
 -1       898 9.31789E-05-1.97501E-05-3.14711E-05-1.18235E-06-1.31071E-19-2.96681E-18
 -1       899 9.57822E-05-2.55835E-05-3.00851E-05-1.16522E-06-7.68107E-19-2.34917E-18
 -1       900 6.80584E-05-2.24073E-05-1.94645E-05-2.33877E-05-1.77539E-19-2.31317E-18
 -1       901 1.15685E-04-5.33741E-05-2.66719E-05-1.97368E-05-1.94741E-18-1.69472E-18
 -1       902 9.29113E-05-4.03188E-05-2.24599E-05-2.90113E-05-1.38981E-18-2.39643E-18
 -1       903 9.55797E-05-2.50490E-05-3.02292E-05 1.55746E-06 1.29677E-18-2.03694E-18
 -1       904 9.62440E-05-2.74715E-05-2.94740E-05-8.44634E-09 8.49518E-19-1.51684E-18
 -1       905 8.33682E-05-3.07563E-05-2.25254E-05-2.42241E-05-1.19672E-18-1.41943E-18
 -1       906 9.46820E-05-2.26032E-05-3.08908E-05 1.22597E-06 9.67678E-19-2.30782E-18
 -1       907 9.62951E-05-2.86833E-05-2.89765E-05-7.60139E-07 2.98852E-19-6.76904E-19
 -1       908 9.59723E-05-2.91301E-05-2.86467E-05-8.41479E-07 6.84272E-19-2.02706E-19
 -1       909 1.18660E-04-3.76034E-05-3.47706E-05 1.44841E-05-5.20092E-19 1.07970E-18
 -1       910 9.45335E-05-2.22657E-05-3.09715E-05 4.32388E-07 6.69825E-19-2.54819E-18
 -1       911 9.60952E-05-2.90863E-05-2.87181E-05-8.89038E-07 4.62368E-19-7.56988E-19
 -1       912 9.46429E-05-2.26101E-05-3.08708E-05-1.80707E-06-7.08422E-19-2.82363E-18
 -1       913 7.00894E-05-1.51816E-05-2.35242E-05-2.84393E-06-7.55964E-19-1.79981E-18
 -1       914 9.66633E-05-2.81472E-05-2.93641E-05 3.13830E-07-3.80161E-19-1.13004E-18
 -1       915 9.66818E-05-2.87191E-05-2.91269E-05 5.29006E-07-1.27549E-19-9.21740E-19
 -1       916 9.66016E-05-2.90532E-05-2.89493E-05 6.28909E-07-4.17335E-19-9.41112E-19
 -1       917 9.64671E-05-2.92211E-05-2.88197E-05 6.50583E-07-2.32171E-19-1.27316E-18
 -1       918 9.63082E-05-2.92760E-05-2.87281E-05 6.23632E-07-3.38363E-19-1.20292E-18
 -1       919 9.61438E-05-2.92561E-05-2.86661E-05 5.70401E-07-7.49564E-19-1.06764E-18
 -1       920 9.59845E-05-2.91881E-05-2.86270E-05 5.07126E-07-4.90905E-19-5.83543E-19
 -1       921 9.58354E-05-2.90892E-05-2.86055E-05 4.45461E-07-7.26391E-19-6.17845E-19
 -1       922 9.56971E-05-2.89697E-05-2.85974E-05 3.93675E-07-3.88763E-19-9.14909E-19
 -1       923 9.55670E-05-2.88344E-05-2.85997E-05 3.57817E-07-4.21049E-19-8.93995E-19
 -1       924 9.54402E-05-2.86835E-05-2.86100E-05 3.42565E-07-7.92294E-19-6.12031E-19
 -1       925 9.53094E-05-2.85139E-05-2.86266E-05 3.51865E-07-1.99418E-19-1.68377E-19
 -1       926 9.51651E-05-2.83196E-05-2.86481E-05 3.89318E-07-4.92715E-20 1.75345E-19
 -1       927 9.49957E-05-2.80922E-05-2.86729E-05 4.58311E-07 1.96497E-19-3.19294E-20
 -1       928 9.47865E-05-2.78208E-05-2.86996E-05 5.61871E-07 3.02918E-19-4.41700E-19
 -1       929 9.45194E-05-2.74925E-05-2.87258E-05 7.02180E-07-2.11870E-20-5.26559E-19
 -1       930 9.41719E-05-2.70925E-05-2.87483E-05 8.79667E-07-2.71926E-19 8.47360E-19
 -1       931 9.37157E-05-2.66040E-05-2.87621E-05 1.09159E-06 6.96951E-20 9.91315E-19
 -1       932 9.31147E-05-2.60089E-05-2.87597E-05 1.33005E-06 2.70913E-19 3.75382E-19
 -1       933 9.23236E-05-2.52882E-05-2.87295E-05 1.57934E-06 3.67465E-19 6.35859E-19
 -1       934 9.12850E-05-2.44240E-05-2.86548E-05 1.81294E-06 8.43018E-19 4.11035E-19
 -1       935 8.99256E-05-2.34014E-05-2.85105E-05 1.99057E-06 9.93738E-19-4.05759E-19
 -1       936 8.81517E-05-2.22122E-05-2.82600E-05 2.05650E-06 1.02403E-18-7.64976E-19
 -1       937 8.58400E-05-2.08588E-05-2.78495E-05 1.94097E-06-3.28190E-19-9.92290E-19
 -1       938 8.28197E-05-1.93574E-05-2.71987E-05 1.57237E-06-6.49494E-19-1.10028E-18
 -1       939 7.88501E-05-1.77263E-05-2.62027E-05 9.06791E-07-2.69386E-19-2.03509E-18
 -1       940 9.47733E-05-2.29273E-05-3.07907E-05 2.14952E-06 1.32110E-18-2.32241E-18
 -1       941 9.64825E-05-2.72441E-05-2.96737E-05-5.94599E-08-4.98991E-19-1.64401E-18
 -1       942 9.54981E-05-2.87682E-05-2.85986E-05-3.60755E-07-3.99860E-19-4.82748E-19
 -1       943 9.56213E-05-2.89049E-05-2.85928E-05-3.91041E-07-4.15279E-19-1.02604E-19
 -1       944 9.52509E-05-2.84511E-05-2.86285E-05-3.76565E-07 1.08789E-19-3.73805E-19
 -1       945 9.51133E-05-2.82649E-05-2.86493E-05-4.32457E-07-2.79292E-19-6.52730E-20
 -1       946 9.49564E-05-2.80553E-05-2.86719E-05-5.28005E-07 6.34362E-19 1.36530E-19
 -1       947 9.47731E-05-2.78197E-05-2.86943E-05-6.70430E-07 3.84438E-19-1.92068E-19
 -1       948 9.45576E-05-2.75584E-05-2.87140E-05-8.68535E-07 3.76308E-19-6.70324E-20
 -1       949 9.43071E-05-2.72765E-05-2.87274E-05-1.13300E-06 1.83052E-19-6.24254E-20
 -1       950 9.40243E-05-2.69874E-05-2.87301E-05-1.47659E-06 5.36693E-20 1.27721E-19
 -1       951 9.37210E-05-2.67164E-05-2.87163E-05-1.91432E-06 5.85288E-20 4.46390E-19
 -1       952 9.34233E-05-2.65061E-05-2.86788E-05-2.46330E-06-1.25918E-19 4.35445E-20
 -1       953 9.31783E-05-2.64217E-05-2.86100E-05-3.14196E-06-9.93333E-19 1.81599E-19
 -1       954 9.30635E-05-2.65583E-05-2.85022E-05-3.96787E-06-1.16109E-18 1.40868E-18
 -1       955 9.31982E-05-2.70468E-05-2.83505E-05-4.95242E-06-1.25062E-18 1.60343E-18
 -1       956 9.37579E-05-2.80589E-05-2.81566E-05-6.08962E-06-1.24183E-18 2.74189E-19
 -1       957 9.49917E-05-2.98078E-05-2.79357E-05-7.33282E-06-1.50322E-18-1.14765E-18
 -1       958 9.72487E-05-3.25352E-05-2.77320E-05-8.52568E-06-9.97681E-19-1.65721E-18
 -1       959 1.00837E-04-3.63484E-05-2.76403E-05-9.34909E-06-8.96513E-19 2.71851E-19
 -1       960 1.06233E-04-4.13388E-05-2.78074E-05-9.19316E-06-1.02011E-18 2.11214E-19
 -1       961 1.13301E-04-4.66972E-05-2.85662E-05-7.05374E-06-1.85723E-18 1.23700E-18
 -1       962 1.20222E-04-5.19283E-05-2.92593E-05-7.23661E-06-1.75195E-18 1.25560E-18
 -1       963 9.60471E-05-2.58822E-05-3.00706E-05-6.31673E-07-4.29638E-19-1.90074E-18
 -1       964 1.24350E-04-5.07726E-05-3.15275E-05 1.43891E-06-9.29269E-19 1.74378E-18
 -1       965 7.34709E-05-1.94807E-05-2.31049E-05-1.32084E-05-8.87901E-19-1.00201E-18
 -1       966 9.60421E-05-2.92146E-05-2.86404E-05-5.71075E-07 6.17288E-19-2.18360E-19
 -1       967 9.43934E-05-2.20299E-05-3.10108E-05-1.04883E-06-1.19034E-19-2.50333E-18
 -1       968 9.54790E-05-2.44466E-05-3.04425E-05-1.17122E-06-5.53440E-19-2.35291E-18
 -1       969 9.63229E-05-2.82184E-05-2.91877E-05-4.92265E-07 4.37943E-19-1.20389E-18
 -1       970 9.44179E-05-2.20352E-05-3.10205E-05-2.93072E-07 2.62807E-19-2.53067E-18
 -1       971 1.04337E-04-4.45757E-05-2.56288E-05-2.02547E-05-1.84587E-18-1.87613E-18
 -1       972 9.53768E-05-2.86177E-05-2.86110E-05-3.54364E-07-1.69855E-20-3.85046E-19
 -1       973 9.66116E-05-2.88755E-05-2.90298E-05-6.17637E-07 6.06878E-19-1.34424E-18
 -1       974 9.57514E-05-2.90278E-05-2.85958E-05-4.40356E-07 1.91905E-19-1.02033E-19
 -1       975 9.65045E-05-2.91260E-05-2.88765E-05-6.81824E-07 3.39227E-19-1.18983E-18
 -1       976 9.58913E-05-2.91336E-05-2.86104E-05-5.02905E-07-7.99963E-21-3.47570E-19
 -1       977 9.56173E-05-2.44966E-05-3.04812E-05 5.03747E-07 4.83729E-19-2.11559E-18
 -1       978 9.62694E-05-2.65738E-05-2.98696E-05 3.89108E-07 6.81487E-19-1.79466E-18
 -1       979 9.54268E-05-3.69639E-05-2.50383E-05-1.98918E-05-1.74906E-18-1.71135E-18
 -1       980 9.62008E-05-2.92567E-05-2.86903E-05-6.34490E-07 7.80431E-19-1.03245E-18
 -1       981 9.56929E-05-2.50289E-05-3.02835E-05 1.12717E-06 1.03115E-18-2.09294E-18
 -1       982 9.68665E-05-2.89236E-05-2.91184E-05 3.65058E-07-4.65814E-19-1.52448E-18
 -1       983 9.67588E-05-2.92078E-05-2.89504E-05 4.08691E-07-3.78511E-19-1.24109E-18
 -1       984 9.65978E-05-2.93348E-05-2.88270E-05 4.10295E-07-3.49708E-19-1.37531E-18
 -1       985 9.64138E-05-2.93557E-05-2.87392E-05 3.86754E-07-2.94960E-19-1.50681E-18
 -1       986 9.62256E-05-2.93068E-05-2.86795E-05 3.50700E-07-2.41638E-19-9.17259E-19
 -1       987 9.60437E-05-2.92129E-05-2.86418E-05 3.11425E-07-5.20251E-19-9.52257E-19
 -1       988 9.58718E-05-2.90895E-05-2.86210E-05 2.75543E-07-5.56856E-19-8.29522E-19
 -1       989 9.57098E-05-2.89453E-05-2.86133E-05 2.47805E-07-4.87841E-19-1.04360E-18
 -1       990 9.55536E-05-2.87836E-05-2.86157E-05 2.31635E-07-6.06225E-19-8.10853E-19
 -1       991 9.53962E-05-2.86029E-05-2.86257E-05 2.29642E-07-1.07859E-19-2.57598E-19
 -1       992 9.52283E-05-2.83986E-05-2.86413E-05 2.43831E-07-7.50654E-20-3.56746E-19
 -1       993 9.50380E-05-2.81633E-05-2.86606E-05 2.75619E-07 1.51728E-19-2.16505E-19
 -1       994 9.48110E-05-2.78873E-05-2.86816E-05 3.25606E-07 4.10598E-20 2.72881E-19
 -1       995 9.45299E-05-2.75594E-05-2.87017E-05 3.93022E-07-3.37423E-19-1.05708E-19
 -1       996 9.41741E-05-2.71669E-05-2.87174E-05 4.74765E-07 2.65265E-19-4.74409E-19
 -1       997 9.37190E-05-2.66965E-05-2.87240E-05 5.63928E-07 1.93598E-19-1.93546E-19
 -1       998 9.31351E-05-2.61353E-05-2.87143E-05 6.47689E-07 3.08411E-19 1.51578E-19
 -1       999 9.23874E-05-2.54718E-05-2.86782E-05 7.04467E-07-2.52243E-19-2.31609E-19
 -1      1000 9.14342E-05-2.46979E-05-2.86014E-05 7.00301E-07 2.31722E-19-8.98065E-19
 -1      1001 9.02256E-05-2.38113E-05-2.84634E-05 5.84535E-07 8.53159E-19-3.61093E-19
 -1      1002 8.87012E-05-2.28188E-05-2.82355E-05 2.85019E-07 1.09479E-18-3.63530E-19
 -1      1003 8.67854E-05-2.17399E-05-2.78769E-05-2.96808E-07-5.38736E-19-1.29035E-18
 -1      1004 8.43819E-05-2.06124E-05-2.73297E-05-1.29383E-06-2.84483E-19-1.01693E-18
 -1      1005 8.13142E-05-1.94637E-05-2.65077E-05-2.86603E-06-7.70307E-19-1.00833E-18
 -1      1006 9.47512E-05-2.78290E-05-2.86810E-05-4.26096E-07 3.13978E-20 6.11670E-19
 -1      1007 9.56329E-05-2.88756E-05-2.86103E-05-2.55996E-07 1.26119E-19-6.75965E-19
 -1      1008 9.49711E-05-2.80922E-05-2.86624E-05-3.36409E-07-1.89222E-19 8.79216E-20
 -1      1009 9.51592E-05-2.83235E-05-2.86439E-05-2.80145E-07-1.22435E-19 2.22433E-19
 -1      1010 9.44890E-05-2.75299E-05-2.86968E-05-5.57474E-07 5.62102E-19 1.26229E-18
 -1      1011 9.41754E-05-2.71946E-05-2.87061E-05-7.41610E-07 7.09955E-19 1.00088E-18
 -1      1012 9.38041E-05-2.68281E-05-2.87040E-05-9.93336E-07 3.70722E-19 8.15103E-19
 -1      1013 9.33743E-05-2.64445E-05-2.86843E-05-1.33245E-06-1.19072E-19-7.68792E-19
 -1      1014 9.28948E-05-2.60714E-05-2.86386E-05-1.78515E-06 2.13678E-19-1.21434E-18
 -1      1015 9.23888E-05-2.57550E-05-2.85574E-05-2.38559E-06-1.12187E-18 2.08621E-19
 -1      1016 9.19022E-05-2.55675E-05-2.84292E-05-3.17720E-06-1.84631E-18 8.60188E-19
 -1      1017 9.15142E-05-2.56152E-05-2.82424E-05-4.21286E-06-9.34123E-19 9.57932E-19
 -1      1018 9.13523E-05-2.60479E-05-2.79874E-05-5.55160E-06-4.97520E-19 4.60037E-19
 -1      1019 9.16115E-05-2.70691E-05-2.76609E-05-7.24886E-06-7.67856E-21-6.78666E-19
 -1      1020 9.25740E-05-2.89425E-05-2.72711E-05-9.34392E-06-9.85932E-19-1.24807E-18
 -1      1021 9.48267E-05-3.21659E-05-2.68719E-05-1.18834E-05-1.24130E-18-2.41333E-18
 -1      1022 9.87897E-05-3.67939E-05-2.65520E-05-1.43598E-05-1.58912E-18-2.36988E-18
 -1      1023 1.08238E-04-4.48145E-05-2.71335E-05-1.36800E-05-2.10585E-18-4.29205E-19
 -1      1024 7.74184E-05-1.88094E-05-2.51049E-05-6.82353E-06-4.65385E-19-7.47000E-19
 -1      1025 9.54850E-05-2.41820E-05-3.05582E-05 8.51613E-08 4.32049E-19-2.27608E-18
 -1      1026 9.68769E-05-2.84145E-05-2.93411E-05 2.57989E-07-2.72769E-19-1.47383E-18
 -1      1027 9.63389E-05-2.63505E-05-2.99948E-05-2.43632E-07-8.71946E-20-1.73980E-18
 -1      1028 9.61287E-05-2.92613E-05-2.86574E-05-3.63145E-07 1.95288E-19-5.19352E-19
 -1      1029 9.65567E-05-2.76937E-05-2.95129E-05-1.29607E-07 2.09855E-19-1.57453E-18
 -1      1030 9.63598E-05-2.92381E-05-2.87665E-05-6.78211E-07 2.16622E-19-1.40562E-18
 -1      1031 8.27112E-05-2.54704E-05-2.45442E-05-1.57352E-05-1.18600E-18-1.06827E-18
 -1      1032 9.54808E-05-2.87106E-05-2.86158E-05-2.44347E-07-1.51883E-19-2.94306E-19
 -1      1033 9.53258E-05-2.85279E-05-2.86277E-05-2.51069E-07-4.21923E-19-1.48334E-19
 -1      1034 9.67292E-05-2.75945E-05-2.96293E-05 6.21593E-08-1.00103E-19-1.58062E-18
 -1      1035 9.53439E-05-2.39649E-05-3.05927E-05-7.09261E-07-3.01791E-20-2.15106E-18
 -1      1036 9.64568E-05-2.66045E-05-2.99347E-05 1.67045E-07 3.57815E-19-1.76316E-18
 -1      1037 9.57888E-05-2.90243E-05-2.86134E-05-2.82360E-07 6.98393E-20 1.28930E-19
 -1      1038 9.63134E-05-2.93306E-05-2.87069E-05-4.06739E-07-8.78271E-20-9.93462E-19
 -1      1039 9.59535E-05-2.91550E-05-2.86279E-05-3.19582E-07 2.99633E-20-1.99945E-19
 -1      1040 9.64261E-05-2.63846E-05-3.00179E-05 5.97146E-08 2.73310E-19-1.97757E-18
 -1      1041 9.59144E-05-2.52670E-05-3.02763E-05-4.73704E-07-1.21154E-19-1.94245E-18
 -1      1042 9.66474E-05-2.84269E-05-2.92375E-05-4.49032E-07 5.40382E-20-1.24834E-18
 -1      1043 9.68029E-05-2.90583E-05-2.90335E-05-4.27167E-07 2.80944E-19-1.76581E-18
 -1      1044 9.68626E-05-2.86577E-05-2.92304E-05-3.42237E-07 2.35798E-19-1.85479E-18
 -1      1045 9.69918E-05-2.86842E-05-2.92745E-05 1.20179E-07-1.52109E-19-1.57168E-18
 -1      1046 9.67982E-05-2.93210E-05-2.89189E-05 1.61179E-07-4.02143E-19-1.27658E-18
 -1      1047 9.66136E-05-2.93978E-05-2.88068E-05 1.57264E-07-1.89482E-19-7.49418E-19
 -1      1048 9.64142E-05-2.93814E-05-2.87283E-05 1.44845E-07-2.48647E-19-3.83917E-19
 -1      1049 9.62157E-05-2.93059E-05-2.86757E-05 1.31032E-07-2.49923E-19-7.13239E-19
 -1      1050 9.60232E-05-2.91896E-05-2.86430E-05 1.17150E-07-5.55652E-19-1.08390E-18
 -1      1051 9.58408E-05-2.90469E-05-2.86260E-05 1.05060E-07-3.13433E-19-3.80996E-19
 -1      1052 9.56664E-05-2.88841E-05-2.86210E-05 9.65863E-08-5.92064E-20 1.76602E-19
 -1      1053 9.54943E-05-2.87024E-05-2.86251E-05 9.27047E-08 3.06099E-19 3.98130E-19
 -1      1054 9.53159E-05-2.84989E-05-2.86359E-05 9.38215E-08-2.12358E-19 6.28558E-20
 -1      1055 9.51205E-05-2.82678E-05-2.86512E-05 9.96820E-08 2.10254E-19 4.44109E-19
 -1      1056 9.48947E-05-2.80011E-05-2.86686E-05 1.09073E-07 1.11132E-19 5.30699E-19
 -1      1057 9.46229E-05-2.76894E-05-2.86858E-05 1.19271E-07-2.21126E-19 3.30576E-19
 -1      1058 9.42876E-05-2.73226E-05-2.86993E-05 1.25155E-07-2.83049E-19 8.12736E-19
 -1      1059 9.38684E-05-2.68910E-05-2.87046E-05 1.17876E-07 1.72539E-19 1.99042E-19
 -1      1060 9.33431E-05-2.63866E-05-2.86957E-05 8.29582E-08-1.41056E-19-2.99977E-19
 -1      1061 9.26875E-05-2.58051E-05-2.86640E-05-2.30224E-09-7.15033E-22-8.08803E-19
 -1      1062 9.18760E-05-2.51483E-05-2.85978E-05-1.72268E-07-4.12529E-19-2.95314E-19
 -1      1063 9.08829E-05-2.44273E-05-2.84812E-05-4.77325E-07 4.32921E-19-6.29745E-19
 -1      1064 8.96830E-05-2.36673E-05-2.82929E-05-9.89308E-07 6.41681E-20-1.78462E-18
 -1      1065 8.82539E-05-2.29125E-05-2.80040E-05-1.80827E-06-9.17412E-19-2.55939E-18
 -1      1066 8.65758E-05-2.22320E-05-2.75764E-05-3.07093E-06-2.19607E-19-2.69580E-18
 -1      1067 8.46258E-05-2.17264E-05-2.69589E-05-4.95327E-06-3.70609E-19-2.22644E-18
 -1      1068 9.41863E-05-2.72265E-05-2.86970E-05-3.51552E-07 1.43581E-19-1.20071E-18
 -1      1069 9.69382E-05-2.91039E-05-2.90718E-05 1.50596E-07-2.29378E-19-1.52168E-18
 -1      1070 9.45257E-05-2.75881E-05-2.86875E-05-2.52454E-07 6.36177E-20-1.59682E-18
 -1      1071 9.66697E-05-2.92667E-05-2.88870E-05-4.51845E-07 2.30382E-19-1.68113E-18
 -1      1072 9.50384E-05-2.81751E-05-2.86557E-05-1.45361E-07 1.47858E-20-9.19531E-19
 -1      1073 9.37730E-05-2.68152E-05-2.86961E-05-4.97579E-07 3.25180E-20-6.76305E-19
 -1      1074 9.32739E-05-2.63573E-05-2.86784E-05-7.09987E-07 6.42500E-19 5.22128E-20
 -1      1075 9.26812E-05-2.58647E-05-2.86355E-05-1.01651E-06 2.34075E-19-1.68131E-20
 -1      1076 9.19942E-05-2.53626E-05-2.85561E-05-1.45604E-06-1.01964E-18 7.91608E-20
 -1      1077 9.12245E-05-2.48948E-05-2.84266E-05-2.08220E-06-1.14877E-18-5.18170E-19
 -1      1078 9.04027E-05-2.45310E-05-2.82301E-05-2.96725E-06-9.30532E-19-9.92569E-19
 -1      1079 8.95888E-05-2.43766E-05-2.79473E-05-4.20615E-06-4.60876E-19-8.94658E-19
 -1      1080 8.88919E-05-2.45882E-05-2.75579E-05-5.91770E-06 5.63551E-19 1.14301E-21
 -1      1081 8.84989E-05-2.53869E-05-2.70494E-05-8.23439E-06 2.16954E-20-6.50327E-19
 -1      1082 8.88391E-05-2.71236E-05-2.64269E-05-1.12070E-05-5.84499E-19-1.05099E-18
 -1      1083 8.30076E-05-2.22971E-05-2.60238E-05-8.76239E-06-4.10277E-19-8.38283E-19
 -1      1084 9.54200E-05-2.86229E-05-2.86273E-05-1.11712E-07-3.55753E-19-5.24909E-19
 -1      1085 9.67986E-05-2.78660E-05-2.95414E-05-1.26442E-07 1.37406E-19-1.94625E-18
 -1      1086 9.64997E-05-2.93435E-05-2.87812E-05-4.39678E-07-5.66654E-20-1.60383E-18
 -1      1087 9.69055E-05-2.79857E-05-2.95367E-05 6.30017E-08-1.00159E-19-1.71081E-18
 -1      1088 9.61275E-05-2.92576E-05-2.86585E-05-1.52879E-07-2.24279E-19-6.64397E-19
 -1      1089 9.52393E-05-2.84130E-05-2.86398E-05-1.21782E-07-8.27196E-20-7.48703E-19
 -1      1090 9.66057E-05-2.69119E-05-2.98687E-05-3.10926E-08-3.17901E-21-1.94276E-18
 -1      1091 9.55916E-05-2.88107E-05-2.86204E-05-1.12055E-07 3.80798E-21-3.91624E-19
 -1      1092 9.48051E-05-2.79024E-05-2.86725E-05-1.86808E-07 1.54888E-19-1.28366E-18
 -1      1093 9.61570E-05-2.57283E-05-3.01834E-05-1.79661E-07 6.47708E-20-2.02767E-18
 -1      1094 9.57628E-05-2.89796E-05-2.86213E-05-1.20447E-07-7.75877E-20-2.23532E-19
 -1      1095 9.63250E-05-2.93528E-05-2.87024E-05-1.71461E-07-1.98394E-19-1.25592E-18
 -1      1096 9.59402E-05-2.91300E-05-2.86329E-05-1.34802E-07 1.80507E-20-3.32652E-19
 -1      1097 9.68492E-05-2.77328E-05-2.96220E-05-3.81499E-08 2.71222E-19-1.86316E-18
 -1      1098 9.68775E-05-2.92102E-05-2.90002E-05-1.97892E-07-1.90570E-20-1.07708E-18
 -1      1099 9.69725E-05-2.88842E-05-2.91808E-05-1.71180E-07 1.11520E-19-1.39000E-18
 -1      1100 9.65290E-05-2.94051E-05-2.87673E-05-9.15435E-08-1.44959E-19-1.01559E-18
 -1      1101 9.69714E-05-2.84218E-05-2.93791E-05-1.11807E-07-1.16389E-20-1.72395E-18
 -1      1102 9.67215E-05-2.93705E-05-2.88646E-05-1.50412E-07 1.07980E-19-8.36340E-19
 -1      1103 1.16859E-04 2.57581E-10-4.18568E-05-4.14644E-05-4.12505E-19 1.10445E-17
 -1      1104 8.86540E-05 7.19270E-11-3.72525E-05-2.41653E-05-2.06041E-19 5.27066E-19
 -1      1105 8.40803E-05 4.14571E-11-3.57676E-05-1.78750E-05-1.37272E-19-3.77622E-18
 -1      1106 8.23352E-05 3.20265E-11-3.50732E-05-1.38324E-05-8.18446E-20-5.66174E-18
 -1      1107 8.15307E-05 2.73257E-11-3.47383E-05-1.05301E-05-5.07029E-20-6.46906E-18
 -1      1108 8.11276E-05 2.46035E-11-3.45725E-05-7.63790E-06-2.76344E-20-6.79287E-18
 -1      1109 8.09178E-05 2.29453E-11-3.44888E-05-4.97761E-06-1.08261E-20-6.74019E-18
 -1      1110 8.08152E-05 2.20489E-11-3.44494E-05-2.43094E-06 2.18376E-22-6.60867E-18
 -1      1111 8.07860E-05 2.17779E-11-3.44383E-05 5.25697E-08 1.91947E-20-6.42164E-18
 -1      1112 8.08195E-05 2.20929E-11-3.44508E-05 2.53860E-06 3.71305E-20-6.19759E-18
 -1      1113 8.09265E-05 2.30445E-11-3.44917E-05 5.09352E-06 5.01966E-20-5.91797E-18
 -1      1114 8.11430E-05 2.47617E-11-3.45767E-05 7.76974E-06 6.74979E-20-5.43597E-18
 -1      1115 8.15530E-05 2.76336E-11-3.47444E-05 1.06895E-05 9.32530E-20-4.61744E-18
 -1      1116 8.23606E-05 3.25086E-11-3.50827E-05 1.40388E-05 1.22529E-19-3.20182E-18
 -1      1117 8.40768E-05 4.19186E-11-3.57872E-05 1.81273E-05 1.56489E-19-6.57867E-19
 -1      1118 8.83502E-05 6.67514E-11-3.73232E-05 2.40077E-05 1.82747E-19 4.24663E-18
 -1      1119 1.06624E-04 1.63940E-10-4.06365E-05 3.61903E-05 3.66130E-19 1.43805E-17
 -1      1120 1.30226E-04-2.57580E-05-4.02754E-05-2.61052E-05-1.63022E-18 1.76119E-17
 -1      1121 9.74649E-05-2.88650E-05-3.15801E-05-6.80068E-07-5.77200E-19 1.38140E-17
 -1      1122 9.01694E-05-2.70295E-05-2.78961E-05 3.87096E-07-2.15451E-19 8.41869E-18
 -1      1123 8.82600E-05-2.65756E-05-2.66471E-05 2.50889E-07-1.33451E-19 4.93796E-18
 -1      1124 8.79034E-05-2.64494E-05-2.63912E-05 1.65992E-07-6.88082E-20 2.84460E-18
 -1      1125 8.82644E-05-2.65266E-05-2.64767E-05 1.18156E-07-1.18313E-19 1.25731E-18
 -1      1126 8.89525E-05-2.67116E-05-2.66799E-05 8.75790E-08-1.33983E-19-5.40711E-19
 -1      1127 8.97687E-05-2.69439E-05-2.69229E-05 6.63809E-08 3.42556E-21-1.20021E-18
 -1      1128 9.06028E-05-2.71869E-05-2.71715E-05 5.07054E-08-8.07052E-20-2.25477E-18
 -1      1129 9.13924E-05-2.74196E-05-2.74076E-05 3.86396E-08-3.04822E-20-3.36344E-18
 -1      1130 9.21043E-05-2.76307E-05-2.76211E-05 2.91630E-08-1.39502E-20-4.49134E-18
 -1      1131 9.27234E-05-2.78150E-05-2.78073E-05 2.16643E-08 7.24084E-20-4.71453E-18
 -1      1132 9.32464E-05-2.79713E-05-2.79651E-05 1.57288E-08-7.76571E-20-5.54790E-18
 -1      1133 9.36776E-05-2.81005E-05-2.80956E-05 1.10465E-08 6.92844E-20-5.69172E-18
 -1      1134 9.40257E-05-2.82051E-05-2.82012E-05 7.37094E-09 9.27969E-20-5.11821E-18
 -1      1135 9.43020E-05-2.82884E-05-2.82853E-05 4.50113E-09-2.02769E-19-5.67586E-18
 -1      1136 9.45193E-05-2.83541E-05-2.83517E-05 2.27342E-09-4.76180E-20-5.99919E-18
 -1      1137 9.46910E-05-2.84062E-05-2.84044E-05 5.58225E-10-7.02754E-20-6.56868E-18
 -1      1138 9.48316E-05-2.84491E-05-2.84478E-05-7.40723E-10-1.75810E-20-7.24836E-18
 -1      1139 9.49561E-05-2.84874E-05-2.84866E-05-1.68529E-09-7.33246E-20-7.33017E-18
 -1      1140 9.50813E-05-2.85260E-05-2.85256E-05-2.29988E-09-1.58237E-19-8.24392E-18
 -1      1141 9.52262E-05-2.85707E-05-2.85709E-05-2.56538E-09-1.34941E-19-7.50567E-18
 -1      1142 9.54135E-05-2.86283E-05-2.86293E-05-2.40838E-09 1.03705E-19-6.10849E-18
 -1      1143 9.56710E-05-2.87074E-05-2.87094E-05-1.68248E-09-2.99624E-19-6.23416E-18
 -1      1144 9.60341E-05-2.88186E-05-2.88220E-05-1.36974E-10 2.21866E-20-8.66826E-18
 -1      1145 9.65482E-05-2.89757E-05-2.89811E-05 2.63512E-09 7.29354E-20-7.51767E-18
 -1      1146 9.72729E-05-2.91966E-05-2.92052E-05 7.28159E-09 3.05889E-19-6.65827E-18
 -1      1147 9.82867E-05-2.95050E-05-2.95184E-05 1.48247E-08-1.71392E-21-6.67318E-18
 -1      1148 9.96930E-05-2.99318E-05-2.99525E-05 2.68628E-08-8.39315E-20-6.86635E-18
 -1      1149 1.01626E-04-3.05174E-05-3.05488E-05 4.58466E-08 1.09615E-19-5.53499E-18
 -1      1150 1.04259E-04-3.13124E-05-3.13592E-05 7.53822E-08 2.99836E-20-4.15417E-18
 -1      1151 1.07797E-04-3.23777E-05-3.24449E-05 1.20331E-07 1.45124E-19-3.78715E-18
 -1      1152 1.12464E-04-3.37776E-05-3.38667E-05 1.86010E-07-6.69421E-20-5.35065E-18
 -1      1153 1.18432E-04-3.55608E-05-3.56606E-05 2.74723E-07-9.39512E-21-5.22101E-18
 -1      1154 1.25668E-04-3.77131E-05-3.77815E-05 3.75960E-07-9.77694E-20-5.70360E-18
 -1      1155 1.33612E-04-4.00643E-05-4.00041E-05 4.44903E-07 2.11312E-19-2.93169E-18
 -1      1156 1.40679E-04-4.21361E-05-4.17965E-05 3.70817E-07 4.93959E-19-1.32952E-18
 -1      1157 1.43752E-04-4.29910E-05-4.22660E-05-3.26342E-08-3.63165E-19-7.98408E-19
 -1      1158 1.38504E-04-4.13383E-05-4.04090E-05-9.08042E-07 1.28339E-19-5.10973E-19
 -1      1159 1.21962E-04-3.63431E-05-3.58728E-05-2.00523E-06 8.92032E-21 7.60212E-20
 -1      1160 9.74552E-05-2.91445E-05-2.98411E-05-2.41777E-06 3.89622E-19 1.27076E-18
 -1      1161 7.67398E-05-2.31462E-05-2.49782E-05-1.26609E-06-2.13664E-19 4.07529E-18
 -1      1162 7.21759E-05-2.18778E-05-2.37057E-05 8.34603E-07-3.19914E-19 2.78123E-18
 -1      1163 8.41984E-05-2.52140E-05-2.61151E-05 2.08154E-06-2.08317E-20 1.01644E-18
 -1      1164 1.02393E-04-3.05076E-05-3.01677E-05 1.86476E-06 3.42651E-20 1.62101E-18
 -1      1165 1.14172E-04-3.40589E-05-3.31433E-05 7.78753E-07 4.55532E-19 1.61317E-18
 -1      1166 1.15030E-04-3.44135E-05-3.36784E-05-1.98748E-07-4.12174E-19-1.61916E-19
 -1      1167 1.07988E-04-3.23965E-05-3.21899E-05-6.42727E-07-9.85718E-20-3.47199E-18
 -1      1168 9.92104E-05-2.98722E-05-3.00712E-05-4.16617E-07-1.41494E-19-5.00512E-18
 -1      1169 9.50856E-05-2.88695E-05-2.85256E-05 5.61958E-07 6.70972E-19-4.98855E-18
 -1      1170 1.31061E-04-3.77401E-05-3.86620E-05 1.21741E-05-2.42913E-19 2.26920E-17
 -1      1171 9.65669E-05-2.81935E-05-3.13321E-05 8.01599E-07 1.85791E-19 1.81679E-17
 -1      1172 9.03799E-05-2.69370E-05-2.78732E-05 1.19522E-07 6.62803E-20 1.42084E-17
 -1      1173 8.83462E-05-2.65083E-05-2.66804E-05 7.20416E-09 6.77163E-20 1.12868E-17
 -1      1174 8.79459E-05-2.64177E-05-2.64178E-05-2.72212E-08 5.47875E-20 9.25863E-18
 -1      1175 8.82867E-05-2.65111E-05-2.64926E-05-3.49887E-08 2.18260E-20 7.62123E-18
 -1      1176 8.89655E-05-2.67051E-05-2.66901E-05-3.57778E-08-3.59691E-20 6.79503E-18
 -1      1177 8.97768E-05-2.69422E-05-2.69302E-05-3.38187E-08 6.73466E-20 5.97349E-18
 -1      1178 9.06080E-05-2.71878E-05-2.71770E-05-3.06664E-08-2.34190E-20 4.70552E-18
 -1      1179 9.13960E-05-2.74218E-05-2.74119E-05-2.69626E-08 9.52304E-20 3.36671E-18
 -1      1180 9.21068E-05-2.76336E-05-2.76244E-05-2.30907E-08 2.49921E-20 2.42303E-18
 -1      1181 9.27254E-05-2.78183E-05-2.78100E-05-1.92953E-08 1.54713E-20 2.10750E-18
 -1      1182 9.32484E-05-2.79746E-05-2.79673E-05-1.57242E-08 3.79214E-20 1.20664E-18
 -1      1183 9.36801E-05-2.81038E-05-2.80975E-05-1.24545E-08-7.82694E-20 1.31928E-18
 -1      1184 9.40292E-05-2.82085E-05-2.82032E-05-9.51134E-09 8.03723E-20 5.60446E-19
 -1      1185 9.43072E-05-2.82919E-05-2.82875E-05-6.88359E-09 6.16922E-21-5.18434E-19
 -1      1186 9.45271E-05-2.83581E-05-2.83545E-05-4.53663E-09-7.78989E-20-1.23283E-18
 -1      1187 9.47027E-05-2.84110E-05-2.84083E-05-2.42352E-09 1.86165E-19-2.01918E-18
 -1      1188 9.48485E-05-2.84551E-05-2.84532E-05-4.95350E-10-2.80080E-20-3.48320E-18
 -1      1189 9.49799E-05-2.84950E-05-2.84939E-05 1.28835E-09-3.28572E-21-2.82689E-18
 -1      1190 9.51133E-05-2.85356E-05-2.85353E-05 2.94824E-09-6.95403E-20-1.22745E-18
 -1      1191 9.52666E-05-2.85822E-05-2.85829E-05 4.47163E-09 2.19387E-19-1.48748E-18
 -1      1192 9.54597E-05-2.86409E-05-2.86428E-05 5.79565E-09-5.55211E-20-2.64660E-18
 -1      1193 9.57147E-05-2.87181E-05-2.87215E-05 6.78639E-09 9.54211E-20-3.84432E-18
 -1      1194 9.60556E-05-2.88210E-05-2.88262E-05 7.21424E-09-8.13119E-20-2.25587E-18
 -1      1195 9.65074E-05-2.89570E-05-2.89643E-05 6.72753E-09-2.67138E-21 2.97007E-20
 -1      1196 9.70940E-05-2.91330E-05-2.91427E-05 4.83115E-09-1.70989E-19-1.38415E-18
 -1      1197 9.78344E-05-2.93545E-05-2.93665E-05 8.84118E-10-2.14497E-19-2.31511E-18
 -1      1198 9.87360E-05-2.96233E-05-2.96371E-05-5.85708E-09 2.60074E-20-3.24188E-18
 -1      1199 9.97851E-05-2.99349E-05-2.99490E-05-1.61036E-08-5.95566E-20-2.47915E-18
 -1      1200 1.00933E-04-3.02743E-05-3.02859E-05-3.02408E-08 4.40972E-20-2.28590E-18
 -1      1201 1.02080E-04-3.06115E-05-3.06157E-05-4.78003E-08 2.12519E-19-2.80328E-18
 -1      1202 1.03057E-04-3.08960E-05-3.08857E-05-6.66571E-08-4.19339E-20-2.58268E-18
 -1      1203 1.03613E-04-3.10541E-05-3.10206E-05-8.20696E-08-1.80246E-19-9.99707E-19
 -1      1204 1.03423E-04-3.09906E-05-3.09254E-05-8.60355E-08 2.38890E-20-2.81370E-19
 -1      1205 1.02125E-04-3.06004E-05-3.05000E-05-6.80010E-08-2.88628E-19-1.86869E-18
 -1      1206 9.94129E-05-2.97953E-05-2.96673E-05-1.83368E-08 2.88382E-19-5.02362E-18
 -1      1207 9.51843E-05-2.85452E-05-2.84142E-05 6.47807E-08 1.85148E-19-7.00584E-18
 -1      1208 8.97037E-05-2.69259E-05-2.68327E-05 1.67491E-07 2.61848E-19-5.73065E-18
 -1      1209 8.36992E-05-2.51471E-05-2.51359E-05 2.58004E-07 3.88638E-20-6.39489E-18
 -1      1210 7.82755E-05-2.35301E-05-2.36258E-05 2.96746E-07-1.01414E-19-5.19739E-18
 -1      1211 7.45942E-05-2.24188E-05-2.26066E-05 2.58602E-07 4.51475E-20-3.17358E-18
 -1      1212 7.34279E-05-2.20506E-05-2.22753E-05 1.51905E-07-7.57102E-20-2.04833E-18
 -1      1213 7.48372E-05-2.24551E-05-2.26482E-05 1.75633E-08 1.55576E-19-1.94270E-18
 -1      1214 7.81920E-05-2.34519E-05-2.35682E-05-9.63822E-08 1.18813E-19-3.78155E-18
 -1      1215 8.25212E-05-2.47495E-05-2.47855E-05-1.63314E-07 3.84110E-19-8.04099E-18
 -1      1216 8.69407E-05-2.60758E-05-2.60549E-05-1.90572E-07-1.35398E-19-6.04744E-18
 -1      1217 9.08725E-05-2.72473E-05-2.71870E-05-2.06602E-07 3.56128E-19-6.74887E-18
 -1      1218 9.38803E-05-2.81285E-05-2.80316E-05-2.07534E-07 5.06796E-19-8.89043E-18
 -1      1219 9.52221E-05-2.85879E-05-2.85077E-05 6.30883E-09 1.01427E-19-5.85448E-18
 -1      1220 9.52080E-05-2.85951E-05-2.85073E-05-2.00786E-08-6.53633E-18-8.11904E-19
 -1      1221 9.56836E-05-3.00323E-05-2.80261E-05-1.75841E-07-7.14414E-18 1.32129E-19
 -1      1222 9.64571E-05-3.27270E-05-2.73514E-05-2.76989E-07-3.14800E-18 1.98043E-19
 -1      1223 9.70915E-05-3.50221E-05-2.68387E-05-2.36027E-07-1.55245E-18-5.93618E-20
 -1      1224 9.70922E-05-3.51634E-05-2.69730E-05-7.66159E-08 1.47310E-18-1.14695E-18
 -1      1225 9.59529E-05-3.14633E-05-2.82179E-05 2.04907E-07 7.87804E-18 9.74273E-19
 -1      1226 9.33286E-05-2.26783E-05-3.08620E-05 5.90238E-07 7.87264E-18-8.84733E-19
 -1      1227 8.92646E-05-8.93976E-06-3.47636E-05 9.65665E-07 7.60858E-18-9.93642E-20
 -1      1228 8.44340E-05 7.63752E-06-3.92809E-05 1.12462E-06 3.34504E-18-7.95450E-20
 -1      1229 8.00841E-05 2.26843E-05-4.32499E-05 8.65281E-07 1.07976E-18 4.59846E-19
 -1      1230 7.77957E-05 3.06808E-05-4.53273E-05 1.96771E-07 1.18950E-18 8.02881E-19
 -1      1231 7.83711E-05 2.86227E-05-4.48122E-05-5.44532E-07 1.71794E-18-1.13463E-19
 -1      1232 8.15784E-05 1.74444E-05-4.19137E-05-1.03791E-06 2.25925E-18 5.04388E-19
 -1      1233 8.61804E-05 1.59509E-06-3.76961E-05-1.09830E-06 3.59936E-18 5.47324E-19
 -1      1234 9.07006E-05-1.37068E-05-3.35012E-05-7.83773E-07 6.80771E-18 1.34457E-18
 -1      1235 9.41227E-05-2.47380E-05-3.03811E-05 1.46802E-08 9.06230E-18 5.00008E-19
 -1      1236 9.50560E-05-2.88075E-05-2.85947E-05 7.05241E-07 5.63281E-18-2.81615E-19
 -1      1237 4.25918E-05-1.32430E-04 2.27435E-05-1.64328E-05-5.94363E-18-2.54269E-19
 -1      1238 2.13084E-05-8.03772E-05 1.29508E-05-2.91813E-05-1.51704E-18-8.55080E-19
 -1      1239 8.45684E-06-1.50065E-05-4.41600E-06-3.63940E-06-5.79201E-18-3.05948E-18
 -1      1240 3.28930E-05 2.59309E-05-2.55471E-05 5.30157E-05-3.13910E-18-2.79182E-18
 -1      1241 1.07764E-04 1.83173E-05-4.80863E-05 1.06584E-04-2.90024E-18-4.26566E-18
 -1      1242 2.10947E-04-2.79724E-05-6.71583E-05 1.22568E-04-1.85839E-18-2.43437E-18
 -1      1243 2.96934E-04-7.76276E-05-7.93002E-05 8.13243E-05-1.31502E-19-1.39845E-18
 -1      1244 3.30396E-04-9.93043E-05-8.35117E-05-1.09558E-07 3.46701E-19-6.92026E-18
 -1      1245 2.92355E-04-7.67387E-05-7.84316E-05-8.12193E-05 3.15975E-18-1.34331E-17
 -1      1246 2.01035E-04-2.46490E-05-6.55146E-05-1.18062E-04 6.46117E-18-1.40404E-17
 -1      1247 1.04500E-04 1.83848E-05-4.74976E-05-1.04642E-04 8.03411E-18-1.21583E-17
 -1      1248 3.43616E-05 2.71516E-05-2.69442E-05-5.54860E-05 1.05591E-17-9.93400E-18
 -1      1249 7.94473E-06-7.47591E-06-6.38141E-06-1.10102E-06 6.98802E-18-4.20213E-18
 -1      1250 1.74444E-05-6.57929E-05 1.01587E-05 2.53157E-05 1.87533E-18-1.31544E-18
 -1      1251 3.66743E-05-1.15105E-04 2.03157E-05 1.60843E-05-6.77711E-18-4.10149E-19
 -1      1252 3.97736E-05-1.25337E-04 2.25553E-05-1.43224E-05-9.15113E-18-2.70521E-19
 -1      1253 2.35858E-05-9.08810E-05 1.60455E-05-3.46204E-05-7.19554E-18-2.13198E-18
 -1      1254 7.05192E-06-3.28827E-05 1.68349E-06-2.01654E-05-8.40765E-18-5.07457E-18
 -1      1255 2.11073E-05 1.10514E-05-1.78986E-05 2.76496E-05-1.04778E-17-7.79270E-18
 -1      1256 8.58574E-05 1.45616E-05-4.05318E-05 8.42747E-05-4.75270E-18-4.52654E-18
 -1      1257 1.91390E-04-2.44378E-05-6.22153E-05 1.12058E-04-2.02780E-18-4.57228E-18
 -1      1258 2.96513E-04-7.85012E-05-7.81910E-05 8.15530E-05-7.51530E-19-2.25734E-18
 -1      1259 3.45939E-04-1.04614E-04-8.55182E-05-1.62914E-07 3.49136E-19-4.45158E-18
 -1      1260 3.14578E-04-8.36821E-05-8.19578E-05-8.55900E-05 1.81350E-18-8.44831E-18
 -1      1261 2.17835E-04-2.85973E-05-6.88333E-05-1.26456E-04 1.70254E-18-4.14030E-18
 -1      1262 1.09721E-04 1.84815E-05-4.90403E-05-1.09764E-04-4.81962E-19-5.38713E-19
 -1      1263 3.28509E-05 2.40893E-05-2.57973E-05-5.13928E-05-2.50044E-18 2.52924E-18
 -1      1264 8.37787E-06-1.92361E-05-3.52130E-06 7.91258E-06-1.43996E-18 1.00882E-18
 -1      1265 2.21056E-05-8.41727E-05 1.33503E-05 3.23578E-05-5.42101E-20-6.47980E-20
 -1      1266 4.22281E-05-1.32628E-04 2.28341E-05 1.74254E-05-3.87136E-18-8.26651E-19
 -1      1267 1.04449E-04-2.20209E-05-3.78940E-05-1.72741E-05-6.28922E-19 8.61327E-18
 -1      1268 9.03230E-05-6.68191E-06-3.60182E-05-2.04692E-05-1.55076E-18-1.47034E-18
 -1      1269 9.26605E-05-6.74090E-06-3.72235E-05-2.57577E-05-2.06147E-18 8.09128E-19
 -1      1270 8.59063E-05-4.09702E-06-3.51304E-05-1.64305E-05-1.47730E-18-4.63311E-18
 -1      1271 8.71589E-05-4.08972E-06-3.56000E-05-1.88513E-05-1.70333E-18-3.32717E-18
 -1      1272 9.21371E-05-1.04639E-05-3.50943E-05-1.90328E-05-2.69454E-18-1.31756E-18
 -1      1273 8.40959E-05-3.19034E-06-3.46867E-05-1.28135E-05-1.13978E-18-6.06759E-18
 -1      1274 8.47086E-05-3.16093E-06-3.49115E-05-1.46282E-05-1.34382E-18-5.44039E-18
 -1      1275 8.78679E-05-7.39539E-06-3.45740E-05-1.54091E-05-2.31376E-18-3.91607E-18
 -1      1276 8.31829E-05-2.72704E-06-3.44696E-05-9.68435E-06-7.71005E-19-6.67450E-18
 -1      1277 8.34969E-05-2.70870E-06-3.45791E-05-1.12314E-05-9.24867E-19-6.42138E-18
 -1      1278 8.58654E-05-5.98174E-06-3.43051E-05-1.19525E-05-1.71562E-18-5.15536E-18
 -1      1279 8.26901E-05-2.45677E-06-3.43624E-05-6.91315E-06-4.80135E-19-6.83165E-18
 -1      1280 8.28601E-05-2.44839E-06-3.44172E-05-8.28396E-06-5.63111E-19-6.76337E-18
 -1      1281 8.48180E-05-5.21585E-06-3.41721E-05-8.94264E-06-1.14293E-18-5.57435E-18
 -1      1282 8.24135E-05-2.29105E-06-3.43092E-05-4.29355E-06-1.98020E-19-6.77554E-18
 -1      1283 8.25052E-05-2.28715E-06-3.43366E-05-5.59452E-06-2.79415E-19-6.83186E-18
 -1      1284 8.42307E-05-4.76043E-06-3.41081E-05-6.21499E-06-6.52073E-19-5.76398E-18
 -1      1285 8.22802E-05-2.20148E-06-3.42866E-05-1.78931E-06 1.10281E-19-6.60421E-18
 -1      1286 8.23195E-05-2.19992E-06-3.42978E-05-3.04002E-06 8.18082E-21-6.67290E-18
 -1      1287 8.39069E-05-4.49635E-06-3.40788E-05-3.64355E-06-1.91679E-19-5.67442E-18
 -1      1288 8.22540E-05-2.17391E-06-3.42839E-05 6.69714E-07 3.60776E-19-6.42156E-18
 -1      1289 8.22526E-05-2.17395E-06-3.42836E-05-5.65797E-07 2.75390E-19-6.54385E-18
 -1      1290 8.37648E-05-4.37651E-06-3.40677E-05-1.17012E-06 3.32863E-19-5.50124E-18
 -1      1291 8.23280E-05-2.20422E-06-3.42993E-05 3.14756E-06 6.31797E-19-6.20023E-18
 -1      1292 8.22859E-05-2.20585E-06-3.42874E-05 1.89426E-06 5.36153E-19-6.33226E-18
 -1      1293 8.37697E-05-4.38072E-06-3.40681E-05 1.27344E-06 7.07540E-19-5.35200E-18
 -1      1294 8.25221E-05-2.29739E-06-3.43393E-05 5.71125E-06 8.85401E-19-5.86029E-18
 -1      1295 8.24271E-05-2.30076E-06-3.43111E-05 4.40436E-06 7.80271E-19-6.05930E-18
 -1      1296 8.39223E-05-4.50985E-06-3.40798E-05 3.75116E-06 1.14490E-18-5.13183E-18
 -1      1297 8.28828E-05-2.46317E-06-3.44200E-05 8.39257E-06 1.13258E-18-5.31958E-18
 -1      1298 8.27095E-05-2.47190E-06-3.43648E-05 7.01303E-06 1.03585E-18-5.65638E-18
 -1      1299 8.42559E-05-4.78327E-06-3.41092E-05 6.30921E-06 1.59635E-18-4.76284E-18
 -1      1300 8.35424E-05-2.74025E-06-3.45839E-05 1.13920E-05 1.49515E-18-4.41603E-18
 -1      1301 8.32201E-05-2.75739E-06-3.44729E-05 9.82741E-06 1.32089E-18-4.94217E-18
 -1      1302 8.48597E-05-5.25634E-06-3.41729E-05 9.05202E-06 2.02081E-18-4.12129E-18
 -1      1303 8.47696E-05-3.20555E-06-3.49191E-05 1.48397E-05 1.81368E-18-2.90154E-18
 -1      1304 8.41537E-05-3.24031E-06-3.46920E-05 1.29992E-05 1.63671E-18-3.84193E-18
 -1      1305 8.59449E-05-6.06180E-06-3.43061E-05 1.21183E-05 2.55976E-18-3.17079E-18
 -1      1306 8.72553E-05-4.08949E-06-3.56212E-05 1.90904E-05 2.04913E-18-7.54918E-20
 -1      1307 8.59755E-05-4.15475E-06-3.51377E-05 1.66933E-05 1.81469E-18-1.75651E-18
 -1      1308 8.79911E-05-7.51937E-06-3.45756E-05 1.56486E-05 2.90068E-18-1.38156E-18
 -1      1309 9.34732E-05-6.79424E-06-3.71198E-05 2.50930E-05 1.71228E-18 5.15848E-18
 -1      1310 9.01367E-05-6.43740E-06-3.60412E-05 2.11449E-05 1.70862E-18 1.95379E-18
 -1      1311 9.23605E-05-1.06963E-05-3.50798E-05 1.96761E-05 3.01808E-18 1.79243E-18
 -1      1312 1.23635E-04-2.49256E-05-3.90184E-05 2.83656E-05 8.12093E-19 1.51183E-17
 -1      1313 1.00090E-04-1.44256E-05-3.73576E-05 2.40483E-05 8.55292E-19 8.21442E-18
 -1      1314 1.01692E-04-1.93466E-05-3.54060E-05 2.13975E-05 2.78989E-18 6.54291E-18
 -1      1315 1.02615E-04-2.78081E-05-3.47616E-05 7.32700E-06 1.51749E-18 1.45300E-17
 -1      1316 1.05158E-04-3.02338E-05-3.35284E-05-7.95826E-06-1.78745E-18 9.32859E-18
 -1      1317 9.82725E-05-2.78466E-05-3.07655E-05-4.98730E-06-1.61736E-18 7.21466E-18
 -1      1318 9.55152E-05-2.78529E-05-2.92583E-05-2.48860E-06-1.29289E-18 6.44658E-18
 -1      1319 9.32840E-05-2.75623E-05-2.82193E-05-2.04195E-06-1.18825E-18 4.53258E-18
 -1      1320 9.94958E-05-2.80554E-05-3.09860E-05-7.88479E-06-2.77710E-18 3.36915E-18
 -1      1321 9.15952E-05-2.72045E-05-2.75854E-05-8.36920E-07-9.56234E-19 3.86649E-18
 -1      1322 9.08799E-05-2.71096E-05-2.72835E-05-7.26644E-07-8.42573E-19 2.58501E-18
 -1      1323 9.47306E-05-2.77737E-05-2.88203E-05-3.11828E-06-2.10871E-18 2.11400E-18
 -1      1324 9.01309E-05-2.69272E-05-2.70405E-05-1.72374E-07-6.33773E-19 2.04794E-18
 -1      1325 9.00599E-05-2.69545E-05-2.70061E-05-1.14339E-07-5.94561E-19 1.17345E-18
 -1      1326 9.25333E-05-2.75037E-05-2.79000E-05-1.05039E-06-1.48470E-18 1.05340E-18
 -1      1327 8.98015E-05-2.68873E-05-2.69322E-05 1.55823E-07-5.78954E-19 8.34619E-19
 -1      1328 9.00175E-05-2.69778E-05-2.69942E-05 1.84503E-07-5.35070E-19 3.91753E-21
 -1      1329 9.15769E-05-2.73608E-05-2.75336E-05-6.72019E-08-1.11175E-18 2.75815E-20
 -1      1330 9.00224E-05-2.69813E-05-2.70011E-05 3.15552E-07-5.44349E-19-3.27431E-19
 -1      1331 9.03660E-05-2.71014E-05-2.71005E-05 3.27267E-07-4.08422E-19-9.02858E-19
 -1      1332 9.13259E-05-2.73494E-05-2.74263E-05 4.19945E-07-1.01096E-18-5.80952E-19
 -1      1333 9.05091E-05-2.71434E-05-2.71481E-05 3.81711E-07-1.95493E-19-1.15171E-18
 -1      1334 9.08979E-05-2.72721E-05-2.72604E-05 3.83364E-07-2.78962E-19-1.57744E-18
 -1      1335 9.14608E-05-2.74237E-05-2.74491E-05 6.47979E-07-6.62001E-19-9.61960E-19
 -1      1336 9.11069E-05-2.73326E-05-2.73271E-05 3.93712E-07-3.44682E-19-1.66050E-18
 -1      1337 9.14951E-05-2.74576E-05-2.74396E-05 3.89464E-07-3.55109E-19-2.21633E-18
 -1      1338 9.17952E-05-2.75432E-05-2.75385E-05 7.30017E-07-6.20631E-19-1.59393E-18
 -1      1339 9.17270E-05-2.75245E-05-2.75127E-05 3.74534E-07-3.13842E-19-2.38722E-18
 -1      1340 9.20891E-05-2.76391E-05-2.76180E-05 3.67056E-07-3.15390E-19-2.83032E-18
 -1      1341 9.22183E-05-2.76808E-05-2.76589E-05 7.27662E-07-5.98432E-19-1.78613E-18
 -1      1342 9.23186E-05-2.77050E-05-2.76901E-05 3.38493E-07-4.28488E-19-2.96587E-18
 -1      1343 9.26414E-05-2.78059E-05-2.77843E-05 3.29537E-07-2.17359E-19-3.36403E-18
 -1      1344 9.26634E-05-2.78196E-05-2.77889E-05 6.77686E-07-5.32205E-19-1.99986E-18
 -1      1345 9.28541E-05-2.78669E-05-2.78509E-05 2.94778E-07-1.50337E-19-3.66342E-18
 -1      1346 9.31323E-05-2.79530E-05-2.79324E-05 2.85488E-07-2.69441E-19-3.98977E-18
 -1      1347 9.30913E-05-2.79498E-05-2.79158E-05 6.03220E-07-5.21216E-19-2.35173E-18
 -1      1348 9.33209E-05-2.80071E-05-2.79913E-05 2.49308E-07-3.58041E-19-4.04404E-18
 -1      1349 9.35541E-05-2.80787E-05-2.80599E-05 2.40410E-07-2.13295E-19-4.39141E-18
 -1      1350 9.34804E-05-2.80663E-05-2.80324E-05 5.19112E-07-6.01266E-19-2.91795E-18
 -1      1351 9.37161E-05-2.81250E-05-2.81105E-05 2.05833E-07-3.48289E-20-4.49361E-18
 -1      1352 9.39072E-05-2.81832E-05-2.81668E-05 1.97771E-07 4.58132E-20-4.31809E-18
 -1      1353 9.38210E-05-2.81669E-05-2.81353E-05 4.34876E-07-1.86659E-19-3.12981E-18
 -1      1354 9.40431E-05-2.82219E-05-2.82092E-05 1.66662E-07 4.39853E-20-4.62303E-18
 -1      1355 9.41967E-05-2.82683E-05-2.82546E-05 1.59693E-07-1.26952E-19-4.67255E-18
 -1      1356 9.41108E-05-2.82514E-05-2.82234E-05 3.56488E-07-1.89722E-19-3.56090E-18
 -1      1357 9.43090E-05-2.83003E-05-2.82896E-05 1.33170E-07-2.58297E-19-4.49612E-18
 -1      1358 9.44309E-05-2.83367E-05-2.83257E-05 1.27436E-07-3.36633E-19-4.73603E-18
 -1      1359 9.43525E-05-2.83211E-05-2.82974E-05 2.87614E-07-3.75541E-19-4.21035E-18
 -1      1360 9.45232E-05-2.83630E-05-2.83545E-05 1.06181E-07-1.57055E-19-4.81837E-18
 -1      1361 9.46197E-05-2.83915E-05-2.83832E-05 1.01764E-07-2.31774E-19-5.02681E-18
 -1      1362 9.45521E-05-2.83778E-05-2.83589E-05 2.30475E-07-3.13690E-19-3.72312E-18
 -1      1363 9.46967E-05-2.84133E-05-2.84072E-05 8.62522E-08-1.32666E-19-4.98254E-18
 -1      1364 9.47746E-05-2.84360E-05-2.84305E-05 8.32208E-08-1.24671E-19-5.17415E-18
 -1      1365 9.47175E-05-2.84242E-05-2.84103E-05 1.86503E-07-1.84900E-19-4.03046E-18
 -1      1366 9.48416E-05-2.84549E-05-2.84514E-05 7.39106E-08-2.88160E-19-5.15156E-18
 -1      1367 9.49081E-05-2.84740E-05-2.84714E-05 7.23533E-08-9.67455E-20-5.40383E-18
 -1      1368 9.48583E-05-2.84630E-05-2.84545E-05 1.56853E-07-2.44218E-19-3.84679E-18
 -1      1369 9.49711E-05-2.84917E-05-2.84910E-05 6.98440E-08-3.38165E-20-5.75427E-18
 -1      1370 9.50341E-05-2.85095E-05-2.85101E-05 6.99027E-08-3.85579E-19-6.01490E-18
 -1      1371 9.49856E-05-2.84976E-05-2.84948E-05 1.42820E-07-4.38342E-19-4.14794E-18
 -1      1372 9.50998E-05-2.85280E-05-2.85305E-05 7.50760E-08-1.74952E-19-6.02602E-18
 -1      1373 9.51682E-05-2.85472E-05-2.85512E-05 7.69763E-08-5.65621E-20-6.17630E-18
 -1      1374 9.51118E-05-2.85313E-05-2.85350E-05 1.46196E-07-4.61159E-19-4.58807E-18
 -1      1375 9.52446E-05-2.85686E-05-2.85749E-05 9.11384E-08 1.20799E-20-5.44932E-18
 -1      1376 9.53285E-05-2.85922E-05-2.86004E-05 9.52224E-08 2.73125E-19-5.16375E-18
 -1      1377 9.52511E-05-2.85683E-05-2.85795E-05 1.69614E-07 3.93781E-19-4.04424E-18
 -1      1378 9.54251E-05-2.86193E-05-2.86304E-05 1.20260E-07 2.42940E-19-5.23250E-18
 -1      1379 9.55371E-05-2.86511E-05-2.86642E-05 1.27024E-07 8.88915E-20-4.74097E-18
 -1      1380 9.54206E-05-2.86133E-05-2.86336E-05 2.16905E-07 2.91684E-19-3.74630E-18
 -1      1381 9.56653E-05-2.86870E-05-2.87042E-05 1.65593E-07-2.85762E-19-4.92691E-18
 -1      1382 9.58211E-05-2.87316E-05-2.87511E-05 1.75738E-07-6.77435E-19-5.73878E-18
 -1      1383 9.56405E-05-2.86720E-05-2.87037E-05 2.93501E-07-4.16177E-19-4.04765E-18
 -1      1384 9.59953E-05-2.87804E-05-2.88054E-05 2.31494E-07-2.72911E-19-5.89252E-18
 -1      1385 9.62147E-05-2.88436E-05-2.88712E-05 2.45988E-07 1.23286E-19-5.75371E-18
 -1      1386 9.59360E-05-2.87513E-05-2.87975E-05 4.06935E-07-4.77124E-19-3.92792E-18
 -1      1387 9.64528E-05-2.89103E-05-2.89457E-05 3.23887E-07 4.97109E-19-5.55641E-18
 -1      1388 9.67617E-05-2.89998E-05-2.90382E-05 3.44049E-07 3.87380E-19-5.11575E-18
 -1      1389 9.63381E-05-2.88598E-05-2.89249E-05 5.67464E-07 2.34676E-19-3.85961E-18
 -1      1390 9.70865E-05-2.90907E-05-2.91400E-05 4.50695E-07 4.46813E-19-5.50376E-18
 -1      1391 9.75187E-05-2.92167E-05-2.92691E-05 4.78303E-07 4.63041E-19-4.94069E-18
 -1      1392 9.68864E-05-2.90083E-05-2.90982E-05 7.88829E-07 4.74415E-19-3.95581E-18
 -1      1393 9.79592E-05-2.93396E-05-2.94075E-05 6.22321E-07-1.68928E-19-5.56714E-18
 -1      1394 9.85591E-05-2.95155E-05-2.95864E-05 6.59726E-07-3.13609E-19-5.69460E-18
 -1      1395 9.76303E-05-2.92105E-05-2.93328E-05 1.08910E-06-2.40614E-19-4.55413E-18
 -1      1396 9.91513E-05-2.96803E-05-2.97730E-05 8.51995E-07 3.63144E-19-5.40285E-18
 -1      1397 9.99767E-05-2.99235E-05-3.00188E-05 9.02218E-07 3.09294E-19-5.17523E-18
 -1      1398 9.86323E-05-2.94834E-05-2.96485E-05 1.49139E-06 1.77917E-19-4.69231E-18
 -1      1399 1.00765E-04-3.01426E-05-3.02679E-05 1.15559E-06 2.05452E-19-4.51618E-18
 -1      1400 1.01890E-04-3.04760E-05-3.06025E-05 1.22228E-06 5.57831E-19-3.69570E-18
 -1      1401 9.99697E-05-2.98488E-05-3.00690E-05 2.02382E-06 8.46265E-19-3.62355E-18
 -1      1402 1.02928E-04-3.07640E-05-3.09312E-05 1.54990E-06 2.61965E-19-3.71147E-18
 -1      1403 1.04443E-04-3.12165E-05-3.13810E-05 1.63689E-06 9.20553E-20-3.43727E-18
 -1      1404 1.01736E-04-3.03342E-05-3.06229E-05 2.71728E-06 6.14059E-19-3.15196E-18
 -1      1405 1.05788E-04-3.15904E-05-3.18075E-05 2.04725E-06-2.93378E-19-3.31886E-18
 -1      1406 1.07796E-04-3.21962E-05-3.24017E-05 2.15715E-06-3.17379E-19-3.06040E-18
 -1      1407 1.04038E-04-3.09735E-05-3.13414E-05 3.59785E-06-4.40649E-19-3.06184E-18
 -1      1408 1.09502E-04-3.26741E-05-3.29420E-05 2.64237E-06-1.98272E-19-3.41566E-18
 -1      1409 1.12094E-04-3.34687E-05-3.37051E-05 2.77292E-06-2.40303E-19-3.93764E-18
 -1      1410 1.06987E-04-3.18094E-05-3.22533E-05 4.66777E-06-6.24151E-19-2.64071E-18
 -1      1411 1.14191E-04-3.40673E-05-3.43640E-05 3.28450E-06-3.00971E-19-3.48030E-18
 -1      1412 1.17399E-04-3.50742E-05-3.52984E-05 3.42057E-06-2.26945E-19-4.10753E-18
 -1      1413 1.10672E-04-3.28933E-05-3.33731E-05 5.86416E-06-1.52645E-19-2.14188E-18
 -1      1414 1.19851E-04-3.58027E-05-3.60531E-05 3.82560E-06 1.81728E-19-3.11367E-18
 -1      1415 1.23532E-04-3.70033E-05-3.71041E-05 3.92388E-06 4.89296E-19-2.72832E-18
 -1      1416 1.15112E-04-3.42846E-05-3.46784E-05 6.98078E-06 2.67403E-19-1.09239E-18
 -1      1417 1.26177E-04-3.78513E-05-3.78785E-05 3.94286E-06 6.46564E-19-2.33061E-18
 -1      1418 1.29829E-04-3.91222E-05-3.88798E-05 3.90855E-06 5.70506E-19-1.74081E-18
 -1      1419 1.20158E-04-3.60367E-05-3.60732E-05 7.54434E-06 1.11399E-18-6.95917E-19
 -1      1420 1.32283E-04-4.00298E-05-3.95175E-05 3.07357E-06 9.56035E-19-1.50782E-18
 -1      1421 1.34806E-04-4.10425E-05-4.01396E-05 2.74578E-06 8.35122E-19-3.73846E-19
 -1      1422 1.25348E-04-3.81413E-05-3.73484E-05 6.68449E-06 9.95839E-19-1.28255E-18
 -1      1423 1.36386E-04-4.18345E-05-4.04075E-05 5.08335E-07-1.06938E-19-6.57073E-19
 -1      1424 1.36024E-04-4.19612E-05-4.01850E-05-2.90469E-07-1.04039E-19-3.80477E-19
 -1      1425 1.29708E-04-4.03637E-05-3.81755E-05 3.18238E-06 3.76691E-19-7.20891E-19
 -1      1426 1.35760E-04-4.22310E-05-3.98615E-05-4.04983E-06 4.57398E-20 1.58925E-19
 -1      1427 1.30705E-04-4.06511E-05-3.84240E-05-5.28343E-06 4.32728E-19 2.22134E-19
 -1      1428 1.31586E-04-4.19050E-05-3.82108E-05-3.87475E-06-6.08805E-21 1.69714E-19
 -1      1429 1.27722E-04-3.97660E-05-3.74905E-05-9.29807E-06-9.60853E-20-3.08532E-19
 -1      1430 1.17863E-04-3.61243E-05-3.50022E-05-1.03392E-05-2.13307E-19-2.53475E-19
 -1      1431 1.28907E-04-4.11937E-05-3.73415E-05-1.33666E-05 4.93767E-19 4.94826E-19
 -1      1432 1.12447E-04-3.38235E-05-3.37847E-05-1.16091E-05 6.68971E-19 3.13826E-19
 -1      1433 1.01305E-04-2.93477E-05-3.11726E-05-1.13368E-05 6.86785E-19 1.12126E-18
 -1      1434 1.20666E-04-3.68286E-05-3.59013E-05-2.02836E-05 4.10030E-19 3.19093E-19
 -1      1435 9.61337E-05-2.69139E-05-3.01683E-05-7.48726E-06 3.15096E-19 4.40351E-19
 -1      1436 8.98813E-05-2.43535E-05-2.87032E-05-5.58966E-06-3.16049E-19 7.58942E-19
 -1      1437 1.09712E-04-3.02889E-05-3.44634E-05-1.75031E-05 3.47866E-19-5.58195E-19
 -1      1438 8.84578E-05-2.38755E-05-2.83145E-05 9.71099E-07-8.43857E-19 1.48179E-18
 -1      1439 9.02869E-05-2.48673E-05-2.85860E-05 2.86139E-06-1.40247E-18 8.09869E-19
 -1      1440 1.02850E-04-2.63654E-05-3.34719E-05-4.53517E-06-3.03238E-19-6.09202E-19
 -1      1441 9.26913E-05-2.64755E-05-2.87669E-05 7.46125E-06-8.35122E-19 8.50633E-19
 -1      1442 1.00211E-04-2.98051E-05-3.03278E-05 8.02344E-06-4.57133E-20 4.75185E-19
 -1      1443 1.04047E-04-2.81114E-05-3.30379E-05 9.37886E-06-1.56436E-18-4.55730E-19
 -1      1444 1.03530E-04-3.15896E-05-3.08347E-05 7.55914E-06 9.01693E-20 1.11575E-18
 -1      1445 1.10741E-04-3.44983E-05-3.24958E-05 6.67606E-06 9.72434E-20 1.14053E-18
 -1      1446 1.10337E-04-3.32242E-05-3.30872E-05 1.41346E-05 2.65121E-19 2.90982E-19
 -1      1447 1.12050E-04-3.50090E-05-3.28351E-05 3.01001E-06 3.88047E-19-8.42798E-20
 -1      1448 1.14899E-04-3.59533E-05-3.35943E-05 1.76974E-06-2.31227E-19-1.59877E-19
 -1      1449 1.15039E-04-3.68081E-05-3.33033E-05 8.60833E-06-6.89855E-19 6.49621E-19
 -1      1450 1.13630E-04-3.52404E-05-3.34367E-05-1.86497E-06-9.31697E-19-2.16933E-19
 -1      1451 1.11959E-04-3.44266E-05-3.30896E-05-2.66652E-06-1.65621E-18-1.57680E-18
 -1      1452 1.14648E-04-3.67778E-05-3.31577E-05-4.11239E-07-9.03784E-19-4.86283E-19
 -1      1453 1.09100E-04-3.31567E-05-3.24924E-05-4.43405E-06-7.14069E-19-1.48400E-18
 -1      1454 1.05144E-04-3.15502E-05-3.15257E-05-4.58477E-06-9.22571E-20-3.01808E-18
 -1      1455 1.09958E-04-3.41771E-05-3.23878E-05-6.84126E-06-1.28603E-18-4.56260E-19
 -1      1456 1.01963E-04-3.02041E-05-3.08150E-05-4.11491E-06-6.85554E-19-2.86710E-18
 -1      1457 9.85665E-05-2.88185E-05-2.99074E-05-3.50321E-06-1.08034E-18-3.53300E-18
 -1      1458 1.03471E-04-3.07309E-05-3.12269E-05-8.31237E-06-1.17376E-18-1.02087E-18
 -1      1459 9.66737E-05-2.80792E-05-2.95101E-05-1.98264E-06-3.96693E-19-3.72521E-18
 -1      1460 9.56730E-05-2.79046E-05-2.89263E-05-1.25218E-06 1.85830E-18-1.89384E-18
 -1      1461 9.54098E-05-2.68387E-05-2.95815E-05-1.87521E-06 5.03487E-18-3.72039E-19
 -1      1462 9.82281E-05-2.80107E-05-3.02334E-05-5.70049E-06-6.02810E-19-7.33583E-19
 -1      1463 9.65886E-05-2.83662E-05-2.97750E-05 2.99343E-06 1.29861E-18 1.15763E-17
 -1      1464 1.02549E-04-2.94027E-05-3.21596E-05 4.46359E-06 1.18701E-18 1.36374E-17
 -1      1465 1.02338E-04-2.67201E-05-3.27094E-05 1.27840E-05 2.29699E-18 9.01614E-18
 -1      1466 9.20334E-05-2.74235E-05-2.77635E-05 1.14701E-06 9.35958E-19 9.18917E-18
 -1      1467 9.39919E-05-2.75879E-05-2.86780E-05 1.47943E-06 9.00330E-19 1.06072E-17
 -1      1468 9.65019E-05-2.80403E-05-2.95370E-05 4.87886E-06 1.93388E-18 7.10116E-18
 -1      1469 9.02085E-05-2.70018E-05-2.70671E-05 3.25428E-07 6.22887E-19 7.22887E-18
 -1      1470 9.08329E-05-2.70304E-05-2.73380E-05 4.95090E-07 6.30583E-19 8.32718E-18
 -1      1471 9.30500E-05-2.75970E-05-2.81056E-05 1.84024E-06 1.46185E-18 5.52647E-18
 -1      1472 8.96955E-05-2.68850E-05-2.68934E-05-5.54149E-08 4.67860E-19 5.96261E-18
 -1      1473 8.97440E-05-2.68347E-05-2.69204E-05 3.75319E-08 4.95054E-19 6.73725E-18
 -1      1474 9.15081E-05-2.73481E-05-2.75217E-05 4.73799E-07 1.09869E-18 4.21672E-18
 -1      1475 8.98319E-05-2.69422E-05-2.69357E-05-2.43261E-07 2.62504E-19 5.06755E-18
 -1      1476 8.96073E-05-2.68396E-05-2.68703E-05-1.92246E-07 2.85026E-19 5.54833E-18
 -1      1477 9.09723E-05-2.72528E-05-2.73249E-05-1.73305E-07 7.42884E-19 3.51290E-18
 -1      1478 9.02880E-05-2.70875E-05-2.70743E-05-3.26243E-07 2.39517E-19 4.27498E-18
 -1      1479 8.99409E-05-2.69613E-05-2.69725E-05-2.99080E-07 2.22588E-19 4.65994E-18
 -1      1480 9.09929E-05-2.72879E-05-2.73135E-05-4.81725E-07 5.20497E-19 2.92695E-18
 -1      1481 9.08847E-05-2.72715E-05-2.72541E-05-3.50598E-07 4.12549E-19 3.43477E-18
 -1      1482 9.04953E-05-2.71401E-05-2.71403E-05-3.38041E-07 2.45138E-19 3.96363E-18
 -1      1483 9.12992E-05-2.73946E-05-2.73951E-05-6.13800E-07 5.19174E-19 2.10577E-18
 -1      1484 9.15197E-05-2.74647E-05-2.74452E-05-3.41234E-07 5.05858E-19 2.52060E-18
 -1      1485 9.11325E-05-2.73390E-05-2.73320E-05-3.37735E-07 4.95614E-19 3.35808E-18
 -1      1486 9.17411E-05-2.75352E-05-2.75211E-05-6.46131E-07 6.91384E-19 1.80821E-18
 -1      1487 9.21339E-05-2.76501E-05-2.76302E-05-3.13185E-07 2.21757E-19 1.92241E-18
 -1      1488 9.17738E-05-2.75361E-05-2.75248E-05-3.15186E-07 1.67532E-19 2.34654E-18
 -1      1489 9.22293E-05-2.76855E-05-2.76636E-05-6.21421E-07 5.89564E-19 1.38222E-18
 -1      1490 9.26951E-05-2.78185E-05-2.77996E-05-2.75956E-07 2.97470E-19 1.54993E-18
 -1      1491 9.23746E-05-2.77189E-05-2.77055E-05-2.81098E-07 3.03667E-19 1.85331E-18
 -1      1492 9.27113E-05-2.78315E-05-2.78062E-05-5.65634E-07 4.29151E-19 1.05336E-18
 -1      1493 9.31876E-05-2.79657E-05-2.79485E-05-2.35651E-07 4.13960E-19 9.61053E-19
 -1      1494 9.29118E-05-2.78812E-05-2.78673E-05-2.42353E-07 2.07247E-19 1.16750E-18
 -1      1495 9.31573E-05-2.79650E-05-2.79392E-05-4.95232E-07 5.99344E-19 5.84656E-19
 -1      1496 9.36069E-05-2.80905E-05-2.80754E-05-1.96157E-07 1.36231E-19 5.66735E-19
 -1      1497 9.33758E-05-2.80206E-05-2.80073E-05-2.03365E-07 2.97869E-19 8.34652E-19
 -1      1498 9.35526E-05-2.80822E-05-2.80578E-05-4.20777E-07 4.42293E-19 3.66213E-19
 -1      1499 9.39553E-05-2.81938E-05-2.81811E-05-1.59890E-07-5.31393E-20 6.31619E-19
 -1      1500 9.37660E-05-2.81373E-05-2.81252E-05-1.66909E-07-2.39781E-19 4.00506E-19
 -1      1501 9.38920E-05-2.81822E-05-2.81602E-05-3.48983E-07 3.13042E-20 1.29781E-19
 -1      1502 9.42395E-05-2.82778E-05-2.82674E-05-1.28301E-07 3.56305E-19-2.77697E-20
 -1      1503 9.40871E-05-2.82328E-05-2.82223E-05-1.34676E-07 4.12284E-19 7.00623E-19
 -1      1504 9.41766E-05-2.82654E-05-2.82465E-05-2.84020E-07 1.10505E-19-1.30616E-19
 -1      1505 9.44688E-05-2.83453E-05-2.83372E-05-1.02239E-07 1.56126E-19-7.18641E-19
 -1      1506 9.43476E-05-2.83098E-05-2.83012E-05-1.07671E-07 3.75599E-19-6.19194E-20
 -1      1507 9.44117E-05-2.83335E-05-2.83181E-05-2.28416E-07 7.06519E-19-1.23047E-19
 -1      1508 9.46543E-05-2.83997E-05-2.83938E-05-8.22187E-08 3.20551E-19-1.34824E-18
 -1      1509 9.45576E-05-2.83716E-05-2.83650E-05-8.64969E-08 1.54214E-19-9.79109E-19
 -1      1510 9.46050E-05-2.83891E-05-2.83773E-05-1.83701E-07 5.19105E-19-6.39773E-19
 -1      1511 9.48081E-05-2.84445E-05-2.84409E-05-6.86259E-08 3.05709E-19-2.15839E-18
 -1      1512 9.47291E-05-2.84216E-05-2.84172E-05-7.15753E-08 4.70946E-19-1.44708E-18
 -1      1513 9.47660E-05-2.84350E-05-2.84269E-05-1.50888E-07 4.69249E-19-1.46359E-18
 -1      1514 9.49432E-05-2.84836E-05-2.84823E-05-6.18615E-08-9.92749E-21-2.41507E-18
 -1      1515 9.48745E-05-2.84637E-05-2.84616E-05-6.33041E-08 2.15715E-19-2.35027E-18
 -1      1516 9.49055E-05-2.84744E-05-2.84702E-05-1.30825E-07 4.40882E-19-1.11341E-18
 -1      1517 9.50738E-05-2.85214E-05-2.85224E-05-6.24431E-08-1.86456E-19-2.23412E-18
 -1      1518 9.50076E-05-2.85018E-05-2.85023E-05-6.21683E-08-4.65591E-19-2.62805E-18
 -1      1519 9.50354E-05-2.85107E-05-2.85107E-05-1.24450E-07-1.85143E-19-1.48775E-18
 -1      1520 9.52154E-05-2.85623E-05-2.85658E-05-7.10572E-08-1.81342E-19-1.47416E-18
 -1      1521 9.51432E-05-2.85405E-05-2.85438E-05-6.88025E-08-2.16645E-19-1.65022E-18
 -1      1522 9.51686E-05-2.85478E-05-2.85523E-05-1.32941E-07-6.24137E-19-1.65720E-18
 -1      1523 9.53849E-05-2.86115E-05-2.86176E-05-8.85559E-08 6.71299E-20-1.46849E-18
 -1      1524 9.52972E-05-2.85844E-05-2.85910E-05-8.40014E-08 2.38271E-19-1.08911E-18
 -1      1525 9.53195E-05-2.85899E-05-2.85995E-05-1.57773E-07 4.12813E-20-1.44987E-18
 -1      1526 9.56010E-05-2.86745E-05-2.86835E-05-1.15883E-07 2.18816E-19-2.31592E-18
 -1      1527 9.54876E-05-2.86389E-05-2.86492E-05-1.08663E-07 2.23685E-19-1.54619E-18
 -1      1528 9.55038E-05-2.86418E-05-2.86569E-05-2.00647E-07 5.24977E-19-1.23778E-18
 -1      1529 9.58842E-05-2.87575E-05-2.87697E-05-1.53898E-07 1.17235E-19-2.38340E-18
 -1      1530 9.57336E-05-2.87097E-05-2.87243E-05-1.43637E-07 2.09906E-19-2.29083E-18
 -1      1531 9.57387E-05-2.87085E-05-2.87298E-05-2.63256E-07 4.43078E-19-1.43073E-18
 -1      1532 9.62561E-05-2.88671E-05-2.88825E-05-2.03061E-07-4.24275E-19-1.18315E-18
 -1      1533 9.60563E-05-2.88033E-05-2.88224E-05-1.89454E-07-7.36081E-19-2.29211E-18
 -1      1534 9.60422E-05-2.87956E-05-2.88234E-05-3.46815E-07-5.70230E-19-1.20340E-18
 -1      1535 9.67378E-05-2.90099E-05-2.90281E-05-2.62921E-07 2.58304E-19-7.52906E-19
 -1      1536 9.64768E-05-2.89263E-05-2.89500E-05-2.45862E-07 2.48165E-19-3.57705E-19
 -1      1537 9.64328E-05-2.89090E-05-2.89431E-05-4.51287E-07-5.73754E-19-9.77947E-19
 -1      1538 9.73475E-05-2.91918E-05-2.92118E-05-3.31350E-07 1.86576E-19-1.64018E-18
 -1      1539 9.70151E-05-2.90850E-05-2.91127E-05-3.11142E-07 4.16507E-19-9.44240E-19
 -1      1540 9.69271E-05-2.90543E-05-2.90936E-05-5.74172E-07 7.37288E-19-7.12945E-19
 -1      1541 9.80957E-05-2.94164E-05-2.94364E-05-4.03458E-07-1.88680E-20-2.20502E-18
 -1      1542 9.76859E-05-2.92847E-05-2.93147E-05-3.81126E-07-8.85894E-20-2.06932E-18
 -1      1543 9.75373E-05-2.92361E-05-2.92779E-05-7.08778E-07 3.74783E-19-1.70419E-18
 -1      1544 9.89785E-05-2.96836E-05-2.97001E-05-4.70187E-07-1.32914E-19-1.92095E-18
 -1      1545 9.84936E-05-2.95278E-05-2.95568E-05-4.47912E-07-3.76110E-19-2.18737E-18
 -1      1546 9.82658E-05-2.94567E-05-2.94959E-05-8.41902E-07-1.80063E-19-1.65273E-18
 -1      1547 9.99673E-05-2.99859E-05-2.99936E-05-5.16699E-07-2.68342E-19-1.47014E-18
 -1      1548 9.94240E-05-2.98119E-05-2.98340E-05-4.98352E-07-3.53345E-19-1.89067E-18
 -1      1549 9.90991E-05-2.97143E-05-2.97422E-05-9.51026E-07-1.92684E-19-1.43442E-18
 -1      1550 1.00997E-04-3.03052E-05-3.02961E-05-5.20913E-07-2.28122E-19-1.37222E-18
 -1      1551 1.00433E-04-3.01258E-05-3.01319E-05-5.12621E-07 5.24412E-21-1.65096E-18
 -1      1552 9.99986E-05-2.99998E-05-3.00034E-05-1.00149E-06-3.91275E-19-1.15209E-18
 -1      1553 1.01950E-04-3.06079E-05-3.05717E-05-4.53050E-07 1.40737E-20-1.81860E-18
 -1      1554 1.01435E-04-3.04461E-05-3.04236E-05-4.63570E-07 7.33792E-20-1.10009E-18
 -1      1555 1.00890E-04-3.02938E-05-3.02555E-05-9.44727E-07-1.06485E-19-5.86357E-19
 -1      1556 1.02648E-04-3.08408E-05-3.07659E-05-2.77732E-07 1.11074E-20-9.53111E-19
 -1      1557 1.02286E-04-3.07318E-05-3.06651E-05-3.18171E-07-2.05366E-19-1.43689E-18
 -1      1558 1.01653E-04-3.05625E-05-3.04608E-05-7.19803E-07-4.31524E-19-5.19029E-19
 -1      1559 1.02848E-04-3.09291E-05-3.08062E-05 3.90627E-08-8.99046E-20-2.71457E-19
 -1      1560 1.02781E-04-3.09210E-05-3.07944E-05-4.30877E-08-2.21066E-19-8.13403E-19
 -1      1561 1.02116E-04-3.07535E-05-3.05677E-05-2.61643E-07-4.38922E-19-6.41793E-19
 -1      1562 1.02257E-04-3.07809E-05-3.06089E-05 5.15677E-07 8.42765E-20-8.17327E-19
 -1      1563 1.02655E-04-3.09301E-05-3.07341E-05 3.83348E-07 4.74332E-19 2.51455E-19
 -1      1564 1.02062E-04-3.07951E-05-3.05138E-05 4.79608E-07 2.27812E-19-5.43488E-19
 -1      1565 1.00596E-04-3.03016E-05-3.00964E-05 1.13250E-06 7.45932E-19-1.88573E-18
 -1      1566 1.01618E-04-3.06612E-05-3.04027E-05 9.51714E-07 3.96332E-19-9.07040E-19
 -1      1567 1.01252E-04-3.06015E-05-3.02361E-05 1.50525E-06 5.58526E-19-2.60775E-19
 -1      1568 9.76882E-05-2.94241E-05-2.92267E-05 1.80715E-06 9.54159E-19-3.57252E-18
 -1      1569 9.94282E-05-3.00234E-05-2.97367E-05 1.59828E-06 4.84506E-19-2.78416E-18
 -1      1570 9.94859E-05-3.00888E-05-2.96889E-05 2.72463E-06 1.48728E-18-1.44291E-18
 -1      1571 9.35928E-05-2.81528E-05-2.80282E-05 2.38298E-06-5.51620E-19-4.24829E-18
 -1      1572 9.60012E-05-2.89705E-05-2.87224E-05 2.19020E-06 9.31670E-20-3.86162E-18
 -1      1573 9.66927E-05-2.92085E-05-2.88680E-05 3.92010E-06 6.58786E-19-1.67936E-18
 -1      1574 8.87183E-05-2.66073E-05-2.66260E-05 2.65464E-06 5.11594E-19-2.74132E-18
 -1      1575 9.15405E-05-2.75501E-05-2.74280E-05 2.53983E-06 9.04274E-20-3.26436E-18
 -1      1576 9.30318E-05-2.79926E-05-2.78339E-05 4.75597E-06-4.13868E-19-1.84563E-18
 -1      1577 8.38341E-05-2.50361E-05-2.52382E-05 2.44550E-06 3.30444E-19-3.42982E-18
 -1      1578 8.66121E-05-2.59414E-05-2.60187E-05 2.46528E-06 5.13686E-19-3.20845E-18
 -1      1579 8.89603E-05-2.65917E-05-2.67188E-05 4.86887E-06 6.16953E-19-2.05683E-19
 -1      1580 7.99072E-05-2.37672E-05-2.41264E-05 1.71342E-06-4.56405E-19-3.05952E-18
 -1      1581 8.20841E-05-2.44427E-05-2.47337E-05 1.88603E-06-4.72039E-19-4.30303E-18
 -1      1582 8.51890E-05-2.52698E-05-2.57068E-05 4.03668E-06-8.77407E-20-1.62321E-18
 -1      1583 7.77759E-05-2.30926E-05-2.35111E-05 6.16500E-07-5.10536E-19-1.60913E-18
 -1      1584 7.88868E-05-2.33867E-05-2.38221E-05 9.00837E-07-9.03599E-19-2.51047E-18
 -1      1585 8.24893E-05-2.43309E-05-2.49841E-05 2.34593E-06-1.50127E-18-1.26068E-18
 -1      1586 7.78076E-05-2.31386E-05-2.34901E-05-5.31766E-07-2.56036E-19-7.13718E-19
 -1      1587 7.76676E-05-2.30064E-05-2.34570E-05-2.23061E-07 2.29427E-19-1.23861E-18
 -1      1588 8.14047E-05-2.39915E-05-2.46774E-05 2.26078E-07-6.65589E-19-4.00339E-19
 -1      1589 7.97567E-05-2.38100E-05-2.40066E-05-1.41499E-06 1.39866E-18-1.74997E-18
 -1      1590 7.85279E-05-2.33292E-05-2.36717E-05-1.16940E-06 5.18867E-19-1.04548E-18
 -1      1591 8.20245E-05-2.42782E-05-2.48105E-05-1.72519E-06 9.60674E-19-8.77725E-19
 -1      1592 8.29274E-05-2.48547E-05-2.48860E-05-1.86824E-06 1.38401E-18-4.01936E-18
 -1      1593 8.10170E-05-2.41793E-05-2.43560E-05-1.72985E-06 1.30383E-18-1.93454E-18
 -1      1594 8.39724E-05-2.50240E-05-2.53029E-05-3.03523E-06 2.11427E-18-1.87082E-18
 -1      1595 8.65180E-05-2.59974E-05-2.59147E-05-1.92310E-06-7.34632E-19-4.54444E-18
 -1      1596 8.43819E-05-2.52823E-05-2.53129E-05-1.88128E-06 3.30858E-19-3.62557E-18
 -1      1597 8.66187E-05-2.59684E-05-2.60093E-05-3.55626E-06 9.07747E-19-8.23303E-19
 -1      1598 8.99090E-05-2.70479E-05-2.69076E-05-1.71998E-06 1.40765E-19-3.64865E-18
 -1      1599 8.78976E-05-2.63985E-05-2.63362E-05-1.73587E-06-3.69697E-19-4.12664E-18
 -1      1600 8.93625E-05-2.68935E-05-2.67733E-05-3.43868E-06-4.38565E-19-1.23229E-18
 -1      1601 9.27100E-05-2.79193E-05-2.77242E-05-1.35442E-06 8.46904E-19-5.40731E-18
 -1      1602 9.10592E-05-2.73975E-05-2.72605E-05-1.40963E-06 7.84750E-19-4.25401E-18
 -1      1603 9.17971E-05-2.76953E-05-2.74620E-05-2.91097E-06 1.36365E-18-1.88884E-18
 -1      1604 9.45947E-05-2.85562E-05-2.82619E-05-7.71103E-07-6.76177E-19-5.71466E-18
 -1      1605 9.35610E-05-2.82387E-05-2.79645E-05-8.84605E-07-2.81758E-19-5.74756E-18
 -1      1606 9.37378E-05-2.84047E-05-2.79739E-05-2.03649E-06 2.93530E-19-2.56015E-18
 -1      1607 9.50838E-05-2.87829E-05-2.83578E-05-2.26661E-07-3.51679E-18-4.04123E-18
 -1      1608 9.57465E-05-3.05981E-05-2.78922E-05-1.23491E-06-2.90387E-18 2.36451E-18
 -1      1609 9.53331E-05-2.95412E-05-2.81702E-05-1.06759E-06-4.49649E-18 1.04985E-18
 -1      1610 9.65275E-05-3.25080E-05-2.74280E-05-1.28217E-06-1.52540E-18 3.48849E-19
 -1      1611 9.60532E-05-3.13198E-05-2.77278E-05-1.29765E-06-2.24398E-18 6.66287E-19
 -1      1612 9.58214E-05-3.06034E-05-2.79291E-05-2.33192E-06-7.88270E-19 2.34109E-18
 -1      1613 9.70841E-05-3.35729E-05-2.72271E-05-5.27439E-07 2.57816E-20 5.10059E-19
 -1      1614 9.67946E-05-3.30123E-05-2.73386E-05-7.39553E-07-1.05519E-18 2.37061E-18
 -1      1615 9.65390E-05-3.18938E-05-2.77416E-05-1.84245E-06 1.73357E-19 1.77183E-18
 -1      1616 9.69662E-05-3.24819E-05-2.76649E-05 1.07294E-06 2.34069E-18 1.31727E-19
 -1      1617 9.71352E-05-3.33633E-05-2.73591E-05 6.90539E-07 7.69582E-19-3.47197E-19
 -1      1618 9.70953E-05-3.23280E-05-2.78409E-05 2.64607E-07 5.45430E-19 1.17109E-18
 -1      1619 9.57907E-05-2.80937E-05-2.90648E-05 3.41146E-06 5.13418E-18 3.28014E-19
 -1      1620 9.66728E-05-3.11165E-05-2.81549E-05 2.88133E-06 3.16172E-18 1.46309E-18
 -1      1621 9.70463E-05-3.09457E-05-2.84600E-05 3.87301E-06 2.58682E-18 1.62141E-18
 -1      1622 9.32363E-05-1.97552E-05-3.15554E-05 6.06140E-06 5.21846E-18-4.03982E-19
 -1      1623 9.49855E-05-2.52212E-05-2.99849E-05 5.49950E-06 5.15274E-18-8.13019E-20
 -1      1624 9.60179E-05-2.69260E-05-2.97713E-05 8.56955E-06 1.86146E-18 2.55195E-19
 -1      1625 8.94007E-05-8.20204E-06-3.48449E-05 8.07388E-06 4.59918E-18 4.40060E-20
 -1      1626 9.18712E-05-1.54678E-05-3.28265E-05 7.72024E-06 5.26145E-18-6.77520E-19
 -1      1627 9.36568E-05-1.99089E-05-3.17482E-05 1.31487E-05 3.75807E-18-4.31802E-19
 -1      1628 8.48240E-05 4.74179E-06-3.83681E-05 8.26871E-06 2.26602E-18-1.52980E-18
 -1      1629 8.75654E-05-2.96435E-06-3.62872E-05 8.39638E-06 3.36632E-18 5.57983E-20
 -1      1630 8.99787E-05-1.04041E-05-3.41455E-05 1.56778E-05 2.64176E-18-1.65948E-18
 -1      1631 8.09903E-05 1.50962E-05-4.10831E-05 5.74176E-06 9.80970E-19-2.00164E-19
 -1      1632 8.30490E-05 9.48501E-06-3.95971E-05 6.49893E-06 1.35832E-18-9.56512E-19
 -1      1633 8.56714E-05-2.62358E-07-3.64704E-05 1.40372E-05 1.84163E-18-1.98928E-18
 -1      1634 7.94846E-05 1.90772E-05-4.21027E-05 1.07546E-06 1.00912E-18 1.21266E-18
 -1      1635 8.00089E-05 1.76308E-05-4.17185E-05 2.18539E-06-2.65307E-19 6.13067E-19
 -1      1636 8.23371E-05 7.21201E-06-3.80769E-05 7.55363E-06-5.57189E-20-8.57091E-19
 -1      1637 8.09372E-05 1.52886E-05-4.11348E-05-4.00381E-06 5.11714E-19 3.01226E-19
 -1      1638 7.97347E-05 1.85001E-05-4.19718E-05-2.99366E-06 1.66590E-18-9.27448E-19
 -1      1639 8.14518E-05 9.24329E-06-3.85258E-05-1.80587E-06-5.84565E-19 1.52940E-18
 -1      1640 8.46674E-05 5.29074E-06-3.85338E-05-7.33287E-06 1.76797E-18 4.68780E-19
 -1      1641 8.22802E-05 1.18495E-05-4.02770E-05-6.86490E-06 1.17499E-18 1.83123E-18
 -1      1642 8.34141E-05 5.07561E-06-3.76938E-05-1.02993E-05 3.22984E-19 8.50474E-19
 -1      1643 8.90728E-05-7.06529E-06-3.52085E-05-8.01076E-06 2.24294E-18 9.59809E-19
 -1      1644 8.64343E-05 4.65818E-07-3.72536E-05-8.12862E-06 1.60777E-18 8.16631E-19
 -1      1645 8.71857E-05-3.38040E-06-3.58684E-05-1.46597E-05 7.83082E-19 4.99174E-19
 -1      1646 9.28626E-05-1.80559E-05-3.21604E-05-6.48766E-06 2.96753E-18 7.82804E-19
 -1      1647 9.06515E-05-1.17164E-05-3.39047E-05-7.03903E-06 2.22341E-18 1.11120E-18
 -1      1648 9.11503E-05-1.29254E-05-3.36305E-05-1.43150E-05-1.10644E-19 6.79552E-19
 -1      1649 9.49178E-05-2.46964E-05-3.01820E-05-3.91264E-06 3.87868E-18 1.37246E-19
 -1      1650 9.34866E-05-2.06695E-05-3.13460E-05-4.63640E-06 3.29326E-18 6.84072E-19
 -1      1651 9.37982E-05-1.99959E-05-3.17692E-05-1.08093E-05 3.57792E-19 1.32719E-19
 -1      1652 9.56063E-05-2.47679E-05-3.04520E-05-6.25498E-06 4.13648E-19-5.87166E-19
 -1      1653 2.49487E-05-8.26766E-05 1.76013E-05-7.61651E-06-2.58430E-18 1.44207E-18
 -1      1654 2.93865E-05-9.51483E-05 2.00537E-05 2.75517E-06-4.13627E-18-6.16216E-20
 -1      1655 2.50979E-05-4.84476E-05 5.61560E-06 6.27921E-06-1.29088E-18-2.41870E-18
 -1      1656 3.00588E-05-7.41426E-05 1.23787E-05 1.98244E-06-1.09606E-18 2.47175E-19
 -1      1657 3.66046E-05-1.52038E-05-1.11218E-05 2.91532E-05-3.14588E-18-1.60597E-18
 -1      1658 3.22099E-05-4.00388E-05-1.60501E-06 1.04358E-05-2.40557E-18-1.84441E-18
 -1      1659 7.72116E-05-2.00872E-06-3.13721E-05 6.33745E-05-2.49705E-18-3.86162E-18
 -1      1660 5.25000E-05-9.85225E-06-2.07360E-05 3.83355E-05-2.76641E-18-2.45301E-18
 -1      1661 1.48885E-04-1.93920E-05-5.18593E-05 7.97179E-05-2.12055E-18-1.44504E-18
 -1      1662 1.06742E-04-8.81618E-06-4.13821E-05 6.52300E-05-2.51992E-18-2.68848E-18
 -1      1663 2.14783E-04-4.10383E-05-6.84088E-05 7.70691E-05-1.30020E-18-1.78893E-18
 -1      1664 1.70210E-04-1.97011E-05-6.09440E-05 8.39869E-05-2.20313E-18-2.42082E-18
 -1      1665 2.60436E-04-6.34135E-05-7.78097E-05 3.70630E-05 1.19643E-19-4.42278E-18
 -1      1666 2.32242E-04-4.75814E-05-7.37071E-05 6.45625E-05-4.12770E-19-3.46267E-18
 -1      1667 2.64597E-04-6.47840E-05-7.92998E-05-1.81961E-05 2.29504E-18-9.24600E-18
 -1      1668 2.65470E-04-6.49850E-05-7.95375E-05 1.99573E-05 1.42217E-18-6.44550E-18
 -1      1669 2.29361E-04-4.70034E-05-7.29366E-05-6.45469E-05 3.93600E-18-1.19982E-17
 -1      1670 2.60304E-04-6.40482E-05-7.74152E-05-3.68692E-05 2.61998E-18-1.04363E-17
 -1      1671 1.64238E-04-2.03960E-05-5.88459E-05-7.67764E-05 6.19943E-18-1.11165E-17
 -1      1672 2.08057E-04-4.04844E-05-6.66021E-05-7.11739E-05 4.74211E-18-1.12418E-17
 -1      1673 1.01553E-04-3.61781E-06-4.15835E-05-6.76241E-05 6.54926E-18-1.06328E-17
 -1      1674 1.40340E-04-1.44622E-05-5.07910E-05-8.06221E-05 6.30108E-18-1.23336E-17
 -1      1675 5.41928E-05-8.08873E-06-2.19838E-05-3.96978E-05 6.66869E-18-7.44288E-18
 -1      1676 7.92051E-05-2.06350E-06-3.22400E-05-6.29726E-05 7.15658E-18-9.27670E-18
 -1      1677 2.96550E-05-3.26596E-05-3.27699E-06-1.17441E-05 3.99122E-18-3.46182E-18
 -1      1678 3.53728E-05-1.04248E-05-1.25122E-05-3.05122E-05 5.56077E-18-5.69884E-18
 -1      1679 2.62582E-05-6.49463E-05 1.05633E-05-7.41616E-07-3.55754E-19-2.03537E-18
 -1      1680 2.17668E-05-4.08755E-05 4.09059E-06-5.26750E-06 2.26835E-18-2.54004E-18
 -1      1681 2.67814E-05-8.64039E-05 1.85667E-05-3.48825E-06-5.52689E-18-2.19614E-18
 -1      1682 2.22578E-05-7.22874E-05 1.54481E-05 4.99315E-06-1.56871E-18-2.09048E-18
 -1      1683 2.32755E-05-8.12160E-05 1.83018E-05-1.15009E-05-5.06928E-18-1.18585E-19
 -1      1684 2.58148E-05-8.66143E-05 1.93047E-05-1.06199E-06-5.50746E-18-5.57559E-19
 -1      1685 2.00082E-05-5.61288E-05 1.01182E-05-8.20976E-06-5.72171E-18-1.95834E-18
 -1      1686 2.60139E-05-7.75274E-05 1.53242E-05-7.60527E-06-5.79709E-18-1.50528E-18
 -1      1687 3.04711E-05-2.69855E-05-4.84772E-06 1.32645E-05-6.35021E-18-5.95972E-18
 -1      1688 2.85361E-05-5.00862E-05 3.51289E-06-1.15093E-06-5.82759E-18-3.52069E-18
 -1      1689 6.38482E-05-1.00447E-05-2.39392E-05 4.45588E-05-6.26042E-18-3.38644E-18
 -1      1690 4.39217E-05-2.13806E-05-1.36741E-05 2.09408E-05-6.92280E-18-4.87552E-18
 -1      1691 1.33688E-04-2.26889E-05-4.52105E-05 6.63507E-05-2.80707E-18-3.03068E-18
 -1      1692 9.29081E-05-1.58491E-05-3.41561E-05 4.83069E-05-5.68105E-18-3.83367E-18
 -1      1693 2.07443E-04-4.41784E-05-6.43274E-05 6.65322E-05-2.06973E-18-3.63716E-18
 -1      1694 1.57780E-04-2.41214E-05-5.50865E-05 6.77179E-05-1.97486E-18-4.31987E-18
 -1      1695 2.67217E-04-6.81101E-05-7.75827E-05 3.31150E-05-1.23434E-18-2.06507E-18
 -1      1696 2.30209E-04-4.96866E-05-7.17206E-05 5.96187E-05-1.88068E-18-3.02475E-18
 -1      1697 2.76767E-04-6.89535E-05-8.12357E-05-2.27458E-05 1.68898E-18-4.16634E-18
 -1      1698 2.72813E-04-6.80353E-05-8.03192E-05 1.59389E-05 6.47768E-19-2.28445E-18
 -1      1699 2.44473E-04-5.12165E-05-7.59973E-05-6.86898E-05 1.54329E-18-4.95175E-18
 -1      1700 2.74543E-04-6.85086E-05-8.01371E-05-3.93474E-05 1.04418E-18-4.69341E-18
 -1      1701 1.75750E-04-2.29270E-05-6.16289E-05-8.25102E-05 3.32037E-19-2.42590E-18
 -1      1702 2.24078E-04-4.52668E-05-6.98885E-05-7.66589E-05 8.68632E-19-4.03442E-18
 -1      1703 1.05319E-04-4.66694E-06-4.24722E-05-7.03174E-05-1.45097E-18-8.36869E-19
 -1      1704 1.49051E-04-1.60005E-05-5.28780E-05-8.65848E-05 2.04982E-19-1.18076E-18
 -1      1705 5.59578E-05-1.49872E-05-2.03926E-05-3.62124E-05-1.17822E-18 1.82536E-18
 -1      1706 8.21722E-05-5.69068E-06-3.19486E-05-6.31471E-05-2.13113E-18-4.71797E-19
 -1      1707 3.22364E-05-4.38252E-05-7.48881E-07-7.18828E-06-1.98206E-19 1.05244E-18
 -1      1708 3.64113E-05-1.86073E-05-1.02534E-05-2.61656E-05-4.06576E-19 2.21923E-18
 -1      1709 2.94950E-05-7.72181E-05 1.31433E-05 2.58252E-06-7.46236E-19-8.96214E-19
 -1      1710 2.38829E-05-5.16877E-05 6.66554E-06-6.14253E-07-2.54110E-20 8.74138E-19
 -1      1711 2.91287E-05-9.40341E-05 1.98535E-05-1.35379E-06-4.59473E-18-1.41582E-18
 -1      1712 2.50635E-05-8.26356E-05 1.74664E-05 8.50563E-06-1.67289E-18-1.93843E-18
 -1      1713 7.71753E-05-3.97749E-05-1.73084E-05 4.41598E-05-1.77284E-18-1.20956E-18
 -1      1714 1.49099E-05-6.37312E-05 1.52013E-05 8.93454E-07-2.24702E-18-7.47930E-19
 -1      1715 9.50746E-05-2.90178E-05-2.82544E-05-8.19930E-07-4.33476E-18-2.55723E-18
 -1      1716 9.48643E-05-2.92407E-05-2.80987E-05-1.82697E-06-1.78730E-18-3.37711E-19
 -1      1717 2.33560E-05-5.78047E-05 1.03218E-05 2.01027E-05-1.06133E-18 2.05787E-18
 -1      1718 4.56591E-05-5.09208E-05-1.23054E-06 3.35740E-05 7.03037E-20-2.32606E-18
 -1      1719 1.24169E-04-3.67158E-05-3.61494E-05 4.93785E-05-2.07227E-18-1.59242E-18
 -1      1720 1.66865E-04-3.47243E-05-5.37315E-05 4.39502E-05-1.66950E-18-1.19770E-18
 -1      1721 2.02378E-04-3.29815E-05-6.75624E-05 3.66335E-05-8.81020E-19-3.86332E-18
 -1      1722 2.20295E-04-3.42510E-05-7.42458E-05 1.42838E-05 1.82197E-18-6.09970E-18
 -1      1723 2.20975E-04-3.52216E-05-7.41056E-05-1.18925E-05 3.45674E-18-8.64270E-18
 -1      1724 1.98915E-04-3.42351E-05-6.61915E-05-3.19135E-05 3.79217E-18-8.75154E-18
 -1      1725 1.61696E-04-3.23176E-05-5.26458E-05-4.42168E-05 5.11714E-18-8.37970E-18
 -1      1726 1.18823E-04-3.22089E-05-3.61147E-05-4.87304E-05 4.66376E-18-9.38089E-18
 -1      1727 7.59784E-05-3.56678E-05-1.82867E-05-4.28507E-05 3.06287E-18-6.52469E-18
 -1      1728 4.22807E-05-4.41719E-05-2.15600E-06-3.08660E-05 1.54922E-18-4.29546E-18
 -1      1729 2.18711E-05-5.36387E-05 9.40649E-06-1.88389E-05-7.94517E-19-3.89678E-18
 -1      1730 1.32110E-05-5.92288E-05 1.47980E-05-5.86571E-06-2.32563E-18-2.20737E-18
 -1      1731 1.70222E-05-5.74076E-05 1.26400E-05 6.11201E-06-3.90525E-18-1.01686E-18
 -1      1732 3.55397E-05-5.26744E-05 3.51767E-06 1.92172E-05-4.02764E-18-2.60325E-18
 -1      1733 6.64229E-05-4.60500E-05-1.11117E-05 3.04462E-05-3.36357E-18-3.55076E-18
 -1      1734 1.13065E-04-4.43409E-05-2.94104E-05 3.67416E-05-4.31479E-18-1.19008E-18
 -1      1735 1.60873E-04-4.39102E-05-4.80727E-05 3.11630E-05-2.19318E-18-2.59192E-18
 -1      1736 2.02771E-04-4.15018E-05-6.44762E-05 2.41707E-05-2.47143E-18-2.90702E-18
 -1      1737 2.26468E-04-3.93296E-05-7.41473E-05 5.62500E-06 7.41154E-20-3.34451E-18
 -1      1738 2.28925E-04-3.75557E-05-7.56543E-05-1.73404E-05 1.27521E-18-3.13190E-18
 -1      1739 2.11068E-04-3.75406E-05-6.87841E-05-3.57601E-05 1.82112E-20-4.05305E-18
 -1      1740 1.72241E-04-3.59091E-05-5.47847E-05-4.71533E-05-9.82982E-19-2.00747E-18
 -1      1741 1.25304E-04-3.80291E-05-3.64129E-05-4.99028E-05-1.73049E-18-2.61564E-18
 -1      1742 7.98516E-05-4.41420E-05-1.69322E-05-4.25486E-05-3.81165E-19 1.53144E-18
 -1      1743 4.42601E-05-5.28588E-05-1.86284E-07-2.96827E-05 6.14946E-19 6.30616E-19
 -1      1744 2.25511E-05-5.98350E-05 1.08932E-05-1.55178E-05-2.38948E-18-1.40777E-18
 -1      1745 1.06060E-04-2.31729E-05-3.56062E-05-1.68513E-05-2.13618E-18 6.93995E-18
 -1      1746 8.91540E-05-1.05876E-05-3.37966E-05-1.33240E-05-2.41654E-18-3.46246E-18
 -1      1747 9.04855E-05-1.16323E-05-3.39365E-05-1.51329E-05-2.80126E-18-2.68822E-18
 -1      1748 9.24941E-05-1.38766E-05-3.38552E-05-1.59982E-05-2.88800E-18-1.64404E-18
 -1      1749 9.42129E-05-1.58237E-05-3.40995E-05-1.76594E-05-3.15072E-18-1.83912E-19
 -1      1750 9.34216E-05-1.63495E-05-3.30456E-05-1.37660E-05-3.03117E-18-2.00530E-18
 -1      1751 8.62082E-05-7.67264E-06-3.37292E-05-7.86222E-06-1.23419E-18-4.64778E-18
 -1      1752 8.66131E-05-7.97091E-06-3.37636E-05-9.25082E-06-1.55117E-18-4.54632E-18
 -1      1753 8.55904E-05-7.03497E-06-3.37259E-05-5.31913E-06-6.51739E-19-4.69215E-18
 -1      1754 8.58255E-05-7.21382E-06-3.37411E-05-6.62350E-06-9.55006E-19-4.68422E-18
 -1      1755 8.75907E-05-9.86587E-06-3.33424E-05-6.92820E-06-1.25522E-18-4.51503E-18
 -1      1756 8.52547E-05-6.67601E-06-3.37289E-05-2.88815E-06-9.84320E-20-4.60320E-18
 -1      1757 8.53759E-05-6.77079E-06-3.37349E-05-4.12761E-06-3.34520E-19-4.68817E-18
 -1      1758 8.69539E-05-9.15368E-06-3.33753E-05-4.53654E-06-5.38518E-19-4.50725E-18
 -1      1759 8.51236E-05-6.52777E-06-3.37323E-05-5.17332E-07 5.06001E-19-4.37483E-18
 -1      1760 8.51593E-05-6.55631E-06-3.37337E-05-1.72672E-06 2.45744E-19-4.50263E-18
 -1      1761 8.66212E-05-8.77450E-06-3.33952E-05-2.21682E-06 4.59199E-20-4.40788E-18
 -1      1762 8.51691E-05-6.56531E-06-3.37339E-05 1.84478E-06 9.87085E-19-4.28846E-18
 -1      1763 8.51272E-05-6.53231E-06-3.37322E-05 6.34392E-07 7.74846E-19-4.34631E-18
 -1      1764 8.65228E-05-8.66089E-06-3.34017E-05 6.54093E-08 6.88542E-19-4.23998E-18
 -1      1765 8.54010E-05-6.79580E-06-3.37351E-05 4.25018E-06 1.48540E-18-4.12162E-18
 -1      1766 8.52725E-05-6.69497E-06-3.37289E-05 3.00756E-06 1.25266E-18-4.24668E-18
 -1      1767 8.66388E-05-8.79408E-06-3.33945E-05 2.34880E-06 1.17332E-18-4.11790E-18
 -1      1768 8.58592E-05-7.24946E-06-3.37408E-05 6.71116E-06 1.99308E-18-3.70096E-18
 -1      1769 8.56205E-05-7.06713E-06-3.37258E-05 5.42401E-06 1.76664E-18-3.95578E-18
 -1      1770 8.69880E-05-9.19150E-06-3.33739E-05 4.65159E-06 1.75460E-18-3.90693E-18
 -1      1771 8.66735E-05-8.03933E-06-3.37620E-05 9.37331E-06 2.52637E-18-3.01541E-18
 -1      1772 8.62525E-05-7.72316E-06-3.37280E-05 7.95247E-06 2.22452E-18-3.37118E-18
 -1      1773 8.76420E-05-9.92516E-06-3.33399E-05 7.02683E-06 2.30310E-18-3.37903E-18
 -1      1774 8.80834E-05-9.38439E-06-3.38177E-05 1.22521E-05 3.08824E-18-2.06120E-18
 -1      1775 8.73456E-05-8.82795E-06-3.37456E-05 1.06593E-05 2.78327E-18-2.66551E-18
 -1      1776 8.87638E-05-1.11604E-05-3.32898E-05 9.50265E-06 2.80178E-18-2.63309E-18
 -1      1777 9.06483E-05-1.18478E-05-3.39284E-05 1.53243E-05 3.36235E-18-2.63798E-19
 -1      1778 8.92748E-05-1.07483E-05-3.37885E-05 1.34987E-05 3.15074E-18-1.37137E-18
 -1      1779 9.06591E-05-1.32252E-05-3.32081E-05 1.19556E-05 3.27348E-18-1.52298E-18
 -1      1780 9.58941E-05-1.70845E-05-3.39952E-05 1.76728E-05 3.29217E-18 2.93518E-18
 -1      1781 9.28493E-05-1.43277E-05-3.38278E-05 1.61745E-05 3.28165E-18 1.07393E-18
 -1      1782 9.38892E-05-1.68608E-05-3.30146E-05 1.38546E-05 3.46237E-18 4.96255E-19
 -1      1783 1.01926E-04-2.50991E-05-3.33624E-05 1.44132E-05 2.74725E-18 6.85059E-18
 -1      1784 9.80749E-05-1.95810E-05-3.36285E-05 1.69691E-05 3.03177E-18 4.25571E-18
 -1      1785 9.74161E-05-2.18802E-05-3.24211E-05 1.32782E-05 3.37742E-18 2.96642E-18
 -1      1786 9.87890E-05-2.61498E-05-3.13455E-05 9.42857E-06 2.69563E-18 5.99654E-18
 -1      1787 1.00163E-04-1.95655E-05-3.42201E-05-1.88667E-05-2.80875E-18 2.46529E-18
 -1      1788 9.53952E-05-2.73113E-05-2.91963E-05 4.10063E-06 2.11708E-18 4.62959E-18
 -1      1789 9.77368E-05-2.73951E-05-3.01971E-05 6.39341E-06 2.24720E-18 5.42852E-18
 -1      1790 9.75896E-05-2.56164E-05-3.08265E-05 8.71809E-06 2.72424E-18 3.69016E-18
 -1      1791 9.98225E-05-2.25444E-05-3.28382E-05-1.44647E-05-2.96671E-18 1.37394E-18
 -1      1792 9.69678E-05-2.69807E-05-2.98799E-05-5.70216E-06-2.40462E-18 1.01796E-18
 -1      1793 9.51608E-05-2.70364E-05-2.91695E-05-3.89462E-06-2.09837E-18 3.59671E-19
 -1      1794 9.43430E-05-2.72387E-05-2.86621E-05-2.41870E-06-1.88487E-18 2.64288E-19
 -1      1795 9.35720E-05-2.73196E-05-2.83572E-05-1.56572E-06-1.63084E-18-2.45133E-19
 -1      1796 9.55145E-05-2.65470E-05-2.95783E-05-4.46881E-06-2.37152E-18-7.39718E-19
 -1      1797 9.30468E-05-2.73699E-05-2.80884E-05-7.39322E-07-1.38734E-18-2.97567E-19
 -1      1798 9.27459E-05-2.74335E-05-2.79664E-05-3.01180E-07-1.24035E-18-7.92181E-19
 -1      1799 9.43051E-05-2.72241E-05-2.87695E-05-1.82673E-06-1.86794E-18-9.51972E-19
 -1      1800 9.24702E-05-2.74610E-05-2.78304E-05 1.53814E-07-1.19616E-18-8.91251E-19
 -1      1801 9.24391E-05-2.75373E-05-2.78005E-05 3.77481E-07-1.04063E-18-1.13119E-18
 -1      1802 9.36036E-05-2.75300E-05-2.83336E-05-3.60893E-07-1.45725E-18-1.26796E-18
 -1      1803 9.23355E-05-2.75686E-05-2.77422E-05 6.16602E-07-9.27734E-19-1.13407E-18
 -1      1804 9.24503E-05-2.76537E-05-2.77614E-05 7.19957E-07-7.17574E-19-1.51854E-18
 -1      1805 9.32823E-05-2.77148E-05-2.81125E-05 4.40464E-07-1.14036E-18-1.60241E-18
 -1      1806 9.24550E-05-2.76917E-05-2.77492E-05 8.30109E-07-6.17913E-19-1.59109E-18
 -1      1807 9.26422E-05-2.77783E-05-2.77937E-05 8.62996E-07-6.01368E-19-1.66294E-18
 -1      1808 9.32180E-05-2.78578E-05-2.80197E-05 8.50061E-07-8.18718E-19-1.64114E-18
 -1      1809 9.27099E-05-2.78196E-05-2.78082E-05 8.95264E-07-6.59994E-19-1.60738E-18
 -1      1810 9.29250E-05-2.79021E-05-2.78641E-05 8.86801E-07-5.18115E-19-1.60432E-18
 -1      1811 9.33113E-05-2.79812E-05-2.80037E-05 1.02325E-06-5.69819E-19-1.72468E-18
 -1      1812 9.30249E-05-2.79433E-05-2.78928E-05 8.72879E-07-6.73306E-19-1.59879E-18
 -1      1813 9.32416E-05-2.80181E-05-2.79515E-05 8.41209E-07-5.71328E-19-1.72946E-18
 -1      1814 9.34913E-05-2.80900E-05-2.80319E-05 1.05375E-06-6.23183E-19-1.66152E-18
 -1      1815 9.33537E-05-2.80567E-05-2.79864E-05 8.01483E-07-5.80636E-19-2.00951E-18
 -1      1816 9.35566E-05-2.81221E-05-2.80428E-05 7.58285E-07-6.37305E-19-2.06079E-18
 -1      1817 9.37105E-05-2.81847E-05-2.80837E-05 1.00082E-06-8.33720E-19-2.08080E-18
 -1      1818 9.36684E-05-2.81566E-05-2.80792E-05 7.06091E-07-7.64351E-19-2.12075E-18
 -1      1819 9.38498E-05-2.82120E-05-2.81305E-05 6.58942E-07-5.89717E-19-2.38115E-18
 -1      1820 9.39381E-05-2.82654E-05-2.81457E-05 9.02947E-07-7.83939E-19-1.87076E-18
 -1      1821 9.39543E-05-2.82418E-05-2.81653E-05 6.03008E-07-5.53541E-19-2.69653E-18
 -1      1822 9.41110E-05-2.82875E-05-2.82103E-05 5.56784E-07-4.05588E-19-2.98835E-18
 -1      1823 9.41559E-05-2.83325E-05-2.82097E-05 7.85420E-07-7.22775E-19-2.21278E-18
 -1      1824 9.42046E-05-2.83126E-05-2.82422E-05 5.02760E-07-2.85991E-19-3.20037E-18
 -1      1825 9.43368E-05-2.83495E-05-2.82806E-05 4.60537E-07-3.85055E-19-3.30290E-18
 -1      1826 9.43540E-05-2.83868E-05-2.82710E-05 6.64769E-07-5.57967E-19-2.82128E-18
 -1      1827 9.44185E-05-2.83700E-05-2.83089E-05 4.12033E-07-4.67738E-19-3.51128E-18
 -1      1828 9.45282E-05-2.83994E-05-2.83413E-05 3.75724E-07-4.68596E-19-3.31714E-18
 -1      1829 9.45284E-05-2.84297E-05-2.83273E-05 5.51690E-07-7.07203E-19-2.78266E-18
 -1      1830 9.45988E-05-2.84160E-05-2.83661E-05 3.35047E-07-4.42777E-19-3.61905E-18
 -1      1831 9.46896E-05-2.84391E-05-2.83933E-05 3.05861E-07-2.87765E-19-3.55625E-18
 -1      1832 9.46791E-05-2.84630E-05-2.83777E-05 4.53055E-07-6.30571E-19-3.24350E-18
 -1      1833 9.47509E-05-2.84526E-05-2.84153E-05 2.74571E-07-1.46155E-19-3.65969E-18
 -1      1834 9.48271E-05-2.84707E-05-2.84384E-05 2.53370E-07 2.02915E-20-3.51156E-18
 -1      1835 9.48091E-05-2.84883E-05-2.84227E-05 3.73382E-07-2.91165E-19-3.31021E-18
 -1      1836 9.48820E-05-2.84820E-05-2.84584E-05 2.32702E-07-1.10397E-20-3.67024E-18
 -1      1837 9.49488E-05-2.84968E-05-2.84790E-05 2.20282E-07-1.25046E-19-3.56919E-18
 -1      1838 9.49231E-05-2.85075E-05-2.84636E-05 3.15942E-07-1.16350E-19-3.35684E-18
 -1      1839 9.50008E-05-2.85067E-05-2.84982E-05 2.11491E-07-4.26023E-19-3.36489E-18
 -1      1840 9.50639E-05-2.85198E-05-2.85180E-05 2.08813E-07-5.55850E-19-3.37909E-18
 -1      1841 9.50274E-05-2.85223E-05-2.85022E-05 2.83630E-07-1.68741E-19-2.94578E-18
 -1      1842 9.51172E-05-2.85293E-05-2.85380E-05 2.13459E-07-7.55334E-19-3.08142E-18
 -1      1843 9.51833E-05-2.85424E-05-2.85588E-05 2.21858E-07-2.39024E-19-3.02780E-18
 -1      1844 9.51298E-05-2.85345E-05-2.85412E-05 2.79677E-07-4.09771E-19-2.55682E-18
 -1      1845 9.52428E-05-2.85527E-05-2.85813E-05 2.42075E-07 2.32520E-19-3.14555E-18
 -1      1846 9.53197E-05-2.85677E-05-2.86056E-05 2.63461E-07 5.57291E-19-3.12248E-18
 -1      1847 9.52391E-05-2.85459E-05-2.85836E-05 3.08269E-07-2.11072E-19-2.45429E-18
 -1      1848 9.53913E-05-2.85801E-05-2.86326E-05 3.02210E-07 3.08666E-19-3.12771E-18
 -1      1849 9.54882E-05-2.85994E-05-2.86632E-05 3.39288E-07-2.43331E-19-3.42833E-18
 -1      1850 9.53661E-05-2.85586E-05-2.86331E-05 3.75131E-07 2.53164E-19-2.99408E-18
 -1      1851 9.55788E-05-2.86152E-05-2.86974E-05 4.00643E-07-6.53681E-19-3.19667E-18
 -1      1852 9.57070E-05-2.86414E-05-2.87375E-05 4.57159E-07-4.62363E-19-3.35005E-18
 -1      1853 9.55232E-05-2.85746E-05-2.86942E-05 4.88123E-07-2.62835E-19-3.65191E-18
 -1      1854 9.58247E-05-2.86623E-05-2.87819E-05 5.46631E-07-2.78718E-19-3.11336E-18
 -1      1855 9.59982E-05-2.86989E-05-2.88358E-05 6.27684E-07-2.66729E-20-3.01624E-18
 -1      1856 9.57252E-05-2.85961E-05-2.87722E-05 6.57906E-07-2.03124E-19-2.46911E-18
 -1      1857 9.61527E-05-2.87267E-05-2.88943E-05 7.52600E-07 7.88063E-20-2.85884E-18
 -1      1858 9.63890E-05-2.87777E-05-2.89671E-05 8.65010E-07 2.43079E-19-2.93656E-18
 -1      1859 9.59895E-05-2.86257E-05-2.88736E-05 8.98696E-07 2.02700E-19-2.58289E-18
 -1      1860 9.65918E-05-2.88145E-05-2.90441E-05 1.03495E-06 1.83958E-19-3.15230E-18
 -1      1861 9.69129E-05-2.88853E-05-2.91424E-05 1.18768E-06 8.78350E-20-3.53917E-18
 -1      1862 9.63372E-05-2.86661E-05-2.90062E-05 1.22913E-06 1.53473E-19-2.23351E-18
 -1      1863 9.71776E-05-2.89336E-05-2.92433E-05 1.41490E-06-3.26822E-19-3.45684E-18
 -1      1864 9.76112E-05-2.90309E-05-2.93754E-05 1.61948E-06-2.86281E-19-3.50532E-18
 -1      1865 9.67926E-05-2.87204E-05-2.91791E-05 1.67317E-06-4.28455E-20-2.79916E-18
 -1      1866 9.79533E-05-2.90933E-05-2.95066E-05 1.91921E-06 2.44296E-19-3.25351E-18
 -1      1867 9.85339E-05-2.92260E-05-2.96824E-05 2.18989E-06 1.01866E-18-2.88783E-18
 -1      1868 9.73845E-05-2.87920E-05-2.94031E-05 2.26080E-06 4.23750E-19-1.84905E-18
 -1      1869 9.89708E-05-2.93061E-05-2.98508E-05 2.58002E-06 8.77956E-19-3.14053E-18
 -1      1870 9.97406E-05-2.94859E-05-3.00825E-05 2.93320E-06 9.06125E-19-2.64772E-18
 -1      1871 9.81456E-05-2.88861E-05-2.96900E-05 3.02793E-06 9.03906E-19-2.37875E-18
 -1      1872 1.00292E-04-2.95890E-05-3.02954E-05 3.43265E-06 8.13100E-19-2.84221E-18
 -1      1873 1.01300E-04-2.98322E-05-3.05964E-05 3.88438E-06 3.81253E-19-2.89585E-18
 -1      1874 9.91130E-05-2.90113E-05-3.00519E-05 4.01414E-06 5.58891E-19-2.17754E-18
 -1      1875 1.01986E-04-2.99673E-05-3.08600E-05 4.50833E-06-2.31002E-19-2.83650E-18
 -1      1876 1.03288E-04-3.02973E-05-3.12438E-05 5.06755E-06-2.96802E-19-2.52285E-18
 -1      1877 1.00328E-04-2.91849E-05-3.04992E-05 5.25562E-06 5.74477E-19-2.40289E-18
 -1      1878 1.04133E-04-3.04826E-05-3.15605E-05 5.81645E-06-3.54950E-19-1.97470E-18
 -1      1879 1.05779E-04-3.09344E-05-3.20367E-05 6.46985E-06 3.62305E-20-1.12482E-18
 -1      1880 1.01839E-04-2.94449E-05-3.10364E-05 6.76828E-06 4.95051E-20-1.35872E-18
 -1      1881 1.06815E-04-3.12081E-05-3.24013E-05 7.30693E-06-6.86593E-20-1.60612E-18
 -1      1882 1.08836E-04-3.18345E-05-3.29675E-05 7.98866E-06 1.06342E-19-8.77764E-19
 -1      1883 1.03708E-04-2.98730E-05-3.16557E-05 8.51252E-06 6.63432E-20-1.03361E-18
 -1      1884 1.10115E-04-3.22735E-05-3.33616E-05 8.79885E-06-9.34714E-20-8.30754E-19
 -1      1885 1.12491E-04-3.31521E-05-3.39903E-05 9.33845E-06 5.64688E-19-9.10560E-19
 -1      1886 1.06029E-04-3.06354E-05-3.23281E-05 1.03273E-05 3.71546E-19-1.12353E-18
 -1      1887 1.14112E-04-3.38971E-05-3.43774E-05 9.86110E-06 1.07363E-18-7.81547E-19
 -1      1888 1.16714E-04-3.51228E-05-3.49987E-05 9.91251E-06 1.15520E-18-8.52175E-19
 -1      1889 1.08968E-04-3.20417E-05-3.29947E-05 1.18207E-05 6.63720E-19-1.14149E-18
 -1      1890 1.18846E-04-3.63834E-05-3.53290E-05 9.65467E-06 1.08189E-18-1.29337E-18
 -1      1891 1.21352E-04-3.80003E-05-3.58201E-05 8.65018E-06 7.01952E-19-7.10032E-19
 -1      1892 1.12809E-04-3.45754E-05-3.35731E-05 1.22156E-05 1.22052E-18-7.25973E-19
 -1      1893 1.24181E-04-3.99465E-05-3.60612E-05 6.85132E-06 1.21245E-19-4.91954E-19
 -1      1894 1.25964E-04-4.17339E-05-3.62727E-05 4.13113E-06-3.83759E-19-6.47845E-19
 -1      1895 1.17930E-04-3.87396E-05-3.40063E-05 1.02167E-05 1.23435E-19-5.97433E-19
 -1      1896 1.29410E-04-4.41270E-05-3.64918E-05-2.00344E-08 1.98391E-20-2.41424E-19
 -1      1897 1.29476E-04-4.51615E-05-3.63472E-05-4.65936E-06 3.53424E-19 2.43132E-19
 -1      1898 1.24461E-04-4.43924E-05-3.43951E-05 4.16048E-06 6.91788E-20-4.26735E-19
 -1      1899 1.32493E-04-4.66353E-05-3.68041E-05-1.10339E-05 4.14795E-19-6.79476E-19
 -1      1900 1.29783E-04-4.51284E-05-3.64398E-05-1.62039E-05 8.91026E-19-5.70159E-19
 -1      1901 1.31257E-04-4.92518E-05-3.52109E-05-6.96855E-06 2.43734E-19-1.38614E-18
 -1      1902 1.30192E-04-4.33121E-05-3.74714E-05-2.18805E-05 9.14597E-19-7.76359E-20
 -1      1903 1.24714E-04-3.81425E-05-3.71952E-05-2.39262E-05 4.75927E-20-5.09556E-19
 -1      1904 1.34803E-04-4.80245E-05-3.72640E-05-2.04741E-05 8.84104E-19-2.32736E-18
 -1      1905 1.21565E-04-3.25800E-05-3.86114E-05-2.32526E-05-4.79950E-19-2.64433E-19
 -1      1906 1.16125E-04-2.68214E-05-3.84398E-05-1.85867E-05 5.79476E-19-1.02020E-18
 -1      1907 1.31580E-04-3.70999E-05-4.07319E-05-2.71079E-05-3.98741E-19-2.44485E-18
 -1      1908 1.13434E-04-2.31584E-05-3.90864E-05-1.02239E-05 1.37473E-18-7.71753E-19
 -1      1909 1.11928E-04-2.22801E-05-3.88129E-05-1.94489E-06-6.20663E-19-3.83799E-19
 -1      1910 1.24792E-04-2.38251E-05-4.38021E-05-1.73976E-05 5.85829E-19-1.52503E-18
 -1      1911 1.12815E-04-2.46889E-05-3.79631E-05 7.80786E-06-1.57506E-18 4.71797E-19
 -1      1912 1.15619E-04-2.93041E-05-3.74934E-05 1.34570E-05-5.42948E-19 6.92714E-19
 -1      1913 1.22762E-04-2.19534E-05-4.37566E-05 3.23986E-06-3.32460E-19-9.08708E-20
 -1      1914 1.17791E-04-3.46241E-05-3.57058E-05 1.56614E-05 2.81850E-19 6.94560E-19
 -1      1915 1.21307E-04-3.94588E-05-3.53626E-05 1.46621E-05 7.99970E-19 9.11460E-19
 -1      1916 1.26785E-04-3.35226E-05-4.02811E-05 1.63375E-05 4.23516E-20 1.00156E-18
 -1      1917 1.20421E-04-4.16446E-05-3.38829E-05 9.91067E-06-1.22578E-19 1.23013E-18
 -1      1918 1.21597E-04-4.30706E-05-3.36984E-05 5.12647E-06-8.06832E-19 1.14458E-18
 -1      1919 1.28691E-04-4.48434E-05-3.60404E-05 1.22721E-05 5.20052E-19 1.84711E-18
 -1      1920 1.17788E-04-4.15142E-05-3.28757E-05-1.06673E-06-6.37988E-19 8.77692E-19
 -1      1921 1.16231E-04-3.99780E-05-3.26067E-05-5.50044E-06-9.67537E-19 6.65675E-19
 -1      1922 1.23943E-04-4.66666E-05-3.31999E-05-2.06608E-07-1.09553E-18 1.32118E-18
 -1      1923 1.11767E-04-3.70180E-05-3.21938E-05-9.27458E-06-1.76123E-18 1.21443E-18
 -1      1924 1.08707E-04-3.43625E-05-3.17430E-05-1.13554E-05-1.50494E-18 1.54430E-18
 -1      1925 1.15204E-04-4.09665E-05-3.18861E-05-1.07795E-05-1.72681E-18 8.97661E-19
 -1      1926 1.04665E-04-3.13873E-05-3.15107E-05-1.19436E-05-1.20160E-18 2.98685E-19
 -1      1927 1.01223E-04-2.86453E-05-3.10095E-05-1.13554E-05-1.65112E-18 3.41195E-20
 -1      1928 1.06421E-04-3.32634E-05-3.14207E-05-1.51916E-05-2.17577E-18 5.32995E-19
 -1      1929 9.76620E-05-2.59744E-05-3.07636E-05-8.24461E-06-1.35349E-18-5.54357E-19
 -1      1930 9.27579E-05-2.73579E-05-2.79945E-05 7.86667E-07 1.21581E-18 2.47594E-18
 -1      1931 9.32314E-05-2.73124E-05-2.81904E-05 1.36705E-06 1.36360E-18 2.94748E-18
 -1      1932 9.22229E-05-2.74289E-05-2.77473E-05-8.66255E-08 7.87491E-19 2.03731E-18
 -1      1933 9.23498E-05-2.73697E-05-2.78062E-05 2.02245E-07 1.04630E-18 2.33398E-18
 -1      1934 9.36792E-05-2.74269E-05-2.84104E-05 9.52810E-07 1.40470E-18 1.09943E-18
 -1      1935 9.21182E-05-2.75236E-05-2.76704E-05-5.45789E-07 7.45457E-19 1.32111E-18
 -1      1936 9.20404E-05-2.74444E-05-2.76619E-05-4.02943E-07 7.70009E-19 1.76164E-18
 -1      1937 9.31500E-05-2.76032E-05-2.81059E-05-1.04447E-07 1.11718E-18 7.08222E-19
 -1      1938 9.22680E-05-2.76423E-05-2.76888E-05-7.60753E-07 6.22816E-19 9.86575E-19
 -1      1939 9.20841E-05-2.75535E-05-2.76455E-05-7.00631E-07 6.61364E-19 1.24877E-18
 -1      1940 9.29782E-05-2.77390E-05-2.79699E-05-6.64612E-07 9.17995E-19 4.46803E-19
 -1      1941 9.25523E-05-2.77710E-05-2.77587E-05-8.30828E-07 6.99054E-19 8.29080E-19
 -1      1942 9.23221E-05-2.76816E-05-2.76989E-05-8.19384E-07 6.24932E-19 9.04690E-19
 -1      1943 9.30249E-05-2.78615E-05-2.79338E-05-9.29548E-07 7.90469E-19 4.73553E-20
 -1      1944 9.28947E-05-2.78982E-05-2.78529E-05-8.15469E-07 4.65427E-19 6.10337E-19
 -1      1945 9.26539E-05-2.78142E-05-2.77877E-05-8.32283E-07 5.97100E-19 7.51633E-19
 -1      1946 9.31968E-05-2.79761E-05-2.79556E-05-1.01712E-06 6.90667E-19-4.11739E-20
 -1      1947 9.32478E-05-2.80166E-05-2.79548E-05-7.52044E-07 4.93653E-19 1.09737E-19
 -1      1948 9.30171E-05-2.79412E-05-2.78909E-05-7.84173E-07 5.70462E-19 5.68446E-19
 -1      1949 9.34306E-05-2.80812E-05-2.80088E-05-9.99368E-07 5.60323E-19-8.68141E-20
 -1      1950 9.35837E-05-2.81220E-05-2.80544E-05-6.64711E-07 7.59818E-19-3.21416E-20
 -1      1951 9.33743E-05-2.80566E-05-2.79955E-05-7.03756E-07 7.03764E-19 1.41957E-19
 -1      1952 9.36851E-05-2.81746E-05-2.80766E-05-9.22210E-07 6.86705E-19-4.09552E-19
 -1      1953 9.38872E-05-2.82126E-05-2.81462E-05-5.69194E-07 3.70645E-19-1.50228E-19
 -1      1954 9.37043E-05-2.81576E-05-2.80941E-05-6.09700E-07 6.70412E-19 6.69175E-20
 -1      1955 9.39351E-05-2.82551E-05-2.81485E-05-8.15580E-07 6.88888E-19-2.19333E-19
 -1      1956 9.41520E-05-2.82884E-05-2.82275E-05-4.75646E-07-1.87422E-19-4.51545E-19
 -1      1957 9.39966E-05-2.82432E-05-2.81827E-05-5.14117E-07 4.08032E-20-2.67615E-19
 -1      1958 9.41662E-05-2.83225E-05-2.82182E-05-6.99067E-07 3.43381E-19-4.18790E-19
 -1      1959 9.43776E-05-2.83505E-05-2.82976E-05-3.90521E-07 4.13998E-20-2.32755E-19
 -1      1960 9.42481E-05-2.83141E-05-2.82599E-05-4.24752E-07-1.00830E-19-3.45287E-19
 -1      1961 9.43715E-05-2.83776E-05-2.82824E-05-5.85394E-07-5.60514E-20-5.52030E-19
 -1      1962 9.45672E-05-2.84006E-05-2.83574E-05-3.17866E-07 7.03292E-19-1.51514E-19
 -1      1963 9.44605E-05-2.83716E-05-2.83260E-05-3.46484E-07 6.78112E-19-1.65489E-19
 -1      1964 9.45495E-05-2.84216E-05-2.83398E-05-4.82725E-07 2.76545E-19-5.76910E-19
 -1      1965 9.47267E-05-2.84409E-05-2.84083E-05-2.60270E-07 4.02827E-19-5.65008E-19
 -1      1966 9.46384E-05-2.84179E-05-2.83820E-05-2.82379E-07 7.16728E-19-3.77510E-19
 -1      1967 9.47019E-05-2.84561E-05-2.83904E-05-3.96277E-07 7.68504E-19-7.42362E-19
 -1      1968 9.48635E-05-2.84738E-05-2.84526E-05-2.19550E-07 4.32550E-19-9.15758E-19
 -1      1969 9.47887E-05-2.84552E-05-2.84300E-05-2.34484E-07 3.90860E-19-8.09245E-19
 -1      1970 9.48331E-05-2.84832E-05-2.84352E-05-3.29497E-07 5.05875E-19-4.72109E-19
 -1      1971 9.49867E-05-2.85020E-05-2.84930E-05-1.97261E-07 4.98128E-19-1.29353E-18
 -1      1972 9.49197E-05-2.84861E-05-2.84725E-05-2.04391E-07 7.71733E-19-1.00136E-18
 -1      1973 9.49490E-05-2.85046E-05-2.84760E-05-2.84921E-07 6.58908E-19-9.63353E-19
 -1      1974 9.51064E-05-2.85283E-05-2.85325E-05-1.95039E-07-2.04600E-19-1.43854E-18
 -1      1975 9.50410E-05-2.85133E-05-2.85124E-05-1.93653E-07 2.12168E-19-1.05099E-18
 -1      1976 9.50567E-05-2.85225E-05-2.85148E-05-2.64789E-07 3.66902E-19-1.49481E-18
 -1      1977 9.52338E-05-2.85561E-05-2.85747E-05-2.14806E-07-6.75851E-19-1.51108E-18
 -1      1978 9.51633E-05-2.85400E-05-2.85529E-05-2.04041E-07-7.78744E-19-1.46090E-18
 -1      1979 9.51647E-05-2.85392E-05-2.85542E-05-2.71453E-07-3.67333E-19-1.58978E-18
 -1      1980 9.53814E-05-2.85888E-05-2.86233E-05-2.58809E-07-2.17726E-20-1.07476E-18
 -1      1981 9.52982E-05-2.85695E-05-2.85976E-05-2.37650E-07-4.22001E-20-1.18549E-18
 -1      1982 9.52824E-05-2.85573E-05-2.85973E-05-3.07588E-07-6.75501E-19-1.23295E-18
 -1      1983 9.55628E-05-2.86305E-05-2.86824E-05-3.29464E-07 6.20815E-19-1.04111E-18
 -1      1984 9.54589E-05-2.86055E-05-2.86506E-05-2.96836E-07 3.58338E-19-9.53755E-19
 -1      1985 9.54202E-05-2.85797E-05-2.86472E-05-3.76174E-07 3.90638E-19-8.55141E-19
 -1      1986 9.57930E-05-2.86860E-05-2.87566E-05-4.28946E-07 1.84228E-19-6.54544E-19
 -1      1987 9.56595E-05-2.86523E-05-2.87161E-05-3.83919E-07 4.56816E-19-7.49987E-19
 -1      1988 9.55899E-05-2.86099E-05-2.87074E-05-4.80199E-07 3.11971E-19-5.18357E-19
 -1      1989 9.60874E-05-2.87604E-05-2.88501E-05-5.58429E-07-7.66899E-19-8.50326E-19
 -1      1990 9.59153E-05-2.87151E-05-2.87984E-05-5.00586E-07 4.54933E-20-4.68080E-19
 -1      1991 9.58038E-05-2.86523E-05-2.87815E-05-6.22007E-07-1.89375E-20 1.35093E-20
 -1      1992 9.64613E-05-2.88599E-05-2.89672E-05-7.16850E-07-1.23056E-19-1.31550E-18
 -1      1993 9.62418E-05-2.87994E-05-2.89019E-05-6.46875E-07-9.76918E-19-1.27509E-18
 -1      1994 9.60753E-05-2.87122E-05-2.88726E-05-8.02156E-07-4.55757E-19-5.43846E-19
 -1      1995 9.69282E-05-2.89907E-05-2.91109E-05-8.99075E-07 1.08972E-18-8.84165E-19
 -1      1996 9.66539E-05-2.89116E-05-2.90303E-05-8.19621E-07 7.46820E-19-9.27598E-19
 -1      1997 9.64174E-05-2.87961E-05-2.89837E-05-1.01763E-06 2.33846E-19-1.57547E-18
 -1      1998 9.74967E-05-2.91593E-05-2.92826E-05-1.09333E-06 3.25707E-19-1.30809E-18
 -1      1999 9.71638E-05-2.90583E-05-2.91859E-05-1.01022E-06 8.00843E-19-1.04178E-18
 -1      2000 9.68419E-05-2.89122E-05-2.91162E-05-1.25928E-06 9.57042E-19-1.13627E-18
 -1      2001 9.81669E-05-2.93713E-05-2.94803E-05-1.27791E-06-5.41891E-19-1.25731E-18
 -1      2002 9.77777E-05-2.92463E-05-2.93688E-05-1.20167E-06-1.05247E-19-9.66475E-19
 -1      2003 9.73574E-05-2.90697E-05-2.92698E-05-1.50832E-06-6.31188E-20-9.67167E-19
 -1      2004 9.89245E-05-2.96299E-05-2.96968E-05-1.41735E-06-7.56922E-19-9.41957E-19
 -1      2005 9.84915E-05-2.94806E-05-2.95749E-05-1.36492E-06-4.00999E-19-9.83179E-19
 -1      2006 9.79661E-05-2.92790E-05-2.94407E-05-1.73210E-06-4.95966E-19-9.33528E-19
 -1      2007 9.97337E-05-2.99331E-05-2.99180E-05-1.45896E-06-2.41976E-19-2.71597E-19
 -1      2008 9.92841E-05-2.97636E-05-2.97945E-05-1.45515E-06-4.76823E-19-6.53059E-19
 -1      2009 9.86600E-05-2.95503E-05-2.96211E-05-1.87943E-06-7.83296E-19-3.31701E-19
 -1      2010 1.00529E-04-3.02702E-05-3.01208E-05-1.33140E-06-4.96920E-19-2.57667E-21
 -1      2011 1.00110E-04-3.00907E-05-3.00100E-05-1.40914E-06-1.53571E-19-2.77756E-19
 -1      2012 9.94151E-05-2.98903E-05-2.97975E-05-1.87700E-06-1.42183E-19-5.38638E-19
 -1      2013 1.01207E-04-3.06154E-05-3.02719E-05-9.48536E-07-5.82975E-19-2.72308E-19
 -1      2014 1.00891E-04-3.04462E-05-3.01945E-05-1.14637E-06-6.82581E-19-1.50533E-19
 -1      2015 1.00184E-04-3.02974E-05-2.99502E-05-1.62929E-06-6.58219E-19 1.22688E-19
 -1      2016 1.01624E-04-3.09202E-05-3.03289E-05-2.23558E-07-6.25416E-19-3.79438E-19
 -1      2017 1.01506E-04-3.07949E-05-3.03115E-05-5.77921E-07-4.43288E-19-2.81402E-19
 -1      2018 1.00889E-04-3.07516E-05-3.00538E-05-1.02661E-06-7.21121E-19 1.89716E-19
 -1      2019 1.01595E-04-3.11056E-05-3.02454E-05 9.01039E-07 2.87478E-19-4.93957E-20
 -1      2020 1.01792E-04-3.10741E-05-3.03172E-05 3.71152E-07 2.12989E-19-6.68751E-20
 -1      2021 1.01411E-04-3.12007E-05-3.00798E-05 3.25011E-08-2.36870E-19 2.95452E-20
 -1      2022 1.00923E-04-3.10594E-05-2.99809E-05 2.40461E-06 5.41251E-19 2.21716E-19
 -1      2023 1.01547E-04-3.11852E-05-3.01672E-05 1.72103E-06-9.49471E-20-1.10901E-19
 -1      2024 1.01589E-04-3.15453E-05-3.00018E-05 1.59785E-06 3.04237E-19 5.13864E-19
 -1      2025 9.94367E-05-3.06502E-05-2.95156E-05 4.12833E-06 1.29828E-18 1.02283E-19
 -1      2026 1.00562E-04-3.09978E-05-2.98280E-05 3.37954E-06 1.69552E-18 7.61153E-19
 -1      2027 1.01228E-04-3.16307E-05-2.98033E-05 3.60181E-06 1.09955E-18 1.55155E-18
 -1      2028 9.70761E-05-2.97716E-05-2.88667E-05 5.73295E-06 3.03066E-19-1.12745E-19
 -1      2029 9.86904E-05-3.03771E-05-2.92925E-05 5.08651E-06 8.23849E-19-8.34989E-20
 -1      2030 1.00137E-04-3.12683E-05-2.94862E-05 5.78589E-06 1.08836E-18 1.95719E-18
 -1      2031 9.39842E-05-2.84206E-05-2.80990E-05 6.72717E-06-3.46646E-19-1.70968E-19
 -1      2032 9.59389E-05-2.92504E-05-2.85937E-05 6.40410E-06-3.50003E-19-2.85023E-19
 -1      2033 9.82156E-05-3.03067E-05-2.90762E-05 7.66359E-06-4.39101E-20 7.05942E-19
 -1      2034 9.05799E-05-2.67823E-05-2.73193E-05 6.61770E-06 5.57502E-19 2.39194E-19
 -1      2035 9.25802E-05-2.77011E-05-2.78105E-05 6.81200E-06 1.47232E-19-5.04858E-19
 -1      2036 9.55721E-05-2.87543E-05-2.86207E-05 8.59087E-06 2.07708E-19 1.42273E-19
 -1      2037 8.75215E-05-2.52428E-05-2.66535E-05 5.16466E-06-2.13353E-19-6.26440E-20
 -1      2038 8.91831E-05-2.60295E-05-2.70564E-05 5.92970E-06 7.13324E-19-4.04061E-20
 -1      2039 9.26229E-05-2.68902E-05-2.81784E-05 7.99856E-06 6.42852E-19 1.39499E-18
 -1      2040 8.55105E-05-2.42622E-05-2.62105E-05 2.60364E-06-1.85770E-18-3.00882E-19
 -1      2041 8.64849E-05-2.46938E-05-2.64539E-05 3.77713E-06-1.35934E-18-5.70113E-19
 -1      2042 9.00429E-05-2.52407E-05-2.78039E-05 5.72977E-06-3.71401E-19 1.38581E-18
 -1      2043 8.49866E-05-2.41361E-05-2.60493E-05-3.60600E-07-4.90617E-20-1.41127E-18
 -1      2044 8.51045E-05-2.41055E-05-2.60984E-05 8.85238E-07-9.86985E-19-1.09976E-18
 -1      2045 8.85157E-05-2.43662E-05-2.75371E-05 2.26766E-06-1.13155E-18-7.72793E-21
 -1      2046 8.59011E-05-2.48061E-05-2.61662E-05-2.87343E-06 1.76436E-18-2.55053E-18
 -1      2047 8.52382E-05-2.43842E-05-2.60325E-05-1.90106E-06 5.48321E-19-1.57989E-18
 -1      2048 8.83697E-05-2.45243E-05-2.73986E-05-1.38287E-06 7.13691E-20-2.30894E-18
 -1      2049 8.77614E-05-2.59074E-05-2.65002E-05-4.36377E-06 1.67716E-18-8.10438E-20
 -1      2050 8.65861E-05-2.52898E-05-2.62340E-05-3.85040E-06 1.65017E-18-8.79584E-19
 -1      2051 8.93922E-05-2.55130E-05-2.73928E-05-4.19196E-06 4.63704E-19-1.34877E-18
 -1      2052 8.99217E-05-2.70125E-05-2.69558E-05-4.76111E-06-7.74888E-19 1.30232E-18
 -1      2053 8.85569E-05-2.63985E-05-2.66257E-05-4.68197E-06 1.30313E-18 8.83237E-19
 -1      2054 9.09842E-05-2.68073E-05-2.74999E-05-5.61747E-06 9.03311E-19 1.48482E-18
 -1      2055 9.18870E-05-2.78738E-05-2.74300E-05-4.37446E-06 2.70680E-19 4.26594E-19
 -1      2056 9.05839E-05-2.73647E-05-2.71028E-05-4.58504E-06-8.23860E-19 2.70789E-19
 -1      2057 9.25283E-05-2.79118E-05-2.76774E-05-5.75223E-06 2.11831E-19 2.17707E-18
 -1      2058 9.34545E-05-2.85257E-05-2.78218E-05-3.54961E-06 1.72987E-18 6.11870E-19
 -1      2059 9.23584E-05-2.80981E-05-2.75576E-05-3.94123E-06 1.08479E-18 5.22599E-19
 -1      2060 9.37043E-05-2.86452E-05-2.78621E-05-5.09002E-06 7.08851E-19 1.62542E-18
 -1      2061 9.45119E-05-2.90388E-05-2.80609E-05-2.44775E-06-6.14489E-19 3.59098E-19
 -1      2062 9.36589E-05-2.86264E-05-2.78824E-05-3.01390E-06 1.38771E-18 7.05128E-19
 -1      2063 9.44082E-05-2.91343E-05-2.79815E-05-4.10442E-06 3.86796E-19 2.28200E-18
 -1      2064 9.49205E-05-2.95322E-05-2.80296E-05-2.87849E-06-7.25060E-19 3.28750E-18
 -1      2065 9.85016E-05-3.20186E-05-2.83840E-05 1.22825E-06 1.43895E-18 6.46240E-19
 -1      2066 9.80360E-05-3.22039E-05-2.82056E-05-4.01511E-07 2.78369E-19 2.08303E-18
 -1      2067 9.73657E-05-3.17386E-05-2.80431E-05-1.85641E-06 1.44560E-18 2.78081E-18
 -1      2068 9.66365E-05-3.12300E-05-2.80489E-05-2.66173E-06 8.95790E-19 1.10474E-18
 -1      2069 9.84671E-05-3.19628E-05-2.85141E-05-1.30382E-06 6.36729E-19 1.82595E-18
 -1      2070 9.55853E-05-3.02774E-05-2.79531E-05-2.98626E-06 1.42063E-19 2.45600E-18
 -1      2071 9.90618E-05-3.08100E-05-2.91254E-05 6.13456E-06 1.73225E-18 9.89096E-19
 -1      2072 9.90408E-05-3.20946E-05-2.86688E-05 3.72160E-06 1.75121E-18 1.84799E-18
 -1      2073 1.00271E-04-3.26752E-05-2.89958E-05 3.00494E-06 8.41861E-19 1.71598E-18
 -1      2074 9.83467E-05-2.73926E-05-3.03063E-05 1.22637E-05 2.16311E-18 1.41616E-18
 -1      2075 9.91488E-05-3.01332E-05-2.95401E-05 9.47162E-06 1.01382E-18 7.51106E-19
 -1      2076 1.01296E-04-3.22103E-05-2.96604E-05 9.41754E-06 8.09502E-19 9.70382E-19
 -1      2077 9.56213E-05-2.14222E-05-3.17786E-05 1.78868E-05 3.13298E-18-1.21038E-18
 -1      2078 9.75377E-05-2.55595E-05-3.07905E-05 1.56397E-05 2.70118E-18 1.20734E-18
 -1      2079 1.00512E-04-2.97025E-05-3.04226E-05 1.68810E-05 2.05297E-18 1.72908E-18
 -1      2080 9.04629E-05-1.29883E-05-3.33014E-05 2.05016E-05 2.40327E-18-2.95803E-18
 -1      2081 9.34958E-05-1.80775E-05-3.22457E-05 2.00059E-05 2.97524E-18-2.59121E-18
 -1      2082 9.67672E-05-2.43317E-05-3.11180E-05 2.31681E-05 2.26486E-18-2.54524E-18
 -1      2083 8.40531E-05-3.97895E-06-3.44997E-05 1.71830E-05 9.73069E-19-1.57434E-18
 -1      2084 8.72834E-05-8.62658E-06-3.36436E-05 1.95510E-05 1.39393E-18-2.55266E-18
 -1      2085 8.98163E-05-1.61398E-05-3.15747E-05 2.47672E-05 8.27366E-19-3.41603E-18
 -1      2086 7.94007E-05 2.16838E-06-3.51224E-05 7.62519E-06-4.25747E-19-1.31123E-18
 -1      2087 8.12512E-05-3.40600E-07-3.46838E-05 1.24647E-05 5.45966E-19-1.85130E-18
 -1      2088 8.19498E-05-7.50074E-06-3.17583E-05 1.85548E-05 6.59008E-19-1.90479E-18
 -1      2089 7.91588E-05 2.65361E-06-3.51246E-05-5.12971E-06-3.56019E-19 2.65005E-18
 -1      2090 7.86226E-05 3.22738E-06-3.51960E-05 4.58445E-07-9.04803E-19 2.09580E-18
 -1      2091 7.72833E-05-2.39758E-06-3.18292E-05 5.09255E-06-4.65752E-20-1.05085E-19
 -1      2092 8.35670E-05-2.90038E-06-3.45345E-05-1.53593E-05 8.79233E-19 2.49183E-18
 -1      2093 8.09806E-05 4.70024E-07-3.50949E-05-1.14962E-05-1.39330E-19 1.96236E-18
 -1      2094 7.86916E-05-3.67210E-06-3.19285E-05-1.03691E-05-5.85703E-19 2.71863E-18
 -1      2095 8.97862E-05-1.14772E-05-3.34846E-05-1.93810E-05 4.67933E-19-3.51853E-19
 -1      2096 8.66237E-05-6.77443E-06-3.43681E-05-1.83655E-05 1.09883E-18-3.87253E-20
 -1      2097 8.51522E-05-1.02985E-05-3.20080E-05-2.08292E-05 2.09042E-19 1.42108E-18
 -1      2098 9.48248E-05-1.95110E-05-3.21976E-05-1.74468E-05-7.96707E-19-7.60212E-19
 -1      2099 9.23297E-05-1.49928E-05-3.31794E-05-1.87085E-05-2.88838E-19 5.50624E-19
 -1      2100 9.28111E-05-1.83657E-05-3.19211E-05-2.31986E-05-1.11207E-18-5.79447E-19
 -1      2101 9.36664E-05-2.73493E-05-2.83769E-05 2.02221E-06 1.65206E-18 3.34562E-18
 -1      2102 9.47620E-05-2.73503E-05-2.88307E-05 3.12489E-06 1.89058E-18 4.19062E-18
 -1      2103 9.54985E-05-2.68492E-05-2.94225E-05 4.53009E-06 2.22600E-18 2.75292E-18
 -1      2104 9.44340E-05-2.71801E-05-2.88365E-05 2.49286E-06 1.85986E-18 1.74407E-18
 -1      2105 6.66459E-05-4.76100E-05-8.60029E-06 4.72186E-05-1.31290E-19-1.24937E-18
 -1      2106 5.21297E-05-4.82987E-05-2.46722E-06 4.23197E-05-2.34628E-19-1.63869E-18
 -1      2107 1.41305E-04-4.98652E-05-3.90888E-05 3.93238E-05-2.18386E-18-4.87891E-19
 -1      2108 1.19705E-04-5.02006E-05-3.02427E-05 4.16865E-05-1.68178E-18-3.65495E-19
 -1      2109 1.52914E-05-4.39269E-05 1.03536E-05 7.58090E-06-2.28170E-19 1.35652E-18
 -1      2110 1.45765E-05-4.24710E-05 1.01821E-05-4.01038E-06-1.66802E-18-7.10237E-19
 -1      2111 1.02273E-04-4.82053E-05-2.31164E-05 4.93604E-05-1.18712E-18-1.39718E-18
 -1      2112 8.30196E-05-5.13823E-05-1.46575E-05 4.45954E-05-6.74662E-19-8.91502E-19
 -1      2113 8.91706E-05-5.60531E-05-1.45751E-05 5.13070E-05 1.82959E-19-1.63738E-18
 -1      2114 1.24557E-04-6.09835E-05-2.69104E-05 4.24118E-05-1.37389E-18-1.35546E-18
 -1      2115 8.72476E-05-8.72271E-06-3.37491E-05-1.05370E-05-1.83053E-18-4.30584E-18
 -1      2116 8.79547E-05-9.24122E-06-3.38214E-05-1.20941E-05-2.21207E-18-3.92020E-18
 -1      2117 9.04871E-05-1.30504E-05-3.32358E-05-1.18728E-05-2.43123E-18-3.45210E-18
 -1      2118 8.86851E-05-1.10550E-05-3.32951E-05-9.40969E-06-1.83983E-18-4.19640E-18
 -1      2119 1.70963E-04-3.88231E-05-5.56379E-05 2.41953E-05-9.49736E-19-1.72964E-18
 -1      2120 1.54197E-04-4.26538E-05-4.78858E-05 2.36960E-05-1.46518E-18-9.13949E-19
 -1      2121 1.82065E-04-2.92071E-05-6.46485E-05 1.26319E-05 5.77465E-19-4.23051E-18
 -1      2122 1.72412E-04-3.17469E-05-6.00345E-05 1.86935E-05-3.95988E-20-2.99045E-18
 -1      2123 1.61524E-04-3.50112E-05-5.36877E-05 2.65870E-06 5.45066E-19-2.94979E-18
 -1      2124 1.90913E-04-2.35470E-05-7.06659E-05 3.58515E-06 2.89431E-18-6.55826E-18
 -1      2125 1.88024E-04-2.45138E-05-6.91127E-05 1.18110E-05 1.37219E-18-5.81382E-18
 -1      2126 1.87858E-04-2.60154E-05-6.83511E-05-7.82920E-06 3.18823E-18-7.48650E-18
 -1      2127 1.88983E-04-2.34110E-05-7.00303E-05 8.02518E-07 3.20178E-18-7.22837E-18
 -1      2128 1.71627E-04-3.06667E-05-6.00688E-05-1.61008E-05 3.43324E-18-6.73772E-18
 -1      2129 1.86741E-04-3.06754E-05-6.55666E-05-1.22838E-05 2.68382E-18-7.21037E-18
 -1      2130 1.66765E-04-1.90326E-05-6.22457E-05 2.81052E-06 2.53771E-18-5.56056E-18
 -1      2131 1.48736E-04-4.00258E-05-4.66191E-05-2.97487E-05 3.67856E-18-6.57128E-18
 -1      2132 1.66016E-04-3.86286E-05-5.37919E-05-2.55650E-05 3.95248E-18-6.04654E-18
 -1      2133 1.16883E-04-4.53233E-05-3.12680E-05-3.85134E-05 1.97867E-18-8.05359E-18
 -1      2134 1.37224E-04-4.35059E-05-3.95988E-05-3.92508E-05 3.38686E-18-8.45000E-18
 -1      2135 7.98804E-05-4.72634E-05-1.50457E-05-4.15141E-05 8.69903E-19-5.52668E-18
 -1      2136 9.99885E-05-4.53663E-05-2.33467E-05-4.60826E-05 1.65426E-18-7.06574E-18
 -1      2137 4.53132E-05-4.52596E-05-1.46155E-06-3.60988E-05-5.59889E-19-3.84193E-18
 -1      2138 5.96410E-05-4.20773E-05-8.12745E-06-4.27166E-05 9.27501E-19-4.60108E-18
 -1      2139 2.09454E-05-4.27393E-05 7.71788E-06-2.22624E-05-3.09167E-19-3.68544E-18
 -1      2140 2.92444E-05-3.94772E-05 3.47889E-06-3.13130E-05 5.26854E-19-4.12865E-18
 -1      2141 1.16463E-05-4.05625E-05 1.08986E-05-4.71339E-06-8.74588E-19-1.62503E-18
 -1      2142 1.39665E-05-4.09599E-05 1.01247E-05-1.35129E-05-5.68147E-19-3.55881E-18
 -1      2143 1.95890E-05-3.15794E-05 4.40460E-06-2.30433E-05 5.88688E-19-3.87814E-18
 -1      2144 2.26637E-05-4.15293E-05 6.92857E-06 1.75396E-05-2.62368E-18-1.70042E-18
 -1      2145 1.57308E-05-4.17380E-05 9.63812E-06 8.10330E-06-2.02314E-18-1.46071E-18
 -1      2146 5.11656E-05-4.66641E-05-2.77270E-06 3.22538E-05-3.52408E-18-3.37045E-18
 -1      2147 3.67007E-05-4.77662E-05 3.12748E-06 2.43163E-05-3.08320E-18-2.58387E-18
 -1      2148 9.24340E-05-5.24150E-05-1.74950E-05 3.66921E-05-2.97732E-18-2.12732E-18
 -1      2149 7.31358E-05-5.36614E-05-9.69889E-06 3.22214E-05-3.17468E-18-3.24022E-18
 -1      2150 1.34240E-04-5.65603E-05-3.33362E-05 2.85886E-05-3.55415E-18-2.71474E-19
 -1      2151 1.10032E-04-5.57114E-05-2.43208E-05 2.94995E-05-3.76718E-18-1.01475E-18
 -1      2152 1.15896E-04-6.42219E-05-2.20992E-05 3.02728E-05-3.38771E-18-1.26653E-18
 -1      2153 1.70236E-04-4.99400E-05-5.05568E-05 1.20180E-05-1.64594E-18-1.90794E-18
 -1      2154 1.50846E-04-5.32491E-05-4.21334E-05 1.32730E-05-1.78872E-18-1.76310E-18
 -1      2155 1.92839E-04-3.89197E-05-6.41882E-05 4.16642E-06-1.92192E-18-2.58430E-18
 -1      2156 1.76141E-04-4.05868E-05-5.76850E-05 7.63519E-06-2.04929E-18-2.56397E-18
 -1      2157 1.96873E-04-2.87955E-05-7.03652E-05-7.52376E-06 1.04524E-18-4.04924E-18
 -1      2158 1.95897E-04-3.26488E-05-6.81343E-05-4.18016E-07-4.92126E-19-3.51646E-18
 -1      2159 1.75653E-04-2.86472E-05-6.15835E-05-1.21591E-05-4.45963E-19-3.05864E-18
 -1      2160 1.97737E-04-2.93616E-05-7.00594E-05-1.25313E-05 1.18585E-19-2.85111E-18
 -1      2161 1.95711E-04-2.69049E-05-7.08075E-05-6.59103E-06 6.48827E-19-3.45642E-18
 -1      2162 1.82023E-04-3.48167E-05-6.21579E-05-2.02697E-05-2.19805E-19-3.10438E-18
 -1      2163 1.96693E-04-3.43964E-05-6.75960E-05-1.69861E-05 4.63751E-19-3.53975E-18
 -1      2164 1.58329E-04-4.70625E-05-4.75129E-05-2.74372E-05-6.91179E-19-2.40134E-18
 -1      2165 1.75435E-04-4.45805E-05-5.49561E-05-2.37264E-05-3.76387E-19-3.70577E-18
 -1      2166 1.22574E-04-5.09481E-05-3.13876E-05-3.93343E-05-3.89635E-19-2.54872E-18
 -1      2167 1.45170E-04-4.83429E-05-4.08460E-05-4.13544E-05-6.38663E-19-2.89262E-18
 -1      2168 8.29185E-05-5.42681E-05-1.36741E-05-4.21245E-05 1.43996E-19 1.11088E-18
 -1      2169 1.04367E-04-5.16508E-05-2.26171E-05-4.76858E-05-3.89635E-20-1.92276E-19
 -1      2170 4.91432E-05-5.07607E-05-8.35795E-07-3.69754E-05-4.27752E-20 1.10252E-18
 -1      2171 6.45766E-05-4.91171E-05-7.32210E-06-4.42405E-05 2.27005E-19 1.45398E-18
 -1      2172 2.18159E-05-4.47466E-05 8.03771E-06-1.81112E-05-1.92171E-18-1.47468E-18
 -1      2173 3.07724E-05-4.36759E-05 4.26210E-06-2.92606E-05-1.30528E-18-1.33704E-18
 -1      2174 3.00491E-05-4.18263E-05 3.80904E-06 3.14280E-05-8.84302E-19 6.13675E-19
 -1      2175 2.12718E-05-4.61389E-05 8.53371E-06 1.87240E-05-1.22121E-18 2.58980E-18
 -1      2176 9.85297E-05-2.58560E-05-3.11525E-05-1.25024E-05-1.60842E-18-5.82825E-19
 -1      2177 9.71961E-05-2.43170E-05-3.13073E-05-1.00002E-05-2.78520E-18 7.17728E-19
 -1      2178 1.63835E-04-3.57151E-05-5.41630E-05-6.09627E-06 2.74121E-18-4.62988E-18
 -1      2179 1.52909E-04-5.38807E-05-4.20548E-05 2.16163E-05-2.40282E-18-7.05578E-19
 -1      2180 9.63542E-05-2.31076E-05-3.14573E-05-1.03828E-05-2.96251E-18-7.24054E-19
 -1      2181 9.61296E-05-3.03835E-05-2.81718E-05-3.41988E-06 5.10913E-19 2.70551E-18
 -1      2182 2.01562E-05-3.20039E-05 4.26001E-06 1.68528E-05 1.59242E-19 1.64494E-18
 -1      2183 9.74709E-05-2.34358E-05-3.17338E-05-1.47086E-05-1.61253E-18-4.63221E-22
 -1      2184 6.37113E-05-4.35759E-05-8.89627E-06 4.94626E-05-4.16740E-19-6.38663E-19
 -1      2185 4.67777E-05-4.24883E-05-2.23396E-06 4.11260E-05-6.29345E-19-1.31417E-18
 -1      2186 4.27872E-05-3.36152E-05-3.42671E-06 4.02877E-05-1.12126E-18-5.31937E-19
 -1      2187 2.10761E-05-3.26051E-05 4.09927E-06-1.44834E-05-1.17780E-18 5.23043E-19
 -1      2188 4.83774E-05-4.34302E-05-2.66794E-06-4.05890E-05-1.18331E-18 1.60089E-19
 -1      2189 8.77015E-05-5.75300E-05-1.33127E-05-4.78214E-05-2.61310E-19 9.16357E-19
 -1      2190 1.26427E-04-6.25205E-05-2.73691E-05-3.98800E-05 2.35475E-19-3.24160E-18
 -1      2191 1.57359E-04-5.72595E-05-4.22681E-05-2.07766E-05 8.06799E-20-3.30428E-18
 -1      2192 1.71689E-04-4.18002E-05-5.47116E-05-3.86718E-06 1.07785E-19-3.52239E-18
 -1      2193 1.81554E-04-2.26731E-05-6.69980E-05-7.71061E-06 8.17387E-19-3.93066E-18
 -1      2194 1.61723E-04-1.74948E-05-6.18563E-05-1.00579E-05 8.96584E-19-3.02348E-18
 -1      2195 1.60533E-04-1.54514E-05-6.22434E-05-6.30183E-06 3.34578E-19-3.74423E-18
 -1      2196 1.49706E-04-6.33374E-05-3.68019E-05 1.04737E-05-2.69399E-18-1.45097E-18
 -1      2197 7.44441E-05-5.37974E-05-9.21770E-06 3.73046E-05-3.03450E-18-2.73105E-18
 -1      2198 1.52502E-05-3.05754E-05 5.86138E-06 3.37508E-06-3.32884E-19-2.20906E-18
 -1      2199 4.44416E-05-4.06182E-05-2.18628E-06-4.03796E-05-3.55754E-20-3.92833E-18
 -1      2200 8.28707E-05-5.13013E-05-1.36472E-05-4.66473E-05-7.18284E-19-5.50905E-18
 -1      2201 1.20788E-04-5.68651E-05-2.73402E-05-3.76392E-05 7.11508E-20-7.21672E-18
 -1      2202 1.65992E-04-1.94517E-05-6.19495E-05 3.09527E-07 2.07057E-18-3.68353E-18
 -1      2203 1.69459E-04-1.34587E-05-6.57832E-05 2.79191E-06 3.09591E-18-6.04670E-18
 -1      2204 1.48454E-04-5.04026E-05-4.14731E-05-2.19481E-05 2.73041E-18-5.39899E-18
 -1      2205 3.56613E-05-3.92950E-05 9.47929E-07 2.74245E-05-1.75378E-18-2.56799E-18
 -1      2206 1.67932E-04-4.71495E-05-5.11383E-05-9.17755E-06-1.77570E-18-2.09048E-18
 -1      2207 1.76515E-04-2.36862E-05-6.38564E-05-2.51720E-06 1.80418E-19-4.18413E-18
 -1      2208 9.95270E-05-2.62332E-05-3.14708E-05-1.91368E-05-2.38729E-18-8.22707E-19
 -1      2209 8.81299E-05-1.11804E-05-3.30175E-05-3.66011E-06-4.12599E-19-4.21816E-18
 -1      2210 8.83644E-05-1.14508E-05-3.29998E-05-4.80107E-06-8.01980E-19-4.29601E-18
 -1      2211 8.87167E-05-1.19343E-05-3.29516E-05-5.81788E-06-1.02823E-18-4.22610E-18
 -1      2212 8.91249E-05-1.24065E-05-3.29234E-05-6.99008E-06-1.41568E-18-4.20073E-18
 -1      2213 8.98844E-05-1.38195E-05-3.25980E-05-4.90190E-06-8.80054E-19-3.95410E-18
 -1      2214 8.77837E-05-1.07218E-05-3.30605E-05 6.15487E-07 7.83394E-19-3.95059E-18
 -1      2215 8.77793E-05-1.07169E-05-3.30608E-05-4.95342E-07 4.80851E-19-4.05067E-18
 -1      2216 8.79651E-05-1.09469E-05-3.30422E-05 2.75712E-06 1.35860E-18-3.92663E-18
 -1      2217 8.78500E-05-1.08137E-05-3.30514E-05 1.63794E-06 1.02674E-18-3.98190E-18
 -1      2218 8.91012E-05-1.27680E-05-3.27174E-05 1.04949E-06 8.52301E-19-3.74059E-18
 -1      2219 8.84003E-05-1.14943E-05-3.29973E-05 4.88593E-06 1.94987E-18-3.67423E-18
 -1      2220 8.81602E-05-1.12173E-05-3.30152E-05 3.76291E-06 1.60070E-18-3.82227E-18
 -1      2221 8.93674E-05-1.31238E-05-3.26776E-05 3.02013E-06 1.41332E-18-3.66568E-18
 -1      2222 8.91817E-05-1.24780E-05-3.29188E-05 7.07289E-06 2.50143E-18-3.05062E-18
 -1      2223 8.87625E-05-1.19908E-05-3.29478E-05 5.90106E-06 2.18685E-18-3.44620E-18
 -1      2224 8.99256E-05-1.38719E-05-3.25936E-05 4.97347E-06 2.01501E-18-3.34594E-18
 -1      2225 9.04543E-05-1.40887E-05-3.27923E-05 9.22065E-06 2.94686E-18-2.30581E-18
 -1      2226 8.97725E-05-1.32780E-05-3.28374E-05 8.04298E-06 2.58726E-18-2.66794E-18
 -1      2227 9.08641E-05-1.51327E-05-3.24491E-05 6.86761E-06 2.49681E-18-2.71119E-18
 -1      2228 9.24537E-05-1.66880E-05-3.25726E-05 1.10559E-05 3.28703E-18-1.14180E-18
 -1      2229 9.13579E-05-1.53117E-05-3.26553E-05 1.00379E-05 3.07038E-18-1.83982E-18
 -1      2230 9.22917E-05-1.70902E-05-3.22086E-05 8.52620E-06 2.81078E-18-1.84372E-18
 -1      2231 9.55014E-05-2.08230E-05-3.20990E-05 1.17020E-05 3.31604E-18 9.37004E-19
 -1      2232 9.38106E-05-1.84809E-05-3.23224E-05 1.14686E-05 3.26460E-18-3.39965E-19
 -1      2233 9.43379E-05-2.00429E-05-3.17910E-05 9.48261E-06 3.03998E-18-6.21193E-19
 -1      2234 9.75157E-05-2.45978E-05-3.13136E-05 9.84471E-06 2.95352E-18 2.79521E-18
 -1      2235 9.62783E-05-2.22302E-05-3.17318E-05 1.10902E-05 3.15165E-18 1.75354E-18
 -1      2236 9.58138E-05-2.31987E-05-3.11192E-05 8.79122E-06 3.02892E-18 8.85654E-19
 -1      2237 9.63243E-05-2.56723E-05-3.02860E-05 6.87838E-06 2.71788E-18 2.29948E-18
 -1      2238 9.59178E-05-2.50963E-05-3.03060E-05-6.18756E-06-2.43539E-18-1.28843E-18
 -1      2239 9.52590E-05-2.58543E-05-2.97619E-05-4.27702E-06-2.19062E-18-1.43707E-18
 -1      2240 1.53787E-04-4.11164E-05-4.84943E-05-8.87751E-07 1.66146E-18-3.18633E-18
 -1      2241 1.56290E-04-3.16373E-05-5.39628E-05 4.69064E-06 1.89799E-18-3.44425E-18
 -1      2242 9.60034E-05-3.01827E-05-2.82058E-05-3.90769E-06 6.40767E-20 2.75637E-18
 -1      2243 9.51435E-05-2.65383E-05-2.93448E-05-2.93842E-06-1.94815E-18-1.25534E-18
 -1      2244 9.46720E-05-2.69083E-05-2.90415E-05-1.87585E-06-1.74306E-18-1.46431E-18
 -1      2245 9.53394E-05-2.53642E-05-2.99960E-05-4.29213E-06-2.19565E-18-1.80288E-18
 -1      2246 9.44769E-05-2.72385E-05-2.87779E-05-1.02427E-06-1.60496E-18-1.34302E-18
 -1      2247 9.42188E-05-2.74522E-05-2.86117E-05-4.22603E-07-1.38922E-18-1.52055E-18
 -1      2248 9.50341E-05-2.66985E-05-2.92995E-05-1.91733E-06-1.76300E-18-1.72979E-18
 -1      2249 9.40700E-05-2.76328E-05-2.84505E-05 8.50954E-08-1.21434E-18-1.46499E-18
 -1      2250 9.39718E-05-2.77764E-05-2.83670E-05 4.14745E-07-9.85277E-19-1.60998E-18
 -1      2251 9.47300E-05-2.74278E-05-2.88566E-05-4.38665E-07-1.36810E-18-1.53893E-18
 -1      2252 9.38871E-05-2.78861E-05-2.82735E-05 6.97177E-07-7.97865E-19-1.65125E-18
 -1      2253 9.38929E-05-2.79932E-05-2.82406E-05 8.61021E-07-5.79180E-19-1.65038E-18
 -1      2254 9.45288E-05-2.78563E-05-2.85843E-05 4.31465E-07-1.03940E-18-1.60855E-18
 -1      2255 9.38613E-05-2.80653E-05-2.81917E-05 9.97906E-07-6.68227E-19-1.82411E-18
 -1      2256 9.39283E-05-2.81492E-05-2.81893E-05 1.05976E-06-5.90428E-19-1.91338E-18
 -1      2257 9.44359E-05-2.81258E-05-2.84261E-05 9.01726E-07-7.76855E-19-1.75480E-18
 -1      2258 9.39336E-05-2.81989E-05-2.81692E-05 1.10438E-06-5.55465E-19-2.13834E-18
 -1      2259 9.40323E-05-2.82657E-05-2.81844E-05 1.10442E-06-5.92554E-19-2.15856E-18
 -1      2260 9.44258E-05-2.83027E-05-2.83435E-05 1.11384E-06-7.63437E-19-2.21046E-18
 -1      2261 9.40604E-05-2.83005E-05-2.81823E-05 1.09263E-06-7.96910E-19-2.16606E-18
 -1      2262 9.41711E-05-2.83534E-05-2.82066E-05 1.05698E-06-9.05006E-19-2.16689E-18
 -1      2263 9.44700E-05-2.84210E-05-2.83099E-05 1.16341E-06-7.45962E-19-2.20954E-18
 -1      2264 9.42112E-05-2.83777E-05-2.82152E-05 1.01300E-06-7.80046E-19-1.95517E-18
 -1      2265 9.43218E-05-2.84190E-05-2.82434E-05 9.58935E-07-7.90200E-19-1.88474E-18
 -1      2266 9.45451E-05-2.84995E-05-2.83072E-05 1.11523E-06-7.76313E-19-2.01472E-18
 -1      2267 9.43666E-05-2.84353E-05-2.82579E-05 8.99135E-07-8.86624E-19-1.89332E-18
 -1      2268 9.44699E-05-2.84669E-05-2.82865E-05 8.38070E-07-7.05201E-19-1.92078E-18
 -1      2269 9.46344E-05-2.85499E-05-2.83229E-05 1.01324E-06-9.54416E-19-1.86382E-18
 -1      2270 9.45149E-05-2.84774E-05-2.83037E-05 7.73403E-07-6.15762E-19-1.92408E-18
 -1      2271 9.46074E-05-2.85009E-05-2.83310E-05 7.12842E-07-4.59547E-19-1.98624E-18
 -1      2272 9.47266E-05-2.85802E-05-2.83489E-05 8.87149E-07-7.69772E-19-1.52274E-18
 -1      2273 9.46500E-05-2.85068E-05-2.83491E-05 6.50558E-07-7.19488E-19-2.09873E-18
 -1      2274 9.47308E-05-2.85237E-05-2.83741E-05 5.95381E-07-9.93995E-19-2.31319E-18
 -1      2275 9.48153E-05-2.85958E-05-2.83799E-05 7.56826E-07-7.80467E-19-1.75757E-18
 -1      2276 9.47699E-05-2.85262E-05-2.83920E-05 5.40253E-07-1.01629E-18-2.25496E-18
 -1      2277 9.48397E-05-2.85378E-05-2.84147E-05 4.93649E-07-5.86793E-19-2.47320E-18
 -1      2278 9.48971E-05-2.86006E-05-2.84127E-05 6.35470E-07-9.85173E-19-1.71701E-18
 -1      2279 9.48754E-05-2.85377E-05-2.84321E-05 4.48888E-07-2.71319E-19-2.43823E-18
 -1      2280 9.49360E-05-2.85451E-05-2.84527E-05 4.13049E-07-1.69309E-19-2.48157E-18
 -1      2281 9.49713E-05-2.85975E-05-2.84458E-05 5.31895E-07-4.63590E-19-1.35952E-18
 -1      2282 9.49690E-05-2.85429E-05-2.84698E-05 3.80991E-07-2.93355E-19-2.46058E-18
 -1      2283 9.50233E-05-2.85471E-05-2.84890E-05 3.57645E-07-2.06315E-19-2.62731E-18
 -1      2284 9.50389E-05-2.85883E-05-2.84788E-05 4.52249E-07-3.62465E-19-1.89630E-18
 -1      2285 9.50550E-05-2.85432E-05-2.85062E-05 3.40299E-07-1.79329E-19-2.96075E-18
 -1      2286 9.51064E-05-2.85451E-05-2.85251E-05 3.31135E-07-5.06535E-20-2.38698E-18
 -1      2287 9.51021E-05-2.85741E-05-2.85121E-05 4.01339E-07-3.05188E-19-2.44473E-18
 -1      2288 9.51385E-05-2.85397E-05-2.85433E-05 3.30615E-07-3.42327E-19-2.47003E-18
 -1      2289 9.51912E-05-2.85399E-05-2.85632E-05 3.37639E-07-3.57480E-19-2.52470E-18
 -1      2290 9.51641E-05-2.85555E-05-2.85469E-05 3.83681E-07-2.40714E-19-2.19652E-18
 -1      2291 9.52261E-05-2.85330E-05-2.85835E-05 3.56532E-07-4.12861E-19-2.20658E-18
 -1      2292 9.52849E-05-2.85324E-05-2.86060E-05 3.82382E-07-2.93775E-19-2.59936E-18
 -1      2293 9.52289E-05-2.85323E-05-2.85848E-05 4.04350E-07-3.95826E-19-1.93897E-18
 -1      2294 9.53250E-05-2.85238E-05-2.86296E-05 4.24080E-07-1.48118E-19-2.73775E-18
 -1      2295 9.53957E-05-2.85231E-05-2.86567E-05 4.72331E-07 6.00098E-20-3.01996E-18
 -1      2296 9.53013E-05-2.85039E-05-2.86283E-05 4.69717E-07-4.16175E-19-2.28118E-18
 -1      2297 9.54439E-05-2.85124E-05-2.86854E-05 5.41345E-07-8.58851E-21-3.12324E-18
 -1      2298 9.55333E-05-2.85121E-05-2.87193E-05 6.16826E-07 7.95964E-20-2.80895E-18
 -1      2299 9.53865E-05-2.84691E-05-2.86801E-05 5.88122E-07-9.40044E-20-2.19494E-18
 -1      2300 9.55926E-05-2.84986E-05-2.87550E-05 7.19117E-07 1.63556E-19-2.37379E-18
 -1      2301 9.57086E-05-2.84994E-05-2.87985E-05 8.28262E-07 4.39495E-20-1.86166E-18
 -1      2302 9.54905E-05-2.84260E-05-2.87435E-05 7.70530E-07 2.78425E-19-1.74071E-18
 -1      2303 9.57823E-05-2.84819E-05-2.88434E-05 9.71583E-07 1.45635E-20-2.11602E-18
 -1      2304 9.59345E-05-2.84846E-05-2.88999E-05 1.12282E-06 1.55862E-19-1.93663E-18
 -1      2305 9.56194E-05-2.83716E-05-2.88223E-05 1.03119E-06 3.24155E-20-1.60300E-18
 -1      2306 9.60253E-05-2.84615E-05-2.89565E-05 1.31709E-06-1.18598E-19-2.32228E-18
 -1      2307 9.62249E-05-2.84667E-05-2.90299E-05 1.52128E-06 1.09695E-19-2.55893E-18
 -1      2308 9.57791E-05-2.83019E-05-2.89209E-05 1.38835E-06-2.12872E-19-2.41344E-18
 -1      2309 9.63351E-05-2.84354E-05-2.91008E-05 1.77890E-06 1.02396E-19-2.87688E-18
 -1      2310 9.65952E-05-2.84438E-05-2.91956E-05 2.04967E-06 2.54946E-19-2.92217E-18
 -1      2311 9.59748E-05-2.82113E-05-2.90438E-05 1.86484E-06-4.49206E-19-3.03289E-18
 -1      2312 9.67260E-05-2.84012E-05-2.92835E-05 2.38582E-06 7.02903E-19-2.59055E-18
 -1      2313 9.70616E-05-2.84142E-05-2.94049E-05 2.73969E-06 9.04093E-19-1.97472E-18
 -1      2314 9.62101E-05-2.80925E-05-2.91956E-05 2.48860E-06 6.35899E-19-3.14163E-18
 -1      2315 9.72121E-05-2.83566E-05-2.95120E-05 3.17213E-06 6.56885E-19-2.53168E-18
 -1      2316 9.76403E-05-2.83766E-05-2.96651E-05 3.62797E-06 4.93130E-19-2.66337E-18
 -1      2317 9.64856E-05-2.79373E-05-2.93797E-05 3.29257E-06 6.28859E-19-2.64547E-18
 -1      2318 9.78075E-05-2.83012E-05-2.97922E-05 4.17616E-06 8.31014E-19-2.41192E-18
 -1      2319 9.83472E-05-2.83346E-05-2.99818E-05 4.75296E-06 1.16095E-18-1.93545E-18
 -1      2320 9.67980E-05-2.77387E-05-2.95978E-05 4.31337E-06 5.92402E-19-2.54628E-18
 -1      2321 9.85270E-05-2.82433E-05-3.01271E-05 5.43544E-06 5.72836E-19-1.79931E-18
 -1      2322 9.91998E-05-2.83047E-05-3.03558E-05 6.14683E-06 2.14827E-19-1.81138E-18
 -1      2323 9.71409E-05-2.74973E-05-2.98467E-05 5.58753E-06 8.40861E-19-9.35567E-19
 -1      2324 9.93917E-05-2.82121E-05-3.05129E-05 6.97560E-06 9.71904E-20-1.12873E-18
 -1      2325 1.00224E-04-2.83352E-05-3.07785E-05 7.81801E-06 2.58080E-19-6.75094E-19
 -1      2326 9.75104E-05-2.72355E-05-3.01153E-05 7.14330E-06 5.71653E-19-7.44213E-19
 -1      2327 1.00444E-04-2.82861E-05-3.09333E-05 8.78733E-06-1.29106E-19-8.00917E-19
 -1      2328 1.01475E-04-2.85427E-05-3.12253E-05 9.71742E-06-1.81715E-20-5.31924E-19
 -1      2329 9.79212E-05-2.70274E-05-3.03793E-05 8.98466E-06 1.21233E-19-5.85158E-19
 -1      2330 1.01787E-04-2.86430E-05-3.13537E-05 1.07831E-05 5.23786E-19-2.98215E-19
 -1      2331 1.03082E-04-2.91742E-05-3.16486E-05 1.16788E-05 6.45277E-19-2.76890E-19
 -1      2332 9.84484E-05-2.70538E-05-3.05959E-05 1.10631E-05 6.33368E-20 2.09076E-19
 -1      2333 1.03654E-04-2.96385E-05-3.17167E-05 1.27234E-05 4.56764E-19-6.23444E-19
 -1      2334 1.05338E-04-3.06946E-05-3.19768E-05 1.33264E-05 8.88841E-19-3.79651E-19
 -1      2335 9.93075E-05-2.76896E-05-3.07019E-05 1.32306E-05 5.47988E-19 2.16826E-19
 -1      2336 1.06535E-04-3.19012E-05-3.19530E-05 1.40907E-05 9.83759E-19-1.31516E-19
 -1      2337 1.08810E-04-3.38481E-05-3.21392E-05 1.39371E-05 1.07219E-18-3.36444E-19
 -1      2338 1.01004E-04-2.96266E-05-3.06261E-05 1.51612E-05 9.11790E-19-5.09587E-19
 -1      2339 1.11276E-04-3.63113E-05-3.20383E-05 1.38874E-05 8.79361E-19-4.84546E-20
 -1      2340 1.14351E-04-3.94470E-05-3.21552E-05 1.22737E-05 3.57316E-19 3.05759E-19
 -1      2341 1.04519E-04-3.39149E-05-3.03481E-05 1.61798E-05 1.17298E-18 8.00512E-19
 -1      2342 1.18894E-04-4.34938E-05-3.21400E-05 1.04618E-05-5.16022E-19 1.49442E-19
 -1      2343 1.22683E-04-4.74756E-05-3.23372E-05 6.61799E-06-4.21822E-19 4.67440E-19
 -1      2344 1.11321E-04-4.15941E-05-3.00538E-05 1.49920E-05 1.59785E-19 1.69350E-18
 -1      2345 1.29533E-04-5.22323E-05-3.29274E-05 1.66773E-06-1.14576E-18-1.98682E-19
 -1      2346 1.32817E-04-5.47103E-05-3.36314E-05-4.46420E-06-8.21410E-19-1.13048E-18
 -1      2347 1.22611E-04-5.21296E-05-3.04695E-05 9.30017E-06-1.74261E-18 1.37753E-18
 -1      2348 1.40102E-04-5.65247E-05-3.58491E-05-1.30695E-05 2.11255E-19-2.42776E-18
 -1      2349 1.39992E-04-5.25422E-05-3.77326E-05-1.93151E-05 6.29451E-20-2.87202E-18
 -1      2350 1.37574E-04-6.03113E-05-3.34125E-05-3.08453E-06-1.23012E-18-4.62004E-19
 -1      2351 1.41417E-04-4.55733E-05-4.16810E-05-2.63361E-05-2.33728E-19-3.44668E-18
 -1      2352 1.37069E-04-3.44553E-05-4.42284E-05-2.64361E-05-5.87417E-19-2.51855E-18
 -1      2353 1.34388E-04-2.52546E-05-4.76394E-05-2.21383E-05 2.64063E-19-2.51918E-18
 -1      2354 1.30894E-04-1.81966E-05-4.87397E-05-1.36177E-05 1.36139E-18-2.57974E-18
 -1      2355 1.30877E-04-1.65963E-05-4.94882E-05-2.15014E-06-3.93870E-20-2.40335E-18
 -1      2356 1.32487E-04-2.15771E-05-4.84121E-05 7.84284E-06-9.50371E-19-1.72234E-18
 -1      2357 1.34605E-04-3.04047E-05-4.49814E-05 1.43843E-05-2.46698E-19-1.55865E-18
 -1      2358 1.38130E-04-4.15168E-05-4.20575E-05 1.59311E-05 8.37186E-19-4.91650E-19
 -1      2359 1.36364E-04-4.86937E-05-3.77871E-05 1.08550E-05-6.29981E-20-7.21699E-19
 -1      2360 1.36459E-04-5.35807E-05-3.55344E-05 5.82757E-06-8.79061E-19-1.55378E-18
 -1      2361 1.29364E-04-5.28716E-05-3.30327E-05-3.08059E-06-1.28648E-18-1.87778E-18
 -1      2362 1.25348E-04-5.03297E-05-3.20210E-05-8.95386E-06-1.88828E-18-2.42741E-18
 -1      2363 1.37620E-04-5.89117E-05-3.41520E-05-4.50507E-06-1.27981E-18-4.65005E-18
 -1      2364 1.18248E-04-4.55170E-05-3.12920E-05-1.38073E-05-1.01284E-18-2.09804E-18
 -1      2365 1.13590E-04-4.07947E-05-3.09678E-05-1.72632E-05-1.28809E-18-2.00221E-18
 -1      2366 1.22221E-04-5.06760E-05-3.08558E-05-1.64793E-05-1.53555E-18-3.48483E-18
 -1      2367 1.07976E-04-3.59548E-05-3.09509E-05-1.94813E-05-1.76469E-18-1.28777E-18
 -1      2368 1.03757E-04-3.10912E-05-3.09632E-05-1.96432E-05-2.46536E-18-1.60261E-18
 -1      2369 9.98904E-05-2.75907E-05-3.10662E-05-2.34889E-05-1.13680E-18-1.92666E-18
 -1      2370 1.09701E-04-3.93190E-05-3.02766E-05-2.28539E-05-5.71099E-19-2.75114E-18
 -1      2371 9.37139E-05-2.78534E-05-2.82225E-05-6.60013E-07 8.55428E-19-1.16759E-19
 -1      2372 9.37467E-05-2.77383E-05-2.82715E-05-4.29829E-07 9.28607E-19-1.72444E-20
 -1      2373 9.38736E-05-2.76149E-05-2.83921E-05-4.73304E-08 1.07031E-18 9.30326E-20
 -1      2374 9.40485E-05-2.74599E-05-2.85067E-05 3.92523E-07 1.24521E-18 3.88848E-19
 -1      2375 9.44562E-05-2.76605E-05-2.86389E-05-4.80541E-08 1.22015E-18-5.67836E-19
 -1      2376 9.42482E-05-2.72381E-05-2.87126E-05 1.05672E-06 1.36711E-18 3.99444E-19
 -1      2377 9.46075E-05-2.69945E-05-2.89383E-05 1.85924E-06 1.57135E-18 6.11033E-19
 -1      2378 9.47448E-05-2.71485E-05-2.89848E-05 1.09902E-06 1.42885E-18-1.80387E-19
 -1      2379 9.37105E-05-2.80250E-05-2.81484E-05-9.64006E-07 7.99277E-19-4.85012E-19
 -1      2380 9.36571E-05-2.79332E-05-2.81579E-05-8.60963E-07 8.30210E-19-2.76295E-19
 -1      2381 9.43023E-05-2.79732E-05-2.84359E-05-6.98222E-07 9.68625E-19-8.90888E-19
 -1      2382 9.38048E-05-2.81565E-05-2.81332E-05-1.07483E-06 7.38861E-19-6.48008E-19
 -1      2383 9.37046E-05-2.80811E-05-2.81199E-05-1.04926E-06 8.13614E-19-4.60971E-19
 -1      2384 9.42604E-05-2.81780E-05-2.83273E-05-1.02511E-06 9.43585E-19-8.94690E-19
 -1      2385 9.39524E-05-2.82593E-05-2.81529E-05-1.06773E-06 4.30875E-19-6.35188E-19
 -1      2386 9.38313E-05-2.81976E-05-2.81273E-05-1.08806E-06 5.16061E-19-4.63370E-19
 -1      2387 9.42949E-05-2.83179E-05-2.82799E-05-1.14638E-06 7.37889E-19-1.11611E-18
 -1      2388 9.41222E-05-2.83397E-05-2.81916E-05-9.92614E-07 6.42523E-19-3.95418E-19
 -1      2389 9.39969E-05-2.82897E-05-2.81606E-05-1.03823E-06 5.85035E-19-4.52460E-19
 -1      2390 9.43750E-05-2.84149E-05-2.82711E-05-1.14102E-06 4.72324E-19-9.57640E-19
 -1      2391 9.42942E-05-2.84017E-05-2.82391E-05-8.82849E-07 6.02957E-19-2.32732E-19
 -1      2392 9.41747E-05-2.83620E-05-2.82069E-05-9.40122E-07 7.58502E-19-2.39227E-19
 -1      2393 9.44778E-05-2.84815E-05-2.82854E-05-1.06233E-06 5.56965E-19-6.02723E-19
 -1      2394 9.44567E-05-2.84485E-05-2.82889E-05-7.60637E-07 9.63508E-20-4.11083E-19
 -1      2395 9.43483E-05-2.84177E-05-2.82579E-05-8.20608E-07 5.16854E-19-2.40532E-19
 -1      2396 9.45877E-05-2.85260E-05-2.83127E-05-9.46294E-07 6.47376E-19-7.67672E-19
 -1      2397 9.46037E-05-2.84826E-05-2.83373E-05-6.40623E-07 2.62946E-20-7.21572E-19
 -1      2398 9.45084E-05-2.84594E-05-2.83089E-05-6.97448E-07 8.49912E-20-5.36016E-19
 -1      2399 9.46951E-05-2.85540E-05-2.83463E-05-8.17071E-07 1.04975E-19-6.56200E-19
 -1      2400 9.47334E-05-2.85066E-05-2.83826E-05-5.32362E-07 5.86051E-19-1.07665E-18
 -1      2401 9.46513E-05-2.84896E-05-2.83571E-05-5.82268E-07 1.57882E-19-9.10880E-19
 -1      2402 9.47949E-05-2.85695E-05-2.83822E-05-6.90701E-07 3.81307E-19-8.47099E-19
 -1      2403 9.48467E-05-2.85225E-05-2.84243E-05-4.42113E-07 8.42848E-19-9.97717E-19
 -1      2404 9.47762E-05-2.85104E-05-2.84015E-05-4.82636E-07 1.04444E-18-9.27685E-19
 -1      2405 9.48849E-05-2.85757E-05-2.84181E-05-5.77775E-07 8.62109E-19-1.08093E-18
 -1      2406 9.49468E-05-2.85321E-05-2.84629E-05-3.74142E-07 3.88353E-19-1.08058E-18
 -1      2407 9.48854E-05-2.85238E-05-2.84423E-05-4.03574E-07 5.66172E-19-7.09523E-19
 -1      2408 9.49654E-05-2.85748E-05-2.84530E-05-4.85354E-07 6.89753E-19-9.89707E-19
 -1      2409 9.50380E-05-2.85371E-05-2.84996E-05-3.31689E-07 8.60941E-19-1.30219E-18
 -1      2410 9.49824E-05-2.85316E-05-2.84803E-05-3.48673E-07 8.73857E-19-1.10502E-18
 -1      2411 9.50384E-05-2.85684E-05-2.84871E-05-4.18386E-07 6.52998E-19-1.15245E-18
 -1      2412 9.51261E-05-2.85391E-05-2.85361E-05-3.17655E-07 3.16684E-19-1.36315E-18
 -1      2413 9.50724E-05-2.85352E-05-2.85170E-05-3.20902E-07 5.75189E-19-1.47934E-18
 -1      2414 9.51068E-05-2.85579E-05-2.85211E-05-3.80748E-07 8.18979E-19-8.55780E-19
 -1      2415 9.52176E-05-2.85398E-05-2.85746E-05-3.35038E-07-8.44607E-19-1.14261E-18
 -1      2416 9.51615E-05-2.85364E-05-2.85544E-05-3.23155E-07-2.77361E-19-1.35266E-18
 -1      2417 9.51747E-05-2.85443E-05-2.85562E-05-3.75973E-07-8.57045E-20-6.24950E-19
 -1      2418 9.53202E-05-2.85410E-05-2.86175E-05-3.87139E-07-4.73286E-19-1.59377E-18
 -1      2419 9.52566E-05-2.85368E-05-2.85947E-05-3.58572E-07-7.21615E-19-1.61166E-18
 -1      2420 9.52471E-05-2.85287E-05-2.85942E-05-4.07696E-07-4.11729E-19-8.62024E-19
 -1      2421 9.54424E-05-2.85452E-05-2.86675E-05-4.77495E-07 2.05131E-19-9.82600E-19
 -1      2422 9.53660E-05-2.85386E-05-2.86406E-05-4.30604E-07 5.93769E-20-1.27968E-18
 -1      2423 9.53296E-05-2.85123E-05-2.86369E-05-4.79822E-07-2.78783E-19-1.74034E-18
 -1      2424 9.55940E-05-2.85556E-05-2.87274E-05-6.09485E-07-1.97222E-19-7.18636E-20
 -1      2425 9.54987E-05-2.85444E-05-2.86947E-05-5.42785E-07 1.04840E-19-5.52842E-19
 -1      2426 9.54292E-05-2.84970E-05-2.86864E-05-5.96383E-07-2.70313E-19-9.18992E-19
 -1      2427 9.57854E-05-2.85764E-05-2.87998E-05-7.85501E-07 1.29105E-19 2.46795E-19
 -1      2428 9.56647E-05-2.85581E-05-2.87598E-05-6.98125E-07 1.86384E-19 2.52155E-19
 -1      2429 9.55534E-05-2.84861E-05-2.87447E-05-7.60994E-07-2.18815E-19-4.26566E-19
 -1      2430 9.60280E-05-2.86139E-05-2.88872E-05-1.00556E-06-1.34890E-19-9.78496E-19
 -1      2431 9.58754E-05-2.85848E-05-2.88384E-05-8.98019E-07 1.01532E-19-4.25321E-19
 -1      2432 9.57115E-05-2.84843E-05-2.88136E-05-9.75818E-07 3.13797E-19-6.42917E-19
 -1      2433 9.63336E-05-2.86764E-05-2.89911E-05-1.26519E-06 4.65596E-19-1.31177E-18
 -1      2434 9.61428E-05-2.86319E-05-2.89325E-05-1.14049E-06 1.02845E-19-1.14813E-18
 -1      2435 9.59139E-05-2.84993E-05-2.88943E-05-1.23987E-06 4.35632E-19-1.01865E-18
 -1      2436 9.67135E-05-2.87754E-05-2.91116E-05-1.55242E-06 9.44163E-19-1.17981E-18
 -1      2437 9.64794E-05-2.87095E-05-2.90431E-05-1.41766E-06 6.74697E-19-1.25852E-18
 -1      2438 9.61727E-05-2.85423E-05-2.89871E-05-1.54650E-06 4.98660E-19-1.13533E-18
 -1      2439 9.71779E-05-2.89257E-05-2.92472E-05-1.84382E-06-5.61245E-19-8.63661E-19
 -1      2440 9.68974E-05-2.88311E-05-2.91697E-05-1.71219E-06 2.47810E-19-1.08741E-18
 -1      2441 9.65017E-05-2.86296E-05-2.90911E-05-1.87991E-06 3.89399E-19-6.77854E-19
 -1      2442 9.77334E-05-2.91459E-05-2.93929E-05-2.09974E-06-5.89986E-19-1.08912E-18
 -1      2443 9.74077E-05-2.90142E-05-2.93094E-05-1.99288E-06-3.22800E-19-1.30207E-18
 -1      2444 9.69167E-05-2.87836E-05-2.92033E-05-2.21066E-06-3.02705E-19-1.55148E-18
 -1      2445 9.83809E-05-2.94570E-05-2.95407E-05-2.25927E-06-6.75322E-19-8.13561E-19
 -1      2446 9.80175E-05-2.92798E-05-2.94560E-05-2.20954E-06-9.90915E-19-4.43749E-19
 -1      2447 9.74344E-05-2.90329E-05-2.93187E-05-2.49033E-06-1.33293E-18-1.08833E-18
 -1      2448 9.91107E-05-2.98789E-05-2.96781E-05-2.23648E-06-5.01157E-19 2.10659E-19
 -1      2449 9.87265E-05-2.96502E-05-2.96000E-05-2.28827E-06-1.31510E-19-4.08265E-19
 -1      2450 9.80714E-05-2.94113E-05-2.94298E-05-2.64615E-06-7.94570E-19-2.71447E-19
 -1      2451 9.98962E-05-3.04223E-05-2.97892E-05-1.92093E-06-1.12396E-18 9.71997E-19
 -1      2452 9.95216E-05-3.01435E-05-2.97282E-05-2.12910E-06-7.81641E-19 5.04495E-19
 -1      2453 9.88399E-05-2.99519E-05-2.95276E-05-2.57720E-06-8.02448E-19 2.47400E-19
 -1      2454 1.00684E-04-3.10739E-05-2.98564E-05-1.18729E-06-6.28883E-19-2.13088E-19
 -1      2455 1.00367E-04-3.07615E-05-2.98245E-05-1.61018E-06-5.96176E-19 3.46329E-19
 -1      2456 9.97388E-05-3.06745E-05-2.96028E-05-2.15576E-06-5.48503E-19 2.97776E-19
 -1      2457 1.01379E-04-3.17725E-05-2.98640E-05 7.86337E-08-2.31283E-19 5.33794E-19
 -1      2458 1.01189E-04-3.14702E-05-2.98730E-05-6.04774E-07-7.96848E-19 4.10195E-20
 -1      2459 1.00739E-04-3.15625E-05-2.96493E-05-1.23947E-06-1.34728E-19-2.36415E-19
 -1      2460 1.01832E-04-3.23815E-05-2.98036E-05 1.92963E-06-2.11874E-20 7.00520E-19
 -1      2461 1.01861E-04-3.21716E-05-2.98620E-05 9.80461E-07-5.18427E-20 2.90676E-19
 -1      2462 1.01756E-04-3.25278E-05-2.96679E-05 2.96977E-07-2.22645E-19 2.86875E-20
 -1      2463 1.01835E-04-3.26701E-05-2.96804E-05 4.27928E-06 8.33786E-19 2.06361E-18
 -1      2464 1.02184E-04-3.26762E-05-2.97892E-05 3.13834E-06 7.41235E-19 1.24479E-18
 -1      2465 1.02621E-04-3.33703E-05-2.96711E-05 2.50028E-06 1.44955E-20 5.89249E-19
 -1      2466 1.01149E-04-3.23394E-05-2.95160E-05 6.81135E-06 8.60774E-19 2.16433E-18
 -1      2467 1.01900E-04-3.27019E-05-2.96661E-05 5.66862E-06 1.01062E-18 2.63120E-18
 -1      2468 1.03064E-04-3.37590E-05-2.96844E-05 5.24202E-06 8.84591E-19 1.14150E-18
 -1      2469 9.95991E-05-3.11343E-05-2.93433E-05 8.92935E-06 6.84848E-20 1.47371E-18
 -1      2470 1.00761E-04-3.19416E-05-2.95163E-05 8.09505E-06 7.58290E-19 1.79578E-18
 -1      2471 1.02746E-04-3.32884E-05-2.97397E-05 8.10703E-06 9.53365E-19 2.95142E-18
 -1      2472 9.72362E-05-2.90502E-05-2.91930E-05 9.84127E-06 5.74317E-19 1.50317E-18
 -1      2473 9.86827E-05-3.02357E-05-2.93662E-05 9.67528E-06 8.96126E-20 1.05682E-18
 -1      2474 1.01405E-04-3.16610E-05-2.98592E-05 1.03418E-05 4.78259E-19 2.21653E-18
 -1      2475 9.44935E-05-2.65323E-05-2.90747E-05 8.86735E-06 7.89627E-21 2.40532E-18
 -1      2476 9.59381E-05-2.78062E-05-2.92296E-05 9.61252E-06 4.78790E-19 1.65725E-18
 -1      2477 9.91020E-05-2.89856E-05-3.00314E-05 1.09938E-05 1.36936E-19 2.36163E-18
 -1      2478 9.21497E-05-2.44332E-05-2.89701E-05 5.89607E-06-4.20830E-19 2.40686E-18
 -1      2479 9.32253E-05-2.53585E-05-2.90961E-05 7.48791E-06 1.95675E-19 2.71897E-18
 -1      2480 9.64183E-05-2.59806E-05-3.01965E-05 9.34893E-06-2.29519E-19 3.37530E-18
 -1      2481 9.09900E-05-2.36111E-05-2.88493E-05 1.66211E-06-9.57316E-19 7.79153E-19
 -1      2482 9.14128E-05-2.38287E-05-2.89430E-05 3.66553E-06-5.32185E-19 1.80832E-18
 -1      2483 9.43187E-05-2.37832E-05-3.02638E-05 5.49609E-06-8.15021E-20 4.07033E-18
 -1      2484 9.13065E-05-2.43427E-05-2.87004E-05-2.47381E-06 6.00038E-19 2.18009E-19
 -1      2485 9.10469E-05-2.38313E-05-2.87562E-05-6.83903E-07-2.48521E-19 3.64484E-19
 -1      2486 9.36276E-05-2.33348E-05-3.01607E-05 5.62209E-07 1.71031E-19 2.42407E-18
 -1      2487 9.26523E-05-2.60850E-05-2.85498E-05-5.28923E-06 4.69359E-19 8.34339E-19
 -1      2488 9.19422E-05-2.51711E-05-2.85617E-05-4.17749E-06 5.30646E-19-1.70752E-19
 -1      2489 9.43957E-05-2.46813E-05-2.98883E-05-3.75810E-06 7.24620E-19 1.83649E-18
 -1      2490 9.41999E-05-2.79190E-05-2.84277E-05-6.32989E-06 4.31414E-19 1.77348E-18
 -1      2491 9.33770E-05-2.70320E-05-2.83997E-05-5.99961E-06 5.89055E-19 1.20275E-18
 -1      2492 9.58652E-05-2.69467E-05-2.95201E-05-6.25247E-06 2.83037E-19 1.00294E-18
 -1      2493 9.52676E-05-2.91547E-05-2.83445E-05-5.95620E-06 6.53663E-19 2.44967E-18
 -1      2494 9.45894E-05-2.85627E-05-2.82930E-05-6.19444E-06 7.64229E-19 3.01815E-18
 -1      2495 9.70531E-05-2.89900E-05-2.91395E-05-6.73996E-06 2.30330E-19 1.87790E-18
 -1      2496 9.57054E-05-2.97190E-05-2.82886E-05-4.88123E-06 6.03043E-19 2.23389E-18
 -1      2497 9.51918E-05-2.93861E-05-2.82276E-05-5.37258E-06 7.32691E-19 2.46549E-18
 -1      2498 9.74191E-05-3.01434E-05-2.87982E-05-5.86957E-06 8.64840E-19 3.61712E-18
 -1      2499 1.04890E-04-3.42773E-05-3.01459E-05 1.14425E-05 8.25329E-19 2.23601E-18
 -1      2500 1.04440E-04-3.49367E-05-2.98072E-05 7.71836E-06 2.92564E-19 1.65093E-18
 -1      2501 1.03022E-04-3.38107E-05-2.95580E-05 4.05079E-06 4.57294E-19 6.55961E-19
 -1      2502 1.01853E-04-3.36787E-05-2.92637E-05 1.35996E-06 1.30939E-19 1.57230E-18
 -1      2503 1.06367E-04-3.61420E-05-3.00760E-05 5.70267E-06-1.13033E-19 1.86990E-18
 -1      2504 1.00319E-04-3.25465E-05-2.89621E-05-1.02744E-06 2.13297E-19 1.36950E-18
 -1      2505 9.89525E-05-3.19490E-05-2.87472E-05-2.59642E-06 6.99812E-19 1.10845E-18
 -1      2506 1.02844E-04-3.38773E-05-2.95211E-05-2.90270E-07 5.80457E-20 1.42639E-18
 -1      2507 2.78315E-05-2.55025E-05-7.97824E-07 2.46464E-05-5.30772E-19 1.34594E-18
 -1      2508 2.18628E-05-2.36417E-05 8.35775E-07 9.71487E-06 1.70254E-19 1.30951E-18
 -1      2509 1.04119E-04-3.27496E-05-3.05184E-05 1.98823E-05 1.25555E-18 4.44103E-19
 -1      2510 1.05208E-04-3.46351E-05-3.02209E-05 1.60469E-05 1.55037E-18 1.53038E-18
 -1      2511 1.08517E-04-3.77145E-05-3.03481E-05 1.42325E-05 4.96526E-19 2.23344E-18
 -1      2512 9.87502E-05-2.78619E-05-3.04277E-05 2.70465E-05 1.03365E-18-2.75011E-18
 -1      2513 1.02284E-04-3.13635E-05-3.02805E-05 2.44720E-05 7.31155E-19-1.97463E-18
 -1      2514 1.06712E-04-3.68092E-05-3.00191E-05 2.39648E-05 5.30420E-19-1.57487E-18
 -1      2515 8.82556E-05-1.92274E-05-2.97506E-05 2.82123E-05-5.90865E-19-4.33088E-18
 -1      2516 9.39168E-05-2.38418E-05-2.98087E-05 2.90797E-05 4.69126E-19-3.83032E-18
 -1      2517 9.84400E-05-3.13145E-05-2.88389E-05 3.14892E-05-3.18048E-19-3.78818E-18
 -1      2518 7.66449E-05-9.76837E-06-2.88304E-05 1.94891E-05 2.42273E-19-1.25430E-18
 -1      2519 8.18059E-05-1.36733E-05-2.89671E-05 2.48839E-05 2.38294E-20-2.55701E-18
 -1      2520 8.44275E-05-2.12665E-05-2.69925E-05 3.07534E-05-8.82105E-20-3.38946E-18
 -1      2521 7.09712E-05-4.89149E-06-2.83290E-05 1.87836E-06 7.22620E-19 1.24736E-18
 -1      2522 7.23810E-05-6.02050E-06-2.83446E-05 1.03814E-05 5.74666E-19-1.43731E-19
 -1      2523 7.10154E-05-1.11642E-05-2.53226E-05 1.75864E-05 8.87664E-19-6.56186E-19
 -1      2524 7.58518E-05-8.40697E-06-2.87195E-05-1.62419E-05-1.31661E-19 2.69912E-18
 -1      2525 7.23760E-05-6.03504E-06-2.85359E-05-8.79377E-06-3.87948E-21 1.28437E-18
 -1      2526 6.74823E-05-8.34859E-06-2.49382E-05-4.15718E-06 1.15603E-19 8.78003E-19
 -1      2527 8.72738E-05-1.74314E-05-2.97114E-05-2.60119E-05-7.24392E-19-2.89699E-19
 -1      2528 8.16344E-05-1.32469E-05-2.94916E-05-2.28181E-05-7.82663E-19 2.94659E-18
 -1      2529 7.64502E-05-1.49100E-05-2.61813E-05-2.28361E-05-6.89405E-19 2.05030E-18
 -1      2530 9.68616E-05-2.52328E-05-3.05268E-05-2.58011E-05-8.49471E-19-4.17998E-19
 -1      2531 9.22519E-05-2.15028E-05-3.04417E-05-2.66735E-05-2.96131E-19-1.03623E-18
 -1      2532 9.04902E-05-2.46418E-05-2.81209E-05-2.97701E-05-7.70959E-19-1.79372E-19
 -1      2533 1.00760E-04-3.13111E-05-2.97554E-05-2.74181E-05-5.58135E-19-1.36774E-18
 -1      2534 9.50758E-05-2.00254E-05-3.22130E-05-1.17472E-05-2.87573E-18-1.85711E-18
 -1      2535 9.54726E-05-2.33644E-05-3.09289E-05-7.96489E-06-2.64440E-18-1.51940E-18
 -1      2536 9.50850E-05-2.25604E-05-3.10549E-05-7.64680E-06-2.52468E-18-2.00619E-18
 -1      2537 9.32176E-05-1.76224E-05-3.24159E-05-1.14042E-05-2.78751E-18-2.61678E-18
 -1      2538 2.31691E-05-2.23874E-05-7.01482E-08-5.80316E-06 6.44539E-20 1.06218E-18
 -1      2539 2.97494E-05-2.50749E-05-1.83792E-06-2.32066E-05-4.58880E-19 3.42201E-19
 -1      2540 4.43176E-05-3.44229E-05-3.94512E-06-3.68698E-05-1.21676E-18 8.47033E-22
 -1      2541 6.21794E-05-4.28348E-05-8.33819E-06-4.70285E-05-9.58841E-19 1.11745E-18
 -1      2542 1.54203E-04-6.28877E-05-3.96363E-05-2.21156E-06-1.90318E-18-1.11173E-18
 -1      2543 1.41309E-04-6.66545E-05-3.19734E-05 9.99363E-06-2.84307E-18-3.36696E-19
 -1      2544 8.99630E-05-5.60355E-05-1.46557E-05 3.77847E-05-2.65206E-18-2.02547E-18
 -1      2545 6.82764E-05-4.79032E-05-8.56140E-06 3.68026E-05-2.11165E-18-2.47524E-18
 -1      2546 4.17444E-05-3.40519E-05-3.06315E-06-3.90955E-05 7.32895E-19-2.91041E-18
 -1      2547 5.88608E-05-4.12897E-05-7.45939E-06-4.62994E-05-7.06214E-19-3.43112E-18
 -1      2548 8.78359E-05-1.07964E-05-3.30526E-05-1.51788E-06 2.49374E-19-4.16581E-18
 -1      2549 8.79415E-05-1.09185E-05-3.30440E-05-2.63637E-06-1.18890E-19-4.20598E-18
 -1      2550 8.93405E-05-1.30907E-05-3.26804E-05-2.92926E-06-2.89189E-19-3.91773E-18
 -1      2551 8.90915E-05-1.27559E-05-3.27185E-05-9.40656E-07 3.09528E-19-3.85645E-18
 -1      2552 1.53950E-04-5.24063E-05-4.41446E-05 1.01404E-05-8.26360E-19 2.54110E-20
 -1      2553 1.46137E-04-6.04628E-05-3.65419E-05 2.24140E-05-1.90858E-18-2.64698E-20
 -1      2554 1.51093E-04-9.54443E-06-6.11840E-05 4.08979E-06 2.81173E-18-3.52562E-18
 -1      2555 1.52729E-04-9.91851E-06-6.17019E-05 1.27819E-06 2.83925E-18-3.81276E-18
 -1      2556 1.53532E-04-3.15175E-05-5.29500E-05-2.67739E-06 1.98269E-18-2.58726E-18
 -1      2557 1.53921E-04-3.93938E-05-4.92247E-05-1.22914E-06 3.96200E-19-2.21563E-18
 -1      2558 1.42338E-04-5.65461E-05-3.68779E-05-1.82693E-05 1.46219E-18-4.17248E-18
 -1      2559 1.50884E-04-5.15188E-05-4.29972E-05-1.09469E-05 1.92194E-18-3.99884E-18
 -1      2560 1.52411E-04-2.05724E-05-5.68871E-05 8.28586E-06 2.08095E-18-3.40084E-18
 -1      2561 1.51630E-04-1.48146E-05-5.92478E-05 7.40196E-06 2.04982E-18-3.41270E-18
 -1      2562 5.01128E-05-3.76276E-05-5.16745E-06 3.45514E-05-1.25975E-18-3.05927E-18
 -1      2563 3.48651E-05-2.96157E-05-1.84519E-06 2.49018E-05-4.82385E-19-2.66858E-18
 -1      2564 1.53475E-04-1.38845E-05-6.02399E-05-1.56143E-06 3.10819E-18-3.51010E-18
 -1      2565 1.50100E-04-1.95300E-05-5.64918E-05-3.91829E-06 3.15308E-18-1.91747E-18
 -1      2566 1.40249E-04-9.29425E-06-5.64202E-05-2.09190E-06 3.48109E-18-2.36301E-18
 -1      2567 1.16678E-04-5.95143E-05-2.43983E-05-3.69287E-05-3.02814E-19-5.99710E-18
 -1      2568 1.32318E-04-5.95905E-05-3.12569E-05-3.03377E-05-1.74065E-19-5.81785E-18
 -1      2569 7.60837E-05-4.89799E-05-1.15791E-05-4.61733E-05-1.91811E-18-5.76708E-18
 -1      2570 9.49696E-05-5.39431E-05-1.76033E-05-4.53796E-05-1.17229E-18-5.87963E-18
 -1      2571 7.30547E-05-4.46664E-05-1.17292E-05-4.60909E-05-1.29405E-18-4.30907E-18
 -1      2572 2.06301E-05-2.28225E-05 1.25285E-06-1.73914E-05 1.12385E-18-3.85273E-18
 -1      2573 2.77192E-05-2.52652E-05-7.71716E-07-2.93050E-05 1.19855E-18-3.73245E-18
 -1      2574 1.59389E-04-4.13704E-05-5.10719E-05-1.94358E-05-1.20120E-18-2.84434E-18
 -1      2575 1.54630E-04-4.94445E-05-4.53004E-05-1.77422E-05-1.27415E-18-2.81236E-18
 -1      2576 2.14815E-05-2.30858E-05 9.68761E-07 1.22103E-05 3.22931E-20-2.94302E-18
 -1      2577 1.73282E-05-2.15904E-05 2.09238E-06-3.97435E-06 1.31188E-18-3.21491E-18
 -1      2578 2.56410E-05-1.76630E-05-2.79806E-06-9.79706E-06 1.82252E-18-3.42244E-18
 -1      2579 1.27815E-04-6.71218E-05-2.62749E-05 2.42858E-05-3.21745E-18-2.18746E-19
 -1      2580 1.11811E-04-6.35380E-05-2.05136E-05 2.95081E-05-2.79606E-18-1.13195E-18
 -1      2581 1.58373E-04-2.22256E-05-5.84027E-05 2.37462E-06-1.70677E-19-3.97534E-18
 -1      2582 1.57178E-04-1.81538E-05-6.00663E-05-8.14745E-07-2.70627E-19-3.77883E-18
 -1      2583 1.57882E-04-2.15517E-05-5.87961E-05-1.53234E-05 1.55007E-18-2.72056E-18
 -1      2584 1.56837E-04-2.69432E-05-5.58685E-05-1.76036E-05 4.21822E-19-2.49176E-18
 -1      2585 1.56255E-04-4.50539E-05-4.78943E-05 5.84574E-06 2.63851E-19-3.65008E-18
 -1      2586 1.59999E-04-3.57826E-05-5.37334E-05 6.25432E-06 7.04731E-19-3.16663E-18
 -1      2587 1.50227E-04-6.39013E-05-3.68403E-05-1.93973E-05 3.81165E-20-3.06880E-18
 -1      2588 1.58247E-04-5.96035E-05-4.28122E-05-8.75740E-06-4.63751E-19-5.32868E-18
 -1      2589 1.20942E-04-6.61090E-05-2.36988E-05-4.00683E-05-5.39348E-19-2.62337E-18
 -1      2590 1.37954E-04-6.57355E-05-3.11640E-05-3.35878E-05-1.86983E-19-2.69801E-18
 -1      2591 1.43043E-04-6.76803E-05-3.23072E-05-2.26672E-05-3.30766E-19-2.31325E-18
 -1      2592 8.62371E-05-5.44802E-05-1.33724E-05-4.79740E-05-2.13029E-19 5.63595E-19
 -1      2593 1.05079E-04-6.11105E-05-1.89200E-05-4.78368E-05-2.86297E-19-1.09079E-18
 -1      2594 1.19643E-04-6.53208E-05-2.31445E-05-4.07145E-05-1.13566E-18-2.19752E-18
 -1      2595 9.76837E-05-3.10024E-05-2.85442E-05-4.04914E-06 1.58925E-19 2.79596E-18
 -1      2596 9.08025E-05-1.50501E-05-3.24579E-05-6.79902E-06-1.51024E-18-3.88817E-18
 -1      2597 8.96985E-05-1.31889E-05-3.28445E-05-7.95614E-06-1.65547E-18-4.16740E-18
 -1      2598 9.03314E-05-1.38981E-05-3.28174E-05-9.17482E-06-2.03669E-18-3.90522E-18
 -1      2599 3.02067E-05-1.81763E-05-4.51781E-06 1.28492E-06 8.40416E-20 1.53821E-18
 -1      2600 9.59685E-05-2.62510E-05-2.98466E-05 5.39210E-06 2.38498E-18 2.02281E-18
 -1      2601 9.59115E-05-2.51641E-05-3.02962E-05 6.48244E-06 2.66440E-18 1.25957E-18
 -1      2602 9.53048E-05-2.64889E-05-2.94646E-05 4.09995E-06 2.17371E-18 1.59270E-18
 -1      2603 1.49678E-04-4.77074E-05-4.37055E-05 1.09438E-06 1.02459E-18-1.47786E-18
 -1      2604 1.33493E-04-6.38753E-05-3.02428E-05 3.72647E-05-2.05575E-18-7.60741E-19
 -1      2605 1.19562E-04-6.29320E-05-2.40678E-05 4.31337E-05-1.07912E-18-1.36319E-18
 -1      2606 9.90018E-05-3.15605E-05-2.89318E-05-3.93646E-06-1.04716E-19 2.39693E-18
 -1      2607 1.46269E-04-2.63386E-05-5.16435E-05 1.10113E-05 1.24599E-18-1.46325E-18
 -1      2608 1.45331E-04-1.63329E-05-5.58438E-05-1.47451E-05 1.48273E-18-2.53199E-18
 -1      2609 1.47035E-04-5.33500E-05-4.05923E-05-1.96483E-05-5.05679E-19-2.51368E-18
 -1      2610 1.35213E-04-1.68429E-05-5.14601E-05-8.46277E-06 1.15281E-18-2.63365E-18
 -1      2611 1.44935E-04-2.67231E-05-5.10793E-05 1.09800E-05-5.30031E-19-2.82845E-18
 -1      2612 1.45550E-04-4.92789E-05-4.19064E-05 1.01077E-05-3.49401E-21-2.64115E-18
 -1      2613 1.45148E-04-3.09773E-05-4.93273E-05-2.51103E-05 5.31513E-20-2.97764E-18
 -1      2614 4.04241E-05-2.77030E-05-4.95804E-06 3.37348E-05-8.17387E-19 2.44793E-19
 -1      2615 3.98364E-05-2.09027E-05-7.64474E-06 2.72176E-05 3.22084E-19-6.98802E-21
 -1      2616 5.33765E-05-2.95333E-05-9.98096E-06 4.09019E-05 2.74439E-19-5.55018E-19
 -1      2617 3.54352E-05-2.31444E-05-4.66812E-06 1.89477E-05 3.46331E-19-3.56770E-18
 -1      2618 9.20559E-05-1.62421E-05-3.25338E-05-1.03878E-05-2.45490E-18-3.13971E-18
 -1      2619 1.41878E-04-6.37948E-05-3.32994E-05 2.52722E-05-1.03931E-18 4.02129E-19
 -1      2620 9.47235E-05-2.68513E-05-2.90590E-05 2.43336E-06 1.84013E-18 7.65748E-19
 -1      2621 9.50712E-05-2.66675E-05-2.92745E-05 3.31495E-06 2.01269E-18 1.22029E-18
 -1      2622 9.53214E-05-2.61411E-05-2.96597E-05 4.04203E-06 2.25376E-18 6.04097E-19
 -1      2623 9.50292E-05-2.66054E-05-2.93435E-05 2.52530E-06 1.80684E-18 6.14066E-20
 -1      2624 8.27093E-05-5.02823E-05-1.34345E-05 5.08898E-05-4.70103E-20-1.43741E-18
 -1      2625 7.46368E-05-4.26658E-05-1.31190E-05 5.02380E-05-4.93820E-19-5.88264E-19
 -1      2626 4.44787E-05-2.63325E-05-7.12586E-06-2.98305E-05-3.72906E-19 5.47395E-19
 -1      2627 9.82135E-05-5.57212E-05-1.82569E-05 5.13991E-05-2.36110E-19-2.35004E-18
 -1      2628 8.12283E-05-4.80965E-05-1.37547E-05-4.68995E-05-5.06526E-19-3.05567E-19
 -1      2629 1.37414E-04-6.77523E-05-2.98681E-05 1.12138E-05-2.27238E-18 1.55642E-19
 -1      2630 6.69428E-05-4.13442E-05-1.04493E-05 3.50527E-05-5.48877E-19-2.90564E-18
 -1      2631 1.39159E-04-6.12302E-05-3.33906E-05-1.89263E-05 1.68348E-20-3.78391E-18
 -1      2632 1.46101E-04-1.47088E-05-5.67341E-05-2.12393E-06 3.07473E-19-3.42201E-18
 -1      2633 1.44767E-04-2.42476E-05-5.20623E-05-7.28870E-06 2.04664E-18-2.50341E-18
 -1      2634 4.18013E-05-2.77615E-05-5.48427E-06-3.47190E-05 5.67300E-19-2.78589E-18
 -1      2635 1.05920E-04-5.98407E-05-1.92879E-05 3.17933E-05-2.25988E-18-1.01207E-18
 -1      2636 1.40520E-04-1.02394E-05-5.61560E-05 8.13775E-06 2.26730E-18-1.29405E-18
 -1      2637 1.50202E-04-4.80063E-05-4.39832E-05 2.10339E-06 9.66676E-20-7.13625E-19
 -1      2638 1.09676E-04-5.89053E-05-2.16416E-05-4.01180E-05-1.06366E-18-5.75628E-18
 -1      2639 1.20793E-04-6.15856E-05-2.54539E-05-3.20500E-05-1.18235E-18-5.74818E-18
 -1      2640 1.01735E-04-5.53953E-05-1.93792E-05-4.16600E-05-2.40271E-18-6.25420E-18
 -1      2641 9.05539E-05-1.51713E-05-3.23291E-05 3.19434E-06 1.54391E-18-3.31012E-18
 -1      2642 9.03633E-05-1.48998E-05-3.23617E-05 2.26085E-06 1.21068E-18-3.39098E-18
 -1      2643 9.02288E-05-1.46971E-05-3.23906E-05 1.42237E-06 9.68740E-19-3.54236E-18
 -1      2644 9.01636E-05-1.46047E-05-3.24016E-05 4.65536E-07 6.43038E-19-3.48267E-18
 -1      2645 9.14147E-05-1.65924E-05-3.20539E-05 1.64124E-06 1.01097E-18-3.25752E-18
 -1      2646 9.21395E-05-1.75513E-05-3.20051E-05 6.47140E-06 2.47723E-18-2.40945E-18
 -1      2647 9.16118E-05-1.67529E-05-3.21049E-05 5.63368E-06 2.26780E-18-2.77035E-18
 -1      2648 9.35094E-05-1.97271E-05-3.16794E-05 7.63752E-06 2.72413E-18-1.60999E-18
 -1      2649 9.27711E-05-1.85195E-05-3.18390E-05 7.00502E-06 2.50530E-18-1.98832E-18
 -1      2650 9.34280E-05-1.98467E-05-3.15073E-05 5.74049E-06 2.31152E-18-2.04901E-18
 -1      2651 9.59050E-05-2.43858E-05-3.06432E-05 7.14257E-06 2.75039E-18 6.92291E-19
 -1      2652 9.53384E-05-2.30640E-05-3.10001E-05 7.83882E-06 2.88265E-18 8.26618E-20
 -1      2653 9.55189E-05-2.49994E-05-3.02009E-05 5.56228E-06 2.57326E-18 4.19357E-19
 -1      2654 7.47937E-05-3.90800E-05-1.46030E-05-4.40155E-05-1.26007E-18 7.99176E-19
 -1      2655 9.53061E-05-5.12670E-05-1.88152E-05-4.68014E-05-1.30845E-18 2.58843E-18
 -1      2656 1.01941E-04-3.29847E-05-2.95727E-05-3.54544E-06 1.34130E-19 7.70856E-19
 -1      2657 1.00103E-04-3.17890E-05-2.92769E-05-4.94653E-06 1.69572E-22 2.38046E-18
 -1      2658 1.00138E-04-3.13799E-05-2.94827E-05-5.59911E-06 1.59447E-20 1.63471E-18
 -1      2659 1.13142E-04-5.99079E-05-2.22287E-05-4.03981E-05-1.54054E-18-9.42132E-19
 -1      2660 1.27662E-04-6.68709E-05-2.61387E-05-3.55644E-05-1.34890E-18-2.10639E-18
 -1      2661 3.57693E-05-1.50701E-05-8.04717E-06 1.15023E-05 2.98685E-19 5.55654E-19
 -1      2662 3.57218E-05-1.41113E-05-8.86259E-06-4.94348E-06 2.50351E-19 1.07510E-18
 -1      2663 9.52491E-05-2.39928E-05-3.05170E-05-5.30251E-06-2.08337E-18-2.07876E-18
 -1      2664 9.51662E-05-2.50059E-05-3.00880E-05-3.79574E-06-1.90854E-18-2.08777E-18
 -1      2665 9.53623E-05-2.59035E-05-2.97373E-05-2.70028E-06-1.69545E-18-1.93252E-18
 -1      2666 9.51956E-05-2.64920E-05-2.94560E-05-1.71928E-06-1.45742E-18-1.82875E-18
 -1      2667 9.52108E-05-2.46911E-05-3.02177E-05-3.54227E-06-1.80104E-18-2.15113E-18
 -1      2668 9.52187E-05-2.70064E-05-2.92102E-05-9.77819E-07-1.38602E-18-1.72861E-18
 -1      2669 9.50840E-05-2.73612E-05-2.90303E-05-3.73176E-07-1.24829E-18-1.72314E-18
 -1      2670 9.54152E-05-2.63290E-05-2.96137E-05-1.61745E-06-1.46879E-18-1.95157E-18
 -1      2671 9.50511E-05-2.76675E-05-2.88627E-05 9.30044E-08-1.15032E-18-1.67706E-18
 -1      2672 9.49733E-05-2.78923E-05-2.87519E-05 4.43224E-07-9.09531E-19-1.69705E-18
 -1      2673 9.54166E-05-2.73264E-05-2.91888E-05-3.39541E-07-1.25059E-18-1.77152E-18
 -1      2674 9.49310E-05-2.80779E-05-2.86411E-05 7.11608E-07-7.93209E-19-1.72894E-18
 -1      2675 9.49026E-05-2.82251E-05-2.85771E-05 8.93751E-07-8.61192E-19-1.85856E-18
 -1      2676 9.53558E-05-2.79423E-05-2.88982E-05 4.48392E-07-9.95307E-19-1.86826E-18
 -1      2677 9.48674E-05-2.83373E-05-2.85067E-05 1.02656E-06-8.48035E-19-1.84842E-18
 -1      2678 9.48740E-05-2.84348E-05-2.84739E-05 1.10005E-06-7.45474E-19-1.92886E-18
 -1      2679 9.52912E-05-2.83240E-05-2.87056E-05 8.87702E-07-9.15699E-19-1.88224E-18
 -1      2680 9.48493E-05-2.85006E-05-2.84319E-05 1.14370E-06-6.93155E-19-1.93973E-18
 -1      2681 9.48777E-05-2.85645E-05-2.84194E-05 1.14924E-06-5.57252E-19-1.88285E-18
 -1      2682 9.52415E-05-2.85570E-05-2.85831E-05 1.09015E-06-6.51545E-19-1.78977E-18
 -1      2683 9.48626E-05-2.86001E-05-2.83969E-05 1.13720E-06-5.42765E-19-1.72612E-18
 -1      2684 9.49026E-05-2.86407E-05-2.83971E-05 1.10271E-06-7.38469E-19-1.70145E-18
 -1      2685 9.52092E-05-2.86927E-05-2.85100E-05 1.13868E-06-5.59107E-19-1.40808E-18
 -1      2686 9.48948E-05-2.86563E-05-2.83878E-05 1.05866E-06-8.64570E-19-1.53727E-18
 -1      2687 9.49392E-05-2.86804E-05-2.83957E-05 1.00320E-06-8.29777E-19-1.52010E-18
 -1      2688 9.51915E-05-2.87639E-05-2.84710E-05 1.09304E-06-6.65210E-19-1.38397E-18
 -1      2689 9.49366E-05-2.86830E-05-2.83950E-05 9.43578E-07-8.20599E-19-1.26821E-18
 -1      2690 9.49810E-05-2.86952E-05-2.84072E-05 8.80079E-07-6.71949E-19-1.37457E-18
 -1      2691 9.51845E-05-2.87922E-05-2.84552E-05 9.95377E-07-6.24448E-19-1.18429E-18
 -1      2692 9.49818E-05-2.86893E-05-2.84120E-05 8.16131E-07-9.26593E-19-1.40297E-18
 -1      2693 9.50238E-05-2.86932E-05-2.84264E-05 7.53261E-07-9.92697E-19-1.45260E-18
 -1      2694 9.51848E-05-2.87922E-05-2.84549E-05 8.74909E-07-8.69999E-19-1.18166E-18
 -1      2695 9.50268E-05-2.86818E-05-2.84348E-05 6.92590E-07-6.87105E-19-1.58432E-18
 -1      2696 9.50653E-05-2.86796E-05-2.84500E-05 6.36152E-07-5.65237E-19-1.33679E-18
 -1      2697 9.51898E-05-2.87736E-05-2.84647E-05 7.51628E-07-7.24867E-19-1.03976E-18
 -1      2698 9.50698E-05-2.86646E-05-2.84606E-05 5.83908E-07-6.49694E-19-9.72392E-19
 -1      2699 9.51048E-05-2.86579E-05-2.84762E-05 5.37862E-07-3.25248E-19-8.93991E-19
 -1      2700 9.51977E-05-2.87427E-05-2.84811E-05 6.39131E-07-3.31384E-19-9.56687E-19
 -1      2701 9.51103E-05-2.86402E-05-2.84884E-05 4.97668E-07-4.35916E-19-1.29577E-18
 -1      2702 9.51427E-05-2.86300E-05-2.85043E-05 4.64918E-07-5.72507E-19-1.46402E-18
 -1      2703 9.52075E-05-2.87033E-05-2.85021E-05 5.46818E-07-7.07514E-19-9.37515E-19
 -1      2704 9.51489E-05-2.86100E-05-2.85179E-05 4.39582E-07-6.77554E-19-1.49721E-18
 -1      2705 9.51800E-05-2.85968E-05-2.85343E-05 4.22583E-07-3.59814E-19-1.70883E-18
 -1      2706 9.52187E-05-2.86572E-05-2.85267E-05 4.81589E-07-7.25493E-19-8.76836E-19
 -1      2707 9.51869E-05-2.85742E-05-2.85495E-05 4.14662E-07-4.47777E-20-1.98391E-18
 -1      2708 9.52184E-05-2.85579E-05-2.85672E-05 4.15905E-07-1.75511E-19-1.97855E-18
 -1      2709 9.52311E-05-2.86046E-05-2.85545E-05 4.49175E-07-5.27396E-19-1.18393E-18
 -1      2710 9.52260E-05-2.85319E-05-2.85844E-05 4.28152E-07-4.47053E-19-1.59688E-18
 -1      2711 9.52601E-05-2.85123E-05-2.86043E-05 4.50569E-07-3.11888E-19-1.64145E-18
 -1      2712 9.52446E-05-2.85443E-05-2.85862E-05 4.55171E-07-3.11184E-19-2.02860E-18
 -1      2713 9.52682E-05-2.84816E-05-2.86241E-05 4.86301E-07-3.94020E-19-1.51707E-18
 -1      2714 9.53075E-05-2.84579E-05-2.86474E-05 5.33617E-07-3.52769E-19-1.58559E-18
 -1      2715 9.52591E-05-2.84739E-05-2.86227E-05 5.05880E-07-3.91707E-19-1.64252E-18
 -1      2716 9.53158E-05-2.84205E-05-2.86708E-05 5.97029E-07-3.65749E-19-1.59885E-18
 -1      2717 9.53629E-05-2.83917E-05-2.86989E-05 6.74081E-07 6.24998E-20-1.67413E-18
 -1      2718 9.52741E-05-2.83896E-05-2.86653E-05 6.08991E-07-2.92835E-19-1.46100E-18
 -1      2719 9.53705E-05-2.83452E-05-2.87269E-05 7.70520E-07 3.04177E-19-1.77850E-18
 -1      2720 9.54285E-05-2.83096E-05-2.87614E-05 8.83568E-07 2.86728E-19-1.62748E-18
 -1      2721 9.52886E-05-2.82864E-05-2.87157E-05 7.74162E-07 3.89142E-20-1.43127E-18
 -1      2722 9.54337E-05-2.82505E-05-2.87950E-05 1.01978E-06 9.13908E-20-1.90344E-18
 -1      2723 9.55054E-05-2.82059E-05-2.88378E-05 1.17681E-06-2.20533E-19-2.05800E-18
 -1      2724 9.52999E-05-2.81574E-05-2.87758E-05 1.01349E-06 3.04413E-19-1.87571E-18
 -1      2725 9.55051E-05-2.81297E-05-2.88781E-05 1.36115E-06-6.39862E-19-2.22579E-18
 -1      2726 9.55934E-05-2.80731E-05-2.89311E-05 1.57216E-06-6.93524E-19-2.64441E-18
 -1      2727 9.53035E-05-2.79938E-05-2.88472E-05 1.34192E-06-8.84059E-19-1.86261E-18
 -1      2728 9.55823E-05-2.79741E-05-2.89789E-05 1.81474E-06-7.28017E-19-2.88149E-18
 -1      2729 9.56892E-05-2.79017E-05-2.90442E-05 2.09196E-06-4.70310E-19-2.88076E-18
 -1      2730 9.52913E-05-2.77842E-05-2.89314E-05 1.77746E-06-7.93879E-19-2.19859E-18
 -1      2731 9.56590E-05-2.77725E-05-2.90995E-05 2.40470E-06 3.42976E-19-2.78213E-18
 -1      2732 9.57852E-05-2.76798E-05-2.91788E-05 2.76258E-06 1.12970E-18-2.45547E-18
 -1      2733 9.52501E-05-2.75143E-05-2.90286E-05 2.34126E-06 1.13249E-19-2.33544E-18
 -1      2734 9.57233E-05-2.75116E-05-2.92408E-05 3.15912E-06 1.10849E-18-2.64063E-18
 -1      2735 9.58677E-05-2.73941E-05-2.93348E-05 3.61393E-06 5.24990E-19-2.24312E-18
 -1      2736 9.51598E-05-2.71671E-05-2.91372E-05 3.05726E-06 1.14176E-18-2.22709E-18
 -1      2737 9.57567E-05-2.71781E-05-2.94005E-05 4.10913E-06 6.10006E-19-1.94253E-18
 -1      2738 9.59162E-05-2.70331E-05-2.95083E-05 4.67770E-06 1.19174E-18-1.67890E-18
 -1      2739 9.49909E-05-2.67244E-05-2.92524E-05 3.95139E-06 8.17819E-19-1.72959E-18
 -1      2740 9.57334E-05-2.67635E-05-2.95714E-05 5.28692E-06 1.48865E-18-1.27456E-18
 -1      2741 9.59040E-05-2.65953E-05-2.96887E-05 5.98385E-06 1.31460E-18-7.13770E-19
 -1      2742 9.47044E-05-2.61718E-05-2.93633E-05 5.05007E-06 1.23742E-18-1.02725E-18
 -1      2743 9.56252E-05-2.62764E-05-2.97374E-05 6.72174E-06 9.84563E-19-4.53406E-19
 -1      2744 9.58071E-05-2.61068E-05-2.98544E-05 7.55416E-06 1.19683E-18 2.76258E-19
 -1      2745 9.42536E-05-2.55095E-05-2.94498E-05 6.37824E-06 1.30842E-18-7.72758E-19
 -1      2746 9.54157E-05-2.57684E-05-2.98688E-05 8.43355E-06 4.20356E-19-2.80470E-20
 -1      2747 9.56274E-05-2.56570E-05-2.99677E-05 9.39215E-06 2.20646E-19 9.54657E-20
 -1      2748 9.35959E-05-2.47755E-05-2.94779E-05 7.95792E-06 9.18715E-19-5.08799E-20
 -1      2749 9.51376E-05-2.53830E-05-2.99171E-05 1.04236E-05 6.10978E-20 9.15105E-19
 -1      2750 9.54466E-05-2.54640E-05-2.99692E-05 1.14686E-05 1.31017E-19 9.35562E-19
 -1      2751 9.27220E-05-2.40899E-05-2.93936E-05 9.80981E-06 6.34666E-19 1.00055E-18
 -1      2752 9.49503E-05-2.54393E-05-2.98106E-05 1.26590E-05-1.62234E-19 1.17653E-18
 -1      2753 9.55320E-05-2.59753E-05-2.97781E-05 1.36980E-05 2.54095E-19 5.69309E-19
 -1      2754 9.17201E-05-2.37326E-05-2.91186E-05 1.19604E-05 9.31960E-20 1.19502E-18
 -1      2755 9.52760E-05-2.65467E-05-2.94599E-05 1.50570E-05 5.36176E-19 4.44022E-20
 -1      2756 9.65141E-05-2.80089E-05-2.93077E-05 1.59153E-05 1.08162E-18 5.68018E-19
 -1      2757 9.08883E-05-2.42495E-05-2.85518E-05 1.44573E-05 8.92703E-20 2.71859E-19
 -1      2758 9.70764E-05-2.97872E-05-2.87907E-05 1.74079E-05 1.18182E-18-2.64675E-19
 -1      2759 9.96488E-05-3.28839E-05-2.85341E-05 1.77391E-05 1.12903E-18 1.66149E-19
 -1      2760 9.09683E-05-2.66527E-05-2.75865E-05 1.73963E-05 3.29248E-19-7.19316E-19
 -1      2761 1.02079E-04-3.65960E-05-2.78839E-05 1.89930E-05 9.21554E-19-6.47318E-20
 -1      2762 1.06869E-04-4.19095E-05-2.76994E-05 1.81900E-05-2.97507E-19 1.77017E-21
 -1      2763 9.35157E-05-3.25703E-05-2.62073E-05 2.06835E-05 5.08458E-19-3.04082E-18
 -1      2764 1.12814E-04-4.82959E-05-2.72820E-05 1.81473E-05-1.13608E-18 1.31228E-18
 -1      2765 1.20487E-04-5.51536E-05-2.77801E-05 1.47493E-05-1.78375E-18 8.85580E-19
 -1      2766 1.01062E-04-4.35494E-05-2.48888E-05 2.33478E-05-1.13979E-19-1.32428E-18
 -1      2767 8.33434E-05-4.27765E-05-1.72197E-05 4.86407E-05-6.19605E-19-1.56299E-18
 -1      2768 6.83275E-05-3.60235E-05-1.30364E-05 4.60875E-05-1.48231E-21-1.08325E-18
 -1      2769 6.28628E-05-2.92585E-05-1.40780E-05 4.15219E-05 1.09183E-18-7.54283E-19
 -1      2770 1.25365E-04-5.55156E-05-2.98142E-05-2.06889E-05-9.04644E-19-3.16023E-18
 -1      2771 1.17724E-04-4.91687E-05-2.90350E-05-2.50263E-05-9.53256E-19-2.16173E-18
 -1      2772 1.10906E-04-4.32585E-05-2.89733E-05-2.68280E-05-9.90923E-19-1.76106E-18
 -1      2773 1.05279E-04-3.67980E-05-2.91028E-05-2.80094E-05-9.42688E-19-2.09701E-18
 -1      2774 1.00098E-04-3.44603E-05-2.82716E-05-3.07550E-05-8.34777E-19-2.00670E-18
 -1      2775 1.10850E-04-4.67690E-05-2.76100E-05-3.15286E-05-1.13632E-18-2.00956E-18
 -1      2776 9.48965E-05-2.76477E-05-2.88245E-05-7.16058E-08 1.27221E-18-1.07826E-18
 -1      2777 9.50134E-05-2.73810E-05-2.89643E-05 3.96740E-07 1.40982E-18-8.44294E-19
 -1      2778 9.47930E-05-2.80465E-05-2.86070E-05-6.97278E-07 9.76049E-19-1.19265E-18
 -1      2779 9.48451E-05-2.78731E-05-2.86887E-05-4.38336E-07 1.07433E-18-1.08136E-18
 -1      2780 9.52828E-05-2.76603E-05-2.89889E-05-8.67200E-08 1.30030E-18-1.34909E-18
 -1      2781 9.50505E-05-2.70046E-05-2.91692E-05 1.00723E-06 1.44170E-18-8.27393E-19
 -1      2782 9.52416E-05-2.65862E-05-2.93955E-05 1.79072E-06 1.53005E-18-6.09282E-19
 -1      2783 9.53535E-05-2.69066E-05-2.93423E-05 9.55869E-07 1.54251E-18-1.31977E-18
 -1      2784 9.47459E-05-2.84618E-05-2.84070E-05-1.13993E-06 6.59755E-19-1.20566E-18
 -1      2785 9.47188E-05-2.83832E-05-2.84249E-05-1.10415E-06 8.37420E-19-1.08696E-18
 -1      2786 9.47756E-05-2.85626E-05-2.83762E-05-1.13660E-06 1.98180E-19-1.00697E-18
 -1      2787 9.47311E-05-2.85101E-05-2.83782E-05-1.15359E-06 4.01791E-19-1.18980E-18
 -1      2788 9.51136E-05-2.85924E-05-2.85126E-05-1.13862E-06 4.53094E-19-1.12130E-18
 -1      2789 9.48227E-05-2.86220E-05-2.83709E-05-1.06012E-06 4.12476E-19-1.21052E-18
 -1      2790 9.47705E-05-2.85880E-05-2.83633E-05-1.10673E-06 3.00666E-19-1.19148E-18
 -1      2791 9.51005E-05-2.86930E-05-2.84628E-05-1.13574E-06 4.10323E-19-1.27473E-18
 -1      2792 9.48777E-05-2.86526E-05-2.83812E-05-9.46197E-07 3.27839E-19-9.32087E-19
 -1      2793 9.48242E-05-2.86322E-05-2.83684E-05-1.00674E-06 5.61769E-19-9.98917E-19
 -1      2794 9.51014E-05-2.87434E-05-2.84408E-05-1.06011E-06 4.03678E-19-1.28372E-18
 -1      2795 9.49343E-05-2.86634E-05-2.84009E-05-8.19190E-07 1.68659E-19-1.24973E-18
 -1      2796 9.48832E-05-2.86528E-05-2.83854E-05-8.83105E-07 2.47910E-19-1.00021E-18
 -1      2797 9.51113E-05-2.87603E-05-2.84372E-05-9.47477E-07 3.41598E-19-1.16204E-18
 -1      2798 9.49888E-05-2.86604E-05-2.84255E-05-6.95475E-07 3.99449E-19-1.07072E-18
 -1      2799 9.49419E-05-2.86569E-05-2.84091E-05-7.55714E-07 6.98354E-20-1.10646E-18
 -1      2800 9.51260E-05-2.87548E-05-2.84455E-05-8.22372E-07 1.85551E-19-1.57712E-18
 -1      2801 9.50397E-05-2.86478E-05-2.84527E-05-5.86013E-07 6.26984E-19-9.62994E-19
 -1      2802 9.49975E-05-2.86495E-05-2.84362E-05-6.37886E-07 7.62493E-19-1.04248E-18
 -1      2803 9.51432E-05-2.87346E-05-2.84612E-05-7.01448E-07 4.27048E-19-1.43520E-18
 -1      2804 9.50868E-05-2.86282E-05-2.84813E-05-4.98254E-07 5.15318E-19-5.73041E-19
 -1      2805 9.50488E-05-2.86339E-05-2.84649E-05-5.38555E-07 6.56635E-19-7.13321E-19
 -1      2806 9.51611E-05-2.87043E-05-2.84818E-05-5.95980E-07 3.96152E-19-1.34885E-18
 -1      2807 9.51312E-05-2.86033E-05-2.85108E-05-4.37562E-07 6.29232E-19-8.19407E-19
 -1      2808 9.50962E-05-2.86121E-05-2.84945E-05-4.63930E-07 4.47073E-19-8.10906E-19
 -1      2809 9.51793E-05-2.86670E-05-2.85055E-05-5.13769E-07 5.11935E-19-7.71143E-19
 -1      2810 9.51747E-05-2.85741E-05-2.85418E-05-4.08258E-07 3.46952E-19-5.42308E-19
 -1      2811 9.51409E-05-2.85853E-05-2.85250E-05-4.18719E-07 6.89223E-19-6.38014E-19
 -1      2812 9.51977E-05-2.86242E-05-2.85318E-05-4.60574E-07 4.92128E-19-6.44224E-19
 -1      2813 9.52199E-05-2.85411E-05-2.85750E-05-4.14346E-07-3.18320E-19-1.49786E-19
 -1      2814 9.51851E-05-2.85542E-05-2.85572E-05-4.07001E-07 1.61032E-19-1.13712E-19
 -1      2815 9.52169E-05-2.85762E-05-2.85606E-05-4.41162E-07 8.64424E-20-3.52260E-19
 -1      2816 9.52700E-05-2.85047E-05-2.86118E-05-4.59947E-07 7.18007E-20-8.63053E-19
 -1      2817 9.52316E-05-2.85192E-05-2.85921E-05-4.32807E-07-1.79322E-19-1.42068E-19
 -1      2818 9.52379E-05-2.85232E-05-2.85924E-05-4.60021E-07 1.73181E-20 6.47801E-20
 -1      2819 9.53291E-05-2.84657E-05-2.86535E-05-5.49438E-07-3.55433E-19-1.20467E-18
 -1      2820 9.52840E-05-2.84808E-05-2.86310E-05-5.00409E-07-5.41530E-20-9.49775E-19
 -1      2821 9.52623E-05-2.84649E-05-2.86280E-05-5.21770E-07-6.34142E-20-5.22364E-19
 -1      2822 9.54022E-05-2.84256E-05-2.87015E-05-6.87255E-07-4.69058E-19-7.79851E-19
 -1      2823 9.53467E-05-2.84401E-05-2.86753E-05-6.14295E-07-2.63854E-19-1.13987E-18
 -1      2824 9.52925E-05-2.84016E-05-2.86681E-05-6.31263E-07-3.85580E-19-1.03220E-18
 -1      2825 9.54954E-05-2.83877E-05-2.87572E-05-8.77282E-07 2.72668E-20-1.02736E-18
 -1      2826 9.54254E-05-2.83994E-05-2.87265E-05-7.78787E-07-2.83116E-19-8.27187E-19
 -1      2827 9.53318E-05-2.83350E-05-2.87137E-05-7.93332E-07-4.71341E-19-1.05886E-18
 -1      2828 9.56164E-05-2.83575E-05-2.88216E-05-1.12171E-06 7.17855E-19-1.11549E-18
 -1      2829 9.55272E-05-2.83631E-05-2.87856E-05-9.97184E-07 6.70566E-19-1.23271E-18
 -1      2830 9.53853E-05-2.82687E-05-2.87653E-05-1.01210E-06 4.14489E-19-2.02756E-18
 -1      2831 9.57752E-05-2.83445E-05-2.88949E-05-1.41924E-06 7.12001E-19-1.95592E-18
 -1      2832 9.56610E-05-2.83385E-05-2.88534E-05-1.27032E-06 7.25697E-19-1.56162E-18
 -1      2833 9.54600E-05-2.82099E-05-2.88228E-05-1.28973E-06 1.10888E-18-2.14169E-18
 -1      2834 9.59846E-05-2.83637E-05-2.89764E-05-1.76240E-06 1.59623E-19-2.04793E-18
 -1      2835 9.58390E-05-2.83380E-05-2.89296E-05-1.59433E-06 5.90527E-19-2.14879E-18
 -1      2836 9.55667E-05-2.81712E-05-2.88855E-05-1.62450E-06 6.15668E-19-2.45954E-18
 -1      2837 9.62614E-05-2.84369E-05-2.90639E-05-2.13393E-06 2.60343E-20-1.21935E-18
 -1      2838 9.60769E-05-2.83800E-05-2.90129E-05-1.95756E-06 3.27357E-20-1.80007E-18
 -1      2839 9.57211E-05-2.81725E-05-2.89517E-05-2.00800E-06-9.21707E-20-2.91492E-18
 -1      2840 9.66274E-05-2.85952E-05-2.91539E-05-2.50213E-06-5.94894E-19-1.44101E-18
 -1      2841 9.63956E-05-2.84915E-05-2.91006E-05-2.33632E-06 2.62387E-19-1.01361E-18
 -1      2842 9.59460E-05-2.82437E-05-2.90183E-05-2.42129E-06-5.57078E-20-2.23913E-18
 -1      2843 9.71099E-05-2.88792E-05-2.92408E-05-2.81529E-06-1.75845E-18-1.42874E-18
 -1      2844 9.68222E-05-2.87091E-05-2.91885E-05-2.68967E-06-1.54830E-18-1.60589E-18
 -1      2845 9.62733E-05-2.84266E-05-2.90814E-05-2.82999E-06-7.88717E-19-2.02453E-18
 -1      2846 9.77419E-05-2.93374E-05-2.93184E-05-2.99599E-06-1.16708E-18-9.83335E-19
 -1      2847 9.73902E-05-2.90788E-05-2.92709E-05-2.95343E-06-1.24920E-18-1.46220E-18
 -1      2848 9.67467E-05-2.87760E-05-2.91362E-05-3.17831E-06-1.34178E-18-2.68644E-18
 -1      2849 9.85578E-05-3.00194E-05-2.93805E-05-2.93669E-06-7.43295E-19-9.37078E-19
 -1      2850 9.81378E-05-2.96524E-05-2.93419E-05-3.03442E-06-9.57814E-19-1.08975E-18
 -1      2851 9.74213E-05-2.93566E-05-2.91787E-05-3.38249E-06-1.30469E-18-2.00617E-18
 -1      2852 9.95834E-05-3.09587E-05-2.94238E-05-2.49984E-06-1.36489E-19-6.06722E-19
 -1      2853 9.91008E-05-3.04755E-05-2.93973E-05-2.80716E-06-1.36015E-19-3.51957E-19
 -1      2854 9.83594E-05-3.02330E-05-2.92079E-05-3.32496E-06-7.97517E-19-1.84346E-18
 -1      2855 1.00815E-04-3.21415E-05-2.94527E-05-1.52849E-06-8.16518E-19-5.47620E-19
 -1      2856 1.00296E-04-3.15638E-05-2.94383E-05-2.11762E-06-6.58307E-19-4.88015E-19
 -1      2857 9.96167E-05-3.14449E-05-2.92299E-05-2.85235E-06-6.66086E-19-7.69611E-19
 -1      2858 1.02183E-04-3.34574E-05-2.94833E-05 1.23145E-07 2.34180E-19 1.29691E-19
 -1      2859 1.01689E-04-3.28615E-05-2.94756E-05-8.02180E-07 8.42779E-20 4.11232E-19
 -1      2860 1.01211E-04-3.29646E-05-2.92631E-05-1.78425E-06-8.02397E-19 5.44940E-19
 -1      2861 1.03505E-04-3.46398E-05-2.95485E-05 2.52490E-06 9.39073E-20 1.12175E-18
 -1      2862 1.03148E-04-3.41832E-05-2.95346E-05 1.26480E-06-1.04871E-19 5.11796E-19
 -1      2863 1.03070E-04-3.46294E-05-2.93433E-05 5.49025E-08-1.82652E-19 7.46904E-19
 -1      2864 1.04446E-04-3.52305E-05-2.96960E-05 5.55812E-06 7.65502E-19 1.70417E-18
 -1      2865 1.04388E-04-3.51577E-05-2.96568E-05 4.07672E-06 6.58471E-19 9.10253E-19
 -1      2866 1.04954E-04-3.60645E-05-2.95261E-05 2.75791E-06 5.15574E-19 8.10006E-19
 -1      2867 1.04552E-04-3.46474E-05-2.99746E-05 8.76555E-06 1.96397E-19 2.27850E-18
 -1      2868 1.04964E-04-3.52305E-05-2.98914E-05 7.34678E-06 4.80114E-19 1.74089E-18
 -1      2869 1.06405E-04-3.66492E-05-2.98791E-05 6.18635E-06 6.79504E-19 1.83805E-18
 -1      2870 1.03427E-04-3.24502E-05-3.04024E-05 1.12560E-05 9.37386E-20 2.96731E-18
 -1      2871 1.04383E-04-3.38302E-05-3.02706E-05 1.03604E-05 2.71679E-19 2.75306E-18
 -1      2872 1.06795E-04-3.56509E-05-3.04538E-05 9.76505E-06 1.66429E-20 1.88780E-18
 -1      2873 1.01081E-04-2.87999E-05-3.09289E-05 1.18444E-05 1.30546E-20 3.48154E-18
 -1      2874 1.02425E-04-3.07586E-05-3.07727E-05 1.19843E-05 3.27856E-19 3.79973E-18
 -1      2875 1.05615E-04-3.26228E-05-3.12378E-05 1.23612E-05-4.49089E-19 3.89774E-18
 -1      2876 9.82552E-05-2.48260E-05-3.14127E-05 9.65258E-06-3.42036E-19 3.58993E-18
 -1      2877 9.95565E-05-2.66928E-05-3.12899E-05 1.10780E-05-1.61210E-19 3.06777E-18
 -1      2878 1.03001E-04-2.80371E-05-3.21048E-05 1.25289E-05 8.18441E-20 3.81379E-18
 -1      2879 9.62034E-05-2.22551E-05-3.16630E-05 4.91645E-06 3.21069E-19 2.66696E-18
 -1      2880 9.69665E-05-2.32081E-05-3.16392E-05 7.33198E-06 2.10183E-19 3.41489E-18
 -1      2881 1.00077E-04-2.35647E-05-3.28116E-05 9.40198E-06 2.80694E-19 2.37752E-18
 -1      2882 9.59839E-05-2.24240E-05-3.15445E-05-7.48909E-07 8.51814E-19 1.39414E-18
 -1      2883 9.59098E-05-2.19990E-05-3.16539E-05 1.79390E-06 3.57385E-19 1.71105E-18
 -1      2884 9.84059E-05-2.12578E-05-3.30874E-05 3.65554E-06 5.11578E-19 1.26339E-18
 -1      2885 9.73842E-05-2.49835E-05-3.10844E-05-5.11879E-06 3.12771E-19 1.85647E-18
 -1      2886 9.67280E-05-2.35764E-05-3.12938E-05-3.34223E-06 2.31892E-19 2.07036E-18
 -1      2887 9.89310E-05-2.24319E-05-3.28039E-05-2.38611E-06-2.25750E-19 1.87527E-18
 -1      2888 9.91760E-05-2.83024E-05-3.04424E-05-6.97235E-06 9.67450E-19 1.53326E-18
 -1      2889 9.84472E-05-2.67245E-05-3.06877E-05-6.33454E-06 1.16274E-18 2.18240E-18
 -1      2890 1.00865E-04-2.59487E-05-3.20693E-05-6.28652E-06 7.61512E-19 2.33071E-18
 -1      2891 1.00302E-04-3.07666E-05-2.98402E-05-6.52718E-06-2.79939E-20 1.33312E-18
 -1      2892 9.99294E-05-2.97003E-05-3.00770E-05-6.79358E-06-1.76257E-19 3.03923E-19
 -1      2893 1.02777E-04-2.98624E-05-3.11925E-05-7.18735E-06 8.77422E-19 1.53423E-18
 -1      2894 1.03268E-04-3.22492E-05-3.03652E-05-5.80005E-06-3.87141E-19 9.30140E-19
 -1      2895 1.40541E-04-3.20234E-05-4.68494E-05 1.38835E-05 8.26387E-19 1.10538E-19
 -1      2896 1.35599E-04-2.19500E-05-4.94948E-05 1.46852E-05 5.60101E-19 1.05498E-18
 -1      2897 1.10961E-04-4.12995E-05-2.97872E-05 2.64160E-05-9.32594E-19-3.05857E-18
 -1      2898 1.13417E-04-4.28095E-05-3.02499E-05 2.14970E-05 1.40866E-19-6.93449E-19
 -1      2899 1.04220E-04-3.42434E-05-2.99496E-05-1.38323E-06-3.28239E-19 7.75015E-19
 -1      2900 1.13147E-04-4.11640E-05-3.07490E-05 1.53198E-05 1.96627E-19 1.44201E-18
 -1      2901 1.12404E-04-4.08604E-05-3.07617E-05 1.08458E-05 1.55093E-19 3.13744E-18
 -1      2902 1.17627E-04-4.58419E-05-3.07477E-05 1.74628E-05-8.57363E-19 7.85458E-19
 -1      2903 7.89720E-05-2.25657E-05-2.42948E-05 3.32577E-05 7.34325E-19-1.71032E-18
 -1      2904 8.92975E-05-2.85587E-05-2.55416E-05 3.61895E-05-4.04485E-19-3.13204E-18
 -1      2905 6.20700E-05-1.08212E-05-2.19033E-05 1.53994E-05 9.94946E-19 6.72809E-19
 -1      2906 6.90172E-05-1.49211E-05-2.26814E-05 2.52185E-05 6.45088E-19-1.52307E-18
 -1      2907 6.11819E-05-1.01278E-05-2.14691E-05-1.09556E-05-2.92518E-19-1.64007E-19
 -1      2908 5.88811E-05-8.98591E-06-2.11643E-05 8.40343E-07 6.50296E-19 7.87529E-19
 -1      2909 7.80643E-05-2.09369E-05-2.40127E-05-2.95695E-05-1.59426E-18 8.23184E-19
 -1      2910 6.87675E-05-1.56645E-05-2.27927E-05-2.32139E-05 3.65680E-20 1.49803E-18
 -1      2911 6.04855E-05-1.55417E-05-1.87913E-05-1.97028E-05 3.09802E-19 1.00426E-18
 -1      2912 1.50934E-04-5.64646E-05-4.06244E-05-1.46733E-05-1.22329E-18-2.40854E-18
 -1      2913 1.43943E-04-5.15142E-05-3.96612E-05 1.94724E-06 3.83335E-19-2.24464E-19
 -1      2914 1.44062E-04-4.24858E-05-4.42413E-05 8.99570E-06 8.62332E-19-2.15993E-20
 -1      2915 1.36843E-04-3.76613E-05-4.27756E-05 1.35776E-05 4.84079E-19 1.04174E-18
 -1      2916 1.43249E-04-6.18546E-05-3.55461E-05 1.71466E-05-1.61272E-18 5.28654E-19
 -1      2917 1.35353E-04-6.36983E-05-3.03153E-05 2.84830E-05-2.06173E-18 2.32193E-19
 -1      2918 6.89988E-05-3.89373E-05-1.23286E-05-4.32507E-05-6.96896E-19-3.67538E-18
 -1      2919 8.39204E-05-4.67123E-05-1.57549E-05-4.49822E-05-1.29141E-18-5.39666E-18
 -1      2920 1.30239E-04-7.50499E-06-5.33106E-05 6.84131E-07 2.47524E-18-7.63402E-19
 -1      2921 1.31042E-04-1.05422E-05-5.21983E-05-4.79856E-06 2.47778E-18-2.51315E-18
 -1      2922 4.50211E-05-2.34600E-05-8.96669E-06 2.43963E-05 4.72962E-19-4.04331E-18
 -1      2923 3.36496E-05-1.66904E-05-6.57058E-06 1.08199E-05 1.27915E-18-3.75511E-18
 -1      2924 1.33270E-04-6.21677E-05-3.03921E-05-2.00667E-05-8.16010E-19-3.08373E-18
 -1      2925 1.41102E-04-5.99455E-05-3.52443E-05-1.04322E-05 1.04767E-19-1.42259E-18
 -1      2926 1.14686E-04-5.85043E-05-2.42844E-05 2.41606E-05-1.92308E-18 3.97576E-19
 -1      2927 9.80139E-05-5.12163E-05-1.95019E-05 3.04006E-05-1.40385E-18-1.44859E-18
 -1      2928 9.92623E-05-3.54805E-05-2.73726E-05 3.53387E-05-8.14991E-19-4.59351E-18
 -1      2929 1.06675E-04-3.97944E-05-2.84245E-05 3.25075E-05-4.93761E-19-3.00621E-18
 -1      2930 1.13131E-04-4.61697E-05-2.87168E-05 3.03975E-05-8.34930E-19-2.51651E-18
 -1      2931 1.10366E-04-3.84417E-05-3.07058E-05 6.08886E-06 4.55755E-19 2.54981E-18
 -1      2932 1.08111E-04-3.72510E-05-3.04639E-05 2.41315E-06 3.00022E-19 1.37950E-18
 -1      2933 1.14935E-04-4.17643E-05-3.12608E-05 6.93018E-06 4.50433E-19 2.00554E-18
 -1      2934 1.36841E-04-6.33804E-05-3.14129E-05-1.68102E-05-1.62186E-18-2.74058E-18
 -1      2935 1.28512E-04-5.98692E-05-2.91094E-05-2.29609E-05-1.15354E-18-3.09172E-18
 -1      2936 1.11522E-04-5.92655E-05-2.20966E-05 4.61169E-05-3.44319E-19-2.16173E-18
 -1      2937 4.35147E-05-1.86436E-05-9.86010E-06-2.24592E-05 5.37019E-19 1.16128E-18
 -1      2938 5.58266E-05-2.80508E-05-1.16698E-05-3.75379E-05-3.16367E-19-3.58083E-19
 -1      2939 1.44437E-04-4.24047E-05-4.43903E-05-4.64693E-06-5.17219E-20-3.40708E-18
 -1      2940 1.46695E-04-5.32726E-05-3.99534E-05 3.62262E-06-7.47348E-19-1.54245E-18
 -1      2941 9.28518E-05-1.80014E-05-3.20782E-05-8.81805E-06-2.26467E-18-3.07615E-18
 -1      2942 4.00761E-05-2.08744E-05-7.61630E-06-2.84974E-05-1.85288E-19-2.72448E-18
 -1      2943 5.31008E-05-2.97100E-05-9.67035E-06-3.93229E-05-4.46704E-19-2.88711E-18
 -1      2944 6.63128E-05-3.29661E-05-1.36973E-05-3.82488E-05-6.25216E-19-3.16557E-18
 -1      2945 1.31638E-04-1.18663E-05-5.18408E-05 1.17678E-05 8.55927E-19 1.80249E-18
 -1      2946 1.30578E-04-7.83104E-06-5.33389E-05 5.98679E-06 2.48223E-18 9.57677E-19
 -1      2947 1.23443E-04-8.99315E-06-4.94980E-05 3.67021E-06 1.23804E-18 1.49165E-18
 -1      2948 2.97109E-05-1.40174E-05-6.18025E-06-1.56381E-06 1.40012E-18-3.26574E-18
 -1      2949 3.18685E-05-1.51687E-05-6.70136E-06-1.60376E-05 1.04582E-18-2.79627E-18
 -1      2950 7.86449E-05-4.32931E-05-1.50568E-05 3.49193E-05-6.56239E-19-2.75370E-18
 -1      2951 6.23154E-05-3.23590E-05-1.21117E-05 3.09592E-05 2.38440E-19-3.74336E-18
 -1      2952 5.82581E-05-2.60807E-05-1.33056E-05 2.52051E-05 2.79627E-19-3.66458E-18
 -1      2953 9.25460E-05-4.35700E-05-2.05068E-05 2.84847E-05-5.61795E-19-2.20843E-18
 -1      2954 1.35434E-04-1.85038E-05-5.08244E-05-8.18367E-06 2.96504E-18-2.97277E-18
 -1      2955 1.38945E-04-2.83605E-05-4.77983E-05-8.97178E-06 1.07658E-18-3.02899E-18
 -1      2956 9.11734E-05-1.60869E-05-3.22078E-05 4.91577E-06 2.12626E-18-3.00236E-18
 -1      2957 9.08296E-05-1.55879E-05-3.22682E-05 3.99397E-06 1.79779E-18-3.21873E-18
 -1      2958 9.18073E-05-1.71992E-05-3.19597E-05 3.19704E-06 1.55472E-18-2.99485E-18
 -1      2959 9.24764E-05-1.82591E-05-3.17880E-05 4.61594E-06 2.00075E-18-2.64942E-18
 -1      2960 9.07934E-05-1.55396E-05-3.22730E-05-3.93092E-06-7.53053E-19-3.73561E-18
 -1      2961 9.11284E-05-1.60257E-05-3.22140E-05-4.85508E-06-1.05329E-18-3.72662E-18
 -1      2962 9.47466E-05-2.83001E-05-2.84773E-05-1.01827E-06 9.64374E-19-1.17083E-18
 -1      2963 9.47506E-05-2.81838E-05-2.85203E-05-8.95813E-07 1.01262E-18-1.07876E-18
 -1      2964 9.52046E-05-2.81271E-05-2.87540E-05-7.00094E-07 1.08813E-18-1.31535E-18
 -1      2965 9.51469E-05-2.84167E-05-2.86036E-05-1.01750E-06 8.79609E-19-1.31251E-18
 -1      2966 1.53338E-04-5.30956E-05-4.30658E-05 3.39367E-06-7.61271E-20-4.15724E-18
 -1      2967 1.51047E-04-6.32238E-05-3.75114E-05-2.40472E-06-1.35557E-18-4.49605E-18
 -1      2968 1.22372E-04-6.15628E-05-2.62530E-05 4.04302E-05-1.06112E-18-1.10150E-18
 -1      2969 1.04711E-04-5.30710E-05-2.17197E-05 4.60194E-05-7.24425E-19-3.19818E-18
 -1      2970 9.12818E-05-1.63895E-05-3.20847E-05 2.84646E-08 4.42191E-19-3.27159E-18
 -1      2971 9.01594E-05-1.45996E-05-3.24021E-05-3.83032E-07 3.79478E-19-3.50758E-18
 -1      2972 9.02162E-05-1.46800E-05-3.23922E-05-1.34030E-06 5.16119E-20-3.58695E-18
 -1      2973 9.44878E-05-2.14006E-05-3.13173E-05 7.86228E-06 2.79037E-18-7.49095E-19
 -1      2974 7.21162E-05-3.21315E-05-1.65444E-05-3.85811E-05-7.97270E-19 3.14673E-19
 -1      2975 1.28108E-04-1.82387E-05-4.74685E-05 1.41169E-05 4.98691E-19 2.01837E-18
 -1      2976 1.05978E-04-5.29543E-05-2.22997E-05-4.07412E-05-1.79020E-18-3.11285E-19
 -1      2977 4.67289E-05-1.52714E-05-1.27847E-05-1.30903E-05 9.40154E-19 1.02152E-18
 -1      2978 1.29050E-04-6.24020E-05-2.82634E-05 1.26450E-05-2.35078E-18 1.38098E-18
 -1      2979 9.15575E-05-1.66764E-05-3.21136E-05-5.57681E-06-1.22043E-18-3.61863E-18
 -1      2980 9.20209E-05-1.73968E-05-3.20231E-05-6.44352E-06-1.67682E-18-3.59828E-18
 -1      2981 9.24261E-05-1.81864E-05-3.17968E-05-4.57150E-06-1.11534E-18-3.42557E-18
 -1      2982 1.37063E-04-6.62426E-05-3.06905E-05-2.44178E-05-1.17134E-18-2.35941E-18
 -1      2983 1.37703E-04-6.53493E-05-3.09096E-05 6.18799E-06-1.86601E-18 1.53101E-19
 -1      2984 1.19841E-04-5.80301E-05-2.66585E-05-3.35935E-05-1.04164E-18-2.74263E-18
 -1      2985 9.42199E-05-2.07510E-05-3.15196E-05-8.18635E-06-2.43508E-18-2.56518E-18
 -1      2986 9.47241E-05-2.26506E-05-3.09121E-05-6.42718E-06-2.24101E-18-2.32569E-18
 -1      2987 1.28768E-04-6.06327E-05-2.89958E-05 3.11031E-05-2.50425E-18-5.21269E-19
 -1      2988 1.07276E-04-3.59485E-05-3.05787E-05-1.21207E-06 1.15213E-19 1.28004E-18
 -1      2989 9.61285E-05-3.77366E-05-2.49405E-05 3.90630E-05-2.67980E-19-3.26102E-18
 -1      2990 7.13198E-05-2.21667E-05-2.08011E-05 3.28496E-05 6.74768E-19-1.89640E-18
 -1      2991 5.53433E-05-1.17348E-05-1.80989E-05 9.17465E-06 7.19343E-19 6.77415E-19
 -1      2992 9.41065E-05-3.08370E-05-2.67785E-05-3.28936E-05-5.65844E-19 6.36188E-19
 -1      2993 8.61159E-05-2.63908E-05-2.56824E-05-3.26243E-05-1.39128E-18 9.75411E-19
 -1      2994 7.98493E-05-2.72694E-05-2.23068E-05-3.42906E-05-1.47659E-18 6.15052E-19
 -1      2995 9.85669E-05-3.71123E-05-2.60777E-05-3.43933E-05-9.80758E-19-9.08919E-19
 -1      2996 9.53225E-05-2.56684E-05-2.98583E-05 2.59026E-06 1.76232E-18-1.00338E-18
 -1      2997 9.52083E-05-2.58922E-05-2.97016E-05 2.76177E-06 1.65815E-18-5.58251E-19
 -1      2998 1.39847E-04-5.51103E-05-3.64657E-05-9.15098E-07-2.43214E-19 2.69251E-19
 -1      2999 1.41875E-04-5.63080E-05-3.66914E-05 8.37662E-06-1.99277E-18-2.30764E-18
 -1      3000 9.52364E-05-2.55603E-05-2.98380E-05 3.45574E-06 1.97326E-18-3.59297E-19
 -1      3001 1.38786E-04-3.58192E-05-4.44689E-05-8.48125E-06-2.27164E-19-2.71538E-18
 -1      3002 1.36101E-04-4.14226E-05-4.07856E-05-5.65419E-06-2.52045E-19-2.60696E-18
 -1      3003 1.30631E-04-2.93326E-05-4.37498E-05-1.04120E-05 9.54183E-19-3.48268E-18
 -1      3004 1.27613E-04-6.24938E-05-2.79345E-05-2.50038E-05-1.61540E-18-3.80360E-18
 -1      3005 1.30665E-04-6.08818E-05-2.99264E-05-1.62448E-05-1.54451E-18-9.19534E-19
 -1      3006 1.19595E-04-5.94830E-05-2.54763E-05-2.85353E-05-1.64033E-18-3.20840E-18
 -1      3007 9.71931E-05-5.12956E-05-1.93202E-05-3.95773E-05-1.74955E-18-4.79032E-18
 -1      3008 1.27328E-04-1.56523E-05-4.83271E-05-6.77051E-06 2.35835E-18-1.58496E-18
 -1      3009 4.32734E-05-1.74863E-05-1.03732E-05-2.10336E-05-1.39972E-19-2.25819E-18
 -1      3010 3.94537E-05-1.44655E-05-1.00006E-05 4.28025E-06 1.03566E-18-3.49835E-18
 -1      3011 9.47494E-05-2.24164E-05-3.09684E-05 6.33496E-06 2.48461E-18-9.08935E-19
 -1      3012 9.45402E-05-2.22448E-05-3.09760E-05-5.83450E-06-2.05333E-18-2.56553E-18
 -1      3013 9.03418E-05-1.48712E-05-3.23646E-05-2.17673E-06-1.86432E-19-3.58101E-18
 -1      3014 9.05268E-05-1.51351E-05-3.23325E-05-3.12732E-06-5.43064E-19-3.65861E-18
 -1      3015 9.17760E-05-1.71568E-05-3.19646E-05-3.14119E-06-6.67115E-19-3.49109E-18
 -1      3016 9.13999E-05-1.65727E-05-3.20561E-05-1.58243E-06-1.84118E-19-3.35063E-18
 -1      3017 4.55440E-05-1.70663E-05-1.14625E-05 1.98679E-05 4.96573E-19 1.90159E-19
 -1      3018 9.42656E-05-2.18650E-05-3.10641E-05 4.99594E-06 2.11200E-18-1.78429E-18
 -1      3019 9.38121E-05-2.09188E-05-3.12449E-05 4.60763E-06 1.95931E-18-2.17490E-18
 -1      3020 9.53860E-05-2.53558E-05-2.99893E-05 4.67383E-06 2.33418E-18 1.22512E-19
 -1      3021 6.64744E-05-2.45460E-05-1.76581E-05 3.51431E-05 4.64121E-19-1.86273E-18
 -1      3022 5.55281E-05-1.83197E-05-1.51572E-05 2.95248E-05 1.07573E-18 1.94606E-19
 -1      3023 9.54955E-05-2.55645E-05-2.99550E-05-2.13778E-06-1.45980E-18-2.24182E-18
 -1      3024 9.55339E-05-2.62664E-05-2.96991E-05-1.32898E-06-1.33044E-18-2.19280E-18
 -1      3025 9.56797E-05-2.68786E-05-2.94715E-05-7.40585E-07-1.28596E-18-1.92461E-18
 -1      3026 9.56554E-05-2.73272E-05-2.92917E-05-2.15892E-07-1.11686E-18-1.94655E-18
 -1      3027 9.57046E-05-2.61988E-05-2.97893E-05-1.16668E-06-1.20202E-18-2.16430E-18
 -1      3028 9.56992E-05-2.77131E-05-2.91257E-05 1.63899E-07-1.03846E-18-1.77482E-18
 -1      3029 9.56621E-05-2.79997E-05-2.90028E-05 4.78698E-07-1.03144E-18-1.98016E-18
 -1      3030 9.58950E-05-2.73302E-05-2.93880E-05-1.60585E-07-9.85922E-19-1.87354E-18
 -1      3031 9.56543E-05-2.82384E-05-2.88846E-05 7.00072E-07-9.43522E-19-1.87380E-18
 -1      3032 9.56220E-05-2.84195E-05-2.88033E-05 8.67577E-07-7.36324E-19-1.88285E-18
 -1      3033 9.59358E-05-2.80551E-05-2.90953E-05 4.73738E-07-9.93611E-19-1.69686E-18
 -1      3034 9.55900E-05-2.85615E-05-2.87213E-05 9.76147E-07-5.34194E-19-1.72155E-18
 -1      3035 9.55669E-05-2.86722E-05-2.86698E-05 1.04473E-06-5.05885E-19-1.56511E-18
 -1      3036 9.59020E-05-2.85070E-05-2.88870E-05 8.30581E-07-6.63194E-19-1.73936E-18
 -1      3037 9.55254E-05-2.87502E-05-2.86148E-05 1.07746E-06-4.53868E-19-1.40353E-18
 -1      3038 9.55110E-05-2.88135E-05-2.85844E-05 1.08280E-06-4.66369E-19-1.36440E-18
 -1      3039 9.58341E-05-2.87748E-05-2.87426E-05 9.92674E-07-3.77074E-19-1.53812E-18
 -1      3040 9.54678E-05-2.88492E-05-2.85492E-05 1.06779E-06-5.53456E-19-1.22106E-18
 -1      3041 9.54602E-05-2.88804E-05-2.85334E-05 1.03550E-06-4.39061E-19-1.07034E-18
 -1      3042 9.57540E-05-2.89188E-05-2.86461E-05 1.02602E-06-3.21661E-19-1.48251E-18
 -1      3043 9.54192E-05-2.88884E-05-2.85126E-05 9.93283E-07-6.87483E-19-9.52939E-19
 -1      3044 9.54164E-05-2.88980E-05-2.85068E-05 9.41421E-07-6.54671E-19-1.08781E-18
 -1      3045 9.56733E-05-2.89801E-05-2.85848E-05 9.80290E-07-5.21084E-19-7.73199E-19
 -1      3046 9.53793E-05-2.88883E-05-2.84962E-05 8.86556E-07-6.62029E-19-9.97672E-19
 -1      3047 9.53798E-05-2.88837E-05-2.84971E-05 8.27615E-07-7.29458E-19-9.34853E-19
 -1      3048 9.55979E-05-2.89871E-05-2.85491E-05 8.91559E-07-6.23194E-19-8.92528E-19
 -1      3049 9.53474E-05-2.88629E-05-2.84938E-05 7.70239E-07-1.02447E-18-8.27275E-19
 -1      3050 9.53500E-05-2.88487E-05-2.84993E-05 7.12786E-07-7.05446E-19-9.52378E-19
 -1      3051 9.55304E-05-2.89589E-05-2.85319E-05 7.85347E-07-5.82051E-19-7.24008E-19
 -1      3052 9.53221E-05-2.88210E-05-2.85012E-05 6.59875E-07-3.94230E-19-1.21679E-18
 -1      3053 9.53261E-05-2.88005E-05-2.85097E-05 6.09795E-07-3.99860E-19-1.21564E-18
 -1      3054 9.54714E-05-2.89084E-05-2.85280E-05 6.79423E-07-8.18034E-19-1.14775E-18
 -1      3055 9.53022E-05-2.87683E-05-2.85154E-05 5.66203E-07-5.69295E-19-1.14229E-18
 -1      3056 9.53071E-05-2.87430E-05-2.85261E-05 5.27679E-07-5.66244E-19-1.17850E-18
 -1      3057 9.54204E-05-2.88434E-05-2.85337E-05 5.86139E-07-5.64503E-19-1.45086E-18
 -1      3058 9.52861E-05-2.87072E-05-2.85348E-05 4.96966E-07-7.93097E-19-1.05602E-18
 -1      3059 9.52918E-05-2.86780E-05-2.85474E-05 4.73232E-07-9.70079E-19-9.67335E-19
 -1      3060 9.53758E-05-2.87680E-05-2.85468E-05 5.14315E-07-4.82515E-19-1.20807E-18
 -1      3061 9.52724E-05-2.86384E-05-2.85586E-05 4.58307E-07-1.12932E-18-1.05129E-18
 -1      3062 9.52788E-05-2.86049E-05-2.85730E-05 4.52239E-07-8.31028E-19-1.58086E-18
 -1      3063 9.53357E-05-2.86834E-05-2.85657E-05 4.70721E-07-1.12742E-18-1.41228E-18
 -1      3064 9.52595E-05-2.85605E-05-2.85866E-05 4.55856E-07-4.53373E-19-2.16726E-18
 -1      3065 9.52665E-05-2.85218E-05-2.86032E-05 4.70440E-07-3.59805E-19-2.19706E-18
 -1      3066 9.52971E-05-2.85885E-05-2.85897E-05 4.61229E-07-8.67387E-19-1.63561E-18
 -1      3067 9.52452E-05-2.84706E-05-2.86192E-05 4.95585E-07-1.78439E-19-1.99605E-18
 -1      3068 9.52526E-05-2.84250E-05-2.86385E-05 5.34286E-07-9.93957E-20-1.61649E-18
 -1      3069 9.52565E-05-2.84801E-05-2.86186E-05 4.91702E-07-1.07368E-19-2.36679E-18
 -1      3070 9.52267E-05-2.83641E-05-2.86572E-05 5.84467E-07-4.06009E-19-1.22888E-18
 -1      3071 9.52341E-05-2.83092E-05-2.86798E-05 6.51528E-07-1.34512E-19-1.29057E-18
 -1      3072 9.52093E-05-2.83531E-05-2.86526E-05 5.68653E-07 1.54753E-19-1.82693E-18
 -1      3073 9.51999E-05-2.82350E-05-2.87015E-05 7.30987E-07-3.58945E-20-1.34258E-18
 -1      3074 9.52064E-05-2.81675E-05-2.87283E-05 8.31668E-07 3.46403E-19-1.24265E-18
 -1      3075 9.51493E-05-2.82004E-05-2.86921E-05 6.99720E-07-1.16162E-20-1.50749E-18
 -1      3076 9.51592E-05-2.80751E-05-2.87532E-05 9.45502E-07 3.78252E-19-1.46750E-18
 -1      3077 9.51629E-05-2.79909E-05-2.87849E-05 1.08625E-06-1.93994E-20-1.77590E-18
 -1      3078 9.50683E-05-2.80131E-05-2.87373E-05 8.93953E-07 9.64626E-20-1.13837E-18
 -1      3079 9.50957E-05-2.78742E-05-2.88130E-05 1.24046E-06-6.73999E-19-1.67695E-18
 -1      3080 9.50935E-05-2.77679E-05-2.88502E-05 1.42903E-06-1.09312E-18-1.77146E-18
 -1      3081 9.49550E-05-2.77795E-05-2.87882E-05 1.16189E-06-1.45216E-19-1.66908E-18
 -1      3082 9.49968E-05-2.76193E-05-2.88810E-05 1.63043E-06-1.04187E-18-1.55493E-18
 -1      3083 9.49833E-05-2.74843E-05-2.89239E-05 1.87584E-06-6.13316E-19-1.68788E-18
 -1      3084 9.47932E-05-2.74854E-05-2.88440E-05 1.51541E-06-6.72042E-19-1.55582E-18
 -1      3085 9.48438E-05-2.72942E-05-2.89562E-05 2.13188E-06-2.00914E-19-1.94080E-18
 -1      3086 9.48103E-05-2.71225E-05-2.90044E-05 2.44426E-06 5.20747E-19-1.43497E-18
 -1      3087 9.45607E-05-2.71132E-05-2.89026E-05 1.96725E-06-5.03694E-19-1.46801E-18
 -1      3088 9.46095E-05-2.68798E-05-2.90355E-05 2.76265E-06 9.81411E-19-1.53290E-18
 -1      3089 9.45435E-05-2.66623E-05-2.90870E-05 3.15281E-06 9.93568E-19-1.42961E-18
 -1      3090 9.42265E-05-2.66419E-05-2.89594E-05 2.53022E-06 5.78291E-19-1.35596E-18
 -1      3091 9.42565E-05-2.63547E-05-2.91118E-05 3.54108E-06 1.07469E-18-1.25775E-18
 -1      3092 9.41400E-05-2.60826E-05-2.91624E-05 4.01974E-06 1.17222E-18-9.69422E-19
 -1      3093 9.37482E-05-2.60482E-05-2.90060E-05 3.21609E-06 1.39550E-18-1.45839E-18
 -1      3094 9.37343E-05-2.56987E-05-2.91726E-05 4.48497E-06 8.11541E-19-4.62956E-19
 -1      3095 9.35448E-05-2.53667E-05-2.92143E-05 5.06176E-06 9.29516E-19-3.42526E-19
 -1      3096 9.30698E-05-2.53087E-05-2.90281E-05 4.03443E-06 1.43020E-18-1.51756E-18
 -1      3097 9.29805E-05-2.49008E-05-2.91958E-05 5.61095E-06 6.66942E-19-5.22378E-19
 -1      3098 9.26931E-05-2.45148E-05-2.92146E-05 6.29348E-06 1.33210E-18-4.92479E-19
 -1      3099 9.21199E-05-2.44068E-05-2.90021E-05 4.99245E-06 7.82346E-19-1.13336E-19
 -1      3100 9.19256E-05-2.39762E-05-2.91454E-05 6.93631E-06 1.02747E-18-1.00485E-18
 -1      3101 9.15228E-05-2.35671E-05-2.91189E-05 7.73044E-06 3.51974E-19-5.39254E-19
 -1      3102 9.08145E-05-2.33453E-05-2.88905E-05 6.09806E-06 9.09198E-19-6.44607E-19
 -1      3103 9.05106E-05-2.29979E-05-2.89651E-05 8.48732E-06 6.42647E-19-1.12272E-19
 -1      3104 9.00045E-05-2.26486E-05-2.88590E-05 9.40086E-06 8.66547E-19 1.67008E-19
 -1      3105 8.90655E-05-2.21709E-05-2.86358E-05 7.37130E-06 6.39054E-19-1.23606E-18
 -1      3106 8.87277E-05-2.21543E-05-2.85710E-05 1.03221E-05 3.78657E-19 3.58310E-20
 -1      3107 8.82068E-05-2.20481E-05-2.83377E-05 1.13756E-05-4.31772E-19-4.54553E-19
 -1      3108 8.68034E-05-2.10161E-05-2.81518E-05 8.87386E-06 6.90099E-19-1.59999E-18
 -1      3109 8.67023E-05-2.18408E-05-2.78464E-05 1.25586E-05-1.00355E-18-3.66928E-19
 -1      3110 8.63971E-05-2.23004E-05-2.74285E-05 1.38014E-05-2.86114E-19-1.19547E-18
 -1      3111 8.40281E-05-2.01732E-05-2.73150E-05 1.07606E-05-3.55282E-19-1.73577E-18
 -1      3112 8.48142E-05-2.27533E-05-2.66349E-05 1.55085E-05-3.30661E-19-1.52974E-18
 -1      3113 8.52909E-05-2.44509E-05-2.59729E-05 1.70611E-05-5.07301E-19-2.35107E-18
 -1      3114 8.08648E-05-2.01639E-05-2.59491E-05 1.34088E-05-7.79121E-19-3.08410E-18
 -1      3115 8.40645E-05-2.61833E-05-2.47531E-05 1.95725E-05-1.38185E-19-2.57961E-18
 -1      3116 8.65834E-05-3.02102E-05-2.39397E-05 2.14132E-05 6.80287E-19-2.73417E-18
 -1      3117 7.78486E-05-2.22015E-05-2.38147E-05 1.75811E-05-6.04351E-19-3.15870E-18
 -1      3118 8.65803E-05-3.59328E-05-2.13589E-05 2.63100E-05 9.20315E-19-2.80585E-18
 -1      3119 9.93725E-05-4.89557E-05-2.10586E-05 4.67875E-05-1.01273E-18-3.10872E-18
 -1      3120 9.05968E-05-4.18398E-05-2.06886E-05 4.54885E-05-1.01898E-18-2.61934E-18
 -1      3121 9.27922E-05-1.83860E-05-3.18897E-05-7.48175E-06-1.88121E-18-3.30418E-18
 -1      3122 1.30828E-04-5.90833E-05-3.11474E-05 2.40868E-05-2.75394E-18-1.98532E-18
 -1      3123 1.21957E-04-5.55317E-05-2.80291E-05 3.26182E-05-1.39493E-18-2.38116E-18
 -1      3124 9.55769E-05-2.76826E-05-2.91037E-05-1.53674E-07 1.15045E-18-1.30645E-18
 -1      3125 9.56212E-05-2.73335E-05-2.92524E-05 2.69840E-07 1.40859E-18-1.28916E-18
 -1      3126 9.55480E-05-2.68564E-05-2.94490E-05 7.67152E-07 1.44967E-18-1.40558E-18
 -1      3127 9.55674E-05-2.63079E-05-2.96663E-05 1.44786E-06 1.57127E-18-1.29613E-18
 -1      3128 9.57669E-05-2.68173E-05-2.95531E-05 6.70203E-07 1.38177E-18-1.30490E-18
 -1      3129 9.54009E-05-2.88161E-05-2.85358E-05-1.08425E-06 4.32626E-19-1.00730E-18
 -1      3130 9.54056E-05-2.87691E-05-2.85561E-05-1.09983E-06 5.61171E-19-8.16607E-19
 -1      3131 9.54452E-05-2.87144E-05-2.85991E-05-1.09205E-06 3.44236E-19-8.64877E-19
 -1      3132 9.54590E-05-2.86297E-05-2.86369E-05-1.05711E-06 5.65203E-19-9.02952E-19
 -1      3133 9.57153E-05-2.88226E-05-2.86711E-05-1.04295E-06 4.75474E-19-6.33962E-19
 -1      3134 9.53347E-05-2.88631E-05-2.84867E-05-9.02018E-07 2.89597E-19-1.19153E-18
 -1      3135 9.53295E-05-2.88589E-05-2.84872E-05-9.59337E-07 4.21089E-19-9.72602E-19
 -1      3136 9.53116E-05-2.88420E-05-2.84857E-05-7.83842E-07 3.85059E-19-1.70989E-18
 -1      3137 9.53043E-05-2.88493E-05-2.84811E-05-8.43848E-07 2.78794E-19-1.52792E-18
 -1      3138 9.55095E-05-2.89491E-05-2.85272E-05-8.60746E-07 4.80260E-19-1.47015E-18
 -1      3139 9.52937E-05-2.88046E-05-2.84941E-05-6.71103E-07 1.11164E-19-1.42833E-18
 -1      3140 9.52855E-05-2.88196E-05-2.84861E-05-7.26635E-07 2.40248E-19-1.65389E-18
 -1      3141 9.54547E-05-2.89131E-05-2.85189E-05-7.50043E-07 1.89992E-19-1.66571E-18
 -1      3142 9.52801E-05-2.87566E-05-2.85088E-05-5.74622E-07 1.15478E-19-7.00543E-19
 -1      3143 9.52715E-05-2.87769E-05-2.84986E-05-6.20771E-07 2.56653E-19-9.54977E-19
 -1      3144 9.54074E-05-2.88593E-05-2.85214E-05-6.45766E-07-2.19392E-19-9.74159E-19
 -1      3145 9.52698E-05-2.87009E-05-2.85282E-05-5.02029E-07 4.70239E-19-2.28550E-19
 -1      3146 9.52609E-05-2.87251E-05-2.85163E-05-5.35295E-07 3.54396E-19-5.02515E-19
 -1      3147 9.53666E-05-2.87940E-05-2.85317E-05-5.58447E-07 6.17604E-20-2.90148E-19
 -1      3148 9.52620E-05-2.86389E-05-2.85513E-05-4.59114E-07 2.79970E-19-2.23872E-19
 -1      3149 9.52528E-05-2.86665E-05-2.85381E-05-4.76779E-07 4.49417E-19-4.25242E-19
 -1      3150 9.53307E-05-2.87201E-05-2.85478E-05-4.95661E-07 3.33870E-19-1.94101E-19
 -1      3151 9.52561E-05-2.85708E-05-2.85779E-05-4.50810E-07-1.84834E-19 3.44126E-20
 -1      3152 9.52463E-05-2.86016E-05-2.85632E-05-4.50492E-07 1.23978E-19-2.27949E-19
 -1      3153 9.52981E-05-2.86388E-05-2.85686E-05-4.63310E-07 1.24289E-19-1.05250E-19
 -1      3154 9.52518E-05-2.84958E-05-2.86080E-05-4.81866E-07-1.39472E-19-2.70940E-19
 -1      3155 9.52407E-05-2.85299E-05-2.85916E-05-4.61227E-07-1.71818E-19 8.73936E-21
 -1      3156 9.52669E-05-2.85495E-05-2.85934E-05-4.66562E-07-1.12921E-20-6.21766E-19
 -1      3157 9.52492E-05-2.84133E-05-2.86420E-05-5.57229E-07-6.49500E-21-2.84791E-19
 -1      3158 9.52358E-05-2.84508E-05-2.86236E-05-5.13836E-07 2.35562E-19 8.36607E-21
 -1      3159 9.52351E-05-2.84510E-05-2.86219E-05-5.10494E-07-2.71543E-20-2.84838E-19
 -1      3160 9.52489E-05-2.83231E-05-2.86803E-05-6.82123E-07-3.95568E-19-7.32148E-19
 -1      3161 9.52319E-05-2.83636E-05-2.86594E-05-6.13471E-07-1.20410E-19-6.05799E-19
 -1      3162 9.52015E-05-2.83423E-05-2.86541E-05-6.00454E-07 1.30361E-19-6.40205E-19
 -1      3163 9.52528E-05-2.82266E-05-2.87230E-05-8.61782E-07-3.18944E-20-1.15822E-18
 -1      3164 9.52302E-05-2.82689E-05-2.86994E-05-7.65510E-07-2.58253E-19-6.95937E-19
 -1      3165 9.51651E-05-2.82230E-05-2.86896E-05-7.42132E-07 6.08456E-20-8.80827E-19
 -1      3166 9.52647E-05-2.81281E-05-2.87699E-05-1.10077E-06 6.09834E-19-2.18357E-18
 -1      3167 9.52335E-05-2.81694E-05-2.87437E-05-9.75109E-07 4.70806E-19-2.00822E-18
 -1      3168 9.51265E-05-2.80948E-05-2.87280E-05-9.41315E-07 6.79135E-19-1.22783E-18
 -1      3169 9.52911E-05-2.80361E-05-2.88203E-05-1.40178E-06 1.25011E-18-1.79810E-18
 -1      3170 9.52471E-05-2.80712E-05-2.87916E-05-1.24630E-06 7.40626E-19-2.17254E-18
 -1      3171 9.50888E-05-2.79631E-05-2.87684E-05-1.20324E-06 5.62331E-19-1.97580E-18
 -1      3172 9.53436E-05-2.79659E-05-2.88725E-05-1.76377E-06 3.98083E-19-1.64962E-18
 -1      3173 9.52800E-05-2.79862E-05-2.88421E-05-1.58047E-06 1.23321E-18-1.43602E-18
 -1      3174 9.50590E-05-2.78389E-05-2.88091E-05-1.53145E-06 8.86604E-19-1.03236E-18
 -1      3175 9.54402E-05-2.79424E-05-2.89238E-05-2.17923E-06-8.79128E-20-2.16137E-18
 -1      3176 9.53477E-05-2.79343E-05-2.88930E-05-1.97416E-06 2.97926E-20-2.13263E-18
 -1      3177 9.50503E-05-2.77418E-05-2.88475E-05-1.92605E-06 5.43197E-19-9.03823E-19
 -1      3178 9.56092E-05-2.80027E-05-2.89704E-05-2.63060E-06-8.37415E-19-1.60433E-18
 -1      3179 9.54739E-05-2.79464E-05-2.89411E-05-2.41583E-06-3.35137E-19-2.07488E-18
 -1      3180 9.50854E-05-2.77032E-05-2.88799E-05-2.38114E-06-4.08308E-19-1.09235E-18
 -1      3181 9.58921E-05-2.81993E-05-2.90079E-05-3.08531E-06-3.20222E-19-1.88032E-18
 -1      3182 9.56950E-05-2.80677E-05-2.89822E-05-2.88163E-06-6.19363E-19-1.45696E-18
 -1      3183 9.52006E-05-2.77700E-05-2.89022E-05-2.88123E-06-7.81091E-19-8.58857E-19
 -1      3184 9.63473E-05-2.86011E-05-2.90317E-05-3.48979E-06-1.50544E-18-2.15025E-18
 -1      3185 9.60629E-05-2.83597E-05-2.90121E-05-3.32966E-06-7.73483E-19-1.75579E-18
 -1      3186 9.54505E-05-2.80078E-05-2.89097E-05-3.39623E-06-5.43130E-19-7.30862E-19
 -1      3187 9.70510E-05-2.92906E-05-2.90397E-05-3.76212E-06-1.54683E-18-1.68640E-18
 -1      3188 9.66486E-05-2.89001E-05-2.90274E-05-3.69295E-06-1.59705E-18-1.95267E-18
 -1      3189 9.59127E-05-2.85022E-05-2.88994E-05-3.87471E-06-1.56958E-18-1.46855E-18
 -1      3190 9.80933E-05-3.03518E-05-2.90350E-05-3.78404E-06-1.39598E-18-1.20711E-18
 -1      3191 9.75409E-05-2.97758E-05-2.90286E-05-3.87080E-06-1.44497E-18-1.68615E-18
 -1      3192 9.66903E-05-2.93546E-05-2.88722E-05-4.23455E-06-1.81347E-18-1.16713E-18
 -1      3193 9.95616E-05-3.18416E-05-2.90312E-05-3.39453E-06-1.19205E-18-7.91208E-19
 -1      3194 9.88368E-05-3.10642E-05-2.90242E-05-3.71992E-06-1.09604E-18-1.07422E-18
 -1      3195 9.79072E-05-3.06662E-05-2.88379E-05-4.35071E-06-1.50622E-18-7.19243E-19
 -1      3196 1.01503E-04-3.37366E-05-2.90593E-05-2.39195E-06-1.06977E-18 7.66399E-20
 -1      3197 1.00614E-04-3.27920E-05-2.90370E-05-3.04975E-06-1.54106E-18-5.01583E-19
 -1      3198 9.96878E-05-3.25013E-05-2.88212E-05-4.04192E-06-1.48784E-18-1.29552E-18
 -1      3199 1.03856E-04-3.58472E-05-2.91736E-05-5.56681E-07-2.16229E-19 1.40678E-19
 -1      3200 1.02878E-04-3.48661E-05-2.91106E-05-1.63120E-06-3.89981E-19 6.45916E-20
 -1      3201 1.02110E-04-3.48202E-05-2.88704E-05-3.06375E-06-1.29871E-18-9.87718E-19
 -1      3202 1.06352E-04-3.77071E-05-2.94553E-05 2.27157E-06 1.15657E-18-1.08446E-19
 -1      3203 1.05462E-04-3.69682E-05-2.93151E-05 7.55799E-07 4.39517E-19 2.62674E-19
 -1      3204 1.05109E-04-3.73620E-05-2.90647E-05-1.12486E-06 1.29989E-19 2.11653E-19
 -1      3205 1.08427E-04-3.85041E-05-3.00027E-05 6.01835E-06 2.15861E-19-1.36705E-19
 -1      3206 1.07918E-04-3.84476E-05-2.97454E-05 4.18756E-06 6.61216E-19-1.72724E-19
 -1      3207 1.08339E-04-3.95023E-05-2.95171E-05 2.01331E-06 8.89633E-20-8.65429E-19
 -1      3208 1.09260E-04-3.72199E-05-3.08906E-05 1.00765E-05-8.02371E-19 1.54024E-18
 -1      3209 1.09456E-04-3.83178E-05-3.04951E-05 8.32958E-06 1.57960E-20 9.78370E-19
 -1      3210 1.11036E-04-4.01700E-05-3.03566E-05 6.29973E-06-5.20623E-19 8.29670E-19
 -1      3211 1.08128E-04-3.31790E-05-3.20956E-05 1.30909E-05-7.57544E-19 2.78555E-18
 -1      3212 1.09188E-04-3.56147E-05-3.15907E-05 1.21294E-05-1.08005E-18 2.37709E-18
 -1      3213 1.12108E-04-3.81311E-05-3.16603E-05 1.09342E-05-1.50467E-18 2.17855E-18
 -1      3214 1.05154E-04-2.70568E-05-3.34119E-05 1.31466E-05 3.44220E-19 2.31640E-18
 -1      3215 1.06745E-04-3.02076E-05-3.29062E-05 1.37442E-05 3.73886E-19 2.73218E-18
 -1      3216 1.10652E-04-3.27169E-05-3.33408E-05 1.40932E-05-3.93326E-19 9.69409E-19
 -1      3217 1.01770E-04-2.13625E-05-3.44572E-05 9.22945E-06 6.41760E-19 2.09116E-18
 -1      3218 1.03212E-04-2.38796E-05-3.41207E-05 1.15065E-05-7.49492E-20 2.05551E-18
 -1      3219 1.07217E-04-2.54414E-05-3.50454E-05 1.34276E-05 2.24232E-19 9.59688E-19
 -1      3220 1.00528E-04-1.94523E-05-3.47641E-05 2.32491E-06-8.30870E-20 1.71751E-18
 -1      3221 1.00840E-04-1.98077E-05-3.47531E-05 5.41684E-06 7.72153E-19 2.24730E-18
 -1      3222 1.03920E-04-1.96310E-05-3.61274E-05 7.86187E-06 6.77706E-19 5.89062E-19
 -1      3223 1.01850E-04-2.22533E-05-3.42340E-05-4.21775E-06-1.82926E-19 1.29814E-18
 -1      3224 1.00998E-04-2.03704E-05-3.45606E-05-1.68096E-06 3.26637E-20 1.28967E-18
 -1      3225 1.03435E-04-1.88359E-05-3.62607E-05 2.05952E-07 2.77046E-19 1.25907E-18
 -1      3226 1.04546E-04-2.76588E-05-3.30747E-05-7.39297E-06 8.36630E-19 1.54859E-18
 -1      3227 1.03473E-04-2.49830E-05-3.35819E-05-6.38958E-06-2.04000E-19 1.11222E-18
 -1      3228 1.05850E-04-2.32392E-05-3.53613E-05-6.05400E-06 1.92118E-19 4.30584E-19
 -1      3229 6.27386E-05-2.71341E-05-1.48010E-05-3.31474E-05 3.81244E-19-2.32860E-18
 -1      3230 7.61532E-05-3.64227E-05-1.69376E-05-3.81364E-05 9.93146E-20-3.53403E-18
 -1      3231 9.31087E-05-3.87115E-05-2.32917E-05 4.14717E-05-2.12129E-19-3.40910E-18
 -1      3232 1.06711E-04-4.58690E-05-2.56281E-05 4.00501E-05-7.01979E-19-3.05864E-18
 -1      3233 1.13843E-04-3.94939E-05-3.19222E-05-1.15031E-07 6.56206E-19 2.36795E-18
 -1      3234 1.08999E-04-3.60834E-05-3.12980E-05-3.65949E-06-2.36259E-20 1.51371E-18
 -1      3235 1.09131E-04-3.49053E-05-3.18050E-05-4.95218E-06 2.13274E-19 1.52375E-18
 -1      3236 4.70684E-05-1.09784E-05-1.47751E-05-7.74339E-07 1.26095E-19 1.49078E-19
 -1      3237 5.16498E-05-1.50366E-05-1.55583E-05-1.80959E-05 1.12176E-18 4.72433E-19
 -1      3238 4.98024E-05-1.25243E-05-1.56502E-05 1.50202E-05 4.96732E-19 7.83188E-19
 -1      3239 6.34271E-05-2.09527E-05-1.73033E-05-3.08839E-05 2.71209E-19 9.39571E-19
 -1      3240 1.17807E-04-1.01628E-05-4.65330E-05 7.40714E-06 5.48454E-19 2.38149E-18
 -1      3241 1.17438E-04-9.77816E-06-4.65620E-05 7.06518E-07 1.37463E-18 1.87232E-18
 -1      3242 1.35667E-04-5.74932E-05-3.34736E-05-4.17652E-06-8.33911E-19 4.56921E-19
 -1      3243 1.36566E-04-5.07579E-05-3.72243E-05 5.86524E-06-6.03246E-19 8.75409E-19
 -1      3244 8.08346E-05-3.26351E-05-1.99698E-05 4.30591E-05 1.64430E-19-2.14532E-18
 -1      3245 4.42928E-05-1.39814E-05-1.26292E-05-1.39065E-05 7.60080E-20-1.60047E-18
 -1      3246 5.14297E-05-1.95080E-05-1.34494E-05-2.62533E-05 6.41098E-20-1.86697E-18
 -1      3247 1.48103E-04-6.45748E-05-3.57279E-05-6.12612E-06-1.29421E-18-1.02512E-18
 -1      3248 1.37899E-04-5.10810E-05-3.76301E-05 1.53508E-06-1.26560E-18-2.91337E-18
 -1      3249 1.36999E-04-5.72101E-05-3.40107E-05 1.21618E-05-3.34724E-18-1.55206E-18
 -1      3250 9.53642E-05-2.88590E-05-2.85013E-05-1.00984E-06 2.84383E-19-8.76021E-19
 -1      3251 9.53627E-05-2.88375E-05-2.85097E-05-1.05395E-06 2.99327E-19-1.12142E-18
 -1      3252 9.56417E-05-2.89230E-05-2.85960E-05-1.03390E-06 3.93964E-19-6.04430E-19
 -1      3253 9.55722E-05-2.89576E-05-2.85509E-05-9.62693E-07 4.35424E-19-1.02198E-18
 -1      3254 9.49595E-05-2.35133E-05-3.06193E-05-4.14473E-06-1.70246E-18-2.58676E-18
 -1      3255 9.51566E-05-2.45939E-05-3.02594E-05-2.96218E-06-1.60443E-18-2.45805E-18
 -1      3256 9.52409E-05-2.44714E-05-3.03268E-05-2.62170E-06-1.44889E-18-2.48668E-18
 -1      3257 1.16414E-04-4.97390E-05-2.85506E-05 3.14390E-05-1.04707E-18-1.98501E-18
 -1      3258 1.21275E-04-5.12444E-05-3.00761E-05 2.50176E-05-1.22398E-18-2.73594E-18
 -1      3259 1.17375E-04-4.22793E-05-3.21223E-05 3.85855E-06 3.25320E-19 2.02109E-18
 -1      3260 1.05333E-04-4.90713E-05-2.38419E-05-3.80369E-05-1.17764E-18-1.04061E-18
 -1      3261 9.22691E-05-4.63717E-05-1.93240E-05-3.78646E-05-9.71811E-19-4.31918E-18
 -1      3262 1.07742E-04-5.51717E-05-2.25397E-05-3.51390E-05-2.01303E-18-4.74603E-18
 -1      3263 9.53037E-05-2.45496E-05-3.03489E-05 4.83658E-06 2.26421E-18-5.84765E-19
 -1      3264 1.25057E-04-2.25533E-05-4.41100E-05 1.65560E-05 8.32951E-19 1.76024E-18
 -1      3265 1.20606E-04-1.43501E-05-4.60818E-05 1.22443E-05 4.26693E-19 2.43350E-18
 -1      3266 1.09956E-04-5.20202E-05-2.48878E-05 4.19784E-05-1.43646E-18-3.34199E-18
 -1      3267 4.53862E-05-1.47528E-05-1.28599E-05 1.05740E-05 4.14861E-19-3.36198E-18
 -1      3268 4.20014E-05-1.22316E-05-1.23971E-05-1.59930E-06 3.19626E-19-2.51188E-18
 -1      3269 9.23663E-05-1.83381E-05-3.17414E-05 1.81064E-06 1.08822E-18-2.86297E-18
 -1      3270 9.22464E-05-1.81364E-05-3.17733E-05 1.05717E-06 7.29042E-19-3.03408E-18
 -1      3271 9.47477E-05-2.29721E-05-3.07485E-05 4.94764E-06 2.06999E-18-1.24838E-18
 -1      3272 1.33986E-04-4.19193E-05-3.94635E-05 1.33215E-05 2.38440E-19 6.01817E-19
 -1      3273 1.29336E-04-3.35310E-05-4.16596E-05 1.59513E-05 6.50415E-19 9.28428E-19
 -1      3274 1.19503E-04-1.28410E-05-4.61632E-05-4.56299E-06 1.94373E-18 5.43980E-19
 -1      3275 1.23581E-04-1.95665E-05-4.49504E-05-8.89862E-06 2.10530E-18-1.13434E-18
 -1      3276 9.34784E-05-1.98245E-05-3.15487E-05-6.19853E-06-1.68719E-18-3.21280E-18
 -1      3277 7.81294E-05-3.19322E-05-1.95991E-05-3.79068E-05-1.23217E-18 1.26758E-18
 -1      3278 9.93235E-05-4.23616E-05-2.40575E-05-3.75901E-05-9.40048E-19-3.48210E-19
 -1      3279 9.50026E-05-2.37670E-05-3.05115E-05 3.80894E-06 1.82634E-18-1.38109E-18
 -1      3280 1.15392E-04-1.46303E-05-4.34292E-05 9.85559E-06 3.66712E-19 2.29166E-18
 -1      3281 4.97087E-05-1.35789E-05-1.50289E-05-7.37600E-06 9.58206E-21-1.62620E-18
 -1      3282 9.25405E-05-1.86343E-05-3.16856E-05 2.42141E-06 1.28411E-18-2.73641E-18
 -1      3283 9.33557E-05-2.00116E-05-3.14147E-05 1.79876E-06 1.08585E-18-2.57510E-18
 -1      3284 9.27790E-05-1.90466E-05-3.16184E-05 3.12254E-06 1.64972E-18-2.69767E-18
 -1      3285 9.30361E-05-1.94973E-05-3.15256E-05-3.60825E-06-9.93303E-19-3.27094E-18
 -1      3286 9.33932E-05-2.01507E-05-3.14151E-05-4.22092E-06-1.24159E-18-3.15345E-18
 -1      3287 7.52291E-05-2.89552E-05-1.96701E-05 2.53498E-05 8.66118E-19-2.95223E-18
 -1      3288 9.55840E-05-2.79799E-05-2.89631E-05-4.61383E-07 9.22579E-19-1.24207E-18
 -1      3289 9.58505E-05-2.77094E-05-2.92072E-05-1.75912E-07 1.10459E-18-1.21982E-18
 -1      3290 9.55455E-05-2.82032E-05-2.88642E-05-7.02459E-07 9.07341E-19-1.11595E-18
 -1      3291 1.30594E-04-5.47423E-05-3.24762E-05 1.56353E-05-2.51037E-18-2.07010E-18
 -1      3292 1.29099E-04-4.00684E-05-3.85212E-05-6.74080E-06-4.62692E-19-1.39027E-18
 -1      3293 1.35169E-04-4.63436E-05-3.82112E-05-3.50245E-06-7.05420E-20-2.86371E-18
 -1      3294 1.31480E-04-4.78525E-05-3.56577E-05 5.21092E-07-1.00125E-18-2.44111E-18
 -1      3295 9.57860E-05-2.86233E-05-2.87874E-05-9.45838E-07 7.28276E-19-6.58140E-19
 -1      3296 9.54956E-05-2.85247E-05-2.87031E-05-9.86337E-07 8.06615E-19-8.69115E-19
 -1      3297 9.55214E-05-2.83844E-05-2.87662E-05-8.69811E-07 8.92966E-19-9.53267E-19
 -1      3298 8.82429E-05-4.11227E-05-1.98882E-05-3.43797E-05-2.12129E-19-3.14400E-18
 -1      3299 6.26496E-05-2.31535E-05-1.65018E-05-2.67105E-05 5.89111E-19-2.69960E-18
 -1      3300 1.07621E-04-3.25902E-05-3.22981E-05-6.82993E-06 9.60026E-19 5.87576E-19
 -1      3301 1.06940E-04-3.03701E-05-3.28062E-05-7.28099E-06 1.25074E-18 1.97746E-18
 -1      3302 1.10287E-04-3.03860E-05-3.42357E-05-7.48820E-06-2.49643E-20 5.70008E-19
 -1      3303 1.14499E-04-3.63874E-05-3.33595E-05-5.44386E-06 6.67882E-19 7.14082E-19
 -1      3304 1.14706E-04-1.37613E-05-4.35226E-05-1.59110E-06 8.93567E-19 5.34848E-19
 -1      3305 1.15899E-04-5.17591E-05-2.73091E-05 3.47246E-05-1.37976E-18-2.46485E-18
 -1      3306 1.23525E-04-5.00115E-05-3.13313E-05 1.74556E-05-1.24896E-18-6.35056E-19
 -1      3307 1.22468E-04-4.83673E-05-3.19519E-05 1.14259E-05-1.27222E-18 2.20576E-18
 -1      3308 1.32624E-04-5.92824E-05-3.15633E-05-9.08794E-06-8.29417E-19 3.24334E-19
 -1      3309 1.31117E-04-5.51501E-05-3.25838E-05-1.68969E-06-9.07980E-19 8.22681E-20
 -1      3310 1.27104E-04-5.81826E-05-2.94473E-05-1.35166E-05-1.90289E-18-5.97741E-19
 -1      3311 1.31406E-04-4.64052E-05-3.65777E-05 9.33739E-06-5.14533E-19 1.38453E-18
 -1      3312 1.24326E-04-2.53025E-05-4.28414E-05-9.81584E-06 1.06017E-18-1.76596E-18
 -1      3313 1.24310E-04-3.03977E-05-4.02457E-05-9.72930E-06 7.63918E-20-1.39578E-18
 -1      3314 1.17018E-04-2.13696E-05-4.11558E-05-8.63533E-06 1.61730E-19-3.50698E-19
 -1      3315 1.14982E-04-5.62108E-05-2.49745E-05-2.73690E-05-1.86358E-18-3.31793E-18
 -1      3316 9.53655E-05-2.55435E-05-2.99350E-05 2.19205E-06 1.68080E-18-1.36264E-18
 -1      3317 9.52859E-05-2.47005E-05-3.02472E-05 3.20058E-06 1.74653E-18-1.25136E-18
 -1      3318 9.49395E-05-2.35962E-05-3.05654E-05 3.35364E-06 1.77696E-18-1.73718E-18
 -1      3319 1.22127E-04-4.50995E-05-3.29627E-05 3.20906E-06-9.30280E-20 6.79651E-19
 -1      3320 1.23329E-04-2.82726E-05-4.08958E-05 1.62301E-05 7.33081E-19 1.53938E-18
 -1      3321 9.25201E-05-1.86008E-05-3.16900E-05-2.37106E-06-5.23812E-19-3.28832E-18
 -1      3322 9.27507E-05-1.90033E-05-3.16241E-05-3.08322E-06-8.38443E-19-3.35181E-18
 -1      3323 9.37267E-05-2.07487E-05-3.12625E-05-2.80114E-06-9.65907E-19-3.14165E-18
 -1      3324 5.20966E-05-1.81846E-05-1.39327E-05 1.77047E-05 7.41935E-19-3.26065E-18
 -1      3325 5.46111E-05-1.61579E-05-1.60139E-05 1.20417E-05 3.29555E-19-3.02057E-18
 -1      3326 9.31386E-05-1.96209E-05-3.14908E-05 6.29398E-07 5.37528E-19-2.79661E-18
 -1      3327 9.21872E-05-1.80366E-05-3.17916E-05 4.08251E-07 5.46722E-19-3.03592E-18
 -1      3328 9.21828E-05-1.80307E-05-3.17921E-05-3.61403E-07 2.01302E-19-3.01362E-18
 -1      3329 1.26848E-04-5.30946E-05-3.14165E-05 1.82619E-05-1.94107E-18-1.43031E-18
 -1      3330 9.43185E-05-2.19765E-05-3.09900E-05 3.61660E-06 1.73436E-18-2.32095E-18
 -1      3331 9.34272E-05-2.02066E-05-3.14041E-05 4.24965E-06 1.95757E-18-2.51963E-18
 -1      3332 9.30723E-05-1.95519E-05-3.15176E-05 3.64937E-06 1.78787E-18-2.72197E-18
 -1      3333 8.98094E-05-3.79324E-05-2.19205E-05-3.99200E-05-8.17651E-19 2.28074E-18
 -1      3334 9.39952E-05-2.12782E-05-3.11685E-05-5.12895E-06-1.63067E-18-3.01553E-18
 -1      3335 9.54893E-05-2.54249E-05-3.00259E-05 1.95449E-06 1.63868E-18-1.42985E-18
 -1      3336 9.39572E-05-2.12199E-05-3.11679E-05-4.44300E-06-1.44718E-18-2.99808E-18
 -1      3337 6.08480E-05-1.71237E-05-1.86666E-05 1.41593E-05 9.00899E-20-2.95805E-18
 -1      3338 5.56620E-05-1.36084E-05-1.77287E-05 6.95574E-06 6.29551E-20-2.75857E-18
 -1      3339 9.60330E-05-2.69130E-05-2.96140E-05-4.44960E-07-7.99273E-19-2.00891E-18
 -1      3340 9.60819E-05-2.74068E-05-2.94397E-05-3.17893E-08-7.87228E-19-1.85654E-18
 -1      3341 9.61645E-05-2.78284E-05-2.92793E-05 2.47133E-07-9.10099E-19-1.80664E-18
 -1      3342 9.61600E-05-2.81478E-05-2.91526E-05 4.98852E-07-8.88950E-19-1.83233E-18
 -1      3343 9.62671E-05-2.74593E-05-2.94894E-05 1.60257E-08-7.87093E-19-1.96209E-18
 -1      3344 9.61693E-05-2.84117E-05-2.90332E-05 6.59569E-07-7.46109E-19-1.71298E-18
 -1      3345 9.61395E-05-2.86104E-05-2.89434E-05 7.93759E-07-4.47618E-19-1.56181E-18
 -1      3346 9.63591E-05-2.82209E-05-2.92036E-05 4.75474E-07-7.04843E-19-1.65742E-18
 -1      3347 9.61067E-05-2.87654E-05-2.88566E-05 8.69031E-07-3.73168E-19-1.44107E-18
 -1      3348 9.60666E-05-2.88809E-05-2.87947E-05 9.22445E-07-4.19848E-19-1.51798E-18
 -1      3349 9.63375E-05-2.86952E-05-2.89917E-05 7.30355E-07-4.24022E-19-1.47719E-18
 -1      3350 9.60120E-05-2.89618E-05-2.87332E-05 9.39955E-07-1.93594E-19-1.71829E-18
 -1      3351 9.59695E-05-2.90207E-05-2.86922E-05 9.41198E-07 2.89114E-20-1.39758E-18
 -1      3352 9.62526E-05-2.89687E-05-2.88382E-05 8.39849E-07-3.01078E-19-1.49863E-18
 -1      3353 9.59058E-05-2.90519E-05-2.86502E-05 9.22611E-07-2.56563E-19-1.21508E-18
 -1      3354 9.58651E-05-2.90726E-05-2.86245E-05 8.92936E-07-3.83535E-19-1.07483E-18
 -1      3355 9.61369E-05-2.91047E-05-2.87302E-05 8.53009E-07-1.21952E-19-1.64048E-18
 -1      3356 9.58000E-05-2.90713E-05-2.85972E-05 8.54376E-07-6.47063E-19-1.15385E-18
 -1      3357 9.57630E-05-2.90670E-05-2.85829E-05 8.09089E-07-6.38599E-19-1.11210E-18
 -1      3358 9.60105E-05-2.91482E-05-2.86572E-05 8.07694E-07-5.70045E-19-1.54785E-18
 -1      3359 9.57009E-05-2.90450E-05-2.85666E-05 7.62152E-07-6.00235E-19-1.50253E-18
 -1      3360 9.56684E-05-2.90244E-05-2.85604E-05 7.12045E-07-8.42954E-19-1.40226E-18
 -1      3361 9.58853E-05-2.91311E-05-2.86106E-05 7.31852E-07-8.37402E-19-1.78384E-18
 -1      3362 9.56113E-05-2.89894E-05-2.85524E-05 6.64889E-07-9.10513E-19-1.32220E-18
 -1      3363 9.55832E-05-2.89584E-05-2.85521E-05 6.17496E-07-6.41535E-19-1.47407E-18
 -1      3364 9.57678E-05-2.90750E-05-2.85840E-05 6.45521E-07-6.87553E-19-1.69149E-18
 -1      3365 9.55315E-05-2.89152E-05-2.85503E-05 5.75821E-07-4.63793E-19-1.49553E-18
 -1      3366 9.55072E-05-2.88770E-05-2.85544E-05 5.36448E-07-4.83006E-19-1.36814E-18
 -1      3367 9.56604E-05-2.89941E-05-2.85724E-05 5.62844E-07-5.30968E-19-1.65948E-18
 -1      3368 9.54602E-05-2.88281E-05-2.85573E-05 5.04323E-07-5.12211E-19-1.14871E-18
 -1      3369 9.54388E-05-2.87843E-05-2.85648E-05 4.76883E-07-5.30229E-19-1.27201E-18
 -1      3370 9.55628E-05-2.88966E-05-2.85721E-05 4.93836E-07-5.20143E-19-1.52049E-18
 -1      3371 9.53947E-05-2.87302E-05-2.85714E-05 4.57402E-07-1.01230E-18-1.10298E-18
 -1      3372 9.53749E-05-2.86810E-05-2.85817E-05 4.45054E-07-1.23638E-18-1.06302E-18
 -1      3373 9.54726E-05-2.87862E-05-2.85805E-05 4.45864E-07-6.49716E-19-1.04193E-18
 -1      3374 9.53314E-05-2.86209E-05-2.85914E-05 4.40842E-07-1.27942E-18-8.95435E-19
 -1      3375 9.53117E-05-2.85652E-05-2.86042E-05 4.46487E-07-9.95057E-19-1.50661E-18
 -1      3376 9.53859E-05-2.86628E-05-2.85959E-05 4.24774E-07-1.14379E-18-7.85264E-19
 -1      3377 9.52655E-05-2.84971E-05-2.86165E-05 4.60078E-07-2.68208E-19-1.58972E-18
 -1      3378 9.52437E-05-2.84326E-05-2.86318E-05 4.86734E-07 3.38893E-19-1.62589E-18
 -1      3379 9.52970E-05-2.85238E-05-2.86171E-05 4.35768E-07-7.06443E-19-8.55621E-19
 -1      3380 9.51907E-05-2.83533E-05-2.86464E-05 5.20827E-07 2.64000E-19-1.46250E-18
 -1      3381 9.51641E-05-2.82771E-05-2.86643E-05 5.71894E-07 2.63408E-19-1.39234E-18
 -1      3382 9.51989E-05-2.83638E-05-2.86433E-05 4.84003E-07 3.00526E-19-7.92869E-19
 -1      3383 9.50993E-05-2.81822E-05-2.86810E-05 6.29499E-07 1.68356E-19-1.53437E-18
 -1      3384 9.50643E-05-2.80901E-05-2.87015E-05 7.08919E-07 3.73291E-19-1.08420E-18
 -1      3385 9.50823E-05-2.81752E-05-2.86737E-05 5.74971E-07 3.10159E-19-1.00689E-18
 -1      3386 9.49808E-05-2.79743E-05-2.87199E-05 7.93388E-07 3.91827E-19-9.62845E-19
 -1      3387 9.49325E-05-2.78611E-05-2.87431E-05 9.05701E-07 1.15944E-19-1.11823E-18
 -1      3388 9.49356E-05-2.79479E-05-2.87077E-05 7.14611E-07 3.11763E-19-9.89754E-19
 -1      3389 9.48219E-05-2.77176E-05-2.87626E-05 1.02061E-06 4.20194E-20-9.41426E-19
 -1      3390 9.47533E-05-2.75768E-05-2.87881E-05 1.17088E-06 1.09793E-20-1.05035E-18
 -1      3391 9.47440E-05-2.76697E-05-2.87440E-05 9.09152E-07 1.45184E-19-4.39991E-19
 -1      3392 9.46041E-05-2.73975E-05-2.88075E-05 1.31979E-06-5.97625E-19-1.46269E-18
 -1      3393 9.45058E-05-2.72212E-05-2.88345E-05 1.51336E-06-7.25345E-19-1.32291E-18
 -1      3394 9.44877E-05-2.73256E-05-2.87806E-05 1.16462E-06-5.95533E-19-1.27000E-18
 -1      3395 9.43031E-05-2.69964E-05-2.88517E-05 1.69931E-06-3.56764E-19-7.93669E-19
 -1      3396 9.41615E-05-2.67752E-05-2.88785E-05 1.94140E-06-1.96806E-20-4.70666E-19
 -1      3397 9.41412E-05-2.68979E-05-2.88138E-05 1.48596E-06-3.65088E-20-6.76204E-19
 -1      3398 9.38855E-05-2.64934E-05-2.88900E-05 2.16627E-06 4.34331E-20-6.35131E-19
 -1      3399 9.36821E-05-2.62167E-05-2.89131E-05 2.46132E-06 5.83246E-19-1.06017E-18
 -1      3400 9.36705E-05-2.63660E-05-2.88379E-05 1.87564E-06 1.55307E-19-3.36135E-19
 -1      3401 9.33067E-05-2.58653E-05-2.89133E-05 2.72507E-06 1.08011E-18-9.79025E-19
 -1      3402 9.30165E-05-2.55214E-05-2.89270E-05 3.07591E-06 1.63951E-18-1.13212E-18
 -1      3403 9.30308E-05-2.57070E-05-2.88432E-05 2.33194E-06 8.18364E-19-5.69531E-19
 -1      3404 9.25077E-05-2.50876E-05-2.89069E-05 3.37581E-06 1.62559E-18-1.75502E-18
 -1      3405 9.20980E-05-2.46663E-05-2.89017E-05 3.78303E-06 1.38560E-18-1.84917E-18
 -1      3406 9.21636E-05-2.48968E-05-2.88147E-05 2.84702E-06 1.28798E-18-1.52981E-18
 -1      3407 9.14125E-05-2.41396E-05-2.88475E-05 4.11363E-06 1.04013E-18-1.21744E-18
 -1      3408 9.08427E-05-2.36353E-05-2.88081E-05 4.57571E-06 1.23535E-18-7.18254E-19
 -1      3409 9.09934E-05-2.39135E-05-2.87289E-05 3.40556E-06 1.38681E-18-1.78332E-18
 -1      3410 8.99258E-05-2.30120E-05-2.86986E-05 4.93069E-06 7.23382E-19-8.86008E-19
 -1      3411 8.91498E-05-2.24318E-05-2.86014E-05 5.44672E-06 7.81170E-19-1.09455E-18
 -1      3412 8.94243E-05-2.27432E-05-2.85504E-05 3.98594E-06 9.09055E-19-1.06244E-18
 -1      3413 8.79334E-05-2.17230E-05-2.84047E-05 5.82510E-06 6.56669E-19-1.58837E-18
 -1      3414 8.69063E-05-2.10985E-05-2.82139E-05 6.40342E-06 6.18930E-19-1.20929E-18
 -1      3415 8.73364E-05-2.13897E-05-2.82255E-05 4.56739E-06 5.44211E-19-1.39108E-18
 -1      3416 8.53056E-05-2.03434E-05-2.78814E-05 6.82563E-06 1.74922E-19-2.85291E-18
 -1      3417 8.39955E-05-1.97481E-05-2.75446E-05 7.50163E-06 4.83611E-20-3.04688E-18
 -1      3418 8.45799E-05-1.98880E-05-2.76732E-05 5.15081E-06-4.38120E-19-2.88233E-18
 -1      3419 8.19167E-05-1.90588E-05-2.70016E-05 8.05287E-06 7.31484E-19-3.44538E-18
 -1      3420 8.03197E-05-1.86675E-05-2.64430E-05 8.89979E-06 1.49647E-19-3.10077E-18
 -1      3421 8.09815E-05-1.83230E-05-2.67693E-05 5.83517E-06 1.19957E-19-4.05145E-18
 -1      3422 7.75894E-05-1.80788E-05-2.55861E-05 9.72763E-06-1.27465E-18-2.55613E-18
 -1      3423 7.59864E-05-1.81827E-05-2.47284E-05 1.10625E-05-1.24109E-18-2.85269E-18
 -1      3424 7.62245E-05-1.69368E-05-2.53264E-05 6.92005E-06-3.10663E-19-3.56559E-18
 -1      3425 9.49453E-05-2.34594E-05-3.06395E-05-2.95063E-06-1.32516E-18-2.76822E-18
 -1      3426 9.52891E-05-2.45469E-05-3.03301E-05-2.09741E-06-1.17438E-18-2.57196E-18
 -1      3427 9.55875E-05-2.89751E-05-2.85468E-05-6.84792E-07-5.25715E-20-8.62847E-19
 -1      3428 9.56138E-05-2.89991E-05-2.85492E-05-7.36033E-07 2.45662E-19-9.11082E-19
 -1      3429 9.56705E-05-2.90263E-05-2.85606E-05-7.85606E-07 6.18041E-19-9.55153E-19
 -1      3430 9.57010E-05-2.90373E-05-2.85697E-05-8.35735E-07 7.51482E-19-8.44715E-19
 -1      3431 9.57897E-05-2.90879E-05-2.85880E-05-7.16272E-07 5.45392E-19-2.03987E-19
 -1      3432 9.54471E-05-2.88231E-05-2.85518E-05-5.16364E-07-7.44211E-20-7.41429E-19
 -1      3433 9.54667E-05-2.88614E-05-2.85457E-05-5.52368E-07-8.43516E-20-8.98075E-19
 -1      3434 9.53871E-05-2.87316E-05-2.85653E-05-4.65284E-07 1.23945E-19-4.47664E-19
 -1      3435 9.54044E-05-2.87745E-05-2.85565E-05-4.87988E-07-2.58156E-20-6.80658E-19
 -1      3436 9.54976E-05-2.88383E-05-2.85690E-05-4.80904E-07-2.42240E-19-1.40152E-18
 -1      3437 9.53305E-05-2.86312E-05-2.85840E-05-4.44259E-07-2.15258E-20-3.80976E-19
 -1      3438 9.53467E-05-2.86786E-05-2.85730E-05-4.50874E-07 2.74421E-19-1.68735E-19
 -1      3439 9.54152E-05-2.87286E-05-2.85805E-05-4.40966E-07 4.22385E-20-5.00813E-19
 -1      3440 9.52745E-05-2.85209E-05-2.86072E-05-4.58393E-07-3.22419E-20-5.32293E-19
 -1      3441 9.52904E-05-2.85734E-05-2.85942E-05-4.46344E-07-2.07955E-20-4.33736E-19
 -1      3442 9.53354E-05-2.86081E-05-2.85977E-05-4.30595E-07-5.31485E-21-5.58285E-20
 -1      3443 9.52158E-05-2.83991E-05-2.86342E-05-5.12851E-07 1.11161E-19-4.15863E-19
 -1      3444 9.52324E-05-2.84572E-05-2.86193E-05-4.79521E-07 4.07519E-20-2.18453E-19
 -1      3445 9.52536E-05-2.84753E-05-2.86193E-05-4.54957E-07-2.41710E-19-4.71871E-19
 -1      3446 9.51515E-05-2.82639E-05-2.86644E-05-6.13203E-07-1.82498E-19-3.84509E-19
 -1      3447 9.51693E-05-2.83283E-05-2.86478E-05-5.55812E-07 1.00155E-19-5.71884E-19
 -1      3448 9.51654E-05-2.83278E-05-2.86445E-05-5.19435E-07 5.64536E-20-4.15777E-19
 -1      3449 9.50792E-05-2.81146E-05-2.86971E-05-7.65514E-07 2.62949E-19-7.74199E-19
 -1      3450 9.50984E-05-2.81851E-05-2.86791E-05-6.81145E-07 2.97538E-20-5.20754E-19
 -1      3451 9.50662E-05-2.81635E-05-2.86722E-05-6.29987E-07 7.87359E-20-5.12481E-20
 -1      3452 9.49982E-05-2.79529E-05-2.87314E-05-9.76157E-07 7.41299E-19-8.62644E-19
 -1      3453 9.50181E-05-2.80280E-05-2.87124E-05-8.61939E-07 7.02559E-19-7.50384E-19
 -1      3454 9.49525E-05-2.79816E-05-2.87012E-05-7.93292E-07 4.56403E-19-6.34433E-19
 -1      3455 9.49108E-05-2.77849E-05-2.87655E-05-1.25129E-06 5.72719E-19-7.86175E-19
 -1      3456 9.49289E-05-2.78606E-05-2.87462E-05-1.10479E-06 8.01040E-19-4.81733E-19
 -1      3457 9.48223E-05-2.77845E-05-2.87298E-05-1.01667E-06 6.53009E-19-4.55191E-19
 -1      3458 9.48237E-05-2.76234E-05-2.87970E-05-1.59592E-06 8.02572E-19-3.43918E-19
 -1      3459 9.48353E-05-2.76921E-05-2.87785E-05-1.41578E-06 4.15962E-19-9.08847E-19
 -1      3460 9.46774E-05-2.75796E-05-2.87554E-05-1.30778E-06 6.85278E-19-2.97570E-21
 -1      3461 9.47516E-05-2.74911E-05-2.88223E-05-2.01244E-06-4.50179E-20 2.30058E-19
 -1      3462 9.47478E-05-2.75398E-05-2.88063E-05-1.79935E-06 8.06175E-19 9.56983E-20
 -1      3463 9.45250E-05-2.73825E-05-2.87749E-05-1.67391E-06 3.30047E-19 4.72963E-19
 -1      3464 9.47206E-05-2.74244E-05-2.88370E-05-2.49846E-06-4.46625E-19-4.22679E-21
 -1      3465 9.46867E-05-2.74329E-05-2.88256E-05-2.25646E-06-2.18265E-19-7.08990E-20
 -1      3466 9.43820E-05-2.72205E-05-2.87836E-05-2.12092E-06-3.28465E-20 7.79750E-19
 -1      3467 9.47734E-05-2.74780E-05-2.88359E-05-3.04360E-06-7.01665E-19-5.95260E-19
 -1      3468 9.46867E-05-2.74169E-05-2.88316E-05-2.78204E-06-5.15133E-19-5.02659E-20
 -1      3469 9.42788E-05-2.71373E-05-2.87763E-05-2.65144E-06-5.65280E-19-5.81263E-19
 -1      3470 9.49752E-05-2.77286E-05-2.88143E-05-3.62485E-06-5.38418E-19-4.08340E-19
 -1      3471 9.48025E-05-2.75574E-05-2.88192E-05-3.36099E-06-6.84680E-19-6.36191E-19
 -1      3472 9.42662E-05-2.71975E-05-2.87472E-05-3.26205E-06-4.75792E-19-3.86849E-19
 -1      3473 9.54201E-05-2.82770E-05-2.87694E-05-4.19971E-06-1.89977E-18-4.15610E-19
 -1      3474 9.51152E-05-2.79438E-05-2.87844E-05-3.96237E-06-8.58603E-19-9.48575E-20
 -1      3475 9.44224E-05-2.74917E-05-2.86917E-05-3.93861E-06-7.54544E-19-5.41920E-20
 -1      3476 9.62350E-05-2.92445E-05-2.87041E-05-4.69563E-06-2.03125E-18-3.84154E-19
 -1      3477 9.57389E-05-2.86895E-05-2.87270E-05-4.53037E-06-1.97392E-18-5.22241E-19
 -1      3478 9.48613E-05-2.81387E-05-2.86080E-05-4.64837E-06-1.64232E-18-5.42637E-20
 -1      3479 9.75760E-05-3.07574E-05-2.86320E-05-4.99392E-06-1.03649E-18-2.94448E-19
 -1      3480 9.68225E-05-2.99233E-05-2.86548E-05-4.97005E-06-1.47081E-18-3.35877E-19
 -1      3481 9.57392E-05-2.92821E-05-2.85022E-05-5.32632E-06-1.87460E-18-6.45362E-19
 -1      3482 9.96083E-05-3.29066E-05-2.85865E-05-4.90693E-06-1.52657E-18-4.69694E-19
 -1      3483 9.85406E-05-3.17645E-05-2.85909E-05-5.12533E-06-1.37404E-18-1.92042E-19
 -1      3484 9.72550E-05-3.10735E-05-2.83948E-05-5.85076E-06-1.55534E-18 7.86091E-19
 -1      3485 1.02451E-04-3.56708E-05-2.86305E-05-4.16107E-06-7.68031E-19-1.22033E-18
 -1      3486 1.01055E-04-3.42631E-05-2.85841E-05-4.75617E-06-1.16521E-18-7.59405E-19
 -1      3487 9.96258E-05-3.36198E-05-2.83322E-05-6.00805E-06-1.21041E-18-2.03183E-19
 -1      3488 1.06073E-04-3.87787E-05-2.88664E-05-2.38429E-06 3.26120E-19-8.50303E-19
 -1      3489 1.04443E-04-3.73026E-05-2.87184E-05-3.51345E-06-3.03236E-19-8.77161E-19
 -1      3490 1.03036E-04-3.69055E-05-2.83984E-05-5.45559E-06-3.53551E-19-1.45058E-18
 -1      3491 1.10110E-04-4.14943E-05-2.94472E-05 8.03309E-07-8.50600E-19 6.13292E-19
 -1      3492 1.08516E-04-4.04003E-05-2.91270E-05-9.65993E-07 1.77568E-19 1.13356E-19
 -1      3493 1.07487E-04-4.05727E-05-2.87336E-05-3.68207E-06-6.01630E-19 1.12970E-19
 -1      3494 1.13677E-04-4.24615E-05-3.05577E-05 5.48315E-06-1.45647E-18 1.51485E-18
 -1      3495 1.12592E-04-4.25115E-05-2.99914E-05 3.17636E-06-1.09790E-18 5.57799E-19
 -1      3496 1.12488E-04-4.36422E-05-2.95505E-05-7.53658E-08-1.03132E-18 4.69930E-19
 -1      3497 1.15275E-04-3.99161E-05-3.23290E-05 1.08918E-05-1.55133E-18 1.43801E-18
 -1      3498 1.15337E-04-4.19291E-05-3.14890E-05 8.62194E-06-1.15342E-18 1.81850E-18
 -1      3499 1.16971E-04-4.43922E-05-3.10714E-05 5.46129E-06-1.73102E-18 1.06999E-18
 -1      3500 1.09584E-04-2.34300E-05-3.69022E-05 1.34464E-05 4.35891E-19 8.17400E-19
 -1      3501 1.11628E-04-2.79137E-05-3.60663E-05 1.50873E-05 5.17008E-19 1.57138E-18
 -1      3502 1.07411E-04-1.48616E-05-3.98100E-05 4.22026E-06 5.91123E-19 1.48558E-19
 -1      3503 1.08124E-04-1.63357E-05-3.95015E-05 8.61381E-06 4.72327E-19-5.42167E-20
 -1      3504 1.07670E-04-1.54083E-05-3.96876E-05-3.56095E-07 1.58289E-19 4.35944E-19
 -1      3505 1.12429E-04-2.65678E-05-3.68672E-05-8.59983E-06 4.34303E-20 2.48050E-19
 -1      3506 1.10343E-04-2.23241E-05-3.77703E-05-6.50593E-06 1.49290E-19 6.48933E-19
 -1      3507 5.29305E-05-1.28582E-05-1.70985E-05-1.53261E-06 7.55050E-21-1.80873E-18
 -1      3508 5.53447E-05-1.45784E-05-1.72911E-05-1.32738E-05 1.31158E-19-1.70370E-18
 -1      3509 5.99435E-05-1.38696E-05-1.95824E-05 1.27312E-06-2.78972E-19-2.29194E-18
 -1      3510 9.55133E-05-2.89053E-05-2.85449E-05-5.91869E-07-3.57747E-19-7.73571E-19
 -1      3511 9.55359E-05-2.89377E-05-2.85424E-05-6.37771E-07-3.02884E-19-1.02441E-18
 -1      3512 9.56829E-05-2.90224E-05-2.85700E-05-6.26299E-07 2.71210E-20-4.98657E-19
 -1      3513 9.55859E-05-2.89371E-05-2.85647E-05-5.44900E-07-1.47045E-19-9.50776E-19
 -1      3514 9.50654E-05-2.39056E-05-3.04977E-05 2.63561E-06 1.69405E-18-1.99222E-18
 -1      3515 9.47406E-05-2.30193E-05-3.07494E-05 3.18505E-06 1.63160E-18-2.18572E-18
 -1      3516 9.44663E-05-2.23421E-05-3.09092E-05 2.92084E-06 1.60562E-18-2.54615E-18
 -1      3517 9.59536E-05-2.89296E-05-2.87248E-05-9.67750E-07 3.60268E-19-6.28511E-19
 -1      3518 9.59923E-05-2.88439E-05-2.87745E-05-9.41202E-07 5.07811E-19-5.47573E-19
 -1      3519 1.29176E-04-4.94357E-05-3.41805E-05 6.41283E-06-5.92817E-19 9.12188E-19
 -1      3520 1.25989E-04-4.22187E-05-3.60808E-05 1.24970E-05-1.09797E-19 9.95039E-19
 -1      3521 9.59242E-05-2.68647E-05-2.96059E-05 4.65981E-07 1.12517E-18-1.48267E-18
 -1      3522 9.58418E-05-2.62642E-05-2.98119E-05 1.00363E-06 1.19388E-18-1.66313E-18
 -1      3523 1.20719E-04-3.10515E-05-3.84748E-05 1.61198E-05 8.71438E-19 1.51021E-18
 -1      3524 1.15987E-04-2.25219E-05-4.03903E-05 1.55874E-05 9.61885E-19 9.25145E-19
 -1      3525 9.22384E-05-1.81234E-05-3.17750E-05-1.00651E-06 2.08077E-21-3.11706E-18
 -1      3526 9.23504E-05-1.83142E-05-3.17444E-05-1.76269E-06-3.12086E-19-3.19792E-18
 -1      3527 9.33262E-05-1.99833E-05-3.14192E-05-1.75146E-06-4.14518E-19-3.09318E-18
 -1      3528 9.56757E-05-2.55184E-05-3.00592E-05-1.49387E-06-1.10369E-18-2.35306E-18
 -1      3529 9.58308E-05-2.62638E-05-2.98250E-05-8.73091E-07-8.96895E-19-2.28617E-18
 -1      3530 9.54031E-05-2.45707E-05-3.03517E-05-1.75573E-06-1.02787E-18-2.49329E-18
 -1      3531 6.04356E-05-1.93303E-05-1.74734E-05-2.14047E-05-9.34119E-20-2.87118E-18
 -1      3532 7.01603E-05-2.64500E-05-1.86414E-05-2.82032E-05 4.20578E-19-2.50756E-18
 -1      3533 6.59735E-05-2.65918E-05-1.65859E-05 2.48095E-05 5.54224E-19-3.52408E-18
 -1      3534 1.10022E-04-5.20278E-05-2.46561E-05-2.62499E-05-1.98956E-18-2.89630E-18
 -1      3535 1.19980E-04-5.69404E-05-2.71515E-05-2.06899E-05-1.91601E-18-1.60387E-18
 -1      3536 8.34666E-05-3.57496E-05-2.02325E-05-3.13008E-05-2.64790E-19-2.49496E-18
 -1      3537 9.74792E-05-4.55578E-05-2.22982E-05-3.16143E-05-1.46680E-18-3.44700E-18
 -1      3538 9.56273E-05-2.56489E-05-2.99993E-05 1.38632E-06 1.38320E-18-1.76882E-18
 -1      3539 9.54187E-05-2.47853E-05-3.02697E-05 2.13865E-06 1.57158E-18-1.80071E-18
 -1      3540 9.52480E-05-2.41998E-05-3.04491E-05 2.03194E-06 1.39186E-18-2.16504E-18
 -1      3541 9.57645E-05-2.56654E-05-3.00399E-05 1.15105E-06 1.17054E-18-1.89450E-18
 -1      3542 6.79342E-05-2.13165E-05-1.98477E-05 1.92772E-05 5.76578E-19-3.17216E-18
 -1      3543 6.92971E-05-1.92667E-05-2.12523E-05 1.51603E-05-2.38294E-19-2.88924E-18
 -1      3544 9.37607E-05-2.07907E-05-3.12553E-05 2.84262E-06 1.51525E-18-2.54669E-18
 -1      3545 9.59869E-05-2.62965E-05-2.98661E-05-7.11092E-07-5.74013E-19-2.08855E-18
 -1      3546 6.84010E-05-1.56594E-05-2.24899E-05 8.11905E-06-4.31295E-19-2.42864E-18
 -1      3547 7.08005E-05-1.78209E-05-2.27308E-05 1.27869E-05-5.55832E-19-2.75574E-18
 -1      3548 9.58402E-05-2.82764E-05-2.89598E-05-6.82852E-07 7.84576E-19-8.70591E-19
 -1      3549 9.60683E-05-2.77861E-05-2.92699E-05-2.49402E-07 9.09968E-19-1.38331E-18
 -1      3550 9.60569E-05-2.73899E-05-2.94195E-05 9.26999E-08 1.08626E-18-1.31801E-18
 -1      3551 9.61030E-05-2.68981E-05-2.96595E-05 3.61114E-07 9.37757E-19-1.67364E-18
 -1      3552 7.57563E-05-2.67575E-05-2.10365E-05-2.41847E-05-4.78600E-19-1.59696E-18
 -1      3553 7.92951E-05-3.11806E-05-2.04132E-05-2.83664E-05-3.53219E-19-1.91718E-18
 -1      3554 8.77687E-05-3.52209E-05-2.24919E-05-2.62263E-05-1.27652E-18-1.55390E-18
 -1      3555 9.44563E-05-2.23110E-05-3.09091E-05-3.43713E-06-1.34236E-18-2.87466E-18
 -1      3556 9.44835E-05-2.23786E-05-3.08939E-05-2.85022E-06-1.11101E-18-2.79522E-18
 -1      3557 9.40791E-05-2.14946E-05-3.11192E-05 1.75630E-06 1.13368E-18-2.37596E-18
 -1      3558 9.39416E-05-2.12150E-05-3.11768E-05 1.24932E-06 8.84461E-19-2.48684E-18
 -1      3559 1.23586E-04-3.52589E-05-3.79537E-05-7.59966E-06-1.22396E-19-1.21600E-18
 -1      3560 9.60362E-05-2.87291E-05-2.88474E-05-8.93395E-07 4.22405E-19-4.91736E-19
 -1      3561 9.60711E-05-2.85757E-05-2.89215E-05-7.98586E-07 5.11640E-19-6.86955E-19
 -1      3562 9.62415E-05-2.88177E-05-2.88982E-05-8.22917E-07 4.79391E-19-5.73234E-19
 -1      3563 9.59054E-05-2.91223E-05-2.86231E-05-8.02447E-07 8.29357E-19-2.44912E-19
 -1      3564 9.57617E-05-2.90482E-05-2.85905E-05-8.80750E-07 5.72894E-19-7.45595E-19
 -1      3565 9.57963E-05-2.90390E-05-2.86091E-05-9.20456E-07 5.16029E-19-6.20352E-19
 -1      3566 1.16671E-04-3.15542E-05-3.64524E-05 1.56399E-05 1.78896E-19 1.69139E-18
 -1      3567 1.13742E-04-3.29863E-05-3.45783E-05 1.47026E-05-8.52459E-20 1.23827E-18
 -1      3568 1.15188E-04-3.71248E-05-3.35728E-05 1.36354E-05-1.12492E-18 1.05117E-18
 -1      3569 1.22998E-04-3.82056E-05-3.65308E-05 1.48978E-05-7.76822E-20 1.29560E-18
 -1      3570 1.18865E-04-4.08490E-05-3.34149E-05 1.15847E-05-9.19947E-19 1.18112E-18
 -1      3571 1.10945E-04-2.02495E-05-3.90780E-05 1.35468E-05 5.43716E-19 2.78237E-19
 -1      3572 1.09848E-04-1.86914E-05-3.93432E-05-5.53371E-06 4.40616E-19 2.55367E-20
 -1      3573 1.15167E-04-3.04086E-05-3.64859E-05-8.58668E-06 4.69997E-19 3.45369E-19
 -1      3574 6.30988E-05-1.76505E-05-1.91979E-05-1.55059E-05-2.20109E-19-1.65447E-18
 -1      3575 1.21342E-04-4.16420E-05-3.44264E-05-3.01318E-06 3.54008E-19-2.18410E-19
 -1      3576 1.19937E-04-3.79197E-05-3.51283E-05-5.97231E-06 3.49004E-20-8.21953E-20
 -1      3577 1.22563E-04-5.52682E-05-2.87317E-05-1.28913E-05-1.12126E-18-6.23482E-19
 -1      3578 9.46088E-05-2.23861E-05-3.09343E-05 8.31451E-07 7.62676E-19-2.45144E-18
 -1      3579 9.38625E-05-2.10456E-05-3.12179E-05 8.05414E-07 6.98391E-19-2.66418E-18
 -1      3580 9.38121E-05-2.09439E-05-3.12370E-05 2.48158E-07 4.99761E-19-2.70301E-18
 -1      3581 1.21479E-04-4.14945E-05-3.43317E-05 1.17554E-05-4.28480E-19 1.16748E-18
 -1      3582 9.58582E-05-2.90242E-05-2.86427E-05-9.50700E-07 4.56372E-19-7.92563E-19
 -1      3583 9.58960E-05-2.89844E-05-2.86743E-05-9.66663E-07 4.73477E-19-7.02161E-19
 -1      3584 9.61429E-05-2.90192E-05-2.87695E-05-8.85443E-07 5.03112E-19-7.57919E-19
 -1      3585 9.60259E-05-2.91081E-05-2.86811E-05-8.67145E-07 5.49437E-19-4.67909E-19
 -1      3586 9.40759E-05-2.14747E-05-3.11132E-05-2.08086E-06-6.77135E-19-3.05233E-18
 -1      3587 9.42864E-05-2.19528E-05-3.10127E-05-2.51133E-06-9.37344E-19-2.86130E-18
 -1      3588 9.48041E-05-2.30339E-05-3.07550E-05-2.09691E-06-9.88168E-19-2.72823E-18
 -1      3589 9.31279E-05-1.96108E-05-3.14923E-05-5.79045E-07 1.30852E-19-2.86380E-18
 -1      3590 1.04735E-04-4.72845E-05-2.44876E-05-2.50389E-05-2.02129E-18-2.48395E-18
 -1      3591 1.28903E-04-4.83847E-05-3.45082E-05 3.10955E-06-1.29711E-18-1.29051E-18
 -1      3592 1.30892E-04-5.29787E-05-3.38268E-05 8.49879E-06-2.56090E-18-7.02190E-19
 -1      3593 7.12533E-05-1.55982E-05-2.39060E-05 2.38339E-06-1.01923E-18-2.75013E-18
 -1      3594 6.56152E-05-1.45745E-05-2.18952E-05 2.48583E-06-4.15370E-19-2.46643E-18
 -1      3595 6.49466E-05-1.44133E-05-2.14798E-05-5.41486E-06-5.59813E-19-1.45018E-18
 -1      3596 9.65146E-05-2.80211E-05-2.93496E-05 2.96459E-07-5.57560E-19-1.53800E-18
 -1      3597 9.65260E-05-2.83447E-05-2.92243E-05 4.76986E-07-4.88419E-19-1.35518E-18
 -1      3598 9.65350E-05-2.86076E-05-2.91079E-05 5.76725E-07-2.37512E-19-1.23803E-18
 -1      3599 9.65038E-05-2.88050E-05-2.90156E-05 6.71179E-07-2.03332E-19-1.20792E-18
 -1      3600 9.66655E-05-2.84336E-05-2.92427E-05 4.27234E-07-2.65775E-19-1.04229E-18
 -1      3601 9.64633E-05-2.89559E-05-2.89289E-05 7.13083E-07-4.34620E-19-1.19177E-18
 -1      3602 9.64097E-05-2.90649E-05-2.88626E-05 7.47922E-07-2.78281E-19-1.19152E-18
 -1      3603 9.66335E-05-2.88864E-05-2.90358E-05 5.83016E-07-3.05385E-19-8.09341E-19
 -1      3604 9.63421E-05-2.91383E-05-2.87996E-05 7.51152E-07-1.89609E-19-1.28271E-18
 -1      3605 9.62789E-05-2.91867E-05-2.87535E-05 7.47588E-07-2.38863E-19-1.48128E-18
 -1      3606 9.65260E-05-2.91373E-05-2.88827E-05 6.42369E-07-3.50603E-19-1.12235E-18
 -1      3607 9.61992E-05-2.92080E-05-2.87092E-05 7.27269E-07-4.00008E-19-1.47439E-18
 -1      3608 9.61343E-05-2.92157E-05-2.86785E-05 7.01370E-07-6.29418E-19-1.48603E-18
 -1      3609 9.63798E-05-2.92486E-05-2.87725E-05 6.38635E-07-3.41277E-19-1.34057E-18
 -1      3610 9.60518E-05-2.92028E-05-2.86488E-05 6.68813E-07-7.96303E-19-1.34569E-18
 -1      3611 9.59898E-05-2.91841E-05-2.86299E-05 6.32314E-07-6.89143E-19-1.32228E-18
 -1      3612 9.62190E-05-2.92660E-05-2.86960E-05 5.97735E-07-5.08129E-19-1.11704E-18
 -1      3613 9.59099E-05-2.91494E-05-2.86113E-05 5.95683E-07-6.58235E-19-1.09138E-18
 -1      3614 9.58527E-05-2.91136E-05-2.86012E-05 5.56969E-07-6.56422E-19-9.96364E-19
 -1      3615 9.60581E-05-2.92220E-05-2.86457E-05 5.38903E-07-6.69938E-19-8.07838E-19
 -1      3616 9.57779E-05-2.90651E-05-2.85912E-05 5.22053E-07-6.76075E-19-1.08491E-18
 -1      3617 9.57260E-05-2.90182E-05-2.85878E-05 4.87062E-07-5.14411E-19-1.08265E-18
 -1      3618 9.59049E-05-2.91386E-05-2.86156E-05 4.76031E-07-6.09680E-19-6.35634E-19
 -1      3619 9.56567E-05-2.89606E-05-2.85843E-05 4.57947E-07-4.73324E-19-1.26088E-18
 -1      3620 9.56094E-05-2.89057E-05-2.85860E-05 4.30967E-07-4.91017E-19-1.09640E-18
 -1      3621 9.57622E-05-2.90294E-05-2.86009E-05 4.19011E-07-6.07621E-19-8.23135E-19
 -1      3622 9.55443E-05-2.88411E-05-2.85876E-05 4.10634E-07-4.72430E-19-9.72999E-19
 -1      3623 9.54999E-05-2.87794E-05-2.85933E-05 3.94914E-07-6.40167E-19-8.52743E-19
 -1      3624 9.56291E-05-2.89021E-05-2.85982E-05 3.74971E-07-3.52944E-19-9.15427E-19
 -1      3625 9.54364E-05-2.87077E-05-2.85988E-05 3.85683E-07-8.40081E-19-7.15798E-19
 -1      3626 9.53925E-05-2.86385E-05-2.86077E-05 3.83921E-07-7.02782E-19-3.91194E-19
 -1      3627 9.55017E-05-2.87589E-05-2.86045E-05 3.49239E-07-6.85070E-19-7.83119E-19
 -1      3628 9.53270E-05-2.85581E-05-2.86163E-05 3.87788E-07-5.76875E-19-2.35908E-19
 -1      3629 9.52804E-05-2.84794E-05-2.86279E-05 4.02479E-07-3.09926E-19-1.37430E-19
 -1      3630 9.53740E-05-2.85987E-05-2.86181E-05 3.46106E-07-4.65316E-19-4.93197E-19
 -1      3631 9.52081E-05-2.83873E-05-2.86389E-05 4.21331E-07-1.83343E-20 7.44729E-20
 -1      3632 9.51546E-05-2.82959E-05-2.86527E-05 4.54990E-07 2.26875E-19-2.59636E-19
 -1      3633 9.52377E-05-2.84168E-05-2.86372E-05 3.69334E-07-1.16049E-19-3.71327E-21
 -1      3634 9.50697E-05-2.81878E-05-2.86656E-05 4.90688E-07 6.67512E-20-2.64434E-19
 -1      3635 9.50043E-05-2.80791E-05-2.86813E-05 5.45948E-07 3.74744E-19-4.05042E-19
 -1      3636 9.50824E-05-2.82060E-05-2.86604E-05 4.22417E-07-5.04747E-20 1.74062E-19
 -1      3637 9.48994E-05-2.79498E-05-2.86951E-05 6.00290E-07 3.14666E-19-4.39695E-19
 -1      3638 9.48152E-05-2.78184E-05-2.87122E-05 6.79861E-07 1.24418E-19-5.33965E-19
 -1      3639 9.48949E-05-2.79567E-05-2.86863E-05 5.08575E-07 3.57755E-19-3.90541E-19
 -1      3640 9.46813E-05-2.76611E-05-2.87260E-05 7.54375E-07 1.65294E-19-4.17183E-19
 -1      3641 9.45698E-05-2.75004E-05-2.87436E-05 8.60838E-07-2.29063E-19-3.68946E-19
 -1      3642 9.46592E-05-2.76569E-05-2.87128E-05 6.30441E-07 1.96187E-19-6.12495E-19
 -1      3643 9.43954E-05-2.73075E-05-2.87558E-05 9.56387E-07-6.12565E-19-1.77067E-19
 -1      3644 9.42452E-05-2.71097E-05-2.87724E-05 1.09179E-06-1.64737E-19-6.54015E-20
 -1      3645 9.43551E-05-2.72929E-05-2.87374E-05 7.89368E-07-3.63076E-19 2.63435E-20
 -1      3646 9.40161E-05-2.68724E-05-2.87807E-05 1.20794E-06 3.34995E-19-2.43310E-20
 -1      3647 9.38123E-05-2.66284E-05-2.87939E-05 1.37314E-06 3.91318E-19 2.34541E-19
 -1      3648 9.39575E-05-2.68488E-05-2.87559E-05 9.84275E-07 8.20310E-20 1.20067E-18
 -1      3649 9.35103E-05-2.63369E-05-2.87947E-05 1.50726E-06 9.63911E-20 7.60549E-21
 -1      3650 9.32330E-05-2.60366E-05-2.88006E-05 1.70103E-06 4.20336E-19 2.65909E-19
 -1      3651 9.34348E-05-2.63071E-05-2.87620E-05 1.20994E-06 2.13345E-19 4.89996E-19
 -1      3652 9.28354E-05-2.56803E-05-2.87882E-05 1.84712E-06 3.77766E-19 2.65615E-19
 -1      3653 9.24585E-05-2.53131E-05-2.87807E-05 2.06502E-06 7.11037E-19 2.81546E-19
 -1      3654 9.27467E-05-2.56495E-05-2.87463E-05 1.45468E-06 3.15625E-19 5.36237E-19
 -1      3655 9.19361E-05-2.48815E-05-2.87469E-05 2.21242E-06 8.21295E-19-3.18552E-19
 -1      3656 9.14258E-05-2.44367E-05-2.87164E-05 2.44562E-06 1.22141E-18-5.67508E-19
 -1      3657 9.18428E-05-2.48574E-05-2.86948E-05 1.69753E-06 4.03237E-19 3.53860E-19
 -1      3658 9.07416E-05-2.39209E-05-2.86489E-05 2.57778E-06 1.30748E-18-9.89501E-19
 -1      3659 9.00541E-05-2.33902E-05-2.85811E-05 2.81249E-06 1.20977E-18-7.59117E-19
 -1      3660 9.06588E-05-2.39146E-05-2.85866E-05 1.90523E-06 1.03657E-18-1.58964E-19
 -1      3661 8.91607E-05-2.27845E-05-2.84615E-05 2.90657E-06 9.32506E-19-1.10349E-18
 -1      3662 8.82408E-05-2.21647E-05-2.83345E-05 3.12509E-06 1.02579E-18-6.01463E-19
 -1      3663 8.91130E-05-2.28096E-05-2.83912E-05 2.02982E-06 9.18247E-19-5.26928E-19
 -1      3664 8.70757E-05-2.14702E-05-2.81360E-05 3.15346E-06 4.15887E-19-7.55492E-19
 -1      3665 8.58536E-05-2.07675E-05-2.79173E-05 3.33921E-06-2.45192E-19-9.51262E-19
 -1      3666 8.70999E-05-2.15398E-05-2.80637E-05 2.00840E-06 6.21716E-19-7.25165E-19
 -1      3667 8.43304E-05-1.99954E-05-2.75995E-05 3.27479E-06-6.55124E-19-1.33779E-18
 -1      3668 8.27131E-05-1.92320E-05-2.72396E-05 3.42955E-06-6.59779E-19-2.20860E-18
 -1      3669 8.44771E-05-2.01146E-05-2.75375E-05 1.76795E-06-6.57346E-19-1.21135E-18
 -1      3670 8.06877E-05-1.83930E-05-2.67406E-05 3.23080E-06-3.22249E-19-2.42968E-18
 -1      3671 7.85071E-05-1.75656E-05-2.61811E-05 3.45068E-06 5.10678E-19-2.69405E-18
 -1      3672 8.10534E-05-1.85632E-05-2.67117E-05 1.23067E-06-3.64664E-19-1.60889E-18
 -1      3673 7.41742E-05-1.61861E-05-2.48475E-05 2.12125E-06-5.48719E-20-2.69826E-18
 -1      3674 9.48431E-05-2.30983E-05-3.07326E-05 2.33690E-06 1.41454E-18-2.40379E-18
 -1      3675 9.43706E-05-2.21451E-05-3.09662E-05 2.70221E-06 1.52143E-18-2.50931E-18
 -1      3676 9.41553E-05-2.16611E-05-3.10743E-05 2.27787E-06 1.27551E-18-2.41868E-18
 -1      3677 9.51855E-05-2.40236E-05-3.05075E-05 1.86202E-06 1.26888E-18-2.18130E-18
 -1      3678 9.63389E-05-2.71009E-05-2.96683E-05-1.80527E-07-5.94644E-19-1.90494E-18
 -1      3679 9.64244E-05-2.76003E-05-2.95022E-05 1.16488E-07-6.36944E-19-1.79778E-18
 -1      3680 9.65685E-05-2.76963E-05-2.95156E-05 1.35270E-07-4.34147E-19-1.33257E-18
 -1      3681 9.54381E-05-2.87177E-05-2.85932E-05-3.96199E-07-2.63067E-19-4.21658E-19
 -1      3682 9.54789E-05-2.87790E-05-2.85863E-05-4.07636E-07-3.46455E-19-7.07999E-19
 -1      3683 9.55406E-05-2.88439E-05-2.85830E-05-4.24731E-07-4.06160E-19-6.92935E-19
 -1      3684 9.55836E-05-2.88992E-05-2.85794E-05-4.48878E-07-3.70738E-19-9.63362E-19
 -1      3685 9.55573E-05-2.88365E-05-2.85953E-05-3.74995E-07-5.35271E-19-1.96464E-19
 -1      3686 9.52312E-05-2.84255E-05-2.86298E-05-4.28164E-07-2.64800E-20-4.46354E-19
 -1      3687 9.52738E-05-2.85006E-05-2.86183E-05-4.06324E-07-1.11238E-19-4.49965E-19
 -1      3688 9.51153E-05-2.82542E-05-2.86535E-05-4.98951E-07-2.62661E-19 6.81941E-21
 -1      3689 9.51624E-05-2.83382E-05-2.86405E-05-4.56386E-07-3.64454E-20-3.87019E-19
 -1      3690 9.51826E-05-2.83580E-05-2.86388E-05-4.02990E-07-6.53350E-20-3.41410E-19
 -1      3691 9.49833E-05-2.80623E-05-2.86790E-05-6.14196E-07 5.17128E-19-6.27817E-20
 -1      3692 9.50369E-05-2.81561E-05-2.86651E-05-5.47788E-07 2.67808E-19 5.57469E-20
 -1      3693 9.50365E-05-2.81601E-05-2.86606E-05-4.78440E-07 7.38289E-20 1.38496E-19
 -1      3694 9.48300E-05-2.78486E-05-2.87047E-05-7.81041E-07 3.49997E-19-3.45554E-19
 -1      3695 9.48916E-05-2.79523E-05-2.86907E-05-6.87297E-07 4.29472E-19-6.15313E-19
 -1      3696 9.48676E-05-2.79375E-05-2.86832E-05-5.97097E-07 7.44272E-19-5.88313E-20
 -1      3697 9.46524E-05-2.76155E-05-2.87282E-05-1.00771E-06 6.42302E-19-8.29993E-20
 -1      3698 9.47222E-05-2.77270E-05-2.87151E-05-8.82815E-07 4.19291E-19-2.97909E-19
 -1      3699 9.46693E-05-2.76891E-05-2.87044E-05-7.66962E-07 1.42222E-19-3.30963E-19
 -1      3700 9.44511E-05-2.73708E-05-2.87463E-05-1.30343E-06 3.26290E-19 1.55647E-19
 -1      3701 9.45272E-05-2.74849E-05-2.87358E-05-1.14342E-06 4.24310E-19-1.96242E-19
 -1      3702 9.44374E-05-2.74174E-05-2.87211E-05-9.97761E-07 3.73990E-19-6.64515E-20
 -1      3703 9.42333E-05-2.71315E-05-2.87549E-05-1.67813E-06-1.47323E-19 4.42983E-19
 -1      3704 9.43099E-05-2.72381E-05-2.87489E-05-1.47923E-06 3.58574E-19-2.08104E-20
 -1      3705 9.41715E-05-2.71318E-05-2.87294E-05-1.30121E-06 2.57472E-19 5.46177E-20
 -1      3706 9.40168E-05-2.69277E-05-2.87485E-05-2.14184E-06 2.61798E-19 1.93221E-19
 -1      3707 9.40823E-05-2.70094E-05-2.87496E-05-1.90100E-06 4.53787E-20 4.90563E-19
 -1      3708 9.38787E-05-2.68516E-05-2.87241E-05-1.69120E-06-1.71918E-19 3.28236E-19
 -1      3709 9.38346E-05-2.68071E-05-2.87208E-05-2.70358E-06-4.40781E-19-5.58194E-19
 -1      3710 9.38689E-05-2.68371E-05-2.87321E-05-2.41935E-06-1.15412E-19-9.77040E-20
 -1      3711 9.35773E-05-2.66108E-05-2.86987E-05-2.18380E-06 2.10097E-19 4.64609E-19
 -1      3712 9.37429E-05-2.68411E-05-2.86652E-05-3.36919E-06-8.21101E-19 1.97787E-19
 -1      3713 9.37139E-05-2.67801E-05-2.86895E-05-3.04320E-06-4.82475E-19-1.47157E-20
 -1      3714 9.33030E-05-2.64630E-05-2.86459E-05-2.79681E-06-5.44628E-19-1.85963E-19
 -1      3715 9.38288E-05-2.71300E-05-2.85759E-05-4.13734E-06-1.21744E-18 7.67551E-19
 -1      3716 9.36883E-05-2.69239E-05-2.86154E-05-3.77689E-06-7.83482E-19 5.07985E-19
 -1      3717 9.31168E-05-2.64885E-05-2.85578E-05-3.54836E-06-1.07735E-18 6.00960E-19
 -1      3718 9.42213E-05-2.78071E-05-2.84511E-05-4.99183E-06-1.80980E-18 8.65314E-19
 -1      3719 9.39006E-05-2.73856E-05-2.85055E-05-4.61439E-06-1.15944E-18 7.27921E-19
 -1      3720 9.31152E-05-2.68002E-05-2.84281E-05-4.45321E-06-1.27350E-18 1.53472E-18
 -1      3721 9.51000E-05-2.90376E-05-2.82975E-05-5.88711E-06-1.49375E-18 2.82143E-19
 -1      3722 9.45075E-05-2.83160E-05-2.83614E-05-5.52861E-06-1.84655E-18 7.21119E-20
 -1      3723 9.34430E-05-2.75492E-05-2.82548E-05-5.51463E-06-1.14210E-18 1.00774E-18
 -1      3724 9.67005E-05-3.10065E-05-2.81383E-05-6.72067E-06-1.72173E-18-3.68346E-19
 -1      3725 9.57253E-05-2.98957E-05-2.81968E-05-6.44998E-06-1.65735E-18-2.61375E-19
 -1      3726 9.43082E-05-2.89275E-05-2.80459E-05-6.70740E-06-1.41695E-18-1.86854E-19
 -1      3727 9.93007E-05-3.38674E-05-2.80281E-05-7.27661E-06-3.36148E-19-4.70681E-19
 -1      3728 9.78329E-05-3.23113E-05-2.80492E-05-7.21841E-06-1.31415E-18-7.72110E-19
 -1      3729 9.60034E-05-3.11635E-05-2.78299E-05-7.93750E-06-1.24529E-18-1.66628E-18
 -1      3730 1.03136E-04-3.76474E-05-2.80666E-05-7.19172E-06-7.69414E-19 3.63948E-19
 -1      3731 1.01114E-04-3.56673E-05-2.79968E-05-7.54147E-06-2.78632E-19 2.85669E-19
 -1      3732 9.88737E-05-3.44334E-05-2.76772E-05-8.94741E-06-1.08014E-18-6.27450E-19
 -1      3733 1.08339E-04-4.20387E-05-2.84262E-05-5.79345E-06-1.17028E-18 3.28080E-19
 -1      3734 1.05844E-04-3.99122E-05-2.81734E-05-6.88339E-06-9.42283E-19-6.43547E-21
 -1      3735 1.03321E-04-3.88812E-05-2.77069E-05-9.36912E-06-8.51679E-19 4.45199E-19
 -1      3736 1.14639E-04-4.59786E-05-2.94168E-05-2.21921E-06-1.90395E-18 1.15697E-18
 -1      3737 1.11924E-04-4.44569E-05-2.88185E-05-4.53264E-06-1.29025E-18 3.29828E-19
 -1      3738 1.09447E-04-4.39160E-05-2.81552E-05-8.21927E-06-1.20311E-18 2.14193E-19
 -1      3739 1.18278E-04-5.24781E-05-2.80458E-05-1.31077E-05-1.70227E-18-4.47462E-19
 -1      3740 1.23982E-04-5.42712E-05-3.00277E-05-6.97724E-06-9.91058E-19 6.66473E-19
 -1      3741 9.59113E-05-2.57201E-05-3.00804E-05-9.05824E-07-5.22465E-19-2.04853E-18
 -1      3742 9.61231E-05-2.64580E-05-2.98640E-05-4.61942E-07-4.62635E-19-1.97151E-18
 -1      3743 9.62698E-05-2.65728E-05-2.98675E-05-3.33875E-07-4.83577E-19-1.81106E-18
 -1      3744 1.26139E-04-5.31689E-05-3.12385E-05-2.28147E-06-5.46019E-19 8.56324E-19
 -1      3745 1.28541E-04-5.23337E-05-3.28114E-05 1.63507E-06-6.39646E-19 9.50821E-19
 -1      3746 1.24804E-04-4.83400E-05-3.27233E-05 5.65840E-06-4.18937E-19 1.41901E-18
 -1      3747 1.22400E-04-5.13310E-05-3.04093E-05-2.62771E-06-1.36902E-18 1.69028E-18
 -1      3748 6.60164E-05-1.65550E-05-2.12402E-05-1.09805E-05-4.56250E-19-1.08022E-18
 -1      3749 7.10241E-05-2.07894E-05-2.13656E-05-1.80998E-05-6.29574E-19-1.51492E-18
 -1      3750 7.19035E-05-1.74739E-05-2.32674E-05-7.89354E-06-5.72452E-19-1.18383E-18
 -1      3751 9.58931E-05-2.91381E-05-2.86080E-05-6.23180E-07 4.51083E-19-3.69314E-19
 -1      3752 9.59499E-05-2.91640E-05-2.86220E-05-6.63510E-07 8.34683E-19-2.71666E-19
 -1      3753 1.21432E-04-4.48364E-05-3.29695E-05 8.91882E-06-8.19240E-19 2.02398E-18
 -1      3754 9.37997E-05-2.09162E-05-3.12392E-05-1.12648E-06-1.07238E-19-2.71215E-18
 -1      3755 9.39257E-05-2.11876E-05-3.11847E-05-1.65625E-06-4.19899E-19-2.90111E-18
 -1      3756 9.45057E-05-2.22889E-05-3.09443E-05-1.42336E-06-4.46539E-19-2.73005E-18
 -1      3757 9.52304E-05-2.39878E-05-3.05363E-05-1.75667E-06-8.62847E-19-2.47960E-18
 -1      3758 9.56232E-05-2.50130E-05-3.02665E-05-1.17392E-06-6.57625E-19-2.25717E-18
 -1      3759 9.57656E-05-2.51595E-05-3.02543E-05-9.05206E-07-4.80581E-19-2.01430E-18
 -1      3760 9.50717E-05-2.35346E-05-3.06538E-05-1.50170E-06-6.23916E-19-2.59106E-18
 -1      3761 9.60859E-05-2.83720E-05-2.90236E-05-6.75926E-07 5.25430E-19-1.02763E-18
 -1      3762 9.61072E-05-2.81198E-05-2.91303E-05-4.78933E-07 6.64837E-19-1.15269E-18
 -1      3763 9.62717E-05-2.78450E-05-2.93273E-05-2.61038E-07 6.90190E-19-1.34825E-18
 -1      3764 9.62974E-05-2.84508E-05-2.90792E-05-6.33878E-07 3.58268E-19-1.00215E-18
 -1      3765 9.37499E-05-2.08299E-05-3.12610E-05-1.53027E-07 3.62450E-19-2.66236E-18
 -1      3766 9.37877E-05-2.09077E-05-3.12442E-05-7.11690E-07 7.31775E-20-2.77267E-18
 -1      3767 9.44007E-05-2.20039E-05-3.10177E-05-6.77799E-07 9.07602E-20-2.49533E-18
 -1      3768 9.44825E-05-2.21111E-05-3.09981E-05 7.59909E-08 5.07300E-19-2.51289E-18
 -1      3769 9.90927E-05-4.24572E-05-2.41346E-05-2.44486E-05-1.44140E-18-2.22786E-18
 -1      3770 1.09502E-04-4.91058E-05-2.60817E-05-2.02835E-05-2.14788E-18-2.12428E-18
 -1      3771 9.53368E-05-2.85790E-05-2.86093E-05-3.95698E-07-6.49829E-21-2.52442E-19
 -1      3772 9.53773E-05-2.86466E-05-2.85998E-05-3.91794E-07 1.62069E-20-1.85026E-19
 -1      3773 9.54360E-05-2.86929E-05-2.86046E-05-3.56463E-07-2.14925E-19-6.05854E-19
 -1      3774 1.21378E-04-4.70346E-05-3.18829E-05 5.10105E-06-9.99618E-19 1.96082E-18
 -1      3775 9.53133E-05-2.85344E-05-2.86196E-05-3.64170E-07 1.23058E-19-1.86201E-19
 -1      3776 7.79126E-05-2.47920E-05-2.26863E-05-1.86544E-05-1.13657E-18-1.19821E-18
 -1      3777 7.50858E-05-1.66466E-05-2.49456E-05-7.93834E-07-4.63628E-19-1.95208E-18
 -1      3778 9.47287E-05-2.27157E-05-3.08468E-05 1.70078E-06 1.13388E-18-2.26039E-18
 -1      3779 9.64153E-05-2.89217E-05-2.89270E-05-7.48545E-07 6.19460E-19-1.01943E-18
 -1      3780 9.64579E-05-2.87700E-05-2.90055E-05-6.81818E-07 4.43544E-19-1.04353E-18
 -1      3781 1.19510E-04-4.78330E-05-3.07950E-05 1.80868E-06-1.84143E-18 1.46043E-18
 -1      3782 9.56829E-05-2.89663E-05-2.85938E-05-4.15010E-07-1.97394E-20-2.44957E-21
 -1      3783 9.56487E-05-2.89581E-05-2.85804E-05-4.76263E-07-7.32083E-20-6.39461E-19
 -1      3784 9.56956E-05-2.90068E-05-2.85811E-05-5.10111E-07 1.59183E-19-6.17975E-19
 -1      3785 1.12891E-04-4.88325E-05-2.73852E-05-1.42503E-05-2.20117E-18-5.23806E-19
 -1      3786 9.63044E-05-2.91112E-05-2.87972E-05-7.88024E-07 3.59014E-19-9.51253E-19
 -1      3787 9.63613E-05-2.90329E-05-2.88525E-05-7.72634E-07 5.10505E-19-9.57065E-19
 -1      3788 9.65496E-05-2.90009E-05-2.89511E-05-6.53296E-07 5.23372E-19-1.25164E-18
 -1      3789 9.57658E-05-2.90581E-05-2.85877E-05-5.44941E-07-9.49499E-20-6.49299E-19
 -1      3790 9.58175E-05-2.90978E-05-2.85940E-05-5.84654E-07 7.35465E-20-4.24276E-19
 -1      3791 9.58169E-05-2.90807E-05-2.86025E-05-4.71219E-07 1.87901E-19-2.40273E-19
 -1      3792 9.51350E-05-2.35596E-05-3.06848E-05 8.32284E-07 7.71901E-19-2.27688E-18
 -1      3793 9.50695E-05-2.33954E-05-3.07235E-05 4.81804E-07 6.12705E-19-2.38927E-18
 -1      3794 9.59612E-05-2.91740E-05-2.86246E-05-5.36913E-07 1.96805E-19-2.01650E-19
 -1      3795 9.62485E-05-2.70339E-05-2.96712E-05 1.85363E-07 7.15578E-19-1.69999E-18
 -1      3796 9.61262E-05-2.64212E-05-2.98633E-05 5.81689E-07 8.32095E-19-1.89626E-18
 -1      3797 8.91936E-05-3.38496E-05-2.38042E-05-2.21621E-05-1.52308E-18-1.88800E-18
 -1      3798 9.45786E-05-3.86903E-05-2.38576E-05-2.40219E-05-1.38485E-18-1.99437E-18
 -1      3799 9.95511E-05-4.07054E-05-2.53372E-05-2.00001E-05-1.46736E-18-1.80911E-18
 -1      3800 9.61149E-05-2.92358E-05-2.86643E-05-6.03263E-07 6.94254E-19-7.02748E-19
 -1      3801 9.60296E-05-2.91871E-05-2.86458E-05-7.00626E-07 9.29513E-19-7.26994E-19
 -1      3802 9.60902E-05-2.91915E-05-2.86698E-05-7.34270E-07 8.57397E-19-5.34674E-19
 -1      3803 9.58283E-05-2.56943E-05-3.00682E-05 9.39497E-07 1.01126E-18-1.96648E-18
 -1      3804 9.56400E-05-2.50144E-05-3.02560E-05 1.34444E-06 1.15590E-18-2.08520E-18
 -1      3805 9.52342E-05-2.40044E-05-3.05311E-05 1.61617E-06 1.19335E-18-2.18877E-18
 -1      3806 9.59774E-05-2.58122E-05-3.00731E-05 7.31377E-07 8.93091E-19-1.89284E-18
 -1      3807 9.52073E-05-2.38457E-05-3.05901E-05 1.21701E-06 9.55060E-19-2.21407E-18
 -1      3808 9.56426E-05-2.46889E-05-3.03956E-05 8.50590E-07 6.79844E-19-2.05531E-18
 -1      3809 1.17637E-04-4.79543E-05-2.98132E-05-1.94114E-06-1.75996E-18 1.55817E-18
 -1      3810 1.16568E-04-4.91428E-05-2.88892E-05-7.01874E-06-1.99492E-18 1.56663E-18
 -1      3811 9.67774E-05-2.88147E-05-2.91246E-05 4.41859E-07-3.66460E-19-1.32136E-18
 -1      3812 9.67378E-05-2.89937E-05-2.90342E-05 4.99001E-07-4.51359E-19-1.27063E-18
 -1      3813 9.66839E-05-2.91260E-05-2.89515E-05 5.13936E-07-3.87902E-19-1.27046E-18
 -1      3814 9.66169E-05-2.92179E-05-2.88853E-05 5.32262E-07-2.73242E-19-1.26368E-18
 -1      3815 9.68053E-05-2.90660E-05-2.90324E-05 3.89088E-07-3.86422E-19-1.34691E-18
 -1      3816 9.65363E-05-2.92753E-05-2.88247E-05 5.26083E-07-2.92774E-19-1.37735E-18
 -1      3817 9.64569E-05-2.93074E-05-2.87777E-05 5.19822E-07-2.60926E-19-1.30702E-18
 -1      3818 9.66705E-05-2.92714E-05-2.88870E-05 4.10851E-07-3.81748E-19-1.25727E-18
 -1      3819 9.63647E-05-2.93144E-05-2.87348E-05 5.01482E-07-1.98970E-19-1.31408E-18
 -1      3820 9.62823E-05-2.93069E-05-2.87028E-05 4.81446E-07-5.13150E-19-1.22838E-18
 -1      3821 9.64982E-05-2.93452E-05-2.87817E-05 3.99273E-07-3.03772E-19-1.49286E-18
 -1      3822 9.61880E-05-2.92810E-05-2.86737E-05 4.57529E-07-5.85745E-19-1.14746E-18
 -1      3823 9.61081E-05-2.92476E-05-2.86534E-05 4.31552E-07-3.07836E-19-7.25415E-19
 -1      3824 9.63128E-05-2.93313E-05-2.87083E-05 3.68994E-07-3.04496E-19-1.14734E-18
 -1      3825 9.60168E-05-2.92006E-05-2.86351E-05 4.06879E-07-4.38109E-19-7.97983E-19
 -1      3826 9.59420E-05-2.91506E-05-2.86237E-05 3.80756E-07-6.65096E-19-7.24673E-19
 -1      3827 9.61287E-05-2.92599E-05-2.86598E-05 3.31075E-07-3.91829E-19-8.04163E-19
 -1      3828 9.58558E-05-2.90900E-05-2.86138E-05 3.58703E-07-7.35352E-19-6.63970E-19
 -1      3829 9.57864E-05-2.90288E-05-2.86093E-05 3.36557E-07-5.01357E-19-8.61066E-19
 -1      3830 9.59528E-05-2.91512E-05-2.86307E-05 2.93209E-07-5.13948E-19-8.49710E-19
 -1      3831 9.57051E-05-2.89585E-05-2.86058E-05 3.19521E-07-4.61385E-19-9.77605E-19
 -1      3832 9.56398E-05-2.88887E-05-2.86065E-05 3.04358E-07-4.51986E-19-1.19571E-18
 -1      3833 9.57870E-05-2.90174E-05-2.86167E-05 2.61238E-07-5.55877E-19-8.54318E-19
 -1      3834 9.55614E-05-2.88102E-05-2.86080E-05 2.94075E-07-4.45860E-19-1.16050E-18
 -1      3835 9.54977E-05-2.87321E-05-2.86129E-05 2.88212E-07-6.53846E-19-9.84546E-19
 -1      3836 9.56291E-05-2.88645E-05-2.86141E-05 2.39161E-07-5.74402E-19-1.12737E-18
 -1      3837 9.54187E-05-2.86447E-05-2.86181E-05 2.86033E-07-5.20315E-19-6.72132E-19
 -1      3838 9.53529E-05-2.85568E-05-2.86262E-05 2.91382E-07-6.47280E-20-4.37502E-19
 -1      3839 9.54736E-05-2.86932E-05-2.86204E-05 2.29986E-07-3.01983E-19-6.31678E-19
 -1      3840 9.52687E-05-2.84579E-05-2.86342E-05 2.98400E-07-5.29688E-20-3.46259E-19
 -1      3841 9.51961E-05-2.83573E-05-2.86446E-05 3.16639E-07-1.93274E-20-2.82661E-19
 -1      3842 9.53123E-05-2.85008E-05-2.86333E-05 2.36012E-07-6.32882E-20-2.37173E-19
 -1      3843 9.51006E-05-2.82432E-05-2.86545E-05 3.33723E-07-6.59211E-20-1.87526E-19
 -1      3844 9.50153E-05-2.81258E-05-2.86666E-05 3.66337E-07 2.78624E-19-7.73328E-20
 -1      3845 9.51349E-05-2.82810E-05-2.86509E-05 2.58955E-07-5.22731E-20-5.00249E-19
 -1      3846 9.49014E-05-2.79916E-05-2.86774E-05 3.94039E-07 1.04224E-19 1.48233E-21
 -1      3847 9.47961E-05-2.78521E-05-2.86903E-05 4.42221E-07 1.62818E-19-1.13452E-19
 -1      3848 9.49281E-05-2.80255E-05-2.86711E-05 2.99840E-07 1.75784E-19 1.37551E-19
 -1      3849 9.46550E-05-2.76919E-05-2.87008E-05 4.80531E-07 7.86320E-21-3.00009E-19
 -1      3850 9.45206E-05-2.75240E-05-2.87133E-05 5.44898E-07-1.28102E-19-5.11471E-19
 -1      3851 9.46764E-05-2.77236E-05-2.86918E-05 3.58612E-07-2.01906E-19 1.98438E-19
 -1      3852 9.43420E-05-2.73312E-05-2.87218E-05 5.92802E-07 1.47725E-19-8.19286E-19
 -1      3853 9.41671E-05-2.71281E-05-2.87322E-05 6.72903E-07 7.35761E-20 2.20567E-20
 -1      3854 9.43610E-05-2.73634E-05-2.87099E-05 4.33387E-07 1.42134E-20-5.33607E-19
 -1      3855 9.39386E-05-2.68954E-05-2.87363E-05 7.27695E-07-9.26910E-21 2.31268E-19
 -1      3856 9.37090E-05-2.66494E-05-2.87420E-05 8.21242E-07-1.67133E-19 3.36507E-19
 -1      3857 9.39594E-05-2.69321E-05-2.87213E-05 5.19238E-07 1.92981E-19-4.35910E-20
 -1      3858 9.34157E-05-2.63693E-05-2.87384E-05 8.77534E-07-1.27014E-19 5.52797E-19
 -1      3859 9.31133E-05-2.60726E-05-2.87354E-05 9.79316E-07 3.91692E-19 1.10702E-19
 -1      3860 9.34449E-05-2.64165E-05-2.87201E-05 6.06408E-07 3.03847E-19-1.70390E-19
 -1      3861 9.27375E-05-2.57381E-05-2.87190E-05 1.02771E-06-1.75271E-19-9.64644E-20
 -1      3862 9.23397E-05-2.53826E-05-2.87017E-05 1.12819E-06 1.86500E-19 1.05229E-19
 -1      3863 9.27856E-05-2.58043E-05-2.86978E-05 6.77839E-07-1.42546E-20 7.45727E-20
 -1      3864 9.18603E-05-2.49877E-05-2.86653E-05 1.15360E-06 3.48134E-19-3.95558E-19
 -1      3865 9.13379E-05-2.45668E-05-2.86252E-05 1.23723E-06 6.44677E-19 2.81808E-20
 -1      3866 9.19436E-05-2.50859E-05-2.86421E-05 7.05943E-07 5.86435E-20-7.91967E-19
 -1      3867 9.07297E-05-2.41079E-05-2.85586E-05 1.21693E-06 8.14669E-19 6.10482E-20
 -1      3868 9.00461E-05-2.36167E-05-2.84830E-05 1.26045E-06 7.79723E-19-2.60371E-19
 -1      3869 9.08739E-05-2.42561E-05-2.85358E-05 6.48625E-07 4.54108E-19-7.87693E-19
 -1      3870 8.92781E-05-2.30942E-05-2.83718E-05 1.16199E-06 8.83122E-19-3.73163E-19
 -1      3871 8.83859E-05-2.25317E-05-2.82426E-05 1.13317E-06 9.55503E-19-4.98952E-19
 -1      3872 8.95222E-05-2.33171E-05-2.83544E-05 4.44720E-07 1.06552E-18-1.38824E-19
 -1      3873 8.74196E-05-2.19521E-05-2.80660E-05 9.12491E-07 3.70364E-19-1.18381E-18
 -1      3874 8.62564E-05-2.13227E-05-2.78565E-05 7.70191E-07-2.23496E-19-1.30620E-18
 -1      3875 8.78224E-05-2.22824E-05-2.80633E-05 9.08410E-09 2.18076E-19-7.00840E-19
 -1      3876 8.50403E-05-2.07001E-05-2.75849E-05 3.69105E-07-5.28805E-19-1.54153E-18
 -1      3877 8.35179E-05-2.00143E-05-2.72556E-05 6.62911E-08-4.59637E-19-1.40590E-18
 -1      3878 8.56902E-05-2.11806E-05-2.76135E-05-7.72995E-07-4.01561E-19-1.02667E-18
 -1      3879 8.19733E-05-1.93665E-05-2.68448E-05-5.86749E-07-4.37736E-19-1.05376E-18
 -1      3880 7.99176E-05-1.86578E-05-2.63336E-05-1.09107E-06-5.78596E-19-1.38178E-18
 -1      3881 8.30123E-05-2.00603E-05-2.69343E-05-2.05754E-06-3.18227E-19-1.23464E-18
 -1      3882 9.47601E-05-2.78207E-05-2.86874E-05-5.47508E-07 3.88572E-19 5.65269E-19
 -1      3883 9.48522E-05-2.79453E-05-2.86765E-05-4.79329E-07 5.26723E-19 4.87904E-19
 -1      3884 9.55666E-05-2.88205E-05-2.86044E-05-3.09757E-07-1.29497E-19-5.27553E-19
 -1      3885 9.56286E-05-2.88914E-05-2.86019E-05-3.22602E-07-2.10378E-19-2.55616E-19
 -1      3886 9.49624E-05-2.80708E-05-2.86670E-05-4.31912E-07 7.83360E-20-4.92365E-20
 -1      3887 9.50413E-05-2.81811E-05-2.86560E-05-3.85954E-07-2.87911E-19 2.46584E-20
 -1      3888 9.48646E-05-2.79606E-05-2.86718E-05-3.79677E-07 5.74719E-20 3.97997E-20
 -1      3889 9.51355E-05-2.82917E-05-2.86465E-05-3.56452E-07-2.19847E-19-8.81180E-21
 -1      3890 9.52047E-05-2.83895E-05-2.86363E-05-3.29199E-07 1.28254E-19-2.05284E-19
 -1      3891 9.50670E-05-2.82079E-05-2.86531E-05-3.07003E-07-2.51743E-19 3.19145E-19
 -1      3892 9.45205E-05-2.75398E-05-2.87050E-05-7.11797E-07 2.26852E-19 6.59693E-19
 -1      3893 9.46288E-05-2.76787E-05-2.86956E-05-6.17076E-07 3.66965E-19 9.47086E-19
 -1      3894 9.46252E-05-2.76795E-05-2.86891E-05-4.89805E-07 1.90757E-19 9.74181E-19
 -1      3895 9.42377E-05-2.72301E-05-2.87161E-05-9.35699E-07 5.32465E-19 8.07150E-19
 -1      3896 9.43635E-05-2.73812E-05-2.87101E-05-8.09119E-07 5.56957E-19 7.19684E-19
 -1      3897 9.43391E-05-2.73623E-05-2.87019E-05-6.47018E-07 5.71570E-19 6.94410E-19
 -1      3898 9.39100E-05-2.69010E-05-2.87162E-05-1.23311E-06 4.72024E-20 5.61622E-19
 -1      3899 9.40519E-05-2.70582E-05-2.87158E-05-1.06817E-06 1.43026E-19 3.52528E-19
 -1      3900 9.39985E-05-2.70113E-05-2.87057E-05-8.64218E-07 5.92010E-19 9.52954E-19
 -1      3901 9.35433E-05-2.65722E-05-2.86990E-05-1.62159E-06-2.38888E-19-2.87010E-20
 -1      3902 9.36953E-05-2.67233E-05-2.87073E-05-1.41042E-06 1.77008E-19 5.38514E-20
 -1      3903 9.35996E-05-2.66361E-05-2.86951E-05-1.15866E-06 1.80337E-19 2.49840E-19
 -1      3904 9.31550E-05-2.62786E-05-2.86570E-05-2.12303E-06-6.98222E-20-3.34648E-19
 -1      3905 9.33039E-05-2.64032E-05-2.86776E-05-1.85630E-06 6.62698E-20-5.29197E-19
 -1      3906 9.31461E-05-2.62576E-05-2.86628E-05-1.55327E-06 2.35635E-20-1.48777E-18
 -1      3907 9.27810E-05-2.60761E-05-2.85814E-05-2.76409E-06-1.15918E-18 2.56611E-19
 -1      3908 9.29031E-05-2.61421E-05-2.86184E-05-2.43115E-06-5.10218E-19 5.50560E-20
 -1      3909 9.26534E-05-2.59126E-05-2.85998E-05-2.07814E-06-4.80899E-19-4.12811E-19
 -1      3910 9.24837E-05-2.60485E-05-2.84627E-05-3.57580E-06-1.81134E-18 1.27499E-18
 -1      3911 9.25398E-05-2.60088E-05-2.85202E-05-3.16540E-06-1.69563E-18 2.02700E-19
 -1      3912 9.21551E-05-2.56602E-05-2.84955E-05-2.77200E-06-1.34742E-18 3.24827E-19
 -1      3913 9.23634E-05-2.63151E-05-2.82927E-05-4.59105E-06-1.03164E-18 1.21237E-18
 -1      3914 9.22933E-05-2.61037E-05-2.83736E-05-4.09346E-06-9.39153E-19 1.38525E-18
 -1      3915 9.17123E-05-2.55894E-05-2.83384E-05-3.68299E-06-1.46521E-18 1.26750E-18
 -1      3916 9.25733E-05-2.70378E-05-2.80672E-05-5.83734E-06-7.51035E-19-4.54035E-20
 -1      3917 9.22883E-05-2.65665E-05-2.81714E-05-5.24924E-06-7.14758E-19 8.55272E-19
 -1      3918 9.14260E-05-2.58285E-05-2.81178E-05-4.86730E-06-6.46396E-19 8.47028E-19
 -1      3919 9.33387E-05-2.84274E-05-2.77924E-05-7.32076E-06-8.00596E-19-1.16793E-18
 -1      3920 9.27125E-05-2.75832E-05-2.79131E-05-6.65590E-06-7.57761E-19-6.85529E-19
 -1      3921 9.14540E-05-2.65537E-05-2.78267E-05-6.38276E-06-1.20707E-19-4.74904E-19
 -1      3922 9.49906E-05-3.07497E-05-2.74944E-05-8.98567E-06-1.10921E-18-2.26336E-18
 -1      3923 9.38429E-05-2.93943E-05-2.76115E-05-8.30552E-06-1.04648E-18-1.62843E-18
 -1      3924 9.20347E-05-2.80039E-05-2.74678E-05-8.27722E-06-4.77511E-19-6.19103E-19
 -1      3925 9.79862E-05-3.43145E-05-2.72459E-05-1.06380E-05-1.20196E-18-1.84579E-18
 -1      3926 9.61156E-05-3.23300E-05-2.73112E-05-1.01004E-05-1.13738E-18-2.38882E-18
 -1      3927 9.35193E-05-3.04759E-05-2.70619E-05-1.05892E-05-1.14634E-18-1.80583E-18
 -1      3928 1.02511E-04-3.91735E-05-2.71718E-05-1.18406E-05-1.23228E-18-1.20614E-18
 -1      3929 9.99264E-05-3.64487E-05-2.71309E-05-1.15328E-05-1.10632E-18-1.73792E-18
 -1      3930 9.67350E-05-3.45996E-05-2.67074E-05-1.31023E-05-1.40587E-18-2.75087E-18
 -1      3931 1.10587E-04-4.57879E-05-2.78381E-05-1.04500E-05-2.06299E-18 4.21855E-19
 -1      3932 1.07312E-04-4.28459E-05-2.74966E-05-1.11864E-05-1.51921E-18-1.86676E-19
 -1      3933 1.03001E-04-4.07122E-05-2.68063E-05-1.41318E-05-1.82100E-18-1.20278E-18
 -1      3934 1.13947E-04-4.86637E-05-2.80849E-05-1.09105E-05-2.15072E-18 2.81629E-19
 -1      3935 7.80570E-05-1.81726E-05-2.56444E-05-2.76477E-06-5.18186E-19-1.72462E-18
 -1      3936 7.37509E-05-1.72331E-05-2.43170E-05-5.02251E-06-1.47167E-19-1.26805E-18
 -1      3937 7.56980E-05-1.91803E-05-2.41172E-05-9.92310E-06-4.58779E-19-6.69259E-19
 -1      3938 7.95781E-05-1.91383E-05-2.58335E-05-4.73557E-06-9.31697E-19-8.17240E-19
 -1      3939 9.55535E-05-2.43026E-05-3.05193E-05 2.91798E-07 4.68481E-19-2.22698E-18
 -1      3940 9.50046E-05-2.32562E-05-3.07621E-05 2.43478E-07 6.24287E-19-2.36575E-18
 -1      3941 9.49533E-05-2.31185E-05-3.07886E-05-8.10875E-08 3.47229E-19-2.35372E-18
 -1      3942 9.67721E-05-2.82717E-05-2.93548E-05 2.80856E-07-3.34769E-19-1.27310E-18
 -1      3943 9.67824E-05-2.85743E-05-2.92345E-05 3.94365E-07-2.55532E-19-1.32441E-18
 -1      3944 9.68658E-05-2.86696E-05-2.92273E-05 3.14756E-07-3.54510E-19-1.59999E-18
 -1      3945 9.61894E-05-2.61071E-05-3.00348E-05-4.36165E-07-2.60812E-19-1.93766E-18
 -1      3946 9.64111E-05-2.68088E-05-2.98348E-05-1.55840E-07-2.45717E-19-1.75677E-18
 -1      3947 1.06763E-04-4.47107E-05-2.64115E-05-1.69056E-05-1.88858E-18-1.03231E-18
 -1      3948 9.60127E-05-2.91973E-05-2.86340E-05-4.35445E-07 8.86385E-20-3.51551E-19
 -1      3949 9.60884E-05-2.92377E-05-2.86497E-05-4.64339E-07 3.87042E-19-2.68043E-19
 -1      3950 9.64039E-05-2.75630E-05-2.94960E-05-5.95902E-08 5.35979E-19-1.56923E-18
 -1      3951 9.63975E-05-2.71311E-05-2.96869E-05 1.09078E-07 4.83327E-19-1.69988E-18
 -1      3952 9.64396E-05-2.79682E-05-2.93501E-05-3.13245E-07 3.89439E-19-1.43178E-18
 -1      3953 9.61700E-05-2.91870E-05-2.87064E-05-7.62510E-07 3.77372E-19-8.18083E-19
 -1      3954 9.62316E-05-2.91584E-05-2.87439E-05-7.78920E-07 2.80334E-19-1.06327E-18
 -1      3955 9.62728E-05-2.92474E-05-2.87271E-05-6.57476E-07 4.98203E-19-1.17940E-18
 -1      3956 7.77103E-05-2.24845E-05-2.37919E-05-1.44380E-05-8.57690E-19-8.75739E-19
 -1      3957 8.30039E-05-2.78145E-05-2.35274E-05-1.97815E-05-1.28958E-18-1.20207E-18
 -1      3958 8.83871E-05-3.08965E-05-2.46970E-05-1.80947E-05-1.65167E-18-1.18717E-18
 -1      3959 9.59721E-05-2.55571E-05-3.01815E-05 4.96957E-07 5.07208E-19-1.84952E-18
 -1      3960 9.54294E-05-2.86625E-05-2.86134E-05-3.00342E-07-1.27408E-19-4.83714E-19
 -1      3961 9.54904E-05-2.87409E-05-2.86075E-05-3.02199E-07 2.52990E-20-3.65710E-19
 -1      3962 9.55548E-05-2.87931E-05-2.86127E-05-2.49463E-07 3.20759E-20-6.91773E-19
 -1      3963 9.52883E-05-2.84874E-05-2.86281E-05-3.14394E-07-6.02016E-20-2.37267E-19
 -1      3964 9.53516E-05-2.85746E-05-2.86196E-05-3.02944E-07-3.07821E-19-2.21294E-19
 -1      3965 9.52429E-05-2.84257E-05-2.86357E-05-2.64562E-07-1.00351E-19-1.12762E-19
 -1      3966 9.66060E-05-2.74081E-05-2.96539E-05-2.43227E-09-3.01933E-19-1.57700E-18
 -1      3967 9.66980E-05-2.78806E-05-2.94974E-05 1.87222E-07-2.49055E-19-1.30920E-18
 -1      3968 9.65379E-05-2.69782E-05-2.98082E-05-8.44814E-08-8.48965E-20-1.64664E-18
 -1      3969 9.48803E-05-2.30133E-05-3.07989E-05-8.88036E-07-5.86989E-20-2.34858E-18
 -1      3970 9.49876E-05-2.32935E-05-3.07314E-05-1.23655E-06-3.62450E-19-2.56180E-18
 -1      3971 9.54007E-05-2.41783E-05-3.05205E-05-9.34279E-07-3.53360E-19-2.38320E-18
 -1      3972 9.63599E-05-2.65611E-05-2.99088E-05 3.00266E-07 4.97114E-19-1.72332E-18
 -1      3973 9.60426E-05-2.55813E-05-3.02016E-05 3.34143E-07 3.87018E-19-1.82499E-18
 -1      3974 9.64238E-05-2.91820E-05-2.88198E-05-6.82276E-07 2.80684E-19-1.28563E-18
 -1      3975 9.54025E-05-2.86193E-05-2.86215E-05-2.46844E-07-4.02290E-19-1.54698E-19
 -1      3976 9.57075E-05-2.89499E-05-2.86114E-05-2.68621E-07 1.21048E-19-3.17850E-19
 -1      3977 9.57067E-05-2.89635E-05-2.86031E-05-3.38465E-07-8.23949E-20 6.64769E-20
 -1      3978 9.57721E-05-2.90269E-05-2.86051E-05-3.59866E-07 1.25185E-19 7.77291E-20
 -1      3979 9.62129E-05-2.92954E-05-2.86810E-05-3.85326E-07 2.57978E-20-8.55093E-19
 -1      3980 9.61800E-05-2.92729E-05-2.86735E-05-4.90798E-07 2.52446E-19-6.32288E-19
 -1      3981 9.62602E-05-2.92927E-05-2.86994E-05-5.15717E-07 2.87840E-19-9.65378E-19
 -1      3982 9.67999E-05-2.80052E-05-2.94822E-05 1.64518E-07-2.01021E-19-1.44028E-18
 -1      3983 9.58546E-05-2.90908E-05-2.86119E-05-3.82102E-07-3.26321E-20-1.96399E-19
 -1      3984 9.59249E-05-2.91447E-05-2.86198E-05-4.09158E-07 1.30260E-19-2.55816E-19
 -1      3985 9.58667E-05-2.90896E-05-2.86201E-05-3.00583E-07-1.27598E-19-1.17542E-19
 -1      3986 1.02181E-04-4.12119E-05-2.60715E-05-1.70329E-05-1.76396E-18-9.52545E-19
 -1      3987 7.96786E-05-2.18166E-05-2.47639E-05-1.11364E-05-6.73957E-19-9.69393E-19
 -1      3988 9.60356E-05-2.92082E-05-2.86419E-05-3.41170E-07 2.46557E-19-3.22003E-19
 -1      3989 9.65248E-05-2.71702E-05-2.97268E-05 3.09157E-08 2.79211E-19-1.67330E-18
 -1      3990 9.60302E-05-2.54841E-05-3.02427E-05 2.42876E-07 3.52496E-19-2.06305E-18
 -1      3991 9.59781E-05-2.53244E-05-3.02816E-05 8.25457E-08 2.77245E-19-2.13768E-18
 -1      3992 9.64271E-05-2.64583E-05-2.99772E-05 1.06606E-07 2.79920E-19-1.94310E-18
 -1      3993 9.56941E-05-2.48643E-05-3.03609E-05-8.13635E-07-3.16201E-19-2.19969E-18
 -1      3994 9.59728E-05-2.55641E-05-3.01771E-05-5.54793E-07-2.92693E-19-1.97939E-18
 -1      3995 9.61207E-05-2.57953E-05-3.01345E-05-3.60483E-07-1.36184E-19-1.82846E-18
 -1      3996 9.56326E-05-2.46336E-05-3.04310E-05-5.91857E-07-4.63539E-20-1.98897E-18
 -1      3997 9.66195E-05-2.86498E-05-2.91310E-05-5.38885E-07 3.18638E-19-1.23120E-18
 -1      3998 9.64747E-05-2.85649E-05-2.91070E-05-6.05702E-07 1.45218E-19-1.07236E-18
 -1      3999 9.66578E-05-2.90969E-05-2.89553E-05-5.56849E-07 3.13834E-19-1.49442E-18
 -1      4000 9.67108E-05-2.89609E-05-2.90335E-05-5.17117E-07 5.01107E-19-1.52421E-18
 -1      4001 9.48864E-05-2.30132E-05-3.08086E-05-5.38576E-07 1.09220E-19-2.34514E-18
 -1      4002 9.64894E-05-2.83084E-05-2.92153E-05-4.61731E-07 1.91045E-19-1.24414E-18
 -1      4003 9.67409E-05-2.87739E-05-2.91305E-05-4.82496E-07 4.12685E-19-1.65894E-18
 -1      4004 9.67582E-05-2.85357E-05-2.92358E-05-3.89513E-07 2.00866E-19-1.52269E-18
 -1      4005 9.68263E-05-2.88593E-05-2.91296E-05-3.88575E-07 2.68845E-19-1.84980E-18
 -1      4006 9.69347E-05-2.85455E-05-2.93086E-05 1.84929E-07-1.35697E-19-1.49680E-18
 -1      4007 9.69303E-05-2.88078E-05-2.91964E-05 2.46244E-07-2.12154E-19-1.47794E-18
 -1      4008 9.53961E-05-2.40119E-05-3.05844E-05-3.20779E-07 2.24880E-19-2.16235E-18
 -1      4009 9.67812E-05-2.92618E-05-2.89354E-05 2.79653E-07-4.34226E-19-1.16382E-18
 -1      4010 9.66999E-05-2.93285E-05-2.88730E-05 2.88805E-07-3.93226E-19-1.27841E-18
 -1      4011 9.66092E-05-2.93649E-05-2.88178E-05 2.79256E-07-3.88371E-19-1.04763E-18
 -1      4012 9.65166E-05-2.93770E-05-2.87733E-05 2.74717E-07-3.25974E-19-1.18030E-18
 -1      4013 9.66963E-05-2.93593E-05-2.88611E-05 1.60510E-07-3.18619E-19-9.54109E-19
 -1      4014 9.64165E-05-2.93676E-05-2.87343E-05 2.63248E-07-2.42263E-19-1.01052E-18
 -1      4015 9.63230E-05-2.93445E-05-2.87040E-05 2.51937E-07-1.69169E-19-7.15827E-19
 -1      4016 9.65041E-05-2.93886E-05-2.87660E-05 1.51177E-07-1.85391E-19-5.48485E-19
 -1      4017 9.62226E-05-2.93056E-05-2.86779E-05 2.37621E-07-2.95796E-19-8.16867E-19
 -1      4018 9.61313E-05-2.92585E-05-2.86586E-05 2.24210E-07-3.91165E-19-7.87871E-19
 -1      4019 9.63076E-05-2.93446E-05-2.87009E-05 1.38185E-07-2.13779E-19-5.45671E-19
 -1      4020 9.60350E-05-2.92008E-05-2.86426E-05 2.11450E-07-5.07504E-19-1.02816E-18
 -1      4021 9.59487E-05-2.91385E-05-2.86319E-05 1.98679E-07-4.73009E-19-9.23844E-19
 -1      4022 9.61114E-05-2.92478E-05-2.86583E-05 1.24537E-07-4.32147E-19-8.11989E-19
 -1      4023 9.58575E-05-2.90681E-05-2.86237E-05 1.88106E-07-4.38337E-19-7.22338E-19
 -1      4024 9.57762E-05-2.89950E-05-2.86196E-05 1.78222E-07-4.01352E-19-5.23906E-19
 -1      4025 9.59255E-05-2.91184E-05-2.86337E-05 1.11319E-07-4.29875E-19-8.77996E-19
 -1      4026 9.56889E-05-2.89150E-05-2.86173E-05 1.70664E-07-2.25307E-19-4.03401E-19
 -1      4027 9.56105E-05-2.88328E-05-2.86183E-05 1.65352E-07-4.15521E-19 1.73164E-20
 -1      4028 9.57488E-05-2.89656E-05-2.86229E-05 1.00908E-07-1.98410E-19-9.91549E-20
 -1      4029 9.55244E-05-2.87435E-05-2.86205E-05 1.61327E-07-3.11494E-19 2.76137E-19
 -1      4030 9.54453E-05-2.86517E-05-2.86253E-05 1.61839E-07 7.65537E-20 2.35346E-19
 -1      4031 9.55774E-05-2.87934E-05-2.86226E-05 9.46488E-08 3.18676E-20 4.63031E-19
 -1      4032 9.53561E-05-2.85517E-05-2.86309E-05 1.61622E-07-2.48975E-19 3.79491E-19
 -1      4033 9.52717E-05-2.84479E-05-2.86385E-05 1.68862E-07-2.07507E-19 4.57365E-20
 -1      4034 9.54042E-05-2.86008E-05-2.86302E-05 9.32315E-08 1.24014E-19 1.30740E-19
 -1      4035 9.51740E-05-2.83343E-05-2.86464E-05 1.72456E-07-1.26617E-19 3.65052E-19
 -1      4036 9.50782E-05-2.82150E-05-2.86558E-05 1.86962E-07 7.76447E-20 2.42384E-19
 -1      4037 9.52195E-05-2.83835E-05-2.86434E-05 9.67381E-08-3.38677E-20 1.51686E-19
 -1      4038 9.49654E-05-2.80835E-05-2.86648E-05 1.93977E-07 5.25570E-20 4.30725E-19
 -1      4039 9.48510E-05-2.79441E-05-2.86750E-05 2.15784E-07 2.24963E-19 3.61682E-19
 -1      4040 9.50114E-05-2.81347E-05-2.86599E-05 1.04452E-07 1.01985E-19 4.13188E-19
 -1      4041 9.47153E-05-2.77897E-05-2.86839E-05 2.25175E-07-9.31718E-21 7.99962E-20
 -1      4042 9.45737E-05-2.76249E-05-2.86935E-05 2.53518E-07-3.42335E-19 1.10793E-19
 -1      4043 9.47656E-05-2.78457E-05-2.86774E-05 1.14439E-07 6.55936E-21 3.65996E-19
 -1      4044 9.44062E-05-2.74422E-05-2.87007E-05 2.63171E-07-4.03806E-19 5.98769E-19
 -1      4045 9.42269E-05-2.72461E-05-2.87081E-05 2.95978E-07-1.55558E-19 2.94280E-19
 -1      4046 9.44656E-05-2.75065E-05-2.86929E-05 1.22829E-07-2.85989E-19 8.82922E-19
 -1      4047 9.40176E-05-2.70297E-05-2.87113E-05 3.02071E-07 1.57466E-20 1.87984E-19
 -1      4048 9.37881E-05-2.67965E-05-2.87139E-05 3.35201E-07 1.79265E-19 3.07037E-19
 -1      4049 9.40926E-05-2.71075E-05-2.87027E-05 1.22718E-07-4.13525E-20 3.43758E-19
 -1      4050 9.35259E-05-2.65414E-05-2.87101E-05 3.31281E-07 1.25355E-19-1.98970E-19
 -1      4051 9.32315E-05-2.62657E-05-2.87044E-05 3.57439E-07 2.21263E-19-7.31095E-20
 -1      4052 9.36255E-05-2.66397E-05-2.87013E-05 1.02559E-07 8.30142E-20 7.07653E-20
 -1      4053 9.29042E-05-2.59683E-05-2.86894E-05 3.33169E-07-3.88787E-20-2.78363E-19
 -1      4054 9.25270E-05-2.56460E-05-2.86703E-05 3.40442E-07-1.53406E-19-4.18628E-19
 -1      4055 9.30412E-05-2.60971E-05-2.86816E-05 4.39226E-08-1.20883E-19-5.25930E-19
 -1      4056 9.21221E-05-2.53052E-05-2.86383E-05 2.79935E-07-5.08729E-19-8.87674E-20
 -1      4057 9.16410E-05-2.49346E-05-2.85985E-05 2.49936E-07-2.13132E-19-5.18733E-19
 -1      4058 9.23152E-05-2.54783E-05-2.86334E-05-8.15139E-08-2.10032E-19-6.09125E-19
 -1      4059 9.11454E-05-2.45533E-05-2.85414E-05 1.29658E-07 1.87864E-19-7.75379E-19
 -1      4060 9.05350E-05-2.41362E-05-2.84709E-05 3.52821E-08 7.56104E-19-7.91657E-19
 -1      4061 9.14217E-05-2.47901E-05-2.85430E-05-3.15853E-07 1.74665E-19-4.55459E-19
 -1      4062 8.99363E-05-2.37233E-05-2.83778E-05-1.78517E-07 7.02394E-19-8.19467E-19
 -1      4063 8.91657E-05-2.32670E-05-2.82624E-05-3.75632E-07 7.26457E-19-1.01666E-18
 -1      4064 9.03355E-05-2.40504E-05-2.83919E-05-7.19857E-07 2.34683E-19-1.27442E-18
 -1      4065 8.84526E-05-2.28400E-05-2.81186E-05-7.30022E-07 1.51626E-19-1.60482E-18
 -1      4066 8.74833E-05-2.23593E-05-2.79384E-05-1.08228E-06-8.37906E-19-1.73064E-18
 -1      4067 8.90330E-05-2.32943E-05-2.81550E-05-1.37902E-06-3.38952E-19-2.15692E-18
 -1      4068 8.66458E-05-2.19467E-05-2.77238E-05-1.64093E-06-4.06403E-19-2.26424E-18
 -1      4069 8.54298E-05-2.14675E-05-2.74506E-05-2.21811E-06 4.69566E-20-1.42302E-18
 -1      4070 8.74933E-05-2.25790E-05-2.77991E-05-2.41128E-06-7.46018E-19-2.93628E-18
 -1      4071 8.44602E-05-2.11103E-05-2.71383E-05-3.06020E-06-4.70223E-19-1.43231E-18
 -1      4072 8.29022E-05-2.06661E-05-2.67292E-05-3.94929E-06-7.92595E-19-1.91002E-18
 -1      4073 8.56912E-05-2.19904E-05-2.72793E-05-3.97751E-06-2.80221E-19-2.22814E-18
 -1      4074 9.41788E-05-2.72077E-05-2.87014E-05-5.42694E-07 5.30974E-19-3.64300E-19
 -1      4075 9.43353E-05-2.73833E-05-2.86970E-05-4.57797E-07 7.23442E-19-2.25016E-19
 -1      4076 9.69040E-05-2.90103E-05-2.90958E-05 2.53160E-07-3.70401E-19-1.34953E-18
 -1      4077 9.68497E-05-2.91577E-05-2.90110E-05 2.83609E-07-3.60600E-19-1.34203E-18
 -1      4078 9.69567E-05-2.88957E-05-2.91703E-05 1.37850E-07-1.82372E-19-1.46843E-18
 -1      4079 9.45057E-05-2.75569E-05-2.86920E-05-4.02156E-07 2.16311E-19-2.45979E-19
 -1      4080 9.46367E-05-2.77123E-05-2.86844E-05-3.41617E-07-1.92147E-19-6.94738E-19
 -1      4081 9.43666E-05-2.74074E-05-2.86928E-05-3.00072E-07 1.12579E-19-1.31927E-18
 -1      4082 9.65186E-05-2.92552E-05-2.88268E-05-5.68508E-07 2.51097E-19-1.56899E-18
 -1      4083 9.65903E-05-2.91920E-05-2.88832E-05-5.62455E-07 2.45819E-19-1.43043E-18
 -1      4084 9.67276E-05-2.91622E-05-2.89582E-05-4.41428E-07 2.38252E-19-1.68159E-18
 -1      4085 9.50040E-05-2.81322E-05-2.86590E-05-2.39896E-07-1.76053E-19-1.54368E-19
 -1      4086 9.50982E-05-2.82514E-05-2.86499E-05-2.13505E-07-2.12662E-19-9.01962E-20
 -1      4087 9.37861E-05-2.68178E-05-2.86998E-05-7.40392E-07 5.25453E-19 3.14240E-20
 -1      4088 9.39712E-05-2.70116E-05-2.87013E-05-6.23903E-07 5.91067E-19 9.54162E-20
 -1      4089 9.39939E-05-2.70209E-05-2.86974E-05-4.21848E-07 8.34741E-20-8.57700E-19
 -1      4090 9.33216E-05-2.63954E-05-2.86810E-05-1.01492E-06 4.45465E-20-5.11877E-19
 -1      4091 9.35354E-05-2.66015E-05-2.86915E-05-8.57022E-07 7.81898E-19 3.75855E-19
 -1      4092 9.35418E-05-2.65863E-05-2.86886E-05-5.99917E-07 3.77805E-19-4.05964E-19
 -1      4093 9.27857E-05-2.59603E-05-2.86365E-05-1.39331E-06 1.48586E-19-9.36210E-19
 -1      4094 9.30236E-05-2.61662E-05-2.86603E-05-1.18079E-06-4.69913E-20-8.86910E-19
 -1      4095 9.30002E-05-2.61110E-05-2.86588E-05-8.57719E-07 4.21027E-19 2.37311E-19
 -1      4096 9.21901E-05-2.55479E-05-2.85559E-05-1.91225E-06-1.23074E-18 9.19704E-20
 -1      4097 9.24400E-05-2.57322E-05-2.85980E-05-1.62754E-06-4.08573E-19-2.99219E-19
 -1      4098 9.23647E-05-2.56135E-05-2.85983E-05-1.22838E-06-4.77961E-19 3.33898E-20
 -1      4099 9.15641E-05-2.52160E-05-2.84266E-05-2.62046E-06-1.33172E-18 3.77207E-19
 -1      4100 9.18024E-05-2.53446E-05-2.84930E-05-2.24076E-06-1.07584E-18-1.89192E-19
 -1      4101 9.16402E-05-2.51284E-05-2.84947E-05-1.75792E-06-9.79638E-19-5.30277E-19
 -1      4102 9.09631E-05-2.50524E-05-2.82343E-05-3.58089E-06-1.08443E-18 1.82761E-19
 -1      4103 9.11494E-05-2.50745E-05-2.83313E-05-3.07763E-06-1.15255E-18 3.52489E-19
 -1      4104 9.08469E-05-2.47123E-05-2.83326E-05-2.50898E-06-1.08969E-18-5.51660E-19
 -1      4105 9.04824E-05-2.51854E-05-2.79644E-05-4.87131E-06-9.08406E-19 3.44172E-19
 -1      4106 9.05513E-05-2.50275E-05-2.80975E-05-4.21098E-06-7.67229E-19-9.75374E-20
 -1      4107 9.00283E-05-2.44525E-05-2.80938E-05-3.56481E-06-5.39254E-19-1.49797E-18
 -1      4108 9.02749E-05-2.57953E-05-2.76050E-05-6.58093E-06 3.87635E-19 1.85360E-19
 -1      4109 9.01266E-05-2.53549E-05-2.77770E-05-5.72781E-06-1.04240E-19 2.76451E-19
 -1      4110 8.92648E-05-2.44798E-05-2.77584E-05-5.03188E-06-9.92726E-20-3.54522E-19
 -1      4111 9.05524E-05-2.71265E-05-2.71513E-05-8.81378E-06-5.75503E-19-6.36784E-19
 -1      4112 9.00619E-05-2.62593E-05-2.73602E-05-7.72045E-06 2.66737E-20-5.83255E-19
 -1      4113 8.86938E-05-2.49848E-05-2.73078E-05-7.03200E-06 3.47049E-19-3.48217E-19
 -1      4114 9.17525E-05-2.95387E-05-2.66431E-05-1.15898E-05-1.07620E-18-1.30510E-18
 -1      4115 9.06600E-05-2.80357E-05-2.68485E-05-1.02074E-05-8.79073E-19-9.34413E-19
 -1      4116 8.86204E-05-2.63043E-05-2.67357E-05-9.70129E-06-2.49241E-19-9.54474E-19
 -1      4117 9.73866E-05-3.67475E-05-2.58052E-05-1.71909E-05-1.79635E-18-1.51902E-18
 -1      4118 8.20609E-05-2.07284E-05-2.62439E-05-5.74958E-06-7.63511E-19-1.14901E-18
 -1      4119 8.00947E-05-2.06635E-05-2.55547E-05-7.86704E-06-4.10607E-19-4.53338E-19
 -1      4120 8.38365E-05-2.19696E-05-2.65036E-05-6.78483E-06-4.20286E-19-2.05617E-18
 -1      4121 9.65906E-05-2.80584E-05-2.93720E-05-3.00567E-07 1.28469E-19-1.40772E-18
 -1      4122 9.53730E-05-2.85742E-05-2.86275E-05-1.81856E-07-4.72444E-19-1.35618E-19
 -1      4123 9.54507E-05-2.86678E-05-2.86217E-05-1.77482E-07-3.60593E-19-1.27549E-19
 -1      4124 9.66790E-05-2.77646E-05-2.95314E-05-1.15187E-07 6.06250E-20-1.70366E-18
 -1      4125 9.66313E-05-2.72568E-05-2.97336E-05 1.36074E-08 2.73174E-19-1.91372E-18
 -1      4126 9.63532E-05-2.93013E-05-2.87355E-05-5.40790E-07 3.61313E-19-1.32850E-18
 -1      4127 9.64319E-05-2.92878E-05-2.87748E-05-5.54761E-07 2.07190E-19-1.39783E-18
 -1      4128 9.63991E-05-2.93384E-05-2.87428E-05-4.23614E-07-3.77183E-20-1.23703E-18
 -1      4129 8.26634E-05-2.36382E-05-2.53060E-05-1.19219E-05-7.87512E-19-9.25236E-19
 -1      4130 9.68153E-05-2.77850E-05-2.95841E-05 5.83623E-08-1.01442E-19-1.67549E-18
 -1      4131 9.68921E-05-2.82053E-05-2.94392E-05 1.61489E-07-2.16896E-19-1.56860E-18
 -1      4132 9.69446E-05-2.83386E-05-2.94022E-05 9.24064E-08-1.67683E-19-1.68646E-18
 -1      4133 9.60421E-05-2.92054E-05-2.86431E-05-2.39106E-07 1.77944E-20-3.56626E-19
 -1      4134 9.61299E-05-2.92589E-05-2.86583E-05-2.55114E-07 8.68385E-20-5.56825E-19
 -1      4135 9.10195E-05-3.14828E-05-2.54986E-05-1.56905E-05-1.58629E-18-1.27058E-18
 -1      4136 9.51989E-05-2.83669E-05-2.86418E-05-2.00738E-07-2.85770E-19-2.49863E-19
 -1      4137 9.52824E-05-2.84719E-05-2.86338E-05-1.86503E-07-1.57102E-19-5.86593E-19
 -1      4138 9.51409E-05-2.82940E-05-2.86477E-05-1.32769E-07-1.88769E-19-7.31113E-19
 -1      4139 9.64715E-05-2.66248E-05-2.99330E-05-1.35631E-07-1.03598E-19-1.76839E-18
 -1      4140 9.66683E-05-2.72592E-05-2.97496E-05 1.06353E-08-5.97440E-20-1.85132E-18
 -1      4141 9.67567E-05-2.74539E-05-2.96990E-05 1.28708E-08-4.04974E-20-1.85525E-18
 -1      4142 9.55367E-05-2.87594E-05-2.86180E-05-1.79309E-07-2.10932E-19-3.78283E-19
 -1      4143 9.56129E-05-2.88437E-05-2.86155E-05-1.82878E-07 2.20229E-19-3.30433E-19
 -1      4144 9.55037E-05-2.87168E-05-2.86235E-05-1.11349E-07-3.47990E-19-6.15730E-19
 -1      4145 9.47769E-05-2.78640E-05-2.86767E-05-3.04608E-07-1.93862E-20-4.27607E-19
 -1      4146 9.48869E-05-2.80001E-05-2.86676E-05-2.63109E-07 1.13778E-19-3.44459E-19
 -1      4147 9.49263E-05-2.80388E-05-2.86642E-05-1.65042E-07 1.40081E-19-1.19966E-18
 -1      4148 9.67335E-05-2.81611E-05-2.93908E-05-2.84906E-07 1.22310E-19-1.55350E-18
 -1      4149 8.94372E-05-2.92389E-05-2.57740E-05-1.40498E-05-1.32560E-18-1.47768E-18
 -1      4150 9.58254E-05-2.49791E-05-3.03711E-05-6.26783E-08 2.56794E-19-2.22686E-18
 -1      4151 9.57536E-05-2.48599E-05-3.03849E-05-4.18225E-07 3.35172E-20-2.04312E-18
 -1      4152 9.68583E-05-2.92128E-05-2.89931E-05 1.58001E-07-3.05653E-19-1.48192E-18
 -1      4153 9.56986E-05-2.89264E-05-2.86157E-05-1.89939E-07 1.68668E-19-3.45954E-19
 -1      4154 9.57768E-05-2.90021E-05-2.86175E-05-1.99659E-07 1.35185E-19 4.05010E-20
 -1      4155 9.56732E-05-2.88952E-05-2.86203E-05-1.15792E-07 2.01417E-20-2.35985E-19
 -1      4156 9.62294E-05-2.93070E-05-2.86798E-05-2.71004E-07-8.18420E-21-9.46124E-19
 -1      4157 9.63240E-05-2.93414E-05-2.87052E-05-2.87618E-07-7.88027E-20-1.11583E-18
 -1      4158 9.62175E-05-2.93053E-05-2.86792E-05-1.61784E-07-2.09694E-19-9.04129E-19
 -1      4159 9.65749E-05-2.93048E-05-2.88324E-05-4.46336E-07 1.23250E-19-1.64719E-18
 -1      4160 9.68318E-05-2.82754E-05-2.93816E-05-2.37263E-07 2.12795E-19-1.79808E-18
 -1      4161 9.53295E-05-2.85180E-05-2.86333E-05-1.16104E-07-4.83094E-20-5.65599E-19
 -1      4162 8.61160E-05-2.64808E-05-2.55697E-05-1.33314E-05-9.97165E-19-1.30917E-18
 -1      4163 8.60445E-05-2.47503E-05-2.62167E-05-1.00923E-05-6.31455E-19-8.23078E-19
 -1      4164 9.58657E-05-2.90760E-05-2.86231E-05-2.10884E-07-1.15546E-19-2.14928E-19
 -1      4165 9.59482E-05-2.91423E-05-2.86307E-05-2.24841E-07 4.68998E-20-2.20463E-19
 -1      4166 9.58458E-05-2.90549E-05-2.86264E-05-1.27225E-07-7.12316E-20-3.74865E-19
 -1      4167 9.68124E-05-2.77774E-05-2.95831E-05-9.12753E-08 2.43973E-19-2.00952E-18
 -1      4168 9.66608E-05-2.71926E-05-2.97752E-05 3.89403E-08 3.05881E-19-1.86734E-18
 -1      4169 9.66397E-05-2.70692E-05-2.98163E-05 1.69053E-08 2.70141E-19-1.89561E-18
 -1      4170 9.60265E-05-2.91939E-05-2.86448E-05-1.43488E-07-1.07041E-19-3.96390E-19
 -1      4171 9.62902E-05-2.60330E-05-3.01052E-05-5.78937E-08 1.94892E-19-1.99191E-18
 -1      4172 9.46728E-05-2.77453E-05-2.86803E-05-2.18232E-07 1.06484E-19-1.59233E-18
 -1      4173 9.67774E-05-2.92409E-05-2.89435E-05-3.27810E-07 1.07902E-19-1.39693E-18
 -1      4174 9.68417E-05-2.91311E-05-2.90175E-05-3.07220E-07 1.07037E-19-1.39892E-18
 -1      4175 9.62412E-05-2.60393E-05-3.00905E-05-2.17870E-07-4.13354E-20-1.78913E-18
 -1      4176 9.63669E-05-2.63005E-05-3.00247E-05-1.04507E-07 3.50914E-20-1.89333E-18
 -1      4177 9.69153E-05-2.90485E-05-2.90876E-05-1.85111E-07 1.14350E-20-1.19217E-18
 -1      4178 9.68896E-05-2.89747E-05-2.91068E-05-3.02576E-07 1.52694E-19-1.61067E-18
 -1      4179 9.69187E-05-2.87675E-05-2.92068E-05-2.52843E-07 1.90054E-19-1.64352E-18
 -1      4180 9.69176E-05-2.91563E-05-2.90392E-05-2.79541E-08-5.46629E-20-1.37090E-18
 -1      4181 9.68479E-05-2.92679E-05-2.89621E-05-1.55367E-08-1.89084E-19-1.25166E-18
 -1      4182 9.65758E-05-2.94019E-05-2.87873E-05 2.96356E-08-1.34353E-19-9.02396E-19
 -1      4183 9.64766E-05-2.93935E-05-2.87480E-05 2.87302E-08-3.00472E-19-6.91111E-19
 -1      4184 9.63762E-05-2.93678E-05-2.87169E-05-1.72046E-08-3.29451E-19-8.80035E-19
 -1      4185 9.62783E-05-2.93309E-05-2.86903E-05-1.69840E-08-1.75036E-19-1.00971E-18
 -1      4186 9.61796E-05-2.92831E-05-2.86684E-05-1.39404E-08-2.35158E-19-8.01965E-19
 -1      4187 9.60831E-05-2.92255E-05-2.86518E-05-1.53464E-08-4.25245E-19-9.03267E-19
 -1      4188 9.59886E-05-2.91611E-05-2.86390E-05-1.12585E-08-2.47411E-19-7.19737E-19
 -1      4189 9.58968E-05-2.90900E-05-2.86303E-05-1.29188E-08-5.64713E-20-3.96887E-19
 -1      4190 9.58070E-05-2.90142E-05-2.86245E-05-9.55422E-09-2.39407E-19-3.18774E-19
 -1      4191 9.57191E-05-2.89331E-05-2.86218E-05-1.06132E-08-1.66212E-19-1.00330E-19
 -1      4192 9.56324E-05-2.88479E-05-2.86213E-05-9.02676E-09-6.60157E-20-1.61475E-19
 -1      4193 9.55456E-05-2.87574E-05-2.86232E-05-9.09809E-09 1.00768E-19-1.00477E-19
 -1      4194 9.54587E-05-2.86625E-05-2.86266E-05-1.02265E-08-1.97744E-20-5.32431E-19
 -1      4195 9.53688E-05-2.85614E-05-2.86319E-05-9.23068E-09-1.23621E-19-4.58314E-19
 -1      4196 9.52770E-05-2.84550E-05-2.86381E-05-1.41267E-08-9.80096E-20-6.08654E-19
 -1      4197 9.51786E-05-2.83406E-05-2.86456E-05-1.23577E-08 1.47999E-19-2.77437E-19
 -1      4198 9.50765E-05-2.82196E-05-2.86535E-05-2.23975E-08 1.82337E-19-4.73640E-19
 -1      4199 9.49630E-05-2.80881E-05-2.86620E-05-2.06913E-08 1.70770E-19-4.99615E-19
 -1      4200 9.48442E-05-2.79487E-05-2.86704E-05-3.78298E-08 1.21959E-19-5.13414E-19
 -1      4201 9.47079E-05-2.77959E-05-2.86788E-05-3.78553E-08-6.30515E-20-4.56721E-19
 -1      4202 9.45655E-05-2.76342E-05-2.86862E-05-6.49717E-08-1.93095E-23-3.61837E-19
 -1      4203 9.43975E-05-2.74554E-05-2.86927E-05-6.96848E-08 4.25639E-20-2.44414E-19
 -1      4204 9.42243E-05-2.72680E-05-2.86973E-05-1.11061E-07-2.26491E-19-3.69392E-19
 -1      4205 9.40148E-05-2.70592E-05-2.86997E-05-1.25374E-07 8.81280E-20-5.21072E-19
 -1      4206 9.38036E-05-2.68440E-05-2.86991E-05-1.87358E-07-7.25262E-21-1.90756E-19
 -1      4207 9.35417E-05-2.66022E-05-2.86943E-05-2.19086E-07-2.19872E-19-4.82023E-19
 -1      4208 9.32861E-05-2.63594E-05-2.86852E-05-3.10991E-07 8.41891E-20-1.97698E-19
 -1      4209 9.29601E-05-2.60842E-05-2.86690E-05-3.72138E-07 3.68553E-19-3.40742E-19
 -1      4210 9.26557E-05-2.58180E-05-2.86470E-05-5.07432E-07 2.51793E-19-2.83321E-19
 -1      4211 9.22537E-05-2.55123E-05-2.86137E-05-6.15883E-07 8.81196E-20-2.11032E-19
 -1      4212 9.18994E-05-2.52328E-05-2.85730E-05-8.13706E-07-5.46614E-19-2.72793E-19
 -1      4213 9.14096E-05-2.49053E-05-2.85150E-05-9.95367E-07-1.89491E-19-2.38192E-19
 -1      4214 9.10102E-05-2.46310E-05-2.84484E-05-1.28238E-06-4.48300E-19-6.49783E-19
 -1      4215 9.04219E-05-2.42982E-05-2.83554E-05-1.57383E-06-5.92513E-19-1.19002E-18
 -1      4216 8.99912E-05-2.40598E-05-2.82539E-05-1.98636E-06-6.26706E-19-1.63018E-18
 -1      4217 8.92959E-05-2.37490E-05-2.81123E-05-2.43816E-06-8.64395E-19-1.93494E-18
 -1      4218 8.88622E-05-2.35937E-05-2.79653E-05-3.02435E-06-6.66859E-19-2.11048E-18
 -1      4219 8.80554E-05-2.33469E-05-2.77573E-05-3.70603E-06-3.75854E-19-1.54880E-18
 -1      4220 8.76728E-05-2.33460E-05-2.75530E-05-4.52646E-06 6.90658E-20-1.34663E-18
 -1      4221 8.67576E-05-2.32261E-05-2.72562E-05-5.53978E-06 4.42143E-19-1.07055E-18
 -1      4222 9.65061E-05-2.66376E-05-2.99474E-05 2.08165E-08 2.28005E-19-1.88023E-18
 -1      4223 8.65374E-05-2.34814E-05-2.69868E-05-6.64440E-06 5.26827E-20-1.12636E-18
 -1      4224 8.58249E-05-2.39339E-05-2.65510E-05-8.56802E-06-2.86932E-19-8.48208E-19
 -1      4225 9.64274E-05-2.93685E-05-2.87387E-05-2.53751E-07-5.97896E-20-1.10229E-18
 -1      4226 9.65224E-05-2.93749E-05-2.87764E-05-2.61757E-07-1.88766E-19-1.26300E-18
 -1      4227 9.60398E-05-2.54874E-05-3.02294E-05-3.18897E-07-4.40644E-20-1.97731E-18
 -1      4228 9.69158E-05-2.85361E-05-2.93054E-05-2.31108E-07 7.82567E-20-1.76738E-18
 -1      4229 9.68892E-05-2.81517E-05-2.94596E-05-1.26229E-07 6.21558E-20-1.87656E-18
 -1      4230 9.68988E-05-2.80685E-05-2.94990E-05-7.10665E-08 1.54501E-19-1.80184E-18
 -1      4231 9.69599E-05-2.86461E-05-2.92780E-05-1.40316E-07 6.23103E-20-1.58702E-18
 -1      4232 9.66178E-05-2.93585E-05-2.88239E-05-2.98352E-07-9.36303E-20-1.30117E-18
 -1      4233 9.67009E-05-2.93176E-05-2.88774E-05-2.96402E-07 1.68249E-19-1.22806E-18
 -1      4234 9.67896E-05-2.92916E-05-2.89301E-05-1.75349E-07 4.10002E-20-9.96913E-19
 -1      4235 9.66151E-05-2.93884E-05-2.88140E-05-1.20748E-07-6.79002E-20-8.12393E-19
 -1      4236 9.69910E-05-2.87821E-05-2.92315E-05-2.84374E-08-8.05479E-20-1.46277E-18
 -1      4237 9.69666E-05-2.89969E-05-2.91292E-05-9.94393E-09-1.22917E-20-1.43234E-18
 -1      4238 9.67378E-05-2.73287E-05-2.97475E-05-2.46567E-08 1.49047E-19-1.90538E-18
 -1      4239 9.68739E-05-2.78452E-05-2.95838E-05 2.04239E-08 1.43340E-19-1.77529E-18
 -1      4240 9.67674E-05-2.93461E-05-2.88933E-05 1.92219E-09-1.25659E-19-1.10468E-18
 -1      4241 9.66728E-05-2.93852E-05-2.88368E-05 8.04204E-09 3.89711E-20-7.56177E-19
 -1      4242 9.69474E-05-2.82050E-05-2.94611E-05-2.11273E-08-3.36993E-21-1.71999E-18
 -1      4243 9.69880E-05-2.85505E-05-2.93302E-05 6.11960E-09-1.45770E-19-1.59228E-18
 -1      4244 9.64174E-05-2.93785E-05-2.87337E-05-1.31075E-07-9.59021E-20-1.26496E-18
 -3
    1PSTEP                         4           1           1          
  100CL  101 1.000000000        4244                     0    1           1
 -4  ERROR       1    1
 -5  STR(%)      1    1    0    0
 -1         1 1.27133E+01
 -1         2 2.40004E+01
 -1         3 1.16587E-01
 -1         4 9.20111E-01
 -1         5 1.40388E+01
 -1         6 1.31430E+01
 -1         7 1.31430E+01
 -1         8 3.66365E+00
 -1         9 1.82396E+00
 -1        10 1.29188E+00
 -1        11 1.04612E+00
 -1        12 8.99387E-01
 -1        13 8.08853E-01
 -1        14 7.53791E-01
 -1        15 7.55735E-01
 -1        16 8.13141E-01
 -1        17 9.00843E-01
 -1        18 1.05297E+00
 -1        19 1.30660E+00
 -1        20 1.83170E+00
 -1        21 3.50866E+00
 -1        22 8.64156E+00
 -1        23 1.31430E+01
 -1        24 4.31755E+00
 -1        25 3.34052E+00
 -1        26 2.11089E+00
 -1        27 1.36204E+00
 -1        28 1.01381E+00
 -1        29 7.74821E-01
 -1        30 5.94946E-01
 -1        31 4.54605E-01
 -1        32 3.46922E-01
 -1        33 2.67900E-01
 -1        34 2.04322E-01
 -1        35 1.54125E-01
 -1        36 1.15327E-01
 -1        37 8.61277E-02
 -1        38 6.49484E-02
 -1        39 5.04465E-02
 -1        40 4.16980E-02
 -1        41 3.83598E-02
 -1        42 4.58035E-02
 -1        43 5.69673E-02
 -1        44 7.16998E-02
 -1        45 8.98753E-02
 -1        46 1.19440E-01
 -1        47 1.66357E-01
 -1        48 2.29407E-01
 -1        49 3.12646E-01
 -1        50 4.20477E-01
 -1        51 5.56763E-01
 -1        52 7.22846E-01
 -1        53 9.13754E-01
 -1        54 1.20312E+00
 -1        55 1.61124E+00
 -1        56 2.06281E+00
 -1        57 2.67342E+00
 -1        58 3.13891E+00
 -1        59 3.13891E+00
 -1        60 3.14629E+00
 -1        61 3.74093E+00
 -1        62 7.06613E+00
 -1        63 1.04366E+01
 -1        64 1.04366E+01
 -1        65 1.01404E+01
 -1        66 8.17303E+00
 -1        67 3.50525E+00
 -1        68 1.87706E+00
 -1        69 1.97815E+00
 -1        70 1.97815E+00
 -1        71 1.71482E+00
 -1        72 1.40388E+01
 -1        73 3.39558E+00
 -1        74 2.41723E+00
 -1        75 1.66710E+00
 -1        76 1.14710E+00
 -1        77 9.06326E-01
 -1        78 7.31433E-01
 -1        79 5.87750E-01
 -1        80 4.68030E-01
 -1        81 3.68359E-01
 -1        82 2.93910E-01
 -1        83 2.31910E-01
 -1        84 1.80637E-01
 -1        85 1.39281E-01
 -1        86 1.06840E-01
 -1        87 8.22803E-02
 -1        88 6.46296E-02
 -1        89 5.30302E-02
 -1        90 4.67552E-02
 -1        91 5.26416E-02
 -1        92 6.30981E-02
 -1        93 7.69971E-02
 -1        94 9.34384E-02
 -1        95 1.10996E-01
 -1        96 1.33334E-01
 -1        97 1.66789E-01
 -1        98 2.01250E-01
 -1        99 2.32084E-01
 -1       100 2.52148E-01
 -1       101 2.61243E-01
 -1       102 3.21055E-01
 -1       103 4.10404E-01
 -1       104 4.79667E-01
 -1       105 6.37833E-01
 -1       106 8.26711E-01
 -1       107 9.27471E-01
 -1       108 1.19664E+00
 -1       109 1.43052E+00
 -1       110 1.69170E+00
 -1       111 2.40486E+00
 -1       112 2.82899E+00
 -1       113 2.86063E+00
 -1       114 3.06347E+00
 -1       115 3.06347E+00
 -1       116 2.77031E+00
 -1       117 2.17547E+00
 -1       118 1.54954E+00
 -1       119 9.69104E-01
 -1       120 6.03085E-01
 -1       121 2.83616E-01
 -1       122 1.52085E-01
 -1       123 3.14610E-01
 -1       124 5.40875E-01
 -1       125 7.57688E-01
 -1       126 9.06898E-01
 -1       127 9.06898E-01
 -1       128 8.29922E-01
 -1       129 7.51479E-01
 -1       130 1.46556E+00
 -1       131 1.46556E+00
 -1       132 1.24940E+00
 -1       133 5.73999E-01
 -1       134 8.94296E-01
 -1       135 8.94296E-01
 -1       136 7.70822E-01
 -1       137 2.43638E+01
 -1       138 4.83485E+01
 -1       139 4.83485E+01
 -1       140 2.16262E+01
 -1       141 1.18942E+01
 -1       142 1.24800E+01
 -1       143 1.24800E+01
 -1       144 1.22380E+01
 -1       145 1.22021E+01
 -1       146 1.22021E+01
 -1       147 1.94933E+01
 -1       148 4.72498E+01
 -1       149 4.72498E+01
 -1       150 2.34164E+01
 -1       151 2.32807E+01
 -1       152 2.44612E+01
 -1       153 2.66923E+01
 -1       154 3.21640E+01
 -1       155 3.21640E+01
 -1       156 1.38025E+01
 -1       157 1.28737E+01
 -1       158 1.28737E+01
 -1       159 1.26916E+01
 -1       160 1.26068E+01
 -1       161 2.31073E+01
 -1       162 3.36783E+01
 -1       163 3.36783E+01
 -1       164 2.42109E+01
 -1       165 6.07777E+00
 -1       166 2.29820E+00
 -1       167 1.50853E+00
 -1       168 1.15770E+00
 -1       169 9.73327E-01
 -1       170 8.64163E-01
 -1       171 7.96006E-01
 -1       172 7.55735E-01
 -1       173 7.99401E-01
 -1       174 8.67176E-01
 -1       175 9.81114E-01
 -1       176 1.17179E+00
 -1       177 1.52743E+00
 -1       178 2.25943E+00
 -1       179 3.93337E+00
 -1       180 1.40388E+01
 -1       181 4.31755E+00
 -1       182 3.34052E+00
 -1       183 2.11089E+00
 -1       184 1.44668E+00
 -1       185 1.02501E+00
 -1       186 7.74821E-01
 -1       187 5.94946E-01
 -1       188 4.67369E-01
 -1       189 3.67175E-01
 -1       190 2.89047E-01
 -1       191 2.32178E-01
 -1       192 1.83904E-01
 -1       193 1.44059E-01
 -1       194 1.12016E-01
 -1       195 8.69393E-02
 -1       196 6.79155E-02
 -1       197 5.40380E-02
 -1       198 4.44401E-02
 -1       199 3.91045E-02
 -1       200 4.58035E-02
 -1       201 5.69673E-02
 -1       202 7.19147E-02
 -1       203 9.79076E-02
 -1       204 1.33364E-01
 -1       205 1.80624E-01
 -1       206 2.42451E-01
 -1       207 3.21835E-01
 -1       208 4.64319E-01
 -1       209 6.56068E-01
 -1       210 9.04595E-01
 -1       211 1.21101E+00
 -1       212 1.55997E+00
 -1       213 1.90547E+00
 -1       214 2.20572E+00
 -1       215 2.67342E+00
 -1       216 3.13891E+00
 -1       217 3.04639E+00
 -1       218 3.14629E+00
 -1       219 3.74093E+00
 -1       220 7.06613E+00
 -1       221 1.04366E+01
 -1       222 1.01404E+01
 -1       223 8.17303E+00
 -1       224 4.72901E+00
 -1       225 2.54254E+00
 -1       226 1.87706E+00
 -1       227 1.97815E+00
 -1       228 1.71482E+00
 -1       229 9.72061E-01
 -1       230 3.39558E+00
 -1       231 2.41723E+00
 -1       232 1.66710E+00
 -1       233 1.14710E+00
 -1       234 9.06326E-01
 -1       235 7.31433E-01
 -1       236 5.87750E-01
 -1       237 4.68030E-01
 -1       238 3.68359E-01
 -1       239 2.93910E-01
 -1       240 2.31910E-01
 -1       241 1.83660E-01
 -1       242 1.44246E-01
 -1       243 1.12499E-01
 -1       244 8.77338E-02
 -1       245 6.91992E-02
 -1       246 5.61552E-02
 -1       247 4.79155E-02
 -1       248 4.84888E-02
 -1       249 5.50224E-02
 -1       250 6.42411E-02
 -1       251 7.69971E-02
 -1       252 9.34384E-02
 -1       253 1.17687E-01
 -1       254 1.44699E-01
 -1       255 1.75790E-01
 -1       256 2.26531E-01
 -1       257 2.77782E-01
 -1       258 3.28709E-01
 -1       259 3.82280E-01
 -1       260 4.09774E-01
 -1       261 4.10404E-01
 -1       262 4.79667E-01
 -1       263 6.37833E-01
 -1       264 8.26711E-01
 -1       265 9.38233E-01
 -1       266 1.40877E+00
 -1       267 1.95863E+00
 -1       268 2.37540E+00
 -1       269 2.52416E+00
 -1       270 2.82899E+00
 -1       271 2.86063E+00
 -1       272 3.06347E+00
 -1       273 2.77031E+00
 -1       274 2.17547E+00
 -1       275 1.54954E+00
 -1       276 9.89976E-01
 -1       277 6.03085E-01
 -1       278 3.63936E-01
 -1       279 4.90213E-01
 -1       280 8.34722E-01
 -1       281 1.22846E+00
 -1       282 1.53159E+00
 -1       283 1.61776E+00
 -1       284 1.61776E+00
 -1       285 1.38451E+00
 -1       286 2.69183E+00
 -1       287 3.08864E+00
 -1       288 3.08864E+00
 -1       289 2.01466E+00
 -1       290 1.46879E+00
 -1       291 1.71799E+00
 -1       292 1.71799E+00
 -1       293 2.87347E+01
 -1       294 2.82331E+01
 -1       295 4.83485E+01
 -1       296 2.34295E+01
 -1       297 1.13443E+01
 -1       298 1.18942E+01
 -1       299 1.24800E+01
 -1       300 1.22380E+01
 -1       301 1.21206E+01
 -1       302 1.22021E+01
 -1       303 1.05395E+01
 -1       304 2.14218E+01
 -1       305 4.72498E+01
 -1       306 2.80906E+01
 -1       307 2.64141E+01
 -1       308 2.64141E+01
 -1       309 2.44612E+01
 -1       310 3.16762E+01
 -1       311 3.21640E+01
 -1       312 1.38025E+01
 -1       313 1.20191E+01
 -1       314 1.27133E+01
 -1       315 1.28737E+01
 -1       316 1.26916E+01
 -1       317 1.26068E+01
 -1       318 1.15883E+01
 -1       319 2.54109E+01
 -1       320 3.36783E+01
 -1       321 3.04216E+01
 -1       322 2.87347E+01
 -1       323 1.04683E+00
 -1       324 2.48013E+00
 -1       325 7.91891E-01
 -1       326 6.94199E-01
 -1       327 6.31744E-01
 -1       328 5.87587E-01
 -1       329 5.90820E-01
 -1       330 6.34567E-01
 -1       331 7.01326E-01
 -1       332 7.96573E-01
 -1       333 9.30718E-01
 -1       334 1.14508E+00
 -1       335 1.32983E+00
 -1       336 2.19648E+00
 -1       337 1.91271E+00
 -1       338 1.72870E+00
 -1       339 1.26687E+00
 -1       340 9.06464E-01
 -1       341 6.55293E-01
 -1       342 5.38024E-01
 -1       343 4.40782E-01
 -1       344 3.55065E-01
 -1       345 2.89475E-01
 -1       346 2.34078E-01
 -1       347 1.86479E-01
 -1       348 1.50983E-01
 -1       349 1.21626E-01
 -1       350 9.70474E-02
 -1       351 7.70225E-02
 -1       352 6.10807E-02
 -1       353 4.86073E-02
 -1       354 3.88923E-02
 -1       355 3.78425E-02
 -1       356 4.17471E-02
 -1       357 5.37676E-02
 -1       358 7.19147E-02
 -1       359 9.79076E-02
 -1       360 1.46523E-01
 -1       361 2.14213E-01
 -1       362 3.06814E-01
 -1       363 4.31761E-01
 -1       364 5.97430E-01
 -1       365 8.11898E-01
 -1       366 1.07998E+00
 -1       367 1.39734E+00
 -1       368 1.74072E+00
 -1       369 2.05560E+00
 -1       370 2.27669E+00
 -1       371 2.56083E+00
 -1       372 2.98999E+00
 -1       373 3.27702E+00
 -1       374 4.00792E+00
 -1       375 3.62032E+00
 -1       376 5.80886E+00
 -1       377 7.78568E+00
 -1       378 5.87696E+00
 -1       379 4.33206E+00
 -1       380 3.95301E+00
 -1       381 2.83551E+00
 -1       382 2.28266E+00
 -1       383 1.74931E+00
 -1       384 1.13372E+00
 -1       385 8.14105E-01
 -1       386 6.30405E-01
 -1       387 5.16087E-01
 -1       388 4.16187E-01
 -1       389 3.34984E-01
 -1       390 2.70656E-01
 -1       391 2.16008E-01
 -1       392 1.73825E-01
 -1       393 1.40301E-01
 -1       394 1.11928E-01
 -1       395 8.85777E-02
 -1       396 6.98117E-02
 -1       397 5.50189E-02
 -1       398 4.34906E-02
 -1       399 3.51815E-02
 -1       400 3.61549E-02
 -1       401 4.41143E-02
 -1       402 5.61761E-02
 -1       403 7.25553E-02
 -1       404 9.32226E-02
 -1       405 1.25617E-01
 -1       406 1.64642E-01
 -1       407 2.07025E-01
 -1       408 2.48682E-01
 -1       409 2.86989E-01
 -1       410 3.28709E-01
 -1       411 3.82280E-01
 -1       412 4.09774E-01
 -1       413 3.87355E-01
 -1       414 3.72298E-01
 -1       415 3.83976E-01
 -1       416 6.83884E-01
 -1       417 1.08668E+00
 -1       418 1.54165E+00
 -1       419 1.95863E+00
 -1       420 2.37540E+00
 -1       421 2.52416E+00
 -1       422 2.39018E+00
 -1       423 2.39589E+00
 -1       424 2.19368E+00
 -1       425 1.77106E+00
 -1       426 1.34538E+00
 -1       427 8.92434E-01
 -1       428 7.77048E-01
 -1       429 1.26444E+00
 -1       430 8.75568E-01
 -1       431 1.73431E+00
 -1       432 1.88128E+00
 -1       433 2.27429E+00
 -1       434 2.55366E+00
 -1       435 3.12206E+00
 -1       436 5.30018E+00
 -1       437 5.30018E+00
 -1       438 4.72281E+00
 -1       439 2.85216E+00
 -1       440 1.97002E+00
 -1       441 1.35769E+00
 -1       442 2.82331E+01
 -1       443 9.01839E+00
 -1       444 3.20325E+01
 -1       445 1.68891E+01
 -1       446 9.18694E-01
 -1       447 7.26531E+00
 -1       448 1.05992E+01
 -1       449 1.02611E+01
 -1       450 1.05281E+01
 -1       451 9.77845E+00
 -1       452 6.63201E+00
 -1       453 9.11424E+00
 -1       454 1.64817E+01
 -1       455 2.80906E+01
 -1       456 2.43510E+01
 -1       457 3.34143E+01
 -1       458 3.34143E+01
 -1       459 2.51428E+01
 -1       460 2.14141E+01
 -1       461 1.21362E+01
 -1       462 7.50031E+00
 -1       463 9.14089E+00
 -1       464 1.04283E+01
 -1       465 1.06068E+01
 -1       466 9.96266E+00
 -1       467 7.30397E+00
 -1       468 1.01450E+01
 -1       469 1.79022E+01
 -1       470 3.04216E+01
 -1       471 3.20325E+01
 -1       472 2.82780E+01
 -1       473 2.44137E+01
 -1       474 1.06068E+01
 -1       475 4.86272E-01
 -1       476 5.10097E-01
 -1       477 4.31573E-01
 -1       478 4.57545E-01
 -1       479 4.87254E-01
 -1       480 5.11183E-01
 -1       481 5.11183E-01
 -1       482 5.04000E-01
 -1       483 6.39486E-01
 -1       484 1.31572E+00
 -1       485 8.02679E-01
 -1       486 4.95352E+00
 -1       487 7.01694E-01
 -1       488 5.88181E-01
 -1       489 4.75751E-01
 -1       490 3.76973E-01
 -1       491 3.22207E-01
 -1       492 2.72026E-01
 -1       493 2.24544E-01
 -1       494 1.85910E-01
 -1       495 1.52162E-01
 -1       496 1.22775E-01
 -1       497 9.80049E-02
 -1       498 7.86255E-02
 -1       499 6.28659E-02
 -1       500 4.95472E-02
 -1       501 3.88923E-02
 -1       502 3.30145E-02
 -1       503 3.36643E-02
 -1       504 4.17471E-02
 -1       505 5.71035E-02
 -1       506 8.77282E-02
 -1       507 1.29070E-01
 -1       508 1.84778E-01
 -1       509 2.59420E-01
 -1       510 3.58652E-01
 -1       511 4.89336E-01
 -1       512 6.59510E-01
 -1       513 8.78057E-01
 -1       514 1.15378E+00
 -1       515 1.49332E+00
 -1       516 1.89736E+00
 -1       517 2.35581E+00
 -1       518 2.82949E+00
 -1       519 3.37450E+00
 -1       520 4.69893E+00
 -1       521 6.14489E+00
 -1       522 6.42005E+00
 -1       523 4.85885E+00
 -1       524 7.39456E+00
 -1       525 8.15194E+00
 -1       526 6.36233E+00
 -1       527 6.76763E+00
 -1       528 3.95301E+00
 -1       529 3.13317E+00
 -1       530 2.32357E+00
 -1       531 4.43715E-01
 -1       532 5.61420E-01
 -1       533 6.91129E-01
 -1       534 3.66238E-01
 -1       535 3.11353E-01
 -1       536 2.58282E-01
 -1       537 2.12829E-01
 -1       538 1.75053E-01
 -1       539 1.41689E-01
 -1       540 1.13238E-01
 -1       541 9.08185E-02
 -1       542 7.28046E-02
 -1       543 5.75966E-02
 -1       544 4.48039E-02
 -1       545 3.44601E-02
 -1       546 3.04004E-02
 -1       547 3.55115E-02
 -1       548 4.34364E-02
 -1       549 5.82373E-02
 -1       550 8.30946E-02
 -1       551 1.13050E-01
 -1       552 1.47912E-01
 -1       553 1.86474E-01
 -1       554 2.26036E-01
 -1       555 2.62506E-01
 -1       556 2.99925E-01
 -1       557 3.21946E-01
 -1       558 3.35844E-01
 -1       559 3.26758E-01
 -1       560 3.60007E-01
 -1       561 4.35107E-01
 -1       562 5.93324E-01
 -1       563 8.74862E-01
 -1       564 1.24682E+00
 -1       565 1.54541E+00
 -1       566 1.73952E+00
 -1       567 1.86196E+00
 -1       568 1.80852E+00
 -1       569 1.75268E+00
 -1       570 1.77691E+00
 -1       571 1.61780E+00
 -1       572 1.48941E+00
 -1       573 1.36408E+00
 -1       574 2.00588E+00
 -1       575 1.72041E+00
 -1       576 1.36408E+00
 -1       577 2.82780E+01
 -1       578 2.65023E+00
 -1       579 3.60900E+00
 -1       580 5.23700E+00
 -1       581 6.32219E+00
 -1       582 8.03757E+00
 -1       583 8.03757E+00
 -1       584 5.54908E+00
 -1       585 3.86320E+00
 -1       586 8.73745E-01
 -1       587 3.20325E+01
 -1       588 2.08157E+01
 -1       589 6.42005E+00
 -1       590 1.59513E+01
 -1       591 2.03461E+01
 -1       592 4.57417E-01
 -1       593 5.90202E+00
 -1       594 8.29606E+00
 -1       595 4.29960E+00
 -1       596 5.22290E+00
 -1       597 7.16388E+00
 -1       598 2.51428E+01
 -1       599 7.46843E+00
 -1       600 8.05645E+00
 -1       601 1.21982E+01
 -1       602 2.76818E+01
 -1       603 3.34143E+01
 -1       604 1.09613E+01
 -1       605 6.76763E+00
 -1       606 8.45623E+00
 -1       607 1.34207E+01
 -1       608 7.21719E-01
 -1       609 7.47274E-01
 -1       610 9.25774E+00
 -1       611 1.85221E+01
 -1       612 6.29737E-01
 -1       613 1.32082E+01
 -1       614 8.33529E+00
 -1       615 3.58361E-01
 -1       616 3.42743E-01
 -1       617 3.61421E-01
 -1       618 3.43644E-01
 -1       619 5.93643E-01
 -1       620 1.13957E+01
 -1       621 2.89406E+00
 -1       622 7.40796E+00
 -1       623 1.35191E+01
 -1       624 4.05046E-01
 -1       625 3.96696E-01
 -1       626 3.83418E-01
 -1       627 3.42580E-01
 -1       628 2.92924E-01
 -1       629 2.43217E-01
 -1       630 2.11997E-01
 -1       631 1.79481E-01
 -1       632 1.48475E-01
 -1       633 1.20519E-01
 -1       634 9.74046E-02
 -1       635 7.86255E-02
 -1       636 6.28659E-02
 -1       637 4.95472E-02
 -1       638 3.83812E-02
 -1       639 2.97498E-02
 -1       640 2.35239E-02
 -1       641 2.81395E-02
 -1       642 4.40038E-02
 -1       643 6.84650E-02
 -1       644 1.00268E-01
 -1       645 1.41808E-01
 -1       646 1.96000E-01
 -1       647 2.66432E-01
 -1       648 3.58652E-01
 -1       649 4.99403E-01
 -1       650 6.94409E-01
 -1       651 9.51037E-01
 -1       652 1.27965E+00
 -1       653 1.71236E+00
 -1       654 2.23113E+00
 -1       655 3.00020E+00
 -1       656 4.36512E+00
 -1       657 6.08616E+00
 -1       658 9.55342E+00
 -1       659 1.15058E+01
 -1       660 6.74556E+00
 -1       661 4.73944E+00
 -1       662 3.86737E-01
 -1       663 3.33055E-01
 -1       664 4.28853E-01
 -1       665 2.36629E-01
 -1       666 2.01768E-01
 -1       667 1.67763E-01
 -1       668 1.36707E-01
 -1       669 1.12461E-01
 -1       670 9.10858E-02
 -1       671 7.28046E-02
 -1       672 5.75966E-02
 -1       673 4.48039E-02
 -1       674 3.40635E-02
 -1       675 2.57490E-02
 -1       676 2.48302E-02
 -1       677 2.94801E-02
 -1       678 4.66847E-02
 -1       679 6.83791E-02
 -1       680 9.46252E-02
 -1       681 1.25832E-01
 -1       682 1.61862E-01
 -1       683 2.01700E-01
 -1       684 2.43788E-01
 -1       685 2.87598E-01
 -1       686 3.23763E-01
 -1       687 3.70168E-01
 -1       688 4.13094E-01
 -1       689 4.36018E-01
 -1       690 5.68707E-01
 -1       691 7.29261E-01
 -1       692 8.74862E-01
 -1       693 1.18395E+00
 -1       694 1.41010E+00
 -1       695 1.59597E+00
 -1       696 1.89145E+00
 -1       697 1.99919E+00
 -1       698 1.93764E+00
 -1       699 1.98167E+00
 -1       700 2.42915E+00
 -1       701 2.72388E+00
 -1       702 4.32442E+00
 -1       703 3.28544E+00
 -1       704 2.54451E+00
 -1       705 9.55196E+00
 -1       706 1.17001E+01
 -1       707 1.05978E+01
 -1       708 9.80094E+00
 -1       709 3.17775E+00
 -1       710 5.30394E+00
 -1       711 1.02925E+01
 -1       712 5.83521E+00
 -1       713 1.73357E+01
 -1       714 3.69078E+00
 -1       715 6.41338E+00
 -1       716 2.89406E+00
 -1       717 1.60647E+01
 -1       718 3.15414E+00
 -1       719 1.57371E+01
 -1       720 5.55840E+00
 -1       721 1.57258E+01
 -1       722 1.28348E+01
 -1       723 4.00708E+00
 -1       724 3.61421E-01
 -1       725 3.62448E-01
 -1       726 2.77647E-01
 -1       727 7.54872E+00
 -1       728 3.42441E-01
 -1       729 4.17808E-01
 -1       730 4.28346E-01
 -1       731 6.98789E+00
 -1       732 4.15456E-01
 -1       733 3.58595E+00
 -1       734 4.83667E+00
 -1       735 3.57863E-01
 -1       736 2.42004E-01
 -1       737 2.33632E-01
 -1       738 2.55031E-01
 -1       739 2.48082E-01
 -1       740 2.26226E-01
 -1       741 1.97851E-01
 -1       742 1.71251E-01
 -1       743 1.50027E-01
 -1       744 1.27710E-01
 -1       745 1.06194E-01
 -1       746 8.64925E-02
 -1       747 6.90147E-02
 -1       748 5.37538E-02
 -1       749 4.04142E-02
 -1       750 2.84979E-02
 -1       751 1.73503E-02
 -1       752 1.70873E-02
 -1       753 2.99253E-02
 -1       754 5.07218E-02
 -1       755 7.81076E-02
 -1       756 1.15242E-01
 -1       757 1.67198E-01
 -1       758 2.37494E-01
 -1       759 3.32397E-01
 -1       760 4.60259E-01
 -1       761 6.32385E-01
 -1       762 8.64465E-01
 -1       763 1.17892E+00
 -1       764 1.60845E+00
 -1       765 2.19867E+00
 -1       766 3.05075E+00
 -1       767 5.13387E+00
 -1       768 5.99089E+00
 -1       769 8.25280E+00
 -1       770 5.36215E+00
 -1       771 2.68826E-01
 -1       772 2.67884E-01
 -1       773 1.66248E-01
 -1       774 1.88634E-01
 -1       775 1.19803E-01
 -1       776 9.83118E-02
 -1       777 7.90885E-02
 -1       778 6.22821E-02
 -1       779 4.77021E-02
 -1       780 3.49205E-02
 -1       781 2.33463E-02
 -1       782 1.38714E-02
 -1       783 1.72073E-02
 -1       784 3.20775E-02
 -1       785 4.99489E-02
 -1       786 7.17587E-02
 -1       787 9.84392E-02
 -1       788 1.31403E-01
 -1       789 1.72056E-01
 -1       790 2.19192E-01
 -1       791 2.71234E-01
 -1       792 3.24438E-01
 -1       793 3.79369E-01
 -1       794 4.56928E-01
 -1       795 5.53068E-01
 -1       796 6.39059E-01
 -1       797 8.19533E-01
 -1       798 1.10045E+00
 -1       799 1.28390E+00
 -1       800 1.51384E+00
 -1       801 1.74891E+00
 -1       802 1.89145E+00
 -1       803 4.16116E+00
 -1       804 2.57854E+00
 -1       805 4.12336E+00
 -1       806 2.42915E+00
 -1       807 8.95219E+00
 -1       808 2.89406E+00
 -1       809 4.18018E+00
 -1       810 2.48456E+00
 -1       811 1.04702E+01
 -1       812 2.97430E+00
 -1       813 1.42911E-01
 -1       814 2.65588E-01
 -1       815 7.29422E+00
 -1       816 4.16116E+00
 -1       817 1.04702E+01
 -1       818 2.88111E-01
 -1       819 2.64162E+00
 -1       820 4.12336E+00
 -1       821 2.88111E-01
 -1       822 2.81224E-01
 -1       823 2.49430E-01
 -1       824 2.89258E+00
 -1       825 2.20579E-01
 -1       826 2.89258E+00
 -1       827 2.87579E+00
 -1       828 3.21999E+00
 -1       829 3.41067E+00
 -1       830 2.26805E-01
 -1       831 2.88487E-01
 -1       832 9.47663E+00
 -1       833 2.81468E-01
 -1       834 2.80115E-01
 -1       835 7.10326E+00
 -1       836 1.74316E-01
 -1       837 1.82131E-01
 -1       838 1.74861E-01
 -1       839 1.59126E-01
 -1       840 1.39443E-01
 -1       841 1.22876E-01
 -1       842 1.06401E-01
 -1       843 8.97016E-02
 -1       844 7.38453E-02
 -1       845 5.93589E-02
 -1       846 4.63733E-02
 -1       847 3.47451E-02
 -1       848 2.41299E-02
 -1       849 2.49853E-02
 -1       850 2.85156E-02
 -1       851 4.62443E-02
 -1       852 7.04250E-02
 -1       853 1.03010E-01
 -1       854 1.46073E-01
 -1       855 2.02939E-01
 -1       856 2.77937E-01
 -1       857 3.76888E-01
 -1       858 5.07990E-01
 -1       859 6.83613E-01
 -1       860 9.24031E-01
 -1       861 1.26544E+00
 -1       862 1.76070E+00
 -1       863 3.33073E+00
 -1       864 5.09316E+00
 -1       865 1.44680E-01
 -1       866 8.42383E-02
 -1       867 1.01227E-01
 -1       868 5.43666E-02
 -1       869 4.17603E-02
 -1       870 3.04183E-02
 -1       871 2.25340E-02
 -1       872 2.36833E-02
 -1       873 3.00586E-02
 -1       874 4.73282E-02
 -1       875 6.88262E-02
 -1       876 9.47874E-02
 -1       877 1.25388E-01
 -1       878 1.60124E-01
 -1       879 1.97365E-01
 -1       880 2.44275E-01
 -1       881 3.06923E-01
 -1       882 3.85795E-01
 -1       883 4.78789E-01
 -1       884 5.88107E-01
 -1       885 7.62775E-01
 -1       886 9.49839E-01
 -1       887 1.13646E+00
 -1       888 1.53801E+00
 -1       889 2.16412E+00
 -1       890 1.74891E+00
 -1       891 3.00393E+00
 -1       892 7.10326E+00
 -1       893 6.85116E-02
 -1       894 1.37917E-01
 -1       895 1.54702E-01
 -1       896 2.26886E+00
 -1       897 1.72446E-01
 -1       898 2.88487E-01
 -1       899 1.41855E-01
 -1       900 6.57782E+00
 -1       901 4.93180E+00
 -1       902 6.61233E+00
 -1       903 1.29322E-01
 -1       904 1.90404E-01
 -1       905 4.57951E+00
 -1       906 2.15654E-01
 -1       907 1.74253E-01
 -1       908 1.18687E-01
 -1       909 2.26886E+00
 -1       910 2.18077E-01
 -1       911 1.35197E-01
 -1       912 1.72704E-01
 -1       913 5.13332E+00
 -1       914 1.35769E-01
 -1       915 1.35092E-01
 -1       916 1.26251E-01
 -1       917 1.12944E-01
 -1       918 9.77371E-02
 -1       919 8.52473E-02
 -1       920 7.22997E-02
 -1       921 5.98223E-02
 -1       922 4.82908E-02
 -1       923 3.78887E-02
 -1       924 2.97884E-02
 -1       925 3.01043E-02
 -1       926 3.29157E-02
 -1       927 3.86877E-02
 -1       928 5.79078E-02
 -1       929 8.29757E-02
 -1       930 1.15286E-01
 -1       931 1.56685E-01
 -1       932 2.09367E-01
 -1       933 2.76008E-01
 -1       934 3.60068E-01
 -1       935 4.68444E-01
 -1       936 6.26554E-01
 -1       937 8.49482E-01
 -1       938 1.20558E+00
 -1       939 2.83435E+00
 -1       940 1.80752E-01
 -1       941 1.23435E-01
 -1       942 3.47240E-02
 -1       943 4.49372E-02
 -1       944 2.97132E-02
 -1       945 3.27499E-02
 -1       946 4.26953E-02
 -1       947 6.22666E-02
 -1       948 8.67033E-02
 -1       949 1.16821E-01
 -1       950 1.53208E-01
 -1       951 1.95963E-01
 -1       952 2.44275E-01
 -1       953 2.95728E-01
 -1       954 3.71889E-01
 -1       955 4.70166E-01
 -1       956 6.34036E-01
 -1       957 8.41523E-01
 -1       958 1.06193E+00
 -1       959 1.27638E+00
 -1       960 2.12934E+00
 -1       961 2.71160E+00
 -1       962 3.58221E+00
 -1       963 9.15032E-02
 -1       964 2.48456E+00
 -1       965 5.13332E+00
 -1       966 8.21324E-02
 -1       967 1.86191E-01
 -1       968 1.14054E-01
 -1       969 1.88030E-01
 -1       970 2.18077E-01
 -1       971 3.92274E+00
 -1       972 2.88603E-02
 -1       973 1.36779E-01
 -1       974 5.63004E-02
 -1       975 1.24575E-01
 -1       976 6.87623E-02
 -1       977 1.57008E-01
 -1       978 1.17851E-01
 -1       979 4.03478E+00
 -1       980 9.55024E-02
 -1       981 1.29322E-01
 -1       982 1.03031E-01
 -1       983 9.76310E-02
 -1       984 8.82492E-02
 -1       985 7.69831E-02
 -1       986 6.52548E-02
 -1       987 5.48204E-02
 -1       988 4.54990E-02
 -1       989 3.70139E-02
 -1       990 3.34086E-02
 -1       991 3.25501E-02
 -1       992 3.40857E-02
 -1       993 3.86877E-02
 -1       994 4.97901E-02
 -1       995 6.56558E-02
 -1       996 8.74753E-02
 -1       997 1.16899E-01
 -1       998 1.57972E-01
 -1       999 2.12741E-01
 -1      1000 2.85473E-01
 -1      1001 3.82005E-01
 -1      1002 5.10574E-01
 -1      1003 6.83190E-01
 -1      1004 9.16913E-01
 -1      1005 1.50124E+00
 -1      1006 5.17710E-02
 -1      1007 3.52369E-02
 -1      1008 4.13185E-02
 -1      1009 3.56290E-02
 -1      1010 7.16875E-02
 -1      1011 9.84113E-02
 -1      1012 1.32545E-01
 -1      1013 1.75627E-01
 -1      1014 2.29206E-01
 -1      1015 2.94535E-01
 -1      1016 3.71889E-01
 -1      1017 4.63722E-01
 -1      1018 6.13788E-01
 -1      1019 8.23600E-01
 -1      1020 1.24884E+00
 -1      1021 2.99518E+00
 -1      1022 4.03478E+00
 -1      1023 3.18991E+00
 -1      1024 2.83435E+00
 -1      1025 1.57008E-01
 -1      1026 1.01575E-01
 -1      1027 6.99333E-02
 -1      1028 6.23183E-02
 -1      1029 1.38291E-01
 -1      1030 1.09325E-01
 -1      1031 4.03478E+00
 -1      1032 3.28762E-02
 -1      1033 3.30144E-02
 -1      1034 8.97084E-02
 -1      1035 1.48355E-01
 -1      1036 1.01205E-01
 -1      1037 4.36508E-02
 -1      1038 7.44616E-02
 -1      1039 5.30825E-02
 -1      1040 1.16124E-01
 -1      1041 1.20919E-01
 -1      1042 1.42861E-01
 -1      1043 1.05699E-01
 -1      1044 1.08621E-01
 -1      1045 7.42988E-02
 -1      1046 7.18379E-02
 -1      1047 6.49542E-02
 -1      1048 6.06564E-02
 -1      1049 5.37996E-02
 -1      1050 4.68140E-02
 -1      1051 4.09616E-02
 -1      1052 3.63348E-02
 -1      1053 3.34086E-02
 -1      1054 3.40857E-02
 -1      1055 3.83552E-02
 -1      1056 4.72786E-02
 -1      1057 6.11656E-02
 -1      1058 8.02893E-02
 -1      1059 1.05728E-01
 -1      1060 1.38749E-01
 -1      1061 1.80811E-01
 -1      1062 2.33517E-01
 -1      1063 3.06941E-01
 -1      1064 4.55276E-01
 -1      1065 6.75182E-01
 -1      1066 1.00758E+00
 -1      1067 1.44934E+00
 -1      1068 8.47769E-02
 -1      1069 7.56562E-02
 -1      1070 6.61154E-02
 -1      1071 9.75458E-02
 -1      1072 4.13185E-02
 -1      1073 1.10675E-01
 -1      1074 1.52605E-01
 -1      1075 2.10099E-01
 -1      1076 2.89178E-01
 -1      1077 3.98259E-01
 -1      1078 5.48819E-01
 -1      1079 7.55545E-01
 -1      1080 1.03097E+00
 -1      1081 1.44934E+00
 -1      1082 2.33558E+00
 -1      1083 1.75409E+00
 -1      1084 3.30144E-02
 -1      1085 1.16279E-01
 -1      1086 8.66259E-02
 -1      1087 6.51648E-02
 -1      1088 5.07202E-02
 -1      1089 3.56290E-02
 -1      1090 5.76482E-02
 -1      1091 3.49339E-02
 -1      1092 5.17710E-02
 -1      1093 1.20919E-01
 -1      1094 3.88716E-02
 -1      1095 6.06564E-02
 -1      1096 4.42973E-02
 -1      1097 5.32466E-02
 -1      1098 7.89180E-02
 -1      1099 8.00555E-02
 -1      1100 6.90126E-02
 -1      1101 7.19015E-02
 -1      1102 7.66475E-02
 -1      1103 1.31430E+01
 -1      1104 8.40332E+00
 -1      1105 2.74381E+00
 -1      1106 1.55792E+00
 -1      1107 1.16900E+00
 -1      1108 9.72752E-01
 -1      1109 8.54120E-01
 -1      1110 7.81322E-01
 -1      1111 7.54763E-01
 -1      1112 7.84438E-01
 -1      1113 8.56992E-01
 -1      1114 9.76906E-01
 -1      1115 1.17979E+00
 -1      1116 1.56915E+00
 -1      1117 2.67018E+00
 -1      1118 6.07511E+00
 -1      1119 1.13402E+01
 -1      1120 1.31430E+01
 -1      1121 8.73027E+00
 -1      1122 3.82904E+00
 -1      1123 2.72570E+00
 -1      1124 1.73646E+00
 -1      1125 1.18793E+00
 -1      1126 8.94317E-01
 -1      1127 6.84883E-01
 -1      1128 5.24775E-01
 -1      1129 4.00763E-01
 -1      1130 3.07411E-01
 -1      1131 2.36111E-01
 -1      1132 1.79224E-01
 -1      1133 1.34726E-01
 -1      1134 1.00727E-01
 -1      1135 7.55381E-02
 -1      1136 5.76975E-02
 -1      1137 4.60723E-02
 -1      1138 4.00289E-02
 -1      1139 4.20817E-02
 -1      1140 5.13854E-02
 -1      1141 6.43335E-02
 -1      1142 8.07875E-02
 -1      1143 1.04658E-01
 -1      1144 1.42899E-01
 -1      1145 1.97882E-01
 -1      1146 2.71026E-01
 -1      1147 3.66561E-01
 -1      1148 4.88620E-01
 -1      1149 6.39804E-01
 -1      1150 8.18300E-01
 -1      1151 1.05844E+00
 -1      1152 1.40718E+00
 -1      1153 1.83702E+00
 -1      1154 2.36811E+00
 -1      1155 2.90617E+00
 -1      1156 3.13891E+00
 -1      1157 3.14260E+00
 -1      1158 3.44361E+00
 -1      1159 5.40353E+00
 -1      1160 8.75135E+00
 -1      1161 1.04366E+01
 -1      1162 1.02885E+01
 -1      1163 9.15671E+00
 -1      1164 5.83914E+00
 -1      1165 2.69115E+00
 -1      1166 1.92760E+00
 -1      1167 1.97815E+00
 -1      1168 1.84648E+00
 -1      1169 1.31747E+00
 -1      1170 1.40388E+01
 -1      1171 8.71720E+00
 -1      1172 2.90640E+00
 -1      1173 2.04217E+00
 -1      1174 1.40710E+00
 -1      1175 1.02671E+00
 -1      1176 8.18879E-01
 -1      1177 6.59592E-01
 -1      1178 5.27890E-01
 -1      1179 4.18194E-01
 -1      1180 3.31134E-01
 -1      1181 2.62910E-01
 -1      1182 2.06274E-01
 -1      1183 1.59959E-01
 -1      1184 1.23061E-01
 -1      1185 9.45603E-02
 -1      1186 7.34550E-02
 -1      1187 5.88299E-02
 -1      1188 4.98927E-02
 -1      1189 4.96984E-02
 -1      1190 5.78699E-02
 -1      1191 7.00476E-02
 -1      1192 8.52178E-02
 -1      1193 1.02217E-01
 -1      1194 1.22165E-01
 -1      1195 1.50061E-01
 -1      1196 1.84019E-01
 -1      1197 2.16667E-01
 -1      1198 2.42116E-01
 -1      1199 2.56696E-01
 -1      1200 2.91149E-01
 -1      1201 3.65729E-01
 -1      1202 4.45035E-01
 -1      1203 5.58750E-01
 -1      1204 7.32272E-01
 -1      1205 8.77091E-01
 -1      1206 1.06205E+00
 -1      1207 1.31358E+00
 -1      1208 1.56111E+00
 -1      1209 2.04828E+00
 -1      1210 2.61693E+00
 -1      1211 2.84481E+00
 -1      1212 2.96205E+00
 -1      1213 3.06347E+00
 -1      1214 2.91689E+00
 -1      1215 2.47289E+00
 -1      1216 1.86250E+00
 -1      1217 1.25932E+00
 -1      1218 7.86095E-01
 -1      1219 3.59836E-01
 -1      1220 2.00102E-01
 -1      1221 2.17851E-01
 -1      1222 2.33348E-01
 -1      1223 4.27743E-01
 -1      1224 6.49282E-01
 -1      1225 8.32293E-01
 -1      1226 9.06898E-01
 -1      1227 8.68410E-01
 -1      1228 7.90700E-01
 -1      1229 1.10852E+00
 -1      1230 1.46556E+00
 -1      1231 1.35748E+00
 -1      1232 9.11699E-01
 -1      1233 7.34147E-01
 -1      1234 8.94296E-01
 -1      1235 8.32559E-01
 -1      1236 8.45467E-01
 -1      1237 2.41821E+01
 -1      1238 3.63562E+01
 -1      1239 4.83485E+01
 -1      1240 3.49874E+01
 -1      1241 1.67602E+01
 -1      1242 1.21871E+01
 -1      1243 1.24800E+01
 -1      1244 1.23590E+01
 -1      1245 1.22201E+01
 -1      1246 1.22021E+01
 -1      1247 1.58477E+01
 -1      1248 3.33716E+01
 -1      1249 4.72498E+01
 -1      1250 3.53331E+01
 -1      1251 2.33486E+01
 -1      1252 2.38710E+01
 -1      1253 2.55767E+01
 -1      1254 2.94281E+01
 -1      1255 3.21640E+01
 -1      1256 2.29833E+01
 -1      1257 1.32579E+01
 -1      1258 1.27935E+01
 -1      1259 1.28737E+01
 -1      1260 1.27827E+01
 -1      1261 1.26492E+01
 -1      1262 1.78571E+01
 -1      1263 2.83928E+01
 -1      1264 3.36783E+01
 -1      1265 2.89446E+01
 -1      1266 2.41056E+01
 -1      1267 1.31430E+01
 -1      1268 4.87071E+00
 -1      1269 9.61038E+00
 -1      1270 2.06108E+00
 -1      1271 2.98093E+00
 -1      1272 4.18799E+00
 -1      1273 1.40020E+00
 -1      1274 1.66624E+00
 -1      1275 1.90336E+00
 -1      1276 1.10191E+00
 -1      1277 1.22479E+00
 -1      1278 1.33312E+00
 -1      1279 9.36357E-01
 -1      1280 1.00972E+00
 -1      1281 1.06552E+00
 -1      1282 8.36508E-01
 -1      1283 8.81775E-01
 -1      1284 9.18745E-01
 -1      1285 7.74899E-01
 -1      1286 8.02430E-01
 -1      1287 8.30084E-01
 -1      1288 7.55735E-01
 -1      1289 7.54763E-01
 -1      1290 7.75870E-01
 -1      1291 8.06271E-01
 -1      1292 7.77568E-01
 -1      1293 7.77568E-01
 -1      1294 8.84010E-01
 -1      1295 8.40159E-01
 -1      1296 8.33289E-01
 -1      1297 1.01704E+00
 -1      1298 9.40978E-01
 -1      1299 9.24145E-01
 -1      1300 1.23920E+00
 -1      1301 1.11238E+00
 -1      1302 1.07645E+00
 -1      1303 1.67956E+00
 -1      1304 1.41701E+00
 -1      1305 1.34961E+00
 -1      1306 2.88404E+00
 -1      1307 2.04556E+00
 -1      1308 1.89343E+00
 -1      1309 6.28746E+00
 -1      1310 3.72101E+00
 -1      1311 3.09640E+00
 -1      1312 1.40388E+01
 -1      1313 1.13402E+01
 -1      1314 8.98610E+00
 -1      1315 1.40388E+01
 -1      1316 8.73027E+00
 -1      1317 4.31755E+00
 -1      1318 3.82904E+00
 -1      1319 3.34052E+00
 -1      1320 3.82904E+00
 -1      1321 2.72570E+00
 -1      1322 2.11089E+00
 -1      1323 2.72570E+00
 -1      1324 1.77878E+00
 -1      1325 1.40436E+00
 -1      1326 1.77878E+00
 -1      1327 1.19352E+00
 -1      1328 1.01941E+00
 -1      1329 1.23584E+00
 -1      1330 8.94317E-01
 -1      1331 7.74821E-01
 -1      1332 8.99913E-01
 -1      1333 6.84883E-01
 -1      1334 5.94946E-01
 -1      1335 6.84883E-01
 -1      1336 5.31157E-01
 -1      1337 4.60987E-01
 -1      1338 5.31157E-01
 -1      1339 4.10890E-01
 -1      1340 3.57049E-01
 -1      1341 4.17272E-01
 -1      1342 3.17985E-01
 -1      1343 2.78474E-01
 -1      1344 3.28111E-01
 -1      1345 2.50039E-01
 -1      1346 2.18250E-01
 -1      1347 2.60613E-01
 -1      1348 1.94113E-01
 -1      1349 1.69015E-01
 -1      1350 2.08041E-01
 -1      1351 1.49092E-01
 -1      1352 1.29693E-01
 -1      1353 1.63981E-01
 -1      1354 1.13672E-01
 -1      1355 9.90721E-02
 -1      1356 1.28038E-01
 -1      1357 8.65335E-02
 -1      1358 7.59438E-02
 -1      1359 9.94778E-02
 -1      1360 6.64320E-02
 -1      1361 5.91810E-02
 -1      1362 7.74274E-02
 -1      1363 5.22423E-02
 -1      1364 4.78680E-02
 -1      1365 6.09768E-02
 -1      1366 4.30691E-02
 -1      1367 4.14000E-02
 -1      1368 4.92391E-02
 -1      1369 3.87321E-02
 -1      1370 4.24540E-02
 -1      1371 4.17723E-02
 -1      1372 4.58035E-02
 -1      1373 5.13854E-02
 -1      1374 4.24540E-02
 -1      1375 5.69673E-02
 -1      1376 6.43335E-02
 -1      1377 5.13854E-02
 -1      1378 7.18072E-02
 -1      1379 8.08950E-02
 -1      1380 6.44410E-02
 -1      1381 9.38914E-02
 -1      1382 1.08674E-01
 -1      1383 8.49111E-02
 -1      1384 1.26402E-01
 -1      1385 1.49860E-01
 -1      1386 1.15636E-01
 -1      1387 1.73490E-01
 -1      1388 2.05015E-01
 -1      1389 1.56994E-01
 -1      1390 2.35929E-01
 -1      1391 2.77548E-01
 -1      1392 2.11537E-01
 -1      1393 3.17240E-01
 -1      1394 3.71156E-01
 -1      1395 2.82143E-01
 -1      1396 4.42398E-01
 -1      1397 5.10541E-01
 -1      1398 3.93077E-01
 -1      1399 6.06416E-01
 -1      1400 6.89457E-01
 -1      1401 5.60194E-01
 -1      1402 8.13720E-01
 -1      1403 9.09175E-01
 -1      1404 7.80331E-01
 -1      1405 1.06238E+00
 -1      1406 1.20706E+00
 -1      1407 1.05780E+00
 -1      1408 1.38155E+00
 -1      1409 1.58560E+00
 -1      1410 1.38549E+00
 -1      1411 1.75835E+00
 -1      1412 1.98414E+00
 -1      1413 1.73272E+00
 -1      1414 2.13426E+00
 -1      1415 2.43957E+00
 -1      1416 2.05559E+00
 -1      1417 2.67342E+00
 -1      1418 2.90617E+00
 -1      1419 2.43957E+00
 -1      1420 3.13891E+00
 -1      1421 3.13891E+00
 -1      1422 2.90617E+00
 -1      1423 3.09265E+00
 -1      1424 3.09634E+00
 -1      1425 3.09265E+00
 -1      1426 3.14629E+00
 -1      1427 3.44361E+00
 -1      1428 3.09634E+00
 -1      1429 3.74093E+00
 -1      1430 5.40353E+00
 -1      1431 3.44361E+00
 -1      1432 7.06613E+00
 -1      1433 8.75135E+00
 -1      1434 5.40353E+00
 -1      1435 1.04366E+01
 -1      1436 1.04366E+01
 -1      1437 8.75135E+00
 -1      1438 1.02885E+01
 -1      1439 1.01404E+01
 -1      1440 1.02885E+01
 -1      1441 9.15671E+00
 -1      1442 8.17303E+00
 -1      1443 9.15671E+00
 -1      1444 6.45102E+00
 -1      1445 4.11713E+00
 -1      1446 6.45102E+00
 -1      1447 3.02390E+00
 -1      1448 2.20980E+00
 -1      1449 3.63577E+00
 -1      1450 1.87706E+00
 -1      1451 1.92760E+00
 -1      1452 2.20980E+00
 -1      1453 1.97815E+00
 -1      1454 1.97815E+00
 -1      1455 1.92760E+00
 -1      1456 1.84648E+00
 -1      1457 1.71482E+00
 -1      1458 1.84648E+00
 -1      1459 1.34344E+00
 -1      1460 9.46086E-01
 -1      1461 8.71442E-01
 -1      1462 1.34344E+00
 -1      1463 3.39558E+00
 -1      1464 8.71720E+00
 -1      1465 8.71720E+00
 -1      1466 2.41723E+00
 -1      1467 2.90640E+00
 -1      1468 2.90640E+00
 -1      1469 1.66710E+00
 -1      1470 2.04217E+00
 -1      1471 2.04217E+00
 -1      1472 1.14710E+00
 -1      1473 1.40710E+00
 -1      1474 1.40710E+00
 -1      1475 9.06326E-01
 -1      1476 1.02671E+00
 -1      1477 1.02671E+00
 -1      1478 7.31433E-01
 -1      1479 8.18879E-01
 -1      1480 8.18879E-01
 -1      1481 5.87750E-01
 -1      1482 6.59592E-01
 -1      1483 6.59592E-01
 -1      1484 4.68030E-01
 -1      1485 5.27890E-01
 -1      1486 5.27890E-01
 -1      1487 3.68359E-01
 -1      1488 4.18194E-01
 -1      1489 4.18194E-01
 -1      1490 2.93910E-01
 -1      1491 3.31134E-01
 -1      1492 3.31134E-01
 -1      1493 2.31910E-01
 -1      1494 2.62910E-01
 -1      1495 2.62910E-01
 -1      1496 1.82148E-01
 -1      1497 2.07785E-01
 -1      1498 2.07785E-01
 -1      1499 1.41764E-01
 -1      1500 1.62441E-01
 -1      1501 1.63953E-01
 -1      1502 1.09670E-01
 -1      1503 1.25890E-01
 -1      1504 1.28373E-01
 -1      1505 8.50071E-02
 -1      1506 9.72871E-02
 -1      1507 1.00116E-01
 -1      1508 6.69144E-02
 -1      1509 7.57398E-02
 -1      1510 7.84665E-02
 -1      1511 5.45927E-02
 -1      1512 6.03924E-02
 -1      1513 6.26772E-02
 -1      1514 4.73354E-02
 -1      1515 5.04729E-02
 -1      1516 5.20354E-02
 -1      1517 5.05652E-02
 -1      1518 4.76220E-02
 -1      1519 4.82022E-02
 -1      1520 5.90603E-02
 -1      1521 5.38320E-02
 -1      1522 5.17556E-02
 -1      1523 7.06191E-02
 -1      1524 6.36696E-02
 -1      1525 5.96318E-02
 -1      1526 8.52178E-02
 -1      1527 7.69971E-02
 -1      1528 7.06191E-02
 -1      1529 1.02217E-01
 -1      1530 9.34384E-02
 -1      1531 8.52178E-02
 -1      1532 1.25511E-01
 -1      1533 1.14342E-01
 -1      1534 1.05563E-01
 -1      1535 1.55744E-01
 -1      1536 1.39016E-01
 -1      1537 1.31193E-01
 -1      1538 1.88520E-01
 -1      1539 1.71289E-01
 -1      1540 1.60245E-01
 -1      1541 2.29307E-01
 -1      1542 2.13890E-01
 -1      1543 2.01160E-01
 -1      1544 2.64965E-01
 -1      1545 2.54933E-01
 -1      1546 2.52156E-01
 -1      1547 2.94976E-01
 -1      1548 2.90428E-01
 -1      1549 3.03246E-01
 -1      1550 3.51668E-01
 -1      1551 3.21762E-01
 -1      1552 3.55495E-01
 -1      1553 4.10089E-01
 -1      1554 3.65414E-01
 -1      1555 3.96027E-01
 -1      1556 4.45035E-01
 -1      1557 4.10404E-01
 -1      1558 4.10089E-01
 -1      1559 5.58750E-01
 -1      1560 4.79667E-01
 -1      1561 4.45035E-01
 -1      1562 7.32272E-01
 -1      1563 6.37833E-01
 -1      1564 5.58750E-01
 -1      1565 8.77091E-01
 -1      1566 8.26711E-01
 -1      1567 7.32272E-01
 -1      1568 1.06743E+00
 -1      1569 9.32852E-01
 -1      1570 8.82472E-01
 -1      1571 1.41965E+00
 -1      1572 1.30270E+00
 -1      1573 1.17350E+00
 -1      1574 1.82517E+00
 -1      1575 1.69458E+00
 -1      1576 1.68370E+00
 -1      1577 2.39013E+00
 -1      1578 2.03355E+00
 -1      1579 2.16701E+00
 -1      1580 2.67657E+00
 -1      1581 2.46451E+00
 -1      1582 2.44978E+00
 -1      1583 2.84481E+00
 -1      1584 2.82899E+00
 -1      1585 2.67657E+00
 -1      1586 2.96205E+00
 -1      1587 2.86063E+00
 -1      1588 2.84481E+00
 -1      1589 3.06347E+00
 -1      1590 3.06347E+00
 -1      1591 2.96205E+00
 -1      1592 2.77031E+00
 -1      1593 2.91689E+00
 -1      1594 2.91689E+00
 -1      1595 2.17547E+00
 -1      1596 2.47289E+00
 -1      1597 2.47289E+00
 -1      1598 1.54954E+00
 -1      1599 1.86250E+00
 -1      1600 1.86250E+00
 -1      1601 9.79540E-01
 -1      1602 1.26976E+00
 -1      1603 1.26976E+00
 -1      1604 6.03085E-01
 -1      1605 7.86095E-01
 -1      1606 7.96530E-01
 -1      1607 4.43351E-01
 -1      1608 2.58010E-01
 -1      1609 3.23776E-01
 -1      1610 4.02412E-01
 -1      1611 3.21149E-01
 -1      1612 4.27074E-01
 -1      1613 6.87799E-01
 -1      1614 5.74666E-01
 -1      1615 6.62468E-01
 -1      1616 9.93076E-01
 -1      1617 8.84669E-01
 -1      1618 1.03159E+00
 -1      1619 1.21925E+00
 -1      1620 1.14464E+00
 -1      1621 1.38003E+00
 -1      1622 1.26233E+00
 -1      1623 1.26233E+00
 -1      1624 1.57468E+00
 -1      1625 1.22384E+00
 -1      1626 1.26233E+00
 -1      1627 1.61776E+00
 -1      1628 1.06800E+00
 -1      1629 1.10722E+00
 -1      1630 1.50114E+00
 -1      1631 2.07869E+00
 -1      1632 1.72165E+00
 -1      1633 2.03817E+00
 -1      1634 2.27710E+00
 -1      1635 2.27710E+00
 -1      1636 2.89024E+00
 -1      1637 2.16902E+00
 -1      1638 2.27710E+00
 -1      1639 3.08864E+00
 -1      1640 1.29433E+00
 -1      1641 1.63203E+00
 -1      1642 2.55165E+00
 -1      1643 1.18154E+00
 -1      1644 1.02139E+00
 -1      1645 1.74172E+00
 -1      1646 1.30615E+00
 -1      1647 1.30615E+00
 -1      1648 1.59339E+00
 -1      1649 1.24441E+00
 -1      1650 1.30615E+00
 -1      1651 1.71799E+00
 -1      1652 1.34503E+00
 -1      1653 2.65493E+01
 -1      1654 2.63675E+01
 -1      1655 3.82908E+01
 -1      1656 2.62985E+01
 -1      1657 4.83485E+01
 -1      1658 4.83485E+01
 -1      1659 2.25279E+01
 -1      1660 3.58890E+01
 -1      1661 1.16192E+01
 -1      1662 1.64852E+01
 -1      1663 1.21871E+01
 -1      1664 1.18942E+01
 -1      1665 1.24800E+01
 -1      1666 1.24800E+01
 -1      1667 1.22380E+01
 -1      1668 1.23590E+01
 -1      1669 1.21614E+01
 -1      1670 1.21793E+01
 -1      1671 1.22021E+01
 -1      1672 1.22021E+01
 -1      1673 1.50164E+01
 -1      1674 1.13708E+01
 -1      1675 3.43358E+01
 -1      1676 2.04576E+01
 -1      1677 4.72498E+01
 -1      1678 4.72498E+01
 -1      1679 2.57535E+01
 -1      1680 3.76702E+01
 -1      1681 2.48474E+01
 -1      1682 2.49153E+01
 -1      1683 2.54377E+01
 -1      1684 2.48474E+01
 -1      1685 2.55767E+01
 -1      1686 2.44612E+01
 -1      1687 3.19201E+01
 -1      1688 2.91842E+01
 -1      1689 3.21640E+01
 -1      1690 3.21640E+01
 -1      1691 1.38025E+01
 -1      1692 2.29833E+01
 -1      1693 1.23662E+01
 -1      1694 1.29108E+01
 -1      1695 1.27935E+01
 -1      1696 1.27133E+01
 -1      1697 1.28737E+01
 -1      1698 1.28737E+01
 -1      1699 1.26916E+01
 -1      1700 1.27827E+01
 -1      1701 1.26068E+01
 -1      1702 1.26492E+01
 -1      1703 1.73478E+01
 -1      1704 1.20976E+01
 -1      1705 2.95446E+01
 -1      1706 2.42591E+01
 -1      1707 3.36783E+01
 -1      1708 3.36783E+01
 -1      1709 2.73163E+01
 -1      1710 3.20499E+01
 -1      1711 2.63675E+01
 -1      1712 2.64728E+01
 -1      1713 3.58890E+01
 -1      1714 2.87347E+01
 -1      1715 4.43351E-01
 -1      1716 4.83511E-01
 -1      1717 2.84839E+01
 -1      1718 3.82908E+01
 -1      1719 1.73869E+01
 -1      1720 1.16192E+01
 -1      1721 1.21871E+01
 -1      1722 1.23590E+01
 -1      1723 1.21793E+01
 -1      1724 1.21614E+01
 -1      1725 1.13708E+01
 -1      1726 1.59807E+01
 -1      1727 3.43358E+01
 -1      1728 3.76702E+01
 -1      1729 2.72524E+01
 -1      1730 2.64141E+01
 -1      1731 2.54377E+01
 -1      1732 2.80687E+01
 -1      1733 3.19201E+01
 -1      1734 2.29833E+01
 -1      1735 1.29108E+01
 -1      1736 1.23662E+01
 -1      1737 1.27935E+01
 -1      1738 1.27827E+01
 -1      1739 1.26492E+01
 -1      1740 1.20976E+01
 -1      1741 1.84996E+01
 -1      1742 2.95446E+01
 -1      1743 3.20499E+01
 -1      1744 2.95782E+01
 -1      1745 9.61038E+00
 -1      1746 1.27768E+00
 -1      1747 1.67252E+00
 -1      1748 2.38916E+00
 -1      1749 4.27895E+00
 -1      1750 1.76348E+00
 -1      1751 8.82609E-01
 -1      1752 9.74798E-01
 -1      1753 7.79181E-01
 -1      1754 8.33763E-01
 -1      1755 7.43045E-01
 -1      1756 7.13875E-01
 -1      1757 7.47953E-01
 -1      1758 6.62971E-01
 -1      1759 6.71661E-01
 -1      1760 6.91797E-01
 -1      1761 6.09665E-01
 -1      1762 6.95111E-01
 -1      1763 6.73277E-01
 -1      1764 5.89204E-01
 -1      1765 7.50872E-01
 -1      1766 7.16984E-01
 -1      1767 6.12694E-01
 -1      1768 8.41220E-01
 -1      1769 7.84251E-01
 -1      1770 6.67946E-01
 -1      1771 9.84183E-01
 -1      1772 8.88843E-01
 -1      1773 7.48949E-01
 -1      1774 1.22907E+00
 -1      1775 1.05126E+00
 -1      1776 8.63645E-01
 -1      1777 1.70225E+00
 -1      1778 1.33625E+00
 -1      1779 1.03790E+00
 -1      1780 2.63160E+00
 -1      1781 1.79463E+00
 -1      1782 1.23745E+00
 -1      1783 8.11765E+00
 -1      1784 3.06492E+00
 -1      1785 1.76315E+00
 -1      1786 2.79603E+00
 -1      1787 5.19766E+00
 -1      1788 2.16497E+00
 -1      1789 2.65414E+00
 -1      1790 2.05459E+00
 -1      1791 3.39884E+00
 -1      1792 2.53461E+00
 -1      1793 1.91979E+00
 -1      1794 1.68888E+00
 -1      1795 1.35677E+00
 -1      1796 1.49779E+00
 -1      1797 1.17657E+00
 -1      1798 9.65735E-01
 -1      1799 1.08667E+00
 -1      1800 8.40149E-01
 -1      1801 7.15057E-01
 -1      1802 7.80879E-01
 -1      1803 6.56422E-01
 -1      1804 5.66485E-01
 -1      1805 5.96658E-01
 -1      1806 5.17864E-01
 -1      1807 4.54076E-01
 -1      1808 4.89403E-01
 -1      1809 4.11217E-01
 -1      1810 3.61120E-01
 -1      1811 3.97924E-01
 -1      1812 3.28325E-01
 -1      1813 2.89261E-01
 -1      1814 3.22270E-01
 -1      1815 2.61563E-01
 -1      1816 2.33128E-01
 -1      1817 2.61776E-01
 -1      1818 2.09329E-01
 -1      1819 1.85192E-01
 -1      1820 2.10279E-01
 -1      1821 1.67444E-01
 -1      1822 1.47521E-01
 -1      1823 1.68731E-01
 -1      1824 1.32842E-01
 -1      1825 1.16821E-01
 -1      1826 1.36304E-01
 -1      1827 1.04532E-01
 -1      1828 9.19933E-02
 -1      1829 1.09336E-01
 -1      1830 8.19809E-02
 -1      1831 7.24690E-02
 -1      1832 8.70349E-02
 -1      1833 6.44981E-02
 -1      1834 5.75594E-02
 -1      1835 6.90516E-02
 -1      1836 5.13227E-02
 -1      1837 4.65237E-02
 -1      1838 5.48440E-02
 -1      1839 4.16662E-02
 -1      1840 3.89984E-02
 -1      1841 4.37498E-02
 -1      1842 3.84735E-02
 -1      1843 4.18230E-02
 -1      1844 3.83674E-02
 -1      1845 4.37753E-02
 -1      1846 4.93572E-02
 -1      1847 3.97948E-02
 -1      1848 5.53675E-02
 -1      1849 6.28412E-02
 -1      1850 4.77573E-02
 -1      1851 7.19147E-02
 -1      1852 8.49111E-02
 -1      1853 6.28412E-02
 -1      1854 9.79076E-02
 -1      1855 1.15636E-01
 -1      1856 8.49111E-02
 -1      1857 1.39943E-01
 -1      1858 1.63573E-01
 -1      1859 1.22215E-01
 -1      1860 1.97419E-01
 -1      1861 2.28332E-01
 -1      1862 1.80368E-01
 -1      1863 2.74633E-01
 -1      1864 3.14325E-01
 -1      1865 2.60514E-01
 -1      1866 3.76798E-01
 -1      1867 4.48040E-01
 -1      1868 3.69287E-01
 -1      1869 5.30874E-01
 -1      1870 6.26749E-01
 -1      1871 5.14595E-01
 -1      1872 7.33983E-01
 -1      1873 8.58246E-01
 -1      1874 7.04664E-01
 -1      1875 9.92287E-01
 -1      1876 1.14550E+00
 -1      1877 9.45939E-01
 -1      1878 1.30417E+00
 -1      1879 1.47866E+00
 -1      1880 1.23866E+00
 -1      1881 1.65035E+00
 -1      1882 1.82310E+00
 -1      1883 1.56903E+00
 -1      1884 1.98054E+00
 -1      1885 2.13066E+00
 -1      1886 1.89816E+00
 -1      1887 2.24120E+00
 -1      1888 2.47506E+00
 -1      1889 2.16615E+00
 -1      1890 2.61713E+00
 -1      1891 2.84987E+00
 -1      1892 2.41876E+00
 -1      1893 3.06445E+00
 -1      1894 3.01819E+00
 -1      1895 2.77541E+00
 -1      1896 3.16170E+00
 -1      1897 3.21166E+00
 -1      1898 3.13350E+00
 -1      1899 3.57711E+00
 -1      1900 3.87443E+00
 -1      1901 3.64247E+00
 -1      1902 3.68062E+00
 -1      1903 5.34322E+00
 -1      1904 3.81412E+00
 -1      1905 6.43750E+00
 -1      1906 8.12272E+00
 -1      1907 4.71459E+00
 -1      1908 9.11113E+00
 -1      1909 8.96304E+00
 -1      1910 6.79727E+00
 -1      1911 8.00867E+00
 -1      1912 7.02499E+00
 -1      1913 6.83132E+00
 -1      1914 6.25254E+00
 -1      1915 4.53053E+00
 -1      1916 5.10451E+00
 -1      1917 4.34101E+00
 -1      1918 3.24778E+00
 -1      1919 4.14253E+00
 -1      1920 2.68902E+00
 -1      1921 2.35628E+00
 -1      1922 3.39426E+00
 -1      1923 2.07986E+00
 -1      1924 2.13040E+00
 -1      1925 2.55909E+00
 -1      1926 1.86373E+00
 -1      1927 1.73207E+00
 -1      1928 2.01599E+00
 -1      1929 1.71641E+00
 -1      1930 1.14041E+00
 -1      1931 1.40041E+00
 -1      1932 8.60216E-01
 -1      1933 9.80603E-01
 -1      1934 9.73911E-01
 -1      1935 6.80919E-01
 -1      1936 7.68366E-01
 -1      1937 7.22255E-01
 -1      1938 5.51919E-01
 -1      1939 6.23760E-01
 -1      1940 5.73246E-01
 -1      1941 4.42108E-01
 -1      1942 5.01969E-01
 -1      1943 4.66137E-01
 -1      1944 3.51672E-01
 -1      1945 4.01507E-01
 -1      1946 3.75586E-01
 -1      1947 2.82283E-01
 -1      1948 3.19508E-01
 -1      1949 3.02820E-01
 -1      1950 2.23959E-01
 -1      1951 2.54959E-01
 -1      1952 2.43332E-01
 -1      1953 1.78743E-01
 -1      1954 2.02868E-01
 -1      1955 1.94917E-01
 -1      1956 1.42274E-01
 -1      1957 1.61980E-01
 -1      1958 1.57063E-01
 -1      1959 1.12214E-01
 -1      1960 1.28087E-01
 -1      1961 1.26115E-01
 -1      1962 8.81558E-02
 -1      1963 1.00538E-01
 -1      1964 1.00253E-01
 -1      1965 6.95054E-02
 -1      1966 7.87728E-02
 -1      1967 7.91947E-02
 -1      1968 5.55871E-02
 -1      1969 6.21090E-02
 -1      1970 6.24153E-02
 -1      1971 4.57030E-02
 -1      1972 4.98229E-02
 -1      1973 4.92547E-02
 -1      1974 4.18352E-02
 -1      1975 4.15485E-02
 -1      1976 3.93360E-02
 -1      1977 4.55887E-02
 -1      1978 4.23218E-02
 -1      1979 3.56682E-02
 -1      1980 5.41777E-02
 -1      1981 4.95683E-02
 -1      1982 4.01346E-02
 -1      1983 6.65866E-02
 -1      1984 6.02086E-02
 -1      1985 5.01452E-02
 -1      1986 8.29969E-02
 -1      1987 7.47762E-02
 -1      1988 6.43657E-02
 -1      1989 1.05455E-01
 -1      1990 9.33305E-02
 -1      1991 8.28890E-02
 -1      1992 1.35158E-01
 -1      1993 1.21652E-01
 -1      1994 1.09420E-01
 -1      1995 1.70216E-01
 -1      1996 1.54670E-01
 -1      1997 1.45130E-01
 -1      1998 2.16778E-01
 -1      1999 1.91408E-01
 -1      2000 1.85834E-01
 -1      2001 2.63232E-01
 -1      2002 2.37606E-01
 -1      2003 2.27854E-01
 -1      2004 3.07849E-01
 -1      2005 2.82386E-01
 -1      2006 2.67836E-01
 -1      2007 3.55495E-01
 -1      2008 3.28709E-01
 -1      2009 3.07849E-01
 -1      2010 3.96027E-01
 -1      2011 3.82280E-01
 -1      2012 3.55495E-01
 -1      2013 4.10089E-01
 -1      2014 4.09774E-01
 -1      2015 3.96027E-01
 -1      2016 4.33511E-01
 -1      2017 3.98879E-01
 -1      2018 3.98564E-01
 -1      2019 5.05066E-01
 -1      2020 4.25982E-01
 -1      2021 3.79827E-01
 -1      2022 6.05344E-01
 -1      2023 5.10904E-01
 -1      2024 3.78137E-01
 -1      2025 8.11058E-01
 -1      2026 7.55298E-01
 -1      2027 5.33930E-01
 -1      2028 1.24773E+00
 -1      2029 1.01246E+00
 -1      2030 8.85282E-01
 -1      2031 1.75014E+00
 -1      2032 1.47521E+00
 -1      2033 1.31417E+00
 -1      2034 2.16701E+00
 -1      2035 1.95863E+00
 -1      2036 1.75014E+00
 -1      2037 2.44978E+00
 -1      2038 2.37540E+00
 -1      2039 2.16701E+00
 -1      2040 2.67657E+00
 -1      2041 2.52416E+00
 -1      2042 2.44978E+00
 -1      2043 2.62541E+00
 -1      2044 2.60958E+00
 -1      2045 2.45717E+00
 -1      2046 2.72968E+00
 -1      2047 2.62826E+00
 -1      2048 2.39303E+00
 -1      2049 2.48200E+00
 -1      2050 2.62858E+00
 -1      2051 2.29478E+00
 -1      2052 1.97326E+00
 -1      2053 2.27069E+00
 -1      2054 1.98237E+00
 -1      2055 1.44746E+00
 -1      2056 1.76042E+00
 -1      2057 1.55822E+00
 -1      2058 9.41205E-01
 -1      2059 1.22099E+00
 -1      2060 1.11891E+00
 -1      2061 6.90067E-01
 -1      2062 8.83512E-01
 -1      2063 8.34741E-01
 -1      2064 5.70492E-01
 -1      2065 1.24645E+00
 -1      2066 1.04958E+00
 -1      2067 8.55145E-01
 -1      2068 6.82891E-01
 -1      2069 1.07000E+00
 -1      2070 6.33631E-01
 -1      2071 1.63295E+00
 -1      2072 1.48139E+00
 -1      2073 1.49937E+00
 -1      2074 1.74952E+00
 -1      2075 1.70644E+00
 -1      2076 1.80780E+00
 -1      2077 1.94603E+00
 -1      2078 1.94603E+00
 -1      2079 2.07778E+00
 -1      2080 1.96908E+00
 -1      2081 2.08571E+00
 -1      2082 2.41397E+00
 -1      2083 2.90694E+00
 -1      2084 2.25329E+00
 -1      2085 2.83786E+00
 -1      2086 4.19441E+00
 -1      2087 3.99600E+00
 -1      2088 4.21112E+00
 -1      2089 4.19441E+00
 -1      2090 4.19441E+00
 -1      2091 5.30018E+00
 -1      2092 3.36873E+00
 -1      2093 3.90573E+00
 -1      2094 5.01149E+00
 -1      2095 2.16047E+00
 -1      2096 2.43341E+00
 -1      2097 3.78748E+00
 -1      2098 1.84401E+00
 -1      2099 1.71941E+00
 -1      2100 2.41109E+00
 -1      2101 1.51239E+00
 -1      2102 1.88746E+00
 -1      2103 1.63520E+00
 -1      2104 1.24570E+00
 -1      2105 3.82908E+01
 -1      2106 2.82331E+01
 -1      2107 1.01813E+01
 -1      2108 1.62239E+01
 -1      2109 3.03836E+01
 -1      2110 3.03836E+01
 -1      2111 2.01593E+01
 -1      2112 3.26188E+01
 -1      2113 2.25611E+01
 -1      2114 1.29538E+01
 -1      2115 1.03820E+00
 -1      2116 1.21361E+00
 -1      2117 9.82763E-01
 -1      2118 8.55292E-01
 -1      2119 9.57973E+00
 -1      2120 9.30479E+00
 -1      2121 1.15396E+01
 -1      2122 1.12467E+01
 -1      2123 8.93224E+00
 -1      2124 1.12496E+01
 -1      2125 1.13706E+01
 -1      2126 1.13243E+01
 -1      2127 1.13830E+01
 -1      2128 1.09903E+01
 -1      2129 1.09495E+01
 -1      2130 1.01533E+01
 -1      2131 8.58578E+00
 -1      2132 9.41708E+00
 -1      2133 1.52680E+01
 -1      2134 9.82689E+00
 -1      2135 3.18657E+01
 -1      2136 1.89518E+01
 -1      2137 2.80906E+01
 -1      2138 3.76702E+01
 -1      2139 2.53826E+01
 -1      2140 2.62208E+01
 -1      2141 2.99142E+01
 -1      2142 2.99142E+01
 -1      2143 2.88827E+01
 -1      2144 2.89378E+01
 -1      2145 2.99142E+01
 -1      2146 2.84095E+01
 -1      2147 2.48020E+01
 -1      2148 2.67891E+01
 -1      2149 2.65452E+01
 -1      2150 1.29694E+01
 -1      2151 2.21501E+01
 -1      2152 1.67752E+01
 -1      2153 9.75971E+00
 -1      2154 1.06514E+01
 -1      2155 1.09271E+01
 -1      2156 1.05800E+01
 -1      2157 1.16510E+01
 -1      2158 1.15708E+01
 -1      2159 9.78458E+00
 -1      2160 1.16492E+01
 -1      2161 1.17403E+01
 -1      2162 1.12848E+01
 -1      2163 1.13271E+01
 -1      2164 9.44614E+00
 -1      2165 9.95540E+00
 -1      2166 1.77780E+01
 -1      2167 1.08666E+01
 -1      2168 2.57902E+01
 -1      2169 2.16566E+01
 -1      2170 3.04216E+01
 -1      2171 3.20499E+01
 -1      2172 3.03836E+01
 -1      2173 3.12271E+01
 -1      2174 2.82556E+01
 -1      2175 2.85064E+01
 -1      2176 1.73365E+00
 -1      2177 2.91032E+00
 -1      2178 8.20523E+00
 -1      2179 8.14185E+00
 -1      2180 2.10441E+00
 -1      2181 8.26308E-01
 -1      2182 3.01552E+01
 -1      2183 1.73365E+00
 -1      2184 2.63234E+01
 -1      2185 2.63234E+01
 -1      2186 2.63459E+01
 -1      2187 3.20325E+01
 -1      2188 3.12271E+01
 -1      2189 2.41619E+01
 -1      2190 1.40236E+01
 -1      2191 8.72447E+00
 -1      2192 8.63331E+00
 -1      2193 1.17403E+01
 -1      2194 1.05175E+01
 -1      2195 1.06068E+01
 -1      2196 9.81827E+00
 -1      2197 2.32785E+01
 -1      2198 3.34143E+01
 -1      2199 2.62208E+01
 -1      2200 2.22861E+01
 -1      2201 1.27980E+01
 -1      2202 1.04302E+01
 -1      2203 1.03946E+01
 -1      2204 7.87313E+00
 -1      2205 2.92786E+01
 -1      2206 8.32060E+00
 -1      2207 1.02847E+01
 -1      2208 1.85967E+00
 -1      2209 5.59008E-01
 -1      2210 5.90235E-01
 -1      2211 6.02148E-01
 -1      2212 6.50994E-01
 -1      2213 4.98185E-01
 -1      2214 5.11196E-01
 -1      2215 5.09580E-01
 -1      2216 5.46056E-01
 -1      2217 5.24183E-01
 -1      2218 4.44559E-01
 -1      2219 5.94290E-01
 -1      2220 5.60911E-01
 -1      2221 4.72400E-01
 -1      2222 6.53878E-01
 -1      2223 6.06254E-01
 -1      2224 4.99219E-01
 -1      2225 7.20950E-01
 -1      2226 6.53878E-01
 -1      2227 5.11183E-01
 -1      2228 8.24538E-01
 -1      2229 7.17359E-01
 -1      2230 5.07592E-01
 -1      2231 9.84656E-01
 -1      2232 8.92281E-01
 -1      2233 5.71743E-01
 -1      2234 1.75610E+00
 -1      2235 1.32277E+00
 -1      2236 9.77603E-01
 -1      2237 1.61421E+00
 -1      2238 1.26569E+00
 -1      2239 1.03477E+00
 -1      2240 5.79276E+00
 -1      2241 7.36598E+00
 -1      2242 8.84001E-01
 -1      2243 9.84282E-01
 -1      2244 8.04079E-01
 -1      2245 7.52186E-01
 -1      2246 7.47323E-01
 -1      2247 6.21737E-01
 -1      2248 6.44937E-01
 -1      2249 5.65522E-01
 -1      2250 5.06887E-01
 -1      2251 5.31966E-01
 -1      2252 4.57498E-01
 -1      2253 4.08877E-01
 -1      2254 4.26362E-01
 -1      2255 3.81495E-01
 -1      2256 3.38636E-01
 -1      2257 3.49590E-01
 -1      2258 3.13545E-01
 -1      2259 2.80750E-01
 -1      2260 2.97116E-01
 -1      2261 2.57009E-01
 -1      2262 2.29311E-01
 -1      2263 2.48285E-01
 -1      2264 2.09994E-01
 -1      2265 1.86195E-01
 -1      2266 2.05227E-01
 -1      2267 1.69321E-01
 -1      2268 1.51573E-01
 -1      2269 1.69036E-01
 -1      2270 1.36879E-01
 -1      2271 1.22200E-01
 -1      2272 1.37469E-01
 -1      2273 1.09815E-01
 -1      2274 9.75261E-02
 -1      2275 1.10390E-01
 -1      2276 8.78364E-02
 -1      2277 7.78240E-02
 -1      2278 8.83152E-02
 -1      2279 6.99442E-02
 -1      2280 6.19733E-02
 -1      2281 7.07457E-02
 -1      2282 5.53140E-02
 -1      2283 4.90773E-02
 -1      2284 5.62066E-02
 -1      2285 4.37498E-02
 -1      2286 3.88923E-02
 -1      2287 4.42198E-02
 -1      2288 3.59534E-02
 -1      2289 3.54285E-02
 -1      2290 3.59534E-02
 -1      2291 3.57534E-02
 -1      2292 3.77057E-02
 -1      2293 3.33394E-02
 -1      2294 4.17471E-02
 -1      2295 4.77573E-02
 -1      2296 3.77057E-02
 -1      2297 5.54356E-02
 -1      2298 6.45091E-02
 -1      2299 4.94253E-02
 -1      2300 7.98215E-02
 -1      2301 9.28179E-02
 -1      2302 7.24159E-02
 -1      2303 1.13489E-01
 -1      2304 1.37797E-01
 -1      2305 1.08399E-01
 -1      2306 1.65651E-01
 -1      2307 1.99496E-01
 -1      2308 1.56924E-01
 -1      2309 2.36817E-01
 -1      2310 2.83117E-01
 -1      2311 2.22099E-01
 -1      2312 3.32733E-01
 -1      2313 3.95206E-01
 -1      2314 3.09036E-01
 -1      2315 4.60548E-01
 -1      2316 5.43383E-01
 -1      2317 4.23994E-01
 -1      2318 6.28470E-01
 -1      2319 7.35704E-01
 -1      2320 5.74423E-01
 -1      2321 8.44978E-01
 -1      2322 9.79018E-01
 -1      2323 7.68784E-01
 -1      2324 1.11688E+00
 -1      2325 1.27556E+00
 -1      2326 1.01592E+00
 -1      2327 1.44533E+00
 -1      2328 1.61702E+00
 -1      2329 1.32355E+00
 -1      2330 1.81904E+00
 -1      2331 1.97648E+00
 -1      2332 1.69534E+00
 -1      2333 2.20571E+00
 -1      2334 2.31625E+00
 -1      2335 2.12658E+00
 -1      2336 2.55309E+00
 -1      2337 2.69516E+00
 -1      2338 2.59265E+00
 -1      2339 2.96767E+00
 -1      2340 3.18225E+00
 -1      2341 3.10200E+00
 -1      2342 3.84446E+00
 -1      2343 3.98797E+00
 -1      2344 4.03672E+00
 -1      2345 4.71096E+00
 -1      2346 5.07641E+00
 -1      2347 5.42191E+00
 -1      2348 5.21398E+00
 -1      2349 5.02018E+00
 -1      2350 6.28247E+00
 -1      2351 4.23958E+00
 -1      2352 5.33385E+00
 -1      2353 6.60171E+00
 -1      2354 7.59012E+00
 -1      2355 7.96881E+00
 -1      2356 7.01445E+00
 -1      2357 6.11964E+00
 -1      2358 5.34719E+00
 -1      2359 5.54984E+00
 -1      2360 5.36032E+00
 -1      2361 3.95301E+00
 -1      2362 3.39426E+00
 -1      2363 5.36032E+00
 -1      2364 2.98434E+00
 -1      2365 2.70792E+00
 -1      2366 3.54309E+00
 -1      2367 2.30312E+00
 -1      2368 2.03644E+00
 -1      2369 2.14680E+00
 -1      2370 2.72837E+00
 -1      2371 4.79901E-01
 -1      2372 5.37060E-01
 -1      2373 5.95912E-01
 -1      2374 6.87762E-01
 -1      2375 5.02567E-01
 -1      2376 7.52617E-01
 -1      2377 9.12423E-01
 -1      2378 6.26274E-01
 -1      2379 3.91213E-01
 -1      2380 4.41163E-01
 -1      2381 4.04977E-01
 -1      2382 3.23169E-01
 -1      2383 3.63770E-01
 -1      2384 3.38796E-01
 -1      2385 2.64469E-01
 -1      2386 2.96633E-01
 -1      2387 2.84817E-01
 -1      2388 2.14419E-01
 -1      2389 2.41743E-01
 -1      2390 2.35555E-01
 -1      2391 1.74439E-01
 -1      2392 1.95531E-01
 -1      2393 1.93941E-01
 -1      2394 1.40995E-01
 -1      2395 1.57757E-01
 -1      2396 1.58371E-01
 -1      2397 1.12583E-01
 -1      2398 1.26770E-01
 -1      2399 1.27464E-01
 -1      2400 8.96981E-02
 -1      2401 1.01373E-01
 -1      2402 1.02028E-01
 -1      2403 7.13081E-02
 -1      2404 8.06912E-02
 -1      2405 8.18115E-02
 -1      2406 5.63077E-02
 -1      2407 6.37041E-02
 -1      2408 6.52006E-02
 -1      2409 4.41472E-02
 -1      2410 4.99114E-02
 -1      2411 5.12002E-02
 -1      2412 3.48208E-02
 -1      2413 3.89753E-02
 -1      2414 3.96320E-02
 -1      2415 3.32776E-02
 -1      2416 3.27910E-02
 -1      2417 3.24302E-02
 -1      2418 3.98129E-02
 -1      2419 3.58332E-02
 -1      2420 3.29560E-02
 -1      2421 4.98063E-02
 -1      2422 4.37753E-02
 -1      2423 3.94740E-02
 -1      2424 6.53963E-02
 -1      2425 5.72067E-02
 -1      2426 5.08369E-02
 -1      2427 8.81586E-02
 -1      2428 7.78250E-02
 -1      2429 7.06660E-02
 -1      2430 1.19334E-01
 -1      2431 1.03137E-01
 -1      2432 9.80726E-02
 -1      2433 1.56277E-01
 -1      2434 1.36764E-01
 -1      2435 1.30481E-01
 -1      2436 1.96750E-01
 -1      2437 1.75558E-01
 -1      2438 1.67193E-01
 -1      2439 2.37359E-01
 -1      2440 2.16531E-01
 -1      2441 2.06255E-01
 -1      2442 2.74747E-01
 -1      2443 2.55594E-01
 -1      2444 2.44271E-01
 -1      2445 3.14317E-01
 -1      2446 2.93457E-01
 -1      2447 2.81215E-01
 -1      2448 3.52113E-01
 -1      2449 3.25327E-01
 -1      2450 3.10936E-01
 -1      2451 3.72809E-01
 -1      2452 3.59062E-01
 -1      2453 3.28895E-01
 -1      2454 3.57057E-01
 -1      2455 3.68266E-01
 -1      2456 3.31301E-01
 -1      2457 3.66153E-01
 -1      2458 3.73681E-01
 -1      2459 3.43383E-01
 -1      2460 4.09541E-01
 -1      2461 4.03703E-01
 -1      2462 3.97557E-01
 -1      2463 6.38604E-01
 -1      2464 4.88650E-01
 -1      2465 5.14216E-01
 -1      2466 9.80771E-01
 -1      2467 7.79373E-01
 -1      2468 7.34093E-01
 -1      2469 1.39424E+00
 -1      2470 1.16675E+00
 -1      2471 1.06084E+00
 -1      2472 1.75202E+00
 -1      2473 1.54353E+00
 -1      2474 1.39612E+00
 -1      2475 2.05746E+00
 -1      2476 1.84907E+00
 -1      2477 1.64246E+00
 -1      2478 2.19306E+00
 -1      2479 2.11868E+00
 -1      2480 1.80074E+00
 -1      2481 2.09935E+00
 -1      2482 2.16634E+00
 -1      2483 1.83524E+00
 -1      2484 2.07428E+00
 -1      2485 2.07143E+00
 -1      2486 1.78060E+00
 -1      2487 1.98530E+00
 -1      2488 2.08640E+00
 -1      2489 1.76479E+00
 -1      2490 1.69443E+00
 -1      2491 1.90574E+00
 -1      2492 1.69735E+00
 -1      2493 1.41740E+00
 -1      2494 1.63024E+00
 -1      2495 1.55361E+00
 -1      2496 1.12826E+00
 -1      2497 1.35473E+00
 -1      2498 1.42675E+00
 -1      2499 1.94358E+00
 -1      2500 1.87010E+00
 -1      2501 1.72736E+00
 -1      2502 1.49243E+00
 -1      2503 1.86315E+00
 -1      2504 1.31426E+00
 -1      2505 1.11982E+00
 -1      2506 1.54225E+00
 -1      2507 2.82780E+01
 -1      2508 3.01552E+01
 -1      2509 2.46226E+00
 -1      2510 2.26576E+00
 -1      2511 2.32805E+00
 -1      2512 3.08133E+00
 -1      2513 2.94164E+00
 -1      2514 3.12962E+00
 -1      2515 4.17953E+00
 -1      2516 3.89533E+00
 -1      2517 4.42300E+00
 -1      2518 5.81118E+00
 -1      2519 4.72212E+00
 -1      2520 5.77959E+00
 -1      2521 6.66887E+00
 -1      2522 6.66887E+00
 -1      2523 7.17988E+00
 -1      2524 6.38019E+00
 -1      2525 6.66887E+00
 -1      2526 8.03757E+00
 -1      2527 4.20062E+00
 -1      2528 5.13594E+00
 -1      2529 6.79332E+00
 -1      2530 2.91661E+00
 -1      2531 3.35768E+00
 -1      2532 4.70614E+00
 -1      2533 3.09338E+00
 -1      2534 1.67694E+00
 -1      2535 1.30122E+00
 -1      2536 8.38212E-01
 -1      2537 9.60288E-01
 -1      2538 3.20325E+01
 -1      2539 3.20325E+01
 -1      2540 2.64241E+01
 -1      2541 2.56186E+01
 -1      2542 6.96018E+00
 -1      2543 9.27814E+00
 -1      2544 1.86827E+01
 -1      2545 2.05471E+01
 -1      2546 2.23486E+01
 -1      2547 2.42184E+01
 -1      2548 5.22502E-01
 -1      2549 5.44580E-01
 -1      2550 4.71844E-01
 -1      2551 4.44495E-01
 -1      2552 6.58367E+00
 -1      2553 7.46021E+00
 -1      2554 9.41206E+00
 -1      2555 9.27860E+00
 -1      2556 7.44939E+00
 -1      2557 5.78245E+00
 -1      2558 7.16857E+00
 -1      2559 5.92746E+00
 -1      2560 8.47116E+00
 -1      2561 8.84597E+00
 -1      2562 2.51428E+01
 -1      2563 2.92786E+01
 -1      2564 8.86479E+00
 -1      2565 9.03380E+00
 -1      2566 7.88224E+00
 -1      2567 1.22691E+01
 -1      2568 8.58535E+00
 -1      2569 2.01444E+01
 -1      2570 1.43399E+01
 -1      2571 1.62722E+01
 -1      2572 3.05480E+01
 -1      2573 2.60164E+01
 -1      2574 6.99987E+00
 -1      2575 6.17958E+00
 -1      2576 3.34143E+01
 -1      2577 3.34143E+01
 -1      2578 3.05480E+01
 -1      2579 1.15488E+01
 -1      2580 1.61877E+01
 -1      2581 9.05730E+00
 -1      2582 9.37935E+00
 -1      2583 8.91141E+00
 -1      2584 8.26772E+00
 -1      2585 6.83315E+00
 -1      2586 8.16250E+00
 -1      2587 8.45630E+00
 -1      2588 7.03580E+00
 -1      2589 1.31792E+01
 -1      2590 9.30060E+00
 -1      2591 7.61193E+00
 -1      2592 2.19212E+01
 -1      2593 1.56615E+01
 -1      2594 1.09385E+01
 -1      2595 1.11982E+00
 -1      2596 6.15908E-01
 -1      2597 7.56805E-01
 -1      2598 8.20206E-01
 -1      2599 3.01552E+01
 -1      2600 1.32999E+00
 -1      2601 1.03150E+00
 -1      2602 1.05248E+00
 -1      2603 5.08821E+00
 -1      2604 9.13807E+00
 -1      2605 1.30734E+01
 -1      2606 1.36408E+00
 -1      2607 6.05870E+00
 -1      2608 9.00066E+00
 -1      2609 5.63945E+00
 -1      2610 9.19622E+00
 -1      2611 7.25713E+00
 -1      2612 6.56498E+00
 -1      2613 6.12670E+00
 -1      2614 2.34001E+01
 -1      2615 2.34001E+01
 -1      2616 2.14679E+01
 -1      2617 2.92786E+01
 -1      2618 8.96219E-01
 -1      2619 7.57988E+00
 -1      2620 8.81727E-01
 -1      2621 9.93712E-01
 -1      2622 6.88506E-01
 -1      2623 6.60433E-01
 -1      2624 2.07207E+01
 -1      2625 1.88110E+01
 -1      2626 2.64241E+01
 -1      2627 1.50487E+01
 -1      2628 1.71182E+01
 -1      2629 8.69070E+00
 -1      2630 2.05471E+01
 -1      2631 6.63968E+00
 -1      2632 9.37935E+00
 -1      2633 5.88401E+00
 -1      2634 2.40139E+01
 -1      2635 1.34563E+01
 -1      2636 7.72997E+00
 -1      2637 5.10081E+00
 -1      2638 1.24085E+01
 -1      2639 8.19587E+00
 -1      2640 1.02667E+01
 -1      2641 4.22808E-01
 -1      2642 4.07953E-01
 -1      2643 4.00144E-01
 -1      2644 3.87158E-01
 -1      2645 3.50552E-01
 -1      2646 4.36302E-01
 -1      2647 4.36302E-01
 -1      2648 4.23822E-01
 -1      2649 4.27413E-01
 -1      2650 3.52532E-01
 -1      2651 9.54682E-01
 -1      2652 6.16565E-01
 -1      2653 6.70459E-01
 -1      2654 1.61057E+01
 -1      2655 1.24082E+01
 -1      2656 2.12907E+00
 -1      2657 2.12907E+00
 -1      2658 2.19174E+00
 -1      2659 1.04143E+01
 -1      2660 7.93210E+00
 -1      2661 2.08985E+01
 -1      2662 2.27758E+01
 -1      2663 6.03862E-01
 -1      2664 5.53370E-01
 -1      2665 5.49195E-01
 -1      2666 4.92438E-01
 -1      2667 4.00871E-01
 -1      2668 4.85799E-01
 -1      2669 4.29584E-01
 -1      2670 3.90057E-01
 -1      2671 4.09165E-01
 -1      2672 3.59777E-01
 -1      2673 3.62999E-01
 -1      2674 3.34949E-01
 -1      2675 3.07566E-01
 -1      2676 3.17752E-01
 -1      2677 2.82712E-01
 -1      2678 2.57622E-01
 -1      2679 2.68071E-01
 -1      2680 2.42011E-01
 -1      2681 2.18270E-01
 -1      2682 2.27607E-01
 -1      2683 2.02012E-01
 -1      2684 1.82695E-01
 -1      2685 1.95739E-01
 -1      2686 1.67192E-01
 -1      2687 1.50318E-01
 -1      2688 1.63978E-01
 -1      2689 1.36340E-01
 -1      2690 1.21647E-01
 -1      2691 1.34497E-01
 -1      2692 1.10090E-01
 -1      2693 9.77047E-02
 -1      2694 1.08962E-01
 -1      2695 8.83152E-02
 -1      2696 7.86255E-02
 -1      2697 8.80151E-02
 -1      2698 7.07457E-02
 -1      2699 6.28659E-02
 -1      2700 7.07457E-02
 -1      2701 5.62066E-02
 -1      2702 4.95472E-02
 -1      2703 5.62066E-02
 -1      2704 4.39642E-02
 -1      2705 3.86368E-02
 -1      2706 4.39642E-02
 -1      2707 3.43210E-02
 -1      2708 3.13821E-02
 -1      2709 3.40655E-02
 -1      2710 2.82692E-02
 -1      2711 2.85941E-02
 -1      2712 2.66369E-02
 -1      2713 3.09019E-02
 -1      2714 3.49433E-02
 -1      2715 2.58317E-02
 -1      2716 4.28754E-02
 -1      2717 5.05537E-02
 -1      2718 3.60717E-02
 -1      2719 6.27843E-02
 -1      2720 7.80966E-02
 -1      2721 5.62344E-02
 -1      2722 9.39981E-02
 -1      2723 1.14669E-01
 -1      2724 8.43665E-02
 -1      2725 1.35439E-01
 -1      2726 1.63293E-01
 -1      2727 1.21038E-01
 -1      2728 1.90389E-01
 -1      2729 2.27710E-01
 -1      2730 1.68904E-01
 -1      2731 2.62926E-01
 -1      2732 3.12542E-01
 -1      2733 2.31216E-01
 -1      2734 3.58652E-01
 -1      2735 4.23994E-01
 -1      2736 3.12542E-01
 -1      2737 4.94370E-01
 -1      2738 5.79457E-01
 -1      2739 4.29028E-01
 -1      2740 6.76959E-01
 -1      2741 7.86233E-01
 -1      2742 5.96906E-01
 -1      2743 9.14547E-01
 -1      2744 1.05241E+00
 -1      2745 8.22723E-01
 -1      2746 1.21671E+00
 -1      2747 1.38648E+00
 -1      2748 1.11534E+00
 -1      2749 1.60284E+00
 -1      2750 1.80486E+00
 -1      2751 1.49600E+00
 -1      2752 2.06424E+00
 -1      2753 2.29347E+00
 -1      2754 1.97175E+00
 -1      2755 2.67800E+00
 -1      2756 2.91485E+00
 -1      2757 2.61567E+00
 -1      2758 3.59730E+00
 -1      2759 3.86981E+00
 -1      2760 3.68266E+00
 -1      2761 4.73033E+00
 -1      2762 5.39254E+00
 -1      2763 5.22564E+00
 -1      2764 7.12617E+00
 -1      2765 7.84915E+00
 -1      2766 7.81979E+00
 -1      2767 1.23570E+01
 -1      2768 1.79597E+01
 -1      2769 1.50139E+01
 -1      2770 5.34929E+00
 -1      2771 4.93937E+00
 -1      2772 3.93631E+00
 -1      2773 3.53150E+00
 -1      2774 4.30132E+00
 -1      2775 5.74250E+00
 -1      2776 4.15226E-01
 -1      2777 4.74078E-01
 -1      2778 3.49647E-01
 -1      2779 3.88385E-01
 -1      2780 3.59896E-01
 -1      2781 4.95136E-01
 -1      2782 5.59991E-01
 -1      2783 4.07795E-01
 -1      2784 2.47455E-01
 -1      2785 2.73991E-01
 -1      2786 2.07298E-01
 -1      2787 2.30025E-01
 -1      2788 2.19198E-01
 -1      2789 1.71408E-01
 -1      2790 1.90296E-01
 -1      2791 1.84765E-01
 -1      2792 1.39198E-01
 -1      2793 1.55880E-01
 -1      2794 1.52235E-01
 -1      2795 1.12849E-01
 -1      2796 1.27075E-01
 -1      2797 1.24584E-01
 -1      2798 9.09521E-02
 -1      2799 1.02162E-01
 -1      2800 1.01773E-01
 -1      2801 7.28046E-02
 -1      2802 8.18115E-02
 -1      2803 8.19452E-02
 -1      2804 5.75966E-02
 -1      2805 6.52006E-02
 -1      2806 6.52006E-02
 -1      2807 4.48039E-02
 -1      2808 5.12002E-02
 -1      2809 5.12002E-02
 -1      2810 3.42618E-02
 -1      2811 3.94337E-02
 -1      2812 3.94337E-02
 -1      2813 2.80747E-02
 -1      2814 3.01045E-02
 -1      2815 2.99063E-02
 -1      2816 3.01708E-02
 -1      2817 2.76153E-02
 -1      2818 2.52896E-02
 -1      2819 3.64582E-02
 -1      2820 3.24958E-02
 -1      2821 2.71551E-02
 -1      2822 5.24610E-02
 -1      2823 4.50605E-02
 -1      2824 3.80824E-02
 -1      2825 7.57369E-02
 -1      2826 6.33082E-02
 -1      2827 5.75319E-02
 -1      2828 1.03838E-01
 -1      2829 8.88599E-02
 -1      2830 8.15022E-02
 -1      2831 1.36872E-01
 -1      2832 1.19441E-01
 -1      2833 1.10229E-01
 -1      2834 1.74168E-01
 -1      2835 1.54887E-01
 -1      2836 1.43847E-01
 -1      2837 2.13868E-01
 -1      2838 1.94087E-01
 -1      2839 1.81781E-01
 -1      2840 2.53147E-01
 -1      2841 2.34912E-01
 -1      2842 2.22744E-01
 -1      2843 2.93762E-01
 -1      2844 2.75052E-01
 -1      2845 2.65693E-01
 -1      2846 3.22855E-01
 -1      2847 3.11844E-01
 -1      2848 3.05680E-01
 -1      2849 3.53006E-01
 -1      2850 3.46057E-01
 -1      2851 3.46966E-01
 -1      2852 3.69926E-01
 -1      2853 3.74469E-01
 -1      2854 3.91631E-01
 -1      2855 3.98013E-01
 -1      2856 3.81388E-01
 -1      2857 4.24556E-01
 -1      2858 5.01907E-01
 -1      2859 4.64357E-01
 -1      2860 5.02363E-01
 -1      2861 6.61293E-01
 -1      2862 5.82184E-01
 -1      2863 6.48984E-01
 -1      2864 8.74862E-01
 -1      2865 7.34093E-01
 -1      2866 8.02062E-01
 -1      2867 1.21539E+00
 -1      2868 1.02940E+00
 -1      2869 1.02940E+00
 -1      2870 1.47776E+00
 -1      2871 1.32846E+00
 -1      2872 1.29702E+00
 -1      2873 1.66774E+00
 -1      2874 1.57069E+00
 -1      2875 1.50304E+00
 -1      2876 1.87670E+00
 -1      2877 1.81548E+00
 -1      2878 1.74371E+00
 -1      2879 1.90385E+00
 -1      2880 1.93057E+00
 -1      2881 1.94532E+00
 -1      2882 1.84516E+00
 -1      2883 1.87308E+00
 -1      2884 1.96841E+00
 -1      2885 1.87929E+00
 -1      2886 1.86717E+00
 -1      2887 1.95965E+00
 -1      2888 2.02347E+00
 -1      2889 2.10303E+00
 -1      2890 2.20541E+00
 -1      2891 2.10665E+00
 -1      2892 2.17084E+00
 -1      2893 2.57652E+00
 -1      2894 2.80897E+00
 -1      2895 4.63897E+00
 -1      2896 5.74415E+00
 -1      2897 3.44722E+00
 -1      2898 2.96783E+00
 -1      2899 2.30724E+00
 -1      2900 2.59737E+00
 -1      2901 2.27520E+00
 -1      2902 2.91498E+00
 -1      2903 7.93707E+00
 -1      2904 7.39448E+00
 -1      2905 9.86885E+00
 -1      2906 9.01116E+00
 -1      2907 9.31766E+00
 -1      2908 9.31766E+00
 -1      2909 7.67501E+00
 -1      2910 8.91925E+00
 -1      2911 1.01993E+01
 -1      2912 5.63945E+00
 -1      2913 4.20033E+00
 -1      2914 4.06563E+00
 -1      2915 3.75108E+00
 -1      2916 5.60298E+00
 -1      2917 7.28084E+00
 -1      2918 1.53193E+01
 -1      2919 1.12453E+01
 -1      2920 7.06563E+00
 -1      2921 6.65182E+00
 -1      2922 2.12393E+01
 -1      2923 2.53750E+01
 -1      2924 5.87362E+00
 -1      2925 4.45684E+00
 -1      2926 1.02574E+01
 -1      2927 1.27524E+01
 -1      2928 5.82519E+00
 -1      2929 5.01119E+00
 -1      2930 4.84941E+00
 -1      2931 2.44997E+00
 -1      2932 2.30724E+00
 -1      2933 2.71929E+00
 -1      2934 7.08779E+00
 -1      2935 5.68049E+00
 -1      2936 1.12330E+01
 -1      2937 2.40486E+01
 -1      2938 1.84402E+01
 -1      2939 3.72687E+00
 -1      2940 4.52808E+00
 -1      2941 7.97732E-01
 -1      2942 2.17094E+01
 -1      2943 1.80416E+01
 -1      2944 1.30148E+01
 -1      2945 6.36114E+00
 -1      2946 6.92723E+00
 -1      2947 5.69680E+00
 -1      2948 2.45701E+01
 -1      2949 2.17038E+01
 -1      2950 1.43931E+01
 -1      2951 1.89888E+01
 -1      2952 1.50853E+01
 -1      2953 1.11941E+01
 -1      2954 5.73775E+00
 -1      2955 4.15334E+00
 -1      2956 4.36302E-01
 -1      2957 4.24337E-01
 -1      2958 3.59891E-01
 -1      2959 3.61421E-01
 -1      2960 4.24360E-01
 -1      2961 4.36273E-01
 -1      2962 2.94500E-01
 -1      2963 3.21942E-01
 -1      2964 3.05351E-01
 -1      2965 2.57138E-01
 -1      2966 6.56498E+00
 -1      2967 6.76763E+00
 -1      2968 8.40323E+00
 -1      2969 1.03785E+01
 -1      2970 3.42592E-01
 -1      2971 3.87007E-01
 -1      2972 3.99929E-01
 -1      2973 5.48822E-01
 -1      2974 1.37302E+01
 -1      2975 4.94141E+00
 -1      2976 9.40185E+00
 -1      2977 1.47919E+01
 -1      2978 8.55312E+00
 -1      2979 4.63953E-01
 -1      2980 5.69763E-01
 -1      2981 3.90128E-01
 -1      2982 7.08779E+00
 -1      2983 8.69070E+00
 -1      2984 7.07676E+00
 -1      2985 6.51046E-01
 -1      2986 6.15512E-01
 -1      2987 6.42633E+00
 -1      2988 2.89406E+00
 -1      2989 7.98267E+00
 -1      2990 1.06260E+01
 -1      2991 1.11489E+01
 -1      2992 5.42554E+00
 -1      2993 6.26848E+00
 -1      2994 8.39441E+00
 -1      2995 5.86366E+00
 -1      2996 4.22155E-01
 -1      2997 5.53292E-01
 -1      2998 3.43427E+00
 -1      2999 4.22904E+00
 -1      3000 5.22597E-01
 -1      3001 3.94277E+00
 -1      3002 3.37004E+00
 -1      3003 3.79651E+00
 -1      3004 6.44656E+00
 -1      3005 4.26373E+00
 -1      3006 6.58598E+00
 -1      3007 9.31388E+00
 -1      3008 4.92114E+00
 -1      3009 1.57315E+01
 -1      3010 1.65308E+01
 -1      3011 4.68643E-01
 -1      3012 4.16696E-01
 -1      3013 4.07640E-01
 -1      3014 4.22067E-01
 -1      3015 3.60156E-01
 -1      3016 3.50152E-01
 -1      3017 1.60206E+01
 -1      3018 2.92824E-01
 -1      3019 3.01712E-01
 -1      3020 6.11690E-01
 -1      3021 1.16029E+01
 -1      3022 1.51111E+01
 -1      3023 3.15164E-01
 -1      3024 3.08525E-01
 -1      3025 3.19224E-01
 -1      3026 2.98806E-01
 -1      3027 2.44331E-01
 -1      3028 2.95331E-01
 -1      3029 2.70503E-01
 -1      3030 2.51556E-01
 -1      3031 2.59575E-01
 -1      3032 2.34721E-01
 -1      3033 2.37154E-01
 -1      3034 2.20534E-01
 -1      3035 2.04924E-01
 -1      3036 2.12038E-01
 -1      3037 1.91624E-01
 -1      3038 1.75366E-01
 -1      3039 1.84551E-01
 -1      3040 1.64754E-01
 -1      3041 1.49251E-01
 -1      3042 1.60639E-01
 -1      3043 1.38093E-01
 -1      3044 1.24115E-01
 -1      3045 1.38869E-01
 -1      3046 1.13356E-01
 -1      3047 1.01799E-01
 -1      3048 1.16952E-01
 -1      3049 9.19486E-02
 -1      3050 8.25590E-02
 -1      3051 9.63431E-02
 -1      3052 7.38201E-02
 -1      3053 6.59403E-02
 -1      3054 7.77536E-02
 -1      3055 5.83099E-02
 -1      3056 5.16505E-02
 -1      3057 6.13842E-02
 -1      3058 4.49807E-02
 -1      3059 3.93977E-02
 -1      3060 4.70840E-02
 -1      3061 3.34395E-02
 -1      3062 2.91238E-02
 -1      3063 3.44560E-02
 -1      3064 2.35501E-02
 -1      3065 2.04371E-02
 -1      3066 2.29241E-02
 -1      3067 2.03056E-02
 -1      3068 2.26134E-02
 -1      3069 1.72188E-02
 -1      3070 2.90324E-02
 -1      3071 3.69646E-02
 -1      3072 2.35063E-02
 -1      3073 4.73628E-02
 -1      3074 5.95934E-02
 -1      3075 4.03235E-02
 -1      3076 7.32863E-02
 -1      3077 8.91878E-02
 -1      3078 6.44147E-02
 -1      3079 1.07755E-01
 -1      3080 1.28525E-01
 -1      3081 9.66750E-02
 -1      3082 1.54503E-01
 -1      3083 1.81599E-01
 -1      3084 1.41220E-01
 -1      3085 2.16747E-01
 -1      3086 2.51963E-01
 -1      3087 2.02346E-01
 -1      3088 2.99415E-01
 -1      3089 3.45524E-01
 -1      3090 2.84945E-01
 -1      3091 4.09455E-01
 -1      3092 4.79831E-01
 -1      3093 3.96328E-01
 -1      3094 5.65894E-01
 -1      3095 6.63397E-01
 -1      3096 5.46322E-01
 -1      3097 7.79437E-01
 -1      3098 9.07751E-01
 -1      3099 7.48425E-01
 -1      3100 1.06498E+00
 -1      3101 1.22928E+00
 -1      3102 1.02169E+00
 -1      3103 1.44405E+00
 -1      3104 1.66040E+00
 -1      3105 1.39368E+00
 -1      3106 1.95552E+00
 -1      3107 2.21490E+00
 -1      3108 1.90356E+00
 -1      3109 2.64094E+00
 -1      3110 3.02547E+00
 -1      3111 2.62471E+00
 -1      3112 4.06704E+00
 -1      3113 4.74950E+00
 -1      3114 4.09231E+00
 -1      3115 5.17800E+00
 -1      3116 6.03852E+00
 -1      3117 5.56238E+00
 -1      3118 9.46050E+00
 -1      3119 1.07305E+01
 -1      3120 9.87928E+00
 -1      3121 5.75032E-01
 -1      3122 5.33304E+00
 -1      3123 6.45543E+00
 -1      3124 3.00940E-01
 -1      3125 3.27782E-01
 -1      3126 3.27311E-01
 -1      3127 3.48369E-01
 -1      3128 2.68355E-01
 -1      3129 1.67005E-01
 -1      3130 1.84008E-01
 -1      3131 1.95201E-01
 -1      3132 2.12631E-01
 -1      3133 1.77441E-01
 -1      3134 1.16132E-01
 -1      3135 1.28255E-01
 -1      3136 9.46988E-02
 -1      3137 1.05386E-01
 -1      3138 1.09057E-01
 -1      3139 7.59465E-02
 -1      3140 8.50871E-02
 -1      3141 8.87001E-02
 -1      3142 5.99394E-02
 -1      3143 6.75434E-02
 -1      3144 7.06853E-02
 -1      3145 4.62530E-02
 -1      3146 5.26493E-02
 -1      3147 5.49921E-02
 -1      3148 3.44920E-02
 -1      3149 3.98622E-02
 -1      3150 4.13113E-02
 -1      3151 2.45476E-02
 -1      3152 2.87049E-02
 -1      3153 2.91334E-02
 -1      3154 1.93508E-02
 -1      3155 1.98102E-02
 -1      3156 1.86088E-02
 -1      3157 2.33437E-02
 -1      3158 2.10187E-02
 -1      3159 1.55393E-02
 -1      3160 3.93811E-02
 -1      3161 3.07788E-02
 -1      3162 2.46424E-02
 -1      3163 5.91640E-02
 -1      3164 4.83168E-02
 -1      3165 4.10132E-02
 -1      3166 8.31920E-02
 -1      3167 7.00689E-02
 -1      3168 6.08538E-02
 -1      3169 1.12135E-01
 -1      3170 9.65322E-02
 -1      3171 8.50990E-02
 -1      3172 1.46632E-01
 -1      3173 1.28617E-01
 -1      3174 1.14921E-01
 -1      3175 1.86878E-01
 -1      3176 1.66959E-01
 -1      3177 1.51729E-01
 -1      3178 2.31490E-01
 -1      3179 2.10446E-01
 -1      3180 1.95624E-01
 -1      3181 2.79416E-01
 -1      3182 2.57511E-01
 -1      3183 2.45213E-01
 -1      3184 3.24100E-01
 -1      3185 3.06018E-01
 -1      3186 2.97836E-01
 -1      3187 3.74769E-01
 -1      3188 3.51566E-01
 -1      3189 3.51904E-01
 -1      3190 4.35011E-01
 -1      3191 4.13548E-01
 -1      3192 4.18149E-01
 -1      3193 4.94543E-01
 -1      3194 4.83081E-01
 -1      3195 5.04998E-01
 -1      3196 6.03883E-01
 -1      3197 5.37538E-01
 -1      3198 5.96063E-01
 -1      3199 7.74397E-01
 -1      3200 6.94120E-01
 -1      3201 7.29296E-01
 -1      3202 9.87654E-01
 -1      3203 9.14854E-01
 -1      3204 9.59990E-01
 -1      3205 1.23392E+00
 -1      3206 1.07938E+00
 -1      3207 1.19217E+00
 -1      3208 1.46197E+00
 -1      3209 1.34889E+00
 -1      3210 1.39887E+00
 -1      3211 1.67244E+00
 -1      3212 1.57950E+00
 -1      3213 1.63137E+00
 -1      3214 1.89145E+00
 -1      3215 1.74371E+00
 -1      3216 1.82018E+00
 -1      3217 3.08017E+00
 -1      3218 3.02630E+00
 -1      3219 3.02630E+00
 -1      3220 2.25809E+00
 -1      3221 2.28886E+00
 -1      3222 3.36985E+00
 -1      3223 3.05251E+00
 -1      3224 3.03050E+00
 -1      3225 3.35095E+00
 -1      3226 2.42915E+00
 -1      3227 2.20541E+00
 -1      3228 3.27625E+00
 -1      3229 1.23446E+01
 -1      3230 9.62233E+00
 -1      3231 8.90238E+00
 -1      3232 7.33309E+00
 -1      3233 2.89406E+00
 -1      3234 2.89406E+00
 -1      3235 2.80897E+00
 -1      3236 1.20584E+01
 -1      3237 1.33312E+01
 -1      3238 1.26096E+01
 -1      3239 1.29328E+01
 -1      3240 4.86929E+00
 -1      3241 5.00769E+00
 -1      3242 3.08767E+00
 -1      3243 2.83115E+00
 -1      3244 1.05289E+01
 -1      3245 1.30980E+01
 -1      3246 1.31036E+01
 -1      3247 6.42005E+00
 -1      3248 3.06422E+00
 -1      3249 4.13912E+00
 -1      3250 1.39809E-01
 -1      3251 1.55337E-01
 -1      3252 1.54579E-01
 -1      3253 1.31357E-01
 -1      3254 3.35317E-01
 -1      3255 3.31142E-01
 -1      3256 2.49610E-01
 -1      3257 5.88777E+00
 -1      3258 4.32379E+00
 -1      3259 2.71929E+00
 -1      3260 9.07065E+00
 -1      3261 8.79335E+00
 -1      3262 7.81476E+00
 -1      3263 5.04550E-01
 -1      3264 4.24279E+00
 -1      3265 4.85978E+00
 -1      3266 7.90076E+00
 -1      3267 1.39030E+01
 -1      3268 1.30980E+01
 -1      3269 3.23236E-01
 -1      3270 3.15427E-01
 -1      3271 3.79550E-01
 -1      3272 2.90969E+00
 -1      3273 3.48302E+00
 -1      3274 4.97928E+00
 -1      3275 4.06522E+00
 -1      3276 4.23077E-01
 -1      3277 1.05983E+01
 -1      3278 8.06759E+00
 -1      3279 3.28730E-01
 -1      3280 4.17067E+00
 -1      3281 1.04702E+01
 -1      3282 3.23236E-01
 -1      3283 2.88111E-01
 -1      3284 3.24766E-01
 -1      3285 3.21836E-01
 -1      3286 3.49516E-01
 -1      3287 9.41286E+00
 -1      3288 2.91242E-01
 -1      3289 2.59128E-01
 -1      3290 2.63538E-01
 -1      3291 4.16823E+00
 -1      3292 3.23926E+00
 -1      3293 3.02336E+00
 -1      3294 2.93344E+00
 -1      3295 2.04606E-01
 -1      3296 2.28604E-01
 -1      3297 2.49113E-01
 -1      3298 8.12321E+00
 -1      3299 9.71120E+00
 -1      3300 2.80823E+00
 -1      3301 2.66086E+00
 -1      3302 2.66086E+00
 -1      3303 2.89332E+00
 -1      3304 4.15177E+00
 -1      3305 6.80748E+00
 -1      3306 3.08061E+00
 -1      3307 2.71015E+00
 -1      3308 3.45539E+00
 -1      3309 2.85227E+00
 -1      3310 4.02833E+00
 -1      3311 2.56309E+00
 -1      3312 3.70888E+00
 -1      3313 3.49831E+00
 -1      3314 3.76702E+00
 -1      3315 6.06544E+00
 -1      3316 3.27829E-01
 -1      3317 3.21130E-01
 -1      3318 2.34404E-01
 -1      3319 2.88492E+00
 -1      3320 3.40139E+00
 -1      3321 3.23175E-01
 -1      3322 3.25468E-01
 -1      3323 2.84856E-01
 -1      3324 1.34062E+01
 -1      3325 9.97342E+00
 -1      3326 2.84789E-01
 -1      3327 3.12105E-01
 -1      3328 3.11955E-01
 -1      3329 4.11897E+00
 -1      3330 2.61060E-01
 -1      3331 3.20768E-01
 -1      3332 3.20768E-01
 -1      3333 9.19182E+00
 -1      3334 4.11427E-01
 -1      3335 2.47344E-01
 -1      3336 3.41698E-01
 -1      3337 8.28995E+00
 -1      3338 8.78673E+00
 -1      3339 2.14674E-01
 -1      3340 2.11199E-01
 -1      3341 2.15106E-01
 -1      3342 2.04178E-01
 -1      3343 1.78224E-01
 -1      3344 2.00543E-01
 -1      3345 1.86356E-01
 -1      3346 1.78496E-01
 -1      3347 1.78488E-01
 -1      3348 1.65188E-01
 -1      3349 1.66994E-01
 -1      3350 1.55347E-01
 -1      3351 1.44735E-01
 -1      3352 1.49285E-01
 -1      3353 1.36451E-01
 -1      3354 1.25293E-01
 -1      3355 1.31159E-01
 -1      3356 1.17056E-01
 -1      3357 1.06298E-01
 -1      3358 1.14638E-01
 -1      3359 9.79477E-02
 -1      3360 8.80971E-02
 -1      3361 9.80515E-02
 -1      3362 8.01689E-02
 -1      3363 7.14300E-02
 -1      3364 8.17735E-02
 -1      3365 6.41868E-02
 -1      3366 5.65563E-02
 -1      3367 6.66021E-02
 -1      3368 5.00636E-02
 -1      3369 4.33938E-02
 -1      3370 5.28661E-02
 -1      3371 3.75796E-02
 -1      3372 3.16215E-02
 -1      3373 4.05592E-02
 -1      3374 2.63139E-02
 -1      3375 2.07401E-02
 -1      3376 2.94375E-02
 -1      3377 2.11678E-02
 -1      3378 2.10363E-02
 -1      3379 2.45576E-02
 -1      3380 2.28015E-02
 -1      3381 2.92205E-02
 -1      3382 2.67504E-02
 -1      3383 3.80848E-02
 -1      3384 4.84830E-02
 -1      3385 3.73800E-02
 -1      3386 6.05734E-02
 -1      3387 7.42663E-02
 -1      3388 5.83347E-02
 -1      3389 9.05590E-02
 -1      3390 1.09126E-01
 -1      3391 8.67177E-02
 -1      3392 1.30658E-01
 -1      3393 1.56636E-01
 -1      3394 1.24542E-01
 -1      3395 1.85069E-01
 -1      3396 2.20216E-01
 -1      3397 1.74506E-01
 -1      3398 2.57716E-01
 -1      3399 3.05167E-01
 -1      3400 2.40438E-01
 -1      3401 3.54642E-01
 -1      3402 4.18573E-01
 -1      3403 3.27412E-01
 -1      3404 4.84124E-01
 -1      3405 5.70187E-01
 -1      3406 4.42439E-01
 -1      3407 6.57999E-01
 -1      3408 7.74039E-01
 -1      3409 5.95801E-01
 -1      3410 8.94248E-01
 -1      3411 1.05147E+00
 -1      3412 8.03822E-01
 -1      3413 1.22218E+00
 -1      3414 1.43694E+00
 -1      3415 1.09473E+00
 -1      3416 1.68457E+00
 -1      3417 1.97969E+00
 -1      3418 1.51307E+00
 -1      3419 2.76470E+00
 -1      3420 3.19074E+00
 -1      3421 2.54571E+00
 -1      3422 4.07195E+00
 -1      3423 5.11351E+00
 -1      3424 4.21194E+00
 -1      3425 2.05134E-01
 -1      3426 1.89156E-01
 -1      3427 8.16634E-02
 -1      3428 9.12751E-02
 -1      3429 9.97693E-02
 -1      3430 1.10515E-01
 -1      3431 9.27326E-02
 -1      3432 5.10344E-02
 -1      3433 5.83244E-02
 -1      3434 3.83404E-02
 -1      3435 4.47312E-02
 -1      3436 4.80635E-02
 -1      3437 2.68823E-02
 -1      3438 3.26694E-02
 -1      3439 3.60893E-02
 -1      3440 1.82027E-02
 -1      3441 2.29401E-02
 -1      3442 2.64762E-02
 -1      3443 2.04453E-02
 -1      3444 1.87773E-02
 -1      3445 2.31086E-02
 -1      3446 3.10680E-02
 -1      3447 2.36329E-02
 -1      3448 2.68709E-02
 -1      3449 4.86385E-02
 -1      3450 3.97028E-02
 -1      3451 3.86934E-02
 -1      3452 7.02925E-02
 -1      3453 5.93876E-02
 -1      3454 5.80772E-02
 -1      3455 9.66133E-02
 -1      3456 8.32731E-02
 -1      3457 8.18068E-02
 -1      3458 1.28395E-01
 -1      3459 1.11914E-01
 -1      3460 1.10088E-01
 -1      3461 1.66090E-01
 -1      3462 1.45763E-01
 -1      3463 1.42756E-01
 -1      3464 2.08278E-01
 -1      3465 1.84710E-01
 -1      3466 1.78744E-01
 -1      3467 2.57754E-01
 -1      3468 2.31733E-01
 -1      3469 2.20820E-01
 -1      3470 3.15680E-01
 -1      3471 2.89078E-01
 -1      3472 2.75599E-01
 -1      3473 3.82582E-01
 -1      3474 3.55116E-01
 -1      3475 3.46359E-01
 -1      3476 4.67858E-01
 -1      3477 4.29079E-01
 -1      3478 4.32292E-01
 -1      3479 5.70587E-01
 -1      3480 5.22517E-01
 -1      3481 5.33448E-01
 -1      3482 7.00917E-01
 -1      3483 6.57921E-01
 -1      3484 6.75441E-01
 -1      3485 8.84686E-01
 -1      3486 7.94449E-01
 -1      3487 8.56307E-01
 -1      3488 1.11845E+00
 -1      3489 9.77994E-01
 -1      3490 1.04315E+00
 -1      3491 1.41095E+00
 -1      3492 1.31923E+00
 -1      3493 1.33723E+00
 -1      3494 1.83898E+00
 -1      3495 1.72401E+00
 -1      3496 1.85106E+00
 -1      3497 1.74891E+00
 -1      3498 1.63137E+00
 -1      3499 1.95651E+00
 -1      3500 3.58254E+00
 -1      3501 2.44769E+00
 -1      3502 3.37936E+00
 -1      3503 4.17067E+00
 -1      3504 4.15177E+00
 -1      3505 2.91991E+00
 -1      3506 3.76702E+00
 -1      3507 8.78673E+00
 -1      3508 8.78673E+00
 -1      3509 7.10326E+00
 -1      3510 6.53969E-02
 -1      3511 7.38000E-02
 -1      3512 7.63749E-02
 -1      3513 6.14391E-02
 -1      3514 1.82361E-01
 -1      3515 1.89960E-01
 -1      3516 2.09016E-01
 -1      3517 1.60475E-01
 -1      3518 1.71668E-01
 -1      3519 2.37671E+00
 -1      3520 2.45524E+00
 -1      3521 2.20636E-01
 -1      3522 2.20165E-01
 -1      3523 2.82278E+00
 -1      3524 3.58254E+00
 -1      3525 3.15464E-01
 -1      3526 3.23175E-01
 -1      3527 2.88487E-01
 -1      3528 1.87743E-01
 -1      3529 1.98443E-01
 -1      3530 1.43268E-01
 -1      3531 8.52401E+00
 -1      3532 7.76501E+00
 -1      3533 1.11557E+01
 -1      3534 6.11301E+00
 -1      3535 4.88424E+00
 -1      3536 7.78226E+00
 -1      3537 6.95327E+00
 -1      3538 1.98603E-01
 -1      3539 1.78063E-01
 -1      3540 1.33619E-01
 -1      3541 1.50884E-01
 -1      3542 7.73376E+00
 -1      3543 6.54707E+00
 -1      3544 2.84113E-01
 -1      3545 1.58086E-01
 -1      3546 6.09821E+00
 -1      3547 6.11857E+00
 -1      3548 2.35004E-01
 -1      3549 2.19917E-01
 -1      3550 2.29615E-01
 -1      3551 1.81425E-01
 -1      3552 5.57867E+00
 -1      3553 6.76585E+00
 -1      3554 5.59592E+00
 -1      3555 2.73406E-01
 -1      3556 2.12952E-01
 -1      3557 2.51882E-01
 -1      3558 2.51882E-01
 -1      3559 3.15163E+00
 -1      3560 1.81443E-01
 -1      3561 1.97416E-01
 -1      3562 1.64477E-01
 -1      3563 1.09957E-01
 -1      3564 1.19245E-01
 -1      3565 1.30799E-01
 -1      3566 2.63640E+00
 -1      3567 2.08015E+00
 -1      3568 2.00888E+00
 -1      3569 2.45524E+00
 -1      3570 2.00888E+00
 -1      3571 4.16116E+00
 -1      3572 4.12336E+00
 -1      3573 3.15163E+00
 -1      3574 6.84054E+00
 -1      3575 2.89332E+00
 -1      3576 2.89258E+00
 -1      3577 4.07590E+00
 -1      3578 2.16866E-01
 -1      3579 2.53094E-01
 -1      3580 2.49773E-01
 -1      3581 2.26886E+00
 -1      3582 1.39054E-01
 -1      3583 1.50722E-01
 -1      3584 1.44949E-01
 -1      3585 1.26942E-01
 -1      3586 2.30596E-01
 -1      3587 2.26964E-01
 -1      3588 1.58692E-01
 -1      3589 2.84978E-01
 -1      3590 5.77207E+00
 -1      3591 2.88418E+00
 -1      3592 2.92505E+00
 -1      3593 5.11324E+00
 -1      3594 6.11829E+00
 -1      3595 6.11829E+00
 -1      3596 1.58950E-01
 -1      3597 1.55315E-01
 -1      3598 1.54977E-01
 -1      3599 1.47109E-01
 -1      3600 1.35430E-01
 -1      3601 1.42688E-01
 -1      3602 1.32847E-01
 -1      3603 1.30671E-01
 -1      3604 1.26194E-01
 -1      3605 1.17910E-01
 -1      3606 1.19598E-01
 -1      3607 1.10306E-01
 -1      3608 1.02069E-01
 -1      3609 1.05341E-01
 -1      3610 9.58243E-02
 -1      3611 8.74745E-02
 -1      3612 9.14922E-02
 -1      3613 8.10006E-02
 -1      3614 7.30725E-02
 -1      3615 7.87735E-02
 -1      3616 6.68338E-02
 -1      3617 5.95906E-02
 -1      3618 6.60610E-02
 -1      3619 5.38248E-02
 -1      3620 4.73321E-02
 -1      3621 5.40565E-02
 -1      3622 4.21310E-02
 -1      3623 3.63169E-02
 -1      3624 4.30897E-02
 -1      3625 3.22667E-02
 -1      3626 2.69591E-02
 -1      3627 3.38385E-02
 -1      3628 2.71171E-02
 -1      3629 2.75448E-02
 -1      3630 2.99463E-02
 -1      3631 2.89505E-02
 -1      3632 3.07157E-02
 -1      3633 3.15100E-02
 -1      3634 3.36017E-02
 -1      3635 4.24660E-02
 -1      3636 3.58017E-02
 -1      3637 5.20761E-02
 -1      3638 6.41664E-02
 -1      3639 4.82978E-02
 -1      3640 7.67004E-02
 -1      3641 9.29931E-02
 -1      3642 7.04418E-02
 -1      3643 1.09148E-01
 -1      3644 1.30680E-01
 -1      3645 9.91307E-02
 -1      3646 1.51379E-01
 -1      3647 1.79812E-01
 -1      3648 1.35985E-01
 -1      3649 2.06153E-01
 -1      3650 2.43652E-01
 -1      3651 1.83026E-01
 -1      3652 2.76973E-01
 -1      3653 3.26448E-01
 -1      3654 2.42687E-01
 -1      3655 3.68478E-01
 -1      3656 4.34029E-01
 -1      3657 3.18038E-01
 -1      3658 4.88217E-01
 -1      3659 5.76028E-01
 -1      3660 4.14256E-01
 -1      3661 6.55083E-01
 -1      3662 7.75292E-01
 -1      3663 5.47499E-01
 -1      3664 8.86757E-01
 -1      3665 1.05746E+00
 -1      3666 7.38018E-01
 -1      3667 1.23551E+00
 -1      3668 1.48314E+00
 -1      3669 1.02753E+00
 -1      3670 2.29753E+00
 -1      3671 3.08254E+00
 -1      3672 2.01997E+00
 -1      3673 4.23202E+00
 -1      3674 1.59334E-01
 -1      3675 2.30433E-01
 -1      3676 2.34431E-01
 -1      3677 1.55037E-01
 -1      3678 1.48876E-01
 -1      3679 1.52783E-01
 -1      3680 1.29602E-01
 -1      3681 3.25711E-02
 -1      3682 3.82421E-02
 -1      3683 4.33487E-02
 -1      3684 4.96519E-02
 -1      3685 3.98306E-02
 -1      3686 2.66982E-02
 -1      3687 2.61236E-02
 -1      3688 3.14042E-02
 -1      3689 2.82166E-02
 -1      3690 3.12315E-02
 -1      3691 4.50118E-02
 -1      3692 3.63770E-02
 -1      3693 3.77226E-02
 -1      3694 6.55464E-02
 -1      3695 5.47974E-02
 -1      3696 5.24809E-02
 -1      3697 9.07454E-02
 -1      3698 7.77648E-02
 -1      3699 7.44849E-02
 -1      3700 1.21105E-01
 -1      3701 1.05804E-01
 -1      3702 1.01762E-01
 -1      3703 1.56666E-01
 -1      3704 1.39298E-01
 -1      3705 1.35014E-01
 -1      3706 1.96664E-01
 -1      3707 1.78043E-01
 -1      3708 1.74585E-01
 -1      3709 2.44275E-01
 -1      3710 2.20820E-01
 -1      3711 2.20119E-01
 -1      3712 3.01325E-01
 -1      3713 2.70001E-01
 -1      3714 2.70001E-01
 -1      3715 3.78842E-01
 -1      3716 3.39406E-01
 -1      3717 3.33809E-01
 -1      3718 4.74477E-01
 -1      3719 4.27980E-01
 -1      3720 4.21027E-01
 -1      3721 6.11071E-01
 -1      3722 5.56413E-01
 -1      3723 5.52101E-01
 -1      3724 8.02149E-01
 -1      3725 7.14815E-01
 -1      3726 7.37779E-01
 -1      3727 1.00588E+00
 -1      3728 9.12353E-01
 -1      3729 9.51727E-01
 -1      3730 1.20642E+00
 -1      3731 1.11311E+00
 -1      3732 1.16916E+00
 -1      3733 1.83367E+00
 -1      3734 1.63290E+00
 -1      3735 1.70286E+00
 -1      3736 2.43786E+00
 -1      3737 2.12481E+00
 -1      3738 2.42047E+00
 -1      3739 4.25701E+00
 -1      3740 3.40110E+00
 -1      3741 1.16679E-01
 -1      3742 1.32910E-01
 -1      3743 1.07469E-01
 -1      3744 2.85227E+00
 -1      3745 2.48456E+00
 -1      3746 2.37671E+00
 -1      3747 3.03338E+00
 -1      3748 6.11829E+00
 -1      3749 5.85557E+00
 -1      3750 5.13332E+00
 -1      3751 8.31854E-02
 -1      3752 9.16796E-02
 -1      3753 2.00888E+00
 -1      3754 2.37339E-01
 -1      3755 2.37339E-01
 -1      3756 1.79447E-01
 -1      3757 1.29367E-01
 -1      3758 1.27955E-01
 -1      3759 1.02779E-01
 -1      3760 1.43379E-01
 -1      3761 2.04304E-01
 -1      3762 2.18730E-01
 -1      3763 1.89217E-01
 -1      3764 1.81141E-01
 -1      3765 2.49773E-01
 -1      3766 2.53282E-01
 -1      3767 2.02134E-01
 -1      3768 2.18077E-01
 -1      3769 5.26753E+00
 -1      3770 4.42727E+00
 -1      3771 2.56972E-02
 -1      3772 2.96393E-02
 -1      3773 3.17921E-02
 -1      3774 2.11673E+00
 -1      3775 2.92868E-02
 -1      3776 4.85641E+00
 -1      3777 3.98384E+00
 -1      3778 1.98203E-01
 -1      3779 1.45741E-01
 -1      3780 1.55516E-01
 -1      3781 2.32434E+00
 -1      3782 5.06188E-02
 -1      3783 5.53335E-02
 -1      3784 6.24060E-02
 -1      3785 3.75247E+00
 -1      3786 1.29886E-01
 -1      3787 1.39638E-01
 -1      3788 1.30677E-01
 -1      3789 6.86369E-02
 -1      3790 7.65003E-02
 -1      3791 6.25313E-02
 -1      3792 1.86331E-01
 -1      3793 1.87543E-01
 -1      3794 7.54473E-02
 -1      3795 1.54127E-01
 -1      3796 1.45148E-01
 -1      3797 4.30715E+00
 -1      3798 5.32355E+00
 -1      3799 3.97876E+00
 -1      3800 8.88174E-02
 -1      3801 9.83646E-02
 -1      3802 1.07095E-01
 -1      3803 1.50884E-01
 -1      3804 1.29322E-01
 -1      3805 1.55037E-01
 -1      3806 1.23586E-01
 -1      3807 1.72488E-01
 -1      3808 1.43165E-01
 -1      3809 2.87316E+00
 -1      3810 3.14691E+00
 -1      3811 1.19062E-01
 -1      3812 1.14641E-01
 -1      3813 1.11941E-01
 -1      3814 1.05288E-01
 -1      3815 1.00331E-01
 -1      3816 1.00597E-01
 -1      3817 9.29932E-02
 -1      3818 9.29401E-02
 -1      3819 8.73601E-02
 -1      3820 8.11152E-02
 -1      3821 8.26162E-02
 -1      3822 7.52510E-02
 -1      3823 6.87772E-02
 -1      3824 7.11189E-02
 -1      3825 6.35600E-02
 -1      3826 5.73213E-02
 -1      3827 6.00376E-02
 -1      3828 5.26606E-02
 -1      3829 4.68949E-02
 -1      3830 5.01597E-02
 -1      3831 4.26523E-02
 -1      3832 3.74513E-02
 -1      3833 4.12564E-02
 -1      3834 3.56487E-02
 -1      3835 3.15985E-02
 -1      3836 3.52113E-02
 -1      3837 3.11692E-02
 -1      3838 3.13272E-02
 -1      3839 3.29794E-02
 -1      3840 3.20950E-02
 -1      3841 3.35007E-02
 -1      3842 3.33179E-02
 -1      3843 3.58017E-02
 -1      3844 3.86877E-02
 -1      3845 3.63867E-02
 -1      3846 4.42389E-02
 -1      3847 5.38489E-02
 -1      3848 4.42389E-02
 -1      3849 6.17818E-02
 -1      3850 7.43157E-02
 -1      3851 5.77229E-02
 -1      3852 8.52255E-02
 -1      3853 1.01380E-01
 -1      3854 7.65655E-02
 -1      3855 1.16092E-01
 -1      3856 1.36792E-01
 -1      3857 1.02187E-01
 -1      3858 1.57328E-01
 -1      3859 1.83669E-01
 -1      3860 1.37435E-01
 -1      3861 2.11054E-01
 -1      3862 2.44374E-01
 -1      3863 1.85356E-01
 -1      3864 2.80741E-01
 -1      3865 3.22771E-01
 -1      3866 2.49107E-01
 -1      3867 3.71037E-01
 -1      3868 4.25225E-01
 -1      3869 3.33739E-01
 -1      3870 4.89509E-01
 -1      3871 5.68564E-01
 -1      3872 4.46290E-01
 -1      3873 6.54872E-01
 -1      3874 7.66336E-01
 -1      3875 5.96882E-01
 -1      3876 8.83198E-01
 -1      3877 1.06125E+00
 -1      3878 8.00051E-01
 -1      3879 1.35341E+00
 -1      3880 2.16780E+00
 -1      3881 1.20908E+00
 -1      3882 5.70188E-02
 -1      3883 4.72332E-02
 -1      3884 3.49804E-02
 -1      3885 4.00870E-02
 -1      3886 4.20069E-02
 -1      3887 3.70342E-02
 -1      3888 4.65447E-02
 -1      3889 3.41894E-02
 -1      3890 3.26711E-02
 -1      3891 3.84737E-02
 -1      3892 7.91954E-02
 -1      3893 6.69770E-02
 -1      3894 6.17293E-02
 -1      3895 1.07616E-01
 -1      3896 9.25573E-02
 -1      3897 8.50494E-02
 -1      3898 1.42876E-01
 -1      3899 1.24683E-01
 -1      3900 1.15478E-01
 -1      3901 1.85795E-01
 -1      3902 1.64417E-01
 -1      3903 1.54086E-01
 -1      3904 2.36740E-01
 -1      3905 2.12584E-01
 -1      3906 2.02416E-01
 -1      3907 2.95131E-01
 -1      3908 2.69405E-01
 -1      3909 2.61870E-01
 -1      3910 3.71889E-01
 -1      3911 3.33809E-01
 -1      3912 3.33212E-01
 -1      3913 4.66944E-01
 -1      3914 4.17805E-01
 -1      3915 4.17805E-01
 -1      3916 6.23912E-01
 -1      3917 5.41977E-01
 -1      3918 5.38755E-01
 -1      3919 8.32561E-01
 -1      3920 7.28818E-01
 -1      3921 7.18694E-01
 -1      3922 1.15539E+00
 -1      3923 1.04518E+00
 -1      3924 1.03622E+00
 -1      3925 2.13578E+00
 -1      3926 2.02855E+00
 -1      3927 2.12201E+00
 -1      3928 3.08206E+00
 -1      3929 2.65558E+00
 -1      3930 3.51498E+00
 -1      3931 2.95076E+00
 -1      3932 2.65963E+00
 -1      3933 3.61235E+00
 -1      3934 3.38606E+00
 -1      3935 2.83435E+00
 -1      3936 3.98384E+00
 -1      3937 3.98384E+00
 -1      3938 2.16780E+00
 -1      3939 1.57008E-01
 -1      3940 1.87543E-01
 -1      3941 1.87543E-01
 -1      3942 1.18672E-01
 -1      3943 1.18334E-01
 -1      3944 1.02303E-01
 -1      3945 8.07182E-02
 -1      3946 9.66840E-02
 -1      3947 3.55632E+00
 -1      3948 6.55403E-02
 -1      3949 7.22254E-02
 -1      3950 1.64347E-01
 -1      3951 1.28071E-01
 -1      3952 1.63161E-01
 -1      3953 1.14006E-01
 -1      3954 1.22261E-01
 -1      3955 1.02414E-01
 -1      3956 4.58405E+00
 -1      3957 4.30715E+00
 -1      3958 4.03478E+00
 -1      3959 1.37429E-01
 -1      3960 3.08683E-02
 -1      3961 3.38001E-02
 -1      3962 3.40565E-02
 -1      3963 3.13638E-02
 -1      3964 3.09374E-02
 -1      3965 3.43217E-02
 -1      3966 1.06572E-01
 -1      3967 1.12739E-01
 -1      3968 7.98208E-02
 -1      3969 1.67273E-01
 -1      3970 1.60530E-01
 -1      3971 1.31205E-01
 -1      3972 1.09528E-01
 -1      3973 1.29106E-01
 -1      3974 1.16950E-01
 -1      3975 3.29453E-02
 -1      3976 3.94438E-02
 -1      3977 4.42940E-02
 -1      3978 4.99756E-02
 -1      3979 6.83899E-02
 -1      3980 7.82970E-02
 -1      3981 8.49820E-02
 -1      3982 9.56419E-02
 -1      3983 5.46915E-02
 -1      3984 6.09224E-02
 -1      3985 4.83667E-02
 -1      3986 3.61235E+00
 -1      3987 3.43457E+00
 -1      3988 5.77004E-02
 -1      3989 1.19748E-01
 -1      3990 1.36566E-01
 -1      3991 1.36566E-01
 -1      3992 1.08664E-01
 -1      3993 1.17487E-01
 -1      3994 1.06211E-01
 -1      3995 9.54262E-02
 -1      3996 1.34637E-01
 -1      3997 1.39820E-01
 -1      3998 1.58557E-01
 -1      3999 1.15137E-01
 -1      4000 1.21239E-01
 -1      4001 1.83216E-01
 -1      4002 1.65446E-01
 -1      4003 1.22700E-01
 -1      4004 1.25741E-01
 -1      4005 1.07160E-01
 -1      4006 8.79371E-02
 -1      4007 8.86650E-02
 -1      4008 1.52682E-01
 -1      4009 8.47345E-02
 -1      4010 8.00436E-02
 -1      4011 7.66017E-02
 -1      4012 7.09687E-02
 -1      4013 6.83961E-02
 -1      4014 6.88197E-02
 -1      4015 6.29556E-02
 -1      4016 6.28053E-02
 -1      4017 5.95272E-02
 -1      4018 5.43100E-02
 -1      4019 5.72280E-02
 -1      4020 5.08172E-02
 -1      4021 4.61565E-02
 -1      4022 5.03068E-02
 -1      4023 4.32303E-02
 -1      4024 3.89877E-02
 -1      4025 4.38878E-02
 -1      4026 3.66743E-02
 -1      4027 3.48717E-02
 -1      4028 3.86482E-02
 -1      4029 3.34086E-02
 -1      4030 3.29794E-02
 -1      4031 3.48717E-02
 -1      4032 3.33179E-02
 -1      4033 3.40857E-02
 -1      4034 3.37472E-02
 -1      4035 3.62205E-02
 -1      4036 3.85214E-02
 -1      4037 3.62205E-02
 -1      4038 4.29831E-02
 -1      4039 4.85343E-02
 -1      4040 4.28169E-02
 -1      4041 5.54778E-02
 -1      4042 6.34107E-02
 -1      4043 5.42221E-02
 -1      4044 7.29725E-02
 -1      4045 8.38823E-02
 -1      4046 7.07275E-02
 -1      4047 9.66015E-02
 -1      4048 1.11313E-01
 -1      4049 9.30085E-02
 -1      4050 1.27824E-01
 -1      4051 1.48360E-01
 -1      4052 1.22238E-01
 -1      4053 1.69391E-01
 -1      4054 1.96776E-01
 -1      4055 1.59780E-01
 -1      4056 2.23129E-01
 -1      4057 2.59495E-01
 -1      4058 2.07164E-01
 -1      4059 2.96207E-01
 -1      4060 3.44473E-01
 -1      4061 2.70229E-01
 -1      4062 4.18640E-01
 -1      4063 4.82925E-01
 -1      4064 3.81108E-01
 -1      4065 5.92878E-01
 -1      4066 6.79186E-01
 -1      4067 5.65229E-01
 -1      4068 8.45385E-01
 -1      4069 9.62246E-01
 -1      4070 8.41381E-01
 -1      4071 1.18313E+00
 -1      4072 1.47529E+00
 -1      4073 1.22846E+00
 -1      4074 9.15941E-02
 -1      4075 7.82322E-02
 -1      4076 8.93437E-02
 -1      4077 8.66436E-02
 -1      4078 7.49775E-02
 -1      4079 6.89014E-02
 -1      4080 5.89432E-02
 -1      4081 7.54461E-02
 -1      4082 1.03435E-01
 -1      4083 1.11060E-01
 -1      4084 1.01622E-01
 -1      4085 4.13185E-02
 -1      4086 3.84737E-02
 -1      4087 1.21610E-01
 -1      4088 1.04543E-01
 -1      4089 9.77259E-02
 -1      4090 1.64116E-01
 -1      4091 1.42575E-01
 -1      4092 1.31640E-01
 -1      4093 2.19652E-01
 -1      4094 1.92863E-01
 -1      4095 1.81352E-01
 -1      4096 2.91856E-01
 -1      4097 2.59192E-01
 -1      4098 2.49638E-01
 -1      4099 3.85074E-01
 -1      4100 3.46397E-01
 -1      4101 3.43719E-01
 -1      4102 5.06271E-01
 -1      4103 4.60354E-01
 -1      4104 4.73539E-01
 -1      4105 6.84667E-01
 -1      4106 6.09634E-01
 -1      4107 6.52182E-01
 -1      4108 9.27284E-01
 -1      4109 8.22378E-01
 -1      4110 8.93257E-01
 -1      4111 1.34909E+00
 -1      4112 1.13647E+00
 -1      4113 1.24016E+00
 -1      4114 2.66538E+00
 -1      4115 1.79221E+00
 -1      4116 1.89246E+00
 -1      4117 4.03478E+00
 -1      4118 1.62766E+00
 -1      4119 2.29422E+00
 -1      4120 1.60171E+00
 -1      4121 1.40576E-01
 -1      4122 3.30144E-02
 -1      4123 3.29453E-02
 -1      4124 1.27285E-01
 -1      4125 1.08742E-01
 -1      4126 9.10641E-02
 -1      4127 9.79755E-02
 -1      4128 8.05437E-02
 -1      4129 2.89443E+00
 -1      4130 7.74366E-02
 -1      4131 8.33701E-02
 -1      4132 6.97318E-02
 -1      4133 5.19014E-02
 -1      4134 5.65192E-02
 -1      4135 4.03478E+00
 -1      4136 3.56290E-02
 -1      4137 3.43217E-02
 -1      4138 3.84737E-02
 -1      4139 6.37907E-02
 -1      4140 7.36783E-02
 -1      4141 6.14065E-02
 -1      4142 3.39050E-02
 -1      4143 3.50854E-02
 -1      4144 3.39741E-02
 -1      4145 5.17710E-02
 -1      4146 4.65447E-02
 -1      4147 4.65447E-02
 -1      4148 1.29570E-01
 -1      4149 3.51498E+00
 -1      4150 1.38963E-01
 -1      4151 1.34637E-01
 -1      4152 7.37471E-02
 -1      4153 3.70542E-02
 -1      4154 4.12612E-02
 -1      4155 3.69027E-02
 -1      4156 6.14873E-02
 -1      4157 6.75590E-02
 -1      4158 5.56883E-02
 -1      4159 9.20858E-02
 -1      4160 1.12450E-01
 -1      4161 3.43217E-02
 -1      4162 3.18518E+00
 -1      4163 2.04483E+00
 -1      4164 4.39741E-02
 -1      4165 4.86899E-02
 -1      4166 4.15845E-02
 -1      4167 8.47630E-02
 -1      4168 7.72257E-02
 -1      4169 8.46855E-02
 -1      4170 4.75087E-02
 -1      4171 1.18522E-01
 -1      4172 5.89432E-02
 -1      4173 8.82319E-02
 -1      4174 9.23082E-02
 -1      4175 9.54262E-02
 -1      4176 8.92837E-02
 -1      4177 7.94867E-02
 -1      4178 9.28770E-02
 -1      4179 9.43384E-02
 -1      4180 7.72871E-02
 -1      4181 7.53779E-02
 -1      4182 6.69834E-02
 -1      4183 6.48345E-02
 -1      4184 6.06564E-02
 -1      4185 5.72280E-02
 -1      4186 5.22599E-02
 -1      4187 4.87671E-02
 -1      4188 4.55556E-02
 -1      4189 4.26295E-02
 -1      4190 3.99166E-02
 -1      4191 3.76032E-02
 -1      4192 3.56343E-02
 -1      4193 3.41713E-02
 -1      4194 3.32115E-02
 -1      4195 3.35501E-02
 -1      4196 3.48574E-02
 -1      4197 3.69921E-02
 -1      4198 3.98368E-02
 -1      4199 4.42985E-02
 -1      4200 4.95248E-02
 -1      4201 5.64683E-02
 -1      4202 6.36405E-02
 -1      4203 7.32023E-02
 -1      4204 8.25331E-02
 -1      4205 9.52523E-02
 -1      4206 1.08201E-01
 -1      4207 1.24712E-01
 -1      4208 1.45677E-01
 -1      4209 1.66708E-01
 -1      4210 1.95455E-01
 -1      4211 2.21808E-01
 -1      4212 2.61347E-01
 -1      4213 2.98059E-01
 -1      4214 3.52600E-01
 -1      4215 4.26768E-01
 -1      4216 5.02047E-01
 -1      4217 6.12001E-01
 -1      4218 7.15364E-01
 -1      4219 8.81563E-01
 -1      4220 1.01927E+00
 -1      4221 1.24016E+00
 -1      4222 8.68862E-02
 -1      4223 1.44934E+00
 -1      4224 1.60171E+00
 -1      4225 7.17371E-02
 -1      4226 7.78192E-02
 -1      4227 1.20919E-01
 -1      4228 9.02615E-02
 -1      4229 9.40904E-02
 -1      4230 6.25741E-02
 -1      4231 7.59785E-02
 -1      4232 8.16367E-02
 -1      4233 8.70967E-02
 -1      4234 7.77828E-02
 -1      4235 7.28301E-02
 -1      4236 7.71771E-02
 -1      4237 7.78558E-02
 -1      4238 5.54474E-02
 -1      4239 5.92057E-02
 -1      4240 7.42427E-02
 -1      4241 7.08009E-02
 -1      4242 6.85332E-02
 -1      4243 7.31002E-02
 -1      4244 6.48345E-02
 -3
 9999
