    1C
    1UUSER                                                              
    1UDATE              27.october.2022                                 
    1UTIME              00:36:56                                        
    1UHOST                                                              
    1UPGM               CalculiX                                        
    1UVERSION           Version 2.17                             
    1UCOMPILETIME       Thu Jul 23 21:43:50 CEST 2020                    
    1UDIR                                                               
    1UDBN                                                               
    1UMAT    1SOLIDMATERIAL                                             
    2C                          4396                                     1
 -1         1 4.35964E+01 2.63636E+01 0.00000E+00
 -1         2 5.73051E+01 2.83618E+01 0.00000E+00
 -1         3 1.50000E+02 0.00000E+00 0.00000E+00
 -1         4 1.50000E+02 5.00000E+01 0.00000E+00
 -1         5 0.00000E+00 0.00000E+00 0.00000E+00
 -1         6 0.00000E+00 5.00000E+01 0.00000E+00
 -1         7 0.00000E+00 4.70500E+01 0.00000E+00
 -1         8 0.00000E+00 4.41000E+01 0.00000E+00
 -1         9 0.00000E+00 4.11500E+01 0.00000E+00
 -1        10 0.00000E+00 3.82000E+01 0.00000E+00
 -1        11 0.00000E+00 3.52500E+01 0.00000E+00
 -1        12 0.00000E+00 3.23500E+01 0.00000E+00
 -1        13 0.00000E+00 2.94000E+01 0.00000E+00
 -1        14 0.00000E+00 2.64500E+01 0.00000E+00
 -1        15 0.00000E+00 2.35000E+01 0.00000E+00
 -1        16 0.00000E+00 2.05500E+01 0.00000E+00
 -1        17 0.00000E+00 1.76000E+01 0.00000E+00
 -1        18 0.00000E+00 1.47000E+01 0.00000E+00
 -1        19 0.00000E+00 1.17500E+01 0.00000E+00
 -1        20 0.00000E+00 8.80000E+00 0.00000E+00
 -1        21 0.00000E+00 5.85000E+00 0.00000E+00
 -1        22 0.00000E+00 2.90000E+00 0.00000E+00
 -1        23 3.15000E+00 5.00000E+01 0.00000E+00
 -1        24 6.15000E+00 5.00000E+01 0.00000E+00
 -1        25 9.15000E+00 5.00000E+01 0.00000E+00
 -1        26 1.21500E+01 5.00000E+01 0.00000E+00
 -1        27 1.51500E+01 5.00000E+01 0.00000E+00
 -1        28 1.81500E+01 5.00000E+01 0.00000E+00
 -1        29 2.11500E+01 5.00000E+01 0.00000E+00
 -1        30 2.41500E+01 5.00000E+01 0.00000E+00
 -1        31 2.71500E+01 5.00000E+01 0.00000E+00
 -1        32 3.01500E+01 5.00000E+01 0.00000E+00
 -1        33 3.31500E+01 5.00000E+01 0.00000E+00
 -1        34 3.61500E+01 5.00000E+01 0.00000E+00
 -1        35 3.91500E+01 5.00000E+01 0.00000E+00
 -1        36 4.21500E+01 5.00000E+01 0.00000E+00
 -1        37 4.51500E+01 5.00000E+01 0.00000E+00
 -1        38 4.81500E+01 5.00000E+01 0.00000E+00
 -1        39 5.11500E+01 5.00000E+01 0.00000E+00
 -1        40 5.41500E+01 5.00000E+01 0.00000E+00
 -1        41 5.71500E+01 5.00000E+01 0.00000E+00
 -1        42 6.01500E+01 5.00000E+01 0.00000E+00
 -1        43 6.31500E+01 5.00000E+01 0.00000E+00
 -1        44 6.61500E+01 5.00000E+01 0.00000E+00
 -1        45 6.91500E+01 5.00000E+01 0.00000E+00
 -1        46 7.21500E+01 5.00000E+01 0.00000E+00
 -1        47 7.51500E+01 5.00000E+01 0.00000E+00
 -1        48 7.81500E+01 5.00000E+01 0.00000E+00
 -1        49 8.11500E+01 5.00000E+01 0.00000E+00
 -1        50 8.41500E+01 5.00000E+01 0.00000E+00
 -1        51 8.71500E+01 5.00000E+01 0.00000E+00
 -1        52 9.01500E+01 5.00000E+01 0.00000E+00
 -1        53 9.31500E+01 5.00000E+01 0.00000E+00
 -1        54 9.61500E+01 5.00000E+01 0.00000E+00
 -1        55 9.91500E+01 5.00000E+01 0.00000E+00
 -1        56 1.02150E+02 5.00000E+01 0.00000E+00
 -1        57 1.05150E+02 5.00000E+01 0.00000E+00
 -1        58 1.08150E+02 5.00000E+01 0.00000E+00
 -1        59 1.11150E+02 5.00000E+01 0.00000E+00
 -1        60 1.14150E+02 5.00000E+01 0.00000E+00
 -1        61 1.17150E+02 5.00000E+01 0.00000E+00
 -1        62 1.20150E+02 5.00000E+01 0.00000E+00
 -1        63 1.23150E+02 5.00000E+01 0.00000E+00
 -1        64 1.26150E+02 5.00000E+01 0.00000E+00
 -1        65 1.29150E+02 5.00000E+01 0.00000E+00
 -1        66 1.32150E+02 5.00000E+01 0.00000E+00
 -1        67 1.35150E+02 5.00000E+01 0.00000E+00
 -1        68 1.38150E+02 5.00000E+01 0.00000E+00
 -1        69 1.41150E+02 5.00000E+01 0.00000E+00
 -1        70 1.44150E+02 5.00000E+01 0.00000E+00
 -1        71 1.47150E+02 5.00000E+01 0.00000E+00
 -1        72 3.15000E+00 0.00000E+00 0.00000E+00
 -1        73 6.15000E+00 0.00000E+00 0.00000E+00
 -1        74 9.15000E+00 0.00000E+00 0.00000E+00
 -1        75 1.21500E+01 0.00000E+00 0.00000E+00
 -1        76 1.51500E+01 0.00000E+00 0.00000E+00
 -1        77 1.81500E+01 0.00000E+00 0.00000E+00
 -1        78 2.11500E+01 0.00000E+00 0.00000E+00
 -1        79 2.41500E+01 0.00000E+00 0.00000E+00
 -1        80 2.71500E+01 0.00000E+00 0.00000E+00
 -1        81 3.01500E+01 0.00000E+00 0.00000E+00
 -1        82 3.31500E+01 0.00000E+00 0.00000E+00
 -1        83 3.61500E+01 0.00000E+00 0.00000E+00
 -1        84 3.91500E+01 0.00000E+00 0.00000E+00
 -1        85 4.21500E+01 0.00000E+00 0.00000E+00
 -1        86 4.51500E+01 0.00000E+00 0.00000E+00
 -1        87 4.81500E+01 0.00000E+00 0.00000E+00
 -1        88 5.11500E+01 0.00000E+00 0.00000E+00
 -1        89 5.41500E+01 0.00000E+00 0.00000E+00
 -1        90 5.71500E+01 0.00000E+00 0.00000E+00
 -1        91 6.01500E+01 0.00000E+00 0.00000E+00
 -1        92 6.31500E+01 0.00000E+00 0.00000E+00
 -1        93 6.61500E+01 0.00000E+00 0.00000E+00
 -1        94 6.91500E+01 0.00000E+00 0.00000E+00
 -1        95 7.21500E+01 0.00000E+00 0.00000E+00
 -1        96 7.51500E+01 0.00000E+00 0.00000E+00
 -1        97 7.81500E+01 0.00000E+00 0.00000E+00
 -1        98 8.11500E+01 0.00000E+00 0.00000E+00
 -1        99 8.41500E+01 0.00000E+00 0.00000E+00
 -1       100 8.71500E+01 0.00000E+00 0.00000E+00
 -1       101 9.01500E+01 0.00000E+00 0.00000E+00
 -1       102 9.31500E+01 0.00000E+00 0.00000E+00
 -1       103 9.61500E+01 0.00000E+00 0.00000E+00
 -1       104 9.91500E+01 0.00000E+00 0.00000E+00
 -1       105 1.02150E+02 0.00000E+00 0.00000E+00
 -1       106 1.05150E+02 0.00000E+00 0.00000E+00
 -1       107 1.08150E+02 0.00000E+00 0.00000E+00
 -1       108 1.11150E+02 0.00000E+00 0.00000E+00
 -1       109 1.14150E+02 0.00000E+00 0.00000E+00
 -1       110 1.17150E+02 0.00000E+00 0.00000E+00
 -1       111 1.20150E+02 0.00000E+00 0.00000E+00
 -1       112 1.23150E+02 0.00000E+00 0.00000E+00
 -1       113 1.26150E+02 0.00000E+00 0.00000E+00
 -1       114 1.29150E+02 0.00000E+00 0.00000E+00
 -1       115 1.32150E+02 0.00000E+00 0.00000E+00
 -1       116 1.35150E+02 0.00000E+00 0.00000E+00
 -1       117 1.38150E+02 0.00000E+00 0.00000E+00
 -1       118 1.41150E+02 0.00000E+00 0.00000E+00
 -1       119 1.44150E+02 0.00000E+00 0.00000E+00
 -1       120 1.47150E+02 0.00000E+00 0.00000E+00
 -1       121 1.50000E+02 2.95000E+00 0.00000E+00
 -1       122 1.50000E+02 5.90000E+00 0.00000E+00
 -1       123 1.50000E+02 8.85000E+00 0.00000E+00
 -1       124 1.50000E+02 1.18000E+01 0.00000E+00
 -1       125 1.50000E+02 1.47500E+01 0.00000E+00
 -1       126 1.50000E+02 1.76500E+01 0.00000E+00
 -1       127 1.50000E+02 2.06000E+01 0.00000E+00
 -1       128 1.50000E+02 2.35500E+01 0.00000E+00
 -1       129 1.50000E+02 2.65000E+01 0.00000E+00
 -1       130 1.50000E+02 2.94500E+01 0.00000E+00
 -1       131 1.50000E+02 3.24000E+01 0.00000E+00
 -1       132 1.50000E+02 3.53000E+01 0.00000E+00
 -1       133 1.50000E+02 3.82500E+01 0.00000E+00
 -1       134 1.50000E+02 4.12000E+01 0.00000E+00
 -1       135 1.50000E+02 4.41500E+01 0.00000E+00
 -1       136 1.50000E+02 4.71000E+01 0.00000E+00
 -1       137 5.71567E+01 2.69280E+01 0.00000E+00
 -1       138 5.67544E+01 2.56401E+01 0.00000E+00
 -1       139 5.60833E+01 2.44104E+01 0.00000E+00
 -1       140 5.51364E+01 2.32963E+01 0.00000E+00
 -1       141 5.40301E+01 2.24352E+01 0.00000E+00
 -1       142 5.27625E+01 2.18073E+01 0.00000E+00
 -1       143 5.14505E+01 2.14561E+01 0.00000E+00
 -1       144 4.99588E+01 2.13704E+01 0.00000E+00
 -1       145 4.85642E+01 2.15818E+01 0.00000E+00
 -1       146 4.72545E+01 2.20615E+01 0.00000E+00
 -1       147 4.60023E+01 2.28404E+01 0.00000E+00
 -1       148 4.49440E+01 2.38609E+01 0.00000E+00
 -1       149 4.41471E+01 2.50333E+01 0.00000E+00
 -1       150 4.33281E+01 2.77955E+01 0.00000E+00
 -1       151 4.33553E+01 2.91979E+01 0.00000E+00
 -1       152 4.37017E+01 3.06845E+01 0.00000E+00
 -1       153 4.43211E+01 3.19937E+01 0.00000E+00
 -1       154 4.52686E+01 3.32231E+01 0.00000E+00
 -1       155 4.64551E+01 3.42079E+01 0.00000E+00
 -1       156 4.79464E+01 3.49524E+01 0.00000E+00
 -1       157 4.95100E+01 3.53165E+01 0.00000E+00
 -1       158 5.10387E+01 3.53233E+01 0.00000E+00
 -1       159 5.24752E+01 3.50169E+01 0.00000E+00
 -1       160 5.38194E+01 3.44157E+01 0.00000E+00
 -1       161 5.50090E+01 3.35458E+01 0.00000E+00
 -1       162 5.60137E+01 3.24130E+01 0.00000E+00
 -1       163 5.67431E+01 3.11101E+01 0.00000E+00
 -1       164 5.71639E+01 2.97611E+01 0.00000E+00
 -1       165 2.59800E+00 4.55750E+01 0.00000E+00
 -1       166 2.59800E+00 4.26250E+01 0.00000E+00
 -1       167 2.59800E+00 3.96750E+01 0.00000E+00
 -1       168 2.59800E+00 3.67250E+01 0.00000E+00
 -1       169 2.59800E+00 3.38250E+01 0.00000E+00
 -1       170 2.59800E+00 3.08750E+01 0.00000E+00
 -1       171 2.59800E+00 2.79250E+01 0.00000E+00
 -1       172 2.59800E+00 2.49750E+01 0.00000E+00
 -1       173 2.59800E+00 2.20250E+01 0.00000E+00
 -1       174 2.59800E+00 1.90750E+01 0.00000E+00
 -1       175 2.59800E+00 1.61750E+01 0.00000E+00
 -1       176 2.59800E+00 1.32250E+01 0.00000E+00
 -1       177 2.59800E+00 1.02750E+01 0.00000E+00
 -1       178 2.59800E+00 7.32500E+00 0.00000E+00
 -1       179 2.59800E+00 4.37500E+00 0.00000E+00
 -1       180 2.87400E+00 2.18750E+00 0.00000E+00
 -1       181 4.65000E+00 4.74020E+01 0.00000E+00
 -1       182 7.65000E+00 4.74020E+01 0.00000E+00
 -1       183 1.06500E+01 4.74020E+01 0.00000E+00
 -1       184 1.36500E+01 4.74020E+01 0.00000E+00
 -1       185 1.66500E+01 4.74020E+01 0.00000E+00
 -1       186 1.96500E+01 4.74020E+01 0.00000E+00
 -1       187 2.26500E+01 4.74020E+01 0.00000E+00
 -1       188 2.56500E+01 4.74020E+01 0.00000E+00
 -1       189 2.86500E+01 4.74020E+01 0.00000E+00
 -1       190 3.16500E+01 4.74020E+01 0.00000E+00
 -1       191 3.46500E+01 4.74020E+01 0.00000E+00
 -1       192 3.76500E+01 4.74020E+01 0.00000E+00
 -1       193 4.06500E+01 4.74020E+01 0.00000E+00
 -1       194 4.36500E+01 4.74020E+01 0.00000E+00
 -1       195 4.66500E+01 4.74020E+01 0.00000E+00
 -1       196 4.96500E+01 4.74020E+01 0.00000E+00
 -1       197 5.26500E+01 4.74020E+01 0.00000E+00
 -1       198 5.56500E+01 4.74020E+01 0.00000E+00
 -1       199 5.86500E+01 4.74020E+01 0.00000E+00
 -1       200 6.16500E+01 4.74020E+01 0.00000E+00
 -1       201 6.46500E+01 4.74020E+01 0.00000E+00
 -1       202 6.76500E+01 4.74020E+01 0.00000E+00
 -1       203 7.06500E+01 4.74020E+01 0.00000E+00
 -1       204 7.36500E+01 4.74020E+01 0.00000E+00
 -1       205 7.66500E+01 4.74020E+01 0.00000E+00
 -1       206 7.96500E+01 4.74020E+01 0.00000E+00
 -1       207 8.26500E+01 4.74020E+01 0.00000E+00
 -1       208 8.56500E+01 4.74020E+01 0.00000E+00
 -1       209 8.86500E+01 4.74020E+01 0.00000E+00
 -1       210 9.16500E+01 4.74020E+01 0.00000E+00
 -1       211 9.46500E+01 4.74020E+01 0.00000E+00
 -1       212 9.76500E+01 4.74020E+01 0.00000E+00
 -1       213 1.00650E+02 4.74020E+01 0.00000E+00
 -1       214 1.03650E+02 4.74020E+01 0.00000E+00
 -1       215 1.06650E+02 4.74020E+01 0.00000E+00
 -1       216 1.09650E+02 4.74020E+01 0.00000E+00
 -1       217 1.12650E+02 4.74020E+01 0.00000E+00
 -1       218 1.15650E+02 4.74020E+01 0.00000E+00
 -1       219 1.18650E+02 4.74020E+01 0.00000E+00
 -1       220 1.21650E+02 4.74020E+01 0.00000E+00
 -1       221 1.24650E+02 4.74020E+01 0.00000E+00
 -1       222 1.27650E+02 4.74020E+01 0.00000E+00
 -1       223 1.30650E+02 4.74020E+01 0.00000E+00
 -1       224 1.33650E+02 4.74020E+01 0.00000E+00
 -1       225 1.36650E+02 4.74020E+01 0.00000E+00
 -1       226 1.39650E+02 4.74020E+01 0.00000E+00
 -1       227 1.42650E+02 4.74020E+01 0.00000E+00
 -1       228 1.45650E+02 4.74020E+01 0.00000E+00
 -1       229 5.87400E+00 2.18750E+00 0.00000E+00
 -1       230 8.87400E+00 2.18750E+00 0.00000E+00
 -1       231 1.18740E+01 2.18750E+00 0.00000E+00
 -1       232 1.48740E+01 2.18750E+00 0.00000E+00
 -1       233 1.78740E+01 2.18750E+00 0.00000E+00
 -1       234 2.08740E+01 2.18750E+00 0.00000E+00
 -1       235 2.38740E+01 2.18750E+00 0.00000E+00
 -1       236 2.68740E+01 2.18750E+00 0.00000E+00
 -1       237 2.98740E+01 2.18750E+00 0.00000E+00
 -1       238 3.28740E+01 2.18750E+00 0.00000E+00
 -1       239 3.58740E+01 2.18750E+00 0.00000E+00
 -1       240 3.88740E+01 2.18750E+00 0.00000E+00
 -1       241 4.18740E+01 2.18750E+00 0.00000E+00
 -1       242 4.48740E+01 2.18750E+00 0.00000E+00
 -1       243 4.78740E+01 2.18750E+00 0.00000E+00
 -1       244 5.08740E+01 2.18750E+00 0.00000E+00
 -1       245 5.38740E+01 2.18750E+00 0.00000E+00
 -1       246 5.68740E+01 2.18750E+00 0.00000E+00
 -1       247 5.98740E+01 2.18750E+00 0.00000E+00
 -1       248 6.28740E+01 2.18750E+00 0.00000E+00
 -1       249 6.58740E+01 2.18750E+00 0.00000E+00
 -1       250 6.88740E+01 2.18750E+00 0.00000E+00
 -1       251 7.18740E+01 2.18750E+00 0.00000E+00
 -1       252 7.48740E+01 2.18750E+00 0.00000E+00
 -1       253 7.78740E+01 2.18750E+00 0.00000E+00
 -1       254 8.08740E+01 2.18750E+00 0.00000E+00
 -1       255 8.38740E+01 2.18750E+00 0.00000E+00
 -1       256 8.68740E+01 2.18750E+00 0.00000E+00
 -1       257 8.98740E+01 2.18750E+00 0.00000E+00
 -1       258 9.28740E+01 2.18750E+00 0.00000E+00
 -1       259 9.58740E+01 2.18750E+00 0.00000E+00
 -1       260 9.88740E+01 2.18750E+00 0.00000E+00
 -1       261 1.01874E+02 2.18750E+00 0.00000E+00
 -1       262 1.04874E+02 2.18750E+00 0.00000E+00
 -1       263 1.07874E+02 2.18750E+00 0.00000E+00
 -1       264 1.10874E+02 2.18750E+00 0.00000E+00
 -1       265 1.13874E+02 2.18750E+00 0.00000E+00
 -1       266 1.16874E+02 2.18750E+00 0.00000E+00
 -1       267 1.19874E+02 2.18750E+00 0.00000E+00
 -1       268 1.22874E+02 2.18750E+00 0.00000E+00
 -1       269 1.25874E+02 2.18750E+00 0.00000E+00
 -1       270 1.28874E+02 2.18750E+00 0.00000E+00
 -1       271 1.31874E+02 2.18750E+00 0.00000E+00
 -1       272 1.34874E+02 2.18750E+00 0.00000E+00
 -1       273 1.37874E+02 2.18750E+00 0.00000E+00
 -1       274 1.40874E+02 2.18750E+00 0.00000E+00
 -1       275 1.43874E+02 2.18750E+00 0.00000E+00
 -1       276 1.46874E+02 2.18750E+00 0.00000E+00
 -1       277 1.47402E+02 4.42500E+00 0.00000E+00
 -1       278 1.47402E+02 7.37500E+00 0.00000E+00
 -1       279 1.47402E+02 1.03250E+01 0.00000E+00
 -1       280 1.47402E+02 1.32750E+01 0.00000E+00
 -1       281 1.47402E+02 1.61750E+01 0.00000E+00
 -1       282 1.47402E+02 1.91250E+01 0.00000E+00
 -1       283 1.47402E+02 2.20750E+01 0.00000E+00
 -1       284 1.47402E+02 2.50250E+01 0.00000E+00
 -1       285 1.47402E+02 2.79750E+01 0.00000E+00
 -1       286 1.47402E+02 3.09250E+01 0.00000E+00
 -1       287 1.47402E+02 3.38250E+01 0.00000E+00
 -1       288 1.47402E+02 3.67750E+01 0.00000E+00
 -1       289 1.47402E+02 3.97250E+01 0.00000E+00
 -1       290 1.47402E+02 4.26750E+01 0.00000E+00
 -1       291 1.46526E+02 4.50385E+01 0.00000E+00
 -1       292 5.85202E+01 2.75115E+01 0.00000E+00
 -1       293 5.81128E+01 2.59225E+01 0.00000E+00
 -1       294 5.75566E+01 2.44043E+01 0.00000E+00
 -1       295 5.65975E+01 2.30140E+01 0.00000E+00
 -1       296 5.53280E+01 2.19090E+01 0.00000E+00
 -1       297 5.39716E+01 2.09597E+01 0.00000E+00
 -1       298 5.24199E+01 2.04605E+01 0.00000E+00
 -1       299 5.07790E+01 2.01192E+01 0.00000E+00
 -1       300 4.90798E+01 2.02774E+01 0.00000E+00
 -1       301 4.74923E+01 2.06832E+01 0.00000E+00
 -1       302 4.58110E+01 2.11369E+01 0.00000E+00
 -1       303 4.47527E+01 2.21574E+01 0.00000E+00
 -1       304 4.35428E+01 2.37656E+01 0.00000E+00
 -1       305 4.26742E+01 2.52027E+01 0.00000E+00
 -1       306 4.22706E+01 2.68563E+01 0.00000E+00
 -1       307 4.21295E+01 2.85202E+01 0.00000E+00
 -1       308 4.22661E+01 3.02354E+01 0.00000E+00
 -1       309 4.29155E+01 3.18576E+01 0.00000E+00
 -1       310 4.35691E+01 3.35531E+01 0.00000E+00
 -1       311 4.48735E+01 3.49064E+01 0.00000E+00
 -1       312 4.65469E+01 3.58898E+01 0.00000E+00
 -1       313 4.84153E+01 3.64785E+01 0.00000E+00
 -1       314 5.02690E+01 3.65323E+01 0.00000E+00
 -1       315 5.20098E+01 3.63558E+01 0.00000E+00
 -1       316 5.36423E+01 3.58231E+01 0.00000E+00
 -1       317 5.52288E+01 3.50947E+01 0.00000E+00
 -1       318 5.66691E+01 3.40063E+01 0.00000E+00
 -1       319 5.75825E+01 3.24356E+01 0.00000E+00
 -1       320 5.81109E+01 3.07966E+01 0.00000E+00
 -1       321 5.85241E+01 2.91916E+01 0.00000E+00
 -1       322 5.19600E+00 4.11500E+01 0.00000E+00
 -1       323 5.19600E+00 4.41000E+01 0.00000E+00
 -1       324 5.19600E+00 3.52750E+01 0.00000E+00
 -1       325 5.19600E+00 3.23250E+01 0.00000E+00
 -1       326 5.19600E+00 2.93750E+01 0.00000E+00
 -1       327 5.19600E+00 2.64250E+01 0.00000E+00
 -1       328 5.19600E+00 2.34750E+01 0.00000E+00
 -1       329 5.19600E+00 2.05250E+01 0.00000E+00
 -1       330 5.19600E+00 1.76250E+01 0.00000E+00
 -1       331 5.19600E+00 1.46750E+01 0.00000E+00
 -1       332 5.19600E+00 1.17250E+01 0.00000E+00
 -1       333 5.19600E+00 8.77500E+00 0.00000E+00
 -1       334 5.19600E+00 5.82500E+00 0.00000E+00
 -1       335 5.53500E+00 4.00625E+00 0.00000E+00
 -1       336 8.53500E+00 4.00625E+00 0.00000E+00
 -1       337 4.30450E+01 2.21319E+01 0.00000E+00
 -1       338 9.15000E+00 4.48040E+01 0.00000E+00
 -1       339 1.21500E+01 4.48040E+01 0.00000E+00
 -1       340 1.51500E+01 4.48040E+01 0.00000E+00
 -1       341 1.81500E+01 4.48040E+01 0.00000E+00
 -1       342 2.11500E+01 4.48040E+01 0.00000E+00
 -1       343 2.41500E+01 4.48040E+01 0.00000E+00
 -1       344 2.71500E+01 4.48040E+01 0.00000E+00
 -1       345 3.01500E+01 4.48040E+01 0.00000E+00
 -1       346 3.31500E+01 4.48040E+01 0.00000E+00
 -1       347 3.61500E+01 4.48040E+01 0.00000E+00
 -1       348 3.91500E+01 4.48040E+01 0.00000E+00
 -1       349 4.21500E+01 4.48040E+01 0.00000E+00
 -1       350 4.51500E+01 4.48040E+01 0.00000E+00
 -1       351 4.81500E+01 4.48040E+01 0.00000E+00
 -1       352 5.11500E+01 4.48040E+01 0.00000E+00
 -1       353 5.41500E+01 4.48040E+01 0.00000E+00
 -1       354 5.71500E+01 4.48040E+01 0.00000E+00
 -1       355 6.01500E+01 4.48040E+01 0.00000E+00
 -1       356 6.31500E+01 4.48040E+01 0.00000E+00
 -1       357 6.61500E+01 4.48040E+01 0.00000E+00
 -1       358 6.91500E+01 4.48040E+01 0.00000E+00
 -1       359 7.21500E+01 4.48040E+01 0.00000E+00
 -1       360 7.51500E+01 4.48040E+01 0.00000E+00
 -1       361 7.81500E+01 4.48040E+01 0.00000E+00
 -1       362 8.11500E+01 4.48040E+01 0.00000E+00
 -1       363 8.41500E+01 4.48040E+01 0.00000E+00
 -1       364 8.71500E+01 4.48040E+01 0.00000E+00
 -1       365 9.01500E+01 4.48040E+01 0.00000E+00
 -1       366 9.31500E+01 4.48040E+01 0.00000E+00
 -1       367 9.61500E+01 4.48040E+01 0.00000E+00
 -1       368 9.91500E+01 4.48040E+01 0.00000E+00
 -1       369 1.02150E+02 4.48040E+01 0.00000E+00
 -1       370 1.05150E+02 4.48040E+01 0.00000E+00
 -1       371 1.08150E+02 4.48040E+01 0.00000E+00
 -1       372 1.11150E+02 4.48040E+01 0.00000E+00
 -1       373 1.14150E+02 4.48040E+01 0.00000E+00
 -1       374 1.17150E+02 4.48040E+01 0.00000E+00
 -1       375 1.20150E+02 4.48040E+01 0.00000E+00
 -1       376 1.23150E+02 4.48040E+01 0.00000E+00
 -1       377 1.26150E+02 4.48040E+01 0.00000E+00
 -1       378 1.29150E+02 4.48040E+01 0.00000E+00
 -1       379 1.32150E+02 4.48040E+01 0.00000E+00
 -1       380 1.35150E+02 4.48040E+01 0.00000E+00
 -1       381 1.38150E+02 4.48040E+01 0.00000E+00
 -1       382 1.41150E+02 4.48040E+01 0.00000E+00
 -1       383 1.43838E+02 4.49212E+01 0.00000E+00
 -1       384 1.15350E+01 4.00625E+00 0.00000E+00
 -1       385 1.45350E+01 4.00625E+00 0.00000E+00
 -1       386 1.75350E+01 4.00625E+00 0.00000E+00
 -1       387 2.05350E+01 4.00625E+00 0.00000E+00
 -1       388 2.35350E+01 4.00625E+00 0.00000E+00
 -1       389 2.65350E+01 4.00625E+00 0.00000E+00
 -1       390 2.95350E+01 4.00625E+00 0.00000E+00
 -1       391 3.25350E+01 4.00625E+00 0.00000E+00
 -1       392 3.55350E+01 4.00625E+00 0.00000E+00
 -1       393 3.85350E+01 4.00625E+00 0.00000E+00
 -1       394 4.15350E+01 4.00625E+00 0.00000E+00
 -1       395 4.45350E+01 4.00625E+00 0.00000E+00
 -1       396 4.75350E+01 4.00625E+00 0.00000E+00
 -1       397 5.05350E+01 4.00625E+00 0.00000E+00
 -1       398 5.35350E+01 4.00625E+00 0.00000E+00
 -1       399 5.65350E+01 4.00625E+00 0.00000E+00
 -1       400 5.95350E+01 4.00625E+00 0.00000E+00
 -1       401 6.25350E+01 4.00625E+00 0.00000E+00
 -1       402 6.55350E+01 4.00625E+00 0.00000E+00
 -1       403 6.85350E+01 4.00625E+00 0.00000E+00
 -1       404 7.15350E+01 4.00625E+00 0.00000E+00
 -1       405 7.45350E+01 4.00625E+00 0.00000E+00
 -1       406 7.75350E+01 4.00625E+00 0.00000E+00
 -1       407 8.05350E+01 4.00625E+00 0.00000E+00
 -1       408 8.35350E+01 4.00625E+00 0.00000E+00
 -1       409 8.65350E+01 4.00625E+00 0.00000E+00
 -1       410 8.95350E+01 4.00625E+00 0.00000E+00
 -1       411 9.25350E+01 4.00625E+00 0.00000E+00
 -1       412 9.55350E+01 4.00625E+00 0.00000E+00
 -1       413 9.85350E+01 4.00625E+00 0.00000E+00
 -1       414 1.01535E+02 4.00625E+00 0.00000E+00
 -1       415 1.04535E+02 4.00625E+00 0.00000E+00
 -1       416 1.07535E+02 4.00625E+00 0.00000E+00
 -1       417 1.10535E+02 4.00625E+00 0.00000E+00
 -1       418 1.13535E+02 4.00625E+00 0.00000E+00
 -1       419 1.16535E+02 4.00625E+00 0.00000E+00
 -1       420 1.19535E+02 4.00625E+00 0.00000E+00
 -1       421 1.22535E+02 4.00625E+00 0.00000E+00
 -1       422 1.25535E+02 4.00625E+00 0.00000E+00
 -1       423 1.28535E+02 4.00625E+00 0.00000E+00
 -1       424 1.31535E+02 4.00625E+00 0.00000E+00
 -1       425 1.34535E+02 4.00625E+00 0.00000E+00
 -1       426 1.37535E+02 4.00625E+00 0.00000E+00
 -1       427 1.40535E+02 4.00625E+00 0.00000E+00
 -1       428 1.43535E+02 4.00625E+00 0.00000E+00
 -1       429 1.45469E+02 4.21562E+00 0.00000E+00
 -1       430 1.44804E+02 1.18000E+01 0.00000E+00
 -1       431 1.44804E+02 8.85000E+00 0.00000E+00
 -1       432 1.45136E+02 6.53281E+00 0.00000E+00
 -1       433 1.44804E+02 1.47000E+01 0.00000E+00
 -1       434 1.44804E+02 1.76500E+01 0.00000E+00
 -1       435 1.44804E+02 2.06000E+01 0.00000E+00
 -1       436 1.44804E+02 2.35500E+01 0.00000E+00
 -1       437 1.44804E+02 2.65000E+01 0.00000E+00
 -1       438 1.44804E+02 2.94500E+01 0.00000E+00
 -1       439 1.44804E+02 3.23500E+01 0.00000E+00
 -1       440 1.44804E+02 3.53000E+01 0.00000E+00
 -1       441 1.44804E+02 3.82500E+01 0.00000E+00
 -1       442 1.44804E+02 4.12000E+01 0.00000E+00
 -1       443 5.92091E+01 2.46599E+01 0.00000E+00
 -1       444 5.98184E+01 2.83485E+01 0.00000E+00
 -1       445 5.96166E+01 2.62488E+01 0.00000E+00
 -1       446 5.82130E+01 2.29256E+01 0.00000E+00
 -1       447 4.42658E+01 2.05935E+01 0.00000E+00
 -1       448 4.08062E+01 2.56228E+01 0.00000E+00
 -1       449 5.68687E+01 2.14206E+01 0.00000E+00
 -1       450 5.19600E+00 3.82125E+01 0.00000E+00
 -1       451 5.36697E+01 1.92370E+01 0.00000E+00
 -1       452 5.20288E+01 1.88956E+01 0.00000E+00
 -1       453 4.97704E+01 1.84905E+01 0.00000E+00
 -1       454 4.81829E+01 1.88964E+01 0.00000E+00
 -1       455 4.62921E+01 1.95778E+01 0.00000E+00
 -1       456 4.19992E+01 2.38136E+01 0.00000E+00
 -1       457 4.09085E+01 2.75787E+01 0.00000E+00
 -1       458 4.05716E+01 2.95073E+01 0.00000E+00
 -1       459 4.11541E+01 3.16216E+01 0.00000E+00
 -1       460 4.18077E+01 3.33171E+01 0.00000E+00
 -1       461 4.32277E+01 3.51874E+01 0.00000E+00
 -1       462 4.49686E+01 3.66600E+01 0.00000E+00
 -1       463 4.69909E+01 3.77401E+01 0.00000E+00
 -1       464 4.92948E+01 3.81360E+01 0.00000E+00
 -1       465 5.10356E+01 3.79596E+01 0.00000E+00
 -1       466 5.33062E+01 3.75606E+01 0.00000E+00
 -1       467 5.48926E+01 3.68322E+01 0.00000E+00
 -1       468 5.68314E+01 3.57183E+01 0.00000E+00
 -1       469 5.85360E+01 3.40411E+01 0.00000E+00
 -1       470 5.92399E+01 3.20652E+01 0.00000E+00
 -1       471 5.96531E+01 3.04603E+01 0.00000E+00
 -1       472 5.55124E+01 2.04713E+01 0.00000E+00
 -1       473 1.00350E+01 6.60425E+00 0.00000E+00
 -1       474 7.79400E+00 3.08500E+01 0.00000E+00
 -1       475 7.79400E+00 3.38000E+01 0.00000E+00
 -1       476 7.79400E+00 2.49500E+01 0.00000E+00
 -1       477 7.79400E+00 2.20000E+01 0.00000E+00
 -1       478 7.79400E+00 1.91000E+01 0.00000E+00
 -1       479 7.79400E+00 1.61500E+01 0.00000E+00
 -1       480 7.79400E+00 1.32000E+01 0.00000E+00
 -1       481 7.79400E+00 1.02500E+01 0.00000E+00
 -1       482 1.06500E+01 4.22060E+01 0.00000E+00
 -1       483 4.12079E+01 2.21555E+01 0.00000E+00
 -1       484 1.30350E+01 6.60425E+00 0.00000E+00
 -1       485 7.92300E+00 4.16780E+01 0.00000E+00
 -1       486 1.36500E+01 4.22060E+01 0.00000E+00
 -1       487 1.66500E+01 4.22060E+01 0.00000E+00
 -1       488 1.96500E+01 4.22060E+01 0.00000E+00
 -1       489 2.26500E+01 4.22060E+01 0.00000E+00
 -1       490 2.56500E+01 4.22060E+01 0.00000E+00
 -1       491 2.86500E+01 4.22060E+01 0.00000E+00
 -1       492 3.16500E+01 4.22060E+01 0.00000E+00
 -1       493 3.46500E+01 4.22060E+01 0.00000E+00
 -1       494 3.76500E+01 4.22060E+01 0.00000E+00
 -1       495 4.06500E+01 4.22060E+01 0.00000E+00
 -1       496 4.36500E+01 4.22060E+01 0.00000E+00
 -1       497 4.66500E+01 4.22060E+01 0.00000E+00
 -1       498 4.96500E+01 4.22060E+01 0.00000E+00
 -1       499 5.26500E+01 4.22060E+01 0.00000E+00
 -1       500 5.56500E+01 4.22060E+01 0.00000E+00
 -1       501 5.86500E+01 4.22060E+01 0.00000E+00
 -1       502 6.16500E+01 4.22060E+01 0.00000E+00
 -1       503 6.46500E+01 4.22060E+01 0.00000E+00
 -1       504 6.76500E+01 4.22060E+01 0.00000E+00
 -1       505 7.06500E+01 4.22060E+01 0.00000E+00
 -1       506 7.36500E+01 4.22060E+01 0.00000E+00
 -1       507 7.66500E+01 4.22060E+01 0.00000E+00
 -1       508 7.96500E+01 4.22060E+01 0.00000E+00
 -1       509 8.26500E+01 4.22060E+01 0.00000E+00
 -1       510 8.56500E+01 4.22060E+01 0.00000E+00
 -1       511 8.86500E+01 4.22060E+01 0.00000E+00
 -1       512 9.16500E+01 4.22060E+01 0.00000E+00
 -1       513 9.46500E+01 4.22060E+01 0.00000E+00
 -1       514 9.76500E+01 4.22060E+01 0.00000E+00
 -1       515 1.00650E+02 4.22060E+01 0.00000E+00
 -1       516 1.03650E+02 4.22060E+01 0.00000E+00
 -1       517 1.06650E+02 4.22060E+01 0.00000E+00
 -1       518 1.09650E+02 4.22060E+01 0.00000E+00
 -1       519 1.12650E+02 4.22060E+01 0.00000E+00
 -1       520 1.15650E+02 4.22060E+01 0.00000E+00
 -1       521 1.18650E+02 4.22060E+01 0.00000E+00
 -1       522 1.21650E+02 4.22060E+01 0.00000E+00
 -1       523 1.24650E+02 4.22060E+01 0.00000E+00
 -1       524 1.27650E+02 4.22060E+01 0.00000E+00
 -1       525 1.30650E+02 4.22060E+01 0.00000E+00
 -1       526 1.33650E+02 4.22060E+01 0.00000E+00
 -1       527 1.36650E+02 4.22060E+01 0.00000E+00
 -1       528 1.39650E+02 4.22060E+01 0.00000E+00
 -1       529 6.09930E+01 2.50492E+01 0.00000E+00
 -1       530 1.90350E+01 6.60425E+00 0.00000E+00
 -1       531 2.20350E+01 6.60425E+00 0.00000E+00
 -1       532 2.50350E+01 6.60425E+00 0.00000E+00
 -1       533 2.80350E+01 6.60425E+00 0.00000E+00
 -1       534 3.10350E+01 6.60425E+00 0.00000E+00
 -1       535 3.40350E+01 6.60425E+00 0.00000E+00
 -1       536 3.70350E+01 6.60425E+00 0.00000E+00
 -1       537 4.00350E+01 6.60425E+00 0.00000E+00
 -1       538 4.30350E+01 6.60425E+00 0.00000E+00
 -1       539 4.60350E+01 6.60425E+00 0.00000E+00
 -1       540 4.90350E+01 6.60425E+00 0.00000E+00
 -1       541 5.20350E+01 6.60425E+00 0.00000E+00
 -1       542 5.50350E+01 6.60425E+00 0.00000E+00
 -1       543 5.80350E+01 6.60425E+00 0.00000E+00
 -1       544 6.10350E+01 6.60425E+00 0.00000E+00
 -1       545 6.40350E+01 6.60425E+00 0.00000E+00
 -1       546 6.70350E+01 6.60425E+00 0.00000E+00
 -1       547 7.00350E+01 6.60425E+00 0.00000E+00
 -1       548 7.30350E+01 6.60425E+00 0.00000E+00
 -1       549 7.60350E+01 6.60425E+00 0.00000E+00
 -1       550 7.90350E+01 6.60425E+00 0.00000E+00
 -1       551 8.20350E+01 6.60425E+00 0.00000E+00
 -1       552 8.50350E+01 6.60425E+00 0.00000E+00
 -1       553 8.80350E+01 6.60425E+00 0.00000E+00
 -1       554 9.10350E+01 6.60425E+00 0.00000E+00
 -1       555 9.40350E+01 6.60425E+00 0.00000E+00
 -1       556 9.70350E+01 6.60425E+00 0.00000E+00
 -1       557 1.00035E+02 6.60425E+00 0.00000E+00
 -1       558 1.03035E+02 6.60425E+00 0.00000E+00
 -1       559 1.06035E+02 6.60425E+00 0.00000E+00
 -1       560 1.09035E+02 6.60425E+00 0.00000E+00
 -1       561 1.12035E+02 6.60425E+00 0.00000E+00
 -1       562 1.15035E+02 6.60425E+00 0.00000E+00
 -1       563 1.18035E+02 6.60425E+00 0.00000E+00
 -1       564 1.21035E+02 6.60425E+00 0.00000E+00
 -1       565 1.24035E+02 6.60425E+00 0.00000E+00
 -1       566 1.27035E+02 6.60425E+00 0.00000E+00
 -1       567 1.30035E+02 6.60425E+00 0.00000E+00
 -1       568 1.33035E+02 6.60425E+00 0.00000E+00
 -1       569 1.36035E+02 6.60425E+00 0.00000E+00
 -1       570 1.39035E+02 6.60425E+00 0.00000E+00
 -1       571 1.42035E+02 6.60425E+00 0.00000E+00
 -1       572 1.42206E+02 1.61750E+01 0.00000E+00
 -1       573 1.42206E+02 1.91250E+01 0.00000E+00
 -1       574 1.42206E+02 1.03250E+01 0.00000E+00
 -1       575 1.42206E+02 1.32500E+01 0.00000E+00
 -1       576 1.42206E+02 2.20750E+01 0.00000E+00
 -1       577 1.42206E+02 2.50250E+01 0.00000E+00
 -1       578 1.42206E+02 2.79750E+01 0.00000E+00
 -1       579 1.42206E+02 3.08750E+01 0.00000E+00
 -1       580 1.42206E+02 3.38250E+01 0.00000E+00
 -1       581 1.42206E+02 3.67750E+01 0.00000E+00
 -1       582 1.42206E+02 3.97250E+01 0.00000E+00
 -1       583 6.14456E+01 2.95382E+01 0.00000E+00
 -1       584 1.60350E+01 6.60425E+00 0.00000E+00
 -1       585 6.04889E+01 2.27716E+01 0.00000E+00
 -1       586 5.88200E+01 2.10305E+01 0.00000E+00
 -1       587 5.70779E+01 1.96781E+01 0.00000E+00
 -1       588 4.44353E+01 1.84026E+01 0.00000E+00
 -1       589 4.78523E+01 3.96284E+01 0.00000E+00
 -1       590 3.93709E+01 3.09755E+01 0.00000E+00
 -1       591 6.05036E+01 3.36287E+01 0.00000E+00
 -1       592 4.23775E+01 2.03487E+01 0.00000E+00
 -1       593 7.79400E+00 2.79000E+01 0.00000E+00
 -1       594 5.32327E+01 1.72231E+01 0.00000E+00
 -1       595 3.93956E+01 2.66772E+01 0.00000E+00
 -1       596 4.84688E+01 1.67071E+01 0.00000E+00
 -1       597 4.00149E+01 2.39647E+01 0.00000E+00
 -1       598 6.11948E+01 2.71489E+01 0.00000E+00
 -1       599 5.09743E+01 1.68180E+01 0.00000E+00
 -1       600 5.52353E+01 1.84438E+01 0.00000E+00
 -1       601 4.64521E+01 1.75548E+01 0.00000E+00
 -1       602 3.90587E+01 2.86059E+01 0.00000E+00
 -1       603 4.00245E+01 3.26710E+01 0.00000E+00
 -1       604 5.91217E+01 3.63411E+01 0.00000E+00
 -1       605 4.11517E+01 3.52894E+01 0.00000E+00
 -1       606 4.52112E+01 3.86390E+01 0.00000E+00
 -1       607 5.03382E+01 3.97542E+01 0.00000E+00
 -1       608 5.24532E+01 3.93668E+01 0.00000E+00
 -1       609 5.47451E+01 3.86028E+01 0.00000E+00
 -1       610 5.66747E+01 3.76897E+01 0.00000E+00
 -1       611 6.09746E+01 3.15834E+01 0.00000E+00
 -1       612 4.27740E+01 3.74891E+01 0.00000E+00
 -1       613 7.61550E+00 6.21462E+00 0.00000E+00
 -1       614 7.79400E+00 3.67375E+01 0.00000E+00
 -1       615 1.41678E+02 4.22645E+01 0.00000E+00
 -1       616 3.86043E+01 2.50192E+01 0.00000E+00
 -1       617 3.93685E+01 3.46433E+01 0.00000E+00
 -1       618 1.03920E+01 2.05500E+01 0.00000E+00
 -1       619 1.03920E+01 2.35000E+01 0.00000E+00
 -1       620 1.03920E+01 1.46750E+01 0.00000E+00
 -1       621 1.03920E+01 1.17250E+01 0.00000E+00
 -1       622 5.24655E+01 1.50025E+01 0.00000E+00
 -1       623 1.40178E+02 3.96665E+01 0.00000E+00
 -1       624 1.21500E+01 3.96080E+01 0.00000E+00
 -1       625 1.15350E+01 9.20225E+00 0.00000E+00
 -1       626 2.35350E+01 9.20225E+00 0.00000E+00
 -1       627 1.51500E+01 3.96080E+01 0.00000E+00
 -1       628 1.81500E+01 3.96080E+01 0.00000E+00
 -1       629 2.11500E+01 3.96080E+01 0.00000E+00
 -1       630 2.41500E+01 3.96080E+01 0.00000E+00
 -1       631 2.71500E+01 3.96080E+01 0.00000E+00
 -1       632 3.01500E+01 3.96080E+01 0.00000E+00
 -1       633 3.31500E+01 3.96080E+01 0.00000E+00
 -1       634 3.61500E+01 3.96080E+01 0.00000E+00
 -1       635 3.91500E+01 3.96080E+01 0.00000E+00
 -1       636 5.71500E+01 3.99882E+01 0.00000E+00
 -1       637 6.01500E+01 3.99882E+01 0.00000E+00
 -1       638 6.31500E+01 3.99882E+01 0.00000E+00
 -1       639 6.61500E+01 3.99882E+01 0.00000E+00
 -1       640 6.91500E+01 3.99882E+01 0.00000E+00
 -1       641 7.21500E+01 3.99882E+01 0.00000E+00
 -1       642 7.51500E+01 3.99882E+01 0.00000E+00
 -1       643 7.81500E+01 3.99882E+01 0.00000E+00
 -1       644 8.11500E+01 3.99882E+01 0.00000E+00
 -1       645 8.41500E+01 3.99882E+01 0.00000E+00
 -1       646 8.71500E+01 3.99882E+01 0.00000E+00
 -1       647 9.01500E+01 3.99882E+01 0.00000E+00
 -1       648 9.31500E+01 3.99882E+01 0.00000E+00
 -1       649 9.61500E+01 3.99882E+01 0.00000E+00
 -1       650 9.91500E+01 3.99882E+01 0.00000E+00
 -1       651 1.02150E+02 3.99882E+01 0.00000E+00
 -1       652 1.05150E+02 3.99882E+01 0.00000E+00
 -1       653 1.08150E+02 3.99882E+01 0.00000E+00
 -1       654 1.11150E+02 3.99882E+01 0.00000E+00
 -1       655 1.14150E+02 3.99882E+01 0.00000E+00
 -1       656 1.17150E+02 3.99882E+01 0.00000E+00
 -1       657 1.20150E+02 3.99882E+01 0.00000E+00
 -1       658 1.23150E+02 3.99882E+01 0.00000E+00
 -1       659 1.26150E+02 3.99882E+01 0.00000E+00
 -1       660 1.29150E+02 3.99882E+01 0.00000E+00
 -1       661 1.32150E+02 3.99882E+01 0.00000E+00
 -1       662 1.35150E+02 3.99882E+01 0.00000E+00
 -1       663 1.37664E+02 3.98273E+01 0.00000E+00
 -1       664 5.41416E+01 4.06119E+01 0.00000E+00
 -1       665 2.05350E+01 9.20225E+00 0.00000E+00
 -1       666 2.95350E+01 9.20225E+00 0.00000E+00
 -1       667 3.25350E+01 9.20225E+00 0.00000E+00
 -1       668 3.55350E+01 9.20225E+00 0.00000E+00
 -1       669 3.85350E+01 9.20225E+00 0.00000E+00
 -1       670 4.15350E+01 9.20225E+00 0.00000E+00
 -1       671 4.45350E+01 9.20225E+00 0.00000E+00
 -1       672 4.75350E+01 9.20225E+00 0.00000E+00
 -1       673 5.05350E+01 9.20225E+00 0.00000E+00
 -1       674 5.35350E+01 9.20225E+00 0.00000E+00
 -1       675 5.65350E+01 9.20225E+00 0.00000E+00
 -1       676 5.95350E+01 9.20225E+00 0.00000E+00
 -1       677 6.25350E+01 9.20225E+00 0.00000E+00
 -1       678 6.55350E+01 9.20225E+00 0.00000E+00
 -1       679 6.85350E+01 9.20225E+00 0.00000E+00
 -1       680 7.15350E+01 9.20225E+00 0.00000E+00
 -1       681 7.45350E+01 9.20225E+00 0.00000E+00
 -1       682 7.75350E+01 9.20225E+00 0.00000E+00
 -1       683 8.05350E+01 9.20225E+00 0.00000E+00
 -1       684 8.35350E+01 9.20225E+00 0.00000E+00
 -1       685 8.65350E+01 9.20225E+00 0.00000E+00
 -1       686 8.95350E+01 9.20225E+00 0.00000E+00
 -1       687 9.25350E+01 9.20225E+00 0.00000E+00
 -1       688 9.55350E+01 9.20225E+00 0.00000E+00
 -1       689 9.85350E+01 9.20225E+00 0.00000E+00
 -1       690 1.01535E+02 9.20225E+00 0.00000E+00
 -1       691 1.04535E+02 9.20225E+00 0.00000E+00
 -1       692 1.07535E+02 9.20225E+00 0.00000E+00
 -1       693 1.10535E+02 9.20225E+00 0.00000E+00
 -1       694 1.13535E+02 9.20225E+00 0.00000E+00
 -1       695 1.16535E+02 9.20225E+00 0.00000E+00
 -1       696 1.19535E+02 9.20225E+00 0.00000E+00
 -1       697 1.22535E+02 9.20225E+00 0.00000E+00
 -1       698 1.25535E+02 9.20225E+00 0.00000E+00
 -1       699 1.28535E+02 9.20225E+00 0.00000E+00
 -1       700 1.31535E+02 9.20225E+00 0.00000E+00
 -1       701 1.34535E+02 9.20225E+00 0.00000E+00
 -1       702 1.37535E+02 9.20225E+00 0.00000E+00
 -1       703 1.39870E+02 9.76363E+00 0.00000E+00
 -1       704 5.90007E+01 1.89995E+01 0.00000E+00
 -1       705 1.39608E+02 2.35500E+01 0.00000E+00
 -1       706 1.39608E+02 1.76500E+01 0.00000E+00
 -1       707 1.39608E+02 2.65000E+01 0.00000E+00
 -1       708 1.39608E+02 2.06000E+01 0.00000E+00
 -1       709 4.98048E+01 1.48817E+01 0.00000E+00
 -1       710 1.39608E+02 2.94000E+01 0.00000E+00
 -1       711 1.39608E+02 3.23500E+01 0.00000E+00
 -1       712 1.39608E+02 3.53000E+01 0.00000E+00
 -1       713 1.75350E+01 9.20225E+00 0.00000E+00
 -1       714 3.77027E+01 2.73753E+01 0.00000E+00
 -1       715 4.04477E+01 3.75067E+01 0.00000E+00
 -1       716 2.65350E+01 9.20225E+00 0.00000E+00
 -1       717 6.17888E+01 3.59917E+01 0.00000E+00
 -1       718 6.10136E+01 2.05983E+01 0.00000E+00
 -1       719 1.45350E+01 9.20225E+00 0.00000E+00
 -1       720 3.77847E+01 3.25607E+01 0.00000E+00
 -1       721 5.94694E+01 3.79899E+01 0.00000E+00
 -1       722 1.03920E+01 1.76125E+01 0.00000E+00
 -1       723 3.73483E+01 3.00366E+01 0.00000E+00
 -1       724 3.91796E+01 2.21159E+01 0.00000E+00
 -1       725 6.27178E+01 2.59429E+01 0.00000E+00
 -1       726 1.03920E+01 3.23250E+01 0.00000E+00
 -1       727 6.24155E+01 2.35397E+01 0.00000E+00
 -1       728 5.71581E+01 1.77652E+01 0.00000E+00
 -1       729 4.18825E+01 1.77643E+01 0.00000E+00
 -1       730 6.29686E+01 2.83323E+01 0.00000E+00
 -1       731 5.53883E+01 1.59397E+01 0.00000E+00
 -1       732 4.03492E+01 2.03091E+01 0.00000E+00
 -1       733 1.03920E+01 3.52625E+01 0.00000E+00
 -1       734 1.03920E+01 2.64500E+01 0.00000E+00
 -1       735 6.28815E+01 3.09457E+01 0.00000E+00
 -1       736 4.37375E+01 1.57693E+01 0.00000E+00
 -1       737 1.39870E+02 1.26886E+01 0.00000E+00
 -1       738 1.38636E+02 3.75637E+01 0.00000E+00
 -1       739 6.29402E+01 2.13664E+01 0.00000E+00
 -1       740 4.76176E+01 1.46825E+01 0.00000E+00
 -1       741 1.05210E+01 3.87342E+01 0.00000E+00
 -1       742 3.77690E+01 2.31704E+01 0.00000E+00
 -1       743 6.32417E+01 3.36705E+01 0.00000E+00
 -1       744 1.39739E+02 1.51693E+01 0.00000E+00
 -1       745 1.03920E+01 2.93875E+01 0.00000E+00
 -1       746 3.86645E+01 3.68606E+01 0.00000E+00
 -1       747 1.29900E+01 1.32000E+01 0.00000E+00
 -1       748 3.92162E+01 1.78921E+01 0.00000E+00
 -1       749 3.54932E+01 2.84353E+01 0.00000E+00
 -1       750 1.66500E+01 3.70100E+01 0.00000E+00
 -1       751 1.96500E+01 3.70100E+01 0.00000E+00
 -1       752 2.26500E+01 3.70100E+01 0.00000E+00
 -1       753 2.56500E+01 3.70100E+01 0.00000E+00
 -1       754 2.86500E+01 3.70100E+01 0.00000E+00
 -1       755 3.16500E+01 3.70100E+01 0.00000E+00
 -1       756 3.46500E+01 3.70100E+01 0.00000E+00
 -1       757 1.27710E+01 3.74352E+01 0.00000E+00
 -1       758 4.10631E+01 1.51424E+01 0.00000E+00
 -1       759 6.46500E+01 3.73902E+01 0.00000E+00
 -1       760 6.76500E+01 3.73902E+01 0.00000E+00
 -1       761 7.06500E+01 3.73902E+01 0.00000E+00
 -1       762 7.36500E+01 3.73902E+01 0.00000E+00
 -1       763 7.66500E+01 3.73902E+01 0.00000E+00
 -1       764 7.96500E+01 3.73902E+01 0.00000E+00
 -1       765 8.26500E+01 3.73902E+01 0.00000E+00
 -1       766 8.56500E+01 3.73902E+01 0.00000E+00
 -1       767 8.86500E+01 3.73902E+01 0.00000E+00
 -1       768 9.16500E+01 3.73902E+01 0.00000E+00
 -1       769 9.46500E+01 3.73902E+01 0.00000E+00
 -1       770 9.76500E+01 3.73902E+01 0.00000E+00
 -1       771 1.00650E+02 3.73902E+01 0.00000E+00
 -1       772 1.03650E+02 3.73902E+01 0.00000E+00
 -1       773 1.06650E+02 3.73902E+01 0.00000E+00
 -1       774 1.09650E+02 3.73902E+01 0.00000E+00
 -1       775 1.12650E+02 3.73902E+01 0.00000E+00
 -1       776 1.15650E+02 3.73902E+01 0.00000E+00
 -1       777 1.18650E+02 3.73902E+01 0.00000E+00
 -1       778 1.21650E+02 3.73902E+01 0.00000E+00
 -1       779 1.24650E+02 3.73902E+01 0.00000E+00
 -1       780 1.27650E+02 3.73902E+01 0.00000E+00
 -1       781 1.30650E+02 3.73902E+01 0.00000E+00
 -1       782 1.33650E+02 3.73902E+01 0.00000E+00
 -1       783 3.40350E+01 1.18003E+01 0.00000E+00
 -1       784 3.10350E+01 1.18003E+01 0.00000E+00
 -1       785 4.00350E+01 1.18003E+01 0.00000E+00
 -1       786 4.30350E+01 1.18003E+01 0.00000E+00
 -1       787 4.60350E+01 1.18003E+01 0.00000E+00
 -1       788 4.90350E+01 1.18003E+01 0.00000E+00
 -1       789 5.20350E+01 1.18003E+01 0.00000E+00
 -1       790 5.50350E+01 1.18003E+01 0.00000E+00
 -1       791 5.80350E+01 1.18003E+01 0.00000E+00
 -1       792 6.10350E+01 1.18003E+01 0.00000E+00
 -1       793 6.40350E+01 1.18003E+01 0.00000E+00
 -1       794 6.70350E+01 1.18003E+01 0.00000E+00
 -1       795 7.00350E+01 1.18003E+01 0.00000E+00
 -1       796 7.30350E+01 1.18003E+01 0.00000E+00
 -1       797 7.60350E+01 1.18003E+01 0.00000E+00
 -1       798 7.90350E+01 1.18003E+01 0.00000E+00
 -1       799 8.20350E+01 1.18003E+01 0.00000E+00
 -1       800 8.50350E+01 1.18003E+01 0.00000E+00
 -1       801 8.80350E+01 1.18003E+01 0.00000E+00
 -1       802 9.10350E+01 1.18003E+01 0.00000E+00
 -1       803 9.40350E+01 1.18003E+01 0.00000E+00
 -1       804 9.70350E+01 1.18003E+01 0.00000E+00
 -1       805 1.00035E+02 1.18003E+01 0.00000E+00
 -1       806 1.03035E+02 1.18003E+01 0.00000E+00
 -1       807 1.06035E+02 1.18003E+01 0.00000E+00
 -1       808 1.09035E+02 1.18003E+01 0.00000E+00
 -1       809 1.12035E+02 1.18003E+01 0.00000E+00
 -1       810 1.15035E+02 1.18003E+01 0.00000E+00
 -1       811 1.18035E+02 1.18003E+01 0.00000E+00
 -1       812 1.21035E+02 1.18003E+01 0.00000E+00
 -1       813 1.24035E+02 1.18003E+01 0.00000E+00
 -1       814 1.27035E+02 1.18003E+01 0.00000E+00
 -1       815 1.30035E+02 1.18003E+01 0.00000E+00
 -1       816 1.33035E+02 1.18003E+01 0.00000E+00
 -1       817 1.36035E+02 1.18003E+01 0.00000E+00
 -1       818 1.37953E+02 1.22444E+01 0.00000E+00
 -1       819 3.53811E+01 3.16765E+01 0.00000E+00
 -1       820 1.37625E+01 1.12011E+01 0.00000E+00
 -1       821 1.37010E+02 2.50250E+01 0.00000E+00
 -1       822 1.37010E+02 3.38250E+01 0.00000E+00
 -1       823 1.37010E+02 2.79250E+01 0.00000E+00
 -1       824 6.48822E+01 2.69236E+01 0.00000E+00
 -1       825 1.90350E+01 1.18003E+01 0.00000E+00
 -1       826 1.37010E+02 3.08750E+01 0.00000E+00
 -1       827 3.62386E+01 2.54645E+01 0.00000E+00
 -1       828 3.70350E+01 1.18003E+01 0.00000E+00
 -1       829 2.20350E+01 1.18003E+01 0.00000E+00
 -1       830 3.68113E+01 3.49445E+01 0.00000E+00
 -1       831 1.29900E+01 2.20250E+01 0.00000E+00
 -1       832 6.14907E+01 1.79310E+01 0.00000E+00
 -1       833 6.45800E+01 2.45203E+01 0.00000E+00
 -1       834 5.78656E+01 1.53087E+01 0.00000E+00
 -1       835 3.80466E+01 1.96990E+01 0.00000E+00
 -1       836 6.48066E+01 2.97017E+01 0.00000E+00
 -1       837 5.96782E+01 1.66199E+01 0.00000E+00
 -1       838 6.51669E+01 3.24264E+01 0.00000E+00
 -1       839 4.51246E+01 1.32516E+01 0.00000E+00
 -1       840 1.29900E+01 2.49750E+01 0.00000E+00
 -1       841 1.29900E+01 1.90875E+01 0.00000E+00
 -1       842 3.66360E+01 2.07534E+01 0.00000E+00
 -1       843 6.51046E+01 2.23470E+01 0.00000E+00
 -1       844 1.36164E+02 3.72293E+01 0.00000E+00
 -1       845 2.50350E+01 1.18003E+01 0.00000E+00
 -1       846 1.29900E+01 1.61437E+01 0.00000E+00
 -1       847 1.37079E+02 1.62724E+01 0.00000E+00
 -1       848 1.29900E+01 3.37938E+01 0.00000E+00
 -1       849 2.80350E+01 1.18003E+01 0.00000E+00
 -1       850 1.37079E+02 1.92224E+01 0.00000E+00
 -1       851 1.37045E+02 2.21237E+01 0.00000E+00
 -1       852 6.34174E+01 1.86991E+01 0.00000E+00
 -1       853 6.64084E+01 3.49083E+01 0.00000E+00
 -1       854 1.29900E+01 3.08563E+01 0.00000E+00
 -1       855 1.63988E+01 1.15007E+01 0.00000E+00
 -1       856 1.34496E+02 3.39858E+01 0.00000E+00
 -1       857 3.25350E+01 1.43982E+01 0.00000E+00
 -1       858 1.44274E+01 3.46401E+01 0.00000E+00
 -1       859 2.11500E+01 3.44120E+01 0.00000E+00
 -1       860 2.41500E+01 3.44120E+01 0.00000E+00
 -1       861 2.71500E+01 3.44120E+01 0.00000E+00
 -1       862 3.01500E+01 3.44120E+01 0.00000E+00
 -1       863 3.31500E+01 3.44120E+01 0.00000E+00
 -1       864 6.94084E+01 3.49083E+01 0.00000E+00
 -1       865 7.24084E+01 3.49083E+01 0.00000E+00
 -1       866 7.54084E+01 3.49083E+01 0.00000E+00
 -1       867 7.84084E+01 3.49083E+01 0.00000E+00
 -1       868 8.14084E+01 3.49083E+01 0.00000E+00
 -1       869 8.44084E+01 3.49083E+01 0.00000E+00
 -1       870 8.74084E+01 3.49083E+01 0.00000E+00
 -1       871 9.04084E+01 3.49083E+01 0.00000E+00
 -1       872 9.34084E+01 3.49083E+01 0.00000E+00
 -1       873 9.64084E+01 3.49083E+01 0.00000E+00
 -1       874 9.94084E+01 3.49083E+01 0.00000E+00
 -1       875 1.02408E+02 3.49083E+01 0.00000E+00
 -1       876 1.05408E+02 3.49083E+01 0.00000E+00
 -1       877 1.08408E+02 3.49083E+01 0.00000E+00
 -1       878 1.11408E+02 3.49083E+01 0.00000E+00
 -1       879 1.14408E+02 3.49083E+01 0.00000E+00
 -1       880 1.17408E+02 3.49083E+01 0.00000E+00
 -1       881 1.20408E+02 3.49083E+01 0.00000E+00
 -1       882 1.23408E+02 3.49083E+01 0.00000E+00
 -1       883 1.26408E+02 3.49083E+01 0.00000E+00
 -1       884 1.29408E+02 3.49083E+01 0.00000E+00
 -1       885 1.31952E+02 3.44471E+01 0.00000E+00
 -1       886 6.25350E+01 1.43982E+01 0.00000E+00
 -1       887 6.55350E+01 1.43982E+01 0.00000E+00
 -1       888 6.85350E+01 1.43982E+01 0.00000E+00
 -1       889 7.15350E+01 1.43982E+01 0.00000E+00
 -1       890 7.45350E+01 1.43982E+01 0.00000E+00
 -1       891 7.75350E+01 1.43982E+01 0.00000E+00
 -1       892 8.05350E+01 1.43982E+01 0.00000E+00
 -1       893 8.35350E+01 1.43982E+01 0.00000E+00
 -1       894 8.65350E+01 1.43982E+01 0.00000E+00
 -1       895 8.95350E+01 1.43982E+01 0.00000E+00
 -1       896 9.25350E+01 1.43982E+01 0.00000E+00
 -1       897 9.55350E+01 1.43982E+01 0.00000E+00
 -1       898 9.85350E+01 1.43982E+01 0.00000E+00
 -1       899 1.01535E+02 1.43982E+01 0.00000E+00
 -1       900 1.04535E+02 1.43982E+01 0.00000E+00
 -1       901 1.07535E+02 1.43982E+01 0.00000E+00
 -1       902 1.10535E+02 1.43982E+01 0.00000E+00
 -1       903 1.13535E+02 1.43982E+01 0.00000E+00
 -1       904 1.16535E+02 1.43982E+01 0.00000E+00
 -1       905 1.19535E+02 1.43982E+01 0.00000E+00
 -1       906 1.22535E+02 1.43982E+01 0.00000E+00
 -1       907 1.25535E+02 1.43982E+01 0.00000E+00
 -1       908 1.28535E+02 1.43982E+01 0.00000E+00
 -1       909 1.31535E+02 1.43982E+01 0.00000E+00
 -1       910 1.34535E+02 1.43982E+01 0.00000E+00
 -1       911 3.51057E+01 2.30475E+01 0.00000E+00
 -1       912 1.34412E+02 2.64750E+01 0.00000E+00
 -1       913 3.81595E+01 1.51872E+01 0.00000E+00
 -1       914 3.40398E+01 2.64917E+01 0.00000E+00
 -1       915 3.30531E+01 2.99734E+01 0.00000E+00
 -1       916 1.29900E+01 2.79188E+01 0.00000E+00
 -1       917 6.69316E+01 2.54452E+01 0.00000E+00
 -1       918 6.75177E+01 3.07295E+01 0.00000E+00
 -1       919 2.05350E+01 1.43982E+01 0.00000E+00
 -1       920 6.03566E+01 1.42101E+01 0.00000E+00
 -1       921 6.72246E+01 2.80874E+01 0.00000E+00
 -1       922 1.81500E+01 3.44120E+01 0.00000E+00
 -1       923 3.69899E+01 1.69941E+01 0.00000E+00
 -1       924 1.37516E+02 1.42584E+01 0.00000E+00
 -1       925 1.34447E+02 2.35737E+01 0.00000E+00
 -1       926 6.55818E+01 1.96798E+01 0.00000E+00
 -1       927 1.34496E+02 3.10358E+01 0.00000E+00
 -1       928 1.55880E+01 2.05562E+01 0.00000E+00
 -1       929 2.95350E+01 1.43982E+01 0.00000E+00
 -1       930 1.55880E+01 1.46719E+01 0.00000E+00
 -1       931 2.35350E+01 1.43982E+01 0.00000E+00
 -1       932 1.55880E+01 2.35063E+01 0.00000E+00
 -1       933 6.74562E+01 2.32719E+01 0.00000E+00
 -1       934 6.33375E+01 1.60993E+01 0.00000E+00
 -1       935 1.59934E+01 1.30863E+01 0.00000E+00
 -1       936 6.84631E+01 3.28189E+01 0.00000E+00
 -1       937 1.34454E+02 2.87554E+01 0.00000E+00
 -1       938 3.53472E+01 1.47927E+01 0.00000E+00
 -1       939 3.55793E+01 1.80485E+01 0.00000E+00
 -1       940 1.44274E+01 3.17026E+01 0.00000E+00
 -1       941 1.82642E+01 1.37423E+01 0.00000E+00
 -1       942 1.34481E+02 1.77474E+01 0.00000E+00
 -1       943 2.56500E+01 3.18140E+01 0.00000E+00
 -1       944 2.86500E+01 3.18140E+01 0.00000E+00
 -1       945 3.08516E+01 3.08937E+01 0.00000E+00
 -1       946 2.65350E+01 1.43982E+01 0.00000E+00
 -1       947 7.14631E+01 3.28189E+01 0.00000E+00
 -1       948 7.44631E+01 3.28189E+01 0.00000E+00
 -1       949 7.74631E+01 3.28189E+01 0.00000E+00
 -1       950 8.04631E+01 3.28189E+01 0.00000E+00
 -1       951 8.34631E+01 3.28189E+01 0.00000E+00
 -1       952 8.64631E+01 3.28189E+01 0.00000E+00
 -1       953 8.94631E+01 3.28189E+01 0.00000E+00
 -1       954 9.24631E+01 3.28189E+01 0.00000E+00
 -1       955 9.54631E+01 3.28189E+01 0.00000E+00
 -1       956 9.84631E+01 3.28189E+01 0.00000E+00
 -1       957 1.01463E+02 3.28189E+01 0.00000E+00
 -1       958 1.04463E+02 3.28189E+01 0.00000E+00
 -1       959 1.07463E+02 3.28189E+01 0.00000E+00
 -1       960 1.10463E+02 3.28189E+01 0.00000E+00
 -1       961 1.13463E+02 3.28189E+01 0.00000E+00
 -1       962 1.16463E+02 3.28189E+01 0.00000E+00
 -1       963 1.19463E+02 3.28189E+01 0.00000E+00
 -1       964 1.22463E+02 3.28189E+01 0.00000E+00
 -1       965 1.25463E+02 3.28189E+01 0.00000E+00
 -1       966 1.28463E+02 3.28189E+01 0.00000E+00
 -1       967 6.70350E+01 1.69963E+01 0.00000E+00
 -1       968 3.14127E+01 2.76278E+01 0.00000E+00
 -1       969 7.30350E+01 1.69963E+01 0.00000E+00
 -1       970 7.60350E+01 1.69963E+01 0.00000E+00
 -1       971 7.90350E+01 1.69963E+01 0.00000E+00
 -1       972 8.20350E+01 1.69963E+01 0.00000E+00
 -1       973 8.50350E+01 1.69963E+01 0.00000E+00
 -1       974 8.80350E+01 1.69963E+01 0.00000E+00
 -1       975 9.10350E+01 1.69963E+01 0.00000E+00
 -1       976 9.40350E+01 1.69963E+01 0.00000E+00
 -1       977 9.70350E+01 1.69963E+01 0.00000E+00
 -1       978 1.00035E+02 1.69963E+01 0.00000E+00
 -1       979 1.03035E+02 1.69963E+01 0.00000E+00
 -1       980 1.06035E+02 1.69963E+01 0.00000E+00
 -1       981 1.09035E+02 1.69963E+01 0.00000E+00
 -1       982 1.12035E+02 1.69963E+01 0.00000E+00
 -1       983 1.15035E+02 1.69963E+01 0.00000E+00
 -1       984 1.18035E+02 1.69963E+01 0.00000E+00
 -1       985 1.21035E+02 1.69963E+01 0.00000E+00
 -1       986 1.24035E+02 1.69963E+01 0.00000E+00
 -1       987 1.27035E+02 1.69963E+01 0.00000E+00
 -1       988 1.30035E+02 1.69963E+01 0.00000E+00
 -1       989 3.24785E+01 2.41837E+01 0.00000E+00
 -1       990 1.55880E+01 2.64500E+01 0.00000E+00
 -1       991 1.55880E+01 2.93875E+01 0.00000E+00
 -1       992 1.55880E+01 1.76141E+01 0.00000E+00
 -1       993 2.26500E+01 3.18140E+01 0.00000E+00
 -1       994 7.00350E+01 1.69963E+01 0.00000E+00
 -1       995 1.96500E+01 3.18140E+01 0.00000E+00
 -1       996 1.34447E+02 2.06487E+01 0.00000E+00
 -1       997 3.40490E+01 2.03426E+01 0.00000E+00
 -1       998 1.31831E+02 2.49933E+01 0.00000E+00
 -1       999 3.10350E+01 1.69963E+01 0.00000E+00
 -1      1000 1.31952E+02 3.14971E+01 0.00000E+00
 -1      1001 1.30000E+02 1.98976E+01 0.00000E+00
 -1      1002 1.30208E+02 3.21580E+01 0.00000E+00
 -1      1003 2.20350E+01 1.69963E+01 0.00000E+00
 -1      1004 1.81860E+01 1.90852E+01 0.00000E+00
 -1      1005 3.40572E+01 1.62234E+01 0.00000E+00
 -1      1006 1.81860E+01 2.20352E+01 0.00000E+00
 -1      1007 6.79334E+01 2.06047E+01 0.00000E+00
 -1      1008 6.97420E+01 2.91454E+01 0.00000E+00
 -1      1009 7.06025E+01 3.09822E+01 0.00000E+00
 -1      1010 6.94490E+01 2.65033E+01 0.00000E+00
 -1      1011 1.80615E+01 1.60062E+01 0.00000E+00
 -1      1012 1.31874E+02 2.72738E+01 0.00000E+00
 -1      1013 6.99736E+01 2.43300E+01 0.00000E+00
 -1      1014 3.14218E+01 2.14788E+01 0.00000E+00
 -1      1015 2.92111E+01 2.85481E+01 0.00000E+00
 -1      1016 1.31913E+02 2.93854E+01 0.00000E+00
 -1      1017 2.80350E+01 1.69963E+01 0.00000E+00
 -1      1018 7.36025E+01 3.09822E+01 0.00000E+00
 -1      1019 7.66025E+01 3.09822E+01 0.00000E+00
 -1      1020 7.96025E+01 3.09822E+01 0.00000E+00
 -1      1021 8.26025E+01 3.09822E+01 0.00000E+00
 -1      1022 8.56025E+01 3.09822E+01 0.00000E+00
 -1      1023 8.86025E+01 3.09822E+01 0.00000E+00
 -1      1024 9.16025E+01 3.09822E+01 0.00000E+00
 -1      1025 9.46025E+01 3.09822E+01 0.00000E+00
 -1      1026 9.76025E+01 3.09822E+01 0.00000E+00
 -1      1027 1.00603E+02 3.09822E+01 0.00000E+00
 -1      1028 1.03603E+02 3.09822E+01 0.00000E+00
 -1      1029 1.06603E+02 3.09822E+01 0.00000E+00
 -1      1030 1.09603E+02 3.09822E+01 0.00000E+00
 -1      1031 1.12603E+02 3.09822E+01 0.00000E+00
 -1      1032 1.15603E+02 3.09822E+01 0.00000E+00
 -1      1033 1.18603E+02 3.09822E+01 0.00000E+00
 -1      1034 1.21603E+02 3.09822E+01 0.00000E+00
 -1      1035 1.24603E+02 3.09822E+01 0.00000E+00
 -1      1036 1.27603E+02 3.09822E+01 0.00000E+00
 -1      1037 2.11500E+01 2.92160E+01 0.00000E+00
 -1      1038 1.30916E+02 2.24454E+01 0.00000E+00
 -1      1039 3.25420E+01 1.86694E+01 0.00000E+00
 -1      1040 7.15350E+01 1.95942E+01 0.00000E+00
 -1      1041 7.45350E+01 1.95942E+01 0.00000E+00
 -1      1042 8.35350E+01 1.95942E+01 0.00000E+00
 -1      1043 8.65350E+01 1.95942E+01 0.00000E+00
 -1      1044 8.95350E+01 1.95942E+01 0.00000E+00
 -1      1045 9.25350E+01 1.95942E+01 0.00000E+00
 -1      1046 9.55350E+01 1.95942E+01 0.00000E+00
 -1      1047 9.85350E+01 1.95942E+01 0.00000E+00
 -1      1048 1.01535E+02 1.95942E+01 0.00000E+00
 -1      1049 1.04535E+02 1.95942E+01 0.00000E+00
 -1      1050 1.07535E+02 1.95942E+01 0.00000E+00
 -1      1051 1.10535E+02 1.95942E+01 0.00000E+00
 -1      1052 1.13535E+02 1.95942E+01 0.00000E+00
 -1      1053 1.16535E+02 1.95942E+01 0.00000E+00
 -1      1054 1.19535E+02 1.95942E+01 0.00000E+00
 -1      1055 1.22535E+02 1.95942E+01 0.00000E+00
 -1      1056 1.25535E+02 1.95942E+01 0.00000E+00
 -1      1057 2.50350E+01 1.69963E+01 0.00000E+00
 -1      1058 2.96668E+01 2.52006E+01 0.00000E+00
 -1      1059 8.05350E+01 1.95942E+01 0.00000E+00
 -1      1060 1.81860E+01 2.49789E+01 0.00000E+00
 -1      1061 2.62111E+01 2.85481E+01 0.00000E+00
 -1      1062 1.81860E+01 2.79164E+01 0.00000E+00
 -1      1063 2.36806E+01 2.88821E+01 0.00000E+00
 -1      1064 7.75350E+01 1.95942E+01 0.00000E+00
 -1      1065 7.21777E+01 2.75380E+01 0.00000E+00
 -1      1066 2.13497E+01 2.03241E+01 0.00000E+00
 -1      1067 2.95350E+01 1.95942E+01 0.00000E+00
 -1      1068 1.29347E+02 3.03213E+01 0.00000E+00
 -1      1069 1.28929E+02 2.45980E+01 0.00000E+00
 -1      1070 7.28901E+01 2.92601E+01 0.00000E+00
 -1      1071 2.43497E+01 2.03241E+01 0.00000E+00
 -1      1072 7.27023E+01 2.53646E+01 0.00000E+00
 -1      1073 1.28971E+02 2.68784E+01 0.00000E+00
 -1      1074 2.69424E+01 1.99592E+01 0.00000E+00
 -1      1075 6.97216E+01 2.14059E+01 0.00000E+00
 -1      1076 7.58901E+01 2.92601E+01 0.00000E+00
 -1      1077 7.88901E+01 2.92601E+01 0.00000E+00
 -1      1078 8.18901E+01 2.92601E+01 0.00000E+00
 -1      1079 8.48901E+01 2.92601E+01 0.00000E+00
 -1      1080 8.78901E+01 2.92601E+01 0.00000E+00
 -1      1081 9.08901E+01 2.92601E+01 0.00000E+00
 -1      1082 9.38901E+01 2.92601E+01 0.00000E+00
 -1      1083 9.68901E+01 2.92601E+01 0.00000E+00
 -1      1084 9.98901E+01 2.92601E+01 0.00000E+00
 -1      1085 1.02890E+02 2.92601E+01 0.00000E+00
 -1      1086 1.05890E+02 2.92601E+01 0.00000E+00
 -1      1087 1.08890E+02 2.92601E+01 0.00000E+00
 -1      1088 1.11890E+02 2.92601E+01 0.00000E+00
 -1      1089 1.14890E+02 2.92601E+01 0.00000E+00
 -1      1090 1.17890E+02 2.92601E+01 0.00000E+00
 -1      1091 1.20890E+02 2.92601E+01 0.00000E+00
 -1      1092 1.23890E+02 2.92601E+01 0.00000E+00
 -1      1093 1.26890E+02 2.92601E+01 0.00000E+00
 -1      1094 2.13497E+01 2.32679E+01 0.00000E+00
 -1      1095 1.27592E+02 2.23379E+01 0.00000E+00
 -1      1096 9.10350E+01 2.21922E+01 0.00000E+00
 -1      1097 2.09333E+01 2.69305E+01 0.00000E+00
 -1      1098 7.30350E+01 2.21922E+01 0.00000E+00
 -1      1099 8.80350E+01 2.21922E+01 0.00000E+00
 -1      1100 8.50350E+01 2.21922E+01 0.00000E+00
 -1      1101 9.40350E+01 2.21922E+01 0.00000E+00
 -1      1102 9.70350E+01 2.21922E+01 0.00000E+00
 -1      1103 1.00035E+02 2.21922E+01 0.00000E+00
 -1      1104 1.03035E+02 2.21922E+01 0.00000E+00
 -1      1105 1.06035E+02 2.21922E+01 0.00000E+00
 -1      1106 1.09035E+02 2.21922E+01 0.00000E+00
 -1      1107 1.12035E+02 2.21922E+01 0.00000E+00
 -1      1108 1.15035E+02 2.21922E+01 0.00000E+00
 -1      1109 1.18035E+02 2.21922E+01 0.00000E+00
 -1      1110 1.21035E+02 2.21922E+01 0.00000E+00
 -1      1111 1.24035E+02 2.21922E+01 0.00000E+00
 -1      1112 2.66668E+01 2.52006E+01 0.00000E+00
 -1      1113 8.20350E+01 2.21922E+01 0.00000E+00
 -1      1114 2.83046E+01 2.25799E+01 0.00000E+00
 -1      1115 7.90350E+01 2.21922E+01 0.00000E+00
 -1      1116 7.60350E+01 2.21922E+01 0.00000E+00
 -1      1117 1.29159E+02 2.85998E+01 0.00000E+00
 -1      1118 7.24360E+01 2.26449E+01 0.00000E+00
 -1      1119 7.42962E+01 2.73124E+01 0.00000E+00
 -1      1120 1.25372E+02 2.44523E+01 0.00000E+00
 -1      1121 2.38001E+01 2.60655E+01 0.00000E+00
 -1      1122 1.25414E+02 2.67327E+01 0.00000E+00
 -1      1123 2.48272E+01 2.29239E+01 0.00000E+00
 -1      1124 7.73901E+01 2.66621E+01 0.00000E+00
 -1      1125 8.03901E+01 2.66621E+01 0.00000E+00
 -1      1126 8.33901E+01 2.66621E+01 0.00000E+00
 -1      1127 8.63901E+01 2.66621E+01 0.00000E+00
 -1      1128 8.93901E+01 2.66621E+01 0.00000E+00
 -1      1129 9.23901E+01 2.66621E+01 0.00000E+00
 -1      1130 9.53901E+01 2.66621E+01 0.00000E+00
 -1      1131 9.83901E+01 2.66621E+01 0.00000E+00
 -1      1132 1.01390E+02 2.66621E+01 0.00000E+00
 -1      1133 1.04390E+02 2.66621E+01 0.00000E+00
 -1      1134 1.07390E+02 2.66621E+01 0.00000E+00
 -1      1135 1.10390E+02 2.66621E+01 0.00000E+00
 -1      1136 1.13390E+02 2.66621E+01 0.00000E+00
 -1      1137 1.16390E+02 2.66621E+01 0.00000E+00
 -1      1138 1.19390E+02 2.66621E+01 0.00000E+00
 -1      1139 1.22390E+02 2.66621E+01 0.00000E+00
 -1      1140 7.51548E+01 2.37516E+01 0.00000E+00
 -1      1141 0.00000E+00 4.85250E+01 0.00000E+00
 -1      1142 0.00000E+00 4.55750E+01 0.00000E+00
 -1      1143 0.00000E+00 4.26250E+01 0.00000E+00
 -1      1144 0.00000E+00 3.96750E+01 0.00000E+00
 -1      1145 0.00000E+00 3.67250E+01 0.00000E+00
 -1      1146 0.00000E+00 3.38000E+01 0.00000E+00
 -1      1147 0.00000E+00 3.08750E+01 0.00000E+00
 -1      1148 0.00000E+00 2.79250E+01 0.00000E+00
 -1      1149 0.00000E+00 2.49750E+01 0.00000E+00
 -1      1150 0.00000E+00 2.20250E+01 0.00000E+00
 -1      1151 0.00000E+00 1.90750E+01 0.00000E+00
 -1      1152 0.00000E+00 1.61500E+01 0.00000E+00
 -1      1153 0.00000E+00 1.32250E+01 0.00000E+00
 -1      1154 0.00000E+00 1.02750E+01 0.00000E+00
 -1      1155 0.00000E+00 7.32500E+00 0.00000E+00
 -1      1156 0.00000E+00 4.37500E+00 0.00000E+00
 -1      1157 0.00000E+00 1.45000E+00 0.00000E+00
 -1      1158 1.57500E+00 5.00000E+01 0.00000E+00
 -1      1159 4.65000E+00 5.00000E+01 0.00000E+00
 -1      1160 7.65000E+00 5.00000E+01 0.00000E+00
 -1      1161 1.06500E+01 5.00000E+01 0.00000E+00
 -1      1162 1.36500E+01 5.00000E+01 0.00000E+00
 -1      1163 1.66500E+01 5.00000E+01 0.00000E+00
 -1      1164 1.96500E+01 5.00000E+01 0.00000E+00
 -1      1165 2.26500E+01 5.00000E+01 0.00000E+00
 -1      1166 2.56500E+01 5.00000E+01 0.00000E+00
 -1      1167 2.86500E+01 5.00000E+01 0.00000E+00
 -1      1168 3.16500E+01 5.00000E+01 0.00000E+00
 -1      1169 3.46500E+01 5.00000E+01 0.00000E+00
 -1      1170 3.76500E+01 5.00000E+01 0.00000E+00
 -1      1171 4.06500E+01 5.00000E+01 0.00000E+00
 -1      1172 4.36500E+01 5.00000E+01 0.00000E+00
 -1      1173 4.66500E+01 5.00000E+01 0.00000E+00
 -1      1174 4.96500E+01 5.00000E+01 0.00000E+00
 -1      1175 5.26500E+01 5.00000E+01 0.00000E+00
 -1      1176 5.56500E+01 5.00000E+01 0.00000E+00
 -1      1177 5.86500E+01 5.00000E+01 0.00000E+00
 -1      1178 6.16500E+01 5.00000E+01 0.00000E+00
 -1      1179 6.46500E+01 5.00000E+01 0.00000E+00
 -1      1180 6.76500E+01 5.00000E+01 0.00000E+00
 -1      1181 7.06500E+01 5.00000E+01 0.00000E+00
 -1      1182 7.36500E+01 5.00000E+01 0.00000E+00
 -1      1183 7.66500E+01 5.00000E+01 0.00000E+00
 -1      1184 7.96500E+01 5.00000E+01 0.00000E+00
 -1      1185 8.26500E+01 5.00000E+01 0.00000E+00
 -1      1186 8.56500E+01 5.00000E+01 0.00000E+00
 -1      1187 8.86500E+01 5.00000E+01 0.00000E+00
 -1      1188 9.16500E+01 5.00000E+01 0.00000E+00
 -1      1189 9.46500E+01 5.00000E+01 0.00000E+00
 -1      1190 9.76500E+01 5.00000E+01 0.00000E+00
 -1      1191 1.00650E+02 5.00000E+01 0.00000E+00
 -1      1192 1.03650E+02 5.00000E+01 0.00000E+00
 -1      1193 1.06650E+02 5.00000E+01 0.00000E+00
 -1      1194 1.09650E+02 5.00000E+01 0.00000E+00
 -1      1195 1.12650E+02 5.00000E+01 0.00000E+00
 -1      1196 1.15650E+02 5.00000E+01 0.00000E+00
 -1      1197 1.18650E+02 5.00000E+01 0.00000E+00
 -1      1198 1.21650E+02 5.00000E+01 0.00000E+00
 -1      1199 1.24650E+02 5.00000E+01 0.00000E+00
 -1      1200 1.27650E+02 5.00000E+01 0.00000E+00
 -1      1201 1.30650E+02 5.00000E+01 0.00000E+00
 -1      1202 1.33650E+02 5.00000E+01 0.00000E+00
 -1      1203 1.36650E+02 5.00000E+01 0.00000E+00
 -1      1204 1.39650E+02 5.00000E+01 0.00000E+00
 -1      1205 1.42650E+02 5.00000E+01 0.00000E+00
 -1      1206 1.45650E+02 5.00000E+01 0.00000E+00
 -1      1207 1.48575E+02 5.00000E+01 0.00000E+00
 -1      1208 1.57500E+00 0.00000E+00 0.00000E+00
 -1      1209 4.65000E+00 0.00000E+00 0.00000E+00
 -1      1210 7.65000E+00 0.00000E+00 0.00000E+00
 -1      1211 1.06500E+01 0.00000E+00 0.00000E+00
 -1      1212 1.36500E+01 0.00000E+00 0.00000E+00
 -1      1213 1.66500E+01 0.00000E+00 0.00000E+00
 -1      1214 1.96500E+01 0.00000E+00 0.00000E+00
 -1      1215 2.26500E+01 0.00000E+00 0.00000E+00
 -1      1216 2.56500E+01 0.00000E+00 0.00000E+00
 -1      1217 2.86500E+01 0.00000E+00 0.00000E+00
 -1      1218 3.16500E+01 0.00000E+00 0.00000E+00
 -1      1219 3.46500E+01 0.00000E+00 0.00000E+00
 -1      1220 3.76500E+01 0.00000E+00 0.00000E+00
 -1      1221 4.06500E+01 0.00000E+00 0.00000E+00
 -1      1222 4.36500E+01 0.00000E+00 0.00000E+00
 -1      1223 4.66500E+01 0.00000E+00 0.00000E+00
 -1      1224 4.96500E+01 0.00000E+00 0.00000E+00
 -1      1225 5.26500E+01 0.00000E+00 0.00000E+00
 -1      1226 5.56500E+01 0.00000E+00 0.00000E+00
 -1      1227 5.86500E+01 0.00000E+00 0.00000E+00
 -1      1228 6.16500E+01 0.00000E+00 0.00000E+00
 -1      1229 6.46500E+01 0.00000E+00 0.00000E+00
 -1      1230 6.76500E+01 0.00000E+00 0.00000E+00
 -1      1231 7.06500E+01 0.00000E+00 0.00000E+00
 -1      1232 7.36500E+01 0.00000E+00 0.00000E+00
 -1      1233 7.66500E+01 0.00000E+00 0.00000E+00
 -1      1234 7.96500E+01 0.00000E+00 0.00000E+00
 -1      1235 8.26500E+01 0.00000E+00 0.00000E+00
 -1      1236 8.56500E+01 0.00000E+00 0.00000E+00
 -1      1237 8.86500E+01 0.00000E+00 0.00000E+00
 -1      1238 9.16500E+01 0.00000E+00 0.00000E+00
 -1      1239 9.46500E+01 0.00000E+00 0.00000E+00
 -1      1240 9.76500E+01 0.00000E+00 0.00000E+00
 -1      1241 1.00650E+02 0.00000E+00 0.00000E+00
 -1      1242 1.03650E+02 0.00000E+00 0.00000E+00
 -1      1243 1.06650E+02 0.00000E+00 0.00000E+00
 -1      1244 1.09650E+02 0.00000E+00 0.00000E+00
 -1      1245 1.12650E+02 0.00000E+00 0.00000E+00
 -1      1246 1.15650E+02 0.00000E+00 0.00000E+00
 -1      1247 1.18650E+02 0.00000E+00 0.00000E+00
 -1      1248 1.21650E+02 0.00000E+00 0.00000E+00
 -1      1249 1.24650E+02 0.00000E+00 0.00000E+00
 -1      1250 1.27650E+02 0.00000E+00 0.00000E+00
 -1      1251 1.30650E+02 0.00000E+00 0.00000E+00
 -1      1252 1.33650E+02 0.00000E+00 0.00000E+00
 -1      1253 1.36650E+02 0.00000E+00 0.00000E+00
 -1      1254 1.39650E+02 0.00000E+00 0.00000E+00
 -1      1255 1.42650E+02 0.00000E+00 0.00000E+00
 -1      1256 1.45650E+02 0.00000E+00 0.00000E+00
 -1      1257 1.48575E+02 0.00000E+00 0.00000E+00
 -1      1258 1.50000E+02 1.47500E+00 0.00000E+00
 -1      1259 1.50000E+02 4.42500E+00 0.00000E+00
 -1      1260 1.50000E+02 7.37500E+00 0.00000E+00
 -1      1261 1.50000E+02 1.03250E+01 0.00000E+00
 -1      1262 1.50000E+02 1.32750E+01 0.00000E+00
 -1      1263 1.50000E+02 1.62000E+01 0.00000E+00
 -1      1264 1.50000E+02 1.91250E+01 0.00000E+00
 -1      1265 1.50000E+02 2.20750E+01 0.00000E+00
 -1      1266 1.50000E+02 2.50250E+01 0.00000E+00
 -1      1267 1.50000E+02 2.79750E+01 0.00000E+00
 -1      1268 1.50000E+02 3.09250E+01 0.00000E+00
 -1      1269 1.50000E+02 3.38500E+01 0.00000E+00
 -1      1270 1.50000E+02 3.67750E+01 0.00000E+00
 -1      1271 1.50000E+02 3.97250E+01 0.00000E+00
 -1      1272 1.50000E+02 4.26750E+01 0.00000E+00
 -1      1273 1.50000E+02 4.56250E+01 0.00000E+00
 -1      1274 1.50000E+02 4.85500E+01 0.00000E+00
 -1      1275 5.72679E+01 2.76411E+01 0.00000E+00
 -1      1276 5.69867E+01 2.62743E+01 0.00000E+00
 -1      1277 5.64497E+01 2.50084E+01 0.00000E+00
 -1      1278 5.56390E+01 2.38286E+01 0.00000E+00
 -1      1279 5.46049E+01 2.28380E+01 0.00000E+00
 -1      1280 5.34122E+01 2.20891E+01 0.00000E+00
 -1      1281 5.21150E+01 2.15998E+01 0.00000E+00
 -1      1282 5.07069E+01 2.13733E+01 0.00000E+00
 -1      1283 4.92561E+01 2.14408E+01 0.00000E+00
 -1      1284 4.78973E+01 2.17889E+01 0.00000E+00
 -1      1285 4.66078E+01 2.24179E+01 0.00000E+00
 -1      1286 4.54463E+01 2.33228E+01 0.00000E+00
 -1      1287 4.45158E+01 2.44269E+01 0.00000E+00
 -1      1288 4.38375E+01 2.56843E+01 0.00000E+00
 -1      1289 4.34249E+01 2.70725E+01 0.00000E+00
 -1      1290 4.33065E+01 2.84974E+01 0.00000E+00
 -1      1291 4.34879E+01 2.99507E+01 0.00000E+00
 -1      1292 4.39775E+01 3.13552E+01 0.00000E+00
 -1      1293 4.47606E+01 3.26348E+01 0.00000E+00
 -1      1294 4.58346E+01 3.37483E+01 0.00000E+00
 -1      1295 4.71785E+01 3.46247E+01 0.00000E+00
 -1      1296 4.87177E+01 3.51794E+01 0.00000E+00
 -1      1297 5.02742E+01 3.53617E+01 0.00000E+00
 -1      1298 5.17650E+01 3.52079E+01 0.00000E+00
 -1      1299 5.31632E+01 3.47518E+01 0.00000E+00
 -1      1300 5.44372E+01 3.40121E+01 0.00000E+00
 -1      1301 5.55421E+01 3.30067E+01 0.00000E+00
 -1      1302 5.64132E+01 3.17811E+01 0.00000E+00
 -1      1303 5.69876E+01 3.04462E+01 0.00000E+00
 -1      1304 5.72697E+01 2.90650E+01 0.00000E+00
 -1      1305 1.57500E+00 4.85250E+01 0.00000E+00
 -1      1306 1.29900E+00 4.48375E+01 0.00000E+00
 -1      1307 1.29900E+00 4.63125E+01 0.00000E+00
 -1      1308 1.29900E+00 4.18875E+01 0.00000E+00
 -1      1309 1.29900E+00 4.33625E+01 0.00000E+00
 -1      1310 2.59800E+00 4.41000E+01 0.00000E+00
 -1      1311 1.29900E+00 3.89375E+01 0.00000E+00
 -1      1312 1.29900E+00 4.04125E+01 0.00000E+00
 -1      1313 2.59800E+00 4.11500E+01 0.00000E+00
 -1      1314 1.29900E+00 3.59875E+01 0.00000E+00
 -1      1315 1.29900E+00 3.74625E+01 0.00000E+00
 -1      1316 2.59800E+00 3.82000E+01 0.00000E+00
 -1      1317 1.29900E+00 3.30875E+01 0.00000E+00
 -1      1318 1.29900E+00 3.45375E+01 0.00000E+00
 -1      1319 2.59800E+00 3.52750E+01 0.00000E+00
 -1      1320 1.29900E+00 3.01375E+01 0.00000E+00
 -1      1321 1.29900E+00 3.16125E+01 0.00000E+00
 -1      1322 2.59800E+00 3.23500E+01 0.00000E+00
 -1      1323 1.29900E+00 2.71875E+01 0.00000E+00
 -1      1324 1.29900E+00 2.86625E+01 0.00000E+00
 -1      1325 2.59800E+00 2.94000E+01 0.00000E+00
 -1      1326 1.29900E+00 2.42375E+01 0.00000E+00
 -1      1327 1.29900E+00 2.57125E+01 0.00000E+00
 -1      1328 2.59800E+00 2.64500E+01 0.00000E+00
 -1      1329 1.29900E+00 2.12875E+01 0.00000E+00
 -1      1330 1.29900E+00 2.27625E+01 0.00000E+00
 -1      1331 2.59800E+00 2.35000E+01 0.00000E+00
 -1      1332 1.29900E+00 1.83375E+01 0.00000E+00
 -1      1333 1.29900E+00 1.98125E+01 0.00000E+00
 -1      1334 2.59800E+00 2.05500E+01 0.00000E+00
 -1      1335 1.29900E+00 1.54375E+01 0.00000E+00
 -1      1336 1.29900E+00 1.68875E+01 0.00000E+00
 -1      1337 2.59800E+00 1.76250E+01 0.00000E+00
 -1      1338 1.29900E+00 1.24875E+01 0.00000E+00
 -1      1339 1.29900E+00 1.39625E+01 0.00000E+00
 -1      1340 2.59800E+00 1.47000E+01 0.00000E+00
 -1      1341 1.29900E+00 9.53750E+00 0.00000E+00
 -1      1342 1.29900E+00 1.10125E+01 0.00000E+00
 -1      1343 2.59800E+00 1.17500E+01 0.00000E+00
 -1      1344 1.29900E+00 6.58750E+00 0.00000E+00
 -1      1345 1.29900E+00 8.06250E+00 0.00000E+00
 -1      1346 2.59800E+00 8.80000E+00 0.00000E+00
 -1      1347 1.29900E+00 3.63750E+00 0.00000E+00
 -1      1348 1.29900E+00 5.11250E+00 0.00000E+00
 -1      1349 2.59800E+00 5.85000E+00 0.00000E+00
 -1      1350 1.43700E+00 1.09375E+00 0.00000E+00
 -1      1351 1.43700E+00 2.54375E+00 0.00000E+00
 -1      1352 2.73600E+00 3.28125E+00 0.00000E+00
 -1      1353 3.01200E+00 1.09375E+00 0.00000E+00
 -1      1354 3.90000E+00 4.87010E+01 0.00000E+00
 -1      1355 5.40000E+00 4.87010E+01 0.00000E+00
 -1      1356 6.90000E+00 4.87010E+01 0.00000E+00
 -1      1357 8.40000E+00 4.87010E+01 0.00000E+00
 -1      1358 6.15000E+00 4.74020E+01 0.00000E+00
 -1      1359 9.90000E+00 4.87010E+01 0.00000E+00
 -1      1360 1.14000E+01 4.87010E+01 0.00000E+00
 -1      1361 9.15000E+00 4.74020E+01 0.00000E+00
 -1      1362 1.29000E+01 4.87010E+01 0.00000E+00
 -1      1363 1.44000E+01 4.87010E+01 0.00000E+00
 -1      1364 1.21500E+01 4.74020E+01 0.00000E+00
 -1      1365 1.59000E+01 4.87010E+01 0.00000E+00
 -1      1366 1.74000E+01 4.87010E+01 0.00000E+00
 -1      1367 1.51500E+01 4.74020E+01 0.00000E+00
 -1      1368 1.89000E+01 4.87010E+01 0.00000E+00
 -1      1369 2.04000E+01 4.87010E+01 0.00000E+00
 -1      1370 1.81500E+01 4.74020E+01 0.00000E+00
 -1      1371 2.19000E+01 4.87010E+01 0.00000E+00
 -1      1372 2.34000E+01 4.87010E+01 0.00000E+00
 -1      1373 2.11500E+01 4.74020E+01 0.00000E+00
 -1      1374 2.49000E+01 4.87010E+01 0.00000E+00
 -1      1375 2.64000E+01 4.87010E+01 0.00000E+00
 -1      1376 2.41500E+01 4.74020E+01 0.00000E+00
 -1      1377 2.79000E+01 4.87010E+01 0.00000E+00
 -1      1378 2.94000E+01 4.87010E+01 0.00000E+00
 -1      1379 2.71500E+01 4.74020E+01 0.00000E+00
 -1      1380 3.09000E+01 4.87010E+01 0.00000E+00
 -1      1381 3.24000E+01 4.87010E+01 0.00000E+00
 -1      1382 3.01500E+01 4.74020E+01 0.00000E+00
 -1      1383 3.39000E+01 4.87010E+01 0.00000E+00
 -1      1384 3.54000E+01 4.87010E+01 0.00000E+00
 -1      1385 3.31500E+01 4.74020E+01 0.00000E+00
 -1      1386 3.69000E+01 4.87010E+01 0.00000E+00
 -1      1387 3.84000E+01 4.87010E+01 0.00000E+00
 -1      1388 3.61500E+01 4.74020E+01 0.00000E+00
 -1      1389 3.99000E+01 4.87010E+01 0.00000E+00
 -1      1390 4.14000E+01 4.87010E+01 0.00000E+00
 -1      1391 3.91500E+01 4.74020E+01 0.00000E+00
 -1      1392 4.29000E+01 4.87010E+01 0.00000E+00
 -1      1393 4.44000E+01 4.87010E+01 0.00000E+00
 -1      1394 4.21500E+01 4.74020E+01 0.00000E+00
 -1      1395 4.59000E+01 4.87010E+01 0.00000E+00
 -1      1396 4.74000E+01 4.87010E+01 0.00000E+00
 -1      1397 4.51500E+01 4.74020E+01 0.00000E+00
 -1      1398 4.89000E+01 4.87010E+01 0.00000E+00
 -1      1399 5.04000E+01 4.87010E+01 0.00000E+00
 -1      1400 4.81500E+01 4.74020E+01 0.00000E+00
 -1      1401 5.19000E+01 4.87010E+01 0.00000E+00
 -1      1402 5.34000E+01 4.87010E+01 0.00000E+00
 -1      1403 5.11500E+01 4.74020E+01 0.00000E+00
 -1      1404 5.49000E+01 4.87010E+01 0.00000E+00
 -1      1405 5.64000E+01 4.87010E+01 0.00000E+00
 -1      1406 5.41500E+01 4.74020E+01 0.00000E+00
 -1      1407 5.79000E+01 4.87010E+01 0.00000E+00
 -1      1408 5.94000E+01 4.87010E+01 0.00000E+00
 -1      1409 5.71500E+01 4.74020E+01 0.00000E+00
 -1      1410 6.09000E+01 4.87010E+01 0.00000E+00
 -1      1411 6.24000E+01 4.87010E+01 0.00000E+00
 -1      1412 6.01500E+01 4.74020E+01 0.00000E+00
 -1      1413 6.39000E+01 4.87010E+01 0.00000E+00
 -1      1414 6.54000E+01 4.87010E+01 0.00000E+00
 -1      1415 6.31500E+01 4.74020E+01 0.00000E+00
 -1      1416 6.69000E+01 4.87010E+01 0.00000E+00
 -1      1417 6.84000E+01 4.87010E+01 0.00000E+00
 -1      1418 6.61500E+01 4.74020E+01 0.00000E+00
 -1      1419 6.99000E+01 4.87010E+01 0.00000E+00
 -1      1420 7.14000E+01 4.87010E+01 0.00000E+00
 -1      1421 6.91500E+01 4.74020E+01 0.00000E+00
 -1      1422 7.29000E+01 4.87010E+01 0.00000E+00
 -1      1423 7.44000E+01 4.87010E+01 0.00000E+00
 -1      1424 7.21500E+01 4.74020E+01 0.00000E+00
 -1      1425 7.59000E+01 4.87010E+01 0.00000E+00
 -1      1426 7.74000E+01 4.87010E+01 0.00000E+00
 -1      1427 7.51500E+01 4.74020E+01 0.00000E+00
 -1      1428 7.89000E+01 4.87010E+01 0.00000E+00
 -1      1429 8.04000E+01 4.87010E+01 0.00000E+00
 -1      1430 7.81500E+01 4.74020E+01 0.00000E+00
 -1      1431 8.19000E+01 4.87010E+01 0.00000E+00
 -1      1432 8.34000E+01 4.87010E+01 0.00000E+00
 -1      1433 8.11500E+01 4.74020E+01 0.00000E+00
 -1      1434 8.49000E+01 4.87010E+01 0.00000E+00
 -1      1435 8.64000E+01 4.87010E+01 0.00000E+00
 -1      1436 8.41500E+01 4.74020E+01 0.00000E+00
 -1      1437 8.79000E+01 4.87010E+01 0.00000E+00
 -1      1438 8.94000E+01 4.87010E+01 0.00000E+00
 -1      1439 8.71500E+01 4.74020E+01 0.00000E+00
 -1      1440 9.09000E+01 4.87010E+01 0.00000E+00
 -1      1441 9.24000E+01 4.87010E+01 0.00000E+00
 -1      1442 9.01500E+01 4.74020E+01 0.00000E+00
 -1      1443 9.39000E+01 4.87010E+01 0.00000E+00
 -1      1444 9.54000E+01 4.87010E+01 0.00000E+00
 -1      1445 9.31500E+01 4.74020E+01 0.00000E+00
 -1      1446 9.69000E+01 4.87010E+01 0.00000E+00
 -1      1447 9.84000E+01 4.87010E+01 0.00000E+00
 -1      1448 9.61500E+01 4.74020E+01 0.00000E+00
 -1      1449 9.99000E+01 4.87010E+01 0.00000E+00
 -1      1450 1.01400E+02 4.87010E+01 0.00000E+00
 -1      1451 9.91500E+01 4.74020E+01 0.00000E+00
 -1      1452 1.02900E+02 4.87010E+01 0.00000E+00
 -1      1453 1.04400E+02 4.87010E+01 0.00000E+00
 -1      1454 1.02150E+02 4.74020E+01 0.00000E+00
 -1      1455 1.05900E+02 4.87010E+01 0.00000E+00
 -1      1456 1.07400E+02 4.87010E+01 0.00000E+00
 -1      1457 1.05150E+02 4.74020E+01 0.00000E+00
 -1      1458 1.08900E+02 4.87010E+01 0.00000E+00
 -1      1459 1.10400E+02 4.87010E+01 0.00000E+00
 -1      1460 1.08150E+02 4.74020E+01 0.00000E+00
 -1      1461 1.11900E+02 4.87010E+01 0.00000E+00
 -1      1462 1.13400E+02 4.87010E+01 0.00000E+00
 -1      1463 1.11150E+02 4.74020E+01 0.00000E+00
 -1      1464 1.14900E+02 4.87010E+01 0.00000E+00
 -1      1465 1.16400E+02 4.87010E+01 0.00000E+00
 -1      1466 1.14150E+02 4.74020E+01 0.00000E+00
 -1      1467 1.17900E+02 4.87010E+01 0.00000E+00
 -1      1468 1.19400E+02 4.87010E+01 0.00000E+00
 -1      1469 1.17150E+02 4.74020E+01 0.00000E+00
 -1      1470 1.20900E+02 4.87010E+01 0.00000E+00
 -1      1471 1.22400E+02 4.87010E+01 0.00000E+00
 -1      1472 1.20150E+02 4.74020E+01 0.00000E+00
 -1      1473 1.23900E+02 4.87010E+01 0.00000E+00
 -1      1474 1.25400E+02 4.87010E+01 0.00000E+00
 -1      1475 1.23150E+02 4.74020E+01 0.00000E+00
 -1      1476 1.26900E+02 4.87010E+01 0.00000E+00
 -1      1477 1.28400E+02 4.87010E+01 0.00000E+00
 -1      1478 1.26150E+02 4.74020E+01 0.00000E+00
 -1      1479 1.29900E+02 4.87010E+01 0.00000E+00
 -1      1480 1.31400E+02 4.87010E+01 0.00000E+00
 -1      1481 1.29150E+02 4.74020E+01 0.00000E+00
 -1      1482 1.32900E+02 4.87010E+01 0.00000E+00
 -1      1483 1.34400E+02 4.87010E+01 0.00000E+00
 -1      1484 1.32150E+02 4.74020E+01 0.00000E+00
 -1      1485 1.35900E+02 4.87010E+01 0.00000E+00
 -1      1486 1.37400E+02 4.87010E+01 0.00000E+00
 -1      1487 1.35150E+02 4.74020E+01 0.00000E+00
 -1      1488 1.38900E+02 4.87010E+01 0.00000E+00
 -1      1489 1.40400E+02 4.87010E+01 0.00000E+00
 -1      1490 1.38150E+02 4.74020E+01 0.00000E+00
 -1      1491 1.41900E+02 4.87010E+01 0.00000E+00
 -1      1492 1.43400E+02 4.87010E+01 0.00000E+00
 -1      1493 1.41150E+02 4.74020E+01 0.00000E+00
 -1      1494 1.44900E+02 4.87010E+01 0.00000E+00
 -1      1495 1.46400E+02 4.87010E+01 0.00000E+00
 -1      1496 1.44150E+02 4.74020E+01 0.00000E+00
 -1      1497 1.48575E+02 4.85500E+01 0.00000E+00
 -1      1498 1.47825E+02 4.72510E+01 0.00000E+00
 -1      1499 6.01200E+00 1.09375E+00 0.00000E+00
 -1      1500 4.51200E+00 1.09375E+00 0.00000E+00
 -1      1501 4.37400E+00 2.18750E+00 0.00000E+00
 -1      1502 9.01200E+00 1.09375E+00 0.00000E+00
 -1      1503 7.51200E+00 1.09375E+00 0.00000E+00
 -1      1504 7.37400E+00 2.18750E+00 0.00000E+00
 -1      1505 1.20120E+01 1.09375E+00 0.00000E+00
 -1      1506 1.05120E+01 1.09375E+00 0.00000E+00
 -1      1507 1.03740E+01 2.18750E+00 0.00000E+00
 -1      1508 1.50120E+01 1.09375E+00 0.00000E+00
 -1      1509 1.35120E+01 1.09375E+00 0.00000E+00
 -1      1510 1.33740E+01 2.18750E+00 0.00000E+00
 -1      1511 1.80120E+01 1.09375E+00 0.00000E+00
 -1      1512 1.65120E+01 1.09375E+00 0.00000E+00
 -1      1513 1.63740E+01 2.18750E+00 0.00000E+00
 -1      1514 2.10120E+01 1.09375E+00 0.00000E+00
 -1      1515 1.95120E+01 1.09375E+00 0.00000E+00
 -1      1516 1.93740E+01 2.18750E+00 0.00000E+00
 -1      1517 2.40120E+01 1.09375E+00 0.00000E+00
 -1      1518 2.25120E+01 1.09375E+00 0.00000E+00
 -1      1519 2.23740E+01 2.18750E+00 0.00000E+00
 -1      1520 2.70120E+01 1.09375E+00 0.00000E+00
 -1      1521 2.55120E+01 1.09375E+00 0.00000E+00
 -1      1522 2.53740E+01 2.18750E+00 0.00000E+00
 -1      1523 3.00120E+01 1.09375E+00 0.00000E+00
 -1      1524 2.85120E+01 1.09375E+00 0.00000E+00
 -1      1525 2.83740E+01 2.18750E+00 0.00000E+00
 -1      1526 3.30120E+01 1.09375E+00 0.00000E+00
 -1      1527 3.15120E+01 1.09375E+00 0.00000E+00
 -1      1528 3.13740E+01 2.18750E+00 0.00000E+00
 -1      1529 3.60120E+01 1.09375E+00 0.00000E+00
 -1      1530 3.45120E+01 1.09375E+00 0.00000E+00
 -1      1531 3.43740E+01 2.18750E+00 0.00000E+00
 -1      1532 3.90120E+01 1.09375E+00 0.00000E+00
 -1      1533 3.75120E+01 1.09375E+00 0.00000E+00
 -1      1534 3.73740E+01 2.18750E+00 0.00000E+00
 -1      1535 4.20120E+01 1.09375E+00 0.00000E+00
 -1      1536 4.05120E+01 1.09375E+00 0.00000E+00
 -1      1537 4.03740E+01 2.18750E+00 0.00000E+00
 -1      1538 4.50120E+01 1.09375E+00 0.00000E+00
 -1      1539 4.35120E+01 1.09375E+00 0.00000E+00
 -1      1540 4.33740E+01 2.18750E+00 0.00000E+00
 -1      1541 4.80120E+01 1.09375E+00 0.00000E+00
 -1      1542 4.65120E+01 1.09375E+00 0.00000E+00
 -1      1543 4.63740E+01 2.18750E+00 0.00000E+00
 -1      1544 5.10120E+01 1.09375E+00 0.00000E+00
 -1      1545 4.95120E+01 1.09375E+00 0.00000E+00
 -1      1546 4.93740E+01 2.18750E+00 0.00000E+00
 -1      1547 5.40120E+01 1.09375E+00 0.00000E+00
 -1      1548 5.25120E+01 1.09375E+00 0.00000E+00
 -1      1549 5.23740E+01 2.18750E+00 0.00000E+00
 -1      1550 5.70120E+01 1.09375E+00 0.00000E+00
 -1      1551 5.55120E+01 1.09375E+00 0.00000E+00
 -1      1552 5.53740E+01 2.18750E+00 0.00000E+00
 -1      1553 6.00120E+01 1.09375E+00 0.00000E+00
 -1      1554 5.85120E+01 1.09375E+00 0.00000E+00
 -1      1555 5.83740E+01 2.18750E+00 0.00000E+00
 -1      1556 6.30120E+01 1.09375E+00 0.00000E+00
 -1      1557 6.15120E+01 1.09375E+00 0.00000E+00
 -1      1558 6.13740E+01 2.18750E+00 0.00000E+00
 -1      1559 6.60120E+01 1.09375E+00 0.00000E+00
 -1      1560 6.45120E+01 1.09375E+00 0.00000E+00
 -1      1561 6.43740E+01 2.18750E+00 0.00000E+00
 -1      1562 6.90120E+01 1.09375E+00 0.00000E+00
 -1      1563 6.75120E+01 1.09375E+00 0.00000E+00
 -1      1564 6.73740E+01 2.18750E+00 0.00000E+00
 -1      1565 7.20120E+01 1.09375E+00 0.00000E+00
 -1      1566 7.05120E+01 1.09375E+00 0.00000E+00
 -1      1567 7.03740E+01 2.18750E+00 0.00000E+00
 -1      1568 7.50120E+01 1.09375E+00 0.00000E+00
 -1      1569 7.35120E+01 1.09375E+00 0.00000E+00
 -1      1570 7.33740E+01 2.18750E+00 0.00000E+00
 -1      1571 7.80120E+01 1.09375E+00 0.00000E+00
 -1      1572 7.65120E+01 1.09375E+00 0.00000E+00
 -1      1573 7.63740E+01 2.18750E+00 0.00000E+00
 -1      1574 8.10120E+01 1.09375E+00 0.00000E+00
 -1      1575 7.95120E+01 1.09375E+00 0.00000E+00
 -1      1576 7.93740E+01 2.18750E+00 0.00000E+00
 -1      1577 8.40120E+01 1.09375E+00 0.00000E+00
 -1      1578 8.25120E+01 1.09375E+00 0.00000E+00
 -1      1579 8.23740E+01 2.18750E+00 0.00000E+00
 -1      1580 8.70120E+01 1.09375E+00 0.00000E+00
 -1      1581 8.55120E+01 1.09375E+00 0.00000E+00
 -1      1582 8.53740E+01 2.18750E+00 0.00000E+00
 -1      1583 9.00120E+01 1.09375E+00 0.00000E+00
 -1      1584 8.85120E+01 1.09375E+00 0.00000E+00
 -1      1585 8.83740E+01 2.18750E+00 0.00000E+00
 -1      1586 9.30120E+01 1.09375E+00 0.00000E+00
 -1      1587 9.15120E+01 1.09375E+00 0.00000E+00
 -1      1588 9.13740E+01 2.18750E+00 0.00000E+00
 -1      1589 9.60120E+01 1.09375E+00 0.00000E+00
 -1      1590 9.45120E+01 1.09375E+00 0.00000E+00
 -1      1591 9.43740E+01 2.18750E+00 0.00000E+00
 -1      1592 9.90120E+01 1.09375E+00 0.00000E+00
 -1      1593 9.75120E+01 1.09375E+00 0.00000E+00
 -1      1594 9.73740E+01 2.18750E+00 0.00000E+00
 -1      1595 1.02012E+02 1.09375E+00 0.00000E+00
 -1      1596 1.00512E+02 1.09375E+00 0.00000E+00
 -1      1597 1.00374E+02 2.18750E+00 0.00000E+00
 -1      1598 1.05012E+02 1.09375E+00 0.00000E+00
 -1      1599 1.03512E+02 1.09375E+00 0.00000E+00
 -1      1600 1.03374E+02 2.18750E+00 0.00000E+00
 -1      1601 1.08012E+02 1.09375E+00 0.00000E+00
 -1      1602 1.06512E+02 1.09375E+00 0.00000E+00
 -1      1603 1.06374E+02 2.18750E+00 0.00000E+00
 -1      1604 1.11012E+02 1.09375E+00 0.00000E+00
 -1      1605 1.09512E+02 1.09375E+00 0.00000E+00
 -1      1606 1.09374E+02 2.18750E+00 0.00000E+00
 -1      1607 1.14012E+02 1.09375E+00 0.00000E+00
 -1      1608 1.12512E+02 1.09375E+00 0.00000E+00
 -1      1609 1.12374E+02 2.18750E+00 0.00000E+00
 -1      1610 1.17012E+02 1.09375E+00 0.00000E+00
 -1      1611 1.15512E+02 1.09375E+00 0.00000E+00
 -1      1612 1.15374E+02 2.18750E+00 0.00000E+00
 -1      1613 1.20012E+02 1.09375E+00 0.00000E+00
 -1      1614 1.18512E+02 1.09375E+00 0.00000E+00
 -1      1615 1.18374E+02 2.18750E+00 0.00000E+00
 -1      1616 1.23012E+02 1.09375E+00 0.00000E+00
 -1      1617 1.21512E+02 1.09375E+00 0.00000E+00
 -1      1618 1.21374E+02 2.18750E+00 0.00000E+00
 -1      1619 1.26012E+02 1.09375E+00 0.00000E+00
 -1      1620 1.24512E+02 1.09375E+00 0.00000E+00
 -1      1621 1.24374E+02 2.18750E+00 0.00000E+00
 -1      1622 1.29012E+02 1.09375E+00 0.00000E+00
 -1      1623 1.27512E+02 1.09375E+00 0.00000E+00
 -1      1624 1.27374E+02 2.18750E+00 0.00000E+00
 -1      1625 1.32012E+02 1.09375E+00 0.00000E+00
 -1      1626 1.30512E+02 1.09375E+00 0.00000E+00
 -1      1627 1.30374E+02 2.18750E+00 0.00000E+00
 -1      1628 1.35012E+02 1.09375E+00 0.00000E+00
 -1      1629 1.33512E+02 1.09375E+00 0.00000E+00
 -1      1630 1.33374E+02 2.18750E+00 0.00000E+00
 -1      1631 1.38012E+02 1.09375E+00 0.00000E+00
 -1      1632 1.36512E+02 1.09375E+00 0.00000E+00
 -1      1633 1.36374E+02 2.18750E+00 0.00000E+00
 -1      1634 1.41012E+02 1.09375E+00 0.00000E+00
 -1      1635 1.39512E+02 1.09375E+00 0.00000E+00
 -1      1636 1.39374E+02 2.18750E+00 0.00000E+00
 -1      1637 1.44012E+02 1.09375E+00 0.00000E+00
 -1      1638 1.42512E+02 1.09375E+00 0.00000E+00
 -1      1639 1.42374E+02 2.18750E+00 0.00000E+00
 -1      1640 1.47012E+02 1.09375E+00 0.00000E+00
 -1      1641 1.45512E+02 1.09375E+00 0.00000E+00
 -1      1642 1.45374E+02 2.18750E+00 0.00000E+00
 -1      1643 1.48575E+02 1.47500E+00 0.00000E+00
 -1      1644 1.48701E+02 5.16250E+00 0.00000E+00
 -1      1645 1.48701E+02 3.68750E+00 0.00000E+00
 -1      1646 1.48701E+02 8.11250E+00 0.00000E+00
 -1      1647 1.48701E+02 6.63750E+00 0.00000E+00
 -1      1648 1.47402E+02 5.90000E+00 0.00000E+00
 -1      1649 1.48701E+02 1.10625E+01 0.00000E+00
 -1      1650 1.48701E+02 9.58750E+00 0.00000E+00
 -1      1651 1.47402E+02 8.85000E+00 0.00000E+00
 -1      1652 1.48701E+02 1.40125E+01 0.00000E+00
 -1      1653 1.48701E+02 1.25375E+01 0.00000E+00
 -1      1654 1.47402E+02 1.18000E+01 0.00000E+00
 -1      1655 1.48701E+02 1.69125E+01 0.00000E+00
 -1      1656 1.48701E+02 1.54625E+01 0.00000E+00
 -1      1657 1.47402E+02 1.47250E+01 0.00000E+00
 -1      1658 1.48701E+02 1.98625E+01 0.00000E+00
 -1      1659 1.48701E+02 1.83875E+01 0.00000E+00
 -1      1660 1.47402E+02 1.76500E+01 0.00000E+00
 -1      1661 1.48701E+02 2.28125E+01 0.00000E+00
 -1      1662 1.48701E+02 2.13375E+01 0.00000E+00
 -1      1663 1.47402E+02 2.06000E+01 0.00000E+00
 -1      1664 1.48701E+02 2.57625E+01 0.00000E+00
 -1      1665 1.48701E+02 2.42875E+01 0.00000E+00
 -1      1666 1.47402E+02 2.35500E+01 0.00000E+00
 -1      1667 1.48701E+02 2.87125E+01 0.00000E+00
 -1      1668 1.48701E+02 2.72375E+01 0.00000E+00
 -1      1669 1.47402E+02 2.65000E+01 0.00000E+00
 -1      1670 1.48701E+02 3.16625E+01 0.00000E+00
 -1      1671 1.48701E+02 3.01875E+01 0.00000E+00
 -1      1672 1.47402E+02 2.94500E+01 0.00000E+00
 -1      1673 1.48701E+02 3.45625E+01 0.00000E+00
 -1      1674 1.48701E+02 3.31125E+01 0.00000E+00
 -1      1675 1.47402E+02 3.23750E+01 0.00000E+00
 -1      1676 1.48701E+02 3.75125E+01 0.00000E+00
 -1      1677 1.48701E+02 3.60375E+01 0.00000E+00
 -1      1678 1.47402E+02 3.53000E+01 0.00000E+00
 -1      1679 1.48701E+02 4.04625E+01 0.00000E+00
 -1      1680 1.48701E+02 3.89875E+01 0.00000E+00
 -1      1681 1.47402E+02 3.82500E+01 0.00000E+00
 -1      1682 1.48701E+02 4.34125E+01 0.00000E+00
 -1      1683 1.48701E+02 4.19375E+01 0.00000E+00
 -1      1684 1.47402E+02 4.12000E+01 0.00000E+00
 -1      1685 1.48263E+02 4.60692E+01 0.00000E+00
 -1      1686 1.48263E+02 4.45942E+01 0.00000E+00
 -1      1687 1.46964E+02 4.38568E+01 0.00000E+00
 -1      1688 1.46088E+02 4.62202E+01 0.00000E+00
 -1      1689 5.78385E+01 2.72197E+01 0.00000E+00
 -1      1690 5.79127E+01 2.79366E+01 0.00000E+00
 -1      1691 5.74336E+01 2.57813E+01 0.00000E+00
 -1      1692 5.76348E+01 2.64253E+01 0.00000E+00
 -1      1693 5.68199E+01 2.44074E+01 0.00000E+00
 -1      1694 5.71555E+01 2.50222E+01 0.00000E+00
 -1      1695 5.58670E+01 2.31551E+01 0.00000E+00
 -1      1696 5.63404E+01 2.37122E+01 0.00000E+00
 -1      1697 5.46790E+01 2.21721E+01 0.00000E+00
 -1      1698 5.52322E+01 2.26027E+01 0.00000E+00
 -1      1699 5.33671E+01 2.13835E+01 0.00000E+00
 -1      1700 5.40009E+01 2.16975E+01 0.00000E+00
 -1      1701 5.19352E+01 2.09583E+01 0.00000E+00
 -1      1702 5.25912E+01 2.11339E+01 0.00000E+00
 -1      1703 5.03689E+01 2.07448E+01 0.00000E+00
 -1      1704 5.11147E+01 2.07877E+01 0.00000E+00
 -1      1705 4.88220E+01 2.09296E+01 0.00000E+00
 -1      1706 4.95193E+01 2.08239E+01 0.00000E+00
 -1      1707 4.73734E+01 2.13724E+01 0.00000E+00
 -1      1708 4.80282E+01 2.11325E+01 0.00000E+00
 -1      1709 4.59066E+01 2.19887E+01 0.00000E+00
 -1      1710 4.65327E+01 2.15992E+01 0.00000E+00
 -1      1711 4.48483E+01 2.30092E+01 0.00000E+00
 -1      1712 4.53775E+01 2.24989E+01 0.00000E+00
 -1      1713 4.52818E+01 2.16472E+01 0.00000E+00
 -1      1714 4.38450E+01 2.43994E+01 0.00000E+00
 -1      1715 4.42434E+01 2.38133E+01 0.00000E+00
 -1      1716 4.31353E+01 2.57831E+01 0.00000E+00
 -1      1717 4.34107E+01 2.51180E+01 0.00000E+00
 -1      1718 4.27993E+01 2.73259E+01 0.00000E+00
 -1      1719 4.29335E+01 2.66099E+01 0.00000E+00
 -1      1720 4.27424E+01 2.88590E+01 0.00000E+00
 -1      1721 4.27288E+01 2.81578E+01 0.00000E+00
 -1      1722 4.29839E+01 3.04600E+01 0.00000E+00
 -1      1723 4.28107E+01 2.97167E+01 0.00000E+00
 -1      1724 4.36183E+01 3.19257E+01 0.00000E+00
 -1      1725 4.33086E+01 3.12710E+01 0.00000E+00
 -1      1726 4.44188E+01 3.33881E+01 0.00000E+00
 -1      1727 4.39451E+01 3.27734E+01 0.00000E+00
 -1      1728 4.56643E+01 3.45571E+01 0.00000E+00
 -1      1729 4.50710E+01 3.40647E+01 0.00000E+00
 -1      1730 4.72467E+01 3.54211E+01 0.00000E+00
 -1      1731 4.65010E+01 3.50489E+01 0.00000E+00
 -1      1732 4.89627E+01 3.58975E+01 0.00000E+00
 -1      1733 4.81808E+01 3.57155E+01 0.00000E+00
 -1      1734 5.06538E+01 3.59278E+01 0.00000E+00
 -1      1735 4.98895E+01 3.59244E+01 0.00000E+00
 -1      1736 5.22425E+01 3.56864E+01 0.00000E+00
 -1      1737 5.15242E+01 3.58395E+01 0.00000E+00
 -1      1738 5.37309E+01 3.51194E+01 0.00000E+00
 -1      1739 5.30588E+01 3.54200E+01 0.00000E+00
 -1      1740 5.51189E+01 3.43202E+01 0.00000E+00
 -1      1741 5.45241E+01 3.47552E+01 0.00000E+00
 -1      1742 5.63414E+01 3.32097E+01 0.00000E+00
 -1      1743 5.58391E+01 3.37760E+01 0.00000E+00
 -1      1744 5.71628E+01 3.17729E+01 0.00000E+00
 -1      1745 5.67981E+01 3.24243E+01 0.00000E+00
 -1      1746 5.76374E+01 3.02788E+01 0.00000E+00
 -1      1747 5.74270E+01 3.09534E+01 0.00000E+00
 -1      1748 5.79146E+01 2.87767E+01 0.00000E+00
 -1      1749 5.78440E+01 2.94764E+01 0.00000E+00
 -1      1750 5.59627E+01 2.24615E+01 0.00000E+00
 -1      1751 5.70770E+01 2.37091E+01 0.00000E+00
 -1      1752 1.48437E+02 2.56875E+00 0.00000E+00
 -1      1753 1.47138E+02 3.30625E+00 0.00000E+00
 -1      1754 5.83165E+01 2.67170E+01 0.00000E+00
 -1      1755 5.78347E+01 2.51634E+01 0.00000E+00
 -1      1756 5.85222E+01 2.83515E+01 0.00000E+00
 -1      1757 5.46498E+01 2.14344E+01 0.00000E+00
 -1      1758 5.31958E+01 2.07101E+01 0.00000E+00
 -1      1759 5.15995E+01 2.02899E+01 0.00000E+00
 -1      1760 4.99294E+01 2.01983E+01 0.00000E+00
 -1      1761 4.82860E+01 2.04803E+01 0.00000E+00
 -1      1762 4.66516E+01 2.09101E+01 0.00000E+00
 -1      1763 4.31085E+01 2.44841E+01 0.00000E+00
 -1      1764 4.24724E+01 2.60295E+01 0.00000E+00
 -1      1765 4.22000E+01 2.76882E+01 0.00000E+00
 -1      1766 4.21978E+01 2.93778E+01 0.00000E+00
 -1      1767 4.25908E+01 3.10465E+01 0.00000E+00
 -1      1768 4.32423E+01 3.27053E+01 0.00000E+00
 -1      1769 4.42213E+01 3.42297E+01 0.00000E+00
 -1      1770 4.57102E+01 3.53981E+01 0.00000E+00
 -1      1771 4.74811E+01 3.61841E+01 0.00000E+00
 -1      1772 4.93421E+01 3.65054E+01 0.00000E+00
 -1      1773 5.11394E+01 3.64440E+01 0.00000E+00
 -1      1774 5.28261E+01 3.60894E+01 0.00000E+00
 -1      1775 5.44356E+01 3.54589E+01 0.00000E+00
 -1      1776 5.59490E+01 3.45505E+01 0.00000E+00
 -1      1777 5.71258E+01 3.32210E+01 0.00000E+00
 -1      1778 5.78467E+01 3.16161E+01 0.00000E+00
 -1      1779 5.83175E+01 2.99941E+01 0.00000E+00
 -1      1780 2.87400E+00 4.77875E+01 0.00000E+00
 -1      1781 4.41477E+01 2.29615E+01 0.00000E+00
 -1      1782 3.89700E+00 4.04125E+01 0.00000E+00
 -1      1783 3.89700E+00 4.18875E+01 0.00000E+00
 -1      1784 3.89700E+00 4.33625E+01 0.00000E+00
 -1      1785 3.89700E+00 4.48375E+01 0.00000E+00
 -1      1786 5.19600E+00 4.26250E+01 0.00000E+00
 -1      1787 3.89700E+00 3.45500E+01 0.00000E+00
 -1      1788 3.89700E+00 3.60000E+01 0.00000E+00
 -1      1789 3.89700E+00 3.16000E+01 0.00000E+00
 -1      1790 3.89700E+00 3.30750E+01 0.00000E+00
 -1      1791 5.19600E+00 3.38000E+01 0.00000E+00
 -1      1792 3.89700E+00 2.86500E+01 0.00000E+00
 -1      1793 3.89700E+00 3.01250E+01 0.00000E+00
 -1      1794 5.19600E+00 3.08500E+01 0.00000E+00
 -1      1795 3.89700E+00 2.57000E+01 0.00000E+00
 -1      1796 3.89700E+00 2.71750E+01 0.00000E+00
 -1      1797 5.19600E+00 2.79000E+01 0.00000E+00
 -1      1798 3.89700E+00 2.27500E+01 0.00000E+00
 -1      1799 3.89700E+00 2.42250E+01 0.00000E+00
 -1      1800 5.19600E+00 2.49500E+01 0.00000E+00
 -1      1801 3.89700E+00 1.98000E+01 0.00000E+00
 -1      1802 3.89700E+00 2.12750E+01 0.00000E+00
 -1      1803 5.19600E+00 2.20000E+01 0.00000E+00
 -1      1804 3.89700E+00 1.69000E+01 0.00000E+00
 -1      1805 3.89700E+00 1.83500E+01 0.00000E+00
 -1      1806 5.19600E+00 1.90750E+01 0.00000E+00
 -1      1807 3.89700E+00 1.39500E+01 0.00000E+00
 -1      1808 3.89700E+00 1.54250E+01 0.00000E+00
 -1      1809 5.19600E+00 1.61500E+01 0.00000E+00
 -1      1810 3.89700E+00 1.10000E+01 0.00000E+00
 -1      1811 3.89700E+00 1.24750E+01 0.00000E+00
 -1      1812 5.19600E+00 1.32000E+01 0.00000E+00
 -1      1813 3.89700E+00 8.05000E+00 0.00000E+00
 -1      1814 3.89700E+00 9.52500E+00 0.00000E+00
 -1      1815 5.19600E+00 1.02500E+01 0.00000E+00
 -1      1816 3.89700E+00 5.10000E+00 0.00000E+00
 -1      1817 3.89700E+00 6.57500E+00 0.00000E+00
 -1      1818 5.19600E+00 7.30000E+00 0.00000E+00
 -1      1819 4.20450E+00 3.09687E+00 0.00000E+00
 -1      1820 4.06650E+00 4.19063E+00 0.00000E+00
 -1      1821 5.36550E+00 4.91563E+00 0.00000E+00
 -1      1822 5.70450E+00 3.09687E+00 0.00000E+00
 -1      1823 3.62400E+00 4.64885E+01 0.00000E+00
 -1      1824 8.70450E+00 3.09687E+00 0.00000E+00
 -1      1825 7.20450E+00 3.09687E+00 0.00000E+00
 -1      1826 7.03500E+00 4.00625E+00 0.00000E+00
 -1      1827 4.32939E+01 2.29487E+01 0.00000E+00
 -1      1828 4.38988E+01 2.21447E+01 0.00000E+00
 -1      1829 4.92300E+00 4.57510E+01 0.00000E+00
 -1      1830 8.40000E+00 4.61030E+01 0.00000E+00
 -1      1831 9.90000E+00 4.61030E+01 0.00000E+00
 -1      1832 1.14000E+01 4.61030E+01 0.00000E+00
 -1      1833 1.29000E+01 4.61030E+01 0.00000E+00
 -1      1834 1.06500E+01 4.48040E+01 0.00000E+00
 -1      1835 1.44000E+01 4.61030E+01 0.00000E+00
 -1      1836 1.59000E+01 4.61030E+01 0.00000E+00
 -1      1837 1.36500E+01 4.48040E+01 0.00000E+00
 -1      1838 1.74000E+01 4.61030E+01 0.00000E+00
 -1      1839 1.89000E+01 4.61030E+01 0.00000E+00
 -1      1840 1.66500E+01 4.48040E+01 0.00000E+00
 -1      1841 2.04000E+01 4.61030E+01 0.00000E+00
 -1      1842 2.19000E+01 4.61030E+01 0.00000E+00
 -1      1843 1.96500E+01 4.48040E+01 0.00000E+00
 -1      1844 2.34000E+01 4.61030E+01 0.00000E+00
 -1      1845 2.49000E+01 4.61030E+01 0.00000E+00
 -1      1846 2.26500E+01 4.48040E+01 0.00000E+00
 -1      1847 2.64000E+01 4.61030E+01 0.00000E+00
 -1      1848 2.79000E+01 4.61030E+01 0.00000E+00
 -1      1849 2.56500E+01 4.48040E+01 0.00000E+00
 -1      1850 2.94000E+01 4.61030E+01 0.00000E+00
 -1      1851 3.09000E+01 4.61030E+01 0.00000E+00
 -1      1852 2.86500E+01 4.48040E+01 0.00000E+00
 -1      1853 3.24000E+01 4.61030E+01 0.00000E+00
 -1      1854 3.39000E+01 4.61030E+01 0.00000E+00
 -1      1855 3.16500E+01 4.48040E+01 0.00000E+00
 -1      1856 3.54000E+01 4.61030E+01 0.00000E+00
 -1      1857 3.69000E+01 4.61030E+01 0.00000E+00
 -1      1858 3.46500E+01 4.48040E+01 0.00000E+00
 -1      1859 3.84000E+01 4.61030E+01 0.00000E+00
 -1      1860 3.99000E+01 4.61030E+01 0.00000E+00
 -1      1861 3.76500E+01 4.48040E+01 0.00000E+00
 -1      1862 4.14000E+01 4.61030E+01 0.00000E+00
 -1      1863 4.29000E+01 4.61030E+01 0.00000E+00
 -1      1864 4.06500E+01 4.48040E+01 0.00000E+00
 -1      1865 4.44000E+01 4.61030E+01 0.00000E+00
 -1      1866 4.59000E+01 4.61030E+01 0.00000E+00
 -1      1867 4.36500E+01 4.48040E+01 0.00000E+00
 -1      1868 4.74000E+01 4.61030E+01 0.00000E+00
 -1      1869 4.89000E+01 4.61030E+01 0.00000E+00
 -1      1870 4.66500E+01 4.48040E+01 0.00000E+00
 -1      1871 5.04000E+01 4.61030E+01 0.00000E+00
 -1      1872 5.19000E+01 4.61030E+01 0.00000E+00
 -1      1873 4.96500E+01 4.48040E+01 0.00000E+00
 -1      1874 5.34000E+01 4.61030E+01 0.00000E+00
 -1      1875 5.49000E+01 4.61030E+01 0.00000E+00
 -1      1876 5.26500E+01 4.48040E+01 0.00000E+00
 -1      1877 5.64000E+01 4.61030E+01 0.00000E+00
 -1      1878 5.79000E+01 4.61030E+01 0.00000E+00
 -1      1879 5.56500E+01 4.48040E+01 0.00000E+00
 -1      1880 5.94000E+01 4.61030E+01 0.00000E+00
 -1      1881 6.09000E+01 4.61030E+01 0.00000E+00
 -1      1882 5.86500E+01 4.48040E+01 0.00000E+00
 -1      1883 6.24000E+01 4.61030E+01 0.00000E+00
 -1      1884 6.39000E+01 4.61030E+01 0.00000E+00
 -1      1885 6.16500E+01 4.48040E+01 0.00000E+00
 -1      1886 6.54000E+01 4.61030E+01 0.00000E+00
 -1      1887 6.69000E+01 4.61030E+01 0.00000E+00
 -1      1888 6.46500E+01 4.48040E+01 0.00000E+00
 -1      1889 6.84000E+01 4.61030E+01 0.00000E+00
 -1      1890 6.99000E+01 4.61030E+01 0.00000E+00
 -1      1891 6.76500E+01 4.48040E+01 0.00000E+00
 -1      1892 7.14000E+01 4.61030E+01 0.00000E+00
 -1      1893 7.29000E+01 4.61030E+01 0.00000E+00
 -1      1894 7.06500E+01 4.48040E+01 0.00000E+00
 -1      1895 7.44000E+01 4.61030E+01 0.00000E+00
 -1      1896 7.59000E+01 4.61030E+01 0.00000E+00
 -1      1897 7.36500E+01 4.48040E+01 0.00000E+00
 -1      1898 7.74000E+01 4.61030E+01 0.00000E+00
 -1      1899 7.89000E+01 4.61030E+01 0.00000E+00
 -1      1900 7.66500E+01 4.48040E+01 0.00000E+00
 -1      1901 8.04000E+01 4.61030E+01 0.00000E+00
 -1      1902 8.19000E+01 4.61030E+01 0.00000E+00
 -1      1903 7.96500E+01 4.48040E+01 0.00000E+00
 -1      1904 8.34000E+01 4.61030E+01 0.00000E+00
 -1      1905 8.49000E+01 4.61030E+01 0.00000E+00
 -1      1906 8.26500E+01 4.48040E+01 0.00000E+00
 -1      1907 8.64000E+01 4.61030E+01 0.00000E+00
 -1      1908 8.79000E+01 4.61030E+01 0.00000E+00
 -1      1909 8.56500E+01 4.48040E+01 0.00000E+00
 -1      1910 8.94000E+01 4.61030E+01 0.00000E+00
 -1      1911 9.09000E+01 4.61030E+01 0.00000E+00
 -1      1912 8.86500E+01 4.48040E+01 0.00000E+00
 -1      1913 9.24000E+01 4.61030E+01 0.00000E+00
 -1      1914 9.39000E+01 4.61030E+01 0.00000E+00
 -1      1915 9.16500E+01 4.48040E+01 0.00000E+00
 -1      1916 9.54000E+01 4.61030E+01 0.00000E+00
 -1      1917 9.69000E+01 4.61030E+01 0.00000E+00
 -1      1918 9.46500E+01 4.48040E+01 0.00000E+00
 -1      1919 9.84000E+01 4.61030E+01 0.00000E+00
 -1      1920 9.99000E+01 4.61030E+01 0.00000E+00
 -1      1921 9.76500E+01 4.48040E+01 0.00000E+00
 -1      1922 1.01400E+02 4.61030E+01 0.00000E+00
 -1      1923 1.02900E+02 4.61030E+01 0.00000E+00
 -1      1924 1.00650E+02 4.48040E+01 0.00000E+00
 -1      1925 1.04400E+02 4.61030E+01 0.00000E+00
 -1      1926 1.05900E+02 4.61030E+01 0.00000E+00
 -1      1927 1.03650E+02 4.48040E+01 0.00000E+00
 -1      1928 1.07400E+02 4.61030E+01 0.00000E+00
 -1      1929 1.08900E+02 4.61030E+01 0.00000E+00
 -1      1930 1.06650E+02 4.48040E+01 0.00000E+00
 -1      1931 1.10400E+02 4.61030E+01 0.00000E+00
 -1      1932 1.11900E+02 4.61030E+01 0.00000E+00
 -1      1933 1.09650E+02 4.48040E+01 0.00000E+00
 -1      1934 1.13400E+02 4.61030E+01 0.00000E+00
 -1      1935 1.14900E+02 4.61030E+01 0.00000E+00
 -1      1936 1.12650E+02 4.48040E+01 0.00000E+00
 -1      1937 1.16400E+02 4.61030E+01 0.00000E+00
 -1      1938 1.17900E+02 4.61030E+01 0.00000E+00
 -1      1939 1.15650E+02 4.48040E+01 0.00000E+00
 -1      1940 1.19400E+02 4.61030E+01 0.00000E+00
 -1      1941 1.20900E+02 4.61030E+01 0.00000E+00
 -1      1942 1.18650E+02 4.48040E+01 0.00000E+00
 -1      1943 1.22400E+02 4.61030E+01 0.00000E+00
 -1      1944 1.23900E+02 4.61030E+01 0.00000E+00
 -1      1945 1.21650E+02 4.48040E+01 0.00000E+00
 -1      1946 1.25400E+02 4.61030E+01 0.00000E+00
 -1      1947 1.26900E+02 4.61030E+01 0.00000E+00
 -1      1948 1.24650E+02 4.48040E+01 0.00000E+00
 -1      1949 1.28400E+02 4.61030E+01 0.00000E+00
 -1      1950 1.29900E+02 4.61030E+01 0.00000E+00
 -1      1951 1.27650E+02 4.48040E+01 0.00000E+00
 -1      1952 1.31400E+02 4.61030E+01 0.00000E+00
 -1      1953 1.32900E+02 4.61030E+01 0.00000E+00
 -1      1954 1.30650E+02 4.48040E+01 0.00000E+00
 -1      1955 1.34400E+02 4.61030E+01 0.00000E+00
 -1      1956 1.35900E+02 4.61030E+01 0.00000E+00
 -1      1957 1.33650E+02 4.48040E+01 0.00000E+00
 -1      1958 1.37400E+02 4.61030E+01 0.00000E+00
 -1      1959 1.38900E+02 4.61030E+01 0.00000E+00
 -1      1960 1.36650E+02 4.48040E+01 0.00000E+00
 -1      1961 1.40400E+02 4.61030E+01 0.00000E+00
 -1      1962 1.41900E+02 4.61030E+01 0.00000E+00
 -1      1963 1.39650E+02 4.48040E+01 0.00000E+00
 -1      1964 1.43244E+02 4.61616E+01 0.00000E+00
 -1      1965 1.44744E+02 4.61616E+01 0.00000E+00
 -1      1966 1.45182E+02 4.49799E+01 0.00000E+00
 -1      1967 1.42494E+02 4.48626E+01 0.00000E+00
 -1      1968 1.17045E+01 3.09687E+00 0.00000E+00
 -1      1969 1.02045E+01 3.09687E+00 0.00000E+00
 -1      1970 1.00350E+01 4.00625E+00 0.00000E+00
 -1      1971 1.47045E+01 3.09687E+00 0.00000E+00
 -1      1972 1.32045E+01 3.09687E+00 0.00000E+00
 -1      1973 1.30350E+01 4.00625E+00 0.00000E+00
 -1      1974 1.77045E+01 3.09687E+00 0.00000E+00
 -1      1975 1.62045E+01 3.09687E+00 0.00000E+00
 -1      1976 1.60350E+01 4.00625E+00 0.00000E+00
 -1      1977 2.07045E+01 3.09687E+00 0.00000E+00
 -1      1978 1.92045E+01 3.09687E+00 0.00000E+00
 -1      1979 1.90350E+01 4.00625E+00 0.00000E+00
 -1      1980 2.37045E+01 3.09687E+00 0.00000E+00
 -1      1981 2.22045E+01 3.09687E+00 0.00000E+00
 -1      1982 2.20350E+01 4.00625E+00 0.00000E+00
 -1      1983 2.67045E+01 3.09687E+00 0.00000E+00
 -1      1984 2.52045E+01 3.09687E+00 0.00000E+00
 -1      1985 2.50350E+01 4.00625E+00 0.00000E+00
 -1      1986 2.97045E+01 3.09687E+00 0.00000E+00
 -1      1987 2.82045E+01 3.09687E+00 0.00000E+00
 -1      1988 2.80350E+01 4.00625E+00 0.00000E+00
 -1      1989 3.27045E+01 3.09687E+00 0.00000E+00
 -1      1990 3.12045E+01 3.09687E+00 0.00000E+00
 -1      1991 3.10350E+01 4.00625E+00 0.00000E+00
 -1      1992 3.57045E+01 3.09687E+00 0.00000E+00
 -1      1993 3.42045E+01 3.09687E+00 0.00000E+00
 -1      1994 3.40350E+01 4.00625E+00 0.00000E+00
 -1      1995 3.87045E+01 3.09687E+00 0.00000E+00
 -1      1996 3.72045E+01 3.09687E+00 0.00000E+00
 -1      1997 3.70350E+01 4.00625E+00 0.00000E+00
 -1      1998 4.17045E+01 3.09687E+00 0.00000E+00
 -1      1999 4.02045E+01 3.09687E+00 0.00000E+00
 -1      2000 4.00350E+01 4.00625E+00 0.00000E+00
 -1      2001 4.47045E+01 3.09687E+00 0.00000E+00
 -1      2002 4.32045E+01 3.09687E+00 0.00000E+00
 -1      2003 4.30350E+01 4.00625E+00 0.00000E+00
 -1      2004 4.77045E+01 3.09687E+00 0.00000E+00
 -1      2005 4.62045E+01 3.09687E+00 0.00000E+00
 -1      2006 4.60350E+01 4.00625E+00 0.00000E+00
 -1      2007 5.07045E+01 3.09687E+00 0.00000E+00
 -1      2008 4.92045E+01 3.09687E+00 0.00000E+00
 -1      2009 4.90350E+01 4.00625E+00 0.00000E+00
 -1      2010 5.37045E+01 3.09687E+00 0.00000E+00
 -1      2011 5.22045E+01 3.09687E+00 0.00000E+00
 -1      2012 5.20350E+01 4.00625E+00 0.00000E+00
 -1      2013 5.67045E+01 3.09687E+00 0.00000E+00
 -1      2014 5.52045E+01 3.09687E+00 0.00000E+00
 -1      2015 5.50350E+01 4.00625E+00 0.00000E+00
 -1      2016 5.97045E+01 3.09687E+00 0.00000E+00
 -1      2017 5.82045E+01 3.09687E+00 0.00000E+00
 -1      2018 5.80350E+01 4.00625E+00 0.00000E+00
 -1      2019 6.27045E+01 3.09687E+00 0.00000E+00
 -1      2020 6.12045E+01 3.09687E+00 0.00000E+00
 -1      2021 6.10350E+01 4.00625E+00 0.00000E+00
 -1      2022 6.57045E+01 3.09687E+00 0.00000E+00
 -1      2023 6.42045E+01 3.09687E+00 0.00000E+00
 -1      2024 6.40350E+01 4.00625E+00 0.00000E+00
 -1      2025 6.87045E+01 3.09687E+00 0.00000E+00
 -1      2026 6.72045E+01 3.09687E+00 0.00000E+00
 -1      2027 6.70350E+01 4.00625E+00 0.00000E+00
 -1      2028 7.17045E+01 3.09687E+00 0.00000E+00
 -1      2029 7.02045E+01 3.09687E+00 0.00000E+00
 -1      2030 7.00350E+01 4.00625E+00 0.00000E+00
 -1      2031 7.47045E+01 3.09687E+00 0.00000E+00
 -1      2032 7.32045E+01 3.09687E+00 0.00000E+00
 -1      2033 7.30350E+01 4.00625E+00 0.00000E+00
 -1      2034 7.77045E+01 3.09687E+00 0.00000E+00
 -1      2035 7.62045E+01 3.09687E+00 0.00000E+00
 -1      2036 7.60350E+01 4.00625E+00 0.00000E+00
 -1      2037 8.07045E+01 3.09687E+00 0.00000E+00
 -1      2038 7.92045E+01 3.09687E+00 0.00000E+00
 -1      2039 7.90350E+01 4.00625E+00 0.00000E+00
 -1      2040 8.37045E+01 3.09687E+00 0.00000E+00
 -1      2041 8.22045E+01 3.09687E+00 0.00000E+00
 -1      2042 8.20350E+01 4.00625E+00 0.00000E+00
 -1      2043 8.67045E+01 3.09687E+00 0.00000E+00
 -1      2044 8.52045E+01 3.09687E+00 0.00000E+00
 -1      2045 8.50350E+01 4.00625E+00 0.00000E+00
 -1      2046 8.97045E+01 3.09687E+00 0.00000E+00
 -1      2047 8.82045E+01 3.09687E+00 0.00000E+00
 -1      2048 8.80350E+01 4.00625E+00 0.00000E+00
 -1      2049 9.27045E+01 3.09687E+00 0.00000E+00
 -1      2050 9.12045E+01 3.09687E+00 0.00000E+00
 -1      2051 9.10350E+01 4.00625E+00 0.00000E+00
 -1      2052 9.57045E+01 3.09687E+00 0.00000E+00
 -1      2053 9.42045E+01 3.09687E+00 0.00000E+00
 -1      2054 9.40350E+01 4.00625E+00 0.00000E+00
 -1      2055 9.87045E+01 3.09687E+00 0.00000E+00
 -1      2056 9.72045E+01 3.09687E+00 0.00000E+00
 -1      2057 9.70350E+01 4.00625E+00 0.00000E+00
 -1      2058 1.01704E+02 3.09687E+00 0.00000E+00
 -1      2059 1.00204E+02 3.09687E+00 0.00000E+00
 -1      2060 1.00035E+02 4.00625E+00 0.00000E+00
 -1      2061 1.04704E+02 3.09687E+00 0.00000E+00
 -1      2062 1.03204E+02 3.09687E+00 0.00000E+00
 -1      2063 1.03035E+02 4.00625E+00 0.00000E+00
 -1      2064 1.07704E+02 3.09687E+00 0.00000E+00
 -1      2065 1.06204E+02 3.09687E+00 0.00000E+00
 -1      2066 1.06035E+02 4.00625E+00 0.00000E+00
 -1      2067 1.10704E+02 3.09687E+00 0.00000E+00
 -1      2068 1.09204E+02 3.09687E+00 0.00000E+00
 -1      2069 1.09035E+02 4.00625E+00 0.00000E+00
 -1      2070 1.13704E+02 3.09687E+00 0.00000E+00
 -1      2071 1.12204E+02 3.09687E+00 0.00000E+00
 -1      2072 1.12035E+02 4.00625E+00 0.00000E+00
 -1      2073 1.16704E+02 3.09687E+00 0.00000E+00
 -1      2074 1.15204E+02 3.09687E+00 0.00000E+00
 -1      2075 1.15035E+02 4.00625E+00 0.00000E+00
 -1      2076 1.19704E+02 3.09687E+00 0.00000E+00
 -1      2077 1.18204E+02 3.09687E+00 0.00000E+00
 -1      2078 1.18035E+02 4.00625E+00 0.00000E+00
 -1      2079 1.22704E+02 3.09687E+00 0.00000E+00
 -1      2080 1.21204E+02 3.09687E+00 0.00000E+00
 -1      2081 1.21035E+02 4.00625E+00 0.00000E+00
 -1      2082 1.25704E+02 3.09687E+00 0.00000E+00
 -1      2083 1.24204E+02 3.09687E+00 0.00000E+00
 -1      2084 1.24035E+02 4.00625E+00 0.00000E+00
 -1      2085 1.28704E+02 3.09687E+00 0.00000E+00
 -1      2086 1.27204E+02 3.09687E+00 0.00000E+00
 -1      2087 1.27035E+02 4.00625E+00 0.00000E+00
 -1      2088 1.31704E+02 3.09687E+00 0.00000E+00
 -1      2089 1.30204E+02 3.09687E+00 0.00000E+00
 -1      2090 1.30035E+02 4.00625E+00 0.00000E+00
 -1      2091 1.34704E+02 3.09687E+00 0.00000E+00
 -1      2092 1.33204E+02 3.09687E+00 0.00000E+00
 -1      2093 1.33035E+02 4.00625E+00 0.00000E+00
 -1      2094 1.37704E+02 3.09687E+00 0.00000E+00
 -1      2095 1.36204E+02 3.09687E+00 0.00000E+00
 -1      2096 1.36035E+02 4.00625E+00 0.00000E+00
 -1      2097 1.40704E+02 3.09687E+00 0.00000E+00
 -1      2098 1.39204E+02 3.09687E+00 0.00000E+00
 -1      2099 1.39035E+02 4.00625E+00 0.00000E+00
 -1      2100 1.43704E+02 3.09687E+00 0.00000E+00
 -1      2101 1.42204E+02 3.09687E+00 0.00000E+00
 -1      2102 1.42035E+02 4.00625E+00 0.00000E+00
 -1      2103 1.46171E+02 3.20156E+00 0.00000E+00
 -1      2104 1.44671E+02 3.20156E+00 0.00000E+00
 -1      2105 1.44502E+02 4.11094E+00 0.00000E+00
 -1      2106 1.46435E+02 4.32031E+00 0.00000E+00
 -1      2107 1.46103E+02 1.25375E+01 0.00000E+00
 -1      2108 1.46103E+02 1.10625E+01 0.00000E+00
 -1      2109 1.46103E+02 9.58750E+00 0.00000E+00
 -1      2110 1.46103E+02 8.11250E+00 0.00000E+00
 -1      2111 1.44804E+02 1.03250E+01 0.00000E+00
 -1      2112 1.46269E+02 6.95391E+00 0.00000E+00
 -1      2113 1.46269E+02 5.47891E+00 0.00000E+00
 -1      2114 1.45302E+02 5.37422E+00 0.00000E+00
 -1      2115 1.44970E+02 7.69141E+00 0.00000E+00
 -1      2116 1.46103E+02 1.54375E+01 0.00000E+00
 -1      2117 1.46103E+02 1.39875E+01 0.00000E+00
 -1      2118 1.44804E+02 1.32500E+01 0.00000E+00
 -1      2119 1.46103E+02 1.83875E+01 0.00000E+00
 -1      2120 1.46103E+02 1.69125E+01 0.00000E+00
 -1      2121 1.44804E+02 1.61750E+01 0.00000E+00
 -1      2122 1.46103E+02 2.13375E+01 0.00000E+00
 -1      2123 1.46103E+02 1.98625E+01 0.00000E+00
 -1      2124 1.44804E+02 1.91250E+01 0.00000E+00
 -1      2125 1.46103E+02 2.42875E+01 0.00000E+00
 -1      2126 1.46103E+02 2.28125E+01 0.00000E+00
 -1      2127 1.44804E+02 2.20750E+01 0.00000E+00
 -1      2128 1.46103E+02 2.72375E+01 0.00000E+00
 -1      2129 1.46103E+02 2.57625E+01 0.00000E+00
 -1      2130 1.44804E+02 2.50250E+01 0.00000E+00
 -1      2131 1.46103E+02 3.01875E+01 0.00000E+00
 -1      2132 1.46103E+02 2.87125E+01 0.00000E+00
 -1      2133 1.44804E+02 2.79750E+01 0.00000E+00
 -1      2134 1.46103E+02 3.30875E+01 0.00000E+00
 -1      2135 1.46103E+02 3.16375E+01 0.00000E+00
 -1      2136 1.44804E+02 3.09000E+01 0.00000E+00
 -1      2137 1.46103E+02 3.60375E+01 0.00000E+00
 -1      2138 1.46103E+02 3.45625E+01 0.00000E+00
 -1      2139 1.44804E+02 3.38250E+01 0.00000E+00
 -1      2140 1.46103E+02 3.89875E+01 0.00000E+00
 -1      2141 1.46103E+02 3.75125E+01 0.00000E+00
 -1      2142 1.44804E+02 3.67750E+01 0.00000E+00
 -1      2143 1.46103E+02 4.19375E+01 0.00000E+00
 -1      2144 1.46103E+02 4.04625E+01 0.00000E+00
 -1      2145 1.44804E+02 3.97250E+01 0.00000E+00
 -1      2146 5.83828E+01 2.45321E+01 0.00000E+00
 -1      2147 5.86609E+01 2.52912E+01 0.00000E+00
 -1      2148 5.91693E+01 2.79300E+01 0.00000E+00
 -1      2149 5.91713E+01 2.87701E+01 0.00000E+00
 -1      2150 5.88647E+01 2.60857E+01 0.00000E+00
 -1      2151 5.90684E+01 2.68801E+01 0.00000E+00
 -1      2152 5.94128E+01 2.54544E+01 0.00000E+00
 -1      2153 5.74052E+01 2.29698E+01 0.00000E+00
 -1      2154 5.78848E+01 2.36649E+01 0.00000E+00
 -1      2155 4.45092E+01 2.13755E+01 0.00000E+00
 -1      2156 4.50384E+01 2.08652E+01 0.00000E+00
 -1      2157 4.15384E+01 2.62395E+01 0.00000E+00
 -1      2158 4.17402E+01 2.54127E+01 0.00000E+00
 -1      2159 5.60983E+01 2.16648E+01 0.00000E+00
 -1      2160 5.67331E+01 2.22173E+01 0.00000E+00
 -1      2161 3.89700E+00 3.74688E+01 0.00000E+00
 -1      2162 3.89700E+00 3.89437E+01 0.00000E+00
 -1      2163 5.19600E+00 3.96813E+01 0.00000E+00
 -1      2164 5.19600E+00 3.67438E+01 0.00000E+00
 -1      2165 5.30448E+01 1.98487E+01 0.00000E+00
 -1      2166 5.38207E+01 2.00983E+01 0.00000E+00
 -1      2167 5.14039E+01 1.95074E+01 0.00000E+00
 -1      2168 5.22244E+01 1.96781E+01 0.00000E+00
 -1      2169 5.28493E+01 1.90663E+01 0.00000E+00
 -1      2170 4.94251E+01 1.93840E+01 0.00000E+00
 -1      2171 5.02747E+01 1.93049E+01 0.00000E+00
 -1      2172 4.78376E+01 1.97898E+01 0.00000E+00
 -1      2173 4.86314E+01 1.95869E+01 0.00000E+00
 -1      2174 4.89767E+01 1.86935E+01 0.00000E+00
 -1      2175 4.60515E+01 2.03574E+01 0.00000E+00
 -1      2176 4.68922E+01 2.01305E+01 0.00000E+00
 -1      2177 4.23367E+01 2.45081E+01 0.00000E+00
 -1      2178 4.27710E+01 2.37896E+01 0.00000E+00
 -1      2179 4.15190E+01 2.80494E+01 0.00000E+00
 -1      2180 4.15895E+01 2.72175E+01 0.00000E+00
 -1      2181 4.14189E+01 2.98714E+01 0.00000E+00
 -1      2182 4.13506E+01 2.90138E+01 0.00000E+00
 -1      2183 4.20348E+01 3.17396E+01 0.00000E+00
 -1      2184 4.17101E+01 3.09285E+01 0.00000E+00
 -1      2185 4.26884E+01 3.34351E+01 0.00000E+00
 -1      2186 4.23616E+01 3.25873E+01 0.00000E+00
 -1      2187 4.14809E+01 3.24694E+01 0.00000E+00
 -1      2188 4.40506E+01 3.50469E+01 0.00000E+00
 -1      2189 4.33984E+01 3.43703E+01 0.00000E+00
 -1      2190 4.57578E+01 3.62749E+01 0.00000E+00
 -1      2191 4.49210E+01 3.57832E+01 0.00000E+00
 -1      2192 4.77031E+01 3.71093E+01 0.00000E+00
 -1      2193 4.67689E+01 3.68149E+01 0.00000E+00
 -1      2194 4.97819E+01 3.73341E+01 0.00000E+00
 -1      2195 4.88550E+01 3.73072E+01 0.00000E+00
 -1      2196 5.15227E+01 3.71577E+01 0.00000E+00
 -1      2197 5.06523E+01 3.72459E+01 0.00000E+00
 -1      2198 5.01652E+01 3.80478E+01 0.00000E+00
 -1      2199 5.34743E+01 3.66918E+01 0.00000E+00
 -1      2200 5.26580E+01 3.69582E+01 0.00000E+00
 -1      2201 5.50607E+01 3.59634E+01 0.00000E+00
 -1      2202 5.42675E+01 3.63276E+01 0.00000E+00
 -1      2203 5.40994E+01 3.71964E+01 0.00000E+00
 -1      2204 5.67503E+01 3.48623E+01 0.00000E+00
 -1      2205 5.60301E+01 3.54065E+01 0.00000E+00
 -1      2206 5.80593E+01 3.32384E+01 0.00000E+00
 -1      2207 5.76026E+01 3.40237E+01 0.00000E+00
 -1      2208 5.86754E+01 3.14309E+01 0.00000E+00
 -1      2209 5.84112E+01 3.22504E+01 0.00000E+00
 -1      2210 5.90886E+01 2.98259E+01 0.00000E+00
 -1      2211 5.88820E+01 3.06284E+01 0.00000E+00
 -1      2212 5.94465E+01 3.12627E+01 0.00000E+00
 -1      2213 5.47420E+01 2.07155E+01 0.00000E+00
 -1      2214 5.54202E+01 2.11901E+01 0.00000E+00
 -1      2215 5.61905E+01 2.09459E+01 0.00000E+00
 -1      2216 4.36554E+01 2.13627E+01 0.00000E+00
 -1      2217 4.25221E+01 2.29728E+01 0.00000E+00
 -1      2218 6.42300E+00 4.57510E+01 0.00000E+00
 -1      2219 7.17300E+00 4.44520E+01 0.00000E+00
 -1      2220 5.97175E+01 2.72987E+01 0.00000E+00
 -1      2221 5.87110E+01 2.37927E+01 0.00000E+00
 -1      2222 1.45665E+02 4.31193E+01 0.00000E+00
 -1      2223 5.97357E+01 2.94044E+01 0.00000E+00
 -1      2224 5.75408E+01 2.21731E+01 0.00000E+00
 -1      2225 4.52789E+01 2.00856E+01 0.00000E+00
 -1      2226 4.14027E+01 2.47182E+01 0.00000E+00
 -1      2227 5.88879E+01 3.30532E+01 0.00000E+00
 -1      2228 5.58620E+01 3.62753E+01 0.00000E+00
 -1      2229 5.21709E+01 3.77601E+01 0.00000E+00
 -1      2230 4.81428E+01 3.79380E+01 0.00000E+00
 -1      2231 4.59797E+01 3.72000E+01 0.00000E+00
 -1      2232 4.25177E+01 3.42523E+01 0.00000E+00
 -1      2233 4.08629E+01 3.05645E+01 0.00000E+00
 -1      2234 4.07401E+01 2.85430E+01 0.00000E+00
 -1      2235 4.72375E+01 1.92371E+01 0.00000E+00
 -1      2236 4.08573E+01 2.66007E+01 0.00000E+00
 -1      2237 5.08996E+01 1.86931E+01 0.00000E+00
 -1      2238 5.45911E+01 1.98541E+01 0.00000E+00
 -1      2239 4.40982E+01 3.59237E+01 0.00000E+00
 -1      2240 5.76837E+01 3.48797E+01 0.00000E+00
 -1      2241 1.07850E+01 5.30525E+00 0.00000E+00
 -1      2242 9.28500E+00 5.30525E+00 0.00000E+00
 -1      2243 6.49500E+00 3.01125E+01 0.00000E+00
 -1      2244 6.49500E+00 3.15875E+01 0.00000E+00
 -1      2245 6.49500E+00 3.30625E+01 0.00000E+00
 -1      2246 6.49500E+00 3.45375E+01 0.00000E+00
 -1      2247 7.79400E+00 3.23250E+01 0.00000E+00
 -1      2248 6.49500E+00 2.42125E+01 0.00000E+00
 -1      2249 6.49500E+00 2.56875E+01 0.00000E+00
 -1      2250 6.49500E+00 2.12625E+01 0.00000E+00
 -1      2251 6.49500E+00 2.27375E+01 0.00000E+00
 -1      2252 7.79400E+00 2.34750E+01 0.00000E+00
 -1      2253 6.49500E+00 1.83625E+01 0.00000E+00
 -1      2254 6.49500E+00 1.98125E+01 0.00000E+00
 -1      2255 7.79400E+00 2.05500E+01 0.00000E+00
 -1      2256 6.49500E+00 1.54125E+01 0.00000E+00
 -1      2257 6.49500E+00 1.68875E+01 0.00000E+00
 -1      2258 7.79400E+00 1.76250E+01 0.00000E+00
 -1      2259 6.49500E+00 1.24625E+01 0.00000E+00
 -1      2260 6.49500E+00 1.39375E+01 0.00000E+00
 -1      2261 7.79400E+00 1.46750E+01 0.00000E+00
 -1      2262 6.49500E+00 9.51250E+00 0.00000E+00
 -1      2263 6.49500E+00 1.09875E+01 0.00000E+00
 -1      2264 7.79400E+00 1.17250E+01 0.00000E+00
 -1      2265 9.90000E+00 4.35050E+01 0.00000E+00
 -1      2266 1.14000E+01 4.35050E+01 0.00000E+00
 -1      2267 4.16036E+01 2.29846E+01 0.00000E+00
 -1      2268 4.21265E+01 2.21437E+01 0.00000E+00
 -1      2269 1.37850E+01 5.30525E+00 0.00000E+00
 -1      2270 1.22850E+01 5.30525E+00 0.00000E+00
 -1      2271 1.15350E+01 6.60425E+00 0.00000E+00
 -1      2272 6.55950E+00 4.28890E+01 0.00000E+00
 -1      2273 8.53650E+00 4.32410E+01 0.00000E+00
 -1      2274 9.28650E+00 4.19420E+01 0.00000E+00
 -1      2275 6.55950E+00 4.14140E+01 0.00000E+00
 -1      2276 1.29000E+01 4.35050E+01 0.00000E+00
 -1      2277 1.44000E+01 4.35050E+01 0.00000E+00
 -1      2278 1.21500E+01 4.22060E+01 0.00000E+00
 -1      2279 1.59000E+01 4.35050E+01 0.00000E+00
 -1      2280 1.74000E+01 4.35050E+01 0.00000E+00
 -1      2281 1.51500E+01 4.22060E+01 0.00000E+00
 -1      2282 1.89000E+01 4.35050E+01 0.00000E+00
 -1      2283 2.04000E+01 4.35050E+01 0.00000E+00
 -1      2284 1.81500E+01 4.22060E+01 0.00000E+00
 -1      2285 2.19000E+01 4.35050E+01 0.00000E+00
 -1      2286 2.34000E+01 4.35050E+01 0.00000E+00
 -1      2287 2.11500E+01 4.22060E+01 0.00000E+00
 -1      2288 2.49000E+01 4.35050E+01 0.00000E+00
 -1      2289 2.64000E+01 4.35050E+01 0.00000E+00
 -1      2290 2.41500E+01 4.22060E+01 0.00000E+00
 -1      2291 2.79000E+01 4.35050E+01 0.00000E+00
 -1      2292 2.94000E+01 4.35050E+01 0.00000E+00
 -1      2293 2.71500E+01 4.22060E+01 0.00000E+00
 -1      2294 3.09000E+01 4.35050E+01 0.00000E+00
 -1      2295 3.24000E+01 4.35050E+01 0.00000E+00
 -1      2296 3.01500E+01 4.22060E+01 0.00000E+00
 -1      2297 3.39000E+01 4.35050E+01 0.00000E+00
 -1      2298 3.54000E+01 4.35050E+01 0.00000E+00
 -1      2299 3.31500E+01 4.22060E+01 0.00000E+00
 -1      2300 3.69000E+01 4.35050E+01 0.00000E+00
 -1      2301 3.84000E+01 4.35050E+01 0.00000E+00
 -1      2302 3.61500E+01 4.22060E+01 0.00000E+00
 -1      2303 3.99000E+01 4.35050E+01 0.00000E+00
 -1      2304 4.14000E+01 4.35050E+01 0.00000E+00
 -1      2305 3.91500E+01 4.22060E+01 0.00000E+00
 -1      2306 4.29000E+01 4.35050E+01 0.00000E+00
 -1      2307 4.44000E+01 4.35050E+01 0.00000E+00
 -1      2308 4.21500E+01 4.22060E+01 0.00000E+00
 -1      2309 4.59000E+01 4.35050E+01 0.00000E+00
 -1      2310 4.74000E+01 4.35050E+01 0.00000E+00
 -1      2311 4.51500E+01 4.22060E+01 0.00000E+00
 -1      2312 4.89000E+01 4.35050E+01 0.00000E+00
 -1      2313 5.04000E+01 4.35050E+01 0.00000E+00
 -1      2314 4.81500E+01 4.22060E+01 0.00000E+00
 -1      2315 5.19000E+01 4.35050E+01 0.00000E+00
 -1      2316 5.34000E+01 4.35050E+01 0.00000E+00
 -1      2317 5.11500E+01 4.22060E+01 0.00000E+00
 -1      2318 5.49000E+01 4.35050E+01 0.00000E+00
 -1      2319 5.64000E+01 4.35050E+01 0.00000E+00
 -1      2320 5.41500E+01 4.22060E+01 0.00000E+00
 -1      2321 5.79000E+01 4.35050E+01 0.00000E+00
 -1      2322 5.94000E+01 4.35050E+01 0.00000E+00
 -1      2323 5.71500E+01 4.22060E+01 0.00000E+00
 -1      2324 6.09000E+01 4.35050E+01 0.00000E+00
 -1      2325 6.24000E+01 4.35050E+01 0.00000E+00
 -1      2326 6.01500E+01 4.22060E+01 0.00000E+00
 -1      2327 6.39000E+01 4.35050E+01 0.00000E+00
 -1      2328 6.54000E+01 4.35050E+01 0.00000E+00
 -1      2329 6.31500E+01 4.22060E+01 0.00000E+00
 -1      2330 6.69000E+01 4.35050E+01 0.00000E+00
 -1      2331 6.84000E+01 4.35050E+01 0.00000E+00
 -1      2332 6.61500E+01 4.22060E+01 0.00000E+00
 -1      2333 6.99000E+01 4.35050E+01 0.00000E+00
 -1      2334 7.14000E+01 4.35050E+01 0.00000E+00
 -1      2335 6.91500E+01 4.22060E+01 0.00000E+00
 -1      2336 7.29000E+01 4.35050E+01 0.00000E+00
 -1      2337 7.44000E+01 4.35050E+01 0.00000E+00
 -1      2338 7.21500E+01 4.22060E+01 0.00000E+00
 -1      2339 7.59000E+01 4.35050E+01 0.00000E+00
 -1      2340 7.74000E+01 4.35050E+01 0.00000E+00
 -1      2341 7.51500E+01 4.22060E+01 0.00000E+00
 -1      2342 7.89000E+01 4.35050E+01 0.00000E+00
 -1      2343 8.04000E+01 4.35050E+01 0.00000E+00
 -1      2344 7.81500E+01 4.22060E+01 0.00000E+00
 -1      2345 8.19000E+01 4.35050E+01 0.00000E+00
 -1      2346 8.34000E+01 4.35050E+01 0.00000E+00
 -1      2347 8.11500E+01 4.22060E+01 0.00000E+00
 -1      2348 8.49000E+01 4.35050E+01 0.00000E+00
 -1      2349 8.64000E+01 4.35050E+01 0.00000E+00
 -1      2350 8.41500E+01 4.22060E+01 0.00000E+00
 -1      2351 8.79000E+01 4.35050E+01 0.00000E+00
 -1      2352 8.94000E+01 4.35050E+01 0.00000E+00
 -1      2353 8.71500E+01 4.22060E+01 0.00000E+00
 -1      2354 9.09000E+01 4.35050E+01 0.00000E+00
 -1      2355 9.24000E+01 4.35050E+01 0.00000E+00
 -1      2356 9.01500E+01 4.22060E+01 0.00000E+00
 -1      2357 9.39000E+01 4.35050E+01 0.00000E+00
 -1      2358 9.54000E+01 4.35050E+01 0.00000E+00
 -1      2359 9.31500E+01 4.22060E+01 0.00000E+00
 -1      2360 9.69000E+01 4.35050E+01 0.00000E+00
 -1      2361 9.84000E+01 4.35050E+01 0.00000E+00
 -1      2362 9.61500E+01 4.22060E+01 0.00000E+00
 -1      2363 9.99000E+01 4.35050E+01 0.00000E+00
 -1      2364 1.01400E+02 4.35050E+01 0.00000E+00
 -1      2365 9.91500E+01 4.22060E+01 0.00000E+00
 -1      2366 1.02900E+02 4.35050E+01 0.00000E+00
 -1      2367 1.04400E+02 4.35050E+01 0.00000E+00
 -1      2368 1.02150E+02 4.22060E+01 0.00000E+00
 -1      2369 1.05900E+02 4.35050E+01 0.00000E+00
 -1      2370 1.07400E+02 4.35050E+01 0.00000E+00
 -1      2371 1.05150E+02 4.22060E+01 0.00000E+00
 -1      2372 1.08900E+02 4.35050E+01 0.00000E+00
 -1      2373 1.10400E+02 4.35050E+01 0.00000E+00
 -1      2374 1.08150E+02 4.22060E+01 0.00000E+00
 -1      2375 1.11900E+02 4.35050E+01 0.00000E+00
 -1      2376 1.13400E+02 4.35050E+01 0.00000E+00
 -1      2377 1.11150E+02 4.22060E+01 0.00000E+00
 -1      2378 1.14900E+02 4.35050E+01 0.00000E+00
 -1      2379 1.16400E+02 4.35050E+01 0.00000E+00
 -1      2380 1.14150E+02 4.22060E+01 0.00000E+00
 -1      2381 1.17900E+02 4.35050E+01 0.00000E+00
 -1      2382 1.19400E+02 4.35050E+01 0.00000E+00
 -1      2383 1.17150E+02 4.22060E+01 0.00000E+00
 -1      2384 1.20900E+02 4.35050E+01 0.00000E+00
 -1      2385 1.22400E+02 4.35050E+01 0.00000E+00
 -1      2386 1.20150E+02 4.22060E+01 0.00000E+00
 -1      2387 1.23900E+02 4.35050E+01 0.00000E+00
 -1      2388 1.25400E+02 4.35050E+01 0.00000E+00
 -1      2389 1.23150E+02 4.22060E+01 0.00000E+00
 -1      2390 1.26900E+02 4.35050E+01 0.00000E+00
 -1      2391 1.28400E+02 4.35050E+01 0.00000E+00
 -1      2392 1.26150E+02 4.22060E+01 0.00000E+00
 -1      2393 1.29900E+02 4.35050E+01 0.00000E+00
 -1      2394 1.31400E+02 4.35050E+01 0.00000E+00
 -1      2395 1.29150E+02 4.22060E+01 0.00000E+00
 -1      2396 1.32900E+02 4.35050E+01 0.00000E+00
 -1      2397 1.34400E+02 4.35050E+01 0.00000E+00
 -1      2398 1.32150E+02 4.22060E+01 0.00000E+00
 -1      2399 1.35900E+02 4.35050E+01 0.00000E+00
 -1      2400 1.37400E+02 4.35050E+01 0.00000E+00
 -1      2401 1.35150E+02 4.22060E+01 0.00000E+00
 -1      2402 1.38900E+02 4.35050E+01 0.00000E+00
 -1      2403 1.40400E+02 4.35050E+01 0.00000E+00
 -1      2404 1.38150E+02 4.22060E+01 0.00000E+00
 -1      2405 6.01011E+01 2.48545E+01 0.00000E+00
 -1      2406 6.03048E+01 2.56490E+01 0.00000E+00
 -1      2407 1.97850E+01 5.30525E+00 0.00000E+00
 -1      2408 1.82850E+01 5.30525E+00 0.00000E+00
 -1      2409 2.27850E+01 5.30525E+00 0.00000E+00
 -1      2410 2.12850E+01 5.30525E+00 0.00000E+00
 -1      2411 2.05350E+01 6.60425E+00 0.00000E+00
 -1      2412 2.57850E+01 5.30525E+00 0.00000E+00
 -1      2413 2.42850E+01 5.30525E+00 0.00000E+00
 -1      2414 2.35350E+01 6.60425E+00 0.00000E+00
 -1      2415 2.87850E+01 5.30525E+00 0.00000E+00
 -1      2416 2.72850E+01 5.30525E+00 0.00000E+00
 -1      2417 2.65350E+01 6.60425E+00 0.00000E+00
 -1      2418 3.17850E+01 5.30525E+00 0.00000E+00
 -1      2419 3.02850E+01 5.30525E+00 0.00000E+00
 -1      2420 2.95350E+01 6.60425E+00 0.00000E+00
 -1      2421 3.47850E+01 5.30525E+00 0.00000E+00
 -1      2422 3.32850E+01 5.30525E+00 0.00000E+00
 -1      2423 3.25350E+01 6.60425E+00 0.00000E+00
 -1      2424 3.77850E+01 5.30525E+00 0.00000E+00
 -1      2425 3.62850E+01 5.30525E+00 0.00000E+00
 -1      2426 3.55350E+01 6.60425E+00 0.00000E+00
 -1      2427 4.07850E+01 5.30525E+00 0.00000E+00
 -1      2428 3.92850E+01 5.30525E+00 0.00000E+00
 -1      2429 3.85350E+01 6.60425E+00 0.00000E+00
 -1      2430 4.37850E+01 5.30525E+00 0.00000E+00
 -1      2431 4.22850E+01 5.30525E+00 0.00000E+00
 -1      2432 4.15350E+01 6.60425E+00 0.00000E+00
 -1      2433 4.67850E+01 5.30525E+00 0.00000E+00
 -1      2434 4.52850E+01 5.30525E+00 0.00000E+00
 -1      2435 4.45350E+01 6.60425E+00 0.00000E+00
 -1      2436 4.97850E+01 5.30525E+00 0.00000E+00
 -1      2437 4.82850E+01 5.30525E+00 0.00000E+00
 -1      2438 4.75350E+01 6.60425E+00 0.00000E+00
 -1      2439 5.27850E+01 5.30525E+00 0.00000E+00
 -1      2440 5.12850E+01 5.30525E+00 0.00000E+00
 -1      2441 5.05350E+01 6.60425E+00 0.00000E+00
 -1      2442 5.57850E+01 5.30525E+00 0.00000E+00
 -1      2443 5.42850E+01 5.30525E+00 0.00000E+00
 -1      2444 5.35350E+01 6.60425E+00 0.00000E+00
 -1      2445 5.87850E+01 5.30525E+00 0.00000E+00
 -1      2446 5.72850E+01 5.30525E+00 0.00000E+00
 -1      2447 5.65350E+01 6.60425E+00 0.00000E+00
 -1      2448 6.17850E+01 5.30525E+00 0.00000E+00
 -1      2449 6.02850E+01 5.30525E+00 0.00000E+00
 -1      2450 5.95350E+01 6.60425E+00 0.00000E+00
 -1      2451 6.47850E+01 5.30525E+00 0.00000E+00
 -1      2452 6.32850E+01 5.30525E+00 0.00000E+00
 -1      2453 6.25350E+01 6.60425E+00 0.00000E+00
 -1      2454 6.77850E+01 5.30525E+00 0.00000E+00
 -1      2455 6.62850E+01 5.30525E+00 0.00000E+00
 -1      2456 6.55350E+01 6.60425E+00 0.00000E+00
 -1      2457 7.07850E+01 5.30525E+00 0.00000E+00
 -1      2458 6.92850E+01 5.30525E+00 0.00000E+00
 -1      2459 6.85350E+01 6.60425E+00 0.00000E+00
 -1      2460 7.37850E+01 5.30525E+00 0.00000E+00
 -1      2461 7.22850E+01 5.30525E+00 0.00000E+00
 -1      2462 7.15350E+01 6.60425E+00 0.00000E+00
 -1      2463 7.67850E+01 5.30525E+00 0.00000E+00
 -1      2464 7.52850E+01 5.30525E+00 0.00000E+00
 -1      2465 7.45350E+01 6.60425E+00 0.00000E+00
 -1      2466 7.97850E+01 5.30525E+00 0.00000E+00
 -1      2467 7.82850E+01 5.30525E+00 0.00000E+00
 -1      2468 7.75350E+01 6.60425E+00 0.00000E+00
 -1      2469 8.27850E+01 5.30525E+00 0.00000E+00
 -1      2470 8.12850E+01 5.30525E+00 0.00000E+00
 -1      2471 8.05350E+01 6.60425E+00 0.00000E+00
 -1      2472 8.57850E+01 5.30525E+00 0.00000E+00
 -1      2473 8.42850E+01 5.30525E+00 0.00000E+00
 -1      2474 8.35350E+01 6.60425E+00 0.00000E+00
 -1      2475 8.87850E+01 5.30525E+00 0.00000E+00
 -1      2476 8.72850E+01 5.30525E+00 0.00000E+00
 -1      2477 8.65350E+01 6.60425E+00 0.00000E+00
 -1      2478 9.17850E+01 5.30525E+00 0.00000E+00
 -1      2479 9.02850E+01 5.30525E+00 0.00000E+00
 -1      2480 8.95350E+01 6.60425E+00 0.00000E+00
 -1      2481 9.47850E+01 5.30525E+00 0.00000E+00
 -1      2482 9.32850E+01 5.30525E+00 0.00000E+00
 -1      2483 9.25350E+01 6.60425E+00 0.00000E+00
 -1      2484 9.77850E+01 5.30525E+00 0.00000E+00
 -1      2485 9.62850E+01 5.30525E+00 0.00000E+00
 -1      2486 9.55350E+01 6.60425E+00 0.00000E+00
 -1      2487 1.00785E+02 5.30525E+00 0.00000E+00
 -1      2488 9.92850E+01 5.30525E+00 0.00000E+00
 -1      2489 9.85350E+01 6.60425E+00 0.00000E+00
 -1      2490 1.03785E+02 5.30525E+00 0.00000E+00
 -1      2491 1.02285E+02 5.30525E+00 0.00000E+00
 -1      2492 1.01535E+02 6.60425E+00 0.00000E+00
 -1      2493 1.06785E+02 5.30525E+00 0.00000E+00
 -1      2494 1.05285E+02 5.30525E+00 0.00000E+00
 -1      2495 1.04535E+02 6.60425E+00 0.00000E+00
 -1      2496 1.09785E+02 5.30525E+00 0.00000E+00
 -1      2497 1.08285E+02 5.30525E+00 0.00000E+00
 -1      2498 1.07535E+02 6.60425E+00 0.00000E+00
 -1      2499 1.12785E+02 5.30525E+00 0.00000E+00
 -1      2500 1.11285E+02 5.30525E+00 0.00000E+00
 -1      2501 1.10535E+02 6.60425E+00 0.00000E+00
 -1      2502 1.15785E+02 5.30525E+00 0.00000E+00
 -1      2503 1.14285E+02 5.30525E+00 0.00000E+00
 -1      2504 1.13535E+02 6.60425E+00 0.00000E+00
 -1      2505 1.18785E+02 5.30525E+00 0.00000E+00
 -1      2506 1.17285E+02 5.30525E+00 0.00000E+00
 -1      2507 1.16535E+02 6.60425E+00 0.00000E+00
 -1      2508 1.21785E+02 5.30525E+00 0.00000E+00
 -1      2509 1.20285E+02 5.30525E+00 0.00000E+00
 -1      2510 1.19535E+02 6.60425E+00 0.00000E+00
 -1      2511 1.24785E+02 5.30525E+00 0.00000E+00
 -1      2512 1.23285E+02 5.30525E+00 0.00000E+00
 -1      2513 1.22535E+02 6.60425E+00 0.00000E+00
 -1      2514 1.27785E+02 5.30525E+00 0.00000E+00
 -1      2515 1.26285E+02 5.30525E+00 0.00000E+00
 -1      2516 1.25535E+02 6.60425E+00 0.00000E+00
 -1      2517 1.30785E+02 5.30525E+00 0.00000E+00
 -1      2518 1.29285E+02 5.30525E+00 0.00000E+00
 -1      2519 1.28535E+02 6.60425E+00 0.00000E+00
 -1      2520 1.33785E+02 5.30525E+00 0.00000E+00
 -1      2521 1.32285E+02 5.30525E+00 0.00000E+00
 -1      2522 1.31535E+02 6.60425E+00 0.00000E+00
 -1      2523 1.36785E+02 5.30525E+00 0.00000E+00
 -1      2524 1.35285E+02 5.30525E+00 0.00000E+00
 -1      2525 1.34535E+02 6.60425E+00 0.00000E+00
 -1      2526 1.39785E+02 5.30525E+00 0.00000E+00
 -1      2527 1.38285E+02 5.30525E+00 0.00000E+00
 -1      2528 1.37535E+02 6.60425E+00 0.00000E+00
 -1      2529 1.42785E+02 5.30525E+00 0.00000E+00
 -1      2530 1.41285E+02 5.30525E+00 0.00000E+00
 -1      2531 1.40535E+02 6.60425E+00 0.00000E+00
 -1      2532 1.44336E+02 5.26953E+00 0.00000E+00
 -1      2533 1.43505E+02 1.69125E+01 0.00000E+00
 -1      2534 1.43505E+02 1.54375E+01 0.00000E+00
 -1      2535 1.43505E+02 1.98625E+01 0.00000E+00
 -1      2536 1.43505E+02 1.83875E+01 0.00000E+00
 -1      2537 1.42206E+02 1.76500E+01 0.00000E+00
 -1      2538 1.43505E+02 1.10625E+01 0.00000E+00
 -1      2539 1.43505E+02 9.58750E+00 0.00000E+00
 -1      2540 1.43505E+02 1.39750E+01 0.00000E+00
 -1      2541 1.43505E+02 1.25250E+01 0.00000E+00
 -1      2542 1.42206E+02 1.17875E+01 0.00000E+00
 -1      2543 1.42206E+02 1.47125E+01 0.00000E+00
 -1      2544 1.43505E+02 2.28125E+01 0.00000E+00
 -1      2545 1.43505E+02 2.13375E+01 0.00000E+00
 -1      2546 1.42206E+02 2.06000E+01 0.00000E+00
 -1      2547 1.43505E+02 2.57625E+01 0.00000E+00
 -1      2548 1.43505E+02 2.42875E+01 0.00000E+00
 -1      2549 1.42206E+02 2.35500E+01 0.00000E+00
 -1      2550 1.43505E+02 2.87125E+01 0.00000E+00
 -1      2551 1.43505E+02 2.72375E+01 0.00000E+00
 -1      2552 1.42206E+02 2.65000E+01 0.00000E+00
 -1      2553 1.43505E+02 3.16125E+01 0.00000E+00
 -1      2554 1.43505E+02 3.01625E+01 0.00000E+00
 -1      2555 1.42206E+02 2.94250E+01 0.00000E+00
 -1      2556 1.43505E+02 3.45625E+01 0.00000E+00
 -1      2557 1.43505E+02 3.30875E+01 0.00000E+00
 -1      2558 1.42206E+02 3.23500E+01 0.00000E+00
 -1      2559 1.43505E+02 3.75125E+01 0.00000E+00
 -1      2560 1.43505E+02 3.60375E+01 0.00000E+00
 -1      2561 1.42206E+02 3.53000E+01 0.00000E+00
 -1      2562 1.43505E+02 4.04625E+01 0.00000E+00
 -1      2563 1.43505E+02 3.89875E+01 0.00000E+00
 -1      2564 1.42206E+02 3.82500E+01 0.00000E+00
 -1      2565 1.44321E+02 4.30606E+01 0.00000E+00
 -1      2566 6.06320E+01 2.89434E+01 0.00000E+00
 -1      2567 6.05494E+01 2.99992E+01 0.00000E+00
 -1      2568 1.67850E+01 5.30525E+00 0.00000E+00
 -1      2569 1.52850E+01 5.30525E+00 0.00000E+00
 -1      2570 1.75350E+01 6.60425E+00 0.00000E+00
 -1      2571 5.93509E+01 2.28486E+01 0.00000E+00
 -1      2572 5.98490E+01 2.37157E+01 0.00000E+00
 -1      2573 5.78443E+01 2.12255E+01 0.00000E+00
 -1      2574 5.85165E+01 2.19781E+01 0.00000E+00
 -1      2575 5.62951E+01 2.00747E+01 0.00000E+00
 -1      2576 5.69733E+01 2.05493E+01 0.00000E+00
 -1      2577 4.43505E+01 1.94980E+01 0.00000E+00
 -1      2578 4.53637E+01 1.89902E+01 0.00000E+00
 -1      2579 4.85736E+01 3.88822E+01 0.00000E+00
 -1      2580 4.74216E+01 3.86842E+01 0.00000E+00
 -1      2581 4.02625E+01 3.12985E+01 0.00000E+00
 -1      2582 3.99713E+01 3.02414E+01 0.00000E+00
 -1      2583 5.98717E+01 3.28470E+01 0.00000E+00
 -1      2584 5.95198E+01 3.38349E+01 0.00000E+00
 -1      2585 4.27113E+01 2.12403E+01 0.00000E+00
 -1      2586 4.33216E+01 2.04711E+01 0.00000E+00
 -1      2587 6.49500E+00 2.71625E+01 0.00000E+00
 -1      2588 6.49500E+00 2.86375E+01 0.00000E+00
 -1      2589 7.79400E+00 2.93750E+01 0.00000E+00
 -1      2590 7.79400E+00 2.64250E+01 0.00000E+00
 -1      2591 5.26307E+01 1.80593E+01 0.00000E+00
 -1      2592 5.34512E+01 1.82300E+01 0.00000E+00
 -1      2593 4.01520E+01 2.71280E+01 0.00000E+00
 -1      2594 4.01009E+01 2.61500E+01 0.00000E+00
 -1      2595 4.83259E+01 1.78018E+01 0.00000E+00
 -1      2596 4.91196E+01 1.75988E+01 0.00000E+00
 -1      2597 4.04105E+01 2.47938E+01 0.00000E+00
 -1      2598 4.10071E+01 2.38892E+01 0.00000E+00
 -1      2599 4.06114E+01 2.30601E+01 0.00000E+00
 -1      2600 6.04057E+01 2.66988E+01 0.00000E+00
 -1      2601 6.05066E+01 2.77487E+01 0.00000E+00
 -1      2602 6.10939E+01 2.60990E+01 0.00000E+00
 -1      2603 5.03724E+01 1.76543E+01 0.00000E+00
 -1      2604 5.15016E+01 1.78568E+01 0.00000E+00
 -1      2605 5.21035E+01 1.70205E+01 0.00000E+00
 -1      2606 5.44525E+01 1.88404E+01 0.00000E+00
 -1      2607 5.53738E+01 1.94575E+01 0.00000E+00
 -1      2608 5.61566E+01 1.90609E+01 0.00000E+00
 -1      2609 4.63721E+01 1.85663E+01 0.00000E+00
 -1      2610 4.73175E+01 1.82256E+01 0.00000E+00
 -1      2611 4.74605E+01 1.71310E+01 0.00000E+00
 -1      2612 4.54437E+01 1.79787E+01 0.00000E+00
 -1      2613 3.98152E+01 2.90566E+01 0.00000E+00
 -1      2614 3.99836E+01 2.80923E+01 0.00000E+00
 -1      2615 3.92271E+01 2.76416E+01 0.00000E+00
 -1      2616 4.09161E+01 3.29941E+01 0.00000E+00
 -1      2617 4.05893E+01 3.21463E+01 0.00000E+00
 -1      2618 3.96977E+01 3.18232E+01 0.00000E+00
 -1      2619 5.88288E+01 3.51911E+01 0.00000E+00
 -1      2620 5.79766E+01 3.60297E+01 0.00000E+00
 -1      2621 4.21897E+01 3.52384E+01 0.00000E+00
 -1      2622 4.14797E+01 3.43033E+01 0.00000E+00
 -1      2623 4.61011E+01 3.81895E+01 0.00000E+00
 -1      2624 4.50899E+01 3.76495E+01 0.00000E+00
 -1      2625 5.06869E+01 3.88569E+01 0.00000E+00
 -1      2626 4.98165E+01 3.89451E+01 0.00000E+00
 -1      2627 5.28797E+01 3.84637E+01 0.00000E+00
 -1      2628 5.17444E+01 3.86632E+01 0.00000E+00
 -1      2629 5.48189E+01 3.77175E+01 0.00000E+00
 -1      2630 5.40257E+01 3.80817E+01 0.00000E+00
 -1      2631 5.67531E+01 3.67040E+01 0.00000E+00
 -1      2632 5.57837E+01 3.72610E+01 0.00000E+00
 -1      2633 6.03139E+01 3.10218E+01 0.00000E+00
 -1      2634 6.01072E+01 3.18243E+01 0.00000E+00
 -1      2635 6.07391E+01 3.26061E+01 0.00000E+00
 -1      2636 6.12101E+01 3.05608E+01 0.00000E+00
 -1      2637 4.38713E+01 3.70745E+01 0.00000E+00
 -1      2638 4.30009E+01 3.63382E+01 0.00000E+00
 -1      2639 8.07525E+00 5.11044E+00 0.00000E+00
 -1      2640 6.57525E+00 5.11044E+00 0.00000E+00
 -1      2641 6.40575E+00 6.01981E+00 0.00000E+00
 -1      2642 8.82525E+00 6.40944E+00 0.00000E+00
 -1      2643 5.42340E+01 1.78334E+01 0.00000E+00
 -1      2644 7.79400E+00 3.52687E+01 0.00000E+00
 -1      2645 6.49500E+00 3.60062E+01 0.00000E+00
 -1      2646 6.49500E+00 3.74750E+01 0.00000E+00
 -1      2647 6.40575E+00 7.49481E+00 0.00000E+00
 -1      2648 4.17927E+01 2.12521E+01 0.00000E+00
 -1      2649 6.55950E+00 3.99453E+01 0.00000E+00
 -1      2650 5.78982E+01 3.70154E+01 0.00000E+00
 -1      2651 4.19629E+01 3.63892E+01 0.00000E+00
 -1      2652 6.07410E+01 2.39104E+01 0.00000E+00
 -1      2653 1.43586E+02 6.56853E+00 0.00000E+00
 -1      2654 5.79489E+01 2.03543E+01 0.00000E+00
 -1      2655 1.43419E+02 7.72713E+00 0.00000E+00
 -1      2656 5.57099E+01 3.81463E+01 0.00000E+00
 -1      2657 1.42758E+02 4.35929E+01 0.00000E+00
 -1      2658 1.43241E+02 4.17323E+01 0.00000E+00
 -1      2659 1.41942E+02 4.09948E+01 0.00000E+00
 -1      2660 1.41414E+02 4.35342E+01 0.00000E+00
 -1      2661 5.35992E+01 3.89848E+01 0.00000E+00
 -1      2662 5.13957E+01 3.95605E+01 0.00000E+00
 -1      2663 6.13202E+01 2.83435E+01 0.00000E+00
 -1      2664 1.45350E+01 6.60425E+00 0.00000E+00
 -1      2665 5.96544E+01 2.19011E+01 0.00000E+00
 -1      2666 4.65318E+01 3.91337E+01 0.00000E+00
 -1      2667 3.97052E+01 2.53210E+01 0.00000E+00
 -1      2668 3.93096E+01 2.44920E+01 0.00000E+00
 -1      2669 3.89999E+01 2.58482E+01 0.00000E+00
 -1      2670 3.92148E+01 2.97907E+01 0.00000E+00
 -1      2671 1.42120E+02 8.46463E+00 0.00000E+00
 -1      2672 4.39926E+01 3.80640E+01 0.00000E+00
 -1      2673 4.90952E+01 3.96913E+01 0.00000E+00
 -1      2674 4.34064E+01 1.93756E+01 0.00000E+00
 -1      2675 5.98126E+01 3.49849E+01 0.00000E+00
 -1      2676 7.70475E+00 8.23231E+00 0.00000E+00
 -1      2677 1.40664E+02 4.22352E+01 0.00000E+00
 -1      2678 4.97216E+01 1.67626E+01 0.00000E+00
 -1      2679 4.05881E+01 3.39802E+01 0.00000E+00
 -1      2680 3.96965E+01 3.36572E+01 0.00000E+00
 -1      2681 4.02601E+01 3.49664E+01 0.00000E+00
 -1      2682 9.09300E+00 1.98250E+01 0.00000E+00
 -1      2683 9.09300E+00 2.12750E+01 0.00000E+00
 -1      2684 9.09300E+00 2.27500E+01 0.00000E+00
 -1      2685 9.09300E+00 2.42250E+01 0.00000E+00
 -1      2686 1.03920E+01 2.20250E+01 0.00000E+00
 -1      2687 9.09300E+00 1.39375E+01 0.00000E+00
 -1      2688 9.09300E+00 1.54125E+01 0.00000E+00
 -1      2689 9.09300E+00 1.09875E+01 0.00000E+00
 -1      2690 9.09300E+00 1.24625E+01 0.00000E+00
 -1      2691 1.03920E+01 1.32000E+01 0.00000E+00
 -1      2692 5.17199E+01 1.59102E+01 0.00000E+00
 -1      2693 5.28491E+01 1.61128E+01 0.00000E+00
 -1      2694 1.39914E+02 4.09362E+01 0.00000E+00
 -1      2695 1.40928E+02 4.09655E+01 0.00000E+00
 -1      2696 1.41192E+02 3.96958E+01 0.00000E+00
 -1      2697 1.14000E+01 4.09070E+01 0.00000E+00
 -1      2698 1.29000E+01 4.09070E+01 0.00000E+00
 -1      2699 1.22850E+01 7.90325E+00 0.00000E+00
 -1      2700 1.07850E+01 7.90325E+00 0.00000E+00
 -1      2701 2.42850E+01 7.90325E+00 0.00000E+00
 -1      2702 2.27850E+01 7.90325E+00 0.00000E+00
 -1      2703 1.44000E+01 4.09070E+01 0.00000E+00
 -1      2704 1.59000E+01 4.09070E+01 0.00000E+00
 -1      2705 1.36500E+01 3.96080E+01 0.00000E+00
 -1      2706 1.74000E+01 4.09070E+01 0.00000E+00
 -1      2707 1.89000E+01 4.09070E+01 0.00000E+00
 -1      2708 1.66500E+01 3.96080E+01 0.00000E+00
 -1      2709 2.04000E+01 4.09070E+01 0.00000E+00
 -1      2710 2.19000E+01 4.09070E+01 0.00000E+00
 -1      2711 1.96500E+01 3.96080E+01 0.00000E+00
 -1      2712 2.34000E+01 4.09070E+01 0.00000E+00
 -1      2713 2.49000E+01 4.09070E+01 0.00000E+00
 -1      2714 2.26500E+01 3.96080E+01 0.00000E+00
 -1      2715 2.64000E+01 4.09070E+01 0.00000E+00
 -1      2716 2.79000E+01 4.09070E+01 0.00000E+00
 -1      2717 2.56500E+01 3.96080E+01 0.00000E+00
 -1      2718 2.94000E+01 4.09070E+01 0.00000E+00
 -1      2719 3.09000E+01 4.09070E+01 0.00000E+00
 -1      2720 2.86500E+01 3.96080E+01 0.00000E+00
 -1      2721 3.24000E+01 4.09070E+01 0.00000E+00
 -1      2722 3.39000E+01 4.09070E+01 0.00000E+00
 -1      2723 3.16500E+01 3.96080E+01 0.00000E+00
 -1      2724 3.54000E+01 4.09070E+01 0.00000E+00
 -1      2725 3.69000E+01 4.09070E+01 0.00000E+00
 -1      2726 3.46500E+01 3.96080E+01 0.00000E+00
 -1      2727 3.84000E+01 4.09070E+01 0.00000E+00
 -1      2728 3.99000E+01 4.09070E+01 0.00000E+00
 -1      2729 3.76500E+01 3.96080E+01 0.00000E+00
 -1      2730 4.17120E+01 3.98475E+01 0.00000E+00
 -1      2731 4.32120E+01 3.98475E+01 0.00000E+00
 -1      2732 4.72512E+01 4.09172E+01 0.00000E+00
 -1      2733 4.87512E+01 4.09172E+01 0.00000E+00
 -1      2734 4.99941E+01 4.09801E+01 0.00000E+00
 -1      2735 5.14941E+01 4.09801E+01 0.00000E+00
 -1      2736 5.64000E+01 4.10971E+01 0.00000E+00
 -1      2737 5.79000E+01 4.10971E+01 0.00000E+00
 -1      2738 5.94000E+01 4.10971E+01 0.00000E+00
 -1      2739 6.09000E+01 4.10971E+01 0.00000E+00
 -1      2740 5.86500E+01 3.99882E+01 0.00000E+00
 -1      2741 6.24000E+01 4.10971E+01 0.00000E+00
 -1      2742 6.39000E+01 4.10971E+01 0.00000E+00
 -1      2743 6.16500E+01 3.99882E+01 0.00000E+00
 -1      2744 6.54000E+01 4.10971E+01 0.00000E+00
 -1      2745 6.69000E+01 4.10971E+01 0.00000E+00
 -1      2746 6.46500E+01 3.99882E+01 0.00000E+00
 -1      2747 6.84000E+01 4.10971E+01 0.00000E+00
 -1      2748 6.99000E+01 4.10971E+01 0.00000E+00
 -1      2749 6.76500E+01 3.99882E+01 0.00000E+00
 -1      2750 7.14000E+01 4.10971E+01 0.00000E+00
 -1      2751 7.29000E+01 4.10971E+01 0.00000E+00
 -1      2752 7.06500E+01 3.99882E+01 0.00000E+00
 -1      2753 7.44000E+01 4.10971E+01 0.00000E+00
 -1      2754 7.59000E+01 4.10971E+01 0.00000E+00
 -1      2755 7.36500E+01 3.99882E+01 0.00000E+00
 -1      2756 7.74000E+01 4.10971E+01 0.00000E+00
 -1      2757 7.89000E+01 4.10971E+01 0.00000E+00
 -1      2758 7.66500E+01 3.99882E+01 0.00000E+00
 -1      2759 8.04000E+01 4.10971E+01 0.00000E+00
 -1      2760 8.19000E+01 4.10971E+01 0.00000E+00
 -1      2761 7.96500E+01 3.99882E+01 0.00000E+00
 -1      2762 8.34000E+01 4.10971E+01 0.00000E+00
 -1      2763 8.49000E+01 4.10971E+01 0.00000E+00
 -1      2764 8.26500E+01 3.99882E+01 0.00000E+00
 -1      2765 8.64000E+01 4.10971E+01 0.00000E+00
 -1      2766 8.79000E+01 4.10971E+01 0.00000E+00
 -1      2767 8.56500E+01 3.99882E+01 0.00000E+00
 -1      2768 8.94000E+01 4.10971E+01 0.00000E+00
 -1      2769 9.09000E+01 4.10971E+01 0.00000E+00
 -1      2770 8.86500E+01 3.99882E+01 0.00000E+00
 -1      2771 9.24000E+01 4.10971E+01 0.00000E+00
 -1      2772 9.39000E+01 4.10971E+01 0.00000E+00
 -1      2773 9.16500E+01 3.99882E+01 0.00000E+00
 -1      2774 9.54000E+01 4.10971E+01 0.00000E+00
 -1      2775 9.69000E+01 4.10971E+01 0.00000E+00
 -1      2776 9.46500E+01 3.99882E+01 0.00000E+00
 -1      2777 9.84000E+01 4.10971E+01 0.00000E+00
 -1      2778 9.99000E+01 4.10971E+01 0.00000E+00
 -1      2779 9.76500E+01 3.99882E+01 0.00000E+00
 -1      2780 1.01400E+02 4.10971E+01 0.00000E+00
 -1      2781 1.02900E+02 4.10971E+01 0.00000E+00
 -1      2782 1.00650E+02 3.99882E+01 0.00000E+00
 -1      2783 1.04400E+02 4.10971E+01 0.00000E+00
 -1      2784 1.05900E+02 4.10971E+01 0.00000E+00
 -1      2785 1.03650E+02 3.99882E+01 0.00000E+00
 -1      2786 1.07400E+02 4.10971E+01 0.00000E+00
 -1      2787 1.08900E+02 4.10971E+01 0.00000E+00
 -1      2788 1.06650E+02 3.99882E+01 0.00000E+00
 -1      2789 1.10400E+02 4.10971E+01 0.00000E+00
 -1      2790 1.11900E+02 4.10971E+01 0.00000E+00
 -1      2791 1.09650E+02 3.99882E+01 0.00000E+00
 -1      2792 1.13400E+02 4.10971E+01 0.00000E+00
 -1      2793 1.14900E+02 4.10971E+01 0.00000E+00
 -1      2794 1.12650E+02 3.99882E+01 0.00000E+00
 -1      2795 1.16400E+02 4.10971E+01 0.00000E+00
 -1      2796 1.17900E+02 4.10971E+01 0.00000E+00
 -1      2797 1.15650E+02 3.99882E+01 0.00000E+00
 -1      2798 1.19400E+02 4.10971E+01 0.00000E+00
 -1      2799 1.20900E+02 4.10971E+01 0.00000E+00
 -1      2800 1.18650E+02 3.99882E+01 0.00000E+00
 -1      2801 1.22400E+02 4.10971E+01 0.00000E+00
 -1      2802 1.23900E+02 4.10971E+01 0.00000E+00
 -1      2803 1.21650E+02 3.99882E+01 0.00000E+00
 -1      2804 1.25400E+02 4.10971E+01 0.00000E+00
 -1      2805 1.26900E+02 4.10971E+01 0.00000E+00
 -1      2806 1.24650E+02 3.99882E+01 0.00000E+00
 -1      2807 1.28400E+02 4.10971E+01 0.00000E+00
 -1      2808 1.29900E+02 4.10971E+01 0.00000E+00
 -1      2809 1.27650E+02 3.99882E+01 0.00000E+00
 -1      2810 1.31400E+02 4.10971E+01 0.00000E+00
 -1      2811 1.32900E+02 4.10971E+01 0.00000E+00
 -1      2812 1.30650E+02 3.99882E+01 0.00000E+00
 -1      2813 1.34400E+02 4.10971E+01 0.00000E+00
 -1      2814 1.35900E+02 4.10971E+01 0.00000E+00
 -1      2815 1.33650E+02 3.99882E+01 0.00000E+00
 -1      2816 1.37157E+02 4.10167E+01 0.00000E+00
 -1      2817 1.38657E+02 4.10167E+01 0.00000E+00
 -1      2818 1.38921E+02 3.97469E+01 0.00000E+00
 -1      2819 1.36407E+02 3.99078E+01 0.00000E+00
 -1      2820 5.44434E+01 3.96074E+01 0.00000E+00
 -1      2821 5.32974E+01 3.99894E+01 0.00000E+00
 -1      2822 5.69124E+01 3.88390E+01 0.00000E+00
 -1      2823 5.59476E+01 3.92955E+01 0.00000E+00
 -1      2824 2.12850E+01 7.90325E+00 0.00000E+00
 -1      2825 1.97850E+01 7.90325E+00 0.00000E+00
 -1      2826 2.20350E+01 9.20225E+00 0.00000E+00
 -1      2827 3.02850E+01 7.90325E+00 0.00000E+00
 -1      2828 2.87850E+01 7.90325E+00 0.00000E+00
 -1      2829 3.32850E+01 7.90325E+00 0.00000E+00
 -1      2830 3.17850E+01 7.90325E+00 0.00000E+00
 -1      2831 3.10350E+01 9.20225E+00 0.00000E+00
 -1      2832 3.62850E+01 7.90325E+00 0.00000E+00
 -1      2833 3.47850E+01 7.90325E+00 0.00000E+00
 -1      2834 3.40350E+01 9.20225E+00 0.00000E+00
 -1      2835 3.92850E+01 7.90325E+00 0.00000E+00
 -1      2836 3.77850E+01 7.90325E+00 0.00000E+00
 -1      2837 3.70350E+01 9.20225E+00 0.00000E+00
 -1      2838 4.22850E+01 7.90325E+00 0.00000E+00
 -1      2839 4.07850E+01 7.90325E+00 0.00000E+00
 -1      2840 4.00350E+01 9.20225E+00 0.00000E+00
 -1      2841 4.52850E+01 7.90325E+00 0.00000E+00
 -1      2842 4.37850E+01 7.90325E+00 0.00000E+00
 -1      2843 4.30350E+01 9.20225E+00 0.00000E+00
 -1      2844 4.82850E+01 7.90325E+00 0.00000E+00
 -1      2845 4.67850E+01 7.90325E+00 0.00000E+00
 -1      2846 4.60350E+01 9.20225E+00 0.00000E+00
 -1      2847 5.12850E+01 7.90325E+00 0.00000E+00
 -1      2848 4.97850E+01 7.90325E+00 0.00000E+00
 -1      2849 4.90350E+01 9.20225E+00 0.00000E+00
 -1      2850 5.42850E+01 7.90325E+00 0.00000E+00
 -1      2851 5.27850E+01 7.90325E+00 0.00000E+00
 -1      2852 5.20350E+01 9.20225E+00 0.00000E+00
 -1      2853 5.72850E+01 7.90325E+00 0.00000E+00
 -1      2854 5.57850E+01 7.90325E+00 0.00000E+00
 -1      2855 5.50350E+01 9.20225E+00 0.00000E+00
 -1      2856 6.02850E+01 7.90325E+00 0.00000E+00
 -1      2857 5.87850E+01 7.90325E+00 0.00000E+00
 -1      2858 5.80350E+01 9.20225E+00 0.00000E+00
 -1      2859 6.32850E+01 7.90325E+00 0.00000E+00
 -1      2860 6.17850E+01 7.90325E+00 0.00000E+00
 -1      2861 6.10350E+01 9.20225E+00 0.00000E+00
 -1      2862 6.62850E+01 7.90325E+00 0.00000E+00
 -1      2863 6.47850E+01 7.90325E+00 0.00000E+00
 -1      2864 6.40350E+01 9.20225E+00 0.00000E+00
 -1      2865 6.92850E+01 7.90325E+00 0.00000E+00
 -1      2866 6.77850E+01 7.90325E+00 0.00000E+00
 -1      2867 6.70350E+01 9.20225E+00 0.00000E+00
 -1      2868 7.22850E+01 7.90325E+00 0.00000E+00
 -1      2869 7.07850E+01 7.90325E+00 0.00000E+00
 -1      2870 7.00350E+01 9.20225E+00 0.00000E+00
 -1      2871 7.52850E+01 7.90325E+00 0.00000E+00
 -1      2872 7.37850E+01 7.90325E+00 0.00000E+00
 -1      2873 7.30350E+01 9.20225E+00 0.00000E+00
 -1      2874 7.82850E+01 7.90325E+00 0.00000E+00
 -1      2875 7.67850E+01 7.90325E+00 0.00000E+00
 -1      2876 7.60350E+01 9.20225E+00 0.00000E+00
 -1      2877 8.12850E+01 7.90325E+00 0.00000E+00
 -1      2878 7.97850E+01 7.90325E+00 0.00000E+00
 -1      2879 7.90350E+01 9.20225E+00 0.00000E+00
 -1      2880 8.42850E+01 7.90325E+00 0.00000E+00
 -1      2881 8.27850E+01 7.90325E+00 0.00000E+00
 -1      2882 8.20350E+01 9.20225E+00 0.00000E+00
 -1      2883 8.72850E+01 7.90325E+00 0.00000E+00
 -1      2884 8.57850E+01 7.90325E+00 0.00000E+00
 -1      2885 8.50350E+01 9.20225E+00 0.00000E+00
 -1      2886 9.02850E+01 7.90325E+00 0.00000E+00
 -1      2887 8.87850E+01 7.90325E+00 0.00000E+00
 -1      2888 8.80350E+01 9.20225E+00 0.00000E+00
 -1      2889 9.32850E+01 7.90325E+00 0.00000E+00
 -1      2890 9.17850E+01 7.90325E+00 0.00000E+00
 -1      2891 9.10350E+01 9.20225E+00 0.00000E+00
 -1      2892 9.62850E+01 7.90325E+00 0.00000E+00
 -1      2893 9.47850E+01 7.90325E+00 0.00000E+00
 -1      2894 9.40350E+01 9.20225E+00 0.00000E+00
 -1      2895 9.92850E+01 7.90325E+00 0.00000E+00
 -1      2896 9.77850E+01 7.90325E+00 0.00000E+00
 -1      2897 9.70350E+01 9.20225E+00 0.00000E+00
 -1      2898 1.02285E+02 7.90325E+00 0.00000E+00
 -1      2899 1.00785E+02 7.90325E+00 0.00000E+00
 -1      2900 1.00035E+02 9.20225E+00 0.00000E+00
 -1      2901 1.05285E+02 7.90325E+00 0.00000E+00
 -1      2902 1.03785E+02 7.90325E+00 0.00000E+00
 -1      2903 1.03035E+02 9.20225E+00 0.00000E+00
 -1      2904 1.08285E+02 7.90325E+00 0.00000E+00
 -1      2905 1.06785E+02 7.90325E+00 0.00000E+00
 -1      2906 1.06035E+02 9.20225E+00 0.00000E+00
 -1      2907 1.11285E+02 7.90325E+00 0.00000E+00
 -1      2908 1.09785E+02 7.90325E+00 0.00000E+00
 -1      2909 1.09035E+02 9.20225E+00 0.00000E+00
 -1      2910 1.14285E+02 7.90325E+00 0.00000E+00
 -1      2911 1.12785E+02 7.90325E+00 0.00000E+00
 -1      2912 1.12035E+02 9.20225E+00 0.00000E+00
 -1      2913 1.17285E+02 7.90325E+00 0.00000E+00
 -1      2914 1.15785E+02 7.90325E+00 0.00000E+00
 -1      2915 1.15035E+02 9.20225E+00 0.00000E+00
 -1      2916 1.20285E+02 7.90325E+00 0.00000E+00
 -1      2917 1.18785E+02 7.90325E+00 0.00000E+00
 -1      2918 1.18035E+02 9.20225E+00 0.00000E+00
 -1      2919 1.23285E+02 7.90325E+00 0.00000E+00
 -1      2920 1.21785E+02 7.90325E+00 0.00000E+00
 -1      2921 1.21035E+02 9.20225E+00 0.00000E+00
 -1      2922 1.26285E+02 7.90325E+00 0.00000E+00
 -1      2923 1.24785E+02 7.90325E+00 0.00000E+00
 -1      2924 1.24035E+02 9.20225E+00 0.00000E+00
 -1      2925 1.29285E+02 7.90325E+00 0.00000E+00
 -1      2926 1.27785E+02 7.90325E+00 0.00000E+00
 -1      2927 1.27035E+02 9.20225E+00 0.00000E+00
 -1      2928 1.32285E+02 7.90325E+00 0.00000E+00
 -1      2929 1.30785E+02 7.90325E+00 0.00000E+00
 -1      2930 1.30035E+02 9.20225E+00 0.00000E+00
 -1      2931 1.35285E+02 7.90325E+00 0.00000E+00
 -1      2932 1.33785E+02 7.90325E+00 0.00000E+00
 -1      2933 1.33035E+02 9.20225E+00 0.00000E+00
 -1      2934 1.38285E+02 7.90325E+00 0.00000E+00
 -1      2935 1.36785E+02 7.90325E+00 0.00000E+00
 -1      2936 1.36035E+02 9.20225E+00 0.00000E+00
 -1      2937 1.40953E+02 8.18394E+00 0.00000E+00
 -1      2938 1.39453E+02 8.18394E+00 0.00000E+00
 -1      2939 1.38703E+02 9.48294E+00 0.00000E+00
 -1      2940 1.41038E+02 1.00443E+01 0.00000E+00
 -1      2941 5.80393E+01 1.93388E+01 0.00000E+00
 -1      2942 5.89104E+01 2.00150E+01 0.00000E+00
 -1      2943 1.40907E+02 2.42875E+01 0.00000E+00
 -1      2944 1.40907E+02 2.28125E+01 0.00000E+00
 -1      2945 1.40907E+02 1.83875E+01 0.00000E+00
 -1      2946 1.40907E+02 1.69125E+01 0.00000E+00
 -1      2947 1.40907E+02 2.72375E+01 0.00000E+00
 -1      2948 1.40907E+02 2.57625E+01 0.00000E+00
 -1      2949 1.39608E+02 2.50250E+01 0.00000E+00
 -1      2950 1.40907E+02 2.13375E+01 0.00000E+00
 -1      2951 1.40907E+02 1.98625E+01 0.00000E+00
 -1      2952 1.39608E+02 1.91250E+01 0.00000E+00
 -1      2953 1.39608E+02 2.20750E+01 0.00000E+00
 -1      2954 4.91368E+01 1.57944E+01 0.00000E+00
 -1      2955 5.03896E+01 1.58498E+01 0.00000E+00
 -1      2956 1.40907E+02 3.01375E+01 0.00000E+00
 -1      2957 1.40907E+02 2.86875E+01 0.00000E+00
 -1      2958 1.39608E+02 2.79500E+01 0.00000E+00
 -1      2959 1.40907E+02 3.30875E+01 0.00000E+00
 -1      2960 1.40907E+02 3.16125E+01 0.00000E+00
 -1      2961 1.39608E+02 3.08750E+01 0.00000E+00
 -1      2962 1.40907E+02 3.60375E+01 0.00000E+00
 -1      2963 1.40907E+02 3.45625E+01 0.00000E+00
 -1      2964 1.39608E+02 3.38250E+01 0.00000E+00
 -1      2965 1.41192E+02 3.82207E+01 0.00000E+00
 -1      2966 1.82850E+01 7.90325E+00 0.00000E+00
 -1      2967 1.67850E+01 7.90325E+00 0.00000E+00
 -1      2968 1.90350E+01 9.20225E+00 0.00000E+00
 -1      2969 4.59306E+01 4.04225E+01 0.00000E+00
 -1      2970 3.83807E+01 2.79906E+01 0.00000E+00
 -1      2971 3.85491E+01 2.70263E+01 0.00000E+00
 -1      2972 7.85850E+00 3.92077E+01 0.00000E+00
 -1      2973 4.16109E+01 3.74979E+01 0.00000E+00
 -1      2974 4.07997E+01 3.63981E+01 0.00000E+00
 -1      2975 2.72850E+01 7.90325E+00 0.00000E+00
 -1      2976 2.57850E+01 7.90325E+00 0.00000E+00
 -1      2977 2.50350E+01 9.20225E+00 0.00000E+00
 -1      2978 2.80350E+01 9.20225E+00 0.00000E+00
 -1      2979 6.11462E+01 3.48102E+01 0.00000E+00
 -1      2980 6.04552E+01 3.61664E+01 0.00000E+00
 -1      2981 5.99168E+01 2.08144E+01 0.00000E+00
 -1      2982 6.07512E+01 2.16849E+01 0.00000E+00
 -1      2983 1.52850E+01 7.90325E+00 0.00000E+00
 -1      2984 1.37850E+01 7.90325E+00 0.00000E+00
 -1      2985 1.30350E+01 9.20225E+00 0.00000E+00
 -1      2986 1.60350E+01 9.20225E+00 0.00000E+00
 -1      2987 3.89046E+01 3.26158E+01 0.00000E+00
 -1      2988 3.85778E+01 3.17681E+01 0.00000E+00
 -1      2989 5.92955E+01 3.71655E+01 0.00000E+00
 -1      2990 5.80721E+01 3.78398E+01 0.00000E+00
 -1      2991 5.83097E+01 3.89891E+01 0.00000E+00
 -1      2992 6.06291E+01 3.69908E+01 0.00000E+00
 -1      2993 9.09300E+00 1.68813E+01 0.00000E+00
 -1      2994 9.09300E+00 1.83563E+01 0.00000E+00
 -1      2995 1.03920E+01 1.90812E+01 0.00000E+00
 -1      2996 1.03920E+01 1.61437E+01 0.00000E+00
 -1      2997 3.83596E+01 3.05060E+01 0.00000E+00
 -1      2998 3.82035E+01 2.93212E+01 0.00000E+00
 -1      2999 3.95972E+01 2.30403E+01 0.00000E+00
 -1      3000 4.01938E+01 2.21357E+01 0.00000E+00
 -1      3001 6.18554E+01 2.54960E+01 0.00000E+00
 -1      3002 6.19563E+01 2.65459E+01 0.00000E+00
 -1      3003 9.09300E+00 3.15875E+01 0.00000E+00
 -1      3004 9.09300E+00 3.30625E+01 0.00000E+00
 -1      3005 6.14522E+01 2.31556E+01 0.00000E+00
 -1      3006 6.17043E+01 2.42944E+01 0.00000E+00
 -1      3007 8.91450E+00 8.42712E+00 0.00000E+00
 -1      3008 5.61967E+01 1.81045E+01 0.00000E+00
 -1      3009 5.71180E+01 1.87216E+01 0.00000E+00
 -1      3010 5.80794E+01 1.83824E+01 0.00000E+00
 -1      3011 4.21300E+01 1.90565E+01 0.00000E+00
 -1      3012 4.31589E+01 1.80834E+01 0.00000E+00
 -1      3013 6.20817E+01 2.77406E+01 0.00000E+00
 -1      3014 6.22071E+01 2.89352E+01 0.00000E+00
 -1      3015 6.28432E+01 2.71376E+01 0.00000E+00
 -1      3016 5.25516E+01 4.07864E+01 0.00000E+00
 -1      3017 5.43105E+01 1.65814E+01 0.00000E+00
 -1      3018 5.53118E+01 1.71917E+01 0.00000E+00
 -1      3019 4.07786E+01 2.12323E+01 0.00000E+00
 -1      3020 4.13633E+01 2.03289E+01 0.00000E+00
 -1      3021 3.97644E+01 2.12125E+01 0.00000E+00
 -1      3022 4.44306E+01 4.04225E+01 0.00000E+00
 -1      3023 9.09300E+00 3.45313E+01 0.00000E+00
 -1      3024 9.09300E+00 3.60000E+01 0.00000E+00
 -1      3025 1.03920E+01 3.37938E+01 0.00000E+00
 -1      3026 1.03920E+01 2.49750E+01 0.00000E+00
 -1      3027 9.09300E+00 2.57000E+01 0.00000E+00
 -1      3028 9.09300E+00 2.71750E+01 0.00000E+00
 -1      3029 5.39269E+01 1.54711E+01 0.00000E+00
 -1      3030 5.11351E+01 1.49421E+01 0.00000E+00
 -1      3031 3.75665E+01 3.12986E+01 0.00000E+00
 -1      3032 6.21636E+01 3.02420E+01 0.00000E+00
 -1      3033 6.19280E+01 3.12646E+01 0.00000E+00
 -1      3034 4.09620E+01 3.85485E+01 0.00000E+00
 -1      3035 3.75255E+01 2.87059E+01 0.00000E+00
 -1      3036 5.62732E+01 1.68524E+01 0.00000E+00
 -1      3037 5.33958E+01 4.14090E+01 0.00000E+00
 -1      3038 5.48958E+01 4.14090E+01 0.00000E+00
 -1      3039 4.28100E+01 1.67668E+01 0.00000E+00
 -1      3040 4.40864E+01 1.70859E+01 0.00000E+00
 -1      3041 1.41038E+02 1.15068E+01 0.00000E+00
 -1      3042 1.39870E+02 1.12261E+01 0.00000E+00
 -1      3043 1.41038E+02 1.29693E+01 0.00000E+00
 -1      3044 1.39407E+02 3.86151E+01 0.00000E+00
 -1      3045 1.40421E+02 3.71693E+01 0.00000E+00
 -1      3046 1.39122E+02 3.64318E+01 0.00000E+00
 -1      3047 1.38150E+02 3.86955E+01 0.00000E+00
 -1      3048 6.17145E+01 2.20690E+01 0.00000E+00
 -1      3049 6.26779E+01 2.24530E+01 0.00000E+00
 -1      3050 6.19769E+01 2.09823E+01 0.00000E+00
 -1      3051 4.80432E+01 1.56948E+01 0.00000E+00
 -1      3052 4.87112E+01 1.47821E+01 0.00000E+00
 -1      3053 3.81535E+01 2.61972E+01 0.00000E+00
 -1      3054 5.56458E+01 4.03000E+01 0.00000E+00
 -1      3055 9.15750E+00 3.77359E+01 0.00000E+00
 -1      3056 9.22200E+00 4.02061E+01 0.00000E+00
 -1      3057 1.05855E+01 4.04701E+01 0.00000E+00
 -1      3058 1.04565E+01 3.69984E+01 0.00000E+00
 -1      3059 3.81866E+01 2.40948E+01 0.00000E+00
 -1      3060 3.88919E+01 2.35676E+01 0.00000E+00
 -1      3061 3.84743E+01 2.26432E+01 0.00000E+00
 -1      3062 6.00071E+01 1.97989E+01 0.00000E+00
 -1      3063 6.18726E+01 3.36496E+01 0.00000E+00
 -1      3064 6.25152E+01 3.48311E+01 0.00000E+00
 -1      3065 3.85766E+01 3.36020E+01 0.00000E+00
 -1      3066 4.70348E+01 1.61187E+01 0.00000E+00
 -1      3067 1.40973E+02 1.56722E+01 0.00000E+00
 -1      3068 1.40973E+02 1.42097E+01 0.00000E+00
 -1      3069 1.39805E+02 1.39290E+01 0.00000E+00
 -1      3070 1.39674E+02 1.64097E+01 0.00000E+00
 -1      3071 9.66450E+00 9.72612E+00 0.00000E+00
 -1      3072 1.09635E+01 1.04636E+01 0.00000E+00
 -1      3073 9.09300E+00 2.86437E+01 0.00000E+00
 -1      3074 9.09300E+00 3.01187E+01 0.00000E+00
 -1      3075 1.03920E+01 3.08563E+01 0.00000E+00
 -1      3076 1.03920E+01 2.79188E+01 0.00000E+00
 -1      3077 6.25667E+01 2.47413E+01 0.00000E+00
 -1      3078 3.99081E+01 3.60750E+01 0.00000E+00
 -1      3079 3.90165E+01 3.57520E+01 0.00000E+00
 -1      3080 3.95561E+01 3.71837E+01 0.00000E+00
 -1      3081 4.50948E+01 1.66621E+01 0.00000E+00
 -1      3082 1.13355E+01 3.91711E+01 0.00000E+00
 -1      3083 4.11158E+01 1.90367E+01 0.00000E+00
 -1      3084 6.29250E+01 2.96390E+01 0.00000E+00
 -1      3085 6.21082E+01 3.26270E+01 0.00000E+00
 -1      3086 1.16910E+01 1.24625E+01 0.00000E+00
 -1      3087 1.16910E+01 1.39375E+01 0.00000E+00
 -1      3088 6.30616E+01 3.23081E+01 0.00000E+00
 -1      3089 3.97827E+01 1.91006E+01 0.00000E+00
 -1      3090 4.05493E+01 1.78282E+01 0.00000E+00
 -1      3091 3.64207E+01 2.92359E+01 0.00000E+00
 -1      3092 3.65979E+01 2.79053E+01 0.00000E+00
 -1      3093 1.59000E+01 3.83090E+01 0.00000E+00
 -1      3094 1.74000E+01 3.83090E+01 0.00000E+00
 -1      3095 1.89000E+01 3.83090E+01 0.00000E+00
 -1      3096 2.04000E+01 3.83090E+01 0.00000E+00
 -1      3097 1.81500E+01 3.70100E+01 0.00000E+00
 -1      3098 2.19000E+01 3.83090E+01 0.00000E+00
 -1      3099 2.34000E+01 3.83090E+01 0.00000E+00
 -1      3100 2.11500E+01 3.70100E+01 0.00000E+00
 -1      3101 2.49000E+01 3.83090E+01 0.00000E+00
 -1      3102 2.64000E+01 3.83090E+01 0.00000E+00
 -1      3103 2.41500E+01 3.70100E+01 0.00000E+00
 -1      3104 2.79000E+01 3.83090E+01 0.00000E+00
 -1      3105 2.94000E+01 3.83090E+01 0.00000E+00
 -1      3106 2.71500E+01 3.70100E+01 0.00000E+00
 -1      3107 3.09000E+01 3.83090E+01 0.00000E+00
 -1      3108 3.24000E+01 3.83090E+01 0.00000E+00
 -1      3109 3.01500E+01 3.70100E+01 0.00000E+00
 -1      3110 3.39000E+01 3.83090E+01 0.00000E+00
 -1      3111 3.54000E+01 3.83090E+01 0.00000E+00
 -1      3112 3.31500E+01 3.70100E+01 0.00000E+00
 -1      3113 1.16460E+01 3.80848E+01 0.00000E+00
 -1      3114 1.24605E+01 3.85216E+01 0.00000E+00
 -1      3115 1.39605E+01 3.85216E+01 0.00000E+00
 -1      3116 1.15815E+01 3.63489E+01 0.00000E+00
 -1      3117 4.14728E+01 1.64534E+01 0.00000E+00
 -1      3118 4.24003E+01 1.54559E+01 0.00000E+00
 -1      3119 4.56775E+01 1.52259E+01 0.00000E+00
 -1      3120 6.39000E+01 3.86892E+01 0.00000E+00
 -1      3121 6.54000E+01 3.86892E+01 0.00000E+00
 -1      3122 6.69000E+01 3.86892E+01 0.00000E+00
 -1      3123 6.84000E+01 3.86892E+01 0.00000E+00
 -1      3124 6.61500E+01 3.73902E+01 0.00000E+00
 -1      3125 6.99000E+01 3.86892E+01 0.00000E+00
 -1      3126 7.14000E+01 3.86892E+01 0.00000E+00
 -1      3127 6.91500E+01 3.73902E+01 0.00000E+00
 -1      3128 7.29000E+01 3.86892E+01 0.00000E+00
 -1      3129 7.44000E+01 3.86892E+01 0.00000E+00
 -1      3130 7.21500E+01 3.73902E+01 0.00000E+00
 -1      3131 7.59000E+01 3.86892E+01 0.00000E+00
 -1      3132 7.74000E+01 3.86892E+01 0.00000E+00
 -1      3133 7.51500E+01 3.73902E+01 0.00000E+00
 -1      3134 7.89000E+01 3.86892E+01 0.00000E+00
 -1      3135 8.04000E+01 3.86892E+01 0.00000E+00
 -1      3136 7.81500E+01 3.73902E+01 0.00000E+00
 -1      3137 8.19000E+01 3.86892E+01 0.00000E+00
 -1      3138 8.34000E+01 3.86892E+01 0.00000E+00
 -1      3139 8.11500E+01 3.73902E+01 0.00000E+00
 -1      3140 8.49000E+01 3.86892E+01 0.00000E+00
 -1      3141 8.64000E+01 3.86892E+01 0.00000E+00
 -1      3142 8.41500E+01 3.73902E+01 0.00000E+00
 -1      3143 8.79000E+01 3.86892E+01 0.00000E+00
 -1      3144 8.94000E+01 3.86892E+01 0.00000E+00
 -1      3145 8.71500E+01 3.73902E+01 0.00000E+00
 -1      3146 9.09000E+01 3.86892E+01 0.00000E+00
 -1      3147 9.24000E+01 3.86892E+01 0.00000E+00
 -1      3148 9.01500E+01 3.73902E+01 0.00000E+00
 -1      3149 9.39000E+01 3.86892E+01 0.00000E+00
 -1      3150 9.54000E+01 3.86892E+01 0.00000E+00
 -1      3151 9.31500E+01 3.73902E+01 0.00000E+00
 -1      3152 9.69000E+01 3.86892E+01 0.00000E+00
 -1      3153 9.84000E+01 3.86892E+01 0.00000E+00
 -1      3154 9.61500E+01 3.73902E+01 0.00000E+00
 -1      3155 9.99000E+01 3.86892E+01 0.00000E+00
 -1      3156 1.01400E+02 3.86892E+01 0.00000E+00
 -1      3157 9.91500E+01 3.73902E+01 0.00000E+00
 -1      3158 1.02900E+02 3.86892E+01 0.00000E+00
 -1      3159 1.04400E+02 3.86892E+01 0.00000E+00
 -1      3160 1.02150E+02 3.73902E+01 0.00000E+00
 -1      3161 1.05900E+02 3.86892E+01 0.00000E+00
 -1      3162 1.07400E+02 3.86892E+01 0.00000E+00
 -1      3163 1.05150E+02 3.73902E+01 0.00000E+00
 -1      3164 1.08900E+02 3.86892E+01 0.00000E+00
 -1      3165 1.10400E+02 3.86892E+01 0.00000E+00
 -1      3166 1.08150E+02 3.73902E+01 0.00000E+00
 -1      3167 1.11900E+02 3.86892E+01 0.00000E+00
 -1      3168 1.13400E+02 3.86892E+01 0.00000E+00
 -1      3169 1.11150E+02 3.73902E+01 0.00000E+00
 -1      3170 1.14900E+02 3.86892E+01 0.00000E+00
 -1      3171 1.16400E+02 3.86892E+01 0.00000E+00
 -1      3172 1.14150E+02 3.73902E+01 0.00000E+00
 -1      3173 1.17900E+02 3.86892E+01 0.00000E+00
 -1      3174 1.19400E+02 3.86892E+01 0.00000E+00
 -1      3175 1.17150E+02 3.73902E+01 0.00000E+00
 -1      3176 1.20900E+02 3.86892E+01 0.00000E+00
 -1      3177 1.22400E+02 3.86892E+01 0.00000E+00
 -1      3178 1.20150E+02 3.73902E+01 0.00000E+00
 -1      3179 1.23900E+02 3.86892E+01 0.00000E+00
 -1      3180 1.25400E+02 3.86892E+01 0.00000E+00
 -1      3181 1.23150E+02 3.73902E+01 0.00000E+00
 -1      3182 1.26900E+02 3.86892E+01 0.00000E+00
 -1      3183 1.28400E+02 3.86892E+01 0.00000E+00
 -1      3184 1.26150E+02 3.73902E+01 0.00000E+00
 -1      3185 1.29900E+02 3.86892E+01 0.00000E+00
 -1      3186 1.31400E+02 3.86892E+01 0.00000E+00
 -1      3187 1.29150E+02 3.73902E+01 0.00000E+00
 -1      3188 1.32900E+02 3.86892E+01 0.00000E+00
 -1      3189 1.34400E+02 3.86892E+01 0.00000E+00
 -1      3190 1.32150E+02 3.73902E+01 0.00000E+00
 -1      3191 3.47850E+01 1.05013E+01 0.00000E+00
 -1      3192 3.32850E+01 1.05013E+01 0.00000E+00
 -1      3193 3.17850E+01 1.05013E+01 0.00000E+00
 -1      3194 3.02850E+01 1.05013E+01 0.00000E+00
 -1      3195 3.25350E+01 1.18003E+01 0.00000E+00
 -1      3196 4.07850E+01 1.05013E+01 0.00000E+00
 -1      3197 3.92850E+01 1.05013E+01 0.00000E+00
 -1      3198 4.37850E+01 1.05013E+01 0.00000E+00
 -1      3199 4.22850E+01 1.05013E+01 0.00000E+00
 -1      3200 4.15350E+01 1.18003E+01 0.00000E+00
 -1      3201 4.67850E+01 1.05013E+01 0.00000E+00
 -1      3202 4.52850E+01 1.05013E+01 0.00000E+00
 -1      3203 4.45350E+01 1.18003E+01 0.00000E+00
 -1      3204 4.97850E+01 1.05013E+01 0.00000E+00
 -1      3205 4.82850E+01 1.05013E+01 0.00000E+00
 -1      3206 4.75350E+01 1.18003E+01 0.00000E+00
 -1      3207 5.27850E+01 1.05013E+01 0.00000E+00
 -1      3208 5.12850E+01 1.05013E+01 0.00000E+00
 -1      3209 5.05350E+01 1.18003E+01 0.00000E+00
 -1      3210 5.57850E+01 1.05013E+01 0.00000E+00
 -1      3211 5.42850E+01 1.05013E+01 0.00000E+00
 -1      3212 5.35350E+01 1.18003E+01 0.00000E+00
 -1      3213 5.87850E+01 1.05013E+01 0.00000E+00
 -1      3214 5.72850E+01 1.05013E+01 0.00000E+00
 -1      3215 5.65350E+01 1.18003E+01 0.00000E+00
 -1      3216 6.17850E+01 1.05013E+01 0.00000E+00
 -1      3217 6.02850E+01 1.05013E+01 0.00000E+00
 -1      3218 5.95350E+01 1.18003E+01 0.00000E+00
 -1      3219 6.47850E+01 1.05013E+01 0.00000E+00
 -1      3220 6.32850E+01 1.05013E+01 0.00000E+00
 -1      3221 6.25350E+01 1.18003E+01 0.00000E+00
 -1      3222 6.77850E+01 1.05013E+01 0.00000E+00
 -1      3223 6.62850E+01 1.05013E+01 0.00000E+00
 -1      3224 6.55350E+01 1.18003E+01 0.00000E+00
 -1      3225 7.07850E+01 1.05013E+01 0.00000E+00
 -1      3226 6.92850E+01 1.05013E+01 0.00000E+00
 -1      3227 6.85350E+01 1.18003E+01 0.00000E+00
 -1      3228 7.37850E+01 1.05013E+01 0.00000E+00
 -1      3229 7.22850E+01 1.05013E+01 0.00000E+00
 -1      3230 7.15350E+01 1.18003E+01 0.00000E+00
 -1      3231 7.67850E+01 1.05013E+01 0.00000E+00
 -1      3232 7.52850E+01 1.05013E+01 0.00000E+00
 -1      3233 7.45350E+01 1.18003E+01 0.00000E+00
 -1      3234 7.97850E+01 1.05013E+01 0.00000E+00
 -1      3235 7.82850E+01 1.05013E+01 0.00000E+00
 -1      3236 7.75350E+01 1.18003E+01 0.00000E+00
 -1      3237 8.27850E+01 1.05013E+01 0.00000E+00
 -1      3238 8.12850E+01 1.05013E+01 0.00000E+00
 -1      3239 8.05350E+01 1.18003E+01 0.00000E+00
 -1      3240 8.57850E+01 1.05013E+01 0.00000E+00
 -1      3241 8.42850E+01 1.05013E+01 0.00000E+00
 -1      3242 8.35350E+01 1.18003E+01 0.00000E+00
 -1      3243 8.87850E+01 1.05013E+01 0.00000E+00
 -1      3244 8.72850E+01 1.05013E+01 0.00000E+00
 -1      3245 8.65350E+01 1.18003E+01 0.00000E+00
 -1      3246 9.17850E+01 1.05013E+01 0.00000E+00
 -1      3247 9.02850E+01 1.05013E+01 0.00000E+00
 -1      3248 8.95350E+01 1.18003E+01 0.00000E+00
 -1      3249 9.47850E+01 1.05013E+01 0.00000E+00
 -1      3250 9.32850E+01 1.05013E+01 0.00000E+00
 -1      3251 9.25350E+01 1.18003E+01 0.00000E+00
 -1      3252 9.77850E+01 1.05013E+01 0.00000E+00
 -1      3253 9.62850E+01 1.05013E+01 0.00000E+00
 -1      3254 9.55350E+01 1.18003E+01 0.00000E+00
 -1      3255 1.00785E+02 1.05013E+01 0.00000E+00
 -1      3256 9.92850E+01 1.05013E+01 0.00000E+00
 -1      3257 9.85350E+01 1.18003E+01 0.00000E+00
 -1      3258 1.03785E+02 1.05013E+01 0.00000E+00
 -1      3259 1.02285E+02 1.05013E+01 0.00000E+00
 -1      3260 1.01535E+02 1.18003E+01 0.00000E+00
 -1      3261 1.06785E+02 1.05013E+01 0.00000E+00
 -1      3262 1.05285E+02 1.05013E+01 0.00000E+00
 -1      3263 1.04535E+02 1.18003E+01 0.00000E+00
 -1      3264 1.09785E+02 1.05013E+01 0.00000E+00
 -1      3265 1.08285E+02 1.05013E+01 0.00000E+00
 -1      3266 1.07535E+02 1.18003E+01 0.00000E+00
 -1      3267 1.12785E+02 1.05013E+01 0.00000E+00
 -1      3268 1.11285E+02 1.05013E+01 0.00000E+00
 -1      3269 1.10535E+02 1.18003E+01 0.00000E+00
 -1      3270 1.15785E+02 1.05013E+01 0.00000E+00
 -1      3271 1.14285E+02 1.05013E+01 0.00000E+00
 -1      3272 1.13535E+02 1.18003E+01 0.00000E+00
 -1      3273 1.18785E+02 1.05013E+01 0.00000E+00
 -1      3274 1.17285E+02 1.05013E+01 0.00000E+00
 -1      3275 1.16535E+02 1.18003E+01 0.00000E+00
 -1      3276 1.21785E+02 1.05013E+01 0.00000E+00
 -1      3277 1.20285E+02 1.05013E+01 0.00000E+00
 -1      3278 1.19535E+02 1.18003E+01 0.00000E+00
 -1      3279 1.24785E+02 1.05013E+01 0.00000E+00
 -1      3280 1.23285E+02 1.05013E+01 0.00000E+00
 -1      3281 1.22535E+02 1.18003E+01 0.00000E+00
 -1      3282 1.27785E+02 1.05013E+01 0.00000E+00
 -1      3283 1.26285E+02 1.05013E+01 0.00000E+00
 -1      3284 1.25535E+02 1.18003E+01 0.00000E+00
 -1      3285 1.30785E+02 1.05013E+01 0.00000E+00
 -1      3286 1.29285E+02 1.05013E+01 0.00000E+00
 -1      3287 1.28535E+02 1.18003E+01 0.00000E+00
 -1      3288 1.33785E+02 1.05013E+01 0.00000E+00
 -1      3289 1.32285E+02 1.05013E+01 0.00000E+00
 -1      3290 1.31535E+02 1.18003E+01 0.00000E+00
 -1      3291 1.36785E+02 1.05013E+01 0.00000E+00
 -1      3292 1.35285E+02 1.05013E+01 0.00000E+00
 -1      3293 1.34535E+02 1.18003E+01 0.00000E+00
 -1      3294 1.38912E+02 1.10040E+01 0.00000E+00
 -1      3295 1.37744E+02 1.07233E+01 0.00000E+00
 -1      3296 1.36994E+02 1.20223E+01 0.00000E+00
 -1      3297 1.38912E+02 1.24665E+01 0.00000E+00
 -1      3298 3.65829E+01 3.21186E+01 0.00000E+00
 -1      3299 3.63647E+01 3.08565E+01 0.00000E+00
 -1      3300 1.26488E+01 1.02017E+01 0.00000E+00
 -1      3301 1.20772E+01 1.14631E+01 0.00000E+00
 -1      3302 1.33763E+01 1.22006E+01 0.00000E+00
 -1      3303 1.41488E+01 1.02017E+01 0.00000E+00
 -1      3304 1.38309E+02 2.57625E+01 0.00000E+00
 -1      3305 1.38309E+02 2.42875E+01 0.00000E+00
 -1      3306 1.38309E+02 3.45625E+01 0.00000E+00
 -1      3307 1.38309E+02 3.30875E+01 0.00000E+00
 -1      3308 1.38309E+02 2.86625E+01 0.00000E+00
 -1      3309 1.38309E+02 2.72125E+01 0.00000E+00
 -1      3310 1.37010E+02 2.64750E+01 0.00000E+00
 -1      3311 6.38000E+01 2.64333E+01 0.00000E+00
 -1      3312 6.39254E+01 2.76279E+01 0.00000E+00
 -1      3313 1.97850E+01 1.05013E+01 0.00000E+00
 -1      3314 1.82850E+01 1.05013E+01 0.00000E+00
 -1      3315 1.38309E+02 3.16125E+01 0.00000E+00
 -1      3316 1.38309E+02 3.01375E+01 0.00000E+00
 -1      3317 1.37010E+02 2.94000E+01 0.00000E+00
 -1      3318 1.37010E+02 3.23500E+01 0.00000E+00
 -1      3319 3.69707E+01 2.64199E+01 0.00000E+00
 -1      3320 3.74215E+01 2.52418E+01 0.00000E+00
 -1      3321 3.77850E+01 1.05013E+01 0.00000E+00
 -1      3322 3.62850E+01 1.05013E+01 0.00000E+00
 -1      3323 3.55350E+01 1.18003E+01 0.00000E+00
 -1      3324 3.85350E+01 1.18003E+01 0.00000E+00
 -1      3325 2.27850E+01 1.05013E+01 0.00000E+00
 -1      3326 2.12850E+01 1.05013E+01 0.00000E+00
 -1      3327 2.05350E+01 1.18003E+01 0.00000E+00
 -1      3328 5.98097E+01 3.89891E+01 0.00000E+00
 -1      3329 5.37502E+01 1.34014E+01 0.00000E+00
 -1      3330 5.52117E+01 1.38700E+01 0.00000E+00
 -1      3331 3.80899E+01 3.47939E+01 0.00000E+00
 -1      3332 3.72980E+01 3.37526E+01 0.00000E+00
 -1      3333 6.39459E+01 3.55303E+01 0.00000E+00
 -1      3334 6.32194E+01 3.66909E+01 0.00000E+00
 -1      3335 4.83263E+01 1.32414E+01 0.00000E+00
 -1      3336 4.94199E+01 1.33410E+01 0.00000E+00
 -1      3337 1.16910E+01 2.12875E+01 0.00000E+00
 -1      3338 1.16910E+01 2.27625E+01 0.00000E+00
 -1      3339 6.02457E+01 1.84653E+01 0.00000E+00
 -1      3340 6.12521E+01 1.92646E+01 0.00000E+00
 -1      3341 6.34978E+01 2.40300E+01 0.00000E+00
 -1      3342 6.36489E+01 2.52316E+01 0.00000E+00
 -1      3343 6.47311E+01 2.57220E+01 0.00000E+00
 -1      3344 5.66269E+01 1.56242E+01 0.00000E+00
 -1      3345 5.75118E+01 1.65370E+01 0.00000E+00
 -1      3346 3.86131E+01 2.09074E+01 0.00000E+00
 -1      3347 3.91979E+01 2.00040E+01 0.00000E+00
 -1      3348 3.86314E+01 1.87955E+01 0.00000E+00
 -1      3349 5.09199E+01 1.33410E+01 0.00000E+00
 -1      3350 5.22502E+01 1.34014E+01 0.00000E+00
 -1      3351 6.38876E+01 2.90170E+01 0.00000E+00
 -1      3352 6.38441E+01 3.03237E+01 0.00000E+00
 -1      3353 5.84181E+01 1.71926E+01 0.00000E+00
 -1      3354 5.93394E+01 1.78097E+01 0.00000E+00
 -1      3355 6.05844E+01 1.72754E+01 0.00000E+00
 -1      3356 5.87719E+01 1.59643E+01 0.00000E+00
 -1      3357 6.40242E+01 3.16861E+01 0.00000E+00
 -1      3358 6.42043E+01 3.30485E+01 0.00000E+00
 -1      3359 6.49868E+01 3.10641E+01 0.00000E+00
 -1      3360 4.44310E+01 1.45104E+01 0.00000E+00
 -1      3361 4.63711E+01 1.39671E+01 0.00000E+00
 -1      3362 1.16910E+01 2.42375E+01 0.00000E+00
 -1      3363 1.16910E+01 2.57125E+01 0.00000E+00
 -1      3364 1.29900E+01 2.35000E+01 0.00000E+00
 -1      3365 3.58659E+01 2.69499E+01 0.00000E+00
 -1      3366 1.16910E+01 1.83500E+01 0.00000E+00
 -1      3367 1.16910E+01 1.98188E+01 0.00000E+00
 -1      3368 1.29900E+01 2.05562E+01 0.00000E+00
 -1      3369 3.97989E+01 3.85574E+01 0.00000E+00
 -1      3370 3.66573E+01 3.69353E+01 0.00000E+00
 -1      3371 3.74073E+01 3.82343E+01 0.00000E+00
 -1      3372 1.47105E+01 3.72226E+01 0.00000E+00
 -1      3373 3.89073E+01 3.82343E+01 0.00000E+00
 -1      3374 3.72025E+01 2.19619E+01 0.00000E+00
 -1      3375 3.79078E+01 2.14347E+01 0.00000E+00
 -1      3376 3.73413E+01 2.02262E+01 0.00000E+00
 -1      3377 6.24694E+01 3.79899E+01 0.00000E+00
 -1      3378 6.40224E+01 2.18567E+01 0.00000E+00
 -1      3379 6.37601E+01 2.29434E+01 0.00000E+00
 -1      3380 6.48423E+01 2.34337E+01 0.00000E+00
 -1      3381 6.09694E+01 3.79899E+01 0.00000E+00
 -1      3382 1.34907E+02 3.73098E+01 0.00000E+00
 -1      3383 1.35657E+02 3.86088E+01 0.00000E+00
 -1      3384 1.36914E+02 3.85283E+01 0.00000E+00
 -1      3385 2.42850E+01 1.05013E+01 0.00000E+00
 -1      3386 2.35350E+01 1.18003E+01 0.00000E+00
 -1      3387 2.57850E+01 1.05013E+01 0.00000E+00
 -1      3388 1.16910E+01 1.54094E+01 0.00000E+00
 -1      3389 1.16910E+01 1.68781E+01 0.00000E+00
 -1      3390 1.29900E+01 1.76156E+01 0.00000E+00
 -1      3391 1.29900E+01 1.46719E+01 0.00000E+00
 -1      3392 1.38344E+02 1.69612E+01 0.00000E+00
 -1      3393 1.38409E+02 1.57209E+01 0.00000E+00
 -1      3394 1.16910E+01 3.30594E+01 0.00000E+00
 -1      3395 1.16910E+01 3.45281E+01 0.00000E+00
 -1      3396 2.95350E+01 1.18003E+01 0.00000E+00
 -1      3397 2.87850E+01 1.05013E+01 0.00000E+00
 -1      3398 2.72850E+01 1.05013E+01 0.00000E+00
 -1      3399 3.60962E+01 3.33105E+01 0.00000E+00
 -1      3400 3.54371E+01 3.00559E+01 0.00000E+00
 -1      3401 1.38344E+02 1.99112E+01 0.00000E+00
 -1      3402 1.38344E+02 1.84362E+01 0.00000E+00
 -1      3403 1.37079E+02 1.77474E+01 0.00000E+00
 -1      3404 1.37886E+02 3.62647E+01 0.00000E+00
 -1      3405 1.36587E+02 3.55272E+01 0.00000E+00
 -1      3406 3.70038E+01 2.43174E+01 0.00000E+00
 -1      3407 1.38326E+02 2.28368E+01 0.00000E+00
 -1      3408 1.38326E+02 2.13618E+01 0.00000E+00
 -1      3409 1.37062E+02 2.06730E+01 0.00000E+00
 -1      3410 1.37027E+02 2.35743E+01 0.00000E+00
 -1      3411 6.22155E+01 1.96487E+01 0.00000E+00
 -1      3412 6.31788E+01 2.00328E+01 0.00000E+00
 -1      3413 6.24541E+01 1.83151E+01 0.00000E+00
 -1      3414 6.48251E+01 3.42894E+01 0.00000E+00
 -1      3415 6.55292E+01 3.61492E+01 0.00000E+00
 -1      3416 6.70292E+01 3.61492E+01 0.00000E+00
 -1      3417 6.57877E+01 3.36674E+01 0.00000E+00
 -1      3418 3.77379E+01 3.59026E+01 0.00000E+00
 -1      3419 1.16910E+01 3.15906E+01 0.00000E+00
 -1      3420 1.29900E+01 3.23250E+01 0.00000E+00
 -1      3421 1.16910E+01 3.01219E+01 0.00000E+00
 -1      3422 4.20490E+01 1.34713E+01 0.00000E+00
 -1      3423 4.33863E+01 1.37848E+01 0.00000E+00
 -1      3424 1.69669E+01 1.03515E+01 0.00000E+00
 -1      3425 1.54669E+01 1.03515E+01 0.00000E+00
 -1      3426 1.50806E+01 1.13509E+01 0.00000E+00
 -1      3427 1.77169E+01 1.16505E+01 0.00000E+00
 -1      3428 4.01396E+01 1.65173E+01 0.00000E+00
 -1      3429 6.48444E+01 2.83126E+01 0.00000E+00
 -1      3430 5.67117E+01 1.38700E+01 0.00000E+00
 -1      3431 1.35330E+02 3.56076E+01 0.00000E+00
 -1      3432 1.35753E+02 3.39054E+01 0.00000E+00
 -1      3433 1.34073E+02 3.56880E+01 0.00000E+00
 -1      3434 3.32850E+01 1.30992E+01 0.00000E+00
 -1      3435 3.17850E+01 1.30992E+01 0.00000E+00
 -1      3436 3.57306E+01 3.59773E+01 0.00000E+00
 -1      3437 1.35992E+01 3.60377E+01 0.00000E+00
 -1      3438 1.55387E+01 3.58251E+01 0.00000E+00
 -1      3439 2.04000E+01 3.57110E+01 0.00000E+00
 -1      3440 2.19000E+01 3.57110E+01 0.00000E+00
 -1      3441 2.34000E+01 3.57110E+01 0.00000E+00
 -1      3442 2.49000E+01 3.57110E+01 0.00000E+00
 -1      3443 2.26500E+01 3.44120E+01 0.00000E+00
 -1      3444 2.64000E+01 3.57110E+01 0.00000E+00
 -1      3445 2.79000E+01 3.57110E+01 0.00000E+00
 -1      3446 2.56500E+01 3.44120E+01 0.00000E+00
 -1      3447 2.94000E+01 3.57110E+01 0.00000E+00
 -1      3448 3.09000E+01 3.57110E+01 0.00000E+00
 -1      3449 2.86500E+01 3.44120E+01 0.00000E+00
 -1      3450 3.24000E+01 3.57110E+01 0.00000E+00
 -1      3451 3.39000E+01 3.57110E+01 0.00000E+00
 -1      3452 3.16500E+01 3.44120E+01 0.00000E+00
 -1      3453 6.85292E+01 3.61492E+01 0.00000E+00
 -1      3454 7.00292E+01 3.61492E+01 0.00000E+00
 -1      3455 6.79084E+01 3.49083E+01 0.00000E+00
 -1      3456 7.15292E+01 3.61492E+01 0.00000E+00
 -1      3457 7.30292E+01 3.61492E+01 0.00000E+00
 -1      3458 7.09084E+01 3.49083E+01 0.00000E+00
 -1      3459 7.45292E+01 3.61492E+01 0.00000E+00
 -1      3460 7.60292E+01 3.61492E+01 0.00000E+00
 -1      3461 7.39084E+01 3.49083E+01 0.00000E+00
 -1      3462 7.75292E+01 3.61492E+01 0.00000E+00
 -1      3463 7.90292E+01 3.61492E+01 0.00000E+00
 -1      3464 7.69084E+01 3.49083E+01 0.00000E+00
 -1      3465 8.05292E+01 3.61492E+01 0.00000E+00
 -1      3466 8.20292E+01 3.61492E+01 0.00000E+00
 -1      3467 7.99084E+01 3.49083E+01 0.00000E+00
 -1      3468 8.35292E+01 3.61492E+01 0.00000E+00
 -1      3469 8.50292E+01 3.61492E+01 0.00000E+00
 -1      3470 8.29084E+01 3.49083E+01 0.00000E+00
 -1      3471 8.65292E+01 3.61492E+01 0.00000E+00
 -1      3472 8.80292E+01 3.61492E+01 0.00000E+00
 -1      3473 8.59084E+01 3.49083E+01 0.00000E+00
 -1      3474 8.95292E+01 3.61492E+01 0.00000E+00
 -1      3475 9.10292E+01 3.61492E+01 0.00000E+00
 -1      3476 8.89084E+01 3.49083E+01 0.00000E+00
 -1      3477 9.25292E+01 3.61492E+01 0.00000E+00
 -1      3478 9.40292E+01 3.61492E+01 0.00000E+00
 -1      3479 9.19084E+01 3.49083E+01 0.00000E+00
 -1      3480 9.55292E+01 3.61492E+01 0.00000E+00
 -1      3481 9.70292E+01 3.61492E+01 0.00000E+00
 -1      3482 9.49084E+01 3.49083E+01 0.00000E+00
 -1      3483 9.85292E+01 3.61492E+01 0.00000E+00
 -1      3484 1.00029E+02 3.61492E+01 0.00000E+00
 -1      3485 9.79084E+01 3.49083E+01 0.00000E+00
 -1      3486 1.01529E+02 3.61492E+01 0.00000E+00
 -1      3487 1.03029E+02 3.61492E+01 0.00000E+00
 -1      3488 1.00908E+02 3.49083E+01 0.00000E+00
 -1      3489 1.04529E+02 3.61492E+01 0.00000E+00
 -1      3490 1.06029E+02 3.61492E+01 0.00000E+00
 -1      3491 1.03908E+02 3.49083E+01 0.00000E+00
 -1      3492 1.07529E+02 3.61492E+01 0.00000E+00
 -1      3493 1.09029E+02 3.61492E+01 0.00000E+00
 -1      3494 1.06908E+02 3.49083E+01 0.00000E+00
 -1      3495 1.10529E+02 3.61492E+01 0.00000E+00
 -1      3496 1.12029E+02 3.61492E+01 0.00000E+00
 -1      3497 1.09908E+02 3.49083E+01 0.00000E+00
 -1      3498 1.13529E+02 3.61492E+01 0.00000E+00
 -1      3499 1.15029E+02 3.61492E+01 0.00000E+00
 -1      3500 1.12908E+02 3.49083E+01 0.00000E+00
 -1      3501 1.16529E+02 3.61492E+01 0.00000E+00
 -1      3502 1.18029E+02 3.61492E+01 0.00000E+00
 -1      3503 1.15908E+02 3.49083E+01 0.00000E+00
 -1      3504 1.19529E+02 3.61492E+01 0.00000E+00
 -1      3505 1.21029E+02 3.61492E+01 0.00000E+00
 -1      3506 1.18908E+02 3.49083E+01 0.00000E+00
 -1      3507 1.22529E+02 3.61492E+01 0.00000E+00
 -1      3508 1.24029E+02 3.61492E+01 0.00000E+00
 -1      3509 1.21908E+02 3.49083E+01 0.00000E+00
 -1      3510 1.25529E+02 3.61492E+01 0.00000E+00
 -1      3511 1.27029E+02 3.61492E+01 0.00000E+00
 -1      3512 1.24908E+02 3.49083E+01 0.00000E+00
 -1      3513 1.28529E+02 3.61492E+01 0.00000E+00
 -1      3514 1.30029E+02 3.61492E+01 0.00000E+00
 -1      3515 1.27908E+02 3.49083E+01 0.00000E+00
 -1      3516 1.31301E+02 3.59186E+01 0.00000E+00
 -1      3517 1.32801E+02 3.59186E+01 0.00000E+00
 -1      3518 1.33224E+02 3.42165E+01 0.00000E+00
 -1      3519 1.30680E+02 3.46777E+01 0.00000E+00
 -1      3520 4.05490E+01 1.34713E+01 0.00000E+00
 -1      3521 6.32850E+01 1.30992E+01 0.00000E+00
 -1      3522 6.17850E+01 1.30992E+01 0.00000E+00
 -1      3523 6.62850E+01 1.30992E+01 0.00000E+00
 -1      3524 6.47850E+01 1.30992E+01 0.00000E+00
 -1      3525 6.40350E+01 1.43982E+01 0.00000E+00
 -1      3526 6.92850E+01 1.30992E+01 0.00000E+00
 -1      3527 6.77850E+01 1.30992E+01 0.00000E+00
 -1      3528 6.70350E+01 1.43982E+01 0.00000E+00
 -1      3529 7.22850E+01 1.30992E+01 0.00000E+00
 -1      3530 7.07850E+01 1.30992E+01 0.00000E+00
 -1      3531 7.00350E+01 1.43982E+01 0.00000E+00
 -1      3532 7.52850E+01 1.30992E+01 0.00000E+00
 -1      3533 7.37850E+01 1.30992E+01 0.00000E+00
 -1      3534 7.30350E+01 1.43982E+01 0.00000E+00
 -1      3535 7.82850E+01 1.30992E+01 0.00000E+00
 -1      3536 7.67850E+01 1.30992E+01 0.00000E+00
 -1      3537 7.60350E+01 1.43982E+01 0.00000E+00
 -1      3538 8.12850E+01 1.30992E+01 0.00000E+00
 -1      3539 7.97850E+01 1.30992E+01 0.00000E+00
 -1      3540 7.90350E+01 1.43982E+01 0.00000E+00
 -1      3541 8.42850E+01 1.30992E+01 0.00000E+00
 -1      3542 8.27850E+01 1.30992E+01 0.00000E+00
 -1      3543 8.20350E+01 1.43982E+01 0.00000E+00
 -1      3544 8.72850E+01 1.30992E+01 0.00000E+00
 -1      3545 8.57850E+01 1.30992E+01 0.00000E+00
 -1      3546 8.50350E+01 1.43982E+01 0.00000E+00
 -1      3547 9.02850E+01 1.30992E+01 0.00000E+00
 -1      3548 8.87850E+01 1.30992E+01 0.00000E+00
 -1      3549 8.80350E+01 1.43982E+01 0.00000E+00
 -1      3550 9.32850E+01 1.30992E+01 0.00000E+00
 -1      3551 9.17850E+01 1.30992E+01 0.00000E+00
 -1      3552 9.10350E+01 1.43982E+01 0.00000E+00
 -1      3553 9.62850E+01 1.30992E+01 0.00000E+00
 -1      3554 9.47850E+01 1.30992E+01 0.00000E+00
 -1      3555 9.40350E+01 1.43982E+01 0.00000E+00
 -1      3556 9.92850E+01 1.30992E+01 0.00000E+00
 -1      3557 9.77850E+01 1.30992E+01 0.00000E+00
 -1      3558 9.70350E+01 1.43982E+01 0.00000E+00
 -1      3559 1.02285E+02 1.30992E+01 0.00000E+00
 -1      3560 1.00785E+02 1.30992E+01 0.00000E+00
 -1      3561 1.00035E+02 1.43982E+01 0.00000E+00
 -1      3562 1.05285E+02 1.30992E+01 0.00000E+00
 -1      3563 1.03785E+02 1.30992E+01 0.00000E+00
 -1      3564 1.03035E+02 1.43982E+01 0.00000E+00
 -1      3565 1.08285E+02 1.30992E+01 0.00000E+00
 -1      3566 1.06785E+02 1.30992E+01 0.00000E+00
 -1      3567 1.06035E+02 1.43982E+01 0.00000E+00
 -1      3568 1.11285E+02 1.30992E+01 0.00000E+00
 -1      3569 1.09785E+02 1.30992E+01 0.00000E+00
 -1      3570 1.09035E+02 1.43982E+01 0.00000E+00
 -1      3571 1.14285E+02 1.30992E+01 0.00000E+00
 -1      3572 1.12785E+02 1.30992E+01 0.00000E+00
 -1      3573 1.12035E+02 1.43982E+01 0.00000E+00
 -1      3574 1.17285E+02 1.30992E+01 0.00000E+00
 -1      3575 1.15785E+02 1.30992E+01 0.00000E+00
 -1      3576 1.15035E+02 1.43982E+01 0.00000E+00
 -1      3577 1.20285E+02 1.30992E+01 0.00000E+00
 -1      3578 1.18785E+02 1.30992E+01 0.00000E+00
 -1      3579 1.18035E+02 1.43982E+01 0.00000E+00
 -1      3580 1.23285E+02 1.30992E+01 0.00000E+00
 -1      3581 1.21785E+02 1.30992E+01 0.00000E+00
 -1      3582 1.21035E+02 1.43982E+01 0.00000E+00
 -1      3583 1.26285E+02 1.30992E+01 0.00000E+00
 -1      3584 1.24785E+02 1.30992E+01 0.00000E+00
 -1      3585 1.24035E+02 1.43982E+01 0.00000E+00
 -1      3586 1.29285E+02 1.30992E+01 0.00000E+00
 -1      3587 1.27785E+02 1.30992E+01 0.00000E+00
 -1      3588 1.27035E+02 1.43982E+01 0.00000E+00
 -1      3589 1.32285E+02 1.30992E+01 0.00000E+00
 -1      3590 1.30785E+02 1.30992E+01 0.00000E+00
 -1      3591 1.30035E+02 1.43982E+01 0.00000E+00
 -1      3592 1.35285E+02 1.30992E+01 0.00000E+00
 -1      3593 1.33785E+02 1.30992E+01 0.00000E+00
 -1      3594 1.33035E+02 1.43982E+01 0.00000E+00
 -1      3595 1.37400E+02 3.73965E+01 0.00000E+00
 -1      3596 3.56721E+01 2.42560E+01 0.00000E+00
 -1      3597 3.64373E+01 2.31089E+01 0.00000E+00
 -1      3598 3.58708E+01 2.19004E+01 0.00000E+00
 -1      3599 1.35711E+02 2.72000E+01 0.00000E+00
 -1      3600 1.35711E+02 2.57500E+01 0.00000E+00
 -1      3601 3.86878E+01 1.65396E+01 0.00000E+00
 -1      3602 3.96113E+01 1.51648E+01 0.00000E+00
 -1      3603 3.47665E+01 2.74635E+01 0.00000E+00
 -1      3604 3.51392E+01 2.59781E+01 0.00000E+00
 -1      3605 3.49806E+01 3.46783E+01 0.00000E+00
 -1      3606 3.42655E+01 3.30442E+01 0.00000E+00
 -1      3607 3.42171E+01 3.08249E+01 0.00000E+00
 -1      3608 3.42732E+01 2.92043E+01 0.00000E+00
 -1      3609 1.16910E+01 2.71844E+01 0.00000E+00
 -1      3610 1.16910E+01 2.86531E+01 0.00000E+00
 -1      3611 1.29900E+01 2.93875E+01 0.00000E+00
 -1      3612 6.57558E+01 2.49828E+01 0.00000E+00
 -1      3613 6.59069E+01 2.61844E+01 0.00000E+00
 -1      3614 6.61622E+01 3.02156E+01 0.00000E+00
 -1      3615 6.63423E+01 3.15780E+01 0.00000E+00
 -1      3616 4.68263E+01 1.32414E+01 0.00000E+00
 -1      3617 5.79503E+01 1.35545E+01 0.00000E+00
 -1      3618 2.12850E+01 1.30992E+01 0.00000E+00
 -1      3619 1.97850E+01 1.30992E+01 0.00000E+00
 -1      3620 5.91958E+01 1.30052E+01 0.00000E+00
 -1      3621 5.91111E+01 1.47594E+01 0.00000E+00
 -1      3622 6.00174E+01 1.54150E+01 0.00000E+00
 -1      3623 6.06958E+01 1.30052E+01 0.00000E+00
 -1      3624 6.60534E+01 2.75055E+01 0.00000E+00
 -1      3625 6.60156E+01 2.88945E+01 0.00000E+00
 -1      3626 6.73712E+01 2.94084E+01 0.00000E+00
 -1      3627 6.70781E+01 2.67663E+01 0.00000E+00
 -1      3628 1.74000E+01 3.57110E+01 0.00000E+00
 -1      3629 1.89000E+01 3.57110E+01 0.00000E+00
 -1      3630 1.96500E+01 3.44120E+01 0.00000E+00
 -1      3631 3.75182E+01 1.83465E+01 0.00000E+00
 -1      3632 3.81030E+01 1.74431E+01 0.00000E+00
 -1      3633 3.75747E+01 1.60906E+01 0.00000E+00
 -1      3634 1.38628E+02 1.47139E+01 0.00000E+00
 -1      3635 1.38693E+02 1.34735E+01 0.00000E+00
 -1      3636 1.37734E+02 1.32514E+01 0.00000E+00
 -1      3637 1.37298E+02 1.52654E+01 0.00000E+00
 -1      3638 4.55798E+01 1.25259E+01 0.00000E+00
 -1      3639 3.90972E+01 1.34937E+01 0.00000E+00
 -1      3640 4.40798E+01 1.25259E+01 0.00000E+00
 -1      3641 1.28805E+01 3.56145E+01 0.00000E+00
 -1      3642 1.34429E+02 2.50243E+01 0.00000E+00
 -1      3643 1.35728E+02 2.42993E+01 0.00000E+00
 -1      3644 1.35746E+02 2.28487E+01 0.00000E+00
 -1      3645 1.29900E+01 2.64469E+01 0.00000E+00
 -1      3646 6.42610E+01 2.05231E+01 0.00000E+00
 -1      3647 6.53432E+01 2.10134E+01 0.00000E+00
 -1      3648 6.44996E+01 1.91895E+01 0.00000E+00
 -1      3649 1.35753E+02 3.24304E+01 0.00000E+00
 -1      3650 1.35753E+02 3.09554E+01 0.00000E+00
 -1      3651 1.34496E+02 3.25108E+01 0.00000E+00
 -1      3652 1.42890E+01 1.98219E+01 0.00000E+00
 -1      3653 1.42890E+01 2.12906E+01 0.00000E+00
 -1      3654 3.02850E+01 1.30992E+01 0.00000E+00
 -1      3655 2.87850E+01 1.30992E+01 0.00000E+00
 -1      3656 3.10350E+01 1.43982E+01 0.00000E+00
 -1      3657 2.65350E+01 1.18003E+01 0.00000E+00
 -1      3658 3.35465E+01 2.82325E+01 0.00000E+00
 -1      3659 1.42890E+01 1.39359E+01 0.00000E+00
 -1      3660 1.42890E+01 1.54078E+01 0.00000E+00
 -1      3661 2.42850E+01 1.30992E+01 0.00000E+00
 -1      3662 2.27850E+01 1.30992E+01 0.00000E+00
 -1      3663 2.20350E+01 1.43982E+01 0.00000E+00
 -1      3664 6.14458E+01 1.43042E+01 0.00000E+00
 -1      3665 1.55880E+01 2.20313E+01 0.00000E+00
 -1      3666 1.42890E+01 2.27656E+01 0.00000E+00
 -1      3667 1.42890E+01 2.42406E+01 0.00000E+00
 -1      3668 6.60181E+01 2.38961E+01 0.00000E+00
 -1      3669 6.71939E+01 2.43586E+01 0.00000E+00
 -1      3670 6.62804E+01 2.28095E+01 0.00000E+00
 -1      3671 1.36775E+02 1.30293E+01 0.00000E+00
 -1      3672 6.24141E+01 1.70152E+01 0.00000E+00
 -1      3673 6.33774E+01 1.73992E+01 0.00000E+00
 -1      3674 3.45727E+01 2.47696E+01 0.00000E+00
 -1      3675 1.48779E+01 1.21437E+01 0.00000E+00
 -1      3676 1.44917E+01 1.31431E+01 0.00000E+00
 -1      3677 1.57907E+01 1.38791E+01 0.00000E+00
 -1      3678 1.61961E+01 1.22935E+01 0.00000E+00
 -1      3679 1.62887E+01 3.45261E+01 0.00000E+00
 -1      3680 6.68150E+01 3.26227E+01 0.00000E+00
 -1      3681 6.74358E+01 3.38636E+01 0.00000E+00
 -1      3682 6.89358E+01 3.38636E+01 0.00000E+00
 -1      3683 6.79904E+01 3.17742E+01 0.00000E+00
 -1      3684 1.35732E+02 2.98152E+01 0.00000E+00
 -1      3685 1.35732E+02 2.83402E+01 0.00000E+00
 -1      3686 1.34433E+02 2.76152E+01 0.00000E+00
 -1      3687 1.34475E+02 2.98956E+01 0.00000E+00
 -1      3688 3.75972E+01 1.34937E+01 0.00000E+00
 -1      3689 3.61911E+01 1.32965E+01 0.00000E+00
 -1      3690 3.46911E+01 1.32965E+01 0.00000E+00
 -1      3691 3.39411E+01 1.45955E+01 0.00000E+00
 -1      3692 3.67534E+01 1.49900E+01 0.00000E+00
 -1      3693 3.31016E+01 3.21927E+01 0.00000E+00
 -1      3694 3.61077E+01 1.94009E+01 0.00000E+00
 -1      3695 3.68130E+01 1.88737E+01 0.00000E+00
 -1      3696 3.62846E+01 1.75213E+01 0.00000E+00
 -1      3697 1.36025E+02 1.43283E+01 0.00000E+00
 -1      3698 6.15078E+01 1.63596E+01 0.00000E+00
 -1      3699 1.37087E+01 3.42169E+01 0.00000E+00
 -1      3700 1.37087E+01 3.12794E+01 0.00000E+00
 -1      3701 1.37087E+01 3.27482E+01 0.00000E+00
 -1      3702 1.44274E+01 3.31713E+01 0.00000E+00
 -1      3703 1.86496E+01 1.27713E+01 0.00000E+00
 -1      3704 1.73315E+01 1.26215E+01 0.00000E+00
 -1      3705 1.71288E+01 1.34143E+01 0.00000E+00
 -1      3706 1.93996E+01 1.40703E+01 0.00000E+00
 -1      3707 1.35807E+02 1.53353E+01 0.00000E+00
 -1      3708 1.35780E+02 1.84849E+01 0.00000E+00
 -1      3709 1.35780E+02 1.70099E+01 0.00000E+00
 -1      3710 1.34508E+02 1.60728E+01 0.00000E+00
 -1      3711 2.49000E+01 3.31130E+01 0.00000E+00
 -1      3712 2.64000E+01 3.31130E+01 0.00000E+00
 -1      3713 2.79000E+01 3.31130E+01 0.00000E+00
 -1      3714 2.94000E+01 3.31130E+01 0.00000E+00
 -1      3715 2.71500E+01 3.18140E+01 0.00000E+00
 -1      3716 3.05008E+01 3.26529E+01 0.00000E+00
 -1      3717 3.20008E+01 3.26529E+01 0.00000E+00
 -1      3718 3.19524E+01 3.04336E+01 0.00000E+00
 -1      3719 2.97508E+01 3.13539E+01 0.00000E+00
 -1      3720 2.72850E+01 1.30992E+01 0.00000E+00
 -1      3721 2.57850E+01 1.30992E+01 0.00000E+00
 -1      3722 2.80350E+01 1.43982E+01 0.00000E+00
 -1      3723 7.04358E+01 3.38636E+01 0.00000E+00
 -1      3724 7.19358E+01 3.38636E+01 0.00000E+00
 -1      3725 6.99631E+01 3.28189E+01 0.00000E+00
 -1      3726 7.34358E+01 3.38636E+01 0.00000E+00
 -1      3727 7.49358E+01 3.38636E+01 0.00000E+00
 -1      3728 7.29631E+01 3.28189E+01 0.00000E+00
 -1      3729 7.64358E+01 3.38636E+01 0.00000E+00
 -1      3730 7.79358E+01 3.38636E+01 0.00000E+00
 -1      3731 7.59631E+01 3.28189E+01 0.00000E+00
 -1      3732 7.94358E+01 3.38636E+01 0.00000E+00
 -1      3733 8.09358E+01 3.38636E+01 0.00000E+00
 -1      3734 7.89631E+01 3.28189E+01 0.00000E+00
 -1      3735 8.24358E+01 3.38636E+01 0.00000E+00
 -1      3736 8.39358E+01 3.38636E+01 0.00000E+00
 -1      3737 8.19631E+01 3.28189E+01 0.00000E+00
 -1      3738 8.54358E+01 3.38636E+01 0.00000E+00
 -1      3739 8.69358E+01 3.38636E+01 0.00000E+00
 -1      3740 8.49631E+01 3.28189E+01 0.00000E+00
 -1      3741 8.84358E+01 3.38636E+01 0.00000E+00
 -1      3742 8.99358E+01 3.38636E+01 0.00000E+00
 -1      3743 8.79631E+01 3.28189E+01 0.00000E+00
 -1      3744 9.14358E+01 3.38636E+01 0.00000E+00
 -1      3745 9.29358E+01 3.38636E+01 0.00000E+00
 -1      3746 9.09631E+01 3.28189E+01 0.00000E+00
 -1      3747 9.44358E+01 3.38636E+01 0.00000E+00
 -1      3748 9.59358E+01 3.38636E+01 0.00000E+00
 -1      3749 9.39631E+01 3.28189E+01 0.00000E+00
 -1      3750 9.74358E+01 3.38636E+01 0.00000E+00
 -1      3751 9.89358E+01 3.38636E+01 0.00000E+00
 -1      3752 9.69631E+01 3.28189E+01 0.00000E+00
 -1      3753 1.00436E+02 3.38636E+01 0.00000E+00
 -1      3754 1.01936E+02 3.38636E+01 0.00000E+00
 -1      3755 9.99631E+01 3.28189E+01 0.00000E+00
 -1      3756 1.03436E+02 3.38636E+01 0.00000E+00
 -1      3757 1.04936E+02 3.38636E+01 0.00000E+00
 -1      3758 1.02963E+02 3.28189E+01 0.00000E+00
 -1      3759 1.06436E+02 3.38636E+01 0.00000E+00
 -1      3760 1.07936E+02 3.38636E+01 0.00000E+00
 -1      3761 1.05963E+02 3.28189E+01 0.00000E+00
 -1      3762 1.09436E+02 3.38636E+01 0.00000E+00
 -1      3763 1.10936E+02 3.38636E+01 0.00000E+00
 -1      3764 1.08963E+02 3.28189E+01 0.00000E+00
 -1      3765 1.12436E+02 3.38636E+01 0.00000E+00
 -1      3766 1.13936E+02 3.38636E+01 0.00000E+00
 -1      3767 1.11963E+02 3.28189E+01 0.00000E+00
 -1      3768 1.15436E+02 3.38636E+01 0.00000E+00
 -1      3769 1.16936E+02 3.38636E+01 0.00000E+00
 -1      3770 1.14963E+02 3.28189E+01 0.00000E+00
 -1      3771 1.18436E+02 3.38636E+01 0.00000E+00
 -1      3772 1.19936E+02 3.38636E+01 0.00000E+00
 -1      3773 1.17963E+02 3.28189E+01 0.00000E+00
 -1      3774 1.21436E+02 3.38636E+01 0.00000E+00
 -1      3775 1.22936E+02 3.38636E+01 0.00000E+00
 -1      3776 1.20963E+02 3.28189E+01 0.00000E+00
 -1      3777 1.24436E+02 3.38636E+01 0.00000E+00
 -1      3778 1.25936E+02 3.38636E+01 0.00000E+00
 -1      3779 1.23963E+02 3.28189E+01 0.00000E+00
 -1      3780 1.27436E+02 3.38636E+01 0.00000E+00
 -1      3781 1.28936E+02 3.38636E+01 0.00000E+00
 -1      3782 1.26963E+02 3.28189E+01 0.00000E+00
 -1      3783 6.77850E+01 1.56973E+01 0.00000E+00
 -1      3784 6.62850E+01 1.56973E+01 0.00000E+00
 -1      3785 3.22329E+01 2.88006E+01 0.00000E+00
 -1      3786 3.27263E+01 2.70597E+01 0.00000E+00
 -1      3787 3.61686E+01 1.58934E+01 0.00000E+00
 -1      3788 6.44362E+01 1.52488E+01 0.00000E+00
 -1      3789 6.29362E+01 1.52488E+01 0.00000E+00
 -1      3790 7.37850E+01 1.56973E+01 0.00000E+00
 -1      3791 7.22850E+01 1.56973E+01 0.00000E+00
 -1      3792 7.67850E+01 1.56973E+01 0.00000E+00
 -1      3793 7.52850E+01 1.56973E+01 0.00000E+00
 -1      3794 7.45350E+01 1.69963E+01 0.00000E+00
 -1      3795 7.97850E+01 1.56973E+01 0.00000E+00
 -1      3796 7.82850E+01 1.56973E+01 0.00000E+00
 -1      3797 7.75350E+01 1.69963E+01 0.00000E+00
 -1      3798 8.27850E+01 1.56973E+01 0.00000E+00
 -1      3799 8.12850E+01 1.56973E+01 0.00000E+00
 -1      3800 8.05350E+01 1.69963E+01 0.00000E+00
 -1      3801 8.57850E+01 1.56973E+01 0.00000E+00
 -1      3802 8.42850E+01 1.56973E+01 0.00000E+00
 -1      3803 8.35350E+01 1.69963E+01 0.00000E+00
 -1      3804 8.87850E+01 1.56973E+01 0.00000E+00
 -1      3805 8.72850E+01 1.56973E+01 0.00000E+00
 -1      3806 8.65350E+01 1.69963E+01 0.00000E+00
 -1      3807 9.17850E+01 1.56973E+01 0.00000E+00
 -1      3808 9.02850E+01 1.56973E+01 0.00000E+00
 -1      3809 8.95350E+01 1.69963E+01 0.00000E+00
 -1      3810 9.47850E+01 1.56973E+01 0.00000E+00
 -1      3811 9.32850E+01 1.56973E+01 0.00000E+00
 -1      3812 9.25350E+01 1.69963E+01 0.00000E+00
 -1      3813 9.77850E+01 1.56973E+01 0.00000E+00
 -1      3814 9.62850E+01 1.56973E+01 0.00000E+00
 -1      3815 9.55350E+01 1.69963E+01 0.00000E+00
 -1      3816 1.00785E+02 1.56973E+01 0.00000E+00
 -1      3817 9.92850E+01 1.56973E+01 0.00000E+00
 -1      3818 9.85350E+01 1.69963E+01 0.00000E+00
 -1      3819 1.03785E+02 1.56973E+01 0.00000E+00
 -1      3820 1.02285E+02 1.56973E+01 0.00000E+00
 -1      3821 1.01535E+02 1.69963E+01 0.00000E+00
 -1      3822 1.06785E+02 1.56973E+01 0.00000E+00
 -1      3823 1.05285E+02 1.56973E+01 0.00000E+00
 -1      3824 1.04535E+02 1.69963E+01 0.00000E+00
 -1      3825 1.09785E+02 1.56973E+01 0.00000E+00
 -1      3826 1.08285E+02 1.56973E+01 0.00000E+00
 -1      3827 1.07535E+02 1.69963E+01 0.00000E+00
 -1      3828 1.12785E+02 1.56973E+01 0.00000E+00
 -1      3829 1.11285E+02 1.56973E+01 0.00000E+00
 -1      3830 1.10535E+02 1.69963E+01 0.00000E+00
 -1      3831 1.15785E+02 1.56973E+01 0.00000E+00
 -1      3832 1.14285E+02 1.56973E+01 0.00000E+00
 -1      3833 1.13535E+02 1.69963E+01 0.00000E+00
 -1      3834 1.18785E+02 1.56973E+01 0.00000E+00
 -1      3835 1.17285E+02 1.56973E+01 0.00000E+00
 -1      3836 1.16535E+02 1.69963E+01 0.00000E+00
 -1      3837 1.21785E+02 1.56973E+01 0.00000E+00
 -1      3838 1.20285E+02 1.56973E+01 0.00000E+00
 -1      3839 1.19535E+02 1.69963E+01 0.00000E+00
 -1      3840 1.24785E+02 1.56973E+01 0.00000E+00
 -1      3841 1.23285E+02 1.56973E+01 0.00000E+00
 -1      3842 1.22535E+02 1.69963E+01 0.00000E+00
 -1      3843 1.27785E+02 1.56973E+01 0.00000E+00
 -1      3844 1.26285E+02 1.56973E+01 0.00000E+00
 -1      3845 1.25535E+02 1.69963E+01 0.00000E+00
 -1      3846 1.30785E+02 1.56973E+01 0.00000E+00
 -1      3847 1.29285E+02 1.56973E+01 0.00000E+00
 -1      3848 1.28535E+02 1.69963E+01 0.00000E+00
 -1      3849 1.33008E+02 1.60728E+01 0.00000E+00
 -1      3850 3.32592E+01 2.53377E+01 0.00000E+00
 -1      3851 3.37921E+01 2.36156E+01 0.00000E+00
 -1      3852 3.19456E+01 2.59058E+01 0.00000E+00
 -1      3853 1.42890E+01 2.57125E+01 0.00000E+00
 -1      3854 1.42890E+01 2.71844E+01 0.00000E+00
 -1      3855 1.55880E+01 2.49781E+01 0.00000E+00
 -1      3856 1.62887E+01 3.30573E+01 0.00000E+00
 -1      3857 1.42890E+01 2.86531E+01 0.00000E+00
 -1      3858 1.42890E+01 3.01219E+01 0.00000E+00
 -1      3859 1.55880E+01 2.79188E+01 0.00000E+00
 -1      3860 1.42890E+01 1.68789E+01 0.00000E+00
 -1      3861 1.42890E+01 1.83508E+01 0.00000E+00
 -1      3862 1.55880E+01 1.90852E+01 0.00000E+00
 -1      3863 1.55880E+01 1.61430E+01 0.00000E+00
 -1      3864 2.19000E+01 3.31130E+01 0.00000E+00
 -1      3865 2.34000E+01 3.31130E+01 0.00000E+00
 -1      3866 2.41500E+01 3.18140E+01 0.00000E+00
 -1      3867 7.07850E+01 1.56973E+01 0.00000E+00
 -1      3868 6.92850E+01 1.56973E+01 0.00000E+00
 -1      3869 6.85350E+01 1.69963E+01 0.00000E+00
 -1      3870 1.89000E+01 3.31130E+01 0.00000E+00
 -1      3871 2.04000E+01 3.31130E+01 0.00000E+00
 -1      3872 2.11500E+01 3.18140E+01 0.00000E+00
 -1      3873 1.35763E+02 1.99355E+01 0.00000E+00
 -1      3874 1.34464E+02 1.91980E+01 0.00000E+00
 -1      3875 1.35746E+02 2.13862E+01 0.00000E+00
 -1      3876 3.45773E+01 2.16951E+01 0.00000E+00
 -1      3877 3.53425E+01 2.05480E+01 0.00000E+00
 -1      3878 3.48141E+01 1.91956E+01 0.00000E+00
 -1      3879 6.51862E+01 1.65478E+01 0.00000E+00
 -1      3880 1.32258E+02 1.73718E+01 0.00000E+00
 -1      3881 1.50077E+01 3.05450E+01 0.00000E+00
 -1      3882 2.50350E+01 1.43982E+01 0.00000E+00
 -1      3883 3.11321E+01 2.92608E+01 0.00000E+00
 -1      3884 1.33122E+02 2.57342E+01 0.00000E+00
 -1      3885 1.33139E+02 2.42835E+01 0.00000E+00
 -1      3886 3.17850E+01 1.56973E+01 0.00000E+00
 -1      3887 3.02850E+01 1.56973E+01 0.00000E+00
 -1      3888 6.52262E+01 1.78477E+01 0.00000E+00
 -1      3889 6.63084E+01 1.83380E+01 0.00000E+00
 -1      3890 1.33224E+02 3.27415E+01 0.00000E+00
 -1      3891 1.33224E+02 3.12665E+01 0.00000E+00
 -1      3892 1.31952E+02 3.29721E+01 0.00000E+00
 -1      3893 1.32223E+02 2.02731E+01 0.00000E+00
 -1      3894 1.32241E+02 1.88225E+01 0.00000E+00
 -1      3895 1.30018E+02 1.84469E+01 0.00000E+00
 -1      3896 1.29808E+02 3.35331E+01 0.00000E+00
 -1      3897 1.31080E+02 3.33025E+01 0.00000E+00
 -1      3898 1.31080E+02 3.18275E+01 0.00000E+00
 -1      3899 1.29335E+02 3.24884E+01 0.00000E+00
 -1      3900 2.27850E+01 1.56973E+01 0.00000E+00
 -1      3901 2.12850E+01 1.56973E+01 0.00000E+00
 -1      3902 1.68870E+01 1.83496E+01 0.00000E+00
 -1      3903 1.68870E+01 1.98207E+01 0.00000E+00
 -1      3904 1.34447E+02 2.21112E+01 0.00000E+00
 -1      3905 3.55235E+01 1.66087E+01 0.00000E+00
 -1      3906 3.47022E+01 1.55080E+01 0.00000E+00
 -1      3907 3.32961E+01 1.53108E+01 0.00000E+00
 -1      3908 3.48182E+01 1.71359E+01 0.00000E+00
 -1      3909 1.68870E+01 2.12957E+01 0.00000E+00
 -1      3910 1.68870E+01 2.27707E+01 0.00000E+00
 -1      3911 1.81860E+01 2.05602E+01 0.00000E+00
 -1      3912 6.65190E+01 2.14758E+01 0.00000E+00
 -1      3913 6.76948E+01 2.19383E+01 0.00000E+00
 -1      3914 6.67576E+01 2.01422E+01 0.00000E+00
 -1      3915 6.84833E+01 2.86164E+01 0.00000E+00
 -1      3916 6.86299E+01 2.99375E+01 0.00000E+00
 -1      3917 7.15350E+01 1.69963E+01 0.00000E+00
 -1      3918 6.18470E+01 1.51547E+01 0.00000E+00
 -1      3919 6.90601E+01 3.08558E+01 0.00000E+00
 -1      3920 6.95328E+01 3.19005E+01 0.00000E+00
 -1      3921 7.10328E+01 3.19005E+01 0.00000E+00
 -1      3922 7.01723E+01 3.00638E+01 0.00000E+00
 -1      3923 1.69261E+01 1.42071E+01 0.00000E+00
 -1      3924 6.81903E+01 2.59743E+01 0.00000E+00
 -1      3925 6.83368E+01 2.72953E+01 0.00000E+00
 -1      3926 6.95955E+01 2.78244E+01 0.00000E+00
 -1      3927 1.81628E+01 1.48742E+01 0.00000E+00
 -1      3928 1.68248E+01 1.53390E+01 0.00000E+00
 -1      3929 1.68248E+01 1.68101E+01 0.00000E+00
 -1      3930 1.92983E+01 1.52022E+01 0.00000E+00
 -1      3931 3.25461E+01 1.66098E+01 0.00000E+00
 -1      3932 1.33143E+02 2.68744E+01 0.00000E+00
 -1      3933 1.31852E+02 2.61336E+01 0.00000E+00
 -1      3934 1.33164E+02 2.80146E+01 0.00000E+00
 -1      3935 6.84526E+01 2.48876E+01 0.00000E+00
 -1      3936 6.97113E+01 2.54167E+01 0.00000E+00
 -1      3937 6.87149E+01 2.38009E+01 0.00000E+00
 -1      3938 2.00483E+01 1.65012E+01 0.00000E+00
 -1      3939 1.70387E+01 3.17583E+01 0.00000E+00
 -1      3940 3.32637E+01 2.22632E+01 0.00000E+00
 -1      3941 3.27354E+01 2.09107E+01 0.00000E+00
 -1      3942 3.19502E+01 2.28312E+01 0.00000E+00
 -1      3943 2.89306E+01 3.01811E+01 0.00000E+00
 -1      3944 3.00313E+01 2.97209E+01 0.00000E+00
 -1      3945 3.03119E+01 2.80880E+01 0.00000E+00
 -1      3946 1.33204E+02 3.02106E+01 0.00000E+00
 -1      3947 1.33183E+02 2.90704E+01 0.00000E+00
 -1      3948 1.31893E+02 2.83296E+01 0.00000E+00
 -1      3949 1.31933E+02 3.04412E+01 0.00000E+00
 -1      3950 2.95350E+01 1.69963E+01 0.00000E+00
 -1      3951 2.87850E+01 1.56973E+01 0.00000E+00
 -1      3952 2.72850E+01 1.56973E+01 0.00000E+00
 -1      3953 6.74842E+01 1.88005E+01 0.00000E+00
 -1      3954 7.25328E+01 3.19005E+01 0.00000E+00
 -1      3955 7.40328E+01 3.19005E+01 0.00000E+00
 -1      3956 7.21025E+01 3.09822E+01 0.00000E+00
 -1      3957 7.55328E+01 3.19005E+01 0.00000E+00
 -1      3958 7.70328E+01 3.19005E+01 0.00000E+00
 -1      3959 7.51025E+01 3.09822E+01 0.00000E+00
 -1      3960 7.85328E+01 3.19005E+01 0.00000E+00
 -1      3961 8.00328E+01 3.19005E+01 0.00000E+00
 -1      3962 7.81025E+01 3.09822E+01 0.00000E+00
 -1      3963 8.15328E+01 3.19005E+01 0.00000E+00
 -1      3964 8.30328E+01 3.19005E+01 0.00000E+00
 -1      3965 8.11025E+01 3.09822E+01 0.00000E+00
 -1      3966 8.45328E+01 3.19005E+01 0.00000E+00
 -1      3967 8.60328E+01 3.19005E+01 0.00000E+00
 -1      3968 8.41025E+01 3.09822E+01 0.00000E+00
 -1      3969 8.75328E+01 3.19005E+01 0.00000E+00
 -1      3970 8.90328E+01 3.19005E+01 0.00000E+00
 -1      3971 8.71025E+01 3.09822E+01 0.00000E+00
 -1      3972 9.05328E+01 3.19005E+01 0.00000E+00
 -1      3973 9.20328E+01 3.19005E+01 0.00000E+00
 -1      3974 9.01025E+01 3.09822E+01 0.00000E+00
 -1      3975 9.35328E+01 3.19005E+01 0.00000E+00
 -1      3976 9.50328E+01 3.19005E+01 0.00000E+00
 -1      3977 9.31025E+01 3.09822E+01 0.00000E+00
 -1      3978 9.65328E+01 3.19005E+01 0.00000E+00
 -1      3979 9.80328E+01 3.19005E+01 0.00000E+00
 -1      3980 9.61025E+01 3.09822E+01 0.00000E+00
 -1      3981 9.95328E+01 3.19005E+01 0.00000E+00
 -1      3982 1.01033E+02 3.19005E+01 0.00000E+00
 -1      3983 9.91025E+01 3.09822E+01 0.00000E+00
 -1      3984 1.02533E+02 3.19005E+01 0.00000E+00
 -1      3985 1.04033E+02 3.19005E+01 0.00000E+00
 -1      3986 1.02103E+02 3.09822E+01 0.00000E+00
 -1      3987 1.05533E+02 3.19005E+01 0.00000E+00
 -1      3988 1.07033E+02 3.19005E+01 0.00000E+00
 -1      3989 1.05103E+02 3.09822E+01 0.00000E+00
 -1      3990 1.08533E+02 3.19005E+01 0.00000E+00
 -1      3991 1.10033E+02 3.19005E+01 0.00000E+00
 -1      3992 1.08103E+02 3.09822E+01 0.00000E+00
 -1      3993 1.11533E+02 3.19005E+01 0.00000E+00
 -1      3994 1.13033E+02 3.19005E+01 0.00000E+00
 -1      3995 1.11103E+02 3.09822E+01 0.00000E+00
 -1      3996 1.14533E+02 3.19005E+01 0.00000E+00
 -1      3997 1.16033E+02 3.19005E+01 0.00000E+00
 -1      3998 1.14103E+02 3.09822E+01 0.00000E+00
 -1      3999 1.17533E+02 3.19005E+01 0.00000E+00
 -1      4000 1.19033E+02 3.19005E+01 0.00000E+00
 -1      4001 1.17103E+02 3.09822E+01 0.00000E+00
 -1      4002 1.20533E+02 3.19005E+01 0.00000E+00
 -1      4003 1.22033E+02 3.19005E+01 0.00000E+00
 -1      4004 1.20103E+02 3.09822E+01 0.00000E+00
 -1      4005 1.23533E+02 3.19005E+01 0.00000E+00
 -1      4006 1.25033E+02 3.19005E+01 0.00000E+00
 -1      4007 1.23103E+02 3.09822E+01 0.00000E+00
 -1      4008 1.26533E+02 3.19005E+01 0.00000E+00
 -1      4009 1.28033E+02 3.19005E+01 0.00000E+00
 -1      4010 1.26103E+02 3.09822E+01 0.00000E+00
 -1      4011 2.04000E+01 3.05150E+01 0.00000E+00
 -1      4012 2.19000E+01 3.05150E+01 0.00000E+00
 -1      4013 1.81238E+01 1.75457E+01 0.00000E+00
 -1      4014 1.32681E+02 2.30096E+01 0.00000E+00
 -1      4015 1.32681E+02 2.15471E+01 0.00000E+00
 -1      4016 1.30458E+02 2.11715E+01 0.00000E+00
 -1      4017 1.31374E+02 2.37194E+01 0.00000E+00
 -1      4018 3.40606E+01 1.83590E+01 0.00000E+00
 -1      4019 3.32996E+01 1.74464E+01 0.00000E+00
 -1      4020 3.17885E+01 1.78328E+01 0.00000E+00
 -1      4021 3.32955E+01 1.95060E+01 0.00000E+00
 -1      4022 7.22850E+01 1.82952E+01 0.00000E+00
 -1      4023 7.07850E+01 1.82952E+01 0.00000E+00
 -1      4024 7.52850E+01 1.82952E+01 0.00000E+00
 -1      4025 7.37850E+01 1.82952E+01 0.00000E+00
 -1      4026 7.30350E+01 1.95942E+01 0.00000E+00
 -1      4027 8.42850E+01 1.82952E+01 0.00000E+00
 -1      4028 8.27850E+01 1.82952E+01 0.00000E+00
 -1      4029 8.72850E+01 1.82952E+01 0.00000E+00
 -1      4030 8.57850E+01 1.82952E+01 0.00000E+00
 -1      4031 8.50350E+01 1.95942E+01 0.00000E+00
 -1      4032 9.02850E+01 1.82952E+01 0.00000E+00
 -1      4033 8.87850E+01 1.82952E+01 0.00000E+00
 -1      4034 8.80350E+01 1.95942E+01 0.00000E+00
 -1      4035 9.32850E+01 1.82952E+01 0.00000E+00
 -1      4036 9.17850E+01 1.82952E+01 0.00000E+00
 -1      4037 9.10350E+01 1.95942E+01 0.00000E+00
 -1      4038 9.62850E+01 1.82952E+01 0.00000E+00
 -1      4039 9.47850E+01 1.82952E+01 0.00000E+00
 -1      4040 9.40350E+01 1.95942E+01 0.00000E+00
 -1      4041 9.92850E+01 1.82952E+01 0.00000E+00
 -1      4042 9.77850E+01 1.82952E+01 0.00000E+00
 -1      4043 9.70350E+01 1.95942E+01 0.00000E+00
 -1      4044 1.02285E+02 1.82952E+01 0.00000E+00
 -1      4045 1.00785E+02 1.82952E+01 0.00000E+00
 -1      4046 1.00035E+02 1.95942E+01 0.00000E+00
 -1      4047 1.05285E+02 1.82952E+01 0.00000E+00
 -1      4048 1.03785E+02 1.82952E+01 0.00000E+00
 -1      4049 1.03035E+02 1.95942E+01 0.00000E+00
 -1      4050 1.08285E+02 1.82952E+01 0.00000E+00
 -1      4051 1.06785E+02 1.82952E+01 0.00000E+00
 -1      4052 1.06035E+02 1.95942E+01 0.00000E+00
 -1      4053 1.11285E+02 1.82952E+01 0.00000E+00
 -1      4054 1.09785E+02 1.82952E+01 0.00000E+00
 -1      4055 1.09035E+02 1.95942E+01 0.00000E+00
 -1      4056 1.14285E+02 1.82952E+01 0.00000E+00
 -1      4057 1.12785E+02 1.82952E+01 0.00000E+00
 -1      4058 1.12035E+02 1.95942E+01 0.00000E+00
 -1      4059 1.17285E+02 1.82952E+01 0.00000E+00
 -1      4060 1.15785E+02 1.82952E+01 0.00000E+00
 -1      4061 1.15035E+02 1.95942E+01 0.00000E+00
 -1      4062 1.20285E+02 1.82952E+01 0.00000E+00
 -1      4063 1.18785E+02 1.82952E+01 0.00000E+00
 -1      4064 1.18035E+02 1.95942E+01 0.00000E+00
 -1      4065 1.23285E+02 1.82952E+01 0.00000E+00
 -1      4066 1.21785E+02 1.82952E+01 0.00000E+00
 -1      4067 1.21035E+02 1.95942E+01 0.00000E+00
 -1      4068 1.26285E+02 1.82952E+01 0.00000E+00
 -1      4069 1.24785E+02 1.82952E+01 0.00000E+00
 -1      4070 1.24035E+02 1.95942E+01 0.00000E+00
 -1      4071 1.28518E+02 1.84469E+01 0.00000E+00
 -1      4072 2.42850E+01 1.56973E+01 0.00000E+00
 -1      4073 2.35350E+01 1.69963E+01 0.00000E+00
 -1      4074 2.57850E+01 1.56973E+01 0.00000E+00
 -1      4075 3.05398E+01 2.64142E+01 0.00000E+00
 -1      4076 3.10727E+01 2.46921E+01 0.00000E+00
 -1      4077 8.12850E+01 1.82952E+01 0.00000E+00
 -1      4078 7.97850E+01 1.82952E+01 0.00000E+00
 -1      4079 8.20350E+01 1.95942E+01 0.00000E+00
 -1      4080 1.68870E+01 2.42426E+01 0.00000E+00
 -1      4081 1.68870E+01 2.57145E+01 0.00000E+00
 -1      4082 1.81860E+01 2.35070E+01 0.00000E+00
 -1      4083 2.59306E+01 3.01811E+01 0.00000E+00
 -1      4084 2.74306E+01 3.01811E+01 0.00000E+00
 -1      4085 2.77111E+01 2.85481E+01 0.00000E+00
 -1      4086 1.68870E+01 2.71832E+01 0.00000E+00
 -1      4087 1.68870E+01 2.86520E+01 0.00000E+00
 -1      4088 1.81860E+01 2.64477E+01 0.00000E+00
 -1      4089 2.31653E+01 3.03480E+01 0.00000E+00
 -1      4090 2.46653E+01 3.03480E+01 0.00000E+00
 -1      4091 2.49458E+01 2.87151E+01 0.00000E+00
 -1      4092 2.24153E+01 2.90490E+01 0.00000E+00
 -1      4093 7.82850E+01 1.82952E+01 0.00000E+00
 -1      4094 7.67850E+01 1.82952E+01 0.00000E+00
 -1      4095 7.90350E+01 1.95942E+01 0.00000E+00
 -1      4096 6.89842E+01 1.88005E+01 0.00000E+00
 -1      4097 7.08133E+01 2.70206E+01 0.00000E+00
 -1      4098 7.09598E+01 2.83417E+01 0.00000E+00
 -1      4099 2.01105E+01 1.80407E+01 0.00000E+00
 -1      4100 2.16924E+01 1.86602E+01 0.00000E+00
 -1      4101 1.97679E+01 1.97046E+01 0.00000E+00
 -1      4102 7.60350E+01 1.95942E+01 0.00000E+00
 -1      4103 3.02850E+01 1.82952E+01 0.00000E+00
 -1      4104 2.87850E+01 1.82952E+01 0.00000E+00
 -1      4105 2.65350E+01 1.69963E+01 0.00000E+00
 -1      4106 3.19819E+01 2.00741E+01 0.00000E+00
 -1      4107 1.28905E+02 3.15701E+01 0.00000E+00
 -1      4108 1.29777E+02 3.12396E+01 0.00000E+00
 -1      4109 1.28475E+02 3.06517E+01 0.00000E+00
 -1      4110 1.89180E+01 2.98652E+01 0.00000E+00
 -1      4111 1.96680E+01 2.85662E+01 0.00000E+00
 -1      4112 1.97679E+01 2.11796E+01 0.00000E+00
 -1      4113 1.30380E+02 2.47957E+01 0.00000E+00
 -1      4114 1.29922E+02 2.35217E+01 0.00000E+00
 -1      4115 1.27768E+02 1.97459E+01 0.00000E+00
 -1      4116 2.94390E+01 2.68744E+01 0.00000E+00
 -1      4117 1.76190E+01 3.06007E+01 0.00000E+00
 -1      4118 6.97342E+01 2.00995E+01 0.00000E+00
 -1      4119 7.13161E+01 2.92028E+01 0.00000E+00
 -1      4120 7.17463E+01 3.01211E+01 0.00000E+00
 -1      4121 7.32463E+01 3.01211E+01 0.00000E+00
 -1      4122 7.25339E+01 2.83990E+01 0.00000E+00
 -1      4123 3.05443E+01 2.33397E+01 0.00000E+00
 -1      4124 2.46924E+01 1.86602E+01 0.00000E+00
 -1      4125 2.31924E+01 1.86602E+01 0.00000E+00
 -1      4126 2.28497E+01 2.03241E+01 0.00000E+00
 -1      4127 7.13380E+01 2.48473E+01 0.00000E+00
 -1      4128 7.10756E+01 2.59340E+01 0.00000E+00
 -1      4129 7.24400E+01 2.64513E+01 0.00000E+00
 -1      4130 1.30422E+02 2.70761E+01 0.00000E+00
 -1      4131 1.30401E+02 2.59359E+01 0.00000E+00
 -1      4132 1.28950E+02 2.57382E+01 0.00000E+00
 -1      4133 3.10385E+01 1.91318E+01 0.00000E+00
 -1      4134 2.74887E+01 1.84777E+01 0.00000E+00
 -1      4135 2.59887E+01 1.84777E+01 0.00000E+00
 -1      4136 2.56460E+01 2.01416E+01 0.00000E+00
 -1      4137 2.82387E+01 1.97767E+01 0.00000E+00
 -1      4138 6.85889E+01 2.23389E+01 0.00000E+00
 -1      4139 6.98476E+01 2.28679E+01 0.00000E+00
 -1      4140 1.30650E+02 3.09092E+01 0.00000E+00
 -1      4141 7.47463E+01 3.01211E+01 0.00000E+00
 -1      4142 7.62463E+01 3.01211E+01 0.00000E+00
 -1      4143 7.43901E+01 2.92601E+01 0.00000E+00
 -1      4144 7.77463E+01 3.01211E+01 0.00000E+00
 -1      4145 7.92463E+01 3.01211E+01 0.00000E+00
 -1      4146 7.73901E+01 2.92601E+01 0.00000E+00
 -1      4147 8.07463E+01 3.01211E+01 0.00000E+00
 -1      4148 8.22463E+01 3.01211E+01 0.00000E+00
 -1      4149 8.03901E+01 2.92601E+01 0.00000E+00
 -1      4150 8.37463E+01 3.01211E+01 0.00000E+00
 -1      4151 8.52463E+01 3.01211E+01 0.00000E+00
 -1      4152 8.33901E+01 2.92601E+01 0.00000E+00
 -1      4153 8.67463E+01 3.01211E+01 0.00000E+00
 -1      4154 8.82463E+01 3.01211E+01 0.00000E+00
 -1      4155 8.63901E+01 2.92601E+01 0.00000E+00
 -1      4156 8.97463E+01 3.01211E+01 0.00000E+00
 -1      4157 9.12463E+01 3.01211E+01 0.00000E+00
 -1      4158 8.93901E+01 2.92601E+01 0.00000E+00
 -1      4159 9.27463E+01 3.01211E+01 0.00000E+00
 -1      4160 9.42463E+01 3.01211E+01 0.00000E+00
 -1      4161 9.23901E+01 2.92601E+01 0.00000E+00
 -1      4162 9.57463E+01 3.01211E+01 0.00000E+00
 -1      4163 9.72463E+01 3.01211E+01 0.00000E+00
 -1      4164 9.53901E+01 2.92601E+01 0.00000E+00
 -1      4165 9.87463E+01 3.01211E+01 0.00000E+00
 -1      4166 1.00246E+02 3.01211E+01 0.00000E+00
 -1      4167 9.83901E+01 2.92601E+01 0.00000E+00
 -1      4168 1.01746E+02 3.01211E+01 0.00000E+00
 -1      4169 1.03246E+02 3.01211E+01 0.00000E+00
 -1      4170 1.01390E+02 2.92601E+01 0.00000E+00
 -1      4171 1.04746E+02 3.01211E+01 0.00000E+00
 -1      4172 1.06246E+02 3.01211E+01 0.00000E+00
 -1      4173 1.04390E+02 2.92601E+01 0.00000E+00
 -1      4174 1.07746E+02 3.01211E+01 0.00000E+00
 -1      4175 1.09246E+02 3.01211E+01 0.00000E+00
 -1      4176 1.07390E+02 2.92601E+01 0.00000E+00
 -1      4177 1.10746E+02 3.01211E+01 0.00000E+00
 -1      4178 1.12246E+02 3.01211E+01 0.00000E+00
 -1      4179 1.10390E+02 2.92601E+01 0.00000E+00
 -1      4180 1.13746E+02 3.01211E+01 0.00000E+00
 -1      4181 1.15246E+02 3.01211E+01 0.00000E+00
 -1      4182 1.13390E+02 2.92601E+01 0.00000E+00
 -1      4183 1.16746E+02 3.01211E+01 0.00000E+00
 -1      4184 1.18246E+02 3.01211E+01 0.00000E+00
 -1      4185 1.16390E+02 2.92601E+01 0.00000E+00
 -1      4186 1.19746E+02 3.01211E+01 0.00000E+00
 -1      4187 1.21246E+02 3.01211E+01 0.00000E+00
 -1      4188 1.19390E+02 2.92601E+01 0.00000E+00
 -1      4189 1.22746E+02 3.01211E+01 0.00000E+00
 -1      4190 1.24246E+02 3.01211E+01 0.00000E+00
 -1      4191 1.22390E+02 2.92601E+01 0.00000E+00
 -1      4192 1.25746E+02 3.01211E+01 0.00000E+00
 -1      4193 1.27246E+02 3.01211E+01 0.00000E+00
 -1      4194 1.25390E+02 2.92601E+01 0.00000E+00
 -1      4195 2.13497E+01 2.17960E+01 0.00000E+00
 -1      4196 1.97679E+01 2.26515E+01 0.00000E+00
 -1      4197 1.97679E+01 2.41234E+01 0.00000E+00
 -1      4198 3.04784E+01 2.05365E+01 0.00000E+00
 -1      4199 1.28796E+02 2.11177E+01 0.00000E+00
 -1      4200 1.26563E+02 2.09661E+01 0.00000E+00
 -1      4201 6.88275E+01 2.10053E+01 0.00000E+00
 -1      4202 9.17850E+01 2.08932E+01 0.00000E+00
 -1      4203 9.02850E+01 2.08932E+01 0.00000E+00
 -1      4204 1.95596E+01 2.74234E+01 0.00000E+00
 -1      4205 2.10416E+01 2.80732E+01 0.00000E+00
 -1      4206 2.23069E+01 2.79063E+01 0.00000E+00
 -1      4207 1.95596E+01 2.59547E+01 0.00000E+00
 -1      4208 1.29254E+02 2.23917E+01 0.00000E+00
 -1      4209 7.37850E+01 2.08932E+01 0.00000E+00
 -1      4210 7.22850E+01 2.08932E+01 0.00000E+00
 -1      4211 8.87850E+01 2.08932E+01 0.00000E+00
 -1      4212 8.72850E+01 2.08932E+01 0.00000E+00
 -1      4213 8.95350E+01 2.21922E+01 0.00000E+00
 -1      4214 8.57850E+01 2.08932E+01 0.00000E+00
 -1      4215 8.42850E+01 2.08932E+01 0.00000E+00
 -1      4216 8.65350E+01 2.21922E+01 0.00000E+00
 -1      4217 9.47850E+01 2.08932E+01 0.00000E+00
 -1      4218 9.32850E+01 2.08932E+01 0.00000E+00
 -1      4219 9.25350E+01 2.21922E+01 0.00000E+00
 -1      4220 9.77850E+01 2.08932E+01 0.00000E+00
 -1      4221 9.62850E+01 2.08932E+01 0.00000E+00
 -1      4222 9.55350E+01 2.21922E+01 0.00000E+00
 -1      4223 1.00785E+02 2.08932E+01 0.00000E+00
 -1      4224 9.92850E+01 2.08932E+01 0.00000E+00
 -1      4225 9.85350E+01 2.21922E+01 0.00000E+00
 -1      4226 1.03785E+02 2.08932E+01 0.00000E+00
 -1      4227 1.02285E+02 2.08932E+01 0.00000E+00
 -1      4228 1.01535E+02 2.21922E+01 0.00000E+00
 -1      4229 1.06785E+02 2.08932E+01 0.00000E+00
 -1      4230 1.05285E+02 2.08932E+01 0.00000E+00
 -1      4231 1.04535E+02 2.21922E+01 0.00000E+00
 -1      4232 1.09785E+02 2.08932E+01 0.00000E+00
 -1      4233 1.08285E+02 2.08932E+01 0.00000E+00
 -1      4234 1.07535E+02 2.21922E+01 0.00000E+00
 -1      4235 1.12785E+02 2.08932E+01 0.00000E+00
 -1      4236 1.11285E+02 2.08932E+01 0.00000E+00
 -1      4237 1.10535E+02 2.21922E+01 0.00000E+00
 -1      4238 1.15785E+02 2.08932E+01 0.00000E+00
 -1      4239 1.14285E+02 2.08932E+01 0.00000E+00
 -1      4240 1.13535E+02 2.21922E+01 0.00000E+00
 -1      4241 1.18785E+02 2.08932E+01 0.00000E+00
 -1      4242 1.17285E+02 2.08932E+01 0.00000E+00
 -1      4243 1.16535E+02 2.21922E+01 0.00000E+00
 -1      4244 1.21785E+02 2.08932E+01 0.00000E+00
 -1      4245 1.20285E+02 2.08932E+01 0.00000E+00
 -1      4246 1.19535E+02 2.21922E+01 0.00000E+00
 -1      4247 1.24785E+02 2.08932E+01 0.00000E+00
 -1      4248 1.23285E+02 2.08932E+01 0.00000E+00
 -1      4249 1.22535E+02 2.21922E+01 0.00000E+00
 -1      4250 2.79390E+01 2.68744E+01 0.00000E+00
 -1      4251 2.81668E+01 2.52006E+01 0.00000E+00
 -1      4252 2.64390E+01 2.68744E+01 0.00000E+00
 -1      4253 8.27850E+01 2.08932E+01 0.00000E+00
 -1      4254 8.12850E+01 2.08932E+01 0.00000E+00
 -1      4255 8.35350E+01 2.21922E+01 0.00000E+00
 -1      4256 2.98632E+01 2.20293E+01 0.00000E+00
 -1      4257 2.89198E+01 2.10871E+01 0.00000E+00
 -1      4258 2.76235E+01 2.12695E+01 0.00000E+00
 -1      4259 2.89857E+01 2.38902E+01 0.00000E+00
 -1      4260 7.97850E+01 2.08932E+01 0.00000E+00
 -1      4261 7.82850E+01 2.08932E+01 0.00000E+00
 -1      4262 8.05350E+01 2.21922E+01 0.00000E+00
 -1      4263 1.28260E+02 2.34679E+01 0.00000E+00
 -1      4264 7.67850E+01 2.08932E+01 0.00000E+00
 -1      4265 7.52850E+01 2.08932E+01 0.00000E+00
 -1      4266 7.75350E+01 2.21922E+01 0.00000E+00
 -1      4267 1.30630E+02 2.98533E+01 0.00000E+00
 -1      4268 1.28119E+02 2.97907E+01 0.00000E+00
 -1      4269 1.30536E+02 2.89926E+01 0.00000E+00
 -1      4270 1.30516E+02 2.79368E+01 0.00000E+00
 -1      4271 1.29065E+02 2.77391E+01 0.00000E+00
 -1      4272 1.29253E+02 2.94605E+01 0.00000E+00
 -1      4273 2.28497E+01 2.17960E+01 0.00000E+00
 -1      4274 2.11415E+01 2.50992E+01 0.00000E+00
 -1      4275 7.10788E+01 2.20254E+01 0.00000E+00
 -1      4276 7.12048E+01 2.34874E+01 0.00000E+00
 -1      4277 7.45350E+01 2.21922E+01 0.00000E+00
 -1      4278 2.74857E+01 2.38902E+01 0.00000E+00
 -1      4279 1.25813E+02 2.22651E+01 0.00000E+00
 -1      4280 7.32369E+01 2.74252E+01 0.00000E+00
 -1      4281 7.35932E+01 2.82862E+01 0.00000E+00
 -1      4282 7.50932E+01 2.82862E+01 0.00000E+00
 -1      4283 7.34993E+01 2.63385E+01 0.00000E+00
 -1      4284 1.27150E+02 2.45251E+01 0.00000E+00
 -1      4285 1.26482E+02 2.33951E+01 0.00000E+00
 -1      4286 1.24704E+02 2.33223E+01 0.00000E+00
 -1      4287 2.37403E+01 2.74738E+01 0.00000E+00
 -1      4288 2.50056E+01 2.73068E+01 0.00000E+00
 -1      4289 2.52334E+01 2.56331E+01 0.00000E+00
 -1      4290 2.23667E+01 2.64980E+01 0.00000E+00
 -1      4291 7.25692E+01 2.40047E+01 0.00000E+00
 -1      4292 1.27192E+02 2.68055E+01 0.00000E+00
 -1      4293 1.27171E+02 2.56653E+01 0.00000E+00
 -1      4294 1.25393E+02 2.55925E+01 0.00000E+00
 -1      4295 2.58848E+01 2.14415E+01 0.00000E+00
 -1      4296 2.45884E+01 2.16240E+01 0.00000E+00
 -1      4297 2.30884E+01 2.30959E+01 0.00000E+00
 -1      4298 2.65659E+01 2.27519E+01 0.00000E+00
 -1      4299 1.28025E+02 2.89299E+01 0.00000E+00
 -1      4300 7.66401E+01 2.79611E+01 0.00000E+00
 -1      4301 7.81401E+01 2.79611E+01 0.00000E+00
 -1      4302 7.96401E+01 2.79611E+01 0.00000E+00
 -1      4303 8.11401E+01 2.79611E+01 0.00000E+00
 -1      4304 7.88901E+01 2.66621E+01 0.00000E+00
 -1      4305 8.26401E+01 2.79611E+01 0.00000E+00
 -1      4306 8.41401E+01 2.79611E+01 0.00000E+00
 -1      4307 8.18901E+01 2.66621E+01 0.00000E+00
 -1      4308 8.56401E+01 2.79611E+01 0.00000E+00
 -1      4309 8.71401E+01 2.79611E+01 0.00000E+00
 -1      4310 8.48901E+01 2.66621E+01 0.00000E+00
 -1      4311 8.86401E+01 2.79611E+01 0.00000E+00
 -1      4312 9.01401E+01 2.79611E+01 0.00000E+00
 -1      4313 8.78901E+01 2.66621E+01 0.00000E+00
 -1      4314 9.16401E+01 2.79611E+01 0.00000E+00
 -1      4315 9.31401E+01 2.79611E+01 0.00000E+00
 -1      4316 9.08901E+01 2.66621E+01 0.00000E+00
 -1      4317 9.46401E+01 2.79611E+01 0.00000E+00
 -1      4318 9.61401E+01 2.79611E+01 0.00000E+00
 -1      4319 9.38901E+01 2.66621E+01 0.00000E+00
 -1      4320 9.76401E+01 2.79611E+01 0.00000E+00
 -1      4321 9.91401E+01 2.79611E+01 0.00000E+00
 -1      4322 9.68901E+01 2.66621E+01 0.00000E+00
 -1      4323 1.00640E+02 2.79611E+01 0.00000E+00
 -1      4324 1.02140E+02 2.79611E+01 0.00000E+00
 -1      4325 9.98901E+01 2.66621E+01 0.00000E+00
 -1      4326 1.03640E+02 2.79611E+01 0.00000E+00
 -1      4327 1.05140E+02 2.79611E+01 0.00000E+00
 -1      4328 1.02890E+02 2.66621E+01 0.00000E+00
 -1      4329 1.06640E+02 2.79611E+01 0.00000E+00
 -1      4330 1.08140E+02 2.79611E+01 0.00000E+00
 -1      4331 1.05890E+02 2.66621E+01 0.00000E+00
 -1      4332 1.09640E+02 2.79611E+01 0.00000E+00
 -1      4333 1.11140E+02 2.79611E+01 0.00000E+00
 -1      4334 1.08890E+02 2.66621E+01 0.00000E+00
 -1      4335 1.12640E+02 2.79611E+01 0.00000E+00
 -1      4336 1.14140E+02 2.79611E+01 0.00000E+00
 -1      4337 1.11890E+02 2.66621E+01 0.00000E+00
 -1      4338 1.15640E+02 2.79611E+01 0.00000E+00
 -1      4339 1.17140E+02 2.79611E+01 0.00000E+00
 -1      4340 1.14890E+02 2.66621E+01 0.00000E+00
 -1      4341 1.18640E+02 2.79611E+01 0.00000E+00
 -1      4342 1.20140E+02 2.79611E+01 0.00000E+00
 -1      4343 1.17890E+02 2.66621E+01 0.00000E+00
 -1      4344 1.21640E+02 2.79611E+01 0.00000E+00
 -1      4345 1.23140E+02 2.79611E+01 0.00000E+00
 -1      4346 1.20890E+02 2.66621E+01 0.00000E+00
 -1      4347 1.24652E+02 2.79964E+01 0.00000E+00
 -1      4348 1.26152E+02 2.79964E+01 0.00000E+00
 -1      4349 7.06283E+01 2.05001E+01 0.00000E+00
 -1      4350 9.62125E+01 2.44272E+01 0.00000E+00
 -1      4351 9.47125E+01 2.44272E+01 0.00000E+00
 -1      4352 9.32125E+01 2.44272E+01 0.00000E+00
 -1      4353 9.17125E+01 2.44272E+01 0.00000E+00
 -1      4354 8.72125E+01 2.44272E+01 0.00000E+00
 -1      4355 8.57125E+01 2.44272E+01 0.00000E+00
 -1      4356 9.92125E+01 2.44272E+01 0.00000E+00
 -1      4357 9.77125E+01 2.44272E+01 0.00000E+00
 -1      4358 1.02213E+02 2.44272E+01 0.00000E+00
 -1      4359 1.00713E+02 2.44272E+01 0.00000E+00
 -1      4360 1.05213E+02 2.44272E+01 0.00000E+00
 -1      4361 1.03713E+02 2.44272E+01 0.00000E+00
 -1      4362 1.08213E+02 2.44272E+01 0.00000E+00
 -1      4363 1.06713E+02 2.44272E+01 0.00000E+00
 -1      4364 1.11213E+02 2.44272E+01 0.00000E+00
 -1      4365 1.09713E+02 2.44272E+01 0.00000E+00
 -1      4366 1.14213E+02 2.44272E+01 0.00000E+00
 -1      4367 1.12713E+02 2.44272E+01 0.00000E+00
 -1      4368 1.17213E+02 2.44272E+01 0.00000E+00
 -1      4369 1.15713E+02 2.44272E+01 0.00000E+00
 -1      4370 1.20213E+02 2.44272E+01 0.00000E+00
 -1      4371 1.18713E+02 2.44272E+01 0.00000E+00
 -1      4372 1.23213E+02 2.44272E+01 0.00000E+00
 -1      4373 1.21713E+02 2.44272E+01 0.00000E+00
 -1      4374 8.42125E+01 2.44272E+01 0.00000E+00
 -1      4375 8.27125E+01 2.44272E+01 0.00000E+00
 -1      4376 2.57470E+01 2.40622E+01 0.00000E+00
 -1      4377 9.02125E+01 2.44272E+01 0.00000E+00
 -1      4378 8.87125E+01 2.44272E+01 0.00000E+00
 -1      4379 2.25749E+01 2.46667E+01 0.00000E+00
 -1      4380 7.82125E+01 2.44272E+01 0.00000E+00
 -1      4381 7.67125E+01 2.44272E+01 0.00000E+00
 -1      4382 8.12125E+01 2.44272E+01 0.00000E+00
 -1      4383 7.97125E+01 2.44272E+01 0.00000E+00
 -1      4384 7.19855E+01 2.11196E+01 0.00000E+00
 -1      4385 7.58432E+01 2.69872E+01 0.00000E+00
 -1      4386 2.43136E+01 2.44947E+01 0.00000E+00
 -1      4387 1.23902E+02 2.66974E+01 0.00000E+00
 -1      4388 7.37954E+01 2.31982E+01 0.00000E+00
 -1      4389 7.39286E+01 2.45581E+01 0.00000E+00
 -1      4390 7.47255E+01 2.55320E+01 0.00000E+00
 -1      4391 1.23881E+02 2.55572E+01 0.00000E+00
 -1      4392 1.27930E+02 2.80692E+01 0.00000E+00
 -1      4393 7.55949E+01 2.29719E+01 0.00000E+00
 -1      4394 7.40949E+01 2.29719E+01 0.00000E+00
 -1      4395 7.62724E+01 2.52068E+01 0.00000E+00
 -1      4396 7.27355E+01 2.24186E+01 0.00000E+00
 -3
    3C                          2116                                     1
 -1       165    8    0    1
 -2         6         7        23      1141      1305      1158
 -1       166    8    0    1
 -2         7         8       165      1142      1306      1307
 -1       167    8    0    1
 -2         8         9       166      1143      1308      1309
 -1       168    8    0    1
 -2         8       166       165      1309      1310      1306
 -1       169    8    0    1
 -2         9        10       167      1144      1311      1312
 -1       170    8    0    1
 -2         9       167       166      1312      1313      1308
 -1       171    8    0    1
 -2        10        11       168      1145      1314      1315
 -1       172    8    0    1
 -2        10       168       167      1315      1316      1311
 -1       173    8    0    1
 -2        11        12       169      1146      1317      1318
 -1       174    8    0    1
 -2        11       169       168      1318      1319      1314
 -1       175    8    0    1
 -2        12        13       170      1147      1320      1321
 -1       176    8    0    1
 -2        12       170       169      1321      1322      1317
 -1       177    8    0    1
 -2        13        14       171      1148      1323      1324
 -1       178    8    0    1
 -2        13       171       170      1324      1325      1320
 -1       179    8    0    1
 -2        14        15       172      1149      1326      1327
 -1       180    8    0    1
 -2        14       172       171      1327      1328      1323
 -1       181    8    0    1
 -2        15        16       173      1150      1329      1330
 -1       182    8    0    1
 -2        15       173       172      1330      1331      1326
 -1       183    8    0    1
 -2        16        17       174      1151      1332      1333
 -1       184    8    0    1
 -2        16       174       173      1333      1334      1329
 -1       185    8    0    1
 -2        17        18       175      1152      1335      1336
 -1       186    8    0    1
 -2        17       175       174      1336      1337      1332
 -1       187    8    0    1
 -2        18        19       176      1153      1338      1339
 -1       188    8    0    1
 -2        18       176       175      1339      1340      1335
 -1       189    8    0    1
 -2        19        20       177      1154      1341      1342
 -1       190    8    0    1
 -2        19       177       176      1342      1343      1338
 -1       191    8    0    1
 -2        20        21       178      1155      1344      1345
 -1       192    8    0    1
 -2        20       178       177      1345      1346      1341
 -1       193    8    0    1
 -2        21        22       179      1156      1347      1348
 -1       194    8    0    1
 -2        21       179       178      1348      1349      1344
 -1       195    8    0    1
 -2        22         5       180      1157      1350      1351
 -1       196    8    0    1
 -2       179        22       180      1347      1351      1352
 -1       197    8    0    1
 -2         5        72       180      1208      1353      1350
 -1       198    8    0    1
 -2        24        23       181      1159      1354      1355
 -1       199    8    0    1
 -2        25        24       182      1160      1356      1357
 -1       200    8    0    1
 -2        24       181       182      1355      1358      1356
 -1       201    8    0    1
 -2        26        25       183      1161      1359      1360
 -1       202    8    0    1
 -2        25       182       183      1357      1361      1359
 -1       203    8    0    1
 -2        27        26       184      1162      1362      1363
 -1       204    8    0    1
 -2        26       183       184      1360      1364      1362
 -1       205    8    0    1
 -2        28        27       185      1163      1365      1366
 -1       206    8    0    1
 -2        27       184       185      1363      1367      1365
 -1       207    8    0    1
 -2        29        28       186      1164      1368      1369
 -1       208    8    0    1
 -2        28       185       186      1366      1370      1368
 -1       209    8    0    1
 -2        30        29       187      1165      1371      1372
 -1       210    8    0    1
 -2        29       186       187      1369      1373      1371
 -1       211    8    0    1
 -2        31        30       188      1166      1374      1375
 -1       212    8    0    1
 -2        30       187       188      1372      1376      1374
 -1       213    8    0    1
 -2        32        31       189      1167      1377      1378
 -1       214    8    0    1
 -2        31       188       189      1375      1379      1377
 -1       215    8    0    1
 -2        33        32       190      1168      1380      1381
 -1       216    8    0    1
 -2        32       189       190      1378      1382      1380
 -1       217    8    0    1
 -2        34        33       191      1169      1383      1384
 -1       218    8    0    1
 -2        33       190       191      1381      1385      1383
 -1       219    8    0    1
 -2        35        34       192      1170      1386      1387
 -1       220    8    0    1
 -2        34       191       192      1384      1388      1386
 -1       221    8    0    1
 -2        36        35       193      1171      1389      1390
 -1       222    8    0    1
 -2        35       192       193      1387      1391      1389
 -1       223    8    0    1
 -2        37        36       194      1172      1392      1393
 -1       224    8    0    1
 -2        36       193       194      1390      1394      1392
 -1       225    8    0    1
 -2        38        37       195      1173      1395      1396
 -1       226    8    0    1
 -2        37       194       195      1393      1397      1395
 -1       227    8    0    1
 -2        39        38       196      1174      1398      1399
 -1       228    8    0    1
 -2        38       195       196      1396      1400      1398
 -1       229    8    0    1
 -2        40        39       197      1175      1401      1402
 -1       230    8    0    1
 -2        39       196       197      1399      1403      1401
 -1       231    8    0    1
 -2        41        40       198      1176      1404      1405
 -1       232    8    0    1
 -2        40       197       198      1402      1406      1404
 -1       233    8    0    1
 -2        42        41       199      1177      1407      1408
 -1       234    8    0    1
 -2        41       198       199      1405      1409      1407
 -1       235    8    0    1
 -2        43        42       200      1178      1410      1411
 -1       236    8    0    1
 -2        42       199       200      1408      1412      1410
 -1       237    8    0    1
 -2        44        43       201      1179      1413      1414
 -1       238    8    0    1
 -2        43       200       201      1411      1415      1413
 -1       239    8    0    1
 -2        45        44       202      1180      1416      1417
 -1       240    8    0    1
 -2        44       201       202      1414      1418      1416
 -1       241    8    0    1
 -2        46        45       203      1181      1419      1420
 -1       242    8    0    1
 -2        45       202       203      1417      1421      1419
 -1       243    8    0    1
 -2        47        46       204      1182      1422      1423
 -1       244    8    0    1
 -2        46       203       204      1420      1424      1422
 -1       245    8    0    1
 -2        48        47       205      1183      1425      1426
 -1       246    8    0    1
 -2        47       204       205      1423      1427      1425
 -1       247    8    0    1
 -2        49        48       206      1184      1428      1429
 -1       248    8    0    1
 -2        48       205       206      1426      1430      1428
 -1       249    8    0    1
 -2        50        49       207      1185      1431      1432
 -1       250    8    0    1
 -2        49       206       207      1429      1433      1431
 -1       251    8    0    1
 -2        51        50       208      1186      1434      1435
 -1       252    8    0    1
 -2        50       207       208      1432      1436      1434
 -1       253    8    0    1
 -2        52        51       209      1187      1437      1438
 -1       254    8    0    1
 -2        51       208       209      1435      1439      1437
 -1       255    8    0    1
 -2        53        52       210      1188      1440      1441
 -1       256    8    0    1
 -2        52       209       210      1438      1442      1440
 -1       257    8    0    1
 -2        54        53       211      1189      1443      1444
 -1       258    8    0    1
 -2        53       210       211      1441      1445      1443
 -1       259    8    0    1
 -2        55        54       212      1190      1446      1447
 -1       260    8    0    1
 -2        54       211       212      1444      1448      1446
 -1       261    8    0    1
 -2        56        55       213      1191      1449      1450
 -1       262    8    0    1
 -2        55       212       213      1447      1451      1449
 -1       263    8    0    1
 -2        57        56       214      1192      1452      1453
 -1       264    8    0    1
 -2        56       213       214      1450      1454      1452
 -1       265    8    0    1
 -2        58        57       215      1193      1455      1456
 -1       266    8    0    1
 -2        57       214       215      1453      1457      1455
 -1       267    8    0    1
 -2        59        58       216      1194      1458      1459
 -1       268    8    0    1
 -2        58       215       216      1456      1460      1458
 -1       269    8    0    1
 -2        60        59       217      1195      1461      1462
 -1       270    8    0    1
 -2        59       216       217      1459      1463      1461
 -1       271    8    0    1
 -2        61        60       218      1196      1464      1465
 -1       272    8    0    1
 -2        60       217       218      1462      1466      1464
 -1       273    8    0    1
 -2        62        61       219      1197      1467      1468
 -1       274    8    0    1
 -2        61       218       219      1465      1469      1467
 -1       275    8    0    1
 -2        63        62       220      1198      1470      1471
 -1       276    8    0    1
 -2        62       219       220      1468      1472      1470
 -1       277    8    0    1
 -2        64        63       221      1199      1473      1474
 -1       278    8    0    1
 -2        63       220       221      1471      1475      1473
 -1       279    8    0    1
 -2        65        64       222      1200      1476      1477
 -1       280    8    0    1
 -2        64       221       222      1474      1478      1476
 -1       281    8    0    1
 -2        66        65       223      1201      1479      1480
 -1       282    8    0    1
 -2        65       222       223      1477      1481      1479
 -1       283    8    0    1
 -2        67        66       224      1202      1482      1483
 -1       284    8    0    1
 -2        66       223       224      1480      1484      1482
 -1       285    8    0    1
 -2        68        67       225      1203      1485      1486
 -1       286    8    0    1
 -2        67       224       225      1483      1487      1485
 -1       287    8    0    1
 -2        69        68       226      1204      1488      1489
 -1       288    8    0    1
 -2        68       225       226      1486      1490      1488
 -1       289    8    0    1
 -2        70        69       227      1205      1491      1492
 -1       290    8    0    1
 -2        69       226       227      1489      1493      1491
 -1       291    8    0    1
 -2        71        70       228      1206      1494      1495
 -1       292    8    0    1
 -2        70       227       228      1492      1496      1494
 -1       293    8    0    1
 -2         4        71       136      1207      1497      1274
 -1       294    8    0    1
 -2       136        71       228      1497      1495      1498
 -1       295    8    0    1
 -2        72        73       229      1209      1499      1500
 -1       296    8    0    1
 -2        72       229       180      1500      1501      1353
 -1       297    8    0    1
 -2        73        74       230      1210      1502      1503
 -1       298    8    0    1
 -2        73       230       229      1503      1504      1499
 -1       299    8    0    1
 -2        74        75       231      1211      1505      1506
 -1       300    8    0    1
 -2        74       231       230      1506      1507      1502
 -1       301    8    0    1
 -2        75        76       232      1212      1508      1509
 -1       302    8    0    1
 -2        75       232       231      1509      1510      1505
 -1       303    8    0    1
 -2        76        77       233      1213      1511      1512
 -1       304    8    0    1
 -2        76       233       232      1512      1513      1508
 -1       305    8    0    1
 -2        77        78       234      1214      1514      1515
 -1       306    8    0    1
 -2        77       234       233      1515      1516      1511
 -1       307    8    0    1
 -2        78        79       235      1215      1517      1518
 -1       308    8    0    1
 -2        78       235       234      1518      1519      1514
 -1       309    8    0    1
 -2        79        80       236      1216      1520      1521
 -1       310    8    0    1
 -2        79       236       235      1521      1522      1517
 -1       311    8    0    1
 -2        80        81       237      1217      1523      1524
 -1       312    8    0    1
 -2        80       237       236      1524      1525      1520
 -1       313    8    0    1
 -2        81        82       238      1218      1526      1527
 -1       314    8    0    1
 -2        81       238       237      1527      1528      1523
 -1       315    8    0    1
 -2        82        83       239      1219      1529      1530
 -1       316    8    0    1
 -2        82       239       238      1530      1531      1526
 -1       317    8    0    1
 -2        83        84       240      1220      1532      1533
 -1       318    8    0    1
 -2        83       240       239      1533      1534      1529
 -1       319    8    0    1
 -2        84        85       241      1221      1535      1536
 -1       320    8    0    1
 -2        84       241       240      1536      1537      1532
 -1       321    8    0    1
 -2        85        86       242      1222      1538      1539
 -1       322    8    0    1
 -2        85       242       241      1539      1540      1535
 -1       323    8    0    1
 -2        86        87       243      1223      1541      1542
 -1       324    8    0    1
 -2        86       243       242      1542      1543      1538
 -1       325    8    0    1
 -2        87        88       244      1224      1544      1545
 -1       326    8    0    1
 -2        87       244       243      1545      1546      1541
 -1       327    8    0    1
 -2        88        89       245      1225      1547      1548
 -1       328    8    0    1
 -2        88       245       244      1548      1549      1544
 -1       329    8    0    1
 -2        89        90       246      1226      1550      1551
 -1       330    8    0    1
 -2        89       246       245      1551      1552      1547
 -1       331    8    0    1
 -2        90        91       247      1227      1553      1554
 -1       332    8    0    1
 -2        90       247       246      1554      1555      1550
 -1       333    8    0    1
 -2        91        92       248      1228      1556      1557
 -1       334    8    0    1
 -2        91       248       247      1557      1558      1553
 -1       335    8    0    1
 -2        92        93       249      1229      1559      1560
 -1       336    8    0    1
 -2        92       249       248      1560      1561      1556
 -1       337    8    0    1
 -2        93        94       250      1230      1562      1563
 -1       338    8    0    1
 -2        93       250       249      1563      1564      1559
 -1       339    8    0    1
 -2        94        95       251      1231      1565      1566
 -1       340    8    0    1
 -2        94       251       250      1566      1567      1562
 -1       341    8    0    1
 -2        95        96       252      1232      1568      1569
 -1       342    8    0    1
 -2        95       252       251      1569      1570      1565
 -1       343    8    0    1
 -2        96        97       253      1233      1571      1572
 -1       344    8    0    1
 -2        96       253       252      1572      1573      1568
 -1       345    8    0    1
 -2        97        98       254      1234      1574      1575
 -1       346    8    0    1
 -2        97       254       253      1575      1576      1571
 -1       347    8    0    1
 -2        98        99       255      1235      1577      1578
 -1       348    8    0    1
 -2        98       255       254      1578      1579      1574
 -1       349    8    0    1
 -2        99       100       256      1236      1580      1581
 -1       350    8    0    1
 -2        99       256       255      1581      1582      1577
 -1       351    8    0    1
 -2       100       101       257      1237      1583      1584
 -1       352    8    0    1
 -2       100       257       256      1584      1585      1580
 -1       353    8    0    1
 -2       101       102       258      1238      1586      1587
 -1       354    8    0    1
 -2       101       258       257      1587      1588      1583
 -1       355    8    0    1
 -2       102       103       259      1239      1589      1590
 -1       356    8    0    1
 -2       102       259       258      1590      1591      1586
 -1       357    8    0    1
 -2       103       104       260      1240      1592      1593
 -1       358    8    0    1
 -2       103       260       259      1593      1594      1589
 -1       359    8    0    1
 -2       104       105       261      1241      1595      1596
 -1       360    8    0    1
 -2       104       261       260      1596      1597      1592
 -1       361    8    0    1
 -2       105       106       262      1242      1598      1599
 -1       362    8    0    1
 -2       105       262       261      1599      1600      1595
 -1       363    8    0    1
 -2       106       107       263      1243      1601      1602
 -1       364    8    0    1
 -2       106       263       262      1602      1603      1598
 -1       365    8    0    1
 -2       107       108       264      1244      1604      1605
 -1       366    8    0    1
 -2       107       264       263      1605      1606      1601
 -1       367    8    0    1
 -2       108       109       265      1245      1607      1608
 -1       368    8    0    1
 -2       108       265       264      1608      1609      1604
 -1       369    8    0    1
 -2       109       110       266      1246      1610      1611
 -1       370    8    0    1
 -2       109       266       265      1611      1612      1607
 -1       371    8    0    1
 -2       110       111       267      1247      1613      1614
 -1       372    8    0    1
 -2       110       267       266      1614      1615      1610
 -1       373    8    0    1
 -2       111       112       268      1248      1616      1617
 -1       374    8    0    1
 -2       111       268       267      1617      1618      1613
 -1       375    8    0    1
 -2       112       113       269      1249      1619      1620
 -1       376    8    0    1
 -2       112       269       268      1620      1621      1616
 -1       377    8    0    1
 -2       113       114       270      1250      1622      1623
 -1       378    8    0    1
 -2       113       270       269      1623      1624      1619
 -1       379    8    0    1
 -2       114       115       271      1251      1625      1626
 -1       380    8    0    1
 -2       114       271       270      1626      1627      1622
 -1       381    8    0    1
 -2       115       116       272      1252      1628      1629
 -1       382    8    0    1
 -2       115       272       271      1629      1630      1625
 -1       383    8    0    1
 -2       116       117       273      1253      1631      1632
 -1       384    8    0    1
 -2       116       273       272      1632      1633      1628
 -1       385    8    0    1
 -2       117       118       274      1254      1634      1635
 -1       386    8    0    1
 -2       117       274       273      1635      1636      1631
 -1       387    8    0    1
 -2       118       119       275      1255      1637      1638
 -1       388    8    0    1
 -2       118       275       274      1638      1639      1634
 -1       389    8    0    1
 -2       119       120       276      1256      1640      1641
 -1       390    8    0    1
 -2       119       276       275      1641      1642      1637
 -1       391    8    0    1
 -2       120         3       121      1257      1258      1643
 -1       392    8    0    1
 -2       121       122       277      1259      1644      1645
 -1       393    8    0    1
 -2       122       123       278      1260      1646      1647
 -1       394    8    0    1
 -2       122       278       277      1647      1648      1644
 -1       395    8    0    1
 -2       123       124       279      1261      1649      1650
 -1       396    8    0    1
 -2       123       279       278      1650      1651      1646
 -1       397    8    0    1
 -2       124       125       280      1262      1652      1653
 -1       398    8    0    1
 -2       124       280       279      1653      1654      1649
 -1       399    8    0    1
 -2       125       126       281      1263      1655      1656
 -1       400    8    0    1
 -2       125       281       280      1656      1657      1652
 -1       401    8    0    1
 -2       126       127       282      1264      1658      1659
 -1       402    8    0    1
 -2       126       282       281      1659      1660      1655
 -1       403    8    0    1
 -2       127       128       283      1265      1661      1662
 -1       404    8    0    1
 -2       127       283       282      1662      1663      1658
 -1       405    8    0    1
 -2       128       129       284      1266      1664      1665
 -1       406    8    0    1
 -2       128       284       283      1665      1666      1661
 -1       407    8    0    1
 -2       129       130       285      1267      1667      1668
 -1       408    8    0    1
 -2       129       285       284      1668      1669      1664
 -1       409    8    0    1
 -2       130       131       286      1268      1670      1671
 -1       410    8    0    1
 -2       130       286       285      1671      1672      1667
 -1       411    8    0    1
 -2       131       132       287      1269      1673      1674
 -1       412    8    0    1
 -2       131       287       286      1674      1675      1670
 -1       413    8    0    1
 -2       132       133       288      1270      1676      1677
 -1       414    8    0    1
 -2       132       288       287      1677      1678      1673
 -1       415    8    0    1
 -2       133       134       289      1271      1679      1680
 -1       416    8    0    1
 -2       133       289       288      1680      1681      1676
 -1       417    8    0    1
 -2       134       135       290      1272      1682      1683
 -1       418    8    0    1
 -2       134       290       289      1683      1684      1679
 -1       419    8    0    1
 -2       135       136       291      1273      1685      1686
 -1       420    8    0    1
 -2       290       135       291      1682      1686      1687
 -1       421    8    0    1
 -2       136       228       291      1498      1688      1685
 -1       422    8    0    1
 -2         2       137       292      1275      1689      1690
 -1       423    8    0    1
 -2       137       138       293      1276      1691      1692
 -1       424    8    0    1
 -2       138       139       294      1277      1693      1694
 -1       425    8    0    1
 -2       139       140       295      1278      1695      1696
 -1       426    8    0    1
 -2       140       141       296      1279      1697      1698
 -1       427    8    0    1
 -2       141       142       297      1280      1699      1700
 -1       428    8    0    1
 -2       142       143       298      1281      1701      1702
 -1       429    8    0    1
 -2       143       144       299      1282      1703      1704
 -1       430    8    0    1
 -2       144       145       300      1283      1705      1706
 -1       431    8    0    1
 -2       145       146       301      1284      1707      1708
 -1       432    8    0    1
 -2       146       147       302      1285      1709      1710
 -1       433    8    0    1
 -2       147       148       303      1286      1711      1712
 -1       434    8    0    1
 -2       147       303       302      1712      1713      1709
 -1       435    8    0    1
 -2       148       149       304      1287      1714      1715
 -1       436    8    0    1
 -2       149         1       305      1288      1716      1717
 -1       437    8    0    1
 -2         1       150       306      1289      1718      1719
 -1       438    8    0    1
 -2       150       151       307      1290      1720      1721
 -1       439    8    0    1
 -2       151       152       308      1291      1722      1723
 -1       440    8    0    1
 -2       152       153       309      1292      1724      1725
 -1       441    8    0    1
 -2       153       154       310      1293      1726      1727
 -1       442    8    0    1
 -2       154       155       311      1294      1728      1729
 -1       443    8    0    1
 -2       155       156       312      1295      1730      1731
 -1       444    8    0    1
 -2       156       157       313      1296      1732      1733
 -1       445    8    0    1
 -2       157       158       314      1297      1734      1735
 -1       446    8    0    1
 -2       158       159       315      1298      1736      1737
 -1       447    8    0    1
 -2       159       160       316      1299      1738      1739
 -1       448    8    0    1
 -2       160       161       317      1300      1740      1741
 -1       449    8    0    1
 -2       161       162       318      1301      1742      1743
 -1       450    8    0    1
 -2       162       163       319      1302      1744      1745
 -1       451    8    0    1
 -2       163       164       320      1303      1746      1747
 -1       452    8    0    1
 -2       164         2       321      1304      1748      1749
 -1       453    8    0    1
 -2       295       140       296      1695      1698      1750
 -1       454    8    0    1
 -2       294       139       295      1693      1696      1751
 -1       455    8    0    1
 -2       120       121       276      1643      1752      1640
 -1       456    8    0    1
 -2       121       277       276      1645      1753      1752
 -1       457    8    0    1
 -2       292       137       293      1689      1692      1754
 -1       458    8    0    1
 -2       293       138       294      1691      1694      1755
 -1       459    8    0    1
 -2         2       292       321      1690      1756      1748
 -1       460    8    0    1
 -2       141       297       296      1700      1757      1697
 -1       461    8    0    1
 -2       142       298       297      1702      1758      1699
 -1       462    8    0    1
 -2       143       299       298      1704      1759      1701
 -1       463    8    0    1
 -2       144       300       299      1706      1760      1703
 -1       464    8    0    1
 -2       145       301       300      1708      1761      1705
 -1       465    8    0    1
 -2       146       302       301      1710      1762      1707
 -1       466    8    0    1
 -2       304       149       305      1714      1717      1763
 -1       467    8    0    1
 -2         1       306       305      1719      1764      1716
 -1       468    8    0    1
 -2       150       307       306      1721      1765      1718
 -1       469    8    0    1
 -2       151       308       307      1723      1766      1720
 -1       470    8    0    1
 -2       152       309       308      1725      1767      1722
 -1       471    8    0    1
 -2       153       310       309      1727      1768      1724
 -1       472    8    0    1
 -2       154       311       310      1729      1769      1726
 -1       473    8    0    1
 -2       155       312       311      1731      1770      1728
 -1       474    8    0    1
 -2       156       313       312      1733      1771      1730
 -1       475    8    0    1
 -2       157       314       313      1735      1772      1732
 -1       476    8    0    1
 -2       158       315       314      1737      1773      1734
 -1       477    8    0    1
 -2       159       316       315      1739      1774      1736
 -1       478    8    0    1
 -2       160       317       316      1741      1775      1738
 -1       479    8    0    1
 -2       161       318       317      1743      1776      1740
 -1       480    8    0    1
 -2       162       319       318      1745      1777      1742
 -1       481    8    0    1
 -2       163       320       319      1747      1778      1744
 -1       482    8    0    1
 -2       164       321       320      1749      1779      1746
 -1       483    8    0    1
 -2        23         7       165      1305      1307      1780
 -1       484    8    0    1
 -2       148       304       303      1715      1781      1711
 -1       485    8    0    1
 -2       166       167       322      1313      1782      1783
 -1       486    8    0    1
 -2       165       166       323      1310      1784      1785
 -1       487    8    0    1
 -2       166       322       323      1783      1786      1784
 -1       488    8    0    1
 -2       168       169       324      1319      1787      1788
 -1       489    8    0    1
 -2       169       170       325      1322      1789      1790
 -1       490    8    0    1
 -2       169       325       324      1790      1791      1787
 -1       491    8    0    1
 -2       170       171       326      1325      1792      1793
 -1       492    8    0    1
 -2       170       326       325      1793      1794      1789
 -1       493    8    0    1
 -2       171       172       327      1328      1795      1796
 -1       494    8    0    1
 -2       171       327       326      1796      1797      1792
 -1       495    8    0    1
 -2       172       173       328      1331      1798      1799
 -1       496    8    0    1
 -2       172       328       327      1799      1800      1795
 -1       497    8    0    1
 -2       173       174       329      1334      1801      1802
 -1       498    8    0    1
 -2       173       329       328      1802      1803      1798
 -1       499    8    0    1
 -2       174       175       330      1337      1804      1805
 -1       500    8    0    1
 -2       174       330       329      1805      1806      1801
 -1       501    8    0    1
 -2       175       176       331      1340      1807      1808
 -1       502    8    0    1
 -2       175       331       330      1808      1809      1804
 -1       503    8    0    1
 -2       176       177       332      1343      1810      1811
 -1       504    8    0    1
 -2       176       332       331      1811      1812      1807
 -1       505    8    0    1
 -2       177       178       333      1346      1813      1814
 -1       506    8    0    1
 -2       177       333       332      1814      1815      1810
 -1       507    8    0    1
 -2       178       179       334      1349      1816      1817
 -1       508    8    0    1
 -2       178       334       333      1817      1818      1813
 -1       509    8    0    1
 -2       179       180       335      1352      1819      1820
 -1       510    8    0    1
 -2       334       179       335      1816      1820      1821
 -1       511    8    0    1
 -2       180       229       335      1501      1822      1819
 -1       512    8    0    1
 -2       181        23       165      1354      1780      1823
 -1       513    8    0    1
 -2       229       230       336      1504      1824      1825
 -1       514    8    0    1
 -2       229       336       335      1825      1826      1822
 -1       515    8    0    1
 -2       303       304       337      1781      1827      1828
 -1       516    8    0    1
 -2       181       165       323      1823      1785      1829
 -1       517    8    0    1
 -2       183       182       338      1361      1830      1831
 -1       518    8    0    1
 -2       184       183       339      1364      1832      1833
 -1       519    8    0    1
 -2       183       338       339      1831      1834      1832
 -1       520    8    0    1
 -2       185       184       340      1367      1835      1836
 -1       521    8    0    1
 -2       184       339       340      1833      1837      1835
 -1       522    8    0    1
 -2       186       185       341      1370      1838      1839
 -1       523    8    0    1
 -2       185       340       341      1836      1840      1838
 -1       524    8    0    1
 -2       187       186       342      1373      1841      1842
 -1       525    8    0    1
 -2       186       341       342      1839      1843      1841
 -1       526    8    0    1
 -2       188       187       343      1376      1844      1845
 -1       527    8    0    1
 -2       187       342       343      1842      1846      1844
 -1       528    8    0    1
 -2       189       188       344      1379      1847      1848
 -1       529    8    0    1
 -2       188       343       344      1845      1849      1847
 -1       530    8    0    1
 -2       190       189       345      1382      1850      1851
 -1       531    8    0    1
 -2       189       344       345      1848      1852      1850
 -1       532    8    0    1
 -2       191       190       346      1385      1853      1854
 -1       533    8    0    1
 -2       190       345       346      1851      1855      1853
 -1       534    8    0    1
 -2       192       191       347      1388      1856      1857
 -1       535    8    0    1
 -2       191       346       347      1854      1858      1856
 -1       536    8    0    1
 -2       193       192       348      1391      1859      1860
 -1       537    8    0    1
 -2       192       347       348      1857      1861      1859
 -1       538    8    0    1
 -2       194       193       349      1394      1862      1863
 -1       539    8    0    1
 -2       193       348       349      1860      1864      1862
 -1       540    8    0    1
 -2       195       194       350      1397      1865      1866
 -1       541    8    0    1
 -2       194       349       350      1863      1867      1865
 -1       542    8    0    1
 -2       196       195       351      1400      1868      1869
 -1       543    8    0    1
 -2       195       350       351      1866      1870      1868
 -1       544    8    0    1
 -2       197       196       352      1403      1871      1872
 -1       545    8    0    1
 -2       196       351       352      1869      1873      1871
 -1       546    8    0    1
 -2       198       197       353      1406      1874      1875
 -1       547    8    0    1
 -2       197       352       353      1872      1876      1874
 -1       548    8    0    1
 -2       199       198       354      1409      1877      1878
 -1       549    8    0    1
 -2       198       353       354      1875      1879      1877
 -1       550    8    0    1
 -2       200       199       355      1412      1880      1881
 -1       551    8    0    1
 -2       199       354       355      1878      1882      1880
 -1       552    8    0    1
 -2       201       200       356      1415      1883      1884
 -1       553    8    0    1
 -2       200       355       356      1881      1885      1883
 -1       554    8    0    1
 -2       202       201       357      1418      1886      1887
 -1       555    8    0    1
 -2       201       356       357      1884      1888      1886
 -1       556    8    0    1
 -2       203       202       358      1421      1889      1890
 -1       557    8    0    1
 -2       202       357       358      1887      1891      1889
 -1       558    8    0    1
 -2       204       203       359      1424      1892      1893
 -1       559    8    0    1
 -2       203       358       359      1890      1894      1892
 -1       560    8    0    1
 -2       205       204       360      1427      1895      1896
 -1       561    8    0    1
 -2       204       359       360      1893      1897      1895
 -1       562    8    0    1
 -2       206       205       361      1430      1898      1899
 -1       563    8    0    1
 -2       205       360       361      1896      1900      1898
 -1       564    8    0    1
 -2       207       206       362      1433      1901      1902
 -1       565    8    0    1
 -2       206       361       362      1899      1903      1901
 -1       566    8    0    1
 -2       208       207       363      1436      1904      1905
 -1       567    8    0    1
 -2       207       362       363      1902      1906      1904
 -1       568    8    0    1
 -2       209       208       364      1439      1907      1908
 -1       569    8    0    1
 -2       208       363       364      1905      1909      1907
 -1       570    8    0    1
 -2       210       209       365      1442      1910      1911
 -1       571    8    0    1
 -2       209       364       365      1908      1912      1910
 -1       572    8    0    1
 -2       211       210       366      1445      1913      1914
 -1       573    8    0    1
 -2       210       365       366      1911      1915      1913
 -1       574    8    0    1
 -2       212       211       367      1448      1916      1917
 -1       575    8    0    1
 -2       211       366       367      1914      1918      1916
 -1       576    8    0    1
 -2       213       212       368      1451      1919      1920
 -1       577    8    0    1
 -2       212       367       368      1917      1921      1919
 -1       578    8    0    1
 -2       214       213       369      1454      1922      1923
 -1       579    8    0    1
 -2       213       368       369      1920      1924      1922
 -1       580    8    0    1
 -2       215       214       370      1457      1925      1926
 -1       581    8    0    1
 -2       214       369       370      1923      1927      1925
 -1       582    8    0    1
 -2       216       215       371      1460      1928      1929
 -1       583    8    0    1
 -2       215       370       371      1926      1930      1928
 -1       584    8    0    1
 -2       217       216       372      1463      1931      1932
 -1       585    8    0    1
 -2       216       371       372      1929      1933      1931
 -1       586    8    0    1
 -2       218       217       373      1466      1934      1935
 -1       587    8    0    1
 -2       217       372       373      1932      1936      1934
 -1       588    8    0    1
 -2       219       218       374      1469      1937      1938
 -1       589    8    0    1
 -2       218       373       374      1935      1939      1937
 -1       590    8    0    1
 -2       220       219       375      1472      1940      1941
 -1       591    8    0    1
 -2       219       374       375      1938      1942      1940
 -1       592    8    0    1
 -2       221       220       376      1475      1943      1944
 -1       593    8    0    1
 -2       220       375       376      1941      1945      1943
 -1       594    8    0    1
 -2       222       221       377      1478      1946      1947
 -1       595    8    0    1
 -2       221       376       377      1944      1948      1946
 -1       596    8    0    1
 -2       223       222       378      1481      1949      1950
 -1       597    8    0    1
 -2       222       377       378      1947      1951      1949
 -1       598    8    0    1
 -2       224       223       379      1484      1952      1953
 -1       599    8    0    1
 -2       223       378       379      1950      1954      1952
 -1       600    8    0    1
 -2       225       224       380      1487      1955      1956
 -1       601    8    0    1
 -2       224       379       380      1953      1957      1955
 -1       602    8    0    1
 -2       226       225       381      1490      1958      1959
 -1       603    8    0    1
 -2       225       380       381      1956      1960      1958
 -1       604    8    0    1
 -2       227       226       382      1493      1961      1962
 -1       605    8    0    1
 -2       226       381       382      1959      1963      1961
 -1       606    8    0    1
 -2       228       227       383      1496      1964      1965
 -1       607    8    0    1
 -2       291       228       383      1688      1965      1966
 -1       608    8    0    1
 -2       227       382       383      1962      1967      1964
 -1       609    8    0    1
 -2       230       231       384      1507      1968      1969
 -1       610    8    0    1
 -2       230       384       336      1969      1970      1824
 -1       611    8    0    1
 -2       231       232       385      1510      1971      1972
 -1       612    8    0    1
 -2       231       385       384      1972      1973      1968
 -1       613    8    0    1
 -2       232       233       386      1513      1974      1975
 -1       614    8    0    1
 -2       232       386       385      1975      1976      1971
 -1       615    8    0    1
 -2       233       234       387      1516      1977      1978
 -1       616    8    0    1
 -2       233       387       386      1978      1979      1974
 -1       617    8    0    1
 -2       234       235       388      1519      1980      1981
 -1       618    8    0    1
 -2       234       388       387      1981      1982      1977
 -1       619    8    0    1
 -2       235       236       389      1522      1983      1984
 -1       620    8    0    1
 -2       235       389       388      1984      1985      1980
 -1       621    8    0    1
 -2       236       237       390      1525      1986      1987
 -1       622    8    0    1
 -2       236       390       389      1987      1988      1983
 -1       623    8    0    1
 -2       237       238       391      1528      1989      1990
 -1       624    8    0    1
 -2       237       391       390      1990      1991      1986
 -1       625    8    0    1
 -2       238       239       392      1531      1992      1993
 -1       626    8    0    1
 -2       238       392       391      1993      1994      1989
 -1       627    8    0    1
 -2       239       240       393      1534      1995      1996
 -1       628    8    0    1
 -2       239       393       392      1996      1997      1992
 -1       629    8    0    1
 -2       240       241       394      1537      1998      1999
 -1       630    8    0    1
 -2       240       394       393      1999      2000      1995
 -1       631    8    0    1
 -2       241       242       395      1540      2001      2002
 -1       632    8    0    1
 -2       241       395       394      2002      2003      1998
 -1       633    8    0    1
 -2       242       243       396      1543      2004      2005
 -1       634    8    0    1
 -2       242       396       395      2005      2006      2001
 -1       635    8    0    1
 -2       243       244       397      1546      2007      2008
 -1       636    8    0    1
 -2       243       397       396      2008      2009      2004
 -1       637    8    0    1
 -2       244       245       398      1549      2010      2011
 -1       638    8    0    1
 -2       244       398       397      2011      2012      2007
 -1       639    8    0    1
 -2       245       246       399      1552      2013      2014
 -1       640    8    0    1
 -2       245       399       398      2014      2015      2010
 -1       641    8    0    1
 -2       246       247       400      1555      2016      2017
 -1       642    8    0    1
 -2       246       400       399      2017      2018      2013
 -1       643    8    0    1
 -2       247       248       401      1558      2019      2020
 -1       644    8    0    1
 -2       247       401       400      2020      2021      2016
 -1       645    8    0    1
 -2       248       249       402      1561      2022      2023
 -1       646    8    0    1
 -2       248       402       401      2023      2024      2019
 -1       647    8    0    1
 -2       249       250       403      1564      2025      2026
 -1       648    8    0    1
 -2       249       403       402      2026      2027      2022
 -1       649    8    0    1
 -2       250       251       404      1567      2028      2029
 -1       650    8    0    1
 -2       250       404       403      2029      2030      2025
 -1       651    8    0    1
 -2       251       252       405      1570      2031      2032
 -1       652    8    0    1
 -2       251       405       404      2032      2033      2028
 -1       653    8    0    1
 -2       252       253       406      1573      2034      2035
 -1       654    8    0    1
 -2       252       406       405      2035      2036      2031
 -1       655    8    0    1
 -2       253       254       407      1576      2037      2038
 -1       656    8    0    1
 -2       253       407       406      2038      2039      2034
 -1       657    8    0    1
 -2       254       255       408      1579      2040      2041
 -1       658    8    0    1
 -2       254       408       407      2041      2042      2037
 -1       659    8    0    1
 -2       255       256       409      1582      2043      2044
 -1       660    8    0    1
 -2       255       409       408      2044      2045      2040
 -1       661    8    0    1
 -2       256       257       410      1585      2046      2047
 -1       662    8    0    1
 -2       256       410       409      2047      2048      2043
 -1       663    8    0    1
 -2       257       258       411      1588      2049      2050
 -1       664    8    0    1
 -2       257       411       410      2050      2051      2046
 -1       665    8    0    1
 -2       258       259       412      1591      2052      2053
 -1       666    8    0    1
 -2       258       412       411      2053      2054      2049
 -1       667    8    0    1
 -2       259       260       413      1594      2055      2056
 -1       668    8    0    1
 -2       259       413       412      2056      2057      2052
 -1       669    8    0    1
 -2       260       261       414      1597      2058      2059
 -1       670    8    0    1
 -2       260       414       413      2059      2060      2055
 -1       671    8    0    1
 -2       261       262       415      1600      2061      2062
 -1       672    8    0    1
 -2       261       415       414      2062      2063      2058
 -1       673    8    0    1
 -2       262       263       416      1603      2064      2065
 -1       674    8    0    1
 -2       262       416       415      2065      2066      2061
 -1       675    8    0    1
 -2       263       264       417      1606      2067      2068
 -1       676    8    0    1
 -2       263       417       416      2068      2069      2064
 -1       677    8    0    1
 -2       264       265       418      1609      2070      2071
 -1       678    8    0    1
 -2       264       418       417      2071      2072      2067
 -1       679    8    0    1
 -2       265       266       419      1612      2073      2074
 -1       680    8    0    1
 -2       265       419       418      2074      2075      2070
 -1       681    8    0    1
 -2       266       267       420      1615      2076      2077
 -1       682    8    0    1
 -2       266       420       419      2077      2078      2073
 -1       683    8    0    1
 -2       267       268       421      1618      2079      2080
 -1       684    8    0    1
 -2       267       421       420      2080      2081      2076
 -1       685    8    0    1
 -2       268       269       422      1621      2082      2083
 -1       686    8    0    1
 -2       268       422       421      2083      2084      2079
 -1       687    8    0    1
 -2       269       270       423      1624      2085      2086
 -1       688    8    0    1
 -2       269       423       422      2086      2087      2082
 -1       689    8    0    1
 -2       270       271       424      1627      2088      2089
 -1       690    8    0    1
 -2       270       424       423      2089      2090      2085
 -1       691    8    0    1
 -2       271       272       425      1630      2091      2092
 -1       692    8    0    1
 -2       271       425       424      2092      2093      2088
 -1       693    8    0    1
 -2       272       273       426      1633      2094      2095
 -1       694    8    0    1
 -2       272       426       425      2095      2096      2091
 -1       695    8    0    1
 -2       273       274       427      1636      2097      2098
 -1       696    8    0    1
 -2       273       427       426      2098      2099      2094
 -1       697    8    0    1
 -2       274       275       428      1639      2100      2101
 -1       698    8    0    1
 -2       274       428       427      2101      2102      2097
 -1       699    8    0    1
 -2       275       276       429      1642      2103      2104
 -1       700    8    0    1
 -2       428       275       429      2100      2104      2105
 -1       701    8    0    1
 -2       276       277       429      1753      2106      2103
 -1       702    8    0    1
 -2       279       280       430      1654      2107      2108
 -1       703    8    0    1
 -2       278       279       431      1651      2109      2110
 -1       704    8    0    1
 -2       279       430       431      2108      2111      2109
 -1       705    8    0    1
 -2       277       278       432      1648      2112      2113
 -1       706    8    0    1
 -2       429       277       432      2106      2113      2114
 -1       707    8    0    1
 -2       278       431       432      2110      2115      2112
 -1       708    8    0    1
 -2       280       281       433      1657      2116      2117
 -1       709    8    0    1
 -2       280       433       430      2117      2118      2107
 -1       710    8    0    1
 -2       281       282       434      1660      2119      2120
 -1       711    8    0    1
 -2       281       434       433      2120      2121      2116
 -1       712    8    0    1
 -2       282       283       435      1663      2122      2123
 -1       713    8    0    1
 -2       282       435       434      2123      2124      2119
 -1       714    8    0    1
 -2       283       284       436      1666      2125      2126
 -1       715    8    0    1
 -2       283       436       435      2126      2127      2122
 -1       716    8    0    1
 -2       284       285       437      1669      2128      2129
 -1       717    8    0    1
 -2       284       437       436      2129      2130      2125
 -1       718    8    0    1
 -2       285       286       438      1672      2131      2132
 -1       719    8    0    1
 -2       285       438       437      2132      2133      2128
 -1       720    8    0    1
 -2       286       287       439      1675      2134      2135
 -1       721    8    0    1
 -2       286       439       438      2135      2136      2131
 -1       722    8    0    1
 -2       287       288       440      1678      2137      2138
 -1       723    8    0    1
 -2       287       440       439      2138      2139      2134
 -1       724    8    0    1
 -2       288       289       441      1681      2140      2141
 -1       725    8    0    1
 -2       288       441       440      2141      2142      2137
 -1       726    8    0    1
 -2       289       290       442      1684      2143      2144
 -1       727    8    0    1
 -2       289       442       441      2144      2145      2140
 -1       728    8    0    1
 -2       293       294       443      1755      2146      2147
 -1       729    8    0    1
 -2       321       292       444      1756      2148      2149
 -1       730    8    0    1
 -2       292       293       445      1754      2150      2151
 -1       731    8    0    1
 -2       293       443       445      2147      2152      2150
 -1       732    8    0    1
 -2       294       295       446      1751      2153      2154
 -1       733    8    0    1
 -2       302       303       447      1713      2155      2156
 -1       734    8    0    1
 -2       305       306       448      1764      2157      2158
 -1       735    8    0    1
 -2       295       296       449      1750      2159      2160
 -1       736    8    0    1
 -2       167       168       450      1316      2161      2162
 -1       737    8    0    1
 -2       322       167       450      1782      2162      2163
 -1       738    8    0    1
 -2       168       324       450      1788      2164      2161
 -1       739    8    0    1
 -2       297       298       451      1758      2165      2166
 -1       740    8    0    1
 -2       298       299       452      1759      2167      2168
 -1       741    8    0    1
 -2       298       452       451      2168      2169      2165
 -1       742    8    0    1
 -2       299       300       453      1760      2170      2171
 -1       743    8    0    1
 -2       300       301       454      1761      2172      2173
 -1       744    8    0    1
 -2       300       454       453      2173      2174      2170
 -1       745    8    0    1
 -2       301       302       455      1762      2175      2176
 -1       746    8    0    1
 -2       304       305       456      1763      2177      2178
 -1       747    8    0    1
 -2       306       307       457      1765      2179      2180
 -1       748    8    0    1
 -2       307       308       458      1766      2181      2182
 -1       749    8    0    1
 -2       308       309       459      1767      2183      2184
 -1       750    8    0    1
 -2       309       310       460      1768      2185      2186
 -1       751    8    0    1
 -2       309       460       459      2186      2187      2183
 -1       752    8    0    1
 -2       310       311       461      1769      2188      2189
 -1       753    8    0    1
 -2       311       312       462      1770      2190      2191
 -1       754    8    0    1
 -2       312       313       463      1771      2192      2193
 -1       755    8    0    1
 -2       313       314       464      1772      2194      2195
 -1       756    8    0    1
 -2       314       315       465      1773      2196      2197
 -1       757    8    0    1
 -2       314       465       464      2197      2198      2194
 -1       758    8    0    1
 -2       315       316       466      1774      2199      2200
 -1       759    8    0    1
 -2       316       317       467      1775      2201      2202
 -1       760    8    0    1
 -2       316       467       466      2202      2203      2199
 -1       761    8    0    1
 -2       317       318       468      1776      2204      2205
 -1       762    8    0    1
 -2       318       319       469      1777      2206      2207
 -1       763    8    0    1
 -2       319       320       470      1778      2208      2209
 -1       764    8    0    1
 -2       320       321       471      1779      2210      2211
 -1       765    8    0    1
 -2       320       471       470      2211      2212      2208
 -1       766    8    0    1
 -2       296       297       472      1757      2213      2214
 -1       767    8    0    1
 -2       296       472       449      2214      2215      2159
 -1       768    8    0    1
 -2       303       337       447      1828      2216      2155
 -1       769    8    0    1
 -2       337       304       456      1827      2178      2217
 -1       770    8    0    1
 -2       182       181       323      1358      1829      2218
 -1       771    8    0    1
 -2       338       182       323      1830      2218      2219
 -1       772    8    0    1
 -2       444       292       445      2148      2151      2220
 -1       773    8    0    1
 -2       294       446       443      2154      2221      2146
 -1       774    8    0    1
 -2       442       290       291      2143      1687      2222
 -1       775    8    0    1
 -2       321       444       471      2149      2223      2210
 -1       776    8    0    1
 -2       446       295       449      2153      2160      2224
 -1       777    8    0    1
 -2       302       447       455      2156      2225      2175
 -1       778    8    0    1
 -2       305       448       456      2158      2226      2177
 -1       779    8    0    1
 -2       469       319       470      2206      2209      2227
 -1       780    8    0    1
 -2       467       317       468      2201      2205      2228
 -1       781    8    0    1
 -2       465       315       466      2196      2200      2229
 -1       782    8    0    1
 -2       463       313       464      2192      2195      2230
 -1       783    8    0    1
 -2       462       312       463      2190      2193      2231
 -1       784    8    0    1
 -2       460       310       461      2185      2189      2232
 -1       785    8    0    1
 -2       458       308       459      2181      2184      2233
 -1       786    8    0    1
 -2       457       307       458      2179      2182      2234
 -1       787    8    0    1
 -2       454       301       455      2172      2176      2235
 -1       788    8    0    1
 -2       448       306       457      2157      2180      2236
 -1       789    8    0    1
 -2       452       299       453      2167      2171      2237
 -1       790    8    0    1
 -2       297       451       472      2166      2238      2213
 -1       791    8    0    1
 -2       461       311       462      2188      2191      2239
 -1       792    8    0    1
 -2       468       318       469      2204      2207      2240
 -1       793    8    0    1
 -2       336       384       473      1970      2241      2242
 -1       794    8    0    1
 -2       325       326       474      1794      2243      2244
 -1       795    8    0    1
 -2       324       325       475      1791      2245      2246
 -1       796    8    0    1
 -2       325       474       475      2244      2247      2245
 -1       797    8    0    1
 -2       327       328       476      1800      2248      2249
 -1       798    8    0    1
 -2       328       329       477      1803      2250      2251
 -1       799    8    0    1
 -2       328       477       476      2251      2252      2248
 -1       800    8    0    1
 -2       329       330       478      1806      2253      2254
 -1       801    8    0    1
 -2       329       478       477      2254      2255      2250
 -1       802    8    0    1
 -2       330       331       479      1809      2256      2257
 -1       803    8    0    1
 -2       330       479       478      2257      2258      2253
 -1       804    8    0    1
 -2       331       332       480      1812      2259      2260
 -1       805    8    0    1
 -2       331       480       479      2260      2261      2256
 -1       806    8    0    1
 -2       332       333       481      1815      2262      2263
 -1       807    8    0    1
 -2       332       481       480      2263      2264      2259
 -1       808    8    0    1
 -2       339       338       482      1834      2265      2266
 -1       809    8    0    1
 -2       337       456       483      2217      2267      2268
 -1       810    8    0    1
 -2       384       385       484      1973      2269      2270
 -1       811    8    0    1
 -2       384       484       473      2270      2271      2241
 -1       812    8    0    1
 -2       338       323       485      2219      2272      2273
 -1       813    8    0    1
 -2       482       338       485      2265      2273      2274
 -1       814    8    0    1
 -2       323       322       485      1786      2275      2272
 -1       815    8    0    1
 -2       340       339       486      1837      2276      2277
 -1       816    8    0    1
 -2       339       482       486      2266      2278      2276
 -1       817    8    0    1
 -2       341       340       487      1840      2279      2280
 -1       818    8    0    1
 -2       340       486       487      2277      2281      2279
 -1       819    8    0    1
 -2       342       341       488      1843      2282      2283
 -1       820    8    0    1
 -2       341       487       488      2280      2284      2282
 -1       821    8    0    1
 -2       343       342       489      1846      2285      2286
 -1       822    8    0    1
 -2       342       488       489      2283      2287      2285
 -1       823    8    0    1
 -2       344       343       490      1849      2288      2289
 -1       824    8    0    1
 -2       343       489       490      2286      2290      2288
 -1       825    8    0    1
 -2       345       344       491      1852      2291      2292
 -1       826    8    0    1
 -2       344       490       491      2289      2293      2291
 -1       827    8    0    1
 -2       346       345       492      1855      2294      2295
 -1       828    8    0    1
 -2       345       491       492      2292      2296      2294
 -1       829    8    0    1
 -2       347       346       493      1858      2297      2298
 -1       830    8    0    1
 -2       346       492       493      2295      2299      2297
 -1       831    8    0    1
 -2       348       347       494      1861      2300      2301
 -1       832    8    0    1
 -2       347       493       494      2298      2302      2300
 -1       833    8    0    1
 -2       349       348       495      1864      2303      2304
 -1       834    8    0    1
 -2       348       494       495      2301      2305      2303
 -1       835    8    0    1
 -2       350       349       496      1867      2306      2307
 -1       836    8    0    1
 -2       349       495       496      2304      2308      2306
 -1       837    8    0    1
 -2       351       350       497      1870      2309      2310
 -1       838    8    0    1
 -2       350       496       497      2307      2311      2309
 -1       839    8    0    1
 -2       352       351       498      1873      2312      2313
 -1       840    8    0    1
 -2       351       497       498      2310      2314      2312
 -1       841    8    0    1
 -2       353       352       499      1876      2315      2316
 -1       842    8    0    1
 -2       352       498       499      2313      2317      2315
 -1       843    8    0    1
 -2       354       353       500      1879      2318      2319
 -1       844    8    0    1
 -2       353       499       500      2316      2320      2318
 -1       845    8    0    1
 -2       355       354       501      1882      2321      2322
 -1       846    8    0    1
 -2       354       500       501      2319      2323      2321
 -1       847    8    0    1
 -2       356       355       502      1885      2324      2325
 -1       848    8    0    1
 -2       355       501       502      2322      2326      2324
 -1       849    8    0    1
 -2       357       356       503      1888      2327      2328
 -1       850    8    0    1
 -2       356       502       503      2325      2329      2327
 -1       851    8    0    1
 -2       358       357       504      1891      2330      2331
 -1       852    8    0    1
 -2       357       503       504      2328      2332      2330
 -1       853    8    0    1
 -2       359       358       505      1894      2333      2334
 -1       854    8    0    1
 -2       358       504       505      2331      2335      2333
 -1       855    8    0    1
 -2       360       359       506      1897      2336      2337
 -1       856    8    0    1
 -2       359       505       506      2334      2338      2336
 -1       857    8    0    1
 -2       361       360       507      1900      2339      2340
 -1       858    8    0    1
 -2       360       506       507      2337      2341      2339
 -1       859    8    0    1
 -2       362       361       508      1903      2342      2343
 -1       860    8    0    1
 -2       361       507       508      2340      2344      2342
 -1       861    8    0    1
 -2       363       362       509      1906      2345      2346
 -1       862    8    0    1
 -2       362       508       509      2343      2347      2345
 -1       863    8    0    1
 -2       364       363       510      1909      2348      2349
 -1       864    8    0    1
 -2       363       509       510      2346      2350      2348
 -1       865    8    0    1
 -2       365       364       511      1912      2351      2352
 -1       866    8    0    1
 -2       364       510       511      2349      2353      2351
 -1       867    8    0    1
 -2       366       365       512      1915      2354      2355
 -1       868    8    0    1
 -2       365       511       512      2352      2356      2354
 -1       869    8    0    1
 -2       367       366       513      1918      2357      2358
 -1       870    8    0    1
 -2       366       512       513      2355      2359      2357
 -1       871    8    0    1
 -2       368       367       514      1921      2360      2361
 -1       872    8    0    1
 -2       367       513       514      2358      2362      2360
 -1       873    8    0    1
 -2       369       368       515      1924      2363      2364
 -1       874    8    0    1
 -2       368       514       515      2361      2365      2363
 -1       875    8    0    1
 -2       370       369       516      1927      2366      2367
 -1       876    8    0    1
 -2       369       515       516      2364      2368      2366
 -1       877    8    0    1
 -2       371       370       517      1930      2369      2370
 -1       878    8    0    1
 -2       370       516       517      2367      2371      2369
 -1       879    8    0    1
 -2       372       371       518      1933      2372      2373
 -1       880    8    0    1
 -2       371       517       518      2370      2374      2372
 -1       881    8    0    1
 -2       373       372       519      1936      2375      2376
 -1       882    8    0    1
 -2       372       518       519      2373      2377      2375
 -1       883    8    0    1
 -2       374       373       520      1939      2378      2379
 -1       884    8    0    1
 -2       373       519       520      2376      2380      2378
 -1       885    8    0    1
 -2       375       374       521      1942      2381      2382
 -1       886    8    0    1
 -2       374       520       521      2379      2383      2381
 -1       887    8    0    1
 -2       376       375       522      1945      2384      2385
 -1       888    8    0    1
 -2       375       521       522      2382      2386      2384
 -1       889    8    0    1
 -2       377       376       523      1948      2387      2388
 -1       890    8    0    1
 -2       376       522       523      2385      2389      2387
 -1       891    8    0    1
 -2       378       377       524      1951      2390      2391
 -1       892    8    0    1
 -2       377       523       524      2388      2392      2390
 -1       893    8    0    1
 -2       379       378       525      1954      2393      2394
 -1       894    8    0    1
 -2       378       524       525      2391      2395      2393
 -1       895    8    0    1
 -2       380       379       526      1957      2396      2397
 -1       896    8    0    1
 -2       379       525       526      2394      2398      2396
 -1       897    8    0    1
 -2       381       380       527      1960      2399      2400
 -1       898    8    0    1
 -2       380       526       527      2397      2401      2399
 -1       899    8    0    1
 -2       382       381       528      1963      2402      2403
 -1       900    8    0    1
 -2       381       527       528      2400      2404      2402
 -1       901    8    0    1
 -2       445       443       529      2152      2405      2406
 -1       902    8    0    1
 -2       386       387       530      1979      2407      2408
 -1       903    8    0    1
 -2       387       388       531      1982      2409      2410
 -1       904    8    0    1
 -2       387       531       530      2410      2411      2407
 -1       905    8    0    1
 -2       388       389       532      1985      2412      2413
 -1       906    8    0    1
 -2       388       532       531      2413      2414      2409
 -1       907    8    0    1
 -2       389       390       533      1988      2415      2416
 -1       908    8    0    1
 -2       389       533       532      2416      2417      2412
 -1       909    8    0    1
 -2       390       391       534      1991      2418      2419
 -1       910    8    0    1
 -2       390       534       533      2419      2420      2415
 -1       911    8    0    1
 -2       391       392       535      1994      2421      2422
 -1       912    8    0    1
 -2       391       535       534      2422      2423      2418
 -1       913    8    0    1
 -2       392       393       536      1997      2424      2425
 -1       914    8    0    1
 -2       392       536       535      2425      2426      2421
 -1       915    8    0    1
 -2       393       394       537      2000      2427      2428
 -1       916    8    0    1
 -2       393       537       536      2428      2429      2424
 -1       917    8    0    1
 -2       394       395       538      2003      2430      2431
 -1       918    8    0    1
 -2       394       538       537      2431      2432      2427
 -1       919    8    0    1
 -2       395       396       539      2006      2433      2434
 -1       920    8    0    1
 -2       395       539       538      2434      2435      2430
 -1       921    8    0    1
 -2       396       397       540      2009      2436      2437
 -1       922    8    0    1
 -2       396       540       539      2437      2438      2433
 -1       923    8    0    1
 -2       397       398       541      2012      2439      2440
 -1       924    8    0    1
 -2       397       541       540      2440      2441      2436
 -1       925    8    0    1
 -2       398       399       542      2015      2442      2443
 -1       926    8    0    1
 -2       398       542       541      2443      2444      2439
 -1       927    8    0    1
 -2       399       400       543      2018      2445      2446
 -1       928    8    0    1
 -2       399       543       542      2446      2447      2442
 -1       929    8    0    1
 -2       400       401       544      2021      2448      2449
 -1       930    8    0    1
 -2       400       544       543      2449      2450      2445
 -1       931    8    0    1
 -2       401       402       545      2024      2451      2452
 -1       932    8    0    1
 -2       401       545       544      2452      2453      2448
 -1       933    8    0    1
 -2       402       403       546      2027      2454      2455
 -1       934    8    0    1
 -2       402       546       545      2455      2456      2451
 -1       935    8    0    1
 -2       403       404       547      2030      2457      2458
 -1       936    8    0    1
 -2       403       547       546      2458      2459      2454
 -1       937    8    0    1
 -2       404       405       548      2033      2460      2461
 -1       938    8    0    1
 -2       404       548       547      2461      2462      2457
 -1       939    8    0    1
 -2       405       406       549      2036      2463      2464
 -1       940    8    0    1
 -2       405       549       548      2464      2465      2460
 -1       941    8    0    1
 -2       406       407       550      2039      2466      2467
 -1       942    8    0    1
 -2       406       550       549      2467      2468      2463
 -1       943    8    0    1
 -2       407       408       551      2042      2469      2470
 -1       944    8    0    1
 -2       407       551       550      2470      2471      2466
 -1       945    8    0    1
 -2       408       409       552      2045      2472      2473
 -1       946    8    0    1
 -2       408       552       551      2473      2474      2469
 -1       947    8    0    1
 -2       409       410       553      2048      2475      2476
 -1       948    8    0    1
 -2       409       553       552      2476      2477      2472
 -1       949    8    0    1
 -2       410       411       554      2051      2478      2479
 -1       950    8    0    1
 -2       410       554       553      2479      2480      2475
 -1       951    8    0    1
 -2       411       412       555      2054      2481      2482
 -1       952    8    0    1
 -2       411       555       554      2482      2483      2478
 -1       953    8    0    1
 -2       412       413       556      2057      2484      2485
 -1       954    8    0    1
 -2       412       556       555      2485      2486      2481
 -1       955    8    0    1
 -2       413       414       557      2060      2487      2488
 -1       956    8    0    1
 -2       413       557       556      2488      2489      2484
 -1       957    8    0    1
 -2       414       415       558      2063      2490      2491
 -1       958    8    0    1
 -2       414       558       557      2491      2492      2487
 -1       959    8    0    1
 -2       415       416       559      2066      2493      2494
 -1       960    8    0    1
 -2       415       559       558      2494      2495      2490
 -1       961    8    0    1
 -2       416       417       560      2069      2496      2497
 -1       962    8    0    1
 -2       416       560       559      2497      2498      2493
 -1       963    8    0    1
 -2       417       418       561      2072      2499      2500
 -1       964    8    0    1
 -2       417       561       560      2500      2501      2496
 -1       965    8    0    1
 -2       418       419       562      2075      2502      2503
 -1       966    8    0    1
 -2       418       562       561      2503      2504      2499
 -1       967    8    0    1
 -2       419       420       563      2078      2505      2506
 -1       968    8    0    1
 -2       419       563       562      2506      2507      2502
 -1       969    8    0    1
 -2       420       421       564      2081      2508      2509
 -1       970    8    0    1
 -2       420       564       563      2509      2510      2505
 -1       971    8    0    1
 -2       421       422       565      2084      2511      2512
 -1       972    8    0    1
 -2       421       565       564      2512      2513      2508
 -1       973    8    0    1
 -2       422       423       566      2087      2514      2515
 -1       974    8    0    1
 -2       422       566       565      2515      2516      2511
 -1       975    8    0    1
 -2       423       424       567      2090      2517      2518
 -1       976    8    0    1
 -2       423       567       566      2518      2519      2514
 -1       977    8    0    1
 -2       424       425       568      2093      2520      2521
 -1       978    8    0    1
 -2       424       568       567      2521      2522      2517
 -1       979    8    0    1
 -2       425       426       569      2096      2523      2524
 -1       980    8    0    1
 -2       425       569       568      2524      2525      2520
 -1       981    8    0    1
 -2       426       427       570      2099      2526      2527
 -1       982    8    0    1
 -2       426       570       569      2527      2528      2523
 -1       983    8    0    1
 -2       427       428       571      2102      2529      2530
 -1       984    8    0    1
 -2       427       571       570      2530      2531      2526
 -1       985    8    0    1
 -2       428       429       432      2105      2114      2532
 -1       986    8    0    1
 -2       433       434       572      2121      2533      2534
 -1       987    8    0    1
 -2       434       435       573      2124      2535      2536
 -1       988    8    0    1
 -2       434       573       572      2536      2537      2533
 -1       989    8    0    1
 -2       431       430       574      2111      2538      2539
 -1       990    8    0    1
 -2       430       433       575      2118      2540      2541
 -1       991    8    0    1
 -2       574       430       575      2538      2541      2542
 -1       992    8    0    1
 -2       433       572       575      2534      2543      2540
 -1       993    8    0    1
 -2       435       436       576      2127      2544      2545
 -1       994    8    0    1
 -2       435       576       573      2545      2546      2535
 -1       995    8    0    1
 -2       436       437       577      2130      2547      2548
 -1       996    8    0    1
 -2       436       577       576      2548      2549      2544
 -1       997    8    0    1
 -2       437       438       578      2133      2550      2551
 -1       998    8    0    1
 -2       437       578       577      2551      2552      2547
 -1       999    8    0    1
 -2       438       439       579      2136      2553      2554
 -1      1000    8    0    1
 -2       438       579       578      2554      2555      2550
 -1      1001    8    0    1
 -2       439       440       580      2139      2556      2557
 -1      1002    8    0    1
 -2       439       580       579      2557      2558      2553
 -1      1003    8    0    1
 -2       440       441       581      2142      2559      2560
 -1      1004    8    0    1
 -2       440       581       580      2560      2561      2556
 -1      1005    8    0    1
 -2       441       442       582      2145      2562      2563
 -1      1006    8    0    1
 -2       441       582       581      2563      2564      2559
 -1      1007    8    0    1
 -2       442       291       383      2222      1966      2565
 -1      1008    8    0    1
 -2       471       444       583      2223      2566      2567
 -1      1009    8    0    1
 -2       385       386       584      1976      2568      2569
 -1      1010    8    0    1
 -2       386       530       584      2408      2570      2568
 -1      1011    8    0    1
 -2       443       446       585      2221      2571      2572
 -1      1012    8    0    1
 -2       446       449       586      2224      2573      2574
 -1      1013    8    0    1
 -2       449       472       587      2215      2575      2576
 -1      1014    8    0    1
 -2       455       447       588      2225      2577      2578
 -1      1015    8    0    1
 -2       463       464       589      2230      2579      2580
 -1      1016    8    0    1
 -2       458       459       590      2233      2581      2582
 -1      1017    8    0    1
 -2       469       470       591      2227      2583      2584
 -1      1018    8    0    1
 -2       447       337       592      2216      2585      2586
 -1      1019    8    0    1
 -2       326       327       593      1797      2587      2588
 -1      1020    8    0    1
 -2       474       326       593      2243      2588      2589
 -1      1021    8    0    1
 -2       327       476       593      2249      2590      2587
 -1      1022    8    0    1
 -2       451       452       594      2169      2591      2592
 -1      1023    8    0    1
 -2       448       457       595      2236      2593      2594
 -1      1024    8    0    1
 -2       453       454       596      2174      2595      2596
 -1      1025    8    0    1
 -2       456       448       597      2226      2597      2598
 -1      1026    8    0    1
 -2       456       597       483      2598      2599      2267
 -1      1027    8    0    1
 -2       444       445       598      2220      2600      2601
 -1      1028    8    0    1
 -2       445       529       598      2406      2602      2600
 -1      1029    8    0    1
 -2       452       453       599      2237      2603      2604
 -1      1030    8    0    1
 -2       452       599       594      2604      2605      2591
 -1      1031    8    0    1
 -2       472       451       600      2238      2606      2607
 -1      1032    8    0    1
 -2       472       600       587      2607      2608      2575
 -1      1033    8    0    1
 -2       454       455       601      2235      2609      2610
 -1      1034    8    0    1
 -2       596       454       601      2595      2610      2611
 -1      1035    8    0    1
 -2       455       588       601      2578      2612      2609
 -1      1036    8    0    1
 -2       457       458       602      2234      2613      2614
 -1      1037    8    0    1
 -2       457       602       595      2614      2615      2593
 -1      1038    8    0    1
 -2       459       460       603      2187      2616      2617
 -1      1039    8    0    1
 -2       459       603       590      2617      2618      2581
 -1      1040    8    0    1
 -2       468       469       604      2240      2619      2620
 -1      1041    8    0    1
 -2       460       461       605      2232      2621      2622
 -1      1042    8    0    1
 -2       462       463       606      2231      2623      2624
 -1      1043    8    0    1
 -2       464       465       607      2198      2625      2626
 -1      1044    8    0    1
 -2       465       466       608      2229      2627      2628
 -1      1045    8    0    1
 -2       466       467       609      2203      2629      2630
 -1      1046    8    0    1
 -2       467       468       610      2228      2631      2632
 -1      1047    8    0    1
 -2       470       471       611      2212      2633      2634
 -1      1048    8    0    1
 -2       591       470       611      2583      2634      2635
 -1      1049    8    0    1
 -2       471       583       611      2567      2636      2633
 -1      1050    8    0    1
 -2       461       462       612      2239      2637      2638
 -1      1051    8    0    1
 -2       335       336       613      1826      2639      2640
 -1      1052    8    0    1
 -2       334       335       613      1821      2640      2641
 -1      1053    8    0    1
 -2       336       473       613      2242      2642      2639
 -1      1054    8    0    1
 -2       451       594       600      2592      2643      2606
 -1      1055    8    0    1
 -2       324       475       614      2246      2644      2645
 -1      1056    8    0    1
 -2       324       614       450      2645      2646      2164
 -1      1057    8    0    1
 -2       333       334       613      1818      2641      2647
 -1      1058    8    0    1
 -2       337       483       592      2268      2648      2585
 -1      1059    8    0    1
 -2       485       322       450      2275      2163      2649
 -1      1060    8    0    1
 -2       610       468       604      2631      2620      2650
 -1      1061    8    0    1
 -2       461       612       605      2638      2651      2621
 -1      1062    8    0    1
 -2       529       443       585      2405      2572      2652
 -1      1063    8    0    1
 -2       428       432       571      2532      2653      2529
 -1      1064    8    0    1
 -2       586       449       587      2573      2576      2654
 -1      1065    8    0    1
 -2       432       431       571      2115      2655      2653
 -1      1066    8    0    1
 -2       609       467       610      2629      2632      2656
 -1      1067    8    0    1
 -2       442       383       615      2565      2657      2658
 -1      1068    8    0    1
 -2       582       442       615      2562      2658      2659
 -1      1069    8    0    1
 -2       383       382       615      1967      2660      2657
 -1      1070    8    0    1
 -2       608       466       609      2627      2630      2661
 -1      1071    8    0    1
 -2       607       465       608      2625      2628      2662
 -1      1072    8    0    1
 -2       583       444       598      2566      2601      2663
 -1      1073    8    0    1
 -2       385       584       484      2569      2664      2269
 -1      1074    8    0    1
 -2       585       446       586      2571      2574      2665
 -1      1075    8    0    1
 -2       606       463       589      2623      2580      2666
 -1      1076    8    0    1
 -2       597       448       616      2597      2667      2668
 -1      1077    8    0    1
 -2       448       595       616      2594      2669      2667
 -1      1078    8    0    1
 -2       602       458       590      2613      2582      2670
 -1      1079    8    0    1
 -2       571       431       574      2655      2539      2671
 -1      1080    8    0    1
 -2       612       462       606      2637      2624      2672
 -1      1081    8    0    1
 -2       589       464       607      2579      2626      2673
 -1      1082    8    0    1
 -2       588       447       592      2577      2586      2674
 -1      1083    8    0    1
 -2       469       591       604      2584      2675      2619
 -1      1084    8    0    1
 -2       333       613       481      2647      2676      2262
 -1      1085    8    0    1
 -2       382       528       615      2403      2677      2660
 -1      1086    8    0    1
 -2       453       596       599      2596      2678      2603
 -1      1087    8    0    1
 -2       603       460       617      2616      2679      2680
 -1      1088    8    0    1
 -2       460       605       617      2622      2681      2679
 -1      1089    8    0    1
 -2       477       478       618      2255      2682      2683
 -1      1090    8    0    1
 -2       476       477       619      2252      2684      2685
 -1      1091    8    0    1
 -2       477       618       619      2683      2686      2684
 -1      1092    8    0    1
 -2       479       480       620      2261      2687      2688
 -1      1093    8    0    1
 -2       480       481       621      2264      2689      2690
 -1      1094    8    0    1
 -2       480       621       620      2690      2691      2687
 -1      1095    8    0    1
 -2       594       599       622      2605      2692      2693
 -1      1096    8    0    1
 -2       615       528       623      2677      2694      2695
 -1      1097    8    0    1
 -2       615       623       582      2695      2696      2659
 -1      1098    8    0    1
 -2       486       482       624      2278      2697      2698
 -1      1099    8    0    1
 -2       473       484       625      2271      2699      2700
 -1      1100    8    0    1
 -2       531       532       626      2414      2701      2702
 -1      1101    8    0    1
 -2       487       486       627      2281      2703      2704
 -1      1102    8    0    1
 -2       486       624       627      2698      2705      2703
 -1      1103    8    0    1
 -2       488       487       628      2284      2706      2707
 -1      1104    8    0    1
 -2       487       627       628      2704      2708      2706
 -1      1105    8    0    1
 -2       489       488       629      2287      2709      2710
 -1      1106    8    0    1
 -2       488       628       629      2707      2711      2709
 -1      1107    8    0    1
 -2       490       489       630      2290      2712      2713
 -1      1108    8    0    1
 -2       489       629       630      2710      2714      2712
 -1      1109    8    0    1
 -2       491       490       631      2293      2715      2716
 -1      1110    8    0    1
 -2       490       630       631      2713      2717      2715
 -1      1111    8    0    1
 -2       492       491       632      2296      2718      2719
 -1      1112    8    0    1
 -2       491       631       632      2716      2720      2718
 -1      1113    8    0    1
 -2       493       492       633      2299      2721      2722
 -1      1114    8    0    1
 -2       492       632       633      2719      2723      2721
 -1      1115    8    0    1
 -2       494       493       634      2302      2724      2725
 -1      1116    8    0    1
 -2       493       633       634      2722      2726      2724
 -1      1117    8    0    1
 -2       495       494       635      2305      2727      2728
 -1      1118    8    0    1
 -2       494       634       635      2725      2729      2727
 -1      1119    8    0    1
 -2       496       495       612      2308      2730      2731
 -1      1120    8    0    1
 -2       498       497       589      2314      2732      2733
 -1      1121    8    0    1
 -2       499       498       607      2317      2734      2735
 -1      1122    8    0    1
 -2       501       500       636      2323      2736      2737
 -1      1123    8    0    1
 -2       502       501       637      2326      2738      2739
 -1      1124    8    0    1
 -2       501       636       637      2737      2740      2738
 -1      1125    8    0    1
 -2       503       502       638      2329      2741      2742
 -1      1126    8    0    1
 -2       502       637       638      2739      2743      2741
 -1      1127    8    0    1
 -2       504       503       639      2332      2744      2745
 -1      1128    8    0    1
 -2       503       638       639      2742      2746      2744
 -1      1129    8    0    1
 -2       505       504       640      2335      2747      2748
 -1      1130    8    0    1
 -2       504       639       640      2745      2749      2747
 -1      1131    8    0    1
 -2       506       505       641      2338      2750      2751
 -1      1132    8    0    1
 -2       505       640       641      2748      2752      2750
 -1      1133    8    0    1
 -2       507       506       642      2341      2753      2754
 -1      1134    8    0    1
 -2       506       641       642      2751      2755      2753
 -1      1135    8    0    1
 -2       508       507       643      2344      2756      2757
 -1      1136    8    0    1
 -2       507       642       643      2754      2758      2756
 -1      1137    8    0    1
 -2       509       508       644      2347      2759      2760
 -1      1138    8    0    1
 -2       508       643       644      2757      2761      2759
 -1      1139    8    0    1
 -2       510       509       645      2350      2762      2763
 -1      1140    8    0    1
 -2       509       644       645      2760      2764      2762
 -1      1141    8    0    1
 -2       511       510       646      2353      2765      2766
 -1      1142    8    0    1
 -2       510       645       646      2763      2767      2765
 -1      1143    8    0    1
 -2       512       511       647      2356      2768      2769
 -1      1144    8    0    1
 -2       511       646       647      2766      2770      2768
 -1      1145    8    0    1
 -2       513       512       648      2359      2771      2772
 -1      1146    8    0    1
 -2       512       647       648      2769      2773      2771
 -1      1147    8    0    1
 -2       514       513       649      2362      2774      2775
 -1      1148    8    0    1
 -2       513       648       649      2772      2776      2774
 -1      1149    8    0    1
 -2       515       514       650      2365      2777      2778
 -1      1150    8    0    1
 -2       514       649       650      2775      2779      2777
 -1      1151    8    0    1
 -2       516       515       651      2368      2780      2781
 -1      1152    8    0    1
 -2       515       650       651      2778      2782      2780
 -1      1153    8    0    1
 -2       517       516       652      2371      2783      2784
 -1      1154    8    0    1
 -2       516       651       652      2781      2785      2783
 -1      1155    8    0    1
 -2       518       517       653      2374      2786      2787
 -1      1156    8    0    1
 -2       517       652       653      2784      2788      2786
 -1      1157    8    0    1
 -2       519       518       654      2377      2789      2790
 -1      1158    8    0    1
 -2       518       653       654      2787      2791      2789
 -1      1159    8    0    1
 -2       520       519       655      2380      2792      2793
 -1      1160    8    0    1
 -2       519       654       655      2790      2794      2792
 -1      1161    8    0    1
 -2       521       520       656      2383      2795      2796
 -1      1162    8    0    1
 -2       520       655       656      2793      2797      2795
 -1      1163    8    0    1
 -2       522       521       657      2386      2798      2799
 -1      1164    8    0    1
 -2       521       656       657      2796      2800      2798
 -1      1165    8    0    1
 -2       523       522       658      2389      2801      2802
 -1      1166    8    0    1
 -2       522       657       658      2799      2803      2801
 -1      1167    8    0    1
 -2       524       523       659      2392      2804      2805
 -1      1168    8    0    1
 -2       523       658       659      2802      2806      2804
 -1      1169    8    0    1
 -2       525       524       660      2395      2807      2808
 -1      1170    8    0    1
 -2       524       659       660      2805      2809      2807
 -1      1171    8    0    1
 -2       526       525       661      2398      2810      2811
 -1      1172    8    0    1
 -2       525       660       661      2808      2812      2810
 -1      1173    8    0    1
 -2       527       526       662      2401      2813      2814
 -1      1174    8    0    1
 -2       526       661       662      2811      2815      2813
 -1      1175    8    0    1
 -2       528       527       663      2404      2816      2817
 -1      1176    8    0    1
 -2       623       528       663      2694      2817      2818
 -1      1177    8    0    1
 -2       527       662       663      2814      2819      2816
 -1      1178    8    0    1
 -2       608       609       664      2661      2820      2821
 -1      1179    8    0    1
 -2       609       610       636      2656      2822      2823
 -1      1180    8    0    1
 -2       530       531       665      2411      2824      2825
 -1      1181    8    0    1
 -2       531       626       665      2702      2826      2824
 -1      1182    8    0    1
 -2       533       534       666      2420      2827      2828
 -1      1183    8    0    1
 -2       534       535       667      2423      2829      2830
 -1      1184    8    0    1
 -2       534       667       666      2830      2831      2827
 -1      1185    8    0    1
 -2       535       536       668      2426      2832      2833
 -1      1186    8    0    1
 -2       535       668       667      2833      2834      2829
 -1      1187    8    0    1
 -2       536       537       669      2429      2835      2836
 -1      1188    8    0    1
 -2       536       669       668      2836      2837      2832
 -1      1189    8    0    1
 -2       537       538       670      2432      2838      2839
 -1      1190    8    0    1
 -2       537       670       669      2839      2840      2835
 -1      1191    8    0    1
 -2       538       539       671      2435      2841      2842
 -1      1192    8    0    1
 -2       538       671       670      2842      2843      2838
 -1      1193    8    0    1
 -2       539       540       672      2438      2844      2845
 -1      1194    8    0    1
 -2       539       672       671      2845      2846      2841
 -1      1195    8    0    1
 -2       540       541       673      2441      2847      2848
 -1      1196    8    0    1
 -2       540       673       672      2848      2849      2844
 -1      1197    8    0    1
 -2       541       542       674      2444      2850      2851
 -1      1198    8    0    1
 -2       541       674       673      2851      2852      2847
 -1      1199    8    0    1
 -2       542       543       675      2447      2853      2854
 -1      1200    8    0    1
 -2       542       675       674      2854      2855      2850
 -1      1201    8    0    1
 -2       543       544       676      2450      2856      2857
 -1      1202    8    0    1
 -2       543       676       675      2857      2858      2853
 -1      1203    8    0    1
 -2       544       545       677      2453      2859      2860
 -1      1204    8    0    1
 -2       544       677       676      2860      2861      2856
 -1      1205    8    0    1
 -2       545       546       678      2456      2862      2863
 -1      1206    8    0    1
 -2       545       678       677      2863      2864      2859
 -1      1207    8    0    1
 -2       546       547       679      2459      2865      2866
 -1      1208    8    0    1
 -2       546       679       678      2866      2867      2862
 -1      1209    8    0    1
 -2       547       548       680      2462      2868      2869
 -1      1210    8    0    1
 -2       547       680       679      2869      2870      2865
 -1      1211    8    0    1
 -2       548       549       681      2465      2871      2872
 -1      1212    8    0    1
 -2       548       681       680      2872      2873      2868
 -1      1213    8    0    1
 -2       549       550       682      2468      2874      2875
 -1      1214    8    0    1
 -2       549       682       681      2875      2876      2871
 -1      1215    8    0    1
 -2       550       551       683      2471      2877      2878
 -1      1216    8    0    1
 -2       550       683       682      2878      2879      2874
 -1      1217    8    0    1
 -2       551       552       684      2474      2880      2881
 -1      1218    8    0    1
 -2       551       684       683      2881      2882      2877
 -1      1219    8    0    1
 -2       552       553       685      2477      2883      2884
 -1      1220    8    0    1
 -2       552       685       684      2884      2885      2880
 -1      1221    8    0    1
 -2       553       554       686      2480      2886      2887
 -1      1222    8    0    1
 -2       553       686       685      2887      2888      2883
 -1      1223    8    0    1
 -2       554       555       687      2483      2889      2890
 -1      1224    8    0    1
 -2       554       687       686      2890      2891      2886
 -1      1225    8    0    1
 -2       555       556       688      2486      2892      2893
 -1      1226    8    0    1
 -2       555       688       687      2893      2894      2889
 -1      1227    8    0    1
 -2       556       557       689      2489      2895      2896
 -1      1228    8    0    1
 -2       556       689       688      2896      2897      2892
 -1      1229    8    0    1
 -2       557       558       690      2492      2898      2899
 -1      1230    8    0    1
 -2       557       690       689      2899      2900      2895
 -1      1231    8    0    1
 -2       558       559       691      2495      2901      2902
 -1      1232    8    0    1
 -2       558       691       690      2902      2903      2898
 -1      1233    8    0    1
 -2       559       560       692      2498      2904      2905
 -1      1234    8    0    1
 -2       559       692       691      2905      2906      2901
 -1      1235    8    0    1
 -2       560       561       693      2501      2907      2908
 -1      1236    8    0    1
 -2       560       693       692      2908      2909      2904
 -1      1237    8    0    1
 -2       561       562       694      2504      2910      2911
 -1      1238    8    0    1
 -2       561       694       693      2911      2912      2907
 -1      1239    8    0    1
 -2       562       563       695      2507      2913      2914
 -1      1240    8    0    1
 -2       562       695       694      2914      2915      2910
 -1      1241    8    0    1
 -2       563       564       696      2510      2916      2917
 -1      1242    8    0    1
 -2       563       696       695      2917      2918      2913
 -1      1243    8    0    1
 -2       564       565       697      2513      2919      2920
 -1      1244    8    0    1
 -2       564       697       696      2920      2921      2916
 -1      1245    8    0    1
 -2       565       566       698      2516      2922      2923
 -1      1246    8    0    1
 -2       565       698       697      2923      2924      2919
 -1      1247    8    0    1
 -2       566       567       699      2519      2925      2926
 -1      1248    8    0    1
 -2       566       699       698      2926      2927      2922
 -1      1249    8    0    1
 -2       567       568       700      2522      2928      2929
 -1      1250    8    0    1
 -2       567       700       699      2929      2930      2925
 -1      1251    8    0    1
 -2       568       569       701      2525      2931      2932
 -1      1252    8    0    1
 -2       568       701       700      2932      2933      2928
 -1      1253    8    0    1
 -2       569       570       702      2528      2934      2935
 -1      1254    8    0    1
 -2       569       702       701      2935      2936      2931
 -1      1255    8    0    1
 -2       570       571       703      2531      2937      2938
 -1      1256    8    0    1
 -2       702       570       703      2934      2938      2939
 -1      1257    8    0    1
 -2       571       574       703      2671      2940      2937
 -1      1258    8    0    1
 -2       586       587       704      2654      2941      2942
 -1      1259    8    0    1
 -2       576       577       705      2549      2943      2944
 -1      1260    8    0    1
 -2       572       573       706      2537      2945      2946
 -1      1261    8    0    1
 -2       577       578       707      2552      2947      2948
 -1      1262    8    0    1
 -2       577       707       705      2948      2949      2943
 -1      1263    8    0    1
 -2       573       576       708      2546      2950      2951
 -1      1264    8    0    1
 -2       706       573       708      2945      2951      2952
 -1      1265    8    0    1
 -2       576       705       708      2944      2953      2950
 -1      1266    8    0    1
 -2       599       596       709      2678      2954      2955
 -1      1267    8    0    1
 -2       578       579       710      2555      2956      2957
 -1      1268    8    0    1
 -2       578       710       707      2957      2958      2947
 -1      1269    8    0    1
 -2       579       580       711      2558      2959      2960
 -1      1270    8    0    1
 -2       579       711       710      2960      2961      2956
 -1      1271    8    0    1
 -2       580       581       712      2561      2962      2963
 -1      1272    8    0    1
 -2       580       712       711      2963      2964      2959
 -1      1273    8    0    1
 -2       581       582       623      2564      2696      2965
 -1      1274    8    0    1
 -2       584       530       713      2570      2966      2967
 -1      1275    8    0    1
 -2       530       665       713      2825      2968      2966
 -1      1276    8    0    1
 -2       606       589       497      2666      2732      2969
 -1      1277    8    0    1
 -2       607       498       589      2734      2733      2673
 -1      1278    8    0    1
 -2       595       602       714      2615      2970      2971
 -1      1279    8    0    1
 -2       485       450       614      2649      2646      2972
 -1      1280    8    0    1
 -2       605       612       715      2651      2973      2974
 -1      1281    8    0    1
 -2       532       533       716      2417      2975      2976
 -1      1282    8    0    1
 -2       626       532       716      2701      2976      2977
 -1      1283    8    0    1
 -2       533       666       716      2828      2978      2975
 -1      1284    8    0    1
 -2       604       591       717      2675      2979      2980
 -1      1285    8    0    1
 -2       585       586       718      2665      2981      2982
 -1      1286    8    0    1
 -2       484       584       719      2664      2983      2984
 -1      1287    8    0    1
 -2       625       484       719      2699      2984      2985
 -1      1288    8    0    1
 -2       584       713       719      2967      2986      2983
 -1      1289    8    0    1
 -2       590       603       720      2618      2987      2988
 -1      1290    8    0    1
 -2       610       604       721      2650      2989      2990
 -1      1291    8    0    1
 -2       636       610       721      2822      2990      2991
 -1      1292    8    0    1
 -2       604       717       721      2980      2992      2989
 -1      1293    8    0    1
 -2       478       479       722      2258      2993      2994
 -1      1294    8    0    1
 -2       618       478       722      2682      2994      2995
 -1      1295    8    0    1
 -2       479       620       722      2688      2996      2993
 -1      1296    8    0    1
 -2       602       590       723      2670      2997      2998
 -1      1297    8    0    1
 -2       483       597       724      2599      2999      3000
 -1      1298    8    0    1
 -2       598       529       725      2602      3001      3002
 -1      1299    8    0    1
 -2       475       474       726      2247      3003      3004
 -1      1300    8    0    1
 -2       529       585       727      2652      3005      3006
 -1      1301    8    0    1
 -2       481       613       473      2676      2642      3007
 -1      1302    8    0    1
 -2       587       600       728      2608      3008      3009
 -1      1303    8    0    1
 -2       587       728       704      3009      3010      2941
 -1      1304    8    0    1
 -2       588       592       729      2674      3011      3012
 -1      1305    8    0    1
 -2       583       598       730      2663      3013      3014
 -1      1306    8    0    1
 -2       598       725       730      3002      3015      3013
 -1      1307    8    0    1
 -2       607       608       499      2662      3016      2735
 -1      1308    8    0    1
 -2       600       594       731      2643      3017      3018
 -1      1309    8    0    1
 -2       592       483       732      2648      3019      3020
 -1      1310    8    0    1
 -2       483       724       732      3000      3021      3019
 -1      1311    8    0    1
 -2       606       497       496      2969      2311      3022
 -1      1312    8    0    1
 -2       614       475       733      2644      3023      3024
 -1      1313    8    0    1
 -2       475       726       733      3004      3025      3023
 -1      1314    8    0    1
 -2       476       619       734      2685      3026      3027
 -1      1315    8    0    1
 -2       476       734       593      3027      3028      2590
 -1      1316    8    0    1
 -2       594       622       731      2693      3029      3017
 -1      1317    8    0    1
 -2       622       599       709      2692      2955      3030
 -1      1318    8    0    1
 -2       590       720       723      2988      3031      2997
 -1      1319    8    0    1
 -2       611       583       735      2636      3032      3033
 -1      1320    8    0    1
 -2       612       495       635      2730      2728      3034
 -1      1321    8    0    1
 -2       714       602       723      2970      2998      3035
 -1      1322    8    0    1
 -2       600       731       728      3018      3036      3008
 -1      1323    8    0    1
 -2       500       499       664      2320      3037      3038
 -1      1324    8    0    1
 -2       588       729       736      3012      3039      3040
 -1      1325    8    0    1
 -2       703       574       737      2940      3041      3042
 -1      1326    8    0    1
 -2       574       575       737      2542      3043      3041
 -1      1327    8    0    1
 -2       612       606       496      2672      3022      2731
 -1      1328    8    0    1
 -2       581       623       738      2965      3044      3045
 -1      1329    8    0    1
 -2       712       581       738      2962      3045      3046
 -1      1330    8    0    1
 -2       623       663       738      2818      3047      3044
 -1      1331    8    0    1
 -2       727       585       739      3005      3048      3049
 -1      1332    8    0    1
 -2       585       718       739      2982      3050      3048
 -1      1333    8    0    1
 -2       709       596       740      2954      3051      3052
 -1      1334    8    0    1
 -2       616       595       714      2669      2971      3053
 -1      1335    8    0    1
 -2       636       500       664      2736      3038      3054
 -1      1336    8    0    1
 -2       485       614       741      2972      3055      3056
 -1      1337    8    0    1
 -2       482       485       741      2274      3056      3057
 -1      1338    8    0    1
 -2       614       733       741      3024      3058      3055
 -1      1339    8    0    1
 -2       597       616       742      2668      3059      3060
 -1      1340    8    0    1
 -2       597       742       724      3060      3061      2999
 -1      1341    8    0    1
 -2       586       704       718      2942      3062      2981
 -1      1342    8    0    1
 -2       717       591       743      2979      3063      3064
 -1      1343    8    0    1
 -2       720       603       617      2987      2680      3065
 -1      1344    8    0    1
 -2       596       601       740      2611      3066      3051
 -1      1345    8    0    1
 -2       664       609       636      2820      2823      3054
 -1      1346    8    0    1
 -2       575       572       744      2543      3067      3068
 -1      1347    8    0    1
 -2       737       575       744      3043      3068      3069
 -1      1348    8    0    1
 -2       572       706       744      2946      3070      3067
 -1      1349    8    0    1
 -2       621       481       625      2689      3071      3072
 -1      1350    8    0    1
 -2       474       593       745      2589      3073      3074
 -1      1351    8    0    1
 -2       726       474       745      3003      3074      3075
 -1      1352    8    0    1
 -2       593       734       745      3028      3076      3073
 -1      1353    8    0    1
 -2       725       529       727      3001      3006      3077
 -1      1354    8    0    1
 -2       617       605       746      2681      3078      3079
 -1      1355    8    0    1
 -2       605       715       746      2974      3080      3078
 -1      1356    8    0    1
 -2       499       608       664      3016      2821      3037
 -1      1357    8    0    1
 -2       601       588       736      2612      3040      3081
 -1      1358    8    0    1
 -2       481       473       625      3007      2700      3071
 -1      1359    8    0    1
 -2       482       741       624      3057      3082      2697
 -1      1360    8    0    1
 -2       729       592       732      3011      3020      3083
 -1      1361    8    0    1
 -2       583       730       735      3014      3084      3032
 -1      1362    8    0    1
 -2       591       611       743      2635      3085      3063
 -1      1363    8    0    1
 -2       620       621       747      2691      3086      3087
 -1      1364    8    0    1
 -2       743       611       735      3085      3033      3088
 -1      1365    8    0    1
 -2       729       732       748      3083      3089      3090
 -1      1366    8    0    1
 -2       714       723       749      3035      3091      3092
 -1      1367    8    0    1
 -2       628       627       750      2708      3093      3094
 -1      1368    8    0    1
 -2       629       628       751      2711      3095      3096
 -1      1369    8    0    1
 -2       628       750       751      3094      3097      3095
 -1      1370    8    0    1
 -2       630       629       752      2714      3098      3099
 -1      1371    8    0    1
 -2       629       751       752      3096      3100      3098
 -1      1372    8    0    1
 -2       631       630       753      2717      3101      3102
 -1      1373    8    0    1
 -2       630       752       753      3099      3103      3101
 -1      1374    8    0    1
 -2       632       631       754      2720      3104      3105
 -1      1375    8    0    1
 -2       631       753       754      3102      3106      3104
 -1      1376    8    0    1
 -2       633       632       755      2723      3107      3108
 -1      1377    8    0    1
 -2       632       754       755      3105      3109      3107
 -1      1378    8    0    1
 -2       634       633       756      2726      3110      3111
 -1      1379    8    0    1
 -2       633       755       756      3108      3112      3110
 -1      1380    8    0    1
 -2       624       741       757      3082      3113      3114
 -1      1381    8    0    1
 -2       627       624       757      2705      3114      3115
 -1      1382    8    0    1
 -2       741       733       757      3058      3116      3113
 -1      1383    8    0    1
 -2       736       729       758      3039      3117      3118
 -1      1384    8    0    1
 -2       601       736       740      3081      3119      3066
 -1      1385    8    0    1
 -2       639       638       759      2746      3120      3121
 -1      1386    8    0    1
 -2       640       639       760      2749      3122      3123
 -1      1387    8    0    1
 -2       639       759       760      3121      3124      3122
 -1      1388    8    0    1
 -2       641       640       761      2752      3125      3126
 -1      1389    8    0    1
 -2       640       760       761      3123      3127      3125
 -1      1390    8    0    1
 -2       642       641       762      2755      3128      3129
 -1      1391    8    0    1
 -2       641       761       762      3126      3130      3128
 -1      1392    8    0    1
 -2       643       642       763      2758      3131      3132
 -1      1393    8    0    1
 -2       642       762       763      3129      3133      3131
 -1      1394    8    0    1
 -2       644       643       764      2761      3134      3135
 -1      1395    8    0    1
 -2       643       763       764      3132      3136      3134
 -1      1396    8    0    1
 -2       645       644       765      2764      3137      3138
 -1      1397    8    0    1
 -2       644       764       765      3135      3139      3137
 -1      1398    8    0    1
 -2       646       645       766      2767      3140      3141
 -1      1399    8    0    1
 -2       645       765       766      3138      3142      3140
 -1      1400    8    0    1
 -2       647       646       767      2770      3143      3144
 -1      1401    8    0    1
 -2       646       766       767      3141      3145      3143
 -1      1402    8    0    1
 -2       648       647       768      2773      3146      3147
 -1      1403    8    0    1
 -2       647       767       768      3144      3148      3146
 -1      1404    8    0    1
 -2       649       648       769      2776      3149      3150
 -1      1405    8    0    1
 -2       648       768       769      3147      3151      3149
 -1      1406    8    0    1
 -2       650       649       770      2779      3152      3153
 -1      1407    8    0    1
 -2       649       769       770      3150      3154      3152
 -1      1408    8    0    1
 -2       651       650       771      2782      3155      3156
 -1      1409    8    0    1
 -2       650       770       771      3153      3157      3155
 -1      1410    8    0    1
 -2       652       651       772      2785      3158      3159
 -1      1411    8    0    1
 -2       651       771       772      3156      3160      3158
 -1      1412    8    0    1
 -2       653       652       773      2788      3161      3162
 -1      1413    8    0    1
 -2       652       772       773      3159      3163      3161
 -1      1414    8    0    1
 -2       654       653       774      2791      3164      3165
 -1      1415    8    0    1
 -2       653       773       774      3162      3166      3164
 -1      1416    8    0    1
 -2       655       654       775      2794      3167      3168
 -1      1417    8    0    1
 -2       654       774       775      3165      3169      3167
 -1      1418    8    0    1
 -2       656       655       776      2797      3170      3171
 -1      1419    8    0    1
 -2       655       775       776      3168      3172      3170
 -1      1420    8    0    1
 -2       657       656       777      2800      3173      3174
 -1      1421    8    0    1
 -2       656       776       777      3171      3175      3173
 -1      1422    8    0    1
 -2       658       657       778      2803      3176      3177
 -1      1423    8    0    1
 -2       657       777       778      3174      3178      3176
 -1      1424    8    0    1
 -2       659       658       779      2806      3179      3180
 -1      1425    8    0    1
 -2       658       778       779      3177      3181      3179
 -1      1426    8    0    1
 -2       660       659       780      2809      3182      3183
 -1      1427    8    0    1
 -2       659       779       780      3180      3184      3182
 -1      1428    8    0    1
 -2       661       660       781      2812      3185      3186
 -1      1429    8    0    1
 -2       660       780       781      3183      3187      3185
 -1      1430    8    0    1
 -2       662       661       782      2815      3188      3189
 -1      1431    8    0    1
 -2       661       781       782      3186      3190      3188
 -1      1432    8    0    1
 -2       667       668       783      2834      3191      3192
 -1      1433    8    0    1
 -2       666       667       784      2831      3193      3194
 -1      1434    8    0    1
 -2       667       783       784      3192      3195      3193
 -1      1435    8    0    1
 -2       669       670       785      2840      3196      3197
 -1      1436    8    0    1
 -2       670       671       786      2843      3198      3199
 -1      1437    8    0    1
 -2       670       786       785      3199      3200      3196
 -1      1438    8    0    1
 -2       671       672       787      2846      3201      3202
 -1      1439    8    0    1
 -2       671       787       786      3202      3203      3198
 -1      1440    8    0    1
 -2       672       673       788      2849      3204      3205
 -1      1441    8    0    1
 -2       672       788       787      3205      3206      3201
 -1      1442    8    0    1
 -2       673       674       789      2852      3207      3208
 -1      1443    8    0    1
 -2       673       789       788      3208      3209      3204
 -1      1444    8    0    1
 -2       674       675       790      2855      3210      3211
 -1      1445    8    0    1
 -2       674       790       789      3211      3212      3207
 -1      1446    8    0    1
 -2       675       676       791      2858      3213      3214
 -1      1447    8    0    1
 -2       675       791       790      3214      3215      3210
 -1      1448    8    0    1
 -2       676       677       792      2861      3216      3217
 -1      1449    8    0    1
 -2       676       792       791      3217      3218      3213
 -1      1450    8    0    1
 -2       677       678       793      2864      3219      3220
 -1      1451    8    0    1
 -2       677       793       792      3220      3221      3216
 -1      1452    8    0    1
 -2       678       679       794      2867      3222      3223
 -1      1453    8    0    1
 -2       678       794       793      3223      3224      3219
 -1      1454    8    0    1
 -2       679       680       795      2870      3225      3226
 -1      1455    8    0    1
 -2       679       795       794      3226      3227      3222
 -1      1456    8    0    1
 -2       680       681       796      2873      3228      3229
 -1      1457    8    0    1
 -2       680       796       795      3229      3230      3225
 -1      1458    8    0    1
 -2       681       682       797      2876      3231      3232
 -1      1459    8    0    1
 -2       681       797       796      3232      3233      3228
 -1      1460    8    0    1
 -2       682       683       798      2879      3234      3235
 -1      1461    8    0    1
 -2       682       798       797      3235      3236      3231
 -1      1462    8    0    1
 -2       683       684       799      2882      3237      3238
 -1      1463    8    0    1
 -2       683       799       798      3238      3239      3234
 -1      1464    8    0    1
 -2       684       685       800      2885      3240      3241
 -1      1465    8    0    1
 -2       684       800       799      3241      3242      3237
 -1      1466    8    0    1
 -2       685       686       801      2888      3243      3244
 -1      1467    8    0    1
 -2       685       801       800      3244      3245      3240
 -1      1468    8    0    1
 -2       686       687       802      2891      3246      3247
 -1      1469    8    0    1
 -2       686       802       801      3247      3248      3243
 -1      1470    8    0    1
 -2       687       688       803      2894      3249      3250
 -1      1471    8    0    1
 -2       687       803       802      3250      3251      3246
 -1      1472    8    0    1
 -2       688       689       804      2897      3252      3253
 -1      1473    8    0    1
 -2       688       804       803      3253      3254      3249
 -1      1474    8    0    1
 -2       689       690       805      2900      3255      3256
 -1      1475    8    0    1
 -2       689       805       804      3256      3257      3252
 -1      1476    8    0    1
 -2       690       691       806      2903      3258      3259
 -1      1477    8    0    1
 -2       690       806       805      3259      3260      3255
 -1      1478    8    0    1
 -2       691       692       807      2906      3261      3262
 -1      1479    8    0    1
 -2       691       807       806      3262      3263      3258
 -1      1480    8    0    1
 -2       692       693       808      2909      3264      3265
 -1      1481    8    0    1
 -2       692       808       807      3265      3266      3261
 -1      1482    8    0    1
 -2       693       694       809      2912      3267      3268
 -1      1483    8    0    1
 -2       693       809       808      3268      3269      3264
 -1      1484    8    0    1
 -2       694       695       810      2915      3270      3271
 -1      1485    8    0    1
 -2       694       810       809      3271      3272      3267
 -1      1486    8    0    1
 -2       695       696       811      2918      3273      3274
 -1      1487    8    0    1
 -2       695       811       810      3274      3275      3270
 -1      1488    8    0    1
 -2       696       697       812      2921      3276      3277
 -1      1489    8    0    1
 -2       696       812       811      3277      3278      3273
 -1      1490    8    0    1
 -2       697       698       813      2924      3279      3280
 -1      1491    8    0    1
 -2       697       813       812      3280      3281      3276
 -1      1492    8    0    1
 -2       698       699       814      2927      3282      3283
 -1      1493    8    0    1
 -2       698       814       813      3283      3284      3279
 -1      1494    8    0    1
 -2       699       700       815      2930      3285      3286
 -1      1495    8    0    1
 -2       699       815       814      3286      3287      3282
 -1      1496    8    0    1
 -2       700       701       816      2933      3288      3289
 -1      1497    8    0    1
 -2       700       816       815      3289      3290      3285
 -1      1498    8    0    1
 -2       701       702       817      2936      3291      3292
 -1      1499    8    0    1
 -2       701       817       816      3292      3293      3288
 -1      1500    8    0    1
 -2       702       703       818      2939      3294      3295
 -1      1501    8    0    1
 -2       817       702       818      3291      3295      3296
 -1      1502    8    0    1
 -2       703       737       818      3042      3297      3294
 -1      1503    8    0    1
 -2       723       720       819      3031      3298      3299
 -1      1504    8    0    1
 -2       621       625       820      3072      3300      3301
 -1      1505    8    0    1
 -2       747       621       820      3086      3301      3302
 -1      1506    8    0    1
 -2       625       719       820      2985      3303      3300
 -1      1507    8    0    1
 -2       705       707       821      2949      3304      3305
 -1      1508    8    0    1
 -2       711       712       822      2964      3306      3307
 -1      1509    8    0    1
 -2       707       710       823      2958      3308      3309
 -1      1510    8    0    1
 -2       707       823       821      3309      3310      3304
 -1      1511    8    0    1
 -2       730       725       824      3015      3311      3312
 -1      1512    8    0    1
 -2       713       665       825      2968      3313      3314
 -1      1513    8    0    1
 -2       710       711       826      2961      3315      3316
 -1      1514    8    0    1
 -2       823       710       826      3308      3316      3317
 -1      1515    8    0    1
 -2       711       822       826      3307      3318      3315
 -1      1516    8    0    1
 -2       616       714       827      3053      3319      3320
 -1      1517    8    0    1
 -2       668       669       828      2837      3321      3322
 -1      1518    8    0    1
 -2       783       668       828      3191      3322      3323
 -1      1519    8    0    1
 -2       669       785       828      3197      3324      3321
 -1      1520    8    0    1
 -2       665       626       829      2826      3325      3326
 -1      1521    8    0    1
 -2       665       829       825      3326      3327      3313
 -1      1522    8    0    1
 -2       637       636       721      2740      2991      3328
 -1      1523    8    0    1
 -2       731       622       790      3029      3329      3330
 -1      1524    8    0    1
 -2       720       617       830      3065      3331      3332
 -1      1525    8    0    1
 -2       717       743       759      3064      3333      3334
 -1      1526    8    0    1
 -2       709       740       788      3052      3335      3336
 -1      1527    8    0    1
 -2       619       618       831      2686      3337      3338
 -1      1528    8    0    1
 -2       718       704       832      3062      3339      3340
 -1      1529    8    0    1
 -2       725       727       833      3077      3341      3342
 -1      1530    8    0    1
 -2       725       833       824      3342      3343      3311
 -1      1531    8    0    1
 -2       728       731       834      3036      3344      3345
 -1      1532    8    0    1
 -2       732       724       835      3021      3346      3347
 -1      1533    8    0    1
 -2       732       835       748      3347      3348      3089
 -1      1534    8    0    1
 -2       622       709       789      3030      3349      3350
 -1      1535    8    0    1
 -2       735       730       836      3084      3351      3352
 -1      1536    8    0    1
 -2       704       728       837      3010      3353      3354
 -1      1537    8    0    1
 -2       832       704       837      3339      3354      3355
 -1      1538    8    0    1
 -2       728       834       837      3345      3356      3353
 -1      1539    8    0    1
 -2       743       735       838      3088      3357      3358
 -1      1540    8    0    1
 -2       735       836       838      3352      3359      3357
 -1      1541    8    0    1
 -2       740       736       839      3119      3360      3361
 -1      1542    8    0    1
 -2       734       619       840      3026      3362      3363
 -1      1543    8    0    1
 -2       619       831       840      3338      3364      3362
 -1      1544    8    0    1
 -2       622       789       790      3350      3212      3329
 -1      1545    8    0    1
 -2       714       749       827      3092      3365      3319
 -1      1546    8    0    1
 -2       618       722       841      2995      3366      3367
 -1      1547    8    0    1
 -2       618       841       831      3367      3368      3337
 -1      1548    8    0    1
 -2       612       635       715      3034      3369      2973
 -1      1549    8    0    1
 -2       634       756       746      3111      3370      3371
 -1      1550    8    0    1
 -2       627       757       750      3115      3372      3093
 -1      1551    8    0    1
 -2       635       634       746      2729      3371      3373
 -1      1552    8    0    1
 -2       724       742       842      3061      3374      3375
 -1      1553    8    0    1
 -2       724       842       835      3375      3376      3346
 -1      1554    8    0    1
 -2       759       638       717      3120      3377      3334
 -1      1555    8    0    1
 -2       727       739       843      3049      3378      3379
 -1      1556    8    0    1
 -2       727       843       833      3379      3380      3341
 -1      1557    8    0    1
 -2       638       637       717      2743      3381      3377
 -1      1558    8    0    1
 -2       662       782       844      3189      3382      3383
 -1      1559    8    0    1
 -2       662       844       663      3383      3384      2819
 -1      1560    8    0    1
 -2       829       626       845      3325      3385      3386
 -1      1561    8    0    1
 -2       626       716       845      2977      3387      3385
 -1      1562    8    0    1
 -2       722       620       846      2996      3388      3389
 -1      1563    8    0    1
 -2       841       722       846      3366      3389      3390
 -1      1564    8    0    1
 -2       620       747       846      3087      3391      3388
 -1      1565    8    0    1
 -2       744       706       847      3070      3392      3393
 -1      1566    8    0    1
 -2       733       726       848      3025      3394      3395
 -1      1567    8    0    1
 -2       666       784       849      3194      3396      3397
 -1      1568    8    0    1
 -2       666       849       716      3397      3398      2978
 -1      1569    8    0    1
 -2       819       720       830      3298      3332      3399
 -1      1570    8    0    1
 -2       723       819       749      3299      3400      3091
 -1      1571    8    0    1
 -2       706       708       850      2952      3401      3402
 -1      1572    8    0    1
 -2       706       850       847      3402      3403      3392
 -1      1573    8    0    1
 -2       822       712       844      3306      3404      3405
 -1      1574    8    0    1
 -2       616       827       742      3320      3406      3059
 -1      1575    8    0    1
 -2       708       705       851      2953      3407      3408
 -1      1576    8    0    1
 -2       850       708       851      3401      3408      3409
 -1      1577    8    0    1
 -2       705       821       851      3305      3410      3407
 -1      1578    8    0    1
 -2       739       718       852      3050      3411      3412
 -1      1579    8    0    1
 -2       718       832       852      3340      3413      3411
 -1      1580    8    0    1
 -2       759       743       853      3333      3414      3415
 -1      1581    8    0    1
 -2       760       759       853      3124      3415      3416
 -1      1582    8    0    1
 -2       743       838       853      3358      3417      3414
 -1      1583    8    0    1
 -2       830       617       746      3331      3079      3418
 -1      1584    8    0    1
 -2       715       635       746      3369      3373      3080
 -1      1585    8    0    1
 -2       848       726       854      3394      3419      3420
 -1      1586    8    0    1
 -2       726       745       854      3075      3421      3419
 -1      1587    8    0    1
 -2       736       758       786      3118      3422      3423
 -1      1588    8    0    1
 -2       719       713       855      2986      3424      3425
 -1      1589    8    0    1
 -2       820       719       855      3303      3425      3426
 -1      1590    8    0    1
 -2       713       825       855      3314      3427      3424
 -1      1591    8    0    1
 -2       758       729       748      3117      3090      3428
 -1      1592    8    0    1
 -2       836       730       824      3351      3312      3429
 -1      1593    8    0    1
 -2       709       788       789      3336      3209      3349
 -1      1594    8    0    1
 -2       731       790       791      3330      3215      3430
 -1      1595    8    0    1
 -2       822       844       856      3405      3431      3432
 -1      1596    8    0    1
 -2       844       782       856      3382      3433      3431
 -1      1597    8    0    1
 -2       784       783       857      3195      3434      3435
 -1      1598    8    0    1
 -2       746       756       830      3370      3436      3418
 -1      1599    8    0    1
 -2       750       757       858      3372      3437      3438
 -1      1600    8    0    1
 -2       752       751       859      3100      3439      3440
 -1      1601    8    0    1
 -2       753       752       860      3103      3441      3442
 -1      1602    8    0    1
 -2       752       859       860      3440      3443      3441
 -1      1603    8    0    1
 -2       754       753       861      3106      3444      3445
 -1      1604    8    0    1
 -2       753       860       861      3442      3446      3444
 -1      1605    8    0    1
 -2       755       754       862      3109      3447      3448
 -1      1606    8    0    1
 -2       754       861       862      3445      3449      3447
 -1      1607    8    0    1
 -2       756       755       863      3112      3450      3451
 -1      1608    8    0    1
 -2       755       862       863      3448      3452      3450
 -1      1609    8    0    1
 -2       761       760       864      3127      3453      3454
 -1      1610    8    0    1
 -2       760       853       864      3416      3455      3453
 -1      1611    8    0    1
 -2       762       761       865      3130      3456      3457
 -1      1612    8    0    1
 -2       761       864       865      3454      3458      3456
 -1      1613    8    0    1
 -2       763       762       866      3133      3459      3460
 -1      1614    8    0    1
 -2       762       865       866      3457      3461      3459
 -1      1615    8    0    1
 -2       764       763       867      3136      3462      3463
 -1      1616    8    0    1
 -2       763       866       867      3460      3464      3462
 -1      1617    8    0    1
 -2       765       764       868      3139      3465      3466
 -1      1618    8    0    1
 -2       764       867       868      3463      3467      3465
 -1      1619    8    0    1
 -2       766       765       869      3142      3468      3469
 -1      1620    8    0    1
 -2       765       868       869      3466      3470      3468
 -1      1621    8    0    1
 -2       767       766       870      3145      3471      3472
 -1      1622    8    0    1
 -2       766       869       870      3469      3473      3471
 -1      1623    8    0    1
 -2       768       767       871      3148      3474      3475
 -1      1624    8    0    1
 -2       767       870       871      3472      3476      3474
 -1      1625    8    0    1
 -2       769       768       872      3151      3477      3478
 -1      1626    8    0    1
 -2       768       871       872      3475      3479      3477
 -1      1627    8    0    1
 -2       770       769       873      3154      3480      3481
 -1      1628    8    0    1
 -2       769       872       873      3478      3482      3480
 -1      1629    8    0    1
 -2       771       770       874      3157      3483      3484
 -1      1630    8    0    1
 -2       770       873       874      3481      3485      3483
 -1      1631    8    0    1
 -2       772       771       875      3160      3486      3487
 -1      1632    8    0    1
 -2       771       874       875      3484      3488      3486
 -1      1633    8    0    1
 -2       773       772       876      3163      3489      3490
 -1      1634    8    0    1
 -2       772       875       876      3487      3491      3489
 -1      1635    8    0    1
 -2       774       773       877      3166      3492      3493
 -1      1636    8    0    1
 -2       773       876       877      3490      3494      3492
 -1      1637    8    0    1
 -2       775       774       878      3169      3495      3496
 -1      1638    8    0    1
 -2       774       877       878      3493      3497      3495
 -1      1639    8    0    1
 -2       776       775       879      3172      3498      3499
 -1      1640    8    0    1
 -2       775       878       879      3496      3500      3498
 -1      1641    8    0    1
 -2       777       776       880      3175      3501      3502
 -1      1642    8    0    1
 -2       776       879       880      3499      3503      3501
 -1      1643    8    0    1
 -2       778       777       881      3178      3504      3505
 -1      1644    8    0    1
 -2       777       880       881      3502      3506      3504
 -1      1645    8    0    1
 -2       779       778       882      3181      3507      3508
 -1      1646    8    0    1
 -2       778       881       882      3505      3509      3507
 -1      1647    8    0    1
 -2       780       779       883      3184      3510      3511
 -1      1648    8    0    1
 -2       779       882       883      3508      3512      3510
 -1      1649    8    0    1
 -2       781       780       884      3187      3513      3514
 -1      1650    8    0    1
 -2       780       883       884      3511      3515      3513
 -1      1651    8    0    1
 -2       782       781       885      3190      3516      3517
 -1      1652    8    0    1
 -2       856       782       885      3433      3517      3518
 -1      1653    8    0    1
 -2       781       884       885      3514      3519      3516
 -1      1654    8    0    1
 -2       786       758       785      3422      3520      3200
 -1      1655    8    0    1
 -2       792       793       886      3221      3521      3522
 -1      1656    8    0    1
 -2       793       794       887      3224      3523      3524
 -1      1657    8    0    1
 -2       793       887       886      3524      3525      3521
 -1      1658    8    0    1
 -2       794       795       888      3227      3526      3527
 -1      1659    8    0    1
 -2       794       888       887      3527      3528      3523
 -1      1660    8    0    1
 -2       795       796       889      3230      3529      3530
 -1      1661    8    0    1
 -2       795       889       888      3530      3531      3526
 -1      1662    8    0    1
 -2       796       797       890      3233      3532      3533
 -1      1663    8    0    1
 -2       796       890       889      3533      3534      3529
 -1      1664    8    0    1
 -2       797       798       891      3236      3535      3536
 -1      1665    8    0    1
 -2       797       891       890      3536      3537      3532
 -1      1666    8    0    1
 -2       798       799       892      3239      3538      3539
 -1      1667    8    0    1
 -2       798       892       891      3539      3540      3535
 -1      1668    8    0    1
 -2       799       800       893      3242      3541      3542
 -1      1669    8    0    1
 -2       799       893       892      3542      3543      3538
 -1      1670    8    0    1
 -2       800       801       894      3245      3544      3545
 -1      1671    8    0    1
 -2       800       894       893      3545      3546      3541
 -1      1672    8    0    1
 -2       801       802       895      3248      3547      3548
 -1      1673    8    0    1
 -2       801       895       894      3548      3549      3544
 -1      1674    8    0    1
 -2       802       803       896      3251      3550      3551
 -1      1675    8    0    1
 -2       802       896       895      3551      3552      3547
 -1      1676    8    0    1
 -2       803       804       897      3254      3553      3554
 -1      1677    8    0    1
 -2       803       897       896      3554      3555      3550
 -1      1678    8    0    1
 -2       804       805       898      3257      3556      3557
 -1      1679    8    0    1
 -2       804       898       897      3557      3558      3553
 -1      1680    8    0    1
 -2       805       806       899      3260      3559      3560
 -1      1681    8    0    1
 -2       805       899       898      3560      3561      3556
 -1      1682    8    0    1
 -2       806       807       900      3263      3562      3563
 -1      1683    8    0    1
 -2       806       900       899      3563      3564      3559
 -1      1684    8    0    1
 -2       807       808       901      3266      3565      3566
 -1      1685    8    0    1
 -2       807       901       900      3566      3567      3562
 -1      1686    8    0    1
 -2       808       809       902      3269      3568      3569
 -1      1687    8    0    1
 -2       808       902       901      3569      3570      3565
 -1      1688    8    0    1
 -2       809       810       903      3272      3571      3572
 -1      1689    8    0    1
 -2       809       903       902      3572      3573      3568
 -1      1690    8    0    1
 -2       810       811       904      3275      3574      3575
 -1      1691    8    0    1
 -2       810       904       903      3575      3576      3571
 -1      1692    8    0    1
 -2       811       812       905      3278      3577      3578
 -1      1693    8    0    1
 -2       811       905       904      3578      3579      3574
 -1      1694    8    0    1
 -2       812       813       906      3281      3580      3581
 -1      1695    8    0    1
 -2       812       906       905      3581      3582      3577
 -1      1696    8    0    1
 -2       813       814       907      3284      3583      3584
 -1      1697    8    0    1
 -2       813       907       906      3584      3585      3580
 -1      1698    8    0    1
 -2       814       815       908      3287      3586      3587
 -1      1699    8    0    1
 -2       814       908       907      3587      3588      3583
 -1      1700    8    0    1
 -2       815       816       909      3290      3589      3590
 -1      1701    8    0    1
 -2       815       909       908      3590      3591      3586
 -1      1702    8    0    1
 -2       816       817       910      3293      3592      3593
 -1      1703    8    0    1
 -2       816       910       909      3593      3594      3589
 -1      1704    8    0    1
 -2       844       712       738      3404      3046      3595
 -1      1705    8    0    1
 -2       742       827       911      3406      3596      3597
 -1      1706    8    0    1
 -2       742       911       842      3597      3598      3374
 -1      1707    8    0    1
 -2       821       823       912      3310      3599      3600
 -1      1708    8    0    1
 -2       758       748       913      3428      3601      3602
 -1      1709    8    0    1
 -2       827       749       914      3365      3603      3604
 -1      1710    8    0    1
 -2       717       637       721      3381      3328      2992
 -1      1711    8    0    1
 -2       819       830       863      3399      3605      3606
 -1      1712    8    0    1
 -2       749       819       915      3400      3607      3608
 -1      1713    8    0    1
 -2       745       734       916      3076      3609      3610
 -1      1714    8    0    1
 -2       745       916       854      3610      3611      3421
 -1      1715    8    0    1
 -2       663       844       738      3384      3595      3047
 -1      1716    8    0    1
 -2       824       833       917      3343      3612      3613
 -1      1717    8    0    1
 -2       838       836       918      3359      3614      3615
 -1      1718    8    0    1
 -2       788       740       787      3335      3616      3206
 -1      1719    8    0    1
 -2       834       731       791      3344      3430      3617
 -1      1720    8    0    1
 -2       825       829       919      3327      3618      3619
 -1      1721    8    0    1
 -2       834       791       920      3617      3620      3621
 -1      1722    8    0    1
 -2       837       834       920      3356      3621      3622
 -1      1723    8    0    1
 -2       791       792       920      3218      3623      3620
 -1      1724    8    0    1
 -2       836       824       921      3429      3624      3625
 -1      1725    8    0    1
 -2       918       836       921      3614      3625      3626
 -1      1726    8    0    1
 -2       824       917       921      3613      3627      3624
 -1      1727    8    0    1
 -2       751       750       922      3097      3628      3629
 -1      1728    8    0    1
 -2       751       922       859      3629      3630      3439
 -1      1729    8    0    1
 -2       748       835       923      3348      3631      3632
 -1      1730    8    0    1
 -2       748       923       913      3632      3633      3601
 -1      1731    8    0    1
 -2       737       744       924      3069      3634      3635
 -1      1732    8    0    1
 -2       818       737       924      3297      3635      3636
 -1      1733    8    0    1
 -2       744       847       924      3393      3637      3634
 -1      1734    8    0    1
 -2       740       839       787      3361      3638      3616
 -1      1735    8    0    1
 -2       830       756       863      3436      3451      3605
 -1      1736    8    0    1
 -2       785       758       913      3520      3602      3639
 -1      1737    8    0    1
 -2       839       736       786      3360      3423      3640
 -1      1738    8    0    1
 -2       757       733       848      3116      3395      3641
 -1      1739    8    0    1
 -2       821       912       925      3600      3642      3643
 -1      1740    8    0    1
 -2       821       925       851      3643      3644      3410
 -1      1741    8    0    1
 -2       734       840       916      3363      3645      3609
 -1      1742    8    0    1
 -2       843       739       926      3378      3646      3647
 -1      1743    8    0    1
 -2       739       852       926      3412      3648      3646
 -1      1744    8    0    1
 -2       826       822       927      3318      3649      3650
 -1      1745    8    0    1
 -2       822       856       927      3432      3651      3649
 -1      1746    8    0    1
 -2       831       841       928      3368      3652      3653
 -1      1747    8    0    1
 -2       849       784       929      3396      3654      3655
 -1      1748    8    0    1
 -2       784       857       929      3435      3656      3654
 -1      1749    8    0    1
 -2       845       716       849      3387      3398      3657
 -1      1750    8    0    1
 -2       914       749       915      3603      3608      3658
 -1      1751    8    0    1
 -2       846       747       930      3391      3659      3660
 -1      1752    8    0    1
 -2       829       845       931      3386      3661      3662
 -1      1753    8    0    1
 -2       829       931       919      3662      3663      3618
 -1      1754    8    0    1
 -2       786       787       839      3203      3638      3640
 -1      1755    8    0    1
 -2       792       886       920      3522      3664      3623
 -1      1756    8    0    1
 -2       831       928       932      3653      3665      3666
 -1      1757    8    0    1
 -2       831       932       840      3666      3667      3364
 -1      1758    8    0    1
 -2       917       833       933      3612      3668      3669
 -1      1759    8    0    1
 -2       833       843       933      3380      3670      3668
 -1      1760    8    0    1
 -2       817       818       924      3296      3636      3671
 -1      1761    8    0    1
 -2       852       832       934      3413      3672      3673
 -1      1762    8    0    1
 -2       911       827       914      3596      3604      3674
 -1      1763    8    0    1
 -2       747       820       935      3302      3675      3676
 -1      1764    8    0    1
 -2       930       747       935      3659      3676      3677
 -1      1765    8    0    1
 -2       820       855       935      3426      3678      3675
 -1      1766    8    0    1
 -2       750       858       922      3438      3679      3628
 -1      1767    8    0    1
 -2       853       838       936      3417      3680      3681
 -1      1768    8    0    1
 -2       864       853       936      3455      3681      3682
 -1      1769    8    0    1
 -2       838       918       936      3615      3683      3680
 -1      1770    8    0    1
 -2       823       826       937      3317      3684      3685
 -1      1771    8    0    1
 -2       912       823       937      3599      3685      3686
 -1      1772    8    0    1
 -2       826       927       937      3650      3687      3684
 -1      1773    8    0    1
 -2       828       785       913      3324      3639      3688
 -1      1774    8    0    1
 -2       783       828       938      3323      3689      3690
 -1      1775    8    0    1
 -2       857       783       938      3434      3690      3691
 -1      1776    8    0    1
 -2       828       913       938      3688      3692      3689
 -1      1777    8    0    1
 -2       915       819       863      3607      3606      3693
 -1      1778    8    0    1
 -2       835       842       939      3376      3694      3695
 -1      1779    8    0    1
 -2       835       939       923      3695      3696      3631
 -1      1780    8    0    1
 -2       817       924       910      3671      3697      3592
 -1      1781    8    0    1
 -2       934       832       837      3672      3355      3698
 -1      1782    8    0    1
 -2       757       848       858      3641      3699      3437
 -1      1783    8    0    1
 -2       848       854       940      3420      3700      3701
 -1      1784    8    0    1
 -2       848       940       858      3701      3702      3699
 -1      1785    8    0    1
 -2       855       825       941      3427      3703      3704
 -1      1786    8    0    1
 -2       935       855       941      3678      3704      3705
 -1      1787    8    0    1
 -2       825       919       941      3619      3706      3703
 -1      1788    8    0    1
 -2       924       847       910      3637      3707      3697
 -1      1789    8    0    1
 -2       847       850       942      3403      3708      3709
 -1      1790    8    0    1
 -2       910       847       942      3707      3709      3710
 -1      1791    8    0    1
 -2       861       860       943      3446      3711      3712
 -1      1792    8    0    1
 -2       862       861       944      3449      3713      3714
 -1      1793    8    0    1
 -2       861       943       944      3712      3715      3713
 -1      1794    8    0    1
 -2       863       862       945      3452      3716      3717
 -1      1795    8    0    1
 -2       915       863       945      3693      3717      3718
 -1      1796    8    0    1
 -2       862       944       945      3714      3719      3716
 -1      1797    8    0    1
 -2       845       849       946      3657      3720      3721
 -1      1798    8    0    1
 -2       849       929       946      3655      3722      3720
 -1      1799    8    0    1
 -2       865       864       947      3458      3723      3724
 -1      1800    8    0    1
 -2       864       936       947      3682      3725      3723
 -1      1801    8    0    1
 -2       866       865       948      3461      3726      3727
 -1      1802    8    0    1
 -2       865       947       948      3724      3728      3726
 -1      1803    8    0    1
 -2       867       866       949      3464      3729      3730
 -1      1804    8    0    1
 -2       866       948       949      3727      3731      3729
 -1      1805    8    0    1
 -2       868       867       950      3467      3732      3733
 -1      1806    8    0    1
 -2       867       949       950      3730      3734      3732
 -1      1807    8    0    1
 -2       869       868       951      3470      3735      3736
 -1      1808    8    0    1
 -2       868       950       951      3733      3737      3735
 -1      1809    8    0    1
 -2       870       869       952      3473      3738      3739
 -1      1810    8    0    1
 -2       869       951       952      3736      3740      3738
 -1      1811    8    0    1
 -2       871       870       953      3476      3741      3742
 -1      1812    8    0    1
 -2       870       952       953      3739      3743      3741
 -1      1813    8    0    1
 -2       872       871       954      3479      3744      3745
 -1      1814    8    0    1
 -2       871       953       954      3742      3746      3744
 -1      1815    8    0    1
 -2       873       872       955      3482      3747      3748
 -1      1816    8    0    1
 -2       872       954       955      3745      3749      3747
 -1      1817    8    0    1
 -2       874       873       956      3485      3750      3751
 -1      1818    8    0    1
 -2       873       955       956      3748      3752      3750
 -1      1819    8    0    1
 -2       875       874       957      3488      3753      3754
 -1      1820    8    0    1
 -2       874       956       957      3751      3755      3753
 -1      1821    8    0    1
 -2       876       875       958      3491      3756      3757
 -1      1822    8    0    1
 -2       875       957       958      3754      3758      3756
 -1      1823    8    0    1
 -2       877       876       959      3494      3759      3760
 -1      1824    8    0    1
 -2       876       958       959      3757      3761      3759
 -1      1825    8    0    1
 -2       878       877       960      3497      3762      3763
 -1      1826    8    0    1
 -2       877       959       960      3760      3764      3762
 -1      1827    8    0    1
 -2       879       878       961      3500      3765      3766
 -1      1828    8    0    1
 -2       878       960       961      3763      3767      3765
 -1      1829    8    0    1
 -2       880       879       962      3503      3768      3769
 -1      1830    8    0    1
 -2       879       961       962      3766      3770      3768
 -1      1831    8    0    1
 -2       881       880       963      3506      3771      3772
 -1      1832    8    0    1
 -2       880       962       963      3769      3773      3771
 -1      1833    8    0    1
 -2       882       881       964      3509      3774      3775
 -1      1834    8    0    1
 -2       881       963       964      3772      3776      3774
 -1      1835    8    0    1
 -2       883       882       965      3512      3777      3778
 -1      1836    8    0    1
 -2       882       964       965      3775      3779      3777
 -1      1837    8    0    1
 -2       884       883       966      3515      3780      3781
 -1      1838    8    0    1
 -2       883       965       966      3778      3782      3780
 -1      1839    8    0    1
 -2       887       888       967      3528      3783      3784
 -1      1840    8    0    1
 -2       914       915       968      3658      3785      3786
 -1      1841    8    0    1
 -2       913       923       938      3633      3787      3692
 -1      1842    8    0    1
 -2       886       887       934      3525      3788      3789
 -1      1843    8    0    1
 -2       889       890       969      3534      3790      3791
 -1      1844    8    0    1
 -2       890       891       970      3537      3792      3793
 -1      1845    8    0    1
 -2       890       970       969      3793      3794      3790
 -1      1846    8    0    1
 -2       891       892       971      3540      3795      3796
 -1      1847    8    0    1
 -2       891       971       970      3796      3797      3792
 -1      1848    8    0    1
 -2       892       893       972      3543      3798      3799
 -1      1849    8    0    1
 -2       892       972       971      3799      3800      3795
 -1      1850    8    0    1
 -2       893       894       973      3546      3801      3802
 -1      1851    8    0    1
 -2       893       973       972      3802      3803      3798
 -1      1852    8    0    1
 -2       894       895       974      3549      3804      3805
 -1      1853    8    0    1
 -2       894       974       973      3805      3806      3801
 -1      1854    8    0    1
 -2       895       896       975      3552      3807      3808
 -1      1855    8    0    1
 -2       895       975       974      3808      3809      3804
 -1      1856    8    0    1
 -2       896       897       976      3555      3810      3811
 -1      1857    8    0    1
 -2       896       976       975      3811      3812      3807
 -1      1858    8    0    1
 -2       897       898       977      3558      3813      3814
 -1      1859    8    0    1
 -2       897       977       976      3814      3815      3810
 -1      1860    8    0    1
 -2       898       899       978      3561      3816      3817
 -1      1861    8    0    1
 -2       898       978       977      3817      3818      3813
 -1      1862    8    0    1
 -2       899       900       979      3564      3819      3820
 -1      1863    8    0    1
 -2       899       979       978      3820      3821      3816
 -1      1864    8    0    1
 -2       900       901       980      3567      3822      3823
 -1      1865    8    0    1
 -2       900       980       979      3823      3824      3819
 -1      1866    8    0    1
 -2       901       902       981      3570      3825      3826
 -1      1867    8    0    1
 -2       901       981       980      3826      3827      3822
 -1      1868    8    0    1
 -2       902       903       982      3573      3828      3829
 -1      1869    8    0    1
 -2       902       982       981      3829      3830      3825
 -1      1870    8    0    1
 -2       903       904       983      3576      3831      3832
 -1      1871    8    0    1
 -2       903       983       982      3832      3833      3828
 -1      1872    8    0    1
 -2       904       905       984      3579      3834      3835
 -1      1873    8    0    1
 -2       904       984       983      3835      3836      3831
 -1      1874    8    0    1
 -2       905       906       985      3582      3837      3838
 -1      1875    8    0    1
 -2       905       985       984      3838      3839      3834
 -1      1876    8    0    1
 -2       906       907       986      3585      3840      3841
 -1      1877    8    0    1
 -2       906       986       985      3841      3842      3837
 -1      1878    8    0    1
 -2       907       908       987      3588      3843      3844
 -1      1879    8    0    1
 -2       907       987       986      3844      3845      3840
 -1      1880    8    0    1
 -2       908       909       988      3591      3846      3847
 -1      1881    8    0    1
 -2       908       988       987      3847      3848      3843
 -1      1882    8    0    1
 -2       909       910       942      3594      3710      3849
 -1      1883    8    0    1
 -2       911       914       989      3674      3850      3851
 -1      1884    8    0    1
 -2       914       968       989      3786      3852      3850
 -1      1885    8    0    1
 -2       916       840       990      3645      3853      3854
 -1      1886    8    0    1
 -2       840       932       990      3667      3855      3853
 -1      1887    8    0    1
 -2       922       858       940      3679      3702      3856
 -1      1888    8    0    1
 -2       854       916       991      3611      3857      3858
 -1      1889    8    0    1
 -2       916       990       991      3854      3859      3857
 -1      1890    8    0    1
 -2       841       846       992      3390      3860      3861
 -1      1891    8    0    1
 -2       928       841       992      3652      3861      3862
 -1      1892    8    0    1
 -2       846       930       992      3660      3863      3860
 -1      1893    8    0    1
 -2       860       859       993      3443      3864      3865
 -1      1894    8    0    1
 -2       860       993       943      3865      3866      3711
 -1      1895    8    0    1
 -2       888       889       994      3531      3867      3868
 -1      1896    8    0    1
 -2       888       994       967      3868      3869      3783
 -1      1897    8    0    1
 -2       859       922       995      3630      3870      3871
 -1      1898    8    0    1
 -2       859       995       993      3871      3872      3864
 -1      1899    8    0    1
 -2       942       850       996      3708      3873      3874
 -1      1900    8    0    1
 -2       850       851       996      3409      3875      3873
 -1      1901    8    0    1
 -2       842       911       997      3598      3876      3877
 -1      1902    8    0    1
 -2       842       997       939      3877      3878      3694
 -1      1903    8    0    1
 -2       934       887       967      3788      3784      3879
 -1      1904    8    0    1
 -2       909       942       988      3849      3880      3846
 -1      1905    8    0    1
 -2       854       991       940      3858      3881      3700
 -1      1906    8    0    1
 -2       845       946       931      3721      3882      3661
 -1      1907    8    0    1
 -2       968       915       945      3785      3718      3883
 -1      1908    8    0    1
 -2       925       912       998      3642      3884      3885
 -1      1909    8    0    1
 -2       929       857       999      3656      3886      3887
 -1      1910    8    0    1
 -2       926       852       967      3648      3888      3889
 -1      1911    8    0    1
 -2       927       856      1000      3651      3890      3891
 -1      1912    8    0    1
 -2       856       885      1000      3518      3892      3890
 -1      1913    8    0    1
 -2       942       996      1001      3874      3893      3894
 -1      1914    8    0    1
 -2       942      1001       988      3894      3895      3880
 -1      1915    8    0    1
 -2       885       884      1002      3519      3896      3897
 -1      1916    8    0    1
 -2      1000       885      1002      3892      3897      3898
 -1      1917    8    0    1
 -2       884       966      1002      3781      3899      3896
 -1      1918    8    0    1
 -2       919       931      1003      3663      3900      3901
 -1      1919    8    0    1
 -2       928       992      1004      3862      3902      3903
 -1      1920    8    0    1
 -2       851       925       996      3644      3904      3875
 -1      1921    8    0    1
 -2       938       923      1005      3787      3905      3906
 -1      1922    8    0    1
 -2       857       938      1005      3691      3906      3907
 -1      1923    8    0    1
 -2       923       939      1005      3696      3908      3905
 -1      1924    8    0    1
 -2       932       928      1006      3665      3909      3910
 -1      1925    8    0    1
 -2       928      1004      1006      3903      3911      3909
 -1      1926    8    0    1
 -2       933       843      1007      3670      3912      3913
 -1      1927    8    0    1
 -2       843       926      1007      3647      3914      3912
 -1      1928    8    0    1
 -2       918       921      1008      3626      3915      3916
 -1      1929    8    0    1
 -2       889       969       994      3791      3917      3867
 -1      1930    8    0    1
 -2       934       837       920      3698      3622      3918
 -1      1931    8    0    1
 -2       852       934       967      3673      3879      3888
 -1      1932    8    0    1
 -2       936       918      1009      3683      3919      3920
 -1      1933    8    0    1
 -2       947       936      1009      3725      3920      3921
 -1      1934    8    0    1
 -2       918      1008      1009      3916      3922      3919
 -1      1935    8    0    1
 -2       930       935       941      3677      3705      3923
 -1      1936    8    0    1
 -2       921       917      1010      3627      3924      3925
 -1      1937    8    0    1
 -2       921      1010      1008      3925      3926      3915
 -1      1938    8    0    1
 -2       930       941      1011      3923      3927      3928
 -1      1939    8    0    1
 -2       992       930      1011      3863      3928      3929
 -1      1940    8    0    1
 -2       941       919      1011      3706      3930      3927
 -1      1941    8    0    1
 -2       999       857      1005      3886      3907      3931
 -1      1942    8    0    1
 -2       998       912      1012      3884      3932      3933
 -1      1943    8    0    1
 -2       912       937      1012      3686      3934      3932
 -1      1944    8    0    1
 -2      1010       917      1013      3924      3935      3936
 -1      1945    8    0    1
 -2       917       933      1013      3669      3937      3935
 -1      1946    8    0    1
 -2      1011       919      1003      3930      3901      3938
 -1      1947    8    0    1
 -2       995       922       940      3870      3856      3939
 -1      1948    8    0    1
 -2       997       911      1014      3876      3940      3941
 -1      1949    8    0    1
 -2       911       989      1014      3851      3942      3940
 -1      1950    8    0    1
 -2       945       944      1015      3719      3943      3944
 -1      1951    8    0    1
 -2       945      1015       968      3944      3945      3883
 -1      1952    8    0    1
 -2       937       927      1016      3687      3946      3947
 -1      1953    8    0    1
 -2      1012       937      1016      3934      3947      3948
 -1      1954    8    0    1
 -2       927      1000      1016      3891      3949      3946
 -1      1955    8    0    1
 -2       929       999      1017      3887      3950      3951
 -1      1956    8    0    1
 -2       929      1017       946      3951      3952      3722
 -1      1957    8    0    1
 -2       926       967      1007      3889      3953      3914
 -1      1958    8    0    1
 -2       948       947      1018      3728      3954      3955
 -1      1959    8    0    1
 -2       947      1009      1018      3921      3956      3954
 -1      1960    8    0    1
 -2       949       948      1019      3731      3957      3958
 -1      1961    8    0    1
 -2       948      1018      1019      3955      3959      3957
 -1      1962    8    0    1
 -2       950       949      1020      3734      3960      3961
 -1      1963    8    0    1
 -2       949      1019      1020      3958      3962      3960
 -1      1964    8    0    1
 -2       951       950      1021      3737      3963      3964
 -1      1965    8    0    1
 -2       950      1020      1021      3961      3965      3963
 -1      1966    8    0    1
 -2       952       951      1022      3740      3966      3967
 -1      1967    8    0    1
 -2       951      1021      1022      3964      3968      3966
 -1      1968    8    0    1
 -2       953       952      1023      3743      3969      3970
 -1      1969    8    0    1
 -2       952      1022      1023      3967      3971      3969
 -1      1970    8    0    1
 -2       954       953      1024      3746      3972      3973
 -1      1971    8    0    1
 -2       953      1023      1024      3970      3974      3972
 -1      1972    8    0    1
 -2       955       954      1025      3749      3975      3976
 -1      1973    8    0    1
 -2       954      1024      1025      3973      3977      3975
 -1      1974    8    0    1
 -2       956       955      1026      3752      3978      3979
 -1      1975    8    0    1
 -2       955      1025      1026      3976      3980      3978
 -1      1976    8    0    1
 -2       957       956      1027      3755      3981      3982
 -1      1977    8    0    1
 -2       956      1026      1027      3979      3983      3981
 -1      1978    8    0    1
 -2       958       957      1028      3758      3984      3985
 -1      1979    8    0    1
 -2       957      1027      1028      3982      3986      3984
 -1      1980    8    0    1
 -2       959       958      1029      3761      3987      3988
 -1      1981    8    0    1
 -2       958      1028      1029      3985      3989      3987
 -1      1982    8    0    1
 -2       960       959      1030      3764      3990      3991
 -1      1983    8    0    1
 -2       959      1029      1030      3988      3992      3990
 -1      1984    8    0    1
 -2       961       960      1031      3767      3993      3994
 -1      1985    8    0    1
 -2       960      1030      1031      3991      3995      3993
 -1      1986    8    0    1
 -2       962       961      1032      3770      3996      3997
 -1      1987    8    0    1
 -2       961      1031      1032      3994      3998      3996
 -1      1988    8    0    1
 -2       963       962      1033      3773      3999      4000
 -1      1989    8    0    1
 -2       962      1032      1033      3997      4001      3999
 -1      1990    8    0    1
 -2       964       963      1034      3776      4002      4003
 -1      1991    8    0    1
 -2       963      1033      1034      4000      4004      4002
 -1      1992    8    0    1
 -2       965       964      1035      3779      4005      4006
 -1      1993    8    0    1
 -2       964      1034      1035      4003      4007      4005
 -1      1994    8    0    1
 -2       966       965      1036      3782      4008      4009
 -1      1995    8    0    1
 -2       965      1035      1036      4006      4010      4008
 -1      1996    8    0    1
 -2       993       995      1037      3872      4011      4012
 -1      1997    8    0    1
 -2      1004       992      1011      3902      3929      4013
 -1      1998    8    0    1
 -2       996       925      1038      3904      4014      4015
 -1      1999    8    0    1
 -2      1001       996      1038      3893      4015      4016
 -1      2000    8    0    1
 -2       925       998      1038      3885      4017      4014
 -1      2001    8    0    1
 -2      1005       939      1039      3908      4018      4019
 -1      2002    8    0    1
 -2       999      1005      1039      3931      4019      4020
 -1      2003    8    0    1
 -2       939       997      1039      3878      4021      4018
 -1      2004    8    0    1
 -2       994       969      1040      3917      4022      4023
 -1      2005    8    0    1
 -2       969       970      1041      3794      4024      4025
 -1      2006    8    0    1
 -2       969      1041      1040      4025      4026      4022
 -1      2007    8    0    1
 -2       972       973      1042      3803      4027      4028
 -1      2008    8    0    1
 -2       973       974      1043      3806      4029      4030
 -1      2009    8    0    1
 -2       973      1043      1042      4030      4031      4027
 -1      2010    8    0    1
 -2       974       975      1044      3809      4032      4033
 -1      2011    8    0    1
 -2       974      1044      1043      4033      4034      4029
 -1      2012    8    0    1
 -2       975       976      1045      3812      4035      4036
 -1      2013    8    0    1
 -2       975      1045      1044      4036      4037      4032
 -1      2014    8    0    1
 -2       976       977      1046      3815      4038      4039
 -1      2015    8    0    1
 -2       976      1046      1045      4039      4040      4035
 -1      2016    8    0    1
 -2       977       978      1047      3818      4041      4042
 -1      2017    8    0    1
 -2       977      1047      1046      4042      4043      4038
 -1      2018    8    0    1
 -2       978       979      1048      3821      4044      4045
 -1      2019    8    0    1
 -2       978      1048      1047      4045      4046      4041
 -1      2020    8    0    1
 -2       979       980      1049      3824      4047      4048
 -1      2021    8    0    1
 -2       979      1049      1048      4048      4049      4044
 -1      2022    8    0    1
 -2       980       981      1050      3827      4050      4051
 -1      2023    8    0    1
 -2       980      1050      1049      4051      4052      4047
 -1      2024    8    0    1
 -2       981       982      1051      3830      4053      4054
 -1      2025    8    0    1
 -2       981      1051      1050      4054      4055      4050
 -1      2026    8    0    1
 -2       982       983      1052      3833      4056      4057
 -1      2027    8    0    1
 -2       982      1052      1051      4057      4058      4053
 -1      2028    8    0    1
 -2       983       984      1053      3836      4059      4060
 -1      2029    8    0    1
 -2       983      1053      1052      4060      4061      4056
 -1      2030    8    0    1
 -2       984       985      1054      3839      4062      4063
 -1      2031    8    0    1
 -2       984      1054      1053      4063      4064      4059
 -1      2032    8    0    1
 -2       985       986      1055      3842      4065      4066
 -1      2033    8    0    1
 -2       985      1055      1054      4066      4067      4062
 -1      2034    8    0    1
 -2       986       987      1056      3845      4068      4069
 -1      2035    8    0    1
 -2       986      1056      1055      4069      4070      4065
 -1      2036    8    0    1
 -2       987       988      1001      3848      3895      4071
 -1      2037    8    0    1
 -2      1003       931      1057      3900      4072      4073
 -1      2038    8    0    1
 -2       931       946      1057      3882      4074      4072
 -1      2039    8    0    1
 -2       989       968      1058      3852      4075      4076
 -1      2040    8    0    1
 -2       971       972      1059      3800      4077      4078
 -1      2041    8    0    1
 -2       972      1042      1059      4028      4079      4077
 -1      2042    8    0    1
 -2       990       932      1060      3855      4080      4081
 -1      2043    8    0    1
 -2       932      1006      1060      3910      4082      4080
 -1      2044    8    0    1
 -2       944       943      1061      3715      4083      4084
 -1      2045    8    0    1
 -2       944      1061      1015      4084      4085      3943
 -1      2046    8    0    1
 -2       920       886       934      3664      3789      3918
 -1      2047    8    0    1
 -2       991       990      1062      3859      4086      4087
 -1      2048    8    0    1
 -2       990      1060      1062      4081      4088      4086
 -1      2049    8    0    1
 -2       943       993      1063      3866      4089      4090
 -1      2050    8    0    1
 -2      1061       943      1063      4083      4090      4091
 -1      2051    8    0    1
 -2       993      1037      1063      4012      4092      4089
 -1      2052    8    0    1
 -2       970       971      1064      3797      4093      4094
 -1      2053    8    0    1
 -2       971      1059      1064      4078      4095      4093
 -1      2054    8    0    1
 -2       967       994      1007      3869      4096      3953
 -1      2055    8    0    1
 -2      1008      1010      1065      3926      4097      4098
 -1      2056    8    0    1
 -2      1011      1003      1004      3938      4099      4013
 -1      2057    8    0    1
 -2      1004      1003      1066      4099      4100      4101
 -1      2058    8    0    1
 -2       970      1064      1041      4094      4102      4024
 -1      2059    8    0    1
 -2      1017       999      1067      3950      4103      4104
 -1      2060    8    0    1
 -2       946      1017      1057      3952      4105      4074
 -1      2061    8    0    1
 -2      1039       997      1014      4021      3941      4106
 -1      2062    8    0    1
 -2      1002       966      1068      3899      4107      4108
 -1      2063    8    0    1
 -2       966      1036      1068      4009      4109      4107
 -1      2064    8    0    1
 -2      1037       995      1062      4011      4110      4111
 -1      2065    8    0    1
 -2      1004      1066      1006      4101      4112      3911
 -1      2066    8    0    1
 -2      1038       998      1069      4017      4113      4114
 -1      2067    8    0    1
 -2       987      1001      1056      4071      4115      4068
 -1      2068    8    0    1
 -2      1058       968      1015      4075      3945      4116
 -1      2069    8    0    1
 -2       940       991       995      3881      4117      3939
 -1      2070    8    0    1
 -2      1007       994      1040      4096      4023      4118
 -1      2071    8    0    1
 -2      1009      1008      1070      3922      4119      4120
 -1      2072    8    0    1
 -2      1018      1009      1070      3956      4120      4121
 -1      2073    8    0    1
 -2      1008      1065      1070      4098      4122      4119
 -1      2074    8    0    1
 -2       991      1062       995      4087      4110      4117
 -1      2075    8    0    1
 -2       989      1058      1014      4076      4123      3942
 -1      2076    8    0    1
 -2      1003      1057      1071      4073      4124      4125
 -1      2077    8    0    1
 -2      1003      1071      1066      4125      4126      4100
 -1      2078    8    0    1
 -2      1010      1013      1072      3936      4127      4128
 -1      2079    8    0    1
 -2      1010      1072      1065      4128      4129      4097
 -1      2080    8    0    1
 -2       998      1012      1073      3933      4130      4131
 -1      2081    8    0    1
 -2       998      1073      1069      4131      4132      4113
 -1      2082    8    0    1
 -2       999      1039      1067      4020      4133      4103
 -1      2083    8    0    1
 -2      1057      1017      1074      4105      4134      4135
 -1      2084    8    0    1
 -2      1071      1057      1074      4124      4135      4136
 -1      2085    8    0    1
 -2      1017      1067      1074      4104      4137      4134
 -1      2086    8    0    1
 -2      1013       933      1075      3937      4138      4139
 -1      2087    8    0    1
 -2      1000      1002      1068      3898      4108      4140
 -1      2088    8    0    1
 -2      1019      1018      1076      3959      4141      4142
 -1      2089    8    0    1
 -2      1018      1070      1076      4121      4143      4141
 -1      2090    8    0    1
 -2      1020      1019      1077      3962      4144      4145
 -1      2091    8    0    1
 -2      1019      1076      1077      4142      4146      4144
 -1      2092    8    0    1
 -2      1021      1020      1078      3965      4147      4148
 -1      2093    8    0    1
 -2      1020      1077      1078      4145      4149      4147
 -1      2094    8    0    1
 -2      1022      1021      1079      3968      4150      4151
 -1      2095    8    0    1
 -2      1021      1078      1079      4148      4152      4150
 -1      2096    8    0    1
 -2      1023      1022      1080      3971      4153      4154
 -1      2097    8    0    1
 -2      1022      1079      1080      4151      4155      4153
 -1      2098    8    0    1
 -2      1024      1023      1081      3974      4156      4157
 -1      2099    8    0    1
 -2      1023      1080      1081      4154      4158      4156
 -1      2100    8    0    1
 -2      1025      1024      1082      3977      4159      4160
 -1      2101    8    0    1
 -2      1024      1081      1082      4157      4161      4159
 -1      2102    8    0    1
 -2      1026      1025      1083      3980      4162      4163
 -1      2103    8    0    1
 -2      1025      1082      1083      4160      4164      4162
 -1      2104    8    0    1
 -2      1027      1026      1084      3983      4165      4166
 -1      2105    8    0    1
 -2      1026      1083      1084      4163      4167      4165
 -1      2106    8    0    1
 -2      1028      1027      1085      3986      4168      4169
 -1      2107    8    0    1
 -2      1027      1084      1085      4166      4170      4168
 -1      2108    8    0    1
 -2      1029      1028      1086      3989      4171      4172
 -1      2109    8    0    1
 -2      1028      1085      1086      4169      4173      4171
 -1      2110    8    0    1
 -2      1030      1029      1087      3992      4174      4175
 -1      2111    8    0    1
 -2      1029      1086      1087      4172      4176      4174
 -1      2112    8    0    1
 -2      1031      1030      1088      3995      4177      4178
 -1      2113    8    0    1
 -2      1030      1087      1088      4175      4179      4177
 -1      2114    8    0    1
 -2      1032      1031      1089      3998      4180      4181
 -1      2115    8    0    1
 -2      1031      1088      1089      4178      4182      4180
 -1      2116    8    0    1
 -2      1033      1032      1090      4001      4183      4184
 -1      2117    8    0    1
 -2      1032      1089      1090      4181      4185      4183
 -1      2118    8    0    1
 -2      1034      1033      1091      4004      4186      4187
 -1      2119    8    0    1
 -2      1033      1090      1091      4184      4188      4186
 -1      2120    8    0    1
 -2      1035      1034      1092      4007      4189      4190
 -1      2121    8    0    1
 -2      1034      1091      1092      4187      4191      4189
 -1      2122    8    0    1
 -2      1036      1035      1093      4010      4192      4193
 -1      2123    8    0    1
 -2      1035      1092      1093      4190      4194      4192
 -1      2124    8    0    1
 -2      1006      1066      1094      4112      4195      4196
 -1      2125    8    0    1
 -2      1006      1094      1060      4196      4197      4082
 -1      2126    8    0    1
 -2      1067      1039      1014      4133      4106      4198
 -1      2127    8    0    1
 -2      1056      1001      1095      4115      4199      4200
 -1      2128    8    0    1
 -2       933      1007      1075      3913      4201      4138
 -1      2129    8    0    1
 -2      1044      1045      1096      4037      4202      4203
 -1      2130    8    0    1
 -2      1037      1062      1097      4111      4204      4205
 -1      2131    8    0    1
 -2      1063      1037      1097      4092      4205      4206
 -1      2132    8    0    1
 -2      1062      1060      1097      4088      4207      4204
 -1      2133    8    0    1
 -2      1001      1038      1095      4016      4208      4199
 -1      2134    8    0    1
 -2      1040      1041      1098      4026      4209      4210
 -1      2135    8    0    1
 -2      1043      1044      1099      4034      4211      4212
 -1      2136    8    0    1
 -2      1044      1096      1099      4203      4213      4211
 -1      2137    8    0    1
 -2      1042      1043      1100      4031      4214      4215
 -1      2138    8    0    1
 -2      1043      1099      1100      4212      4216      4214
 -1      2139    8    0    1
 -2      1045      1046      1101      4040      4217      4218
 -1      2140    8    0    1
 -2      1045      1101      1096      4218      4219      4202
 -1      2141    8    0    1
 -2      1046      1047      1102      4043      4220      4221
 -1      2142    8    0    1
 -2      1046      1102      1101      4221      4222      4217
 -1      2143    8    0    1
 -2      1047      1048      1103      4046      4223      4224
 -1      2144    8    0    1
 -2      1047      1103      1102      4224      4225      4220
 -1      2145    8    0    1
 -2      1048      1049      1104      4049      4226      4227
 -1      2146    8    0    1
 -2      1048      1104      1103      4227      4228      4223
 -1      2147    8    0    1
 -2      1049      1050      1105      4052      4229      4230
 -1      2148    8    0    1
 -2      1049      1105      1104      4230      4231      4226
 -1      2149    8    0    1
 -2      1050      1051      1106      4055      4232      4233
 -1      2150    8    0    1
 -2      1050      1106      1105      4233      4234      4229
 -1      2151    8    0    1
 -2      1051      1052      1107      4058      4235      4236
 -1      2152    8    0    1
 -2      1051      1107      1106      4236      4237      4232
 -1      2153    8    0    1
 -2      1052      1053      1108      4061      4238      4239
 -1      2154    8    0    1
 -2      1052      1108      1107      4239      4240      4235
 -1      2155    8    0    1
 -2      1053      1054      1109      4064      4241      4242
 -1      2156    8    0    1
 -2      1053      1109      1108      4242      4243      4238
 -1      2157    8    0    1
 -2      1054      1055      1110      4067      4244      4245
 -1      2158    8    0    1
 -2      1054      1110      1109      4245      4246      4241
 -1      2159    8    0    1
 -2      1055      1056      1111      4070      4247      4248
 -1      2160    8    0    1
 -2      1055      1111      1110      4248      4249      4244
 -1      2161    8    0    1
 -2      1058      1015      1112      4116      4250      4251
 -1      2162    8    0    1
 -2      1015      1061      1112      4085      4252      4250
 -1      2163    8    0    1
 -2      1059      1042      1113      4079      4253      4254
 -1      2164    8    0    1
 -2      1042      1100      1113      4215      4255      4253
 -1      2165    8    0    1
 -2      1067      1014      1114      4198      4256      4257
 -1      2166    8    0    1
 -2      1074      1067      1114      4137      4257      4258
 -1      2167    8    0    1
 -2      1014      1058      1114      4123      4259      4256
 -1      2168    8    0    1
 -2      1064      1059      1115      4095      4260      4261
 -1      2169    8    0    1
 -2      1059      1113      1115      4254      4262      4260
 -1      2170    8    0    1
 -2      1038      1069      1095      4114      4263      4208
 -1      2171    8    0    1
 -2      1041      1064      1116      4102      4264      4265
 -1      2172    8    0    1
 -2      1064      1115      1116      4261      4266      4264
 -1      2173    8    0    1
 -2      1016      1000      1068      3949      4140      4267
 -1      2174    8    0    1
 -2      1068      1036      1093      4109      4193      4268
 -1      2175    8    0    1
 -2      1012      1016      1117      3948      4269      4270
 -1      2176    8    0    1
 -2      1073      1012      1117      4130      4270      4271
 -1      2177    8    0    1
 -2      1016      1068      1117      4267      4272      4269
 -1      2178    8    0    1
 -2      1094      1066      1071      4195      4126      4273
 -1      2179    8    0    1
 -2      1097      1060      1094      4207      4197      4274
 -1      2180    8    0    1
 -2      1013      1075      1118      4139      4275      4276
 -1      2181    8    0    1
 -2      1098      1041      1116      4209      4265      4277
 -1      2182    8    0    1
 -2      1058      1112      1114      4251      4278      4259
 -1      2183    8    0    1
 -2      1111      1056      1095      4247      4200      4279
 -1      2184    8    0    1
 -2      1070      1065      1119      4122      4280      4281
 -1      2185    8    0    1
 -2      1076      1070      1119      4143      4281      4282
 -1      2186    8    0    1
 -2      1065      1072      1119      4129      4283      4280
 -1      2187    8    0    1
 -2      1095      1069      1120      4263      4284      4285
 -1      2188    8    0    1
 -2      1095      1120      1111      4285      4286      4279
 -1      2189    8    0    1
 -2      1061      1063      1121      4091      4287      4288
 -1      2190    8    0    1
 -2      1112      1061      1121      4252      4288      4289
 -1      2191    8    0    1
 -2      1063      1097      1121      4206      4290      4287
 -1      2192    8    0    1
 -2      1072      1013      1118      4127      4276      4291
 -1      2193    8    0    1
 -2      1069      1073      1122      4132      4292      4293
 -1      2194    8    0    1
 -2      1069      1122      1120      4293      4294      4284
 -1      2195    8    0    1
 -2      1071      1074      1123      4136      4295      4296
 -1      2196    8    0    1
 -2      1094      1071      1123      4273      4296      4297
 -1      2197    8    0    1
 -2      1074      1114      1123      4258      4298      4295
 -1      2198    8    0    1
 -2      1068      1093      1117      4268      4299      4272
 -1      2199    8    0    1
 -2      1077      1076      1124      4146      4300      4301
 -1      2200    8    0    1
 -2      1078      1077      1125      4149      4302      4303
 -1      2201    8    0    1
 -2      1077      1124      1125      4301      4304      4302
 -1      2202    8    0    1
 -2      1079      1078      1126      4152      4305      4306
 -1      2203    8    0    1
 -2      1078      1125      1126      4303      4307      4305
 -1      2204    8    0    1
 -2      1080      1079      1127      4155      4308      4309
 -1      2205    8    0    1
 -2      1079      1126      1127      4306      4310      4308
 -1      2206    8    0    1
 -2      1081      1080      1128      4158      4311      4312
 -1      2207    8    0    1
 -2      1080      1127      1128      4309      4313      4311
 -1      2208    8    0    1
 -2      1082      1081      1129      4161      4314      4315
 -1      2209    8    0    1
 -2      1081      1128      1129      4312      4316      4314
 -1      2210    8    0    1
 -2      1083      1082      1130      4164      4317      4318
 -1      2211    8    0    1
 -2      1082      1129      1130      4315      4319      4317
 -1      2212    8    0    1
 -2      1084      1083      1131      4167      4320      4321
 -1      2213    8    0    1
 -2      1083      1130      1131      4318      4322      4320
 -1      2214    8    0    1
 -2      1085      1084      1132      4170      4323      4324
 -1      2215    8    0    1
 -2      1084      1131      1132      4321      4325      4323
 -1      2216    8    0    1
 -2      1086      1085      1133      4173      4326      4327
 -1      2217    8    0    1
 -2      1085      1132      1133      4324      4328      4326
 -1      2218    8    0    1
 -2      1087      1086      1134      4176      4329      4330
 -1      2219    8    0    1
 -2      1086      1133      1134      4327      4331      4329
 -1      2220    8    0    1
 -2      1088      1087      1135      4179      4332      4333
 -1      2221    8    0    1
 -2      1087      1134      1135      4330      4334      4332
 -1      2222    8    0    1
 -2      1089      1088      1136      4182      4335      4336
 -1      2223    8    0    1
 -2      1088      1135      1136      4333      4337      4335
 -1      2224    8    0    1
 -2      1090      1089      1137      4185      4338      4339
 -1      2225    8    0    1
 -2      1089      1136      1137      4336      4340      4338
 -1      2226    8    0    1
 -2      1091      1090      1138      4188      4341      4342
 -1      2227    8    0    1
 -2      1090      1137      1138      4339      4343      4341
 -1      2228    8    0    1
 -2      1092      1091      1139      4191      4344      4345
 -1      2229    8    0    1
 -2      1091      1138      1139      4342      4346      4344
 -1      2230    8    0    1
 -2      1093      1092      1122      4194      4347      4348
 -1      2231    8    0    1
 -2      1075      1007      1040      4201      4118      4349
 -1      2232    8    0    1
 -2      1101      1102      1130      4222      4350      4351
 -1      2233    8    0    1
 -2      1096      1101      1129      4219      4352      4353
 -1      2234    8    0    1
 -2      1100      1099      1127      4216      4354      4355
 -1      2235    8    0    1
 -2      1102      1103      1131      4225      4356      4357
 -1      2236    8    0    1
 -2      1103      1104      1132      4228      4358      4359
 -1      2237    8    0    1
 -2      1104      1105      1133      4231      4360      4361
 -1      2238    8    0    1
 -2      1105      1106      1134      4234      4362      4363
 -1      2239    8    0    1
 -2      1106      1107      1135      4237      4364      4365
 -1      2240    8    0    1
 -2      1107      1108      1136      4240      4366      4367
 -1      2241    8    0    1
 -2      1108      1109      1137      4243      4368      4369
 -1      2242    8    0    1
 -2      1109      1110      1138      4246      4370      4371
 -1      2243    8    0    1
 -2      1110      1111      1139      4249      4372      4373
 -1      2244    8    0    1
 -2      1113      1100      1126      4255      4374      4375
 -1      2245    8    0    1
 -2      1114      1112      1123      4278      4376      4298
 -1      2246    8    0    1
 -2      1099      1096      1128      4213      4377      4378
 -1      2247    8    0    1
 -2      1097      1094      1121      4274      4379      4290
 -1      2248    8    0    1
 -2      1116      1115      1124      4266      4380      4381
 -1      2249    8    0    1
 -2      1115      1113      1125      4262      4382      4383
 -1      2250    8    0    1
 -2      1075      1040      1118      4349      4384      4275
 -1      2251    8    0    1
 -2      1129      1101      1130      4352      4351      4319
 -1      2252    8    0    1
 -2      1138      1110      1139      4370      4373      4346
 -1      2253    8    0    1
 -2      1124      1076      1119      4300      4282      4385
 -1      2254    8    0    1
 -2      1094      1123      1121      4297      4386      4379
 -1      2255    8    0    1
 -2      1137      1109      1138      4368      4371      4343
 -1      2256    8    0    1
 -2      1092      1139      1122      4345      4387      4347
 -1      2257    8    0    1
 -2      1135      1107      1136      4364      4367      4337
 -1      2258    8    0    1
 -2      1130      1102      1131      4350      4357      4322
 -1      2259    8    0    1
 -2      1096      1129      1128      4353      4316      4377
 -1      2260    8    0    1
 -2      1072      1118      1140      4291      4388      4389
 -1      2261    8    0    1
 -2      1134      1106      1135      4362      4365      4334
 -1      2262    8    0    1
 -2      1100      1127      1126      4355      4310      4374
 -1      2263    8    0    1
 -2      1103      1132      1131      4359      4325      4356
 -1      2264    8    0    1
 -2      1104      1133      1132      4361      4328      4358
 -1      2265    8    0    1
 -2      1105      1134      1133      4363      4331      4360
 -1      2266    8    0    1
 -2      1108      1137      1136      4369      4340      4366
 -1      2267    8    0    1
 -2      1113      1126      1125      4375      4307      4382
 -1      2268    8    0    1
 -2      1119      1072      1140      4283      4389      4390
 -1      2269    8    0    1
 -2      1127      1099      1128      4354      4378      4313
 -1      2270    8    0    1
 -2      1123      1112      1121      4376      4289      4386
 -1      2271    8    0    1
 -2      1124      1115      1125      4380      4383      4304
 -1      2272    8    0    1
 -2      1120      1122      1139      4294      4387      4391
 -1      2273    8    0    1
 -2      1111      1120      1139      4286      4391      4372
 -1      2274    8    0    1
 -2      1093      1122      1073      4348      4292      4392
 -1      2275    8    0    1
 -2      1098      1116      1140      4277      4393      4394
 -1      2276    8    0    1
 -2      1117      1093      1073      4299      4392      4271
 -1      2277    8    0    1
 -2      1124      1119      1140      4385      4390      4395
 -1      2278    8    0    1
 -2      1040      1098      1118      4210      4396      4384
 -1      2279    8    0    1
 -2      1140      1116      1124      4393      4381      4395
 -1      2280    8    0    1
 -2      1118      1098      1140      4396      4394      4388
 -3
    1PSTEP                         1           1           1          
  100CL  101 1.000000000        4396                     0    1           1
 -4  DISP        4    1
 -5  D1          1    2    1    0
 -5  D2          1    2    2    0
 -5  D3          1    2    3    0
 -5  ALL         1    2    0    0    1ALL
 -1         1 3.11191E-03 2.63095E-05-1.72400E-14
 -1         2 7.45868E-03-3.10749E-04-2.99713E-14
 -1         3 1.48131E-02-8.58386E-04-1.75519E-13
 -1         4 1.56055E-02-2.28916E-03-1.78984E-13
 -1         5 0.00000E+00 0.00000E+00 0.00000E+00
 -1         6 0.00000E+00 0.00000E+00 0.00000E+00
 -1         7 0.00000E+00 0.00000E+00 0.00000E+00
 -1         8 0.00000E+00 0.00000E+00 0.00000E+00
 -1         9 0.00000E+00 0.00000E+00 0.00000E+00
 -1        10 0.00000E+00 0.00000E+00 0.00000E+00
 -1        11 0.00000E+00 0.00000E+00 0.00000E+00
 -1        12 0.00000E+00 0.00000E+00 0.00000E+00
 -1        13 0.00000E+00 0.00000E+00 0.00000E+00
 -1        14 0.00000E+00 0.00000E+00 0.00000E+00
 -1        15 0.00000E+00 0.00000E+00 0.00000E+00
 -1        16 0.00000E+00 0.00000E+00 0.00000E+00
 -1        17 0.00000E+00 0.00000E+00 0.00000E+00
 -1        18 0.00000E+00 0.00000E+00 0.00000E+00
 -1        19 0.00000E+00 0.00000E+00 0.00000E+00
 -1        20 0.00000E+00 0.00000E+00 0.00000E+00
 -1        21 0.00000E+00 0.00000E+00 0.00000E+00
 -1        22 0.00000E+00 0.00000E+00 0.00000E+00
 -1        23 4.10351E-04-2.49761E-04 5.46980E-17
 -1        24 7.08669E-04-3.76673E-04-8.42019E-17
 -1        25 9.90953E-04-4.61061E-04-4.11794E-16
 -1        26 1.27321E-03-5.18305E-04-9.25678E-16
 -1        27 1.56098E-03-5.58443E-04-1.62107E-15
 -1        28 1.85793E-03-5.88277E-04-2.49539E-15
 -1        29 2.16697E-03-6.13796E-04-3.54586E-15
 -1        30 2.49056E-03-6.41167E-04-4.76825E-15
 -1        31 2.83045E-03-6.77327E-04-6.16153E-15
 -1        32 3.18689E-03-7.30168E-04-7.72083E-15
 -1        33 3.55731E-03-8.07921E-04-9.44371E-15
 -1        34 3.93455E-03-9.17081E-04-1.13273E-14
 -1        35 4.30588E-03-1.05820E-03-1.33782E-14
 -1        36 4.65464E-03-1.22014E-03-1.55999E-14
 -1        37 4.96691E-03-1.37639E-03-1.79974E-14
 -1        38 5.24163E-03-1.48995E-03-2.05801E-14
 -1        39 5.49637E-03-1.52979E-03-2.33463E-14
 -1        40 5.76047E-03-1.48954E-03-2.63015E-14
 -1        41 6.05815E-03-1.39192E-03-2.94363E-14
 -1        42 6.39619E-03-1.27424E-03-3.27364E-14
 -1        43 6.76494E-03-1.16907E-03-3.61979E-14
 -1        44 7.14791E-03-1.09434E-03-3.98167E-14
 -1        45 7.53041E-03-1.05424E-03-4.35839E-14
 -1        46 7.90314E-03-1.04478E-03-4.74975E-14
 -1        47 8.26201E-03-1.05902E-03-5.15464E-14
 -1        48 8.60643E-03-1.09000E-03-5.57211E-14
 -1        49 8.93767E-03-1.13202E-03-6.00081E-14
 -1        50 9.25776E-03-1.18082E-03-6.44152E-14
 -1        51 9.56884E-03-1.23344E-03-6.89403E-14
 -1        52 9.87287E-03-1.28792E-03-7.35776E-14
 -1        53 1.01715E-02-1.34300E-03-7.83222E-14
 -1        54 1.04661E-02-1.39793E-03-8.31557E-14
 -1        55 1.07577E-02-1.45226E-03-8.80695E-14
 -1        56 1.10472E-02-1.50579E-03-9.30525E-14
 -1        57 1.13351E-02-1.55847E-03-9.81242E-14
 -1        58 1.16220E-02-1.61029E-03-1.03254E-13
 -1        59 1.19082E-02-1.66133E-03-1.08444E-13
 -1        60 1.21940E-02-1.71167E-03-1.13686E-13
 -1        61 1.24795E-02-1.76142E-03-1.18985E-13
 -1        62 1.27648E-02-1.81067E-03-1.24336E-13
 -1        63 1.30501E-02-1.85951E-03-1.29737E-13
 -1        64 1.33354E-02-1.90803E-03-1.35174E-13
 -1        65 1.36207E-02-1.95630E-03-1.40651E-13
 -1        66 1.39061E-02-2.00439E-03-1.46144E-13
 -1        67 1.41916E-02-2.05234E-03-1.51649E-13
 -1        68 1.44771E-02-2.10021E-03-1.57150E-13
 -1        69 1.47627E-02-2.14803E-03-1.62650E-13
 -1        70 1.50484E-02-2.19585E-03-1.68155E-13
 -1        71 1.53341E-02-2.24369E-03-1.73695E-13
 -1        72 4.12885E-04 2.51631E-04 7.84420E-17
 -1        73 7.08507E-04 3.82074E-04-2.21990E-17
 -1        74 9.90427E-04 4.67523E-04-2.98315E-16
 -1        75 1.27091E-03 5.27129E-04-7.51166E-16
 -1        76 1.55511E-03 5.70260E-04-1.38241E-15
 -1        77 1.84574E-03 6.03495E-04-2.18958E-15
 -1        78 2.14419E-03 6.32217E-04-3.17079E-15
 -1        79 2.45087E-03 6.61234E-04-4.32234E-15
 -1        80 2.76504E-03 6.94906E-04-5.64551E-15
 -1        81 3.08452E-03 7.36851E-04-7.14129E-15
 -1        82 3.40551E-03 7.89219E-04-8.80830E-15
 -1        83 3.72257E-03 8.51578E-04-1.06426E-14
 -1        84 4.02944E-03 9.19699E-04-1.26467E-14
 -1        85 4.32067E-03 9.84909E-04-1.48204E-14
 -1        86 4.59391E-03 1.03494E-03-1.71762E-14
 -1        87 4.85193E-03 1.05690E-03-1.97091E-14
 -1        88 5.10268E-03 1.04157E-03-2.24191E-14
 -1        89 5.35701E-03 9.87200E-04-2.53065E-14
 -1        90 5.62463E-03 9.00207E-04-2.83746E-14
 -1        91 5.91084E-03 7.92629E-04-3.16200E-14
 -1        92 6.21554E-03 6.77760E-04-3.50236E-14
 -1        93 6.53455E-03 5.66456E-04-3.85766E-14
 -1        94 6.86191E-03 4.65426E-04-4.22794E-14
 -1        95 7.19192E-03 3.77364E-04-4.61105E-14
 -1        96 7.52023E-03 3.02074E-04-5.00642E-14
 -1        97 7.84410E-03 2.37742E-04-5.41404E-14
 -1        98 8.16223E-03 1.81948E-04-5.83343E-14
 -1        99 8.47434E-03 1.32284E-04-6.26294E-14
 -1       100 8.78079E-03 8.66777E-05-6.70327E-14
 -1       101 9.08226E-03 4.34946E-05-7.15429E-14
 -1       102 9.37958E-03 1.53039E-06-7.61365E-14
 -1       103 9.67356E-03-4.00483E-05-8.08133E-14
 -1       104 9.96495E-03-8.17811E-05-8.55604E-14
 -1       105 1.02544E-02-1.23988E-04-9.03710E-14
 -1       106 1.05424E-02-1.66831E-04-9.52637E-14
 -1       107 1.08293E-02-2.10366E-04-1.00258E-13
 -1       108 1.11156E-02-2.54582E-04-1.05339E-13
 -1       109 1.14014E-02-2.99426E-04-1.10497E-13
 -1       110 1.16869E-02-3.44824E-04-1.15720E-13
 -1       111 1.19723E-02-3.90695E-04-1.21007E-13
 -1       112 1.22576E-02-4.36958E-04-1.26358E-13
 -1       113 1.25429E-02-4.83536E-04-1.31759E-13
 -1       114 1.28283E-02-5.30360E-04-1.37201E-13
 -1       115 1.31137E-02-5.77368E-04-1.42671E-13
 -1       116 1.33991E-02-6.24508E-04-1.48154E-13
 -1       117 1.36847E-02-6.71732E-04-1.53654E-13
 -1       118 1.39703E-02-7.18998E-04-1.59188E-13
 -1       119 1.42559E-02-7.66270E-04-1.64731E-13
 -1       120 1.45416E-02-8.13522E-04-1.70270E-13
 -1       121 1.48595E-02-9.42670E-04-1.75777E-13
 -1       122 1.49059E-02-1.02697E-03-1.76054E-13
 -1       123 1.49523E-02-1.11130E-03-1.76297E-13
 -1       124 1.49987E-02-1.19569E-03-1.76532E-13
 -1       125 1.50451E-02-1.28012E-03-1.76758E-13
 -1       126 1.50908E-02-1.36317E-03-1.76980E-13
 -1       127 1.51374E-02-1.44768E-03-1.77195E-13
 -1       128 1.51840E-02-1.53222E-03-1.77388E-13
 -1       129 1.52308E-02-1.61676E-03-1.77574E-13
 -1       130 1.52776E-02-1.70129E-03-1.77741E-13
 -1       131 1.53246E-02-1.78581E-03-1.77917E-13
 -1       132 1.53708E-02-1.86886E-03-1.78101E-13
 -1       133 1.54179E-02-1.95329E-03-1.78282E-13
 -1       134 1.54650E-02-2.03768E-03-1.78457E-13
 -1       135 1.55121E-02-2.12201E-03-1.78647E-13
 -1       136 1.55592E-02-2.20631E-03-1.78830E-13
 -1       137 7.39420E-03-1.42030E-04-2.98065E-14
 -1       138 7.25334E-03 1.19747E-05-2.93747E-14
 -1       139 7.03019E-03 1.61578E-04-2.86653E-14
 -1       140 6.72309E-03 3.01765E-04-2.76837E-14
 -1       141 6.36852E-03 4.14631E-04-2.65615E-14
 -1       142 5.96631E-03 5.01982E-04-2.53106E-14
 -1       143 5.55125E-03 5.56146E-04-2.40510E-14
 -1       144 5.08288E-03 5.78873E-04-2.26595E-14
 -1       145 4.64593E-03 5.63641E-04-2.13985E-14
 -1       146 4.23666E-03 5.14639E-04-2.02493E-14
 -1       147 3.84922E-03 4.27866E-04-1.91845E-14
 -1       148 3.52232E-03 3.13453E-04-1.83101E-14
 -1       149 3.27852E-03 1.79437E-04-1.76726E-14
 -1       150 3.03400E-03-1.41337E-04-1.70344E-14
 -1       151 3.04847E-03-3.08823E-04-1.70608E-14
 -1       152 3.16388E-03-4.91084E-04-1.73403E-14
 -1       153 3.36560E-03-6.59498E-04-1.78424E-14
 -1       154 3.67299E-03-8.24910E-04-1.86260E-14
 -1       155 4.05773E-03-9.66974E-04-1.96347E-14
 -1       156 4.54256E-03-1.08307E-03-2.09381E-14
 -1       157 5.05075E-03-1.14707E-03-2.23499E-14
 -1       158 5.54711E-03-1.15811E-03-2.37769E-14
 -1       159 6.00873E-03-1.12249E-03-2.51533E-14
 -1       160 6.43471E-03-1.04553E-03-2.64670E-14
 -1       161 6.80348E-03-9.34092E-04-2.76493E-14
 -1       162 7.10683E-03-7.93465E-04-2.86655E-14
 -1       163 7.31933E-03-6.36036E-04-2.94094E-14
 -1       164 7.43298E-03-4.75116E-04-2.98361E-14
 -1       165 2.45217E-04-1.14232E-04-3.39999E-17
 -1       166 2.29460E-04-8.15868E-05-6.13794E-17
 -1       167 2.21775E-04-5.92427E-05-7.63109E-17
 -1       168 2.16587E-04-4.24856E-05-8.44221E-17
 -1       169 2.12837E-04-2.95315E-05-8.87589E-17
 -1       170 2.10172E-04-1.87501E-05-9.06698E-17
 -1       171 2.08650E-04-9.42505E-06-9.10323E-17
 -1       172 2.08274E-04-6.92227E-07-9.07714E-17
 -1       173 2.09006E-04 8.24892E-06-8.95043E-17
 -1       174 2.10772E-04 1.81489E-05-8.69361E-17
 -1       175 2.13440E-04 2.95252E-05-8.28026E-17
 -1       176 2.17113E-04 4.35527E-05-7.62296E-17
 -1       177 2.22042E-04 6.11138E-05-6.57433E-17
 -1       178 2.29424E-04 8.41038E-05-4.81589E-17
 -1       179 2.43840E-04 1.17398E-04-1.78656E-17
 -1       180 3.01504E-04 1.75633E-04 1.45283E-17
 -1       181 4.77127E-04-2.43924E-04-9.29060E-17
 -1       182 7.84527E-04-3.48163E-04-3.64536E-16
 -1       183 1.08151E-03-4.17490E-04-8.12701E-16
 -1       184 1.37669E-03-4.64346E-04-1.43866E-15
 -1       185 1.67472E-03-4.96766E-04-2.23978E-15
 -1       186 1.97886E-03-5.21163E-04-3.21475E-15
 -1       187 2.29158E-03-5.43644E-04-4.36060E-15
 -1       188 2.61469E-03-5.70868E-04-5.67368E-15
 -1       189 2.94921E-03-6.10546E-04-7.15193E-15
 -1       190 3.29490E-03-6.71427E-04-8.79245E-15
 -1       191 3.64957E-03-7.62164E-04-1.05928E-14
 -1       192 4.00834E-03-8.88192E-04-1.25546E-14
 -1       193 4.36348E-03-1.04610E-03-1.46843E-14
 -1       194 4.70602E-03-1.21706E-03-1.69856E-14
 -1       195 5.03020E-03-1.36532E-03-1.94692E-14
 -1       196 5.33900E-03-1.44954E-03-2.21379E-14
 -1       197 5.64498E-03-1.44589E-03-2.49964E-14
 -1       198 5.96290E-03-1.36481E-03-2.80409E-14
 -1       199 6.30020E-03-1.24357E-03-3.12602E-14
 -1       200 6.65427E-03-1.12290E-03-3.46409E-14
 -1       201 7.01686E-03-1.02953E-03-3.81808E-14
 -1       202 7.37940E-03-9.73141E-04-4.18705E-14
 -1       203 7.73582E-03-9.51769E-04-4.57063E-14
 -1       204 8.08292E-03-9.58371E-04-4.96805E-14
 -1       205 8.41970E-03-9.85083E-04-5.37806E-14
 -1       206 8.74653E-03-1.02517E-03-5.80009E-14
 -1       207 9.06452E-03-1.07353E-03-6.23347E-14
 -1       208 9.37500E-03-1.12658E-03-6.67894E-14
 -1       209 9.67936E-03-1.18194E-03-7.13536E-14
 -1       210 9.97884E-03-1.23809E-03-7.60268E-14
 -1       211 1.02745E-02-1.29410E-03-8.07946E-14
 -1       212 1.05673E-02-1.34947E-03-8.56500E-14
 -1       213 1.08578E-02-1.40393E-03-9.05832E-14
 -1       214 1.11468E-02-1.45741E-03-9.55934E-14
 -1       215 1.14346E-02-1.50991E-03-1.00675E-13
 -1       216 1.17215E-02-1.56150E-03-1.05821E-13
 -1       217 1.20079E-02-1.61230E-03-1.11024E-13
 -1       218 1.22938E-02-1.66240E-03-1.16283E-13
 -1       219 1.25796E-02-1.71193E-03-1.21594E-13
 -1       220 1.28652E-02-1.76099E-03-1.26959E-13
 -1       221 1.31507E-02-1.80967E-03-1.32364E-13
 -1       222 1.34362E-02-1.85805E-03-1.37803E-13
 -1       223 1.37217E-02-1.90621E-03-1.43274E-13
 -1       224 1.40072E-02-1.95420E-03-1.48763E-13
 -1       225 1.42928E-02-2.00209E-03-1.54257E-13
 -1       226 1.45784E-02-2.04992E-03-1.59762E-13
 -1       227 1.48641E-02-2.09772E-03-1.65269E-13
 -1       228 1.51497E-02-2.14554E-03-1.70790E-13
 -1       229 6.14934E-04 3.08622E-04-1.13462E-16
 -1       230 9.13867E-04 3.98282E-04-4.05468E-16
 -1       231 1.20619E-03 4.59839E-04-8.68348E-16
 -1       232 1.49789E-03 5.03436E-04-1.50410E-15
 -1       233 1.79235E-03 5.36117E-04-2.31281E-15
 -1       234 2.09149E-03 5.63556E-04-3.29314E-15
 -1       235 2.39614E-03 5.90817E-04-4.44376E-15
 -1       236 2.70615E-03 6.22554E-04-5.76328E-15
 -1       237 3.02034E-03 6.62774E-04-7.25152E-15
 -1       238 3.33636E-03 7.14138E-04-8.90715E-15
 -1       239 3.65082E-03 7.76794E-04-1.07296E-14
 -1       240 3.95970E-03 8.46998E-04-1.27187E-14
 -1       241 4.25940E-03 9.16184E-04-1.48797E-14
 -1       242 4.54812E-03 9.71547E-04-1.72167E-14
 -1       243 4.82717E-03 9.98967E-04-1.97315E-14
 -1       244 5.10125E-03 9.87789E-04-2.24259E-14
 -1       245 5.37706E-03 9.35220E-04-2.53002E-14
 -1       246 5.66080E-03 8.47594E-04-2.83527E-14
 -1       247 5.95604E-03 7.37673E-04-3.15782E-14
 -1       248 6.26289E-03 6.19804E-04-3.49698E-14
 -1       249 6.57880E-03 5.05734E-04-3.85119E-14
 -1       250 6.89999E-03 4.02666E-04-4.22015E-14
 -1       251 7.22269E-03 3.13428E-04-4.60176E-14
 -1       252 7.54394E-03 2.37725E-04-4.99566E-14
 -1       253 7.86178E-03 1.73549E-04-5.40192E-14
 -1       254 8.17519E-03 1.18272E-04-5.81994E-14
 -1       255 8.48388E-03 6.93163E-05-6.24854E-14
 -1       256 8.78804E-03 2.44822E-05-6.68762E-14
 -1       257 9.08813E-03-1.79480E-05-7.13708E-14
 -1       258 9.38474E-03-5.92266E-05-7.59556E-14
 -1       259 9.67849E-03-1.00210E-04-8.06239E-14
 -1       260 9.96995E-03-1.41445E-04-8.53662E-14
 -1       261 1.02596E-02-1.83247E-04-9.01801E-14
 -1       262 1.05480E-02-2.25771E-04-9.50739E-14
 -1       263 1.08353E-02-2.69059E-04-1.00056E-13
 -1       264 1.11220E-02-3.13089E-04-1.05122E-13
 -1       265 1.14082E-02-3.57796E-04-1.10267E-13
 -1       266 1.16940E-02-4.03096E-04-1.15482E-13
 -1       267 1.19797E-02-4.48900E-04-1.20758E-13
 -1       268 1.22652E-02-4.95119E-04-1.26098E-13
 -1       269 1.25507E-02-5.41670E-04-1.31490E-13
 -1       270 1.28362E-02-5.88480E-04-1.36921E-13
 -1       271 1.31217E-02-6.35484E-04-1.42378E-13
 -1       272 1.34072E-02-6.82626E-04-1.47852E-13
 -1       273 1.36928E-02-7.29856E-04-1.53348E-13
 -1       274 1.39784E-02-7.77132E-04-1.58867E-13
 -1       275 1.42641E-02-8.24415E-04-1.64405E-13
 -1       276 1.45498E-02-8.71676E-04-1.69946E-13
 -1       277 1.46353E-02-9.43927E-04-1.71115E-13
 -1       278 1.46816E-02-1.02824E-03-1.71366E-13
 -1       279 1.47280E-02-1.11259E-03-1.71606E-13
 -1       280 1.47744E-02-1.19697E-03-1.71841E-13
 -1       281 1.48201E-02-1.27996E-03-1.72061E-13
 -1       282 1.48666E-02-1.36439E-03-1.72278E-13
 -1       283 1.49132E-02-1.44885E-03-1.72485E-13
 -1       284 1.49599E-02-1.53331E-03-1.72687E-13
 -1       285 1.50067E-02-1.61778E-03-1.72873E-13
 -1       286 1.50536E-02-1.70223E-03-1.73051E-13
 -1       287 1.50998E-02-1.78524E-03-1.73227E-13
 -1       288 1.51469E-02-1.86965E-03-1.73406E-13
 -1       289 1.51940E-02-1.95404E-03-1.73585E-13
 -1       290 1.52411E-02-2.03838E-03-1.73758E-13
 -1       291 1.51954E-02-2.09197E-03-1.72279E-13
 -1       292 7.45927E-03-2.80184E-04-3.14044E-14
 -1       293 7.31640E-03-1.77696E-04-3.09323E-14
 -1       294 7.07387E-03-6.11980E-05-3.03106E-14
 -1       295 6.74738E-03 9.63027E-05-2.92608E-14
 -1       296 6.38611E-03 2.77064E-04-2.79093E-14
 -1       297 6.00442E-03 4.42300E-04-2.65117E-14
 -1       298 5.64823E-03 5.72698E-04-2.49705E-14
 -1       299 5.28152E-03 6.48265E-04-2.34032E-14
 -1       300 4.91696E-03 6.40555E-04-2.18498E-14
 -1       301 4.56028E-03 5.64768E-04-2.04597E-14
 -1       302 4.21390E-03 4.27712E-04-1.90570E-14
 -1       303 3.89377E-03 2.96201E-04-1.82068E-14
 -1       304 3.48440E-03 1.20588E-04-1.72648E-14
 -1       305 3.21997E-03-1.50946E-05-1.66161E-14
 -1       306 3.04856E-03-1.17531E-04-1.63185E-14
 -1       307 3.00286E-03-2.10680E-04-1.62203E-14
 -1       308 3.09054E-03-3.06704E-04-1.63307E-14
 -1       309 3.30800E-03-4.37915E-04-1.68178E-14
 -1       310 3.64879E-03-5.78415E-04-1.73333E-14
 -1       311 4.05186E-03-7.84450E-04-1.83629E-14
 -1       312 4.48050E-03-1.00440E-03-1.97428E-14
 -1       313 4.90915E-03-1.17329E-03-2.13615E-14
 -1       314 5.30999E-03-1.23545E-03-2.30493E-14
 -1       315 5.69870E-03-1.20202E-03-2.47038E-14
 -1       316 6.08388E-03-1.08741E-03-2.63133E-14
 -1       317 6.45663E-03-9.18871E-04-2.79321E-14
 -1       318 6.82104E-03-7.29784E-04-2.94521E-14
 -1       319 7.15355E-03-5.78963E-04-3.04238E-14
 -1       320 7.37888E-03-4.65500E-04-3.09799E-14
 -1       321 7.48199E-03-3.67556E-04-3.14270E-14
 -1       322 4.62232E-04-1.38816E-04-2.59727E-16
 -1       323 4.84744E-04-1.88086E-04-2.14764E-16
 -1       324 4.36505E-04-7.24235E-05-3.02967E-16
 -1       325 4.28730E-04-4.86802E-05-3.11745E-16
 -1       326 4.23758E-04-2.85124E-05-3.15649E-16
 -1       327 4.21566E-04-1.02189E-05-3.16394E-16
 -1       328 4.22092E-04 7.75556E-06-3.13917E-16
 -1       329 4.25187E-04 2.68568E-05-3.08137E-16
 -1       330 4.30546E-04 4.80669E-05-2.98593E-16
 -1       331 4.38272E-04 7.34969E-05-2.83824E-16
 -1       332 4.48600E-04 1.04462E-04-2.61513E-16
 -1       333 4.62876E-04 1.43360E-04-2.27750E-16
 -1       334 4.85733E-04 1.94564E-04-1.75868E-16
 -1       335 5.43028E-04 2.47441E-04-1.54092E-16
 -1       336 8.44227E-04 3.38504E-04-4.54630E-16
 -1       337 3.71107E-03 1.47343E-04-1.69094E-14
 -1       338 8.85782E-04-3.13850E-04-6.78971E-16
 -1       339 1.18369E-03-3.69134E-04-1.24042E-15
 -1       340 1.48131E-03-4.06589E-04-1.97354E-15
 -1       341 1.78093E-03-4.32626E-04-2.87699E-15
 -1       342 2.08460E-03-4.53147E-04-3.94913E-15
 -1       343 2.39415E-03-4.74290E-04-5.18645E-15
 -1       344 2.71129E-03-5.03033E-04-6.58583E-15
 -1       345 3.03768E-03-5.47570E-04-8.14694E-15
 -1       346 3.37480E-03-6.17121E-04-9.86592E-15
 -1       347 3.72335E-03-7.20491E-04-1.17433E-14
 -1       348 4.08173E-03-8.62200E-04-1.37799E-14
 -1       349 4.44421E-03-1.03526E-03-1.59857E-14
 -1       350 4.80102E-03-1.21269E-03-1.83677E-14
 -1       351 5.14464E-03-1.34678E-03-2.09348E-14
 -1       352 5.47899E-03-1.39096E-03-2.36943E-14
 -1       353 5.81792E-03-1.33493E-03-2.66465E-14
 -1       354 6.17073E-03-1.21408E-03-2.97828E-14
 -1       355 6.53394E-03-1.07990E-03-3.30878E-14
 -1       356 6.89759E-03-9.69539E-04-3.65521E-14
 -1       357 7.25385E-03-8.97929E-04-4.01666E-14
 -1       358 7.59957E-03-8.64782E-04-4.39263E-14
 -1       359 7.93474E-03-8.63092E-04-4.78280E-14
 -1       360 8.26054E-03-8.84465E-04-5.18580E-14
 -1       361 8.57839E-03-9.21476E-04-5.60068E-14
 -1       362 8.88958E-03-9.68378E-04-6.02721E-14
 -1       363 9.19527E-03-1.02105E-03-6.46539E-14
 -1       364 9.49644E-03-1.07669E-03-6.91526E-14
 -1       365 9.79393E-03-1.13349E-03-7.37531E-14
 -1       366 1.00885E-02-1.19033E-03-7.84551E-14
 -1       367 1.03807E-02-1.24657E-03-8.32494E-14
 -1       368 1.06711E-02-1.30187E-03-8.81302E-14
 -1       369 1.09602E-02-1.35611E-03-9.30826E-14
 -1       370 1.12482E-02-1.40928E-03-9.81132E-14
 -1       371 1.15354E-02-1.46145E-03-1.03208E-13
 -1       372 1.18221E-02-1.51272E-03-1.08369E-13
 -1       373 1.21084E-02-1.56321E-03-1.13595E-13
 -1       374 1.23944E-02-1.61304E-03-1.18871E-13
 -1       375 1.26802E-02-1.66234E-03-1.24197E-13
 -1       376 1.29659E-02-1.71120E-03-1.29569E-13
 -1       377 1.32516E-02-1.75972E-03-1.34981E-13
 -1       378 1.35372E-02-1.80797E-03-1.40423E-13
 -1       379 1.38228E-02-1.85603E-03-1.45891E-13
 -1       380 1.41084E-02-1.90396E-03-1.51372E-13
 -1       381 1.43941E-02-1.95180E-03-1.56868E-13
 -1       382 1.46797E-02-1.99960E-03-1.62372E-13
 -1       383 1.49376E-02-2.04577E-03-1.67321E-13
 -1       384 1.14102E-03 4.01886E-04-9.20318E-16
 -1       385 1.43615E-03 4.46456E-04-1.55506E-15
 -1       386 1.73235E-03 4.79196E-04-2.36016E-15
 -1       387 2.03151E-03 5.05877E-04-3.33457E-15
 -1       388 2.33476E-03 5.31686E-04-4.47797E-15
 -1       389 2.64253E-03 5.61451E-04-5.78817E-15
 -1       390 2.95446E-03 5.99470E-04-7.26407E-15
 -1       391 3.26933E-03 6.48889E-04-8.90601E-15
 -1       392 3.58495E-03 7.10562E-04-1.07122E-14
 -1       393 3.89829E-03 7.81565E-04-1.26834E-14
 -1       394 4.20608E-03 8.53927E-04-1.48244E-14
 -1       395 4.50595E-03 9.14692E-04-1.71407E-14
 -1       396 4.79795E-03 9.48545E-04-1.96349E-14
 -1       397 5.08528E-03 9.42966E-04-2.23099E-14
 -1       398 5.37339E-03 8.93626E-04-2.51660E-14
 -1       399 5.66752E-03 8.06501E-04-2.81995E-14
 -1       400 5.97044E-03 6.95104E-04-3.14068E-14
 -1       401 6.28179E-03 5.74926E-04-3.47808E-14
 -1       402 6.59906E-03 4.58615E-04-3.83088E-14
 -1       403 6.91898E-03 3.53824E-04-4.19818E-14
 -1       404 7.23868E-03 2.63486E-04-4.57849E-14
 -1       405 7.55608E-03 1.87236E-04-4.97095E-14
 -1       406 7.86996E-03 1.22934E-04-5.37577E-14
 -1       407 8.17977E-03 6.78216E-05-5.79224E-14
 -1       408 8.48547E-03 1.92078E-05-6.21946E-14
 -1       409 8.78730E-03-2.51929E-05-6.65725E-14
 -1       410 9.08569E-03-6.71597E-05-7.10552E-14
 -1       411 9.38115E-03-1.07986E-04-7.56293E-14
 -1       412 9.67416E-03-1.48554E-04-8.02903E-14
 -1       413 9.96522E-03-1.89422E-04-8.50245E-14
 -1       414 1.02547E-02-2.30912E-04-8.98322E-14
 -1       415 1.05431E-02-2.73176E-04-9.47200E-14
 -1       416 1.08305E-02-3.16255E-04-9.96925E-14
 -1       417 1.11173E-02-3.60119E-04-1.04749E-13
 -1       418 1.14036E-02-4.04698E-04-1.09882E-13
 -1       419 1.16896E-02-4.49902E-04-1.15084E-13
 -1       420 1.19754E-02-4.95634E-04-1.20352E-13
 -1       421 1.22611E-02-5.41801E-04-1.25680E-13
 -1       422 1.25467E-02-5.88317E-04-1.31066E-13
 -1       423 1.28323E-02-6.35104E-04-1.36486E-13
 -1       424 1.31179E-02-6.82095E-04-1.41932E-13
 -1       425 1.34035E-02-7.29232E-04-1.47399E-13
 -1       426 1.36891E-02-7.76463E-04-1.52889E-13
 -1       427 1.39747E-02-8.23744E-04-1.58401E-13
 -1       428 1.42604E-02-8.71036E-04-1.63932E-13
 -1       429 1.44478E-02-9.07489E-04-1.67522E-13
 -1       430 1.45038E-02-1.11382E-03-1.66922E-13
 -1       431 1.44574E-02-1.02947E-03-1.66681E-13
 -1       432 1.44526E-02-9.68474E-04-1.67103E-13
 -1       433 1.45494E-02-1.19675E-03-1.67146E-13
 -1       434 1.45958E-02-1.28113E-03-1.67363E-13
 -1       435 1.46424E-02-1.36553E-03-1.67577E-13
 -1       436 1.46891E-02-1.44993E-03-1.67785E-13
 -1       437 1.47358E-02-1.53434E-03-1.67986E-13
 -1       438 1.47827E-02-1.61875E-03-1.68176E-13
 -1       439 1.48288E-02-1.70171E-03-1.68356E-13
 -1       440 1.48759E-02-1.78610E-03-1.68535E-13
 -1       441 1.49230E-02-1.87046E-03-1.68712E-13
 -1       442 1.49701E-02-1.95481E-03-1.68887E-13
 -1       443 7.19739E-03-1.98718E-04-3.21964E-14
 -1       444 7.50273E-03-3.35613E-04-3.29365E-14
 -1       445 7.39001E-03-2.71697E-04-3.26794E-14
 -1       446 6.87102E-03-5.76555E-05-3.10514E-14
 -1       447 4.07451E-03 3.19756E-04-1.78318E-14
 -1       448 3.10577E-03-1.13554E-04-1.53097E-14
 -1       449 6.48516E-03 1.34171E-04-2.95571E-14
 -1       450 4.47225E-04-1.01577E-04-2.87009E-16
 -1       451 5.73902E-03 5.22107E-04-2.61933E-14
 -1       452 5.45514E-03 6.35497E-04-2.45739E-14
 -1       453 5.08566E-03 6.91880E-04-2.24530E-14
 -1       454 4.82615E-03 6.48640E-04-2.10438E-14
 -1       455 4.48220E-03 5.21226E-04-1.94456E-14
 -1       456 3.37394E-03-2.03988E-07-1.61460E-14
 -1       457 2.99429E-03-1.70819E-04-1.53829E-14
 -1       458 3.01018E-03-2.18847E-04-1.51590E-14
 -1       459 3.20114E-03-3.02699E-04-1.55699E-14
 -1       460 3.46701E-03-4.10677E-04-1.60405E-14
 -1       461 3.89936E-03-6.23815E-04-1.70931E-14
 -1       462 4.34764E-03-8.74718E-04-1.84511E-14
 -1       463 4.77413E-03-1.10922E-03-2.01213E-14
 -1       464 5.16707E-03-1.25661E-03-2.21469E-14
 -1       465 5.45066E-03-1.27174E-03-2.37654E-14
 -1       466 5.84199E-03-1.17016E-03-2.59806E-14
 -1       467 6.15716E-03-1.02198E-03-2.75992E-14
 -1       468 6.57100E-03-7.98666E-04-2.96557E-14
 -1       469 6.99111E-03-5.86405E-04-3.15342E-14
 -1       470 7.28831E-03-4.62710E-04-3.23145E-14
 -1       471 7.44478E-03-3.95791E-04-3.27710E-14
 -1       472 6.16106E-03 3.10715E-04-2.81002E-14
 -1       473 9.52139E-04 3.03140E-04-7.82648E-16
 -1       474 6.46547E-04-5.72005E-05-6.68099E-16
 -1       475 6.57433E-04-8.89909E-05-6.55858E-16
 -1       476 6.39184E-04-2.21669E-06-6.71443E-16
 -1       477 6.42458E-04 2.52213E-05-6.63423E-16
 -1       478 6.49795E-04 5.46695E-05-6.49132E-16
 -1       479 6.61134E-04 8.89146E-05-6.26388E-16
 -1       480 6.76381E-04 1.29302E-04-5.93438E-16
 -1       481 6.96376E-04 1.77900E-04-5.45753E-16
 -1       482 9.95486E-04-2.77392E-04-1.03071E-15
 -1       483 3.51705E-03 4.72470E-05-1.55749E-14
 -1       484 1.24730E-03 3.53276E-04-1.36127E-15
 -1       485 7.24757E-04-2.13066E-04-5.81082E-16
 -1       486 1.28867E-03-3.19566E-04-1.69840E-15
 -1       487 1.58258E-03-3.48576E-04-2.53339E-15
 -1       488 1.87778E-03-3.69303E-04-3.53470E-15
 -1       489 2.17535E-03-3.86991E-04-4.69885E-15
 -1       490 2.47687E-03-4.07466E-04-6.02395E-15
 -1       491 2.78461E-03-4.37547E-04-7.50712E-15
 -1       492 3.10197E-03-4.85423E-04-9.14714E-15
 -1       493 3.43354E-03-5.60784E-04-1.09415E-14
 -1       494 3.78405E-03-6.73938E-04-1.28922E-14
 -1       495 4.15426E-03-8.31774E-04-1.50014E-14
 -1       496 4.53826E-03-1.02509E-03-1.72806E-14
 -1       497 4.91824E-03-1.21431E-03-1.97412E-14
 -1       498 5.28501E-03-1.32709E-03-2.23956E-14
 -1       499 5.64779E-03-1.31082E-03-2.52513E-14
 -1       500 6.02321E-03-1.18872E-03-2.83024E-14
 -1       501 6.40823E-03-1.03434E-03-3.15328E-14
 -1       502 6.78706E-03-9.04929E-04-3.49277E-14
 -1       503 7.14769E-03-8.20488E-04-3.84717E-14
 -1       504 7.48827E-03-7.79047E-04-4.21597E-14
 -1       505 7.81282E-03-7.71543E-04-4.59884E-14
 -1       506 8.12614E-03-7.88629E-04-4.99482E-14
 -1       507 8.43199E-03-8.22553E-04-5.40295E-14
 -1       508 8.73285E-03-8.67402E-04-5.82254E-14
 -1       509 9.03024E-03-9.18885E-04-6.25368E-14
 -1       510 9.32507E-03-9.74009E-04-6.69650E-14
 -1       511 9.61790E-03-1.03077E-03-7.14999E-14
 -1       512 9.90914E-03-1.08788E-03-7.61376E-14
 -1       513 1.01991E-02-1.14456E-03-8.08702E-14
 -1       514 1.04880E-02-1.20038E-03-8.56908E-14
 -1       515 1.07761E-02-1.25516E-03-9.05924E-14
 -1       516 1.10636E-02-1.30885E-03-9.55682E-14
 -1       517 1.13505E-02-1.36148E-03-1.00613E-13
 -1       518 1.16370E-02-1.41316E-03-1.05726E-13
 -1       519 1.19233E-02-1.46400E-03-1.10909E-13
 -1       520 1.22094E-02-1.51412E-03-1.16152E-13
 -1       521 1.24953E-02-1.56364E-03-1.21447E-13
 -1       522 1.27811E-02-1.61269E-03-1.26787E-13
 -1       523 1.30669E-02-1.66134E-03-1.32170E-13
 -1       524 1.33526E-02-1.70970E-03-1.37585E-13
 -1       525 1.36383E-02-1.75784E-03-1.43029E-13
 -1       526 1.39240E-02-1.80581E-03-1.48493E-13
 -1       527 1.42096E-02-1.85367E-03-1.53974E-13
 -1       528 1.44953E-02-1.90147E-03-1.59470E-13
 -1       529 7.33165E-03-2.74391E-04-3.42728E-14
 -1       530 1.84010E-03 4.16407E-04-3.01648E-15
 -1       531 2.13994E-03 4.39891E-04-4.09309E-15
 -1       532 2.44359E-03 4.64611E-04-5.33470E-15
 -1       533 2.75190E-03 4.95290E-04-6.73896E-15
 -1       534 3.06528E-03 5.36145E-04-8.30590E-15
 -1       535 3.38337E-03 5.90096E-04-1.00356E-14
 -1       536 3.70458E-03 6.57379E-04-1.19265E-14
 -1       537 4.02579E-03 7.33623E-04-1.39814E-14
 -1       538 4.34291E-03 8.08168E-04-1.62087E-14
 -1       539 4.65278E-03 8.64437E-04-1.86122E-14
 -1       540 4.95566E-03 8.84377E-04-2.11966E-14
 -1       541 5.25604E-03 8.56328E-04-2.39630E-14
 -1       542 5.56022E-03 7.81429E-04-2.69120E-14
 -1       543 5.87213E-03 6.73013E-04-3.00378E-14
 -1       544 6.19139E-03 5.49542E-04-3.33341E-14
 -1       545 6.51455E-03 4.27140E-04-3.67900E-14
 -1       546 6.83761E-03 3.15856E-04-4.03933E-14
 -1       547 7.15766E-03 2.19815E-04-4.41351E-14
 -1       548 7.47327E-03 1.39070E-04-4.80018E-14
 -1       549 7.78409E-03 7.15106E-05-5.19916E-14
 -1       550 8.09037E-03 1.42380E-05-5.60972E-14
 -1       551 8.39264E-03-3.56375E-05-6.03133E-14
 -1       552 8.69148E-03-8.06119E-05-6.46377E-14
 -1       553 8.98746E-03-1.22659E-04-6.90663E-14
 -1       554 9.28109E-03-1.63236E-04-7.35969E-14
 -1       555 9.57282E-03-2.03358E-04-7.82151E-14
 -1       556 9.86302E-03-2.43683E-04-8.29144E-14
 -1       557 1.01520E-02-2.84601E-04-8.76875E-14
 -1       558 1.04401E-02-3.26312E-04-9.25383E-14
 -1       559 1.07274E-02-3.68883E-04-9.74711E-14
 -1       560 1.10143E-02-4.12301E-04-1.02488E-13
 -1       561 1.13007E-02-4.56498E-04-1.07581E-13
 -1       562 1.15868E-02-5.01385E-04-1.12745E-13
 -1       563 1.18728E-02-5.46860E-04-1.17979E-13
 -1       564 1.21586E-02-5.92824E-04-1.23277E-13
 -1       565 1.24444E-02-6.39184E-04-1.28634E-13
 -1       566 1.27300E-02-6.85854E-04-1.34026E-13
 -1       567 1.30157E-02-7.32762E-04-1.39452E-13
 -1       568 1.33014E-02-7.79845E-04-1.44901E-13
 -1       569 1.35870E-02-8.27046E-04-1.50373E-13
 -1       570 1.38727E-02-8.74319E-04-1.55867E-13
 -1       571 1.41584E-02-9.21623E-04-1.61386E-13
 -1       572 1.43251E-02-1.19790E-03-1.62462E-13
 -1       573 1.43716E-02-1.28225E-03-1.62676E-13
 -1       574 1.42331E-02-1.03066E-03-1.62009E-13
 -1       575 1.42791E-02-1.11427E-03-1.62240E-13
 -1       576 1.44182E-02-1.36661E-03-1.62886E-13
 -1       577 1.44649E-02-1.45096E-03-1.63094E-13
 -1       578 1.45117E-02-1.53532E-03-1.63293E-13
 -1       579 1.45579E-02-1.61825E-03-1.63480E-13
 -1       580 1.46049E-02-1.70260E-03-1.63662E-13
 -1       581 1.46519E-02-1.78694E-03-1.63840E-13
 -1       582 1.46991E-02-1.87127E-03-1.64018E-13
 -1       583 7.52886E-03-3.67894E-04-3.48678E-14
 -1       584 1.54296E-03 3.89240E-04-2.10574E-15
 -1       585 7.04906E-03-1.73001E-04-3.36432E-14
 -1       586 6.66521E-03 2.67597E-06-3.17049E-14
 -1       587 6.28295E-03 2.08368E-04-2.97579E-14
 -1       588 4.29879E-03 4.39741E-04-1.79347E-14
 -1       589 5.00257E-03-1.21834E-03-2.08450E-14
 -1       590 3.06560E-03-2.31074E-04-1.43434E-14
 -1       591 7.20962E-03-4.94482E-04-3.37863E-14
 -1       592 3.85257E-03 2.05338E-04-1.64001E-14
 -1       593 6.40479E-04-2.90077E-05-6.73222E-16
 -1       594 5.55709E-03 6.01144E-04-2.57181E-14
 -1       595 2.99124E-03-1.50800E-04-1.43528E-14
 -1       596 4.91677E-03 6.93221E-04-2.12551E-14
 -1       597 3.22035E-03-6.85335E-05-1.47571E-14
 -1       598 7.49172E-03-3.26647E-04-3.45419E-14
 -1       599 5.24506E-03 6.97984E-04-2.35330E-14
 -1       600 5.90793E-03 4.21520E-04-2.77778E-14
 -1       601 4.62550E-03 5.94926E-04-1.95484E-14
 -1       602 2.95214E-03-1.82100E-04-1.41334E-14
 -1       603 3.25703E-03-2.99862E-04-1.47850E-14
 -1       604 6.79410E-03-6.88288E-04-3.21952E-14
 -1       605 3.67205E-03-4.76864E-04-1.55626E-14
 -1       606 4.57159E-03-9.90480E-04-1.86321E-14
 -1       607 5.34860E-03-1.29966E-03-2.30907E-14
 -1       608 5.64461E-03-1.25861E-03-2.51208E-14
 -1       609 6.00356E-03-1.10703E-03-2.74389E-14
 -1       610 6.34545E-03-9.21619E-04-2.94845E-14
 -1       611 7.41628E-03-4.13420E-04-3.43290E-14
 -1       612 4.12645E-03-7.21426E-04-1.67347E-14
 -1       613 7.19037E-04 2.57832E-04-4.23476E-16
 -1       614 6.73119E-04-1.26539E-04-6.34001E-16
 -1       615 1.46894E-02-1.93544E-03-1.63196E-13
 -1       616 3.05046E-03-1.11945E-04-1.38115E-14
 -1       617 3.41752E-03-3.63931E-04-1.43140E-14
 -1       618 8.70328E-04 5.04617E-05-1.13104E-15
 -1       619 8.62122E-04 1.36015E-05-1.14854E-15
 -1       620 9.03599E-04 1.38104E-04-1.06084E-15
 -1       621 9.28285E-04 1.92830E-04-1.00229E-15
 -1       622 5.40048E-03 6.76075E-04-2.48993E-14
 -1       623 1.45050E-02-1.83731E-03-1.60288E-13
 -1       624 1.10534E-03-2.39213E-04-1.41967E-15
 -1       625 1.06465E-03 2.64780E-04-1.15317E-15
 -1       626 2.24340E-03 3.72242E-04-4.87572E-15
 -1       627 1.39159E-03-2.70472E-04-2.18772E-15
 -1       628 1.67821E-03-2.92382E-04-3.11932E-15
 -1       629 1.96493E-03-3.08804E-04-4.21289E-15
 -1       630 2.25226E-03-3.24166E-04-5.46542E-15
 -1       631 2.54174E-03-3.43539E-04-6.87374E-15
 -1       632 2.83646E-03-3.73000E-04-8.43720E-15
 -1       633 3.14187E-03-4.20353E-04-1.01527E-14
 -1       634 3.46644E-03-4.96515E-04-1.20192E-14
 -1       635 3.82009E-03-6.16185E-04-1.40378E-14
 -1       636 6.28173E-03-1.01010E-03-2.99617E-14
 -1       637 6.68090E-03-8.52430E-04-3.32882E-14
 -1       638 7.05224E-03-7.52847E-04-3.67688E-14
 -1       639 7.39037E-03-7.04938E-04-4.03896E-14
 -1       640 7.70609E-03-6.93983E-04-4.41457E-14
 -1       641 8.00760E-03-7.08272E-04-4.80370E-14
 -1       642 8.30134E-03-7.39562E-04-5.20505E-14
 -1       643 8.59122E-03-7.82087E-04-5.61808E-14
 -1       644 8.87933E-03-8.31737E-04-6.04267E-14
 -1       645 9.16669E-03-8.85574E-04-6.47884E-14
 -1       646 9.45373E-03-9.41548E-04-6.92579E-14
 -1       647 9.74059E-03-9.98274E-04-7.38320E-14
 -1       648 1.00273E-02-1.05487E-03-7.85054E-14
 -1       649 1.03139E-02-1.11080E-03-8.32714E-14
 -1       650 1.06004E-02-1.16580E-03-8.81183E-14
 -1       651 1.08867E-02-1.21977E-03-9.30438E-14
 -1       652 1.11729E-02-1.27270E-03-9.80414E-14
 -1       653 1.14590E-02-1.32466E-03-1.03108E-13
 -1       654 1.17450E-02-1.37575E-03-1.08247E-13
 -1       655 1.20309E-02-1.42610E-03-1.13451E-13
 -1       656 1.23168E-02-1.47582E-03-1.18715E-13
 -1       657 1.26026E-02-1.52503E-03-1.24029E-13
 -1       658 1.28883E-02-1.57381E-03-1.29381E-13
 -1       659 1.31741E-02-1.62227E-03-1.34775E-13
 -1       660 1.34598E-02-1.67048E-03-1.40194E-13
 -1       661 1.37456E-02-1.71851E-03-1.45635E-13
 -1       662 1.40313E-02-1.76640E-03-1.51105E-13
 -1       663 1.42681E-02-1.80187E-03-1.55691E-13
 -1       664 5.85367E-03-1.21249E-03-2.67884E-14
 -1       665 1.94478E-03 3.52222E-04-3.70067E-15
 -1       666 2.85631E-03 4.25811E-04-7.70541E-15
 -1       667 3.17361E-03 4.68465E-04-9.35977E-15
 -1       668 3.49902E-03 5.26520E-04-1.11724E-14
 -1       669 3.83088E-03 6.00396E-04-1.31442E-14
 -1       670 4.16456E-03 6.84510E-04-1.52826E-14
 -1       671 4.49353E-03 7.64091E-04-1.75953E-14
 -1       672 4.81325E-03 8.15886E-04-2.00874E-14
 -1       673 5.12565E-03 8.17015E-04-2.27626E-14
 -1       674 5.43882E-03 7.58656E-04-2.56249E-14
 -1       675 5.76024E-03 6.52684E-04-2.86710E-14
 -1       676 6.09064E-03 5.23125E-04-3.18909E-14
 -1       677 6.42489E-03 3.92442E-04-3.52751E-14
 -1       678 6.75654E-03 2.74212E-04-3.88108E-14
 -1       679 7.08144E-03 1.73343E-04-4.24889E-14
 -1       680 7.39827E-03 8.94961E-05-4.62960E-14
 -1       681 7.70757E-03 1.99740E-05-5.02267E-14
 -1       682 8.01069E-03-3.85379E-05-5.42787E-14
 -1       683 8.30908E-03-8.91652E-05-5.84398E-14
 -1       684 8.60400E-03-1.34534E-04-6.27098E-14
 -1       685 8.89640E-03-1.76702E-04-6.70837E-14
 -1       686 9.18698E-03-2.17197E-04-7.15653E-14
 -1       687 9.47625E-03-2.57092E-04-7.61426E-14
 -1       688 9.76455E-03-2.97098E-04-8.08007E-14
 -1       689 1.00521E-02-3.37652E-04-8.55416E-14
 -1       690 1.03392E-02-3.78986E-04-9.03565E-14
 -1       691 1.06259E-02-4.21193E-04-9.52493E-14
 -1       692 1.09123E-02-4.64273E-04-1.00227E-13
 -1       693 1.11985E-02-5.08171E-04-1.05281E-13
 -1       694 1.14845E-02-5.52799E-04-1.10410E-13
 -1       695 1.17704E-02-5.98058E-04-1.15612E-13
 -1       696 1.20563E-02-6.43844E-04-1.20879E-13
 -1       697 1.23420E-02-6.90061E-04-1.26203E-13
 -1       698 1.26278E-02-7.36621E-04-1.31568E-13
 -1       699 1.29135E-02-7.83448E-04-1.36975E-13
 -1       700 1.31992E-02-8.30473E-04-1.42408E-13
 -1       701 1.34849E-02-8.77640E-04-1.47860E-13
 -1       702 1.37706E-02-9.24900E-04-1.53339E-13
 -1       703 1.40019E-02-9.77770E-04-1.57669E-13
 -1       704 6.47110E-03 1.08665E-04-3.18523E-14
 -1       705 1.41941E-02-1.36763E-03-1.58215E-13
 -1       706 1.41009E-02-1.19901E-03-1.57796E-13
 -1       707 1.42409E-02-1.45194E-03-1.58418E-13
 -1       708 1.41475E-02-1.28332E-03-1.58007E-13
 -1       709 5.08416E-03 7.28698E-04-2.23970E-14
 -1       710 1.42869E-02-1.53482E-03-1.58609E-13
 -1       711 1.43339E-02-1.61913E-03-1.58799E-13
 -1       712 1.43809E-02-1.70345E-03-1.58981E-13
 -1       713 1.64939E-03 3.30565E-04-2.68839E-15
 -1       714 2.91323E-03-1.54208E-04-1.32319E-14
 -1       715 3.82084E-03-5.67282E-04-1.50193E-14
 -1       716 2.54670E-03 3.95216E-04-6.21047E-15
 -1       717 7.12680E-03-5.82338E-04-3.52663E-14
 -1       718 6.86441E-03-8.41992E-05-3.41892E-14
 -1       719 1.35618E-03 3.02831E-04-1.83936E-15
 -1       720 3.10264E-03-2.47566E-04-1.32711E-14
 -1       721 6.70666E-03-7.70079E-04-3.25655E-14
 -1       722 8.84321E-04 9.12994E-05-1.10254E-15
 -1       723 2.93082E-03-1.87851E-04-1.30024E-14
 -1       724 3.32705E-03-1.39696E-06-1.41620E-14
 -1       725 7.48128E-03-3.22725E-04-3.63271E-14
 -1       726 8.78015E-04-9.37742E-05-1.13999E-15
 -1       727 7.27856E-03-2.54723E-04-3.59144E-14
 -1       728 6.12613E-03 3.01628E-04-2.97931E-14
 -1       729 3.99036E-03 3.27530E-04-1.59772E-14
 -1       730 7.57966E-03-3.61077E-04-3.66640E-14
 -1       731 5.79096E-03 5.00689E-04-2.78624E-14
 -1       732 3.60977E-03 1.20019E-04-1.49366E-14
 -1       733 8.97295E-04-1.36760E-04-1.11477E-15
 -1       734 8.60422E-04-2.11920E-05-1.15599E-15
 -1       735 7.54004E-03-3.99167E-04-3.65814E-14
 -1       736 4.32196E-03 5.15152E-04-1.73166E-14
 -1       737 1.40478E-02-1.06136E-03-1.57906E-13
 -1       738 1.43245E-02-1.75267E-03-1.57336E-13
 -1       739 7.12906E-03-1.80853E-04-3.64671E-14
 -1       740 4.82538E-03 7.04159E-04-2.04543E-14
 -1       741 9.40969E-04-1.99587E-04-1.08965E-15
 -1       742 3.12473E-03-5.50616E-05-1.32340E-14
 -1       743 7.41888E-03-4.71589E-04-3.70074E-14
 -1       744 1.40743E-02-1.13019E-03-1.57855E-13
 -1       745 8.65674E-04-5.61063E-05-1.15331E-15
 -1       746 3.55477E-03-4.49664E-04-1.37865E-14
 -1       747 1.15785E-03 1.92424E-04-1.59466E-15
 -1       748 3.64675E-03 2.20391E-04-1.40794E-14
 -1       749 2.81275E-03-1.51689E-04-1.18198E-14
 -1       750 1.49107E-03-2.22847E-04-2.70732E-15
 -1       751 1.76823E-03-2.39245E-04-3.73083E-15
 -1       752 2.04363E-03-2.52340E-04-4.91152E-15
 -1       753 2.31721E-03-2.65591E-04-6.24766E-15
 -1       754 2.59016E-03-2.82874E-04-7.73663E-15
 -1       755 2.86564E-03-3.08988E-04-9.37586E-15
 -1       756 3.15052E-03-3.51247E-04-1.11640E-14
 -1       757 1.13659E-03-2.00493E-04-1.61486E-15
 -1       758 4.00118E-03 4.26832E-04-1.52804E-14
 -1       759 7.33825E-03-6.09789E-04-3.86401E-14
 -1       760 7.63463E-03-6.03010E-04-4.23308E-14
 -1       761 7.91570E-03-6.19638E-04-4.61528E-14
 -1       762 8.19071E-03-6.50998E-04-5.00987E-14
 -1       763 8.46441E-03-6.92163E-04-5.41609E-14
 -1       764 8.73908E-03-7.39888E-04-5.83408E-14
 -1       765 9.01554E-03-7.91808E-04-6.26355E-14
 -1       766 9.29395E-03-8.46154E-04-6.70403E-14
 -1       767 9.57410E-03-9.01633E-04-7.15486E-14
 -1       768 9.85571E-03-9.57346E-04-7.61600E-14
 -1       769 1.01385E-02-1.01271E-03-8.08660E-14
 -1       770 1.04221E-02-1.06737E-03-8.56591E-14
 -1       771 1.07064E-02-1.12116E-03-9.05312E-14
 -1       772 1.09911E-02-1.17403E-03-9.54769E-14
 -1       773 1.12762E-02-1.22600E-03-1.00498E-13
 -1       774 1.15615E-02-1.27716E-03-1.05589E-13
 -1       775 1.18469E-02-1.32758E-03-1.10751E-13
 -1       776 1.21325E-02-1.37738E-03-1.15976E-13
 -1       777 1.24182E-02-1.42666E-03-1.21259E-13
 -1       778 1.27039E-02-1.47552E-03-1.26586E-13
 -1       779 1.29896E-02-1.52404E-03-1.31954E-13
 -1       780 1.32753E-02-1.57230E-03-1.37352E-13
 -1       781 1.35611E-02-1.62036E-03-1.42770E-13
 -1       782 1.38468E-02-1.66827E-03-1.48216E-13
 -1       783 3.27725E-03 3.93784E-04-1.04239E-14
 -1       784 2.95464E-03 3.50648E-04-8.68751E-15
 -1       785 3.95967E-03 5.40379E-04-1.43664E-14
 -1       786 4.30954E-03 6.38626E-04-1.65866E-14
 -1       787 4.65267E-03 7.27953E-04-1.89838E-14
 -1       788 4.98317E-03 7.72107E-04-2.15664E-14
 -1       789 5.30789E-03 7.41831E-04-2.43377E-14
 -1       790 5.64037E-03 6.40212E-04-2.72994E-14
 -1       791 5.98471E-03 4.99360E-04-3.04462E-14
 -1       792 6.33440E-03 3.54532E-04-3.37606E-14
 -1       793 6.67917E-03 2.26598E-04-3.72317E-14
 -1       794 7.01212E-03 1.21141E-04-4.08456E-14
 -1       795 7.33201E-03 3.59497E-05-4.45920E-14
 -1       796 7.64049E-03-3.34911E-05-4.84664E-14
 -1       797 7.94036E-03-9.15413E-05-5.24609E-14
 -1       798 8.23429E-03-1.41762E-04-5.65726E-14
 -1       799 8.52440E-03-1.86879E-04-6.07903E-14
 -1       800 8.81218E-03-2.28913E-04-6.51126E-14
 -1       801 9.09866E-03-2.69331E-04-6.95396E-14
 -1       802 9.38444E-03-3.09159E-04-7.40689E-14
 -1       803 9.66992E-03-3.49080E-04-7.86888E-14
 -1       804 9.95530E-03-3.89523E-04-8.33913E-14
 -1       805 1.02407E-02-4.30724E-04-8.81738E-14
 -1       806 1.05261E-02-4.72783E-04-9.30293E-14
 -1       807 1.08116E-02-5.15710E-04-9.79662E-14
 -1       808 1.10972E-02-5.59457E-04-1.02986E-13
 -1       809 1.13828E-02-6.03944E-04-1.08079E-13
 -1       810 1.16685E-02-6.49073E-04-1.13247E-13
 -1       811 1.19542E-02-6.94747E-04-1.18486E-13
 -1       812 1.22399E-02-7.40868E-04-1.23777E-13
 -1       813 1.25256E-02-7.87350E-04-1.29115E-13
 -1       814 1.28113E-02-8.34114E-04-1.34493E-13
 -1       815 1.30971E-02-8.81094E-04-1.39910E-13
 -1       816 1.33828E-02-9.28231E-04-1.45354E-13
 -1       817 1.36686E-02-9.75478E-04-1.50816E-13
 -1       818 1.38582E-02-1.01841E-03-1.54358E-13
 -1       819 2.89776E-03-2.01042E-04-1.17337E-14
 -1       820 1.25449E-03 2.45021E-04-1.72238E-15
 -1       821 1.39700E-02-1.36861E-03-1.53557E-13
 -1       822 1.41099E-02-1.61997E-03-1.54135E-13
 -1       823 1.40160E-02-1.45144E-03-1.53751E-13
 -1       824 7.62819E-03-3.58269E-04-3.89478E-14
 -1       825 1.75362E-03 2.70622E-04-3.30367E-15
 -1       826 1.40629E-02-1.53570E-03-1.53946E-13
 -1       827 2.89839E-03-1.11860E-04-1.22741E-14
 -1       828 3.61294E-03 4.56377E-04-1.23157E-14
 -1       829 2.04552E-03 2.86469E-04-4.41322E-15
 -1       830 3.21238E-03-3.11883E-04-1.25938E-14
 -1       831 1.09124E-03 3.63141E-05-1.74043E-15
 -1       832 6.69338E-03 3.91571E-05-3.46348E-14
 -1       833 7.49654E-03-3.11259E-04-3.85281E-14
 -1       834 6.08251E-03 3.68955E-04-3.04590E-14
 -1       835 3.39956E-03 9.93334E-05-1.33418E-14
 -1       836 7.65926E-03-3.93892E-04-3.88932E-14
 -1       837 6.38218E-03 1.98870E-04-3.25153E-14
 -1       838 7.61516E-03-4.45463E-04-3.93368E-14
 -1       839 4.53994E-03 6.61837E-04-1.83126E-14
 -1       840 1.08397E-03-6.05880E-06-1.75756E-15
 -1       841 1.10668E-03 8.21997E-05-1.70874E-15
 -1       842 3.18820E-03 3.58768E-05-1.24438E-14
 -1       843 7.39195E-03-2.56520E-04-3.90951E-14
 -1       844 1.40837E-02-1.70375E-03-1.52796E-13
 -1       845 2.34147E-03 3.02129E-04-5.68175E-15
 -1       846 1.12921E-03 1.33789E-04-1.66104E-15
 -1       847 1.38383E-02-1.11970E-03-1.53072E-13
 -1       848 1.11867E-03-1.35609E-04-1.72548E-15
 -1       849 2.64361E-03 3.21897E-04-7.10666E-15
 -1       850 1.38848E-02-1.20397E-03-1.53283E-13
 -1       851 1.39274E-02-1.28629E-03-1.53422E-13
 -1       852 6.96750E-03-7.04625E-05-3.69218E-14
 -1       853 7.61320E-03-5.18969E-04-4.08358E-14
 -1       854 1.09754E-03-8.92637E-05-1.75090E-15
 -1       855 1.50375E-03 2.61037E-04-2.44902E-15
 -1       856 1.38730E-02-1.58455E-03-1.49553E-13
 -1       857 3.04224E-03 2.67850E-04-9.68293E-15
 -1       858 1.25623E-03-1.60761E-04-2.09553E-15
 -1       859 1.85478E-03-1.89959E-04-4.36609E-15
 -1       860 2.11691E-03-2.00875E-04-5.62993E-15
 -1       861 2.37347E-03-2.12513E-04-7.04605E-15
 -1       862 2.62440E-03-2.27244E-04-8.61145E-15
 -1       863 2.87058E-03-2.48452E-04-1.03244E-14
 -1       864 7.86377E-03-5.41620E-04-4.46033E-14
 -1       865 8.11489E-03-5.75089E-04-4.84937E-14
 -1       866 8.37002E-03-6.15767E-04-5.25031E-14
 -1       867 8.63009E-03-6.61694E-04-5.66238E-14
 -1       868 8.89504E-03-7.11361E-04-6.08624E-14
 -1       869 9.16436E-03-7.63487E-04-6.52136E-14
 -1       870 9.43738E-03-8.17015E-04-6.96675E-14
 -1       871 9.71343E-03-8.71124E-04-7.42257E-14
 -1       872 9.99191E-03-9.25225E-04-7.88823E-14
 -1       873 1.02723E-02-9.78932E-04-8.36265E-14
 -1       874 1.05541E-02-1.03202E-03-8.84546E-14
 -1       875 1.08371E-02-1.08438E-03-9.33606E-14
 -1       876 1.11208E-02-1.13600E-03-9.83356E-14
 -1       877 1.14052E-02-1.18690E-03-1.03387E-13
 -1       878 1.16900E-02-1.23716E-03-1.08514E-13
 -1       879 1.19752E-02-1.28686E-03-1.13704E-13
 -1       880 1.22606E-02-1.33607E-03-1.18956E-13
 -1       881 1.25461E-02-1.38489E-03-1.24261E-13
 -1       882 1.28317E-02-1.43339E-03-1.29607E-13
 -1       883 1.31174E-02-1.48164E-03-1.34983E-13
 -1       884 1.34032E-02-1.52970E-03-1.40385E-13
 -1       885 1.36381E-02-1.55717E-03-1.44956E-13
 -1       886 6.61354E-03 1.71616E-04-3.56528E-14
 -1       887 6.95599E-03 6.08420E-05-3.92075E-14
 -1       888 7.27866E-03-2.36542E-05-4.28944E-14
 -1       889 7.58511E-03-9.03783E-05-4.67097E-14
 -1       890 7.88026E-03-1.45662E-04-5.06475E-14
 -1       891 8.16830E-03-1.93811E-04-5.47047E-14
 -1       892 8.45229E-03-2.37644E-04-5.88748E-14
 -1       893 8.73432E-03-2.79025E-04-6.31474E-14
 -1       894 9.01565E-03-3.19211E-04-6.75222E-14
 -1       895 9.29704E-03-3.59048E-04-7.19988E-14
 -1       896 9.57888E-03-3.99097E-04-7.65747E-14
 -1       897 9.86133E-03-4.39704E-04-8.12423E-14
 -1       898 1.01444E-02-4.81060E-04-8.59872E-14
 -1       899 1.04281E-02-5.23246E-04-9.08103E-14
 -1       900 1.07123E-02-5.66265E-04-9.57123E-14
 -1       901 1.09969E-02-6.10071E-04-1.00692E-13
 -1       902 1.12819E-02-6.54588E-04-1.05750E-13
 -1       903 1.15671E-02-6.99727E-04-1.10887E-13
 -1       904 1.18525E-02-7.45395E-04-1.16093E-13
 -1       905 1.21380E-02-7.91501E-04-1.21355E-13
 -1       906 1.24236E-02-8.37963E-04-1.26668E-13
 -1       907 1.27093E-02-8.84707E-04-1.32021E-13
 -1       908 1.29950E-02-9.31670E-04-1.37411E-13
 -1       909 1.32808E-02-9.78796E-04-1.42841E-13
 -1       910 1.35665E-02-1.02604E-03-1.48292E-13
 -1       911 2.92867E-03-4.61978E-05-1.15264E-14
 -1       912 1.37455E-02-1.36882E-03-1.48914E-13
 -1       913 3.64492E-03 3.30404E-04-1.32487E-14
 -1       914 2.74419E-03-1.13400E-04-1.09178E-14
 -1       915 2.69708E-03-1.57295E-04-1.03300E-14
 -1       916 1.08593E-03-4.70106E-05-1.76144E-15
 -1       917 7.69140E-03-3.50905E-04-4.14306E-14
 -1       918 7.80344E-03-4.35796E-04-4.22383E-14
 -1       919 1.85455E-03 2.09316E-04-3.95044E-15
 -1       920 6.34426E-03 2.81459E-04-3.31503E-14
 -1       921 7.78126E-03-3.94389E-04-4.18475E-14
 -1       922 1.58825E-03-1.77446E-04-3.25673E-15
 -1       923 3.43284E-03 2.15373E-04-1.25494E-14
 -1       924 1.38482E-02-1.06906E-03-1.53717E-13
 -1       925 1.37028E-02-1.28656E-03-1.48780E-13
 -1       926 7.25587E-03-1.67336E-04-3.95646E-14
 -1       927 1.38260E-02-1.50033E-03-1.49367E-13
 -1       928 1.32749E-03 6.39636E-05-2.44070E-15
 -1       929 2.73145E-03 2.43294E-04-8.02018E-15
 -1       930 1.38459E-03 1.80321E-04-2.31947E-15
 -1       931 2.14123E-03 2.18798E-04-5.15270E-15
 -1       932 1.31196E-03 1.42583E-05-2.47225E-15
 -1       933 7.62881E-03-3.09100E-04-4.20156E-14
 -1       934 6.79424E-03 5.83405E-05-3.66928E-14
 -1       935 1.44290E-03 2.19258E-04-2.38818E-15
 -1       936 7.83572E-03-4.84062E-04-4.34224E-14
 -1       937 1.37857E-02-1.43457E-03-1.49143E-13
 -1       938 3.33518E-03 2.89124E-04-1.13996E-14
 -1       939 3.22798E-03 1.45861E-04-1.16847E-14
 -1       940 1.22911E-03-1.10004E-04-2.13018E-15
 -1       941 1.64925E-03 2.16535E-04-3.12148E-15
 -1       942 1.36141E-02-1.12081E-03-1.48443E-13
 -1       943 2.19032E-03-1.55311E-04-6.36630E-15
 -1       944 2.42790E-03-1.66969E-04-7.85916E-15
 -1       945 2.57069E-03-1.60723E-04-9.05889E-15
 -1       946 2.43254E-03 2.28767E-04-6.50956E-15
 -1       947 8.06280E-03-5.18742E-04-4.72706E-14
 -1       948 8.30088E-03-5.58510E-04-5.12393E-14
 -1       949 8.54838E-03-6.02447E-04-5.53200E-14
 -1       950 8.80373E-03-6.49729E-04-5.95136E-14
 -1       951 9.06558E-03-6.99473E-04-6.38219E-14
 -1       952 9.33272E-03-7.50831E-04-6.82390E-14
 -1       953 9.60415E-03-8.03070E-04-7.27550E-14
 -1       954 9.87901E-03-8.55622E-04-7.73712E-14
 -1       955 1.01566E-02-9.08080E-04-8.20787E-14
 -1       956 1.04363E-02-9.60182E-04-8.68711E-14
 -1       957 1.07176E-02-1.01178E-03-9.17448E-14
 -1       958 1.10001E-02-1.06281E-03-9.66889E-14
 -1       959 1.12836E-02-1.11328E-03-1.01707E-13
 -1       960 1.15678E-02-1.16321E-03-1.06802E-13
 -1       961 1.18525E-02-1.21267E-03-1.11967E-13
 -1       962 1.21376E-02-1.26171E-03-1.17196E-13
 -1       963 1.24229E-02-1.31041E-03-1.22480E-13
 -1       964 1.27085E-02-1.35883E-03-1.27809E-13
 -1       965 1.29941E-02-1.40702E-03-1.33170E-13
 -1       966 1.32798E-02-1.45503E-03-1.38556E-13
 -1       967 7.24579E-03-9.02872E-05-4.11994E-14
 -1       968 2.57043E-03-1.12627E-04-9.38585E-15
 -1       969 7.83237E-03-2.01053E-04-4.88406E-14
 -1       970 8.11160E-03-2.45250E-04-5.28404E-14
 -1       971 8.38739E-03-2.86621E-04-5.69589E-14
 -1       972 8.66213E-03-3.26718E-04-6.11838E-14
 -1       973 8.93720E-03-3.66438E-04-6.55095E-14
 -1       974 9.21333E-03-4.06319E-04-6.99357E-14
 -1       975 9.49084E-03-4.46691E-04-7.44638E-14
 -1       976 9.76979E-03-4.87745E-04-7.90872E-14
 -1       977 1.00501E-02-5.29575E-04-8.37995E-14
 -1       978 1.03316E-02-5.72205E-04-8.85895E-14
 -1       979 1.06142E-02-6.15609E-04-9.34573E-14
 -1       980 1.08976E-02-6.59733E-04-9.84033E-14
 -1       981 1.11816E-02-7.04501E-04-1.03424E-13
 -1       982 1.14662E-02-7.49831E-04-1.08526E-13
 -1       983 1.17511E-02-7.95639E-04-1.13700E-13
 -1       984 1.20364E-02-8.41844E-04-1.18937E-13
 -1       985 1.23218E-02-8.88374E-04-1.24223E-13
 -1       986 1.26074E-02-9.35163E-04-1.29551E-13
 -1       987 1.28931E-02-9.82155E-04-1.34919E-13
 -1       988 1.31788E-02-1.02930E-03-1.40321E-13
 -1       989 2.69156E-03-5.84820E-05-9.96682E-15
 -1       990 1.30768E-03-3.21425E-05-2.48612E-15
 -1       991 1.31575E-03-7.79824E-05-2.48299E-15
 -1       992 1.35233E-03 1.18836E-04-2.39061E-15
 -1       993 1.94213E-03-1.44963E-04-5.02288E-15
 -1       994 7.54592E-03-1.51163E-04-4.49584E-14
 -1       995 1.68619E-03-1.34522E-04-3.83204E-15
 -1       996 1.36566E-02-1.20308E-03-1.48582E-13
 -1       997 2.96679E-03 4.46686E-05-1.08142E-14
 -1       998 1.34762E-02-1.28563E-03-1.44131E-13
 -1       999 2.80520E-03 1.59125E-04-8.94977E-15
 -1      1000 1.35910E-02-1.47301E-03-1.44772E-13
 -1      1001 1.32212E-02-1.11144E-03-1.40472E-13
 -1      1002 1.34354E-02-1.46405E-03-1.41658E-13
 -1      1003 1.95154E-03 1.46785E-04-4.62621E-15
 -1      1004 1.57211E-03 9.54733E-05-3.24512E-15
 -1      1005 3.14261E-03 2.09313E-04-1.06712E-14
 -1      1006 1.54573E-03 3.83379E-05-3.29463E-15
 -1      1007 7.52746E-03-2.38781E-04-4.25040E-14
 -1      1008 7.94969E-03-4.35083E-04-4.50366E-14
 -1      1009 8.01123E-03-4.74415E-04-4.61561E-14
 -1      1010 7.88945E-03-3.91127E-04-4.46180E-14
 -1      1011 1.59808E-03 1.61779E-04-3.12730E-15
 -1      1012 1.35164E-02-1.35132E-03-1.44356E-13
 -1      1013 7.86047E-03-3.56421E-04-4.52277E-14
 -1      1014 2.69049E-03 1.43761E-05-9.30970E-15
 -1      1015 2.42060E-03-1.14492E-04-8.18032E-15
 -1      1016 1.35537E-02-1.41215E-03-1.44564E-13
 -1      1017 2.51384E-03 1.52117E-04-7.35854E-15
 -1      1018 8.23468E-03-5.12148E-04-5.00868E-14
 -1      1019 8.47180E-03-5.53563E-04-5.41311E-14
 -1      1020 8.71941E-03-5.98212E-04-5.82857E-14
 -1      1021 8.97525E-03-6.45433E-04-6.25558E-14
 -1      1022 9.23765E-03-6.94505E-04-6.69367E-14
 -1      1023 9.50530E-03-7.44755E-04-7.14192E-14
 -1      1024 9.77715E-03-7.95626E-04-7.60005E-14
 -1      1025 1.00523E-02-8.46698E-04-8.06731E-14
 -1      1026 1.03302E-02-8.97676E-04-8.54330E-14
 -1      1027 1.06100E-02-9.48380E-04-9.02766E-14
 -1      1028 1.08915E-02-9.98710E-04-9.51945E-14
 -1      1029 1.11742E-02-1.04863E-03-1.00184E-13
 -1      1030 1.14578E-02-1.09815E-03-1.05249E-13
 -1      1031 1.17421E-02-1.14729E-03-1.10391E-13
 -1      1032 1.20269E-02-1.19610E-03-1.15600E-13
 -1      1033 1.23120E-02-1.24463E-03-1.20864E-13
 -1      1034 1.25974E-02-1.29292E-03-1.26176E-13
 -1      1035 1.28829E-02-1.34103E-03-1.31526E-13
 -1      1036 1.31686E-02-1.38898E-03-1.36899E-13
 -1      1037 1.78992E-03-9.38837E-05-4.43013E-15
 -1      1038 1.33487E-02-1.19851E-03-1.42305E-13
 -1      1039 2.89395E-03 1.03439E-04-9.86798E-15
 -1      1040 7.79889E-03-2.56502E-04-4.70361E-14
 -1      1041 8.06460E-03-2.95150E-04-5.09814E-14
 -1      1042 8.86216E-03-4.10552E-04-6.34980E-14
 -1      1043 9.13223E-03-4.50553E-04-6.78766E-14
 -1      1044 9.40486E-03-4.91469E-04-7.23572E-14
 -1      1045 9.67992E-03-5.33276E-04-7.69364E-14
 -1      1046 9.95716E-03-5.75921E-04-8.16075E-14
 -1      1047 1.02363E-02-6.19339E-04-8.63642E-14
 -1      1048 1.05170E-02-6.63457E-04-9.12004E-14
 -1      1049 1.07990E-02-7.08193E-04-9.61153E-14
 -1      1050 1.10820E-02-7.53469E-04-1.01101E-13
 -1      1051 1.13658E-02-7.99207E-04-1.06166E-13
 -1      1052 1.16502E-02-8.45333E-04-1.11307E-13
 -1      1053 1.19351E-02-8.91781E-04-1.16514E-13
 -1      1054 1.22202E-02-9.38491E-04-1.21780E-13
 -1      1055 1.25057E-02-9.85410E-04-1.27087E-13
 -1      1056 1.27912E-02-1.03249E-03-1.32432E-13
 -1      1057 2.23060E-03 1.49333E-04-5.91588E-15
 -1      1058 2.46506E-03-6.05650E-05-8.40851E-15
 -1      1059 8.59458E-03-3.71447E-04-5.92167E-14
 -1      1060 1.53189E-03-1.34972E-05-3.32277E-15
 -1      1061 2.19578E-03-1.00684E-04-6.66034E-15
 -1      1062 1.53313E-03-6.25436E-05-3.32977E-15
 -1      1063 1.99655E-03-9.66823E-05-5.49169E-15
 -1      1064 8.32907E-03-3.33106E-04-5.50420E-14
 -1      1065 8.10086E-03-4.36174E-04-4.81650E-14
 -1      1066 1.84009E-03 6.98424E-05-4.43823E-15
 -1      1067 2.58231E-03 7.37337E-05-8.22528E-15
 -1      1068 1.33242E-02-1.39799E-03-1.39990E-13
 -1      1069 1.31935E-02-1.22837E-03-1.38872E-13
 -1      1070 8.17314E-03-4.73215E-04-4.91289E-14
 -1      1071 2.10485E-03 6.54719E-05-5.70491E-15
 -1      1072 8.09484E-03-4.03711E-04-4.88001E-14
 -1      1073 1.32337E-02-1.29396E-03-1.39095E-13
 -1      1074 2.34091E-03 6.88932E-05-6.91098E-15
 -1      1075 7.72070E-03-2.84649E-04-4.47945E-14
 -1      1076 8.40288E-03-5.11706E-04-5.31433E-14
 -1      1077 8.64492E-03-5.53596E-04-5.72673E-14
 -1      1078 8.89644E-03-5.98260E-04-6.15038E-14
 -1      1079 9.15535E-03-6.45014E-04-6.58556E-14
 -1      1080 9.42016E-03-6.93215E-04-7.03084E-14
 -1      1081 9.68969E-03-7.42316E-04-7.48607E-14
 -1      1082 9.96300E-03-7.91889E-04-7.95034E-14
 -1      1083 1.02393E-02-8.41621E-04-8.42375E-14
 -1      1084 1.05180E-02-8.91305E-04-8.90546E-14
 -1      1085 1.07986E-02-9.40813E-04-9.39497E-14
 -1      1086 1.10806E-02-9.90081E-04-9.89173E-14
 -1      1087 1.13637E-02-1.03909E-03-1.03958E-13
 -1      1088 1.16476E-02-1.08783E-03-1.09077E-13
 -1      1089 1.19321E-02-1.13634E-03-1.14268E-13
 -1      1090 1.22170E-02-1.18464E-03-1.19516E-13
 -1      1091 1.25023E-02-1.23277E-03-1.24812E-13
 -1      1092 1.27878E-02-1.28075E-03-1.30150E-13
 -1      1093 1.30734E-02-1.32862E-03-1.35514E-13
 -1      1094 1.81043E-03 1.06827E-05-4.48669E-15
 -1      1095 1.30304E-02-1.14291E-03-1.36314E-13
 -1      1096 9.59060E-03-5.76034E-04-7.47872E-14
 -1      1097 1.76322E-03-5.38661E-05-4.34740E-15
 -1      1098 8.02613E-03-3.41286E-04-4.91210E-14
 -1      1099 9.31958E-03-5.33136E-04-7.02498E-14
 -1      1100 9.05212E-03-4.91381E-04-6.58149E-14
 -1      1101 9.86469E-03-6.19857E-04-7.94148E-14
 -1      1102 1.01414E-02-6.64426E-04-8.41323E-14
 -1      1103 1.04202E-02-7.09600E-04-8.89362E-14
 -1      1104 1.07007E-02-7.55264E-04-9.38175E-14
 -1      1105 1.09827E-02-8.01326E-04-9.87742E-14
 -1      1106 1.12657E-02-8.47711E-04-1.03803E-13
 -1      1107 1.15495E-02-8.94356E-04-1.08909E-13
 -1      1108 1.18340E-02-9.41210E-04-1.14086E-13
 -1      1109 1.21189E-02-9.88231E-04-1.19326E-13
 -1      1110 1.24041E-02-1.03538E-03-1.24617E-13
 -1      1111 1.26895E-02-1.08264E-03-1.29945E-13
 -1      1112 2.23481E-03-4.45393E-05-6.87044E-15
 -1      1113 8.78869E-03-4.51036E-04-6.14791E-14
 -1      1114 2.40226E-03 7.66583E-07-7.65484E-15
 -1      1115 8.52975E-03-4.12407E-04-5.72471E-14
 -1      1116 8.27563E-03-3.75734E-04-5.31292E-14
 -1      1117 1.32789E-02-1.34596E-03-1.39544E-13
 -1      1118 7.99282E-03-3.45015E-04-4.83526E-14
 -1      1119 8.25522E-03-4.56735E-04-5.09641E-14
 -1      1120 1.28526E-02-1.16790E-03-1.32486E-13
 -1      1121 2.00052E-03-4.82183E-05-5.54243E-15
 -1      1122 1.28927E-02-1.23331E-03-1.32713E-13
 -1      1123 2.10810E-03 7.55290E-06-5.97147E-15
 -1      1124 8.48788E-03-4.83258E-04-5.51372E-14
 -1      1125 8.73461E-03-5.23626E-04-5.93122E-14
 -1      1126 8.98946E-03-5.66460E-04-6.36014E-14
 -1      1127 9.25074E-03-6.11194E-04-6.79975E-14
 -1      1128 9.51723E-03-6.57277E-04-7.24921E-14
 -1      1129 9.78798E-03-7.04263E-04-7.70772E-14
 -1      1130 1.00622E-02-7.51816E-04-8.17584E-14
 -1      1131 1.03391E-02-7.99692E-04-8.65247E-14
 -1      1132 1.06183E-02-8.47723E-04-9.13742E-14
 -1      1133 1.08992E-02-8.95802E-04-9.63003E-14
 -1      1134 1.11815E-02-9.43863E-04-1.01297E-13
 -1      1135 1.14648E-02-9.91870E-04-1.06371E-13
 -1      1136 1.17488E-02-1.03981E-03-1.11521E-13
 -1      1137 1.20335E-02-1.08768E-03-1.16737E-13
 -1      1138 1.23185E-02-1.13548E-03-1.22005E-13
 -1      1139 1.26038E-02-1.18322E-03-1.27317E-13
 -1      1140 8.24560E-03-3.99047E-04-5.20075E-14
 -1      1141 0.00000E+00 0.00000E+00 0.00000E+00
 -1      1142 0.00000E+00 0.00000E+00 0.00000E+00
 -1      1143 0.00000E+00 0.00000E+00 0.00000E+00
 -1      1144 0.00000E+00 0.00000E+00 0.00000E+00
 -1      1145 0.00000E+00 0.00000E+00 0.00000E+00
 -1      1146 0.00000E+00 0.00000E+00 0.00000E+00
 -1      1147 0.00000E+00 0.00000E+00 0.00000E+00
 -1      1148 0.00000E+00 0.00000E+00 0.00000E+00
 -1      1149 0.00000E+00 0.00000E+00 0.00000E+00
 -1      1150 0.00000E+00 0.00000E+00 0.00000E+00
 -1      1151 0.00000E+00 0.00000E+00 0.00000E+00
 -1      1152 0.00000E+00 0.00000E+00 0.00000E+00
 -1      1153 0.00000E+00 0.00000E+00 0.00000E+00
 -1      1154 0.00000E+00 0.00000E+00 0.00000E+00
 -1      1155 0.00000E+00 0.00000E+00 0.00000E+00
 -1      1156 0.00000E+00 0.00000E+00 0.00000E+00
 -1      1157 0.00000E+00 0.00000E+00 0.00000E+00
 -1      1158 2.10565E-04-1.43947E-04 2.39338E-17
 -1      1159 5.53990E-04-3.20191E-04-4.03459E-17
 -1      1160 8.45454E-04-4.27767E-04-2.69912E-16
 -1      1161 1.13016E-03-4.96651E-04-6.92006E-16
 -1      1162 1.41668E-03-5.42981E-04-1.29802E-15
 -1      1163 1.70985E-03-5.75640E-04-2.08346E-15
 -1      1164 2.01327E-03-6.01002E-04-3.04615E-15
 -1      1165 2.32975E-03-6.24990E-04-4.18165E-15
 -1      1166 2.66144E-03-6.54114E-04-5.48867E-15
 -1      1167 3.00936E-03-6.95973E-04-6.96471E-15
 -1      1168 3.37240E-03-7.59202E-04-8.60627E-15
 -1      1169 3.74593E-03-8.52254E-04-1.04103E-14
 -1      1170 4.12031E-03-9.80124E-04-1.23773E-14
 -1      1171 4.48096E-03-1.13858E-03-1.45150E-14
 -1      1172 4.81221E-03-1.30808E-03-1.68253E-14
 -1      1173 5.10571E-03-1.45343E-03-1.93156E-14
 -1      1174 5.36937E-03-1.53567E-03-2.19897E-14
 -1      1175 5.62746E-03-1.53302E-03-2.48505E-14
 -1      1176 5.90788E-03-1.45498E-03-2.78940E-14
 -1      1177 6.22627E-03-1.33620E-03-3.11106E-14
 -1      1178 6.58042E-03-1.21599E-03-3.44915E-14
 -1      1179 6.95660E-03-1.12143E-03-3.80315E-14
 -1      1180 7.33915E-03-1.06304E-03-4.17229E-14
 -1      1181 7.71636E-03-1.03948E-03-4.55618E-14
 -1      1182 8.08180E-03-1.04396E-03-4.95424E-14
 -1      1183 8.43325E-03-1.06871E-03-5.36531E-14
 -1      1184 8.77103E-03-1.10703E-03-5.78821E-14
 -1      1185 9.09675E-03-1.15384E-03-6.22263E-14
 -1      1186 9.41245E-03-1.20557E-03-6.66965E-14
 -1      1187 9.72014E-03-1.25983E-03-7.12750E-14
 -1      1188 1.00216E-02-1.31508E-03-7.59640E-14
 -1      1189 1.03183E-02-1.37038E-03-8.07537E-14
 -1      1190 1.06116E-02-1.42519E-03-8.56242E-14
 -1      1191 1.09022E-02-1.47922E-03-9.05693E-14
 -1      1192 1.11910E-02-1.53237E-03-9.55971E-14
 -1      1193 1.14784E-02-1.58463E-03-1.00696E-13
 -1      1194 1.17650E-02-1.63605E-03-1.05857E-13
 -1      1195 1.20510E-02-1.68672E-03-1.11075E-13
 -1      1196 1.23367E-02-1.73674E-03-1.16347E-13
 -1      1197 1.26221E-02-1.78621E-03-1.21670E-13
 -1      1198 1.29074E-02-1.83523E-03-1.27040E-13
 -1      1199 1.31927E-02-1.88388E-03-1.32461E-13
 -1      1200 1.34780E-02-1.93225E-03-1.37920E-13
 -1      1201 1.37634E-02-1.98041E-03-1.43403E-13
 -1      1202 1.40488E-02-2.02841E-03-1.48900E-13
 -1      1203 1.43343E-02-2.07630E-03-1.54400E-13
 -1      1204 1.46199E-02-2.12413E-03-1.59901E-13
 -1      1205 1.49055E-02-2.17194E-03-1.65404E-13
 -1      1206 1.51912E-02-2.21976E-03-1.70926E-13
 -1      1207 1.54698E-02-2.26642E-03-1.76344E-13
 -1      1208 2.27269E-04 1.56556E-04 4.03188E-17
 -1      1209 5.56175E-04 3.26499E-04 8.06375E-18
 -1      1210 8.45681E-04 4.33512E-04-1.81008E-16
 -1      1211 1.12872E-03 5.04173E-04-5.47387E-16
 -1      1212 1.41228E-03 5.53287E-04-1.09076E-15
 -1      1213 1.70035E-03 5.89407E-04-1.81048E-15
 -1      1214 1.99519E-03 6.18560E-04-2.70504E-15
 -1      1215 2.29784E-03 6.45823E-04-3.77153E-15
 -1      1216 2.60820E-03 6.75851E-04-5.00877E-15
 -1      1217 2.92488E-03 7.12827E-04-6.41732E-15
 -1      1218 3.24493E-03 7.59938E-04-7.99935E-15
 -1      1219 3.56382E-03 8.18388E-04-9.75077E-15
 -1      1220 3.87577E-03 8.86068E-04-1.16703E-14
 -1      1221 4.17491E-03 9.56391E-04-1.37590E-14
 -1      1222 4.45728E-03 1.01821E-03-1.60236E-14
 -1      1223 4.72299E-03 1.05779E-03-1.84698E-14
 -1      1224 4.97738E-03 1.06283E-03-2.10922E-14
 -1      1225 5.22990E-03 1.02717E-03-2.38900E-14
 -1      1226 5.49092E-03 9.53421E-04-2.68665E-14
 -1      1227 5.76796E-03 8.51882E-04-3.00227E-14
 -1      1228 6.06353E-03 7.36491E-04-3.33453E-14
 -1      1229 6.37541E-03 6.20230E-04-3.68205E-14
 -1      1230 6.69850E-03 5.12207E-04-4.04445E-14
 -1      1231 7.02701E-03 4.16987E-04-4.42100E-14
 -1      1232 7.35596E-03 3.35465E-04-4.81054E-14
 -1      1233 7.68188E-03 2.66267E-04-5.21217E-14
 -1      1234 8.00276E-03 2.06990E-04-5.62559E-14
 -1      1235 8.31782E-03 1.55037E-04-6.04962E-14
 -1      1236 8.62709E-03 1.08077E-04-6.48446E-14
 -1      1237 8.93107E-03 6.42205E-05-6.93022E-14
 -1      1238 9.23051E-03 2.20496E-05-7.38535E-14
 -1      1239 9.52622E-03-1.94376E-05-7.84894E-14
 -1      1240 9.81897E-03-6.09050E-05-8.32003E-14
 -1      1241 1.01094E-02-1.02759E-04-8.79766E-14
 -1      1242 1.03982E-02-1.45222E-04-9.28266E-14
 -1      1243 1.06857E-02-1.88385E-04-9.77678E-14
 -1      1244 1.09724E-02-2.32259E-04-1.02808E-13
 -1      1245 1.12584E-02-2.76803E-04-1.07933E-13
 -1      1246 1.15441E-02-3.21945E-04-1.13117E-13
 -1      1247 1.18296E-02-3.67605E-04-1.18373E-13
 -1      1248 1.21149E-02-4.13698E-04-1.23692E-13
 -1      1249 1.24003E-02-4.60143E-04-1.29067E-13
 -1      1250 1.26856E-02-5.06867E-04-1.34481E-13
 -1      1251 1.29710E-02-5.53804E-04-1.39938E-13
 -1      1252 1.32564E-02-6.00897E-04-1.45416E-13
 -1      1253 1.35419E-02-6.48095E-04-1.50905E-13
 -1      1254 1.38275E-02-6.95353E-04-1.56424E-13
 -1      1255 1.41131E-02-7.42634E-04-1.61961E-13
 -1      1256 1.43988E-02-7.89903E-04-1.67498E-13
 -1      1257 1.46773E-02-8.35961E-04-1.72897E-13
 -1      1258 1.48363E-02-9.00533E-04-1.75644E-13
 -1      1259 1.48827E-02-9.84822E-04-1.75918E-13
 -1      1260 1.49291E-02-1.06914E-03-1.76180E-13
 -1      1261 1.49755E-02-1.15350E-03-1.76411E-13
 -1      1262 1.50219E-02-1.23791E-03-1.76644E-13
 -1      1263 1.50679E-02-1.32165E-03-1.76866E-13
 -1      1264 1.51140E-02-1.40543E-03-1.77086E-13
 -1      1265 1.51607E-02-1.48995E-03-1.77290E-13
 -1      1266 1.52074E-02-1.57449E-03-1.77483E-13
 -1      1267 1.52542E-02-1.65903E-03-1.77657E-13
 -1      1268 1.53011E-02-1.74355E-03-1.77828E-13
 -1      1269 1.53476E-02-1.82733E-03-1.78007E-13
 -1      1270 1.53943E-02-1.91107E-03-1.78193E-13
 -1      1271 1.54414E-02-1.99548E-03-1.78368E-13
 -1      1272 1.54885E-02-2.07984E-03-1.78549E-13
 -1      1273 1.55357E-02-2.16416E-03-1.78741E-13
 -1      1274 1.55824E-02-2.24773E-03-1.78918E-13
 -1      1275 7.47702E-03-2.39433E-04-2.99337E-14
 -1      1276 7.35858E-03-9.78772E-05-2.96388E-14
 -1      1277 7.15323E-03 4.60695E-05-2.90788E-14
 -1      1278 6.86295E-03 1.97871E-04-2.82432E-14
 -1      1279 6.51341E-03 3.43853E-04-2.71965E-14
 -1      1280 6.13062E-03 4.69151E-04-2.60178E-14
 -1      1281 5.73133E-03 5.62090E-04-2.47659E-14
 -1      1282 5.31022E-03 6.12644E-04-2.34379E-14
 -1      1283 4.88085E-03 6.12876E-04-2.21040E-14
 -1      1284 4.47428E-03 5.63476E-04-2.08822E-14
 -1      1285 4.07871E-03 4.70089E-04-1.97532E-14
 -1      1286 3.71003E-03 3.46059E-04-1.87628E-14
 -1      1287 3.40107E-03 2.07229E-04-1.79926E-14
 -1      1288 3.16908E-03 6.52692E-05-1.74454E-14
 -1      1289 3.02572E-03-7.90807E-05-1.71175E-14
 -1      1290 2.98800E-03-2.22474E-04-1.70272E-14
 -1      1291 3.06088E-03-3.73254E-04-1.71790E-14
 -1      1292 3.24301E-03-5.34247E-04-1.75824E-14
 -1      1293 3.52487E-03-7.03486E-04-1.82373E-14
 -1      1294 3.89424E-03-8.76495E-04-1.91560E-14
 -1      1295 4.33559E-03-1.03599E-03-2.03306E-14
 -1      1296 4.82128E-03-1.15315E-03-2.17069E-14
 -1      1297 5.30021E-03-1.20176E-03-2.31387E-14
 -1      1298 5.75551E-03-1.18020E-03-2.45462E-14
 -1      1299 6.18618E-03-1.10043E-03-2.58929E-14
 -1      1300 6.58646E-03-9.77807E-04-2.71353E-14
 -1      1301 6.94143E-03-8.29474E-04-2.82258E-14
 -1      1302 7.22679E-03-6.72978E-04-2.90950E-14
 -1      1303 7.41392E-03-5.22809E-04-2.96674E-14
 -1      1304 7.49684E-03-3.81036E-04-2.99442E-14
 -1      1305 1.68184E-04-1.05666E-04-3.52366E-18
 -1      1306 1.14942E-04-5.12118E-05-3.64834E-17
 -1      1307 1.19890E-04-6.25353E-05-2.74303E-17
 -1      1308 1.10324E-04-3.65548E-05-5.15809E-17
 -1      1309 1.12490E-04-4.30742E-05-4.70273E-17
 -1      1310 2.31328E-04-9.52231E-05-1.10223E-16
 -1      1311 1.07790E-04-2.63505E-05-5.96718E-17
 -1      1312 1.09138E-04-3.10705E-05-5.73543E-17
 -1      1313 2.22588E-04-6.85758E-05-1.37124E-16
 -1      1314 1.05928E-04-1.86482E-05-6.46727E-17
 -1      1315 1.06904E-04-2.22845E-05-6.35207E-17
 -1      1316 2.17101E-04-4.94290E-05-1.52927E-16
 -1      1317 1.04545E-04-1.26813E-05-6.73154E-17
 -1      1318 1.05250E-04-1.55369E-05-6.67869E-17
 -1      1319 2.13094E-04-3.48990E-05-1.62237E-16
 -1      1320 1.03564E-04-7.72359E-06-6.88197E-17
 -1      1321 1.04033E-04-1.01446E-05-6.87249E-17
 -1      1322 2.10121E-04-2.33259E-05-1.67591E-16
 -1      1323 1.03050E-04-3.41161E-06-6.91179E-17
 -1      1324 1.03265E-04-5.57453E-06-6.91179E-17
 -1      1325 2.08152E-04-1.36083E-05-1.69949E-16
 -1      1326 1.03011E-04 6.97785E-07-6.88875E-17
 -1      1327 1.02973E-04-1.41947E-06-6.89959E-17
 -1      1328 2.07256E-04-4.92951E-06-1.70315E-16
 -1      1329 1.03430E-04 5.02003E-06-6.79388E-17
 -1      1330 1.03151E-04 2.75014E-06-6.82505E-17
 -1      1331 2.07431E-04 3.56350E-06-1.69163E-16
 -1      1332 1.04268E-04 9.94347E-06-6.60144E-17
 -1      1333 1.03770E-04 7.33425E-06-6.66242E-17
 -1      1334 2.08617E-04 1.26663E-05-1.66046E-16
 -1      1335 1.05462E-04 1.57324E-05-6.27346E-17
 -1      1336 1.04770E-04 1.26601E-05-6.37375E-17
 -1      1337 2.10702E-04 2.30329E-05-1.60435E-16
 -1      1338 1.07051E-04 2.29872E-05-5.79099E-17
 -1      1339 1.06121E-04 1.91318E-05-5.95769E-17
 -1      1340 2.13619E-04 3.54717E-05-1.51951E-16
 -1      1341 1.09140E-04 3.21762E-05-5.04967E-17
 -1      1342 1.07860E-04 2.72785E-05-5.33292E-17
 -1      1343 2.17445E-04 5.09982E-05-1.39388E-16
 -1      1344 1.12313E-04 4.44037E-05-3.84621E-17
 -1      1345 1.10223E-04 3.77949E-05-4.36256E-17
 -1      1346 2.22583E-04 7.08888E-05-1.20238E-16
 -1      1347 1.19017E-04 6.31072E-05-1.84992E-17
 -1      1348 1.14403E-04 5.25587E-05-2.80673E-17
 -1      1349 2.30941E-04 9.81871E-05-9.08426E-17
 -1      1350 1.58498E-04 1.06166E-04 1.26581E-17
 -1      1351 1.37734E-04 8.17568E-05-6.89824E-18
 -1      1352 2.60864E-04 1.42222E-04-5.52808E-17
 -1      1353 3.37882E-04 2.11327E-04-3.74050E-18
 -1      1354 4.26575E-04-2.47043E-04-6.39002E-17
 -1      1355 5.83452E-04-3.14760E-04-1.40133E-16
 -1      1356 7.35488E-04-3.68102E-04-2.66605E-16
 -1      1357 8.84610E-04-4.10355E-04-4.39495E-16
 -1      1358 6.25791E-04-3.03901E-04-2.55086E-16
 -1      1359 1.03181E-03-4.44688E-04-6.56742E-16
 -1      1360 1.17812E-03-4.72360E-04-9.19390E-16
 -1      1361 9.30372E-04-3.90067E-04-6.14675E-16
 -1      1362 1.32450E-03-4.95252E-04-1.22691E-15
 -1      1363 1.47158E-03-5.14031E-04-1.57979E-15
 -1      1364 1.22838E-03-4.46227E-04-1.15188E-15
 -1      1365 1.61997E-03-5.29841E-04-1.97622E-15
 -1      1366 1.77011E-03-5.43294E-04-2.41692E-15
 -1      1367 1.52604E-03-4.83720E-04-1.86564E-15
 -1      1368 1.92242E-03-5.55225E-04-2.90104E-15
 -1      1369 2.07720E-03-5.66323E-04-3.42833E-15
 -1      1370 1.82769E-03-5.09970E-04-2.75371E-15
 -1      1371 2.23479E-03-5.77383E-04-3.99829E-15
 -1      1372 2.39539E-03-5.89200E-04-4.61065E-15
 -1      1373 2.13642E-03-5.31128E-04-3.81352E-15
 -1      1374 2.55921E-03-6.02697E-04-5.26566E-15
 -1      1375 2.72633E-03-6.18782E-04-5.96266E-15
 -1      1376 2.45442E-03-5.53490E-04-5.04231E-15
 -1      1377 2.89680E-03-6.38604E-04-6.70132E-15
 -1      1378 3.07047E-03-6.63151E-04-7.48082E-15
 -1      1379 2.78308E-03-5.84285E-04-6.43807E-15
 -1      1380 3.24714E-03-6.93781E-04-8.30046E-15
 -1      1381 3.42630E-03-7.31421E-04-9.16151E-15
 -1      1382 3.12276E-03-6.32064E-04-7.99679E-15
 -1      1383 3.60738E-03-7.77372E-04-1.00628E-14
 -1      1384 3.78942E-03-8.32147E-04-1.10047E-14
 -1      1385 3.47234E-03-7.06295E-04-9.71708E-15
 -1      1386 3.97140E-03-8.96339E-04-1.19873E-14
 -1      1387 4.15190E-03-9.69393E-04-1.30112E-14
 -1      1388 3.82853E-03-8.15341E-04-1.15987E-14
 -1      1389 4.32963E-03-1.05017E-03-1.40790E-14
 -1      1390 4.50301E-03-1.13617E-03-1.51898E-14
 -1      1391 4.18543E-03-9.61825E-04-1.36458E-14
 -1      1392 4.67092E-03-1.22374E-03-1.63433E-14
 -1      1393 4.83252E-03-1.30827E-03-1.75406E-14
 -1      1394 4.53481E-03-1.13536E-03-1.58624E-14
 -1      1395 4.98763E-03-1.38407E-03-1.87837E-14
 -1      1396 5.13698E-03-1.44589E-03-2.00738E-14
 -1      1397 4.86881E-03-1.30679E-03-1.82547E-14
 -1      1398 5.28180E-03-1.48877E-03-2.14098E-14
 -1      1399 5.42462E-03-1.50966E-03-2.27924E-14
 -1      1400 5.18523E-03-1.43257E-03-2.08303E-14
 -1      1401 5.56757E-03-1.50753E-03-2.42219E-14
 -1      1402 5.71355E-03-1.48369E-03-2.56979E-14
 -1      1403 5.49181E-03-1.47476E-03-2.35938E-14
 -1      1404 5.86432E-03-1.44182E-03-2.72193E-14
 -1      1405 6.02144E-03-1.38667E-03-2.87843E-14
 -1      1406 5.80329E-03-1.42542E-03-2.65444E-14
 -1      1407 6.18533E-03-1.32406E-03-3.03923E-14
 -1      1408 6.35570E-03-1.25923E-03-3.20425E-14
 -1      1409 6.13133E-03-1.31252E-03-2.96754E-14
 -1      1410 6.53175E-03-1.19691E-03-3.37331E-14
 -1      1411 6.71211E-03-1.14059E-03-3.54639E-14
 -1      1412 6.47771E-03-1.18075E-03-3.29754E-14
 -1      1413 6.89547E-03-1.09245E-03-3.72328E-14
 -1      1414 7.08030E-03-1.05384E-03-3.90405E-14
 -1      1415 6.83625E-03-1.06712E-03-3.64359E-14
 -1      1416 7.26545E-03-1.02482E-03-4.08863E-14
 -1      1417 7.44976E-03-1.00531E-03-4.27673E-14
 -1      1418 7.19845E-03-9.89931E-04-4.00505E-14
 -1      1419 7.63247E-03-9.94264E-04-4.46854E-14
 -1      1420 7.81292E-03-9.90976E-04-4.66395E-14
 -1      1421 7.55731E-03-9.51609E-04-4.38125E-14
 -1      1422 7.99076E-03-9.94166E-04-4.86257E-14
 -1      1423 8.16574E-03-1.00298E-03-5.06475E-14
 -1      1424 7.90854E-03-9.46113E-04-4.77150E-14
 -1      1425 8.33779E-03-1.01631E-03-5.27000E-14
 -1      1426 8.50692E-03-1.03338E-03-5.47805E-14
 -1      1427 8.25018E-03-9.64961E-04-5.17491E-14
 -1      1428 8.67323E-03-1.05341E-03-5.68932E-14
 -1      1429 8.83687E-03-1.07575E-03-5.90343E-14
 -1      1430 8.58189E-03-1.00034E-03-5.59086E-14
 -1      1431 8.99802E-03-1.09989E-03-6.12042E-14
 -1      1432 9.15689E-03-1.12534E-03-6.34057E-14
 -1      1433 8.90436E-03-1.04614E-03-6.01853E-14
 -1      1434 9.31367E-03-1.15180E-03-6.56349E-14
 -1      1435 9.46858E-03-1.17891E-03-6.78931E-14
 -1      1436 9.21873E-03-1.09803E-03-6.45788E-14
 -1      1437 9.62182E-03-1.20651E-03-7.01809E-14
 -1      1438 9.77356E-03-1.23434E-03-7.24934E-14
 -1      1439 9.52632E-03-1.15308E-03-6.90885E-14
 -1      1440 9.92399E-03-1.26233E-03-7.48324E-14
 -1      1441 1.00733E-02-1.29029E-03-7.71983E-14
 -1      1442 9.82840E-03-1.20940E-03-7.37076E-14
 -1      1443 1.02215E-02-1.31821E-03-7.95867E-14
 -1      1444 1.03689E-02-1.34598E-03-8.19969E-14
 -1      1445 1.01261E-02-1.26585E-03-7.84255E-14
 -1      1446 1.05155E-02-1.37358E-03-8.44279E-14
 -1      1447 1.06615E-02-1.40095E-03-8.68766E-14
 -1      1448 1.04205E-02-1.32178E-03-8.32353E-14
 -1      1449 1.08069E-02-1.42811E-03-8.93469E-14
 -1      1450 1.09518E-02-1.45502E-03-9.18369E-14
 -1      1451 1.07122E-02-1.37683E-03-8.81288E-14
 -1      1452 1.10963E-02-1.48170E-03-9.43460E-14
 -1      1453 1.12405E-02-1.50812E-03-9.68738E-14
 -1      1454 1.10021E-02-1.43087E-03-9.30989E-14
 -1      1455 1.13843E-02-1.53432E-03-9.94178E-14
 -1      1456 1.15280E-02-1.56029E-03-1.01978E-13
 -1      1457 1.12905E-02-1.48389E-03-9.81449E-14
 -1      1458 1.16714E-02-1.58605E-03-1.04555E-13
 -1      1459 1.18147E-02-1.61160E-03-1.07145E-13
 -1      1460 1.15779E-02-1.53594E-03-1.03257E-13
 -1      1461 1.19578E-02-1.63696E-03-1.09750E-13
 -1      1462 1.21008E-02-1.66215E-03-1.12371E-13
 -1      1463 1.18646E-02-1.58712E-03-1.08430E-13
 -1      1464 1.22437E-02-1.68718E-03-1.15004E-13
 -1      1465 1.23866E-02-1.71206E-03-1.17648E-13
 -1      1466 1.21508E-02-1.63755E-03-1.13662E-13
 -1      1467 1.25294E-02-1.73680E-03-1.20307E-13
 -1      1468 1.26722E-02-1.76142E-03-1.22978E-13
 -1      1469 1.24367E-02-1.68734E-03-1.18948E-13
 -1      1470 1.28149E-02-1.78594E-03-1.25661E-13
 -1      1471 1.29576E-02-1.81035E-03-1.28355E-13
 -1      1472 1.27224E-02-1.73660E-03-1.24283E-13
 -1      1473 1.31004E-02-1.83468E-03-1.31062E-13
 -1      1474 1.32431E-02-1.85893E-03-1.33779E-13
 -1      1475 1.30079E-02-1.78544E-03-1.29668E-13
 -1      1476 1.33858E-02-1.88311E-03-1.36504E-13
 -1      1477 1.35285E-02-1.90724E-03-1.39236E-13
 -1      1478 1.32935E-02-1.83395E-03-1.35092E-13
 -1      1479 1.36712E-02-1.93131E-03-1.41972E-13
 -1      1480 1.38139E-02-1.95534E-03-1.44711E-13
 -1      1481 1.35790E-02-1.88220E-03-1.40545E-13
 -1      1482 1.39567E-02-1.97934E-03-1.47456E-13
 -1      1483 1.40994E-02-2.00330E-03-1.50206E-13
 -1      1484 1.38645E-02-1.93026E-03-1.46020E-13
 -1      1485 1.42422E-02-2.02724E-03-1.52957E-13
 -1      1486 1.43850E-02-2.05117E-03-1.55705E-13
 -1      1487 1.41500E-02-1.97818E-03-1.51511E-13
 -1      1488 1.45278E-02-2.07508E-03-1.58454E-13
 -1      1489 1.46706E-02-2.09898E-03-1.61207E-13
 -1      1490 1.44356E-02-2.02602E-03-1.57010E-13
 -1      1491 1.48134E-02-2.12288E-03-1.63962E-13
 -1      1492 1.49562E-02-2.14679E-03-1.66717E-13
 -1      1493 1.47212E-02-2.07383E-03-1.62515E-13
 -1      1494 1.50991E-02-2.17069E-03-1.69479E-13
 -1      1495 1.52419E-02-2.19461E-03-1.72249E-13
 -1      1496 1.50069E-02-2.12163E-03-1.68031E-13
 -1      1497 1.54466E-02-2.22499E-03-1.76268E-13
 -1      1498 1.53545E-02-2.17591E-03-1.74809E-13
 -1      1499 6.52450E-04 3.49837E-04-1.15034E-16
 -1      1500 4.98549E-04 2.87898E-04-3.72423E-17
 -1      1501 4.52291E-04 2.49863E-04-7.56909E-17
 -1      1502 9.48597E-04 4.37865E-04-4.01060E-16
 -1      1503 8.01951E-04 3.98156E-04-2.36397E-16
 -1      1504 7.60536E-04 3.61801E-04-2.82679E-16
 -1      1505 1.23815E-03 4.97268E-04-8.60436E-16
 -1      1506 1.09362E-03 4.70300E-04-6.08807E-16
 -1      1507 1.05828E-03 4.35683E-04-6.61418E-16
 -1      1508 1.52774E-03 5.39236E-04-1.49430E-15
 -1      1509 1.38259E-03 5.19966E-04-1.15545E-15
 -1      1510 1.35161E-03 4.86190E-04-1.21177E-15
 -1      1511 1.82110E-03 5.70895E-04-2.30187E-15
 -1      1512 1.67375E-03 5.56008E-04-1.87628E-15
 -1      1513 1.64533E-03 5.22391E-04-1.93435E-15
 -1      1514 2.12015E-03 5.97820E-04-3.28233E-15
 -1      1515 1.96981E-03 5.84648E-04-2.77045E-15
 -1      1516 1.94241E-03 5.50697E-04-2.82874E-15
 -1      1517 2.42562E-03 6.24983E-04-4.43290E-15
 -1      1518 2.27206E-03 6.11103E-04-3.83637E-15
 -1      1519 2.24435E-03 5.76477E-04-3.89398E-15
 -1      1520 2.73705E-03 6.56991E-04-5.75392E-15
 -1      1521 2.58064E-03 6.40162E-04-5.07211E-15
 -1      1522 2.55156E-03 6.04655E-04-5.12843E-15
 -1      1523 3.05279E-03 6.97829E-04-7.24532E-15
 -1      1524 2.89452E-03 6.76180E-04-6.47834E-15
 -1      1525 2.86343E-03 6.39741E-04-6.53168E-15
 -1      1526 3.36985E-03 7.50111E-04-8.90724E-15
 -1      1527 3.21139E-03 7.22571E-04-8.05534E-15
 -1      1528 3.17822E-03 6.85357E-04-8.10415E-15
 -1      1529 3.68409E-03 8.13869E-04-1.07357E-14
 -1      1530 3.52763E-03 7.80818E-04-9.80033E-15
 -1      1531 3.49315E-03 7.43251E-04-9.84366E-15
 -1      1532 3.99080E-03 8.85122E-04-1.27329E-14
 -1      1533 3.83870E-03 8.49099E-04-1.17131E-14
 -1      1534 3.80461E-03 8.11892E-04-1.17492E-14
 -1      1535 4.28595E-03 9.54967E-04-1.49016E-14
 -1      1536 4.14004E-03 9.21005E-04-1.37953E-14
 -1      1537 4.10887E-03 8.85082E-04-1.38247E-14
 -1      1538 4.56781E-03 1.01027E-03-1.72478E-14
 -1      1539 4.42855E-03 9.85301E-04-1.60524E-14
 -1      1540 4.40321E-03 9.51561E-04-1.60735E-14
 -1      1541 4.83835E-03 1.03675E-03-1.97742E-14
 -1      1542 4.70422E-03 1.02778E-03-1.84885E-14
 -1      1543 4.68734E-03 9.96741E-04-1.85011E-14
 -1      1544 5.10332E-03 1.02387E-03-2.24759E-14
 -1      1545 4.97104E-03 1.03543E-03-2.11025E-14
 -1      1546 4.96419E-03 1.00693E-03-2.11061E-14
 -1      1547 5.37064E-03 9.69202E-04-2.53555E-14
 -1      1548 5.23615E-03 1.00139E-03-2.38937E-14
 -1      1549 5.23942E-03 9.74581E-04-2.38902E-14
 -1      1550 5.64758E-03 8.79519E-04-2.84149E-14
 -1      1551 5.50752E-03 9.27933E-04-2.68629E-14
 -1      1552 5.51947E-03 9.01621E-04-2.68525E-14
 -1      1553 5.93829E-03 7.67943E-04-3.16483E-14
 -1      1554 5.79107E-03 8.25525E-04-3.00102E-14
 -1      1555 5.80919E-03 7.98637E-04-2.99914E-14
 -1      1556 6.24303E-03 6.49016E-04-3.50410E-14
 -1      1557 6.08901E-03 7.08603E-04-3.33255E-14
 -1      1558 6.11031E-03 6.80500E-04-3.32986E-14
 -1      1559 6.55894E-03 5.34487E-04-3.85861E-14
 -1      1560 6.39985E-03 5.90699E-04-3.67944E-14
 -1      1561 6.42159E-03 5.61229E-04-3.67631E-14
 -1      1562 6.88163E-03 4.31424E-04-4.22734E-14
 -1      1563 6.71973E-03 4.81315E-04-4.04127E-14
 -1      1564 6.73989E-03 4.50672E-04-4.03743E-14
 -1      1565 7.20669E-03 3.42463E-04-4.60989E-14
 -1      1566 7.04413E-03 3.85187E-04-4.41710E-14
 -1      1567 7.06151E-03 3.53734E-04-4.41262E-14
 -1      1568 7.53060E-03 2.67131E-04-5.00484E-14
 -1      1569 7.36899E-03 3.03219E-04-4.80583E-14
 -1      1570 7.38318E-03 2.71334E-04-4.80061E-14
 -1      1571 7.85099E-03 2.03298E-04-5.41167E-14
 -1      1572 7.69135E-03 2.33947E-04-5.20669E-14
 -1      1573 7.70249E-03 2.01952E-04-5.20086E-14
 -1      1574 8.16662E-03 1.48273E-04-5.82981E-14
 -1      1575 8.00946E-03 1.74853E-04-5.61939E-14
 -1      1576 8.01797E-03 1.42981E-04-5.61283E-14
 -1      1577 8.47710E-03 9.94603E-05-6.25870E-14
 -1      1578 8.32251E-03 1.23235E-04-6.04298E-14
 -1      1579 8.32896E-03 9.16300E-05-6.03588E-14
 -1      1580 8.78260E-03 5.46695E-05-6.69852E-14
 -1      1581 8.63045E-03 7.66760E-05-6.47724E-14
 -1      1582 8.63539E-03 4.54104E-05-6.46967E-14
 -1      1583 9.08365E-03 1.22056E-05-7.14830E-14
 -1      1584 8.93365E-03 3.32304E-05-6.92222E-14
 -1      1585 8.93756E-03 2.32468E-06-6.91386E-14
 -1      1586 9.38089E-03-2.91584E-05-7.60717E-14
 -1      1587 9.23270E-03-8.55577E-06-7.37663E-14
 -1      1588 9.23598E-03-3.91156E-05-7.36773E-14
 -1      1589 9.67501E-03-7.02568E-05-8.07432E-14
 -1      1590 9.52830E-03-4.97029E-05-7.83975E-14
 -1      1591 9.53123E-03-7.99503E-05-7.83036E-14
 -1      1592 9.96667E-03-1.11618E-04-8.54845E-14
 -1      1593 9.82111E-03-9.08821E-05-8.31054E-14
 -1      1594 9.82391E-03-1.20860E-04-8.30088E-14
 -1      1595 1.02564E-02-1.53547E-04-9.03000E-14
 -1      1596 1.01117E-02-1.32500E-04-8.78823E-14
 -1      1597 1.01145E-02-1.62253E-04-8.77849E-14
 -1      1598 1.05447E-02-1.96188E-04-9.51927E-14
 -1      1599 1.04007E-02-1.74774E-04-9.27363E-14
 -1      1600 1.04036E-02-2.04345E-04-9.26383E-14
 -1      1601 1.08320E-02-2.39582E-04-1.00178E-13
 -1      1602 1.06885E-02-2.17791E-04-9.76735E-14
 -1      1603 1.06915E-02-2.47218E-04-9.75751E-14
 -1      1604 1.11186E-02-2.83702E-04-1.05256E-13
 -1      1605 1.09754E-02-2.61554E-04-1.02706E-13
 -1      1606 1.09786E-02-2.90870E-04-1.02601E-13
 -1      1607 1.14046E-02-3.28485E-04-1.10404E-13
 -1      1608 1.12617E-02-3.06015E-04-1.07821E-13
 -1      1609 1.12650E-02-3.35248E-04-1.07708E-13
 -1      1610 1.16904E-02-3.73847E-04-1.15616E-13
 -1      1611 1.15475E-02-3.51099E-04-1.13003E-13
 -1      1612 1.15511E-02-3.80270E-04-1.12883E-13
 -1      1613 1.19759E-02-4.19700E-04-1.20903E-13
 -1      1614 1.18332E-02-3.96718E-04-1.18252E-13
 -1      1615 1.18368E-02-4.25846E-04-1.18130E-13
 -1      1616 1.22614E-02-4.65957E-04-1.26244E-13
 -1      1617 1.21187E-02-4.42783E-04-1.23566E-13
 -1      1618 1.21224E-02-4.71881E-04-1.23437E-13
 -1      1619 1.25468E-02-5.12538E-04-1.31635E-13
 -1      1620 1.24041E-02-4.89212E-04-1.28935E-13
 -1      1621 1.24080E-02-5.18290E-04-1.28802E-13
 -1      1622 1.28322E-02-5.59369E-04-1.37065E-13
 -1      1623 1.26895E-02-5.35926E-04-1.34345E-13
 -1      1624 1.26934E-02-5.64993E-04-1.34208E-13
 -1      1625 1.31177E-02-6.06389E-04-1.42529E-13
 -1      1626 1.29750E-02-5.82860E-04-1.39794E-13
 -1      1627 1.29789E-02-6.11921E-04-1.39651E-13
 -1      1628 1.34032E-02-6.53542E-04-1.48010E-13
 -1      1629 1.32604E-02-6.29952E-04-1.45268E-13
 -1      1630 1.32645E-02-6.59012E-04-1.45118E-13
 -1      1631 1.36887E-02-7.00780E-04-1.53508E-13
 -1      1632 1.35460E-02-6.77153E-04-1.50756E-13
 -1      1633 1.35500E-02-7.06214E-04-1.50604E-13
 -1      1634 1.39744E-02-7.48059E-04-1.59034E-13
 -1      1635 1.38315E-02-7.24417E-04-1.56267E-13
 -1      1636 1.38356E-02-7.53481E-04-1.56112E-13
 -1      1637 1.42600E-02-7.95344E-04-1.64567E-13
 -1      1638 1.41172E-02-7.71703E-04-1.61801E-13
 -1      1639 1.41213E-02-8.00772E-04-1.61639E-13
 -1      1640 1.45457E-02-8.42603E-04-1.70101E-13
 -1      1641 1.44029E-02-8.18978E-04-1.67335E-13
 -1      1642 1.44069E-02-8.48052E-04-1.67173E-13
 -1      1643 1.47006E-02-8.78104E-04-1.73020E-13
 -1      1644 1.47706E-02-9.85459E-04-1.73581E-13
 -1      1645 1.47474E-02-9.43307E-04-1.73449E-13
 -1      1646 1.48170E-02-1.06979E-03-1.73830E-13
 -1      1647 1.47938E-02-1.02762E-03-1.73710E-13
 -1      1648 1.46585E-02-9.86089E-04-1.71240E-13
 -1      1649 1.48633E-02-1.15415E-03-1.74066E-13
 -1      1650 1.48401E-02-1.11197E-03-1.73948E-13
 -1      1651 1.47048E-02-1.07042E-03-1.71486E-13
 -1      1652 1.49097E-02-1.23856E-03-1.74297E-13
 -1      1653 1.48865E-02-1.19635E-03-1.74183E-13
 -1      1654 1.47512E-02-1.15479E-03-1.71722E-13
 -1      1655 1.49554E-02-1.32157E-03-1.74518E-13
 -1      1656 1.49326E-02-1.28006E-03-1.74409E-13
 -1      1657 1.47972E-02-1.23847E-03-1.71950E-13
 -1      1658 1.50019E-02-1.40604E-03-1.74734E-13
 -1      1659 1.49787E-02-1.36380E-03-1.74627E-13
 -1      1660 1.48433E-02-1.32218E-03-1.72171E-13
 -1      1661 1.50486E-02-1.49053E-03-1.74935E-13
 -1      1662 1.50252E-02-1.44828E-03-1.74835E-13
 -1      1663 1.48899E-02-1.40662E-03-1.72380E-13
 -1      1664 1.50953E-02-1.57503E-03-1.75128E-13
 -1      1665 1.50719E-02-1.53278E-03-1.75032E-13
 -1      1666 1.49365E-02-1.49108E-03-1.72582E-13
 -1      1667 1.51421E-02-1.65952E-03-1.75305E-13
 -1      1668 1.51187E-02-1.61727E-03-1.75218E-13
 -1      1669 1.49833E-02-1.57555E-03-1.72775E-13
 -1      1670 1.51891E-02-1.74400E-03-1.75482E-13
 -1      1671 1.51656E-02-1.70176E-03-1.75393E-13
 -1      1672 1.50301E-02-1.66000E-03-1.72956E-13
 -1      1673 1.52353E-02-1.82703E-03-1.75661E-13
 -1      1674 1.52122E-02-1.78552E-03-1.75574E-13
 -1      1675 1.50767E-02-1.74374E-03-1.73135E-13
 -1      1676 1.52823E-02-1.91145E-03-1.75844E-13
 -1      1677 1.52588E-02-1.86925E-03-1.75750E-13
 -1      1678 1.51233E-02-1.82744E-03-1.73316E-13
 -1      1679 1.53295E-02-1.99584E-03-1.76020E-13
 -1      1680 1.53059E-02-1.95365E-03-1.75934E-13
 -1      1681 1.51704E-02-1.91184E-03-1.73495E-13
 -1      1682 1.53766E-02-2.08018E-03-1.76199E-13
 -1      1683 1.53530E-02-2.03802E-03-1.76110E-13
 -1      1684 1.52175E-02-1.99621E-03-1.73672E-13
 -1      1685 1.53773E-02-2.14913E-03-1.75553E-13
 -1      1686 1.53538E-02-2.10697E-03-1.75464E-13
 -1      1687 1.52183E-02-2.06517E-03-1.73022E-13
 -1      1688 1.51726E-02-2.11875E-03-1.71541E-13
 -1      1689 7.46682E-03-2.48828E-04-3.06135E-14
 -1      1690 7.50680E-03-2.93056E-04-3.06966E-14
 -1      1691 7.30237E-03-1.39326E-04-3.01698E-14
 -1      1692 7.39033E-03-1.90377E-04-3.03866E-14
 -1      1693 7.03830E-03-1.06837E-05-2.95151E-14
 -1      1694 7.17098E-03-7.58419E-05-2.98732E-14
 -1      1695 6.69498E-03 1.55475E-04-2.85100E-14
 -1      1696 6.86185E-03 7.51831E-05-2.90052E-14
 -1      1697 6.32705E-03 3.33608E-04-2.72873E-14
 -1      1698 6.49986E-03 2.53828E-04-2.78503E-14
 -1      1699 5.94207E-03 4.92286E-04-2.59777E-14
 -1      1700 6.11686E-03 4.20686E-04-2.66050E-14
 -1      1701 5.58119E-03 6.08403E-04-2.45871E-14
 -1      1702 5.74678E-03 5.61921E-04-2.52190E-14
 -1      1703 5.20145E-03 6.64929E-04-2.31139E-14
 -1      1704 5.37806E-03 6.48327E-04-2.38086E-14
 -1      1705 4.83028E-03 6.40559E-04-2.17054E-14
 -1      1706 4.99870E-03 6.60356E-04-2.23358E-14
 -1      1707 4.46491E-03 5.50460E-04-2.04257E-14
 -1      1708 4.63348E-03 5.99606E-04-2.10003E-14
 -1      1709 4.10489E-03 4.01963E-04-1.91798E-14
 -1      1710 4.27945E-03 4.75327E-04-1.97074E-14
 -1      1711 3.75297E-03 2.56900E-04-1.83037E-14
 -1      1712 3.92418E-03 3.32489E-04-1.87393E-14
 -1      1713 4.09527E-03 3.43318E-04-1.86793E-14
 -1      1714 3.38883E-03 9.62887E-05-1.74974E-14
 -1      1715 3.52969E-03 1.63094E-04-1.78137E-14
 -1      1716 3.14138E-03-3.58367E-05-1.69489E-14
 -1      1717 3.24621E-03 2.00091E-05-1.71624E-14
 -1      1718 2.99518E-03-1.40804E-04-1.66891E-14
 -1      1719 3.04759E-03-9.31000E-05-1.67914E-14
 -1      1720 2.97904E-03-2.36756E-04-1.66506E-14
 -1      1721 2.97038E-03-1.93191E-04-1.66374E-14
 -1      1722 3.09929E-03-3.45362E-04-1.68476E-14
 -1      1723 3.02540E-03-2.91545E-04-1.67097E-14
 -1      1724 3.33861E-03-4.86413E-04-1.73499E-14
 -1      1725 3.21545E-03-4.19678E-04-1.71014E-14
 -1      1726 3.69973E-03-6.45867E-04-1.80126E-14
 -1      1727 3.52705E-03-5.58292E-04-1.76255E-14
 -1      1728 4.11118E-03-8.54632E-04-1.90478E-14
 -1      1729 3.92088E-03-7.57887E-04-1.85487E-14
 -1      1730 4.55503E-03-1.06677E-03-2.04032E-14
 -1      1731 4.34630E-03-9.73532E-04-1.97565E-14
 -1      1732 4.98954E-03-1.21120E-03-2.19285E-14
 -1      1733 4.79296E-03-1.15612E-03-2.12257E-14
 -1      1734 5.39934E-03-1.24935E-03-2.34892E-14
 -1      1735 5.21152E-03-1.24342E-03-2.27775E-14
 -1      1736 5.79452E-03-1.19330E-03-2.50025E-14
 -1      1737 5.61390E-03-1.23006E-03-2.43128E-14
 -1      1738 6.18936E-03-1.06463E-03-2.64595E-14
 -1      1739 6.00688E-03-1.13179E-03-2.57982E-14
 -1      1740 6.56816E-03-8.89576E-04-2.78487E-14
 -1      1741 6.39100E-03-9.72245E-04-2.72529E-14
 -1      1742 6.93097E-03-7.02536E-04-2.91011E-14
 -1      1743 6.76544E-03-7.84194E-04-2.85865E-14
 -1      1744 7.24544E-03-5.54879E-04-2.99404E-14
 -1      1745 7.11562E-03-6.21802E-04-2.95658E-14
 -1      1746 7.44371E-03-4.42160E-04-3.04198E-14
 -1      1747 7.36872E-03-4.93436E-04-3.02036E-14
 -1      1748 7.51842E-03-3.43519E-04-3.07055E-14
 -1      1749 7.49900E-03-3.85675E-04-3.06369E-14
 -1      1750 6.53831E-03 1.56988E-04-2.86254E-14
 -1      1751 6.90555E-03-2.64417E-05-2.98164E-14
 -1      1752 1.47046E-02-9.07183E-04-1.72860E-13
 -1      1753 1.45925E-02-9.07805E-04-1.70526E-13
 -1      1754 7.43059E-03-2.56234E-04-3.11788E-14
 -1      1755 7.21660E-03-1.61271E-04-3.06428E-14
 -1      1756 7.52229E-03-3.24526E-04-3.14210E-14
 -1      1757 6.15350E-03 3.53786E-04-2.72639E-14
 -1      1758 5.79043E-03 5.28203E-04-2.58052E-14
 -1      1759 5.44373E-03 6.49888E-04-2.42580E-14
 -1      1760 5.10701E-03 6.88771E-04-2.26992E-14
 -1      1761 4.76731E-03 6.35769E-04-2.12233E-14
 -1      1762 4.42374E-03 5.06358E-04-1.98130E-14
 -1      1763 3.34206E-03 7.28603E-06-1.69615E-14
 -1      1764 3.09790E-03-1.00306E-04-1.64831E-14
 -1      1765 2.97428E-03-1.75555E-04-1.62807E-14
 -1      1766 2.99628E-03-2.43162E-04-1.62870E-14
 -1      1767 3.16580E-03-3.32769E-04-1.65898E-14
 -1      1768 3.47351E-03-4.62630E-04-1.71035E-14
 -1      1769 3.87325E-03-6.45681E-04-1.78863E-14
 -1      1770 4.30480E-03-8.86922E-04-1.91020E-14
 -1      1771 4.72983E-03-1.11454E-03-2.06104E-14
 -1      1772 5.12055E-03-1.25162E-03-2.22701E-14
 -1      1773 5.49112E-03-1.26529E-03-2.39428E-14
 -1      1774 5.85626E-03-1.17214E-03-2.55709E-14
 -1      1775 6.23084E-03-1.00254E-03-2.71763E-14
 -1      1776 6.60982E-03-7.94423E-04-2.87322E-14
 -1      1777 6.98253E-03-6.08950E-04-2.99654E-14
 -1      1778 7.29112E-03-4.80069E-04-3.07163E-14
 -1      1779 7.47517E-03-3.89802E-04-3.12090E-14
 -1      1780 2.89903E-04-1.65656E-04-6.04985E-17
 -1      1781 3.70501E-03 1.71294E-04-1.77666E-14
 -1      1782 3.36665E-04-9.63978E-05-2.18860E-16
 -1      1783 3.42448E-04-1.12946E-04-2.04020E-16
 -1      1784 3.49678E-04-1.32678E-04-1.85819E-16
 -1      1785 3.59974E-04-1.55837E-04-1.60719E-16
 -1      1786 4.67803E-04-1.61954E-04-2.95526E-16
 -1      1787 3.21422E-04-4.88086E-05-2.50600E-16
 -1      1788 3.24384E-04-5.84500E-05-2.45463E-16
 -1      1789 3.16755E-04-3.18897E-05-2.57295E-16
 -1      1790 3.18869E-04-3.99160E-05-2.54408E-16
 -1      1791 4.30221E-04-5.95109E-05-3.72857E-16
 -1      1792 3.13903E-04-1.74871E-05-2.59815E-16
 -1      1793 3.15104E-04-2.44397E-05-2.58948E-16
 -1      1794 4.24059E-04-3.78908E-05-3.80474E-16
 -1      1795 3.12880E-04-4.27455E-06-2.59910E-16
 -1      1796 3.13165E-04-1.07947E-05-2.60236E-16
 -1      1797 4.20586E-04-1.90410E-05-3.83523E-16
 -1      1798 3.13644E-04 8.96658E-06-2.57322E-16
 -1      1799 3.13044E-04 2.28462E-06-2.58962E-16
 -1      1800 4.19794E-04-1.29849E-06-3.82683E-16
 -1      1801 3.16080E-04 2.33727E-05-2.51806E-16
 -1      1802 3.14660E-04 1.59726E-05-2.55045E-16
 -1      1803 4.21582E-04 1.68720E-05-3.77777E-16
 -1      1804 3.19966E-04 3.97273E-05-2.42604E-16
 -1      1805 3.17839E-04 3.12361E-05-2.47822E-16
 -1      1806 4.25717E-04 3.67261E-05-3.68846E-16
 -1      1807 3.25377E-04 5.97278E-05-2.28943E-16
 -1      1808 3.22471E-04 4.92656E-05-2.36668E-16
 -1      1809 4.32016E-04 5.97846E-05-3.54805E-16
 -1      1810 3.32503E-04 8.45822E-05-2.08411E-16
 -1      1811 3.28673E-04 7.15052E-05-2.19998E-16
 -1      1812 4.40569E-04 8.78039E-05-3.33745E-16
 -1      1813 3.42491E-04 1.16699E-04-1.77172E-16
 -1      1814 3.36959E-04 9.96593E-05-1.94696E-16
 -1      1815 4.51886E-04 1.22634E-04-3.02370E-16
 -1      1816 3.59866E-04 1.61184E-04-1.29603E-16
 -1      1817 3.49802E-04 1.37184E-04-1.56437E-16
 -1      1818 4.68346E-04 1.67670E-04-2.56048E-16
 -1      1819 4.15620E-04 2.17648E-04-9.66431E-17
 -1      1820 3.86107E-04 1.86254E-04-1.18368E-16
 -1      1821 5.07004E-04 2.21192E-04-2.14442E-16
 -1      1822 5.70291E-04 2.79837E-04-1.81075E-16
 -1      1823 3.47598E-04-1.75607E-04-1.12933E-16
 -1      1824 8.74747E-04 3.71812E-04-4.78906E-16
 -1      1825 7.23274E-04 3.30255E-04-3.09201E-16
 -1      1826 6.89220E-04 2.99527E-04-3.30411E-16
 -1      1827 3.62633E-03 8.70952E-05-1.71245E-14
 -1      1828 3.83388E-03 1.82725E-04-1.75922E-14
 -1      1829 4.70077E-04-2.14294E-04-2.07503E-16
 -1      1830 8.29373E-04-3.34652E-04-5.66848E-16
 -1      1831 9.80659E-04-3.68669E-04-7.98000E-16
 -1      1832 1.13038E-03-3.96511E-04-1.07241E-15
 -1      1833 1.27997E-03-4.18955E-04-1.39048E-15
 -1      1834 1.03288E-03-3.46522E-04-9.89091E-16
 -1      1835 1.42936E-03-4.37488E-04-1.75180E-15
 -1      1836 1.57932E-03-4.52566E-04-2.15682E-15
 -1      1837 1.33183E-03-3.91300E-04-1.63557E-15
 -1      1838 1.73003E-03-4.65308E-04-2.60455E-15
 -1      1839 1.88199E-03-4.76200E-04-3.09491E-15
 -1      1840 1.63115E-03-4.21232E-04-2.45317E-15
 -1      1841 2.03535E-03-4.86216E-04-3.62716E-15
 -1      1842 2.19048E-03-4.95937E-04-4.20170E-15
 -1      1843 1.93316E-03-4.42525E-04-3.43997E-15
 -1      1844 2.34752E-03-5.06370E-04-4.81829E-15
 -1      1845 2.50671E-03-5.18234E-04-5.47590E-15
 -1      1846 2.23989E-03-4.61159E-04-4.59372E-15
 -1      1847 2.66821E-03-5.32684E-04-6.17465E-15
 -1      1848 2.83206E-03-5.50619E-04-6.91431E-15
 -1      1849 2.55313E-03-4.83683E-04-5.91201E-15
 -1      1850 2.99856E-03-5.73355E-04-7.69399E-15
 -1      1851 3.16734E-03-6.01983E-04-8.51332E-15
 -1      1852 2.87459E-03-5.17809E-04-7.39187E-15
 -1      1853 3.33900E-03-6.37822E-04-9.37348E-15
 -1      1854 3.51248E-03-6.82020E-04-1.02732E-14
 -1      1855 3.20597E-03-5.72651E-04-9.03178E-15
 -1      1856 3.68878E-03-7.35455E-04-1.12127E-14
 -1      1857 3.86589E-03-7.98871E-04-1.21931E-14
 -1      1858 3.54873E-03-6.58106E-04-1.08293E-14
 -1      1859 4.04505E-03-8.71927E-04-1.32149E-14
 -1      1860 4.22338E-03-9.53942E-04-1.42787E-14
 -1      1861 3.90298E-03-7.82334E-04-1.27880E-14
 -1      1862 4.40184E-03-1.04253E-03-1.53842E-14
 -1      1863 4.57750E-03-1.13395E-03-1.65342E-14
 -1      1864 4.26541E-03-9.46104E-04-1.49098E-14
 -1      1865 4.75041E-03-1.22331E-03-1.77285E-14
 -1      1866 4.91962E-03-1.30434E-03-1.89673E-14
 -1      1867 4.62744E-03-1.13274E-03-1.72039E-14
 -1      1868 5.08383E-03-1.37113E-03-2.02537E-14
 -1      1869 5.24635E-03-1.41722E-03-2.15869E-14
 -1      1870 4.97776E-03-1.30170E-03-1.96790E-14
 -1      1871 5.40494E-03-1.43913E-03-2.29685E-14
 -1      1872 5.56611E-03-1.43552E-03-2.43966E-14
 -1      1873 5.31296E-03-1.39863E-03-2.23427E-14
 -1      1874 5.72749E-03-1.40785E-03-2.58709E-14
 -1      1875 5.89408E-03-1.36102E-03-2.73919E-14
 -1      1876 5.64481E-03-1.38921E-03-2.51980E-14
 -1      1877 6.06413E-03-1.30033E-03-2.89580E-14
 -1      1878 6.23835E-03-1.23286E-03-3.05667E-14
 -1      1879 5.98914E-03-1.28861E-03-2.82406E-14
 -1      1880 6.41619E-03-1.16428E-03-3.22179E-14
 -1      1881 6.59529E-03-1.09950E-03-3.39099E-14
 -1      1882 6.34890E-03-1.14806E-03-3.14614E-14
 -1      1883 6.77628E-03-1.04210E-03-3.56398E-14
 -1      1884 6.95608E-03-9.93884E-04-3.74090E-14
 -1      1885 6.71472E-03-1.01717E-03-3.48450E-14
 -1      1886 7.13589E-03-9.56047E-04-3.92166E-14
 -1      1887 7.31331E-03-9.28340E-04-4.10608E-14
 -1      1888 7.07599E-03-9.22603E-04-3.83847E-14
 -1      1889 7.48946E-03-9.10371E-04-4.29414E-14
 -1      1890 7.66295E-03-9.01131E-04-4.48567E-14
 -1      1891 7.42717E-03-8.70100E-04-4.20721E-14
 -1      1892 7.83449E-03-8.99531E-04-4.68060E-14
 -1      1893 8.00349E-03-9.04516E-04-4.87887E-14
 -1      1894 7.76727E-03-8.54236E-04-4.59002E-14
 -1      1895 8.17031E-03-9.14900E-04-5.08036E-14
 -1      1896 8.33486E-03-9.29816E-04-5.28499E-14
 -1      1897 8.09733E-03-8.66156E-04-4.98622E-14
 -1      1898 8.49726E-03-9.48267E-04-5.49268E-14
 -1      1899 8.65770E-03-9.69609E-04-5.70327E-14
 -1      1900 8.41886E-03-8.97353E-04-5.39491E-14
 -1      1901 8.81617E-03-9.93111E-04-5.91705E-14
 -1      1902 8.97298E-03-1.01831E-03-6.13351E-14
 -1      1903 8.73324E-03-9.40994E-04-5.81577E-14
 -1      1904 9.12807E-03-1.04472E-03-6.35278E-14
 -1      1905 9.28179E-03-1.07202E-03-6.57502E-14
 -1      1906 9.04166E-03-9.92089E-04-6.24813E-14
 -1      1907 9.43407E-03-1.09991E-03-6.80011E-14
 -1      1908 9.58523E-03-1.12816E-03-7.02815E-14
 -1      1909 9.34514E-03-1.04721E-03-6.69203E-14
 -1      1910 9.73522E-03-1.15661E-03-7.25850E-14
 -1      1911 9.88430E-03-1.18509E-03-7.49141E-14
 -1      1912 9.64456E-03-1.10412E-03-7.14673E-14
 -1      1913 1.00325E-02-1.21354E-03-7.72694E-14
 -1      1914 1.01799E-02-1.24184E-03-7.96476E-14
 -1      1915 9.94068E-03-1.16140E-03-7.61183E-14
 -1      1916 1.03266E-02-1.26997E-03-8.20502E-14
 -1      1917 1.04728E-02-1.29786E-03-8.44716E-14
 -1      1918 1.02342E-02-1.21825E-03-8.08681E-14
 -1      1919 1.06184E-02-1.32550E-03-8.69124E-14
 -1      1920 1.07636E-02-1.35287E-03-8.93750E-14
 -1      1921 1.05256E-02-1.27422E-03-8.57028E-14
 -1      1922 1.09084E-02-1.37998E-03-9.18563E-14
 -1      1923 1.10529E-02-1.40681E-03-9.43562E-14
 -1      1924 1.08154E-02-1.32910E-03-9.06183E-14
 -1      1925 1.11970E-02-1.43339E-03-9.68742E-14
 -1      1926 1.13409E-02-1.45969E-03-9.94090E-14
 -1      1927 1.11040E-02-1.38287E-03-9.56080E-14
 -1      1928 1.14846E-02-1.48576E-03-1.01963E-13
 -1      1929 1.16282E-02-1.51160E-03-1.04531E-13
 -1      1930 1.13916E-02-1.43556E-03-1.00671E-13
 -1      1931 1.17715E-02-1.53722E-03-1.07112E-13
 -1      1932 1.19148E-02-1.56263E-03-1.09712E-13
 -1      1933 1.16786E-02-1.48728E-03-1.05799E-13
 -1      1934 1.20579E-02-1.58786E-03-1.12324E-13
 -1      1935 1.22010E-02-1.61292E-03-1.14952E-13
 -1      1936 1.19651E-02-1.53815E-03-1.10988E-13
 -1      1937 1.23440E-02-1.63783E-03-1.17592E-13
 -1      1938 1.24869E-02-1.66259E-03-1.20244E-13
 -1      1939 1.22513E-02-1.58829E-03-1.16239E-13
 -1      1940 1.26298E-02-1.68723E-03-1.22911E-13
 -1      1941 1.27726E-02-1.71175E-03-1.25588E-13
 -1      1942 1.25372E-02-1.63783E-03-1.21540E-13
 -1      1943 1.29155E-02-1.73618E-03-1.28276E-13
 -1      1944 1.30583E-02-1.76051E-03-1.30975E-13
 -1      1945 1.28230E-02-1.68689E-03-1.26889E-13
 -1      1946 1.32011E-02-1.78476E-03-1.33684E-13
 -1      1947 1.33439E-02-1.80894E-03-1.36401E-13
 -1      1948 1.31087E-02-1.73556E-03-1.32280E-13
 -1      1949 1.34867E-02-1.83307E-03-1.39124E-13
 -1      1950 1.36295E-02-1.85714E-03-1.41851E-13
 -1      1951 1.33944E-02-1.78392E-03-1.37706E-13
 -1      1952 1.37722E-02-1.88116E-03-1.44589E-13
 -1      1953 1.39150E-02-1.90515E-03-1.47328E-13
 -1      1954 1.36800E-02-1.83206E-03-1.43159E-13
 -1      1955 1.40578E-02-1.92911E-03-1.50069E-13
 -1      1956 1.42006E-02-1.95305E-03-1.52817E-13
 -1      1957 1.39656E-02-1.88004E-03-1.48634E-13
 -1      1958 1.43434E-02-1.97697E-03-1.55567E-13
 -1      1959 1.44863E-02-2.00087E-03-1.58316E-13
 -1      1960 1.42512E-02-1.92791E-03-1.54120E-13
 -1      1961 1.46291E-02-2.02477E-03-1.61068E-13
 -1      1962 1.47719E-02-2.04866E-03-1.63825E-13
 -1      1963 1.45369E-02-1.97571E-03-1.59622E-13
 -1      1964 1.49008E-02-2.07175E-03-1.66298E-13
 -1      1965 1.50437E-02-2.09565E-03-1.69058E-13
 -1      1966 1.50665E-02-2.06887E-03-1.69800E-13
 -1      1967 1.48086E-02-2.02269E-03-1.64847E-13
 -1      1968 1.17225E-03 4.33834E-04-9.44218E-16
 -1      1969 1.02385E-03 4.05798E-04-6.90095E-16
 -1      1970 9.90363E-04 3.75931E-04-7.13757E-16
 -1      1971 1.46730E-03 4.76941E-04-1.58012E-15
 -1      1972 1.31971E-03 4.57298E-04-1.24076E-15
 -1      1973 1.28769E-03 4.28349E-04-1.26445E-15
 -1      1974 1.76347E-03 5.08600E-04-2.38679E-15
 -1      1975 1.61503E-03 4.93869E-04-1.96216E-15
 -1      1976 1.58407E-03 4.65337E-04-1.98477E-15
 -1      1977 2.06297E-03 5.34674E-04-3.36366E-15
 -1      1978 1.91269E-03 5.22049E-04-2.85386E-15
 -1      1979 1.88207E-03 4.93437E-04-2.87425E-15
 -1      1980 2.36689E-03 5.60366E-04-4.50977E-15
 -1      1981 2.21434E-03 5.47307E-04-3.91557E-15
 -1      1982 2.18337E-03 5.18189E-04-3.93266E-15
 -1      1983 2.67544E-03 5.90524E-04-5.82389E-15
 -1      1984 2.52062E-03 5.74658E-04-5.14596E-15
 -1      1985 2.48882E-03 5.44685E-04-5.15881E-15
 -1      1986 2.98786E-03 6.29457E-04-7.30525E-15
 -1      1987 2.83128E-03 6.08729E-04-6.54339E-15
 -1      1988 2.79852E-03 5.77659E-04-6.55083E-15
 -1      1989 3.30248E-03 6.80250E-04-8.95478E-15
 -1      1990 3.14511E-03 6.53331E-04-8.10917E-15
 -1      1991 3.11175E-03 6.21110E-04-8.10964E-15
 -1      1992 3.61667E-03 7.43551E-04-1.07689E-14
 -1      1993 3.45993E-03 7.10503E-04-9.84114E-15
 -1      1994 3.42691E-03 6.77385E-04-9.83407E-15
 -1      1995 3.92715E-03 8.16029E-04-1.27500E-14
 -1      1996 3.77270E-03 7.79088E-04-1.17385E-14
 -1      1997 3.74147E-03 7.45754E-04-1.17233E-14
 -1      1998 4.23072E-03 8.89164E-04-1.49022E-14
 -1      1999 4.08006E-03 8.53245E-04-1.38045E-14
 -1      2000 4.05229E-03 8.20801E-04-1.37798E-14
 -1      2001 4.52544E-03 9.49552E-04-1.72294E-14
 -1      2002 4.37924E-03 9.21833E-04-1.60437E-14
 -1      2003 4.35640E-03 8.91563E-04-1.60090E-14
 -1      2004 4.81196E-03 9.81819E-04-1.97357E-14
 -1      2005 4.66948E-03 9.69949E-04-1.84604E-14
 -1      2006 4.65240E-03 9.42799E-04-1.84154E-14
 -1      2007 5.09396E-03 9.73849E-04-2.24207E-14
 -1      2008 4.95303E-03 9.83158E-04-2.10556E-14
 -1      2009 4.94184E-03 9.59223E-04-2.10002E-14
 -1      2010 5.37715E-03 9.21956E-04-2.52842E-14
 -1      2011 5.23485E-03 9.53085E-04-2.38297E-14
 -1      2012 5.22920E-03 9.31498E-04-2.37650E-14
 -1      2013 5.66686E-03 8.32579E-04-2.83262E-14
 -1      2014 5.52078E-03 8.81168E-04-2.67829E-14
 -1      2015 5.52013E-03 8.60549E-04-2.67088E-14
 -1      2016 5.96606E-03 7.19448E-04-3.15412E-14
 -1      2017 5.81514E-03 7.78048E-04-2.99125E-14
 -1      2018 5.81876E-03 7.57155E-04-2.98295E-14
 -1      2019 6.27466E-03 5.98096E-04-3.49203E-14
 -1      2020 6.11930E-03 6.59020E-04-3.32112E-14
 -1      2021 6.12618E-03 6.37155E-04-3.31193E-14
 -1      2022 6.59036E-03 4.81131E-04-3.84527E-14
 -1      2023 6.43188E-03 5.38590E-04-3.66685E-14
 -1      2024 6.44072E-03 5.15598E-04-3.65693E-14
 -1      2025 6.90992E-03 3.76130E-04-4.21262E-14
 -1      2026 6.74995E-03 4.26957E-04-4.02723E-14
 -1      2027 6.75936E-03 4.03006E-04-4.01659E-14
 -1      2028 7.23025E-03 2.85903E-04-4.59363E-14
 -1      2029 7.07024E-03 3.29198E-04-4.40153E-14
 -1      2030 7.07906E-03 3.04573E-04-4.39025E-14
 -1      2031 7.54894E-03 2.09946E-04-4.98718E-14
 -1      2032 7.38998E-03 2.46277E-04-4.78882E-14
 -1      2033 7.39740E-03 2.21254E-04-4.77677E-14
 -1      2034 7.86442E-03 1.46002E-04-5.39242E-14
 -1      2035 7.70719E-03 1.76644E-04-5.18822E-14
 -1      2036 7.71284E-03 1.51450E-04-5.17550E-14
 -1      2037 8.17589E-03 9.12229E-05-5.80929E-14
 -1      2038 8.02071E-03 1.17630E-04-5.59950E-14
 -1      2039 8.02452E-03 9.24306E-05-5.58586E-14
 -1      2040 8.48311E-03 4.28734E-05-6.23709E-14
 -1      2041 8.33004E-03 6.63810E-05-6.02192E-14
 -1      2042 8.33219E-03 4.12887E-05-6.00769E-14
 -1      2043 8.78623E-03-1.34836E-06-6.67558E-14
 -1      2044 8.63516E-03 2.03509E-05-6.45503E-14
 -1      2045 8.63592E-03-4.56603E-06-6.44015E-14
 -1      2046 9.08566E-03-4.32175E-05-7.12403E-14
 -1      2047 8.93637E-03-2.25025E-05-6.89851E-14
 -1      2048 8.93604E-03-4.72103E-05-6.88304E-14
 -1      2049 9.38190E-03-8.40126E-05-7.58181E-14
 -1      2050 9.23414E-03-6.36995E-05-7.35181E-14
 -1      2051 9.23301E-03-8.81894E-05-7.33566E-14
 -1      2052 9.67548E-03-1.24598E-04-8.04800E-14
 -1      2053 9.52898E-03-1.04301E-04-7.81382E-14
 -1      2054 9.52730E-03-1.28581E-04-7.79728E-14
 -1      2055 9.96692E-03-1.65516E-04-8.52164E-14
 -1      2056 9.82143E-03-1.44998E-04-8.28401E-14
 -1      2057 9.81939E-03-1.69087E-04-8.26685E-14
 -1      2058 1.02567E-02-2.07074E-04-9.00295E-14
 -1      2059 1.01120E-02-1.86207E-04-8.76138E-14
 -1      2060 1.01097E-02-2.10128E-04-8.74396E-14
 -1      2061 1.05451E-02-2.49413E-04-9.49221E-14
 -1      2062 1.04010E-02-2.28144E-04-9.24656E-14
 -1      2063 1.03987E-02-2.51923E-04-9.22895E-14
 -1      2064 1.08326E-02-2.92568E-04-9.98964E-14
 -1      2065 1.06890E-02-2.70891E-04-9.73981E-14
 -1      2066 1.06866E-02-2.94552E-04-9.72193E-14
 -1      2067 1.11195E-02-3.36502E-04-1.04958E-13
 -1      2068 1.09761E-02-3.14442E-04-1.02416E-13
 -1      2069 1.09738E-02-3.38008E-04-1.02232E-13
 -1      2070 1.14058E-02-3.81145E-04-1.10095E-13
 -1      2071 1.12627E-02-3.58741E-04-1.07519E-13
 -1      2072 1.12604E-02-3.82232E-04-1.07326E-13
 -1      2073 1.16917E-02-4.26403E-04-1.15301E-13
 -1      2074 1.15488E-02-4.03703E-04-1.12690E-13
 -1      2075 1.15466E-02-4.27137E-04-1.12494E-13
 -1      2076 1.19775E-02-4.72182E-04-1.20574E-13
 -1      2077 1.18346E-02-4.49233E-04-1.17929E-13
 -1      2078 1.18325E-02-4.72623E-04-1.17730E-13
 -1      2079 1.22631E-02-5.18387E-04-1.25906E-13
 -1      2080 1.21203E-02-4.95236E-04-1.23232E-13
 -1      2081 1.21183E-02-5.18595E-04-1.23026E-13
 -1      2082 1.25487E-02-5.64934E-04-1.31287E-13
 -1      2083 1.24059E-02-5.41622E-04-1.28590E-13
 -1      2084 1.24039E-02-5.64958E-04-1.28381E-13
 -1      2085 1.28343E-02-6.11745E-04-1.36709E-13
 -1      2086 1.26915E-02-5.88310E-04-1.33995E-13
 -1      2087 1.26895E-02-6.11630E-04-1.33777E-13
 -1      2088 1.31198E-02-6.58754E-04-1.42159E-13
 -1      2089 1.29770E-02-6.35228E-04-1.39431E-13
 -1      2090 1.29751E-02-6.58539E-04-1.39212E-13
 -1      2091 1.34054E-02-7.05905E-04-1.47632E-13
 -1      2092 1.32626E-02-6.82315E-04-1.44893E-13
 -1      2093 1.32607E-02-7.05620E-04-1.44668E-13
 -1      2094 1.36910E-02-7.53145E-04-1.53124E-13
 -1      2095 1.35482E-02-7.29516E-04-1.50375E-13
 -1      2096 1.35463E-02-7.52819E-04-1.50145E-13
 -1      2097 1.39766E-02-8.00431E-04-1.58640E-13
 -1      2098 1.38338E-02-7.76784E-04-1.55880E-13
 -1      2099 1.38319E-02-8.00089E-04-1.55647E-13
 -1      2100 1.42623E-02-8.47725E-04-1.64171E-13
 -1      2101 1.41194E-02-8.24079E-04-1.61406E-13
 -1      2102 1.41176E-02-8.47387E-04-1.61169E-13
 -1      2103 1.44988E-02-8.89587E-04-1.68733E-13
 -1      2104 1.43560E-02-8.65953E-04-1.65964E-13
 -1      2105 1.43541E-02-8.89265E-04-1.65730E-13
 -1      2106 1.45415E-02-9.25714E-04-1.69319E-13
 -1      2107 1.46391E-02-1.15540E-03-1.69381E-13
 -1      2108 1.46159E-02-1.11322E-03-1.69264E-13
 -1      2109 1.45927E-02-1.07104E-03-1.69145E-13
 -1      2110 1.45695E-02-1.02887E-03-1.69026E-13
 -1      2111 1.44806E-02-1.07164E-03-1.66806E-13
 -1      2112 1.45671E-02-9.98367E-04-1.69236E-13
 -1      2113 1.45439E-02-9.56208E-04-1.69111E-13
 -1      2114 1.44502E-02-9.37983E-04-1.67315E-13
 -1      2115 1.44550E-02-9.98974E-04-1.66897E-13
 -1      2116 1.46847E-02-1.23836E-03-1.69604E-13
 -1      2117 1.46619E-02-1.19688E-03-1.69492E-13
 -1      2118 1.45265E-02-1.15528E-03-1.67037E-13
 -1      2119 1.47312E-02-1.32276E-03-1.69823E-13
 -1      2120 1.47079E-02-1.28056E-03-1.69716E-13
 -1      2121 1.45726E-02-1.23894E-03-1.67259E-13
 -1      2122 1.47778E-02-1.40719E-03-1.70032E-13
 -1      2123 1.47545E-02-1.36497E-03-1.69929E-13
 -1      2124 1.46191E-02-1.32333E-03-1.67476E-13
 -1      2125 1.48244E-02-1.49162E-03-1.70234E-13
 -1      2126 1.48011E-02-1.44940E-03-1.70133E-13
 -1      2127 1.46657E-02-1.40773E-03-1.67684E-13
 -1      2128 1.48712E-02-1.57605E-03-1.70428E-13
 -1      2129 1.48478E-02-1.53383E-03-1.70332E-13
 -1      2130 1.47124E-02-1.49214E-03-1.67886E-13
 -1      2131 1.49181E-02-1.66048E-03-1.70611E-13
 -1      2132 1.48947E-02-1.61827E-03-1.70520E-13
 -1      2133 1.47592E-02-1.57654E-03-1.68080E-13
 -1      2134 1.49643E-02-1.74346E-03-1.70791E-13
 -1      2135 1.49412E-02-1.70197E-03-1.70700E-13
 -1      2136 1.48057E-02-1.66023E-03-1.68265E-13
 -1      2137 1.50113E-02-1.82786E-03-1.70971E-13
 -1      2138 1.49878E-02-1.78567E-03-1.70883E-13
 -1      2139 1.48523E-02-1.74390E-03-1.68446E-13
 -1      2140 1.50585E-02-1.91224E-03-1.71147E-13
 -1      2141 1.50349E-02-1.87005E-03-1.71058E-13
 -1      2142 1.48994E-02-1.82828E-03-1.68624E-13
 -1      2143 1.51056E-02-1.99659E-03-1.71321E-13
 -1      2144 1.50820E-02-1.95441E-03-1.71236E-13
 -1      2145 1.49465E-02-1.91264E-03-1.68799E-13
 -1      2146 7.13893E-03-1.83185E-04-3.12759E-14
 -1      2147 7.27029E-03-2.28453E-04-3.15886E-14
 -1      2148 7.51899E-03-3.22213E-04-3.21807E-14
 -1      2149 7.53064E-03-3.38877E-04-3.21912E-14
 -1      2150 7.37706E-03-2.65310E-04-3.18223E-14
 -1      2151 7.45868E-03-2.93132E-04-3.20579E-14
 -1      2152 7.31991E-03-2.68380E-04-3.24596E-14
 -1      2153 6.78665E-03-2.98309E-05-3.01890E-14
 -1      2154 6.95871E-03-1.07167E-04-3.07187E-14
 -1      2155 4.03638E-03 2.78615E-04-1.80697E-14
 -1      2156 4.18699E-03 3.56800E-04-1.84912E-14
 -1      2157 3.05128E-03-1.44149E-04-1.58367E-14
 -1      2158 3.14590E-03-1.14270E-04-1.59829E-14
 -1      2159 6.39351E-03 1.75584E-04-2.87765E-14
 -1      2160 6.57544E-03 7.56359E-05-2.94557E-14
 -1      2161 3.27788E-04-6.95313E-05-2.38918E-16
 -1      2162 3.31838E-04-8.19699E-05-2.29797E-16
 -1      2163 4.50939E-04-1.18744E-04-3.34463E-16
 -1      2164 4.39026E-04-8.57104E-05-3.58410E-16
 -1      2165 5.66166E-03 5.71367E-04-2.56489E-14
 -1      2166 5.81340E-03 4.90640E-04-2.64210E-14
 -1      2167 5.36476E-03 6.81108E-04-2.40604E-14
 -1      2168 5.50999E-03 6.34715E-04-2.48464E-14
 -1      2169 5.56985E-03 6.05480E-04-2.54437E-14
 -1      2170 5.03086E-03 7.06094E-04-2.22270E-14
 -1      2171 5.16959E-03 7.11332E-04-2.30014E-14
 -1      2172 4.74738E-03 6.31618E-04-2.08230E-14
 -1      2173 4.89039E-03 6.79516E-04-2.15198E-14
 -1      2174 4.97347E-03 7.05267E-04-2.18108E-14
 -1      2175 4.40426E-03 4.72453E-04-1.93130E-14
 -1      2176 4.56170E-03 5.56203E-04-2.00165E-14
 -1      2177 3.29406E-03-5.22036E-05-1.64096E-14
 -1      2178 3.43894E-03 6.72060E-06-1.67304E-14
 -1      2179 2.95903E-03-1.89021E-04-1.58180E-14
 -1      2180 2.98551E-03-1.70317E-04-1.58669E-14
 -1      2181 3.01715E-03-2.30609E-04-1.57607E-14
 -1      2182 2.96904E-03-2.11426E-04-1.57071E-14
 -1      2183 3.24302E-03-3.17065E-04-1.62141E-14
 -1      2184 3.12235E-03-2.72791E-04-1.59733E-14
 -1      2185 3.56887E-03-4.41805E-04-1.67141E-14
 -1      2186 3.39285E-03-3.74754E-04-1.64602E-14
 -1      2187 3.31844E-03-3.16567E-04-1.58331E-14
 -1      2188 4.01159E-03-6.69124E-04-1.77698E-14
 -1      2189 3.80769E-03-5.58485E-04-1.72579E-14
 -1      2190 4.45799E-03-9.35196E-04-1.91506E-14
 -1      2191 4.25587E-03-8.08886E-04-1.84645E-14
 -1      2192 4.86937E-03-1.16829E-03-2.08043E-14
 -1      2193 4.68809E-03-1.06703E-03-1.99985E-14
 -1      2194 5.23354E-03-1.29075E-03-2.26682E-14
 -1      2195 5.07774E-03-1.25165E-03-2.18240E-14
 -1      2196 5.53549E-03-1.27650E-03-2.43031E-14
 -1      2197 5.38469E-03-1.29749E-03-2.34783E-14
 -1      2198 5.30793E-03-1.30698E-03-2.30147E-14
 -1      2199 5.90277E-03-1.14342E-03-2.62148E-14
 -1      2200 5.74359E-03-1.21592E-03-2.54055E-14
 -1      2201 6.24714E-03-9.57435E-04-2.78264E-14
 -1      2202 6.07392E-03-1.05779E-03-2.70150E-14
 -1      2203 5.96133E-03-1.10901E-03-2.68444E-14
 -1      2204 6.65393E-03-7.26362E-04-2.96007E-14
 -1      2205 6.47040E-03-8.30069E-04-2.88384E-14
 -1      2206 7.05647E-03-5.32668E-04-3.10090E-14
 -1      2207 6.88517E-03-6.07199E-04-3.05188E-14
 -1      2208 7.34898E-03-4.24582E-04-3.16655E-14
 -1      2209 7.22683E-03-4.67247E-04-3.13846E-14
 -1      2210 7.49875E-03-3.66248E-04-3.21106E-14
 -1      2211 7.43735E-03-3.90563E-04-3.18861E-14
 -1      2212 7.39487E-03-3.96506E-04-3.25584E-14
 -1      2213 6.04109E-03 3.73283E-04-2.73600E-14
 -1      2214 6.21770E-03 2.74282E-04-2.80612E-14
 -1      2215 6.28798E-03 2.03347E-04-2.88730E-14
 -1      2216 3.92308E-03 2.06165E-04-1.74109E-14
 -1      2217 3.54840E-03 3.18552E-05-1.65592E-14
 -1      2218 6.23287E-04-2.68078E-04-3.40995E-16
 -1      2219 6.80269E-04-2.57550E-04-4.65434E-16
 -1      2220 7.49476E-03-3.18055E-04-3.28231E-14
 -1      2221 7.04234E-03-1.71146E-04-3.16517E-14
 -1      2222 1.50828E-02-2.02339E-03-1.70583E-13
 -1      2223 7.52314E-03-3.52532E-04-3.28664E-14
 -1      2224 6.66064E-03 1.48894E-06-3.03398E-14
 -1      2225 4.31494E-03 4.17545E-04-1.86831E-14
 -1      2226 3.21500E-03-9.93686E-05-1.57529E-14
 -1      2227 7.14855E-03-4.82415E-04-3.19475E-14
 -1      2228 6.32993E-03-8.96828E-04-2.86687E-14
 -1      2229 5.62369E-03-1.26205E-03-2.49239E-14
 -1      2230 4.99387E-03-1.22095E-03-2.11833E-14
 -1      2231 4.60034E-03-1.00198E-03-1.93338E-14
 -1      2232 3.68952E-03-4.75500E-04-1.65992E-14
 -1      2233 3.06287E-03-2.32852E-04-1.53873E-14
 -1      2234 2.95441E-03-1.94975E-04-1.52924E-14
 -1      2235 4.68766E-03 6.08333E-04-2.03005E-14
 -1      2236 3.00985E-03-1.61804E-04-1.53711E-14
 -1      2237 5.25935E-03 7.07758E-04-2.35688E-14
 -1      2238 5.90767E-03 4.24270E-04-2.71970E-14
 -1      2239 4.15569E-03-7.28109E-04-1.78135E-14
 -1      2240 6.76711E-03-6.53956E-04-3.06237E-14
 -1      2241 1.04338E-03 3.54273E-04-9.02815E-16
 -1      2242 8.93931E-04 3.23655E-04-6.61838E-16
 -1      2243 5.32191E-04-4.14669E-05-5.41654E-16
 -1      2244 5.35444E-04-5.38942E-05-5.38225E-16
 -1      2245 5.39649E-04-6.73179E-05-5.33102E-16
 -1      2246 5.44732E-04-8.19056E-05-5.25946E-16
 -1      2247 6.49222E-04-7.22254E-05-7.25982E-16
 -1      2248 5.28275E-04 3.85826E-06-5.41857E-16
 -1      2249 5.27899E-04-7.26178E-06-5.43958E-16
 -1      2250 5.31584E-04 2.70836E-05-5.33848E-16
 -1      2251 5.29521E-04 1.52586E-05-5.38483E-16
 -1      2252 6.38258E-04 1.12160E-05-7.31958E-16
 -1      2253 5.37935E-04 5.25067E-05-5.20431E-16
 -1      2254 5.34405E-04 3.93957E-05-5.28115E-16
 -1      2255 6.43573E-04 3.93346E-05-7.20019E-16
 -1      2256 5.47330E-04 8.26432E-05-4.99343E-16
 -1      2257 5.42289E-04 6.69589E-05-5.10903E-16
 -1      2258 6.52801E-04 7.09185E-05-7.00300E-16
 -1      2259 5.59818E-04 1.18915E-04-4.68484E-16
 -1      2260 5.53191E-04 9.99232E-05-4.85452E-16
 -1      2261 6.65837E-04 1.08107E-04-6.70565E-16
 -1      2262 5.76423E-04 1.63717E-04-4.23706E-16
 -1      2263 5.67566E-04 1.40114E-04-4.48480E-16
 -1      2264 6.82903E-04 1.52640E-04-6.28119E-16
 -1      2265 9.37858E-04-2.97768E-04-9.02341E-16
 -1      2266 1.08665E-03-3.24119E-04-1.18845E-15
 -1      2267 3.45872E-03-1.52299E-05-1.58972E-14
 -1      2268 3.62894E-03 5.66856E-05-1.62735E-14
 -1      2269 1.34063E-03 4.01351E-04-1.50944E-15
 -1      2270 1.19208E-03 3.80035E-04-1.18494E-15
 -1      2271 1.09767E-03 3.32056E-04-1.10124E-15
 -1      2272 6.01224E-04-2.05284E-04-4.32027E-16
 -1      2273 7.99514E-04-2.62608E-04-6.87601E-16
 -1      2274 8.56740E-04-2.47640E-04-8.44160E-16
 -1      2275 5.88732E-04-1.77141E-04-4.60976E-16
 -1      2276 1.23508E-03-3.45858E-04-1.51658E-15
 -1      2277 1.38373E-03-3.63503E-04-1.88735E-15
 -1      2278 1.14034E-03-3.01506E-04-1.39587E-15
 -1      2279 1.53236E-03-3.78075E-04-2.30008E-15
 -1      2280 1.68146E-03-3.89997E-04-2.75531E-15
 -1      2281 1.43474E-03-3.35906E-04-2.14606E-15
 -1      2282 1.83098E-03-4.00224E-04-3.25200E-15
 -1      2283 1.98132E-03-4.09233E-04-3.78998E-15
 -1      2284 1.72975E-03-3.59224E-04-3.06287E-15
 -1      2285 2.13253E-03-4.17959E-04-4.36877E-15
 -1      2286 2.28495E-03-4.27001E-04-4.98908E-15
 -1      2287 2.02630E-03-3.76617E-04-4.14434E-15
 -1      2288 2.43872E-03-4.37349E-04-5.64949E-15
 -1      2289 2.59414E-03-4.49808E-04-6.35040E-15
 -1      2290 2.32575E-03-3.93622E-04-5.38760E-15
 -1      2291 2.75154E-03-4.65446E-04-7.09128E-15
 -1      2292 2.91111E-03-4.85382E-04-7.87142E-15
 -1      2293 2.63005E-03-4.16565E-04-6.79140E-15
 -1      2294 3.07354E-03-5.10695E-04-8.69102E-15
 -1      2295 3.23876E-03-5.42923E-04-9.55024E-15
 -1      2296 2.94216E-03-4.53035E-04-8.35282E-15
 -1      2297 3.40794E-03-5.82955E-04-1.04486E-14
 -1      2298 3.58039E-03-6.32633E-04-1.13862E-14
 -1      2299 3.26646E-03-5.12295E-04-1.00699E-14
 -1      2300 3.75770E-03-6.92275E-04-1.23631E-14
 -1      2301 3.93804E-03-7.63273E-04-1.33808E-14
 -1      2302 3.60834E-03-6.05259E-04-1.19428E-14
 -1      2303 4.12284E-03-8.44939E-04-1.44391E-14
 -1      2304 4.30883E-03-9.36111E-04-1.55397E-14
 -1      2305 3.97152E-03-7.42531E-04-1.39727E-14
 -1      2306 4.49769E-03-1.03354E-03-1.66835E-14
 -1      2307 4.68329E-03-1.13149E-03-1.78721E-14
 -1      2308 4.35412E-03-9.26031E-04-1.61677E-14
 -1      2309 4.86517E-03-1.22448E-03-1.91078E-14
 -1      2310 5.04329E-03-1.30122E-03-2.03892E-14
 -1      2311 4.74052E-03-1.13440E-03-1.85387E-14
 -1      2312 5.21457E-03-1.35594E-03-2.17200E-14
 -1      2313 5.38622E-03-1.38020E-03-2.30993E-14
 -1      2314 5.10969E-03-1.30352E-03-2.10984E-14
 -1      2315 5.55470E-03-1.37245E-03-2.45257E-14
 -1      2316 5.72943E-03-1.33711E-03-2.60007E-14
 -1      2317 5.46326E-03-1.35573E-03-2.38534E-14
 -1      2318 5.90733E-03-1.27807E-03-2.75229E-14
 -1      2319 6.09078E-03-1.20723E-03-2.90909E-14
 -1      2320 5.82422E-03-1.27198E-03-2.68047E-14
 -1      2321 6.27790E-03-1.13051E-03-3.07025E-14
 -1      2322 6.46552E-03-1.05660E-03-3.23567E-14
 -1      2323 6.20542E-03-1.11523E-03-2.99438E-14
 -1      2324 6.65363E-03-9.89772E-04-3.40503E-14
 -1      2325 6.83792E-03-9.32723E-04-3.57831E-14
 -1      2326 6.59275E-03-9.61411E-04-3.32552E-14
 -1      2327 7.01990E-03-8.87372E-04-3.75529E-14
 -1      2328 7.19688E-03-8.52802E-04-3.93606E-14
 -1      2329 6.96672E-03-8.50227E-04-3.67236E-14
 -1      2330 7.37063E-03-8.29335E-04-4.12055E-14
 -1      2331 7.54007E-03-8.15083E-04-4.30847E-14
 -1      2332 7.31904E-03-7.87471E-04-4.03397E-14
 -1      2333 7.70656E-03-8.09500E-04-4.49984E-14
 -1      2334 7.86985E-03-8.10947E-04-4.69445E-14
 -1      2335 7.65176E-03-7.64833E-04-4.40970E-14
 -1      2336 8.03078E-03-8.18545E-04-4.89235E-14
 -1      2337 8.18946E-03-8.31105E-04-5.09344E-14
 -1      2338 7.97025E-03-7.71812E-04-4.79887E-14
 -1      2339 8.34629E-03-8.47737E-04-5.29767E-14
 -1      2340 8.50153E-03-8.67648E-04-5.50477E-14
 -1      2341 8.27932E-03-7.99363E-04-5.20065E-14
 -1      2342 8.65531E-03-8.90093E-04-5.71489E-14
 -1      2343 8.80793E-03-9.14554E-04-5.92810E-14
 -1      2344 8.58230E-03-8.40473E-04-5.61451E-14
 -1      2345 8.95937E-03-9.40475E-04-6.14392E-14
 -1      2346 9.10991E-03-9.67521E-04-6.36260E-14
 -1      2347 8.88120E-03-8.90008E-04-6.03994E-14
 -1      2348 9.25950E-03-9.95308E-04-6.58415E-14
 -1      2349 9.40837E-03-1.02362E-03-6.80857E-14
 -1      2350 9.17720E-03-9.44351E-04-6.47681E-14
 -1      2351 9.55646E-03-1.05222E-03-7.03566E-14
 -1      2352 9.70398E-03-1.08095E-03-7.26520E-14
 -1      2353 9.47101E-03-1.00105E-03-6.92481E-14
 -1      2354 9.85085E-03-1.10969E-03-7.49741E-14
 -1      2355 9.99727E-03-1.13834E-03-7.73203E-14
 -1      2356 9.76308E-03-1.05853E-03-7.38339E-14
 -1      2357 1.01432E-02-1.16682E-03-7.96888E-14
 -1      2358 1.02887E-02-1.19509E-03-8.20827E-14
 -1      2359 1.00537E-02-1.11580E-03-7.85168E-14
 -1      2360 1.04338E-02-1.22312E-03-8.44966E-14
 -1      2361 1.05787E-02-1.25087E-03-8.69292E-14
 -1      2362 1.03432E-02-1.17230E-03-8.32930E-14
 -1      2363 1.07232E-02-1.27834E-03-8.93822E-14
 -1      2364 1.08674E-02-1.30551E-03-9.18558E-14
 -1      2365 1.06318E-02-1.22776E-03-8.81519E-14
 -1      2366 1.10115E-02-1.33241E-03-9.43477E-14
 -1      2367 1.11553E-02-1.35903E-03-9.68560E-14
 -1      2368 1.09196E-02-1.28209E-03-9.30891E-14
 -1      2369 1.12990E-02-1.38539E-03-9.93836E-14
 -1      2370 1.14426E-02-1.41149E-03-1.01929E-13
 -1      2371 1.12068E-02-1.33530E-03-9.81008E-14
 -1      2372 1.15860E-02-1.43735E-03-1.04489E-13
 -1      2373 1.17293E-02-1.46299E-03-1.07064E-13
 -1      2374 1.14936E-02-1.38748E-03-1.03181E-13
 -1      2375 1.18725E-02-1.48843E-03-1.09656E-13
 -1      2376 1.20156E-02-1.51367E-03-1.12265E-13
 -1      2377 1.17801E-02-1.43874E-03-1.08327E-13
 -1      2378 1.21587E-02-1.53874E-03-1.14886E-13
 -1      2379 1.23017E-02-1.56365E-03-1.17522E-13
 -1      2380 1.20663E-02-1.48920E-03-1.13536E-13
 -1      2381 1.24447E-02-1.58842E-03-1.20171E-13
 -1      2382 1.25877E-02-1.61306E-03-1.22832E-13
 -1      2383 1.23523E-02-1.53901E-03-1.18803E-13
 -1      2384 1.27306E-02-1.63759E-03-1.25506E-13
 -1      2385 1.28735E-02-1.66201E-03-1.28187E-13
 -1      2386 1.26382E-02-1.58828E-03-1.24122E-13
 -1      2387 1.30163E-02-1.68634E-03-1.30879E-13
 -1      2388 1.31592E-02-1.71058E-03-1.33583E-13
 -1      2389 1.29240E-02-1.63711E-03-1.29483E-13
 -1      2390 1.33020E-02-1.73476E-03-1.36293E-13
 -1      2391 1.34449E-02-1.75888E-03-1.39009E-13
 -1      2392 1.32097E-02-1.68560E-03-1.34881E-13
 -1      2393 1.35877E-02-1.78295E-03-1.41733E-13
 -1      2394 1.37305E-02-1.80697E-03-1.44463E-13
 -1      2395 1.34954E-02-1.73383E-03-1.40309E-13
 -1      2396 1.38734E-02-1.83095E-03-1.47199E-13
 -1      2397 1.40162E-02-1.85491E-03-1.49935E-13
 -1      2398 1.37811E-02-1.78187E-03-1.45763E-13
 -1      2399 1.41590E-02-1.87884E-03-1.52677E-13
 -1      2400 1.43019E-02-1.90275E-03-1.55424E-13
 -1      2401 1.40668E-02-1.82977E-03-1.51235E-13
 -1      2402 1.44447E-02-1.92665E-03-1.58174E-13
 -1      2403 1.45875E-02-1.95054E-03-1.60926E-13
 -1      2404 1.43525E-02-1.87759E-03-1.56725E-13
 -1      2405 7.27860E-03-2.73232E-04-3.32554E-14
 -1      2406 7.37754E-03-2.98689E-04-3.34999E-14
 -1      2407 1.93640E-03 4.60911E-04-3.22508E-15
 -1      2408 1.78675E-03 4.48568E-04-2.73326E-15
 -1      2409 2.23814E-03 4.84698E-04-4.33399E-15
 -1      2410 2.08685E-03 4.72806E-04-3.75868E-15
 -1      2411 1.98968E-03 4.28130E-04-3.58227E-15
 -1      2412 2.54384E-03 5.11293E-04-5.60879E-15
 -1      2413 2.39051E-03 4.97372E-04-4.95070E-15
 -1      2414 2.29149E-03 4.50945E-04-4.74103E-15
 -1      2415 2.85386E-03 5.45400E-04-7.04767E-15
 -1      2416 2.69839E-03 5.27158E-04-6.30794E-15
 -1      2417 2.59745E-03 4.77561E-04-6.06321E-15
 -1      2418 3.16793E-03 5.90926E-04-8.65212E-15
 -1      2419 3.01056E-03 5.66554E-04-7.82883E-15
 -1      2420 2.90831E-03 5.12651E-04-7.54819E-15
 -1      2421 3.48487E-03 6.49972E-04-1.04192E-14
 -1      2422 3.32630E-03 6.18732E-04-9.51530E-15
 -1      2423 3.22422E-03 5.60090E-04-9.19628E-15
 -1      2424 3.80242E-03 7.21260E-04-1.23508E-14
 -1      2425 3.64391E-03 6.84337E-04-1.13644E-14
 -1      2426 3.54435E-03 6.21851E-04-1.10062E-14
 -1      2427 4.11731E-03 7.98353E-04-1.44501E-14
 -1      2428 3.96053E-03 7.59717E-04-1.33790E-14
 -1      2429 3.86634E-03 6.96218E-04-1.29795E-14
 -1      2430 4.42616E-03 8.68762E-04-1.67222E-14
 -1      2431 4.27265E-03 8.35396E-04-1.55641E-14
 -1      2432 4.18632E-03 7.75670E-04-1.51209E-14
 -1      2433 4.72727E-03 9.15656E-04-1.91733E-14
 -1      2434 4.57750E-03 8.96261E-04-1.79256E-14
 -1      2435 4.50008E-03 8.45840E-04-1.74371E-14
 -1      2436 5.02243E-03 9.23132E-04-2.18030E-14
 -1      2437 4.87506E-03 9.25079E-04-2.04654E-14
 -1      2438 4.80571E-03 8.87835E-04-1.99319E-14
 -1      2439 5.31673E-03 8.83264E-04-2.46140E-14
 -1      2440 5.16900E-03 9.09140E-04-2.31865E-14
 -1      2441 5.10577E-03 8.85110E-04-2.26073E-14
 -1      2442 5.61598E-03 8.00122E-04-2.76041E-14
 -1      2443 5.46525E-03 8.46374E-04-2.60864E-14
 -1      2444 5.40655E-03 8.31736E-04-2.54653E-14
 -1      2445 5.92331E-03 6.87758E-04-3.07700E-14
 -1      2446 5.76852E-03 7.46488E-04-2.91660E-14
 -1      2447 5.71402E-03 7.35830E-04-2.85028E-14
 -1      2448 6.23820E-03 5.63661E-04-3.41020E-14
 -1      2449 6.08002E-03 6.26157E-04-3.24155E-14
 -1      2450 6.02999E-03 6.15044E-04-3.17131E-14
 -1      2451 6.55767E-03 4.42494E-04-3.75916E-14
 -1      2452 6.39771E-03 5.02027E-04-3.58281E-14
 -1      2453 6.35202E-03 4.88113E-04-3.50877E-14
 -1      2454 6.87826E-03 3.33241E-04-4.12248E-14
 -1      2455 6.71815E-03 3.86065E-04-3.93911E-14
 -1      2456 6.67585E-03 3.68720E-04-3.86163E-14
 -1      2457 7.19731E-03 2.39403E-04-4.49944E-14
 -1      2458 7.03821E-03 2.84347E-04-4.30924E-14
 -1      2459 6.99780E-03 2.63866E-04-4.22860E-14
 -1      2460 7.51318E-03 1.60715E-04-4.88924E-14
 -1      2461 7.35578E-03 1.98267E-04-4.69268E-14
 -1      2462 7.31572E-03 1.75253E-04-4.60882E-14
 -1      2463 7.82515E-03 9.49117E-05-5.29068E-14
 -1      2464 7.66972E-03 1.26367E-04-5.08850E-14
 -1      2465 7.62885E-03 1.01460E-04-5.00153E-14
 -1      2466 8.13305E-03 3.90267E-05-5.70409E-14
 -1      2467 7.97962E-03 6.59008E-05-5.49603E-14
 -1      2468 7.93725E-03 3.96760E-05-5.40628E-14
 -1      2469 8.43707E-03-9.83625E-06-6.12839E-14
 -1      2470 8.28553E-03 1.38696E-05-5.91488E-14
 -1      2471 8.24138E-03-1.31933E-05-5.82235E-14
 -1      2472 8.73756E-03-5.41400E-05-6.56355E-14
 -1      2473 8.58772E-03-3.24351E-05-6.34471E-14
 -1      2474 8.54183E-03-5.99555E-05-6.24943E-14
 -1      2475 9.03497E-03-9.58021E-05-7.00896E-14
 -1      2476 8.88661E-03-7.52083E-05-6.78505E-14
 -1      2477 8.83919E-03-1.02900E-04-6.68708E-14
 -1      2478 9.32976E-03-1.36217E-04-7.46373E-14
 -1      2479 9.18266E-03-1.16099E-04-7.23503E-14
 -1      2480 9.13397E-03-1.43760E-04-7.13478E-14
 -1      2481 9.62238E-03-1.76337E-04-7.92740E-14
 -1      2482 9.47631E-03-1.56269E-04-7.69450E-14
 -1      2483 9.42666E-03-1.83768E-04-7.59186E-14
 -1      2484 9.91324E-03-2.16765E-04-8.39883E-14
 -1      2485 9.76800E-03-1.96484E-04-8.16215E-14
 -1      2486 9.71765E-03-2.23745E-04-8.05751E-14
 -1      2487 1.02027E-02-2.57849E-04-8.87824E-14
 -1      2488 1.00581E-02-2.37209E-04-8.63760E-14
 -1      2489 1.00073E-02-2.64198E-04-8.53111E-14
 -1      2490 1.04911E-02-2.99756E-04-9.36532E-14
 -1      2491 1.03470E-02-2.78692E-04-9.12073E-14
 -1      2492 1.02959E-02-3.05405E-04-9.01259E-14
 -1      2493 1.07786E-02-3.42531E-04-9.86054E-14
 -1      2494 1.06349E-02-3.21032E-04-9.61199E-14
 -1      2495 1.05836E-02-3.47483E-04-9.50181E-14
 -1      2496 1.10655E-02-3.86142E-04-1.03638E-13
 -1      2497 1.09221E-02-3.64233E-04-1.01111E-13
 -1      2498 1.08707E-02-3.90447E-04-9.99921E-14
 -1      2499 1.13520E-02-4.30517E-04-1.08751E-13
 -1      2500 1.12088E-02-4.08238E-04-1.06185E-13
 -1      2501 1.11574E-02-4.34244E-04-1.05045E-13
 -1      2502 1.16381E-02-4.75560E-04-1.13933E-13
 -1      2503 1.14951E-02-4.52960E-04-1.11334E-13
 -1      2504 1.14437E-02-4.78791E-04-1.10174E-13
 -1      2505 1.19240E-02-5.21168E-04-1.19184E-13
 -1      2506 1.17811E-02-4.98298E-04-1.16550E-13
 -1      2507 1.17298E-02-5.23985E-04-1.15373E-13
 -1      2508 1.22098E-02-5.67242E-04-1.24494E-13
 -1      2509 1.20670E-02-5.44151E-04-1.21829E-13
 -1      2510 1.20157E-02-5.69721E-04-1.20638E-13
 -1      2511 1.24955E-02-6.13690E-04-1.29856E-13
 -1      2512 1.23527E-02-5.90423E-04-1.27171E-13
 -1      2513 1.23015E-02-6.15902E-04-1.25960E-13
 -1      2514 1.27812E-02-6.60430E-04-1.35260E-13
 -1      2515 1.26384E-02-6.37027E-04-1.32553E-13
 -1      2516 1.25872E-02-6.62436E-04-1.31331E-13
 -1      2517 1.30668E-02-7.07391E-04-1.40696E-13
 -1      2518 1.29240E-02-6.83886E-04-1.37975E-13
 -1      2519 1.28729E-02-7.09243E-04-1.36740E-13
 -1      2520 1.33524E-02-7.54511E-04-1.46154E-13
 -1      2521 1.32096E-02-7.30934E-04-1.43422E-13
 -1      2522 1.31585E-02-7.56255E-04-1.42178E-13
 -1      2523 1.36381E-02-8.01737E-04-1.51636E-13
 -1      2524 1.34953E-02-7.78113E-04-1.48894E-13
 -1      2525 1.34442E-02-8.03412E-04-1.47639E-13
 -1      2526 1.39237E-02-8.49023E-04-1.57139E-13
 -1      2527 1.37809E-02-8.25375E-04-1.54384E-13
 -1      2528 1.37299E-02-8.50663E-04-1.53125E-13
 -1      2529 1.42094E-02-8.96328E-04-1.62662E-13
 -1      2530 1.40666E-02-8.72675E-04-1.59898E-13
 -1      2531 1.40155E-02-8.97963E-04-1.58630E-13
 -1      2532 1.43565E-02-9.19754E-04-1.65520E-13
 -1      2533 1.44605E-02-1.23951E-03-1.64917E-13
 -1      2534 1.44372E-02-1.19733E-03-1.64806E-13
 -1      2535 1.45070E-02-1.32389E-03-1.65131E-13
 -1      2536 1.44837E-02-1.28170E-03-1.65025E-13
 -1      2537 1.43484E-02-1.24008E-03-1.62578E-13
 -1      2538 1.43684E-02-1.07224E-03-1.64467E-13
 -1      2539 1.43453E-02-1.03007E-03-1.64349E-13
 -1      2540 1.44142E-02-1.15551E-03-1.64694E-13
 -1      2541 1.43914E-02-1.11405E-03-1.64581E-13
 -1      2542 1.42561E-02-1.07246E-03-1.62130E-13
 -1      2543 1.43021E-02-1.15609E-03-1.62358E-13
 -1      2544 1.45536E-02-1.40826E-03-1.65337E-13
 -1      2545 1.45303E-02-1.36608E-03-1.65235E-13
 -1      2546 1.43949E-02-1.32443E-03-1.62789E-13
 -1      2547 1.46003E-02-1.49265E-03-1.65541E-13
 -1      2548 1.45770E-02-1.45046E-03-1.65441E-13
 -1      2549 1.44416E-02-1.40878E-03-1.62998E-13
 -1      2550 1.46472E-02-1.57703E-03-1.65736E-13
 -1      2551 1.46237E-02-1.53484E-03-1.65638E-13
 -1      2552 1.44883E-02-1.49314E-03-1.63199E-13
 -1      2553 1.46933E-02-1.65997E-03-1.65917E-13
 -1      2554 1.46702E-02-1.61850E-03-1.65826E-13
 -1      2555 1.45348E-02-1.57678E-03-1.63389E-13
 -1      2556 1.47403E-02-1.74434E-03-1.66101E-13
 -1      2557 1.47168E-02-1.70216E-03-1.66010E-13
 -1      2558 1.45813E-02-1.66042E-03-1.63574E-13
 -1      2559 1.47874E-02-1.82870E-03-1.66279E-13
 -1      2560 1.47639E-02-1.78652E-03-1.66193E-13
 -1      2561 1.46284E-02-1.74477E-03-1.63758E-13
 -1      2562 1.48346E-02-1.91303E-03-1.66452E-13
 -1      2563 1.48110E-02-1.87087E-03-1.66363E-13
 -1      2564 1.46755E-02-1.82911E-03-1.63934E-13
 -1      2565 1.49538E-02-2.00030E-03-1.68104E-13
 -1      2566 7.54634E-03-3.49538E-04-3.39165E-14
 -1      2567 7.51631E-03-3.59394E-04-3.38320E-14
 -1      2568 1.63769E-03 4.34905E-04-2.28366E-15
 -1      2569 1.48904E-03 4.19505E-04-1.87545E-15
 -1      2570 1.69096E-03 4.04174E-04-2.58944E-15
 -1      2571 6.95330E-03-1.59551E-04-3.23748E-14
 -1      2572 7.11883E-03-2.22149E-04-3.29528E-14
 -1      2573 6.54997E-03 3.36561E-05-3.06676E-14
 -1      2574 6.74216E-03-6.29059E-05-3.14223E-14
 -1      2575 6.18553E-03 2.43091E-04-2.89775E-14
 -1      2576 6.34240E-03 1.49070E-04-2.97092E-14
 -1      2577 4.23430E-03 3.70569E-04-1.79393E-14
 -1      2578 4.42400E-03 4.78673E-04-1.87420E-14
 -1      2579 5.09437E-03-1.26704E-03-2.15555E-14
 -1      2580 4.92468E-03-1.18690E-03-2.05450E-14
 -1      2581 3.11199E-03-2.33698E-04-1.49798E-14
 -1      2582 3.01160E-03-2.08690E-04-1.47777E-14
 -1      2583 7.24816E-03-4.42689E-04-3.30763E-14
 -1      2584 7.10054E-03-4.98330E-04-3.26815E-14
 -1      2585 3.81663E-03 1.45204E-04-1.67000E-14
 -1      2586 3.99126E-03 2.37299E-04-1.71553E-14
 -1      2587 5.28416E-04-1.83905E-05-5.44676E-16
 -1      2588 5.29836E-04-2.96887E-05-5.43876E-16
 -1      2589 6.40852E-04-4.25914E-05-7.35401E-16
 -1      2590 6.37234E-04-1.55032E-05-7.37352E-16
 -1      2591 5.48776E-03 6.41769E-04-2.52106E-14
 -1      2592 5.60908E-03 5.80170E-04-2.60215E-14
 -1      2593 2.96667E-03-1.72337E-04-1.48916E-14
 -1      2594 3.02050E-03-1.58363E-04-1.48569E-14
 -1      2595 4.89895E-03 6.96619E-04-2.12182E-14
 -1      2596 5.00561E-03 7.21917E-04-2.19173E-14
 -1      2597 3.15052E-03-1.20848E-04-1.50657E-14
 -1      2598 3.29323E-03-7.77750E-05-1.54774E-14
 -1      2599 3.36075E-03-4.66556E-05-1.51989E-14
 -1      2600 7.46990E-03-3.22072E-04-3.36283E-14
 -1      2601 7.52852E-03-3.34673E-04-3.37561E-14
 -1      2602 7.44479E-03-3.20474E-04-3.44320E-14
 -1      2603 5.17312E-03 7.26995E-04-2.30576E-14
 -1      2604 5.32460E-03 6.98808E-04-2.41196E-14
 -1      2605 5.38594E-03 6.82094E-04-2.46733E-14
 -1      2606 5.79322E-03 4.79628E-04-2.70412E-14
 -1      2607 5.98295E-03 3.63996E-04-2.79980E-14
 -1      2608 6.06232E-03 3.11959E-04-2.88127E-14
 -1      2609 4.59809E-03 5.68651E-04-1.95624E-14
 -1      2610 4.74652E-03 6.41301E-04-2.03542E-14
 -1      2611 4.79400E-03 6.69935E-04-2.04521E-14
 -1      2612 4.49181E-03 5.26646E-04-1.87881E-14
 -1      2613 2.95087E-03-1.89938E-04-1.46690E-14
 -1      2614 2.94199E-03-1.84271E-04-1.47799E-14
 -1      2615 2.93363E-03-1.73895E-04-1.42726E-14
 -1      2616 3.35350E-03-3.13307E-04-1.54386E-14
 -1      2617 3.22092E-03-2.68337E-04-1.52072E-14
 -1      2618 3.13796E-03-2.37067E-04-1.45949E-14
 -1      2619 6.86639E-03-6.03691E-04-3.19039E-14
 -1      2620 6.65809E-03-7.09195E-04-3.09582E-14
 -1      2621 3.80267E-03-5.11984E-04-1.63613E-14
 -1      2622 3.58605E-03-4.07809E-04-1.58410E-14
 -1      2623 4.70064E-03-1.05879E-03-1.94276E-14
 -1      2624 4.50649E-03-9.31654E-04-1.85996E-14
 -1      2625 5.38816E-03-1.31918E-03-2.34932E-14
 -1      2626 5.27071E-03-1.31205E-03-2.26819E-14
 -1      2627 5.70647E-03-1.24020E-03-2.56131E-14
 -1      2628 5.54034E-03-1.29773E-03-2.45026E-14
 -1      2629 6.03420E-03-1.06831E-03-2.75798E-14
 -1      2630 5.89302E-03-1.15109E-03-2.67654E-14
 -1      2631 6.41512E-03-8.42482E-04-2.96215E-14
 -1      2632 6.21678E-03-9.61684E-04-2.85886E-14
 -1      2633 7.44911E-03-3.79646E-04-3.35686E-14
 -1      2634 7.36878E-03-4.01248E-04-3.33379E-14
 -1      2635 7.33100E-03-4.22673E-04-3.40837E-14
 -1      2636 7.50762E-03-3.70428E-04-3.46192E-14
 -1      2637 4.26805E-03-7.79610E-04-1.76344E-14
 -1      2638 4.05458E-03-6.48730E-04-1.69654E-14
 -1      2639 7.76245E-04 2.99536E-04-4.90439E-16
 -1      2640 6.25632E-04 2.56603E-04-3.24285E-16
 -1      2641 5.97740E-04 2.29842E-04-3.35276E-16
 -1      2642 8.32321E-04 2.84144E-04-6.38853E-16
 -1      2643 5.70019E-03 5.30572E-04-2.67960E-14
 -1      2644 6.62312E-04-1.06653E-04-7.07713E-16
 -1      2645 5.50796E-04-9.80012E-05-5.16473E-16
 -1      2646 5.57708E-04-1.15845E-04-5.04113E-16
 -1      2647 5.83441E-04 1.98695E-04-3.72925E-16
 -1      2648 3.69981E-03 9.66010E-05-1.60265E-14
 -1      2649 5.78119E-04-1.52479E-04-4.83839E-16
 -1      2650 6.55167E-03-7.81482E-04-3.08686E-14
 -1      2651 3.91762E-03-5.73394E-04-1.61858E-14
 -1      2652 7.20651E-03-2.54777E-04-3.39893E-14
 -1      2653 1.43055E-02-9.45052E-04-1.64245E-13
 -1      2654 6.45262E-03 8.19030E-05-3.07706E-14
 -1      2655 1.43079E-02-9.75545E-04-1.64037E-13
 -1      2656 6.14356E-03-1.01577E-03-2.85049E-14
 -1      2657 1.48135E-02-1.99061E-03-1.65259E-13
 -1      2658 1.48297E-02-1.94513E-03-1.66041E-13
 -1      2659 1.46942E-02-1.90336E-03-1.63607E-13
 -1      2660 1.46846E-02-1.96753E-03-1.62786E-13
 -1      2661 5.79699E-03-1.20944E-03-2.63242E-14
 -1      2662 5.48571E-03-1.31664E-03-2.41546E-14
 -1      2663 7.55520E-03-3.48466E-04-3.47258E-14
 -1      2664 1.39406E-03 3.73969E-04-1.76257E-15
 -1      2665 6.85629E-03-1.20086E-04-3.27060E-14
 -1      2666 4.81489E-03-1.12964E-03-1.97753E-14
 -1      2667 3.06700E-03-1.40827E-04-1.45861E-14
 -1      2668 3.11769E-03-1.17747E-04-1.43146E-14
 -1      2669 2.99931E-03-1.48980E-04-1.41143E-14
 -1      2670 2.96695E-03-1.92681E-04-1.42686E-14
 -1      2671 1.41958E-02-9.76135E-04-1.61704E-13
 -1      2672 4.37565E-03-8.50924E-04-1.77172E-14
 -1      2673 5.18431E-03-1.29876E-03-2.20104E-14
 -1      2674 4.10668E-03 3.11220E-04-1.72074E-14
 -1      2675 7.00125E-03-5.55434E-04-3.30223E-14
 -1      2676 7.01923E-04 2.16262E-04-5.42359E-16
 -1      2677 1.45924E-02-1.91847E-03-1.61335E-13
 -1      2678 5.08409E-03 7.33057E-04-2.24388E-14
 -1      2679 3.45560E-03-3.46625E-04-1.52069E-14
 -1      2680 3.33688E-03-3.02679E-04-1.45875E-14
 -1      2681 3.54495E-03-3.88113E-04-1.49704E-14
 -1      2682 7.57827E-04 5.36644E-05-9.34948E-16
 -1      2683 7.53303E-04 3.67848E-05-9.44530E-16
 -1      2684 7.49913E-04 2.04446E-05-9.51957E-16
 -1      2685 7.47865E-04 4.72930E-06-9.57513E-16
 -1      2686 8.63296E-04 3.15119E-05-1.20115E-15
 -1      2687 7.87736E-04 1.35535E-04-8.67633E-16
 -1      2688 7.78598E-04 1.12565E-04-8.89425E-16
 -1      2689 8.09882E-04 1.87939E-04-8.11552E-16
 -1      2690 7.98196E-04 1.60588E-04-8.42168E-16
 -1      2691 9.12919E-04 1.64591E-04-1.08976E-15
 -1      2692 5.31858E-03 7.09413E-04-2.42741E-14
 -1      2693 5.45732E-03 6.59410E-04-2.53701E-14
 -1      2694 1.45002E-02-1.86940E-03-1.59885E-13
 -1      2695 1.45972E-02-1.88638E-03-1.61745E-13
 -1      2696 1.46020E-02-1.85430E-03-1.62155E-13
 -1      2697 1.04863E-03-2.59274E-04-1.27415E-15
 -1      2698 1.19397E-03-2.78958E-04-1.61180E-15
 -1      2699 1.15307E-03 3.09414E-04-1.30947E-15
 -1      2700 1.00580E-03 2.85749E-04-1.01347E-15
 -1      2701 2.34351E-03 4.16654E-04-5.15300E-15
 -1      2702 2.19228E-03 4.05541E-04-4.52921E-15
 -1      2703 1.33931E-03-2.95326E-04-1.99114E-15
 -1      2704 1.48491E-03-3.08709E-04-2.41188E-15
 -1      2705 1.24676E-03-2.56433E-04-1.83623E-15
 -1      2706 1.63045E-03-3.19854E-04-2.87350E-15
 -1      2707 1.77623E-03-3.29125E-04-3.37646E-15
 -1      2708 1.53374E-03-2.82040E-04-2.68455E-15
 -1      2709 1.92211E-03-3.37313E-04-3.91992E-15
 -1      2710 2.06842E-03-3.44872E-04-4.50329E-15
 -1      2711 1.82064E-03-2.99853E-04-3.69553E-15
 -1      2712 2.21512E-03-3.52609E-04-5.12692E-15
 -1      2713 2.36263E-03-3.61130E-04-5.79037E-15
 -1      2714 2.10760E-03-3.14101E-04-4.86731E-15
 -1      2715 2.51110E-03-3.71263E-04-6.49310E-15
 -1      2716 2.66104E-03-3.83891E-04-7.23519E-15
 -1      2717 2.39566E-03-3.29507E-04-6.19668E-15
 -1      2718 2.81290E-03-3.99815E-04-8.01646E-15
 -1      2719 2.96734E-03-4.20429E-04-8.83606E-15
 -1      2720 2.68719E-03-3.51559E-04-7.68198E-15
 -1      2721 3.12531E-03-4.46386E-04-9.69355E-15
 -1      2722 3.28748E-03-4.79972E-04-1.05903E-14
 -1      2723 2.98670E-03-3.87041E-04-9.32094E-15
 -1      2724 3.45552E-03-5.21640E-04-1.15251E-14
 -1      2725 3.62937E-03-5.74575E-04-1.24985E-14
 -1      2726 3.30182E-03-4.45333E-04-1.11113E-14
 -1      2727 3.81191E-03-6.38425E-04-1.35112E-14
 -1      2728 4.00045E-03-7.17320E-04-1.45635E-14
 -1      2729 3.64365E-03-5.40187E-04-1.30547E-14
 -1      2730 4.17966E-03-7.70389E-04-1.59267E-14
 -1      2731 4.38454E-03-8.81636E-04-1.70679E-14
 -1      2732 4.97521E-03-1.23225E-03-2.03526E-14
 -1      2733 5.16459E-03-1.30378E-03-2.16742E-14
 -1      2734 5.31553E-03-1.33756E-03-2.28062E-14
 -1      2735 5.50098E-03-1.33451E-03-2.42185E-14
 -1      2736 6.12896E-03-1.10887E-03-2.91784E-14
 -1      2737 6.32934E-03-1.02026E-03-3.07948E-14
 -1      2738 6.52984E-03-9.39450E-04-3.24518E-14
 -1      2739 6.72383E-03-8.71862E-04-3.41508E-14
 -1      2740 6.47028E-03-9.19455E-04-3.16511E-14
 -1      2741 6.91342E-03-8.18877E-04-3.58870E-14
 -1      2742 7.09394E-03-7.78677E-04-3.76593E-14
 -1      2743 6.86382E-03-7.85307E-04-3.50524E-14
 -1      2744 7.26830E-03-7.51669E-04-3.94686E-14
 -1      2745 7.43586E-03-7.34416E-04-4.13133E-14
 -1      2746 7.22247E-03-7.13921E-04-3.86011E-14
 -1      2747 7.59861E-03-7.26646E-04-4.31913E-14
 -1      2748 7.75697E-03-7.25991E-04-4.51032E-14
 -1      2749 7.55048E-03-6.87663E-04-4.22893E-14
 -1      2750 7.91212E-03-7.31864E-04-4.70482E-14
 -1      2751 8.06471E-03-7.42706E-04-4.90234E-14
 -1      2752 7.85869E-03-6.92159E-04-4.61109E-14
 -1      2753 8.21536E-03-7.57862E-04-5.10312E-14
 -1      2754 8.36462E-03-7.76379E-04-5.30692E-14
 -1      2755 8.15561E-03-7.17225E-04-5.00612E-14
 -1      2756 8.51273E-03-7.97645E-04-5.51365E-14
 -1      2757 8.66009E-03-8.21072E-04-5.72336E-14
 -1      2758 8.44680E-03-7.55922E-04-5.41325E-14
 -1      2759 8.80674E-03-8.46153E-04-5.93586E-14
 -1      2760 8.95298E-03-8.72522E-04-6.15124E-14
 -1      2761 8.73536E-03-8.03405E-04-5.83219E-14
 -1      2762 9.09875E-03-8.99793E-04-6.36943E-14
 -1      2763 9.24426E-03-9.27737E-04-6.59038E-14
 -1      2764 9.02284E-03-8.56221E-04-6.26252E-14
 -1      2765 9.38943E-03-9.56084E-04-6.81411E-14
 -1      2766 9.53441E-03-9.84689E-04-7.04049E-14
 -1      2767 9.30990E-03-9.11931E-04-6.70401E-14
 -1      2768 9.67912E-03-1.01338E-03-7.26958E-14
 -1      2769 9.82368E-03-1.04206E-03-7.50110E-14
 -1      2770 9.59680E-03-9.68871E-04-7.15614E-14
 -1      2771 9.96803E-03-1.07063E-03-7.73474E-14
 -1      2772 1.01122E-02-1.09903E-03-7.97086E-14
 -1      2773 9.88360E-03-1.02595E-03-7.61837E-14
 -1      2774 1.02563E-02-1.12722E-03-8.20935E-14
 -1      2775 1.04002E-02-1.15516E-03-8.44999E-14
 -1      2776 1.01703E-02-1.08251E-03-8.08993E-14
 -1      2777 1.05440E-02-1.18283E-03-8.69277E-14
 -1      2778 1.06876E-02-1.21022E-03-8.93729E-14
 -1      2779 1.04569E-02-1.13817E-03-8.57060E-14
 -1      2780 1.08312E-02-1.23734E-03-9.18377E-14
 -1      2781 1.09747E-02-1.26417E-03-9.43225E-14
 -1      2782 1.07433E-02-1.19278E-03-9.05922E-14
 -1      2783 1.11180E-02-1.29073E-03-9.68241E-14
 -1      2784 1.12613E-02-1.31703E-03-9.93439E-14
 -1      2785 1.10296E-02-1.24630E-03-9.55524E-14
 -1      2786 1.14046E-02-1.34308E-03-1.01881E-13
 -1      2787 1.15477E-02-1.36890E-03-1.04436E-13
 -1      2788 1.13158E-02-1.29878E-03-1.00586E-13
 -1      2789 1.16909E-02-1.39450E-03-1.07006E-13
 -1      2790 1.18339E-02-1.41990E-03-1.09593E-13
 -1      2791 1.16019E-02-1.35033E-03-1.05689E-13
 -1      2792 1.19770E-02-1.44511E-03-1.12198E-13
 -1      2793 1.21200E-02-1.47015E-03-1.14814E-13
 -1      2794 1.18878E-02-1.40106E-03-1.10860E-13
 -1      2795 1.22630E-02-1.49504E-03-1.17446E-13
 -1      2796 1.24059E-02-1.51978E-03-1.20093E-13
 -1      2797 1.21738E-02-1.45108E-03-1.16092E-13
 -1      2798 1.25489E-02-1.54440E-03-1.22746E-13
 -1      2799 1.26918E-02-1.56890E-03-1.25415E-13
 -1      2800 1.24596E-02-1.50053E-03-1.21378E-13
 -1      2801 1.28347E-02-1.59331E-03-1.28096E-13
 -1      2802 1.29776E-02-1.61762E-03-1.30783E-13
 -1      2803 1.27454E-02-1.54951E-03-1.26708E-13
 -1      2804 1.31204E-02-1.64186E-03-1.33478E-13
 -1      2805 1.32633E-02-1.66603E-03-1.36184E-13
 -1      2806 1.30312E-02-1.59812E-03-1.32081E-13
 -1      2807 1.34062E-02-1.69013E-03-1.38898E-13
 -1      2808 1.35490E-02-1.71419E-03-1.41615E-13
 -1      2809 1.33169E-02-1.64644E-03-1.37487E-13
 -1      2810 1.36919E-02-1.73820E-03-1.44341E-13
 -1      2811 1.38347E-02-1.76218E-03-1.47071E-13
 -1      2812 1.36027E-02-1.69454E-03-1.42920E-13
 -1      2813 1.39776E-02-1.78613E-03-1.49805E-13
 -1      2814 1.41204E-02-1.81005E-03-1.52544E-13
 -1      2815 1.38884E-02-1.74249E-03-1.48376E-13
 -1      2816 1.42389E-02-1.82779E-03-1.54837E-13
 -1      2817 1.43817E-02-1.85168E-03-1.57585E-13
 -1      2818 1.43866E-02-1.81960E-03-1.57994E-13
 -1      2819 1.41497E-02-1.78416E-03-1.53403E-13
 -1      2820 5.89697E-03-1.17368E-03-2.71710E-14
 -1      2821 5.73484E-03-1.25491E-03-2.60052E-14
 -1      2822 6.28024E-03-9.61372E-04-2.97770E-14
 -1      2823 6.12026E-03-1.05735E-03-2.87421E-14
 -1      2824 2.04201E-03 3.94957E-04-3.94643E-15
 -1      2825 1.89261E-03 3.84384E-04-3.40412E-15
 -1      2826 2.09325E-03 3.61436E-04-4.31653E-15
 -1      2827 2.96177E-03 4.78749E-04-8.05164E-15
 -1      2828 2.80504E-03 4.59424E-04-7.26646E-15
 -1      2829 3.28035E-03 5.27789E-04-9.74272E-15
 -1      2830 3.12038E-03 5.01374E-04-8.87715E-15
 -1      2831 3.01448E-03 4.43569E-04-8.55850E-15
 -1      2832 3.60485E-03 5.92214E-04-1.15941E-14
 -1      2833 3.44214E-03 5.58038E-04-1.06482E-14
 -1      2834 3.33654E-03 4.94032E-04-1.02916E-14
 -1      2835 3.93263E-03 6.70118E-04-1.36093E-14
 -1      2836 3.76877E-03 6.29850E-04-1.25813E-14
 -1      2837 3.66648E-03 5.61444E-04-1.21843E-14
 -1      2838 4.25879E-03 7.52880E-04-1.57936E-14
 -1      2839 4.09639E-03 7.11860E-04-1.46804E-14
 -1      2840 4.00101E-03 6.43861E-04-1.42407E-14
 -1      2841 4.57783E-03 8.23703E-04-1.81534E-14
 -1      2842 4.41939E-03 7.91298E-04-1.69505E-14
 -1      2843 4.33370E-03 7.31172E-04-1.64670E-14
 -1      2844 4.88759E-03 8.60660E-04-2.06919E-14
 -1      2845 4.73351E-03 8.47894E-04-1.94001E-14
 -1      2846 4.65771E-03 8.02969E-04-1.88694E-14
 -1      2847 5.19188E-03 8.46254E-04-2.34143E-14
 -1      2848 5.03950E-03 8.60550E-04-2.20298E-14
 -1      2849 4.97110E-03 8.33484E-04-2.14537E-14
 -1      2850 5.49900E-03 7.77238E-04-2.63196E-14
 -1      2851 5.34422E-03 8.17890E-04-2.48447E-14
 -1      2852 5.28015E-03 8.04425E-04-2.42229E-14
 -1      2853 5.81507E-03 6.67361E-04-2.94040E-14
 -1      2854 5.65565E-03 7.25918E-04-2.78388E-14
 -1      2855 5.59508E-03 7.17550E-04-2.71763E-14
 -1      2856 6.13986E-03 5.38467E-04-3.26591E-14
 -1      2857 5.97666E-03 6.03795E-04-3.10111E-14
 -1      2858 5.92097E-03 5.93550E-04-3.03079E-14
 -1      2859 6.46868E-03 4.10072E-04-3.60764E-14
 -1      2860 6.30431E-03 4.73233E-04-3.43483E-14
 -1      2861 6.25479E-03 4.58145E-04-3.36093E-14
 -1      2862 6.79602E-03 2.94039E-04-3.96436E-14
 -1      2863 6.63298E-03 3.50119E-04-3.78418E-14
 -1      2864 6.58943E-03 3.30488E-04-3.70684E-14
 -1      2865 7.11837E-03 1.94802E-04-4.33474E-14
 -1      2866 6.95809E-03 2.42300E-04-4.14793E-14
 -1      2867 6.91886E-03 2.19558E-04-4.06731E-14
 -1      2868 7.43442E-03 1.12137E-04-4.71853E-14
 -1      2869 7.27729E-03 1.51559E-04-4.52507E-14
 -1      2870 7.24027E-03 1.26972E-04-4.44139E-14
 -1      2871 7.74433E-03 4.35446E-05-5.11424E-14
 -1      2872 7.59015E-03 7.63002E-05-4.91480E-14
 -1      2873 7.55345E-03 5.06757E-05-4.82819E-14
 -1      2874 8.04896E-03-1.41904E-05-5.52192E-14
 -1      2875 7.89727E-03 1.35299E-05-5.31660E-14
 -1      2876 7.85956E-03-1.26910E-05-5.22712E-14
 -1      2877 8.34930E-03-6.41671E-05-5.94070E-14
 -1      2878 8.19961E-03-3.99714E-05-5.72995E-14
 -1      2879 8.16013E-03-6.65502E-05-5.63764E-14
 -1      2880 8.64626E-03-1.09018E-04-6.37049E-14
 -1      2881 8.49815E-03-8.70947E-05-6.15423E-14
 -1      2882 8.45662E-03-1.13881E-04-6.05926E-14
 -1      2883 8.94058E-03-1.50807E-04-6.81075E-14
 -1      2884 8.79370E-03-1.30193E-04-6.58943E-14
 -1      2885 8.75014E-03-1.57074E-04-6.49175E-14
 -1      2886 9.23285E-03-1.91056E-04-7.26054E-14
 -1      2887 9.08693E-03-1.71052E-04-7.03438E-14
 -1      2888 9.04154E-03-1.97937E-04-6.93416E-14
 -1      2889 9.52352E-03-2.30821E-04-7.72012E-14
 -1      2890 9.37835E-03-2.10951E-04-7.48935E-14
 -1      2891 9.33141E-03-2.37768E-04-7.38677E-14
 -1      2892 9.81295E-03-2.70792E-04-8.18782E-14
 -1      2893 9.66836E-03-2.50751E-04-7.95298E-14
 -1      2894 9.62018E-03-2.77449E-04-7.84844E-14
 -1      2895 1.01014E-02-3.11379E-04-8.66355E-14
 -1      2896 9.95727E-03-2.90992E-04-8.42455E-14
 -1      2897 9.90814E-03-3.17537E-04-8.31822E-14
 -1      2898 1.03891E-02-3.52791E-04-9.14697E-14
 -1      2899 1.02453E-02-3.31974E-04-8.90435E-14
 -1      2900 1.01955E-02-3.58350E-04-8.79604E-14
 -1      2901 1.06763E-02-3.95102E-04-9.63856E-14
 -1      2902 1.05327E-02-3.73832E-04-9.39184E-14
 -1      2903 1.04824E-02-4.00038E-04-9.28174E-14
 -1      2904 1.09630E-02-4.38299E-04-1.01379E-13
 -1      2905 1.08197E-02-4.16592E-04-9.88716E-14
 -1      2906 1.07690E-02-4.42634E-04-9.77518E-14
 -1      2907 1.12494E-02-4.82314E-04-1.06452E-13
 -1      2908 1.11062E-02-4.60208E-04-1.03907E-13
 -1      2909 1.10553E-02-4.86101E-04-1.02768E-13
 -1      2910 1.15355E-02-5.27053E-04-1.11598E-13
 -1      2911 1.13925E-02-5.04598E-04-1.09015E-13
 -1      2912 1.13414E-02-5.30358E-04-1.07858E-13
 -1      2913 1.18215E-02-5.72411E-04-1.16814E-13
 -1      2914 1.16785E-02-5.49660E-04-1.14196E-13
 -1      2915 1.16274E-02-5.75306E-04-1.13023E-13
 -1      2916 1.21074E-02-6.18284E-04-1.22092E-13
 -1      2917 1.19644E-02-5.95288E-04-1.19446E-13
 -1      2918 1.19133E-02-6.20839E-04-1.18255E-13
 -1      2919 1.23931E-02-6.64575E-04-1.27424E-13
 -1      2920 1.22503E-02-6.41382E-04-1.24751E-13
 -1      2921 1.21991E-02-6.66855E-04-1.23545E-13
 -1      2922 1.26789E-02-7.11196E-04-1.32804E-13
 -1      2923 1.25360E-02-6.87849E-04-1.30111E-13
 -1      2924 1.24849E-02-7.13260E-04-1.28888E-13
 -1      2925 1.29646E-02-7.58071E-04-1.38216E-13
 -1      2926 1.28217E-02-7.34606E-04-1.35505E-13
 -1      2927 1.27706E-02-7.59969E-04-1.34273E-13
 -1      2928 1.32503E-02-8.05132E-04-1.43657E-13
 -1      2929 1.31074E-02-7.81581E-04-1.40934E-13
 -1      2930 1.30563E-02-8.06910E-04-1.39690E-13
 -1      2931 1.35360E-02-8.52324E-04-1.49124E-13
 -1      2932 1.33931E-02-8.28715E-04-1.46387E-13
 -1      2933 1.33421E-02-8.54020E-04-1.45135E-13
 -1      2934 1.38217E-02-8.99598E-04-1.54608E-13
 -1      2935 1.36788E-02-8.75954E-04-1.51864E-13
 -1      2936 1.36278E-02-9.01246E-04-1.50603E-13
 -1      2937 1.40801E-02-9.49692E-04-1.59530E-13
 -1      2938 1.39373E-02-9.26033E-04-1.56774E-13
 -1      2939 1.38862E-02-9.51322E-04-1.55508E-13
 -1      2940 1.41175E-02-1.00421E-03-1.59842E-13
 -1      2941 6.35416E-03 1.39185E-04-3.08472E-14
 -1      2942 6.54175E-03 3.54855E-05-3.18265E-14
 -1      2943 1.43295E-02-1.40929E-03-1.60659E-13
 -1      2944 1.43061E-02-1.36712E-03-1.60556E-13
 -1      2945 1.42363E-02-1.24062E-03-1.60244E-13
 -1      2946 1.42130E-02-1.19846E-03-1.60137E-13
 -1      2947 1.43763E-02-1.49363E-03-1.60858E-13
 -1      2948 1.43529E-02-1.45146E-03-1.60760E-13
 -1      2949 1.42174E-02-1.40979E-03-1.58324E-13
 -1      2950 1.42828E-02-1.32496E-03-1.60452E-13
 -1      2951 1.42595E-02-1.28279E-03-1.60348E-13
 -1      2952 1.41242E-02-1.24117E-03-1.57913E-13
 -1      2953 1.41707E-02-1.32548E-03-1.58119E-13
 -1      2954 5.01303E-03 7.36333E-04-2.18833E-14
 -1      2955 5.15891E-03 7.37488E-04-2.30240E-14
 -1      2956 1.44224E-02-1.57653E-03-1.61046E-13
 -1      2957 1.43993E-02-1.53508E-03-1.60954E-13
 -1      2958 1.42639E-02-1.49338E-03-1.58520E-13
 -1      2959 1.44694E-02-1.66086E-03-1.61234E-13
 -1      2960 1.44458E-02-1.61870E-03-1.61140E-13
 -1      2961 1.43104E-02-1.57698E-03-1.58710E-13
 -1      2962 1.45164E-02-1.74519E-03-1.61417E-13
 -1      2963 1.44929E-02-1.70303E-03-1.61325E-13
 -1      2964 1.43574E-02-1.66129E-03-1.58895E-13
 -1      2965 1.45784E-02-1.81214E-03-1.62072E-13
 -1      2966 1.74389E-03 3.73098E-04-2.90273E-15
 -1      2967 1.59568E-03 3.60638E-04-2.44294E-15
 -1      2968 1.79612E-03 3.41777E-04-3.22397E-15
 -1      2969 4.78767E-03-1.12500E-03-1.92424E-14
 -1      2970 2.90699E-03-1.69322E-04-1.37113E-14
 -1      2971 2.92920E-03-1.64008E-04-1.38198E-14
 -1      2972 6.93496E-04-1.66051E-04-6.72409E-16
 -1      2973 3.98657E-03-6.22212E-04-1.59104E-14
 -1      2974 3.76881E-03-4.99373E-04-1.53362E-14
 -1      2975 2.64971E-03 4.43026E-04-6.52177E-15
 -1      2976 2.49600E-03 4.28955E-04-5.81730E-15
 -1      2977 2.39425E-03 3.81784E-04-5.57045E-15
 -1      2978 2.70077E-03 4.07573E-04-6.98481E-15
 -1      2979 7.15627E-03-5.12266E-04-3.45599E-14
 -1      2980 6.95808E-03-6.03992E-04-3.37532E-14
 -1      2981 6.75353E-03-6.96100E-05-3.29792E-14
 -1      2982 6.94624E-03-1.53518E-04-3.39557E-14
 -1      2983 1.44791E-03 3.46222E-04-2.02425E-15
 -1      2984 1.30032E-03 3.29421E-04-1.64623E-15
 -1      2985 1.20853E-03 2.86218E-04-1.52746E-15
 -1      2986 1.50150E-03 3.18204E-04-2.29410E-15
 -1      2987 3.16926E-03-2.45435E-04-1.40542E-14
 -1      2988 3.07257E-03-2.18965E-04-1.38393E-14
 -1      2989 6.73000E-03-7.10088E-04-3.24235E-14
 -1      2990 6.50943E-03-8.23925E-04-3.10538E-14
 -1      2991 6.47286E-03-8.80483E-04-3.12975E-14
 -1      2992 6.91311E-03-6.48737E-04-3.39434E-14
 -1      2993 7.70535E-04 9.14637E-05-9.07301E-16
 -1      2994 7.63626E-04 7.18711E-05-9.22548E-16
 -1      2995 8.74469E-04 7.00853E-05-1.17736E-15
 -1      2996 8.91098E-04 1.13775E-04-1.14110E-15
 -1      2997 2.97550E-03-1.92340E-04-1.36986E-14
 -1      2998 2.91793E-03-1.79748E-04-1.35964E-14
 -1      2999 3.27522E-03-6.16495E-05-1.44974E-14
 -1      3000 3.42502E-03-9.20714E-06-1.48993E-14
 -1      3001 7.42731E-03-3.19925E-04-3.53217E-14
 -1      3002 7.50613E-03-3.36659E-04-3.54572E-14
 -1      3003 7.58994E-04-7.44059E-05-9.51536E-16
 -1      3004 7.65600E-04-9.24640E-05-9.43175E-16
 -1      3005 7.17360E-03-2.42947E-04-3.48051E-14
 -1      3006 7.31156E-03-2.87494E-04-3.51218E-14
 -1      3007 8.17242E-04 2.38213E-04-7.17972E-16
 -1      3008 5.99196E-03 3.58066E-04-2.88321E-14
 -1      3009 6.16954E-03 2.47007E-04-2.98301E-14
 -1      3010 6.27697E-03 1.94594E-04-3.08630E-14
 -1      3011 3.95577E-03 2.52350E-04-1.62403E-14
 -1      3012 4.16490E-03 3.71651E-04-1.69933E-14
 -1      3013 7.56159E-03-3.50809E-04-3.56221E-14
 -1      3014 7.58047E-03-3.58536E-04-3.57845E-14
 -1      3015 7.56424E-03-3.50256E-04-3.65215E-14
 -1      3016 5.63028E-03-1.30448E-03-2.52498E-14
 -1      3017 5.65720E-03 5.63312E-04-2.68388E-14
 -1      3018 5.81496E-03 4.68325E-04-2.78818E-14
 -1      3019 3.58207E-03 5.71505E-05-1.52980E-14
 -1      3020 3.74496E-03 1.36385E-04-1.57036E-14
 -1      3021 3.47104E-03 3.36165E-05-1.45878E-14
 -1      3022 4.58486E-03-1.00966E-03-1.80148E-14
 -1      3023 7.73693E-04-1.11936E-04-9.32021E-16
 -1      3024 7.83159E-04-1.33159E-04-9.17438E-16
 -1      3025 8.84581E-04-1.14263E-04-1.18867E-15
 -1      3026 8.58261E-04-3.92976E-06-1.21399E-15
 -1      3027 7.47187E-04-1.06646E-05-9.60617E-16
 -1      3028 7.47938E-04-2.59813E-05-9.61823E-16
 -1      3029 5.57681E-03 6.13028E-04-2.64136E-14
 -1      3030 5.23763E-03 7.32219E-04-2.36864E-14
 -1      3031 2.98757E-03-2.00214E-04-1.31742E-14
 -1      3032 7.55531E-03-3.71907E-04-3.57456E-14
 -1      3033 7.49769E-03-3.84656E-04-3.54737E-14
 -1      3034 3.98861E-03-6.46035E-04-1.54110E-14
 -1      3035 2.88440E-03-1.69408E-04-1.31534E-14
 -1      3036 5.92976E-03 4.08758E-04-2.88741E-14
 -1      3037 5.73323E-03-1.28311E-03-2.60693E-14
 -1      3038 5.92491E-03-1.21002E-03-2.75935E-14
 -1      3039 4.18093E-03 4.21784E-04-1.66892E-14
 -1      3040 4.34259E-03 4.78137E-04-1.76835E-14
 -1      3041 1.41405E-02-1.04601E-03-1.59961E-13
 -1      3042 1.40248E-02-1.01956E-03-1.57793E-13
 -1      3043 1.41635E-02-1.08781E-03-1.60075E-13
 -1      3044 1.44147E-02-1.79500E-03-1.58816E-13
 -1      3045 1.44882E-02-1.76981E-03-1.60592E-13
 -1      3046 1.43527E-02-1.72807E-03-1.58162E-13
 -1      3047 1.42963E-02-1.77728E-03-1.56518E-13
 -1      3048 7.08142E-03-2.02190E-04-3.50836E-14
 -1      3049 7.20544E-03-2.37679E-04-3.62254E-14
 -1      3050 6.99828E-03-1.55083E-04-3.53565E-14
 -1      3051 4.88228E-03 7.16604E-04-2.09155E-14
 -1      3052 4.96052E-03 7.40649E-04-2.14691E-14
 -1      3053 2.94730E-03-1.49532E-04-1.35555E-14
 -1      3054 6.04715E-03-1.12236E-03-2.84028E-14
 -1      3055 8.02252E-04-1.61938E-04-9.06501E-16
 -1      3056 8.30963E-04-2.09031E-04-8.73948E-16
 -1      3057 9.64556E-04-2.37220E-04-1.11971E-15
 -1      3058 9.15513E-04-1.66509E-04-1.16298E-15
 -1      3059 3.07772E-03-1.03676E-04-1.35597E-14
 -1      3060 3.17064E-03-8.79938E-05-1.40246E-14
 -1      3061 3.21758E-03-5.19188E-05-1.37325E-14
 -1      3062 6.65875E-03-1.11123E-05-3.30531E-14
 -1      3063 7.32016E-03-4.53179E-04-3.54142E-14
 -1      3064 7.28345E-03-5.00157E-04-3.61659E-14
 -1      3065 3.24110E-03-2.75972E-04-1.38255E-14
 -1      3066 4.75602E-03 6.70770E-04-2.00617E-14
 -1      3067 1.41997E-02-1.16404E-03-1.60163E-13
 -1      3068 1.41767E-02-1.12223E-03-1.60051E-13
 -1      3069 1.40611E-02-1.09577E-03-1.57887E-13
 -1      3070 1.40876E-02-1.16460E-03-1.57836E-13
 -1      3071 8.76183E-04 2.23533E-04-8.75127E-16
 -1      3072 9.92937E-04 2.28094E-04-1.13258E-15
 -1      3073 7.50150E-04-4.14781E-05-9.60657E-16
 -1      3074 7.53825E-04-5.75509E-05-9.56971E-16
 -1      3075 8.68761E-04-7.42390E-05-1.20845E-15
 -1      3076 8.59987E-04-3.83538E-05-1.21658E-15
 -1      3077 7.40228E-03-3.09308E-04-3.61507E-14
 -1      3078 3.62830E-03-4.36322E-04-1.47078E-14
 -1      3079 3.49477E-03-3.85438E-04-1.40935E-14
 -1      3080 3.69234E-03-4.87073E-04-1.44389E-14
 -1      3081 4.49257E-03 5.58048E-04-1.84738E-14
 -1      3082 1.02051E-03-2.19758E-04-1.30453E-15
 -1      3083 3.82083E-03 2.07547E-04-1.54985E-14
 -1      3084 7.59575E-03-3.71625E-04-3.66496E-14
 -1      3085 7.41896E-03-4.18971E-04-3.56914E-14
 -1      3086 1.04121E-03 1.94523E-04-1.33579E-15
 -1      3087 1.02719E-03 1.64884E-04-1.37084E-15
 -1      3088 7.49817E-03-4.15702E-04-3.68253E-14
 -1      3089 3.64799E-03 1.55314E-04-1.45539E-14
 -1      3090 3.82805E-03 2.58047E-04-1.50593E-14
 -1      3091 2.84955E-03-1.64590E-04-1.24420E-14
 -1      3092 2.84471E-03-1.55526E-04-1.25541E-14
 -1      3093 1.44022E-03-2.46198E-04-2.49640E-15
 -1      3094 1.58154E-03-2.56061E-04-2.96432E-15
 -1      3095 1.72254E-03-2.64438E-04-3.47223E-15
 -1      3096 1.86340E-03-2.71588E-04-4.02064E-15
 -1      3097 1.62819E-03-2.30829E-04-3.25076E-15
 -1      3098 2.00389E-03-2.78154E-04-4.60843E-15
 -1      3099 2.14433E-03-2.84497E-04-5.23538E-15
 -1      3100 1.90448E-03-2.44388E-04-4.35115E-15
 -1      3101 2.28460E-03-2.91267E-04-5.90134E-15
 -1      3102 2.42520E-03-2.98978E-04-6.60625E-15
 -1      3103 2.17867E-03-2.56087E-04-5.60793E-15
 -1      3104 2.56619E-03-3.08244E-04-7.34951E-15
 -1      3105 2.70843E-03-3.19895E-04-8.13130E-15
 -1      3106 2.45132E-03-2.69479E-04-7.01944E-15
 -1      3107 2.85221E-03-3.34395E-04-8.95045E-15
 -1      3108 2.99900E-03-3.53363E-04-9.80737E-15
 -1      3109 2.72465E-03-2.88606E-04-8.58283E-15
 -1      3110 3.14958E-03-3.77094E-04-1.07015E-14
 -1      3111 3.30592E-03-4.08691E-04-1.16335E-14
 -1      3112 3.00385E-03-3.18677E-04-1.02955E-14
 -1      3113 1.03708E-03-2.01292E-04-1.39530E-15
 -1      3114 1.11890E-03-2.19697E-04-1.57203E-15
 -1      3115 1.26053E-03-2.34913E-04-1.94617E-15
 -1      3116 1.01281E-03-1.67523E-04-1.41223E-15
 -1      3117 4.01760E-03 3.73043E-04-1.56811E-14
 -1      3118 4.17390E-03 4.67732E-04-1.63327E-14
 -1      3119 4.59534E-03 6.34102E-04-1.88991E-14
 -1      3120 7.19378E-03-6.65477E-04-3.77410E-14
 -1      3121 7.35854E-03-6.47775E-04-3.95524E-14
 -1      3122 7.51588E-03-6.40915E-04-4.13965E-14
 -1      3123 7.66770E-03-6.40612E-04-4.32743E-14
 -1      3124 7.49016E-03-5.92420E-04-4.05046E-14
 -1      3125 7.81528E-03-6.46905E-04-4.51855E-14
 -1      3126 7.96022E-03-6.57549E-04-4.71280E-14
 -1      3127 7.77839E-03-6.01703E-04-4.42602E-14
 -1      3128 8.10309E-03-6.72304E-04-4.91008E-14
 -1      3129 8.24494E-03-6.90081E-04-5.11040E-14
 -1      3130 8.05546E-03-6.28492E-04-4.81436E-14
 -1      3131 8.38595E-03-7.10490E-04-5.31379E-14
 -1      3132 8.52676E-03-7.32960E-04-5.52011E-14
 -1      3133 8.32892E-03-6.66630E-04-5.21466E-14
 -1      3134 8.66736E-03-7.57083E-04-5.72939E-14
 -1      3135 8.80811E-03-7.82538E-04-5.94156E-14
 -1      3136 8.60244E-03-7.12432E-04-5.62684E-14
 -1      3137 8.94892E-03-8.08964E-04-6.15637E-14
 -1      3138 9.09002E-03-8.36170E-04-6.37405E-14
 -1      3139 8.87756E-03-7.63278E-04-6.05052E-14
 -1      3140 9.23125E-03-8.63872E-04-6.59454E-14
 -1      3141 9.37278E-03-8.91952E-04-6.81762E-14
 -1      3142 9.15472E-03-8.17190E-04-6.48532E-14
 -1      3143 9.51446E-03-9.20203E-04-7.04338E-14
 -1      3144 9.65638E-03-9.48554E-04-7.27178E-14
 -1      3145 9.43384E-03-8.72689E-04-6.93096E-14
 -1      3146 9.79842E-03-9.76866E-04-7.50250E-14
 -1      3147 9.94066E-03-1.00510E-03-7.73556E-14
 -1      3148 9.71465E-03-9.28718E-04-7.38687E-14
 -1      3149 1.00830E-02-1.03317E-03-7.97108E-14
 -1      3150 1.02255E-02-1.06105E-03-8.20882E-14
 -1      3151 9.99681E-03-9.84566E-04-7.85259E-14
 -1      3152 1.03680E-02-1.08869E-03-8.44881E-14
 -1      3153 1.05106E-02-1.11610E-03-8.69088E-14
 -1      3154 1.02800E-02-1.03979E-03-8.32747E-14
 -1      3155 1.06533E-02-1.14325E-03-8.93466E-14
 -1      3156 1.07960E-02-1.17015E-03-9.18045E-14
 -1      3157 1.05640E-02-1.09417E-03-8.81055E-14
 -1      3158 1.09388E-02-1.19678E-03-9.42815E-14
 -1      3159 1.10816E-02-1.22316E-03-9.67772E-14
 -1      3160 1.08485E-02-1.14759E-03-9.30152E-14
 -1      3161 1.12244E-02-1.24931E-03-9.92897E-14
 -1      3162 1.13673E-02-1.27522E-03-1.01822E-13
 -1      3163 1.11334E-02-1.20007E-03-9.79986E-14
 -1      3164 1.15101E-02-1.30091E-03-1.04369E-13
 -1      3165 1.16530E-02-1.32640E-03-1.06935E-13
 -1      3166 1.14187E-02-1.25167E-03-1.03054E-13
 -1      3167 1.17959E-02-1.35170E-03-1.09520E-13
 -1      3168 1.19387E-02-1.37682E-03-1.12118E-13
 -1      3169 1.17041E-02-1.30247E-03-1.08182E-13
 -1      3170 1.20816E-02-1.40179E-03-1.14733E-13
 -1      3171 1.22245E-02-1.42661E-03-1.17361E-13
 -1      3172 1.19896E-02-1.35258E-03-1.13375E-13
 -1      3173 1.23674E-02-1.45129E-03-1.20000E-13
 -1      3174 1.25103E-02-1.47586E-03-1.22653E-13
 -1      3175 1.22753E-02-1.40211E-03-1.18625E-13
 -1      3176 1.26532E-02-1.50032E-03-1.25317E-13
 -1      3177 1.27960E-02-1.52469E-03-1.27993E-13
 -1      3178 1.25610E-02-1.45117E-03-1.23928E-13
 -1      3179 1.29389E-02-1.54897E-03-1.30677E-13
 -1      3180 1.30818E-02-1.57318E-03-1.33369E-13
 -1      3181 1.28467E-02-1.49985E-03-1.29273E-13
 -1      3182 1.32247E-02-1.59732E-03-1.36068E-13
 -1      3183 1.33675E-02-1.62141E-03-1.38777E-13
 -1      3184 1.31324E-02-1.54823E-03-1.34655E-13
 -1      3185 1.35104E-02-1.64545E-03-1.41493E-13
 -1      3186 1.36533E-02-1.66945E-03-1.44212E-13
 -1      3187 1.34182E-02-1.59637E-03-1.40064E-13
 -1      3188 1.37962E-02-1.69341E-03-1.46938E-13
 -1      3189 1.39390E-02-1.71735E-03-1.49669E-13
 -1      3190 1.37039E-02-1.64435E-03-1.45499E-13
 -1      3191 3.39174E-03 4.58111E-04-1.08425E-14
 -1      3192 3.22750E-03 4.29998E-04-9.93585E-15
 -1      3193 3.06571E-03 4.06548E-04-9.06877E-15
 -1      3194 2.90682E-03 3.86911E-04-8.24091E-15
 -1      3195 3.11537E-03 3.67543E-04-9.58195E-15
 -1      3196 4.07071E-03 6.16911E-04-1.48726E-14
 -1      3197 3.89939E-03 5.71229E-04-1.38031E-14
 -1      3198 4.41106E-03 7.10753E-04-1.71400E-14
 -1      3199 4.24198E-03 6.64756E-04-1.59850E-14
 -1      3200 4.14099E-03 5.91178E-04-1.55053E-14
 -1      3201 4.74066E-03 7.84585E-04-1.95860E-14
 -1      3202 4.57751E-03 7.52530E-04-1.83403E-14
 -1      3203 4.48939E-03 6.93454E-04-1.78136E-14
 -1      3204 5.05743E-03 8.07546E-04-2.22161E-14
 -1      3205 4.89959E-03 8.04515E-04-2.08779E-14
 -1      3206 4.82400E-03 7.69328E-04-2.03032E-14
 -1      3207 5.37165E-03 7.60107E-04-2.50342E-14
 -1      3208 5.21326E-03 7.92463E-04-2.36017E-14
 -1      3209 5.14529E-03 7.80113E-04-2.29805E-14
 -1      3210 5.69574E-03 6.52062E-04-2.80367E-14
 -1      3211 5.53161E-03 7.11541E-04-2.65128E-14
 -1      3212 5.46782E-03 7.08916E-04-2.58478E-14
 -1      3213 6.03271E-03 5.13670E-04-3.12171E-14
 -1      3214 5.86300E-03 5.84367E-04-2.96049E-14
 -1      3215 5.80428E-03 5.78123E-04-2.89015E-14
 -1      3216 6.37552E-03 3.73646E-04-3.45631E-14
 -1      3217 6.20429E-03 4.42196E-04-3.28696E-14
 -1      3218 6.15350E-03 4.27197E-04-3.21304E-14
 -1      3219 6.71473E-03 2.49364E-04-3.80643E-14
 -1      3220 6.54634E-03 3.09091E-04-3.62953E-14
 -1      3221 6.50380E-03 2.86470E-04-3.55219E-14
 -1      3222 7.04448E-03 1.45470E-04-4.17046E-14
 -1      3223 6.88113E-03 1.94948E-04-3.98671E-14
 -1      3224 6.84494E-03 1.68512E-04-3.90629E-14
 -1      3225 7.36338E-03 6.05947E-05-4.54817E-14
 -1      3226 7.20536E-03 1.00951E-04-4.35775E-14
 -1      3227 7.17258E-03 7.32811E-05-4.27418E-14
 -1      3228 7.67258E-03-8.95600E-06-4.93813E-14
 -1      3229 7.51912E-03 2.42243E-05-4.74166E-14
 -1      3230 7.48717E-03-3.31547E-06-4.65514E-14
 -1      3231 7.97424E-03-6.71281E-05-5.34018E-14
 -1      3232 7.82423E-03-3.91984E-05-5.13761E-14
 -1      3233 7.79131E-03-6.61974E-05-5.04835E-14
 -1      3234 8.27050E-03-1.17332E-04-5.75361E-14
 -1      3235 8.12293E-03-9.30220E-05-5.54549E-14
 -1      3236 8.08800E-03-1.19517E-04-5.45343E-14
 -1      3237 8.56309E-03-1.62298E-04-6.17798E-14
 -1      3238 8.41716E-03-1.40320E-04-5.96447E-14
 -1      3239 8.37976E-03-1.66478E-04-5.86983E-14
 -1      3240 8.85327E-03-2.04109E-04-6.61306E-14
 -1      3241 8.70841E-03-1.83492E-04-6.39418E-14
 -1      3242 8.66849E-03-2.09464E-04-6.29696E-14
 -1      3243 9.14189E-03-2.44289E-04-7.05799E-14
 -1      3244 8.99772E-03-2.24330E-04-6.83438E-14
 -1      3245 8.95546E-03-2.50217E-04-6.73436E-14
 -1      3246 9.42952E-03-2.83904E-04-7.51293E-14
 -1      3247 9.28579E-03-2.64119E-04-7.28418E-14
 -1      3248 9.24147E-03-2.89970E-04-7.18202E-14
 -1      3249 9.71652E-03-3.23660E-04-7.97681E-14
 -1      3250 9.57307E-03-3.03734E-04-7.74385E-14
 -1      3251 9.52704E-03-3.29566E-04-7.63922E-14
 -1      3252 1.00031E-02-3.63990E-04-8.44868E-14
 -1      3253 9.85985E-03-3.43737E-04-8.21168E-14
 -1      3254 9.81243E-03-3.69546E-04-8.10524E-14
 -1      3255 1.02895E-02-4.05125E-04-8.92867E-14
 -1      3256 1.01463E-02-3.84449E-04-8.68778E-14
 -1      3257 1.00978E-02-4.10225E-04-8.57945E-14
 -1      3258 1.05756E-02-4.47158E-04-9.41642E-14
 -1      3259 1.04325E-02-4.26028E-04-9.17142E-14
 -1      3260 1.03832E-02-4.51760E-04-9.06137E-14
 -1      3261 1.08616E-02-4.90089E-04-9.91187E-14
 -1      3262 1.07186E-02-4.68514E-04-9.66319E-14
 -1      3263 1.06687E-02-4.94194E-04-9.55108E-14
 -1      3264 1.11476E-02-5.33861E-04-1.04156E-13
 -1      3265 1.10046E-02-5.11875E-04-1.01629E-13
 -1      3266 1.09543E-02-5.37498E-04-1.00490E-13
 -1      3267 1.14335E-02-5.78384E-04-1.09266E-13
 -1      3268 1.12905E-02-5.56034E-04-1.06701E-13
 -1      3269 1.12399E-02-5.81600E-04-1.05546E-13
 -1      3270 1.17193E-02-6.23556E-04-1.14448E-13
 -1      3271 1.15764E-02-6.00895E-04-1.11847E-13
 -1      3272 1.15255E-02-6.26406E-04-1.10674E-13
 -1      3273 1.20051E-02-6.69274E-04-1.19696E-13
 -1      3274 1.18622E-02-6.46353E-04-1.17065E-13
 -1      3275 1.18112E-02-6.71813E-04-1.15875E-13
 -1      3276 1.22909E-02-7.15438E-04-1.24998E-13
 -1      3277 1.21480E-02-6.92305E-04-1.22342E-13
 -1      3278 1.20970E-02-7.17720E-04-1.21137E-13
 -1      3279 1.25766E-02-7.61958E-04-1.30349E-13
 -1      3280 1.24338E-02-7.38658E-04-1.27668E-13
 -1      3281 1.23827E-02-7.64033E-04-1.26451E-13
 -1      3282 1.28624E-02-8.08755E-04-1.35739E-13
 -1      3283 1.27195E-02-7.85326E-04-1.33040E-13
 -1      3284 1.26684E-02-8.10669E-04-1.31808E-13
 -1      3285 1.31481E-02-8.55762E-04-1.41164E-13
 -1      3286 1.30053E-02-8.32236E-04-1.38447E-13
 -1      3287 1.29542E-02-8.57554E-04-1.37205E-13
 -1      3288 1.34339E-02-9.02919E-04-1.46611E-13
 -1      3289 1.32910E-02-8.79324E-04-1.43882E-13
 -1      3290 1.32399E-02-9.04625E-04-1.42633E-13
 -1      3291 1.37196E-02-9.50177E-04-1.52082E-13
 -1      3292 1.35767E-02-9.26538E-04-1.49344E-13
 -1      3293 1.35257E-02-9.51828E-04-1.48083E-13
 -1      3294 1.39300E-02-9.98083E-04-1.56016E-13
 -1      3295 1.38144E-02-9.71642E-04-1.53854E-13
 -1      3296 1.37634E-02-9.96929E-04-1.52588E-13
 -1      3297 1.39530E-02-1.03988E-03-1.56134E-13
 -1      3298 2.98403E-03-2.07632E-04-1.25295E-14
 -1      3299 2.90096E-03-1.84599E-04-1.23997E-14
 -1      3300 1.15807E-03 2.56797E-04-1.47697E-15
 -1      3301 1.08841E-03 2.20557E-04-1.39156E-15
 -1      3302 1.20366E-03 2.18272E-04-1.71261E-15
 -1      3303 1.30325E-03 2.73886E-04-1.83406E-15
 -1      3304 1.41054E-02-1.41027E-03-1.55993E-13
 -1      3305 1.40820E-02-1.36813E-03-1.55892E-13
 -1      3306 1.42454E-02-1.66171E-03-1.56561E-13
 -1      3307 1.42219E-02-1.61956E-03-1.56469E-13
 -1      3308 1.41514E-02-1.49313E-03-1.56185E-13
 -1      3309 1.41284E-02-1.45170E-03-1.56089E-13
 -1      3310 1.39930E-02-1.41003E-03-1.53663E-13
 -1      3311 7.57308E-03-3.50141E-04-3.76580E-14
 -1      3312 7.62192E-03-3.62195E-04-3.78276E-14
 -1      3313 1.84764E-03 3.10144E-04-3.55237E-15
 -1      3314 1.70092E-03 3.00672E-04-3.04230E-15
 -1      3315 1.41984E-02-1.57742E-03-1.56376E-13
 -1      3316 1.41749E-02-1.53527E-03-1.56282E-13
 -1      3317 1.40394E-02-1.49357E-03-1.53855E-13
 -1      3318 1.40864E-02-1.57784E-03-1.54046E-13
 -1      3319 2.88667E-03-1.41884E-04-1.27865E-14
 -1      3320 2.95943E-03-1.28327E-04-1.30692E-14
 -1      3321 3.72807E-03 5.28751E-04-1.27754E-14
 -1      3322 3.55900E-03 4.90936E-04-1.17887E-14
 -1      3323 3.44588E-03 4.20149E-04-1.13959E-14
 -1      3324 3.78953E-03 4.94997E-04-1.33685E-14
 -1      3325 2.14336E-03 3.27418E-04-4.69297E-15
 -1      3326 1.99505E-03 3.18895E-04-4.10269E-15
 -1      3327 1.89820E-03 2.78168E-04-3.88813E-15
 -1      3328 6.67646E-03-8.00333E-04-3.29725E-14
 -1      3329 5.51454E-03 6.68010E-04-2.61479E-14
 -1      3330 5.69244E-03 5.82797E-04-2.76461E-14
 -1      3331 3.31210E-03-3.13971E-04-1.34814E-14
 -1      3332 3.15197E-03-2.60855E-04-1.29730E-14
 -1      3333 7.37173E-03-5.23528E-04-3.78617E-14
 -1      3334 7.22755E-03-5.77950E-04-3.69757E-14
 -1      3335 4.91520E-03 7.56450E-04-2.10654E-14
 -1      3336 5.03470E-03 7.64458E-04-2.20418E-14
 -1      3337 9.78571E-04 4.43184E-05-1.47874E-15
 -1      3338 9.73654E-04 2.41032E-05-1.48940E-15
 -1      3339 6.56949E-03 5.63064E-05-3.32780E-14
 -1      3340 6.76131E-03-3.70737E-05-3.44562E-14
 -1      3341 7.40238E-03-3.01804E-04-3.72437E-14
 -1      3342 7.49889E-03-3.29780E-04-3.74517E-14
 -1      3343 7.58443E-03-3.45235E-04-3.87689E-14
 -1      3344 5.92229E-03 4.36971E-04-2.92002E-14
 -1      3345 6.07882E-03 3.33868E-04-3.01814E-14
 -1      3346 3.37444E-03 3.02914E-05-1.37940E-14
 -1      3347 3.51142E-03 8.88141E-05-1.41724E-14
 -1      3348 3.52984E-03 1.44959E-04-1.37529E-14
 -1      3349 5.19992E-03 7.54326E-04-2.34179E-14
 -1      3350 5.34498E-03 7.23425E-04-2.46815E-14
 -1      3351 7.63792E-03-3.74634E-04-3.77992E-14
 -1      3352 7.62002E-03-3.86142E-04-3.77583E-14
 -1      3353 6.23768E-03 2.39176E-04-3.11922E-14
 -1      3354 6.40266E-03 1.44501E-04-3.22344E-14
 -1      3355 6.52671E-03 1.08213E-04-3.36121E-14
 -1      3356 6.21631E-03 2.81148E-04-3.15274E-14
 -1      3357 7.58544E-03-4.08982E-04-3.79806E-14
 -1      3358 7.53222E-03-4.40533E-04-3.81963E-14
 -1      3359 7.65871E-03-4.08747E-04-3.91468E-14
 -1      3360 4.45290E-03 6.00726E-04-1.78647E-14
 -1      3361 4.69106E-03 6.94773E-04-1.94240E-14
 -1      3362 9.70572E-04 4.63263E-06-1.49704E-15
 -1      3363 9.69468E-04-1.43960E-05-1.50161E-15
 -1      3364 1.08424E-03 1.46976E-05-1.80838E-15
 -1      3365 2.82339E-03-1.38791E-04-1.20869E-14
 -1      3366 9.93480E-04 8.78559E-05-1.44706E-15
 -1      3367 9.85240E-04 6.54587E-05-1.46468E-15
 -1      3368 1.09581E-03 5.84789E-05-1.78338E-15
 -1      3369 3.83568E-03-5.78382E-04-1.45737E-14
 -1      3370 3.34723E-03-3.77682E-04-1.24863E-14
 -1      3371 3.52254E-03-4.60783E-04-1.29405E-14
 -1      3372 1.31240E-03-2.13315E-04-2.18071E-15
 -1      3373 3.69875E-03-5.18828E-04-1.39593E-14
 -1      3374 3.15789E-03-2.67150E-05-1.28800E-14
 -1      3375 3.26292E-03-2.32892E-06-1.33331E-14
 -1      3376 3.29238E-03 5.12814E-05-1.29312E-14
 -1      3377 7.06703E-03-6.54698E-04-3.60617E-14
 -1      3378 7.26903E-03-2.36451E-04-3.78063E-14
 -1      3379 7.33541E-03-2.72245E-04-3.75276E-14
 -1      3380 7.45295E-03-2.97186E-04-3.88453E-14
 -1      3381 6.88790E-03-6.96550E-04-3.43165E-14
 -1      3382 1.39653E-02-1.68603E-03-1.50512E-13
 -1      3383 1.40575E-02-1.73509E-03-1.51955E-13
 -1      3384 1.41759E-02-1.75282E-03-1.54248E-13
 -1      3385 2.29278E-03 3.36278E-04-5.32327E-15
 -1      3386 2.19216E-03 2.92835E-04-5.07613E-15
 -1      3387 2.44352E-03 3.46077E-04-5.99350E-15
 -1      3388 1.01450E-03 1.37372E-04-1.40059E-15
 -1      3389 1.00332E-03 1.11791E-04-1.42590E-15
 -1      3390 1.11501E-03 1.07029E-04-1.74285E-15
 -1      3391 1.14078E-03 1.62164E-04-1.68495E-15
 -1      3392 1.39696E-02-1.15935E-03-1.55440E-13
 -1      3393 1.39563E-02-1.12494E-03-1.55466E-13
 -1      3394 9.94990E-04-1.13963E-04-1.47748E-15
 -1      3395 1.00621E-03-1.37202E-04-1.46195E-15
 -1      3396 2.79796E-03 3.32516E-04-7.92396E-15
 -1      3397 2.75021E-03 3.70798E-04-7.45230E-15
 -1      3398 2.59595E-03 3.57331E-04-6.70328E-15
 -1      3399 3.02938E-03-2.34831E-04-1.22028E-14
 -1      3400 2.82429E-03-1.68606E-04-1.18191E-14
 -1      3401 1.40161E-02-1.24364E-03-1.55650E-13
 -1      3402 1.39928E-02-1.20149E-03-1.55547E-13
 -1      3403 1.38616E-02-1.16183E-03-1.53185E-13
 -1      3404 1.42323E-02-1.70362E-03-1.55890E-13
 -1      3405 1.40968E-02-1.66187E-03-1.53470E-13
 -1      3406 2.98760E-03-1.03360E-04-1.27889E-14
 -1      3407 1.40607E-02-1.32696E-03-1.55824E-13
 -1      3408 1.40374E-02-1.28481E-03-1.55721E-13
 -1      3409 1.39061E-02-1.24513E-03-1.53361E-13
 -1      3410 1.39486E-02-1.32745E-03-1.53498E-13
 -1      3411 6.90433E-03-9.37941E-05-3.55874E-14
 -1      3412 7.04104E-03-1.40181E-04-3.67334E-14
 -1      3413 6.82712E-03-2.98424E-05-3.58100E-14
 -1      3414 7.51644E-03-4.79988E-04-3.89389E-14
 -1      3415 7.48608E-03-5.46778E-04-3.97707E-14
 -1      3416 7.62437E-03-5.50929E-04-4.16190E-14
 -1      3417 7.62032E-03-4.69772E-04-4.01194E-14
 -1      3418 3.37598E-03-3.57782E-04-1.32250E-14
 -1      3419 9.85698E-04-9.22938E-05-1.48892E-15
 -1      3420 1.10473E-03-1.11510E-04-1.79740E-15
 -1      3421 9.78520E-04-7.18397E-05-1.49680E-15
 -1      3422 4.17640E-03 5.40593E-04-1.59797E-14
 -1      3423 4.33595E-03 5.82703E-04-1.70130E-14
 -1      3424 1.57483E-03 2.95258E-04-2.62068E-15
 -1      3425 1.42895E-03 2.82860E-04-2.18732E-15
 -1      3426 1.37753E-03 2.54210E-04-2.12155E-15
 -1      3427 1.62739E-03 2.66334E-04-2.91154E-15
 -1      3428 3.84137E-03 3.16824E-04-1.47219E-14
 -1      3429 7.67289E-03-3.76108E-04-3.89514E-14
 -1      3430 5.87351E-03 4.99173E-04-2.92067E-14
 -1      3431 1.39783E-02-1.64416E-03-1.51179E-13
 -1      3432 1.39915E-02-1.60227E-03-1.51848E-13
 -1      3433 1.38599E-02-1.62642E-03-1.48895E-13
 -1      3434 3.16208E-03 3.26173E-04-1.00979E-14
 -1      3435 3.00082E-03 3.07178E-04-9.22949E-15
 -1      3436 3.18447E-03-3.18572E-04-1.19150E-14
 -1      3437 1.19458E-03-1.80493E-04-1.90505E-15
 -1      3438 1.36968E-03-1.90560E-04-2.44809E-15
 -1      3439 1.80973E-03-2.12819E-04-4.09555E-15
 -1      3440 1.94456E-03-2.18418E-04-4.68676E-15
 -1      3441 2.07835E-03-2.23806E-04-5.31658E-15
 -1      3442 2.21136E-03-2.29153E-04-5.98478E-15
 -1      3443 1.98386E-03-1.93713E-04-5.02750E-15
 -1      3444 2.34325E-03-2.34978E-04-6.69136E-15
 -1      3445 2.47464E-03-2.41545E-04-7.43605E-15
 -1      3446 2.24267E-03-2.03736E-04-6.36611E-15
 -1      3447 2.60518E-03-2.49338E-04-8.21772E-15
 -1      3448 2.73606E-03-2.58849E-04-9.03710E-15
 -1      3449 2.49541E-03-2.15179E-04-7.85574E-15
 -1      3450 2.86677E-03-2.70286E-04-9.89259E-15
 -1      3451 2.99987E-03-2.85053E-04-1.07850E-14
 -1      3452 2.74265E-03-2.30405E-04-9.49348E-15
 -1      3453 7.75828E-03-5.60526E-04-4.34998E-14
 -1      3454 7.89116E-03-5.73424E-04-4.54125E-14
 -1      3455 7.74378E-03-5.20390E-04-4.27377E-14
 -1      3456 8.02255E-03-5.89377E-04-4.73559E-14
 -1      3457 8.15420E-03-6.07634E-04-4.93280E-14
 -1      3458 7.99285E-03-5.51853E-04-4.65664E-14
 -1      3459 8.28580E-03-6.27863E-04-5.13298E-14
 -1      3460 8.41821E-03-6.49795E-04-5.33619E-14
 -1      3461 8.24467E-03-5.90830E-04-5.05144E-14
 -1      3462 8.55118E-03-6.73060E-04-5.54240E-14
 -1      3463 8.68513E-03-6.97547E-04-5.75144E-14
 -1      3464 8.50134E-03-6.35375E-04-5.45789E-14
 -1      3465 8.81983E-03-7.22901E-04-5.96337E-14
 -1      3466 8.95546E-03-7.49068E-04-6.17796E-14
 -1      3467 8.76323E-03-6.84074E-04-5.87613E-14
 -1      3468 9.09185E-03-7.75740E-04-6.39519E-14
 -1      3469 9.22906E-03-8.02888E-04-6.61530E-14
 -1      3470 9.02995E-03-7.35658E-04-6.30533E-14
 -1      3471 9.36693E-03-8.30266E-04-6.83829E-14
 -1      3472 9.50549E-03-8.57861E-04-7.06367E-14
 -1      3473 9.30087E-03-7.89015E-04-6.74557E-14
 -1      3474 9.64459E-03-8.85488E-04-7.29149E-14
 -1      3475 9.78424E-03-9.13145E-04-7.52179E-14
 -1      3476 9.57527E-03-8.43236E-04-7.19617E-14
 -1      3477 9.92432E-03-9.40703E-04-7.75471E-14
 -1      3478 1.00648E-02-9.68168E-04-7.98967E-14
 -1      3479 9.85246E-03-8.97641E-04-7.65683E-14
 -1      3480 1.02057E-02-9.95456E-04-8.22697E-14
 -1      3481 1.03468E-02-1.02258E-03-8.46648E-14
 -1      3482 1.01319E-02-9.51763E-04-8.12674E-14
 -1      3483 1.04882E-02-1.04949E-03-8.70777E-14
 -1      3484 1.06299E-02-1.07619E-03-8.95112E-14
 -1      3485 1.04130E-02-1.00531E-03-8.60513E-14
 -1      3486 1.07718E-02-1.10267E-03-9.19655E-14
 -1      3487 1.09138E-02-1.12894E-03-9.44374E-14
 -1      3488 1.06954E-02-1.05814E-03-9.09172E-14
 -1      3489 1.10559E-02-1.15498E-03-9.69284E-14
 -1      3490 1.11982E-02-1.18082E-03-9.94365E-14
 -1      3491 1.09787E-02-1.11020E-03-9.58589E-14
 -1      3492 1.13406E-02-1.20647E-03-1.01964E-13
 -1      3493 1.14831E-02-1.23192E-03-1.04508E-13
 -1      3494 1.12628E-02-1.16150E-03-1.00874E-13
 -1      3495 1.16257E-02-1.25720E-03-1.07070E-13
 -1      3496 1.17683E-02-1.28231E-03-1.09651E-13
 -1      3497 1.15475E-02-1.21210E-03-1.05962E-13
 -1      3498 1.19110E-02-1.30727E-03-1.12246E-13
 -1      3499 1.20537E-02-1.33209E-03-1.14858E-13
 -1      3500 1.18325E-02-1.26208E-03-1.11118E-13
 -1      3501 1.21965E-02-1.35678E-03-1.17482E-13
 -1      3502 1.23393E-02-1.38136E-03-1.20119E-13
 -1      3503 1.21178E-02-1.31154E-03-1.16339E-13
 -1      3504 1.24821E-02-1.40583E-03-1.22772E-13
 -1      3505 1.26249E-02-1.43021E-03-1.25435E-13
 -1      3506 1.24033E-02-1.36055E-03-1.21615E-13
 -1      3507 1.27677E-02-1.45451E-03-1.28105E-13
 -1      3508 1.29106E-02-1.47873E-03-1.30786E-13
 -1      3509 1.26889E-02-1.40920E-03-1.26938E-13
 -1      3510 1.30535E-02-1.50288E-03-1.33475E-13
 -1      3511 1.31963E-02-1.52698E-03-1.36170E-13
 -1      3512 1.29745E-02-1.45757E-03-1.32297E-13
 -1      3513 1.33392E-02-1.55103E-03-1.38875E-13
 -1      3514 1.34821E-02-1.57504E-03-1.41586E-13
 -1      3515 1.32603E-02-1.50571E-03-1.37686E-13
 -1      3516 1.35995E-02-1.58879E-03-1.43874E-13
 -1      3517 1.37424E-02-1.61273E-03-1.46595E-13
 -1      3518 1.37555E-02-1.57088E-03-1.47260E-13
 -1      3519 1.35206E-02-1.54346E-03-1.42676E-13
 -1      3520 3.99379E-03 4.84453E-04-1.48781E-14
 -1      3521 6.63965E-03 1.96938E-04-3.64858E-14
 -1      3522 6.46378E-03 2.61716E-04-3.47477E-14
 -1      3523 6.97975E-03 8.84549E-05-4.00650E-14
 -1      3524 6.81216E-03 1.39646E-04-3.82583E-14
 -1      3525 6.78296E-03 1.08417E-04-3.74537E-14
 -1      3526 7.30264E-03 3.45462E-06-4.37817E-14
 -1      3527 7.14336E-03 4.35783E-05-4.19068E-14
 -1      3528 7.11795E-03 1.16261E-05-4.10733E-14
 -1      3529 7.61111E-03-6.44667E-05-4.76233E-14
 -1      3530 7.45847E-03-3.21163E-05-4.56873E-14
 -1      3531 7.43326E-03-6.25061E-05-4.48239E-14
 -1      3532 7.90918E-03-1.20894E-04-5.15871E-14
 -1      3533 7.76121E-03-9.37622E-05-4.95908E-14
 -1      3534 7.73409E-03-1.22132E-04-4.86992E-14
 -1      3535 8.20045E-03-1.69801E-04-5.56699E-14
 -1      3536 8.05547E-03-1.46051E-04-5.36140E-14
 -1      3537 8.02542E-03-1.72769E-04-5.26949E-14
 -1      3538 8.48764E-03-2.13982E-04-5.98614E-14
 -1      3539 8.34441E-03-1.92327E-04-5.77512E-14
 -1      3540 8.31110E-03-2.17944E-04-5.68067E-14
 -1      3541 8.77261E-03-2.55399E-04-6.41599E-14
 -1      3542 8.63030E-03-2.34934E-04-6.19979E-14
 -1      3543 8.59380E-03-2.59930E-04-6.10263E-14
 -1      3544 9.05655E-03-2.95428E-04-6.85604E-14
 -1      3545 8.91464E-03-2.75521E-04-6.63474E-14
 -1      3546 8.87523E-03-3.00239E-04-6.53517E-14
 -1      3547 9.34018E-03-3.35015E-04-7.30592E-14
 -1      3548 9.19836E-03-3.15235E-04-7.07990E-14
 -1      3549 9.15642E-03-3.39889E-04-6.97772E-14
 -1      3550 9.62388E-03-3.74788E-04-7.76571E-14
 -1      3551 9.48200E-03-3.54853E-04-7.53459E-14
 -1      3552 9.43791E-03-3.79562E-04-7.43019E-14
 -1      3553 9.90785E-03-4.15135E-04-8.23377E-14
 -1      3554 9.76582E-03-3.94877E-04-7.99865E-14
 -1      3555 9.71998E-03-4.19690E-04-7.89210E-14
 -1      3556 1.01921E-02-4.56270E-04-8.71016E-14
 -1      3557 1.00499E-02-4.35599E-04-8.47096E-14
 -1      3558 1.00027E-02-4.60530E-04-8.36257E-14
 -1      3559 1.04768E-02-4.98279E-04-9.19423E-14
 -1      3560 1.03344E-02-4.77165E-04-8.95124E-14
 -1      3561 1.02861E-02-5.02203E-04-8.84102E-14
 -1      3562 1.07617E-02-5.41165E-04-9.68615E-14
 -1      3563 1.06192E-02-5.19616E-04-9.43922E-14
 -1      3564 1.05700E-02-5.44742E-04-9.32735E-14
 -1      3565 1.10468E-02-5.84876E-04-1.01861E-13
 -1      3566 1.09042E-02-5.62923E-04-9.93512E-14
 -1      3567 1.08544E-02-5.88116E-04-9.82142E-14
 -1      3568 1.13321E-02-6.29331E-04-1.06939E-13
 -1      3569 1.11894E-02-6.07017E-04-1.04391E-13
 -1      3570 1.11392E-02-6.32257E-04-1.03235E-13
 -1      3571 1.16176E-02-6.74433E-04-1.12086E-13
 -1      3572 1.14749E-02-6.51807E-04-1.09503E-13
 -1      3573 1.14243E-02-6.77077E-04-1.08332E-13
 -1      3574 1.19032E-02-7.20081E-04-1.17303E-13
 -1      3575 1.17604E-02-6.97194E-04-1.14687E-13
 -1      3576 1.17097E-02-7.22481E-04-1.13499E-13
 -1      3577 1.21888E-02-7.66182E-04-1.22577E-13
 -1      3578 1.20460E-02-7.43080E-04-1.19935E-13
 -1      3579 1.19951E-02-7.68373E-04-1.18732E-13
 -1      3580 1.24745E-02-8.12646E-04-1.27901E-13
 -1      3581 1.23317E-02-7.89373E-04-1.25235E-13
 -1      3582 1.22807E-02-8.14666E-04-1.24019E-13
 -1      3583 1.27603E-02-8.59397E-04-1.33265E-13
 -1      3584 1.26174E-02-8.35989E-04-1.30577E-13
 -1      3585 1.25664E-02-8.61279E-04-1.29350E-13
 -1      3586 1.30460E-02-9.06368E-04-1.38668E-13
 -1      3587 1.29031E-02-8.82858E-04-1.35963E-13
 -1      3588 1.28521E-02-9.08142E-04-1.34720E-13
 -1      3589 1.33318E-02-9.53501E-04-1.44098E-13
 -1      3590 1.31889E-02-9.29917E-04-1.41379E-13
 -1      3591 1.31379E-02-9.55196E-04-1.40127E-13
 -1      3592 1.36175E-02-1.00075E-03-1.49555E-13
 -1      3593 1.34746E-02-9.77113E-04-1.46824E-13
 -1      3594 1.34236E-02-1.00239E-03-1.45563E-13
 -1      3595 1.42041E-02-1.72822E-03-1.55068E-13
 -1      3596 2.90233E-03-9.11956E-05-1.19393E-14
 -1      3597 3.01988E-03-6.63168E-05-1.24068E-14
 -1      3598 3.04628E-03-2.24240E-05-1.20234E-14
 -1      3599 1.38807E-02-1.41012E-03-1.51340E-13
 -1      3600 1.38577E-02-1.36872E-03-1.51244E-13
 -1      3601 3.66012E-03 2.69005E-04-1.37125E-14
 -1      3602 3.82954E-03 3.70368E-04-1.42937E-14
 -1      3603 2.76118E-03-1.34794E-04-1.14055E-14
 -1      3604 2.80634E-03-1.19796E-04-1.16265E-14
 -1      3605 3.03141E-03-2.63163E-04-1.14744E-14
 -1      3606 2.87917E-03-2.14071E-04-1.10646E-14
 -1      3607 2.78051E-03-1.71611E-04-1.10623E-14
 -1      3608 2.74254E-03-1.51694E-04-1.11047E-14
 -1      3609 9.70404E-04-3.32512E-05-1.50306E-15
 -1      3610 9.73401E-04-5.22788E-05-1.50154E-15
 -1      3611 1.08824E-03-6.76120E-05-1.81563E-15
 -1      3612 7.60658E-03-3.40253E-04-4.00000E-14
 -1      3613 7.66997E-03-3.60030E-04-4.02132E-14
 -1      3614 7.73941E-03-4.08937E-04-4.05838E-14
 -1      3615 7.72588E-03-4.30260E-04-4.08109E-14
 -1      3616 4.74644E-03 7.25611E-04-1.97740E-14
 -1      3617 6.01563E-03 4.38876E-04-3.05104E-14
 -1      3618 1.94777E-03 2.45835E-04-4.23119E-15
 -1      3619 1.80332E-03 2.39537E-04-3.67364E-15
 -1      3620 6.14986E-03 3.94292E-04-3.18347E-14
 -1      3621 6.20359E-03 3.20758E-04-3.18413E-14
 -1      3622 6.34767E-03 2.37206E-04-3.28828E-14
 -1      3623 6.32984E-03 3.17709E-04-3.35047E-14
 -1      3624 7.71792E-03-3.78241E-04-4.04197E-14
 -1      3625 7.73507E-03-3.91764E-04-4.03919E-14
 -1      3626 7.81070E-03-4.11802E-04-4.20777E-14
 -1      3627 7.75521E-03-3.76688E-04-4.16733E-14
 -1      3628 1.53788E-03-1.99223E-04-3.03093E-15
 -1      3629 1.67421E-03-2.06464E-04-3.54366E-15
 -1      3630 1.71972E-03-1.83002E-04-3.84276E-15
 -1      3631 3.42795E-03 1.47383E-04-1.29918E-14
 -1      3632 3.54573E-03 2.06538E-04-1.33508E-14
 -1      3633 3.54571E-03 2.65420E-04-1.29437E-14
 -1      3634 1.39613E-02-1.09961E-03-1.55791E-13
 -1      3635 1.39480E-02-1.06521E-03-1.55814E-13
 -1      3636 1.38532E-02-1.04373E-03-1.54042E-13
 -1      3637 1.38433E-02-1.09438E-03-1.53400E-13
 -1      3638 4.60651E-03 7.05059E-04-1.86991E-14
 -1      3639 3.81649E-03 4.35015E-04-1.38533E-14
 -1      3640 4.43267E-03 6.55107E-04-1.74922E-14
 -1      3641 1.12419E-03-1.66521E-04-1.72968E-15
 -1      3642 1.37241E-02-1.32769E-03-1.48860E-13
 -1      3643 1.38364E-02-1.32758E-03-1.51176E-13
 -1      3644 1.38151E-02-1.28643E-03-1.51109E-13
 -1      3645 1.08146E-03-2.65011E-05-1.81897E-15
 -1      3646 7.18773E-03-1.87283E-04-3.80413E-14
 -1      3647 7.32483E-03-2.24318E-04-3.93667E-14
 -1      3648 7.11452E-03-1.32760E-04-3.82705E-14
 -1      3649 1.39679E-02-1.56015E-03-1.51756E-13
 -1      3650 1.39444E-02-1.51802E-03-1.51662E-13
 -1      3651 1.38495E-02-1.54244E-03-1.49470E-13
 -1      3652 1.21513E-03 7.38412E-05-2.11470E-15
 -1      3653 1.20616E-03 4.93590E-05-2.13314E-15
 -1      3654 2.84306E-03 2.92509E-04-8.39926E-15
 -1      3655 2.68863E-03 2.80773E-04-7.60763E-15
 -1      3656 2.88521E-03 2.50533E-04-8.87855E-15
 -1      3657 2.49122E-03 3.09395E-04-6.42173E-15
 -1      3658 2.69413E-03-1.35523E-04-1.06685E-14
 -1      3659 1.26972E-03 1.87627E-04-1.99396E-15
 -1      3660 1.25367E-03 1.56498E-04-2.03186E-15
 -1      3661 2.23946E-03 2.57638E-04-5.46473E-15
 -1      3662 2.09305E-03 2.51704E-04-4.82818E-15
 -1      3663 1.99612E-03 2.13090E-04-4.58108E-15
 -1      3664 6.47265E-03 2.20917E-04-3.44362E-14
 -1      3665 1.31610E-03 3.83064E-05-2.51342E-15
 -1      3666 1.19934E-03 2.59615E-05-2.14748E-15
 -1      3667 1.19499E-03 3.43594E-06-2.15755E-15
 -1      3668 7.56538E-03-3.19271E-04-4.02917E-14
 -1      3669 7.67024E-03-3.37565E-04-4.17559E-14
 -1      3670 7.51999E-03-2.93744E-04-4.05785E-14
 -1      3671 1.37584E-02-1.02225E-03-1.52272E-13
 -1      3672 6.73419E-03 3.96978E-05-3.57012E-14
 -1      3673 6.87190E-03-1.48778E-05-3.68487E-14
 -1      3674 2.81030E-03-9.24934E-05-1.12654E-14
 -1      3675 1.34748E-03 2.33267E-04-2.09514E-15
 -1      3676 1.29818E-03 2.06809E-04-2.02456E-15
 -1      3677 1.41171E-03 1.99297E-04-2.40713E-15
 -1      3678 1.47157E-03 2.39804E-04-2.47149E-15
 -1      3679 1.42063E-03-1.69566E-04-2.69880E-15
 -1      3680 7.73040E-03-4.54997E-04-4.13934E-14
 -1      3681 7.73857E-03-4.89616E-04-4.21585E-14
 -1      3682 7.85533E-03-5.05503E-04-4.40472E-14
 -1      3683 7.82955E-03-4.53209E-04-4.28635E-14
 -1      3684 1.39243E-02-1.48513E-03-1.51551E-13
 -1      3685 1.39008E-02-1.44301E-03-1.51454E-13
 -1      3686 1.37656E-02-1.40169E-03-1.49040E-13
 -1      3687 1.38058E-02-1.46745E-03-1.49265E-13
 -1      3688 3.63874E-03 3.92280E-04-1.28327E-14
 -1      3689 3.48086E-03 3.68677E-04-1.19019E-14
 -1      3690 3.31154E-03 3.39517E-04-1.09583E-14
 -1      3691 3.18865E-03 2.72500E-04-1.05702E-14
 -1      3692 3.49225E-03 3.01951E-04-1.23535E-14
 -1      3693 2.75942E-03-1.90605E-04-1.03783E-14
 -1      3694 3.21410E-03 8.00644E-05-1.21091E-14
 -1      3695 3.31966E-03 1.10992E-04-1.25467E-14
 -1      3696 3.33205E-03 1.70769E-04-1.21586E-14
 -1      3697 1.37074E-02-1.04753E-03-1.51004E-13
 -1      3698 6.58407E-03 1.14031E-04-3.46209E-14
 -1      3699 1.18495E-03-1.47788E-04-1.96243E-15
 -1      3700 1.16075E-03-9.91962E-05-1.99276E-15
 -1      3701 1.17161E-03-1.22777E-04-1.97973E-15
 -1      3702 1.23920E-03-1.34251E-04-2.17057E-15
 -1      3703 1.69965E-03 2.42649E-04-3.26444E-15
 -1      3704 1.57554E-03 2.39101E-04-2.82858E-15
 -1      3705 1.54467E-03 2.18292E-04-2.79431E-15
 -1      3706 1.75060E-03 2.12794E-04-3.57463E-15
 -1      3707 1.37024E-02-1.07285E-03-1.50683E-13
 -1      3708 1.37494E-02-1.16238E-03-1.50865E-13
 -1      3709 1.37262E-02-1.12025E-03-1.50758E-13
 -1      3710 1.35903E-02-1.07342E-03-1.48370E-13
 -1      3711 2.14959E-03-1.75311E-04-6.04337E-15
 -1      3712 2.27389E-03-1.80189E-04-6.75130E-15
 -1      3713 2.39553E-03-1.85598E-04-7.49623E-15
 -1      3714 2.51495E-03-1.91228E-04-8.27848E-15
 -1      3715 2.30572E-03-1.58593E-04-7.13985E-15
 -1      3716 2.58557E-03-1.87069E-04-8.88407E-15
 -1      3717 2.69807E-03-1.93387E-04-9.72888E-15
 -1      3718 2.62669E-03-1.55075E-04-9.72745E-15
 -1      3719 2.49418E-03-1.60364E-04-8.49357E-15
 -1      3720 2.53683E-03 2.71634E-04-6.85485E-15
 -1      3721 2.38726E-03 2.64043E-04-6.14043E-15
 -1      3722 2.58012E-03 2.32595E-04-7.29253E-15
 -1      3723 7.97303E-03-5.22830E-04-4.59665E-14
 -1      3724 8.09305E-03-5.41860E-04-4.79152E-14
 -1      3725 7.95382E-03-4.95613E-04-4.53649E-14
 -1      3726 8.21467E-03-5.61974E-04-4.98925E-14
 -1      3727 8.33844E-03-5.83446E-04-5.18994E-14
 -1      3728 8.18469E-03-5.34629E-04-4.92703E-14
 -1      3729 8.46391E-03-6.05822E-04-5.39373E-14
 -1      3730 8.59126E-03-6.29279E-04-5.60036E-14
 -1      3731 8.42635E-03-5.77553E-04-5.32945E-14
 -1      3732 8.72018E-03-6.53439E-04-5.80979E-14
 -1      3733 8.85068E-03-6.78401E-04-6.02207E-14
 -1      3734 8.67703E-03-6.23913E-04-5.74335E-14
 -1      3735 8.98256E-03-7.03848E-04-6.23693E-14
 -1      3736 9.11574E-03-7.29831E-04-6.45451E-14
 -1      3737 8.93513E-03-6.72995E-04-6.16840E-14
 -1      3738 9.25006E-03-7.56093E-04-6.67494E-14
 -1      3739 9.38546E-03-7.82663E-04-6.89823E-14
 -1      3740 9.19931E-03-7.23993E-04-6.60456E-14
 -1      3741 9.52178E-03-8.09340E-04-7.12373E-14
 -1      3742 9.65896E-03-8.36146E-04-7.35171E-14
 -1      3743 9.46841E-03-7.76142E-04-7.05120E-14
 -1      3744 9.79688E-03-8.62932E-04-7.58223E-14
 -1      3745 9.93547E-03-8.89717E-04-7.81519E-14
 -1      3746 9.74144E-03-8.28806E-04-7.50784E-14
 -1      3747 1.00746E-02-9.16397E-04-8.05030E-14
 -1      3748 1.02143E-02-9.42991E-04-8.28754E-14
 -1      3749 1.00176E-02-8.81511E-04-7.97383E-14
 -1      3750 1.03545E-02-9.69430E-04-8.52687E-14
 -1      3751 1.04951E-02-9.95733E-04-8.76825E-14
 -1      3752 1.02962E-02-9.33935E-04-8.44861E-14
 -1      3753 1.06360E-02-1.02186E-03-9.01177E-14
 -1      3754 1.07772E-02-1.04783E-03-9.25714E-14
 -1      3755 1.05767E-02-9.85886E-04-8.93192E-14
 -1      3756 1.09186E-02-1.07361E-03-9.50430E-14
 -1      3757 1.10603E-02-1.09923E-03-9.75331E-14
 -1      3758 1.08586E-02-1.03727E-03-9.42278E-14
 -1      3759 1.12022E-02-1.12468E-03-1.00043E-13
 -1      3760 1.13443E-02-1.14998E-03-1.02571E-13
 -1      3761 1.11417E-02-1.08806E-03-9.92113E-14
 -1      3762 1.14865E-02-1.17512E-03-1.05114E-13
 -1      3763 1.16288E-02-1.20012E-03-1.07677E-13
 -1      3764 1.14256E-02-1.13828E-03-1.04269E-13
 -1      3765 1.17712E-02-1.22498E-03-1.10257E-13
 -1      3766 1.19138E-02-1.24973E-03-1.12854E-13
 -1      3767 1.17100E-02-1.18799E-03-1.09397E-13
 -1      3768 1.20563E-02-1.27435E-03-1.15464E-13
 -1      3769 1.21990E-02-1.29888E-03-1.18089E-13
 -1      3770 1.19950E-02-1.23724E-03-1.14591E-13
 -1      3771 1.23417E-02-1.32330E-03-1.20729E-13
 -1      3772 1.24844E-02-1.34765E-03-1.23382E-13
 -1      3773 1.22802E-02-1.28611E-03-1.19844E-13
 -1      3774 1.26272E-02-1.37191E-03-1.26043E-13
 -1      3775 1.27700E-02-1.39611E-03-1.28715E-13
 -1      3776 1.25656E-02-1.33467E-03-1.25148E-13
 -1      3777 1.29129E-02-1.42025E-03-1.31395E-13
 -1      3778 1.30557E-02-1.44434E-03-1.34080E-13
 -1      3779 1.28512E-02-1.38296E-03-1.30491E-13
 -1      3780 1.31986E-02-1.46838E-03-1.36775E-13
 -1      3781 1.33414E-02-1.49237E-03-1.39477E-13
 -1      3782 1.31369E-02-1.43106E-03-1.35866E-13
 -1      3783 7.25843E-03-6.11062E-05-4.20846E-14
 -1      3784 7.09897E-03-2.26406E-05-4.02396E-14
 -1      3785 2.61864E-03-1.33807E-04-9.89685E-15
 -1      3786 2.64707E-03-1.14501E-04-1.01809E-14
 -1      3787 3.39050E-03 2.46941E-04-1.20172E-14
 -1      3788 6.87040E-03 5.38628E-05-3.79832E-14
 -1      3789 6.69637E-03 1.09579E-04-3.62132E-14
 -1      3790 7.85537E-03-1.76144E-04-4.97775E-14
 -1      3791 7.71065E-03-1.51083E-04-4.78092E-14
 -1      3792 8.13951E-03-2.21815E-04-5.38053E-14
 -1      3793 7.99810E-03-1.99495E-04-5.17766E-14
 -1      3794 7.97366E-03-2.26364E-04-5.08598E-14
 -1      3795 8.41961E-03-2.64008E-04-5.79449E-14
 -1      3796 8.27986E-03-2.43197E-04-5.58612E-14
 -1      3797 8.25072E-03-2.68145E-04-5.49166E-14
 -1      3798 8.69805E-03-3.04405E-04-6.21930E-14
 -1      3799 8.55891E-03-2.84347E-04-6.00550E-14
 -1      3800 8.52558E-03-3.08200E-04-5.90859E-14
 -1      3801 8.97623E-03-3.44065E-04-6.65444E-14
 -1      3802 8.83709E-03-3.24279E-04-6.43561E-14
 -1      3803 8.80015E-03-3.47633E-04-6.33607E-14
 -1      3804 9.25496E-03-3.83675E-04-7.09948E-14
 -1      3805 9.11549E-03-3.63849E-04-6.87575E-14
 -1      3806 9.07550E-03-3.87092E-04-6.77382E-14
 -1      3807 9.53461E-03-4.23673E-04-7.55466E-14
 -1      3808 9.39465E-03-4.03611E-04-7.32594E-14
 -1      3809 9.35214E-03-4.26972E-04-7.22165E-14
 -1      3810 9.81530E-03-4.64325E-04-8.01872E-14
 -1      3811 9.67482E-03-4.43912E-04-7.78557E-14
 -1      3812 9.63026E-03-4.67506E-04-7.67917E-14
 -1      3813 1.00970E-02-5.05771E-04-8.49151E-14
 -1      3814 9.95602E-03-4.84949E-04-8.25409E-14
 -1      3815 9.90983E-03-5.08820E-04-8.14563E-14
 -1      3816 1.03796E-02-5.48060E-04-8.97218E-14
 -1      3817 1.02382E-02-5.26814E-04-8.73088E-14
 -1      3818 1.01907E-02-5.50960E-04-8.62063E-14
 -1      3819 1.06630E-02-5.91178E-04-9.46086E-14
 -1      3820 1.05212E-02-5.69521E-04-9.21550E-14
 -1      3821 1.04727E-02-5.93918E-04-9.10369E-14
 -1      3822 1.09470E-02-6.35070E-04-9.95686E-14
 -1      3823 1.08049E-02-6.13033E-04-9.70783E-14
 -1      3824 1.07557E-02-6.37644E-04-9.59438E-14
 -1      3825 1.12316E-02-6.79657E-04-1.04612E-13
 -1      3826 1.10892E-02-6.57283E-04-1.02080E-13
 -1      3827 1.10394E-02-6.82068E-04-1.00927E-13
 -1      3828 1.15165E-02-7.24850E-04-1.09726E-13
 -1      3829 1.13740E-02-7.02184E-04-1.07160E-13
 -1      3830 1.13238E-02-7.27107E-04-1.05988E-13
 -1      3831 1.18017E-02-7.70559E-04-1.14912E-13
 -1      3832 1.16590E-02-7.47646E-04-1.12312E-13
 -1      3833 1.16086E-02-7.72673E-04-1.11123E-13
 -1      3834 1.20871E-02-8.16694E-04-1.20158E-13
 -1      3835 1.19444E-02-7.93579E-04-1.17527E-13
 -1      3836 1.18937E-02-8.18682E-04-1.16325E-13
 -1      3837 1.23726E-02-8.63177E-04-1.25456E-13
 -1      3838 1.22298E-02-8.39897E-04-1.22802E-13
 -1      3839 1.21790E-02-8.65055E-04-1.21584E-13
 -1      3840 1.26583E-02-9.09935E-04-1.30796E-13
 -1      3841 1.25154E-02-8.86526E-04-1.28122E-13
 -1      3842 1.24645E-02-9.11721E-04-1.26893E-13
 -1      3843 1.29440E-02-9.56908E-04-1.36174E-13
 -1      3844 1.28011E-02-9.33398E-04-1.33478E-13
 -1      3845 1.27502E-02-9.58619E-04-1.32241E-13
 -1      3846 1.32297E-02-1.00404E-03-1.41585E-13
 -1      3847 1.30869E-02-9.80457E-04-1.38877E-13
 -1      3848 1.30359E-02-1.00569E-03-1.37625E-13
 -1      3849 1.34474E-02-1.04977E-03-1.45643E-13
 -1      3850 2.70756E-03-9.18322E-05-1.04814E-14
 -1      3851 2.79860E-03-6.16498E-05-1.07757E-14
 -1      3852 2.61052E-03-9.09468E-05-9.72252E-15
 -1      3853 1.19323E-03-1.84375E-05-2.16373E-15
 -1      3854 1.19419E-03-4.00961E-05-2.16591E-15
 -1      3855 1.30589E-03-9.26826E-06-2.53638E-15
 -1      3856 1.40344E-03-1.42289E-04-2.72089E-15
 -1      3857 1.19794E-03-6.18016E-05-2.16408E-15
 -1      3858 1.20447E-03-8.40151E-05-2.15844E-15
 -1      3859 1.30771E-03-5.48083E-05-2.54161E-15
 -1      3860 1.23907E-03 1.27266E-04-2.06440E-15
 -1      3861 1.22621E-03 9.97425E-05-2.09213E-15
 -1      3862 1.33671E-03 9.03118E-05-2.47227E-15
 -1      3863 1.36571E-03 1.48442E-04-2.41106E-15
 -1      3864 1.89520E-03-1.65627E-04-4.74089E-15
 -1      3865 2.02340E-03-1.70405E-04-5.37301E-15
 -1      3866 2.06367E-03-1.48528E-04-5.72346E-15
 -1      3867 7.56347E-03-1.24214E-04-4.58700E-14
 -1      3868 7.41297E-03-9.42576E-05-4.39614E-14
 -1      3869 7.39805E-03-1.27843E-04-4.30997E-14
 -1      3870 1.63444E-03-1.54970E-04-3.59305E-15
 -1      3871 1.76554E-03-1.60462E-04-4.14776E-15
 -1      3872 1.81203E-03-1.38866E-04-4.45812E-15
 -1      3873 1.37707E-02-1.20353E-03-1.50938E-13
 -1      3874 1.36353E-02-1.16194E-03-1.48518E-13
 -1      3875 1.37919E-02-1.24468E-03-1.51006E-13
 -1      3876 2.94538E-03-1.13463E-05-1.12137E-14
 -1      3877 3.07530E-03 2.85299E-05-1.16591E-14
 -1      3878 3.09363E-03 8.28656E-05-1.12917E-14
 -1      3879 7.02338E-03-2.96480E-05-3.89598E-14
 -1      3880 1.33964E-02-1.07502E-03-1.44380E-13
 -1      3881 1.26954E-03-9.37725E-05-2.35973E-15
 -1      3882 2.28504E-03 2.21709E-04-5.85949E-15
 -1      3883 2.55291E-03-1.34369E-04-9.26962E-15
 -1      3884 1.36108E-02-1.32721E-03-1.46531E-13
 -1      3885 1.35895E-02-1.28611E-03-1.46465E-13
 -1      3886 2.92275E-03 2.06742E-04-9.36111E-15
 -1      3887 2.76978E-03 1.98210E-04-8.52898E-15
 -1      3888 7.10357E-03-9.03350E-05-3.90791E-14
 -1      3889 7.24628E-03-1.36010E-04-4.04197E-14
 -1      3890 1.37320E-02-1.52878E-03-1.47172E-13
 -1      3891 1.37085E-02-1.48668E-03-1.47078E-13
 -1      3892 1.36145E-02-1.51510E-03-1.44878E-13
 -1      3893 1.34389E-02-1.15723E-03-1.44528E-13
 -1      3894 1.34176E-02-1.11613E-03-1.44454E-13
 -1      3895 1.32000E-02-1.07037E-03-1.40408E-13
 -1      3896 1.34192E-02-1.49689E-03-1.41033E-13
 -1      3897 1.35367E-02-1.51061E-03-1.43318E-13
 -1      3898 1.35132E-02-1.46854E-03-1.43228E-13
 -1      3899 1.33576E-02-1.45956E-03-1.40116E-13
 -1      3900 2.04322E-03 1.80043E-04-4.93757E-15
 -1      3901 1.90194E-03 1.77166E-04-4.33465E-15
 -1      3902 1.46059E-03 1.07623E-04-2.85594E-15
 -1      3903 1.44644E-03 7.88232E-05-2.88380E-15
 -1      3904 1.36797E-02-1.24482E-03-1.48691E-13
 -1      3905 3.28871E-03 2.03561E-04-1.16386E-14
 -1      3906 3.24057E-03 2.42833E-04-1.10783E-14
 -1      3907 3.09470E-03 2.34677E-04-1.02196E-14
 -1      3908 3.18878E-03 1.71390E-04-1.12200E-14
 -1      3909 1.43461E-03 5.15445E-05-2.90615E-15
 -1      3910 1.42557E-03 2.55794E-05-2.92416E-15
 -1      3911 1.55518E-03 6.56084E-05-3.32549E-15
 -1      3912 7.45821E-03-2.56377E-04-4.08224E-14
 -1      3913 7.58323E-03-2.82790E-04-4.22965E-14
 -1      3914 7.39723E-03-2.13554E-04-4.10596E-14
 -1      3915 7.87319E-03-4.13178E-04-4.34643E-14
 -1      3916 7.88762E-03-4.31775E-04-4.36633E-14
 -1      3917 7.69121E-03-1.80879E-04-4.69199E-14
 -1      3918 6.56150E-03 1.60747E-04-3.49451E-14
 -1      3919 7.91216E-03-4.50393E-04-4.42120E-14
 -1      3920 7.93458E-03-4.73396E-04-4.48158E-14
 -1      3921 8.04348E-03-4.92351E-04-4.67455E-14
 -1      3922 7.98924E-03-4.51855E-04-4.56294E-14
 -1      3923 1.51444E-03 1.98178E-04-2.75807E-15
 -1      3924 7.79980E-03-3.74330E-04-4.30451E-14
 -1      3925 7.84408E-03-3.94130E-04-4.32587E-14
 -1      3926 7.93315E-03-4.13444E-04-4.48643E-14
 -1      3927 1.62152E-03 1.88103E-04-3.17796E-15
 -1      3928 1.48995E-03 1.71608E-04-2.76146E-15
 -1      3929 1.47195E-03 1.39332E-04-2.80095E-15
 -1      3930 1.72335E-03 1.84244E-04-3.57929E-15
 -1      3931 2.97049E-03 1.76061E-04-9.83760E-15
 -1      3932 1.36309E-02-1.36008E-03-1.46645E-13
 -1      3933 1.34963E-02-1.31847E-03-1.44257E-13
 -1      3934 1.36510E-02-1.39294E-03-1.46758E-13
 -1      3935 7.77932E-03-3.57789E-04-4.33460E-14
 -1      3936 7.88414E-03-3.77342E-04-4.49580E-14
 -1      3937 7.75317E-03-3.38414E-04-4.36435E-14
 -1      3938 1.77355E-03 1.54830E-04-3.89210E-15
 -1      3939 1.45620E-03-1.22740E-04-2.97523E-15
 -1      3940 2.81015E-03-2.28918E-05-1.04349E-14
 -1      3941 2.82083E-03 2.04778E-05-1.00933E-14
 -1      3942 2.68479E-03-2.91318E-05-9.68291E-15
 -1      3943 2.41191E-03-1.37930E-04-8.06825E-15
 -1      3944 2.48376E-03-1.35322E-04-8.66010E-15
 -1      3945 2.48845E-03-1.12971E-04-8.81737E-15
 -1      3946 1.36898E-02-1.45624E-03-1.46975E-13
 -1      3947 1.36697E-02-1.42337E-03-1.46864E-13
 -1      3948 1.35350E-02-1.38174E-03-1.44476E-13
 -1      3949 1.35723E-02-1.44259E-03-1.44684E-13
 -1      3950 2.65686E-03 1.51112E-04-8.18138E-15
 -1      3951 2.62026E-03 1.92505E-04-7.73474E-15
 -1      3952 2.47334E-03 1.88256E-04-6.97825E-15
 -1      3953 7.38903E-03-1.75607E-04-4.18922E-14
 -1      3954 8.15608E-03-5.11725E-04-4.87047E-14
 -1      3955 8.27220E-03-5.32315E-04-5.06912E-14
 -1      3956 8.12636E-03-4.90130E-04-4.81367E-14
 -1      3957 8.39129E-03-5.53525E-04-5.27090E-14
 -1      3958 8.51309E-03-5.75751E-04-5.47557E-14
 -1      3959 8.35534E-03-5.30503E-04-5.21243E-14
 -1      3960 8.63726E-03-5.98588E-04-5.68306E-14
 -1      3961 8.76357E-03-6.22233E-04-5.89328E-14
 -1      3962 8.59684E-03-5.74095E-04-5.62261E-14
 -1      3963 8.89179E-03-6.46371E-04-6.10613E-14
 -1      3964 9.02172E-03-6.71100E-04-6.32183E-14
 -1      3965 8.84801E-03-6.20457E-04-6.04387E-14
 -1      3966 9.15317E-03-6.96167E-04-6.54032E-14
 -1      3967 9.28600E-03-7.21618E-04-6.76152E-14
 -1      3968 9.10676E-03-6.68953E-04-6.47624E-14
 -1      3969 9.42005E-03-7.47256E-04-6.98523E-14
 -1      3970 9.55520E-03-7.73107E-04-7.21154E-14
 -1      3971 9.37154E-03-7.18898E-04-6.91929E-14
 -1      3972 9.69132E-03-7.99020E-04-7.44004E-14
 -1      3973 9.82832E-03-8.25015E-04-7.67105E-14
 -1      3974 9.64114E-03-7.69684E-04-7.37245E-14
 -1      3975 9.96609E-03-8.50981E-04-7.90445E-14
 -1      3976 1.01045E-02-8.76936E-04-8.13995E-14
 -1      3977 9.91458E-03-8.20829E-04-7.83498E-14
 -1      3978 1.02436E-02-9.02803E-04-8.37758E-14
 -1      3979 1.03832E-02-9.28600E-04-8.61733E-14
 -1      3980 1.01910E-02-8.71983E-04-8.30653E-14
 -1      3981 1.05233E-02-9.54274E-04-8.85931E-14
 -1      3982 1.06637E-02-9.79845E-04-9.10308E-14
 -1      3983 1.04699E-02-9.22916E-04-8.78675E-14
 -1      3984 1.08046E-02-1.00528E-03-9.34861E-14
 -1      3985 1.09457E-02-1.03060E-03-9.59612E-14
 -1      3986 1.07506E-02-9.73497E-04-9.27472E-14
 -1      3987 1.10872E-02-1.05578E-03-9.84545E-14
 -1      3988 1.12288E-02-1.08085E-03-1.00969E-13
 -1      3989 1.10327E-02-1.02366E-03-9.76998E-14
 -1      3990 1.13707E-02-1.10578E-03-1.03501E-13
 -1      3991 1.15127E-02-1.13061E-03-1.06047E-13
 -1      3992 1.13158E-02-1.07341E-03-1.02730E-13
 -1      3993 1.16549E-02-1.15532E-03-1.08613E-13
 -1      3994 1.17972E-02-1.17994E-03-1.11199E-13
 -1      3995 1.15998E-02-1.12275E-03-1.07833E-13
 -1      3996 1.19396E-02-1.20445E-03-1.13799E-13
 -1      3997 1.20822E-02-1.22888E-03-1.16412E-13
 -1      3998 1.18844E-02-1.17174E-03-1.13006E-13
 -1      3999 1.22248E-02-1.25323E-03-1.19041E-13
 -1      4000 1.23674E-02-1.27751E-03-1.21684E-13
 -1      4001 1.21693E-02-1.22041E-03-1.18240E-13
 -1      4002 1.25101E-02-1.30172E-03-1.24337E-13
 -1      4003 1.26529E-02-1.32587E-03-1.27000E-13
 -1      4004 1.24546E-02-1.26881E-03-1.23525E-13
 -1      4005 1.27956E-02-1.34997E-03-1.29672E-13
 -1      4006 1.29385E-02-1.37402E-03-1.32352E-13
 -1      4007 1.27401E-02-1.31701E-03-1.28853E-13
 -1      4008 1.30813E-02-1.39804E-03-1.35039E-13
 -1      4009 1.32241E-02-1.42201E-03-1.37732E-13
 -1      4010 1.30257E-02-1.36503E-03-1.34214E-13
 -1      4011 1.73407E-03-1.13334E-04-4.17900E-15
 -1      4012 1.86027E-03-1.18132E-04-4.77370E-15
 -1      4013 1.58211E-03 1.27179E-04-3.24179E-15
 -1      4014 1.35257E-02-1.24252E-03-1.45548E-13
 -1      4015 1.35026E-02-1.20080E-03-1.45446E-13
 -1      4016 1.32849E-02-1.15497E-03-1.41400E-13
 -1      4017 1.34124E-02-1.24206E-03-1.43230E-13
 -1      4018 3.05659E-03 1.13882E-04-1.08031E-14
 -1      4019 3.01640E-03 1.47287E-04-1.03134E-14
 -1      4020 2.84992E-03 1.26590E-04-9.45107E-15
 -1      4021 2.93058E-03 6.73436E-05-1.03826E-14
 -1      4022 7.81542E-03-2.32379E-04-4.79718E-14
 -1      4023 7.67651E-03-2.10767E-04-4.60304E-14
 -1      4024 8.08839E-03-2.72904E-04-5.19439E-14
 -1      4025 7.95233E-03-2.52888E-04-4.99438E-14
 -1      4026 7.93426E-03-2.79163E-04-4.90274E-14
 -1      4027 8.90001E-03-3.89770E-04-6.45306E-14
 -1      4028 8.76419E-03-3.70177E-04-6.23663E-14
 -1      4029 9.17299E-03-4.29447E-04-6.89344E-14
 -1      4030 9.03624E-03-4.09530E-04-6.67199E-14
 -1      4031 8.99759E-03-4.31132E-04-6.57007E-14
 -1      4032 9.44795E-03-4.69880E-04-7.34386E-14
 -1      4033 9.31020E-03-4.49573E-04-7.11734E-14
 -1      4034 9.26871E-03-4.71384E-04-7.01314E-14
 -1      4035 9.72486E-03-5.11139E-04-7.80365E-14
 -1      4036 9.58616E-03-4.90413E-04-7.57267E-14
 -1      4037 9.54241E-03-5.12602E-04-7.46611E-14
 -1      4038 1.00036E-02-5.53235E-04-8.27257E-14
 -1      4039 9.86400E-03-5.32090E-04-8.03705E-14
 -1      4040 9.81846E-03-5.54728E-04-7.92858E-14
 -1      4041 1.02839E-02-5.96144E-04-8.74997E-14
 -1      4042 1.01435E-02-5.74597E-04-8.51017E-14
 -1      4043 1.00966E-02-5.97692E-04-8.39979E-14
 -1      4044 1.05655E-02-6.39812E-04-9.23517E-14
 -1      4045 1.04245E-02-6.17892E-04-8.99145E-14
 -1      4046 1.03765E-02-6.41414E-04-8.87926E-14
 -1      4047 1.08481E-02-6.84168E-04-9.72789E-14
 -1      4048 1.07067E-02-6.61912E-04-9.48067E-14
 -1      4049 1.06578E-02-6.85811E-04-9.36671E-14
 -1      4050 1.11317E-02-7.29132E-04-1.02287E-13
 -1      4051 1.09898E-02-7.06582E-04-9.97722E-14
 -1      4052 1.09403E-02-7.30800E-04-9.86180E-14
 -1      4053 1.14159E-02-7.74622E-04-1.07368E-13
 -1      4054 1.12737E-02-7.51818E-04-1.04819E-13
 -1      4055 1.12237E-02-7.76298E-04-1.03646E-13
 -1      4056 1.17006E-02-8.20555E-04-1.12521E-13
 -1      4057 1.15582E-02-7.97539E-04-1.09935E-13
 -1      4058 1.15079E-02-8.22227E-04-1.08748E-13
 -1      4059 1.19856E-02-8.66857E-04-1.17739E-13
 -1      4060 1.18431E-02-8.43665E-04-1.15123E-13
 -1      4061 1.17925E-02-8.68515E-04-1.13919E-13
 -1      4062 1.22710E-02-9.13460E-04-1.23011E-13
 -1      4063 1.21283E-02-8.90125E-04-1.20368E-13
 -1      4064 1.20776E-02-9.15096E-04-1.19153E-13
 -1      4065 1.25565E-02-9.60302E-04-1.28328E-13
 -1      4066 1.24137E-02-9.36854E-04-1.25663E-13
 -1      4067 1.23629E-02-9.61916E-04-1.24435E-13
 -1      4068 1.28421E-02-1.00733E-03-1.33683E-13
 -1      4069 1.26993E-02-9.83796E-04-1.31002E-13
 -1      4070 1.26484E-02-1.00892E-03-1.29762E-13
 -1      4071 1.30571E-02-1.04675E-03-1.37704E-13
 -1      4072 2.18528E-03 1.82571E-04-5.57933E-15
 -1      4073 2.08888E-03 1.46640E-04-5.30072E-15
 -1      4074 2.32857E-03 1.85229E-04-6.25983E-15
 -1      4075 2.50826E-03-8.88404E-05-8.93682E-15
 -1      4076 2.57023E-03-6.32921E-05-9.21662E-15
 -1      4077 8.62880E-03-3.50697E-04-6.02277E-14
 -1      4078 8.49363E-03-3.31299E-04-5.81150E-14
 -1      4079 8.72909E-03-3.91885E-04-6.13722E-14
 -1      4080 1.41954E-03 8.04422E-07-2.93698E-15
 -1      4081 1.41683E-03-2.32514E-05-2.94475E-15
 -1      4082 1.53450E-03 1.15912E-05-3.36406E-15
 -1      4083 2.18379E-03-1.26061E-04-6.56381E-15
 -1      4084 2.29982E-03-1.31474E-04-7.29764E-15
 -1      4085 2.30443E-03-1.06572E-04-7.44736E-15
 -1      4086 1.41759E-03-4.68049E-05-2.94781E-15
 -1      4087 1.42194E-03-7.04413E-05-2.94608E-15
 -1      4088 1.52784E-03-3.81397E-05-3.38169E-15
 -1      4089 1.96332E-03-1.19426E-04-5.30690E-15
 -1      4090 2.08524E-03-1.24295E-04-5.97222E-15
 -1      4091 2.09285E-03-9.78474E-05-6.11022E-15
 -1      4092 1.89054E-03-9.45778E-05-4.99668E-15
 -1      4093 8.35870E-03-3.11933E-04-5.60293E-14
 -1      4094 8.22362E-03-2.92482E-04-5.39731E-14
 -1      4095 8.46298E-03-3.53630E-04-5.71443E-14
 -1      4096 7.53195E-03-2.00449E-04-4.37666E-14
 -1      4097 8.00093E-03-4.13788E-04-4.64104E-14
 -1      4098 8.03194E-03-4.34936E-04-4.66247E-14
 -1      4099 1.75689E-03 1.19152E-04-3.95921E-15
 -1      4100 1.89148E-03 1.05656E-04-4.58634E-15
 -1      4101 1.70457E-03 8.28639E-05-3.87167E-15
 -1      4102 8.19857E-03-3.16221E-04-5.30293E-14
 -1      4103 2.68892E-03 1.09136E-04-8.63212E-15
 -1      4104 2.54761E-03 1.09527E-04-7.83558E-15
 -1      4105 2.36979E-03 1.48061E-04-6.66544E-15
 -1      4106 2.78547E-03 4.96459E-05-9.63513E-15
 -1      4107 1.33020E-02-1.42653E-03-1.39283E-13
 -1      4108 1.33798E-02-1.43102E-03-1.40837E-13
 -1      4109 1.32464E-02-1.39350E-03-1.38452E-13
 -1      4110 1.60270E-03-9.71489E-05-3.63377E-15
 -1      4111 1.65853E-03-7.75412E-05-3.91332E-15
 -1      4112 1.68879E-03 5.28874E-05-3.89909E-15
 -1      4113 1.33348E-02-1.25700E-03-1.41507E-13
 -1      4114 1.32711E-02-1.21345E-03-1.40595E-13
 -1      4115 1.30062E-02-1.07193E-03-1.36452E-13
 -1      4116 2.42837E-03-8.93603E-05-8.34326E-15
 -1      4117 1.49668E-03-1.05119E-04-3.17751E-15
 -1      4118 7.66419E-03-2.52588E-04-4.47827E-14
 -1      4119 8.06492E-03-4.52059E-04-4.70970E-14
 -1      4120 8.09967E-03-4.71445E-04-4.76645E-14
 -1      4121 8.20966E-03-4.90616E-04-4.96366E-14
 -1      4122 8.14376E-03-4.53877E-04-4.86762E-14
 -1      4123 2.56089E-03-3.14615E-05-8.90417E-15
 -1      4124 2.16318E-03 1.03666E-04-5.86262E-15
 -1      4125 2.02711E-03 1.04949E-04-5.20523E-15
 -1      4126 1.97001E-03 6.68973E-05-5.10207E-15
 -1      4127 7.98365E-03-3.82217E-04-4.70324E-14
 -1      4128 7.99491E-03-3.98749E-04-4.67241E-14
 -1      4129 8.10505E-03-4.21176E-04-4.85148E-14
 -1      4130 1.33750E-02-1.32264E-03-1.41734E-13
 -1      4131 1.33549E-02-1.28982E-03-1.41622E-13
 -1      4132 1.32135E-02-1.26116E-03-1.38995E-13
 -1      4133 2.73242E-03 8.13789E-05-9.07473E-15
 -1      4134 2.42269E-03 1.05396E-04-7.18292E-15
 -1      4135 2.28493E-03 1.06964E-04-6.45545E-15
 -1      4136 2.21968E-03 6.51974E-05-6.34128E-15
 -1      4137 2.45791E-03 6.77257E-05-7.60066E-15
 -1      4138 7.67626E-03-3.02860E-04-4.34323E-14
 -1      4139 7.79936E-03-3.27330E-04-4.50484E-14
 -1      4140 1.34576E-02-1.43550E-03-1.42391E-13
 -1      4141 8.32373E-03-5.10308E-04-5.16383E-14
 -1      4142 8.44122E-03-5.31063E-04-5.36666E-14
 -1      4143 8.29040E-03-4.90859E-04-5.11504E-14
 -1      4144 8.56172E-03-5.52441E-04-5.57247E-14
 -1      4145 8.68480E-03-5.74661E-04-5.78103E-14
 -1      4146 8.52537E-03-5.31390E-04-5.52223E-14
 -1      4147 8.81020E-03-5.97430E-04-5.99217E-14
 -1      4148 8.93762E-03-6.20845E-04-6.20617E-14
 -1      4149 8.77154E-03-5.74913E-04-5.94036E-14
 -1      4150 9.06684E-03-6.44678E-04-6.42289E-14
 -1      4151 9.19767E-03-6.68959E-04-6.64240E-14
 -1      4152 9.02634E-03-6.20847E-04-6.36960E-14
 -1      4153 9.32993E-03-6.93515E-04-6.86447E-14
 -1      4154 9.46347E-03-7.18354E-04-7.08917E-14
 -1      4155 9.28792E-03-6.68523E-04-6.80968E-14
 -1      4156 9.59816E-03-7.43343E-04-7.31616E-14
 -1      4157 9.73387E-03-7.68482E-04-7.54544E-14
 -1      4158 9.55491E-03-7.17341E-04-7.25978E-14
 -1      4159 9.87048E-03-7.93675E-04-7.77723E-14
 -1      4160 1.00079E-02-8.18921E-04-8.01132E-14
 -1      4161 9.82622E-03-7.66813E-04-7.71940E-14
 -1      4162 1.01461E-02-8.44152E-04-8.24745E-14
 -1      4163 1.02849E-02-8.69372E-04-8.48577E-14
 -1      4164 1.01010E-02-8.16569E-04-8.18833E-14
 -1      4165 1.04242E-02-8.94532E-04-8.72618E-14
 -1      4166 1.05641E-02-9.19641E-04-8.96863E-14
 -1      4167 1.03785E-02-8.66354E-04-8.66566E-14
 -1      4168 1.07043E-02-9.44667E-04-9.21302E-14
 -1      4169 1.08450E-02-9.69619E-04-9.45912E-14
 -1      4170 1.06581E-02-9.16004E-04-9.15122E-14
 -1      4171 1.09860E-02-9.94480E-04-9.70719E-14
 -1      4172 1.11273E-02-1.01926E-03-9.95718E-14
 -1      4173 1.09394E-02-9.65429E-04-9.64444E-14
 -1      4174 1.12689E-02-1.04395E-03-1.02090E-13
 -1      4175 1.14107E-02-1.06855E-03-1.04628E-13
 -1      4176 1.12219E-02-1.01459E-03-1.01450E-13
 -1      4177 1.15526E-02-1.09307E-03-1.07182E-13
 -1      4178 1.16948E-02-1.11752E-03-1.09755E-13
 -1      4179 1.15055E-02-1.06348E-03-1.06531E-13
 -1      4180 1.18370E-02-1.14189E-03-1.12345E-13
 -1      4181 1.19794E-02-1.16620E-03-1.14950E-13
 -1      4182 1.17897E-02-1.11211E-03-1.11684E-13
 -1      4183 1.21219E-02-1.19044E-03-1.17570E-13
 -1      4184 1.22645E-02-1.21463E-03-1.20203E-13
 -1      4185 1.20745E-02-1.16052E-03-1.16900E-13
 -1      4186 1.24071E-02-1.23876E-03-1.22848E-13
 -1      4187 1.25498E-02-1.26284E-03-1.25504E-13
 -1      4188 1.23596E-02-1.20873E-03-1.22170E-13
 -1      4189 1.26925E-02-1.28689E-03-1.28170E-13
 -1      4190 1.28353E-02-1.31089E-03-1.30843E-13
 -1      4191 1.26450E-02-1.25679E-03-1.27485E-13
 -1      4192 1.29781E-02-1.33486E-03-1.33524E-13
 -1      4193 1.31209E-02-1.35880E-03-1.36211E-13
 -1      4194 1.29305E-02-1.30471E-03-1.32835E-13
 -1      4195 1.82061E-03 3.85831E-05-4.51633E-15
 -1      4196 1.67620E-03 2.47126E-05-3.92068E-15
 -1      4197 1.66742E-03-2.10055E-06-3.93694E-15
 -1      4198 2.63491E-03 3.96803E-05-8.80658E-15
 -1      4199 1.31258E-02-1.12719E-03-1.38399E-13
 -1      4200 1.29108E-02-1.08766E-03-1.34380E-13
 -1      4201 7.62927E-03-2.68483E-04-4.36783E-14
 -1      4202 9.63559E-03-5.55246E-04-7.58864E-14
 -1      4203 9.49879E-03-5.34032E-04-7.35966E-14
 -1      4204 1.64551E-03-5.81150E-05-3.87483E-15
 -1      4205 1.77180E-03-7.35574E-05-4.44092E-15
 -1      4206 1.87592E-03-7.47407E-05-4.95449E-15
 -1      4207 1.64460E-03-3.33061E-05-3.87160E-15
 -1      4208 1.31895E-02-1.17070E-03-1.39312E-13
 -1      4209 8.04714E-03-3.21437E-04-5.00843E-14
 -1      4210 7.91926E-03-3.04369E-04-4.81089E-14
 -1      4211 9.36274E-03-5.13049E-04-7.13308E-14
 -1      4212 9.22741E-03-4.92347E-04-6.90889E-14
 -1      4213 9.45516E-03-5.54672E-04-7.25320E-14
 -1      4214 9.09292E-03-4.71916E-04-6.68737E-14
 -1      4215 8.95923E-03-4.51807E-04-6.46831E-14
 -1      4216 9.18611E-03-5.12427E-04-6.80468E-14
 -1      4217 9.91111E-03-5.98356E-04-8.05363E-14
 -1      4218 9.77303E-03-5.76702E-04-7.82007E-14
 -1      4219 9.72760E-03-5.97983E-04-7.71146E-14
 -1      4220 1.01889E-02-6.42249E-04-8.52708E-14
 -1      4221 1.00497E-02-6.20218E-04-8.28926E-14
 -1      4222 1.00029E-02-6.42149E-04-8.17877E-14
 -1      4223 1.04686E-02-6.86813E-04-9.00883E-14
 -1      4224 1.03285E-02-6.64458E-04-8.76705E-14
 -1      4225 1.02806E-02-6.87002E-04-8.65455E-14
 -1      4226 1.07498E-02-7.31947E-04-9.49853E-14
 -1      4227 1.06090E-02-7.09318E-04-9.25271E-14
 -1      4228 1.05603E-02-7.32411E-04-9.13866E-14
 -1      4229 1.10323E-02-7.77562E-04-9.99583E-14
 -1      4230 1.08909E-02-7.54702E-04-9.74623E-14
 -1      4231 1.08415E-02-7.78269E-04-9.63058E-14
 -1      4232 1.13157E-02-8.23581E-04-1.05006E-13
 -1      4233 1.11738E-02-8.00528E-04-1.02472E-13
 -1      4234 1.11240E-02-8.24491E-04-1.01297E-13
 -1      4235 1.15998E-02-8.69933E-04-1.10128E-13
 -1      4236 1.14576E-02-8.46720E-04-1.07560E-13
 -1      4237 1.14074E-02-8.71006E-04-1.06367E-13
 -1      4238 1.18844E-02-9.16558E-04-1.15316E-13
 -1      4239 1.17420E-02-8.93216E-04-1.12714E-13
 -1      4240 1.16916E-02-9.17757E-04-1.11509E-13
 -1      4241 1.21695E-02-9.63404E-04-1.20566E-13
 -1      4242 1.20269E-02-9.39957E-04-1.17935E-13
 -1      4243 1.19763E-02-9.64697E-04-1.16715E-13
 -1      4244 1.24548E-02-1.01043E-03-1.25859E-13
 -1      4245 1.23121E-02-9.86896E-04-1.23206E-13
 -1      4246 1.22614E-02-1.01179E-03-1.21977E-13
 -1      4247 1.27403E-02-1.05759E-03-1.31196E-13
 -1      4248 1.25975E-02-1.03399E-03-1.28523E-13
 -1      4249 1.25467E-02-1.05899E-03-1.27283E-13
 -1      4250 2.31838E-03-8.06780E-05-7.56142E-15
 -1      4251 2.34611E-03-5.36883E-05-7.66654E-15
 -1      4252 2.20451E-03-7.35073E-05-6.81612E-15
 -1      4253 8.82646E-03-4.32018E-04-6.25157E-14
 -1      4254 8.69448E-03-4.12597E-04-6.03739E-14
 -1      4255 8.92095E-03-4.71513E-04-6.36620E-14
 -1      4256 2.53937E-03 2.77794E-06-8.50847E-15
 -1      4257 2.48414E-03 3.09583E-05-7.98684E-15
 -1      4258 2.36852E-03 3.15972E-05-7.32708E-15
 -1      4259 2.42765E-03-3.33248E-05-8.07533E-15
 -1      4260 8.56350E-03-3.93550E-04-5.82613E-14
 -1      4261 8.43323E-03-3.74903E-04-5.61753E-14
 -1      4262 8.66016E-03-4.32260E-04-5.93783E-14
 -1      4263 1.31119E-02-1.18562E-03-1.37599E-13
 -1      4264 8.30396E-03-3.56652E-04-5.41148E-14
 -1      4265 8.17520E-03-3.38840E-04-5.20857E-14
 -1      4266 8.40419E-03-3.95043E-04-5.52035E-14
 -1      4267 1.34389E-02-1.40509E-03-1.42288E-13
 -1      4268 1.31987E-02-1.36331E-03-1.37759E-13
 -1      4269 1.34163E-02-1.37906E-03-1.42065E-13
 -1      4270 1.33976E-02-1.34866E-03-1.41960E-13
 -1      4271 1.32563E-02-1.31996E-03-1.39334E-13
 -1      4272 1.33015E-02-1.37198E-03-1.39781E-13
 -1      4273 1.95043E-03 3.53433E-05-5.13128E-15
 -1      4274 1.77983E-03-2.27128E-05-4.47227E-15
 -1      4275 7.86319E-03-3.19690E-04-4.65946E-14
 -1      4276 7.92900E-03-3.53908E-04-4.68146E-14
 -1      4277 8.15324E-03-3.60386E-04-5.11410E-14
 -1      4278 2.30944E-03-2.51344E-05-7.30596E-15
 -1      4279 1.28599E-02-1.11275E-03-1.33130E-13
 -1      4280 8.18176E-03-4.46196E-04-4.95842E-14
 -1      4281 8.22026E-03-4.64549E-04-5.00707E-14
 -1      4282 8.33384E-03-4.83268E-04-5.20773E-14
 -1      4283 8.18134E-03-4.30800E-04-4.99064E-14
 -1      4284 1.30230E-02-1.19813E-03-1.35681E-13
 -1      4285 1.29414E-02-1.15542E-03-1.34405E-13
 -1      4286 1.27710E-02-1.12525E-03-1.31221E-13
 -1      4287 1.99159E-03-7.24886E-05-5.56858E-15
 -1      4288 2.09237E-03-7.44248E-05-6.13911E-15
 -1      4289 2.11375E-03-4.68211E-05-6.23728E-15
 -1      4290 1.87883E-03-5.10069E-05-4.97757E-15
 -1      4291 8.05137E-03-3.77801E-04-4.86111E-14
 -1      4292 1.30631E-02-1.26364E-03-1.35908E-13
 -1      4293 1.30431E-02-1.23088E-03-1.35793E-13
 -1      4294 1.28726E-02-1.20060E-03-1.32606E-13
 -1      4295 2.21640E-03 3.40530E-05-6.48387E-15
 -1      4296 2.10219E-03 3.42720E-05-5.88818E-15
 -1      4297 1.95648E-03 8.51778E-06-5.25341E-15
 -1      4298 2.25163E-03 2.54911E-06-6.83534E-15
 -1      4299 1.31761E-02-1.33731E-03-1.37537E-13
 -1      4300 8.45042E-03-4.97451E-04-5.41704E-14
 -1      4301 8.57063E-03-5.17679E-04-5.62326E-14
 -1      4302 8.69340E-03-5.38509E-04-5.83230E-14
 -1      4303 8.81845E-03-5.60176E-04-6.04393E-14
 -1      4304 8.61249E-03-5.03104E-04-5.72416E-14
 -1      4305 8.94552E-03-5.82289E-04-6.25835E-14
 -1      4306 9.07439E-03-6.05014E-04-6.47552E-14
 -1      4307 8.86279E-03-5.44671E-04-6.14732E-14
 -1      4308 9.20485E-03-6.28071E-04-6.69546E-14
 -1      4309 9.33677E-03-6.51552E-04-6.91789E-14
 -1      4310 9.12049E-03-5.88504E-04-6.58137E-14
 -1      4311 9.46995E-03-6.75252E-04-7.14272E-14
 -1      4312 9.60431E-03-6.99227E-04-7.36984E-14
 -1      4313 9.38413E-03-6.33978E-04-7.02575E-14
 -1      4314 9.73969E-03-7.23329E-04-7.59947E-14
 -1      4315 9.87601E-03-7.47594E-04-7.83144E-14
 -1      4316 9.65259E-03-6.80577E-04-7.47980E-14
 -1      4317 1.00132E-02-7.71916E-04-8.06560E-14
 -1      4318 1.01510E-02-7.96320E-04-8.30197E-14
 -1      4319 9.92497E-03-7.27904E-04-7.94303E-14
 -1      4320 1.02896E-02-8.20734E-04-8.54056E-14
 -1      4321 1.04287E-02-8.45177E-04-8.78111E-14
 -1      4322 1.02005E-02-7.75664E-04-8.41550E-14
 -1      4323 1.05684E-02-8.69598E-04-9.02357E-14
 -1      4324 1.07085E-02-8.94014E-04-9.26811E-14
 -1      4325 1.04785E-02-8.23652E-04-8.89623E-14
 -1      4326 1.08490E-02-9.18392E-04-9.51440E-14
 -1      4327 1.09899E-02-9.42744E-04-9.76268E-14
 -1      4328 1.07586E-02-8.71732E-04-9.38476E-14
 -1      4329 1.11311E-02-9.67051E-04-1.00130E-13
 -1      4330 1.12725E-02-9.91324E-04-1.02650E-13
 -1      4331 1.10402E-02-9.19818E-04-9.88098E-14
 -1      4332 1.14142E-02-1.01555E-03-1.05188E-13
 -1      4333 1.15561E-02-1.03974E-03-1.07745E-13
 -1      4334 1.13230E-02-9.67863E-04-1.03848E-13
 -1      4335 1.16982E-02-1.06388E-03-1.10320E-13
 -1      4336 1.18404E-02-1.08799E-03-1.12911E-13
 -1      4337 1.16067E-02-1.01584E-03-1.08957E-13
 -1      4338 1.19827E-02-1.11206E-03-1.15518E-13
 -1      4339 1.21252E-02-1.13610E-03-1.18139E-13
 -1      4340 1.18910E-02-1.06375E-03-1.14138E-13
 -1      4341 1.22677E-02-1.16011E-03-1.20773E-13
 -1      4342 1.24103E-02-1.18408E-03-1.23419E-13
 -1      4343 1.21759E-02-1.11159E-03-1.19377E-13
 -1      4344 1.25530E-02-1.20803E-03-1.26075E-13
 -1      4345 1.26957E-02-1.23196E-03-1.28740E-13
 -1      4346 1.24611E-02-1.15936E-03-1.24666E-13
 -1      4347 1.28402E-02-1.25706E-03-1.31437E-13
 -1      4348 1.29830E-02-1.28095E-03-1.34117E-13
 -1      4349 7.76097E-03-2.74882E-04-4.59452E-14
 -1      4350 1.01026E-02-7.08671E-04-8.29731E-14
 -1      4351 9.96476E-03-6.85648E-04-8.06149E-14
 -1      4352 9.82759E-03-6.62730E-04-7.82776E-14
 -1      4353 9.69120E-03-6.40027E-04-7.59621E-14
 -1      4354 9.28758E-03-5.73178E-04-6.91579E-14
 -1      4355 9.15516E-03-5.51541E-04-6.69381E-14
 -1      4356 1.03802E-02-7.55096E-04-8.77571E-14
 -1      4357 1.02412E-02-7.31847E-04-8.53555E-14
 -1      4358 1.06599E-02-8.01859E-04-9.26199E-14
 -1      4359 1.05198E-02-7.78452E-04-9.01786E-14
 -1      4360 1.09412E-02-8.48857E-04-9.75602E-14
 -1      4361 1.08004E-02-8.25341E-04-9.50807E-14
 -1      4362 1.12237E-02-8.96020E-04-1.02576E-13
 -1      4363 1.10823E-02-8.72427E-04-1.00060E-13
 -1      4364 1.15072E-02-9.43295E-04-1.07666E-13
 -1      4365 1.13653E-02-9.19649E-04-1.05111E-13
 -1      4366 1.17914E-02-9.90651E-04-1.12826E-13
 -1      4367 1.16492E-02-9.66967E-04-1.10237E-13
 -1      4368 1.20761E-02-1.03806E-03-1.18049E-13
 -1      4369 1.19337E-02-1.01435E-03-1.15430E-13
 -1      4370 1.23612E-02-1.08551E-03-1.23323E-13
 -1      4371 1.22186E-02-1.06178E-03-1.20682E-13
 -1      4372 1.26466E-02-1.13299E-03-1.28641E-13
 -1      4373 1.25039E-02-1.10925E-03-1.25976E-13
 -1      4374 9.02404E-03-5.30200E-04-6.47441E-14
 -1      4375 8.89422E-03-5.09404E-04-6.25734E-14
 -1      4376 2.16721E-03-2.00097E-05-6.46256E-15
 -1      4377 9.55568E-03-6.17475E-04-7.36695E-14
 -1      4378 9.42109E-03-5.95219E-04-7.14021E-14
 -1      4379 1.90155E-03-1.92751E-05-5.05355E-15
 -1      4380 8.51436E-03-4.50174E-04-5.62296E-14
 -1      4381 8.39129E-03-4.32017E-04-5.41692E-14
 -1      4382 8.76596E-03-4.89004E-04-6.04321E-14
 -1      4383 8.63922E-03-4.69332E-04-5.83195E-14
 -1      4384 7.90265E-03-3.06698E-04-4.77294E-14
 -1      4385 8.37332E-03-4.69783E-04-5.30632E-14
 -1      4386 2.04650E-03-2.22836E-05-5.80738E-15
 -1      4387 1.27482E-02-1.20827E-03-1.30018E-13
 -1      4388 8.12371E-03-3.74185E-04-5.01977E-14
 -1      4389 8.17281E-03-4.02833E-04-5.04246E-14
 -1      4390 8.25805E-03-4.29892E-04-5.15168E-14
 -1      4391 1.27281E-02-1.17561E-03-1.29907E-13
 -1      4392 1.31535E-02-1.31132E-03-1.37313E-13
 -1      4393 8.26353E-03-3.89150E-04-5.25957E-14
 -1      4394 8.14099E-03-3.72615E-04-5.05861E-14
 -1      4395 8.37319E-03-4.42008E-04-5.35964E-14
 -1      4396 8.01281E-03-3.45868E-04-4.87672E-14
 -3
    1PSTEP                         2           1           1          
  100CL  101 1.000000000        4396                     0    1           1
 -4  STRESS      6    1
 -5  SXX         1    4    1    1
 -5  SYY         1    4    2    2
 -5  SZZ         1    4    3    3
 -5  SXY         1    4    1    2
 -5  SYZ         1    4    2    3
 -5  SZX         1    4    3    1
 -1         1-1.68963E+00-1.61799E+01-2.82967E+00 4.22957E+00 2.40530E-12-7.22505E-13
 -1         2-7.27436E-01-2.46534E+01-3.36416E+00 1.88010E-02 3.13565E-13 1.29750E-13
 -1         3 2.00000E+01 1.71089E-04-1.54974E-04 1.66837E-04-5.04962E-13-3.85672E-13
 -1         4 1.99999E+01 1.48954E-04-1.76075E-04-1.48151E-04 3.37250E-13-9.33382E-14
 -1         5 3.25160E+01 6.10640E+00 2.63517E+00 6.11540E+00-5.21319E-14 3.88899E-12
 -1         6 3.53064E+01 1.20699E+01 4.92636E+00-8.45023E+00-2.22544E-13 3.71941E-12
 -1         7 2.11847E+01 6.19305E+00-7.78593E-02-4.46350E+00-2.91017E-14 7.17901E-13
 -1         8 2.00498E+01 6.04082E+00 7.51531E-02-2.89634E+00-4.25424E-14-2.18705E-13
 -1         9 1.94200E+01 5.85220E+00 5.96515E-02-2.08362E+00-4.27297E-14-7.29692E-13
 -1        10 1.90154E+01 5.72534E+00 4.99248E-02-1.50205E+00-2.41560E-14-9.76728E-13
 -1        11 1.87152E+01 5.63193E+00 4.00411E-02-1.05512E+00-2.06501E-14-1.09315E-12
 -1        12 1.84949E+01 5.56374E+00 3.17734E-02-7.05622E-01-8.99281E-15-1.14416E-12
 -1        13 1.83463E+01 5.51816E+00 2.61043E-02-4.11256E-01-5.51729E-15-1.14566E-12
 -1        14 1.82773E+01 5.49707E+00 2.38649E-02-1.49709E-01-5.45787E-16-1.14087E-12
 -1        15 1.82884E+01 5.50048E+00 2.50535E-02 1.06082E-01 7.68569E-15-1.12848E-12
 -1        16 1.83756E+01 5.52719E+00 2.93415E-02 3.81446E-01 1.22619E-14-1.10104E-12
 -1        17 1.85320E+01 5.57510E+00 3.61541E-02 7.00193E-01 1.59508E-14-1.04096E-12
 -1        18 1.87470E+01 5.64181E+00 4.44719E-02 1.07770E+00 2.50442E-14-9.39565E-13
 -1        19 1.90311E+01 5.73067E+00 5.30421E-02 1.55261E+00 3.85820E-14-7.75481E-13
 -1        20 1.94127E+01 5.85191E+00 5.96211E-02 2.15519E+00 4.69833E-14-4.80112E-13
 -1        21 2.00179E+01 6.04730E+00 6.79770E-02 2.96620E+00 5.21735E-14 9.85206E-14
 -1        22 2.14891E+01 6.45039E+00 1.63880E-01 4.29111E+00 7.97973E-15 1.27022E-12
 -1        23 2.32531E+01-1.40021E+00-9.52284E-01-6.37597E-01-1.47989E-13 2.94052E-12
 -1        24 2.00353E+01-1.00645E-01-3.03584E-01 7.28234E-02-4.64099E-14 2.24332E-12
 -1        25 1.97246E+01-5.94609E-02-6.93189E-02 6.50957E-02-2.08750E-14 1.53929E-12
 -1        26 1.99352E+01-2.76839E-02-1.33437E-02 3.89546E-02-2.44943E-15 1.04228E-12
 -1        27 2.04498E+01-1.90581E-02-9.27885E-03 3.21857E-02 2.95586E-15 7.46982E-13
 -1        28 2.11920E+01-1.41575E-02-1.15372E-02 3.12296E-02-5.34371E-15 5.20176E-13
 -1        29 2.21245E+01-1.00187E-02-1.18883E-02 3.40122E-02 1.68973E-14 4.27674E-13
 -1        30 2.32095E+01-4.44617E-03-7.72581E-03 3.88355E-02-1.06513E-14 2.47996E-13
 -1        31 2.43750E+01 4.44735E-03 4.34832E-03 4.29241E-02 2.21847E-15 3.59105E-14
 -1        32 2.54756E+01 1.78270E-02 2.84940E-02 4.06837E-02-3.80228E-14-1.25523E-13
 -1        33 2.62554E+01 3.45080E-02 6.56504E-02 2.25444E-02 2.16055E-14-2.20794E-13
 -1        34 2.63466E+01 4.84541E-02 1.05645E-01-2.27953E-02-1.44190E-14-1.64712E-13
 -1        35 2.53757E+01 4.83444E-02 1.19599E-01-9.76571E-02-1.77033E-14-2.68539E-13
 -1        36 2.32406E+01 2.29816E-02 6.72670E-02-1.75532E-01 1.82380E-14-2.43909E-13
 -1        37 2.04686E+01-2.47978E-02-5.80623E-02-1.96682E-01-1.02364E-14-2.66613E-13
 -1        38 1.82603E+01-6.95509E-02-1.88961E-01-1.11238E-01-3.32590E-14-4.87443E-13
 -1        39 1.78442E+01-7.91827E-02-2.18512E-01 4.88078E-02-2.36061E-14-6.67815E-13
 -1        40 1.94949E+01-4.64250E-02-1.21024E-01 1.75870E-01 3.24849E-14-8.51597E-13
 -1        41 2.22883E+01 4.07054E-03 1.83811E-02 1.97170E-01 3.49159E-14-8.98025E-13
 -1        42 2.48947E+01 4.05977E-02 1.04771E-01 1.34934E-01-7.98923E-14-1.02741E-12
 -1        43 2.64739E+01 5.05156E-02 1.15387E-01 5.37771E-02 7.72472E-15-9.18543E-13
 -1        44 2.69022E+01 4.08182E-02 8.19198E-02-4.24462E-03-1.12087E-14-7.75709E-13
 -1        45 2.64856E+01 2.42946E-02 4.10761E-02-3.15849E-02-1.65727E-14-8.80213E-13
 -1        46 2.56182E+01 9.53582E-03 1.10127E-02-3.76610E-02-6.46412E-15-1.03691E-12
 -1        47 2.46057E+01-4.25704E-04-5.64121E-03-3.34419E-02-8.50483E-15-8.04202E-13
 -1        48 2.36301E+01-5.83926E-03-1.25215E-02-2.60004E-02 4.26353E-14-6.14739E-13
 -1        49 2.27773E+01-8.04529E-03-1.38842E-02-1.87242E-02-2.92045E-14-6.18557E-13
 -1        50 2.20735E+01-8.34746E-03-1.27055E-02-1.27993E-02 1.90333E-14-1.03145E-12
 -1        51 2.15141E+01-7.68045E-03-1.06496E-02-8.38112E-03-3.04978E-14-9.17131E-13
 -1        52 2.10814E+01-6.61750E-03-8.51034E-03-5.24821E-03-4.51464E-14-1.05951E-12
 -1        53 2.07538E+01-5.47309E-03-6.60618E-03-3.09925E-03 9.08982E-15-1.22787E-12
 -1        54 2.05103E+01-4.40132E-03-5.02713E-03-1.66387E-03 5.76299E-14-9.50414E-13
 -1        55 2.03326E+01-3.46563E-03-3.76605E-03-7.30645E-04-6.69359E-14-6.33597E-13
 -1        56 2.02055E+01-2.68194E-03-2.78129E-03-1.44189E-04-5.59949E-14-8.38492E-13
 -1        57 2.01165E+01-2.04338E-03-2.02402E-03 2.06315E-04-1.53091E-14-9.22901E-13
 -1        58 2.00560E+01-1.53346E-03-1.44889E-03 3.98764E-04-6.85206E-14-1.01063E-12
 -1        59 2.00164E+01-1.13293E-03-1.01726E-03 4.87537E-04 4.53814E-14-8.97950E-13
 -1        60 1.99919E+01-8.22927E-04-6.97452E-04 5.10429E-04-3.72932E-14-7.55174E-13
 -1        61 1.99780E+01-5.86361E-04-4.63976E-04 4.93576E-04 1.43023E-13-6.46095E-13
 -1        62 1.99714E+01-4.08370E-04-2.96501E-04 4.54898E-04-1.07281E-13-3.27924E-13
 -1        63 1.99698E+01-2.76303E-04-1.78843E-04 4.06513E-04-2.40702E-14-6.51299E-13
 -1        64 1.99714E+01-1.79509E-04-9.80749E-05 3.56404E-04 1.31090E-13-6.12894E-13
 -1        65 1.99749E+01-1.09030E-04-4.36988E-05 3.09569E-04-1.01815E-13-2.88222E-13
 -1        66 1.99795E+01-5.72608E-05-6.71323E-06 2.68727E-04 1.70225E-14-1.92638E-13
 -1        67 1.99846E+01-1.75756E-05 2.17555E-05 2.34531E-04 8.34971E-14-8.40816E-14
 -1        68 1.99896E+01 1.58486E-05 5.18606E-05 2.04807E-04 5.41618E-15 4.73953E-13
 -1        69 1.99942E+01 4.69247E-05 9.48540E-05 1.71443E-04 7.72813E-14 3.58702E-13
 -1        70 1.99978E+01 6.39776E-05 1.41232E-04 1.03128E-04-6.10793E-14 5.19647E-13
 -1        71 1.99998E+01-1.28813E-05 8.91657E-05-1.07150E-05-1.09947E-13 1.86198E-13
 -1        72 2.12926E+01-4.04559E-01-9.86410E-01-3.31631E-01 5.01509E-14 3.55342E-12
 -1        73 1.99568E+01-6.57922E-02-2.84880E-01-5.94711E-02 3.82749E-14 2.65542E-12
 -1        74 1.96306E+01-2.15008E-02-6.29208E-02-2.32702E-02 1.14069E-14 2.00220E-12
 -1        75 1.97520E+01-1.11438E-02-1.16466E-02-1.84893E-02 9.02891E-15 1.55487E-12
 -1        76 2.01195E+01-5.92730E-03-2.79087E-03-1.71896E-02 7.82604E-15 1.21917E-12
 -1        77 2.06251E+01-1.99099E-03-5.56221E-04-1.78318E-02-4.59713E-15 1.01025E-12
 -1        78 2.11951E+01 1.87780E-03 3.23599E-03-1.96523E-02 1.51490E-15 9.02645E-13
 -1        79 2.17558E+01 6.11414E-03 1.00001E-02-2.15786E-02 1.30885E-15 7.59223E-13
 -1        80 2.22173E+01 1.05210E-02 1.96860E-02-2.19404E-02 6.04296E-15 6.64961E-13
 -1        81 2.24691E+01 1.41367E-02 3.09824E-02-1.82716E-02 2.71880E-14 4.30852E-13
 -1        82 2.23912E+01 1.52218E-02 4.03564E-02-7.72459E-03 1.66177E-14 3.06318E-13
 -1        83 2.18892E+01 1.18049E-02 4.17499E-02 1.13307E-02-2.15908E-15 1.78219E-13
 -1        84 2.09533E+01 3.04812E-03 2.86147E-02 3.65475E-02 1.20870E-14 1.74642E-13
 -1        85 1.97216E+01-9.16830E-03-9.94054E-04 5.94648E-02-1.21288E-14 6.46323E-14
 -1        86 1.84983E+01-2.01012E-02-3.91436E-02 6.75283E-02 1.98214E-14-2.15904E-13
 -1        87 1.76742E+01-2.45664E-02-6.87949E-02 5.18562E-02-4.44161E-14-1.59362E-13
 -1        88 1.75560E+01-2.04905E-02-7.38915E-02 1.57794E-02-2.49772E-14 1.20804E-13
 -1        89 1.82029E+01-1.02602E-02-5.14470E-02-2.51052E-02 5.68355E-14-1.54373E-14
 -1        90 1.93931E+01 1.23606E-03-1.43365E-02-5.33436E-02-3.67058E-14-2.27672E-13
 -1        91 2.07492E+01 9.78972E-03 1.93247E-02-6.09257E-02 2.29064E-14-4.96062E-14
 -1        92 2.19219E+01 1.36456E-02 3.80268E-02-5.13867E-02-4.33789E-15-7.90496E-14
 -1        93 2.27095E+01 1.33469E-02 4.07386E-02-3.38612E-02 2.81307E-14-1.20721E-13
 -1        94 2.30723E+01 1.05511E-02 3.31345E-02-1.64152E-02 2.73739E-14-6.83517E-13
 -1        95 2.30792E+01 6.91348E-03 2.18160E-02-3.21821E-03 2.34455E-14-7.97177E-13
 -1        96 2.28422E+01 3.54665E-03 1.12657E-02 4.88568E-03 3.72462E-14-7.31974E-13
 -1        97 2.24706E+01 9.59895E-04 3.41711E-03 8.78591E-03-3.55297E-15-5.27824E-13
 -1        98 2.20498E+01-7.59003E-04-1.52244E-03 9.85154E-03-6.42903E-14-5.34616E-14
 -1        99 2.16365E+01-1.73612E-03-4.12270E-03 9.29338E-03-1.43407E-15-4.39857E-13
 -1       100 2.12632E+01-2.16614E-03-5.12312E-03 7.97180E-03 1.16378E-14-6.00385E-13
 -1       101 2.09446E+01-2.23506E-03-5.15749E-03 6.41845E-03 1.53405E-14-5.61044E-13
 -1       102 2.06841E+01-2.09060E-03-4.68084E-03 4.92362E-03 3.34562E-14-6.03370E-13
 -1       103 2.04784E+01-1.83794E-03-3.98595E-03 3.62215E-03-6.90550E-14 6.40005E-16
 -1       104 2.03208E+01-1.54603E-03-3.24535E-03 2.55801E-03 4.35064E-14 5.04377E-13
 -1       105 2.02036E+01-1.25661E-03-2.55137E-03 1.72674E-03-2.34115E-14 5.31755E-13
 -1       106 2.01189E+01-9.92486E-04-1.94659E-03 1.10130E-03 1.24043E-14 2.11610E-13
 -1       107 2.00599E+01-7.64106E-04-1.44443E-03 6.46665E-04 5.52234E-14-7.51921E-13
 -1       108 2.00203E+01-5.74247E-04-1.04238E-03 3.27598E-04-1.51866E-14-8.58241E-13
 -1       109 1.99952E+01-4.21268E-04-7.30088E-04 1.12337E-04-9.60826E-14-9.46827E-14
 -1       110 1.99806E+01-3.01226E-04-4.94079E-04-2.60093E-05 1.17738E-13-3.12449E-13
 -1       111 1.99734E+01-2.09194E-04-3.20427E-04-1.09289E-04-2.31541E-14-4.26029E-13
 -1       112 1.99712E+01-1.40037E-04-1.96091E-04-1.54727E-04-1.15921E-13-3.20937E-13
 -1       113 1.99724E+01-8.88247E-05-1.09482E-04-1.75593E-04 6.65048E-15-3.93841E-13
 -1       114 1.99756E+01-5.09997E-05-5.05033E-05-1.81921E-04-1.76154E-15-8.07238E-13
 -1       115 1.99800E+01-2.23730E-05-1.00821E-05-1.81173E-04-7.49700E-15-1.28947E-12
 -1       116 1.99849E+01 8.80885E-07 2.09832E-05-1.78598E-04-3.67802E-14-6.07885E-13
 -1       117 1.99899E+01 2.22273E-05 5.36887E-05-1.76914E-04 1.75907E-14-1.07661E-12
 -1       118 1.99944E+01 4.32880E-05 9.94929E-05-1.74231E-04-4.96815E-14-1.11853E-12
 -1       119 1.99979E+01 5.91977E-05 1.51198E-04-1.49971E-04 1.06406E-13-8.02600E-13
 -1       120 1.99997E+01-4.54818E-05 6.58926E-05-3.19514E-05 2.94865E-13-1.21403E-12
 -1       121 1.99998E+01-1.66623E-04 6.00399E-05-7.88716E-07-1.34021E-12-2.07832E-13
 -1       122 1.99999E+01-2.00225E-03 1.18270E-04-1.14607E-04-6.94418E-13 3.56863E-13
 -1       123 1.99998E+01-5.23194E-03 4.23737E-05-1.53578E-04 5.94419E-13 9.00915E-14
 -1       124 1.99998E+01-8.87267E-03-2.07073E-05-1.46260E-04-1.48431E-13-2.85833E-13
 -1       125 1.99998E+01-1.22929E-02-5.77080E-05-1.19139E-04 6.02560E-14-6.62771E-14
 -1       126 1.99998E+01-1.50670E-02-7.75427E-05-8.74214E-05-4.21740E-14-8.89473E-14
 -1       127 1.99997E+01-1.70548E-02-8.64107E-05-5.26819E-05 3.94708E-13 1.31376E-13
 -1       128 1.99997E+01-1.80837E-02-9.01818E-05-1.79944E-05 4.57115E-13-8.10634E-14
 -1       129 1.99997E+01-1.80995E-02-9.07240E-05 1.66735E-05 7.88628E-13 2.22284E-13
 -1       130 1.99997E+01-1.70968E-02-8.79332E-05 5.18033E-05 4.76734E-13-3.01771E-13
 -1       131 1.99998E+01-1.51209E-02-7.88844E-05 8.85981E-05-2.05582E-13 6.70235E-14
 -1       132 1.99998E+01-1.23406E-02-5.98522E-05 1.20547E-04-5.60973E-13 2.61093E-13
 -1       133 1.99998E+01-8.89448E-03-2.16534E-05 1.47989E-04-1.43093E-13-8.80124E-14
 -1       134 1.99998E+01-5.21486E-03 4.82252E-05 1.65074E-04-6.74283E-13-8.44893E-14
 -1       135 1.99999E+01-2.03237E-03 1.02374E-04 1.61126E-04-1.15589E-12 4.92783E-14
 -1       136 1.99999E+01-2.22923E-04 5.32856E-05-4.85380E-05-6.68510E-13 2.45422E-13
 -1       137-1.28008E+00-1.99279E+01-3.04752E+00-3.61346E+00 2.66062E-12 5.47621E-13
 -1       138-1.57468E+00-9.54035E+00-2.31480E+00-3.25450E+00 3.75788E-12 1.65135E-12
 -1       139 1.96927E+00 2.06399E+00-1.22661E+00 2.41248E+00 4.15601E-12 2.93143E-12
 -1       140 1.26530E+01 9.92821E+00 1.28784E-01 1.11723E+01 3.57753E-12 3.75988E-12
 -1       141 2.95376E+01 1.08550E+01 1.47677E+00 1.74871E+01 2.51371E-12 3.97521E-12
 -1       142 4.82220E+01 6.91616E+00 2.59678E+00 1.73450E+01 1.24376E-12 3.07010E-12
 -1       143 6.19675E+01 2.31824E+00 3.31776E+00 9.71424E+00 2.05730E-13 1.39186E-12
 -1       144 6.56628E+01 9.46618E-01 3.50303E+00-3.00233E+00 1.28005E-13-9.96911E-13
 -1       145 5.69428E+01 4.15388E+00 3.07678E+00-1.40536E+01 8.78984E-13-3.31096E-12
 -1       146 3.98975E+01 9.21004E+00 2.16201E+00-1.84033E+01 2.12788E-12-4.32426E-12
 -1       147 2.09840E+01 1.08117E+01 8.23617E-01-1.49259E+01 3.29614E-12-4.24977E-12
 -1       148 6.09957E+00 6.65530E+00-5.72911E-01-6.59244E+00 3.73995E-12-3.29431E-12
 -1       149-6.01151E-01-3.99821E+00-1.85899E+00 1.21368E+00 3.37569E-12-1.78021E-12
 -1       150-7.91756E-01-2.41921E+01-3.35690E+00 1.78401E+00 7.19258E-13-1.02420E-13
 -1       151-1.01112E+00-2.36769E+01-3.36765E+00-2.69088E+00-1.23490E-12-1.65631E-13
 -1       152-1.92038E+00-1.46331E+01-2.82320E+00-4.39648E+00-2.93365E-12-1.08626E-12
 -1       153 3.25730E-02-2.09169E+00-1.77046E+00-2.27142E-01-3.83149E-12-2.37133E-12
 -1       154 9.84046E+00 7.81359E+00-3.19006E-01 8.86386E+00-3.81722E-12-3.75322E-12
 -1       155 2.77914E+01 1.06960E+01 1.29587E+00 1.68356E+01-2.81591E-12-4.06419E-12
 -1       156 5.07074E+01 6.73616E+00 2.84975E+00 1.71866E+01-1.14397E-12-3.15648E-12
 -1       157 6.60796E+01 1.72159E+00 3.71891E+00 7.42805E+00-2.20509E-13-1.35134E-12
 -1       158 6.63967E+01 1.46767E+00 3.71863E+00-6.70084E+00-1.79889E-13 8.37996E-13
 -1       159 5.29868E+01 5.83940E+00 2.94958E+00-1.65225E+01-1.02851E-12 2.98128E-12
 -1       160 3.25543E+01 1.02697E+01 1.61812E+00-1.78824E+01-2.74702E-12 4.64212E-12
 -1       161 1.39557E+01 9.35610E+00 9.01865E-02-1.14130E+01-4.22956E-12 4.64501E-12
 -1       162 2.09356E+00 1.46529E+00-1.36123E+00-2.28438E+00-4.66527E-12 3.39118E-12
 -1       163-1.90598E+00-1.07135E+01-2.50954E+00 3.81696E+00-4.22090E-12 1.82968E-12
 -1       164-1.35574E+00-2.10539E+01-3.18347E+00 3.82228E+00-2.35045E-12 5.00152E-13
 -1       165 2.14823E+01 3.65515E+00-5.21709E-02-3.22733E+00-5.35735E-13 2.15182E-13
 -1       166 2.03791E+01 4.22998E+00-4.23258E-02-2.37175E+00-5.05246E-13-3.57891E-13
 -1       167 1.97138E+01 4.54908E+00-2.97566E-02-1.73957E+00-4.22043E-13-6.91671E-13
 -1       168 1.92529E+01 4.72536E+00-2.19321E-02-1.25104E+00-3.21196E-13-8.48912E-13
 -1       169 1.89156E+01 4.83368E+00-1.72326E-02-8.68965E-01-2.16667E-13-9.25952E-13
 -1       170 1.86747E+01 4.89985E+00-1.47582E-02-5.52607E-01-1.32820E-13-9.50386E-13
 -1       171 1.85372E+01 4.93181E+00-1.35098E-02-2.80502E-01-3.70999E-14-9.53908E-13
 -1       172 1.85037E+01 4.93487E+00-1.31996E-02-2.58399E-02 5.00300E-14-9.48311E-13
 -1       173 1.85707E+01 4.91208E+00-1.37454E-02 2.36418E-01 1.27296E-13-9.29800E-13
 -1       174 1.87312E+01 4.86427E+00-1.52089E-02 5.29417E-01 2.05851E-13-8.95112E-13
 -1       175 1.89725E+01 4.79035E+00-1.79017E-02 8.68339E-01 2.94214E-13-8.18748E-13
 -1       176 1.93024E+01 4.67835E+00-2.26555E-02 1.28624E+00 4.04578E-13-6.92368E-13
 -1       177 1.97401E+01 4.50339E+00-3.14482E-02 1.80389E+00 4.98053E-13-4.92842E-13
 -1       178 2.03809E+01 4.19214E+00-4.45990E-02 2.45120E+00 5.62861E-13-1.12334E-13
 -1       179 2.15585E+01 3.43221E+00-5.58272E-02 3.20297E+00 5.32553E-13 5.84921E-13
 -1       180 2.27981E+01 1.10489E+00-3.30660E-01 2.76938E+00 3.99366E-13 1.52381E-12
 -1       181 2.24971E+01 8.33811E-01 1.84683E-03-1.66979E+00-4.72296E-13 9.03937E-13
 -1       182 2.12266E+01 1.93392E-01-8.05580E-03-4.68510E-01-4.16434E-13 6.71236E-13
 -1       183 2.07560E+01 1.22415E-01 1.50594E-02 4.49395E-02-2.95358E-13 4.65368E-13
 -1       184 2.07781E+01 7.99458E-02 1.13388E-02 3.32109E-01-2.23995E-13 2.64521E-13
 -1       185 2.10857E+01 6.35273E-02 6.39881E-03 5.32902E-01-1.32445E-13 1.36412E-13
 -1       186 2.15968E+01 5.32346E-02 3.23865E-03 6.91617E-01-9.61952E-14 7.39938E-14
 -1       187 2.22566E+01 3.85029E-02 9.14648E-04 8.13325E-01-8.51419E-14-9.57958E-15
 -1       188 2.30123E+01 8.81307E-03-1.40349E-03 8.76364E-01-9.34499E-14-1.40942E-14
 -1       189 2.37907E+01-4.78006E-02-3.80123E-03 8.31950E-01-8.84646E-14-1.06607E-14
 -1       190 2.44810E+01-1.39931E-01-5.55470E-03 6.07349E-01-4.47346E-14 1.39168E-15
 -1       191 2.49267E+01-2.57890E-01-5.48441E-03 1.31331E-01-3.03698E-14-1.02536E-13
 -1       192 2.49463E+01-3.50105E-01-2.81618E-03-5.96604E-01-7.15313E-15-8.55676E-14
 -1       193 2.44047E+01-3.10192E-01 1.61350E-03-1.39488E+00-2.51752E-14-3.97061E-14
 -1       194 2.33584E+01-4.80309E-02 5.53854E-04-1.84398E+00-4.99268E-14-1.93786E-14
 -1       195 2.21960E+01 3.66079E-01-8.17338E-03-1.48131E+00-2.10160E-13-1.24409E-13
 -1       196 2.15580E+01 6.39309E-01-1.50490E-02-2.76265E-01-2.06300E-13-4.03461E-13
 -1       197 2.18783E+01 5.19693E-01-1.25334E-02 1.11892E+00-1.61969E-13-6.27923E-13
 -1       198 2.29659E+01 1.22159E-01-4.56568E-03 1.87686E+00-1.09488E-13-7.79779E-13
 -1       199 2.41996E+01-2.27779E-01-3.55114E-04 1.73079E+00-1.55871E-13-9.44416E-13
 -1       200 2.50514E+01-3.54465E-01-1.61177E-03 1.02215E+00 4.09230E-14-8.99417E-13
 -1       201 2.53350E+01-3.01993E-01-4.60838E-03 2.34050E-01 1.45145E-13-7.79769E-13
 -1       202 2.51266E+01-1.84388E-01-5.75812E-03-3.48124E-01-4.85965E-14-6.39697E-13
 -1       203 2.46012E+01-7.82983E-02-4.74600E-03-6.63611E-01 1.44980E-15-5.37780E-13
 -1       204 2.39272E+01-8.55877E-03-2.75211E-03-7.68677E-01 1.71387E-13-2.95341E-13
 -1       205 2.32267E+01 2.80896E-02-8.10958E-04-7.44699E-01 8.48738E-14-2.96356E-13
 -1       206 2.25732E+01 4.25529E-02 5.68588E-04-6.57288E-01-6.36680E-14-4.83257E-13
 -1       207 2.20024E+01 4.45805E-02 1.33156E-03-5.48327E-01-1.99631E-13-5.24873E-13
 -1       208 2.15254E+01 4.06813E-02 1.62319E-03-4.40604E-01-6.71856E-14-8.26127E-13
 -1       209 2.11394E+01 3.45831E-02 1.62167E-03-3.44588E-01 3.41046E-14-6.38610E-13
 -1       210 2.08344E+01 2.81864E-02 1.46809E-03-2.63796E-01-7.18675E-14-3.67120E-13
 -1       211 2.05984E+01 2.23428E-02 1.25402E-03-1.98223E-01 9.58163E-14-3.24606E-13
 -1       212 2.04190E+01 1.73539E-02 1.03129E-03-1.46317E-01 9.86071E-14-3.27268E-13
 -1       213 2.02850E+01 1.32572E-02 8.25602E-04-1.06007E-01-4.85372E-14-4.36121E-13
 -1       214 2.01867E+01 9.97635E-03 6.47360E-04-7.52029E-02-5.35368E-15-2.76552E-13
 -1       215 2.01161E+01 7.39605E-03 4.98824E-04-5.20155E-02-1.32201E-13-4.97153E-13
 -1       216 2.00665E+01 5.39660E-03 3.78298E-04-3.48235E-02 1.81895E-14-3.96621E-13
 -1       217 2.00327E+01 3.86825E-03 2.82437E-04-2.22816E-02-3.02215E-14-6.06311E-13
 -1       218 2.00105E+01 2.71594E-03 2.07435E-04-1.32964E-02 4.42596E-14-4.18656E-13
 -1       219 1.99968E+01 1.85974E-03 1.49590E-04-6.99383E-03 1.73775E-14-4.72798E-13
 -1       220 1.99892E+01 1.23351E-03 1.05547E-04-2.68495E-03-7.88213E-14-4.20340E-13
 -1       221 1.99857E+01 7.82906E-04 7.23618E-05 1.64508E-04-2.93336E-15-3.29180E-13
 -1       222 1.99850E+01 4.63236E-04 4.74973E-05 1.96081E-03 2.59320E-13-2.49386E-13
 -1       223 1.99861E+01 2.37279E-04 2.87915E-05 3.00369E-03 2.02013E-13 2.62898E-13
 -1       224 1.99883E+01 7.29131E-05 1.45260E-05 3.50282E-03 1.40513E-13 3.47968E-13
 -1       225 1.99910E+01-5.98430E-05 3.73473E-06 3.58828E-03 1.18839E-13 2.76963E-13
 -1       226 1.99938E+01-1.91790E-04-3.30803E-06 3.31607E-03-6.96147E-15-5.78643E-15
 -1       227 1.99963E+01-3.59727E-04-6.64601E-06 2.67238E-03 1.98671E-13-1.77927E-13
 -1       228 1.99983E+01-5.79154E-04-3.03136E-06 1.62183E-03-2.88306E-14 3.16832E-13
 -1       229 2.15364E+01 2.68389E-01-4.83736E-02 9.46591E-01 4.34514E-13 1.30279E-12
 -1       230 2.06840E+01 1.28099E-01 9.27706E-03 2.31444E-01 3.21209E-13 9.80458E-13
 -1       231 2.04407E+01 6.48409E-02 1.27497E-02-7.55976E-02 2.40303E-13 7.18013E-13
 -1       232 2.05193E+01 3.61073E-02 7.27888E-03-2.37864E-01 1.90083E-13 5.39549E-13
 -1       233 2.07814E+01 1.87876E-02 3.24542E-03-3.27176E-01 9.16828E-14 4.24169E-13
 -1       234 2.11390E+01 3.02543E-03 1.11936E-03-3.63081E-01 6.41692E-14 3.33905E-13
 -1       235 2.15206E+01-1.55484E-02 1.08410E-04-3.44898E-01 6.26071E-14 2.86803E-13
 -1       236 2.18546E+01-3.86600E-02-1.85185E-04-2.62932E-01 5.10230E-14 2.54456E-13
 -1       237 2.20635E+01-6.49249E-02 1.51059E-04-1.07157E-01 1.15031E-13 1.65161E-13
 -1       238 2.20697E+01-8.81763E-02 1.00213E-03 1.21180E-01 5.43376E-14 1.82493E-13
 -1       239 2.18144E+01-9.64869E-02 1.92447E-03 3.94339E-01 3.35326E-14 2.25806E-13
 -1       240 2.12898E+01-7.51182E-02 2.08102E-03 6.45793E-01 1.22411E-14 1.68740E-13
 -1       241 2.05737E+01-1.61729E-02 7.27163E-04 7.76146E-01 8.75847E-14 4.99809E-14
 -1       242 1.98421E+01 6.83694E-02-1.89397E-03 6.92482E-01 7.41675E-14 4.59667E-14
 -1       243 1.93282E+01 1.43388E-01-4.16050E-03 3.72521E-01-7.28757E-14 1.40896E-13
 -1       244 1.92251E+01 1.68945E-01-4.19626E-03-9.33096E-02-1.80875E-14 3.31293E-14
 -1       245 1.95843E+01 1.30474E-01-1.68477E-03-5.33716E-01 1.51427E-13-1.35684E-13
 -1       246 2.02859E+01 5.10335E-02 1.48556E-03-7.93146E-01 2.85413E-14-2.30005E-13
 -1       247 2.11070E+01-2.83417E-02 3.25280E-03-8.14920E-01-5.95386E-14-2.63361E-13
 -1       248 2.18314E+01-7.78975E-02 2.98124E-03-6.47786E-01 2.84326E-14-2.26546E-13
 -1       249 2.23258E+01-9.14531E-02 1.44557E-03-3.91306E-01 8.82692E-14-2.67016E-13
 -1       250 2.25531E+01-7.94577E-02-1.67845E-04-1.36102E-01 1.97215E-13-4.38320E-13
 -1       251 2.25458E+01-5.62608E-02-1.18255E-03 6.49176E-02 2.70600E-14-5.95704E-13
 -1       252 2.23685E+01-3.24541E-02-1.48819E-03 1.95437E-01-1.35556E-13-5.13898E-13
 -1       253 2.20900E+01-1.33158E-02-1.29521E-03 2.62033E-01-1.88082E-13-2.88333E-13
 -1       254 2.17679E+01-2.06448E-04-8.79522E-04 2.80725E-01-1.14721E-13-1.00727E-13
 -1       255 2.14435E+01 7.54700E-03-4.41859E-04 2.68407E-01 1.96771E-13-1.50824E-13
 -1       256 2.11428E+01 1.13042E-02-8.49905E-05 2.38953E-01 3.00455E-14-3.28026E-13
 -1       257 2.08793E+01 1.24118E-02 1.60395E-04 2.02257E-01-1.05878E-13-2.10926E-13
 -1       258 2.06581E+01 1.19403E-02 3.02868E-04 1.64647E-01-4.46422E-14-2.02404E-13
 -1       259 2.04787E+01 1.06457E-02 3.66077E-04 1.29743E-01-3.54192E-13-2.85686E-15
 -1       260 2.03374E+01 9.01888E-03 3.75305E-04 9.93016E-02-2.15851E-14-1.26598E-13
 -1       261 2.02290E+01 7.35459E-03 3.51733E-04 7.38977E-02 5.57218E-14-6.38240E-14
 -1       262 2.01482E+01 5.81426E-03 3.10990E-04 5.34126E-02 2.02980E-13-3.18764E-14
 -1       263 2.00894E+01 4.47353E-03 2.63628E-04 3.73630E-02 3.69051E-13-2.95271E-14
 -1       264 2.00481E+01 3.35581E-03 2.16222E-04 2.51101E-02-1.05620E-13 4.28073E-14
 -1       265 2.00201E+01 2.45474E-03 1.72487E-04 1.59844E-02-2.91755E-13-2.45099E-14
 -1       266 2.00021E+01 1.74860E-03 1.34205E-04 9.35673E-03 2.54653E-13-2.32822E-13
 -1       267 1.99913E+01 1.20912E-03 1.01918E-04 4.67167E-03-1.09954E-13-5.31586E-14
 -1       268 1.99858E+01 8.06630E-04 7.54227E-05 1.46145E-03-7.61867E-14 6.65326E-14
 -1       269 1.99838E+01 5.12809E-04 5.40928E-05-6.53519E-04 6.10576E-14 8.63553E-14
 -1       270 1.99842E+01 3.01837E-04 3.71040E-05-1.96994E-03 1.43397E-13 3.51322E-14
 -1       271 1.99861E+01 1.50479E-04 2.36366E-05-2.70927E-03 1.51532E-13-1.86263E-14
 -1       272 1.99888E+01 3.71126E-05 1.32480E-05-3.02451E-03-1.54235E-13-1.12429E-13
 -1       273 1.99919E+01-5.98040E-05 6.71054E-06-3.00384E-03 1.93684E-13-3.16363E-14
 -1       274 1.99948E+01-1.62364E-04 6.50323E-06-2.67216E-03-2.07119E-14 1.44463E-13
 -1       275 1.99972E+01-3.06089E-04 7.82096E-06-1.99225E-03 1.52389E-15-1.89717E-13
 -1       276 1.99990E+01-4.47248E-04 3.40315E-06-9.45702E-04 6.66130E-14-2.77358E-13
 -1       277 1.99993E+01-1.54657E-03-5.10770E-06-1.60395E-03 2.59832E-13 4.75030E-13
 -1       278 1.99996E+01-3.42397E-03-3.19783E-06-2.43475E-03 7.53763E-14 5.58635E-13
 -1       279 1.99998E+01-5.63974E-03-1.75014E-06-2.72175E-03 1.38744E-14-4.24372E-13
 -1       280 1.99999E+01-7.88052E-03 1.99773E-06-2.56774E-03-3.18808E-14 1.06025E-13
 -1       281 2.00000E+01-9.84067E-03 6.42210E-06-2.12801E-03-2.59991E-13-1.13741E-13
 -1       282 2.00001E+01-1.13937E-02 9.81839E-06-1.50355E-03-8.09622E-15 1.89047E-13
 -1       283 2.00001E+01-1.23741E-02 1.19259E-05-7.80111E-04-6.35684E-15 2.40681E-13
 -1       284 2.00001E+01-1.27159E-02 1.26552E-05-1.23460E-05 1.89765E-13-4.10998E-14
 -1       285 2.00001E+01-1.23959E-02 1.20157E-05 7.59468E-04 5.82276E-14-2.99706E-13
 -1       286 2.00001E+01-1.14306E-02 9.89918E-06 1.49423E-03 2.99480E-13-2.33576E-13
 -1       287 2.00000E+01-9.91403E-03 6.30769E-06 2.12437E-03-3.38361E-15-4.48143E-13
 -1       288 1.99999E+01-7.91482E-03 1.99278E-06 2.58466E-03-2.32407E-13 2.34819E-13
 -1       289 1.99998E+01-5.66104E-03-2.61757E-06 2.74537E-03-1.58622E-13-1.19721E-13
 -1       290 1.99995E+01-3.42190E-03-7.02384E-06 2.41598E-03-1.68280E-14-4.01328E-13
 -1       291 1.99990E+01-1.86214E-03-1.10281E-05 2.34271E-03 4.52654E-14-1.09789E-13
 -1       292-7.78500E-01-1.03558E+01-8.95741E-01 1.40292E+00 2.42265E-13 1.26921E-12
 -1       293 2.34175E+00-8.69281E+00-8.00635E-01 3.31805E+00 1.01200E-12 1.09576E-12
 -1       294 8.55861E+00-5.40148E+00-4.95888E-01 5.56892E+00 1.32122E-12 1.39804E-12
 -1       295 1.70243E+01-1.74693E+00-1.62004E-01 7.02410E+00 1.53894E-12 1.36705E-12
 -1       296 2.64489E+01 2.03850E+00 2.30739E-01 7.79677E+00 1.49128E-12 1.48867E-12
 -1       297 3.57292E+01 4.31761E+00 5.66138E-01 6.49550E+00 1.31132E-12 1.06343E-12
 -1       298 4.30143E+01 5.96414E+00 8.75858E-01 4.60899E+00 1.16993E-12 6.76348E-13
 -1       299 4.58757E+01 6.89699E+00 9.62158E-01 9.45998E-01 1.16337E-12-9.01987E-14
 -1       300 4.56053E+01 6.45620E+00 9.86414E-01-2.81760E+00 1.31829E-12-8.64503E-13
 -1       301 4.02163E+01 5.47079E+00 7.78933E-01-5.81184E+00 1.34016E-12-1.54887E-12
 -1       302 3.16451E+01 2.22317E+00 2.79693E-01-5.84495E+00 1.17605E-12-1.35747E-12
 -1       303 2.39584E+01 2.96794E-01 1.53000E-01-7.45085E+00 1.24442E-12-1.66123E-12
 -1       304 1.19425E+01-3.54348E+00-3.80892E-01-6.26369E+00 1.28186E-12-1.58487E-12
 -1       305 4.97331E+00-7.37479E+00-6.59767E-01-4.53952E+00 9.03527E-13-1.06900E-12
 -1       306 5.71664E-02-1.03891E+01-9.48323E-01-2.07449E+00 4.77646E-13-9.77066E-13
 -1       307-1.32702E+00-1.14141E+01-1.03070E+00-2.42756E-02-1.47280E-13-1.00303E-12
 -1       308 6.62343E-01-9.80084E+00-8.83953E-01 2.35411E+00-7.15789E-13-1.04981E-12
 -1       309 5.88810E+00-7.01892E+00-6.92995E-01 4.44406E+00-1.20423E-12-1.28428E-12
 -1       310 1.61869E+01-4.03902E+00-2.15700E-01 6.70575E+00-1.02790E-12-1.31864E-12
 -1       311 2.63721E+01-6.48493E-01 6.64604E-02 6.39948E+00-1.22907E-12-1.09046E-12
 -1       312 3.60665E+01 3.42020E+00 4.52388E-01 5.30026E+00-1.29524E-12-9.83047E-13
 -1       313 4.37738E+01 6.23637E+00 8.36586E-01 3.20492E+00-1.14828E-12-6.71213E-13
 -1       314 4.82030E+01 6.69042E+00 1.14192E+00 1.98077E-01-1.06803E-12-1.21851E-13
 -1       315 4.55770E+01 6.16527E+00 1.04586E+00-3.54840E+00-1.24475E-12 6.23890E-13
 -1       316 3.82875E+01 4.39922E+00 6.89961E-01-6.24748E+00-1.62705E-12 1.15508E-12
 -1       317 2.85419E+01 9.26406E-01 1.90169E-01-6.57673E+00-1.57480E-12 1.34590E-12
 -1       318 1.91173E+01-3.16100E+00-1.42721E-01-6.59623E+00-1.30984E-12 1.53005E-12
 -1       319 8.98317E+00-5.90381E+00-4.81920E-01-5.49346E+00-1.49586E-12 1.49526E-12
 -1       320 1.93193E+00-9.18816E+00-8.61719E-01-2.78667E+00-1.35153E-12 1.56958E-12
 -1       321-9.46175E-01-1.05082E+01-9.13726E-01-8.06044E-01-4.40287E-13 1.45678E-12
 -1       322 2.04622E+01 3.10115E+00-1.78996E-02-1.59467E+00-5.38175E-13-3.57684E-13
 -1       323 2.12675E+01 2.21452E+00-1.62622E-02-1.89826E+00-5.79932E-13-1.77879E-14
 -1       324 1.93888E+01 3.95034E+00-1.34043E-02-8.79993E-01-3.28451E-13-6.69753E-13
 -1       325 1.90404E+01 4.17028E+00-1.11049E-02-5.97189E-01-2.21264E-13-7.22704E-13
 -1       326 1.88163E+01 4.29733E+00-9.69731E-03-3.58943E-01-9.85049E-14-7.31670E-13
 -1       327 1.87186E+01 4.34557E+00-9.10366E-03-1.44028E-01 1.03062E-14-7.43987E-13
 -1       328 1.87451E+01 4.32322E+00-9.25009E-03 7.05794E-02 1.04096E-13-7.22609E-13
 -1       329 1.88882E+01 4.23481E+00-1.01108E-02 3.06177E-01 2.13262E-13-6.95599E-13
 -1       330 1.91320E+01 4.08310E+00-1.17548E-02 5.75329E-01 3.10899E-13-6.50504E-13
 -1       331 1.94768E+01 3.85260E+00-1.43921E-02 8.98566E-01 4.25124E-13-5.45313E-13
 -1       332 1.99233E+01 3.51334E+00-1.82710E-02 1.27266E+00 5.31191E-13-4.05237E-13
 -1       333 2.05058E+01 2.99217E+00-2.22467E-02 1.67030E+00 6.17131E-13-1.86598E-13
 -1       334 2.12233E+01 2.11824E+00-2.93986E-02 1.92131E+00 6.16951E-13 2.50836E-13
 -1       335 2.16304E+01 1.16823E+00-2.29542E-02 1.59035E+00 5.67515E-13 6.76785E-13
 -1       336 2.10925E+01 4.96087E-01 9.01283E-03 5.82898E-01 4.63179E-13 4.87139E-13
 -1       337 2.16475E+01-4.77140E+00-2.11863E-02-6.28092E+00 2.08902E-13-8.19234E-13
 -1       338 2.11942E+01 7.40626E-01 1.35064E-02-5.03282E-01-4.52200E-13 4.99236E-14
 -1       339 2.09893E+01 4.47016E-01 8.44349E-03 1.65689E-01-3.48618E-13-1.49891E-14
 -1       340 2.10008E+01 3.21080E-01 5.50433E-03 6.12510E-01-2.48823E-13-3.65004E-14
 -1       341 2.11858E+01 2.54222E-01 3.28144E-03 9.47437E-01-1.59207E-13-1.10600E-13
 -1       342 2.15109E+01 1.96680E-01 1.77311E-03 1.20831E+00-1.10384E-13-6.53605E-14
 -1       343 2.19504E+01 1.10041E-01 1.47223E-04 1.39166E+00-6.41788E-14-7.02223E-14
 -1       344 2.24869E+01-4.56425E-02-2.14205E-03 1.45684E+00-5.99668E-14-8.39140E-14
 -1       345 2.31062E+01-3.08203E-01-5.19552E-03 1.32555E+00-4.47468E-14-3.06208E-14
 -1       346 2.37854E+01-6.84293E-01-8.30728E-03 8.91323E-01-6.39606E-14-1.21343E-14
 -1       347 2.44587E+01-1.08359E+00-1.06378E-02 6.80250E-02 3.72966E-17 3.11854E-14
 -1       348 2.49795E+01-1.25104E+00-1.08041E-02-1.09363E+00-1.71200E-14 5.97673E-14
 -1       349 2.51064E+01-7.84990E-01-7.09923E-03-2.20974E+00-1.04821E-14 1.13655E-13
 -1       350 2.46909E+01 4.70767E-01-2.06815E-02-2.53525E+00-2.23595E-13 3.11272E-14
 -1       351 2.40690E+01 1.86482E+00-3.28423E-02-1.42601E+00-4.13610E-13-1.39104E-13
 -1       352 2.39328E+01 2.18565E+00-3.74405E-02 6.93934E-01-5.01311E-13-3.78350E-13
 -1       353 2.44713E+01 1.11308E+00-2.84198E-02 2.36905E+00-2.85898E-13-6.86203E-13
 -1       354 2.50921E+01-3.26214E-01-1.61940E-02 2.62067E+00-1.82859E-13-8.60209E-13
 -1       355 2.52485E+01-1.14174E+00-1.02773E-02 1.73434E+00-2.38537E-14-7.46628E-13
 -1       356 2.49122E+01-1.19527E+00-9.82314E-03 5.25067E-01 1.77871E-13-5.91122E-13
 -1       357 2.43224E+01-8.49021E-01-8.79620E-03-4.52732E-01 1.88145E-13-5.11885E-13
 -1       358 2.36773E+01-4.43418E-01-6.13557E-03-1.03523E+00 1.33679E-13-2.15717E-13
 -1       359 2.30683E+01-1.35858E-01-3.20576E-03-1.27677E+00 1.35258E-13-6.23523E-14
 -1       360 2.25226E+01 4.91127E-02-8.39084E-04-1.29128E+00 1.63472E-13-8.59083E-14
 -1       361 2.20447E+01 1.38821E-01 6.55883E-04-1.18051E+00-6.67641E-15-2.78528E-13
 -1       362 2.16329E+01 1.68496E-01 1.40143E-03-1.01542E+00-1.72298E-13-3.53502E-13
 -1       363 2.12840E+01 1.65572E-01 1.64076E-03-8.38646E-01-1.09235E-13-1.72146E-13
 -1       364 2.09938E+01 1.47601E-01 1.59256E-03-6.72657E-01-2.00705E-14-1.10948E-13
 -1       365 2.07566E+01 1.24531E-01 1.40898E-03-5.27375E-01 1.75698E-13-9.94552E-14
 -1       366 2.05661E+01 1.01447E-01 1.18062E-03-4.05615E-01 6.78953E-14-5.62495E-14
 -1       367 2.04158E+01 8.06360E-02 9.54895E-04-3.06546E-01 2.36039E-14 4.66017E-16
 -1       368 2.02991E+01 6.28891E-02 7.53162E-04-2.27697E-01-1.04285E-13-1.48890E-13
 -1       369 2.02100E+01 4.82627E-02 5.82548E-04-1.66055E-01 3.33254E-14-1.27266E-13
 -1       370 2.01432E+01 3.64857E-02 4.43108E-04-1.18621E-01-1.87251E-13-7.63813E-14
 -1       371 2.00941E+01 2.71702E-02 3.31804E-04-8.26658E-02-1.35860E-13-1.98369E-14
 -1       372 2.00586E+01 1.99122E-02 2.44552E-04-5.58238E-02-1.23535E-13-6.21009E-14
 -1       373 2.00337E+01 1.43363E-02 1.77200E-04-3.61071E-02-4.36154E-14-2.27904E-13
 -1       374 2.00168E+01 1.01126E-02 1.25945E-04-2.18814E-02 2.63625E-13-3.59730E-13
 -1       375 2.00057E+01 6.95955E-03 8.74775E-05-1.18273E-02 1.07091E-13-2.20617E-13
 -1       376 1.99990E+01 4.64054E-03 5.89861E-05-4.89756E-03-4.10658E-15-9.22902E-15
 -1       377 1.99953E+01 2.95851E-03 3.81147E-05-2.75576E-04 2.49773E-13 2.14524E-13
 -1       378 1.99937E+01 1.74892E-03 2.28807E-05 2.66028E-03 5.56037E-13 2.53731E-13
 -1       379 1.99935E+01 8.72971E-04 1.15822E-05 4.36747E-03 3.39644E-13 1.38995E-13
 -1       380 1.99942E+01 2.09398E-04 2.90878E-06 5.16509E-03 1.41724E-13 1.10056E-13
 -1       381 1.99954E+01-3.51747E-04-3.57462E-06 5.24957E-03-3.54514E-13 1.96084E-13
 -1       382 1.99967E+01-9.14075E-04-1.08649E-05 4.73057E-03-1.12923E-13 7.13157E-14
 -1       383 1.99979E+01-1.39491E-03-1.60020E-05 3.73749E-03 2.08786E-13-8.77388E-14
 -1       384 2.07925E+01 2.50975E-01 1.09877E-02 2.48409E-02 3.53042E-13 3.46684E-13
 -1       385 2.07351E+01 1.42208E-01 6.27625E-03-2.92178E-01 2.64670E-13 2.43954E-13
 -1       386 2.08562E+01 7.52764E-02 2.64052E-03-4.73970E-01 1.59521E-13 1.62362E-13
 -1       387 2.10877E+01 1.77103E-02 4.79122E-04-5.58610E-01 7.77740E-14 1.14113E-13
 -1       388 2.13731E+01-4.60452E-02-1.03889E-03-5.51828E-01 8.14236E-14 1.09958E-13
 -1       389 2.16591E+01-1.22178E-01-2.31315E-03-4.43304E-01 8.16320E-14 5.10178E-14
 -1       390 2.18900E+01-2.06750E-01-3.32083E-03-2.20122E-01 1.54381E-13 2.43071E-14
 -1       391 2.20066E+01-2.81154E-01-3.77687E-03 1.16417E-01 2.76660E-14 6.34969E-14
 -1       392 2.19537E+01-3.09234E-01-3.29221E-03 5.28675E-01 3.14646E-14 1.44250E-13
 -1       393 2.16988E+01-2.45523E-01-1.75455E-03 9.22614E-01 6.60333E-14 1.20130E-13
 -1       394 2.12636E+01-6.34947E-02 4.28403E-04 1.15084E+00 1.62014E-13 8.45387E-14
 -1       395 2.07535E+01 2.03735E-01 2.51700E-03 1.06468E+00 7.01601E-14 7.69239E-14
 -1       396 2.03483E+01 4.48762E-01 3.99263E-03 6.11914E-01-4.27969E-14 1.29473E-14
 -1       397 2.02265E+01 5.42280E-01 4.75383E-03-8.60216E-02 1.03738E-13-6.56988E-14
 -1       398 2.04560E+01 4.29598E-01 4.89780E-03-7.68218E-01 2.10441E-13-2.13990E-13
 -1       399 2.09456E+01 1.77874E-01 3.64151E-03-1.18391E+00 1.38968E-13-2.10779E-13
 -1       400 2.15092E+01-8.14755E-02 1.17173E-03-1.23377E+00-1.15786E-14-3.65087E-13
 -1       401 2.19761E+01-2.48691E-01-1.55842E-03-9.86915E-01 5.44838E-14-4.28033E-13
 -1       402 2.22556E+01-2.99283E-01-3.50152E-03-5.95815E-01 1.08271E-13-5.04601E-13
 -1       403 2.23373E+01-2.64510E-01-4.11455E-03-2.01076E-01 2.71649E-13-4.87315E-13
 -1       404 2.22571E+01-1.90402E-01-3.67889E-03 1.14060E-01 1.17844E-13-5.54902E-13
 -1       405 2.20661E+01-1.12085E-01-2.68515E-03 3.22190E-01-2.46108E-13-3.67339E-13
 -1       406 2.18131E+01-4.78065E-02-1.57706E-03 4.31333E-01-2.56373E-13-2.28496E-13
 -1       407 2.15367E+01-2.90385E-03-6.33074E-04 4.64764E-01-1.71877E-13-2.27058E-13
 -1       408 2.12641E+01 2.42664E-02 4.52373E-05 4.47961E-01 1.30412E-13-7.23017E-14
 -1       409 2.10126E+01 3.79062E-02 4.63337E-04 4.02430E-01 1.01858E-13 5.93812E-14
 -1       410 2.07912E+01 4.23842E-02 6.73767E-04 3.43917E-01-1.16276E-13 1.41847E-14
 -1       411 2.06036E+01 4.12741E-02 7.39184E-04 2.82793E-01-2.97982E-14 1.61941E-13
 -1       412 2.04493E+01 3.71570E-02 7.14389E-04 2.25212E-01-2.30721E-13-4.02518E-14
 -1       413 2.03258E+01 3.17439E-02 6.40609E-04 1.74335E-01 6.88097E-14-2.33463E-13
 -1       414 2.02294E+01 2.60862E-02 5.45866E-04 1.31365E-01-8.73569E-14-2.36183E-13
 -1       415 2.01559E+01 2.07760E-02 4.47636E-04 9.63152E-02 1.80828E-13 7.90766E-14
 -1       416 2.01013E+01 1.61039E-02 3.55821E-04 6.85403E-02 2.53200E-13 2.50535E-13
 -1       417 2.00617E+01 1.21735E-02 2.75268E-04 4.70871E-02 5.72237E-14 3.89959E-13
 -1       418 2.00338E+01 8.97888E-03 2.07654E-04 3.09109E-02-2.06249E-13 1.68131E-13
 -1       419 2.00149E+01 6.45546E-03 1.52795E-04 1.90025E-02 2.81295E-13 1.10389E-14
 -1       420 2.00028E+01 4.51200E-03 1.09502E-04 1.04541E-02-3.10420E-13 9.40807E-14
 -1       421 1.99955E+01 3.04945E-03 7.61250E-05 4.48895E-03-1.78987E-13 3.30617E-13
 -1       422 1.99918E+01 1.97142E-03 5.08688E-05 4.68073E-04-5.24695E-14 1.93730E-13
 -1       423 1.99905E+01 1.18901E-03 3.19619E-05-2.11475E-03 1.32441E-13 2.11656E-13
 -1       424 1.99908E+01 6.22045E-04 1.77535E-05-3.64369E-03 1.18742E-13 4.30580E-13
 -1       425 1.99920E+01 1.97292E-04 6.80897E-06-4.39271E-03-2.92207E-14 2.90584E-13
 -1       426 1.99938E+01-1.55879E-04-1.39674E-06-4.53527E-03-2.58692E-14 1.73184E-13
 -1       427 1.99956E+01-5.00241E-04-6.65165E-06-4.15264E-03 6.88641E-14 2.90108E-13
 -1       428 1.99974E+01-8.94728E-04-8.48067E-06-3.26186E-03 3.99837E-14 2.92613E-13
 -1       429 1.99984E+01-1.24487E-03-9.81357E-06-2.52233E-03 1.71634E-13 5.36704E-13
 -1       430 2.00001E+01-4.85607E-03 5.63883E-07-4.27164E-03-2.10241E-13-3.62374E-13
 -1       431 1.99994E+01-3.42728E-03-8.56677E-06-4.25127E-03-2.28458E-13-8.70308E-14
 -1       432 1.99989E+01-2.35949E-03-1.37745E-05-3.60793E-03-3.44268E-14 3.16284E-13
 -1       433 2.00005E+01-6.10607E-03 6.10063E-06-3.76565E-03-4.38503E-13-4.24895E-13
 -1       434 2.00008E+01-7.13615E-03 9.37397E-06-2.90087E-03-3.67303E-13 1.64739E-13
 -1       435 2.00009E+01-7.85734E-03 1.15067E-05-1.82325E-03-1.89692E-13 1.11502E-13
 -1       436 2.00010E+01-8.23277E-03 1.26487E-05-6.34949E-04-4.57397E-13 1.93022E-13
 -1       437 2.00010E+01-8.24498E-03 1.27396E-05 5.91428E-04-2.28684E-13-2.96798E-14
 -1       438 2.00009E+01-7.89113E-03 1.17505E-05 1.79298E-03-2.57956E-14-1.57623E-13
 -1       439 2.00008E+01-7.19852E-03 9.43493E-06 2.87615E-03-8.50292E-14-5.39291E-13
 -1       440 2.00005E+01-6.17711E-03 5.79103E-06 3.77035E-03-1.23956E-13 7.09903E-15
 -1       441 2.00001E+01-4.89513E-03 3.69646E-07 4.30685E-03-8.21357E-14 2.78339E-13
 -1       442 1.99994E+01-3.46862E-03-9.38700E-06 4.33162E-03-2.73573E-14-3.46043E-13
 -1       443 9.42263E+00-5.37171E+00-3.61391E-02 6.86727E+00-1.60552E-13 9.35273E-13
 -1       444 9.25156E-01-4.71652E+00-9.53948E-02 3.89838E-01-3.10667E-13 1.57516E-12
 -1       445 3.90122E+00-4.93456E+00-5.83795E-02 4.73238E+00-2.10318E-13 1.07273E-12
 -1       446 1.74232E+01-5.39565E+00-2.34682E-02 7.01501E+00 7.38576E-14 4.48652E-13
 -1       447 2.84502E+01-2.46128E+00-2.31493E-02-3.41357E+00 3.35836E-13-3.89286E-13
 -1       448 6.30945E+00-4.62513E+00 3.51563E-02-5.88224E+00-1.74152E-13-9.81895E-13
 -1       449 2.52652E+01-3.47185E+00 1.15169E-02 5.09690E+00 3.83124E-13 1.65534E-13
 -1       450 1.98547E+01 3.61587E+00-1.90953E-02-1.22328E+00-4.45008E-13-5.70251E-13
 -1       451 3.39427E+01 4.04347E+00 2.97769E-02 2.12542E-01 9.90860E-13-2.36977E-13
 -1       452 3.53536E+01 7.04725E+00 3.61831E-02-1.81525E-01 1.24263E-12-2.74614E-13
 -1       453 3.44359E+01 8.09862E+00-3.53927E-02 1.29598E-01 1.35442E-12-1.35961E-13
 -1       454 3.49051E+01 6.44265E+00 2.62697E-02 2.34403E-01 1.24370E-12-1.81383E-14
 -1       455 3.32754E+01 2.51362E+00 4.18210E-02-1.01455E+00 8.26970E-13-1.99438E-13
 -1       456 1.30956E+01-5.72618E+00-5.85785E-02-7.21542E+00 1.39222E-13-8.82253E-13
 -1       457 1.27289E+00-5.01513E+00-1.11649E-01-2.04627E+00-8.22190E-14-1.12202E-12
 -1       458 2.29944E+00-4.07925E+00 1.87477E-03 2.38838E+00-1.15741E-14-1.11194E-12
 -1       459 7.57322E+00-5.28389E+00-1.60989E-02 6.10895E+00 1.15324E-14-9.31477E-13
 -1       460 1.50906E+01-5.98053E+00-1.51713E-02 7.05870E+00 4.54081E-14-7.86711E-13
 -1       461 2.45091E+01-5.04631E+00-1.73288E-02 5.11273E+00-2.59917E-13-3.34274E-13
 -1       462 3.12433E+01-1.39361E+00-1.13598E-02 1.73195E+00-6.80934E-13-1.28036E-13
 -1       463 3.42917E+01 3.73255E+00-1.46765E-02-7.23773E-01-1.00003E-12-6.60860E-14
 -1       464 3.55527E+01 7.55096E+00 1.74767E-02-4.40935E-01-1.24636E-12-9.31200E-14
 -1       465 3.65964E+01 7.69621E+00 6.90070E-02 4.42599E-01-1.33984E-12-1.20941E-13
 -1       466 3.52317E+01 4.31770E+00 1.82895E-02 4.62335E-01-1.16740E-12-2.70908E-13
 -1       467 3.29337E+01 3.83847E-01 4.52961E-02-1.14942E+00-9.51983E-13-2.02532E-13
 -1       468 2.69684E+01-4.17824E+00-6.05444E-03-3.92952E+00-4.63671E-13 7.95058E-14
 -1       469 1.82280E+01-5.96394E+00-8.39713E-03-6.58998E+00 3.73451E-14 5.93966E-13
 -1       470 9.12218E+00-5.52773E+00-4.45524E-02-6.40004E+00-1.17864E-13 8.29684E-13
 -1       471 3.64486E+00-4.92479E+00-5.51942E-02-4.10226E+00-1.80189E-13 1.57367E-12
 -1       472 3.03874E+01-3.52579E-01 2.61242E-02 3.09684E+00 6.54810E-13 1.33366E-13
 -1       473 2.09739E+01 8.84132E-01 4.09454E-03 4.68954E-01 4.67788E-13 4.55941E-14
 -1       474 1.90863E+01 3.61868E+00-4.15193E-03-3.35834E-01-1.43432E-13-6.44851E-13
 -1       475 1.94052E+01 3.37288E+00-4.85204E-03-4.95421E-01-2.62021E-13-6.11545E-13
 -1       476 1.88764E+01 3.75921E+00-3.64787E-03-6.36759E-02 4.83520E-14-6.63453E-13
 -1       477 1.89827E+01 3.67447E+00-3.85621E-03 8.67178E-02 1.46996E-13-6.41411E-13
 -1       478 1.92081E+01 3.49868E+00-4.39604E-03 2.64910E-01 2.48664E-13-6.10586E-13
 -1       479 1.95422E+01 3.22428E+00-5.25519E-03 4.82409E-01 3.56180E-13-5.15661E-13
 -1       480 1.99645E+01 2.83867E+00-6.18102E-03 7.26190E-01 4.53864E-13-4.14842E-13
 -1       481 2.04708E+01 2.30007E+00-5.62782E-03 9.65051E-01 5.26791E-13-2.71443E-13
 -1       482 2.08705E+01 1.17118E+00 4.01343E-03-2.38387E-01-3.99650E-13-2.05893E-13
 -1       483 1.96000E+01-5.61369E+00 5.25120E-02-6.52065E+00-3.49776E-13-4.36276E-13
 -1       484 2.08553E+01 5.23301E-01 5.21577E-03-9.93559E-02 3.55894E-13 1.19744E-14
 -1       485 2.07910E+01 1.91082E+00-5.57820E-03-9.39943E-01-5.08605E-13-2.76921E-13
 -1       486 2.08130E+01 8.08821E-01 2.55988E-03 3.91654E-01-3.06435E-13-1.70835E-13
 -1       487 2.08105E+01 6.21077E-01 1.67053E-03 8.82626E-01-2.12334E-13-1.47912E-13
 -1       488 2.08892E+01 4.95235E-01 1.07263E-03 1.27717E+00-1.34643E-13-1.72306E-13
 -1       489 2.10578E+01 3.59754E-01 5.09101E-04 1.59459E+00-9.10063E-14-1.97257E-13
 -1       490 2.13350E+01 1.45593E-01-3.02608E-04 1.82475E+00-1.01123E-13-2.16044E-13
 -1       491 2.17643E+01-2.21586E-01-1.64613E-03 1.92288E+00-3.45207E-14-2.29348E-13
 -1       492 2.24195E+01-8.03996E-01-3.52110E-03 1.80085E+00-4.44626E-15-2.06930E-13
 -1       493 2.33835E+01-1.58143E+00-5.02045E-03 1.31857E+00 4.23783E-14-6.72293E-14
 -1       494 2.46532E+01-2.29747E+00-8.12840E-03 3.21384E-01 1.20361E-13 1.26372E-13
 -1       495 2.60236E+01-2.34235E+00-2.06648E-02-1.24634E+00 6.72830E-14 2.61029E-13
 -1       496 2.67519E+01-7.69267E-01-7.95720E-02-2.70744E+00-1.56803E-13 3.05902E-13
 -1       497 2.65973E+01 2.20432E+00-1.29343E-01-2.70362E+00-5.23397E-13 1.00265E-13
 -1       498 2.62749E+01 4.32751E+00-1.37203E-01-5.54351E-01-7.65832E-13-2.83080E-13
 -1       499 2.64597E+01 3.38548E+00-1.11228E-01 2.13985E+00-6.62258E-13-6.21839E-13
 -1       500 2.68621E+01 3.60130E-01-7.65665E-02 2.98919E+00-3.52531E-13-8.77879E-13
 -1       501 2.64743E+01-1.92003E+00-2.79942E-02 1.97856E+00-4.23364E-14-8.68332E-13
 -1       502 2.53066E+01-2.43203E+00-6.82703E-03 4.04127E-01 2.18634E-13-6.55010E-13
 -1       503 2.39870E+01-1.89887E+00-3.92073E-03-8.12087E-01 3.43719E-13-5.96655E-13
 -1       504 2.29031E+01-1.09106E+00-2.45904E-03-1.47984E+00 2.84372E-13-3.31402E-13
 -1       505 2.21420E+01-4.27413E-01-1.46474E-03-1.73097E+00 1.97860E-13-1.70042E-13
 -1       506 2.16294E+01 2.27007E-03-4.79486E-04-1.72496E+00 8.35708E-14-2.67557E-13
 -1       507 2.12777E+01 2.32213E-01 2.28894E-04-1.58056E+00-7.32461E-15-2.33022E-13
 -1       508 2.10215E+01 3.27216E-01 6.09241E-04-1.37474E+00-4.80137E-14-1.67124E-13
 -1       509 2.08221E+01 3.43236E-01 7.44499E-04-1.15335E+00-3.26429E-15 1.37767E-13
 -1       510 2.06594E+01 3.18735E-01 7.34658E-04-9.41749E-01-9.39060E-15 2.56512E-13
 -1       511 2.05237E+01 2.77066E-01 6.55105E-04-7.52396E-01 4.58028E-14 3.91546E-13
 -1       512 2.04103E+01 2.31151E-01 5.51430E-04-5.89984E-01 7.32442E-14 1.81875E-13
 -1       513 2.03164E+01 1.87478E-01 4.47371E-04-4.54804E-01 6.85822E-14 2.38515E-13
 -1       514 2.02398E+01 1.48867E-01 3.53722E-04-3.44846E-01-8.04237E-14 1.48815E-13
 -1       515 2.01783E+01 1.16169E-01 2.74206E-04-2.57076E-01-1.69503E-13 2.64463E-13
 -1       516 2.01298E+01 8.92555E-02 2.09042E-04-1.88166E-01-2.91620E-14 4.70807E-14
 -1       517 2.00923E+01 6.75607E-02 1.56909E-04-1.34891E-01-1.55457E-13 1.46267E-13
 -1       518 2.00637E+01 5.03662E-02 1.15954E-04-9.43199E-02-4.60794E-14 3.77895E-13
 -1       519 2.00425E+01 3.69415E-02 8.42706E-05-6.38978E-02-2.22336E-13 4.21096E-13
 -1       520 2.00271E+01 2.66091E-02 6.01075E-05-4.14580E-02-1.76244E-13 2.45730E-13
 -1       521 2.00162E+01 1.87697E-02 4.19352E-05-2.52039E-02 3.43858E-13-1.92823E-14
 -1       522 2.00087E+01 1.29072E-02 2.84567E-05-1.36743E-02 2.59978E-13 2.47063E-13
 -1       523 2.00037E+01 8.58434E-03 1.85854E-05-5.70269E-03 1.02553E-13 3.86267E-13
 -1       524 2.00007E+01 5.43303E-03 1.14462E-05-3.76967E-04 3.13202E-13 2.58904E-13
 -1       525 1.99990E+01 3.14252E-03 6.28697E-06 2.99765E-03 2.41517E-13 1.09324E-13
 -1       526 1.99982E+01 1.45033E-03 2.65598E-06 4.93086E-03 1.50474E-13 1.43952E-13
 -1       527 1.99980E+01 1.27864E-04-1.59117E-07 5.78626E-03-8.77055E-14 5.32295E-14
 -1       528 1.99982E+01-1.03732E-03-4.71791E-06 5.78219E-03-4.85920E-13 1.18883E-13
 -1       529 9.43203E+00-3.13444E+00 1.45785E-01 6.13199E+00-6.15355E-13 8.00381E-13
 -1       530 2.09346E+01 1.48218E-01 8.03067E-04-6.86871E-01 1.62146E-13-3.84738E-14
 -1       531 2.11131E+01-5.27229E-03-2.92322E-04-7.82240E-01 8.77557E-14-1.00536E-13
 -1       532 2.13576E+01-1.78700E-01-1.20760E-03-7.48735E-01 9.06199E-14-9.57597E-14
 -1       533 2.16439E+01-3.77443E-01-2.04231E-03-5.69709E-01 8.83905E-14-1.64742E-14
 -1       534 2.19385E+01-5.78988E-01-2.71864E-03-2.30003E-01 5.07100E-14 6.33939E-14
 -1       535 2.21902E+01-7.21768E-01-2.90131E-03 2.60565E-01 5.04139E-14 5.07177E-14
 -1       536 2.23265E+01-7.04634E-01-2.01494E-03 8.33680E-01 7.36013E-14 1.91872E-14
 -1       537 2.22731E+01-4.24332E-01-1.99784E-04 1.33147E+00 1.30233E-13-1.48422E-14
 -1       538 2.20110E+01 1.34408E-01 1.49663E-03 1.51964E+00 9.41102E-14-4.59556E-14
 -1       539 2.16448E+01 8.01931E-01 1.96395E-03 1.19707E+00 4.30788E-14-7.05302E-14
 -1       540 2.13899E+01 1.25143E+00 1.24064E-03 3.75663E-01 9.26253E-14-1.86198E-13
 -1       541 2.14295E+01 1.21389E+00 1.01556E-03-6.36813E-01 2.60691E-13-2.84294E-13
 -1       542 2.17464E+01 7.14648E-01 9.80929E-04-1.40011E+00 2.40492E-13-3.25017E-13
 -1       543 2.21394E+01 5.12399E-02 3.10959E-04-1.64729E+00 4.00478E-14-3.81258E-13
 -1       544 2.24048E+01-4.66529E-01-9.90219E-04-1.40940E+00-7.30817E-15-3.62854E-13
 -1       545 2.24580E+01-7.00272E-01-2.39079E-03-9.01102E-01 1.59827E-13-3.78735E-13
 -1       546 2.23303E+01-6.87514E-01-2.89216E-03-3.46412E-01 6.87635E-14-2.66117E-13
 -1       547 2.20952E+01-5.37314E-01-2.71173E-03 1.16115E-01 1.41565E-13-1.40509E-14
 -1       548 2.18171E+01-3.47444E-01-2.07444E-03 4.34922E-01-1.06067E-13-4.88493E-15
 -1       549 2.15370E+01-1.76650E-01-1.27770E-03 6.14028E-01-2.59213E-13-1.68987E-13
 -1       550 2.12755E+01-4.84023E-02-5.79124E-04 6.82252E-01-2.76868E-13-1.27964E-13
 -1       551 2.10414E+01 3.53945E-02-6.84760E-05 6.73698E-01-4.38646E-14-2.21704E-13
 -1       552 2.08372E+01 8.25012E-02 2.54146E-04 6.18434E-01 1.34577E-14-1.30248E-13
 -1       553 2.06626E+01 1.03111E-01 4.24541E-04 5.39410E-01-5.56987E-15 9.31673E-15
 -1       554 2.05160E+01 1.06449E-01 4.87078E-04 4.52483E-01-1.18378E-13 9.31414E-15
 -1       555 2.03949E+01 9.96461E-02 4.81239E-04 3.67652E-01 1.74746E-14-5.70727E-14
 -1       556 2.02967E+01 8.77076E-02 4.37177E-04 2.90559E-01-2.30310E-15-1.44066E-13
 -1       557 2.02184E+01 7.38939E-02 3.75667E-04 2.23838E-01-8.30686E-14 6.89190E-14
 -1       558 2.01571E+01 6.01752E-02 3.09854E-04 1.68181E-01-5.25736E-14 5.50506E-14
 -1       559 2.01100E+01 4.76315E-02 2.47324E-04 1.23122E-01 1.67772E-13 1.84264E-13
 -1       560 2.00745E+01 3.67613E-02 1.91920E-04 8.75709E-02-1.13689E-13 3.43053E-13
 -1       561 2.00483E+01 2.77029E-02 1.45113E-04 6.01744E-02 1.39202E-13 2.42945E-13
 -1       562 2.00295E+01 2.03856E-02 1.06968E-04 3.95340E-02 1.40137E-13 2.20398E-14
 -1       563 2.00163E+01 1.46291E-02 7.67806E-05 2.43351E-02-2.35155E-14 1.31420E-13
 -1       564 2.00075E+01 1.02060E-02 5.34788E-05 1.34131E-02-3.24016E-13-1.56837E-13
 -1       565 2.00019E+01 6.87826E-03 3.58771E-05 5.78125E-03-5.37636E-14-3.38363E-13
 -1       566 1.99986E+01 4.41814E-03 2.27935E-05 6.33753E-04-8.00162E-15-3.19831E-13
 -1       567 1.99969E+01 2.61650E-03 1.31222E-05-2.66312E-03-5.91036E-14-9.10875E-14
 -1       568 1.99964E+01 1.28540E-03 5.81535E-06-4.58652E-03-4.44121E-14 2.88335E-13
 -1       569 1.99965E+01 2.54523E-04 1.92427E-07-5.47590E-03 1.12539E-13 3.15895E-13
 -1       570 1.99971E+01-6.37054E-04-6.32079E-06-5.56196E-03 1.22378E-13 2.38257E-13
 -1       571 1.99980E+01-1.50750E-03-9.44976E-06-4.95877E-03-7.43850E-14 2.36851E-13
 -1       572 2.00015E+01-3.80794E-03 3.53334E-06-3.99397E-03-1.91743E-13-1.07366E-13
 -1       573 2.00019E+01-4.13069E-03 4.44109E-06-2.80676E-03-2.11743E-13 5.05929E-13
 -1       574 1.99998E+01-2.66650E-03-2.95735E-06-5.32547E-03-4.79962E-14-5.11461E-13
 -1       575 2.00008E+01-3.32947E-03 1.32886E-06-4.88425E-03-2.79536E-13-1.81830E-13
 -1       576 2.00021E+01-4.31872E-03 5.35138E-06-1.45791E-03-3.10669E-13-7.03126E-14
 -1       577 2.00022E+01-4.38973E-03 5.73247E-06-3.51199E-05-2.15416E-13 2.70744E-13
 -1       578 2.00021E+01-4.35054E-03 5.65935E-06 1.39686E-03-2.45344E-13 1.53015E-13
 -1       579 2.00020E+01-4.19286E-03 4.94882E-06 2.75051E-03-1.38862E-13-3.14549E-13
 -1       580 2.00016E+01-3.88660E-03 2.97121E-06 3.98030E-03 2.52244E-14-4.49238E-13
 -1       581 2.00009E+01-3.38537E-03 1.04021E-06 4.92595E-03-2.34013E-13-1.13455E-15
 -1       582 1.99998E+01-2.68479E-03-2.18588E-06 5.35427E-03-3.75260E-13-8.07246E-15
 -1       583 5.05317E+00-1.55027E+00 1.77032E-01-2.06334E+00 4.39579E-14 1.28605E-12
 -1       584 2.08432E+01 3.07641E-01 2.50508E-03-4.66189E-01 2.74172E-13-2.70823E-15
 -1       585 1.67866E+01-4.82057E+00 1.08350E-01 6.81771E+00-6.55413E-13 3.15421E-13
 -1       586 2.32999E+01-5.43840E+00 2.12901E-02 4.98209E+00-2.88679E-13-1.72289E-13
 -1       587 2.80906E+01-3.34826E+00-4.57066E-02 1.97280E+00 6.93438E-14-4.14016E-13
 -1       588 2.94749E+01-1.25234E+00-8.50377E-02 3.26955E-01 1.91297E-13 2.79589E-13
 -1       589 3.04375E+01 4.88827E+00-1.61870E-01-1.98973E+00-9.89667E-13 7.56686E-14
 -1       590 7.62196E+00-2.47281E+00 1.60416E-01 4.73475E+00 2.70194E-13-8.74315E-13
 -1       591 1.57040E+01-4.77497E+00 1.00906E-01-6.54393E+00 5.83325E-13 3.65749E-13
 -1       592 2.56990E+01-5.02264E+00-2.11683E-02-3.74141E+00-2.23890E-13-1.06914E-13
 -1       593 1.89088E+01 3.74356E+00-3.74032E-03-1.98005E-01-3.09808E-14-6.63869E-13
 -1       594 2.97216E+01 4.75720E+00-1.56946E-01-1.84166E+00 8.70554E-13-4.85265E-13
 -1       595 5.70139E+00-2.13863E+00 1.53052E-01-3.65978E+00-2.27963E-13-9.52821E-13
 -1       596 2.88892E+01 6.02600E+00-2.05944E-01 1.31840E+00 1.00200E-12 2.51309E-13
 -1       597 1.28962E+01-4.26698E+00 1.20885E-01-6.95335E+00-3.20695E-13-7.28695E-13
 -1       598 4.76034E+00-1.93735E+00 1.54743E-01 2.86701E+00-4.42205E-13 1.17074E-12
 -1       599 2.91874E+01 7.12556E+00-1.94962E-01-6.19923E-01 1.08089E-12-1.56058E-13
 -1       600 3.03679E+01 6.73586E-01-1.10415E-01-8.15411E-01 4.76091E-13-6.55420E-13
 -1       601 2.98755E+01 3.15048E+00-1.32583E-01 1.74066E+00 7.16857E-13 4.56850E-13
 -1       602 4.70938E+00-1.32967E+00 1.79626E-01 2.57243E-01 5.86033E-15-1.01123E-12
 -1       603 1.23890E+01-4.16504E+00 1.17612E-01 6.50348E+00 3.03063E-13-6.62449E-13
 -1       604 2.45655E+01-5.67121E+00 2.98507E-02-3.86358E+00 4.49259E-13-3.34496E-13
 -1       605 2.18931E+01-5.80124E+00 3.27164E-02 5.39322E+00 3.65187E-13-1.95232E-13
 -1       606 3.07524E+01-6.76369E-02-8.67068E-02-1.79064E+00-5.41386E-13 2.52950E-13
 -1       607 3.02809E+01 6.73717E+00-1.82007E-01 1.56452E-01-1.10381E-12-2.65886E-13
 -1       608 3.10722E+01 5.33101E+00-1.69907E-01 1.94723E+00-1.07885E-12-5.14075E-13
 -1       609 3.12231E+01 1.08340E+00-1.21144E-01 1.92044E+00-8.29697E-13-5.81556E-13
 -1       610 2.95687E+01-3.11849E+00-7.11737E-02-1.82127E-01-3.02524E-13-6.09103E-13
 -1       611 8.98717E+00-3.07365E+00 1.47333E-01-5.47501E+00 6.05627E-13 8.07437E-13
 -1       612 2.81095E+01-4.52447E+00-3.73041E-02 1.24414E+00 5.44998E-14 2.25150E-13
 -1       613 2.11199E+01 1.32376E+00-1.00483E-03 1.10150E+00 5.69934E-13 1.28816E-13
 -1       614 1.98457E+01 2.99965E+00-6.35028E-03-6.86595E-01-3.68060E-13-5.41123E-13
 -1       615 1.99985E+01-1.78386E-03-5.92153E-06 5.36104E-03-1.74781E-13 2.00021E-13
 -1       616 1.04771E+01-2.24441E+00 1.47747E-01-5.53140E+00-3.40620E-13-8.50917E-13
 -1       617 1.84886E+01-4.54647E+00 1.00616E-01 5.88996E+00 4.52888E-13-2.52609E-13
 -1       618 1.92031E+01 3.01271E+00-1.22301E-03-5.87254E-03 1.75285E-13-5.35621E-13
 -1       619 1.90040E+01 3.17988E+00-1.09984E-03-7.87618E-02 7.72212E-14-5.90325E-13
 -1       620 1.99143E+01 2.36654E+00-1.43970E-03 2.40391E-01 3.35850E-13-3.89768E-13
 -1       621 2.03505E+01 1.87984E+00-1.99765E-03 3.66021E-01 4.16731E-13-2.81321E-13
 -1       622 2.63566E+01 4.76168E+00-1.32906E-01-1.64754E+00 6.91988E-13-3.85169E-13
 -1       623 2.00000E+01-1.55658E-03-3.25661E-06 5.71515E-03-1.98399E-13 2.22809E-13
 -1       624 2.04631E+01 1.49642E+00 8.03638E-04 6.19109E-02-3.01053E-13-3.36572E-13
 -1       625 2.07183E+01 1.16818E+00 2.73142E-03 2.04662E-01 4.06422E-13-1.66089E-13
 -1       626 2.10275E+01-8.99782E-02-3.06027E-04-9.90374E-01 9.02782E-14-9.23213E-14
 -1       627 2.04135E+01 1.13808E+00-1.14611E-04 6.19793E-01-2.40817E-13-3.04055E-13
 -1       628 2.03488E+01 9.19621E-01 4.81839E-04 1.09613E+00-1.87592E-13-2.84555E-13
 -1       629 2.03035E+01 7.39480E-01 3.00965E-04 1.50707E+00-1.15193E-13-2.63202E-13
 -1       630 2.03148E+01 5.14727E-01 1.70865E-04 1.86834E+00-8.37373E-14-2.79807E-13
 -1       631 2.04412E+01 1.50078E-01-1.10175E-05 2.18016E+00-2.27080E-14-2.56476E-13
 -1       632 2.07902E+01-4.62469E-01-3.06927E-04 2.41765E+00 2.99284E-14-1.71122E-13
 -1       633 2.15352E+01-1.41544E+00-3.54201E-04 2.50114E+00 1.08150E-13-1.03554E-13
 -1       634 2.29193E+01-2.67932E+00 2.29194E-03 2.22320E+00 2.56802E-13-2.18858E-14
 -1       635 2.49866E+01-3.71045E+00 1.86919E-02 1.35784E+00 2.13621E-13 1.32325E-13
 -1       636 2.83130E+01-2.12529E+00-6.74889E-02 1.86350E+00-1.63555E-13-8.91159E-13
 -1       637 2.62183E+01-3.65727E+00-6.47526E-03-1.49368E-01 3.23482E-13-5.73004E-13
 -1       638 2.39438E+01-3.06280E+00-8.18645E-03-1.50558E+00 3.57246E-13-3.62009E-13
 -1       639 2.22727E+01-1.85272E+00 3.78525E-03-2.10230E+00 3.79067E-13-3.81419E-13
 -1       640 2.12720E+01-8.13392E-01 9.47250E-04-2.21283E+00 3.46299E-13-3.86173E-13
 -1       641 2.07339E+01-1.11894E-01 3.24451E-04-2.08591E+00 1.50133E-13-2.96607E-13
 -1       642 2.04694E+01 2.83589E-01 3.20976E-04-1.86257E+00 1.11717E-13-6.71049E-14
 -1       643 2.03450E+01 4.65692E-01 3.95874E-04-1.60805E+00 3.76342E-14-2.49582E-14
 -1       644 2.02839E+01 5.17302E-01 4.22083E-04-1.35400E+00 1.11634E-13 6.39587E-14
 -1       645 2.02471E+01 4.97506E-01 3.96681E-04-1.11665E+00 8.51636E-14 1.45903E-13
 -1       646 2.02175E+01 4.43797E-01 3.45665E-04-9.04164E-01-1.68989E-14 1.27979E-13
 -1       647 2.01891E+01 3.78076E-01 2.88187E-04-7.19850E-01 4.67258E-14 2.23881E-13
 -1       648 2.01608E+01 3.12173E-01 2.33211E-04-5.63971E-01 7.19958E-14 2.52913E-13
 -1       649 2.01335E+01 2.51853E-01 1.84643E-04-4.34913E-01-2.86131E-14 1.76990E-13
 -1       650 2.01082E+01 1.99436E-01 1.43639E-04-3.30024E-01-2.00698E-13 2.27193E-13
 -1       651 2.00857E+01 1.55387E-01 1.10024E-04-2.46198E-01-2.75419E-13 1.02816E-13
 -1       652 2.00663E+01 1.19249E-01 8.30416E-05-1.80254E-01-1.52187E-13-5.94545E-14
 -1       653 2.00502E+01 9.01565E-02 6.17444E-05-1.29164E-01 8.92172E-14 1.67905E-14
 -1       654 2.00372E+01 6.71110E-02 4.51791E-05-9.01867E-02 9.39225E-15 2.08326E-13
 -1       655 2.00269E+01 4.91259E-02 3.24721E-05-6.09188E-02-1.76991E-13 3.25896E-13
 -1       656 2.00190E+01 3.52920E-02 2.28567E-05-3.93120E-02-1.27311E-13 6.62809E-13
 -1       657 2.00130E+01 2.48036E-02 1.56725E-05-2.36583E-02 4.12331E-13 2.92723E-13
 -1       658 2.00085E+01 1.69644E-02 1.03674E-05-1.25628E-02 1.41436E-13 1.34094E-13
 -1       659 2.00053E+01 1.11808E-02 6.48004E-06-4.90966E-03 1.48382E-13-3.43896E-14
 -1       660 2.00031E+01 6.95032E-03 3.68539E-06 1.74853E-04 2.04432E-13-1.90057E-13
 -1       661 2.00016E+01 3.84142E-03 1.91969E-06 3.35140E-03 8.61602E-14-2.34794E-13
 -1       662 2.00006E+01 1.50657E-03 1.37887E-06 5.10453E-03-1.09374E-13-1.99526E-13
 -1       663 2.00002E+01-8.58188E-05-1.27925E-06 5.71433E-03-1.58843E-13-7.70086E-14
 -1       664 2.85923E+01 2.27512E+00-1.36903E-01 2.83683E+00-7.61995E-13-7.51076E-13
 -1       665 2.08382E+01 1.86214E-01 5.34307E-05-8.87443E-01 1.44143E-13-9.12662E-14
 -1       666 2.17083E+01-7.66806E-01-1.01851E-03-7.38622E-01 1.81289E-14-2.37862E-15
 -1       667 2.21839E+01-1.10655E+00-1.55050E-03-3.25792E-01 7.16277E-14 1.20677E-14
 -1       668 2.26767E+01-1.29677E+00-2.10587E-03 2.89087E-01 7.13809E-14 5.13502E-14
 -1       669 2.30559E+01-1.13428E+00-1.90267E-03 1.02041E+00 1.15598E-13 3.06568E-14
 -1       670 2.31621E+01-4.40378E-01-1.90914E-03 1.62817E+00 1.26382E-13 1.43022E-13
 -1       671 2.29325E+01 7.28393E-01-3.35603E-03 1.73872E+00 1.21110E-13 7.79039E-14
 -1       672 2.25590E+01 1.88236E+00-8.04005E-03 1.08263E+00 1.35684E-13-3.46443E-14
 -1       673 2.23964E+01 2.33155E+00-9.16891E-03-1.68564E-01 2.76794E-13-1.40113E-13
 -1       674 2.26195E+01 1.74997E+00-9.32025E-03-1.36457E+00 3.34238E-13-1.97774E-13
 -1       675 2.30087E+01 5.51757E-01-5.95240E-03-1.90702E+00 1.86449E-13-2.68814E-13
 -1       676 2.32023E+01-5.52372E-01-3.32503E-03-1.70971E+00 4.20986E-14-3.80963E-13
 -1       677 2.30557E+01-1.15391E+00-2.01603E-03-1.07360E+00 3.22324E-14-3.67658E-13
 -1       678 2.26574E+01-1.25050E+00-1.01540E-03-3.62163E-01-5.36083E-14-1.37614E-13
 -1       679 2.21640E+01-1.03798E+00-1.00948E-03 2.17636E-01-5.86702E-16-2.03056E-14
 -1       680 2.16932E+01-7.11636E-01-9.53602E-04 6.04455E-01 1.14503E-13 9.14584E-14
 -1       681 2.12993E+01-3.96718E-01-6.32757E-04 8.14213E-01-1.12668E-13 3.86665E-15
 -1       682 2.09915E+01-1.48462E-01-3.22922E-04 8.89657E-01-2.10538E-13-6.06071E-14
 -1       683 2.07582E+01 2.18986E-02-9.93030E-05 8.74504E-01-1.74253E-13-1.69127E-13
 -1       684 2.05826E+01 1.24262E-01 4.35940E-05 8.04648E-01-6.58675E-14-5.81447E-14
 -1       685 2.04494E+01 1.75275E-01 1.23140E-04 7.06590E-01 2.33224E-14 1.74004E-13
 -1       686 2.03472E+01 1.91249E-01 1.58305E-04 5.98555E-01-4.00291E-14 2.58895E-13
 -1       687 2.02676E+01 1.85449E-01 1.64814E-04 4.92232E-01-2.81826E-14 1.30171E-13
 -1       688 2.02050E+01 1.67604E-01 1.54573E-04 3.94475E-01 1.09119E-13 2.34919E-13
 -1       689 2.01558E+01 1.44332E-01 1.35875E-04 3.08729E-01-9.21300E-14 1.52075E-13
 -1       690 2.01169E+01 1.19837E-01 1.14100E-04 2.36162E-01-2.57997E-14-1.21491E-13
 -1       691 2.00865E+01 9.65895E-02 9.24851E-05 1.76512E-01 1.85818E-14 1.75133E-14
 -1       692 2.00629E+01 7.58741E-02 7.27854E-05 1.28694E-01 9.50627E-14 8.54874E-14
 -1       693 2.00448E+01 5.82118E-02 5.57939E-05 9.12199E-02 1.76642E-13-2.43217E-13
 -1       694 2.00311E+01 4.36542E-02 4.17132E-05 6.24750E-02 1.46279E-13-4.62746E-14
 -1       695 2.00210E+01 3.19861E-02 3.04080E-05 4.08878E-02-1.18393E-13 1.32043E-13
 -1       696 2.00135E+01 2.28583E-02 2.15684E-05 2.50274E-02-2.09762E-13 4.87968E-13
 -1       697 2.00083E+01 1.58711E-02 1.47950E-05 1.36506E-02-1.16084E-13 3.20266E-13
 -1       698 2.00046E+01 1.06223E-02 9.70934E-06 5.71769E-03 8.12412E-14 2.03062E-13
 -1       699 2.00022E+01 6.73419E-03 5.95426E-06 3.88037E-04 7.63910E-14-2.22220E-14
 -1       700 2.00007E+01 3.86188E-03 3.02486E-06-2.99326E-03-2.87337E-13-2.87078E-13
 -1       701 1.99998E+01 1.70471E-03 1.28764E-06-4.91694E-03-9.29556E-14-2.97467E-13
 -1       702 1.99994E+01-2.09487E-05 1.57983E-06-5.73378E-03 6.37677E-14-2.18855E-13
 -1       703 1.99996E+01-1.27858E-03-5.88331E-07-5.74784E-03-8.01937E-14-3.08647E-13
 -1       704 2.58832E+01-4.53695E+00-1.23856E-02 2.25263E+00-2.33926E-13-4.14550E-13
 -1       705 2.00034E+01-5.84983E-04 1.55238E-06-7.60826E-04 7.45384E-14 3.19508E-13
 -1       706 2.00028E+01-8.93014E-04 4.04166E-07-3.47418E-03-1.14494E-14-2.32103E-13
 -1       707 2.00035E+01-6.07160E-04 1.94209E-06 6.60156E-04-1.72248E-13-2.14361E-13
 -1       708 2.00032E+01-6.96371E-04 9.64295E-07-2.15614E-03-5.35934E-14 2.51845E-13
 -1       709 2.60810E+01 5.68853E+00-1.35806E-01 3.15907E-01 8.01033E-13-4.37280E-15
 -1       710 2.00033E+01-7.55991E-04 2.05975E-06 2.05627E-03-1.89680E-13-7.27687E-14
 -1       711 2.00029E+01-9.83876E-04 1.46004E-06 3.42756E-03-1.73569E-13-3.51103E-13
 -1       712 2.00022E+01-1.16986E-03 4.11820E-06 4.64002E-03-5.36986E-14-4.71770E-13
 -1       713 2.07360E+01 4.49713E-01 6.23666E-04-6.56680E-01 2.34066E-13-1.06769E-13
 -1       714 7.61431E+00-3.51114E-01 1.67036E-01-1.92046E+00-6.48604E-14-7.93442E-13
 -1       715 2.47809E+01-4.84737E+00 2.42637E-02 2.59383E+00 3.58902E-13 1.69578E-13
 -1       716 2.13162E+01-4.09007E-01-6.61325E-04-9.50327E-01 1.67146E-14-4.22997E-14
 -1       717 2.10091E+01-4.55714E+00 2.87792E-02-4.59605E+00 6.60121E-13-2.30330E-13
 -1       718 2.15255E+01-4.86481E+00 3.54434E-02 4.82619E+00-6.70478E-13-6.19530E-14
 -1       719 2.07033E+01 7.51321E-01 1.25332E-03-2.98274E-01 3.00714E-13-1.60200E-13
 -1       720 1.29232E+01-2.02720E+00 1.22728E-01 5.24475E+00 3.68379E-13-5.94053E-13
 -1       721 2.62484E+01-4.77123E+00 6.43719E-02-1.64161E+00 3.93779E-13-5.31953E-13
 -1       722 1.95175E+01 2.74049E+00-1.38470E-03 1.04040E-01 2.57179E-13-4.99613E-13
 -1       723 8.76846E+00-2.92763E-01 1.59291E-01 2.44166E+00 1.84391E-13-7.44141E-13
 -1       724 1.81603E+01-4.41765E+00 8.20519E-02-6.10411E+00-4.49325E-13-2.80789E-13
 -1       725 9.11178E+00-1.06857E+00 1.47354E-01 4.13286E+00-5.23061E-13 9.58136E-13
 -1       726 1.93176E+01 2.94215E+00-1.30211E-03-1.76181E-01-1.71755E-13-5.26415E-13
 -1       727 1.41992E+01-2.81732E+00 1.12363E-01 5.93338E+00-6.33726E-13 5.12191E-13
 -1       728 2.80058E+01-2.15150E+00-7.23449E-02-3.80648E-01 9.61193E-14-5.81892E-13
 -1       729 2.67955E+01-3.68597E+00-2.47073E-02-7.69194E-01-2.09491E-13 2.62191E-13
 -1       730 7.17507E+00-1.28939E-01 1.59862E-01 3.66999E-01-1.20830E-13 1.00602E-12
 -1       731 2.73941E+01 1.19496E+00-1.09775E-01-2.26219E+00 3.56413E-13-6.09443E-13
 -1       732 2.30303E+01-5.22979E+00 2.34232E-02-4.49378E+00-4.94462E-13-1.89316E-13
 -1       733 1.97189E+01 2.59073E+00-1.50940E-03-2.25955E-01-2.90582E-13-4.69114E-13
 -1       734 1.89494E+01 3.23050E+00-1.07609E-03-1.19957E-01 7.76156E-15-6.09469E-13
 -1       735 9.49496E+00-9.14695E-01 1.46084E-01-3.68703E+00 4.48974E-13 5.54820E-13
 -1       736 2.70251E+01-7.26046E-01-6.72560E-02 1.76760E+00 1.61095E-13 4.75826E-13
 -1       737 2.00012E+01-1.38928E-03 2.43584E-07-5.25519E-03 2.70864E-14-4.92539E-13
 -1       738 2.00015E+01-4.39747E-04 5.86864E-06 5.29500E-03 4.43335E-15-9.87145E-14
 -1       739 1.87007E+01-3.54870E+00 5.01952E-02 5.12081E+00-7.64094E-13-2.82465E-14
 -1       740 2.60922E+01 4.09169E+00-1.26019E-01 1.85234E+00 6.61363E-13 1.77920E-13
 -1       741 2.03101E+01 1.96313E+00-1.34652E-03-2.61332E-01-3.65143E-13-4.05506E-13
 -1       742 1.52520E+01-2.81647E+00 9.83997E-02-5.76551E+00-4.12601E-13-4.48617E-13
 -1       743 1.54726E+01-2.36397E+00 9.58927E-02-5.13205E+00 7.13658E-13 3.53079E-13
 -1       744 2.00022E+01-1.20349E-03 9.59956E-07-4.46827E-03 7.30285E-14 4.44552E-15
 -1       745 1.90538E+01 3.15432E+00-1.17418E-03-1.46170E-01-5.48930E-14-5.50161E-13
 -1       746 2.22292E+01-4.32185E+00 4.33969E-02 3.92855E+00 3.97703E-13-2.06155E-14
 -1       747 2.02120E+01 1.59514E+00-1.80471E-04-1.05676E-01 2.98505E-13-2.84888E-13
 -1       748 2.42360E+01-4.23244E+00-1.34213E-03-2.30863E+00-3.53792E-13 3.48502E-14
 -1       749 1.03802E+01 6.53948E-01 8.99603E-02-7.75838E-02 6.05906E-14-6.68396E-13
 -1       750 1.98825E+01 1.42025E+00 2.61944E-04 7.73016E-01-1.88329E-13-3.53346E-13
 -1       751 1.97017E+01 1.19081E+00 2.24525E-04 1.20201E+00-1.24822E-13-3.03009E-13
 -1       752 1.94938E+01 9.72900E-01 9.21705E-05 1.60737E+00-8.81259E-14-2.69748E-13
 -1       753 1.92983E+01 6.79529E-01 1.90523E-04 2.01734E+00-6.21579E-14-2.22854E-13
 -1       754 1.91922E+01 1.97411E-01 1.14049E-03 2.46510E+00 3.78191E-14-2.68385E-13
 -1       755 1.93152E+01-6.12598E-01 2.73405E-03 2.98536E+00 1.33168E-13-2.29040E-13
 -1       756 1.99470E+01-1.89787E+00 1.96966E-02 3.52687E+00 2.49954E-13-8.99684E-14
 -1       757 2.00876E+01 1.80961E+00 1.03778E-03 1.61231E-01-2.44847E-13-4.16687E-13
 -1       758 2.56592E+01-2.52515E+00-1.42625E-02 5.62321E-01-8.45001E-14 3.57504E-13
 -1       759 2.09112E+01-2.65016E+00 1.51593E-02-3.39336E+00 4.15929E-13-2.20372E-13
 -1       760 1.97277E+01-1.14091E+00 5.88716E-03-2.97798E+00 3.29615E-13-1.34661E-13
 -1       761 1.93245E+01-1.67768E-01 1.89374E-03-2.50476E+00 3.22087E-13-3.10659E-13
 -1       762 1.92649E+01 3.82658E-01 3.64023E-04-2.08916E+00 2.16209E-13-3.78806E-13
 -1       763 1.93556E+01 6.46526E-01 8.75001E-05-1.74057E+00 1.88070E-13-3.87835E-13
 -1       764 1.94932E+01 7.33469E-01 7.86201E-05-1.44630E+00 9.20950E-14-3.06135E-13
 -1       765 1.96290E+01 7.19777E-01 8.28597E-05-1.19384E+00 5.66557E-14-3.26462E-13
 -1       766 1.97437E+01 6.54643E-01 7.42775E-05-9.75609E-01 4.49358E-15-2.18488E-13
 -1       767 1.98325E+01 5.68025E-01 6.33462E-05-7.87518E-01 7.24712E-14-8.17465E-14
 -1       768 1.98973E+01 4.77152E-01 5.28150E-05-6.27055E-01 2.57321E-14-1.76174E-13
 -1       769 1.99424E+01 3.91215E-01 4.34735E-05-4.92061E-01-1.09165E-13-3.53326E-13
 -1       770 1.99724E+01 3.14547E-01 3.53714E-05-3.80248E-01 9.01803E-14-2.26225E-13
 -1       771 1.99914E+01 2.48671E-01 2.84280E-05-2.89105E-01-1.73102E-13 7.71283E-14
 -1       772 2.00028E+01 1.93569E-01 2.25515E-05-2.15985E-01-1.56768E-13 1.64859E-13
 -1       773 2.00090E+01 1.48432E-01 1.76463E-05-1.58244E-01-9.77128E-14 8.54105E-14
 -1       774 2.00119E+01 1.12106E-01 1.36128E-05-1.13362E-01 1.30090E-14-3.17319E-13
 -1       775 2.00126E+01 8.33288E-02 1.03470E-05-7.90304E-02-8.63871E-15-3.14886E-13
 -1       776 2.00120E+01 6.08732E-02 7.74169E-06-5.32021E-02 1.57929E-13-9.45615E-14
 -1       777 2.00108E+01 4.36063E-02 5.67816E-06-3.41140E-02 8.78634E-14 1.26006E-13
 -1       778 2.00093E+01 3.05211E-02 4.02086E-06-2.02827E-02 6.33133E-14-1.69881E-13
 -1       779 2.00077E+01 2.07409E-02 2.65365E-06-1.04896E-02 3.37406E-14-1.70408E-13
 -1       780 2.00061E+01 1.35144E-02 1.52551E-06-3.75804E-03-5.82573E-14-1.48453E-13
 -1       781 2.00047E+01 8.20828E-03 1.15696E-06 6.76130E-04 9.58657E-14-1.29736E-13
 -1       782 2.00034E+01 4.24488E-03-1.72311E-07 3.40089E-03 6.08400E-14-5.42683E-14
 -1       783 2.25513E+01-1.76320E+00-1.15952E-03-6.07804E-01 1.61369E-14-3.36364E-14
 -1       784 2.17943E+01-1.26348E+00-2.31282E-04-1.05651E+00 2.76156E-15-3.03316E-14
 -1       785 2.41279E+01-1.53923E+00-5.08152E-03 1.13129E+00 2.97440E-15 1.94804E-13
 -1       786 2.43536E+01-1.41645E-01-2.03279E-02 1.94949E+00 1.44878E-13 2.37938E-13
 -1       787 2.40970E+01 1.86564E+00-2.54033E-02 1.85778E+00 2.81293E-13 2.21552E-13
 -1       788 2.36549E+01 3.46426E+00-4.27089E-02 6.64182E-01 3.79167E-13-1.59932E-13
 -1       789 2.36751E+01 3.32865E+00-4.28454E-02-1.06748E+00 4.12726E-13-4.11272E-13
 -1       790 2.40587E+01 1.61397E+00-3.00079E-02-2.11611E+00 3.30670E-13-5.20123E-13
 -1       791 2.43385E+01-4.19699E-01-4.39571E-03-1.97425E+00 5.31054E-14-4.07807E-13
 -1       792 2.40011E+01-1.61580E+00-2.91911E-03-1.12177E+00-1.41360E-14-3.77562E-13
 -1       793 2.32297E+01-1.93118E+00 3.96369E-05-1.71297E-01-1.93407E-13-1.88201E-13
 -1       794 2.23777E+01-1.66645E+00 6.56033E-04 5.22236E-01-1.65353E-13 3.55659E-14
 -1       795 2.16277E+01-1.17467E+00-2.62997E-04 9.29688E-01-6.29544E-14 1.04350E-13
 -1       796 2.10612E+01-6.83454E-01-2.63485E-04 1.10897E+00-2.76083E-14 2.30466E-13
 -1       797 2.06697E+01-2.88060E-01-1.19280E-04 1.13898E+00-1.21029E-14 1.13220E-13
 -1       798 2.04158E+01-1.03591E-02-2.72067E-05 1.08023E+00-1.01863E-13-2.86686E-14
 -1       799 2.02585E+01 1.62553E-01 2.33034E-05 9.74075E-01-3.29953E-13-2.73943E-14
 -1       800 2.01642E+01 2.54675E-01 4.57814E-05 8.46945E-01-1.59446E-13 2.74819E-14
 -1       801 2.01090E+01 2.90172E-01 5.33122E-05 7.15450E-01-7.97996E-14 2.50359E-13
 -1       802 2.00768E+01 2.89193E-01 5.27723E-05 5.89698E-01 1.38351E-13 2.04480E-14
 -1       803 2.00577E+01 2.66915E-01 4.81389E-05 4.75434E-01-5.75415E-14-8.21052E-14
 -1       804 2.00458E+01 2.33987E-01 4.16596E-05 3.75449E-01 1.48675E-14 2.28054E-14
 -1       805 2.00377E+01 1.97428E-01 3.46741E-05 2.90556E-01 6.91953E-14 8.02329E-14
 -1       806 2.00316E+01 1.61562E-01 2.79678E-05 2.20293E-01-9.56639E-14 4.99880E-14
 -1       807 2.00266E+01 1.28809E-01 2.19572E-05 1.63441E-01 1.10617E-13 4.01865E-14
 -1       808 2.00223E+01 1.00317E-01 1.68188E-05 1.18385E-01 2.26571E-13 1.61348E-14
 -1       809 2.00185E+01 7.64147E-02 1.25809E-05 8.33782E-02-6.36700E-14 2.35446E-13
 -1       810 2.00152E+01 5.69423E-02 9.18531E-06 5.67032E-02-2.86634E-13 5.84729E-13
 -1       811 2.00122E+01 4.14708E-02 6.52668E-06 3.67778E-02-2.42232E-13 3.59879E-13
 -1       812 2.00096E+01 2.94482E-02 4.48342E-06 2.22066E-02-8.64436E-14 1.50982E-13
 -1       813 2.00074E+01 2.02885E-02 2.88697E-06 1.18026E-02-2.91083E-14 5.50034E-14
 -1       814 2.00056E+01 1.34217E-02 1.43534E-06 4.58928E-03 1.31583E-14-3.23335E-16
 -1       815 2.00040E+01 8.32910E-03 1.21538E-06-2.20308E-04 1.38941E-13 3.87280E-14
 -1       816 2.00028E+01 4.53398E-03 2.73994E-07-3.20746E-03-8.35274E-14-1.34752E-13
 -1       817 2.00018E+01 1.64026E-03 1.77465E-06-4.83746E-03-1.35709E-14-4.42209E-13
 -1       818 2.00015E+01 1.36332E-04-3.82981E-06-5.21929E-03 8.66549E-14-4.61324E-13
 -1       819 1.27999E+01-1.53396E-01 6.44106E-02 3.35591E+00 2.07985E-13-5.88155E-13
 -1       820 2.04906E+01 1.15246E+00 2.02640E-04-1.94287E-01 3.14365E-13-2.02184E-13
 -1       821 2.00046E+01 3.57055E-03 5.00942E-07-7.55384E-05-5.10564E-14-2.02000E-13
 -1       822 2.00037E+01 1.91856E-03-4.46527E-06 3.57590E-03-7.86833E-14-4.16274E-13
 -1       823 2.00046E+01 3.33703E-03-2.24923E-06 1.09409E-03-1.85916E-13 7.43553E-14
 -1       824 1.04946E+01 3.64609E-01 9.43834E-02 2.01858E+00-1.41819E-13 7.64729E-13
 -1       825 2.04954E+01 5.46194E-01 5.84654E-05-8.64300E-01 1.50464E-13-1.92757E-13
 -1       826 2.00043E+01 2.73974E-03-3.90398E-06 2.32224E-03-8.49436E-14-9.35639E-14
 -1       827 1.15989E+01-4.63253E-01 9.45973E-02-3.73432E+00-1.89521E-13-6.24459E-13
 -1       828 2.34082E+01-1.98047E+00-2.83142E-03 1.47718E-01 3.96642E-14 5.60862E-14
 -1       829 2.06144E+01 1.79729E-01-1.37974E-04-1.11015E+00 8.58140E-14-1.65449E-13
 -1       830 1.78616E+01-2.63245E+00 6.54158E-02 4.84258E+00 3.55447E-13-2.09666E-13
 -1       831 1.91073E+01 2.61142E+00-2.18774E-04-2.08220E-01 1.15919E-13-4.69091E-13
 -1       832 2.39306E+01-4.15067E+00 1.14737E-03 2.29614E+00-4.97152E-13-3.59766E-13
 -1       833 1.30683E+01-8.85315E-01 8.00151E-02 4.23615E+00-4.24709E-13 5.45491E-13
 -1       834 2.62483E+01-1.41697E+00-3.88983E-02-1.47222E+00 5.51642E-15-7.01291E-13
 -1       835 2.16164E+01-4.12124E+00 2.85035E-02-4.11486E+00-4.00856E-13-1.34972E-13
 -1       836 1.03189E+01 4.54469E-01 9.32544E-02-1.39674E+00 1.58599E-13 4.01141E-13
 -1       837 2.57222E+01-3.35626E+00-1.97000E-02 3.37187E-01-3.36646E-13-4.86635E-13
 -1       838 1.37176E+01-5.17497E-01 6.70847E-02-3.61027E+00 4.65176E-13 3.16400E-13
 -1       839 2.50529E+01 1.42545E+00-5.59062E-02 2.05071E+00 2.66429E-13 2.44739E-13
 -1       840 1.89437E+01 2.74889E+00-2.26125E-04-1.56515E-01 3.71057E-14-5.33289E-13
 -1       841 1.94057E+01 2.36066E+00-2.37797E-04-2.10022E-01 1.77194E-13-4.53509E-13
 -1       842 1.93190E+01-3.15073E+00 4.10458E-02-4.61462E+00-3.38724E-13-1.89743E-13
 -1       843 1.65153E+01-1.83063E+00 3.67424E-02 4.48162E+00-5.64800E-13 1.13091E-13
 -1       844 2.00025E+01 1.71343E-03-3.72119E-06 4.64837E-03-1.48477E-13-1.36589E-13
 -1       845 2.08425E+01-2.31022E-01-1.95341E-04-1.24604E+00 2.73360E-14-1.15345E-13
 -1       846 1.97932E+01 2.01596E+00-1.48211E-04-1.67265E-01 2.39812E-13-3.93445E-13
 -1       847 2.00035E+01 1.99182E-03-2.66226E-06-3.60280E-03 1.66864E-13-2.98644E-13
 -1       848 1.94854E+01 2.32474E+00-6.11366E-04 1.21422E-01-2.00682E-13-4.00171E-13
 -1       849 2.12240E+01-7.17824E-01-3.22103E-04-1.24561E+00-8.10017E-15-1.18130E-13
 -1       850 2.00042E+01 2.76317E-03-1.04268E-06-2.42151E-03 4.16170E-13 6.87931E-14
 -1       851 2.00045E+01 3.34111E-03 1.06927E-07-1.23540E-03 1.52302E-13 2.46601E-13
 -1       852 2.18322E+01-3.64317E+00 1.38423E-02 3.30051E+00-5.71957E-13-7.45575E-14
 -1       853 1.73376E+01-1.05045E+00 2.20041E-02-3.63709E+00 4.30619E-13 1.34754E-13
 -1       854 1.91353E+01 2.60843E+00-1.16960E-03 3.45429E-02-9.01563E-14-4.55217E-13
 -1       855 2.04824E+01 8.33975E-01 1.96156E-04-5.64308E-01 2.41631E-13-1.90891E-13
 -1       856 2.00047E+01 5.25112E-03-5.05669E-07 2.56668E-03-2.07355E-13-4.22548E-13
 -1       857 2.17677E+01-1.82409E+00 3.24214E-03-1.62854E+00-5.25822E-14-9.54737E-14
 -1       858 1.95691E+01 2.00490E+00-1.75034E-04 3.32471E-01-1.68216E-13-4.09109E-13
 -1       859 1.89364E+01 1.41959E+00 1.10091E-04 1.14824E+00-9.21214E-14-3.15349E-13
 -1       860 1.85054E+01 1.19702E+00-2.14639E-04 1.51820E+00-3.61609E-14-2.85528E-13
 -1       861 1.79924E+01 8.92843E-01-3.75059E-04 1.96199E+00-1.45889E-14-2.35353E-13
 -1       862 1.74374E+01 3.76650E-01 1.11251E-03 2.57525E+00 1.28370E-13-2.26252E-13
 -1       863 1.69010E+01-4.51310E-01 1.65846E-02 3.47713E+00 2.51484E-13-2.25379E-13
 -1       864 1.74562E+01 9.93655E-03 2.49450E-03-2.72512E+00 2.39102E-13 1.91637E-13
 -1       865 1.78419E+01 5.89912E-01-1.23932E-04-2.09526E+00 8.46401E-14 3.59837E-14
 -1       866 1.82618E+01 8.61625E-01-5.18175E-04-1.66415E+00 1.67264E-13 8.63968E-15
 -1       867 1.86464E+01 9.48666E-01-2.92134E-04-1.35291E+00 9.94381E-14-1.47349E-13
 -1       868 1.89724E+01 9.28508E-01-1.37324E-04-1.11220E+00-4.50971E-14-2.80952E-13
 -1       869 1.92363E+01 8.50773E-01-7.88735E-05-9.15061E-01-1.62132E-15-4.45606E-13
 -1       870 1.94434E+01 7.46707E-01-5.33355E-05-7.48104E-01 1.62708E-13-4.77606E-13
 -1       871 1.96020E+01 6.35400E-01-3.94117E-05-6.05065E-01 1.38847E-13-4.45610E-13
 -1       872 1.97211E+01 5.27885E-01-3.00675E-05-4.82869E-01-6.70176E-14-1.86195E-13
 -1       873 1.98091E+01 4.29975E-01-2.30657E-05-3.79615E-01 3.10493E-14-2.51702E-14
 -1       874 1.98729E+01 3.44228E-01-1.75688E-05-2.93655E-01-2.19211E-16-2.78988E-13
 -1       875 1.99185E+01 2.71244E-01-1.31973E-05-2.23258E-01-2.03431E-13-1.83338E-13
 -1       876 1.99505E+01 2.10504E-01-9.73779E-06-1.66573E-01-1.94841E-13-3.37403E-13
 -1       877 1.99724E+01 1.60903E-01-7.03519E-06-1.21698E-01-7.85974E-14-3.45170E-13
 -1       878 1.99870E+01 1.21079E-01-4.95601E-06-8.67709E-02-5.99936E-14-3.52348E-13
 -1       879 1.99964E+01 8.96061E-02-3.38212E-06-6.00500E-02 8.22370E-14-1.66186E-13
 -1       880 2.00020E+01 6.51093E-02-2.22736E-06-3.99692E-02 1.57423E-13-3.38135E-13
 -1       881 2.00051E+01 4.63261E-02-1.45026E-06-2.51640E-02-2.78626E-14-1.95674E-13
 -1       882 2.00064E+01 3.21311E-02-1.06841E-06-1.44781E-02 2.60939E-13 1.47371E-13
 -1       883 2.00066E+01 2.15393E-02-1.08871E-06-6.95978E-03 1.12035E-13 2.37366E-13
 -1       884 2.00061E+01 1.37453E-02 2.11254E-06-1.87773E-03-1.19003E-13 2.42316E-13
 -1       885 2.00055E+01 9.12346E-03 1.69706E-06 8.61380E-04-8.26902E-14-4.99836E-14
 -1       886 2.39197E+01-2.73808E+00-7.36927E-03 3.34512E-01-2.18307E-13-2.51850E-13
 -1       887 2.25954E+01-2.41739E+00 5.07020E-03 1.14614E+00-3.69945E-13-1.53517E-13
 -1       888 2.14828E+01-1.69232E+00 8.13503E-04 1.50018E+00-1.32271E-13-6.97061E-14
 -1       889 2.07201E+01-9.89107E-01 1.57807E-04 1.55929E+00-1.22335E-13-1.90655E-14
 -1       890 2.02443E+01-4.27784E-01-1.00268E-05 1.46853E+00-5.05057E-14 4.40935E-14
 -1       891 1.99798E+01-3.56480E-02 1.07501E-05 1.31200E+00-1.24328E-13 7.92648E-14
 -1       892 1.98517E+01 2.10928E-01 2.33947E-05 1.13587E+00-1.89625E-13 1.77314E-13
 -1       893 1.98061E+01 3.46160E-01 2.35650E-05 9.61471E-01-2.62475E-13 6.58284E-14
 -1       894 1.98066E+01 4.02751E-01 1.94738E-05 7.98912E-01-1.76324E-13 1.93256E-13
 -1       895 1.98298E+01 4.07698E-01 1.46526E-05 6.52749E-01 1.58774E-13 1.07645E-13
 -1       896 1.98617E+01 3.81482E-01 1.08561E-05 5.24715E-01 8.90422E-14 1.69305E-13
 -1       897 1.98944E+01 3.38737E-01 8.06140E-06 4.14986E-01-7.09683E-14 1.35965E-13
 -1       898 1.99237E+01 2.89370E-01 5.97356E-06 3.22789E-01-1.56936E-14 6.15440E-14
 -1       899 1.99481E+01 2.39700E-01 4.38708E-06 2.46752E-01 1.28258E-14 9.60501E-14
 -1       900 1.99673E+01 1.93454E-01 3.17824E-06 1.85151E-01-1.17916E-13 1.04090E-13
 -1       901 1.99816E+01 1.52554E-01 2.26425E-06 1.36105E-01 2.13980E-13 5.17104E-14
 -1       902 1.99918E+01 1.17730E-01 1.58361E-06 9.77201E-02-1.40585E-13 2.88036E-13
 -1       903 1.99986E+01 8.89636E-02 1.08913E-06 6.81923E-02-3.46226E-13 3.76398E-13
 -1       904 2.00029E+01 6.57995E-02 7.40078E-07 4.58782E-02-1.32376E-13 1.16661E-13
 -1       905 2.00052E+01 4.75620E-02 4.91242E-07 2.93309E-02-7.38852E-14 1.38586E-13
 -1       906 2.00062E+01 3.34927E-02 3.11028E-07 1.73126E-02 7.11303E-14 2.66125E-13
 -1       907 2.00063E+01 2.28275E-02 5.89562E-07 8.78832E-03-1.46520E-13 2.78413E-13
 -1       908 2.00058E+01 1.48627E-02 2.08365E-07 2.95340E-03 1.12748E-13 3.21765E-13
 -1       909 2.00049E+01 8.88054E-03-1.06621E-05-9.25900E-04 1.87415E-13 1.82898E-13
 -1       910 2.00038E+01 4.50931E-03 7.51891E-06-3.26456E-03 2.11828E-14-1.24986E-13
 -1       911 1.57087E+01-1.30036E+00 4.86484E-02-4.33873E+00-3.23758E-13-4.07754E-13
 -1       912 2.00055E+01 8.35702E-03-1.44894E-06 2.09540E-04-1.05712E-13-4.50839E-13
 -1       913 2.41252E+01-3.09706E+00-1.26906E-03-8.03609E-01-1.70399E-13 1.85606E-13
 -1       914 1.25336E+01 6.11037E-01 4.19294E-02-1.90135E+00-1.15138E-13-4.87835E-13
 -1       915 1.32181E+01 9.62698E-01 3.32697E-02 1.27838E+00 3.19029E-14-6.15102E-13
 -1       916 1.89507E+01 2.75205E+00-7.36675E-05-6.81652E-02-3.26951E-14-5.41338E-13
 -1       917 1.34425E+01 3.11974E-01 3.64206E-02 2.56458E+00-2.00028E-13 3.46290E-13
 -1       918 1.34896E+01 7.67074E-01 3.41138E-02-1.65863E+00 1.68978E-13 1.72152E-13
 -1       919 2.01371E+01 6.08979E-01-3.70640E-04-1.08163E+00 1.09730E-13-2.59958E-13
 -1       920 2.49219E+01-2.37095E+00-1.27247E-02-6.65623E-01-1.36655E-13-3.75176E-13
 -1       921 1.24386E+01 9.83434E-01 4.01563E-02 4.32779E-01 1.88796E-13 4.19956E-13
 -1       922 1.92711E+01 1.64224E+00-4.59573E-04 7.86171E-01-1.13384E-13-3.23059E-13
 -1       923 2.29249E+01-3.41332E+00-2.59526E-03-2.27120E+00-2.76695E-13-2.03379E-14
 -1       924 2.00026E+01 9.73519E-04 8.71912E-07-4.47807E-03 2.51000E-13-1.58153E-13
 -1       925 2.00054E+01 8.31304E-03-2.54410E-06-4.75228E-04 3.41107E-14-2.02491E-13
 -1       926 1.96441E+01-2.48930E+00 1.44928E-02 3.63377E+00-3.73530E-13 1.13300E-13
 -1       927 2.00053E+01 6.76569E-03-3.81285E-07 1.50255E-03-3.07878E-13-6.36790E-14
 -1       928 1.92016E+01 2.05553E+00-5.36031E-05-4.49917E-01 1.10610E-13-4.20112E-13
 -1       929 2.09840E+01-1.05682E+00-3.87437E-05-1.70358E+00-5.75766E-14-1.90624E-13
 -1       930 2.00392E+01 1.36308E+00 2.17017E-04-4.94483E-01 2.25201E-13-2.82507E-13
 -1       931 2.02534E+01 1.52043E-01-9.22930E-05-1.37010E+00 1.29020E-14-2.52353E-13
 -1       932 1.89104E+01 2.28339E+00 6.30377E-06-3.23419E-01 7.38437E-14-4.58132E-13
 -1       933 1.56790E+01-4.38515E-01 1.90638E-02 3.31021E+00-2.14644E-13 2.24322E-13
 -1       934 2.33384E+01-3.28072E+00 1.14669E-02 1.55497E+00-3.83942E-13-2.27252E-13
 -1       935 2.02706E+01 1.09194E+00 8.81835E-05-5.32507E-01 2.44101E-13-2.27343E-13
 -1       936 1.55245E+01 3.69478E-01 1.07726E-02-2.50027E+00 2.72961E-13 1.32391E-13
 -1       937 2.00055E+01 7.73665E-03 1.50619E-06 8.02225E-04-1.30839E-13 8.86235E-14
 -1       938 2.27446E+01-2.57978E+00 3.08252E-04-1.40606E+00-1.02528E-13 1.23582E-14
 -1       939 2.14913E+01-2.98413E+00 1.03128E-02-3.04278E+00-2.56800E-13-1.34548E-13
 -1       940 1.91686E+01 2.32363E+00-4.37802E-04 1.83154E-01-1.21520E-13-3.67677E-13
 -1       941 2.02047E+01 8.53484E-01-6.48213E-05-8.19767E-01 2.01012E-13-2.41400E-13
 -1       942 2.00049E+01 6.28483E-03-3.12172E-06-2.09473E-03 5.04402E-13 2.65845E-13
 -1       943 1.74134E+01 1.38829E+00-1.45987E-03 1.14217E+00-1.71361E-14-3.19804E-13
 -1       944 1.64647E+01 1.15237E+00 5.41339E-03 1.49447E+00 6.11698E-14-3.10504E-13
 -1       945 1.50975E+01 1.07035E+00 1.82003E-02 1.48187E+00 9.84471E-14-4.28192E-13
 -1       946 2.05084E+01-3.90366E-01-8.92361E-05-1.58925E+00 5.59424E-15-2.13793E-13
 -1       947 1.65074E+01 8.46350E-01 6.00521E-04-1.80466E+00 4.02956E-14 6.56785E-14
 -1       948 1.73036E+01 1.06160E+00-7.67052E-04-1.38302E+00 8.58374E-14 3.08214E-14
 -1       949 1.79334E+01 1.11941E+00-5.02731E-04-1.11033E+00 1.17480E-13-8.62983E-14
 -1       950 1.84290E+01 1.08362E+00-2.21342E-04-9.15718E-01-1.17691E-13-1.90143E-13
 -1       951 1.88171E+01 9.94644E-01-1.23734E-04-7.62872E-01-1.03124E-13-1.88362E-13
 -1       952 1.91190E+01 8.79330E-01-8.36237E-05-6.34255E-01-1.86109E-14-3.22958E-13
 -1       953 1.93520E+01 7.55424E-01-6.26294E-05-5.22435E-01 3.09588E-13-4.77943E-13
 -1       954 1.95300E+01 6.34097E-01-4.93628E-05-4.24553E-01 9.50681E-14-2.33147E-13
 -1       955 1.96646E+01 5.21849E-01-3.98335E-05-3.39598E-01-9.33364E-14-2.47316E-13
 -1       956 1.97653E+01 4.21996E-01-3.23192E-05-2.67030E-01-9.58383E-16-2.48233E-13
 -1       957 1.98397E+01 3.35752E-01-2.60634E-05-2.06201E-01-1.98443E-13-5.61957E-13
 -1       958 1.98939E+01 2.63012E-01-2.07611E-05-1.56197E-01-1.49368E-13-5.35536E-13
 -1       959 1.99327E+01 2.02887E-01-1.62859E-05-1.15879E-01-1.69454E-13-2.88996E-13
 -1       960 1.99599E+01 1.54075E-01-1.25591E-05-8.39801E-02-7.89825E-14-1.95930E-13
 -1       961 1.99786E+01 1.15103E-01-9.50275E-06-5.92098E-02 2.28943E-13-2.08407E-13
 -1       962 1.99909E+01 8.44764E-02-7.03670E-06-4.03320E-02 8.42108E-14-1.20515E-13
 -1       963 1.99987E+01 6.07781E-02-5.13406E-06-2.62226E-02 1.00733E-13-2.18868E-13
 -1       964 2.00032E+01 4.27157E-02-3.76244E-06-1.58957E-02 2.87434E-13-2.64173E-14
 -1       965 2.00054E+01 2.91381E-02-2.91232E-06-8.51112E-03 2.24831E-13 5.40568E-14
 -1       966 2.00061E+01 1.90925E-02-9.52547E-07-3.44207E-03-7.83658E-14 1.22542E-13
 -1       967 2.10279E+01-2.21011E+00 8.96340E-03 2.41731E+00-2.84452E-13-1.34113E-13
 -1       968 1.41765E+01 1.15939E+00 1.45610E-02-5.59796E-01-9.73693E-14-4.62597E-13
 -1       969 1.95957E+01-5.03153E-01-1.29488E-04 1.88451E+00-2.41318E-13 4.17998E-14
 -1       970 1.93843E+01-1.11645E-02-9.73668E-05 1.56658E+00-1.57042E-13 2.00008E-13
 -1       971 1.93305E+01 2.95005E-01-9.56256E-05 1.28346E+00-3.98514E-14 2.02251E-14
 -1       972 1.93645E+01 4.62684E-01-5.63782E-05 1.04240E+00-2.24767E-13-1.34857E-13
 -1       973 1.94411E+01 5.33549E-01-3.67747E-05 8.40657E-01-2.36515E-13-1.09177E-13
 -1       974 1.95332E+01 5.40530E-01-2.89294E-05 6.72871E-01-1.00151E-13-1.20222E-13
 -1       975 1.96255E+01 5.08273E-01-2.41334E-05 5.33820E-01-3.78497E-14 1.07853E-13
 -1       976 1.97098E+01 4.54506E-01-2.00421E-05 4.19129E-01 2.37478E-14 2.20587E-13
 -1       977 1.97822E+01 3.91468E-01-1.63756E-05 3.25188E-01 1.14923E-13 2.85731E-13
 -1       978 1.98418E+01 3.27193E-01-1.31600E-05 2.48942E-01-9.31600E-14 1.12193E-13
 -1       979 1.98892E+01 2.66596E-01-1.04021E-05 1.87724E-01-1.71958E-14 1.51350E-13
 -1       980 1.99257E+01 2.12362E-01-8.07946E-06 1.39164E-01 5.50692E-14 3.64744E-14
 -1       981 1.99529E+01 1.65650E-01-6.15554E-06 1.01148E-01-1.92976E-13 1.28896E-13
 -1       982 1.99725E+01 1.26627E-01-4.58281E-06 7.18018E-02-2.42404E-13 1.15098E-13
 -1       983 1.99862E+01 9.48533E-02-3.30134E-06 4.94869E-02-7.99255E-14-1.74137E-14
 -1       984 1.99953E+01 6.95578E-02-2.24254E-06 3.27915E-02-1.00368E-13-5.36844E-14
 -1       985 2.00010E+01 4.98246E-02-1.26609E-06 2.05260E-02-1.40048E-13-8.54968E-14
 -1       986 2.00041E+01 3.47210E-02 1.37164E-06 1.17050E-02-1.30714E-14 2.47612E-13
 -1       987 2.00055E+01 2.32812E-02-8.55038E-06 5.46938E-03-1.79441E-13 2.43493E-13
 -1       988 2.00057E+01 1.49047E-02 2.31448E-05 1.21686E-03 1.58757E-13 3.30064E-13
 -1       989 1.52163E+01 1.28000E-01 5.49288E-03-2.79192E+00-1.56948E-13-2.98421E-13
 -1       990 1.87891E+01 2.38461E+00-2.07188E-05-1.28846E-01 3.99614E-15-4.75528E-13
 -1       991 1.88731E+01 2.33686E+00 9.69470E-04 9.87740E-02-7.41567E-14-4.62323E-13
 -1       992 1.96014E+01 1.73696E+00 6.23254E-05-5.01133E-01 1.55693E-13-3.92408E-13
 -1       993 1.81257E+01 1.58268E+00-1.29011E-03 8.75712E-01-3.47764E-14-2.90307E-13
 -1       994 2.00941E+01-1.24095E+00-3.15114E-03 2.19734E+00-2.42784E-13-2.21647E-14
 -1       995 1.86534E+01 1.78488E+00-2.98566E-04 6.25403E-01-9.76599E-14-3.24537E-13
 -1       996 2.00053E+01 7.59692E-03 3.79463E-08-1.19533E-03 4.36201E-13-3.63550E-14
 -1       997 1.88609E+01-1.91162E+00 9.31367E-03-3.71824E+00-2.29955E-13-2.28564E-13
 -1       998 2.00057E+01 1.45196E-02-1.58799E-06-1.02961E-04 3.52608E-14-4.88709E-13
 -1       999 2.04112E+01-1.35032E+00 3.02545E-03-2.36305E+00-9.93624E-14-2.34306E-13
 -1      1000 2.00059E+01 1.15675E-02-5.21146E-07 9.95865E-05-6.40359E-13-2.00789E-13
 -1      1001 2.00057E+01 1.75416E-02-3.43539E-06 1.11257E-03-4.45024E-14-2.43381E-13
 -1      1002 2.00061E+01 1.51642E-02-1.05882E-05-1.35011E-03-2.59240E-13 1.72048E-13
 -1      1003 1.96440E+01 6.73349E-01 2.66489E-04-1.29042E+00 6.91516E-14-2.70177E-13
 -1      1004 1.93214E+01 1.50488E+00 5.83074E-04-7.74989E-01 1.10730E-13-3.44115E-13
 -1      1005 2.17282E+01-2.37842E+00 6.15177E-03-2.21186E+00-1.46103E-13-1.65147E-13
 -1      1006 1.88847E+01 1.81407E+00 2.32300E-05-6.11960E-01 7.16930E-14-4.12958E-13
 -1      1007 1.82272E+01-1.28675E+00 3.13761E-03 3.27945E+00-2.28477E-13 3.97693E-14
 -1      1008 1.43520E+01 1.17329E+00 1.29705E-02-3.53910E-01 5.55632E-15 3.87094E-13
 -1      1009 1.53424E+01 1.06005E+00 4.04188E-03-1.24856E+00 1.25844E-13-2.20612E-14
 -1      1010 1.44003E+01 9.47652E-01 1.33355E-02 1.23942E+00-2.05574E-14 2.00855E-13
 -1      1011 1.98406E+01 1.15118E+00-1.39263E-04-8.12933E-01 1.80176E-13-3.14588E-13
 -1      1012 2.00058E+01 1.40329E-02-4.47324E-06-2.08876E-04 7.31438E-15-2.99336E-13
 -1      1013 1.56415E+01 4.78011E-01 6.34916E-03 2.11766E+00-1.09268E-13 1.12533E-13
 -1      1014 1.76699E+01-5.30288E-01 4.06352E-03-3.00559E+00-1.85422E-13-2.97767E-13
 -1      1015 1.54357E+01 1.35737E+00 1.19880E-03 8.15965E-02-6.14605E-14-3.86298E-13
 -1      1016 2.00059E+01 1.30296E-02-8.60825E-07-1.52452E-04-3.60238E-13-4.10621E-13
 -1      1017 1.99125E+01-5.01807E-01 1.40833E-04-2.02984E+00-5.73737E-14-2.69532E-13
 -1      1018 1.64998E+01 1.20849E+00-4.25523E-05-9.43309E-01 1.75568E-13-1.06609E-14
 -1      1019 1.73496E+01 1.23586E+00-3.73500E-04-7.66842E-01 1.20976E-13-1.20445E-13
 -1      1020 1.79883E+01 1.18849E+00-1.18756E-04-6.49160E-01-9.99658E-14-8.92516E-14
 -1      1021 1.84765E+01 1.09468E+00-8.28591E-05-5.58405E-01-8.78404E-14-1.70065E-13
 -1      1022 1.88530E+01 9.75352E-01-6.88343E-05-4.79281E-01-6.20275E-14-3.39449E-14
 -1      1023 1.91440E+01 8.45907E-01-5.94335E-05-4.06572E-01 1.98901E-13 1.02488E-16
 -1      1024 1.93683E+01 7.17130E-01-5.17648E-05-3.39125E-01 1.53999E-13-2.01283E-13
 -1      1025 1.95402E+01 5.95959E-01-4.52066E-05-2.77513E-01 9.34656E-15-3.65032E-13
 -1      1026 1.96708E+01 4.86424E-01-3.92027E-05-2.22604E-01-1.73734E-14-1.16485E-13
 -1      1027 1.97690E+01 3.90433E-01-3.34289E-05-1.74960E-01-3.12831E-13-3.57816E-13
 -1      1028 1.98419E+01 3.08413E-01-2.78947E-05-1.34678E-01-1.30519E-13-2.14850E-13
 -1      1029 1.98953E+01 2.39830E-01-2.27471E-05-1.01440E-01-2.64565E-14-1.07693E-13
 -1      1030 1.99337E+01 1.83572E-01-1.81268E-05-7.46299E-02-4.65331E-14 2.99962E-14
 -1      1031 1.99607E+01 1.38232E-01-1.41055E-05-5.34631E-02 1.45082E-13 4.07510E-14
 -1      1032 1.99792E+01 1.02294E-01-1.06901E-05-3.70941E-02 1.33741E-13-1.80246E-13
 -1      1033 1.99914E+01 7.42605E-02-7.94695E-06-2.46931E-02 1.37460E-13-1.44674E-13
 -1      1034 1.99991E+01 5.27321E-02-5.30814E-06-1.55001E-02 3.84263E-13-2.59032E-13
 -1      1035 2.00034E+01 3.64513E-02-7.30461E-07-8.84059E-03 2.23024E-13-2.87107E-13
 -1      1036 2.00055E+01 2.42759E-02-7.39333E-06-4.17657E-03 1.86046E-13-1.83930E-13
 -1      1037 1.81131E+01 1.81630E+00-2.64014E-04 2.65753E-01-3.41898E-14-3.45536E-13
 -1      1038 2.00057E+01 1.65677E-02 6.29529E-06 3.09741E-04 1.66610E-14-8.55137E-14
 -1      1039 1.98420E+01-1.65602E+00 7.01063E-03-2.98494E+00-1.80367E-13-2.11552E-13
 -1      1040 1.85647E+01-4.42129E-01-3.36407E-03 2.34020E+00-1.78075E-13 2.82764E-14
 -1      1041 1.85407E+01 1.14823E-01-1.36101E-03 1.79741E+00-2.96420E-13 5.64419E-15
 -1      1042 1.90134E+01 6.88879E-01-1.63867E-04 8.23076E-01-2.56910E-13-7.77423E-14
 -1      1043 1.91950E+01 6.88211E-01-1.10188E-04 6.37254E-01-9.88642E-14-6.85342E-14
 -1      1044 1.93598E+01 6.44578E-01-8.84517E-05 4.92839E-01-1.16578E-13-1.76269E-13
 -1      1045 1.95029E+01 5.77024E-01-7.49942E-05 3.79751E-01-1.27713E-13-4.77307E-14
 -1      1046 1.96231E+01 4.98954E-01-6.39198E-05 2.90832E-01-6.23541E-14-2.17053E-14
 -1      1047 1.97212E+01 4.19403E-01-5.38991E-05 2.20871E-01 8.45929E-14 1.46933E-13
 -1      1048 1.97992E+01 3.44071E-01-4.47404E-05 1.65965E-01 1.73317E-14 1.74915E-13
 -1      1049 1.98598E+01 2.76200E-01-3.64970E-05 1.23099E-01 4.03476E-15 1.19437E-13
 -1      1050 1.99057E+01 2.17289E-01-2.92391E-05 8.98805E-02-1.51965E-13 3.53374E-13
 -1      1051 1.99397E+01 1.67662E-01-2.29941E-05 6.43794E-02-1.19210E-13 2.65651E-13
 -1      1052 1.99641E+01 1.26898E-01-1.77291E-05 4.50188E-02-1.76843E-14 2.61698E-13
 -1      1053 1.99810E+01 9.41535E-02-1.33620E-05 3.05068E-02 7.10131E-14 1.34906E-13
 -1      1054 1.99923E+01 6.83743E-02-1.01736E-05 1.97840E-02 1.31934E-14 3.11491E-16
 -1      1055 1.99994E+01 4.84361E-02-5.51608E-06 1.20026E-02-1.20186E-13-2.22920E-13
 -1      1056 2.00035E+01 3.32592E-02 2.69934E-06 6.39514E-03-1.13336E-13-4.01458E-13
 -1      1057 1.97026E+01 1.51627E-01 6.64414E-04-1.65872E+00 1.64243E-16-2.71518E-13
 -1      1058 1.58390E+01 9.20862E-01 7.54151E-03-1.57267E+00-1.01439E-13-3.55517E-13
 -1      1059 1.88261E+01 6.20094E-01-3.15248E-04 1.06455E+00-3.73848E-14 1.09856E-13
 -1      1060 1.85963E+01 2.02378E+00 1.11812E-04-3.40403E-01 2.72684E-14-4.05606E-13
 -1      1061 1.67177E+01 1.53494E+00 2.29106E-03 1.19993E-01 2.32242E-14-3.27912E-13
 -1      1062 1.85328E+01 2.08650E+00-1.52658E-04 1.15366E-02-2.91770E-14-4.33058E-13
 -1      1063 1.75161E+01 1.66661E+00 1.21144E-03 2.25516E-01-1.30437E-14-3.45165E-13
 -1      1064 1.86548E+01 4.45636E-01-5.93113E-04 1.38055E+00-1.11069E-13 6.83972E-14
 -1      1065 1.55626E+01 1.21053E+00 3.93573E-03 3.91799E-01-8.32501E-14 3.38830E-13
 -1      1066 1.89339E+01 1.19860E+00 3.92907E-04-1.08943E+00 8.17140E-14-3.16928E-13
 -1      1067 1.88567E+01-4.67384E-01 1.74863E-04-2.49911E+00-8.29717E-14-2.91251E-13
 -1      1068 2.00058E+01 1.93654E-02 6.76830E-06-2.09819E-03-1.86480E-13-5.29827E-13
 -1      1069 2.00050E+01 2.33195E-02-7.36954E-07 7.94797E-05 2.30416E-15-2.15313E-13
 -1      1070 1.59129E+01 1.26915E+00 4.28738E-04-3.47631E-01 9.80958E-14 1.77032E-14
 -1      1071 1.87114E+01 7.54867E-01-1.27619E-03-1.51312E+00 1.36230E-14-3.00096E-13
 -1      1072 1.61507E+01 9.66345E-01-1.11240E-03 1.16094E+00-2.28437E-13 8.86048E-15
 -1      1073 2.00051E+01 2.28883E-02 1.14397E-05-1.06993E-03 8.95701E-14-5.54667E-13
 -1      1074 1.86953E+01 2.21267E-01-7.62311E-04-1.98040E+00-2.85461E-14-2.98075E-13
 -1      1075 1.74766E+01-4.46456E-01 1.36249E-03 2.76007E+00-2.20842E-13 1.59488E-14
 -1      1076 1.69193E+01 1.28929E+00 2.35276E-05-3.27084E-01 7.33155E-14-1.48519E-13
 -1      1077 1.76591E+01 1.24184E+00 3.09939E-04-3.19585E-01-1.75424E-16-2.03990E-13
 -1      1078 1.82173E+01 1.15230E+00-1.04600E-04-3.08422E-01-7.95961E-14 1.24430E-13
 -1      1079 1.86473E+01 1.03619E+00-8.56486E-05-2.88840E-01-5.27883E-14 4.81989E-14
 -1      1080 1.89800E+01 9.07682E-01-7.67646E-05-2.62038E-01 1.31618E-13 1.22702E-13
 -1      1081 1.92381E+01 7.77145E-01-6.14025E-05-2.30091E-01 3.60883E-14-1.22456E-13
 -1      1082 1.94380E+01 6.51900E-01-4.90328E-05-1.95948E-01-2.60685E-14-2.42125E-13
 -1      1083 1.95916E+01 5.36721E-01-3.98262E-05-1.62218E-01 1.46472E-14-2.99013E-13
 -1      1084 1.97087E+01 4.34271E-01-3.27069E-05-1.30802E-01-3.13992E-13-3.06768E-13
 -1      1085 1.97968E+01 3.45602E-01-2.69267E-05-1.02857E-01-9.39962E-14-2.90987E-13
 -1      1086 1.98622E+01 2.70634E-01-2.20891E-05-7.89129E-02 7.01676E-14-1.92187E-13
 -1      1087 1.99100E+01 2.08542E-01-1.79909E-05-5.90330E-02 5.08772E-14-1.63478E-13
 -1      1088 1.99442E+01 1.58071E-01-1.45126E-05-4.29758E-02 8.39534E-14 3.48639E-14
 -1      1089 1.99681E+01 1.17760E-01-1.15608E-05-3.03252E-02-2.00265E-14-1.35201E-13
 -1      1090 1.99843E+01 8.60966E-02-9.31660E-06-2.05872E-02 9.14328E-14-2.52302E-13
 -1      1091 1.99947E+01 6.16112E-02-5.97927E-06-1.32642E-02 1.88608E-13-3.66408E-13
 -1      1092 2.00011E+01 4.29845E-02-1.92626E-06-7.90512E-03 8.86199E-14-5.08579E-13
 -1      1093 2.00044E+01 2.89533E-02-1.11207E-06-4.05004E-03 2.28248E-13-8.10808E-13
 -1      1094 1.83752E+01 1.55003E+00 3.01702E-04-7.87902E-01 3.19665E-14-3.71287E-13
 -1      1095 2.00043E+01 2.74908E-02-1.24805E-05 1.96280E-03-1.99061E-13-8.46837E-14
 -1      1096 1.92835E+01 7.02505E-01 7.60732E-05 2.90915E-01-2.60319E-13-3.57803E-14
 -1      1097 1.81087E+01 1.83229E+00 3.92132E-04-1.71583E-01-4.84619E-15-3.70799E-13
 -1      1098 1.73967E+01 3.89635E-01 6.11746E-03 1.85821E+00-2.08410E-13 1.95353E-13
 -1      1099 1.90736E+01 7.87698E-01 1.16358E-04 3.93123E-01-3.15826E-13-1.86640E-13
 -1      1100 1.88216E+01 8.50197E-01 1.60423E-04 5.32285E-01-5.63251E-14-2.95819E-13
 -1      1101 1.94556E+01 6.07660E-01 4.88988E-05 2.15266E-01-5.44345E-14 6.93259E-14
 -1      1102 1.95943E+01 5.12233E-01 3.23009E-05 1.58933E-01-1.09189E-13 2.19212E-13
 -1      1103 1.97041E+01 4.22126E-01 2.24257E-05 1.16807E-01-6.22498E-14 2.45667E-13
 -1      1104 1.97895E+01 3.40799E-01 1.64589E-05 8.52393E-02 3.85221E-14 3.16279E-13
 -1      1105 1.98546E+01 2.69908E-01 1.26773E-05 6.15845E-02-1.50479E-14 3.50651E-13
 -1      1106 1.99033E+01 2.09848E-01 1.00973E-05 4.38991E-02 5.86400E-14-1.18215E-14
 -1      1107 1.99388E+01 1.60188E-01 8.17314E-06 3.07363E-02 4.70862E-14-1.45831E-13
 -1      1108 1.99640E+01 1.20007E-01 6.59711E-06 2.10072E-02 1.24170E-14-9.55208E-15
 -1      1109 1.99814E+01 8.81323E-02 5.26599E-06 1.38867E-02 9.00807E-14 1.69162E-13
 -1      1110 1.99928E+01 6.33093E-02 4.37249E-06 8.75244E-03 8.47008E-14 1.30802E-13
 -1      1111 2.00000E+01 4.41312E-02 2.90543E-05 5.07729E-03 2.59330E-14 2.66889E-14
 -1      1112 1.69050E+01 1.24151E+00 1.32537E-03-1.03862E+00-4.40648E-14-3.66561E-13
 -1      1113 1.85240E+01 8.72046E-01 1.57977E-04 7.23413E-01 1.09177E-13-3.84895E-14
 -1      1114 1.74008E+01 5.13210E-01-2.98030E-04-2.00227E+00-6.75629E-14-2.68893E-13
 -1      1115 1.81781E+01 8.27597E-01-3.18383E-04 9.88870E-01-6.24681E-14 1.05606E-13
 -1      1116 1.78025E+01 6.86519E-01 2.97832E-03 1.35201E+00-2.47171E-13 2.10979E-13
 -1      1117 2.00054E+01 2.13911E-02 1.35195E-05-1.72597E-03-4.70715E-15-7.01970E-13
 -1      1118 1.70735E+01 4.12021E-01 7.42200E-04 1.92980E+00-3.17340E-13 1.16341E-13
 -1      1119 1.63752E+01 1.23357E+00 2.24811E-03 3.31758E-01-7.11276E-14 1.54291E-14
 -1      1120 2.00014E+01 3.83249E-02-3.87630E-05 6.27105E-04-1.17615E-13 2.74907E-13
 -1      1121 1.75442E+01 1.56874E+00-1.16159E-04-4.99771E-01 3.88842E-15-3.40559E-13
 -1      1122 2.00020E+01 3.76267E-02 1.53667E-05-2.56390E-03 7.22032E-14-5.06889E-13
 -1      1123 1.79102E+01 1.09862E+00-5.99440E-04-1.27900E+00-1.01106E-14-3.20679E-13
 -1      1124 1.72528E+01 1.21398E+00-3.05020E-04 3.23999E-01-2.85435E-14-3.33965E-13
 -1      1125 1.78924E+01 1.16227E+00-1.26464E-04 1.76125E-01 7.50282E-14-2.25371E-13
 -1      1126 1.83767E+01 1.07687E+00-2.95432E-04 7.65790E-02 2.85113E-14 2.57173E-15
 -1      1127 1.87552E+01 9.68849E-01-2.11455E-04 1.58700E-02-1.15946E-13 1.00974E-13
 -1      1128 1.90534E+01 8.48996E-01-1.36186E-04-1.86672E-02-1.34349E-13-1.75144E-13
 -1      1129 1.92882E+01 7.26785E-01-8.43352E-05-3.57810E-02-2.49977E-13-3.40101E-13
 -1      1130 1.94723E+01 6.09203E-01-5.01712E-05-4.17694E-02-1.53787E-13-4.80861E-13
 -1      1131 1.96153E+01 5.00874E-01-2.79267E-05-4.11073E-02-9.84540E-14-5.13655E-13
 -1      1132 1.97252E+01 4.04432E-01-1.36541E-05-3.68707E-02-1.98335E-13-2.40466E-13
 -1      1133 1.98084E+01 3.20971E-01-4.74110E-06-3.10786E-02-1.94784E-14-3.29238E-13
 -1      1134 1.98704E+01 2.50474E-01 5.74677E-07-2.49777E-02 1.89367E-13-3.04698E-13
 -1      1135 1.99158E+01 1.92193E-01 3.50003E-06-1.92743E-02 7.44154E-14-1.54774E-13
 -1      1136 1.99484E+01 1.44944E-01 4.85609E-06-1.43139E-02-1.50177E-13-3.52936E-13
 -1      1137 1.99710E+01 1.07331E-01 5.20662E-06-1.02159E-02 2.06701E-15-2.95926E-13
 -1      1138 1.99862E+01 7.79083E-02 5.72561E-06-6.97221E-03 3.90501E-14-2.68652E-13
 -1      1139 1.99960E+01 5.52069E-02 1.71984E-05-4.37084E-03-1.24835E-14-3.41278E-13
 -1      1140 1.72006E+01 8.66789E-01-1.42296E-03 1.20832E+00-2.70764E-13-7.69919E-14
 -1      1141 2.79605E+01 9.07090E+00 2.27565E+00-6.48710E+00-5.90639E-14 2.17917E-12
 -1      1142 2.09031E+01 6.34336E+00 2.41327E-01-3.57857E+00-3.51108E-14 3.48492E-13
 -1      1143 1.97688E+01 5.95956E+00 9.63882E-02-2.47349E+00-2.52576E-14-4.55545E-13
 -1      1144 1.92298E+01 5.78903E+00 6.69265E-02-1.78552E+00-1.71252E-14-8.26078E-13
 -1      1145 1.88714E+01 5.67701E+00 5.19783E-02-1.27346E+00-1.12479E-14-1.01900E-12
 -1      1146 1.86088E+01 5.59481E+00 4.05732E-02-8.76688E-01-7.06379E-15-1.09512E-12
 -1      1147 1.84232E+01 5.53665E+00 3.23512E-02-5.56126E-01-4.18415E-15-1.12746E-12
 -1      1148 1.83137E+01 5.50239E+00 2.76181E-02-2.79546E-01-2.35402E-15-1.12310E-12
 -1      1149 1.82844E+01 5.49340E+00 2.68792E-02-2.22007E-02 1.84748E-15-1.11387E-12
 -1      1150 1.83337E+01 5.50911E+00 2.99471E-02 2.42154E-01 4.99080E-15-1.09444E-12
 -1      1151 1.84561E+01 5.54772E+00 3.63399E-02 5.38042E-01 6.25888E-15-1.05296E-12
 -1      1152 1.86435E+01 5.60672E+00 4.55101E-02 8.85328E-01 1.04361E-14-9.67508E-13
 -1      1153 1.88952E+01 5.68540E+00 5.61479E-02 1.31034E+00 1.50852E-14-8.35613E-13
 -1      1154 1.92336E+01 5.79058E+00 6.82926E-02 1.84747E+00 2.09971E-14-6.05520E-13
 -1      1155 1.97453E+01 5.95038E+00 8.93004E-02 2.54954E+00 2.83662E-14-1.69151E-13
 -1      1156 2.07833E+01 6.29002E+00 1.83414E-01 3.58812E+00 3.11140E-14 6.92137E-13
 -1      1157 2.53034E+01 8.01428E+00 1.41074E+00 5.65882E+00 6.63358E-14 2.47563E-12
 -1      1158 2.86822E+01 3.50356E+00 1.16343E+00-4.07853E+00-2.55129E-13 3.35137E-12
 -1      1159 2.06686E+01-1.84268E-01-6.22239E-01-7.84011E-02-8.75203E-14 2.75399E-12
 -1      1160 1.96880E+01-1.00805E-01-2.35339E-01 6.96189E-02-3.79471E-14 1.88905E-12
 -1      1161 1.97388E+01-5.62582E-02-6.78715E-02 4.62261E-02-1.78399E-14 1.28780E-12
 -1      1162 2.01345E+01-3.63126E-02-3.06223E-02 3.50877E-02-1.03563E-15 8.89275E-13
 -1      1163 2.07771E+01-2.71302E-02-2.50227E-02 3.18167E-02-1.55457E-14 6.40397E-13
 -1      1164 2.16233E+01-2.10953E-02-2.32034E-02 3.29500E-02 5.33905E-15 4.78541E-13
 -1      1165 2.26434E+01-1.42549E-02-1.76572E-02 3.67025E-02-8.24514E-15 3.50608E-13
 -1      1166 2.37892E+01-3.11158E-03-3.35439E-03 4.08703E-02-1.07374E-14 1.36960E-13
 -1      1167 2.49590E+01 1.57533E-02 2.55595E-02 4.13126E-02-7.47709E-15-5.46299E-14
 -1      1168 2.59555E+01 4.42422E-02 7.29014E-02 3.06046E-02-1.40938E-14-2.17465E-13
 -1      1169 2.64585E+01 7.85812E-02 1.32009E-01-1.39040E-03 8.54872E-15-1.83426E-13
 -1      1170 2.60641E+01 1.03455E-01 1.74249E-01-6.14331E-02-1.76569E-14-2.19116E-13
 -1      1171 2.44770E+01 9.04741E-02 1.47456E-01-1.37824E-01-6.61970E-15-2.96180E-13
 -1      1172 2.18688E+01 1.47349E-02 1.28887E-02-1.87952E-01 1.71911E-14-2.34396E-13
 -1      1173 1.91539E+01-1.03532E-01-1.86598E-01-1.56012E-01-1.70098E-14-4.17250E-13
 -1      1174 1.77001E+01-1.81015E-01-3.13467E-01-3.17058E-02-3.78170E-16-5.51521E-13
 -1      1175 1.83788E+01-1.47176E-01-2.59133E-01 1.14038E-01 2.22045E-15-7.67011E-13
 -1      1176 2.08113E+01-3.44788E-02-7.27403E-02 1.88657E-01 2.66740E-14-9.27980E-13
 -1      1177 2.37086E+01 6.56990E-02 1.00678E-01 1.67561E-01-3.55722E-14-9.23372E-13
 -1      1178 2.58847E+01 1.03903E-01 1.72064E-01 9.56097E-02-3.19883E-15-1.01148E-12
 -1      1179 2.68686E+01 9.08388E-02 1.52470E-01 2.61420E-02-1.29168E-14-8.54587E-13
 -1      1180 2.68101E+01 5.76036E-02 9.52352E-02-1.66571E-02-1.91487E-14-8.16246E-13
 -1      1181 2.61050E+01 2.59625E-02 4.10140E-02-3.38142E-02-4.43556E-14-9.98028E-13
 -1      1182 2.51211E+01 3.93722E-03 4.83162E-03-3.52791E-02-6.00702E-16-9.58462E-13
 -1      1183 2.41027E+01-8.46488E-03-1.40118E-02-2.98631E-02 1.22203E-14-6.81989E-13
 -1      1184 2.31781E+01-1.39380E-02-2.11686E-02-2.27356E-02 2.50225E-14-5.87922E-13
 -1      1185 2.23976E+01-1.52301E-02-2.19091E-02-1.62177E-02-3.98512E-14-9.45518E-13
 -1      1186 2.17679E+01-1.43420E-02-1.97241E-02-1.10369E-02 1.06397E-14-9.65415E-13
 -1      1187 2.12754E+01-1.25122E-02-1.65519E-02-7.20703E-03-1.93025E-14-9.70869E-13
 -1      1188 2.08992E+01-1.04269E-02-1.33333E-02-4.49672E-03-4.60309E-14-1.26357E-12
 -1      1189 2.06174E+01-8.42825E-03-1.04595E-02-2.63626E-03 2.55100E-14-1.10219E-12
 -1      1190 2.04100E+01-6.66262E-03-8.04862E-03-1.39195E-03 4.96805E-14-8.47119E-13
 -1      1191 2.02602E+01-5.17358E-03-6.09635E-03-5.82616E-04-5.13025E-14-6.05360E-13
 -1      1192 2.01543E+01-3.95467E-03-4.55067E-03-7.48790E-05-2.33232E-14-1.03630E-12
 -1      1193 2.00813E+01-2.97787E-03-3.34674E-03 2.26896E-04-3.14668E-14-9.56506E-13
 -1      1194 2.00326E+01-2.20820E-03-2.42171E-03 3.90415E-04 2.43224E-14-1.06724E-12
 -1      1195 2.00015E+01-1.61065E-03-1.72012E-03 4.63268E-04 1.33606E-14-8.02442E-13
 -1      1196 1.99831E+01-1.15326E-03-1.19513E-03 4.78728E-04 1.51870E-14-7.34678E-13
 -1      1197 1.99734E+01-8.08090E-04-8.08069E-04 4.59902E-04 6.02866E-14-4.75623E-13
 -1      1198 1.99698E+01-5.51362E-04-5.27386E-04 4.22664E-04-5.25886E-14-5.25286E-13
 -1      1199 1.99701E+01-3.63099E-04-3.27422E-04 3.77733E-04 2.56291E-14-5.94504E-13
 -1      1200 1.99728E+01-2.26593E-04-1.87228E-04 3.32097E-04 8.81436E-14-5.31727E-13
 -1      1201 1.99770E+01-1.27807E-04-8.93247E-05 2.89977E-04-6.08065E-14-5.09155E-14
 -1      1202 1.99820E+01-5.47594E-05-1.81632E-05 2.53300E-04 1.05083E-14-1.66388E-13
 -1      1203 1.99871E+01 3.26077E-06 4.16911E-05 2.21455E-04 6.36891E-14 2.17444E-13
 -1      1204 1.99920E+01 5.53757E-05 1.06373E-04 1.89692E-04-1.60424E-14 4.54534E-13
 -1      1205 1.99962E+01 1.07110E-04 1.83485E-04 1.42069E-04 6.18188E-14 6.35341E-13
 -1      1206 1.99991E+01 1.64527E-04 2.28320E-04 4.52491E-05-7.85638E-14 1.72420E-13
 -1      1207 1.99999E+01-3.77111E-05-5.20739E-05-4.98137E-05 8.80057E-14 7.59393E-14
 -1      1208 2.77078E+01 5.16401E-01 3.01450E-01 1.92821E+00-4.72955E-14 3.94734E-12
 -1      1209 2.05226E+01-6.96242E-02-5.74526E-01 1.18109E-01 3.11834E-14 3.15539E-12
 -1      1210 1.96869E+01-4.41837E-02-1.91781E-01 1.54827E-02 1.93413E-14 2.33772E-12
 -1      1211 1.96247E+01-2.57208E-02-5.40283E-02-3.84655E-04 8.75905E-15 1.79460E-12
 -1      1212 1.98916E+01-1.65435E-02-1.95415E-02-6.22624E-03 1.57803E-14 1.39983E-12
 -1      1213 2.03417E+01-9.89970E-03-1.03206E-02-9.67736E-03 2.29200E-15 1.12539E-12
 -1      1214 2.08911E+01-3.17882E-03-3.62226E-03-1.32259E-02 1.36138E-15 9.62265E-13
 -1      1215 2.14701E+01 4.87510E-03 6.12307E-03-1.72552E-02 2.78407E-15 8.66810E-13
 -1      1216 2.19990E+01 1.46051E-02 2.00698E-02-2.11089E-02-5.87768E-15 7.29510E-13
 -1      1217 2.23781E+01 2.50699E-02 3.74271E-02-2.31236E-02 2.29252E-14 5.53783E-13
 -1      1218 2.24893E+01 3.34956E-02 5.46556E-02-2.06177E-02 2.00230E-14 3.62323E-13
 -1      1219 2.22181E+01 3.53209E-02 6.45554E-02-1.05901E-02 7.76896E-15 2.45911E-13
 -1      1220 2.15016E+01 2.59118E-02 5.75831E-02 8.30768E-03 2.88311E-15 1.49721E-13
 -1      1221 2.03940E+01 4.27719E-03 2.71648E-02 3.29593E-02-2.60859E-14 1.56750E-13
 -1      1222 1.91166E+01-2.34513E-02-2.25804E-02 5.44246E-02 1.34734E-14-9.34530E-14
 -1      1223 1.80324E+01-4.51636E-02-7.34653E-02 6.11347E-02-3.27516E-15-2.32911E-13
 -1      1224 1.75166E+01-5.02006E-02-1.01277E-01 4.64648E-02-2.00239E-14-2.37432E-14
 -1      1225 1.77722E+01-3.73186E-02-9.20170E-02 1.49606E-02-7.87564E-16 1.03157E-13
 -1      1226 1.87177E+01-1.51217E-02-5.24817E-02-1.96852E-02 3.27798E-14-1.65243E-13
 -1      1227 2.00354E+01 5.40663E-03-4.20959E-03-4.36392E-02-2.33440E-15-1.60913E-13
 -1      1228 2.13406E+01 1.77677E-02 3.24074E-02-5.09680E-02 9.21008E-15-4.53457E-14
 -1      1229 2.23457E+01 2.13927E-02 4.87041E-02-4.44414E-02-1.00701E-15-5.84532E-14
 -1      1230 2.29291E+01 1.90854E-02 4.75046E-02-3.09499E-02 3.96098E-14-3.74003E-13
 -1      1231 2.31108E+01 1.40953E-02 3.66418E-02-1.67501E-02-9.55269E-15-7.48130E-13
 -1      1232 2.29873E+01 8.75027E-03 2.32449E-02-5.35920E-03 3.36836E-14-8.74226E-13
 -1      1233 2.26737E+01 4.25022E-03 1.15417E-02 2.19501E-03 2.16835E-14-6.08697E-13
 -1      1234 2.22695E+01 9.77603E-04 3.08228E-03 6.32514E-03-3.19224E-14-3.05993E-13
 -1      1235 2.18466E+01-1.12797E-03-2.18430E-03 7.96437E-03-4.09476E-15-2.37256E-13
 -1      1236 2.14494E+01-2.30372E-03-4.95800E-03 8.03960E-03-1.24473E-14-4.90148E-13
 -1      1237 2.11012E+01-2.81588E-03-6.03549E-03 7.26855E-03 4.85577E-14-6.79614E-13
 -1      1238 2.08105E+01-2.89500E-03-6.07821E-03 6.13380E-03 5.19318E-14-5.76011E-13
 -1      1239 2.05771E+01-2.71719E-03-5.56006E-03 4.92637E-03-2.64318E-14-4.33071E-13
 -1      1240 2.03955E+01-2.40645E-03-4.79025E-03 3.80296E-03-4.88679E-14 2.67070E-13
 -1      1241 2.02585E+01-2.04459E-03-3.95574E-03 2.83452E-03 2.20719E-15 5.14679E-13
 -1      1242 2.01581E+01-1.68206E-03-3.16063E-03 2.04152E-03-5.27624E-14 4.94339E-13
 -1      1243 2.00868E+01-1.34737E-03-2.45615E-03 1.41703E-03 8.48983E-14-3.02324E-13
 -1      1244 2.00379E+01-1.05444E-03-1.86145E-03 9.41115E-04 5.34296E-14-8.53001E-13
 -1      1245 2.00060E+01-8.07852E-04-1.37729E-03 5.89202E-04-6.53114E-14-5.29467E-13
 -1      1246 1.99865E+01-6.06605E-04-9.94692E-04 3.36665E-04-1.93824E-14-7.70925E-14
 -1      1247 1.99760E+01-4.46580E-04-7.00228E-04 1.61108E-04 3.62250E-15-4.60083E-13
 -1      1248 1.99715E+01-3.22125E-04-4.79114E-04 4.32786E-05-3.53054E-14-3.51706E-13
 -1      1249 1.99713E+01-2.26993E-04-3.16853E-04-3.27832E-05-4.24854E-14-3.30382E-13
 -1      1250 1.99736E+01-1.54839E-04-1.99945E-04-7.99939E-05-2.12661E-14-5.07821E-13
 -1      1251 1.99775E+01-9.93326E-05-1.15854E-04-1.08674E-04 9.75684E-14-1.22703E-12
 -1      1252 1.99823E+01-5.39679E-05-5.21527E-05-1.26993E-04-9.91637E-14-8.89760E-13
 -1      1253 1.99873E+01-1.18337E-05 5.04842E-06-1.41083E-04 2.06581E-14-6.90103E-13
 -1      1254 1.99921E+01 3.46247E-05 7.18294E-05-1.54278E-04 2.61512E-14-1.29414E-12
 -1      1255 1.99962E+01 8.89424E-05 1.56511E-04-1.61041E-04-1.75518E-14-8.51021E-13
 -1      1256 1.99991E+01 1.22601E-04 2.04417E-04-1.24822E-04 1.29423E-13-1.06925E-12
 -1      1257 1.99999E+01-3.72615E-05-5.52051E-05 4.05052E-05 7.76201E-14-8.90979E-13
 -1      1258 1.99998E+01 1.07304E-04-5.54218E-05 3.02591E-05-1.01553E-12-7.16582E-14
 -1      1259 1.99999E+01-7.65996E-04 1.89438E-04-3.85537E-05-1.32612E-12-8.47951E-14
 -1      1260 1.99999E+01-3.47034E-03 1.22210E-04-1.34959E-04 1.37430E-13 1.56182E-13
 -1      1261 1.99998E+01-7.03770E-03 1.37145E-05-1.50445E-04 2.18029E-13-1.03189E-13
 -1      1262 1.99998E+01-1.06642E-02-6.49015E-05-1.33517E-04 2.96690E-14-1.97406E-13
 -1      1263 1.99997E+01-1.38199E-02-1.11951E-04-1.03019E-04-9.98488E-14-9.09425E-14
 -1      1264 1.99997E+01-1.62351E-02-1.36077E-04-7.08337E-05 8.22755E-14-7.49322E-14
 -1      1265 1.99997E+01-1.77615E-02-1.48188E-04-3.57466E-05 6.52932E-13 4.69414E-14
 -1      1266 1.99997E+01-1.82899E-02-1.52231E-04-6.45069E-07 5.18171E-13-3.97315E-14
 -1      1267 1.99997E+01-1.77924E-02-1.49809E-04 3.47473E-05 7.79843E-13 2.00996E-14
 -1      1268 1.99997E+01-1.62862E-02-1.38612E-04 7.05595E-05 8.18787E-14-1.40223E-13
 -1      1269 1.99997E+01-1.38718E-02-1.14151E-04 1.05555E-04-3.97267E-13-4.03741E-14
 -1      1270 1.99998E+01-1.07009E-02-6.71832E-05 1.35167E-04-3.73037E-13 1.82610E-14
 -1      1271 1.99998E+01-7.03989E-03 1.53276E-05 1.54518E-04-2.84408E-13-3.02611E-14
 -1      1272 1.99999E+01-3.39302E-03 1.44549E-04 1.62059E-04-1.05546E-12 1.28241E-14
 -1      1273 2.00000E+01-7.95184E-04 1.92408E-04 2.58828E-05-9.92965E-13 1.04603E-13
 -1      1274 1.99997E+01 1.12860E-04-6.65183E-05-2.75694E-05-1.09698E-13 1.67752E-13
 -1      1275-1.10069E+00-2.39797E+01-3.68964E+00-2.07319E+00 1.66028E-12 3.98417E-13
 -1      1276-1.72721E+00-1.58747E+01-3.07912E+00-4.05102E+00 3.31335E-12 1.12316E-12
 -1      1277-3.22916E-01-4.06137E+00-1.99325E+00-9.78757E-01 4.06253E-12 2.30238E-12
 -1      1278 6.80514E+00 6.39844E+00-5.72505E-01 6.63783E+00 3.98881E-12 3.46567E-12
 -1      1279 2.11569E+01 1.11539E+01 1.03654E+00 1.48063E+01 3.13660E-12 4.00457E-12
 -1      1280 3.97910E+01 9.59412E+00 2.49027E+00 1.81382E+01 1.91469E-12 3.70459E-12
 -1      1281 5.69237E+01 5.00255E+00 3.58472E+00 1.42449E+01 7.35412E-13 2.29228E-12
 -1      1282 6.61254E+01 1.79519E+00 4.09000E+00 3.54537E+00 1.00968E-13 2.55074E-13
 -1      1283 6.34460E+01 2.74393E+00 3.94379E+00-8.99402E+00 4.73233E-13-2.24809E-12
 -1      1284 4.99366E+01 7.14318E+00 3.16843E+00-1.71073E+01 1.54654E-12-4.05254E-12
 -1      1285 3.08436E+01 1.08674E+01 1.84869E+00-1.72463E+01 2.77445E-12-4.41847E-12
 -1      1286 1.31192E+01 9.34847E+00 1.85751E-01-1.09378E+01 3.67528E-12-3.99458E-12
 -1      1287 2.16774E+00 1.37011E+00-1.34824E+00-2.19330E+00 3.59357E-12-2.56495E-12
 -1      1288-1.60209E+00-1.08218E+01-2.66562E+00 3.33946E+00 3.01714E-12-1.33366E-12
 -1      1289-1.32346E+00-2.17121E+01-3.52297E+00 3.48856E+00 1.60560E-12-4.19970E-13
 -1      1290-9.06382E-01-2.57202E+01-3.85370E+00-4.96354E-01-2.75391E-13-1.31992E-13
 -1      1291-1.65203E+00-2.05999E+01-3.52624E+00-4.08122E+00-2.13962E-12-6.53311E-13
 -1      1292-1.41163E+00-9.01942E+00-2.59355E+00-3.07661E+00-3.49898E-12-1.76414E-12
 -1      1293 4.31791E+00 3.22650E+00-1.08945E+00 3.99433E+00-3.99236E-12-3.19100E-12
 -1      1294 1.86037E+01 1.01850E+01 6.97662E-01 1.31946E+01-3.46767E-12-4.21263E-12
 -1      1295 4.02721E+01 9.57827E+00 2.58722E+00 1.80721E+01-1.98019E-12-3.77187E-12
 -1      1296 6.06904E+01 4.56557E+00 4.00065E+00 1.31071E+01-6.74016E-13-2.34568E-12
 -1      1297 6.89569E+01 1.53480E+00 4.44623E+00 3.68421E-01-1.24969E-13-3.48943E-13
 -1      1298 6.17342E+01 3.93517E+00 3.97906E+00-1.22680E+01-5.55223E-13 1.97264E-12
 -1      1299 4.38143E+01 8.65119E+00 2.73467E+00-1.81031E+01-1.87472E-12 3.97238E-12
 -1      1300 2.32099E+01 1.06021E+01 1.05504E+00-1.51169E+01-3.66507E-12 4.89830E-12
 -1      1301 7.42530E+00 5.88647E+00-6.61117E-01-6.68786E+00-4.59144E-12 4.23439E-12
 -1      1302-4.89458E-01-4.94279E+00-2.16200E+00 1.42438E+00-4.66183E-12 2.67630E-12
 -1      1303-1.88470E+00-1.71849E+01-3.26720E+00 4.49556E+00-3.32157E-12 1.23501E-12
 -1      1304-1.15550E+00-2.45586E+01-3.77267E+00 2.15854E+00-1.11677E-12 3.39159E-13
 -1      1305 2.25409E+01 1.85771E+00-7.11595E-01-2.62122E+00-9.18987E-14 1.79429E-12
 -1      1306 2.07696E+01 4.71293E+00-4.04198E-02-2.94045E+00-2.75127E-13-2.74433E-14
 -1      1307 2.12779E+01 4.81855E+00-9.46170E-02-3.82891E+00-3.49887E-13 3.91437E-13
 -1      1308 1.98587E+01 5.03581E+00-1.74238E-02-2.21871E+00-2.84300E-13-6.19029E-13
 -1      1309 2.02170E+01 5.14778E+00 1.35673E-02-2.63535E+00-3.14415E-13-3.64028E-13
 -1      1310 2.09560E+01 3.95687E+00-1.95672E-02-2.67047E+00-4.84675E-13-2.23432E-14
 -1      1311 1.93397E+01 5.13213E+00-6.43794E-03-1.62061E+00-2.29761E-13-9.11375E-13
 -1      1312 1.95826E+01 5.21405E+00 1.83812E-02-1.91373E+00-2.66231E-13-7.81722E-13
 -1      1313 2.00530E+01 4.41952E+00-2.00999E-02-2.04154E+00-4.45522E-13-5.16920E-13
 -1      1314 1.89672E+01 5.17477E+00-2.57864E-03-1.15302E+00-1.74988E-13-1.04825E-12
 -1      1315 1.91456E+01 5.23409E+00 1.58563E-02-1.37829E+00-1.96360E-13-9.84199E-13
 -1      1316 1.94883E+01 4.64941E+00-1.72284E-02-1.48978E+00-3.52982E-13-7.59681E-13
 -1      1317 1.86939E+01 5.19707E+00-9.10206E-04-7.87102E-01-1.14544E-13-1.11784E-12
 -1      1318 1.88239E+01 5.23936E+00 1.23040E-02-9.63903E-01-1.35159E-13-1.08476E-12
 -1      1319 1.90876E+01 4.78510E+00-1.41042E-02-1.05600E+00-2.52576E-13-8.75907E-13
 -1      1320 1.85038E+01 5.20926E+00 1.56043E-04-4.81116E-01-7.03257E-14-1.13121E-12
 -1      1321 1.85901E+01 5.23689E+00 8.46787E-03-6.30782E-01-8.14453E-14-1.12802E-12
 -1      1322 1.87969E+01 4.86941E+00-1.21514E-02-7.08228E-01-1.65390E-13-9.33868E-13
 -1      1323 1.84046E+01 5.21646E+00 1.79647E-03-2.13794E-01-1.34654E-14-1.12869E-12
 -1      1324 1.84439E+01 5.22893E+00 5.11905E-03-3.47437E-01-2.95822E-14-1.12726E-12
 -1      1325 1.86069E+01 4.91661E+00-1.12243E-02-4.15258E-01-8.63051E-14-9.42961E-13
 -1      1326 1.83968E+01 5.22097E+00 4.12014E-03 4.17502E-02 3.66270E-14-1.11914E-12
 -1      1327 1.83894E+01 5.21853E+00 2.70880E-03-8.91037E-02 1.95065E-14-1.12597E-12
 -1      1328 1.85210E+01 4.93318E+00-1.09134E-02-1.53010E-01 5.95915E-15-9.44808E-13
 -1      1329 1.84767E+01 5.22375E+00 7.05507E-03 3.10693E-01 8.23716E-14-1.09500E-12
 -1      1330 1.84250E+01 5.20717E+00 1.26735E-03 1.70260E-01 6.63744E-14-1.11148E-12
 -1      1331 1.85377E+01 4.92323E+00-1.10891E-02 1.04399E-01 8.25444E-14-9.31793E-13
 -1      1332 1.86374E+01 5.22428E+00 1.03119E-02 6.16479E-01 1.26683E-13-1.04501E-12
 -1      1333 1.85453E+01 5.19478E+00 6.07708E-04 4.54837E-01 1.12792E-13-1.07808E-12
 -1      1334 1.86517E+01 4.88875E+00-1.17367E-02 3.81047E-01 1.59539E-13-9.05232E-13
 -1      1335 1.88678E+01 5.22160E+00 1.36678E-02 9.74646E-01 1.81230E-13-9.54226E-13
 -1      1336 1.87404E+01 5.17967E+00 1.88122E-04 7.84190E-01 1.59527E-13-1.00810E-12
 -1      1337 1.88538E+01 4.82970E+00-1.28122E-02 6.96209E-01 2.36735E-13-8.47863E-13
 -1      1338 1.91777E+01 5.21260E+00 1.64758E-02 1.42109E+00 2.50921E-13-8.04849E-13
 -1      1339 1.90077E+01 5.15565E+00-1.13431E-03 1.18199E+00 2.20251E-13-8.92595E-13
 -1      1340 1.91403E+01 4.73997E+00-1.49079E-02 1.07340E+00 3.29785E-13-7.45917E-13
 -1      1341 1.95909E+01 5.19216E+00 1.72214E-02 1.98139E+00 3.10724E-13-5.52156E-13
 -1      1342 1.93607E+01 5.11246E+00-5.75887E-03 1.67729E+00 2.79776E-13-7.09145E-13
 -1      1343 1.95265E+01 4.60300E+00-1.82123E-02 1.53938E+00 4.31892E-13-5.85483E-13
 -1      1344 2.02165E+01 5.14570E+00 1.72105E-02 2.71240E+00 3.52746E-13-7.34690E-14
 -1      1345 1.98555E+01 5.01970E+00-1.77766E-02 2.29796E+00 3.16039E-13-3.62429E-13
 -1      1346 2.00679E+01 4.37770E+00-2.14145E-02 2.11768E+00 5.06126E-13-2.85057E-13
 -1      1347 2.14630E+01 4.91112E+00 1.89754E-02 3.76726E+00 3.04118E-13 8.48835E-13
 -1      1348 2.07159E+01 4.75263E+00-4.01357E-02 3.08371E+00 2.93529E-13 2.84273E-13
 -1      1349 2.09649E+01 3.91350E+00-1.66969E-02 2.81285E+00 5.24147E-13 2.50217E-13
 -1      1350 2.72899E+01 3.16722E+00 8.87124E-01 4.40610E+00 1.48215E-13 2.59759E-12
 -1      1351 2.23368E+01 3.51954E+00-1.73878E-01 3.65324E+00 1.51074E-13 1.38306E-12
 -1      1352 2.25122E+01 2.53797E+00-2.56128E-02 3.15887E+00 4.94559E-13 1.08452E-12
 -1      1353 2.17548E+01 3.45000E-01-7.57078E-01 1.04362E+00 2.62845E-13 2.49900E-12
 -1      1354 2.24157E+01 1.20997E-01-3.96263E-01-1.11198E+00-2.86840E-13 1.89265E-12
 -1      1355 2.12831E+01 2.96398E-01-1.56682E-01-6.56965E-01-2.70999E-13 1.55926E-12
 -1      1356 2.08074E+01 1.54937E-01-7.01613E-02-2.50901E-01-2.21892E-13 1.41556E-12
 -1      1357 2.05262E+01 9.53263E-02-1.15016E-02-1.79653E-01-2.13232E-13 1.10074E-12
 -1      1358 2.16187E+01 3.59828E-01-1.03267E-01-9.81636E-01-4.76411E-13 8.02771E-13
 -1      1359 2.03236E+01 7.34517E-02 4.08780E-03 3.00500E-02-1.64419E-13 9.84813E-13
 -1      1360 2.03771E+01 5.24313E-02 1.45746E-02 5.32869E-02-1.47687E-13 7.55975E-13
 -1      1361 2.08428E+01 1.41540E-01-3.76009E-02-1.92868E-01-3.61412E-13 5.85192E-13
 -1      1362 2.04010E+01 4.64899E-02 1.26897E-02 1.71686E-01-1.12807E-13 6.45456E-13
 -1      1363 2.06323E+01 3.53595E-02 1.14078E-02 1.89531E-01-1.01781E-13 4.95212E-13
 -1      1364 2.06953E+01 7.64666E-02-1.22808E-02 1.94119E-01-2.64582E-13 3.77930E-13
 -1      1365 2.07994E+01 3.54472E-02 7.20110E-03 2.72192E-01-6.48908E-14 4.28713E-13
 -1      1366 2.11518E+01 2.79473E-02 6.04629E-03 2.87477E-01-6.77271E-14 3.21139E-13
 -1      1367 2.08828E+01 5.39981E-02-8.65104E-03 4.34957E-01-1.77333E-13 1.95936E-13
 -1      1368 2.14204E+01 2.95508E-02 2.11639E-03 3.52958E-01-5.20521E-14 2.96867E-13
 -1      1369 2.18683E+01 2.21636E-02 2.40687E-03 3.66488E-01-3.22520E-14 2.42639E-13
 -1      1370 2.13055E+01 4.44008E-02-8.24091E-03 6.14118E-01-1.22836E-13 1.26331E-13
 -1      1371 2.22120E+01 2.30614E-02-1.06286E-03 4.16697E-01-3.31206E-14 2.05991E-13
 -1      1372 2.27323E+01 1.32179E-02 1.02780E-04 4.27226E-01-4.94904E-14 1.30111E-13
 -1      1373 2.19015E+01 3.50211E-02-7.46267E-03 7.54866E-01-8.47126E-14 2.23589E-14
 -1      1374 2.31250E+01 1.09845E-02-2.53856E-03 4.52799E-01-4.78620E-14 1.16775E-13
 -1      1375 2.36786E+01-3.75897E-03-9.18171E-04 4.56540E-01-4.72133E-14 2.46296E-14
 -1      1376 2.26220E+01 1.69770E-02-5.39043E-03 8.48943E-01-9.60824E-14-1.20971E-14
 -1      1377 2.40827E+01-1.23548E-02-1.59501E-03 4.36654E-01-4.48435E-14-2.43555E-15
 -1      1378 2.45961E+01-3.37004E-02 3.28675E-04 4.26526E-01-6.65778E-14-7.45237E-14
 -1      1379 2.34080E+01-1.92876E-02-9.30206E-04 8.61270E-01-8.65885E-14-1.69482E-14
 -1      1380 2.49533E+01-5.19273E-02 3.40754E-03 3.30308E-01-5.69631E-14-5.35232E-14
 -1      1381 2.53040E+01-7.83775E-02 5.27769E-03 2.96290E-01-2.19781E-14-1.16799E-13
 -1      1382 2.41699E+01-8.24641E-02 7.39815E-03 7.30714E-01-7.91459E-14-1.84948E-14
 -1      1383 2.55305E+01-1.06287E-01 1.34853E-02 9.39054E-02 5.27703E-15-1.47830E-13
 -1      1384 2.55518E+01-1.28770E-01 1.39407E-02 2.73513E-02-2.11688E-14-1.51733E-13
 -1      1385 2.47728E+01-1.71359E-01 2.04055E-02 3.83210E-01-2.17014E-14-6.21838E-14
 -1      1386 2.55486E+01-1.57129E-01 2.59380E-02-2.80315E-01-2.75405E-14-9.97535E-14
 -1      1387 2.50844E+01-1.55395E-01 2.19663E-02-3.75146E-01-4.61194E-14-1.64167E-13
 -1      1388 2.50372E+01-2.58507E-01 3.55028E-02-2.21949E-01-1.86344E-14-9.85219E-14
 -1      1389 2.47770E+01-1.60171E-01 3.12188E-02-7.09437E-01-3.21965E-15-1.37501E-13
 -1      1390 2.38042E+01-1.10510E-01 1.83410E-02-7.98000E-01-8.37004E-15-1.19085E-13
 -1      1391 2.47831E+01-2.74996E-01 4.38624E-02-1.00135E+00-2.98667E-14-8.59816E-14
 -1      1392 2.32224E+01-6.67109E-02 1.45274E-02-9.81520E-01-8.42165E-15-1.32713E-13
 -1      1393 2.19941E+01 3.10310E-02-6.76866E-03-9.99906E-01-4.27740E-14-1.50477E-13
 -1      1394 2.39435E+01-1.38030E-01 2.96161E-02-1.65342E+00-3.87667E-14-2.35437E-14
 -1      1395 2.13509E+01 1.14017E-01-2.42277E-02-8.42542E-01-1.00191E-13-2.11664E-13
 -1      1396 2.03901E+01 2.09811E-01-4.45271E-02-7.43252E-01-1.38764E-13-3.11071E-13
 -1      1397 2.27360E+01 1.44965E-01-1.92908E-02-1.71726E+00-1.26123E-13-8.00644E-14
 -1      1398 2.00369E+01 2.67876E-01-5.83674E-02-2.37608E-01-1.02633E-13-4.37199E-13
 -1      1399 1.98595E+01 2.89010E-01-6.27261E-02-5.88262E-02-1.10446E-13-5.38481E-13
 -1      1400 2.17289E+01 4.23185E-01-7.49354E-02-9.15406E-01-2.04250E-13-2.58384E-13
 -1      1401 2.00346E+01 2.63536E-01-5.69851E-02 5.24862E-01-9.72659E-14-6.58258E-13
 -1      1402 2.07541E+01 1.91714E-01-4.22827E-02 6.68768E-01-5.66699E-14-7.22422E-13
 -1      1403 2.15459E+01 4.83563E-01-8.84970E-02 4.37326E-01-1.85778E-13-5.48122E-13
 -1      1404 2.13528E+01 1.09648E-01-2.44742E-02 9.90171E-01-5.44590E-14-8.00970E-13
 -1      1405 2.25847E+01 3.74277E-03-2.00613E-03 1.01970E+00-2.24577E-14-8.47988E-13
 -1      1406 2.23308E+01 2.77286E-01-4.61195E-02 1.55065E+00-1.37251E-13-6.83367E-13
 -1      1407 2.32658E+01-6.10451E-02 8.19763E-03 9.64227E-01-4.49502E-14-9.13991E-13
 -1      1408 2.44418E+01-1.33806E-01 2.55389E-02 8.96959E-01-1.33664E-13-9.86794E-13
 -1      1409 2.36057E+01-3.15397E-02 9.67321E-03 1.84957E+00-1.19558E-13-8.85993E-13
 -1      1410 2.49154E+01-1.46836E-01 2.11117E-02 6.02281E-01-8.89219E-15-9.72875E-13
 -1      1411 2.56541E+01-1.66592E-01 2.92006E-02 5.04299E-01 3.07133E-14-9.14518E-13
 -1      1412 2.47207E+01-2.37881E-01 3.97757E-02 1.39314E+00-7.95423E-14-9.23248E-13
 -1      1413 2.58193E+01-1.43991E-01 1.72145E-02 1.72387E-01 8.79019E-14-8.35859E-13
 -1      1414 2.60418E+01-1.28876E-01 1.86582E-02 9.28058E-02 8.21010E-14-7.53113E-13
 -1      1415 2.53008E+01-2.76917E-01 4.01613E-02 6.22389E-01 1.00864E-13-8.64722E-13
 -1      1416 2.59414E+01-9.81953E-02 8.01941E-03-1.54124E-01-2.54987E-14-7.11902E-13
 -1      1417 2.57673E+01-7.21112E-02 6.76124E-03-2.00156E-01-9.15067E-15-7.49217E-13
 -1      1418 2.53136E+01-2.08397E-01 2.65530E-02-7.07146E-02 3.71248E-14-7.26651E-13
 -1      1419 2.54971E+01-4.88894E-02 1.09979E-03-3.34745E-01-1.08342E-14-7.57516E-13
 -1      1420 2.51001E+01-2.57460E-02-6.58164E-04-3.52563E-01-2.11129E-14-7.84844E-13
 -1      1421 2.49117E+01-1.13976E-01 1.21219E-02-5.18358E-01-2.07256E-14-5.86226E-13
 -1      1422 2.47513E+01-1.30489E-02-1.92025E-03-3.97963E-01 1.08952E-13-6.70814E-13
 -1      1423 2.42740E+01 2.94298E-03-3.53470E-03-3.98247E-01 9.64437E-14-5.54466E-13
 -1      1424 2.42819E+01-3.89705E-02 2.02119E-03-7.24574E-01 9.53703E-14-4.32166E-13
 -1      1425 2.39119E+01 7.63974E-03-2.26385E-03-3.88849E-01 2.27578E-14-5.33885E-13
 -1      1426 2.34438E+01 1.70863E-02-3.70974E-03-3.80452E-01 5.44927E-14-4.69258E-13
 -1      1427 2.35744E+01 6.45646E-03-3.49122E-03-7.61391E-01 1.13910E-13-2.70815E-13
 -1      1428 2.31070E+01 1.71198E-02-1.47641E-03-3.44107E-01-3.92525E-15-5.57627E-13
 -1      1429 2.26926E+01 2.19519E-02-2.82598E-03-3.32621E-01-4.47674E-14-5.64791E-13
 -1      1430 2.28862E+01 2.82069E-02-5.78728E-03-7.03149E-01 1.56966E-14-3.70887E-13
 -1      1431 2.23994E+01 1.98196E-02-5.30840E-04-2.87114E-01-1.27016E-13-5.66928E-13
 -1      1432 2.20542E+01 2.18179E-02-1.79009E-03-2.75512E-01-1.04803E-13-7.62142E-13
 -1      1433 2.22693E+01 3.51844E-02-6.25596E-03-6.03479E-01-1.41481E-13-5.28155E-13
 -1      1434 2.18101E+01 1.89984E-02 1.80982E-04-2.30501E-01 1.46487E-14-8.52471E-13
 -1      1435 2.15338E+01 1.94193E-02-9.53260E-04-2.20119E-01-2.28296E-14-8.50878E-13
 -1      1436 2.17447E+01 3.43980E-02-5.84030E-03-4.94375E-01-1.16729E-13-7.04409E-13
 -1      1437 2.13369E+01 1.66543E-02 5.95073E-04-1.80027E-01-2.50470E-14-8.12931E-13
 -1      1438 2.11218E+01 1.62783E-02-3.80858E-04-1.71307E-01-1.08863E-14-8.19818E-13
 -1      1439 2.13146E+01 3.02324E-02-5.07545E-03-3.92170E-01-3.23686E-14-7.71091E-13
 -1      1440 2.09668E+01 1.38743E-02 7.73617E-04-1.37608E-01-4.51466E-14-7.53725E-13
 -1      1441 2.08031E+01 1.31499E-02-3.05163E-05-1.30556E-01-1.03648E-14-7.78803E-13
 -1      1442 2.09714E+01 2.50704E-02-4.23250E-03-3.03657E-01-2.10522E-14-5.45458E-13
 -1      1443 2.06836E+01 1.11880E-02 8.00812E-04-1.03239E-01 5.33490E-14-7.29505E-13
 -1      1444 2.05613E+01 1.03579E-02 1.62360E-04-9.76799E-02 7.22152E-14-6.51228E-13
 -1      1445 2.07034E+01 2.00568E-02-3.43574E-03-2.30479E-01 7.02476E-15-2.83273E-13
 -1      1446 2.04707E+01 8.81690E-03 7.44830E-04-7.60845E-02 8.91123E-14-5.94488E-13
 -1      1447 2.03811E+01 8.00425E-03 2.53507E-04-7.17832E-02 2.19002E-14-5.50132E-13
 -1      1448 2.04981E+01 1.56571E-02-2.73439E-03-1.71792E-01 1.12555E-13-3.05911E-13
 -1      1449 2.03136E+01 6.82461E-03 6.51164E-04-5.50337E-02-4.79784E-14-4.63303E-13
 -1      1450 2.02492E+01 6.08662E-03 2.83161E-04-5.17578E-02-6.57326E-14-5.65801E-13
 -1      1451 2.03436E+01 1.19965E-02-2.14126E-03-1.25752E-01 4.11752E-14-4.11627E-13
 -1      1452 2.01998E+01 5.20099E-03 5.46794E-04-3.89749E-02-4.25290E-14-5.44722E-13
 -1      1453 2.01545E+01 4.55934E-03 2.77954E-04-3.65161E-02 8.34012E-15-5.57793E-13
 -1      1454 2.02293E+01 9.04678E-03-1.65254E-03-9.02650E-02-8.60021E-14-3.98648E-13
 -1      1455 2.01192E+01 3.90551E-03 4.46162E-04-2.69061E-02-5.75149E-14-6.35740E-13
 -1      1456 2.00881E+01 3.36352E-03 2.54617E-04-2.50877E-02-7.83344E-14-6.94627E-13
 -1      1457 2.01464E+01 6.72021E-03-1.25745E-03-6.33332E-02-5.26358E-14-3.65376E-13
 -1      1458 2.00634E+01 2.88874E-03 3.56038E-04-1.79719E-02-8.64369E-15-6.39020E-13
 -1      1459 2.00429E+01 2.44064E-03 2.23271E-04-1.66484E-02 7.30952E-14-6.15965E-13
 -1      1460 2.00875E+01 4.91471E-03-9.43023E-04-4.31990E-02-6.87613E-14-4.60798E-13
 -1      1461 2.00262E+01 2.10212E-03 2.78820E-04-1.14646E-02 3.32336E-14-6.79357E-13
 -1      1462 2.00133E+01 1.73805E-03 1.89816E-04-1.05186E-02-9.52978E-15-6.38921E-13
 -1      1463 2.00468E+01 3.53306E-03-6.96317E-04-2.83789E-02 3.79221E-14-5.32947E-13
 -1      1464 2.00024E+01 1.50191E-03 2.14572E-04-6.81046E-03-3.21696E-14-5.55996E-13
 -1      1465 1.99949E+01 1.21054E-03 1.57514E-04-6.14849E-03 1.07581E-13-5.62562E-13
 -1      1466 2.00195E+01 2.48999E-03-5.05389E-04-1.76541E-02-2.92296E-14-5.18285E-13
 -1      1467 1.99883E+01 1.05039E-03 1.62214E-04-3.55196E-03 8.35328E-14-5.83800E-13
 -1      1468 1.99846E+01 8.20325E-04 1.28011E-04-3.10054E-03-9.01542E-14-4.87866E-13
 -1      1469 2.00022E+01 1.71362E-03-3.59680E-04-1.00417E-02 8.68943E-14-4.29595E-13
 -1      1470 1.99809E+01 7.15779E-04 1.20188E-04-1.32907E-03-9.75109E-14-4.16121E-13
 -1      1471 1.99798E+01 5.36198E-04 1.01967E-04-1.03123E-03-4.11308E-14-5.69961E-13
 -1      1472 1.99920E+01 1.14461E-03-2.50084E-04-4.76115E-03-2.15006E-14-4.89146E-13
 -1      1473 1.99782E+01 4.71613E-04 8.68144E-05 1.37179E-04-2.78828E-14-4.60428E-13
 -1      1474 1.99787E+01 3.32572E-04 7.94506E-05 3.24882E-04 5.54274E-14-4.83121E-13
 -1      1475 1.99867E+01 7.34507E-04-1.68874E-04-1.20173E-03-3.95526E-14-3.36568E-13
 -1      1476 1.99785E+01 2.95918E-04 6.04894E-05 1.05880E-03 1.82591E-13-4.22765E-13
 -1      1477 1.99800E+01 1.88405E-04 6.02136E-05 1.16875E-03 9.13150E-14-3.55942E-13
 -1      1478 1.99848E+01 4.43751E-04-1.09548E-04 1.10604E-03 1.03593E-13-3.29613E-13
 -1      1479 1.99807E+01 1.70307E-04 3.98185E-05 1.59237E-03 6.70822E-15-9.37038E-15
 -1      1480 1.99828E+01 8.61579E-05 4.39501E-05 1.64771E-03 1.13639E-13-6.60230E-15
 -1      1481 1.99852E+01 2.39824E-04-6.66345E-05 2.51450E-03 2.63821E-13 1.30235E-14
 -1      1482 1.99840E+01 7.89826E-05 2.38662E-05 1.84769E-03 3.97292E-14 3.69198E-14
 -1      1483 1.99864E+01 1.06475E-05 3.07592E-05 1.86367E-03 4.60781E-14 1.00521E-13
 -1      1484 1.99870E+01 9.52033E-05-3.54547E-05 3.27788E-03 1.97698E-13 2.79629E-13
 -1      1485 1.99878E+01 7.44246E-06 1.27400E-05 1.89337E-03 1.34249E-13 4.96425E-14
 -1      1486 1.99902E+01-5.22104E-05 2.17802E-05 1.87769E-03 6.26473E-14 2.66991E-13
 -1      1487 1.99896E+01-1.51194E-05-1.17391E-05 3.56587E-03 1.27956E-13 3.12146E-13
 -1      1488 1.99917E+01-5.85117E-05 8.28714E-06 1.75934E-03 1.59193E-14 2.10838E-13
 -1      1489 1.99939E+01-1.16034E-04 1.97631E-05 1.71167E-03 2.11190E-14 1.12680E-13
 -1      1490 1.99924E+01-1.15531E-04 8.87530E-06 3.47161E-03 2.41185E-14 1.31534E-13
 -1      1491 1.99952E+01-1.34193E-04 1.40644E-05 1.43848E-03 2.05607E-13 9.26674E-14
 -1      1492 1.99969E+01-1.93358E-04 2.30660E-05 1.34773E-03 1.06936E-13 2.22477E-13
 -1      1493 1.99951E+01-2.34259E-04 2.89124E-05 3.01442E-03 8.43161E-14-1.17698E-13
 -1      1494 1.99979E+01-2.40192E-04 2.45028E-05 8.89290E-04-5.80093E-14 3.70181E-13
 -1      1495 1.99989E+01-2.61640E-04 1.80146E-05 7.55811E-04-7.69525E-14 3.37697E-13
 -1      1496 1.99974E+01-4.05037E-04 4.62471E-05 2.16618E-03 1.13466E-13 4.20552E-14
 -1      1497 1.99997E+01-1.52333E-04 2.87823E-05 5.09981E-05-3.06981E-13 3.22889E-13
 -1      1498 1.99993E+01-5.38620E-04 3.54837E-05 7.70826E-04-3.04823E-13 2.99642E-13
 -1      1499 2.08606E+01 7.29535E-02-1.45926E-01 3.70245E-01 2.51021E-13 1.95752E-12
 -1      1500 2.19543E+01 2.16393E-01-2.27475E-01 5.99769E-01 2.12580E-13 2.34252E-12
 -1      1501 2.21795E+01 8.52276E-01-9.02224E-02 1.83547E+00 4.20060E-13 1.51100E-12
 -1      1502 2.02118E+01 3.34061E-02-1.89466E-02 7.65464E-02 1.76803E-13 1.47113E-12
 -1      1503 2.04762E+01 1.15262E-01-5.89698E-02 1.29119E-01 1.79506E-13 1.76440E-12
 -1      1504 2.09890E+01 1.80324E-01-5.63477E-02 5.73713E-01 3.72924E-13 1.18219E-12
 -1      1505 2.01243E+01 1.77484E-02 5.73093E-03-6.33850E-02 1.23837E-13 1.12742E-12
 -1      1506 2.01031E+01 5.62807E-02 2.72522E-03-3.35087E-02 1.23539E-13 1.33588E-12
 -1      1507 2.04972E+01 7.32483E-02-1.40220E-02 8.19827E-02 2.80994E-13 8.62900E-13
 -1      1508 2.03360E+01 9.93719E-03 6.19958E-03-1.38183E-01 1.01899E-13 8.69166E-13
 -1      1509 2.01761E+01 3.19157E-02 1.15478E-02-1.18928E-01 9.67715E-14 1.02822E-12
 -1      1510 2.04372E+01 3.61282E-02-4.96906E-03-1.52347E-01 2.09138E-13 6.43968E-13
 -1      1511 2.07128E+01 4.60199E-03 4.13778E-03-1.79122E-01 4.15588E-14 7.06924E-13
 -1      1512 2.04785E+01 1.90441E-02 8.45657E-03-1.66432E-01 4.78075E-14 7.96096E-13
 -1      1513 2.06212E+01 1.82755E-02-4.11841E-03-2.79366E-01 1.41029E-13 4.87521E-13
 -1      1514 2.11705E+01-8.81456E-04 3.62829E-03-1.94091E-01 4.18231E-14 6.03431E-13
 -1      1515 2.09022E+01 8.80893E-03 5.18251E-03-1.87341E-01 2.88132E-14 6.60355E-13
 -1      1516 2.09417E+01 5.50535E-03-3.35029E-03-3.43456E-01 7.22843E-14 4.02607E-13
 -1      1517 2.16348E+01-7.67665E-03 4.80477E-03-1.81388E-01 4.11970E-14 5.01302E-13
 -1      1518 2.13705E+01-2.38478E-03 3.42967E-03-1.81842E-01 3.77409E-14 5.73860E-13
 -1      1519 2.13218E+01-7.81591E-03-1.25861E-03-3.54126E-01 7.11231E-14 3.25349E-13
 -1      1520 2.20246E+01-1.60650E-02 7.39105E-03-1.35076E-01 4.08363E-14 4.44632E-13
 -1      1521 2.18085E+01-1.61827E-02 2.90373E-03-1.45069E-01 1.62518E-14 4.85490E-13
 -1      1522 2.16919E+01-2.41632E-02 2.29218E-03-3.06247E-01 3.54382E-14 2.80782E-13
 -1      1523 2.22465E+01-2.51426E-02 1.08992E-02-4.93935E-02 6.95728E-14 2.98711E-13
 -1      1524 2.21313E+01-3.24519E-02 3.29197E-03-7.13361E-02 6.63285E-14 4.04616E-13
 -1      1525 2.19779E+01-4.37523E-02 7.16157E-03-1.89773E-01 1.01816E-13 2.20162E-13
 -1      1526 2.22036E+01-3.22330E-02 1.40978E-02 7.49571E-02 3.94784E-14 2.68494E-13
 -1      1527 2.22449E+01-4.84773E-02 4.25305E-03 4.03761E-02 3.55271E-14 3.07076E-13
 -1      1528 2.21007E+01-6.36567E-02 1.26376E-02 2.91576E-04 7.36598E-14 1.68617E-13
 -1      1529 2.18230E+01-3.27904E-02 1.46466E-02 2.22479E-01 2.16689E-14 2.07348E-13
 -1      1530 2.20626E+01-5.82270E-02 5.03935E-03 1.78898E-01 2.68787E-14 2.50246E-13
 -1      1531 2.19882E+01-7.65677E-02 1.70117E-02 2.50516E-01 5.13799E-14 2.00228E-13
 -1      1532 2.10995E+01-2.19675E-02 9.64901E-03 3.56330E-01 2.50147E-14 1.59622E-13
 -1      1533 2.15384E+01-5.33551E-02 4.32583E-03 3.13933E-01 1.07293E-15 1.65746E-13
 -1      1534 2.16013E+01-7.12826E-02 1.76575E-02 5.14862E-01 1.22992E-14 2.33397E-13
 -1      1535 2.01421E+01 1.53488E-03-2.26794E-03 4.22157E-01 2.09964E-14 6.05002E-14
 -1      1536 2.07135E+01-2.76147E-02 7.51521E-04 3.96779E-01 4.00394E-14 1.21181E-13
 -1      1537 2.09696E+01-3.75281E-02 1.22760E-02 7.10527E-01 5.95322E-14 1.21771E-13
 -1      1538 1.91868E+01 3.13493E-02-1.82540E-02 3.70352E-01 4.51128E-14-5.75789E-14
 -1      1539 1.97497E+01 1.62031E-02-5.70020E-03 3.77000E-01 5.17880E-14 3.54022E-14
 -1      1540 2.02200E+01 2.43685E-02 1.10654E-03 7.39609E-01 8.30685E-14 1.29566E-14
 -1      1541 1.85365E+01 5.40464E-02-3.08251E-02 1.91159E-01-7.00429E-14-3.34142E-14
 -1      1542 1.89130E+01 6.25584E-02-1.25272E-02 2.33810E-01-1.94376E-14-7.18661E-14
 -1      1543 1.95647E+01 9.51720E-02-1.17547E-02 5.41353E-01 1.36696E-15 8.95325E-14
 -1      1544 1.84327E+01 5.71403E-02-3.22049E-02-6.36044E-02-3.48038E-14 6.34319E-14
 -1      1545 1.84841E+01 8.95318E-02-1.55674E-02 1.89084E-03-4.88255E-14-3.88040E-14
 -1      1546 1.92302E+01 1.41299E-01-2.02341E-02 1.47654E-01-6.58050E-14 9.57862E-14
 -1      1547 1.89279E+01 3.89790E-02-2.05653E-02-2.99765E-01 9.98993E-14-5.09454E-14
 -1      1548 1.86279E+01 8.36058E-02-1.21332E-02-2.36086E-01 5.26671E-14 1.74687E-15
 -1      1549 1.93488E+01 1.36027E-01-2.05864E-02-3.09592E-01 6.83481E-14-7.65334E-14
 -1      1550 1.98564E+01 1.00624E-02-2.28585E-03-4.34199E-01-1.55201E-14-2.55254E-13
 -1      1551 1.93053E+01 4.98661E-02-3.62586E-03-3.94150E-01 7.14528E-14-1.49863E-13
 -1      1552 1.98875E+01 8.09833E-02-1.42227E-02-6.63747E-01 1.42446E-13-1.66780E-13
 -1      1553 2.09266E+01-1.55037E-02 1.34571E-02-4.39164E-01 7.58898E-15-1.85574E-13
 -1      1554 2.02961E+01 7.12031E-03 5.37429E-03-4.30440E-01-5.25151E-14-2.13315E-13
 -1      1555 2.06675E+01 5.87422E-03-5.64555E-03-8.06366E-01-5.82733E-14-2.41312E-13
 -1      1556 2.18625E+01-2.93441E-02 2.10619E-02-3.43956E-01 8.02917E-15-1.50782E-13
 -1      1557 2.13132E+01-2.62904E-02 1.08148E-02-3.60125E-01 3.30447E-14-1.21944E-13
 -1      1558 2.14604E+01-5.48862E-02 1.21965E-03-7.33568E-01 2.53244E-14-2.60115E-13
 -1      1559 2.24983E+01-3.12006E-02 2.05423E-02-2.03803E-01 7.46616E-14-2.12545E-13
 -1      1560 2.21255E+01-4.22396E-02 1.15115E-02-2.32113E-01 3.19033E-14-1.55872E-13
 -1      1561 2.20851E+01-8.35318E-02 4.85875E-03-5.20808E-01 2.42298E-14-2.30605E-13
 -1      1562 2.27942E+01-2.54821E-02 1.53208E-02-6.73363E-02 1.11959E-13-5.51467E-13
 -1      1563 2.26192E+01-4.27007E-02 8.85490E-03-9.64667E-02 1.11360E-13-3.04702E-13
 -1      1564 2.24543E+01-8.23758E-02 5.73477E-03-2.64192E-01 1.63739E-13-3.39141E-13
 -1      1565 2.27981E+01-1.70485E-02 8.95501E-03 3.81698E-02 2.99457E-14-6.23976E-13
 -1      1566 2.27913E+01-3.41550E-02 5.06111E-03 1.47186E-02 2.12668E-14-6.03059E-13
 -1      1567 2.25665E+01-6.39685E-02 5.00008E-03-3.57394E-02 1.05876E-13-4.98806E-13
 -1      1568 2.25959E+01-9.10369E-03 3.61369E-03 1.05257E-01-6.19864E-14-6.01404E-13
 -1      1569 2.27063E+01-2.27172E-02 1.73614E-03 8.95404E-02-3.52175E-14-6.57542E-13
 -1      1570 2.24725E+01-4.06119E-02 3.66330E-03 1.30093E-01-3.32720E-15-6.07494E-13
 -1      1571 2.22754E+01-3.04630E-03 2.73974E-05 1.38375E-01-1.04030E-13-3.81922E-13
 -1      1572 2.24519E+01-1.21924E-02-4.55048E-04 1.29757E-01-7.13761E-14-4.77761E-13
 -1      1573 2.22410E+01-1.98749E-02 2.33582E-03 2.28629E-01-1.66251E-13-3.96639E-13
 -1      1574 2.19073E+01 9.17444E-04-1.94201E-03 1.46549E-01-1.09075E-13-6.53028E-14
 -1      1575 2.21092E+01-4.17813E-03-1.53617E-03 1.43308E-01-8.68310E-14-2.64135E-13
 -1      1576 2.19366E+01-4.70758E-03 1.27085E-03 2.71271E-01-1.54718E-13-1.26221E-13
 -1      1577 2.15408E+01 3.13796E-03-2.74650E-03 1.38909E-01 9.67055E-14-2.75337E-13
 -1      1578 2.17405E+01 1.12757E-03-1.82732E-03 1.39219E-01 8.25143E-14-9.45953E-14
 -1      1579 2.16098E+01 4.80820E-03 5.12817E-04 2.74496E-01 4.93883E-14-1.63823E-13
 -1      1580 2.12050E+01 4.11208E-03-2.84028E-03 1.22771E-01 2.82741E-14-4.60743E-13
 -1      1581 2.13865E+01 4.17221E-03-1.67289E-03 1.25125E-01 1.82518E-14-3.75242E-13
 -1      1582 2.12945E+01 9.82221E-03 1.88188E-05 2.53675E-01 1.01661E-13-2.26303E-13
 -1      1583 2.09146E+01 4.28948E-03-2.56524E-03 1.03245E-01-4.93810E-14-3.79691E-13
 -1      1584 2.10703E+01 5.57602E-03-1.33002E-03 1.06562E-01-2.22836E-14-4.08552E-13
 -1      1585 2.10105E+01 1.17253E-02-2.76136E-04 2.20668E-01-1.51344E-14-2.86827E-13
 -1      1586 2.06739E+01 4.01117E-03-2.14087E-03 8.35359E-02 1.46585E-14-3.74687E-13
 -1      1587 2.08018E+01 5.90620E-03-9.53473E-04 8.71136E-02 1.65248E-14-3.27252E-13
 -1      1588 2.07670E+01 1.17091E-02-4.31623E-04 1.83572E-01-5.70709E-14-2.17662E-13
 -1      1589 2.04812E+01 3.51005E-03-1.69206E-03 6.54348E-02-2.10262E-13-2.27266E-14
 -1      1590 2.05827E+01 5.60150E-03-6.19479E-04 6.88582E-02-1.76419E-13-2.83798E-13
 -1      1591 2.05661E+01 1.06478E-02-4.94214E-04 1.47353E-01-2.10947E-13-1.40176E-13
 -1      1592 2.03314E+01 2.93302E-03-1.28138E-03 4.97761E-02 2.86941E-14 2.08578E-13
 -1      1593 2.04095E+01 4.96927E-03-3.55443E-04 5.28296E-02-7.81061E-14 6.88633E-14
 -1      1594 2.04056E+01 9.12141E-03-4.97896E-04 1.14699E-01-2.11862E-13-1.99474E-14
 -1      1595 2.02183E+01 2.36560E-03-9.34234E-04 3.67988E-02 4.08848E-14 1.94982E-13
 -1      1596 2.02767E+01 4.20927E-03-1.62929E-04 3.93955E-02 3.80306E-14 2.11221E-13
 -1      1597 2.02808E+01 7.48466E-03-4.66615E-04 8.67798E-02 2.69752E-14-1.34752E-13
 -1      1598 2.01352E+01 1.85259E-03-6.55779E-04 2.63996E-02 8.75179E-14 1.17774E-13
 -1      1599 2.01776E+01 3.44230E-03-3.21484E-05 2.85303E-02 5.51176E-14 2.54531E-13
 -1      1600 2.01864E+01 5.93580E-03-4.16822E-04 6.38274E-02 9.40155E-14-3.86216E-14
 -1      1601 2.00760E+01 1.41317E-03-4.41109E-04 1.83007E-02 2.09542E-13-4.04588E-13
 -1      1602 2.01057E+01 2.73501E-03 5.00842E-05 1.99990E-02 2.37902E-13 4.10616E-14
 -1      1603 2.01169E+01 4.57165E-03-3.59494E-04 4.55450E-02 3.71272E-13 7.97580E-15
 -1      1604 2.00352E+01 1.05128E-03-2.81140E-04 1.21547E-02-1.65599E-14-4.20032E-13
 -1      1605 2.00553E+01 2.11890E-03 9.65186E-05 1.34748E-02 2.10265E-15-3.61987E-13
 -1      1606 2.00672E+01 3.42691E-03-3.01664E-04 3.13750E-02 8.93203E-14-1.62209E-14
 -1      1607 2.00084E+01 7.62462E-04-1.65748E-04 7.60607E-03-1.74499E-13-1.01058E-13
 -1      1608 2.00213E+01 1.60370E-03 1.17941E-04 8.60897E-03-2.05962E-13-3.71595E-13
 -1      1609 2.00328E+01 2.50074E-03-2.47559E-04 2.06657E-02-2.07196E-13 7.98591E-14
 -1      1610 1.99919E+01 5.38119E-04-8.53492E-05 4.32517E-03 1.85792E-13-2.06467E-13
 -1      1611 1.99996E+01 1.18654E-03 1.22810E-04 5.07062E-03 5.09126E-14-9.68151E-14
 -1      1612 2.00100E+01 1.77364E-03-1.99453E-04 1.27697E-02-3.86412E-15-1.38878E-13
 -1      1613 1.99828E+01 3.68115E-04-3.15739E-05 2.02420E-03-5.51280E-14-2.15566E-13
 -1      1614 1.99867E+01 8.57844E-04 1.17411E-04 2.56640E-03 4.36496E-14-2.28848E-13
 -1      1615 1.99959E+01 1.21790E-03-1.58292E-04 7.09556E-03 1.11062E-13-2.34891E-13
 -1      1616 1.99788E+01 2.42235E-04 2.53067E-06 4.62535E-04-1.24811E-13-1.60301E-13
 -1      1617 1.99802E+01 6.05036E-04 1.06212E-04 8.48216E-04-3.09616E-14-1.86971E-13
 -1      1618 1.99879E+01 8.03711E-04-1.24149E-04 3.13230E-03-8.18427E-14 3.77466E-14
 -1      1619 1.99783E+01 1.50918E-04 2.25583E-05-5.53713E-04 7.38696E-14-8.70488E-14
 -1      1620 1.99780E+01 4.14711E-04 9.22427E-05-2.85912E-04-1.14681E-14-9.98278E-14
 -1      1621 1.99843E+01 5.02419E-04-9.65322E-05 4.56328E-04-5.61932E-14-8.60615E-15
 -1      1622 1.99801E+01 8.55377E-05 3.29439E-05-1.17507E-03 7.27694E-14-3.87655E-13
 -1      1623 1.99787E+01 2.73767E-04 7.74540E-05-9.94498E-04 4.45827E-14-2.19383E-13
 -1      1624 1.99836E+01 2.88066E-04-7.45837E-05-1.27070E-03 6.82677E-14 1.54990E-13
 -1      1625 1.99832E+01 3.83255E-05 3.73319E-05-1.51294E-03 8.16405E-14-7.03971E-13
 -1      1626 1.99811E+01 1.69798E-04 6.30541E-05-1.39659E-03 1.55006E-13-4.93835E-13
 -1      1627 1.99849E+01 1.37746E-04-5.71372E-05-2.30832E-03 2.38722E-13-2.66710E-14
 -1      1628 1.99869E+01 1.96507E-06 3.92989E-05-1.64310E-03-1.15143E-13-4.27140E-13
 -1      1629 1.99846E+01 9.08197E-05 4.99656E-05-1.57554E-03-1.56521E-13-6.75496E-13
 -1      1630 1.99873E+01 3.10924E-05-4.25511E-05-2.84448E-03-1.10567E-13-2.31768E-14
 -1      1631 1.99909E+01-3.07871E-05 4.34492E-05-1.60734E-03 8.51545E-14-5.53158E-13
 -1      1632 1.99885E+01 2.45520E-05 3.96260E-05-1.58119E-03 8.28974E-14-3.96984E-13
 -1      1633 1.99902E+01-5.09420E-05-2.81488E-05-3.00088E-03 7.92635E-14-1.16318E-13
 -1      1634 1.99945E+01-6.76536E-05 5.45639E-05-1.41330E-03-3.52893E-14-5.17621E-13
 -1      1635 1.99924E+01-4.23124E-05 3.46398E-05-1.43058E-03 4.52991E-14-4.70900E-13
 -1      1636 1.99933E+01-1.28059E-04-9.99198E-06-2.83542E-03 1.25339E-13 1.38837E-13
 -1      1637 1.99975E+01-1.17070E-04 6.73769E-05-1.03179E-03 4.40054E-14-4.16273E-13
 -1      1638 1.99958E+01-1.25055E-04 3.60585E-05-1.10948E-03-9.51764E-14-5.13423E-13
 -1      1639 1.99960E+01-2.23456E-04 1.40385E-05-2.34432E-03-1.22433E-13-8.65378E-14
 -1      1640 1.99993E+01-1.83508E-04 2.53957E-05-4.57698E-04 3.23818E-14-7.46698E-13
 -1      1641 1.99984E+01-2.17011E-04 3.41910E-05-5.93104E-04 1.40287E-13-5.44244E-13
 -1      1642 1.99982E+01-3.56813E-04 3.58040E-05-1.48653E-03 2.00768E-13-2.16777E-13
 -1      1643 1.99997E+01-1.71691E-04 1.81669E-05-7.76814E-05-4.44113E-13-5.78229E-13
 -1      1644 1.99996E+01-1.85493E-03 2.97897E-05-8.87320E-04-2.19789E-13 4.03543E-13
 -1      1645 1.99996E+01-9.36061E-04 5.56913E-06-7.34005E-04-5.88462E-13 6.32332E-15
 -1      1646 1.99997E+01-4.34463E-03 6.97440E-06-1.30001E-03 3.27222E-13 3.76632E-13
 -1      1647 1.99997E+01-2.83467E-03 1.82317E-05-1.24291E-03-2.24284E-13 5.65037E-13
 -1      1648 1.99995E+01-2.38553E-03 3.18634E-05-2.04270E-03 1.70466E-13 5.50054E-13
 -1      1649 1.99998E+01-7.21351E-03-6.66053E-06-1.42072E-03-5.47051E-14-4.20920E-13
 -1      1650 1.99998E+01-5.50222E-03 5.79744E-06-1.42080E-03 2.67317E-13-1.21446E-13
 -1      1651 1.99997E+01-4.49211E-03 1.23106E-05-2.60509E-03 8.11033E-14 5.09737E-14
 -1      1652 1.99999E+01-1.00091E-02-1.07815E-05-1.32017E-03 4.59915E-14 7.73344E-14
 -1      1653 1.99998E+01-8.38659E-03-1.69645E-06-1.35750E-03-8.21083E-14-2.69689E-14
 -1      1654 1.99998E+01-6.78298E-03-9.93813E-06-2.66447E-03-3.94269E-14-2.54010E-13
 -1      1655 1.99999E+01-1.23569E-02-9.86608E-06-1.07866E-03-1.50849E-13-2.25453E-14
 -1      1656 1.99999E+01-1.10316E-02-2.95193E-06-1.13597E-03-1.41593E-13-8.11741E-14
 -1      1657 1.99999E+01-8.93517E-03-2.54303E-05-2.35948E-03-1.79161E-13-9.98871E-14
 -1      1658 1.99999E+01-1.41216E-02-7.33547E-06-7.46512E-04 1.59799E-13 1.26675E-13
 -1      1659 1.99999E+01-1.31679E-02-3.00591E-06-8.16848E-04-6.80237E-15 4.93592E-14
 -1      1660 2.00000E+01-1.07262E-02-3.35873E-05-1.82352E-03-1.73149E-13 5.20399E-14
 -1      1661 1.99999E+01-1.51270E-02-4.78731E-06-3.67233E-04 2.55926E-13-2.25380E-14
 -1      1662 1.99999E+01-1.46323E-02-2.56744E-06-4.43192E-04 2.62180E-13 2.46114E-13
 -1      1663 2.00000E+01-1.20129E-02-3.81907E-05-1.14579E-03 4.01167E-14 2.97756E-13
 -1      1664 1.99999E+01-1.53122E-02-3.16217E-06 3.25626E-05 4.71672E-13 9.90626E-14
 -1      1665 1.99999E+01-1.53050E-02-3.15613E-06-4.53428E-05 2.79324E-13-2.23967E-14
 -1      1666 2.00001E+01-1.26836E-02-4.01434E-05-3.97577E-04 8.97809E-14 5.35320E-15
 -1      1667 1.99999E+01-1.46626E-02-2.64076E-06 4.32957E-04 2.42026E-13-2.80137E-13
 -1      1668 1.99999E+01-1.51456E-02-4.93002E-06 3.56160E-04 4.00008E-13 4.26500E-14
 -1      1669 2.00001E+01-1.26952E-02-4.03806E-05 3.74542E-04 1.54333E-13-9.05533E-14
 -1      1670 1.99999E+01-1.32115E-02-3.00230E-06 8.12601E-04 8.64139E-14-2.35087E-14
 -1      1671 1.99999E+01-1.41599E-02-7.83044E-06 7.40961E-04 3.50305E-13-2.35947E-13
 -1      1672 2.00000E+01-1.20443E-02-3.87768E-05 1.13056E-03 1.33994E-13-2.62275E-13
 -1      1673 1.99999E+01-1.10932E-02-3.62984E-06 1.13581E-03-2.22895E-13-6.31024E-14
 -1      1674 1.99999E+01-1.24203E-02-1.04575E-05 1.07736E-03-8.22351E-14-2.44513E-13
 -1      1675 2.00000E+01-1.07818E-02-3.46568E-05 1.81655E-03 1.35363E-13-4.35682E-13
 -1      1676 1.99998E+01-8.41378E-03-1.87234E-06 1.36690E-03-2.82539E-13-3.92369E-14
 -1      1677 1.99999E+01-1.00483E-02-1.13471E-05 1.32851E-03-3.82364E-13 3.35075E-13
 -1      1678 2.00000E+01-8.99119E-03-2.59446E-05 2.36728E-03-4.97692E-14 7.57210E-14
 -1      1679 1.99998E+01-5.51201E-03 4.50419E-06 1.43748E-03-4.31730E-13-1.48192E-13
 -1      1680 1.99998E+01-7.23408E-03-6.98349E-06 1.43312E-03-2.45221E-13-4.10057E-14
 -1      1681 1.99999E+01-6.81134E-03-1.04673E-05 2.68434E-03-3.15493E-13 9.31216E-15
 -1      1682 1.99997E+01-2.87048E-03 2.84937E-06 1.24694E-03-6.02588E-13-1.86995E-13
 -1      1683 1.99997E+01-4.35244E-03 5.13086E-06 1.30409E-03-3.50397E-13-2.84969E-13
 -1      1684 1.99997E+01-4.49703E-03 1.08331E-05 2.62492E-03-5.20487E-14-2.88034E-13
 -1      1685 1.99994E+01-1.16293E-03-1.69932E-05 1.04148E-03-3.71124E-13 4.91226E-14
 -1      1686 1.99995E+01-2.08146E-03 3.75406E-06 1.27018E-03-4.50358E-13-2.77997E-15
 -1      1687 1.99994E+01-2.52705E-03 4.89020E-05 2.37930E-03 4.60794E-15-2.01129E-13
 -1      1688 1.99987E+01-1.15144E-03 1.31505E-05 1.98536E-03-2.95742E-14 4.07856E-14
 -1      1689-5.48160E-01-1.45867E+01-1.64187E+00-7.73194E-01 1.40860E-12 8.85597E-13
 -1      1690-5.74277E-01-1.66434E+01-1.82248E+00 4.65938E-01 3.34455E-13 7.13096E-13
 -1      1691 9.66519E-01-8.85112E+00-1.26999E+00 1.59616E-01 2.35079E-12 1.36180E-12
 -1      1692 4.27492E-01-1.34977E+01-1.73037E+00-1.72761E-01 1.78413E-12 8.24486E-13
 -1      1693 5.80054E+00-1.66064E+00-6.48981E-01 3.85452E+00 2.72093E-12 2.08050E-12
 -1      1694 3.34510E+00-6.92305E+00-1.32347E+00 1.45277E+00 2.48024E-12 1.53327E-12
 -1      1695 1.49776E+01 4.08839E+00 7.76559E-02 8.70225E+00 2.56484E-12 2.48390E-12
 -1      1696 9.41983E+00 2.46609E-01-7.41371E-01 5.13221E+00 2.77778E-12 2.15494E-12
 -1      1697 2.74899E+01 6.57468E+00 7.80967E-01 1.22661E+01 2.02915E-12 2.67608E-12
 -1      1698 1.94287E+01 5.58337E+00-2.64686E-02 9.75390E+00 2.43738E-12 2.60925E-12
 -1      1699 4.10094E+01 5.70827E+00 1.35735E+00 1.17103E+01 1.32755E-12 2.02849E-12
 -1      1700 3.25395E+01 6.75763E+00 6.98603E-01 1.19648E+01 1.80245E-12 2.44271E-12
 -1      1701 5.13561E+01 4.12531E+00 1.76760E+00 7.33218E+00 7.31651E-13 1.06293E-12
 -1      1702 4.51286E+01 5.67034E+00 1.32804E+00 1.06726E+01 1.13513E-12 1.79345E-12
 -1      1703 5.47735E+01 3.53682E+00 1.81426E+00-5.42968E-01 6.33882E-13-4.64649E-13
 -1      1704 5.31497E+01 3.99965E+00 1.70896E+00 4.87377E+00 6.52284E-13 6.20504E-13
 -1      1705 5.06616E+01 4.65239E+00 1.62912E+00-8.07650E+00 1.05177E-12-1.99440E-12
 -1      1706 5.45466E+01 3.51984E+00 1.86919E+00-3.29632E+00 7.57783E-13-9.78384E-13
 -1      1707 3.96740E+01 6.55164E+00 1.08705E+00-1.20252E+01 1.65057E-12-2.87914E-12
 -1      1708 4.75294E+01 4.96227E+00 1.68370E+00-1.00111E+01 1.16471E-12-2.42917E-12
 -1      1709 2.65474E+01 5.70207E+00 3.14426E-01-1.04496E+01 2.13340E-12-2.68474E-12
 -1      1710 3.50100E+01 5.70958E+00 1.04542E+00-1.15603E+01 1.70164E-12-2.72327E-12
 -1      1711 1.51471E+01 3.34752E+00-2.91766E-01-7.55201E+00 2.43916E-12-2.48723E-12
 -1      1712 2.23066E+01 5.59622E+00 4.87157E-01-1.07891E+01 2.28551E-12-2.84894E-12
 -1      1713 2.83149E+01 1.51615E+00 4.25666E-01-6.77546E+00 1.24301E-12-1.56741E-12
 -1      1714 5.44544E+00-3.38626E+00-1.10862E+00-2.83047E+00 2.28106E-12-1.66889E-12
 -1      1715 9.27044E+00 1.65823E+00-3.19860E-01-6.14109E+00 2.49578E-12-2.36833E-12
 -1      1716 1.49099E+00-1.09975E+01-1.59234E+00-2.76587E-01 1.63147E-12-9.46437E-13
 -1      1717 2.83503E+00-5.60011E+00-9.97774E-01-1.67419E+00 2.10587E-12-1.37368E-12
 -1      1718-3.43449E-01-1.65116E+01-1.91885E+00 4.01803E-02 6.25666E-13-5.37959E-13
 -1      1719-2.50592E-01-1.28980E+01-1.57510E+00 8.08420E-01 1.39289E-12-7.96377E-13
 -1      1720-7.93261E-01-1.68595E+01-1.87420E+00-9.91968E-01-6.64080E-13-5.63438E-13
 -1      1721-7.51979E-01-1.71354E+01-1.89611E+00 5.81097E-01 2.58904E-13-5.25691E-13
 -1      1722 3.59293E-02-1.18979E+01-1.52485E+00-7.62359E-01-1.77902E-12-1.03394E-12
 -1      1723-1.73190E-01-1.58693E+01-1.87708E+00-3.28999E-01-9.77551E-13-6.28469E-13
 -1      1724 3.42372E+00-4.41438E+00-1.00744E+00 1.97707E+00-2.50333E-12-1.73939E-12
 -1      1725 1.68112E+00-1.01062E+01-1.65912E+00 8.83395E-02-2.04725E-12-1.19518E-12
 -1      1726 1.32865E+01 1.64608E+00-1.83560E-01 7.36534E+00-2.39675E-12-2.37110E-12
 -1      1727 8.12198E+00-2.88045E+00-9.95115E-01 3.80734E+00-2.32814E-12-1.84253E-12
 -1      1728 2.66143E+01 4.99087E+00 6.03372E-01 1.10059E+01-2.04892E-12-2.46625E-12
 -1      1729 1.82077E+01 3.15596E+00-2.91587E-01 8.02621E+00-2.35256E-12-2.38609E-12
 -1      1730 4.21586E+01 5.27111E+00 1.38852E+00 1.10165E+01-1.27151E-12-2.04015E-12
 -1      1731 3.18143E+01 6.18085E+00 5.13938E-01 1.10981E+01-1.95310E-12-2.39853E-12
 -1      1732 5.36384E+01 3.96495E+00 1.90395E+00 5.59370E+00-7.51010E-13-1.00181E-12
 -1      1733 4.67256E+01 5.50120E+00 1.35112E+00 9.75401E+00-1.07273E-12-1.79812E-12
 -1      1734 5.64574E+01 3.63837E+00 2.03118E+00-2.77496E+00-6.31883E-13 3.28737E-13
 -1      1735 5.62034E+01 3.67383E+00 1.97629E+00 3.26733E+00-5.96273E-13-6.41487E-13
 -1      1736 4.87928E+01 5.14770E+00 1.56826E+00-9.67016E+00-1.05438E-12 1.73050E-12
 -1      1737 5.48192E+01 3.70954E+00 2.02047E+00-5.45274E+00-7.16177E-13 8.05578E-13
 -1      1738 3.51850E+01 6.60050E+00 8.19915E-01-1.20860E+01-2.06130E-12 2.82441E-12
 -1      1739 4.46271E+01 5.37356E+00 1.62686E+00-1.13410E+01-1.38628E-12 2.04481E-12
 -1      1740 2.12752E+01 4.68799E+00-4.66360E-02-9.29771E+00-2.78699E-12 2.92677E-12
 -1      1741 3.00701E+01 5.74183E+00 8.59848E-01-1.17429E+01-2.25453E-12 2.87437E-12
 -1      1742 1.07175E+01-8.26478E-01-7.79710E-01-4.98670E+00-2.85083E-12 2.49156E-12
 -1      1743 1.67425E+01 2.92992E+00 5.50099E-02-8.52225E+00-2.75691E-12 2.90945E-12
 -1      1744 3.32888E+00-7.71070E+00-1.41635E+00-1.16051E+00-2.82840E-12 1.69131E-12
 -1      1745 6.03376E+00-2.21292E+00-7.13489E-01-3.73225E+00-3.04912E-12 2.34740E-12
 -1      1746 1.79080E-01-1.42991E+01-1.82271E+00 5.79472E-01-1.82365E-12 1.08158E-12
 -1      1747 6.08982E-01-9.66588E+00-1.38698E+00 3.83690E-01-2.69162E-12 1.64077E-12
 -1      1748-6.25052E-01-1.67238E+01-1.82167E+00-1.42174E-01-1.17170E-13 7.74686E-13
 -1      1749-6.73798E-01-1.51712E+01-1.70893E+00 1.15751E+00-1.31506E-12 8.75577E-13
 -1      1750 2.18423E+01 2.73039E-01 1.09709E-01 7.41715E+00 1.55487E-12 1.51279E-12
 -1      1751 1.26361E+01-3.77142E+00-4.19393E-01 6.26242E+00 1.51112E-12 1.40665E-12
 -1      1752 1.99995E+01-4.01227E-04 4.35067E-05-4.62586E-04-5.80422E-13-3.32980E-13
 -1      1753 1.99991E+01-9.50086E-04 2.40253E-05-1.26428E-03 1.66019E-14 1.12512E-13
 -1      1754 3.22191E-01-1.03777E+01-1.20036E+00 2.25456E+00 6.83120E-13 1.17129E-12
 -1      1755 5.08578E+00-7.50298E+00-8.73384E-01 4.38694E+00 1.22902E-12 1.30312E-12
 -1      1756-1.31984E+00-1.13480E+01-1.27695E+00 2.97532E-01-1.07574E-13 1.46277E-12
 -1      1757 3.17649E+01 3.60879E+00 7.01731E-01 7.40699E+00 1.44146E-12 1.33982E-12
 -1      1758 4.02765E+01 5.77107E+00 1.15842E+00 5.67071E+00 1.27010E-12 9.38027E-13
 -1      1759 4.58658E+01 7.05547E+00 1.48469E+00 2.90740E+00 1.16029E-12 3.62044E-13
 -1      1760 4.71490E+01 7.41318E+00 1.56948E+00-9.54787E-01 1.23490E-12-5.25857E-13
 -1      1761 4.41983E+01 6.58806E+00 1.41274E+00-4.44646E+00 1.34096E-12-1.27864E-12
 -1      1762 3.63894E+01 4.35846E+00 8.28864E-01-5.89498E+00 1.28700E-12-1.57074E-12
 -1      1763 8.16466E+00-5.92201E+00-7.11590E-01-5.25379E+00 1.13765E-12-1.30576E-12
 -1      1764 2.08399E+00-9.49177E+00-1.08754E+00-3.26341E+00 7.15650E-13-1.11461E-12
 -1      1765-1.09667E+00-1.18914E+01-1.37669E+00-9.95488E-01 2.02310E-13-9.85878E-13
 -1      1766-8.58405E-01-1.14716E+01-1.33298E+00 1.10078E+00-4.63962E-13-1.06487E-12
 -1      1767 2.82716E+00-9.19697E+00-1.10629E+00 3.24573E+00-9.96314E-13-1.20538E-12
 -1      1768 1.08960E+01-5.55178E+00-5.15446E-01 5.75463E+00-1.19904E-12-1.38861E-12
 -1      1769 2.14496E+01-2.30914E+00-4.23886E-03 6.59300E+00-1.17151E-12-1.32494E-12
 -1      1770 3.17793E+01 1.73127E+00 5.22382E-01 5.92651E+00-1.35614E-12-1.06903E-12
 -1      1771 4.10350E+01 5.51168E+00 1.14044E+00 4.37540E+00-1.20402E-12-9.35807E-13
 -1      1772 4.73942E+01 7.26505E+00 1.59396E+00 1.80349E+00-1.12027E-12-4.57634E-13
 -1      1773 4.84023E+01 7.12766E+00 1.70143E+00-1.69433E+00-1.16901E-12 2.76501E-13
 -1      1774 4.30712E+01 5.89536E+00 1.35528E+00-5.08465E+00-1.45618E-12 9.14713E-13
 -1      1775 3.38534E+01 3.05563E+00 6.81994E-01-6.47610E+00-1.65118E-12 1.32416E-12
 -1      1776 2.39134E+01-1.08785E+00 7.58255E-02-6.52704E+00-1.51390E-12 1.52478E-12
 -1      1777 1.40142E+01-4.62651E+00-3.52591E-01-6.14626E+00-1.47138E-12 1.68920E-12
 -1      1778 5.04314E+00-7.97535E+00-8.97953E-01-4.10082E+00-1.51368E-12 1.54203E-12
 -1      1779 1.14731E-03-1.07317E+01-1.25629E+00-1.67914E+00-9.25759E-13 1.51756E-12
 -1      1780 2.32159E+01 1.95448E+00-2.66514E-02-2.47753E+00-3.47215E-13 1.46272E-12
 -1      1781 1.79379E+01-1.55894E+00-1.07975E-01-7.05002E+00 1.32949E-12-1.75604E-12
 -1      1782 2.00787E+01 3.78807E+00-3.76916E-02-1.67076E+00-4.69709E-13-4.60975E-13
 -1      1783 2.04181E+01 3.61822E+00-3.55283E-02-1.96797E+00-5.29462E-13-3.02557E-13
 -1      1784 2.08050E+01 3.19044E+00-4.65246E-02-2.13970E+00-5.26138E-13-1.01780E-13
 -1      1785 2.10897E+01 2.79831E+00-1.33798E-01-2.43358E+00-5.54305E-13 1.63349E-13
 -1      1786 2.08473E+01 2.74171E+00-1.50815E-03-1.73435E+00-5.59798E-13-1.80952E-13
 -1      1787 1.91412E+01 4.38364E+00-2.10503E-02-8.78291E-01-2.71330E-13-7.20571E-13
 -1      1788 1.93294E+01 4.33568E+00-1.30414E-02-1.06520E+00-3.32725E-13-6.86159E-13
 -1      1789 1.88506E+01 4.52998E+00-1.63766E-02-5.77313E-01-1.72993E-13-7.55744E-13
 -1      1790 1.89843E+01 4.50167E+00-1.05192E-02-7.33228E-01-2.24592E-13-7.45834E-13
 -1      1791 1.92198E+01 4.07444E+00-6.04086E-03-7.36185E-01-2.71162E-13-7.02174E-13
 -1      1792 1.86735E+01 4.61205E+00-1.30320E-02-3.20956E-01-6.68565E-14-7.62388E-13
 -1      1793 1.87491E+01 4.59862E+00-9.96766E-03-4.55920E-01-1.22682E-13-7.57040E-13
 -1      1794 1.89323E+01 4.24343E+00-5.68426E-03-4.76543E-01-1.61396E-13-7.27069E-13
 -1      1795 1.86113E+01 4.63966E+00-1.07451E-02-8.52169E-02 3.31419E-14-7.64033E-13
 -1      1796 1.86285E+01 4.63815E+00-1.05565E-02-2.12031E-01-1.64030E-14-7.70328E-13
 -1      1797 1.87705E+01 4.32871E+00-5.51890E-03-2.50994E-01-4.02945E-14-7.42312E-13
 -1      1798 1.86610E+01 4.61846E+00-9.46435E-03 1.53900E-01 1.19162E-13-7.43556E-13
 -1      1799 1.86220E+01 4.62749E+00-1.19572E-02 2.31696E-02 7.73518E-14-7.55840E-13
 -1      1800 1.87345E+01 4.34058E+00-5.72689E-03-3.72373E-02 5.50602E-14-7.38087E-13
 -1      1801 1.88151E+01 4.55080E+00-9.33400E-03 4.18556E-01 2.10835E-13-7.16992E-13
 -1      1802 1.87242E+01 4.57059E+00-1.40606E-02 2.72822E-01 1.68926E-13-7.33469E-13
 -1      1803 1.88191E+01 4.28538E+00-6.30091E-03 1.87003E-01 1.54805E-13-7.10825E-13
 -1      1804 1.90592E+01 4.43746E+00-1.05380E-02 7.22462E-01 3.07510E-13-6.56121E-13
 -1      1805 1.89238E+01 4.46881E+00-1.70485E-02 5.54818E-01 2.54210E-13-6.96830E-13
 -1      1806 1.90135E+01 4.16691E+00-6.97273E-03 4.38775E-01 2.54690E-13-6.76893E-13
 -1      1807 1.93973E+01 4.26326E+00-1.39219E-02 1.09235E+00 4.20624E-13-5.46245E-13
 -1      1808 1.92138E+01 4.31408E+00-2.14506E-02 8.87001E-01 3.58600E-13-6.09660E-13
 -1      1809 1.93086E+01 3.98013E+00-7.80880E-03 7.34433E-01 3.63254E-13-5.99841E-13
 -1      1810 1.98372E+01 3.99612E+00-2.21309E-02 1.53581E+00 5.18178E-13-3.85414E-13
 -1      1811 1.95991E+01 4.08307E+00-2.84622E-02 1.28479E+00 4.64983E-13-4.80595E-13
 -1      1812 1.97069E+01 3.70448E+00-7.92955E-03 1.08309E+00 4.69289E-13-4.72383E-13
 -1      1813 2.04270E+01 3.54585E+00-4.18633E-02 2.04618E+00 5.96738E-13-9.40914E-14
 -1      1814 2.01021E+01 3.72011E+00-4.09272E-02 1.74518E+00 5.50910E-13-2.67893E-13
 -1      1815 2.02244E+01 3.29403E+00-4.97001E-03 1.47118E+00 5.66970E-13-2.89454E-13
 -1      1816 2.13729E+01 2.66263E+00-5.40903E-02 2.49172E+00 5.72524E-13 4.58390E-13
 -1      1817 2.08295E+01 3.09201E+00-5.02022E-02 2.21914E+00 5.76511E-13 1.26607E-13
 -1      1818 2.09161E+01 2.62407E+00 3.35280E-03 1.81444E+00 6.07907E-13 3.22659E-14
 -1      1819 2.21882E+01 1.18983E+00-1.19153E-01 2.04673E+00 4.97297E-13 1.14971E-12
 -1      1820 2.17398E+01 2.23457E+00-5.12761E-04 2.41027E+00 5.37737E-13 6.99954E-13
 -1      1821 2.14471E+01 1.67269E+00-1.92739E-02 1.77144E+00 5.90491E-13 4.65000E-13
 -1      1822 2.15134E+01 7.65844E-01-5.74464E-02 1.24424E+00 5.22436E-13 9.95492E-13
 -1      1823 2.22749E+01 2.41782E+00 8.68971E-02-2.70403E+00-4.79660E-13 6.33063E-13
 -1      1824 2.08660E+01 3.03611E-01-5.62877E-03 3.76223E-01 3.91107E-13 7.41393E-13
 -1      1825 2.12952E+01 4.39481E-01-1.05763E-02 7.56487E-01 4.31745E-13 8.98589E-13
 -1      1826 2.13531E+01 8.36175E-01 1.62599E-04 1.07889E+00 5.10765E-13 5.96233E-13
 -1      1827 1.68226E+01-4.24291E+00-2.82038E-01-6.28486E+00 6.97442E-13-1.21037E-12
 -1      1828 2.25299E+01-2.27082E+00 4.56402E-02-6.77057E+00 7.47902E-13-1.20215E-12
 -1      1829 2.20237E+01 1.73126E+00 7.77901E-02-1.95233E+00-5.15612E-13 4.36033E-13
 -1      1830 2.12844E+01 5.31857E-01 3.34484E-02-5.16162E-01-4.21836E-13 3.63096E-13
 -1      1831 2.10094E+01 4.01955E-01 1.39693E-02-2.01491E-01-3.63227E-13 2.46206E-13
 -1      1832 2.09187E+01 3.20362E-01 2.80146E-02 8.34718E-02-3.16698E-13 2.20692E-13
 -1      1833 2.09119E+01 2.55978E-01 1.66484E-02 2.62295E-01-2.83315E-13 1.22689E-13
 -1      1834 2.10333E+01 5.66663E-01-8.98430E-03-1.52142E-01-4.05224E-13 2.14533E-14
 -1      1835 2.09200E+01 2.20211E-01 1.73343E-02 4.57878E-01-2.36690E-13 1.17604E-13
 -1      1836 2.10636E+01 1.91296E-01 1.34206E-02 5.82725E-01-1.81443E-13 4.71606E-14
 -1      1837 2.09487E+01 3.66816E-01-8.41185E-03 3.95286E-01-3.01922E-13-1.99415E-14
 -1      1838 2.11567E+01 1.71521E-01 9.55728E-03 7.30155E-01-1.45357E-13 1.98990E-14
 -1      1839 2.14060E+01 1.53589E-01 1.01542E-02 8.27093E-01-1.19120E-13-2.49774E-14
 -1      1840 2.10585E+01 2.74465E-01-7.57665E-03 7.83488E-01-2.09750E-13-7.28963E-14
 -1      1841 2.15686E+01 1.35789E-01 5.10140E-03 9.42544E-01-1.09252E-13-1.14876E-14
 -1      1842 2.18928E+01 1.14261E-01 6.54512E-03 1.01586E+00-9.30237E-14-4.69624E-14
 -1      1843 2.13224E+01 2.15318E-01-6.77440E-03 1.08080E+00-1.37160E-13-9.89751E-14
 -1      1844 2.21138E+01 8.73118E-02 2.56103E-03 1.09699E+00-7.01202E-14-4.31565E-14
 -1      1845 2.24832E+01 4.85321E-02 1.17437E-03 1.13567E+00-6.43814E-14-3.97547E-14
 -1      1846 2.17117E+01 1.45690E-01-6.24058E-03 1.30399E+00-9.49552E-14-7.03385E-14
 -1      1847 2.27557E+01 5.87230E-04 1.22897E-03 1.16296E+00-8.99608E-14-3.68546E-14
 -1      1848 2.31306E+01-6.99900E-02-7.04490E-03 1.14119E+00-6.83678E-14-2.37861E-14
 -1      1849 2.22058E+01 2.69266E-02-6.26372E-03 1.43106E+00-6.97370E-14-5.92926E-14
 -1      1850 2.34499E+01-1.50338E-01 9.85110E-04 1.07742E+00-7.61865E-14 1.54356E-14
 -1      1851 2.37726E+01-2.62799E-01-1.80472E-02 9.56710E-01-3.71456E-14 5.42275E-15
 -1      1852 2.27896E+01-1.79682E-01-6.80997E-03 1.40265E+00-5.40991E-14-6.98300E-14
 -1      1853 2.41283E+01-3.77579E-01 1.57581E-03 7.51540E-01-3.74631E-14 1.42421E-14
 -1      1854 2.43217E+01-5.20556E-01-2.91292E-02 4.94043E-01-4.86937E-14-2.52428E-14
 -1      1855 2.34458E+01-4.96366E-01-6.93480E-03 1.12568E+00-5.61244E-14-2.66651E-14
 -1      1856 2.46786E+01-6.42146E-01 1.03001E-03 1.08072E-01-1.53419E-14-1.91019E-14
 -1      1857 2.46612E+01-7.56075E-01-3.39408E-02-2.87376E-01 4.97345E-14-3.69639E-14
 -1      1858 2.41332E+01-8.79978E-01-4.26346E-03 5.00096E-01-4.18684E-14 6.62990E-16
 -1      1859 2.49341E+01-8.03988E-01-4.48217E-03-8.25349E-01-7.26849E-16-2.90783E-14
 -1      1860 2.46603E+01-7.65286E-01-2.23732E-02-1.26639E+00-5.85296E-14-3.18651E-14
 -1      1861 2.47461E+01-1.15534E+00 2.88182E-03-4.97639E-01-5.68469E-15 4.94771E-14
 -1      1862 2.47140E+01-6.16252E-01-1.63691E-02-1.77252E+00-9.03444E-15-8.60076E-15
 -1      1863 2.42369E+01-3.14652E-01 5.11724E-03-2.03522E+00-3.85881E-14 5.33271E-14
 -1      1864 2.50861E+01-9.98618E-01 1.21945E-02-1.66770E+00-1.57227E-14 7.80591E-14
 -1      1865 2.39893E+01 8.02077E-02-3.57273E-02-2.16375E+00-1.22635E-13 1.33487E-14
 -1      1866 2.34925E+01 5.68101E-01 2.09495E-02-1.98322E+00-2.28793E-13-1.57235E-14
 -1      1867 2.49445E+01-1.29752E-01 7.36898E-03-2.43918E+00-1.14492E-13 6.15445E-14
 -1      1868 2.31360E+01 1.00442E+00-3.55503E-02-1.46148E+00-3.16393E-13-1.18790E-13
 -1      1869 2.28754E+01 1.33015E+00 7.46607E-03-8.03573E-01-3.20945E-13-2.29345E-13
 -1      1870 2.43855E+01 1.17046E+00-2.94089E-02-2.06765E+00-3.31676E-13-5.06578E-14
 -1      1871 2.27945E+01 1.43046E+00-7.84201E-03 1.65723E-01-3.49790E-13-3.81062E-13
 -1      1872 2.29317E+01 1.28889E+00-2.58208E-02 9.33089E-01-3.10599E-13-4.87697E-13
 -1      1873 2.39634E+01 2.00123E+00-6.13781E-02-3.87476E-01-4.46893E-13-2.85954E-13
 -1      1874 2.32349E+01 9.51619E-01 1.75400E-02 1.70532E+00-2.38698E-13-6.43504E-13
 -1      1875 2.36979E+01 4.81632E-01-4.04171E-02 2.10755E+00-1.79148E-13-7.38475E-13
 -1      1876 2.41826E+01 1.63162E+00-5.06391E-02 1.59873E+00-3.90750E-13-5.10920E-13
 -1      1877 2.40542E+01 2.85802E-02 1.10735E-02 2.24237E+00-1.58444E-13-8.46049E-13
 -1      1878 2.46047E+01-3.79031E-01-2.81748E-02 2.14390E+00-1.47482E-13-8.69589E-13
 -1      1879 2.48165E+01 4.10965E-01-8.92597E-03 2.57598E+00-2.32977E-13-8.03049E-13
 -1      1880 2.47060E+01-6.37316E-01-1.43309E-02 1.75082E+00-9.53179E-14-8.31920E-13
 -1      1881 2.51159E+01-7.78208E-01-9.32828E-03 1.35444E+00 1.54269E-14-7.81982E-13
 -1      1882 2.52256E+01-7.04948E-01 1.37581E-02 2.21415E+00-1.15082E-13-8.26928E-13
 -1      1883 2.49423E+01-7.98156E-01-3.17532E-02 7.97886E-01 1.05796E-13-7.26158E-13
 -1      1884 2.51040E+01-7.29742E-01 4.79629E-04 3.67651E-01 1.62936E-13-7.02514E-13
 -1      1885 2.51195E+01-1.15177E+00 9.16831E-03 1.12574E+00 6.78234E-14-6.62611E-13
 -1      1886 2.47901E+01-6.24815E-01-3.25695E-02-8.92446E-02 1.44348E-13-6.19908E-13
 -1      1887 2.47160E+01-4.82125E-01 2.42128E-03-4.04572E-01 5.69354E-14-5.66580E-13
 -1      1888 2.46350E+01-1.01555E+00-7.55259E-04 1.67815E-02 1.93344E-13-5.52440E-13
 -1      1889 2.43750E+01-3.58482E-01-2.32617E-02-6.78792E-01-4.19803E-15-3.87956E-13
 -1      1890 2.41377E+01-2.30220E-01 1.58323E-03-8.49509E-01 5.66370E-14-3.31140E-13
 -1      1891 2.40043E+01-6.44287E-01-5.50746E-03-7.63030E-01 1.43626E-13-3.80117E-13
 -1      1892 2.38208E+01-1.36311E-01-1.20233E-02-9.64126E-01 6.91751E-14-2.73532E-13
 -1      1893 2.35003E+01-5.12006E-02 7.80787E-04-1.02063E+00 1.52446E-13-1.92128E-13
 -1      1894 2.33706E+01-2.90480E-01-6.06548E-03-1.16942E+00 1.32608E-13-1.17228E-13
 -1      1895 2.32213E+01 5.52254E-03-3.05320E-03-1.02909E+00 1.52383E-13-1.79688E-13
 -1      1896 2.28797E+01 5.09001E-02 6.81696E-04-1.01471E+00 1.35430E-13-2.02912E-13
 -1      1897 2.27890E+01-4.62527E-02-5.18937E-03-1.29192E+00 1.71029E-13-7.92383E-14
 -1      1898 2.26389E+01 7.88278E-02 2.66203E-03-9.64977E-01 3.22160E-14-2.97814E-13
 -1      1899 2.23153E+01 9.69747E-02 9.69183E-04-9.15085E-01-5.34592E-14-3.51215E-13
 -1      1900 2.22743E+01 8.96934E-02-4.22632E-03-1.23975E+00 7.90866E-14-1.76934E-13
 -1      1901 2.21100E+01 1.06794E-01 5.57933E-03-8.40390E-01-1.03101E-13-4.47832E-13
 -1      1902 2.18244E+01 1.09249E-01 1.30198E-03-7.77988E-01-1.61950E-13-4.22335E-13
 -1      1903 2.18276E+01 1.48641E-01-3.54711E-03-1.09931E+00-9.73629E-14-3.36786E-13
 -1      1904 2.16517E+01 1.09211E-01 6.57930E-03-6.98084E-01-1.67656E-13-3.59829E-13
 -1      1905 2.14113E+01 1.03929E-01 1.51311E-03-6.35964E-01-1.30547E-13-4.76808E-13
 -1      1906 2.14466E+01 1.61834E-01-3.09937E-03-9.26997E-01-1.42165E-13-2.54981E-13
 -1      1907 2.12682E+01 9.92827E-02 6.45771E-03-5.61132E-01-2.47088E-14-4.81167E-13
 -1      1908 2.10725E+01 9.09811E-02 1.57206E-03-5.05353E-01 7.82048E-14-3.62294E-13
 -1      1909 2.11273E+01 1.51608E-01-2.76269E-03-7.54950E-01-7.75851E-14-1.58938E-13
 -1      1910 2.09558E+01 8.46932E-02 5.78095E-03-4.40048E-01 8.26518E-14-3.62524E-13
 -1      1911 2.08007E+01 7.58740E-02 1.51016E-03-3.92774E-01 4.21234E-15-2.65655E-13
 -1      1912 2.08645E+01 1.31553E-01-2.45848E-03-5.99065E-01 7.24902E-14-6.68823E-14
 -1      1913 2.07071E+01 6.94658E-02 4.89876E-03-3.38199E-01-1.12291E-14-1.53503E-13
 -1      1914 2.05866E+01 6.13068E-02 1.37261E-03-2.99573E-01 8.18308E-14-1.83479E-13
 -1      1915 2.06519E+01 1.09059E-01-2.15640E-03-4.65516E-01 1.45741E-13-4.21753E-14
 -1      1916 2.05128E+01 5.54704E-02 4.00341E-03-2.55286E-01 3.60871E-14-1.96519E-13
 -1      1917 2.04210E+01 4.84257E-02 1.19823E-03-2.24518E-01 4.09919E-14-1.57395E-13
 -1      1918 2.04828E+01 8.77213E-02-1.85471E-03-3.55178E-01 4.21895E-14-3.73415E-14
 -1      1919 2.03638E+01 4.34124E-02 3.18762E-03-1.89358E-01-6.17128E-16-2.57920E-13
 -1      1920 2.02949E+01 3.75708E-02 1.01436E-03-1.65321E-01-3.84556E-15-3.41821E-13
 -1      1921 2.03507E+01 6.90239E-02-1.56266E-03-2.66337E-01-6.44182E-14-7.53333E-14
 -1      1922 2.02513E+01 3.34138E-02 2.48700E-03-1.37897E-01-5.80109E-14-3.06772E-13
 -1      1923 2.02007E+01 2.86965E-02 8.37979E-04-1.19425E-01-2.04762E-14-2.64446E-13
 -1      1924 2.02491E+01 5.33622E-02-1.29069E-03-1.96219E-01-4.31842E-14-1.37987E-13
 -1      1925 2.01679E+01 2.53307E-02 1.90706E-03-9.83692E-02-7.70859E-14-2.43469E-13
 -1      1926 2.01314E+01 2.15943E-02 6.78324E-04-8.43863E-02-1.73680E-13-3.39371E-13
 -1      1927 2.01722E+01 4.06162E-02-1.04635E-03-1.41801E-01-3.49697E-14-1.28078E-13
 -1      1928 2.01074E+01 1.89175E-02 1.43905E-03-6.84607E-02-1.72871E-13-3.73870E-13
 -1      1929 2.00816E+01 1.60045E-02 5.39473E-04-5.80345E-02-9.23309E-14-2.73064E-13
 -1      1930 2.01152E+01 3.04545E-02-8.33509E-04-1.00212E-01-1.73269E-13-2.96896E-14
 -1      1931 2.00643E+01 1.39077E-02 1.06854E-03-4.61713E-02-8.47677E-14-2.92742E-13
 -1      1932 2.00467E+01 1.16689E-02 4.22262E-04-3.85201E-02-1.26227E-13-3.83747E-13
 -1      1933 2.00737E+01 2.24849E-02-6.52917E-04-6.89046E-02-1.08362E-13-1.94189E-14
 -1      1934 2.00345E+01 1.00492E-02 7.79878E-04-2.98258E-02-3.16927E-14-4.03729E-13
 -1      1935 2.00229E+01 8.35275E-03 3.25638E-04-2.43088E-02 2.90388E-14-3.16189E-13
 -1      1936 2.00441E+01 1.63246E-02-5.03104E-04-4.57007E-02-7.74886E-14-1.46488E-13
 -1      1937 2.00146E+01 7.11871E-03 5.58203E-04-1.80514E-02 1.36693E-13-3.26735E-13
 -1      1938 2.00074E+01 5.85198E-03 2.47524E-04-1.41529E-02 1.73409E-13-2.83291E-13
 -1      1939 2.00237E+01 1.16290E-02-3.81251E-04-2.87910E-02 6.89044E-14-3.49509E-13
 -1      1940 2.00020E+01 4.92499E-03 3.90331E-04-9.74287E-03 1.19571E-13-2.18277E-13
 -1      1941 1.99978E+01 3.99370E-03 1.85362E-04-7.05432E-03 4.83442E-14-1.92794E-13
 -1      1942 2.00101E+01 8.10062E-03-2.83869E-04-1.67006E-02 2.12731E-13-2.61218E-13
 -1      1943 1.99946E+01 3.30718E-03 2.64975E-04-4.02461E-03-9.97739E-14-1.67629E-13
 -1      1944 1.99926E+01 2.63328E-03 1.36424E-04-2.22726E-03 1.52345E-14-1.44783E-13
 -1      1945 2.00015E+01 5.48810E-03-2.07264E-04-8.24771E-03 9.28479E-15-1.19583E-13
 -1      1946 1.99908E+01 2.13133E-03 1.72692E-04-2.14719E-04 6.83289E-14-7.46275E-14
 -1      1947 1.99903E+01 1.65031E-03 9.79639E-05 9.34995E-04 2.20379E-13 4.04603E-14
 -1      1948 1.99966E+01 3.58176E-03-1.47844E-04-2.50200E-03 1.50824E-13-2.87358E-15
 -1      1949 1.99896E+01 1.28590E-03 1.05714E-04 2.20632E-03 4.57468E-13 7.91677E-14
 -1      1950 1.99900E+01 9.44093E-04 6.73109E-05 2.88916E-03 4.55282E-13 3.22248E-13
 -1      1951 1.99941E+01 2.20701E-03-1.02306E-04 1.25425E-03 3.88476E-13 2.83842E-13
 -1      1952 1.99899E+01 6.77236E-04 5.77524E-05 3.62183E-03 2.74089E-13 2.98288E-13
 -1      1953 1.99910E+01 4.29026E-04 4.19588E-05 3.96537E-03 3.23787E-13 3.87597E-13
 -1      1954 1.99933E+01 1.21773E-03-6.76900E-05 3.55948E-03 4.46148E-13 1.45876E-13
 -1      1955 1.99913E+01 2.24440E-04 2.40149E-05 4.29989E-03 1.68581E-13 3.24233E-13
 -1      1956 1.99926E+01 2.88046E-05 1.97090E-05 4.38541E-03 9.71241E-14 3.32406E-13
 -1      1957 1.99937E+01 4.88805E-04-4.15548E-05 4.80099E-03 2.57256E-13 1.35307E-13
 -1      1958 1.99932E+01-1.46267E-04 1.44035E-06 4.40743E-03-1.18737E-13 2.77733E-13
 -1      1959 1.99946E+01-3.24562E-04 8.63537E-07 4.27332E-03-1.81285E-13 1.83686E-13
 -1      1960 1.99947E+01-9.29787E-05-2.19696E-05 5.23660E-03-9.62603E-14 6.90652E-14
 -1      1961 1.99952E+01-5.06208E-04-1.30888E-05 4.03121E-03-6.79609E-14-9.62390E-15
 -1      1962 1.99965E+01-6.96146E-04-1.47001E-05 3.67608E-03 2.67240E-14-3.18707E-14
 -1      1963 1.99960E+01-6.20434E-04-7.63211E-06 5.01592E-03-2.49424E-13 1.48391E-13
 -1      1964 1.99971E+01-8.52625E-04-1.58564E-05 3.20899E-03 2.44610E-13-1.17844E-13
 -1      1965 1.99980E+01-1.06190E-03-2.90722E-05 2.64141E-03 1.84427E-13 1.36213E-14
 -1      1966 1.99985E+01-1.57841E-03 2.76541E-06 3.05987E-03 8.24958E-14-1.43351E-13
 -1      1967 1.99973E+01-1.15099E-03 3.06423E-06 4.24615E-03 9.46583E-14 6.69547E-15
 -1      1968 2.06145E+01 1.57845E-01 9.80071E-03-4.26598E-02 3.06056E-13 5.22922E-13
 -1      1969 2.07539E+01 2.16894E-01 1.74642E-02 1.42685E-01 3.26903E-13 6.56544E-13
 -1      1970 2.08980E+01 3.62483E-01-3.47221E-03 2.96912E-01 4.10966E-13 4.25119E-13
 -1      1971 2.06308E+01 8.98241E-02 8.03472E-03-2.76265E-01 2.35045E-13 3.78053E-13
 -1      1972 2.06017E+01 1.20310E-01 1.48213E-02-1.71216E-01 2.49991E-13 4.75103E-13
 -1      1973 2.07230E+01 1.87270E-01-3.89098E-03-1.36188E-01 3.10898E-13 3.06031E-13
 -1      1974 2.08226E+01 4.69189E-02 4.57071E-03-4.07866E-01 1.25533E-13 2.94582E-13
 -1      1975 2.06984E+01 6.74852E-02 8.60917E-03-3.46319E-01 1.70965E-13 3.48685E-13
 -1      1976 2.07674E+01 1.00637E-01-4.60978E-03-3.84604E-01 2.19386E-13 2.06820E-13
 -1      1977 2.11150E+01 8.67297E-03 1.63975E-03-4.64847E-01 6.86446E-14 2.22106E-13
 -1      1978 2.09422E+01 2.70833E-02 3.98779E-03-4.36191E-01 8.65647E-14 2.81543E-13
 -1      1979 2.09540E+01 4.06981E-02-4.38176E-03-5.17971E-01 1.17586E-13 1.40046E-13
 -1      1980 2.14446E+01-3.44621E-02-1.05909E-03-4.48888E-01 7.07294E-14 2.13626E-13
 -1      1981 2.12604E+01-1.46639E-02 7.48757E-04-4.53890E-01 6.54777E-14 2.28256E-13
 -1      1982 2.12216E+01-1.72445E-02-3.33140E-03-5.57933E-01 7.77696E-14 1.28077E-13
 -1      1983 2.17496E+01-8.59135E-02-3.63088E-03-3.49568E-01 5.16392E-14 1.45303E-13
 -1      1984 2.15899E+01-6.40251E-02-1.83563E-03-3.94361E-01 4.84933E-14 1.88897E-13
 -1      1985 2.15166E+01-8.39309E-02-1.69546E-03-5.01838E-01 8.86804E-14 8.56090E-14
 -1      1986 2.19644E+01-1.42117E-01-5.62853E-03-1.55481E-01 1.45693E-13 7.54238E-14
 -1      1987 2.18668E+01-1.20861E-01-4.04759E-03-2.46514E-01 1.10424E-13 1.40114E-13
 -1      1988 2.17847E+01-1.60331E-01 5.46118E-04-3.37576E-01 1.15740E-13 3.15707E-14
 -1      1989 2.20227E+01-1.89453E-01-6.18134E-03 1.31343E-01 3.31670E-14 8.47382E-14
 -1      1990 2.20233E+01-1.76129E-01-5.75335E-03-5.67872E-03 6.52811E-14 9.40950E-14
 -1      1991 2.19680E+01-2.35346E-01 3.41378E-03-5.84284E-02 9.98888E-14 4.55608E-14
 -1      1992 2.18699E+01-2.02950E-01-4.48671E-03 4.76590E-01 3.52027E-14 1.77880E-13
 -1      1993 2.19941E+01-2.09094E-01-6.52565E-03 3.09886E-01 4.86191E-14 1.54993E-13
 -1      1994 2.20076E+01-2.82388E-01 6.59373E-03 3.17490E-01 3.19814E-14 1.11794E-13
 -1      1995 2.14870E+01-1.53179E-01-7.72206E-04 7.97836E-01 3.86375E-14 1.54734E-13
 -1      1996 2.17361E+01-1.89840E-01-5.84506E-03 6.41510E-01 2.71007E-14 2.02479E-13
 -1      1997 2.18561E+01-2.62401E-01 9.00347E-03 7.25523E-01 3.68412E-14 1.47864E-13
 -1      1998 2.09214E+01-2.62569E-02 3.01263E-03 9.70384E-01 1.58452E-13 8.45955E-14
 -1      1999 2.12585E+01-9.38281E-02-3.32722E-03 8.84745E-01 9.59705E-14 1.31048E-13
 -1      2000 2.15045E+01-1.42077E-01 8.68812E-03 1.04445E+00 1.18771E-13 1.06345E-13
 -1      2001 2.03082E+01 1.50408E-01 4.06550E-03 8.74908E-01 6.30819E-14 4.19057E-14
 -1      2002 2.06543E+01 7.19363E-02 9.97704E-04 9.16212E-01 8.05905E-14 4.49276E-14
 -1      2003 2.10151E+01 7.33764E-02 4.09670E-03 1.12251E+00 1.22314E-13 7.35644E-14
 -1      2004 1.98486E+01 3.03237E-01 1.37545E-03 4.78741E-01-6.00900E-14 8.72661E-14
 -1      2005 2.00992E+01 2.50668E-01 6.27772E-03 6.60004E-01 6.89032E-15 2.91971E-14
 -1      2006 2.05357E+01 3.16130E-01-3.45410E-03 8.53601E-01 3.13768E-14 3.15728E-14
 -1      2007 1.97296E+01 3.51144E-01-2.58539E-03-1.07361E-01 3.30569E-14 4.41053E-16
 -1      2008 1.97940E+01 3.55391E-01 1.06174E-02 1.59413E-01-1.44277E-14 7.37780E-14
 -1      2009 2.02560E+01 4.75466E-01-9.26629E-03 2.69887E-01 1.23165E-15-4.89012E-14
 -1      2010 2.00176E+01 2.66973E-01-3.79349E-03-6.66222E-01 1.37486E-13-1.81462E-13
 -1      2011 1.98638E+01 3.27633E-01 1.17830E-02-4.14020E-01 1.08229E-13-9.60464E-14
 -1      2012 2.03080E+01 4.66876E-01-8.79809E-03-4.32579E-01 1.83097E-13-1.48546E-13
 -1      2013 2.06127E+01 1.00364E-01-1.25680E-03-9.97527E-01 8.57118E-14-1.95869E-13
 -1      2014 2.02866E+01 1.84929E-01 8.65816E-03-8.47517E-01 1.66867E-13-1.59870E-13
 -1      2015 2.06789E+01 2.95017E-01-3.25299E-03-9.89315E-01 1.76775E-13-1.97982E-13
 -1      2016 2.13099E+01-6.38584E-02 2.80864E-03-1.02674E+00-6.46382E-14-3.42597E-13
 -1      2017 2.09121E+01 5.46932E-03 2.61921E-03-1.00859E+00-2.00816E-14-2.62077E-13
 -1      2018 2.12210E+01 5.04527E-02 2.02810E-03-1.22149E+00 6.01248E-14-2.71601E-13
 -1      2019 2.19113E+01-1.65522E-01 5.52776E-03-8.14868E-01 4.60422E-14-3.51643E-13
 -1      2020 2.15475E+01-1.32389E-01-3.49356E-03-9.00380E-01-4.58314E-15-3.66227E-13
 -1      2021 2.17481E+01-1.56994E-01 3.93593E-03-1.11704E+00 2.01072E-14-4.42773E-13
 -1      2022 2.23012E+01-1.92841E-01 5.76066E-03-4.88423E-01 7.09589E-14-4.03967E-13
 -1      2023 2.20429E+01-1.94018E-01-7.45950E-03-6.23295E-01 4.90502E-14-3.73246E-13
 -1      2024 2.21271E+01-2.65531E-01 2.86956E-03-7.91799E-01 8.57439E-14-4.82611E-13
 -1      2025 2.24551E+01-1.67527E-01 4.25808E-03-1.62719E-01 2.28767E-13-4.74676E-13
 -1      2026 2.23272E+01-1.89088E-01-8.66783E-03-2.98457E-01 1.89959E-13-3.62724E-13
 -1      2027 2.23091E+01-2.75536E-01 1.05981E-03-3.95150E-01 2.01801E-13-4.75938E-13
 -1      2028 2.24085E+01-1.18971E-01 2.22954E-03 9.47692E-02 4.19473E-14-6.58428E-13
 -1      2029 2.23994E+01-1.46761E-01-7.75501E-03-1.35026E-02 1.61895E-13-5.26521E-13
 -1      2030 2.23085E+01-2.23544E-01-1.85374E-04-3.91041E-02 1.84654E-13-5.38576E-13
 -1      2031 2.22212E+01-6.89171E-02 5.39698E-04 2.62829E-01-1.91574E-13-4.82460E-13
 -1      2032 2.23005E+01-9.39401E-02-5.74701E-03 1.91190E-01-1.03051E-13-5.79869E-13
 -1      2033 2.21704E+01-1.49270E-01-6.79747E-04 2.22045E-01-6.56146E-14-5.11579E-13
 -1      2034 2.19527E+01-2.83581E-02-5.04945E-04 3.49269E-01-2.35679E-13-2.84604E-13
 -1      2035 2.20864E+01-4.68896E-02-3.49336E-03 3.11383E-01-2.20829E-13-3.65484E-13
 -1      2036 2.19455E+01-7.92939E-02-6.98663E-04 3.79593E-01-2.45623E-13-2.66949E-13
 -1      2037 2.16516E+01-2.85942E-04-9.68229E-04 3.74051E-01-1.34207E-13-1.96470E-13
 -1      2038 2.18102E+01-1.20082E-02-1.51636E-03 3.61906E-01-1.94387E-13-2.81106E-13
 -1      2039 2.16780E+01-2.55639E-02-5.59127E-04 4.49782E-01-2.22009E-13-2.59950E-13
 -1      2040 2.13521E+01 1.65396E-02-1.04020E-03 3.58500E-01 1.66380E-13-9.11502E-14
 -1      2041 2.15140E+01 1.03829E-02-3.67449E-05 3.63402E-01 3.09120E-14-1.58120E-13
 -1      2042 2.14011E+01 9.93085E-03-4.35332E-04 4.57234E-01-2.64698E-14-1.39267E-13
 -1      2043 2.10756E+01 2.48571E-02-9.04134E-04 3.20330E-01 4.15345E-14-1.07253E-13
 -1      2044 2.12270E+01 2.26373E-02 9.26234E-04 3.34980E-01 1.63899E-13-6.81570E-14
 -1      2045 2.11372E+01 3.00159E-02-3.75402E-04 4.25483E-01 1.53971E-13-4.86697E-14
 -1      2046 2.08332E+01 2.74487E-02-6.89444E-04 2.72320E-01-1.38344E-13-8.91621E-14
 -1      2047 2.09666E+01 2.77110E-02 1.45394E-03 2.91401E-01-9.68207E-14-1.34585E-13
 -1      2048 2.08996E+01 3.89155E-02-3.66582E-04 3.73111E-01-5.72228E-14 6.80663E-14
 -1      2049 2.06290E+01 2.65684E-02-4.70822E-04 2.22757E-01-3.28795E-14-3.17041E-14
 -1      2050 2.07415E+01 2.82100E-02 1.66002E-03 2.42780E-01-4.42589E-14-6.17601E-14
 -1      2051 2.06944E+01 4.05580E-02-3.80860E-04 3.13111E-01-5.14158E-14 5.34373E-14
 -1      2052 2.04625E+01 2.38354E-02-2.83415E-04 1.76464E-01-3.38191E-13-5.96438E-14
 -1      2053 2.05541E+01 2.61021E-02 1.65290E-03 1.95366E-01-2.30106E-13-1.23191E-13
 -1      2054 2.05232E+01 3.79864E-02-3.95631E-04 2.53687E-01-1.34428E-13 6.60758E-14
 -1      2055 2.03305E+01 2.03189E-02-1.38552E-04 1.35846E-01 3.49716E-14-2.38690E-13
 -1      2056 2.04028E+01 2.27362E-02 1.52002E-03 1.52567E-01-1.34756E-13-1.44685E-13
 -1      2057 2.03844E+01 3.33178E-02-3.98715E-04 1.99450E-01-8.16328E-14-1.46499E-13
 -1      2058 2.02284E+01 1.66737E-02-3.51969E-05 1.01753E-01 7.88584E-15-1.16882E-13
 -1      2059 2.02840E+01 1.89684E-02 1.32479E-03 1.15888E-01-2.09049E-14-2.85247E-13
 -1      2060 2.02747E+01 2.79098E-02-3.86587E-04 1.52554E-01 9.77181E-15-2.58541E-13
 -1      2061 2.01515E+01 1.32667E-02 3.29978E-05 7.41039E-02 1.73473E-13-1.17536E-14
 -1      2062 2.01931E+01 1.53006E-02 1.10947E-03 8.56436E-02 7.59759E-14 4.21445E-14
 -1      2063 2.01901E+01 2.25659E-02-3.60940E-04 1.13588E-01 2.16640E-14 4.26963E-15
 -1      2064 2.00950E+01 1.02767E-02 7.38364E-05 5.23151E-02 3.58356E-13 1.76671E-13
 -1      2065 2.01253E+01 1.19968E-02 8.99874E-04 6.14687E-02 2.77003E-13 1.30666E-13
 -1      2066 2.01264E+01 1.77147E-02-3.25752E-04 8.22219E-02 2.08798E-13 1.34018E-13
 -1      2067 2.00546E+01 7.76526E-03 9.47088E-05 3.55795E-02-5.48180E-14 1.51583E-13
 -1      2068 2.00760E+01 9.16915E-03 7.10181E-04 4.26585E-02 1.67900E-13 2.19667E-13
 -1      2069 2.00796E+01 1.35445E-02-2.85391E-04 5.76521E-02 1.92264E-13 3.66073E-13
 -1      2070 2.00268E+01 5.72623E-03 1.01831E-04 2.30340E-02-2.42026E-13 2.17085E-14
 -1      2071 2.00414E+01 6.83896E-03 5.46739E-04 2.83805E-02-1.75496E-13 1.16168E-13
 -1      2072 2.00462E+01 1.00993E-02-2.43635E-04 3.88764E-02-8.84870E-14 2.51094E-13
 -1      2073 2.00085E+01 4.11690E-03 1.00058E-04 1.38566E-02 2.78630E-13-9.75553E-14
 -1      2074 2.00179E+01 4.97636E-03 4.10996E-04 1.78016E-02-1.41936E-15-2.68026E-14
 -1      2075 2.00232E+01 7.34162E-03-2.03303E-04 2.48667E-02 6.85424E-15 4.36454E-14
 -1      2076 1.99971E+01 2.87815E-03 9.29610E-05 7.31534E-03-2.69249E-13-1.39928E-14
 -1      2077 2.00027E+01 3.52622E-03 3.01526E-04 1.01568E-02 1.30455E-14-1.15819E-13
 -1      2078 2.00079E+01 5.19330E-03-1.66238E-04 1.46646E-02 4.62532E-14 7.23643E-14
 -1      2079 1.99907E+01 1.94619E-03 8.30076E-05 2.78883E-03-3.03795E-14 2.63905E-13
 -1      2080 1.99937E+01 2.42376E-03 2.15398E-04 4.78184E-03-1.52082E-13 2.39731E-13
 -1      2081 1.99985E+01 3.56006E-03-1.33445E-04 7.42818E-03-3.45843E-13 2.30418E-13
 -1      2082 1.99879E+01 1.25908E-03 7.17492E-05-2.30482E-04-5.61301E-14 6.90132E-14
 -1      2083 1.99890E+01 1.60349E-03 1.49033E-04 1.12387E-03-8.63529E-14 1.69615E-13
 -1      2084 1.99932E+01 2.34582E-03-1.05282E-04 2.45046E-03-6.34369E-14 2.12093E-13
 -1      2085 1.99874E+01 7.59661E-04 5.99928E-05-2.14197E-03 1.32893E-13 1.67167E-13
 -1      2086 1.99873E+01 1.00381E-03 9.87195E-05-1.26032E-03 5.55260E-14 1.49926E-13
 -1      2087 1.99908E+01 1.45999E-03-8.16580E-05-8.40490E-04-1.16059E-14 1.81838E-13
 -1      2088 1.99885E+01 3.96155E-04 4.79534E-05-3.24617E-03 1.53157E-13 2.17013E-13
 -1      2089 1.99876E+01 5.68656E-04 6.09215E-05-2.71210E-03 1.83158E-13 2.64284E-13
 -1      2090 1.99904E+01 8.20265E-04-6.21733E-05-2.88928E-03 1.74944E-13 3.08540E-13
 -1      2091 1.99905E+01 1.20716E-04 3.54844E-05-3.75415E-03-7.60174E-14 4.86348E-14
 -1      2092 1.99891E+01 2.46985E-04 3.25045E-05-3.48042E-03-3.17159E-15 1.99335E-13
 -1      2093 1.99912E+01 3.52236E-04-4.62457E-05-4.02460E-03 2.74586E-14 3.86525E-13
 -1      2094 1.99928E+01-1.12781E-04 2.31204E-05-3.79404E-03 9.38814E-14 5.24581E-14
 -1      2095 1.99913E+01-9.58271E-06 1.11640E-05-3.73015E-03-1.66906E-14 3.97981E-14
 -1      2096 1.99928E+01-1.33920E-05-3.29056E-05-4.47033E-03-3.55396E-15 2.48802E-13
 -1      2097 1.99952E+01-3.48200E-04 1.21426E-05-3.41731E-03-7.13581E-16 2.53235E-13
 -1      2098 1.99938E+01-2.46802E-04-3.69235E-06-3.54821E-03 1.29924E-13 2.46568E-13
 -1      2099 1.99946E+01-3.41242E-04-2.00530E-05-4.35252E-03 1.45452E-14 1.65591E-13
 -1      2100 1.99973E+01-6.27290E-04-7.52260E-07-2.60790E-03-1.16067E-14-1.36532E-14
 -1      2101 1.99961E+01-5.03902E-04-9.80592E-06-2.95996E-03-1.08364E-14 1.79604E-13
 -1      2102 1.99965E+01-6.93561E-04-8.26299E-06-3.72767E-03 7.39190E-14 2.44442E-13
 -1      2103 1.99987E+01-8.93782E-04-1.55137E-05-1.69786E-03 1.46790E-13 2.06702E-13
 -1      2104 1.99978E+01-7.63687E-04-1.08557E-05-2.25461E-03 1.27749E-13 9.02768E-14
 -1      2105 1.99980E+01-1.03312E-03 5.17776E-06-2.89339E-03 5.29762E-14 3.74843E-13
 -1      2106 1.99989E+01-1.38188E-03 7.06502E-06-2.06087E-03 2.18467E-13 5.69499E-13
 -1      2107 2.00001E+01-6.34221E-03 7.34888E-06-3.40549E-03-3.64120E-14-1.27944E-13
 -1      2108 1.99999E+01-5.25715E-03-2.45964E-06-3.49380E-03-9.22904E-14-3.28897E-13
 -1      2109 1.99997E+01-4.51607E-03 2.75876E-06-3.48849E-03-1.18895E-13-3.02222E-13
 -1      2110 1.99994E+01-3.45385E-03-1.42707E-05-3.32346E-03-6.10035E-14 1.51678E-13
 -1      2111 1.99997E+01-4.14546E-03-6.79521E-06-4.30055E-03-2.51980E-13-2.84197E-13
 -1      2112 1.99992E+01-2.90474E-03-8.85562E-07-3.01619E-03 1.52209E-14 3.95395E-13
 -1      2113 1.99990E+01-1.97980E-03-1.87278E-05-2.56746E-03 2.31969E-13 4.34293E-13
 -1      2114 1.99986E+01-1.81312E-03-1.58853E-05-3.05456E-03 9.83807E-14 4.21794E-13
 -1      2115 1.99992E+01-2.90636E-03-5.20659E-06-3.94499E-03-1.64830E-13 1.60574E-13
 -1      2116 2.00003E+01-7.93560E-03 1.35763E-05-2.92589E-03-3.54374E-13-3.28487E-13
 -1      2117 2.00002E+01-6.97610E-03 1.39465E-05-3.17580E-03-2.35990E-13-1.01620E-13
 -1      2118 2.00003E+01-5.51195E-03-9.81576E-06-4.03742E-03-3.07349E-13-3.23029E-13
 -1      2119 2.00005E+01-9.21797E-03 1.98912E-05-2.17669E-03-1.91030E-13 1.09193E-13
 -1      2120 2.00004E+01-8.45539E-03 2.41371E-05-2.53385E-03-2.86690E-13 3.32523E-14
 -1      2121 2.00006E+01-6.67379E-03-1.32144E-05-3.34603E-03-3.55692E-13-2.27944E-13
 -1      2122 2.00005E+01-1.00631E-02 2.53478E-05-1.27361E-03-1.24318E-13 1.77130E-13
 -1      2123 2.00005E+01-9.57936E-03 2.96956E-05-1.68848E-03-1.29341E-13 2.00774E-13
 -1      2124 2.00008E+01-7.56377E-03-1.56071E-05-2.36920E-03-3.03929E-13 1.85247E-13
 -1      2125 2.00006E+01-1.04195E-02 2.95310E-05-2.94551E-04-1.61337E-13-6.30965E-14
 -1      2126 2.00006E+01-1.02508E-02 3.09918E-05-7.35594E-04-2.50025E-13 2.43300E-13
 -1      2127 2.00009E+01-8.12015E-03-1.65646E-05-1.23233E-03-2.70020E-13 1.40444E-13
 -1      2128 2.00006E+01-1.02670E-02 3.16474E-05 7.03974E-04-3.19492E-14-2.53445E-13
 -1      2129 2.00006E+01-1.04259E-02 2.92001E-05 2.60588E-04-6.27607E-14-1.18323E-14
 -1      2130 2.00010E+01-8.31687E-03-1.68797E-05-2.20631E-05-3.44759E-13 1.32199E-13
 -1      2131 2.00005E+01-9.61385E-03 3.05769E-05 1.66914E-03 8.29495E-14-1.60703E-13
 -1      2132 2.00005E+01-1.00908E-02 2.52083E-05 1.24796E-03 7.67913E-14-1.98206E-13
 -1      2133 2.00009E+01-8.14428E-03-1.67605E-05 1.19492E-03-5.98218E-14-1.96189E-13
 -1      2134 2.00004E+01-8.52116E-03 2.47061E-05 2.51959E-03-5.74919E-14-5.56388E-13
 -1      2135 2.00005E+01-9.26760E-03 2.00064E-05 2.15995E-03 1.18066E-13-3.29793E-13
 -1      2136 2.00008E+01-7.61248E-03-1.61109E-05 2.34111E-03-1.09783E-13-2.61083E-13
 -1      2137 2.00002E+01-7.03006E-03 1.34443E-05 3.18765E-03-1.30926E-13 1.91552E-13
 -1      2138 2.00003E+01-8.00597E-03 1.40198E-05 2.92534E-03-1.01121E-13-1.39094E-13
 -1      2139 2.00006E+01-6.74210E-03-1.43001E-05 3.33561E-03-1.24288E-13-3.97048E-13
 -1      2140 1.99999E+01-5.28580E-03-3.09235E-06 3.52083E-03-4.24854E-14 6.16543E-14
 -1      2141 2.00001E+01-6.37765E-03 8.02359E-06 3.42987E-03-1.14162E-13 2.34178E-13
 -1      2142 2.00003E+01-5.56913E-03-1.10228E-05 4.05974E-03-9.12134E-14 1.79434E-13
 -1      2143 1.99994E+01-3.45582E-03-1.65188E-05 3.38385E-03 5.32961E-14-3.05118E-13
 -1      2144 1.99997E+01-4.54053E-03 8.08984E-06 3.51931E-03 4.07893E-14-1.88172E-13
 -1      2145 1.99997E+01-4.17787E-03-3.37625E-06 4.33237E-03-1.09227E-13-2.42648E-14
 -1      2146 9.16623E+00-5.29643E+00-1.49146E-01 6.33500E+00 5.78426E-13 1.14352E-12
 -1      2147 5.87558E+00-6.81992E+00-4.09008E-01 5.08936E+00 4.03122E-13 1.00689E-12
 -1      2148 2.02424E-01-7.30965E+00-4.05951E-01 1.10006E+00-6.57530E-14 1.40749E-12
 -1      2149 1.15905E-01-7.38359E+00-4.18467E-01-4.19148E-01-3.90077E-13 1.50391E-12
 -1      2150 3.38579E+00-6.63046E+00-3.03647E-01 4.23675E+00 4.18998E-13 1.02723E-12
 -1      2151 1.55345E+00-7.33495E+00-4.16267E-01 2.94906E+00 1.19627E-14 1.14475E-12
 -1      2152 6.55252E+00-5.40121E+00-1.47386E-01 5.81254E+00-1.15241E-13 9.98313E-13
 -1      2153 1.73227E+01-3.51314E+00-4.28431E-03 7.04971E+00 8.37441E-13 8.54455E-13
 -1      2154 1.29210E+01-5.34289E+00-3.17423E-01 6.25639E+00 6.49814E-13 9.20458E-13
 -1      2155 2.62070E+01-1.39235E+00-4.42956E-02-5.19551E+00 7.28639E-13-1.00975E-12
 -1      2156 2.97263E+01-1.34643E-01 8.55109E-02-4.73830E+00 7.58754E-13-8.50542E-13
 -1      2157 3.23129E+00-7.09986E+00-3.78302E-01-3.95358E+00 1.07359E-13-9.88154E-13
 -1      2158 5.85710E+00-5.87488E+00-1.75998E-01-5.45381E+00 3.45668E-13-9.78384E-13
 -1      2159 2.58187E+01-7.23516E-01 1.61825E-01 6.39481E+00 9.46465E-13 7.84095E-13
 -1      2160 2.11035E+01-2.74454E+00-1.86436E-01 6.04694E+00 8.97227E-13 8.00748E-13
 -1      2161 1.95395E+01 4.15413E+00-2.86456E-02-1.24119E+00-3.81007E-13-6.38840E-13
 -1      2162 1.97893E+01 4.07074E+00-2.05729E-02-1.47748E+00-4.40600E-13-5.55611E-13
 -1      2163 2.01601E+01 3.37903E+00-1.36860E-02-1.40944E+00-4.74911E-13-4.68476E-13
 -1      2164 1.96343E+01 3.80400E+00-4.98705E-03-1.04799E+00-3.83697E-13-6.14125E-13
 -1      2165 3.79033E+01 4.97065E+00 3.35524E-01 2.47436E+00 1.12257E-12 1.84797E-13
 -1      2166 3.47071E+01 3.82070E+00 1.20447E-01 3.04634E+00 1.11096E-12 4.13114E-13
 -1      2167 3.99372E+01 6.86934E+00 2.89381E-01 6.19326E-01 1.19466E-12-1.61371E-13
 -1      2168 3.87752E+01 6.17649E+00 2.47126E-01 1.88531E+00 1.17034E-12 1.43607E-13
 -1      2169 3.51667E+01 5.93396E+00 3.08334E-01 1.46800E-02 1.12532E-12-2.53908E-13
 -1      2170 3.94178E+01 7.02251E+00 2.41901E-01-9.25961E-01 1.30607E-12-4.48669E-13
 -1      2171 3.95277E+01 7.36527E+00 2.53255E-01 1.71104E-01 1.27742E-12-1.48485E-13
 -1      2172 3.73950E+01 5.56989E+00 1.87879E-01-2.42214E+00 1.26554E-12-7.04714E-13
 -1      2173 3.95667E+01 6.34647E+00 3.14436E-01-1.40056E+00 1.29013E-12-4.32043E-13
 -1      2174 3.53484E+01 7.70144E+00 3.21452E-01 2.01107E-01 1.28875E-12-1.21958E-13
 -1      2175 3.22104E+01 2.25145E+00 1.12756E-02-3.39487E+00 9.62869E-13-8.14904E-13
 -1      2176 3.64889E+01 4.03254E+00 3.91131E-01-3.46440E+00 1.11167E-12-8.58369E-13
 -1      2177 8.93388E+00-6.32223E+00-3.66153E-01-5.84381E+00 4.88609E-13-9.32462E-13
 -1      2178 1.27285E+01-4.59589E+00-1.17393E-01-6.81956E+00 7.07101E-13-1.18337E-12
 -1      2179 2.66679E-02-7.87558E+00-4.72828E-01-8.47817E-01-1.17267E-13-1.02174E-12
 -1      2180 7.96337E-01-7.44609E+00-4.18031E-01-2.24582E+00 1.93734E-13-9.86822E-13
 -1      2181 1.66824E+00-6.60357E+00-2.89596E-01 2.62759E+00-3.36231E-13-1.02479E-12
 -1      2182 5.40166E-01-7.35716E+00-4.21885E-01 9.88722E-01-7.70495E-14-1.06926E-12
 -1      2183 7.02566E+00-6.11613E+00-2.37516E-01 5.49255E+00-5.70322E-13-1.04561E-12
 -1      2184 4.08549E+00-7.16074E+00-3.94676E-01 4.19745E+00-3.28737E-13-9.72500E-13
 -1      2185 1.54731E+01-4.95004E+00-8.56881E-02 6.88828E+00-5.39457E-13-1.01313E-12
 -1      2186 1.05747E+01-6.39461E+00-3.60732E-01 5.80671E+00-5.17808E-13-1.02041E-12
 -1      2187 1.12220E+01-5.74976E+00-6.86591E-02 6.64233E+00 3.88578E-15-8.60825E-13
 -1      2188 2.52386E+01-2.78077E+00 3.98256E-02 5.85333E+00-8.09575E-13-6.96332E-13
 -1      2189 2.02417E+01-4.54430E+00-1.97275E-01 5.77411E+00-6.03073E-13-8.81684E-13
 -1      2190 3.33304E+01 9.78842E-01 1.81753E-01 3.58128E+00-1.00857E-12-5.31020E-13
 -1      2191 2.87176E+01-1.15141E+00-9.46662E-02 3.92440E+00-9.39915E-13-5.54501E-13
 -1      2192 3.84491E+01 4.96647E+00 3.01625E-01 1.39746E+00-1.10917E-12-3.82749E-13
 -1      2193 3.50268E+01 3.24253E+00 3.88312E-02 1.98089E+00-1.09723E-12-5.30131E-13
 -1      2194 4.12020E+01 7.04473E+00 4.00066E-01 1.90463E-01-1.17584E-12-1.66256E-13
 -1      2195 3.91457E+01 6.60858E+00 1.78169E-01 9.93983E-01-1.16873E-12-3.35509E-13
 -1      2196 4.06249E+01 6.73442E+00 3.36596E-01-1.11882E+00-1.28902E-12 2.15938E-13
 -1      2197 4.16438E+01 6.98901E+00 3.64151E-01 3.89209E-02-1.19982E-12-1.24900E-13
 -1      2198 3.67162E+01 8.09976E+00 3.70770E-01 1.19880E-02-1.29374E-12-1.49943E-13
 -1      2199 3.65323E+01 3.91014E+00 1.31672E-01-2.54354E+00-1.34989E-12 4.00679E-13
 -1      2200 3.97447E+01 5.24730E+00 3.92906E-01-1.67087E+00-1.25194E-12 1.83575E-13
 -1      2201 3.06769E+01 4.56031E-01-2.86175E-02-3.78955E+00-1.20118E-12 5.37903E-13
 -1      2202 3.53598E+01 2.39200E+00 3.45601E-01-3.66905E+00-1.30568E-12 4.47420E-13
 -1      2203 3.45679E+01 2.58800E+00 2.33805E-01-3.55701E-01-1.04555E-12-2.10387E-13
 -1      2204 2.29341E+01-3.66142E+00-1.62417E-01-5.17128E+00-8.55538E-13 7.76323E-13
 -1      2205 2.77402E+01-1.61016E+00 1.42795E-01-5.29361E+00-1.03095E-12 7.20313E-13
 -1      2206 1.37154E+01-5.94404E+00-2.82489E-01-6.02898E+00-6.82565E-13 1.07228E-12
 -1      2207 1.85745E+01-4.54809E+00-4.04863E-02-6.64495E+00-6.96998E-13 1.06759E-12
 -1      2208 5.50802E+00-7.15902E+00-4.50192E-01-4.56789E+00-7.05602E-13 1.15510E-12
 -1      2209 9.13583E+00-5.66839E+00-1.84853E-01-6.01726E+00-7.90035E-13 1.03968E-12
 -1      2210 1.32621E+00-7.39850E+00-4.23001E-01-2.32471E+00-3.50830E-13 1.52228E-12
 -1      2211 3.08684E+00-6.88428E+00-3.28719E-01-3.67173E+00-7.88702E-13 1.48664E-12
 -1      2212 6.25448E+00-5.47931E+00-1.53436E-01-5.25535E+00-1.95954E-13 1.20060E-12
 -1      2213 3.25976E+01 2.00720E+00 2.19397E-01 4.82561E+00 1.01553E-12 5.94969E-13
 -1      2214 2.82889E+01 5.00572E-01-2.80052E-02 5.30152E+00 1.04444E-12 7.70384E-13
 -1      2215 2.80648E+01-1.78255E+00 1.40770E-01 4.09359E+00 5.40734E-13 1.85296E-13
 -1      2216 2.54148E+01-3.50682E+00 1.06053E-01-4.96679E+00 3.10418E-13-6.67133E-13
 -1      2217 1.74404E+01-5.33126E+00-4.28342E-02-6.82737E+00 1.96787E-13-9.30853E-13
 -1      2218 2.13781E+01 1.11555E+00-1.68637E-02-1.22323E+00-4.95180E-13 3.15997E-13
 -1      2219 2.12288E+01 1.36378E+00-2.16575E-02-1.18413E+00-5.25986E-13 4.51479E-14
 -1      2220 2.12218E+00-5.16364E+00-2.02446E-01 2.58742E+00-2.90157E-13 1.39344E-12
 -1      2221 1.33880E+01-5.60191E+00-7.17296E-02 6.97527E+00-4.08562E-14 7.58428E-13
 -1      2222 1.99992E+01-2.70896E-03-1.59761E-05 3.35398E-03 3.89473E-14-2.61378E-13
 -1      2223 1.98715E+00-5.15715E+00-2.05373E-01-1.87791E+00-2.42334E-13 1.64696E-12
 -1      2224 2.14662E+01-4.52637E+00 7.86530E-03 6.10115E+00 2.89546E-13 3.56187E-13
 -1      2225 3.12424E+01 1.06671E-01 1.28006E-01-2.18375E+00 5.83296E-13-3.45113E-13
 -1      2226 9.44915E+00-5.60607E+00-1.34429E-01-6.54391E+00-2.00950E-14-9.16989E-13
 -1      2227 1.37219E+01-5.81309E+00-2.19991E-02-6.65900E+00-6.73905E-14 7.60766E-13
 -1      2228 3.02026E+01-1.88217E+00 8.39762E-02-2.50451E+00-7.43267E-13 0.00000E+00
 -1      2229 3.66894E+01 6.42295E+00 3.18943E-01 4.77282E-01-1.26354E-12-1.49242E-13
 -1      2230 3.55895E+01 5.99596E+00 2.48150E-01-6.31584E-01-1.13132E-12-5.76761E-14
 -1      2231 3.33094E+01 1.33338E+00 1.54576E-01 5.02899E-01-8.63906E-13-1.58540E-13
 -1      2232 1.98480E+01-5.69406E+00-1.65388E-02 6.20629E+00-1.36557E-13-6.77736E-13
 -1      2233 4.65540E+00-5.03770E+00-1.36506E-01 4.27014E+00 7.35523E-15-1.05382E-12
 -1      2234 1.52284E+00-4.90044E+00-2.01484E-01 1.86604E-01-8.82072E-14-1.17073E-12
 -1      2235 3.47166E+01 4.78422E+00 2.56999E-01-4.31481E-01 1.04988E-12-1.16629E-13
 -1      2236 3.53998E+00-5.03019E+00-1.51614E-01-4.03211E+00-8.75966E-14-1.07392E-12
 -1      2237 3.57600E+01 7.97641E+00 2.91361E-01-4.13856E-02 1.31700E-12-2.05946E-13
 -1      2238 3.28513E+01 2.05721E+00 2.26115E-01 1.75789E+00 8.29149E-13-2.27596E-15
 -1      2239 2.82548E+01-3.22076E+00 8.29920E-02 3.44759E+00-5.19390E-13-1.83742E-13
 -1      2240 2.27922E+01-5.25020E+00 2.65679E-02-5.27074E+00-2.45526E-13 4.10394E-13
 -1      2241 2.09015E+01 5.46294E-01 6.06076E-03 2.36786E-01 4.06860E-13 2.00730E-13
 -1      2242 2.10683E+01 7.29510E-01 2.07612E-02 5.46700E-01 4.63272E-13 2.68337E-13
 -1      2243 1.89463E+01 3.95052E+00-1.08438E-02-3.50808E-01-1.20129E-13-6.93600E-13
 -1      2244 1.90654E+01 3.88917E+00-7.88890E-03-4.63959E-01-1.87816E-13-6.90351E-13
 -1      2245 1.92149E+01 3.76089E+00-1.37343E-02-5.50952E-01-2.36326E-13-6.74555E-13
 -1      2246 1.93992E+01 3.65321E+00-9.54825E-03-6.84168E-01-2.99752E-13-6.44835E-13
 -1      2247 1.92528E+01 3.51391E+00 2.93914E-03-4.14215E-01-1.98872E-13-6.33816E-13
 -1      2248 1.88117E+01 4.03771E+00-7.09165E-03 1.76634E-03 7.97636E-14-6.98578E-13
 -1      2249 1.87950E+01 4.04727E+00-8.56243E-03-1.01455E-01 2.61502E-14-7.11369E-13
 -1      2250 1.89383E+01 3.95171E+00-6.57003E-03 1.95086E-01 1.88679E-13-6.73549E-13
 -1      2251 1.88591E+01 3.99284E+00-9.84243E-03 8.13521E-02 1.24270E-13-6.91587E-13
 -1      2252 1.89342E+01 3.72851E+00 1.46089E-03 1.03941E-02 9.57369E-14-6.58140E-13
 -1      2253 1.91737E+01 3.78717E+00-7.23282E-03 4.18400E-01 2.83411E-13-6.41113E-13
 -1      2254 1.90417E+01 3.85911E+00-1.15787E-02 2.88618E-01 2.30449E-13-6.62335E-13
 -1      2255 1.91004E+01 3.59863E+00 1.12473E-03 1.74201E-01 1.96724E-13-6.24543E-13
 -1      2256 1.95119E+01 3.53135E+00-9.69945E-03 6.87446E-01 3.95121E-13-5.32555E-13
 -1      2257 1.93295E+01 3.64403E+00-1.38383E-02 5.32837E-01 3.28929E-13-5.87651E-13
 -1      2258 1.93804E+01 3.37653E+00 1.05841E-03 3.71927E-01 2.95800E-13-5.65989E-13
 -1      2259 1.99402E+01 3.16034E+00-1.52508E-02 9.93061E-01 5.02155E-13-4.18169E-13
 -1      2260 1.97140E+01 3.33188E+00-1.65964E-02 8.17869E-01 4.34731E-13-4.84421E-13
 -1      2261 1.97608E+01 3.05251E+00 2.02846E-03 6.03396E-01 4.02061E-13-4.64732E-13
 -1      2262 2.04576E+01 2.62065E+00-2.58693E-02 1.29930E+00 5.80773E-13-2.38816E-13
 -1      2263 2.01884E+01 2.88903E+00-1.88182E-02 1.12162E+00 5.23944E-13-3.35239E-13
 -1      2264 2.02216E+01 2.60539E+00 5.32112E-03 8.42331E-01 4.86451E-13-3.32800E-13
 -1      2265 2.10384E+01 9.82947E-01 1.37325E-02-3.90111E-01-4.18149E-13-8.35837E-14
 -1      2266 2.09358E+01 7.86545E-01 1.38416E-03-2.61293E-02-3.78115E-13-1.12705E-13
 -1      2267 1.64904E+01-5.56967E+00 1.45738E-02-6.80372E+00-1.06359E-13-6.66208E-13
 -1      2268 2.03812E+01-5.30197E+00-4.62298E-02-6.46065E+00-7.35523E-14-6.19671E-13
 -1      2269 2.08113E+01 3.17175E-01 6.58010E-03-2.04741E-01 3.04348E-13 1.32490E-13
 -1      2270 2.08566E+01 4.14509E-01 2.03141E-02-2.56391E-02 3.51540E-13 1.86344E-13
 -1      2271 2.08769E+01 6.93123E-01-4.48239E-03 1.71830E-01 4.18511E-13 3.27629E-14
 -1      2272 2.10133E+01 2.03033E+00-1.04989E-02-1.37155E+00-5.37860E-13-1.60528E-13
 -1      2273 2.09843E+01 1.31981E+00-3.37436E-03-7.18330E-01-4.84454E-13-1.21791E-13
 -1      2274 2.08289E+01 1.53849E+00 9.54702E-04-5.84186E-01-4.44339E-13-2.21092E-13
 -1      2275 2.06415E+01 2.49750E+00-5.93750E-03-1.28423E+00-5.29174E-13-3.01779E-13
 -1      2276 2.09237E+01 6.54059E-01 1.55010E-02 2.64796E-01-3.25402E-13-9.12607E-14
 -1      2277 2.09189E+01 5.55299E-01 5.63604E-03 5.09053E-01-2.75975E-13-1.07587E-13
 -1      2278 2.08206E+01 9.72896E-01-3.85102E-03 8.63010E-02-3.63464E-13-1.83827E-13
 -1      2279 2.09242E+01 4.88560E-01 1.00964E-02 7.37562E-01-2.33233E-13-8.82602E-14
 -1      2280 2.10091E+01 4.32824E-01 6.26038E-03 9.20306E-01-1.84546E-13-1.20243E-13
 -1      2281 2.07888E+01 7.05566E-01-5.16542E-03 6.42417E-01-2.65958E-13-1.60117E-13
 -1      2282 2.10518E+01 3.87809E-01 6.19814E-03 1.10477E+00-1.39145E-13-1.21742E-13
 -1      2283 2.12090E+01 3.41570E-01 5.60694E-03 1.24652E+00-1.05032E-13-1.08150E-13
 -1      2284 2.08302E+01 5.50717E-01-5.24642E-03 1.08341E+00-1.70284E-13-1.60658E-13
 -1      2285 2.12966E+01 2.91449E-01 4.55127E-03 1.39511E+00-1.02296E-13-1.09501E-13
 -1      2286 2.15109E+01 2.26875E-01 3.56351E-03 1.49556E+00-8.02927E-14-1.40285E-13
 -1      2287 2.09562E+01 4.21220E-01-5.49169E-03 1.43914E+00-1.23979E-13-1.82122E-13
 -1      2288 2.16560E+01 1.46103E-01 5.09366E-03 1.60162E+00-8.96806E-14-1.43584E-13
 -1      2289 2.19157E+01 3.38596E-02-4.65265E-04 1.64222E+00-6.23418E-14-1.58764E-13
 -1      2290 2.11781E+01 2.46464E-01-6.97227E-03 1.71410E+00-9.60933E-14-2.11677E-13
 -1      2291 2.21436E+01-1.04807E-01 7.97817E-03 1.68114E+00-3.99600E-14-1.66332E-13
 -1      2292 2.24379E+01-2.93908E-01-7.25206E-03 1.62542E+00-2.17918E-14-1.54529E-13
 -1      2293 2.15245E+01-4.62185E-02-1.07395E-02 1.88109E+00-6.95343E-14-2.22224E-13
 -1      2294 2.27888E+01-5.11785E-01 1.31393E-02 1.55012E+00-2.48078E-14-1.36474E-13
 -1      2295 2.31018E+01-7.89318E-01-1.71273E-02 1.34809E+00-3.68629E-14-1.23237E-13
 -1      2296 2.20524E+01-5.26422E-01-1.74162E-02 1.87432E+00-1.77404E-14-2.28337E-13
 -1      2297 2.36167E+01-1.07366E+00 1.87459E-02 1.08709E+00-6.45014E-15-6.94705E-14
 -1      2298 2.39128E+01-1.38721E+00-2.84355E-02 6.95464E-01 1.82736E-14-2.74589E-14
 -1      2299 2.28427E+01-1.21668E+00-2.54912E-02 1.58068E+00 9.31720E-15-1.43720E-13
 -1      2300 2.45783E+01-1.63331E+00 1.67631E-02 1.79537E-01 4.39128E-14 6.20129E-14
 -1      2301 2.47986E+01-1.80681E+00-3.41843E-02-3.82103E-01 6.66602E-14 1.11957E-13
 -1      2302 2.39479E+01-1.97376E+00-2.95815E-02 8.49109E-01 8.29189E-14 8.89783E-15
 -1      2303 2.54496E+01-1.76426E+00-5.45146E-03-1.12204E+00 4.02395E-14 1.78121E-13
 -1      2304 2.55308E+01-1.48118E+00-1.27877E-02-1.66519E+00 5.49907E-16 2.02722E-13
 -1      2305 2.52116E+01-2.36615E+00-5.05979E-02-4.36093E-01 8.50972E-14 2.11262E-13
 -1      2306 2.58976E+01-9.17226E-01-5.08349E-02-2.37169E+00-8.66464E-14 2.05834E-13
 -1      2307 2.57413E+01 2.51814E-02-4.69869E-03-2.57295E+00-2.14943E-13 1.42652E-13
 -1      2308 2.64303E+01-1.57425E+00-3.98312E-02-2.02856E+00-3.01668E-14 2.94136E-13
 -1      2309 2.55927E+01 1.09365E+00-1.17674E-01-2.52214E+00-3.66651E-13 6.90884E-14
 -1      2310 2.53998E+01 2.20472E+00-1.95837E-02-2.01733E+00-4.84342E-13-2.73219E-14
 -1      2311 2.68189E+01 7.85796E-01-2.90035E-02-2.82700E+00-3.40179E-13 2.01755E-13
 -1      2312 2.51298E+01 2.97606E+00-1.06248E-01-9.62637E-01-5.71362E-13-2.54981E-13
 -1      2313 2.51164E+01 3.24936E+00-7.08347E-02 7.95985E-02-6.35852E-13-3.55750E-13
 -1      2314 2.66184E+01 3.39548E+00-6.12654E-02-1.74027E+00-6.47829E-13-1.38486E-13
 -1      2315 2.51968E+01 2.89853E+00-5.33048E-02 1.39520E+00-6.15369E-13-5.51635E-13
 -1      2316 2.54249E+01 2.04434E+00-1.12528E-01 2.21305E+00-4.77292E-13-6.53162E-13
 -1      2317 2.64982E+01 3.99278E+00-8.02583E-02 7.86006E-01-7.36633E-13-4.81136E-13
 -1      2318 2.56875E+01 9.43598E-01-9.64641E-03 2.67813E+00-3.32213E-13-7.91998E-13
 -1      2319 2.59008E+01-1.53546E-01-8.65909E-02 2.75405E+00-2.29837E-13-8.35231E-13
 -1      2320 2.67853E+01 1.84983E+00-8.05379E-02 2.66658E+00-5.30131E-13-7.67240E-13
 -1      2321 2.57867E+01-1.00420E+00-1.40842E-02 2.31901E+00-1.54135E-13-8.57765E-13
 -1      2322 2.58303E+01-1.57051E+00-2.67233E-02 1.83851E+00-2.68587E-14-8.04991E-13
 -1      2323 2.67398E+01-7.48597E-01-1.18528E-02 2.55516E+00-1.81861E-13-8.69395E-13
 -1      2324 2.52726E+01-1.79311E+00-2.84422E-02 1.07928E+00 1.06453E-13-7.01645E-13
 -1      2325 2.51276E+01-1.77887E+00 1.06681E-02 4.75916E-01 2.05099E-13-6.28436E-13
 -1      2326 2.58857E+01-2.19174E+00-1.12235E-02 1.17494E+00 9.94621E-14-7.98198E-13
 -1      2327 2.44460E+01-1.59812E+00-2.92072E-02-1.42194E-01 2.26726E-13-5.77178E-13
 -1      2328 2.41866E+01-1.31564E+00 1.92159E-02-6.13700E-01 2.44871E-13-5.68679E-13
 -1      2329 2.45978E+01-2.19744E+00-2.03237E-02-2.30800E-01 2.70734E-13-6.01215E-13
 -1      2330 2.36140E+01-1.02175E+00-2.04002E-02-9.67211E-01 2.26215E-13-4.54284E-13
 -1      2331 2.33202E+01-7.20102E-01 1.57935E-02-1.24288E+00 2.11425E-13-3.03682E-13
 -1      2332 2.33891E+01-1.51349E+00-2.09583E-02-1.17060E+00 3.12454E-13-4.89567E-13
 -1      2333 2.29118E+01-4.71256E-01-1.07410E-02-1.38408E+00 2.03470E-13-2.40148E-13
 -1      2334 2.26253E+01-2.50263E-01 9.69630E-03-1.49507E+00 1.95792E-13-1.24571E-13
 -1      2335 2.24838E+01-7.71979E-01-1.60798E-02-1.61983E+00 2.37147E-13-2.12345E-13
 -1      2336 2.23513E+01-8.72289E-02-3.42659E-03-1.50209E+00 1.20792E-13-1.58545E-13
 -1      2337 2.20881E+01 4.36031E-02 5.01748E-03-1.50336E+00 1.37229E-13-1.62111E-13
 -1      2338 2.18622E+01-2.19567E-01-1.01573E-02-1.73612E+00 1.37799E-13-1.84572E-13
 -1      2339 2.19031E+01 1.31564E-01 1.30986E-03-1.43769E+00 9.57728E-14-1.62536E-13
 -1      2340 2.16683E+01 1.94232E-01 2.20735E-03-1.37797E+00 3.52372E-14-2.06805E-13
 -1      2341 2.14404E+01 1.13289E-01-5.70141E-03-1.65678E+00 6.33584E-14-2.84629E-13
 -1      2342 2.15368E+01 2.31102E-01 3.90784E-03-1.28000E+00-1.66044E-14-2.87873E-13
 -1      2343 2.13317E+01 2.51032E-01 7.77559E-04-1.19352E+00-1.14535E-13-2.85762E-13
 -1      2344 2.11417E+01 2.77051E-01-3.09599E-03-1.47920E+00-2.84912E-14-2.13347E-13
 -1      2345 2.12318E+01 2.57997E-01 5.02253E-03-1.08718E+00-9.79971E-14-1.57283E-13
 -1      2346 2.10564E+01 2.54567E-01 1.61089E-04-9.94845E-01-1.34690E-14-4.28129E-14
 -1      2347 2.09162E+01 3.32995E-01-1.82077E-03-1.26418E+00-2.36094E-14-2.38022E-14
 -1      2348 2.09765E+01 2.46240E-01 5.20978E-03-8.93150E-01-3.49458E-14-4.18063E-14
 -1      2349 2.08293E+01 2.31880E-01-4.17086E-05-8.06212E-01-6.53933E-14 2.09164E-14
 -1      2350 2.07359E+01 3.28873E-01-1.28794E-03-1.04695E+00-2.70644E-14 1.68742E-13
 -1      2351 2.07636E+01 2.17095E-01 4.87788E-03-7.15408E-01-1.90539E-14 1.26583E-13
 -1      2352 2.06426E+01 1.98951E-01-6.30906E-05-6.38977E-01 1.40391E-13 1.26151E-13
 -1      2353 2.05870E+01 2.95854E-01-1.09327E-03-8.46142E-01 3.75192E-14 3.85445E-13
 -1      2354 2.05880E+01 1.82555E-01 4.29908E-03-5.61334E-01 1.71258E-13 1.93092E-14
 -1      2355 2.04904E+01 1.64364E-01-2.22180E-05-4.96965E-01 9.77072E-14 3.16935E-14
 -1      2356 2.04627E+01 2.52169E-01-1.01623E-03-6.70166E-01 3.07171E-14 2.63892E-13
 -1      2357 2.04454E+01 1.48765E-01 3.64015E-03-4.32551E-01 6.35976E-14 5.38393E-15
 -1      2358 2.03681E+01 1.32261E-01 2.69753E-05-3.79924E-01 9.65809E-14 1.02315E-13
 -1      2359 2.03594E+01 2.07537E-01-9.58063E-04-5.21405E-01 9.95681E-14 2.23997E-13
 -1      2360 2.03314E+01 1.18489E-01 2.99466E-03-3.27695E-01-1.87643E-14 2.54057E-14
 -1      2361 2.02711E+01 1.04311E-01 6.45455E-05-2.85613E-01-1.24619E-13 4.75986E-14
 -1      2362 2.02745E+01 1.66596E-01-8.85328E-04-3.98933E-01-2.15012E-14 1.45124E-13
 -1      2363 2.02418E+01 9.26703E-02 2.40936E-03-2.44048E-01-1.77456E-13 4.56485E-14
 -1      2364 2.01956E+01 8.08993E-02 8.63833E-05-2.11004E-01-2.74142E-14 3.50793E-14
 -1      2365 2.02059E+01 1.31160E-01-7.94233E-04-3.00189E-01-1.32064E-13 2.33692E-13
 -1      2366 2.01725E+01 7.13358E-02 1.90294E-03-1.78463E-01 7.28238E-14-5.85848E-14
 -1      2367 2.01377E+01 6.17918E-02 9.46954E-05-1.52927E-01-7.74461E-14 9.92735E-15
 -1      2368 2.01513E+01 1.01572E-01-6.91633E-04-2.21973E-01-8.17002E-14 1.55739E-13
 -1      2369 2.01198E+01 5.40961E-02 1.47843E-03-1.27836E-01-2.12964E-13 4.57516E-14
 -1      2370 2.00941E+01 4.64981E-02 9.34316E-05-1.08398E-01-1.32489E-13 1.21123E-13
 -1      2371 2.01088E+01 7.74715E-02-5.86203E-04-1.60996E-01-1.14982E-13 5.23056E-14
 -1      2372 2.00806E+01 4.04081E-02 1.13080E-03-8.93407E-02-1.05361E-13 1.88203E-13
 -1      2373 2.00620E+01 3.44527E-02 8.63400E-05-7.47685E-02-9.00960E-14 1.54122E-13
 -1      2374 2.00762E+01 5.82094E-02-4.85014E-04-1.14176E-01-6.85281E-14 3.16192E-13
 -1      2375 2.00519E+01 2.97043E-02 8.51396E-04-6.05156E-02-1.36340E-13 2.19758E-13
 -1      2376 2.00387E+01 2.51032E-02 7.63132E-05-4.97648E-02-1.58634E-13 1.16441E-13
 -1      2377 2.00517E+01 4.30578E-02-3.92702E-04-7.87680E-02-1.38925E-13 3.45781E-13
 -1      2378 2.00314E+01 2.14529E-02 6.30420E-04-3.92800E-02-1.80568E-13-1.96921E-14
 -1      2379 2.00224E+01 1.79484E-02 6.53070E-05-3.14868E-02 5.58026E-14-1.48936E-13
 -1      2380 2.00337E+01 3.13123E-02-3.11687E-04-5.24113E-02-2.26117E-13 3.56582E-13
 -1      2381 2.00173E+01 1.51819E-02 4.58239E-04-2.39142E-02 3.16380E-13-3.02790E-13
 -1      2382 2.00113E+01 1.25512E-02 5.44725E-05-1.83774E-02 2.19699E-13-2.30808E-13
 -1      2383 2.00208E+01 2.23360E-02-2.42721E-04-3.31254E-02 1.10596E-13 3.39097E-14
 -1      2384 2.00078E+01 1.04846E-02 3.26025E-04-1.30232E-02 1.69802E-13-1.61062E-13
 -1      2385 2.00041E+01 8.53844E-03 4.43370E-05-9.18366E-03 1.50438E-13 1.42974E-13
 -1      2386 2.00118E+01 1.55736E-02-1.85446E-04-1.92829E-02 2.90387E-13 1.37800E-13
 -1      2387 2.00018E+01 7.01613E-03 2.26023E-04-5.49560E-03 1.02703E-13 1.29319E-13
 -1      2388 1.99997E+01 5.59583E-03 3.49755E-05-2.91553E-03 2.66754E-13 2.68927E-13
 -1      2389 2.00057E+01 1.05513E-02-1.38839E-04-9.57131E-03 1.29575E-13 3.52847E-13
 -1      2390 1.99983E+01 4.48708E-03 1.51649E-04-4.62951E-04 2.97718E-13 2.26419E-13
 -1      2391 1.99973E+01 3.45938E-03 2.60930E-05 1.19247E-03 3.65798E-13 2.57464E-13
 -1      2392 2.00019E+01 6.86953E-03-1.01561E-04-2.95289E-03 2.15115E-13 3.08409E-13
 -1      2393 1.99965E+01 2.65374E-03 9.74081E-05 2.73650E-03 4.54976E-13 1.12286E-13
 -1      2394 1.99963E+01 1.90645E-03 1.72377E-05 3.71482E-03 3.38469E-13 5.65757E-14
 -1      2395 1.99996E+01 4.19133E-03-7.22681E-05 1.37471E-03 2.88075E-13 1.69384E-13
 -1      2396 1.99960E+01 1.31009E-03 5.86683E-05 4.58964E-03 2.29387E-13-5.38737E-14
 -1      2397 1.99962E+01 7.48273E-04 8.67323E-06 5.06474E-03 2.03535E-13 5.79900E-14
 -1      2398 1.99984E+01 2.23397E-03-4.91113E-05 4.01270E-03 1.29543E-13 7.74034E-14
 -1      2399 1.99962E+01 2.76326E-04 3.11199E-05 5.44009E-03 9.31796E-14 2.87579E-14
 -1      2400 1.99967E+01-1.85351E-04 2.08254E-08 5.52308E-03-2.02278E-13 6.62487E-14
 -1      2401 1.99980E+01 7.58717E-04-3.07898E-05 5.39317E-03 1.00650E-13 1.45384E-13
 -1      2402 1.99969E+01-6.12554E-04 1.20640E-05 5.49685E-03-4.27182E-13 1.44548E-13
 -1      2403 1.99975E+01-1.02159E-03-6.00559E-06 5.24366E-03-3.36273E-13 1.44433E-13
 -1      2404 1.99981E+01-4.79105E-04-2.28033E-05 5.82133E-03-2.98123E-13 3.99958E-14
 -1      2405 9.32958E+00-4.24324E+00 3.22628E-02 6.54872E+00-3.87718E-13 8.16958E-13
 -1      2406 6.82541E+00-3.92076E+00 7.81211E-02 5.35095E+00-4.52582E-13 9.14990E-13
 -1      2407 2.10143E+01 7.26285E-02 9.41959E-04-6.26368E-01 1.07464E-13 2.35673E-14
 -1      2408 2.09097E+01 1.27218E-01 7.75259E-03-5.75428E-01 1.60120E-13 6.31253E-14
 -1      2409 2.12406E+01-3.81298E-02-2.47231E-03-6.67508E-01 8.07417E-14-1.46896E-14
 -1      2410 2.11086E+01 2.06768E-02 4.81437E-03-6.66836E-01 8.22935E-14 1.28419E-14
 -1      2411 2.10086E+01 6.55508E-02-5.16640E-03-7.39878E-01 1.20709E-13-7.14165E-14
 -1      2412 2.15005E+01-1.66022E-01-6.34372E-03-5.92926E-01 9.64654E-14-8.91919E-15
 -1      2413 2.13687E+01-9.73418E-02 3.11970E-03-6.47485E-01 8.50357E-14-2.29200E-16
 -1      2414 2.12257E+01-9.57635E-02-4.30532E-03-7.71423E-01 8.91990E-14-1.09582E-13
 -1      2415 2.17543E+01-3.09724E-01-1.02201E-02-3.87976E-01 1.13190E-13-3.14516E-15
 -1      2416 2.16504E+01-2.34125E-01 1.91212E-03-5.04222E-01 9.86880E-14 1.76538E-14
 -1      2417 2.14966E+01-2.79796E-01-3.19798E-03-6.66128E-01 1.01890E-13-5.86221E-14
 -1      2418 2.19567E+01-4.45644E-01-1.29062E-02-4.63339E-02 4.62824E-14 5.94896E-14
 -1      2419 2.19085E+01-3.78697E-01 4.92379E-04-2.23490E-01 9.46907E-14 4.90556E-14
 -1      2420 2.17931E+01-4.77531E-01-1.45250E-03-4.07283E-01 7.15595E-14 2.95160E-14
 -1      2421 2.20567E+01-5.21237E-01-1.23772E-02 4.07065E-01 2.80730E-14 8.42694E-14
 -1      2422 2.20877E+01-4.93934E-01-1.79396E-03 1.88468E-01 3.49577E-14 8.16212E-14
 -1      2423 2.20737E+01-6.46518E-01 1.48151E-03 9.07130E-03 6.29176E-14 5.21222E-14
 -1      2424 2.20041E+01-4.61345E-01-6.62050E-03 8.89064E-01 7.20227E-14 7.07325E-14
 -1      2425 2.21248E+01-5.13717E-01-5.20275E-03 6.78082E-01 4.23008E-14 9.07255E-14
 -1      2426 2.22763E+01-7.05094E-01 5.93619E-03 5.45725E-01 5.59643E-14 2.30038E-14
 -1      2427 2.17737E+01-2.05660E-01 4.05046E-03 1.24516E+00 1.33150E-13 5.07038E-14
 -1      2428 2.19686E+01-3.62453E-01-9.05609E-03 1.11994E+00 1.02115E-13 6.28447E-14
 -1      2429 2.23242E+01-5.52051E-01 1.05148E-02 1.09084E+00 1.04849E-13 1.43815E-14
 -1      2430 2.14045E+01 2.22667E-01 1.48865E-02 1.28462E+00 7.39322E-14 1.33318E-14
 -1      2431 2.16246E+01-1.06104E-02-1.09174E-02 1.32602E+00 1.18260E-13 1.13624E-14
 -1      2432 2.21634E+01-1.32521E-01 1.08636E-02 1.44629E+00 1.29025E-13-1.28025E-14
 -1      2433 2.10293E+01 6.68941E-01 1.85582E-02 8.86778E-01 3.12129E-14-2.79299E-14
 -1      2434 2.11999E+01 4.55033E-01-7.33965E-03 1.12493E+00 6.87558E-14 1.88057E-14
 -1      2435 2.18319E+01 4.71599E-01 3.14750E-03 1.38611E+00 4.82338E-14-5.94489E-14
 -1      2436 2.08361E+01 9.03720E-01 1.16349E-02 1.26411E-01 9.52806E-14-1.35382E-13
 -1      2437 2.08885E+01 8.25712E-01 2.51388E-03 4.95961E-01 1.00475E-14-6.23195E-14
 -1      2438 2.14981E+01 1.01517E+00-9.38634E-03 8.06316E-01 8.16066E-14-1.18322E-13
 -1      2439 2.09526E+01 7.87210E-01-2.14639E-04-7.10384E-01 2.55997E-13-2.18124E-13
 -1      2440 2.08597E+01 8.92046E-01 1.38030E-02-3.52279E-01 2.17306E-13-1.34418E-13
 -1      2441 2.13802E+01 1.21418E+00-1.52337E-02-1.32429E-01 1.60527E-13-2.25602E-13
 -1      2442 2.13355E+01 3.92089E-01-8.73976E-03-1.28721E+00 1.64799E-13-3.02152E-13
 -1      2443 2.11297E+01 6.14764E-01 1.82999E-02-1.07516E+00 2.40489E-13-2.29737E-13
 -1      2444 2.15718E+01 9.54325E-01-8.42002E-03-1.04072E+00 2.53131E-13-2.74143E-13
 -1      2445 2.18019E+01-6.12217E-02-1.02713E-02-1.42984E+00 3.89617E-14-3.67898E-13
 -1      2446 2.15543E+01 1.60541E-01 1.24733E-02-1.41182E+00 1.06766E-13-2.98446E-13
 -1      2447 2.19503E+01 3.87966E-01 3.68758E-03-1.55081E+00 1.34259E-13-3.84353E-13
 -1      2448 2.21663E+01-3.80628E-01-7.01362E-03-1.18879E+00 1.98608E-14-3.69016E-13
 -1      2449 2.19496E+01-2.44024E-01 1.33246E-03-1.32317E+00 7.38277E-15-3.48745E-13
 -1      2450 2.22943E+01-1.95071E-01 1.02703E-02-1.54695E+00 1.09457E-14-3.82477E-13
 -1      2451 2.23374E+01-5.01052E-01-3.00187E-03-7.43344E-01 1.27488E-13-4.46882E-13
 -1      2452 2.21974E+01-4.65356E-01-8.29892E-03-9.48430E-01 1.09567E-13-3.64087E-13
 -1      2453 2.24545E+01-5.71967E-01 9.23220E-03-1.16151E+00 7.51001E-14-4.06971E-13
 -1      2454 2.23211E+01-4.64436E-01-1.79215E-04-2.72174E-01 1.68672E-13-3.88327E-13
 -1      2455 2.22701E+01-4.99212E-01-1.27717E-02-4.76132E-01 1.23461E-13-4.28502E-13
 -1      2456 2.24105E+01-6.86584E-01 4.91885E-03-6.21392E-01 1.30667E-13-3.68025E-13
 -1      2457 2.21694E+01-3.48065E-01 1.09543E-03 1.14755E-01 1.29935E-13-2.62436E-13
 -1      2458 2.21964E+01-4.13570E-01-1.26219E-02-4.69267E-02 2.02661E-13-2.32344E-13
 -1      2459 2.22216E+01-6.08840E-01 1.06899E-03-1.08987E-01 1.09721E-13-1.01150E-13
 -1      2460 2.19394E+01-2.15119E-01 1.40370E-03 3.77537E-01-1.85215E-13-1.78909E-13
 -1      2461 2.20229E+01-2.82469E-01-9.90357E-03 2.71172E-01 2.80761E-14-2.50672E-13
 -1      2462 2.19595E+01-4.41291E-01-1.18700E-03 2.82205E-01 1.74166E-14-5.52964E-14
 -1      2463 2.16759E+01-1.00968E-01 1.31419E-03 5.21543E-01-2.62184E-13-1.83037E-13
 -1      2464 2.17933E+01-1.55673E-01-6.39856E-03 4.66034E-01-2.69949E-13-1.72609E-13
 -1      2465 2.16770E+01-2.62361E-01-2.02279E-03 5.30084E-01-2.04415E-13-1.05010E-13
 -1      2466 2.14088E+01-1.80660E-02 1.12329E-03 5.72416E-01-2.40346E-13-1.28253E-13
 -1      2467 2.15410E+01-5.61482E-02-3.19996E-03 5.55846E-01-2.65084E-13-1.66502E-13
 -1      2468 2.14042E+01-1.13669E-01-2.11223E-03 6.52207E-01-2.60793E-13-2.07627E-13
 -1      2469 2.11565E+01 3.43415E-02 9.53118E-04 5.59791E-01 2.38728E-14-1.24606E-13
 -1      2470 2.12893E+01 1.13235E-02-7.57589E-04 5.69178E-01-8.92106E-14-1.46770E-13
 -1      2471 2.11551E+01-8.14402E-03-1.93709E-03 6.80592E-01-1.73186E-13-1.36277E-13
 -1      2472 2.09290E+01 6.24710E-02 8.27538E-04 5.09425E-01 2.67298E-14-4.07133E-14
 -1      2473 2.10532E+01 5.09604E-02 8.71921E-04 5.33771E-01 6.42396E-14-1.35754E-13
 -1      2474 2.09352E+01 5.70221E-02-1.72109E-03 6.47533E-01 2.65322E-14-2.73759E-13
 -1      2475 2.07310E+01 7.35331E-02 7.34348E-04 4.40684E-01-6.24564E-14 2.29452E-14
 -1      2476 2.08414E+01 6.98640E-02 1.81068E-03 4.71873E-01 2.35215E-14 5.81972E-14
 -1      2477 2.07454E+01 9.07566E-02-1.53195E-03 5.79568E-01-1.55375E-14-3.54992E-14
 -1      2478 2.05636E+01 7.37557E-02 6.57264E-04 3.66698E-01-1.42468E-13 8.00880E-14
 -1      2479 2.06579E+01 7.49138E-02 2.23437E-03 3.99334E-01-1.04907E-13-8.94217E-15
 -1      2480 2.05846E+01 1.02737E-01-1.37250E-03 4.96054E-01-7.39559E-14 4.82275E-14
 -1      2481 2.04255E+01 6.78188E-02 5.85749E-04 2.95551E-01-4.07073E-14-4.38383E-14
 -1      2482 2.05036E+01 7.16043E-02 2.31081E-03 3.26393E-01-4.49038E-14 8.30121E-14
 -1      2483 2.04509E+01 1.01109E-01-1.22938E-03 4.09854E-01-6.37186E-14 1.53893E-14
 -1      2484 2.03141E+01 5.89368E-02 5.15494E-04 2.31644E-01 2.30827E-14-1.95484E-13
 -1      2485 2.03770E+01 6.38723E-02 2.17583E-03 2.58997E-01-4.40918E-14-9.68335E-14
 -1      2486 2.03416E+01 9.19096E-02-1.09190E-03 3.28724E-01 3.08065E-14-1.41162E-13
 -1      2487 2.02263E+01 4.91594E-02 4.46174E-04 1.76890E-01-7.21549E-14-6.21372E-14
 -1      2488 2.02757E+01 5.43234E-02 1.92885E-03 2.00086E-01 2.44870E-14-6.20614E-14
 -1      2489 2.02538E+01 7.92432E-02-9.55929E-04 2.56751E-01-4.88807E-14-7.71369E-14
 -1      2490 2.01585E+01 3.96952E-02 3.79280E-04 1.31634E-01 5.28354E-14 6.43869E-14
 -1      2491 2.01963E+01 4.45596E-02 1.63715E-03 1.50635E-01-1.15029E-13-6.92349E-14
 -1      2492 2.01845E+01 6.57009E-02-8.22296E-04 1.95560E-01-6.67392E-14 8.90220E-14
 -1      2493 2.01072E+01 3.11825E-02 3.16690E-04 9.53126E-02 1.44758E-13 1.82148E-13
 -1      2494 2.01355E+01 3.54818E-02 1.34300E-03 1.10438E-01 1.97753E-13 1.19630E-13
 -1      2495 2.01308E+01 5.27899E-02-6.94143E-04 1.45235E-01 5.81654E-14 1.29487E-13
 -1      2496 2.00693E+01 2.38932E-02 2.59939E-04 6.69008E-02 9.19547E-15 3.92837E-13
 -1      2497 2.00899E+01 2.75279E-02 1.07059E-03 7.86401E-02 5.07527E-14 2.58387E-13
 -1      2498 2.00900E+01 4.12877E-02-5.74932E-04 1.04981E-01 2.93555E-14 2.08087E-13
 -1      2499 2.00420E+01 1.78765E-02 2.09954E-04 4.51960E-02-7.72231E-14 2.53837E-13
 -1      2500 2.00566E+01 2.08462E-02 8.31847E-04 5.40939E-02 5.01773E-14 3.49387E-13
 -1      2501 2.00596E+01 3.15058E-02-4.67368E-04 7.35647E-02 2.48623E-14 3.02124E-13
 -1      2502 2.00229E+01 1.30561E-02 1.67039E-04 2.89926E-02 1.80303E-13-8.92101E-15
 -1      2503 2.00328E+01 1.54146E-02 6.30813E-04 3.55813E-02-3.37383E-14 1.24227E-13
 -1      2504 2.00374E+01 2.34752E-02-3.73008E-04 4.96024E-02 1.37485E-13 1.13304E-13
 -1      2505 2.00100E+01 9.29188E-03 1.30970E-04 1.71792E-02-1.27149E-13 1.47898E-13
 -1      2506 2.00165E+01 1.11189E-02 4.66784E-04 2.19406E-02 1.80899E-13 9.87180E-14
 -1      2507 2.00218E+01 1.70701E-02-2.92298E-04 3.17340E-02 7.59753E-14 8.98217E-14
 -1      2508 2.00019E+01 6.41945E-03 1.01114E-04 8.78563E-03-3.30122E-13-2.19514E-14
 -1      2509 2.00058E+01 7.80318E-03 3.36452E-04 1.21348E-02-3.56750E-13 3.71833E-14
 -1      2510 2.00111E+01 1.20883E-02-2.24796E-04 1.87179E-02-2.13073E-13 1.08512E-13
 -1      2511 1.99971E+01 4.27201E-03 7.65447E-05 3.00013E-03-5.50615E-14-4.83050E-14
 -1      2512 1.99992E+01 5.29923E-03 2.35306E-04 5.28026E-03-1.48890E-13-8.41108E-14
 -1      2513 2.00040E+01 8.29955E-03-1.69448E-04 9.47797E-03-1.73941E-13-3.54175E-13
 -1      2514 1.99947E+01 2.69215E-03 5.61193E-05-8.31865E-04 5.37896E-14-1.18869E-13
 -1      2515 1.99955E+01 3.44356E-03 1.58504E-04 6.52481E-04 4.20889E-15-8.38796E-14
 -1      2516 1.99998E+01 5.47413E-03-1.24825E-04 3.11794E-03-5.81243E-14-2.07306E-13
 -1      2517 1.99939E+01 1.53651E-03 3.85909E-05-3.21761E-03 2.30419E-14 1.54850E-13
 -1      2518 1.99939E+01 2.08501E-03 1.01391E-04-2.32064E-03 1.10025E-13 6.76055E-14
 -1      2519 1.99974E+01 3.39660E-03-8.94125E-05-1.08141E-03-1.24160E-14-2.64854E-13
 -1      2520 1.99942E+01 6.75658E-04 2.26470E-05-4.53109E-03 1.10994E-14 2.73010E-13
 -1      2521 1.99937E+01 1.08706E-03 5.97940E-05-4.07178E-03-8.09225E-15 4.03213E-13
 -1      2522 1.99964E+01 1.87173E-03-6.16447E-05-3.67478E-03-9.48286E-14 1.10892E-13
 -1      2523 1.99951E+01-8.26173E-06 8.42235E-06-5.02667E-03 1.23500E-14 2.73722E-13
 -1      2524 1.99943E+01 3.25306E-04 3.01729E-05-4.90910E-03 1.32882E-14 3.52547E-13
 -1      2525 1.99963E+01 7.22819E-04-4.03276E-05-5.07014E-03 5.82706E-14 2.90107E-13
 -1      2526 1.99964E+01-6.29744E-04-4.78419E-06-4.85567E-03 1.09339E-13 1.78913E-13
 -1      2527 1.99955E+01-3.21343E-04 8.23509E-06-5.03345E-03 7.55159E-14 2.72805E-13
 -1      2528 1.99968E+01-2.02122E-04-2.24203E-05-5.54759E-03 1.22822E-13 3.02788E-13
 -1      2529 1.99976E+01-1.25937E-03-1.83426E-05-4.09172E-03-3.11327E-14 1.88602E-13
 -1      2530 1.99968E+01-9.31880E-04-1.07545E-06-4.53393E-03-1.24394E-14 2.37742E-13
 -1      2531 1.99975E+01-1.08369E-03-8.97487E-06-5.28702E-03 1.04390E-14 2.21698E-13
 -1      2532 1.99981E+01-1.57186E-03-6.83372E-06-3.43782E-03-2.16741E-14 3.32001E-13
 -1      2533 2.00012E+01-5.44871E-03 1.22095E-05-3.43440E-03-2.90798E-13-1.22850E-14
 -1      2534 2.00010E+01-4.94890E-03 1.02804E-05-3.88100E-03-3.09489E-13-2.69942E-13
 -1      2535 2.00014E+01-5.97139E-03 1.37512E-05-2.30196E-03-2.27860E-13 3.00486E-13
 -1      2536 2.00013E+01-5.61938E-03 1.52600E-05-2.86005E-03-3.16412E-13 4.20928E-13
 -1      2537 2.00017E+01-3.98654E-03-4.56310E-06-3.41028E-03-1.49187E-13 1.94010E-13
 -1      2538 2.00000E+01-3.73468E-03 1.25988E-05-4.77787E-03-1.96596E-13-4.66002E-13
 -1      2539 1.99995E+01-3.04809E-03-1.81282E-05-4.78679E-03-1.04154E-13-2.42609E-13
 -1      2540 2.00007E+01-4.69260E-03 1.10649E-05-4.31183E-03-4.36898E-13-2.97334E-13
 -1      2541 2.00004E+01-4.08771E-03 5.08212E-07-4.57133E-03-2.79620E-13-3.36741E-13
 -1      2542 2.00003E+01-3.00292E-03-5.20650E-06-5.11188E-03-1.35947E-13-4.42720E-13
 -1      2543 2.00012E+01-3.58083E-03-4.68414E-06-4.45172E-03-2.77679E-13-1.02100E-13
 -1      2544 2.00016E+01-6.25307E-03 1.58564E-05-1.03404E-03-4.12053E-13 1.20897E-13
 -1      2545 2.00015E+01-6.06906E-03 1.73847E-05-1.64982E-03-1.93838E-13-2.86985E-15
 -1      2546 2.00020E+01-4.24164E-03-2.83003E-06-2.13747E-03-2.41638E-13 2.00592E-13
 -1      2547 2.00016E+01-6.29515E-03 1.79097E-05 2.89545E-04-2.42027E-13 1.22478E-13
 -1      2548 2.00016E+01-6.28992E-03 1.70784E-05-3.46013E-04-4.03905E-13 3.07245E-13
 -1      2549 2.00021E+01-4.37096E-03-1.68987E-06-7.48189E-04-3.36865E-13 1.79872E-13
 -1      2550 2.00015E+01-6.10076E-03 1.86884E-05 1.60467E-03-1.07835E-13-9.41802E-14
 -1      2551 2.00016E+01-6.27549E-03 1.53777E-05 9.81989E-04-2.88450E-13-9.62088E-15
 -1      2552 2.00022E+01-4.38724E-03-1.69889E-06 6.81829E-04-2.04147E-13 7.33308E-14
 -1      2553 2.00014E+01-5.68014E-03 1.61966E-05 2.81995E-03-1.14183E-13-3.91388E-13
 -1      2554 2.00015E+01-6.01967E-03 1.37267E-05 2.25890E-03-6.17140E-14-2.32974E-13
 -1      2555 2.00020E+01-4.28900E-03-2.72442E-06 2.07757E-03-1.09911E-13-3.76667E-14
 -1      2556 2.00010E+01-5.02450E-03 8.89357E-06 3.87612E-03 8.46683E-15-2.64229E-13
 -1      2557 2.00012E+01-5.51690E-03 1.29088E-05 3.41294E-03-4.11457E-14-5.41555E-13
 -1      2558 2.00018E+01-4.05726E-03-4.73564E-06 3.37403E-03-1.11847E-13-4.30251E-13
 -1      2559 2.00004E+01-4.15799E-03-4.55066E-06 4.60106E-03-1.95330E-13 2.65428E-13
 -1      2560 2.00008E+01-4.75801E-03 1.42618E-05 4.32391E-03-1.42011E-13-5.01628E-15
 -1      2561 2.00012E+01-3.64679E-03-1.71847E-06 4.47017E-03-5.97900E-14-2.84716E-13
 -1      2562 1.99995E+01-3.09209E-03-1.44609E-05 4.80959E-03-2.82153E-13-2.10511E-13
 -1      2563 2.00000E+01-3.77649E-03 1.10554E-05 4.82097E-03-2.87975E-13 1.29328E-13
 -1      2564 2.00004E+01-3.06519E-03-6.37572E-06 5.15411E-03-3.22457E-13 1.97332E-13
 -1      2565 1.99987E+01-2.36738E-03-2.46525E-06 4.06918E-03 8.87592E-15-2.06555E-13
 -1      2566 3.02460E+00-2.98337E+00 6.51589E-02-7.83421E-01-1.12754E-13 1.43852E-12
 -1      2567 4.30255E+00-3.17671E+00 6.34520E-02-3.14055E+00-3.31124E-14 1.43996E-12
 -1      2568 2.08589E+01 1.80751E-01 3.97575E-03-4.76514E-01 2.15703E-13 7.32587E-14
 -1      2569 2.08113E+01 2.44337E-01 1.28831E-02-3.71797E-01 2.59489E-13 1.27071E-13
 -1      2570 2.08672E+01 2.19470E-01-5.73006E-03-5.82058E-01 2.31188E-13-1.97663E-14
 -1      2571 1.69937E+01-5.19509E+00 2.55441E-02 7.02251E+00-3.48999E-13 3.41203E-13
 -1      2572 1.33019E+01-4.93363E+00 8.19352E-02 6.83005E+00-4.73649E-13 5.79467E-13
 -1      2573 2.41063E+01-4.57434E+00-2.75201E-02 5.10374E+00 6.20615E-14-2.65621E-14
 -1      2574 2.04761E+01-5.32387E+00 5.19015E-03 5.93892E+00-1.55265E-13 1.04916E-13
 -1      2575 2.90242E+01-1.99772E+00-7.36243E-02 2.59755E+00 3.64514E-13-1.52101E-13
 -1      2576 2.66939E+01-3.36161E+00-3.22422E-02 3.42361E+00 2.14898E-13-1.50963E-13
 -1      2577 2.91306E+01-1.71829E+00-2.28195E-02-1.37508E+00 2.43031E-13-1.23512E-14
 -1      2578 3.10234E+01 4.42343E-01-1.17211E-01-3.94076E-01 5.09343E-13 7.58282E-14
 -1      2579 3.27761E+01 5.99497E+00-1.64407E-01-1.04825E+00-1.15136E-12 4.30211E-16
 -1      2580 3.23696E+01 4.36601E+00-8.64810E-02-1.56249E+00-9.75608E-13 2.33147E-14
 -1      2581 7.52797E+00-3.91182E+00 5.30909E-02 5.45435E+00 1.23651E-13-8.81240E-13
 -1      2582 4.99066E+00-3.21633E+00 8.47498E-02 3.51723E+00 1.37168E-13-9.73666E-13
 -1      2583 1.26431E+01-5.03658E+00 8.77763E-02-6.36142E+00 3.00926E-13 6.11566E-13
 -1      2584 1.66063E+01-5.49512E+00-5.80525E-02-6.65116E+00 3.32762E-13 4.35804E-13
 -1      2585 2.38787E+01-4.83516E+00 2.31343E-02-4.89525E+00-3.94129E-14-4.53804E-13
 -1      2586 2.67108E+01-3.90199E+00-1.31409E-01-3.65166E+00 7.48290E-14-2.40030E-13
 -1      2587 1.88118E+01 4.03943E+00-8.59329E-03-1.73410E-01-1.01455E-14-7.14115E-13
 -1      2588 1.88626E+01 4.01571E+00-7.80109E-03-2.76175E-01-6.50509E-14-7.07892E-13
 -1      2589 1.90033E+01 3.69566E+00 2.37228E-03-2.66276E-01-7.93998E-14-6.49283E-13
 -1      2590 1.88977E+01 3.76386E+00 1.92147E-03-1.31123E-01 3.80970E-15-6.70254E-13
 -1      2591 3.22040E+01 5.73266E+00-1.48769E-01-9.15098E-01 1.06803E-12-3.89411E-13
 -1      2592 3.16677E+01 4.38767E+00-1.12797E-01-9.83754E-01 9.04526E-13-4.30517E-13
 -1      2593 3.62489E+00-3.53765E+00 3.66111E-02-2.80595E+00-1.70322E-13-1.05432E-12
 -1      2594 5.85621E+00-3.33875E+00 7.03999E-02-4.70532E+00-2.12608E-13-9.59732E-13
 -1      2595 3.17125E+01 6.15322E+00-1.28545E-01 9.59983E-01 1.10811E-12 1.18211E-13
 -1      2596 3.13020E+01 6.91799E+00-2.21221E-01 6.33541E-01 1.18366E-12 4.30489E-14
 -1      2597 9.63668E+00-4.32154E+00 9.28985E-02-6.40769E+00-2.27041E-13-8.54039E-13
 -1      2598 1.29344E+01-5.06263E+00 3.17503E-02-7.19217E+00-8.02136E-14-7.65804E-13
 -1      2599 1.62298E+01-5.06748E+00 8.26617E-02-6.81471E+00-3.14165E-13-5.91957E-13
 -1      2600 4.27062E+00-3.42704E+00 3.85730E-02 3.86751E+00-3.63432E-13 1.10878E-12
 -1      2601 2.85270E+00-3.20958E+00 4.43799E-02 1.57004E+00-3.84998E-13 1.34298E-12
 -1      2602 7.05087E+00-2.60634E+00 1.41667E-01 4.58144E+00-5.26412E-13 1.03237E-12
 -1      2603 3.15696E+01 7.52456E+00-2.00175E-01-1.51593E-01 1.22552E-12-1.58772E-13
 -1      2604 3.21334E+01 7.05850E+00-1.28306E-01-5.98602E-01 1.16879E-12-2.50855E-13
 -1      2605 2.97555E+01 6.12185E+00-6.47211E-02-1.28504E+00 9.86516E-13-3.03493E-13
 -1      2606 3.18316E+01 2.23292E+00-1.42611E-01-2.08239E-01 7.11320E-13-4.28574E-13
 -1      2607 3.05570E+01 1.73937E-01-3.74067E-02 1.00637E+00 5.09905E-13-3.06255E-13
 -1      2608 2.95163E+01-1.28741E+00-3.07100E-03 5.69471E-01 2.46291E-13-5.37292E-13
 -1      2609 3.14411E+01 2.77313E+00-1.11159E-01 5.47109E-01 7.63889E-13 1.78052E-13
 -1      2610 3.19854E+01 4.65703E+00-1.69688E-01 8.94510E-01 9.80799E-13 2.10221E-13
 -1      2611 2.97553E+01 4.82591E+00-2.56591E-02 1.59277E+00 8.55455E-13 3.57256E-13
 -1      2612 2.99131E+01 9.40600E-01-4.37648E-02 1.00571E+00 4.73371E-13 3.45113E-13
 -1      2613 3.51827E+00-2.62823E+00 9.61554E-02 1.35416E+00-1.93040E-14-1.04039E-12
 -1      2614 3.02450E+00-3.08950E+00 4.29900E-02-9.60373E-01-4.23411E-14-1.07120E-12
 -1      2615 5.20472E+00-1.82707E+00 1.63957E-01-1.72183E+00-1.31208E-13-1.00558E-12
 -1      2616 1.35112E+01-5.10271E+00 1.45614E-02 6.74255E+00 1.96371E-13-7.10321E-13
 -1      2617 1.01260E+01-4.74315E+00 5.26132E-02 6.17094E+00 1.74860E-13-7.88314E-13
 -1      2618 1.01114E+01-3.44297E+00 1.48226E-01 5.64655E+00 2.89990E-13-7.63722E-13
 -1      2619 2.17475E+01-5.61773E+00 9.63168E-02-5.09709E+00 2.95208E-13 3.59573E-14
 -1      2620 2.55373E+01-5.18922E+00-7.84952E-02-3.97430E+00-7.52176E-15-1.57818E-13
 -1      2621 2.29189E+01-5.55008E+00-5.48015E-02 5.36496E+00 4.62685E-14-2.52784E-13
 -1      2622 1.86742E+01-5.70826E+00 6.16921E-02 6.22056E+00 1.80300E-13-5.06776E-13
 -1      2623 3.21753E+01 1.57952E+00-1.67027E-01-1.06888E+00-7.71938E-13 8.71803E-14
 -1      2624 3.09709E+01-6.62711E-01-5.23311E-02-1.87374E-01-5.99035E-13 3.38063E-14
 -1      2625 3.32399E+01 7.07445E+00-1.19892E-01 4.45219E-01-1.25144E-12-2.29733E-13
 -1      2626 3.27089E+01 7.04974E+00-1.57281E-01-2.86858E-01-1.17373E-12-2.13780E-13
 -1      2627 3.31222E+01 4.89516E+00-9.75078E-02 1.35269E+00-1.10856E-12-4.50084E-13
 -1      2628 3.35721E+01 6.43499E+00-1.25007E-01 9.98014E-01-1.19854E-12-3.34843E-13
 -1      2629 3.20113E+01 7.84491E-01-5.77656E-02 5.41786E-01-8.38343E-13-4.14002E-13
 -1      2630 3.29435E+01 2.52842E+00-1.40331E-01 1.07343E+00-9.86822E-13-4.28546E-13
 -1      2631 2.83462E+01-3.44691E+00-1.78616E-02-1.92834E+00-3.69454E-13-2.91461E-13
 -1      2632 3.10114E+01-1.50016E+00-7.71425E-02-7.42678E-01-6.53068E-13-3.78475E-13
 -1      2633 6.41144E+00-3.89557E+00 7.09840E-02-4.69883E+00 2.57988E-13 1.13565E-12
 -1      2634 8.89745E+00-4.30276E+00 1.97685E-02-5.96989E+00 2.12358E-13 7.80043E-13
 -1      2635 1.24228E+01-3.92277E+00 1.59008E-01-6.05781E+00 5.67824E-13 6.18477E-13
 -1      2636 6.97499E+00-2.39128E+00 1.64117E-01-3.81600E+00 3.44197E-13 1.07506E-12
 -1      2637 2.92066E+01-3.22944E+00-1.57753E-01 1.67667E+00-3.15331E-13 2.14273E-14
 -1      2638 2.65376E+01-4.67341E+00 1.14945E-02 3.10708E+00-1.05860E-13 2.02616E-15
 -1      2639 2.11136E+01 8.90438E-01-4.18892E-03 8.30343E-01 5.23252E-13 3.08119E-13
 -1      2640 2.13791E+01 1.25794E+00-4.98192E-03 1.34177E+00 5.56079E-13 3.90601E-13
 -1      2641 2.11481E+01 1.72002E+00-1.59898E-02 1.49924E+00 5.93474E-13 1.90145E-13
 -1      2642 2.10146E+01 1.09255E+00-1.02486E-02 7.67925E-01 5.28473E-13 9.81312E-14
 -1      2643 3.03608E+01 2.82703E+00-4.70579E-02-1.31668E+00 6.84119E-13-5.69350E-13
 -1      2644 1.96366E+01 3.20712E+00 4.51627E-03-5.87039E-01-3.12493E-13-5.73121E-13
 -1      2645 1.96087E+01 3.45386E+00-1.76399E-02-7.85979E-01-3.37904E-13-6.07929E-13
 -1      2646 1.98518E+01 3.29828E+00-1.32609E-02-9.46508E-01-4.14924E-13-5.65300E-13
 -1      2647 2.08486E+01 2.14329E+00-1.27602E-02 1.42026E+00 5.81502E-13-3.73104E-14
 -1      2648 2.28225E+01-5.31983E+00 6.80230E-02-5.24230E+00-3.00066E-13-3.25073E-13
 -1      2649 2.03336E+01 2.77821E+00-1.34921E-02-1.11979E+00-4.71994E-13-4.20643E-13
 -1      2650 2.71384E+01-4.58726E+00-3.02741E-02-1.99017E+00 7.44960E-14-4.36706E-13
 -1      2651 2.53402E+01-5.25611E+00 5.71170E-02 3.56484E+00 1.73139E-13 8.20177E-15
 -1      2652 1.31373E+01-4.02651E+00 1.29966E-01 6.59464E+00-5.77705E-13 5.74346E-13
 -1      2653 1.99984E+01-1.90750E-03-1.33214E-05-4.29371E-03-1.17497E-13 2.04399E-13
 -1      2654 2.58442E+01-4.43379E+00 3.08494E-02 3.48967E+00-7.63833E-14-2.76418E-13
 -1      2655 1.99988E+01-2.40437E-03 7.52519E-06-4.59315E-03-1.43847E-13 1.19992E-13
 -1      2656 3.06272E+01-1.01109E+00-3.94171E-02 8.81683E-01-5.88508E-13-5.69489E-13
 -1      2657 1.99981E+01-1.63515E-03-1.91283E-05 4.53813E-03-7.56556E-15 2.18416E-14
 -1      2658 1.99990E+01-2.59748E-03 5.07388E-07 4.87056E-03-1.13677E-13-9.04374E-14
 -1      2659 1.99992E+01-2.20099E-03 4.52324E-06 5.36672E-03-2.49851E-13 7.42817E-14
 -1      2660 1.99976E+01-1.31129E-03-6.33402E-06 5.02712E-03-1.94581E-13 1.08402E-13
 -1      2661 3.15240E+01 3.39219E+00-4.36715E-02 2.02444E+00-9.69475E-13-5.20944E-13
 -1      2662 3.09321E+01 6.26983E+00-5.13637E-02 1.01833E+00-1.09560E-12-3.67179E-13
 -1      2663 4.76342E+00-1.79568E+00 1.56330E-01 3.77790E-01-2.21287E-13 1.29741E-12
 -1      2664 2.08213E+01 4.03759E-01-5.44080E-03-2.89995E-01 3.17416E-13 1.34376E-14
 -1      2665 2.00643E+01-5.29483E+00 6.32117E-02 5.94780E+00-5.10120E-13 1.21042E-13
 -1      2666 3.10459E+01 2.58404E+00 7.04762E-03-2.02958E+00-7.83845E-13 1.71696E-13
 -1      2667 8.70438E+00-3.37316E+00 1.31056E-01-5.69273E+00-2.69479E-13-9.27147E-13
 -1      2668 1.15816E+01-3.28275E+00 9.98881E-02-6.14339E+00-3.53439E-13-7.81264E-13
 -1      2669 8.05993E+00-2.18670E+00 1.32704E-01-4.69232E+00-2.63067E-13-8.80851E-13
 -1      2670 6.06922E+00-1.96755E+00 1.69674E-01 2.53898E+00 1.39402E-13-9.83380E-13
 -1      2671 1.99989E+01-2.07928E-03-7.28456E-06-5.19050E-03-4.18176E-14-6.60019E-14
 -1      2672 2.97123E+01-2.29214E+00 2.84271E-02-4.24806E-01-2.29601E-13 2.00867E-13
 -1      2673 3.06792E+01 6.06055E+00-5.20286E-02-9.85027E-01-1.04386E-12-1.25275E-13
 -1      2674 2.79707E+01-3.15602E+00 1.09942E-02-1.71021E+00 9.10383E-15 6.39211E-14
 -1      2675 2.03189E+01-5.32339E+00 8.64905E-02-5.41802E+00 5.08066E-13 4.03666E-14
 -1      2676 2.08250E+01 1.87076E+00 1.18866E-02 1.06580E+00 5.40445E-13-8.26084E-14
 -1      2677 1.99984E+01-1.42558E-03-1.46582E-05 5.57244E-03-3.68139E-13 2.01880E-13
 -1      2678 2.93580E+01 6.78350E+00-9.09580E-02 3.82021E-01 1.06837E-12 1.47521E-14
 -1      2679 1.70716E+01-5.27844E+00 7.23041E-02 6.46548E+00 2.95902E-13-5.29417E-13
 -1      2680 1.55737E+01-4.28882E+00 1.38793E-01 6.29370E+00 3.66623E-13-4.72802E-13
 -1      2681 2.00120E+01-5.21012E+00 2.55887E-02 5.53618E+00 4.32848E-13-2.44790E-13
 -1      2682 1.92077E+01 3.25029E+00-3.58815E-03 1.27117E-01 2.11827E-13-5.71628E-13
 -1      2683 1.90860E+01 3.33454E+00-7.37017E-03 4.43882E-02 1.57721E-13-5.83376E-13
 -1      2684 1.89946E+01 3.42185E+00-3.72806E-03 1.32918E-03 1.12260E-13-6.17326E-13
 -1      2685 1.89348E+01 3.46113E+00-6.57710E-03-6.74376E-02 6.22489E-14-6.23005E-13
 -1      2686 1.91094E+01 3.11103E+00 5.11589E-03-4.40410E-02 1.27665E-13-5.66801E-13
 -1      2687 1.99344E+01 2.59055E+00-7.59738E-03 4.77653E-01 4.04601E-13-4.05139E-13
 -1      2688 1.97234E+01 2.78398E+00-8.18693E-03 3.66556E-01 3.45055E-13-4.53664E-13
 -1      2689 2.03978E+01 2.07127E+00-8.88458E-03 6.50417E-01 4.72804E-13-2.86145E-13
 -1      2690 2.01605E+01 2.34885E+00-6.60784E-03 5.55706E-01 4.31406E-13-3.49020E-13
 -1      2691 2.01408E+01 2.14554E+00 5.43073E-03 3.05881E-01 3.85068E-13-3.27589E-13
 -1      2692 2.76597E+01 5.86213E+00-1.99238E-01-1.03274E+00 8.92619E-13-2.07258E-13
 -1      2693 2.80548E+01 4.85226E+00-1.19110E-01-1.84248E+00 7.93920E-13-3.80140E-13
 -1      2694 1.99991E+01-1.24753E-03 1.37556E-05 5.73615E-03-3.40705E-13 1.26505E-13
 -1      2695 1.99992E+01-1.71102E-03-2.24843E-06 5.53352E-03-1.76152E-13 1.80507E-13
 -1      2696 1.99999E+01-2.11085E-03-9.42119E-06 5.54404E-03-2.59027E-13 7.15674E-14
 -1      2697 2.06705E+01 1.34447E+00 4.58689E-03-9.17518E-02-3.48316E-13-2.77482E-13
 -1      2698 2.06374E+01 1.14104E+00-1.62522E-03 2.29634E-01-3.04899E-13-2.58781E-13
 -1      2699 2.07883E+01 8.28576E-01-1.28687E-03 4.68972E-02 3.79602E-13-8.65664E-14
 -1      2700 2.08583E+01 1.04392E+00 9.82273E-03 3.43141E-01 4.28723E-13-6.54201E-14
 -1      2701 2.11934E+01-1.49740E-01-3.68979E-03-8.70329E-01 9.03211E-14-9.58698E-14
 -1      2702 2.10836E+01-2.82906E-02 7.26809E-03-8.79788E-01 9.44078E-14-7.60670E-14
 -1      2703 2.06249E+01 9.90226E-01 6.55944E-03 4.99206E-01-2.64288E-13-2.40394E-13
 -1      2704 2.06149E+01 8.72665E-01 5.94731E-04 7.53498E-01-2.21854E-13-2.30055E-13
 -1      2705 2.04328E+01 1.30807E+00-1.91616E-03 3.46719E-01-2.77777E-13-3.26496E-13
 -1      2706 2.05893E+01 7.82404E-01 4.42016E-03 9.84171E-01-1.88694E-13-2.19218E-13
 -1      2707 2.06236E+01 7.01939E-01 2.69998E-03 1.18860E+00-1.59611E-13-2.47950E-13
 -1      2708 2.03740E+01 1.02926E+00-9.26289E-04 8.62188E-01-2.16931E-13-2.80318E-13
 -1      2709 2.06052E+01 6.27108E-01 2.93401E-03 1.38760E+00-1.38592E-13-2.32487E-13
 -1      2710 2.06867E+01 5.45006E-01 3.84016E-03 1.55260E+00-9.91995E-14-2.31804E-13
 -1      2711 2.03185E+01 8.27005E-01-2.16168E-03 1.30395E+00-1.61418E-13-2.78472E-13
 -1      2712 2.06971E+01 4.48236E-01 3.26707E-03 1.72652E+00-6.71121E-14-2.32564E-13
 -1      2713 2.08338E+01 3.24008E-01 4.41081E-03 1.84904E+00-8.10248E-14-2.42584E-13
 -1      2714 2.02987E+01 6.24227E-01-3.79070E-03 1.68972E+00-9.88387E-14-2.59553E-13
 -1      2715 2.09059E+01 1.64844E-01 6.18642E-03 1.99466E+00-7.77465E-14-2.21782E-13
 -1      2716 2.11175E+01-4.67568E-02 4.24009E-03 2.05658E+00-2.92259E-14-2.34908E-13
 -1      2717 2.03584E+01 3.26918E-01-7.67033E-03 2.02653E+00-6.90032E-14-2.76018E-13
 -1      2718 2.13092E+01-3.11483E-01 1.29357E-02 2.15559E+00-2.48814E-15-1.96654E-13
 -1      2719 2.16288E+01-6.54966E-01 2.20430E-03 2.12011E+00 1.98335E-14-1.86384E-13
 -1      2720 2.05752E+01-1.67958E-01-1.54082E-02 2.30277E+00 1.33884E-14-2.33581E-13
 -1      2721 2.20333E+01-1.05490E+00 2.51753E-02 2.12388E+00 6.49580E-14-1.50660E-13
 -1      2722 2.24928E+01-1.54212E+00-4.23005E-03 1.93072E+00 8.09838E-14-8.33238E-14
 -1      2723 2.10843E+01-9.65866E-01-2.90286E-02 2.46805E+00 6.01322E-14-1.22641E-13
 -1      2724 2.32317E+01-2.03713E+00 4.34981E-02 1.73166E+00 1.38713E-13-5.79528E-15
 -1      2725 2.38358E+01-2.54037E+00-7.60840E-03 1.29998E+00 1.83790E-13 4.79252E-14
 -1      2726 2.20882E+01-2.10677E+00-4.87563E-02 2.39319E+00 1.76445E-13-6.79430E-14
 -1      2727 2.49683E+01-2.93261E+00 5.28333E-02 7.78008E-01 1.68728E-13 1.72883E-13
 -1      2728 2.56755E+01-3.12599E+00-1.04968E-03 4.06790E-02 1.41043E-13 1.91484E-13
 -1      2729 2.38110E+01-3.23846E+00-4.05849E-02 1.79337E+00 2.34428E-13 6.56888E-14
 -1      2730 2.71031E+01-3.34590E+00-2.13111E-02-2.43638E-01 9.48061E-14 2.70450E-13
 -1      2731 2.77158E+01-2.40379E+00-5.81709E-02-1.00615E+00-6.32203E-14 2.99274E-13
 -1      2732 2.82158E+01 3.29064E+00-2.60006E-01-2.27962E+00-7.22131E-13 5.67810E-14
 -1      2733 2.81318E+01 4.79886E+00-1.67679E-01-1.27397E+00-8.69332E-13-8.31557E-14
 -1      2734 2.80909E+01 5.41211E+00-2.14567E-01-1.19783E-01-9.17738E-13-2.32359E-13
 -1      2735 2.81084E+01 5.06296E+00-1.81648E-01 1.16633E+00-8.55149E-13-3.84942E-13
 -1      2736 2.76578E+01-6.17352E-01-2.23636E-02 2.45853E+00-2.84772E-13-8.86236E-13
 -1      2737 2.73705E+01-2.09002E+00-5.55040E-02 1.89649E+00-7.35037E-14-8.95627E-13
 -1      2738 2.62727E+01-2.77635E+00-4.66592E-02 9.17211E-01 1.06177E-13-7.01296E-13
 -1      2739 2.58166E+01-2.95625E+00 4.46365E-02 1.95882E-01 2.58269E-13-6.19776E-13
 -1      2740 2.70662E+01-3.00738E+00-9.01187E-02 7.83654E-01 9.07920E-14-7.37525E-13
 -1      2741 2.46139E+01-2.81439E+00-2.49822E-02-6.20262E-01 2.71569E-13-4.59507E-13
 -1      2742 2.39996E+01-2.37973E+00 4.01422E-02-1.14344E+00 3.60361E-13-4.73820E-13
 -1      2743 2.49663E+01-3.51670E+00-6.91768E-02-8.80832E-01 3.42653E-13-4.69763E-13
 -1      2744 2.31394E+01-1.92272E+00-1.01367E-02-1.48364E+00 4.19323E-13-4.88719E-13
 -1      2745 2.26349E+01-1.40403E+00 3.11458E-02-1.76295E+00 3.65198E-13-3.76964E-13
 -1      2746 2.29253E+01-2.50273E+00-5.19570E-02-1.82919E+00 3.73654E-13-3.51635E-13
 -1      2747 2.20974E+01-9.81982E-01-3.93179E-03-1.85947E+00 3.42453E-13-3.16682E-13
 -1      2748 2.17365E+01-5.79863E-01 1.70445E-02-1.95425E+00 2.42992E-13-2.43399E-13
 -1      2749 2.16889E+01-1.36664E+00-2.86686E-02-2.17075E+00 3.59688E-13-3.74061E-13
 -1      2750 2.14469E+01-2.84720E-01 7.74034E-04-1.91332E+00 1.20411E-13-2.43944E-13
 -1      2751 2.11966E+01-3.39553E-02 7.54954E-03-1.89567E+00 9.46344E-14-2.85694E-13
 -1      2752 2.09580E+01-4.76708E-01-1.64242E-02-2.15446E+00 2.23060E-13-3.36875E-13
 -1      2753 2.10559E+01 1.36233E-01 2.83184E-03-1.79423E+00 1.03077E-13-1.64131E-13
 -1      2754 2.08793E+01 2.67190E-01 2.24158E-03-1.71624E+00 3.07792E-14-1.49534E-13
 -1      2755 2.05818E+01 8.04760E-02-7.80097E-03-1.97616E+00 1.62709E-13-1.59169E-13
 -1      2756 2.08161E+01 3.47050E-01 3.67616E-03-1.59310E+00-2.54647E-14-1.44687E-13
 -1      2757 2.06843E+01 3.99319E-01-4.08915E-04-1.48830E+00 5.75785E-15-4.54718E-14
 -1      2758 2.04004E+01 3.73382E-01-2.84240E-03-1.73582E+00 3.50175E-14-6.92072E-14
 -1      2759 2.06566E+01 4.23218E-01 3.95243E-03-1.36292E+00 2.79028E-14 7.75279E-14
 -1      2760 2.05518E+01 4.29751E-01-1.56139E-03-1.25164E+00 4.12758E-14 1.62248E-13
 -1      2761 2.03135E+01 4.91818E-01-4.47411E-04-1.48078E+00 1.03330E-13 4.42137E-14
 -1      2762 2.05381E+01 4.23004E-01 3.91151E-03-1.13390E+00 4.12831E-14 1.88244E-13
 -1      2763 2.04514E+01 4.05977E-01-1.91841E-03-1.02767E+00 2.53670E-14 2.80703E-13
 -1      2764 2.02664E+01 5.08085E-01 4.62341E-04-1.23464E+00 9.94665E-14 3.33256E-14
 -1      2765 2.04417E+01 3.84764E-01 3.67323E-03-9.22347E-01 2.14683E-15 3.25038E-13
 -1      2766 2.03687E+01 3.57658E-01-1.87939E-03-8.27012E-01 1.35874E-14 2.98723E-13
 -1      2767 2.02334E+01 4.71197E-01 6.35085E-04-1.00949E+00 3.23679E-14 2.20856E-13
 -1      2768 2.03595E+01 3.31377E-01 3.31628E-03-7.35946E-01 3.42125E-14 2.91603E-13
 -1      2769 2.02980E+01 3.01753E-01-1.66579E-03-6.53829E-01 2.29492E-14 3.01542E-13
 -1      2770 2.02038E+01 4.11208E-01 5.07752E-04-8.10998E-01 8.14983E-15 1.02008E-13
 -1      2771 2.02884E+01 2.75411E-01 2.90046E-03-5.77117E-01 3.33378E-14 2.83474E-13
 -1      2772 2.02373E+01 2.47155E-01-1.39624E-03-5.08450E-01 6.31207E-14 3.20332E-13
 -1      2773 2.01749E+01 3.45139E-01 3.01318E-04-6.40907E-01 2.91699E-14 2.88799E-13
 -1      2774 2.02275E+01 2.23139E-01 2.47073E-03-4.45195E-01-5.42039E-15 2.40272E-13
 -1      2775 2.01856E+01 1.98003E-01-1.12967E-03-3.89083E-01-2.26515E-14 2.22454E-13
 -1      2776 2.01467E+01 2.81839E-01 1.12088E-04-4.98504E-01 2.29772E-14 1.91849E-13
 -1      2777 2.01762E+01 1.77235E-01 2.05806E-03-3.37874E-01-1.11551E-13 2.52277E-13
 -1      2778 2.01425E+01 1.55794E-01-8.91863E-04-2.92885E-01-1.73720E-13 2.64557E-13
 -1      2779 2.01200E+01 2.25357E-01-2.80433E-05-3.81628E-01-8.45326E-14 2.34263E-13
 -1      2780 2.01338E+01 1.38431E-01 1.68117E-03-2.52109E-01-1.98823E-13 2.12640E-13
 -1      2781 2.01072E+01 1.20652E-01-6.91150E-04-2.16640E-01-1.50102E-13 8.11881E-14
 -1      2782 2.00960E+01 1.77071E-01-1.16941E-04-2.87383E-01-2.28612E-13 1.62709E-13
 -1      2783 2.00996E+01 1.06478E-01 1.34935E-03-1.84670E-01-1.29302E-13-2.10199E-15
 -1      2784 2.00789E+01 9.20453E-02-5.27329E-04-1.57138E-01-1.09946E-13 1.31227E-14
 -1      2785 2.00750E+01 1.36969E-01-1.63835E-04-2.12610E-01-2.42971E-13-2.68552E-14
 -1      2786 2.00725E+01 8.06877E-02 1.06539E-03-1.32451E-01-4.96718E-14 7.95138E-14
 -1      2787 2.00567E+01 6.91716E-02-3.96557E-04-1.11402E-01 1.78214E-14 2.68589E-13
 -1      2788 2.00574E+01 1.04372E-01-1.80473E-04-1.54199E-01-1.14736E-14-8.53530E-14
 -1      2789 2.00515E+01 6.02143E-02 8.27904E-04-9.26259E-02-2.33017E-14 3.14144E-13
 -1      2790 2.00397E+01 5.11657E-02-2.93853E-04-7.67809E-02-1.04819E-13 3.32157E-13
 -1      2791 2.00429E+01 7.83371E-02-1.77398E-04-1.09261E-01 4.08308E-14 9.79061E-14
 -1      2792 2.00355E+01 4.42044E-02 6.33149E-04-6.27263E-02-2.15399E-13 3.73010E-13
 -1      2793 2.00269E+01 3.71973E-02-2.14276E-04-5.09917E-02-1.49600E-13 3.46825E-13
 -1      2794 2.00313E+01 5.78627E-02-1.62793E-04-7.52215E-02-9.55605E-14 2.96489E-13
 -1      2795 2.00237E+01 3.18645E-02 4.76207E-04-4.06496E-02-1.68804E-13 3.85243E-13
 -1      2796 2.00175E+01 2.65159E-02-1.53428E-04-3.21134E-02 1.54387E-13 3.00121E-13
 -1      2797 2.00223E+01 4.19952E-02-1.42464E-04-4.98548E-02-1.62254E-13 4.49947E-13
 -1      2798 2.00150E+01 2.24892E-02 3.51812E-04-2.46465E-02 4.04919E-13 1.89452E-13
 -1      2799 2.00108E+01 1.84648E-02-1.07615E-04-1.85630E-02 3.46922E-13 2.23621E-13
 -1      2800 2.00155E+01 2.98738E-02-1.20246E-04-3.12832E-02 1.90774E-13 4.87331E-13
 -1      2801 2.00090E+01 1.54679E-02 2.54839E-04-1.32906E-02 1.66547E-13 2.50931E-13
 -1      2802 2.00061E+01 1.24812E-02-7.38365E-05-9.06164E-03 9.59497E-14 3.28420E-13
 -1      2803 2.00104E+01 2.07457E-02-9.85124E-05-1.79563E-02 2.35009E-13 1.78865E-13
 -1      2804 2.00048E+01 1.02800E-02 1.80581E-04-5.44119E-03 8.34947E-14 2.71249E-13
 -1      2805 2.00030E+01 8.08828E-03-4.96387E-05-2.59716E-03 2.52915E-13 1.47921E-13
 -1      2806 2.00066E+01 1.39653E-02-7.85758E-05-8.61982E-03 1.23030E-13 4.58518E-14
 -1      2807 2.00021E+01 6.48552E-03 1.25071E-04-2.05125E-04 3.41514E-13 1.20675E-13
 -1      2808 2.00010E+01 4.88218E-03-3.34869E-05 1.61374E-03 1.82739E-13 7.17361E-14
 -1      2809 2.00040E+01 8.98457E-03-6.11267E-05-2.28047E-03 2.18345E-13-2.06102E-13
 -1      2810 2.00004E+01 3.70916E-03 8.46569E-05 3.09618E-03 4.08699E-14-2.36036E-14
 -1      2811 1.99999E+01 2.52315E-03-2.22988E-05 4.15334E-03 4.26894E-14 9.52482E-14
 -1      2812 2.00022E+01 5.33464E-03-4.72308E-05 1.83012E-03 1.03522E-13-2.34664E-13
 -1      2813 1.99995E+01 1.62956E-03 5.29449E-05 4.96458E-03 3.89518E-14 5.73073E-14
 -1      2814 1.99993E+01 7.35326E-04-9.10654E-06 5.43835E-03-8.67943E-14-3.97439E-14
 -1      2815 2.00010E+01 2.63704E-03-3.40559E-05 4.28142E-03 3.22685E-14-2.26114E-13
 -1      2816 1.99992E+01 1.24100E-04 2.93676E-05 5.71704E-03-1.62706E-13-1.78419E-14
 -1      2817 1.99992E+01-6.19437E-04-4.85959E-06 5.75118E-03-3.24202E-13 1.26944E-14
 -1      2818 2.00001E+01-8.67415E-04-2.47714E-05 5.74476E-03-2.11971E-13 1.23994E-13
 -1      2819 2.00004E+01 6.71544E-04-3.13186E-05 5.44164E-03-1.16534E-13-1.02153E-13
 -1      2820 2.99600E+01 1.84459E+00-8.62076E-02 2.50396E+00-8.04273E-13-6.98108E-13
 -1      2821 2.96254E+01 3.68234E+00-2.18099E-01 2.36099E+00-9.51322E-13-6.23723E-13
 -1      2822 2.90351E+01-2.44987E+00-5.80573E-03 9.93241E-01-2.17208E-13-7.52121E-13
 -1      2823 2.94901E+01-7.81033E-01-1.79401E-01 1.80141E+00-5.02189E-13-7.29652E-13
 -1      2824 2.09787E+01 7.77009E-02-1.53612E-03-8.36498E-01 1.07637E-13-9.71077E-14
 -1      2825 2.09005E+01 1.85707E-01 7.63784E-03-7.80107E-01 1.53958E-13-5.77272E-14
 -1      2826 2.09155E+01 4.14111E-02-6.44269E-03-9.44645E-01 1.17924E-13-1.02709E-13
 -1      2827 2.18183E+01-6.94579E-01-1.00768E-02-4.83321E-01 3.14169E-14 4.89109E-14
 -1      2828 2.16890E+01-5.48211E-01 8.50817E-03-6.47703E-01 4.56805E-14 2.24739E-14
 -1      2829 2.21783E+01-9.33317E-01-1.25571E-02-3.04372E-02 7.35456E-14 4.97048E-14
 -1      2830 2.20714E+01-8.20195E-01 7.81484E-03-2.72696E-01 5.73110E-14 4.79338E-14
 -1      2831 2.19289E+01-9.44427E-01-6.95042E-03-5.41941E-01 4.51406E-14-1.65133E-14
 -1      2832 2.24912E+01-1.00591E+00-1.12080E-02 5.65125E-01 7.11644E-14 6.42216E-15
 -1      2833 2.24360E+01-9.96887E-01 3.83871E-03 2.75660E-01 6.67164E-14 5.16336E-14
 -1      2834 2.24211E+01-1.20750E+00-3.72222E-03-2.75994E-02 8.40661E-14 5.96766E-14
 -1      2835 2.26584E+01-7.54708E-01-2.74015E-03 1.18031E+00 1.23103E-13-3.41188E-15
 -1      2836 2.26801E+01-9.31368E-01-4.58787E-03 9.19306E-01 1.00510E-13 3.74126E-14
 -1      2837 2.28737E+01-1.21536E+00 3.18556E-03 6.51347E-01 9.27101E-14 3.62419E-14
 -1      2838 2.25928E+01-9.04782E-02 1.14027E-02 1.57437E+00 1.27297E-13 4.15718E-14
 -1      2839 2.26898E+01-4.79964E-01-1.65915E-02 1.46202E+00 1.31583E-13 3.49467E-14
 -1      2840 2.31351E+01-7.74502E-01 1.15933E-02 1.33595E+00 1.16129E-13 7.28745E-14
 -1      2841 2.23101E+01 8.42549E-01 2.11908E-02 1.45922E+00 6.09270E-14-3.77764E-14
 -1      2842 2.24375E+01 3.53502E-01-2.53918E-02 1.60857E+00 9.80247E-14 3.86583E-15
 -1      2843 2.30809E+01 1.63887E-01 1.26068E-02 1.71817E+00 1.37795E-13 1.58847E-13
 -1      2844 2.19959E+01 1.61179E+00 1.41017E-02 7.14828E-01 1.44031E-13-1.20838E-13
 -1      2845 2.20806E+01 1.27289E+00-2.18464E-02 1.12984E+00 9.34348E-14-6.70930E-14
 -1      2846 2.27657E+01 1.31578E+00-1.36320E-03 1.45217E+00 1.25808E-13-3.44516E-15
 -1      2847 2.19145E+01 1.74864E+00-6.35331E-03-4.08648E-01 2.67101E-13-2.69317E-13
 -1      2848 2.18969E+01 1.77709E+00-3.77024E-03 1.11850E-01 1.80109E-13-1.78417E-13
 -1      2849 2.24757E+01 2.10349E+00-1.70186E-02 4.76316E-01 1.74838E-13-4.98140E-14
 -1      2850 2.21599E+01 1.15716E+00-2.46124E-02-1.37080E+00 2.78689E-13-2.72905E-13
 -1      2851 2.20478E+01 1.53263E+00 1.45921E-02-9.86519E-01 2.96828E-13-3.10997E-13
 -1      2852 2.25107E+01 2.03657E+00-1.62810E-02-7.88464E-01 3.19770E-13-1.97037E-13
 -1      2853 2.25393E+01 2.27846E-01-2.61384E-02-1.75591E+00 8.23396E-14-3.01709E-13
 -1      2854 2.23974E+01 7.10810E-01 1.83957E-02-1.64653E+00 2.30550E-13-2.95430E-13
 -1      2855 2.28386E+01 1.15983E+00-1.62721E-03-1.67993E+00 2.59984E-13-2.07530E-13
 -1      2856 2.27782E+01-5.51161E-01-1.52395E-02-1.54262E+00 5.48314E-15-3.71351E-13
 -1      2857 2.26746E+01-1.93757E-01 7.58390E-03-1.67970E+00 3.51132E-14-3.51078E-13
 -1      2858 2.31395E+01 2.15752E-02 1.17289E-02-1.83947E+00 1.06668E-13-3.49417E-13
 -1      2859 2.27475E+01-9.34591E-01-2.96801E-03-9.80909E-01 6.94794E-14-3.90651E-13
 -1      2860 2.27228E+01-7.91607E-01-5.22613E-03-1.24578E+00 1.96455E-14-4.05205E-13
 -1      2861 2.31544E+01-8.42675E-01 1.01195E-02-1.40035E+00 5.28613E-14-4.13141E-13
 -1      2862 2.24967E+01-9.54974E-01 5.09294E-03-3.55623E-01-4.22373E-15-1.30115E-13
 -1      2863 2.25466E+01-9.83357E-01-1.17771E-02-6.35346E-01 8.73156E-14-2.31020E-13
 -1      2864 2.28630E+01-1.20161E+00 3.48193E-03-7.13740E-01-1.00946E-14-2.79995E-13
 -1      2865 2.21386E+01-7.65929E-01 7.84414E-03 1.62204E-01 5.49733E-14 2.98520E-14
 -1      2866 2.22381E+01-8.81713E-01-1.23438E-02-6.68924E-02-9.66523E-15-4.79077E-14
 -1      2867 2.24021E+01-1.14917E+00-2.80575E-03-6.33561E-02-4.33067E-14-1.09782E-13
 -1      2868 2.17652E+01-5.08688E-01 7.38325E-03 5.14599E-01-1.93226E-14 7.47414E-14
 -1      2869 2.18884E+01-6.44367E-01-9.86510E-03 3.58884E-01 1.19202E-13 2.76317E-14
 -1      2870 2.19138E+01-8.81862E-01-6.14238E-03 4.19997E-01 8.27119E-14 4.16367E-14
 -1      2871 2.14268E+01-2.70247E-01 5.72188E-03 7.09840E-01-1.58234E-13-9.94456E-14
 -1      2872 2.15552E+01-3.88240E-01-6.46296E-03 6.23826E-01-9.83500E-14 4.82739E-14
 -1      2873 2.14817E+01-5.60387E-01-6.39159E-03 7.16356E-01-1.93263E-14 7.86749E-14
 -1      2874 2.11400E+01-8.69927E-02 3.89568E-03 7.82721E-01-2.46341E-13-1.42375E-13
 -1      2875 2.12633E+01-1.73857E-01-3.40705E-03 7.51584E-01-1.92472E-13-8.38695E-14
 -1      2876 2.11336E+01-2.77375E-01-5.27376E-03 8.56832E-01-1.42056E-13-5.33639E-14
 -1      2877 2.09044E+01 3.57985E-02 2.37740E-03 7.71752E-01-1.00556E-13-2.04444E-13
 -1      2878 2.10173E+01-2.01261E-02-1.10504E-03 7.78530E-01-1.87317E-13-1.60913E-13
 -1      2879 2.08661E+01-6.67482E-02-3.90934E-03 8.85172E-01-2.35186E-13-1.30574E-13
 -1      2880 2.07131E+01 1.07313E-01 1.28731E-03 7.09832E-01-1.34617E-14-9.81925E-14
 -1      2881 2.08134E+01 7.64178E-02 4.47810E-04 7.39685E-01-2.98422E-14-1.74496E-13
 -1      2882 2.06640E+01 7.05616E-02-2.77437E-03 8.41310E-01-7.35565E-14-1.20530E-13
 -1      2883 2.05582E+01 1.40910E-01 5.79314E-04 6.21725E-01 2.95200E-14 5.20496E-14
 -1      2884 2.06453E+01 1.27939E-01 1.38849E-03 6.63308E-01 4.50717E-14 6.96246E-14
 -1      2885 2.05113E+01 1.47863E-01-1.96566E-03 7.56397E-01-5.29133E-14 6.91578E-14
 -1      2886 2.04332E+01 1.49157E-01 1.58725E-04 5.24536E-01-5.97705E-14 7.00711E-14
 -1      2887 2.05072E+01 1.47832E-01 1.87167E-03 5.69967E-01 1.68287E-14 8.25083E-14
 -1      2888 2.03946E+01 1.81738E-01-1.43321E-03 6.52719E-01-6.04716E-15 2.20468E-13
 -1      2889 2.03324E+01 1.42035E-01-6.65568E-05 4.29162E-01-5.37990E-14 1.45850E-14
 -1      2890 2.03943E+01 1.47535E-01 2.03552E-03 4.73436E-01-6.98061E-14 1.49931E-14
 -1      2891 2.03043E+01 1.87070E-01-1.09329E-03 5.45153E-01-4.38277E-14 1.76188E-13
 -1      2892 2.02518E+01 1.26727E-01-1.68831E-04 3.41885E-01 7.25597E-14 3.31172E-14
 -1      2893 2.03024E+01 1.35662E-01 1.99188E-03 3.82152E-01 1.13236E-13 1.65948E-14
 -1      2894 2.02336E+01 1.75422E-01-8.72925E-04 4.42901E-01 3.63547E-14 2.01022E-13
 -1      2895 2.01878E+01 1.08028E-01-1.99030E-04 2.65767E-01-1.22766E-13 3.61172E-14
 -1      2896 2.02285E+01 1.18183E-01 1.82564E-03 3.00680E-01-4.89321E-14 7.62963E-14
 -1      2897 2.01781E+01 1.55005E-01-7.21169E-04 3.51057E-01 1.16883E-14 2.33107E-13
 -1      2898 2.01376E+01 8.89225E-02-1.90548E-04 2.01750E-01-1.60429E-14-2.09076E-14
 -1      2899 2.01697E+01 9.89499E-02 1.59768E-03 2.30943E-01-7.40328E-14-1.07410E-15
 -1      2900 2.01343E+01 1.31248E-01-6.07033E-04 2.71886E-01-6.43721E-14-2.71912E-14
 -1      2901 2.00988E+01 7.11154E-02-1.64046E-04 1.49474E-01 7.15991E-14 7.85586E-14
 -1      2902 2.01236E+01 8.02713E-02 1.34926E-03 1.73175E-01-7.99599E-16 1.19205E-14
 -1      2903 2.01000E+01 1.07495E-01-5.13659E-04 2.05809E-01-4.27300E-15-4.73648E-14
 -1      2904 2.00691E+01 5.54524E-02-1.31585E-04 1.07857E-01-4.90008E-14 1.52933E-13
 -1      2905 2.00880E+01 6.33919E-02 1.10652E-03 1.26614E-01 1.34205E-13 1.53346E-13
 -1      2906 2.00732E+01 8.56233E-02-4.32863E-04 1.52132E-01 4.93905E-14 9.80735E-14
 -1      2907 2.00469E+01 4.22343E-02-9.97159E-05 7.54782E-02 2.19075E-13-4.43109E-14
 -1      2908 2.00609E+01 4.88617E-02 8.84524E-04 8.99817E-02 4.34821E-14 1.25104E-13
 -1      2909 2.00526E+01 6.65366E-02-3.61196E-04 1.09553E-01 1.45083E-13-1.15015E-13
 -1      2910 2.00306E+01 3.14343E-02-7.16148E-05 5.08332E-02 1.46811E-13-2.42509E-14
 -1      2911 2.00407E+01 3.68006E-02 6.90647E-04 6.18005E-02 1.95522E-13 9.69950E-14
 -1      2912 2.00369E+01 5.05189E-02-2.97455E-04 7.65123E-02 1.58601E-13-1.65042E-13
 -1      2913 2.00189E+01 2.28457E-02-4.84996E-05 3.24795E-02-6.98656E-14 6.45041E-14
 -1      2914 2.00260E+01 2.70794E-02 5.27173E-04 4.05888E-02 3.84349E-14 1.00323E-13
 -1      2915 2.00252E+01 3.74873E-02-2.41298E-04 5.14103E-02 1.76909E-14 6.00177E-14
 -1      2916 2.00107E+01 1.61761E-02-3.05423E-05 1.91206E-02-2.23601E-13 1.56652E-13
 -1      2917 2.00156E+01 1.94399E-02 3.93245E-04 2.49753E-02-1.26121E-13 2.90232E-13
 -1      2918 2.00166E+01 2.71595E-02-1.92552E-04 3.27433E-02-1.59237E-13 3.60797E-13
 -1      2919 2.00052E+01 1.11054E-02-1.74400E-05 9.64259E-03-6.33772E-14-5.52459E-14
 -1      2920 2.00084E+01 1.35699E-02 2.86250E-04 1.37561E-02-1.95012E-13 8.34769E-14
 -1      2921 2.00104E+01 1.91613E-02-1.50956E-04 1.91730E-02-1.58381E-13 4.26284E-13
 -1      2922 2.00017E+01 7.31927E-03-8.68602E-06 3.12368E-03 3.82449E-14-5.27089E-14
 -1      2923 2.00036E+01 9.14833E-03 2.02784E-04 5.91685E-03 5.10809E-14-5.94626E-14
 -1      2924 2.00060E+01 1.30925E-02-1.16072E-04 9.55779E-03-7.30130E-14 2.56434E-13
 -1      2925 1.99996E+01 4.52547E-03-3.86924E-06-1.17238E-03-9.78549E-14-1.25934E-13
 -1      2926 2.00006E+01 5.86963E-03 1.39236E-04 6.32955E-04-8.52577E-15-1.82508E-13
 -1      2927 2.00031E+01 8.56432E-03-8.72287E-05 2.95804E-03 1.50332E-13 9.86932E-14
 -1      2928 1.99986E+01 2.46015E-03-2.45691E-06-3.81039E-03-1.78628E-13-2.70523E-14
 -1      2929 1.99990E+01 3.45372E-03 9.21242E-05-2.74162E-03-2.08761E-13-1.38077E-13
 -1      2930 2.00012E+01 5.21644E-03-6.40009E-05-1.37374E-03-1.62916E-13-1.90401E-13
 -1      2931 1.99982E+01 8.90508E-04-3.35669E-06-5.20518E-03 9.09730E-14-2.52278E-14
 -1      2932 1.99982E+01 1.65146E-03 5.81931E-05-4.69215E-03-5.17531E-14 1.93416E-14
 -1      2933 2.00001E+01 2.72781E-03-4.52428E-05-4.00876E-03-1.82548E-13-2.78761E-13
 -1      2934 1.99983E+01-3.81154E-04-6.24143E-07-5.62812E-03 8.20213E-14 5.75483E-14
 -1      2935 1.99980E+01 2.23207E-04 2.99948E-05-5.56567E-03 1.47774E-13 1.05956E-13
 -1      2936 1.99995E+01 8.20383E-04-2.67471E-05-5.37176E-03 2.75006E-14-2.09685E-13
 -1      2937 1.99987E+01-1.46877E-03-1.02246E-05-5.36791E-03-5.72189E-14 6.88725E-14
 -1      2938 1.99984E+01-8.97359E-04 3.93195E-06-5.65169E-03 3.50644E-15 1.98064E-14
 -1      2939 1.99995E+01-6.62744E-04-1.03553E-05-5.75458E-03 5.74850E-15-2.90983E-13
 -1      2940 1.99998E+01-1.97604E-03 4.88562E-06-5.54819E-03-7.99854E-14-3.33665E-13
 -1      2941 2.67876E+01-4.08486E+00-9.58830E-02 2.20084E+00-6.63219E-14-3.67928E-13
 -1      2942 2.46859E+01-4.83712E+00 3.60445E-02 3.53652E+00-2.20622E-13-2.78166E-13
 -1      2943 2.00028E+01-2.49311E-03 1.97638E-06-4.01717E-04-2.38437E-14 3.48047E-13
 -1      2944 2.00028E+01-2.45832E-03 3.23203E-06-1.10506E-03-1.29121E-13 9.89661E-14
 -1      2945 2.00024E+01-2.50917E-03 6.78383E-07-3.14214E-03-7.28733E-14 1.47205E-13
 -1      2946 2.00022E+01-2.35858E-03 5.09683E-06-3.73068E-03-6.52626E-14-1.37213E-13
 -1      2947 2.00028E+01-2.48441E-03 4.62597E-06 1.02459E-03-1.96630E-13 4.50214E-14
 -1      2948 2.00028E+01-2.50495E-03 1.16073E-06 3.16529E-04-1.40641E-13 3.19654E-14
 -1      2949 2.00035E+01-5.55079E-04 1.52527E-05-5.06774E-05-7.81036E-14 9.92052E-14
 -1      2950 2.00027E+01-2.51153E-03 3.15751E-07-1.80936E-03-1.62504E-13 1.75298E-14
 -1      2951 2.00026E+01-2.41950E-03 4.32057E-06-2.47744E-03-1.45804E-13 3.12805E-13
 -1      2952 2.00030E+01-7.65105E-04 8.26575E-06-2.82160E-03-8.13059E-14 7.55374E-14
 -1      2953 2.00034E+01-6.02687E-04 1.33559E-05-1.45998E-03 2.22154E-14 1.90444E-13
 -1      2954 2.74479E+01 5.93935E+00-1.69249E-01 8.25546E-01 9.11438E-13 1.21042E-13
 -1      2955 2.75771E+01 6.34666E+00-1.88424E-01-1.87381E-01 9.42468E-13-6.36644E-14
 -1      2956 2.00026E+01-2.47873E-03 6.16554E-06 2.39858E-03-2.16740E-13-2.59619E-13
 -1      2957 2.00027E+01-2.55849E-03-3.03465E-08 1.72848E-03-2.06440E-13 1.24149E-13
 -1      2958 2.00034E+01-6.43728E-04 1.42343E-05 1.35852E-03-1.21162E-13-5.85153E-15
 -1      2959 2.00022E+01-2.44366E-03 2.70202E-06 3.69788E-03-1.36839E-13-4.49915E-13
 -1      2960 2.00025E+01-2.58699E-03 1.05486E-06 3.08602E-03-2.15122E-13-3.91474E-13
 -1      2961 2.00031E+01-8.39416E-04 1.07827E-05 2.74401E-03-2.04110E-13-2.63018E-13
 -1      2962 2.00015E+01-2.34581E-03-1.47356E-05 4.76560E-03-1.42509E-13-3.87669E-13
 -1      2963 2.00019E+01-2.53259E-03 1.88050E-06 4.29376E-03 7.30444E-15-4.11752E-13
 -1      2964 2.00026E+01-1.04796E-03 1.13447E-05 4.04766E-03-1.24864E-13-3.29075E-13
 -1      2965 2.00005E+01-2.36531E-03 2.09845E-05 5.30645E-03-2.11152E-13 1.69422E-13
 -1      2966 2.08405E+01 2.85736E-01-3.76095E-04-6.74695E-01 1.99645E-13-7.15680E-14
 -1      2967 2.08049E+01 3.97588E-01 9.06115E-03-5.53773E-01 2.57852E-13-5.15703E-14
 -1      2968 2.07709E+01 3.10470E-01-5.43621E-03-7.77368E-01 1.93856E-13-8.97117E-14
 -1      2969 2.85942E+01 1.33005E+00-1.32733E-01-2.32148E+00-5.43426E-13 2.19491E-13
 -1      2970 6.10043E+00-8.78742E-01 1.26805E-01-8.16409E-01-4.27176E-14-9.09300E-13
 -1      2971 6.72618E+00-1.23345E+00 1.77571E-01-2.83690E+00-1.24373E-13-8.73690E-13
 -1      2972 2.03152E+01 2.51321E+00 1.22949E-03-8.26220E-01-4.33688E-13-4.19452E-13
 -1      2973 2.63613E+01-4.91092E+00-2.86486E-02 2.08611E+00 2.09700E-13 1.84006E-13
 -1      2974 2.35627E+01-5.31347E+00 4.83748E-02 3.96925E+00 3.59761E-13-3.31679E-15
 -1      2975 2.14782E+01-4.12323E-01-6.69850E-03-7.59975E-01 5.23354E-14-2.57430E-14
 -1      2976 2.13501E+01-2.72141E-01 7.81315E-03-8.43030E-01 7.11085E-14-6.43724E-14
 -1      2977 2.11535E+01-2.56684E-01-7.25710E-03-9.77122E-01 5.63685E-14-7.09979E-14
 -1      2978 2.14932E+01-5.95881E-01-7.76672E-03-8.52847E-01 1.68796E-14-1.62652E-14
 -1      2979 1.85271E+01-4.47353E+00 1.33956E-01-5.45488E+00 5.86156E-13 3.36675E-14
 -1      2980 2.23213E+01-5.22437E+00-7.93589E-02-4.40254E+00 5.47007E-13-2.61766E-13
 -1      2981 2.22539E+01-5.23464E+00-9.66487E-03 5.01030E+00-4.41341E-13-8.76816E-14
 -1      2982 1.92191E+01-4.75723E+00 8.13259E-02 5.79380E+00-6.30856E-13 1.14596E-13
 -1      2983 2.07799E+01 5.13952E-01-1.20365E-04-3.85378E-01 2.93931E-13-7.59762E-14
 -1      2984 2.07946E+01 6.58339E-01 1.10959E-02-1.89653E-01 3.23564E-13-7.21727E-14
 -1      2985 2.06978E+01 9.54338E-01-1.18813E-03-5.47001E-02 3.55695E-13-1.64856E-13
 -1      2986 2.07050E+01 5.93439E-01-3.76215E-03-4.82522E-01 2.76716E-13-1.31469E-13
 -1      2987 1.26248E+01-3.10575E+00 1.01380E-01 5.92743E+00 3.24477E-13-6.17784E-13
 -1      2988 1.04369E+01-2.17332E+00 1.62821E-01 4.96810E+00 3.45918E-13-7.18564E-13
 -1      2989 2.54180E+01-4.99062E+00 1.15540E-01-2.57407E+00 4.12483E-13-4.44901E-13
 -1      2990 2.76307E+01-4.18828E+00-8.81788E-02-1.03415E+00 5.19654E-14-5.62467E-13
 -1      2991 2.74498E+01-3.57863E+00-1.73584E-02 3.52790E-02 7.79932E-14-6.78790E-13
 -1      2992 2.34785E+01-4.85339E+00-2.07554E-02-3.27786E+00 5.60468E-13-3.90944E-13
 -1      2993 1.95302E+01 2.97496E+00-4.79539E-03 2.89783E-01 3.16038E-13-5.12686E-13
 -1      2994 1.93557E+01 3.10975E+00-7.99476E-03 1.88874E-01 2.51136E-13-5.48054E-13
 -1      2995 1.93660E+01 2.89174E+00 4.76495E-03 4.73829E-02 2.09524E-13-5.15684E-13
 -1      2996 1.97224E+01 2.57114E+00 5.12791E-03 1.71356E-01 2.90366E-13-4.52755E-13
 -1      2997 8.08055E+00-1.40747E+00 1.11294E-01 3.58307E+00 2.15744E-13-8.08409E-13
 -1      2998 6.80702E+00-7.70972E-01 1.82543E-01 1.36809E+00 1.08347E-13-8.69610E-13
 -1      2999 1.55835E+01-4.27589E+00 1.10697E-01-6.51872E+00-3.79419E-13-4.87943E-13
 -1      3000 1.86760E+01-5.06802E+00 2.41722E-02-6.38140E+00-3.82167E-13-3.30909E-13
 -1      3001 9.03370E+00-2.17638E+00 6.57220E-02 5.13674E+00-5.69045E-13 8.70887E-13
 -1      3002 7.07877E+00-1.45720E+00 1.74393E-01 3.46334E+00-4.65974E-13 1.03922E-12
 -1      3003 1.91958E+01 3.26928E+00-7.97192E-03-2.61205E-01-1.52419E-13-5.87487E-13
 -1      3004 1.93608E+01 3.14786E+00-5.66575E-03-3.31058E-01-2.21998E-13-5.70487E-13
 -1      3005 1.52037E+01-3.86345E+00 3.90834E-02 6.34583E+00-6.11095E-13 3.97932E-13
 -1      3006 1.20432E+01-2.92005E+00 1.84775E-01 5.99328E+00-6.03240E-13 6.11802E-13
 -1      3007 2.07551E+01 1.58236E+00-1.16508E-03 7.40986E-01 4.95323E-13-1.24455E-13
 -1      3008 2.89393E+01-8.63534E-01-1.63504E-01-5.35076E-01 3.23200E-13-5.99326E-13
 -1      3009 2.81387E+01-2.60699E+00-1.68532E-02 6.84108E-01 7.00637E-14-5.09370E-13
 -1      3010 2.70973E+01-3.39673E+00-1.36718E-02 9.26907E-01-8.22016E-14-5.19793E-13
 -1      3011 2.65128E+01-4.17229E+00 6.47732E-02-2.09710E+00-2.01839E-13 1.01169E-13
 -1      3012 2.78099E+01-2.64526E+00-1.49293E-01-2.82331E-01-1.64348E-14 2.51202E-13
 -1      3013 5.92300E+00-1.02581E+00 1.35485E-01 1.61586E+00-2.70978E-13 1.09601E-12
 -1      3014 6.04140E+00-8.67961E-01 1.31788E-01-8.52728E-01-7.11341E-14 1.13179E-12
 -1      3015 8.14057E+00-5.66354E-01 1.91048E-01 2.28463E+00-2.94764E-13 9.87155E-13
 -1      3016 2.85423E+01 4.18794E+00-1.96181E-01 2.12252E+00-8.46212E-13-4.76758E-13
 -1      3017 2.83647E+01 2.88003E+00-1.95565E-01-2.00445E+00 6.04225E-13-5.06706E-13
 -1      3018 2.89340E+01 1.01569E+00-7.77122E-02-1.63755E+00 4.45782E-13-6.29358E-13
 -1      3019 2.14863E+01-5.29131E+00 9.59399E-02-5.40116E+00-4.53804E-13-2.98577E-13
 -1      3020 2.40307E+01-5.28433E+00-1.06587E-01-4.21720E+00-3.64972E-13-1.73014E-13
 -1      3021 2.06775E+01-4.85078E+00 8.97000E-02-5.36365E+00-4.73427E-13-2.49779E-13
 -1      3022 2.85713E+01-6.50517E-01-1.61648E-01-2.20518E+00-3.10835E-13 2.64330E-13
 -1      3023 1.95549E+01 2.96561E+00-9.82468E-03-3.66178E-01-2.72807E-13-5.41010E-13
 -1      3024 1.97756E+01 2.77692E+00-9.26555E-03-4.48575E-01-3.37792E-13-5.08237E-13
 -1      3025 1.95292E+01 2.78749E+00 7.85731E-03-1.99213E-01-2.32433E-13-5.00035E-13
 -1      3026 1.89831E+01 3.22081E+00 5.75722E-03-1.00452E-01 4.81129E-14-5.97830E-13
 -1      3027 1.89119E+01 3.48833E+00-4.74717E-03-9.50507E-02 3.13138E-14-6.33517E-13
 -1      3028 1.89258E+01 3.47901E+00-5.81341E-03-1.55289E-01-1.76036E-14-6.35160E-13
 -1      3029 2.70578E+01 3.09735E+00-8.30002E-02-2.04903E+00 5.32935E-13-4.82531E-13
 -1      3030 2.63445E+01 5.33669E+00-1.01456E-01-6.45863E-01 7.44807E-13-2.02747E-13
 -1      3031 1.09206E+01-1.17337E+00 1.79232E-01 3.91705E+00 2.73448E-13-6.96110E-13
 -1      3032 7.36228E+00-1.20895E+00 1.75212E-01-2.84142E+00 2.98830E-13 8.79241E-13
 -1      3033 9.10436E+00-2.06542E+00 8.24387E-02-4.59408E+00 5.51295E-13 7.02910E-13
 -1      3034 2.61747E+01-4.22694E+00-4.06046E-02 1.27068E+00 1.75568E-13 1.91813E-13
 -1      3035 8.13956E+00-2.68553E-01 1.97791E-01 3.15424E-01 4.12483E-14-7.97279E-13
 -1      3036 2.79281E+01-4.16022E-01-6.03904E-02-1.31945E+00 2.65440E-13-5.73319E-13
 -1      3037 2.76398E+01 3.05306E+00-3.75904E-02 2.43881E+00-7.05422E-13-6.16167E-13
 -1      3038 2.76514E+01 1.07748E+00-1.79458E-01 2.86428E+00-5.55028E-13-7.94857E-13
 -1      3039 2.69993E+01-2.21761E+00-3.79761E-02 4.32091E-01-2.56834E-14 3.56361E-13
 -1      3040 2.81941E+01-8.73917E-01-3.43798E-02 1.16483E+00 1.87989E-13 4.06591E-13
 -1      3041 2.00005E+01-2.06310E-03 4.52456E-07-5.27851E-03-2.66242E-15-5.98072E-13
 -1      3042 2.00004E+01-1.31522E-03-3.14346E-06-5.50324E-03-5.97913E-14-5.17898E-13
 -1      3043 2.00010E+01-2.36903E-03 1.71328E-06-5.07256E-03-7.32167E-14-2.70308E-13
 -1      3044 2.00008E+01-1.07153E-03-8.12574E-06 5.50463E-03-1.55950E-13 1.58122E-13
 -1      3045 2.00012E+01-1.92076E-03-2.85300E-06 5.16156E-03-9.09281E-14-1.99010E-13
 -1      3046 2.00019E+01-7.39068E-04 1.88733E-05 4.98847E-03 3.57486E-14-3.59149E-13
 -1      3047 2.00009E+01-1.92605E-04 2.82969E-05 5.45915E-03-1.36658E-13-3.49231E-14
 -1      3048 1.79041E+01-4.13463E+00 1.08894E-01 5.89425E+00-6.81788E-13 1.74624E-13
 -1      3049 1.64832E+01-3.20440E+00 6.85452E-02 5.60325E+00-7.09273E-13 2.93543E-13
 -1      3050 1.99953E+01-4.20208E+00 2.62671E-02 4.93936E+00-7.15004E-13-6.70818E-14
 -1      3051 2.73093E+01 4.87688E+00-2.48065E-01 1.45322E+00 8.18151E-13 2.07050E-13
 -1      3052 2.62149E+01 4.96552E+00-8.12393E-02 1.11393E+00 7.41865E-13 8.61117E-14
 -1      3053 8.94531E+00-1.30168E+00 1.75101E-01-3.74741E+00-2.05128E-13-8.20649E-13
 -1      3054 2.86233E+01 7.33421E-02-6.73158E-02 2.48106E+00-4.53901E-13-8.23036E-13
 -1      3055 2.00856E+01 2.47299E+00-4.46390E-03-4.90958E-01-3.61063E-13-4.63915E-13
 -1      3056 2.05364E+01 1.93508E+00-6.62150E-03-5.80588E-01-4.35879E-13-3.52032E-13
 -1      3057 2.05892E+01 1.58424E+00 2.70240E-03-2.51286E-01-3.82724E-13-3.07492E-13
 -1      3058 2.00258E+01 2.30289E+00 8.15737E-03-2.47404E-01-3.25927E-13-4.38614E-13
 -1      3059 1.28254E+01-2.53359E+00 9.66060E-02-5.68413E+00-3.73132E-13-6.43929E-13
 -1      3060 1.42395E+01-3.53722E+00 1.25581E-01-6.32957E+00-3.75394E-13-6.06959E-13
 -1      3061 1.66664E+01-3.60637E+00 9.16901E-02-5.87107E+00-4.34923E-13-3.53981E-13
 -1      3062 2.38230E+01-4.80633E+00 3.79981E-02 3.59051E+00-4.46691E-13-1.99916E-13
 -1      3063 1.52836E+01-3.55930E+00 1.97161E-02-5.86439E+00 6.26554E-13 3.39603E-13
 -1      3064 1.82848E+01-3.37014E+00 1.38730E-01-4.88411E+00 6.78749E-13 5.56707E-14
 -1      3065 1.56594E+01-3.36065E+00 1.20054E-01 5.58245E+00 4.12212E-13-4.20206E-13
 -1      3066 2.80323E+01 3.84583E+00-8.35171E-02 1.91987E+00 6.91780E-13 3.44030E-13
 -1      3067 2.00019E+01-2.50980E-03 1.34793E-06-4.23051E-03-7.76027E-14-6.02131E-14
 -1      3068 2.00015E+01-2.28932E-03 5.10560E-06-4.67195E-03-1.16406E-13-5.03328E-14
 -1      3069 2.00017E+01-1.28526E-03-1.95189E-06-4.86570E-03 4.27455E-14-1.57826E-13
 -1      3070 2.00025E+01-1.03583E-03 1.54870E-07-3.97939E-03 4.84062E-14-1.13294E-13
 -1      3071 2.05986E+01 1.70900E+00-3.30884E-03 5.83746E-01 4.71932E-13-2.06938E-13
 -1      3072 2.05347E+01 1.53209E+00 1.99558E-03 2.90293E-01 4.15028E-13-2.24012E-13
 -1      3073 1.89777E+01 3.44031E+00-6.28793E-03-1.76172E-01-3.55476E-14-5.98029E-13
 -1      3074 1.90687E+01 3.37824E+00-5.39381E-03-2.37079E-01-1.03697E-13-5.93169E-13
 -1      3075 1.91936E+01 3.06771E+00 6.90950E-03-1.60536E-01-1.12742E-13-5.44951E-13
 -1      3076 1.90089E+01 3.20948E+00 6.37439E-03-1.33303E-01-2.41175E-14-5.79925E-13
 -1      3077 1.16734E+01-1.97536E+00 1.48590E-01 5.15335E+00-5.64576E-13 7.73007E-13
 -1      3078 2.21439E+01-5.09373E+00 4.89139E-02 4.63612E+00 4.10214E-13-1.20311E-13
 -1      3079 2.03934E+01-4.31409E+00 9.32395E-02 4.91411E+00 4.04912E-13-1.04340E-13
 -1      3080 2.34888E+01-4.65650E+00 1.33551E-02 3.25219E+00 3.92743E-13 6.83308E-14
 -1      3081 2.82039E+01 9.26710E-01-1.85915E-01 1.69475E+00 4.52097E-13 4.69250E-13
 -1      3082 2.03788E+01 1.72823E+00-3.21025E-03-1.04471E-01-3.30562E-13-3.57953E-13
 -1      3083 2.51452E+01-4.53964E+00 1.38950E-02-2.68469E+00-3.19210E-13 2.75543E-14
 -1      3084 8.24257E+00-4.79062E-01 1.83577E-01-1.70258E+00 1.72751E-13 8.16236E-13
 -1      3085 1.24780E+01-2.58889E+00 1.66114E-01-5.28794E+00 6.73323E-13 5.85754E-13
 -1      3086 2.02756E+01 1.73159E+00-3.82014E-03 1.25018E-01 3.51042E-13-2.81700E-13
 -1      3087 2.00636E+01 1.97389E+00-2.41668E-03 7.32427E-02 3.09177E-13-3.29316E-13
 -1      3088 1.25571E+01-1.64918E+00 1.38603E-01-4.53806E+00 5.27939E-13 4.81198E-13
 -1      3089 2.38124E+01-4.61274E+00 7.22416E-02-3.32487E+00-4.19435E-13-4.62720E-14
 -1      3090 2.52913E+01-4.11350E+00-9.09353E-02-1.61692E+00-2.76073E-13 1.41017E-13
 -1      3091 9.38376E+00 9.49330E-02 3.79716E-02 1.14278E+00 1.24395E-13-7.09224E-13
 -1      3092 9.11020E+00 1.90706E-01 1.50302E-01-9.89174E-01-4.37497E-15-7.45543E-13
 -1      3093 2.01534E+01 1.29150E+00 3.38940E-03 6.96924E-01-2.18526E-13-3.29281E-13
 -1      3094 2.01120E+01 1.16286E+00-1.39689E-03 9.32669E-01-1.92342E-13-3.23278E-13
 -1      3095 2.00273E+01 1.06057E+00 2.44028E-04 1.14780E+00-1.60266E-13-2.88750E-13
 -1      3096 2.00029E+01 9.61810E-01 1.80701E-03 1.35384E+00-1.12362E-13-2.87937E-13
 -1      3097 1.97960E+01 1.31056E+00 2.80871E-03 9.88370E-01-1.63889E-13-3.22775E-13
 -1      3098 1.99014E+01 8.59091E-01-7.78341E-04 1.55622E+00-1.03125E-13-2.56238E-13
 -1      3099 1.99088E+01 7.43771E-01 4.73730E-03 1.73815E+00-9.98091E-14-2.72354E-13
 -1      3100 1.96023E+01 1.08446E+00 1.77998E-03 1.40525E+00-1.05741E-13-2.85394E-13
 -1      3101 1.98131E+01 5.99269E-01-4.01776E-04 1.94057E+00-9.01843E-14-2.46715E-13
 -1      3102 1.98821E+01 4.17970E-01 8.77625E-03 2.10176E+00-3.42083E-14-2.40617E-13
 -1      3103 1.93962E+01 8.28010E-01-3.32376E-04 1.81142E+00-8.32602E-14-2.41607E-13
 -1      3104 1.98342E+01 1.78521E-01 2.99889E-03 2.31595E+00 2.55954E-14-2.50959E-13
 -1      3105 2.00192E+01-1.27189E-01 1.49915E-02 2.44991E+00 4.23025E-14-2.34973E-13
 -1      3106 1.92331E+01 4.36130E-01-4.83233E-03 2.23857E+00-8.40544E-15-2.49340E-13
 -1      3107 2.00957E+01-5.20535E-01 1.26293E-02 2.68280E+00 6.80861E-14-1.83863E-13
 -1      3108 2.04771E+01-1.02188E+00 1.91985E-02 2.76512E+00 1.08716E-13-1.75875E-13
 -1      3109 1.92133E+01-2.13711E-01-1.23874E-02 2.71799E+00 7.55746E-14-2.54379E-13
 -1      3110 2.08422E+01-1.59299E+00 4.39525E-02 2.96817E+00 1.72108E-13-1.02880E-13
 -1      3111 2.14888E+01-2.34292E+00 1.65406E-02 2.93775E+00 2.66429E-13-8.67828E-14
 -1      3112 1.95442E+01-1.30921E+00-3.06136E-02 3.25413E+00 1.84528E-13-1.76135E-13
 -1      3113 2.01938E+01 1.87973E+00-2.77771E-03-4.63015E-02-3.09301E-13-4.18015E-13
 -1      3114 2.02805E+01 1.66812E+00 6.99096E-03 1.08985E-01-2.68133E-13-3.82428E-13
 -1      3115 2.02441E+01 1.45607E+00-4.36707E-03 3.85587E-01-2.38355E-13-3.66624E-13
 -1      3116 1.98966E+01 2.19196E+00-4.67487E-03-4.44352E-02-2.68592E-13-4.30563E-13
 -1      3117 2.63477E+01-2.97200E+00 5.31195E-02-3.10440E-02-1.83636E-13 2.90989E-13
 -1      3118 2.62002E+01-1.69721E+00-7.73302E-02 1.07721E+00 2.36165E-14 3.74641E-13
 -1      3119 2.67745E+01 1.79003E+00-6.77191E-02 1.98796E+00 4.28088E-13 3.57062E-13
 -1      3120 2.26234E+01-2.85903E+00 5.24940E-02-2.41504E+00 4.16800E-13-2.95887E-13
 -1      3121 2.16930E+01-2.18901E+00 5.15178E-02-2.67915E+00 3.77323E-13-2.94694E-13
 -1      3122 2.10749E+01-1.51956E+00 2.25126E-02-2.56229E+00 3.39253E-13-2.83557E-13
 -1      3123 2.05635E+01-9.51644E-01 2.13375E-02-2.57041E+00 3.56482E-13-3.20076E-13
 -1      3124 2.01780E+01-1.91632E+00-2.09887E-02-3.20027E+00 3.62389E-13-1.52706E-13
 -1      3125 2.03381E+01-4.91972E-01 1.66383E-02-2.37056E+00 3.39217E-13-3.94103E-13
 -1      3126 2.00568E+01-1.33504E-01 6.39741E-03-2.28738E+00 2.58490E-13-3.14248E-13
 -1      3127 1.94713E+01-6.64097E-01-1.54400E-02-2.73706E+00 3.21191E-13-2.07520E-13
 -1      3128 2.00180E+01 1.38169E-01 1.05621E-02-2.09263E+00 2.08640E-13-3.12698E-13
 -1      3129 1.98771E+01 3.31766E-01-1.45142E-04-1.97533E+00 1.84862E-13-2.11872E-13
 -1      3130 1.92775E+01 1.06841E-01-5.85771E-03-2.29292E+00 2.45477E-13-3.51105E-13
 -1      3131 1.99196E+01 4.68212E-01 6.63746E-03-1.80336E+00 1.13814E-13-2.70952E-13
 -1      3132 1.98518E+01 5.52169E-01-2.62331E-03-1.67671E+00 8.45612E-14-1.86878E-13
 -1      3133 1.93109E+01 5.18040E-01-4.51953E-04-1.91173E+00 2.13478E-13-3.81667E-13
 -1      3134 1.99208E+01 6.02455E-01 4.35129E-03-1.52760E+00 8.28632E-14-1.58289E-13
 -1      3135 1.98867E+01 6.20704E-01-3.34804E-03-1.40334E+00 1.27447E-13-1.63721E-13
 -1      3136 1.94319E+01 6.94517E-01 2.04763E-03-1.59121E+00 1.17291E-13-2.95604E-13
 -1      3137 1.99562E+01 6.21326E-01 3.12452E-03-1.27398E+00 6.37852E-14-1.75337E-13
 -1      3138 1.99353E+01 6.03884E-01-3.33446E-03-1.15832E+00 7.61274E-14-1.30167E-13
 -1      3139 1.95701E+01 7.30915E-01 2.83118E-03-1.31840E+00 7.86229E-14-3.64463E-13
 -1      3140 1.99949E+01 5.78934E-01 2.47959E-03-1.04625E+00 2.51318E-14-5.93181E-14
 -1      3141 1.99779E+01 5.44669E-01-3.01402E-03-9.42489E-01-2.44257E-14-8.82999E-14
 -1      3142 1.96946E+01 6.90781E-01 2.75056E-03-1.08335E+00 5.30941E-14-2.57983E-13
 -1      3143 2.00248E+01 5.08848E-01 2.11477E-03-8.46141E-01 2.59695E-14-1.13044E-13
 -1      3144 2.00086E+01 4.68858E-01-2.58306E-03-7.55750E-01 1.04989E-13-8.18177E-15
 -1      3145 1.97947E+01 6.14090E-01 2.32278E-03-8.80354E-01 1.69326E-14-1.44858E-13
 -1      3146 2.00434E+01 4.30537E-01 1.86336E-03-6.73917E-01 3.07347E-14-2.52482E-14
 -1      3147 2.00274E+01 3.90912E-01-2.13929E-03-5.97086E-01 6.69090E-14-1.07434E-14
 -1      3148 1.98699E+01 5.24603E-01 1.81312E-03-7.06194E-01 6.45741E-14-6.06143E-14
 -1      3149 2.00522E+01 3.54491E-01 1.64786E-03-5.28585E-01 1.84653E-16-1.20462E-13
 -1      3150 2.00368E+01 3.18262E-01-1.72916E-03-4.64650E-01-5.18146E-14-1.91171E-13
 -1      3151 1.99233E+01 4.35593E-01 1.34187E-03-5.58573E-01-7.70658E-14-2.39760E-13
 -1      3152 2.00538E+01 2.85779E-01 1.44059E-03-4.08190E-01-1.36933E-15-1.47735E-13
 -1      3153 2.00395E+01 2.54198E-01-1.37172E-03-3.55977E-01-8.34071E-14-5.16226E-14
 -1      3154 1.99597E+01 3.53828E-01 9.52794E-04-4.35280E-01 1.62765E-14-3.64762E-13
 -1      3155 2.00507E+01 2.26354E-01 1.23709E-03-3.10164E-01-2.10628E-13 1.19498E-13
 -1      3156 2.00381E+01 1.99691E-01-1.07136E-03-2.68247E-01-2.31975E-13 9.55390E-14
 -1      3157 1.99834E+01 2.82218E-01 6.52147E-04-3.33915E-01-7.43213E-15-5.59424E-14
 -1      3158 2.00452E+01 1.76474E-01 1.04163E-03-2.31648E-01-2.62786E-13 1.27136E-13
 -1      3159 2.00343E+01 1.54486E-01-8.25176E-04-1.98532E-01-1.96055E-13 7.83962E-14
 -1      3160 1.99980E+01 2.21491E-01 4.30070E-04-2.51894E-01-1.92853E-13 1.27927E-13
 -1      3161 2.00386E+01 1.35531E-01 8.60001E-04-1.69743E-01-1.38417E-13 9.23932E-14
 -1      3162 2.00295E+01 1.17738E-01-6.27067E-04-1.43984E-01 5.92881E-14 1.01599E-13
 -1      3163 2.00064E+01 1.71209E-01 2.71606E-04-1.86570E-01-1.32139E-13 5.58911E-14
 -1      3164 2.00319E+01 1.02532E-01 6.96691E-04-1.21687E-01 3.27636E-14-7.01337E-14
 -1      3165 2.00245E+01 8.83675E-02-4.69982E-04-1.01959E-01 1.88615E-14-1.41569E-13
 -1      3166 2.00106E+01 1.30370E-01 1.61858E-04-1.35356E-01-5.24854E-14-7.76530E-14
 -1      3167 2.00256E+01 7.63589E-02 5.54127E-04-8.49625E-02-1.06289E-14-3.16611E-14
 -1      3168 2.00197E+01 6.52532E-02-3.47045E-04-7.00922E-02-8.43834E-14-1.28040E-14
 -1      3169 2.00122E+01 9.77496E-02 8.80497E-05-9.58350E-02 5.38815E-14-3.63233E-13
 -1      3170 2.00201E+01 5.59092E-02 4.32865E-04-5.73490E-02-3.32517E-14 9.49503E-14
 -1      3171 2.00155E+01 4.73289E-02-2.52054E-04-4.63280E-02 2.39892E-14 3.13725E-13
 -1      3172 2.00122E+01 7.20925E-02 4.00311E-05-6.58293E-02 4.57933E-14-2.78865E-13
 -1      3173 2.00154E+01 4.01635E-02 3.32072E-04-3.69432E-02-6.47539E-14 5.11086E-13
 -1      3174 2.00119E+01 3.36303E-02-1.79663E-04-2.89255E-02 2.03524E-13 3.13641E-13
 -1      3175 2.00113E+01 5.22086E-02 1.01066E-05-4.34338E-02 1.52760E-13 2.61508E-14
 -1      3176 2.00115E+01 2.82144E-02 2.50050E-04-2.21505E-02 1.92216E-13 1.36087E-13
 -1      3177 2.00090E+01 2.33105E-02-1.25425E-04-1.64414E-02 1.14696E-13 5.84071E-15
 -1      3178 2.00099E+01 3.70222E-02-7.43502E-06-2.70257E-02 4.48687E-14-1.23807E-14
 -1      3179 2.00084E+01 1.92730E-02 1.84684E-04-1.16641E-02 6.16825E-14-3.52407E-14
 -1      3180 2.00065E+01 1.56395E-02-8.57090E-05-7.70552E-03 8.88483E-14-9.02765E-14
 -1      3181 2.00084E+01 2.55868E-02-1.67634E-05-1.52552E-02 5.00910E-14-1.84875E-13
 -1      3182 2.00060E+01 1.26640E-02 1.33818E-04-4.43683E-03 1.01375E-13-1.38462E-13
 -1      3183 2.00046E+01 9.99588E-03-5.72664E-05-1.78984E-03 8.73789E-14-3.01611E-13
 -1      3184 2.00068E+01 1.70853E-02-2.08645E-05-7.02524E-03-1.43357E-14-1.13482E-13
 -1      3185 2.00041E+01 7.81885E-03 9.70597E-05 3.54192E-04 6.11217E-14-2.42816E-13
 -1      3186 2.00031E+01 5.84724E-03-3.86778E-05 2.03064E-03 9.46944E-14-2.12499E-13
 -1      3187 2.00053E+01 1.08157E-02-2.48403E-05-1.46763E-03 3.56247E-14-2.04723E-13
 -1      3188 2.00026E+01 4.22366E-03 6.91299E-05 3.32434E-03 7.93239E-14-1.78548E-13
 -1      3189 2.00020E+01 2.77319E-03-1.68247E-05 4.26244E-03-7.70734E-14-1.78561E-13
 -1      3190 2.00039E+01 6.15659E-03-3.82301E-05 2.11080E-03 8.63942E-14 1.32257E-14
 -1      3191 2.26071E+01-1.55634E+00-1.43402E-02-1.66656E-01 4.31445E-14 1.69894E-15
 -1      3192 2.23876E+01-1.39829E+00 1.51881E-02-4.55977E-01 4.53432E-14-9.51084E-15
 -1      3193 2.19912E+01-1.21017E+00-8.89934E-03-6.95467E-01 2.59865E-14-3.06172E-14
 -1      3194 2.17757E+01-9.81884E-01 1.48105E-02-8.84540E-01 1.35176E-14-3.15946E-14
 -1      3195 2.21259E+01-1.53266E+00-1.58774E-02-8.45418E-01 9.61091E-15-2.53630E-14
 -1      3196 2.36123E+01-9.49172E-01-7.32071E-03 1.36935E+00 7.15031E-14 1.43696E-13
 -1      3197 2.35746E+01-1.34377E+00-1.38658E-03 1.06203E+00 7.09963E-14 1.03847E-13
 -1      3198 2.36495E+01 3.93735E-01 1.18122E-02 1.81478E+00 1.50822E-13 1.73634E-13
 -1      3199 2.37199E+01-3.64421E-01-2.99130E-02 1.73795E+00 1.22892E-13 1.99908E-13
 -1      3200 2.42451E+01-8.43583E-01-9.60589E-03 1.54902E+00 6.44294E-14 1.98673E-13
 -1      3201 2.33377E+01 1.99999E+00 1.12879E-02 1.46978E+00 2.07966E-13 9.07291E-14
 -1      3202 2.34585E+01 1.19714E+00-5.05112E-02 1.77323E+00 2.00569E-13 1.57444E-13
 -1      3203 2.42659E+01 8.50188E-01-1.74457E-02 1.92100E+00 2.09291E-13 2.23108E-13
 -1      3204 2.30481E+01 2.92856E+00-1.06350E-02 2.51699E-01 3.04210E-13-1.29191E-13
 -1      3205 2.30825E+01 2.59564E+00-4.68956E-02 8.64890E-01 2.27549E-13-9.69572E-14
 -1      3206 2.39099E+01 2.70947E+00-2.80146E-02 1.32149E+00 3.20563E-13 3.87754E-14
 -1      3207 2.31441E+01 2.44903E+00-4.61114E-02-1.19168E+00 3.62059E-13-2.33759E-13
 -1      3208 2.30454E+01 2.85968E+00-1.91551E-02-6.10473E-01 3.51948E-13-2.35958E-13
 -1      3209 2.37250E+01 3.46956E+00-2.64092E-02-1.83089E-01 3.86954E-13-3.23530E-13
 -1      3210 2.35074E+01 9.59247E-01-5.72636E-02-1.96508E+00 2.69463E-13-3.76644E-13
 -1      3211 2.33880E+01 1.78976E+00 7.96624E-03-1.71737E+00 3.72594E-13-3.12825E-13
 -1      3212 2.39829E+01 2.46453E+00-1.44550E-02-1.61307E+00 3.89359E-13-4.46289E-13
 -1      3213 2.37352E+01-5.29272E-01-2.66881E-02-1.81328E+00 1.15599E-14-4.03632E-13
 -1      3214 2.36844E+01 1.81551E-01 1.11727E-02-1.93183E+00 1.41885E-13-3.69220E-13
 -1      3215 2.42770E+01 5.84892E-01 3.92216E-03-2.09927E+00 1.77676E-13-4.77394E-13
 -1      3216 2.35158E+01-1.39094E+00-1.98071E-03-1.08988E+00 5.45397E-15-3.71886E-13
 -1      3217 2.35786E+01-1.05885E+00-1.07696E-02-1.41316E+00 2.26182E-14-3.57200E-13
 -1      3218 2.41771E+01-1.03225E+00-1.16913E-02-1.55935E+00 1.52170E-14-4.02900E-13
 -1      3219 2.29560E+01-1.56569E+00 1.16186E-02-2.75574E-01-1.39163E-13-1.81494E-13
 -1      3220 2.31328E+01-1.55780E+00-1.49142E-02-6.22522E-01-5.81367E-14-2.80096E-13
 -1      3221 2.36083E+01-1.79827E+00-2.73256E-03-6.34860E-01-1.07431E-13-3.47174E-13
 -1      3222 2.22927E+01-1.31848E+00 1.56663E-02 3.57256E-01-6.38828E-14-7.01325E-14
 -1      3223 2.25147E+01-1.48316E+00-1.17075E-02 8.19445E-02-9.83751E-14-5.25286E-14
 -1      3224 2.27720E+01-1.81234E+00-7.89041E-03 1.87916E-01-1.56099E-13-5.21798E-14
 -1      3225 2.16821E+01-9.13826E-01 1.34153E-02 7.55600E-01 4.70199E-14 7.95616E-14
 -1      3226 2.18979E+01-1.12978E+00-8.08025E-03 5.77644E-01 8.08945E-15 1.56913E-14
 -1      3227 2.19629E+01-1.43909E+00-1.38268E-02 7.38547E-01-1.15436E-13 2.57160E-14
 -1      3228 2.11973E+01-5.18780E-01 9.70718E-03 9.53094E-01-1.20610E-13 1.46399E-13
 -1      3229 2.13816E+01-7.14361E-01-4.12079E-03 8.60291E-01 4.55177E-14 1.71952E-13
 -1      3230 2.13100E+01-9.43179E-01-1.29797E-02 1.02744E+00-2.22570E-14 1.90152E-13
 -1      3231 2.08423E+01-2.04392E-01 6.20696E-03 1.00868E+00-1.01856E-13-1.61722E-15
 -1      3232 2.09891E+01-3.53098E-01-1.36056E-03 9.79252E-01-7.97632E-14 6.46476E-14
 -1      3233 2.08403E+01-4.95600E-01-9.90213E-03 1.12893E+00-4.46507E-14 2.43555E-13
 -1      3234 2.05943E+01 1.39575E-02 3.48657E-03 9.73905E-01-1.86247E-13-1.60204E-13
 -1      3235 2.07075E+01-8.54351E-02 2.78773E-04 9.86723E-01-1.54899E-13-3.85129E-14
 -1      3236 2.05263E+01-1.55405E-01-6.70598E-03 1.11234E+00-5.38452E-14 2.85706E-14
 -1      3237 2.04247E+01 1.47630E-01 1.60669E-03 8.87357E-01-2.01393E-13-7.12493E-14
 -1      3238 2.05114E+01 8.94480E-02 1.15621E-03 9.25482E-01-2.47516E-13-1.42380E-13
 -1      3239 2.03271E+01 7.24071E-02-4.22292E-03 1.02851E+00-1.99057E-13-1.10475E-13
 -1      3240 2.03090E+01 2.16584E-01 4.14434E-04 7.75668E-01-9.65364E-14 5.57344E-14
 -1      3241 2.03759E+01 1.88863E-01 1.59342E-03 8.26666E-01-1.37896E-13-1.55991E-14
 -1      3242 2.02056E+01 2.06513E-01-2.51716E-03 9.10998E-01-2.73693E-13 1.82822E-14
 -1      3243 2.02290E+01 2.40694E-01-2.75931E-04 6.56431E-01-8.67857E-14 2.76958E-13
 -1      3244 2.02813E+01 2.33513E-01 1.77105E-03 7.11740E-01-1.32410E-14 2.27275E-13
 -1      3245 2.01334E+01 2.71259E-01-1.43716E-03 7.81143E-01-1.01088E-13 1.11246E-13
 -1      3246 2.01725E+01 2.36371E-01-6.26507E-04 5.40684E-01 7.76830E-14 8.09239E-14
 -1      3247 2.02139E+01 2.41840E-01 1.78833E-03 5.94789E-01 3.15933E-14 2.27159E-13
 -1      3248 2.00911E+01 2.89031E-01-7.97212E-04 6.52196E-01 2.78032E-15 1.93807E-13
 -1      3249 2.01313E+01 2.15845E-01-7.60780E-04 4.34824E-01-3.22786E-14 1.64114E-13
 -1      3250 2.01644E+01 2.28226E-01 1.70387E-03 4.84473E-01-5.73269E-15 1.24903E-13
 -1      3251 2.00662E+01 2.77664E-01-4.40705E-04 5.32013E-01 5.53087E-14-7.29994E-14
 -1      3252 2.01006E+01 1.87583E-01-7.66232E-04 3.42029E-01-6.40508E-15 1.53994E-13
 -1      3253 2.01270E+01 2.02981E-01 1.55676E-03 3.85581E-01 5.59644E-14 2.45043E-13
 -1      3254 2.00510E+01 2.50184E-01-2.54489E-04 4.24816E-01-4.02999E-14-5.91601E-15
 -1      3255 2.00771E+01 1.57081E-01-7.01710E-04 2.63327E-01 1.44601E-14-5.66656E-14
 -1      3256 2.00982E+01 1.73018E-01 1.37548E-03 3.00231E-01 1.15928E-15 1.07673E-13
 -1      3257 2.00412E+01 2.15493E-01-1.64097E-04 3.32372E-01 6.12821E-14 2.28513E-14
 -1      3258 2.00589E+01 1.27654E-01-6.05052E-04 1.98380E-01-2.21206E-14 4.35026E-14
 -1      3259 2.00756E+01 1.42673E-01 1.18128E-03 2.28771E-01-3.03663E-14-3.49953E-14
 -1      3260 2.00341E+01 1.79301E-01-1.23738E-04 2.54832E-01-1.15333E-14 1.12976E-13
 -1      3261 2.00446E+01 1.01101E-01-4.99398E-04 1.46045E-01 1.13900E-13 1.07674E-13
 -1      3262 2.00577E+01 1.14445E-01 9.89413E-04 1.70465E-01 8.32837E-14 6.65144E-14
 -1      3263 2.00286E+01 1.45002E-01-1.06950E-04 1.91336E-01 2.49799E-15 3.27799E-14
 -1      3264 2.00335E+01 7.82201E-02-3.97987E-04 1.04778E-01 1.48174E-13-5.36529E-14
 -1      3265 2.00436E+01 8.95899E-02 8.10097E-04 1.23967E-01 1.79817E-13 4.90009E-14
 -1      3266 2.00240E+01 1.14389E-01-9.94498E-05 1.40454E-01 1.96966E-13-6.10910E-14
 -1      3267 2.00248E+01 5.91813E-02-3.07611E-04 7.29004E-02 5.01849E-14 1.03220E-13
 -1      3268 2.00325E+01 6.85575E-02 6.49353E-04 8.76638E-02 3.35038E-14-9.25215E-15
 -1      3269 2.00200E+01 8.82035E-02-9.42105E-05 1.00496E-01 4.00849E-14 1.44858E-13
 -1      3270 2.00180E+01 4.37843E-02-2.31039E-04 4.87688E-02-1.90050E-13 2.76245E-13
 -1      3271 2.00238E+01 5.13096E-02 5.09992E-04 5.98935E-02-2.38735E-14 2.21239E-13
 -1      3272 2.00165E+01 6.65308E-02-8.82763E-05 6.97249E-02-1.27062E-13 4.33609E-13
 -1      3273 2.00129E+01 3.16348E-02-1.68635E-04 3.08769E-02-2.86329E-13 3.75534E-13
 -1      3274 2.00171E+01 3.75329E-02 3.92511E-04 3.90813E-02-2.68344E-13 2.18820E-13
 -1      3275 2.00133E+01 4.90757E-02-8.08095E-05 4.64876E-02-2.86665E-13 5.13484E-13
 -1      3276 2.00090E+01 2.22549E-02-1.19497E-04 1.79053E-02-1.32537E-13 2.15414E-13
 -1      3277 2.00120E+01 2.67805E-02 2.95899E-04 2.38159E-02-1.67181E-13 2.72905E-13
 -1      3278 2.00106E+01 3.53467E-02-7.19528E-05 2.92937E-02-1.31411E-13 2.74622E-13
 -1      3279 2.00060E+01 1.51511E-02-8.21577E-05 8.74011E-03-7.23383E-15 2.08895E-13
 -1      3280 2.00082E+01 1.85599E-02 2.18274E-04 1.28827E-02-8.26985E-14 1.83098E-13
 -1      3281 2.00083E+01 2.47736E-02-6.23492E-05 1.68516E-02-7.91502E-14 1.00383E-13
 -1      3282 2.00039E+01 9.85242E-03-5.47341E-05 2.47276E-03 1.33907E-13 3.47283E-14
 -1      3283 2.00054E+01 1.23839E-02 1.57316E-04 5.27324E-03 7.18947E-14 1.10821E-13
 -1      3284 2.00063E+01 1.67781E-02-5.26212E-05 8.07940E-03 1.69879E-14-7.25248E-15
 -1      3285 2.00024E+01 5.92601E-03-3.58789E-05-1.61734E-03-7.18308E-14-1.52573E-13
 -1      3286 2.00033E+01 7.80024E-03 1.10938E-04 1.75867E-04 1.71301E-13 2.67289E-14
 -1      3287 2.00046E+01 1.08133E-02-4.35589E-05 2.09832E-03 9.37717E-14 9.42659E-15
 -1      3288 2.00013E+01 2.99462E-03-2.28356E-05-4.07115E-03-1.66699E-13-2.41782E-13
 -1      3289 2.00019E+01 4.39605E-03 7.61002E-05-3.03495E-03-2.09027E-13-2.11697E-13
 -1      3290 2.00033E+01 6.38865E-03-3.19774E-05-1.78001E-03 2.36412E-14-5.73962E-14
 -1      3291 2.00006E+01 7.40159E-04-5.28067E-06-5.28544E-03 3.76791E-14-3.59476E-13
 -1      3292 2.00009E+01 1.80480E-03 4.74574E-05-4.83601E-03-6.45206E-14-3.62893E-13
 -1      3293 2.00022E+01 3.04992E-03-2.66539E-05-4.08345E-03-4.30214E-14-2.44528E-13
 -1      3294 2.00006E+01-5.97657E-04 3.10110E-06-5.46958E-03-1.39673E-14-4.72223E-13
 -1      3295 2.00005E+01 1.09907E-04 1.07267E-05-5.47012E-03 1.65639E-14-5.00499E-13
 -1      3296 2.00016E+01 8.96706E-04-1.16098E-05-5.03487E-03 5.14794E-14-5.00646E-13
 -1      3297 2.00013E+01-6.40049E-04-3.53802E-06-5.23366E-03 4.94254E-14-3.99665E-13
 -1      3298 1.26709E+01-1.17834E+00 1.25274E-02 4.27830E+00 2.90254E-13-5.97744E-13
 -1      3299 1.09649E+01-1.78911E-01 1.47350E-01 2.87849E+00 2.02272E-13-6.49453E-13
 -1      3300 2.06012E+01 1.16275E+00 7.74319E-04 5.46728E-03 3.56673E-13-1.87695E-13
 -1      3301 2.04234E+01 1.51391E+00 1.53704E-03 8.49881E-02 3.59118E-13-2.29451E-13
 -1      3302 2.03536E+01 1.37582E+00 1.18306E-03-1.47881E-01 3.06557E-13-2.45761E-13
 -1      3303 2.05915E+01 9.47743E-01-2.55650E-03-2.48137E-01 3.04613E-13-1.88617E-13
 -1      3304 2.00040E+01 1.44869E-03-8.67522E-06 2.73918E-04-1.99990E-13-3.47912E-13
 -1      3305 2.00040E+01 1.45951E-03-9.68572E-06-3.98542E-04-9.10366E-15 5.08158E-14
 -1      3306 2.00029E+01 3.45932E-04-8.20599E-06 4.10118E-03-7.23987E-14-3.72080E-13
 -1      3307 2.00033E+01 4.37231E-04-1.76184E-05 3.51917E-03-1.21360E-13-3.36643E-13
 -1      3308 2.00039E+01 1.26530E-03-2.81661E-06 1.55941E-03-1.75172E-13 1.86550E-14
 -1      3309 2.00040E+01 1.33191E-03-1.34472E-05 8.96721E-04-8.45352E-14-1.02068E-13
 -1      3310 2.00046E+01 3.55380E-03 3.34389E-05 5.08717E-04-8.08394E-14-7.13819E-14
 -1      3311 9.69247E+00-3.79294E-01 7.34504E-02 3.05469E+00-3.22062E-13 8.69471E-13
 -1      3312 8.84616E+00 1.16697E-01 1.09428E-01 1.21051E+00-1.45892E-13 8.48294E-13
 -1      3313 2.06706E+01 3.54310E-01-9.70931E-04-8.79155E-01 1.41078E-13-1.39240E-13
 -1      3314 2.06267E+01 5.12279E-01 5.87032E-03-7.54990E-01 1.81348E-13-1.44858E-13
 -1      3315 2.00036E+01 8.63454E-04 1.23480E-06 2.85847E-03-7.42608E-14-2.46170E-13
 -1      3316 2.00038E+01 9.67390E-04-1.56008E-05 2.20953E-03-1.31046E-13-9.42225E-14
 -1      3317 2.00045E+01 3.13661E-03 3.04868E-05 1.70120E-03-2.24922E-13-1.81270E-14
 -1      3318 2.00041E+01 2.42061E-03 3.45419E-05 2.93347E-03-8.86606E-14-3.14657E-13
 -1      3319 9.52115E+00-4.51474E-01 7.25406E-02-2.88431E+00-1.06175E-13-6.88130E-13
 -1      3320 1.10500E+01-1.32136E+00 1.29246E-01-4.62202E+00-2.52354E-13-7.59337E-13
 -1      3321 2.32077E+01-1.56750E+00-1.68596E-02 5.74055E-01 8.83705E-14 2.49427E-14
 -1      3322 2.30483E+01-1.60993E+00 1.11653E-02 2.21972E-01 5.72036E-14 5.49998E-14
 -1      3323 2.29336E+01-1.90345E+00-1.78172E-02-2.46567E-01 2.75580E-14 1.00800E-14
 -1      3324 2.37430E+01-1.79830E+00-1.45642E-02 6.23577E-01 3.60423E-14 1.39886E-13
 -1      3325 2.08260E+01 3.30223E-02-1.01291E-03-1.05299E+00 8.43884E-14-1.33804E-13
 -1      3326 2.07407E+01 2.00719E-01 7.39285E-03-9.91812E-01 1.21403E-13-1.28098E-13
 -1      3327 2.05393E+01 3.56088E-01-5.54735E-03-9.92056E-01 1.25843E-13-1.79500E-13
 -1      3328 2.64475E+01-4.09897E+00 9.82931E-02-8.78863E-01 3.78807E-13-5.71154E-13
 -1      3329 2.50403E+01 3.05624E+00-1.13062E-01-1.87647E+00 4.80949E-13-4.88655E-13
 -1      3330 2.56330E+01 1.55504E+00-4.62005E-02-2.22997E+00 3.12472E-13-5.80445E-13
 -1      3331 1.80651E+01-3.64942E+00 3.83622E-02 5.37178E+00 3.87981E-13-2.15786E-13
 -1      3332 1.54823E+01-2.32576E+00 1.03135E-01 5.03916E+00 3.77615E-13-3.79877E-13
 -1      3333 1.83173E+01-2.59141E+00 3.07627E-02-4.27799E+00 5.59521E-13 2.42514E-15
 -1      3334 2.08137E+01-3.60701E+00-3.23422E-02-3.95388E+00 5.06640E-13-2.10276E-13
 -1      3335 2.48192E+01 3.93071E+00-4.11521E-02 1.18807E+00 5.53044E-13 2.92492E-14
 -1      3336 2.47732E+01 4.44314E+00-1.15073E-01 4.46621E-01 5.99631E-13-8.40534E-14
 -1      3337 1.91577E+01 2.80657E+00-1.78194E-03-1.09699E-01 1.52834E-13-5.10686E-13
 -1      3338 1.90475E+01 2.88551E+00-6.11166E-03-1.38744E-01 9.17760E-14-5.38975E-13
 -1      3339 2.47725E+01-4.42153E+00-4.47153E-02 2.33754E+00-3.77615E-13-4.18329E-13
 -1      3340 2.28351E+01-4.47404E+00 2.28487E-02 3.51796E+00-6.06206E-13-2.20287E-13
 -1      3341 1.34208E+01-1.90138E+00 3.86556E-02 5.06715E+00-5.41248E-13 5.58914E-13
 -1      3342 1.12364E+01-9.24156E-01 1.47566E-01 4.17596E+00-5.02699E-13 7.49192E-13
 -1      3343 1.18087E+01-2.49143E-01 1.18465E-01 3.18631E+00-2.39118E-13 6.80081E-13
 -1      3344 2.67998E+01-2.29110E-01-9.27114E-02-1.87991E+00 1.83922E-13-6.80012E-13
 -1      3345 2.71901E+01-1.72917E+00-3.02606E-02-9.79086E-01 3.15650E-14-6.11518E-13
 -1      3346 1.99826E+01-4.24418E+00 5.74808E-02-5.08789E+00-4.03629E-13-2.13145E-13
 -1      3347 2.20940E+01-4.71223E+00-3.07431E-02-4.35517E+00-4.33154E-13-1.45215E-13
 -1      3348 2.30471E+01-4.18440E+00 5.22505E-02-3.24479E+00-3.94539E-13-6.94991E-14
 -1      3349 2.47718E+01 4.51862E+00-9.22053E-02-4.07291E-01 5.90486E-13-2.55909E-13
 -1      3350 2.49169E+01 4.03350E+00-8.61183E-02-1.38155E+00 5.56943E-13-4.45505E-13
 -1      3351 8.78500E+00 1.71206E-01 1.27585E-01-5.29792E-01 3.71153E-14 7.12083E-13
 -1      3352 9.71335E+00-2.89422E-01 5.13024E-02-2.51711E+00 2.92474E-13 4.75023E-13
 -1      3353 2.67024E+01-2.87091E+00-8.78606E-02 2.41786E-02-1.39910E-13-5.42864E-13
 -1      3354 2.58506E+01-3.78591E+00 2.00882E-02 1.20580E+00-2.95420E-13-4.80851E-13
 -1      3355 2.48768E+01-3.83809E+00-1.44578E-02 1.36288E+00-3.97057E-13-4.10299E-13
 -1      3356 2.60997E+01-2.46396E+00-3.06732E-02-5.56632E-01-1.77781E-13-5.93185E-13
 -1      3357 1.18673E+01-6.44395E-01 1.67843E-01-3.65292E+00 4.49838E-13 4.42771E-13
 -1      3358 1.43910E+01-1.45520E+00 4.19411E-02-4.31482E+00 5.82154E-13 3.96141E-13
 -1      3359 1.20326E+01-4.82328E-02 9.33004E-02-2.63506E+00 3.19147E-13 3.35086E-13
 -1      3360 2.61454E+01 4.95504E-01-3.20971E-02 1.98435E+00 2.28102E-13 3.65659E-13
 -1      3361 2.55702E+01 2.58276E+00-1.27388E-01 1.97898E+00 4.57676E-13 1.92554E-13
 -1      3362 1.89750E+01 2.95783E+00-2.52104E-03-1.20843E-01 6.18435E-14-5.59965E-13
 -1      3363 1.89400E+01 2.97966E+00-5.66960E-03-1.33365E-01 1.65369E-14-5.68483E-13
 -1      3364 1.90322E+01 2.69628E+00 6.88289E-03-1.84542E-01 8.31261E-14-5.04019E-13
 -1      3365 1.09668E+01 1.82989E-01 1.40758E-01-1.90845E+00-6.24171E-14-6.64135E-13
 -1      3366 1.94630E+01 2.54465E+00-2.09208E-03-5.58438E-02 2.20577E-13-4.75948E-13
 -1      3367 1.92964E+01 2.67662E+00-5.97153E-03-1.03457E-01 1.70384E-13-4.89105E-13
 -1      3368 1.92624E+01 2.50048E+00 5.86583E-03-2.11505E-01 1.40366E-13-4.60290E-13
 -1      3369 2.49028E+01-4.18649E+00 6.92361E-02 1.98167E+00 2.88243E-13 1.26432E-13
 -1      3370 2.08093E+01-3.10193E+00-1.62049E-02 3.76166E+00 3.10189E-13-5.60038E-14
 -1      3371 2.26613E+01-3.38504E+00 6.12590E-02 2.96555E+00 3.16965E-13-3.37612E-14
 -1      3372 1.99938E+01 1.60413E+00 1.41349E-03 4.72985E-01-2.12700E-13-3.76933E-13
 -1      3373 2.37155E+01-4.05731E+00 1.65334E-02 2.63436E+00 2.95021E-13 3.44239E-14
 -1      3374 1.73041E+01-3.00460E+00 4.38744E-02-5.20260E+00-3.49533E-13-3.03403E-13
 -1      3375 1.88061E+01-3.79095E+00 5.72276E-02-5.33288E+00-3.95170E-13-2.49759E-13
 -1      3376 2.04726E+01-3.60186E+00 5.41766E-02-4.32525E+00-3.70707E-13-1.62021E-13
 -1      3377 2.27799E+01-3.70072E+00 5.57100E-02-2.89563E+00 5.11691E-13-3.26991E-13
 -1      3378 1.74387E+01-2.71624E+00 7.52912E-03 4.77592E+00-7.10002E-13 6.34423E-14
 -1      3379 1.55441E+01-2.25835E+00 1.20317E-01 5.15649E+00-6.43555E-13 3.30937E-13
 -1      3380 1.48040E+01-1.38186E+00 5.24677E-02 4.43803E+00-5.16982E-13 3.50310E-13
 -1      3381 2.40351E+01-4.24196E+00 4.01072E-02-2.42654E+00 5.09821E-13-4.11610E-13
 -1      3382 2.00029E+01 2.92096E-03-4.07965E-05 4.06449E-03-6.84059E-14-1.65701E-13
 -1      3383 2.00017E+01 1.74497E-03 4.51910E-05 4.82461E-03-1.49187E-13-1.22696E-13
 -1      3384 2.00014E+01 7.58025E-04-2.69439E-06 5.17903E-03-1.16663E-13-5.93080E-14
 -1      3385 2.09524E+01-1.39345E-01 9.13700E-03-1.10971E+00 4.98927E-14-9.39346E-14
 -1      3386 2.07056E+01-3.41703E-02-8.54857E-03-1.18316E+00 5.37360E-14-1.38781E-13
 -1      3387 2.10851E+01-3.34931E-01-2.16818E-03-1.10164E+00 6.70758E-15-8.85064E-14
 -1      3388 1.98514E+01 2.18347E+00-3.41313E-03 3.25245E-02 2.87168E-13-3.93584E-13
 -1      3389 1.96496E+01 2.36858E+00-5.04979E-03-2.70980E-02 2.42003E-13-4.41024E-13
 -1      3390 1.96047E+01 2.20215E+00 5.12457E-03-1.90330E-01 2.07206E-13-4.23977E-13
 -1      3391 2.00082E+01 1.81908E+00 4.36358E-03-1.36154E-01 2.75988E-13-3.35864E-13
 -1      3392 2.00032E+01 5.39335E-04-9.68524E-06-3.54968E-03 7.52352E-14-3.03083E-13
 -1      3393 2.00028E+01 3.87037E-04 2.23797E-06-4.03660E-03 1.44156E-13-1.30448E-13
 -1      3394 1.93963E+01 2.61908E+00-6.27350E-03-3.35801E-02-1.86541E-13-4.58978E-13
 -1      3395 1.96041E+01 2.44689E+00-3.46007E-03-4.59279E-02-2.48935E-13-4.44517E-13
 -1      3396 2.14700E+01-1.00734E+00-1.44777E-02-1.16088E+00-3.36829E-15-7.16605E-14
 -1      3397 2.14712E+01-7.62396E-01-4.83609E-03-9.96361E-01-1.64267E-15-8.48729E-14
 -1      3398 2.12914E+01-5.36578E-01 1.18512E-02-1.08720E+00-5.36973E-15-1.01258E-13
 -1      3399 1.53366E+01-1.37642E+00 1.04299E-01 4.20290E+00 3.19651E-13-4.32043E-13
 -1      3400 1.15947E+01 3.24080E-01 1.24098E-01 1.71990E+00 1.21020E-13-6.22183E-13
 -1      3401 2.00037E+01 1.00207E-03-1.43993E-05-2.30212E-03 1.29975E-13 2.93402E-13
 -1      3402 2.00035E+01 9.13805E-04-1.14104E-06-2.93374E-03 1.55033E-13-8.29746E-14
 -1      3403 2.00039E+01 2.44357E-03 1.69618E-05-3.01428E-03 2.89561E-13-2.10564E-13
 -1      3404 2.00024E+01 3.12148E-04-1.74842E-06 4.68857E-03-7.91636E-14-3.44861E-13
 -1      3405 2.00032E+01 1.94910E-03 3.51292E-05 4.09414E-03-9.91102E-14-2.59882E-13
 -1      3406 1.33892E+01-1.63026E+00 1.24852E-01-4.76479E+00-3.38146E-13-5.60593E-13
 -1      3407 2.00040E+01 1.34490E-03-1.29757E-05-1.01571E-03 1.18665E-13 1.76279E-13
 -1      3408 2.00039E+01 1.29443E-03-4.98248E-06-1.67728E-03 7.04993E-14 3.20936E-13
 -1      3409 2.00044E+01 3.13871E-03 3.04668E-05-1.82729E-03 2.41569E-13 2.70070E-13
 -1      3410 2.00046E+01 3.55760E-03 3.57928E-05-6.55091E-04 1.27793E-13-4.73264E-14
 -1      3411 2.17641E+01-4.22316E+00 4.06503E-02 4.02706E+00-6.77298E-13-6.56055E-14
 -1      3412 2.03066E+01-3.63363E+00 1.52035E-02 4.23846E+00-6.49491E-13-7.57831E-14
 -1      3413 2.28588E+01-3.84904E+00 1.85834E-02 2.76534E+00-5.54650E-13-1.72089E-13
 -1      3414 1.65210E+01-1.73896E+00 5.78153E-02-4.30163E+00 5.65454E-13 2.45606E-13
 -1      3415 1.91219E+01-1.82595E+00 4.10951E-02-3.55732E+00 4.12751E-13-5.98488E-14
 -1      3416 1.85345E+01-1.11656E+00 5.74610E-03-3.28634E+00 3.44045E-13 1.19765E-14
 -1      3417 1.54798E+01-8.47907E-01-6.03471E-05-3.67138E+00 4.47463E-13 2.10311E-13
 -1      3418 2.00500E+01-3.56360E+00 5.09161E-02 4.43294E+00 3.75290E-13-1.23200E-13
 -1      3419 1.92253E+01 2.76571E+00-4.40712E-03-6.80807E-02-1.34633E-13-4.84925E-13
 -1      3420 1.93138E+01 2.48266E+00 5.23020E-03 7.84134E-02-1.50894E-13-4.14664E-13
 -1      3421 1.90908E+01 2.87027E+00-5.52407E-03-6.27202E-02-6.42272E-14-5.08378E-13
 -1      3422 2.50581E+01-1.27577E+00-1.87879E-02 1.30757E+00 5.87351E-14 2.97668E-13
 -1      3423 2.56774E+01-3.87237E-01-2.54593E-02 1.86394E+00 1.37987E-13 3.55993E-13
 -1      3424 2.06112E+01 6.32436E-01-1.28940E-03-6.11839E-01 2.38710E-13-1.59979E-13
 -1      3425 2.05994E+01 8.04233E-01 4.62991E-03-4.26626E-01 2.68687E-13-1.77057E-13
 -1      3426 2.04811E+01 9.96715E-01 1.49035E-04-3.81014E-01 2.83699E-13-1.88253E-13
 -1      3427 2.04801E+01 6.87615E-01-2.65755E-03-7.16711E-01 1.98105E-13-1.96763E-13
 -1      3428 2.50355E+01-3.48629E+00-2.71970E-02-9.07109E-01-2.28748E-13 1.91597E-13
 -1      3429 1.03719E+01 4.79271E-01 1.34638E-01 3.25369E-01-3.43996E-14 5.94441E-13
 -1      3430 2.56691E+01 2.19926E-01-6.91350E-02-2.04096E+00 1.59581E-13-5.09034E-13
 -1      3431 2.00036E+01 3.40586E-03-1.16769E-05 3.59242E-03-2.19823E-13-2.79318E-13
 -1      3432 2.00041E+01 3.50146E-03-4.40410E-05 3.13281E-03-5.88259E-14-4.28506E-13
 -1      3433 2.00041E+01 4.93172E-03 5.72458E-05 2.92547E-03-9.72412E-14-2.68715E-13
 -1      3434 2.21916E+01-1.82033E+00-7.01415E-04-1.11953E+00-1.22567E-14-3.62572E-14
 -1      3435 2.18283E+01-1.50252E+00 2.34060E-02-1.31871E+00-2.00927E-14-4.71518E-14
 -1      3436 1.89697E+01-2.18798E+00 6.36441E-02 4.06876E+00 2.89228E-13-1.12955E-13
 -1      3437 1.98255E+01 1.91816E+00 1.22432E-03 2.54020E-01-2.10632E-13-4.18124E-13
 -1      3438 1.97158E+01 1.70088E+00-4.84480E-03 5.48635E-01-1.76687E-13-3.91516E-13
 -1      3439 1.93132E+01 1.30366E+00-3.66202E-03 1.17829E+00-1.09636E-13-3.03707E-13
 -1      3440 1.92102E+01 1.19610E+00 1.32712E-03 1.37425E+00-8.13488E-14-3.02896E-13
 -1      3441 1.89925E+01 1.07722E+00-6.34482E-03 1.56666E+00-6.27150E-14-2.73064E-13
 -1      3442 1.89020E+01 9.45562E-01 5.95927E-03 1.76516E+00-4.51620E-14-2.49067E-13
 -1      3443 1.87424E+01 1.31654E+00 7.17955E-03 1.33166E+00-7.06343E-14-3.10447E-13
 -1      3444 1.86415E+01 7.71118E-01-8.36682E-03 1.99306E+00-3.88154E-14-2.22804E-13
 -1      3445 1.86027E+01 5.60175E-01 1.31273E-02 2.21354E+00 1.12033E-14-2.47192E-13
 -1      3446 1.82729E+01 1.05623E+00 7.54997E-03 1.73467E+00-2.23649E-14-2.48941E-13
 -1      3447 1.83324E+01 2.65057E-01-6.95356E-03 2.50769E+00 6.27818E-14-2.43394E-13
 -1      3448 1.84223E+01-8.38963E-02 2.95949E-02 2.76347E+00 1.31207E-13-2.26676E-13
 -1      3449 1.77560E+01 6.50411E-01 1.20221E-02 2.25812E+00 4.90307E-14-2.37174E-13
 -1      3450 1.81658E+01-5.48361E-01 6.01923E-03 3.19588E+00 2.13379E-13-2.14840E-13
 -1      3451 1.84929E+01-1.20790E+00 3.33368E-02 3.51319E+00 2.77492E-13-1.68427E-13
 -1      3452 1.72336E+01 1.31393E-03 3.18805E-02 2.97902E+00 1.84784E-13-2.12658E-13
 -1      3453 1.86133E+01-5.34014E-01 2.80715E-02-2.86673E+00 2.89213E-13 3.67408E-14
 -1      3454 1.83960E+01-1.04385E-01-7.14564E-03-2.61953E+00 2.89027E-13-5.97053E-14
 -1      3455 1.73851E+01-5.05356E-01 1.43104E-02-3.16341E+00 3.45773E-13 1.43035E-13
 -1      3456 1.85896E+01 2.35721E-01 1.61537E-02-2.30474E+00 1.74484E-13-1.37670E-13
 -1      3457 1.85447E+01 4.64849E-01-1.02580E-02-2.10007E+00 1.51609E-13-1.94124E-13
 -1      3458 1.76664E+01 3.14236E-01 6.20420E-03-2.39666E+00 1.25102E-13 1.11005E-13
 -1      3459 1.87605E+01 6.36927E-01 7.94290E-03-1.87651E+00 2.01395E-13-1.80246E-13
 -1      3460 1.87965E+01 7.38874E-01-9.06708E-03-1.70985E+00 2.04552E-13-2.10976E-13
 -1      3461 1.80748E+01 7.37307E-01 6.48080E-03-1.87164E+00 1.56557E-13 1.99051E-14
 -1      3462 1.89949E+01 8.05657E-01 3.82259E-03-1.54472E+00 1.45449E-13-2.69905E-13
 -1      3463 1.90580E+01 8.30654E-01-7.19006E-03-1.40595E+00 5.34240E-14-2.18299E-13
 -1      3464 1.84758E+01 9.14657E-01 6.28999E-03-1.50365E+00 1.59166E-13-7.52822E-14
 -1      3465 1.92261E+01 8.35338E-01 1.82521E-03-1.27679E+00 9.33281E-15-2.74516E-13
 -1      3466 1.92905E+01 8.16798E-01-5.64375E-03-1.15814E+00 1.73663E-14-3.55407E-13
 -1      3467 1.88279E+01 9.46219E-01 5.65394E-03-1.22953E+00 4.19486E-15-1.79552E-13
 -1      3468 1.94267E+01 7.87861E-01 9.22834E-04-1.05222E+00 4.03630E-14-3.20932E-13
 -1      3469 1.94817E+01 7.47211E-01-4.48999E-03-9.49360E-01 2.74430E-14-3.71808E-13
 -1      3470 1.91193E+01 8.95650E-01 4.77744E-03-1.01163E+00 9.99445E-16-3.87635E-13
 -1      3471 1.95888E+01 7.02558E-01 5.76888E-04-8.60090E-01 5.66125E-14-3.34585E-13
 -1      3472 1.96313E+01 6.52998E-01-3.60968E-03-7.70921E-01 9.03932E-14-2.70076E-13
 -1      3473 1.93516E+01 8.03425E-01 3.88897E-03-8.30147E-01 4.63683E-14-4.71323E-13
 -1      3474 1.97137E+01 6.03370E-01 4.82733E-04-6.95022E-01 8.93389E-14-1.79094E-13
 -1      3475 1.97445E+01 5.52656E-01-2.91430E-03-6.18430E-01 8.36287E-14-2.30428E-13
 -1      3476 1.95318E+01 6.94659E-01 3.08834E-03-6.75470E-01 1.78573E-13-5.32689E-13
 -1      3477 1.98067E+01 5.04116E-01 4.79044E-04-5.54124E-01-4.48022E-14-2.02365E-13
 -1      3478 1.98278E+01 4.56486E-01-2.34939E-03-4.89251E-01-8.48987E-14-1.87481E-13
 -1      3479 1.96685E+01 5.84387E-01 2.40826E-03-5.43053E-01-2.00141E-14-3.27788E-13
 -1      3480 1.98740E+01 4.12153E-01 4.89851E-04-4.35338E-01-3.08672E-14-9.14346E-14
 -1      3481 1.98877E+01 3.69657E-01-1.88329E-03-3.81264E-01 9.13420E-14-3.37966E-14
 -1      3482 1.97702E+01 4.80997E-01 1.85035E-03-4.30473E-01 5.88501E-15-6.66423E-14
 -1      3483 1.99216E+01 3.30873E-01 4.85990E-04-3.36694E-01 2.30018E-14-1.25059E-13
 -1      3484 1.99299E+01 2.94251E-01-1.49687E-03-2.92362E-01-1.13204E-13-9.62669E-14
 -1      3485 1.98448E+01 3.88642E-01 1.40327E-03-3.35984E-01 1.15161E-14-1.29054E-13
 -1      3486 1.99544E+01 2.61328E-01 4.61570E-04-2.56089E-01-1.71601E-13-8.62871E-16
 -1      3487 1.99590E+01 2.30571E-01-1.17736E-03-2.20337E-01-1.57814E-13 6.78105E-14
 -1      3488 1.98984E+01 3.08870E-01 1.05119E-03-2.57909E-01-7.22610E-14-2.90355E-13
 -1      3489 1.99763E+01 2.03261E-01 4.20443E-04-1.91291E-01-1.67169E-13-6.22910E-15
 -1      3490 1.99785E+01 1.77958E-01-9.15125E-04-1.62923E-01-1.80166E-13-7.48048E-14
 -1      3491 1.99364E+01 2.41698E-01 7.77750E-04-1.94461E-01-2.17475E-13-2.12469E-13
 -1      3492 1.99906E+01 1.55730E-01 3.69235E-04-1.40043E-01-1.75042E-13-1.24766E-13
 -1      3493 1.99913E+01 1.35282E-01-7.02045E-04-1.17894E-01-5.14147E-14-2.90356E-13
 -1      3494 1.99628E+01 1.86293E-01 5.67891E-04-1.43764E-01-1.81044E-13-3.64516E-13
 -1      3495 1.99994E+01 1.17491E-01 3.14207E-04-1.00168E-01 3.39157E-14-2.55175E-13
 -1      3496 1.99992E+01 1.01230E-01-5.30920E-04-8.31528E-02-8.92937E-15-2.69212E-13
 -1      3497 1.99806E+01 1.41406E-01 4.08577E-04-1.03935E-01-2.06654E-14-3.30460E-13
 -1      3498 2.00045E+01 8.72095E-02 2.60136E-04-6.96513E-02 2.76206E-14-2.13648E-13
 -1      3499 2.00038E+01 7.44754E-02-3.95255E-04-5.67965E-02 1.56194E-13-1.65355E-13
 -1      3500 1.99923E+01 1.05627E-01 2.88946E-04-7.31733E-02 2.78893E-15-2.66639E-13
 -1      3501 2.00071E+01 6.35916E-02 2.10148E-04-4.66946E-02 1.56239E-13-2.18535E-13
 -1      3502 2.00061E+01 5.37679E-02-2.89209E-04-3.71532E-02 1.61197E-13-2.26712E-13
 -1      3503 1.99996E+01 7.75479E-02 2.00171E-04-4.98250E-02 1.38489E-13-2.45956E-13
 -1      3504 2.00081E+01 4.54427E-02 1.65971E-04-2.97388E-02 1.35310E-14-2.29026E-13
 -1      3505 2.00070E+01 3.79751E-02-2.07630E-04-2.27933E-02 3.35013E-15-2.45822E-13
 -1      3506 2.00038E+01 5.58400E-02 1.35168E-04-3.24253E-02 3.91042E-14-3.39678E-13
 -1      3507 2.00080E+01 3.16981E-02 1.28350E-04-1.74679E-02 1.90897E-13-1.15030E-13
 -1      3508 2.00069E+01 2.60992E-02-1.46203E-04-1.25251E-02 1.94382E-13-7.29015E-15
 -1      3509 2.00059E+01 3.93031E-02 8.81396E-05-1.97146E-02 1.11541E-13 3.00226E-14
 -1      3510 2.00073E+01 2.14273E-02 9.76023E-05-8.79845E-03 3.41838E-14 5.01677E-14
 -1      3511 2.00063E+01 1.72761E-02-1.00848E-04-5.38047E-03-7.18374E-14 1.42892E-13
 -1      3512 2.00066E+01 2.68764E-02 5.42328E-05-1.06393E-02 1.48614E-13 2.29905E-13
 -1      3513 2.00062E+01 1.38417E-02 7.74656E-05-2.86028E-03-5.25887E-14 1.15149E-13
 -1      3514 2.00054E+01 1.07986E-02-5.84771E-05-6.02542E-04 6.04576E-14 1.17546E-13
 -1      3515 2.00064E+01 1.76303E-02 2.33542E-05-4.34981E-03 3.29835E-14 2.67848E-13
 -1      3516 2.00052E+01 8.86323E-03 6.75614E-05 7.11635E-04 1.19535E-14-3.91348E-14
 -1      3517 2.00044E+01 6.54627E-03-2.65501E-05 2.12658E-03 4.72634E-15-1.88991E-14
 -1      3518 2.00050E+01 7.07079E-03-5.52071E-05 1.78173E-03-2.16505E-13-3.19070E-13
 -1      3519 2.00057E+01 1.13946E-02-2.80065E-05-4.42457E-04-1.16126E-13 1.52814E-13
 -1      3520 2.49348E+01-1.96881E+00 1.75681E-02 8.76542E-01-5.01587E-14 2.90444E-13
 -1      3521 2.36167E+01-2.29584E+00 1.86954E-02 6.51720E-02-2.40604E-13-2.21965E-13
 -1      3522 2.39916E+01-2.23523E+00-2.58256E-02-3.92480E-01-1.23922E-13-2.82042E-13
 -1      3523 2.25310E+01-1.99157E+00 2.58474E-02 8.05543E-01-2.85662E-13-3.23621E-14
 -1      3524 2.29320E+01-2.20608E+00-8.27138E-03 4.81548E-01-2.82946E-13-1.47611E-13
 -1      3525 2.32274E+01-2.55978E+00 5.48523E-03 7.37896E-01-2.94405E-13-2.56121E-13
 -1      3526 2.15933E+01-1.39354E+00 2.05626E-02 1.19484E+00-1.17586E-13 1.22541E-14
 -1      3527 2.19451E+01-1.70962E+00-4.92584E-03 1.02227E+00-1.58701E-13 7.15384E-15
 -1      3528 2.19682E+01-2.08476E+00-2.23212E-02 1.34479E+00-2.49767E-13-8.95299E-14
 -1      3529 2.09170E+01-8.10390E-01 1.31931E-02 1.32079E+00-6.57491E-14 6.23576E-14
 -1      3530 2.11892E+01-1.09731E+00 1.42091E-04 1.25377E+00-8.68782E-14 5.23315E-14
 -1      3531 2.10414E+01-1.36467E+00-2.14531E-02 1.53792E+00-9.91679E-14-4.99262E-14
 -1      3532 2.04741E+01-3.43681E-01 7.53414E-03 1.29558E+00-3.72124E-14 8.31058E-14
 -1      3533 2.06657E+01-5.63085E-01 2.46040E-03 1.29528E+00-3.75470E-14 8.89197E-14
 -1      3534 2.04411E+01-7.23538E-01-1.53248E-02 1.51832E+00-1.08505E-13 4.03731E-14
 -1      3535 2.02075E+01-1.59293E-02 3.72008E-03 1.19163E+00-9.24718E-14 5.86970E-14
 -1      3536 2.03340E+01-1.64287E-01 3.19820E-03 1.22952E+00-4.04697E-14 8.52759E-14
 -1      3537 2.00876E+01-2.40430E-01-9.61587E-03 1.39159E+00-9.43044E-14 8.25791E-14
 -1      3538 2.00600E+01 1.89533E-01 1.34268E-03 1.05277E+00-2.54431E-13 8.06664E-14
 -1      3539 2.01399E+01 1.00264E-01 3.02525E-03 1.11038E+00-1.02796E-13 1.24086E-13
 -1      3540 1.99023E+01 8.29677E-02-5.57524E-03 1.22412E+00-1.17176E-13 1.01490E-13
 -1      3541 1.99871E+01 3.00708E-01-5.82637E-05 9.03346E-01-1.92659E-13 6.63528E-14
 -1      3542 2.00362E+01 2.55533E-01 2.62097E-03 9.69049E-01-3.03464E-13 1.08952E-13
 -1      3543 1.98224E+01 2.76375E-01-2.93061E-03 1.04831E+00-2.66016E-13 1.11742E-13
 -1      3544 1.99580E+01 3.45348E-01-8.19509E-04 7.57057E-01-1.79703E-13 1.89396E-13
 -1      3545 1.99879E+01 3.30496E-01 2.21571E-03 8.23608E-01-1.67341E-13 1.47100E-13
 -1      3546 1.98039E+01 3.73721E-01-1.31248E-03 8.79577E-01-1.97215E-13 1.09840E-13
 -1      3547 1.99527E+01 3.46608E-01-1.17497E-03 6.21466E-01 1.71698E-13 6.35357E-14
 -1      3548 1.99710E+01 3.51015E-01 1.87549E-03 6.84480E-01 6.95008E-14 2.14276E-13
 -1      3549 1.98179E+01 4.05244E-01-3.87630E-04 7.25104E-01-2.29329E-14 1.81225E-13
 -1      3550 1.99587E+01 3.22062E-01-1.28091E-03 5.00466E-01 5.91097E-14-1.69062E-14
 -1      3551 1.99704E+01 3.37528E-01 1.59958E-03 5.57459E-01 1.47676E-13 3.12778E-14
 -1      3552 1.98465E+01 3.94954E-01 9.64670E-05 5.87971E-01 1.10354E-13 1.11302E-13
 -1      3553 1.99690E+01 2.84190E-01-1.24058E-03 3.95638E-01-1.05324E-13-1.85172E-14
 -1      3554 1.99770E+01 3.04999E-01 1.37006E-03 4.45423E-01-7.37413E-14-8.17508E-14
 -1      3555 1.98791E+01 3.60585E-01 3.14032E-04 4.69103E-01 2.99140E-14 1.89344E-13
 -1      3556 1.99797E+01 2.41350E-01-1.12152E-03 3.07061E-01 5.65326E-14 6.64552E-14
 -1      3557 1.99855E+01 2.63740E-01 1.17114E-03 3.49329E-01 5.53313E-15 2.14592E-14
 -1      3558 1.99101E+01 3.14517E-01 3.78962E-04 3.68184E-01-8.73977E-14 1.45123E-13
 -1      3559 1.99890E+01 1.98793E-01-9.67150E-04 2.33852E-01-4.34040E-14 1.04376E-13
 -1      3560 1.99936E+01 2.20453E-01 9.93536E-04 2.68870E-01 6.41571E-14 1.29715E-13
 -1      3561 1.99369E+01 2.64930E-01 3.63149E-04 2.84131E-01 4.19006E-14 5.99130E-14
 -1      3562 1.99962E+01 1.59542E-01-8.04554E-04 1.74560E-01-8.79580E-15 1.14568E-13
 -1      3563 2.00001E+01 1.79185E-01 8.33230E-04 2.02941E-01-1.09697E-13 3.29171E-14
 -1      3564 1.99585E+01 2.16886E-01 3.10289E-04 2.15388E-01-8.10615E-14 6.82194E-14
 -1      3565 2.00014E+01 1.25102E-01-6.49700E-04 1.27447E-01 2.37275E-13-1.54977E-14
 -1      3566 2.00047E+01 1.42132E-01 6.89128E-04 1.49988E-01 1.54469E-13 1.44874E-14
 -1      3567 1.99750E+01 1.73228E-01 2.45661E-04 1.60143E-01 6.16874E-14 1.32189E-13
 -1      3568 2.00047E+01 9.59818E-02-5.11095E-04 9.06973E-02-1.44767E-13 2.10094E-13
 -1      3569 2.00076E+01 1.10248E-01 5.61277E-04 1.08256E-01 4.04869E-14 1.31218E-13
 -1      3570 1.99870E+01 1.35293E-01 1.82858E-04 1.16505E-01 4.59973E-14 1.76182E-13
 -1      3571 2.00066E+01 7.20806E-02-3.92385E-04 6.25523E-02-3.85916E-13 4.43893E-13
 -1      3572 2.00090E+01 8.37002E-02 4.49814E-04 7.59708E-02-2.27939E-13 3.04036E-13
 -1      3573 1.99954E+01 1.03439E-01 1.28323E-04 8.26212E-02-2.64128E-13 3.29041E-13
 -1      3574 2.00073E+01 5.29516E-02-2.94194E-04 4.13986E-02-1.37120E-13 2.92960E-13
 -1      3575 2.00094E+01 6.21895E-02 3.54488E-04 5.14551E-02-2.54034E-13 4.37015E-13
 -1      3576 2.00009E+01 7.74296E-02 8.43021E-05 5.67650E-02-2.29941E-13 2.58815E-13
 -1      3577 2.00073E+01 3.79798E-02-2.15257E-04 2.58142E-02-8.17628E-14 1.73434E-13
 -1      3578 2.00090E+01 4.51668E-02 2.74524E-04 3.31959E-02-7.72335E-14 2.91012E-13
 -1      3579 2.00041E+01 5.66980E-02 5.07568E-05 3.73904E-02-6.57783E-14 1.53190E-13
 -1      3580 2.00067E+01 2.64939E-02-1.53563E-04 1.45852E-02-3.64819E-14 1.89059E-13
 -1      3581 2.00082E+01 3.19780E-02 2.08741E-04 1.98784E-02-3.42769E-14 1.79294E-13
 -1      3582 2.00057E+01 4.05248E-02 2.67028E-05 2.31552E-02-4.70893E-14 1.41173E-13
 -1      3583 2.00059E+01 1.78278E-02-1.06707E-04 6.70581E-03-1.09935E-13 2.31833E-13
 -1      3584 2.00071E+01 2.19474E-02 1.55614E-04 1.03947E-02-6.97569E-14 1.44142E-13
 -1      3585 2.00062E+01 2.81466E-02 1.05059E-05 1.29237E-02-5.42812E-15 2.50633E-13
 -1      3586 2.00049E+01 1.13826E-02-7.09438E-05 1.37034E-03 1.46887E-13 2.04976E-13
 -1      3587 2.00058E+01 1.44349E-02 1.13268E-04 3.84553E-03 7.26722E-14 1.80495E-13
 -1      3588 2.00060E+01 1.88305E-02 3.26898E-06 5.77429E-03-5.46914E-14 3.05413E-13
 -1      3589 2.00038E+01 6.54893E-03-4.73854E-05-2.04538E-03 2.95834E-14-5.79315E-14
 -1      3590 2.00046E+01 8.82537E-03 7.75649E-05-5.13095E-04 1.09214E-13-1.90150E-15
 -1      3591 2.00053E+01 1.18586E-02-9.67625E-06 9.30462E-04 2.13095E-13 2.25175E-13
 -1      3592 2.00028E+01 2.95527E-03-1.86975E-05-4.05672E-03-6.10716E-15-2.70785E-13
 -1      3593 2.00034E+01 4.67124E-03 5.34833E-05-3.17912E-03 4.38663E-14-1.36758E-13
 -1      3594 2.00043E+01 6.73123E-03 1.93565E-06-2.10917E-03 7.13625E-14 5.16429E-15
 -1      3595 2.00019E+01 5.79426E-04-3.05876E-05 4.96635E-03-3.05205E-14-5.39215E-14
 -1      3596 1.36046E+01-9.34257E-01 3.29190E-02-4.08804E+00-2.67134E-13-4.89352E-13
 -1      3597 1.54527E+01-2.05110E+00 6.72550E-02-5.04843E+00-3.53162E-13-4.28720E-13
 -1      3598 1.75284E+01-2.25042E+00 6.44115E-02-4.51877E+00-3.38195E-13-3.04270E-13
 -1      3599 2.00050E+01 5.78555E-03-1.76255E-05 6.29824E-04-1.52922E-13-1.40350E-13
 -1      3600 2.00050E+01 5.90589E-03-2.33428E-05 1.06812E-04-4.81043E-14-2.84001E-13
 -1      3601 2.42621E+01-3.55776E+00 4.17221E-02-1.51182E+00-2.69097E-13 1.31061E-13
 -1      3602 2.48052E+01-2.90946E+00-4.22833E-02-1.63632E-01-1.24234E-13 2.96275E-13
 -1      3603 1.13146E+01 5.41772E-01-8.19022E-03-1.01349E+00-2.89907E-14-5.69732E-13
 -1      3604 1.20920E+01 7.30124E-02 7.11735E-02-2.79923E+00-1.44926E-13-5.55361E-13
 -1      3605 1.71955E+01-1.54285E+00-1.35870E-02 4.14516E+00 2.99883E-13-2.27676E-13
 -1      3606 1.50654E+01-2.75674E-01 8.32060E-02 3.40744E+00 2.30084E-13-4.04968E-13
 -1      3607 1.28064E+01 2.93566E-01-4.58780E-02 2.31609E+00 8.91631E-14-5.91804E-13
 -1      3608 1.20130E+01 8.56907E-01 1.16988E-01 6.06462E-01 5.96144E-14-6.30891E-13
 -1      3609 1.89483E+01 2.98262E+00-3.82534E-03-9.82168E-02-9.76420E-15-5.69683E-13
 -1      3610 1.89983E+01 2.94335E+00-4.84275E-03-1.02537E-01-4.76694E-14-5.45981E-13
 -1      3611 1.90520E+01 2.69813E+00 7.65083E-03-1.68998E-02-5.76876E-14-5.12468E-13
 -1      3612 1.31389E+01-3.26966E-01 1.62610E-02 3.37294E+00-2.85015E-13 4.58064E-13
 -1      3613 1.20177E+01 3.36876E-01 6.59773E-02 2.29411E+00-1.56351E-13 5.73645E-13
 -1      3614 1.20626E+01 6.69591E-01 1.01610E-01-1.53126E+00 1.70839E-13 2.52728E-13
 -1      3615 1.34476E+01 1.15638E-01 1.62354E-02-2.59369E+00 3.35339E-13 1.65062E-13
 -1      3616 2.50203E+01 2.84187E+00-8.21557E-02 1.80777E+00 4.61076E-13 1.88296E-13
 -1      3617 2.52559E+01-8.03206E-01 6.95539E-03-1.72528E+00 3.88717E-14-5.47200E-13
 -1      3618 2.03812E+01 3.86960E-01 4.64697E-04-1.10001E+00 8.87209E-14-2.09523E-13
 -1      3619 2.03265E+01 5.86986E-01 3.80609E-03-9.69258E-01 1.33543E-13-2.25031E-13
 -1      3620 2.47056E+01-1.37490E+00-1.41403E-02-1.35738E+00 9.57069E-15-3.71553E-13
 -1      3621 2.54839E+01-1.94589E+00-5.68485E-02-1.00253E+00-4.55747E-14-5.65744E-13
 -1      3622 2.53924E+01-2.75725E+00 2.99263E-02-2.08907E-01-2.59091E-13-4.63138E-13
 -1      3623 2.45150E+01-1.92122E+00 2.22037E-02-9.25698E-01-8.24974E-14-3.42190E-13
 -1      3624 1.14417E+01 6.57609E-01 4.73901E-02 1.20352E+00 2.41899E-14 6.02712E-13
 -1      3625 1.13042E+01 7.05519E-01 3.18290E-02-4.22128E-01 1.46877E-13 4.05800E-13
 -1      3626 1.29682E+01 8.86561E-01 5.47169E-02-6.70886E-01 1.31861E-13 2.96853E-13
 -1      3627 1.29435E+01 6.85937E-01 6.88879E-02 1.52041E+00-8.48280E-15 4.41654E-13
 -1      3628 1.95747E+01 1.53781E+00-3.59548E-04 7.83205E-01-1.51463E-13-3.46116E-13
 -1      3629 1.94779E+01 1.41260E+00-2.08777E-03 9.91498E-01-1.23294E-13-3.25141E-13
 -1      3630 1.91212E+01 1.54472E+00 8.16917E-03 9.69229E-01-1.08567E-13-3.02218E-13
 -1      3631 2.23422E+01-3.73528E+00 2.24634E-02-3.15363E+00-3.55434E-13-8.91431E-14
 -1      3632 2.34219E+01-3.85418E+00-4.91227E-02-2.31277E+00-3.03148E-13-2.07959E-14
 -1      3633 2.35862E+01-3.28954E+00 6.65948E-03-1.56906E+00-2.14327E-13 7.91907E-14
 -1      3634 2.00024E+01-1.25237E-04-2.00367E-06-4.46479E-03 1.92236E-13-1.19707E-13
 -1      3635 2.00019E+01-2.32208E-04 4.21338E-06-4.85365E-03 1.44826E-13-3.25562E-13
 -1      3636 2.00021E+01 5.40509E-04-6.61913E-06-4.83315E-03 1.93426E-13-2.30172E-13
 -1      3637 2.00031E+01 1.47719E-03-8.24923E-06-4.05824E-03 2.18944E-13-1.98192E-13
 -1      3638 2.46160E+01 1.67447E+00-1.18533E-02 1.94629E+00 2.64011E-13 2.15235E-13
 -1      3639 2.41883E+01-2.37309E+00-2.04158E-02 1.82224E-01-9.30387E-14 1.85854E-13
 -1      3640 2.46417E+01 5.83690E-01-5.87341E-02 2.00463E+00 1.97568E-13 2.48870E-13
 -1      3641 1.97876E+01 2.08523E+00 3.95849E-03 1.43972E-01-2.26331E-13-4.16647E-13
 -1      3642 2.00055E+01 8.54224E-03 6.38593E-05-1.31700E-04-7.04408E-14-3.72687E-13
 -1      3643 2.00050E+01 5.90213E-03-2.15025E-05-2.89608E-04 3.55809E-15-2.07683E-13
 -1      3644 2.00049E+01 5.77622E-03-2.04170E-05-7.97945E-04 1.19882E-13-5.57693E-14
 -1      3645 1.89548E+01 2.76852E+00 7.84985E-03-1.13478E-01-1.85462E-15-5.36865E-13
 -1      3646 1.92738E+01-2.96548E+00 6.51821E-02 4.34252E+00-5.82850E-13 7.21645E-16
 -1      3647 1.80914E+01-2.21071E+00 9.65254E-03 4.12444E+00-4.41267E-13 1.21788E-13
 -1      3648 2.07026E+01-3.07164E+00 1.43615E-02 3.44011E+00-4.79211E-13 3.56408E-14
 -1      3649 2.00045E+01 4.26432E-03-7.44864E-06 2.52295E-03-1.79691E-13-2.96867E-13
 -1      3650 2.00047E+01 4.65889E-03-4.01559E-05 1.94917E-03-1.99200E-13-9.29905E-14
 -1      3651 2.00051E+01 6.17271E-03 6.34085E-05 1.99239E-03-1.90542E-13-2.51249E-13
 -1      3652 1.93086E+01 2.20448E+00-1.52188E-04-3.31778E-01 1.48939E-13-4.36698E-13
 -1      3653 1.91441E+01 2.32287E+00-6.12527E-03-3.24151E-01 1.06519E-13-4.37443E-13
 -1      3654 2.14066E+01-1.18080E+00-8.12834E-04-1.39009E+00-3.17242E-14-1.06039E-13
 -1      3655 2.11362E+01-8.56601E-01 1.55145E-02-1.45864E+00-3.14333E-14-1.16702E-13
 -1      3656 2.13147E+01-1.47075E+00-2.21180E-02-1.67970E+00-5.94351E-14-1.67292E-13
 -1      3657 2.10023E+01-4.86431E-01-1.16427E-02-1.25255E+00 1.72442E-14-1.34535E-13
 -1      3658 1.28664E+01 8.67597E-01 7.50231E-02-2.73861E-01-2.73809E-14-5.49224E-13
 -1      3659 2.01253E+01 1.47671E+00-1.04387E-03-3.02765E-01 2.68074E-13-2.87535E-13
 -1      3660 1.99125E+01 1.68355E+00-2.21871E-03-3.27655E-01 2.30455E-13-3.37373E-13
 -1      3661 2.05578E+01-4.68708E-02 1.82546E-03-1.31278E+00 2.03902E-14-1.80522E-13
 -1      3662 2.04487E+01 1.80720E-01 6.61160E-03-1.23311E+00 4.24890E-14-1.98776E-13
 -1      3663 2.01788E+01 3.74885E-01-6.02363E-03-1.22939E+00 6.37237E-14-2.47856E-13
 -1      3664 2.43749E+01-2.62347E+00-3.67370E-02-1.36217E-01-1.92016E-13-2.84979E-13
 -1      3665 1.90618E+01 2.18301E+00 6.06508E-03-3.90202E-01 8.72665E-14-4.39441E-13
 -1      3666 1.90132E+01 2.44262E+00-7.08527E-04-2.68289E-01 1.02404E-13-4.60178E-13
 -1      3667 1.89174E+01 2.50502E+00-6.30208E-03-2.34598E-01 5.88530E-14-4.92222E-13
 -1      3668 1.45286E+01-6.20748E-01 8.05399E-02 3.72503E+00-3.47222E-13 3.74426E-13
 -1      3669 1.45869E+01-7.71023E-02 3.24262E-02 2.99545E+00-2.17970E-13 2.95921E-13
 -1      3670 1.59510E+01-1.16093E+00-1.33896E-02 3.86035E+00-3.69457E-13 1.48770E-13
 -1      3671 2.00022E+01 1.39834E-03 2.25872E-05-4.62736E-03 6.91818E-14-2.82362E-13
 -1      3672 2.36825E+01-3.62850E+00 4.74798E-02 1.89227E+00-4.44205E-13-3.49215E-13
 -1      3673 2.25540E+01-3.45545E+00-7.40497E-03 2.41871E+00-4.55582E-13-2.13217E-13
 -1      3674 1.40437E+01-2.66594E-01 8.07825E-02-3.21224E+00-2.24411E-13-4.50522E-13
 -1      3675 2.03804E+01 1.12478E+00-2.17305E-04-3.62973E-01 2.87289E-13-2.15875E-13
 -1      3676 2.02403E+01 1.34301E+00 5.80973E-04-3.20361E-01 2.71671E-13-2.48455E-13
 -1      3677 2.01553E+01 1.22909E+00 1.04553E-03-5.13249E-01 2.28820E-13-2.54728E-13
 -1      3678 2.03757E+01 9.61652E-01-7.99714E-04-5.48093E-01 2.48821E-13-2.04535E-13
 -1      3679 1.94360E+01 1.81418E+00 1.47997E-03 5.61451E-01-1.40691E-13-3.67801E-13
 -1      3680 1.47373E+01-3.91012E-02 6.41954E-02-3.00886E+00 3.82694E-13 2.22874E-13
 -1      3681 1.63739E+01-3.01831E-01 2.71032E-02-3.06982E+00 4.05398E-13 1.76630E-13
 -1      3682 1.64285E+01 1.37755E-01-2.54000E-02-2.62675E+00 2.52067E-13 1.86447E-13
 -1      3683 1.44448E+01 5.29838E-01-6.82955E-03-2.12989E+00 2.48229E-13 1.01683E-13
 -1      3684 2.00049E+01 5.17123E-03-1.44038E-05 1.54156E-03-1.31818E-13 9.06192E-14
 -1      3685 2.00050E+01 5.46441E-03-3.05747E-05 9.79675E-04-2.66215E-13 9.44953E-14
 -1      3686 2.00055E+01 8.20474E-03 6.11108E-05 4.94319E-04-1.93031E-13-1.52000E-13
 -1      3687 2.00054E+01 7.41845E-03 6.50162E-05 1.12805E-03-1.84127E-13 4.23906E-14
 -1      3688 2.38242E+01-2.47089E+00 2.50027E-02-2.86992E-01-7.43494E-14 1.05326E-13
 -1      3689 2.31431E+01-2.32495E+00-4.34375E-03-6.28496E-01-4.98902E-14 4.32805E-14
 -1      3690 2.27117E+01-2.12138E+00 2.54014E-02-9.80955E-01-4.30901E-14-1.31251E-14
 -1      3691 2.21732E+01-2.21816E+00-2.20984E-02-1.53356E+00-6.37845E-14-5.64852E-14
 -1      3692 2.33244E+01-2.87307E+00-2.95549E-02-1.13550E+00-1.32032E-13 1.06363E-13
 -1      3693 1.50025E+01 2.50433E-01 2.84583E-02 2.50720E+00 1.19557E-13-4.14956E-13
 -1      3694 2.04260E+01-3.05691E+00 1.82586E-02-3.79637E+00-2.95485E-13-1.50564E-13
 -1      3695 2.15448E+01-3.57167E+00 4.56315E-03-3.55396E+00-3.32311E-13-1.62878E-13
 -1      3696 2.22385E+01-3.19643E+00 1.58942E-02-2.63660E+00-2.88690E-13-1.03382E-13
 -1      3697 2.00032E+01 2.69905E-03-4.46234E-06-3.90283E-03 1.27435E-13-1.36448E-13
 -1      3698 2.43985E+01-3.41354E+00-3.52980E-02 1.01737E+00-3.73329E-13-3.61715E-13
 -1      3699 1.95239E+01 2.16611E+00-1.41864E-03 2.22512E-01-1.77902E-13-3.94576E-13
 -1      3700 1.91416E+01 2.45465E+00-7.40365E-03 1.10622E-01-1.06948E-13-4.08733E-13
 -1      3701 1.93195E+01 2.32954E+00-1.25297E-03 1.57361E-01-1.63931E-13-3.75588E-13
 -1      3702 1.93621E+01 2.18136E+00 3.37684E-03 2.60588E-01-1.43017E-13-3.77105E-13
 -1      3703 2.03537E+01 6.97622E-01 1.97757E-04-8.40141E-01 1.88257E-13-2.16984E-13
 -1      3704 2.03476E+01 8.50531E-01 1.66208E-03-6.89232E-01 2.19757E-13-2.00272E-13
 -1      3705 2.02354E+01 9.73141E-01-6.75302E-04-6.75529E-01 2.19843E-13-2.32715E-13
 -1      3706 2.01686E+01 7.30514E-01-1.37614E-03-9.50671E-01 1.59268E-13-2.61881E-13
 -1      3707 2.00037E+01 3.23960E-03-6.20803E-06-3.42884E-03 7.24844E-14-1.86230E-13
 -1      3708 2.00045E+01 4.48104E-03-4.22225E-05-2.27994E-03 4.43800E-13 8.90333E-14
 -1      3709 2.00042E+01 4.15920E-03-3.82954E-06-2.80998E-03 3.32545E-13-1.12198E-13
 -1      3710 2.00044E+01 5.50804E-03-6.07804E-07-2.67561E-03 2.27737E-13 5.91097E-14
 -1      3711 1.79413E+01 1.27462E+00-1.34371E-02 1.33983E+00-1.70798E-14-3.02322E-13
 -1      3712 1.76876E+01 1.15125E+00 9.88077E-04 1.54051E+00-9.11944E-15-2.86831E-13
 -1      3713 1.71863E+01 9.87466E-01-2.35176E-02 1.74398E+00 2.68916E-14-2.76962E-13
 -1      3714 1.68711E+01 7.59510E-01-1.39458E-02 2.04409E+00 1.16362E-13-2.68984E-13
 -1      3715 1.70180E+01 1.29881E+00 2.68796E-02 1.30513E+00 7.43383E-15-3.11443E-13
 -1      3716 1.61650E+01 6.78633E-01-2.64623E-02 2.07297E+00 1.43541E-13-3.04879E-13
 -1      3717 1.57752E+01 2.98793E-01-2.17564E-02 2.48713E+00 1.65736E-13-3.10276E-13
 -1      3718 1.43219E+01 1.09884E+00 8.77081E-02 1.39321E+00 5.74710E-14-5.35223E-13
 -1      3719 1.59464E+01 1.15958E+00 6.40120E-02 1.46714E+00 9.47272E-14-3.64779E-13
 -1      3720 2.08802E+01-5.65279E-01 1.66377E-03-1.42465E+00 2.45789E-15-1.39008E-13
 -1      3721 2.06973E+01-2.90046E-01 1.00279E-02-1.40695E+00 2.66586E-14-1.53116E-13
 -1      3722 2.07003E+01-7.41175E-01-1.69787E-02-1.65174E+00-2.54191E-14-1.97882E-13
 -1      3723 1.69644E+01 4.63448E-01 1.33329E-02-2.25473E+00 9.56447E-14 1.42730E-13
 -1      3724 1.71368E+01 6.82216E-01-2.10586E-02-1.96502E+00 3.57199E-14 6.88888E-14
 -1      3725 1.60787E+01 6.35504E-01 2.68184E-02-2.13096E+00 1.09514E-13 5.08745E-14
 -1      3726 1.75596E+01 8.44221E-01 5.01590E-03-1.73045E+00 9.70949E-14 5.36719E-14
 -1      3727 1.77560E+01 9.39131E-01-1.47041E-02-1.53510E+00 1.15762E-13-3.63554E-14
 -1      3728 1.69508E+01 9.72984E-01 1.44462E-02-1.58263E+00 9.50238E-14 9.92442E-14
 -1      3729 1.80868E+01 9.98933E-01 1.36872E-03-1.37995E+00 1.31403E-13-2.76729E-14
 -1      3730 1.82714E+01 1.02050E+00-9.58147E-03-1.24024E+00 1.29356E-13-1.14662E-13
 -1      3731 1.76510E+01 1.10355E+00 9.84424E-03-1.24035E+00 1.05745E-13-6.19860E-14
 -1      3732 1.85289E+01 1.01933E+00-7.74292E-05-1.12830E+00-1.46855E-16-1.44006E-13
 -1      3733 1.86875E+01 9.97838E-01-6.35056E-03-1.02045E+00-9.39719E-14-2.08126E-13
 -1      3734 1.82048E+01 1.11085E+00 7.29215E-03-1.00928E+00 2.44418E-14-1.78335E-13
 -1      3735 1.88876E+01 9.62277E-01-6.58858E-04-9.32671E-01-1.02602E-13-2.64225E-13
 -1      3736 1.90170E+01 9.17488E-01-4.44880E-03-8.43891E-01-5.37603E-14-3.63703E-13
 -1      3737 1.86406E+01 1.04587E+00 5.52668E-03-8.36993E-01-1.48744E-13-1.49000E-13
 -1      3738 1.91720E+01 8.64801E-01-7.93228E-04-7.70794E-01 1.29207E-14-3.90797E-13
 -1      3739 1.92739E+01 8.09460E-01-3.29026E-03-6.94928E-01 1.23903E-13-3.80374E-13
 -1      3740 1.89813E+01 9.42039E-01 4.26244E-03-6.97040E-01-3.04325E-14-2.70973E-13
 -1      3741 1.93933E+01 7.50598E-01-7.14355E-04-6.32265E-01 2.25195E-13-4.53087E-13
 -1      3742 1.94714E+01 6.92780E-01-2.54125E-03-5.66602E-01 2.37783E-13-5.26607E-13
 -1      3743 1.92456E+01 8.21227E-01 3.32525E-03-5.77271E-01 1.04834E-13-4.08089E-13
 -1      3744 1.95627E+01 6.34384E-01-5.55026E-04-5.12520E-01 1.17108E-13-3.72582E-13
 -1      3745 1.96212E+01 5.78905E-01-2.01940E-03-4.55873E-01-4.11086E-14-2.47262E-13
 -1      3746 1.94487E+01 6.97733E-01 2.61161E-03-4.72686E-01 2.50878E-13-3.99071E-13
 -1      3747 1.96904E+01 5.24702E-01-3.87618E-04-4.09524E-01-6.20665E-14-2.37055E-13
 -1      3748 1.97335E+01 4.74185E-01-1.62725E-03-3.61237E-01-1.10614E-14-2.76087E-13
 -1      3749 1.96032E+01 5.80281E-01 2.05358E-03-3.81438E-01-6.46133E-14-1.96349E-13
 -1      3750 1.97854E+01 4.26009E-01-2.44674E-04-3.22070E-01-2.20076E-14-2.20533E-13
 -1      3751 1.98165E+01 3.81657E-01-1.31461E-03-2.81562E-01 3.23674E-14-3.35492E-13
 -1      3752 1.97195E+01 4.73713E-01 1.60941E-03-3.02799E-01-3.04977E-14-2.11742E-13
 -1      3753 1.98550E+01 3.40154E-01-1.35938E-04-2.49027E-01-4.53226E-14-4.70903E-13
 -1      3754 1.98771E+01 3.02272E-01-1.05656E-03-2.15632E-01-2.12290E-13-4.50684E-13
 -1      3755 1.98059E+01 3.80255E-01 1.25302E-03-2.36197E-01-8.30837E-14-4.42751E-13
 -1      3756 1.99053E+01 2.67376E-01-6.00026E-05-1.89092E-01-1.95395E-13-3.60325E-13
 -1      3757 1.99206E+01 2.35736E-01-8.40685E-04-1.62045E-01-1.65477E-13-4.96296E-13
 -1      3758 1.98693E+01 3.00439E-01 9.66861E-04-1.80859E-01-1.64173E-13-5.21499E-13
 -1      3759 1.99410E+01 2.06981E-01-1.10367E-05-1.40789E-01-2.12351E-13-4.38466E-13
 -1      3760 1.99513E+01 1.81056E-01-6.60268E-04-1.19264E-01-1.02098E-13-3.69405E-13
 -1      3761 1.99151E+01 2.33749E-01 7.38033E-04-1.35765E-01-2.11793E-13-4.20668E-13
 -1      3762 1.99657E+01 1.57779E-01 1.77321E-05-1.02547E-01 1.26507E-14-3.36942E-13
 -1      3763 1.99726E+01 1.36900E-01-5.10868E-04-8.57123E-02-8.77571E-14-3.60132E-13
 -1      3764 1.99477E+01 1.79077E-01 5.56382E-04-9.97142E-02-5.27971E-14-1.91628E-13
 -1      3765 1.99825E+01 1.18362E-01 3.24270E-05-7.28013E-02 4.34644E-14-3.47311E-13
 -1      3766 1.99868E+01 1.01818E-01-3.88848E-04-5.98631E-02 1.49491E-13-2.49987E-13
 -1      3767 1.99702E+01 1.35026E-01 4.13540E-04-7.14278E-02 1.92195E-14-2.11151E-13
 -1      3768 1.99935E+01 8.72830E-02 3.79528E-05-5.00751E-02 4.32454E-14-1.32311E-13
 -1      3769 1.99960E+01 7.43756E-02-2.90832E-04-4.03077E-02 1.50033E-13-2.38913E-13
 -1      3770 1.99854E+01 1.00104E-01 3.02448E-04-4.96434E-02 1.60979E-13-1.42361E-13
 -1      3771 2.00003E+01 6.31509E-02 3.79065E-05-3.30303E-02 8.15243E-14-2.52693E-13
 -1      3772 2.00016E+01 5.32329E-02-2.13476E-04-2.57956E-02 4.16554E-14-2.07181E-13
 -1      3773 1.99953E+01 7.28492E-02 2.17214E-04-3.31817E-02 1.02506E-13-2.30879E-13
 -1      3774 2.00041E+01 4.46935E-02 3.48288E-05-2.04980E-02 1.75456E-13-1.18056E-14
 -1      3775 2.00046E+01 3.71828E-02-1.53710E-04-1.52504E-02 2.56036E-13 3.60700E-15
 -1      3776 2.00012E+01 5.18993E-02 1.52646E-04-2.09889E-02 2.74228E-13-9.76298E-14
 -1      3777 2.00059E+01 3.07768E-02 3.08355E-05-1.14852E-02 1.25675E-13 1.35237E-13
 -1      3778 2.00059E+01 2.51566E-02-1.09357E-04-7.77127E-03 1.51081E-13 7.36829E-14
 -1      3779 2.00045E+01 3.60274E-02 1.03690E-04-1.21529E-02 1.77937E-13 3.09936E-14
 -1      3780 2.00064E+01 2.04189E-02 3.43061E-05-5.17660E-03 1.18366E-13 1.38138E-13
 -1      3781 2.00061E+01 1.63008E-02-5.70930E-05-2.68449E-03-1.79529E-13 1.00925E-13
 -1      3782 2.00059E+01 2.41298E-02 5.91201E-05-5.91800E-03 1.30424E-13 6.94838E-14
 -1      3783 2.13090E+01-1.89364E+00 3.03192E-02 1.90696E+00-2.01828E-13-1.32878E-13
 -1      3784 2.18040E+01-2.36242E+00-7.26868E-03 1.80046E+00-3.02791E-13-1.35280E-13
 -1      3785 1.35166E+01 9.76294E-01-5.30099E-02 2.95892E-01-2.94597E-14-5.31040E-13
 -1      3786 1.34433E+01 9.20496E-01 4.99198E-02-1.18674E+00-9.35597E-14-4.63171E-13
 -1      3787 2.28734E+01-2.93447E+00 2.81709E-02-1.81429E+00-1.81711E-13 1.83243E-14
 -1      3788 2.29786E+01-2.80230E+00 2.38816E-02 1.35225E+00-3.70573E-13-1.27708E-13
 -1      3789 2.36875E+01-2.98554E+00 1.68327E-02 9.28175E-01-2.67565E-13-1.75961E-13
 -1      3790 1.99419E+01-4.55296E-01 6.91007E-03 1.66672E+00-1.47966E-13 6.59616E-14
 -1      3791 2.01828E+01-7.47110E-01 8.90346E-03 1.73324E+00-1.83445E-13-6.87455E-15
 -1      3792 1.96923E+01-2.07194E-02 2.20195E-03 1.43468E+00-1.67422E-13 1.29242E-13
 -1      3793 1.98298E+01-2.15176E-01 7.53172E-03 1.52372E+00-8.59617E-14 1.21030E-13
 -1      3794 1.94622E+01-2.67343E-01-1.13498E-02 1.72364E+00-2.09458E-13 1.74293E-13
 -1      3795 1.95952E+01 2.51947E-01-1.81049E-04 1.20796E+00-1.55899E-13 7.58730E-14
 -1      3796 1.96645E+01 1.34657E-01 5.74288E-03 1.30110E+00-1.04367E-13 5.06240E-14
 -1      3797 1.93438E+01 1.37588E-01-5.90183E-03 1.42311E+00-7.96450E-14 1.05102E-13
 -1      3798 1.95859E+01 4.01796E-01-1.33061E-03 1.00178E+00-2.51006E-13-5.40359E-14
 -1      3799 1.96134E+01 3.41289E-01 4.18211E-03 1.09073E+00-2.22118E-13 4.93471E-15
 -1      3800 1.93426E+01 3.77542E-01-2.57528E-03 1.16111E+00-1.51229E-13-1.05801E-13
 -1      3801 1.96227E+01 4.64947E-01-1.81952E-03 8.20397E-01-1.97946E-13 3.21453E-14
 -1      3802 1.96263E+01 4.43608E-01 2.98950E-03 9.01657E-01-2.53662E-13-2.36730E-14
 -1      3803 1.94026E+01 4.98385E-01-6.72226E-04 9.39973E-01-2.21045E-13-1.22758E-13
 -1      3804 1.96796E+01 4.70820E-01-1.95199E-03 6.63745E-01 2.85570E-14-4.87439E-14
 -1      3805 1.96712E+01 4.74758E-01 2.15357E-03 7.35963E-01-7.29665E-14 1.82044E-14
 -1      3806 1.94893E+01 5.38062E-01 3.43482E-04 7.55465E-01-1.90871E-13-9.69098E-14
 -1      3807 1.97414E+01 4.41728E-01-1.89027E-03 5.30280E-01-1.00943E-14 9.54180E-14
 -1      3808 1.97282E+01 4.60620E-01 1.59013E-03 5.93126E-01 4.73559E-14 9.31126E-14
 -1      3809 1.95824E+01 5.25710E-01 8.28399E-04 6.02253E-01-5.51065E-14-4.94636E-15
 -1      3810 1.97999E+01 3.93737E-01-1.72600E-03 4.18017E-01 2.18915E-14 1.96330E-13
 -1      3811 1.97859E+01 4.20265E-01 1.21208E-03 4.71696E-01 4.86711E-14 2.27089E-13
 -1      3812 1.96708E+01 4.82722E-01 1.00336E-03 4.75547E-01-2.59237E-14 1.77279E-13
 -1      3813 1.98510E+01 3.37857E-01-1.51348E-03 3.24834E-01-9.06113E-15 1.24978E-13
 -1      3814 1.98383E+01 3.67083E-01 9.51883E-04 3.69878E-01 2.49506E-14 2.32501E-13
 -1      3815 1.97490E+01 4.24205E-01 1.00294E-03 3.71366E-01 6.80437E-14 2.27229E-13
 -1      3816 1.98933E+01 2.81230E-01-1.28609E-03 2.48556E-01-5.24773E-14 9.98358E-14
 -1      3817 1.98828E+01 3.10010E-01 7.64495E-04 2.85707E-01-5.11655E-14 3.13050E-14
 -1      3818 1.98146E+01 3.60373E-01 9.10496E-04 2.86389E-01 3.19300E-14 1.67121E-13
 -1      3819 1.99269E+01 2.28149E-01-1.06443E-03 1.87009E-01-6.75750E-14 9.28845E-14
 -1      3820 1.99187E+01 2.54647E-01 6.22187E-04 2.17138E-01-1.52544E-14 1.38544E-13
 -1      3821 1.98676E+01 2.97744E-01 7.77483E-04 2.17759E-01-7.04258E-14 2.01985E-13
 -1      3822 1.99526E+01 1.80903E-01-8.60603E-04 1.38081E-01 1.34235E-13 7.72319E-14
 -1      3823 1.99466E+01 2.04193E-01 5.08809E-04 1.62110E-01-5.84909E-14 1.09768E-13
 -1      3824 1.99091E+01 2.40145E-01 6.34698E-04 1.62962E-01-1.33139E-14 9.65417E-14
 -1      3825 1.99715E+01 1.40427E-01-6.80907E-04 9.97733E-02-1.38778E-13 2.31102E-13
 -1      3826 1.99674E+01 1.60189E-01 4.15317E-04 1.18621E-01 2.01206E-14 8.38129E-14
 -1      3827 1.99405E+01 1.89510E-01 4.99472E-04 1.19757E-01-3.34259E-14 1.22308E-14
 -1      3828 1.99850E+01 1.06787E-01-5.27642E-04 7.02479E-02-2.99748E-13 2.30123E-13
 -1      3829 1.99823E+01 1.23083E-01 3.36747E-04 8.47853E-02-1.90962E-13 2.62990E-13
 -1      3830 1.99636E+01 1.46507E-01 3.80473E-04 8.61487E-02-2.13316E-13 2.19920E-13
 -1      3831 1.99941E+01 7.95360E-02-4.00515E-04 4.78628E-02-9.71920E-14 1.03288E-14
 -1      3832 1.99926E+01 9.26490E-02 2.70335E-04 5.88828E-02-1.42751E-13 2.27062E-13
 -1      3833 1.99800E+01 1.11001E-01 2.80967E-04 6.03818E-02-1.70128E-13-7.80332E-16
 -1      3834 2.00000E+01 5.79506E-02-2.97798E-04 3.11867E-02-8.81060E-14 2.03016E-14
 -1      3835 1.99992E+01 6.82757E-02 2.14434E-04 3.93880E-02-1.02403E-13-1.38569E-14
 -1      3836 1.99912E+01 8.23820E-02 2.00970E-04 4.09309E-02-5.57380E-14-2.78868E-14
 -1      3837 2.00034E+01 4.11976E-02-2.16355E-04 1.90045E-02-2.82985E-14 7.66153E-14
 -1      3838 2.00033E+01 4.91672E-02 1.67778E-04 2.49847E-02-1.15208E-13-2.34431E-14
 -1      3839 1.99984E+01 5.98044E-02 1.38716E-04 2.64953E-02-1.28952E-13-9.64645E-14
 -1      3840 2.00051E+01 2.84380E-02-1.50008E-04 1.03035E-02-6.23771E-14 2.01797E-13
 -1      3841 2.00053E+01 3.44757E-02 1.29220E-04 1.45611E-02 9.64305E-14 2.25672E-13
 -1      3842 2.00027E+01 4.23426E-02 9.36700E-05 1.59877E-02-8.81573E-14 1.22445E-14
 -1      3843 2.00056E+01 1.88131E-02-1.06073E-04 4.28001E-03-1.05547E-13 2.79286E-13
 -1      3844 2.00060E+01 2.33234E-02 8.67071E-05 7.18352E-03-1.91045E-13 3.08585E-13
 -1      3845 2.00049E+01 2.90839E-02 6.96110E-05 8.48880E-03-1.22717E-13 3.41777E-13
 -1      3846 2.00052E+01 1.16825E-02-7.14584E-05 1.16580E-04 2.68040E-13 4.55284E-13
 -1      3847 2.00058E+01 1.51180E-02 7.75184E-05 2.16650E-03 1.15805E-13 3.93549E-13
 -1      3848 2.00057E+01 1.91709E-02 5.07748E-05 3.36791E-03-3.39064E-14 2.23980E-13
 -1      3849 2.00050E+01 7.80397E-03 4.31501E-05-1.50292E-03 4.02351E-13 3.54195E-13
 -1      3850 1.38621E+01 3.11975E-01-5.03351E-03-2.40434E+00-1.41870E-13-3.81417E-13
 -1      3851 1.53918E+01-5.56926E-01 1.94990E-02-3.52187E+00-2.37613E-13-3.64413E-13
 -1      3852 1.47310E+01 7.18732E-01 5.67788E-02-1.67054E+00-1.21334E-13-3.79950E-13
 -1      3853 1.88676E+01 2.55984E+00-2.17160E-03-1.46594E-01 2.51908E-14-5.07176E-13
 -1      3854 1.88637E+01 2.55832E+00-5.16936E-03-9.31261E-02-1.69338E-14-5.08099E-13
 -1      3855 1.88576E+01 2.35103E+00 7.98953E-03-2.28829E-01 4.30626E-14-4.59077E-13
 -1      3856 1.92086E+01 1.96835E+00-6.02213E-03 4.66285E-01-1.03655E-13-3.38464E-13
 -1      3857 1.89079E+01 2.53658E+00-3.27670E-03 1.02524E-02-5.09055E-14-5.07139E-13
 -1      3858 1.90052E+01 2.47235E+00-6.48852E-04 7.51626E-02-8.66544E-14-4.66548E-13
 -1      3859 1.88406E+01 2.37951E+00 9.40507E-03-1.64652E-02-3.97626E-14-4.68520E-13
 -1      3860 1.96997E+01 1.87284E+00-6.53704E-04-3.36153E-01 1.93660E-13-4.06334E-13
 -1      3861 1.94948E+01 2.03976E+00-4.85219E-03-3.51441E-01 1.63054E-13-4.29042E-13
 -1      3862 1.94057E+01 1.90656E+00 4.27298E-03-4.79027E-01 1.37956E-13-4.00064E-13
 -1      3863 1.98228E+01 1.55810E+00 2.67529E-03-4.99963E-01 1.93281E-13-3.29066E-13
 -1      3864 1.85170E+01 1.49323E+00-8.18329E-03 1.01795E+00-6.90290E-14-3.06106E-13
 -1      3865 1.83018E+01 1.39112E+00-1.79541E-03 1.18816E+00-3.61733E-14-2.97152E-13
 -1      3866 1.78221E+01 1.50292E+00 1.57336E-02 1.00558E+00-2.46554E-14-3.00264E-13
 -1      3867 2.04406E+01-1.08442E+00 1.54717E-02 1.86225E+00-2.09750E-13-4.09193E-14
 -1      3868 2.08203E+01-1.47631E+00 8.34953E-03 1.87023E+00-1.77170E-13-8.32855E-14
 -1      3869 2.04753E+01-1.77063E+00-3.47501E-02 2.31146E+00-2.38966E-13-9.15353E-14
 -1      3870 1.89564E+01 1.71740E+00-2.05560E-03 7.19053E-01-1.04385E-13-3.16794E-13
 -1      3871 1.87797E+01 1.59628E+00-4.48591E-03 8.84694E-01-9.82216E-14-3.14756E-13
 -1      3872 1.84235E+01 1.69683E+00 1.09712E-02 7.53349E-01-7.57663E-14-3.05576E-13
 -1      3873 2.00047E+01 5.17273E-03-7.02953E-06-1.74343E-03 4.81788E-13-1.50883E-14
 -1      3874 2.00053E+01 7.14362E-03 9.29636E-05-1.61137E-03 4.28918E-13 7.92235E-14
 -1      3875 2.00049E+01 5.45285E-03-2.79922E-05-1.22723E-03 2.46187E-13 1.52354E-13
 -1      3876 1.73383E+01-1.65129E+00 1.31443E-02-4.04062E+00-2.79374E-13-3.17446E-13
 -1      3877 1.90314E+01-2.54929E+00 1.07056E-02-4.16695E+00-2.64389E-13-2.01266E-13
 -1      3878 2.02083E+01-2.48854E+00 1.61172E-02-3.42672E+00-2.30102E-13-1.66534E-13
 -1      3879 2.20837E+01-2.75062E+00-4.40802E-03 2.00776E+00-3.36613E-13-1.48677E-13
 -1      3880 2.00053E+01 1.03025E-02-5.32008E-05-5.61814E-04 4.08879E-13 3.27715E-13
 -1      3881 1.90309E+01 2.33959E+00 5.36369E-03 1.53073E-01-9.84134E-14-4.20290E-13
 -1      3882 2.03511E+01-1.30028E-01-1.11703E-02-1.48284E+00 1.11754E-14-2.34918E-13
 -1      3883 1.46067E+01 1.11821E+00 1.44260E-02 5.04583E-01-2.25904E-14-4.68893E-13
 -1      3884 2.00056E+01 1.13299E-02-3.66894E-05-4.13476E-06-3.23537E-14-5.54847E-13
 -1      3885 2.00055E+01 1.12389E-02-6.52523E-05-2.86843E-04 4.85146E-14-2.93100E-13
 -1      3886 2.10949E+01-1.61768E+00-2.75808E-03-2.01723E+00-7.85544E-14-1.69532E-13
 -1      3887 2.07429E+01-1.16628E+00 1.96359E-02-2.00491E+00-7.43316E-14-1.97914E-13
 -1      3888 2.13937E+01-2.89354E+00 1.74950E-02 2.85313E+00-3.98861E-13-1.42715E-13
 -1      3889 2.04006E+01-2.31129E+00 3.39600E-02 3.00469E+00-3.49653E-13 3.70862E-15
 -1      3890 2.00053E+01 8.31396E-03-8.57250E-06 1.31038E-03-4.31270E-13-2.51470E-13
 -1      3891 2.00055E+01 9.03099E-03-6.01322E-05 8.70538E-04-4.90759E-13-6.80968E-14
 -1      3892 2.00058E+01 1.05353E-02 6.53242E-05 4.24167E-04-3.24858E-13-1.52176E-13
 -1      3893 2.00054E+01 1.23275E-02-5.81516E-05-1.15966E-04 2.35619E-13-8.68037E-14
 -1      3894 2.00053E+01 1.15851E-02-4.69620E-05-4.32628E-04 2.57112E-13 3.11586E-14
 -1      3895 2.00057E+01 1.63772E-02 3.39905E-05 1.18871E-03 1.81958E-14-8.41294E-14
 -1      3896 2.00061E+01 1.46218E-02 4.65980E-05-1.67513E-03-2.44619E-13 6.67586E-14
 -1      3897 2.00058E+01 1.20507E-02-1.87381E-05-3.02219E-04-1.52821E-13 8.41353E-14
 -1      3898 2.00059E+01 1.32517E-02-5.69190E-05-6.02161E-04-4.53241E-13-2.08499E-14
 -1      3899 2.00061E+01 1.72022E-02-8.60516E-07-2.35630E-03-2.04310E-13 9.61538E-14
 -1      3900 1.99578E+01 4.10769E-01 3.90395E-03-1.33410E+00 3.83135E-14-2.71304E-13
 -1      3901 1.98984E+01 6.45925E-01 2.00125E-03-1.18407E+00 8.86722E-14-2.58716E-13
 -1      3902 1.94723E+01 1.62205E+00 2.75703E-03-6.37624E-01 1.38910E-13-3.67620E-13
 -1      3903 1.92489E+01 1.76921E+00-6.43309E-03-6.08732E-01 1.07708E-13-3.90578E-13
 -1      3904 2.00055E+01 8.20283E-03 8.62889E-05-8.30657E-04 2.47526E-13-8.80789E-14
 -1      3905 2.22435E+01-2.89187E+00-1.16432E-02-2.25353E+00-2.23847E-13-9.50091E-14
 -1      3906 2.22422E+01-2.49785E+00 6.57725E-05-1.81650E+00-1.25056E-13-9.39824E-14
 -1      3907 2.17991E+01-2.04431E+00 3.39810E-02-1.89434E+00-9.66001E-14-1.36199E-13
 -1      3908 2.16387E+01-2.61284E+00 3.64928E-02-2.58768E+00-2.10202E-13-1.27830E-13
 -1      3909 1.90533E+01 1.93472E+00 2.20843E-03-5.31887E-01 8.85293E-14-4.20698E-13
 -1      3910 1.88842E+01 2.03597E+00-7.41706E-03-4.63126E-01 6.01687E-14-4.38163E-13
 -1      3911 1.91038E+01 1.66565E+00 2.56805E-03-7.00483E-01 9.43698E-14-3.83344E-13
 -1      3912 1.74887E+01-1.49738E+00 5.84141E-02 3.83724E+00-3.11222E-13 5.97907E-14
 -1      3913 1.69715E+01-8.71913E-01 1.67544E-02 3.33747E+00-1.47955E-13 1.35518E-13
 -1      3914 1.87947E+01-1.93813E+00-3.58776E-02 3.47742E+00-2.66599E-13 5.14051E-14
 -1      3915 1.34345E+01 1.09323E+00 3.58530E-02 2.35476E-02 1.09497E-13 3.90275E-13
 -1      3916 1.38550E+01 9.39516E-01-1.53037E-03-9.82334E-01 7.56270E-14 3.47370E-13
 -1      3917 1.97804E+01-8.88910E-01-2.20962E-02 2.04281E+00-2.53963E-13 4.98560E-15
 -1      3918 2.41802E+01-2.93318E+00-1.18968E-02 4.67154E-01-2.72270E-13-2.82630E-13
 -1      3919 1.45268E+01 9.35890E-01 4.49368E-02-1.42771E+00 1.33290E-13 7.25461E-14
 -1      3920 1.53886E+01 7.23744E-01 3.39340E-03-1.85152E+00 1.61800E-13-1.91539E-14
 -1      3921 1.58745E+01 9.17325E-01-2.06447E-02-1.55133E+00 1.00863E-13-5.03124E-15
 -1      3922 1.48228E+01 1.10180E+00-1.40856E-03-8.42497E-01 7.31858E-14 1.90729E-13
 -1      3923 2.01169E+01 1.10641E+00-4.73231E-04-6.57368E-01 2.03739E-13-2.71854E-13
 -1      3924 1.38678E+01 6.07573E-01 3.08595E-03 1.87426E+00-1.03965E-13 2.05079E-13
 -1      3925 1.34071E+01 9.47598E-01 1.39975E-02 8.56349E-01 7.88014E-14 3.15182E-13
 -1      3926 1.43700E+01 1.08661E+00 3.21280E-02 4.31479E-01-2.54724E-14 3.11819E-13
 -1      3927 2.00219E+01 1.00338E+00 2.82623E-04-8.17472E-01 1.90668E-13-2.88618E-13
 -1      3928 1.99437E+01 1.25854E+00 9.12619E-04-6.53526E-01 2.10492E-13-2.98126E-13
 -1      3929 1.97111E+01 1.43867E+00-3.69443E-03-6.54709E-01 1.69079E-13-3.35899E-13
 -1      3930 1.99864E+01 8.80002E-01 2.32307E-04-9.43918E-01 1.45117E-13-2.98818E-13
 -1      3931 2.09914E+01-1.90207E+00-2.24073E-02-2.31057E+00-1.03848E-13-1.99751E-13
 -1      3932 2.00056E+01 1.10800E-02-4.68137E-05 2.59324E-05-3.54034E-14-3.74997E-13
 -1      3933 2.00058E+01 1.44972E-02 7.56710E-05-1.58540E-04 7.94819E-15-4.24512E-13
 -1      3934 2.00056E+01 1.08056E-02-2.53751E-05 2.61623E-04-6.51778E-14-1.04679E-13
 -1      3935 1.46544E+01 4.17122E-01 4.24528E-02 2.30784E+00-1.50908E-13 2.03039E-13
 -1      3936 1.50539E+01 7.16067E-01 2.19092E-02 1.71240E+00-4.85193E-14 1.09232E-13
 -1      3937 1.55421E+01-1.72143E-02-2.69319E-02 2.69267E+00-1.77116E-13 1.92615E-13
 -1      3938 1.97468E+01 9.16135E-01 1.55322E-03-1.04838E+00 1.18692E-13-2.91208E-13
 -1      3939 1.89488E+01 2.03863E+00 3.44227E-03 3.99960E-01-1.04429E-13-3.51622E-13
 -1      3940 1.68571E+01-9.26007E-01 3.29922E-02-3.57689E+00-2.59612E-13-3.63562E-13
 -1      3941 1.81816E+01-1.22122E+00-1.67311E-02-3.34342E+00-2.32272E-13-2.73081E-13
 -1      3942 1.64678E+01-2.36178E-01-9.65259E-03-2.93656E+00-1.66871E-13-2.97804E-13
 -1      3943 1.58844E+01 1.23711E+00-1.50440E-02 8.41590E-01 9.30636E-15-3.50834E-13
 -1      3944 1.51661E+01 1.14735E+00-3.89292E-02 7.76202E-01 1.17409E-14-4.02416E-13
 -1      3945 1.49097E+01 1.29451E+00 4.21584E-02-2.30285E-01-9.35241E-14-4.25825E-13
 -1      3946 2.00056E+01 9.81694E-03-1.93089E-05 6.54998E-04-3.72015E-13-1.32826E-13
 -1      3947 2.00056E+01 1.02636E-02-5.13028E-05 3.68090E-04-1.79116E-13-1.76181E-13
 -1      3948 2.00059E+01 1.37543E-02 7.78857E-05-1.97534E-04-1.67530E-13-3.55798E-13
 -1      3949 2.00060E+01 1.24907E-02 7.17620E-05-5.25872E-05-5.27796E-13-3.34478E-13
 -1      3950 2.01072E+01-9.52051E-01-2.14564E-02-2.19812E+00-7.77648E-14-2.51158E-13
 -1      3951 2.04692E+01-7.84811E-01 6.53218E-03-1.87701E+00-6.83780E-14-2.32021E-13
 -1      3952 2.02351E+01-4.29743E-01 9.15013E-03-1.79538E+00-3.75357E-14-2.46576E-13
 -1      3953 1.96790E+01-1.78362E+00 1.26497E-02 2.90238E+00-3.05277E-13 3.20490E-15
 -1      3954 1.64852E+01 1.03588E+00 1.25495E-04-1.35843E+00 1.71801E-13 9.30169E-14
 -1      3955 1.68720E+01 1.11198E+00-1.46167E-02-1.18082E+00 1.25507E-13 3.99950E-14
 -1      3956 1.59793E+01 1.15519E+00 2.06027E-02-1.08244E+00 1.86483E-13 5.58963E-14
 -1      3957 1.73143E+01 1.15112E+00-1.74462E-03-1.06442E+00 8.68893E-14-3.26701E-14
 -1      3958 1.76226E+01 1.16435E+00-9.07907E-03-9.50497E-01 1.40908E-13-7.77624E-14
 -1      3959 1.69628E+01 1.23566E+00 1.18030E-02-8.48127E-01 9.18414E-14-9.77816E-14
 -1      3960 1.79518E+01 1.15348E+00-1.91954E-03-8.72212E-01 2.31141E-14-7.04006E-14
 -1      3961 1.81963E+01 1.12857E+00-5.47986E-03-7.90808E-01-7.36339E-14-1.29086E-13
 -1      3962 1.76944E+01 1.22208E+00 8.02030E-03-7.04114E-01 3.27545E-14-1.55301E-13
 -1      3963 1.84457E+01 1.08728E+00-1.87591E-03-7.31473E-01-1.26573E-13-1.78163E-13
 -1      3964 1.86384E+01 1.04040E+00-3.52219E-03-6.66732E-01-6.13207E-14-1.63631E-13
 -1      3965 1.82503E+01 1.14814E+00 5.58811E-03-6.01388E-01-1.09644E-13-1.56836E-13
 -1      3966 1.88295E+01 9.82836E-01-1.68013E-03-6.16800E-01-8.16252E-14-1.20837E-13
 -1      3967 1.89800E+01 9.24787E-01-2.42689E-03-5.61327E-01-9.02519E-14-1.93078E-13
 -1      3968 1.86778E+01 1.03982E+00 4.11078E-03-5.17263E-01-6.15024E-14-1.07776E-13
 -1      3969 1.91272E+01 8.60591E-01-1.42671E-03-5.17117E-01 1.41113E-14-2.18114E-13
 -1      3970 1.92435E+01 7.98998E-01-1.78795E-03-4.67969E-01 2.57445E-13-2.06360E-13
 -1      3971 1.90084E+01 9.14194E-01 3.12217E-03-4.41838E-01 5.07852E-14-5.57404E-14
 -1      3972 1.93568E+01 7.34591E-01-1.15464E-03-4.28239E-01 2.92923E-13-3.02289E-13
 -1      3973 1.94457E+01 6.74396E-01-1.39256E-03-3.84497E-01 1.61918E-13-2.07399E-13
 -1      3974 1.92637E+01 7.84252E-01 2.43490E-03-3.72052E-01 2.19443E-13-4.59482E-14
 -1      3975 1.95325E+01 6.13731E-01-9.01607E-04-3.49083E-01 3.06069E-14-2.76433E-13
 -1      3976 1.95997E+01 5.57928E-01-1.12309E-03-3.10598E-01-7.77910E-14-1.87951E-13
 -1      3977 1.94600E+01 6.58675E-01 1.92597E-03-3.07710E-01 5.80266E-15-3.81284E-13
 -1      3978 1.96657E+01 5.03195E-01-6.85158E-04-2.79619E-01-4.65639E-14-9.68544E-14
 -1      3979 1.97160E+01 4.53385E-01-9.19246E-04-2.46382E-01 6.83891E-15-6.93963E-14
 -1      3980 1.96099E+01 5.42862E-01 1.52983E-03-2.49580E-01 3.91362E-14-2.14804E-13
 -1      3981 1.97656E+01 4.05563E-01-5.09589E-04-2.19881E-01-1.88444E-13-2.85139E-13
 -1      3982 1.98027E+01 3.62384E-01-7.52489E-04-1.91771E-01-2.49135E-13-4.38160E-13
 -1      3983 1.97233E+01 4.39736E-01 1.21189E-03-1.98402E-01-2.29979E-13-2.45985E-13
 -1      3984 1.98397E+01 3.21652E-01-3.72399E-04-1.69613E-01-1.68297E-13-3.55038E-13
 -1      3985 1.98666E+01 2.85108E-01-6.10455E-04-1.46334E-01-1.48121E-13-4.01615E-13
 -1      3986 1.98081E+01 3.50438E-01 9.53090E-04-1.54519E-01-1.75487E-13-2.73923E-13
 -1      3987 1.98938E+01 2.51150E-01-2.68112E-04-1.28214E-01-7.10136E-14-2.80413E-13
 -1      3988 1.99130E+01 2.20852E-01-4.88235E-04-1.09326E-01-1.13400E-13-1.65532E-13
 -1      3989 1.98706E+01 2.74901E-01 7.41896E-04-1.17825E-01-6.46097E-14-1.89438E-13
 -1      3990 1.99326E+01 1.93069E-01-1.90468E-04-9.48198E-02-1.10650E-13-3.79578E-14
 -1      3991 1.99461E+01 1.68409E-01-3.83856E-04-7.97927E-02-1.06198E-13-5.10400E-14
 -1      3992 1.99160E+01 2.12291E-01 5.70371E-04-8.78547E-02-3.84750E-14-2.12040E-14
 -1      3993 1.99599E+01 1.46067E-01-1.33557E-04-6.84153E-02-3.54729E-14-1.01921E-13
 -1      3994 1.99691E+01 1.26336E-01-2.96162E-04-5.66869E-02 1.57108E-13-8.50478E-14
 -1      3995 1.99483E+01 1.61341E-01 4.32348E-04-6.39102E-02 1.95207E-14 7.75105E-15
 -1      3996 1.99786E+01 1.08659E-01-9.22938E-05-4.79411E-02 2.14424E-13-1.38774E-13
 -1      3997 1.99847E+01 9.31265E-02-2.24037E-04-3.89595E-02 1.19006E-13-1.22446E-13
 -1      3998 1.99708E+01 1.20584E-01 3.22598E-04-4.51778E-02 1.71291E-13-7.01128E-14
 -1      3999 1.99910E+01 7.93578E-02-6.26412E-05-3.23719E-02 1.04119E-13-8.91154E-14
 -1      4000 1.99948E+01 6.73213E-02-1.66076E-04-2.56268E-02 1.08413E-13-1.27322E-13
 -1      4001 1.99859E+01 8.85064E-02 2.36441E-04-3.08206E-02 1.19571E-13-1.65588E-13
 -1      4002 1.99987E+01 5.67612E-02-4.13636E-05-2.07712E-02 2.95867E-13-1.56696E-13
 -1      4003 2.00009E+01 4.75751E-02-1.20261E-04-1.58101E-02 3.63594E-13-1.57962E-13
 -1      4004 1.99956E+01 6.36563E-02 1.70463E-04-2.00454E-02 2.49652E-13-1.48247E-13
 -1      4005 2.00032E+01 3.95973E-02-2.53963E-05-1.23149E-02 1.82377E-13-1.34828E-13
 -1      4006 2.00043E+01 3.26807E-02-8.50506E-05-8.74654E-03 3.13200E-13-1.16174E-13
 -1      4007 2.00015E+01 4.46976E-02 1.21029E-04-1.21364E-02 2.50304E-13-2.88648E-13
 -1      4008 2.00054E+01 2.67402E-02-6.81447E-06-6.29301E-03 2.73411E-13-5.44546E-14
 -1      4009 2.00057E+01 2.16137E-02-4.86743E-05-3.84629E-03 4.08060E-14 5.93051E-14
 -1      4010 2.00046E+01 3.04258E-02 8.19329E-05-6.47941E-03 2.80686E-13-2.64910E-13
 -1      4011 1.83498E+01 1.79987E+00-9.99331E-03 4.53099E-01-6.56372E-14-3.40625E-13
 -1      4012 1.80871E+01 1.69405E+00-9.46013E-03 5.65382E-01-2.99389E-14-3.26922E-13
 -1      4013 1.95782E+01 1.33198E+00 5.00282E-04-7.99520E-01 1.41684E-13-3.19367E-13
 -1      4014 2.00055E+01 1.22504E-02-3.93994E-05-1.39888E-04 1.08393E-13-4.43263E-14
 -1      4015 2.00054E+01 1.17590E-02-8.45458E-05-4.23125E-04 2.12577E-13-4.65326E-14
 -1      4016 2.00058E+01 1.74256E-02 1.20711E-04 7.58318E-04-3.12468E-14-1.45081E-13
 -1      4017 2.00058E+01 1.57986E-02 8.29859E-05 1.02866E-04 7.60925E-14-3.14043E-13
 -1      4018 2.05454E+01-2.34869E+00-2.04872E-02-3.04377E+00-2.00326E-13-1.30915E-13
 -1      4019 2.07865E+01-2.07166E+00-7.32724E-03-2.62917E+00-1.46807E-13-1.62865E-13
 -1      4020 2.01954E+01-1.44707E+00 3.71616E-02-2.64407E+00-1.42787E-13-2.26041E-13
 -1      4021 1.94411E+01-1.73003E+00 4.69957E-02-3.32530E+00-2.15673E-13-2.18411E-13
 -1      4022 1.91079E+01-4.68399E-01 4.27592E-03 2.09501E+00-2.45797E-13-2.30072E-14
 -1      4023 1.93729E+01-8.22365E-01 1.58940E-02 2.26788E+00-2.09418E-13-1.94723E-16
 -1      4024 1.89706E+01 4.50551E-02-2.32990E-03 1.67912E+00-2.31754E-13 1.23499E-13
 -1      4025 1.90878E+01-1.81958E-01 1.12780E-02 1.84734E+00-2.54664E-13 5.17496E-14
 -1      4026 1.85430E+01-1.71021E-01-7.82919E-03 2.06164E+00-2.75108E-13-1.02396E-14
 -1      4027 1.92234E+01 6.04597E-01-3.58209E-03 8.33700E-01-2.43213E-13-6.43884E-14
 -1      4028 1.91913E+01 5.81895E-01 3.67490E-03 9.32807E-01-2.75290E-13-1.00698E-13
 -1      4029 1.93601E+01 6.08831E-01-3.15656E-03 6.56953E-01-1.35329E-13-1.46708E-14
 -1      4030 1.93186E+01 6.15210E-01 2.35112E-03 7.38463E-01-1.44082E-13-6.41556E-14
 -1      4031 1.91110E+01 6.91510E-01 1.90655E-03 7.28009E-01-1.97440E-13-4.64065E-14
 -1      4032 1.94888E+01 5.71816E-01-2.72514E-03 5.15097E-01-8.85248E-14-4.82945E-14
 -1      4033 1.94462E+01 5.95684E-01 1.50675E-03 5.82138E-01-1.35181E-13-1.07431E-13
 -1      4034 1.92841E+01 6.69219E-01 2.06404E-03 5.63448E-01-8.90051E-14-8.91514E-14
 -1      4035 1.96029E+01 5.11937E-01-2.31667E-03 4.01003E-01-5.95170E-14 8.97502E-14
 -1      4036 1.95635E+01 5.44991E-01 9.81074E-04 4.56033E-01-7.62095E-14 7.52375E-15
 -1      4037 1.94375E+01 6.13339E-01 1.98920E-03 4.35081E-01-1.27075E-13-1.30780E-13
 -1      4038 1.96997E+01 4.42044E-01-1.94118E-03 3.09339E-01 2.42277E-14 2.08286E-13
 -1      4039 1.96656E+01 4.78550E-01 6.57246E-04 3.54291E-01-3.61656E-14 8.13014E-14
 -1      4040 1.95683E+01 5.40177E-01 1.79773E-03 3.34351E-01-7.33113E-14-2.49855E-14
 -1      4041 1.97791E+01 3.70692E-01-1.60283E-03 2.36002E-01-1.05016E-14 1.57416E-13
 -1      4042 1.97509E+01 4.06895E-01 4.58014E-04 2.72448E-01 1.16132E-13 2.45258E-13
 -1      4043 1.96766E+01 4.61003E-01 1.55462E-03 2.55112E-01 1.44769E-14 5.72791E-14
 -1      4044 1.98422E+01 3.03208E-01-1.30350E-03 1.77724E-01-5.48489E-15 1.30481E-13
 -1      4045 1.98199E+01 3.36830E-01 3.33998E-04 2.06991E-01-4.77859E-14 1.22019E-13
 -1      4046 1.97638E+01 3.83216E-01 1.29898E-03 1.92830E-01 2.86507E-14 1.93479E-13
 -1      4047 1.98912E+01 2.42566E-01-1.04361E-03 1.31821E-01 3.68711E-15 9.82038E-14
 -1      4048 1.98740E+01 2.72393E-01 2.54537E-04 1.55062E-01-2.74708E-14 7.87608E-14
 -1      4049 1.98324E+01 3.11303E-01 1.05429E-03 1.44062E-01 3.52122E-14 1.52058E-13
 -1      4050 1.99281E+01 1.90102E-01-8.22188E-04 9.60433E-02-1.68648E-13 2.21619E-13
 -1      4051 1.99153E+01 2.15655E-01 2.01108E-04 1.14272E-01-3.86559E-15 1.77197E-13
 -1      4052 1.98850E+01 2.47645E-01 8.33691E-04 1.06115E-01-8.18814E-14 2.46511E-13
 -1      4053 1.99552E+01 1.46068E-01-6.37086E-04 6.84875E-02-1.78073E-13 1.71586E-13
 -1      4054 1.99460E+01 1.67345E-01 1.62841E-04 8.25935E-02-1.83500E-13 1.80004E-13
 -1      4055 1.99244E+01 1.93152E-01 6.43325E-04 7.68316E-02-1.37944E-13 2.89470E-13
 -1      4056 1.99745E+01 1.10040E-01-4.85167E-04 4.75438E-02-1.19607E-13 1.16872E-13
 -1      4057 1.99682E+01 1.27331E-01 1.33561E-04 5.83027E-02-1.35123E-13 8.30894E-14
 -1      4058 1.99531E+01 1.47777E-01 4.84696E-04 5.44633E-02-6.47822E-14 2.64182E-13
 -1      4059 1.99877E+01 8.12166E-02-3.62584E-04 3.18573E-02-4.91387E-14 1.03879E-13
 -1      4060 1.99835E+01 9.49676E-02 1.09919E-04 3.99355E-02-5.02387E-14 7.12391E-14
 -1      4061 1.99734E+01 1.10880E-01 3.56424E-04 3.75781E-02 2.75597E-14 2.27709E-13
 -1      4062 1.99963E+01 5.86160E-02-2.66301E-04 2.02989E-02-1.21421E-13-4.20772E-14
 -1      4063 1.99938E+01 6.93409E-02 9.02832E-05 2.62593E-02-1.05588E-13-3.94921E-14
 -1      4064 1.99873E+01 8.15098E-02 2.55271E-04 2.50027E-02 5.27894E-14 7.58701E-14
 -1      4065 2.00015E+01 4.12277E-02-1.87536E-04 1.19510E-02-1.18958E-13-3.95165E-14
 -1      4066 2.00002E+01 4.94329E-02 7.38486E-05 1.62581E-02-1.10997E-13-1.38205E-13
 -1      4067 1.99963E+01 5.85689E-02 1.76343E-04 1.57788E-02-3.27074E-14-8.61493E-14
 -1      4068 2.00043E+01 2.80288E-02-1.26945E-04 5.98486E-03-1.22146E-13-7.68034E-14
 -1      4069 2.00038E+01 3.42432E-02 5.61213E-05 9.09859E-03-1.08153E-13 8.69472E-15
 -1      4070 2.00017E+01 4.10070E-02 1.29750E-04 9.16202E-03-1.74362E-13-4.24329E-13
 -1      4071 2.00056E+01 2.05698E-02 1.61691E-05 3.16263E-03-8.45974E-14-1.01855E-13
 -1      4072 1.99887E+01 1.60900E-01 4.43117E-03-1.50572E+00 1.46834E-14-2.63616E-13
 -1      4073 1.96523E+01 4.01416E-01-8.93027E-03-1.47337E+00 3.88527E-14-2.59871E-13
 -1      4074 2.01182E+01-1.17809E-01 6.76398E-03-1.63002E+00-8.85251E-16-2.62328E-13
 -1      4075 1.49444E+01 9.81899E-01-2.90638E-02-1.09088E+00-1.03948E-13-4.14854E-13
 -1      4076 1.55410E+01 5.56327E-01 1.88360E-02-2.15826E+00-1.28569E-13-3.25066E-13
 -1      4077 1.90925E+01 5.33703E-01-3.91024E-03 1.05487E+00-1.45413E-13 4.02258E-15
 -1      4078 1.90839E+01 4.66140E-01 5.67266E-03 1.17524E+00-6.53327E-15 6.21181E-14
 -1      4079 1.89255E+01 6.57309E-01 1.28072E-03 9.40857E-01-1.70341E-13-7.54178E-14
 -1      4080 1.87595E+01 2.14946E+00-8.29950E-05-3.34562E-01 5.03363E-14-4.34011E-13
 -1      4081 1.86816E+01 2.19253E+00-6.87836E-03-2.28668E-01 1.63929E-14-4.38849E-13
 -1      4082 1.87488E+01 1.93084E+00 6.62042E-03-4.82146E-01 4.52969E-14-4.11776E-13
 -1      4083 1.70001E+01 1.45193E+00-1.62624E-02 6.49586E-01 3.26323E-15-3.26189E-13
 -1      4084 1.65122E+01 1.33328E+00-1.60916E-02 7.84488E-01 3.06894E-14-3.17801E-13
 -1      4085 1.61779E+01 1.47990E+00 3.28710E-02 9.24461E-02-1.24050E-14-3.57315E-13
 -1      4086 1.86639E+01 2.22521E+00-2.84154E-03-5.98633E-02-1.13305E-14-4.53997E-13
 -1      4087 1.86942E+01 2.19509E+00-7.01801E-03 5.60157E-02-6.02760E-14-4.45875E-13
 -1      4088 1.85751E+01 2.07140E+00 8.66982E-03-1.62837E-01 7.69832E-15-4.16758E-13
 -1      4089 1.77817E+01 1.62265E+00-1.00604E-02 5.61195E-01-2.07653E-14-3.30284E-13
 -1      4090 1.74068E+01 1.51755E+00-1.52339E-02 6.75943E-01-1.85551E-14-3.45486E-13
 -1      4091 1.71800E+01 1.61691E+00 2.16515E-02 1.71030E-01 4.36673E-15-3.23487E-13
 -1      4092 1.78455E+01 1.74542E+00 8.36548E-03 2.46108E-01-2.69982E-14-3.40929E-13
 -1      4093 1.89928E+01 3.62177E-01-3.79747E-03 1.33239E+00-3.02296E-14 1.11396E-13
 -1      4094 1.90307E+01 2.28990E-01 8.56816E-03 1.47722E+00-1.19394E-13 1.59018E-13
 -1      4095 1.87429E+01 5.34755E-01-3.31983E-04 1.21861E+00-5.13056E-14 1.15167E-13
 -1      4096 1.92542E+01-1.24927E+00 1.72947E-02 2.72041E+00-2.58957E-13 4.26872E-14
 -1      4097 1.49736E+01 1.07589E+00 2.07496E-03 7.96514E-01-5.13509E-14 2.59275E-13
 -1      4098 1.49461E+01 1.17672E+00-1.29716E-03 3.97954E-02-4.82123E-14 3.28060E-13
 -1      4099 1.94579E+01 1.08691E+00-3.84708E-03-1.02856E+00 8.50856E-14-2.99585E-13
 -1      4100 1.92968E+01 9.38598E-01 4.03958E-03-1.19650E+00 8.01254E-14-3.02686E-13
 -1      4101 1.91463E+01 1.35559E+00 5.78715E-03-9.29298E-01 9.93500E-14-3.35645E-13
 -1      4102 1.85923E+01 2.78693E-01-4.07034E-03 1.58343E+00-2.04063E-13 3.85358E-15
 -1      4103 1.96444E+01-9.19493E-01 5.37498E-03-2.45535E+00-1.04899E-13-2.82372E-13
 -1      4104 1.94230E+01-4.68623E-01 1.07355E-02-2.24899E+00-6.43279E-14-2.72422E-13
 -1      4105 1.97669E+01-1.89283E-01-1.50617E-02-1.84304E+00-2.83937E-14-2.75586E-13
 -1      4106 1.87587E+01-1.12068E+00 4.48919E-03-3.02369E+00-2.01937E-13-2.76702E-13
 -1      4107 2.00060E+01 1.93891E-02 1.82368E-05-2.84031E-03-1.44799E-13-1.08074E-13
 -1      4108 2.00060E+01 1.73255E-02 1.70473E-05-1.75406E-03-2.42241E-13-6.31828E-14
 -1      4109 2.00056E+01 2.17923E-02-3.73732E-05-3.14006E-03 6.40183E-16-3.24729E-13
 -1      4110 1.85742E+01 1.95577E+00 3.80544E-03 3.10148E-01-6.62531E-14-3.77946E-13
 -1      4111 1.83356E+01 1.95526E+00 3.75007E-03 1.33194E-01-3.00502E-14-3.84399E-13
 -1      4112 1.88854E+01 1.49899E+00-8.13786E-03-8.45702E-01 7.63500E-14-3.63986E-13
 -1      4113 2.00053E+01 1.89124E-02-1.30800E-06-9.89290E-05 2.93001E-14-3.28510E-13
 -1      4114 2.00051E+01 1.98507E-02-9.00560E-05 1.84994E-04-7.40553E-14-1.71021E-13
 -1      4115 2.00048E+01 2.52815E-02 6.36915E-05 3.61225E-03-7.90164E-14-3.31301E-13
 -1      4116 1.56297E+01 1.16391E+00 1.54059E-02-7.36626E-01-1.00255E-13-3.81641E-13
 -1      4117 1.87638E+01 2.04719E+00-2.72255E-03 3.43233E-01-7.42738E-14-3.88080E-13
 -1      4118 1.83746E+01-8.56265E-01-1.14431E-02 2.77716E+00-2.12578E-13 4.13150E-14
 -1      4119 1.52067E+01 1.23148E+00 2.13347E-02-3.36394E-01 6.67050E-14 2.08252E-13
 -1      4120 1.56017E+01 1.15746E+00-6.01505E-03-7.76138E-01 1.34770E-13 7.39448E-14
 -1      4121 1.61794E+01 1.22584E+00-9.24906E-03-6.66280E-01 1.31865E-13 5.74340E-15
 -1      4122 1.57203E+01 1.23141E+00-2.88124E-03-1.55100E-03 2.96321E-14 2.17667E-13
 -1      4123 1.66947E+01 2.46045E-01 2.40362E-02-2.33844E+00-1.30771E-13-3.10601E-13
 -1      4124 1.92364E+01 4.54608E-01 9.07591E-03-1.59575E+00-5.32907E-15-2.96821E-13
 -1      4125 1.92038E+01 7.12676E-01 1.19620E-03-1.40821E+00 4.07209E-14-2.92450E-13
 -1      4126 1.88279E+01 9.85210E-01 2.30852E-03-1.29671E+00 4.73580E-14-2.95907E-13
 -1      4127 1.58396E+01 6.95451E-01-2.26943E-02 1.61980E+00-1.59296E-13 1.78286E-14
 -1      4128 1.53431E+01 9.67442E-01 1.59273E-02 1.18698E+00-1.08676E-13 1.17742E-13
 -1      4129 1.58574E+01 1.08733E+00 3.89201E-03 7.95841E-01-1.55717E-13 1.47780E-13
 -1      4130 2.00055E+01 1.83416E-02-1.70876E-05-6.47896E-04 2.99703E-14-3.69232E-13
 -1      4131 2.00054E+01 1.85451E-02-6.24946E-05-5.05494E-04 6.09529E-14-3.78801E-13
 -1      4132 2.00051E+01 2.33455E-02 8.74079E-05-5.10354E-04 1.38916E-13-4.18580E-13
 -1      4133 1.92551E+01-1.08520E+00-2.67567E-02-2.74907E+00-1.42765E-13-2.67562E-13
 -1      4134 1.93362E+01-1.36170E-01 1.17580E-02-2.01613E+00-3.61437E-14-2.92529E-13
 -1      4135 1.92278E+01 1.88667E-01 3.85784E-03-1.81677E+00-2.07425E-14-2.95833E-13
 -1      4136 1.86938E+01 4.92932E-01-2.08309E-03-1.73837E+00-1.06813E-14-3.00447E-13
 -1      4137 1.87467E+01-1.49155E-01-1.70564E-02-2.23211E+00-5.01694E-14-2.80602E-13
 -1      4138 1.66719E+01-4.12462E-01 3.88394E-02 3.03016E+00-1.80729E-13 1.08870E-13
 -1      4139 1.65600E+01 1.44578E-02 1.30726E-02 2.49196E+00-1.52376E-13 9.79770E-14
 -1      4140 2.00059E+01 1.53452E-02-1.28788E-05-9.94081E-04-4.48946E-13-4.17666E-13
 -1      4141 1.66975E+01 1.24112E+00-5.22699E-03-6.22298E-01 1.04156E-13-1.28970E-13
 -1      4142 1.71193E+01 1.24976E+00-7.25138E-03-5.62023E-01 9.39058E-14-7.85027E-14
 -1      4143 1.64643E+01 1.29611E+00 1.61251E-02-3.34707E-01 4.59156E-14-1.24129E-13
 -1      4144 1.74962E+01 1.23309E+00-4.10724E-03-5.32567E-01 1.01273E-13-2.10324E-13
 -1      4145 1.78163E+01 1.20657E+00-4.23626E-03-4.92795E-01-3.42153E-15-1.25464E-13
 -1      4146 1.73240E+01 1.28339E+00 1.34296E-02-3.21331E-01 2.11763E-14-1.95328E-13
 -1      4147 1.80969E+01 1.16462E+00-3.46099E-03-4.71444E-01-1.32475E-13 3.69437E-15
 -1      4148 1.83426E+01 1.11808E+00-2.68154E-03-4.39315E-01-6.53310E-14-3.38993E-14
 -1      4149 1.79656E+01 1.20717E+00 9.34429E-03-3.14044E-01-5.03845E-14 6.90246E-15
 -1      4150 1.85574E+01 1.06073E+00-2.68014E-03-4.18045E-01-4.65624E-14-1.95531E-14
 -1      4151 1.87471E+01 1.00236E+00-1.81301E-03-3.88368E-01-6.37961E-15 5.48726E-14
 -1      4152 1.84524E+01 1.10157E+00 6.71027E-03-2.98397E-01-4.66220E-14 7.44361E-14
 -1      4153 1.89130E+01 9.37602E-01-2.12609E-03-3.66356E-01 3.77421E-14 1.09076E-13
 -1      4154 1.90597E+01 8.74559E-01-1.31369E-03-3.37513E-01 1.63185E-13 9.13064E-14
 -1      4155 1.88285E+01 9.77298E-01 4.98405E-03-2.75338E-01 3.35823E-14 9.81333E-14
 -1      4156 1.91883E+01 8.08368E-01-1.66416E-03-3.14950E-01 1.43532E-13-8.72521E-14
 -1      4157 1.93014E+01 7.45576E-01-1.02098E-03-2.87034E-01 1.11091E-13-1.94985E-13
 -1      4158 1.91203E+01 8.46484E-01 3.81180E-03-2.45960E-01 5.06253E-14-3.13500E-14
 -1      4159 1.94010E+01 6.82024E-01-1.29045E-03-2.64864E-01-1.94206E-14-3.08337E-13
 -1      4160 1.94875E+01 6.22779E-01-8.30358E-04-2.38575E-01-1.30060E-14-3.40140E-13
 -1      4161 1.93466E+01 7.17665E-01 2.96656E-03-2.12890E-01 1.30574E-14-2.19844E-13
 -1      4162 1.95642E+01 5.64410E-01-9.91589E-04-2.17758E-01 8.38159E-14-3.42004E-13
 -1      4163 1.96299E+01 5.10695E-01-6.88742E-04-1.93813E-01 3.38726E-14-2.20745E-13
 -1      4164 1.95214E+01 5.96756E-01 2.32376E-03-1.78932E-01 1.80634E-14-2.37711E-13
 -1      4165 1.96884E+01 4.58875E-01-7.55170E-04-1.75053E-01-2.40869E-13-3.13166E-13
 -1      4166 1.97377E+01 4.11672E-01-5.71621E-04-1.53941E-01-3.06192E-13-3.28522E-13
 -1      4167 1.96552E+01 4.87400E-01 1.81843E-03-1.46349E-01-1.85105E-13-3.18400E-13
 -1      4168 1.97819E+01 3.66909E-01-5.70247E-04-1.37630E-01-1.82181E-13-3.71965E-13
 -1      4169 1.98184E+01 3.26482E-01-4.69204E-04-1.19563E-01-1.19400E-13-2.38198E-13
 -1      4170 1.97565E+01 3.91412E-01 1.41448E-03-1.16670E-01-1.90529E-13-3.05897E-13
 -1      4171 1.98514E+01 2.88697E-01-4.27141E-04-1.05816E-01 2.11330E-14-2.29261E-13
 -1      4172 1.98780E+01 2.54830E-01-3.78503E-04-9.07650E-02 7.40887E-14-1.49385E-13
 -1      4173 1.98324E+01 3.09251E-01 1.08996E-03-9.07373E-02-2.85831E-14-2.19287E-13
 -1      4174 1.99021E+01 2.23576E-01-3.17428E-04-7.94969E-02-9.77460E-15-1.58553E-13
 -1      4175 1.99213E+01 1.95756E-01-2.99094E-04-6.72606E-02 6.20952E-14-7.34761E-14
 -1      4176 1.98882E+01 2.40448E-01 8.29949E-04-6.88426E-02 5.64922E-14-2.11219E-13
 -1      4177 1.99386E+01 1.70375E-01-2.33973E-04-5.82523E-02 3.09926E-14 2.10068E-14
 -1      4178 1.99520E+01 1.47933E-01-2.31090E-04-4.85268E-02 1.11803E-13 6.91328E-14
 -1      4179 1.99287E+01 1.83950E-01 6.23222E-04-5.08943E-02 6.27185E-14-9.65733E-15
 -1      4180 1.99642E+01 1.27672E-01-1.70890E-04-4.14913E-02 9.44193E-14 1.90342E-14
 -1      4181 1.99733E+01 1.09873E-01-1.74304E-04-3.39251E-02 5.77344E-14-1.64464E-13
 -1      4182 1.99573E+01 1.38389E-01 4.60657E-04-3.65608E-02 1.41637E-14-4.81752E-14
 -1      4183 1.99816E+01 9.39636E-02-1.23386E-04-2.85518E-02 8.78673E-14-1.76565E-13
 -1      4184 1.99876E+01 8.00737E-02-1.28680E-04-2.27868E-02 1.40429E-13-2.47504E-13
 -1      4185 1.99770E+01 1.02270E-01 3.34456E-04-2.53859E-02 4.55178E-14-1.94423E-13
 -1      4186 1.99930E+01 6.77752E-02-8.77526E-05-1.87760E-02 1.79036E-13-2.23830E-13
 -1      4187 1.99967E+01 5.71071E-02-9.11677E-05-1.44800E-02 2.71891E-13-2.93129E-13
 -1      4188 1.99900E+01 7.40962E-02 2.37134E-04-1.68691E-02 1.28614E-13-2.80221E-13
 -1      4189 2.00000E+01 4.77448E-02-6.21695E-05-1.15588E-02 2.50798E-13-3.64672E-13
 -1      4190 2.00021E+01 3.96800E-02-5.84623E-05-8.43497E-03 1.58429E-13-4.28919E-13
 -1      4191 1.99982E+01 5.24743E-02 1.68228E-04-1.05462E-02 1.42351E-13-3.84535E-13
 -1      4192 2.00039E+01 3.26395E-02-4.31927E-05-6.32997E-03 2.38447E-13-5.18075E-13
 -1      4193 2.00049E+01 2.66362E-02-4.83518E-06-4.17348E-03 2.21338E-13-5.80725E-13
 -1      4194 2.00029E+01 3.61173E-02 1.13453E-04-5.94288E-03 1.34317E-13-6.12938E-13
 -1      4195 1.86377E+01 1.37213E+00-3.51511E-03-9.45570E-01 5.33907E-14-3.42968E-13
 -1      4196 1.86535E+01 1.68135E+00 4.43650E-03-6.93164E-01 5.42371E-14-3.90444E-13
 -1      4197 1.84739E+01 1.77907E+00-5.93389E-03-5.53614E-01 2.01317E-14-3.91443E-13
 -1      4198 1.83091E+01-4.73846E-01 1.87098E-02-2.72598E+00-1.33152E-13-2.98291E-13
 -1      4199 2.00048E+01 2.22809E-02-1.26948E-04 1.64479E-03-1.09920E-13-1.38813E-13
 -1      4200 2.00039E+01 3.05436E-02 3.40121E-05 4.08927E-03-1.07381E-13-1.81055E-13
 -1      4201 1.77918E+01-8.68231E-01-1.13632E-02 2.99261E+00-2.30318E-13-1.00542E-14
 -1      4202 1.93902E+01 6.32896E-01-3.52331E-03 3.36839E-01-2.02553E-13-6.45607E-14
 -1      4203 1.93233E+01 6.74609E-01 7.50047E-04 3.88572E-01-1.94130E-13-9.44865E-14
 -1      4204 1.83166E+01 1.94796E+00-6.14877E-03-7.49964E-02-1.43133E-14-4.04817E-13
 -1      4205 1.81273E+01 1.83007E+00 6.90122E-03 4.90436E-02-2.16109E-14-3.57909E-13
 -1      4206 1.78075E+01 1.73365E+00-7.05769E-03 2.05953E-02-9.06279E-15-3.55544E-13
 -1      4207 1.83538E+01 1.92013E+00-2.14339E-03-2.60647E-01 1.42872E-14-3.86927E-13
 -1      4208 2.00050E+01 2.20809E-02 4.04629E-05 1.06419E-03-1.29893E-13-9.65843E-14
 -1      4209 1.79561E+01 2.35215E-01-8.77417E-03 1.83511E+00-2.61136E-13 1.01431E-13
 -1      4210 1.79453E+01-2.68607E-02-2.52982E-04 2.12548E+00-1.95236E-13 1.72723E-13
 -1      4211 1.92131E+01 7.07336E-01-4.48306E-03 4.44582E-01-1.78326E-13-2.44633E-13
 -1      4212 1.91372E+01 7.39999E-01 1.43490E-03 5.10990E-01-1.35568E-13-1.38316E-13
 -1      4213 1.91979E+01 7.53415E-01 7.12297E-03 3.40168E-01-3.06233E-13-1.40757E-13
 -1      4214 1.90041E+01 7.57809E-01-5.75649E-03 5.86286E-01-1.17327E-13-2.59485E-13
 -1      4215 1.89226E+01 7.73213E-01 2.55153E-03 6.72355E-01-1.40326E-13-1.42499E-13
 -1      4216 1.89715E+01 8.29298E-01 8.73401E-03 4.60048E-01-1.91532E-13-2.26344E-13
 -1      4217 1.95369E+01 5.47910E-01-2.77888E-03 2.54369E-01-2.74443E-14-2.82507E-14
 -1      4218 1.94801E+01 5.92843E-01 3.48342E-04 2.94919E-01-6.91864E-14-1.97401E-14
 -1      4219 1.93851E+01 6.61735E-01 5.78561E-03 2.51783E-01-1.38311E-13 1.30186E-16
 -1      4220 1.96557E+01 4.61565E-01-2.18941E-03 1.91004E-01-2.16069E-15 8.76672E-14
 -1      4221 1.96091E+01 5.05788E-01 1.25884E-04 2.22870E-01-6.83236E-14 7.36779E-14
 -1      4222 1.95374E+01 5.65231E-01 4.66730E-03 1.86163E-01-7.74289E-14 1.89290E-13
 -1      4223 1.97500E+01 3.79753E-01-1.71684E-03 1.42271E-01-4.96623E-14 2.65739E-13
 -1      4224 1.97128E+01 4.20809E-01 1.30194E-05 1.67295E-01-1.15679E-14 2.43327E-13
 -1      4225 1.96590E+01 4.71332E-01 3.72712E-03 1.37189E-01-1.05192E-13 1.47370E-13
 -1      4226 1.98233E+01 3.05880E-01-1.33605E-03 1.04856E-01 5.61006E-14 2.34110E-13
 -1      4227 1.97944E+01 3.42420E-01-3.55722E-05 1.24434E-01 5.62374E-14 3.18649E-13
 -1      4228 1.97544E+01 3.84681E-01 2.93840E-03 1.00521E-01 2.32807E-14 3.27756E-13
 -1      4229 1.98791E+01 2.41563E-01-1.02948E-03 7.62492E-02-1.17186E-13 3.33231E-13
 -1      4230 1.98572E+01 2.73028E-01-4.86788E-05 9.14739E-02-2.77046E-14 2.63958E-13
 -1      4231 1.98279E+01 3.07810E-01 2.28248E-03 7.30362E-02-1.02768E-14 3.20054E-13
 -1      4232 1.99207E+01 1.87188E-01-7.83946E-04 5.45160E-02-1.68013E-14 1.48619E-13
 -1      4233 1.99045E+01 2.13554E-01-4.40692E-05 6.62584E-02-4.06805E-14 2.27180E-13
 -1      4234 1.98833E+01 2.41720E-01 1.74408E-03 5.24573E-02 4.15352E-14 1.86697E-13
 -1      4235 1.99508E+01 1.42351E-01-5.88992E-04 3.81433E-02 3.09484E-14 6.03815E-14
 -1      4236 1.99392E+01 1.63930E-01-3.22650E-05 4.71093E-02-3.79099E-14 1.18825E-13
 -1      4237 1.99243E+01 1.86373E-01 1.30896E-03 3.71001E-02 4.12484E-14-1.47164E-13
 -1      4238 1.99721E+01 1.06184E-01-4.35977E-04 2.59372E-02 9.05320E-14 6.20554E-15
 -1      4239 1.99640E+01 1.23477E-01-1.91141E-05 3.27032E-02 5.28413E-14 1.53196E-13
 -1      4240 1.99537E+01 1.41072E-01 9.63107E-04 2.57042E-02 3.13434E-14-1.23357E-13
 -1      4241 1.99865E+01 7.75914E-02-3.17571E-04 1.69508E-02 1.12136E-13 1.43485E-13
 -1      4242 1.99812E+01 9.11827E-02-7.50471E-06 2.19891E-02 1.37171E-13 1.73193E-13
 -1      4243 1.99743E+01 1.04752E-01 6.92434E-04 1.73172E-02 2.85810E-14 2.82708E-14
 -1      4244 1.99958E+01 5.54008E-02-2.23131E-04 1.04278E-02-1.47262E-14-2.11853E-14
 -1      4245 1.99925E+01 6.58983E-02 1.73469E-06 1.41250E-02 6.29796E-14 1.19948E-13
 -1      4246 1.99882E+01 7.61780E-02 4.80133E-04 1.12177E-02 9.05681E-14 1.86388E-13
 -1      4247 2.00015E+01 3.83920E-02-1.48865E-04 5.73841E-03-5.22500E-14-2.60559E-13
 -1      4248 1.99996E+01 4.63860E-02-8.20280E-06 8.42693E-03-3.00626E-14-9.28119E-14
 -1      4249 1.99969E+01 5.40375E-02 2.74779E-04 6.85847E-03 9.23419E-14 5.27522E-14
 -1      4250 1.61346E+01 1.27901E+00-1.68560E-02-5.43692E-01-5.80506E-14-3.79806E-13
 -1      4251 1.64385E+01 1.09108E+00 1.77593E-02-1.29629E+00-7.79155E-14-3.66171E-13
 -1      4252 1.67840E+01 1.39419E+00 3.57663E-04-4.51055E-01-9.22526E-15-3.56659E-13
 -1      4253 1.87638E+01 7.65601E-01-7.49644E-03 7.74430E-01-4.97607E-14-1.08756E-13
 -1      4254 1.86834E+01 7.52490E-01 4.34497E-03 8.87344E-01 3.88779E-14 4.59821E-14
 -1      4255 1.87022E+01 8.73958E-01 1.06333E-02 6.23995E-01 2.23780E-14-2.49066E-13
 -1      4256 1.74587E+01 9.31611E-03-7.84985E-03-2.49474E+00-1.18234E-13-2.67542E-13
 -1      4257 1.81573E+01 3.81300E-02 1.72068E-02-2.27095E+00-7.23352E-14-2.90949E-13
 -1      4258 1.80534E+01 3.54354E-01-5.85082E-03-1.99789E+00-4.78244E-14-2.94149E-13
 -1      4259 1.66017E+01 6.84011E-01-1.38784E-02-1.80688E+00-8.01707E-14-2.98549E-13
 -1      4260 1.84962E+01 7.05086E-01-9.90503E-03 1.02746E+00-3.87808E-14 1.35626E-13
 -1      4261 1.84300E+01 6.47288E-01 7.00521E-03 1.17756E+00-1.01176E-13 1.02321E-13
 -1      4262 1.83859E+01 8.65865E-01 1.23693E-02 8.50215E-01 2.87290E-14 6.94452E-14
 -1      4263 2.00047E+01 2.56280E-02 6.18698E-05 9.89751E-04-1.90970E-13-1.31287E-13
 -1      4264 1.82143E+01 5.45711E-01-1.15196E-02 1.37101E+00-1.91783E-13 1.32385E-13
 -1      4265 1.81767E+01 4.15668E-01 8.63335E-03 1.57751E+00-2.66231E-13 1.44468E-13
 -1      4266 1.80165E+01 7.67480E-01 9.73262E-03 1.16266E+00-1.63423E-13 1.83188E-13
 -1      4267 2.00058E+01 1.60294E-02-6.34798E-05-1.04123E-03-3.02094E-13-5.67566E-13
 -1      4268 2.00052E+01 2.41425E-02 2.16384E-05-3.14199E-03 8.13933E-14-7.89313E-13
 -1      4269 2.00057E+01 1.70744E-02-1.45001E-05-9.62134E-04-1.90516E-13-5.38585E-13
 -1      4270 2.00055E+01 1.75263E-02-6.72630E-05-9.15342E-04-4.93554E-14-4.55448E-13
 -1      4271 2.00053E+01 2.23177E-02 4.31846E-05-1.37403E-03 3.35672E-15-6.40315E-13
 -1      4272 2.00057E+01 2.05114E-02 7.23745E-05-1.93676E-03-4.14448E-14-6.80568E-13
 -1      4273 1.85184E+01 1.16184E+00-2.86789E-04-1.14248E+00 2.97361E-14-3.31252E-13
 -1      4274 1.82383E+01 1.71211E+00 8.26998E-03-4.85709E-01 1.40285E-14-3.61077E-13
 -1      4275 1.72023E+01-4.39112E-02-2.38251E-02 2.34944E+00-2.66132E-13 1.18573E-13
 -1      4276 1.64224E+01 4.62745E-01 2.23579E-02 2.01455E+00-2.22413E-13 9.79816E-14
 -1      4277 1.76202E+01 5.31611E-01 3.64904E-03 1.59523E+00-2.14715E-13 1.73316E-13
 -1      4278 1.71671E+01 9.01663E-01 1.41123E-02-1.49230E+00-5.65637E-14-3.05389E-13
 -1      4279 2.00025E+01 3.58203E-02 1.46964E-04 3.43398E-03-8.77946E-14-1.04624E-13
 -1      4280 1.60258E+01 1.24497E+00 2.61541E-02 3.61187E-01-8.93706E-14 2.28943E-13
 -1      4281 1.61277E+01 1.23955E+00-4.29647E-03-1.68913E-03 8.64846E-15-6.53123E-16
 -1      4282 1.66171E+01 1.25227E+00-1.05876E-02-2.04044E-02 2.44906E-14-6.87621E-14
 -1      4283 1.62039E+01 1.07626E+00-1.86901E-02 7.44822E-01-1.57560E-13 4.49827E-14
 -1      4284 2.00033E+01 3.06518E-02 5.58688E-06 2.83472E-04-4.55100E-14 5.99296E-14
 -1      4285 2.00026E+01 3.26723E-02-1.55423E-04 1.35382E-03-1.33213E-13 7.00887E-14
 -1      4286 2.00005E+01 4.12382E-02-7.82663E-05 2.91890E-03-2.31281E-14 1.73254E-13
 -1      4287 1.75348E+01 1.62281E+00 5.11381E-03-1.28361E-01 3.98943E-15-3.45557E-13
 -1      4288 1.71074E+01 1.52336E+00-1.55091E-02-1.99648E-01 1.78970E-14-3.30636E-13
 -1      4289 1.72487E+01 1.41314E+00 8.58702E-03-7.60523E-01-2.18698E-14-3.44830E-13
 -1      4290 1.78365E+01 1.69725E+00 5.11290E-04-3.30466E-01-9.19119E-16-3.55946E-13
 -1      4291 1.66390E+01 6.90987E-01 1.15563E-02 1.56037E+00-2.93527E-13 1.73153E-14
 -1      4292 2.00037E+01 3.00490E-02 2.41964E-05-1.82801E-03 9.94752E-14-5.80207E-13
 -1      4293 2.00035E+01 3.01702E-02-7.04191E-05-1.00883E-03 6.05387E-14-3.45610E-13
 -1      4294 2.00019E+01 3.81957E-02 9.07545E-05-1.00747E-03-1.03071E-13-1.17629E-13
 -1      4295 1.82932E+01 6.85811E-01 1.00437E-02-1.63486E+00-1.60031E-14-3.12438E-13
 -1      4296 1.82776E+01 9.11999E-01-1.30262E-02-1.40110E+00 1.65256E-14-3.11780E-13
 -1      4297 1.81706E+01 1.33229E+00 8.10301E-03-1.02321E+00 2.18830E-14-3.44882E-13
 -1      4298 1.76719E+01 8.15548E-01 2.79753E-03-1.62697E+00-4.16504E-14-2.90865E-13
 -1      4299 2.00049E+01 2.51740E-02-4.37696E-07-2.88419E-03 1.76496E-13-8.35811E-13
 -1      4300 1.70840E+01 1.23503E+00-5.77210E-03 7.13532E-03 2.15457E-14-2.48794E-13
 -1      4301 1.74489E+01 1.21469E+00-6.43281E-03-1.98763E-02-2.70925E-14-2.13938E-13
 -1      4302 1.77551E+01 1.18885E+00-9.40555E-03-6.74669E-02 3.30548E-14-1.76495E-13
 -1      4303 1.80463E+01 1.15338E+00-4.00464E-03-7.94852E-02 3.92041E-14 1.76311E-14
 -1      4304 1.76318E+01 1.20531E+00 1.76789E-02 2.45004E-01 4.75893E-14-2.48444E-13
 -1      4305 1.82827E+01 1.10410E+00-7.29670E-03-1.11580E-01-1.34914E-14 4.92456E-14
 -1      4306 1.85064E+01 1.05335E+00-3.14401E-03-1.14971E-01-3.45145E-14 4.48950E-14
 -1      4307 1.81800E+01 1.13543E+00 1.49030E-02 1.22152E-01 4.80522E-14-1.54003E-13
 -1      4308 1.86913E+01 9.94648E-01-5.25785E-03-1.33037E-01-7.68646E-14-1.45189E-14
 -1      4309 1.88636E+01 9.35496E-01-2.51684E-03-1.29460E-01 8.46268E-14 5.53644E-14
 -1      4310 1.86005E+01 1.03567E+00 1.15692E-02 4.35156E-02-8.85668E-14 1.11384E-13
 -1      4311 1.90096E+01 8.72502E-01-3.82729E-03-1.37624E-01 5.38370E-14-4.99154E-14
 -1      4312 1.91428E+01 8.10548E-01-2.07563E-03-1.29113E-01-2.42870E-14-1.02004E-13
 -1      4313 1.89308E+01 9.19005E-01 9.08193E-03-3.24077E-03-8.15305E-14-2.68151E-14
 -1      4314 1.92581E+01 7.47663E-01-2.80271E-03-1.30804E-01-1.06641E-13-1.74260E-13
 -1      4315 1.93608E+01 6.87018E-01-1.73589E-03-1.19430E-01-1.24962E-13-2.80879E-13
 -1      4316 1.91914E+01 7.95834E-01 7.19338E-03-2.84659E-02-2.00340E-13-2.82076E-13
 -1      4317 1.94514E+01 6.27413E-01-2.05420E-03-1.17214E-01-5.03540E-14-3.41524E-13
 -1      4318 1.95302E+01 5.70844E-01-1.45177E-03-1.04693E-01-7.65024E-14-4.36356E-13
 -1      4319 1.93963E+01 6.74242E-01 5.70881E-03-3.95957E-02-1.79034E-13-4.34837E-13
 -1      4320 1.96007E+01 5.16536E-01-1.50137E-03-1.00414E-01-8.17385E-14-4.45375E-13
 -1      4321 1.96606E+01 4.65684E-01-1.20282E-03-8.79946E-02-2.02430E-13-3.88251E-13
 -1      4322 1.95562E+01 5.59923E-01 4.51341E-03-4.19657E-02-1.22186E-13-5.35638E-13
 -1      4323 1.97149E+01 4.17746E-01-1.09143E-03-8.29043E-02-2.28309E-13-2.24014E-13
 -1      4324 1.97599E+01 3.73378E-01-9.81915E-04-7.13960E-02-1.35568E-13-2.59030E-13
 -1      4325 1.96798E+01 4.56434E-01 3.53964E-03-3.93164E-02-1.51925E-13-3.90223E-13
 -1      4326 1.98011E+01 3.32165E-01-7.87647E-04-6.62860E-02-3.27825E-14-2.62128E-13
 -1      4327 1.98345E+01 2.94417E-01-7.87499E-04-5.61346E-02-3.26716E-14-2.69750E-13
 -1      4328 1.97740E+01 3.65591E-01 2.74524E-03-3.41691E-02-1.14443E-13-2.63350E-13
 -1      4329 1.98652E+01 2.59786E-01-5.63272E-04-5.14575E-02 7.29192E-14-2.55822E-13
 -1      4330 1.98896E+01 2.28368E-01-6.19535E-04-4.28406E-02 1.45409E-13-2.47441E-13
 -1      4331 1.98448E+01 2.87897E-01 2.10078E-03-2.81369E-02 5.51952E-14-4.21507E-13
 -1      4332 1.99121E+01 1.99853E-01-3.98396E-04-3.88139E-02 9.56797E-14-1.15901E-13
 -1      4333 1.99296E+01 1.74217E-01-4.77667E-04-3.17274E-02 1.05202E-13-6.18858E-14
 -1      4334 1.98971E+01 2.22943E-01 1.58322E-03-2.21813E-02 1.93159E-13-2.12005E-13
 -1      4335 1.99457E+01 1.51173E-01-2.78025E-04-2.84158E-02-3.86211E-14-2.00634E-13
 -1      4336 1.99579E+01 1.30634E-01-3.60701E-04-2.27452E-02-6.50241E-14-2.80243E-13
 -1      4337 1.99350E+01 1.69736E-01 1.17286E-03-1.68176E-02-9.77233E-14-2.81673E-13
 -1      4338 1.99692E+01 1.12336E-01-1.90817E-04-2.01217E-02 8.93246E-15-2.48521E-13
 -1      4339 1.99774E+01 9.61645E-02-2.66690E-04-1.56945E-02 8.97428E-14-3.32879E-13
 -1      4340 1.99617E+01 1.26964E-01 8.51982E-04-1.22703E-02-7.05279E-14-3.36768E-13
 -1      4341 1.99850E+01 8.18813E-02-1.27956E-04-1.36823E-02 4.99057E-14-3.37941E-13
 -1      4342 1.99903E+01 6.93573E-02-1.87755E-04-1.03045E-02 1.10497E-13-3.97423E-13
 -1      4343 1.99800E+01 9.31844E-02 6.03268E-04-8.58870E-03 4.38368E-14-3.87174E-13
 -1      4344 1.99952E+01 5.83442E-02-9.23333E-05-8.78332E-03 1.16071E-13-4.59391E-13
 -1      4345 1.99985E+01 4.88218E-02-1.05578E-04-6.27972E-03 1.83090E-14-4.65088E-13
 -1      4346 1.99920E+01 6.69443E-02 3.94643E-04-5.71484E-03 4.50932E-14-2.40735E-13
 -1      4347 2.00013E+01 4.04048E-02-5.81506E-05-5.28513E-03 1.00998E-13-5.44901E-13
 -1      4348 2.00032E+01 3.33089E-02-2.77992E-05-3.40600E-03 1.68486E-13-5.94689E-13
 -1      4349 1.80279E+01-4.30496E-01 8.58620E-04 2.52547E+00-1.83730E-13 5.69113E-14
 -1      4350 1.95201E+01 5.57635E-01-3.76249E-03 6.22782E-02-1.58664E-13-4.12674E-16
 -1      4351 1.94491E+01 6.09224E-01-2.76897E-03 8.61111E-02-1.27355E-13-9.71098E-14
 -1      4352 1.93550E+01 6.62898E-01-4.84689E-03 9.46954E-02-1.49230E-13-1.09053E-13
 -1      4353 1.92668E+01 7.15878E-01-3.32896E-03 1.27168E-01-2.47389E-13-1.40634E-13
 -1      4354 1.88869E+01 8.69847E-01-8.09463E-03 2.13592E-01-2.84363E-13 2.34574E-14
 -1      4355 1.87571E+01 9.12583E-01-4.66671E-03 2.75144E-01-1.24133E-13-1.03651E-14
 -1      4356 1.96495E+01 4.59317E-01-2.90999E-03 4.06129E-02-5.85852E-14-1.24458E-13
 -1      4357 1.95933E+01 5.07073E-01-2.27108E-03 5.82069E-02-9.72427E-14-3.46162E-14
 -1      4358 1.97496E+01 3.71082E-01-2.23465E-03 2.62458E-02-9.05815E-14 1.31824E-14
 -1      4359 1.97058E+01 4.13634E-01-1.83205E-03 3.92917E-02-8.58976E-14-2.94323E-14
 -1      4360 1.98257E+01 2.94374E-01-1.69916E-03 1.67838E-02 1.43739E-14-5.67509E-15
 -1      4361 1.97923E+01 3.31141E-01-1.45112E-03 2.64840E-02-3.13508E-14-1.22435E-14
 -1      4362 1.98825E+01 2.29430E-01-1.27634E-03 1.05894E-02 1.16510E-13-9.11398E-14
 -1      4363 1.98576E+01 2.60390E-01-1.12726E-03 1.78074E-02 1.00764E-13 2.05557E-14
 -1      4364 1.99242E+01 1.75697E-01-9.45051E-04 6.55524E-03 2.02568E-14-1.40076E-13
 -1      4365 1.99059E+01 2.01184E-01-8.57907E-04 1.19185E-02 4.64484E-14-1.01219E-13
 -1      4366 1.99540E+01 1.32149E-01-6.87935E-04 3.94130E-03-8.72344E-14-1.25629E-13
 -1      4367 1.99410E+01 1.52707E-01-6.38758E-04 7.91062E-03-4.76388E-14-1.89286E-13
 -1      4368 1.99747E+01 9.75210E-02-4.89379E-04 2.25834E-03-1.12163E-14-8.26886E-14
 -1      4369 1.99657E+01 1.13793E-01-4.63825E-04 5.17457E-03-4.43569E-14-7.68180E-14
 -1      4370 1.99886E+01 7.04787E-02-3.29361E-04 1.18521E-03 7.24904E-14 5.89598E-14
 -1      4371 1.99826E+01 8.31292E-02-3.23761E-04 3.29959E-03 6.92628E-14-4.75550E-14
 -1      4372 1.99974E+01 4.98187E-02-1.50294E-04 5.64296E-04-2.33960E-15-8.04359E-14
 -1      4373 1.99937E+01 5.94259E-02-1.85993E-04 1.99250E-03 6.91960E-14-7.56081E-14
 -1      4374 1.85643E+01 9.51740E-01-1.05593E-02 3.17061E-01 1.42697E-14-8.90900E-14
 -1      4375 1.84103E+01 9.79368E-01-5.34764E-03 4.02706E-01 1.08825E-13-9.24148E-14
 -1      4376 1.73922E+01 1.13363E+00-1.77495E-02-1.15495E+00-3.15439E-14-3.33893E-13
 -1      4377 1.91468E+01 7.69710E-01-6.24755E-03 1.42798E-01-2.51099E-13-1.09693E-13
 -1      4378 1.90390E+01 8.20284E-01-3.95978E-03 1.87342E-01-2.95729E-13-1.21361E-13
 -1      4379 1.79520E+01 1.54193E+00-9.37505E-03-6.60927E-01 1.94048E-14-3.61368E-13
 -1      4380 1.76714E+01 1.00315E+00-1.40654E-02 6.90583E-01-5.67484E-14-1.44753E-13
 -1      4381 1.74528E+01 9.67800E-01-4.01668E-03 8.48077E-01-1.75202E-13-1.30789E-13
 -1      4382 1.81649E+01 1.00029E+00-1.36347E-02 4.67819E-01 6.46250E-14-9.77859E-14
 -1      4383 1.79866E+01 1.00328E+00-5.18454E-03 5.88131E-01-1.02546E-14-1.75831E-13
 -1      4384 1.77896E+01-1.99849E-02-3.01066E-03 2.16581E+00-2.03886E-13 1.33656E-13
 -1      4385 1.68870E+01 1.24519E+00 2.20340E-02 3.22324E-01-5.62437E-14-2.10499E-13
 -1      4386 1.77385E+01 1.35250E+00 1.09393E-02-8.82607E-01-1.62759E-14-3.28470E-13
 -1      4387 1.99994E+01 4.62821E-02 9.65491E-05-3.47783E-03-7.36467E-16-3.96290E-13
 -1      4388 1.71162E+01 6.33718E-01-1.03397E-02 1.55088E+00-3.03177E-13-2.81838E-15
 -1      4389 1.67285E+01 9.41046E-01 1.92266E-02 1.19339E+00-2.70145E-13-7.18973E-14
 -1      4390 1.67620E+01 1.04274E+00-4.85134E-03 8.03950E-01-1.97533E-13-1.08059E-13
 -1      4391 1.99989E+01 4.68371E-02 8.67962E-05-1.58013E-03-1.13532E-13-2.73738E-14
 -1      4392 2.00047E+01 2.58895E-02-5.57985E-05-2.55342E-03 1.54773E-13-7.02114E-13
 -1      4393 1.74996E+01 7.61134E-01-3.57282E-03 1.27681E+00-2.46368E-13 1.16458E-13
 -1      4394 1.73062E+01 6.29573E-01 5.27419E-03 1.51289E+00-2.40735E-13 5.90090E-14
 -1      4395 1.71785E+01 1.04416E+00-9.41305E-03 7.58675E-01-1.45141E-13-2.11196E-13
 -1      4396 1.72349E+01 4.16140E-01 9.91501E-03 1.89205E+00-2.58108E-13 1.90857E-13
 -3
    1PSTEP                         3           1           1          
  100CL  101 1.000000000        4396                     0    1           1
 -4  TOSTRAIN    6    1
 -5  EXX         1    4    1    1
 -5  EYY         1    4    2    2
 -5  EZZ         1    4    3    3
 -5  EXY         1    4    1    2
 -5  EYZ         1    4    2    3
 -5  EZX         1    4    3    1
 -1         1 1.91107E-05-7.05910E-05 1.20533E-05 2.61831E-05 1.48904E-17-4.47292E-18
 -1         2 3.65611E-05-1.11552E-04 2.02385E-05 1.16387E-07 1.94104E-18 8.03278E-19
 -1         3 9.52379E-05-2.85703E-05-2.85724E-05 1.03280E-09-3.12595E-18-2.38749E-18
 -1         4 9.52379E-05-2.85704E-05-2.85724E-05-9.17125E-10 2.08774E-18-5.77808E-19
 -1         5 1.42350E-04-2.11378E-05-4.26264E-05 3.78572E-05-3.22667E-19 2.40746E-17
 -1         6 1.43845E-04 2.59531E-10-4.42215E-05-5.23109E-05-1.37749E-18 2.30257E-17
 -1         7 9.21436E-05-6.61931E-07-3.94819E-05-2.76312E-05-1.80630E-19 4.44412E-18
 -1         8 8.67381E-05 1.58833E-08-3.69144E-05-1.79297E-05-2.63321E-19-1.35387E-18
 -1         9 8.40307E-05 3.95388E-08-3.58191E-05-1.28986E-05-2.64565E-19-4.51714E-18
 -1        10 8.22991E-05 2.73541E-08-3.51062E-05-9.29840E-06-1.49554E-19-6.04642E-18
 -1        11 8.10173E-05 2.54697E-08-3.45910E-05-6.53169E-06-1.27823E-19-6.76710E-18
 -1        12 8.00772E-05 2.73859E-08-3.42181E-05-4.36814E-06-5.56792E-20-7.08292E-18
 -1        13 7.94428E-05 3.06776E-08-3.39677E-05-2.54587E-06-3.41626E-20-7.09219E-18
 -1        14 7.91479E-05 3.19489E-08-3.38498E-05-9.26769E-07-3.37655E-21-7.06253E-18
 -1        15 7.91941E-05 3.06457E-08-3.38649E-05 6.56701E-07 4.75827E-20-6.98584E-18
 -1        16 7.95649E-05 2.72181E-08-3.40071E-05 2.36134E-06 7.59087E-20-6.81598E-18
 -1        17 8.02317E-05 2.21190E-08-3.42666E-05 4.33453E-06 9.87587E-20-6.44407E-18
 -1        18 8.11480E-05 2.08702E-08-3.46293E-05 6.67150E-06 1.55047E-19-5.81636E-18
 -1        19 8.23617E-05 2.59046E-08-3.51213E-05 9.61140E-06 2.38863E-19-4.80061E-18
 -1        20 8.39964E-05 4.86480E-08-3.58084E-05 1.33416E-05 2.90797E-19-2.97211E-18
 -1        21 8.65871E-05 1.02600E-07-3.69122E-05 1.83622E-05 3.22905E-19 6.09882E-19
 -1        22 9.28800E-05-2.16643E-07-3.91331E-05 2.65640E-05 4.93397E-20 7.86318E-18
 -1        23 1.14090E-04-3.85259E-05-3.57531E-05-3.94703E-06-9.16251E-19 1.82028E-17
 -1        24 9.59835E-05-2.86674E-05-2.99237E-05 4.50812E-07-2.87313E-19 1.38872E-17
 -1        25 9.41106E-05-2.83621E-05-2.84231E-05 4.02973E-07-1.29235E-19 9.52895E-18
 -1        26 9.49883E-05-2.85917E-05-2.85029E-05 2.41147E-07-1.51622E-20 6.45223E-18
 -1        27 9.74205E-05-2.92915E-05-2.92310E-05 1.99245E-07 1.82989E-20 4.62416E-18
 -1        28 1.00951E-04-3.03253E-05-3.03090E-05 1.93326E-07-3.30814E-20 3.22019E-18
 -1        29 1.05386E-04-3.16371E-05-3.16487E-05 2.10552E-07 1.04601E-19 2.64747E-18
 -1        30 1.10539E-04-3.31665E-05-3.31868E-05 2.40410E-07-6.59368E-20 1.53521E-18
 -1        31 1.16059E-04-3.48064E-05-3.48070E-05 2.65721E-07 1.37331E-20 2.22280E-19
 -1        32 1.21246E-04-3.63496E-05-3.62835E-05 2.51852E-07-2.35383E-19-7.77073E-19
 -1        33 1.24882E-04-3.74371E-05-3.72443E-05 1.39561E-07 1.33752E-19-1.36681E-18
 -1        34 1.25240E-04-3.75582E-05-3.72042E-05-1.41114E-07-8.92826E-20-1.01966E-18
 -1        35 1.20597E-04-3.61917E-05-3.57506E-05-6.04544E-07-1.09585E-19-1.66238E-18
 -1        36 1.10541E-04-3.31876E-05-3.29134E-05-1.08663E-06 1.12910E-19-1.50994E-18
 -1        37 9.75877E-05-2.92759E-05-2.94819E-05-1.21755E-06-6.33687E-20-1.65071E-18
 -1        38 8.73232E-05-2.61474E-05-2.68866E-05-6.88619E-07-2.05905E-19-3.01748E-18
 -1        39 8.53978E-05-2.55566E-05-2.64192E-05 3.02143E-07-1.46166E-19-4.13409E-18
 -1        40 9.30723E-05-2.78981E-05-2.83599E-05 1.08872E-06 2.01104E-19-5.27156E-18
 -1        41 1.06103E-04-3.18473E-05-3.17587E-05 1.22058E-06 2.16148E-19-5.55908E-18
 -1        42 1.18339E-04-3.55203E-05-3.51230E-05 8.35304E-07-4.94578E-19-6.36021E-18
 -1        43 1.25829E-04-3.77441E-05-3.73426E-05 3.32906E-07 4.78309E-20-5.68626E-18
 -1        44 1.27931E-04-3.83544E-05-3.81000E-05-2.62762E-08-6.93872E-20-4.80203E-18
 -1        45 1.26028E-04-3.77795E-05-3.76756E-05-1.95526E-07-1.02594E-19-5.44894E-18
 -1        46 1.21962E-04-3.65677E-05-3.65586E-05-2.33140E-07-4.00161E-20-6.41897E-18
 -1        47 1.17178E-04-3.51449E-05-3.51772E-05-2.07021E-07-5.26478E-20-4.97842E-18
 -1        48 1.12551E-04-3.37673E-05-3.38086E-05-1.60955E-07 2.63936E-19-3.80557E-18
 -1        49 1.08495E-04-3.25575E-05-3.25936E-05-1.15912E-07-1.80789E-19-3.82917E-18
 -1        50 1.05142E-04-3.15551E-05-3.15821E-05-7.92337E-08 1.17825E-19-6.38518E-18
 -1        51 1.02474E-04-3.07558E-05-3.07742E-05-5.18831E-08-1.88797E-19-5.67748E-18
 -1        52 1.00409E-04-3.01357E-05-3.01474E-05-3.24889E-08-2.79478E-19-6.55887E-18
 -1        53 9.88449E-05-2.96649E-05-2.96719E-05-1.91858E-08 5.62702E-20-7.60112E-18
 -1        54 9.76816E-05-2.93142E-05-2.93181E-05-1.03001E-08 3.56756E-19-5.88352E-18
 -1        55 9.68323E-05-2.90577E-05-2.90596E-05-4.52304E-09-4.14365E-19-3.92227E-18
 -1        56 9.62243E-05-2.88737E-05-2.88744E-05-8.92597E-10-3.46635E-19-5.19067E-18
 -1        57 9.57987E-05-2.87447E-05-2.87446E-05 1.27719E-09-9.47709E-20-5.71320E-18
 -1        58 9.55092E-05-2.86567E-05-2.86562E-05 2.46854E-09-4.24175E-19-6.25628E-18
 -1        59 9.53194E-05-2.85988E-05-2.85981E-05 3.01809E-09 2.80933E-19-5.55874E-18
 -1        60 9.52016E-05-2.85627E-05-2.85620E-05 3.15980E-09-2.30863E-19-4.67489E-18
 -1        61 9.51347E-05-2.85421E-05-2.85413E-05 3.05547E-09 8.85382E-19-3.99963E-18
 -1        62 9.51030E-05-2.85321E-05-2.85314E-05 2.81604E-09-6.64118E-19-2.03001E-18
 -1        63 9.50950E-05-2.85294E-05-2.85288E-05 2.51651E-09-1.49006E-19-4.03185E-18
 -1        64 9.51023E-05-2.85313E-05-2.85308E-05 2.20631E-09 8.11511E-19-3.79411E-18
 -1        65 9.51189E-05-2.85361E-05-2.85357E-05 1.91638E-09-6.30284E-19-1.78423E-18
 -1        66 9.51407E-05-2.85424E-05-2.85421E-05 1.66355E-09 1.05377E-19-1.19252E-18
 -1        67 9.51646E-05-2.85495E-05-2.85493E-05 1.45186E-09 5.16887E-19-5.20505E-19
 -1        68 9.51885E-05-2.85566E-05-2.85563E-05 1.26785E-09 3.35287E-20 2.93400E-18
 -1        69 9.52101E-05-2.85630E-05-2.85627E-05 1.06131E-09 4.78408E-19 2.22053E-18
 -1        70 9.52272E-05-2.85682E-05-2.85677E-05 6.38414E-10-3.78110E-19 3.21686E-18
 -1        71 9.52369E-05-2.85713E-05-2.85707E-05-6.63307E-11-6.80626E-19 1.15266E-18
 -1        72 1.03380E-04-3.09353E-05-3.45372E-05-2.05296E-06 3.10491E-19 2.19973E-17
 -1        73 9.55333E-05-2.84160E-05-2.97723E-05-3.68154E-07 2.36941E-19 1.64383E-17
 -1        74 9.35999E-05-2.80563E-05-2.83127E-05-1.44054E-07 7.06123E-20 1.23946E-17
 -1        75 9.40898E-05-2.82536E-05-2.82567E-05-1.14458E-07 5.58909E-20 9.62542E-18
 -1        76 9.58195E-05-2.87663E-05-2.87469E-05-1.06412E-07 4.84484E-20 7.54720E-18
 -1        77 9.82185E-05-2.94731E-05-2.94643E-05-1.10387E-07-2.84569E-20 6.25390E-18
 -1        78 1.00922E-04-3.02744E-05-3.02660E-05-1.21657E-07 9.37847E-21 5.58782E-18
 -1        79 1.03576E-04-3.10649E-05-3.10409E-05-1.33582E-07 8.10285E-21 4.69996E-18
 -1        80 1.05754E-04-3.17171E-05-3.16604E-05-1.35821E-07 3.74130E-20 4.11641E-18
 -1        81 1.06931E-04-3.20757E-05-3.19714E-05-1.13110E-07 1.68306E-19 2.66718E-18
 -1        82 1.06545E-04-3.19726E-05-3.18170E-05-4.78189E-08 1.02867E-19 1.89626E-18
 -1        83 1.04158E-04-3.12737E-05-3.10883E-05 7.01427E-08-1.33648E-20 1.10326E-18
 -1        84 9.97322E-05-2.99596E-05-2.98013E-05 2.26247E-07 7.48255E-20 1.08109E-18
 -1        85 9.39271E-05-2.82160E-05-2.81654E-05 3.68116E-07-7.50842E-20 4.00038E-19
 -1        86 8.81720E-05-2.64660E-05-2.65839E-05 4.18032E-07 1.22704E-19-1.33658E-18
 -1        87 8.42961E-05-2.52675E-05-2.55413E-05 3.21015E-07-2.74960E-19-9.86549E-19
 -1        88 8.37349E-05-2.50720E-05-2.54026E-05 9.76823E-08-1.54617E-19 7.47824E-19
 -1        89 8.67688E-05-2.59796E-05-2.62345E-05-1.55413E-07 3.51843E-19-9.55824E-20
 -1        90 9.23668E-05-2.76781E-05-2.77745E-05-3.30222E-07-2.27227E-19-1.40930E-18
 -1        91 9.87641E-05-2.96227E-05-2.95637E-05-3.77159E-07 1.41800E-19-3.07116E-19
 -1        92 1.04316E-04-3.13064E-05-3.11554E-05-3.18108E-07-2.68499E-20-4.89307E-19
 -1        93 1.08063E-04-3.24368E-05-3.22673E-05-2.09617E-07 1.74147E-19-7.47348E-19
 -1        94 1.09806E-04-3.29576E-05-3.28178E-05-1.01618E-07 1.69460E-19-4.23129E-18
 -1        95 1.09860E-04-3.29685E-05-3.28763E-05-1.99223E-08 1.45139E-19-4.93491E-18
 -1        96 1.08751E-04-3.26309E-05-3.25831E-05 3.02447E-08 2.30572E-19-4.53127E-18
 -1        97 1.06997E-04-3.21012E-05-3.20860E-05 5.43890E-08-2.19941E-20-3.26749E-18
 -1        98 1.05002E-04-3.15011E-05-3.15059E-05 6.09857E-08-3.97988E-19-3.30962E-19
 -1        99 1.03039E-04-3.09117E-05-3.09264E-05 5.75305E-08-8.87792E-21-2.72294E-18
 -1       100 1.01264E-04-3.03789E-05-3.03973E-05 4.93492E-08 7.20428E-20-3.71667E-18
 -1       101 9.97467E-05-2.99241E-05-2.99422E-05 3.97333E-08 9.49644E-20-3.47314E-18
 -1       102 9.85053E-05-2.95520E-05-2.95680E-05 3.04795E-08 2.07110E-19-3.73515E-18
 -1       103 9.75243E-05-2.92579E-05-2.92712E-05 2.24228E-08-4.27484E-19 3.96220E-21
 -1       104 9.67725E-05-2.90324E-05-2.90429E-05 1.58353E-08 2.69325E-19 3.12233E-18
 -1       105 9.62129E-05-2.88646E-05-2.88726E-05 1.06894E-08-1.44928E-19 3.29182E-18
 -1       106 9.58087E-05-2.87433E-05-2.87492E-05 6.81759E-09 7.67889E-20 1.30997E-18
 -1       107 9.55263E-05-2.86585E-05-2.86627E-05 4.00316E-09 3.41859E-19-4.65475E-18
 -1       108 9.53369E-05-2.86016E-05-2.86045E-05 2.02799E-09-9.40123E-20-5.31292E-18
 -1       109 9.52167E-05-2.85655E-05-2.85674E-05 6.95420E-10-5.94797E-19-5.86131E-19
 -1       110 9.51467E-05-2.85444E-05-2.85456E-05-1.61010E-10 7.28855E-19-1.93421E-18
 -1       111 9.51121E-05-2.85339E-05-2.85346E-05-6.76551E-10-1.43335E-19-2.63732E-18
 -1       112 9.51016E-05-2.85307E-05-2.85311E-05-9.57834E-10-7.17605E-19-1.98675E-18
 -1       113 9.51070E-05-2.85323E-05-2.85324E-05-1.08700E-09 4.11697E-20-2.43806E-18
 -1       114 9.51222E-05-2.85368E-05-2.85368E-05-1.12618E-09-1.09048E-20-4.99719E-18
 -1       115 9.51430E-05-2.85430E-05-2.85429E-05-1.12154E-09-4.64100E-20-7.98243E-18
 -1       116 9.51663E-05-2.85499E-05-2.85498E-05-1.10561E-09-2.27687E-19-3.76310E-18
 -1       117 9.51897E-05-2.85569E-05-2.85567E-05-1.09518E-09 1.08895E-19-6.66473E-18
 -1       118 9.52110E-05-2.85633E-05-2.85629E-05-1.07857E-09-3.07552E-19-6.92424E-18
 -1       119 9.52278E-05-2.85684E-05-2.85678E-05-9.28390E-10 6.58706E-19-4.96848E-18
 -1       120 9.52368E-05-2.85714E-05-2.85707E-05-1.97794E-10 1.82535E-18-7.51540E-18
 -1       121 9.52374E-05-2.85720E-05-2.85706E-05-4.88253E-12-8.29653E-18-1.28658E-18
 -1       122 9.52401E-05-2.85809E-05-2.85678E-05-7.09473E-10-4.29878E-18 2.20915E-18
 -1       123 9.52447E-05-2.85962E-05-2.85635E-05-9.50723E-10 3.67974E-18 5.57709E-19
 -1       124 9.52498E-05-2.86134E-05-2.85586E-05-9.05419E-10-9.18860E-19-1.76944E-18
 -1       125 9.52546E-05-2.86296E-05-2.85538E-05-7.37525E-10 3.73014E-19-4.10287E-19
 -1       126 9.52585E-05-2.86427E-05-2.85499E-05-5.41180E-10-2.61077E-19-5.50626E-19
 -1       127 9.52614E-05-2.86522E-05-2.85471E-05-3.26126E-10 2.44343E-18 8.13279E-19
 -1       128 9.52628E-05-2.86570E-05-2.85457E-05-1.11394E-10 2.82976E-18-5.01821E-19
 -1       129 9.52628E-05-2.86571E-05-2.85456E-05 1.03217E-10 4.88199E-18 1.37605E-18
 -1       130 9.52614E-05-2.86523E-05-2.85471E-05 3.20687E-10 2.95121E-18-1.86811E-18
 -1       131 9.52586E-05-2.86430E-05-2.85498E-05 5.48464E-10-1.27265E-18 4.14907E-19
 -1       132 9.52547E-05-2.86298E-05-2.85537E-05 7.46245E-10-3.47269E-18 1.61629E-18
 -1       133 9.52498E-05-2.86135E-05-2.85585E-05 9.16119E-10-8.85814E-19-5.44839E-19
 -1       134 9.52447E-05-2.85961E-05-2.85635E-05 1.02189E-09-4.17413E-18-5.23029E-19
 -1       135 9.52402E-05-2.85810E-05-2.85678E-05 9.97444E-10-7.15548E-18 3.05056E-19
 -1       136 9.52377E-05-2.85724E-05-2.85707E-05-3.00473E-10-4.13840E-18 1.51928E-18
 -1       137 2.67263E-05-8.87123E-05 1.57851E-05-2.23691E-05 1.64701E-17 3.38991E-18
 -1       138 9.43744E-06-3.98738E-05 4.85574E-06-2.01469E-05 2.32638E-17 1.02224E-17
 -1       139 8.18123E-06 8.76756E-06-1.16028E-05 1.49344E-05 2.57282E-17 1.81490E-17
 -1       140 4.58852E-05 2.90175E-05-3.16456E-05 6.91621E-05 2.21469E-17 2.32765E-17
 -1       141 1.23038E-04 7.38437E-06-5.06715E-05 1.08253E-04 1.55606E-17 2.46084E-17
 -1       142 2.16038E-04-3.96641E-05-6.64031E-05 1.07374E-04 7.69953E-18 1.90066E-17
 -1       143 2.87032E-04-8.22254E-05-7.60379E-05 6.01358E-05 1.27354E-18 8.61644E-18
 -1       144 3.06323E-04-9.43006E-05-7.84752E-05-1.85859E-05 7.92426E-19-6.17148E-18
 -1       145 2.60827E-04-6.59619E-05-7.26297E-05-8.69986E-05 5.44145E-18-2.04982E-17
 -1       146 1.73742E-04-1.62277E-05-5.98584E-05-1.13925E-04 1.31724E-17-2.67679E-17
 -1       147 8.33017E-05 2.03305E-05-4.15004E-05-9.23985E-05 2.04067E-17-2.63097E-17
 -1       148 2.03565E-05 2.37967E-05-2.09494E-05-4.08103E-05 2.31511E-17-2.03915E-17
 -1       149 5.50480E-06-1.55246E-05-2.28180E-06 7.51328E-06 2.08988E-17-1.10210E-17
 -1       150 3.55854E-05-1.09274E-04 1.97060E-05 1.10439E-05 4.45328E-18-6.34110E-19
 -1       151 3.38202E-05-1.06492E-04 1.92321E-05-1.66578E-05-7.64521E-18-1.02544E-18
 -1       152 1.57930E-05-6.29050E-05 1.02041E-05-2.72163E-05-1.81617E-17-6.72407E-18
 -1       153 5.67247E-06-7.47774E-06-5.48917E-06-1.40612E-06-2.37195E-17-1.46799E-17
 -1       154 3.61528E-05 2.36055E-05-2.67391E-05 5.48715E-05-2.36293E-17-2.32337E-17
 -1       155 1.15209E-04 9.38019E-06-4.88112E-05 1.04220E-04-1.74313E-17-2.51598E-17
 -1       156 2.27770E-04-4.44333E-05-6.84921E-05 1.06393E-04-7.08183E-18-1.95394E-17
 -1       157 3.06893E-04-9.15141E-05-7.91497E-05 4.59831E-05-1.36503E-18-8.36540E-18
 -1       158 3.08766E-04-9.31758E-05-7.92413E-05-4.14814E-05-1.11349E-18 5.18755E-18
 -1       159 2.39763E-04-5.21025E-05-6.99919E-05-1.02282E-04-6.36672E-18 1.84573E-17
 -1       160 1.38038E-04 8.54521E-08-5.34718E-05-1.10700E-04-1.70044E-17 2.87360E-17
 -1       161 5.29608E-05 2.44874E-05-3.28730E-05-7.06519E-05-2.61818E-17 2.87542E-17
 -1       162 9.82067E-06 5.93140E-06-1.15661E-05-1.41414E-05-2.88821E-17 2.09929E-17
 -1       163 9.81394E-06-4.47088E-05 6.07766E-06 2.36288E-05-2.61301E-17 1.13259E-17
 -1       164 2.81690E-05-9.37723E-05 1.68544E-05 2.36617E-05-1.45503E-17 3.09624E-18
 -1       165 9.71497E-05-1.32090E-05-3.61591E-05-1.99787E-05-3.31644E-18 1.33212E-18
 -1       166 9.10610E-05-8.90977E-06-3.53574E-05-1.46823E-05-3.12768E-18-2.21556E-18
 -1       167 8.74190E-05-6.45778E-06-3.48029E-05-1.07687E-05-2.61264E-18-4.28178E-18
 -1       168 8.49614E-05-4.97113E-06-3.43591E-05-7.74453E-06-1.98836E-18-5.25517E-18
 -1       169 8.31936E-05-3.98015E-06-3.40096E-05-5.37931E-06-1.34128E-18-5.73209E-18
 -1       170 8.19484E-05-3.32445E-06-3.37482E-05-3.42090E-06-8.22218E-19-5.88333E-18
 -1       171 8.12464E-05-2.97765E-06-3.35916E-05-1.73644E-06-2.29666E-19-5.90513E-18
 -1       172 8.10820E-05-2.91565E-06-3.35465E-05-1.59961E-07 3.09709E-19-5.87050E-18
 -1       173 8.14345E-05-3.11912E-06-3.36123E-05 1.46354E-06 7.88022E-19-5.75591E-18
 -1       174 8.22690E-05-3.57393E-06-3.37802E-05 3.27734E-06 1.27431E-18-5.54120E-18
 -1       175 8.35273E-05-4.26677E-06-3.40321E-05 5.37543E-06 1.82132E-18-5.06843E-18
 -1       176 8.52650E-05-5.26458E-06-3.43660E-05 7.96245E-06 2.50454E-18-4.28611E-18
 -1       177 8.76119E-05-6.71048E-06-3.47833E-05 1.11670E-05 3.08319E-18-3.05089E-18
 -1       178 9.11268E-05-9.08927E-06-3.53167E-05 1.51741E-05 3.48438E-18-6.95414E-19
 -1       179 9.78360E-05-1.43742E-05-3.59668E-05 1.98279E-05 3.29677E-18 3.62104E-18
 -1       180 1.07456E-04-2.68349E-05-3.57217E-05 1.71438E-05 2.47224E-18 9.43298E-18
 -1       181 1.05935E-04-2.81708E-05-3.33210E-05-1.03368E-05-2.92377E-18 5.59574E-18
 -1       182 1.00814E-04-2.93913E-05-3.06383E-05-2.90030E-06-2.57793E-18 4.15526E-18
 -1       183 9.86419E-05-2.90901E-05-2.97546E-05 2.78197E-07-1.82841E-18 2.88084E-18
 -1       184 9.88129E-05-2.93185E-05-2.97432E-05 2.05592E-06-1.38663E-18 1.63750E-18
 -1       185 1.00308E-04-2.98291E-05-3.01828E-05 3.29892E-06-8.19895E-19 8.44449E-19
 -1       186 1.02761E-04-3.06037E-05-3.09132E-05 4.28144E-06-5.95491E-19 4.58063E-19
 -1       187 1.05928E-04-3.16132E-05-3.18458E-05 5.03487E-06-5.27070E-19-5.93022E-20
 -1       188 1.09572E-04-3.28308E-05-3.28940E-05 5.42511E-06-5.78500E-19-8.72560E-20
 -1       189 1.13363E-04-3.42089E-05-3.39366E-05 5.15017E-06-5.47635E-19-6.59892E-20
 -1       190 1.16784E-04-3.56312E-05-3.47994E-05 3.75978E-06-2.76920E-19 8.62253E-21
 -1       191 1.19075E-04-3.68298E-05-3.52673E-05 8.13003E-07-1.87998E-19-6.34747E-19
 -1       192 1.19296E-04-3.73007E-05-3.51508E-05-3.69326E-06-4.42839E-20-5.29713E-19
 -1       193 1.16654E-04-3.63433E-05-3.44131E-05-8.63499E-06-1.55847E-19-2.45812E-19
 -1       194 1.11298E-04-3.35986E-05-3.32978E-05-1.14151E-05-3.09069E-19-1.19908E-19
 -1       195 1.05184E-04-2.99537E-05-3.22705E-05-9.17002E-06-1.30099E-18-7.70138E-19
 -1       196 1.01765E-04-2.77313E-05-3.17821E-05-1.71021E-06-1.27711E-18-2.49762E-18
 -1       197 1.03458E-04-2.87621E-05-3.20568E-05 6.92664E-06-1.00268E-18-3.88713E-18
 -1       198 1.09193E-04-3.22202E-05-3.30047E-05 1.16187E-05-6.77792E-19-4.82721E-18
 -1       199 1.15562E-04-3.56551E-05-3.42472E-05 1.07144E-05-9.64919E-19-5.84637E-18
 -1       200 1.19801E-04-3.74733E-05-3.52889E-05 6.32760E-06 2.53316E-19-5.56783E-18
 -1       201 1.21081E-04-3.76243E-05-3.57833E-05 1.44888E-06 8.98507E-19-4.82715E-18
 -1       202 1.19922E-04-3.67649E-05-3.56591E-05-2.15505E-06-3.00839E-19-3.96003E-18
 -1       203 1.17267E-04-3.55106E-05-3.50553E-05-4.10807E-06 8.96995E-21-3.32912E-18
 -1       204 1.13955E-04-3.42185E-05-3.41826E-05-4.75848E-06 1.06097E-18-1.82830E-18
 -1       205 1.10564E-04-3.30461E-05-3.32250E-05-4.61004E-06 5.25410E-19-1.83458E-18
 -1       206 1.07430E-04-3.20456E-05-3.23055E-05-4.06892E-06-3.94135E-19-2.99159E-18
 -1       207 1.04708E-04-3.12216E-05-3.14894E-05-3.39441E-06-1.23581E-18-3.24921E-18
 -1       208 1.02442E-04-3.05592E-05-3.08010E-05-2.72755E-06-4.15910E-19-5.11412E-18
 -1       209 1.00612E-04-3.00367E-05-3.02408E-05-2.13317E-06 2.11121E-19-3.95330E-18
 -1       210 9.91690E-05-2.96313E-05-2.97967E-05-1.63302E-06-4.44895E-19-2.27264E-18
 -1       211 9.80537E-05-2.93216E-05-2.94522E-05-1.22709E-06 5.93147E-19-2.00946E-18
 -1       212 9.72069E-05-2.90888E-05-2.91898E-05-9.05772E-07 6.10425E-19-2.02594E-18
 -1       213 9.65750E-05-2.89166E-05-2.89935E-05-6.56231E-07-3.00468E-19-2.69979E-18
 -1       214 9.61120E-05-2.87916E-05-2.88493E-05-4.65542E-07-3.31414E-20-1.71199E-18
 -1       215 9.57795E-05-2.87027E-05-2.87454E-05-3.22000E-07-8.18387E-19-3.07761E-18
 -1       216 9.55464E-05-2.86412E-05-2.86723E-05-2.15574E-07 1.12602E-19-2.45527E-18
 -1       217 9.53878E-05-2.86001E-05-2.86223E-05-1.37934E-07-1.87085E-19-3.75335E-18
 -1       218 9.52841E-05-2.85738E-05-2.85894E-05-8.23112E-08 2.73988E-19-2.59168E-18
 -1       219 9.52202E-05-2.85583E-05-2.85689E-05-4.32951E-08 1.07575E-19-2.92685E-18
 -1       220 9.51846E-05-2.85502E-05-2.85572E-05-1.66211E-08-4.87941E-19-2.60210E-18
 -1       221 9.51686E-05-2.85473E-05-2.85517E-05 1.01839E-09-1.81589E-20-2.03778E-18
 -1       222 9.51658E-05-2.85478E-05-2.85504E-05 1.21383E-08 1.60531E-18-1.54382E-18
 -1       223 9.51715E-05-2.85505E-05-2.85518E-05 1.85943E-08 1.25056E-18 1.62746E-18
 -1       224 9.51821E-05-2.85544E-05-2.85547E-05 2.16841E-08 8.69842E-19 2.15409E-18
 -1       225 9.51952E-05-2.85588E-05-2.85584E-05 2.22132E-08 7.35668E-19 1.71453E-18
 -1       226 9.52087E-05-2.85634E-05-2.85623E-05 2.05281E-08-4.30948E-20-3.58208E-20
 -1       227 9.52210E-05-2.85678E-05-2.85656E-05 1.65433E-08 1.22987E-18-1.10145E-18
 -1       228 9.52309E-05-2.85718E-05-2.85682E-05 1.00399E-08-1.78475E-19 1.96134E-18
 -1       229 1.02240E-04-2.94191E-05-3.13801E-05 5.85985E-06 2.68985E-18 8.06488E-18
 -1       230 9.82992E-05-2.89519E-05-2.96875E-05 1.43275E-06 1.98842E-18 6.06951E-18
 -1       231 9.72258E-05-2.89105E-05-2.92329E-05-4.67985E-07 1.48760E-18 4.44485E-18
 -1       232 9.76490E-05-2.91518E-05-2.93302E-05-1.47249E-06 1.17670E-18 3.34007E-18
 -1       233 9.89276E-05-2.96029E-05-2.96991E-05-2.02538E-06 5.67563E-19 2.62581E-18
 -1       234 1.00656E-04-3.01858E-05-3.01976E-05-2.24764E-06 3.97238E-19 2.06703E-18
 -1       235 1.02501E-04-3.08179E-05-3.07210E-05-2.13508E-06 3.87565E-19 1.77545E-18
 -1       236 1.04125E-04-3.14046E-05-3.11664E-05-1.62768E-06 3.15857E-19 1.57521E-18
 -1       237 1.05157E-04-3.18286E-05-3.14258E-05-6.63351E-07 7.12100E-19 1.02243E-18
 -1       238 1.05218E-04-3.19495E-05-3.13974E-05 7.50163E-07 3.36376E-19 1.12972E-18
 -1       239 1.04013E-04-3.16257E-05-3.10165E-05 2.44115E-06 2.07588E-19 1.39784E-18
 -1       240 1.01484E-04-3.07746E-05-3.02967E-05 3.99776E-06 7.57764E-20 1.04458E-18
 -1       241 9.79919E-05-2.94690E-05-2.93644E-05 4.80471E-06 5.42191E-19 3.09395E-19
 -1       242 9.43913E-05-2.80176E-05-2.84526E-05 4.28679E-06 4.59140E-19 2.84573E-19
 -1       243 9.18402E-05-2.69230E-05-2.78364E-05 2.30608E-06-4.51134E-19 8.72211E-19
 -1       244 9.13128E-05-2.66540E-05-2.77258E-05-5.77631E-07-1.11987E-19 2.05087E-19
 -1       245 9.30748E-05-2.73539E-05-2.81720E-05-3.30396E-06 9.37407E-19-8.39956E-19
 -1       246 9.65247E-05-2.87390E-05-2.90457E-05-4.90995E-06 1.76685E-19-1.42384E-18
 -1       247 1.00545E-04-3.02924E-05-3.00969E-05-5.04474E-06-3.68571E-19-1.63032E-18
 -1       248 1.04066E-04-3.15630E-05-3.10623E-05-4.01010E-06 1.76003E-19-1.40244E-18
 -1       249 1.06442E-04-3.23315E-05-3.17564E-05-2.42237E-06 5.46436E-19-1.65295E-18
 -1       250 1.07509E-04-3.25968E-05-3.21060E-05-8.42538E-07 1.22085E-18-2.71341E-18
 -1       251 1.07443E-04-3.24745E-05-3.21335E-05 4.01871E-07 1.67514E-19-3.68769E-18
 -1       252 1.06565E-04-3.21075E-05-3.19158E-05 1.20985E-06-8.39155E-19-3.18128E-18
 -1       253 1.05212E-04-3.16188E-05-3.15444E-05 1.62211E-06-1.16432E-18-1.78492E-18
 -1       254 1.03658E-04-3.10968E-05-3.11009E-05 1.73782E-06-7.10176E-19-6.23550E-19
 -1       255 1.02102E-04-3.05970E-05-3.06465E-05 1.66157E-06 1.21811E-18-9.33673E-19
 -1       256 1.00664E-04-3.01500E-05-3.02205E-05 1.47923E-06 1.85995E-19-2.03063E-18
 -1       257 9.94073E-05-2.97687E-05-2.98445E-05 1.25207E-06-6.55437E-19-1.30573E-18
 -1       258 9.83544E-05-2.94552E-05-2.95272E-05 1.01925E-06-2.76357E-19-1.25297E-18
 -1       259 9.75017E-05-2.92051E-05-2.92687E-05 8.03171E-07-2.19261E-18-1.76850E-20
 -1       260 9.68311E-05-2.90109E-05-2.90645E-05 6.14724E-07-1.33623E-19-7.83701E-19
 -1       261 9.63177E-05-2.88641E-05-2.89074E-05 4.57462E-07 3.44945E-19-3.95101E-19
 -1       262 9.59348E-05-2.87558E-05-2.87899E-05 3.30649E-07 1.25654E-18-1.97330E-19
 -1       263 9.56572E-05-2.86783E-05-2.87043E-05 2.31295E-07 2.28460E-18-1.82787E-19
 -1       264 9.54621E-05-2.86245E-05-2.86439E-05 1.55443E-07-6.53837E-19 2.64997E-19
 -1       265 9.53301E-05-2.85887E-05-2.86029E-05 9.89513E-08-1.80610E-18-1.51728E-19
 -1       266 9.52454E-05-2.85663E-05-2.85763E-05 5.79226E-08 1.57643E-18-1.44128E-18
 -1       267 9.51950E-05-2.85535E-05-2.85603E-05 2.89198E-08-6.80668E-19-3.29077E-19
 -1       268 9.51692E-05-2.85474E-05-2.85519E-05 9.04704E-09-4.71632E-19 4.11869E-19
 -1       269 9.51602E-05-2.85459E-05-2.85488E-05-4.04559E-09 3.77976E-19 5.34580E-19
 -1       270 9.51625E-05-2.85475E-05-2.85491E-05-1.21949E-08 8.87695E-19 2.17485E-19
 -1       271 9.51717E-05-2.85509E-05-2.85517E-05-1.67717E-08 9.38056E-19-1.15305E-19
 -1       272 9.51848E-05-2.85553E-05-2.85555E-05-1.87232E-08-9.54786E-19-6.95986E-19
 -1       273 9.51994E-05-2.85601E-05-2.85597E-05-1.85952E-08 1.19899E-18-1.95844E-19
 -1       274 9.52135E-05-2.85648E-05-2.85637E-05-1.65420E-08-1.28217E-19 8.94293E-19
 -1       275 9.52254E-05-2.85690E-05-2.85670E-05-1.23330E-08 9.43361E-21-1.17444E-18
 -1       276 9.52338E-05-2.85721E-05-2.85693E-05-5.85434E-09 4.12366E-19-1.71698E-18
 -1       277 9.52369E-05-2.85778E-05-2.85682E-05-9.92920E-09 1.60848E-18 2.94066E-18
 -1       278 9.52409E-05-2.85871E-05-2.85659E-05-1.50722E-08 4.66615E-19 3.45822E-18
 -1       279 9.52451E-05-2.85980E-05-2.85631E-05-1.68489E-08 8.58892E-20-2.62706E-18
 -1       280 9.52491E-05-2.86089E-05-2.85601E-05-1.58955E-08-1.97358E-19 6.56348E-19
 -1       281 9.52523E-05-2.86183E-05-2.85574E-05-1.31734E-08-1.60947E-18-7.04108E-19
 -1       282 9.52547E-05-2.86258E-05-2.85552E-05-9.30767E-09-5.01195E-20 1.17029E-18
 -1       283 9.52563E-05-2.86305E-05-2.85538E-05-4.82926E-09-3.93519E-20 1.48993E-18
 -1       284 9.52568E-05-2.86322E-05-2.85534E-05-7.64279E-11 1.17474E-18-2.54427E-19
 -1       285 9.52563E-05-2.86306E-05-2.85538E-05 4.70147E-09 3.60456E-19-1.85532E-18
 -1       286 9.52548E-05-2.86260E-05-2.85552E-05 9.25000E-09 1.85393E-18-1.44595E-18
 -1       287 9.52524E-05-2.86187E-05-2.85573E-05 1.31509E-08-2.09462E-20-2.77422E-18
 -1       288 9.52491E-05-2.86090E-05-2.85600E-05 1.60003E-08-1.43871E-18 1.45364E-18
 -1       289 9.52452E-05-2.85981E-05-2.85631E-05 1.69952E-08-9.81944E-19-7.41127E-19
 -1       290 9.52408E-05-2.85870E-05-2.85659E-05 1.49560E-08-1.04173E-19-2.48441E-18
 -1       291 9.52362E-05-2.85789E-05-2.85675E-05 1.45025E-08 2.80214E-19-6.79645E-19
 -1       292 1.23665E-05-4.69216E-05 1.16407E-05 8.68475E-06 1.49978E-18 7.85708E-18
 -1       293 2.47133E-05-4.35959E-05 5.26040E-06 2.05403E-05 6.26487E-18 6.78315E-18
 -1       294 4.91801E-05-3.72395E-05-6.87155E-06 3.44743E-05 8.17937E-18 8.65440E-18
 -1       295 8.37951E-05-3.24077E-05-2.25962E-05 4.34825E-05 9.52679E-18 8.46228E-18
 -1       296 1.22705E-04-2.84066E-05-3.95975E-05 4.82657E-05 9.23202E-18 9.21551E-18
 -1       297 1.63162E-04-3.12904E-05-5.45138E-05 4.02103E-05 8.11770E-18 6.58293E-18
 -1       298 1.95059E-04-3.42996E-05-6.57985E-05 2.85319E-05 7.24234E-18 4.18731E-18
 -1       299 2.07228E-04-3.40684E-05-7.08078E-05 5.85618E-06 7.20179E-18-5.58248E-19
 -1       300 2.06536E-04-3.58158E-05-6.96764E-05-1.74423E-05 8.16095E-18-5.35134E-18
 -1       301 1.82578E-04-3.25133E-05-6.15581E-05-3.59781E-05 8.29621E-18-9.58799E-18
 -1       302 1.47115E-04-3.50203E-05-4.70514E-05-3.61830E-05 7.28030E-18-8.40278E-18
 -1       303 1.13445E-04-3.30315E-05-3.39217E-05-4.61243E-05 7.70313E-18-1.02832E-17
 -1       304 6.24751E-05-3.33902E-05-1.38123E-05-3.87753E-05 7.93564E-18-9.81129E-18
 -1       305 3.51603E-05-4.12802E-05 2.88940E-07-2.81018E-05 5.59338E-18-6.61752E-18
 -1       306 1.64685E-05-4.81987E-05 1.02440E-05-1.28421E-05 2.95678E-18-6.04877E-18
 -1       307 1.14591E-05-5.09847E-05 1.32935E-05-1.50278E-07-9.11718E-19-6.20992E-18
 -1       308 1.84180E-05-4.63541E-05 8.84569E-06 1.45731E-05-4.43072E-18-6.49844E-18
 -1       309 3.90556E-05-4.08450E-05-1.68453E-06 2.75108E-05-7.45495E-18-7.95025E-18
 -1       310 8.31588E-05-4.20494E-05-1.83813E-05 4.15118E-05-6.36334E-18-8.16296E-18
 -1       311 1.26413E-04-4.08574E-05-3.64315E-05 3.96158E-05-7.60858E-18-6.75043E-18
 -1       312 1.66213E-04-3.58831E-05-5.42553E-05 3.28112E-05-8.01817E-18-6.08614E-18
 -1       313 1.98343E-04-3.40321E-05-6.74594E-05 1.98400E-05-7.10851E-18-4.15533E-18
 -1       314 2.18349E-04-3.86336E-05-7.29815E-05 1.22619E-06-6.61173E-18-7.54220E-19
 -1       315 2.06732E-04-3.72456E-05-6.89372E-05-2.19663E-05-7.70567E-18 3.86226E-18
 -1       316 1.75051E-04-3.47334E-05-5.76955E-05-3.86749E-05-1.00722E-17 7.15086E-18
 -1       317 1.34319E-04-3.66343E-05-4.11920E-05-4.07131E-05-9.74903E-18 8.33205E-18
 -1       318 9.57542E-05-4.21589E-05-2.34743E-05-4.08338E-05-8.10865E-18 9.47142E-18
 -1       319 5.18995E-05-4.02580E-05-6.69394E-06-3.40071E-05-9.25998E-18 9.25638E-18
 -1       320 2.35566E-05-4.52820E-05 6.26262E-06-1.72508E-05-8.36657E-18 9.71663E-18
 -1       321 1.18114E-05-4.73820E-05 1.20123E-05-4.98979E-06-2.72559E-18 9.01815E-18
 -1       322 9.30344E-05-1.44388E-05-3.37472E-05-9.87176E-06-3.33156E-18-2.21424E-18
 -1       323 9.81333E-05-1.98135E-05-3.36231E-05-1.17511E-05-3.59006E-18-1.10134E-19
 -1       324 8.67035E-05-8.86801E-06-3.34055E-05-5.44758E-06-2.03327E-18-4.14607E-18
 -1       325 8.47270E-05-7.32625E-06-3.32110E-05-3.69688E-06-1.36973E-18-4.47389E-18
 -1       326 8.34765E-05-6.40317E-06-3.30657E-05-2.22203E-06-6.09792E-19-4.52938E-18
 -1       327 8.29413E-05-6.03468E-06-3.29922E-05-8.91601E-07 6.38006E-20-4.60563E-18
 -1       328 8.30996E-05-6.17874E-06-3.29988E-05 4.36920E-07 6.44406E-19-4.47329E-18
 -1       329 8.39086E-05-6.80299E-06-3.30810E-05 1.89538E-06 1.32019E-18-4.30609E-18
 -1       330 8.52887E-05-7.87135E-06-3.32204E-05 3.56156E-06 1.92461E-18-4.02692E-18
 -1       331 8.72636E-05-9.45773E-06-3.33963E-05 5.56255E-06 2.63172E-18-3.37573E-18
 -1       332 8.98799E-05-1.17055E-05-3.35679E-05 7.87837E-06 3.28832E-18-2.50860E-18
 -1       333 9.34037E-05-1.50137E-05-3.36744E-05 1.03400E-05 3.82034E-18-1.15511E-18
 -1       334 9.80795E-05-2.01902E-05-3.34851E-05 1.18938E-05 3.81921E-18 1.55279E-18
 -1       335 1.01366E-04-2.53048E-05-3.26788E-05 9.84505E-06 3.51316E-18 4.18963E-18
 -1       336 9.97189E-05-2.77827E-05-3.07979E-05 3.60841E-06 2.86729E-18 3.01562E-18
 -1       337 1.09930E-04-5.36158E-05-2.42097E-05-3.88819E-05 1.29363E-18-5.07161E-18
 -1       338 9.98472E-05-2.67699E-05-3.12711E-05-3.11556E-06-2.79934E-18 3.09049E-19
 -1       339 9.92984E-05-2.78681E-05-3.05831E-05 1.02569E-06-2.15812E-18-9.27906E-20
 -1       340 9.95371E-05-2.84800E-05-3.04336E-05 3.79173E-06-1.54033E-18-2.25955E-19
 -1       341 1.00517E-04-2.90596E-05-3.06130E-05 5.86508E-06-9.85570E-19-6.84662E-19
 -1       342 1.02149E-04-2.97958E-05-3.10024E-05 7.48000E-06-6.83332E-19-4.04612E-19
 -1       343 1.04369E-04-3.08340E-05-3.15143E-05 8.61505E-06-3.97298E-19-4.34709E-19
 -1       344 1.07149E-04-3.23384E-05-3.20691E-05 9.01855E-06-3.71223E-19-5.19469E-19
 -1       345 1.10477E-04-3.44691E-05-3.25933E-05 8.20580E-06-2.77004E-19-1.89560E-19
 -1       346 1.14253E-04-3.72259E-05-3.30412E-05 5.51771E-06-3.95948E-19-7.51171E-20
 -1       347 1.18033E-04-4.00857E-05-3.34436E-05 4.21107E-07 2.33265E-22 1.93052E-19
 -1       348 1.20753E-04-4.16269E-05-3.39493E-05-6.77008E-06-1.05972E-19 3.69985E-19
 -1       349 1.20686E-04-3.95941E-05-3.47786E-05-1.36793E-05-6.48807E-20 7.03580E-19
 -1       350 1.16933E-04-3.30015E-05-3.60438E-05-1.56944E-05-1.38416E-18 1.92703E-19
 -1       351 1.11997E-04-2.54573E-05-3.72047E-05-8.82769E-06-2.56047E-18-8.61125E-19
 -1       352 1.10897E-04-2.37283E-05-3.74903E-05 4.29578E-06-3.10329E-18-2.34217E-18
 -1       353 1.14981E-04-2.96181E-05-3.66845E-05 1.46655E-05-1.76984E-18-4.24792E-18
 -1       354 1.19975E-04-3.73761E-05-3.54569E-05 1.62232E-05-1.13198E-18-5.32509E-18
 -1       355 1.21877E-04-4.14914E-05-3.44871E-05 1.07364E-05-1.47675E-19-4.62198E-18
 -1       356 1.20351E-04-4.12666E-05-3.39282E-05 3.25042E-06 1.10109E-18-3.65933E-18
 -1       357 1.17047E-04-3.87767E-05-3.35753E-05-2.80262E-06 1.16471E-18-3.16881E-18
 -1       358 1.13391E-04-3.59274E-05-3.32204E-05-6.40858E-06 8.27539E-19-1.33539E-18
 -1       359 1.10048E-04-3.35971E-05-3.27759E-05-7.90381E-06 8.37314E-19-3.85991E-19
 -1       360 1.07182E-04-3.19401E-05-3.22493E-05-7.99362E-06 1.01197E-18-5.31812E-19
 -1       361 1.04775E-04-3.08323E-05-3.16876E-05-7.30792E-06-4.13307E-20-1.72422E-18
 -1       362 1.02771E-04-3.01037E-05-3.11381E-05-6.28594E-06-1.06661E-18-2.18835E-18
 -1       363 1.01114E-04-2.96197E-05-3.06345E-05-5.19162E-06-6.76216E-19-1.06567E-18
 -1       364 9.97571E-05-2.92905E-05-3.01944E-05-4.16407E-06-1.24245E-19-6.86820E-19
 -1       365 9.86608E-05-2.90612E-05-2.98234E-05-3.26470E-06 1.08765E-18-6.15675E-19
 -1       366 9.77872E-05-2.88988E-05-2.95194E-05-2.51095E-06 4.20305E-19-3.48211E-19
 -1       367 9.71014E-05-2.87828E-05-2.92760E-05-1.89767E-06 1.46119E-19 2.88505E-21
 -1       368 9.65714E-05-2.87003E-05-2.90850E-05-1.40955E-06-6.45576E-19-9.21700E-19
 -1       369 9.61685E-05-2.86425E-05-2.89376E-05-1.02796E-06 2.06300E-19-7.87837E-19
 -1       370 9.58674E-05-2.86029E-05-2.88261E-05-7.34319E-07-1.15917E-18-4.72837E-19
 -1       371 9.56467E-05-2.85769E-05-2.87430E-05-5.11740E-07-8.41038E-19-1.22800E-19
 -1       372 9.54885E-05-2.85607E-05-2.86825E-05-3.45576E-07-7.64742E-19-3.84434E-19
 -1       373 9.53780E-05-2.85516E-05-2.86392E-05-2.23520E-07-2.70000E-19-1.41083E-18
 -1       374 9.53034E-05-2.85474E-05-2.86092E-05-1.35456E-07 1.63196E-18-2.22690E-18
 -1       375 9.52553E-05-2.85466E-05-2.85891E-05-7.32168E-08 6.62942E-19-1.36573E-18
 -1       376 9.52265E-05-2.85480E-05-2.85763E-05-3.03182E-08-2.54217E-20-5.71320E-20
 -1       377 9.52113E-05-2.85506E-05-2.85687E-05-1.70595E-09 1.54621E-18 1.32800E-18
 -1       378 9.52055E-05-2.85541E-05-2.85648E-05 1.64684E-08 3.44213E-18 1.57071E-18
 -1       379 9.52059E-05-2.85580E-05-2.85634E-05 2.70367E-08 2.10256E-18 8.60444E-19
 -1       380 9.52102E-05-2.85622E-05-2.85634E-05 3.19743E-08 8.77341E-19 6.81299E-19
 -1       381 9.52166E-05-2.85665E-05-2.85643E-05 3.24974E-08-2.19461E-18 1.21386E-18
 -1       382 9.52237E-05-2.85711E-05-2.85655E-05 2.92845E-08-6.99046E-19 4.41478E-19
 -1       383 9.52299E-05-2.85750E-05-2.85665E-05 2.31369E-08 1.29248E-18-5.43145E-19
 -1       384 9.86375E-05-2.85241E-05-3.00097E-05 1.53777E-07 2.18550E-18 2.14614E-18
 -1       385 9.85266E-05-2.89534E-05-2.97949E-05-1.80872E-06 1.63843E-18 1.51019E-18
 -1       386 9.92040E-05-2.94399E-05-2.98896E-05-2.93410E-06 9.87509E-19 1.00510E-18
 -1       387 1.00392E-04-3.00416E-05-3.01483E-05-3.45806E-06 4.81459E-19 7.06418E-19
 -1       388 1.01844E-04-3.07508E-05-3.04722E-05-3.41608E-06 5.04051E-19 6.80690E-19
 -1       389 1.03317E-04-3.15201E-05-3.07781E-05-2.74426E-06 5.05342E-19 3.15824E-19
 -1       390 1.04538E-04-3.22512E-05-3.09919E-05-1.36266E-06 9.55692E-19 1.50472E-19
 -1       391 1.05200E-04-3.27714E-05-3.10543E-05 7.20674E-07 1.71264E-19 3.93075E-19
 -1       392 1.04988E-04-3.28303E-05-3.09363E-05 3.27275E-06 1.94784E-19 8.92975E-19
 -1       393 1.03681E-04-3.21649E-05-3.06559E-05 5.71142E-06 4.08774E-19 7.43654E-19
 -1       394 1.01345E-04-3.06796E-05-3.02839E-05 7.12427E-06 1.00294E-18 5.23342E-19
 -1       395 9.85314E-05-2.86813E-05-2.99269E-05 6.59086E-06 4.34325E-19 4.76201E-19
 -1       396 9.62500E-05-2.69378E-05-2.96911E-05 3.78804E-06-2.64926E-19 8.01480E-20
 -1       397 9.55352E-05-2.63195E-05-2.96470E-05-5.32515E-07 6.42183E-19-4.06704E-19
 -1       398 9.67890E-05-2.71842E-05-2.98133E-05-4.75564E-06 1.30273E-18-1.32470E-18
 -1       399 9.94816E-05-2.90805E-05-3.01590E-05-7.32897E-06 8.60282E-19-1.30482E-18
 -1       400 1.02540E-04-3.11171E-05-3.06055E-05-7.63761E-06-7.16773E-20-2.26006E-18
 -1       401 1.05006E-04-3.25764E-05-3.10466E-05-6.10947E-06 3.37278E-19-2.64973E-18
 -1       402 1.06412E-04-3.32139E-05-3.13829E-05-3.68838E-06 6.70251E-19-3.12372E-18
 -1       403 1.06752E-04-3.31642E-05-3.15522E-05-1.24476E-06 1.68164E-18-3.01671E-18
 -1       404 1.06263E-04-3.26972E-05-3.15413E-05 7.06085E-07 7.29510E-19-3.43511E-18
 -1       405 1.05240E-04-3.20529E-05-3.13756E-05 1.99451E-06-1.52353E-18-2.27401E-18
 -1       406 1.03942E-04-3.13869E-05-3.11007E-05 2.67016E-06-1.58707E-18-1.41450E-18
 -1       407 1.02561E-04-3.07796E-05-3.07655E-05 2.87711E-06-1.06400E-18-1.40560E-18
 -1       408 1.01223E-04-3.02618E-05-3.04118E-05 2.77309E-06 8.07311E-19-4.47581E-19
 -1       409 1.00005E-04-2.98381E-05-3.00699E-05 2.49123E-06 6.30551E-19 3.67598E-19
 -1       410 9.89443E-05-2.95009E-05-2.97591E-05 2.12901E-06-7.19806E-19 8.78103E-20
 -1       411 9.80522E-05-2.92382E-05-2.94891E-05 1.75063E-06-1.84465E-19 1.00249E-18
 -1       412 9.73234E-05-2.90373E-05-2.92629E-05 1.39417E-06-1.42827E-18-2.49178E-19
 -1       413 9.67433E-05-2.88866E-05-2.90792E-05 1.07921E-06 4.25965E-19-1.44525E-18
 -1       414 9.62926E-05-2.87757E-05-2.89338E-05 8.13212E-07-5.40780E-19-1.46209E-18
 -1       415 9.59504E-05-2.86959E-05-2.88218E-05 5.96237E-07 1.11941E-18 4.89522E-19
 -1       416 9.56969E-05-2.86399E-05-2.87374E-05 4.24297E-07 1.56743E-18 1.55093E-18
 -1       417 9.55139E-05-2.86019E-05-2.86756E-05 2.91491E-07 3.54242E-19 2.41403E-18
 -1       418 9.53859E-05-2.85773E-05-2.86316E-05 1.91353E-07-1.27678E-18 1.04081E-18
 -1       419 9.52998E-05-2.85622E-05-2.86013E-05 1.17635E-07 1.74135E-18 6.83358E-20
 -1       420 9.52447E-05-2.85541E-05-2.85813E-05 6.47160E-08-1.92164E-18 5.82404E-19
 -1       421 9.52124E-05-2.85507E-05-2.85691E-05 2.77887E-08-1.10801E-18 2.04668E-18
 -1       422 9.51962E-05-2.85504E-05-2.85623E-05 2.89759E-09-3.24811E-19 1.19928E-18
 -1       423 9.51911E-05-2.85522E-05-2.85594E-05-1.30913E-08 8.19872E-19 1.31025E-18
 -1       424 9.51932E-05-2.85553E-05-2.85590E-05-2.25562E-08 7.35069E-19 2.66549E-18
 -1       425 9.51997E-05-2.85591E-05-2.85603E-05-2.71930E-08-1.80890E-19 1.79886E-18
 -1       426 9.52086E-05-2.85632E-05-2.85623E-05-2.80755E-08-1.60143E-19 1.07209E-18
 -1       427 9.52181E-05-2.85676E-05-2.85645E-05-2.57068E-08 4.26301E-19 1.79591E-18
 -1       428 9.52272E-05-2.85720E-05-2.85665E-05-2.01925E-08 2.47518E-19 1.81141E-18
 -1       429 9.52325E-05-2.85751E-05-2.85675E-05-1.56144E-08 1.06250E-18 3.32245E-18
 -1       430 9.52453E-05-2.85946E-05-2.85646E-05-2.64435E-08-1.30149E-18-2.24327E-18
 -1       431 9.52402E-05-2.85869E-05-2.85657E-05-2.63174E-08-1.41426E-18-5.38762E-19
 -1       432 9.52361E-05-2.85810E-05-2.85665E-05-2.23348E-08-2.13118E-19 1.95795E-18
 -1       433 9.52492E-05-2.86012E-05-2.85634E-05-2.33111E-08-2.71454E-18-2.63030E-18
 -1       434 9.52520E-05-2.86065E-05-2.85623E-05-1.79578E-08-2.27378E-18 1.01981E-18
 -1       435 9.52537E-05-2.86102E-05-2.85615E-05-1.12868E-08-1.17429E-18 6.90249E-19
 -1       436 9.52546E-05-2.86121E-05-2.85610E-05-3.93064E-09-2.83150E-18 1.19490E-18
 -1       437 9.52546E-05-2.86121E-05-2.85610E-05 3.66122E-09-1.41566E-18-1.83732E-19
 -1       438 9.52538E-05-2.86104E-05-2.85614E-05 1.10994E-08-1.59687E-19-9.75762E-19
 -1       439 9.52522E-05-2.86069E-05-2.85622E-05 1.78048E-08-5.26371E-19-3.33847E-18
 -1       440 9.52494E-05-2.86016E-05-2.85633E-05 2.33403E-08-7.67345E-19 4.39463E-20
 -1       441 9.52454E-05-2.85948E-05-2.85645E-05 2.66615E-08-5.08459E-19 1.72305E-18
 -1       442 9.52402E-05-2.85871E-05-2.85657E-05 2.68148E-08-1.69355E-19-2.14217E-18
 -1       443 5.25951E-05-3.89888E-05-5.95912E-06 4.25117E-05-9.93676E-19 5.78984E-18
 -1       444 1.12797E-05-2.36450E-05 4.96197E-06 2.41329E-06-1.92319E-18 9.75126E-18
 -1       445 2.57100E-05-2.89877E-05 1.19820E-06 2.92957E-05-1.30231E-18 6.64084E-18
 -1       446 9.07094E-05-5.05504E-05-1.72940E-05 4.34262E-05 4.57186E-19 2.77729E-18
 -1       447 1.39026E-04-5.23305E-05-3.72373E-05-2.11316E-05 2.07915E-18-2.41002E-18
 -1       448 3.66021E-05-3.10881E-05-2.23877E-06-3.64139E-05-1.07774E-18-6.07820E-18
 -1       449 1.25254E-04-5.26422E-05-3.10785E-05 3.15522E-05 2.37159E-18 1.02502E-18
 -1       450 8.94081E-05-1.11182E-05-3.36204E-05-7.57267E-06-2.75481E-18-3.53013E-18
 -1       451 1.55813E-04-2.92775E-05-5.41241E-05 1.31574E-06 6.13389E-18-1.46696E-18
 -1       452 1.58231E-04-1.69984E-05-6.04003E-05-1.12373E-06 7.69265E-18-1.70005E-18
 -1       453 1.52461E-04-1.05787E-05-6.09321E-05 8.02273E-07 8.38436E-18-8.41646E-19
 -1       454 1.56974E-04-1.92227E-05-5.89432E-05 1.45107E-06 7.69900E-18-1.12232E-19
 -1       455 1.54804E-04-3.56264E-05-5.09280E-05-6.28056E-06 5.11936E-18-1.23423E-18
 -1       456 7.06241E-05-4.58919E-05-1.08067E-05-4.46669E-05 8.62174E-19-5.46162E-18
 -1       457 1.33854E-05-2.55405E-05 4.81439E-06-1.26674E-05-5.09173E-19-6.94525E-18
 -1       458 1.67746E-05-2.27126E-05 2.55150E-06 1.47852E-05-7.16802E-20-6.88331E-18
 -1       459 4.36344E-05-3.59573E-05-3.34713E-06 3.78173E-05 7.13625E-20-5.76618E-18
 -1       460 8.04252E-05-5.00150E-05-1.30866E-05 4.36967E-05 2.81215E-19-4.87012E-18
 -1       461 1.23944E-04-5.90183E-05-2.78865E-05 3.16502E-05-1.60894E-18-2.06935E-18
 -1       462 1.50785E-04-5.12532E-05-4.26965E-05 1.07216E-05-4.21531E-18-7.93246E-19
 -1       463 1.57983E-04-3.11932E-05-5.43903E-05-4.48050E-06-6.19086E-18-4.08905E-19
 -1       464 1.58487E-04-1.48576E-05-6.14934E-05-2.72960E-06-7.71562E-18-5.76512E-19
 -1       465 1.63175E-04-1.57305E-05-6.29466E-05 2.73990E-06-8.29393E-18-7.48830E-19
 -1       466 1.61576E-04-2.97966E-05-5.64120E-05 2.86207E-06-7.22689E-18-1.67713E-18
 -1       467 1.56214E-04-4.52851E-05-4.73809E-05-7.11547E-06-5.89322E-18-1.25435E-18
 -1       468 1.34398E-04-5.84140E-05-3.25862E-05-2.43256E-05-2.87017E-18 4.92126E-19
 -1       469 9.53319E-05-5.44277E-05-1.75601E-05-4.07951E-05 2.30922E-19 3.67697E-18
 -1       470 5.13994E-05-3.92906E-05-5.34709E-06-3.96193E-05-7.29189E-19 5.13609E-18
 -1       471 2.44708E-05-2.85795E-05 1.56563E-06-2.53949E-05-1.11549E-18 9.74173E-18
 -1       472 1.45168E-04-4.51268E-05-4.27825E-05 1.91709E-05 4.05366E-18 8.25434E-19
 -1       473 9.86067E-05-2.57584E-05-3.12062E-05 2.90305E-06 2.89584E-18 2.82249E-19
 -1       474 8.57236E-05-1.00284E-05-3.24555E-05-2.07898E-06-8.87912E-19-3.99193E-18
 -1       475 8.75940E-05-1.16534E-05-3.25631E-05-3.06689E-06-1.62203E-18-3.78576E-18
 -1       476 8.45225E-05-9.06008E-06-3.23539E-05-3.94184E-07 2.99322E-19-4.10709E-18
 -1       477 8.51499E-05-9.61510E-06-3.23857E-05 5.36824E-07 9.09978E-19-3.97064E-18
 -1       478 8.64752E-05-1.07735E-05-3.24591E-05 1.63992E-06 1.53935E-18-3.77982E-18
 -1       479 8.84597E-05-1.25563E-05-3.25486E-05 2.98634E-06 2.20492E-18-3.19219E-18
 -1       480 9.10225E-05-1.49944E-05-3.26054E-05 4.49546E-06 2.80963E-18-2.56807E-18
 -1       481 9.42024E-05-1.82833E-05-3.25567E-05 5.97412E-06 3.26109E-18-1.68037E-18
 -1       482 9.77046E-05-2.42437E-05-3.14690E-05-1.47573E-06-2.47403E-18-1.27457E-18
 -1       483 1.01278E-04-5.48068E-05-1.97303E-05-4.03659E-05-2.16533E-18-2.70076E-18
 -1       484 9.85559E-05-2.73088E-05-3.05160E-05-6.15060E-07 2.20315E-18 7.41286E-20
 -1       485 9.62829E-05-2.05943E-05-3.24577E-05-5.81869E-06-3.14850E-18-1.71427E-18
 -1       486 9.79503E-05-2.58850E-05-3.08761E-05 2.42452E-06-1.89698E-18-1.05755E-18
 -1       487 9.82078E-05-2.67741E-05-3.06085E-05 5.46388E-06-1.31445E-18-9.15644E-19
 -1       488 9.87632E-05-2.74849E-05-3.05440E-05 7.90626E-06-8.33502E-19-1.06666E-18
 -1       489 9.97604E-05-2.83701E-05-3.05940E-05 9.87124E-06-5.63373E-19-1.22112E-18
 -1       490 1.01388E-04-2.97848E-05-3.06880E-05 1.12961E-05-6.26003E-19-1.33741E-18
 -1       491 1.03958E-04-3.21446E-05-3.07831E-05 1.19035E-05-2.13700E-19-1.41977E-18
 -1       492 1.07913E-04-3.58514E-05-3.08961E-05 1.11481E-05-2.75232E-20-1.28100E-18
 -1       493 1.13616E-04-4.09284E-05-3.11697E-05 8.16256E-06 2.62347E-19-4.16182E-19
 -1       494 1.20690E-04-4.61475E-05-3.19754E-05 1.98952E-06 7.45091E-19 7.82294E-19
 -1       495 1.27297E-04-4.83010E-05-3.39287E-05-7.71545E-06 4.16512E-19 1.61587E-18
 -1       496 1.28602E-04-4.17665E-05-3.74969E-05-1.67603E-05-9.70647E-19 1.89366E-18
 -1       497 1.23690E-04-2.73146E-05-4.17611E-05-1.67367E-05-3.24006E-18 6.20670E-19
 -1       498 1.19132E-04-1.67323E-05-4.43710E-05-3.43169E-06-4.74082E-18-1.75239E-18
 -1       499 1.21321E-04-2.15193E-05-4.31656E-05 1.32467E-05-4.09969E-18-3.84944E-18
 -1       500 1.27510E-04-3.65501E-05-3.92535E-05 1.85045E-05-2.18234E-18-5.43448E-18
 -1       501 1.28851E-04-4.69234E-05-3.52108E-05 1.22482E-05-2.62086E-19-5.37540E-18
 -1       502 1.23992E-04-4.77236E-05-3.27105E-05 2.50174E-06 1.35344E-18-4.05482E-18
 -1       503 1.16942E-04-4.33038E-05-3.15731E-05-5.02720E-06 2.12779E-18-3.69357E-18
 -1       504 1.10624E-04-3.79106E-05-3.11717E-05-9.16089E-06 1.76040E-18-2.05154E-18
 -1       505 1.06051E-04-3.36646E-05-3.10278E-05-1.07155E-05 1.22485E-18-1.05264E-18
 -1       506 1.02995E-04-3.08877E-05-3.09047E-05-1.06783E-05 5.17343E-19-1.65630E-18
 -1       507 1.00991E-04-2.92913E-05-3.07274E-05-9.78444E-06-4.53426E-20-1.44252E-18
 -1       508 9.96342E-05-2.84735E-05-3.04953E-05-8.51029E-06-2.97228E-19-1.03458E-18
 -1       509 9.86613E-05-2.81124E-05-3.02326E-05-7.13978E-06-2.02073E-20 8.52844E-19
 -1       510 9.79215E-05-2.79966E-05-2.99652E-05-5.82988E-06-5.81321E-20 1.58793E-18
 -1       511 9.73351E-05-2.80011E-05-2.97123E-05-4.65769E-06 2.83541E-19 2.42385E-18
 -1       512 9.68611E-05-2.80577E-05-2.94852E-05-3.65228E-06 4.53416E-19 1.12589E-18
 -1       513 9.64765E-05-2.81314E-05-2.92892E-05-2.81545E-06 4.24556E-19 1.47652E-18
 -1       514 9.61668E-05-2.82056E-05-2.91250E-05-2.13476E-06-4.97861E-19 9.21237E-19
 -1       515 9.59207E-05-2.82733E-05-2.89908E-05-1.59142E-06-1.04930E-18 1.63715E-18
 -1       516 9.57283E-05-2.83321E-05-2.88834E-05-1.16484E-06-1.80527E-19 2.91452E-19
 -1       517 9.55806E-05-2.83817E-05-2.87990E-05-8.35038E-07-9.62351E-19 9.05463E-19
 -1       518 9.54695E-05-2.84228E-05-2.87339E-05-5.83885E-07-2.85253E-19 2.33935E-18
 -1       519 9.53878E-05-2.84564E-05-2.86846E-05-3.95558E-07-1.37636E-18 2.60678E-18
 -1       520 9.53291E-05-2.84835E-05-2.86479E-05-2.56645E-07-1.09103E-18 1.52119E-18
 -1       521 9.52883E-05-2.85052E-05-2.86212E-05-1.56024E-07 2.12864E-18-1.19366E-19
 -1       522 9.52610E-05-2.85224E-05-2.86021E-05-8.46503E-08 1.60939E-18 1.52944E-18
 -1       523 9.52437E-05-2.85359E-05-2.85890E-05-3.53023E-08 6.34850E-19 2.39118E-18
 -1       524 9.52336E-05-2.85466E-05-2.85801E-05-2.33361E-09 1.93887E-18 1.60274E-18
 -1       525 9.52287E-05-2.85550E-05-2.85744E-05 1.85569E-08 1.49511E-18 6.76766E-19
 -1       526 9.52274E-05-2.85619E-05-2.85709E-05 3.05244E-08 9.31506E-19 8.91130E-19
 -1       527 9.52285E-05-2.85680E-05-2.85688E-05 3.58197E-08-5.42939E-19 3.29516E-19
 -1       528 9.52312E-05-2.85738E-05-2.85674E-05 3.57945E-08-3.00808E-18 7.35943E-19
 -1       529 4.91840E-05-2.86085E-05-8.30235E-06 3.79599E-05-3.80942E-18 4.95440E-18
 -1       530 9.94759E-05-2.92020E-05-3.01146E-05-4.25206E-06 1.00376E-18-2.38171E-19
 -1       531 1.00547E-04-3.01863E-05-3.01555E-05-4.84244E-06 5.43250E-19-6.22368E-19
 -1       532 1.01960E-04-3.13601E-05-3.02613E-05-4.63503E-06 5.60981E-19-5.92797E-19
 -1       533 1.03608E-04-3.27143E-05-3.03904E-05-3.52677E-06 5.47180E-19-1.01983E-19
 -1       534 1.05300E-04-3.40940E-05-3.05266E-05-1.42383E-06 3.13919E-19 3.92439E-19
 -1       535 1.06703E-04-3.51331E-05-3.06830E-05 1.61302E-06 3.12085E-19 3.13968E-19
 -1       536 1.07326E-04-3.52475E-05-3.08979E-05 5.16088E-06 4.55627E-19 1.18778E-19
 -1       537 1.06669E-04-3.38390E-05-3.12135E-05 8.24245E-06 8.06202E-19-9.18820E-20
 -1       538 1.04620E-04-3.08064E-05-3.16292E-05 9.40731E-06 5.82586E-19-2.84486E-19
 -1       539 1.01922E-04-2.71053E-05-3.20575E-05 7.41042E-06 2.66680E-19-4.36614E-19
 -1       540 1.00067E-04-2.45996E-05-3.23389E-05 2.32554E-06 5.73395E-19-1.15266E-18
 -1       541 1.00309E-04-2.48345E-05-3.23428E-05-3.94217E-06 1.61380E-18-1.75991E-18
 -1       542 1.02532E-04-2.76645E-05-3.20825E-05-8.66735E-06 1.48876E-18-2.01201E-18
 -1       543 1.05352E-04-3.13841E-05-3.16994E-05-1.01975E-05 2.47913E-19-2.36017E-18
 -1       544 1.07357E-04-3.42270E-05-3.13451E-05-8.72487E-06-4.52414E-20-2.24624E-18
 -1       545 1.07947E-04-3.54140E-05-3.10938E-05-5.57825E-06 9.89401E-19-2.34455E-18
 -1       546 1.07321E-04-3.51702E-05-3.09321E-05-2.14446E-06 4.25679E-19-1.64739E-18
 -1       547 1.05987E-04-3.41193E-05-3.08099E-05 7.18810E-07 8.76354E-19-8.69820E-20
 -1       548 1.04390E-04-3.28188E-05-3.06808E-05 2.69237E-06-6.56603E-19-3.02404E-20
 -1       549 1.02811E-04-3.16065E-05-3.05208E-05 3.80112E-06-1.60465E-18-1.04611E-18
 -1       550 1.01382E-04-3.06233E-05-3.03272E-05 4.22346E-06-1.71395E-18-7.92159E-19
 -1       551 1.00147E-04-2.98906E-05-3.01101E-05 4.17051E-06-2.71543E-19-1.37245E-18
 -1       552 9.91067E-05-2.93750E-05-2.98841E-05 3.82840E-06 8.33092E-20-8.06294E-19
 -1       553 9.82456E-05-2.90277E-05-2.96633E-05 3.33921E-06-3.44801E-20 5.76750E-20
 -1       554 9.75424E-05-2.88023E-05-2.94583E-05 2.80109E-06-7.32818E-19 5.76590E-20
 -1       555 9.69757E-05-2.86618E-05-2.92757E-05 2.27594E-06 1.08176E-19-3.53307E-19
 -1       556 9.65251E-05-2.85783E-05-2.91185E-05 1.79870E-06-1.42573E-20-8.91838E-19
 -1       557 9.61721E-05-2.85321E-05-2.89872E-05 1.38566E-06-5.14234E-19 4.26642E-19
 -1       558 9.58998E-05-2.85098E-05-2.88804E-05 1.04112E-06-3.25456E-19 3.40790E-19
 -1       559 9.56935E-05-2.85021E-05-2.87954E-05 7.62183E-07 1.03859E-18 1.14068E-18
 -1       560 9.55400E-05-2.85031E-05-2.87294E-05 5.42105E-07-7.03792E-19 2.12366E-18
 -1       561 9.54284E-05-2.85087E-05-2.86793E-05 3.72508E-07 8.61729E-19 1.50395E-18
 -1       562 9.53492E-05-2.85166E-05-2.86422E-05 2.44734E-07 8.67517E-19 1.36437E-19
 -1       563 9.52949E-05-2.85252E-05-2.86153E-05 1.50646E-07-1.45572E-19 8.13553E-19
 -1       564 9.52591E-05-2.85336E-05-2.85965E-05 8.30336E-08-2.00581E-18-9.70898E-19
 -1       565 9.52371E-05-2.85414E-05-2.85837E-05 3.57887E-08-3.32822E-19-2.09463E-18
 -1       566 9.52249E-05-2.85484E-05-2.85756E-05 3.92323E-09-4.95338E-20-1.97991E-18
 -1       567 9.52196E-05-2.85546E-05-2.85707E-05-1.64860E-08-3.65880E-19-5.63875E-19
 -1       568 9.52189E-05-2.85601E-05-2.85680E-05-2.83927E-08-2.74932E-19 1.78493E-18
 -1       569 9.52212E-05-2.85653E-05-2.85668E-05-3.38984E-08 6.96670E-19 1.95554E-18
 -1       570 9.52253E-05-2.85703E-05-2.85664E-05-3.44312E-08 7.57579E-19 1.47493E-18
 -1       571 9.52306E-05-2.85757E-05-2.85664E-05-3.06972E-08-4.60479E-19 1.46622E-18
 -1       572 9.52507E-05-2.85917E-05-2.85681E-05-2.47246E-08-1.18698E-18-6.64646E-19
 -1       573 9.52531E-05-2.85938E-05-2.85682E-05-1.73752E-08-1.31079E-18 3.13194E-18
 -1       574 9.52410E-05-2.85839E-05-2.85674E-05-3.29672E-08-2.97119E-19-3.16619E-18
 -1       575 9.52468E-05-2.85885E-05-2.85679E-05-3.02358E-08-1.73046E-18-1.12561E-18
 -1       576 9.52543E-05-2.85950E-05-2.85683E-05-9.02516E-09-1.92319E-18-4.35268E-19
 -1       577 9.52548E-05-2.85955E-05-2.85683E-05-2.17409E-10-1.33353E-18 1.67604E-18
 -1       578 9.52545E-05-2.85952E-05-2.85683E-05 8.64725E-09-1.51879E-18 9.47238E-19
 -1       579 9.52534E-05-2.85942E-05-2.85682E-05 1.70270E-08-8.59624E-19-1.94721E-18
 -1       580 9.52511E-05-2.85922E-05-2.85681E-05 2.46399E-08 1.56151E-19-2.78100E-18
 -1       581 9.52472E-05-2.85888E-05-2.85679E-05 3.04940E-08-1.44865E-18-7.02340E-21
 -1       582 9.52411E-05-2.85839E-05-2.85673E-05 3.31455E-08-2.32304E-18-4.99723E-20
 -1       583 2.60245E-05-1.48539E-05-4.16114E-06-1.27731E-05 2.72176E-19 7.96137E-18
 -1       584 9.88103E-05-2.83146E-05-3.02036E-05-2.88593E-06 1.69726E-18-1.67661E-20
 -1       585 8.66679E-05-4.70907E-05-1.65784E-05 4.22049E-05-4.05729E-18 1.95261E-18
 -1       586 1.18691E-04-5.92131E-05-2.54151E-05 3.08415E-05-1.78703E-18-1.06660E-18
 -1       587 1.38613E-04-5.60082E-05-3.55638E-05 1.22126E-05 4.29274E-19-2.56296E-18
 -1       588 1.42267E-04-4.79491E-05-4.07229E-05 2.02401E-06 1.18422E-18 1.73086E-18
 -1       589 1.38188E-04-1.99734E-05-5.12362E-05-1.23174E-05-6.12627E-18 4.68489E-19
 -1       590 3.95984E-05-2.28930E-05-6.59204E-06 2.93104E-05 1.67278E-18-5.41265E-18
 -1       591 8.14580E-05-4.53163E-05-1.51323E-05-4.05100E-05 3.61106E-18 2.26412E-18
 -1       592 1.29582E-04-6.06000E-05-2.96385E-05-2.31611E-05-1.38601E-18-6.61718E-19
 -1       593 8.46993E-05-9.18076E-06-3.23783E-05-1.22575E-06-1.91786E-19-4.10966E-18
 -1       594 1.34959E-04-1.95818E-05-5.00027E-05-1.14008E-05 5.38914E-18-3.00387E-18
 -1       595 2.99860E-05-1.85474E-05-4.36085E-06-2.26558E-05-1.41129E-18-5.89853E-18
 -1       596 1.29253E-04-1.22808E-05-5.08595E-05 8.16150E-06 6.20309E-18 1.55564E-18
 -1       597 6.73336E-05-3.89148E-05-1.17519E-05-4.30445E-05-1.98523E-18-4.51103E-18
 -1       598 2.52149E-05-1.62470E-05-3.29598E-06 1.77481E-05-2.73740E-18 7.24753E-18
 -1       599 1.29087E-04-7.48650E-06-5.28040E-05-3.83762E-06 6.69093E-18-9.66094E-19
 -1       600 1.43805E-04-4.00174E-05-4.48708E-05-5.04778E-06 2.94717E-18-4.05713E-18
 -1       601 1.37953E-04-2.74876E-05-4.78114E-05 1.07755E-05 4.43782E-18 2.82830E-18
 -1       602 2.40685E-05-1.33161E-05-3.97280E-06 1.59245E-06 3.62793E-20-6.26000E-18
 -1       603 6.47775E-05-3.77002E-05-1.11885E-05 4.02596E-05 1.87618E-18-4.10096E-18
 -1       604 1.25038E-04-6.21420E-05-2.68497E-05-2.39174E-05 2.78121E-18-2.07062E-18
 -1       605 1.12494E-04-5.89476E-05-2.28326E-05 3.33866E-05 2.26078E-18-1.20862E-18
 -1       606 1.46660E-04-4.41302E-05-4.42482E-05-1.10849E-05-3.35131E-18 1.56606E-18
 -1       607 1.34830E-04-1.09166E-05-5.37496E-05 9.68514E-07-6.83301E-18-1.64599E-18
 -1       608 1.40590E-04-1.87604E-05-5.28137E-05 1.20543E-05-6.67854E-18-3.18236E-18
 -1       609 1.47307E-04-3.92723E-05-4.67290E-05 1.18884E-05-5.13604E-18-3.60021E-18
 -1       610 1.45360E-04-5.69893E-05-3.81249E-05-1.12745E-06-1.87276E-18-3.77083E-18
 -1       611 4.69765E-05-2.76857E-05-7.74630E-06-3.38929E-05 3.74907E-18 4.99845E-18
 -1       612 1.40372E-04-6.16483E-05-3.38705E-05 7.70184E-06 3.37397E-19 1.39379E-18
 -1       613 9.86813E-05-2.38662E-05-3.20672E-05 6.81883E-06 3.52816E-18 7.97434E-19
 -1       614 9.02274E-05-1.40579E-05-3.26665E-05-4.25035E-06-2.27847E-18-3.34981E-18
 -1       615 9.52336E-05-2.85778E-05-2.85668E-05 3.31874E-08-1.08198E-18 1.23823E-18
 -1       616 5.28860E-05-2.58660E-05-1.10574E-05-3.42420E-05-2.10856E-18-5.26791E-18
 -1       617 9.43920E-05-4.82058E-05-1.94381E-05 3.64616E-05 2.80357E-18-1.56381E-18
 -1       618 8.71411E-05-1.30850E-05-3.17427E-05-3.63538E-08 1.08510E-18-3.31575E-18
 -1       619 8.59543E-05-1.20048E-05-3.16965E-05-4.87573E-07 4.78036E-19-3.65439E-18
 -1       620 9.14511E-05-1.71776E-05-3.18366E-05 1.48813E-06 2.07907E-18-2.41285E-18
 -1       621 9.42245E-05-2.01177E-05-3.17671E-05 2.26584E-06 2.57976E-18-1.74151E-18
 -1       622 1.18895E-04-1.47878E-05-4.50876E-05-1.01991E-05 4.28376E-18-2.38440E-18
 -1       623 9.52403E-05-2.85788E-05-2.85692E-05 3.53795E-08-1.22819E-18 1.37929E-18
 -1       624 9.53043E-05-2.21083E-05-3.13669E-05 3.83258E-07-1.86366E-18-2.08354E-18
 -1       625 9.69858E-05-2.40387E-05-3.12534E-05 1.26695E-06 2.51594E-18-1.02817E-18
 -1       626 1.00260E-04-3.04673E-05-2.99121E-05-6.13089E-06 5.58865E-19-5.71513E-19
 -1       627 9.55815E-05-2.37426E-05-3.07885E-05 3.83682E-06-1.49077E-18-1.88225E-18
 -1       628 9.55846E-05-2.46913E-05-3.03812E-05 6.78555E-06-1.16128E-18-1.76153E-18
 -1       629 9.56265E-05-2.54841E-05-3.00600E-05 9.32951E-06-7.13097E-19-1.62935E-18
 -1       630 9.60014E-05-2.65703E-05-2.97556E-05 1.15659E-05-5.18374E-19-1.73214E-18
 -1       631 9.71247E-05-2.84871E-05-2.94162E-05 1.34962E-05-1.40574E-19-1.58771E-18
 -1       632 9.96620E-05-3.19021E-05-2.90411E-05 1.49664E-05 1.85270E-19-1.05932E-18
 -1       633 1.04571E-04-3.75043E-05-2.87442E-05 1.54833E-05 6.69498E-19-6.41047E-19
 -1       634 1.12964E-04-4.55038E-05-2.89033E-05 1.37627E-05 1.58973E-18-1.35482E-19
 -1       635 1.24258E-04-5.33906E-05-3.03054E-05 8.40568E-06 1.32241E-18 8.19114E-19
 -1       636 1.37956E-04-5.04711E-05-3.77324E-05 1.15360E-05-1.01252E-18-5.51675E-18
 -1       637 1.30083E-04-5.48610E-05-3.22608E-05-9.24658E-07 2.00251E-18-3.54714E-18
 -1       638 1.18405E-04-4.87786E-05-2.98690E-05-9.32026E-06 2.21152E-18-2.24100E-18
 -1       639 1.08702E-04-4.06459E-05-2.91533E-05-1.30143E-05 2.34660E-18-2.36117E-18
 -1       640 1.02456E-04-3.42633E-05-2.92221E-05-1.36984E-05 2.14376E-18-2.39059E-18
 -1       641 9.88922E-05-3.01531E-05-2.94585E-05-1.29128E-05 9.29396E-19-1.83614E-18
 -1       642 9.70676E-05-2.78920E-05-2.96456E-05-1.15302E-05 6.91584E-19-4.15411E-19
 -1       643 9.62151E-05-2.68473E-05-2.97277E-05-9.95457E-06 2.32974E-19-1.54503E-19
 -1       644 9.58505E-05-2.65143E-05-2.97140E-05-8.38188E-06 6.91067E-19 3.95934E-19
 -1       645 9.57037E-05-2.65560E-05-2.96333E-05-6.91261E-06 5.27204E-19 9.03206E-19
 -1       646 9.56394E-05-2.67693E-05-2.95145E-05-5.59721E-06-1.04612E-19 7.92253E-19
 -1       647 9.55980E-05-2.70416E-05-2.93803E-05-4.45621E-06 2.89255E-19 1.38593E-18
 -1       648 9.55576E-05-2.73150E-05-2.92460E-05-3.49125E-06 4.45688E-19 1.56565E-18
 -1       649 9.55138E-05-2.75631E-05-2.91211E-05-2.69232E-06-1.77129E-19 1.09565E-18
 -1       650 9.54681E-05-2.77765E-05-2.90102E-05-2.04301E-06-1.24241E-18 1.40644E-18
 -1       651 9.54238E-05-2.79540E-05-2.89152E-05-1.52409E-06-1.70497E-18 6.36480E-19
 -1       652 9.53834E-05-2.80984E-05-2.88361E-05-1.11586E-06-9.42109E-19-3.68052E-19
 -1       653 9.53484E-05-2.82139E-05-2.87717E-05-7.99588E-07 5.52297E-19 1.03941E-19
 -1       654 9.53193E-05-2.83051E-05-2.87202E-05-5.58298E-07 5.81425E-20 1.28964E-18
 -1       655 9.52960E-05-2.83760E-05-2.86799E-05-3.77116E-07-1.09566E-18 2.01745E-18
 -1       656 9.52779E-05-2.84305E-05-2.86488E-05-2.43360E-07-7.88117E-19 4.10310E-18
 -1       657 9.52643E-05-2.84718E-05-2.86253E-05-1.46456E-07 2.55252E-18 1.81209E-18
 -1       658 9.52545E-05-2.85028E-05-2.86078E-05-7.77699E-08 8.75555E-19 8.30104E-19
 -1       659 9.52475E-05-2.85258E-05-2.85950E-05-3.03931E-08 9.18554E-19-2.12888E-19
 -1       660 9.52430E-05-2.85428E-05-2.85858E-05 1.08242E-09 1.26553E-18-1.17654E-18
 -1       661 9.52402E-05-2.85554E-05-2.85792E-05 2.07468E-08 5.33373E-19-1.45348E-18
 -1       662 9.52389E-05-2.85651E-05-2.85745E-05 3.15995E-08-6.77077E-19-1.23516E-18
 -1       663 9.52393E-05-2.85722E-05-2.85716E-05 3.53744E-08-9.83314E-19-4.76720E-19
 -1       664 1.33099E-04-2.98167E-05-4.47483E-05 1.75613E-05-4.71707E-18-4.64958E-18
 -1       665 9.89636E-05-2.88823E-05-3.00347E-05-5.49370E-06 8.92313E-19-5.64981E-19
 -1       666 1.04470E-04-3.46618E-05-2.99212E-05-4.57242E-06 1.12226E-19-1.47263E-20
 -1       667 1.07220E-04-3.69583E-05-3.01178E-05-2.01681E-06 4.43410E-19 7.47054E-20
 -1       668 1.09840E-04-3.85674E-05-3.05528E-05 1.78959E-06 4.41883E-19 3.17883E-19
 -1       669 1.11413E-04-3.83356E-05-3.13256E-05 6.31684E-06 7.15607E-19 1.89779E-19
 -1       670 1.10928E-04-3.51830E-05-3.24687E-05 1.00791E-05 7.82364E-19 8.85375E-19
 -1       671 1.08167E-04-2.92874E-05-3.38173E-05 1.07635E-05 7.49731E-19 4.82264E-19
 -1       672 1.04746E-04-2.32521E-05-3.49546E-05 6.70202E-06 8.39954E-19-2.14466E-19
 -1       673 1.03332E-04-2.08792E-05-3.53693E-05-1.04349E-06 1.71349E-18-8.67364E-19
 -1       674 1.05225E-04-2.39671E-05-3.48579E-05-8.44731E-06 2.06909E-18-1.22431E-18
 -1       675 1.08786E-04-3.02337E-05-3.36862E-05-1.18053E-05 1.15421E-18-1.66409E-18
 -1       676 1.11281E-04-3.57717E-05-3.23729E-05-1.05839E-05 2.60613E-19-2.35834E-18
 -1       677 1.11440E-04-3.84287E-05-3.12979E-05-6.64608E-06 1.99535E-19-2.27598E-18
 -1       678 1.09680E-04-3.83210E-05-3.05861E-05-2.24196E-06-3.31862E-19-8.51895E-19
 -1       679 1.07027E-04-3.66042E-05-3.01848E-05 1.34727E-06-3.63225E-21-1.25702E-19
 -1       680 1.04319E-04-3.43777E-05-2.99782E-05 3.74186E-06 7.08831E-19 5.66170E-19
 -1       681 1.01993E-04-3.23158E-05-2.98639E-05 5.04037E-06-6.97466E-19 2.39366E-20
 -1       682 1.00172E-04-3.06943E-05-2.97773E-05 5.50740E-06-1.30333E-18-3.75187E-19
 -1       683 9.88174E-05-2.95501E-05-2.96863E-05 5.41359E-06-1.07871E-18-1.04698E-18
 -1       684 9.78347E-05-2.88120E-05-2.95810E-05 4.98115E-06-4.07751E-19-3.59944E-19
 -1       685 9.71277E-05-2.83790E-05-2.94633E-05 4.37413E-06 1.44377E-19 1.07717E-18
 -1       686 9.66178E-05-2.81569E-05-2.93398E-05 3.70534E-06-2.47799E-19 1.60268E-18
 -1       687 9.62470E-05-2.80708E-05-2.92178E-05 3.04715E-06-1.74463E-19 8.05820E-19
 -1       688 9.59748E-05-2.80665E-05-2.91030E-05 2.44199E-06 6.75498E-19 1.45426E-18
 -1       689 9.57734E-05-2.81068E-05-2.89995E-05 1.91118E-06-5.70328E-19 9.41418E-19
 -1       690 9.56236E-05-2.81680E-05-2.89091E-05 1.46195E-06-1.59713E-19-7.52090E-19
 -1       691 9.55121E-05-2.82352E-05-2.88326E-05 1.09269E-06 1.15030E-19 1.08416E-19
 -1       692 9.54293E-05-2.83001E-05-2.87694E-05 7.96676E-07 5.88483E-19 5.29208E-19
 -1       693 9.53683E-05-2.83584E-05-2.87184E-05 5.64695E-07 1.09350E-18-1.50563E-18
 -1       694 9.53240E-05-2.84081E-05-2.86781E-05 3.86750E-07 9.05536E-19-2.86462E-19
 -1       695 9.52922E-05-2.84491E-05-2.86469E-05 2.53115E-07-7.32910E-19 8.17407E-19
 -1       696 9.52699E-05-2.84820E-05-2.86233E-05 1.54932E-07-1.29853E-18 3.02075E-18
 -1       697 9.52548E-05-2.85077E-05-2.86058E-05 8.45040E-08-7.18617E-19 1.98260E-18
 -1       698 9.52449E-05-2.85275E-05-2.85932E-05 3.53952E-08 5.02922E-19 1.25705E-18
 -1       699 9.52390E-05-2.85425E-05-2.85842E-05 2.40214E-09 4.72897E-19-1.37565E-19
 -1       700 9.52358E-05-2.85540E-05-2.85779E-05-1.85297E-08-1.77875E-18-1.77715E-18
 -1       701 9.52347E-05-2.85630E-05-2.85736E-05-3.04382E-08-5.75440E-19-1.84146E-18
 -1       702 9.52352E-05-2.85707E-05-2.85705E-05-3.54948E-08 3.94752E-19-1.35482E-18
 -1       703 9.52382E-05-2.85770E-05-2.85691E-05-3.55819E-08-4.96437E-19-1.91067E-18
 -1       704 1.29752E-04-5.85627E-05-3.05536E-05 1.39449E-05-1.44811E-18-2.56622E-18
 -1       705 9.52553E-05-2.85791E-05-2.85755E-05-4.70988E-09 4.61428E-19 1.97791E-18
 -1       706 9.52528E-05-2.85797E-05-2.85742E-05-2.15068E-08-7.08772E-20-1.43683E-18
 -1       707 9.52554E-05-2.85793E-05-2.85755E-05 4.08668E-09-1.06630E-18-1.32700E-18
 -1       708 9.52546E-05-2.85794E-05-2.85751E-05-1.33475E-08-3.31769E-19 1.55904E-18
 -1       709 1.16263E-04-9.97639E-06-4.60318E-05 1.95561E-06 4.95880E-18-2.70687E-20
 -1       710 9.52550E-05-2.85798E-05-2.85751E-05 1.27293E-08-1.17421E-18-4.50473E-19
 -1       711 9.52535E-05-2.85803E-05-2.85742E-05 2.12182E-08-1.07448E-18-2.17350E-18
 -1       712 9.52502E-05-2.85801E-05-2.85729E-05 2.87239E-08-3.32420E-19-2.92048E-18
 -1       713 9.80994E-05-2.74822E-05-3.02623E-05-4.06516E-06 1.44898E-18-6.60951E-19
 -1       714 3.65216E-05-1.27882E-05-9.58058E-06-1.18886E-05-4.01533E-19-4.91189E-18
 -1       715 1.24894E-04-5.85187E-05-2.83609E-05 1.60570E-05 2.22177E-18 1.04978E-18
 -1       716 1.02091E-04-3.23984E-05-2.98706E-05-5.88298E-06 1.03471E-19-2.61855E-19
 -1       717 1.06512E-04-5.17548E-05-2.33658E-05-2.84518E-05 4.08643E-18-1.42585E-18
 -1       718 1.09402E-04-5.39671E-05-2.36322E-05 2.98764E-05-4.15055E-18-3.83524E-19
 -1       719 9.75121E-05-2.60002E-05-3.06435E-05-1.84646E-06 1.86156E-18-9.91716E-19
 -1       720 6.42595E-05-2.82903E-05-1.49812E-05 3.24675E-05 2.28035E-18-3.67755E-18
 -1       721 1.31716E-04-6.03098E-05-3.03751E-05-1.01624E-05 2.43769E-18-3.29308E-18
 -1       722 8.90275E-05-1.48302E-05-3.18037E-05 6.44055E-07 1.59206E-18-3.09284E-18
 -1       723 4.19452E-05-1.41480E-05-1.13496E-05 1.51151E-05 1.14146E-18-4.60664E-18
 -1       724 9.26714E-05-4.70969E-05-1.92416E-05-3.77874E-05-2.78160E-18-1.73819E-18
 -1       725 4.47054E-05-1.83158E-05-1.07886E-05 2.55844E-05-3.23802E-18 5.93145E-18
 -1       726 8.77875E-05-1.35845E-05-3.18059E-05-1.09065E-06-1.06325E-18-3.25876E-18
 -1       727 7.14793E-05-3.38608E-05-1.57247E-05 3.67305E-05-3.92303E-18 3.17066E-18
 -1       728 1.36538E-04-5.01501E-05-3.72792E-05-2.35640E-06 5.95034E-19-3.60222E-18
 -1       729 1.32898E-04-5.57962E-05-3.31312E-05-4.76168E-06-1.29687E-18 1.62314E-18
 -1       730 3.41228E-05-1.10925E-05-9.30465E-06 2.27190E-06-7.48004E-19 6.22765E-18
 -1       731 1.28898E-04-3.32873E-05-4.13642E-05-1.40040E-05 2.20638E-18-3.77271E-18
 -1       732 1.17106E-04-5.78377E-05-2.53178E-05-2.78186E-05-3.06094E-18-1.17198E-18
 -1       733 9.02005E-05-1.58309E-05-3.18780E-05-1.39877E-06-1.79884E-18-2.90404E-18
 -1       734 8.56219E-05-1.16857E-05-3.16907E-05-7.42592E-07 4.80475E-20-3.77290E-18
 -1       735 4.63121E-05-1.81286E-05-1.15619E-05-2.28245E-05 2.77934E-18 3.43456E-18
 -1       736 1.29824E-04-4.19686E-05-3.78904E-05 1.09423E-05 9.97289E-19 2.94557E-18
 -1       737 9.52457E-05-2.85797E-05-2.85711E-05-3.25321E-08 1.67678E-19-3.04905E-18
 -1       738 9.52458E-05-2.85757E-05-2.85729E-05 3.27786E-08 2.74445E-20-6.11090E-19
 -1       739 9.40490E-05-4.36856E-05-2.14068E-05 3.17003E-05-4.73007E-18-1.74840E-19
 -1       740 1.18583E-04-1.76103E-05-4.37199E-05 1.14669E-05 4.09424E-18 1.10138E-18
 -1       741 9.39124E-05-1.96643E-05-3.18254E-05-1.61777E-06-2.26041E-18-2.51028E-18
 -1       742 7.65113E-05-3.53408E-05-1.72964E-05-3.56913E-05-2.55416E-18-2.77717E-18
 -1       743 7.69193E-05-3.34977E-05-1.82700E-05-3.17698E-05 4.41790E-18 2.18578E-18
 -1       744 9.52501E-05-2.85802E-05-2.85728E-05-2.76607E-08 4.52081E-19 2.75199E-20
 -1       745 8.62281E-05-1.21975E-05-3.17315E-05-9.04862E-07-3.39814E-19-3.40576E-18
 -1       746 1.11965E-04-5.23982E-05-2.53753E-05 2.43196E-05 2.46198E-18-1.27611E-19
 -1       747 9.39689E-05-2.12781E-05-3.11539E-05-6.54183E-07 1.84789E-18-1.76360E-18
 -1       748 1.21458E-04-5.47754E-05-2.85829E-05-1.42915E-05-2.19014E-18 2.15732E-19
 -1       749 4.83668E-05-1.18433E-05-1.53347E-05-4.80281E-07 3.75087E-19-4.13770E-18
 -1       750 9.26493E-05-2.16409E-05-3.04313E-05 4.78534E-06-1.16585E-18-2.18738E-18
 -1       751 9.21164E-05-2.24751E-05-2.98454E-05 7.44103E-06-7.72710E-19-1.87577E-18
 -1       752 9.14378E-05-2.32156E-05-2.92377E-05 9.95037E-06-5.45542E-19-1.66987E-18
 -1       753 9.09258E-05-2.43335E-05-2.85389E-05 1.24883E-05-3.84787E-19-1.37958E-18
 -1       754 9.11077E-05-2.64790E-05-2.76940E-05 1.52601E-05 2.34119E-19-1.66143E-18
 -1       755 9.28482E-05-3.05141E-05-2.67049E-05 1.84808E-05 8.24373E-19-1.41786E-18
 -1       756 9.76688E-05-3.75613E-05-2.56907E-05 2.18330E-05 1.54732E-18-5.56941E-19
 -1       757 9.30687E-05-2.00809E-05-3.12768E-05 9.98097E-07-1.51572E-18-2.57949E-18
 -1       758 1.25814E-04-4.86601E-05-3.31166E-05 3.48104E-06-5.23109E-19 2.21311E-18
 -1       759 1.03341E-04-4.25146E-05-2.60150E-05-2.10065E-05 2.57478E-18-1.36422E-18
 -1       760 9.55627E-05-3.36237E-05-2.65245E-05-1.84351E-05 2.04047E-18-8.33621E-19
 -1       761 9.22583E-05-2.84080E-05-2.73577E-05-1.55057E-05 1.99387E-18-1.92313E-18
 -1       762 9.11906E-05-2.56997E-05-2.80662E-05-1.29329E-05 1.33844E-18-2.34499E-18
 -1       763 9.12458E-05-2.45723E-05-2.85740E-05-1.07749E-05 1.16424E-18-2.40088E-18
 -1       764 9.17766E-05-2.43548E-05-2.88948E-05-8.95329E-06 5.70111E-19-1.89512E-18
 -1       765 9.24430E-05-2.46140E-05-2.90693E-05-7.39046E-06 3.50726E-19-2.02096E-18
 -1       766 9.30822E-05-2.50880E-05-2.91401E-05-6.03948E-06 2.78172E-20-1.35254E-18
 -1       767 9.36289E-05-2.56273E-05-2.91433E-05-4.87511E-06 4.48631E-19-5.06050E-19
 -1       768 9.40673E-05-2.61526E-05-2.91061E-05-3.88177E-06 1.59294E-19-1.09060E-18
 -1       769 9.44048E-05-2.66262E-05-2.90478E-05-3.04609E-06-6.75782E-19-2.18726E-18
 -1       770 9.46572E-05-2.70342E-05-2.89812E-05-2.35392E-06 5.58259E-19-1.40044E-18
 -1       771 9.48420E-05-2.73751E-05-2.89143E-05-1.78970E-06-1.07158E-18 4.77461E-19
 -1       772 9.49750E-05-2.76537E-05-2.88519E-05-1.33705E-06-9.70469E-19 1.02055E-18
 -1       773 9.50690E-05-2.78775E-05-2.87963E-05-9.79608E-07-6.04889E-19 5.28732E-19
 -1       774 9.51344E-05-2.80546E-05-2.87485E-05-7.01767E-07 8.05317E-20-1.96435E-18
 -1       775 9.51789E-05-2.81926E-05-2.87084E-05-4.89236E-07-5.34778E-20-1.94929E-18
 -1       776 9.52085E-05-2.82988E-05-2.86756E-05-3.29347E-07 9.77654E-19-5.85381E-19
 -1       777 9.52274E-05-2.83793E-05-2.86492E-05-2.11182E-07 5.43916E-19 7.80036E-19
 -1       778 9.52388E-05-2.84394E-05-2.86283E-05-1.25559E-07 3.91939E-19-1.05165E-18
 -1       779 9.52451E-05-2.84836E-05-2.86120E-05-6.49355E-08 2.08871E-19-1.05491E-18
 -1       780 9.52479E-05-2.85158E-05-2.85995E-05-2.32641E-08-3.60640E-19-9.18997E-19
 -1       781 9.52485E-05-2.85390E-05-2.85898E-05 4.18557E-09 5.93454E-19-8.03130E-19
 -1       782 9.52481E-05-2.85560E-05-2.85823E-05 2.10531E-08 3.76628E-19-3.35947E-19
 -1       783 1.09908E-04-4.06107E-05-2.97028E-05-3.76260E-06 9.98969E-20-2.08229E-19
 -1       784 1.05588E-04-3.71510E-05-2.93309E-05-6.54028E-06 1.70970E-20-1.87766E-19
 -1       785 1.17101E-04-4.17908E-05-3.22937E-05 7.00320E-06 1.84155E-20 1.20593E-18
 -1       786 1.16201E-04-3.54363E-05-3.46853E-05 1.20683E-05 8.96862E-19 1.47295E-18
 -1       787 1.12118E-04-2.55039E-05-3.72104E-05 1.15005E-05 1.74134E-18 1.37152E-18
 -1       788 1.07754E-04-1.72352E-05-3.89450E-05 4.11160E-06 2.34723E-18-9.90056E-19
 -1       789 1.08045E-04-1.79097E-05-3.87808E-05-6.60822E-06 2.55502E-18-2.54595E-18
 -1       790 1.12302E-04-2.66411E-05-3.68181E-05-1.30997E-05 2.04700E-18-3.21983E-18
 -1       791 1.16503E-04-3.67615E-05-3.41906E-05-1.22215E-05 3.28753E-19-2.52452E-18
 -1       792 1.16603E-04-4.19774E-05-3.19929E-05-6.94431E-06-8.75124E-20-2.33729E-18
 -1       793 1.13376E-04-4.23814E-05-3.04262E-05-1.06041E-06-1.19728E-18-1.16506E-18
 -1       794 1.08940E-04-3.99046E-05-2.95844E-05 3.23289E-06-1.02362E-18 2.20174E-19
 -1       795 1.04667E-04-3.64900E-05-2.92199E-05 5.75521E-06-3.89718E-19 6.45976E-19
 -1       796 1.01268E-04-3.33416E-05-2.91123E-05 6.86505E-06-1.70908E-19 1.42670E-18
 -1       797 9.88389E-05-3.08997E-05-2.91172E-05 7.05083E-06-7.49219E-20 7.00885E-19
 -1       798 9.72330E-05-2.92148E-05-2.91508E-05 6.68715E-06-6.30581E-19-1.77473E-19
 -1       799 9.62368E-05-2.81667E-05-2.91728E-05 6.02999E-06-2.04257E-18-1.69584E-19
 -1       800 9.56562E-05-2.75934E-05-2.91696E-05 5.24299E-06-9.87047E-19 1.70126E-19
 -1       801 9.53424E-05-2.73454E-05-2.91414E-05 4.42897E-06-4.93998E-19 1.54984E-18
 -1       802 9.51905E-05-2.73041E-05-2.90940E-05 3.65051E-06 8.56460E-19 1.26583E-19
 -1       803 9.51314E-05-2.73829E-05-2.90349E-05 2.94316E-06-3.56209E-19-5.08270E-19
 -1       804 9.51217E-05-2.75226E-05-2.89709E-05 2.32421E-06 9.20370E-20 1.41177E-19
 -1       805 9.51354E-05-2.76851E-05-2.89071E-05 1.79868E-06 4.28352E-19 4.96680E-19
 -1       806 9.51577E-05-2.78473E-05-2.88472E-05 1.36372E-06-5.92205E-19 3.09450E-19
 -1       807 9.51808E-05-2.79961E-05-2.87934E-05 1.01178E-06 6.84773E-19 2.48774E-19
 -1       808 9.52010E-05-2.81256E-05-2.87465E-05 7.32862E-07 1.40258E-18 9.98818E-20
 -1       809 9.52171E-05-2.82340E-05-2.87070E-05 5.16151E-07-3.94147E-19 1.45752E-18
 -1       810 9.52289E-05-2.83219E-05-2.86744E-05 3.51020E-07-1.77440E-18 3.61975E-18
 -1       811 9.52369E-05-2.83914E-05-2.86481E-05 2.27672E-07-1.49953E-18 2.22782E-18
 -1       812 9.52419E-05-2.84450E-05-2.86272E-05 1.37470E-07-5.35127E-19 9.34650E-19
 -1       813 9.52445E-05-2.84854E-05-2.86110E-05 7.30634E-08-1.80194E-19 3.40497E-19
 -1       814 9.52455E-05-2.85155E-05-2.85986E-05 2.84099E-08 8.14564E-20-2.00161E-21
 -1       815 9.52454E-05-2.85375E-05-2.85891E-05-1.36381E-09 8.60112E-19 2.39744E-19
 -1       816 9.52448E-05-2.85538E-05-2.85819E-05-1.98557E-08-5.17075E-19-8.34178E-19
 -1       817 9.52442E-05-2.85661E-05-2.85763E-05-2.99462E-08-8.40100E-20-2.73748E-18
 -1       818 9.52450E-05-2.85729E-05-2.85738E-05-3.23099E-08 5.36435E-19-2.85581E-18
 -1       819 6.10790E-05-1.91080E-05-1.77597E-05 2.07747E-05 1.28750E-18-3.64094E-18
 -1       820 9.59277E-05-2.37847E-05-3.09177E-05-1.20273E-06 1.94607E-18-1.25161E-18
 -1       821 9.52550E-05-2.85610E-05-2.85831E-05-4.67619E-10-3.16064E-19-1.25048E-18
 -1       822 9.52530E-05-2.85676E-05-2.85795E-05 2.21366E-08-4.87087E-19-2.57694E-18
 -1       823 9.52551E-05-2.85621E-05-2.85827E-05 6.77293E-09-1.15091E-18 4.60295E-19
 -1       824 4.93185E-05-1.33909E-05-1.50637E-05 1.24960E-05-8.77920E-19 4.73409E-18
 -1       825 9.68169E-05-2.66783E-05-3.00592E-05-5.35043E-06 9.31441E-19-1.19326E-18
 -1       826 9.52548E-05-2.85645E-05-2.85815E-05 1.43758E-08-5.25841E-19-5.79205E-19
 -1       827 5.57594E-05-1.89109E-05-1.54576E-05-2.31172E-05-1.17323E-18-3.86565E-18
 -1       828 1.14301E-04-4.28670E-05-3.06245E-05 9.14444E-07 2.45543E-19 3.47199E-19
 -1       829 9.79071E-05-2.85930E-05-2.97065E-05-6.87235E-06 5.31230E-19-1.02421E-18
 -1       830 8.87225E-05-3.81455E-05-2.14444E-05 2.99779E-05 2.20042E-18-1.29792E-18
 -1       831 8.72569E-05-1.48605E-05-3.10278E-05-1.28898E-06 7.17593E-19-2.90389E-18
 -1       832 1.19883E-04-5.39533E-05-2.82515E-05 1.42142E-05-3.07761E-18-2.22712E-18
 -1       833 6.33807E-05-2.29992E-05-1.70233E-05 2.62238E-05-2.62915E-18 3.37684E-18
 -1       834 1.27072E-04-4.41895E-05-3.56585E-05-9.11372E-06 3.41593E-20-4.34131E-18
 -1       835 1.08782E-04-5.05463E-05-2.48574E-05-2.54730E-05-2.48149E-18-8.35535E-19
 -1       836 4.83550E-05-1.27103E-05-1.49464E-05-8.64651E-06 9.81807E-19 2.48332E-18
 -1       837 1.27310E-04-5.27001E-05-3.20452E-05 2.08735E-06-2.08402E-18-3.01250E-18
 -1       838 6.59655E-05-2.21567E-05-1.85379E-05-2.23493E-05 2.87966E-18 1.95866E-18
 -1       839 1.17343E-04-2.89221E-05-3.80924E-05 1.26949E-05 1.64931E-18 1.51504E-18
 -1       840 8.62812E-05-1.39721E-05-3.09904E-05-9.68902E-07 2.29702E-19-3.30131E-18
 -1       841 8.90359E-05-1.64808E-05-3.10959E-05-1.30013E-06 1.09691E-18-2.80744E-18
 -1       842 9.64374E-05-4.26606E-05-2.29020E-05-2.85667E-05-2.09687E-18-1.17460E-18
 -1       843 8.12069E-05-3.23630E-05-2.08031E-05 2.77434E-05-3.49635E-18 7.00093E-19
 -1       844 9.52477E-05-2.85669E-05-2.85775E-05 2.87756E-08-9.19141E-19-8.45549E-19
 -1       845 9.95804E-05-3.08748E-05-2.94459E-05-7.71356E-06 1.69223E-19-7.14038E-19
 -1       846 9.13736E-05-1.86760E-05-3.11566E-05-1.03545E-06 1.48455E-18-2.43561E-18
 -1       847 9.52521E-05-2.85670E-05-2.85793E-05-2.23031E-08 1.03297E-18-1.84875E-18
 -1       848 8.94676E-05-1.67653E-05-3.11603E-05 7.51657E-07-1.24232E-18-2.47725E-18
 -1       849 1.02092E-04-3.37377E-05-2.92960E-05-7.71090E-06-5.01437E-20-7.31279E-19
 -1       850 9.52541E-05-2.85643E-05-2.85814E-05-1.49903E-08 2.57629E-18 4.25862E-19
 -1       851 9.52548E-05-2.85620E-05-2.85826E-05-7.64774E-09 9.42824E-19 1.52658E-18
 -1       852 1.09148E-04-4.85571E-05-2.59184E-05 2.04317E-05-3.54068E-18-4.61547E-19
 -1       853 8.40293E-05-2.98016E-05-2.31626E-05-2.25153E-05 2.66573E-18 8.34191E-19
 -1       854 8.73961E-05-1.49135E-05-3.10681E-05 2.13837E-07-5.58110E-19-2.81801E-18
 -1       855 9.63436E-05-2.52895E-05-3.04510E-05-3.49333E-06 1.49581E-18-1.18171E-18
 -1       856 9.52530E-05-2.85531E-05-2.85856E-05 1.58889E-08-1.28362E-18-2.61577E-18
 -1       857 1.06257E-04-3.97874E-05-2.84754E-05-1.00814E-05-3.25507E-19-5.91026E-19
 -1       858 9.03224E-05-1.84085E-05-3.08209E-05 2.05815E-06-1.04134E-18-2.53258E-18
 -1       859 8.81454E-05-2.02922E-05-2.90795E-05 7.10817E-06-5.70276E-19-1.95216E-18
 -1       860 8.64112E-05-2.07359E-05-2.81473E-05 9.39836E-06-2.23853E-19-1.76756E-18
 -1       861 8.44032E-05-2.14513E-05-2.69807E-05 1.21456E-05-9.03122E-20-1.45695E-18
 -1       862 8.24955E-05-2.31186E-05-2.54433E-05 1.59420E-05 7.94679E-19-1.40060E-18
 -1       863 8.11021E-05-2.63171E-05-2.34206E-05 2.15251E-05 1.55682E-18-1.39519E-18
 -1       864 8.31069E-05-2.48936E-05-2.49397E-05-1.68698E-05 1.48016E-18 1.18632E-18
 -1       865 8.41190E-05-2.26792E-05-2.63318E-05-1.29706E-05 5.23962E-19 2.22755E-19
 -1       866 8.57308E-05-2.19846E-05-2.73217E-05-1.03019E-05 1.03545E-18 5.34826E-20
 -1       867 8.74378E-05-2.21199E-05-2.79944E-05-8.37515E-06 6.15570E-19-9.12163E-19
 -1       868 8.90185E-05-2.26818E-05-2.84305E-05-6.88503E-06-2.79172E-19-1.73923E-18
 -1       869 9.03861E-05-2.34290E-05-2.86962E-05-5.66466E-06-1.00368E-20-2.75851E-18
 -1       870 9.15208E-05-2.42204E-05-2.88432E-05-4.63112E-06 1.00724E-18-2.95661E-18
 -1       871 9.24352E-05-2.49771E-05-2.89108E-05-3.74564E-06 8.59526E-19-2.75854E-18
 -1       872 9.31561E-05-2.56593E-05-2.89273E-05-2.98919E-06-4.14871E-19-1.15263E-18
 -1       873 9.37147E-05-2.62511E-05-2.89130E-05-2.35000E-06 1.92210E-19-1.55815E-19
 -1       874 9.41413E-05-2.67507E-05-2.88817E-05-1.81786E-06-1.35704E-21-1.72707E-18
 -1       875 9.44626E-05-2.71634E-05-2.88426E-05-1.38207E-06-1.25933E-18-1.13495E-18
 -1       876 9.47016E-05-2.74983E-05-2.88014E-05-1.03117E-06-1.20616E-18-2.08869E-18
 -1       877 9.48768E-05-2.77658E-05-2.87619E-05-7.53371E-07-4.86555E-19-2.13677E-18
 -1       878 9.50032E-05-2.79763E-05-2.87258E-05-5.37153E-07-3.71389E-19-2.18120E-18
 -1       879 9.50928E-05-2.81395E-05-2.86943E-05-3.71738E-07 5.09086E-19-1.02877E-18
 -1       880 9.51547E-05-2.82643E-05-2.86673E-05-2.47429E-07 9.74521E-19-2.09321E-18
 -1       881 9.51962E-05-2.83581E-05-2.86449E-05-1.55777E-07-1.72483E-19-1.21132E-18
 -1       882 9.52229E-05-2.84276E-05-2.86265E-05-8.96266E-08 1.61534E-18 9.12298E-19
 -1       883 9.52389E-05-2.84783E-05-2.86117E-05-4.30844E-08 6.93550E-19 1.46941E-18
 -1       884 9.52475E-05-2.85147E-05-2.85998E-05-1.16241E-08-7.36684E-19 1.50005E-18
 -1       885 9.52511E-05-2.85358E-05-2.85923E-05 5.33235E-09-5.11892E-19-3.09422E-19
 -1       886 1.17825E-04-4.71990E-05-3.02945E-05 2.07079E-06-1.35142E-18-1.55908E-18
 -1       887 1.11043E-04-4.37977E-05-2.88015E-05 7.09514E-06-2.29014E-18-9.50345E-19
 -1       888 1.04715E-04-3.87495E-05-2.82682E-05 9.28682E-06-8.18822E-19-4.31513E-19
 -1       889 1.00080E-04-3.43104E-05-2.81864E-05 9.65275E-06-7.57315E-19-1.18027E-19
 -1       890 9.70124E-05-3.09574E-05-2.83093E-05 9.09089E-06-3.12653E-19 2.72961E-19
 -1       891 9.51929E-05-2.87124E-05-2.84916E-05 8.12188E-06-7.69648E-19 4.90687E-19
 -1       892 9.42306E-05-2.73552E-05-2.86608E-05 7.03157E-06-1.17387E-18 1.09766E-18
 -1       893 9.38204E-05-2.66461E-05-2.87889E-05 5.95196E-06-1.62484E-18 4.07509E-19
 -1       894 9.37419E-05-2.63774E-05-2.88705E-05 4.94565E-06-1.09153E-18 1.19635E-18
 -1       895 9.38454E-05-2.63870E-05-2.89107E-05 4.04083E-06 9.82887E-19 6.66376E-19
 -1       896 9.40347E-05-2.65573E-05-2.89188E-05 3.24823E-06 5.51214E-19 1.04808E-18
 -1       897 9.42511E-05-2.68075E-05-2.89044E-05 2.56896E-06-4.39328E-19 8.41689E-19
 -1       898 9.44614E-05-2.70845E-05-2.88758E-05 1.99822E-06-9.71508E-20 3.80986E-19
 -1       899 9.46486E-05-2.73559E-05-2.88397E-05 1.52751E-06 7.93979E-20 5.94596E-19
 -1       900 9.48059E-05-2.76035E-05-2.88010E-05 1.14617E-06-7.29955E-19 6.44369E-19
 -1       901 9.49325E-05-2.78187E-05-2.87630E-05 8.42557E-07 1.32464E-18 3.20112E-19
 -1       902 9.50307E-05-2.79990E-05-2.87278E-05 6.04934E-07-8.70287E-19 1.78308E-18
 -1       903 9.51044E-05-2.81458E-05-2.86965E-05 4.22143E-07-2.14331E-18 2.33008E-18
 -1       904 9.51578E-05-2.82622E-05-2.86695E-05 2.84008E-07-8.19470E-19 7.22184E-19
 -1       905 9.51951E-05-2.83524E-05-2.86469E-05 1.81572E-07-4.57385E-19 8.57916E-19
 -1       906 9.52200E-05-2.84209E-05-2.86282E-05 1.07173E-07 4.40331E-19 1.64744E-18
 -1       907 9.52355E-05-2.84717E-05-2.86130E-05 5.44039E-08-9.07032E-19 1.72351E-18
 -1       908 9.52443E-05-2.85089E-05-2.86009E-05 1.82830E-08 6.97967E-19 1.99188E-18
 -1       909 9.52487E-05-2.85361E-05-2.85911E-05-5.73176E-09 1.16019E-18 1.13223E-18
 -1       910 9.52498E-05-2.85554E-05-2.85833E-05-2.02092E-08 1.31132E-19-7.73722E-19
 -1       911 7.65916E-05-2.87027E-05-2.03517E-05-2.68588E-05-2.00420E-18-2.52420E-18
 -1       912 9.52522E-05-2.85395E-05-2.85912E-05 1.29715E-09-6.54410E-19-2.79091E-18
 -1       913 1.19308E-04-4.92107E-05-3.00462E-05-4.97472E-06-1.05485E-18 1.14899E-18
 -1       914 5.87510E-05-1.50553E-05-1.85784E-05-1.17702E-05-7.12757E-19-3.01990E-18
 -1       915 6.15206E-05-1.43463E-05-2.00999E-05 7.91381E-06 1.97503E-19-3.80779E-18
 -1       916 8.63098E-05-1.39672E-05-3.10042E-05-4.21975E-07-2.02398E-19-3.35114E-18
 -1       917 6.35144E-05-1.77701E-05-1.94759E-05 1.58760E-05-1.23827E-18 2.14367E-18
 -1       918 6.30918E-05-1.56669E-05-2.02043E-05-1.02677E-05 1.04605E-18 1.06571E-18
 -1       919 9.50215E-05-2.58668E-05-2.96390E-05-6.69582E-06 6.79281E-19-1.60926E-18
 -1       920 1.22081E-04-4.68747E-05-3.22762E-05-4.12052E-06-8.45966E-19-2.32253E-18
 -1       921 5.77693E-05-1.31438E-05-1.89831E-05 2.67911E-06 1.16874E-18 2.59975E-18
 -1       922 8.94215E-05-1.97092E-05-2.98783E-05 4.86677E-06-7.01901E-19-1.99989E-18
 -1       923 1.14046E-04-4.90001E-05-2.78861E-05-1.40598E-05-1.71287E-18-1.25913E-19
 -1       924 9.52492E-05-2.85706E-05-2.85766E-05-2.77214E-08 1.55381E-18-9.79042E-19
 -1       925 9.52520E-05-2.85396E-05-2.85911E-05-2.94189E-09 2.11161E-19-1.25352E-18
 -1       926 9.70789E-05-3.99376E-05-2.44379E-05 2.24948E-05-2.31233E-18 7.01376E-19
 -1       927 9.52535E-05-2.85467E-05-2.85886E-05 9.30149E-09-1.90591E-18-3.94203E-19
 -1       928 8.84999E-05-1.76426E-05-3.03676E-05-2.78520E-06 6.84730E-19-2.60069E-18
 -1       929 1.01434E-04-3.50095E-05-2.84676E-05-1.05460E-05-3.56427E-19-1.18005E-18
 -1       930 9.34770E-05-2.21368E-05-3.05736E-05-3.06108E-06 1.39410E-18-1.74885E-18
 -1       931 9.62275E-05-2.82092E-05-2.91510E-05-8.48158E-06 7.98693E-20-1.56219E-18
 -1       932 8.67875E-05-1.61416E-05-3.02768E-05-2.00212E-06 4.57127E-19-2.83605E-18
 -1       933 7.52610E-05-2.45139E-05-2.16813E-05 2.04918E-05-1.32874E-18 1.38866E-18
 -1       934 1.15806E-04-4.89795E-05-2.85993E-05 9.62603E-06-2.37678E-18-1.40680E-18
 -1       935 9.49668E-05-2.37585E-05-3.05175E-05-3.29647E-06 1.51110E-18-1.40736E-18
 -1       936 7.33831E-05-2.04339E-05-2.26544E-05-1.54778E-05 1.68976E-18 8.19562E-19
 -1       937 9.52530E-05-2.85424E-05-2.85903E-05 4.96616E-09-8.09955E-19 5.48622E-19
 -1       938 1.11993E-04-4.47774E-05-2.88055E-05-8.70416E-06-6.34692E-19 7.65018E-20
 -1       939 1.06588E-04-4.49268E-05-2.63898E-05-1.88363E-05-1.58972E-18-8.32926E-19
 -1       940 8.79603E-05-1.63182E-05-3.07053E-05 1.13381E-06-7.52266E-19-2.27610E-18
 -1       941 9.49938E-05-2.47996E-05-3.00835E-05-5.07475E-06 1.24436E-18-1.49438E-18
 -1       942 9.52526E-05-2.85485E-05-2.85875E-05-1.29674E-08 3.12249E-18 1.64571E-18
 -1       943 8.09397E-05-1.82633E-05-2.68665E-05 7.07061E-06-1.06081E-19-1.97974E-18
 -1       944 7.67492E-05-1.80412E-05-2.51414E-05 9.25150E-06 3.78670E-19-1.92217E-18
 -1       945 7.03379E-05-1.64970E-05-2.30103E-05 9.17350E-06 6.09437E-19-2.65071E-18
 -1       946 9.82169E-05-3.11565E-05-2.87405E-05-9.83820E-06 3.46303E-20-1.32348E-18
 -1       947 7.73966E-05-1.95526E-05-2.47882E-05-1.11717E-05 2.49447E-19 4.06581E-19
 -1       948 8.08828E-05-1.96632E-05-2.62397E-05-8.56153E-06 5.31375E-19 1.90799E-19
 -1       949 8.37989E-05-2.02879E-05-2.72208E-05-6.87347E-06 7.27256E-19-5.34228E-19
 -1       950 8.62097E-05-2.11668E-05-2.78763E-05-5.66873E-06-7.28560E-19-1.17708E-18
 -1       951 8.81846E-05-2.21450E-05-2.83031E-05-4.72254E-06-6.38385E-19-1.16605E-18
 -1       952 8.97870E-05-2.31255E-05-2.85695E-05-3.92634E-06-1.15210E-19-1.99927E-18
 -1       953 9.10732E-05-2.40483E-05-2.87252E-05-3.23412E-06 1.91649E-18-2.95870E-18
 -1       954 9.20942E-05-2.48804E-05-2.88061E-05-2.62818E-06 5.88517E-19-1.44329E-18
 -1       955 9.28957E-05-2.56073E-05-2.88380E-05-2.10227E-06-5.77797E-19-1.53101E-18
 -1       956 9.35178E-05-2.62266E-05-2.88392E-05-1.65304E-06-5.93277E-21-1.53668E-18
 -1       957 9.39951E-05-2.67436E-05-2.88222E-05-1.27648E-06-1.22845E-18-3.47878E-18
 -1       958 9.43570E-05-2.71673E-05-2.87956E-05-9.66931E-07-9.24661E-19-3.31522E-18
 -1       959 9.46276E-05-2.75091E-05-2.87652E-05-7.17343E-07-1.04900E-18-1.78902E-18
 -1       960 9.48271E-05-2.77805E-05-2.87343E-05-5.19877E-07-4.88940E-19-1.21290E-18
 -1       961 9.49716E-05-2.79927E-05-2.87053E-05-3.66537E-07 1.41727E-18-1.29014E-18
 -1       962 9.50741E-05-2.81562E-05-2.86792E-05-2.49674E-07 5.21305E-19-7.46047E-19
 -1       963 9.51450E-05-2.82801E-05-2.86564E-05-1.62330E-07 6.23586E-19-1.35490E-18
 -1       964 9.51923E-05-2.83726E-05-2.86370E-05-9.84022E-08 1.77935E-18-1.63536E-19
 -1       965 9.52224E-05-2.84404E-05-2.86208E-05-5.26879E-08 1.39181E-18 3.34637E-19
 -1       966 9.52401E-05-2.84893E-05-2.86075E-05-2.13081E-08-4.85122E-19 7.58593E-19
 -1       967 1.03277E-04-4.05770E-05-2.68399E-05 1.49643E-05-1.76089E-18-8.30221E-19
 -1       968 6.58303E-05-1.47521E-05-2.18391E-05-3.46540E-06-6.02759E-19-2.86370E-18
 -1       969 9.40316E-05-3.03896E-05-2.72756E-05 1.16660E-05-1.49387E-18 2.58760E-19
 -1       970 9.23223E-05-2.77449E-05-2.76764E-05 9.69789E-06-9.72166E-19 1.23815E-18
 -1       971 9.16288E-05-2.62101E-05-2.80369E-05 7.94523E-06-2.46699E-19 1.25203E-19
 -1       972 9.15510E-05-2.54602E-05-2.83248E-05 6.45294E-06-1.39142E-18-8.34827E-19
 -1       973 9.18144E-05-2.52322E-05-2.85353E-05 5.20407E-06-1.46414E-18-6.75859E-19
 -1       974 9.22433E-05-2.53306E-05-2.86769E-05 4.16539E-06-6.19983E-19-7.44230E-19
 -1       975 9.27288E-05-2.56161E-05-2.87627E-05 3.30460E-06-2.34308E-19 6.67663E-19
 -1       976 9.32067E-05-2.59925E-05-2.88062E-05 2.59461E-06 1.47010E-19 1.36554E-18
 -1       977 9.36417E-05-2.63961E-05-2.88196E-05 2.01307E-06 7.11431E-19 1.76881E-18
 -1       978 9.40175E-05-2.67874E-05-2.88130E-05 1.54107E-06-5.76705E-19 6.94529E-19
 -1       979 9.43297E-05-2.71437E-05-2.87941E-05 1.16210E-06-1.06450E-19 9.36927E-19
 -1       980 9.45808E-05-2.74540E-05-2.87687E-05 8.61490E-07 3.40905E-19 2.25794E-19
 -1       981 9.47771E-05-2.77153E-05-2.87408E-05 6.26152E-07-1.19461E-18 7.97930E-19
 -1       982 9.49264E-05-2.79292E-05-2.87131E-05 4.44487E-07-1.50059E-18 7.12509E-19
 -1       983 9.50370E-05-2.81001E-05-2.86873E-05 3.06347E-07-4.94777E-19-1.07799E-19
 -1       984 9.51164E-05-2.82335E-05-2.86641E-05 2.02995E-07-6.21325E-19-3.32332E-19
 -1       985 9.51716E-05-2.83356E-05-2.86440E-05 1.27066E-07-8.66966E-19-5.29266E-19
 -1       986 9.52082E-05-2.84120E-05-2.86269E-05 7.24593E-08-8.09182E-20 1.53283E-18
 -1       987 9.52312E-05-2.84685E-05-2.86126E-05 3.38580E-08-1.11083E-18 1.50734E-18
 -1       988 9.52440E-05-2.85087E-05-2.86008E-05 7.53292E-09 9.82782E-19 2.04325E-18
 -1       989 7.22678E-05-2.11359E-05-2.18943E-05-1.72833E-05-9.71585E-19-1.84739E-18
 -1       990 8.60655E-05-1.54863E-05-3.02483E-05-7.97617E-07 2.47381E-20-2.94374E-18
 -1       991 8.65323E-05-1.58351E-05-3.02954E-05 6.11458E-07-4.59066E-19-2.86200E-18
 -1       992 9.08587E-05-1.97309E-05-3.04831E-05-3.10225E-06 9.63815E-19-2.42919E-18
 -1       993 8.40538E-05-1.83555E-05-2.81610E-05 5.42107E-06-2.15283E-19-1.79714E-18
 -1       994 9.74633E-05-3.46106E-05-2.69480E-05 1.36026E-05-1.50295E-18-1.37206E-19
 -1       995 8.62764E-05-1.81479E-05-2.91990E-05 3.87154E-06-6.04561E-19-2.00904E-18
 -1       996 9.52524E-05-2.85428E-05-2.85898E-05-7.39964E-09 2.70029E-18-2.25055E-19
 -1       997 9.25312E-05-3.60603E-05-2.41689E-05-2.30177E-05-1.42353E-18-1.41493E-18
 -1       998 9.52446E-05-2.85105E-05-2.86004E-05-6.37380E-10 2.18281E-19-3.02534E-18
 -1       999 9.91208E-05-3.55933E-05-2.72154E-05-1.46284E-05-6.15097E-19-1.45047E-18
 -1      1000 9.52496E-05-2.85248E-05-2.85964E-05 6.16488E-10-3.96412E-18-1.24298E-18
 -1      1001 9.52403E-05-2.84961E-05-2.86047E-05 6.88733E-09-2.75491E-19-1.50665E-18
 -1      1002 9.52453E-05-2.85079E-05-2.86018E-05-8.35785E-09-1.60482E-18 1.06506E-18
 -1      1003 9.25807E-05-2.48569E-05-2.90236E-05-7.98830E-06 4.28082E-19-1.67253E-18
 -1      1004 8.98562E-05-2.04368E-05-2.97491E-05-4.79755E-06 6.85469E-19-2.13023E-18
 -1      1005 1.06856E-04-4.23748E-05-2.76132E-05-1.36925E-05-9.04445E-19-1.02234E-18
 -1      1006 8.73355E-05-1.83397E-05-2.95695E-05-3.78832E-06 4.43813E-19-2.55641E-18
 -1      1007 8.86297E-05-3.21707E-05-2.41856E-05 2.03014E-05-1.41438E-18 2.46194E-19
 -1      1008 6.66481E-05-1.49343E-05-2.21172E-05-2.19087E-06 3.43950E-20 2.39631E-18
 -1      1009 7.15388E-05-1.68756E-05-2.34128E-05-7.72917E-06 7.79036E-19-1.36568E-19
 -1      1010 6.72002E-05-1.60783E-05-2.18622E-05 7.67260E-06-1.27260E-19 1.24338E-18
 -1      1011 9.28349E-05-2.28617E-05-2.99890E-05-5.03244E-06 1.11538E-18-1.94745E-18
 -1      1012 9.52457E-05-2.85129E-05-2.85998E-05-1.29304E-09 4.52795E-20-1.85303E-18
 -1      1013 7.37916E-05-2.00779E-05-2.29977E-05 1.31093E-05-6.76417E-19 6.96640E-19
 -1      1014 8.48940E-05-2.77737E-05-2.44658E-05-1.86060E-05-1.14786E-18-1.84332E-18
 -1      1015 7.15624E-05-1.55890E-05-2.39843E-05 5.05121E-07-3.80470E-19-2.39137E-18
 -1      1016 9.52475E-05-2.85178E-05-2.85985E-05-9.43749E-10-2.23004E-18-2.54194E-18
 -1      1017 9.55381E-05-3.08362E-05-2.77289E-05-1.25657E-05-3.55173E-19-1.66853E-18
 -1      1018 7.68444E-05-1.78164E-05-2.52978E-05-5.83953E-06 1.08685E-18-6.59962E-20
 -1      1019 8.08521E-05-1.88996E-05-2.65524E-05-4.74711E-06 7.48899E-19-7.45613E-19
 -1      1020 8.39611E-05-2.00380E-05-2.73960E-05-4.01861E-06-6.18836E-19-5.52510E-19
 -1      1021 8.64196E-05-2.11821E-05-2.79592E-05-3.45679E-06-5.43774E-19-1.05278E-18
 -1      1022 8.83831E-05-2.22883E-05-2.83266E-05-2.96698E-06-3.83980E-19-2.10135E-19
 -1      1023 8.99536E-05-2.33204E-05-2.85573E-05-2.51688E-06 1.23129E-18 6.34344E-22
 -1      1024 9.12056E-05-2.42540E-05-2.86937E-05-2.09935E-06 9.53324E-19-1.24604E-18
 -1      1025 9.21970E-05-2.50765E-05-2.87661E-05-1.71794E-06 5.78597E-20-2.25972E-18
 -1      1026 9.29754E-05-2.57847E-05-2.87962E-05-1.37802E-06-1.07549E-19-7.21099E-19
 -1      1027 9.35802E-05-2.63821E-05-2.87993E-05-1.08308E-06-1.93657E-18-2.21505E-18
 -1      1028 9.40448E-05-2.68769E-05-2.87863E-05-8.33723E-07-8.07976E-19-1.33003E-18
 -1      1029 9.43970E-05-2.72798E-05-2.87646E-05-6.27964E-07-1.63779E-19-6.66670E-19
 -1      1030 9.46602E-05-2.76026E-05-2.87391E-05-4.61995E-07-2.88062E-19 1.85691E-19
 -1      1031 9.48537E-05-2.78571E-05-2.87129E-05-3.30962E-07 8.98124E-19 2.52268E-19
 -1      1032 9.49931E-05-2.80546E-05-2.86880E-05-2.29630E-07 8.27919E-19-1.11581E-18
 -1      1033 9.50913E-05-2.82056E-05-2.86653E-05-1.52862E-07 8.50941E-19-8.95601E-19
 -1      1034 9.51583E-05-2.83190E-05-2.86455E-05-9.59532E-08 2.37877E-18-1.60353E-18
 -1      1035 9.52023E-05-2.84027E-05-2.86284E-05-5.47274E-08 1.38062E-18-1.77733E-18
 -1      1036 9.52294E-05-2.84636E-05-2.86139E-05-2.58550E-08 1.15172E-18-1.13861E-18
 -1      1037 8.36586E-05-1.72265E-05-2.84718E-05 1.64514E-06-2.11650E-19-2.13903E-18
 -1      1038 9.52414E-05-2.85006E-05-2.86031E-05 1.91745E-09 1.03139E-19-5.29371E-19
 -1      1039 9.68414E-05-3.62415E-05-2.59466E-05-1.84782E-05-1.11656E-18-1.30961E-18
 -1      1040 8.90396E-05-2.86215E-05-2.59054E-05 1.44870E-05-1.10237E-18 1.75045E-19
 -1      1041 8.81269E-05-2.59380E-05-2.66572E-05 1.11268E-05-1.83498E-18 3.49405E-20
 -1      1042 8.95563E-05-2.38815E-05-2.81470E-05 5.09523E-06-1.59039E-18-4.81262E-19
 -1      1043 9.04218E-05-2.41441E-05-2.84051E-05 3.94491E-06-6.12017E-19-4.24260E-19
 -1      1044 9.12687E-05-2.45873E-05-2.85781E-05 3.05091E-06-7.21671E-19-1.09119E-18
 -1      1045 9.20468E-05-2.51135E-05-2.86860E-05 2.35084E-06-7.90605E-19-2.95476E-19
 -1      1046 9.27306E-05-2.56569E-05-2.87461E-05 1.80039E-06-3.86002E-19-1.34366E-19
 -1      1047 9.33114E-05-2.61759E-05-2.87725E-05 1.36730E-06 5.23670E-19 9.09582E-19
 -1      1048 9.37906E-05-2.66461E-05-2.87764E-05 1.02740E-06 1.07291E-19 1.08280E-18
 -1      1049 9.41760E-05-2.70559E-05-2.87659E-05 7.62039E-07 2.49770E-20 7.39371E-19
 -1      1050 9.44789E-05-2.74020E-05-2.87473E-05 5.56403E-07-9.40734E-19 2.18755E-18
 -1      1051 9.47114E-05-2.76868E-05-2.87249E-05 3.98539E-07-7.37968E-19 1.64451E-18
 -1      1052 9.48857E-05-2.79158E-05-2.87015E-05 2.78688E-07-1.09474E-19 1.62003E-18
 -1      1053 9.50132E-05-2.80960E-05-2.86789E-05 1.88852E-07 4.39605E-19 8.35133E-19
 -1      1054 9.51038E-05-2.82348E-05-2.86582E-05 1.22472E-07 8.16737E-20 1.92828E-21
 -1      1055 9.51661E-05-2.83399E-05-2.86398E-05 7.43020E-08-7.44008E-19-1.37998E-18
 -1      1056 9.52071E-05-2.84180E-05-2.86239E-05 3.95890E-08-7.01606E-19-2.48521E-18
 -1      1057 9.36041E-05-2.74254E-05-2.83600E-05-1.02682E-05 1.01738E-21-1.68082E-18
 -1      1058 7.40975E-05-1.82529E-05-2.39067E-05-9.73557E-06-6.27955E-19-2.20082E-18
 -1      1059 8.87626E-05-2.39411E-05-2.77818E-05 6.59006E-06-2.31430E-19 6.80063E-19
 -1      1060 8.56627E-05-1.69293E-05-2.94568E-05-2.10726E-06 1.68804E-19-2.51089E-18
 -1      1061 7.74121E-05-1.65765E-05-2.60643E-05 7.42812E-07 1.43765E-19-2.02993E-18
 -1      1062 8.52708E-05-1.65394E-05-2.94568E-05 7.14172E-08-1.80619E-19-2.68083E-18
 -1      1063 8.10274E-05-1.70885E-05-2.73981E-05 1.39605E-06-8.07475E-20-2.13673E-18
 -1      1064 8.81965E-05-2.45268E-05-2.72891E-05 8.54624E-06-6.87570E-19 4.23411E-19
 -1      1065 7.23725E-05-1.64734E-05-2.39428E-05 2.42542E-06-5.15360E-19 2.09752E-18
 -1      1066 8.84487E-05-2.13414E-05-2.87589E-05-6.74408E-06 5.05848E-19-1.96193E-18
 -1      1067 9.04611E-05-2.91640E-05-2.62696E-05-1.54707E-05-5.13634E-19-1.80298E-18
 -1      1068 9.52382E-05-2.84876E-05-2.86074E-05-1.29888E-08-1.15440E-18-3.27988E-18
 -1      1069 9.52284E-05-2.84675E-05-2.86118E-05 4.92017E-10 1.42639E-20-1.33289E-18
 -1      1070 7.39618E-05-1.66897E-05-2.45437E-05-2.15200E-06 6.07259E-19 1.09591E-19
 -1      1071 8.80253E-05-2.31341E-05-2.78150E-05-9.36692E-06 8.43327E-20-1.85774E-18
 -1      1072 7.55291E-05-1.84692E-05-2.44582E-05 7.18676E-06-1.41414E-18 5.48510E-20
 -1      1073 9.52299E-05-2.84698E-05-2.86114E-05-6.62337E-09 5.54481E-19-3.43365E-18
 -1      1074 8.87103E-05-2.56529E-05-2.70273E-05-1.22596E-05-1.76714E-19-1.84523E-18
 -1      1075 8.38577E-05-2.70945E-05-2.43223E-05 1.70861E-05-1.36712E-18 9.87286E-20
 -1      1076 7.87261E-05-1.80310E-05-2.60121E-05-2.02481E-06 4.53857E-19-9.19401E-19
 -1      1077 8.23166E-05-1.93142E-05-2.69999E-05-1.97839E-06-1.08588E-21-1.26279E-18
 -1      1078 8.51030E-05-2.05374E-05-2.76713E-05-1.90928E-06-4.92739E-19 7.70282E-19
 -1      1079 8.73164E-05-2.17046E-05-2.81196E-05-1.78806E-06-3.26785E-19 2.98374E-19
 -1      1080 8.90843E-05-2.27918E-05-2.84113E-05-1.62214E-06 8.14777E-19 7.59586E-19
 -1      1081 9.05001E-05-2.37823E-05-2.85936E-05-1.42437E-06 2.23404E-19-7.58064E-19
 -1      1082 9.16305E-05-2.46641E-05-2.87000E-05-1.21301E-06-1.61376E-19-1.49887E-18
 -1      1083 9.25267E-05-2.54321E-05-2.87549E-05-1.00421E-06 9.06731E-20-1.85103E-18
 -1      1084 9.32304E-05-2.60872E-05-2.87758E-05-8.09727E-07-1.94376E-18-1.89904E-18
 -1      1085 9.37767E-05-2.66354E-05-2.87750E-05-6.36736E-07-5.81881E-19-1.80135E-18
 -1      1086 9.41954E-05-2.70858E-05-2.87613E-05-4.88509E-07 4.34371E-19-1.18973E-18
 -1      1087 9.45117E-05-2.74498E-05-2.87409E-05-3.65442E-07 3.14954E-19-1.01200E-18
 -1      1088 9.47467E-05-2.77390E-05-2.87176E-05-2.66041E-07 5.19712E-19 2.15824E-19
 -1      1089 9.49180E-05-2.79651E-05-2.86942E-05-1.87728E-07-1.23974E-19-8.36957E-19
 -1      1090 9.50402E-05-2.81390E-05-2.86720E-05-1.27445E-07 5.66013E-19-1.56187E-18
 -1      1091 9.51250E-05-2.82705E-05-2.86520E-05-8.21120E-08 1.16757E-18-2.26824E-18
 -1      1092 9.51817E-05-2.83682E-05-2.86343E-05-4.89365E-08 5.48599E-19-3.14835E-18
 -1      1093 9.52179E-05-2.84399E-05-2.86192E-05-2.50717E-08 1.41296E-18-5.01928E-18
 -1      1094 8.52864E-05-1.88697E-05-2.84632E-05-4.87749E-06 1.97888E-19-2.29844E-18
 -1      1095 9.52191E-05-2.84466E-05-2.86169E-05 1.21507E-08-1.23228E-18-5.24232E-19
 -1      1096 9.08225E-05-2.42027E-05-2.85511E-05 1.80090E-06-1.61150E-18-2.21498E-19
 -1      1097 8.36137E-05-1.71449E-05-2.84852E-05-1.06218E-06-3.00001E-20-2.29542E-18
 -1      1098 8.22762E-05-2.30058E-05-2.53800E-05 1.15032E-05-1.29016E-18 1.20933E-18
 -1      1099 8.97010E-05-2.34972E-05-2.83727E-05 2.43362E-06-1.95511E-18-1.15539E-18
 -1      1100 8.84119E-05-2.28397E-05-2.81018E-05 3.29510E-06-3.48680E-19-1.83126E-18
 -1      1101 9.17775E-05-2.49001E-05-2.86616E-05 1.33260E-06-3.36975E-19 4.29160E-19
 -1      1102 9.25743E-05-2.55527E-05-2.87234E-05 9.83869E-07-6.75931E-19 1.35703E-18
 -1      1103 9.32260E-05-2.61386E-05-2.87517E-05 7.23091E-07-3.85356E-19 1.52080E-18
 -1      1104 9.37488E-05-2.66479E-05-2.87575E-05 5.27672E-07 2.38471E-19 1.95792E-18
 -1      1105 9.41602E-05-2.70785E-05-2.87493E-05 3.81237E-07-9.31537E-20 2.17070E-18
 -1      1106 9.44777E-05-2.74340E-05-2.87330E-05 2.71756E-07 3.63010E-19-7.31807E-20
 -1      1107 9.47178E-05-2.77212E-05-2.87128E-05 1.90272E-07 2.91486E-19-9.02762E-19
 -1      1108 9.48954E-05-2.79486E-05-2.86915E-05 1.30044E-07 7.68673E-20-5.91320E-20
 -1      1109 9.50236E-05-2.81252E-05-2.86707E-05 8.59656E-08 5.57642E-19 1.04720E-18
 -1      1110 9.51134E-05-2.82597E-05-2.86516E-05 5.41818E-08 5.24338E-19 8.09726E-19
 -1      1111 9.51751E-05-2.83614E-05-2.86344E-05 3.14308E-08 1.60538E-19 1.65217E-19
 -1      1112 7.87247E-05-1.82400E-05-2.59173E-05-6.42956E-06-2.72781E-19-2.26919E-18
 -1      1113 8.69633E-05-2.23104E-05-2.77078E-05 4.47827E-06 6.75854E-19-2.38267E-19
 -1      1114 8.21281E-05-2.24140E-05-2.55928E-05-1.23950E-05-4.18249E-19-1.66458E-18
 -1      1115 8.53804E-05-2.20273E-05-2.71525E-05 6.12158E-06-3.86709E-19 6.53750E-19
 -1      1116 8.37889E-05-2.21673E-05-2.63987E-05 8.36959E-06-1.53011E-18 1.30606E-18
 -1      1117 9.52335E-05-2.84774E-05-2.86097E-05-1.06846E-08-2.91395E-20-4.34553E-18
 -1      1118 8.07125E-05-2.24297E-05-2.49757E-05 1.19464E-05-1.96448E-18 7.20203E-19
 -1      1119 7.62116E-05-1.75222E-05-2.51447E-05 2.05374E-06-4.40315E-19 9.55129E-20
 -1      1120 9.51899E-05-2.83908E-05-2.86283E-05 3.88208E-09-7.28093E-19 1.70180E-18
 -1      1121 8.13029E-05-1.75928E-05-2.73047E-05-3.09382E-06 2.40707E-20-2.10822E-18
 -1      1122 9.51939E-05-2.83952E-05-2.86280E-05-1.58718E-08 4.46972E-19-3.13789E-18
 -1      1123 8.37178E-05-2.03535E-05-2.71582E-05-7.91761E-06-6.25893E-20-1.98516E-18
 -1      1124 8.04223E-05-1.88656E-05-2.63826E-05 2.00571E-06-1.76697E-19-2.06740E-18
 -1      1125 8.35416E-05-2.00257E-05-2.72215E-05 1.09030E-06 4.64461E-19-1.39516E-18
 -1      1126 8.59704E-05-2.11241E-05-2.77923E-05 4.74061E-07 1.76497E-19 1.59198E-20
 -1      1127 8.79268E-05-2.21793E-05-2.81782E-05 9.82430E-08-7.17763E-19 6.25079E-19
 -1      1128 8.95176E-05-2.31761E-05-2.84326E-05-1.15559E-07-8.31684E-19-1.08422E-18
 -1      1129 9.08106E-05-2.40936E-05-2.85933E-05-2.21501E-07-1.54748E-18-2.10539E-18
 -1      1130 9.18551E-05-2.49165E-05-2.86881E-05-2.58573E-07-9.52016E-19-2.97676E-18
 -1      1131 9.26908E-05-2.56367E-05-2.87376E-05-2.54474E-07-6.09477E-19-3.17977E-18
 -1      1132 9.33516E-05-2.62529E-05-2.87566E-05-2.28247E-07-1.22779E-18-1.48860E-18
 -1      1133 9.38671E-05-2.67692E-05-2.87562E-05-1.92391E-07-1.20580E-19-2.03814E-18
 -1      1134 9.42632E-05-2.71936E-05-2.87441E-05-1.54624E-07 1.17227E-18-1.88623E-18
 -1      1135 9.45628E-05-2.75360E-05-2.87257E-05-1.19317E-07 4.60667E-19-9.58127E-19
 -1      1136 9.47851E-05-2.78074E-05-2.87047E-05-8.86098E-08-9.29665E-19-2.18484E-18
 -1      1137 9.49467E-05-2.80189E-05-2.86833E-05-6.32413E-08 1.27958E-20-1.83193E-18
 -1      1138 9.50613E-05-2.81808E-05-2.86630E-05-4.31613E-08 2.41738E-19-1.66308E-18
 -1      1139 9.51404E-05-2.83029E-05-2.86446E-05-2.70576E-08-7.72787E-20-2.11268E-18
 -1      1140 8.06712E-05-2.04426E-05-2.58173E-05 7.48007E-06-1.67616E-18-4.76615E-19
 -1      1141 1.16936E-04 2.59531E-10-4.20656E-05-4.01582E-05-3.65495E-19 1.34905E-17
 -1      1142 9.01321E-05 7.67692E-11-3.77744E-05-2.21531E-05-2.17687E-19 2.15745E-18
 -1      1143 8.54857E-05 4.41993E-11-3.62958E-05-1.53121E-05-1.56278E-19-2.82008E-18
 -1      1144 8.32049E-05 3.20004E-11-3.54225E-05-1.10532E-05-1.06038E-19-5.11383E-18
 -1      1145 8.16794E-05 2.46527E-11-3.48216E-05-7.88332E-06-6.96155E-20-6.30809E-18
 -1      1146 8.05627E-05 1.96943E-11-3.43834E-05-5.42711E-06-4.37545E-20-6.77934E-18
 -1      1147 7.97736E-05 1.64135E-11-3.40742E-05-3.44269E-06-2.59139E-20-6.97951E-18
 -1      1148 7.93079E-05 1.46638E-11-3.38914E-05-1.73052E-06-1.45782E-20-6.95250E-18
 -1      1149 7.91827E-05 1.43543E-11-3.38404E-05-1.37433E-07 1.14416E-20-6.89541E-18
 -1      1150 7.93906E-05 1.53891E-11-3.39186E-05 1.49905E-06 3.08969E-20-6.77508E-18
 -1      1151 7.99087E-05 1.76897E-11-3.41181E-05 3.33073E-06 3.87518E-20-6.51836E-18
 -1      1152 8.07042E-05 2.11882E-11-3.44265E-05 5.48060E-06 6.45863E-20-5.98934E-18
 -1      1153 8.17748E-05 2.61383E-11-3.48477E-05 8.11163E-06 9.33854E-20-5.17286E-18
 -1      1154 8.32188E-05 3.32047E-11-3.54236E-05 1.14367E-05 1.30020E-19-3.74843E-18
 -1      1155 8.53969E-05 4.48048E-11-3.62828E-05 1.57828E-05 1.75653E-19-1.04714E-18
 -1      1156 8.97202E-05 7.15152E-11-3.78027E-05 2.22122E-05 1.92700E-19 4.28461E-18
 -1      1157 1.07028E-04 1.68340E-10-4.08789E-05 3.50308E-05 4.11023E-19 1.53256E-17
 -1      1158 1.29915E-04-2.59530E-05-4.04395E-05-2.52480E-05-1.57929E-18 2.07472E-17
 -1      1159 9.95741E-05-2.95151E-05-3.22264E-05-4.85340E-07-5.41783E-19 1.70484E-17
 -1      1160 9.42325E-05-2.82695E-05-2.91023E-05 4.30974E-07-2.34933E-19 1.16941E-17
 -1      1161 9.41714E-05-2.83692E-05-2.84410E-05 2.86161E-07-1.10432E-19 7.97212E-18
 -1      1162 9.59741E-05-2.88927E-05-2.88575E-05 2.17210E-07-6.41230E-21 5.50497E-18
 -1      1163 9.90130E-05-2.97750E-05-2.97619E-05 1.96960E-07-9.62358E-20 3.96438E-18
 -1      1164 1.03032E-04-3.09578E-05-3.09708E-05 2.03976E-07 3.30508E-20 2.96239E-18
 -1      1165 1.07871E-04-3.23903E-05-3.24114E-05 2.27206E-07-5.10412E-20 2.17039E-18
 -1      1166 1.13291E-04-3.39946E-05-3.39961E-05 2.53007E-07-6.64702E-20 8.47854E-19
 -1      1167 1.18793E-04-3.56172E-05-3.55564E-05 2.55744E-07-4.62907E-20-3.38231E-19
 -1      1168 1.23430E-04-3.69728E-05-3.67954E-05 1.89457E-07-8.72543E-20-1.34617E-18
 -1      1169 1.25692E-04-3.76122E-05-3.72815E-05-8.60722E-09 5.29065E-20-1.13550E-18
 -1      1170 1.23718E-04-3.69908E-05-3.65525E-05-3.80300E-07-1.09307E-19-1.35631E-18
 -1      1171 1.16217E-04-3.47469E-05-3.43942E-05-8.53196E-07-4.09752E-20-1.83340E-18
 -1      1172 1.04098E-04-3.11894E-05-3.12008E-05-1.16351E-06 1.06423E-19-1.45129E-18
 -1      1173 9.16236E-05-2.75892E-05-2.81034E-05-9.65789E-07-1.05317E-19-2.58292E-18
 -1      1174 8.49926E-05-2.57000E-05-2.65200E-05-1.96274E-07-2.38228E-21-3.41423E-18
 -1      1175 8.80985E-05-2.65861E-05-2.72791E-05 7.05950E-07 1.37113E-20-4.74804E-18
 -1      1176 9.92545E-05-2.97907E-05-3.00275E-05 1.16788E-06 1.65128E-19-5.74468E-18
 -1      1177 1.12660E-04-3.37004E-05-3.34839E-05 1.03728E-06-2.20219E-19-5.71620E-18
 -1      1178 1.22866E-04-3.67292E-05-3.63073E-05 5.91869E-07-1.97862E-20-6.26169E-18
 -1      1179 1.27598E-04-3.81689E-05-3.77874E-05 1.61832E-07-7.99586E-20-5.29028E-18
 -1      1180 1.27449E-04-3.81619E-05-3.79289E-05-1.03116E-07-1.18542E-19-5.05296E-18
 -1      1181 1.24214E-04-3.72277E-05-3.71346E-05-2.09326E-07-2.74579E-19-6.17826E-18
 -1      1182 1.19612E-04-3.58754E-05-3.58699E-05-2.18394E-07-3.71776E-21-5.93336E-18
 -1      1183 1.14807E-04-3.44528E-05-3.44871E-05-1.84867E-07 7.56510E-20-4.22188E-18
 -1      1184 1.10422E-04-3.31477E-05-3.31925E-05-1.40744E-07 1.54904E-19-3.63954E-18
 -1      1185 1.06708E-04-3.20378E-05-3.20791E-05-1.00395E-07-2.46698E-19-5.85324E-18
 -1      1186 1.03705E-04-3.11371E-05-3.11704E-05-6.83236E-08 6.58643E-20-5.97639E-18
 -1      1187 1.01353E-04-3.04294E-05-3.04544E-05-4.46149E-08-1.19492E-19-6.01015E-18
 -1      1188 9.95541E-05-2.98866E-05-2.99046E-05-2.78368E-08-2.84953E-19-7.82209E-18
 -1      1189 9.82049E-05-2.94786E-05-2.94911E-05-1.63197E-08 1.57918E-19-6.82307E-18
 -1      1190 9.72113E-05-2.91773E-05-2.91859E-05-8.61686E-09 3.07546E-19-5.24407E-18
 -1      1191 9.64932E-05-2.89591E-05-2.89648E-05-3.60667E-09-3.17587E-19-3.74747E-18
 -1      1192 9.59850E-05-2.88042E-05-2.88079E-05-4.63537E-10-1.44382E-19-6.41520E-18
 -1      1193 9.56342E-05-2.86970E-05-2.86992E-05 1.40460E-09-1.94795E-19-5.92123E-18
 -1      1194 9.53998E-05-2.86250E-05-2.86263E-05 2.41685E-09 1.50567E-19-6.60670E-18
 -1      1195 9.52501E-05-2.85788E-05-2.85795E-05 2.86785E-09 8.27084E-20-4.96750E-18
 -1      1196 9.51608E-05-2.85510E-05-2.85513E-05 2.96356E-09 9.40146E-20-4.54801E-18
 -1      1197 9.51138E-05-2.85361E-05-2.85361E-05 2.84701E-09 3.73203E-19-2.94433E-18
 -1      1198 9.50956E-05-2.85301E-05-2.85299E-05 2.61649E-09-3.25549E-19-3.25177E-18
 -1      1199 9.50965E-05-2.85299E-05-2.85297E-05 2.33835E-09 1.58657E-19-3.68026E-18
 -1      1200 9.51093E-05-2.85334E-05-2.85332E-05 2.05584E-09 5.45651E-19-3.29164E-18
 -1      1201 9.51291E-05-2.85391E-05-2.85389E-05 1.79509E-09-3.76421E-19-3.15192E-19
 -1      1202 9.51524E-05-2.85459E-05-2.85457E-05 1.56805E-09 6.50517E-20-1.03002E-18
 -1      1203 9.51767E-05-2.85531E-05-2.85528E-05 1.37091E-09 3.94266E-19 1.34608E-18
 -1      1204 9.51998E-05-2.85599E-05-2.85596E-05 1.17428E-09-9.93101E-20 2.81378E-18
 -1      1205 9.52196E-05-2.85658E-05-2.85653E-05 8.79475E-10 3.82688E-19 3.93306E-18
 -1      1206 9.52332E-05-2.85697E-05-2.85693E-05 2.80113E-10-4.86348E-19 1.06736E-18
 -1      1207 9.52379E-05-2.85714E-05-2.85715E-05-3.08370E-10 5.44797E-19 4.70100E-19
 -1      1208 1.30773E-04-3.75541E-05-3.88848E-05 1.19365E-05-2.92835E-19 2.44361E-17
 -1      1209 9.86471E-05-2.88289E-05-3.19544E-05 7.31150E-07 1.93018E-19 1.95334E-17
 -1      1210 9.40841E-05-2.80605E-05-2.89742E-05 9.58450E-08 1.19749E-19 1.44716E-17
 -1      1211 9.35647E-05-2.80805E-05-2.82558E-05-2.38120E-09 5.42233E-20 1.11094E-17
 -1      1212 9.47737E-05-2.84675E-05-2.84861E-05-3.85434E-08 9.76884E-20 8.66568E-18
 -1      1213 9.68943E-05-2.90920E-05-2.90946E-05-5.99075E-08 1.41895E-20 6.96669E-18
 -1      1214 9.94913E-05-2.98545E-05-2.98572E-05-8.18748E-08 8.42773E-21 5.95684E-18
 -1      1215 1.02223E-04-3.06571E-05-3.06493E-05-1.06818E-07 1.72349E-20 5.36598E-18
 -1      1216 1.04708E-04-3.13863E-05-3.13524E-05-1.30674E-07-3.63852E-20 4.51601E-18
 -1      1217 1.06473E-04-3.19028E-05-3.18263E-05-1.43146E-07 1.41921E-19 3.42817E-18
 -1      1218 1.06966E-04-3.20461E-05-3.19151E-05-1.27633E-07 1.23951E-19 2.24296E-18
 -1      1219 1.05658E-04-3.16642E-05-3.14833E-05-6.55579E-08 4.80923E-20 1.52228E-18
 -1      1220 1.02269E-04-3.06754E-05-3.04794E-05 5.14285E-08 1.78472E-20 9.26813E-19
 -1      1221 9.70695E-05-2.91528E-05-2.90111E-05 2.04034E-07-1.61486E-19 9.70276E-19
 -1      1222 9.10971E-05-2.73888E-05-2.73834E-05 3.36914E-07 8.34063E-20-5.78576E-19
 -1      1223 8.60381E-05-2.58707E-05-2.60459E-05 3.78453E-07-2.02725E-20-1.44186E-18
 -1      1224 8.36289E-05-2.51181E-05-2.54343E-05 2.87639E-07-1.23961E-19-1.47000E-19
 -1      1225 8.48144E-05-2.54352E-05-2.57738E-05 9.26135E-08-4.86382E-21 6.38583E-19
 -1      1226 8.92286E-05-2.67366E-05-2.69679E-05-1.21861E-07 2.02926E-19-1.02285E-18
 -1      1227 9.54049E-05-2.85902E-05-2.86497E-05-2.70147E-07-1.44511E-20-9.96111E-19
 -1      1228 1.01550E-04-3.04482E-05-3.03576E-05-3.15516E-07 5.70143E-20-2.80738E-19
 -1      1229 1.06308E-04-3.18901E-05-3.17211E-05-2.75113E-07-6.22867E-21-3.61868E-19
 -1      1230 1.09091E-04-3.27329E-05-3.25570E-05-1.91594E-07 2.45209E-19-2.31526E-18
 -1      1231 1.09979E-04-3.30007E-05-3.28611E-05-1.03691E-07-5.91335E-20-4.63128E-18
 -1      1232 1.09418E-04-3.28305E-05-3.27408E-05-3.31760E-08 2.08519E-19-5.41187E-18
 -1      1233 1.07947E-04-3.23872E-05-3.23421E-05 1.35881E-08 1.34231E-19-3.76812E-18
 -1      1234 1.06040E-04-3.18134E-05-3.18003E-05 3.91556E-08-1.97614E-19-1.89423E-18
 -1      1235 1.04036E-04-3.12117E-05-3.12182E-05 4.93033E-08-2.53487E-20-1.46877E-18
 -1      1236 1.02150E-04-3.06459E-05-3.06623E-05 4.97690E-08-7.70548E-20-3.03425E-18
 -1      1237 1.00494E-04-3.01493E-05-3.01692E-05 4.49958E-08 3.00594E-19-4.20715E-18
 -1      1238 9.91105E-05-2.97344E-05-2.97541E-05 3.79711E-08 3.21483E-19-3.56578E-18
 -1      1239 9.79978E-05-2.94008E-05-2.94184E-05 3.04966E-08-1.63626E-19-2.68092E-18
 -1      1240 9.71318E-05-2.91411E-05-2.91558E-05 2.35421E-08-3.02516E-19 1.65328E-18
 -1      1241 9.64777E-05-2.89448E-05-2.89566E-05 1.75471E-08 1.36638E-20 3.18611E-18
 -1      1242 9.59978E-05-2.88008E-05-2.88099E-05 1.26380E-08-3.26624E-19 3.06019E-18
 -1      1243 9.56566E-05-2.86983E-05-2.87051E-05 8.77208E-09 5.25561E-19-1.87153E-18
 -1      1244 9.54228E-05-2.86280E-05-2.86329E-05 5.82595E-09 3.30755E-19-5.28048E-18
 -1      1245 9.52698E-05-2.85819E-05-2.85854E-05 3.64744E-09-4.04308E-19-3.27765E-18
 -1      1246 9.51763E-05-2.85537E-05-2.85561E-05 2.08412E-09-1.19986E-19-4.77239E-19
 -1      1247 9.51253E-05-2.85382E-05-2.85398E-05 9.97338E-10 2.24249E-20-2.84813E-18
 -1      1248 9.51038E-05-2.85316E-05-2.85326E-05 2.67915E-10-2.18557E-19-2.17723E-18
 -1      1249 9.51020E-05-2.85310E-05-2.85316E-05-2.02943E-10-2.63005E-19-2.04522E-18
 -1      1250 9.51130E-05-2.85342E-05-2.85345E-05-4.95201E-10-1.31647E-19-3.14366E-18
 -1      1251 9.51314E-05-2.85396E-05-2.85398E-05-6.72742E-10 6.03995E-19-7.59590E-18
 -1      1252 9.51539E-05-2.85463E-05-2.85463E-05-7.86149E-10-6.13871E-19-5.50804E-18
 -1      1253 9.51775E-05-2.85533E-05-2.85532E-05-8.73374E-10 1.27884E-19-4.27207E-18
 -1      1254 9.52002E-05-2.85600E-05-2.85598E-05-9.55052E-10 1.61888E-19-8.01136E-18
 -1      1255 9.52197E-05-2.85658E-05-2.85654E-05-9.96918E-10-1.08654E-19-5.26823E-18
 -1      1256 9.52333E-05-2.85698E-05-2.85693E-05-7.72707E-10 8.01192E-19-6.61917E-18
 -1      1257 9.52378E-05-2.85714E-05-2.85715E-05 2.50746E-10 4.80505E-19-5.51559E-18
 -1      1258 9.52369E-05-2.85705E-05-2.85715E-05 1.87318E-10-6.28659E-18-4.43598E-19
 -1      1259 9.52385E-05-2.85752E-05-2.85693E-05-2.38666E-10-8.20931E-18-5.24922E-19
 -1      1260 9.52423E-05-2.85879E-05-2.85657E-05-8.35457E-10 8.50760E-19 9.66843E-19
 -1      1261 9.52472E-05-2.86047E-05-2.85610E-05-9.31327E-10 1.34971E-18-6.38792E-19
 -1      1262 9.52523E-05-2.86218E-05-2.85562E-05-8.26534E-10 1.83665E-19-1.22204E-18
 -1      1263 9.52567E-05-2.86367E-05-2.85518E-05-6.37739E-10-6.18112E-19-5.62977E-19
 -1      1264 9.52601E-05-2.86481E-05-2.85485E-05-4.38495E-10 5.09325E-19-4.63866E-19
 -1      1265 9.52622E-05-2.86554E-05-2.85463E-05-2.21289E-10 4.04196E-18 2.90590E-19
 -1      1266 9.52630E-05-2.86579E-05-2.85456E-05-3.99329E-12 3.20773E-18-2.45957E-19
 -1      1267 9.52623E-05-2.86555E-05-2.85463E-05 2.15102E-10 4.82760E-18 1.24426E-19
 -1      1268 9.52601E-05-2.86484E-05-2.85484E-05 4.36797E-10 5.06868E-19-8.68046E-19
 -1      1269 9.52567E-05-2.86369E-05-2.85518E-05 6.53438E-10-2.45927E-18-2.49935E-19
 -1      1270 9.52523E-05-2.86219E-05-2.85561E-05 8.36747E-10-2.30927E-18 1.13044E-19
 -1      1271 9.52472E-05-2.86047E-05-2.85610E-05 9.56537E-10-1.76062E-18-1.87330E-19
 -1      1272 9.52422E-05-2.85876E-05-2.85657E-05 1.00322E-09-6.53382E-18 7.93870E-20
 -1      1273 9.52388E-05-2.85754E-05-2.85693E-05 1.60227E-10-6.14693E-18 6.47541E-19
 -1      1274 9.52368E-05-2.85704E-05-2.85715E-05-1.70668E-10-6.79083E-19 1.03847E-18
 -1      1275 3.42863E-05-1.07346E-04 1.82594E-05-1.28340E-05 1.02779E-17 2.46637E-18
 -1      1276 1.88521E-05-6.87275E-05 1.04831E-05-2.50777E-05 2.05109E-17 6.95308E-18
 -1      1277 7.11176E-06-1.60311E-05-3.22839E-06-6.05897E-06 2.51501E-17 1.42547E-17
 -1      1278 2.40826E-05 2.15650E-05-2.15885E-05 4.10913E-05 2.46927E-17 2.14570E-17
 -1      1279 8.33321E-05 2.14091E-05-4.12224E-05 9.16581E-05 1.94182E-17 2.47910E-17
 -1      1280 1.72218E-04-1.47156E-05-5.86918E-05 1.12284E-04 1.18525E-17 2.29343E-17
 -1      1281 2.58798E-04-6.26189E-05-7.13959E-05 8.81827E-05 4.55280E-18 1.41912E-17
 -1      1282 3.06475E-04-9.17591E-05-7.75532E-05 2.19475E-05 6.24899E-19 1.57887E-18
 -1      1283 2.92570E-04-8.32048E-05-7.57771E-05-5.56772E-05 2.92957E-18-1.39168E-17
 -1      1284 2.23063E-04-4.18492E-05-6.64548E-05-1.05902E-04 9.57401E-18-2.50866E-17
 -1      1285 1.28708E-04 5.04621E-06-5.07838E-05-1.06763E-04 1.71770E-17-2.73524E-17
 -1      1286 4.88519E-05 2.55095E-05-3.12121E-05-6.77105E-05 2.27522E-17-2.47317E-17
 -1      1287 1.02913E-05 5.35361E-06-1.14743E-05-1.35776E-05 2.22448E-17-1.58768E-17
 -1      1288 1.16387E-05-4.54356E-05 5.05497E-06 2.06728E-05 1.86805E-17-8.25645E-18
 -1      1289 2.97480E-05-9.64677E-05 1.61319E-05 2.15959E-05 9.93993E-18-2.60018E-18
 -1      1290 3.79323E-05-1.15677E-04 1.96870E-05-3.07267E-06-1.70476E-18-8.17175E-19
 -1      1291 2.65991E-05-9.06971E-05 1.49968E-05-2.52647E-05-1.32459E-17-4.04405E-18
 -1      1292 9.86791E-06-3.72280E-05 2.55129E-06-1.90457E-05-2.16620E-17-1.09208E-17
 -1      1293 1.75086E-05 1.07522E-05-1.59656E-05 2.47268E-05-2.47130E-17-1.97537E-17
 -1      1294 7.30423E-05 2.09265E-05-3.78044E-05 8.16806E-05-2.14655E-17-2.60785E-17
 -1      1295 1.74393E-04-1.56168E-05-5.88947E-05 1.11875E-04-1.22583E-17-2.33493E-17
 -1      1296 2.76764E-04-7.06750E-05-7.41721E-05 8.11390E-05-4.17238E-18-1.45207E-17
 -1      1297 3.19822E-04-9.75530E-05-7.95299E-05 2.28070E-06-7.73447E-19-2.16057E-18
 -1      1298 2.82667E-04-7.51373E-05-7.48655E-05-7.59450E-05-3.43705E-18 1.22108E-17
 -1      1299 1.92374E-04-2.53024E-05-6.19285E-05-1.12067E-04-1.16048E-17 2.45911E-17
 -1      1300 9.38702E-05 1.58218E-05-4.32788E-05-9.35811E-05-2.26869E-17 3.03221E-17
 -1      1301 2.78938E-05 1.83677E-05-2.21650E-05-4.14010E-05-2.84264E-17 2.62131E-17
 -1      1302 7.81894E-06-1.97493E-05-2.53488E-06 8.81758E-06-2.88584E-17 1.65680E-17
 -1      1303 2.02426E-05-7.44731E-05 1.16842E-05 2.78297E-05-2.05643E-17 7.64553E-18
 -1      1304 3.49708E-05-1.09905E-04 1.87693E-05 1.33624E-05-6.91327E-18 2.09961E-18
 -1      1305 1.05700E-04-2.23385E-05-3.82437E-05-1.62266E-05-5.68994E-19 1.11069E-17
 -1      1306 9.22277E-05-7.17052E-06-3.65960E-05-1.82028E-05-1.70317E-18-1.69830E-19
 -1      1307 9.45750E-05-7.31639E-06-3.77313E-05-2.37028E-05-2.16608E-18 2.42315E-18
 -1      1308 8.73962E-05-4.36469E-06-3.56466E-05-1.37348E-05-1.75998E-18-3.83208E-18
 -1      1309 8.88981E-05-4.38759E-06-3.61708E-05-1.63141E-05-1.94632E-18-2.25356E-18
 -1      1310 9.41656E-05-1.10669E-05-3.56830E-05-1.65315E-05-3.00040E-18-1.38278E-19
 -1      1311 8.47715E-05-3.18025E-06-3.49904E-05-1.00324E-05-1.42233E-18-5.64186E-18
 -1      1312 8.57757E-05-3.17261E-06-3.53363E-05-1.18469E-05-1.64806E-18-4.83926E-18
 -1      1313 8.92058E-05-7.57318E-06-3.50565E-05-1.26381E-05-2.75798E-18-3.20001E-18
 -1      1314 8.29310E-05-2.45052E-06-3.45008E-05-7.13774E-06-1.08325E-18-6.48915E-18
 -1      1315 8.36698E-05-2.44931E-06-3.47527E-05-8.53228E-06-1.21557E-18-6.09266E-18
 -1      1316 8.61841E-05-5.67581E-06-3.45645E-05-9.22245E-06-2.18511E-18-4.70275E-18
 -1      1317 8.15957E-05-1.95638E-06-3.41344E-05-4.87254E-06-7.09099E-19-6.91999E-18
 -1      1318 8.21350E-05-1.95949E-06-3.43174E-05-5.96702E-06-8.36710E-19-6.71517E-18
 -1      1319 8.40776E-05-4.46167E-06-3.41710E-05-6.53714E-06-1.56356E-18-5.42228E-18
 -1      1320 8.06714E-05-1.62823E-06-3.38751E-05-2.97834E-06-4.35348E-19-7.00273E-18
 -1      1321 8.10309E-05-1.63178E-06-3.39982E-05-3.90484E-06-5.04170E-19-6.98301E-18
 -1      1322 8.25700E-05-3.64767E-06-3.38669E-05-4.38427E-06-1.02385E-18-5.78107E-18
 -1      1323 8.01864E-05-1.45456E-06-3.37358E-05-1.32349E-06-8.33583E-20-6.98713E-18
 -1      1324 8.03509E-05-1.45606E-06-3.37940E-05-2.15080E-06-1.83125E-19-6.97825E-18
 -1      1325 8.15967E-05-3.15285E-06-3.36585E-05-2.57065E-06-5.34269E-19-5.83737E-18
 -1      1326 8.01394E-05-1.42527E-06-3.37200E-05 2.58453E-07 2.26734E-19-6.92803E-18
 -1      1327 8.01096E-05-1.42426E-06-3.37127E-05-5.51594E-07 1.20758E-19-6.97029E-18
 -1      1328 8.11634E-05-2.95166E-06-3.35579E-05-9.47202E-07 3.68902E-20-5.84882E-18
 -1      1329 8.05118E-05-1.53038E-06-3.38242E-05 1.92334E-06 5.09927E-19-6.77857E-18
 -1      1330 8.02977E-05-1.52726E-06-3.37543E-05 1.05399E-06 4.10890E-19-6.88060E-18
 -1      1331 8.12574E-05-3.02265E-06-3.35684E-05 6.46278E-07 5.10989E-19-5.76825E-18
 -1      1332 8.12715E-05-1.76203E-06-3.40390E-05 3.81630E-06 7.84247E-19-6.46916E-18
 -1      1333 8.08890E-05-1.75710E-06-3.39115E-05 2.81566E-06 6.98213E-19-6.67380E-18
 -1      1334 8.18504E-05-3.34871E-06-3.36851E-05 2.35886E-06 9.87614E-19-5.60382E-18
 -1      1335 8.23678E-05-2.10878E-06-3.43484E-05 6.03353E-06 1.12187E-18-5.90712E-18
 -1      1336 8.18404E-05-2.10724E-06-3.41707E-05 4.85451E-06 9.87548E-19-6.24062E-18
 -1      1337 8.28986E-05-3.91707E-06-3.38945E-05 4.30986E-06 1.46550E-18-5.24869E-18
 -1      1338 8.38522E-05-2.59835E-06-3.47648E-05 8.79724E-06 1.55338E-18-4.98242E-18
 -1      1339 8.31495E-05-2.60159E-06-3.45245E-05 7.31709E-06 1.36346E-18-5.52561E-18
 -1      1340 8.43940E-05-4.75065E-06-3.41856E-05 6.64489E-06 2.04153E-18-4.61760E-18
 -1      1341 8.58480E-05-3.28703E-06-3.53224E-05 1.22658E-05 1.92345E-18-3.41807E-18
 -1      1342 8.48987E-05-3.30491E-06-3.49891E-05 1.03832E-05 1.73200E-18-4.38995E-18
 -1      1343 8.64334E-05-5.94987E-06-3.45574E-05 9.52948E-06 2.67363E-18-3.62443E-18
 -1      1344 8.88935E-05-4.40198E-06-3.61498E-05 1.67910E-05 2.18355E-18-4.54724E-19
 -1      1345 8.74046E-05-4.43634E-06-3.56207E-05 1.42254E-05 1.95638E-18-2.24360E-18
 -1      1346 8.93382E-05-7.79165E-06-3.50243E-05 1.31094E-05 3.13317E-18-1.76466E-18
 -1      1347 9.51619E-05-7.30231E-06-3.75870E-05 2.33212E-05 1.88253E-18 5.25467E-18
 -1      1348 9.19152E-05-6.90529E-06-3.65748E-05 1.90896E-05 1.81704E-18 1.75971E-18
 -1      1349 9.42658E-05-1.12902E-05-3.56200E-05 1.74129E-05 3.24472E-18 1.54901E-18
 -1      1350 1.24160E-04-2.51710E-05-3.92858E-05 2.72759E-05 9.17548E-19 1.60805E-17
 -1      1351 1.01586E-04-1.49016E-05-3.77656E-05 2.26153E-05 9.35230E-19 8.56181E-18
 -1      1352 1.03612E-04-2.00382E-05-3.59080E-05 1.95549E-05 3.06153E-18 6.71358E-18
 -1      1353 1.04183E-04-2.83540E-05-3.51763E-05 6.46052E-06 1.62718E-18 1.54702E-17
 -1      1354 1.07135E-04-3.08801E-05-3.40822E-05-6.88368E-06-1.77602E-18 1.17163E-17
 -1      1355 1.01149E-04-2.87692E-05-3.15740E-05-4.06692E-06-1.67760E-18 9.65263E-18
 -1      1356 9.89617E-05-2.88868E-05-3.02803E-05-1.55319E-06-1.37357E-18 8.76297E-18
 -1      1357 9.76240E-05-2.88528E-05-2.95141E-05-1.11214E-06-1.31999E-18 6.81412E-18
 -1      1358 1.02580E-04-2.90229E-05-3.18897E-05-6.07680E-06-2.94910E-18 4.96954E-18
 -1      1359 9.66681E-05-2.86897E-05-2.91191E-05 1.86024E-07-1.01783E-18 6.09644E-18
 -1      1360 9.69381E-05-2.88813E-05-2.91156E-05 3.29871E-07-9.14253E-19 4.67986E-18
 -1      1361 9.91028E-05-2.90477E-05-3.01566E-05-1.19395E-06-2.23736E-18 3.62260E-18
 -1      1362 9.70629E-05-2.89410E-05-2.91502E-05 1.06282E-06-6.98332E-19 3.99567E-18
 -1      1363 9.81825E-05-2.93227E-05-2.94710E-05 1.17329E-06-6.30080E-19 3.06560E-18
 -1      1364 9.84575E-05-2.91831E-05-2.97325E-05 1.20169E-06-1.63790E-18 2.33956E-18
 -1      1365 9.89837E-05-2.95549E-05-2.97297E-05 1.68500E-06-4.01705E-19 2.65394E-18
 -1      1366 1.00674E-04-3.00924E-05-3.02280E-05 1.77962E-06-4.19261E-19 1.98801E-18
 -1      1367 9.93771E-05-2.95631E-05-2.99509E-05 2.69259E-06-1.09777E-18 1.21292E-18
 -1      1368 1.01957E-04-3.04629E-05-3.06327E-05 2.18498E-06-3.22233E-19 1.83778E-18
 -1      1369 1.04100E-04-3.11383E-05-3.12606E-05 2.26874E-06-1.99662E-19 1.50205E-18
 -1      1370 1.01403E-04-3.02132E-05-3.05390E-05 3.80168E-06-7.60404E-19 7.82046E-19
 -1      1371 1.05740E-04-3.16201E-05-3.17695E-05 2.57955E-06-2.05035E-19 1.27517E-18
 -1      1372 1.08230E-04-3.24120E-05-3.24932E-05 2.64473E-06-3.06368E-19 8.05422E-19
 -1      1373 1.04253E-04-3.11104E-05-3.13734E-05 4.67298E-06-5.24406E-19 1.38407E-19
 -1      1374 1.10107E-04-3.29798E-05-3.30635E-05 2.80304E-06-2.96289E-19 7.22890E-19
 -1      1375 1.12762E-04-3.38431E-05-3.38256E-05 2.82620E-06-2.92272E-19 1.52439E-19
 -1      1376 1.07707E-04-3.22286E-05-3.23670E-05 5.25536E-06-5.94795E-19-7.48764E-20
 -1      1377 1.14700E-04-3.44604E-05-3.43938E-05 2.70310E-06-2.77602E-19-1.50878E-20
 -1      1378 1.17172E-04-3.52983E-05-3.50876E-05 2.64040E-06-4.12146E-19-4.61368E-19
 -1      1379 1.11495E-04-3.35305E-05-3.34168E-05 5.33167E-06-5.36023E-19-1.04920E-19
 -1      1380 1.18895E-04-3.58998E-05-3.55572E-05 2.04477E-06-3.52630E-19-3.31362E-19
 -1      1381 1.20600E-04-3.65293E-05-3.60115E-05 1.83418E-06-1.36055E-19-7.23022E-19
 -1      1382 1.15202E-04-3.49317E-05-3.43755E-05 4.52347E-06-4.89942E-19-1.14475E-19
 -1      1383 1.21706E-04-3.69975E-05-3.62560E-05 5.81319E-07 3.26769E-20-9.15126E-19
 -1      1384 1.21839E-04-3.71357E-05-3.62522E-05 1.69318E-07-1.31025E-19-9.39293E-19
 -1      1385 1.18181E-04-3.62348E-05-3.50477E-05 2.37225E-06-1.34334E-19-3.84943E-19
 -1      1386 1.21847E-04-3.72833E-05-3.61500E-05-1.73529E-06-1.70492E-19-6.17540E-19
 -1      1387 1.19640E-04-3.66062E-05-3.55082E-05-2.32233E-06-2.85477E-19-1.01628E-18
 -1      1388 1.19543E-04-3.70491E-05-3.52290E-05-1.37397E-06-1.15355E-19-6.09895E-19
 -1      1389 1.18170E-04-3.62030E-05-3.50182E-05-4.39175E-06-1.99317E-20-8.51215E-19
 -1      1390 1.13485E-04-3.45584E-05-3.37608E-05-4.94000E-06-5.18146E-20-7.37130E-19
 -1      1391 1.18345E-04-3.67766E-05-3.48027E-05-6.19885E-06-1.84905E-19-5.32307E-19
 -1      1392 1.10657E-04-3.35132E-05-3.30103E-05-6.07607E-06-5.21306E-20-8.21516E-19
 -1      1393 1.04699E-04-3.12627E-05-3.14967E-05-6.18989E-06-2.64788E-19-9.31630E-19
 -1      1394 1.14172E-04-3.49047E-05-3.38669E-05-1.02354E-05-2.39975E-19-1.45663E-19
 -1      1395 1.01543E-04-2.99237E-05-3.07795E-05-5.21574E-06-6.20266E-19-1.31036E-18
 -1      1396 9.68594E-05-2.80659E-05-2.96404E-05-4.60108E-06-8.58997E-19-1.92562E-18
 -1      1397 1.08087E-04-3.17621E-05-3.27789E-05-1.06306E-05-7.80766E-19-4.95594E-19
 -1      1398 9.51145E-05-2.72652E-05-2.92848E-05-1.47090E-06-6.35354E-19-2.70651E-18
 -1      1399 9.42460E-05-2.69049E-05-2.90823E-05-3.64162E-07-6.83794E-19-3.33346E-18
 -1      1400 1.02974E-04-2.89191E-05-3.20027E-05-5.66680E-06-1.26433E-18-1.59954E-18
 -1      1401 9.51079E-05-2.72846E-05-2.92687E-05 3.24914E-06-6.02108E-19-4.07492E-18
 -1      1402 9.86158E-05-2.86754E-05-3.01240E-05 4.13999E-06-3.50804E-19-4.47202E-18
 -1      1403 1.02035E-04-2.83507E-05-3.18921E-05 2.70726E-06-1.15003E-18-3.39313E-18
 -1      1404 1.01558E-04-2.99469E-05-3.07772E-05 6.12963E-06-3.37119E-19-4.95832E-18
 -1      1405 1.07544E-04-3.22432E-05-3.22787E-05 6.31242E-06-1.39026E-19-5.24927E-18
 -1      1406 1.06007E-04-3.05148E-05-3.25168E-05 9.59927E-06-8.49667E-19-4.23037E-18
 -1      1407 1.10865E-04-3.35392E-05-3.31106E-05 5.96902E-06-2.78270E-19-5.65818E-18
 -1      1408 1.16544E-04-3.55905E-05-3.46041E-05 5.55260E-06-8.27452E-19-6.10875E-18
 -1      1409 1.12440E-04-3.38865E-05-3.36314E-05 1.14497E-05-7.40120E-19-5.48472E-18
 -1      1410 1.18824E-04-3.63228E-05-3.52831E-05 3.72841E-06-5.50439E-20-6.02251E-18
 -1      1411 1.22359E-04-3.74838E-05-3.62717E-05 3.12185E-06 1.90132E-19-5.66133E-18
 -1      1412 1.18001E-04-3.65049E-05-3.47861E-05 8.62418E-06-4.92417E-19-5.71533E-18
 -1      1413 1.23130E-04-3.75950E-05-3.65971E-05 1.06716E-06 5.44152E-19-5.17437E-18
 -1      1414 1.24166E-04-3.78430E-05-3.69297E-05 5.74512E-07 5.08246E-19-4.66214E-18
 -1      1415 1.20818E-04-3.75200E-05-3.55571E-05 3.85288E-06 6.24369E-19-5.35306E-18
 -1      1416 1.23659E-04-3.75381E-05-3.68806E-05-9.54102E-07-1.57853E-19-4.40702E-18
 -1      1417 1.22795E-04-3.71635E-05-3.66753E-05-1.23906E-06-5.66453E-20-4.63801E-18
 -1      1418 1.20801E-04-3.71926E-05-3.57382E-05-4.37757E-07 2.29811E-19-4.49832E-18
 -1      1419 1.21483E-04-3.66588E-05-3.63494E-05-2.07223E-06-6.70744E-20-4.68937E-18
 -1      1420 1.19562E-04-3.59790E-05-3.58237E-05-2.18253E-06-1.30704E-19-4.85857E-18
 -1      1421 1.18773E-04-3.61482E-05-3.53676E-05-3.20888E-06-1.28299E-19-3.62902E-18
 -1      1422 1.17885E-04-3.54183E-05-3.53495E-05-2.46358E-06 6.74464E-19-4.15268E-18
 -1      1423 1.15591E-04-3.46581E-05-3.46982E-05-2.46534E-06 5.97030E-19-3.43242E-18
 -1      1424 1.15681E-04-3.48769E-05-3.46232E-05-4.48546E-06 5.90389E-19-2.67531E-18
 -1      1425 1.13858E-04-3.41202E-05-3.41815E-05-2.40716E-06 1.40882E-19-3.30504E-18
 -1      1426 1.11618E-04-3.34045E-05-3.35332E-05-2.35518E-06 3.37337E-19-2.90491E-18
 -1      1427 1.12255E-04-3.36420E-05-3.37036E-05-4.71337E-06 7.05156E-19-1.67648E-18
 -1      1428 1.10011E-04-3.29263E-05-3.30414E-05-2.13019E-06-2.42976E-20-3.45199E-18
 -1      1429 1.08032E-04-3.23094E-05-3.24627E-05-2.05908E-06-2.77132E-19-3.49631E-18
 -1      1430 1.08950E-04-3.25520E-05-3.27624E-05-4.35283E-06 9.71706E-20-2.29596E-18
 -1      1431 1.06636E-04-3.19041E-05-3.20300E-05-1.77737E-06-7.86295E-19-3.50954E-18
 -1      1432 1.04991E-04-3.13995E-05-3.15457E-05-1.70555E-06-6.48781E-19-4.71802E-18
 -1      1433 1.06003E-04-3.16368E-05-3.18934E-05-3.73582E-06-8.75832E-19-3.26953E-18
 -1      1434 1.03830E-04-3.10671E-05-3.11836E-05-1.42691E-06 9.06822E-20-5.27720E-18
 -1      1435 1.02515E-04-3.06687E-05-3.07948E-05-1.36264E-06-1.41325E-19-5.26734E-18
 -1      1436 1.03506E-04-3.08917E-05-3.11408E-05-3.06042E-06-7.22603E-19-4.36063E-18
 -1      1437 1.01580E-04-3.04028E-05-3.05022E-05-1.11445E-06-1.55053E-19-5.03244E-18
 -1      1438 1.00557E-04-3.00960E-05-3.01991E-05-1.06047E-06-6.73921E-20-5.07506E-18
 -1      1439 1.01462E-04-3.02982E-05-3.05168E-05-2.42772E-06-2.00378E-19-4.77342E-18
 -1      1440 9.98212E-05-2.98877E-05-2.99688E-05-8.51857E-07-2.79480E-19-4.66591E-18
 -1      1441 9.90438E-05-2.96561E-05-2.97377E-05-8.08204E-07-6.41627E-20-4.82116E-18
 -1      1442 9.98339E-05-2.98337E-05-3.00151E-05-1.87978E-06-1.30322E-19-3.37665E-18
 -1      1443 9.84760E-05-2.94958E-05-2.95601E-05-6.39101E-07 3.30254E-19-4.51598E-18
 -1      1444 9.78959E-05-2.93242E-05-2.93873E-05-6.04685E-07 4.47045E-19-4.03141E-18
 -1      1445 9.85640E-05-2.94759E-05-2.96213E-05-1.42677E-06 4.34865E-20-1.75360E-18
 -1      1446 9.74659E-05-2.92029E-05-2.92529E-05-4.70999E-07 5.51647E-19-3.68017E-18
 -1      1447 9.70409E-05-2.90781E-05-2.91260E-05-4.44372E-07 1.35573E-19-3.40558E-18
 -1      1448 9.75917E-05-2.92046E-05-2.93184E-05-1.06347E-06 6.96766E-19-1.89373E-18
 -1      1449 9.67208E-05-2.89879E-05-2.90261E-05-3.40685E-07-2.97009E-19-2.86807E-18
 -1      1450 9.64155E-05-2.88988E-05-2.89347E-05-3.20405E-07-4.06917E-19-3.50258E-18
 -1      1451 9.68602E-05-2.90021E-05-2.90896E-05-7.78467E-07 2.54895E-19-2.54817E-18
 -1      1452 9.61815E-05-2.88329E-05-2.88617E-05-2.41273E-07-2.63275E-19-3.37209E-18
 -1      1453 9.59669E-05-2.87708E-05-2.87973E-05-2.26052E-07 5.16289E-20-3.45300E-18
 -1      1454 9.63195E-05-2.88536E-05-2.89198E-05-5.58783E-07-5.32393E-19-2.46782E-18
 -1      1455 9.57994E-05-2.87237E-05-2.87451E-05-1.66562E-07-3.56045E-19-3.93553E-18
 -1      1456 9.56526E-05-2.86817E-05-2.87009E-05-1.55305E-07-4.84927E-19-4.30007E-18
 -1      1457 9.59273E-05-2.87467E-05-2.87961E-05-3.92063E-07-3.25840E-19-2.26185E-18
 -1      1458 9.55356E-05-2.86488E-05-2.86645E-05-1.11255E-07-5.35087E-20-3.95584E-18
 -1      1459 9.54387E-05-2.86215E-05-2.86352E-05-1.03062E-07 4.52494E-19-3.81312E-18
 -1      1460 9.56490E-05-2.86717E-05-2.87079E-05-2.67423E-07-4.25665E-19-2.85256E-18
 -1      1461 9.53594E-05-2.85992E-05-2.86105E-05-7.09711E-08 2.05732E-19-4.20554E-18
 -1      1462 9.52987E-05-2.85824E-05-2.85920E-05-6.51150E-08-5.89943E-20-3.95523E-18
 -1      1463 9.54567E-05-2.86204E-05-2.86466E-05-1.75679E-07 2.34756E-19-3.29920E-18
 -1      1464 9.52471E-05-2.85680E-05-2.85760E-05-4.21600E-08-1.99145E-19-3.44188E-18
 -1      1465 9.52120E-05-2.85587E-05-2.85652E-05-3.80621E-08 6.65977E-19-3.48253E-18
 -1      1466 9.53283E-05-2.85868E-05-2.86053E-05-1.09288E-07-1.80945E-19-3.20843E-18
 -1      1467 9.51805E-05-2.85499E-05-2.85554E-05-2.19884E-08 5.17108E-19-3.61400E-18
 -1      1468 9.51633E-05-2.85457E-05-2.85500E-05-1.91938E-08-5.58098E-19-3.02012E-18
 -1      1469 9.52466E-05-2.85659E-05-2.85787E-05-6.21631E-08 5.37917E-19-2.65940E-18
 -1      1470 9.51460E-05-2.85409E-05-2.85446E-05-8.22757E-09-6.03639E-19-2.57599E-18
 -1      1471 9.51408E-05-2.85401E-05-2.85428E-05-6.38383E-09-2.54619E-19-3.52833E-18
 -1      1472 9.51985E-05-2.85541E-05-2.85628E-05-2.94738E-08-1.33099E-19-3.02804E-18
 -1      1473 9.51333E-05-2.85381E-05-2.85405E-05 8.49202E-10-1.72608E-19-2.85027E-18
 -1      1474 9.51360E-05-2.85395E-05-2.85411E-05 2.01118E-09 3.43122E-19-2.99075E-18
 -1      1475 9.51739E-05-2.85487E-05-2.85543E-05-7.43928E-09-2.44849E-19-2.08351E-18
 -1      1476 9.51351E-05-2.85394E-05-2.85408E-05 6.55450E-09 1.13033E-18-2.61711E-18
 -1      1477 9.51426E-05-2.85421E-05-2.85429E-05 7.23509E-09 5.65284E-19-2.20345E-18
 -1      1478 9.51655E-05-2.85475E-05-2.85509E-05 6.84689E-09 6.41287E-19-2.04046E-18
 -1      1479 9.51459E-05-2.85431E-05-2.85439E-05 9.85754E-09 4.15271E-20-5.80069E-20
 -1      1480 9.51561E-05-2.85465E-05-2.85468E-05 1.02001E-08 7.03480E-19-4.08715E-20
 -1      1481 9.51675E-05-2.85491E-05-2.85510E-05 1.55659E-08 1.63318E-18 8.06215E-20
 -1      1482 9.51618E-05-2.85482E-05-2.85486E-05 1.14381E-08 2.45943E-19 2.28552E-19
 -1      1483 9.51732E-05-2.85520E-05-2.85518E-05 1.15370E-08 2.85245E-19 6.22272E-19
 -1      1484 9.51762E-05-2.85524E-05-2.85532E-05 2.02917E-08 1.22384E-18 1.73103E-18
 -1      1485 9.51801E-05-2.85540E-05-2.85540E-05 1.17209E-08 8.31064E-19 3.07311E-19
 -1      1486 9.51915E-05-2.85577E-05-2.85573E-05 1.16238E-08 3.87817E-19 1.65280E-18
 -1      1487 9.51884E-05-2.85566E-05-2.85566E-05 2.20745E-08 7.92110E-19 1.93233E-18
 -1      1488 9.51986E-05-2.85598E-05-2.85594E-05 1.08911E-08 9.85483E-20 1.30519E-18
 -1      1489 9.52089E-05-2.85632E-05-2.85624E-05 1.05960E-08 1.30737E-19 6.97545E-19
 -1      1490 9.52020E-05-2.85611E-05-2.85604E-05 2.14909E-08 1.49305E-19 8.14257E-19
 -1      1491 9.52153E-05-2.85652E-05-2.85643E-05 8.90489E-09 1.27281E-18 5.73655E-19
 -1      1492 9.52235E-05-2.85679E-05-2.85666E-05 8.34307E-09 6.61984E-19 1.37724E-18
 -1      1493 9.52151E-05-2.85656E-05-2.85640E-05 1.86607E-08 5.21957E-19-7.28608E-19
 -1      1494 9.52285E-05-2.85696E-05-2.85680E-05 5.50513E-09-3.59105E-19 2.29160E-18
 -1      1495 9.52333E-05-2.85712E-05-2.85694E-05 4.67883E-09-4.76373E-19 2.09050E-18
 -1      1496 9.52264E-05-2.85698E-05-2.85670E-05 1.34097E-08 7.02408E-19 2.60342E-19
 -1      1497 9.52369E-05-2.85718E-05-2.85707E-05 3.15702E-10-1.90036E-18 1.99883E-18
 -1      1498 9.52353E-05-2.85730E-05-2.85694E-05 4.77178E-09-1.88700E-18 1.85492E-18
 -1      1499 9.94404E-05-2.92450E-05-3.06000E-05 2.29200E-06 1.55393E-18 1.21180E-17
 -1      1500 1.04560E-04-3.00079E-05-3.27556E-05 3.71286E-06 1.31587E-18 1.45012E-17
 -1      1501 1.04528E-04-2.74976E-05-3.33322E-05 1.13625E-05 2.60039E-18 9.35363E-18
 -1      1502 9.62260E-05-2.86879E-05-2.90120E-05 4.73859E-07 1.09451E-18 9.10698E-18
 -1      1503 9.74251E-05-2.86186E-05-2.96971E-05 7.99307E-07 1.11120E-18 1.09225E-17
 -1      1504 9.97704E-05-2.90451E-05-3.05102E-05 3.55156E-06 2.30854E-18 7.31830E-18
 -1      1505 9.57965E-05-2.86727E-05-2.87471E-05-3.92383E-07 7.66618E-19 6.97923E-18
 -1      1506 9.56445E-05-2.84545E-05-2.87861E-05-2.07435E-07 7.64771E-19 8.26974E-18
 -1      1507 9.75212E-05-2.89129E-05-2.94531E-05 5.07512E-07 1.73950E-18 5.34177E-18
 -1      1508 9.68150E-05-2.90130E-05-2.90361E-05-8.55422E-07 6.30795E-19 5.38051E-18
 -1      1509 9.60147E-05-2.86875E-05-2.88136E-05-7.36224E-07 5.99054E-19 6.36519E-18
 -1      1510 9.72754E-05-2.90168E-05-2.92713E-05-9.43099E-07 1.29467E-18 3.98648E-18
 -1      1511 9.86200E-05-2.95738E-05-2.95766E-05-1.10885E-06 2.57271E-19 4.37621E-18
 -1      1512 9.74773E-05-2.91764E-05-2.92419E-05-1.03030E-06 2.95952E-19 4.92822E-18
 -1      1513 9.81760E-05-2.93660E-05-2.95046E-05-1.72941E-06 8.73033E-19 3.01799E-18
 -1      1514 1.00808E-04-3.02529E-05-3.02250E-05-1.20152E-06 2.58906E-19 3.73552E-18
 -1      1515 9.95142E-05-2.98257E-05-2.98482E-05-1.15973E-06 1.78368E-19 4.08791E-18
 -1      1516 9.97193E-05-2.98857E-05-2.99405E-05-2.12616E-06 4.47475E-19 2.49232E-18
 -1      1517 1.03027E-04-3.09503E-05-3.08731E-05-1.12288E-06 2.55029E-19 3.10330E-18
 -1      1518 1.01763E-04-3.05455E-05-3.05095E-05-1.12569E-06 2.33633E-19 3.55248E-18
 -1      1519 1.01546E-04-3.04952E-05-3.04546E-05-2.19221E-06 4.40284E-19 2.01407E-18
 -1      1520 1.04892E-04-3.15508E-05-3.14056E-05-8.36182E-07 2.52798E-19 2.75248E-18
 -1      1521 1.03869E-04-3.12362E-05-3.11180E-05-8.98046E-07 1.00610E-19 3.00542E-18
 -1      1522 1.03326E-04-3.11068E-05-3.09430E-05-1.89581E-06 2.19378E-19 1.73818E-18
 -1      1523 1.05956E-04-3.19159E-05-3.16928E-05-3.05769E-07 4.30690E-19 1.84916E-18
 -1      1524 1.05429E-04-3.17753E-05-3.15541E-05-4.41605E-07 4.10612E-19 2.50475E-18
 -1      1525 1.04709E-04-3.16155E-05-3.13003E-05-1.17479E-06 6.30298E-19 1.36291E-18
 -1      1526 1.05757E-04-3.18931E-05-3.16063E-05 4.64020E-07 2.44392E-19 1.66211E-18
 -1      1527 1.05991E-04-3.20154E-05-3.16890E-05 2.49947E-07 2.19931E-19 1.90095E-18
 -1      1528 1.05314E-04-3.18936E-05-3.14213E-05 1.80500E-09 4.55988E-19 1.04382E-18
 -1      1529 1.03945E-04-3.13528E-05-3.10591E-05 1.37725E-06 1.34149E-19 1.28360E-18
 -1      1530 1.05136E-04-3.18024E-05-3.14108E-05 1.10747E-06 1.66396E-19 1.54913E-18
 -1      1531 1.04791E-04-3.18007E-05-3.12214E-05 1.55081E-06 3.18074E-19 1.23950E-18
 -1      1532 1.00491E-04-3.02605E-05-3.00648E-05 2.20585E-06 1.54855E-19 9.88143E-19
 -1      1533 1.02634E-04-3.10294E-05-3.06723E-05 1.94339E-06 6.64061E-21 1.02607E-18
 -1      1534 1.02940E-04-3.12236E-05-3.06731E-05 3.18724E-06 7.61403E-20 1.44483E-18
 -1      1535 9.59158E-05-2.87639E-05-2.87874E-05 2.61335E-06 1.29978E-19 3.74494E-19
 -1      1536 9.86743E-05-2.97233E-05-2.95477E-05 2.45625E-06 2.47864E-19 7.50127E-19
 -1      1537 9.98914E-05-3.01528E-05-2.98445E-05 4.39850E-06 3.68534E-19 7.53833E-19
 -1      1538 9.13469E-05-2.72343E-05-2.75414E-05 2.29265E-06 2.79269E-19-3.56416E-19
 -1      1539 9.40314E-05-2.81286E-05-2.82642E-05 2.33381E-06 3.20595E-19 2.19170E-19
 -1      1540 9.62492E-05-2.87712E-05-2.89152E-05 4.57853E-06 5.14235E-19 8.02167E-20
 -1      1541 8.82361E-05-2.61794E-05-2.67048E-05 1.18337E-06-4.33601E-19-2.06861E-19
 -1      1542 8.99903E-05-2.67028E-05-2.71676E-05 1.44739E-06-1.20325E-19-4.44931E-19
 -1      1543 9.30463E-05-2.74796E-05-2.81416E-05 3.35123E-06 8.47033E-21 5.54251E-19
 -1      1544 8.77391E-05-2.60143E-05-2.65674E-05-3.93742E-07-2.15457E-19 3.92666E-19
 -1      1545 8.79139E-05-2.59573E-05-2.66079E-05 1.17052E-08-3.02252E-19-2.40240E-19
 -1      1546 9.13993E-05-2.67699E-05-2.77699E-05 9.14047E-07-4.07370E-19 5.92969E-19
 -1      1547 9.01065E-05-2.68248E-05-2.71934E-05-1.85569E-06 6.18427E-19-3.15387E-19
 -1      1548 8.86022E-05-2.61958E-05-2.67885E-05-1.46149E-06 3.26042E-19 1.08129E-20
 -1      1549 9.19724E-05-2.69640E-05-2.79335E-05-1.91652E-06 4.23119E-19-4.73789E-19
 -1      1550 9.45430E-05-2.83150E-05-2.83915E-05-2.68790E-06-9.60787E-20-1.58009E-18
 -1      1551 9.18640E-05-2.73364E-05-2.76675E-05-2.43997E-06 4.42330E-19-9.27766E-19
 -1      1552 9.46069E-05-2.80047E-05-2.85941E-05-4.10891E-06 8.81808E-19-1.03245E-18
 -1      1553 9.96535E-05-2.99882E-05-2.98090E-05-2.71864E-06 4.69797E-20-1.14876E-18
 -1      1554 9.66301E-05-2.89682E-05-2.89790E-05-2.66463E-06-3.25091E-19-1.32047E-18
 -1      1555 9.84165E-05-2.94890E-05-2.95603E-05-4.99179E-06-3.60737E-19-1.49384E-18
 -1      1556 1.04119E-04-3.14020E-05-3.10899E-05-2.12925E-06 4.96937E-20-9.33351E-19
 -1      1557 1.01514E-04-3.05881E-05-3.03584E-05-2.22934E-06 2.04558E-19-7.54971E-19
 -1      1558 1.02269E-04-3.09209E-05-3.05735E-05-4.54114E-06 1.56767E-19-1.61022E-18
 -1      1559 1.07150E-04-3.23183E-05-3.19980E-05-1.26164E-06 4.62192E-19-1.31575E-18
 -1      1560 1.05403E-04-3.18254E-05-3.14927E-05-1.43689E-06 1.97511E-19-9.64903E-19
 -1      1561 1.05280E-04-3.19549E-05-3.14077E-05-3.22405E-06 1.49998E-19-1.42755E-18
 -1      1562 1.08558E-04-3.27063E-05-3.24538E-05-4.16844E-07 6.93081E-19-3.41384E-18
 -1      1563 1.07759E-04-3.25291E-05-3.22100E-05-5.97175E-07 6.89366E-19-1.88628E-18
 -1      1564 1.07035E-04-3.24780E-05-3.19326E-05-1.63547E-06 1.01362E-18-2.09944E-18
 -1      1565 1.08574E-04-3.26626E-05-3.25017E-05 2.36289E-07 1.85374E-19-3.86271E-18
 -1      1566 1.08572E-04-3.27289E-05-3.24862E-05 9.11154E-08 1.31651E-19-3.73322E-18
 -1      1567 1.07544E-04-3.25497E-05-3.21227E-05-2.21244E-07 6.55418E-19-3.08785E-18
 -1      1568 1.07607E-04-3.23284E-05-3.22497E-05 6.51593E-07-3.83724E-19-3.72297E-18
 -1      1569 1.08155E-04-3.25483E-05-3.23969E-05 5.54298E-07-2.18013E-19-4.07049E-18
 -1      1570 1.07065E-04-3.23022E-05-3.20281E-05 8.05337E-07-2.05968E-20-3.76067E-18
 -1      1571 1.06078E-04-3.18366E-05-3.18175E-05 8.56607E-07-6.43994E-19-2.36428E-18
 -1      1572 1.06932E-04-3.21315E-05-3.20588E-05 8.03256E-07-4.41851E-19-2.95757E-18
 -1      1573 1.05934E-04-3.18708E-05-3.17333E-05 1.41532E-06-1.02917E-18-2.45538E-18
 -1      1574 1.04322E-04-3.12891E-05-3.13068E-05 9.07208E-07-6.75227E-19-4.04246E-19
 -1      1575 1.05290E-04-3.16023E-05-3.15859E-05 8.87145E-07-5.37526E-19-1.63512E-18
 -1      1576 1.04465E-04-3.13623E-05-3.13252E-05 1.67929E-06-9.57782E-19-7.81368E-19
 -1      1577 1.02574E-04-3.07537E-05-3.07901E-05 8.59915E-07 5.98653E-19-1.70448E-18
 -1      1578 1.03527E-04-3.10499E-05-3.10681E-05 8.61829E-07 5.10803E-19-5.85604E-19
 -1      1579 1.02896E-04-3.08490E-05-3.08756E-05 1.69926E-06 3.05737E-19-1.01414E-18
 -1      1580 1.00975E-04-3.02693E-05-3.03123E-05 7.60010E-07 1.75030E-19-2.85222E-18
 -1      1581 1.01837E-04-3.05299E-05-3.05661E-05 7.74581E-07 1.12987E-19-2.32293E-18
 -1      1582 1.01388E-04-3.03739E-05-3.04346E-05 1.57037E-06 6.29332E-19-1.40092E-18
 -1      1583 9.95909E-05-2.98539E-05-2.98964E-05 6.39133E-07-3.05693E-19-2.35047E-18
 -1      1584 1.00329E-04-3.00720E-05-3.01148E-05 6.59667E-07-1.37948E-19-2.52913E-18
 -1      1585 1.00034E-04-2.99588E-05-3.00331E-05 1.36604E-06-9.36914E-20-1.77559E-18
 -1      1586 9.84445E-05-2.95120E-05-2.95501E-05 5.17127E-07 9.07425E-20-2.31949E-18
 -1      1587 9.90493E-05-2.96874E-05-2.97299E-05 5.39275E-07 1.02295E-19-2.02584E-18
 -1      1588 9.88745E-05-2.96108E-05-2.96860E-05 1.13640E-06-3.53297E-19-1.34743E-18
 -1      1589 9.75268E-05-2.92397E-05-2.92719E-05 4.05072E-07-1.30162E-18-1.40684E-19
 -1      1590 9.80057E-05-2.93763E-05-2.94148E-05 4.26265E-07-1.09211E-18-1.75685E-18
 -1      1591 9.79195E-05-2.93288E-05-2.93978E-05 9.12184E-07-1.30586E-18-8.67755E-19
 -1      1592 9.68140E-05-2.90291E-05-2.90552E-05 3.08138E-07 1.77630E-19 1.29120E-18
 -1      1593 9.71817E-05-2.91323E-05-2.91653E-05 3.27040E-07-4.83514E-19 4.26298E-19
 -1      1594 9.71570E-05-2.91067E-05-2.91662E-05 7.10041E-07-1.31152E-18-1.23484E-19
 -1      1595 9.62756E-05-2.88707E-05-2.88911E-05 2.27802E-07 2.53097E-19 1.20703E-18
 -1      1596 9.65499E-05-2.89464E-05-2.89735E-05 2.43877E-07 2.35428E-19 1.30756E-18
 -1      1597 9.65652E-05-2.89363E-05-2.89855E-05 5.37208E-07 1.66990E-19-8.34177E-19
 -1      1598 9.58802E-05-2.87548E-05-2.87703E-05 1.63426E-07 5.41777E-19 7.29077E-19
 -1      1599 9.60789E-05-2.88087E-05-2.88302E-05 1.76616E-07 3.41205E-19 1.57567E-18
 -1      1600 9.61179E-05-2.88089E-05-2.88482E-05 3.95122E-07 5.82001E-19-2.39086E-19
 -1      1601 9.55985E-05-2.86726E-05-2.86841E-05 1.13290E-07 1.29717E-18-2.50459E-18
 -1      1602 9.57377E-05-2.87095E-05-2.87262E-05 1.23803E-07 1.47273E-18 2.54191E-19
 -1      1603 9.57887E-05-2.87161E-05-2.87467E-05 2.81945E-07 2.29835E-18 4.93740E-20
 -1      1604 9.54047E-05-2.86163E-05-2.86246E-05 7.52435E-08-1.02513E-19-2.60020E-18
 -1      1605 9.54984E-05-2.86405E-05-2.86531E-05 8.34155E-08 1.30165E-20-2.24087E-18
 -1      1606 9.55534E-05-2.86506E-05-2.86737E-05 1.94226E-07 5.52935E-19-1.00415E-19
 -1      1607 9.52774E-05-2.85796E-05-2.85853E-05 4.70852E-08-1.08023E-18-6.25599E-19
 -1      1608 9.53372E-05-2.85944E-05-2.86036E-05 5.32936E-08-1.27500E-18-2.30035E-18
 -1      1609 9.53910E-05-2.86060E-05-2.86230E-05 1.27931E-07-1.28264E-18 4.94366E-19
 -1      1610 9.51990E-05-2.85572E-05-2.85611E-05 2.67749E-08 1.15014E-18-1.27813E-18
 -1      1611 9.52341E-05-2.85653E-05-2.85719E-05 3.13895E-08 3.15173E-19-5.99332E-19
 -1      1612 9.52836E-05-2.85770E-05-2.85892E-05 7.90505E-08-2.39204E-20-8.59721E-19
 -1      1613 9.51557E-05-2.85450E-05-2.85475E-05 1.25308E-08-3.41269E-19-1.33446E-18
 -1      1614 9.51734E-05-2.85485E-05-2.85531E-05 1.58872E-08 2.70212E-19-1.41668E-18
 -1      1615 9.52169E-05-2.85595E-05-2.85680E-05 4.39249E-08 6.87525E-19-1.45409E-18
 -1      1616 9.51369E-05-2.85400E-05-2.85415E-05 2.86331E-09-7.72638E-19-9.92337E-19
 -1      1617 9.51427E-05-2.85404E-05-2.85435E-05 5.25086E-09-1.91667E-19-1.15744E-18
 -1      1618 9.51796E-05-2.85502E-05-2.85559E-05 1.93904E-08-5.06645E-19 2.33670E-19
 -1      1619 9.51346E-05-2.85398E-05-2.85406E-05-3.42775E-09 4.57288E-19-5.38874E-19
 -1      1620 9.51325E-05-2.85381E-05-2.85401E-05-1.76993E-09-7.09933E-20-6.17981E-19
 -1      1621 9.51628E-05-2.85465E-05-2.85502E-05 2.82489E-09-3.47863E-19-5.32761E-20
 -1      1622 9.51430E-05-2.85426E-05-2.85429E-05-7.27425E-09 4.50477E-19-2.39977E-18
 -1      1623 9.51360E-05-2.85398E-05-2.85410E-05-6.15642E-09 2.75988E-19-1.35808E-18
 -1      1624 9.51599E-05-2.85466E-05-2.85488E-05-7.86624E-09 4.22609E-19 9.59461E-19
 -1      1625 9.51578E-05-2.85472E-05-2.85472E-05-9.36583E-09 5.05394E-19-4.35791E-18
 -1      1626 9.51480E-05-2.85438E-05-2.85444E-05-8.64557E-09 9.59561E-19-3.05708E-18
 -1      1627 9.51660E-05-2.85491E-05-2.85503E-05-1.42896E-08 1.47781E-18-1.65106E-19
 -1      1628 9.51758E-05-2.85528E-05-2.85526E-05-1.01716E-08-7.12787E-19-2.64420E-18
 -1      1629 9.51647E-05-2.85491E-05-2.85494E-05-9.75336E-09-9.68937E-19-4.18164E-18
 -1      1630 9.51775E-05-2.85530E-05-2.85535E-05-1.76087E-08-6.84461E-19-1.43476E-19
 -1      1631 9.51946E-05-2.85586E-05-2.85581E-05-9.95019E-09 5.27147E-19-3.42431E-18
 -1      1632 9.51834E-05-2.85550E-05-2.85549E-05-9.78834E-09 5.13175E-19-2.45752E-18
 -1      1633 9.51916E-05-2.85576E-05-2.85575E-05-1.85769E-08 4.90679E-19-7.20064E-19
 -1      1634 9.52121E-05-2.85640E-05-2.85633E-05-8.74901E-09-2.18457E-19-3.20432E-18
 -1      1635 9.52020E-05-2.85608E-05-2.85604E-05-8.85597E-09 2.80423E-19-2.91509E-18
 -1      1636 9.52062E-05-2.85624E-05-2.85617E-05-1.75526E-08 7.75906E-19 8.59468E-19
 -1      1637 9.52262E-05-2.85685E-05-2.85674E-05-6.38728E-09 2.72415E-19-2.57693E-18
 -1      1638 9.52184E-05-2.85661E-05-2.85651E-05-6.86821E-09-5.89187E-19-3.17833E-18
 -1      1639 9.52195E-05-2.85668E-05-2.85654E-05-1.45125E-08-7.57921E-19-5.35710E-19
 -1      1640 9.52348E-05-2.85713E-05-2.85700E-05-2.83337E-09 2.00459E-19-4.62242E-18
 -1      1641 9.52306E-05-2.85702E-05-2.85686E-05-3.67160E-09 8.68443E-19-3.36913E-18
 -1      1642 9.52299E-05-2.85706E-05-2.85682E-05-9.20232E-09 1.24285E-18-1.34195E-18
 -1      1643 9.52368E-05-2.85718E-05-2.85707E-05-4.80885E-10-2.74927E-18-3.57951E-18
 -1      1644 9.52388E-05-2.85797E-05-2.85681E-05-5.49293E-09-1.36060E-18 2.49812E-18
 -1      1645 9.52373E-05-2.85753E-05-2.85694E-05-4.54384E-09-3.64286E-18 3.91444E-20
 -1      1646 9.52430E-05-2.85917E-05-2.85648E-05-8.04769E-09 2.02566E-18 2.33153E-18
 -1      1647 9.52405E-05-2.85845E-05-2.85668E-05-7.69418E-09-1.38843E-18 3.49785E-18
 -1      1648 9.52389E-05-2.85821E-05-2.85671E-05-1.26453E-08 1.05527E-18 3.40509E-18
 -1      1649 9.52476E-05-2.86055E-05-2.85609E-05-8.79491E-09-3.38650E-19-2.60570E-18
 -1      1650 9.52448E-05-2.85973E-05-2.85632E-05-8.79543E-09 1.65482E-18-7.51812E-19
 -1      1651 9.52430E-05-2.85924E-05-2.85645E-05-1.61268E-08 5.02068E-19 3.15552E-19
 -1      1652 9.52519E-05-2.86189E-05-2.85570E-05-8.17249E-09 2.84709E-19 4.78737E-19
 -1      1653 9.52493E-05-2.86111E-05-2.85592E-05-8.40360E-09-5.08289E-19-1.66950E-19
 -1      1654 9.52471E-05-2.86035E-05-2.85616E-05-1.64943E-08-2.44071E-19-1.57245E-18
 -1      1655 9.52554E-05-2.86301E-05-2.85537E-05-6.67742E-09-9.33824E-19-1.39566E-19
 -1      1656 9.52534E-05-2.86238E-05-2.85555E-05-7.03222E-09-8.76531E-19-5.02506E-19
 -1      1657 9.52507E-05-2.86139E-05-2.85587E-05-1.46063E-08-1.10909E-18-6.18349E-19
 -1      1658 9.52580E-05-2.86386E-05-2.85512E-05-4.62126E-09 9.89233E-19 7.84180E-19
 -1      1659 9.52565E-05-2.86340E-05-2.85525E-05-5.05668E-09-4.21097E-20 3.05557E-19
 -1      1660 9.52535E-05-2.86225E-05-2.85563E-05-1.12884E-08-1.07188E-18 3.22152E-19
 -1      1661 9.52595E-05-2.86434E-05-2.85498E-05-2.27335E-09 1.58431E-18-1.39521E-19
 -1      1662 9.52587E-05-2.86410E-05-2.85505E-05-2.74357E-09 1.62302E-18 1.52356E-18
 -1      1663 9.52555E-05-2.86286E-05-2.85545E-05-7.09299E-09 2.48341E-19 1.84325E-18
 -1      1664 9.52597E-05-2.86443E-05-2.85495E-05 2.01578E-10 2.91987E-18 6.13244E-19
 -1      1665 9.52597E-05-2.86442E-05-2.85495E-05-2.80694E-10 1.72915E-18-1.38646E-19
 -1      1666 9.52565E-05-2.86318E-05-2.85536E-05-2.46119E-09 5.55786E-19 3.31389E-20
 -1      1667 9.52588E-05-2.86412E-05-2.85504E-05 2.68021E-09 1.49825E-18-1.73418E-18
 -1      1668 9.52595E-05-2.86435E-05-2.85497E-05 2.20480E-09 2.47624E-18 2.64024E-19
 -1      1669 9.52565E-05-2.86319E-05-2.85536E-05 2.31859E-09 9.55393E-19-5.60568E-19
 -1      1670 9.52566E-05-2.86342E-05-2.85525E-05 5.03038E-09 5.34944E-19-1.45530E-19
 -1      1671 9.52581E-05-2.86388E-05-2.85512E-05 4.58690E-09 2.16855E-18-1.46063E-18
 -1      1672 9.52556E-05-2.86288E-05-2.85545E-05 6.99872E-09 8.29488E-19-1.62360E-18
 -1      1673 9.52535E-05-2.86241E-05-2.85555E-05 7.03122E-09-1.37983E-18-3.90634E-19
 -1      1674 9.52555E-05-2.86304E-05-2.85536E-05 6.66936E-09-5.09075E-19-1.51365E-18
 -1      1675 9.52536E-05-2.86227E-05-2.85562E-05 1.12453E-08 8.37959E-19-2.69708E-18
 -1      1676 9.52494E-05-2.86113E-05-2.85592E-05 8.46178E-09-1.74905E-18-2.42895E-19
 -1      1677 9.52519E-05-2.86191E-05-2.85570E-05 8.22408E-09-2.36701E-18 2.07428E-18
 -1      1678 9.52508E-05-2.86141E-05-2.85586E-05 1.46546E-08-3.08095E-19 4.68749E-19
 -1      1679 9.52448E-05-2.85973E-05-2.85632E-05 8.89872E-09-2.67261E-18-9.17379E-19
 -1      1680 9.52476E-05-2.86056E-05-2.85609E-05 8.87171E-09-1.51803E-18-2.53845E-19
 -1      1681 9.52471E-05-2.86036E-05-2.85615E-05 1.66174E-08-1.95305E-18 5.76467E-20
 -1      1682 9.52405E-05-2.85846E-05-2.85668E-05 7.71918E-09-3.73031E-18-1.15759E-18
 -1      1683 9.52430E-05-2.85918E-05-2.85648E-05 8.07296E-09-2.16913E-18-1.76410E-18
 -1      1684 9.52430E-05-2.85924E-05-2.85645E-05 1.62495E-08-3.22206E-19-1.78307E-18
 -1      1685 9.52371E-05-2.85761E-05-2.85690E-05 6.44728E-09-2.29744E-18 3.04092E-19
 -1      1686 9.52386E-05-2.85806E-05-2.85677E-05 7.86302E-09-2.78793E-18-1.72094E-20
 -1      1687 9.52387E-05-2.85826E-05-2.85667E-05 1.47290E-08 2.85254E-20-1.24508E-18
 -1      1688 9.52335E-05-2.85751E-05-2.85678E-05 1.22903E-08-1.83079E-19 2.52482E-19
 -1      1689 2.05734E-05-6.63318E-05 1.38028E-05-4.78644E-06 8.71936E-18 5.48221E-18
 -1      1690 2.36452E-05-7.58305E-05 1.59183E-05 2.88438E-06 2.07015E-18 4.41410E-18
 -1      1691 1.90612E-05-4.17146E-05 5.21613E-06 9.88096E-07 1.45529E-17 8.42988E-18
 -1      1692 2.37901E-05-6.24137E-05 1.04319E-05-1.06947E-06 1.10453E-17 5.10377E-18
 -1      1693 3.09211E-05-1.52672E-05-9.00453E-06 2.38613E-05 1.68424E-17 1.28800E-17
 -1      1694 2.77098E-05-3.58549E-05-1.19089E-06 8.99336E-06 1.53550E-17 9.49143E-18
 -1      1695 6.53706E-05-2.03903E-06-2.68674E-05 5.38710E-05 1.58776E-17 1.53779E-17
 -1      1696 4.55632E-05-1.12235E-05-1.73395E-05 3.17708E-05 1.71982E-17 1.33391E-17
 -1      1697 1.20396E-04-9.07901E-06-4.49448E-05 7.59328E-05 1.25615E-17 1.65680E-17
 -1      1698 8.45792E-05-1.13002E-06-3.58576E-05 6.03813E-05 1.50899E-17 1.61529E-17
 -1      1699 1.85189E-04-3.33418E-05-6.02760E-05 7.24924E-05 8.21813E-18 1.25581E-17
 -1      1700 1.44298E-04-1.53038E-05-5.28120E-05 7.40681E-05 1.11580E-17 1.51229E-17
 -1      1701 2.36135E-04-5.62467E-05-7.08421E-05 4.53897E-05 4.52930E-18 6.58060E-18
 -1      1702 2.04901E-04-3.93651E-05-6.62460E-05 6.60683E-05 7.02699E-18 1.11029E-17
 -1      1703 2.53182E-04-6.39977E-05-7.46612E-05-3.36123E-06 3.92388E-18-2.87637E-18
 -1      1704 2.44939E-04-5.93236E-05-7.35040E-05 3.01710E-05 4.03781E-18 3.84087E-18
 -1      1705 2.32272E-04-5.25468E-05-7.12623E-05-4.99974E-05 6.51114E-18-1.23472E-17
 -1      1706 2.52047E-04-6.38328E-05-7.40511E-05-2.04058E-05 4.69129E-18-6.05671E-18
 -1      1707 1.78011E-04-2.70317E-05-6.08601E-05-7.44417E-05 1.02182E-17-1.78224E-17
 -1      1708 2.16836E-04-4.66746E-05-6.69705E-05-6.19736E-05 7.21021E-18-1.50399E-17
 -1      1709 1.17821E-04-1.12214E-05-4.45735E-05-6.46883E-05 1.32074E-17-1.66179E-17
 -1      1710 1.57064E-04-2.43192E-05-5.31926E-05-7.15635E-05 1.05345E-17-1.68576E-17
 -1      1711 6.77636E-05-5.28134E-06-2.78102E-05-4.67505E-05 1.51009E-17-1.53965E-17
 -1      1712 9.75311E-05-5.91378E-06-3.75413E-05-6.67897E-05 1.41488E-17-1.76369E-17
 -1      1713 1.32059E-04-3.38382E-05-4.05888E-05-4.19433E-05 7.69445E-18-9.70192E-18
 -1      1714 3.23519E-05-2.23205E-05-8.22083E-06-1.75219E-05 1.41192E-17-1.03321E-17
 -1      1715 4.22330E-05-4.89021E-06-1.71355E-05-3.80163E-05 1.54507E-17-1.46604E-17
 -1      1716 2.50854E-05-5.22242E-05 5.99815E-06-1.71221E-06 1.00992E-17-5.85882E-18
 -1      1717 2.29257E-05-2.92918E-05-8.01188E-07-1.03641E-05 1.30375E-17-8.50400E-18
 -1      1718 2.46937E-05-7.53947E-05 1.49412E-05 2.48735E-07 3.87263E-18-3.33053E-18
 -1      1719 1.94826E-05-5.88111E-05 1.12833E-05 5.00450E-06 8.62195E-18-4.93016E-18
 -1      1720 2.29850E-05-7.64726E-05 1.62934E-05-6.14075E-06-4.11150E-18-3.48787E-18
 -1      1721 2.36070E-05-7.78141E-05 1.65243E-05 3.59727E-06 1.60312E-18-3.25451E-18
 -1      1722 1.93465E-05-5.45298E-05 9.68453E-06-4.71936E-06-1.10131E-17-6.40023E-18
 -1      1723 2.45272E-05-7.26389E-05 1.39793E-05-2.03666E-06-6.05120E-18-3.89042E-18
 -1      1724 2.40489E-05-2.44727E-05-3.38211E-06 1.22390E-05-1.54956E-17-1.07683E-17
 -1      1725 2.48130E-05-4.81562E-05 4.13527E-06 5.46864E-07-1.26750E-17-7.39862E-18
 -1      1726 6.11800E-05-1.08801E-05-2.22064E-05 4.55949E-05-1.48375E-17-1.46774E-17
 -1      1727 4.42126E-05-2.38977E-05-1.22265E-05 2.35692E-05-1.44131E-17-1.14061E-17
 -1      1728 1.18743E-04-1.51163E-05-4.22770E-05 6.81315E-05-1.26835E-17-1.52661E-17
 -1      1729 8.26112E-05-1.05660E-05-3.19080E-05 4.96861E-05-1.45630E-17-1.47706E-17
 -1      1730 1.91242E-04-3.71097E-05-6.11448E-05 6.81976E-05-7.87148E-18-1.26301E-17
 -1      1731 1.41933E-04-1.67506E-05-5.18314E-05 6.87025E-05-1.20905E-17-1.48476E-17
 -1      1732 2.47037E-04-6.04655E-05-7.32241E-05 3.46277E-05-4.64936E-18-6.20155E-18
 -1      1733 2.12714E-04-4.24849E-05-6.81759E-05 6.03819E-05-6.64084E-18-1.11326E-17
 -1      1734 2.60746E-04-6.62296E-05-7.61789E-05-1.71784E-05-3.91181E-18 2.03500E-18
 -1      1735 2.59564E-04-6.56194E-05-7.61280E-05 2.02263E-05-3.69137E-18-3.97153E-18
 -1      1736 2.22753E-04-4.74315E-05-6.95900E-05-5.98629E-05-6.52702E-18 1.07133E-17
 -1      1737 2.52858E-04-6.35351E-05-7.39912E-05-3.37550E-05-4.43358E-18 4.98733E-18
 -1      1738 1.56947E-04-2.00047E-05-5.57893E-05-7.48184E-05-1.27597E-17 1.74845E-17
 -1      1739 2.02509E-04-4.04887E-05-6.36825E-05-7.02062E-05-8.58171E-18 1.26598E-17
 -1      1740 9.46802E-05-8.00282E-06-3.73124E-05-5.75573E-05-1.72524E-17 1.81172E-17
 -1      1741 1.33760E-04-1.68436E-05-4.70653E-05-7.26944E-05-1.39557E-17 1.77928E-17
 -1      1742 5.33302E-05-1.81324E-05-1.78429E-05-3.08701E-05-1.76488E-17 1.54245E-17
 -1      1743 7.54621E-05-1.00445E-05-2.78415E-05-5.27568E-05-1.70660E-17 1.80105E-17
 -1      1744 2.88904E-05-3.94498E-05-4.84786E-07-7.18413E-06-1.75099E-17 1.04693E-17
 -1      1745 3.29128E-05-1.81381E-05-8.85591E-06-2.31044E-05-1.88770E-17 1.45317E-17
 -1      1746 2.38839E-05-6.57429E-05 1.14919E-05 3.58721E-06-1.12897E-17 6.69558E-18
 -1      1747 1.86897E-05-4.49166E-05 6.33375E-06 2.37522E-06-1.66645E-17 1.01568E-17
 -1      1748 2.35171E-05-7.61420E-05 1.61095E-05-8.80123E-07-7.25484E-19 4.79548E-18
 -1      1749 2.09059E-05-6.88401E-05 1.44980E-05 7.16557E-06-8.14083E-18 5.42016E-18
 -1      1750 1.03464E-04-3.00599E-05-3.10710E-05 4.59157E-05 9.62611E-18 9.36564E-18
 -1      1751 6.61587E-05-3.54116E-05-1.46609E-05 3.87674E-05 9.35463E-18 8.70750E-18
 -1      1752 9.52362E-05-2.85727E-05-2.85699E-05-2.86362E-09-3.59309E-18-2.06130E-18
 -1      1753 9.52354E-05-2.85748E-05-2.85687E-05-7.82647E-09 1.02773E-19 6.96504E-19
 -1      1754 1.80744E-05-4.81633E-05 8.64910E-06 1.39568E-05 4.22966E-18 7.25060E-18
 -1      1755 3.61842E-05-4.17462E-05-7.05825E-07 2.71572E-05 7.60890E-18 8.06677E-18
 -1      1756 1.17507E-05-5.03283E-05 1.20162E-05 1.84187E-06-6.65980E-19 9.05521E-18
 -1      1757 1.45104E-04-2.91962E-05-4.71923E-05 4.58528E-05 8.92392E-18 8.29415E-18
 -1      1758 1.81894E-04-3.17115E-05-6.02659E-05 3.51044E-05 7.86248E-18 5.80726E-18
 -1      1759 2.06208E-04-3.40461E-05-6.85319E-05 1.79982E-05 7.18326E-18 2.24125E-18
 -1      1760 2.11686E-04-3.42969E-05-7.04722E-05-5.91058E-06 7.64490E-18-3.25525E-18
 -1      1761 1.99038E-04-3.37869E-05-6.58246E-05-2.75257E-05 8.30092E-18-7.91552E-18
 -1      1762 1.65873E-04-3.24144E-05-5.42643E-05-3.64927E-05 7.96698E-18-9.72394E-18
 -1      1763 4.83559E-05-3.88473E-05-6.59231E-06-3.25235E-05 7.04223E-18-8.08324E-18
 -1      1764 2.50370E-05-4.66224E-05 5.40379E-06-2.02021E-05 4.43041E-18-6.89993E-18
 -1      1765 1.37321E-05-5.30922E-05 1.19987E-05-6.16255E-06 1.25213E-18-6.10372E-18
 -1      1766 1.42047E-05-5.14963E-05 1.12668E-05 6.81433E-06-2.87229E-18-6.59161E-18
 -1      1767 2.81816E-05-4.62535E-05 3.83166E-06 2.00926E-05-6.16809E-18-7.46162E-18
 -1      1768 6.05530E-05-4.12663E-05-1.00891E-05 3.56239E-05-7.42340E-18-8.59611E-18
 -1      1769 1.05446E-04-4.16322E-05-2.73637E-05 4.08138E-05-7.25230E-18-8.20224E-18
 -1      1770 1.48111E-04-3.79011E-05-4.53847E-05 3.66879E-05-8.39516E-18-6.61872E-18
 -1      1771 1.85902E-04-3.40046E-05-6.10647E-05 2.70858E-05-7.45347E-18-5.79371E-18
 -1      1772 2.13031E-04-3.53877E-05-7.04944E-05 1.11645E-05-6.93551E-18-2.83290E-18
 -1      1773 2.17874E-04-3.76355E-05-7.12265E-05-1.04887E-05-7.23705E-18 1.71185E-18
 -1      1774 1.94743E-04-3.53933E-05-6.34985E-05-3.14764E-05-9.01455E-18 5.66326E-18
 -1      1775 1.55867E-04-3.47857E-05-4.94796E-05-4.00901E-05-1.02216E-17 8.19674E-18
 -1      1776 1.15319E-04-3.94506E-05-3.22469E-05-4.04055E-05-9.37200E-18 9.43934E-18
 -1      1777 7.38471E-05-4.15476E-05-1.50899E-05-3.80483E-05-9.10899E-18 1.04570E-17
 -1      1778 3.66911E-05-4.38995E-05-8.70940E-08-2.53860E-05-9.36988E-18 9.54576E-18
 -1      1779 1.71311E-05-4.93102E-05 9.34701E-06-1.03946E-05-5.73018E-18 9.39444E-18
 -1      1780 1.07798E-04-2.38204E-05-3.60845E-05-1.53371E-05-2.14945E-18 9.05436E-18
 -1      1781 8.77999E-05-3.28949E-05-2.39127E-05-4.36430E-05 8.22977E-18-1.08708E-17
 -1      1782 9.02552E-05-1.05916E-05-3.42749E-05-1.03428E-05-2.90773E-18-2.85365E-18
 -1      1783 9.21110E-05-1.18884E-05-3.45068E-05-1.21827E-05-3.27759E-18-1.87300E-18
 -1      1784 9.45801E-05-1.44624E-05-3.45007E-05-1.32458E-05-3.25703E-18-6.30060E-19
 -1      1785 9.66205E-05-1.66117E-05-3.47628E-05-1.50650E-05-3.43142E-18 1.01125E-18
 -1      1786 9.53585E-05-1.67240E-05-3.37058E-05-1.07364E-05-3.46542E-18-1.12017E-18
 -1      1787 8.49164E-05-6.44005E-06-3.37072E-05-5.43704E-06-1.67966E-18-4.46067E-18
 -1      1788 8.58696E-05-6.94871E-06-3.38694E-05-6.59407E-06-2.05973E-18-4.24766E-18
 -1      1789 8.33165E-05-5.33465E-06-3.34787E-05-3.57384E-06-1.07091E-18-4.67843E-18
 -1      1790 8.39855E-05-5.66888E-06-3.36015E-05-4.53903E-06-1.39033E-18-4.61706E-18
 -1      1791 8.57110E-05-8.04616E-06-3.33063E-05-4.55734E-06-1.67862E-18-4.34680E-18
 -1      1792 8.23516E-05-4.69574E-06-3.33272E-05-1.98687E-06-4.13872E-19-4.71954E-18
 -1      1793 8.27263E-05-4.87203E-06-3.34014E-05-2.82236E-06-7.59458E-19-4.68645E-18
 -1      1794 8.40998E-05-6.83116E-06-3.31352E-05-2.95003E-06-9.99119E-19-4.50091E-18
 -1      1795 8.20126E-05-4.47862E-06-3.32669E-05-5.27533E-07 2.05165E-19-4.72975E-18
 -1      1796 8.20963E-05-4.51063E-06-3.32884E-05-1.31257E-06-1.01542E-19-4.76869E-18
 -1      1797 8.32075E-05-6.19427E-06-3.30252E-05-1.55377E-06-2.49442E-19-4.59525E-18
 -1      1798 8.22778E-05-4.65245E-06-3.33015E-05 9.52717E-07 7.37666E-19-4.60297E-18
 -1      1799 8.20825E-05-4.55009E-06-3.32705E-05 1.43431E-07 4.78845E-19-4.67902E-18
 -1      1800 8.30191E-05-6.08591E-06-3.29916E-05-2.30517E-07 3.40848E-19-4.56911E-18
 -1      1801 8.31078E-05-5.19485E-06-3.34243E-05 2.59106E-06 1.30517E-18-4.43853E-18
 -1      1802 8.26535E-05-4.96405E-06-3.33452E-05 1.68890E-06 1.04573E-18-4.54053E-18
 -1      1803 8.35018E-05-6.46887E-06-3.30364E-05 1.15764E-06 9.58315E-19-4.40034E-18
 -1      1804 8.44341E-05-6.08167E-06-3.36169E-05 4.47239E-06 1.90363E-18-4.06170E-18
 -1      1805 8.37537E-05-5.72962E-06-3.34992E-05 3.43459E-06 1.57368E-18-4.31373E-18
 -1      1806 8.45977E-05-7.30975E-06-3.31481E-05 2.71622E-06 1.57665E-18-4.19029E-18
 -1      1807 8.62978E-05-7.38933E-06-3.38671E-05 6.76214E-06 2.60386E-18-3.38154E-18
 -1      1808 8.53621E-05-6.87446E-06-3.37135E-05 5.49096E-06 2.21991E-18-3.77406E-18
 -1      1809 8.62708E-05-8.61948E-06-3.33067E-05 4.54649E-06 2.24872E-18-3.71331E-18
 -1      1810 8.87858E-05-9.27814E-06-3.41530E-05 9.50740E-06 3.20777E-18-2.38585E-18
 -1      1811 8.75369E-05-8.51489E-06-3.39673E-05 7.95343E-06 2.87847E-18-2.97512E-18
 -1      1812 8.85614E-05-1.05010E-05-3.34825E-05 6.70481E-06 2.90512E-18-2.92426E-18
 -1      1813 9.22659E-05-1.22366E-05-3.44463E-05 1.26668E-05 3.69411E-18-5.82441E-19
 -1      1814 9.04682E-05-1.09440E-05-3.42266E-05 1.08035E-05 3.41039E-18-1.65838E-18
 -1      1815 9.16080E-05-1.31991E-05-3.36214E-05 9.10730E-06 3.50981E-18-1.79186E-18
 -1      1816 9.80492E-05-1.77762E-05-3.45940E-05 1.54249E-05 3.54417E-18 2.83772E-18
 -1      1817 9.48428E-05-1.49609E-05-3.44127E-05 1.37375E-05 3.56888E-18 7.83770E-19
 -1      1818 9.58471E-05-1.73894E-05-3.36129E-05 1.12322E-05 3.76323E-18 1.99741E-19
 -1      1819 1.04129E-04-2.58614E-05-3.39646E-05 1.26702E-05 3.07844E-18 7.11719E-18
 -1      1820 1.00331E-04-2.04153E-05-3.42515E-05 1.49207E-05 3.32884E-18 4.33310E-18
 -1      1821 9.97672E-05-2.26460E-05-3.31201E-05 1.09661E-05 3.65541E-18 2.87856E-18
 -1      1822 1.01433E-04-2.70045E-05-3.21010E-05 7.70242E-06 3.23418E-18 6.16259E-18
 -1      1823 1.02493E-04-2.04319E-05-3.48615E-05-1.67392E-05-2.96934E-18 3.91880E-18
 -1      1824 9.89361E-05-2.83547E-05-3.02691E-05 2.32900E-06 2.42115E-18 4.58957E-18
 -1      1825 1.00793E-04-2.83139E-05-3.10999E-05 4.68302E-06 2.67265E-18 5.56269E-18
 -1      1826 1.00486E-04-2.65228E-05-3.16981E-05 6.67883E-06 3.16187E-18 3.69097E-18
 -1      1827 8.65717E-05-4.38337E-05-1.93140E-05-3.89063E-05 4.31733E-18-7.49264E-18
 -1      1828 1.10464E-04-4.30642E-05-2.87242E-05-4.19131E-05 4.63031E-18-7.44203E-18
 -1      1829 1.02290E-04-2.33294E-05-3.35652E-05-1.20859E-05-3.19188E-18 2.69918E-18
 -1      1830 1.00547E-04-2.79214E-05-3.10068E-05-3.19529E-06-2.61138E-18 2.24773E-18
 -1      1831 9.94508E-05-2.81194E-05-3.05212E-05-1.24732E-06-2.24857E-18 1.52412E-18
 -1      1832 9.91151E-05-2.83983E-05-3.02081E-05 5.16730E-07-1.96050E-18 1.36616E-18
 -1      1833 9.91908E-05-2.86789E-05-3.01605E-05 1.62373E-06-1.75385E-18 7.59497E-19
 -1      1834 9.93619E-05-2.73364E-05-3.08999E-05-9.41832E-07-2.50853E-18 1.32806E-19
 -1      1835 9.92797E-05-2.88619E-05-3.01178E-05 2.83448E-06-1.46522E-18 7.28025E-19
 -1      1836 1.00010E-04-2.91991E-05-3.03002E-05 3.60734E-06-1.12323E-18 2.91948E-19
 -1      1837 9.92437E-05-2.81679E-05-3.04908E-05 2.44701E-06-1.86904E-18-1.23445E-19
 -1      1838 1.00487E-04-2.94207E-05-3.04233E-05 4.52001E-06-8.99827E-19 1.23185E-19
 -1      1839 1.01699E-04-2.98631E-05-3.07510E-05 5.12010E-06-7.37402E-19-1.54623E-19
 -1      1840 9.98973E-05-2.87658E-05-3.05117E-05 4.85017E-06-1.29845E-18-4.51262E-19
 -1      1841 1.02507E-04-3.01730E-05-3.09820E-05 5.83480E-06-6.76319E-19-7.11144E-20
 -1      1842 1.04079E-04-3.07407E-05-3.14075E-05 6.28868E-06-5.75862E-19-2.90718E-19
 -1      1843 1.01237E-04-2.94255E-05-3.08004E-05 6.69069E-06-8.49084E-19-6.12701E-19
 -1      1844 1.05176E-04-3.11791E-05-3.17037E-05 6.79088E-06-4.34078E-19-2.67153E-19
 -1      1845 1.06992E-04-3.18894E-05-3.21826E-05 7.03035E-06-3.98552E-19-2.46106E-19
 -1      1846 1.03190E-04-3.03140E-05-3.12545E-05 8.07230E-06-5.87818E-19-4.35428E-19
 -1      1847 1.08358E-04-3.25072E-05-3.25032E-05 7.19930E-06-5.56899E-19-2.28156E-19
 -1      1848 1.10256E-04-3.33670E-05-3.29773E-05 7.06451E-06-4.23227E-19-1.47245E-19
 -1      1849 1.05712E-04-3.15854E-05-3.17908E-05 8.85895E-06-4.31704E-19-3.67053E-19
 -1      1850 1.11880E-04-3.42172E-05-3.32804E-05 6.66973E-06-4.71632E-19 9.55625E-20
 -1      1851 1.13604E-04-3.51865E-05-3.36713E-05 5.92249E-06-2.29943E-19 3.35736E-20
 -1      1852 1.08788E-04-3.34025E-05-3.23323E-05 8.68307E-06-3.34901E-19-4.32276E-19
 -1      1853 1.15434E-04-3.62693E-05-3.39221E-05 4.65239E-06-2.31908E-19 8.81708E-20
 -1      1854 1.16603E-04-3.71825E-05-3.41403E-05 3.05836E-06-3.01425E-19-1.56268E-19
 -1      1855 1.12366E-04-3.58478E-05-3.28180E-05 6.96850E-06-3.47442E-19-1.65069E-19
 -1      1856 1.18433E-04-3.83145E-05-3.43330E-05 6.69016E-07-9.49868E-20-1.18254E-19
 -1      1857 1.18563E-04-3.87821E-05-3.43118E-05-1.77899E-06 3.07870E-19-2.28825E-19
 -1      1858 1.16183E-04-3.86603E-05-3.32392E-05 3.09583E-06-2.59199E-19 4.10447E-21
 -1      1859 1.19889E-04-3.94422E-05-3.44929E-05-5.10930E-06-4.49325E-21-1.80013E-19
 -1      1860 1.18555E-04-3.88413E-05-3.42423E-05-7.83955E-06-3.62332E-19-1.97279E-19
 -1      1861 1.19485E-04-4.08573E-05-3.36874E-05-3.08063E-06-3.51850E-20 3.06287E-19
 -1      1862 1.18589E-04-3.82168E-05-3.45032E-05-1.09727E-05-5.59306E-20-5.32440E-20
 -1      1863 1.15856E-04-3.61299E-05-3.41503E-05-1.25990E-05-2.38877E-19 3.30144E-19
 -1      1864 1.20867E-04-4.06100E-05-3.43526E-05-1.03239E-05-9.73294E-20 4.83221E-19
 -1      1865 1.14171E-04-3.38374E-05-3.45551E-05-1.33947E-05-7.59153E-19 8.26519E-20
 -1      1866 1.11028E-04-3.08854E-05-3.42725E-05-1.22771E-05-1.41632E-18-9.73294E-20
 -1      1867 1.18958E-04-3.62634E-05-3.54145E-05-1.50997E-05-7.08755E-19 3.80993E-19
 -1      1868 1.08787E-04-2.82176E-05-3.46555E-05-9.04725E-06-1.95860E-18-7.35370E-19
 -1      1869 1.07019E-04-2.63557E-05-3.45438E-05-4.97450E-06-1.98677E-18-1.41976E-18
 -1      1870 1.14491E-04-2.92207E-05-3.66485E-05-1.27997E-05-2.05326E-18-3.13607E-19
 -1      1871 1.06513E-04-2.57407E-05-3.46444E-05 1.02590E-06-2.16533E-18-2.35896E-18
 -1      1872 1.07394E-04-2.65850E-05-3.47238E-05 5.77627E-06-1.92274E-18-3.01905E-18
 -1      1873 1.11340E-04-2.46161E-05-3.73846E-05-2.39866E-06-2.76649E-18-1.77019E-18
 -1      1874 1.09258E-04-2.86862E-05-3.44686E-05 1.05567E-05-1.47768E-18-3.98359E-18
 -1      1875 1.12217E-04-3.15029E-05-3.47347E-05 1.30467E-05-1.10902E-18-4.57154E-18
 -1      1876 1.12897E-04-2.67046E-05-3.71186E-05 9.89690E-06-2.41891E-18-3.16283E-18
 -1      1877 1.14487E-04-3.42429E-05-3.43513E-05 1.38813E-05-9.80851E-19-5.23747E-18
 -1      1878 1.17747E-04-3.69143E-05-3.47423E-05 1.32718E-05-9.12981E-19-5.38316E-18
 -1      1879 1.17600E-04-3.34825E-05-3.60818E-05 1.59466E-05-1.44223E-18-4.97126E-18
 -1      1880 1.18579E-04-3.83087E-05-3.44521E-05 1.08384E-05-5.90078E-19-5.14997E-18
 -1      1881 1.20725E-04-3.95723E-05-3.48126E-05 8.38466E-06 9.54765E-20-4.84084E-18
 -1      1882 1.21109E-04-3.94131E-05-3.49639E-05 1.37067E-05-7.12419E-19-5.11908E-18
 -1      1883 1.19958E-04-3.93872E-05-3.46428E-05 4.93929E-06 6.54902E-19-4.49527E-18
 -1      1884 1.20585E-04-3.93386E-05-3.48181E-05 2.27593E-06 1.00864E-18-4.34890E-18
 -1      1885 1.21249E-04-4.13826E-05-3.41959E-05 6.96887E-06 4.19857E-19-4.10188E-18
 -1      1886 1.18987E-04-3.83433E-05-3.46770E-05-5.52466E-07 8.93580E-19-3.83753E-18
 -1      1887 1.18381E-04-3.76079E-05-3.46083E-05-2.50449E-06 3.52458E-19-3.50739E-18
 -1      1888 1.18761E-04-4.00277E-05-3.37456E-05 1.03885E-07 1.19688E-18-3.41987E-18
 -1      1889 1.16617E-04-3.64952E-05-3.44200E-05-4.20204E-06-2.59933E-20-2.40163E-18
 -1      1890 1.15268E-04-3.55809E-05-3.41459E-05-5.25887E-06 3.50599E-19-2.04991E-18
 -1      1891 1.15234E-04-3.73520E-05-3.33977E-05-4.72352E-06 8.89113E-19-2.35311E-18
 -1      1892 1.13644E-04-3.46617E-05-3.38923E-05-5.96840E-06 4.28221E-19-1.69329E-18
 -1      1893 1.11978E-04-3.38168E-05-3.34950E-05-6.31820E-06 9.43712E-19-1.18936E-18
 -1      1894 1.11712E-04-3.47611E-05-3.30004E-05-7.23928E-06 8.20907E-19-7.25695E-19
 -1      1895 1.10574E-04-3.31426E-05-3.31957E-05-6.37058E-06 9.43321E-19-1.11236E-18
 -1      1896 1.08877E-04-3.24439E-05-3.27548E-05-6.28151E-06 8.38374E-19-1.25613E-18
 -1      1897 1.08593E-04-3.27686E-05-3.25144E-05-7.99762E-06 1.05875E-18-4.90521E-19
 -1      1898 1.07688E-04-3.19697E-05-3.24412E-05-5.97366E-06 1.99433E-19-1.84361E-18
 -1      1899 1.06123E-04-3.14186E-05-3.20129E-05-5.66481E-06-3.30940E-19-2.17419E-18
 -1      1900 1.05946E-04-3.13873E-05-3.19687E-05-7.67467E-06 4.89584E-19-1.09531E-18
 -1      1901 1.05125E-04-3.10851E-05-3.17117E-05-5.20241E-06-6.38241E-19-2.77230E-18
 -1      1902 1.03768E-04-3.06594E-05-3.13276E-05-4.81612E-06-1.00254E-18-2.61445E-18
 -1      1903 1.03734E-04-3.04694E-05-3.14116E-05-6.80527E-06-6.02723E-19-2.08486E-18
 -1      1904 1.02938E-04-3.04203E-05-3.10557E-05-4.32147E-06-1.03787E-18-2.22752E-18
 -1      1905 1.01808E-04-3.00948E-05-3.07288E-05-3.93692E-06-8.08150E-19-2.95167E-18
 -1      1906 1.01900E-04-2.98630E-05-3.08840E-05-5.73855E-06-8.80069E-19-1.57845E-18
 -1      1907 1.01126E-04-2.99195E-05-3.04942E-05-3.47368E-06-1.52959E-19-2.97865E-18
 -1      1908 1.00213E-04-2.96726E-05-3.02261E-05-3.12837E-06 4.84124E-19-2.24277E-18
 -1      1909 1.00394E-04-2.94560E-05-3.04116E-05-4.67350E-06-4.80287E-19-9.83900E-19
 -1      1910 9.96605E-05-2.95419E-05-3.00304E-05-2.72410E-06 5.11656E-19-2.24420E-18
 -1      1911 9.89403E-05-2.93561E-05-2.98165E-05-2.43146E-06 2.60777E-20-1.64453E-18
 -1      1912 9.91702E-05-2.91764E-05-3.00060E-05-3.70850E-06 4.48747E-19-4.14033E-19
 -1      1913 9.84992E-05-2.92578E-05-2.96575E-05-2.09361E-06-6.95129E-20-9.50254E-19
 -1      1914 9.79420E-05-2.91195E-05-2.94905E-05-1.85450E-06 5.06573E-19-1.13582E-18
 -1      1915 9.81895E-05-2.89803E-05-2.96687E-05-2.88176E-06 9.02207E-19-2.61085E-19
 -1      1916 9.75953E-05-2.90456E-05-2.93642E-05-1.58034E-06 2.23396E-19-1.21655E-18
 -1      1917 9.71718E-05-2.89439E-05-2.92363E-05-1.38987E-06 2.53759E-19-9.74348E-19
 -1      1918 9.74147E-05-2.88408E-05-2.93953E-05-2.19872E-06 2.61172E-19-2.31161E-19
 -1      1919 9.69037E-05-2.88889E-05-2.91379E-05-1.17221E-06-3.81992E-21-1.59665E-18
 -1      1920 9.65874E-05-2.88153E-05-2.90416E-05-1.02341E-06-2.38046E-20-2.11604E-18
 -1      1921 9.68116E-05-2.87415E-05-2.91785E-05-1.64875E-06-3.98780E-19-4.66349E-19
 -1      1922 9.63834E-05-2.87748E-05-2.89663E-05-8.53650E-07-3.59114E-19-1.89906E-18
 -1      1923 9.61514E-05-2.87226E-05-2.88951E-05-7.39296E-07-1.26756E-19-1.63704E-18
 -1      1924 9.63497E-05-2.86713E-05-2.90096E-05-1.21469E-06-2.67331E-19-8.54207E-19
 -1      1925 9.59989E-05-2.86934E-05-2.88384E-05-6.08952E-07-4.77198E-19-1.50719E-18
 -1      1926 9.58321E-05-2.86573E-05-2.87868E-05-5.22391E-07-1.07516E-18-2.10087E-18
 -1      1927 9.60017E-05-2.86226E-05-2.88805E-05-8.77813E-07-2.16479E-19-7.92864E-19
 -1      1928 9.57202E-05-2.86368E-05-2.87450E-05-4.23804E-07-1.07015E-18-2.31443E-18
 -1      1929 9.56032E-05-2.86126E-05-2.87083E-05-3.59261E-07-5.71571E-19-1.69040E-18
 -1      1930 9.57443E-05-2.85898E-05-2.87834E-05-6.20362E-07-1.07262E-18-1.83793E-19
 -1      1931 9.55229E-05-2.85986E-05-2.86781E-05-2.85823E-07-5.24752E-19-1.81221E-18
 -1      1932 9.54431E-05-2.85831E-05-2.86528E-05-2.38457E-07-7.81404E-19-2.37558E-18
 -1      1933 9.55577E-05-2.85687E-05-2.87119E-05-4.26552E-07-6.70811E-19-1.20212E-19
 -1      1934 9.53870E-05-2.85740E-05-2.86314E-05-1.84636E-07-1.96193E-19-2.49928E-18
 -1      1935 9.53347E-05-2.85648E-05-2.86145E-05-1.50483E-07 1.79764E-19-1.95736E-18
 -1      1936 9.54256E-05-2.85560E-05-2.86602E-05-2.82909E-07-4.79691E-19-9.06833E-19
 -1      1937 9.52967E-05-2.85592E-05-2.85998E-05-1.11747E-07 8.46192E-19-2.02265E-18
 -1      1938 9.52644E-05-2.85544E-05-2.85891E-05-8.76135E-08 1.07348E-18-1.75371E-18
 -1      1939 9.53350E-05-2.85494E-05-2.86237E-05-1.78230E-07 4.26551E-19-2.16363E-18
 -1      1940 9.52399E-05-2.85514E-05-2.85794E-05-6.03130E-08 7.40203E-19-1.35124E-18
 -1      1941 9.52218E-05-2.85496E-05-2.85732E-05-4.36696E-08 2.99274E-19-1.19349E-18
 -1      1942 9.52752E-05-2.85469E-05-2.85988E-05-1.03385E-07 1.31690E-18-1.61707E-18
 -1      1943 9.52071E-05-2.85483E-05-2.85671E-05-2.49142E-08-6.17648E-19-1.03770E-18
 -1      1944 9.51989E-05-2.85485E-05-2.85640E-05-1.37878E-08 9.43087E-20-8.96273E-19
 -1      1945 9.52379E-05-2.85472E-05-2.85825E-05-5.10573E-08 5.74772E-20-7.40278E-19
 -1      1946 9.51910E-05-2.85484E-05-2.85605E-05-1.32922E-09 4.22989E-19-4.61980E-19
 -1      1947 9.51894E-05-2.85499E-05-2.85595E-05 5.78807E-09 1.36425E-18 2.50468E-19
 -1      1948 9.52168E-05-2.85492E-05-2.85723E-05-1.54886E-08 9.33673E-19-1.77888E-20
 -1      1949 9.51864E-05-2.85505E-05-2.85578E-05 1.36582E-08 2.83194E-18 4.90086E-19
 -1      1950 9.51891E-05-2.85527E-05-2.85582E-05 1.78853E-08 2.81841E-18 1.99487E-18
 -1      1951 9.52070E-05-2.85523E-05-2.85666E-05 7.76443E-09 2.40485E-18 1.75712E-18
 -1      1952 9.51891E-05-2.85539E-05-2.85578E-05 2.24209E-08 1.69674E-18 1.84655E-18
 -1      1953 9.51943E-05-2.85565E-05-2.85589E-05 2.45475E-08 2.00439E-18 2.39941E-18
 -1      1954 9.52048E-05-2.85560E-05-2.85640E-05 2.20348E-08 2.76187E-18 9.03042E-19
 -1      1955 9.51964E-05-2.85580E-05-2.85592E-05 2.66184E-08 1.04360E-18 2.00715E-18
 -1      1956 9.52028E-05-2.85608E-05-2.85608E-05 2.71478E-08 6.01244E-19 2.05775E-18
 -1      1957 9.52075E-05-2.85601E-05-2.85633E-05 2.97204E-08 1.59253E-18 8.37614E-19
 -1      1958 9.52059E-05-2.85624E-05-2.85615E-05 2.72841E-08-7.35036E-19 1.71930E-18
 -1      1959 9.52126E-05-2.85652E-05-2.85632E-05 2.64539E-08-1.12224E-18 1.13710E-18
 -1      1960 9.52131E-05-2.85643E-05-2.85639E-05 3.24171E-08-5.95897E-19 4.27547E-19
 -1      1961 9.52162E-05-2.85670E-05-2.85640E-05 2.49551E-08-4.20711E-19-5.95765E-20
 -1      1962 9.52223E-05-2.85697E-05-2.85655E-05 2.27567E-08 1.65434E-19-1.97295E-19
 -1      1963 9.52201E-05-2.85687E-05-2.85649E-05 3.10509E-08-1.54406E-18 9.18613E-19
 -1      1964 9.52254E-05-2.85713E-05-2.85661E-05 1.98652E-08 1.51425E-18-7.29508E-19
 -1      1965 9.52304E-05-2.85737E-05-2.85673E-05 1.63516E-08 1.14169E-18 8.43225E-20
 -1      1966 9.52330E-05-2.85767E-05-2.85670E-05 1.89420E-08 5.10688E-19-8.87414E-19
 -1      1967 9.52270E-05-2.85731E-05-2.85659E-05 2.62857E-08 5.85980E-19 4.14481E-20
 -1      1968 9.79247E-05-2.87116E-05-2.96281E-05-2.64084E-07 1.89463E-18 3.23712E-18
 -1      1969 9.84933E-05-2.86406E-05-2.98751E-05 8.83288E-07 2.02368E-18 4.06433E-18
 -1      1970 9.90016E-05-2.81233E-05-3.03887E-05 1.83803E-06 2.54406E-18 2.63170E-18
 -1      1971 9.81020E-05-2.90563E-05-2.95626E-05-1.71021E-06 1.45503E-18 2.34033E-18
 -1      1972 9.79102E-05-2.88792E-05-2.95323E-05-1.05991E-06 1.54756E-18 2.94113E-18
 -1      1973 9.84190E-05-2.87070E-05-2.98904E-05-8.43068E-07 1.92459E-18 1.89448E-18
 -1      1974 9.90816E-05-2.95297E-05-2.97918E-05-2.52488E-06 7.77111E-19 1.82360E-18
 -1      1975 9.84549E-05-2.92600E-05-2.96245E-05-2.14388E-06 1.05835E-18 2.15852E-18
 -1      1976 9.87554E-05-2.91820E-05-2.98335E-05-2.38088E-06 1.35810E-18 1.28031E-18
 -1      1977 1.00533E-04-3.01253E-05-3.01688E-05-2.87763E-06 4.24943E-19 1.37495E-18
 -1      1978 9.96805E-05-2.97942E-05-2.99372E-05-2.70023E-06 5.35877E-19 1.74289E-18
 -1      1979 9.97291E-05-2.97342E-05-3.00133E-05-3.20648E-06 7.27918E-19 8.66955E-19
 -1      1980 1.02168E-04-3.07977E-05-3.05910E-05-2.77883E-06 4.37847E-19 1.32245E-18
 -1      1981 1.01260E-04-3.04429E-05-3.03475E-05-2.80980E-06 4.05337E-19 1.41301E-18
 -1      1982 1.01085E-04-3.03940E-05-3.03079E-05-3.45387E-06 4.81430E-19 7.92859E-19
 -1      1983 1.03697E-04-3.14748E-05-3.09654E-05-2.16399E-06 3.19671E-19 8.99493E-19
 -1      1984 1.02903E-04-3.11450E-05-3.07600E-05-2.44128E-06 3.00194E-19 1.16936E-18
 -1      1985 1.02582E-04-3.11352E-05-3.06261E-05-3.10662E-06 5.48973E-19 5.29961E-19
 -1      1986 1.04803E-04-3.20464E-05-3.12015E-05-9.62500E-07 9.01911E-19 4.66908E-19
 -1      1987 1.04306E-04-3.18081E-05-3.10849E-05-1.52604E-06 6.83582E-19 8.67372E-19
 -1      1988 1.03965E-04-3.18853E-05-3.08894E-05-2.08976E-06 7.16477E-19 1.95438E-19
 -1      1989 1.05149E-04-3.23543E-05-3.12198E-05 8.13076E-07 2.05323E-19 5.24568E-19
 -1      1990 1.05133E-04-3.22923E-05-3.12376E-05-3.51540E-08 4.04114E-19 5.82494E-19
 -1      1991 1.04941E-04-3.25085E-05-3.10305E-05-3.61699E-07 6.18351E-19 2.82043E-19
 -1      1992 1.04439E-04-3.22027E-05-3.09741E-05 2.95032E-06 2.17926E-19 1.10116E-18
 -1      1993 1.05042E-04-3.24066E-05-3.11526E-05 1.91834E-06 3.00975E-19 9.59480E-19
 -1      1994 1.05192E-04-3.27935E-05-3.10046E-05 1.96541E-06 1.97967E-19 6.92059E-19
 -1      1995 1.02539E-04-3.14240E-05-3.04805E-05 4.93899E-06 2.39178E-19 9.57875E-19
 -1      1996 1.03785E-04-3.19472E-05-3.08082E-05 3.97125E-06 1.67765E-19 1.25344E-18
 -1      1997 1.04439E-04-3.24854E-05-3.08053E-05 4.49133E-06 2.28070E-19 9.15345E-19
 -1      1998 9.96591E-05-3.00171E-05-2.98359E-05 6.00714E-06 9.80894E-19 5.23691E-19
 -1      1999 1.01370E-04-3.08114E-05-3.02511E-05 5.47700E-06 5.94104E-19 8.11252E-19
 -1      2000 1.02593E-04-3.14097E-05-3.04764E-05 6.46564E-06 7.35248E-19 6.58330E-19
 -1      2001 9.64849E-05-2.83013E-05-2.92072E-05 5.41610E-06 3.90515E-19 2.59430E-19
 -1      2002 9.82495E-05-2.91650E-05-2.96041E-05 5.67179E-06 4.98894E-19 2.78125E-19
 -1      2003 9.99613E-05-2.96780E-05-3.01069E-05 6.94888E-06 7.57178E-19 4.55406E-19
 -1      2004 9.40821E-05-2.69132E-05-2.87818E-05 2.96364E-06-3.71980E-19 5.40222E-19
 -1      2005 9.53435E-05-2.75285E-05-2.90414E-05 4.08574E-06 4.26627E-20 1.80736E-19
 -1      2006 9.73422E-05-2.78263E-05-2.98047E-05 5.28420E-06 1.94242E-19 1.95450E-19
 -1      2007 9.34523E-05-2.65093E-05-2.86990E-05-6.64613E-07 2.04625E-19 2.72970E-21
 -1      2008 9.37344E-05-2.66000E-05-2.87343E-05 9.86843E-07-8.93090E-20 4.56729E-19
 -1      2009 9.57911E-05-2.66598E-05-2.96605E-05 1.67073E-06 7.61668E-21-3.02718E-19
 -1      2010 9.49457E-05-2.73198E-05-2.89960E-05-4.12423E-06 8.51109E-19-1.12334E-18
 -1      2011 9.41044E-05-2.68335E-05-2.87887E-05-2.56298E-06 6.69990E-19-5.94571E-19
 -1      2012 9.60505E-05-2.67757E-05-2.97203E-05-2.67787E-06 1.13345E-18-9.19573E-19
 -1      2013 9.80140E-05-2.89669E-05-2.95960E-05-6.17517E-06 5.30600E-19-1.21251E-18
 -1      2014 9.63264E-05-2.81126E-05-2.92038E-05-5.24653E-06 1.03299E-18-9.89665E-19
 -1      2015 9.80544E-05-2.81319E-05-2.99783E-05-6.12433E-06 1.09432E-18-1.22560E-18
 -1      2016 1.01563E-04-3.07508E-05-3.03381E-05-6.35598E-06-4.00140E-19-2.12083E-18
 -1      2017 9.95698E-05-2.98521E-05-2.98697E-05-6.24364E-06-1.24316E-19-1.62238E-18
 -1      2018 1.00978E-04-3.00784E-05-3.03782E-05-7.56160E-06 3.72201E-19-1.68133E-18
 -1      2019 1.04568E-04-3.20980E-05-3.10391E-05-5.04442E-06 2.85017E-19-2.17683E-18
 -1      2020 1.02801E-04-3.14076E-05-3.06097E-05-5.57378E-06-2.83789E-20-2.26712E-18
 -1      2021 1.03781E-04-3.18219E-05-3.08257E-05-6.91502E-06 1.24474E-19-2.74098E-18
 -1      2022 1.06463E-04-3.27853E-05-3.15559E-05-3.02357E-06 4.39269E-19-2.50074E-18
 -1      2023 1.05254E-04-3.24031E-05-3.12482E-05-3.85849E-06 3.03648E-19-2.31057E-18
 -1      2024 1.05743E-04-3.28787E-05-3.12172E-05-4.90161E-06 5.30795E-19-2.98760E-18
 -1      2025 1.07162E-04-3.28825E-05-3.18191E-05-1.00731E-06 1.41618E-18-2.93847E-18
 -1      2026 1.06602E-04-3.27840E-05-3.16671E-05-1.84759E-06 1.17594E-18-2.24543E-18
 -1      2027 1.06626E-04-3.31837E-05-3.14714E-05-2.44617E-06 1.24924E-18-2.94628E-18
 -1      2028 1.06874E-04-3.25819E-05-3.18316E-05 5.86666E-07 2.59675E-19-4.07598E-18
 -1      2029 1.06885E-04-3.26869E-05-3.18264E-05-8.35877E-08 1.00221E-18-3.25942E-18
 -1      2030 1.06551E-04-3.29336E-05-3.15509E-05-2.42073E-07 1.14310E-18-3.33404E-18
 -1      2031 1.05913E-04-3.20735E-05-3.16435E-05 1.62704E-06-1.18593E-18-2.98665E-18
 -1      2032 1.06335E-04-3.22970E-05-3.17511E-05 1.18356E-06-6.37932E-19-3.58967E-18
 -1      2033 1.05788E-04-3.23819E-05-3.14620E-05 1.37457E-06-4.06185E-19-3.16692E-18
 -1      2034 1.04578E-04-3.14953E-05-3.13229E-05 2.16214E-06-1.45896E-18-1.76184E-18
 -1      2035 1.05245E-04-3.17703E-05-3.15017E-05 1.92761E-06-1.36704E-18-2.26252E-18
 -1      2036 1.04617E-04-3.17273E-05-3.12408E-05 2.34986E-06-1.52052E-18-1.65254E-18
 -1      2037 1.03105E-04-3.09308E-05-3.09350E-05 2.31555E-06-8.30808E-19-1.21624E-18
 -1      2038 1.03877E-04-3.12125E-05-3.11475E-05 2.24037E-06-1.20335E-18-1.74017E-18
 -1      2039 1.03266E-04-3.10894E-05-3.09347E-05 2.78437E-06-1.37434E-18-1.60922E-18
 -1      2040 1.01655E-04-3.04228E-05-3.05316E-05 2.21929E-06 1.02997E-18-5.64263E-19
 -1      2041 1.02433E-04-3.06848E-05-3.07493E-05 2.24963E-06 1.91360E-19-9.78839E-19
 -1      2042 1.01896E-04-3.05251E-05-3.05892E-05 2.83050E-06-1.63861E-19-8.62129E-19
 -1      2043 1.00326E-04-2.99884E-05-3.01478E-05 1.98300E-06 2.57117E-19-6.63948E-19
 -1      2044 1.01047E-04-3.02178E-05-3.03522E-05 2.07369E-06 1.01462E-18-4.21924E-19
 -1      2045 1.00611E-04-3.00526E-05-3.02407E-05 2.63394E-06 9.53153E-19-3.01288E-19
 -1      2046 9.91676E-05-2.96301E-05-2.98043E-05 1.68579E-06-8.56413E-19-5.51956E-19
 -1      2047 9.97994E-05-2.98224E-05-2.99850E-05 1.80391E-06-5.99366E-19-8.33145E-19
 -1      2048 9.94668E-05-2.96707E-05-2.99139E-05 2.30973E-06-3.54236E-19 4.21363E-19
 -1      2049 9.81963E-05-2.93429E-05-2.95103E-05 1.37897E-06-2.03540E-19-1.96263E-19
 -1      2050 9.87265E-05-2.94988E-05-2.96631E-05 1.50293E-06-2.73985E-19-3.82324E-19
 -1      2051 9.84874E-05-2.93698E-05-2.96232E-05 1.93831E-06-3.18288E-19 3.30802E-19
 -1      2052 9.74069E-05-2.91183E-05-2.92676E-05 1.09239E-06-2.09356E-18-3.69224E-19
 -1      2053 9.78369E-05-2.92410E-05-2.93924E-05 1.20941E-06-1.42446E-18-7.62609E-19
 -1      2054 9.76758E-05-2.91374E-05-2.93750E-05 1.57044E-06-8.32171E-19 4.09041E-19
 -1      2055 9.67828E-05-2.89465E-05-2.90732E-05 8.40951E-07 2.16490E-19-1.47760E-18
 -1      2056 9.71215E-05-2.90407E-05-2.91721E-05 9.44464E-07-8.34204E-19-8.95670E-19
 -1      2057 9.70214E-05-2.89613E-05-2.91700E-05 1.23469E-06-5.05347E-19-9.06901E-19
 -1      2058 9.63019E-05-2.88183E-05-2.89217E-05 6.29901E-07 4.88169E-20-7.23558E-19
 -1      2059 9.65614E-05-2.88887E-05-2.89979E-05 7.17404E-07-1.29412E-19-1.76582E-18
 -1      2060 9.65068E-05-2.88304E-05-2.90056E-05 9.44385E-07 6.04909E-20-1.60049E-18
 -1      2061 9.59404E-05-2.87247E-05-2.88066E-05 4.58738E-07 1.07388E-18-7.27602E-20
 -1      2062 9.61341E-05-2.87760E-05-2.88638E-05 5.30175E-07 4.70326E-19 2.60895E-19
 -1      2063 9.61116E-05-2.87350E-05-2.88769E-05 7.03161E-07 1.34111E-19 2.64311E-20
 -1      2064 9.56756E-05-2.86583E-05-2.87214E-05 3.23856E-07 2.21839E-18 1.09368E-18
 -1      2065 9.58162E-05-2.86945E-05-2.87632E-05 3.80521E-07 1.71478E-18 8.08883E-19
 -1      2066 9.58152E-05-2.86672E-05-2.87789E-05 5.08993E-07 1.29256E-18 8.29636E-19
 -1      2067 9.54871E-05-2.86127E-05-2.86601E-05 2.20254E-07-3.39349E-19 9.38372E-19
 -1      2068 9.55861E-05-2.86374E-05-2.86898E-05 2.64076E-07 1.03938E-18 1.35985E-18
 -1      2069 9.55984E-05-2.86203E-05-2.87059E-05 3.56894E-07 1.19021E-18 2.26617E-18
 -1      2070 9.53575E-05-2.85826E-05-2.86175E-05 1.42592E-07-1.49826E-18 1.34386E-19
 -1      2071 9.54246E-05-2.85987E-05-2.86377E-05 1.75689E-07-1.08640E-18 7.19137E-19
 -1      2072 9.54442E-05-2.85890E-05-2.86531E-05 2.40663E-07-5.47777E-19 1.55439E-18
 -1      2073 9.52723E-05-2.85641E-05-2.85889E-05 8.57791E-08 1.72485E-18-6.03914E-19
 -1      2074 9.53155E-05-2.85738E-05-2.86021E-05 1.10201E-07-8.78673E-21-1.65921E-19
 -1      2075 9.53383E-05-2.85693E-05-2.86160E-05 1.53937E-07 4.24306E-20 2.70186E-19
 -1      2076 9.52199E-05-2.85537E-05-2.85709E-05 4.52854E-08-1.66678E-18-8.66218E-20
 -1      2077 9.52456E-05-2.85590E-05-2.85789E-05 6.28755E-08 8.07578E-20-7.16973E-19
 -1      2078 9.52687E-05-2.85578E-05-2.85910E-05 9.07806E-08 2.86329E-19 4.47970E-19
 -1      2079 9.51909E-05-2.85490E-05-2.85605E-05 1.72642E-08-1.88064E-19 1.63370E-18
 -1      2080 9.52042E-05-2.85512E-05-2.85648E-05 2.96018E-08-9.41462E-19 1.48405E-18
 -1      2081 9.52259E-05-2.85521E-05-2.85750E-05 4.59840E-08-2.14093E-18 1.42640E-18
 -1      2082 9.51784E-05-2.85482E-05-2.85556E-05-1.42679E-09-3.47472E-19 4.27225E-19
 -1      2083 9.51831E-05-2.85483E-05-2.85573E-05 6.95730E-09-5.34565E-19 1.05000E-18
 -1      2084 9.52023E-05-2.85503E-05-2.85655E-05 1.51695E-08-3.92704E-19 1.31296E-18
 -1      2085 9.51770E-05-2.85499E-05-2.85543E-05-1.32598E-08 8.22673E-19 1.03485E-18
 -1      2086 9.51760E-05-2.85486E-05-2.85542E-05-7.80200E-09 3.43732E-19 9.28113E-19
 -1      2087 9.51922E-05-2.85512E-05-2.85607E-05-5.20303E-09-7.18463E-20 1.12566E-18
 -1      2088 9.51827E-05-2.85532E-05-2.85553E-05-2.00954E-08 9.48118E-19 1.34342E-18
 -1      2089 9.51781E-05-2.85511E-05-2.85542E-05-1.67892E-08 1.13384E-18 1.63604E-18
 -1      2090 9.51911E-05-2.85537E-05-2.85591E-05-1.78860E-08 1.08299E-18 1.91001E-18
 -1      2091 9.51925E-05-2.85573E-05-2.85578E-05-2.32400E-08-4.70584E-19 3.01073E-19
 -1      2092 9.51860E-05-2.85548E-05-2.85561E-05-2.15455E-08-1.96337E-20 1.23398E-18
 -1      2093 9.51958E-05-2.85571E-05-2.85596E-05-2.49142E-08 1.69982E-19 2.39278E-18
 -1      2094 9.52041E-05-2.85618E-05-2.85609E-05-2.34869E-08 5.81170E-19 3.24741E-19
 -1      2095 9.51969E-05-2.85591E-05-2.85590E-05-2.30914E-08-1.03323E-19 2.46369E-19
 -1      2096 9.52037E-05-2.85611E-05-2.85612E-05-2.76735E-08-2.20007E-20 1.54020E-18
 -1      2097 9.52159E-05-2.85663E-05-2.85641E-05-2.11548E-08-4.41742E-21 1.56764E-18
 -1      2098 9.52089E-05-2.85637E-05-2.85622E-05-2.19651E-08 8.04289E-19 1.52638E-18
 -1      2099 9.52131E-05-2.85654E-05-2.85634E-05-2.69442E-08 9.00416E-20 1.02509E-18
 -1      2100 9.52263E-05-2.85706E-05-2.85667E-05-1.61441E-08-7.18510E-20-8.45195E-20
 -1      2101 9.52203E-05-2.85683E-05-2.85652E-05-1.83236E-08-6.70827E-20 1.11183E-18
 -1      2102 9.52226E-05-2.85698E-05-2.85655E-05-2.30761E-08 4.57594E-19 1.51321E-18
 -1      2103 9.52331E-05-2.85738E-05-2.85683E-05-1.05105E-08 9.08700E-19 1.27959E-18
 -1      2104 9.52288E-05-2.85719E-05-2.85673E-05-1.39571E-08 7.90829E-19 5.58857E-19
 -1      2105 9.52298E-05-2.85734E-05-2.85670E-05-1.79114E-08 3.27948E-19 2.32046E-18
 -1      2106 9.52347E-05-2.85764E-05-2.85678E-05-1.27578E-08 1.35242E-18 3.52547E-18
 -1      2107 9.52474E-05-2.86017E-05-2.85624E-05-2.10816E-08-2.25408E-19-7.92032E-19
 -1      2108 9.52450E-05-2.85963E-05-2.85637E-05-2.16283E-08-5.71321E-19-2.03603E-18
 -1      2109 9.52429E-05-2.85925E-05-2.85645E-05-2.15954E-08-7.36017E-19-1.87090E-18
 -1      2110 9.52402E-05-2.85870E-05-2.85657E-05-2.05738E-08-3.77641E-19 9.38958E-19
 -1      2111 9.52428E-05-2.85908E-05-2.85652E-05-2.66225E-08-1.55988E-18-1.75931E-18
 -1      2112 9.52387E-05-2.85842E-05-2.85662E-05-1.86717E-08 9.42246E-20 2.44768E-18
 -1      2113 9.52362E-05-2.85794E-05-2.85673E-05-1.58938E-08 1.43600E-18 2.68848E-18
 -1      2114 9.52342E-05-2.85781E-05-2.85670E-05-1.89092E-08 6.09024E-19 2.61111E-18
 -1      2115 9.52383E-05-2.85841E-05-2.85661E-05-2.44214E-08-1.02038E-18 9.94031E-19
 -1      2116 9.52509E-05-2.86097E-05-2.85605E-05-1.81126E-08-2.19374E-18-2.03349E-18
 -1      2117 9.52490E-05-2.86049E-05-2.85617E-05-1.96597E-08-1.46089E-18-6.29074E-19
 -1      2118 9.52473E-05-2.85980E-05-2.85640E-05-2.49936E-08-1.90264E-18-1.99970E-18
 -1      2119 9.52534E-05-2.86160E-05-2.85588E-05-1.34748E-08-1.18256E-18 6.75954E-19
 -1      2120 9.52520E-05-2.86123E-05-2.85598E-05-1.56857E-08-1.77475E-18 2.05847E-19
 -1      2121 9.52506E-05-2.86041E-05-2.85628E-05-2.07135E-08-2.20190E-18-1.41108E-18
 -1      2122 9.52550E-05-2.86202E-05-2.85577E-05-7.88423E-09-7.69586E-19 1.09652E-18
 -1      2123 9.52542E-05-2.86178E-05-2.85583E-05-1.04525E-08-8.00683E-19 1.24289E-18
 -1      2124 9.52528E-05-2.86086E-05-2.85619E-05-1.46664E-08-1.88147E-18 1.14677E-18
 -1      2125 9.52557E-05-2.86219E-05-2.85572E-05-1.82341E-09-9.98754E-19-3.90598E-19
 -1      2126 9.52554E-05-2.86211E-05-2.85574E-05-4.55368E-09-1.54778E-18 1.50614E-18
 -1      2127 9.52541E-05-2.86114E-05-2.85612E-05-7.62869E-09-1.67155E-18 8.69418E-19
 -1      2128 9.52554E-05-2.86212E-05-2.85574E-05 4.35794E-09-1.97781E-19-1.56894E-18
 -1      2129 9.52557E-05-2.86219E-05-2.85572E-05 1.61316E-09-3.88518E-19-7.32478E-20
 -1      2130 9.52546E-05-2.86124E-05-2.85610E-05-1.36581E-10-2.13422E-18 8.18374E-19
 -1      2131 9.52543E-05-2.86180E-05-2.85583E-05 1.03328E-08 5.13497E-19-9.94831E-19
 -1      2132 9.52551E-05-2.86203E-05-2.85577E-05 7.72549E-09 4.75375E-19-1.22699E-18
 -1      2133 9.52542E-05-2.86115E-05-2.85612E-05 7.39715E-09-3.70325E-19-1.21450E-18
 -1      2134 9.52522E-05-2.86126E-05-2.85597E-05 1.55974E-08-3.55902E-19-3.44431E-18
 -1      2135 9.52536E-05-2.86163E-05-2.85588E-05 1.33711E-08 7.30883E-19-2.04158E-18
 -1      2136 9.52530E-05-2.86089E-05-2.85618E-05 1.44926E-08-6.79611E-19-1.61623E-18
 -1      2137 9.52491E-05-2.86052E-05-2.85616E-05 1.97330E-08-8.10496E-19 1.18580E-18
 -1      2138 9.52510E-05-2.86100E-05-2.85604E-05 1.81093E-08-6.25988E-19-8.61061E-19
 -1      2139 9.52508E-05-2.86044E-05-2.85628E-05 2.06490E-08-7.69403E-19-2.45791E-18
 -1      2140 9.52451E-05-2.85964E-05-2.85637E-05 2.17956E-08-2.63005E-19 3.81670E-19
 -1      2141 9.52475E-05-2.86019E-05-2.85624E-05 2.12326E-08-7.06719E-19 1.44967E-18
 -1      2142 9.52474E-05-2.85983E-05-2.85639E-05 2.51317E-08-5.64654E-19 1.11078E-18
 -1      2143 9.52401E-05-2.85870E-05-2.85657E-05 2.09476E-08 3.29929E-19-1.88882E-18
 -1      2144 9.52430E-05-2.85926E-05-2.85644E-05 2.17862E-08 2.52505E-19-1.16488E-18
 -1      2145 9.52429E-05-2.85910E-05-2.85651E-05 2.68194E-08-6.76164E-19-1.50211E-19
 -1      2146 5.14281E-05-3.81026E-05-6.23851E-06 3.92166E-05 3.58041E-18 7.07897E-18
 -1      2147 3.83060E-05-4.02852E-05-5.98607E-07 3.15055E-05 2.49536E-18 6.23332E-18
 -1      2148 1.19862E-05-3.45171E-05 8.22007E-06 6.80988E-06-4.07211E-19 8.71258E-18
 -1      2149 1.16977E-05-3.47277E-05 8.38971E-06-2.59473E-06-2.41468E-18 9.31016E-18
 -1      2150 2.60287E-05-3.59767E-05 3.18930E-06 2.62275E-05 2.59361E-18 6.35931E-18
 -1      2151 1.84706E-05-3.65529E-05 6.27705E-06 1.82561E-05 7.39036E-20 7.08670E-18
 -1      2152 3.91290E-05-3.48702E-05-2.34657E-06 3.59824E-05-7.13413E-19 6.17995E-18
 -1      2153 8.75141E-05-4.14699E-05-1.97484E-05 4.36411E-05 5.18384E-18 5.28951E-18
 -1      2154 6.96147E-05-4.34474E-05-1.23374E-05 3.87301E-05 4.02256E-18 5.69799E-18
 -1      2155 1.26848E-04-4.40055E-05-3.56604E-05-3.21627E-05 4.51024E-18-6.25026E-18
 -1      2156 1.41624E-04-4.32295E-05-4.18666E-05-2.93323E-05 4.69701E-18-5.26558E-18
 -1      2157 2.60702E-05-3.78846E-05 3.72509E-06-2.44746E-05 6.64921E-19-6.11727E-18
 -1      2158 3.65350E-05-3.60915E-05-8.12672E-07-3.37617E-05 2.14045E-18-6.05650E-18
 -1      2159 1.23749E-04-4.05603E-05-3.50797E-05 3.95869E-05 5.85935E-18 4.85392E-18
 -1      2160 1.04680E-04-4.29508E-05-2.71149E-05 3.74335E-05 5.55400E-18 4.95768E-18
 -1      2161 8.71519E-05-8.09111E-06-3.39845E-05-7.68354E-06-2.35861E-18-3.95472E-18
 -1      2162 8.84486E-05-8.85650E-06-3.41837E-05-9.14629E-06-2.72753E-18-3.43950E-18
 -1      2163 9.11930E-05-1.26900E-05-3.36925E-05-8.72509E-06-2.93992E-18-2.90008E-18
 -1      2164 8.80695E-05-9.92760E-06-3.35070E-05-6.48756E-06-2.37527E-18-3.80172E-18
 -1      2165 1.72912E-04-3.09572E-05-5.96508E-05 1.53174E-05 6.94906E-18 1.14434E-18
 -1      2166 1.59642E-04-3.15598E-05-5.44661E-05 1.88583E-05 6.87738E-18 2.55804E-18
 -1      2167 1.79951E-04-2.47554E-05-6.54885E-05 3.83393E-06 7.39587E-18-9.98652E-19
 -1      2168 1.75467E-04-2.63344E-05-6.30400E-05 1.16710E-05 7.24467E-18 8.88961E-19
 -1      2169 1.58543E-04-2.24217E-05-5.72470E-05 9.08764E-08 6.96621E-18-1.57188E-18
 -1      2170 1.77326E-04-2.32162E-05-6.51914E-05-5.73214E-06 8.08578E-18-2.77742E-18
 -1      2171 1.77344E-04-2.17573E-05-6.57840E-05 1.05922E-06 7.90832E-18-9.19137E-19
 -1      2172 1.69846E-04-2.71666E-05-6.04838E-05-1.49942E-05 7.83421E-18-4.36180E-18
 -1      2173 1.78897E-04-2.67518E-05-6.40930E-05-8.67010E-06 7.98667E-18-2.67451E-18
 -1      2174 1.56864E-04-1.42834E-05-5.99691E-05 1.24495E-06 7.97736E-18-7.54918E-19
 -1      2175 1.50151E-04-3.53098E-05-4.91776E-05-2.10159E-05 5.96065E-18-5.04408E-18
 -1      2176 1.67437E-04-3.34832E-05-5.60252E-05-2.14463E-05 6.88151E-18-5.31344E-18
 -1      2177 5.20971E-05-4.23455E-05-5.47450E-06-3.61760E-05 3.02475E-18-5.77229E-18
 -1      2178 6.73450E-05-3.99010E-05-1.21770E-05-4.22163E-05 4.37662E-18-7.32588E-18
 -1      2179 1.20533E-05-3.68654E-05 8.96117E-06-5.24839E-06-7.25960E-19-6.32522E-18
 -1      2180 1.50265E-05-3.59980E-05 7.50902E-06-1.39027E-05 1.19855E-18-6.10880E-18
 -1      2181 1.77914E-05-3.34151E-05 5.67145E-06 1.62661E-05-2.08137E-18-6.34343E-18
 -1      2182 1.36851E-05-3.52031E-05 7.72958E-06 6.12066E-06-4.76880E-19-6.61956E-18
 -1      2183 4.25322E-05-3.88218E-05-2.43035E-06 3.40015E-05-3.53043E-18-6.47260E-18
 -1      2184 3.02482E-05-3.93714E-05 2.51381E-06 2.59842E-05-2.03500E-18-6.01986E-18
 -1      2185 8.08755E-05-4.55537E-05-1.54410E-05 4.26418E-05-3.33816E-18-6.27186E-18
 -1      2186 6.00061E-05-4.50419E-05-7.68932E-06 3.59463E-05-3.20517E-18-6.31675E-18
 -1      2187 6.17500E-05-4.33131E-05-8.14440E-06 4.11192E-05 2.41404E-20-5.32900E-18
 -1      2188 1.24099E-04-4.93538E-05-3.18929E-05 3.62349E-05-5.01189E-18-4.31055E-18
 -1      2189 1.03163E-04-5.02745E-05-2.33643E-05 3.57445E-05-3.73330E-18-5.45828E-18
 -1      2190 1.57058E-04-4.32133E-05-4.81477E-05 2.21698E-05-6.24348E-18-3.28776E-18
 -1      2191 1.38530E-04-4.63728E-05-3.98310E-05 2.42939E-05-5.81869E-18-3.43302E-18
 -1      2192 1.75565E-04-3.17083E-05-6.05859E-05 8.65094E-06-6.86626E-18-2.36915E-18
 -1      2193 1.62107E-04-3.46531E-05-5.44855E-05 1.22626E-05-6.79236E-18-3.28225E-18
 -1      2194 1.85564E-04-2.58852E-05-6.70188E-05 1.17906E-06-7.27898E-18-1.02930E-18
 -1      2195 1.76713E-04-2.47075E-05-6.45149E-05 6.15323E-06-7.23578E-18-2.07692E-18
 -1      2196 1.83350E-04-2.64477E-05-6.60533E-05-6.92603E-06-7.97905E-18 1.33704E-18
 -1      2197 1.87799E-04-2.67303E-05-6.77414E-05 2.40939E-07-7.42721E-18-7.73182E-19
 -1      2198 1.62738E-04-1.44111E-05-6.22572E-05 7.42114E-08-8.00912E-18-9.28189E-19
 -1      2199 1.68189E-04-3.37574E-05-5.71479E-05-1.57457E-05-8.35640E-18 2.48011E-18
 -1      2200 1.81203E-04-3.23523E-05-6.24033E-05-1.03435E-05-7.75014E-18 1.13672E-18
 -1      2201 1.45470E-04-4.16116E-05-4.46118E-05-2.34591E-05-7.43589E-18 3.33011E-18
 -1      2202 1.64469E-04-3.96173E-05-5.22854E-05-2.27132E-05-8.08281E-18 2.77022E-18
 -1      2203 1.60578E-04-3.73929E-05-5.19665E-05-2.20196E-06-6.47228E-18-1.30274E-18
 -1      2204 1.14673E-04-4.99663E-05-2.83059E-05-3.20127E-05-5.29607E-18 4.80522E-18
 -1      2205 1.34193E-04-4.75003E-05-3.66487E-05-3.27700E-05-6.38197E-18 4.45878E-18
 -1      2206 7.42067E-05-4.74949E-05-1.24472E-05-3.73223E-05-4.22500E-18 6.63799E-18
 -1      2207 9.50052E-05-4.81348E-05-2.02306E-05-4.11354E-05-4.31479E-18 6.60876E-18
 -1      2208 3.70990E-05-4.13160E-05 2.14800E-07-2.82774E-05-4.36773E-18 7.15044E-18
 -1      2209 5.18657E-05-3.97794E-05-5.83373E-06-3.72497E-05-4.88992E-18 6.43629E-18
 -1      2210 1.74889E-05-3.65212E-05 6.66040E-06-1.43911E-05-2.17137E-18 9.42367E-18
 -1      2211 2.50035E-05-3.67225E-05 3.85959E-06-2.27298E-05-4.88230E-18 9.20280E-18
 -1      2212 3.78300E-05-3.48077E-05-1.83803E-06-3.25331E-05-1.21295E-18 7.43187E-18
 -1      2213 1.52046E-04-3.73234E-05-4.83907E-05 2.98728E-05 6.28668E-18 3.68332E-18
 -1      2214 1.34034E-04-3.79890E-05-4.12612E-05 3.28189E-05 6.46604E-18 4.76964E-18
 -1      2215 1.35987E-04-4.87820E-05-3.68757E-05 2.53413E-05 3.34769E-18 1.14646E-18
 -1      2216 1.25881E-04-5.31575E-05-3.07921E-05-3.07468E-05 1.92171E-18-4.12950E-18
 -1      2217 9.07268E-05-5.02406E-05-1.75027E-05-4.22647E-05 1.21803E-18-5.76258E-18
 -1      2218 1.00231E-04-2.52039E-05-3.22141E-05-7.57237E-06-3.06541E-18 1.95614E-18
 -1      2219 9.91723E-05-2.38017E-05-3.23783E-05-7.33030E-06-3.25613E-18 2.79481E-19
 -1      2220 1.77715E-05-2.73312E-05 3.38091E-06 1.60173E-05-1.79645E-18 8.62618E-18
 -1      2221 7.18577E-05-4.56990E-05-1.14646E-05 4.31802E-05-2.51992E-19 4.69505E-18
 -1      2222 9.52380E-05-2.85831E-05-2.85664E-05 2.07628E-08 2.41103E-19-1.61805E-18
 -1      2223 1.71234E-05-2.71033E-05 3.55061E-06-1.16252E-05-1.49999E-18 1.01957E-17
 -1      2224 1.08675E-04-5.22314E-05-2.41623E-05 3.77690E-05 1.79275E-18 2.20504E-18
 -1      2225 1.48438E-04-4.43068E-05-4.41748E-05-1.35185E-05 3.61093E-18-2.13579E-18
 -1      2226 5.31967E-05-4.00023E-05-6.13025E-06-4.05099E-05-1.23667E-19-5.67639E-18
 -1      2227 7.36782E-05-4.72527E-05-1.14031E-05-4.12224E-05-4.17164E-19 4.70956E-18
 -1      2228 1.46391E-04-5.22292E-05-4.00578E-05-1.55041E-05-4.60098E-18 4.23516E-22
 -1      2229 1.65080E-04-2.22836E-05-6.00703E-05 2.95460E-06-7.82235E-18-9.23901E-19
 -1      2230 1.60553E-04-2.26444E-05-5.82261E-05-3.90981E-06-7.00327E-18-3.57236E-19
 -1      2231 1.56490E-04-4.14562E-05-4.87535E-05 3.11318E-06-5.34806E-18-9.81288E-19
 -1      2232 1.02672E-04-5.54452E-05-2.02986E-05 3.84199E-05-8.44915E-19-4.19546E-18
 -1      2233 2.95603E-05-3.04446E-05-1.03885E-07 2.64342E-05 4.53163E-20-6.52342E-18
 -1      2234 1.45401E-05-2.52231E-05 3.86570E-06 1.15517E-06-5.46098E-19-7.24721E-18
 -1      2235 1.58115E-04-2.71803E-05-5.52060E-05-2.67107E-06 6.49928E-18-7.21672E-19
 -1      2236 2.42596E-05-2.87938E-05 1.40690E-06-2.49607E-05-5.42313E-19-6.64751E-18
 -1      2237 1.58475E-04-1.35191E-05-6.10932E-05-2.56197E-07 8.15269E-18-1.27500E-18
 -1      2238 1.53173E-04-3.74573E-05-4.87926E-05 1.08822E-05 5.13281E-18-1.43996E-20
 -1      2239 1.39029E-04-5.58195E-05-3.53677E-05 2.13422E-05-3.21534E-18-1.13799E-18
 -1      2240 1.15996E-04-5.75991E-05-2.49334E-05-3.26284E-05-1.52000E-18 2.54025E-18
 -1      2241 9.87421E-05-2.72666E-05-3.06109E-05 1.46582E-06 2.51867E-18 1.24262E-18
 -1      2242 9.92536E-05-2.66534E-05-3.10409E-05 3.38433E-06 2.86787E-18 1.66113E-18
 -1      2243 8.45922E-05-8.23858E-06-3.27613E-05-2.17167E-06-7.43655E-19-4.29371E-18
 -1      2244 8.52430E-05-8.70519E-06-3.28298E-05-2.87213E-06-1.16267E-18-4.27361E-18
 -1      2245 8.61467E-05-9.52130E-06-3.28880E-05-3.41066E-06-1.46297E-18-4.17583E-18
 -1      2246 8.71721E-05-1.03033E-05-3.29775E-05-4.23533E-06-1.85561E-18-3.99183E-18
 -1      2247 8.66559E-05-1.07753E-05-3.25099E-05-2.56419E-06-1.23111E-18-3.92362E-18
 -1      2248 8.38215E-05-7.63654E-06-3.26758E-05 1.09345E-08 4.93775E-19-4.32453E-18
 -1      2249 8.37305E-05-7.56507E-06-3.26726E-05-6.28052E-07 1.61882E-19-4.40371E-18
 -1      2250 8.45466E-05-8.22771E-06-3.27313E-05 1.20768E-06 1.16801E-18-4.16958E-18
 -1      2251 8.41150E-05-7.91393E-06-3.26924E-05 5.03608E-07 7.69293E-19-4.28125E-18
 -1      2252 8.48343E-05-9.29610E-06-3.23683E-05 6.43444E-08 5.92657E-19-4.07420E-18
 -1      2253 8.59035E-05-9.34654E-06-3.28357E-05 2.59010E-06 1.75445E-18-3.96879E-18
 -1      2254 8.51784E-05-8.80922E-06-3.27706E-05 1.78669E-06 1.42659E-18-4.10017E-18
 -1      2255 8.58119E-05-1.01516E-05-3.24218E-05 1.07838E-06 1.21782E-18-3.86622E-18
 -1      2256 8.78826E-05-1.10443E-05-3.29650E-05 4.25562E-06 2.44599E-18-3.29676E-18
 -1      2257 8.68593E-05-1.02413E-05-3.28853E-05 3.29852E-06 2.03623E-18-3.63783E-18
 -1      2258 8.74626E-05-1.16091E-05-3.25049E-05 2.30241E-06 1.83114E-18-3.50375E-18
 -1      2259 9.04605E-05-1.34150E-05-3.30735E-05 6.14752E-06 3.10858E-18-2.58867E-18
 -1      2260 8.91400E-05-1.22730E-05-3.30017E-05 5.06300E-06 2.69119E-18-2.99877E-18
 -1      2261 8.97356E-05-1.36969E-05-3.25809E-05 3.73531E-06 2.48895E-18-2.87691E-18
 -1      2262 9.37105E-05-1.67090E-05-3.30922E-05 8.04328E-06 3.59526E-18-1.47840E-18
 -1      2263 9.20351E-05-1.50564E-05-3.30574E-05 6.94334E-06 3.24346E-18-2.07528E-18
 -1      2264 9.25638E-05-1.64890E-05-3.25847E-05 5.21443E-06 3.01136E-18-2.06019E-18
 -1      2265 9.87592E-05-2.53938E-05-3.13937E-05-2.41497E-06-2.58854E-18-5.17426E-19
 -1      2266 9.85689E-05-2.61649E-05-3.10254E-05-1.61753E-07-2.34072E-18-6.97695E-19
 -1      2267 8.64616E-05-5.01008E-05-1.55316E-05-4.21183E-05-6.58780E-19-4.12414E-18
 -1      2268 1.04694E-04-5.42975E-05-2.17619E-05-3.99945E-05-4.55068E-19-3.83621E-18
 -1      2269 9.86387E-05-2.82294E-05-3.01521E-05-1.26744E-06 1.88405E-18 8.20173E-19
 -1      2270 9.86960E-05-2.78503E-05-3.02906E-05-1.58718E-07 2.17620E-18 1.15356E-18
 -1      2271 9.84301E-05-2.65172E-05-3.08357E-05 1.06371E-06 2.59078E-18 2.02825E-19
 -1      2272 9.71777E-05-2.03357E-05-3.29694E-05-8.49054E-06-3.32962E-18-9.93728E-19
 -1      2273 9.80447E-05-2.36880E-05-3.18791E-05-4.44680E-06-2.99901E-18-7.53943E-19
 -1      2274 9.69862E-05-2.24308E-05-3.19489E-05-3.61639E-06-2.75067E-18-1.36867E-18
 -1      2275 9.47335E-05-1.75865E-05-3.30840E-05-7.94997E-06-3.27584E-18-1.86817E-18
 -1      2276 9.86802E-05-2.67986E-05-3.07516E-05 1.63921E-06-2.01440E-18-5.64945E-19
 -1      2277 9.88124E-05-2.72479E-05-3.06506E-05 3.15128E-06-1.70841E-18-6.66014E-19
 -1      2278 9.77615E-05-2.51054E-05-3.11520E-05 5.34245E-07-2.25001E-18-1.13798E-18
 -1      2279 9.89266E-05-2.75796E-05-3.05415E-05 4.56586E-06-1.44382E-18-5.46374E-19
 -1      2280 9.94161E-05-2.79609E-05-3.06015E-05 5.69713E-06-1.14243E-18-7.44361E-19
 -1      2281 9.79938E-05-2.63311E-05-3.07309E-05 3.97687E-06-1.64641E-18-9.91201E-19
 -1      2282 9.96839E-05-2.82362E-05-3.05985E-05 6.83906E-06-8.61375E-19-7.53640E-19
 -1      2283 1.00499E-04-2.86800E-05-3.07598E-05 7.71656E-06-6.50200E-19-6.69501E-19
 -1      2284 9.84120E-05-2.71274E-05-3.05691E-05 6.70683E-06-1.05414E-18-9.94549E-19
 -1      2285 1.00990E-04-2.90424E-05-3.08184E-05 8.63637E-06-6.33262E-19-6.77862E-19
 -1      2286 1.02104E-04-2.96545E-05-3.10370E-05 9.25820E-06-4.97050E-19-8.68430E-19
 -1      2287 9.91975E-05-2.79238E-05-3.05653E-05 8.90897E-06-7.67489E-19-1.12742E-18
 -1      2288 1.02908E-04-3.02487E-05-3.11216E-05 9.91481E-06-5.55166E-19-8.88853E-19
 -1      2289 1.04313E-04-3.11462E-05-3.13587E-05 1.01661E-05-3.85925E-19-9.82825E-19
 -1      2290 1.00506E-04-2.90708E-05-3.06397E-05 1.06111E-05-5.94863E-19-1.31038E-18
 -1      2291 1.05584E-04-3.21442E-05-3.14460E-05 1.04070E-05-2.47372E-19-1.02967E-18
 -1      2292 1.07277E-04-3.34433E-05-3.16688E-05 1.00621E-05-1.34903E-19-9.56611E-19
 -1      2293 1.02579E-04-3.09541E-05-3.07344E-05 1.16448E-05-4.30451E-19-1.37567E-18
 -1      2294 1.09231E-04-3.50113E-05-3.17618E-05 9.59599E-06-1.53571E-19-8.44843E-19
 -1      2295 1.11161E-04-3.67368E-05-3.19565E-05 8.34530E-06-2.28199E-19-7.62895E-19
 -1      2296 1.05788E-04-3.39854E-05-3.08344E-05 1.16030E-05-1.09820E-19-1.41351E-18
 -1      2297 1.13967E-04-3.88776E-05-3.21151E-05 6.72962E-06-3.99280E-20-4.30055E-19
 -1      2298 1.15893E-04-4.07263E-05-3.23148E-05 4.30526E-06 1.13119E-19-1.69984E-19
 -1      2299 1.10549E-04-3.83897E-05-3.10156E-05 9.78516E-06 5.76810E-20-8.89698E-19
 -1      2300 1.19349E-04-4.29135E-05-3.26988E-05 1.11142E-06 2.71843E-19 3.83885E-19
 -1      2301 1.20719E-04-4.39816E-05-3.30082E-05-2.36540E-06 4.12670E-19 6.93058E-19
 -1      2302 1.16900E-04-4.35679E-05-3.15325E-05 5.25639E-06 5.13315E-19 5.50853E-20
 -1      2303 1.23717E-04-4.47500E-05-3.38622E-05-6.94596E-06 2.49100E-19 1.10265E-18
 -1      2304 1.23709E-04-4.35075E-05-3.44175E-05-1.03083E-05 3.40137E-21 1.25492E-18
 -1      2305 1.23508E-04-4.72117E-05-3.28774E-05-2.69962E-06 5.26795E-19 1.30782E-18
 -1      2306 1.24705E-04-4.12916E-05-3.59283E-05-1.46819E-05-5.36384E-19 1.27420E-18
 -1      2307 1.22549E-04-3.66467E-05-3.68317E-05-1.59278E-05-1.33061E-18 8.83095E-19
 -1      2308 1.28164E-04-4.51971E-05-3.56983E-05-1.25578E-05-1.86718E-19 1.82080E-18
 -1      2309 1.20476E-04-3.11850E-05-3.86837E-05-1.56133E-05-2.26973E-18 4.27709E-19
 -1      2310 1.17830E-04-2.57588E-05-3.95283E-05-1.24882E-05-2.99823E-18-1.69168E-19
 -1      2311 1.26628E-04-3.45294E-05-3.95734E-05-1.75005E-05-2.10594E-18 1.24892E-18
 -1      2312 1.15566E-04-2.15763E-05-4.06572E-05-5.95918E-06-3.53700E-18-1.57845E-18
 -1      2313 1.15061E-04-2.03063E-05-4.08599E-05 4.92752E-07-3.93622E-18-2.20227E-18
 -1      2314 1.21991E-04-2.17698E-05-4.31687E-05-1.07731E-05-4.01028E-18-8.57330E-19
 -1      2315 1.15920E-04-2.21167E-05-4.03900E-05 8.63696E-06-3.80932E-18-3.41488E-18
 -1      2316 1.18311E-04-2.64255E-05-3.97776E-05 1.36998E-05-2.95477E-18-4.04336E-18
 -1      2317 1.20593E-04-1.87266E-05-4.39407E-05 4.86575E-06-4.56021E-18-2.97845E-18
 -1      2318 1.20987E-04-3.21893E-05-3.80904E-05 1.65789E-05-2.05649E-18-4.90285E-18
 -1      2319 1.23680E-04-3.76086E-05-3.71941E-05 1.70488E-05-1.42280E-18-5.17045E-18
 -1      2320 1.25022E-04-2.93410E-05-4.12909E-05 1.65074E-05-3.28183E-18-4.74958E-18
 -1      2321 1.24248E-04-4.15999E-05-3.54706E-05 1.43558E-05-9.54183E-19-5.30996E-18
 -1      2322 1.25283E-04-4.43409E-05-3.47841E-05 1.13813E-05-1.66272E-19-4.98328E-18
 -1      2323 1.28419E-04-4.17475E-05-3.71867E-05 1.58176E-05-1.12581E-18-5.38189E-18
 -1      2324 1.22948E-04-4.46017E-05-3.36776E-05 6.68128E-06 6.58992E-19-4.34352E-18
 -1      2325 1.22181E-04-4.43826E-05-3.33045E-05 2.94615E-06 1.26966E-18-3.89032E-18
 -1      2326 1.26413E-04-4.74005E-05-3.39020E-05 7.27344E-06 6.15714E-19-4.94123E-18
 -1      2327 1.18734E-04-4.24913E-05-3.27790E-05-8.80252E-07 1.40353E-18-3.57301E-18
 -1      2328 1.17026E-04-4.08448E-05-3.25813E-05-3.79910E-06 1.51587E-18-3.52040E-18
 -1      2329 1.20301E-04-4.55747E-05-3.20973E-05-1.42876E-06 1.67597E-18-3.72180E-18
 -1      2330 1.13937E-04-3.85707E-05-3.23718E-05-5.98750E-06 1.40038E-18-2.81223E-18
 -1      2331 1.12054E-04-3.67661E-05-3.22106E-05-7.69401E-06 1.30883E-18-1.87994E-18
 -1      2332 1.13569E-04-4.05902E-05-3.13507E-05-7.24659E-06 1.93424E-18-3.03065E-18
 -1      2333 1.09792E-04-3.49599E-05-3.21091E-05-8.56813E-06 1.25958E-18-1.48663E-18
 -1      2334 1.08083E-04-3.35274E-05-3.19181E-05-9.25520E-06 1.21204E-18-7.71153E-19
 -1      2335 1.08192E-04-3.57728E-05-3.10935E-05-1.00275E-05 1.46805E-18-1.31452E-18
 -1      2336 1.06564E-04-3.23409E-05-3.18221E-05-9.29868E-06 7.47765E-19-9.81469E-19
 -1      2337 1.05112E-04-3.13540E-05-3.15928E-05-9.30652E-06 8.49511E-19-1.00354E-18
 -1      2338 1.04434E-04-3.22628E-05-3.09665E-05-1.07474E-05 8.53039E-19-1.14259E-18
 -1      2339 1.04111E-04-3.06655E-05-3.14719E-05-8.90000E-06 5.92879E-19-1.00617E-18
 -1      2340 1.02902E-04-3.00330E-05-3.12217E-05-8.53029E-06 2.18135E-19-1.28022E-18
 -1      2341 1.01943E-04-3.00815E-05-3.08181E-05-1.02563E-05 3.92218E-19-1.76199E-18
 -1      2342 1.02220E-04-2.96719E-05-3.10784E-05-7.92380E-06-1.02790E-19-1.78207E-18
 -1      2343 1.01220E-04-2.92796E-05-3.08288E-05-7.38845E-06-7.09027E-19-1.76900E-18
 -1      2344 1.00284E-04-2.88788E-05-3.06130E-05-9.15695E-06-1.76374E-19-1.32072E-18
 -1      2345 1.00728E-04-2.91098E-05-3.06759E-05-6.73016E-06-6.06652E-19-9.73658E-19
 -1      2346 9.99046E-05-2.88686E-05-3.04435E-05-6.15857E-06-8.33798E-20-2.65032E-19
 -1      2347 9.91277E-05-2.82920E-05-3.03646E-05-7.82589E-06-1.46153E-19-1.47347E-19
 -1      2348 9.95287E-05-2.88012E-05-3.02933E-05-5.52902E-06-2.16330E-19-2.58801E-19
 -1      2349 9.88561E-05-2.86520E-05-3.00877E-05-4.99084E-06-4.04816E-19 1.29482E-19
 -1      2350 9.82744E-05-2.80548E-05-3.00987E-05-6.48111E-06-1.67542E-19 1.04459E-18
 -1      2351 9.85570E-05-2.86354E-05-2.99491E-05-4.42872E-06-1.17952E-19 7.83609E-19
 -1      2352 9.80140E-05-2.85419E-05-2.97739E-05-3.95557E-06 8.69084E-19 7.80933E-19
 -1      2353 9.76123E-05-2.79996E-05-2.98379E-05-5.23802E-06 2.32262E-19 2.38609E-18
 -1      2354 9.77714E-05-2.85483E-05-2.96518E-05-3.47492E-06 1.06017E-18 1.19533E-19
 -1      2355 9.73387E-05-2.84893E-05-2.95070E-05-3.07645E-06 6.04855E-19 1.96198E-19
 -1      2356 9.70828E-05-2.80302E-05-2.95975E-05-4.14865E-06 1.90153E-19 1.63361E-18
 -1      2357 9.71416E-05-2.85046E-05-2.94030E-05-2.67770E-06 3.93701E-19 3.33290E-20
 -1      2358 9.68019E-05-2.84675E-05-2.92861E-05-2.35191E-06 5.97882E-19 6.33377E-19
 -1      2359 9.66544E-05-2.80952E-05-2.93859E-05-3.22775E-06 6.16374E-19 1.38665E-18
 -1      2360 9.66429E-05-2.84850E-05-2.91999E-05-2.02859E-06-1.16160E-19 1.57273E-19
 -1      2361 9.63802E-05-2.84622E-05-2.91075E-05-1.76808E-06-7.71451E-19 2.94658E-19
 -1      2362 9.63086E-05-2.81690E-05-2.92058E-05-2.46958E-06-1.33103E-19 8.98385E-19
 -1      2363 9.62537E-05-2.84790E-05-2.90378E-05-1.51078E-06-1.09853E-18 2.82586E-19
 -1      2364 9.60538E-05-2.84657E-05-2.89660E-05-1.30622E-06-1.69707E-19 2.17158E-19
 -1      2365 9.60323E-05-2.82398E-05-2.90567E-05-1.85831E-06-8.17541E-19 1.44667E-18
 -1      2366 9.59548E-05-2.84809E-05-2.89107E-05-1.10477E-06 4.50814E-19-3.62668E-19
 -1      2367 9.58054E-05-2.84740E-05-2.88560E-05-9.46688E-07-4.79428E-19 6.14552E-20
 -1      2368 9.58147E-05-2.83030E-05-2.89360E-05-1.37412E-06-5.05763E-19 9.64096E-19
 -1      2369 9.57293E-05-2.84871E-05-2.88129E-05-7.91365E-07-1.31835E-18 2.83224E-19
 -1      2370 9.56197E-05-2.84846E-05-2.87719E-05-6.71036E-07-8.20173E-19 7.49809E-19
 -1      2371 9.56463E-05-2.83571E-05-2.88403E-05-9.96642E-07-7.11792E-19 3.23797E-19
 -1      2372 9.55624E-05-2.84957E-05-2.87389E-05-5.53062E-07-6.52237E-19 1.16506E-18
 -1      2373 9.54838E-05-2.84960E-05-2.87087E-05-4.62853E-07-5.57737E-19 9.54088E-19
 -1      2374 9.55184E-05-2.84024E-05-2.87657E-05-7.06803E-07-4.24221E-19 1.95738E-18
 -1      2375 9.54416E-05-2.85053E-05-2.86839E-05-3.74621E-07-8.44012E-19 1.36041E-18
 -1      2376 9.53866E-05-2.85073E-05-2.86623E-05-3.08068E-07-9.82019E-19 7.20824E-19
 -1      2377 9.54233E-05-2.84397E-05-2.87087E-05-4.87611E-07-8.60015E-19 2.14055E-18
 -1      2378 9.53562E-05-2.85151E-05-2.86440E-05-2.43162E-07-1.11780E-18-1.21903E-19
 -1      2379 9.53191E-05-2.85181E-05-2.86288E-05-1.94918E-07 3.45445E-19-9.21984E-19
 -1      2380 9.53542E-05-2.84700E-05-2.86658E-05-3.24451E-07-1.39977E-18 2.20741E-18
 -1      2381 9.52979E-05-2.85244E-05-2.86156E-05-1.48040E-07 1.95854E-18-1.87442E-18
 -1      2382 9.52739E-05-2.85279E-05-2.86052E-05-1.13765E-07 1.36004E-18-1.42881E-18
 -1      2383 9.53054E-05-2.84944E-05-2.86342E-05-2.05062E-07 6.84645E-19 2.09917E-19
 -1      2384 9.52597E-05-2.85331E-05-2.85960E-05-8.06199E-08 1.05116E-18-9.97049E-19
 -1      2385 9.52453E-05-2.85367E-05-2.85892E-05-5.68513E-08 9.31280E-19 8.85079E-19
 -1      2386 9.52722E-05-2.85138E-05-2.86114E-05-1.19370E-07 1.79764E-18 8.53048E-19
 -1      2387 9.52362E-05-2.85409E-05-2.85829E-05-3.40204E-08 6.35782E-19 8.00549E-19
 -1      2388 9.52286E-05-2.85444E-05-2.85788E-05-1.80485E-08 1.65133E-18 1.66479E-18
 -1      2389 9.52505E-05-2.85292E-05-2.85953E-05-5.92510E-08 8.02131E-19 2.18429E-18
 -1      2390 9.52233E-05-2.85478E-05-2.85747E-05-2.86589E-09 1.84302E-18 1.40164E-18
 -1      2391 9.52203E-05-2.85512E-05-2.85724E-05 7.38198E-09 2.26446E-18 1.59382E-18
 -1      2392 9.52373E-05-2.85412E-05-2.85844E-05-1.82798E-08 1.33166E-18 1.90920E-18
 -1      2393 9.52177E-05-2.85540E-05-2.85698E-05 1.69402E-08 2.81652E-18 6.95102E-19
 -1      2394 9.52178E-05-2.85571E-05-2.85688E-05 2.29965E-08 2.09528E-18 3.50231E-19
 -1      2395 9.52302E-05-2.85508E-05-2.85772E-05 8.51012E-09 1.78332E-18 1.04856E-18
 -1      2396 9.52171E-05-2.85595E-05-2.85673E-05 2.84120E-08 1.42002E-18-3.33504E-19
 -1      2397 9.52191E-05-2.85625E-05-2.85671E-05 3.13532E-08 1.25998E-18 3.58985E-19
 -1      2398 9.52274E-05-2.85585E-05-2.85726E-05 2.48405E-08 8.01932E-19 4.79164E-19
 -1      2399 9.52196E-05-2.85647E-05-2.85662E-05 3.36767E-08 5.76826E-19 1.78025E-19
 -1      2400 9.52227E-05-2.85676E-05-2.85665E-05 3.41905E-08-1.25220E-18 4.10111E-19
 -1      2401 9.52275E-05-2.85649E-05-2.85698E-05 3.33863E-08 6.23073E-19 8.99995E-19
 -1      2402 9.52240E-05-2.85699E-05-2.85660E-05 3.40281E-08-2.64446E-18 8.94821E-19
 -1      2403 9.52275E-05-2.85727E-05-2.85664E-05 3.24607E-08-2.08169E-18 8.94110E-19
 -1      2404 9.52296E-05-2.85709E-05-2.85681E-05 3.60368E-08-1.84552E-18 2.47593E-19
 -1      2405 5.04423E-05-3.35800E-05-7.11257E-06 4.05397E-05-2.39986E-18 5.05742E-18
 -1      2406 3.79914E-05-2.85325E-05-3.77749E-06 3.31249E-05-2.80177E-18 5.66411E-18
 -1      2407 9.99631E-05-2.96759E-05-3.01197E-05-3.87751E-06 6.65253E-19 1.45893E-19
 -1      2408 9.93771E-05-2.92763E-05-3.00158E-05-3.56218E-06 9.91217E-19 3.90773E-19
 -1      2409 1.01204E-04-3.05218E-05-3.03011E-05-4.13219E-06 4.99829E-19-9.09369E-20
 -1      2410 1.00481E-04-3.00636E-05-3.01618E-05-4.12803E-06 5.09436E-19 7.94987E-20
 -1      2411 9.99546E-05-2.96927E-05-3.01305E-05-4.58020E-06 7.47244E-19-4.42102E-19
 -1      2412 1.02630E-04-3.14965E-05-3.05081E-05-3.67049E-06 5.97168E-19-5.52127E-20
 -1      2413 1.01890E-04-3.09947E-05-3.03728E-05-4.00824E-06 5.26411E-19-1.41613E-21
 -1      2414 1.01218E-04-3.07724E-05-3.02062E-05-4.77547E-06 5.52185E-19-6.78366E-19
 -1      2415 1.04049E-04-3.25378E-05-3.06837E-05-2.40176E-06 7.00700E-19-1.94702E-20
 -1      2416 1.03429E-04-3.20467E-05-3.05855E-05-3.12138E-06 6.10926E-19 1.09285E-19
 -1      2417 1.02769E-04-3.20372E-05-3.03249E-05-4.12365E-06 6.30745E-19-3.62899E-19
 -1      2418 1.05211E-04-3.34704E-05-3.07916E-05-2.86829E-07 2.86512E-19 3.68269E-19
 -1      2419 1.04867E-04-3.31019E-05-3.07546E-05-1.38351E-06 5.86187E-19 3.03680E-19
 -1      2420 1.04461E-04-3.34048E-05-3.04577E-05-2.52127E-06 4.42987E-19 1.82718E-19
 -1      2421 1.05794E-04-3.39739E-05-3.08239E-05 2.51992E-06 1.73787E-19 5.21667E-19
 -1      2422 1.05888E-04-3.39034E-05-3.08568E-05 1.16671E-06 2.16407E-19 5.05275E-19
 -1      2423 1.06034E-04-3.46146E-05-3.06032E-05 5.61557E-08 3.89486E-19 3.22662E-19
 -1      2424 1.05450E-04-3.36218E-05-3.08069E-05 5.50373E-06 4.45857E-19 4.37866E-19
 -1      2425 1.06097E-04-3.40457E-05-3.08977E-05 4.19765E-06 2.61872E-19 5.61632E-19
 -1      2426 1.07077E-04-3.51894E-05-3.07878E-05 3.37830E-06 3.46445E-19 1.42405E-19
 -1      2427 1.03972E-04-3.20904E-05-3.07922E-05 7.70814E-06 8.24267E-19 3.13889E-19
 -1      2428 1.05143E-04-3.30968E-05-3.09091E-05 6.93298E-06 6.32135E-19 3.89041E-19
 -1      2429 1.07079E-04-3.45355E-05-3.10530E-05 6.75283E-06 6.49064E-19 8.90303E-20
 -1      2430 1.01587E-04-2.95388E-05-3.08251E-05 7.95243E-06 4.57676E-19 8.25295E-20
 -1      2431 1.03005E-04-3.09272E-05-3.09291E-05 8.20872E-06 7.32085E-19 7.03434E-20
 -1      2432 1.05714E-04-3.23085E-05-3.14209E-05 8.95321E-06 7.98729E-19-7.92538E-20
 -1      2433 9.91572E-05-2.68829E-05-3.09091E-05 5.48958E-06 1.93223E-19-1.72902E-19
 -1      2434 1.00312E-04-2.81083E-05-3.09706E-05 6.96386E-06 4.25636E-19 1.16417E-19
 -1      2435 1.03283E-04-2.89472E-05-3.18472E-05 8.58071E-06 2.98590E-19-3.68018E-19
 -1      2436 9.79120E-05-2.54791E-05-3.10015E-05 7.82547E-07 5.89839E-19-8.38077E-19
 -1      2437 9.82861E-05-2.59124E-05-3.10084E-05 3.07023E-06 6.22106E-20-3.85787E-19
 -1      2438 1.00935E-04-2.58640E-05-3.22065E-05 4.99148E-06 5.05186E-19-7.32473E-19
 -1      2439 9.86499E-05-2.61833E-05-3.10579E-05-4.39761E-06 1.58475E-18-1.35029E-18
 -1      2440 9.80376E-05-2.55714E-05-3.10081E-05-2.18078E-06 1.34523E-18-8.32109E-19
 -1      2441 1.00098E-04-2.47396E-05-3.23503E-05-8.19797E-07 9.93732E-19-1.39658E-18
 -1      2442 1.01050E-04-2.85997E-05-3.10810E-05-7.96842E-06 1.02019E-18-1.87047E-18
 -1      2443 9.97134E-05-2.72840E-05-3.09764E-05-6.65577E-06 1.48873E-18-1.42218E-18
 -1      2444 1.01372E-04-2.62605E-05-3.22203E-05-6.44253E-06 1.56699E-18-1.69708E-18
 -1      2445 1.03921E-04-3.14224E-05-3.11070E-05-8.85139E-06 2.41192E-19-2.27746E-18
 -1      2446 1.02392E-04-3.00452E-05-3.09618E-05-8.73985E-06 6.60931E-19-1.84752E-18
 -1      2447 1.03966E-04-2.95154E-05-3.18943E-05-9.60025E-06 8.31125E-19-2.37933E-18
 -1      2448 1.06107E-04-3.34686E-05-3.11558E-05-7.35915E-06 1.22946E-19-2.28439E-18
 -1      2449 1.04868E-04-3.25205E-05-3.10016E-05-8.19106E-06 4.57017E-20-2.15890E-18
 -1      2450 1.06427E-04-3.27925E-05-3.15214E-05-9.57638E-06 6.77606E-20-2.36771E-18
 -1      2451 1.07089E-04-3.42923E-05-3.12091E-05-4.60165E-06 7.89210E-19-2.76641E-18
 -1      2452 1.06378E-04-3.39147E-05-3.10852E-05-5.87123E-06 6.78272E-19-2.25387E-18
 -1      2453 1.07730E-04-3.48146E-05-3.12168E-05-7.19031E-06 4.64904E-19-2.51934E-18
 -1      2454 1.06955E-04-3.40987E-05-3.12247E-05-1.68489E-06 1.04416E-18-2.40393E-18
 -1      2455 1.06779E-04-3.41734E-05-3.11621E-05-2.94748E-06 7.64282E-19-2.65263E-18
 -1      2456 1.07691E-04-3.52915E-05-3.10108E-05-3.84671E-06 8.08892E-19-2.27825E-18
 -1      2457 1.06064E-04-3.33296E-05-3.11682E-05 7.10391E-07 8.04360E-19-1.62461E-18
 -1      2458 1.06306E-04-3.36605E-05-3.11785E-05-2.90499E-07 1.25457E-18-1.43832E-18
 -1      2459 1.06686E-04-3.46460E-05-3.08703E-05-6.74679E-07 6.79224E-19-6.26164E-19
 -1      2460 1.04779E-04-3.23684E-05-3.10280E-05 2.33713E-06-1.14657E-18-1.10753E-18
 -1      2461 1.05289E-04-3.27923E-05-3.11050E-05 1.67868E-06 1.73802E-19-1.55178E-18
 -1      2462 1.05201E-04-3.34705E-05-3.07460E-05 1.74699E-06 1.07816E-19-3.42311E-19
 -1      2463 1.03361E-04-3.14482E-05-3.08150E-05 3.22860E-06-1.62304E-18-1.13309E-18
 -1      2464 1.04009E-04-3.18654E-05-3.09413E-05 2.88497E-06-1.67112E-18-1.06853E-18
 -1      2465 1.03602E-04-3.22136E-05-3.06020E-05 3.28147E-06-1.26542E-18-6.50062E-19
 -1      2466 1.01971E-04-3.06716E-05-3.05529E-05 3.54353E-06-1.48785E-18-7.93944E-19
 -1      2467 1.02661E-04-3.10356E-05-3.07078E-05 3.44095E-06-1.64100E-18-1.03073E-18
 -1      2468 1.02090E-04-3.11157E-05-3.04251E-05 4.03747E-06-1.61443E-18-1.28531E-18
 -1      2469 1.00695E-04-3.00614E-05-3.02681E-05 3.46537E-06 1.47785E-19-7.71372E-19
 -1      2470 1.01363E-04-3.03583E-05-3.04331E-05 3.52348E-06-5.52256E-19-9.08577E-19
 -1      2471 1.00753E-04-3.02576E-05-3.02192E-05 4.21319E-06-1.07211E-18-8.43618E-19
 -1      2472 9.95715E-05-2.96023E-05-2.99839E-05 3.15358E-06 1.65469E-19-2.52035E-19
 -1      2473 1.00179E-04-2.98346E-05-3.01447E-05 3.30430E-06 3.97674E-19-8.40381E-19
 -1      2474 9.96124E-05-2.96334E-05-2.99971E-05 4.00854E-06 1.64247E-19-1.69470E-18
 -1      2475 9.86129E-05-2.92666E-05-2.97173E-05 2.72804E-06-3.86635E-19 1.42042E-19
 -1      2476 9.91425E-05-2.94434E-05-2.98647E-05 2.92112E-06 1.45610E-19 3.60268E-19
 -1      2477 9.86600E-05-2.92019E-05-2.97732E-05 3.58780E-06-9.61848E-20-2.19757E-19
 -1      2478 9.78154E-05-2.90262E-05-2.94787E-05 2.27004E-06-8.81942E-19 4.95783E-19
 -1      2479 9.82610E-05-2.91578E-05-2.96077E-05 2.47207E-06-6.49422E-19-5.53562E-20
 -1      2480 9.78772E-05-2.89154E-05-2.95599E-05 3.07081E-06-4.57823E-19 2.98551E-19
 -1      2481 9.71664E-05-2.88571E-05-2.92733E-05 1.82960E-06-2.51997E-19-2.71380E-19
 -1      2482 9.75305E-05-2.89532E-05-2.93821E-05 2.02053E-06-2.77976E-19 5.13884E-19
 -1      2483 9.72426E-05-2.87324E-05-2.93659E-05 2.53719E-06-3.94449E-19 9.52672E-20
 -1      2484 9.66491E-05-2.87403E-05-2.91019E-05 1.43399E-06 1.42893E-19-1.21014E-18
 -1      2485 9.69391E-05-2.88090E-05-2.91909E-05 1.60332E-06-2.72950E-19-5.99445E-19
 -1      2486 9.67351E-05-2.86202E-05-2.91959E-05 2.03496E-06 1.90706E-19-8.73860E-19
 -1      2487 9.62449E-05-2.86613E-05-2.89628E-05 1.09503E-06-4.46674E-19-3.84659E-19
 -1      2488 9.64705E-05-2.87093E-05-2.90337E-05 1.23863E-06 1.51586E-19-3.84190E-19
 -1      2489 9.63348E-05-2.85553E-05-2.90517E-05 1.58941E-06-3.02595E-19-4.77514E-19
 -1      2490 9.59355E-05-2.86093E-05-2.88527E-05 8.14875E-07 3.27077E-19 3.98586E-19
 -1      2491 9.61069E-05-2.86420E-05-2.89077E-05 9.32504E-07-7.12085E-19-4.28597E-19
 -1      2492 9.60239E-05-2.85209E-05-2.89328E-05 1.21061E-06-4.13147E-19 5.51088E-19
 -1      2493 9.57034E-05-2.85765E-05-2.87676E-05 5.90031E-07 8.96121E-19 1.12758E-18
 -1      2494 9.58306E-05-2.85979E-05-2.88092E-05 6.83665E-07 1.22419E-18 7.40568E-19
 -1      2495 9.57865E-05-2.85059E-05-2.88370E-05 8.99075E-07 3.60072E-19 8.01587E-19
 -1      2496 9.55334E-05-2.85570E-05-2.87033E-05 4.14148E-07 5.69245E-20 2.43185E-18
 -1      2497 9.56253E-05-2.85703E-05-2.87341E-05 4.86819E-07 3.14183E-19 1.59954E-18
 -1      2498 9.56083E-05-2.85025E-05-2.87617E-05 6.49884E-07 1.81725E-19 1.28816E-18
 -1      2499 9.54120E-05-2.85465E-05-2.86559E-05 2.79785E-07-4.78048E-19 1.57137E-18
 -1      2500 9.54764E-05-2.85541E-05-2.86780E-05 3.34867E-07 3.10621E-19 2.16287E-18
 -1      2501 9.54774E-05-2.85058E-05-2.87037E-05 4.55400E-07 1.53909E-19 1.87029E-18
 -1      2502 9.53281E-05-2.85422E-05-2.86220E-05 1.79478E-07 1.11616E-18-5.52253E-20
 -1      2503 9.53716E-05-2.85458E-05-2.86374E-05 2.20265E-07-2.08856E-19 7.69027E-19
 -1      2504 9.53834E-05-2.85126E-05-2.86602E-05 3.07063E-07 8.51096E-19 7.01403E-19
 -1      2505 9.52724E-05-2.85417E-05-2.85984E-05 1.06347E-07-7.87111E-19 9.15559E-19
 -1      2506 9.53003E-05-2.85428E-05-2.86087E-05 1.35823E-07 1.11985E-18 6.11111E-19
 -1      2507 9.53178E-05-2.85208E-05-2.86283E-05 1.96448E-07 4.70323E-19 5.56039E-19
 -1      2508 9.52376E-05-2.85437E-05-2.85828E-05 5.43872E-08-2.04361E-18-1.35890E-19
 -1      2509 9.52541E-05-2.85430E-05-2.85893E-05 7.51202E-08-2.20845E-18 2.30183E-19
 -1      2510 9.52738E-05-2.85293E-05-2.86056E-05 1.15873E-07-1.31902E-18 6.71740E-19
 -1      2511 9.52179E-05-2.85470E-05-2.85730E-05 1.85722E-08-3.40857E-19-2.99031E-19
 -1      2512 9.52262E-05-2.85453E-05-2.85767E-05 3.26873E-08-9.21699E-19-5.20686E-19
 -1      2513 9.52457E-05-2.85374E-05-2.85899E-05 5.86731E-08-1.07678E-18-2.19251E-18
 -1      2514 9.52088E-05-2.85511E-05-2.85674E-05-5.14964E-09 3.32983E-19-7.35856E-19
 -1      2515 9.52116E-05-2.85488E-05-2.85692E-05 4.03917E-09 2.60550E-20-5.19255E-19
 -1      2516 9.52293E-05-2.85448E-05-2.85795E-05 1.93016E-08-3.59817E-19-1.28332E-18
 -1      2517 9.52069E-05-2.85555E-05-2.85647E-05-1.99185E-08 1.42640E-19 9.58595E-19
 -1      2518 9.52059E-05-2.85529E-05-2.85652E-05-1.43659E-08 6.81105E-19 4.18510E-19
 -1      2519 9.52210E-05-2.85514E-05-2.85730E-05-6.69442E-09-7.68608E-20-1.63957E-18
 -1      2520 9.52095E-05-2.85600E-05-2.85640E-05-2.80496E-08 6.87105E-20 1.69006E-18
 -1      2521 9.52064E-05-2.85573E-05-2.85637E-05-2.52063E-08-5.00949E-20 2.49608E-18
 -1      2522 9.52184E-05-2.85573E-05-2.85693E-05-2.27486E-08-5.87034E-19 6.86474E-19
 -1      2523 9.52149E-05-2.85645E-05-2.85644E-05-3.11175E-08 7.64522E-20 1.69447E-18
 -1      2524 9.52106E-05-2.85618E-05-2.85637E-05-3.03897E-08 8.22601E-20 2.18243E-18
 -1      2525 9.52196E-05-2.85627E-05-2.85674E-05-3.13866E-08 3.60723E-19 1.79590E-18
 -1      2526 9.52217E-05-2.85692E-05-2.85654E-05-3.00589E-08 6.76859E-19 1.10755E-18
 -1      2527 9.52169E-05-2.85665E-05-2.85644E-05-3.11595E-08 4.67480E-19 1.68879E-18
 -1      2528 9.52230E-05-2.85677E-05-2.85666E-05-3.43422E-08 7.60324E-19 1.87440E-18
 -1      2529 9.52287E-05-2.85740E-05-2.85664E-05-2.53297E-08-1.92726E-19 1.16754E-18
 -1      2530 9.52242E-05-2.85713E-05-2.85655E-05-2.80672E-08-7.70061E-20 1.47174E-18
 -1      2531 9.52279E-05-2.85730E-05-2.85664E-05-3.27292E-08 6.46224E-20 1.37242E-18
 -1      2532 9.52315E-05-2.85763E-05-2.85666E-05-2.12817E-08-1.34173E-19 2.05525E-18
 -1      2533 9.52515E-05-2.85991E-05-2.85653E-05-2.12606E-08-1.80018E-18-7.60502E-20
 -1      2534 9.52498E-05-2.85964E-05-2.85657E-05-2.40252E-08-1.91589E-18-1.67107E-18
 -1      2535 9.52535E-05-2.86019E-05-2.85649E-05-1.42502E-08-1.41056E-18 1.86015E-18
 -1      2536 9.52524E-05-2.86001E-05-2.85652E-05-1.77051E-08-1.95874E-18 2.60574E-18
 -1      2537 9.52519E-05-2.85928E-05-2.85682E-05-2.11113E-08-9.23538E-19 1.20101E-18
 -1      2538 9.52435E-05-2.85893E-05-2.85661E-05-2.95773E-08-1.21702E-18-2.88478E-18
 -1      2539 9.52403E-05-2.85853E-05-2.85665E-05-2.96325E-08-6.44765E-19-1.50186E-18
 -1      2540 9.52482E-05-2.85948E-05-2.85657E-05-2.66923E-08-2.70460E-18-1.84064E-18
 -1      2541 9.52459E-05-2.85915E-05-2.85662E-05-2.82987E-08-1.73098E-18-2.08459E-18
 -1      2542 9.52439E-05-2.85862E-05-2.85676E-05-3.16450E-08-8.41576E-19-2.74065E-18
 -1      2543 9.52488E-05-2.85901E-05-2.85680E-05-2.75583E-08-1.71896E-18-6.32047E-19
 -1      2544 9.52545E-05-2.86035E-05-2.85647E-05-6.40123E-09-2.55080E-18 7.48408E-19
 -1      2545 9.52540E-05-2.86025E-05-2.85648E-05-1.02132E-08-1.19995E-18-1.77657E-20
 -1      2546 9.52537E-05-2.85945E-05-2.85683E-05-1.32319E-08-1.49586E-18 1.24176E-18
 -1      2547 9.52547E-05-2.86037E-05-2.85646E-05 1.79242E-09-1.49826E-18 7.58197E-19
 -1      2548 9.52547E-05-2.86037E-05-2.85646E-05-2.14199E-09-2.50036E-18 1.90199E-18
 -1      2549 9.52546E-05-2.85953E-05-2.85683E-05-4.63165E-09-2.08535E-18 1.11349E-18
 -1      2550 9.52541E-05-2.86027E-05-2.85648E-05 9.93368E-09-6.67552E-19-5.83020E-19
 -1      2551 9.52546E-05-2.86036E-05-2.85647E-05 6.07898E-09-1.78564E-18-5.95578E-20
 -1      2552 9.52547E-05-2.85954E-05-2.85683E-05 4.22085E-09-1.26377E-18 4.53953E-19
 -1      2553 9.52527E-05-2.86005E-05-2.85652E-05 1.74568E-08-7.06848E-19-2.42288E-18
 -1      2554 9.52537E-05-2.86022E-05-2.85649E-05 1.39837E-08-3.82039E-19-1.44222E-18
 -1      2555 9.52540E-05-2.85948E-05-2.85682E-05 1.28611E-08-6.80400E-19-2.33175E-19
 -1      2556 9.52501E-05-2.85968E-05-2.85657E-05 2.39950E-08 5.24137E-20-1.63570E-18
 -1      2557 9.52518E-05-2.85995E-05-2.85652E-05 2.11277E-08-2.54711E-19-3.35248E-18
 -1      2558 9.52523E-05-2.85933E-05-2.85682E-05 2.08869E-08-6.92385E-19-2.66346E-18
 -1      2559 9.52461E-05-2.85918E-05-2.85661E-05 2.84828E-08-1.20919E-18 1.64312E-18
 -1      2560 9.52485E-05-2.85952E-05-2.85657E-05 2.67671E-08-8.79114E-19-3.10532E-20
 -1      2561 9.52492E-05-2.85905E-05-2.85680E-05 2.76725E-08-3.70129E-19-1.76253E-18
 -1      2562 9.52403E-05-2.85855E-05-2.85664E-05 2.97737E-08-1.74666E-18-1.30317E-18
 -1      2563 9.52436E-05-2.85895E-05-2.85660E-05 2.98441E-08-1.78270E-18 8.00604E-19
 -1      2564 9.52443E-05-2.85866E-05-2.85676E-05 3.19064E-08-1.99616E-18 1.22158E-18
 -1      2565 9.52351E-05-2.85808E-05-2.85662E-05 2.51902E-08 5.49461E-20-1.27867E-18
 -1      2566 1.85717E-05-1.86205E-05 2.51391E-07-4.84975E-06-6.97995E-19 8.90570E-18
 -1      2567 2.49358E-05-2.13643E-05-1.30618E-06-1.94415E-05-2.04770E-19 8.91354E-18
 -1      2568 9.90640E-05-2.89433E-05-3.00376E-05-2.94985E-06 1.33531E-18 4.53505E-19
 -1      2569 9.87339E-05-2.85853E-05-3.00181E-05-2.30160E-06 1.60636E-18 7.86624E-19
 -1      2570 9.90624E-05-2.87571E-05-3.01511E-05-3.60322E-06 1.43116E-18-1.22362E-19
 -1      2571 8.83077E-05-4.90518E-05-1.67336E-05 4.34726E-05-2.16099E-18 2.11224E-18
 -1      2572 7.02732E-05-4.26132E-05-1.15645E-05 4.22813E-05-2.93179E-18 3.58718E-18
 -1      2573 1.21366E-04-5.61808E-05-2.80338E-05 3.15946E-05 3.84129E-19-1.64430E-19
 -1      2574 1.05104E-04-5.46108E-05-2.16214E-05 3.67647E-05-9.61594E-19 6.49568E-19
 -1      2575 1.41170E-04-5.08709E-05-3.89598E-05 1.60801E-05 2.25671E-18-9.41689E-19
 -1      2576 1.31962E-04-5.40957E-05-3.34854E-05 2.11938E-05 1.33037E-18-9.34913E-19
 -1      2577 1.41204E-04-4.97649E-05-3.92691E-05-8.51242E-06 1.50448E-18-7.66565E-20
 -1      2578 1.47266E-04-4.20453E-05-4.55092E-05-2.43952E-06 3.15303E-18 4.69680E-19
 -1      2579 1.47747E-04-1.80407E-05-5.61702E-05-6.48916E-06-7.12757E-18 2.64698E-21
 -1      2580 1.48027E-04-2.53282E-05-5.28912E-05-9.67256E-06-6.03956E-18 1.44631E-19
 -1      2581 4.13599E-05-2.94578E-05-4.91312E-06 3.37650E-05 7.65718E-19-5.45532E-18
 -1      2582 2.82387E-05-2.25665E-05-2.13119E-06 2.17733E-05 8.49256E-19-6.02749E-18
 -1      2583 6.72748E-05-4.21706E-05-1.04484E-05-3.93802E-05 1.86241E-18 3.78581E-18
 -1      2584 8.70108E-05-4.98076E-05-1.61496E-05-4.11739E-05 2.05998E-18 2.69769E-18
 -1      2585 1.20582E-04-5.71700E-05-2.70949E-05-3.03039E-05-2.44369E-19-2.80918E-18
 -1      2586 1.32956E-04-5.65515E-05-3.32098E-05-2.26055E-05 4.63327E-19-1.48570E-18
 -1      2587 8.38217E-05-7.62635E-06-3.26855E-05-1.07349E-06-6.28053E-20-4.42070E-18
 -1      2588 8.40963E-05-7.81300E-06-3.27205E-05-1.70966E-06-4.02696E-19-4.38218E-18
 -1      2589 8.52092E-05-9.55266E-06-3.24159E-05-1.64838E-06-4.91523E-19-4.01937E-18
 -1      2590 8.46093E-05-9.07630E-06-3.23645E-05-8.11711E-07 2.35838E-20-4.14919E-18
 -1      2591 1.45375E-04-1.84948E-05-5.49036E-05-5.66489E-06 6.61109E-18-2.41055E-18
 -1      2592 1.44691E-04-2.41847E-05-5.20448E-05-6.08990E-06 5.59931E-18-2.66498E-18
 -1      2593 2.22629E-05-2.20766E-05 4.97068E-08-1.73702E-05-1.05477E-18-6.52639E-18
 -1      2594 3.25558E-05-2.43654E-05-3.26114E-06-2.91282E-05-1.31629E-18-5.94130E-18
 -1      2595 1.42405E-04-1.58188E-05-5.47060E-05 5.94275E-06 6.85970E-18 7.31625E-19
 -1      2596 1.39490E-04-1.14583E-05-5.56534E-05 3.92192E-06 7.32747E-18 2.66445E-19
 -1      2597 5.19299E-05-3.44782E-05-7.15069E-06-3.96666E-05-1.40523E-18-5.28676E-18
 -1      2598 6.87793E-05-4.26308E-05-1.10942E-05-4.45229E-05-4.96997E-19-4.74074E-18
 -1      2599 8.44061E-05-4.74344E-05-1.55526E-05-4.21863E-05-1.94479E-18-3.66448E-18
 -1      2600 2.51770E-05-2.24752E-05-1.02143E-06 2.39417E-05-2.24972E-18 6.86414E-18
 -1      2601 1.81060E-05-1.94224E-05 7.21167E-07 9.71930E-06-2.38323E-18 8.31363E-18
 -1      2602 3.70965E-05-2.26862E-05-5.67472E-06 2.83613E-05-3.25854E-18 6.39086E-18
 -1      2603 1.39868E-04-8.98225E-06-5.68020E-05-9.38434E-07 7.58645E-18-9.82916E-19
 -1      2604 1.43116E-04-1.21097E-05-5.65995E-05-3.70563E-06 7.23578E-18-1.55314E-18
 -1      2605 1.33040E-04-1.32637E-05-5.15615E-05-7.95499E-06 6.10668E-18-1.87872E-18
 -1      2606 1.48593E-04-3.46370E-05-4.93427E-05-1.28910E-06 4.40330E-18-2.65291E-18
 -1      2607 1.45314E-04-4.27711E-05-4.40794E-05 6.22991E-06 3.15647E-18-1.89566E-18
 -1      2608 1.42397E-04-4.82923E-05-4.03416E-05 3.52530E-06 1.52467E-18-3.32630E-18
 -1      2609 1.45917E-04-3.15517E-05-4.94068E-05 3.38687E-06 4.72898E-18 1.10220E-18
 -1      2610 1.45901E-04-2.32747E-05-5.31544E-05 5.53744E-06 6.07111E-18 1.30147E-18
 -1      2611 1.34835E-04-1.94905E-05-4.95240E-05 9.86002E-06 5.29607E-18 2.21160E-18
 -1      2612 1.41162E-04-3.81914E-05-4.42851E-05 6.22580E-06 2.93052E-18 2.13675E-18
 -1      2613 2.03709E-05-1.76788E-05-8.13602E-07 8.38287E-06-1.19432E-19-6.44042E-18
 -1      2614 1.87546E-05-1.90941E-05 2.97570E-07-5.94517E-06-2.62263E-19-6.63142E-18
 -1      2615 2.71603E-05-1.63699E-05-4.04446E-06-1.06589E-05-8.12305E-19-6.22485E-18
 -1      2616 7.16080E-05-4.36212E-05-1.19428E-05 4.17396E-05 1.21592E-18-4.39727E-18
 -1      2617 5.49199E-05-3.71273E-05-7.43928E-06 3.82011E-05 1.08272E-18-4.87976E-18
 -1      2618 5.28563E-05-3.10517E-05-8.82049E-06 3.49548E-05 1.79550E-18-4.72793E-18
 -1      2619 1.11447E-04-5.79565E-05-2.25838E-05-3.15534E-05 1.82705E-18 2.22558E-19
 -1      2620 1.29132E-04-6.10803E-05-2.94425E-05-2.46028E-05-4.61633E-20-9.76947E-19
 -1      2621 1.17144E-04-5.90919E-05-2.50735E-05 3.32116E-05 2.86721E-19-1.56484E-18
 -1      2622 9.69913E-05-5.39478E-05-1.82290E-05 3.85082E-05 1.11639E-18-3.13721E-18
 -1      2623 1.51198E-04-3.82046E-05-4.90165E-05-6.61690E-06-4.77875E-18 5.40407E-19
 -1      2624 1.48502E-04-4.73251E-05-4.35466E-05-1.15993E-06-3.70836E-18 2.09005E-19
 -1      2625 1.48350E-04-1.36265E-05-5.81629E-05 2.75612E-06-7.74696E-18-1.42227E-18
 -1      2626 1.45910E-04-1.29321E-05-5.75470E-05-1.77579E-06-7.26585E-18-1.32333E-18
 -1      2627 1.50871E-04-2.38678E-05-5.47748E-05 8.37383E-06-6.86287E-18-2.78610E-18
 -1      2628 1.50853E-04-1.71388E-05-5.77483E-05 6.17818E-06-7.41959E-18-2.07280E-18
 -1      2629 1.51396E-04-4.19122E-05-4.71261E-05 3.35392E-06-5.18977E-18-2.56312E-18
 -1      2630 1.53462E-04-3.48216E-05-5.13425E-05 6.64505E-06-6.10923E-18-2.65270E-18
 -1      2631 1.39932E-04-5.68829E-05-3.56555E-05-1.19374E-05-2.28709E-18-1.80397E-18
 -1      2632 1.49927E-04-5.13354E-05-4.25263E-05-4.59753E-06-4.04280E-18-2.34332E-18
 -1      2633 3.59943E-05-2.78109E-05-3.25608E-06-2.90880E-05 1.59729E-18 7.03037E-18
 -1      2634 4.84874E-05-3.32282E-05-6.46970E-06-3.69564E-05 1.31417E-18 4.82872E-18
 -1      2635 6.45332E-05-3.66539E-05-1.13858E-05-3.75007E-05 3.51540E-18 3.82859E-18
 -1      2636 3.63959E-05-2.15858E-05-5.76664E-06-2.36229E-05 2.13050E-18 6.65493E-18
 -1      2637 1.43918E-04-5.68766E-05-3.78614E-05 1.03794E-05-1.95220E-18 1.32349E-19
 -1      2638 1.33029E-04-6.01816E-05-3.11798E-05 1.92343E-05-6.55392E-19 1.27055E-20
 -1      2639 9.92749E-05-2.59161E-05-3.14543E-05 5.14022E-06 3.23916E-18 1.90740E-18
 -1      2640 1.00015E-04-2.45443E-05-3.23624E-05 8.30622E-06 3.44239E-18 2.41801E-18
 -1      2641 9.82707E-05-2.19981E-05-3.27448E-05 9.28100E-06 3.67388E-18 1.17708E-18
 -1      2642 9.85233E-05-2.48036E-05-3.16304E-05 4.75382E-06 3.27150E-18 6.07478E-19
 -1      2643 1.40604E-04-2.98433E-05-4.76352E-05-8.15088E-06 4.23516E-18-3.52450E-18
 -1      2644 8.89194E-05-1.27867E-05-3.26123E-05-3.63405E-06-1.93448E-18-3.54789E-18
 -1      2645 8.84660E-05-1.15403E-05-3.30305E-05-4.86559E-06-2.09178E-18-3.76336E-18
 -1      2646 8.98393E-05-1.26346E-05-3.31346E-05-5.85933E-06-2.56858E-18-3.49948E-18
 -1      2647 9.62355E-05-1.95594E-05-3.29063E-05 8.79211E-06 3.59977E-18-2.30949E-19
 -1      2648 1.16181E-04-5.80333E-05-2.46799E-05-3.24523E-05-1.85754E-18-2.01234E-18
 -1      2649 9.28769E-05-1.57991E-05-3.30811E-05-6.93205E-06-2.92186E-18-2.60398E-18
 -1      2650 1.35827E-04-6.05699E-05-3.23600E-05-1.23201E-05 4.61209E-19-2.70341E-18
 -1      2651 1.28095E-04-6.13110E-05-2.84196E-05 2.20681E-05 1.07213E-18 5.08220E-20
 -1      2652 6.81251E-05-3.81271E-05-1.23966E-05 4.08240E-05-3.57617E-18 3.55542E-18
 -1      2653 9.52332E-05-2.85782E-05-2.85665E-05-2.65801E-08-7.27365E-19 1.26533E-18
 -1      2654 1.29358E-04-5.80777E-05-3.04395E-05 2.16027E-05-4.72856E-19-1.71122E-18
 -1      2655 9.52358E-05-2.85812E-05-2.85662E-05-2.84338E-08-8.90483E-19 7.42806E-19
 -1      2656 1.47345E-04-4.85116E-05-4.24965E-05 5.45804E-06-3.64319E-18-3.52535E-18
 -1      2657 9.52316E-05-2.85765E-05-2.85665E-05 2.80932E-08-4.68344E-20 1.35210E-19
 -1      2658 9.52371E-05-2.85824E-05-2.85663E-05 3.01511E-08-7.03713E-19-5.59851E-19
 -1      2659 9.52373E-05-2.85807E-05-2.85671E-05 3.32225E-08-1.54670E-18 4.59839E-19
 -1      2660 9.52285E-05-2.85742E-05-2.85661E-05 3.11203E-08-1.20455E-18 6.71058E-19
 -1      2661 1.45331E-04-2.88186E-05-5.00882E-05 1.25322E-05-6.00165E-18-3.22508E-18
 -1      2662 1.38412E-04-1.42590E-05-5.33902E-05 6.30397E-06-6.78219E-18-2.27296E-18
 -1      2663 2.50249E-05-1.55791E-05-3.49520E-06 2.33870E-06-1.36982E-18 8.03157E-18
 -1      2664 9.85800E-05-2.78143E-05-3.03474E-05-1.79520E-06 1.96495E-18 8.31846E-20
 -1      2665 1.03018E-04-5.39671E-05-2.07983E-05 3.68197E-05-3.15795E-18 7.49240E-19
 -1      2666 1.44136E-04-3.20564E-05-4.80092E-05-1.25641E-05-4.85202E-18 1.06303E-18
 -1      2667 4.60810E-05-2.86847E-05-6.99196E-06-3.52407E-05-1.66823E-18-5.73950E-18
 -1      2668 5.96974E-05-3.23200E-05-1.13798E-05-3.80305E-05-2.18789E-18-4.83645E-18
 -1      2669 4.13149E-05-2.21166E-05-7.75840E-06-2.90477E-05-1.62842E-18-5.45277E-18
 -1      2670 3.14695E-05-1.82820E-05-5.05156E-06 1.57175E-05 8.63021E-19-6.08784E-18
 -1      2671 9.52358E-05-2.85797E-05-2.85669E-05-3.21317E-08-2.58871E-19-4.08583E-19
 -1      2672 1.44721E-04-5.34018E-05-3.90363E-05-2.62975E-06-1.42137E-18 1.24366E-18
 -1      2673 1.37508E-04-1.48934E-05-5.27331E-05-6.09779E-06-6.46201E-18-7.75565E-19
 -1      2674 1.37687E-04-5.50025E-05-3.53972E-05-1.05870E-05 5.62748E-20 3.95564E-19
 -1      2675 1.04238E-04-5.45000E-05-2.10103E-05-3.35401E-05 3.14503E-18 2.49878E-19
 -1      2676 9.64774E-05-2.08587E-05-3.23660E-05 6.59782E-06 3.34561E-18-5.11396E-19
 -1      2677 9.52323E-05-2.85758E-05-2.85671E-05 3.44960E-08-2.27896E-18 1.24973E-18
 -1      2678 1.30239E-04-9.50761E-06-5.20638E-05 2.36489E-06 6.61321E-18 9.12943E-20
 -1      2679 8.87306E-05-4.96267E-05-1.65031E-05 4.00244E-05 1.83213E-18-3.27736E-18
 -1      2680 8.00890E-05-4.28693E-05-1.54603E-05 3.89610E-05 2.26973E-18-2.92703E-18
 -1      2681 1.02702E-04-5.34352E-05-2.10237E-05 3.42716E-05 2.67938E-18-1.51537E-18
 -1      2682 8.68269E-05-1.19568E-05-3.20999E-05 7.86914E-07 1.31131E-18-3.53865E-18
 -1      2683 8.61327E-05-1.13765E-05-3.20645E-05 2.74784E-07 9.76367E-19-3.61138E-18
 -1      2684 8.55672E-05-1.08352E-05-3.20412E-05 8.22824E-09 6.94943E-19-3.82154E-18
 -1      2685 8.52308E-05-1.05588E-05-3.20255E-05-4.17471E-07 3.85351E-19-3.85670E-18
 -1      2686 8.65454E-05-1.24920E-05-3.17191E-05-2.72635E-07 7.90307E-19-3.50877E-18
 -1      2687 9.12357E-05-1.61309E-05-3.22146E-05 2.95690E-06 2.50468E-18-2.50801E-18
 -1      2688 8.99554E-05-1.49075E-05-3.21924E-05 2.26916E-06 2.13605E-18-2.80840E-18
 -1      2689 9.41860E-05-1.92638E-05-3.21409E-05 4.02639E-06 2.92688E-18-1.77138E-18
 -1      2690 9.26565E-05-1.76063E-05-3.21877E-05 3.44009E-06 2.67061E-18-2.16060E-18
 -1      2691 9.28358E-05-1.85635E-05-3.18118E-05 1.89355E-06 2.38375E-18-2.02793E-18
 -1      2692 1.23623E-04-1.13143E-05-4.88371E-05-6.39316E-06 5.52583E-18-1.28302E-18
 -1      2693 1.26833E-04-1.68021E-05-4.75773E-05-1.14058E-05 4.91470E-18-2.35322E-18
 -1      2694 9.52358E-05-2.85762E-05-2.85684E-05 3.55095E-08-2.10913E-18 7.83126E-19
 -1      2695 9.52369E-05-2.85785E-05-2.85679E-05 3.42551E-08-1.09047E-18 1.11743E-18
 -1      2696 9.52406E-05-2.85813E-05-2.85683E-05 3.43203E-08-1.60350E-18 4.43036E-19
 -1      2697 9.65037E-05-2.31336E-05-3.14281E-05-5.67988E-07-2.15624E-18-1.71774E-18
 -1      2698 9.66454E-05-2.40461E-05-3.11197E-05 1.42155E-06-1.88747E-18-1.60198E-18
 -1      2699 9.78102E-05-2.57502E-05-3.08874E-05 2.90316E-07 2.34991E-18-5.35886E-19
 -1      2700 9.78199E-05-2.48406E-05-3.12421E-05 2.12421E-06 2.65400E-18-4.04982E-19
 -1      2701 1.01140E-04-3.09840E-05-3.00799E-05-5.38775E-06 5.59131E-19-5.93480E-19
 -1      2702 1.00428E-04-3.02645E-05-3.00444E-05-5.44631E-06 5.84429E-19-4.70891E-19
 -1      2703 9.67897E-05-2.47581E-05-3.08475E-05 3.09033E-06-1.63607E-18-1.48815E-18
 -1      2704 9.69187E-05-2.52952E-05-3.06937E-05 4.66451E-06-1.37338E-18-1.42415E-18
 -1      2705 9.54331E-05-2.29581E-05-3.10675E-05 2.14636E-06-1.71957E-18-2.02117E-18
 -1      2706 9.69202E-05-2.56939E-05-3.05100E-05 6.09249E-06-1.16810E-18-1.35706E-18
 -1      2707 9.72010E-05-2.61236E-05-3.04522E-05 7.35799E-06-9.88067E-19-1.53493E-18
 -1      2708 9.55502E-05-2.42032E-05-3.05806E-05 5.33735E-06-1.34291E-18-1.73530E-18
 -1      2709 9.72201E-05-2.64540E-05-3.03180E-05 8.58989E-06-8.57947E-19-1.43921E-18
 -1      2710 9.77240E-05-2.69626E-05-3.03127E-05 9.61136E-06-6.14093E-19-1.43498E-18
 -1      2711 9.55765E-05-2.50852E-05-3.02182E-05 8.07209E-06-9.99256E-19-1.72387E-18
 -1      2712 9.79128E-05-2.74376E-05-3.01921E-05 1.06880E-05-4.15455E-19-1.43968E-18
 -1      2713 9.87393E-05-2.82259E-05-3.02044E-05 1.14465E-05-5.01582E-19-1.50171E-18
 -1      2714 9.57742E-05-2.60202E-05-2.99080E-05 1.04602E-05-6.11859E-19-1.60676E-18
 -1      2715 9.93075E-05-2.90894E-05-3.00716E-05 1.23479E-05-4.81288E-19-1.37294E-18
 -1      2716 1.00620E-04-3.03966E-05-3.00809E-05 1.27312E-05-1.80923E-19-1.45419E-18
 -1      2717 9.64886E-05-2.75157E-05-2.95870E-05 1.25452E-05-4.27162E-19-1.70868E-18
 -1      2718 1.01899E-04-3.19435E-05-2.99351E-05 1.33442E-05-1.54017E-20-1.21738E-18
 -1      2719 1.03927E-04-3.40203E-05-2.99521E-05 1.31245E-05 1.22778E-19-1.15380E-18
 -1      2720 9.82389E-05-3.01709E-05-2.92265E-05 1.42552E-05 8.28810E-20-1.44598E-18
 -1      2721 1.06392E-04-3.65355E-05-2.98493E-05 1.31478E-05 4.02124E-19-9.32659E-19
 -1      2722 1.09317E-04-3.94699E-05-2.99496E-05 1.19521E-05 5.01334E-19-5.15817E-19
 -1      2723 1.01823E-04-3.46784E-05-2.88789E-05 1.52784E-05 3.72246E-19-7.59210E-19
 -1      2724 1.13475E-04-4.29509E-05-3.00709E-05 1.07198E-05 8.58708E-19-3.58798E-20
 -1      2725 1.17144E-04-4.61373E-05-3.04583E-05 8.04750E-06 1.13776E-18 2.96680E-19
 -1      2726 1.08261E-04-4.15171E-05-2.87771E-05 1.48150E-05 1.09229E-18-4.20605E-19
 -1      2727 1.23011E-04-4.97093E-05-3.12280E-05 4.81624E-06 1.04451E-18 1.07022E-18
 -1      2728 1.26731E-04-5.15634E-05-3.22185E-05 2.51822E-07 8.73119E-19 1.18537E-18
 -1      2729 1.18070E-04-4.93790E-05-2.95826E-05 1.11018E-05 1.45123E-18 4.06655E-19
 -1      2730 1.33872E-04-5.46210E-05-3.40403E-05-1.50824E-06 5.86888E-19 1.67421E-18
 -1      2731 1.35497E-04-5.09576E-05-3.64370E-05-6.22855E-06-3.91329E-19 1.85275E-18
 -1      2732 1.30031E-04-2.42671E-05-4.62473E-05-1.41120E-05-4.47022E-18 3.51466E-19
 -1      2733 1.27345E-04-1.70970E-05-4.78422E-05-7.88645E-06-5.38162E-18-5.14864E-19
 -1      2734 1.26341E-04-1.40514E-05-4.88832E-05-7.41514E-07-5.68105E-18-1.43845E-18
 -1      2735 1.26876E-04-1.57860E-05-4.82527E-05 7.22012E-06-5.29332E-18-2.38299E-18
 -1      2736 1.32618E-04-4.24190E-05-3.87357E-05 1.52194E-05-1.76289E-18-5.48618E-18
 -1      2737 1.33401E-04-4.89739E-05-3.63792E-05 1.17402E-05-4.55029E-19-5.54433E-18
 -1      2738 1.29141E-04-5.06865E-05-3.37884E-05 5.67797E-06 6.57288E-19-4.34135E-18
 -1      2739 1.27096E-04-5.10220E-05-3.24451E-05 1.21260E-06 1.59880E-18-3.83670E-18
 -1      2740 1.33312E-04-5.28581E-05-3.47989E-05 4.85119E-06 5.62033E-19-4.56559E-18
 -1      2741 1.21266E-04-4.85289E-05-3.12612E-05-3.83971E-06 1.68116E-18-2.84456E-18
 -1      2742 1.17626E-04-4.56745E-05-3.06944E-05-7.07845E-06 2.23081E-18-2.93317E-18
 -1      2743 1.24010E-04-5.23136E-05-3.09718E-05-5.45277E-06 2.12120E-18-2.90808E-18
 -1      2744 1.12949E-04-4.21977E-05-3.03579E-05-9.18444E-06 2.59580E-18-3.02540E-18
 -1      2745 1.09747E-04-3.90660E-05-3.01815E-05-1.09135E-05 2.26074E-18-2.33359E-18
 -1      2746 1.12818E-04-4.45940E-05-2.94225E-05-1.13235E-05 2.31309E-18-2.17681E-18
 -1      2747 1.06634E-04-3.62382E-05-3.01836E-05-1.15110E-05 2.11994E-18-1.96042E-18
 -1      2748 1.04311E-04-3.38377E-05-3.01426E-05-1.20978E-05 1.50423E-18-1.50675E-18
 -1      2749 1.05274E-04-3.74510E-05-2.91684E-05-1.34380E-05 2.22664E-18-2.31561E-18
 -1      2750 1.02534E-04-3.19954E-05-3.02280E-05-1.18443E-05 7.45399E-19-1.51013E-18
 -1      2751 1.00974E-04-3.04533E-05-3.01963E-05-1.17351E-05 5.85832E-19-1.76858E-18
 -1      2752 1.00504E-04-3.21865E-05-2.93371E-05-1.33372E-05 1.38085E-18-2.08542E-18
 -1      2753 1.00068E-04-2.94352E-05-3.02610E-05-1.11071E-05 6.38094E-19-1.01605E-18
 -1      2754 9.90405E-05-2.85585E-05-3.01986E-05-1.06243E-05 1.90538E-19-9.25685E-19
 -1      2755 9.79047E-05-2.90082E-05-2.95547E-05-1.22334E-05 1.00724E-18-9.85333E-19
 -1      2756 9.86234E-05-2.80900E-05-3.02156E-05-9.86207E-06-1.57638E-19-8.95682E-19
 -1      2757 9.79266E-05-2.76468E-05-3.01213E-05-9.21327E-06 3.56439E-20-2.81492E-19
 -1      2758 9.66156E-05-2.73614E-05-2.96904E-05-1.07455E-05 2.16775E-19-4.28425E-19
 -1      2759 9.77544E-05-2.74997E-05-3.00952E-05-8.43715E-06 1.72732E-19 4.79935E-19
 -1      2760 9.72542E-05-2.73111E-05-2.99811E-05-7.74823E-06 2.55517E-19 1.00439E-18
 -1      2761 9.60289E-05-2.66766E-05-2.97240E-05-9.16670E-06 6.39663E-19 2.73704E-19
 -1      2762 9.71905E-05-2.73314E-05-2.99258E-05-7.01940E-06 2.55562E-19 1.16532E-18
 -1      2763 9.68102E-05-2.72803E-05-2.98053E-05-6.36175E-06 1.57034E-19 1.73768E-18
 -1      2764 9.57804E-05-2.65333E-05-2.96757E-05-7.64302E-06 6.15745E-19 2.06301E-19
 -1      2765 9.67865E-05-2.73755E-05-2.97346E-05-5.70976E-06 1.32899E-20 2.01214E-18
 -1      2766 9.64855E-05-2.73923E-05-2.96180E-05-5.11960E-06 8.41125E-20 1.84924E-18
 -1      2767 9.56753E-05-2.66619E-05-2.95749E-05-6.24923E-06 2.00373E-19 1.36720E-18
 -1      2768 9.64717E-05-2.75117E-05-2.95425E-05-4.55586E-06 2.11792E-19 1.80516E-18
 -1      2769 9.62286E-05-2.75579E-05-2.94362E-05-4.04751E-06 1.42066E-19 1.86669E-18
 -1      2770 9.56206E-05-2.69052E-05-2.94477E-05-5.02047E-06 5.04514E-20 6.31475E-19
 -1      2771 9.62138E-05-2.76761E-05-2.93631E-05-3.57263E-06 2.06377E-19 1.75484E-18
 -1      2772 9.60169E-05-2.77315E-05-2.92701E-05-3.14755E-06 3.90748E-19 1.98301E-18
 -1      2773 9.55775E-05-2.71782E-05-2.93129E-05-3.96752E-06 1.80576E-19 1.78781E-18
 -1      2774 9.59991E-05-2.78374E-05-2.92034E-05-2.75597E-06-3.35548E-20 1.48740E-18
 -1      2775 9.58407E-05-2.78921E-05-2.91248E-05-2.40861E-06-1.40224E-19 1.37710E-18
 -1      2776 9.55337E-05-2.74390E-05-2.91830E-05-3.08598E-06 1.42240E-19 1.18764E-18
 -1      2777 9.58210E-05-2.79821E-05-2.90665E-05-2.09160E-06-6.90556E-19 1.56172E-18
 -1      2778 9.56952E-05-2.80318E-05-2.90017E-05-1.81310E-06-1.07541E-18 1.63773E-18
 -1      2779 9.54878E-05-2.76698E-05-2.90650E-05-2.36246E-06-5.23296E-19 1.45020E-18
 -1      2780 9.56753E-05-2.81058E-05-2.89524E-05-1.56067E-06-1.23081E-18 1.31634E-18
 -1      2781 9.55770E-05-2.81490E-05-2.89002E-05-1.34110E-06-9.29205E-19 5.02593E-19
 -1      2782 9.54424E-05-2.78652E-05-2.89621E-05-1.77903E-06-1.41522E-18 1.00725E-18
 -1      2783 9.55584E-05-2.82086E-05-2.88594E-05-1.14320E-06-8.00442E-19-1.30123E-20
 -1      2784 9.54830E-05-2.82450E-05-2.88181E-05-9.72760E-07-6.80616E-19 8.12355E-20
 -1      2785 9.53999E-05-2.80261E-05-2.88751E-05-1.31616E-06-1.50411E-18-1.66247E-19
 -1      2786 9.54666E-05-2.82923E-05-2.87852E-05-8.19932E-07-3.07492E-19 4.92228E-19
 -1      2787 9.54099E-05-2.83225E-05-2.87531E-05-6.89630E-07 1.10323E-19 1.66269E-18
 -1      2788 9.53624E-05-2.81561E-05-2.88033E-05-9.54565E-07-7.10273E-20-5.28376E-19
 -1      2789 9.53961E-05-2.83594E-05-2.87271E-05-5.73399E-07-1.44249E-19 1.94470E-18
 -1      2790 9.53543E-05-2.83840E-05-2.87026E-05-4.75310E-07-6.48878E-19 2.05621E-18
 -1      2791 9.53307E-05-2.82594E-05-2.87455E-05-6.76377E-07 2.52762E-19 6.06085E-19
 -1      2792 9.53432E-05-2.84126E-05-2.86823E-05-3.88306E-07-1.33343E-18 2.30911E-18
 -1      2793 9.53132E-05-2.84324E-05-2.86640E-05-3.15663E-07-9.26098E-19 2.14701E-18
 -1      2794 9.53049E-05-2.83404E-05-2.86996E-05-4.65657E-07-5.91565E-19 1.83541E-18
 -1      2795 9.53045E-05-2.84542E-05-2.86485E-05-2.51640E-07-1.04497E-18 2.38483E-18
 -1      2796 9.52837E-05-2.84699E-05-2.86350E-05-1.98797E-07 9.55726E-19 1.85789E-18
 -1      2797 9.52847E-05-2.84032E-05-2.86640E-05-3.08625E-07-1.00443E-18 2.78539E-18
 -1      2798 9.52771E-05-2.84863E-05-2.86234E-05-1.52574E-07 2.50664E-18 1.17280E-18
 -1      2799 9.52631E-05-2.84987E-05-2.86137E-05-1.14914E-07 2.14761E-18 1.38432E-18
 -1      2800 9.52693E-05-2.84511E-05-2.86368E-05-1.93658E-07 1.18098E-18 3.01681E-18
 -1      2801 9.52583E-05-2.85109E-05-2.86051E-05-8.22754E-08 1.03101E-18 1.55338E-18
 -1      2802 9.52494E-05-2.85206E-05-2.85983E-05-5.60958E-08 5.93975E-19 2.03307E-18
 -1      2803 9.52579E-05-2.84873E-05-2.86163E-05-1.11158E-07 1.45482E-18 1.10726E-18
 -1      2804 9.52460E-05-2.85296E-05-2.85921E-05-3.36835E-08 5.16872E-19 1.67916E-18
 -1      2805 9.52409E-05-2.85371E-05-2.85875E-05-1.60777E-08 1.56567E-18 9.15699E-19
 -1      2806 9.52499E-05-2.85143E-05-2.86012E-05-5.33608E-08 7.61616E-19 2.83845E-19
 -1      2807 9.52386E-05-2.85437E-05-2.85831E-05-1.26982E-09 2.11413E-18 7.47037E-19
 -1      2808 9.52361E-05-2.85496E-05-2.85800E-05 9.98979E-09 1.13124E-18 4.44081E-19
 -1      2809 9.52444E-05-2.85343E-05-2.85903E-05-1.41172E-08 1.35166E-18-1.27587E-18
 -1      2810 9.52347E-05-2.85545E-05-2.85769E-05 1.91668E-08 2.53004E-19-1.46118E-19
 -1      2811 9.52340E-05-2.85592E-05-2.85750E-05 2.57111E-08 2.64268E-19 5.89632E-19
 -1      2812 9.52409E-05-2.85491E-05-2.85824E-05 1.13293E-08 6.40849E-19-1.45268E-18
 -1      2813 9.52333E-05-2.85630E-05-2.85728E-05 3.07331E-08 2.41130E-19 3.54759E-19
 -1      2814 9.52338E-05-2.85669E-05-2.85716E-05 3.36660E-08-5.37298E-19-2.46034E-19
 -1      2815 9.52391E-05-2.85602E-05-2.85768E-05 2.65041E-08 1.99758E-19-1.39976E-18
 -1      2816 9.52339E-05-2.85697E-05-2.85703E-05 3.53912E-08-1.00723E-18-1.10450E-19
 -1      2817 9.52352E-05-2.85732E-05-2.85694E-05 3.56026E-08-2.00696E-18 7.85846E-20
 -1      2818 9.52397E-05-2.85756E-05-2.85704E-05 3.55628E-08-1.31220E-18 7.67579E-19
 -1      2819 9.52389E-05-2.85687E-05-2.85730E-05 3.36863E-08-7.21400E-19-6.32376E-19
 -1      2820 1.40155E-04-3.38931E-05-4.58457E-05 1.55007E-05-4.97875E-18-4.32188E-18
 -1      2821 1.36124E-04-2.44755E-05-4.86211E-05 1.46156E-05-5.88921E-18-3.86131E-18
 -1      2822 1.41771E-04-5.31365E-05-3.80066E-05 6.14863E-06-1.34466E-18-4.65625E-18
 -1      2823 1.41801E-04-4.55917E-05-4.18673E-05 1.11516E-05-3.10882E-18-4.51701E-18
 -1      2824 9.97899E-05-2.95974E-05-3.00879E-05-5.17832E-06 6.66322E-19-6.01143E-19
 -1      2825 9.92501E-05-2.89845E-05-3.00868E-05-4.82923E-06 9.53075E-19-3.57359E-19
 -1      2826 9.95474E-05-2.96728E-05-2.99691E-05-5.84780E-06 7.30004E-19-6.35818E-19
 -1      2827 1.04903E-04-3.44621E-05-3.02247E-05-2.99198E-06 1.94486E-19 3.02783E-19
 -1      2828 1.04052E-04-3.36070E-05-3.01606E-05-4.00959E-06 2.82784E-19 1.39124E-19
 -1      2829 1.06962E-04-3.61098E-05-3.04098E-05-1.88421E-07 4.55284E-19 3.07698E-19
 -1      2830 1.06262E-04-3.54474E-05-3.03216E-05-1.68812E-06 3.54783E-19 2.96732E-19
 -1      2831 1.05782E-04-3.58143E-05-3.00109E-05-3.35487E-06 2.79441E-19-1.02226E-19
 -1      2832 1.08554E-04-3.69043E-05-3.07466E-05 3.49839E-06 4.40542E-19 3.97564E-20
 -1      2833 1.08257E-04-3.68040E-05-3.06090E-05 1.70647E-06 4.13006E-19 3.19637E-19
 -1      2834 1.08497E-04-3.77748E-05-3.03229E-05-1.70854E-07 5.20411E-19 3.69426E-19
 -1      2835 1.08979E-04-3.59590E-05-3.13040E-05 7.30670E-06 7.62066E-19-2.11229E-20
 -1      2836 1.09337E-04-3.68286E-05-3.10914E-05 5.69094E-06 6.22204E-19 2.31602E-19
 -1      2837 1.10654E-04-3.84687E-05-3.09254E-05 4.03215E-06 5.73921E-19 2.24355E-19
 -1      2838 1.07698E-04-3.27226E-05-3.20919E-05 9.74612E-06 7.88029E-19 2.57352E-19
 -1      2839 1.08756E-04-3.46758E-05-3.18073E-05 9.05057E-06 8.14559E-19 2.16333E-19
 -1      2840 1.11257E-04-3.67548E-05-3.18885E-05 8.27017E-06 7.18895E-19 4.51128E-19
 -1      2841 1.05005E-04-2.78897E-05-3.29743E-05 9.03327E-06 3.77165E-19-2.33851E-19
 -1      2842 1.06377E-04-3.03340E-05-3.26796E-05 9.95780E-06 6.06818E-19 2.39336E-20
 -1      2843 1.09657E-04-3.22103E-05-3.31468E-05 1.06363E-05 8.53027E-19 9.83337E-19
 -1      2844 1.02420E-04-2.37677E-05-3.36581E-05 4.42513E-06 8.91628E-19-7.48041E-19
 -1      2845 1.03358E-04-2.54511E-05-3.34661E-05 6.99424E-06 5.78408E-19-4.15336E-19
 -1      2846 1.06530E-04-2.62548E-05-3.44086E-05 8.98965E-06 7.78817E-19-2.13280E-20
 -1      2847 1.01866E-04-2.29705E-05-3.38348E-05-2.52972E-06 1.65349E-18-1.66720E-18
 -1      2848 1.01738E-04-2.28136E-05-3.38380E-05 6.92404E-07 1.11497E-18-1.10449E-18
 -1      2849 1.04047E-04-2.20672E-05-3.51942E-05 2.94862E-06 1.08233E-18-3.08373E-19
 -1      2850 1.03905E-04-2.61115E-05-3.34272E-05-8.48589E-06 1.72522E-18-1.68942E-18
 -1      2851 1.02779E-04-2.42195E-05-3.36168E-05-6.10702E-06 1.83750E-18-1.92522E-18
 -1      2852 1.04308E-04-2.24369E-05-3.51451E-05-4.88097E-06 1.97954E-18-1.21975E-18
 -1      2853 1.07042E-04-3.10767E-05-3.26490E-05-1.08699E-05 5.09717E-19-1.86772E-18
 -1      2854 1.05612E-04-2.86377E-05-3.29241E-05-1.01928E-05 1.42722E-18-1.82885E-18
 -1      2855 1.07101E-04-2.71012E-05-3.42912E-05-1.03996E-05 1.60943E-18-1.28470E-18
 -1      2856 1.09277E-04-3.51431E-05-3.18255E-05-9.54958E-06 3.39450E-20-2.29884E-18
 -1      2857 1.08240E-04-3.33257E-05-3.20794E-05-1.03981E-05 2.17370E-19-2.17334E-18
 -1      2858 1.10140E-04-3.29704E-05-3.30314E-05-1.13872E-05 6.60328E-19-2.16306E-18
 -1      2859 1.09661E-04-3.69427E-05-3.11755E-05-6.07229E-06 4.30107E-19-2.41832E-18
 -1      2860 1.09342E-04-3.62232E-05-3.13551E-05-7.71197E-06 1.21615E-19-2.50841E-18
 -1      2861 1.11449E-04-3.71050E-05-3.18258E-05-8.66883E-06 3.27237E-19-2.55754E-18
 -1      2862 1.08484E-04-3.66929E-05-3.07497E-05-2.20148E-06-2.61472E-20-8.05476E-19
 -1      2863 1.08787E-04-3.68753E-05-3.08608E-05-3.93309E-06 5.40526E-19-1.43012E-18
 -1      2864 1.10583E-04-3.83883E-05-3.09282E-05-4.41839E-06-6.24911E-20-1.73330E-18
 -1      2865 1.06505E-04-3.52850E-05-3.04950E-05 1.00412E-06 3.40309E-19 1.84798E-19
 -1      2866 1.07173E-04-3.59498E-05-3.05679E-05-4.14096E-07-5.98316E-20-2.96572E-19
 -1      2867 1.08322E-04-3.74712E-05-3.03746E-05-3.92204E-07-2.68090E-19-6.79604E-19
 -1      2868 1.04360E-04-3.35260E-05-3.03313E-05 3.18561E-06-1.19616E-19 4.62684E-19
 -1      2869 1.05165E-04-3.43235E-05-3.03956E-05 2.22166E-06 7.37915E-19 1.71052E-19
 -1      2870 1.05620E-04-3.54961E-05-3.00749E-05 2.59998E-06 5.12026E-19 2.57751E-19
 -1      2871 1.02410E-04-3.19047E-05-3.01964E-05 4.39425E-06-9.79546E-19-6.15616E-19
 -1      2872 1.03208E-04-3.26327E-05-3.02694E-05 3.86178E-06-6.08833E-19 2.98838E-19
 -1      2873 1.03103E-04-3.33475E-05-2.99180E-05 4.43458E-06-1.19639E-19 4.87035E-19
 -1      2874 1.00785E-04-3.06198E-05-3.00572E-05 4.84542E-06-1.52497E-18-8.81372E-19
 -1      2875 1.01507E-04-3.11991E-05-3.01440E-05 4.65266E-06-1.19149E-18-5.19193E-19
 -1      2876 1.01040E-04-3.15042E-05-2.98197E-05 5.30420E-06-8.79395E-19-3.30348E-19
 -1      2877 9.94902E-05-2.96964E-05-2.99033E-05 4.77751E-06-6.22491E-19-1.26560E-18
 -1      2878 1.00113E-04-3.01190E-05-3.00012E-05 4.81947E-06-1.15958E-18-9.96131E-19
 -1      2879 9.94632E-05-3.01209E-05-2.97319E-05 5.47964E-06-1.45592E-18-8.08318E-19
 -1      2880 9.84786E-05-2.90809E-05-2.97373E-05 4.39420E-06-8.33342E-20-6.07858E-19
 -1      2881 9.90015E-05-2.93701E-05-2.98404E-05 4.57900E-06-1.84738E-19-1.08021E-18
 -1      2882 9.83032E-05-2.91801E-05-2.96340E-05 5.20811E-06-4.55350E-19-7.46137E-19
 -1      2883 9.76943E-05-2.86988E-05-2.95675E-05 3.84878E-06 1.82743E-19 3.22212E-19
 -1      2884 9.81263E-05-2.88861E-05-2.96695E-05 4.10619E-06 2.79015E-19 4.31009E-19
 -1      2885 9.74642E-05-2.85949E-05-2.95224E-05 4.68246E-06-3.27559E-19 4.28120E-19
 -1      2886 9.70875E-05-2.84802E-05-2.94026E-05 3.24713E-06-3.70008E-19 4.33774E-19
 -1      2887 9.74397E-05-2.85948E-05-2.94983E-05 3.52837E-06 1.04177E-19 5.10766E-19
 -1      2888 9.68594E-05-2.82676E-05-2.94015E-05 4.04064E-06-3.74348E-20 1.36480E-18
 -1      2889 9.66183E-05-2.83699E-05-2.92496E-05 2.65672E-06-3.33042E-19 9.02881E-20
 -1      2890 9.69018E-05-2.84350E-05-2.93357E-05 2.93079E-06-4.32133E-19 9.28144E-20
 -1      2891 9.64213E-05-2.81137E-05-2.92785E-05 3.37476E-06-2.71314E-19 1.09069E-18
 -1      2892 9.62564E-05-2.83275E-05-2.91130E-05 2.11643E-06 4.49179E-19 2.05011E-19
 -1      2893 9.64816E-05-2.83603E-05-2.91878E-05 2.36570E-06 7.00988E-19 1.02730E-19
 -1      2894 9.61013E-05-2.80686E-05-2.91600E-05 2.74177E-06 2.25053E-19 1.24442E-18
 -1      2895 9.59785E-05-2.83251E-05-2.89950E-05 1.64522E-06-7.59981E-19 2.23582E-19
 -1      2896 9.61549E-05-2.83377E-05-2.90580E-05 1.86135E-06-3.02913E-19 4.72311E-19
 -1      2897 9.58656E-05-2.80867E-05-2.90507E-05 2.17321E-06 7.23562E-20 1.44304E-18
 -1      2898 9.57667E-05-2.83443E-05-2.88960E-05 1.24893E-06-9.93129E-20-1.29428E-19
 -1      2899 9.59027E-05-2.83450E-05-2.89477E-05 1.42965E-06-4.58299E-19-6.64919E-21
 -1      2900 9.56910E-05-2.81374E-05-2.89537E-05 1.68310E-06-3.98494E-19-1.68327E-19
 -1      2901 9.56071E-05-2.83736E-05-2.88149E-05 9.25316E-07 4.43232E-19 4.86315E-19
 -1      2902 9.57102E-05-2.83677E-05-2.88563E-05 1.07204E-06-4.94985E-21 7.37935E-20
 -1      2903 9.55613E-05-2.82016E-05-2.88703E-05 1.27406E-06-2.64519E-20-2.93211E-19
 -1      2904 9.54882E-05-2.84059E-05-2.87500E-05 6.67684E-07-3.03339E-19 9.46730E-19
 -1      2905 9.55649E-05-2.83968E-05-2.87824E-05 7.83801E-07 8.30791E-19 9.49286E-19
 -1      2906 9.54651E-05-2.82677E-05-2.88004E-05 9.41770E-07 3.05751E-19 6.07122E-19
 -1      2907 9.54013E-05-2.84372E-05-2.86992E-05 4.67246E-07 1.35618E-18-2.74306E-19
 -1      2908 9.54571E-05-2.84270E-05-2.87240E-05 5.57030E-07 2.69175E-19 7.74453E-19
 -1      2909 9.53941E-05-2.83292E-05-2.87434E-05 6.78187E-07 8.98132E-19-7.11997E-19
 -1      2910 9.53389E-05-2.84653E-05-2.86604E-05 3.14681E-07 9.08830E-19-1.50124E-19
 -1      2911 9.53785E-05-2.84554E-05-2.86789E-05 3.82575E-07 1.21037E-18 6.00445E-19
 -1      2912 9.53422E-05-2.83832E-05-2.86978E-05 4.73648E-07 9.81818E-19-1.02169E-18
 -1      2913 9.52953E-05-2.84895E-05-2.86312E-05 2.01063E-07-4.32501E-19 3.99311E-19
 -1      2914 9.53226E-05-2.84804E-05-2.86448E-05 2.51264E-07 2.37931E-19 6.21045E-19
 -1      2915 9.53049E-05-2.84286E-05-2.86621E-05 3.18254E-07 1.09515E-19 3.71538E-19
 -1      2916 9.52659E-05-2.85096E-05-2.86100E-05 1.18366E-07-1.38420E-18 9.69751E-19
 -1      2917 9.52839E-05-2.85016E-05-2.86196E-05 1.54609E-07-7.80751E-19 1.79668E-18
 -1      2918 9.52785E-05-2.84655E-05-2.86348E-05 2.02696E-07-9.85753E-19 2.23351E-18
 -1      2919 9.52470E-05-2.85259E-05-2.85948E-05 5.96922E-08-3.92335E-19-3.41998E-19
 -1      2920 9.52581E-05-2.85192E-05-2.86014E-05 8.51570E-08-1.20722E-18 5.16761E-19
 -1      2921 9.52604E-05-2.84948E-05-2.86143E-05 1.18690E-07-9.80455E-19 2.63890E-18
 -1      2922 9.52357E-05-2.85390E-05-2.85843E-05 1.93371E-08 2.36754E-19-3.26293E-19
 -1      2923 9.52419E-05-2.85333E-05-2.85887E-05 3.66281E-08 3.16215E-19-3.68102E-19
 -1      2924 9.52483E-05-2.85176E-05-2.85993E-05 5.91673E-08-4.51985E-19 1.58745E-18
 -1      2925 9.52298E-05-2.85493E-05-2.85774E-05-7.25757E-09-6.05768E-19-7.79588E-19
 -1      2926 9.52325E-05-2.85446E-05-2.85801E-05 3.91829E-09-5.27785E-20-1.12981E-18
 -1      2927 9.52408E-05-2.85350E-05-2.85885E-05 1.83117E-08 9.30624E-19 6.10958E-19
 -1      2928 9.52277E-05-2.85577E-05-2.85729E-05-2.35881E-08-1.10579E-18-1.67466E-19
 -1      2929 9.52281E-05-2.85536E-05-2.85745E-05-1.69719E-08-1.29233E-18-8.54765E-19
 -1      2930 9.52366E-05-2.85483E-05-2.85809E-05-8.50414E-09-1.00853E-18-1.17867E-18
 -1      2931 9.52282E-05-2.85646E-05-2.85701E-05-3.22225E-08 5.63166E-19-1.56172E-19
 -1      2932 9.52271E-05-2.85611E-05-2.85709E-05-2.90466E-08-3.20376E-19 1.19734E-19
 -1      2933 9.52347E-05-2.85585E-05-2.85757E-05-2.48161E-08-1.13006E-18-1.72566E-18
 -1      2934 9.52304E-05-2.85708E-05-2.85684E-05-3.48407E-08 5.07751E-19 3.56252E-19
 -1      2935 9.52284E-05-2.85676E-05-2.85688E-05-3.44541E-08 9.14794E-19 6.55915E-19
 -1      2936 9.52346E-05-2.85668E-05-2.85720E-05-3.32538E-08 1.70242E-19-1.29805E-18
 -1      2937 9.52342E-05-2.85766E-05-2.85676E-05-3.32299E-08-3.54212E-19 4.26354E-19
 -1      2938 9.52318E-05-2.85734E-05-2.85679E-05-3.49866E-08 2.17065E-20 1.22611E-19
 -1      2939 9.52368E-05-2.85739E-05-2.85698E-05-3.56236E-08 3.55859E-20-1.80133E-18
 -1      2940 9.52397E-05-2.85805E-05-2.85682E-05-3.43460E-08-4.95148E-19-2.06555E-18
 -1      2941 1.33533E-04-5.75828E-05-3.28891E-05 1.36243E-05-4.10546E-19-2.27757E-18
 -1      2942 1.24411E-04-5.83510E-05-2.81838E-05 2.18927E-05-1.36573E-18-1.72202E-18
 -1      2943 9.52550E-05-2.85873E-05-2.85719E-05-2.48682E-09-1.47604E-19 2.15458E-18
 -1      2944 9.52548E-05-2.85871E-05-2.85719E-05-6.84087E-09-7.99323E-19 6.12647E-19
 -1      2945 9.52531E-05-2.85868E-05-2.85713E-05-1.94513E-08-4.51121E-19 9.11269E-19
 -1      2946 9.52517E-05-2.85857E-05-2.85711E-05-2.30947E-08-4.04007E-19-8.49417E-19
 -1      2947 9.52550E-05-2.85873E-05-2.85719E-05 6.34273E-09-1.21724E-18 2.78704E-19
 -1      2948 9.52551E-05-2.85874E-05-2.85719E-05 1.95947E-09-8.70637E-19 1.97881E-19
 -1      2949 9.52554E-05-2.85790E-05-2.85755E-05-3.13717E-10-4.83498E-19 6.14128E-19
 -1      2950 9.52545E-05-2.85872E-05-2.85717E-05-1.12008E-08-1.00598E-18 1.08518E-19
 -1      2951 9.52538E-05-2.85866E-05-2.85716E-05-1.53365E-08-9.02597E-19 1.93641E-18
 -1      2952 9.52537E-05-2.85794E-05-2.85747E-05-1.74671E-08-5.03322E-19 4.67613E-19
 -1      2953 9.52549E-05-2.85791E-05-2.85753E-05-9.03798E-09 1.37524E-19 1.17894E-18
 -1      2954 1.22461E-04-1.06869E-05-4.85021E-05 5.11052E-06 5.64209E-18 7.49333E-19
 -1      2955 1.22522E-04-8.90455E-06-4.93598E-05-1.15998E-06 5.83394E-18-3.94122E-19
 -1      2956 9.52542E-05-2.85870E-05-2.85716E-05 1.48483E-08-1.34172E-18-1.60717E-18
 -1      2957 9.52548E-05-2.85875E-05-2.85717E-05 1.07001E-08-1.27796E-18 7.68541E-19
 -1      2958 9.52552E-05-2.85794E-05-2.85753E-05 8.40988E-09-7.50048E-19-3.62238E-20
 -1      2959 9.52522E-05-2.85863E-05-2.85711E-05 2.28917E-08-8.47102E-19-2.78519E-18
 -1      2960 9.52535E-05-2.85873E-05-2.85712E-05 1.91040E-08-1.33170E-18-2.42341E-18
 -1      2961 9.52542E-05-2.85799E-05-2.85747E-05 1.69867E-08-1.26354E-18-1.62821E-18
 -1      2962 9.52485E-05-2.85847E-05-2.85703E-05 2.95013E-08-8.82198E-19-2.39986E-18
 -1      2963 9.52508E-05-2.85862E-05-2.85705E-05 2.65804E-08 4.52179E-20-2.54894E-18
 -1      2964 9.52518E-05-2.85801E-05-2.85735E-05 2.50569E-08-7.72970E-19-2.03713E-18
 -1      2965 9.52440E-05-2.85835E-05-2.85687E-05 3.28495E-08-1.30713E-18 1.04880E-18
 -1      2966 9.88326E-05-2.84109E-05-3.01821E-05-4.17668E-06 1.23590E-18-4.43040E-19
 -1      2967 9.84899E-05-2.78409E-05-3.02461E-05-3.42812E-06 1.59623E-18-3.19244E-19
 -1      2968 9.84733E-05-2.81865E-05-3.01421E-05-4.81228E-06 1.20006E-18-5.55358E-19
 -1      2969 1.34452E-04-3.43256E-05-4.33810E-05-1.43711E-05-3.36389E-18 1.35864E-18
 -1      2970 3.01239E-05-1.30805E-05-6.85573E-06-5.05396E-06-2.64433E-19-5.62917E-18
 -1      2971 3.35378E-05-1.57361E-05-7.00117E-06-1.75617E-05-7.69953E-19-5.40873E-18
 -1      2972 9.31471E-05-1.70558E-05-3.26062E-05-5.11470E-06-2.68473E-18-2.59661E-18
 -1      2973 1.32587E-04-6.10034E-05-3.07799E-05 1.29140E-05 1.29813E-18 1.13894E-18
 -1      2974 1.19725E-04-5.90323E-05-2.58399E-05 2.45716E-05 2.22717E-18-2.05405E-20
 -1      2975 1.02876E-04-3.26371E-05-3.01260E-05-4.70461E-06 3.23980E-19-1.59362E-19
 -1      2976 1.02045E-04-3.18072E-05-3.00742E-05-5.21876E-06 4.40195E-19-3.98496E-19
 -1      2977 1.01108E-04-3.14313E-05-2.98872E-05-6.04885E-06 3.48947E-19-4.39511E-19
 -1      2978 1.03211E-04-3.35310E-05-2.98903E-05-5.27953E-06 1.04493E-19-1.00690E-19
 -1      2979 9.44237E-05-4.79612E-05-1.94386E-05-3.37683E-05 3.62858E-18 2.08423E-19
 -1      2980 1.13868E-04-5.66521E-05-2.48020E-05-2.72538E-05 3.38623E-18-1.62048E-18
 -1      2981 1.13463E-04-5.67044E-05-2.43593E-05 3.10161E-05-2.73200E-18-5.42803E-19
 -1      2982 9.81994E-05-5.02255E-05-2.02725E-05 3.58664E-05-3.90514E-18 7.09390E-19
 -1      2983 9.82179E-05-2.72380E-05-3.04204E-05-2.38568E-06 1.81958E-18-4.70329E-19
 -1      2984 9.80656E-05-2.65875E-05-3.05942E-05-1.17404E-06 2.00301E-18-4.46783E-19
 -1      2985 9.71992E-05-2.50221E-05-3.09372E-05-3.38620E-07 2.20192E-18-1.02053E-18
 -1      2986 9.77529E-05-2.67473E-05-3.04443E-05-2.98704E-06 1.71300E-18-8.13857E-19
 -1      2987 6.44100E-05-3.29695E-05-1.31159E-05 3.66936E-05 2.00874E-18-3.82435E-18
 -1      2988 5.25715E-05-2.54915E-05-1.10297E-05 3.07549E-05 2.14162E-18-4.44841E-18
 -1      2989 1.28003E-04-6.02413E-05-2.86318E-05-1.59347E-05 2.55349E-18-2.75413E-18
 -1      2990 1.37684E-04-5.92906E-05-3.39090E-05-6.40187E-06 3.21714E-19-3.48215E-18
 -1      2991 1.35850E-04-5.62303E-05-3.41843E-05 2.18394E-07 4.82862E-19-4.20213E-18
 -1      2992 1.18765E-04-5.66225E-05-2.67061E-05-2.02915E-05 3.46950E-18-2.42012E-18
 -1      2993 8.87579E-05-1.37270E-05-3.21731E-05 1.79390E-06 1.95643E-18-3.17377E-18
 -1      2994 8.77390E-05-1.28313E-05-3.21316E-05 1.16922E-06 1.55465E-18-3.39272E-18
 -1      2995 8.80814E-05-1.39024E-05-3.17741E-05 2.93322E-07 1.29705E-18-3.19233E-18
 -1      2996 9.02359E-05-1.59387E-05-3.18235E-05 1.06077E-06 1.79751E-18-2.80277E-18
 -1      2997 4.03305E-05-1.84049E-05-9.00301E-06 2.21809E-05 1.33556E-18-5.00427E-18
 -1      2998 3.32550E-05-1.36564E-05-7.75367E-06 8.46911E-06 6.70744E-19-5.38353E-18
 -1      2999 8.01576E-05-4.27817E-05-1.56266E-05-4.03540E-05-2.34872E-18-3.02063E-18
 -1      3000 9.61388E-05-5.08479E-05-1.93248E-05-3.95039E-05-2.36587E-18-2.04844E-18
 -1      3001 4.60329E-05-2.33629E-05-9.48322E-06 3.17989E-05-3.52281E-18 5.39115E-18
 -1      3002 3.55410E-05-1.73007E-05-7.20038E-06 2.14397E-05-2.88457E-18 6.43300E-18
 -1      3003 8.67498E-05-1.18433E-05-3.21310E-05-1.61698E-06-9.43549E-19-3.63683E-18
 -1      3004 8.77052E-05-1.26603E-05-3.21821E-05-2.04940E-06-1.37427E-18-3.53159E-18
 -1      3005 7.78619E-05-4.01728E-05-1.60142E-05 3.92837E-05-3.78285E-18 2.46328E-18
 -1      3006 6.12559E-05-3.13735E-05-1.21531E-05 3.71013E-05-3.73436E-18 3.78730E-18
 -1      3007 9.65750E-05-2.21134E-05-3.19162E-05 4.58706E-06 3.06629E-18-7.70443E-19
 -1      3008 1.39273E-04-4.52203E-05-4.08868E-05-3.31238E-06 2.00080E-18-3.71011E-18
 -1      3009 1.37742E-04-5.25883E-05-3.65541E-05 4.23496E-06 4.33760E-19-3.15340E-18
 -1      3010 1.33907E-04-5.48658E-05-3.39230E-05 5.73799E-06-5.08895E-19-3.21777E-18
 -1      3011 1.32119E-04-5.78360E-05-3.16066E-05-1.29820E-05-1.24953E-18 6.26381E-19
 -1      3012 1.36420E-04-5.21116E-05-3.66604E-05-1.74776E-06-1.01763E-19 1.55483E-18
 -1      3013 2.94767E-05-1.35398E-05-6.35082E-06 1.00029E-05-1.67747E-18 6.78516E-18
 -1      3014 2.98203E-05-1.29520E-05-6.76307E-06-5.27879E-06-4.40298E-19 7.00666E-18
 -1      3015 3.93008E-05-1.45992E-05-9.91055E-06 1.41430E-05-1.82472E-18 6.11103E-18
 -1      3016 1.30213E-04-2.05519E-05-4.76917E-05 1.31394E-05-5.23848E-18-2.95133E-18
 -1      3017 1.31235E-04-2.65272E-05-4.55667E-05-1.24085E-05 3.74039E-18-3.13667E-18
 -1      3018 1.36441E-04-3.63866E-05-4.31553E-05-1.01372E-05 2.75953E-18-3.89614E-18
 -1      3019 1.09738E-04-5.60285E-05-2.26789E-05-3.34358E-05-2.80908E-18-1.84836E-18
 -1      3020 1.22133E-04-5.93408E-05-2.72881E-05-2.61064E-05-2.25925E-18-1.07097E-18
 -1      3021 1.05266E-04-5.27664E-05-2.21825E-05-3.32035E-05-2.93063E-18-1.54625E-18
 -1      3022 1.37214E-04-4.36829E-05-4.06566E-05-1.36511E-05-1.92419E-18 1.63636E-18
 -1      3023 8.88959E-05-1.37996E-05-3.22189E-05-2.26681E-06-1.68880E-18-3.34912E-18
 -1      3024 9.02158E-05-1.50142E-05-3.22620E-05-2.77689E-06-2.09109E-18-3.14623E-18
 -1      3025 8.90027E-05-1.46363E-05-3.18435E-05-1.23323E-06-1.43887E-18-3.09546E-18
 -1      3026 8.57866E-05-1.17898E-05-3.16925E-05-6.21846E-07 2.97842E-19-3.70085E-18
 -1      3027 8.50803E-05-1.03992E-05-3.20230E-05-5.88409E-07 1.93847E-19-3.92177E-18
 -1      3028 8.51611E-05-1.04618E-05-3.20345E-05-9.61315E-07-1.08975E-19-3.93195E-18
 -1      3029 1.24541E-04-2.37862E-05-4.34741E-05-1.26845E-05 3.29909E-18-2.98706E-18
 -1      3030 1.17971E-04-1.20772E-05-4.57419E-05-3.99820E-06 4.61061E-18-1.25513E-18
 -1      3031 5.34230E-05-2.14443E-05-1.30711E-05 2.42484E-05 1.69280E-18-4.30928E-18
 -1      3032 3.65353E-05-1.65248E-05-7.95613E-06-1.75898E-05 1.84992E-18 5.44325E-18
 -1      3033 4.61869E-05-2.29593E-05-9.66306E-06-2.84396E-05 3.41270E-18 4.35121E-18
 -1      3034 1.30738E-04-5.74628E-05-3.15474E-05 7.86612E-06 1.08682E-18 1.18733E-18
 -1      3035 3.88609E-05-1.31893E-05-1.03024E-05 1.95262E-06 2.55327E-19-4.93566E-18
 -1      3036 1.33672E-04-4.17921E-05-3.95906E-05-8.16799E-06 1.64314E-18-3.54928E-18
 -1      3037 1.27310E-04-2.48934E-05-4.40260E-05 1.50974E-05-4.36677E-18-3.81430E-18
 -1      3038 1.30390E-04-3.41148E-05-4.18958E-05 1.77313E-05-3.43604E-18-4.92052E-18
 -1      3039 1.31790E-04-4.90762E-05-3.55832E-05 2.67485E-06-1.59004E-19 2.20604E-18
 -1      3040 1.35555E-04-4.43897E-05-3.91925E-05 7.21086E-06 1.16377E-18 2.51706E-18
 -1      3041 9.52433E-05-2.85819E-05-2.85692E-05-3.26765E-08-1.64817E-20-3.70235E-18
 -1      3042 9.52419E-05-2.85783E-05-2.85702E-05-3.40677E-08-3.70136E-19-3.20604E-18
 -1      3043 9.52464E-05-2.85842E-05-2.85695E-05-3.14016E-08-4.53246E-19-1.67334E-18
 -1      3044 9.52432E-05-2.85776E-05-2.85710E-05 3.40763E-08-9.65403E-19 9.78851E-19
 -1      3045 9.52466E-05-2.85823E-05-2.85704E-05 3.19525E-08-5.62888E-19-1.23196E-18
 -1      3046 9.52480E-05-2.85776E-05-2.85729E-05 3.08810E-08 2.21301E-19-2.22330E-18
 -1      3047 9.52427E-05-2.85737E-05-2.85723E-05 3.37947E-08-8.45977E-19-2.16190E-19
 -1      3048 9.10084E-05-4.54215E-05-1.91521E-05 3.64882E-05-4.22066E-18 1.08100E-18
 -1      3049 8.29713E-05-3.89044E-05-1.86433E-05 3.46868E-05-4.39065E-18 1.81710E-18
 -1      3050 1.01181E-04-4.86121E-05-2.24366E-05 3.05770E-05-4.42617E-18-4.15284E-19
 -1      3051 1.23432E-04-1.54357E-05-4.71616E-05 8.99615E-06 5.06494E-18 1.28172E-18
 -1      3052 1.17855E-04-1.36885E-05-4.49304E-05 6.89578E-06 4.59261E-18 5.33154E-19
 -1      3053 4.42061E-05-1.92276E-05-1.00857E-05-2.31982E-05-1.26986E-18-5.08050E-18
 -1      3054 1.36293E-04-4.04450E-05-4.13157E-05 1.53589E-05-2.80982E-18-5.09511E-18
 -1      3055 9.21191E-05-1.69112E-05-3.22478E-05-3.03927E-06-2.23515E-18-2.87185E-18
 -1      3056 9.50375E-05-2.01136E-05-3.21337E-05-3.59412E-06-2.69830E-18-2.17925E-18
 -1      3057 9.57768E-05-2.18730E-05-3.16635E-05-1.55558E-06-2.36924E-18-1.90352E-18
 -1      3058 9.20595E-05-1.76538E-05-3.18593E-05-1.53155E-06-2.01764E-18-2.71523E-18
 -1      3059 6.45546E-05-3.05247E-05-1.42425E-05-3.51875E-05-2.30975E-18-3.98624E-18
 -1      3060 7.26808E-05-3.73654E-05-1.46909E-05-3.91831E-05-2.32394E-18-3.75733E-18
 -1      3061 8.43848E-05-4.11133E-05-1.82206E-05-3.63447E-05-2.69240E-18-2.19133E-18
 -1      3062 1.20255E-04-5.69744E-05-2.69857E-05 2.22269E-05-2.76519E-18-1.23752E-18
 -1      3063 7.78354E-05-3.88109E-05-1.66550E-05-3.63033E-05 3.87867E-18 2.10212E-18
 -1      3064 9.16867E-05-4.23676E-05-2.06460E-05-3.02350E-05 4.20165E-18 3.44610E-19
 -1      3065 7.91981E-05-3.85452E-05-1.69980E-05 3.45580E-05 2.55169E-18-2.60134E-18
 -1      3066 1.28112E-04-2.16133E-05-4.59379E-05 1.18849E-05 4.28260E-18 2.12965E-18
 -1      3067 9.52505E-05-2.85860E-05-2.85705E-05-2.61889E-08-4.80398E-19-3.72748E-19
 -1      3068 9.52484E-05-2.85844E-05-2.85702E-05-2.89216E-08-7.20607E-19-3.11584E-19
 -1      3069 9.52479E-05-2.85799E-05-2.85720E-05-3.01210E-08 2.64615E-19-9.77015E-19
 -1      3070 9.52515E-05-2.85799E-05-2.85735E-05-2.46343E-08 2.99657E-19-7.01344E-19
 -1      3071 9.56520E-05-2.12838E-05-3.18838E-05 3.61367E-06 2.92148E-18-1.28105E-18
 -1      3072 9.55927E-05-2.20424E-05-3.15145E-05 1.79705E-06 2.56922E-18-1.38674E-18
 -1      3073 8.54643E-05-1.07196E-05-3.20557E-05-1.09059E-06-2.20057E-19-3.70209E-18
 -1      3074 8.59849E-05-1.11464E-05-3.20927E-05-1.46763E-06-6.41932E-19-3.67200E-18
 -1      3075 8.70056E-05-1.28211E-05-3.17689E-05-9.93792E-07-6.97930E-19-3.37351E-18
 -1      3076 8.59246E-05-1.18815E-05-3.17102E-05-8.25208E-07-1.49299E-19-3.59001E-18
 -1      3077 5.81971E-05-2.62950E-05-1.31467E-05 3.19017E-05-3.49496E-18 4.78521E-18
 -1      3078 1.12654E-04-5.59598E-05-2.41244E-05 2.86998E-05 2.53940E-18-7.44790E-19
 -1      3079 1.03141E-04-4.98099E-05-2.25265E-05 3.04207E-05 2.50664E-18-6.45995E-19
 -1      3080 1.18485E-04-5.57484E-05-2.68397E-05 2.01326E-05 2.43125E-18 4.23020E-19
 -1      3081 1.33246E-04-3.56129E-05-4.25005E-05 1.04913E-05 2.79870E-18 2.90490E-18
 -1      3082 9.45775E-05-2.08783E-05-3.15967E-05-6.46724E-07-2.04634E-18-2.21590E-18
 -1      3083 1.26205E-04-5.75590E-05-2.93704E-05-1.66195E-05-1.97607E-18 1.70571E-19
 -1      3084 3.96725E-05-1.43186E-05-1.02166E-05-1.05398E-05 1.06938E-18 5.05266E-18
 -1      3085 6.28804E-05-3.03911E-05-1.33364E-05-3.27348E-05 4.16830E-18 3.62625E-18
 -1      3086 9.40822E-05-2.07140E-05-3.14570E-05 7.73923E-07 2.17312E-18-1.74386E-18
 -1      3087 9.27244E-05-1.92593E-05-3.14936E-05 4.53407E-07 1.91395E-18-2.03862E-18
 -1      3088 6.19538E-05-2.59900E-05-1.49228E-05-2.80928E-05 3.26817E-18 2.97880E-18
 -1      3089 1.19879E-04-5.60864E-05-2.70841E-05-2.05825E-05-2.59655E-18-2.86482E-19
 -1      3090 1.26441E-04-5.55887E-05-3.06871E-05-1.00095E-05-1.70902E-18 8.72947E-19
 -1      3091 4.44947E-05-1.30076E-05-1.33602E-05 7.07435E-06 7.70072E-19-4.39060E-18
 -1      3092 4.28947E-05-1.23212E-05-1.25713E-05-6.12346E-06-2.70653E-20-4.61516E-18
 -1      3093 9.41189E-05-2.26455E-05-3.06195E-05 4.31429E-06-1.35278E-18-2.03841E-18
 -1      3094 9.41123E-05-2.31921E-05-3.03993E-05 5.77367E-06-1.19069E-18-2.00124E-18
 -1      3095 9.38526E-05-2.35604E-05-3.01243E-05 7.10541E-06-9.92123E-19-1.78750E-18
 -1      3096 9.38755E-05-2.39982E-05-2.99410E-05 8.38089E-06-6.95571E-19-1.78247E-18
 -1      3097 9.23904E-05-2.20432E-05-3.01389E-05 6.11848E-06-1.01455E-18-1.99813E-18
 -1      3098 9.35423E-05-2.43385E-05-2.96615E-05 9.63374E-06-6.38393E-19-1.58623E-18
 -1      3099 9.37347E-05-2.49062E-05-2.94812E-05 1.07600E-05-6.17866E-19-1.68600E-18
 -1      3100 9.17927E-05-2.28418E-05-2.95441E-05 8.69918E-06-6.54588E-19-1.76673E-18
 -1      3101 9.34924E-05-2.54501E-05-2.91624E-05 1.20131E-05-5.58283E-19-1.52728E-18
 -1      3102 9.40672E-05-2.64252E-05-2.89583E-05 1.30109E-05-2.11765E-19-1.48953E-18
 -1      3103 9.11805E-05-2.37655E-05-2.88933E-05 1.12136E-05-5.15420E-19-1.49566E-18
 -1      3104 9.41893E-05-2.74888E-05-2.85753E-05 1.43369E-05 1.58449E-19-1.55356E-18
 -1      3105 9.54900E-05-2.92260E-05-2.83458E-05 1.51661E-05 2.61872E-19-1.45459E-18
 -1      3106 9.09700E-05-2.53921E-05-2.81219E-05 1.38578E-05-5.20326E-20-1.54354E-18
 -1      3107 9.64193E-05-3.12049E-05-2.79043E-05 1.66078E-05 4.21483E-19-1.13820E-18
 -1      3108 9.89426E-05-3.41466E-05-2.77018E-05 1.71174E-05 6.73002E-19-1.08874E-18
 -1      3109 9.18147E-05-2.84475E-05-2.72012E-05 1.68256E-05 4.67843E-19-1.57473E-18
 -1      3110 1.01462E-04-3.74231E-05-2.72896E-05 1.83744E-05 1.06542E-18-6.36874E-19
 -1      3111 1.05651E-04-4.18787E-05-2.72725E-05 1.81861E-05 1.64933E-18-5.37221E-19
 -1      3112 9.49817E-05-3.41109E-05-2.61958E-05 2.01446E-05 1.14232E-18-1.09036E-18
 -1      3113 9.34794E-05-1.98932E-05-3.15468E-05-2.86628E-07-1.91472E-18-2.58771E-18
 -1      3114 9.41810E-05-2.10388E-05-3.13219E-05 6.74668E-07-1.65987E-18-2.36741E-18
 -1      3115 9.43267E-05-2.19803E-05-3.10210E-05 2.38697E-06-1.47553E-18-2.26958E-18
 -1      3116 9.16208E-05-1.79791E-05-3.15773E-05-2.75075E-07-1.66271E-18-2.66539E-18
 -1      3117 1.29635E-04-5.18679E-05-3.31410E-05-1.92177E-07-1.13682E-18 1.80137E-18
 -1      3118 1.27298E-04-4.54003E-05-3.53725E-05 6.66847E-06 1.46166E-19 2.31920E-18
 -1      3119 1.25037E-04-2.96286E-05-4.11290E-05 1.23064E-05 2.65015E-18 2.21033E-18
 -1      3120 1.11740E-04-4.60085E-05-2.79848E-05-1.49502E-05 2.58017E-18-1.83165E-18
 -1      3121 1.06354E-04-4.14875E-05-2.76175E-05-1.65852E-05 2.33580E-18-1.82429E-18
 -1      3122 1.02495E-04-3.73751E-05-2.78290E-05-1.58618E-05 2.10014E-18-1.75536E-18
 -1      3123 9.92504E-05-3.39385E-05-2.79153E-05-1.59121E-05 2.20680E-18-1.98142E-18
 -1      3124 9.88532E-05-3.79210E-05-2.61880E-05-1.98112E-05 2.24336E-18-9.45302E-19
 -1      3125 9.75273E-05-3.14210E-05-2.82724E-05-1.46749E-05 2.09991E-18-2.43968E-18
 -1      3126 9.56901E-05-2.92974E-05-2.84314E-05-1.41600E-05 1.60017E-18-1.94534E-18
 -1      3127 9.36911E-05-3.09564E-05-2.69409E-05-1.69437E-05 1.98832E-18-1.28465E-18
 -1      3128 9.51112E-05-2.79543E-05-2.87442E-05-1.29544E-05 1.29158E-18-1.93575E-18
 -1      3129 9.41789E-05-2.68158E-05-2.88704E-05-1.22282E-05 1.14439E-18-1.31159E-18
 -1      3130 9.16532E-05-2.70221E-05-2.77198E-05-1.41943E-05 1.51962E-18-2.17350E-18
 -1      3131 9.41768E-05-2.62364E-05-2.90938E-05-1.11636E-05 7.04561E-19-1.67732E-18
 -1      3132 9.37475E-05-2.57267E-05-2.91611E-05-1.03796E-05 5.23474E-19-1.15686E-18
 -1      3133 9.12172E-05-2.51195E-05-2.83292E-05-1.18345E-05 1.32153E-18-2.36270E-18
 -1      3134 9.39942E-05-2.55957E-05-2.92983E-05-9.45659E-06 5.12962E-19-9.79882E-19
 -1      3135 9.38167E-05-2.54491E-05-2.93122E-05-8.68737E-06 7.88958E-19-1.01351E-18
 -1      3136 9.15376E-05-2.44555E-05-2.87422E-05-9.85038E-06 7.26086E-19-1.82993E-18
 -1      3137 9.41377E-05-2.55547E-05-2.93817E-05-7.88656E-06 3.94861E-19-1.08542E-18
 -1      3138 9.40720E-05-2.55986E-05-2.93575E-05-7.17053E-06 4.71265E-19-8.05798E-19
 -1      3139 9.21427E-05-2.44808E-05-2.89879E-05-8.16155E-06 4.86713E-19-2.25620E-18
 -1      3140 9.43831E-05-2.58108E-05-2.93793E-05-6.47680E-06 1.55578E-19-3.67207E-19
 -1      3141 9.43592E-05-2.59419E-05-2.93324E-05-5.83446E-06-1.51207E-19-5.46618E-19
 -1      3142 9.27929E-05-2.48496E-05-2.91088E-05-6.70646E-06 3.28678E-19-1.59704E-18
 -1      3143 9.46261E-05-2.61868E-05-2.93237E-05-5.23802E-06 1.60764E-19-6.99793E-19
 -1      3144 9.46130E-05-2.63474E-05-2.92658E-05-4.67845E-06 6.49929E-19-5.06488E-20
 -1      3145 9.33800E-05-2.53573E-05-2.91444E-05-5.44981E-06 1.04821E-19-8.96737E-19
 -1      3146 9.48270E-05-2.65859E-05-2.92396E-05-4.17187E-06 1.90263E-19-1.56298E-19
 -1      3147 9.48134E-05-2.67461E-05-2.91793E-05-3.69625E-06 4.14198E-19-6.65065E-20
 -1      3148 9.38664E-05-2.58900E-05-2.91263E-05-4.37168E-06 3.99744E-19-3.75231E-19
 -1      3149 9.49778E-05-2.69603E-05-2.91445E-05-3.27219E-06 1.14306E-21-7.45719E-19
 -1      3150 9.49612E-05-2.71060E-05-2.90869E-05-2.87641E-06-3.20757E-19-1.18344E-18
 -1      3151 9.42489E-05-2.63896E-05-2.90778E-05-3.45784E-06-4.77074E-19-1.48423E-18
 -1      3152 9.50838E-05-2.72894E-05-2.90496E-05-2.52689E-06-8.47664E-21-9.14552E-19
 -1      3153 9.50652E-05-2.74155E-05-2.89976E-05-2.20367E-06-5.16330E-19-3.19569E-19
 -1      3154 9.45395E-05-2.68304E-05-2.90148E-05-2.69459E-06 1.00759E-19-2.25805E-18
 -1      3155 9.51546E-05-2.75678E-05-2.89614E-05-1.92006E-06-1.30389E-18 7.39748E-19
 -1      3156 9.51356E-05-2.76734E-05-2.89162E-05-1.66058E-06-1.43604E-18 5.91432E-19
 -1      3157 9.47549E-05-2.72047E-05-2.89478E-05-2.06709E-06-4.60083E-20-3.46310E-19
 -1      3158 9.51997E-05-2.77971E-05-2.88831E-05-1.43401E-06-1.62677E-18 7.87032E-19
 -1      3159 9.51819E-05-2.78836E-05-2.88450E-05-1.22901E-06-1.21367E-18 4.85310E-19
 -1      3160 9.49115E-05-2.75145E-05-2.88829E-05-1.55935E-06-1.19385E-18 7.91930E-19
 -1      3161 9.52269E-05-2.79824E-05-2.88161E-05-1.05079E-06-8.56869E-19 5.71958E-19
 -1      3162 9.52112E-05-2.80520E-05-2.87847E-05-8.91332E-07 3.67022E-19 6.28947E-19
 -1      3163 9.50235E-05-2.77657E-05-2.88238E-05-1.15496E-06-8.18000E-19 3.45993E-19
 -1      3164 9.52423E-05-2.81297E-05-2.87601E-05-7.53301E-07 2.02822E-19-4.34161E-19
 -1      3165 9.52290E-05-2.81849E-05-2.87349E-05-6.31177E-07 1.16761E-19-8.76380E-19
 -1      3166 9.51022E-05-2.79660E-05-2.87721E-05-8.37917E-07-3.24910E-19-4.80709E-19
 -1      3167 9.52501E-05-2.82452E-05-2.87144E-05-5.25958E-07-6.57982E-20-1.95997E-19
 -1      3168 9.52393E-05-2.82884E-05-2.86945E-05-4.33904E-07-5.22373E-19-7.92626E-20
 -1      3169 9.51566E-05-2.81236E-05-2.87281E-05-5.93264E-07 3.33552E-19-2.24858E-18
 -1      3170 9.52532E-05-2.83345E-05-2.86779E-05-3.55018E-07-2.05844E-19 5.87788E-19
 -1      3171 9.52447E-05-2.83679E-05-2.86624E-05-2.86792E-07 1.48504E-19 1.94211E-18
 -1      3172 9.51933E-05-2.82457E-05-2.86917E-05-4.07515E-07 2.83482E-19-1.72630E-18
 -1      3173 9.52535E-05-2.84026E-05-2.86492E-05-2.28696E-07-4.00858E-19 3.16387E-18
 -1      3174 9.52471E-05-2.84281E-05-2.86374E-05-1.79062E-07 1.25991E-18 1.94159E-18
 -1      3175 9.52174E-05-2.83390E-05-2.86621E-05-2.68876E-07 9.45660E-19 1.61886E-19
 -1      3176 9.52523E-05-2.84539E-05-2.86270E-05-1.37122E-07 1.18991E-18 8.42443E-19
 -1      3177 9.52476E-05-2.84730E-05-2.86181E-05-1.01780E-07 7.10025E-19 3.61568E-20
 -1      3178 9.52325E-05-2.84093E-05-2.86385E-05-1.67302E-07 2.77759E-19-7.66421E-20
 -1      3179 9.52504E-05-2.84919E-05-2.86101E-05-7.22063E-08 3.81844E-19-2.18156E-19
 -1      3180 9.52471E-05-2.85062E-05-2.86035E-05-4.77008E-08 5.50014E-19-5.58855E-19
 -1      3181 9.52413E-05-2.84615E-05-2.86200E-05-9.44367E-08 3.10087E-19-1.14446E-18
 -1      3182 9.52482E-05-2.85198E-05-2.85974E-05-2.74661E-08 6.27559E-19-8.57143E-19
 -1      3183 9.52460E-05-2.85304E-05-2.85926E-05-1.10800E-08 5.40917E-19-1.86711E-18
 -1      3184 9.52459E-05-2.84997E-05-2.86056E-05-4.34896E-08-8.87451E-20-7.02506E-19
 -1      3185 9.52461E-05-2.85401E-05-2.85879E-05 2.19262E-09 3.78372E-19-1.50315E-18
 -1      3186 9.52448E-05-2.85480E-05-2.85845E-05 1.25706E-08 5.86204E-19-1.31547E-18
 -1      3187 9.52477E-05-2.85274E-05-2.85945E-05-9.08533E-09 2.20534E-19-1.26733E-18
 -1      3188 9.52444E-05-2.85552E-05-2.85809E-05 2.05792E-08 4.91053E-19-1.10530E-18
 -1      3189 9.52437E-05-2.85611E-05-2.85783E-05 2.63866E-08-4.77121E-19-1.10538E-18
 -1      3190 9.52479E-05-2.85476E-05-2.85860E-05 1.30669E-08 5.34821E-19 8.18735E-20
 -1      3191 1.09897E-04-3.96865E-05-3.01407E-05-1.03168E-06 2.67086E-19 1.05176E-20
 -1      3192 1.08584E-04-3.86625E-05-2.99125E-05-2.82272E-06 2.80696E-19-5.88738E-20
 -1      3193 1.06462E-04-3.71660E-05-2.97296E-05-4.30527E-06 1.60868E-19-1.89534E-19
 -1      3194 1.05075E-04-3.58049E-05-2.96349E-05-5.47572E-06 8.36809E-20-1.95589E-19
 -1      3195 1.07574E-04-3.88842E-05-2.94946E-05-5.23354E-06 5.94995E-20-1.57008E-19
 -1      3196 1.13806E-04-3.82412E-05-3.24107E-05 8.47694E-06 4.42641E-19 8.89548E-19
 -1      3197 1.14182E-04-4.00750E-05-3.17650E-05 6.57449E-06 4.39502E-19 6.42865E-19
 -1      3198 1.12037E-04-3.19270E-05-3.42912E-05 1.12343E-05 9.33662E-19 1.07488E-18
 -1      3199 1.13515E-04-3.55782E-05-3.35075E-05 1.07588E-05 7.60766E-19 1.23753E-18
 -1      3200 1.16672E-04-3.86392E-05-3.34764E-05 9.58918E-06 3.98847E-19 1.22989E-18
 -1      3201 1.08259E-04-2.38319E-05-3.61429E-05 9.09862E-06 1.28742E-18 5.61662E-19
 -1      3202 1.10069E-04-2.77394E-05-3.54629E-05 1.09771E-05 1.24162E-18 9.74654E-19
 -1      3203 1.14362E-04-3.05921E-05-3.59632E-05 1.18919E-05 1.29560E-18 1.38115E-18
 -1      3204 1.05584E-04-1.89652E-05-3.71602E-05 1.55814E-06 1.88321E-18-7.99755E-19
 -1      3205 1.06276E-04-2.05478E-05-3.69064E-05 5.35408E-06 1.40864E-18-6.00209E-19
 -1      3206 1.10026E-04-2.12148E-05-3.81611E-05 8.18063E-06 1.98444E-18 2.40035E-19
 -1      3207 1.06777E-04-2.13350E-05-3.67812E-05-7.37704E-06 2.24132E-18-1.44706E-18
 -1      3208 1.05682E-04-1.92770E-05-3.70984E-05-3.77912E-06 2.17873E-18-1.46070E-18
 -1      3209 1.08057E-04-1.73334E-05-3.89751E-05-1.13341E-06 2.39541E-18-2.00281E-18
 -1      3210 1.10652E-04-2.89324E-05-3.52251E-05-1.21648E-05 1.66811E-18-2.33160E-18
 -1      3211 1.08803E-04-2.49002E-05-3.59304E-05-1.06314E-05 2.30655E-18-1.93652E-18
 -1      3212 1.10704E-04-2.25048E-05-3.78509E-05-9.98569E-06 2.41034E-18-2.76274E-18
 -1      3213 1.13819E-04-3.63897E-05-3.32784E-05-1.12251E-05 7.15652E-20-2.49867E-18
 -1      3214 1.12508E-04-3.29863E-05-3.40410E-05-1.19589E-05 8.78333E-19-2.28565E-18
 -1      3215 1.14764E-04-3.19018E-05-3.54983E-05-1.29955E-05 1.09991E-18-2.95531E-18
 -1      3216 1.13970E-04-4.02147E-05-3.16164E-05-6.74688E-06 3.37622E-20-2.30215E-18
 -1      3217 1.13807E-04-3.87105E-05-3.22224E-05-8.74815E-06 1.40012E-19-2.21124E-18
 -1      3218 1.16620E-04-3.94375E-05-3.31197E-05-9.65313E-06 9.41993E-20-2.49415E-18
 -1      3219 1.11535E-04-4.02666E-05-3.05023E-05-1.70594E-06-8.61486E-19-1.12353E-18
 -1      3220 1.12403E-04-4.04437E-05-3.08924E-05-3.85371E-06-3.59893E-19-1.73393E-18
 -1      3221 1.14993E-04-4.22854E-05-3.11701E-05-3.93009E-06-6.65050E-19-2.14917E-18
 -1      3222 1.08017E-04-3.81476E-05-2.98886E-05 2.21159E-06-3.95465E-19-4.34154E-19
 -1      3223 1.09348E-04-3.92097E-05-3.01007E-05 5.07275E-07-6.08994E-19-3.25175E-19
 -1      3224 1.11038E-04-4.11504E-05-2.99799E-05 1.16329E-06-9.66325E-19-3.23015E-19
 -1      3225 1.04535E-04-3.53452E-05-2.96051E-05 4.67753E-06 2.91075E-19 4.92525E-19
 -1      3226 1.05901E-04-3.66511E-05-2.97072E-05 3.57589E-06 5.00759E-20 9.71354E-20
 -1      3227 1.06661E-04-3.82086E-05-2.93855E-05 4.57196E-06-7.14607E-19 1.59194E-19
 -1      3228 1.01667E-04-3.27661E-05-2.94945E-05 5.90011E-06-7.46632E-19 9.06281E-19
 -1      3229 1.02844E-04-3.39410E-05-2.95443E-05 5.32561E-06 2.81777E-19 1.06447E-18
 -1      3230 1.02842E-04-3.49156E-05-2.91572E-05 6.36037E-06-1.37780E-19 1.17713E-18
 -1      3231 9.95323E-05-3.07569E-05-2.94532E-05 6.24419E-06-6.30538E-19-1.00105E-20
 -1      3232 1.00455E-04-3.16639E-05-2.94865E-05 6.06203E-06-4.93772E-19 4.00199E-19
 -1      3233 9.99617E-05-3.21177E-05-2.91110E-05 6.98860E-06-2.76408E-19 1.50772E-18
 -1      3234 9.80433E-05-2.93590E-05-2.94238E-05 6.02894E-06-1.15296E-18-9.91738E-19
 -1      3235 9.87290E-05-2.99894E-05-2.94588E-05 6.10828E-06-9.58899E-19-2.38413E-19
 -1      3236 9.79758E-05-3.00537E-05-2.91332E-05 6.88593E-06-3.33328E-19 1.76866E-19
 -1      3237 9.70474E-05-2.84775E-05-2.93814E-05 5.49316E-06-1.24672E-18-4.41067E-19
 -1      3238 9.75441E-05-2.88778E-05-2.94243E-05 5.72917E-06-1.53224E-18-8.81398E-19
 -1      3239 9.66984E-05-2.86879E-05-2.91623E-05 6.36698E-06-1.23226E-18-6.83891E-19
 -1      3240 9.63995E-05-2.79821E-05-2.93203E-05 4.80176E-06-5.97606E-19 3.45022E-19
 -1      3241 9.67561E-05-2.82114E-05-2.93707E-05 5.11746E-06-8.53641E-19-9.65657E-20
 -1      3242 9.59256E-05-2.78781E-05-2.91721E-05 5.63951E-06-1.69429E-18 1.13176E-19
 -1      3243 9.59852E-05-2.77520E-05-2.92438E-05 4.06362E-06-5.37245E-19 1.71450E-18
 -1      3244 9.62417E-05-2.78639E-05-2.92985E-05 4.40601E-06-8.19680E-20 1.40694E-18
 -1      3245 9.54878E-05-2.74682E-05-2.91563E-05 4.83565E-06-6.25781E-19 6.88663E-19
 -1      3246 9.57225E-05-2.76913E-05-2.91584E-05 3.34709E-06 4.80895E-19 5.00958E-19
 -1      3247 9.59085E-05-2.77279E-05-2.92139E-05 3.68203E-06 1.95578E-19 1.40622E-18
 -1      3248 9.52601E-05-2.73241E-05-2.91183E-05 4.03740E-06 1.72115E-20 1.19976E-18
 -1      3249 9.55562E-05-2.77301E-05-2.90710E-05 2.69177E-06-1.99820E-19 1.01594E-18
 -1      3250 9.56924E-05-2.77219E-05-2.91242E-05 2.99912E-06-3.54880E-20 7.73209E-19
 -1      3251 9.51573E-05-2.73432E-05-2.90648E-05 3.29342E-06 3.42387E-19-4.51901E-19
 -1      3252 9.54502E-05-2.78208E-05-2.89867E-05 2.11732E-06-3.96505E-20 9.53297E-19
 -1      3253 9.55507E-05-2.77885E-05-2.90354E-05 2.38693E-06 3.46446E-19 1.51693E-18
 -1      3254 9.51241E-05-2.74526E-05-2.90030E-05 2.62982E-06-2.49476E-19-3.66229E-20
 -1      3255 9.53818E-05-2.79326E-05-2.89093E-05 1.63012E-06 8.95151E-20-3.50787E-19
 -1      3256 9.54565E-05-2.78898E-05-2.89523E-05 1.85857E-06 7.17662E-21 6.66544E-19
 -1      3257 9.51266E-05-2.76039E-05-2.89389E-05 2.05754E-06 3.79365E-19 1.41461E-19
 -1      3258 9.53370E-05-2.80468E-05-2.88408E-05 1.22807E-06-1.36937E-19 2.69302E-19
 -1      3259 9.53925E-05-2.80017E-05-2.88776E-05 1.41620E-06-1.87982E-19-2.16638E-19
 -1      3260 9.51447E-05-2.77662E-05-2.88769E-05 1.57753E-06-7.13967E-20 6.99374E-19
 -1      3261 9.53069E-05-2.81530E-05-2.87820E-05 9.04089E-07 7.05095E-19 6.66551E-19
 -1      3262 9.53481E-05-2.81103E-05-2.88127E-05 1.05526E-06 5.15566E-19 4.11756E-19
 -1      3263 9.51675E-05-2.79217E-05-2.88200E-05 1.18446E-06 1.54638E-20 2.02923E-19
 -1      3264 9.52863E-05-2.82462E-05-2.87329E-05 6.48627E-07 9.17268E-19-3.32137E-19
 -1      3265 9.53166E-05-2.82083E-05-2.87579E-05 7.67415E-07 1.11315E-18 3.03339E-19
 -1      3266 9.51892E-05-2.80609E-05-2.87696E-05 8.69476E-07 1.21931E-18-3.78182E-19
 -1      3267 9.52719E-05-2.83246E-05-2.86928E-05 4.51288E-07 3.10668E-19 6.38981E-19
 -1      3268 9.52940E-05-2.82923E-05-2.87127E-05 5.42681E-07 2.07405E-19-5.72753E-20
 -1      3269 9.52075E-05-2.81799E-05-2.87265E-05 6.22119E-07 2.48145E-19 8.96742E-19
 -1      3270 9.52617E-05-2.83884E-05-2.86608E-05 3.01902E-07-1.17650E-18 1.71009E-18
 -1      3271 9.52775E-05-2.83619E-05-2.86763E-05 3.70769E-07-1.47789E-19 1.36957E-18
 -1      3272 9.52215E-05-2.82780E-05-2.86904E-05 4.31631E-07-7.86576E-19 2.68424E-18
 -1      3273 9.52544E-05-2.84389E-05-2.86358E-05 1.91143E-07-1.77251E-18 2.32474E-18
 -1      3274 9.52655E-05-2.84177E-05-2.86476E-05 2.41932E-07-1.66118E-18 1.35460E-18
 -1      3275 9.52316E-05-2.83567E-05-2.86610E-05 2.87780E-07-1.77459E-18 3.17871E-18
 -1      3276 9.52491E-05-2.84781E-05-2.86166E-05 1.10842E-07-8.20470E-19 1.33351E-18
 -1      3277 9.52567E-05-2.84615E-05-2.86255E-05 1.47432E-07-1.03493E-18 1.68941E-18
 -1      3278 9.52382E-05-2.84182E-05-2.86374E-05 1.81342E-07-8.13499E-19 1.70004E-18
 -1      3279 9.52453E-05-2.85078E-05-2.86021E-05 5.41054E-08-4.47808E-20 1.29316E-18
 -1      3280 9.52503E-05-2.84951E-05-2.86086E-05 7.97500E-08-5.11943E-19 1.13346E-18
 -1      3281 9.52422E-05-2.84652E-05-2.86189E-05 1.04319E-07-4.89977E-19 6.21416E-19
 -1      3282 9.52427E-05-2.85300E-05-2.85913E-05 1.53076E-08 8.28951E-19 2.14985E-19
 -1      3283 9.52457E-05-2.85203E-05-2.85960E-05 3.26439E-08 4.45063E-19 6.86034E-19
 -1      3284 9.52442E-05-2.85005E-05-2.86046E-05 5.00153E-08 1.05163E-19-4.48963E-20
 -1      3285 9.52410E-05-2.85466E-05-2.85835E-05-1.00121E-08-4.44667E-19-9.44499E-19
 -1      3286 9.52426E-05-2.85392E-05-2.85868E-05 1.08870E-09 1.06043E-18 1.65465E-19
 -1      3287 9.52448E-05-2.85265E-05-2.85937E-05 1.29896E-08 5.80491E-19 5.83551E-20
 -1      3288 9.52400E-05-2.85590E-05-2.85777E-05-2.52023E-08-1.03194E-18-1.49674E-18
 -1      3289 9.52406E-05-2.85533E-05-2.85800E-05-1.87878E-08-1.29398E-18-1.31050E-18
 -1      3290 9.52447E-05-2.85457E-05-2.85854E-05-1.10191E-08 1.46350E-19-3.55310E-19
 -1      3291 9.52398E-05-2.85687E-05-2.85733E-05-3.27194E-08 2.33252E-19-2.22533E-18
 -1      3292 9.52396E-05-2.85642E-05-2.85750E-05-2.99372E-08-3.99413E-19-2.24648E-18
 -1      3293 9.52441E-05-2.85600E-05-2.85790E-05-2.52785E-08-2.66323E-19-1.51374E-18
 -1      3294 9.52416E-05-2.85751E-05-2.85713E-05-3.38593E-08-8.64645E-20-2.92329E-18
 -1      3295 9.52401E-05-2.85716E-05-2.85722E-05-3.38626E-08 1.02538E-19-3.09833E-18
 -1      3296 9.52444E-05-2.85694E-05-2.85750E-05-3.11682E-08 3.18682E-19-3.09923E-18
 -1      3297 9.52454E-05-2.85764E-05-2.85725E-05-3.23988E-08 3.05967E-19-2.47412E-18
 -1      3298 6.20031E-05-2.37303E-05-1.63583E-05 2.64847E-05 1.79674E-18-3.70026E-18
 -1      3299 5.22587E-05-1.67265E-05-1.47068E-05 1.78192E-05 1.25213E-18-4.02023E-18
 -1      3300 9.64387E-05-2.38945E-05-3.10876E-05 3.38451E-08 2.20798E-18-1.16192E-18
 -1      3301 9.50893E-05-2.19694E-05-3.13317E-05 5.26116E-07 2.22311E-18-1.42041E-18
 -1      3302 9.49548E-05-2.25268E-05-3.10364E-05-9.15454E-07 1.89773E-18-1.52138E-18
 -1      3303 9.67045E-05-2.48997E-05-3.07825E-05-1.53609E-06 1.88570E-18-1.16763E-18
 -1      3304 9.52552E-05-2.85703E-05-2.85793E-05 1.69568E-09-1.23804E-18-2.15374E-18
 -1      3305 9.52551E-05-2.85702E-05-2.85793E-05-2.46717E-09-5.63560E-20 3.14574E-19
 -1      3306 9.52515E-05-2.85739E-05-2.85761E-05 2.53883E-08-4.48182E-19-2.30335E-18
 -1      3307 9.52533E-05-2.85741E-05-2.85769E-05 2.17853E-08-7.51278E-19-2.08398E-18
 -1      3308 9.52551E-05-2.85710E-05-2.85789E-05 9.65347E-09-1.08440E-18 1.15483E-19
 -1      3309 9.52553E-05-2.85708E-05-2.85791E-05 5.55113E-09-5.23313E-19-6.31850E-19
 -1      3310 9.52551E-05-2.85612E-05-2.85830E-05 3.14920E-09-5.00435E-19-4.41888E-19
 -1      3311 4.65915E-05-1.57575E-05-1.29548E-05 1.89100E-05-1.99370E-18 5.38268E-18
 -1      3312 4.18015E-05-1.22380E-05-1.22830E-05 7.49363E-06-9.03142E-19 5.25139E-18
 -1      3313 9.79267E-05-2.78409E-05-3.00402E-05-5.44239E-06 8.73342E-19-8.61961E-19
 -1      3314 9.74820E-05-2.70356E-05-3.01705E-05-4.67375E-06 1.12263E-18-8.96741E-19
 -1      3315 9.52541E-05-2.85725E-05-2.85778E-05 1.76953E-08-4.59710E-19-1.52391E-18
 -1      3316 9.52549E-05-2.85722E-05-2.85783E-05 1.36780E-08-8.11234E-19-5.83282E-19
 -1      3317 9.52550E-05-2.85630E-05-2.85822E-05 1.05313E-08-1.39238E-18-1.12214E-19
 -1      3318 9.52540E-05-2.85658E-05-2.85805E-05 1.81596E-08-5.48851E-19-1.94788E-18
 -1      3319 4.58802E-05-1.58552E-05-1.26113E-05-1.78552E-05-6.57271E-19-4.25994E-18
 -1      3320 5.43220E-05-2.22625E-05-1.32826E-05-2.86125E-05-1.56214E-18-4.70061E-18
 -1      3321 1.12776E-04-4.05940E-05-3.09948E-05 3.55367E-06 5.47058E-19 1.54408E-19
 -1      3322 1.12038E-04-4.06084E-05-3.05731E-05 1.37411E-06 3.54118E-19 3.40477E-19
 -1      3323 1.11953E-04-4.18010E-05-3.01280E-05-1.52637E-06 1.70599E-19 6.23975E-20
 -1      3324 1.15652E-04-4.24611E-05-3.14190E-05 3.86024E-06 2.23122E-19 8.65962E-19
 -1      3325 9.91257E-05-2.95927E-05-2.98034E-05-6.51849E-06 5.22404E-19-8.28309E-19
 -1      3326 9.84679E-05-2.86843E-05-2.98811E-05-6.13979E-06 7.51544E-19-7.92985E-19
 -1      3327 9.73055E-05-2.76383E-05-2.98770E-05-6.14130E-06 7.79026E-19-1.11119E-18
 -1      3328 1.31656E-04-5.74415E-05-3.14585E-05-5.44058E-06 2.34497E-18-3.53567E-18
 -1      3329 1.15035E-04-2.10569E-05-4.06764E-05-1.16163E-05 2.97727E-18-3.02504E-18
 -1      3330 1.19906E-04-2.91476E-05-3.90600E-05-1.38046E-05 1.93436E-18-3.59325E-18
 -1      3331 9.11829E-05-4.32403E-05-2.04111E-05 3.32539E-05 2.40176E-18-1.33588E-18
 -1      3332 7.69003E-05-3.33399E-05-1.83039E-05 3.11948E-05 2.33760E-18-2.35163E-18
 -1      3333 9.08831E-05-3.85515E-05-2.23190E-05-2.64828E-05 3.46373E-18 1.50084E-20
 -1      3334 1.04312E-04-4.68639E-05-2.47350E-05-2.44764E-05 3.13630E-18-1.30173E-18
 -1      3335 1.12630E-04-1.66796E-05-4.12673E-05 7.35471E-06 3.42360E-18 1.81080E-19
 -1      3336 1.11785E-04-1.40681E-05-4.22856E-05 2.76479E-06 3.71202E-18-5.20330E-19
 -1      3337 8.72202E-05-1.40010E-05-3.13860E-05-6.79086E-07 9.46117E-19-3.16139E-18
 -1      3338 8.65889E-05-1.34615E-05-3.13619E-05-8.58892E-07 5.68138E-19-3.33651E-18
 -1      3339 1.24345E-04-5.63803E-05-2.92857E-05 1.44705E-05-2.33760E-18-2.58966E-18
 -1      3340 1.15098E-04-5.39592E-05-2.61213E-05 2.17779E-05-3.75270E-18-1.36368E-18
 -1      3341 6.65694E-05-2.82819E-05-1.62722E-05 3.13681E-05-3.35068E-18 3.45992E-18
 -1      3342 5.46160E-05-2.06635E-05-1.40291E-05 2.58512E-05-3.11195E-18 4.63793E-18
 -1      3343 5.64187E-05-1.82252E-05-1.59496E-05 1.97248E-05-1.48022E-18 4.21002E-18
 -1      3344 1.28078E-04-3.92440E-05-3.83996E-05-1.16375E-05 1.13857E-18-4.20965E-18
 -1      3345 1.31990E-04-4.70339E-05-3.65168E-05-6.06101E-06 1.95426E-19-3.78560E-18
 -1      3346 1.01136E-04-4.88390E-05-2.22097E-05-3.14965E-05-2.49869E-18-1.31941E-18
 -1      3347 1.11985E-04-5.39582E-05-2.49775E-05-2.69606E-05-2.68139E-18-8.98940E-19
 -1      3348 1.15651E-04-5.29248E-05-2.66979E-05-2.00868E-05-2.44242E-18-4.30233E-19
 -1      3349 1.11637E-04-1.37393E-05-4.22825E-05-2.52133E-06 3.65558E-18-1.58420E-18
 -1      3350 1.13013E-04-1.62653E-05-4.17677E-05-8.55246E-06 3.44779E-18-2.75789E-18
 -1      3351 4.14065E-05-1.19170E-05-1.21870E-05-3.27966E-06 2.29759E-19 4.40807E-18
 -1      3352 4.65942E-05-1.53277E-05-1.32185E-05-1.55821E-05 1.81053E-18 2.94058E-18
 -1      3353 1.31381E-04-5.16918E-05-3.44634E-05 1.49677E-07-8.66118E-19-3.36060E-18
 -1      3354 1.28478E-04-5.49863E-05-3.14254E-05 7.46446E-06-1.82880E-18-2.97671E-18
 -1      3355 1.23965E-04-5.37943E-05-3.01242E-05 8.43687E-06-2.45800E-18-2.53993E-18
 -1      3356 1.27848E-04-4.89746E-05-3.39114E-05-3.44582E-06-1.10054E-18-3.67210E-18
 -1      3357 5.71919E-05-2.02617E-05-1.52335E-05-2.26133E-05 2.78470E-18 2.74079E-18
 -1      3358 7.05474E-05-2.75480E-05-1.82800E-05-2.67108E-05 3.60378E-18 2.45232E-18
 -1      3359 5.72335E-05-1.75523E-05-1.66762E-05-1.63123E-05 1.97565E-18 2.07438E-18
 -1      3360 1.23840E-04-3.49452E-05-3.82113E-05 1.22841E-05 1.41206E-18 2.26359E-18
 -1      3361 1.18255E-04-2.40480E-05-4.08251E-05 1.22508E-05 2.83322E-18 1.19204E-18
 -1      3362 8.61351E-05-1.30186E-05-3.13446E-05-7.48078E-07 3.82841E-19-3.46645E-18
 -1      3363 8.59421E-05-1.28603E-05-3.13408E-05-8.25592E-07 1.02371E-19-3.51918E-18
 -1      3364 8.67681E-05-1.43593E-05-3.10080E-05-1.14240E-06 5.14590E-19-3.12012E-18
 -1      3365 5.17605E-05-1.49966E-05-1.52580E-05-1.18142E-05-3.86393E-19-4.11129E-18
 -1      3366 8.90489E-05-1.56840E-05-3.14495E-05-3.45699E-07 1.36548E-18-2.94635E-18
 -1      3367 8.80722E-05-1.48119E-05-3.14184E-05-6.40448E-07 1.05476E-18-3.02779E-18
 -1      3368 8.81453E-05-1.56191E-05-3.10619E-05-1.30932E-06 8.68933E-19-2.84942E-18
 -1      3369 1.24467E-04-5.56100E-05-2.92650E-05 1.22675E-05 1.78435E-18 7.82606E-19
 -1      3370 1.03547E-04-4.44756E-05-2.53735E-05 2.32865E-05 1.92021E-18-3.46675E-19
 -1      3371 1.12659E-04-4.85801E-05-2.72458E-05 1.83582E-05 1.96214E-18-2.09002E-19
 -1      3372 9.29150E-05-2.09259E-05-3.08475E-05 2.92800E-06-1.31672E-18-2.33339E-18
 -1      3373 1.18703E-04-5.32234E-05-2.80043E-05 1.63079E-05 1.82628E-18 2.13095E-19
 -1      3374 8.66299E-05-3.90904E-05-2.02189E-05-3.22066E-05-2.16375E-18-1.87824E-18
 -1      3375 9.48868E-05-4.49998E-05-2.11777E-05-3.30131E-05-2.44628E-18-1.54613E-18
 -1      3376 1.02557E-04-4.64757E-05-2.38431E-05-2.67753E-05-2.29485E-18-1.00301E-18
 -1      3377 1.13683E-04-5.02448E-05-2.69907E-05-1.79253E-05 3.16763E-18-2.02422E-18
 -1      3378 8.69111E-05-3.78577E-05-2.09963E-05 2.95652E-05-4.39520E-18 3.92732E-19
 -1      3379 7.70738E-05-3.31318E-05-1.84067E-05 3.19211E-05-3.98394E-18 2.04866E-18
 -1      3380 7.23943E-05-2.78038E-05-1.89246E-05 2.74735E-05-3.20038E-18 2.16859E-18
 -1      3381 1.20456E-04-5.45930E-05-2.80850E-05-1.50214E-05 3.15610E-18-2.54805E-18
 -1      3382 9.52476E-05-2.85615E-05-2.85799E-05 2.51611E-08-4.23465E-19-1.02577E-18
 -1      3383 9.52434E-05-2.85656E-05-2.85761E-05 2.98666E-08-9.23537E-19-7.59550E-19
 -1      3384 9.52436E-05-2.85698E-05-2.85745E-05 3.20607E-08-7.22200E-19-3.67145E-19
 -1      3385 9.99594E-05-3.06086E-05-2.96894E-05-6.86964E-06 3.08859E-19-5.81499E-19
 -1      3386 9.86593E-05-2.97300E-05-2.95714E-05-7.32429E-06 3.32651E-19-8.59121E-19
 -1      3387 1.00887E-04-3.17134E-05-2.96534E-05-6.81970E-06 4.15228E-20-5.47897E-19
 -1      3388 9.14162E-05-1.79568E-05-3.14947E-05 2.01342E-07 1.77771E-18-2.43647E-18
 -1      3389 9.01928E-05-1.67846E-05-3.14785E-05-1.67750E-07 1.49812E-18-2.73015E-18
 -1      3390 9.02025E-05-1.75276E-05-3.11282E-05-1.17823E-06 1.28271E-18-2.62462E-18
 -1      3391 9.26722E-05-1.99271E-05-3.11610E-05-8.42859E-07 1.70850E-18-2.07916E-18
 -1      3392 9.52525E-05-2.85734E-05-2.85768E-05-2.19742E-08 4.65742E-19-1.87623E-18
 -1      3393 9.52510E-05-2.85736E-05-2.85760E-05-2.49885E-08 8.92393E-19-8.07536E-19
 -1      3394 8.86308E-05-1.52282E-05-3.14804E-05-2.07877E-07-1.15478E-18-2.84129E-18
 -1      3395 8.98624E-05-1.63491E-05-3.15179E-05-2.84315E-07-1.54103E-18-2.75177E-18
 -1      3396 1.03698E-04-3.54476E-05-2.93013E-05-7.18643E-06-2.08507E-20-4.43611E-19
 -1      3397 1.03340E-04-3.42967E-05-2.96071E-05-6.16795E-06-1.01698E-20-5.25406E-19
 -1      3398 1.02137E-04-3.29884E-05-2.95934E-05-6.73026E-06-3.32411E-20-6.26832E-19
 -1      3399 7.48485E-05-2.86127E-05-1.94464E-05 2.60180E-05 1.97877E-18-2.67451E-18
 -1      3400 5.45725E-05-1.51979E-05-1.64359E-05 1.06470E-05 7.49174E-19-3.85156E-18
 -1      3401 9.52543E-05-2.85719E-05-2.85782E-05-1.42512E-08 8.04604E-19 1.81630E-18
 -1      3402 9.52534E-05-2.85721E-05-2.85777E-05-1.81612E-08 9.59729E-19-5.13652E-19
 -1      3403 9.52531E-05-2.85654E-05-2.85804E-05-1.86598E-08 1.79252E-18-1.30349E-18
 -1      3404 9.52490E-05-2.85734E-05-2.85753E-05 2.90245E-08-4.90061E-19-2.13485E-18
 -1      3405 9.52505E-05-2.85668E-05-2.85786E-05 2.53447E-08-6.13539E-19-1.60879E-18
 -1      3406 6.59085E-05-2.70689E-05-1.62039E-05-2.94963E-05-2.09328E-18-3.47035E-18
 -1      3407 9.52550E-05-2.85707E-05-2.85791E-05-6.28776E-09 7.34595E-19 1.09125E-18
 -1      3408 9.52546E-05-2.85708E-05-2.85788E-05-1.03832E-08 4.36424E-19 1.98674E-18
 -1      3409 9.52545E-05-2.85628E-05-2.85820E-05-1.13118E-08 1.49543E-18 1.67186E-18
 -1      3410 9.52549E-05-2.85611E-05-2.85829E-05-4.05532E-09 7.91099E-19-2.92973E-19
 -1      3411 1.09614E-04-5.12600E-05-2.48649E-05 2.49294E-05-4.19284E-18-4.06139E-19
 -1      3412 1.01867E-04-4.63342E-05-2.37462E-05 2.62381E-05-4.02071E-18-4.69124E-19
 -1      3413 1.14324E-04-5.10108E-05-2.70683E-05 1.71188E-05-3.43354E-18-1.06532E-18
 -1      3414 8.10733E-05-3.19648E-05-2.08420E-05-2.66292E-05 3.50042E-18 1.52048E-18
 -1      3415 9.36066E-05-3.60708E-05-2.45129E-05-2.20215E-05 2.55514E-18-3.70494E-19
 -1      3416 8.98462E-05-3.18029E-05-2.48553E-05-2.03440E-05 2.12980E-18 7.41319E-20
 -1      3417 7.49247E-05-2.61516E-05-2.09030E-05-2.27276E-05 2.77001E-18 1.30192E-18
 -1      3418 1.00494E-04-4.56851E-05-2.33096E-05 2.74420E-05 2.32325E-18-7.62661E-19
 -1      3419 8.76043E-05-1.42884E-05-3.14367E-05-4.21452E-07-8.33444E-19-3.00192E-18
 -1      3420 8.84165E-05-1.57765E-05-3.11129E-05 4.85416E-07-9.34105E-19-2.56697E-18
 -1      3421 8.68163E-05-1.35968E-05-3.13993E-05-3.88268E-07-3.97598E-19-3.14710E-18
 -1      3422 1.21174E-04-4.18455E-05-3.40642E-05 8.09448E-06 3.63589E-19 1.84271E-18
 -1      3423 1.22863E-04-3.84896E-05-3.62500E-05 1.15387E-05 8.54219E-19 2.20379E-18
 -1      3424 9.72467E-05-2.64311E-05-3.03541E-05-3.78757E-06 1.47773E-18-9.90347E-19
 -1      3425 9.69370E-05-2.56047E-05-3.05546E-05-2.64102E-06 1.66330E-18-1.09606E-18
 -1      3426 9.61050E-05-2.45127E-05-3.06819E-05-2.35866E-06 1.75623E-18-1.16538E-18
 -1      3427 9.65458E-05-2.59791E-05-3.02523E-05-4.43678E-06 1.22637E-18-1.21805E-18
 -1      3428 1.24236E-04-5.23275E-05-3.09141E-05-5.61543E-06-1.41606E-18 1.18607E-18
 -1      3429 4.85130E-05-1.27271E-05-1.48605E-05 2.01419E-06-2.12946E-19 3.67993E-18
 -1      3430 1.22019E-04-3.55242E-05-3.73136E-05-1.26345E-05 9.87865E-19-3.15113E-18
 -1      3431 9.52506E-05-2.85604E-05-2.85815E-05 2.22388E-08-1.36081E-18-1.72911E-18
 -1      3432 9.52528E-05-2.85606E-05-2.85825E-05 1.93936E-08-3.64160E-19-2.65266E-18
 -1      3433 9.52507E-05-2.85539E-05-2.85841E-05 1.81100E-08-6.01970E-19-1.66347E-18
 -1      3434 1.08276E-04-4.03695E-05-2.91052E-05-6.93042E-06-7.58723E-20-2.24455E-19
 -1      3435 1.06057E-04-3.83716E-05-2.89254E-05-8.16343E-06-1.24382E-19-2.91892E-19
 -1      3436 9.33668E-05-3.76095E-05-2.36708E-05 2.51875E-05 1.79046E-18-6.99239E-19
 -1      3437 9.16653E-05-1.91898E-05-3.10566E-05 1.57250E-06-1.30391E-18-2.58839E-18
 -1      3438 9.14618E-05-2.00590E-05-3.06183E-05 3.39631E-06-1.09378E-18-2.42367E-18
 -1      3439 9.01107E-05-2.13772E-05-2.94702E-05 7.29419E-06-6.78697E-19-1.88009E-18
 -1      3440 8.97664E-05-2.17493E-05-2.91455E-05 8.50727E-06-5.03588E-19-1.87507E-18
 -1      3441 8.89109E-05-2.19935E-05-2.87013E-05 9.69837E-06-3.88236E-19-1.69040E-18
 -1      3442 8.86500E-05-2.25086E-05-2.83252E-05 1.09272E-05-2.79574E-19-1.54185E-18
 -1      3443 8.73585E-05-2.05159E-05-2.86214E-05 8.24363E-06-4.37262E-19-1.92181E-18
 -1      3444 8.76793E-05-2.29467E-05-2.77721E-05 1.23380E-05-2.40286E-19-1.37926E-18
 -1      3445 8.77653E-05-2.39265E-05-2.73130E-05 1.37029E-05 6.93541E-20-1.53024E-18
 -1      3446 8.54942E-05-2.10853E-05-2.75771E-05 1.07384E-05-1.38449E-19-1.54107E-18
 -1      3447 8.69285E-05-2.49170E-05-2.66009E-05 1.55238E-05 3.88648E-19-1.50673E-18
 -1      3448 8.78026E-05-2.67593E-05-2.60567E-05 1.71072E-05 8.12235E-19-1.40323E-18
 -1      3449 8.36062E-05-2.22858E-05-2.62377E-05 1.39788E-05 3.03526E-19-1.46822E-18
 -1      3450 8.72786E-05-2.85710E-05-2.51391E-05 1.97840E-05 1.32092E-18-1.32996E-18
 -1      3451 8.97396E-05-3.22180E-05-2.45342E-05 2.17483E-05 1.71782E-18-1.04263E-18
 -1      3452 8.20172E-05-2.46587E-05-2.44694E-05 1.84416E-05 1.14390E-18-1.31645E-18
 -1      3453 8.93574E-05-2.91734E-05-2.56938E-05-1.77464E-05 1.79036E-18 2.27435E-19
 -1      3454 8.77594E-05-2.67669E-05-2.61649E-05-1.62161E-05 1.78921E-18-3.69609E-19
 -1      3455 8.34875E-05-2.72627E-05-2.40457E-05-1.95830E-05 2.14051E-18 8.85457E-19
 -1      3456 8.81619E-05-2.54571E-05-2.68163E-05-1.42675E-05 1.08014E-18-8.52245E-19
 -1      3457 8.76588E-05-2.42642E-05-2.72054E-05-1.30004E-05 9.38534E-19-1.20172E-18
 -1      3458 8.36679E-05-2.37502E-05-2.56571E-05-1.48365E-05 7.74440E-19 6.87175E-19
 -1      3459 8.84146E-05-2.37791E-05-2.76728E-05-1.16165E-05 1.24673E-18-1.11581E-18
 -1      3460 8.84647E-05-2.33208E-05-2.79509E-05-1.05848E-05 1.26627E-18-1.30604E-18
 -1      3461 8.50080E-05-2.23194E-05-2.68436E-05-1.15864E-05 9.69163E-19 1.23222E-19
 -1      3462 8.92953E-05-2.33045E-05-2.82683E-05-9.56253E-06 9.00402E-19-1.67084E-18
 -1      3463 8.95762E-05-2.32600E-05-2.84467E-05-8.70351E-06 3.30719E-19-1.35138E-18
 -1      3464 8.66644E-05-2.20475E-05-2.76707E-05-9.30830E-06 9.85314E-19-4.66034E-19
 -1      3465 9.03570E-05-2.34907E-05-2.86505E-05-7.90394E-06 5.77744E-20-1.69939E-18
 -1      3466 9.07009E-05-2.36603E-05-2.87517E-05-7.16944E-06 1.07506E-19-2.20014E-18
 -1      3467 8.82967E-05-2.23992E-05-2.82218E-05-7.61136E-06 2.59679E-20-1.11151E-18
 -1      3468 9.13814E-05-2.40021E-05-2.88736E-05-6.51373E-06 2.49866E-19-1.98672E-18
 -1      3469 9.17089E-05-2.42664E-05-2.89198E-05-5.87699E-06 1.69885E-19-2.30167E-18
 -1      3470 8.97580E-05-2.30551E-05-2.85700E-05-6.26250E-06 6.18731E-21-2.39965E-18
 -1      3471 9.22754E-05-2.46393E-05-2.89849E-05-5.32437E-06 3.50458E-19-2.07124E-18
 -1      3472 9.25548E-05-2.49301E-05-2.89948E-05-4.77237E-06 5.59577E-19-1.67190E-18
 -1      3473 9.09973E-05-2.38249E-05-2.87744E-05-5.13901E-06 2.87042E-19-2.91771E-18
 -1      3474 9.30121E-05-2.52899E-05-2.90221E-05-4.30252E-06 5.53050E-19-1.10868E-18
 -1      3475 9.32360E-05-2.55706E-05-2.90098E-05-3.82838E-06 5.17701E-19-1.42646E-18
 -1      3476 9.20117E-05-2.45991E-05-2.88802E-05-4.18148E-06 1.10545E-18-3.29760E-18
 -1      3477 9.35968E-05-2.58954E-05-2.90132E-05-3.43029E-06-2.77347E-19-1.25273E-18
 -1      3478 9.37693E-05-2.61483E-05-2.89887E-05-3.02870E-06-5.25564E-19-1.16060E-18
 -1      3479 9.28211E-05-2.53184E-05-2.89212E-05-3.36176E-06-1.23897E-19-2.02917E-18
 -1      3480 9.40488E-05-2.64295E-05-2.89779E-05-2.69495E-06-1.91083E-19-5.66023E-19
 -1      3481 9.41781E-05-2.66481E-05-2.89481E-05-2.36020E-06 5.65450E-19-2.09217E-19
 -1      3482 9.34542E-05-2.59554E-05-2.89215E-05-2.66483E-06 3.64311E-20-4.12548E-19
 -1      3483 9.43913E-05-2.68845E-05-2.89298E-05-2.08430E-06 1.42392E-19-7.74177E-19
 -1      3484 9.44862E-05-2.70680E-05-2.88988E-05-1.80986E-06-7.00789E-19-5.95938E-19
 -1      3485 9.39417E-05-2.65010E-05-2.88982E-05-2.07990E-06 7.12900E-20-7.98906E-19
 -1      3486 9.46468E-05-2.72625E-05-2.88774E-05-1.58531E-06-1.06229E-18-5.34160E-21
 -1      3487 9.47152E-05-2.74132E-05-2.88479E-05-1.36399E-06-9.76946E-19 4.19779E-19
 -1      3488 9.43117E-05-2.69570E-05-2.88626E-05-1.59658E-06-4.47330E-19-1.79743E-18
 -1      3489 9.48344E-05-2.75703E-05-2.88260E-05-1.18418E-06-1.03485E-18-3.85610E-20
 -1      3490 9.48830E-05-2.76920E-05-2.87994E-05-1.00857E-06-1.11531E-18-4.63077E-19
 -1      3491 9.45890E-05-2.73308E-05-2.88222E-05-1.20380E-06-1.34628E-18-1.31528E-18
 -1      3492 9.49703E-05-2.78169E-05-2.87787E-05-8.66931E-07-1.08360E-18-7.72359E-19
 -1      3493 9.50042E-05-2.79137E-05-2.87555E-05-7.29821E-07-3.18282E-19-1.79744E-18
 -1      3494 9.47939E-05-2.76320E-05-2.87817E-05-8.89965E-07-1.12075E-18-2.25653E-18
 -1      3495 9.50671E-05-2.80116E-05-2.87370E-05-6.20086E-07 2.09954E-19-1.57966E-18
 -1      3496 9.50903E-05-2.80874E-05-2.87174E-05-5.14755E-07-5.52771E-20-1.66655E-18
 -1      3497 9.49432E-05-2.78710E-05-2.87438E-05-6.43407E-07-1.27929E-19-2.04571E-18
 -1      3498 9.51348E-05-2.81630E-05-2.87013E-05-4.31175E-07 1.70985E-19-1.32258E-18
 -1      3499 9.51503E-05-2.82216E-05-2.86851E-05-3.51597E-07 9.66916E-19-1.02363E-18
 -1      3500 9.50501E-05-2.80578E-05-2.87099E-05-4.52978E-07 1.72648E-20-1.65062E-18
 -1      3501 9.51810E-05-2.82791E-05-2.86715E-05-2.89062E-07 9.67193E-19-1.35284E-18
 -1      3502 9.51909E-05-2.83238E-05-2.86584E-05-2.29996E-07 9.97888E-19-1.40345E-18
 -1      3503 9.51250E-05-2.82018E-05-2.86807E-05-3.08441E-07 8.57314E-19-1.52258E-18
 -1      3504 9.52115E-05-2.83668E-05-2.86471E-05-1.84098E-07 8.37634E-20-1.41778E-18
 -1      3505 9.52176E-05-2.84003E-05-2.86367E-05-1.41102E-07 2.07389E-20-1.52176E-18
 -1      3506 9.51762E-05-2.83111E-05-2.86560E-05-2.00728E-07 2.42073E-19-2.10277E-18
 -1      3507 9.52307E-05-2.84321E-05-2.86275E-05-1.08135E-07 1.18175E-18-7.12091E-19
 -1      3508 9.52341E-05-2.84569E-05-2.86193E-05-7.75365E-08 1.20332E-18-4.51295E-20
 -1      3509 9.52099E-05-2.83928E-05-2.86356E-05-1.22043E-07 6.90492E-19 1.85854E-19
 -1      3510 9.52420E-05-2.84799E-05-2.86120E-05-5.44666E-08 2.11614E-19 3.10562E-19
 -1      3511 9.52436E-05-2.84980E-05-2.86056E-05-3.33077E-08-4.44708E-19 8.84571E-19
 -1      3512 9.52310E-05-2.84529E-05-2.86190E-05-6.58622E-08 9.19989E-19 1.42322E-18
 -1      3513 9.52478E-05-2.85145E-05-2.85997E-05-1.77065E-08-3.25549E-19 7.12828E-19
 -1      3514 9.52482E-05-2.85276E-05-2.85948E-05-3.73002E-09 3.74261E-19 7.27668E-19
 -1      3515 9.52432E-05-2.84966E-05-2.86056E-05-2.69274E-08 2.04183E-19 1.65810E-18
 -1      3516 9.52500E-05-2.85367E-05-2.85912E-05 4.40536E-09 7.39981E-20-2.42263E-19
 -1      3517 9.52499E-05-2.85466E-05-2.85873E-05 1.31645E-08 2.92583E-20-1.16995E-19
 -1      3518 9.52518E-05-2.85448E-05-2.85889E-05 1.10298E-08-1.34027E-18-1.97520E-18
 -1      3519 9.52489E-05-2.85253E-05-2.85960E-05-2.73902E-09-7.18872E-19 9.45992E-19
 -1      3520 1.21525E-04-4.50215E-05-3.27249E-05 5.42621E-06-3.10507E-19 1.79799E-18
 -1      3521 1.15714E-04-4.46975E-05-3.03694E-05 4.03446E-07-1.48945E-18-1.37407E-18
 -1      3522 1.17476E-04-4.48808E-05-3.12035E-05-2.42964E-06-7.67132E-19-1.74597E-18
 -1      3523 1.10099E-04-4.17077E-05-2.92189E-05 4.98669E-06-1.76839E-18-2.00331E-19
 -1      3524 1.12363E-04-4.32533E-05-2.96478E-05 2.98101E-06-1.75156E-18-9.13786E-19
 -1      3525 1.14256E-04-4.53793E-05-2.94991E-05 4.56793E-06-1.82251E-18-1.58551E-18
 -1      3526 1.04787E-04-3.75129E-05-2.87589E-05 7.39661E-06-7.27916E-19 7.58587E-20
 -1      3527 1.06950E-04-3.94841E-05-2.89312E-05 6.32835E-06-9.82429E-19 4.42906E-20
 -1      3528 1.07621E-04-4.12787E-05-2.85112E-05 8.32492E-06-1.54618E-18-5.54237E-19
 -1      3529 1.00744E-04-3.37593E-05-2.86609E-05 8.17630E-06-4.07018E-19 3.86025E-19
 -1      3530 1.02468E-04-3.54958E-05-2.87020E-05 7.76144E-06-5.37818E-19 3.23953E-19
 -1      3531 1.02177E-04-3.65269E-05-2.82118E-05 9.52048E-06-6.13897E-19-3.09074E-19
 -1      3532 9.79758E-05-3.08960E-05-2.87218E-05 8.02026E-06-2.30362E-19 5.14465E-19
 -1      3533 9.92088E-05-3.22073E-05-2.87063E-05 8.01839E-06-2.32433E-19 5.50459E-19
 -1      3534 9.83939E-05-3.26250E-05-2.82409E-05 9.39914E-06-6.71694E-19 2.49930E-19
 -1      3535 9.62438E-05-2.89491E-05-2.88275E-05 7.37673E-06-5.72445E-19 3.63363E-19
 -1      3536 9.70589E-05-2.98355E-05-2.87987E-05 7.61130E-06-2.50526E-19 5.27899E-19
 -1      3537 9.60125E-05-2.98278E-05-2.83989E-05 8.61458E-06-5.83789E-19 5.11204E-19
 -1      3538 9.52511E-05-2.77565E-05-2.89215E-05 6.51712E-06-1.57505E-18 4.99363E-19
 -1      3539 9.57566E-05-2.82981E-05-2.89001E-05 6.87381E-06-6.36358E-19 7.68152E-19
 -1      3540 9.46625E-05-2.80289E-05-2.85770E-05 7.57790E-06-7.25378E-19 6.28268E-19
 -1      3541 9.47472E-05-2.71210E-05-2.89829E-05 5.59214E-06-1.19265E-18 4.10756E-19
 -1      3542 9.50416E-05-2.74100E-05-2.89757E-05 5.99887E-06-1.87859E-18 6.74465E-19
 -1      3543 9.40018E-05-2.69975E-05-2.87265E-05 6.48954E-06-1.64677E-18 6.91735E-19
 -1      3544 9.45460E-05-2.68658E-05-2.90087E-05 4.68654E-06-1.11245E-18 1.17245E-18
 -1      3545 9.47051E-05-2.69835E-05-2.90157E-05 5.09853E-06-1.03592E-18 9.10621E-19
 -1      3546 9.37723E-05-2.65098E-05-2.88314E-05 5.44500E-06-1.22086E-18 6.79962E-19
 -1      3547 9.45192E-05-2.68516E-05-2.90046E-05 3.84717E-06 1.06289E-18 3.93316E-19
 -1      3548 9.45960E-05-2.68612E-05-2.90226E-05 4.23725E-06 4.30243E-19 1.32647E-18
 -1      3549 9.37928E-05-2.63811E-05-2.88921E-05 4.48874E-06-1.41966E-19 1.12187E-18
 -1      3550 9.45831E-05-2.69769E-05-2.89786E-05 3.09812E-06 3.65917E-19-1.04657E-19
 -1      3551 9.46128E-05-2.69242E-05-2.90037E-05 3.45094E-06 9.14187E-19 1.93624E-19
 -1      3552 9.39428E-05-2.64716E-05-2.89159E-05 3.63982E-06 6.83144E-19 6.89015E-19
 -1      3553 9.46861E-05-2.71720E-05-2.89390E-05 2.44919E-06-6.52003E-19-1.14630E-19
 -1      3554 9.46907E-05-2.70881E-05-2.89677E-05 2.75738E-06-4.56494E-19-5.06076E-19
 -1      3555 9.41470E-05-2.66821E-05-2.89124E-05 2.90397E-06 1.85182E-19 1.17213E-18
 -1      3556 9.47980E-05-2.73915E-05-2.88925E-05 1.90085E-06 3.49964E-19 4.11389E-19
 -1      3557 9.47908E-05-2.72965E-05-2.89220E-05 2.16251E-06 3.42527E-20 1.32842E-19
 -1      3558 9.43603E-05-2.69459E-05-2.88906E-05 2.27924E-06-5.41033E-19 8.98379E-19
 -1      3559 9.49029E-05-2.76076E-05-2.88442E-05 1.44766E-06-2.68692E-19 6.46139E-19
 -1      3560 9.48913E-05-2.75139E-05-2.88725E-05 1.66443E-06 3.97163E-19 8.02999E-19
 -1      3561 9.45585E-05-2.72202E-05-2.88580E-05 1.75891E-06 2.59385E-19 3.70890E-19
 -1      3562 9.49933E-05-2.78051E-05-2.87978E-05 1.08061E-06-5.44502E-20 7.09233E-19
 -1      3563 9.49813E-05-2.77195E-05-2.88236E-05 1.25630E-06-6.79078E-19 2.03772E-19
 -1      3564 9.47300E-05-2.74797E-05-2.88204E-05 1.33335E-06-5.01809E-19 4.22311E-19
 -1      3565 9.50669E-05-2.79767E-05-2.87552E-05 7.88958E-07 1.46884E-18-9.59381E-20
 -1      3566 9.50564E-05-2.79023E-05-2.87779E-05 9.28498E-07 9.56236E-19 8.96839E-20
 -1      3567 9.48711E-05-2.77111E-05-2.87820E-05 9.91363E-07 3.81874E-19 8.18313E-19
 -1      3568 9.51241E-05-2.81204E-05-2.87177E-05 5.61459E-07-8.96179E-19 1.30058E-18
 -1      3569 9.51158E-05-2.80580E-05-2.87371E-05 6.70156E-07 2.50633E-19 8.12300E-19
 -1      3570 9.49828E-05-2.79089E-05-2.87453E-05 7.21224E-07 2.84745E-19 1.09065E-18
 -1      3571 9.51669E-05-2.82370E-05-2.86856E-05 3.87228E-07-2.38901E-18 2.74791E-18
 -1      3572 9.51608E-05-2.81864E-05-2.87017E-05 4.70296E-07-1.41105E-18 1.88213E-18
 -1      3573 9.50683E-05-2.80725E-05-2.87120E-05 5.11464E-07-1.63508E-18 2.03692E-18
 -1      3574 9.51977E-05-2.83293E-05-2.86589E-05 2.56277E-07-8.48837E-19 1.81356E-18
 -1      3575 9.51935E-05-2.82892E-05-2.86720E-05 3.18531E-07-1.57259E-18 2.70533E-18
 -1      3576 9.51314E-05-2.82041E-05-2.86829E-05 3.51402E-07-1.42345E-18 1.60219E-18
 -1      3577 9.52188E-05-2.84007E-05-2.86371E-05 1.59802E-07-5.06150E-19 1.07364E-18
 -1      3578 9.52162E-05-2.83697E-05-2.86476E-05 2.05498E-07-4.78112E-19 1.80150E-18
 -1      3579 9.51765E-05-2.83074E-05-2.86580E-05 2.31464E-07-4.07199E-19 9.48318E-19
 -1      3580 9.52325E-05-2.84547E-05-2.86196E-05 9.02891E-08-2.25840E-19 1.17036E-18
 -1      3581 9.52312E-05-2.84312E-05-2.86278E-05 1.23057E-07-2.12190E-19 1.10991E-18
 -1      3582 9.52074E-05-2.83867E-05-2.86374E-05 1.43342E-07-2.91505E-19 8.73928E-19
 -1      3583 9.52408E-05-2.84948E-05-2.86058E-05 4.15121E-08-6.80547E-19 1.43516E-18
 -1      3584 9.52402E-05-2.84773E-05-2.86122E-05 6.43484E-08-4.31828E-19 8.92305E-19
 -1      3585 9.52275E-05-2.84463E-05-2.86205E-05 8.00037E-08-3.36026E-20 1.55154E-18
 -1      3586 9.52451E-05-2.85241E-05-2.85950E-05 8.48306E-09 9.09301E-19 1.26890E-18
 -1      3587 9.52451E-05-2.85112E-05-2.85999E-05 2.38057E-08 4.49876E-19 1.11735E-18
 -1      3588 9.52397E-05-2.84903E-05-2.86069E-05 3.57456E-08-3.38566E-19 1.89065E-18
 -1      3589 9.52470E-05-2.85456E-05-2.85865E-05-1.26619E-08 1.83135E-19-3.58624E-19
 -1      3590 9.52472E-05-2.85361E-05-2.85902E-05-3.17630E-09 6.76085E-19-1.17712E-20
 -1      3591 9.52462E-05-2.85224E-05-2.85959E-05 5.76000E-09 1.31916E-18 1.39394E-18
 -1      3592 9.52471E-05-2.85613E-05-2.85797E-05-2.51130E-08-3.78062E-20-1.67629E-18
 -1      3593 9.52474E-05-2.85541E-05-2.85827E-05-1.96803E-08 2.71553E-19-8.46596E-19
 -1      3594 9.52489E-05-2.85455E-05-2.85872E-05-1.30568E-08 4.41768E-19 3.19694E-20
 -1      3595 9.52465E-05-2.85714E-05-2.85752E-05 3.07441E-08-1.88936E-19-3.33800E-19
 -1      3596 6.60717E-05-2.39311E-05-1.79438E-05-2.53069E-05-1.65367E-18-3.02931E-18
 -1      3597 7.64183E-05-3.19385E-05-1.88249E-05-3.12522E-05-2.18617E-18-2.65397E-18
 -1      3598 8.65915E-05-3.58489E-05-2.15190E-05-2.79734E-05-2.09360E-18-1.88358E-18
 -1      3599 9.52537E-05-2.85510E-05-2.85869E-05 3.89891E-09-9.46663E-19-8.68831E-19
 -1      3600 9.52536E-05-2.85505E-05-2.85872E-05 6.61219E-10-2.97788E-19-1.75810E-18
 -1      3601 1.20557E-04-5.16614E-05-2.93789E-05-9.35887E-06-1.66584E-18 8.11319E-19
 -1      3602 1.22337E-04-4.92302E-05-3.14810E-05-1.01296E-06-7.69060E-19 1.83409E-18
 -1      3603 5.31166E-05-1.35721E-05-1.69766E-05-6.27400E-06-1.79458E-19-3.52689E-18
 -1      3604 5.73747E-05-1.70282E-05-1.70396E-05-1.73286E-05-8.97140E-19-3.43795E-18
 -1      3605 8.41066E-05-3.18924E-05-2.24256E-05 2.56605E-05 1.85639E-18-1.40941E-18
 -1      3606 7.20149E-05-2.29536E-05-2.07320E-05 2.10936E-05 1.42433E-18-2.50701E-18
 -1      3607 6.06292E-05-1.68314E-05-1.89328E-05 1.43377E-05 5.51981E-19-3.66363E-18
 -1      3608 5.58135E-05-1.32480E-05-1.78285E-05 3.75429E-06 3.69043E-19-3.90551E-18
 -1      3609 8.59748E-05-1.28607E-05-3.13482E-05-6.08009E-07-6.04452E-20-3.52661E-18
 -1      3610 8.62700E-05-1.31175E-05-3.13682E-05-6.34751E-07-2.95096E-19-3.37988E-18
 -1      3611 8.68582E-05-1.43798E-05-3.10351E-05-1.04618E-07-3.57114E-19-3.17242E-18
 -1      3612 6.30098E-05-2.03500E-05-1.82253E-05 2.08801E-05-1.76436E-18 2.83555E-18
 -1      3613 5.66515E-05-1.56582E-05-1.73352E-05 1.42016E-05-9.67887E-19 3.55113E-18
 -1      3614 5.63392E-05-1.41889E-05-1.77050E-05-9.47925E-06 1.05757E-18 1.56452E-18
 -1      3615 6.38479E-05-1.86834E-05-1.92988E-05-1.60562E-05 2.07591E-18 1.02187E-18
 -1      3616 1.15202E-04-2.20932E-05-4.01944E-05 1.11910E-05 2.85429E-18 1.16564E-18
 -1      3617 1.21404E-04-3.99146E-05-3.48993E-05-1.06803E-05 2.40663E-19-3.38741E-18
 -1      3618 9.65001E-05-2.72741E-05-2.96666E-05-6.80961E-06 5.49225E-19-1.29705E-18
 -1      3619 9.59489E-05-2.62481E-05-2.98583E-05-6.00017E-06 8.26697E-19-1.39305E-18
 -1      3620 1.19630E-04-4.18207E-05-3.33969E-05-8.40286E-06 5.92485E-20-2.30010E-18
 -1      3621 1.24213E-04-4.55905E-05-3.38964E-05-6.20612E-06-2.82168E-19-3.50221E-18
 -1      3622 1.24812E-04-4.94473E-05-3.21934E-05-1.29324E-06-1.60391E-18-2.86706E-18
 -1      3623 1.19451E-04-4.42018E-05-3.21711E-05-5.73051E-06-5.10701E-19-2.11834E-18
 -1      3624 5.34773E-05-1.32816E-05-1.70591E-05 7.45035E-06 1.49746E-19 3.73107E-18
 -1      3625 5.27764E-05-1.28348E-05-1.70052E-05-2.61318E-06 9.09239E-19 2.51214E-18
 -1      3626 6.04088E-05-1.43825E-05-1.95320E-05-4.15310E-06 8.16282E-19 1.83772E-18
 -1      3627 6.05575E-05-1.53228E-05-1.91426E-05 9.41207E-06-5.25160E-20 2.73401E-18
 -1      3628 9.10167E-05-2.06405E-05-3.01625E-05 4.84841E-06-9.37628E-19-2.14262E-18
 -1      3629 9.07368E-05-2.10959E-05-2.98535E-05 6.13784E-06-7.63249E-19-2.01278E-18
 -1      3630 8.88351E-05-1.99719E-05-2.94839E-05 5.99999E-06-6.72079E-19-1.87087E-18
 -1      3631 1.11695E-04-4.97365E-05-2.64743E-05-1.95225E-05-2.20030E-18-5.51842E-19
 -1      3632 1.17109E-04-5.17429E-05-2.81878E-05-1.43171E-05-1.87665E-18-1.28742E-19
 -1      3633 1.17005E-04-4.93686E-05-2.89636E-05-9.71324E-06-1.32678E-18 4.90228E-19
 -1      3634 9.52497E-05-2.85755E-05-2.85747E-05-2.76392E-08 1.19003E-18-7.41040E-19
 -1      3635 9.52475E-05-2.85753E-05-2.85738E-05-3.00464E-08 8.96539E-19-2.01539E-18
 -1      3636 9.52472E-05-2.85718E-05-2.85752E-05-2.99195E-08 1.19740E-18-1.42487E-18
 -1      3637 9.52506E-05-2.85688E-05-2.85780E-05-2.51224E-08 1.35537E-18-1.22690E-18
 -1      3638 1.14844E-04-2.71751E-05-3.76142E-05 1.20485E-05 1.63435E-18 1.33241E-18
 -1      3639 1.18602E-04-4.58260E-05-3.12618E-05 1.12805E-06-5.75950E-19 1.15051E-18
 -1      3640 1.16591E-04-3.23390E-05-3.63159E-05 1.24096E-05 1.22306E-18 1.54062E-18
 -1      3641 9.12423E-05-1.83440E-05-3.12281E-05 8.91255E-07-1.40110E-18-2.57924E-18
 -1      3642 9.52520E-05-2.85387E-05-2.85912E-05-8.15288E-10-4.36062E-19-2.30711E-18
 -1      3643 9.52535E-05-2.85504E-05-2.85871E-05-1.79281E-09 2.20263E-20-1.28566E-18
 -1      3644 9.52534E-05-2.85509E-05-2.85868E-05-4.93966E-09 7.42130E-19-3.45239E-19
 -1      3645 8.62945E-05-1.39060E-05-3.09959E-05-7.02486E-07-1.14812E-20-3.32345E-18
 -1      3646 9.59235E-05-4.17485E-05-2.29873E-05 2.68823E-05-3.60812E-18 4.48001E-21
 -1      3647 8.92939E-05-3.63858E-05-2.26408E-05 2.55322E-05-2.73165E-18 7.53939E-19
 -1      3648 1.02951E-04-4.42225E-05-2.51187E-05 2.12959E-05-2.96654E-18 2.20632E-19
 -1      3649 9.52534E-05-2.85575E-05-2.85840E-05 1.56183E-08-1.11237E-18-1.83775E-18
 -1      3650 9.52541E-05-2.85560E-05-2.85851E-05 1.20663E-08-1.23314E-18-5.75656E-19
 -1      3651 9.52533E-05-2.85494E-05-2.85872E-05 1.23338E-08-1.17954E-18-1.55535E-18
 -1      3652 8.87967E-05-1.70860E-05-3.07337E-05-2.05387E-06 9.22005E-19-2.70337E-18
 -1      3653 8.78525E-05-1.62786E-05-3.06962E-05-2.00665E-06 6.59406E-19-2.70798E-18
 -1      3654 1.03624E-04-3.62025E-05-2.88978E-05-8.60535E-06-1.96386E-19-6.56434E-19
 -1      3655 1.01850E-04-3.42958E-05-2.88970E-05-9.02970E-06-1.94588E-19-7.22444E-19
 -1      3656 1.03631E-04-3.74216E-05-2.84539E-05-1.03981E-05-3.67930E-19-1.03562E-18
 -1      3657 1.00723E-04-3.23030E-05-2.93639E-05-7.75387E-06 1.06749E-19-8.32834E-19
 -1      3658 5.99221E-05-1.43564E-05-1.92628E-05-1.69533E-06-1.69493E-19-3.39996E-18
 -1      3659 9.37268E-05-2.17170E-05-3.08650E-05-1.87426E-06 1.65951E-18-1.77998E-18
 -1      3660 9.24193E-05-2.04263E-05-3.08620E-05-2.02834E-06 1.42663E-18-2.08850E-18
 -1      3661 9.79585E-05-2.95940E-05-2.92926E-05-8.12672E-06 1.26225E-19-1.11752E-18
 -1      3662 9.71072E-05-2.83613E-05-2.94391E-05-7.63356E-06 2.63027E-19-1.23052E-18
 -1      3663 9.55625E-05-2.70331E-05-2.93911E-05-7.61050E-06 3.94480E-19-1.53435E-18
 -1      3664 1.19871E-04-4.72616E-05-3.12484E-05-8.43246E-07-1.18867E-18-1.76416E-18
 -1      3665 8.76434E-05-1.68446E-05-3.03209E-05-2.41554E-06 5.40221E-19-2.72035E-18
 -1      3666 8.70506E-05-1.55292E-05-3.06545E-05-1.66084E-06 6.33931E-19-2.84872E-18
 -1      3667 8.65131E-05-1.50871E-05-3.06334E-05-1.45227E-06 3.64328E-19-3.04709E-18
 -1      3668 6.99558E-05-2.38262E-05-1.94849E-05 2.30597E-05-2.14947E-18 2.31788E-18
 -1      3669 6.95251E-05-2.12519E-05-2.05738E-05 1.85433E-05-1.34932E-18 1.83188E-18
 -1      3670 7.76346E-05-2.82962E-05-2.11924E-05 2.38974E-05-2.28709E-18 9.20937E-19
 -1      3671 9.52468E-05-2.85680E-05-2.85765E-05-2.86456E-08 4.28268E-19-1.74796E-18
 -1      3672 1.17889E-04-5.11785E-05-2.84224E-05 1.17141E-05-2.74983E-18-2.16180E-18
 -1      3673 1.12347E-04-4.86640E-05-2.73189E-05 1.49730E-05-2.82027E-18-1.31992E-18
 -1      3674 6.71402E-05-2.14473E-05-1.92969E-05-1.98853E-05-1.38919E-18-2.78894E-18
 -1      3675 9.54431E-05-2.37585E-05-3.07227E-05-2.24698E-06 1.77846E-18-1.33637E-18
 -1      3676 9.44629E-05-2.25203E-05-3.08305E-05-1.98319E-06 1.68177E-18-1.53805E-18
 -1      3677 9.42203E-05-2.29420E-05-3.05442E-05-3.17725E-06 1.41651E-18-1.57689E-18
 -1      3678 9.56546E-05-2.45277E-05-3.04858E-05-3.39296E-06 1.54032E-18-1.26617E-18
 -1      3679 8.99585E-05-1.91289E-05-3.03503E-05 3.47565E-06-8.70946E-19-2.27686E-18
 -1      3680 7.01417E-05-2.13312E-05-2.06917E-05-1.86263E-05 2.36906E-18 1.37967E-18
 -1      3681 7.83636E-05-2.48674E-05-2.28311E-05-1.90037E-05 2.50961E-18 1.09343E-18
 -1      3682 7.80707E-05-2.27771E-05-2.37871E-05-1.62608E-05 1.56042E-18 1.15420E-18
 -1      3683 6.80378E-05-1.81027E-05-2.14249E-05-1.31850E-05 1.53666E-18 6.29465E-19
 -1      3684 9.52540E-05-2.85538E-05-2.85859E-05 9.54300E-09-8.16019E-19 5.60976E-19
 -1      3685 9.52540E-05-2.85525E-05-2.85865E-05 6.06465E-09-1.64800E-18 5.84971E-19
 -1      3686 9.52527E-05-2.85404E-05-2.85908E-05 3.06007E-09-1.19495E-18-9.40953E-19
 -1      3687 9.52533E-05-2.85440E-05-2.85895E-05 6.98315E-09-1.13984E-18 2.62418E-19
 -1      3688 1.16942E-04-4.58364E-05-3.03856E-05-1.77662E-06-4.60263E-19 6.52020E-19
 -1      3689 1.13533E-04-4.41265E-05-2.97609E-05-3.89069E-06-3.08838E-19 2.67920E-19
 -1      3690 1.11145E-04-4.25833E-05-2.92937E-05-6.07258E-06-2.66744E-19-8.12573E-20
 -1      3691 1.08787E-04-4.22072E-05-2.86125E-05-9.49344E-06-3.94853E-19-3.49669E-19
 -1      3692 1.15215E-04-4.69596E-05-2.93569E-05-7.02932E-06-8.17339E-19 6.58442E-19
 -1      3693 7.10420E-05-2.02803E-05-2.16544E-05 1.55208E-05 7.40135E-19-2.56880E-18
 -1      3694 1.01607E-04-4.37628E-05-2.47260E-05-2.35014E-05-1.82919E-18-9.32074E-19
 -1      3695 1.07690E-04-4.77927E-05-2.56542E-05-2.20007E-05-2.05717E-18-1.00829E-18
 -1      3696 1.10441E-04-4.70131E-05-2.71272E-05-1.63218E-05-1.78712E-18-6.39986E-19
 -1      3697 9.52494E-05-2.85631E-05-2.85799E-05-2.41604E-08 7.88884E-19-8.44681E-19
 -1      3698 1.21110E-04-5.10596E-05-3.01466E-05 6.29801E-06-2.31108E-18-2.23918E-18
 -1      3699 8.98785E-05-1.75744E-05-3.09925E-05 1.37746E-06-1.10130E-18-2.44261E-18
 -1      3700 8.76542E-05-1.56457E-05-3.08870E-05 6.84805E-07-6.62059E-19-2.53025E-18
 -1      3701 8.86714E-05-1.65044E-05-3.09331E-05 9.74137E-07-1.01481E-18-2.32507E-18
 -1      3702 8.90794E-05-1.72775E-05-3.07603E-05 1.61317E-06-8.85340E-19-2.33446E-18
 -1      3703 9.59255E-05-2.57550E-05-3.00724E-05-5.20087E-06 1.16540E-18-1.34323E-18
 -1      3704 9.56761E-05-2.50203E-05-3.02752E-05-4.26667E-06 1.36040E-18-1.23978E-18
 -1      3705 9.49697E-05-2.42727E-05-3.03011E-05-4.18184E-06 1.36093E-18-1.44061E-18
 -1      3706 9.49993E-05-2.53317E-05-2.98624E-05-5.88511E-06 9.85944E-19-1.62117E-18
 -1      3707 9.52511E-05-2.85613E-05-2.85814E-05-2.12262E-08 4.48713E-19-1.15285E-18
 -1      3708 9.52532E-05-2.85565E-05-2.85845E-05-1.41139E-08 2.74733E-18 5.51158E-19
 -1      3709 9.52521E-05-2.85576E-05-2.85834E-05-1.73951E-08 2.05861E-18-6.94559E-19
 -1      3710 9.52509E-05-2.85514E-05-2.85855E-05-1.65633E-08 1.40980E-18 3.65917E-19
 -1      3711 8.36332E-05-1.95417E-05-2.75153E-05 8.29421E-06-1.05733E-19-1.87152E-18
 -1      3712 8.25806E-05-1.97873E-05-2.69080E-05 9.53647E-06-5.64551E-20-1.77562E-18
 -1      3713 8.04624E-05-1.98160E-05-2.60745E-05 1.07960E-05 1.66472E-19-1.71453E-18
 -1      3714 7.92737E-05-2.04650E-05-2.52531E-05 1.26539E-05 7.20342E-19-1.66513E-18
 -1      3715 7.91442E-05-1.81650E-05-2.60389E-05 8.07941E-06 4.60177E-20-1.92799E-18
 -1      3716 7.60447E-05-1.98235E-05-2.41884E-05 1.28327E-05 8.88584E-19-1.88734E-18
 -1      3717 7.47242E-05-2.10821E-05-2.30665E-05 1.53965E-05 1.02598E-18-1.92074E-18
 -1      3718 6.65047E-05-1.53527E-05-2.16120E-05 8.62464E-06 3.55764E-19-3.31328E-18
 -1      3719 7.41874E-05-1.73503E-05-2.41323E-05 9.08231E-06 5.86407E-19-2.25815E-18
 -1      3720 1.00235E-04-3.25231E-05-2.90135E-05-8.81928E-06 1.52152E-20-8.60526E-19
 -1      3721 9.89586E-05-3.09631E-05-2.91055E-05-8.70970E-06 1.65030E-19-9.47861E-19
 -1      3722 9.96562E-05-3.30771E-05-2.85940E-05-1.02250E-05-1.57357E-19-1.22498E-18
 -1      3723 8.01017E-05-2.20470E-05-2.48334E-05-1.39579E-05 5.92087E-19 8.83567E-19
 -1      3724 8.06591E-05-2.12024E-05-2.55560E-05-1.21644E-05 2.21122E-19 4.26455E-19
 -1      3725 7.56192E-05-1.99817E-05-2.37498E-05-1.31916E-05 6.77941E-19 3.14940E-19
 -1      3726 8.24041E-05-2.10723E-05-2.62673E-05-1.07123E-05 6.01063E-19 3.32255E-19
 -1      3727 8.32320E-05-2.08727E-05-2.67774E-05-9.50302E-06 7.16621E-19-2.25057E-19
 -1      3728 7.93075E-05-1.96028E-05-2.55366E-05-9.79725E-06 5.88244E-19 6.14370E-19
 -1      3729 8.46988E-05-2.10835E-05-2.72589E-05-8.54252E-06 8.13449E-19-1.71309E-19
 -1      3730 8.55624E-05-2.12288E-05-2.76054E-05-7.67765E-06 8.00777E-19-7.09811E-19
 -1      3731 8.24620E-05-1.99748E-05-2.67454E-05-7.67833E-06 6.54611E-19-3.83722E-19
 -1      3732 8.67769E-05-2.16158E-05-2.79264E-05-6.98473E-06-9.08658E-22-8.91463E-19
 -1      3733 8.75718E-05-2.19358E-05-2.81522E-05-6.31709E-06-5.81731E-19-1.28840E-18
 -1      3734 8.50924E-05-2.07276E-05-2.75591E-05-6.24794E-06 1.51307E-19-1.10398E-18
 -1      3735 8.85673E-05-2.23991E-05-2.83601E-05-5.77368E-06-6.35152E-19-1.63568E-18
 -1      3736 8.92530E-05-2.27919E-05-2.84991E-05-5.22409E-06-3.32802E-19-2.25149E-18
 -1      3737 8.72628E-05-2.16570E-05-2.80972E-05-5.18138E-06-9.20799E-19-9.22380E-19
 -1      3738 9.00610E-05-2.32694E-05-2.86278E-05-4.77158E-06 7.99855E-20-2.41922E-18
 -1      3739 9.06290E-05-2.36749E-05-2.87062E-05-4.30193E-06 7.67016E-19-2.35470E-18
 -1      3740 8.90353E-05-2.26363E-05-2.84416E-05-4.31501E-06-1.88392E-19-1.67745E-18
 -1      3741 9.12777E-05-2.41294E-05-2.87804E-05-3.91402E-06 1.39407E-18-2.80482E-18
 -1      3742 9.17349E-05-2.45137E-05-2.88181E-05-3.50753E-06 1.47199E-18-3.25995E-18
 -1      3743 9.04678E-05-2.35879E-05-2.86511E-05-3.57358E-06 6.48971E-19-2.52626E-18
 -1      3744 9.22501E-05-2.49250E-05-2.88556E-05-3.17275E-06 7.24952E-19-2.30646E-18
 -1      3745 9.26103E-05-2.52708E-05-2.88670E-05-2.82207E-06-2.54481E-19-1.53067E-18
 -1      3746 9.16124E-05-2.44651E-05-2.87682E-05-2.92615E-06 1.55305E-18-2.47044E-18
 -1      3747 9.30148E-05-2.56300E-05-2.88806E-05-2.53515E-06-3.84221E-19-1.46748E-18
 -1      3748 9.32938E-05-2.59303E-05-2.88758E-05-2.23623E-06-6.84756E-20-1.70911E-18
 -1      3749 9.25167E-05-2.52443E-05-2.88238E-05-2.36129E-06-3.99987E-19-1.21549E-18
 -1      3750 9.36079E-05-2.62359E-05-2.88746E-05-1.99377E-06-1.36238E-19-1.36520E-18
 -1      3751 9.38209E-05-2.64900E-05-2.88608E-05-1.74300E-06 2.00370E-19-2.07686E-18
 -1      3752 9.32232E-05-2.59172E-05-2.88397E-05-1.87447E-06-1.88795E-19-1.31078E-18
 -1      3753 9.40620E-05-2.67443E-05-2.88509E-05-1.54159E-06-2.80569E-19-2.91511E-18
 -1      3754 9.42224E-05-2.69549E-05-2.88327E-05-1.33487E-06-1.31418E-18-2.78995E-18
 -1      3755 9.37688E-05-2.64852E-05-2.88314E-05-1.46217E-06-5.14328E-19-2.74084E-18
 -1      3756 9.44052E-05-2.71628E-05-2.88184E-05-1.17057E-06-1.20959E-18-2.23058E-18
 -1      3757 9.45245E-05-2.73343E-05-2.87988E-05-1.00314E-06-1.02438E-18-3.07231E-18
 -1      3758 9.41852E-05-2.69554E-05-2.88093E-05-1.11960E-06-1.01631E-18-3.22833E-18
 -1      3759 9.46613E-05-2.75014E-05-2.87828E-05-8.71550E-07-1.31455E-18-2.71431E-18
 -1      3760 9.47487E-05-2.76388E-05-2.87637E-05-7.38303E-07-6.32037E-19-2.28679E-18
 -1      3761 9.44990E-05-2.73382E-05-2.87806E-05-8.40451E-07-1.31110E-18-2.60414E-18
 -1      3762 9.48496E-05-2.77712E-05-2.87478E-05-6.34812E-07 7.83141E-20-2.08583E-18
 -1      3763 9.49127E-05-2.78796E-05-2.87303E-05-5.30600E-07-5.43258E-19-2.22939E-18
 -1      3764 9.47322E-05-2.76447E-05-2.87498E-05-6.17278E-07-3.26839E-19-1.18627E-18
 -1      3765 9.49858E-05-2.79829E-05-2.87154E-05-4.50675E-07 2.69065E-19-2.15002E-18
 -1      3766 9.50304E-05-2.80672E-05-2.86999E-05-3.70581E-07 9.25423E-19-1.54754E-18
 -1      3767 9.49028E-05-2.78865E-05-2.87198E-05-4.42172E-07 1.18978E-19-1.30712E-18
 -1      3768 9.50823E-05-2.81465E-05-2.86866E-05-3.09988E-07 2.67710E-19-8.19067E-19
 -1      3769 9.51132E-05-2.82111E-05-2.86734E-05-2.49524E-07 9.28775E-19-1.47899E-18
 -1      3770 9.50252E-05-2.80743E-05-2.86922E-05-3.07316E-07 9.96536E-19-8.81279E-19
 -1      3771 9.51491E-05-2.82711E-05-2.86618E-05-2.04473E-07 5.04674E-19-1.56429E-18
 -1      3772 9.51698E-05-2.83199E-05-2.86507E-05-1.59687E-07 2.57867E-19-1.28255E-18
 -1      3773 9.51111E-05-2.82181E-05-2.86677E-05-2.05411E-07 6.34561E-19-1.42925E-18
 -1      3774 9.51938E-05-2.83645E-05-2.86410E-05-1.26893E-07 1.08616E-18-7.30820E-20
 -1      3775 9.52071E-05-2.84007E-05-2.86318E-05-9.44073E-08 1.58498E-18 2.23290E-20
 -1      3776 9.51697E-05-2.83263E-05-2.86466E-05-1.29931E-07 1.69760E-18-6.04375E-19
 -1      3777 9.52224E-05-2.84334E-05-2.86237E-05-7.10990E-08 7.77989E-19 8.37179E-19
 -1      3778 9.52303E-05-2.84599E-05-2.86163E-05-4.81079E-08 9.35263E-19 4.56133E-19
 -1      3779 9.52080E-05-2.84065E-05-2.86289E-05-7.52325E-08 1.10151E-18 1.91865E-19
 -1      3780 9.52394E-05-2.84834E-05-2.86096E-05-3.20456E-08 7.32742E-19 8.55137E-19
 -1      3781 9.52437E-05-2.85024E-05-2.86036E-05-1.66183E-08-1.11137E-18 6.24774E-19
 -1      3782 9.52317E-05-2.84650E-05-2.86141E-05-3.66352E-08 8.07389E-19 4.30138E-19
 -1      3783 1.04133E-04-3.95021E-05-2.75919E-05 1.18050E-05-1.24941E-18-8.22578E-19
 -1      3784 1.07214E-04-4.23878E-05-2.78082E-05 1.11457E-05-1.87441E-18-8.37448E-19
 -1      3785 6.30459E-05-1.45847E-05-2.09566E-05 1.83171E-06-1.82364E-19-3.28739E-18
 -1      3786 6.26293E-05-1.48927E-05-2.02820E-05-7.34650E-06-5.79179E-19-2.86725E-18
 -1      3787 1.13073E-04-4.66903E-05-2.83501E-05-1.12313E-05-1.12488E-18 1.13436E-19
 -1      3788 1.13391E-04-4.62049E-05-2.87095E-05 8.37105E-06-2.29402E-18-7.90570E-19
 -1      3789 1.17039E-04-4.80802E-05-2.94941E-05 5.74585E-06-1.65635E-18-1.08929E-18
 -1      3790 9.56018E-05-3.06663E-05-2.78050E-05 1.03178E-05-9.15983E-19 4.08334E-19
 -1      3791 9.71633E-05-3.24030E-05-2.77229E-05 1.07296E-05-1.13561E-18-4.25549E-20
 -1      3792 9.37994E-05-2.82337E-05-2.80918E-05 8.88133E-06-1.03642E-18 8.00071E-19
 -1      3793 9.47241E-05-2.93636E-05-2.79850E-05 9.43253E-06-5.32145E-19 7.49232E-19
 -1      3794 9.30751E-05-2.90600E-05-2.74752E-05 1.06702E-05-1.29665E-18 1.07896E-18
 -1      3795 9.29507E-05-2.67931E-05-2.83539E-05 7.47786E-06-9.65090E-19 4.69690E-19
 -1      3796 9.34399E-05-2.74591E-05-2.82572E-05 8.05442E-06-6.46079E-19 3.13387E-19
 -1      3797 9.19251E-05-2.69704E-05-2.78586E-05 8.80971E-06-4.93041E-19 6.50630E-19
 -1      3798 9.26942E-05-2.60647E-05-2.85602E-05 6.20149E-06-1.55385E-18-3.34508E-19
 -1      3799 9.29034E-05-2.63999E-05-2.84867E-05 6.75217E-06-1.37502E-18 3.05480E-20
 -1      3800 9.15719E-05-2.58308E-05-2.81839E-05 7.18785E-06-9.36177E-19-6.54958E-19
 -1      3801 9.27797E-05-2.58158E-05-2.87053E-05 5.07865E-06-1.22538E-18 1.98995E-19
 -1      3802 9.28208E-05-2.59295E-05-2.86571E-05 5.58169E-06-1.57029E-18-1.46547E-19
 -1      3803 9.16822E-05-2.53437E-05-2.84331E-05 5.81888E-06-1.36837E-18-7.59933E-19
 -1      3804 9.30424E-05-2.58689E-05-2.87956E-05 4.10890E-06 1.76782E-19-3.01748E-19
 -1      3805 9.29912E-05-2.58441E-05-2.87697E-05 4.55596E-06-4.51698E-19 1.12694E-19
 -1      3806 9.20368E-05-2.52801E-05-2.86088E-05 4.67669E-06-1.18158E-18-5.99918E-19
 -1      3807 9.33784E-05-2.60958E-05-2.88421E-05 3.28268E-06-6.24888E-20 5.90683E-19
 -1      3808 9.32836E-05-2.59920E-05-2.88336E-05 3.67173E-06 2.93156E-19 5.76411E-19
 -1      3809 9.24974E-05-2.54727E-05-2.87219E-05 3.72824E-06-3.41136E-19-3.06203E-20
 -1      3810 9.37253E-05-2.64082E-05-2.88563E-05 2.58773E-06 1.35518E-19 1.21538E-18
 -1      3811 9.36165E-05-2.62661E-05-2.88602E-05 2.92003E-06 3.01297E-19 1.40579E-18
 -1      3812 9.29797E-05-2.58040E-05-2.87860E-05 2.94386E-06-1.60480E-19 1.09744E-18
 -1      3813 9.40482E-05-2.67476E-05-2.88485E-05 2.01088E-06-5.60926E-20 7.73674E-19
 -1      3814 9.39424E-05-2.65938E-05-2.88603E-05 2.28972E-06 1.54456E-19 1.43929E-18
 -1      3815 9.34352E-05-2.61942E-05-2.88140E-05 2.29893E-06 4.21223E-19 1.40666E-18
 -1      3816 9.43302E-05-2.70780E-05-2.88269E-05 1.53868E-06-3.24859E-19 6.18031E-19
 -1      3817 9.42360E-05-2.69288E-05-2.88432E-05 1.76866E-06-3.16739E-19 1.93793E-19
 -1      3818 9.38390E-05-2.65918E-05-2.88170E-05 1.77288E-06 1.97662E-19 1.03456E-18
 -1      3819 9.45656E-05-2.73791E-05-2.87980E-05 1.15768E-06-4.18321E-19 5.75000E-19
 -1      3820 9.44863E-05-2.72436E-05-2.88161E-05 1.34419E-06-9.44319E-20 8.57653E-19
 -1      3821 9.41813E-05-2.69656E-05-2.88040E-05 1.34803E-06-4.35969E-19 1.25038E-18
 -1      3822 9.47550E-05-2.76410E-05-2.87662E-05 8.54789E-07 8.30977E-19 4.78102E-19
 -1      3823 9.46912E-05-2.75235E-05-2.87844E-05 1.00354E-06-3.62087E-19 6.79518E-19
 -1      3824 9.44612E-05-2.72989E-05-2.87816E-05 1.00882E-06-8.24197E-20 5.97639E-19
 -1      3825 9.49027E-05-2.78610E-05-2.87346E-05 6.17644E-07-8.59102E-19 1.43063E-18
 -1      3826 9.48532E-05-2.77626E-05-2.87517E-05 7.34321E-07 1.24556E-19 5.18842E-19
 -1      3827 9.46834E-05-2.75848E-05-2.87548E-05 7.41351E-07-2.06923E-19 7.57143E-20
 -1      3828 9.50146E-05-2.80407E-05-2.87050E-05 4.34868E-07-1.85559E-18 1.42457E-18
 -1      3829 9.49774E-05-2.79605E-05-2.87204E-05 5.24862E-07-1.18215E-18 1.62804E-18
 -1      3830 9.48550E-05-2.78223E-05-2.87269E-05 5.33301E-07-1.32053E-18 1.36141E-18
 -1      3831 9.50969E-05-2.81837E-05-2.86785E-05 2.96293E-07-6.01665E-19 6.39402E-20
 -1      3832 9.50699E-05-2.81200E-05-2.86919E-05 3.64513E-07-8.83695E-19 1.40562E-18
 -1      3833 9.49840E-05-2.80147E-05-2.87001E-05 3.73792E-07-1.05317E-18-4.83063E-21
 -1      3834 9.51555E-05-2.82950E-05-2.86556E-05 1.93061E-07-5.45418E-19 1.25677E-19
 -1      3835 9.51367E-05-2.82455E-05-2.86669E-05 2.43830E-07-6.33922E-19-8.57808E-20
 -1      3836 9.50782E-05-2.81668E-05-2.86756E-05 2.53382E-07-3.45045E-19-1.72633E-19
 -1      3837 9.51957E-05-2.83798E-05-2.86361E-05 1.17647E-07-1.75181E-19 4.74285E-19
 -1      3838 9.51831E-05-2.83422E-05-2.86455E-05 1.54667E-07-7.13195E-19-1.45124E-19
 -1      3839 9.51449E-05-2.82846E-05-2.86539E-05 1.64018E-07-7.98277E-19-5.97161E-19
 -1      3840 9.52218E-05-2.84430E-05-2.86200E-05 6.37837E-08-3.86144E-19 1.24922E-18
 -1      3841 9.52140E-05-2.84150E-05-2.86277E-05 9.01403E-08 5.96951E-19 1.39701E-18
 -1      3842 9.51904E-05-2.83738E-05-2.86354E-05 9.89714E-08-5.45736E-19 7.57991E-20
 -1      3843 9.52379E-05-2.84897E-05-2.86068E-05 2.64953E-08-6.53385E-19 1.72892E-18
 -1      3844 9.52334E-05-2.84691E-05-2.86129E-05 4.44694E-08-1.18266E-18 1.91029E-18
 -1      3845 9.52199E-05-2.84401E-05-2.86197E-05 5.25497E-08-7.59679E-19 2.11576E-18
 -1      3846 9.52465E-05-2.85232E-05-2.85959E-05 7.21687E-10 1.65929E-18 2.81842E-18
 -1      3847 9.52440E-05-2.85078E-05-2.86009E-05 1.34117E-08 7.16886E-19 2.43625E-18
 -1      3848 9.52376E-05-2.84883E-05-2.86067E-05 2.08490E-08-2.09897E-19 1.38654E-18
 -1      3849 9.52507E-05-2.85415E-05-2.85895E-05-9.30378E-09 2.49074E-18 2.19263E-18
 -1      3850 6.55715E-05-1.83102E-05-2.02727E-05-1.48840E-05-8.78234E-19-2.36116E-18
 -1      3851 7.40620E-05-2.46682E-05-2.10998E-05-2.18020E-05-1.47093E-18-2.25591E-18
 -1      3852 6.90397E-05-1.77028E-05-2.18006E-05-1.03414E-05-7.51116E-19-2.35208E-18
 -1      3853 8.61918E-05-1.47609E-05-3.06209E-05-9.07488E-07 1.55943E-19-3.13966E-18
 -1      3854 8.61796E-05-1.47582E-05-3.06274E-05-5.76495E-07-1.04828E-19-3.14538E-18
 -1      3855 8.64283E-05-1.57555E-05-3.02601E-05-1.41656E-06 2.66578E-19-2.84191E-18
 -1      3856 8.86661E-05-1.80591E-05-3.02814E-05 2.88652E-06-6.41673E-19-2.09526E-18
 -1      3857 8.64187E-05-1.49277E-05-3.06506E-05 6.34672E-08-3.15129E-19-3.13943E-18
 -1      3858 8.69700E-05-1.53763E-05-3.06853E-05 4.65292E-07-5.36432E-19-2.88816E-18
 -1      3859 8.63043E-05-1.55975E-05-3.02696E-05-1.01927E-07-2.46149E-19-2.90036E-18
 -1      3860 9.11335E-05-1.92232E-05-3.08210E-05-2.08095E-06 1.19885E-18-2.51540E-18
 -1      3861 8.99255E-05-1.81297E-05-3.07868E-05-2.17559E-06 1.00938E-18-2.65597E-18
 -1      3862 8.96783E-05-1.86497E-05-3.04257E-05-2.96540E-06 8.54017E-19-2.47659E-18
 -1      3863 9.21644E-05-2.09025E-05-3.05313E-05-3.09501E-06 1.19650E-18-2.03708E-18
 -1      3864 8.60546E-05-1.93305E-05-2.86250E-05 6.30160E-06-4.27323E-19-1.89494E-18
 -1      3865 8.51669E-05-1.95185E-05-2.81414E-05 7.35526E-06-2.23931E-19-1.83952E-18
 -1      3866 8.26978E-05-1.83259E-05-2.75323E-05 6.22501E-06-1.52628E-19-1.85878E-18
 -1      3867 9.88634E-05-3.43869E-05-2.75781E-05 1.15282E-05-1.29845E-18-2.53310E-19
 -1      3868 1.01241E-04-3.67852E-05-2.75945E-05 1.15776E-05-1.09677E-18-5.15570E-19
 -1      3869 1.00081E-04-3.76324E-05-2.68865E-05 1.43090E-05-1.47931E-18-5.66645E-19
 -1      3870 8.78180E-05-1.88995E-05-2.95438E-05 4.45128E-06-6.46194E-19-1.96111E-18
 -1      3871 8.71534E-05-1.92204E-05-2.91300E-05 5.47668E-06-6.08039E-19-1.94849E-18
 -1      3872 8.52912E-05-1.82548E-05-2.86911E-05 4.66359E-06-4.69030E-19-1.89166E-18
 -1      3873 9.52532E-05-2.85535E-05-2.85856E-05-1.07926E-08 2.98249E-18-9.34035E-20
 -1      3874 9.52528E-05-2.85451E-05-2.85887E-05-9.97513E-09 2.65520E-18 4.90431E-19
 -1      3875 9.52535E-05-2.85524E-05-2.85863E-05-7.59712E-09 1.52402E-18 9.43143E-19
 -1      3876 8.49037E-05-3.26511E-05-2.23475E-05-2.50134E-05-1.72946E-18-1.96516E-18
 -1      3877 9.42522E-05-3.93425E-05-2.34949E-05-2.57954E-05-1.63669E-18-1.24593E-18
 -1      3878 9.97619E-05-4.07422E-05-2.52372E-05-2.12130E-05-1.42446E-18-1.03094E-18
 -1      3879 1.09096E-04-4.46400E-05-2.76397E-05 1.24290E-05-2.08379E-18-9.20381E-19
 -1      3880 9.52487E-05-2.85299E-05-2.85940E-05-3.47790E-09 2.53115E-18 2.02871E-18
 -1      3881 8.72736E-05-1.60538E-05-3.05038E-05 9.47592E-07-6.09226E-19-2.60180E-18
 -1      3882 9.71116E-05-2.96762E-05-2.89404E-05-9.17948E-06 6.91813E-20-1.45426E-18
 -1      3883 6.79378E-05-1.55625E-05-2.23955E-05 3.12361E-06-1.39843E-19-2.90269E-18
 -1      3884 9.52485E-05-2.85254E-05-2.85958E-05-2.55961E-11-2.00285E-19-3.43477E-18
 -1      3885 9.52484E-05-2.85257E-05-2.85957E-05-1.77570E-09 3.00328E-19-1.81443E-18
 -1      3886 1.02767E-04-3.78349E-05-2.78378E-05-1.24876E-05-4.86283E-19-1.04949E-18
 -1      3887 1.00414E-04-3.52145E-05-2.78731E-05-1.24114E-05-4.60149E-19-1.22518E-18
 -1      3888 1.05983E-04-4.43662E-05-2.63455E-05 1.76622E-05-2.46912E-18-8.83469E-19
 -1      3889 1.00399E-04-4.01984E-05-2.56802E-05 1.86004E-05-2.16452E-18 2.29625E-20
 -1      3890 9.52515E-05-2.85394E-05-2.85909E-05 8.11186E-09-2.66977E-18-1.55672E-18
 -1      3891 9.52515E-05-2.85362E-05-2.85925E-05 5.38905E-09-3.03803E-18-4.21552E-19
 -1      3892 9.52504E-05-2.85296E-05-2.85944E-05 2.62580E-09-2.01102E-18-9.42040E-19
 -1      3893 9.52465E-05-2.85204E-05-2.85971E-05-7.17888E-10 1.45859E-18-5.37356E-19
 -1      3894 9.52470E-05-2.85238E-05-2.85958E-05-2.67817E-09 1.59165E-18 1.92887E-19
 -1      3895 9.52419E-05-2.85017E-05-2.86028E-05 7.35865E-09 1.12641E-19-5.20801E-19
 -1      3896 9.52464E-05-2.85107E-05-2.86009E-05-1.03698E-08-1.51431E-18 4.13268E-19
 -1      3897 9.52484E-05-2.85223E-05-2.85970E-05-1.87088E-09-9.46033E-19 5.20838E-19
 -1      3898 9.52473E-05-2.85167E-05-2.85991E-05-3.72766E-09-2.80578E-18-1.29071E-19
 -1      3899 9.52424E-05-2.84982E-05-2.86047E-05-1.45866E-08-1.26477E-18 5.95238E-19
 -1      3900 9.44448E-05-2.65607E-05-2.90794E-05-8.25870E-06 2.37179E-19-1.67950E-18
 -1      3901 9.38286E-05-2.53533E-05-2.93395E-05-7.32993E-06 5.48923E-19-1.60158E-18
 -1      3902 9.04040E-05-2.00975E-05-3.01216E-05-3.94720E-06 8.59920E-19-2.27574E-18
 -1      3903 8.91430E-05-1.90644E-05-3.00565E-05-3.76834E-06 6.66763E-19-2.41787E-18
 -1      3904 9.52522E-05-2.85403E-05-2.85905E-05-5.14216E-09 1.53230E-18-5.45250E-19
 -1      3905 1.10069E-04-4.55306E-05-2.77006E-05-1.39505E-05-1.38571E-18-5.88152E-19
 -1      3906 1.09484E-04-4.36692E-05-2.82059E-05-1.12450E-05-7.74162E-19-5.81797E-19
 -1      3907 1.06677E-04-4.09249E-05-2.80593E-05-1.17269E-05-5.97999E-19-8.43132E-19
 -1      3908 1.06722E-04-4.34066E-05-2.70060E-05-1.60189E-05-1.30125E-18-7.91327E-19
 -1      3909 8.79627E-05-1.80091E-05-2.99723E-05-3.29263E-06 5.48038E-19-2.60432E-18
 -1      3910 8.70269E-05-1.72718E-05-2.99213E-05-2.86697E-06 3.72473E-19-2.71243E-18
 -1      3911 8.85874E-05-1.93632E-05-2.96584E-05-4.33633E-06 5.84194E-19-2.37308E-18
 -1      3912 8.53354E-05-3.21977E-05-2.25666E-05 2.37544E-05-1.92660E-18 3.70127E-19
 -1      3913 8.20381E-05-2.84208E-05-2.29196E-05 2.06605E-05-9.15921E-19 8.38923E-19
 -1      3914 9.23184E-05-3.60274E-05-2.42516E-05 2.15269E-05-1.65038E-18 3.18206E-19
 -1      3915 6.23606E-05-1.40375E-05-2.05831E-05 1.45771E-07 6.77836E-19 2.41602E-18
 -1      3916 6.46364E-05-1.53168E-05-2.11424E-05-6.08111E-06 4.68161E-19 2.15040E-18
 -1      3917 9.54940E-05-3.24591E-05-2.70931E-05 1.26460E-05-1.57215E-18 3.08605E-20
 -1      3918 1.19351E-04-4.84936E-05-3.04095E-05 2.89190E-06-1.68549E-18-1.74962E-18
 -1      3919 6.77740E-05-1.63601E-05-2.18755E-05-8.83818E-06 8.25129E-19 4.49086E-19
 -1      3920 7.22405E-05-1.85422E-05-2.30015E-05-1.14618E-05 1.00161E-18-1.18585E-19
 -1      3921 7.43120E-05-1.82802E-05-2.40867E-05-9.60346E-06 6.24389E-19-3.11475E-20
 -1      3922 6.90130E-05-1.59268E-05-2.27562E-05-5.21546E-06 4.53053E-19 1.18070E-18
 -1      3923 9.42151E-05-2.34692E-05-3.03213E-05-4.06942E-06 1.26124E-18-1.68291E-18
 -1      3924 6.51647E-05-1.69223E-05-2.06644E-05 1.16026E-05-6.43592E-19 1.26952E-18
 -1      3925 6.24698E-05-1.46607E-05-2.04401E-05 5.30121E-06 4.87817E-19 1.95114E-18
 -1      3926 6.68303E-05-1.54001E-05-2.19279E-05 2.67106E-06-1.57686E-19 1.93033E-18
 -1      3927 9.39084E-05-2.38251E-05-3.00347E-05-5.06054E-06 1.18032E-18-1.78668E-18
 -1      3928 9.31709E-05-2.24993E-05-3.02846E-05-4.04564E-06 1.30305E-18-1.84554E-18
 -1      3929 9.18124E-05-2.13026E-05-3.02315E-05-4.05296E-06 1.04668E-18-2.07937E-18
 -1      3930 9.39157E-05-2.43618E-05-2.98080E-05-5.84330E-06 8.98346E-19-1.84983E-18
 -1      3931 1.02708E-04-3.90132E-05-2.73772E-05-1.43036E-05-6.42862E-19-1.23656E-18
 -1      3932 9.52490E-05-2.85266E-05-2.85955E-05 1.60534E-10-2.19164E-19-2.32141E-18
 -1      3933 9.52451E-05-2.85109E-05-2.86001E-05-9.81437E-10 4.92031E-20-2.62793E-18
 -1      3934 9.52494E-05-2.85280E-05-2.85950E-05 1.61957E-09-4.03482E-19-6.48012E-19
 -1      3935 6.91263E-05-1.90092E-05-2.13286E-05 1.42866E-05-9.34193E-19 1.25692E-18
 -1      3936 7.06310E-05-1.81270E-05-2.24242E-05 1.06006E-05-3.00349E-19 6.76197E-19
 -1      3937 7.40730E-05-2.22465E-05-2.23066E-05 1.66689E-05-1.09643E-18 1.19238E-18
 -1      3938 9.27215E-05-2.38494E-05-2.95111E-05-6.48995E-06 7.34761E-19-1.80272E-18
 -1      3939 8.73149E-05-1.73668E-05-2.99656E-05 2.47594E-06-6.46462E-19-2.17670E-18
 -1      3940 8.15474E-05-2.85382E-05-2.26015E-05-2.21427E-05-1.60712E-18-2.25062E-18
 -1      3941 8.83475E-05-3.17651E-05-2.43088E-05-2.06974E-05-1.43787E-18-1.69051E-18
 -1      3942 7.87693E-05-2.46363E-05-2.32340E-05-1.81787E-05-1.03302E-18-1.84355E-18
 -1      3943 7.38943E-05-1.67795E-05-2.45310E-05 5.20984E-06 5.76082E-20-2.17182E-18
 -1      3944 7.06360E-05-1.61467E-05-2.34903E-05 4.80506E-06 7.26873E-20-2.49115E-18
 -1      3945 6.90889E-05-1.51954E-05-2.29481E-05-1.42558E-06-5.78959E-19-2.63606E-18
 -1      3946 9.52506E-05-2.85326E-05-2.85935E-05 4.05475E-09-2.30295E-18-8.22257E-19
 -1      3947 9.52502E-05-2.85305E-05-2.85943E-05 2.27865E-09-1.10881E-18-1.09064E-18
 -1      3948 9.52466E-05-2.85145E-05-2.85992E-05-1.22283E-09-1.03709E-18-2.20256E-18
 -1      3949 9.52486E-05-2.85206E-05-2.85975E-05-3.25540E-10-3.26731E-18-2.07058E-18
 -1      3950 9.71392E-05-3.32275E-05-2.74667E-05-1.36074E-05-4.81404E-19-1.55479E-18
 -1      3951 9.85844E-05-3.29883E-05-2.80895E-05-1.16196E-05-4.23294E-19-1.43632E-18
 -1      3952 9.69587E-05-3.09668E-05-2.82499E-05-1.11142E-05-2.32366E-19-1.52642E-18
 -1      3953 9.62393E-05-3.66243E-05-2.55046E-05 1.79671E-05-1.88982E-18 1.98424E-20
 -1      3954 7.70211E-05-1.86177E-05-2.50296E-05-8.40936E-06 1.06353E-18 5.75819E-19
 -1      3955 7.87754E-05-1.87869E-05-2.57611E-05-7.30982E-06 7.76946E-19 2.47586E-19
 -1      3956 7.44120E-05-1.73560E-05-2.43797E-05-6.70082E-06 1.15442E-18 3.46026E-19
 -1      3957 8.08070E-05-1.92507E-05-2.63874E-05-6.58925E-06 5.37887E-19-2.02244E-19
 -1      3958 8.22666E-05-1.96176E-05-2.68817E-05-5.88403E-06 8.72289E-19-4.81387E-19
 -1      3959 7.89929E-05-1.83653E-05-2.59415E-05-5.25031E-06 5.68542E-19-6.05316E-19
 -1      3960 8.38394E-05-2.01498E-05-2.73023E-05-5.39941E-06 1.43087E-19-4.35813E-19
 -1      3961 8.50447E-05-2.06128E-05-2.76331E-05-4.89548E-06-4.55829E-19-7.99102E-19
 -1      3962 8.25020E-05-1.94698E-05-2.69854E-05-4.35880E-06 2.02766E-19-9.61387E-19
 -1      3963 8.62861E-05-2.11708E-05-2.79132E-05-4.52817E-06-7.83545E-19-1.10291E-18
 -1      3964 8.72728E-05-2.16669E-05-2.81293E-05-4.12739E-06-3.79604E-19-1.01296E-18
 -1      3965 8.52580E-05-2.06125E-05-2.76855E-05-3.72288E-06-6.78751E-19-9.70887E-19
 -1      3966 8.82629E-05-2.22168E-05-2.83114E-05-3.81828E-06-5.05299E-19-7.48041E-19
 -1      3967 8.90633E-05-2.27071E-05-2.84470E-05-3.47488E-06-5.58703E-19-1.19525E-18
 -1      3968 8.74507E-05-2.17370E-05-2.81485E-05-3.20210E-06-3.80730E-19-6.67182E-19
 -1      3969 8.98545E-05-2.32245E-05-2.85608E-05-3.20120E-06 8.73552E-20-1.35023E-18
 -1      3970 9.04969E-05-2.36834E-05-2.86407E-05-2.89695E-06 1.59371E-18-1.27747E-18
 -1      3971 8.92055E-05-2.28059E-05-2.84459E-05-2.73519E-06 3.14384E-19-3.45060E-19
 -1      3972 9.11273E-05-2.41528E-05-2.87074E-05-2.65100E-06 1.81333E-18-1.87131E-18
 -1      3973 9.16373E-05-2.45662E-05-2.87497E-05-2.38022E-06 1.00235E-18-1.28390E-18
 -1      3974 9.06079E-05-2.37885E-05-2.86283E-05-2.30318E-06 1.35846E-18-2.84442E-19
 -1      3975 9.21363E-05-2.49797E-05-2.87846E-05-2.16099E-06 1.89471E-19-1.71125E-18
 -1      3976 9.25366E-05-2.53412E-05-2.88020E-05-1.92275E-06-4.81563E-19-1.16351E-18
 -1      3977 9.17230E-05-2.46662E-05-2.87318E-05-1.90487E-06 3.59213E-20-2.36033E-18
 -1      3978 9.29283E-05-2.56967E-05-2.88160E-05-1.73097E-06-2.88253E-19-5.99575E-19
 -1      3979 9.32392E-05-2.60054E-05-2.88177E-05-1.52522E-06 4.23362E-20-4.29596E-19
 -1      3980 9.26029E-05-2.54313E-05-2.87824E-05-1.54502E-06 2.42272E-19-1.32974E-18
 -1      3981 9.35435E-05-2.63047E-05-2.88184E-05-1.36117E-06-1.16656E-18-1.76515E-18
 -1      3982 9.37820E-05-2.65629E-05-2.88109E-05-1.18715E-06-1.54226E-18-2.71242E-18
 -1      3983 9.32906E-05-2.60839E-05-2.87986E-05-1.22821E-06-1.42368E-18-1.52276E-18
 -1      3984 9.40158E-05-2.68102E-05-2.88037E-05-1.04999E-06-1.04184E-18-2.19786E-18
 -1      3985 9.41966E-05-2.70224E-05-2.87911E-05-9.05876E-07-9.16938E-19-2.48619E-18
 -1      3986 9.38222E-05-2.66299E-05-2.87933E-05-9.56548E-07-1.08635E-18-1.69572E-18
 -1      3987 9.43739E-05-2.72233E-05-2.87797E-05-7.93707E-07-4.39608E-19-1.73589E-18
 -1      3988 9.45092E-05-2.73948E-05-2.87650E-05-6.76778E-07-7.02002E-19-1.02472E-18
 -1      3989 9.42282E-05-2.70786E-05-2.87758E-05-7.29393E-07-3.99965E-19-1.17271E-18
 -1      3990 9.46416E-05-2.75555E-05-2.87519E-05-5.86979E-07-6.84977E-19-2.34977E-19
 -1      3991 9.47414E-05-2.76919E-05-2.87368E-05-4.93955E-07-6.57417E-19-3.15962E-19
 -1      3992 9.45340E-05-2.74413E-05-2.87520E-05-5.43862E-07-2.38178E-19-1.31263E-19
 -1      3993 9.48387E-05-2.78184E-05-2.87235E-05-4.23523E-07-2.19594E-19-6.30941E-19
 -1      3994 9.49110E-05-2.79253E-05-2.87092E-05-3.50919E-07 9.72570E-19-5.26486E-19
 -1      3995 9.47609E-05-2.77299E-05-2.87260E-05-3.95634E-07 1.20842E-19 4.79827E-20
 -1      3996 9.49812E-05-2.80233E-05-2.86965E-05-2.96778E-07 1.32738E-18-8.59075E-19
 -1      3997 9.50324E-05-2.81058E-05-2.86837E-05-2.41178E-07 7.36703E-19-7.58001E-19
 -1      3998 9.49262E-05-2.79559E-05-2.87004E-05-2.79672E-07 1.06037E-18-4.34031E-19
 -1      3999 9.50819E-05-2.81806E-05-2.86722E-05-2.00397E-07 6.44549E-19-5.51667E-19
 -1      4000 9.51173E-05-2.82432E-05-2.86609E-05-1.58642E-07 6.71129E-19-7.88182E-19
 -1      4001 9.50442E-05-2.81302E-05-2.86766E-05-1.90794E-07 7.40200E-19-1.02507E-18
 -1      4002 9.51511E-05-2.82993E-05-2.86509E-05-1.28584E-07 1.83156E-18-9.70024E-19
 -1      4003 9.51748E-05-2.83460E-05-2.86413E-05-9.78721E-08 2.25082E-18-9.77858E-19
 -1      4004 9.51261E-05-2.82623E-05-2.86553E-05-1.24090E-07 1.54546E-18-9.17721E-19
 -1      4005 9.51969E-05-2.83874E-05-2.86327E-05-7.62350E-08 1.12900E-18-8.34648E-19
 -1      4006 9.52120E-05-2.84218E-05-2.86247E-05-5.41453E-08 1.93886E-18-7.19176E-19
 -1      4007 9.51812E-05-2.83609E-05-2.86368E-05-7.51298E-08 1.54950E-18-1.78687E-18
 -1      4008 9.52257E-05-2.84518E-05-2.86174E-05-3.89568E-08 1.69254E-18-3.37100E-19
 -1      4009 9.52346E-05-2.84766E-05-2.86107E-05-2.38103E-08 2.52609E-19 3.67127E-19
 -1      4010 9.52164E-05-2.84332E-05-2.86211E-05-4.01106E-08 1.73758E-18-1.63992E-18
 -1      4011 8.48231E-05-1.76289E-05-2.88329E-05 2.80490E-06-4.06326E-19-2.10863E-18
 -1      4012 8.37224E-05-1.77583E-05-2.83038E-05 3.49999E-06-1.85336E-19-2.02380E-18
 -1      4013 9.13260E-05-2.16268E-05-2.98693E-05-4.94941E-06 8.77092E-19-1.97704E-18
 -1      4014 9.52470E-05-2.85209E-05-2.85970E-05-8.65971E-10 6.71005E-19-2.74401E-19
 -1      4015 9.52472E-05-2.85231E-05-2.85964E-05-2.61935E-09 1.31595E-18-2.88059E-19
 -1      4016 9.52406E-05-2.84969E-05-2.86040E-05 4.69435E-09-1.93433E-19-8.98119E-19
 -1      4017 9.52428E-05-2.85045E-05-2.86018E-05 6.36788E-10 4.71049E-19-1.94408E-18
 -1      4018 1.01220E-04-4.05056E-05-2.60929E-05-1.88424E-05-1.24013E-18-8.10438E-19
 -1      4019 1.01953E-04-3.95495E-05-2.67703E-05-1.62758E-05-9.08807E-19-1.00822E-18
 -1      4020 9.81830E-05-3.57945E-05-2.66064E-05-1.63680E-05-8.83915E-19-1.39931E-18
 -1      4021 9.49809E-05-3.60784E-05-2.50777E-05-2.05852E-05-1.33512E-18-1.35207E-18
 -1      4022 9.16532E-05-2.95336E-05-2.66076E-05 1.29691E-05-1.52160E-18-1.42422E-19
 -1      4023 9.34042E-05-3.16144E-05-2.64251E-05 1.40392E-05-1.29640E-18-1.20437E-21
 -1      4024 9.02749E-05-2.68829E-05-2.71763E-05 1.03945E-05-1.43467E-18 7.64518E-19
 -1      4025 9.11379E-05-2.81508E-05-2.69546E-05 1.14359E-05-1.57649E-18 3.20356E-19
 -1      4026 8.85555E-05-2.72932E-05-2.62830E-05 1.27625E-05-1.70305E-18-6.33852E-20
 -1      4027 9.06813E-05-2.45778E-05-2.83427E-05 5.16100E-06-1.50560E-18-3.98595E-19
 -1      4028 9.05505E-05-2.46504E-05-2.82299E-05 5.77452E-06-1.70418E-18-6.23367E-19
 -1      4029 9.13255E-05-2.47535E-05-2.85420E-05 4.06685E-06-8.37750E-19-9.08195E-20
 -1      4030 9.11110E-05-2.46718E-05-2.84656E-05 4.57144E-06-8.91936E-19-3.97154E-19
 -1      4031 9.00141E-05-2.40112E-05-2.82802E-05 4.50672E-06-1.22225E-18-2.87279E-19
 -1      4032 9.19909E-05-2.51143E-05-2.86710E-05 3.18869E-06-5.48011E-19-2.98966E-19
 -1      4033 9.17476E-05-2.49458E-05-2.86240E-05 3.60371E-06-8.36833E-19-6.65051E-19
 -1      4034 9.08700E-05-2.43649E-05-2.84949E-05 3.48801E-06-5.50984E-19-5.51890E-19
 -1      4035 9.26192E-05-2.55631E-05-2.87465E-05 2.48240E-06-3.68439E-19 5.55596E-19
 -1      4036 9.23795E-05-2.53540E-05-2.87217E-05 2.82306E-06-4.71773E-19 4.65757E-20
 -1      4037 9.16803E-05-2.48500E-05-2.86345E-05 2.69336E-06-7.86657E-19-8.09588E-19
 -1      4038 9.31795E-05-2.60347E-05-2.87832E-05 1.91495E-06 1.49981E-19 1.28939E-18
 -1      4039 9.29612E-05-2.58159E-05-2.87742E-05 2.19323E-06-2.23882E-19 5.03295E-19
 -1      4040 9.24082E-05-2.53850E-05-2.87179E-05 2.06979E-06-4.53832E-19-1.54672E-19
 -1      4041 9.36588E-05-2.64883E-05-2.87930E-05 1.46097E-06-6.50096E-20 9.74483E-19
 -1      4042 9.34701E-05-2.62787E-05-2.87947E-05 1.68658E-06 7.18915E-19 1.51827E-18
 -1      4043 9.30373E-05-2.59164E-05-2.87606E-05 1.57926E-06 8.96190E-20 3.54585E-19
 -1      4044 9.40556E-05-2.69004E-05-2.87854E-05 1.10020E-06-3.39540E-20 8.07742E-19
 -1      4045 9.38988E-05-2.67107E-05-2.87937E-05 1.28138E-06-2.95817E-19 7.55357E-19
 -1      4046 9.35642E-05-2.64111E-05-2.87753E-05 1.19371E-06 1.77361E-19 1.19773E-18
 -1      4047 9.43749E-05-2.72594E-05-2.87675E-05 8.16037E-07 2.28249E-20 6.07928E-19
 -1      4048 9.42487E-05-2.70947E-05-2.87794E-05 9.59910E-07-1.70057E-19 4.87567E-19
 -1      4049 9.39937E-05-2.68511E-05-2.87717E-05 8.91814E-07 2.17980E-19 9.41311E-19
 -1      4050 9.46253E-05-2.75623E-05-2.87442E-05 5.94554E-07-1.04401E-18 1.37193E-18
 -1      4051 9.45266E-05-2.74239E-05-2.87576E-05 7.07396E-07-2.39298E-20 1.09694E-18
 -1      4052 9.43354E-05-2.72291E-05-2.87569E-05 6.56899E-07-5.06885E-19 1.52602E-18
 -1      4053 9.48169E-05-2.78109E-05-2.87191E-05 4.23970E-07-1.10236E-18 1.06220E-18
 -1      4054 9.47418E-05-2.76977E-05-2.87326E-05 5.11293E-07-1.13595E-18 1.11431E-18
 -1      4055 9.46011E-05-2.75445E-05-2.87363E-05 4.75624E-07-8.53939E-19 1.79196E-18
 -1      4056 9.49600E-05-2.80102E-05-2.86945E-05 2.94319E-07-7.40423E-19 7.23494E-19
 -1      4057 9.49043E-05-2.79198E-05-2.87072E-05 3.60922E-07-8.36477E-19 5.14363E-19
 -1      4058 9.48029E-05-2.78014E-05-2.87132E-05 3.37154E-07-4.01033E-19 1.63541E-18
 -1      4059 9.50639E-05-2.81666E-05-2.86716E-05 1.97212E-07-3.04192E-19 6.43061E-19
 -1      4060 9.50239E-05-2.80958E-05-2.86831E-05 2.47219E-07-3.11002E-19 4.41004E-19
 -1      4061 9.49526E-05-2.80060E-05-2.86901E-05 2.32626E-07 1.70608E-19 1.40963E-18
 -1      4062 9.51371E-05-2.82866E-05-2.86511E-05 1.25660E-07-7.51654E-19-2.60478E-19
 -1      4063 9.51093E-05-2.82325E-05-2.86612E-05 1.62558E-07-6.53643E-19-2.44475E-19
 -1      4064 9.50606E-05-2.81655E-05-2.86685E-05 1.54779E-07 3.26791E-19 4.69672E-19
 -1      4065 9.51868E-05-2.83770E-05-2.86334E-05 7.39824E-08-7.36407E-19-2.44626E-19
 -1      4066 9.51683E-05-2.83364E-05-2.86420E-05 1.00646E-07-6.87126E-19-8.55553E-19
 -1      4067 9.51363E-05-2.82874E-05-2.86489E-05 9.76786E-08-2.02474E-19-5.33305E-19
 -1      4068 9.52189E-05-2.84440E-05-2.86183E-05 3.70491E-08-7.56140E-19-4.75449E-19
 -1      4069 9.52072E-05-2.84139E-05-2.86255E-05 5.63246E-08-6.69518E-19 5.38245E-20
 -1      4070 9.51873E-05-2.83787E-05-2.86318E-05 5.67172E-08-1.07939E-18-2.62680E-18
 -1      4071 9.52355E-05-2.84815E-05-2.86088E-05 1.95782E-08-5.23698E-19-6.30532E-19
 -1      4072 9.49480E-05-2.77954E-05-2.87640E-05-9.32111E-06 9.08975E-20-1.63191E-18
 -1      4073 9.30219E-05-2.61505E-05-2.86907E-05-9.12089E-06 2.40518E-19-1.60872E-18
 -1      4074 9.59595E-05-2.93109E-05-2.85398E-05-1.00906E-05-5.47966E-21-1.62394E-18
 -1      4075 6.98026E-05-1.66319E-05-2.28902E-05-6.75305E-06-6.43489E-19-2.56814E-18
 -1      4076 7.31832E-05-1.95792E-05-2.29065E-05-1.33607E-05-7.95907E-19-2.01231E-18
 -1      4077 9.01598E-05-2.47280E-05-2.80560E-05 6.53015E-06-9.00174E-19 2.49015E-20
 -1      4078 9.02017E-05-2.50511E-05-2.79016E-05 7.27531E-06-4.04440E-20 3.84540E-19
 -1      4079 8.91807E-05-2.39082E-05-2.79694E-05 5.82435E-06-1.05449E-18-4.66872E-19
 -1      4080 8.62602E-05-1.65636E-05-2.98703E-05-2.07110E-06 3.11605E-19-2.68674E-18
 -1      4081 8.58376E-05-1.62376E-05-2.98529E-05-1.41557E-06 1.01480E-19-2.71669E-18
 -1      4082 8.65122E-05-1.75990E-05-2.95108E-05-2.98471E-06 2.80409E-19-2.54909E-18
 -1      4083 7.89017E-05-1.73486E-05-2.64374E-05 4.02124E-06 2.02006E-20-2.01927E-18
 -1      4084 7.67481E-05-1.72170E-05-2.55702E-05 4.85635E-06 1.89974E-19-1.96734E-18
 -1      4085 7.48763E-05-1.61111E-05-2.50688E-05 5.72285E-07-7.68004E-20-2.21195E-18
 -1      4086 8.57008E-05-1.60624E-05-2.98551E-05-3.70582E-07-7.01406E-20-2.81046E-18
 -1      4087 8.58943E-05-1.62432E-05-2.98753E-05 3.46764E-07-3.73138E-19-2.76018E-18
 -1      4088 8.54815E-05-1.66845E-05-2.94538E-05-1.00804E-06 4.76566E-20-2.57993E-18
 -1      4089 8.23713E-05-1.76612E-05-2.77685E-05 3.47406E-06-1.28549E-19-2.04461E-18
 -1      4090 8.07432E-05-1.76186E-05-2.71073E-05 4.18441E-06-1.14866E-19-2.13872E-18
 -1      4091 7.94689E-05-1.68742E-05-2.67497E-05 1.05875E-06 2.70323E-20-2.00254E-18
 -1      4092 8.24734E-05-1.71940E-05-2.79473E-05 1.52352E-06-1.67132E-19-2.11051E-18
 -1      4093 8.99299E-05-2.54025E-05-2.76680E-05 8.24814E-06-1.87136E-19 6.89597E-19
 -1      4094 9.02828E-05-2.61085E-05-2.74730E-05 9.14470E-06-7.39106E-19 9.84398E-19
 -1      4095 8.84883E-05-2.42286E-05-2.75411E-05 7.54378E-06-3.17606E-19 7.12937E-19
 -1      4096 9.34466E-05-3.34796E-05-2.56390E-05 1.68406E-05-1.60307E-18 2.64254E-19
 -1      4097 6.97627E-05-1.62705E-05-2.29179E-05 4.93080E-06-3.17886E-19 1.60504E-18
 -1      4098 6.94926E-05-1.57462E-05-2.30387E-05 2.46352E-07-2.98457E-19 2.03086E-18
 -1      4099 9.11094E-05-2.26157E-05-2.93680E-05-6.36730E-06 5.26720E-19-1.85457E-18
 -1      4100 9.05427E-05-2.31030E-05-2.88884E-05-7.40693E-06 4.96013E-19-1.87377E-18
 -1      4101 8.92282E-05-2.09050E-05-2.92609E-05-5.75280E-06 6.15023E-19-2.07781E-18
 -1      4102 8.81426E-05-2.52276E-05-2.69780E-05 9.80219E-06-1.26325E-18 2.38555E-20
 -1      4103 9.48509E-05-3.24497E-05-2.67243E-05-1.51998E-05-6.49373E-19-1.74802E-18
 -1      4104 9.31445E-05-2.99940E-05-2.70265E-05-1.39223E-05-3.98223E-19-1.68642E-18
 -1      4105 9.44199E-05-2.91182E-05-2.80397E-05-1.14093E-05-1.75770E-19-1.70601E-18
 -1      4106 9.09217E-05-3.21412E-05-2.51758E-05-1.87181E-05-1.25008E-18-1.71292E-18
 -1      4107 9.52388E-05-2.84877E-05-2.86076E-05-1.75828E-08-8.96372E-19-6.69031E-19
 -1      4108 9.52417E-05-2.84975E-05-2.86046E-05-1.08584E-08-1.49959E-18-3.91132E-19
 -1      4109 9.52335E-05-2.84756E-05-2.86107E-05-1.94385E-08 3.96304E-21-2.01023E-18
 -1      4110 8.56493E-05-1.72269E-05-2.93105E-05 1.91997E-06-4.10139E-19-2.33966E-18
 -1      4111 8.45137E-05-1.68883E-05-2.89690E-05 8.24537E-07-1.86024E-19-2.37961E-18
 -1      4112 8.78009E-05-1.98295E-05-2.91594E-05-5.23530E-06 4.72642E-19-2.25325E-18
 -1      4113 9.52365E-05-2.84890E-05-2.86061E-05-6.12418E-10 1.81381E-19-2.03363E-18
 -1      4114 9.52343E-05-2.84841E-05-2.86075E-05 1.14520E-09-4.58438E-19-1.05870E-18
 -1      4115 9.52248E-05-2.84580E-05-2.86141E-05 2.23616E-08-4.89149E-19-2.05091E-18
 -1      4116 7.27425E-05-1.68078E-05-2.39175E-05-4.56006E-06-6.20630E-19-2.36255E-18
 -1      4117 8.64306E-05-1.70530E-05-2.97429E-05 2.12478E-06-4.59790E-19-2.40240E-18
 -1      4118 8.87376E-05-3.03105E-05-2.50807E-05 1.71919E-05-1.31596E-18 2.55759E-19
 -1      4119 7.06233E-05-1.58902E-05-2.33816E-05-2.08244E-06 4.12935E-19 1.28918E-18
 -1      4120 7.26489E-05-1.67679E-05-2.39703E-05-4.80466E-06 8.34288E-19 4.57755E-19
 -1      4121 7.53067E-05-1.72629E-05-2.49086E-05-4.12459E-06 8.16306E-19 3.55564E-20
 -1      4122 7.31033E-05-1.65895E-05-2.42304E-05-9.60145E-09 1.83436E-19 1.34746E-18
 -1      4123 7.91126E-05-2.27122E-05-2.40866E-05-1.44760E-05-8.09535E-19-1.92277E-18
 -1      4124 9.09395E-05-2.53287E-05-2.80868E-05-9.87844E-06-3.29888E-20-1.83746E-18
 -1      4125 9.04267E-05-2.40420E-05-2.84464E-05-8.71748E-06 2.52083E-19-1.81041E-18
 -1      4126 8.82457E-05-2.22088E-05-2.82934E-05-8.02728E-06 2.93167E-19-1.83180E-18
 -1      4127 7.44656E-05-1.92839E-05-2.37296E-05 1.00273E-05-9.86123E-19 1.10369E-19
 -1      4128 7.16575E-05-1.73346E-05-2.32249E-05 7.34798E-06-6.72760E-19 7.28875E-19
 -1      4129 7.39526E-05-1.74813E-05-2.41882E-05 4.92664E-06-9.63963E-19 9.14825E-19
 -1      4130 9.52380E-05-2.84919E-05-2.86055E-05-4.01078E-09 1.85530E-19-2.28572E-18
 -1      4131 9.52372E-05-2.84907E-05-2.86059E-05-3.12925E-09 3.77328E-19-2.34496E-18
 -1      4132 9.52290E-05-2.84677E-05-2.86117E-05-3.15934E-09 8.59958E-19-2.59121E-18
 -1      4133 9.32794E-05-3.26367E-05-2.60844E-05-1.70180E-05-8.83781E-19-1.65634E-18
 -1      4134 9.22549E-05-2.82884E-05-2.73726E-05-1.24808E-05-2.23747E-19-1.81090E-18
 -1      4135 9.12858E-05-2.65753E-05-2.77194E-05-1.12466E-05-1.28405E-19-1.83135E-18
 -1      4136 8.83167E-05-2.43551E-05-2.74195E-05-1.07613E-05-6.61228E-20-1.85991E-18
 -1      4137 8.95075E-05-2.74669E-05-2.66492E-05-1.38178E-05-3.10572E-19-1.73706E-18
 -1      4138 7.99239E-05-2.58367E-05-2.30429E-05 1.87581E-05-1.11879E-18 6.73959E-19
 -1      4139 7.88178E-05-2.36070E-05-2.36155E-05 1.54264E-05-9.43272E-19 6.06529E-19
 -1      4140 9.52442E-05-2.85067E-05-2.86018E-05-6.15383E-09-2.77919E-18-2.58555E-18
 -1      4141 7.77463E-05-1.79360E-05-2.56515E-05-3.85232E-06 6.44775E-19-7.98384E-19
 -1      4142 7.97454E-05-1.84945E-05-2.62760E-05-3.47919E-06 5.81321E-19-4.85968E-19
 -1      4143 7.65266E-05-1.73714E-05-2.52952E-05-2.07199E-06 2.84239E-19-7.68414E-19
 -1      4144 8.15594E-05-1.91168E-05-2.67757E-05-3.29684E-06 6.26930E-19-1.30201E-18
 -1      4145 8.31217E-05-1.97002E-05-2.71957E-05-3.05063E-06-2.11808E-20-7.76685E-19
 -1      4146 8.06428E-05-1.86564E-05-2.65181E-05-1.98919E-06 1.31090E-19-1.20917E-18
 -1      4147 8.45168E-05-2.03019E-05-2.75329E-05-2.91846E-06-8.20085E-19 2.28700E-20
 -1      4148 8.57524E-05-2.08758E-05-2.78138E-05-2.71957E-06-4.04431E-19-2.09853E-19
 -1      4149 8.38126E-05-1.99300E-05-2.73452E-05-1.94408E-06-3.11905E-19 4.27301E-20
 -1      4150 8.68569E-05-2.14556E-05-2.80386E-05-2.58790E-06-2.88243E-19-1.21043E-19
 -1      4151 8.78426E-05-2.20059E-05-2.82222E-05-2.40418E-06-3.94927E-20 3.39688E-19
 -1      4152 8.62855E-05-2.11246E-05-2.79023E-05-1.84722E-06-2.88612E-19 4.60796E-19
 -1      4153 8.87254E-05-2.25507E-05-2.83681E-05-2.26792E-06 2.33642E-19 6.75235E-19
 -1      4154 8.95130E-05-2.30617E-05-2.84838E-05-2.08937E-06 1.01019E-18 5.65230E-19
 -1      4155 8.82563E-05-2.22512E-05-2.82703E-05-1.70447E-06 2.07891E-19 6.07491E-19
 -1      4156 9.02206E-05-2.35601E-05-2.85746E-05-1.94969E-06 8.88530E-19-5.40132E-19
 -1      4157 9.08476E-05-2.40216E-05-2.86433E-05-1.77687E-06 6.87703E-19-1.20705E-18
 -1      4158 8.98343E-05-2.32893E-05-2.85058E-05-1.52261E-06 3.13395E-19-1.94071E-19
 -1      4159 9.14132E-05-2.44661E-05-2.86962E-05-1.63964E-06-1.20223E-19-1.90875E-18
 -1      4160 9.19091E-05-2.48725E-05-2.87329E-05-1.47689E-06-8.05135E-20-2.10563E-18
 -1      4161 9.10973E-05-2.42248E-05-2.86491E-05-1.31789E-06 8.08318E-20-1.36094E-18
 -1      4162 9.23581E-05-2.52598E-05-2.87599E-05-1.34803E-06 5.18860E-19-2.11717E-18
 -1      4163 9.27470E-05-2.56098E-05-2.87755E-05-1.19980E-06 2.09687E-19-1.36651E-18
 -1      4164 9.21030E-05-2.50493E-05-2.87291E-05-1.10768E-06 1.11821E-19-1.47155E-18
 -1      4165 9.31000E-05-2.59402E-05-2.87855E-05-1.08366E-06-1.49110E-18-1.93865E-18
 -1      4166 9.34018E-05-2.62356E-05-2.87876E-05-9.52970E-07-1.89547E-18-2.03371E-18
 -1      4167 9.28971E-05-2.57604E-05-2.87664E-05-9.05969E-07-1.14589E-18-1.97105E-18
 -1      4168 9.36763E-05-2.65119E-05-2.87868E-05-8.51994E-07-1.12779E-18-2.30264E-18
 -1      4169 9.39078E-05-2.67567E-05-2.87807E-05-7.40149E-07-7.39145E-19-1.47456E-18
 -1      4170 9.35176E-05-2.63618E-05-2.87760E-05-7.22245E-07-1.17947E-18-1.89365E-18
 -1      4171 9.41185E-05-2.69837E-05-2.87735E-05-6.55054E-07 1.30823E-19-1.41924E-18
 -1      4172 9.42938E-05-2.71832E-05-2.87630E-05-5.61878E-07 4.58644E-19-9.24765E-19
 -1      4173 9.39965E-05-2.68609E-05-2.87686E-05-5.61707E-07-1.76943E-19-1.35749E-18
 -1      4174 9.44532E-05-2.73665E-05-2.87525E-05-4.92123E-07-6.05094E-20-9.81517E-19
 -1      4175 9.45840E-05-2.75264E-05-2.87400E-05-4.16375E-07 3.84399E-19-4.54852E-19
 -1      4176 9.43613E-05-2.72680E-05-2.87513E-05-4.26169E-07 3.49713E-19-1.30755E-18
 -1      4177 9.47026E-05-2.76720E-05-2.87282E-05-3.60609E-07 1.91859E-19 1.30042E-19
 -1      4178 9.47986E-05-2.77981E-05-2.87153E-05-3.00404E-07 6.92116E-19 4.27965E-19
 -1      4179 9.46348E-05-2.75945E-05-2.87293E-05-3.15060E-07 3.88257E-19-5.97835E-20
 -1      4180 9.48852E-05-2.79120E-05-2.87034E-05-2.56851E-07 5.84500E-19 1.17831E-19
 -1      4181 9.49544E-05-2.80099E-05-2.86911E-05-2.10013E-07 3.57403E-19-1.01811E-18
 -1      4182 9.48363E-05-2.78521E-05-2.87059E-05-2.26329E-07 8.76800E-20-2.98227E-19
 -1      4183 9.50162E-05-2.80975E-05-2.86799E-05-1.76749E-07 5.43941E-19-1.09302E-18
 -1      4184 9.50648E-05-2.81722E-05-2.86687E-05-1.41061E-07 8.69323E-19-1.53217E-18
 -1      4185 9.49819E-05-2.80520E-05-2.86830E-05-1.57151E-07 2.81777E-19-1.20357E-18
 -1      4186 9.51078E-05-2.82385E-05-2.86586E-05-1.16232E-07 1.10832E-18-1.38561E-18
 -1      4187 9.51410E-05-2.82947E-05-2.86487E-05-8.96383E-08 1.68313E-18-1.81461E-18
 -1      4188 9.50844E-05-2.82047E-05-2.86619E-05-1.04428E-07 7.96181E-19-1.73470E-18
 -1      4189 9.51698E-05-2.83439E-05-2.86399E-05-7.15544E-08 1.55256E-18-2.25749E-18
 -1      4190 9.51915E-05-2.83854E-05-2.86314E-05-5.22165E-08 9.80752E-19-2.65522E-18
 -1      4191 9.51545E-05-2.83193E-05-2.86431E-05-6.52859E-08 8.81218E-19-2.38046E-18
 -1      4192 9.52099E-05-2.84215E-05-2.86238E-05-3.91855E-08 1.47610E-18-3.20713E-18
 -1      4193 9.52236E-05-2.84517E-05-2.86166E-05-2.58358E-08 1.37019E-18-3.59497E-18
 -1      4194 9.52003E-05-2.84038E-05-2.86267E-05-3.67893E-08 8.31485E-19-3.79438E-18
 -1      4195 8.67960E-05-2.00864E-05-2.86023E-05-5.85353E-06 3.30513E-19-2.12313E-18
 -1      4196 8.64179E-05-1.86477E-05-2.90286E-05-4.29102E-06 3.35753E-19-2.41704E-18
 -1      4197 8.54378E-05-1.79110E-05-2.89610E-05-3.42713E-06 1.24624E-19-2.42322E-18
 -1      4198 8.78362E-05-2.84389E-05-2.53898E-05-1.68751E-05-8.24276E-19-1.84656E-18
 -1      4199 9.52295E-05-2.84721E-05-2.86108E-05 1.01820E-08-6.80455E-19-8.59321E-19
 -1      4200 9.52128E-05-2.84316E-05-2.86204E-05 2.53146E-08-6.64739E-19-1.12082E-18
 -1      4201 8.59796E-05-2.95351E-05-2.42307E-05 1.85257E-05-1.42578E-18-6.22371E-20
 -1      4202 9.14353E-05-2.46815E-05-2.86212E-05 2.08519E-06-1.25390E-18-3.99661E-19
 -1      4203 9.10508E-05-2.43933E-05-2.85648E-05 2.40545E-06-1.20176E-18-5.84917E-19
 -1      4204 8.44479E-05-1.68818E-05-2.89787E-05-4.64263E-07-8.86055E-20-2.50601E-18
 -1      4205 8.36963E-05-1.71914E-05-2.84777E-05 3.03603E-07-1.33782E-19-2.21563E-18
 -1      4206 8.23310E-05-1.71737E-05-2.79495E-05 1.27494E-07-5.61027E-20-2.20099E-18
 -1      4207 8.46592E-05-1.70732E-05-2.89730E-05-1.61353E-06 8.84442E-20-2.39526E-18
 -1      4208 9.52304E-05-2.84735E-05-2.86099E-05 6.58786E-09-8.04100E-19-5.97903E-19
 -1      4209 8.51819E-05-2.45190E-05-2.60294E-05 1.13602E-05-1.61656E-18 6.27905E-19
 -1      4210 8.54926E-05-2.57637E-05-2.55990E-05 1.31577E-05-1.20861E-18 1.06924E-18
 -1      4211 9.04869E-05-2.40726E-05-2.84791E-05 2.75217E-06-1.10392E-18-1.51440E-18
 -1      4212 9.00705E-05-2.38171E-05-2.83892E-05 3.16327E-06-8.39231E-19-8.56243E-19
 -1      4213 9.03320E-05-2.38480E-05-2.84679E-05 2.10580E-06-1.89573E-18-8.71352E-19
 -1      4214 8.94214E-05-2.35319E-05-2.82587E-05 3.62939E-06-7.26309E-19-1.60634E-18
 -1      4215 8.89993E-05-2.33539E-05-2.81247E-05 4.16220E-06-8.68687E-19-8.82135E-19
 -1      4216 8.91434E-05-2.31656E-05-2.82453E-05 2.84792E-06-1.18567E-18-1.40118E-18
 -1      4217 9.22539E-05-2.52967E-05-2.87058E-05 1.57467E-06-1.69893E-19-1.74885E-19
 -1      4218 9.19150E-05-2.50062E-05-2.86740E-05 1.82569E-06-4.28297E-19-1.22201E-19
 -1      4219 9.13565E-05-2.45502E-05-2.86108E-05 1.55866E-06-8.56211E-19 8.05260E-22
 -1      4220 9.29423E-05-2.58785E-05-2.87494E-05 1.18240E-06-1.33758E-20 5.42702E-19
 -1      4221 9.26539E-05-2.56047E-05-2.87349E-05 1.37967E-06-4.22956E-19 4.56101E-19
 -1      4222 9.22209E-05-2.52256E-05-2.86958E-05 1.15244E-06-4.79321E-19 1.17180E-18
 -1      4223 9.35077E-05-2.64035E-05-2.87650E-05 8.80724E-07-3.07433E-19 1.64505E-18
 -1      4224 9.32693E-05-2.61573E-05-2.87622E-05 1.03563E-06-7.16110E-20 1.50631E-18
 -1      4225 9.29356E-05-2.58452E-05-2.87398E-05 8.49265E-07-6.51185E-19 9.12288E-19
 -1      4226 9.39618E-05-2.68606E-05-2.87624E-05 6.49107E-07 3.47289E-19 1.44925E-18
 -1      4227 9.37698E-05-2.66471E-05-2.87670E-05 7.70308E-07 3.48136E-19 1.97259E-18
 -1      4228 9.35149E-05-2.63930E-05-2.87561E-05 6.22272E-07 1.44119E-19 2.02897E-18
 -1      4229 9.43190E-05-2.72470E-05-2.87488E-05 4.72019E-07-7.25438E-19 2.06286E-18
 -1      4230 9.41680E-05-2.70672E-05-2.87577E-05 5.66267E-07-1.71505E-19 1.63402E-18
 -1      4231 9.39755E-05-2.68630E-05-2.87544E-05 4.52129E-07-6.36182E-20 1.98129E-18
 -1      4232 9.45940E-05-2.75656E-05-2.87292E-05 3.37480E-07-1.04008E-19 9.20024E-19
 -1      4233 9.44781E-05-2.74179E-05-2.87402E-05 4.10171E-07-2.51832E-19 1.40635E-18
 -1      4234 9.43347E-05-2.72562E-05-2.87418E-05 3.24736E-07 2.57123E-19 1.15574E-18
 -1      4235 9.48013E-05-2.78225E-05-2.87073E-05 2.36125E-07 1.91586E-19 3.73790E-19
 -1      4236 9.47143E-05-2.77039E-05-2.87189E-05 2.91629E-07-2.34681E-19 7.35584E-19
 -1      4237 9.46093E-05-2.75776E-05-2.87232E-05 2.29668E-07 2.55347E-19-9.11014E-19
 -1      4238 9.49540E-05-2.80252E-05-2.86853E-05 1.60564E-07 5.60436E-19 3.84153E-20
 -1      4239 9.48903E-05-2.79320E-05-2.86965E-05 2.02448E-07 3.27113E-19 9.48358E-19
 -1      4240 9.48149E-05-2.78349E-05-2.87023E-05 1.59121E-07 1.94031E-19-7.63638E-19
 -1      4241 9.50634E-05-2.81822E-05-2.86645E-05 1.04933E-07 6.94172E-19 8.88241E-19
 -1      4242 9.50182E-05-2.81103E-05-2.86748E-05 1.36123E-07 8.49152E-19 1.07215E-18
 -1      4243 9.49653E-05-2.80369E-05-2.86811E-05 1.07202E-07 1.76930E-19 1.75010E-19
 -1      4244 9.51395E-05-2.83014E-05-2.86457E-05 6.45530E-08-9.11620E-20-1.31147E-19
 -1      4245 9.51084E-05-2.82470E-05-2.86549E-05 8.74403E-08 3.89874E-19 7.42538E-19
 -1      4246 9.50723E-05-2.81925E-05-2.86611E-05 6.94431E-08 5.60660E-19 1.15383E-18
 -1      4247 9.51907E-05-2.83906E-05-2.86292E-05 3.55235E-08-3.23452E-19-1.61298E-18
 -1      4248 9.51699E-05-2.83499E-05-2.86371E-05 5.21667E-08-1.86102E-19-5.74550E-19
 -1      4249 9.51459E-05-2.83101E-05-2.86429E-05 4.24572E-08 5.71640E-19 3.26561E-19
 -1      4250 7.50286E-05-1.69349E-05-2.49569E-05-3.36571E-06-3.59360E-19-2.35118E-18
 -1      4251 7.66944E-05-1.83133E-05-2.49577E-05-8.02468E-06-4.82334E-19-2.26677E-18
 -1      4252 7.79318E-05-1.73387E-05-2.59672E-05-2.79224E-06-5.71085E-20-2.20789E-18
 -1      4253 8.82682E-05-2.31489E-05-2.79348E-05 4.79409E-06-3.08042E-19-6.73254E-19
 -1      4254 8.78875E-05-2.31135E-05-2.77449E-05 5.49308E-06 2.40672E-19 2.84652E-19
 -1      4255 8.77944E-05-2.25709E-05-2.79153E-05 3.86283E-06 1.38529E-19-1.54183E-18
 -1      4256 8.31344E-05-2.48854E-05-2.49916E-05-1.54437E-05-7.31927E-19-1.65621E-18
 -1      4257 8.63843E-05-2.57820E-05-2.59115E-05-1.40583E-05-4.47791E-19-1.80112E-18
 -1      4258 8.54705E-05-2.40948E-05-2.63246E-05-1.23679E-05-2.96056E-19-1.82092E-18
 -1      4259 7.80982E-05-2.04396E-05-2.47599E-05-1.11854E-05-4.96295E-19-1.84816E-18
 -1      4260 8.70841E-05-2.30515E-05-2.74776E-05 6.36045E-06-2.40073E-19 8.39590E-19
 -1      4261 8.68273E-05-2.32563E-05-2.72199E-05 7.28967E-06-6.26327E-19 6.33413E-19
 -1      4262 8.62971E-05-2.21600E-05-2.74436E-05 5.26324E-06 1.77844E-19 4.29899E-19
 -1      4263 9.52236E-05-2.84561E-05-2.86144E-05 6.12703E-09-1.18220E-18-8.12728E-19
 -1      4264 8.59718E-05-2.34054E-05-2.68549E-05 8.48718E-06-1.18723E-18 8.19528E-19
 -1      4265 8.59497E-05-2.39997E-05-2.65195E-05 9.76551E-06-1.64810E-18 8.94323E-19
 -1      4266 8.46824E-05-2.20970E-05-2.67879E-05 7.19743E-06-1.01167E-18 1.13402E-18
 -1      4267 9.52428E-05-2.85033E-05-2.86029E-05-6.44568E-09-1.87011E-18-3.51350E-18
 -1      4268 9.52283E-05-2.84639E-05-2.86132E-05-1.94504E-08 5.03863E-19-4.88622E-18
 -1      4269 9.52408E-05-2.84982E-05-2.86040E-05-5.95607E-09-1.17939E-18-3.33410E-18
 -1      4270 9.52396E-05-2.84958E-05-2.86047E-05-5.66640E-09-3.05533E-19-2.81944E-18
 -1      4271 9.52312E-05-2.84727E-05-2.86106E-05-8.50588E-09 2.07797E-20-3.96385E-18
 -1      4272 9.52360E-05-2.84820E-05-2.86086E-05-1.19895E-08-2.56563E-19-4.21304E-18
 -1      4273 8.65235E-05-2.09219E-05-2.81160E-05-7.07247E-06 1.84082E-19-2.05061E-18
 -1      4274 8.43914E-05-1.79136E-05-2.84612E-05-3.00677E-06 8.68434E-20-2.23524E-18
 -1      4275 8.20127E-05-2.47499E-05-2.46255E-05 1.45441E-05-1.64748E-18 7.34020E-19
 -1      4276 7.75089E-05-2.12889E-05-2.40152E-05 1.24710E-05-1.37684E-18 6.06551E-19
 -1      4277 8.31410E-05-2.26454E-05-2.59138E-05 9.87522E-06-1.32919E-18 1.07291E-18
 -1      4278 8.04396E-05-2.02509E-05-2.57453E-05-9.23803E-06-3.50155E-19-1.89051E-18
 -1      4279 9.51987E-05-2.84047E-05-2.86255E-05 2.12579E-08-5.43490E-19-6.47674E-19
 -1      4280 7.44976E-05-1.70030E-05-2.45480E-05 2.23592E-06-5.53253E-19 1.41726E-18
 -1      4281 7.50341E-05-1.71309E-05-2.48309E-05-1.04565E-08 5.35368E-20-4.04326E-21
 -1      4282 7.73554E-05-1.77604E-05-2.55781E-05-1.26313E-07 1.51606E-19-4.25669E-19
 -1      4283 7.56505E-05-1.79966E-05-2.47749E-05 4.61080E-06-9.75374E-19 2.78465E-19
 -1      4284 9.52102E-05-2.84302E-05-2.86200E-05 1.75483E-09-2.81728E-19 3.70993E-19
 -1      4285 9.52040E-05-2.84193E-05-2.86226E-05 8.38079E-09-8.24654E-19 4.33882E-19
 -1      4286 9.51815E-05-2.83756E-05-2.86314E-05 1.80694E-08-1.43174E-19 1.07253E-18
 -1      4287 8.11732E-05-1.73293E-05-2.73436E-05-7.94617E-07 2.46963E-20-2.13916E-18
 -1      4288 7.93097E-05-1.71629E-05-2.66892E-05-1.23592E-06 1.10791E-19-2.04679E-18
 -1      4289 8.01054E-05-1.79240E-05-2.66188E-05-4.70800E-06-1.35385E-19-2.13466E-18
 -1      4290 8.25103E-05-1.73993E-05-2.79029E-05-2.04574E-06-5.68956E-21-2.20347E-18
 -1      4291 7.82296E-05-2.04961E-05-2.47021E-05 9.65944E-06-1.81707E-18 1.07191E-19
 -1      4292 9.52129E-05-2.84337E-05-2.86196E-05-1.13163E-08 6.15799E-19-3.59176E-18
 -1      4293 9.52116E-05-2.84326E-05-2.86198E-05-6.24517E-09 3.74763E-19-2.13949E-18
 -1      4294 9.51922E-05-2.83923E-05-2.86282E-05-6.23672E-09-6.38059E-19-7.28181E-19
 -1      4295 8.61164E-05-2.28817E-05-2.70650E-05-1.01205E-05-9.90656E-20-1.93414E-18
 -1      4296 8.57517E-05-2.17493E-05-2.74757E-05-8.67346E-06 1.02302E-19-1.93007E-18
 -1      4297 8.46118E-05-1.96253E-05-2.78227E-05-6.33415E-06 1.35467E-19-2.13498E-18
 -1      4298 8.29829E-05-2.13660E-05-2.63973E-05-1.00717E-05-2.57836E-19-1.80059E-18
 -1      4299 9.52255E-05-2.84586E-05-2.86144E-05-1.78545E-08 1.09260E-18-5.17407E-18
 -1      4300 7.95964E-05-1.85164E-05-2.61975E-05 4.41710E-08 1.33380E-19-1.54015E-18
 -1      4301 8.13637E-05-1.91335E-05-2.66928E-05-1.23044E-07-1.67716E-19-1.32438E-18
 -1      4302 8.28633E-05-1.96898E-05-2.71076E-05-4.17652E-07 2.04625E-19-1.09259E-18
 -1      4303 8.42927E-05-2.02824E-05-2.74471E-05-4.92051E-07 2.42691E-19 1.09144E-19
 -1      4304 8.22138E-05-1.94739E-05-2.68260E-05 1.51669E-06 2.94600E-19-1.53799E-18
 -1      4305 8.54936E-05-2.08501E-05-2.77302E-05-6.90730E-07-8.35175E-20 3.04853E-19
 -1      4306 8.66255E-05-2.14173E-05-2.79575E-05-7.11724E-07-2.13662E-19 2.77922E-19
 -1      4307 8.49282E-05-2.05859E-05-2.75225E-05 7.56181E-07 2.97465E-19-9.53350E-19
 -1      4308 8.75929E-05-2.19580E-05-2.81479E-05-8.23561E-07-4.75829E-19-8.98798E-20
 -1      4309 8.84940E-05-2.24897E-05-2.82965E-05-8.01419E-07 5.23881E-19 3.42732E-19
 -1      4310 8.70776E-05-2.16568E-05-2.79965E-05 2.69382E-07-5.48271E-19 6.89518E-19
 -1      4311 8.92809E-05-2.29963E-05-2.84212E-05-8.51960E-07 3.33277E-19-3.09000E-19
 -1      4312 9.00012E-05-2.34841E-05-2.85147E-05-7.99274E-07-1.50348E-19-6.31452E-19
 -1      4313 8.88208E-05-2.26808E-05-2.83136E-05-2.00619E-08-5.04713E-19-1.65997E-19
 -1      4314 9.06409E-05-2.39472E-05-2.85929E-05-8.09737E-07-6.60156E-19-1.07875E-18
 -1      4315 9.12154E-05-2.43843E-05-2.86480E-05-7.39330E-07-7.73573E-19-1.73878E-18
 -1      4316 9.02402E-05-2.36368E-05-2.85189E-05-1.76217E-07-1.24020E-18-1.74619E-18
 -1      4317 9.17322E-05-2.47971E-05-2.86938E-05-7.25612E-07-3.11716E-19-2.11420E-18
 -1      4318 9.21875E-05-2.51799E-05-2.87227E-05-6.48099E-07-4.73586E-19-2.70125E-18
 -1      4319 9.13918E-05-2.45064E-05-2.86450E-05-2.45116E-07-1.10831E-18-2.69185E-18
 -1      4320 9.26009E-05-2.55392E-05-2.87461E-05-6.21610E-07-5.06000E-19-2.75709E-18
 -1      4321 9.29584E-05-2.58673E-05-2.87576E-05-5.44729E-07-1.25314E-18-2.40346E-18
 -1      4322 9.23184E-05-2.52776E-05-2.87158E-05-2.59788E-07-7.56387E-19-3.31585E-18
 -1      4323 9.32851E-05-2.61733E-05-2.87661E-05-5.13217E-07-1.41334E-18-1.38675E-18
 -1      4324 9.35628E-05-2.64490E-05-2.87665E-05-4.41975E-07-8.39233E-19-1.60352E-18
 -1      4325 9.30561E-05-2.59455E-05-2.87491E-05-2.43387E-07-9.40486E-19-2.41566E-18
 -1      4326 9.38175E-05-2.67044E-05-2.87656E-05-4.10342E-07-2.02939E-19-1.62269E-18
 -1      4327 9.40304E-05-2.69319E-05-2.87593E-05-3.47500E-07-2.02253E-19-1.66988E-18
 -1      4328 9.36358E-05-2.65116E-05-2.87578E-05-2.11523E-07-7.08454E-19-1.63026E-18
 -1      4329 9.42261E-05-2.71410E-05-2.87527E-05-3.18547E-07 4.51405E-19-1.58366E-18
 -1      4330 9.43870E-05-2.73254E-05-2.87429E-05-2.65204E-07 9.00148E-19-1.53178E-18
 -1      4331 9.40849E-05-2.69818E-05-2.87510E-05-1.74181E-07 3.41685E-19-2.60933E-18
 -1      4332 9.45348E-05-2.74937E-05-2.87333E-05-2.40277E-07 5.92303E-19-7.17485E-19
 -1      4333 9.46545E-05-2.76405E-05-2.87220E-05-1.96408E-07 6.51252E-19-3.83102E-19
 -1      4334 9.44276E-05-2.73651E-05-2.87354E-05-1.37313E-07 1.19574E-18-1.31241E-18
 -1      4335 9.47641E-05-2.77736E-05-2.87112E-05-1.75907E-07-2.39083E-19-1.24202E-18
 -1      4336 9.48515E-05-2.78887E-05-2.86996E-05-1.40804E-07-4.02530E-19-1.73484E-18
 -1      4337 9.46845E-05-2.76720E-05-2.87155E-05-1.04109E-07-6.04954E-19-1.74369E-18
 -1      4338 9.49311E-05-2.79922E-05-2.86888E-05-1.24563E-07 5.52962E-20-1.53846E-18
 -1      4339 9.49934E-05-2.80808E-05-2.86778E-05-9.71561E-08 5.55550E-19-2.06068E-18
 -1      4340 9.48733E-05-2.79134E-05-2.86941E-05-7.59592E-08-4.36601E-19-2.08475E-18
 -1      4341 9.50498E-05-2.81599E-05-2.86675E-05-8.46998E-08 3.08940E-19-2.09202E-18
 -1      4342 9.50931E-05-2.82270E-05-2.86576E-05-6.37898E-08 6.84029E-19-2.46024E-18
 -1      4343 9.50091E-05-2.81001E-05-2.86732E-05-5.31681E-08 2.71370E-19-2.39679E-18
 -1      4344 9.51318E-05-2.82866E-05-2.86483E-05-5.43729E-08 7.18535E-19-2.84385E-18
 -1      4345 9.51612E-05-2.83366E-05-2.86395E-05-3.88744E-08 1.13341E-19-2.87911E-18
 -1      4346 9.51038E-05-2.82418E-05-2.86538E-05-3.53776E-08 2.79149E-19-1.49026E-18
 -1      4347 9.51866E-05-2.83808E-05-2.86313E-05-3.27175E-08 6.25227E-19-3.37320E-18
 -1      4348 9.52056E-05-2.84173E-05-2.86236E-05-2.10848E-08 1.04301E-18-3.68141E-18
 -1      4349 8.64609E-05-2.78054E-05-2.51351E-05 1.56339E-05-1.13737E-18 3.52306E-19
 -1      4350 9.21617E-05-2.52251E-05-2.87004E-05 3.85531E-07-9.82204E-19-2.55516E-21
 -1      4351 9.17485E-05-2.48794E-05-2.86680E-05 5.33069E-07-7.88386E-19-6.01156E-19
 -1      4352 9.12266E-05-2.44864E-05-2.86201E-05 5.86210E-07-9.23804E-19-6.75091E-19
 -1      4353 9.07288E-05-2.41103E-05-2.85626E-05 7.87227E-07-1.53146E-18-8.70590E-19
 -1      4354 8.87066E-05-2.28276E-05-2.82625E-05 1.32224E-06-1.76034E-18 1.45213E-19
 -1      4355 8.80224E-05-2.24435E-05-2.81217E-05 1.70327E-06-7.68440E-19-6.41665E-20
 -1      4356 9.29172E-05-2.58794E-05-2.87408E-05 2.51413E-07-3.62670E-19-7.70452E-19
 -1      4357 9.25804E-05-2.55726E-05-2.87257E-05 3.60328E-07-6.01979E-19-2.14291E-19
 -1      4358 9.35187E-05-2.64434E-05-2.87544E-05 1.62474E-07-5.60742E-19 8.16052E-20
 -1      4359 9.32490E-05-2.61789E-05-2.87508E-05 2.43234E-07-5.31747E-19-1.82200E-19
 -1      4360 9.39899E-05-2.69182E-05-2.87510E-05 1.03900E-07 8.89813E-20-3.51315E-20
 -1      4361 9.37779E-05-2.66957E-05-2.87546E-05 1.63949E-07-1.94076E-19-7.57931E-20
 -1      4362 9.43529E-05-2.73093E-05-2.87375E-05 6.55533E-08 7.21254E-19-5.64199E-19
 -1      4363 9.41895E-05-2.71264E-05-2.87453E-05 1.10236E-07 6.23779E-19 1.27249E-19
 -1      4364 9.46275E-05-2.76251E-05-2.87186E-05 4.05801E-08 1.25400E-19-8.67137E-19
 -1      4365 9.45040E-05-2.74778E-05-2.87285E-05 7.37812E-08 2.87538E-19-6.26596E-19
 -1      4366 9.48312E-05-2.78754E-05-2.86978E-05 2.43986E-08-5.40022E-19-7.77704E-19
 -1      4367 9.47398E-05-2.77590E-05-2.87083E-05 4.89705E-08-2.94907E-19-1.17177E-18
 -1      4368 9.49790E-05-2.80702E-05-2.86769E-05 1.39802E-08-6.94345E-20-5.11882E-19
 -1      4369 9.49129E-05-2.79799E-05-2.86872E-05 3.20330E-08-2.74590E-19-4.75540E-19
 -1      4370 9.50834E-05-2.82190E-05-2.86573E-05 7.33704E-09 4.48750E-19 3.64989E-19
 -1      4371 9.50370E-05-2.81503E-05-2.86669E-05 2.04260E-08 4.28770E-19-2.94388E-19
 -1      4372 9.51549E-05-2.83303E-05-2.86396E-05 3.49326E-09-1.44832E-20-4.97936E-19
 -1      4373 9.51235E-05-2.82792E-05-2.86482E-05 1.23345E-08 4.28356E-19-4.68050E-19
 -1      4374 8.70568E-05-2.19732E-05-2.79303E-05 1.96276E-06 8.83350E-20-5.51510E-19
 -1      4375 8.62766E-05-2.16291E-05-2.77250E-05 2.49294E-06 6.73676E-19-5.72091E-19
 -1      4376 8.12258E-05-1.94224E-05-2.65500E-05-7.14966E-06-1.95272E-19-2.06696E-18
 -1      4377 9.00848E-05-2.36784E-05-2.84820E-05 8.83989E-07-1.55442E-18-6.79053E-19
 -1      4378 8.94960E-05-2.32869E-05-2.83893E-05 1.15974E-06-1.83070E-18-7.51279E-19
 -1      4379 8.32966E-05-1.82898E-05-2.78932E-05-4.09145E-06 1.20125E-19-2.23704E-18
 -1      4380 8.27363E-05-2.04478E-05-2.67448E-05 4.27504E-06-3.51302E-19-8.96091E-19
 -1      4381 8.17319E-05-2.03183E-05-2.63343E-05 5.25000E-06-1.08458E-18-8.09645E-19
 -1      4382 8.50901E-05-2.11671E-05-2.74438E-05 2.89602E-06 4.00060E-19-6.05342E-19
 -1      4383 8.42245E-05-2.09102E-05-2.71531E-05 3.64081E-06-6.34816E-20-1.08848E-18
 -1      4384 8.47452E-05-2.55046E-05-2.53995E-05 1.34074E-05-1.26215E-18 8.27394E-19
 -1      4385 7.86041E-05-1.82263E-05-2.57982E-05 1.99534E-06-3.48173E-19-1.30309E-18
 -1      4386 8.25215E-05-1.89159E-05-2.72208E-05-5.46376E-06-1.00756E-19-2.03339E-18
 -1      4387 9.51688E-05-2.83503E-05-2.86362E-05-2.15295E-08-4.55908E-21-2.45322E-18
 -1      4388 8.06151E-05-2.14192E-05-2.54063E-05 9.60068E-06-1.87681E-18-1.74477E-20
 -1      4389 7.82878E-05-1.94442E-05-2.51507E-05 7.38765E-06-1.67233E-18-4.45077E-19
 -1      4390 7.83363E-05-1.89733E-05-2.54584E-05 4.97683E-06-1.22282E-18-6.68931E-19
 -1      4391 9.51660E-05-2.83470E-05-2.86364E-05-9.78174E-09-7.02820E-19-1.69457E-19
 -1      4392 9.52234E-05-2.84547E-05-2.86153E-05-1.58069E-08 9.58117E-19-4.34642E-18
 -1      4393 8.22491E-05-2.13699E-05-2.61038E-05 7.90404E-06-1.52513E-18 7.20931E-19
 -1      4394 8.15038E-05-2.17328E-05-2.55975E-05 9.36548E-06-1.49027E-18 3.65294E-19
 -1      4395 8.03244E-05-1.95551E-05-2.60773E-05 4.69656E-06-8.98490E-19-1.30741E-18
 -1      4396 8.14625E-05-2.26539E-05-2.51686E-05 1.17127E-05-1.59781E-18 1.18150E-18
 -3
    1PSTEP                         4           1           1          
  100CL  101 1.000000000        4396                     0    1           1
 -4  ERROR       1    1
 -5  STR(%)      1    1    0    0
 -1         1 2.41560E+01
 -1         2 2.46524E+01
 -1         3 5.46481E-04
 -1         4 5.78854E-04
 -1         5 1.35949E+01
 -1         6 1.26479E+01
 -1         7 1.26479E+01
 -1         8 3.52183E+00
 -1         9 1.88131E+00
 -1        10 1.36814E+00
 -1        11 1.08093E+00
 -1        12 8.70519E-01
 -1        13 7.10637E-01
 -1        14 5.94291E-01
 -1        15 6.29482E-01
 -1        16 7.54076E-01
 -1        17 9.03060E-01
 -1        18 1.11131E+00
 -1        19 1.39518E+00
 -1        20 1.88651E+00
 -1        21 3.38779E+00
 -1        22 8.25610E+00
 -1        23 1.26479E+01
 -1        24 4.11755E+00
 -1        25 2.95491E+00
 -1        26 1.85897E+00
 -1        27 1.34277E+00
 -1        28 1.01732E+00
 -1        29 1.08591E+00
 -1        30 1.26646E+00
 -1        31 1.68304E+00
 -1        32 1.95285E+00
 -1        33 1.95285E+00
 -1        34 1.90902E+00
 -1        35 1.96677E+00
 -1        36 2.96010E+00
 -1        37 5.17444E+00
 -1        38 5.64752E+00
 -1        39 5.67399E+00
 -1        40 5.67399E+00
 -1        41 4.01127E+00
 -1        42 2.36704E+00
 -1        43 1.98312E+00
 -1        44 2.01200E+00
 -1        45 2.01200E+00
 -1        46 1.89085E+00
 -1        47 1.58123E+00
 -1        48 1.25154E+00
 -1        49 9.85582E-01
 -1        50 7.45684E-01
 -1        51 6.22681E-01
 -1        52 5.01680E-01
 -1        53 3.92938E-01
 -1        54 3.00511E-01
 -1        55 2.24890E-01
 -1        56 1.64743E-01
 -1        57 1.19928E-01
 -1        58 9.90183E-02
 -1        59 8.01089E-02
 -1        60 6.35992E-02
 -1        61 4.95555E-02
 -1        62 3.78476E-02
 -1        63 2.82382E-02
 -1        64 2.17627E-02
 -1        65 1.77429E-02
 -1        66 1.39528E-02
 -1        67 1.04238E-02
 -1        68 7.13638E-03
 -1        69 5.22223E-03
 -1        70 4.38168E-03
 -1        71 2.99381E-03
 -1        72 1.35949E+01
 -1        73 3.29585E+00
 -1        74 2.21234E+00
 -1        75 1.49166E+00
 -1        76 1.20092E+00
 -1        77 9.27476E-01
 -1        78 6.52207E-01
 -1        79 5.77056E-01
 -1        80 6.06962E-01
 -1        81 6.91079E-01
 -1        82 9.20341E-01
 -1        83 1.01509E+00
 -1        84 1.29757E+00
 -1        85 1.60927E+00
 -1        86 2.34372E+00
 -1        87 2.61111E+00
 -1        88 2.99409E+00
 -1        89 2.99409E+00
 -1        90 2.78134E+00
 -1        91 2.01313E+00
 -1        92 1.22135E+00
 -1        93 8.58511E-01
 -1        94 7.31709E-01
 -1        95 8.58793E-01
 -1        96 8.58793E-01
 -1        97 8.50122E-01
 -1        98 7.62249E-01
 -1        99 6.42389E-01
 -1       100 5.35101E-01
 -1       101 4.25018E-01
 -1       102 3.23430E-01
 -1       103 2.47138E-01
 -1       104 1.94896E-01
 -1       105 1.49007E-01
 -1       106 1.10534E-01
 -1       107 7.94438E-02
 -1       108 5.50892E-02
 -1       109 4.22825E-02
 -1       110 3.52655E-02
 -1       111 2.86413E-02
 -1       112 2.26662E-02
 -1       113 1.82266E-02
 -1       114 1.61370E-02
 -1       115 1.36845E-02
 -1       116 1.10516E-02
 -1       117 8.31159E-03
 -1       118 5.87008E-03
 -1       119 4.26496E-03
 -1       120 2.51192E-03
 -1       121 1.17203E-03
 -1       122 1.01807E-03
 -1       123 5.31316E-04
 -1       124 3.26411E-04
 -1       125 5.14748E-04
 -1       126 6.18611E-04
 -1       127 6.66209E-04
 -1       128 6.78295E-04
 -1       129 6.78295E-04
 -1       130 6.72954E-04
 -1       131 6.25151E-04
 -1       132 5.28070E-04
 -1       133 3.36120E-04
 -1       134 5.53550E-04
 -1       135 1.36230E-03
 -1       136 1.88757E-03
 -1       137 2.46524E+01
 -1       138 4.86431E+01
 -1       139 4.86431E+01
 -1       140 2.37471E+01
 -1       141 1.16502E+01
 -1       142 1.19698E+01
 -1       143 1.19698E+01
 -1       144 1.19236E+01
 -1       145 1.18593E+01
 -1       146 1.18593E+01
 -1       147 1.52805E+01
 -1       148 4.14879E+01
 -1       149 4.14879E+01
 -1       150 2.41560E+01
 -1       151 2.49668E+01
 -1       152 2.63273E+01
 -1       153 3.41000E+01
 -1       154 3.41000E+01
 -1       155 1.35100E+01
 -1       156 1.29651E+01
 -1       157 1.29651E+01
 -1       158 1.21096E+01
 -1       159 1.21096E+01
 -1       160 1.19626E+01
 -1       161 2.39768E+01
 -1       162 3.06530E+01
 -1       163 3.06530E+01
 -1       164 2.47465E+01
 -1       165 5.79262E+00
 -1       166 2.35904E+00
 -1       167 1.61380E+00
 -1       168 1.22477E+00
 -1       169 9.71824E-01
 -1       170 7.86791E-01
 -1       171 6.48183E-01
 -1       172 5.79531E-01
 -1       173 6.87265E-01
 -1       174 8.24581E-01
 -1       175 1.00909E+00
 -1       176 1.25538E+00
 -1       177 1.63658E+00
 -1       178 2.34712E+00
 -1       179 3.79667E+00
 -1       180 1.35949E+01
 -1       181 4.11755E+00
 -1       182 2.95491E+00
 -1       183 1.85897E+00
 -1       184 1.34277E+00
 -1       185 9.60779E-01
 -1       186 1.01732E+00
 -1       187 1.08591E+00
 -1       188 1.29570E+00
 -1       189 1.68304E+00
 -1       190 1.95285E+00
 -1       191 1.88386E+00
 -1       192 1.90902E+00
 -1       193 1.96677E+00
 -1       194 3.12300E+00
 -1       195 5.17444E+00
 -1       196 5.64752E+00
 -1       197 5.67399E+00
 -1       198 4.01127E+00
 -1       199 2.36704E+00
 -1       200 1.85854E+00
 -1       201 1.98312E+00
 -1       202 2.01200E+00
 -1       203 1.89085E+00
 -1       204 1.58123E+00
 -1       205 1.32102E+00
 -1       206 1.14983E+00
 -1       207 9.46009E-01
 -1       208 7.43122E-01
 -1       209 5.62231E-01
 -1       210 4.11559E-01
 -1       211 3.03438E-01
 -1       212 2.34059E-01
 -1       213 1.76986E-01
 -1       214 1.31247E-01
 -1       215 9.90183E-02
 -1       216 8.01089E-02
 -1       217 6.35992E-02
 -1       218 4.95555E-02
 -1       219 3.78476E-02
 -1       220 2.85323E-02
 -1       221 2.18519E-02
 -1       222 1.77429E-02
 -1       223 1.39528E-02
 -1       224 1.04238E-02
 -1       225 7.55732E-03
 -1       226 5.22223E-03
 -1       227 4.38168E-03
 -1       228 2.99381E-03
 -1       229 3.29585E+00
 -1       230 2.21234E+00
 -1       231 1.49166E+00
 -1       232 1.20092E+00
 -1       233 9.27476E-01
 -1       234 6.52207E-01
 -1       235 5.77056E-01
 -1       236 5.14389E-01
 -1       237 6.06962E-01
 -1       238 6.91079E-01
 -1       239 9.20341E-01
 -1       240 1.01509E+00
 -1       241 1.29757E+00
 -1       242 1.73353E+00
 -1       243 2.34372E+00
 -1       244 2.61111E+00
 -1       245 2.99409E+00
 -1       246 2.78134E+00
 -1       247 2.01313E+00
 -1       248 1.22135E+00
 -1       249 8.58511E-01
 -1       250 7.28495E-01
 -1       251 7.31709E-01
 -1       252 8.58793E-01
 -1       253 8.50122E-01
 -1       254 7.62249E-01
 -1       255 6.42389E-01
 -1       256 5.36533E-01
 -1       257 4.39889E-01
 -1       258 3.45543E-01
 -1       259 2.60906E-01
 -1       260 1.94896E-01
 -1       261 1.49007E-01
 -1       262 1.10534E-01
 -1       263 8.10543E-02
 -1       264 5.80736E-02
 -1       265 4.22825E-02
 -1       266 3.52655E-02
 -1       267 2.86413E-02
 -1       268 2.26662E-02
 -1       269 1.82266E-02
 -1       270 1.61370E-02
 -1       271 1.36845E-02
 -1       272 1.10516E-02
 -1       273 8.31159E-03
 -1       274 5.87008E-03
 -1       275 4.26496E-03
 -1       276 2.51192E-03
 -1       277 1.07309E-03
 -1       278 9.76694E-04
 -1       279 6.11583E-04
 -1       280 8.56224E-04
 -1       281 1.06531E-03
 -1       282 1.16799E-03
 -1       283 1.20698E-03
 -1       284 1.20931E-03
 -1       285 1.20931E-03
 -1       286 1.18026E-03
 -1       287 1.08999E-03
 -1       288 8.90988E-04
 -1       289 6.62639E-04
 -1       290 6.62639E-04
 -1       291 1.79597E-03
 -1       292 2.87759E+01
 -1       293 3.02559E+01
 -1       294 4.86431E+01
 -1       295 2.54112E+01
 -1       296 1.16053E+01
 -1       297 1.16502E+01
 -1       298 1.19698E+01
 -1       299 1.19236E+01
 -1       300 1.18429E+01
 -1       301 1.18593E+01
 -1       302 1.11789E+01
 -1       303 1.65391E+01
 -1       304 4.14879E+01
 -1       305 3.60204E+01
 -1       306 2.67215E+01
 -1       307 2.81727E+01
 -1       308 2.81727E+01
 -1       309 3.40808E+01
 -1       310 3.41000E+01
 -1       311 1.35100E+01
 -1       312 1.26681E+01
 -1       313 1.29651E+01
 -1       314 1.15480E+01
 -1       315 1.21096E+01
 -1       316 1.17585E+01
 -1       317 1.19626E+01
 -1       318 2.64650E+01
 -1       319 3.14381E+01
 -1       320 3.14381E+01
 -1       321 2.87759E+01
 -1       322 1.18220E+00
 -1       323 2.39998E+00
 -1       324 8.55925E-01
 -1       325 6.99955E-01
 -1       326 5.77286E-01
 -1       327 4.76596E-01
 -1       328 5.15380E-01
 -1       329 6.15914E-01
 -1       330 7.38933E-01
 -1       331 8.76812E-01
 -1       332 1.03871E+00
 -1       333 1.26539E+00
 -1       334 1.38360E+00
 -1       335 1.93785E+00
 -1       336 1.58406E+00
 -1       337 1.48224E+01
 -1       338 1.31097E+00
 -1       339 7.67060E-01
 -1       340 5.80250E-01
 -1       341 6.72448E-01
 -1       342 8.96762E-01
 -1       343 1.08943E+00
 -1       344 1.25779E+00
 -1       345 1.43213E+00
 -1       346 1.47381E+00
 -1       347 1.45455E+00
 -1       348 1.62673E+00
 -1       349 2.26857E+00
 -1       350 2.74864E+00
 -1       351 3.70293E+00
 -1       352 3.79143E+00
 -1       353 3.09945E+00
 -1       354 2.31708E+00
 -1       355 1.66209E+00
 -1       356 1.60559E+00
 -1       357 1.56448E+00
 -1       358 1.57828E+00
 -1       359 1.50563E+00
 -1       360 1.35170E+00
 -1       361 1.22253E+00
 -1       362 1.05043E+00
 -1       363 8.60121E-01
 -1       364 6.78670E-01
 -1       365 5.19565E-01
 -1       366 3.87396E-01
 -1       367 2.81717E-01
 -1       368 1.99652E-01
 -1       369 1.37453E-01
 -1       370 9.53575E-02
 -1       371 6.79994E-02
 -1       372 4.94320E-02
 -1       373 3.95307E-02
 -1       374 3.21750E-02
 -1       375 2.55601E-02
 -1       376 1.97679E-02
 -1       377 1.47897E-02
 -1       378 1.19207E-02
 -1       379 9.59741E-03
 -1       380 7.23963E-03
 -1       381 5.21648E-03
 -1       382 3.53411E-03
 -1       383 2.65042E-03
 -1       384 9.11439E-01
 -1       385 6.31249E-01
 -1       386 5.54030E-01
 -1       387 4.36697E-01
 -1       388 4.26438E-01
 -1       389 4.11510E-01
 -1       390 3.52245E-01
 -1       391 3.25906E-01
 -1       392 5.89596E-01
 -1       393 9.73550E-01
 -1       394 1.40705E+00
 -1       395 1.62604E+00
 -1       396 1.62604E+00
 -1       397 1.59923E+00
 -1       398 1.76792E+00
 -1       399 1.81501E+00
 -1       400 1.48042E+00
 -1       401 1.00962E+00
 -1       402 6.38927E-01
 -1       403 3.81769E-01
 -1       404 5.37864E-01
 -1       405 5.93895E-01
 -1       406 6.34147E-01
 -1       407 6.09761E-01
 -1       408 5.46108E-01
 -1       409 4.84907E-01
 -1       410 4.08229E-01
 -1       411 3.28956E-01
 -1       412 2.55048E-01
 -1       413 1.90667E-01
 -1       414 1.44470E-01
 -1       415 1.09754E-01
 -1       416 8.10543E-02
 -1       417 5.80736E-02
 -1       418 4.01763E-02
 -1       419 2.65897E-02
 -1       420 2.27218E-02
 -1       421 1.89527E-02
 -1       422 1.52682E-02
 -1       423 1.18308E-02
 -1       424 9.06622E-03
 -1       425 7.77487E-03
 -1       426 6.19792E-03
 -1       427 4.82315E-03
 -1       428 3.46266E-03
 -1       429 2.42979E-03
 -1       430 1.17373E-03
 -1       431 1.90899E-03
 -1       432 1.90899E-03
 -1       433 1.38170E-03
 -1       434 1.48575E-03
 -1       435 1.51688E-03
 -1       436 1.51688E-03
 -1       437 1.52335E-03
 -1       438 1.52335E-03
 -1       439 1.51630E-03
 -1       440 1.42475E-03
 -1       441 1.20172E-03
 -1       442 2.12308E-03
 -1       443 3.02559E+01
 -1       444 3.19827E+01
 -1       445 2.77512E+01
 -1       446 1.76535E+01
 -1       447 7.57077E+00
 -1       448 2.63735E+01
 -1       449 1.04536E+01
 -1       450 1.12865E+00
 -1       451 9.26499E+00
 -1       452 1.04739E+01
 -1       453 1.12964E+01
 -1       454 1.03625E+01
 -1       455 7.63259E+00
 -1       456 2.42040E+01
 -1       457 3.75903E+01
 -1       458 3.75903E+01
 -1       459 2.47499E+01
 -1       460 2.16071E+01
 -1       461 1.20128E+01
 -1       462 7.21252E+00
 -1       463 9.39863E+00
 -1       464 1.15480E+01
 -1       465 1.10184E+01
 -1       466 9.90073E+00
 -1       467 7.51405E+00
 -1       468 1.00553E+01
 -1       469 1.74850E+01
 -1       470 3.14381E+01
 -1       471 3.19827E+01
 -1       472 6.73103E+00
 -1       473 7.70325E-01
 -1       474 4.85441E-01
 -1       475 5.73862E-01
 -1       476 3.48200E-01
 -1       477 4.37950E-01
 -1       478 5.30957E-01
 -1       479 6.05335E-01
 -1       480 6.39057E-01
 -1       481 9.02492E-01
 -1       482 7.68421E-01
 -1       483 1.12170E+01
 -1       484 4.35993E-01
 -1       485 1.12865E+00
 -1       486 5.57079E-01
 -1       487 6.34342E-01
 -1       488 8.34562E-01
 -1       489 1.05772E+00
 -1       490 1.26495E+00
 -1       491 1.47860E+00
 -1       492 1.84156E+00
 -1       493 2.22442E+00
 -1       494 2.51556E+00
 -1       495 2.94294E+00
 -1       496 4.13384E+00
 -1       497 5.03936E+00
 -1       498 6.25377E+00
 -1       499 6.26815E+00
 -1       500 2.81813E+00
 -1       501 2.93296E+00
 -1       502 2.93037E+00
 -1       503 2.18574E+00
 -1       504 1.85705E+00
 -1       505 1.57828E+00
 -1       506 1.46024E+00
 -1       507 1.28920E+00
 -1       508 1.08534E+00
 -1       509 8.77684E-01
 -1       510 6.94028E-01
 -1       511 5.37850E-01
 -1       512 4.08124E-01
 -1       513 3.03398E-01
 -1       514 2.20820E-01
 -1       515 1.58631E-01
 -1       516 1.12395E-01
 -1       517 7.75793E-02
 -1       518 5.18286E-02
 -1       519 3.51127E-02
 -1       520 2.42450E-02
 -1       521 1.89237E-02
 -1       522 1.61434E-02
 -1       523 1.32504E-02
 -1       524 1.04406E-02
 -1       525 7.83082E-03
 -1       526 6.25609E-03
 -1       527 4.79142E-03
 -1       528 3.45912E-03
 -1       529 1.94257E+01
 -1       530 3.31147E-01
 -1       531 3.88289E-01
 -1       532 4.29350E-01
 -1       533 4.82655E-01
 -1       534 5.92178E-01
 -1       535 6.58811E-01
 -1       536 9.41307E-01
 -1       537 1.21155E+00
 -1       538 1.42322E+00
 -1       539 1.62604E+00
 -1       540 1.61174E+00
 -1       541 1.63623E+00
 -1       542 1.60976E+00
 -1       543 1.38306E+00
 -1       544 1.11367E+00
 -1       545 7.93282E-01
 -1       546 6.49015E-01
 -1       547 5.72486E-01
 -1       548 5.93006E-01
 -1       549 6.07714E-01
 -1       550 5.76356E-01
 -1       551 5.36973E-01
 -1       552 4.80171E-01
 -1       553 4.16638E-01
 -1       554 3.45964E-01
 -1       555 2.76765E-01
 -1       556 2.14103E-01
 -1       557 1.60393E-01
 -1       558 1.16268E-01
 -1       559 8.12789E-02
 -1       560 5.44022E-02
 -1       561 3.82677E-02
 -1       562 2.70179E-02
 -1       563 2.27218E-02
 -1       564 1.89527E-02
 -1       565 1.52682E-02
 -1       566 1.18308E-02
 -1       567 9.03277E-03
 -1       568 7.42553E-03
 -1       569 5.66939E-03
 -1       570 4.10344E-03
 -1       571 2.84772E-03
 -1       572 1.76891E-03
 -1       573 1.71767E-03
 -1       574 2.54145E-03
 -1       575 1.86564E-03
 -1       576 1.70568E-03
 -1       577 1.64897E-03
 -1       578 1.72322E-03
 -1       579 1.79082E-03
 -1       580 1.79082E-03
 -1       581 1.73719E-03
 -1       582 1.69065E-03
 -1       583 3.19827E+01
 -1       584 3.11920E-01
 -1       585 1.36368E+01
 -1       586 8.78927E+00
 -1       587 5.54189E+00
 -1       588 5.09388E+00
 -1       589 6.77103E+00
 -1       590 2.47499E+01
 -1       591 1.38511E+01
 -1       592 7.75669E+00
 -1       593 3.89221E-01
 -1       594 7.05419E+00
 -1       595 2.63735E+01
 -1       596 8.21809E+00
 -1       597 1.71367E+01
 -1       598 2.86753E+01
 -1       599 8.61922E+00
 -1       600 4.19977E+00
 -1       601 6.33241E+00
 -1       602 3.75903E+01
 -1       603 1.45137E+01
 -1       604 1.11937E+01
 -1       605 1.06136E+01
 -1       606 5.03936E+00
 -1       607 8.44507E+00
 -1       608 7.24751E+00
 -1       609 4.55801E+00
 -1       610 5.61892E+00
 -1       611 2.02395E+01
 -1       612 7.39672E+00
 -1       613 1.08968E+00
 -1       614 1.12865E+00
 -1       615 2.21994E-03
 -1       616 1.63330E+01
 -1       617 1.10564E+01
 -1       618 3.94236E-01
 -1       619 2.94395E-01
 -1       620 5.43366E-01
 -1       621 5.87410E-01
 -1       622 5.30278E+00
 -1       623 2.34420E-03
 -1       624 6.82331E-01
 -1       625 5.94935E-01
 -1       626 5.49530E-01
 -1       627 6.43594E-01
 -1       628 7.52415E-01
 -1       629 9.76437E-01
 -1       630 1.27647E+00
 -1       631 1.64589E+00
 -1       632 2.04963E+00
 -1       633 2.61390E+00
 -1       634 3.79238E+00
 -1       635 4.15781E+00
 -1       636 3.90261E+00
 -1       637 6.07715E+00
 -1       638 3.64975E+00
 -1       639 3.02120E+00
 -1       640 2.25234E+00
 -1       641 1.89629E+00
 -1       642 1.55181E+00
 -1       643 1.24596E+00
 -1       644 9.89601E-01
 -1       645 7.77786E-01
 -1       646 6.05709E-01
 -1       647 4.66564E-01
 -1       648 3.54986E-01
 -1       649 2.66403E-01
 -1       650 1.96871E-01
 -1       651 1.42969E-01
 -1       652 1.01744E-01
 -1       653 7.06754E-02
 -1       654 4.76382E-02
 -1       655 3.08699E-02
 -1       656 1.89290E-02
 -1       657 1.18123E-02
 -1       658 8.78940E-03
 -1       659 7.71934E-03
 -1       660 6.40693E-03
 -1       661 5.01780E-03
 -1       662 4.14819E-03
 -1       663 3.22155E-03
 -1       664 3.94356E+00
 -1       665 4.72742E-01
 -1       666 7.00355E-01
 -1       667 9.25378E-01
 -1       668 1.11333E+00
 -1       669 1.36892E+00
 -1       670 1.47938E+00
 -1       671 1.61484E+00
 -1       672 2.22582E+00
 -1       673 2.07327E+00
 -1       674 2.17095E+00
 -1       675 1.56483E+00
 -1       676 1.44714E+00
 -1       677 1.22143E+00
 -1       678 1.09889E+00
 -1       679 9.20202E-01
 -1       680 7.90366E-01
 -1       681 7.48238E-01
 -1       682 6.67689E-01
 -1       683 5.80099E-01
 -1       684 5.18779E-01
 -1       685 4.50311E-01
 -1       686 3.76735E-01
 -1       687 3.05504E-01
 -1       688 2.40958E-01
 -1       689 1.85172E-01
 -1       690 1.38697E-01
 -1       691 1.01146E-01
 -1       692 7.16181E-02
 -1       693 4.89843E-02
 -1       694 3.20730E-02
 -1       695 1.97781E-02
 -1       696 1.32059E-02
 -1       697 1.13919E-02
 -1       698 9.88447E-03
 -1       699 8.13308E-03
 -1       700 6.32372E-03
 -1       701 4.76533E-03
 -1       702 3.62698E-03
 -1       703 3.16932E-03
 -1       704 4.94952E+00
 -1       705 1.64897E-03
 -1       706 1.84382E-03
 -1       707 1.63985E-03
 -1       708 1.78080E-03
 -1       709 5.31056E+00
 -1       710 1.80205E-03
 -1       711 1.99127E-03
 -1       712 1.99127E-03
 -1       713 3.63116E-01
 -1       714 1.46806E+01
 -1       715 5.09145E+00
 -1       716 6.23470E-01
 -1       717 7.78337E+00
 -1       718 7.63674E+00
 -1       719 3.49456E-01
 -1       720 1.17187E+01
 -1       721 6.07715E+00
 -1       722 4.87971E-01
 -1       723 1.52003E+01
 -1       724 9.38903E+00
 -1       725 1.51744E+01
 -1       726 4.95133E-01
 -1       727 1.13792E+01
 -1       728 3.17065E+00
 -1       729 5.23344E+00
 -1       730 1.34923E+01
 -1       731 4.22941E+00
 -1       732 6.31457E+00
 -1       733 7.18768E-01
 -1       734 2.20314E-01
 -1       735 1.51308E+01
 -1       736 3.20167E+00
 -1       737 2.40367E-03
 -1       738 2.52098E-03
 -1       739 7.43117E+00
 -1       740 5.37990E+00
 -1       741 1.03228E+00
 -1       742 9.98035E+00
 -1       743 1.18435E+01
 -1       744 1.95778E-03
 -1       745 3.32675E-01
 -1       746 5.81598E+00
 -1       747 5.16613E-01
 -1       748 3.49278E+00
 -1       749 9.99313E+00
 -1       750 7.67184E-01
 -1       751 9.45739E-01
 -1       752 1.20364E+00
 -1       753 1.62370E+00
 -1       754 2.28100E+00
 -1       755 3.34033E+00
 -1       756 4.36515E+00
 -1       757 7.08336E-01
 -1       758 3.19991E+00
 -1       759 6.53056E+00
 -1       760 3.99485E+00
 -1       761 2.68550E+00
 -1       762 1.86214E+00
 -1       763 1.39408E+00
 -1       764 1.14143E+00
 -1       765 9.06710E-01
 -1       766 7.04935E-01
 -1       767 5.38504E-01
 -1       768 4.04749E-01
 -1       769 2.99322E-01
 -1       770 2.17553E-01
 -1       771 1.55062E-01
 -1       772 1.09197E-01
 -1       773 7.58156E-02
 -1       774 5.11017E-02
 -1       775 3.44203E-02
 -1       776 2.29811E-02
 -1       777 1.47214E-02
 -1       778 8.91023E-03
 -1       779 5.50633E-03
 -1       780 5.36911E-03
 -1       781 4.91538E-03
 -1       782 4.14819E-03
 -1       783 1.17987E+00
 -1       784 1.09625E+00
 -1       785 2.09604E+00
 -1       786 2.75303E+00
 -1       787 2.25151E+00
 -1       788 3.90387E+00
 -1       789 4.24837E+00
 -1       790 4.22941E+00
 -1       791 3.21110E+00
 -1       792 1.47376E+00
 -1       793 1.66490E+00
 -1       794 1.37307E+00
 -1       795 1.16567E+00
 -1       796 1.00457E+00
 -1       797 8.27690E-01
 -1       798 6.86065E-01
 -1       799 5.91099E-01
 -1       800 4.96565E-01
 -1       801 4.05683E-01
 -1       802 3.22850E-01
 -1       803 2.52893E-01
 -1       804 1.94955E-01
 -1       805 1.47560E-01
 -1       806 1.09540E-01
 -1       807 7.95993E-02
 -1       808 5.64527E-02
 -1       809 3.88972E-02
 -1       810 2.58547E-02
 -1       811 1.63888E-02
 -1       812 9.70694E-03
 -1       813 6.15832E-03
 -1       814 6.00416E-03
 -1       815 5.39538E-03
 -1       816 4.48158E-03
 -1       817 3.41041E-03
 -1       818 2.87502E-03
 -1       819 9.43933E+00
 -1       820 4.24991E-01
 -1       821 1.55487E-03
 -1       822 2.50518E-03
 -1       823 1.66678E-03
 -1       824 9.95788E+00
 -1       825 5.11232E-01
 -1       826 1.86902E-03
 -1       827 1.09813E+01
 -1       828 1.60352E+00
 -1       829 6.15906E-01
 -1       830 8.10575E+00
 -1       831 3.95052E-01
 -1       832 4.32003E+00
 -1       833 8.62710E+00
 -1       834 3.21110E+00
 -1       835 5.10564E+00
 -1       836 9.95788E+00
 -1       837 2.67458E+00
 -1       838 8.55566E+00
 -1       839 2.75303E+00
 -1       840 2.94591E-01
 -1       841 4.80997E-01
 -1       842 5.98258E+00
 -1       843 6.30805E+00
 -1       844 3.32728E-03
 -1       845 7.59710E-01
 -1       846 5.07856E-01
 -1       847 1.86662E-03
 -1       848 6.88513E-01
 -1       849 9.29493E-01
 -1       850 1.78080E-03
 -1       851 1.62901E-03
 -1       852 4.44251E+00
 -1       853 5.89490E+00
 -1       854 4.26460E-01
 -1       855 3.62469E-01
 -1       856 3.32728E-03
 -1       857 1.78788E+00
 -1       858 6.88513E-01
 -1       859 1.18936E+00
 -1       860 1.62370E+00
 -1       861 2.30966E+00
 -1       862 4.08303E+00
 -1       863 7.64401E+00
 -1       864 3.10400E+00
 -1       865 2.29141E+00
 -1       866 1.76359E+00
 -1       867 1.34253E+00
 -1       868 1.02086E+00
 -1       869 7.76606E-01
 -1       870 5.89810E-01
 -1       871 4.45727E-01
 -1       872 3.34209E-01
 -1       873 2.47954E-01
 -1       874 1.81524E-01
 -1       875 1.30738E-01
 -1       876 9.22964E-02
 -1       877 6.38819E-02
 -1       878 4.38853E-02
 -1       879 2.91642E-02
 -1       880 1.85314E-02
 -1       881 1.10268E-02
 -1       882 5.88234E-03
 -1       883 3.47938E-03
 -1       884 2.95093E-03
 -1       885 3.55171E-03
 -1       886 1.66490E+00
 -1       887 2.74707E+00
 -1       888 1.70789E+00
 -1       889 1.40265E+00
 -1       890 1.08498E+00
 -1       891 8.89960E-01
 -1       892 7.07647E-01
 -1       893 5.61559E-01
 -1       894 4.45363E-01
 -1       895 3.59318E-01
 -1       896 2.92134E-01
 -1       897 2.30793E-01
 -1       898 1.77591E-01
 -1       899 1.33167E-01
 -1       900 9.72011E-02
 -1       901 6.88641E-02
 -1       902 4.81671E-02
 -1       903 3.26155E-02
 -1       904 2.10948E-02
 -1       905 1.28322E-02
 -1       906 7.13971E-03
 -1       907 3.96854E-03
 -1       908 3.45290E-03
 -1       909 3.51705E-03
 -1       910 3.14086E-03
 -1       911 7.34073E+00
 -1       912 1.49459E-03
 -1       913 2.09604E+00
 -1       914 7.12814E+00
 -1       915 7.64401E+00
 -1       916 3.73336E-01
 -1       917 6.51947E+00
 -1       918 7.03328E+00
 -1       919 6.75776E-01
 -1       920 2.67449E+00
 -1       921 7.03328E+00
 -1       922 8.80324E-01
 -1       923 2.36991E+00
 -1       924 2.44605E-03
 -1       925 1.44498E-03
 -1       926 4.60452E+00
 -1       927 2.50518E-03
 -1       928 5.25681E-01
 -1       929 1.36132E+00
 -1       930 5.45571E-01
 -1       931 8.35102E-01
 -1       932 4.69379E-01
 -1       933 4.14269E+00
 -1       934 2.82284E+00
 -1       935 3.44729E-01
 -1       936 4.43409E+00
 -1       937 1.86902E-03
 -1       938 1.60352E+00
 -1       939 3.20099E+00
 -1       940 6.65825E-01
 -1       941 4.53069E-01
 -1       942 2.02905E-03
 -1       943 2.03372E+00
 -1       944 2.89154E+00
 -1       945 4.73563E+00
 -1       946 1.02755E+00
 -1       947 2.63546E+00
 -1       948 1.82417E+00
 -1       949 1.27827E+00
 -1       950 9.21626E-01
 -1       951 6.80405E-01
 -1       952 5.10093E-01
 -1       953 3.84701E-01
 -1       954 2.89996E-01
 -1       955 2.17398E-01
 -1       956 1.61419E-01
 -1       957 1.18293E-01
 -1       958 8.52628E-02
 -1       959 6.02040E-02
 -1       960 4.14297E-02
 -1       961 2.85208E-02
 -1       962 1.90935E-02
 -1       963 1.22438E-02
 -1       964 7.37808E-03
 -1       965 4.01988E-03
 -1       966 1.94489E-03
 -1       967 3.71303E+00
 -1       968 5.28515E+00
 -1       969 1.58647E+00
 -1       970 1.18887E+00
 -1       971 8.62588E-01
 -1       972 6.82153E-01
 -1       973 5.42959E-01
 -1       974 4.45363E-01
 -1       975 3.57376E-01
 -1       976 2.81277E-01
 -1       977 2.17314E-01
 -1       978 1.64762E-01
 -1       979 1.22448E-01
 -1       980 8.90171E-02
 -1       981 6.30982E-02
 -1       982 4.33893E-02
 -1       983 2.95985E-02
 -1       984 1.94457E-02
 -1       985 1.21015E-02
 -1       986 6.92463E-03
 -1       987 3.58828E-03
 -1       988 2.05927E-03
 -1       989 5.32519E+00
 -1       990 4.94470E-01
 -1       991 6.46184E-01
 -1       992 5.60267E-01
 -1       993 1.38598E+00
 -1       994 2.54545E+00
 -1       995 9.74081E-01
 -1       996 1.67935E-03
 -1       997 4.79589E+00
 -1       998 1.83023E-03
 -1       999 2.10274E+00
 -1      1000 2.32040E-03
 -1      1001 3.58828E-03
 -1      1002 1.79193E-03
 -1      1003 1.15486E+00
 -1      1004 7.49677E-01
 -1      1005 2.43475E+00
 -1      1006 7.01750E-01
 -1      1007 3.89358E+00
 -1      1008 4.08947E+00
 -1      1009 3.15627E+00
 -1      1010 4.08947E+00
 -1      1011 6.81134E-01
 -1      1012 1.68678E-03
 -1      1013 3.70662E+00
 -1      1014 3.57811E+00
 -1      1015 3.01566E+00
 -1      1016 1.53234E-03
 -1      1017 1.61139E+00
 -1      1018 1.82085E+00
 -1      1019 1.27072E+00
 -1      1020 9.17972E-01
 -1      1021 6.79289E-01
 -1      1022 5.09483E-01
 -1      1023 3.84169E-01
 -1      1024 2.89632E-01
 -1      1025 2.17527E-01
 -1      1026 1.62263E-01
 -1      1027 1.19898E-01
 -1      1028 8.75270E-02
 -1      1029 6.31682E-02
 -1      1030 4.47794E-02
 -1      1031 3.10462E-02
 -1      1032 2.17223E-02
 -1      1033 1.47383E-02
 -1      1034 9.57602E-03
 -1      1035 5.81205E-03
 -1      1036 3.09434E-03
 -1      1037 9.03370E-01
 -1      1038 2.49606E-03
 -1      1039 3.10584E+00
 -1      1040 2.22021E+00
 -1      1041 1.59514E+00
 -1      1042 6.82153E-01
 -1      1043 5.34412E-01
 -1      1044 4.15636E-01
 -1      1045 3.20717E-01
 -1      1046 2.45144E-01
 -1      1047 1.85265E-01
 -1      1048 1.38140E-01
 -1      1049 1.01377E-01
 -1      1050 7.30065E-02
 -1      1051 5.13902E-02
 -1      1052 3.51628E-02
 -1      1053 2.37061E-02
 -1      1054 1.56231E-02
 -1      1055 9.79343E-03
 -1      1056 5.70458E-03
 -1      1057 1.31744E+00
 -1      1058 3.49160E+00
 -1      1059 8.62588E-01
 -1      1060 7.25094E-01
 -1      1061 2.04206E+00
 -1      1062 7.25094E-01
 -1      1063 1.23996E+00
 -1      1064 1.16162E+00
 -1      1065 3.05567E+00
 -1      1066 1.15486E+00
 -1      1067 2.19666E+00
 -1      1068 2.59270E-03
 -1      1069 5.27462E-03
 -1      1070 2.67634E+00
 -1      1071 1.31744E+00
 -1      1072 3.05567E+00
 -1      1073 4.55728E-03
 -1      1074 1.80191E+00
 -1      1075 3.23778E+00
 -1      1076 1.59948E+00
 -1      1077 1.10728E+00
 -1      1078 7.96713E-01
 -1      1079 5.92153E-01
 -1      1080 4.45766E-01
 -1      1081 3.37707E-01
 -1      1082 2.55933E-01
 -1      1083 1.93164E-01
 -1      1084 1.44687E-01
 -1      1085 1.07243E-01
 -1      1086 7.88128E-02
 -1      1087 5.69544E-02
 -1      1088 4.03051E-02
 -1      1089 2.80049E-02
 -1      1090 1.94145E-02
 -1      1091 1.29847E-02
 -1      1092 8.20029E-03
 -1      1093 4.64494E-03
 -1      1094 1.16905E+00
 -1      1095 5.54384E-03
 -1      1096 4.14787E-01
 -1      1097 1.16905E+00
 -1      1098 1.80317E+00
 -1      1099 5.69076E-01
 -1      1100 7.89541E-01
 -1      1101 3.04414E-01
 -1      1102 2.23939E-01
 -1      1103 1.64433E-01
 -1      1104 1.20040E-01
 -1      1105 8.67915E-02
 -1      1106 6.19011E-02
 -1      1107 4.33486E-02
 -1      1108 3.02590E-02
 -1      1109 2.09164E-02
 -1      1110 1.41477E-02
 -1      1111 8.97437E-03
 -1      1112 2.60558E+00
 -1      1113 1.10950E+00
 -1      1114 2.68551E+00
 -1      1115 1.56428E+00
 -1      1116 1.56428E+00
 -1      1117 2.59270E-03
 -1      1118 2.38554E+00
 -1      1119 1.82795E+00
 -1      1120 7.18848E-03
 -1      1121 1.46330E+00
 -1      1122 7.18848E-03
 -1      1123 1.67296E+00
 -1      1124 1.56428E+00
 -1      1125 1.10950E+00
 -1      1126 7.89541E-01
 -1      1127 5.69076E-01
 -1      1128 4.14787E-01
 -1      1129 3.04414E-01
 -1      1130 2.32054E-01
 -1      1131 1.76997E-01
 -1      1132 1.33612E-01
 -1      1133 9.95516E-02
 -1      1134 7.32253E-02
 -1      1135 5.29622E-02
 -1      1136 3.74095E-02
 -1      1137 2.56433E-02
 -1      1138 1.76169E-02
 -1      1139 1.14842E-02
 -1      1140 1.82795E+00
 -1      1141 1.26479E+01
 -1      1142 8.08487E+00
 -1      1143 2.70157E+00
 -1      1144 1.62472E+00
 -1      1145 1.22453E+00
 -1      1146 9.75725E-01
 -1      1147 7.90578E-01
 -1      1148 6.52464E-01
 -1      1149 6.11887E-01
 -1      1150 6.91779E-01
 -1      1151 8.28568E-01
 -1      1152 1.00718E+00
 -1      1153 1.25325E+00
 -1      1154 1.64085E+00
 -1      1155 2.63715E+00
 -1      1156 5.82195E+00
 -1      1157 1.09255E+01
 -1      1158 1.26479E+01
 -1      1159 8.38273E+00
 -1      1160 3.53623E+00
 -1      1161 2.40694E+00
 -1      1162 1.60087E+00
 -1      1163 1.18005E+00
 -1      1164 1.05161E+00
 -1      1165 1.17619E+00
 -1      1166 1.47475E+00
 -1      1167 1.81795E+00
 -1      1168 1.95285E+00
 -1      1169 1.93094E+00
 -1      1170 1.93790E+00
 -1      1171 2.46343E+00
 -1      1172 4.06727E+00
 -1      1173 5.41098E+00
 -1      1174 5.66076E+00
 -1      1175 5.67399E+00
 -1      1176 4.84263E+00
 -1      1177 3.18915E+00
 -1      1178 2.17508E+00
 -1      1179 1.99756E+00
 -1      1180 2.01200E+00
 -1      1181 1.95142E+00
 -1      1182 1.73604E+00
 -1      1183 1.41639E+00
 -1      1184 1.11856E+00
 -1      1185 8.65633E-01
 -1      1186 6.84183E-01
 -1      1187 5.62181E-01
 -1      1188 4.47309E-01
 -1      1189 3.46725E-01
 -1      1190 2.62701E-01
 -1      1191 1.94817E-01
 -1      1192 1.42336E-01
 -1      1193 1.09473E-01
 -1      1194 8.95636E-02
 -1      1195 7.18541E-02
 -1      1196 5.65773E-02
 -1      1197 4.37015E-02
 -1      1198 3.30429E-02
 -1      1199 2.50005E-02
 -1      1200 1.97528E-02
 -1      1201 1.58479E-02
 -1      1202 1.21883E-02
 -1      1203 8.78011E-03
 -1      1204 6.17931E-03
 -1      1205 4.80196E-03
 -1      1206 3.68774E-03
 -1      1207 1.78633E-03
 -1      1208 1.35949E+01
 -1      1209 8.44540E+00
 -1      1210 2.75409E+00
 -1      1211 1.85200E+00
 -1      1212 1.34629E+00
 -1      1213 1.06420E+00
 -1      1214 7.89842E-01
 -1      1215 6.14631E-01
 -1      1216 5.92009E-01
 -1      1217 6.49021E-01
 -1      1218 8.05710E-01
 -1      1219 9.67716E-01
 -1      1220 1.15633E+00
 -1      1221 1.45342E+00
 -1      1222 1.97650E+00
 -1      1223 2.47742E+00
 -1      1224 2.80260E+00
 -1      1225 2.99409E+00
 -1      1226 2.88771E+00
 -1      1227 2.39723E+00
 -1      1228 1.61724E+00
 -1      1229 1.03993E+00
 -1      1230 7.95110E-01
 -1      1231 7.95251E-01
 -1      1232 8.58793E-01
 -1      1233 8.54457E-01
 -1      1234 8.06185E-01
 -1      1235 7.02319E-01
 -1      1236 5.88745E-01
 -1      1237 4.80059E-01
 -1      1238 3.74224E-01
 -1      1239 2.85284E-01
 -1      1240 2.21017E-01
 -1      1241 1.71951E-01
 -1      1242 1.29771E-01
 -1      1243 9.49890E-02
 -1      1244 6.72665E-02
 -1      1245 4.86858E-02
 -1      1246 3.87740E-02
 -1      1247 3.19534E-02
 -1      1248 2.56538E-02
 -1      1249 2.04464E-02
 -1      1250 1.71818E-02
 -1      1251 1.49107E-02
 -1      1252 1.23680E-02
 -1      1253 9.68158E-03
 -1      1254 7.09083E-03
 -1      1255 5.06752E-03
 -1      1256 3.38844E-03
 -1      1257 1.52920E-03
 -1      1258 8.59257E-04
 -1      1259 1.09505E-03
 -1      1260 7.74693E-04
 -1      1261 4.28864E-04
 -1      1262 4.20580E-04
 -1      1263 5.66679E-04
 -1      1264 6.42410E-04
 -1      1265 6.72252E-04
 -1      1266 6.78295E-04
 -1      1267 6.75625E-04
 -1      1268 6.49053E-04
 -1      1269 5.76610E-04
 -1      1270 4.32095E-04
 -1      1271 4.44835E-04
 -1      1272 9.57927E-04
 -1      1273 1.62494E-03
 -1      1274 1.23321E-03
 -1      1275 2.46524E+01
 -1      1276 3.66477E+01
 -1      1277 4.86431E+01
 -1      1278 3.61951E+01
 -1      1279 1.76987E+01
 -1      1280 1.18100E+01
 -1      1281 1.19698E+01
 -1      1282 1.19467E+01
 -1      1283 1.18915E+01
 -1      1284 1.18593E+01
 -1      1285 1.35699E+01
 -1      1286 2.83842E+01
 -1      1287 4.14879E+01
 -1      1288 3.28219E+01
 -1      1289 2.41560E+01
 -1      1290 2.45614E+01
 -1      1291 2.56470E+01
 -1      1292 3.02137E+01
 -1      1293 3.41000E+01
 -1      1294 2.38050E+01
 -1      1295 1.32376E+01
 -1      1296 1.29651E+01
 -1      1297 1.25374E+01
 -1      1298 1.21096E+01
 -1      1299 1.20361E+01
 -1      1300 1.79697E+01
 -1      1301 2.73149E+01
 -1      1302 3.06530E+01
 -1      1303 2.76997E+01
 -1      1304 2.46994E+01
 -1      1305 1.26479E+01
 -1      1306 4.65723E+00
 -1      1307 9.22027E+00
 -1      1308 2.12018E+00
 -1      1309 2.94044E+00
 -1      1310 4.07583E+00
 -1      1311 1.49097E+00
 -1      1312 1.74756E+00
 -1      1313 1.98642E+00
 -1      1314 1.15285E+00
 -1      1315 1.29645E+00
 -1      1316 1.41928E+00
 -1      1317 9.21171E-01
 -1      1318 1.02638E+00
 -1      1319 1.09829E+00
 -1      1320 7.48714E-01
 -1      1321 8.28655E-01
 -1      1322 8.79307E-01
 -1      1323 6.21237E-01
 -1      1324 6.79410E-01
 -1      1325 7.17487E-01
 -1      1326 6.04507E-01
 -1      1327 5.86911E-01
 -1      1328 6.13857E-01
 -1      1329 7.20670E-01
 -1      1330 6.58373E-01
 -1      1331 6.33398E-01
 -1      1332 8.63820E-01
 -1      1333 7.89328E-01
 -1      1334 7.55923E-01
 -1      1335 1.06020E+00
 -1      1336 9.56073E-01
 -1      1337 9.16833E-01
 -1      1338 1.32528E+00
 -1      1339 1.18335E+00
 -1      1340 1.13224E+00
 -1      1341 1.76155E+00
 -1      1342 1.51588E+00
 -1      1343 1.44598E+00
 -1      1344 2.86746E+00
 -1      1345 2.11682E+00
 -1      1346 1.99185E+00
 -1      1347 6.02639E+00
 -1      1348 3.59223E+00
 -1      1349 3.07190E+00
 -1      1350 1.35949E+01
 -1      1351 1.09255E+01
 -1      1352 8.69581E+00
 -1      1353 1.35949E+01
 -1      1354 8.38273E+00
 -1      1355 4.11755E+00
 -1      1356 3.53623E+00
 -1      1357 2.95491E+00
 -1      1358 3.53623E+00
 -1      1359 2.40694E+00
 -1      1360 1.85897E+00
 -1      1361 2.40694E+00
 -1      1362 1.60087E+00
 -1      1363 1.34277E+00
 -1      1364 1.60087E+00
 -1      1365 1.15178E+00
 -1      1366 9.89049E-01
 -1      1367 1.15178E+00
 -1      1368 1.01732E+00
 -1      1369 1.05161E+00
 -1      1370 9.89049E-01
 -1      1371 1.08591E+00
 -1      1372 1.17619E+00
 -1      1373 1.05161E+00
 -1      1374 1.28108E+00
 -1      1375 1.48937E+00
 -1      1376 1.19081E+00
 -1      1377 1.68304E+00
 -1      1378 1.81795E+00
 -1      1379 1.48937E+00
 -1      1380 1.95285E+00
 -1      1381 1.95285E+00
 -1      1382 1.81795E+00
 -1      1383 1.91835E+00
 -1      1384 1.89644E+00
 -1      1385 1.91835E+00
 -1      1386 1.90902E+00
 -1      1387 1.93790E+00
 -1      1388 1.89644E+00
 -1      1389 1.96677E+00
 -1      1390 2.46343E+00
 -1      1391 1.93790E+00
 -1      1392 3.04155E+00
 -1      1393 4.14872E+00
 -1      1394 2.54489E+00
 -1      1395 5.17444E+00
 -1      1396 5.41098E+00
 -1      1397 4.14872E+00
 -1      1398 5.64752E+00
 -1      1399 5.66076E+00
 -1      1400 5.41098E+00
 -1      1401 5.67399E+00
 -1      1402 5.67399E+00
 -1      1403 5.66076E+00
 -1      1404 4.84263E+00
 -1      1405 4.01127E+00
 -1      1406 4.84263E+00
 -1      1407 3.18915E+00
 -1      1408 2.36704E+00
 -1      1409 3.18915E+00
 -1      1410 2.11279E+00
 -1      1411 1.92083E+00
 -1      1412 2.11279E+00
 -1      1413 1.98312E+00
 -1      1414 1.99756E+00
 -1      1415 1.92083E+00
 -1      1416 2.01200E+00
 -1      1417 2.01200E+00
 -1      1418 1.99756E+00
 -1      1419 1.95142E+00
 -1      1420 1.89085E+00
 -1      1421 1.95142E+00
 -1      1422 1.73604E+00
 -1      1423 1.58123E+00
 -1      1424 1.73604E+00
 -1      1425 1.45113E+00
 -1      1426 1.28628E+00
 -1      1427 1.45113E+00
 -1      1428 1.20068E+00
 -1      1429 1.06770E+00
 -1      1430 1.23542E+00
 -1      1431 9.65795E-01
 -1      1432 8.45846E-01
 -1      1433 1.04792E+00
 -1      1434 7.44403E-01
 -1      1435 6.82901E-01
 -1      1436 8.44565E-01
 -1      1437 5.92456E-01
 -1      1438 5.31956E-01
 -1      1439 6.52677E-01
 -1      1440 4.56620E-01
 -1      1441 4.02248E-01
 -1      1442 4.86895E-01
 -1      1443 3.48188E-01
 -1      1444 3.01975E-01
 -1      1445 3.57498E-01
 -1      1446 2.67285E-01
 -1      1447 2.29475E-01
 -1      1448 2.68749E-01
 -1      1449 2.00938E-01
 -1      1450 1.70864E-01
 -1      1451 2.05522E-01
 -1      1452 1.47995E-01
 -1      1453 1.25588E-01
 -1      1454 1.54116E-01
 -1      1455 1.09473E-01
 -1      1456 9.90183E-02
 -1      1457 1.15133E-01
 -1      1458 8.95636E-02
 -1      1459 8.01089E-02
 -1      1460 8.95636E-02
 -1      1461 7.18541E-02
 -1      1462 6.35992E-02
 -1      1463 7.18541E-02
 -1      1464 5.65773E-02
 -1      1465 4.95555E-02
 -1      1466 5.65773E-02
 -1      1467 4.37015E-02
 -1      1468 3.78476E-02
 -1      1469 4.37015E-02
 -1      1470 3.31900E-02
 -1      1471 2.83853E-02
 -1      1472 3.31900E-02
 -1      1473 2.50451E-02
 -1      1474 2.18073E-02
 -1      1475 2.51921E-02
 -1      1476 1.97528E-02
 -1      1477 1.77429E-02
 -1      1478 1.97974E-02
 -1      1479 1.58479E-02
 -1      1480 1.39528E-02
 -1      1481 1.58479E-02
 -1      1482 1.21883E-02
 -1      1483 1.04238E-02
 -1      1484 1.21883E-02
 -1      1485 8.99058E-03
 -1      1486 7.34685E-03
 -1      1487 8.99058E-03
 -1      1488 6.17931E-03
 -1      1489 5.22223E-03
 -1      1490 6.38977E-03
 -1      1491 4.80196E-03
 -1      1492 4.38168E-03
 -1      1493 4.80196E-03
 -1      1494 3.68774E-03
 -1      1495 2.99381E-03
 -1      1496 3.68774E-03
 -1      1497 2.44069E-03
 -1      1498 2.44069E-03
 -1      1499 3.29585E+00
 -1      1500 8.44540E+00
 -1      1501 8.44540E+00
 -1      1502 2.21234E+00
 -1      1503 2.75409E+00
 -1      1504 2.75409E+00
 -1      1505 1.49166E+00
 -1      1506 1.85200E+00
 -1      1507 1.85200E+00
 -1      1508 1.20092E+00
 -1      1509 1.34629E+00
 -1      1510 1.34629E+00
 -1      1511 9.27476E-01
 -1      1512 1.06420E+00
 -1      1513 1.06420E+00
 -1      1514 6.52207E-01
 -1      1515 7.89842E-01
 -1      1516 7.89842E-01
 -1      1517 5.77056E-01
 -1      1518 6.14631E-01
 -1      1519 6.14631E-01
 -1      1520 5.60676E-01
 -1      1521 5.45722E-01
 -1      1522 5.45722E-01
 -1      1523 6.49021E-01
 -1      1524 6.06962E-01
 -1      1525 5.60676E-01
 -1      1526 8.05710E-01
 -1      1527 6.91079E-01
 -1      1528 6.49021E-01
 -1      1529 9.67716E-01
 -1      1530 9.20341E-01
 -1      1531 8.05710E-01
 -1      1532 1.15633E+00
 -1      1533 1.01509E+00
 -1      1534 9.67716E-01
 -1      1535 1.45342E+00
 -1      1536 1.29757E+00
 -1      1537 1.15633E+00
 -1      1538 2.03863E+00
 -1      1539 1.67140E+00
 -1      1540 1.51555E+00
 -1      1541 2.47742E+00
 -1      1542 2.34372E+00
 -1      1543 2.03863E+00
 -1      1544 2.80260E+00
 -1      1545 2.61111E+00
 -1      1546 2.47742E+00
 -1      1547 2.99409E+00
 -1      1548 2.99409E+00
 -1      1549 2.80260E+00
 -1      1550 2.78134E+00
 -1      1551 2.88771E+00
 -1      1552 2.88771E+00
 -1      1553 2.01313E+00
 -1      1554 2.39723E+00
 -1      1555 2.39723E+00
 -1      1556 1.22135E+00
 -1      1557 1.61724E+00
 -1      1558 1.61724E+00
 -1      1559 8.58511E-01
 -1      1560 1.03993E+00
 -1      1561 1.03993E+00
 -1      1562 7.30102E-01
 -1      1563 7.93503E-01
 -1      1564 7.93503E-01
 -1      1565 7.95251E-01
 -1      1566 7.31709E-01
 -1      1567 7.30102E-01
 -1      1568 8.58793E-01
 -1      1569 8.58793E-01
 -1      1570 7.95251E-01
 -1      1571 8.50122E-01
 -1      1572 8.54457E-01
 -1      1573 8.54457E-01
 -1      1574 7.62249E-01
 -1      1575 8.06185E-01
 -1      1576 8.06185E-01
 -1      1577 6.42389E-01
 -1      1578 7.02319E-01
 -1      1579 7.02319E-01
 -1      1580 5.35817E-01
 -1      1581 5.89461E-01
 -1      1582 5.89461E-01
 -1      1583 4.32453E-01
 -1      1584 4.87495E-01
 -1      1585 4.88211E-01
 -1      1586 3.34487E-01
 -1      1587 3.85280E-01
 -1      1588 3.92716E-01
 -1      1589 2.54022E-01
 -1      1590 2.92168E-01
 -1      1591 3.03225E-01
 -1      1592 1.94896E-01
 -1      1593 2.21017E-01
 -1      1594 2.27901E-01
 -1      1595 1.49007E-01
 -1      1596 1.71951E-01
 -1      1597 1.71951E-01
 -1      1598 1.10534E-01
 -1      1599 1.29771E-01
 -1      1600 1.29771E-01
 -1      1601 8.02491E-02
 -1      1602 9.57943E-02
 -1      1603 9.57943E-02
 -1      1604 5.65814E-02
 -1      1605 6.87587E-02
 -1      1606 6.95640E-02
 -1      1607 4.22825E-02
 -1      1608 4.86858E-02
 -1      1609 5.01780E-02
 -1      1610 3.52655E-02
 -1      1611 3.87740E-02
 -1      1612 3.87740E-02
 -1      1613 2.86413E-02
 -1      1614 3.19534E-02
 -1      1615 3.19534E-02
 -1      1616 2.26662E-02
 -1      1617 2.56538E-02
 -1      1618 2.56538E-02
 -1      1619 1.82266E-02
 -1      1620 2.04464E-02
 -1      1621 2.04464E-02
 -1      1622 1.61370E-02
 -1      1623 1.71818E-02
 -1      1624 1.71818E-02
 -1      1625 1.36845E-02
 -1      1626 1.49107E-02
 -1      1627 1.49107E-02
 -1      1628 1.10516E-02
 -1      1629 1.23680E-02
 -1      1630 1.23680E-02
 -1      1631 8.31159E-03
 -1      1632 9.68158E-03
 -1      1633 9.68158E-03
 -1      1634 5.87008E-03
 -1      1635 7.09083E-03
 -1      1636 7.09083E-03
 -1      1637 4.26496E-03
 -1      1638 5.06752E-03
 -1      1639 5.06752E-03
 -1      1640 2.51192E-03
 -1      1641 3.38844E-03
 -1      1642 3.38844E-03
 -1      1643 1.84197E-03
 -1      1644 1.04558E-03
 -1      1645 1.12256E-03
 -1      1646 7.54005E-04
 -1      1647 9.97382E-04
 -1      1648 1.02489E-03
 -1      1649 4.68997E-04
 -1      1650 5.71450E-04
 -1      1651 7.94139E-04
 -1      1652 6.85486E-04
 -1      1653 5.91318E-04
 -1      1654 7.33904E-04
 -1      1655 8.41961E-04
 -1      1656 7.90029E-04
 -1      1657 9.60767E-04
 -1      1658 9.17101E-04
 -1      1659 8.93301E-04
 -1      1660 1.11665E-03
 -1      1661 9.42640E-04
 -1      1662 9.36597E-04
 -1      1663 1.18749E-03
 -1      1664 9.43801E-04
 -1      1665 9.43801E-04
 -1      1666 1.20815E-03
 -1      1667 9.41130E-04
 -1      1668 9.43801E-04
 -1      1669 1.20931E-03
 -1      1670 9.02707E-04
 -1      1671 9.26609E-04
 -1      1672 1.19478E-03
 -1      1673 8.09031E-04
 -1      1674 8.57572E-04
 -1      1675 1.13513E-03
 -1      1676 6.13554E-04
 -1      1677 7.09529E-04
 -1      1678 9.90490E-04
 -1      1679 6.08094E-04
 -1      1680 4.99379E-04
 -1      1681 7.76813E-04
 -1      1682 1.01247E-03
 -1      1683 6.08094E-04
 -1      1684 6.62639E-04
 -1      1685 1.84177E-03
 -1      1686 1.57914E-03
 -1      1687 1.22930E-03
 -1      1688 2.39489E-03
 -1      1689 2.67141E+01
 -1      1690 2.67141E+01
 -1      1691 3.94495E+01
 -1      1692 2.74541E+01
 -1      1693 4.86431E+01
 -1      1694 4.86431E+01
 -1      1695 2.45792E+01
 -1      1696 3.70271E+01
 -1      1697 1.16278E+01
 -1      1698 1.76762E+01
 -1      1699 1.18100E+01
 -1      1700 1.16502E+01
 -1      1701 1.19698E+01
 -1      1702 1.19698E+01
 -1      1703 1.19236E+01
 -1      1704 1.19467E+01
 -1      1705 1.18511E+01
 -1      1706 1.18833E+01
 -1      1707 1.18593E+01
 -1      1708 1.18593E+01
 -1      1709 1.32297E+01
 -1      1710 1.15191E+01
 -1      1711 2.90135E+01
 -1      1712 1.59098E+01
 -1      1713 1.38590E+01
 -1      1714 4.14879E+01
 -1      1715 4.14879E+01
 -1      1716 3.00882E+01
 -1      1717 3.87542E+01
 -1      1718 2.54387E+01
 -1      1719 2.54387E+01
 -1      1720 2.65698E+01
 -1      1721 2.61643E+01
 -1      1722 2.72500E+01
 -1      1723 2.65698E+01
 -1      1724 3.40904E+01
 -1      1725 3.02040E+01
 -1      1726 3.41000E+01
 -1      1727 3.41000E+01
 -1      1728 1.35100E+01
 -1      1729 2.38050E+01
 -1      1730 1.28166E+01
 -1      1731 1.30891E+01
 -1      1732 1.29651E+01
 -1      1733 1.29651E+01
 -1      1734 1.18288E+01
 -1      1735 1.22565E+01
 -1      1736 1.21096E+01
 -1      1737 1.21096E+01
 -1      1738 1.18605E+01
 -1      1739 1.19340E+01
 -1      1740 1.79697E+01
 -1      1741 1.19626E+01
 -1      1742 2.85590E+01
 -1      1743 2.52209E+01
 -1      1744 3.10456E+01
 -1      1745 3.10456E+01
 -1      1746 2.80923E+01
 -1      1747 3.10456E+01
 -1      1748 2.67141E+01
 -1      1749 2.67612E+01
 -1      1750 1.85083E+01
 -1      1751 3.70271E+01
 -1      1752 1.84197E-03
 -1      1753 1.79250E-03
 -1      1754 2.95159E+01
 -1      1755 3.94495E+01
 -1      1756 2.87759E+01
 -1      1757 1.16278E+01
 -1      1758 1.18100E+01
 -1      1759 1.19467E+01
 -1      1760 1.18833E+01
 -1      1761 1.18511E+01
 -1      1762 1.15191E+01
 -1      1763 3.87542E+01
 -1      1764 3.13710E+01
 -1      1765 2.74471E+01
 -1      1766 2.81727E+01
 -1      1767 3.11267E+01
 -1      1768 3.40904E+01
 -1      1769 2.38050E+01
 -1      1770 1.30891E+01
 -1      1771 1.28166E+01
 -1      1772 1.22565E+01
 -1      1773 1.18288E+01
 -1      1774 1.19340E+01
 -1      1775 1.18605E+01
 -1      1776 1.92138E+01
 -1      1777 2.89516E+01
 -1      1778 3.14381E+01
 -1      1779 3.01070E+01
 -1      1780 9.22027E+00
 -1      1781 2.90135E+01
 -1      1782 1.39800E+00
 -1      1783 1.77062E+00
 -1      1784 2.37951E+00
 -1      1785 4.09630E+00
 -1      1786 1.79109E+00
 -1      1787 9.13874E-01
 -1      1788 1.04035E+00
 -1      1789 7.43373E-01
 -1      1790 8.35890E-01
 -1      1791 7.77940E-01
 -1      1792 6.12735E-01
 -1      1793 6.82039E-01
 -1      1794 6.38621E-01
 -1      1795 5.28063E-01
 -1      1796 5.62389E-01
 -1      1797 5.26941E-01
 -1      1798 6.01322E-01
 -1      1799 5.47455E-01
 -1      1800 4.95988E-01
 -1      1801 7.20247E-01
 -1      1802 6.51589E-01
 -1      1803 5.65647E-01
 -1      1804 8.74009E-01
 -1      1805 7.81757E-01
 -1      1806 6.77424E-01
 -1      1807 1.06610E+00
 -1      1808 9.42949E-01
 -1      1809 8.07873E-01
 -1      1810 1.33765E+00
 -1      1811 1.14705E+00
 -1      1812 9.57763E-01
 -1      1813 1.80626E+00
 -1      1814 1.45098E+00
 -1      1815 1.15205E+00
 -1      1816 2.59014E+00
 -1      1817 1.86536E+00
 -1      1818 1.32449E+00
 -1      1819 7.76640E+00
 -1      1820 2.86726E+00
 -1      1821 1.66073E+00
 -1      1822 2.61685E+00
 -1      1823 4.95509E+00
 -1      1824 1.89820E+00
 -1      1825 2.43996E+00
 -1      1826 1.76096E+00
 -1      1827 2.81551E+01
 -1      1828 1.56807E+01
 -1      1829 3.25877E+00
 -1      1830 2.13294E+00
 -1      1831 1.58497E+00
 -1      1832 1.31301E+00
 -1      1833 1.05492E+00
 -1      1834 1.03901E+00
 -1      1835 9.61511E-01
 -1      1836 7.70514E-01
 -1      1837 6.73655E-01
 -1      1838 8.16613E-01
 -1      1839 8.44883E-01
 -1      1840 6.26349E-01
 -1      1841 9.57040E-01
 -1      1842 9.91336E-01
 -1      1843 7.84605E-01
 -1      1844 1.08767E+00
 -1      1845 1.19257E+00
 -1      1846 9.93095E-01
 -1      1847 1.27675E+00
 -1      1848 1.47042E+00
 -1      1849 1.17361E+00
 -1      1850 1.55759E+00
 -1      1851 1.69249E+00
 -1      1852 1.34496E+00
 -1      1853 1.71333E+00
 -1      1854 1.67883E+00
 -1      1855 1.45297E+00
 -1      1856 1.66920E+00
 -1      1857 1.68179E+00
 -1      1858 1.46418E+00
 -1      1859 1.76787E+00
 -1      1860 1.79675E+00
 -1      1861 1.54064E+00
 -1      1862 2.11767E+00
 -1      1863 2.69579E+00
 -1      1864 1.94765E+00
 -1      1865 2.93582E+00
 -1      1866 3.96154E+00
 -1      1867 2.50861E+00
 -1      1868 4.43869E+00
 -1      1869 4.67523E+00
 -1      1870 3.22579E+00
 -1      1871 4.71947E+00
 -1      1872 4.73271E+00
 -1      1873 3.74718E+00
 -1      1874 4.38672E+00
 -1      1875 3.55536E+00
 -1      1876 3.44544E+00
 -1      1877 3.16417E+00
 -1      1878 2.34206E+00
 -1      1879 2.70826E+00
 -1      1880 2.01456E+00
 -1      1881 1.76032E+00
 -1      1882 1.98958E+00
 -1      1883 1.73206E+00
 -1      1884 1.79435E+00
 -1      1885 1.63384E+00
 -1      1886 1.77380E+00
 -1      1887 1.78824E+00
 -1      1888 1.58503E+00
 -1      1889 1.79514E+00
 -1      1890 1.73456E+00
 -1      1891 1.57138E+00
 -1      1892 1.69824E+00
 -1      1893 1.54343E+00
 -1      1894 1.54195E+00
 -1      1895 1.46647E+00
 -1      1896 1.33636E+00
 -1      1897 1.42866E+00
 -1      1898 1.27178E+00
 -1      1899 1.18618E+00
 -1      1900 1.28711E+00
 -1      1901 1.10013E+00
 -1      1902 9.98218E-01
 -1      1903 1.13648E+00
 -1      1904 9.03065E-01
 -1      1905 8.01621E-01
 -1      1906 9.55274E-01
 -1      1907 7.10896E-01
 -1      1908 6.20451E-01
 -1      1909 7.69396E-01
 -1      1910 5.40898E-01
 -1      1911 4.65562E-01
 -1      1912 5.99117E-01
 -1      1913 3.99478E-01
 -1      1914 3.45417E-01
 -1      1915 4.53481E-01
 -1      1916 2.92578E-01
 -1      1917 2.57888E-01
 -1      1918 3.34557E-01
 -1      1919 2.16855E-01
 -1      1920 1.88319E-01
 -1      1921 2.40684E-01
 -1      1922 1.57219E-01
 -1      1923 1.34350E-01
 -1      1924 1.68552E-01
 -1      1925 1.13302E-01
 -1      1926 9.71879E-02
 -1      1927 1.16405E-01
 -1      1928 8.35089E-02
 -1      1929 7.40542E-02
 -1      1930 8.16785E-02
 -1      1931 6.47705E-02
 -1      1932 5.65156E-02
 -1      1933 5.87157E-02
 -1      1934 5.15650E-02
 -1      1935 4.45431E-02
 -1      1936 4.44814E-02
 -1      1937 4.08652E-02
 -1      1938 3.50113E-02
 -1      1939 3.58529E-02
 -1      1940 3.17039E-02
 -1      1941 2.70462E-02
 -1      1942 2.88676E-02
 -1      1943 2.41501E-02
 -1      1944 2.08099E-02
 -1      1945 2.26640E-02
 -1      1946 1.83208E-02
 -1      1947 1.62663E-02
 -1      1948 1.72788E-02
 -1      1949 1.48318E-02
 -1      1950 1.29367E-02
 -1      1951 1.33552E-02
 -1      1952 1.17751E-02
 -1      1953 1.00106E-02
 -1      1954 1.07590E-02
 -1      1955 8.83174E-03
 -1      1956 7.39847E-03
 -1      1957 8.41852E-03
 -1      1958 6.38690E-03
 -1      1959 5.21936E-03
 -1      1960 6.22806E-03
 -1      1961 4.37817E-03
 -1      1962 3.95790E-03
 -1      1963 4.37530E-03
 -1      1964 3.51605E-03
 -1      1965 2.82211E-03
 -1      1966 2.22320E-03
 -1      1967 3.09227E-03
 -1      1968 1.20155E+00
 -1      1969 1.56189E+00
 -1      1970 1.24775E+00
 -1      1971 9.16085E-01
 -1      1972 1.06146E+00
 -1      1973 7.71344E-01
 -1      1974 7.40753E-01
 -1      1975 8.77475E-01
 -1      1976 5.92639E-01
 -1      1977 5.44452E-01
 -1      1978 6.82086E-01
 -1      1979 4.95363E-01
 -1      1980 5.01747E-01
 -1      1981 5.39323E-01
 -1      1982 4.31567E-01
 -1      1983 4.62950E-01
 -1      1984 4.94283E-01
 -1      1985 4.18974E-01
 -1      1986 4.79603E-01
 -1      1987 4.33317E-01
 -1      1988 3.81877E-01
 -1      1989 5.08493E-01
 -1      1990 4.66434E-01
 -1      1991 3.39075E-01
 -1      1992 7.54968E-01
 -1      1993 6.40338E-01
 -1      1994 4.57751E-01
 -1      1995 9.94320E-01
 -1      1996 9.46945E-01
 -1      1997 7.81573E-01
 -1      1998 1.35231E+00
 -1      1999 1.21107E+00
 -1      2000 1.19030E+00
 -1      2001 1.67979E+00
 -1      2002 1.46180E+00
 -1      2003 1.51655E+00
 -1      2004 1.98488E+00
 -1      2005 1.67979E+00
 -1      2006 1.62604E+00
 -1      2007 2.10517E+00
 -1      2008 1.97147E+00
 -1      2009 1.61263E+00
 -1      2010 2.38101E+00
 -1      2011 2.18952E+00
 -1      2012 1.68357E+00
 -1      2013 2.29817E+00
 -1      2014 2.40455E+00
 -1      2015 1.79147E+00
 -1      2016 1.74677E+00
 -1      2017 2.13088E+00
 -1      2018 1.64772E+00
 -1      2019 1.11548E+00
 -1      2020 1.51137E+00
 -1      2021 1.24502E+00
 -1      2022 7.48719E-01
 -1      2023 9.30138E-01
 -1      2024 8.24273E-01
 -1      2025 5.55132E-01
 -1      2026 6.20140E-01
 -1      2027 5.10348E-01
 -1      2028 6.34786E-01
 -1      2029 6.33179E-01
 -1      2030 4.59817E-01
 -1      2031 7.26344E-01
 -1      2032 6.62802E-01
 -1      2033 5.65880E-01
 -1      2034 7.42134E-01
 -1      2035 7.46470E-01
 -1      2036 6.14021E-01
 -1      2037 6.86005E-01
 -1      2038 7.29941E-01
 -1      2039 6.21954E-01
 -1      2040 5.94248E-01
 -1      2041 6.54178E-01
 -1      2042 5.77934E-01
 -1      2043 5.10720E-01
 -1      2044 5.63648E-01
 -1      2045 5.15507E-01
 -1      2046 4.24059E-01
 -1      2047 4.72381E-01
 -1      2048 4.46568E-01
 -1      2049 3.37250E-01
 -1      2050 3.84423E-01
 -1      2051 3.68593E-01
 -1      2052 2.57977E-01
 -1      2053 3.00296E-01
 -1      2054 2.92002E-01
 -1      2055 1.92781E-01
 -1      2056 2.25786E-01
 -1      2057 2.22857E-01
 -1      2058 1.46739E-01
 -1      2059 1.69683E-01
 -1      2060 1.67568E-01
 -1      2061 1.10144E-01
 -1      2062 1.29381E-01
 -1      2063 1.27112E-01
 -1      2064 8.10543E-02
 -1      2065 9.57943E-02
 -1      2066 9.54044E-02
 -1      2067 5.80736E-02
 -1      2068 6.95640E-02
 -1      2069 6.95640E-02
 -1      2070 4.12294E-02
 -1      2071 4.91249E-02
 -1      2072 4.91249E-02
 -1      2073 3.09276E-02
 -1      2074 3.44361E-02
 -1      2075 3.33830E-02
 -1      2076 2.56816E-02
 -1      2077 2.89937E-02
 -1      2078 2.46558E-02
 -1      2079 2.08094E-02
 -1      2080 2.37970E-02
 -1      2081 2.08373E-02
 -1      2082 1.67474E-02
 -1      2083 1.89672E-02
 -1      2084 1.71105E-02
 -1      2085 1.39839E-02
 -1      2086 1.50287E-02
 -1      2087 1.35495E-02
 -1      2088 1.13753E-02
 -1      2089 1.26016E-02
 -1      2090 1.04485E-02
 -1      2091 9.41321E-03
 -1      2092 1.07297E-02
 -1      2093 8.42054E-03
 -1      2094 7.25476E-03
 -1      2095 8.62474E-03
 -1      2096 6.98639E-03
 -1      2097 5.34661E-03
 -1      2098 6.56737E-03
 -1      2099 5.51054E-03
 -1      2100 3.86381E-03
 -1      2101 4.66637E-03
 -1      2102 4.14290E-03
 -1      2103 2.47085E-03
 -1      2104 3.34737E-03
 -1      2105 2.94622E-03
 -1      2106 1.75144E-03
 -1      2107 1.01498E-03
 -1      2108 8.92654E-04
 -1      2109 1.26028E-03
 -1      2110 1.44284E-03
 -1      2111 1.54136E-03
 -1      2112 1.44284E-03
 -1      2113 1.49104E-03
 -1      2114 2.16939E-03
 -1      2115 1.90899E-03
 -1      2116 1.22350E-03
 -1      2117 1.11896E-03
 -1      2118 1.27771E-03
 -1      2119 1.32687E-03
 -1      2120 1.27553E-03
 -1      2121 1.43372E-03
 -1      2122 1.36193E-03
 -1      2123 1.34243E-03
 -1      2124 1.50131E-03
 -1      2125 1.36309E-03
 -1      2126 1.36193E-03
 -1      2127 1.51688E-03
 -1      2128 1.36633E-03
 -1      2129 1.36633E-03
 -1      2130 1.52011E-03
 -1      2131 1.35181E-03
 -1      2132 1.36633E-03
 -1      2133 1.52335E-03
 -1      2134 1.30315E-03
 -1      2135 1.34828E-03
 -1      2136 1.51982E-03
 -1      2137 1.15787E-03
 -1      2138 1.25737E-03
 -1      2139 1.47052E-03
 -1      2140 9.32179E-04
 -1      2141 1.04635E-03
 -1      2142 1.31323E-03
 -1      2143 1.39286E-03
 -1      2144 1.39286E-03
 -1      2145 1.66240E-03
 -1      2146 3.94495E+01
 -1      2147 3.02559E+01
 -1      2148 3.03793E+01
 -1      2149 3.03793E+01
 -1      2150 2.90036E+01
 -1      2151 2.82636E+01
 -1      2152 2.90036E+01
 -1      2153 2.15323E+01
 -1      2154 3.31483E+01
 -1      2155 1.20549E+01
 -1      2156 9.37481E+00
 -1      2157 2.65475E+01
 -1      2158 3.11970E+01
 -1      2159 1.10295E+01
 -1      2160 1.79324E+01
 -1      2161 1.17671E+00
 -1      2162 1.37123E+00
 -1      2163 1.15543E+00
 -1      2164 9.92288E-01
 -1      2165 1.06174E+01
 -1      2166 1.04576E+01
 -1      2167 1.11988E+01
 -1      2168 1.12219E+01
 -1      2169 9.86946E+00
 -1      2170 1.15696E+01
 -1      2171 1.16100E+01
 -1      2172 1.11109E+01
 -1      2173 1.11027E+01
 -1      2174 1.08294E+01
 -1      2175 9.40572E+00
 -1      2176 9.74596E+00
 -1      2177 3.01122E+01
 -1      2178 3.28459E+01
 -1      2179 3.28815E+01
 -1      2180 3.21559E+01
 -1      2181 3.28815E+01
 -1      2182 3.28815E+01
 -1      2183 2.94154E+01
 -1      2184 2.64613E+01
 -1      2185 2.78536E+01
 -1      2186 2.78440E+01
 -1      2187 2.31785E+01
 -1      2188 1.27614E+01
 -1      2189 2.30564E+01
 -1      2190 9.94033E+00
 -1      2191 1.03613E+01
 -1      2192 1.11819E+01
 -1      2193 1.10334E+01
 -1      2194 1.15480E+01
 -1      2195 1.22565E+01
 -1      2196 1.15640E+01
 -1      2197 1.12832E+01
 -1      2198 1.12832E+01
 -1      2199 1.08296E+01
 -1      2200 1.10052E+01
 -1      2201 9.73832E+00
 -1      2202 9.63626E+00
 -1      2203 8.70739E+00
 -1      2204 1.82601E+01
 -1      2205 1.10090E+01
 -1      2206 2.44616E+01
 -1      2207 2.19750E+01
 -1      2208 3.14381E+01
 -1      2209 3.14381E+01
 -1      2210 3.03793E+01
 -1      2211 3.17104E+01
 -1      2212 3.17104E+01
 -1      2213 9.19062E+00
 -1      2214 9.16819E+00
 -1      2215 8.59231E+00
 -1      2216 1.11966E+01
 -1      2217 1.95132E+01
 -1      2218 2.67744E+00
 -1      2219 1.85547E+00
 -1      2220 2.98670E+01
 -1      2221 2.39547E+01
 -1      2222 1.95952E-03
 -1      2223 3.19827E+01
 -1      2224 1.40535E+01
 -1      2225 7.60168E+00
 -1      2226 2.52887E+01
 -1      2227 2.44616E+01
 -1      2228 8.78468E+00
 -1      2229 1.04596E+01
 -1      2230 1.04733E+01
 -1      2231 8.30558E+00
 -1      2232 1.68099E+01
 -1      2233 3.11701E+01
 -1      2234 3.75903E+01
 -1      2235 8.99752E+00
 -1      2236 3.19819E+01
 -1      2237 1.08851E+01
 -1      2238 7.99801E+00
 -1      2239 9.61265E+00
 -1      2240 1.37702E+01
 -1      2241 8.40882E-01
 -1      2242 1.17720E+00
 -1      2243 5.31364E-01
 -1      2244 5.92698E-01
 -1      2245 6.36909E-01
 -1      2246 7.14894E-01
 -1      2247 5.29652E-01
 -1      2248 4.31790E-01
 -1      2249 4.12398E-01
 -1      2250 5.26932E-01
 -1      2251 4.76665E-01
 -1      2252 3.93075E-01
 -1      2253 6.34945E-01
 -1      2254 5.73435E-01
 -1      2255 4.84454E-01
 -1      2256 7.41074E-01
 -1      2257 6.72134E-01
 -1      2258 5.68146E-01
 -1      2259 8.38885E-01
 -1      2260 7.57935E-01
 -1      2261 6.22196E-01
 -1      2262 1.08394E+00
 -1      2263 9.70603E-01
 -1      2264 7.70775E-01
 -1      2265 1.03970E+00
 -1      2266 7.67740E-01
 -1      2267 1.77105E+01
 -1      2268 1.30197E+01
 -1      2269 5.33621E-01
 -1      2270 6.73716E-01
 -1      2271 6.03159E-01
 -1      2272 1.76431E+00
 -1      2273 1.21981E+00
 -1      2274 9.48536E-01
 -1      2275 1.15543E+00
 -1      2276 6.62069E-01
 -1      2277 5.68664E-01
 -1      2278 6.62750E-01
 -1      2279 6.07296E-01
 -1      2280 6.53395E-01
 -1      2281 5.95711E-01
 -1      2282 7.53505E-01
 -1      2283 8.65662E-01
 -1      2284 7.34452E-01
 -1      2285 9.77240E-01
 -1      2286 1.07357E+00
 -1      2287 9.46140E-01
 -1      2288 1.17719E+00
 -1      2289 1.26137E+00
 -1      2290 1.16133E+00
 -1      2291 1.36819E+00
 -1      2292 1.45536E+00
 -1      2293 1.37177E+00
 -1      2294 1.63685E+00
 -1      2295 1.65769E+00
 -1      2296 1.66008E+00
 -1      2297 1.84912E+00
 -1      2298 1.83949E+00
 -1      2299 2.03299E+00
 -1      2300 1.98506E+00
 -1      2301 2.07114E+00
 -1      2302 2.36999E+00
 -1      2303 2.28483E+00
 -1      2304 2.60576E+00
 -1      2305 2.72925E+00
 -1      2306 3.20121E+00
 -1      2307 3.44124E+00
 -1      2308 3.53839E+00
 -1      2309 3.89400E+00
 -1      2310 4.37114E+00
 -1      2311 4.58660E+00
 -1      2312 4.97835E+00
 -1      2313 5.02260E+00
 -1      2314 5.64656E+00
 -1      2315 5.02979E+00
 -1      2316 4.68380E+00
 -1      2317 6.26096E+00
 -1      2318 2.95879E+00
 -1      2319 2.56760E+00
 -1      2320 4.54314E+00
 -1      2321 2.62502E+00
 -1      2322 2.29753E+00
 -1      2323 2.87554E+00
 -1      2324 2.29623E+00
 -1      2325 2.26798E+00
 -1      2326 2.93166E+00
 -1      2327 1.89566E+00
 -1      2328 1.87511E+00
 -1      2329 2.55805E+00
 -1      2330 1.71076E+00
 -1      2331 1.71766E+00
 -1      2332 2.02139E+00
 -1      2333 1.57828E+00
 -1      2334 1.54195E+00
 -1      2335 1.71766E+00
 -1      2336 1.48293E+00
 -1      2337 1.40597E+00
 -1      2338 1.51926E+00
 -1      2339 1.32045E+00
 -1      2340 1.25586E+00
 -1      2341 1.37472E+00
 -1      2342 1.15393E+00
 -1      2343 1.06788E+00
 -1      2344 1.18727E+00
 -1      2345 9.64056E-01
 -1      2346 8.68903E-01
 -1      2347 9.81510E-01
 -1      2348 7.77074E-01
 -1      2349 6.86349E-01
 -1      2350 7.85856E-01
 -1      2351 6.08260E-01
 -1      2352 5.28708E-01
 -1      2353 6.15939E-01
 -1      2354 4.63844E-01
 -1      2355 3.97760E-01
 -1      2356 4.72987E-01
 -1      2357 3.45397E-01
 -1      2358 2.92558E-01
 -1      2359 3.55761E-01
 -1      2360 2.51269E-01
 -1      2361 2.10236E-01
 -1      2362 2.62109E-01
 -1      2363 1.79141E-01
 -1      2364 1.48042E-01
 -1      2365 1.89725E-01
 -1      2366 1.24924E-01
 -1      2367 1.03876E-01
 -1      2368 1.35513E-01
 -1      2369 8.64684E-02
 -1      2370 7.27894E-02
 -1      2371 9.49869E-02
 -1      2372 5.99140E-02
 -1      2373 5.06303E-02
 -1      2374 6.47039E-02
 -1      2375 4.22724E-02
 -1      2376 3.73217E-02
 -1      2377 4.34707E-02
 -1      2378 3.18878E-02
 -1      2379 2.82100E-02
 -1      2380 2.96788E-02
 -1      2381 2.55494E-02
 -1      2382 2.22419E-02
 -1      2383 2.15843E-02
 -1      2384 2.08518E-02
 -1      2385 1.79556E-02
 -1      2386 1.75336E-02
 -1      2387 1.65092E-02
 -1      2388 1.40201E-02
 -1      2389 1.46969E-02
 -1      2390 1.26152E-02
 -1      2391 1.11806E-02
 -1      2392 1.18455E-02
 -1      2393 9.87573E-03
 -1      2394 8.71412E-03
 -1      2395 9.13569E-03
 -1      2396 7.92675E-03
 -1      2397 6.74786E-03
 -1      2398 7.04345E-03
 -1      2399 6.01553E-03
 -1      2400 5.00395E-03
 -1      2401 5.52375E-03
 -1      2402 4.33780E-03
 -1      2403 3.49661E-03
 -1      2404 4.12527E-03
 -1      2405 2.48408E+01
 -1      2406 2.35885E+01
 -1      2407 3.83922E-01
 -1      2408 4.42588E-01
 -1      2409 4.07364E-01
 -1      2410 4.12493E-01
 -1      2411 3.59718E-01
 -1      2412 4.20430E-01
 -1      2413 4.27894E-01
 -1      2414 4.08820E-01
 -1      2415 4.17450E-01
 -1      2416 4.47082E-01
 -1      2417 4.56002E-01
 -1      2418 4.59042E-01
 -1      2419 4.72211E-01
 -1      2420 5.37416E-01
 -1      2421 6.24203E-01
 -1      2422 4.92358E-01
 -1      2423 6.25494E-01
 -1      2424 9.57429E-01
 -1      2425 7.65452E-01
 -1      2426 8.00059E-01
 -1      2427 1.30930E+00
 -1      2428 1.09255E+00
 -1      2429 1.07643E+00
 -1      2430 1.52463E+00
 -1      2431 1.41514E+00
 -1      2432 1.31739E+00
 -1      2433 1.62604E+00
 -1      2434 1.62604E+00
 -1      2435 1.52463E+00
 -1      2436 1.60548E+00
 -1      2437 1.61889E+00
 -1      2438 1.61889E+00
 -1      2439 1.70208E+00
 -1      2440 1.61773E+00
 -1      2441 1.62399E+00
 -1      2442 1.71239E+00
 -1      2443 1.68884E+00
 -1      2444 1.62300E+00
 -1      2445 1.43174E+00
 -1      2446 1.59904E+00
 -1      2447 1.49641E+00
 -1      2448 1.06164E+00
 -1      2449 1.29704E+00
 -1      2450 1.24837E+00
 -1      2451 7.16105E-01
 -1      2452 9.01451E-01
 -1      2453 9.53476E-01
 -1      2454 5.15392E-01
 -1      2455 6.43971E-01
 -1      2456 7.21148E-01
 -1      2457 5.55175E-01
 -1      2458 4.77128E-01
 -1      2459 6.10751E-01
 -1      2460 5.93451E-01
 -1      2461 5.65435E-01
 -1      2462 5.82746E-01
 -1      2463 6.20930E-01
 -1      2464 6.00805E-01
 -1      2465 6.00360E-01
 -1      2466 5.93059E-01
 -1      2467 6.05252E-01
 -1      2468 5.92035E-01
 -1      2469 5.41540E-01
 -1      2470 5.73367E-01
 -1      2471 5.56665E-01
 -1      2472 4.82539E-01
 -1      2473 5.13139E-01
 -1      2474 5.08572E-01
 -1      2475 4.12433E-01
 -1      2476 4.50772E-01
 -1      2477 4.48404E-01
 -1      2478 3.37460E-01
 -1      2479 3.77096E-01
 -1      2480 3.81301E-01
 -1      2481 2.65906E-01
 -1      2482 3.02861E-01
 -1      2483 3.11364E-01
 -1      2484 2.02385E-01
 -1      2485 2.34575E-01
 -1      2486 2.45434E-01
 -1      2487 1.52431E-01
 -1      2488 1.75530E-01
 -1      2489 1.87248E-01
 -1      2490 1.13011E-01
 -1      2491 1.30369E-01
 -1      2492 1.38330E-01
 -1      2493 8.11666E-02
 -1      2494 9.55167E-02
 -1      2495 9.87735E-02
 -1      2496 5.62379E-02
 -1      2497 6.77283E-02
 -1      2498 6.78406E-02
 -1      2499 3.92220E-02
 -1      2500 4.81706E-02
 -1      2501 4.63350E-02
 -1      2502 2.68038E-02
 -1      2503 3.35971E-02
 -1      2504 3.26428E-02
 -1      2505 2.27218E-02
 -1      2506 2.46558E-02
 -1      2507 2.48699E-02
 -1      2508 1.89527E-02
 -1      2509 2.08373E-02
 -1      2510 2.08373E-02
 -1      2511 1.52682E-02
 -1      2512 1.71105E-02
 -1      2513 1.71105E-02
 -1      2514 1.18308E-02
 -1      2515 1.35495E-02
 -1      2516 1.35495E-02
 -1      2517 9.04949E-03
 -1      2518 1.04318E-02
 -1      2519 1.04318E-02
 -1      2520 7.60020E-03
 -1      2521 8.24587E-03
 -1      2522 8.22915E-03
 -1      2523 5.93365E-03
 -1      2524 6.72213E-03
 -1      2525 6.54746E-03
 -1      2526 4.46329E-03
 -1      2527 5.15068E-03
 -1      2528 4.88641E-03
 -1      2529 3.15519E-03
 -1      2530 3.83543E-03
 -1      2531 3.47558E-03
 -1      2532 2.68582E-03
 -1      2533 1.62733E-03
 -1      2534 1.57531E-03
 -1      2535 1.61727E-03
 -1      2536 1.60171E-03
 -1      2537 1.74329E-03
 -1      2538 1.85759E-03
 -1      2539 2.22522E-03
 -1      2540 1.62367E-03
 -1      2541 1.51968E-03
 -1      2542 2.20354E-03
 -1      2543 1.81727E-03
 -1      2544 1.61128E-03
 -1      2545 1.61128E-03
 -1      2546 1.71168E-03
 -1      2547 1.58616E-03
 -1      2548 1.58292E-03
 -1      2549 1.67733E-03
 -1      2550 1.62328E-03
 -1      2551 1.62328E-03
 -1      2552 1.68610E-03
 -1      2553 1.65356E-03
 -1      2554 1.65708E-03
 -1      2555 1.75702E-03
 -1      2556 1.60778E-03
 -1      2557 1.65356E-03
 -1      2558 1.79082E-03
 -1      2559 1.46946E-03
 -1      2560 1.58097E-03
 -1      2561 1.76401E-03
 -1      2562 1.90687E-03
 -1      2563 1.44619E-03
 -1      2564 1.71392E-03
 -1      2565 2.38675E-03
 -1      2566 3.19827E+01
 -1      2567 3.19827E+01
 -1      2568 4.32975E-01
 -1      2569 4.71584E-01
 -1      2570 3.21533E-01
 -1      2571 1.56451E+01
 -1      2572 2.19464E+01
 -1      2573 9.62142E+00
 -1      2574 1.32214E+01
 -1      2575 6.13646E+00
 -1      2576 7.99773E+00
 -1      2577 6.33232E+00
 -1      2578 6.36323E+00
 -1      2579 9.15950E+00
 -1      2580 8.08483E+00
 -1      2581 2.47499E+01
 -1      2582 3.11701E+01
 -1      2583 2.26446E+01
 -1      2584 1.56681E+01
 -1      2585 1.12895E+01
 -1      2586 7.66373E+00
 -1      2587 4.32908E-01
 -1      2588 4.83254E-01
 -1      2589 4.37331E-01
 -1      2590 3.68711E-01
 -1      2591 8.76406E+00
 -1      2592 8.15959E+00
 -1      2593 3.19819E+01
 -1      2594 2.63735E+01
 -1      2595 9.29027E+00
 -1      2596 9.75722E+00
 -1      2597 2.17551E+01
 -1      2598 2.06703E+01
 -1      2599 1.41768E+01
 -1      2600 2.82133E+01
 -1      2601 3.03290E+01
 -1      2602 2.40505E+01
 -1      2603 9.95779E+00
 -1      2604 9.54657E+00
 -1      2605 7.83670E+00
 -1      2606 6.73238E+00
 -1      2607 5.46540E+00
 -1      2608 4.87083E+00
 -1      2609 6.98250E+00
 -1      2610 8.34743E+00
 -1      2611 7.27525E+00
 -1      2612 5.71314E+00
 -1      2613 3.75903E+01
 -1      2614 3.75903E+01
 -1      2615 3.19819E+01
 -1      2616 1.80604E+01
 -1      2617 1.96318E+01
 -1      2618 1.96318E+01
 -1      2619 1.43394E+01
 -1      2620 1.06245E+01
 -1      2621 1.13132E+01
 -1      2622 1.61103E+01
 -1      2623 7.21900E+00
 -1      2624 6.12594E+00
 -1      2625 9.73176E+00
 -1      2626 9.99652E+00
 -1      2627 8.57412E+00
 -1      2628 9.13297E+00
 -1      2629 6.03603E+00
 -1      2630 7.22937E+00
 -1      2631 7.83711E+00
 -1      2632 6.56648E+00
 -1      2633 2.61111E+01
 -1      2634 2.58388E+01
 -1      2635 1.70453E+01
 -1      2636 2.61111E+01
 -1      2637 7.30462E+00
 -1      2638 9.70475E+00
 -1      2639 1.33687E+00
 -1      2640 1.51377E+00
 -1      2641 1.23664E+00
 -1      2642 9.30005E-01
 -1      2643 5.62698E+00
 -1      2644 8.51256E-01
 -1      2645 9.92288E-01
 -1      2646 1.12865E+00
 -1      2647 1.17754E+00
 -1      2648 9.48685E+00
 -1      2649 1.12865E+00
 -1      2650 8.40632E+00
 -1      2651 9.00515E+00
 -1      2652 1.65313E+01
 -1      2653 2.37835E-03
 -1      2654 7.16558E+00
 -1      2655 2.37835E-03
 -1      2656 5.08847E+00
 -1      2657 2.43518E-03
 -1      2658 2.17151E-03
 -1      2659 1.95530E-03
 -1      2660 2.87703E-03
 -1      2661 5.90276E+00
 -1      2662 7.84629E+00
 -1      2663 3.03290E+01
 -1      2664 3.73956E-01
 -1      2665 1.12131E+01
 -1      2666 5.90519E+00
 -1      2667 2.13532E+01
 -1      2668 1.67348E+01
 -1      2669 2.13532E+01
 -1      2670 3.11701E+01
 -1      2671 2.69458E-03
 -1      2672 6.21804E+00
 -1      2673 7.60805E+00
 -1      2674 6.42528E+00
 -1      2675 1.25224E+01
 -1      2676 9.96088E-01
 -1      2677 2.83953E-03
 -1      2678 8.41865E+00
 -1      2679 1.63318E+01
 -1      2680 1.27850E+01
 -1      2681 1.08350E+01
 -1      2682 4.62597E-01
 -1      2683 4.16093E-01
 -1      2684 3.66173E-01
 -1      2685 3.21298E-01
 -1      2686 3.44316E-01
 -1      2687 5.91212E-01
 -1      2688 5.74351E-01
 -1      2689 7.44951E-01
 -1      2690 6.13234E-01
 -1      2691 5.65388E-01
 -1      2692 6.96100E+00
 -1      2693 6.17849E+00
 -1      2694 2.90166E-03
 -1      2695 2.28207E-03
 -1      2696 2.01743E-03
 -1      2697 7.25376E-01
 -1      2698 6.19705E-01
 -1      2699 5.15464E-01
 -1      2700 6.82630E-01
 -1      2701 4.89440E-01
 -1      2702 4.68910E-01
 -1      2703 6.00337E-01
 -1      2704 6.38968E-01
 -1      2705 6.62963E-01
 -1      2706 6.93378E-01
 -1      2707 7.93489E-01
 -1      2708 6.98004E-01
 -1      2709 9.05500E-01
 -1      2710 1.01708E+00
 -1      2711 8.64426E-01
 -1      2712 1.16709E+00
 -1      2713 1.27071E+00
 -1      2714 1.12645E+00
 -1      2715 1.45542E+00
 -1      2716 1.56224E+00
 -1      2717 1.46118E+00
 -1      2718 1.76411E+00
 -1      2719 1.94560E+00
 -1      2720 1.84776E+00
 -1      2721 2.22773E+00
 -1      2722 2.41916E+00
 -1      2723 2.33176E+00
 -1      2724 3.00840E+00
 -1      2725 3.15397E+00
 -1      2726 3.20314E+00
 -1      2727 3.33669E+00
 -1      2728 3.55038E+00
 -1      2729 3.97510E+00
 -1      2730 5.16983E+00
 -1      2731 5.76528E+00
 -1      2732 5.90519E+00
 -1      2733 6.51240E+00
 -1      2734 7.34942E+00
 -1      2735 7.35661E+00
 -1      2736 3.36037E+00
 -1      2737 3.41779E+00
 -1      2738 4.50505E+00
 -1      2739 4.50376E+00
 -1      2740 4.98988E+00
 -1      2741 3.29006E+00
 -1      2742 2.91775E+00
 -1      2743 4.86345E+00
 -1      2744 2.60347E+00
 -1      2745 2.43912E+00
 -1      2746 3.33548E+00
 -1      2747 2.05469E+00
 -1      2748 1.91531E+00
 -1      2749 2.63677E+00
 -1      2750 1.73728E+00
 -1      2751 1.67826E+00
 -1      2752 2.07431E+00
 -1      2753 1.50602E+00
 -1      2754 1.42050E+00
 -1      2755 1.72405E+00
 -1      2756 1.26758E+00
 -1      2757 1.16565E+00
 -1      2758 1.39888E+00
 -1      2759 1.03747E+00
 -1      2760 9.33643E-01
 -1      2761 1.11778E+00
 -1      2762 8.27735E-01
 -1      2763 7.35907E-01
 -1      2764 8.83694E-01
 -1      2765 6.49868E-01
 -1      2766 5.71780E-01
 -1      2767 6.91748E-01
 -1      2768 5.02207E-01
 -1      2769 4.37344E-01
 -1      2770 5.36137E-01
 -1      2771 3.81555E-01
 -1      2772 3.29192E-01
 -1      2773 4.10775E-01
 -1      2774 2.84901E-01
 -1      2775 2.43612E-01
 -1      2776 3.10695E-01
 -1      2777 2.08845E-01
 -1      2778 1.77751E-01
 -1      2779 2.31637E-01
 -1      2780 1.50800E-01
 -1      2781 1.27682E-01
 -1      2782 1.69920E-01
 -1      2783 1.07069E-01
 -1      2784 8.96618E-02
 -1      2785 1.22357E-01
 -1      2786 7.41273E-02
 -1      2787 6.12520E-02
 -1      2788 8.62099E-02
 -1      2789 4.97334E-02
 -1      2790 4.13754E-02
 -1      2791 5.91568E-02
 -1      2792 3.29913E-02
 -1      2793 2.75574E-02
 -1      2794 3.92540E-02
 -1      2795 2.15870E-02
 -1      2796 1.89264E-02
 -1      2797 2.48995E-02
 -1      2798 1.53680E-02
 -1      2799 1.39779E-02
 -1      2800 1.53707E-02
 -1      2801 1.24664E-02
 -1      2802 1.10199E-02
 -1      2803 1.03009E-02
 -1      2804 1.04849E-02
 -1      2805 9.07996E-03
 -1      2806 8.25437E-03
 -1      2807 8.42375E-03
 -1      2808 7.11888E-03
 -1      2809 7.06314E-03
 -1      2810 6.42431E-03
 -1      2811 5.63695E-03
 -1      2812 5.71237E-03
 -1      2813 5.20214E-03
 -1      2814 4.46980E-03
 -1      2815 4.58300E-03
 -1      2816 4.00649E-03
 -1      2817 3.34033E-03
 -1      2818 2.78287E-03
 -1      2819 3.68487E-03
 -1      2820 4.25079E+00
 -1      2821 5.59554E+00
 -1      2822 4.76077E+00
 -1      2823 4.23031E+00
 -1      2824 4.30516E-01
 -1      2825 4.01944E-01
 -1      2826 5.11136E-01
 -1      2827 6.46266E-01
 -1      2828 5.91505E-01
 -1      2829 7.92094E-01
 -1      2830 7.58778E-01
 -1      2831 8.12866E-01
 -1      2832 1.02732E+00
 -1      2833 8.86068E-01
 -1      2834 1.01935E+00
 -1      2835 1.29023E+00
 -1      2836 1.15511E+00
 -1      2837 1.24112E+00
 -1      2838 1.45130E+00
 -1      2839 1.34547E+00
 -1      2840 1.42415E+00
 -1      2841 1.62044E+00
 -1      2842 1.51903E+00
 -1      2843 1.54711E+00
 -1      2844 1.91878E+00
 -1      2845 1.92593E+00
 -1      2846 1.92033E+00
 -1      2847 1.85475E+00
 -1      2848 1.84251E+00
 -1      2849 2.14955E+00
 -1      2850 1.89035E+00
 -1      2851 1.90359E+00
 -1      2852 2.12211E+00
 -1      2853 1.47395E+00
 -1      2854 1.58730E+00
 -1      2855 1.86789E+00
 -1      2856 1.28041E+00
 -1      2857 1.41510E+00
 -1      2858 1.50599E+00
 -1      2859 1.00735E+00
 -1      2860 1.16755E+00
 -1      2861 1.33428E+00
 -1      2862 8.73953E-01
 -1      2863 9.46087E-01
 -1      2864 1.16016E+00
 -1      2865 7.46344E-01
 -1      2866 7.84608E-01
 -1      2867 1.00955E+00
 -1      2868 6.91686E-01
 -1      2869 6.81426E-01
 -1      2870 8.55284E-01
 -1      2871 6.77976E-01
 -1      2872 6.70622E-01
 -1      2873 7.69302E-01
 -1      2874 6.22023E-01
 -1      2875 6.37701E-01
 -1      2876 7.07964E-01
 -1      2877 5.58536E-01
 -1      2878 5.78228E-01
 -1      2879 6.23894E-01
 -1      2880 4.99475E-01
 -1      2881 5.27876E-01
 -1      2882 5.49439E-01
 -1      2883 4.33474E-01
 -1      2884 4.65241E-01
 -1      2885 4.84545E-01
 -1      2886 3.61350E-01
 -1      2887 3.96687E-01
 -1      2888 4.13523E-01
 -1      2889 2.91135E-01
 -1      2890 3.25734E-01
 -1      2891 3.41120E-01
 -1      2892 2.27531E-01
 -1      2893 2.58862E-01
 -1      2894 2.73231E-01
 -1      2895 1.72782E-01
 -1      2896 1.99637E-01
 -1      2897 2.13065E-01
 -1      2898 1.27482E-01
 -1      2899 1.49545E-01
 -1      2900 1.61934E-01
 -1      2901 9.12125E-02
 -1      2902 1.08707E-01
 -1      2903 1.19921E-01
 -1      2904 6.30102E-02
 -1      2905 7.64485E-02
 -1      2906 8.63821E-02
 -1      2907 4.36260E-02
 -1      2908 5.16933E-02
 -1      2909 6.03012E-02
 -1      2910 2.95455E-02
 -1      2911 3.51704E-02
 -1      2912 4.05287E-02
 -1      2913 2.12500E-02
 -1      2914 2.33980E-02
 -1      2915 2.59255E-02
 -1      2916 1.60793E-02
 -1      2917 1.79639E-02
 -1      2918 1.64920E-02
 -1      2919 1.33301E-02
 -1      2920 1.51723E-02
 -1      2921 1.22989E-02
 -1      2922 1.08576E-02
 -1      2923 1.25764E-02
 -1      2924 1.06382E-02
 -1      2925 8.58292E-03
 -1      2926 9.98193E-03
 -1      2927 9.00878E-03
 -1      2928 6.87463E-03
 -1      2929 7.67825E-03
 -1      2930 7.22840E-03
 -1      2931 5.21736E-03
 -1      2932 6.09543E-03
 -1      2933 5.54453E-03
 -1      2934 3.86521E-03
 -1      2935 4.64818E-03
 -1      2936 4.19615E-03
 -1      2937 3.00852E-03
 -1      2938 3.63638E-03
 -1      2939 3.39815E-03
 -1      2940 2.85538E-03
 -1      2941 5.24570E+00
 -1      2942 6.86939E+00
 -1      2943 1.64897E-03
 -1      2944 1.67733E-03
 -1      2945 1.78074E-03
 -1      2946 1.80637E-03
 -1      2947 1.68154E-03
 -1      2948 1.64441E-03
 -1      2949 1.64441E-03
 -1      2950 1.74324E-03
 -1      2951 1.74923E-03
 -1      2952 1.81231E-03
 -1      2953 1.71489E-03
 -1      2954 6.76433E+00
 -1      2955 6.96489E+00
 -1      2956 1.79644E-03
 -1      2957 1.76264E-03
 -1      2958 1.72095E-03
 -1      2959 1.89105E-03
 -1      2960 1.89105E-03
 -1      2961 1.89666E-03
 -1      2962 1.86423E-03
 -1      2963 1.89105E-03
 -1      2964 1.99127E-03
 -1      2965 2.04070E-03
 -1      2966 3.47131E-01
 -1      2967 3.37518E-01
 -1      2968 4.17929E-01
 -1      2969 5.03936E+00
 -1      2970 2.61355E+01
 -1      2971 2.05271E+01
 -1      2972 1.12865E+00
 -1      2973 6.24409E+00
 -1      2974 7.85252E+00
 -1      2975 5.53062E-01
 -1      2976 5.26410E-01
 -1      2977 5.86500E-01
 -1      2978 6.61912E-01
 -1      2979 1.08172E+01
 -1      2980 9.48854E+00
 -1      2981 8.21300E+00
 -1      2982 1.06368E+01
 -1      2983 3.30688E-01
 -1      2984 3.92724E-01
 -1      2985 4.72195E-01
 -1      2986 3.56286E-01
 -1      2987 1.31162E+01
 -1      2988 1.82343E+01
 -1      2989 8.63543E+00
 -1      2990 5.84803E+00
 -1      2991 4.98988E+00
 -1      2992 6.93026E+00
 -1      2993 5.46653E-01
 -1      2994 5.09464E-01
 -1      2995 4.41104E-01
 -1      2996 5.15669E-01
 -1      2997 1.99751E+01
 -1      2998 2.63953E+01
 -1      2999 1.32629E+01
 -1      3000 1.03030E+01
 -1      3001 1.73000E+01
 -1      3002 2.19248E+01
 -1      3003 4.90287E-01
 -1      3004 5.34498E-01
 -1      3005 1.25080E+01
 -1      3006 1.54024E+01
 -1      3007 8.36409E-01
 -1      3008 3.68521E+00
 -1      3009 4.35627E+00
 -1      3010 4.06008E+00
 -1      3011 6.49507E+00
 -1      3012 5.16366E+00
 -1      3013 2.10838E+01
 -1      3014 2.27375E+01
 -1      3015 1.43333E+01
 -1      3016 6.75783E+00
 -1      3017 5.64180E+00
 -1      3018 4.21459E+00
 -1      3019 8.76579E+00
 -1      3020 7.03563E+00
 -1      3021 7.85180E+00
 -1      3022 4.58660E+00
 -1      3023 6.46315E-01
 -1      3024 9.23710E-01
 -1      3025 6.06951E-01
 -1      3026 2.57355E-01
 -1      3027 2.84257E-01
 -1      3028 3.04768E-01
 -1      3029 4.76610E+00
 -1      3030 5.30667E+00
 -1      3031 1.34595E+01
 -1      3032 2.35568E+01
 -1      3033 1.76852E+01
 -1      3034 5.77727E+00
 -1      3035 1.49405E+01
 -1      3036 3.70003E+00
 -1      3037 5.10585E+00
 -1      3038 3.38085E+00
 -1      3039 4.21756E+00
 -1      3040 4.14777E+00
 -1      3041 2.47256E-03
 -1      3042 2.78650E-03
 -1      3043 2.13465E-03
 -1      3044 2.43259E-03
 -1      3045 2.12909E-03
 -1      3046 2.25613E-03
 -1      3047 2.87126E-03
 -1      3048 1.05340E+01
 -1      3049 9.40518E+00
 -1      3050 7.53396E+00
 -1      3051 6.79899E+00
 -1      3052 5.34523E+00
 -1      3053 1.55068E+01
 -1      3054 3.92309E+00
 -1      3055 1.08047E+00
 -1      3056 1.08047E+00
 -1      3057 9.00353E-01
 -1      3058 8.75526E-01
 -1      3059 1.31567E+01
 -1      3060 1.35585E+01
 -1      3061 9.68469E+00
 -1      3062 6.29313E+00
 -1      3063 1.28473E+01
 -1      3064 9.81346E+00
 -1      3065 1.13875E+01
 -1      3066 5.85615E+00
 -1      3067 1.86334E-03
 -1      3068 1.91171E-03
 -1      3069 2.18072E-03
 -1      3070 1.90080E-03
 -1      3071 7.48714E-01
 -1      3072 5.91173E-01
 -1      3073 3.60948E-01
 -1      3074 4.09058E-01
 -1      3075 4.13904E-01
 -1      3076 2.76495E-01
 -1      3077 1.32768E+01
 -1      3078 8.21478E+00
 -1      3079 8.43619E+00
 -1      3080 5.45371E+00
 -1      3081 4.76704E+00
 -1      3082 8.57308E-01
 -1      3083 5.77401E+00
 -1      3084 1.43116E+01
 -1      3085 1.60415E+01
 -1      3086 5.52011E-01
 -1      3087 5.29989E-01
 -1      3088 1.34872E+01
 -1      3089 4.90368E+00
 -1      3090 4.36311E+00
 -1      3091 1.25967E+01
 -1      3092 1.23369E+01
 -1      3093 7.05389E-01
 -1      3094 7.59799E-01
 -1      3095 8.49077E-01
 -1      3096 9.61088E-01
 -1      3097 8.56461E-01
 -1      3098 1.09004E+00
 -1      3099 1.24005E+00
 -1      3100 1.07469E+00
 -1      3101 1.45008E+00
 -1      3102 1.63479E+00
 -1      3103 1.41367E+00
 -1      3104 1.96345E+00
 -1      3105 2.16532E+00
 -1      3106 1.95235E+00
 -1      3107 2.69498E+00
 -1      3108 2.97711E+00
 -1      3109 2.81067E+00
 -1      3110 3.48953E+00
 -1      3111 4.07877E+00
 -1      3112 3.85274E+00
 -1      3113 8.70310E-01
 -1      3114 6.95334E-01
 -1      3115 6.75965E-01
 -1      3116 7.13552E-01
 -1      3117 4.21668E+00
 -1      3118 3.20079E+00
 -1      3119 4.29078E+00
 -1      3120 5.09016E+00
 -1      3121 4.77588E+00
 -1      3122 3.50802E+00
 -1      3123 3.12359E+00
 -1      3124 5.26270E+00
 -1      3125 2.46892E+00
 -1      3126 2.29089E+00
 -1      3127 3.34017E+00
 -1      3128 1.87922E+00
 -1      3129 1.70697E+00
 -1      3130 2.27382E+00
 -1      3131 1.47294E+00
 -1      3132 1.32002E+00
 -1      3133 1.62811E+00
 -1      3134 1.19369E+00
 -1      3135 1.06551E+00
 -1      3136 1.26775E+00
 -1      3137 9.48156E-01
 -1      3138 8.42248E-01
 -1      3139 1.02407E+00
 -1      3140 7.41361E-01
 -1      3141 6.55322E-01
 -1      3142 8.05822E-01
 -1      3143 5.72106E-01
 -1      3144 5.02534E-01
 -1      3145 6.21719E-01
 -1      3146 4.35656E-01
 -1      3147 3.79867E-01
 -1      3148 4.71626E-01
 -1      3149 3.27154E-01
 -1      3150 2.82863E-01
 -1      3151 3.52035E-01
 -1      3152 2.41978E-01
 -1      3153 2.07212E-01
 -1      3154 2.58438E-01
 -1      3155 1.75967E-01
 -1      3156 1.49016E-01
 -1      3157 1.86308E-01
 -1      3158 1.26083E-01
 -1      3159 1.05471E-01
 -1      3160 1.32130E-01
 -1      3161 8.87800E-02
 -1      3162 7.32455E-02
 -1      3163 9.25065E-02
 -1      3164 6.08886E-02
 -1      3165 4.93699E-02
 -1      3166 6.34586E-02
 -1      3167 4.10293E-02
 -1      3168 3.26451E-02
 -1      3169 4.27610E-02
 -1      3170 2.69255E-02
 -1      3171 2.09551E-02
 -1      3172 2.87007E-02
 -1      3173 1.68252E-02
 -1      3174 1.32669E-02
 -1      3175 1.88513E-02
 -1      3176 1.03613E-02
 -1      3177 8.84981E-03
 -1      3178 1.18158E-02
 -1      3179 7.14786E-03
 -1      3180 6.61283E-03
 -1      3181 7.20828E-03
 -1      3182 6.54423E-03
 -1      3183 5.88802E-03
 -1      3184 5.43772E-03
 -1      3185 5.66116E-03
 -1      3186 4.96659E-03
 -1      3187 5.14224E-03
 -1      3188 4.58300E-03
 -1      3189 4.14819E-03
 -1      3190 4.53178E-03
 -1      3191 1.14660E+00
 -1      3192 1.05262E+00
 -1      3193 1.01082E+00
 -1      3194 8.98304E-01
 -1      3195 1.13806E+00
 -1      3196 1.78771E+00
 -1      3197 1.73248E+00
 -1      3198 2.18393E+00
 -1      3199 2.11620E+00
 -1      3200 2.42453E+00
 -1      3201 2.23866E+00
 -1      3202 1.93317E+00
 -1      3203 2.50227E+00
 -1      3204 2.98857E+00
 -1      3205 3.06485E+00
 -1      3206 3.07769E+00
 -1      3207 3.20966E+00
 -1      3208 3.16082E+00
 -1      3209 4.07612E+00
 -1      3210 2.89712E+00
 -1      3211 3.20018E+00
 -1      3212 4.23889E+00
 -1      3213 2.32912E+00
 -1      3214 2.38797E+00
 -1      3215 3.72026E+00
 -1      3216 1.34759E+00
 -1      3217 1.46045E+00
 -1      3218 2.34243E+00
 -1      3219 1.38189E+00
 -1      3220 1.44316E+00
 -1      3221 1.56933E+00
 -1      3222 1.14664E+00
 -1      3223 1.23598E+00
 -1      3224 1.51898E+00
 -1      3225 9.78020E-01
 -1      3226 1.04294E+00
 -1      3227 1.26937E+00
 -1      3228 8.76402E-01
 -1      3229 8.97466E-01
 -1      3230 1.08512E+00
 -1      3231 7.47689E-01
 -1      3232 7.87964E-01
 -1      3233 9.16128E-01
 -1      3234 6.33082E-01
 -1      3235 6.76877E-01
 -1      3236 7.56878E-01
 -1      3237 5.54939E-01
 -1      3238 5.85599E-01
 -1      3239 6.38582E-01
 -1      3240 4.73438E-01
 -1      3241 5.07672E-01
 -1      3242 5.43832E-01
 -1      3243 3.91209E-01
 -1      3244 4.27997E-01
 -1      3245 4.51124E-01
 -1      3246 3.14177E-01
 -1      3247 3.49793E-01
 -1      3248 3.64266E-01
 -1      3249 2.46925E-01
 -1      3250 2.79198E-01
 -1      3251 2.87871E-01
 -1      3252 1.90063E-01
 -1      3253 2.17956E-01
 -1      3254 2.23924E-01
 -1      3255 1.43128E-01
 -1      3256 1.66366E-01
 -1      3257 1.71257E-01
 -1      3258 1.05343E-01
 -1      3259 1.24118E-01
 -1      3260 1.28550E-01
 -1      3261 7.56087E-02
 -1      3262 9.03727E-02
 -1      3263 9.45696E-02
 -1      3264 5.27185E-02
 -1      3265 6.40354E-02
 -1      3266 6.80260E-02
 -1      3267 3.54851E-02
 -1      3268 4.39408E-02
 -1      3269 4.76750E-02
 -1      3270 2.28164E-02
 -1      3271 2.89639E-02
 -1      3272 3.23760E-02
 -1      3273 1.47973E-02
 -1      3274 1.80834E-02
 -1      3275 2.11218E-02
 -1      3276 1.05494E-02
 -1      3277 1.14564E-02
 -1      3278 1.30479E-02
 -1      3279 8.02139E-03
 -1      3280 8.77511E-03
 -1      3281 7.93263E-03
 -1      3282 7.06862E-03
 -1      3283 7.94432E-03
 -1      3284 6.08124E-03
 -1      3285 5.85955E-03
 -1      3286 6.76423E-03
 -1      3287 5.69977E-03
 -1      3288 4.62345E-03
 -1      3289 5.40265E-03
 -1      3290 4.93848E-03
 -1      3291 3.51869E-03
 -1      3292 4.08787E-03
 -1      3293 3.94599E-03
 -1      3294 3.02217E-03
 -1      3295 3.25100E-03
 -1      3296 3.14271E-03
 -1      3297 2.63934E-03
 -1      3298 1.05790E+01
 -1      3299 1.23198E+01
 -1      3300 5.09963E-01
 -1      3301 5.06201E-01
 -1      3302 4.70802E-01
 -1      3303 3.87224E-01
 -1      3304 1.59736E-03
 -1      3305 1.60192E-03
 -1      3306 2.24823E-03
 -1      3307 2.24823E-03
 -1      3308 1.73442E-03
 -1      3309 1.65332E-03
 -1      3310 1.61083E-03
 -1      3311 1.25661E+01
 -1      3312 1.17251E+01
 -1      3313 4.91987E-01
 -1      3314 4.37174E-01
 -1      3315 1.93015E-03
 -1      3316 1.83554E-03
 -1      3317 1.76790E-03
 -1      3318 2.18710E-03
 -1      3319 1.28310E+01
 -1      3320 1.36571E+01
 -1      3321 1.48622E+00
 -1      3322 1.35842E+00
 -1      3323 1.39169E+00
 -1      3324 1.84978E+00
 -1      3325 5.82718E-01
 -1      3326 5.44324E-01
 -1      3327 5.63569E-01
 -1      3328 6.07715E+00
 -1      3329 4.76610E+00
 -1      3330 4.22941E+00
 -1      3331 9.58108E+00
 -1      3332 9.91221E+00
 -1      3333 9.18705E+00
 -1      3334 7.15697E+00
 -1      3335 4.64188E+00
 -1      3336 4.60722E+00
 -1      3337 3.94644E-01
 -1      3338 3.44723E-01
 -1      3339 4.63477E+00
 -1      3340 5.97838E+00
 -1      3341 1.00031E+01
 -1      3342 1.19007E+01
 -1      3343 9.29249E+00
 -1      3344 3.72026E+00
 -1      3345 3.19087E+00
 -1      3346 7.24733E+00
 -1      3347 5.71011E+00
 -1      3348 4.29921E+00
 -1      3349 4.77947E+00
 -1      3350 4.77558E+00
 -1      3351 1.17251E+01
 -1      3352 1.25444E+01
 -1      3353 2.92261E+00
 -1      3354 3.81205E+00
 -1      3355 3.49730E+00
 -1      3356 2.94284E+00
 -1      3357 1.18433E+01
 -1      3358 1.01996E+01
 -1      3359 9.25677E+00
 -1      3360 2.97735E+00
 -1      3361 4.06646E+00
 -1      3362 2.94493E-01
 -1      3363 2.57453E-01
 -1      3364 3.44821E-01
 -1      3365 1.04872E+01
 -1      3366 4.84484E-01
 -1      3367 4.37617E-01
 -1      3368 4.38024E-01
 -1      3369 4.62463E+00
 -1      3370 5.09057E+00
 -1      3371 4.80418E+00
 -1      3372 7.37760E-01
 -1      3373 4.98690E+00
 -1      3374 7.98147E+00
 -1      3375 7.68580E+00
 -1      3376 5.54411E+00
 -1      3377 5.71656E+00
 -1      3378 6.86961E+00
 -1      3379 8.84362E+00
 -1      3380 7.46758E+00
 -1      3381 6.93026E+00
 -1      3382 3.73773E-03
 -1      3383 3.73773E-03
 -1      3384 3.27442E-03
 -1      3385 6.54620E-01
 -1      3386 6.87808E-01
 -1      3387 6.91590E-01
 -1      3388 5.25611E-01
 -1      3389 4.97914E-01
 -1      3390 4.94427E-01
 -1      3391 5.12235E-01
 -1      3392 1.85522E-03
 -1      3393 1.91220E-03
 -1      3394 5.91823E-01
 -1      3395 7.03640E-01
 -1      3396 1.01287E+00
 -1      3397 8.14924E-01
 -1      3398 7.76481E-01
 -1      3399 8.77254E+00
 -1      3400 9.71623E+00
 -1      3401 1.78080E-03
 -1      3402 1.81231E-03
 -1      3403 1.82371E-03
 -1      3404 2.65928E-03
 -1      3405 2.91623E-03
 -1      3406 1.04808E+01
 -1      3407 1.63899E-03
 -1      3408 1.70491E-03
 -1      3409 1.70491E-03
 -1      3410 1.59194E-03
 -1      3411 6.03962E+00
 -1      3412 5.93684E+00
 -1      3413 4.38127E+00
 -1      3414 8.86922E+00
 -1      3415 6.21273E+00
 -1      3416 4.94487E+00
 -1      3417 7.22528E+00
 -1      3418 6.96087E+00
 -1      3419 4.60796E-01
 -1      3420 5.57486E-01
 -1      3421 3.79567E-01
 -1      3422 2.97647E+00
 -1      3423 2.97735E+00
 -1      3424 3.62792E-01
 -1      3425 3.55962E-01
 -1      3426 3.93730E-01
 -1      3427 4.36850E-01
 -1      3428 3.34635E+00
 -1      3429 9.95788E+00
 -1      3430 3.72026E+00
 -1      3431 3.32728E-03
 -1      3432 2.91623E-03
 -1      3433 3.73773E-03
 -1      3434 1.48387E+00
 -1      3435 1.44206E+00
 -1      3436 6.23545E+00
 -1      3437 6.98424E-01
 -1      3438 7.27848E-01
 -1      3439 1.06755E+00
 -1      3440 1.19650E+00
 -1      3441 1.41367E+00
 -1      3442 1.62370E+00
 -1      3443 1.40653E+00
 -1      3444 1.96668E+00
 -1      3445 2.29533E+00
 -1      3446 1.96668E+00
 -1      3447 3.18202E+00
 -1      3448 3.71168E+00
 -1      3449 3.19634E+00
 -1      3450 5.49217E+00
 -1      3451 6.00458E+00
 -1      3452 5.86352E+00
 -1      3453 3.54942E+00
 -1      3454 2.89475E+00
 -1      3455 4.49945E+00
 -1      3456 2.48846E+00
 -1      3457 2.07678E+00
 -1      3458 2.69770E+00
 -1      3459 1.81287E+00
 -1      3460 1.57883E+00
 -1      3461 2.02750E+00
 -1      3462 1.36830E+00
 -1      3463 1.24198E+00
 -1      3464 1.55306E+00
 -1      3465 1.08114E+00
 -1      3466 9.63783E-01
 -1      3467 1.18169E+00
 -1      3468 8.41658E-01
 -1      3469 7.40770E-01
 -1      3470 8.98731E-01
 -1      3471 6.47373E-01
 -1      3472 5.64157E-01
 -1      3473 6.83208E-01
 -1      3474 4.92116E-01
 -1      3475 4.25238E-01
 -1      3476 5.17769E-01
 -1      3477 3.69479E-01
 -1      3478 3.16766E-01
 -1      3479 3.89968E-01
 -1      3480 2.73638E-01
 -1      3481 2.32753E-01
 -1      3482 2.91081E-01
 -1      3483 1.99539E-01
 -1      3484 1.68293E-01
 -1      3485 2.14739E-01
 -1      3486 1.42900E-01
 -1      3487 1.19968E-01
 -1      3488 1.56131E-01
 -1      3489 1.00747E-01
 -1      3490 8.40560E-02
 -1      3491 1.11517E-01
 -1      3492 6.98487E-02
 -1      3493 5.74918E-02
 -1      3494 7.80891E-02
 -1      3495 4.74935E-02
 -1      3496 3.91528E-02
 -1      3497 5.38836E-02
 -1      3498 3.17923E-02
 -1      3499 2.60727E-02
 -1      3500 3.65248E-02
 -1      3501 2.07563E-02
 -1      3502 1.66264E-02
 -1      3503 2.38478E-02
 -1      3504 1.28741E-02
 -1      3505 9.96850E-03
 -1      3506 1.47791E-02
 -1      3507 7.39628E-03
 -1      3508 5.69433E-03
 -1      3509 8.45456E-03
 -1      3510 4.49285E-03
 -1      3511 4.42424E-03
 -1      3512 4.68086E-03
 -1      3513 4.16002E-03
 -1      3514 3.93315E-03
 -1      3515 3.21515E-03
 -1      3516 4.23354E-03
 -1      3517 3.84995E-03
 -1      3518 3.43949E-03
 -1      3519 3.25132E-03
 -1      3520 2.64798E+00
 -1      3521 1.66490E+00
 -1      3522 1.56933E+00
 -1      3523 2.06007E+00
 -1      3524 2.20599E+00
 -1      3525 2.20599E+00
 -1      3526 1.43678E+00
 -1      3527 1.54048E+00
 -1      3528 2.22748E+00
 -1      3529 1.20361E+00
 -1      3530 1.28416E+00
 -1      3531 1.55527E+00
 -1      3532 9.56334E-01
 -1      3533 1.04477E+00
 -1      3534 1.24381E+00
 -1      3535 7.88013E-01
 -1      3536 8.58825E-01
 -1      3537 9.87469E-01
 -1      3538 6.49373E-01
 -1      3539 6.96856E-01
 -1      3540 7.98803E-01
 -1      3541 5.29062E-01
 -1      3542 5.76329E-01
 -1      3543 6.34603E-01
 -1      3544 4.25523E-01
 -1      3545 4.70964E-01
 -1      3546 5.03461E-01
 -1      3547 3.41084E-01
 -1      3548 3.82500E-01
 -1      3549 4.02341E-01
 -1      3550 2.72513E-01
 -1      3551 3.07492E-01
 -1      3552 3.25726E-01
 -1      3553 2.12874E-01
 -1      3554 2.41843E-01
 -1      3555 2.61463E-01
 -1      3556 1.62576E-01
 -1      3557 1.86273E-01
 -1      3558 2.04192E-01
 -1      3559 1.21353E-01
 -1      3560 1.40364E-01
 -1      3561 1.55379E-01
 -1      3562 8.84002E-02
 -1      3563 1.03370E-01
 -1      3564 1.15184E-01
 -1      3565 6.26584E-02
 -1      3566 7.42317E-02
 -1      3567 8.30326E-02
 -1      3568 4.35322E-02
 -1      3569 5.23099E-02
 -1      3570 5.85156E-02
 -1      3571 2.92351E-02
 -1      3572 3.57563E-02
 -1      3573 4.03913E-02
 -1      3574 1.87418E-02
 -1      3575 2.34748E-02
 -1      3576 2.68551E-02
 -1      3577 1.12696E-02
 -1      3578 1.46105E-02
 -1      3579 1.69635E-02
 -1      3580 6.64901E-03
 -1      3581 8.42333E-03
 -1      3582 9.98596E-03
 -1      3583 4.98635E-03
 -1      3584 5.06343E-03
 -1      3585 5.55413E-03
 -1      3586 4.42414E-03
 -1      3587 4.72853E-03
 -1      3588 3.71072E-03
 -1      3589 3.99931E-03
 -1      3590 4.45622E-03
 -1      3591 3.48498E-03
 -1      3592 3.27563E-03
 -1      3593 3.81122E-03
 -1      3594 3.32895E-03
 -1      3595 2.92413E-03
 -1      3596 9.16100E+00
 -1      3597 8.66054E+00
 -1      3598 6.66165E+00
 -1      3599 1.58069E-03
 -1      3600 1.52473E-03
 -1      3601 2.79441E+00
 -1      3602 2.64798E+00
 -1      3603 8.56064E+00
 -1      3604 9.05471E+00
 -1      3605 7.87488E+00
 -1      3606 8.54167E+00
 -1      3607 8.54167E+00
 -1      3608 8.81857E+00
 -1      3609 2.96825E-01
 -1      3610 3.53005E-01
 -1      3611 3.99898E-01
 -1      3612 7.57329E+00
 -1      3613 8.23868E+00
 -1      3614 8.49557E+00
 -1      3615 7.79447E+00
 -1      3616 3.81570E+00
 -1      3617 3.21110E+00
 -1      3618 6.45841E-01
 -1      3619 5.93504E-01
 -1      3620 2.94280E+00
 -1      3621 2.94280E+00
 -1      3622 2.67453E+00
 -1      3623 2.07413E+00
 -1      3624 8.49557E+00
 -1      3625 8.49557E+00
 -1      3626 7.03328E+00
 -1      3627 6.77637E+00
 -1      3628 8.23754E-01
 -1      3629 9.13032E-01
 -1      3630 1.03484E+00
 -1      3631 3.73778E+00
 -1      3632 2.93135E+00
 -1      3633 2.23298E+00
 -1      3634 2.20191E-03
 -1      3635 2.42486E-03
 -1      3636 2.66053E-03
 -1      3637 2.15633E-03
 -1      3638 2.50227E+00
 -1      3639 2.09604E+00
 -1      3640 2.75303E+00
 -1      3641 6.98424E-01
 -1      3642 1.46979E-03
 -1      3643 1.49992E-03
 -1      3644 1.53699E-03
 -1      3645 3.33964E-01
 -1      3646 6.01785E+00
 -1      3647 5.45629E+00
 -1      3648 4.52352E+00
 -1      3649 2.50518E-03
 -1      3650 2.18710E-03
 -1      3651 2.91623E-03
 -1      3652 5.03339E-01
 -1      3653 4.60366E-01
 -1      3654 1.22879E+00
 -1      3655 1.14541E+00
 -1      3656 1.57460E+00
 -1      3657 8.44601E-01
 -1      3658 7.38608E+00
 -1      3659 5.31092E-01
 -1      3660 5.26714E-01
 -1      3661 7.97406E-01
 -1      3662 7.25504E-01
 -1      3663 7.55439E-01
 -1      3664 2.16969E+00
 -1      3665 4.97530E-01
 -1      3666 4.32215E-01
 -1      3667 3.81985E-01
 -1      3668 6.38490E+00
 -1      3669 5.33108E+00
 -1      3670 5.22537E+00
 -1      3671 2.92823E-03
 -1      3672 3.57144E+00
 -1      3673 3.63268E+00
 -1      3674 7.23444E+00
 -1      3675 3.84860E-01
 -1      3676 4.30671E-01
 -1      3677 4.45150E-01
 -1      3678 3.53599E-01
 -1      3679 7.84418E-01
 -1      3680 6.49487E+00
 -1      3681 5.16449E+00
 -1      3682 3.76904E+00
 -1      3683 5.73368E+00
 -1      3684 1.86902E-03
 -1      3685 1.76790E-03
 -1      3686 1.68181E-03
 -1      3687 2.18710E-03
 -1      3688 1.84978E+00
 -1      3689 1.60352E+00
 -1      3690 1.39169E+00
 -1      3691 1.69570E+00
 -1      3692 1.84978E+00
 -1      3693 7.64401E+00
 -1      3694 4.59178E+00
 -1      3695 4.15332E+00
 -1      3696 2.78545E+00
 -1      3697 2.79345E-03
 -1      3698 2.74871E+00
 -1      3699 6.88513E-01
 -1      3700 5.46142E-01
 -1      3701 6.77169E-01
 -1      3702 6.77169E-01
 -1      3703 4.82150E-01
 -1      3704 4.07769E-01
 -1      3705 3.98899E-01
 -1      3706 5.64422E-01
 -1      3707 2.50374E-03
 -1      3708 1.90492E-03
 -1      3709 1.94783E-03
 -1      3710 2.58495E-03
 -1      3711 1.82871E+00
 -1      3712 2.17169E+00
 -1      3713 2.60060E+00
 -1      3714 3.48729E+00
 -1      3715 2.46263E+00
 -1      3716 4.40933E+00
 -1      3717 6.18982E+00
 -1      3718 6.18982E+00
 -1      3719 3.81358E+00
 -1      3720 9.78524E-01
 -1      3721 8.93632E-01
 -1      3722 1.19444E+00
 -1      3723 2.86973E+00
 -1      3724 2.46344E+00
 -1      3725 3.53478E+00
 -1      3726 2.05779E+00
 -1      3727 1.79388E+00
 -1      3728 2.22982E+00
 -1      3729 1.52093E+00
 -1      3730 1.31040E+00
 -1      3731 1.55122E+00
 -1      3732 1.13208E+00
 -1      3733 9.71241E-01
 -1      3734 1.09995E+00
 -1      3735 8.50630E-01
 -1      3736 7.28505E-01
 -1      3737 8.01015E-01
 -1      3738 6.43349E-01
 -1      3739 5.49952E-01
 -1      3740 5.95249E-01
 -1      3741 4.87256E-01
 -1      3742 4.15214E-01
 -1      3743 4.47397E-01
 -1      3744 3.67861E-01
 -1      3745 3.12102E-01
 -1      3746 3.37348E-01
 -1      3747 2.75804E-01
 -1      3748 2.32676E-01
 -1      3749 2.53697E-01
 -1      3750 2.04686E-01
 -1      3751 1.71472E-01
 -1      3752 1.89409E-01
 -1      3753 1.49909E-01
 -1      3754 1.24516E-01
 -1      3755 1.39856E-01
 -1      3756 1.08001E-01
 -1      3757 8.87796E-02
 -1      3758 1.01778E-01
 -1      3759 7.62502E-02
 -1      3760 6.20429E-02
 -1      3761 7.27334E-02
 -1      3762 5.26558E-02
 -1      3763 4.26575E-02
 -1      3764 5.08168E-02
 -1      3765 3.62031E-02
 -1      3766 2.88425E-02
 -1      3767 3.49753E-02
 -1      3768 2.41289E-02
 -1      3769 1.88125E-02
 -1      3770 2.38072E-02
 -1      3771 1.53876E-02
 -1      3772 1.16353E-02
 -1      3773 1.56687E-02
 -1      3774 9.20243E-03
 -1      3775 6.63021E-03
 -1      3776 9.81095E-03
 -1      3777 4.95111E-03
 -1      3778 3.74963E-03
 -1      3779 5.69898E-03
 -1      3780 2.71213E-03
 -1      3781 2.44791E-03
 -1      3782 2.98238E-03
 -1      3783 2.71046E+00
 -1      3784 3.23005E+00
 -1      3785 6.46458E+00
 -1      3786 6.20665E+00
 -1      3787 1.98672E+00
 -1      3788 2.78496E+00
 -1      3789 2.24387E+00
 -1      3790 1.33572E+00
 -1      3791 1.49456E+00
 -1      3792 1.03942E+00
 -1      3793 1.13692E+00
 -1      3794 1.38767E+00
 -1      3795 7.85118E-01
 -1      3796 8.76274E-01
 -1      3797 1.02573E+00
 -1      3798 6.21856E-01
 -1      3799 6.94900E-01
 -1      3800 7.72371E-01
 -1      3801 4.94161E-01
 -1      3802 5.52259E-01
 -1      3803 6.12556E-01
 -1      3804 4.02341E-01
 -1      3805 4.45363E-01
 -1      3806 4.94161E-01
 -1      3807 3.24755E-01
 -1      3808 3.58347E-01
 -1      3809 4.01370E-01
 -1      3810 2.56035E-01
 -1      3811 2.86705E-01
 -1      3812 3.19327E-01
 -1      3813 1.97452E-01
 -1      3814 2.24053E-01
 -1      3815 2.49295E-01
 -1      3816 1.48965E-01
 -1      3817 1.71177E-01
 -1      3818 1.91038E-01
 -1      3819 1.09824E-01
 -1      3820 1.27807E-01
 -1      3821 1.43605E-01
 -1      3822 7.89406E-02
 -1      3823 9.31091E-02
 -1      3824 1.05732E-01
 -1      3825 5.56327E-02
 -1      3826 6.59812E-02
 -1      3827 7.60577E-02
 -1      3828 3.80024E-02
 -1      3829 4.57782E-02
 -1      3830 5.32438E-02
 -1      3831 2.53467E-02
 -1      3832 3.11070E-02
 -1      3833 3.64939E-02
 -1      3834 1.61390E-02
 -1      3835 2.02702E-02
 -1      3836 2.45221E-02
 -1      3837 9.62062E-03
 -1      3838 1.24669E-02
 -1      3839 1.57736E-02
 -1      3840 5.44659E-03
 -1      3841 7.03217E-03
 -1      3842 9.51308E-03
 -1      3843 3.52059E-03
 -1      3844 3.77841E-03
 -1      3845 5.25646E-03
 -1      3846 2.78816E-03
 -1      3847 2.75609E-03
 -1      3848 2.82377E-03
 -1      3849 2.77305E-03
 -1      3850 6.22667E+00
 -1      3851 6.33296E+00
 -1      3852 5.30517E+00
 -1      3853 3.94530E-01
 -1      3854 4.33903E-01
 -1      3855 4.81924E-01
 -1      3856 7.73075E-01
 -1      3857 5.09760E-01
 -1      3858 5.36322E-01
 -1      3859 5.70327E-01
 -1      3860 5.34062E-01
 -1      3861 5.20632E-01
 -1      3862 5.42974E-01
 -1      3863 5.52919E-01
 -1      3864 1.28767E+00
 -1      3865 1.50484E+00
 -1      3866 1.70985E+00
 -1      3867 1.97405E+00
 -1      3868 2.12667E+00
 -1      3869 3.12924E+00
 -1      3870 9.27203E-01
 -1      3871 1.08172E+00
 -1      3872 1.18003E+00
 -1      3873 1.73007E-03
 -1      3874 1.85420E-03
 -1      3875 1.65418E-03
 -1      3876 6.06831E+00
 -1      3877 5.38924E+00
 -1      3878 3.99844E+00
 -1      3879 3.26793E+00
 -1      3880 2.04416E-03
 -1      3881 6.56005E-01
 -1      3882 9.31328E-01
 -1      3883 5.01039E+00
 -1      3884 1.66241E-03
 -1      3885 1.63761E-03
 -1      3886 1.94531E+00
 -1      3887 1.73203E+00
 -1      3888 4.07777E+00
 -1      3889 4.15877E+00
 -1      3890 2.82384E-03
 -1      3891 2.41279E-03
 -1      3892 2.93605E-03
 -1      3893 2.63381E-03
 -1      3894 2.80866E-03
 -1      3895 2.82377E-03
 -1      3896 2.37143E-03
 -1      3897 2.67182E-03
 -1      3898 2.05616E-03
 -1      3899 1.86841E-03
 -1      3900 9.94980E-01
 -1      3901 9.15318E-01
 -1      3902 6.54972E-01
 -1      3903 6.37679E-01
 -1      3904 1.56216E-03
 -1      3905 2.40233E+00
 -1      3906 2.01914E+00
 -1      3907 2.11132E+00
 -1      3908 2.81787E+00
 -1      3909 6.13716E-01
 -1      3910 5.85564E-01
 -1      3911 7.25714E-01
 -1      3912 5.10082E+00
 -1      3913 4.01814E+00
 -1      3914 4.24905E+00
 -1      3915 5.56137E+00
 -1      3916 5.56137E+00
 -1      3917 2.06596E+00
 -1      3918 2.74867E+00
 -1      3919 5.09477E+00
 -1      3920 3.79518E+00
 -1      3921 2.89587E+00
 -1      3922 3.62287E+00
 -1      3923 4.99320E-01
 -1      3924 5.30447E+00
 -1      3925 5.56137E+00
 -1      3926 4.08947E+00
 -1      3927 5.67101E-01
 -1      3928 6.13353E-01
 -1      3929 6.20700E-01
 -1      3930 6.78455E-01
 -1      3931 2.26875E+00
 -1      3932 1.59068E-03
 -1      3933 1.75850E-03
 -1      3934 1.77790E-03
 -1      3935 5.11305E+00
 -1      3936 3.89805E+00
 -1      3937 3.92466E+00
 -1      3938 9.17996E-01
 -1      3939 8.19953E-01
 -1      3940 5.45942E+00
 -1      3941 4.18700E+00
 -1      3942 4.45165E+00
 -1      3943 2.95360E+00
 -1      3944 3.87564E+00
 -1      3945 4.15040E+00
 -1      3946 2.01876E-03
 -1      3947 1.70068E-03
 -1      3948 1.60956E-03
 -1      3949 1.92637E-03
 -1      3950 1.85707E+00
 -1      3951 1.48636E+00
 -1      3952 1.31947E+00
 -1      3953 3.80331E+00
 -1      3954 2.22816E+00
 -1      3955 1.82251E+00
 -1      3956 2.48856E+00
 -1      3957 1.54744E+00
 -1      3958 1.27449E+00
 -1      3959 1.54579E+00
 -1      3960 1.09812E+00
 -1      3961 9.19799E-01
 -1      3962 1.09435E+00
 -1      3963 8.00457E-01
 -1      3964 6.79847E-01
 -1      3965 7.98630E-01
 -1      3966 5.94944E-01
 -1      3967 5.09788E-01
 -1      3968 5.94386E-01
 -1      3969 4.47131E-01
 -1      3970 3.84435E-01
 -1      3971 4.46826E-01
 -1      3972 3.37166E-01
 -1      3973 2.89814E-01
 -1      3974 3.36901E-01
 -1      3975 2.53761E-01
 -1      3976 2.17463E-01
 -1      3977 2.53579E-01
 -1      3978 1.89831E-01
 -1      3979 1.61841E-01
 -1      3980 1.89895E-01
 -1      3981 1.40659E-01
 -1      3982 1.19096E-01
 -1      3983 1.41081E-01
 -1      3984 1.02910E-01
 -1      3985 8.63949E-02
 -1      3986 1.03713E-01
 -1      3987 7.42155E-02
 -1      3988 6.16861E-02
 -1      3989 7.53476E-02
 -1      3990 5.24917E-02
 -1      3991 4.31046E-02
 -1      3992 5.39738E-02
 -1      3993 3.62379E-02
 -1      3994 2.97835E-02
 -1      3995 3.79128E-02
 -1      3996 2.51216E-02
 -1      3997 2.04079E-02
 -1      3998 2.63842E-02
 -1      3999 1.69159E-02
 -1      4000 1.34910E-02
 -1      4001 1.82303E-02
 -1      4002 1.09099E-02
 -1      4003 8.47705E-03
 -1      4004 1.21571E-02
 -1      4005 6.59507E-03
 -1      4006 4.91597E-03
 -1      4007 7.69403E-03
 -1      4008 3.55711E-03
 -1      4009 2.51961E-03
 -1      4010 4.45320E-03
 -1      4011 9.38726E-01
 -1      4012 1.14468E+00
 -1      4013 7.15405E-01
 -1      4014 1.97052E-03
 -1      4015 2.08770E-03
 -1      4016 3.04217E-03
 -1      4017 2.16315E-03
 -1      4018 3.15341E+00
 -1      4019 2.77030E+00
 -1      4020 2.60429E+00
 -1      4021 3.95087E+00
 -1      4022 1.90334E+00
 -1      4023 2.38283E+00
 -1      4024 1.39201E+00
 -1      4025 1.59081E+00
 -1      4026 1.90767E+00
 -1      4027 6.12556E-01
 -1      4028 6.82153E-01
 -1      4029 4.89888E-01
 -1      4030 5.38686E-01
 -1      4031 6.08283E-01
 -1      4032 3.86506E-01
 -1      4033 4.30499E-01
 -1      4034 4.75024E-01
 -1      4035 3.00997E-01
 -1      4036 3.39047E-01
 -1      4037 3.68176E-01
 -1      4038 2.31229E-01
 -1      4039 2.63211E-01
 -1      4040 2.82930E-01
 -1      4041 1.75014E-01
 -1      4042 2.01289E-01
 -1      4043 2.15204E-01
 -1      4044 1.30294E-01
 -1      4045 1.51451E-01
 -1      4046 1.61703E-01
 -1      4047 9.51972E-02
 -1      4048 1.11912E-01
 -1      4049 1.19759E-01
 -1      4050 6.80524E-02
 -1      4051 8.10118E-02
 -1      4052 8.71918E-02
 -1      4053 4.73897E-02
 -1      4054 5.72442E-02
 -1      4055 6.21983E-02
 -1      4056 3.23807E-02
 -1      4057 3.92761E-02
 -1      4058 4.32765E-02
 -1      4059 2.15759E-02
 -1      4060 2.66523E-02
 -1      4061 2.94345E-02
 -1      4062 1.38623E-02
 -1      4063 1.75344E-02
 -1      4064 1.96646E-02
 -1      4065 8.35903E-03
 -1      4066 1.09475E-02
 -1      4067 1.27082E-02
 -1      4068 4.64643E-03
 -1      4069 6.31461E-03
 -1      4070 7.74901E-03
 -1      4071 3.58828E-03
 -1      4072 1.07627E+00
 -1      4073 1.23615E+00
 -1      4074 1.17250E+00
 -1      4075 4.38837E+00
 -1      4076 4.40839E+00
 -1      4077 7.72371E-01
 -1      4078 8.62588E-01
 -1      4079 7.72371E-01
 -1      4080 5.97236E-01
 -1      4081 6.09782E-01
 -1      4082 7.13422E-01
 -1      4083 2.03789E+00
 -1      4084 2.46680E+00
 -1      4085 2.52886E+00
 -1      4086 6.09782E-01
 -1      4087 6.85639E-01
 -1      4088 7.25094E-01
 -1      4089 1.31297E+00
 -1      4090 1.63684E+00
 -1      4091 1.64101E+00
 -1      4092 1.07166E+00
 -1      4093 1.01210E+00
 -1      4094 1.17524E+00
 -1      4095 1.01210E+00
 -1      4096 3.21952E+00
 -1      4097 3.57257E+00
 -1      4098 3.57257E+00
 -1      4099 9.52268E-01
 -1      4100 1.15486E+00
 -1      4101 9.52268E-01
 -1      4102 1.37838E+00
 -1      4103 2.14970E+00
 -1      4104 1.90403E+00
 -1      4105 1.46442E+00
 -1      4106 3.34197E+00
 -1      4107 2.26879E-03
 -1      4108 2.19231E-03
 -1      4109 2.84352E-03
 -1      4110 8.49588E-01
 -1      4111 8.14232E-01
 -1      4112 9.28305E-01
 -1      4113 3.55243E-03
 -1      4114 3.88534E-03
 -1      4115 4.64643E-03
 -1      4116 3.25363E+00
 -1      4117 8.10133E-01
 -1      4118 3.05690E+00
 -1      4119 3.38291E+00
 -1      4120 2.91631E+00
 -1      4121 2.24860E+00
 -1      4122 2.86601E+00
 -1      4123 3.53486E+00
 -1      4124 1.31744E+00
 -1      4125 1.23615E+00
 -1      4126 1.23615E+00
 -1      4127 3.38115E+00
 -1      4128 3.57257E+00
 -1      4129 3.05567E+00
 -1      4130 3.12203E-03
 -1      4131 3.19376E-03
 -1      4132 4.91595E-03
 -1      4133 2.65125E+00
 -1      4134 1.70665E+00
 -1      4135 1.55967E+00
 -1      4136 1.55967E+00
 -1      4137 1.99928E+00
 -1      4138 3.69024E+00
 -1      4139 3.47220E+00
 -1      4140 2.45655E-03
 -1      4141 1.71017E+00
 -1      4142 1.43510E+00
 -1      4143 2.13791E+00
 -1      4144 1.18900E+00
 -1      4145 1.01263E+00
 -1      4146 1.35338E+00
 -1      4147 8.57343E-01
 -1      4148 7.38001E-01
 -1      4149 9.51998E-01
 -1      4150 6.35721E-01
 -1      4151 5.50818E-01
 -1      4152 6.94433E-01
 -1      4153 4.77624E-01
 -1      4154 4.14968E-01
 -1      4155 5.18959E-01
 -1      4156 3.60938E-01
 -1      4157 3.13669E-01
 -1      4158 3.91736E-01
 -1      4159 2.72783E-01
 -1      4160 2.36730E-01
 -1      4161 2.96820E-01
 -1      4162 2.05345E-01
 -1      4163 1.77714E-01
 -1      4164 2.24549E-01
 -1      4165 1.53475E-01
 -1      4166 1.32293E-01
 -1      4167 1.68926E-01
 -1      4168 1.13571E-01
 -1      4169 9.73848E-02
 -1      4170 1.25965E-01
 -1      4171 8.31699E-02
 -1      4172 7.09905E-02
 -1      4173 9.30277E-02
 -1      4174 6.00613E-02
 -1      4175 5.08669E-02
 -1      4176 6.78836E-02
 -1      4177 4.25422E-02
 -1      4178 3.56756E-02
 -1      4179 4.86298E-02
 -1      4180 2.95256E-02
 -1      4181 2.48636E-02
 -1      4182 3.41550E-02
 -1      4183 2.05684E-02
 -1      4184 1.70764E-02
 -1      4185 2.37097E-02
 -1      4186 1.38615E-02
 -1      4187 1.12804E-02
 -1      4188 1.61996E-02
 -1      4189 8.88815E-03
 -1      4190 7.00617E-03
 -1      4191 1.05925E-02
 -1      4192 5.22850E-03
 -1      4193 3.86964E-03
 -1      4194 6.42261E-03
 -1      4195 1.16195E+00
 -1      4196 9.35399E-01
 -1      4197 9.47071E-01
 -1      4198 2.88739E+00
 -1      4199 4.56606E-03
 -1      4200 5.62421E-03
 -1      4201 3.56568E+00
 -1      4202 3.67752E-01
 -1      4203 4.15211E-01
 -1      4204 9.47071E-01
 -1      4205 1.03621E+00
 -1      4206 1.20450E+00
 -1      4207 9.47071E-01
 -1      4208 4.01995E-03
 -1      4209 1.69915E+00
 -1      4210 2.01169E+00
 -1      4211 4.92356E-01
 -1      4212 5.51744E-01
 -1      4213 4.91931E-01
 -1      4214 6.61976E-01
 -1      4215 7.35847E-01
 -1      4216 6.79308E-01
 -1      4217 2.74779E-01
 -1      4218 3.12565E-01
 -1      4219 3.59600E-01
 -1      4220 2.04602E-01
 -1      4221 2.34542E-01
 -1      4222 2.64177E-01
 -1      4223 1.51287E-01
 -1      4224 1.74849E-01
 -1      4225 1.94186E-01
 -1      4226 1.10709E-01
 -1      4227 1.29090E-01
 -1      4228 1.42237E-01
 -1      4229 7.98990E-02
 -1      4230 9.40843E-02
 -1      4231 1.03416E-01
 -1      4232 5.66456E-02
 -1      4233 6.74538E-02
 -1      4234 7.43463E-02
 -1      4235 3.92557E-02
 -1      4236 4.73694E-02
 -1      4237 5.26248E-02
 -1      4238 2.69825E-02
 -1      4239 3.27109E-02
 -1      4240 3.68038E-02
 -1      4241 1.82697E-02
 -1      4242 2.23113E-02
 -1      4243 2.55877E-02
 -1      4244 1.19706E-02
 -1      4245 1.48854E-02
 -1      4246 1.75321E-02
 -1      4247 7.33948E-03
 -1      4248 9.38390E-03
 -1      4249 1.15610E-02
 -1      4250 2.81062E+00
 -1      4251 3.04859E+00
 -1      4252 2.32382E+00
 -1      4253 8.95825E-01
 -1      4254 9.86042E-01
 -1      4255 9.49519E-01
 -1      4256 3.13181E+00
 -1      4257 2.44109E+00
 -1      4258 2.24371E+00
 -1      4259 3.08856E+00
 -1      4260 1.21343E+00
 -1      4261 1.36295E+00
 -1      4262 1.33689E+00
 -1      4263 5.40923E-03
 -1      4264 1.36295E+00
 -1      4265 1.57971E+00
 -1      4266 1.56428E+00
 -1      4267 2.06252E-03
 -1      4268 3.61882E-03
 -1      4269 2.06252E-03
 -1      4270 2.13974E-03
 -1      4271 3.57499E-03
 -1      4272 2.59270E-03
 -1      4273 1.24325E+00
 -1      4274 1.16905E+00
 -1      4275 2.81166E+00
 -1      4276 3.04608E+00
 -1      4277 1.68372E+00
 -1      4278 2.64555E+00
 -1      4279 7.25911E-03
 -1      4280 2.44181E+00
 -1      4281 2.25215E+00
 -1      4282 1.71372E+00
 -1      4283 2.44181E+00
 -1      4284 6.23155E-03
 -1      4285 6.36616E-03
 -1      4286 8.08143E-03
 -1      4287 1.35163E+00
 -1      4288 1.75268E+00
 -1      4289 2.03444E+00
 -1      4290 1.31618E+00
 -1      4291 2.72061E+00
 -1      4292 5.87288E-03
 -1      4293 6.23155E-03
 -1      4294 7.18848E-03
 -1      4295 1.73743E+00
 -1      4296 1.49520E+00
 -1      4297 1.42100E+00
 -1      4298 2.17924E+00
 -1      4299 3.61882E-03
 -1      4300 1.58188E+00
 -1      4301 1.33578E+00
 -1      4302 1.10839E+00
 -1      4303 9.53105E-01
 -1      4304 1.33689E+00
 -1      4305 7.93127E-01
 -1      4306 6.90847E-01
 -1      4307 9.49519E-01
 -1      4308 5.80614E-01
 -1      4309 5.07421E-01
 -1      4310 6.79308E-01
 -1      4311 4.30276E-01
 -1      4312 3.76247E-01
 -1      4313 4.91931E-01
 -1      4314 3.21060E-01
 -1      4315 2.80173E-01
 -1      4316 3.59600E-01
 -1      4317 2.43994E-01
 -1      4318 2.12609E-01
 -1      4319 2.68234E-01
 -1      4320 1.85080E-01
 -1      4321 1.60842E-01
 -1      4322 2.04525E-01
 -1      4323 1.39150E-01
 -1      4324 1.20427E-01
 -1      4325 1.55304E-01
 -1      4326 1.03397E-01
 -1      4327 8.91822E-02
 -1      4328 1.16582E-01
 -1      4329 7.60190E-02
 -1      4330 6.50899E-02
 -1      4331 8.63884E-02
 -1      4332 5.49583E-02
 -1      4333 4.66336E-02
 -1      4334 6.30937E-02
 -1      4335 3.88573E-02
 -1      4336 3.27072E-02
 -1      4337 4.51858E-02
 -1      4338 2.68241E-02
 -1      4339 2.25289E-02
 -1      4340 3.15264E-02
 -1      4341 1.85157E-02
 -1      4342 1.53008E-02
 -1      4343 2.16301E-02
 -1      4344 1.22345E-02
 -1      4345 9.84224E-03
 -1      4346 1.45505E-02
 -1      4347 7.69438E-03
 -1      4348 5.91671E-03
 -1      4349 2.72900E+00
 -1      4350 2.27997E-01
 -1      4351 2.68234E-01
 -1      4352 3.04414E-01
 -1      4353 3.59600E-01
 -1      4354 5.69076E-01
 -1      4355 6.79308E-01
 -1      4356 1.70715E-01
 -1      4357 2.00468E-01
 -1      4358 1.26826E-01
 -1      4359 1.49022E-01
 -1      4360 9.31715E-02
 -1      4361 1.09796E-01
 -1      4362 6.75632E-02
 -1      4363 8.00084E-02
 -1      4364 4.81554E-02
 -1      4365 5.74316E-02
 -1      4366 3.38342E-02
 -1      4367 4.03790E-02
 -1      4368 2.32799E-02
 -1      4369 2.79511E-02
 -1      4370 1.58823E-02
 -1      4371 1.92666E-02
 -1      4372 1.02293E-02
 -1      4373 1.28160E-02
 -1      4374 7.89541E-01
 -1      4375 9.49519E-01
 -1      4376 2.13927E+00
 -1      4377 4.14787E-01
 -1      4378 4.91931E-01
 -1      4379 1.31618E+00
 -1      4380 1.56428E+00
 -1      4381 1.56428E+00
 -1      4382 1.10950E+00
 -1      4383 1.33689E+00
 -1      4384 2.30288E+00
 -1      4385 1.69612E+00
 -1      4386 1.56813E+00
 -1      4387 9.33634E-03
 -1      4388 2.10675E+00
 -1      4389 2.44181E+00
 -1      4390 1.82795E+00
 -1      4391 9.33634E-03
 -1      4392 4.60111E-03
 -1      4393 1.69612E+00
 -1      4394 1.81556E+00
 -1      4395 1.69612E+00
 -1      4396 2.09435E+00
 -3
 9999
