    1C
    1UUSER                                                              
    1UDATE              27.october.2022                                 
    1UTIME              00:49:23                                        
    1UHOST                                                              
    1UPGM               CalculiX                                        
    1UVERSION           Version 2.17                             
    1UCOMPILETIME       Thu Jul 23 21:43:50 CEST 2020                    
    1UDIR                                                               
    1UDBN                                                               
    1UMAT    1SOLIDMATERIAL                                             
    2C                          4281                                     1
 -1         1 2.80822E+01 2.21512E+01 0.00000E+00
 -1         2 3.50631E+01 1.51513E+01 0.00000E+00
 -1         3 1.50000E+02 0.00000E+00 0.00000E+00
 -1         4 1.50000E+02 5.00000E+01 0.00000E+00
 -1         5 0.00000E+00 0.00000E+00 0.00000E+00
 -1         6 0.00000E+00 5.00000E+01 0.00000E+00
 -1         7 0.00000E+00 4.70500E+01 0.00000E+00
 -1         8 0.00000E+00 4.41000E+01 0.00000E+00
 -1         9 0.00000E+00 4.11500E+01 0.00000E+00
 -1        10 0.00000E+00 3.82000E+01 0.00000E+00
 -1        11 0.00000E+00 3.52500E+01 0.00000E+00
 -1        12 0.00000E+00 3.23500E+01 0.00000E+00
 -1        13 0.00000E+00 2.94000E+01 0.00000E+00
 -1        14 0.00000E+00 2.64500E+01 0.00000E+00
 -1        15 0.00000E+00 2.35000E+01 0.00000E+00
 -1        16 0.00000E+00 2.05500E+01 0.00000E+00
 -1        17 0.00000E+00 1.76000E+01 0.00000E+00
 -1        18 0.00000E+00 1.47000E+01 0.00000E+00
 -1        19 0.00000E+00 1.17500E+01 0.00000E+00
 -1        20 0.00000E+00 8.80000E+00 0.00000E+00
 -1        21 0.00000E+00 5.85000E+00 0.00000E+00
 -1        22 0.00000E+00 2.90000E+00 0.00000E+00
 -1        23 3.15000E+00 5.00000E+01 0.00000E+00
 -1        24 6.15000E+00 5.00000E+01 0.00000E+00
 -1        25 9.15000E+00 5.00000E+01 0.00000E+00
 -1        26 1.21500E+01 5.00000E+01 0.00000E+00
 -1        27 1.51500E+01 5.00000E+01 0.00000E+00
 -1        28 1.81500E+01 5.00000E+01 0.00000E+00
 -1        29 2.11500E+01 5.00000E+01 0.00000E+00
 -1        30 2.41500E+01 5.00000E+01 0.00000E+00
 -1        31 2.71500E+01 5.00000E+01 0.00000E+00
 -1        32 3.01500E+01 5.00000E+01 0.00000E+00
 -1        33 3.31500E+01 5.00000E+01 0.00000E+00
 -1        34 3.61500E+01 5.00000E+01 0.00000E+00
 -1        35 3.91500E+01 5.00000E+01 0.00000E+00
 -1        36 4.21500E+01 5.00000E+01 0.00000E+00
 -1        37 4.51500E+01 5.00000E+01 0.00000E+00
 -1        38 4.81500E+01 5.00000E+01 0.00000E+00
 -1        39 5.11500E+01 5.00000E+01 0.00000E+00
 -1        40 5.41500E+01 5.00000E+01 0.00000E+00
 -1        41 5.71500E+01 5.00000E+01 0.00000E+00
 -1        42 6.01500E+01 5.00000E+01 0.00000E+00
 -1        43 6.31500E+01 5.00000E+01 0.00000E+00
 -1        44 6.61500E+01 5.00000E+01 0.00000E+00
 -1        45 6.91500E+01 5.00000E+01 0.00000E+00
 -1        46 7.21500E+01 5.00000E+01 0.00000E+00
 -1        47 7.51500E+01 5.00000E+01 0.00000E+00
 -1        48 7.81500E+01 5.00000E+01 0.00000E+00
 -1        49 8.11500E+01 5.00000E+01 0.00000E+00
 -1        50 8.41500E+01 5.00000E+01 0.00000E+00
 -1        51 8.71500E+01 5.00000E+01 0.00000E+00
 -1        52 9.01500E+01 5.00000E+01 0.00000E+00
 -1        53 9.31500E+01 5.00000E+01 0.00000E+00
 -1        54 9.61500E+01 5.00000E+01 0.00000E+00
 -1        55 9.91500E+01 5.00000E+01 0.00000E+00
 -1        56 1.02150E+02 5.00000E+01 0.00000E+00
 -1        57 1.05150E+02 5.00000E+01 0.00000E+00
 -1        58 1.08150E+02 5.00000E+01 0.00000E+00
 -1        59 1.11150E+02 5.00000E+01 0.00000E+00
 -1        60 1.14150E+02 5.00000E+01 0.00000E+00
 -1        61 1.17150E+02 5.00000E+01 0.00000E+00
 -1        62 1.20150E+02 5.00000E+01 0.00000E+00
 -1        63 1.23150E+02 5.00000E+01 0.00000E+00
 -1        64 1.26150E+02 5.00000E+01 0.00000E+00
 -1        65 1.29150E+02 5.00000E+01 0.00000E+00
 -1        66 1.32150E+02 5.00000E+01 0.00000E+00
 -1        67 1.35150E+02 5.00000E+01 0.00000E+00
 -1        68 1.38150E+02 5.00000E+01 0.00000E+00
 -1        69 1.41150E+02 5.00000E+01 0.00000E+00
 -1        70 1.44150E+02 5.00000E+01 0.00000E+00
 -1        71 1.47150E+02 5.00000E+01 0.00000E+00
 -1        72 3.15000E+00 0.00000E+00 0.00000E+00
 -1        73 6.15000E+00 0.00000E+00 0.00000E+00
 -1        74 9.15000E+00 0.00000E+00 0.00000E+00
 -1        75 1.21500E+01 0.00000E+00 0.00000E+00
 -1        76 1.51500E+01 0.00000E+00 0.00000E+00
 -1        77 1.83000E+01 0.00000E+00 0.00000E+00
 -1        78 2.13000E+01 0.00000E+00 0.00000E+00
 -1        79 2.43000E+01 0.00000E+00 0.00000E+00
 -1        80 2.70000E+01 0.00000E+00 0.00000E+00
 -1        81 2.97000E+01 0.00000E+00 0.00000E+00
 -1        82 3.25500E+01 0.00000E+00 0.00000E+00
 -1        83 3.52500E+01 0.00000E+00 0.00000E+00
 -1        84 3.81000E+01 0.00000E+00 0.00000E+00
 -1        85 4.11000E+01 0.00000E+00 0.00000E+00
 -1        86 4.41000E+01 0.00000E+00 0.00000E+00
 -1        87 4.71000E+01 0.00000E+00 0.00000E+00
 -1        88 5.02500E+01 0.00000E+00 0.00000E+00
 -1        89 5.32500E+01 0.00000E+00 0.00000E+00
 -1        90 5.62500E+01 0.00000E+00 0.00000E+00
 -1        91 5.92500E+01 0.00000E+00 0.00000E+00
 -1        92 6.22500E+01 0.00000E+00 0.00000E+00
 -1        93 6.54000E+01 0.00000E+00 0.00000E+00
 -1        94 6.84000E+01 0.00000E+00 0.00000E+00
 -1        95 7.14000E+01 0.00000E+00 0.00000E+00
 -1        96 7.44000E+01 0.00000E+00 0.00000E+00
 -1        97 7.74000E+01 0.00000E+00 0.00000E+00
 -1        98 8.04000E+01 0.00000E+00 0.00000E+00
 -1        99 8.35500E+01 0.00000E+00 0.00000E+00
 -1       100 8.65500E+01 0.00000E+00 0.00000E+00
 -1       101 8.95500E+01 0.00000E+00 0.00000E+00
 -1       102 9.25500E+01 0.00000E+00 0.00000E+00
 -1       103 9.55500E+01 0.00000E+00 0.00000E+00
 -1       104 9.85500E+01 0.00000E+00 0.00000E+00
 -1       105 1.01700E+02 0.00000E+00 0.00000E+00
 -1       106 1.04700E+02 0.00000E+00 0.00000E+00
 -1       107 1.07700E+02 0.00000E+00 0.00000E+00
 -1       108 1.10700E+02 0.00000E+00 0.00000E+00
 -1       109 1.13700E+02 0.00000E+00 0.00000E+00
 -1       110 1.16850E+02 0.00000E+00 0.00000E+00
 -1       111 1.19850E+02 0.00000E+00 0.00000E+00
 -1       112 1.22850E+02 0.00000E+00 0.00000E+00
 -1       113 1.25850E+02 0.00000E+00 0.00000E+00
 -1       114 1.28850E+02 0.00000E+00 0.00000E+00
 -1       115 1.31850E+02 0.00000E+00 0.00000E+00
 -1       116 1.35000E+02 0.00000E+00 0.00000E+00
 -1       117 1.38000E+02 0.00000E+00 0.00000E+00
 -1       118 1.41000E+02 0.00000E+00 0.00000E+00
 -1       119 1.44000E+02 0.00000E+00 0.00000E+00
 -1       120 1.47000E+02 0.00000E+00 0.00000E+00
 -1       121 1.50000E+02 2.95000E+00 0.00000E+00
 -1       122 1.50000E+02 5.90000E+00 0.00000E+00
 -1       123 1.50000E+02 8.85000E+00 0.00000E+00
 -1       124 1.50000E+02 1.18000E+01 0.00000E+00
 -1       125 1.50000E+02 1.47500E+01 0.00000E+00
 -1       126 1.50000E+02 1.76500E+01 0.00000E+00
 -1       127 1.50000E+02 2.06000E+01 0.00000E+00
 -1       128 1.50000E+02 2.35500E+01 0.00000E+00
 -1       129 1.50000E+02 2.65000E+01 0.00000E+00
 -1       130 1.50000E+02 2.94500E+01 0.00000E+00
 -1       131 1.50000E+02 3.24000E+01 0.00000E+00
 -1       132 1.50000E+02 3.53000E+01 0.00000E+00
 -1       133 1.50000E+02 3.82500E+01 0.00000E+00
 -1       134 1.50000E+02 4.12000E+01 0.00000E+00
 -1       135 1.50000E+02 4.41500E+01 0.00000E+00
 -1       136 1.50000E+02 4.71000E+01 0.00000E+00
 -1       137 3.49004E+01 1.36510E+01 0.00000E+00
 -1       138 3.43796E+01 1.21344E+01 0.00000E+00
 -1       139 3.36324E+01 1.09106E+01 0.00000E+00
 -1       140 3.26588E+01 9.87118E+00 0.00000E+00
 -1       141 3.14975E+01 9.05170E+00 0.00000E+00
 -1       142 3.00593E+01 8.44192E+00 0.00000E+00
 -1       143 2.86323E+01 8.17446E+00 0.00000E+00
 -1       144 2.70789E+01 8.22081E+00 0.00000E+00
 -1       145 2.55794E+01 8.60674E+00 0.00000E+00
 -1       146 2.41312E+01 9.35987E+00 0.00000E+00
 -1       147 2.29570E+01 1.03630E+01 0.00000E+00
 -1       148 2.20678E+01 1.15379E+01 0.00000E+00
 -1       149 2.14591E+01 1.28304E+01 0.00000E+00
 -1       150 2.11240E+01 1.42301E+01 0.00000E+00
 -1       151 2.10830E+01 1.56780E+01 0.00000E+00
 -1       152 2.13689E+01 1.71977E+01 0.00000E+00
 -1       153 2.19326E+01 1.85301E+01 0.00000E+00
 -1       154 2.27649E+01 1.97261E+01 0.00000E+00
 -1       155 2.38244E+01 2.07220E+01 0.00000E+00
 -1       156 2.51699E+01 2.15254E+01 0.00000E+00
 -1       157 2.65819E+01 2.19928E+01 0.00000E+00
 -1       158 2.96024E+01 2.19799E+01 0.00000E+00
 -1       159 3.11583E+01 2.14298E+01 0.00000E+00
 -1       160 3.24435E+01 2.06113E+01 0.00000E+00
 -1       161 3.35145E+01 1.95424E+01 0.00000E+00
 -1       162 3.43474E+01 1.82348E+01 0.00000E+00
 -1       163 3.48820E+01 1.67331E+01 0.00000E+00
 -1       164 2.59800E+00 4.55750E+01 0.00000E+00
 -1       165 2.59800E+00 4.26250E+01 0.00000E+00
 -1       166 2.59800E+00 3.96750E+01 0.00000E+00
 -1       167 2.59800E+00 3.67250E+01 0.00000E+00
 -1       168 2.59800E+00 3.38250E+01 0.00000E+00
 -1       169 2.59800E+00 3.08750E+01 0.00000E+00
 -1       170 2.59800E+00 2.79250E+01 0.00000E+00
 -1       171 2.59800E+00 2.49750E+01 0.00000E+00
 -1       172 2.59800E+00 2.20250E+01 0.00000E+00
 -1       173 2.59800E+00 1.90750E+01 0.00000E+00
 -1       174 2.59800E+00 1.61750E+01 0.00000E+00
 -1       175 2.59800E+00 1.32250E+01 0.00000E+00
 -1       176 2.59800E+00 1.02750E+01 0.00000E+00
 -1       177 2.59800E+00 7.32500E+00 0.00000E+00
 -1       178 2.59800E+00 4.37500E+00 0.00000E+00
 -1       179 2.87400E+00 2.18750E+00 0.00000E+00
 -1       180 4.65000E+00 4.74020E+01 0.00000E+00
 -1       181 7.65000E+00 4.74020E+01 0.00000E+00
 -1       182 1.06500E+01 4.74020E+01 0.00000E+00
 -1       183 1.36500E+01 4.74020E+01 0.00000E+00
 -1       184 1.66500E+01 4.74020E+01 0.00000E+00
 -1       185 1.96500E+01 4.74020E+01 0.00000E+00
 -1       186 2.26500E+01 4.74020E+01 0.00000E+00
 -1       187 2.56500E+01 4.74020E+01 0.00000E+00
 -1       188 2.86500E+01 4.74020E+01 0.00000E+00
 -1       189 3.16500E+01 4.74020E+01 0.00000E+00
 -1       190 3.46500E+01 4.74020E+01 0.00000E+00
 -1       191 3.76500E+01 4.74020E+01 0.00000E+00
 -1       192 4.06500E+01 4.74020E+01 0.00000E+00
 -1       193 4.36500E+01 4.74020E+01 0.00000E+00
 -1       194 4.66500E+01 4.74020E+01 0.00000E+00
 -1       195 4.96500E+01 4.74020E+01 0.00000E+00
 -1       196 5.26500E+01 4.74020E+01 0.00000E+00
 -1       197 5.56500E+01 4.74020E+01 0.00000E+00
 -1       198 5.86500E+01 4.74020E+01 0.00000E+00
 -1       199 6.16500E+01 4.74020E+01 0.00000E+00
 -1       200 6.46500E+01 4.74020E+01 0.00000E+00
 -1       201 6.76500E+01 4.74020E+01 0.00000E+00
 -1       202 7.06500E+01 4.74020E+01 0.00000E+00
 -1       203 7.36500E+01 4.74020E+01 0.00000E+00
 -1       204 7.66500E+01 4.74020E+01 0.00000E+00
 -1       205 7.96500E+01 4.74020E+01 0.00000E+00
 -1       206 8.26500E+01 4.74020E+01 0.00000E+00
 -1       207 8.56500E+01 4.74020E+01 0.00000E+00
 -1       208 8.86500E+01 4.74020E+01 0.00000E+00
 -1       209 9.16500E+01 4.74020E+01 0.00000E+00
 -1       210 9.46500E+01 4.74020E+01 0.00000E+00
 -1       211 9.76500E+01 4.74020E+01 0.00000E+00
 -1       212 1.00650E+02 4.74020E+01 0.00000E+00
 -1       213 1.03650E+02 4.74020E+01 0.00000E+00
 -1       214 1.06650E+02 4.74020E+01 0.00000E+00
 -1       215 1.09650E+02 4.74020E+01 0.00000E+00
 -1       216 1.12650E+02 4.74020E+01 0.00000E+00
 -1       217 1.15650E+02 4.74020E+01 0.00000E+00
 -1       218 1.18650E+02 4.74020E+01 0.00000E+00
 -1       219 1.21650E+02 4.74020E+01 0.00000E+00
 -1       220 1.24650E+02 4.74020E+01 0.00000E+00
 -1       221 1.27650E+02 4.74020E+01 0.00000E+00
 -1       222 1.30650E+02 4.74020E+01 0.00000E+00
 -1       223 1.33650E+02 4.74020E+01 0.00000E+00
 -1       224 1.36650E+02 4.74020E+01 0.00000E+00
 -1       225 1.39650E+02 4.74020E+01 0.00000E+00
 -1       226 1.42650E+02 4.74020E+01 0.00000E+00
 -1       227 1.45650E+02 4.74020E+01 0.00000E+00
 -1       228 5.87400E+00 2.18750E+00 0.00000E+00
 -1       229 8.87400E+00 2.18750E+00 0.00000E+00
 -1       230 1.18740E+01 2.18750E+00 0.00000E+00
 -1       231 1.48740E+01 2.18750E+00 0.00000E+00
 -1       232 1.80240E+01 2.18750E+00 0.00000E+00
 -1       233 2.10240E+01 2.18750E+00 0.00000E+00
 -1       234 2.40240E+01 2.18750E+00 0.00000E+00
 -1       235 2.67240E+01 2.18750E+00 0.00000E+00
 -1       236 2.94240E+01 2.18750E+00 0.00000E+00
 -1       237 3.22740E+01 2.18750E+00 0.00000E+00
 -1       238 3.49740E+01 2.18750E+00 0.00000E+00
 -1       239 3.78240E+01 2.18750E+00 0.00000E+00
 -1       240 4.08240E+01 2.18750E+00 0.00000E+00
 -1       241 4.38240E+01 2.18750E+00 0.00000E+00
 -1       242 4.68240E+01 2.18750E+00 0.00000E+00
 -1       243 4.99740E+01 2.18750E+00 0.00000E+00
 -1       244 5.29740E+01 2.18750E+00 0.00000E+00
 -1       245 5.59740E+01 2.18750E+00 0.00000E+00
 -1       246 5.89740E+01 2.18750E+00 0.00000E+00
 -1       247 6.19740E+01 2.18750E+00 0.00000E+00
 -1       248 6.51240E+01 2.18750E+00 0.00000E+00
 -1       249 6.81240E+01 2.18750E+00 0.00000E+00
 -1       250 7.11240E+01 2.18750E+00 0.00000E+00
 -1       251 7.41240E+01 2.18750E+00 0.00000E+00
 -1       252 7.71240E+01 2.18750E+00 0.00000E+00
 -1       253 8.01240E+01 2.18750E+00 0.00000E+00
 -1       254 8.32740E+01 2.18750E+00 0.00000E+00
 -1       255 8.62740E+01 2.18750E+00 0.00000E+00
 -1       256 8.92740E+01 2.18750E+00 0.00000E+00
 -1       257 9.22740E+01 2.18750E+00 0.00000E+00
 -1       258 9.52740E+01 2.18750E+00 0.00000E+00
 -1       259 9.82740E+01 2.18750E+00 0.00000E+00
 -1       260 1.01424E+02 2.18750E+00 0.00000E+00
 -1       261 1.04424E+02 2.18750E+00 0.00000E+00
 -1       262 1.07424E+02 2.18750E+00 0.00000E+00
 -1       263 1.10424E+02 2.18750E+00 0.00000E+00
 -1       264 1.13424E+02 2.18750E+00 0.00000E+00
 -1       265 1.16574E+02 2.18750E+00 0.00000E+00
 -1       266 1.19574E+02 2.18750E+00 0.00000E+00
 -1       267 1.22574E+02 2.18750E+00 0.00000E+00
 -1       268 1.25574E+02 2.18750E+00 0.00000E+00
 -1       269 1.28574E+02 2.18750E+00 0.00000E+00
 -1       270 1.31574E+02 2.18750E+00 0.00000E+00
 -1       271 1.34724E+02 2.18750E+00 0.00000E+00
 -1       272 1.37724E+02 2.18750E+00 0.00000E+00
 -1       273 1.40724E+02 2.18750E+00 0.00000E+00
 -1       274 1.43724E+02 2.18750E+00 0.00000E+00
 -1       275 1.46724E+02 2.18750E+00 0.00000E+00
 -1       276 1.47402E+02 4.42500E+00 0.00000E+00
 -1       277 1.47402E+02 7.37500E+00 0.00000E+00
 -1       278 1.47402E+02 1.03250E+01 0.00000E+00
 -1       279 1.47402E+02 1.32750E+01 0.00000E+00
 -1       280 1.47402E+02 1.61750E+01 0.00000E+00
 -1       281 1.47402E+02 1.91250E+01 0.00000E+00
 -1       282 1.47402E+02 2.20750E+01 0.00000E+00
 -1       283 1.47402E+02 2.50250E+01 0.00000E+00
 -1       284 1.47402E+02 2.79750E+01 0.00000E+00
 -1       285 1.47402E+02 3.09250E+01 0.00000E+00
 -1       286 1.47402E+02 3.38250E+01 0.00000E+00
 -1       287 1.47402E+02 3.67750E+01 0.00000E+00
 -1       288 1.47402E+02 3.97250E+01 0.00000E+00
 -1       289 1.47402E+02 4.26750E+01 0.00000E+00
 -1       290 1.46526E+02 4.50385E+01 0.00000E+00
 -1       291 3.65203E+01 1.42343E+01 0.00000E+00
 -1       292 3.61037E+01 1.23900E+01 0.00000E+00
 -1       293 3.50407E+01 1.08906E+01 0.00000E+00
 -1       294 3.40916E+01 9.50480E+00 0.00000E+00
 -1       295 3.27772E+01 8.47085E+00 0.00000E+00
 -1       296 3.13497E+01 7.39917E+00 0.00000E+00
 -1       297 2.95692E+01 7.11655E+00 0.00000E+00
 -1       298 2.78144E+01 6.81829E+00 0.00000E+00
 -1       299 2.59643E+01 6.99623E+00 0.00000E+00
 -1       300 2.41412E+01 7.61034E+00 0.00000E+00
 -1       301 2.25389E+01 8.68479E+00 0.00000E+00
 -1       302 2.15457E+01 1.02188E+01 0.00000E+00
 -1       303 2.06666E+01 1.16675E+01 0.00000E+00
 -1       304 2.00310E+01 1.32284E+01 0.00000E+00
 -1       305 1.98916E+01 1.49197E+01 0.00000E+00
 -1       306 1.98698E+01 1.66931E+01 0.00000E+00
 -1       307 2.05342E+01 1.83363E+01 0.00000E+00
 -1       308 2.12848E+01 1.98685E+01 0.00000E+00
 -1       309 2.24642E+01 2.11074E+01 0.00000E+00
 -1       310 2.38756E+01 2.21647E+01 0.00000E+00
 -1       311 2.54949E+01 2.29101E+01 0.00000E+00
 -1       312 2.71959E+01 2.33610E+01 0.00000E+00
 -1       313 2.89781E+01 2.32704E+01 0.00000E+00
 -1       314 3.08403E+01 2.30059E+01 0.00000E+00
 -1       315 3.24521E+01 2.20432E+01 0.00000E+00
 -1       316 3.38355E+01 2.09350E+01 0.00000E+00
 -1       317 3.49535E+01 1.95399E+01 0.00000E+00
 -1       318 3.59147E+01 1.79468E+01 0.00000E+00
 -1       319 3.62603E+01 1.60896E+01 0.00000E+00
 -1       320 5.19600E+00 4.11500E+01 0.00000E+00
 -1       321 5.19600E+00 4.41000E+01 0.00000E+00
 -1       322 5.19600E+00 3.52750E+01 0.00000E+00
 -1       323 5.19600E+00 3.23250E+01 0.00000E+00
 -1       324 5.19600E+00 2.93750E+01 0.00000E+00
 -1       325 5.19600E+00 2.64250E+01 0.00000E+00
 -1       326 5.19600E+00 2.34750E+01 0.00000E+00
 -1       327 5.19600E+00 2.05250E+01 0.00000E+00
 -1       328 5.19600E+00 1.76250E+01 0.00000E+00
 -1       329 5.19600E+00 1.46750E+01 0.00000E+00
 -1       330 5.19600E+00 1.17250E+01 0.00000E+00
 -1       331 5.19600E+00 8.77500E+00 0.00000E+00
 -1       332 5.19600E+00 5.82500E+00 0.00000E+00
 -1       333 5.53500E+00 4.00625E+00 0.00000E+00
 -1       334 8.53500E+00 4.00625E+00 0.00000E+00
 -1       335 9.15000E+00 4.48040E+01 0.00000E+00
 -1       336 1.21500E+01 4.48040E+01 0.00000E+00
 -1       337 1.51500E+01 4.48040E+01 0.00000E+00
 -1       338 1.81500E+01 4.48040E+01 0.00000E+00
 -1       339 2.11500E+01 4.48040E+01 0.00000E+00
 -1       340 2.41500E+01 4.48040E+01 0.00000E+00
 -1       341 2.71500E+01 4.48040E+01 0.00000E+00
 -1       342 3.01500E+01 4.48040E+01 0.00000E+00
 -1       343 3.31500E+01 4.48040E+01 0.00000E+00
 -1       344 3.61500E+01 4.48040E+01 0.00000E+00
 -1       345 3.91500E+01 4.48040E+01 0.00000E+00
 -1       346 4.21500E+01 4.48040E+01 0.00000E+00
 -1       347 4.51500E+01 4.48040E+01 0.00000E+00
 -1       348 4.81500E+01 4.48040E+01 0.00000E+00
 -1       349 5.11500E+01 4.48040E+01 0.00000E+00
 -1       350 5.41500E+01 4.48040E+01 0.00000E+00
 -1       351 5.71500E+01 4.48040E+01 0.00000E+00
 -1       352 6.01500E+01 4.48040E+01 0.00000E+00
 -1       353 6.31500E+01 4.48040E+01 0.00000E+00
 -1       354 6.61500E+01 4.48040E+01 0.00000E+00
 -1       355 6.91500E+01 4.48040E+01 0.00000E+00
 -1       356 7.21500E+01 4.48040E+01 0.00000E+00
 -1       357 7.51500E+01 4.48040E+01 0.00000E+00
 -1       358 7.81500E+01 4.48040E+01 0.00000E+00
 -1       359 8.11500E+01 4.48040E+01 0.00000E+00
 -1       360 8.41500E+01 4.48040E+01 0.00000E+00
 -1       361 8.71500E+01 4.48040E+01 0.00000E+00
 -1       362 9.01500E+01 4.48040E+01 0.00000E+00
 -1       363 9.31500E+01 4.48040E+01 0.00000E+00
 -1       364 9.61500E+01 4.48040E+01 0.00000E+00
 -1       365 9.91500E+01 4.48040E+01 0.00000E+00
 -1       366 1.02150E+02 4.48040E+01 0.00000E+00
 -1       367 1.05150E+02 4.48040E+01 0.00000E+00
 -1       368 1.08150E+02 4.48040E+01 0.00000E+00
 -1       369 1.11150E+02 4.48040E+01 0.00000E+00
 -1       370 1.14150E+02 4.48040E+01 0.00000E+00
 -1       371 1.17150E+02 4.48040E+01 0.00000E+00
 -1       372 1.20150E+02 4.48040E+01 0.00000E+00
 -1       373 1.23150E+02 4.48040E+01 0.00000E+00
 -1       374 1.26150E+02 4.48040E+01 0.00000E+00
 -1       375 1.29150E+02 4.48040E+01 0.00000E+00
 -1       376 1.32150E+02 4.48040E+01 0.00000E+00
 -1       377 1.35150E+02 4.48040E+01 0.00000E+00
 -1       378 1.38150E+02 4.48040E+01 0.00000E+00
 -1       379 1.41150E+02 4.48040E+01 0.00000E+00
 -1       380 1.43838E+02 4.49212E+01 0.00000E+00
 -1       381 1.15350E+01 4.00625E+00 0.00000E+00
 -1       382 1.45350E+01 4.00625E+00 0.00000E+00
 -1       383 1.76850E+01 4.00625E+00 0.00000E+00
 -1       384 2.06850E+01 4.00625E+00 0.00000E+00
 -1       385 2.36850E+01 4.00625E+00 0.00000E+00
 -1       386 2.63850E+01 4.00625E+00 0.00000E+00
 -1       387 2.90850E+01 4.00625E+00 0.00000E+00
 -1       388 3.19350E+01 4.00625E+00 0.00000E+00
 -1       389 3.46350E+01 4.00625E+00 0.00000E+00
 -1       390 3.74850E+01 4.00625E+00 0.00000E+00
 -1       391 4.04850E+01 4.00625E+00 0.00000E+00
 -1       392 4.34850E+01 4.00625E+00 0.00000E+00
 -1       393 4.64850E+01 4.00625E+00 0.00000E+00
 -1       394 4.96350E+01 4.00625E+00 0.00000E+00
 -1       395 5.26350E+01 4.00625E+00 0.00000E+00
 -1       396 5.56350E+01 4.00625E+00 0.00000E+00
 -1       397 5.86350E+01 4.00625E+00 0.00000E+00
 -1       398 6.16350E+01 4.00625E+00 0.00000E+00
 -1       399 6.47850E+01 4.00625E+00 0.00000E+00
 -1       400 6.77850E+01 4.00625E+00 0.00000E+00
 -1       401 7.07850E+01 4.00625E+00 0.00000E+00
 -1       402 7.37850E+01 4.00625E+00 0.00000E+00
 -1       403 7.67850E+01 4.00625E+00 0.00000E+00
 -1       404 7.97850E+01 4.00625E+00 0.00000E+00
 -1       405 8.29350E+01 4.00625E+00 0.00000E+00
 -1       406 8.59350E+01 4.00625E+00 0.00000E+00
 -1       407 8.89350E+01 4.00625E+00 0.00000E+00
 -1       408 9.19350E+01 4.00625E+00 0.00000E+00
 -1       409 9.49350E+01 4.00625E+00 0.00000E+00
 -1       410 9.79350E+01 4.00625E+00 0.00000E+00
 -1       411 1.01085E+02 4.00625E+00 0.00000E+00
 -1       412 1.04085E+02 4.00625E+00 0.00000E+00
 -1       413 1.07085E+02 4.00625E+00 0.00000E+00
 -1       414 1.10085E+02 4.00625E+00 0.00000E+00
 -1       415 1.13085E+02 4.00625E+00 0.00000E+00
 -1       416 1.16235E+02 4.00625E+00 0.00000E+00
 -1       417 1.19235E+02 4.00625E+00 0.00000E+00
 -1       418 1.22235E+02 4.00625E+00 0.00000E+00
 -1       419 1.25235E+02 4.00625E+00 0.00000E+00
 -1       420 1.28235E+02 4.00625E+00 0.00000E+00
 -1       421 1.31235E+02 4.00625E+00 0.00000E+00
 -1       422 1.34385E+02 4.00625E+00 0.00000E+00
 -1       423 1.37385E+02 4.00625E+00 0.00000E+00
 -1       424 1.40385E+02 4.00625E+00 0.00000E+00
 -1       425 1.43385E+02 4.00625E+00 0.00000E+00
 -1       426 1.45393E+02 4.21562E+00 0.00000E+00
 -1       427 1.44804E+02 1.18000E+01 0.00000E+00
 -1       428 1.44804E+02 8.85000E+00 0.00000E+00
 -1       429 1.45099E+02 6.53281E+00 0.00000E+00
 -1       430 1.44804E+02 1.47000E+01 0.00000E+00
 -1       431 1.44804E+02 1.76500E+01 0.00000E+00
 -1       432 1.44804E+02 2.06000E+01 0.00000E+00
 -1       433 1.44804E+02 2.35500E+01 0.00000E+00
 -1       434 1.44804E+02 2.65000E+01 0.00000E+00
 -1       435 1.44804E+02 2.94500E+01 0.00000E+00
 -1       436 1.44804E+02 3.23500E+01 0.00000E+00
 -1       437 1.44804E+02 3.53000E+01 0.00000E+00
 -1       438 1.44804E+02 3.82500E+01 0.00000E+00
 -1       439 1.44804E+02 4.12000E+01 0.00000E+00
 -1       440 3.66296E+01 1.08907E+01 0.00000E+00
 -1       441 3.79229E+01 1.53767E+01 0.00000E+00
 -1       442 3.79849E+01 1.29342E+01 0.00000E+00
 -1       443 3.56805E+01 9.50488E+00 0.00000E+00
 -1       444 3.42876E+01 7.90321E+00 0.00000E+00
 -1       445 5.19600E+00 3.82125E+01 0.00000E+00
 -1       446 3.06758E+01 5.89497E+00 0.00000E+00
 -1       447 2.89211E+01 5.59670E+00 0.00000E+00
 -1       448 2.67412E+01 5.36684E+00 0.00000E+00
 -1       449 2.46122E+01 5.99552E+00 0.00000E+00
 -1       450 2.23849E+01 6.72308E+00 0.00000E+00
 -1       451 2.06730E+01 8.56516E+00 0.00000E+00
 -1       452 1.97939E+01 1.00139E+01 0.00000E+00
 -1       453 1.90707E+01 1.19275E+01 0.00000E+00
 -1       454 1.84189E+01 1.39469E+01 0.00000E+00
 -1       455 1.83972E+01 1.57203E+01 0.00000E+00
 -1       456 1.89226E+01 1.80320E+01 0.00000E+00
 -1       457 1.95198E+01 1.97833E+01 0.00000E+00
 -1       458 2.08750E+01 2.14395E+01 0.00000E+00
 -1       459 2.23426E+01 2.27405E+01 0.00000E+00
 -1       460 2.41082E+01 2.37909E+01 0.00000E+00
 -1       461 2.59274E+01 2.47124E+01 0.00000E+00
 -1       462 2.81699E+01 2.49449E+01 0.00000E+00
 -1       463 3.00321E+01 2.46805E+01 0.00000E+00
 -1       464 3.23109E+01 2.36374E+01 0.00000E+00
 -1       465 3.41637E+01 2.27623E+01 0.00000E+00
 -1       466 3.56021E+01 2.12053E+01 0.00000E+00
 -1       467 3.66157E+01 1.94562E+01 0.00000E+00
 -1       468 3.75773E+01 1.72339E+01 0.00000E+00
 -1       469 3.28601E+01 6.83153E+00 0.00000E+00
 -1       470 3.15027E+01 2.53119E+01 0.00000E+00
 -1       471 1.00350E+01 6.60425E+00 0.00000E+00
 -1       472 7.79400E+00 3.08500E+01 0.00000E+00
 -1       473 7.79400E+00 3.38000E+01 0.00000E+00
 -1       474 7.79400E+00 2.49500E+01 0.00000E+00
 -1       475 7.79400E+00 2.20000E+01 0.00000E+00
 -1       476 7.79400E+00 1.91000E+01 0.00000E+00
 -1       477 7.79400E+00 1.61500E+01 0.00000E+00
 -1       478 7.79400E+00 1.32000E+01 0.00000E+00
 -1       479 7.79400E+00 1.02500E+01 0.00000E+00
 -1       480 1.30350E+01 6.60425E+00 0.00000E+00
 -1       481 1.06500E+01 4.22060E+01 0.00000E+00
 -1       482 3.23448E+01 5.01794E+00 0.00000E+00
 -1       483 1.36500E+01 4.22060E+01 0.00000E+00
 -1       484 1.66500E+01 4.22060E+01 0.00000E+00
 -1       485 1.96500E+01 4.22060E+01 0.00000E+00
 -1       486 2.26500E+01 4.22060E+01 0.00000E+00
 -1       487 2.56500E+01 4.22060E+01 0.00000E+00
 -1       488 2.86500E+01 4.22060E+01 0.00000E+00
 -1       489 3.16500E+01 4.22060E+01 0.00000E+00
 -1       490 3.46500E+01 4.22060E+01 0.00000E+00
 -1       491 3.76500E+01 4.22060E+01 0.00000E+00
 -1       492 4.06500E+01 4.22060E+01 0.00000E+00
 -1       493 4.36500E+01 4.22060E+01 0.00000E+00
 -1       494 4.66500E+01 4.22060E+01 0.00000E+00
 -1       495 4.96500E+01 4.22060E+01 0.00000E+00
 -1       496 5.26500E+01 4.22060E+01 0.00000E+00
 -1       497 5.56500E+01 4.22060E+01 0.00000E+00
 -1       498 5.86500E+01 4.22060E+01 0.00000E+00
 -1       499 6.16500E+01 4.22060E+01 0.00000E+00
 -1       500 6.46500E+01 4.22060E+01 0.00000E+00
 -1       501 6.76500E+01 4.22060E+01 0.00000E+00
 -1       502 7.06500E+01 4.22060E+01 0.00000E+00
 -1       503 7.36500E+01 4.22060E+01 0.00000E+00
 -1       504 7.66500E+01 4.22060E+01 0.00000E+00
 -1       505 7.96500E+01 4.22060E+01 0.00000E+00
 -1       506 8.26500E+01 4.22060E+01 0.00000E+00
 -1       507 8.56500E+01 4.22060E+01 0.00000E+00
 -1       508 8.86500E+01 4.22060E+01 0.00000E+00
 -1       509 9.16500E+01 4.22060E+01 0.00000E+00
 -1       510 9.46500E+01 4.22060E+01 0.00000E+00
 -1       511 9.76500E+01 4.22060E+01 0.00000E+00
 -1       512 1.00650E+02 4.22060E+01 0.00000E+00
 -1       513 1.03650E+02 4.22060E+01 0.00000E+00
 -1       514 1.06650E+02 4.22060E+01 0.00000E+00
 -1       515 1.09650E+02 4.22060E+01 0.00000E+00
 -1       516 1.12650E+02 4.22060E+01 0.00000E+00
 -1       517 1.15650E+02 4.22060E+01 0.00000E+00
 -1       518 1.18650E+02 4.22060E+01 0.00000E+00
 -1       519 1.21650E+02 4.22060E+01 0.00000E+00
 -1       520 1.24650E+02 4.22060E+01 0.00000E+00
 -1       521 1.27650E+02 4.22060E+01 0.00000E+00
 -1       522 1.30650E+02 4.22060E+01 0.00000E+00
 -1       523 1.33650E+02 4.22060E+01 0.00000E+00
 -1       524 1.36650E+02 4.22060E+01 0.00000E+00
 -1       525 1.39650E+02 4.22060E+01 0.00000E+00
 -1       526 1.91850E+01 6.39163E+00 0.00000E+00
 -1       527 3.60600E+01 6.39164E+00 0.00000E+00
 -1       528 3.90600E+01 6.39164E+00 0.00000E+00
 -1       529 4.20600E+01 6.39164E+00 0.00000E+00
 -1       530 4.50600E+01 6.39164E+00 0.00000E+00
 -1       531 4.82100E+01 6.39164E+00 0.00000E+00
 -1       532 5.12100E+01 6.39164E+00 0.00000E+00
 -1       533 5.42100E+01 6.39164E+00 0.00000E+00
 -1       534 5.72100E+01 6.39164E+00 0.00000E+00
 -1       535 6.02100E+01 6.39164E+00 0.00000E+00
 -1       536 6.33600E+01 6.39164E+00 0.00000E+00
 -1       537 6.63600E+01 6.39164E+00 0.00000E+00
 -1       538 6.93600E+01 6.39164E+00 0.00000E+00
 -1       539 7.23600E+01 6.39164E+00 0.00000E+00
 -1       540 7.53600E+01 6.39164E+00 0.00000E+00
 -1       541 7.83600E+01 6.39164E+00 0.00000E+00
 -1       542 8.15100E+01 6.39164E+00 0.00000E+00
 -1       543 8.45100E+01 6.39164E+00 0.00000E+00
 -1       544 8.75100E+01 6.39164E+00 0.00000E+00
 -1       545 9.05100E+01 6.39164E+00 0.00000E+00
 -1       546 9.35100E+01 6.39164E+00 0.00000E+00
 -1       547 9.65100E+01 6.39164E+00 0.00000E+00
 -1       548 9.96600E+01 6.39164E+00 0.00000E+00
 -1       549 1.02660E+02 6.39164E+00 0.00000E+00
 -1       550 1.05660E+02 6.39164E+00 0.00000E+00
 -1       551 1.08660E+02 6.39164E+00 0.00000E+00
 -1       552 1.11660E+02 6.39164E+00 0.00000E+00
 -1       553 1.14810E+02 6.39164E+00 0.00000E+00
 -1       554 1.17810E+02 6.39164E+00 0.00000E+00
 -1       555 1.20810E+02 6.39164E+00 0.00000E+00
 -1       556 1.23810E+02 6.39164E+00 0.00000E+00
 -1       557 1.26810E+02 6.39164E+00 0.00000E+00
 -1       558 1.29810E+02 6.39164E+00 0.00000E+00
 -1       559 1.32960E+02 6.39164E+00 0.00000E+00
 -1       560 1.35960E+02 6.39164E+00 0.00000E+00
 -1       561 1.38960E+02 6.39164E+00 0.00000E+00
 -1       562 1.41960E+02 6.39164E+00 0.00000E+00
 -1       563 1.42206E+02 1.61750E+01 0.00000E+00
 -1       564 1.42206E+02 1.91250E+01 0.00000E+00
 -1       565 1.42206E+02 1.03250E+01 0.00000E+00
 -1       566 1.42206E+02 1.32500E+01 0.00000E+00
 -1       567 1.42206E+02 2.20750E+01 0.00000E+00
 -1       568 1.42206E+02 2.50250E+01 0.00000E+00
 -1       569 1.42206E+02 2.79750E+01 0.00000E+00
 -1       570 1.42206E+02 3.08750E+01 0.00000E+00
 -1       571 1.42206E+02 3.38250E+01 0.00000E+00
 -1       572 1.42206E+02 3.67750E+01 0.00000E+00
 -1       573 1.42206E+02 3.97250E+01 0.00000E+00
 -1       574 3.98360E+01 1.42033E+01 0.00000E+00
 -1       575 3.85271E+01 1.11035E+01 0.00000E+00
 -1       576 3.88244E+01 1.90927E+01 0.00000E+00
 -1       577 1.61100E+01 6.49794E+00 0.00000E+00
 -1       578 3.37722E+01 6.08961E+00 0.00000E+00
 -1       579 3.74319E+01 9.32336E+00 0.00000E+00
 -1       580 3.61518E+01 7.68851E+00 0.00000E+00
 -1       581 3.92715E+01 1.65884E+01 0.00000E+00
 -1       582 2.68717E+01 2.65346E+01 0.00000E+00
 -1       583 1.79847E+01 1.04236E+01 0.00000E+00
 -1       584 7.79400E+00 2.79000E+01 0.00000E+00
 -1       585 1.73329E+01 1.24431E+01 0.00000E+00
 -1       586 1.85849E+01 8.40763E+00 0.00000E+00
 -1       587 1.77565E+01 1.94071E+01 0.00000E+00
 -1       588 1.69444E+01 1.48157E+01 0.00000E+00
 -1       589 3.38982E+01 2.45991E+01 0.00000E+00
 -1       590 1.69874E+01 1.72563E+01 0.00000E+00
 -1       591 1.89349E+01 2.16444E+01 0.00000E+00
 -1       592 2.04710E+01 2.33734E+01 0.00000E+00
 -1       593 2.24342E+01 2.45957E+01 0.00000E+00
 -1       594 2.43185E+01 2.56322E+01 0.00000E+00
 -1       595 2.93304E+01 2.64278E+01 0.00000E+00
 -1       596 3.61427E+01 2.31476E+01 0.00000E+00
 -1       597 3.77378E+01 2.12748E+01 0.00000E+00
 -1       598 7.92300E+00 4.16780E+01 0.00000E+00
 -1       599 7.61550E+00 6.21462E+00 0.00000E+00
 -1       600 7.79400E+00 3.67375E+01 0.00000E+00
 -1       601 1.41678E+02 4.22645E+01 0.00000E+00
 -1       602 4.03782E+01 1.23725E+01 0.00000E+00
 -1       603 1.61064E+01 1.09323E+01 0.00000E+00
 -1       604 1.03920E+01 2.05500E+01 0.00000E+00
 -1       605 1.03920E+01 2.35000E+01 0.00000E+00
 -1       606 1.01794E+01 1.46750E+01 0.00000E+00
 -1       607 1.01794E+01 1.17250E+01 0.00000E+00
 -1       608 1.15350E+01 9.20225E+00 0.00000E+00
 -1       609 1.40178E+02 3.96665E+01 0.00000E+00
 -1       610 3.83736E+01 2.34319E+01 0.00000E+00
 -1       611 1.51500E+01 3.96080E+01 0.00000E+00
 -1       612 1.81500E+01 3.96080E+01 0.00000E+00
 -1       613 2.11500E+01 3.96080E+01 0.00000E+00
 -1       614 2.41500E+01 3.96080E+01 0.00000E+00
 -1       615 2.71500E+01 3.96080E+01 0.00000E+00
 -1       616 3.01500E+01 3.96080E+01 0.00000E+00
 -1       617 3.31500E+01 3.96080E+01 0.00000E+00
 -1       618 3.61500E+01 3.96080E+01 0.00000E+00
 -1       619 3.91500E+01 3.96080E+01 0.00000E+00
 -1       620 4.21500E+01 3.96080E+01 0.00000E+00
 -1       621 4.51500E+01 3.96080E+01 0.00000E+00
 -1       622 4.81500E+01 3.96080E+01 0.00000E+00
 -1       623 5.11500E+01 3.96080E+01 0.00000E+00
 -1       624 5.41500E+01 3.96080E+01 0.00000E+00
 -1       625 5.71500E+01 3.96080E+01 0.00000E+00
 -1       626 6.01500E+01 3.96080E+01 0.00000E+00
 -1       627 6.31500E+01 3.96080E+01 0.00000E+00
 -1       628 6.61500E+01 3.96080E+01 0.00000E+00
 -1       629 6.91500E+01 3.96080E+01 0.00000E+00
 -1       630 7.21500E+01 3.96080E+01 0.00000E+00
 -1       631 7.51500E+01 3.96080E+01 0.00000E+00
 -1       632 7.81500E+01 3.96080E+01 0.00000E+00
 -1       633 8.11500E+01 3.96080E+01 0.00000E+00
 -1       634 8.41500E+01 3.96080E+01 0.00000E+00
 -1       635 8.71500E+01 3.96080E+01 0.00000E+00
 -1       636 9.01500E+01 3.96080E+01 0.00000E+00
 -1       637 9.31500E+01 3.96080E+01 0.00000E+00
 -1       638 9.61500E+01 3.96080E+01 0.00000E+00
 -1       639 9.91500E+01 3.96080E+01 0.00000E+00
 -1       640 1.02150E+02 3.96080E+01 0.00000E+00
 -1       641 1.05150E+02 3.96080E+01 0.00000E+00
 -1       642 1.08150E+02 3.96080E+01 0.00000E+00
 -1       643 1.11150E+02 3.96080E+01 0.00000E+00
 -1       644 1.14150E+02 3.96080E+01 0.00000E+00
 -1       645 1.17150E+02 3.96080E+01 0.00000E+00
 -1       646 1.20150E+02 3.96080E+01 0.00000E+00
 -1       647 1.23150E+02 3.96080E+01 0.00000E+00
 -1       648 1.26150E+02 3.96080E+01 0.00000E+00
 -1       649 1.29150E+02 3.96080E+01 0.00000E+00
 -1       650 1.32150E+02 3.96080E+01 0.00000E+00
 -1       651 1.35150E+02 3.96080E+01 0.00000E+00
 -1       652 1.37664E+02 3.96372E+01 0.00000E+00
 -1       653 4.66350E+01 8.98964E+00 0.00000E+00
 -1       654 4.96350E+01 8.98964E+00 0.00000E+00
 -1       655 5.26350E+01 8.98964E+00 0.00000E+00
 -1       656 5.56350E+01 8.98964E+00 0.00000E+00
 -1       657 5.86350E+01 8.98964E+00 0.00000E+00
 -1       658 6.17850E+01 8.98964E+00 0.00000E+00
 -1       659 6.47850E+01 8.98964E+00 0.00000E+00
 -1       660 6.77850E+01 8.98964E+00 0.00000E+00
 -1       661 7.07850E+01 8.98964E+00 0.00000E+00
 -1       662 7.37850E+01 8.98964E+00 0.00000E+00
 -1       663 7.67850E+01 8.98964E+00 0.00000E+00
 -1       664 7.99350E+01 8.98964E+00 0.00000E+00
 -1       665 8.29350E+01 8.98964E+00 0.00000E+00
 -1       666 8.59350E+01 8.98964E+00 0.00000E+00
 -1       667 8.89350E+01 8.98964E+00 0.00000E+00
 -1       668 9.19350E+01 8.98964E+00 0.00000E+00
 -1       669 9.49350E+01 8.98964E+00 0.00000E+00
 -1       670 9.80850E+01 8.98964E+00 0.00000E+00
 -1       671 1.01085E+02 8.98964E+00 0.00000E+00
 -1       672 1.04085E+02 8.98964E+00 0.00000E+00
 -1       673 1.07085E+02 8.98964E+00 0.00000E+00
 -1       674 1.10085E+02 8.98964E+00 0.00000E+00
 -1       675 1.13235E+02 8.98964E+00 0.00000E+00
 -1       676 1.16235E+02 8.98964E+00 0.00000E+00
 -1       677 1.19235E+02 8.98964E+00 0.00000E+00
 -1       678 1.22235E+02 8.98964E+00 0.00000E+00
 -1       679 1.25235E+02 8.98964E+00 0.00000E+00
 -1       680 1.28235E+02 8.98964E+00 0.00000E+00
 -1       681 1.31385E+02 8.98964E+00 0.00000E+00
 -1       682 1.34385E+02 8.98964E+00 0.00000E+00
 -1       683 1.37385E+02 8.98964E+00 0.00000E+00
 -1       684 1.39796E+02 9.65732E+00 0.00000E+00
 -1       685 1.39608E+02 2.35500E+01 0.00000E+00
 -1       686 1.50835E+01 1.60692E+01 0.00000E+00
 -1       687 1.39608E+02 1.76500E+01 0.00000E+00
 -1       688 1.39608E+02 2.65000E+01 0.00000E+00
 -1       689 1.39608E+02 2.06000E+01 0.00000E+00
 -1       690 1.39608E+02 2.94000E+01 0.00000E+00
 -1       691 1.39608E+02 3.23500E+01 0.00000E+00
 -1       692 1.39608E+02 3.53000E+01 0.00000E+00
 -1       693 2.05904E+01 2.53693E+01 0.00000E+00
 -1       694 4.07364E+01 1.81420E+01 0.00000E+00
 -1       695 3.31896E+01 2.65994E+01 0.00000E+00
 -1       696 1.84208E+01 2.36481E+01 0.00000E+00
 -1       697 4.36350E+01 8.98964E+00 0.00000E+00
 -1       698 2.50794E+01 2.75425E+01 0.00000E+00
 -1       699 4.05600E+01 8.60947E+00 0.00000E+00
 -1       700 2.25901E+01 2.65433E+01 0.00000E+00
 -1       701 1.21500E+01 3.96080E+01 0.00000E+00
 -1       702 3.98164E+01 2.09482E+01 0.00000E+00
 -1       703 1.03920E+01 1.76000E+01 0.00000E+00
 -1       704 1.03920E+01 3.23250E+01 0.00000E+00
 -1       705 1.65317E+01 2.14812E+01 0.00000E+00
 -1       706 1.55288E+01 1.33657E+01 0.00000E+00
 -1       707 2.81828E+01 2.83621E+01 0.00000E+00
 -1       708 1.54414E+01 1.90220E+01 0.00000E+00
 -1       709 4.13008E+01 1.57569E+01 0.00000E+00
 -1       710 3.60428E+01 2.54543E+01 0.00000E+00
 -1       711 3.94403E+01 9.31463E+00 0.00000E+00
 -1       712 3.10172E+01 2.77153E+01 0.00000E+00
 -1       713 1.03920E+01 2.64500E+01 0.00000E+00
 -1       714 1.03920E+01 3.52625E+01 0.00000E+00
 -1       715 1.05210E+01 3.87342E+01 0.00000E+00
 -1       716 3.75600E+01 8.27432E+00 0.00000E+00
 -1       717 1.39796E+02 1.25823E+01 0.00000E+00
 -1       718 4.12913E+01 1.05837E+01 0.00000E+00
 -1       719 4.18430E+01 1.39261E+01 0.00000E+00
 -1       720 1.39702E+02 1.51162E+01 0.00000E+00
 -1       721 2.63904E+01 2.93700E+01 0.00000E+00
 -1       722 1.03920E+01 2.93875E+01 0.00000E+00
 -1       723 1.24977E+01 1.59767E+01 0.00000E+00
 -1       724 1.24977E+01 1.30267E+01 0.00000E+00
 -1       725 1.83355E+01 2.59836E+01 0.00000E+00
 -1       726 1.37010E+02 3.38250E+01 0.00000E+00
 -1       727 1.96500E+01 3.70100E+01 0.00000E+00
 -1       728 2.26500E+01 3.70100E+01 0.00000E+00
 -1       729 2.56500E+01 3.70100E+01 0.00000E+00
 -1       730 2.86500E+01 3.70100E+01 0.00000E+00
 -1       731 3.16500E+01 3.70100E+01 0.00000E+00
 -1       732 3.46500E+01 3.70100E+01 0.00000E+00
 -1       733 3.76500E+01 3.70100E+01 0.00000E+00
 -1       734 4.06500E+01 3.70100E+01 0.00000E+00
 -1       735 4.36500E+01 3.70100E+01 0.00000E+00
 -1       736 4.66500E+01 3.70100E+01 0.00000E+00
 -1       737 4.96500E+01 3.70100E+01 0.00000E+00
 -1       738 5.26500E+01 3.70100E+01 0.00000E+00
 -1       739 5.56500E+01 3.70100E+01 0.00000E+00
 -1       740 5.86500E+01 3.70100E+01 0.00000E+00
 -1       741 6.16500E+01 3.70100E+01 0.00000E+00
 -1       742 6.46500E+01 3.70100E+01 0.00000E+00
 -1       743 6.76500E+01 3.70100E+01 0.00000E+00
 -1       744 7.06500E+01 3.70100E+01 0.00000E+00
 -1       745 7.36500E+01 3.70100E+01 0.00000E+00
 -1       746 7.66500E+01 3.70100E+01 0.00000E+00
 -1       747 7.96500E+01 3.70100E+01 0.00000E+00
 -1       748 8.26500E+01 3.70100E+01 0.00000E+00
 -1       749 8.56500E+01 3.70100E+01 0.00000E+00
 -1       750 8.86500E+01 3.70100E+01 0.00000E+00
 -1       751 9.16500E+01 3.70100E+01 0.00000E+00
 -1       752 9.46500E+01 3.70100E+01 0.00000E+00
 -1       753 9.76500E+01 3.70100E+01 0.00000E+00
 -1       754 1.00650E+02 3.70100E+01 0.00000E+00
 -1       755 1.03650E+02 3.70100E+01 0.00000E+00
 -1       756 1.06650E+02 3.70100E+01 0.00000E+00
 -1       757 1.09650E+02 3.70100E+01 0.00000E+00
 -1       758 1.12650E+02 3.70100E+01 0.00000E+00
 -1       759 1.15650E+02 3.70100E+01 0.00000E+00
 -1       760 1.18650E+02 3.70100E+01 0.00000E+00
 -1       761 1.21650E+02 3.70100E+01 0.00000E+00
 -1       762 1.24650E+02 3.70100E+01 0.00000E+00
 -1       763 1.27650E+02 3.70100E+01 0.00000E+00
 -1       764 1.30650E+02 3.70100E+01 0.00000E+00
 -1       765 1.33650E+02 3.70100E+01 0.00000E+00
 -1       766 4.51350E+01 1.12075E+01 0.00000E+00
 -1       767 1.37010E+02 3.08750E+01 0.00000E+00
 -1       768 5.41350E+01 1.15876E+01 0.00000E+00
 -1       769 4.81350E+01 1.12075E+01 0.00000E+00
 -1       770 5.71350E+01 1.15876E+01 0.00000E+00
 -1       771 6.02850E+01 1.15876E+01 0.00000E+00
 -1       772 6.32850E+01 1.15876E+01 0.00000E+00
 -1       773 6.62850E+01 1.15876E+01 0.00000E+00
 -1       774 6.92850E+01 1.15876E+01 0.00000E+00
 -1       775 7.22850E+01 1.15876E+01 0.00000E+00
 -1       776 7.52850E+01 1.15876E+01 0.00000E+00
 -1       777 7.84350E+01 1.15876E+01 0.00000E+00
 -1       778 8.14350E+01 1.15876E+01 0.00000E+00
 -1       779 8.44350E+01 1.15876E+01 0.00000E+00
 -1       780 8.74350E+01 1.15876E+01 0.00000E+00
 -1       781 9.04350E+01 1.15876E+01 0.00000E+00
 -1       782 9.34350E+01 1.15876E+01 0.00000E+00
 -1       783 9.65850E+01 1.15876E+01 0.00000E+00
 -1       784 9.95850E+01 1.15876E+01 0.00000E+00
 -1       785 1.02585E+02 1.15876E+01 0.00000E+00
 -1       786 1.05585E+02 1.15876E+01 0.00000E+00
 -1       787 1.08585E+02 1.15876E+01 0.00000E+00
 -1       788 1.11735E+02 1.15876E+01 0.00000E+00
 -1       789 1.14735E+02 1.15876E+01 0.00000E+00
 -1       790 1.17735E+02 1.15876E+01 0.00000E+00
 -1       791 1.20735E+02 1.15876E+01 0.00000E+00
 -1       792 1.23735E+02 1.15876E+01 0.00000E+00
 -1       793 1.26735E+02 1.15876E+01 0.00000E+00
 -1       794 1.29885E+02 1.15876E+01 0.00000E+00
 -1       795 1.32885E+02 1.15876E+01 0.00000E+00
 -1       796 1.35885E+02 1.15876E+01 0.00000E+00
 -1       797 1.37840E+02 1.20850E+01 0.00000E+00
 -1       798 1.37010E+02 2.50250E+01 0.00000E+00
 -1       799 1.33935E+01 1.77721E+01 0.00000E+00
 -1       800 3.51605E+01 2.61720E+01 0.00000E+00
 -1       801 2.07219E+01 2.74354E+01 0.00000E+00
 -1       802 4.08678E+01 2.32199E+01 0.00000E+00
 -1       803 3.29637E+01 2.88320E+01 0.00000E+00
 -1       804 3.88813E+01 2.63713E+01 0.00000E+00
 -1       805 3.00189E+01 2.98742E+01 0.00000E+00
 -1       806 1.36500E+01 3.70100E+01 0.00000E+00
 -1       807 1.20210E+01 3.61362E+01 0.00000E+00
 -1       808 1.37337E+02 3.67311E+01 0.00000E+00
 -1       809 1.66500E+01 3.70100E+01 0.00000E+00
 -1       810 5.11350E+01 1.15876E+01 0.00000E+00
 -1       811 1.41122E+01 2.10825E+01 0.00000E+00
 -1       812 2.30086E+01 2.91011E+01 0.00000E+00
 -1       813 4.30137E+01 1.74216E+01 0.00000E+00
 -1       814 4.20938E+01 2.02278E+01 0.00000E+00
 -1       815 1.37010E+02 2.79500E+01 0.00000E+00
 -1       816 1.60572E+01 2.38018E+01 0.00000E+00
 -1       817 3.49346E+01 2.84046E+01 0.00000E+00
 -1       818 4.35559E+01 1.55908E+01 0.00000E+00
 -1       819 1.20210E+01 3.31987E+01 0.00000E+00
 -1       820 2.82265E+01 3.08821E+01 0.00000E+00
 -1       821 1.37010E+02 2.20750E+01 0.00000E+00
 -1       822 1.37010E+02 1.91250E+01 0.00000E+00
 -1       823 3.68955E+01 2.74036E+01 0.00000E+00
 -1       824 4.27562E+01 1.21373E+01 0.00000E+00
 -1       825 1.37104E+02 1.65912E+01 0.00000E+00
 -1       826 1.32246E+01 2.51259E+01 0.00000E+00
 -1       827 1.20210E+01 3.02612E+01 0.00000E+00
 -1       828 1.39858E+01 1.17142E+01 0.00000E+00
 -1       829 2.45237E+01 3.14464E+01 0.00000E+00
 -1       830 2.41500E+01 3.44120E+01 0.00000E+00
 -1       831 2.71500E+01 3.44120E+01 0.00000E+00
 -1       832 3.01500E+01 3.44120E+01 0.00000E+00
 -1       833 3.31500E+01 3.44120E+01 0.00000E+00
 -1       834 3.61500E+01 3.44120E+01 0.00000E+00
 -1       835 3.91500E+01 3.44120E+01 0.00000E+00
 -1       836 4.21500E+01 3.44120E+01 0.00000E+00
 -1       837 4.51500E+01 3.44120E+01 0.00000E+00
 -1       838 4.81500E+01 3.44120E+01 0.00000E+00
 -1       839 5.11500E+01 3.44120E+01 0.00000E+00
 -1       840 5.41500E+01 3.44120E+01 0.00000E+00
 -1       841 5.71500E+01 3.44120E+01 0.00000E+00
 -1       842 6.01500E+01 3.44120E+01 0.00000E+00
 -1       843 6.31500E+01 3.44120E+01 0.00000E+00
 -1       844 6.61500E+01 3.44120E+01 0.00000E+00
 -1       845 6.91500E+01 3.44120E+01 0.00000E+00
 -1       846 7.21500E+01 3.44120E+01 0.00000E+00
 -1       847 7.51500E+01 3.44120E+01 0.00000E+00
 -1       848 7.81500E+01 3.44120E+01 0.00000E+00
 -1       849 8.11500E+01 3.44120E+01 0.00000E+00
 -1       850 8.41500E+01 3.44120E+01 0.00000E+00
 -1       851 8.71500E+01 3.44120E+01 0.00000E+00
 -1       852 9.01500E+01 3.44120E+01 0.00000E+00
 -1       853 9.31500E+01 3.44120E+01 0.00000E+00
 -1       854 9.61500E+01 3.44120E+01 0.00000E+00
 -1       855 9.91500E+01 3.44120E+01 0.00000E+00
 -1       856 1.02150E+02 3.44120E+01 0.00000E+00
 -1       857 1.05150E+02 3.44120E+01 0.00000E+00
 -1       858 1.08150E+02 3.44120E+01 0.00000E+00
 -1       859 1.11150E+02 3.44120E+01 0.00000E+00
 -1       860 1.14150E+02 3.44120E+01 0.00000E+00
 -1       861 1.17150E+02 3.44120E+01 0.00000E+00
 -1       862 1.20150E+02 3.44120E+01 0.00000E+00
 -1       863 1.23150E+02 3.44120E+01 0.00000E+00
 -1       864 1.26150E+02 3.44120E+01 0.00000E+00
 -1       865 1.29150E+02 3.44120E+01 0.00000E+00
 -1       866 1.32150E+02 3.44120E+01 0.00000E+00
 -1       867 1.34412E+02 3.23500E+01 0.00000E+00
 -1       868 1.84631E+01 2.84611E+01 0.00000E+00
 -1       869 5.56350E+01 1.41856E+01 0.00000E+00
 -1       870 5.87850E+01 1.41856E+01 0.00000E+00
 -1       871 4.66350E+01 1.34253E+01 0.00000E+00
 -1       872 6.17850E+01 1.41856E+01 0.00000E+00
 -1       873 6.47850E+01 1.41856E+01 0.00000E+00
 -1       874 6.77850E+01 1.41856E+01 0.00000E+00
 -1       875 7.07850E+01 1.41856E+01 0.00000E+00
 -1       876 7.37850E+01 1.41856E+01 0.00000E+00
 -1       877 7.69350E+01 1.41856E+01 0.00000E+00
 -1       878 7.99350E+01 1.41856E+01 0.00000E+00
 -1       879 8.29350E+01 1.41856E+01 0.00000E+00
 -1       880 8.59350E+01 1.41856E+01 0.00000E+00
 -1       881 8.89350E+01 1.41856E+01 0.00000E+00
 -1       882 9.19350E+01 1.41856E+01 0.00000E+00
 -1       883 9.50850E+01 1.41856E+01 0.00000E+00
 -1       884 9.80850E+01 1.41856E+01 0.00000E+00
 -1       885 1.01085E+02 1.41856E+01 0.00000E+00
 -1       886 1.04085E+02 1.41856E+01 0.00000E+00
 -1       887 1.07085E+02 1.41856E+01 0.00000E+00
 -1       888 1.10235E+02 1.41856E+01 0.00000E+00
 -1       889 1.13235E+02 1.41856E+01 0.00000E+00
 -1       890 1.16235E+02 1.41856E+01 0.00000E+00
 -1       891 1.19235E+02 1.41856E+01 0.00000E+00
 -1       892 1.22235E+02 1.41856E+01 0.00000E+00
 -1       893 1.25235E+02 1.41856E+01 0.00000E+00
 -1       894 1.28385E+02 1.41856E+01 0.00000E+00
 -1       895 1.31385E+02 1.41856E+01 0.00000E+00
 -1       896 1.34385E+02 1.41856E+01 0.00000E+00
 -1       897 1.36500E+01 3.40725E+01 0.00000E+00
 -1       898 4.96350E+01 1.38055E+01 0.00000E+00
 -1       899 1.58439E+01 2.67935E+01 0.00000E+00
 -1       900 4.35330E+01 2.25648E+01 0.00000E+00
 -1       901 4.45020E+01 1.94634E+01 0.00000E+00
 -1       902 3.90659E+01 2.91527E+01 0.00000E+00
 -1       903 2.11500E+01 3.44120E+01 0.00000E+00
 -1       904 4.42390E+01 1.36757E+01 0.00000E+00
 -1       905 1.26228E+01 2.76936E+01 0.00000E+00
 -1       906 2.07498E+01 3.01268E+01 0.00000E+00
 -1       907 3.21753E+01 3.12859E+01 0.00000E+00
 -1       908 1.81500E+01 3.44120E+01 0.00000E+00
 -1       909 5.26350E+01 1.41856E+01 0.00000E+00
 -1       910 1.37472E+02 1.43381E+01 0.00000E+00
 -1       911 4.20343E+01 2.61570E+01 0.00000E+00
 -1       912 3.71050E+01 3.01537E+01 0.00000E+00
 -1       913 3.46401E+01 3.07198E+01 0.00000E+00
 -1       914 1.33543E+02 3.35320E+01 0.00000E+00
 -1       915 1.34412E+02 2.94250E+01 0.00000E+00
 -1       916 1.34412E+02 2.35500E+01 0.00000E+00
 -1       917 1.36500E+01 3.11350E+01 0.00000E+00
 -1       918 1.34412E+02 2.06000E+01 0.00000E+00
 -1       919 4.55501E+01 1.71362E+01 0.00000E+00
 -1       920 4.22188E+01 2.89383E+01 0.00000E+00
 -1       921 1.34506E+02 1.80662E+01 0.00000E+00
 -1       922 1.34412E+02 2.64875E+01 0.00000E+00
 -1       923 1.96500E+01 3.18140E+01 0.00000E+00
 -1       924 4.60926E+01 1.52807E+01 0.00000E+00
 -1       925 4.36500E+01 3.18140E+01 0.00000E+00
 -1       926 4.66500E+01 3.18140E+01 0.00000E+00
 -1       927 4.96500E+01 3.18140E+01 0.00000E+00
 -1       928 5.26500E+01 3.18140E+01 0.00000E+00
 -1       929 5.56500E+01 3.18140E+01 0.00000E+00
 -1       930 5.86500E+01 3.18140E+01 0.00000E+00
 -1       931 6.16500E+01 3.18140E+01 0.00000E+00
 -1       932 6.46500E+01 3.18140E+01 0.00000E+00
 -1       933 6.76500E+01 3.18140E+01 0.00000E+00
 -1       934 7.06500E+01 3.18140E+01 0.00000E+00
 -1       935 7.36500E+01 3.18140E+01 0.00000E+00
 -1       936 7.66500E+01 3.18140E+01 0.00000E+00
 -1       937 7.96500E+01 3.18140E+01 0.00000E+00
 -1       938 8.26500E+01 3.18140E+01 0.00000E+00
 -1       939 8.56500E+01 3.18140E+01 0.00000E+00
 -1       940 8.86500E+01 3.18140E+01 0.00000E+00
 -1       941 9.16500E+01 3.18140E+01 0.00000E+00
 -1       942 9.46500E+01 3.18140E+01 0.00000E+00
 -1       943 9.76500E+01 3.18140E+01 0.00000E+00
 -1       944 1.00650E+02 3.18140E+01 0.00000E+00
 -1       945 1.03650E+02 3.18140E+01 0.00000E+00
 -1       946 1.06650E+02 3.18140E+01 0.00000E+00
 -1       947 1.09650E+02 3.18140E+01 0.00000E+00
 -1       948 1.12650E+02 3.18140E+01 0.00000E+00
 -1       949 1.15650E+02 3.18140E+01 0.00000E+00
 -1       950 1.18650E+02 3.18140E+01 0.00000E+00
 -1       951 1.21650E+02 3.18140E+01 0.00000E+00
 -1       952 1.24650E+02 3.18140E+01 0.00000E+00
 -1       953 1.27650E+02 3.18140E+01 0.00000E+00
 -1       954 1.30650E+02 3.18140E+01 0.00000E+00
 -1       955 5.72100E+01 1.67836E+01 0.00000E+00
 -1       956 6.02100E+01 1.67836E+01 0.00000E+00
 -1       957 6.92850E+01 1.67836E+01 0.00000E+00
 -1       958 7.22850E+01 1.67836E+01 0.00000E+00
 -1       959 7.54350E+01 1.67836E+01 0.00000E+00
 -1       960 7.84350E+01 1.67836E+01 0.00000E+00
 -1       961 8.14350E+01 1.67836E+01 0.00000E+00
 -1       962 8.44350E+01 1.67836E+01 0.00000E+00
 -1       963 8.74350E+01 1.67836E+01 0.00000E+00
 -1       964 9.04350E+01 1.67836E+01 0.00000E+00
 -1       965 9.35850E+01 1.67836E+01 0.00000E+00
 -1       966 9.65850E+01 1.67836E+01 0.00000E+00
 -1       967 9.95850E+01 1.67836E+01 0.00000E+00
 -1       968 1.02585E+02 1.67836E+01 0.00000E+00
 -1       969 1.05585E+02 1.67836E+01 0.00000E+00
 -1       970 1.08735E+02 1.67836E+01 0.00000E+00
 -1       971 1.11735E+02 1.67836E+01 0.00000E+00
 -1       972 1.14735E+02 1.67836E+01 0.00000E+00
 -1       973 1.17735E+02 1.67836E+01 0.00000E+00
 -1       974 1.20735E+02 1.67836E+01 0.00000E+00
 -1       975 1.23735E+02 1.67836E+01 0.00000E+00
 -1       976 1.26885E+02 1.67836E+01 0.00000E+00
 -1       977 1.29885E+02 1.67836E+01 0.00000E+00
 -1       978 1.31814E+02 2.20750E+01 0.00000E+00
 -1       979 6.32100E+01 1.67836E+01 0.00000E+00
 -1       980 6.62850E+01 1.67836E+01 0.00000E+00
 -1       981 4.64543E+01 2.17754E+01 0.00000E+00
 -1       982 4.90926E+01 1.56609E+01 0.00000E+00
 -1       983 5.42100E+01 1.67836E+01 0.00000E+00
 -1       984 5.16513E+01 1.62223E+01 0.00000E+00
 -1       985 4.75024E+01 1.94482E+01 0.00000E+00
 -1       986 4.51813E+01 2.53612E+01 0.00000E+00
 -1       987 1.66500E+01 3.14745E+01 0.00000E+00
 -1       988 4.06080E+01 3.17823E+01 0.00000E+00
 -1       989 4.80449E+01 1.75927E+01 0.00000E+00
 -1       990 1.46364E+01 2.95840E+01 0.00000E+00
 -1       991 1.31814E+02 2.50125E+01 0.00000E+00
 -1       992 1.31908E+02 1.95412E+01 0.00000E+00
 -1       993 1.32885E+02 1.67836E+01 0.00000E+00
 -1       994 4.53659E+01 2.81426E+01 0.00000E+00
 -1       995 1.31814E+02 3.08875E+01 0.00000E+00
 -1       996 5.57100E+01 1.93816E+01 0.00000E+00
 -1       997 4.81500E+01 2.92160E+01 0.00000E+00
 -1       998 5.11500E+01 2.92160E+01 0.00000E+00
 -1       999 5.41500E+01 2.92160E+01 0.00000E+00
 -1      1000 5.71500E+01 2.92160E+01 0.00000E+00
 -1      1001 6.01500E+01 2.92160E+01 0.00000E+00
 -1      1002 6.31500E+01 2.92160E+01 0.00000E+00
 -1      1003 6.61500E+01 2.92160E+01 0.00000E+00
 -1      1004 6.91500E+01 2.92160E+01 0.00000E+00
 -1      1005 7.21500E+01 2.92160E+01 0.00000E+00
 -1      1006 7.51500E+01 2.92160E+01 0.00000E+00
 -1      1007 7.81500E+01 2.92160E+01 0.00000E+00
 -1      1008 8.11500E+01 2.92160E+01 0.00000E+00
 -1      1009 8.41500E+01 2.92160E+01 0.00000E+00
 -1      1010 8.71500E+01 2.92160E+01 0.00000E+00
 -1      1011 9.01500E+01 2.92160E+01 0.00000E+00
 -1      1012 9.31500E+01 2.92160E+01 0.00000E+00
 -1      1013 9.61500E+01 2.92160E+01 0.00000E+00
 -1      1014 9.91500E+01 2.92160E+01 0.00000E+00
 -1      1015 1.02150E+02 2.92160E+01 0.00000E+00
 -1      1016 1.05150E+02 2.92160E+01 0.00000E+00
 -1      1017 1.08150E+02 2.92160E+01 0.00000E+00
 -1      1018 1.11150E+02 2.92160E+01 0.00000E+00
 -1      1019 1.14150E+02 2.92160E+01 0.00000E+00
 -1      1020 1.17150E+02 2.92160E+01 0.00000E+00
 -1      1021 1.20150E+02 2.92160E+01 0.00000E+00
 -1      1022 1.23150E+02 2.92160E+01 0.00000E+00
 -1      1023 1.26150E+02 2.92160E+01 0.00000E+00
 -1      1024 1.29150E+02 2.92160E+01 0.00000E+00
 -1      1025 5.87100E+01 1.93816E+01 0.00000E+00
 -1      1026 7.38600E+01 1.93816E+01 0.00000E+00
 -1      1027 7.08600E+01 1.93816E+01 0.00000E+00
 -1      1028 7.99350E+01 1.93816E+01 0.00000E+00
 -1      1029 8.29350E+01 1.93816E+01 0.00000E+00
 -1      1030 8.59350E+01 1.93816E+01 0.00000E+00
 -1      1031 8.89350E+01 1.93816E+01 0.00000E+00
 -1      1032 9.20850E+01 1.93816E+01 0.00000E+00
 -1      1033 9.50850E+01 1.93816E+01 0.00000E+00
 -1      1034 9.80850E+01 1.93816E+01 0.00000E+00
 -1      1035 1.01085E+02 1.93816E+01 0.00000E+00
 -1      1036 1.04085E+02 1.93816E+01 0.00000E+00
 -1      1037 1.07235E+02 1.93816E+01 0.00000E+00
 -1      1038 1.10235E+02 1.93816E+01 0.00000E+00
 -1      1039 1.13235E+02 1.93816E+01 0.00000E+00
 -1      1040 1.16235E+02 1.93816E+01 0.00000E+00
 -1      1041 1.19235E+02 1.93816E+01 0.00000E+00
 -1      1042 1.22235E+02 1.93816E+01 0.00000E+00
 -1      1043 1.25385E+02 1.93816E+01 0.00000E+00
 -1      1044 1.28385E+02 1.93816E+01 0.00000E+00
 -1      1045 7.69350E+01 1.93816E+01 0.00000E+00
 -1      1046 6.78600E+01 1.93816E+01 0.00000E+00
 -1      1047 1.31814E+02 2.79500E+01 0.00000E+00
 -1      1048 6.17100E+01 1.93816E+01 0.00000E+00
 -1      1049 4.82661E+01 2.44375E+01 0.00000E+00
 -1      1050 6.47850E+01 1.93816E+01 0.00000E+00
 -1      1051 4.93142E+01 2.21102E+01 0.00000E+00
 -1      1052 1.29265E+02 2.07120E+01 0.00000E+00
 -1      1053 5.06036E+01 1.81541E+01 0.00000E+00
 -1      1054 5.00611E+01 2.00096E+01 0.00000E+00
 -1      1055 4.82081E+01 2.68267E+01 0.00000E+00
 -1      1056 5.31513E+01 1.88203E+01 0.00000E+00
 -1      1057 1.29265E+02 2.36495E+01 0.00000E+00
 -1      1058 5.72100E+01 2.19796E+01 0.00000E+00
 -1      1059 1.28982E+02 2.71143E+01 0.00000E+00
 -1      1060 5.26500E+01 2.66180E+01 0.00000E+00
 -1      1061 5.56500E+01 2.66180E+01 0.00000E+00
 -1      1062 5.86500E+01 2.66180E+01 0.00000E+00
 -1      1063 6.16500E+01 2.66180E+01 0.00000E+00
 -1      1064 6.46500E+01 2.66180E+01 0.00000E+00
 -1      1065 6.76500E+01 2.66180E+01 0.00000E+00
 -1      1066 7.06500E+01 2.66180E+01 0.00000E+00
 -1      1067 7.36500E+01 2.66180E+01 0.00000E+00
 -1      1068 7.66500E+01 2.66180E+01 0.00000E+00
 -1      1069 7.96500E+01 2.66180E+01 0.00000E+00
 -1      1070 8.26500E+01 2.66180E+01 0.00000E+00
 -1      1071 8.56500E+01 2.66180E+01 0.00000E+00
 -1      1072 8.86500E+01 2.66180E+01 0.00000E+00
 -1      1073 9.16500E+01 2.66180E+01 0.00000E+00
 -1      1074 9.46500E+01 2.66180E+01 0.00000E+00
 -1      1075 9.76500E+01 2.66180E+01 0.00000E+00
 -1      1076 1.00650E+02 2.66180E+01 0.00000E+00
 -1      1077 1.03650E+02 2.66180E+01 0.00000E+00
 -1      1078 1.06650E+02 2.66180E+01 0.00000E+00
 -1      1079 1.09650E+02 2.66180E+01 0.00000E+00
 -1      1080 1.12650E+02 2.66180E+01 0.00000E+00
 -1      1081 1.15650E+02 2.66180E+01 0.00000E+00
 -1      1082 1.18650E+02 2.66180E+01 0.00000E+00
 -1      1083 1.21650E+02 2.66180E+01 0.00000E+00
 -1      1084 1.24650E+02 2.66180E+01 0.00000E+00
 -1      1085 5.21356E+01 2.19302E+01 0.00000E+00
 -1      1086 8.44350E+01 2.19796E+01 0.00000E+00
 -1      1087 8.14350E+01 2.19796E+01 0.00000E+00
 -1      1088 9.05100E+01 2.19796E+01 0.00000E+00
 -1      1089 9.35100E+01 2.19796E+01 0.00000E+00
 -1      1090 9.65100E+01 2.19796E+01 0.00000E+00
 -1      1091 9.95100E+01 2.19796E+01 0.00000E+00
 -1      1092 1.02510E+02 2.19796E+01 0.00000E+00
 -1      1093 1.05660E+02 2.19796E+01 0.00000E+00
 -1      1094 1.08660E+02 2.19796E+01 0.00000E+00
 -1      1095 1.11660E+02 2.19796E+01 0.00000E+00
 -1      1096 1.14660E+02 2.19796E+01 0.00000E+00
 -1      1097 1.17660E+02 2.19796E+01 0.00000E+00
 -1      1098 1.20660E+02 2.19796E+01 0.00000E+00
 -1      1099 1.23810E+02 2.19796E+01 0.00000E+00
 -1      1100 7.84350E+01 2.19796E+01 0.00000E+00
 -1      1101 5.10874E+01 2.42575E+01 0.00000E+00
 -1      1102 6.93600E+01 2.19796E+01 0.00000E+00
 -1      1103 8.74350E+01 2.19796E+01 0.00000E+00
 -1      1104 6.62850E+01 2.19796E+01 0.00000E+00
 -1      1105 6.32100E+01 2.19796E+01 0.00000E+00
 -1      1106 7.53600E+01 2.19796E+01 0.00000E+00
 -1      1107 6.02100E+01 2.19796E+01 0.00000E+00
 -1      1108 7.23600E+01 2.19796E+01 0.00000E+00
 -1      1109 1.26885E+02 2.19796E+01 0.00000E+00
 -1      1110 5.42101E+01 2.19797E+01 0.00000E+00
 -1      1111 5.41500E+01 2.40200E+01 0.00000E+00
 -1      1112 0.00000E+00 4.85250E+01 0.00000E+00
 -1      1113 0.00000E+00 4.55750E+01 0.00000E+00
 -1      1114 0.00000E+00 4.26250E+01 0.00000E+00
 -1      1115 0.00000E+00 3.96750E+01 0.00000E+00
 -1      1116 0.00000E+00 3.67250E+01 0.00000E+00
 -1      1117 0.00000E+00 3.38000E+01 0.00000E+00
 -1      1118 0.00000E+00 3.08750E+01 0.00000E+00
 -1      1119 0.00000E+00 2.79250E+01 0.00000E+00
 -1      1120 0.00000E+00 2.49750E+01 0.00000E+00
 -1      1121 0.00000E+00 2.20250E+01 0.00000E+00
 -1      1122 0.00000E+00 1.90750E+01 0.00000E+00
 -1      1123 0.00000E+00 1.61500E+01 0.00000E+00
 -1      1124 0.00000E+00 1.32250E+01 0.00000E+00
 -1      1125 0.00000E+00 1.02750E+01 0.00000E+00
 -1      1126 0.00000E+00 7.32500E+00 0.00000E+00
 -1      1127 0.00000E+00 4.37500E+00 0.00000E+00
 -1      1128 0.00000E+00 1.45000E+00 0.00000E+00
 -1      1129 1.57500E+00 5.00000E+01 0.00000E+00
 -1      1130 4.65000E+00 5.00000E+01 0.00000E+00
 -1      1131 7.65000E+00 5.00000E+01 0.00000E+00
 -1      1132 1.06500E+01 5.00000E+01 0.00000E+00
 -1      1133 1.36500E+01 5.00000E+01 0.00000E+00
 -1      1134 1.66500E+01 5.00000E+01 0.00000E+00
 -1      1135 1.96500E+01 5.00000E+01 0.00000E+00
 -1      1136 2.26500E+01 5.00000E+01 0.00000E+00
 -1      1137 2.56500E+01 5.00000E+01 0.00000E+00
 -1      1138 2.86500E+01 5.00000E+01 0.00000E+00
 -1      1139 3.16500E+01 5.00000E+01 0.00000E+00
 -1      1140 3.46500E+01 5.00000E+01 0.00000E+00
 -1      1141 3.76500E+01 5.00000E+01 0.00000E+00
 -1      1142 4.06500E+01 5.00000E+01 0.00000E+00
 -1      1143 4.36500E+01 5.00000E+01 0.00000E+00
 -1      1144 4.66500E+01 5.00000E+01 0.00000E+00
 -1      1145 4.96500E+01 5.00000E+01 0.00000E+00
 -1      1146 5.26500E+01 5.00000E+01 0.00000E+00
 -1      1147 5.56500E+01 5.00000E+01 0.00000E+00
 -1      1148 5.86500E+01 5.00000E+01 0.00000E+00
 -1      1149 6.16500E+01 5.00000E+01 0.00000E+00
 -1      1150 6.46500E+01 5.00000E+01 0.00000E+00
 -1      1151 6.76500E+01 5.00000E+01 0.00000E+00
 -1      1152 7.06500E+01 5.00000E+01 0.00000E+00
 -1      1153 7.36500E+01 5.00000E+01 0.00000E+00
 -1      1154 7.66500E+01 5.00000E+01 0.00000E+00
 -1      1155 7.96500E+01 5.00000E+01 0.00000E+00
 -1      1156 8.26500E+01 5.00000E+01 0.00000E+00
 -1      1157 8.56500E+01 5.00000E+01 0.00000E+00
 -1      1158 8.86500E+01 5.00000E+01 0.00000E+00
 -1      1159 9.16500E+01 5.00000E+01 0.00000E+00
 -1      1160 9.46500E+01 5.00000E+01 0.00000E+00
 -1      1161 9.76500E+01 5.00000E+01 0.00000E+00
 -1      1162 1.00650E+02 5.00000E+01 0.00000E+00
 -1      1163 1.03650E+02 5.00000E+01 0.00000E+00
 -1      1164 1.06650E+02 5.00000E+01 0.00000E+00
 -1      1165 1.09650E+02 5.00000E+01 0.00000E+00
 -1      1166 1.12650E+02 5.00000E+01 0.00000E+00
 -1      1167 1.15650E+02 5.00000E+01 0.00000E+00
 -1      1168 1.18650E+02 5.00000E+01 0.00000E+00
 -1      1169 1.21650E+02 5.00000E+01 0.00000E+00
 -1      1170 1.24650E+02 5.00000E+01 0.00000E+00
 -1      1171 1.27650E+02 5.00000E+01 0.00000E+00
 -1      1172 1.30650E+02 5.00000E+01 0.00000E+00
 -1      1173 1.33650E+02 5.00000E+01 0.00000E+00
 -1      1174 1.36650E+02 5.00000E+01 0.00000E+00
 -1      1175 1.39650E+02 5.00000E+01 0.00000E+00
 -1      1176 1.42650E+02 5.00000E+01 0.00000E+00
 -1      1177 1.45650E+02 5.00000E+01 0.00000E+00
 -1      1178 1.48575E+02 5.00000E+01 0.00000E+00
 -1      1179 1.57500E+00 0.00000E+00 0.00000E+00
 -1      1180 4.65000E+00 0.00000E+00 0.00000E+00
 -1      1181 7.65000E+00 0.00000E+00 0.00000E+00
 -1      1182 1.06500E+01 0.00000E+00 0.00000E+00
 -1      1183 1.36500E+01 0.00000E+00 0.00000E+00
 -1      1184 1.67250E+01 0.00000E+00 0.00000E+00
 -1      1185 1.98000E+01 0.00000E+00 0.00000E+00
 -1      1186 2.28000E+01 0.00000E+00 0.00000E+00
 -1      1187 2.56500E+01 0.00000E+00 0.00000E+00
 -1      1188 2.83500E+01 0.00000E+00 0.00000E+00
 -1      1189 3.11250E+01 0.00000E+00 0.00000E+00
 -1      1190 3.39000E+01 0.00000E+00 0.00000E+00
 -1      1191 3.66750E+01 0.00000E+00 0.00000E+00
 -1      1192 3.96000E+01 0.00000E+00 0.00000E+00
 -1      1193 4.26000E+01 0.00000E+00 0.00000E+00
 -1      1194 4.56000E+01 0.00000E+00 0.00000E+00
 -1      1195 4.86750E+01 0.00000E+00 0.00000E+00
 -1      1196 5.17500E+01 0.00000E+00 0.00000E+00
 -1      1197 5.47500E+01 0.00000E+00 0.00000E+00
 -1      1198 5.77500E+01 0.00000E+00 0.00000E+00
 -1      1199 6.07500E+01 0.00000E+00 0.00000E+00
 -1      1200 6.38250E+01 0.00000E+00 0.00000E+00
 -1      1201 6.69000E+01 0.00000E+00 0.00000E+00
 -1      1202 6.99000E+01 0.00000E+00 0.00000E+00
 -1      1203 7.29000E+01 0.00000E+00 0.00000E+00
 -1      1204 7.59000E+01 0.00000E+00 0.00000E+00
 -1      1205 7.89000E+01 0.00000E+00 0.00000E+00
 -1      1206 8.19750E+01 0.00000E+00 0.00000E+00
 -1      1207 8.50500E+01 0.00000E+00 0.00000E+00
 -1      1208 8.80500E+01 0.00000E+00 0.00000E+00
 -1      1209 9.10500E+01 0.00000E+00 0.00000E+00
 -1      1210 9.40500E+01 0.00000E+00 0.00000E+00
 -1      1211 9.70500E+01 0.00000E+00 0.00000E+00
 -1      1212 1.00125E+02 0.00000E+00 0.00000E+00
 -1      1213 1.03200E+02 0.00000E+00 0.00000E+00
 -1      1214 1.06200E+02 0.00000E+00 0.00000E+00
 -1      1215 1.09200E+02 0.00000E+00 0.00000E+00
 -1      1216 1.12200E+02 0.00000E+00 0.00000E+00
 -1      1217 1.15275E+02 0.00000E+00 0.00000E+00
 -1      1218 1.18350E+02 0.00000E+00 0.00000E+00
 -1      1219 1.21350E+02 0.00000E+00 0.00000E+00
 -1      1220 1.24350E+02 0.00000E+00 0.00000E+00
 -1      1221 1.27350E+02 0.00000E+00 0.00000E+00
 -1      1222 1.30350E+02 0.00000E+00 0.00000E+00
 -1      1223 1.33425E+02 0.00000E+00 0.00000E+00
 -1      1224 1.36500E+02 0.00000E+00 0.00000E+00
 -1      1225 1.39500E+02 0.00000E+00 0.00000E+00
 -1      1226 1.42500E+02 0.00000E+00 0.00000E+00
 -1      1227 1.45500E+02 0.00000E+00 0.00000E+00
 -1      1228 1.48500E+02 0.00000E+00 0.00000E+00
 -1      1229 1.50000E+02 1.47500E+00 0.00000E+00
 -1      1230 1.50000E+02 4.42500E+00 0.00000E+00
 -1      1231 1.50000E+02 7.37500E+00 0.00000E+00
 -1      1232 1.50000E+02 1.03250E+01 0.00000E+00
 -1      1233 1.50000E+02 1.32750E+01 0.00000E+00
 -1      1234 1.50000E+02 1.62000E+01 0.00000E+00
 -1      1235 1.50000E+02 1.91250E+01 0.00000E+00
 -1      1236 1.50000E+02 2.20750E+01 0.00000E+00
 -1      1237 1.50000E+02 2.50250E+01 0.00000E+00
 -1      1238 1.50000E+02 2.79750E+01 0.00000E+00
 -1      1239 1.50000E+02 3.09250E+01 0.00000E+00
 -1      1240 1.50000E+02 3.38500E+01 0.00000E+00
 -1      1241 1.50000E+02 3.67750E+01 0.00000E+00
 -1      1242 1.50000E+02 3.97250E+01 0.00000E+00
 -1      1243 1.50000E+02 4.26750E+01 0.00000E+00
 -1      1244 1.50000E+02 4.56250E+01 0.00000E+00
 -1      1245 1.50000E+02 4.85500E+01 0.00000E+00
 -1      1246 3.50223E+01 1.43967E+01 0.00000E+00
 -1      1247 3.46836E+01 1.28777E+01 0.00000E+00
 -1      1248 3.40374E+01 1.15033E+01 0.00000E+00
 -1      1249 3.31721E+01 1.03661E+01 0.00000E+00
 -1      1250 3.20990E+01 9.43189E+00 0.00000E+00
 -1      1251 3.07955E+01 8.70656E+00 0.00000E+00
 -1      1252 2.93527E+01 8.27110E+00 0.00000E+00
 -1      1253 2.78543E+01 8.15439E+00 0.00000E+00
 -1      1254 2.63184E+01 8.37219E+00 0.00000E+00
 -1      1255 2.48333E+01 8.94095E+00 0.00000E+00
 -1      1256 2.35164E+01 9.82895E+00 0.00000E+00
 -1      1257 2.24814E+01 1.09270E+01 0.00000E+00
 -1      1258 2.17304E+01 1.21686E+01 0.00000E+00
 -1      1259 2.12555E+01 1.35216E+01 0.00000E+00
 -1      1260 2.10659E+01 1.49530E+01 0.00000E+00
 -1      1261 2.11839E+01 1.64458E+01 0.00000E+00
 -1      1262 2.16162E+01 1.78785E+01 0.00000E+00
 -1      1263 2.23175E+01 1.91498E+01 0.00000E+00
 -1      1264 2.32687E+01 2.02516E+01 0.00000E+00
 -1      1265 2.44746E+01 2.11615E+01 0.00000E+00
 -1      1266 2.58634E+01 2.17967E+01 0.00000E+00
 -1      1267 2.73278E+01 2.21125E+01 0.00000E+00
 -1      1268 2.88470E+01 2.21072E+01 0.00000E+00
 -1      1269 3.03966E+01 2.17509E+01 0.00000E+00
 -1      1270 3.18232E+01 2.10556E+01 0.00000E+00
 -1      1271 3.30080E+01 2.01059E+01 0.00000E+00
 -1      1272 3.39673E+01 1.89117E+01 0.00000E+00
 -1      1273 3.46576E+01 1.74992E+01 0.00000E+00
 -1      1274 3.50177E+01 1.59473E+01 0.00000E+00
 -1      1275 1.57500E+00 4.85250E+01 0.00000E+00
 -1      1276 1.29900E+00 4.48375E+01 0.00000E+00
 -1      1277 1.29900E+00 4.63125E+01 0.00000E+00
 -1      1278 1.29900E+00 4.18875E+01 0.00000E+00
 -1      1279 1.29900E+00 4.33625E+01 0.00000E+00
 -1      1280 2.59800E+00 4.41000E+01 0.00000E+00
 -1      1281 1.29900E+00 3.89375E+01 0.00000E+00
 -1      1282 1.29900E+00 4.04125E+01 0.00000E+00
 -1      1283 2.59800E+00 4.11500E+01 0.00000E+00
 -1      1284 1.29900E+00 3.59875E+01 0.00000E+00
 -1      1285 1.29900E+00 3.74625E+01 0.00000E+00
 -1      1286 2.59800E+00 3.82000E+01 0.00000E+00
 -1      1287 1.29900E+00 3.30875E+01 0.00000E+00
 -1      1288 1.29900E+00 3.45375E+01 0.00000E+00
 -1      1289 2.59800E+00 3.52750E+01 0.00000E+00
 -1      1290 1.29900E+00 3.01375E+01 0.00000E+00
 -1      1291 1.29900E+00 3.16125E+01 0.00000E+00
 -1      1292 2.59800E+00 3.23500E+01 0.00000E+00
 -1      1293 1.29900E+00 2.71875E+01 0.00000E+00
 -1      1294 1.29900E+00 2.86625E+01 0.00000E+00
 -1      1295 2.59800E+00 2.94000E+01 0.00000E+00
 -1      1296 1.29900E+00 2.42375E+01 0.00000E+00
 -1      1297 1.29900E+00 2.57125E+01 0.00000E+00
 -1      1298 2.59800E+00 2.64500E+01 0.00000E+00
 -1      1299 1.29900E+00 2.12875E+01 0.00000E+00
 -1      1300 1.29900E+00 2.27625E+01 0.00000E+00
 -1      1301 2.59800E+00 2.35000E+01 0.00000E+00
 -1      1302 1.29900E+00 1.83375E+01 0.00000E+00
 -1      1303 1.29900E+00 1.98125E+01 0.00000E+00
 -1      1304 2.59800E+00 2.05500E+01 0.00000E+00
 -1      1305 1.29900E+00 1.54375E+01 0.00000E+00
 -1      1306 1.29900E+00 1.68875E+01 0.00000E+00
 -1      1307 2.59800E+00 1.76250E+01 0.00000E+00
 -1      1308 1.29900E+00 1.24875E+01 0.00000E+00
 -1      1309 1.29900E+00 1.39625E+01 0.00000E+00
 -1      1310 2.59800E+00 1.47000E+01 0.00000E+00
 -1      1311 1.29900E+00 9.53750E+00 0.00000E+00
 -1      1312 1.29900E+00 1.10125E+01 0.00000E+00
 -1      1313 2.59800E+00 1.17500E+01 0.00000E+00
 -1      1314 1.29900E+00 6.58750E+00 0.00000E+00
 -1      1315 1.29900E+00 8.06250E+00 0.00000E+00
 -1      1316 2.59800E+00 8.80000E+00 0.00000E+00
 -1      1317 1.29900E+00 3.63750E+00 0.00000E+00
 -1      1318 1.29900E+00 5.11250E+00 0.00000E+00
 -1      1319 2.59800E+00 5.85000E+00 0.00000E+00
 -1      1320 1.43700E+00 1.09375E+00 0.00000E+00
 -1      1321 1.43700E+00 2.54375E+00 0.00000E+00
 -1      1322 2.73600E+00 3.28125E+00 0.00000E+00
 -1      1323 3.01200E+00 1.09375E+00 0.00000E+00
 -1      1324 3.90000E+00 4.87010E+01 0.00000E+00
 -1      1325 5.40000E+00 4.87010E+01 0.00000E+00
 -1      1326 6.90000E+00 4.87010E+01 0.00000E+00
 -1      1327 8.40000E+00 4.87010E+01 0.00000E+00
 -1      1328 6.15000E+00 4.74020E+01 0.00000E+00
 -1      1329 9.90000E+00 4.87010E+01 0.00000E+00
 -1      1330 1.14000E+01 4.87010E+01 0.00000E+00
 -1      1331 9.15000E+00 4.74020E+01 0.00000E+00
 -1      1332 1.29000E+01 4.87010E+01 0.00000E+00
 -1      1333 1.44000E+01 4.87010E+01 0.00000E+00
 -1      1334 1.21500E+01 4.74020E+01 0.00000E+00
 -1      1335 1.59000E+01 4.87010E+01 0.00000E+00
 -1      1336 1.74000E+01 4.87010E+01 0.00000E+00
 -1      1337 1.51500E+01 4.74020E+01 0.00000E+00
 -1      1338 1.89000E+01 4.87010E+01 0.00000E+00
 -1      1339 2.04000E+01 4.87010E+01 0.00000E+00
 -1      1340 1.81500E+01 4.74020E+01 0.00000E+00
 -1      1341 2.19000E+01 4.87010E+01 0.00000E+00
 -1      1342 2.34000E+01 4.87010E+01 0.00000E+00
 -1      1343 2.11500E+01 4.74020E+01 0.00000E+00
 -1      1344 2.49000E+01 4.87010E+01 0.00000E+00
 -1      1345 2.64000E+01 4.87010E+01 0.00000E+00
 -1      1346 2.41500E+01 4.74020E+01 0.00000E+00
 -1      1347 2.79000E+01 4.87010E+01 0.00000E+00
 -1      1348 2.94000E+01 4.87010E+01 0.00000E+00
 -1      1349 2.71500E+01 4.74020E+01 0.00000E+00
 -1      1350 3.09000E+01 4.87010E+01 0.00000E+00
 -1      1351 3.24000E+01 4.87010E+01 0.00000E+00
 -1      1352 3.01500E+01 4.74020E+01 0.00000E+00
 -1      1353 3.39000E+01 4.87010E+01 0.00000E+00
 -1      1354 3.54000E+01 4.87010E+01 0.00000E+00
 -1      1355 3.31500E+01 4.74020E+01 0.00000E+00
 -1      1356 3.69000E+01 4.87010E+01 0.00000E+00
 -1      1357 3.84000E+01 4.87010E+01 0.00000E+00
 -1      1358 3.61500E+01 4.74020E+01 0.00000E+00
 -1      1359 3.99000E+01 4.87010E+01 0.00000E+00
 -1      1360 4.14000E+01 4.87010E+01 0.00000E+00
 -1      1361 3.91500E+01 4.74020E+01 0.00000E+00
 -1      1362 4.29000E+01 4.87010E+01 0.00000E+00
 -1      1363 4.44000E+01 4.87010E+01 0.00000E+00
 -1      1364 4.21500E+01 4.74020E+01 0.00000E+00
 -1      1365 4.59000E+01 4.87010E+01 0.00000E+00
 -1      1366 4.74000E+01 4.87010E+01 0.00000E+00
 -1      1367 4.51500E+01 4.74020E+01 0.00000E+00
 -1      1368 4.89000E+01 4.87010E+01 0.00000E+00
 -1      1369 5.04000E+01 4.87010E+01 0.00000E+00
 -1      1370 4.81500E+01 4.74020E+01 0.00000E+00
 -1      1371 5.19000E+01 4.87010E+01 0.00000E+00
 -1      1372 5.34000E+01 4.87010E+01 0.00000E+00
 -1      1373 5.11500E+01 4.74020E+01 0.00000E+00
 -1      1374 5.49000E+01 4.87010E+01 0.00000E+00
 -1      1375 5.64000E+01 4.87010E+01 0.00000E+00
 -1      1376 5.41500E+01 4.74020E+01 0.00000E+00
 -1      1377 5.79000E+01 4.87010E+01 0.00000E+00
 -1      1378 5.94000E+01 4.87010E+01 0.00000E+00
 -1      1379 5.71500E+01 4.74020E+01 0.00000E+00
 -1      1380 6.09000E+01 4.87010E+01 0.00000E+00
 -1      1381 6.24000E+01 4.87010E+01 0.00000E+00
 -1      1382 6.01500E+01 4.74020E+01 0.00000E+00
 -1      1383 6.39000E+01 4.87010E+01 0.00000E+00
 -1      1384 6.54000E+01 4.87010E+01 0.00000E+00
 -1      1385 6.31500E+01 4.74020E+01 0.00000E+00
 -1      1386 6.69000E+01 4.87010E+01 0.00000E+00
 -1      1387 6.84000E+01 4.87010E+01 0.00000E+00
 -1      1388 6.61500E+01 4.74020E+01 0.00000E+00
 -1      1389 6.99000E+01 4.87010E+01 0.00000E+00
 -1      1390 7.14000E+01 4.87010E+01 0.00000E+00
 -1      1391 6.91500E+01 4.74020E+01 0.00000E+00
 -1      1392 7.29000E+01 4.87010E+01 0.00000E+00
 -1      1393 7.44000E+01 4.87010E+01 0.00000E+00
 -1      1394 7.21500E+01 4.74020E+01 0.00000E+00
 -1      1395 7.59000E+01 4.87010E+01 0.00000E+00
 -1      1396 7.74000E+01 4.87010E+01 0.00000E+00
 -1      1397 7.51500E+01 4.74020E+01 0.00000E+00
 -1      1398 7.89000E+01 4.87010E+01 0.00000E+00
 -1      1399 8.04000E+01 4.87010E+01 0.00000E+00
 -1      1400 7.81500E+01 4.74020E+01 0.00000E+00
 -1      1401 8.19000E+01 4.87010E+01 0.00000E+00
 -1      1402 8.34000E+01 4.87010E+01 0.00000E+00
 -1      1403 8.11500E+01 4.74020E+01 0.00000E+00
 -1      1404 8.49000E+01 4.87010E+01 0.00000E+00
 -1      1405 8.64000E+01 4.87010E+01 0.00000E+00
 -1      1406 8.41500E+01 4.74020E+01 0.00000E+00
 -1      1407 8.79000E+01 4.87010E+01 0.00000E+00
 -1      1408 8.94000E+01 4.87010E+01 0.00000E+00
 -1      1409 8.71500E+01 4.74020E+01 0.00000E+00
 -1      1410 9.09000E+01 4.87010E+01 0.00000E+00
 -1      1411 9.24000E+01 4.87010E+01 0.00000E+00
 -1      1412 9.01500E+01 4.74020E+01 0.00000E+00
 -1      1413 9.39000E+01 4.87010E+01 0.00000E+00
 -1      1414 9.54000E+01 4.87010E+01 0.00000E+00
 -1      1415 9.31500E+01 4.74020E+01 0.00000E+00
 -1      1416 9.69000E+01 4.87010E+01 0.00000E+00
 -1      1417 9.84000E+01 4.87010E+01 0.00000E+00
 -1      1418 9.61500E+01 4.74020E+01 0.00000E+00
 -1      1419 9.99000E+01 4.87010E+01 0.00000E+00
 -1      1420 1.01400E+02 4.87010E+01 0.00000E+00
 -1      1421 9.91500E+01 4.74020E+01 0.00000E+00
 -1      1422 1.02900E+02 4.87010E+01 0.00000E+00
 -1      1423 1.04400E+02 4.87010E+01 0.00000E+00
 -1      1424 1.02150E+02 4.74020E+01 0.00000E+00
 -1      1425 1.05900E+02 4.87010E+01 0.00000E+00
 -1      1426 1.07400E+02 4.87010E+01 0.00000E+00
 -1      1427 1.05150E+02 4.74020E+01 0.00000E+00
 -1      1428 1.08900E+02 4.87010E+01 0.00000E+00
 -1      1429 1.10400E+02 4.87010E+01 0.00000E+00
 -1      1430 1.08150E+02 4.74020E+01 0.00000E+00
 -1      1431 1.11900E+02 4.87010E+01 0.00000E+00
 -1      1432 1.13400E+02 4.87010E+01 0.00000E+00
 -1      1433 1.11150E+02 4.74020E+01 0.00000E+00
 -1      1434 1.14900E+02 4.87010E+01 0.00000E+00
 -1      1435 1.16400E+02 4.87010E+01 0.00000E+00
 -1      1436 1.14150E+02 4.74020E+01 0.00000E+00
 -1      1437 1.17900E+02 4.87010E+01 0.00000E+00
 -1      1438 1.19400E+02 4.87010E+01 0.00000E+00
 -1      1439 1.17150E+02 4.74020E+01 0.00000E+00
 -1      1440 1.20900E+02 4.87010E+01 0.00000E+00
 -1      1441 1.22400E+02 4.87010E+01 0.00000E+00
 -1      1442 1.20150E+02 4.74020E+01 0.00000E+00
 -1      1443 1.23900E+02 4.87010E+01 0.00000E+00
 -1      1444 1.25400E+02 4.87010E+01 0.00000E+00
 -1      1445 1.23150E+02 4.74020E+01 0.00000E+00
 -1      1446 1.26900E+02 4.87010E+01 0.00000E+00
 -1      1447 1.28400E+02 4.87010E+01 0.00000E+00
 -1      1448 1.26150E+02 4.74020E+01 0.00000E+00
 -1      1449 1.29900E+02 4.87010E+01 0.00000E+00
 -1      1450 1.31400E+02 4.87010E+01 0.00000E+00
 -1      1451 1.29150E+02 4.74020E+01 0.00000E+00
 -1      1452 1.32900E+02 4.87010E+01 0.00000E+00
 -1      1453 1.34400E+02 4.87010E+01 0.00000E+00
 -1      1454 1.32150E+02 4.74020E+01 0.00000E+00
 -1      1455 1.35900E+02 4.87010E+01 0.00000E+00
 -1      1456 1.37400E+02 4.87010E+01 0.00000E+00
 -1      1457 1.35150E+02 4.74020E+01 0.00000E+00
 -1      1458 1.38900E+02 4.87010E+01 0.00000E+00
 -1      1459 1.40400E+02 4.87010E+01 0.00000E+00
 -1      1460 1.38150E+02 4.74020E+01 0.00000E+00
 -1      1461 1.41900E+02 4.87010E+01 0.00000E+00
 -1      1462 1.43400E+02 4.87010E+01 0.00000E+00
 -1      1463 1.41150E+02 4.74020E+01 0.00000E+00
 -1      1464 1.44900E+02 4.87010E+01 0.00000E+00
 -1      1465 1.46400E+02 4.87010E+01 0.00000E+00
 -1      1466 1.44150E+02 4.74020E+01 0.00000E+00
 -1      1467 1.48575E+02 4.85500E+01 0.00000E+00
 -1      1468 1.47825E+02 4.72510E+01 0.00000E+00
 -1      1469 6.01200E+00 1.09375E+00 0.00000E+00
 -1      1470 4.51200E+00 1.09375E+00 0.00000E+00
 -1      1471 4.37400E+00 2.18750E+00 0.00000E+00
 -1      1472 9.01200E+00 1.09375E+00 0.00000E+00
 -1      1473 7.51200E+00 1.09375E+00 0.00000E+00
 -1      1474 7.37400E+00 2.18750E+00 0.00000E+00
 -1      1475 1.20120E+01 1.09375E+00 0.00000E+00
 -1      1476 1.05120E+01 1.09375E+00 0.00000E+00
 -1      1477 1.03740E+01 2.18750E+00 0.00000E+00
 -1      1478 1.50120E+01 1.09375E+00 0.00000E+00
 -1      1479 1.35120E+01 1.09375E+00 0.00000E+00
 -1      1480 1.33740E+01 2.18750E+00 0.00000E+00
 -1      1481 1.81620E+01 1.09375E+00 0.00000E+00
 -1      1482 1.65870E+01 1.09375E+00 0.00000E+00
 -1      1483 1.64490E+01 2.18750E+00 0.00000E+00
 -1      1484 2.11620E+01 1.09375E+00 0.00000E+00
 -1      1485 1.96620E+01 1.09375E+00 0.00000E+00
 -1      1486 1.95240E+01 2.18750E+00 0.00000E+00
 -1      1487 2.41620E+01 1.09375E+00 0.00000E+00
 -1      1488 2.26620E+01 1.09375E+00 0.00000E+00
 -1      1489 2.25240E+01 2.18750E+00 0.00000E+00
 -1      1490 2.68620E+01 1.09375E+00 0.00000E+00
 -1      1491 2.55120E+01 1.09375E+00 0.00000E+00
 -1      1492 2.53740E+01 2.18750E+00 0.00000E+00
 -1      1493 2.95620E+01 1.09375E+00 0.00000E+00
 -1      1494 2.82120E+01 1.09375E+00 0.00000E+00
 -1      1495 2.80740E+01 2.18750E+00 0.00000E+00
 -1      1496 3.24120E+01 1.09375E+00 0.00000E+00
 -1      1497 3.09870E+01 1.09375E+00 0.00000E+00
 -1      1498 3.08490E+01 2.18750E+00 0.00000E+00
 -1      1499 3.51120E+01 1.09375E+00 0.00000E+00
 -1      1500 3.37620E+01 1.09375E+00 0.00000E+00
 -1      1501 3.36240E+01 2.18750E+00 0.00000E+00
 -1      1502 3.79620E+01 1.09375E+00 0.00000E+00
 -1      1503 3.65370E+01 1.09375E+00 0.00000E+00
 -1      1504 3.63990E+01 2.18750E+00 0.00000E+00
 -1      1505 4.09620E+01 1.09375E+00 0.00000E+00
 -1      1506 3.94620E+01 1.09375E+00 0.00000E+00
 -1      1507 3.93240E+01 2.18750E+00 0.00000E+00
 -1      1508 4.39620E+01 1.09375E+00 0.00000E+00
 -1      1509 4.24620E+01 1.09375E+00 0.00000E+00
 -1      1510 4.23240E+01 2.18750E+00 0.00000E+00
 -1      1511 4.69620E+01 1.09375E+00 0.00000E+00
 -1      1512 4.54620E+01 1.09375E+00 0.00000E+00
 -1      1513 4.53240E+01 2.18750E+00 0.00000E+00
 -1      1514 5.01120E+01 1.09375E+00 0.00000E+00
 -1      1515 4.85370E+01 1.09375E+00 0.00000E+00
 -1      1516 4.83990E+01 2.18750E+00 0.00000E+00
 -1      1517 5.31120E+01 1.09375E+00 0.00000E+00
 -1      1518 5.16120E+01 1.09375E+00 0.00000E+00
 -1      1519 5.14740E+01 2.18750E+00 0.00000E+00
 -1      1520 5.61120E+01 1.09375E+00 0.00000E+00
 -1      1521 5.46120E+01 1.09375E+00 0.00000E+00
 -1      1522 5.44740E+01 2.18750E+00 0.00000E+00
 -1      1523 5.91120E+01 1.09375E+00 0.00000E+00
 -1      1524 5.76120E+01 1.09375E+00 0.00000E+00
 -1      1525 5.74740E+01 2.18750E+00 0.00000E+00
 -1      1526 6.21120E+01 1.09375E+00 0.00000E+00
 -1      1527 6.06120E+01 1.09375E+00 0.00000E+00
 -1      1528 6.04740E+01 2.18750E+00 0.00000E+00
 -1      1529 6.52620E+01 1.09375E+00 0.00000E+00
 -1      1530 6.36870E+01 1.09375E+00 0.00000E+00
 -1      1531 6.35490E+01 2.18750E+00 0.00000E+00
 -1      1532 6.82620E+01 1.09375E+00 0.00000E+00
 -1      1533 6.67620E+01 1.09375E+00 0.00000E+00
 -1      1534 6.66240E+01 2.18750E+00 0.00000E+00
 -1      1535 7.12620E+01 1.09375E+00 0.00000E+00
 -1      1536 6.97620E+01 1.09375E+00 0.00000E+00
 -1      1537 6.96240E+01 2.18750E+00 0.00000E+00
 -1      1538 7.42620E+01 1.09375E+00 0.00000E+00
 -1      1539 7.27620E+01 1.09375E+00 0.00000E+00
 -1      1540 7.26240E+01 2.18750E+00 0.00000E+00
 -1      1541 7.72620E+01 1.09375E+00 0.00000E+00
 -1      1542 7.57620E+01 1.09375E+00 0.00000E+00
 -1      1543 7.56240E+01 2.18750E+00 0.00000E+00
 -1      1544 8.02620E+01 1.09375E+00 0.00000E+00
 -1      1545 7.87620E+01 1.09375E+00 0.00000E+00
 -1      1546 7.86240E+01 2.18750E+00 0.00000E+00
 -1      1547 8.34120E+01 1.09375E+00 0.00000E+00
 -1      1548 8.18370E+01 1.09375E+00 0.00000E+00
 -1      1549 8.16990E+01 2.18750E+00 0.00000E+00
 -1      1550 8.64120E+01 1.09375E+00 0.00000E+00
 -1      1551 8.49120E+01 1.09375E+00 0.00000E+00
 -1      1552 8.47740E+01 2.18750E+00 0.00000E+00
 -1      1553 8.94120E+01 1.09375E+00 0.00000E+00
 -1      1554 8.79120E+01 1.09375E+00 0.00000E+00
 -1      1555 8.77740E+01 2.18750E+00 0.00000E+00
 -1      1556 9.24120E+01 1.09375E+00 0.00000E+00
 -1      1557 9.09120E+01 1.09375E+00 0.00000E+00
 -1      1558 9.07740E+01 2.18750E+00 0.00000E+00
 -1      1559 9.54120E+01 1.09375E+00 0.00000E+00
 -1      1560 9.39120E+01 1.09375E+00 0.00000E+00
 -1      1561 9.37740E+01 2.18750E+00 0.00000E+00
 -1      1562 9.84120E+01 1.09375E+00 0.00000E+00
 -1      1563 9.69120E+01 1.09375E+00 0.00000E+00
 -1      1564 9.67740E+01 2.18750E+00 0.00000E+00
 -1      1565 1.01562E+02 1.09375E+00 0.00000E+00
 -1      1566 9.99870E+01 1.09375E+00 0.00000E+00
 -1      1567 9.98490E+01 2.18750E+00 0.00000E+00
 -1      1568 1.04562E+02 1.09375E+00 0.00000E+00
 -1      1569 1.03062E+02 1.09375E+00 0.00000E+00
 -1      1570 1.02924E+02 2.18750E+00 0.00000E+00
 -1      1571 1.07562E+02 1.09375E+00 0.00000E+00
 -1      1572 1.06062E+02 1.09375E+00 0.00000E+00
 -1      1573 1.05924E+02 2.18750E+00 0.00000E+00
 -1      1574 1.10562E+02 1.09375E+00 0.00000E+00
 -1      1575 1.09062E+02 1.09375E+00 0.00000E+00
 -1      1576 1.08924E+02 2.18750E+00 0.00000E+00
 -1      1577 1.13562E+02 1.09375E+00 0.00000E+00
 -1      1578 1.12062E+02 1.09375E+00 0.00000E+00
 -1      1579 1.11924E+02 2.18750E+00 0.00000E+00
 -1      1580 1.16712E+02 1.09375E+00 0.00000E+00
 -1      1581 1.15137E+02 1.09375E+00 0.00000E+00
 -1      1582 1.14999E+02 2.18750E+00 0.00000E+00
 -1      1583 1.19712E+02 1.09375E+00 0.00000E+00
 -1      1584 1.18212E+02 1.09375E+00 0.00000E+00
 -1      1585 1.18074E+02 2.18750E+00 0.00000E+00
 -1      1586 1.22712E+02 1.09375E+00 0.00000E+00
 -1      1587 1.21212E+02 1.09375E+00 0.00000E+00
 -1      1588 1.21074E+02 2.18750E+00 0.00000E+00
 -1      1589 1.25712E+02 1.09375E+00 0.00000E+00
 -1      1590 1.24212E+02 1.09375E+00 0.00000E+00
 -1      1591 1.24074E+02 2.18750E+00 0.00000E+00
 -1      1592 1.28712E+02 1.09375E+00 0.00000E+00
 -1      1593 1.27212E+02 1.09375E+00 0.00000E+00
 -1      1594 1.27074E+02 2.18750E+00 0.00000E+00
 -1      1595 1.31712E+02 1.09375E+00 0.00000E+00
 -1      1596 1.30212E+02 1.09375E+00 0.00000E+00
 -1      1597 1.30074E+02 2.18750E+00 0.00000E+00
 -1      1598 1.34862E+02 1.09375E+00 0.00000E+00
 -1      1599 1.33287E+02 1.09375E+00 0.00000E+00
 -1      1600 1.33149E+02 2.18750E+00 0.00000E+00
 -1      1601 1.37862E+02 1.09375E+00 0.00000E+00
 -1      1602 1.36362E+02 1.09375E+00 0.00000E+00
 -1      1603 1.36224E+02 2.18750E+00 0.00000E+00
 -1      1604 1.40862E+02 1.09375E+00 0.00000E+00
 -1      1605 1.39362E+02 1.09375E+00 0.00000E+00
 -1      1606 1.39224E+02 2.18750E+00 0.00000E+00
 -1      1607 1.43862E+02 1.09375E+00 0.00000E+00
 -1      1608 1.42362E+02 1.09375E+00 0.00000E+00
 -1      1609 1.42224E+02 2.18750E+00 0.00000E+00
 -1      1610 1.46862E+02 1.09375E+00 0.00000E+00
 -1      1611 1.45362E+02 1.09375E+00 0.00000E+00
 -1      1612 1.45224E+02 2.18750E+00 0.00000E+00
 -1      1613 1.48500E+02 1.47500E+00 0.00000E+00
 -1      1614 1.48701E+02 5.16250E+00 0.00000E+00
 -1      1615 1.48701E+02 3.68750E+00 0.00000E+00
 -1      1616 1.48701E+02 8.11250E+00 0.00000E+00
 -1      1617 1.48701E+02 6.63750E+00 0.00000E+00
 -1      1618 1.47402E+02 5.90000E+00 0.00000E+00
 -1      1619 1.48701E+02 1.10625E+01 0.00000E+00
 -1      1620 1.48701E+02 9.58750E+00 0.00000E+00
 -1      1621 1.47402E+02 8.85000E+00 0.00000E+00
 -1      1622 1.48701E+02 1.40125E+01 0.00000E+00
 -1      1623 1.48701E+02 1.25375E+01 0.00000E+00
 -1      1624 1.47402E+02 1.18000E+01 0.00000E+00
 -1      1625 1.48701E+02 1.69125E+01 0.00000E+00
 -1      1626 1.48701E+02 1.54625E+01 0.00000E+00
 -1      1627 1.47402E+02 1.47250E+01 0.00000E+00
 -1      1628 1.48701E+02 1.98625E+01 0.00000E+00
 -1      1629 1.48701E+02 1.83875E+01 0.00000E+00
 -1      1630 1.47402E+02 1.76500E+01 0.00000E+00
 -1      1631 1.48701E+02 2.28125E+01 0.00000E+00
 -1      1632 1.48701E+02 2.13375E+01 0.00000E+00
 -1      1633 1.47402E+02 2.06000E+01 0.00000E+00
 -1      1634 1.48701E+02 2.57625E+01 0.00000E+00
 -1      1635 1.48701E+02 2.42875E+01 0.00000E+00
 -1      1636 1.47402E+02 2.35500E+01 0.00000E+00
 -1      1637 1.48701E+02 2.87125E+01 0.00000E+00
 -1      1638 1.48701E+02 2.72375E+01 0.00000E+00
 -1      1639 1.47402E+02 2.65000E+01 0.00000E+00
 -1      1640 1.48701E+02 3.16625E+01 0.00000E+00
 -1      1641 1.48701E+02 3.01875E+01 0.00000E+00
 -1      1642 1.47402E+02 2.94500E+01 0.00000E+00
 -1      1643 1.48701E+02 3.45625E+01 0.00000E+00
 -1      1644 1.48701E+02 3.31125E+01 0.00000E+00
 -1      1645 1.47402E+02 3.23750E+01 0.00000E+00
 -1      1646 1.48701E+02 3.75125E+01 0.00000E+00
 -1      1647 1.48701E+02 3.60375E+01 0.00000E+00
 -1      1648 1.47402E+02 3.53000E+01 0.00000E+00
 -1      1649 1.48701E+02 4.04625E+01 0.00000E+00
 -1      1650 1.48701E+02 3.89875E+01 0.00000E+00
 -1      1651 1.47402E+02 3.82500E+01 0.00000E+00
 -1      1652 1.48701E+02 4.34125E+01 0.00000E+00
 -1      1653 1.48701E+02 4.19375E+01 0.00000E+00
 -1      1654 1.47402E+02 4.12000E+01 0.00000E+00
 -1      1655 1.48263E+02 4.60692E+01 0.00000E+00
 -1      1656 1.48263E+02 4.45942E+01 0.00000E+00
 -1      1657 1.46964E+02 4.38568E+01 0.00000E+00
 -1      1658 1.46088E+02 4.62202E+01 0.00000E+00
 -1      1659 3.57104E+01 1.39426E+01 0.00000E+00
 -1      1660 3.57917E+01 1.46928E+01 0.00000E+00
 -1      1661 3.52416E+01 1.22622E+01 0.00000E+00
 -1      1662 3.55021E+01 1.30205E+01 0.00000E+00
 -1      1663 3.43365E+01 1.09006E+01 0.00000E+00
 -1      1664 3.47102E+01 1.15125E+01 0.00000E+00
 -1      1665 3.33752E+01 9.68799E+00 0.00000E+00
 -1      1666 3.38620E+01 1.02077E+01 0.00000E+00
 -1      1667 3.21374E+01 8.76128E+00 0.00000E+00
 -1      1668 3.27180E+01 9.17101E+00 0.00000E+00
 -1      1669 3.07045E+01 7.92055E+00 0.00000E+00
 -1      1670 3.14236E+01 8.22544E+00 0.00000E+00
 -1      1671 2.91007E+01 7.64550E+00 0.00000E+00
 -1      1672 2.98142E+01 7.77924E+00 0.00000E+00
 -1      1673 2.74467E+01 7.51955E+00 0.00000E+00
 -1      1674 2.82234E+01 7.49637E+00 0.00000E+00
 -1      1675 2.57718E+01 7.80148E+00 0.00000E+00
 -1      1676 2.65216E+01 7.60852E+00 0.00000E+00
 -1      1677 2.41362E+01 8.48510E+00 0.00000E+00
 -1      1678 2.48603E+01 8.10854E+00 0.00000E+00
 -1      1679 2.27480E+01 9.52389E+00 0.00000E+00
 -1      1680 2.33351E+01 9.02233E+00 0.00000E+00
 -1      1681 2.18067E+01 1.08784E+01 0.00000E+00
 -1      1682 2.22513E+01 1.02909E+01 0.00000E+00
 -1      1683 2.10628E+01 1.22489E+01 0.00000E+00
 -1      1684 2.13672E+01 1.16027E+01 0.00000E+00
 -1      1685 2.05775E+01 1.37292E+01 0.00000E+00
 -1      1686 2.07450E+01 1.30294E+01 0.00000E+00
 -1      1687 2.04873E+01 1.52989E+01 0.00000E+00
 -1      1688 2.05078E+01 1.45749E+01 0.00000E+00
 -1      1689 2.06194E+01 1.69454E+01 0.00000E+00
 -1      1690 2.04764E+01 1.61856E+01 0.00000E+00
 -1      1691 2.12334E+01 1.84332E+01 0.00000E+00
 -1      1692 2.09515E+01 1.77670E+01 0.00000E+00
 -1      1693 2.20249E+01 1.97973E+01 0.00000E+00
 -1      1694 2.16087E+01 1.91993E+01 0.00000E+00
 -1      1695 2.31443E+01 2.09147E+01 0.00000E+00
 -1      1696 2.26146E+01 2.04167E+01 0.00000E+00
 -1      1697 2.45227E+01 2.18450E+01 0.00000E+00
 -1      1698 2.38500E+01 2.14433E+01 0.00000E+00
 -1      1699 2.60384E+01 2.24514E+01 0.00000E+00
 -1      1700 2.53324E+01 2.22177E+01 0.00000E+00
 -1      1701 2.76391E+01 2.27561E+01 0.00000E+00
 -1      1702 2.68889E+01 2.26769E+01 0.00000E+00
 -1      1703 2.92902E+01 2.26252E+01 0.00000E+00
 -1      1704 2.85302E+01 2.27108E+01 0.00000E+00
 -1      1705 3.09993E+01 2.22179E+01 0.00000E+00
 -1      1706 3.02214E+01 2.24929E+01 0.00000E+00
 -1      1707 3.24478E+01 2.13273E+01 0.00000E+00
 -1      1708 3.18052E+01 2.17365E+01 0.00000E+00
 -1      1709 3.36750E+01 2.02387E+01 0.00000E+00
 -1      1710 3.31395E+01 2.07732E+01 0.00000E+00
 -1      1711 3.46505E+01 1.88873E+01 0.00000E+00
 -1      1712 3.42340E+01 1.95412E+01 0.00000E+00
 -1      1713 3.53984E+01 1.73399E+01 0.00000E+00
 -1      1714 3.51311E+01 1.80908E+01 0.00000E+00
 -1      1715 3.56617E+01 1.56204E+01 0.00000E+00
 -1      1716 3.55712E+01 1.64113E+01 0.00000E+00
 -1      1717 3.34344E+01 8.98782E+00 0.00000E+00
 -1      1718 3.45662E+01 1.01977E+01 0.00000E+00
 -1      1719 1.48362E+02 2.56875E+00 0.00000E+00
 -1      1720 1.47063E+02 3.30625E+00 0.00000E+00
 -1      1721 3.63120E+01 1.33122E+01 0.00000E+00
 -1      1722 3.55722E+01 1.16403E+01 0.00000E+00
 -1      1723 3.63903E+01 1.51619E+01 0.00000E+00
 -1      1724 3.20635E+01 7.93501E+00 0.00000E+00
 -1      1725 3.04595E+01 7.25786E+00 0.00000E+00
 -1      1726 2.86918E+01 6.96742E+00 0.00000E+00
 -1      1727 2.68894E+01 6.90726E+00 0.00000E+00
 -1      1728 2.50528E+01 7.30328E+00 0.00000E+00
 -1      1729 2.33401E+01 8.14756E+00 0.00000E+00
 -1      1730 2.20423E+01 9.45180E+00 0.00000E+00
 -1      1731 2.11061E+01 1.09432E+01 0.00000E+00
 -1      1732 2.03488E+01 1.24480E+01 0.00000E+00
 -1      1733 1.99613E+01 1.40741E+01 0.00000E+00
 -1      1734 1.98807E+01 1.58064E+01 0.00000E+00
 -1      1735 2.02020E+01 1.75147E+01 0.00000E+00
 -1      1736 2.09095E+01 1.91024E+01 0.00000E+00
 -1      1737 2.18745E+01 2.04880E+01 0.00000E+00
 -1      1738 2.31699E+01 2.16360E+01 0.00000E+00
 -1      1739 2.46853E+01 2.25374E+01 0.00000E+00
 -1      1740 2.63454E+01 2.31355E+01 0.00000E+00
 -1      1741 2.80870E+01 2.33157E+01 0.00000E+00
 -1      1742 2.99092E+01 2.31381E+01 0.00000E+00
 -1      1743 3.16462E+01 2.25246E+01 0.00000E+00
 -1      1744 3.31438E+01 2.14891E+01 0.00000E+00
 -1      1745 3.43945E+01 2.02375E+01 0.00000E+00
 -1      1746 3.54341E+01 1.87433E+01 0.00000E+00
 -1      1747 3.60875E+01 1.70182E+01 0.00000E+00
 -1      1748 2.87400E+00 4.77875E+01 0.00000E+00
 -1      1749 3.89700E+00 4.04125E+01 0.00000E+00
 -1      1750 3.89700E+00 4.18875E+01 0.00000E+00
 -1      1751 3.89700E+00 4.33625E+01 0.00000E+00
 -1      1752 3.89700E+00 4.48375E+01 0.00000E+00
 -1      1753 5.19600E+00 4.26250E+01 0.00000E+00
 -1      1754 3.89700E+00 3.45500E+01 0.00000E+00
 -1      1755 3.89700E+00 3.60000E+01 0.00000E+00
 -1      1756 3.89700E+00 3.16000E+01 0.00000E+00
 -1      1757 3.89700E+00 3.30750E+01 0.00000E+00
 -1      1758 5.19600E+00 3.38000E+01 0.00000E+00
 -1      1759 3.89700E+00 2.86500E+01 0.00000E+00
 -1      1760 3.89700E+00 3.01250E+01 0.00000E+00
 -1      1761 5.19600E+00 3.08500E+01 0.00000E+00
 -1      1762 3.89700E+00 2.57000E+01 0.00000E+00
 -1      1763 3.89700E+00 2.71750E+01 0.00000E+00
 -1      1764 5.19600E+00 2.79000E+01 0.00000E+00
 -1      1765 3.89700E+00 2.27500E+01 0.00000E+00
 -1      1766 3.89700E+00 2.42250E+01 0.00000E+00
 -1      1767 5.19600E+00 2.49500E+01 0.00000E+00
 -1      1768 3.89700E+00 1.98000E+01 0.00000E+00
 -1      1769 3.89700E+00 2.12750E+01 0.00000E+00
 -1      1770 5.19600E+00 2.20000E+01 0.00000E+00
 -1      1771 3.89700E+00 1.69000E+01 0.00000E+00
 -1      1772 3.89700E+00 1.83500E+01 0.00000E+00
 -1      1773 5.19600E+00 1.90750E+01 0.00000E+00
 -1      1774 3.89700E+00 1.39500E+01 0.00000E+00
 -1      1775 3.89700E+00 1.54250E+01 0.00000E+00
 -1      1776 5.19600E+00 1.61500E+01 0.00000E+00
 -1      1777 3.89700E+00 1.10000E+01 0.00000E+00
 -1      1778 3.89700E+00 1.24750E+01 0.00000E+00
 -1      1779 5.19600E+00 1.32000E+01 0.00000E+00
 -1      1780 3.89700E+00 8.05000E+00 0.00000E+00
 -1      1781 3.89700E+00 9.52500E+00 0.00000E+00
 -1      1782 5.19600E+00 1.02500E+01 0.00000E+00
 -1      1783 3.89700E+00 5.10000E+00 0.00000E+00
 -1      1784 3.89700E+00 6.57500E+00 0.00000E+00
 -1      1785 5.19600E+00 7.30000E+00 0.00000E+00
 -1      1786 4.20450E+00 3.09687E+00 0.00000E+00
 -1      1787 4.06650E+00 4.19063E+00 0.00000E+00
 -1      1788 5.36550E+00 4.91563E+00 0.00000E+00
 -1      1789 5.70450E+00 3.09687E+00 0.00000E+00
 -1      1790 3.62400E+00 4.64885E+01 0.00000E+00
 -1      1791 8.70450E+00 3.09687E+00 0.00000E+00
 -1      1792 7.20450E+00 3.09687E+00 0.00000E+00
 -1      1793 7.03500E+00 4.00625E+00 0.00000E+00
 -1      1794 4.92300E+00 4.57510E+01 0.00000E+00
 -1      1795 8.40000E+00 4.61030E+01 0.00000E+00
 -1      1796 9.90000E+00 4.61030E+01 0.00000E+00
 -1      1797 1.14000E+01 4.61030E+01 0.00000E+00
 -1      1798 1.29000E+01 4.61030E+01 0.00000E+00
 -1      1799 1.06500E+01 4.48040E+01 0.00000E+00
 -1      1800 1.44000E+01 4.61030E+01 0.00000E+00
 -1      1801 1.59000E+01 4.61030E+01 0.00000E+00
 -1      1802 1.36500E+01 4.48040E+01 0.00000E+00
 -1      1803 1.74000E+01 4.61030E+01 0.00000E+00
 -1      1804 1.89000E+01 4.61030E+01 0.00000E+00
 -1      1805 1.66500E+01 4.48040E+01 0.00000E+00
 -1      1806 2.04000E+01 4.61030E+01 0.00000E+00
 -1      1807 2.19000E+01 4.61030E+01 0.00000E+00
 -1      1808 1.96500E+01 4.48040E+01 0.00000E+00
 -1      1809 2.34000E+01 4.61030E+01 0.00000E+00
 -1      1810 2.49000E+01 4.61030E+01 0.00000E+00
 -1      1811 2.26500E+01 4.48040E+01 0.00000E+00
 -1      1812 2.64000E+01 4.61030E+01 0.00000E+00
 -1      1813 2.79000E+01 4.61030E+01 0.00000E+00
 -1      1814 2.56500E+01 4.48040E+01 0.00000E+00
 -1      1815 2.94000E+01 4.61030E+01 0.00000E+00
 -1      1816 3.09000E+01 4.61030E+01 0.00000E+00
 -1      1817 2.86500E+01 4.48040E+01 0.00000E+00
 -1      1818 3.24000E+01 4.61030E+01 0.00000E+00
 -1      1819 3.39000E+01 4.61030E+01 0.00000E+00
 -1      1820 3.16500E+01 4.48040E+01 0.00000E+00
 -1      1821 3.54000E+01 4.61030E+01 0.00000E+00
 -1      1822 3.69000E+01 4.61030E+01 0.00000E+00
 -1      1823 3.46500E+01 4.48040E+01 0.00000E+00
 -1      1824 3.84000E+01 4.61030E+01 0.00000E+00
 -1      1825 3.99000E+01 4.61030E+01 0.00000E+00
 -1      1826 3.76500E+01 4.48040E+01 0.00000E+00
 -1      1827 4.14000E+01 4.61030E+01 0.00000E+00
 -1      1828 4.29000E+01 4.61030E+01 0.00000E+00
 -1      1829 4.06500E+01 4.48040E+01 0.00000E+00
 -1      1830 4.44000E+01 4.61030E+01 0.00000E+00
 -1      1831 4.59000E+01 4.61030E+01 0.00000E+00
 -1      1832 4.36500E+01 4.48040E+01 0.00000E+00
 -1      1833 4.74000E+01 4.61030E+01 0.00000E+00
 -1      1834 4.89000E+01 4.61030E+01 0.00000E+00
 -1      1835 4.66500E+01 4.48040E+01 0.00000E+00
 -1      1836 5.04000E+01 4.61030E+01 0.00000E+00
 -1      1837 5.19000E+01 4.61030E+01 0.00000E+00
 -1      1838 4.96500E+01 4.48040E+01 0.00000E+00
 -1      1839 5.34000E+01 4.61030E+01 0.00000E+00
 -1      1840 5.49000E+01 4.61030E+01 0.00000E+00
 -1      1841 5.26500E+01 4.48040E+01 0.00000E+00
 -1      1842 5.64000E+01 4.61030E+01 0.00000E+00
 -1      1843 5.79000E+01 4.61030E+01 0.00000E+00
 -1      1844 5.56500E+01 4.48040E+01 0.00000E+00
 -1      1845 5.94000E+01 4.61030E+01 0.00000E+00
 -1      1846 6.09000E+01 4.61030E+01 0.00000E+00
 -1      1847 5.86500E+01 4.48040E+01 0.00000E+00
 -1      1848 6.24000E+01 4.61030E+01 0.00000E+00
 -1      1849 6.39000E+01 4.61030E+01 0.00000E+00
 -1      1850 6.16500E+01 4.48040E+01 0.00000E+00
 -1      1851 6.54000E+01 4.61030E+01 0.00000E+00
 -1      1852 6.69000E+01 4.61030E+01 0.00000E+00
 -1      1853 6.46500E+01 4.48040E+01 0.00000E+00
 -1      1854 6.84000E+01 4.61030E+01 0.00000E+00
 -1      1855 6.99000E+01 4.61030E+01 0.00000E+00
 -1      1856 6.76500E+01 4.48040E+01 0.00000E+00
 -1      1857 7.14000E+01 4.61030E+01 0.00000E+00
 -1      1858 7.29000E+01 4.61030E+01 0.00000E+00
 -1      1859 7.06500E+01 4.48040E+01 0.00000E+00
 -1      1860 7.44000E+01 4.61030E+01 0.00000E+00
 -1      1861 7.59000E+01 4.61030E+01 0.00000E+00
 -1      1862 7.36500E+01 4.48040E+01 0.00000E+00
 -1      1863 7.74000E+01 4.61030E+01 0.00000E+00
 -1      1864 7.89000E+01 4.61030E+01 0.00000E+00
 -1      1865 7.66500E+01 4.48040E+01 0.00000E+00
 -1      1866 8.04000E+01 4.61030E+01 0.00000E+00
 -1      1867 8.19000E+01 4.61030E+01 0.00000E+00
 -1      1868 7.96500E+01 4.48040E+01 0.00000E+00
 -1      1869 8.34000E+01 4.61030E+01 0.00000E+00
 -1      1870 8.49000E+01 4.61030E+01 0.00000E+00
 -1      1871 8.26500E+01 4.48040E+01 0.00000E+00
 -1      1872 8.64000E+01 4.61030E+01 0.00000E+00
 -1      1873 8.79000E+01 4.61030E+01 0.00000E+00
 -1      1874 8.56500E+01 4.48040E+01 0.00000E+00
 -1      1875 8.94000E+01 4.61030E+01 0.00000E+00
 -1      1876 9.09000E+01 4.61030E+01 0.00000E+00
 -1      1877 8.86500E+01 4.48040E+01 0.00000E+00
 -1      1878 9.24000E+01 4.61030E+01 0.00000E+00
 -1      1879 9.39000E+01 4.61030E+01 0.00000E+00
 -1      1880 9.16500E+01 4.48040E+01 0.00000E+00
 -1      1881 9.54000E+01 4.61030E+01 0.00000E+00
 -1      1882 9.69000E+01 4.61030E+01 0.00000E+00
 -1      1883 9.46500E+01 4.48040E+01 0.00000E+00
 -1      1884 9.84000E+01 4.61030E+01 0.00000E+00
 -1      1885 9.99000E+01 4.61030E+01 0.00000E+00
 -1      1886 9.76500E+01 4.48040E+01 0.00000E+00
 -1      1887 1.01400E+02 4.61030E+01 0.00000E+00
 -1      1888 1.02900E+02 4.61030E+01 0.00000E+00
 -1      1889 1.00650E+02 4.48040E+01 0.00000E+00
 -1      1890 1.04400E+02 4.61030E+01 0.00000E+00
 -1      1891 1.05900E+02 4.61030E+01 0.00000E+00
 -1      1892 1.03650E+02 4.48040E+01 0.00000E+00
 -1      1893 1.07400E+02 4.61030E+01 0.00000E+00
 -1      1894 1.08900E+02 4.61030E+01 0.00000E+00
 -1      1895 1.06650E+02 4.48040E+01 0.00000E+00
 -1      1896 1.10400E+02 4.61030E+01 0.00000E+00
 -1      1897 1.11900E+02 4.61030E+01 0.00000E+00
 -1      1898 1.09650E+02 4.48040E+01 0.00000E+00
 -1      1899 1.13400E+02 4.61030E+01 0.00000E+00
 -1      1900 1.14900E+02 4.61030E+01 0.00000E+00
 -1      1901 1.12650E+02 4.48040E+01 0.00000E+00
 -1      1902 1.16400E+02 4.61030E+01 0.00000E+00
 -1      1903 1.17900E+02 4.61030E+01 0.00000E+00
 -1      1904 1.15650E+02 4.48040E+01 0.00000E+00
 -1      1905 1.19400E+02 4.61030E+01 0.00000E+00
 -1      1906 1.20900E+02 4.61030E+01 0.00000E+00
 -1      1907 1.18650E+02 4.48040E+01 0.00000E+00
 -1      1908 1.22400E+02 4.61030E+01 0.00000E+00
 -1      1909 1.23900E+02 4.61030E+01 0.00000E+00
 -1      1910 1.21650E+02 4.48040E+01 0.00000E+00
 -1      1911 1.25400E+02 4.61030E+01 0.00000E+00
 -1      1912 1.26900E+02 4.61030E+01 0.00000E+00
 -1      1913 1.24650E+02 4.48040E+01 0.00000E+00
 -1      1914 1.28400E+02 4.61030E+01 0.00000E+00
 -1      1915 1.29900E+02 4.61030E+01 0.00000E+00
 -1      1916 1.27650E+02 4.48040E+01 0.00000E+00
 -1      1917 1.31400E+02 4.61030E+01 0.00000E+00
 -1      1918 1.32900E+02 4.61030E+01 0.00000E+00
 -1      1919 1.30650E+02 4.48040E+01 0.00000E+00
 -1      1920 1.34400E+02 4.61030E+01 0.00000E+00
 -1      1921 1.35900E+02 4.61030E+01 0.00000E+00
 -1      1922 1.33650E+02 4.48040E+01 0.00000E+00
 -1      1923 1.37400E+02 4.61030E+01 0.00000E+00
 -1      1924 1.38900E+02 4.61030E+01 0.00000E+00
 -1      1925 1.36650E+02 4.48040E+01 0.00000E+00
 -1      1926 1.40400E+02 4.61030E+01 0.00000E+00
 -1      1927 1.41900E+02 4.61030E+01 0.00000E+00
 -1      1928 1.39650E+02 4.48040E+01 0.00000E+00
 -1      1929 1.43244E+02 4.61616E+01 0.00000E+00
 -1      1930 1.44744E+02 4.61616E+01 0.00000E+00
 -1      1931 1.45182E+02 4.49799E+01 0.00000E+00
 -1      1932 1.42494E+02 4.48626E+01 0.00000E+00
 -1      1933 1.17045E+01 3.09687E+00 0.00000E+00
 -1      1934 1.02045E+01 3.09687E+00 0.00000E+00
 -1      1935 1.00350E+01 4.00625E+00 0.00000E+00
 -1      1936 1.47045E+01 3.09687E+00 0.00000E+00
 -1      1937 1.32045E+01 3.09687E+00 0.00000E+00
 -1      1938 1.30350E+01 4.00625E+00 0.00000E+00
 -1      1939 1.78545E+01 3.09687E+00 0.00000E+00
 -1      1940 1.62795E+01 3.09687E+00 0.00000E+00
 -1      1941 1.61100E+01 4.00625E+00 0.00000E+00
 -1      1942 2.08545E+01 3.09687E+00 0.00000E+00
 -1      1943 1.93545E+01 3.09687E+00 0.00000E+00
 -1      1944 1.91850E+01 4.00625E+00 0.00000E+00
 -1      1945 2.38545E+01 3.09687E+00 0.00000E+00
 -1      1946 2.23545E+01 3.09687E+00 0.00000E+00
 -1      1947 2.21850E+01 4.00625E+00 0.00000E+00
 -1      1948 2.65545E+01 3.09687E+00 0.00000E+00
 -1      1949 2.52045E+01 3.09687E+00 0.00000E+00
 -1      1950 2.50350E+01 4.00625E+00 0.00000E+00
 -1      1951 2.92545E+01 3.09687E+00 0.00000E+00
 -1      1952 2.79045E+01 3.09687E+00 0.00000E+00
 -1      1953 2.77350E+01 4.00625E+00 0.00000E+00
 -1      1954 3.21045E+01 3.09687E+00 0.00000E+00
 -1      1955 3.06795E+01 3.09687E+00 0.00000E+00
 -1      1956 3.05100E+01 4.00625E+00 0.00000E+00
 -1      1957 3.48045E+01 3.09687E+00 0.00000E+00
 -1      1958 3.34545E+01 3.09687E+00 0.00000E+00
 -1      1959 3.32850E+01 4.00625E+00 0.00000E+00
 -1      1960 3.76545E+01 3.09687E+00 0.00000E+00
 -1      1961 3.62295E+01 3.09687E+00 0.00000E+00
 -1      1962 3.60600E+01 4.00625E+00 0.00000E+00
 -1      1963 4.06545E+01 3.09687E+00 0.00000E+00
 -1      1964 3.91545E+01 3.09687E+00 0.00000E+00
 -1      1965 3.89850E+01 4.00625E+00 0.00000E+00
 -1      1966 4.36545E+01 3.09687E+00 0.00000E+00
 -1      1967 4.21545E+01 3.09687E+00 0.00000E+00
 -1      1968 4.19850E+01 4.00625E+00 0.00000E+00
 -1      1969 4.66545E+01 3.09687E+00 0.00000E+00
 -1      1970 4.51545E+01 3.09687E+00 0.00000E+00
 -1      1971 4.49850E+01 4.00625E+00 0.00000E+00
 -1      1972 4.98045E+01 3.09687E+00 0.00000E+00
 -1      1973 4.82295E+01 3.09687E+00 0.00000E+00
 -1      1974 4.80600E+01 4.00625E+00 0.00000E+00
 -1      1975 5.28045E+01 3.09687E+00 0.00000E+00
 -1      1976 5.13045E+01 3.09687E+00 0.00000E+00
 -1      1977 5.11350E+01 4.00625E+00 0.00000E+00
 -1      1978 5.58045E+01 3.09687E+00 0.00000E+00
 -1      1979 5.43045E+01 3.09687E+00 0.00000E+00
 -1      1980 5.41350E+01 4.00625E+00 0.00000E+00
 -1      1981 5.88045E+01 3.09687E+00 0.00000E+00
 -1      1982 5.73045E+01 3.09687E+00 0.00000E+00
 -1      1983 5.71350E+01 4.00625E+00 0.00000E+00
 -1      1984 6.18045E+01 3.09687E+00 0.00000E+00
 -1      1985 6.03045E+01 3.09687E+00 0.00000E+00
 -1      1986 6.01350E+01 4.00625E+00 0.00000E+00
 -1      1987 6.49545E+01 3.09687E+00 0.00000E+00
 -1      1988 6.33795E+01 3.09687E+00 0.00000E+00
 -1      1989 6.32100E+01 4.00625E+00 0.00000E+00
 -1      1990 6.79545E+01 3.09687E+00 0.00000E+00
 -1      1991 6.64545E+01 3.09687E+00 0.00000E+00
 -1      1992 6.62850E+01 4.00625E+00 0.00000E+00
 -1      1993 7.09545E+01 3.09687E+00 0.00000E+00
 -1      1994 6.94545E+01 3.09687E+00 0.00000E+00
 -1      1995 6.92850E+01 4.00625E+00 0.00000E+00
 -1      1996 7.39545E+01 3.09687E+00 0.00000E+00
 -1      1997 7.24545E+01 3.09687E+00 0.00000E+00
 -1      1998 7.22850E+01 4.00625E+00 0.00000E+00
 -1      1999 7.69545E+01 3.09687E+00 0.00000E+00
 -1      2000 7.54545E+01 3.09687E+00 0.00000E+00
 -1      2001 7.52850E+01 4.00625E+00 0.00000E+00
 -1      2002 7.99545E+01 3.09687E+00 0.00000E+00
 -1      2003 7.84545E+01 3.09687E+00 0.00000E+00
 -1      2004 7.82850E+01 4.00625E+00 0.00000E+00
 -1      2005 8.31045E+01 3.09687E+00 0.00000E+00
 -1      2006 8.15295E+01 3.09687E+00 0.00000E+00
 -1      2007 8.13600E+01 4.00625E+00 0.00000E+00
 -1      2008 8.61045E+01 3.09687E+00 0.00000E+00
 -1      2009 8.46045E+01 3.09687E+00 0.00000E+00
 -1      2010 8.44350E+01 4.00625E+00 0.00000E+00
 -1      2011 8.91045E+01 3.09687E+00 0.00000E+00
 -1      2012 8.76045E+01 3.09687E+00 0.00000E+00
 -1      2013 8.74350E+01 4.00625E+00 0.00000E+00
 -1      2014 9.21045E+01 3.09687E+00 0.00000E+00
 -1      2015 9.06045E+01 3.09687E+00 0.00000E+00
 -1      2016 9.04350E+01 4.00625E+00 0.00000E+00
 -1      2017 9.51045E+01 3.09687E+00 0.00000E+00
 -1      2018 9.36045E+01 3.09687E+00 0.00000E+00
 -1      2019 9.34350E+01 4.00625E+00 0.00000E+00
 -1      2020 9.81045E+01 3.09687E+00 0.00000E+00
 -1      2021 9.66045E+01 3.09687E+00 0.00000E+00
 -1      2022 9.64350E+01 4.00625E+00 0.00000E+00
 -1      2023 1.01255E+02 3.09687E+00 0.00000E+00
 -1      2024 9.96795E+01 3.09687E+00 0.00000E+00
 -1      2025 9.95100E+01 4.00625E+00 0.00000E+00
 -1      2026 1.04255E+02 3.09687E+00 0.00000E+00
 -1      2027 1.02755E+02 3.09687E+00 0.00000E+00
 -1      2028 1.02585E+02 4.00625E+00 0.00000E+00
 -1      2029 1.07255E+02 3.09687E+00 0.00000E+00
 -1      2030 1.05755E+02 3.09687E+00 0.00000E+00
 -1      2031 1.05585E+02 4.00625E+00 0.00000E+00
 -1      2032 1.10255E+02 3.09687E+00 0.00000E+00
 -1      2033 1.08755E+02 3.09687E+00 0.00000E+00
 -1      2034 1.08585E+02 4.00625E+00 0.00000E+00
 -1      2035 1.13255E+02 3.09687E+00 0.00000E+00
 -1      2036 1.11755E+02 3.09687E+00 0.00000E+00
 -1      2037 1.11585E+02 4.00625E+00 0.00000E+00
 -1      2038 1.16405E+02 3.09687E+00 0.00000E+00
 -1      2039 1.14829E+02 3.09687E+00 0.00000E+00
 -1      2040 1.14660E+02 4.00625E+00 0.00000E+00
 -1      2041 1.19405E+02 3.09687E+00 0.00000E+00
 -1      2042 1.17905E+02 3.09687E+00 0.00000E+00
 -1      2043 1.17735E+02 4.00625E+00 0.00000E+00
 -1      2044 1.22405E+02 3.09687E+00 0.00000E+00
 -1      2045 1.20905E+02 3.09687E+00 0.00000E+00
 -1      2046 1.20735E+02 4.00625E+00 0.00000E+00
 -1      2047 1.25405E+02 3.09687E+00 0.00000E+00
 -1      2048 1.23905E+02 3.09687E+00 0.00000E+00
 -1      2049 1.23735E+02 4.00625E+00 0.00000E+00
 -1      2050 1.28404E+02 3.09687E+00 0.00000E+00
 -1      2051 1.26905E+02 3.09687E+00 0.00000E+00
 -1      2052 1.26735E+02 4.00625E+00 0.00000E+00
 -1      2053 1.31404E+02 3.09687E+00 0.00000E+00
 -1      2054 1.29904E+02 3.09687E+00 0.00000E+00
 -1      2055 1.29735E+02 4.00625E+00 0.00000E+00
 -1      2056 1.34555E+02 3.09687E+00 0.00000E+00
 -1      2057 1.32980E+02 3.09687E+00 0.00000E+00
 -1      2058 1.32810E+02 4.00625E+00 0.00000E+00
 -1      2059 1.37555E+02 3.09687E+00 0.00000E+00
 -1      2060 1.36055E+02 3.09687E+00 0.00000E+00
 -1      2061 1.35885E+02 4.00625E+00 0.00000E+00
 -1      2062 1.40555E+02 3.09687E+00 0.00000E+00
 -1      2063 1.39055E+02 3.09687E+00 0.00000E+00
 -1      2064 1.38885E+02 4.00625E+00 0.00000E+00
 -1      2065 1.43555E+02 3.09687E+00 0.00000E+00
 -1      2066 1.42055E+02 3.09687E+00 0.00000E+00
 -1      2067 1.41885E+02 4.00625E+00 0.00000E+00
 -1      2068 1.46059E+02 3.20156E+00 0.00000E+00
 -1      2069 1.44559E+02 3.20156E+00 0.00000E+00
 -1      2070 1.44389E+02 4.11094E+00 0.00000E+00
 -1      2071 1.46398E+02 4.32031E+00 0.00000E+00
 -1      2072 1.46103E+02 1.25375E+01 0.00000E+00
 -1      2073 1.46103E+02 1.10625E+01 0.00000E+00
 -1      2074 1.46103E+02 9.58750E+00 0.00000E+00
 -1      2075 1.46103E+02 8.11250E+00 0.00000E+00
 -1      2076 1.44804E+02 1.03250E+01 0.00000E+00
 -1      2077 1.46250E+02 6.95391E+00 0.00000E+00
 -1      2078 1.46250E+02 5.47891E+00 0.00000E+00
 -1      2079 1.45246E+02 5.37422E+00 0.00000E+00
 -1      2080 1.44951E+02 7.69141E+00 0.00000E+00
 -1      2081 1.46103E+02 1.54375E+01 0.00000E+00
 -1      2082 1.46103E+02 1.39875E+01 0.00000E+00
 -1      2083 1.44804E+02 1.32500E+01 0.00000E+00
 -1      2084 1.46103E+02 1.83875E+01 0.00000E+00
 -1      2085 1.46103E+02 1.69125E+01 0.00000E+00
 -1      2086 1.44804E+02 1.61750E+01 0.00000E+00
 -1      2087 1.46103E+02 2.13375E+01 0.00000E+00
 -1      2088 1.46103E+02 1.98625E+01 0.00000E+00
 -1      2089 1.44804E+02 1.91250E+01 0.00000E+00
 -1      2090 1.46103E+02 2.42875E+01 0.00000E+00
 -1      2091 1.46103E+02 2.28125E+01 0.00000E+00
 -1      2092 1.44804E+02 2.20750E+01 0.00000E+00
 -1      2093 1.46103E+02 2.72375E+01 0.00000E+00
 -1      2094 1.46103E+02 2.57625E+01 0.00000E+00
 -1      2095 1.44804E+02 2.50250E+01 0.00000E+00
 -1      2096 1.46103E+02 3.01875E+01 0.00000E+00
 -1      2097 1.46103E+02 2.87125E+01 0.00000E+00
 -1      2098 1.44804E+02 2.79750E+01 0.00000E+00
 -1      2099 1.46103E+02 3.30875E+01 0.00000E+00
 -1      2100 1.46103E+02 3.16375E+01 0.00000E+00
 -1      2101 1.44804E+02 3.09000E+01 0.00000E+00
 -1      2102 1.46103E+02 3.60375E+01 0.00000E+00
 -1      2103 1.46103E+02 3.45625E+01 0.00000E+00
 -1      2104 1.44804E+02 3.38250E+01 0.00000E+00
 -1      2105 1.46103E+02 3.89875E+01 0.00000E+00
 -1      2106 1.46103E+02 3.75125E+01 0.00000E+00
 -1      2107 1.44804E+02 3.67750E+01 0.00000E+00
 -1      2108 1.46103E+02 4.19375E+01 0.00000E+00
 -1      2109 1.46103E+02 4.04625E+01 0.00000E+00
 -1      2110 1.44804E+02 3.97250E+01 0.00000E+00
 -1      2111 3.58352E+01 1.08907E+01 0.00000E+00
 -1      2112 3.63667E+01 1.16404E+01 0.00000E+00
 -1      2113 3.72216E+01 1.48055E+01 0.00000E+00
 -1      2114 3.70916E+01 1.57331E+01 0.00000E+00
 -1      2115 3.70443E+01 1.26621E+01 0.00000E+00
 -1      2116 3.72526E+01 1.35843E+01 0.00000E+00
 -1      2117 3.48861E+01 9.50484E+00 0.00000E+00
 -1      2118 3.53606E+01 1.01978E+01 0.00000E+00
 -1      2119 3.61551E+01 1.01978E+01 0.00000E+00
 -1      2120 3.35324E+01 8.18703E+00 0.00000E+00
 -1      2121 3.41896E+01 8.70400E+00 0.00000E+00
 -1      2122 3.89700E+00 3.74688E+01 0.00000E+00
 -1      2123 3.89700E+00 3.89437E+01 0.00000E+00
 -1      2124 5.19600E+00 3.96813E+01 0.00000E+00
 -1      2125 5.19600E+00 3.67438E+01 0.00000E+00
 -1      2126 3.01225E+01 6.50576E+00 0.00000E+00
 -1      2127 3.10128E+01 6.64707E+00 0.00000E+00
 -1      2128 2.83678E+01 6.20750E+00 0.00000E+00
 -1      2129 2.92451E+01 6.35663E+00 0.00000E+00
 -1      2130 2.97984E+01 5.74583E+00 0.00000E+00
 -1      2131 2.63528E+01 6.18153E+00 0.00000E+00
 -1      2132 2.72778E+01 6.09256E+00 0.00000E+00
 -1      2133 2.43767E+01 6.80293E+00 0.00000E+00
 -1      2134 2.52883E+01 6.49587E+00 0.00000E+00
 -1      2135 2.24619E+01 7.70393E+00 0.00000E+00
 -1      2136 2.32631E+01 7.16671E+00 0.00000E+00
 -1      2137 2.11093E+01 9.39199E+00 0.00000E+00
 -1      2138 2.16059E+01 8.62497E+00 0.00000E+00
 -1      2139 2.02303E+01 1.08407E+01 0.00000E+00
 -1      2140 2.06698E+01 1.01163E+01 0.00000E+00
 -1      2141 2.02334E+01 9.28952E+00 0.00000E+00
 -1      2142 1.95508E+01 1.25780E+01 0.00000E+00
 -1      2143 1.98687E+01 1.17975E+01 0.00000E+00
 -1      2144 1.91553E+01 1.44333E+01 0.00000E+00
 -1      2145 1.92250E+01 1.35877E+01 0.00000E+00
 -1      2146 1.91335E+01 1.62067E+01 0.00000E+00
 -1      2147 1.91444E+01 1.53200E+01 0.00000E+00
 -1      2148 1.84081E+01 1.48336E+01 0.00000E+00
 -1      2149 1.97284E+01 1.81841E+01 0.00000E+00
 -1      2150 1.93962E+01 1.73625E+01 0.00000E+00
 -1      2151 2.04023E+01 1.98259E+01 0.00000E+00
 -1      2152 2.00270E+01 1.90598E+01 0.00000E+00
 -1      2153 2.16696E+01 2.12734E+01 0.00000E+00
 -1      2154 2.10799E+01 2.06540E+01 0.00000E+00
 -1      2155 2.31091E+01 2.24526E+01 0.00000E+00
 -1      2156 2.24034E+01 2.19240E+01 0.00000E+00
 -1      2157 2.48016E+01 2.33505E+01 0.00000E+00
 -1      2158 2.39919E+01 2.29778E+01 0.00000E+00
 -1      2159 2.65616E+01 2.40367E+01 0.00000E+00
 -1      2160 2.57111E+01 2.38112E+01 0.00000E+00
 -1      2161 2.85740E+01 2.41076E+01 0.00000E+00
 -1      2162 2.76829E+01 2.41530E+01 0.00000E+00
 -1      2163 3.04362E+01 2.38432E+01 0.00000E+00
 -1      2164 2.95051E+01 2.39754E+01 0.00000E+00
 -1      2165 2.91010E+01 2.48127E+01 0.00000E+00
 -1      2166 3.23815E+01 2.28403E+01 0.00000E+00
 -1      2167 3.15756E+01 2.33216E+01 0.00000E+00
 -1      2168 3.39996E+01 2.18487E+01 0.00000E+00
 -1      2169 3.33079E+01 2.24027E+01 0.00000E+00
 -1      2170 3.52778E+01 2.03726E+01 0.00000E+00
 -1      2171 3.47188E+01 2.10701E+01 0.00000E+00
 -1      2172 3.62652E+01 1.87015E+01 0.00000E+00
 -1      2173 3.57846E+01 1.94981E+01 0.00000E+00
 -1      2174 3.69188E+01 1.66617E+01 0.00000E+00
 -1      2175 3.67460E+01 1.75903E+01 0.00000E+00
 -1      2176 3.77501E+01 1.63053E+01 0.00000E+00
 -1      2177 3.21049E+01 7.11535E+00 0.00000E+00
 -1      2178 3.28187E+01 7.65119E+00 0.00000E+00
 -1      2179 3.35739E+01 7.36737E+00 0.00000E+00
 -1      2180 3.49841E+01 8.70404E+00 0.00000E+00
 -1      2181 6.42300E+00 4.57510E+01 0.00000E+00
 -1      2182 3.17680E+01 6.36325E+00 0.00000E+00
 -1      2183 7.17300E+00 4.44520E+01 0.00000E+00
 -1      2184 3.73073E+01 1.19125E+01 0.00000E+00
 -1      2185 3.79539E+01 1.41555E+01 0.00000E+00
 -1      2186 1.45665E+02 4.31193E+01 0.00000E+00
 -1      2187 3.70965E+01 1.83451E+01 0.00000E+00
 -1      2188 3.61089E+01 2.03307E+01 0.00000E+00
 -1      2189 3.48829E+01 2.19838E+01 0.00000E+00
 -1      2190 3.11715E+01 2.41589E+01 0.00000E+00
 -1      2191 3.07674E+01 2.49962E+01 0.00000E+00
 -1      2192 3.19068E+01 2.44746E+01 0.00000E+00
 -1      2193 2.70486E+01 2.48287E+01 0.00000E+00
 -1      2194 2.50178E+01 2.42516E+01 0.00000E+00
 -1      2195 2.32254E+01 2.32657E+01 0.00000E+00
 -1      2196 2.16088E+01 2.20900E+01 0.00000E+00
 -1      2197 2.01974E+01 2.06114E+01 0.00000E+00
 -1      2198 1.86599E+01 1.68762E+01 0.00000E+00
 -1      2199 1.94323E+01 1.09707E+01 0.00000E+00
 -1      2200 2.15289E+01 7.64412E+00 0.00000E+00
 -1      2201 2.34986E+01 6.35930E+00 0.00000E+00
 -1      2202 2.78311E+01 5.48177E+00 0.00000E+00
 -1      2203 2.56767E+01 5.68118E+00 0.00000E+00
 -1      2204 1.87448E+01 1.29372E+01 0.00000E+00
 -1      2205 1.92212E+01 1.89076E+01 0.00000E+00
 -1      2206 3.32373E+01 2.31998E+01 0.00000E+00
 -1      2207 1.07850E+01 5.30525E+00 0.00000E+00
 -1      2208 9.28500E+00 5.30525E+00 0.00000E+00
 -1      2209 6.49500E+00 3.01125E+01 0.00000E+00
 -1      2210 6.49500E+00 3.15875E+01 0.00000E+00
 -1      2211 6.49500E+00 3.30625E+01 0.00000E+00
 -1      2212 6.49500E+00 3.45375E+01 0.00000E+00
 -1      2213 7.79400E+00 3.23250E+01 0.00000E+00
 -1      2214 6.49500E+00 2.42125E+01 0.00000E+00
 -1      2215 6.49500E+00 2.56875E+01 0.00000E+00
 -1      2216 6.49500E+00 2.12625E+01 0.00000E+00
 -1      2217 6.49500E+00 2.27375E+01 0.00000E+00
 -1      2218 7.79400E+00 2.34750E+01 0.00000E+00
 -1      2219 6.49500E+00 1.83625E+01 0.00000E+00
 -1      2220 6.49500E+00 1.98125E+01 0.00000E+00
 -1      2221 7.79400E+00 2.05500E+01 0.00000E+00
 -1      2222 6.49500E+00 1.54125E+01 0.00000E+00
 -1      2223 6.49500E+00 1.68875E+01 0.00000E+00
 -1      2224 7.79400E+00 1.76250E+01 0.00000E+00
 -1      2225 6.49500E+00 1.24625E+01 0.00000E+00
 -1      2226 6.49500E+00 1.39375E+01 0.00000E+00
 -1      2227 7.79400E+00 1.46750E+01 0.00000E+00
 -1      2228 6.49500E+00 9.51250E+00 0.00000E+00
 -1      2229 6.49500E+00 1.09875E+01 0.00000E+00
 -1      2230 7.79400E+00 1.17250E+01 0.00000E+00
 -1      2231 1.37850E+01 5.30525E+00 0.00000E+00
 -1      2232 1.22850E+01 5.30525E+00 0.00000E+00
 -1      2233 1.15350E+01 6.60425E+00 0.00000E+00
 -1      2234 9.90000E+00 4.35050E+01 0.00000E+00
 -1      2235 1.14000E+01 4.35050E+01 0.00000E+00
 -1      2236 3.15103E+01 5.45645E+00 0.00000E+00
 -1      2237 3.26025E+01 5.92473E+00 0.00000E+00
 -1      2238 1.29000E+01 4.35050E+01 0.00000E+00
 -1      2239 1.44000E+01 4.35050E+01 0.00000E+00
 -1      2240 1.21500E+01 4.22060E+01 0.00000E+00
 -1      2241 1.59000E+01 4.35050E+01 0.00000E+00
 -1      2242 1.74000E+01 4.35050E+01 0.00000E+00
 -1      2243 1.51500E+01 4.22060E+01 0.00000E+00
 -1      2244 1.89000E+01 4.35050E+01 0.00000E+00
 -1      2245 2.04000E+01 4.35050E+01 0.00000E+00
 -1      2246 1.81500E+01 4.22060E+01 0.00000E+00
 -1      2247 2.19000E+01 4.35050E+01 0.00000E+00
 -1      2248 2.34000E+01 4.35050E+01 0.00000E+00
 -1      2249 2.11500E+01 4.22060E+01 0.00000E+00
 -1      2250 2.49000E+01 4.35050E+01 0.00000E+00
 -1      2251 2.64000E+01 4.35050E+01 0.00000E+00
 -1      2252 2.41500E+01 4.22060E+01 0.00000E+00
 -1      2253 2.79000E+01 4.35050E+01 0.00000E+00
 -1      2254 2.94000E+01 4.35050E+01 0.00000E+00
 -1      2255 2.71500E+01 4.22060E+01 0.00000E+00
 -1      2256 3.09000E+01 4.35050E+01 0.00000E+00
 -1      2257 3.24000E+01 4.35050E+01 0.00000E+00
 -1      2258 3.01500E+01 4.22060E+01 0.00000E+00
 -1      2259 3.39000E+01 4.35050E+01 0.00000E+00
 -1      2260 3.54000E+01 4.35050E+01 0.00000E+00
 -1      2261 3.31500E+01 4.22060E+01 0.00000E+00
 -1      2262 3.69000E+01 4.35050E+01 0.00000E+00
 -1      2263 3.84000E+01 4.35050E+01 0.00000E+00
 -1      2264 3.61500E+01 4.22060E+01 0.00000E+00
 -1      2265 3.99000E+01 4.35050E+01 0.00000E+00
 -1      2266 4.14000E+01 4.35050E+01 0.00000E+00
 -1      2267 3.91500E+01 4.22060E+01 0.00000E+00
 -1      2268 4.29000E+01 4.35050E+01 0.00000E+00
 -1      2269 4.44000E+01 4.35050E+01 0.00000E+00
 -1      2270 4.21500E+01 4.22060E+01 0.00000E+00
 -1      2271 4.59000E+01 4.35050E+01 0.00000E+00
 -1      2272 4.74000E+01 4.35050E+01 0.00000E+00
 -1      2273 4.51500E+01 4.22060E+01 0.00000E+00
 -1      2274 4.89000E+01 4.35050E+01 0.00000E+00
 -1      2275 5.04000E+01 4.35050E+01 0.00000E+00
 -1      2276 4.81500E+01 4.22060E+01 0.00000E+00
 -1      2277 5.19000E+01 4.35050E+01 0.00000E+00
 -1      2278 5.34000E+01 4.35050E+01 0.00000E+00
 -1      2279 5.11500E+01 4.22060E+01 0.00000E+00
 -1      2280 5.49000E+01 4.35050E+01 0.00000E+00
 -1      2281 5.64000E+01 4.35050E+01 0.00000E+00
 -1      2282 5.41500E+01 4.22060E+01 0.00000E+00
 -1      2283 5.79000E+01 4.35050E+01 0.00000E+00
 -1      2284 5.94000E+01 4.35050E+01 0.00000E+00
 -1      2285 5.71500E+01 4.22060E+01 0.00000E+00
 -1      2286 6.09000E+01 4.35050E+01 0.00000E+00
 -1      2287 6.24000E+01 4.35050E+01 0.00000E+00
 -1      2288 6.01500E+01 4.22060E+01 0.00000E+00
 -1      2289 6.39000E+01 4.35050E+01 0.00000E+00
 -1      2290 6.54000E+01 4.35050E+01 0.00000E+00
 -1      2291 6.31500E+01 4.22060E+01 0.00000E+00
 -1      2292 6.69000E+01 4.35050E+01 0.00000E+00
 -1      2293 6.84000E+01 4.35050E+01 0.00000E+00
 -1      2294 6.61500E+01 4.22060E+01 0.00000E+00
 -1      2295 6.99000E+01 4.35050E+01 0.00000E+00
 -1      2296 7.14000E+01 4.35050E+01 0.00000E+00
 -1      2297 6.91500E+01 4.22060E+01 0.00000E+00
 -1      2298 7.29000E+01 4.35050E+01 0.00000E+00
 -1      2299 7.44000E+01 4.35050E+01 0.00000E+00
 -1      2300 7.21500E+01 4.22060E+01 0.00000E+00
 -1      2301 7.59000E+01 4.35050E+01 0.00000E+00
 -1      2302 7.74000E+01 4.35050E+01 0.00000E+00
 -1      2303 7.51500E+01 4.22060E+01 0.00000E+00
 -1      2304 7.89000E+01 4.35050E+01 0.00000E+00
 -1      2305 8.04000E+01 4.35050E+01 0.00000E+00
 -1      2306 7.81500E+01 4.22060E+01 0.00000E+00
 -1      2307 8.19000E+01 4.35050E+01 0.00000E+00
 -1      2308 8.34000E+01 4.35050E+01 0.00000E+00
 -1      2309 8.11500E+01 4.22060E+01 0.00000E+00
 -1      2310 8.49000E+01 4.35050E+01 0.00000E+00
 -1      2311 8.64000E+01 4.35050E+01 0.00000E+00
 -1      2312 8.41500E+01 4.22060E+01 0.00000E+00
 -1      2313 8.79000E+01 4.35050E+01 0.00000E+00
 -1      2314 8.94000E+01 4.35050E+01 0.00000E+00
 -1      2315 8.71500E+01 4.22060E+01 0.00000E+00
 -1      2316 9.09000E+01 4.35050E+01 0.00000E+00
 -1      2317 9.24000E+01 4.35050E+01 0.00000E+00
 -1      2318 9.01500E+01 4.22060E+01 0.00000E+00
 -1      2319 9.39000E+01 4.35050E+01 0.00000E+00
 -1      2320 9.54000E+01 4.35050E+01 0.00000E+00
 -1      2321 9.31500E+01 4.22060E+01 0.00000E+00
 -1      2322 9.69000E+01 4.35050E+01 0.00000E+00
 -1      2323 9.84000E+01 4.35050E+01 0.00000E+00
 -1      2324 9.61500E+01 4.22060E+01 0.00000E+00
 -1      2325 9.99000E+01 4.35050E+01 0.00000E+00
 -1      2326 1.01400E+02 4.35050E+01 0.00000E+00
 -1      2327 9.91500E+01 4.22060E+01 0.00000E+00
 -1      2328 1.02900E+02 4.35050E+01 0.00000E+00
 -1      2329 1.04400E+02 4.35050E+01 0.00000E+00
 -1      2330 1.02150E+02 4.22060E+01 0.00000E+00
 -1      2331 1.05900E+02 4.35050E+01 0.00000E+00
 -1      2332 1.07400E+02 4.35050E+01 0.00000E+00
 -1      2333 1.05150E+02 4.22060E+01 0.00000E+00
 -1      2334 1.08900E+02 4.35050E+01 0.00000E+00
 -1      2335 1.10400E+02 4.35050E+01 0.00000E+00
 -1      2336 1.08150E+02 4.22060E+01 0.00000E+00
 -1      2337 1.11900E+02 4.35050E+01 0.00000E+00
 -1      2338 1.13400E+02 4.35050E+01 0.00000E+00
 -1      2339 1.11150E+02 4.22060E+01 0.00000E+00
 -1      2340 1.14900E+02 4.35050E+01 0.00000E+00
 -1      2341 1.16400E+02 4.35050E+01 0.00000E+00
 -1      2342 1.14150E+02 4.22060E+01 0.00000E+00
 -1      2343 1.17900E+02 4.35050E+01 0.00000E+00
 -1      2344 1.19400E+02 4.35050E+01 0.00000E+00
 -1      2345 1.17150E+02 4.22060E+01 0.00000E+00
 -1      2346 1.20900E+02 4.35050E+01 0.00000E+00
 -1      2347 1.22400E+02 4.35050E+01 0.00000E+00
 -1      2348 1.20150E+02 4.22060E+01 0.00000E+00
 -1      2349 1.23900E+02 4.35050E+01 0.00000E+00
 -1      2350 1.25400E+02 4.35050E+01 0.00000E+00
 -1      2351 1.23150E+02 4.22060E+01 0.00000E+00
 -1      2352 1.26900E+02 4.35050E+01 0.00000E+00
 -1      2353 1.28400E+02 4.35050E+01 0.00000E+00
 -1      2354 1.26150E+02 4.22060E+01 0.00000E+00
 -1      2355 1.29900E+02 4.35050E+01 0.00000E+00
 -1      2356 1.31400E+02 4.35050E+01 0.00000E+00
 -1      2357 1.29150E+02 4.22060E+01 0.00000E+00
 -1      2358 1.32900E+02 4.35050E+01 0.00000E+00
 -1      2359 1.34400E+02 4.35050E+01 0.00000E+00
 -1      2360 1.32150E+02 4.22060E+01 0.00000E+00
 -1      2361 1.35900E+02 4.35050E+01 0.00000E+00
 -1      2362 1.37400E+02 4.35050E+01 0.00000E+00
 -1      2363 1.35150E+02 4.22060E+01 0.00000E+00
 -1      2364 1.38900E+02 4.35050E+01 0.00000E+00
 -1      2365 1.40400E+02 4.35050E+01 0.00000E+00
 -1      2366 1.38150E+02 4.22060E+01 0.00000E+00
 -1      2367 1.99350E+01 5.19894E+00 0.00000E+00
 -1      2368 1.84350E+01 5.19894E+00 0.00000E+00
 -1      2369 2.90030E+01 4.80148E+00 0.00000E+00
 -1      2370 2.76530E+01 4.80148E+00 0.00000E+00
 -1      2371 3.67725E+01 5.19895E+00 0.00000E+00
 -1      2372 3.53475E+01 5.19895E+00 0.00000E+00
 -1      2373 3.97725E+01 5.19895E+00 0.00000E+00
 -1      2374 3.82725E+01 5.19895E+00 0.00000E+00
 -1      2375 3.75600E+01 6.39164E+00 0.00000E+00
 -1      2376 4.27725E+01 5.19895E+00 0.00000E+00
 -1      2377 4.12725E+01 5.19895E+00 0.00000E+00
 -1      2378 4.05600E+01 6.39164E+00 0.00000E+00
 -1      2379 4.57725E+01 5.19895E+00 0.00000E+00
 -1      2380 4.42725E+01 5.19895E+00 0.00000E+00
 -1      2381 4.35600E+01 6.39164E+00 0.00000E+00
 -1      2382 4.89225E+01 5.19895E+00 0.00000E+00
 -1      2383 4.73475E+01 5.19895E+00 0.00000E+00
 -1      2384 4.66350E+01 6.39164E+00 0.00000E+00
 -1      2385 5.19225E+01 5.19895E+00 0.00000E+00
 -1      2386 5.04225E+01 5.19895E+00 0.00000E+00
 -1      2387 4.97100E+01 6.39164E+00 0.00000E+00
 -1      2388 5.49225E+01 5.19895E+00 0.00000E+00
 -1      2389 5.34225E+01 5.19895E+00 0.00000E+00
 -1      2390 5.27100E+01 6.39164E+00 0.00000E+00
 -1      2391 5.79225E+01 5.19895E+00 0.00000E+00
 -1      2392 5.64225E+01 5.19895E+00 0.00000E+00
 -1      2393 5.57100E+01 6.39164E+00 0.00000E+00
 -1      2394 6.09225E+01 5.19895E+00 0.00000E+00
 -1      2395 5.94225E+01 5.19895E+00 0.00000E+00
 -1      2396 5.87100E+01 6.39164E+00 0.00000E+00
 -1      2397 6.40725E+01 5.19895E+00 0.00000E+00
 -1      2398 6.24975E+01 5.19895E+00 0.00000E+00
 -1      2399 6.17850E+01 6.39164E+00 0.00000E+00
 -1      2400 6.70725E+01 5.19895E+00 0.00000E+00
 -1      2401 6.55725E+01 5.19895E+00 0.00000E+00
 -1      2402 6.48600E+01 6.39164E+00 0.00000E+00
 -1      2403 7.00725E+01 5.19895E+00 0.00000E+00
 -1      2404 6.85725E+01 5.19895E+00 0.00000E+00
 -1      2405 6.78600E+01 6.39164E+00 0.00000E+00
 -1      2406 7.30725E+01 5.19895E+00 0.00000E+00
 -1      2407 7.15725E+01 5.19895E+00 0.00000E+00
 -1      2408 7.08600E+01 6.39164E+00 0.00000E+00
 -1      2409 7.60725E+01 5.19895E+00 0.00000E+00
 -1      2410 7.45725E+01 5.19895E+00 0.00000E+00
 -1      2411 7.38600E+01 6.39164E+00 0.00000E+00
 -1      2412 7.90725E+01 5.19895E+00 0.00000E+00
 -1      2413 7.75725E+01 5.19895E+00 0.00000E+00
 -1      2414 7.68600E+01 6.39164E+00 0.00000E+00
 -1      2415 8.22225E+01 5.19895E+00 0.00000E+00
 -1      2416 8.06475E+01 5.19895E+00 0.00000E+00
 -1      2417 7.99350E+01 6.39164E+00 0.00000E+00
 -1      2418 8.52225E+01 5.19895E+00 0.00000E+00
 -1      2419 8.37225E+01 5.19895E+00 0.00000E+00
 -1      2420 8.30100E+01 6.39164E+00 0.00000E+00
 -1      2421 8.82225E+01 5.19895E+00 0.00000E+00
 -1      2422 8.67225E+01 5.19895E+00 0.00000E+00
 -1      2423 8.60100E+01 6.39164E+00 0.00000E+00
 -1      2424 9.12225E+01 5.19895E+00 0.00000E+00
 -1      2425 8.97225E+01 5.19895E+00 0.00000E+00
 -1      2426 8.90100E+01 6.39164E+00 0.00000E+00
 -1      2427 9.42225E+01 5.19895E+00 0.00000E+00
 -1      2428 9.27225E+01 5.19895E+00 0.00000E+00
 -1      2429 9.20100E+01 6.39164E+00 0.00000E+00
 -1      2430 9.72225E+01 5.19895E+00 0.00000E+00
 -1      2431 9.57225E+01 5.19895E+00 0.00000E+00
 -1      2432 9.50100E+01 6.39164E+00 0.00000E+00
 -1      2433 1.00372E+02 5.19895E+00 0.00000E+00
 -1      2434 9.87975E+01 5.19895E+00 0.00000E+00
 -1      2435 9.80850E+01 6.39164E+00 0.00000E+00
 -1      2436 1.03372E+02 5.19895E+00 0.00000E+00
 -1      2437 1.01872E+02 5.19895E+00 0.00000E+00
 -1      2438 1.01160E+02 6.39164E+00 0.00000E+00
 -1      2439 1.06372E+02 5.19895E+00 0.00000E+00
 -1      2440 1.04872E+02 5.19895E+00 0.00000E+00
 -1      2441 1.04160E+02 6.39164E+00 0.00000E+00
 -1      2442 1.09372E+02 5.19895E+00 0.00000E+00
 -1      2443 1.07872E+02 5.19895E+00 0.00000E+00
 -1      2444 1.07160E+02 6.39164E+00 0.00000E+00
 -1      2445 1.12372E+02 5.19895E+00 0.00000E+00
 -1      2446 1.10872E+02 5.19895E+00 0.00000E+00
 -1      2447 1.10160E+02 6.39164E+00 0.00000E+00
 -1      2448 1.15522E+02 5.19895E+00 0.00000E+00
 -1      2449 1.13948E+02 5.19895E+00 0.00000E+00
 -1      2450 1.13235E+02 6.39164E+00 0.00000E+00
 -1      2451 1.18522E+02 5.19895E+00 0.00000E+00
 -1      2452 1.17022E+02 5.19895E+00 0.00000E+00
 -1      2453 1.16310E+02 6.39164E+00 0.00000E+00
 -1      2454 1.21522E+02 5.19895E+00 0.00000E+00
 -1      2455 1.20022E+02 5.19895E+00 0.00000E+00
 -1      2456 1.19310E+02 6.39164E+00 0.00000E+00
 -1      2457 1.24522E+02 5.19895E+00 0.00000E+00
 -1      2458 1.23022E+02 5.19895E+00 0.00000E+00
 -1      2459 1.22310E+02 6.39164E+00 0.00000E+00
 -1      2460 1.27522E+02 5.19895E+00 0.00000E+00
 -1      2461 1.26022E+02 5.19895E+00 0.00000E+00
 -1      2462 1.25310E+02 6.39164E+00 0.00000E+00
 -1      2463 1.30523E+02 5.19895E+00 0.00000E+00
 -1      2464 1.29023E+02 5.19895E+00 0.00000E+00
 -1      2465 1.28310E+02 6.39164E+00 0.00000E+00
 -1      2466 1.33673E+02 5.19895E+00 0.00000E+00
 -1      2467 1.32098E+02 5.19895E+00 0.00000E+00
 -1      2468 1.31385E+02 6.39164E+00 0.00000E+00
 -1      2469 1.36673E+02 5.19895E+00 0.00000E+00
 -1      2470 1.35173E+02 5.19895E+00 0.00000E+00
 -1      2471 1.34460E+02 6.39164E+00 0.00000E+00
 -1      2472 1.39673E+02 5.19895E+00 0.00000E+00
 -1      2473 1.38173E+02 5.19895E+00 0.00000E+00
 -1      2474 1.37460E+02 6.39164E+00 0.00000E+00
 -1      2475 1.42673E+02 5.19895E+00 0.00000E+00
 -1      2476 1.41173E+02 5.19895E+00 0.00000E+00
 -1      2477 1.40460E+02 6.39164E+00 0.00000E+00
 -1      2478 1.44242E+02 5.26953E+00 0.00000E+00
 -1      2479 1.43505E+02 1.69125E+01 0.00000E+00
 -1      2480 1.43505E+02 1.54375E+01 0.00000E+00
 -1      2481 1.43505E+02 1.98625E+01 0.00000E+00
 -1      2482 1.43505E+02 1.83875E+01 0.00000E+00
 -1      2483 1.42206E+02 1.76500E+01 0.00000E+00
 -1      2484 1.43505E+02 1.10625E+01 0.00000E+00
 -1      2485 1.43505E+02 9.58750E+00 0.00000E+00
 -1      2486 1.43505E+02 1.39750E+01 0.00000E+00
 -1      2487 1.43505E+02 1.25250E+01 0.00000E+00
 -1      2488 1.42206E+02 1.17875E+01 0.00000E+00
 -1      2489 1.42206E+02 1.47125E+01 0.00000E+00
 -1      2490 1.43505E+02 2.28125E+01 0.00000E+00
 -1      2491 1.43505E+02 2.13375E+01 0.00000E+00
 -1      2492 1.42206E+02 2.06000E+01 0.00000E+00
 -1      2493 1.43505E+02 2.57625E+01 0.00000E+00
 -1      2494 1.43505E+02 2.42875E+01 0.00000E+00
 -1      2495 1.42206E+02 2.35500E+01 0.00000E+00
 -1      2496 1.43505E+02 2.87125E+01 0.00000E+00
 -1      2497 1.43505E+02 2.72375E+01 0.00000E+00
 -1      2498 1.42206E+02 2.65000E+01 0.00000E+00
 -1      2499 1.43505E+02 3.16125E+01 0.00000E+00
 -1      2500 1.43505E+02 3.01625E+01 0.00000E+00
 -1      2501 1.42206E+02 2.94250E+01 0.00000E+00
 -1      2502 1.43505E+02 3.45625E+01 0.00000E+00
 -1      2503 1.43505E+02 3.30875E+01 0.00000E+00
 -1      2504 1.42206E+02 3.23500E+01 0.00000E+00
 -1      2505 1.43505E+02 3.75125E+01 0.00000E+00
 -1      2506 1.43505E+02 3.60375E+01 0.00000E+00
 -1      2507 1.42206E+02 3.53000E+01 0.00000E+00
 -1      2508 1.43505E+02 4.04625E+01 0.00000E+00
 -1      2509 1.43505E+02 3.89875E+01 0.00000E+00
 -1      2510 1.42206E+02 3.82500E+01 0.00000E+00
 -1      2511 3.89105E+01 1.35688E+01 0.00000E+00
 -1      2512 3.88794E+01 1.47900E+01 0.00000E+00
 -1      2513 3.75784E+01 1.09971E+01 0.00000E+00
 -1      2514 3.82560E+01 1.20189E+01 0.00000E+00
 -1      2515 3.82008E+01 1.81633E+01 0.00000E+00
 -1      2516 3.77200E+01 1.92745E+01 0.00000E+00
 -1      2517 1.68975E+01 5.25210E+00 0.00000E+00
 -1      2518 1.53225E+01 5.25210E+00 0.00000E+00
 -1      2519 1.45725E+01 6.55110E+00 0.00000E+00
 -1      2520 1.76475E+01 6.44479E+00 0.00000E+00
 -1      2521 3.33162E+01 6.46057E+00 0.00000E+00
 -1      2522 3.40299E+01 6.99641E+00 0.00000E+00
 -1      2523 3.30585E+01 5.55378E+00 0.00000E+00
 -1      2524 1.44321E+02 4.30606E+01 0.00000E+00
 -1      2525 3.65562E+01 9.41412E+00 0.00000E+00
 -1      2526 3.70308E+01 1.01070E+01 0.00000E+00
 -1      2527 3.52197E+01 7.79586E+00 0.00000E+00
 -1      2528 3.59161E+01 8.59669E+00 0.00000E+00
 -1      2529 3.85972E+01 1.59825E+01 0.00000E+00
 -1      2530 3.84244E+01 1.69111E+01 0.00000E+00
 -1      2531 2.75208E+01 2.57398E+01 0.00000E+00
 -1      2532 2.63996E+01 2.56235E+01 0.00000E+00
 -1      2533 1.85277E+01 1.11756E+01 0.00000E+00
 -1      2534 1.88893E+01 1.02187E+01 0.00000E+00
 -1      2535 1.99290E+01 7.47839E+00 0.00000E+00
 -1      2536 2.07849E+01 6.55735E+00 0.00000E+00
 -1      2537 2.98804E+01 4.95061E+00 0.00000E+00
 -1      2538 6.49500E+00 2.71625E+01 0.00000E+00
 -1      2539 6.49500E+00 2.86375E+01 0.00000E+00
 -1      2540 7.79400E+00 2.93750E+01 0.00000E+00
 -1      2541 7.79400E+00 2.64250E+01 0.00000E+00
 -1      2542 1.78759E+01 1.31950E+01 0.00000E+00
 -1      2543 1.82018E+01 1.21853E+01 0.00000E+00
 -1      2544 1.76588E+01 1.14333E+01 0.00000E+00
 -1      2545 1.91894E+01 9.21075E+00 0.00000E+00
 -1      2546 1.96289E+01 8.48639E+00 0.00000E+00
 -1      2547 1.88849E+01 7.39963E+00 0.00000E+00
 -1      2548 1.82848E+01 9.41562E+00 0.00000E+00
 -1      2549 1.86381E+01 1.95952E+01 0.00000E+00
 -1      2550 1.83396E+01 1.87195E+01 0.00000E+00
 -1      2551 1.76708E+01 1.52680E+01 0.00000E+00
 -1      2552 1.76817E+01 1.43813E+01 0.00000E+00
 -1      2553 3.40310E+01 2.36807E+01 0.00000E+00
 -1      2554 3.31045E+01 2.41182E+01 0.00000E+00
 -1      2555 1.79550E+01 1.76441E+01 0.00000E+00
 -1      2556 1.76923E+01 1.64883E+01 0.00000E+00
 -1      2557 1.99050E+01 2.15420E+01 0.00000E+00
 -1      2558 1.92273E+01 2.07139E+01 0.00000E+00
 -1      2559 2.14068E+01 2.30569E+01 0.00000E+00
 -1      2560 2.06730E+01 2.24064E+01 0.00000E+00
 -1      2561 2.32712E+01 2.41933E+01 0.00000E+00
 -1      2562 2.23884E+01 2.36681E+01 0.00000E+00
 -1      2563 2.51229E+01 2.51723E+01 0.00000E+00
 -1      2564 2.42134E+01 2.47115E+01 0.00000E+00
 -1      2565 2.96813E+01 2.55541E+01 0.00000E+00
 -1      2566 2.87501E+01 2.56864E+01 0.00000E+00
 -1      2567 3.58724E+01 2.21764E+01 0.00000E+00
 -1      2568 3.51532E+01 2.29549E+01 0.00000E+00
 -1      2569 3.71768E+01 2.03655E+01 0.00000E+00
 -1      2570 3.66699E+01 2.12400E+01 0.00000E+00
 -1      2571 6.55950E+00 4.28890E+01 0.00000E+00
 -1      2572 8.53650E+00 4.32410E+01 0.00000E+00
 -1      2573 9.28650E+00 4.19420E+01 0.00000E+00
 -1      2574 6.55950E+00 4.14140E+01 0.00000E+00
 -1      2575 8.07525E+00 5.11044E+00 0.00000E+00
 -1      2576 6.57525E+00 5.11044E+00 0.00000E+00
 -1      2577 6.40575E+00 6.01981E+00 0.00000E+00
 -1      2578 8.82525E+00 6.40944E+00 0.00000E+00
 -1      2579 7.79400E+00 3.52687E+01 0.00000E+00
 -1      2580 6.49500E+00 3.60062E+01 0.00000E+00
 -1      2581 6.49500E+00 3.74750E+01 0.00000E+00
 -1      2582 6.40575E+00 7.49481E+00 0.00000E+00
 -1      2583 6.55950E+00 3.99453E+01 0.00000E+00
 -1      2584 3.82811E+01 2.01837E+01 0.00000E+00
 -1      2585 7.70475E+00 8.23231E+00 0.00000E+00
 -1      2586 1.42758E+02 4.35929E+01 0.00000E+00
 -1      2587 1.43241E+02 4.17323E+01 0.00000E+00
 -1      2588 1.41942E+02 4.09948E+01 0.00000E+00
 -1      2589 1.41414E+02 4.35342E+01 0.00000E+00
 -1      2590 1.40664E+02 4.22352E+01 0.00000E+00
 -1      2591 3.69403E+01 2.22112E+01 0.00000E+00
 -1      2592 3.04165E+01 2.58699E+01 0.00000E+00
 -1      2593 3.79795E+01 1.02134E+01 0.00000E+00
 -1      2594 2.15349E+01 5.36466E+00 0.00000E+00
 -1      2595 2.55951E+01 2.60834E+01 0.00000E+00
 -1      2596 2.30349E+01 5.36466E+00 0.00000E+00
 -1      2597 2.54986E+01 5.00089E+00 0.00000E+00
 -1      2598 2.41486E+01 5.00089E+00 0.00000E+00
 -1      2599 3.49161E+01 6.24063E+00 0.00000E+00
 -1      2600 3.42036E+01 5.04793E+00 0.00000E+00
 -1      2601 3.13054E+01 4.95061E+00 0.00000E+00
 -1      2602 1.43529E+02 6.46223E+00 0.00000E+00
 -1      2603 3.21399E+01 4.51209E+00 0.00000E+00
 -1      2604 1.43382E+02 7.62082E+00 0.00000E+00
 -1      2605 2.33763E+01 2.51139E+01 0.00000E+00
 -1      2606 3.95537E+01 1.53958E+01 0.00000E+00
 -1      2607 3.91816E+01 1.26534E+01 0.00000E+00
 -1      2608 4.01071E+01 1.32879E+01 0.00000E+00
 -1      2609 3.94527E+01 1.17380E+01 0.00000E+00
 -1      2610 2.14526E+01 2.39845E+01 0.00000E+00
 -1      2611 3.51738E+01 7.14742E+00 0.00000E+00
 -1      2612 3.61059E+01 7.04008E+00 0.00000E+00
 -1      2613 3.67918E+01 8.50593E+00 0.00000E+00
 -1      2614 3.90479E+01 1.78405E+01 0.00000E+00
 -1      2615 1.97030E+01 2.25089E+01 0.00000E+00
 -1      2616 1.73720E+01 1.83317E+01 0.00000E+00
 -1      2617 3.27004E+01 2.49555E+01 0.00000E+00
 -1      2618 1.83457E+01 2.05258E+01 0.00000E+00
 -1      2619 2.81011E+01 2.64812E+01 0.00000E+00
 -1      2620 3.50205E+01 2.38734E+01 0.00000E+00
 -1      2621 1.42083E+02 8.35832E+00 0.00000E+00
 -1      2622 1.69659E+01 1.60360E+01 0.00000E+00
 -1      2623 1.71387E+01 1.36294E+01 0.00000E+00
 -1      2624 1.67196E+01 1.16877E+01 0.00000E+00
 -1      2625 1.70455E+01 1.06779E+01 0.00000E+00
 -1      2626 9.09300E+00 1.98250E+01 0.00000E+00
 -1      2627 9.09300E+00 2.12750E+01 0.00000E+00
 -1      2628 9.09300E+00 2.27500E+01 0.00000E+00
 -1      2629 9.09300E+00 2.42250E+01 0.00000E+00
 -1      2630 1.03920E+01 2.20250E+01 0.00000E+00
 -1      2631 8.98670E+00 1.39375E+01 0.00000E+00
 -1      2632 8.98670E+00 1.54125E+01 0.00000E+00
 -1      2633 8.98670E+00 1.09875E+01 0.00000E+00
 -1      2634 8.98670E+00 1.24625E+01 0.00000E+00
 -1      2635 1.01794E+01 1.32000E+01 0.00000E+00
 -1      2636 1.22850E+01 7.90325E+00 0.00000E+00
 -1      2637 1.07850E+01 7.90325E+00 0.00000E+00
 -1      2638 1.40928E+02 4.09655E+01 0.00000E+00
 -1      2639 1.41192E+02 3.96958E+01 0.00000E+00
 -1      2640 1.39914E+02 4.09362E+01 0.00000E+00
 -1      2641 3.80557E+01 2.23533E+01 0.00000E+00
 -1      2642 3.72581E+01 2.32897E+01 0.00000E+00
 -1      2643 8.91450E+00 8.42712E+00 0.00000E+00
 -1      2644 1.44000E+01 4.09070E+01 0.00000E+00
 -1      2645 1.59000E+01 4.09070E+01 0.00000E+00
 -1      2646 1.74000E+01 4.09070E+01 0.00000E+00
 -1      2647 1.89000E+01 4.09070E+01 0.00000E+00
 -1      2648 1.66500E+01 3.96080E+01 0.00000E+00
 -1      2649 2.04000E+01 4.09070E+01 0.00000E+00
 -1      2650 2.19000E+01 4.09070E+01 0.00000E+00
 -1      2651 1.96500E+01 3.96080E+01 0.00000E+00
 -1      2652 2.34000E+01 4.09070E+01 0.00000E+00
 -1      2653 2.49000E+01 4.09070E+01 0.00000E+00
 -1      2654 2.26500E+01 3.96080E+01 0.00000E+00
 -1      2655 2.64000E+01 4.09070E+01 0.00000E+00
 -1      2656 2.79000E+01 4.09070E+01 0.00000E+00
 -1      2657 2.56500E+01 3.96080E+01 0.00000E+00
 -1      2658 2.94000E+01 4.09070E+01 0.00000E+00
 -1      2659 3.09000E+01 4.09070E+01 0.00000E+00
 -1      2660 2.86500E+01 3.96080E+01 0.00000E+00
 -1      2661 3.24000E+01 4.09070E+01 0.00000E+00
 -1      2662 3.39000E+01 4.09070E+01 0.00000E+00
 -1      2663 3.16500E+01 3.96080E+01 0.00000E+00
 -1      2664 3.54000E+01 4.09070E+01 0.00000E+00
 -1      2665 3.69000E+01 4.09070E+01 0.00000E+00
 -1      2666 3.46500E+01 3.96080E+01 0.00000E+00
 -1      2667 3.84000E+01 4.09070E+01 0.00000E+00
 -1      2668 3.99000E+01 4.09070E+01 0.00000E+00
 -1      2669 3.76500E+01 3.96080E+01 0.00000E+00
 -1      2670 4.14000E+01 4.09070E+01 0.00000E+00
 -1      2671 4.29000E+01 4.09070E+01 0.00000E+00
 -1      2672 4.06500E+01 3.96080E+01 0.00000E+00
 -1      2673 4.44000E+01 4.09070E+01 0.00000E+00
 -1      2674 4.59000E+01 4.09070E+01 0.00000E+00
 -1      2675 4.36500E+01 3.96080E+01 0.00000E+00
 -1      2676 4.74000E+01 4.09070E+01 0.00000E+00
 -1      2677 4.89000E+01 4.09070E+01 0.00000E+00
 -1      2678 4.66500E+01 3.96080E+01 0.00000E+00
 -1      2679 5.04000E+01 4.09070E+01 0.00000E+00
 -1      2680 5.19000E+01 4.09070E+01 0.00000E+00
 -1      2681 4.96500E+01 3.96080E+01 0.00000E+00
 -1      2682 5.34000E+01 4.09070E+01 0.00000E+00
 -1      2683 5.49000E+01 4.09070E+01 0.00000E+00
 -1      2684 5.26500E+01 3.96080E+01 0.00000E+00
 -1      2685 5.64000E+01 4.09070E+01 0.00000E+00
 -1      2686 5.79000E+01 4.09070E+01 0.00000E+00
 -1      2687 5.56500E+01 3.96080E+01 0.00000E+00
 -1      2688 5.94000E+01 4.09070E+01 0.00000E+00
 -1      2689 6.09000E+01 4.09070E+01 0.00000E+00
 -1      2690 5.86500E+01 3.96080E+01 0.00000E+00
 -1      2691 6.24000E+01 4.09070E+01 0.00000E+00
 -1      2692 6.39000E+01 4.09070E+01 0.00000E+00
 -1      2693 6.16500E+01 3.96080E+01 0.00000E+00
 -1      2694 6.54000E+01 4.09070E+01 0.00000E+00
 -1      2695 6.69000E+01 4.09070E+01 0.00000E+00
 -1      2696 6.46500E+01 3.96080E+01 0.00000E+00
 -1      2697 6.84000E+01 4.09070E+01 0.00000E+00
 -1      2698 6.99000E+01 4.09070E+01 0.00000E+00
 -1      2699 6.76500E+01 3.96080E+01 0.00000E+00
 -1      2700 7.14000E+01 4.09070E+01 0.00000E+00
 -1      2701 7.29000E+01 4.09070E+01 0.00000E+00
 -1      2702 7.06500E+01 3.96080E+01 0.00000E+00
 -1      2703 7.44000E+01 4.09070E+01 0.00000E+00
 -1      2704 7.59000E+01 4.09070E+01 0.00000E+00
 -1      2705 7.36500E+01 3.96080E+01 0.00000E+00
 -1      2706 7.74000E+01 4.09070E+01 0.00000E+00
 -1      2707 7.89000E+01 4.09070E+01 0.00000E+00
 -1      2708 7.66500E+01 3.96080E+01 0.00000E+00
 -1      2709 8.04000E+01 4.09070E+01 0.00000E+00
 -1      2710 8.19000E+01 4.09070E+01 0.00000E+00
 -1      2711 7.96500E+01 3.96080E+01 0.00000E+00
 -1      2712 8.34000E+01 4.09070E+01 0.00000E+00
 -1      2713 8.49000E+01 4.09070E+01 0.00000E+00
 -1      2714 8.26500E+01 3.96080E+01 0.00000E+00
 -1      2715 8.64000E+01 4.09070E+01 0.00000E+00
 -1      2716 8.79000E+01 4.09070E+01 0.00000E+00
 -1      2717 8.56500E+01 3.96080E+01 0.00000E+00
 -1      2718 8.94000E+01 4.09070E+01 0.00000E+00
 -1      2719 9.09000E+01 4.09070E+01 0.00000E+00
 -1      2720 8.86500E+01 3.96080E+01 0.00000E+00
 -1      2721 9.24000E+01 4.09070E+01 0.00000E+00
 -1      2722 9.39000E+01 4.09070E+01 0.00000E+00
 -1      2723 9.16500E+01 3.96080E+01 0.00000E+00
 -1      2724 9.54000E+01 4.09070E+01 0.00000E+00
 -1      2725 9.69000E+01 4.09070E+01 0.00000E+00
 -1      2726 9.46500E+01 3.96080E+01 0.00000E+00
 -1      2727 9.84000E+01 4.09070E+01 0.00000E+00
 -1      2728 9.99000E+01 4.09070E+01 0.00000E+00
 -1      2729 9.76500E+01 3.96080E+01 0.00000E+00
 -1      2730 1.01400E+02 4.09070E+01 0.00000E+00
 -1      2731 1.02900E+02 4.09070E+01 0.00000E+00
 -1      2732 1.00650E+02 3.96080E+01 0.00000E+00
 -1      2733 1.04400E+02 4.09070E+01 0.00000E+00
 -1      2734 1.05900E+02 4.09070E+01 0.00000E+00
 -1      2735 1.03650E+02 3.96080E+01 0.00000E+00
 -1      2736 1.07400E+02 4.09070E+01 0.00000E+00
 -1      2737 1.08900E+02 4.09070E+01 0.00000E+00
 -1      2738 1.06650E+02 3.96080E+01 0.00000E+00
 -1      2739 1.10400E+02 4.09070E+01 0.00000E+00
 -1      2740 1.11900E+02 4.09070E+01 0.00000E+00
 -1      2741 1.09650E+02 3.96080E+01 0.00000E+00
 -1      2742 1.13400E+02 4.09070E+01 0.00000E+00
 -1      2743 1.14900E+02 4.09070E+01 0.00000E+00
 -1      2744 1.12650E+02 3.96080E+01 0.00000E+00
 -1      2745 1.16400E+02 4.09070E+01 0.00000E+00
 -1      2746 1.17900E+02 4.09070E+01 0.00000E+00
 -1      2747 1.15650E+02 3.96080E+01 0.00000E+00
 -1      2748 1.19400E+02 4.09070E+01 0.00000E+00
 -1      2749 1.20900E+02 4.09070E+01 0.00000E+00
 -1      2750 1.18650E+02 3.96080E+01 0.00000E+00
 -1      2751 1.22400E+02 4.09070E+01 0.00000E+00
 -1      2752 1.23900E+02 4.09070E+01 0.00000E+00
 -1      2753 1.21650E+02 3.96080E+01 0.00000E+00
 -1      2754 1.25400E+02 4.09070E+01 0.00000E+00
 -1      2755 1.26900E+02 4.09070E+01 0.00000E+00
 -1      2756 1.24650E+02 3.96080E+01 0.00000E+00
 -1      2757 1.28400E+02 4.09070E+01 0.00000E+00
 -1      2758 1.29900E+02 4.09070E+01 0.00000E+00
 -1      2759 1.27650E+02 3.96080E+01 0.00000E+00
 -1      2760 1.31400E+02 4.09070E+01 0.00000E+00
 -1      2761 1.32900E+02 4.09070E+01 0.00000E+00
 -1      2762 1.30650E+02 3.96080E+01 0.00000E+00
 -1      2763 1.34400E+02 4.09070E+01 0.00000E+00
 -1      2764 1.35900E+02 4.09070E+01 0.00000E+00
 -1      2765 1.33650E+02 3.96080E+01 0.00000E+00
 -1      2766 1.37157E+02 4.09216E+01 0.00000E+00
 -1      2767 1.38657E+02 4.09216E+01 0.00000E+00
 -1      2768 1.38921E+02 3.96519E+01 0.00000E+00
 -1      2769 1.36407E+02 3.96226E+01 0.00000E+00
 -1      2770 2.65631E+01 4.68654E+00 0.00000E+00
 -1      2771 3.34899E+01 4.51209E+00 0.00000E+00
 -1      2772 4.74225E+01 7.69064E+00 0.00000E+00
 -1      2773 4.58475E+01 7.69064E+00 0.00000E+00
 -1      2774 5.04225E+01 7.69064E+00 0.00000E+00
 -1      2775 4.89225E+01 7.69064E+00 0.00000E+00
 -1      2776 4.81350E+01 8.98964E+00 0.00000E+00
 -1      2777 5.34225E+01 7.69064E+00 0.00000E+00
 -1      2778 5.19225E+01 7.69064E+00 0.00000E+00
 -1      2779 5.11350E+01 8.98964E+00 0.00000E+00
 -1      2780 5.64225E+01 7.69064E+00 0.00000E+00
 -1      2781 5.49225E+01 7.69064E+00 0.00000E+00
 -1      2782 5.41350E+01 8.98964E+00 0.00000E+00
 -1      2783 5.94225E+01 7.69064E+00 0.00000E+00
 -1      2784 5.79225E+01 7.69064E+00 0.00000E+00
 -1      2785 5.71350E+01 8.98964E+00 0.00000E+00
 -1      2786 6.25725E+01 7.69064E+00 0.00000E+00
 -1      2787 6.09975E+01 7.69064E+00 0.00000E+00
 -1      2788 6.02100E+01 8.98964E+00 0.00000E+00
 -1      2789 6.55725E+01 7.69064E+00 0.00000E+00
 -1      2790 6.40725E+01 7.69064E+00 0.00000E+00
 -1      2791 6.32850E+01 8.98964E+00 0.00000E+00
 -1      2792 6.85725E+01 7.69064E+00 0.00000E+00
 -1      2793 6.70725E+01 7.69064E+00 0.00000E+00
 -1      2794 6.62850E+01 8.98964E+00 0.00000E+00
 -1      2795 7.15725E+01 7.69064E+00 0.00000E+00
 -1      2796 7.00725E+01 7.69064E+00 0.00000E+00
 -1      2797 6.92850E+01 8.98964E+00 0.00000E+00
 -1      2798 7.45725E+01 7.69064E+00 0.00000E+00
 -1      2799 7.30725E+01 7.69064E+00 0.00000E+00
 -1      2800 7.22850E+01 8.98964E+00 0.00000E+00
 -1      2801 7.75725E+01 7.69064E+00 0.00000E+00
 -1      2802 7.60725E+01 7.69064E+00 0.00000E+00
 -1      2803 7.52850E+01 8.98964E+00 0.00000E+00
 -1      2804 8.07225E+01 7.69064E+00 0.00000E+00
 -1      2805 7.91475E+01 7.69064E+00 0.00000E+00
 -1      2806 7.83600E+01 8.98964E+00 0.00000E+00
 -1      2807 8.37225E+01 7.69064E+00 0.00000E+00
 -1      2808 8.22225E+01 7.69064E+00 0.00000E+00
 -1      2809 8.14350E+01 8.98964E+00 0.00000E+00
 -1      2810 8.67225E+01 7.69064E+00 0.00000E+00
 -1      2811 8.52225E+01 7.69064E+00 0.00000E+00
 -1      2812 8.44350E+01 8.98964E+00 0.00000E+00
 -1      2813 8.97225E+01 7.69064E+00 0.00000E+00
 -1      2814 8.82225E+01 7.69064E+00 0.00000E+00
 -1      2815 8.74350E+01 8.98964E+00 0.00000E+00
 -1      2816 9.27225E+01 7.69064E+00 0.00000E+00
 -1      2817 9.12225E+01 7.69064E+00 0.00000E+00
 -1      2818 9.04350E+01 8.98964E+00 0.00000E+00
 -1      2819 9.57225E+01 7.69064E+00 0.00000E+00
 -1      2820 9.42225E+01 7.69064E+00 0.00000E+00
 -1      2821 9.34350E+01 8.98964E+00 0.00000E+00
 -1      2822 9.88725E+01 7.69064E+00 0.00000E+00
 -1      2823 9.72975E+01 7.69064E+00 0.00000E+00
 -1      2824 9.65100E+01 8.98964E+00 0.00000E+00
 -1      2825 1.01872E+02 7.69064E+00 0.00000E+00
 -1      2826 1.00372E+02 7.69064E+00 0.00000E+00
 -1      2827 9.95850E+01 8.98964E+00 0.00000E+00
 -1      2828 1.04872E+02 7.69064E+00 0.00000E+00
 -1      2829 1.03372E+02 7.69064E+00 0.00000E+00
 -1      2830 1.02585E+02 8.98964E+00 0.00000E+00
 -1      2831 1.07872E+02 7.69064E+00 0.00000E+00
 -1      2832 1.06372E+02 7.69064E+00 0.00000E+00
 -1      2833 1.05585E+02 8.98964E+00 0.00000E+00
 -1      2834 1.10872E+02 7.69064E+00 0.00000E+00
 -1      2835 1.09372E+02 7.69064E+00 0.00000E+00
 -1      2836 1.08585E+02 8.98964E+00 0.00000E+00
 -1      2837 1.14022E+02 7.69064E+00 0.00000E+00
 -1      2838 1.12448E+02 7.69064E+00 0.00000E+00
 -1      2839 1.11660E+02 8.98964E+00 0.00000E+00
 -1      2840 1.17022E+02 7.69064E+00 0.00000E+00
 -1      2841 1.15522E+02 7.69064E+00 0.00000E+00
 -1      2842 1.14735E+02 8.98964E+00 0.00000E+00
 -1      2843 1.20022E+02 7.69064E+00 0.00000E+00
 -1      2844 1.18522E+02 7.69064E+00 0.00000E+00
 -1      2845 1.17735E+02 8.98964E+00 0.00000E+00
 -1      2846 1.23022E+02 7.69064E+00 0.00000E+00
 -1      2847 1.21522E+02 7.69064E+00 0.00000E+00
 -1      2848 1.20735E+02 8.98964E+00 0.00000E+00
 -1      2849 1.26022E+02 7.69064E+00 0.00000E+00
 -1      2850 1.24522E+02 7.69064E+00 0.00000E+00
 -1      2851 1.23735E+02 8.98964E+00 0.00000E+00
 -1      2852 1.29023E+02 7.69064E+00 0.00000E+00
 -1      2853 1.27522E+02 7.69064E+00 0.00000E+00
 -1      2854 1.26735E+02 8.98964E+00 0.00000E+00
 -1      2855 1.32173E+02 7.69064E+00 0.00000E+00
 -1      2856 1.30598E+02 7.69064E+00 0.00000E+00
 -1      2857 1.29810E+02 8.98964E+00 0.00000E+00
 -1      2858 1.35173E+02 7.69064E+00 0.00000E+00
 -1      2859 1.33673E+02 7.69064E+00 0.00000E+00
 -1      2860 1.32885E+02 8.98964E+00 0.00000E+00
 -1      2861 1.38173E+02 7.69064E+00 0.00000E+00
 -1      2862 1.36673E+02 7.69064E+00 0.00000E+00
 -1      2863 1.35885E+02 8.98964E+00 0.00000E+00
 -1      2864 1.40878E+02 8.02448E+00 0.00000E+00
 -1      2865 1.39378E+02 8.02448E+00 0.00000E+00
 -1      2866 1.38590E+02 9.32348E+00 0.00000E+00
 -1      2867 1.41001E+02 9.99116E+00 0.00000E+00
 -1      2868 1.40907E+02 2.42875E+01 0.00000E+00
 -1      2869 1.40907E+02 2.28125E+01 0.00000E+00
 -1      2870 1.60355E+01 1.66628E+01 0.00000E+00
 -1      2871 1.60140E+01 1.54424E+01 0.00000E+00
 -1      2872 1.40907E+02 1.83875E+01 0.00000E+00
 -1      2873 1.40907E+02 1.69125E+01 0.00000E+00
 -1      2874 1.40907E+02 2.72375E+01 0.00000E+00
 -1      2875 1.40907E+02 2.57625E+01 0.00000E+00
 -1      2876 1.39608E+02 2.50250E+01 0.00000E+00
 -1      2877 1.40907E+02 2.13375E+01 0.00000E+00
 -1      2878 1.40907E+02 1.98625E+01 0.00000E+00
 -1      2879 1.39608E+02 1.91250E+01 0.00000E+00
 -1      2880 1.39608E+02 2.20750E+01 0.00000E+00
 -1      2881 1.40907E+02 3.01375E+01 0.00000E+00
 -1      2882 1.40907E+02 2.86875E+01 0.00000E+00
 -1      2883 1.39608E+02 2.79500E+01 0.00000E+00
 -1      2884 1.40907E+02 3.30875E+01 0.00000E+00
 -1      2885 1.40907E+02 3.16125E+01 0.00000E+00
 -1      2886 1.39608E+02 3.08750E+01 0.00000E+00
 -1      2887 1.40907E+02 3.60375E+01 0.00000E+00
 -1      2888 1.40907E+02 3.45625E+01 0.00000E+00
 -1      2889 1.39608E+02 3.38250E+01 0.00000E+00
 -1      2890 1.41192E+02 3.82207E+01 0.00000E+00
 -1      2891 2.15123E+01 2.49825E+01 0.00000E+00
 -1      2892 2.05307E+01 2.43713E+01 0.00000E+00
 -1      2893 4.00039E+01 1.73652E+01 0.00000E+00
 -1      2894 3.97804E+01 1.86173E+01 0.00000E+00
 -1      2895 3.35439E+01 2.55993E+01 0.00000E+00
 -1      2896 3.23461E+01 2.59557E+01 0.00000E+00
 -1      2897 1.94459E+01 2.35107E+01 0.00000E+00
 -1      2898 1.86779E+01 2.26463E+01 0.00000E+00
 -1      2899 4.43475E+01 7.69064E+00 0.00000E+00
 -1      2900 4.28475E+01 7.69064E+00 0.00000E+00
 -1      2901 4.51350E+01 8.98964E+00 0.00000E+00
 -1      2902 2.59756E+01 2.70385E+01 0.00000E+00
 -1      2903 2.46989E+01 2.65873E+01 0.00000E+00
 -1      2904 4.13100E+01 7.50055E+00 0.00000E+00
 -1      2905 3.98100E+01 7.50055E+00 0.00000E+00
 -1      2906 2.34543E+01 2.60877E+01 0.00000E+00
 -1      2907 2.25121E+01 2.55695E+01 0.00000E+00
 -1      2908 1.14000E+01 4.09070E+01 0.00000E+00
 -1      2909 1.29000E+01 4.09070E+01 0.00000E+00
 -1      2910 1.36500E+01 3.96080E+01 0.00000E+00
 -1      2911 7.85850E+00 3.92077E+01 0.00000E+00
 -1      2912 3.93204E+01 2.00205E+01 0.00000E+00
 -1      2913 3.87771E+01 2.11115E+01 0.00000E+00
 -1      2914 9.09300E+00 1.68750E+01 0.00000E+00
 -1      2915 9.09300E+00 1.83500E+01 0.00000E+00
 -1      2916 1.03920E+01 1.90750E+01 0.00000E+00
 -1      2917 9.09300E+00 3.15875E+01 0.00000E+00
 -1      2918 9.09300E+00 3.30625E+01 0.00000E+00
 -1      2919 1.77333E+01 2.15628E+01 0.00000E+00
 -1      2920 1.71441E+01 2.04441E+01 0.00000E+00
 -1      2921 1.62366E+01 1.40907E+01 0.00000E+00
 -1      2922 1.64309E+01 1.29044E+01 0.00000E+00
 -1      2923 2.87566E+01 2.73950E+01 0.00000E+00
 -1      2924 2.75273E+01 2.74484E+01 0.00000E+00
 -1      2925 1.65990E+01 1.92145E+01 0.00000E+00
 -1      2926 1.62144E+01 1.81392E+01 0.00000E+00
 -1      2927 4.05684E+01 1.49801E+01 0.00000E+00
 -1      2928 4.02862E+01 1.61726E+01 0.00000E+00
 -1      2929 4.10186E+01 1.69494E+01 0.00000E+00
 -1      2930 3.60928E+01 2.43009E+01 0.00000E+00
 -1      2931 3.49705E+01 2.50267E+01 0.00000E+00
 -1      2932 3.84361E+01 9.31899E+00 0.00000E+00
 -1      2933 3.89837E+01 1.02090E+01 0.00000E+00
 -1      2934 3.12600E+01 2.65136E+01 0.00000E+00
 -1      2935 3.01738E+01 2.70716E+01 0.00000E+00
 -1      2936 3.21034E+01 2.71574E+01 0.00000E+00
 -1      2937 9.66450E+00 9.72612E+00 0.00000E+00
 -1      2938 1.02857E+01 1.61375E+01 0.00000E+00
 -1      2939 1.03920E+01 2.49750E+01 0.00000E+00
 -1      2940 9.09300E+00 2.57000E+01 0.00000E+00
 -1      2941 9.09300E+00 2.71750E+01 0.00000E+00
 -1      2942 1.45707E+01 8.76826E+00 0.00000E+00
 -1      2943 1.38207E+01 1.00673E+01 0.00000E+00
 -1      2944 1.95056E+01 2.45087E+01 0.00000E+00
 -1      2945 3.90950E+01 2.21901E+01 0.00000E+00
 -1      2946 9.09300E+00 3.45313E+01 0.00000E+00
 -1      2947 9.09300E+00 3.60000E+01 0.00000E+00
 -1      2948 1.03920E+01 3.37938E+01 0.00000E+00
 -1      2949 9.15750E+00 3.77359E+01 0.00000E+00
 -1      2950 9.22200E+00 4.02061E+01 0.00000E+00
 -1      2951 1.05855E+01 4.04701E+01 0.00000E+00
 -1      2952 1.04565E+01 3.69984E+01 0.00000E+00
 -1      2953 1.74763E+01 2.25646E+01 0.00000E+00
 -1      2954 3.72082E+01 2.44431E+01 0.00000E+00
 -1      2955 1.58176E+01 1.21490E+01 0.00000E+00
 -1      2956 2.38348E+01 2.70429E+01 0.00000E+00
 -1      2957 3.83100E+01 7.33298E+00 0.00000E+00
 -1      2958 3.68100E+01 7.33298E+00 0.00000E+00
 -1      2959 1.41001E+02 1.14537E+01 0.00000E+00
 -1      2960 1.39796E+02 1.11198E+01 0.00000E+00
 -1      2961 1.41001E+02 1.29162E+01 0.00000E+00
 -1      2962 1.52625E+01 1.75456E+01 0.00000E+00
 -1      2963 1.53062E+01 1.47175E+01 0.00000E+00
 -1      2964 1.39893E+02 3.74832E+01 0.00000E+00
 -1      2965 2.15902E+01 2.59563E+01 0.00000E+00
 -1      2966 3.99092E+01 1.08436E+01 0.00000E+00
 -1      2967 4.08348E+01 1.14781E+01 0.00000E+00
 -1      2968 4.03658E+01 9.94914E+00 0.00000E+00
 -1      2969 4.02764E+01 1.95451E+01 0.00000E+00
 -1      2970 1.61082E+01 8.71511E+00 0.00000E+00
 -1      2971 4.11106E+01 1.31493E+01 0.00000E+00
 -1      2972 4.08395E+01 1.40647E+01 0.00000E+00
 -1      2973 4.15719E+01 1.48415E+01 0.00000E+00
 -1      2974 3.68559E+01 7.98142E+00 0.00000E+00
 -1      2975 3.74959E+01 8.79884E+00 0.00000E+00
 -1      2976 1.08572E+01 1.04636E+01 0.00000E+00
 -1      2977 1.59866E+01 2.02516E+01 0.00000E+00
 -1      2978 1.73474E+01 7.45278E+00 0.00000E+00
 -1      2979 2.96000E+01 2.80387E+01 0.00000E+00
 -1      2980 4.20975E+01 8.79955E+00 0.00000E+00
 -1      2981 1.40954E+02 1.56456E+01 0.00000E+00
 -1      2982 1.40954E+02 1.41831E+01 0.00000E+00
 -1      2983 1.39749E+02 1.38492E+01 0.00000E+00
 -1      2984 1.39655E+02 1.63831E+01 0.00000E+00
 -1      2985 2.66311E+01 2.79523E+01 0.00000E+00
 -1      2986 2.57349E+01 2.84562E+01 0.00000E+00
 -1      2987 2.72866E+01 2.88660E+01 0.00000E+00
 -1      2988 9.09300E+00 2.86437E+01 0.00000E+00
 -1      2989 9.09300E+00 3.01187E+01 0.00000E+00
 -1      2990 1.03920E+01 3.08563E+01 0.00000E+00
 -1      2991 1.03920E+01 2.79188E+01 0.00000E+00
 -1      2992 1.13355E+01 3.91711E+01 0.00000E+00
 -1      2993 1.13385E+01 1.53259E+01 0.00000E+00
 -1      2994 1.14448E+01 1.67884E+01 0.00000E+00
 -1      2995 1.13385E+01 1.23759E+01 0.00000E+00
 -1      2996 1.13385E+01 1.38509E+01 0.00000E+00
 -1      2997 1.24977E+01 1.45017E+01 0.00000E+00
 -1      2998 1.94629E+01 2.56765E+01 0.00000E+00
 -1      2999 1.83781E+01 2.48158E+01 0.00000E+00
 -1      3000 1.38309E+02 3.45625E+01 0.00000E+00
 -1      3001 1.38309E+02 3.30875E+01 0.00000E+00
 -1      3002 1.89000E+01 3.83090E+01 0.00000E+00
 -1      3003 2.04000E+01 3.83090E+01 0.00000E+00
 -1      3004 2.19000E+01 3.83090E+01 0.00000E+00
 -1      3005 2.34000E+01 3.83090E+01 0.00000E+00
 -1      3006 2.11500E+01 3.70100E+01 0.00000E+00
 -1      3007 2.49000E+01 3.83090E+01 0.00000E+00
 -1      3008 2.64000E+01 3.83090E+01 0.00000E+00
 -1      3009 2.41500E+01 3.70100E+01 0.00000E+00
 -1      3010 2.79000E+01 3.83090E+01 0.00000E+00
 -1      3011 2.94000E+01 3.83090E+01 0.00000E+00
 -1      3012 2.71500E+01 3.70100E+01 0.00000E+00
 -1      3013 3.09000E+01 3.83090E+01 0.00000E+00
 -1      3014 3.24000E+01 3.83090E+01 0.00000E+00
 -1      3015 3.01500E+01 3.70100E+01 0.00000E+00
 -1      3016 3.39000E+01 3.83090E+01 0.00000E+00
 -1      3017 3.54000E+01 3.83090E+01 0.00000E+00
 -1      3018 3.31500E+01 3.70100E+01 0.00000E+00
 -1      3019 3.69000E+01 3.83090E+01 0.00000E+00
 -1      3020 3.84000E+01 3.83090E+01 0.00000E+00
 -1      3021 3.61500E+01 3.70100E+01 0.00000E+00
 -1      3022 3.99000E+01 3.83090E+01 0.00000E+00
 -1      3023 4.14000E+01 3.83090E+01 0.00000E+00
 -1      3024 3.91500E+01 3.70100E+01 0.00000E+00
 -1      3025 4.29000E+01 3.83090E+01 0.00000E+00
 -1      3026 4.44000E+01 3.83090E+01 0.00000E+00
 -1      3027 4.21500E+01 3.70100E+01 0.00000E+00
 -1      3028 4.59000E+01 3.83090E+01 0.00000E+00
 -1      3029 4.74000E+01 3.83090E+01 0.00000E+00
 -1      3030 4.51500E+01 3.70100E+01 0.00000E+00
 -1      3031 4.89000E+01 3.83090E+01 0.00000E+00
 -1      3032 5.04000E+01 3.83090E+01 0.00000E+00
 -1      3033 4.81500E+01 3.70100E+01 0.00000E+00
 -1      3034 5.19000E+01 3.83090E+01 0.00000E+00
 -1      3035 5.34000E+01 3.83090E+01 0.00000E+00
 -1      3036 5.11500E+01 3.70100E+01 0.00000E+00
 -1      3037 5.49000E+01 3.83090E+01 0.00000E+00
 -1      3038 5.64000E+01 3.83090E+01 0.00000E+00
 -1      3039 5.41500E+01 3.70100E+01 0.00000E+00
 -1      3040 5.79000E+01 3.83090E+01 0.00000E+00
 -1      3041 5.94000E+01 3.83090E+01 0.00000E+00
 -1      3042 5.71500E+01 3.70100E+01 0.00000E+00
 -1      3043 6.09000E+01 3.83090E+01 0.00000E+00
 -1      3044 6.24000E+01 3.83090E+01 0.00000E+00
 -1      3045 6.01500E+01 3.70100E+01 0.00000E+00
 -1      3046 6.39000E+01 3.83090E+01 0.00000E+00
 -1      3047 6.54000E+01 3.83090E+01 0.00000E+00
 -1      3048 6.31500E+01 3.70100E+01 0.00000E+00
 -1      3049 6.69000E+01 3.83090E+01 0.00000E+00
 -1      3050 6.84000E+01 3.83090E+01 0.00000E+00
 -1      3051 6.61500E+01 3.70100E+01 0.00000E+00
 -1      3052 6.99000E+01 3.83090E+01 0.00000E+00
 -1      3053 7.14000E+01 3.83090E+01 0.00000E+00
 -1      3054 6.91500E+01 3.70100E+01 0.00000E+00
 -1      3055 7.29000E+01 3.83090E+01 0.00000E+00
 -1      3056 7.44000E+01 3.83090E+01 0.00000E+00
 -1      3057 7.21500E+01 3.70100E+01 0.00000E+00
 -1      3058 7.59000E+01 3.83090E+01 0.00000E+00
 -1      3059 7.74000E+01 3.83090E+01 0.00000E+00
 -1      3060 7.51500E+01 3.70100E+01 0.00000E+00
 -1      3061 7.89000E+01 3.83090E+01 0.00000E+00
 -1      3062 8.04000E+01 3.83090E+01 0.00000E+00
 -1      3063 7.81500E+01 3.70100E+01 0.00000E+00
 -1      3064 8.19000E+01 3.83090E+01 0.00000E+00
 -1      3065 8.34000E+01 3.83090E+01 0.00000E+00
 -1      3066 8.11500E+01 3.70100E+01 0.00000E+00
 -1      3067 8.49000E+01 3.83090E+01 0.00000E+00
 -1      3068 8.64000E+01 3.83090E+01 0.00000E+00
 -1      3069 8.41500E+01 3.70100E+01 0.00000E+00
 -1      3070 8.79000E+01 3.83090E+01 0.00000E+00
 -1      3071 8.94000E+01 3.83090E+01 0.00000E+00
 -1      3072 8.71500E+01 3.70100E+01 0.00000E+00
 -1      3073 9.09000E+01 3.83090E+01 0.00000E+00
 -1      3074 9.24000E+01 3.83090E+01 0.00000E+00
 -1      3075 9.01500E+01 3.70100E+01 0.00000E+00
 -1      3076 9.39000E+01 3.83090E+01 0.00000E+00
 -1      3077 9.54000E+01 3.83090E+01 0.00000E+00
 -1      3078 9.31500E+01 3.70100E+01 0.00000E+00
 -1      3079 9.69000E+01 3.83090E+01 0.00000E+00
 -1      3080 9.84000E+01 3.83090E+01 0.00000E+00
 -1      3081 9.61500E+01 3.70100E+01 0.00000E+00
 -1      3082 9.99000E+01 3.83090E+01 0.00000E+00
 -1      3083 1.01400E+02 3.83090E+01 0.00000E+00
 -1      3084 9.91500E+01 3.70100E+01 0.00000E+00
 -1      3085 1.02900E+02 3.83090E+01 0.00000E+00
 -1      3086 1.04400E+02 3.83090E+01 0.00000E+00
 -1      3087 1.02150E+02 3.70100E+01 0.00000E+00
 -1      3088 1.05900E+02 3.83090E+01 0.00000E+00
 -1      3089 1.07400E+02 3.83090E+01 0.00000E+00
 -1      3090 1.05150E+02 3.70100E+01 0.00000E+00
 -1      3091 1.08900E+02 3.83090E+01 0.00000E+00
 -1      3092 1.10400E+02 3.83090E+01 0.00000E+00
 -1      3093 1.08150E+02 3.70100E+01 0.00000E+00
 -1      3094 1.11900E+02 3.83090E+01 0.00000E+00
 -1      3095 1.13400E+02 3.83090E+01 0.00000E+00
 -1      3096 1.11150E+02 3.70100E+01 0.00000E+00
 -1      3097 1.14900E+02 3.83090E+01 0.00000E+00
 -1      3098 1.16400E+02 3.83090E+01 0.00000E+00
 -1      3099 1.14150E+02 3.70100E+01 0.00000E+00
 -1      3100 1.17900E+02 3.83090E+01 0.00000E+00
 -1      3101 1.19400E+02 3.83090E+01 0.00000E+00
 -1      3102 1.17150E+02 3.70100E+01 0.00000E+00
 -1      3103 1.20900E+02 3.83090E+01 0.00000E+00
 -1      3104 1.22400E+02 3.83090E+01 0.00000E+00
 -1      3105 1.20150E+02 3.70100E+01 0.00000E+00
 -1      3106 1.23900E+02 3.83090E+01 0.00000E+00
 -1      3107 1.25400E+02 3.83090E+01 0.00000E+00
 -1      3108 1.23150E+02 3.70100E+01 0.00000E+00
 -1      3109 1.26900E+02 3.83090E+01 0.00000E+00
 -1      3110 1.28400E+02 3.83090E+01 0.00000E+00
 -1      3111 1.26150E+02 3.70100E+01 0.00000E+00
 -1      3112 1.29900E+02 3.83090E+01 0.00000E+00
 -1      3113 1.31400E+02 3.83090E+01 0.00000E+00
 -1      3114 1.29150E+02 3.70100E+01 0.00000E+00
 -1      3115 1.32900E+02 3.83090E+01 0.00000E+00
 -1      3116 1.34400E+02 3.83090E+01 0.00000E+00
 -1      3117 1.32150E+02 3.70100E+01 0.00000E+00
 -1      3118 3.90600E+01 8.44189E+00 0.00000E+00
 -1      3119 4.58850E+01 1.00986E+01 0.00000E+00
 -1      3120 4.43850E+01 1.00986E+01 0.00000E+00
 -1      3121 1.38309E+02 3.16125E+01 0.00000E+00
 -1      3122 1.38309E+02 3.01375E+01 0.00000E+00
 -1      3123 1.37010E+02 3.23500E+01 0.00000E+00
 -1      3124 5.48850E+01 1.02886E+01 0.00000E+00
 -1      3125 5.33850E+01 1.02886E+01 0.00000E+00
 -1      3126 4.88850E+01 1.00986E+01 0.00000E+00
 -1      3127 4.73850E+01 1.00986E+01 0.00000E+00
 -1      3128 4.66350E+01 1.12075E+01 0.00000E+00
 -1      3129 5.78850E+01 1.02886E+01 0.00000E+00
 -1      3130 5.63850E+01 1.02886E+01 0.00000E+00
 -1      3131 5.56350E+01 1.15876E+01 0.00000E+00
 -1      3132 6.10350E+01 1.02886E+01 0.00000E+00
 -1      3133 5.94600E+01 1.02886E+01 0.00000E+00
 -1      3134 5.87100E+01 1.15876E+01 0.00000E+00
 -1      3135 6.40350E+01 1.02886E+01 0.00000E+00
 -1      3136 6.25350E+01 1.02886E+01 0.00000E+00
 -1      3137 6.17850E+01 1.15876E+01 0.00000E+00
 -1      3138 6.70350E+01 1.02886E+01 0.00000E+00
 -1      3139 6.55350E+01 1.02886E+01 0.00000E+00
 -1      3140 6.47850E+01 1.15876E+01 0.00000E+00
 -1      3141 7.00350E+01 1.02886E+01 0.00000E+00
 -1      3142 6.85350E+01 1.02886E+01 0.00000E+00
 -1      3143 6.77850E+01 1.15876E+01 0.00000E+00
 -1      3144 7.30350E+01 1.02886E+01 0.00000E+00
 -1      3145 7.15350E+01 1.02886E+01 0.00000E+00
 -1      3146 7.07850E+01 1.15876E+01 0.00000E+00
 -1      3147 7.60350E+01 1.02886E+01 0.00000E+00
 -1      3148 7.45350E+01 1.02886E+01 0.00000E+00
 -1      3149 7.37850E+01 1.15876E+01 0.00000E+00
 -1      3150 7.91850E+01 1.02886E+01 0.00000E+00
 -1      3151 7.76100E+01 1.02886E+01 0.00000E+00
 -1      3152 7.68600E+01 1.15876E+01 0.00000E+00
 -1      3153 8.21850E+01 1.02886E+01 0.00000E+00
 -1      3154 8.06850E+01 1.02886E+01 0.00000E+00
 -1      3155 7.99350E+01 1.15876E+01 0.00000E+00
 -1      3156 8.51850E+01 1.02886E+01 0.00000E+00
 -1      3157 8.36850E+01 1.02886E+01 0.00000E+00
 -1      3158 8.29350E+01 1.15876E+01 0.00000E+00
 -1      3159 8.81850E+01 1.02886E+01 0.00000E+00
 -1      3160 8.66850E+01 1.02886E+01 0.00000E+00
 -1      3161 8.59350E+01 1.15876E+01 0.00000E+00
 -1      3162 9.11850E+01 1.02886E+01 0.00000E+00
 -1      3163 8.96850E+01 1.02886E+01 0.00000E+00
 -1      3164 8.89350E+01 1.15876E+01 0.00000E+00
 -1      3165 9.41850E+01 1.02886E+01 0.00000E+00
 -1      3166 9.26850E+01 1.02886E+01 0.00000E+00
 -1      3167 9.19350E+01 1.15876E+01 0.00000E+00
 -1      3168 9.73350E+01 1.02886E+01 0.00000E+00
 -1      3169 9.57600E+01 1.02886E+01 0.00000E+00
 -1      3170 9.50100E+01 1.15876E+01 0.00000E+00
 -1      3171 1.00335E+02 1.02886E+01 0.00000E+00
 -1      3172 9.88350E+01 1.02886E+01 0.00000E+00
 -1      3173 9.80850E+01 1.15876E+01 0.00000E+00
 -1      3174 1.03335E+02 1.02886E+01 0.00000E+00
 -1      3175 1.01835E+02 1.02886E+01 0.00000E+00
 -1      3176 1.01085E+02 1.15876E+01 0.00000E+00
 -1      3177 1.06335E+02 1.02886E+01 0.00000E+00
 -1      3178 1.04835E+02 1.02886E+01 0.00000E+00
 -1      3179 1.04085E+02 1.15876E+01 0.00000E+00
 -1      3180 1.09335E+02 1.02886E+01 0.00000E+00
 -1      3181 1.07835E+02 1.02886E+01 0.00000E+00
 -1      3182 1.07085E+02 1.15876E+01 0.00000E+00
 -1      3183 1.12485E+02 1.02886E+01 0.00000E+00
 -1      3184 1.10910E+02 1.02886E+01 0.00000E+00
 -1      3185 1.10160E+02 1.15876E+01 0.00000E+00
 -1      3186 1.15485E+02 1.02886E+01 0.00000E+00
 -1      3187 1.13985E+02 1.02886E+01 0.00000E+00
 -1      3188 1.13235E+02 1.15876E+01 0.00000E+00
 -1      3189 1.18485E+02 1.02886E+01 0.00000E+00
 -1      3190 1.16985E+02 1.02886E+01 0.00000E+00
 -1      3191 1.16235E+02 1.15876E+01 0.00000E+00
 -1      3192 1.21485E+02 1.02886E+01 0.00000E+00
 -1      3193 1.19985E+02 1.02886E+01 0.00000E+00
 -1      3194 1.19235E+02 1.15876E+01 0.00000E+00
 -1      3195 1.24485E+02 1.02886E+01 0.00000E+00
 -1      3196 1.22985E+02 1.02886E+01 0.00000E+00
 -1      3197 1.22235E+02 1.15876E+01 0.00000E+00
 -1      3198 1.27485E+02 1.02886E+01 0.00000E+00
 -1      3199 1.25985E+02 1.02886E+01 0.00000E+00
 -1      3200 1.25235E+02 1.15876E+01 0.00000E+00
 -1      3201 1.30635E+02 1.02886E+01 0.00000E+00
 -1      3202 1.29060E+02 1.02886E+01 0.00000E+00
 -1      3203 1.28310E+02 1.15876E+01 0.00000E+00
 -1      3204 1.33635E+02 1.02886E+01 0.00000E+00
 -1      3205 1.32135E+02 1.02886E+01 0.00000E+00
 -1      3206 1.31385E+02 1.15876E+01 0.00000E+00
 -1      3207 1.36635E+02 1.02886E+01 0.00000E+00
 -1      3208 1.35135E+02 1.02886E+01 0.00000E+00
 -1      3209 1.34385E+02 1.15876E+01 0.00000E+00
 -1      3210 1.38818E+02 1.08712E+01 0.00000E+00
 -1      3211 1.37613E+02 1.05373E+01 0.00000E+00
 -1      3212 1.36863E+02 1.18363E+01 0.00000E+00
 -1      3213 1.38818E+02 1.23337E+01 0.00000E+00
 -1      3214 1.38309E+02 2.57625E+01 0.00000E+00
 -1      3215 1.38309E+02 2.42875E+01 0.00000E+00
 -1      3216 1.44174E+01 1.83970E+01 0.00000E+00
 -1      3217 1.42385E+01 1.69206E+01 0.00000E+00
 -1      3218 3.45294E+01 2.53856E+01 0.00000E+00
 -1      3219 3.41751E+01 2.63857E+01 0.00000E+00
 -1      3220 2.16560E+01 2.69893E+01 0.00000E+00
 -1      3221 2.06562E+01 2.64024E+01 0.00000E+00
 -1      3222 3.56017E+01 2.58131E+01 0.00000E+00
 -1      3223 4.03421E+01 2.20841E+01 0.00000E+00
 -1      3224 3.96207E+01 2.33259E+01 0.00000E+00
 -1      3225 1.20163E+01 1.11145E+01 0.00000E+00
 -1      3226 3.30766E+01 2.77157E+01 0.00000E+00
 -1      3227 3.19904E+01 2.82737E+01 0.00000E+00
 -1      3228 3.85001E+01 8.79448E+00 0.00000E+00
 -1      3229 3.86274E+01 2.49016E+01 0.00000E+00
 -1      3230 3.74621E+01 2.59128E+01 0.00000E+00
 -1      3231 3.05180E+01 2.87948E+01 0.00000E+00
 -1      3232 2.91008E+01 2.91182E+01 0.00000E+00
 -1      3233 1.29000E+01 3.83090E+01 0.00000E+00
 -1      3234 1.44000E+01 3.83090E+01 0.00000E+00
 -1      3235 1.12710E+01 3.74352E+01 0.00000E+00
 -1      3236 1.20855E+01 3.78721E+01 0.00000E+00
 -1      3237 1.12065E+01 3.56994E+01 0.00000E+00
 -1      3238 1.38758E+02 3.81988E+01 0.00000E+00
 -1      3239 1.38473E+02 3.60156E+01 0.00000E+00
 -1      3240 1.37173E+02 3.52781E+01 0.00000E+00
 -1      3241 1.37501E+02 3.81842E+01 0.00000E+00
 -1      3242 1.18927E+01 1.76861E+01 0.00000E+00
 -1      3243 1.18927E+01 1.91611E+01 0.00000E+00
 -1      3244 1.59000E+01 3.83090E+01 0.00000E+00
 -1      3245 1.74000E+01 3.83090E+01 0.00000E+00
 -1      3246 1.81500E+01 3.70100E+01 0.00000E+00
 -1      3247 5.18850E+01 1.02886E+01 0.00000E+00
 -1      3248 5.03850E+01 1.02886E+01 0.00000E+00
 -1      3249 5.26350E+01 1.15876E+01 0.00000E+00
 -1      3250 1.53220E+01 2.12819E+01 0.00000E+00
 -1      3251 1.47768E+01 2.00523E+01 0.00000E+00
 -1      3252 2.40440E+01 2.83218E+01 0.00000E+00
 -1      3253 2.27994E+01 2.78222E+01 0.00000E+00
 -1      3254 1.22521E+01 2.08163E+01 0.00000E+00
 -1      3255 1.22521E+01 2.22913E+01 0.00000E+00
 -1      3256 1.37906E+01 1.45480E+01 0.00000E+00
 -1      3257 1.40132E+01 1.31962E+01 0.00000E+00
 -1      3258 4.21573E+01 1.65892E+01 0.00000E+00
 -1      3259 4.18750E+01 1.77818E+01 0.00000E+00
 -1      3260 4.14151E+01 1.91849E+01 0.00000E+00
 -1      3261 4.09551E+01 2.05880E+01 0.00000E+00
 -1      3262 4.25537E+01 1.88247E+01 0.00000E+00
 -1      3263 1.38309E+02 2.86750E+01 0.00000E+00
 -1      3264 1.38309E+02 2.72250E+01 0.00000E+00
 -1      3265 1.37010E+02 2.64875E+01 0.00000E+00
 -1      3266 1.37010E+02 2.94125E+01 0.00000E+00
 -1      3267 1.72390E+01 2.37250E+01 0.00000E+00
 -1      3268 1.62944E+01 2.26415E+01 0.00000E+00
 -1      3269 3.50476E+01 2.72883E+01 0.00000E+00
 -1      3270 3.40621E+01 2.75020E+01 0.00000E+00
 -1      3271 3.39491E+01 2.86183E+01 0.00000E+00
 -1      3272 4.26995E+01 1.47585E+01 0.00000E+00
 -1      3273 4.24284E+01 1.56738E+01 0.00000E+00
 -1      3274 4.32848E+01 1.65062E+01 0.00000E+00
 -1      3275 1.95287E+01 2.67095E+01 0.00000E+00
 -1      3276 1.37529E+01 1.94273E+01 0.00000E+00
 -1      3277 1.12065E+01 3.27619E+01 0.00000E+00
 -1      3278 1.12065E+01 3.42306E+01 0.00000E+00
 -1      3279 1.20210E+01 3.46675E+01 0.00000E+00
 -1      3280 1.36243E+02 3.81696E+01 0.00000E+00
 -1      3281 2.82046E+01 2.96221E+01 0.00000E+00
 -1      3282 2.73085E+01 3.01260E+01 0.00000E+00
 -1      3283 2.91227E+01 3.03781E+01 0.00000E+00
 -1      3284 1.50847E+01 2.24422E+01 0.00000E+00
 -1      3285 1.37010E+02 2.35500E+01 0.00000E+00
 -1      3286 1.38309E+02 2.28125E+01 0.00000E+00
 -1      3287 1.38309E+02 2.13375E+01 0.00000E+00
 -1      3288 1.71963E+01 2.48927E+01 0.00000E+00
 -1      3289 1.38309E+02 1.98625E+01 0.00000E+00
 -1      3290 1.38309E+02 1.83875E+01 0.00000E+00
 -1      3291 1.37010E+02 2.06000E+01 0.00000E+00
 -1      3292 1.35493E+02 3.68706E+01 0.00000E+00
 -1      3293 2.46995E+01 2.92355E+01 0.00000E+00
 -1      3294 1.29456E+01 1.68744E+01 0.00000E+00
 -1      3295 1.37906E+01 1.60230E+01 0.00000E+00
 -1      3296 3.64692E+01 2.64289E+01 0.00000E+00
 -1      3297 3.60280E+01 2.67878E+01 0.00000E+00
 -1      3298 4.14808E+01 2.17239E+01 0.00000E+00
 -1      3299 1.28355E+01 3.65731E+01 0.00000E+00
 -1      3300 3.14913E+01 2.93531E+01 0.00000E+00
 -1      3301 4.15672E+01 1.22549E+01 0.00000E+00
 -1      3302 4.22996E+01 1.30317E+01 0.00000E+00
 -1      3303 4.20237E+01 1.13605E+01 0.00000E+00
 -1      3304 2.18653E+01 2.82682E+01 0.00000E+00
 -1      3305 3.98746E+01 2.47956E+01 0.00000E+00
 -1      3306 3.78884E+01 2.68875E+01 0.00000E+00
 -1      3307 4.96350E+01 1.13976E+01 0.00000E+00
 -1      3308 1.51500E+01 3.70100E+01 0.00000E+00
 -1      3309 1.38356E+02 1.71206E+01 0.00000E+00
 -1      3310 1.38403E+02 1.58537E+01 0.00000E+00
 -1      3311 1.37057E+02 1.78581E+01 0.00000E+00
 -1      3312 4.39456E+01 1.16724E+01 0.00000E+00
 -1      3313 4.31956E+01 1.05634E+01 0.00000E+00
 -1      3314 1.70474E+01 8.46078E+00 0.00000E+00
 -1      3315 1.36684E+01 2.31042E+01 0.00000E+00
 -1      3316 1.18083E+01 2.43130E+01 0.00000E+00
 -1      3317 1.18083E+01 2.57880E+01 0.00000E+00
 -1      3318 1.46409E+01 2.44639E+01 0.00000E+00
 -1      3319 1.12065E+01 2.98244E+01 0.00000E+00
 -1      3320 1.12065E+01 3.12931E+01 0.00000E+00
 -1      3321 1.20210E+01 3.17300E+01 0.00000E+00
 -1      3322 1.47573E+01 1.25400E+01 0.00000E+00
 -1      3323 1.50461E+01 1.13232E+01 0.00000E+00
 -1      3324 3.59151E+01 2.79041E+01 0.00000E+00
 -1      3325 2.54571E+01 3.04082E+01 0.00000E+00
 -1      3326 2.37662E+01 3.02737E+01 0.00000E+00
 -1      3327 1.35330E+02 3.54175E+01 0.00000E+00
 -1      3328 2.34000E+01 3.57110E+01 0.00000E+00
 -1      3329 2.49000E+01 3.57110E+01 0.00000E+00
 -1      3330 2.64000E+01 3.57110E+01 0.00000E+00
 -1      3331 2.79000E+01 3.57110E+01 0.00000E+00
 -1      3332 2.56500E+01 3.44120E+01 0.00000E+00
 -1      3333 2.94000E+01 3.57110E+01 0.00000E+00
 -1      3334 3.09000E+01 3.57110E+01 0.00000E+00
 -1      3335 2.86500E+01 3.44120E+01 0.00000E+00
 -1      3336 3.24000E+01 3.57110E+01 0.00000E+00
 -1      3337 3.39000E+01 3.57110E+01 0.00000E+00
 -1      3338 3.16500E+01 3.44120E+01 0.00000E+00
 -1      3339 3.54000E+01 3.57110E+01 0.00000E+00
 -1      3340 3.69000E+01 3.57110E+01 0.00000E+00
 -1      3341 3.46500E+01 3.44120E+01 0.00000E+00
 -1      3342 3.84000E+01 3.57110E+01 0.00000E+00
 -1      3343 3.99000E+01 3.57110E+01 0.00000E+00
 -1      3344 3.76500E+01 3.44120E+01 0.00000E+00
 -1      3345 4.14000E+01 3.57110E+01 0.00000E+00
 -1      3346 4.29000E+01 3.57110E+01 0.00000E+00
 -1      3347 4.06500E+01 3.44120E+01 0.00000E+00
 -1      3348 4.44000E+01 3.57110E+01 0.00000E+00
 -1      3349 4.59000E+01 3.57110E+01 0.00000E+00
 -1      3350 4.36500E+01 3.44120E+01 0.00000E+00
 -1      3351 4.74000E+01 3.57110E+01 0.00000E+00
 -1      3352 4.89000E+01 3.57110E+01 0.00000E+00
 -1      3353 4.66500E+01 3.44120E+01 0.00000E+00
 -1      3354 5.04000E+01 3.57110E+01 0.00000E+00
 -1      3355 5.19000E+01 3.57110E+01 0.00000E+00
 -1      3356 4.96500E+01 3.44120E+01 0.00000E+00
 -1      3357 5.34000E+01 3.57110E+01 0.00000E+00
 -1      3358 5.49000E+01 3.57110E+01 0.00000E+00
 -1      3359 5.26500E+01 3.44120E+01 0.00000E+00
 -1      3360 5.64000E+01 3.57110E+01 0.00000E+00
 -1      3361 5.79000E+01 3.57110E+01 0.00000E+00
 -1      3362 5.56500E+01 3.44120E+01 0.00000E+00
 -1      3363 5.94000E+01 3.57110E+01 0.00000E+00
 -1      3364 6.09000E+01 3.57110E+01 0.00000E+00
 -1      3365 5.86500E+01 3.44120E+01 0.00000E+00
 -1      3366 6.24000E+01 3.57110E+01 0.00000E+00
 -1      3367 6.39000E+01 3.57110E+01 0.00000E+00
 -1      3368 6.16500E+01 3.44120E+01 0.00000E+00
 -1      3369 6.54000E+01 3.57110E+01 0.00000E+00
 -1      3370 6.69000E+01 3.57110E+01 0.00000E+00
 -1      3371 6.46500E+01 3.44120E+01 0.00000E+00
 -1      3372 6.84000E+01 3.57110E+01 0.00000E+00
 -1      3373 6.99000E+01 3.57110E+01 0.00000E+00
 -1      3374 6.76500E+01 3.44120E+01 0.00000E+00
 -1      3375 7.14000E+01 3.57110E+01 0.00000E+00
 -1      3376 7.29000E+01 3.57110E+01 0.00000E+00
 -1      3377 7.06500E+01 3.44120E+01 0.00000E+00
 -1      3378 7.44000E+01 3.57110E+01 0.00000E+00
 -1      3379 7.59000E+01 3.57110E+01 0.00000E+00
 -1      3380 7.36500E+01 3.44120E+01 0.00000E+00
 -1      3381 7.74000E+01 3.57110E+01 0.00000E+00
 -1      3382 7.89000E+01 3.57110E+01 0.00000E+00
 -1      3383 7.66500E+01 3.44120E+01 0.00000E+00
 -1      3384 8.04000E+01 3.57110E+01 0.00000E+00
 -1      3385 8.19000E+01 3.57110E+01 0.00000E+00
 -1      3386 7.96500E+01 3.44120E+01 0.00000E+00
 -1      3387 8.34000E+01 3.57110E+01 0.00000E+00
 -1      3388 8.49000E+01 3.57110E+01 0.00000E+00
 -1      3389 8.26500E+01 3.44120E+01 0.00000E+00
 -1      3390 8.64000E+01 3.57110E+01 0.00000E+00
 -1      3391 8.79000E+01 3.57110E+01 0.00000E+00
 -1      3392 8.56500E+01 3.44120E+01 0.00000E+00
 -1      3393 8.94000E+01 3.57110E+01 0.00000E+00
 -1      3394 9.09000E+01 3.57110E+01 0.00000E+00
 -1      3395 8.86500E+01 3.44120E+01 0.00000E+00
 -1      3396 9.24000E+01 3.57110E+01 0.00000E+00
 -1      3397 9.39000E+01 3.57110E+01 0.00000E+00
 -1      3398 9.16500E+01 3.44120E+01 0.00000E+00
 -1      3399 9.54000E+01 3.57110E+01 0.00000E+00
 -1      3400 9.69000E+01 3.57110E+01 0.00000E+00
 -1      3401 9.46500E+01 3.44120E+01 0.00000E+00
 -1      3402 9.84000E+01 3.57110E+01 0.00000E+00
 -1      3403 9.99000E+01 3.57110E+01 0.00000E+00
 -1      3404 9.76500E+01 3.44120E+01 0.00000E+00
 -1      3405 1.01400E+02 3.57110E+01 0.00000E+00
 -1      3406 1.02900E+02 3.57110E+01 0.00000E+00
 -1      3407 1.00650E+02 3.44120E+01 0.00000E+00
 -1      3408 1.04400E+02 3.57110E+01 0.00000E+00
 -1      3409 1.05900E+02 3.57110E+01 0.00000E+00
 -1      3410 1.03650E+02 3.44120E+01 0.00000E+00
 -1      3411 1.07400E+02 3.57110E+01 0.00000E+00
 -1      3412 1.08900E+02 3.57110E+01 0.00000E+00
 -1      3413 1.06650E+02 3.44120E+01 0.00000E+00
 -1      3414 1.10400E+02 3.57110E+01 0.00000E+00
 -1      3415 1.11900E+02 3.57110E+01 0.00000E+00
 -1      3416 1.09650E+02 3.44120E+01 0.00000E+00
 -1      3417 1.13400E+02 3.57110E+01 0.00000E+00
 -1      3418 1.14900E+02 3.57110E+01 0.00000E+00
 -1      3419 1.12650E+02 3.44120E+01 0.00000E+00
 -1      3420 1.16400E+02 3.57110E+01 0.00000E+00
 -1      3421 1.17900E+02 3.57110E+01 0.00000E+00
 -1      3422 1.15650E+02 3.44120E+01 0.00000E+00
 -1      3423 1.19400E+02 3.57110E+01 0.00000E+00
 -1      3424 1.20900E+02 3.57110E+01 0.00000E+00
 -1      3425 1.18650E+02 3.44120E+01 0.00000E+00
 -1      3426 1.22400E+02 3.57110E+01 0.00000E+00
 -1      3427 1.23900E+02 3.57110E+01 0.00000E+00
 -1      3428 1.21650E+02 3.44120E+01 0.00000E+00
 -1      3429 1.25400E+02 3.57110E+01 0.00000E+00
 -1      3430 1.26900E+02 3.57110E+01 0.00000E+00
 -1      3431 1.24650E+02 3.44120E+01 0.00000E+00
 -1      3432 1.28400E+02 3.57110E+01 0.00000E+00
 -1      3433 1.29900E+02 3.57110E+01 0.00000E+00
 -1      3434 1.27650E+02 3.44120E+01 0.00000E+00
 -1      3435 1.31400E+02 3.57110E+01 0.00000E+00
 -1      3436 1.32900E+02 3.57110E+01 0.00000E+00
 -1      3437 1.30650E+02 3.44120E+01 0.00000E+00
 -1      3438 1.35711E+02 3.30875E+01 0.00000E+00
 -1      3439 1.35711E+02 3.16125E+01 0.00000E+00
 -1      3440 1.95925E+01 2.79482E+01 0.00000E+00
 -1      3441 1.83993E+01 2.72223E+01 0.00000E+00
 -1      3442 5.63850E+01 1.28866E+01 0.00000E+00
 -1      3443 5.48850E+01 1.28866E+01 0.00000E+00
 -1      3444 5.95350E+01 1.28866E+01 0.00000E+00
 -1      3445 5.79600E+01 1.28866E+01 0.00000E+00
 -1      3446 5.72100E+01 1.41856E+01 0.00000E+00
 -1      3447 4.73850E+01 1.23164E+01 0.00000E+00
 -1      3448 4.58850E+01 1.23164E+01 0.00000E+00
 -1      3449 6.25350E+01 1.28866E+01 0.00000E+00
 -1      3450 6.10350E+01 1.28866E+01 0.00000E+00
 -1      3451 6.02850E+01 1.41856E+01 0.00000E+00
 -1      3452 6.55350E+01 1.28866E+01 0.00000E+00
 -1      3453 6.40350E+01 1.28866E+01 0.00000E+00
 -1      3454 6.32850E+01 1.41856E+01 0.00000E+00
 -1      3455 6.85350E+01 1.28866E+01 0.00000E+00
 -1      3456 6.70350E+01 1.28866E+01 0.00000E+00
 -1      3457 6.62850E+01 1.41856E+01 0.00000E+00
 -1      3458 7.15350E+01 1.28866E+01 0.00000E+00
 -1      3459 7.00350E+01 1.28866E+01 0.00000E+00
 -1      3460 6.92850E+01 1.41856E+01 0.00000E+00
 -1      3461 7.45350E+01 1.28866E+01 0.00000E+00
 -1      3462 7.30350E+01 1.28866E+01 0.00000E+00
 -1      3463 7.22850E+01 1.41856E+01 0.00000E+00
 -1      3464 7.76850E+01 1.28866E+01 0.00000E+00
 -1      3465 7.61100E+01 1.28866E+01 0.00000E+00
 -1      3466 7.53600E+01 1.41856E+01 0.00000E+00
 -1      3467 8.06850E+01 1.28866E+01 0.00000E+00
 -1      3468 7.91850E+01 1.28866E+01 0.00000E+00
 -1      3469 7.84350E+01 1.41856E+01 0.00000E+00
 -1      3470 8.36850E+01 1.28866E+01 0.00000E+00
 -1      3471 8.21850E+01 1.28866E+01 0.00000E+00
 -1      3472 8.14350E+01 1.41856E+01 0.00000E+00
 -1      3473 8.66850E+01 1.28866E+01 0.00000E+00
 -1      3474 8.51850E+01 1.28866E+01 0.00000E+00
 -1      3475 8.44350E+01 1.41856E+01 0.00000E+00
 -1      3476 8.96850E+01 1.28866E+01 0.00000E+00
 -1      3477 8.81850E+01 1.28866E+01 0.00000E+00
 -1      3478 8.74350E+01 1.41856E+01 0.00000E+00
 -1      3479 9.26850E+01 1.28866E+01 0.00000E+00
 -1      3480 9.11850E+01 1.28866E+01 0.00000E+00
 -1      3481 9.04350E+01 1.41856E+01 0.00000E+00
 -1      3482 9.58350E+01 1.28866E+01 0.00000E+00
 -1      3483 9.42600E+01 1.28866E+01 0.00000E+00
 -1      3484 9.35100E+01 1.41856E+01 0.00000E+00
 -1      3485 9.88350E+01 1.28866E+01 0.00000E+00
 -1      3486 9.73350E+01 1.28866E+01 0.00000E+00
 -1      3487 9.65850E+01 1.41856E+01 0.00000E+00
 -1      3488 1.01835E+02 1.28866E+01 0.00000E+00
 -1      3489 1.00335E+02 1.28866E+01 0.00000E+00
 -1      3490 9.95850E+01 1.41856E+01 0.00000E+00
 -1      3491 1.04835E+02 1.28866E+01 0.00000E+00
 -1      3492 1.03335E+02 1.28866E+01 0.00000E+00
 -1      3493 1.02585E+02 1.41856E+01 0.00000E+00
 -1      3494 1.07835E+02 1.28866E+01 0.00000E+00
 -1      3495 1.06335E+02 1.28866E+01 0.00000E+00
 -1      3496 1.05585E+02 1.41856E+01 0.00000E+00
 -1      3497 1.10985E+02 1.28866E+01 0.00000E+00
 -1      3498 1.09410E+02 1.28866E+01 0.00000E+00
 -1      3499 1.08660E+02 1.41856E+01 0.00000E+00
 -1      3500 1.13985E+02 1.28866E+01 0.00000E+00
 -1      3501 1.12485E+02 1.28866E+01 0.00000E+00
 -1      3502 1.11735E+02 1.41856E+01 0.00000E+00
 -1      3503 1.16985E+02 1.28866E+01 0.00000E+00
 -1      3504 1.15485E+02 1.28866E+01 0.00000E+00
 -1      3505 1.14735E+02 1.41856E+01 0.00000E+00
 -1      3506 1.19985E+02 1.28866E+01 0.00000E+00
 -1      3507 1.18485E+02 1.28866E+01 0.00000E+00
 -1      3508 1.17735E+02 1.41856E+01 0.00000E+00
 -1      3509 1.22985E+02 1.28866E+01 0.00000E+00
 -1      3510 1.21485E+02 1.28866E+01 0.00000E+00
 -1      3511 1.20735E+02 1.41856E+01 0.00000E+00
 -1      3512 1.25985E+02 1.28866E+01 0.00000E+00
 -1      3513 1.24485E+02 1.28866E+01 0.00000E+00
 -1      3514 1.23735E+02 1.41856E+01 0.00000E+00
 -1      3515 1.29135E+02 1.28866E+01 0.00000E+00
 -1      3516 1.27560E+02 1.28866E+01 0.00000E+00
 -1      3517 1.26810E+02 1.41856E+01 0.00000E+00
 -1      3518 1.32135E+02 1.28866E+01 0.00000E+00
 -1      3519 1.30635E+02 1.28866E+01 0.00000E+00
 -1      3520 1.29885E+02 1.41856E+01 0.00000E+00
 -1      3521 1.35135E+02 1.28866E+01 0.00000E+00
 -1      3522 1.33635E+02 1.28866E+01 0.00000E+00
 -1      3523 1.32885E+02 1.41856E+01 0.00000E+00
 -1      3524 1.28355E+01 3.36356E+01 0.00000E+00
 -1      3525 1.28355E+01 3.51044E+01 0.00000E+00
 -1      3526 1.36500E+01 3.55412E+01 0.00000E+00
 -1      3527 5.03850E+01 1.26966E+01 0.00000E+00
 -1      3528 4.88850E+01 1.25065E+01 0.00000E+00
 -1      3529 4.81350E+01 1.36154E+01 0.00000E+00
 -1      3530 1.70897E+01 2.63885E+01 0.00000E+00
 -1      3531 1.59505E+01 2.52977E+01 0.00000E+00
 -1      3532 1.45342E+01 2.59597E+01 0.00000E+00
 -1      3533 1.71535E+01 2.76273E+01 0.00000E+00
 -1      3534 4.28134E+01 2.13963E+01 0.00000E+00
 -1      3535 4.22004E+01 2.28924E+01 0.00000E+00
 -1      3536 4.37579E+01 1.84425E+01 0.00000E+00
 -1      3537 4.32979E+01 1.98456E+01 0.00000E+00
 -1      3538 3.89736E+01 2.77620E+01 0.00000E+00
 -1      3539 3.79807E+01 2.82781E+01 0.00000E+00
 -1      3540 2.04000E+01 3.57110E+01 0.00000E+00
 -1      3541 2.19000E+01 3.57110E+01 0.00000E+00
 -1      3542 2.26500E+01 3.44120E+01 0.00000E+00
 -1      3543 4.46870E+01 1.24416E+01 0.00000E+00
 -1      3544 4.34976E+01 1.29065E+01 0.00000E+00
 -1      3545 4.30410E+01 1.38009E+01 0.00000E+00
 -1      3546 4.54370E+01 1.35505E+01 0.00000E+00
 -1      3547 1.51500E+01 3.55412E+01 0.00000E+00
 -1      3548 1.15074E+01 2.70718E+01 0.00000E+00
 -1      3549 1.15074E+01 2.85405E+01 0.00000E+00
 -1      3550 1.23219E+01 2.89774E+01 0.00000E+00
 -1      3551 1.29237E+01 2.64098E+01 0.00000E+00
 -1      3552 2.18792E+01 2.96139E+01 0.00000E+00
 -1      3553 2.07359E+01 2.87811E+01 0.00000E+00
 -1      3554 1.96065E+01 2.92939E+01 0.00000E+00
 -1      3555 3.25695E+01 3.00590E+01 0.00000E+00
 -1      3556 3.10971E+01 3.05801E+01 0.00000E+00
 -1      3557 1.27604E+01 1.04582E+01 0.00000E+00
 -1      3558 1.74000E+01 3.57110E+01 0.00000E+00
 -1      3559 1.89000E+01 3.57110E+01 0.00000E+00
 -1      3560 1.96500E+01 3.44120E+01 0.00000E+00
 -1      3561 5.33850E+01 1.28866E+01 0.00000E+00
 -1      3562 5.18850E+01 1.28866E+01 0.00000E+00
 -1      3563 5.41350E+01 1.41856E+01 0.00000E+00
 -1      3564 1.38587E+02 1.47271E+01 0.00000E+00
 -1      3565 1.38634E+02 1.34602E+01 0.00000E+00
 -1      3566 1.37656E+02 1.32115E+01 0.00000E+00
 -1      3567 1.37288E+02 1.54646E+01 0.00000E+00
 -1      3568 4.24632E+01 9.78665E+00 0.00000E+00
 -1      3569 4.14510E+01 2.46885E+01 0.00000E+00
 -1      3570 4.04578E+01 2.62642E+01 0.00000E+00
 -1      3571 1.32417E+01 1.23705E+01 0.00000E+00
 -1      3572 3.70003E+01 2.87786E+01 0.00000E+00
 -1      3573 3.60198E+01 2.92792E+01 0.00000E+00
 -1      3574 3.80855E+01 2.96532E+01 0.00000E+00
 -1      3575 3.47874E+01 2.95622E+01 0.00000E+00
 -1      3576 3.38019E+01 2.97759E+01 0.00000E+00
 -1      3577 3.34077E+01 3.10028E+01 0.00000E+00
 -1      3578 3.58726E+01 3.04367E+01 0.00000E+00
 -1      3579 4.09257E+01 9.59656E+00 0.00000E+00
 -1      3580 4.00001E+01 8.96205E+00 0.00000E+00
 -1      3581 2.26368E+01 3.07866E+01 0.00000E+00
 -1      3582 2.63751E+01 3.11642E+01 0.00000E+00
 -1      3583 1.33596E+02 3.52710E+01 0.00000E+00
 -1      3584 1.35276E+02 3.36785E+01 0.00000E+00
 -1      3585 4.38975E+01 1.46333E+01 0.00000E+00
 -1      3586 1.34412E+02 3.08875E+01 0.00000E+00
 -1      3587 1.35711E+02 3.01500E+01 0.00000E+00
 -1      3588 1.35711E+02 2.86875E+01 0.00000E+00
 -1      3589 4.27836E+01 2.43609E+01 0.00000E+00
 -1      3590 1.35711E+02 2.42875E+01 0.00000E+00
 -1      3591 1.35711E+02 2.28125E+01 0.00000E+00
 -1      3592 1.28355E+01 3.21669E+01 0.00000E+00
 -1      3593 1.36500E+01 3.26037E+01 0.00000E+00
 -1      3594 1.28355E+01 3.06981E+01 0.00000E+00
 -1      3595 1.36678E+02 1.29629E+01 0.00000E+00
 -1      3596 1.35711E+02 2.13375E+01 0.00000E+00
 -1      3597 1.35711E+02 1.98625E+01 0.00000E+00
 -1      3598 1.34412E+02 2.20750E+01 0.00000E+00
 -1      3599 5.11350E+01 1.39956E+01 0.00000E+00
 -1      3600 4.42819E+01 1.72789E+01 0.00000E+00
 -1      3601 4.50260E+01 1.82998E+01 0.00000E+00
 -1      3602 4.40175E+01 2.10141E+01 0.00000E+00
 -1      3603 4.21266E+01 2.75477E+01 0.00000E+00
 -1      3604 4.05501E+01 2.76548E+01 0.00000E+00
 -1      3605 4.06424E+01 2.90455E+01 0.00000E+00
 -1      3606 1.59000E+01 3.42422E+01 0.00000E+00
 -1      3607 4.45530E+01 1.63635E+01 0.00000E+00
 -1      3608 1.35928E+02 1.42619E+01 0.00000E+00
 -1      3609 1.35758E+02 1.85956E+01 0.00000E+00
 -1      3610 1.35805E+02 1.73287E+01 0.00000E+00
 -1      3611 1.34459E+02 1.93331E+01 0.00000E+00
 -1      3612 1.35711E+02 2.72188E+01 0.00000E+00
 -1      3613 1.35711E+02 2.57563E+01 0.00000E+00
 -1      3614 1.34412E+02 2.50187E+01 0.00000E+00
 -1      3615 1.34412E+02 2.79562E+01 0.00000E+00
 -1      3616 1.32846E+02 3.39720E+01 0.00000E+00
 -1      3617 1.89000E+01 3.31130E+01 0.00000E+00
 -1      3618 2.04000E+01 3.31130E+01 0.00000E+00
 -1      3619 4.51658E+01 1.44782E+01 0.00000E+00
 -1      3620 4.48242E+01 1.54358E+01 0.00000E+00
 -1      3621 4.58213E+01 1.62084E+01 0.00000E+00
 -1      3622 4.63638E+01 1.43530E+01 0.00000E+00
 -1      3623 2.76883E+01 3.26470E+01 0.00000E+00
 -1      3624 2.91883E+01 3.26470E+01 0.00000E+00
 -1      3625 3.11626E+01 3.28489E+01 0.00000E+00
 -1      3626 3.26626E+01 3.28489E+01 0.00000E+00
 -1      3627 3.38951E+01 3.25659E+01 0.00000E+00
 -1      3628 3.53951E+01 3.25659E+01 0.00000E+00
 -1      3629 3.66275E+01 3.22828E+01 0.00000E+00
 -1      3630 3.81275E+01 3.22828E+01 0.00000E+00
 -1      3631 4.29000E+01 3.31130E+01 0.00000E+00
 -1      3632 4.44000E+01 3.31130E+01 0.00000E+00
 -1      3633 4.59000E+01 3.31130E+01 0.00000E+00
 -1      3634 4.74000E+01 3.31130E+01 0.00000E+00
 -1      3635 4.51500E+01 3.18140E+01 0.00000E+00
 -1      3636 4.89000E+01 3.31130E+01 0.00000E+00
 -1      3637 5.04000E+01 3.31130E+01 0.00000E+00
 -1      3638 4.81500E+01 3.18140E+01 0.00000E+00
 -1      3639 5.19000E+01 3.31130E+01 0.00000E+00
 -1      3640 5.34000E+01 3.31130E+01 0.00000E+00
 -1      3641 5.11500E+01 3.18140E+01 0.00000E+00
 -1      3642 5.49000E+01 3.31130E+01 0.00000E+00
 -1      3643 5.64000E+01 3.31130E+01 0.00000E+00
 -1      3644 5.41500E+01 3.18140E+01 0.00000E+00
 -1      3645 5.79000E+01 3.31130E+01 0.00000E+00
 -1      3646 5.94000E+01 3.31130E+01 0.00000E+00
 -1      3647 5.71500E+01 3.18140E+01 0.00000E+00
 -1      3648 6.09000E+01 3.31130E+01 0.00000E+00
 -1      3649 6.24000E+01 3.31130E+01 0.00000E+00
 -1      3650 6.01500E+01 3.18140E+01 0.00000E+00
 -1      3651 6.39000E+01 3.31130E+01 0.00000E+00
 -1      3652 6.54000E+01 3.31130E+01 0.00000E+00
 -1      3653 6.31500E+01 3.18140E+01 0.00000E+00
 -1      3654 6.69000E+01 3.31130E+01 0.00000E+00
 -1      3655 6.84000E+01 3.31130E+01 0.00000E+00
 -1      3656 6.61500E+01 3.18140E+01 0.00000E+00
 -1      3657 6.99000E+01 3.31130E+01 0.00000E+00
 -1      3658 7.14000E+01 3.31130E+01 0.00000E+00
 -1      3659 6.91500E+01 3.18140E+01 0.00000E+00
 -1      3660 7.29000E+01 3.31130E+01 0.00000E+00
 -1      3661 7.44000E+01 3.31130E+01 0.00000E+00
 -1      3662 7.21500E+01 3.18140E+01 0.00000E+00
 -1      3663 7.59000E+01 3.31130E+01 0.00000E+00
 -1      3664 7.74000E+01 3.31130E+01 0.00000E+00
 -1      3665 7.51500E+01 3.18140E+01 0.00000E+00
 -1      3666 7.89000E+01 3.31130E+01 0.00000E+00
 -1      3667 8.04000E+01 3.31130E+01 0.00000E+00
 -1      3668 7.81500E+01 3.18140E+01 0.00000E+00
 -1      3669 8.19000E+01 3.31130E+01 0.00000E+00
 -1      3670 8.34000E+01 3.31130E+01 0.00000E+00
 -1      3671 8.11500E+01 3.18140E+01 0.00000E+00
 -1      3672 8.49000E+01 3.31130E+01 0.00000E+00
 -1      3673 8.64000E+01 3.31130E+01 0.00000E+00
 -1      3674 8.41500E+01 3.18140E+01 0.00000E+00
 -1      3675 8.79000E+01 3.31130E+01 0.00000E+00
 -1      3676 8.94000E+01 3.31130E+01 0.00000E+00
 -1      3677 8.71500E+01 3.18140E+01 0.00000E+00
 -1      3678 9.09000E+01 3.31130E+01 0.00000E+00
 -1      3679 9.24000E+01 3.31130E+01 0.00000E+00
 -1      3680 9.01500E+01 3.18140E+01 0.00000E+00
 -1      3681 9.39000E+01 3.31130E+01 0.00000E+00
 -1      3682 9.54000E+01 3.31130E+01 0.00000E+00
 -1      3683 9.31500E+01 3.18140E+01 0.00000E+00
 -1      3684 9.69000E+01 3.31130E+01 0.00000E+00
 -1      3685 9.84000E+01 3.31130E+01 0.00000E+00
 -1      3686 9.61500E+01 3.18140E+01 0.00000E+00
 -1      3687 9.99000E+01 3.31130E+01 0.00000E+00
 -1      3688 1.01400E+02 3.31130E+01 0.00000E+00
 -1      3689 9.91500E+01 3.18140E+01 0.00000E+00
 -1      3690 1.02900E+02 3.31130E+01 0.00000E+00
 -1      3691 1.04400E+02 3.31130E+01 0.00000E+00
 -1      3692 1.02150E+02 3.18140E+01 0.00000E+00
 -1      3693 1.05900E+02 3.31130E+01 0.00000E+00
 -1      3694 1.07400E+02 3.31130E+01 0.00000E+00
 -1      3695 1.05150E+02 3.18140E+01 0.00000E+00
 -1      3696 1.08900E+02 3.31130E+01 0.00000E+00
 -1      3697 1.10400E+02 3.31130E+01 0.00000E+00
 -1      3698 1.08150E+02 3.18140E+01 0.00000E+00
 -1      3699 1.11900E+02 3.31130E+01 0.00000E+00
 -1      3700 1.13400E+02 3.31130E+01 0.00000E+00
 -1      3701 1.11150E+02 3.18140E+01 0.00000E+00
 -1      3702 1.14900E+02 3.31130E+01 0.00000E+00
 -1      3703 1.16400E+02 3.31130E+01 0.00000E+00
 -1      3704 1.14150E+02 3.18140E+01 0.00000E+00
 -1      3705 1.17900E+02 3.31130E+01 0.00000E+00
 -1      3706 1.19400E+02 3.31130E+01 0.00000E+00
 -1      3707 1.17150E+02 3.18140E+01 0.00000E+00
 -1      3708 1.20900E+02 3.31130E+01 0.00000E+00
 -1      3709 1.22400E+02 3.31130E+01 0.00000E+00
 -1      3710 1.20150E+02 3.18140E+01 0.00000E+00
 -1      3711 1.23900E+02 3.31130E+01 0.00000E+00
 -1      3712 1.25400E+02 3.31130E+01 0.00000E+00
 -1      3713 1.23150E+02 3.18140E+01 0.00000E+00
 -1      3714 1.26900E+02 3.31130E+01 0.00000E+00
 -1      3715 1.28400E+02 3.31130E+01 0.00000E+00
 -1      3716 1.26150E+02 3.18140E+01 0.00000E+00
 -1      3717 1.29900E+02 3.31130E+01 0.00000E+00
 -1      3718 1.31400E+02 3.31130E+01 0.00000E+00
 -1      3719 1.29150E+02 3.18140E+01 0.00000E+00
 -1      3720 3.00844E+01 3.21431E+01 0.00000E+00
 -1      3721 5.79975E+01 1.54846E+01 0.00000E+00
 -1      3722 5.64225E+01 1.54846E+01 0.00000E+00
 -1      3723 6.09975E+01 1.54846E+01 0.00000E+00
 -1      3724 5.94975E+01 1.54846E+01 0.00000E+00
 -1      3725 5.87100E+01 1.67836E+01 0.00000E+00
 -1      3726 7.00350E+01 1.54846E+01 0.00000E+00
 -1      3727 6.85350E+01 1.54846E+01 0.00000E+00
 -1      3728 7.30350E+01 1.54846E+01 0.00000E+00
 -1      3729 7.15350E+01 1.54846E+01 0.00000E+00
 -1      3730 7.07850E+01 1.67836E+01 0.00000E+00
 -1      3731 7.61850E+01 1.54846E+01 0.00000E+00
 -1      3732 7.46100E+01 1.54846E+01 0.00000E+00
 -1      3733 7.38600E+01 1.67836E+01 0.00000E+00
 -1      3734 7.91850E+01 1.54846E+01 0.00000E+00
 -1      3735 7.76850E+01 1.54846E+01 0.00000E+00
 -1      3736 7.69350E+01 1.67836E+01 0.00000E+00
 -1      3737 8.21850E+01 1.54846E+01 0.00000E+00
 -1      3738 8.06850E+01 1.54846E+01 0.00000E+00
 -1      3739 7.99350E+01 1.67836E+01 0.00000E+00
 -1      3740 8.51850E+01 1.54846E+01 0.00000E+00
 -1      3741 8.36850E+01 1.54846E+01 0.00000E+00
 -1      3742 8.29350E+01 1.67836E+01 0.00000E+00
 -1      3743 8.81850E+01 1.54846E+01 0.00000E+00
 -1      3744 8.66850E+01 1.54846E+01 0.00000E+00
 -1      3745 8.59350E+01 1.67836E+01 0.00000E+00
 -1      3746 9.11850E+01 1.54846E+01 0.00000E+00
 -1      3747 8.96850E+01 1.54846E+01 0.00000E+00
 -1      3748 8.89350E+01 1.67836E+01 0.00000E+00
 -1      3749 9.43350E+01 1.54846E+01 0.00000E+00
 -1      3750 9.27600E+01 1.54846E+01 0.00000E+00
 -1      3751 9.20100E+01 1.67836E+01 0.00000E+00
 -1      3752 9.73350E+01 1.54846E+01 0.00000E+00
 -1      3753 9.58350E+01 1.54846E+01 0.00000E+00
 -1      3754 9.50850E+01 1.67836E+01 0.00000E+00
 -1      3755 1.00335E+02 1.54846E+01 0.00000E+00
 -1      3756 9.88350E+01 1.54846E+01 0.00000E+00
 -1      3757 9.80850E+01 1.67836E+01 0.00000E+00
 -1      3758 1.03335E+02 1.54846E+01 0.00000E+00
 -1      3759 1.01835E+02 1.54846E+01 0.00000E+00
 -1      3760 1.01085E+02 1.67836E+01 0.00000E+00
 -1      3761 1.06335E+02 1.54846E+01 0.00000E+00
 -1      3762 1.04835E+02 1.54846E+01 0.00000E+00
 -1      3763 1.04085E+02 1.67836E+01 0.00000E+00
 -1      3764 1.09485E+02 1.54846E+01 0.00000E+00
 -1      3765 1.07910E+02 1.54846E+01 0.00000E+00
 -1      3766 1.07160E+02 1.67836E+01 0.00000E+00
 -1      3767 1.12485E+02 1.54846E+01 0.00000E+00
 -1      3768 1.10985E+02 1.54846E+01 0.00000E+00
 -1      3769 1.10235E+02 1.67836E+01 0.00000E+00
 -1      3770 1.15485E+02 1.54846E+01 0.00000E+00
 -1      3771 1.13985E+02 1.54846E+01 0.00000E+00
 -1      3772 1.13235E+02 1.67836E+01 0.00000E+00
 -1      3773 1.18485E+02 1.54846E+01 0.00000E+00
 -1      3774 1.16985E+02 1.54846E+01 0.00000E+00
 -1      3775 1.16235E+02 1.67836E+01 0.00000E+00
 -1      3776 1.21485E+02 1.54846E+01 0.00000E+00
 -1      3777 1.19985E+02 1.54846E+01 0.00000E+00
 -1      3778 1.19235E+02 1.67836E+01 0.00000E+00
 -1      3779 1.24485E+02 1.54846E+01 0.00000E+00
 -1      3780 1.22985E+02 1.54846E+01 0.00000E+00
 -1      3781 1.22235E+02 1.67836E+01 0.00000E+00
 -1      3782 1.27635E+02 1.54846E+01 0.00000E+00
 -1      3783 1.26060E+02 1.54846E+01 0.00000E+00
 -1      3784 1.25310E+02 1.67836E+01 0.00000E+00
 -1      3785 1.30635E+02 1.54846E+01 0.00000E+00
 -1      3786 1.29135E+02 1.54846E+01 0.00000E+00
 -1      3787 1.28385E+02 1.67836E+01 0.00000E+00
 -1      3788 1.33113E+02 2.28125E+01 0.00000E+00
 -1      3789 1.33113E+02 2.13375E+01 0.00000E+00
 -1      3790 1.35744E+02 1.53884E+01 0.00000E+00
 -1      3791 2.58369E+01 3.29292E+01 0.00000E+00
 -1      3792 6.39975E+01 1.54846E+01 0.00000E+00
 -1      3793 6.24975E+01 1.54846E+01 0.00000E+00
 -1      3794 6.17100E+01 1.67836E+01 0.00000E+00
 -1      3795 2.43369E+01 3.29292E+01 0.00000E+00
 -1      3796 6.70350E+01 1.54846E+01 0.00000E+00
 -1      3797 6.55350E+01 1.54846E+01 0.00000E+00
 -1      3798 6.77850E+01 1.67836E+01 0.00000E+00
 -1      3799 4.54781E+01 2.06194E+01 0.00000E+00
 -1      3800 4.49936E+01 2.21701E+01 0.00000E+00
 -1      3801 4.93638E+01 1.47332E+01 0.00000E+00
 -1      3802 4.78638E+01 1.45431E+01 0.00000E+00
 -1      3803 4.75926E+01 1.54708E+01 0.00000E+00
 -1      3804 2.28369E+01 3.29292E+01 0.00000E+00
 -1      3805 5.49225E+01 1.54846E+01 0.00000E+00
 -1      3806 5.34225E+01 1.54846E+01 0.00000E+00
 -1      3807 5.57100E+01 1.67836E+01 0.00000E+00
 -1      3808 5.21431E+01 1.52040E+01 0.00000E+00
 -1      3809 5.06431E+01 1.50139E+01 0.00000E+00
 -1      3810 5.03719E+01 1.59416E+01 0.00000E+00
 -1      3811 5.29306E+01 1.65030E+01 0.00000E+00
 -1      3812 2.01999E+01 3.09704E+01 0.00000E+00
 -1      3813 1.90566E+01 3.01375E+01 0.00000E+00
 -1      3814 4.65263E+01 1.82922E+01 0.00000E+00
 -1      3815 4.60022E+01 1.94558E+01 0.00000E+00
 -1      3816 4.69784E+01 2.06118E+01 0.00000E+00
 -1      3817 4.43572E+01 2.39630E+01 0.00000E+00
 -1      3818 4.36078E+01 2.57591E+01 0.00000E+00
 -1      3819 1.51500E+01 3.27735E+01 0.00000E+00
 -1      3820 1.74000E+01 3.29432E+01 0.00000E+00
 -1      3821 1.81500E+01 3.16443E+01 0.00000E+00
 -1      3822 1.51500E+01 3.13048E+01 0.00000E+00
 -1      3823 3.88565E+01 3.09680E+01 0.00000E+00
 -1      3824 3.98790E+01 3.30972E+01 0.00000E+00
 -1      3825 4.13790E+01 3.30972E+01 0.00000E+00
 -1      3826 3.98369E+01 3.04675E+01 0.00000E+00
 -1      3827 1.34445E+02 1.61259E+01 0.00000E+00
 -1      3828 4.70687E+01 1.64367E+01 0.00000E+00
 -1      3829 4.67975E+01 1.73645E+01 0.00000E+00
 -1      3830 4.77736E+01 1.85205E+01 0.00000E+00
 -1      3831 1.33287E+01 2.99226E+01 0.00000E+00
 -1      3832 1.41432E+01 3.03595E+01 0.00000E+00
 -1      3833 1.56432E+01 3.05293E+01 0.00000E+00
 -1      3834 1.36296E+01 2.86388E+01 0.00000E+00
 -1      3835 1.75566E+01 2.99678E+01 0.00000E+00
 -1      3836 1.33977E+02 3.29410E+01 0.00000E+00
 -1      3837 4.58178E+01 2.35683E+01 0.00000E+00
 -1      3838 1.33113E+02 2.57500E+01 0.00000E+00
 -1      3839 1.33113E+02 2.42813E+01 0.00000E+00
 -1      3840 1.31814E+02 2.35438E+01 0.00000E+00
 -1      3841 1.42333E+01 2.72435E+01 0.00000E+00
 -1      3842 1.31861E+02 2.08081E+01 0.00000E+00
 -1      3843 1.33160E+02 2.00706E+01 0.00000E+00
 -1      3844 1.33207E+02 1.88037E+01 0.00000E+00
 -1      3845 1.33635E+02 1.54846E+01 0.00000E+00
 -1      3846 1.32135E+02 1.54846E+01 0.00000E+00
 -1      3847 1.65498E+01 2.90226E+01 0.00000E+00
 -1      3848 6.47475E+01 1.67836E+01 0.00000E+00
 -1      3849 1.52401E+01 2.81888E+01 0.00000E+00
 -1      3850 4.52736E+01 2.67519E+01 0.00000E+00
 -1      3851 4.37001E+01 2.71498E+01 0.00000E+00
 -1      3852 4.37924E+01 2.85404E+01 0.00000E+00
 -1      3853 2.09499E+01 3.22694E+01 0.00000E+00
 -1      3854 4.21290E+01 3.17982E+01 0.00000E+00
 -1      3855 1.33113E+02 3.16187E+01 0.00000E+00
 -1      3856 1.33113E+02 3.01563E+01 0.00000E+00
 -1      3857 4.14134E+01 3.03603E+01 0.00000E+00
 -1      3858 1.32096E+02 3.26730E+01 0.00000E+00
 -1      3859 1.31385E+02 1.67836E+01 0.00000E+00
 -1      3860 1.32678E+02 3.22097E+01 0.00000E+00
 -1      3861 5.64600E+01 1.80826E+01 0.00000E+00
 -1      3862 5.49600E+01 1.80826E+01 0.00000E+00
 -1      3863 4.74000E+01 3.05150E+01 0.00000E+00
 -1      3864 4.89000E+01 3.05150E+01 0.00000E+00
 -1      3865 5.04000E+01 3.05150E+01 0.00000E+00
 -1      3866 5.19000E+01 3.05150E+01 0.00000E+00
 -1      3867 4.96500E+01 2.92160E+01 0.00000E+00
 -1      3868 5.34000E+01 3.05150E+01 0.00000E+00
 -1      3869 5.49000E+01 3.05150E+01 0.00000E+00
 -1      3870 5.26500E+01 2.92160E+01 0.00000E+00
 -1      3871 5.64000E+01 3.05150E+01 0.00000E+00
 -1      3872 5.79000E+01 3.05150E+01 0.00000E+00
 -1      3873 5.56500E+01 2.92160E+01 0.00000E+00
 -1      3874 5.94000E+01 3.05150E+01 0.00000E+00
 -1      3875 6.09000E+01 3.05150E+01 0.00000E+00
 -1      3876 5.86500E+01 2.92160E+01 0.00000E+00
 -1      3877 6.24000E+01 3.05150E+01 0.00000E+00
 -1      3878 6.39000E+01 3.05150E+01 0.00000E+00
 -1      3879 6.16500E+01 2.92160E+01 0.00000E+00
 -1      3880 6.54000E+01 3.05150E+01 0.00000E+00
 -1      3881 6.69000E+01 3.05150E+01 0.00000E+00
 -1      3882 6.46500E+01 2.92160E+01 0.00000E+00
 -1      3883 6.84000E+01 3.05150E+01 0.00000E+00
 -1      3884 6.99000E+01 3.05150E+01 0.00000E+00
 -1      3885 6.76500E+01 2.92160E+01 0.00000E+00
 -1      3886 7.14000E+01 3.05150E+01 0.00000E+00
 -1      3887 7.29000E+01 3.05150E+01 0.00000E+00
 -1      3888 7.06500E+01 2.92160E+01 0.00000E+00
 -1      3889 7.44000E+01 3.05150E+01 0.00000E+00
 -1      3890 7.59000E+01 3.05150E+01 0.00000E+00
 -1      3891 7.36500E+01 2.92160E+01 0.00000E+00
 -1      3892 7.74000E+01 3.05150E+01 0.00000E+00
 -1      3893 7.89000E+01 3.05150E+01 0.00000E+00
 -1      3894 7.66500E+01 2.92160E+01 0.00000E+00
 -1      3895 8.04000E+01 3.05150E+01 0.00000E+00
 -1      3896 8.19000E+01 3.05150E+01 0.00000E+00
 -1      3897 7.96500E+01 2.92160E+01 0.00000E+00
 -1      3898 8.34000E+01 3.05150E+01 0.00000E+00
 -1      3899 8.49000E+01 3.05150E+01 0.00000E+00
 -1      3900 8.26500E+01 2.92160E+01 0.00000E+00
 -1      3901 8.64000E+01 3.05150E+01 0.00000E+00
 -1      3902 8.79000E+01 3.05150E+01 0.00000E+00
 -1      3903 8.56500E+01 2.92160E+01 0.00000E+00
 -1      3904 8.94000E+01 3.05150E+01 0.00000E+00
 -1      3905 9.09000E+01 3.05150E+01 0.00000E+00
 -1      3906 8.86500E+01 2.92160E+01 0.00000E+00
 -1      3907 9.24000E+01 3.05150E+01 0.00000E+00
 -1      3908 9.39000E+01 3.05150E+01 0.00000E+00
 -1      3909 9.16500E+01 2.92160E+01 0.00000E+00
 -1      3910 9.54000E+01 3.05150E+01 0.00000E+00
 -1      3911 9.69000E+01 3.05150E+01 0.00000E+00
 -1      3912 9.46500E+01 2.92160E+01 0.00000E+00
 -1      3913 9.84000E+01 3.05150E+01 0.00000E+00
 -1      3914 9.99000E+01 3.05150E+01 0.00000E+00
 -1      3915 9.76500E+01 2.92160E+01 0.00000E+00
 -1      3916 1.01400E+02 3.05150E+01 0.00000E+00
 -1      3917 1.02900E+02 3.05150E+01 0.00000E+00
 -1      3918 1.00650E+02 2.92160E+01 0.00000E+00
 -1      3919 1.04400E+02 3.05150E+01 0.00000E+00
 -1      3920 1.05900E+02 3.05150E+01 0.00000E+00
 -1      3921 1.03650E+02 2.92160E+01 0.00000E+00
 -1      3922 1.07400E+02 3.05150E+01 0.00000E+00
 -1      3923 1.08900E+02 3.05150E+01 0.00000E+00
 -1      3924 1.06650E+02 2.92160E+01 0.00000E+00
 -1      3925 1.10400E+02 3.05150E+01 0.00000E+00
 -1      3926 1.11900E+02 3.05150E+01 0.00000E+00
 -1      3927 1.09650E+02 2.92160E+01 0.00000E+00
 -1      3928 1.13400E+02 3.05150E+01 0.00000E+00
 -1      3929 1.14900E+02 3.05150E+01 0.00000E+00
 -1      3930 1.12650E+02 2.92160E+01 0.00000E+00
 -1      3931 1.16400E+02 3.05150E+01 0.00000E+00
 -1      3932 1.17900E+02 3.05150E+01 0.00000E+00
 -1      3933 1.15650E+02 2.92160E+01 0.00000E+00
 -1      3934 1.19400E+02 3.05150E+01 0.00000E+00
 -1      3935 1.20900E+02 3.05150E+01 0.00000E+00
 -1      3936 1.18650E+02 2.92160E+01 0.00000E+00
 -1      3937 1.22400E+02 3.05150E+01 0.00000E+00
 -1      3938 1.23900E+02 3.05150E+01 0.00000E+00
 -1      3939 1.21650E+02 2.92160E+01 0.00000E+00
 -1      3940 1.25400E+02 3.05150E+01 0.00000E+00
 -1      3941 1.26900E+02 3.05150E+01 0.00000E+00
 -1      3942 1.24650E+02 2.92160E+01 0.00000E+00
 -1      3943 1.28400E+02 3.05150E+01 0.00000E+00
 -1      3944 1.29900E+02 3.05150E+01 0.00000E+00
 -1      3945 1.27650E+02 2.92160E+01 0.00000E+00
 -1      3946 5.94600E+01 1.80826E+01 0.00000E+00
 -1      3947 5.79600E+01 1.80826E+01 0.00000E+00
 -1      3948 5.72100E+01 1.93816E+01 0.00000E+00
 -1      3949 7.46475E+01 1.80826E+01 0.00000E+00
 -1      3950 7.30725E+01 1.80826E+01 0.00000E+00
 -1      3951 7.15725E+01 1.80826E+01 0.00000E+00
 -1      3952 7.00725E+01 1.80826E+01 0.00000E+00
 -1      3953 7.23600E+01 1.93816E+01 0.00000E+00
 -1      3954 8.06850E+01 1.80826E+01 0.00000E+00
 -1      3955 7.91850E+01 1.80826E+01 0.00000E+00
 -1      3956 8.36850E+01 1.80826E+01 0.00000E+00
 -1      3957 8.21850E+01 1.80826E+01 0.00000E+00
 -1      3958 8.14350E+01 1.93816E+01 0.00000E+00
 -1      3959 8.66850E+01 1.80826E+01 0.00000E+00
 -1      3960 8.51850E+01 1.80826E+01 0.00000E+00
 -1      3961 8.44350E+01 1.93816E+01 0.00000E+00
 -1      3962 8.96850E+01 1.80826E+01 0.00000E+00
 -1      3963 8.81850E+01 1.80826E+01 0.00000E+00
 -1      3964 8.74350E+01 1.93816E+01 0.00000E+00
 -1      3965 9.28350E+01 1.80826E+01 0.00000E+00
 -1      3966 9.12600E+01 1.80826E+01 0.00000E+00
 -1      3967 9.05100E+01 1.93816E+01 0.00000E+00
 -1      3968 9.58350E+01 1.80826E+01 0.00000E+00
 -1      3969 9.43350E+01 1.80826E+01 0.00000E+00
 -1      3970 9.35850E+01 1.93816E+01 0.00000E+00
 -1      3971 9.88350E+01 1.80826E+01 0.00000E+00
 -1      3972 9.73350E+01 1.80826E+01 0.00000E+00
 -1      3973 9.65850E+01 1.93816E+01 0.00000E+00
 -1      3974 1.01835E+02 1.80826E+01 0.00000E+00
 -1      3975 1.00335E+02 1.80826E+01 0.00000E+00
 -1      3976 9.95850E+01 1.93816E+01 0.00000E+00
 -1      3977 1.04835E+02 1.80826E+01 0.00000E+00
 -1      3978 1.03335E+02 1.80826E+01 0.00000E+00
 -1      3979 1.02585E+02 1.93816E+01 0.00000E+00
 -1      3980 1.07985E+02 1.80826E+01 0.00000E+00
 -1      3981 1.06410E+02 1.80826E+01 0.00000E+00
 -1      3982 1.05660E+02 1.93816E+01 0.00000E+00
 -1      3983 1.10985E+02 1.80826E+01 0.00000E+00
 -1      3984 1.09485E+02 1.80826E+01 0.00000E+00
 -1      3985 1.08735E+02 1.93816E+01 0.00000E+00
 -1      3986 1.13985E+02 1.80826E+01 0.00000E+00
 -1      3987 1.12485E+02 1.80826E+01 0.00000E+00
 -1      3988 1.11735E+02 1.93816E+01 0.00000E+00
 -1      3989 1.16985E+02 1.80826E+01 0.00000E+00
 -1      3990 1.15485E+02 1.80826E+01 0.00000E+00
 -1      3991 1.14735E+02 1.93816E+01 0.00000E+00
 -1      3992 1.19985E+02 1.80826E+01 0.00000E+00
 -1      3993 1.18485E+02 1.80826E+01 0.00000E+00
 -1      3994 1.17735E+02 1.93816E+01 0.00000E+00
 -1      3995 1.22985E+02 1.80826E+01 0.00000E+00
 -1      3996 1.21485E+02 1.80826E+01 0.00000E+00
 -1      3997 1.20735E+02 1.93816E+01 0.00000E+00
 -1      3998 1.26135E+02 1.80826E+01 0.00000E+00
 -1      3999 1.24560E+02 1.80826E+01 0.00000E+00
 -1      4000 1.23810E+02 1.93816E+01 0.00000E+00
 -1      4001 1.29135E+02 1.80826E+01 0.00000E+00
 -1      4002 1.27635E+02 1.80826E+01 0.00000E+00
 -1      4003 1.26885E+02 1.93816E+01 0.00000E+00
 -1      4004 1.33695E+02 1.74249E+01 0.00000E+00
 -1      4005 1.31232E+02 3.13507E+01 0.00000E+00
 -1      4006 7.76850E+01 1.80826E+01 0.00000E+00
 -1      4007 7.61850E+01 1.80826E+01 0.00000E+00
 -1      4008 7.84350E+01 1.93816E+01 0.00000E+00
 -1      4009 6.85725E+01 1.80826E+01 0.00000E+00
 -1      4010 6.70725E+01 1.80826E+01 0.00000E+00
 -1      4011 6.93600E+01 1.93816E+01 0.00000E+00
 -1      4012 4.85687E+01 1.66268E+01 0.00000E+00
 -1      4013 4.45079E+01 2.99783E+01 0.00000E+00
 -1      4014 4.60079E+01 2.99783E+01 0.00000E+00
 -1      4015 4.29344E+01 3.03762E+01 0.00000E+00
 -1      4016 1.33113E+02 2.86875E+01 0.00000E+00
 -1      4017 1.33113E+02 2.72188E+01 0.00000E+00
 -1      4018 1.31814E+02 2.64813E+01 0.00000E+00
 -1      4019 1.31814E+02 2.94188E+01 0.00000E+00
 -1      4020 6.24600E+01 1.80826E+01 0.00000E+00
 -1      4021 6.09600E+01 1.80826E+01 0.00000E+00
 -1      4022 6.02100E+01 1.93816E+01 0.00000E+00
 -1      4023 4.73602E+01 2.31065E+01 0.00000E+00
 -1      4024 4.67237E+01 2.48994E+01 0.00000E+00
 -1      4025 6.55350E+01 1.80826E+01 0.00000E+00
 -1      4026 6.39975E+01 1.80826E+01 0.00000E+00
 -1      4027 6.63225E+01 1.93816E+01 0.00000E+00
 -1      4028 4.84083E+01 2.07792E+01 0.00000E+00
 -1      4029 4.78843E+01 2.19428E+01 0.00000E+00
 -1      4030 4.87902E+01 2.32739E+01 0.00000E+00
 -1      4031 1.32396E+02 1.81624E+01 0.00000E+00
 -1      4032 4.67579E+01 2.86793E+01 0.00000E+00
 -1      4033 1.30896E+02 1.81624E+01 0.00000E+00
 -1      4034 6.32475E+01 1.93816E+01 0.00000E+00
 -1      4035 7.53975E+01 1.93816E+01 0.00000E+00
 -1      4036 1.30539E+02 2.13935E+01 0.00000E+00
 -1      4037 1.30586E+02 2.01266E+01 0.00000E+00
 -1      4038 4.98481E+01 1.69075E+01 0.00000E+00
 -1      4039 4.93242E+01 1.78734E+01 0.00000E+00
 -1      4040 5.11274E+01 1.71882E+01 0.00000E+00
 -1      4041 4.90530E+01 1.88012E+01 0.00000E+00
 -1      4042 4.87818E+01 1.97289E+01 0.00000E+00
 -1      4043 5.03324E+01 1.90818E+01 0.00000E+00
 -1      4044 4.66947E+01 2.60940E+01 0.00000E+00
 -1      4045 4.67870E+01 2.74847E+01 0.00000E+00
 -1      4046 4.81790E+01 2.80214E+01 0.00000E+00
 -1      4047 4.82371E+01 2.56321E+01 0.00000E+00
 -1      4048 4.96877E+01 2.10599E+01 0.00000E+00
 -1      4049 5.36806E+01 1.78020E+01 0.00000E+00
 -1      4050 5.24013E+01 1.75213E+01 0.00000E+00
 -1      4051 5.44306E+01 1.91010E+01 0.00000E+00
 -1      4052 1.30539E+02 2.43310E+01 0.00000E+00
 -1      4053 1.30539E+02 2.28623E+01 0.00000E+00
 -1      4054 1.29265E+02 2.21808E+01 0.00000E+00
 -1      4055 1.30482E+02 3.00518E+01 0.00000E+00
 -1      4056 1.30482E+02 2.85830E+01 0.00000E+00
 -1      4057 5.79600E+01 2.06806E+01 0.00000E+00
 -1      4058 5.64600E+01 2.06806E+01 0.00000E+00
 -1      4059 1.29066E+02 2.81651E+01 0.00000E+00
 -1      4060 1.30398E+02 2.75321E+01 0.00000E+00
 -1      4061 1.30398E+02 2.60634E+01 0.00000E+00
 -1      4062 1.27566E+02 2.81651E+01 0.00000E+00
 -1      4063 5.19000E+01 2.79170E+01 0.00000E+00
 -1      4064 5.34000E+01 2.79170E+01 0.00000E+00
 -1      4065 5.49000E+01 2.79170E+01 0.00000E+00
 -1      4066 5.64000E+01 2.79170E+01 0.00000E+00
 -1      4067 5.41500E+01 2.66180E+01 0.00000E+00
 -1      4068 5.79000E+01 2.79170E+01 0.00000E+00
 -1      4069 5.94000E+01 2.79170E+01 0.00000E+00
 -1      4070 5.71500E+01 2.66180E+01 0.00000E+00
 -1      4071 6.09000E+01 2.79170E+01 0.00000E+00
 -1      4072 6.24000E+01 2.79170E+01 0.00000E+00
 -1      4073 6.01500E+01 2.66180E+01 0.00000E+00
 -1      4074 6.39000E+01 2.79170E+01 0.00000E+00
 -1      4075 6.54000E+01 2.79170E+01 0.00000E+00
 -1      4076 6.31500E+01 2.66180E+01 0.00000E+00
 -1      4077 6.69000E+01 2.79170E+01 0.00000E+00
 -1      4078 6.84000E+01 2.79170E+01 0.00000E+00
 -1      4079 6.61500E+01 2.66180E+01 0.00000E+00
 -1      4080 6.99000E+01 2.79170E+01 0.00000E+00
 -1      4081 7.14000E+01 2.79170E+01 0.00000E+00
 -1      4082 6.91500E+01 2.66180E+01 0.00000E+00
 -1      4083 7.29000E+01 2.79170E+01 0.00000E+00
 -1      4084 7.44000E+01 2.79170E+01 0.00000E+00
 -1      4085 7.21500E+01 2.66180E+01 0.00000E+00
 -1      4086 7.59000E+01 2.79170E+01 0.00000E+00
 -1      4087 7.74000E+01 2.79170E+01 0.00000E+00
 -1      4088 7.51500E+01 2.66180E+01 0.00000E+00
 -1      4089 7.89000E+01 2.79170E+01 0.00000E+00
 -1      4090 8.04000E+01 2.79170E+01 0.00000E+00
 -1      4091 7.81500E+01 2.66180E+01 0.00000E+00
 -1      4092 8.19000E+01 2.79170E+01 0.00000E+00
 -1      4093 8.34000E+01 2.79170E+01 0.00000E+00
 -1      4094 8.11500E+01 2.66180E+01 0.00000E+00
 -1      4095 8.49000E+01 2.79170E+01 0.00000E+00
 -1      4096 8.64000E+01 2.79170E+01 0.00000E+00
 -1      4097 8.41500E+01 2.66180E+01 0.00000E+00
 -1      4098 8.79000E+01 2.79170E+01 0.00000E+00
 -1      4099 8.94000E+01 2.79170E+01 0.00000E+00
 -1      4100 8.71500E+01 2.66180E+01 0.00000E+00
 -1      4101 9.09000E+01 2.79170E+01 0.00000E+00
 -1      4102 9.24000E+01 2.79170E+01 0.00000E+00
 -1      4103 9.01500E+01 2.66180E+01 0.00000E+00
 -1      4104 9.39000E+01 2.79170E+01 0.00000E+00
 -1      4105 9.54000E+01 2.79170E+01 0.00000E+00
 -1      4106 9.31500E+01 2.66180E+01 0.00000E+00
 -1      4107 9.69000E+01 2.79170E+01 0.00000E+00
 -1      4108 9.84000E+01 2.79170E+01 0.00000E+00
 -1      4109 9.61500E+01 2.66180E+01 0.00000E+00
 -1      4110 9.99000E+01 2.79170E+01 0.00000E+00
 -1      4111 1.01400E+02 2.79170E+01 0.00000E+00
 -1      4112 9.91500E+01 2.66180E+01 0.00000E+00
 -1      4113 1.02900E+02 2.79170E+01 0.00000E+00
 -1      4114 1.04400E+02 2.79170E+01 0.00000E+00
 -1      4115 1.02150E+02 2.66180E+01 0.00000E+00
 -1      4116 1.05900E+02 2.79170E+01 0.00000E+00
 -1      4117 1.07400E+02 2.79170E+01 0.00000E+00
 -1      4118 1.05150E+02 2.66180E+01 0.00000E+00
 -1      4119 1.08900E+02 2.79170E+01 0.00000E+00
 -1      4120 1.10400E+02 2.79170E+01 0.00000E+00
 -1      4121 1.08150E+02 2.66180E+01 0.00000E+00
 -1      4122 1.11900E+02 2.79170E+01 0.00000E+00
 -1      4123 1.13400E+02 2.79170E+01 0.00000E+00
 -1      4124 1.11150E+02 2.66180E+01 0.00000E+00
 -1      4125 1.14900E+02 2.79170E+01 0.00000E+00
 -1      4126 1.16400E+02 2.79170E+01 0.00000E+00
 -1      4127 1.14150E+02 2.66180E+01 0.00000E+00
 -1      4128 1.17900E+02 2.79170E+01 0.00000E+00
 -1      4129 1.19400E+02 2.79170E+01 0.00000E+00
 -1      4130 1.17150E+02 2.66180E+01 0.00000E+00
 -1      4131 1.20900E+02 2.79170E+01 0.00000E+00
 -1      4132 1.22400E+02 2.79170E+01 0.00000E+00
 -1      4133 1.20150E+02 2.66180E+01 0.00000E+00
 -1      4134 1.23900E+02 2.79170E+01 0.00000E+00
 -1      4135 1.25400E+02 2.79170E+01 0.00000E+00
 -1      4136 1.23150E+02 2.66180E+01 0.00000E+00
 -1      4137 5.10984E+01 2.09699E+01 0.00000E+00
 -1      4138 5.07249E+01 2.20202E+01 0.00000E+00
 -1      4139 8.51850E+01 2.06806E+01 0.00000E+00
 -1      4140 8.36850E+01 2.06806E+01 0.00000E+00
 -1      4141 8.21850E+01 2.06806E+01 0.00000E+00
 -1      4142 8.06850E+01 2.06806E+01 0.00000E+00
 -1      4143 8.29350E+01 2.19796E+01 0.00000E+00
 -1      4144 9.12975E+01 2.06806E+01 0.00000E+00
 -1      4145 8.97225E+01 2.06806E+01 0.00000E+00
 -1      4146 9.42975E+01 2.06806E+01 0.00000E+00
 -1      4147 9.27975E+01 2.06806E+01 0.00000E+00
 -1      4148 9.20100E+01 2.19796E+01 0.00000E+00
 -1      4149 9.72975E+01 2.06806E+01 0.00000E+00
 -1      4150 9.57975E+01 2.06806E+01 0.00000E+00
 -1      4151 9.50100E+01 2.19796E+01 0.00000E+00
 -1      4152 1.00298E+02 2.06806E+01 0.00000E+00
 -1      4153 9.87975E+01 2.06806E+01 0.00000E+00
 -1      4154 9.80100E+01 2.19796E+01 0.00000E+00
 -1      4155 1.03298E+02 2.06806E+01 0.00000E+00
 -1      4156 1.01798E+02 2.06806E+01 0.00000E+00
 -1      4157 1.01010E+02 2.19796E+01 0.00000E+00
 -1      4158 1.06448E+02 2.06806E+01 0.00000E+00
 -1      4159 1.04872E+02 2.06806E+01 0.00000E+00
 -1      4160 1.04085E+02 2.19796E+01 0.00000E+00
 -1      4161 1.09448E+02 2.06806E+01 0.00000E+00
 -1      4162 1.07948E+02 2.06806E+01 0.00000E+00
 -1      4163 1.07160E+02 2.19796E+01 0.00000E+00
 -1      4164 1.12448E+02 2.06806E+01 0.00000E+00
 -1      4165 1.10948E+02 2.06806E+01 0.00000E+00
 -1      4166 1.10160E+02 2.19796E+01 0.00000E+00
 -1      4167 1.15448E+02 2.06806E+01 0.00000E+00
 -1      4168 1.13948E+02 2.06806E+01 0.00000E+00
 -1      4169 1.13160E+02 2.19796E+01 0.00000E+00
 -1      4170 1.18448E+02 2.06806E+01 0.00000E+00
 -1      4171 1.16948E+02 2.06806E+01 0.00000E+00
 -1      4172 1.16160E+02 2.19796E+01 0.00000E+00
 -1      4173 1.21448E+02 2.06806E+01 0.00000E+00
 -1      4174 1.19948E+02 2.06806E+01 0.00000E+00
 -1      4175 1.19160E+02 2.19796E+01 0.00000E+00
 -1      4176 1.24598E+02 2.06806E+01 0.00000E+00
 -1      4177 1.23022E+02 2.06806E+01 0.00000E+00
 -1      4178 1.22235E+02 2.19796E+01 0.00000E+00
 -1      4179 1.30146E+02 1.94614E+01 0.00000E+00
 -1      4180 7.91850E+01 2.06806E+01 0.00000E+00
 -1      4181 7.76850E+01 2.06806E+01 0.00000E+00
 -1      4182 7.99350E+01 2.19796E+01 0.00000E+00
 -1      4183 5.02008E+01 2.31839E+01 0.00000E+00
 -1      4184 4.96768E+01 2.43475E+01 0.00000E+00
 -1      4185 5.16115E+01 2.30939E+01 0.00000E+00
 -1      4186 7.01100E+01 2.06806E+01 0.00000E+00
 -1      4187 6.86100E+01 2.06806E+01 0.00000E+00
 -1      4188 4.96790E+01 2.80214E+01 0.00000E+00
 -1      4189 8.81850E+01 2.06806E+01 0.00000E+00
 -1      4190 8.66850E+01 2.06806E+01 0.00000E+00
 -1      4191 8.59350E+01 2.19796E+01 0.00000E+00
 -1      4192 6.70725E+01 2.06806E+01 0.00000E+00
 -1      4193 6.55350E+01 2.06806E+01 0.00000E+00
 -1      4194 6.78225E+01 2.19796E+01 0.00000E+00
 -1      4195 6.39975E+01 2.06806E+01 0.00000E+00
 -1      4196 6.24600E+01 2.06806E+01 0.00000E+00
 -1      4197 6.47475E+01 2.19796E+01 0.00000E+00
 -1      4198 7.61475E+01 2.06806E+01 0.00000E+00
 -1      4199 7.46100E+01 2.06806E+01 0.00000E+00
 -1      4200 7.68975E+01 2.19796E+01 0.00000E+00
 -1      4201 6.09600E+01 2.06806E+01 0.00000E+00
 -1      4202 5.94600E+01 2.06806E+01 0.00000E+00
 -1      4203 6.17100E+01 2.19796E+01 0.00000E+00
 -1      4204 7.31100E+01 2.06806E+01 0.00000E+00
 -1      4205 7.16100E+01 2.06806E+01 0.00000E+00
 -1      4206 7.08600E+01 2.19796E+01 0.00000E+00
 -1      4207 7.38600E+01 2.19796E+01 0.00000E+00
 -1      4208 1.29123E+02 2.53819E+01 0.00000E+00
 -1      4209 5.16062E+01 1.94149E+01 0.00000E+00
 -1      4210 5.26434E+01 2.03753E+01 0.00000E+00
 -1      4211 1.26816E+02 2.68661E+01 0.00000E+00
 -1      4212 8.89725E+01 2.19796E+01 0.00000E+00
 -1      4213 5.87100E+01 2.19796E+01 0.00000E+00
 -1      4214 4.96477E+01 2.55421E+01 0.00000E+00
 -1      4215 1.27635E+02 2.06806E+01 0.00000E+00
 -1      4216 1.26135E+02 2.06806E+01 0.00000E+00
 -1      4217 1.25348E+02 2.19796E+01 0.00000E+00
 -1      4218 5.11187E+01 2.67367E+01 0.00000E+00
 -1      4219 5.57100E+01 2.19797E+01 0.00000E+00
 -1      4220 5.49600E+01 2.06807E+01 0.00000E+00
 -1      4221 5.36807E+01 2.04000E+01 0.00000E+00
 -1      4222 5.18774E+01 1.84872E+01 0.00000E+00
 -1      4223 5.34000E+01 2.53190E+01 0.00000E+00
 -1      4224 5.49000E+01 2.53190E+01 0.00000E+00
 -1      4225 5.64300E+01 2.42988E+01 0.00000E+00
 -1      4226 5.79300E+01 2.42988E+01 0.00000E+00
 -1      4227 5.94300E+01 2.42988E+01 0.00000E+00
 -1      4228 6.09300E+01 2.42988E+01 0.00000E+00
 -1      4229 6.24300E+01 2.42988E+01 0.00000E+00
 -1      4230 6.39300E+01 2.42988E+01 0.00000E+00
 -1      4231 6.54675E+01 2.42988E+01 0.00000E+00
 -1      4232 6.69675E+01 2.42988E+01 0.00000E+00
 -1      4233 6.85050E+01 2.42988E+01 0.00000E+00
 -1      4234 7.00050E+01 2.42988E+01 0.00000E+00
 -1      4235 7.15050E+01 2.42988E+01 0.00000E+00
 -1      4236 7.30050E+01 2.42988E+01 0.00000E+00
 -1      4237 7.45050E+01 2.42988E+01 0.00000E+00
 -1      4238 7.60050E+01 2.42988E+01 0.00000E+00
 -1      4239 7.75425E+01 2.42988E+01 0.00000E+00
 -1      4240 7.90425E+01 2.42988E+01 0.00000E+00
 -1      4241 8.05425E+01 2.42988E+01 0.00000E+00
 -1      4242 8.20425E+01 2.42988E+01 0.00000E+00
 -1      4243 8.35425E+01 2.42988E+01 0.00000E+00
 -1      4244 8.50425E+01 2.42988E+01 0.00000E+00
 -1      4245 8.65425E+01 2.42988E+01 0.00000E+00
 -1      4246 8.80425E+01 2.42988E+01 0.00000E+00
 -1      4247 8.95800E+01 2.42988E+01 0.00000E+00
 -1      4248 9.10800E+01 2.42988E+01 0.00000E+00
 -1      4249 9.25800E+01 2.42988E+01 0.00000E+00
 -1      4250 9.40800E+01 2.42988E+01 0.00000E+00
 -1      4251 9.55800E+01 2.42988E+01 0.00000E+00
 -1      4252 9.70800E+01 2.42988E+01 0.00000E+00
 -1      4253 9.85800E+01 2.42988E+01 0.00000E+00
 -1      4254 1.00080E+02 2.42988E+01 0.00000E+00
 -1      4255 1.01580E+02 2.42988E+01 0.00000E+00
 -1      4256 1.03080E+02 2.42988E+01 0.00000E+00
 -1      4257 1.04655E+02 2.42988E+01 0.00000E+00
 -1      4258 1.06155E+02 2.42988E+01 0.00000E+00
 -1      4259 1.07655E+02 2.42988E+01 0.00000E+00
 -1      4260 1.09155E+02 2.42988E+01 0.00000E+00
 -1      4261 1.10655E+02 2.42988E+01 0.00000E+00
 -1      4262 1.12155E+02 2.42988E+01 0.00000E+00
 -1      4263 1.13655E+02 2.42988E+01 0.00000E+00
 -1      4264 1.15155E+02 2.42988E+01 0.00000E+00
 -1      4265 1.16655E+02 2.42988E+01 0.00000E+00
 -1      4266 1.18155E+02 2.42988E+01 0.00000E+00
 -1      4267 1.19655E+02 2.42988E+01 0.00000E+00
 -1      4268 1.21155E+02 2.42988E+01 0.00000E+00
 -1      4269 1.22730E+02 2.42988E+01 0.00000E+00
 -1      4270 1.24230E+02 2.42988E+01 0.00000E+00
 -1      4271 1.26957E+02 2.51338E+01 0.00000E+00
 -1      4272 1.28825E+02 2.00468E+01 0.00000E+00
 -1      4273 1.28075E+02 2.13458E+01 0.00000E+00
 -1      4274 5.31428E+01 2.29751E+01 0.00000E+00
 -1      4275 5.26187E+01 2.41388E+01 0.00000E+00
 -1      4276 1.28075E+02 2.28146E+01 0.00000E+00
 -1      4277 5.31728E+01 2.19550E+01 0.00000E+00
 -1      4278 5.41800E+01 2.29998E+01 0.00000E+00
 -1      4279 1.25768E+02 2.42988E+01 0.00000E+00
 -1      4280 5.18687E+01 2.54377E+01 0.00000E+00
 -1      4281 5.56800E+01 2.29998E+01 0.00000E+00
 -3
    3C                          2059                                     1
 -1       164    8    0    1
 -2         6         7        23      1112      1275      1129
 -1       165    8    0    1
 -2         7         8       164      1113      1276      1277
 -1       166    8    0    1
 -2         8         9       165      1114      1278      1279
 -1       167    8    0    1
 -2         8       165       164      1279      1280      1276
 -1       168    8    0    1
 -2         9        10       166      1115      1281      1282
 -1       169    8    0    1
 -2         9       166       165      1282      1283      1278
 -1       170    8    0    1
 -2        10        11       167      1116      1284      1285
 -1       171    8    0    1
 -2        10       167       166      1285      1286      1281
 -1       172    8    0    1
 -2        11        12       168      1117      1287      1288
 -1       173    8    0    1
 -2        11       168       167      1288      1289      1284
 -1       174    8    0    1
 -2        12        13       169      1118      1290      1291
 -1       175    8    0    1
 -2        12       169       168      1291      1292      1287
 -1       176    8    0    1
 -2        13        14       170      1119      1293      1294
 -1       177    8    0    1
 -2        13       170       169      1294      1295      1290
 -1       178    8    0    1
 -2        14        15       171      1120      1296      1297
 -1       179    8    0    1
 -2        14       171       170      1297      1298      1293
 -1       180    8    0    1
 -2        15        16       172      1121      1299      1300
 -1       181    8    0    1
 -2        15       172       171      1300      1301      1296
 -1       182    8    0    1
 -2        16        17       173      1122      1302      1303
 -1       183    8    0    1
 -2        16       173       172      1303      1304      1299
 -1       184    8    0    1
 -2        17        18       174      1123      1305      1306
 -1       185    8    0    1
 -2        17       174       173      1306      1307      1302
 -1       186    8    0    1
 -2        18        19       175      1124      1308      1309
 -1       187    8    0    1
 -2        18       175       174      1309      1310      1305
 -1       188    8    0    1
 -2        19        20       176      1125      1311      1312
 -1       189    8    0    1
 -2        19       176       175      1312      1313      1308
 -1       190    8    0    1
 -2        20        21       177      1126      1314      1315
 -1       191    8    0    1
 -2        20       177       176      1315      1316      1311
 -1       192    8    0    1
 -2        21        22       178      1127      1317      1318
 -1       193    8    0    1
 -2        21       178       177      1318      1319      1314
 -1       194    8    0    1
 -2        22         5       179      1128      1320      1321
 -1       195    8    0    1
 -2       178        22       179      1317      1321      1322
 -1       196    8    0    1
 -2         5        72       179      1179      1323      1320
 -1       197    8    0    1
 -2        24        23       180      1130      1324      1325
 -1       198    8    0    1
 -2        25        24       181      1131      1326      1327
 -1       199    8    0    1
 -2        24       180       181      1325      1328      1326
 -1       200    8    0    1
 -2        26        25       182      1132      1329      1330
 -1       201    8    0    1
 -2        25       181       182      1327      1331      1329
 -1       202    8    0    1
 -2        27        26       183      1133      1332      1333
 -1       203    8    0    1
 -2        26       182       183      1330      1334      1332
 -1       204    8    0    1
 -2        28        27       184      1134      1335      1336
 -1       205    8    0    1
 -2        27       183       184      1333      1337      1335
 -1       206    8    0    1
 -2        29        28       185      1135      1338      1339
 -1       207    8    0    1
 -2        28       184       185      1336      1340      1338
 -1       208    8    0    1
 -2        30        29       186      1136      1341      1342
 -1       209    8    0    1
 -2        29       185       186      1339      1343      1341
 -1       210    8    0    1
 -2        31        30       187      1137      1344      1345
 -1       211    8    0    1
 -2        30       186       187      1342      1346      1344
 -1       212    8    0    1
 -2        32        31       188      1138      1347      1348
 -1       213    8    0    1
 -2        31       187       188      1345      1349      1347
 -1       214    8    0    1
 -2        33        32       189      1139      1350      1351
 -1       215    8    0    1
 -2        32       188       189      1348      1352      1350
 -1       216    8    0    1
 -2        34        33       190      1140      1353      1354
 -1       217    8    0    1
 -2        33       189       190      1351      1355      1353
 -1       218    8    0    1
 -2        35        34       191      1141      1356      1357
 -1       219    8    0    1
 -2        34       190       191      1354      1358      1356
 -1       220    8    0    1
 -2        36        35       192      1142      1359      1360
 -1       221    8    0    1
 -2        35       191       192      1357      1361      1359
 -1       222    8    0    1
 -2        37        36       193      1143      1362      1363
 -1       223    8    0    1
 -2        36       192       193      1360      1364      1362
 -1       224    8    0    1
 -2        38        37       194      1144      1365      1366
 -1       225    8    0    1
 -2        37       193       194      1363      1367      1365
 -1       226    8    0    1
 -2        39        38       195      1145      1368      1369
 -1       227    8    0    1
 -2        38       194       195      1366      1370      1368
 -1       228    8    0    1
 -2        40        39       196      1146      1371      1372
 -1       229    8    0    1
 -2        39       195       196      1369      1373      1371
 -1       230    8    0    1
 -2        41        40       197      1147      1374      1375
 -1       231    8    0    1
 -2        40       196       197      1372      1376      1374
 -1       232    8    0    1
 -2        42        41       198      1148      1377      1378
 -1       233    8    0    1
 -2        41       197       198      1375      1379      1377
 -1       234    8    0    1
 -2        43        42       199      1149      1380      1381
 -1       235    8    0    1
 -2        42       198       199      1378      1382      1380
 -1       236    8    0    1
 -2        44        43       200      1150      1383      1384
 -1       237    8    0    1
 -2        43       199       200      1381      1385      1383
 -1       238    8    0    1
 -2        45        44       201      1151      1386      1387
 -1       239    8    0    1
 -2        44       200       201      1384      1388      1386
 -1       240    8    0    1
 -2        46        45       202      1152      1389      1390
 -1       241    8    0    1
 -2        45       201       202      1387      1391      1389
 -1       242    8    0    1
 -2        47        46       203      1153      1392      1393
 -1       243    8    0    1
 -2        46       202       203      1390      1394      1392
 -1       244    8    0    1
 -2        48        47       204      1154      1395      1396
 -1       245    8    0    1
 -2        47       203       204      1393      1397      1395
 -1       246    8    0    1
 -2        49        48       205      1155      1398      1399
 -1       247    8    0    1
 -2        48       204       205      1396      1400      1398
 -1       248    8    0    1
 -2        50        49       206      1156      1401      1402
 -1       249    8    0    1
 -2        49       205       206      1399      1403      1401
 -1       250    8    0    1
 -2        51        50       207      1157      1404      1405
 -1       251    8    0    1
 -2        50       206       207      1402      1406      1404
 -1       252    8    0    1
 -2        52        51       208      1158      1407      1408
 -1       253    8    0    1
 -2        51       207       208      1405      1409      1407
 -1       254    8    0    1
 -2        53        52       209      1159      1410      1411
 -1       255    8    0    1
 -2        52       208       209      1408      1412      1410
 -1       256    8    0    1
 -2        54        53       210      1160      1413      1414
 -1       257    8    0    1
 -2        53       209       210      1411      1415      1413
 -1       258    8    0    1
 -2        55        54       211      1161      1416      1417
 -1       259    8    0    1
 -2        54       210       211      1414      1418      1416
 -1       260    8    0    1
 -2        56        55       212      1162      1419      1420
 -1       261    8    0    1
 -2        55       211       212      1417      1421      1419
 -1       262    8    0    1
 -2        57        56       213      1163      1422      1423
 -1       263    8    0    1
 -2        56       212       213      1420      1424      1422
 -1       264    8    0    1
 -2        58        57       214      1164      1425      1426
 -1       265    8    0    1
 -2        57       213       214      1423      1427      1425
 -1       266    8    0    1
 -2        59        58       215      1165      1428      1429
 -1       267    8    0    1
 -2        58       214       215      1426      1430      1428
 -1       268    8    0    1
 -2        60        59       216      1166      1431      1432
 -1       269    8    0    1
 -2        59       215       216      1429      1433      1431
 -1       270    8    0    1
 -2        61        60       217      1167      1434      1435
 -1       271    8    0    1
 -2        60       216       217      1432      1436      1434
 -1       272    8    0    1
 -2        62        61       218      1168      1437      1438
 -1       273    8    0    1
 -2        61       217       218      1435      1439      1437
 -1       274    8    0    1
 -2        63        62       219      1169      1440      1441
 -1       275    8    0    1
 -2        62       218       219      1438      1442      1440
 -1       276    8    0    1
 -2        64        63       220      1170      1443      1444
 -1       277    8    0    1
 -2        63       219       220      1441      1445      1443
 -1       278    8    0    1
 -2        65        64       221      1171      1446      1447
 -1       279    8    0    1
 -2        64       220       221      1444      1448      1446
 -1       280    8    0    1
 -2        66        65       222      1172      1449      1450
 -1       281    8    0    1
 -2        65       221       222      1447      1451      1449
 -1       282    8    0    1
 -2        67        66       223      1173      1452      1453
 -1       283    8    0    1
 -2        66       222       223      1450      1454      1452
 -1       284    8    0    1
 -2        68        67       224      1174      1455      1456
 -1       285    8    0    1
 -2        67       223       224      1453      1457      1455
 -1       286    8    0    1
 -2        69        68       225      1175      1458      1459
 -1       287    8    0    1
 -2        68       224       225      1456      1460      1458
 -1       288    8    0    1
 -2        70        69       226      1176      1461      1462
 -1       289    8    0    1
 -2        69       225       226      1459      1463      1461
 -1       290    8    0    1
 -2        71        70       227      1177      1464      1465
 -1       291    8    0    1
 -2        70       226       227      1462      1466      1464
 -1       292    8    0    1
 -2         4        71       136      1178      1467      1245
 -1       293    8    0    1
 -2       136        71       227      1467      1465      1468
 -1       294    8    0    1
 -2        72        73       228      1180      1469      1470
 -1       295    8    0    1
 -2        72       228       179      1470      1471      1323
 -1       296    8    0    1
 -2        73        74       229      1181      1472      1473
 -1       297    8    0    1
 -2        73       229       228      1473      1474      1469
 -1       298    8    0    1
 -2        74        75       230      1182      1475      1476
 -1       299    8    0    1
 -2        74       230       229      1476      1477      1472
 -1       300    8    0    1
 -2        75        76       231      1183      1478      1479
 -1       301    8    0    1
 -2        75       231       230      1479      1480      1475
 -1       302    8    0    1
 -2        76        77       232      1184      1481      1482
 -1       303    8    0    1
 -2        76       232       231      1482      1483      1478
 -1       304    8    0    1
 -2        77        78       233      1185      1484      1485
 -1       305    8    0    1
 -2        77       233       232      1485      1486      1481
 -1       306    8    0    1
 -2        78        79       234      1186      1487      1488
 -1       307    8    0    1
 -2        78       234       233      1488      1489      1484
 -1       308    8    0    1
 -2        79        80       235      1187      1490      1491
 -1       309    8    0    1
 -2        79       235       234      1491      1492      1487
 -1       310    8    0    1
 -2        80        81       236      1188      1493      1494
 -1       311    8    0    1
 -2        80       236       235      1494      1495      1490
 -1       312    8    0    1
 -2        81        82       237      1189      1496      1497
 -1       313    8    0    1
 -2        81       237       236      1497      1498      1493
 -1       314    8    0    1
 -2        82        83       238      1190      1499      1500
 -1       315    8    0    1
 -2        82       238       237      1500      1501      1496
 -1       316    8    0    1
 -2        83        84       239      1191      1502      1503
 -1       317    8    0    1
 -2        83       239       238      1503      1504      1499
 -1       318    8    0    1
 -2        84        85       240      1192      1505      1506
 -1       319    8    0    1
 -2        84       240       239      1506      1507      1502
 -1       320    8    0    1
 -2        85        86       241      1193      1508      1509
 -1       321    8    0    1
 -2        85       241       240      1509      1510      1505
 -1       322    8    0    1
 -2        86        87       242      1194      1511      1512
 -1       323    8    0    1
 -2        86       242       241      1512      1513      1508
 -1       324    8    0    1
 -2        87        88       243      1195      1514      1515
 -1       325    8    0    1
 -2        87       243       242      1515      1516      1511
 -1       326    8    0    1
 -2        88        89       244      1196      1517      1518
 -1       327    8    0    1
 -2        88       244       243      1518      1519      1514
 -1       328    8    0    1
 -2        89        90       245      1197      1520      1521
 -1       329    8    0    1
 -2        89       245       244      1521      1522      1517
 -1       330    8    0    1
 -2        90        91       246      1198      1523      1524
 -1       331    8    0    1
 -2        90       246       245      1524      1525      1520
 -1       332    8    0    1
 -2        91        92       247      1199      1526      1527
 -1       333    8    0    1
 -2        91       247       246      1527      1528      1523
 -1       334    8    0    1
 -2        92        93       248      1200      1529      1530
 -1       335    8    0    1
 -2        92       248       247      1530      1531      1526
 -1       336    8    0    1
 -2        93        94       249      1201      1532      1533
 -1       337    8    0    1
 -2        93       249       248      1533      1534      1529
 -1       338    8    0    1
 -2        94        95       250      1202      1535      1536
 -1       339    8    0    1
 -2        94       250       249      1536      1537      1532
 -1       340    8    0    1
 -2        95        96       251      1203      1538      1539
 -1       341    8    0    1
 -2        95       251       250      1539      1540      1535
 -1       342    8    0    1
 -2        96        97       252      1204      1541      1542
 -1       343    8    0    1
 -2        96       252       251      1542      1543      1538
 -1       344    8    0    1
 -2        97        98       253      1205      1544      1545
 -1       345    8    0    1
 -2        97       253       252      1545      1546      1541
 -1       346    8    0    1
 -2        98        99       254      1206      1547      1548
 -1       347    8    0    1
 -2        98       254       253      1548      1549      1544
 -1       348    8    0    1
 -2        99       100       255      1207      1550      1551
 -1       349    8    0    1
 -2        99       255       254      1551      1552      1547
 -1       350    8    0    1
 -2       100       101       256      1208      1553      1554
 -1       351    8    0    1
 -2       100       256       255      1554      1555      1550
 -1       352    8    0    1
 -2       101       102       257      1209      1556      1557
 -1       353    8    0    1
 -2       101       257       256      1557      1558      1553
 -1       354    8    0    1
 -2       102       103       258      1210      1559      1560
 -1       355    8    0    1
 -2       102       258       257      1560      1561      1556
 -1       356    8    0    1
 -2       103       104       259      1211      1562      1563
 -1       357    8    0    1
 -2       103       259       258      1563      1564      1559
 -1       358    8    0    1
 -2       104       105       260      1212      1565      1566
 -1       359    8    0    1
 -2       104       260       259      1566      1567      1562
 -1       360    8    0    1
 -2       105       106       261      1213      1568      1569
 -1       361    8    0    1
 -2       105       261       260      1569      1570      1565
 -1       362    8    0    1
 -2       106       107       262      1214      1571      1572
 -1       363    8    0    1
 -2       106       262       261      1572      1573      1568
 -1       364    8    0    1
 -2       107       108       263      1215      1574      1575
 -1       365    8    0    1
 -2       107       263       262      1575      1576      1571
 -1       366    8    0    1
 -2       108       109       264      1216      1577      1578
 -1       367    8    0    1
 -2       108       264       263      1578      1579      1574
 -1       368    8    0    1
 -2       109       110       265      1217      1580      1581
 -1       369    8    0    1
 -2       109       265       264      1581      1582      1577
 -1       370    8    0    1
 -2       110       111       266      1218      1583      1584
 -1       371    8    0    1
 -2       110       266       265      1584      1585      1580
 -1       372    8    0    1
 -2       111       112       267      1219      1586      1587
 -1       373    8    0    1
 -2       111       267       266      1587      1588      1583
 -1       374    8    0    1
 -2       112       113       268      1220      1589      1590
 -1       375    8    0    1
 -2       112       268       267      1590      1591      1586
 -1       376    8    0    1
 -2       113       114       269      1221      1592      1593
 -1       377    8    0    1
 -2       113       269       268      1593      1594      1589
 -1       378    8    0    1
 -2       114       115       270      1222      1595      1596
 -1       379    8    0    1
 -2       114       270       269      1596      1597      1592
 -1       380    8    0    1
 -2       115       116       271      1223      1598      1599
 -1       381    8    0    1
 -2       115       271       270      1599      1600      1595
 -1       382    8    0    1
 -2       116       117       272      1224      1601      1602
 -1       383    8    0    1
 -2       116       272       271      1602      1603      1598
 -1       384    8    0    1
 -2       117       118       273      1225      1604      1605
 -1       385    8    0    1
 -2       117       273       272      1605      1606      1601
 -1       386    8    0    1
 -2       118       119       274      1226      1607      1608
 -1       387    8    0    1
 -2       118       274       273      1608      1609      1604
 -1       388    8    0    1
 -2       119       120       275      1227      1610      1611
 -1       389    8    0    1
 -2       119       275       274      1611      1612      1607
 -1       390    8    0    1
 -2       120         3       121      1228      1229      1613
 -1       391    8    0    1
 -2       121       122       276      1230      1614      1615
 -1       392    8    0    1
 -2       122       123       277      1231      1616      1617
 -1       393    8    0    1
 -2       122       277       276      1617      1618      1614
 -1       394    8    0    1
 -2       123       124       278      1232      1619      1620
 -1       395    8    0    1
 -2       123       278       277      1620      1621      1616
 -1       396    8    0    1
 -2       124       125       279      1233      1622      1623
 -1       397    8    0    1
 -2       124       279       278      1623      1624      1619
 -1       398    8    0    1
 -2       125       126       280      1234      1625      1626
 -1       399    8    0    1
 -2       125       280       279      1626      1627      1622
 -1       400    8    0    1
 -2       126       127       281      1235      1628      1629
 -1       401    8    0    1
 -2       126       281       280      1629      1630      1625
 -1       402    8    0    1
 -2       127       128       282      1236      1631      1632
 -1       403    8    0    1
 -2       127       282       281      1632      1633      1628
 -1       404    8    0    1
 -2       128       129       283      1237      1634      1635
 -1       405    8    0    1
 -2       128       283       282      1635      1636      1631
 -1       406    8    0    1
 -2       129       130       284      1238      1637      1638
 -1       407    8    0    1
 -2       129       284       283      1638      1639      1634
 -1       408    8    0    1
 -2       130       131       285      1239      1640      1641
 -1       409    8    0    1
 -2       130       285       284      1641      1642      1637
 -1       410    8    0    1
 -2       131       132       286      1240      1643      1644
 -1       411    8    0    1
 -2       131       286       285      1644      1645      1640
 -1       412    8    0    1
 -2       132       133       287      1241      1646      1647
 -1       413    8    0    1
 -2       132       287       286      1647      1648      1643
 -1       414    8    0    1
 -2       133       134       288      1242      1649      1650
 -1       415    8    0    1
 -2       133       288       287      1650      1651      1646
 -1       416    8    0    1
 -2       134       135       289      1243      1652      1653
 -1       417    8    0    1
 -2       134       289       288      1653      1654      1649
 -1       418    8    0    1
 -2       135       136       290      1244      1655      1656
 -1       419    8    0    1
 -2       289       135       290      1652      1656      1657
 -1       420    8    0    1
 -2       136       227       290      1468      1658      1655
 -1       421    8    0    1
 -2         2       137       291      1246      1659      1660
 -1       422    8    0    1
 -2       137       138       292      1247      1661      1662
 -1       423    8    0    1
 -2       138       139       293      1248      1663      1664
 -1       424    8    0    1
 -2       139       140       294      1249      1665      1666
 -1       425    8    0    1
 -2       140       141       295      1250      1667      1668
 -1       426    8    0    1
 -2       141       142       296      1251      1669      1670
 -1       427    8    0    1
 -2       142       143       297      1252      1671      1672
 -1       428    8    0    1
 -2       143       144       298      1253      1673      1674
 -1       429    8    0    1
 -2       144       145       299      1254      1675      1676
 -1       430    8    0    1
 -2       145       146       300      1255      1677      1678
 -1       431    8    0    1
 -2       146       147       301      1256      1679      1680
 -1       432    8    0    1
 -2       147       148       302      1257      1681      1682
 -1       433    8    0    1
 -2       148       149       303      1258      1683      1684
 -1       434    8    0    1
 -2       149       150       304      1259      1685      1686
 -1       435    8    0    1
 -2       150       151       305      1260      1687      1688
 -1       436    8    0    1
 -2       151       152       306      1261      1689      1690
 -1       437    8    0    1
 -2       152       153       307      1262      1691      1692
 -1       438    8    0    1
 -2       153       154       308      1263      1693      1694
 -1       439    8    0    1
 -2       154       155       309      1264      1695      1696
 -1       440    8    0    1
 -2       155       156       310      1265      1697      1698
 -1       441    8    0    1
 -2       156       157       311      1266      1699      1700
 -1       442    8    0    1
 -2       157         1       312      1267      1701      1702
 -1       443    8    0    1
 -2         1       158       313      1268      1703      1704
 -1       444    8    0    1
 -2       158       159       314      1269      1705      1706
 -1       445    8    0    1
 -2       159       160       315      1270      1707      1708
 -1       446    8    0    1
 -2       160       161       316      1271      1709      1710
 -1       447    8    0    1
 -2       161       162       317      1272      1711      1712
 -1       448    8    0    1
 -2       162       163       318      1273      1713      1714
 -1       449    8    0    1
 -2       163         2       319      1274      1715      1716
 -1       450    8    0    1
 -2       294       140       295      1665      1668      1717
 -1       451    8    0    1
 -2       293       139       294      1663      1666      1718
 -1       452    8    0    1
 -2       120       121       275      1613      1719      1610
 -1       453    8    0    1
 -2       121       276       275      1615      1720      1719
 -1       454    8    0    1
 -2       291       137       292      1659      1662      1721
 -1       455    8    0    1
 -2       292       138       293      1661      1664      1722
 -1       456    8    0    1
 -2         2       291       319      1660      1723      1715
 -1       457    8    0    1
 -2       141       296       295      1670      1724      1667
 -1       458    8    0    1
 -2       142       297       296      1672      1725      1669
 -1       459    8    0    1
 -2       143       298       297      1674      1726      1671
 -1       460    8    0    1
 -2       144       299       298      1676      1727      1673
 -1       461    8    0    1
 -2       145       300       299      1678      1728      1675
 -1       462    8    0    1
 -2       146       301       300      1680      1729      1677
 -1       463    8    0    1
 -2       147       302       301      1682      1730      1679
 -1       464    8    0    1
 -2       148       303       302      1684      1731      1681
 -1       465    8    0    1
 -2       149       304       303      1686      1732      1683
 -1       466    8    0    1
 -2       150       305       304      1688      1733      1685
 -1       467    8    0    1
 -2       151       306       305      1690      1734      1687
 -1       468    8    0    1
 -2       152       307       306      1692      1735      1689
 -1       469    8    0    1
 -2       153       308       307      1694      1736      1691
 -1       470    8    0    1
 -2       154       309       308      1696      1737      1693
 -1       471    8    0    1
 -2       155       310       309      1698      1738      1695
 -1       472    8    0    1
 -2       156       311       310      1700      1739      1697
 -1       473    8    0    1
 -2       157       312       311      1702      1740      1699
 -1       474    8    0    1
 -2         1       313       312      1704      1741      1701
 -1       475    8    0    1
 -2       158       314       313      1706      1742      1703
 -1       476    8    0    1
 -2       159       315       314      1708      1743      1705
 -1       477    8    0    1
 -2       160       316       315      1710      1744      1707
 -1       478    8    0    1
 -2       161       317       316      1712      1745      1709
 -1       479    8    0    1
 -2       162       318       317      1714      1746      1711
 -1       480    8    0    1
 -2       163       319       318      1716      1747      1713
 -1       481    8    0    1
 -2        23         7       164      1275      1277      1748
 -1       482    8    0    1
 -2       165       166       320      1283      1749      1750
 -1       483    8    0    1
 -2       164       165       321      1280      1751      1752
 -1       484    8    0    1
 -2       165       320       321      1750      1753      1751
 -1       485    8    0    1
 -2       167       168       322      1289      1754      1755
 -1       486    8    0    1
 -2       168       169       323      1292      1756      1757
 -1       487    8    0    1
 -2       168       323       322      1757      1758      1754
 -1       488    8    0    1
 -2       169       170       324      1295      1759      1760
 -1       489    8    0    1
 -2       169       324       323      1760      1761      1756
 -1       490    8    0    1
 -2       170       171       325      1298      1762      1763
 -1       491    8    0    1
 -2       170       325       324      1763      1764      1759
 -1       492    8    0    1
 -2       171       172       326      1301      1765      1766
 -1       493    8    0    1
 -2       171       326       325      1766      1767      1762
 -1       494    8    0    1
 -2       172       173       327      1304      1768      1769
 -1       495    8    0    1
 -2       172       327       326      1769      1770      1765
 -1       496    8    0    1
 -2       173       174       328      1307      1771      1772
 -1       497    8    0    1
 -2       173       328       327      1772      1773      1768
 -1       498    8    0    1
 -2       174       175       329      1310      1774      1775
 -1       499    8    0    1
 -2       174       329       328      1775      1776      1771
 -1       500    8    0    1
 -2       175       176       330      1313      1777      1778
 -1       501    8    0    1
 -2       175       330       329      1778      1779      1774
 -1       502    8    0    1
 -2       176       177       331      1316      1780      1781
 -1       503    8    0    1
 -2       176       331       330      1781      1782      1777
 -1       504    8    0    1
 -2       177       178       332      1319      1783      1784
 -1       505    8    0    1
 -2       177       332       331      1784      1785      1780
 -1       506    8    0    1
 -2       178       179       333      1322      1786      1787
 -1       507    8    0    1
 -2       332       178       333      1783      1787      1788
 -1       508    8    0    1
 -2       179       228       333      1471      1789      1786
 -1       509    8    0    1
 -2       180        23       164      1324      1748      1790
 -1       510    8    0    1
 -2       228       229       334      1474      1791      1792
 -1       511    8    0    1
 -2       228       334       333      1792      1793      1789
 -1       512    8    0    1
 -2       180       164       321      1790      1752      1794
 -1       513    8    0    1
 -2       182       181       335      1331      1795      1796
 -1       514    8    0    1
 -2       183       182       336      1334      1797      1798
 -1       515    8    0    1
 -2       182       335       336      1796      1799      1797
 -1       516    8    0    1
 -2       184       183       337      1337      1800      1801
 -1       517    8    0    1
 -2       183       336       337      1798      1802      1800
 -1       518    8    0    1
 -2       185       184       338      1340      1803      1804
 -1       519    8    0    1
 -2       184       337       338      1801      1805      1803
 -1       520    8    0    1
 -2       186       185       339      1343      1806      1807
 -1       521    8    0    1
 -2       185       338       339      1804      1808      1806
 -1       522    8    0    1
 -2       187       186       340      1346      1809      1810
 -1       523    8    0    1
 -2       186       339       340      1807      1811      1809
 -1       524    8    0    1
 -2       188       187       341      1349      1812      1813
 -1       525    8    0    1
 -2       187       340       341      1810      1814      1812
 -1       526    8    0    1
 -2       189       188       342      1352      1815      1816
 -1       527    8    0    1
 -2       188       341       342      1813      1817      1815
 -1       528    8    0    1
 -2       190       189       343      1355      1818      1819
 -1       529    8    0    1
 -2       189       342       343      1816      1820      1818
 -1       530    8    0    1
 -2       191       190       344      1358      1821      1822
 -1       531    8    0    1
 -2       190       343       344      1819      1823      1821
 -1       532    8    0    1
 -2       192       191       345      1361      1824      1825
 -1       533    8    0    1
 -2       191       344       345      1822      1826      1824
 -1       534    8    0    1
 -2       193       192       346      1364      1827      1828
 -1       535    8    0    1
 -2       192       345       346      1825      1829      1827
 -1       536    8    0    1
 -2       194       193       347      1367      1830      1831
 -1       537    8    0    1
 -2       193       346       347      1828      1832      1830
 -1       538    8    0    1
 -2       195       194       348      1370      1833      1834
 -1       539    8    0    1
 -2       194       347       348      1831      1835      1833
 -1       540    8    0    1
 -2       196       195       349      1373      1836      1837
 -1       541    8    0    1
 -2       195       348       349      1834      1838      1836
 -1       542    8    0    1
 -2       197       196       350      1376      1839      1840
 -1       543    8    0    1
 -2       196       349       350      1837      1841      1839
 -1       544    8    0    1
 -2       198       197       351      1379      1842      1843
 -1       545    8    0    1
 -2       197       350       351      1840      1844      1842
 -1       546    8    0    1
 -2       199       198       352      1382      1845      1846
 -1       547    8    0    1
 -2       198       351       352      1843      1847      1845
 -1       548    8    0    1
 -2       200       199       353      1385      1848      1849
 -1       549    8    0    1
 -2       199       352       353      1846      1850      1848
 -1       550    8    0    1
 -2       201       200       354      1388      1851      1852
 -1       551    8    0    1
 -2       200       353       354      1849      1853      1851
 -1       552    8    0    1
 -2       202       201       355      1391      1854      1855
 -1       553    8    0    1
 -2       201       354       355      1852      1856      1854
 -1       554    8    0    1
 -2       203       202       356      1394      1857      1858
 -1       555    8    0    1
 -2       202       355       356      1855      1859      1857
 -1       556    8    0    1
 -2       204       203       357      1397      1860      1861
 -1       557    8    0    1
 -2       203       356       357      1858      1862      1860
 -1       558    8    0    1
 -2       205       204       358      1400      1863      1864
 -1       559    8    0    1
 -2       204       357       358      1861      1865      1863
 -1       560    8    0    1
 -2       206       205       359      1403      1866      1867
 -1       561    8    0    1
 -2       205       358       359      1864      1868      1866
 -1       562    8    0    1
 -2       207       206       360      1406      1869      1870
 -1       563    8    0    1
 -2       206       359       360      1867      1871      1869
 -1       564    8    0    1
 -2       208       207       361      1409      1872      1873
 -1       565    8    0    1
 -2       207       360       361      1870      1874      1872
 -1       566    8    0    1
 -2       209       208       362      1412      1875      1876
 -1       567    8    0    1
 -2       208       361       362      1873      1877      1875
 -1       568    8    0    1
 -2       210       209       363      1415      1878      1879
 -1       569    8    0    1
 -2       209       362       363      1876      1880      1878
 -1       570    8    0    1
 -2       211       210       364      1418      1881      1882
 -1       571    8    0    1
 -2       210       363       364      1879      1883      1881
 -1       572    8    0    1
 -2       212       211       365      1421      1884      1885
 -1       573    8    0    1
 -2       211       364       365      1882      1886      1884
 -1       574    8    0    1
 -2       213       212       366      1424      1887      1888
 -1       575    8    0    1
 -2       212       365       366      1885      1889      1887
 -1       576    8    0    1
 -2       214       213       367      1427      1890      1891
 -1       577    8    0    1
 -2       213       366       367      1888      1892      1890
 -1       578    8    0    1
 -2       215       214       368      1430      1893      1894
 -1       579    8    0    1
 -2       214       367       368      1891      1895      1893
 -1       580    8    0    1
 -2       216       215       369      1433      1896      1897
 -1       581    8    0    1
 -2       215       368       369      1894      1898      1896
 -1       582    8    0    1
 -2       217       216       370      1436      1899      1900
 -1       583    8    0    1
 -2       216       369       370      1897      1901      1899
 -1       584    8    0    1
 -2       218       217       371      1439      1902      1903
 -1       585    8    0    1
 -2       217       370       371      1900      1904      1902
 -1       586    8    0    1
 -2       219       218       372      1442      1905      1906
 -1       587    8    0    1
 -2       218       371       372      1903      1907      1905
 -1       588    8    0    1
 -2       220       219       373      1445      1908      1909
 -1       589    8    0    1
 -2       219       372       373      1906      1910      1908
 -1       590    8    0    1
 -2       221       220       374      1448      1911      1912
 -1       591    8    0    1
 -2       220       373       374      1909      1913      1911
 -1       592    8    0    1
 -2       222       221       375      1451      1914      1915
 -1       593    8    0    1
 -2       221       374       375      1912      1916      1914
 -1       594    8    0    1
 -2       223       222       376      1454      1917      1918
 -1       595    8    0    1
 -2       222       375       376      1915      1919      1917
 -1       596    8    0    1
 -2       224       223       377      1457      1920      1921
 -1       597    8    0    1
 -2       223       376       377      1918      1922      1920
 -1       598    8    0    1
 -2       225       224       378      1460      1923      1924
 -1       599    8    0    1
 -2       224       377       378      1921      1925      1923
 -1       600    8    0    1
 -2       226       225       379      1463      1926      1927
 -1       601    8    0    1
 -2       225       378       379      1924      1928      1926
 -1       602    8    0    1
 -2       227       226       380      1466      1929      1930
 -1       603    8    0    1
 -2       290       227       380      1658      1930      1931
 -1       604    8    0    1
 -2       226       379       380      1927      1932      1929
 -1       605    8    0    1
 -2       229       230       381      1477      1933      1934
 -1       606    8    0    1
 -2       229       381       334      1934      1935      1791
 -1       607    8    0    1
 -2       230       231       382      1480      1936      1937
 -1       608    8    0    1
 -2       230       382       381      1937      1938      1933
 -1       609    8    0    1
 -2       231       232       383      1483      1939      1940
 -1       610    8    0    1
 -2       231       383       382      1940      1941      1936
 -1       611    8    0    1
 -2       232       233       384      1486      1942      1943
 -1       612    8    0    1
 -2       232       384       383      1943      1944      1939
 -1       613    8    0    1
 -2       233       234       385      1489      1945      1946
 -1       614    8    0    1
 -2       233       385       384      1946      1947      1942
 -1       615    8    0    1
 -2       234       235       386      1492      1948      1949
 -1       616    8    0    1
 -2       234       386       385      1949      1950      1945
 -1       617    8    0    1
 -2       235       236       387      1495      1951      1952
 -1       618    8    0    1
 -2       235       387       386      1952      1953      1948
 -1       619    8    0    1
 -2       236       237       388      1498      1954      1955
 -1       620    8    0    1
 -2       236       388       387      1955      1956      1951
 -1       621    8    0    1
 -2       237       238       389      1501      1957      1958
 -1       622    8    0    1
 -2       237       389       388      1958      1959      1954
 -1       623    8    0    1
 -2       238       239       390      1504      1960      1961
 -1       624    8    0    1
 -2       238       390       389      1961      1962      1957
 -1       625    8    0    1
 -2       239       240       391      1507      1963      1964
 -1       626    8    0    1
 -2       239       391       390      1964      1965      1960
 -1       627    8    0    1
 -2       240       241       392      1510      1966      1967
 -1       628    8    0    1
 -2       240       392       391      1967      1968      1963
 -1       629    8    0    1
 -2       241       242       393      1513      1969      1970
 -1       630    8    0    1
 -2       241       393       392      1970      1971      1966
 -1       631    8    0    1
 -2       242       243       394      1516      1972      1973
 -1       632    8    0    1
 -2       242       394       393      1973      1974      1969
 -1       633    8    0    1
 -2       243       244       395      1519      1975      1976
 -1       634    8    0    1
 -2       243       395       394      1976      1977      1972
 -1       635    8    0    1
 -2       244       245       396      1522      1978      1979
 -1       636    8    0    1
 -2       244       396       395      1979      1980      1975
 -1       637    8    0    1
 -2       245       246       397      1525      1981      1982
 -1       638    8    0    1
 -2       245       397       396      1982      1983      1978
 -1       639    8    0    1
 -2       246       247       398      1528      1984      1985
 -1       640    8    0    1
 -2       246       398       397      1985      1986      1981
 -1       641    8    0    1
 -2       247       248       399      1531      1987      1988
 -1       642    8    0    1
 -2       247       399       398      1988      1989      1984
 -1       643    8    0    1
 -2       248       249       400      1534      1990      1991
 -1       644    8    0    1
 -2       248       400       399      1991      1992      1987
 -1       645    8    0    1
 -2       249       250       401      1537      1993      1994
 -1       646    8    0    1
 -2       249       401       400      1994      1995      1990
 -1       647    8    0    1
 -2       250       251       402      1540      1996      1997
 -1       648    8    0    1
 -2       250       402       401      1997      1998      1993
 -1       649    8    0    1
 -2       251       252       403      1543      1999      2000
 -1       650    8    0    1
 -2       251       403       402      2000      2001      1996
 -1       651    8    0    1
 -2       252       253       404      1546      2002      2003
 -1       652    8    0    1
 -2       252       404       403      2003      2004      1999
 -1       653    8    0    1
 -2       253       254       405      1549      2005      2006
 -1       654    8    0    1
 -2       253       405       404      2006      2007      2002
 -1       655    8    0    1
 -2       254       255       406      1552      2008      2009
 -1       656    8    0    1
 -2       254       406       405      2009      2010      2005
 -1       657    8    0    1
 -2       255       256       407      1555      2011      2012
 -1       658    8    0    1
 -2       255       407       406      2012      2013      2008
 -1       659    8    0    1
 -2       256       257       408      1558      2014      2015
 -1       660    8    0    1
 -2       256       408       407      2015      2016      2011
 -1       661    8    0    1
 -2       257       258       409      1561      2017      2018
 -1       662    8    0    1
 -2       257       409       408      2018      2019      2014
 -1       663    8    0    1
 -2       258       259       410      1564      2020      2021
 -1       664    8    0    1
 -2       258       410       409      2021      2022      2017
 -1       665    8    0    1
 -2       259       260       411      1567      2023      2024
 -1       666    8    0    1
 -2       259       411       410      2024      2025      2020
 -1       667    8    0    1
 -2       260       261       412      1570      2026      2027
 -1       668    8    0    1
 -2       260       412       411      2027      2028      2023
 -1       669    8    0    1
 -2       261       262       413      1573      2029      2030
 -1       670    8    0    1
 -2       261       413       412      2030      2031      2026
 -1       671    8    0    1
 -2       262       263       414      1576      2032      2033
 -1       672    8    0    1
 -2       262       414       413      2033      2034      2029
 -1       673    8    0    1
 -2       263       264       415      1579      2035      2036
 -1       674    8    0    1
 -2       263       415       414      2036      2037      2032
 -1       675    8    0    1
 -2       264       265       416      1582      2038      2039
 -1       676    8    0    1
 -2       264       416       415      2039      2040      2035
 -1       677    8    0    1
 -2       265       266       417      1585      2041      2042
 -1       678    8    0    1
 -2       265       417       416      2042      2043      2038
 -1       679    8    0    1
 -2       266       267       418      1588      2044      2045
 -1       680    8    0    1
 -2       266       418       417      2045      2046      2041
 -1       681    8    0    1
 -2       267       268       419      1591      2047      2048
 -1       682    8    0    1
 -2       267       419       418      2048      2049      2044
 -1       683    8    0    1
 -2       268       269       420      1594      2050      2051
 -1       684    8    0    1
 -2       268       420       419      2051      2052      2047
 -1       685    8    0    1
 -2       269       270       421      1597      2053      2054
 -1       686    8    0    1
 -2       269       421       420      2054      2055      2050
 -1       687    8    0    1
 -2       270       271       422      1600      2056      2057
 -1       688    8    0    1
 -2       270       422       421      2057      2058      2053
 -1       689    8    0    1
 -2       271       272       423      1603      2059      2060
 -1       690    8    0    1
 -2       271       423       422      2060      2061      2056
 -1       691    8    0    1
 -2       272       273       424      1606      2062      2063
 -1       692    8    0    1
 -2       272       424       423      2063      2064      2059
 -1       693    8    0    1
 -2       273       274       425      1609      2065      2066
 -1       694    8    0    1
 -2       273       425       424      2066      2067      2062
 -1       695    8    0    1
 -2       274       275       426      1612      2068      2069
 -1       696    8    0    1
 -2       425       274       426      2065      2069      2070
 -1       697    8    0    1
 -2       275       276       426      1720      2071      2068
 -1       698    8    0    1
 -2       278       279       427      1624      2072      2073
 -1       699    8    0    1
 -2       277       278       428      1621      2074      2075
 -1       700    8    0    1
 -2       278       427       428      2073      2076      2074
 -1       701    8    0    1
 -2       276       277       429      1618      2077      2078
 -1       702    8    0    1
 -2       426       276       429      2071      2078      2079
 -1       703    8    0    1
 -2       277       428       429      2075      2080      2077
 -1       704    8    0    1
 -2       279       280       430      1627      2081      2082
 -1       705    8    0    1
 -2       279       430       427      2082      2083      2072
 -1       706    8    0    1
 -2       280       281       431      1630      2084      2085
 -1       707    8    0    1
 -2       280       431       430      2085      2086      2081
 -1       708    8    0    1
 -2       281       282       432      1633      2087      2088
 -1       709    8    0    1
 -2       281       432       431      2088      2089      2084
 -1       710    8    0    1
 -2       282       283       433      1636      2090      2091
 -1       711    8    0    1
 -2       282       433       432      2091      2092      2087
 -1       712    8    0    1
 -2       283       284       434      1639      2093      2094
 -1       713    8    0    1
 -2       283       434       433      2094      2095      2090
 -1       714    8    0    1
 -2       284       285       435      1642      2096      2097
 -1       715    8    0    1
 -2       284       435       434      2097      2098      2093
 -1       716    8    0    1
 -2       285       286       436      1645      2099      2100
 -1       717    8    0    1
 -2       285       436       435      2100      2101      2096
 -1       718    8    0    1
 -2       286       287       437      1648      2102      2103
 -1       719    8    0    1
 -2       286       437       436      2103      2104      2099
 -1       720    8    0    1
 -2       287       288       438      1651      2105      2106
 -1       721    8    0    1
 -2       287       438       437      2106      2107      2102
 -1       722    8    0    1
 -2       288       289       439      1654      2108      2109
 -1       723    8    0    1
 -2       288       439       438      2109      2110      2105
 -1       724    8    0    1
 -2       292       293       440      1722      2111      2112
 -1       725    8    0    1
 -2       319       291       441      1723      2113      2114
 -1       726    8    0    1
 -2       291       292       442      1721      2115      2116
 -1       727    8    0    1
 -2       293       294       443      1718      2117      2118
 -1       728    8    0    1
 -2       293       443       440      2118      2119      2111
 -1       729    8    0    1
 -2       294       295       444      1717      2120      2121
 -1       730    8    0    1
 -2       166       167       445      1286      2122      2123
 -1       731    8    0    1
 -2       320       166       445      1749      2123      2124
 -1       732    8    0    1
 -2       167       322       445      1755      2125      2122
 -1       733    8    0    1
 -2       296       297       446      1725      2126      2127
 -1       734    8    0    1
 -2       297       298       447      1726      2128      2129
 -1       735    8    0    1
 -2       297       447       446      2129      2130      2126
 -1       736    8    0    1
 -2       298       299       448      1727      2131      2132
 -1       737    8    0    1
 -2       299       300       449      1728      2133      2134
 -1       738    8    0    1
 -2       300       301       450      1729      2135      2136
 -1       739    8    0    1
 -2       301       302       451      1730      2137      2138
 -1       740    8    0    1
 -2       302       303       452      1731      2139      2140
 -1       741    8    0    1
 -2       302       452       451      2140      2141      2137
 -1       742    8    0    1
 -2       303       304       453      1732      2142      2143
 -1       743    8    0    1
 -2       304       305       454      1733      2144      2145
 -1       744    8    0    1
 -2       305       306       455      1734      2146      2147
 -1       745    8    0    1
 -2       305       455       454      2147      2148      2144
 -1       746    8    0    1
 -2       306       307       456      1735      2149      2150
 -1       747    8    0    1
 -2       307       308       457      1736      2151      2152
 -1       748    8    0    1
 -2       308       309       458      1737      2153      2154
 -1       749    8    0    1
 -2       309       310       459      1738      2155      2156
 -1       750    8    0    1
 -2       310       311       460      1739      2157      2158
 -1       751    8    0    1
 -2       311       312       461      1740      2159      2160
 -1       752    8    0    1
 -2       312       313       462      1741      2161      2162
 -1       753    8    0    1
 -2       313       314       463      1742      2163      2164
 -1       754    8    0    1
 -2       313       463       462      2164      2165      2161
 -1       755    8    0    1
 -2       314       315       464      1743      2166      2167
 -1       756    8    0    1
 -2       315       316       465      1744      2168      2169
 -1       757    8    0    1
 -2       316       317       466      1745      2170      2171
 -1       758    8    0    1
 -2       317       318       467      1746      2172      2173
 -1       759    8    0    1
 -2       318       319       468      1747      2174      2175
 -1       760    8    0    1
 -2       319       441       468      2114      2176      2174
 -1       761    8    0    1
 -2       295       296       469      1724      2177      2178
 -1       762    8    0    1
 -2       295       469       444      2178      2179      2120
 -1       763    8    0    1
 -2       443       294       444      2117      2121      2180
 -1       764    8    0    1
 -2       180       321       181      1794      2181      1328
 -1       765    8    0    1
 -2       296       446       469      2127      2182      2177
 -1       766    8    0    1
 -2       335       181       321      1795      2181      2183
 -1       767    8    0    1
 -2       442       292       440      2115      2112      2184
 -1       768    8    0    1
 -2       441       291       442      2113      2116      2185
 -1       769    8    0    1
 -2       439       289       290      2108      1657      2186
 -1       770    8    0    1
 -2       467       318       468      2172      2175      2187
 -1       771    8    0    1
 -2       466       317       467      2170      2173      2188
 -1       772    8    0    1
 -2       465       316       466      2168      2171      2189
 -1       773    8    0    1
 -2       463       314       470      2163      2190      2191
 -1       774    8    0    1
 -2       314       464       470      2167      2192      2190
 -1       775    8    0    1
 -2       461       312       462      2159      2162      2193
 -1       776    8    0    1
 -2       460       311       461      2157      2160      2194
 -1       777    8    0    1
 -2       459       310       460      2155      2158      2195
 -1       778    8    0    1
 -2       458       309       459      2153      2156      2196
 -1       779    8    0    1
 -2       457       308       458      2151      2154      2197
 -1       780    8    0    1
 -2       455       306       456      2146      2150      2198
 -1       781    8    0    1
 -2       452       303       453      2139      2143      2199
 -1       782    8    0    1
 -2       450       301       451      2135      2138      2200
 -1       783    8    0    1
 -2       449       300       450      2133      2136      2201
 -1       784    8    0    1
 -2       298       448       447      2132      2202      2128
 -1       785    8    0    1
 -2       448       299       449      2131      2134      2203
 -1       786    8    0    1
 -2       453       304       454      2142      2145      2204
 -1       787    8    0    1
 -2       456       307       457      2149      2152      2205
 -1       788    8    0    1
 -2       464       315       465      2166      2169      2206
 -1       789    8    0    1
 -2       334       381       471      1935      2207      2208
 -1       790    8    0    1
 -2       323       324       472      1761      2209      2210
 -1       791    8    0    1
 -2       322       323       473      1758      2211      2212
 -1       792    8    0    1
 -2       323       472       473      2210      2213      2211
 -1       793    8    0    1
 -2       325       326       474      1767      2214      2215
 -1       794    8    0    1
 -2       326       327       475      1770      2216      2217
 -1       795    8    0    1
 -2       326       475       474      2217      2218      2214
 -1       796    8    0    1
 -2       327       328       476      1773      2219      2220
 -1       797    8    0    1
 -2       327       476       475      2220      2221      2216
 -1       798    8    0    1
 -2       328       329       477      1776      2222      2223
 -1       799    8    0    1
 -2       328       477       476      2223      2224      2219
 -1       800    8    0    1
 -2       329       330       478      1779      2225      2226
 -1       801    8    0    1
 -2       329       478       477      2226      2227      2222
 -1       802    8    0    1
 -2       330       331       479      1782      2228      2229
 -1       803    8    0    1
 -2       330       479       478      2229      2230      2225
 -1       804    8    0    1
 -2       381       382       480      1938      2231      2232
 -1       805    8    0    1
 -2       381       480       471      2232      2233      2207
 -1       806    8    0    1
 -2       336       335       481      1799      2234      2235
 -1       807    8    0    1
 -2       469       446       482      2182      2236      2237
 -1       808    8    0    1
 -2       337       336       483      1802      2238      2239
 -1       809    8    0    1
 -2       336       481       483      2235      2240      2238
 -1       810    8    0    1
 -2       338       337       484      1805      2241      2242
 -1       811    8    0    1
 -2       337       483       484      2239      2243      2241
 -1       812    8    0    1
 -2       339       338       485      1808      2244      2245
 -1       813    8    0    1
 -2       338       484       485      2242      2246      2244
 -1       814    8    0    1
 -2       340       339       486      1811      2247      2248
 -1       815    8    0    1
 -2       339       485       486      2245      2249      2247
 -1       816    8    0    1
 -2       341       340       487      1814      2250      2251
 -1       817    8    0    1
 -2       340       486       487      2248      2252      2250
 -1       818    8    0    1
 -2       342       341       488      1817      2253      2254
 -1       819    8    0    1
 -2       341       487       488      2251      2255      2253
 -1       820    8    0    1
 -2       343       342       489      1820      2256      2257
 -1       821    8    0    1
 -2       342       488       489      2254      2258      2256
 -1       822    8    0    1
 -2       344       343       490      1823      2259      2260
 -1       823    8    0    1
 -2       343       489       490      2257      2261      2259
 -1       824    8    0    1
 -2       345       344       491      1826      2262      2263
 -1       825    8    0    1
 -2       344       490       491      2260      2264      2262
 -1       826    8    0    1
 -2       346       345       492      1829      2265      2266
 -1       827    8    0    1
 -2       345       491       492      2263      2267      2265
 -1       828    8    0    1
 -2       347       346       493      1832      2268      2269
 -1       829    8    0    1
 -2       346       492       493      2266      2270      2268
 -1       830    8    0    1
 -2       348       347       494      1835      2271      2272
 -1       831    8    0    1
 -2       347       493       494      2269      2273      2271
 -1       832    8    0    1
 -2       349       348       495      1838      2274      2275
 -1       833    8    0    1
 -2       348       494       495      2272      2276      2274
 -1       834    8    0    1
 -2       350       349       496      1841      2277      2278
 -1       835    8    0    1
 -2       349       495       496      2275      2279      2277
 -1       836    8    0    1
 -2       351       350       497      1844      2280      2281
 -1       837    8    0    1
 -2       350       496       497      2278      2282      2280
 -1       838    8    0    1
 -2       352       351       498      1847      2283      2284
 -1       839    8    0    1
 -2       351       497       498      2281      2285      2283
 -1       840    8    0    1
 -2       353       352       499      1850      2286      2287
 -1       841    8    0    1
 -2       352       498       499      2284      2288      2286
 -1       842    8    0    1
 -2       354       353       500      1853      2289      2290
 -1       843    8    0    1
 -2       353       499       500      2287      2291      2289
 -1       844    8    0    1
 -2       355       354       501      1856      2292      2293
 -1       845    8    0    1
 -2       354       500       501      2290      2294      2292
 -1       846    8    0    1
 -2       356       355       502      1859      2295      2296
 -1       847    8    0    1
 -2       355       501       502      2293      2297      2295
 -1       848    8    0    1
 -2       357       356       503      1862      2298      2299
 -1       849    8    0    1
 -2       356       502       503      2296      2300      2298
 -1       850    8    0    1
 -2       358       357       504      1865      2301      2302
 -1       851    8    0    1
 -2       357       503       504      2299      2303      2301
 -1       852    8    0    1
 -2       359       358       505      1868      2304      2305
 -1       853    8    0    1
 -2       358       504       505      2302      2306      2304
 -1       854    8    0    1
 -2       360       359       506      1871      2307      2308
 -1       855    8    0    1
 -2       359       505       506      2305      2309      2307
 -1       856    8    0    1
 -2       361       360       507      1874      2310      2311
 -1       857    8    0    1
 -2       360       506       507      2308      2312      2310
 -1       858    8    0    1
 -2       362       361       508      1877      2313      2314
 -1       859    8    0    1
 -2       361       507       508      2311      2315      2313
 -1       860    8    0    1
 -2       363       362       509      1880      2316      2317
 -1       861    8    0    1
 -2       362       508       509      2314      2318      2316
 -1       862    8    0    1
 -2       364       363       510      1883      2319      2320
 -1       863    8    0    1
 -2       363       509       510      2317      2321      2319
 -1       864    8    0    1
 -2       365       364       511      1886      2322      2323
 -1       865    8    0    1
 -2       364       510       511      2320      2324      2322
 -1       866    8    0    1
 -2       366       365       512      1889      2325      2326
 -1       867    8    0    1
 -2       365       511       512      2323      2327      2325
 -1       868    8    0    1
 -2       367       366       513      1892      2328      2329
 -1       869    8    0    1
 -2       366       512       513      2326      2330      2328
 -1       870    8    0    1
 -2       368       367       514      1895      2331      2332
 -1       871    8    0    1
 -2       367       513       514      2329      2333      2331
 -1       872    8    0    1
 -2       369       368       515      1898      2334      2335
 -1       873    8    0    1
 -2       368       514       515      2332      2336      2334
 -1       874    8    0    1
 -2       370       369       516      1901      2337      2338
 -1       875    8    0    1
 -2       369       515       516      2335      2339      2337
 -1       876    8    0    1
 -2       371       370       517      1904      2340      2341
 -1       877    8    0    1
 -2       370       516       517      2338      2342      2340
 -1       878    8    0    1
 -2       372       371       518      1907      2343      2344
 -1       879    8    0    1
 -2       371       517       518      2341      2345      2343
 -1       880    8    0    1
 -2       373       372       519      1910      2346      2347
 -1       881    8    0    1
 -2       372       518       519      2344      2348      2346
 -1       882    8    0    1
 -2       374       373       520      1913      2349      2350
 -1       883    8    0    1
 -2       373       519       520      2347      2351      2349
 -1       884    8    0    1
 -2       375       374       521      1916      2352      2353
 -1       885    8    0    1
 -2       374       520       521      2350      2354      2352
 -1       886    8    0    1
 -2       376       375       522      1919      2355      2356
 -1       887    8    0    1
 -2       375       521       522      2353      2357      2355
 -1       888    8    0    1
 -2       377       376       523      1922      2358      2359
 -1       889    8    0    1
 -2       376       522       523      2356      2360      2358
 -1       890    8    0    1
 -2       378       377       524      1925      2361      2362
 -1       891    8    0    1
 -2       377       523       524      2359      2363      2361
 -1       892    8    0    1
 -2       379       378       525      1928      2364      2365
 -1       893    8    0    1
 -2       378       524       525      2362      2366      2364
 -1       894    8    0    1
 -2       383       384       526      1944      2367      2368
 -1       895    8    0    1
 -2       386       387       447      1953      2369      2370
 -1       896    8    0    1
 -2       389       390       527      1962      2371      2372
 -1       897    8    0    1
 -2       390       391       528      1965      2373      2374
 -1       898    8    0    1
 -2       390       528       527      2374      2375      2371
 -1       899    8    0    1
 -2       391       392       529      1968      2376      2377
 -1       900    8    0    1
 -2       391       529       528      2377      2378      2373
 -1       901    8    0    1
 -2       392       393       530      1971      2379      2380
 -1       902    8    0    1
 -2       392       530       529      2380      2381      2376
 -1       903    8    0    1
 -2       393       394       531      1974      2382      2383
 -1       904    8    0    1
 -2       393       531       530      2383      2384      2379
 -1       905    8    0    1
 -2       394       395       532      1977      2385      2386
 -1       906    8    0    1
 -2       394       532       531      2386      2387      2382
 -1       907    8    0    1
 -2       395       396       533      1980      2388      2389
 -1       908    8    0    1
 -2       395       533       532      2389      2390      2385
 -1       909    8    0    1
 -2       396       397       534      1983      2391      2392
 -1       910    8    0    1
 -2       396       534       533      2392      2393      2388
 -1       911    8    0    1
 -2       397       398       535      1986      2394      2395
 -1       912    8    0    1
 -2       397       535       534      2395      2396      2391
 -1       913    8    0    1
 -2       398       399       536      1989      2397      2398
 -1       914    8    0    1
 -2       398       536       535      2398      2399      2394
 -1       915    8    0    1
 -2       399       400       537      1992      2400      2401
 -1       916    8    0    1
 -2       399       537       536      2401      2402      2397
 -1       917    8    0    1
 -2       400       401       538      1995      2403      2404
 -1       918    8    0    1
 -2       400       538       537      2404      2405      2400
 -1       919    8    0    1
 -2       401       402       539      1998      2406      2407
 -1       920    8    0    1
 -2       401       539       538      2407      2408      2403
 -1       921    8    0    1
 -2       402       403       540      2001      2409      2410
 -1       922    8    0    1
 -2       402       540       539      2410      2411      2406
 -1       923    8    0    1
 -2       403       404       541      2004      2412      2413
 -1       924    8    0    1
 -2       403       541       540      2413      2414      2409
 -1       925    8    0    1
 -2       404       405       542      2007      2415      2416
 -1       926    8    0    1
 -2       404       542       541      2416      2417      2412
 -1       927    8    0    1
 -2       405       406       543      2010      2418      2419
 -1       928    8    0    1
 -2       405       543       542      2419      2420      2415
 -1       929    8    0    1
 -2       406       407       544      2013      2421      2422
 -1       930    8    0    1
 -2       406       544       543      2422      2423      2418
 -1       931    8    0    1
 -2       407       408       545      2016      2424      2425
 -1       932    8    0    1
 -2       407       545       544      2425      2426      2421
 -1       933    8    0    1
 -2       408       409       546      2019      2427      2428
 -1       934    8    0    1
 -2       408       546       545      2428      2429      2424
 -1       935    8    0    1
 -2       409       410       547      2022      2430      2431
 -1       936    8    0    1
 -2       409       547       546      2431      2432      2427
 -1       937    8    0    1
 -2       410       411       548      2025      2433      2434
 -1       938    8    0    1
 -2       410       548       547      2434      2435      2430
 -1       939    8    0    1
 -2       411       412       549      2028      2436      2437
 -1       940    8    0    1
 -2       411       549       548      2437      2438      2433
 -1       941    8    0    1
 -2       412       413       550      2031      2439      2440
 -1       942    8    0    1
 -2       412       550       549      2440      2441      2436
 -1       943    8    0    1
 -2       413       414       551      2034      2442      2443
 -1       944    8    0    1
 -2       413       551       550      2443      2444      2439
 -1       945    8    0    1
 -2       414       415       552      2037      2445      2446
 -1       946    8    0    1
 -2       414       552       551      2446      2447      2442
 -1       947    8    0    1
 -2       415       416       553      2040      2448      2449
 -1       948    8    0    1
 -2       415       553       552      2449      2450      2445
 -1       949    8    0    1
 -2       416       417       554      2043      2451      2452
 -1       950    8    0    1
 -2       416       554       553      2452      2453      2448
 -1       951    8    0    1
 -2       417       418       555      2046      2454      2455
 -1       952    8    0    1
 -2       417       555       554      2455      2456      2451
 -1       953    8    0    1
 -2       418       419       556      2049      2457      2458
 -1       954    8    0    1
 -2       418       556       555      2458      2459      2454
 -1       955    8    0    1
 -2       419       420       557      2052      2460      2461
 -1       956    8    0    1
 -2       419       557       556      2461      2462      2457
 -1       957    8    0    1
 -2       420       421       558      2055      2463      2464
 -1       958    8    0    1
 -2       420       558       557      2464      2465      2460
 -1       959    8    0    1
 -2       421       422       559      2058      2466      2467
 -1       960    8    0    1
 -2       421       559       558      2467      2468      2463
 -1       961    8    0    1
 -2       422       423       560      2061      2469      2470
 -1       962    8    0    1
 -2       422       560       559      2470      2471      2466
 -1       963    8    0    1
 -2       423       424       561      2064      2472      2473
 -1       964    8    0    1
 -2       423       561       560      2473      2474      2469
 -1       965    8    0    1
 -2       424       425       562      2067      2475      2476
 -1       966    8    0    1
 -2       424       562       561      2476      2477      2472
 -1       967    8    0    1
 -2       425       426       429      2070      2079      2478
 -1       968    8    0    1
 -2       430       431       563      2086      2479      2480
 -1       969    8    0    1
 -2       431       432       564      2089      2481      2482
 -1       970    8    0    1
 -2       431       564       563      2482      2483      2479
 -1       971    8    0    1
 -2       428       427       565      2076      2484      2485
 -1       972    8    0    1
 -2       427       430       566      2083      2486      2487
 -1       973    8    0    1
 -2       565       427       566      2484      2487      2488
 -1       974    8    0    1
 -2       430       563       566      2480      2489      2486
 -1       975    8    0    1
 -2       432       433       567      2092      2490      2491
 -1       976    8    0    1
 -2       432       567       564      2491      2492      2481
 -1       977    8    0    1
 -2       433       434       568      2095      2493      2494
 -1       978    8    0    1
 -2       433       568       567      2494      2495      2490
 -1       979    8    0    1
 -2       434       435       569      2098      2496      2497
 -1       980    8    0    1
 -2       434       569       568      2497      2498      2493
 -1       981    8    0    1
 -2       435       436       570      2101      2499      2500
 -1       982    8    0    1
 -2       435       570       569      2500      2501      2496
 -1       983    8    0    1
 -2       436       437       571      2104      2502      2503
 -1       984    8    0    1
 -2       436       571       570      2503      2504      2499
 -1       985    8    0    1
 -2       437       438       572      2107      2505      2506
 -1       986    8    0    1
 -2       437       572       571      2506      2507      2502
 -1       987    8    0    1
 -2       438       439       573      2110      2508      2509
 -1       988    8    0    1
 -2       438       573       572      2509      2510      2505
 -1       989    8    0    1
 -2       441       442       574      2185      2511      2512
 -1       990    8    0    1
 -2       442       440       575      2184      2513      2514
 -1       991    8    0    1
 -2       467       468       576      2187      2515      2516
 -1       992    8    0    1
 -2       382       383       577      1941      2517      2518
 -1       993    8    0    1
 -2       480       382       577      2231      2518      2519
 -1       994    8    0    1
 -2       383       526       577      2368      2520      2517
 -1       995    8    0    1
 -2       444       469       578      2179      2521      2522
 -1       996    8    0    1
 -2       469       482       578      2237      2523      2521
 -1       997    8    0    1
 -2       439       290       380      2186      1931      2524
 -1       998    8    0    1
 -2       440       443       579      2119      2525      2526
 -1       999    8    0    1
 -2       443       444       580      2180      2527      2528
 -1      1000    8    0    1
 -2       468       441       581      2176      2529      2530
 -1      1001    8    0    1
 -2       461       462       582      2193      2531      2532
 -1      1002    8    0    1
 -2       452       453       583      2199      2533      2534
 -1      1003    8    0    1
 -2       450       451       526      2200      2535      2536
 -1      1004    8    0    1
 -2       447       387       446      2369      2537      2130
 -1      1005    8    0    1
 -2       324       325       584      1764      2538      2539
 -1      1006    8    0    1
 -2       472       324       584      2209      2539      2540
 -1      1007    8    0    1
 -2       325       474       584      2215      2541      2538
 -1      1008    8    0    1
 -2       453       454       585      2204      2542      2543
 -1      1009    8    0    1
 -2       453       585       583      2543      2544      2533
 -1      1010    8    0    1
 -2       451       452       586      2141      2545      2546
 -1      1011    8    0    1
 -2       526       451       586      2535      2546      2547
 -1      1012    8    0    1
 -2       452       583       586      2534      2548      2545
 -1      1013    8    0    1
 -2       456       457       587      2205      2549      2550
 -1      1014    8    0    1
 -2       454       455       588      2148      2551      2552
 -1      1015    8    0    1
 -2       464       465       589      2206      2553      2554
 -1      1016    8    0    1
 -2       455       456       590      2198      2555      2556
 -1      1017    8    0    1
 -2       457       458       591      2197      2557      2558
 -1      1018    8    0    1
 -2       458       459       592      2196      2559      2560
 -1      1019    8    0    1
 -2       459       460       593      2195      2561      2562
 -1      1020    8    0    1
 -2       460       461       594      2194      2563      2564
 -1      1021    8    0    1
 -2       462       463       595      2165      2565      2566
 -1      1022    8    0    1
 -2       465       466       596      2189      2567      2568
 -1      1023    8    0    1
 -2       466       467       597      2188      2569      2570
 -1      1024    8    0    1
 -2       335       321       598      2183      2571      2572
 -1      1025    8    0    1
 -2       481       335       598      2234      2572      2573
 -1      1026    8    0    1
 -2       321       320       598      1753      2574      2571
 -1      1027    8    0    1
 -2       333       334       599      1793      2575      2576
 -1      1028    8    0    1
 -2       332       333       599      1788      2576      2577
 -1      1029    8    0    1
 -2       334       471       599      2208      2578      2575
 -1      1030    8    0    1
 -2       322       473       600      2212      2579      2580
 -1      1031    8    0    1
 -2       322       600       445      2580      2581      2125
 -1      1032    8    0    1
 -2       331       332       599      1785      2577      2582
 -1      1033    8    0    1
 -2       598       320       445      2574      2124      2583
 -1      1034    8    0    1
 -2       597       467       576      2569      2516      2584
 -1      1035    8    0    1
 -2       331       599       479      2582      2585      2228
 -1      1036    8    0    1
 -2       439       380       601      2524      2586      2587
 -1      1037    8    0    1
 -2       573       439       601      2508      2587      2588
 -1      1038    8    0    1
 -2       380       379       601      1932      2589      2586
 -1      1039    8    0    1
 -2       379       525       601      2365      2590      2589
 -1      1040    8    0    1
 -2       596       466       597      2567      2570      2591
 -1      1041    8    0    1
 -2       595       463       470      2565      2191      2592
 -1      1042    8    0    1
 -2       440       579       575      2526      2593      2513
 -1      1043    8    0    1
 -2       526       384       450      2367      2594      2536
 -1      1044    8    0    1
 -2       594       461       582      2563      2532      2595
 -1      1045    8    0    1
 -2       384       385       450      1947      2596      2594
 -1      1046    8    0    1
 -2       385       386       449      1950      2597      2598
 -1      1047    8    0    1
 -2       389       527       578      2372      2599      2600
 -1      1048    8    0    1
 -2       387       388       446      1956      2601      2537
 -1      1049    8    0    1
 -2       425       429       562      2478      2602      2475
 -1      1050    8    0    1
 -2       385       449       450      2598      2201      2596
 -1      1051    8    0    1
 -2       446       388       482      2601      2603      2236
 -1      1052    8    0    1
 -2       429       428       562      2080      2604      2602
 -1      1053    8    0    1
 -2       593       460       594      2561      2564      2605
 -1      1054    8    0    1
 -2       441       574       581      2512      2606      2529
 -1      1055    8    0    1
 -2       574       442       602      2511      2607      2608
 -1      1056    8    0    1
 -2       442       575       602      2514      2609      2607
 -1      1057    8    0    1
 -2       592       459       593      2559      2562      2610
 -1      1058    8    0    1
 -2       580       444       527      2527      2611      2612
 -1      1059    8    0    1
 -2       579       443       580      2525      2528      2613
 -1      1060    8    0    1
 -2       468       581       576      2530      2614      2515
 -1      1061    8    0    1
 -2       591       458       592      2557      2560      2615
 -1      1062    8    0    1
 -2       590       456       587      2555      2550      2616
 -1      1063    8    0    1
 -2       470       464       589      2192      2554      2617
 -1      1064    8    0    1
 -2       587       457       591      2549      2558      2618
 -1      1065    8    0    1
 -2       582       462       595      2531      2566      2619
 -1      1066    8    0    1
 -2       589       465       596      2553      2568      2620
 -1      1067    8    0    1
 -2       562       428       565      2604      2485      2621
 -1      1068    8    0    1
 -2       588       455       590      2551      2556      2622
 -1      1069    8    0    1
 -2       454       588       585      2552      2623      2542
 -1      1070    8    0    1
 -2       444       578       527      2522      2599      2611
 -1      1071    8    0    1
 -2       583       585       603      2544      2624      2625
 -1      1072    8    0    1
 -2       475       476       604      2221      2626      2627
 -1      1073    8    0    1
 -2       474       475       605      2218      2628      2629
 -1      1074    8    0    1
 -2       475       604       605      2627      2630      2628
 -1      1075    8    0    1
 -2       477       478       606      2227      2631      2632
 -1      1076    8    0    1
 -2       478       479       607      2230      2633      2634
 -1      1077    8    0    1
 -2       478       607       606      2634      2635      2631
 -1      1078    8    0    1
 -2       471       480       608      2233      2636      2637
 -1      1079    8    0    1
 -2       573       601       609      2588      2638      2639
 -1      1080    8    0    1
 -2       601       525       609      2590      2640      2638
 -1      1081    8    0    1
 -2       596       597       610      2591      2641      2642
 -1      1082    8    0    1
 -2       599       471       479      2578      2643      2585
 -1      1083    8    0    1
 -2       484       483       611      2243      2644      2645
 -1      1084    8    0    1
 -2       485       484       612      2246      2646      2647
 -1      1085    8    0    1
 -2       484       611       612      2645      2648      2646
 -1      1086    8    0    1
 -2       486       485       613      2249      2649      2650
 -1      1087    8    0    1
 -2       485       612       613      2647      2651      2649
 -1      1088    8    0    1
 -2       487       486       614      2252      2652      2653
 -1      1089    8    0    1
 -2       486       613       614      2650      2654      2652
 -1      1090    8    0    1
 -2       488       487       615      2255      2655      2656
 -1      1091    8    0    1
 -2       487       614       615      2653      2657      2655
 -1      1092    8    0    1
 -2       489       488       616      2258      2658      2659
 -1      1093    8    0    1
 -2       488       615       616      2656      2660      2658
 -1      1094    8    0    1
 -2       490       489       617      2261      2661      2662
 -1      1095    8    0    1
 -2       489       616       617      2659      2663      2661
 -1      1096    8    0    1
 -2       491       490       618      2264      2664      2665
 -1      1097    8    0    1
 -2       490       617       618      2662      2666      2664
 -1      1098    8    0    1
 -2       492       491       619      2267      2667      2668
 -1      1099    8    0    1
 -2       491       618       619      2665      2669      2667
 -1      1100    8    0    1
 -2       493       492       620      2270      2670      2671
 -1      1101    8    0    1
 -2       492       619       620      2668      2672      2670
 -1      1102    8    0    1
 -2       494       493       621      2273      2673      2674
 -1      1103    8    0    1
 -2       493       620       621      2671      2675      2673
 -1      1104    8    0    1
 -2       495       494       622      2276      2676      2677
 -1      1105    8    0    1
 -2       494       621       622      2674      2678      2676
 -1      1106    8    0    1
 -2       496       495       623      2279      2679      2680
 -1      1107    8    0    1
 -2       495       622       623      2677      2681      2679
 -1      1108    8    0    1
 -2       497       496       624      2282      2682      2683
 -1      1109    8    0    1
 -2       496       623       624      2680      2684      2682
 -1      1110    8    0    1
 -2       498       497       625      2285      2685      2686
 -1      1111    8    0    1
 -2       497       624       625      2683      2687      2685
 -1      1112    8    0    1
 -2       499       498       626      2288      2688      2689
 -1      1113    8    0    1
 -2       498       625       626      2686      2690      2688
 -1      1114    8    0    1
 -2       500       499       627      2291      2691      2692
 -1      1115    8    0    1
 -2       499       626       627      2689      2693      2691
 -1      1116    8    0    1
 -2       501       500       628      2294      2694      2695
 -1      1117    8    0    1
 -2       500       627       628      2692      2696      2694
 -1      1118    8    0    1
 -2       502       501       629      2297      2697      2698
 -1      1119    8    0    1
 -2       501       628       629      2695      2699      2697
 -1      1120    8    0    1
 -2       503       502       630      2300      2700      2701
 -1      1121    8    0    1
 -2       502       629       630      2698      2702      2700
 -1      1122    8    0    1
 -2       504       503       631      2303      2703      2704
 -1      1123    8    0    1
 -2       503       630       631      2701      2705      2703
 -1      1124    8    0    1
 -2       505       504       632      2306      2706      2707
 -1      1125    8    0    1
 -2       504       631       632      2704      2708      2706
 -1      1126    8    0    1
 -2       506       505       633      2309      2709      2710
 -1      1127    8    0    1
 -2       505       632       633      2707      2711      2709
 -1      1128    8    0    1
 -2       507       506       634      2312      2712      2713
 -1      1129    8    0    1
 -2       506       633       634      2710      2714      2712
 -1      1130    8    0    1
 -2       508       507       635      2315      2715      2716
 -1      1131    8    0    1
 -2       507       634       635      2713      2717      2715
 -1      1132    8    0    1
 -2       509       508       636      2318      2718      2719
 -1      1133    8    0    1
 -2       508       635       636      2716      2720      2718
 -1      1134    8    0    1
 -2       510       509       637      2321      2721      2722
 -1      1135    8    0    1
 -2       509       636       637      2719      2723      2721
 -1      1136    8    0    1
 -2       511       510       638      2324      2724      2725
 -1      1137    8    0    1
 -2       510       637       638      2722      2726      2724
 -1      1138    8    0    1
 -2       512       511       639      2327      2727      2728
 -1      1139    8    0    1
 -2       511       638       639      2725      2729      2727
 -1      1140    8    0    1
 -2       513       512       640      2330      2730      2731
 -1      1141    8    0    1
 -2       512       639       640      2728      2732      2730
 -1      1142    8    0    1
 -2       514       513       641      2333      2733      2734
 -1      1143    8    0    1
 -2       513       640       641      2731      2735      2733
 -1      1144    8    0    1
 -2       515       514       642      2336      2736      2737
 -1      1145    8    0    1
 -2       514       641       642      2734      2738      2736
 -1      1146    8    0    1
 -2       516       515       643      2339      2739      2740
 -1      1147    8    0    1
 -2       515       642       643      2737      2741      2739
 -1      1148    8    0    1
 -2       517       516       644      2342      2742      2743
 -1      1149    8    0    1
 -2       516       643       644      2740      2744      2742
 -1      1150    8    0    1
 -2       518       517       645      2345      2745      2746
 -1      1151    8    0    1
 -2       517       644       645      2743      2747      2745
 -1      1152    8    0    1
 -2       519       518       646      2348      2748      2749
 -1      1153    8    0    1
 -2       518       645       646      2746      2750      2748
 -1      1154    8    0    1
 -2       520       519       647      2351      2751      2752
 -1      1155    8    0    1
 -2       519       646       647      2749      2753      2751
 -1      1156    8    0    1
 -2       521       520       648      2354      2754      2755
 -1      1157    8    0    1
 -2       520       647       648      2752      2756      2754
 -1      1158    8    0    1
 -2       522       521       649      2357      2757      2758
 -1      1159    8    0    1
 -2       521       648       649      2755      2759      2757
 -1      1160    8    0    1
 -2       523       522       650      2360      2760      2761
 -1      1161    8    0    1
 -2       522       649       650      2758      2762      2760
 -1      1162    8    0    1
 -2       524       523       651      2363      2763      2764
 -1      1163    8    0    1
 -2       523       650       651      2761      2765      2763
 -1      1164    8    0    1
 -2       525       524       652      2366      2766      2767
 -1      1165    8    0    1
 -2       609       525       652      2640      2767      2768
 -1      1166    8    0    1
 -2       524       651       652      2764      2769      2766
 -1      1167    8    0    1
 -2       386       447       448      2370      2202      2770
 -1      1168    8    0    1
 -2       449       386       448      2597      2770      2203
 -1      1169    8    0    1
 -2       389       578       482      2600      2523      2771
 -1      1170    8    0    1
 -2       388       389       482      1959      2771      2603
 -1      1171    8    0    1
 -2       530       531       653      2384      2772      2773
 -1      1172    8    0    1
 -2       531       532       654      2387      2774      2775
 -1      1173    8    0    1
 -2       531       654       653      2775      2776      2772
 -1      1174    8    0    1
 -2       532       533       655      2390      2777      2778
 -1      1175    8    0    1
 -2       532       655       654      2778      2779      2774
 -1      1176    8    0    1
 -2       533       534       656      2393      2780      2781
 -1      1177    8    0    1
 -2       533       656       655      2781      2782      2777
 -1      1178    8    0    1
 -2       534       535       657      2396      2783      2784
 -1      1179    8    0    1
 -2       534       657       656      2784      2785      2780
 -1      1180    8    0    1
 -2       535       536       658      2399      2786      2787
 -1      1181    8    0    1
 -2       535       658       657      2787      2788      2783
 -1      1182    8    0    1
 -2       536       537       659      2402      2789      2790
 -1      1183    8    0    1
 -2       536       659       658      2790      2791      2786
 -1      1184    8    0    1
 -2       537       538       660      2405      2792      2793
 -1      1185    8    0    1
 -2       537       660       659      2793      2794      2789
 -1      1186    8    0    1
 -2       538       539       661      2408      2795      2796
 -1      1187    8    0    1
 -2       538       661       660      2796      2797      2792
 -1      1188    8    0    1
 -2       539       540       662      2411      2798      2799
 -1      1189    8    0    1
 -2       539       662       661      2799      2800      2795
 -1      1190    8    0    1
 -2       540       541       663      2414      2801      2802
 -1      1191    8    0    1
 -2       540       663       662      2802      2803      2798
 -1      1192    8    0    1
 -2       541       542       664      2417      2804      2805
 -1      1193    8    0    1
 -2       541       664       663      2805      2806      2801
 -1      1194    8    0    1
 -2       542       543       665      2420      2807      2808
 -1      1195    8    0    1
 -2       542       665       664      2808      2809      2804
 -1      1196    8    0    1
 -2       543       544       666      2423      2810      2811
 -1      1197    8    0    1
 -2       543       666       665      2811      2812      2807
 -1      1198    8    0    1
 -2       544       545       667      2426      2813      2814
 -1      1199    8    0    1
 -2       544       667       666      2814      2815      2810
 -1      1200    8    0    1
 -2       545       546       668      2429      2816      2817
 -1      1201    8    0    1
 -2       545       668       667      2817      2818      2813
 -1      1202    8    0    1
 -2       546       547       669      2432      2819      2820
 -1      1203    8    0    1
 -2       546       669       668      2820      2821      2816
 -1      1204    8    0    1
 -2       547       548       670      2435      2822      2823
 -1      1205    8    0    1
 -2       547       670       669      2823      2824      2819
 -1      1206    8    0    1
 -2       548       549       671      2438      2825      2826
 -1      1207    8    0    1
 -2       548       671       670      2826      2827      2822
 -1      1208    8    0    1
 -2       549       550       672      2441      2828      2829
 -1      1209    8    0    1
 -2       549       672       671      2829      2830      2825
 -1      1210    8    0    1
 -2       550       551       673      2444      2831      2832
 -1      1211    8    0    1
 -2       550       673       672      2832      2833      2828
 -1      1212    8    0    1
 -2       551       552       674      2447      2834      2835
 -1      1213    8    0    1
 -2       551       674       673      2835      2836      2831
 -1      1214    8    0    1
 -2       552       553       675      2450      2837      2838
 -1      1215    8    0    1
 -2       552       675       674      2838      2839      2834
 -1      1216    8    0    1
 -2       553       554       676      2453      2840      2841
 -1      1217    8    0    1
 -2       553       676       675      2841      2842      2837
 -1      1218    8    0    1
 -2       554       555       677      2456      2843      2844
 -1      1219    8    0    1
 -2       554       677       676      2844      2845      2840
 -1      1220    8    0    1
 -2       555       556       678      2459      2846      2847
 -1      1221    8    0    1
 -2       555       678       677      2847      2848      2843
 -1      1222    8    0    1
 -2       556       557       679      2462      2849      2850
 -1      1223    8    0    1
 -2       556       679       678      2850      2851      2846
 -1      1224    8    0    1
 -2       557       558       680      2465      2852      2853
 -1      1225    8    0    1
 -2       557       680       679      2853      2854      2849
 -1      1226    8    0    1
 -2       558       559       681      2468      2855      2856
 -1      1227    8    0    1
 -2       558       681       680      2856      2857      2852
 -1      1228    8    0    1
 -2       559       560       682      2471      2858      2859
 -1      1229    8    0    1
 -2       559       682       681      2859      2860      2855
 -1      1230    8    0    1
 -2       560       561       683      2474      2861      2862
 -1      1231    8    0    1
 -2       560       683       682      2862      2863      2858
 -1      1232    8    0    1
 -2       561       562       684      2477      2864      2865
 -1      1233    8    0    1
 -2       683       561       684      2861      2865      2866
 -1      1234    8    0    1
 -2       562       565       684      2621      2867      2864
 -1      1235    8    0    1
 -2       567       568       685      2495      2868      2869
 -1      1236    8    0    1
 -2       588       590       686      2622      2870      2871
 -1      1237    8    0    1
 -2       563       564       687      2483      2872      2873
 -1      1238    8    0    1
 -2       568       569       688      2498      2874      2875
 -1      1239    8    0    1
 -2       568       688       685      2875      2876      2868
 -1      1240    8    0    1
 -2       564       567       689      2492      2877      2878
 -1      1241    8    0    1
 -2       687       564       689      2872      2878      2879
 -1      1242    8    0    1
 -2       567       685       689      2869      2880      2877
 -1      1243    8    0    1
 -2       569       570       690      2501      2881      2882
 -1      1244    8    0    1
 -2       569       690       688      2882      2883      2874
 -1      1245    8    0    1
 -2       570       571       691      2504      2884      2885
 -1      1246    8    0    1
 -2       570       691       690      2885      2886      2881
 -1      1247    8    0    1
 -2       571       572       692      2507      2887      2888
 -1      1248    8    0    1
 -2       571       692       691      2888      2889      2884
 -1      1249    8    0    1
 -2       572       573       609      2510      2639      2890
 -1      1250    8    0    1
 -2       592       593       693      2610      2891      2892
 -1      1251    8    0    1
 -2       576       581       694      2614      2893      2894
 -1      1252    8    0    1
 -2       470       589       695      2617      2895      2896
 -1      1253    8    0    1
 -2       591       592       696      2615      2897      2898
 -1      1254    8    0    1
 -2       529       530       697      2381      2899      2900
 -1      1255    8    0    1
 -2       530       653       697      2773      2901      2899
 -1      1256    8    0    1
 -2       594       582       698      2595      2902      2903
 -1      1257    8    0    1
 -2       528       529       699      2378      2904      2905
 -1      1258    8    0    1
 -2       593       594       700      2605      2906      2907
 -1      1259    8    0    1
 -2       483       481       701      2240      2908      2909
 -1      1260    8    0    1
 -2       483       701       611      2909      2910      2644
 -1      1261    8    0    1
 -2       598       445       600      2583      2581      2911
 -1      1262    8    0    1
 -2       597       576       702      2584      2912      2913
 -1      1263    8    0    1
 -2       476       477       703      2224      2914      2915
 -1      1264    8    0    1
 -2       476       703       604      2915      2916      2626
 -1      1265    8    0    1
 -2       473       472       704      2213      2917      2918
 -1      1266    8    0    1
 -2       587       591       705      2618      2919      2920
 -1      1267    8    0    1
 -2       585       588       706      2623      2921      2922
 -1      1268    8    0    1
 -2       582       595       707      2619      2923      2924
 -1      1269    8    0    1
 -2       590       587       708      2616      2925      2926
 -1      1270    8    0    1
 -2       581       574       709      2606      2927      2928
 -1      1271    8    0    1
 -2       581       709       694      2928      2929      2893
 -1      1272    8    0    1
 -2       589       596       710      2620      2930      2931
 -1      1273    8    0    1
 -2       575       579       711      2593      2932      2933
 -1      1274    8    0    1
 -2       595       470       712      2592      2934      2935
 -1      1275    8    0    1
 -2       470       695       712      2896      2936      2934
 -1      1276    8    0    1
 -2       479       471       608      2643      2637      2937
 -1      1277    8    0    1
 -2       477       606       703      2632      2938      2914
 -1      1278    8    0    1
 -2       474       605       713      2629      2939      2940
 -1      1279    8    0    1
 -2       474       713       584      2940      2941      2541
 -1      1280    8    0    1
 -2       608       480       603      2636      2942      2943
 -1      1281    8    0    1
 -2       592       693       696      2892      2944      2897
 -1      1282    8    0    1
 -2       610       597       702      2641      2913      2945
 -1      1283    8    0    1
 -2       600       473       714      2579      2946      2947
 -1      1284    8    0    1
 -2       473       704       714      2918      2948      2946
 -1      1285    8    0    1
 -2       598       600       715      2911      2949      2950
 -1      1286    8    0    1
 -2       481       598       715      2573      2950      2951
 -1      1287    8    0    1
 -2       600       714       715      2947      2952      2949
 -1      1288    8    0    1
 -2       705       591       696      2919      2898      2953
 -1      1289    8    0    1
 -2       596       610       710      2642      2954      2930
 -1      1290    8    0    1
 -2       603       585       706      2624      2922      2955
 -1      1291    8    0    1
 -2       700       594       698      2906      2903      2956
 -1      1292    8    0    1
 -2       527       528       716      2375      2957      2958
 -1      1293    8    0    1
 -2       684       565       717      2867      2959      2960
 -1      1294    8    0    1
 -2       565       566       717      2488      2961      2959
 -1      1295    8    0    1
 -2       686       590       708      2870      2926      2962
 -1      1296    8    0    1
 -2       588       686       706      2871      2963      2921
 -1      1297    8    0    1
 -2       572       609       692      2890      2964      2887
 -1      1298    8    0    1
 -2       693       593       700      2891      2907      2965
 -1      1299    8    0    1
 -2       602       575       718      2609      2966      2967
 -1      1300    8    0    1
 -2       575       711       718      2933      2968      2966
 -1      1301    8    0    1
 -2       576       694       702      2894      2969      2912
 -1      1302    8    0    1
 -2       480       577       603      2519      2970      2942
 -1      1303    8    0    1
 -2       574       602       719      2608      2971      2972
 -1      1304    8    0    1
 -2       574       719       709      2972      2973      2927
 -1      1305    8    0    1
 -2       579       580       716      2613      2974      2975
 -1      1306    8    0    1
 -2       479       608       607      2937      2976      2633
 -1      1307    8    0    1
 -2       708       587       705      2925      2920      2977
 -1      1308    8    0    1
 -2       526       586       577      2547      2978      2520
 -1      1309    8    0    1
 -2       707       595       712      2923      2935      2979
 -1      1310    8    0    1
 -2       529       697       699      2900      2980      2904
 -1      1311    8    0    1
 -2       566       563       720      2489      2981      2982
 -1      1312    8    0    1
 -2       717       566       720      2961      2982      2983
 -1      1313    8    0    1
 -2       563       687       720      2873      2984      2981
 -1      1314    8    0    1
 -2       698       582       721      2902      2985      2986
 -1      1315    8    0    1
 -2       582       707       721      2924      2987      2985
 -1      1316    8    0    1
 -2       472       584       722      2540      2988      2989
 -1      1317    8    0    1
 -2       704       472       722      2917      2989      2990
 -1      1318    8    0    1
 -2       584       713       722      2941      2991      2988
 -1      1319    8    0    1
 -2       701       481       715      2908      2951      2992
 -1      1320    8    0    1
 -2       703       606       723      2938      2993      2994
 -1      1321    8    0    1
 -2       606       607       724      2635      2995      2996
 -1      1322    8    0    1
 -2       606       724       723      2996      2997      2993
 -1      1323    8    0    1
 -2       696       693       725      2944      2998      2999
 -1      1324    8    0    1
 -2       691       692       726      2889      3000      3001
 -1      1325    8    0    1
 -2       613       612       727      2651      3002      3003
 -1      1326    8    0    1
 -2       614       613       728      2654      3004      3005
 -1      1327    8    0    1
 -2       613       727       728      3003      3006      3004
 -1      1328    8    0    1
 -2       615       614       729      2657      3007      3008
 -1      1329    8    0    1
 -2       614       728       729      3005      3009      3007
 -1      1330    8    0    1
 -2       616       615       730      2660      3010      3011
 -1      1331    8    0    1
 -2       615       729       730      3008      3012      3010
 -1      1332    8    0    1
 -2       617       616       731      2663      3013      3014
 -1      1333    8    0    1
 -2       616       730       731      3011      3015      3013
 -1      1334    8    0    1
 -2       618       617       732      2666      3016      3017
 -1      1335    8    0    1
 -2       617       731       732      3014      3018      3016
 -1      1336    8    0    1
 -2       619       618       733      2669      3019      3020
 -1      1337    8    0    1
 -2       618       732       733      3017      3021      3019
 -1      1338    8    0    1
 -2       620       619       734      2672      3022      3023
 -1      1339    8    0    1
 -2       619       733       734      3020      3024      3022
 -1      1340    8    0    1
 -2       621       620       735      2675      3025      3026
 -1      1341    8    0    1
 -2       620       734       735      3023      3027      3025
 -1      1342    8    0    1
 -2       622       621       736      2678      3028      3029
 -1      1343    8    0    1
 -2       621       735       736      3026      3030      3028
 -1      1344    8    0    1
 -2       623       622       737      2681      3031      3032
 -1      1345    8    0    1
 -2       622       736       737      3029      3033      3031
 -1      1346    8    0    1
 -2       624       623       738      2684      3034      3035
 -1      1347    8    0    1
 -2       623       737       738      3032      3036      3034
 -1      1348    8    0    1
 -2       625       624       739      2687      3037      3038
 -1      1349    8    0    1
 -2       624       738       739      3035      3039      3037
 -1      1350    8    0    1
 -2       626       625       740      2690      3040      3041
 -1      1351    8    0    1
 -2       625       739       740      3038      3042      3040
 -1      1352    8    0    1
 -2       627       626       741      2693      3043      3044
 -1      1353    8    0    1
 -2       626       740       741      3041      3045      3043
 -1      1354    8    0    1
 -2       628       627       742      2696      3046      3047
 -1      1355    8    0    1
 -2       627       741       742      3044      3048      3046
 -1      1356    8    0    1
 -2       629       628       743      2699      3049      3050
 -1      1357    8    0    1
 -2       628       742       743      3047      3051      3049
 -1      1358    8    0    1
 -2       630       629       744      2702      3052      3053
 -1      1359    8    0    1
 -2       629       743       744      3050      3054      3052
 -1      1360    8    0    1
 -2       631       630       745      2705      3055      3056
 -1      1361    8    0    1
 -2       630       744       745      3053      3057      3055
 -1      1362    8    0    1
 -2       632       631       746      2708      3058      3059
 -1      1363    8    0    1
 -2       631       745       746      3056      3060      3058
 -1      1364    8    0    1
 -2       633       632       747      2711      3061      3062
 -1      1365    8    0    1
 -2       632       746       747      3059      3063      3061
 -1      1366    8    0    1
 -2       634       633       748      2714      3064      3065
 -1      1367    8    0    1
 -2       633       747       748      3062      3066      3064
 -1      1368    8    0    1
 -2       635       634       749      2717      3067      3068
 -1      1369    8    0    1
 -2       634       748       749      3065      3069      3067
 -1      1370    8    0    1
 -2       636       635       750      2720      3070      3071
 -1      1371    8    0    1
 -2       635       749       750      3068      3072      3070
 -1      1372    8    0    1
 -2       637       636       751      2723      3073      3074
 -1      1373    8    0    1
 -2       636       750       751      3071      3075      3073
 -1      1374    8    0    1
 -2       638       637       752      2726      3076      3077
 -1      1375    8    0    1
 -2       637       751       752      3074      3078      3076
 -1      1376    8    0    1
 -2       639       638       753      2729      3079      3080
 -1      1377    8    0    1
 -2       638       752       753      3077      3081      3079
 -1      1378    8    0    1
 -2       640       639       754      2732      3082      3083
 -1      1379    8    0    1
 -2       639       753       754      3080      3084      3082
 -1      1380    8    0    1
 -2       641       640       755      2735      3085      3086
 -1      1381    8    0    1
 -2       640       754       755      3083      3087      3085
 -1      1382    8    0    1
 -2       642       641       756      2738      3088      3089
 -1      1383    8    0    1
 -2       641       755       756      3086      3090      3088
 -1      1384    8    0    1
 -2       643       642       757      2741      3091      3092
 -1      1385    8    0    1
 -2       642       756       757      3089      3093      3091
 -1      1386    8    0    1
 -2       644       643       758      2744      3094      3095
 -1      1387    8    0    1
 -2       643       757       758      3092      3096      3094
 -1      1388    8    0    1
 -2       645       644       759      2747      3097      3098
 -1      1389    8    0    1
 -2       644       758       759      3095      3099      3097
 -1      1390    8    0    1
 -2       646       645       760      2750      3100      3101
 -1      1391    8    0    1
 -2       645       759       760      3098      3102      3100
 -1      1392    8    0    1
 -2       647       646       761      2753      3103      3104
 -1      1393    8    0    1
 -2       646       760       761      3101      3105      3103
 -1      1394    8    0    1
 -2       648       647       762      2756      3106      3107
 -1      1395    8    0    1
 -2       647       761       762      3104      3108      3106
 -1      1396    8    0    1
 -2       649       648       763      2759      3109      3110
 -1      1397    8    0    1
 -2       648       762       763      3107      3111      3109
 -1      1398    8    0    1
 -2       650       649       764      2762      3112      3113
 -1      1399    8    0    1
 -2       649       763       764      3110      3114      3112
 -1      1400    8    0    1
 -2       651       650       765      2765      3115      3116
 -1      1401    8    0    1
 -2       650       764       765      3113      3117      3115
 -1      1402    8    0    1
 -2       716       528       699      2957      2905      3118
 -1      1403    8    0    1
 -2       697       653       766      2901      3119      3120
 -1      1404    8    0    1
 -2       690       691       767      2886      3121      3122
 -1      1405    8    0    1
 -2       691       726       767      3001      3123      3121
 -1      1406    8    0    1
 -2       655       656       768      2782      3124      3125
 -1      1407    8    0    1
 -2       653       654       769      2776      3126      3127
 -1      1408    8    0    1
 -2       653       769       766      3127      3128      3119
 -1      1409    8    0    1
 -2       656       657       770      2785      3129      3130
 -1      1410    8    0    1
 -2       656       770       768      3130      3131      3124
 -1      1411    8    0    1
 -2       657       658       771      2788      3132      3133
 -1      1412    8    0    1
 -2       657       771       770      3133      3134      3129
 -1      1413    8    0    1
 -2       658       659       772      2791      3135      3136
 -1      1414    8    0    1
 -2       658       772       771      3136      3137      3132
 -1      1415    8    0    1
 -2       659       660       773      2794      3138      3139
 -1      1416    8    0    1
 -2       659       773       772      3139      3140      3135
 -1      1417    8    0    1
 -2       660       661       774      2797      3141      3142
 -1      1418    8    0    1
 -2       660       774       773      3142      3143      3138
 -1      1419    8    0    1
 -2       661       662       775      2800      3144      3145
 -1      1420    8    0    1
 -2       661       775       774      3145      3146      3141
 -1      1421    8    0    1
 -2       662       663       776      2803      3147      3148
 -1      1422    8    0    1
 -2       662       776       775      3148      3149      3144
 -1      1423    8    0    1
 -2       663       664       777      2806      3150      3151
 -1      1424    8    0    1
 -2       663       777       776      3151      3152      3147
 -1      1425    8    0    1
 -2       664       665       778      2809      3153      3154
 -1      1426    8    0    1
 -2       664       778       777      3154      3155      3150
 -1      1427    8    0    1
 -2       665       666       779      2812      3156      3157
 -1      1428    8    0    1
 -2       665       779       778      3157      3158      3153
 -1      1429    8    0    1
 -2       666       667       780      2815      3159      3160
 -1      1430    8    0    1
 -2       666       780       779      3160      3161      3156
 -1      1431    8    0    1
 -2       667       668       781      2818      3162      3163
 -1      1432    8    0    1
 -2       667       781       780      3163      3164      3159
 -1      1433    8    0    1
 -2       668       669       782      2821      3165      3166
 -1      1434    8    0    1
 -2       668       782       781      3166      3167      3162
 -1      1435    8    0    1
 -2       669       670       783      2824      3168      3169
 -1      1436    8    0    1
 -2       669       783       782      3169      3170      3165
 -1      1437    8    0    1
 -2       670       671       784      2827      3171      3172
 -1      1438    8    0    1
 -2       670       784       783      3172      3173      3168
 -1      1439    8    0    1
 -2       671       672       785      2830      3174      3175
 -1      1440    8    0    1
 -2       671       785       784      3175      3176      3171
 -1      1441    8    0    1
 -2       672       673       786      2833      3177      3178
 -1      1442    8    0    1
 -2       672       786       785      3178      3179      3174
 -1      1443    8    0    1
 -2       673       674       787      2836      3180      3181
 -1      1444    8    0    1
 -2       673       787       786      3181      3182      3177
 -1      1445    8    0    1
 -2       674       675       788      2839      3183      3184
 -1      1446    8    0    1
 -2       674       788       787      3184      3185      3180
 -1      1447    8    0    1
 -2       675       676       789      2842      3186      3187
 -1      1448    8    0    1
 -2       675       789       788      3187      3188      3183
 -1      1449    8    0    1
 -2       676       677       790      2845      3189      3190
 -1      1450    8    0    1
 -2       676       790       789      3190      3191      3186
 -1      1451    8    0    1
 -2       677       678       791      2848      3192      3193
 -1      1452    8    0    1
 -2       677       791       790      3193      3194      3189
 -1      1453    8    0    1
 -2       678       679       792      2851      3195      3196
 -1      1454    8    0    1
 -2       678       792       791      3196      3197      3192
 -1      1455    8    0    1
 -2       679       680       793      2854      3198      3199
 -1      1456    8    0    1
 -2       679       793       792      3199      3200      3195
 -1      1457    8    0    1
 -2       680       681       794      2857      3201      3202
 -1      1458    8    0    1
 -2       680       794       793      3202      3203      3198
 -1      1459    8    0    1
 -2       681       682       795      2860      3204      3205
 -1      1460    8    0    1
 -2       681       795       794      3205      3206      3201
 -1      1461    8    0    1
 -2       682       683       796      2863      3207      3208
 -1      1462    8    0    1
 -2       682       796       795      3208      3209      3204
 -1      1463    8    0    1
 -2       683       684       797      2866      3210      3211
 -1      1464    8    0    1
 -2       796       683       797      3207      3211      3212
 -1      1465    8    0    1
 -2       684       717       797      2960      3213      3210
 -1      1466    8    0    1
 -2       685       688       798      2876      3214      3215
 -1      1467    8    0    1
 -2       686       708       799      2962      3216      3217
 -1      1468    8    0    1
 -2       695       589       800      2895      3218      3219
 -1      1469    8    0    1
 -2       693       700       801      2965      3220      3221
 -1      1470    8    0    1
 -2       589       710       800      2931      3222      3218
 -1      1471    8    0    1
 -2       610       702       802      2945      3223      3224
 -1      1472    8    0    1
 -2       607       608       724      2976      3225      2995
 -1      1473    8    0    1
 -2       712       695       803      2936      3226      3227
 -1      1474    8    0    1
 -2       711       579       716      2932      2975      3228
 -1      1475    8    0    1
 -2       710       610       804      2954      3229      3230
 -1      1476    8    0    1
 -2       707       712       805      2979      3231      3232
 -1      1477    8    0    1
 -2       611       701       806      2910      3233      3234
 -1      1478    8    0    1
 -2       701       715       807      2992      3235      3236
 -1      1479    8    0    1
 -2       715       714       807      2952      3237      3235
 -1      1480    8    0    1
 -2       692       609       808      2964      3238      3239
 -1      1481    8    0    1
 -2       726       692       808      3000      3239      3240
 -1      1482    8    0    1
 -2       609       652       808      2768      3241      3238
 -1      1483    8    0    1
 -2       604       703       799      2916      3242      3243
 -1      1484    8    0    1
 -2       612       611       809      2648      3244      3245
 -1      1485    8    0    1
 -2       612       809       727      3245      3246      3002
 -1      1486    8    0    1
 -2       654       655       810      2779      3247      3248
 -1      1487    8    0    1
 -2       655       768       810      3125      3249      3247
 -1      1488    8    0    1
 -2       708       705       811      2977      3250      3251
 -1      1489    8    0    1
 -2       700       698       812      2956      3252      3253
 -1      1490    8    0    1
 -2       605       604       811      2630      3254      3255
 -1      1491    8    0    1
 -2       706       686       724      2963      3256      3257
 -1      1492    8    0    1
 -2       694       709       813      2929      3258      3259
 -1      1493    8    0    1
 -2       580       527       716      2612      2958      2974
 -1      1494    8    0    1
 -2       702       694       814      2969      3260      3261
 -1      1495    8    0    1
 -2       694       813       814      3259      3262      3260
 -1      1496    8    0    1
 -2       688       690       815      2883      3263      3264
 -1      1497    8    0    1
 -2       798       688       815      3214      3264      3265
 -1      1498    8    0    1
 -2       690       767       815      3122      3266      3263
 -1      1499    8    0    1
 -2       705       696       816      2953      3267      3268
 -1      1500    8    0    1
 -2       695       800       817      3219      3269      3270
 -1      1501    8    0    1
 -2       695       817       803      3270      3271      3226
 -1      1502    8    0    1
 -2       709       719       818      2973      3272      3273
 -1      1503    8    0    1
 -2       709       818       813      3273      3274      3258
 -1      1504    8    0    1
 -2       725       693       801      2998      3221      3275
 -1      1505    8    0    1
 -2       708       811       799      3251      3276      3216
 -1      1506    8    0    1
 -2       714       704       819      2948      3277      3278
 -1      1507    8    0    1
 -2       714       819       807      3278      3279      3237
 -1      1508    8    0    1
 -2       604       799       811      3243      3276      3254
 -1      1509    8    0    1
 -2       652       651       808      2769      3280      3241
 -1      1510    8    0    1
 -2       721       707       820      2987      3281      3282
 -1      1511    8    0    1
 -2       707       805       820      3232      3283      3281
 -1      1512    8    0    1
 -2       705       816       811      3268      3284      3250
 -1      1513    8    0    1
 -2       685       798       821      3215      3285      3286
 -1      1514    8    0    1
 -2       685       821       689      3286      3287      2880
 -1      1515    8    0    1
 -2       816       696       725      3267      2999      3288
 -1      1516    8    0    1
 -2       687       689       822      2879      3289      3290
 -1      1517    8    0    1
 -2       689       821       822      3287      3291      3289
 -1      1518    8    0    1
 -2       808       651       765      3280      3116      3292
 -1      1519    8    0    1
 -2       812       698       721      3252      2986      3293
 -1      1520    8    0    1
 -2       686       799       723      3217      3294      3295
 -1      1521    8    0    1
 -2       800       710       823      3222      3296      3297
 -1      1522    8    0    1
 -2       802       702       814      3223      3261      3298
 -1      1523    8    0    1
 -2       806       701       807      3233      3236      3299
 -1      1524    8    0    1
 -2       805       712       803      3231      3227      3300
 -1      1525    8    0    1
 -2       719       602       824      2971      3301      3302
 -1      1526    8    0    1
 -2       602       718       824      2967      3303      3301
 -1      1527    8    0    1
 -2       801       700       812      3220      3253      3304
 -1      1528    8    0    1
 -2       804       610       802      3229      3224      3305
 -1      1529    8    0    1
 -2       710       804       823      3230      3306      3296
 -1      1530    8    0    1
 -2       769       654       810      3126      3248      3307
 -1      1531    8    0    1
 -2       611       806       809      3234      3308      3244
 -1      1532    8    0    1
 -2       720       687       825      2984      3309      3310
 -1      1533    8    0    1
 -2       687       822       825      3290      3311      3309
 -1      1534    8    0    1
 -2       697       766       824      3120      3312      3313
 -1      1535    8    0    1
 -2       799       703       723      3242      2994      3294
 -1      1536    8    0    1
 -2       586       583       577      2548      3314      2978
 -1      1537    8    0    1
 -2       605       811       826      3255      3315      3316
 -1      1538    8    0    1
 -2       713       605       826      2939      3316      3317
 -1      1539    8    0    1
 -2       811       816       826      3284      3318      3315
 -1      1540    8    0    1
 -2       704       722       827      2990      3319      3320
 -1      1541    8    0    1
 -2       704       827       819      3320      3321      3277
 -1      1542    8    0    1
 -2       603       706       828      2955      3322      3323
 -1      1543    8    0    1
 -2       817       800       823      3269      3297      3324
 -1      1544    8    0    1
 -2       577       583       603      3314      2625      2970
 -1      1545    8    0    1
 -2       686       723       724      3295      2997      3256
 -1      1546    8    0    1
 -2       812       721       829      3293      3325      3326
 -1      1547    8    0    1
 -2       726       808       765      3240      3292      3327
 -1      1548    8    0    1
 -2       729       728       830      3009      3328      3329
 -1      1549    8    0    1
 -2       730       729       831      3012      3330      3331
 -1      1550    8    0    1
 -2       729       830       831      3329      3332      3330
 -1      1551    8    0    1
 -2       731       730       832      3015      3333      3334
 -1      1552    8    0    1
 -2       730       831       832      3331      3335      3333
 -1      1553    8    0    1
 -2       732       731       833      3018      3336      3337
 -1      1554    8    0    1
 -2       731       832       833      3334      3338      3336
 -1      1555    8    0    1
 -2       733       732       834      3021      3339      3340
 -1      1556    8    0    1
 -2       732       833       834      3337      3341      3339
 -1      1557    8    0    1
 -2       734       733       835      3024      3342      3343
 -1      1558    8    0    1
 -2       733       834       835      3340      3344      3342
 -1      1559    8    0    1
 -2       735       734       836      3027      3345      3346
 -1      1560    8    0    1
 -2       734       835       836      3343      3347      3345
 -1      1561    8    0    1
 -2       736       735       837      3030      3348      3349
 -1      1562    8    0    1
 -2       735       836       837      3346      3350      3348
 -1      1563    8    0    1
 -2       737       736       838      3033      3351      3352
 -1      1564    8    0    1
 -2       736       837       838      3349      3353      3351
 -1      1565    8    0    1
 -2       738       737       839      3036      3354      3355
 -1      1566    8    0    1
 -2       737       838       839      3352      3356      3354
 -1      1567    8    0    1
 -2       739       738       840      3039      3357      3358
 -1      1568    8    0    1
 -2       738       839       840      3355      3359      3357
 -1      1569    8    0    1
 -2       740       739       841      3042      3360      3361
 -1      1570    8    0    1
 -2       739       840       841      3358      3362      3360
 -1      1571    8    0    1
 -2       741       740       842      3045      3363      3364
 -1      1572    8    0    1
 -2       740       841       842      3361      3365      3363
 -1      1573    8    0    1
 -2       742       741       843      3048      3366      3367
 -1      1574    8    0    1
 -2       741       842       843      3364      3368      3366
 -1      1575    8    0    1
 -2       743       742       844      3051      3369      3370
 -1      1576    8    0    1
 -2       742       843       844      3367      3371      3369
 -1      1577    8    0    1
 -2       744       743       845      3054      3372      3373
 -1      1578    8    0    1
 -2       743       844       845      3370      3374      3372
 -1      1579    8    0    1
 -2       745       744       846      3057      3375      3376
 -1      1580    8    0    1
 -2       744       845       846      3373      3377      3375
 -1      1581    8    0    1
 -2       746       745       847      3060      3378      3379
 -1      1582    8    0    1
 -2       745       846       847      3376      3380      3378
 -1      1583    8    0    1
 -2       747       746       848      3063      3381      3382
 -1      1584    8    0    1
 -2       746       847       848      3379      3383      3381
 -1      1585    8    0    1
 -2       748       747       849      3066      3384      3385
 -1      1586    8    0    1
 -2       747       848       849      3382      3386      3384
 -1      1587    8    0    1
 -2       749       748       850      3069      3387      3388
 -1      1588    8    0    1
 -2       748       849       850      3385      3389      3387
 -1      1589    8    0    1
 -2       750       749       851      3072      3390      3391
 -1      1590    8    0    1
 -2       749       850       851      3388      3392      3390
 -1      1591    8    0    1
 -2       751       750       852      3075      3393      3394
 -1      1592    8    0    1
 -2       750       851       852      3391      3395      3393
 -1      1593    8    0    1
 -2       752       751       853      3078      3396      3397
 -1      1594    8    0    1
 -2       751       852       853      3394      3398      3396
 -1      1595    8    0    1
 -2       753       752       854      3081      3399      3400
 -1      1596    8    0    1
 -2       752       853       854      3397      3401      3399
 -1      1597    8    0    1
 -2       754       753       855      3084      3402      3403
 -1      1598    8    0    1
 -2       753       854       855      3400      3404      3402
 -1      1599    8    0    1
 -2       755       754       856      3087      3405      3406
 -1      1600    8    0    1
 -2       754       855       856      3403      3407      3405
 -1      1601    8    0    1
 -2       756       755       857      3090      3408      3409
 -1      1602    8    0    1
 -2       755       856       857      3406      3410      3408
 -1      1603    8    0    1
 -2       757       756       858      3093      3411      3412
 -1      1604    8    0    1
 -2       756       857       858      3409      3413      3411
 -1      1605    8    0    1
 -2       758       757       859      3096      3414      3415
 -1      1606    8    0    1
 -2       757       858       859      3412      3416      3414
 -1      1607    8    0    1
 -2       759       758       860      3099      3417      3418
 -1      1608    8    0    1
 -2       758       859       860      3415      3419      3417
 -1      1609    8    0    1
 -2       760       759       861      3102      3420      3421
 -1      1610    8    0    1
 -2       759       860       861      3418      3422      3420
 -1      1611    8    0    1
 -2       761       760       862      3105      3423      3424
 -1      1612    8    0    1
 -2       760       861       862      3421      3425      3423
 -1      1613    8    0    1
 -2       762       761       863      3108      3426      3427
 -1      1614    8    0    1
 -2       761       862       863      3424      3428      3426
 -1      1615    8    0    1
 -2       763       762       864      3111      3429      3430
 -1      1616    8    0    1
 -2       762       863       864      3427      3431      3429
 -1      1617    8    0    1
 -2       764       763       865      3114      3432      3433
 -1      1618    8    0    1
 -2       763       864       865      3430      3434      3432
 -1      1619    8    0    1
 -2       765       764       866      3117      3435      3436
 -1      1620    8    0    1
 -2       764       865       866      3433      3437      3435
 -1      1621    8    0    1
 -2       767       726       867      3123      3438      3439
 -1      1622    8    0    1
 -2       725       801       868      3275      3440      3441
 -1      1623    8    0    1
 -2       768       770       869      3131      3442      3443
 -1      1624    8    0    1
 -2       770       771       870      3134      3444      3445
 -1      1625    8    0    1
 -2       770       870       869      3445      3446      3442
 -1      1626    8    0    1
 -2       766       769       871      3128      3447      3448
 -1      1627    8    0    1
 -2       771       772       872      3137      3449      3450
 -1      1628    8    0    1
 -2       771       872       870      3450      3451      3444
 -1      1629    8    0    1
 -2       772       773       873      3140      3452      3453
 -1      1630    8    0    1
 -2       772       873       872      3453      3454      3449
 -1      1631    8    0    1
 -2       773       774       874      3143      3455      3456
 -1      1632    8    0    1
 -2       773       874       873      3456      3457      3452
 -1      1633    8    0    1
 -2       774       775       875      3146      3458      3459
 -1      1634    8    0    1
 -2       774       875       874      3459      3460      3455
 -1      1635    8    0    1
 -2       775       776       876      3149      3461      3462
 -1      1636    8    0    1
 -2       775       876       875      3462      3463      3458
 -1      1637    8    0    1
 -2       776       777       877      3152      3464      3465
 -1      1638    8    0    1
 -2       776       877       876      3465      3466      3461
 -1      1639    8    0    1
 -2       777       778       878      3155      3467      3468
 -1      1640    8    0    1
 -2       777       878       877      3468      3469      3464
 -1      1641    8    0    1
 -2       778       779       879      3158      3470      3471
 -1      1642    8    0    1
 -2       778       879       878      3471      3472      3467
 -1      1643    8    0    1
 -2       779       780       880      3161      3473      3474
 -1      1644    8    0    1
 -2       779       880       879      3474      3475      3470
 -1      1645    8    0    1
 -2       780       781       881      3164      3476      3477
 -1      1646    8    0    1
 -2       780       881       880      3477      3478      3473
 -1      1647    8    0    1
 -2       781       782       882      3167      3479      3480
 -1      1648    8    0    1
 -2       781       882       881      3480      3481      3476
 -1      1649    8    0    1
 -2       782       783       883      3170      3482      3483
 -1      1650    8    0    1
 -2       782       883       882      3483      3484      3479
 -1      1651    8    0    1
 -2       783       784       884      3173      3485      3486
 -1      1652    8    0    1
 -2       783       884       883      3486      3487      3482
 -1      1653    8    0    1
 -2       784       785       885      3176      3488      3489
 -1      1654    8    0    1
 -2       784       885       884      3489      3490      3485
 -1      1655    8    0    1
 -2       785       786       886      3179      3491      3492
 -1      1656    8    0    1
 -2       785       886       885      3492      3493      3488
 -1      1657    8    0    1
 -2       786       787       887      3182      3494      3495
 -1      1658    8    0    1
 -2       786       887       886      3495      3496      3491
 -1      1659    8    0    1
 -2       787       788       888      3185      3497      3498
 -1      1660    8    0    1
 -2       787       888       887      3498      3499      3494
 -1      1661    8    0    1
 -2       788       789       889      3188      3500      3501
 -1      1662    8    0    1
 -2       788       889       888      3501      3502      3497
 -1      1663    8    0    1
 -2       789       790       890      3191      3503      3504
 -1      1664    8    0    1
 -2       789       890       889      3504      3505      3500
 -1      1665    8    0    1
 -2       790       791       891      3194      3506      3507
 -1      1666    8    0    1
 -2       790       891       890      3507      3508      3503
 -1      1667    8    0    1
 -2       791       792       892      3197      3509      3510
 -1      1668    8    0    1
 -2       791       892       891      3510      3511      3506
 -1      1669    8    0    1
 -2       792       793       893      3200      3512      3513
 -1      1670    8    0    1
 -2       792       893       892      3513      3514      3509
 -1      1671    8    0    1
 -2       793       794       894      3203      3515      3516
 -1      1672    8    0    1
 -2       793       894       893      3516      3517      3512
 -1      1673    8    0    1
 -2       794       795       895      3206      3518      3519
 -1      1674    8    0    1
 -2       794       895       894      3519      3520      3515
 -1      1675    8    0    1
 -2       795       796       896      3209      3521      3522
 -1      1676    8    0    1
 -2       795       896       895      3522      3523      3518
 -1      1677    8    0    1
 -2       807       819       897      3279      3524      3525
 -1      1678    8    0    1
 -2       807       897       806      3525      3526      3299
 -1      1679    8    0    1
 -2       769       810       898      3307      3527      3528
 -1      1680    8    0    1
 -2       769       898       871      3528      3529      3447
 -1      1681    8    0    1
 -2       816       725       899      3288      3530      3531
 -1      1682    8    0    1
 -2       826       816       899      3318      3531      3532
 -1      1683    8    0    1
 -2       725       868       899      3441      3533      3530
 -1      1684    8    0    1
 -2       802       814       900      3298      3534      3535
 -1      1685    8    0    1
 -2       814       813       901      3262      3536      3537
 -1      1686    8    0    1
 -2       823       804       902      3306      3538      3539
 -1      1687    8    0    1
 -2       728       727       903      3006      3540      3541
 -1      1688    8    0    1
 -2       728       903       830      3541      3542      3328
 -1      1689    8    0    1
 -2       824       766       904      3312      3543      3544
 -1      1690    8    0    1
 -2       719       824       904      3302      3544      3545
 -1      1691    8    0    1
 -2       766       871       904      3448      3546      3543
 -1      1692    8    0    1
 -2       809       806       897      3308      3526      3547
 -1      1693    8    0    1
 -2       722       713       905      2991      3548      3549
 -1      1694    8    0    1
 -2       827       722       905      3319      3549      3550
 -1      1695    8    0    1
 -2       713       826       905      3317      3551      3548
 -1      1696    8    0    1
 -2       801       812       906      3304      3552      3553
 -1      1697    8    0    1
 -2       801       906       868      3553      3554      3440
 -1      1698    8    0    1
 -2       805       803       907      3300      3555      3556
 -1      1699    8    0    1
 -2       608       603       828      2943      3323      3557
 -1      1700    8    0    1
 -2       727       809       908      3246      3558      3559
 -1      1701    8    0    1
 -2       727       908       903      3559      3560      3540
 -1      1702    8    0    1
 -2       810       768       909      3249      3561      3562
 -1      1703    8    0    1
 -2       768       869       909      3443      3563      3561
 -1      1704    8    0    1
 -2       717       720       910      2983      3564      3565
 -1      1705    8    0    1
 -2       797       717       910      3213      3565      3566
 -1      1706    8    0    1
 -2       720       825       910      3310      3567      3564
 -1      1707    8    0    1
 -2       697       824       718      3313      3303      3568
 -1      1708    8    0    1
 -2       804       802       911      3305      3569      3570
 -1      1709    8    0    1
 -2       706       724       828      3257      3571      3322
 -1      1710    8    0    1
 -2       817       823       912      3324      3572      3573
 -1      1711    8    0    1
 -2       823       902       912      3539      3574      3572
 -1      1712    8    0    1
 -2       803       817       913      3271      3575      3576
 -1      1713    8    0    1
 -2       907       803       913      3555      3576      3577
 -1      1714    8    0    1
 -2       817       912       913      3573      3578      3575
 -1      1715    8    0    1
 -2       699       697       718      2980      3568      3579
 -1      1716    8    0    1
 -2       608       828       724      3557      3571      3225
 -1      1717    8    0    1
 -2       699       718       711      3579      2968      3580
 -1      1718    8    0    1
 -2       906       812       829      3552      3326      3581
 -1      1719    8    0    1
 -2       829       721       820      3325      3282      3582
 -1      1720    8    0    1
 -2       726       765       914      3327      3583      3584
 -1      1721    8    0    1
 -2       719       904       818      3545      3585      3272
 -1      1722    8    0    1
 -2       716       699       711      3118      3580      3228
 -1      1723    8    0    1
 -2       767       867       915      3439      3586      3587
 -1      1724    8    0    1
 -2       767       915       815      3587      3588      3266
 -1      1725    8    0    1
 -2       802       900       911      3535      3589      3569
 -1      1726    8    0    1
 -2       821       798       916      3285      3590      3591
 -1      1727    8    0    1
 -2       897       819       917      3524      3592      3593
 -1      1728    8    0    1
 -2       819       827       917      3321      3594      3592
 -1      1729    8    0    1
 -2       796       797       910      3212      3566      3595
 -1      1730    8    0    1
 -2       822       821       918      3291      3596      3597
 -1      1731    8    0    1
 -2       821       916       918      3591      3598      3596
 -1      1732    8    0    1
 -2       898       810       909      3527      3562      3599
 -1      1733    8    0    1
 -2       901       813       919      3536      3600      3601
 -1      1734    8    0    1
 -2       814       901       900      3537      3602      3534
 -1      1735    8    0    1
 -2       804       911       920      3570      3603      3604
 -1      1736    8    0    1
 -2       804       920       902      3604      3605      3538
 -1      1737    8    0    1
 -2       809       897       908      3547      3606      3558
 -1      1738    8    0    1
 -2       813       818       919      3274      3607      3600
 -1      1739    8    0    1
 -2       796       910       896      3595      3608      3521
 -1      1740    8    0    1
 -2       825       822       921      3311      3609      3610
 -1      1741    8    0    1
 -2       822       918       921      3597      3611      3609
 -1      1742    8    0    1
 -2       798       815       922      3265      3612      3613
 -1      1743    8    0    1
 -2       916       798       922      3590      3613      3614
 -1      1744    8    0    1
 -2       815       915       922      3588      3615      3612
 -1      1745    8    0    1
 -2       914       765       866      3583      3436      3616
 -1      1746    8    0    1
 -2       903       908       923      3560      3617      3618
 -1      1747    8    0    1
 -2       818       904       924      3585      3619      3620
 -1      1748    8    0    1
 -2       919       818       924      3607      3620      3621
 -1      1749    8    0    1
 -2       904       871       924      3546      3622      3619
 -1      1750    8    0    1
 -2       832       831       820      3335      3623      3624
 -1      1751    8    0    1
 -2       833       832       907      3338      3625      3626
 -1      1752    8    0    1
 -2       834       833       913      3341      3627      3628
 -1      1753    8    0    1
 -2       835       834       912      3344      3629      3630
 -1      1754    8    0    1
 -2       837       836       925      3350      3631      3632
 -1      1755    8    0    1
 -2       838       837       926      3353      3633      3634
 -1      1756    8    0    1
 -2       837       925       926      3632      3635      3633
 -1      1757    8    0    1
 -2       839       838       927      3356      3636      3637
 -1      1758    8    0    1
 -2       838       926       927      3634      3638      3636
 -1      1759    8    0    1
 -2       840       839       928      3359      3639      3640
 -1      1760    8    0    1
 -2       839       927       928      3637      3641      3639
 -1      1761    8    0    1
 -2       841       840       929      3362      3642      3643
 -1      1762    8    0    1
 -2       840       928       929      3640      3644      3642
 -1      1763    8    0    1
 -2       842       841       930      3365      3645      3646
 -1      1764    8    0    1
 -2       841       929       930      3643      3647      3645
 -1      1765    8    0    1
 -2       843       842       931      3368      3648      3649
 -1      1766    8    0    1
 -2       842       930       931      3646      3650      3648
 -1      1767    8    0    1
 -2       844       843       932      3371      3651      3652
 -1      1768    8    0    1
 -2       843       931       932      3649      3653      3651
 -1      1769    8    0    1
 -2       845       844       933      3374      3654      3655
 -1      1770    8    0    1
 -2       844       932       933      3652      3656      3654
 -1      1771    8    0    1
 -2       846       845       934      3377      3657      3658
 -1      1772    8    0    1
 -2       845       933       934      3655      3659      3657
 -1      1773    8    0    1
 -2       847       846       935      3380      3660      3661
 -1      1774    8    0    1
 -2       846       934       935      3658      3662      3660
 -1      1775    8    0    1
 -2       848       847       936      3383      3663      3664
 -1      1776    8    0    1
 -2       847       935       936      3661      3665      3663
 -1      1777    8    0    1
 -2       849       848       937      3386      3666      3667
 -1      1778    8    0    1
 -2       848       936       937      3664      3668      3666
 -1      1779    8    0    1
 -2       850       849       938      3389      3669      3670
 -1      1780    8    0    1
 -2       849       937       938      3667      3671      3669
 -1      1781    8    0    1
 -2       851       850       939      3392      3672      3673
 -1      1782    8    0    1
 -2       850       938       939      3670      3674      3672
 -1      1783    8    0    1
 -2       852       851       940      3395      3675      3676
 -1      1784    8    0    1
 -2       851       939       940      3673      3677      3675
 -1      1785    8    0    1
 -2       853       852       941      3398      3678      3679
 -1      1786    8    0    1
 -2       852       940       941      3676      3680      3678
 -1      1787    8    0    1
 -2       854       853       942      3401      3681      3682
 -1      1788    8    0    1
 -2       853       941       942      3679      3683      3681
 -1      1789    8    0    1
 -2       855       854       943      3404      3684      3685
 -1      1790    8    0    1
 -2       854       942       943      3682      3686      3684
 -1      1791    8    0    1
 -2       856       855       944      3407      3687      3688
 -1      1792    8    0    1
 -2       855       943       944      3685      3689      3687
 -1      1793    8    0    1
 -2       857       856       945      3410      3690      3691
 -1      1794    8    0    1
 -2       856       944       945      3688      3692      3690
 -1      1795    8    0    1
 -2       858       857       946      3413      3693      3694
 -1      1796    8    0    1
 -2       857       945       946      3691      3695      3693
 -1      1797    8    0    1
 -2       859       858       947      3416      3696      3697
 -1      1798    8    0    1
 -2       858       946       947      3694      3698      3696
 -1      1799    8    0    1
 -2       860       859       948      3419      3699      3700
 -1      1800    8    0    1
 -2       859       947       948      3697      3701      3699
 -1      1801    8    0    1
 -2       861       860       949      3422      3702      3703
 -1      1802    8    0    1
 -2       860       948       949      3700      3704      3702
 -1      1803    8    0    1
 -2       862       861       950      3425      3705      3706
 -1      1804    8    0    1
 -2       861       949       950      3703      3707      3705
 -1      1805    8    0    1
 -2       863       862       951      3428      3708      3709
 -1      1806    8    0    1
 -2       862       950       951      3706      3710      3708
 -1      1807    8    0    1
 -2       864       863       952      3431      3711      3712
 -1      1808    8    0    1
 -2       863       951       952      3709      3713      3711
 -1      1809    8    0    1
 -2       865       864       953      3434      3714      3715
 -1      1810    8    0    1
 -2       864       952       953      3712      3716      3714
 -1      1811    8    0    1
 -2       866       865       954      3437      3717      3718
 -1      1812    8    0    1
 -2       865       953       954      3715      3719      3717
 -1      1813    8    0    1
 -2       820       805       832      3283      3720      3624
 -1      1814    8    0    1
 -2       869       870       955      3446      3721      3722
 -1      1815    8    0    1
 -2       870       872       956      3451      3723      3724
 -1      1816    8    0    1
 -2       870       956       955      3724      3725      3721
 -1      1817    8    0    1
 -2       874       875       957      3460      3726      3727
 -1      1818    8    0    1
 -2       875       876       958      3463      3728      3729
 -1      1819    8    0    1
 -2       875       958       957      3729      3730      3726
 -1      1820    8    0    1
 -2       876       877       959      3466      3731      3732
 -1      1821    8    0    1
 -2       876       959       958      3732      3733      3728
 -1      1822    8    0    1
 -2       877       878       960      3469      3734      3735
 -1      1823    8    0    1
 -2       877       960       959      3735      3736      3731
 -1      1824    8    0    1
 -2       878       879       961      3472      3737      3738
 -1      1825    8    0    1
 -2       878       961       960      3738      3739      3734
 -1      1826    8    0    1
 -2       879       880       962      3475      3740      3741
 -1      1827    8    0    1
 -2       879       962       961      3741      3742      3737
 -1      1828    8    0    1
 -2       880       881       963      3478      3743      3744
 -1      1829    8    0    1
 -2       880       963       962      3744      3745      3740
 -1      1830    8    0    1
 -2       881       882       964      3481      3746      3747
 -1      1831    8    0    1
 -2       881       964       963      3747      3748      3743
 -1      1832    8    0    1
 -2       882       883       965      3484      3749      3750
 -1      1833    8    0    1
 -2       882       965       964      3750      3751      3746
 -1      1834    8    0    1
 -2       883       884       966      3487      3752      3753
 -1      1835    8    0    1
 -2       883       966       965      3753      3754      3749
 -1      1836    8    0    1
 -2       884       885       967      3490      3755      3756
 -1      1837    8    0    1
 -2       884       967       966      3756      3757      3752
 -1      1838    8    0    1
 -2       885       886       968      3493      3758      3759
 -1      1839    8    0    1
 -2       885       968       967      3759      3760      3755
 -1      1840    8    0    1
 -2       886       887       969      3496      3761      3762
 -1      1841    8    0    1
 -2       886       969       968      3762      3763      3758
 -1      1842    8    0    1
 -2       887       888       970      3499      3764      3765
 -1      1843    8    0    1
 -2       887       970       969      3765      3766      3761
 -1      1844    8    0    1
 -2       888       889       971      3502      3767      3768
 -1      1845    8    0    1
 -2       888       971       970      3768      3769      3764
 -1      1846    8    0    1
 -2       889       890       972      3505      3770      3771
 -1      1847    8    0    1
 -2       889       972       971      3771      3772      3767
 -1      1848    8    0    1
 -2       890       891       973      3508      3773      3774
 -1      1849    8    0    1
 -2       890       973       972      3774      3775      3770
 -1      1850    8    0    1
 -2       891       892       974      3511      3776      3777
 -1      1851    8    0    1
 -2       891       974       973      3777      3778      3773
 -1      1852    8    0    1
 -2       892       893       975      3514      3779      3780
 -1      1853    8    0    1
 -2       892       975       974      3780      3781      3776
 -1      1854    8    0    1
 -2       893       894       976      3517      3782      3783
 -1      1855    8    0    1
 -2       893       976       975      3783      3784      3779
 -1      1856    8    0    1
 -2       894       895       977      3520      3785      3786
 -1      1857    8    0    1
 -2       894       977       976      3786      3787      3782
 -1      1858    8    0    1
 -2       918       916       978      3598      3788      3789
 -1      1859    8    0    1
 -2       896       910       825      3608      3567      3790
 -1      1860    8    0    1
 -2       829       820       831      3582      3623      3791
 -1      1861    8    0    1
 -2       872       873       979      3454      3792      3793
 -1      1862    8    0    1
 -2       872       979       956      3793      3794      3723
 -1      1863    8    0    1
 -2       831       830       829      3332      3795      3791
 -1      1864    8    0    1
 -2       873       874       980      3457      3796      3797
 -1      1865    8    0    1
 -2       874       957       980      3727      3798      3796
 -1      1866    8    0    1
 -2       900       901       981      3602      3799      3800
 -1      1867    8    0    1
 -2       871       898       982      3529      3801      3802
 -1      1868    8    0    1
 -2       871       982       924      3802      3803      3622
 -1      1869    8    0    1
 -2       912       834       913      3629      3628      3578
 -1      1870    8    0    1
 -2       830       903       829      3542      3804      3795
 -1      1871    8    0    1
 -2       805       907       832      3556      3625      3720
 -1      1872    8    0    1
 -2       909       869       983      3563      3805      3806
 -1      1873    8    0    1
 -2       869       955       983      3722      3807      3805
 -1      1874    8    0    1
 -2       898       909       984      3599      3808      3809
 -1      1875    8    0    1
 -2       982       898       984      3801      3809      3810
 -1      1876    8    0    1
 -2       909       983       984      3806      3811      3808
 -1      1877    8    0    1
 -2       868       906       923      3554      3812      3813
 -1      1878    8    0    1
 -2       901       919       985      3601      3814      3815
 -1      1879    8    0    1
 -2       901       985       981      3815      3816      3799
 -1      1880    8    0    1
 -2       911       900       986      3589      3817      3818
 -1      1881    8    0    1
 -2       908       897       987      3606      3819      3820
 -1      1882    8    0    1
 -2       923       908       987      3617      3820      3821
 -1      1883    8    0    1
 -2       897       917       987      3593      3822      3819
 -1      1884    8    0    1
 -2       833       907       913      3626      3577      3627
 -1      1885    8    0    1
 -2       835       912       988      3630      3823      3824
 -1      1886    8    0    1
 -2       836       835       988      3347      3824      3825
 -1      1887    8    0    1
 -2       912       902       988      3574      3826      3823
 -1      1888    8    0    1
 -2       896       825       921      3790      3610      3827
 -1      1889    8    0    1
 -2       919       924       989      3621      3828      3829
 -1      1890    8    0    1
 -2       919       989       985      3829      3830      3814
 -1      1891    8    0    1
 -2       917       827       990      3594      3831      3832
 -1      1892    8    0    1
 -2       987       917       990      3822      3832      3833
 -1      1893    8    0    1
 -2       827       905       990      3550      3834      3831
 -1      1894    8    0    1
 -2       868       923       987      3813      3821      3835
 -1      1895    8    0    1
 -2       867       726       914      3438      3584      3836
 -1      1896    8    0    1
 -2       900       981       986      3800      3837      3817
 -1      1897    8    0    1
 -2       916       922       991      3614      3838      3839
 -1      1898    8    0    1
 -2       916       991       978      3839      3840      3788
 -1      1899    8    0    1
 -2       826       899       905      3532      3841      3551
 -1      1900    8    0    1
 -2       918       978       992      3789      3842      3843
 -1      1901    8    0    1
 -2       918       992       921      3843      3844      3611
 -1      1902    8    0    1
 -2       895       896       993      3523      3845      3846
 -1      1903    8    0    1
 -2       868       987       990      3835      3833      3847
 -1      1904    8    0    1
 -2       979       873       980      3792      3797      3848
 -1      1905    8    0    1
 -2       899       868       990      3533      3847      3849
 -1      1906    8    0    1
 -2       911       986       994      3818      3850      3851
 -1      1907    8    0    1
 -2       911       994       920      3851      3852      3603
 -1      1908    8    0    1
 -2       906       829       903      3581      3804      3853
 -1      1909    8    0    1
 -2       925       836       988      3631      3825      3854
 -1      1910    8    0    1
 -2       915       867       995      3586      3855      3856
 -1      1911    8    0    1
 -2       988       902       920      3826      3605      3857
 -1      1912    8    0    1
 -2       914       866       954      3616      3718      3858
 -1      1913    8    0    1
 -2       895       993       977      3846      3859      3785
 -1      1914    8    0    1
 -2       867       914       995      3836      3860      3855
 -1      1915    8    0    1
 -2       990       905       899      3834      3841      3849
 -1      1916    8    0    1
 -2       983       955       996      3807      3861      3862
 -1      1917    8    0    1
 -2       927       926       997      3638      3863      3864
 -1      1918    8    0    1
 -2       928       927       998      3641      3865      3866
 -1      1919    8    0    1
 -2       927       997       998      3864      3867      3865
 -1      1920    8    0    1
 -2       929       928       999      3644      3868      3869
 -1      1921    8    0    1
 -2       928       998       999      3866      3870      3868
 -1      1922    8    0    1
 -2       930       929      1000      3647      3871      3872
 -1      1923    8    0    1
 -2       929       999      1000      3869      3873      3871
 -1      1924    8    0    1
 -2       931       930      1001      3650      3874      3875
 -1      1925    8    0    1
 -2       930      1000      1001      3872      3876      3874
 -1      1926    8    0    1
 -2       932       931      1002      3653      3877      3878
 -1      1927    8    0    1
 -2       931      1001      1002      3875      3879      3877
 -1      1928    8    0    1
 -2       933       932      1003      3656      3880      3881
 -1      1929    8    0    1
 -2       932      1002      1003      3878      3882      3880
 -1      1930    8    0    1
 -2       934       933      1004      3659      3883      3884
 -1      1931    8    0    1
 -2       933      1003      1004      3881      3885      3883
 -1      1932    8    0    1
 -2       935       934      1005      3662      3886      3887
 -1      1933    8    0    1
 -2       934      1004      1005      3884      3888      3886
 -1      1934    8    0    1
 -2       936       935      1006      3665      3889      3890
 -1      1935    8    0    1
 -2       935      1005      1006      3887      3891      3889
 -1      1936    8    0    1
 -2       937       936      1007      3668      3892      3893
 -1      1937    8    0    1
 -2       936      1006      1007      3890      3894      3892
 -1      1938    8    0    1
 -2       938       937      1008      3671      3895      3896
 -1      1939    8    0    1
 -2       937      1007      1008      3893      3897      3895
 -1      1940    8    0    1
 -2       939       938      1009      3674      3898      3899
 -1      1941    8    0    1
 -2       938      1008      1009      3896      3900      3898
 -1      1942    8    0    1
 -2       940       939      1010      3677      3901      3902
 -1      1943    8    0    1
 -2       939      1009      1010      3899      3903      3901
 -1      1944    8    0    1
 -2       941       940      1011      3680      3904      3905
 -1      1945    8    0    1
 -2       940      1010      1011      3902      3906      3904
 -1      1946    8    0    1
 -2       942       941      1012      3683      3907      3908
 -1      1947    8    0    1
 -2       941      1011      1012      3905      3909      3907
 -1      1948    8    0    1
 -2       943       942      1013      3686      3910      3911
 -1      1949    8    0    1
 -2       942      1012      1013      3908      3912      3910
 -1      1950    8    0    1
 -2       944       943      1014      3689      3913      3914
 -1      1951    8    0    1
 -2       943      1013      1014      3911      3915      3913
 -1      1952    8    0    1
 -2       945       944      1015      3692      3916      3917
 -1      1953    8    0    1
 -2       944      1014      1015      3914      3918      3916
 -1      1954    8    0    1
 -2       946       945      1016      3695      3919      3920
 -1      1955    8    0    1
 -2       945      1015      1016      3917      3921      3919
 -1      1956    8    0    1
 -2       947       946      1017      3698      3922      3923
 -1      1957    8    0    1
 -2       946      1016      1017      3920      3924      3922
 -1      1958    8    0    1
 -2       948       947      1018      3701      3925      3926
 -1      1959    8    0    1
 -2       947      1017      1018      3923      3927      3925
 -1      1960    8    0    1
 -2       949       948      1019      3704      3928      3929
 -1      1961    8    0    1
 -2       948      1018      1019      3926      3930      3928
 -1      1962    8    0    1
 -2       950       949      1020      3707      3931      3932
 -1      1963    8    0    1
 -2       949      1019      1020      3929      3933      3931
 -1      1964    8    0    1
 -2       951       950      1021      3710      3934      3935
 -1      1965    8    0    1
 -2       950      1020      1021      3932      3936      3934
 -1      1966    8    0    1
 -2       952       951      1022      3713      3937      3938
 -1      1967    8    0    1
 -2       951      1021      1022      3935      3939      3937
 -1      1968    8    0    1
 -2       953       952      1023      3716      3940      3941
 -1      1969    8    0    1
 -2       952      1022      1023      3938      3942      3940
 -1      1970    8    0    1
 -2       954       953      1024      3719      3943      3944
 -1      1971    8    0    1
 -2       953      1023      1024      3941      3945      3943
 -1      1972    8    0    1
 -2       955       956      1025      3725      3946      3947
 -1      1973    8    0    1
 -2       955      1025       996      3947      3948      3861
 -1      1974    8    0    1
 -2       958       959      1026      3733      3949      3950
 -1      1975    8    0    1
 -2       957       958      1027      3730      3951      3952
 -1      1976    8    0    1
 -2       958      1026      1027      3950      3953      3951
 -1      1977    8    0    1
 -2       960       961      1028      3739      3954      3955
 -1      1978    8    0    1
 -2       961       962      1029      3742      3956      3957
 -1      1979    8    0    1
 -2       961      1029      1028      3957      3958      3954
 -1      1980    8    0    1
 -2       962       963      1030      3745      3959      3960
 -1      1981    8    0    1
 -2       962      1030      1029      3960      3961      3956
 -1      1982    8    0    1
 -2       963       964      1031      3748      3962      3963
 -1      1983    8    0    1
 -2       963      1031      1030      3963      3964      3959
 -1      1984    8    0    1
 -2       964       965      1032      3751      3965      3966
 -1      1985    8    0    1
 -2       964      1032      1031      3966      3967      3962
 -1      1986    8    0    1
 -2       965       966      1033      3754      3968      3969
 -1      1987    8    0    1
 -2       965      1033      1032      3969      3970      3965
 -1      1988    8    0    1
 -2       966       967      1034      3757      3971      3972
 -1      1989    8    0    1
 -2       966      1034      1033      3972      3973      3968
 -1      1990    8    0    1
 -2       967       968      1035      3760      3974      3975
 -1      1991    8    0    1
 -2       967      1035      1034      3975      3976      3971
 -1      1992    8    0    1
 -2       968       969      1036      3763      3977      3978
 -1      1993    8    0    1
 -2       968      1036      1035      3978      3979      3974
 -1      1994    8    0    1
 -2       969       970      1037      3766      3980      3981
 -1      1995    8    0    1
 -2       969      1037      1036      3981      3982      3977
 -1      1996    8    0    1
 -2       970       971      1038      3769      3983      3984
 -1      1997    8    0    1
 -2       970      1038      1037      3984      3985      3980
 -1      1998    8    0    1
 -2       971       972      1039      3772      3986      3987
 -1      1999    8    0    1
 -2       971      1039      1038      3987      3988      3983
 -1      2000    8    0    1
 -2       972       973      1040      3775      3989      3990
 -1      2001    8    0    1
 -2       972      1040      1039      3990      3991      3986
 -1      2002    8    0    1
 -2       973       974      1041      3778      3992      3993
 -1      2003    8    0    1
 -2       973      1041      1040      3993      3994      3989
 -1      2004    8    0    1
 -2       974       975      1042      3781      3995      3996
 -1      2005    8    0    1
 -2       974      1042      1041      3996      3997      3992
 -1      2006    8    0    1
 -2       975       976      1043      3784      3998      3999
 -1      2007    8    0    1
 -2       975      1043      1042      3999      4000      3995
 -1      2008    8    0    1
 -2       976       977      1044      3787      4001      4002
 -1      2009    8    0    1
 -2       976      1044      1043      4002      4003      3998
 -1      2010    8    0    1
 -2       993       896       921      3845      3827      4004
 -1      2011    8    0    1
 -2       995       914       954      3860      3858      4005
 -1      2012    8    0    1
 -2       959       960      1045      3736      4006      4007
 -1      2013    8    0    1
 -2       960      1028      1045      3955      4008      4006
 -1      2014    8    0    1
 -2       980       957      1046      3798      4009      4010
 -1      2015    8    0    1
 -2       957      1027      1046      3952      4011      4009
 -1      2016    8    0    1
 -2       924       982       989      3803      4012      3828
 -1      2017    8    0    1
 -2       906       903       923      3853      3618      3812
 -1      2018    8    0    1
 -2       926       925       994      3635      4013      4014
 -1      2019    8    0    1
 -2       988       920       925      3857      4015      3854
 -1      2020    8    0    1
 -2       922       915      1047      3615      4016      4017
 -1      2021    8    0    1
 -2       991       922      1047      3838      4017      4018
 -1      2022    8    0    1
 -2       915       995      1047      3856      4019      4016
 -1      2023    8    0    1
 -2       956       979      1048      3794      4020      4021
 -1      2024    8    0    1
 -2       956      1048      1025      4021      4022      3946
 -1      2025    8    0    1
 -2       986       981      1049      3837      4023      4024
 -1      2026    8    0    1
 -2       979       980      1050      3848      4025      4026
 -1      2027    8    0    1
 -2       980      1046      1050      4010      4027      4025
 -1      2028    8    0    1
 -2       981       985      1051      3816      4028      4029
 -1      2029    8    0    1
 -2       981      1051      1049      4029      4030      4023
 -1      2030    8    0    1
 -2       993       921       992      4004      3844      4031
 -1      2031    8    0    1
 -2       925       920       994      4015      3852      4013
 -1      2032    8    0    1
 -2       997       926       994      3863      4014      4032
 -1      2033    8    0    1
 -2       977       993       992      3859      4031      4033
 -1      2034    8    0    1
 -2      1048       979      1050      4020      4026      4034
 -1      2035    8    0    1
 -2      1026       959      1045      3949      4007      4035
 -1      2036    8    0    1
 -2       992       978      1052      3842      4036      4037
 -1      2037    8    0    1
 -2       989       982      1053      4012      4038      4039
 -1      2038    8    0    1
 -2       982       984      1053      3810      4040      4038
 -1      2039    8    0    1
 -2       985       989      1054      3830      4041      4042
 -1      2040    8    0    1
 -2       989      1053      1054      4039      4043      4041
 -1      2041    8    0    1
 -2       994       986      1055      3850      4044      4045
 -1      2042    8    0    1
 -2       997       994      1055      4032      4045      4046
 -1      2043    8    0    1
 -2       986      1049      1055      4024      4047      4044
 -1      2044    8    0    1
 -2       985      1054      1051      4042      4048      4028
 -1      2045    8    0    1
 -2       984       983      1056      3811      4049      4050
 -1      2046    8    0    1
 -2       983       996      1056      3862      4051      4049
 -1      2047    8    0    1
 -2       978       991      1057      3840      4052      4053
 -1      2048    8    0    1
 -2       978      1057      1052      4053      4054      4036
 -1      2049    8    0    1
 -2       995       954      1024      4005      3944      4055
 -1      2050    8    0    1
 -2       995      1024      1047      4055      4056      4019
 -1      2051    8    0    1
 -2       996      1025      1058      3948      4057      4058
 -1      2052    8    0    1
 -2      1047      1024      1059      4056      4059      4060
 -1      2053    8    0    1
 -2       991      1047      1059      4018      4060      4061
 -1      2054    8    0    1
 -2      1024      1023      1059      3945      4062      4059
 -1      2055    8    0    1
 -2       999       998      1060      3870      4063      4064
 -1      2056    8    0    1
 -2      1000       999      1061      3873      4065      4066
 -1      2057    8    0    1
 -2       999      1060      1061      4064      4067      4065
 -1      2058    8    0    1
 -2      1001      1000      1062      3876      4068      4069
 -1      2059    8    0    1
 -2      1000      1061      1062      4066      4070      4068
 -1      2060    8    0    1
 -2      1002      1001      1063      3879      4071      4072
 -1      2061    8    0    1
 -2      1001      1062      1063      4069      4073      4071
 -1      2062    8    0    1
 -2      1003      1002      1064      3882      4074      4075
 -1      2063    8    0    1
 -2      1002      1063      1064      4072      4076      4074
 -1      2064    8    0    1
 -2      1004      1003      1065      3885      4077      4078
 -1      2065    8    0    1
 -2      1003      1064      1065      4075      4079      4077
 -1      2066    8    0    1
 -2      1005      1004      1066      3888      4080      4081
 -1      2067    8    0    1
 -2      1004      1065      1066      4078      4082      4080
 -1      2068    8    0    1
 -2      1006      1005      1067      3891      4083      4084
 -1      2069    8    0    1
 -2      1005      1066      1067      4081      4085      4083
 -1      2070    8    0    1
 -2      1007      1006      1068      3894      4086      4087
 -1      2071    8    0    1
 -2      1006      1067      1068      4084      4088      4086
 -1      2072    8    0    1
 -2      1008      1007      1069      3897      4089      4090
 -1      2073    8    0    1
 -2      1007      1068      1069      4087      4091      4089
 -1      2074    8    0    1
 -2      1009      1008      1070      3900      4092      4093
 -1      2075    8    0    1
 -2      1008      1069      1070      4090      4094      4092
 -1      2076    8    0    1
 -2      1010      1009      1071      3903      4095      4096
 -1      2077    8    0    1
 -2      1009      1070      1071      4093      4097      4095
 -1      2078    8    0    1
 -2      1011      1010      1072      3906      4098      4099
 -1      2079    8    0    1
 -2      1010      1071      1072      4096      4100      4098
 -1      2080    8    0    1
 -2      1012      1011      1073      3909      4101      4102
 -1      2081    8    0    1
 -2      1011      1072      1073      4099      4103      4101
 -1      2082    8    0    1
 -2      1013      1012      1074      3912      4104      4105
 -1      2083    8    0    1
 -2      1012      1073      1074      4102      4106      4104
 -1      2084    8    0    1
 -2      1014      1013      1075      3915      4107      4108
 -1      2085    8    0    1
 -2      1013      1074      1075      4105      4109      4107
 -1      2086    8    0    1
 -2      1015      1014      1076      3918      4110      4111
 -1      2087    8    0    1
 -2      1014      1075      1076      4108      4112      4110
 -1      2088    8    0    1
 -2      1016      1015      1077      3921      4113      4114
 -1      2089    8    0    1
 -2      1015      1076      1077      4111      4115      4113
 -1      2090    8    0    1
 -2      1017      1016      1078      3924      4116      4117
 -1      2091    8    0    1
 -2      1016      1077      1078      4114      4118      4116
 -1      2092    8    0    1
 -2      1018      1017      1079      3927      4119      4120
 -1      2093    8    0    1
 -2      1017      1078      1079      4117      4121      4119
 -1      2094    8    0    1
 -2      1019      1018      1080      3930      4122      4123
 -1      2095    8    0    1
 -2      1018      1079      1080      4120      4124      4122
 -1      2096    8    0    1
 -2      1020      1019      1081      3933      4125      4126
 -1      2097    8    0    1
 -2      1019      1080      1081      4123      4127      4125
 -1      2098    8    0    1
 -2      1021      1020      1082      3936      4128      4129
 -1      2099    8    0    1
 -2      1020      1081      1082      4126      4130      4128
 -1      2100    8    0    1
 -2      1022      1021      1083      3939      4131      4132
 -1      2101    8    0    1
 -2      1021      1082      1083      4129      4133      4131
 -1      2102    8    0    1
 -2      1023      1022      1084      3942      4134      4135
 -1      2103    8    0    1
 -2      1022      1083      1084      4132      4136      4134
 -1      2104    8    0    1
 -2      1051      1054      1085      4048      4137      4138
 -1      2105    8    0    1
 -2      1029      1030      1086      3961      4139      4140
 -1      2106    8    0    1
 -2      1028      1029      1087      3958      4141      4142
 -1      2107    8    0    1
 -2      1029      1086      1087      4140      4143      4141
 -1      2108    8    0    1
 -2      1031      1032      1088      3967      4144      4145
 -1      2109    8    0    1
 -2      1032      1033      1089      3970      4146      4147
 -1      2110    8    0    1
 -2      1032      1089      1088      4147      4148      4144
 -1      2111    8    0    1
 -2      1033      1034      1090      3973      4149      4150
 -1      2112    8    0    1
 -2      1033      1090      1089      4150      4151      4146
 -1      2113    8    0    1
 -2      1034      1035      1091      3976      4152      4153
 -1      2114    8    0    1
 -2      1034      1091      1090      4153      4154      4149
 -1      2115    8    0    1
 -2      1035      1036      1092      3979      4155      4156
 -1      2116    8    0    1
 -2      1035      1092      1091      4156      4157      4152
 -1      2117    8    0    1
 -2      1036      1037      1093      3982      4158      4159
 -1      2118    8    0    1
 -2      1036      1093      1092      4159      4160      4155
 -1      2119    8    0    1
 -2      1037      1038      1094      3985      4161      4162
 -1      2120    8    0    1
 -2      1037      1094      1093      4162      4163      4158
 -1      2121    8    0    1
 -2      1038      1039      1095      3988      4164      4165
 -1      2122    8    0    1
 -2      1038      1095      1094      4165      4166      4161
 -1      2123    8    0    1
 -2      1039      1040      1096      3991      4167      4168
 -1      2124    8    0    1
 -2      1039      1096      1095      4168      4169      4164
 -1      2125    8    0    1
 -2      1040      1041      1097      3994      4170      4171
 -1      2126    8    0    1
 -2      1040      1097      1096      4171      4172      4167
 -1      2127    8    0    1
 -2      1041      1042      1098      3997      4173      4174
 -1      2128    8    0    1
 -2      1041      1098      1097      4174      4175      4170
 -1      2129    8    0    1
 -2      1042      1043      1099      4000      4176      4177
 -1      2130    8    0    1
 -2      1042      1099      1098      4177      4178      4173
 -1      2131    8    0    1
 -2      1044       977       992      4001      4033      4179
 -1      2132    8    0    1
 -2      1045      1028      1100      4008      4180      4181
 -1      2133    8    0    1
 -2      1028      1087      1100      4142      4182      4180
 -1      2134    8    0    1
 -2      1049      1051      1101      4030      4183      4184
 -1      2135    8    0    1
 -2      1051      1085      1101      4138      4185      4183
 -1      2136    8    0    1
 -2      1046      1027      1102      4011      4186      4187
 -1      2137    8    0    1
 -2       998       997      1055      3867      4046      4188
 -1      2138    8    0    1
 -2      1030      1031      1103      3964      4189      4190
 -1      2139    8    0    1
 -2      1030      1103      1086      4190      4191      4139
 -1      2140    8    0    1
 -2      1050      1046      1104      4027      4192      4193
 -1      2141    8    0    1
 -2      1046      1102      1104      4187      4194      4192
 -1      2142    8    0    1
 -2      1048      1050      1105      4034      4195      4196
 -1      2143    8    0    1
 -2      1050      1104      1105      4193      4197      4195
 -1      2144    8    0    1
 -2      1026      1045      1106      4035      4198      4199
 -1      2145    8    0    1
 -2      1045      1100      1106      4181      4200      4198
 -1      2146    8    0    1
 -2      1025      1048      1107      4022      4201      4202
 -1      2147    8    0    1
 -2      1048      1105      1107      4196      4203      4201
 -1      2148    8    0    1
 -2      1027      1026      1108      3953      4204      4205
 -1      2149    8    0    1
 -2      1102      1027      1108      4186      4205      4206
 -1      2150    8    0    1
 -2      1026      1106      1108      4199      4207      4204
 -1      2151    8    0    1
 -2       991      1059      1057      4061      4208      4052
 -1      2152    8    0    1
 -2      1085      1054      1056      4137      4209      4210
 -1      2153    8    0    1
 -2      1023      1084      1059      4135      4211      4062
 -1      2154    8    0    1
 -2      1031      1088      1103      4145      4212      4189
 -1      2155    8    0    1
 -2      1058      1025      1107      4057      4202      4213
 -1      2156    8    0    1
 -2      1049      1101      1055      4184      4214      4047
 -1      2157    8    0    1
 -2      1043      1044      1109      4003      4215      4216
 -1      2158    8    0    1
 -2      1043      1109      1099      4216      4217      4176
 -1      2159    8    0    1
 -2       998      1055      1101      4188      4214      4218
 -1      2160    8    0    1
 -2       996      1058      1110      4058      4219      4220
 -1      2161    8    0    1
 -2      1056       996      1110      4051      4220      4221
 -1      2162    8    0    1
 -2      1056      1054      1053      4209      4043      4222
 -1      2163    8    0    1
 -2      1061      1060      1111      4067      4223      4224
 -1      2164    8    0    1
 -2      1062      1061      1058      4070      4225      4226
 -1      2165    8    0    1
 -2      1063      1062      1107      4073      4227      4228
 -1      2166    8    0    1
 -2      1064      1063      1105      4076      4229      4230
 -1      2167    8    0    1
 -2      1065      1064      1104      4079      4231      4232
 -1      2168    8    0    1
 -2      1066      1065      1102      4082      4233      4234
 -1      2169    8    0    1
 -2      1067      1066      1108      4085      4235      4236
 -1      2170    8    0    1
 -2      1068      1067      1106      4088      4237      4238
 -1      2171    8    0    1
 -2      1069      1068      1100      4091      4239      4240
 -1      2172    8    0    1
 -2      1070      1069      1087      4094      4241      4242
 -1      2173    8    0    1
 -2      1071      1070      1086      4097      4243      4244
 -1      2174    8    0    1
 -2      1072      1071      1103      4100      4245      4246
 -1      2175    8    0    1
 -2      1073      1072      1088      4103      4247      4248
 -1      2176    8    0    1
 -2      1074      1073      1089      4106      4249      4250
 -1      2177    8    0    1
 -2      1075      1074      1090      4109      4251      4252
 -1      2178    8    0    1
 -2      1076      1075      1091      4112      4253      4254
 -1      2179    8    0    1
 -2      1077      1076      1092      4115      4255      4256
 -1      2180    8    0    1
 -2      1078      1077      1093      4118      4257      4258
 -1      2181    8    0    1
 -2      1079      1078      1094      4121      4259      4260
 -1      2182    8    0    1
 -2      1080      1079      1095      4124      4261      4262
 -1      2183    8    0    1
 -2      1081      1080      1096      4127      4263      4264
 -1      2184    8    0    1
 -2      1082      1081      1097      4130      4265      4266
 -1      2185    8    0    1
 -2      1083      1082      1098      4133      4267      4268
 -1      2186    8    0    1
 -2      1084      1083      1099      4136      4269      4270
 -1      2187    8    0    1
 -2      1059      1084      1057      4211      4271      4208
 -1      2188    8    0    1
 -2      1102      1065      1104      4233      4232      4194
 -1      2189    8    0    1
 -2      1104      1064      1105      4231      4230      4197
 -1      2190    8    0    1
 -2      1053       984      1056      4040      4050      4222
 -1      2191    8    0    1
 -2      1105      1063      1107      4229      4228      4203
 -1      2192    8    0    1
 -2      1086      1103      1071      4191      4245      4244
 -1      2193    8    0    1
 -2      1109      1044      1052      4215      4272      4273
 -1      2194    8    0    1
 -2      1089      1090      1074      4151      4251      4250
 -1      2195    8    0    1
 -2      1088      1089      1073      4148      4249      4248
 -1      2196    8    0    1
 -2      1091      1092      1076      4157      4255      4254
 -1      2197    8    0    1
 -2      1092      1093      1077      4160      4257      4256
 -1      2198    8    0    1
 -2      1093      1094      1078      4163      4259      4258
 -1      2199    8    0    1
 -2      1094      1095      1079      4166      4261      4260
 -1      2200    8    0    1
 -2      1095      1096      1080      4169      4263      4262
 -1      2201    8    0    1
 -2      1096      1097      1081      4172      4265      4264
 -1      2202    8    0    1
 -2      1097      1098      1082      4175      4267      4266
 -1      2203    8    0    1
 -2      1098      1099      1083      4178      4269      4268
 -1      2204    8    0    1
 -2      1044       992      1052      4179      4037      4272
 -1      2205    8    0    1
 -2      1100      1068      1106      4239      4238      4200
 -1      2206    8    0    1
 -2      1100      1087      1069      4182      4241      4240
 -1      2207    8    0    1
 -2      1101      1085      1111      4185      4274      4275
 -1      2208    8    0    1
 -2      1107      1062      1058      4227      4226      4213
 -1      2209    8    0    1
 -2      1090      1091      1075      4154      4253      4252
 -1      2210    8    0    1
 -2      1088      1072      1103      4247      4246      4212
 -1      2211    8    0    1
 -2      1052      1057      1109      4054      4276      4273
 -1      2212    8    0    1
 -2      1087      1086      1070      4143      4243      4242
 -1      2213    8    0    1
 -2      1106      1067      1108      4237      4236      4207
 -1      2214    8    0    1
 -2      1066      1102      1108      4234      4206      4235
 -1      2215    8    0    1
 -2      1111      1085      1110      4274      4277      4278
 -1      2216    8    0    1
 -2      1110      1085      1056      4277      4210      4221
 -1      2217    8    0    1
 -2      1084      1099      1109      4270      4217      4279
 -1      2218    8    0    1
 -2      1057      1084      1109      4271      4279      4276
 -1      2219    8    0    1
 -2       998      1101      1060      4218      4280      4063
 -1      2220    8    0    1
 -2      1111      1110      1058      4278      4219      4281
 -1      2221    8    0    1
 -2      1058      1061      1111      4225      4224      4281
 -1      2222    8    0    1
 -2      1060      1101      1111      4280      4275      4223
 -3
    1PSTEP                         1           1           1          
  100CL  101 1.000000000        4281                     0    1           1
 -4  DISP        4    1
 -5  D1          1    2    1    0
 -5  D2          1    2    2    0
 -5  D3          1    2    3    0
 -5  ALL         1    2    0    0    1ALL
 -1         1 3.20225E-03-8.43827E-05-4.86591E-15
 -1         2 5.77345E-03 9.18482E-04-6.83234E-15
 -1         3 1.65586E-02 6.89592E-03-1.03167E-13
 -1         4 1.40196E-02 5.46715E-03-1.25391E-13
 -1         5 0.00000E+00 0.00000E+00 0.00000E+00
 -1         6 0.00000E+00 0.00000E+00 0.00000E+00
 -1         7 0.00000E+00 0.00000E+00 0.00000E+00
 -1         8 0.00000E+00 0.00000E+00 0.00000E+00
 -1         9 0.00000E+00 0.00000E+00 0.00000E+00
 -1        10 0.00000E+00 0.00000E+00 0.00000E+00
 -1        11 0.00000E+00 0.00000E+00 0.00000E+00
 -1        12 0.00000E+00 0.00000E+00 0.00000E+00
 -1        13 0.00000E+00 0.00000E+00 0.00000E+00
 -1        14 0.00000E+00 0.00000E+00 0.00000E+00
 -1        15 0.00000E+00 0.00000E+00 0.00000E+00
 -1        16 0.00000E+00 0.00000E+00 0.00000E+00
 -1        17 0.00000E+00 0.00000E+00 0.00000E+00
 -1        18 0.00000E+00 0.00000E+00 0.00000E+00
 -1        19 0.00000E+00 0.00000E+00 0.00000E+00
 -1        20 0.00000E+00 0.00000E+00 0.00000E+00
 -1        21 0.00000E+00 0.00000E+00 0.00000E+00
 -1        22 0.00000E+00 0.00000E+00 0.00000E+00
 -1        23 4.31161E-04-2.74245E-04-3.21263E-17
 -1        24 7.36443E-04-4.24859E-04-2.56512E-16
 -1        25 1.01581E-03-5.33523E-04-6.58551E-16
 -1        26 1.28352E-03-6.14046E-04-1.22586E-15
 -1        27 1.54137E-03-6.73007E-04-1.95089E-15
 -1        28 1.78919E-03-7.11133E-04-2.82649E-15
 -1        29 2.02710E-03-7.26025E-04-3.85100E-15
 -1        30 2.25671E-03-7.13944E-04-5.02024E-15
 -1        31 2.48151E-03-6.71608E-04-6.33226E-15
 -1        32 2.70641E-03-5.97762E-04-7.78285E-15
 -1        33 2.93667E-03-4.94063E-04-9.36101E-15
 -1        34 3.17664E-03-3.64995E-04-1.10592E-14
 -1        35 3.42881E-03-2.16902E-04-1.28733E-14
 -1        36 3.69358E-03-5.66258E-05-1.47934E-14
 -1        37 3.96953E-03 1.09727E-04-1.68104E-14
 -1        38 4.25422E-03 2.77526E-04-1.89251E-14
 -1        39 4.54486E-03 4.43808E-04-2.11300E-14
 -1        40 4.83890E-03 6.07084E-04-2.34177E-14
 -1        41 5.13429E-03 7.66941E-04-2.57869E-14
 -1        42 5.42961E-03 9.23635E-04-2.82348E-14
 -1        43 5.72402E-03 1.07775E-03-3.07637E-14
 -1        44 6.01707E-03 1.22998E-03-3.33719E-14
 -1        45 6.30865E-03 1.38095E-03-3.60586E-14
 -1        46 6.59884E-03 1.53119E-03-3.88241E-14
 -1        47 6.88782E-03 1.68112E-03-4.16626E-14
 -1        48 7.17578E-03 1.83100E-03-4.45577E-14
 -1        49 7.46296E-03 1.98103E-03-4.75055E-14
 -1        50 7.74955E-03 2.13130E-03-5.05165E-14
 -1        51 8.03571E-03 2.28186E-03-5.35934E-14
 -1        52 8.32158E-03 2.43271E-03-5.67255E-14
 -1        53 8.60725E-03 2.58384E-03-5.99047E-14
 -1        54 8.89281E-03 2.73522E-03-6.31261E-14
 -1        55 9.17832E-03 2.88682E-03-6.63856E-14
 -1        56 9.46380E-03 3.03860E-03-6.96808E-14
 -1        57 9.74928E-03 3.19052E-03-7.30095E-14
 -1        58 1.00348E-02 3.34256E-03-7.63707E-14
 -1        59 1.03203E-02 3.49468E-03-7.97595E-14
 -1        60 1.06058E-02 3.64688E-03-8.31797E-14
 -1        61 1.08914E-02 3.79913E-03-8.66269E-14
 -1        62 1.11770E-02 3.95141E-03-9.01034E-14
 -1        63 1.14626E-02 4.10372E-03-9.36158E-14
 -1        64 1.17483E-02 4.25604E-03-9.71468E-14
 -1        65 1.20340E-02 4.40838E-03-1.00701E-13
 -1        66 1.23196E-02 4.56073E-03-1.04266E-13
 -1        67 1.26053E-02 4.71307E-03-1.07822E-13
 -1        68 1.28910E-02 4.86542E-03-1.11374E-13
 -1        69 1.31767E-02 5.01776E-03-1.14920E-13
 -1        70 1.34624E-02 5.17010E-03-1.18454E-13
 -1        71 1.37482E-02 5.32243E-03-1.22005E-13
 -1        72 4.76845E-04 2.45395E-04 9.65821E-17
 -1        73 8.62072E-04 3.74134E-04 1.28444E-16
 -1        74 1.26133E-03 4.89843E-04 9.05580E-17
 -1        75 1.69071E-03 6.28188E-04-2.37915E-17
 -1        76 2.15525E-03 8.21469E-04-2.20825E-16
 -1        77 2.66509E-03 1.11669E-03-5.23297E-16
 -1        78 3.12570E-03 1.48854E-03-9.11889E-16
 -1        79 3.50009E-03 1.87933E-03-1.41302E-15
 -1        80 3.74598E-03 2.12793E-03-1.98401E-15
 -1        81 3.95830E-03 2.18492E-03-2.69222E-15
 -1        82 4.23762E-03 2.05278E-03-3.60004E-15
 -1        83 4.59527E-03 1.85342E-03-4.59559E-15
 -1        84 5.04339E-03 1.67862E-03-5.77210E-15
 -1        85 5.53446E-03 1.58981E-03-7.12848E-15
 -1        86 6.00202E-03 1.59551E-03-8.59267E-15
 -1        87 6.43017E-03 1.66885E-03-1.01575E-14
 -1        88 6.83880E-03 1.79020E-03-1.19148E-14
 -1        89 7.19677E-03 1.92917E-03-1.36828E-14
 -1        90 7.53241E-03 2.07986E-03-1.55349E-14
 -1        91 7.85223E-03 2.23617E-03-1.74836E-14
 -1        92 8.16108E-03 2.39477E-03-1.95286E-14
 -1        93 8.47727E-03 2.56192E-03-2.17693E-14
 -1        94 8.77314E-03 2.72082E-03-2.39788E-14
 -1        95 9.06553E-03 2.87906E-03-2.62448E-14
 -1        96 9.35554E-03 3.03650E-03-2.85630E-14
 -1        97 9.64391E-03 3.19315E-03-3.09470E-14
 -1        98 9.93119E-03 3.34905E-03-3.33916E-14
 -1        99 1.02321E-02 3.51204E-03-3.60373E-14
 -1       100 1.05181E-02 3.66669E-03-3.86196E-14
 -1       101 1.08039E-02 3.82085E-03-4.12750E-14
 -1       102 1.10894E-02 3.97461E-03-4.40082E-14
 -1       103 1.13749E-02 4.12805E-03-4.68074E-14
 -1       104 1.16604E-02 4.28123E-03-4.96487E-14
 -1       105 1.19601E-02 4.44183E-03-5.26690E-14
 -1       106 1.22455E-02 4.59462E-03-5.55962E-14
 -1       107 1.25310E-02 4.74729E-03-5.85701E-14
 -1       108 1.28165E-02 4.89985E-03-6.15710E-14
 -1       109 1.31021E-02 5.05235E-03-6.46286E-14
 -1       110 1.34019E-02 5.21241E-03-6.78836E-14
 -1       111 1.36875E-02 5.36482E-03-7.09944E-14
 -1       112 1.39731E-02 5.51719E-03-7.41110E-14
 -1       113 1.42588E-02 5.66955E-03-7.72272E-14
 -1       114 1.45444E-02 5.82190E-03-8.03681E-14
 -1       115 1.48301E-02 5.97424E-03-8.35280E-14
 -1       116 1.51301E-02 6.13420E-03-8.68348E-14
 -1       117 1.54158E-02 6.28653E-03-9.00220E-14
 -1       118 1.57015E-02 6.43887E-03-9.32564E-14
 -1       119 1.59872E-02 6.59122E-03-9.65142E-14
 -1       120 1.62729E-02 6.74357E-03-9.98182E-14
 -1       121 1.64088E-02 6.81164E-03-1.04499E-13
 -1       122 1.62590E-02 6.72735E-03-1.05813E-13
 -1       123 1.61092E-02 6.64306E-03-1.07131E-13
 -1       124 1.59594E-02 6.55877E-03-1.08444E-13
 -1       125 1.58095E-02 6.47447E-03-1.09754E-13
 -1       126 1.56622E-02 6.39160E-03-1.11098E-13
 -1       127 1.55124E-02 6.30729E-03-1.12468E-13
 -1       128 1.53626E-02 6.22298E-03-1.13816E-13
 -1       129 1.52128E-02 6.13866E-03-1.15157E-13
 -1       130 1.50630E-02 6.05435E-03-1.16472E-13
 -1       131 1.49132E-02 5.97005E-03-1.17765E-13
 -1       132 1.47660E-02 5.88717E-03-1.19056E-13
 -1       133 1.46162E-02 5.80287E-03-1.20356E-13
 -1       134 1.44664E-02 5.71858E-03-1.21643E-13
 -1       135 1.43166E-02 5.63429E-03-1.22911E-13
 -1       136 1.41668E-02 5.55001E-03-1.24165E-13
 -1       137 5.79104E-03 1.10580E-03-6.55571E-15
 -1       138 5.68962E-03 1.30312E-03-6.12617E-15
 -1       139 5.49367E-03 1.47642E-03-5.65264E-15
 -1       140 5.20279E-03 1.63600E-03-5.13184E-15
 -1       141 4.82332E-03 1.77253E-03-4.59034E-15
 -1       142 4.32406E-03 1.87547E-03-4.00461E-15
 -1       143 3.80037E-03 1.90341E-03-3.49747E-15
 -1       144 3.21916E-03 1.84586E-03-3.02013E-15
 -1       145 2.65569E-03 1.70442E-03-2.62695E-15
 -1       146 2.11831E-03 1.49147E-03-2.31034E-15
 -1       147 1.69146E-03 1.26211E-03-2.10370E-15
 -1       148 1.37424E-03 1.03938E-03-1.98818E-15
 -1       149 1.15973E-03 8.32362E-04-1.95028E-15
 -1       150 1.03929E-03 6.40250E-04-1.98225E-15
 -1       151 1.01578E-03 4.64234E-04-2.08718E-15
 -1       152 1.09602E-03 3.00579E-04-2.28173E-15
 -1       153 1.26441E-03 1.67997E-04-2.54060E-15
 -1       154 1.51797E-03 5.84176E-05-2.87590E-15
 -1       155 1.84538E-03-2.54340E-05-3.28061E-15
 -1       156 2.26739E-03-8.29109E-05-3.78345E-15
 -1       157 2.71740E-03-1.02117E-04-4.30843E-15
 -1       158 3.70518E-03-2.78343E-05-5.42501E-15
 -1       159 4.23048E-03 7.51587E-05-5.98378E-15
 -1       160 4.68058E-03 2.02673E-04-6.42151E-15
 -1       161 5.07216E-03 3.54361E-04-6.74563E-15
 -1       162 5.39895E-03 5.28827E-04-6.93779E-15
 -1       163 5.64058E-03 7.19599E-04-6.96869E-15
 -1       164 2.51033E-04-1.32053E-04-7.07103E-17
 -1       165 2.35967E-04-9.79353E-05-7.98142E-17
 -1       166 2.30829E-04-7.09587E-05-8.02784E-17
 -1       167 2.27723E-04-4.58731E-05-7.71681E-17
 -1       168 2.23951E-04-2.16694E-05-7.21130E-17
 -1       169 2.17773E-04 2.06887E-06-6.66107E-17
 -1       170 2.08569E-04 2.32188E-05-6.12676E-17
 -1       171 1.96908E-04 3.92950E-05-5.61210E-17
 -1       172 1.85000E-04 4.79825E-05-5.10964E-17
 -1       173 1.76613E-04 4.85742E-05-4.57228E-17
 -1       174 1.75941E-04 4.33692E-05-3.94040E-17
 -1       175 1.85990E-04 3.73602E-05-3.06897E-17
 -1       176 2.07359E-04 3.77181E-05-1.87194E-17
 -1       177 2.38216E-04 5.18655E-05-1.42979E-18
 -1       178 2.77738E-04 8.80487E-05 2.36695E-17
 -1       179 3.55810E-04 1.54985E-04 5.25160E-17
 -1       180 4.89324E-04-2.78899E-04-1.83674E-16
 -1       181 7.99152E-04-4.08875E-04-5.06644E-16
 -1       182 1.09103E-03-5.04795E-04-9.89121E-16
 -1       183 1.37117E-03-5.76749E-04-1.62537E-15
 -1       184 1.64168E-03-6.27971E-04-2.41125E-15
 -1       185 1.90364E-03-6.57340E-04-3.34286E-15
 -1       186 2.15837E-03-6.61248E-04-4.41847E-15
 -1       187 2.40800E-03-6.35550E-04-5.63469E-15
 -1       188 2.65561E-03-5.77487E-04-6.98930E-15
 -1       189 2.90480E-03-4.87132E-04-8.47517E-15
 -1       190 3.15887E-03-3.67856E-04-1.00840E-14
 -1       191 3.42016E-03-2.25678E-04-1.18109E-14
 -1       192 3.68963E-03-6.78606E-05-1.36491E-14
 -1       193 3.96694E-03 9.85942E-05-1.55877E-14
 -1       194 4.25081E-03 2.68033E-04-1.76241E-14
 -1       195 4.53949E-03 4.36606E-04-1.97535E-14
 -1       196 4.83123E-03 6.02191E-04-2.19709E-14
 -1       197 5.12449E-03 7.64014E-04-2.42703E-14
 -1       198 5.41811E-03 9.22181E-04-2.66527E-14
 -1       199 5.71131E-03 1.07727E-03-2.91132E-14
 -1       200 6.00364E-03 1.23004E-03-3.16539E-14
 -1       201 6.29490E-03 1.38122E-03-3.42718E-14
 -1       202 6.58505E-03 1.53144E-03-3.69691E-14
 -1       203 6.87419E-03 1.68120E-03-3.97383E-14
 -1       204 7.16243E-03 1.83084E-03-4.25710E-14
 -1       205 7.44994E-03 1.98059E-03-4.54632E-14
 -1       206 7.73687E-03 2.13059E-03-4.84141E-14
 -1       207 8.02336E-03 2.28090E-03-5.14265E-14
 -1       208 8.30952E-03 2.43153E-03-5.44947E-14
 -1       209 8.59545E-03 2.58248E-03-5.76195E-14
 -1       210 8.88122E-03 2.73371E-03-6.07880E-14
 -1       211 9.16689E-03 2.88519E-03-6.40011E-14
 -1       212 9.45251E-03 3.03687E-03-6.72492E-14
 -1       213 9.73810E-03 3.18872E-03-7.05375E-14
 -1       214 1.00237E-02 3.34071E-03-7.38637E-14
 -1       215 1.03093E-02 3.49280E-03-7.72185E-14
 -1       216 1.05948E-02 3.64497E-03-8.06021E-14
 -1       217 1.08805E-02 3.79720E-03-8.40111E-14
 -1       218 1.11661E-02 3.94947E-03-8.74455E-14
 -1       219 1.14517E-02 4.10177E-03-9.09105E-14
 -1       220 1.17374E-02 4.25409E-03-9.44033E-14
 -1       221 1.20230E-02 4.40643E-03-9.79185E-14
 -1       222 1.23087E-02 4.55877E-03-1.01450E-13
 -1       223 1.25944E-02 4.71112E-03-1.04987E-13
 -1       224 1.28801E-02 4.86347E-03-1.08524E-13
 -1       225 1.31658E-02 5.01582E-03-1.12065E-13
 -1       226 1.34515E-02 5.16816E-03-1.15599E-13
 -1       227 1.37372E-02 5.32049E-03-1.19136E-13
 -1       228 7.38423E-04 2.80285E-04 5.61278E-17
 -1       229 1.12201E-03 3.91709E-04-7.01343E-18
 -1       230 1.51828E-03 5.20502E-04-1.44558E-16
 -1       231 1.93466E-03 7.00437E-04-3.64082E-16
 -1       232 2.39213E-03 9.82827E-04-6.89952E-16
 -1       233 2.83274E-03 1.35494E-03-1.10024E-15
 -1       234 3.25308E-03 1.76883E-03-1.62865E-15
 -1       235 3.59997E-03 2.04970E-03-2.22597E-15
 -1       236 3.93141E-03 2.12671E-03-2.95630E-15
 -1       237 4.29904E-03 1.99017E-03-3.87819E-15
 -1       238 4.67867E-03 1.77517E-03-4.88878E-15
 -1       239 5.09828E-03 1.58693E-03-6.08088E-15
 -1       240 5.53621E-03 1.49224E-03-7.45356E-15
 -1       241 5.95351E-03 1.49803E-03-8.93388E-15
 -1       242 6.34441E-03 1.57419E-03-1.05153E-14
 -1       243 6.72787E-03 1.69926E-03-1.22833E-14
 -1       244 7.07165E-03 1.84153E-03-1.40622E-14
 -1       245 7.39925E-03 1.99498E-03-1.59281E-14
 -1       246 7.71479E-03 2.15345E-03-1.78873E-14
 -1       247 8.02152E-03 2.31371E-03-1.99373E-14
 -1       248 8.33681E-03 2.48215E-03-2.21812E-14
 -1       249 8.63251E-03 2.64195E-03-2.43927E-14
 -1       250 8.92506E-03 2.80085E-03-2.66670E-14
 -1       251 9.21538E-03 2.95878E-03-2.90043E-14
 -1       252 9.50413E-03 3.11578E-03-3.14054E-14
 -1       253 9.79179E-03 3.27195E-03-3.38705E-14
 -1       254 1.00930E-02 3.43513E-03-3.65313E-14
 -1       255 1.03794E-02 3.58991E-03-3.91302E-14
 -1       256 1.06654E-02 3.74417E-03-4.17918E-14
 -1       257 1.09512E-02 3.89800E-03-4.45270E-14
 -1       258 1.12369E-02 4.05149E-03-4.73219E-14
 -1       259 1.15225E-02 4.20469E-03-5.01673E-14
 -1       260 1.18223E-02 4.36532E-03-5.31954E-14
 -1       261 1.21079E-02 4.51812E-03-5.61289E-14
 -1       262 1.23934E-02 4.67079E-03-5.91087E-14
 -1       263 1.26790E-02 4.82336E-03-6.21260E-14
 -1       264 1.29646E-02 4.97585E-03-6.51884E-14
 -1       265 1.32645E-02 5.13592E-03-6.84428E-14
 -1       266 1.35501E-02 5.28832E-03-7.15635E-14
 -1       267 1.38357E-02 5.44069E-03-7.46995E-14
 -1       268 1.41214E-02 5.59305E-03-7.78386E-14
 -1       269 1.44071E-02 5.74539E-03-8.09908E-14
 -1       270 1.46927E-02 5.89773E-03-8.41590E-14
 -1       271 1.49927E-02 6.05768E-03-8.74928E-14
 -1       272 1.52784E-02 6.21002E-03-9.06979E-14
 -1       273 1.55641E-02 6.36236E-03-9.39382E-14
 -1       274 1.58498E-02 6.51470E-03-9.72122E-14
 -1       275 1.61355E-02 6.66705E-03-1.00513E-13
 -1       276 1.60865E-02 6.63755E-03-1.02274E-13
 -1       277 1.59367E-02 6.55327E-03-1.03601E-13
 -1       278 1.57868E-02 6.46897E-03-1.04919E-13
 -1       279 1.56370E-02 6.38468E-03-1.06235E-13
 -1       280 1.54897E-02 6.30181E-03-1.07535E-13
 -1       281 1.53399E-02 6.21751E-03-1.08861E-13
 -1       282 1.51901E-02 6.13320E-03-1.10190E-13
 -1       283 1.50403E-02 6.04889E-03-1.11507E-13
 -1       284 1.48905E-02 5.96459E-03-1.12812E-13
 -1       285 1.47407E-02 5.88028E-03-1.14108E-13
 -1       286 1.45934E-02 5.79741E-03-1.15378E-13
 -1       287 1.44437E-02 5.71311E-03-1.16663E-13
 -1       288 1.42939E-02 5.62881E-03-1.17942E-13
 -1       289 1.41441E-02 5.54452E-03-1.19208E-13
 -1       290 1.39407E-02 5.43251E-03-1.19177E-13
 -1       291 5.82912E-03 1.01728E-03-7.45384E-15
 -1       292 5.75122E-03 1.11435E-03-6.98378E-15
 -1       293 5.53533E-03 1.26563E-03-6.27766E-15
 -1       294 5.22210E-03 1.43177E-03-5.67511E-15
 -1       295 4.85472E-03 1.63506E-03-4.99913E-15
 -1       296 4.41557E-03 1.83789E-03-4.31655E-15
 -1       297 3.99660E-03 1.96977E-03-3.66573E-15
 -1       298 3.56901E-03 1.98063E-03-3.08289E-15
 -1       299 3.12477E-03 1.82538E-03-2.58668E-15
 -1       300 2.64313E-03 1.53555E-03-2.19655E-15
 -1       301 2.13970E-03 1.20751E-03-1.93437E-15
 -1       302 1.66217E-03 9.66910E-04-1.83857E-15
 -1       303 1.31758E-03 7.66103E-04-1.76825E-15
 -1       304 1.08828E-03 6.17001E-04-1.75570E-15
 -1       305 9.89025E-04 5.20097E-04-1.84040E-15
 -1       306 1.02946E-03 4.33342E-04-1.96540E-15
 -1       307 1.20458E-03 3.35672E-04-2.22534E-15
 -1       308 1.47625E-03 2.29448E-04-2.52590E-15
 -1       309 1.80621E-03 9.72379E-05-2.93699E-15
 -1       310 2.18712E-03-3.44604E-05-3.44096E-15
 -1       311 2.58448E-03-1.35516E-04-4.03041E-15
 -1       312 2.97437E-03-1.76277E-04-4.67294E-15
 -1       313 3.37572E-03-1.28205E-04-5.33960E-15
 -1       314 3.79695E-03 4.76464E-06-6.07032E-15
 -1       315 4.26841E-03 2.01261E-04-6.64661E-15
 -1       316 4.71005E-03 4.11722E-04-7.12694E-15
 -1       317 5.13090E-03 6.10920E-04-7.45881E-15
 -1       318 5.48739E-03 7.94307E-04-7.69817E-15
 -1       319 5.73686E-03 9.13753E-04-7.59255E-15
 -1       320 4.80274E-04-1.69507E-04-2.71782E-16
 -1       321 4.96613E-04-2.25027E-04-2.65030E-16
 -1       322 4.66338E-04-7.26948E-05-2.55143E-16
 -1       323 4.56414E-04-2.62071E-05-2.40330E-16
 -1       324 4.39851E-04 1.77570E-05-2.24298E-16
 -1       325 4.15839E-04 5.57319E-05-2.08052E-16
 -1       326 3.87021E-04 8.32515E-05-1.91612E-16
 -1       327 3.60408E-04 9.70006E-05-1.74560E-16
 -1       328 3.46451E-04 9.77339E-05-1.56013E-16
 -1       329 3.54504E-04 9.18849E-05-1.33733E-16
 -1       330 3.89886E-04 9.06198E-05-1.05615E-16
 -1       331 4.50492E-04 1.06662E-04-6.88739E-17
 -1       332 5.30384E-04 1.50777E-04-2.05795E-17
 -1       333 6.27637E-04 2.08168E-04 1.18923E-17
 -1       334 9.84698E-04 3.14852E-04-6.94228E-17
 -1       335 9.02538E-04-3.86436E-04-7.62794E-16
 -1       336 1.19959E-03-4.69726E-04-1.31664E-15
 -1       337 1.48919E-03-5.32887E-04-2.01625E-15
 -1       338 1.77152E-03-5.75981E-04-2.85860E-15
 -1       339 2.04696E-03-5.95833E-04-3.84215E-15
 -1       340 2.31658E-03-5.87627E-04-4.96614E-15
 -1       341 2.58249E-03-5.46996E-04-6.22673E-15
 -1       342 2.84762E-03-4.72073E-04-7.61983E-15
 -1       343 3.11506E-03-3.64710E-04-9.14018E-15
 -1       344 3.38721E-03-2.30309E-04-1.07809E-14
 -1       345 3.66517E-03-7.64452E-05-1.25356E-14
 -1       346 3.94878E-03 8.89823E-05-1.43959E-14
 -1       347 4.23695E-03 2.59251E-04-1.63556E-14
 -1       348 4.52826E-03 4.29571E-04-1.84105E-14
 -1       349 4.82130E-03 5.97140E-04-2.05554E-14
 -1       350 5.11493E-03 7.60770E-04-2.27856E-14
 -1       351 5.40835E-03 9.20372E-04-2.50989E-14
 -1       352 5.70108E-03 1.07647E-03-2.74929E-14
 -1       353 5.99286E-03 1.22985E-03-2.99678E-14
 -1       354 6.28363E-03 1.38133E-03-3.25190E-14
 -1       355 6.57340E-03 1.53161E-03-3.51475E-14
 -1       356 6.86229E-03 1.68127E-03-3.78498E-14
 -1       357 7.15041E-03 1.83072E-03-4.06187E-14
 -1       358 7.43789E-03 1.98023E-03-4.34506E-14
 -1       359 7.72486E-03 2.12997E-03-4.63426E-14
 -1       360 8.01144E-03 2.28004E-03-4.92950E-14
 -1       361 8.29771E-03 2.43045E-03-5.23045E-14
 -1       362 8.58377E-03 2.58120E-03-5.53684E-14
 -1       363 8.86966E-03 2.73227E-03-5.84848E-14
 -1       364 9.15546E-03 2.88362E-03-6.16478E-14
 -1       365 9.44118E-03 3.03520E-03-6.48528E-14
 -1       366 9.72685E-03 3.18697E-03-6.80950E-14
 -1       367 1.00125E-02 3.33889E-03-7.13818E-14
 -1       368 1.02981E-02 3.49094E-03-7.46983E-14
 -1       369 1.05838E-02 3.64307E-03-7.80448E-14
 -1       370 1.08694E-02 3.79528E-03-8.14232E-14
 -1       371 1.11551E-02 3.94754E-03-8.48177E-14
 -1       372 1.14407E-02 4.09983E-03-8.82384E-14
 -1       373 1.17264E-02 4.25215E-03-9.16889E-14
 -1       374 1.20121E-02 4.40448E-03-9.51670E-14
 -1       375 1.22978E-02 4.55682E-03-9.86670E-14
 -1       376 1.25835E-02 4.70917E-03-1.02177E-13
 -1       377 1.28692E-02 4.86152E-03-1.05692E-13
 -1       378 1.31549E-02 5.01387E-03-1.09216E-13
 -1       379 1.34406E-02 5.16621E-03-1.12743E-13
 -1       380 1.36906E-02 5.29936E-03-1.15955E-13
 -1       381 1.34873E-03 4.34784E-04-2.24260E-16
 -1       382 1.72831E-03 5.98711E-04-4.59471E-16
 -1       383 2.15415E-03 8.57698E-04-8.00324E-16
 -1       384 2.59098E-03 1.21478E-03-1.22286E-15
 -1       385 3.04914E-03 1.64548E-03-1.76221E-15
 -1       386 3.45962E-03 1.96951E-03-2.37026E-15
 -1       387 3.86375E-03 2.07968E-03-3.11131E-15
 -1       388 4.29526E-03 1.94098E-03-4.04500E-15
 -1       389 4.70883E-03 1.70947E-03-5.06580E-15
 -1       390 5.13153E-03 1.51134E-03-6.26996E-15
 -1       391 5.54616E-03 1.41450E-03-7.65482E-15
 -1       392 5.92973E-03 1.42082E-03-9.14596E-15
 -1       393 6.28896E-03 1.49779E-03-1.07358E-14
 -1       394 6.64676E-03 1.62369E-03-1.25123E-14
 -1       395 6.97361E-03 1.76680E-03-1.42971E-14
 -1       396 7.29009E-03 1.92113E-03-1.61709E-14
 -1       397 7.59861E-03 2.08045E-03-1.81337E-14
 -1       398 7.90105E-03 2.24147E-03-2.01875E-14
 -1       399 8.21371E-03 2.41059E-03-2.24349E-14
 -1       400 8.50801E-03 2.57092E-03-2.46495E-14
 -1       401 8.79981E-03 2.73026E-03-2.69300E-14
 -1       402 9.08978E-03 2.88853E-03-2.92771E-14
 -1       403 9.37841E-03 3.04581E-03-3.16890E-14
 -1       404 9.66609E-03 3.20218E-03-3.41636E-14
 -1       405 9.96741E-03 3.36553E-03-3.68351E-14
 -1       406 1.02539E-02 3.52043E-03-3.94401E-14
 -1       407 1.05401E-02 3.67478E-03-4.21091E-14
 -1       408 1.08260E-02 3.82868E-03-4.48458E-14
 -1       409 1.11118E-02 3.98221E-03-4.76422E-14
 -1       410 1.13975E-02 4.13545E-03-5.04892E-14
 -1       411 1.16974E-02 4.29610E-03-5.35241E-14
 -1       412 1.19830E-02 4.44892E-03-5.64607E-14
 -1       413 1.22686E-02 4.60160E-03-5.94424E-14
 -1       414 1.25542E-02 4.75418E-03-6.24641E-14
 -1       415 1.28398E-02 4.90668E-03-6.55303E-14
 -1       416 1.31398E-02 5.06675E-03-6.87884E-14
 -1       417 1.34254E-02 5.21915E-03-7.19162E-14
 -1       418 1.37111E-02 5.37152E-03-7.50665E-14
 -1       419 1.39967E-02 5.52388E-03-7.82261E-14
 -1       420 1.42824E-02 5.67622E-03-8.13885E-14
 -1       421 1.45681E-02 5.82856E-03-8.45696E-14
 -1       422 1.48681E-02 5.98851E-03-8.79197E-14
 -1       423 1.51538E-02 6.14084E-03-9.11358E-14
 -1       424 1.54395E-02 6.29318E-03-9.43816E-14
 -1       425 1.57252E-02 6.44552E-03-9.76624E-14
 -1       426 1.59058E-02 6.54154E-03-9.99648E-14
 -1       427 1.54645E-02 6.29489E-03-1.02702E-13
 -1       428 1.56143E-02 6.37919E-03-1.01384E-13
 -1       429 1.57601E-02 6.46036E-03-1.00675E-13
 -1       430 1.53172E-02 6.21202E-03-1.03989E-13
 -1       431 1.51674E-02 6.12772E-03-1.05292E-13
 -1       432 1.50176E-02 6.04342E-03-1.06592E-13
 -1       433 1.48677E-02 5.95912E-03-1.07885E-13
 -1       434 1.47179E-02 5.87481E-03-1.09177E-13
 -1       435 1.45682E-02 5.79051E-03-1.10462E-13
 -1       436 1.44209E-02 5.70763E-03-1.11717E-13
 -1       437 1.42711E-02 5.62333E-03-1.12990E-13
 -1       438 1.41213E-02 5.53904E-03-1.14257E-13
 -1       439 1.39716E-02 5.45474E-03-1.15518E-13
 -1       440 5.62820E-03 1.15922E-03-7.02053E-15
 -1       441 5.81205E-03 1.00939E-03-8.34613E-15
 -1       442 5.83427E-03 1.06659E-03-8.00041E-15
 -1       443 5.37779E-03 1.28141E-03-6.37405E-15
 -1       444 4.97804E-03 1.49761E-03-5.53311E-15
 -1       445 4.72468E-04-1.20002E-04-2.66510E-16
 -1       446 4.15018E-03 1.95944E-03-3.87676E-15
 -1       447 3.82229E-03 2.03977E-03-3.26833E-15
 -1       448 3.43647E-03 1.96223E-03-2.61883E-15
 -1       449 2.99625E-03 1.68753E-03-2.16095E-15
 -1       450 2.50966E-03 1.29720E-03-1.75960E-15
 -1       451 1.92914E-03 9.24624E-04-1.58700E-15
 -1       452 1.56692E-03 7.36546E-04-1.53464E-15
 -1       453 1.21664E-03 5.88400E-04-1.53299E-15
 -1       454 1.00792E-03 4.93215E-04-1.54785E-15
 -1       455 9.70351E-04 4.56706E-04-1.64918E-15
 -1       456 1.10937E-03 4.03040E-04-1.88986E-15
 -1       457 1.33714E-03 3.30402E-04-2.13050E-15
 -1       458 1.68690E-03 1.98846E-04-2.56234E-15
 -1       459 2.04695E-03 4.95989E-05-3.05219E-15
 -1       460 2.42601E-03-9.89492E-05-3.66796E-15
 -1       461 2.77409E-03-1.95820E-04-4.36100E-15
 -1       462 3.14371E-03-1.97454E-04-5.21517E-15
 -1       463 3.46412E-03-1.02982E-04-5.93864E-15
 -1       464 3.95446E-03 1.32987E-04-6.80367E-15
 -1       465 4.37120E-03 3.81965E-04-7.55399E-15
 -1       466 4.83753E-03 6.20745E-04-8.03930E-15
 -1       467 5.25641E-03 8.00210E-04-8.29326E-15
 -1       468 5.64197E-03 9.47740E-04-8.45220E-15
 -1       469 4.61771E-03 1.71145E-03-4.80338E-15
 -1       470 3.64518E-03 1.39208E-06-6.65188E-15
 -1       471 1.00495E-03 2.93640E-04-2.45182E-16
 -1       472 6.94564E-04-1.60695E-05-4.95043E-16
 -1       473 7.13787E-04-8.19838E-05-5.25011E-16
 -1       474 6.16830E-04 9.93868E-05-4.29334E-16
 -1       475 5.65444E-04 1.36572E-04-3.94941E-16
 -1       476 5.24317E-04 1.53695E-04-3.59386E-16
 -1       477 5.12153E-04 1.54888E-04-3.18966E-16
 -1       478 5.45453E-04 1.52415E-04-2.71782E-16
 -1       479 6.26020E-04 1.63902E-04-2.14340E-16
 -1       480 1.31974E-03 4.16123E-04-4.75684E-16
 -1       481 1.03110E-03-3.57546E-04-1.02768E-15
 -1       482 4.39640E-03 1.85994E-03-4.34442E-15
 -1       483 1.33348E-03-4.28554E-04-1.64405E-15
 -1       484 1.63217E-03-4.83256E-04-2.39974E-15
 -1       485 1.92547E-03-5.18520E-04-3.29409E-15
 -1       486 2.21265E-03-5.28781E-04-4.32638E-15
 -1       487 2.49447E-03-5.07650E-04-5.49480E-15
 -1       488 2.77334E-03-4.50530E-04-6.79668E-15
 -1       489 3.05266E-03-3.56973E-04-8.22704E-15
 -1       490 3.33547E-03-2.31421E-04-9.78209E-15
 -1       491 3.62332E-03-8.19175E-05-1.14536E-14
 -1       492 3.91601E-03 8.23368E-05-1.32343E-14
 -1       493 4.21208E-03 2.53223E-04-1.51175E-14
 -1       494 4.50971E-03 4.24890E-04-1.70974E-14
 -1       495 4.80733E-03 5.93901E-04-1.91705E-14
 -1       496 5.10391E-03 7.58767E-04-2.13313E-14
 -1       497 5.39895E-03 9.19296E-04-2.35763E-14
 -1       498 5.69230E-03 1.07602E-03-2.59017E-14
 -1       499 5.98409E-03 1.22975E-03-2.83104E-14
 -1       500 6.27450E-03 1.38137E-03-3.07980E-14
 -1       501 6.56379E-03 1.53165E-03-3.33597E-14
 -1       502 6.85218E-03 1.68119E-03-3.59957E-14
 -1       503 7.13986E-03 1.83046E-03-3.87004E-14
 -1       504 7.42700E-03 1.97976E-03-4.14707E-14
 -1       505 7.71373E-03 2.12928E-03-4.43025E-14
 -1       506 8.00015E-03 2.27913E-03-4.71944E-14
 -1       507 8.28634E-03 2.42935E-03-5.01479E-14
 -1       508 8.57237E-03 2.57993E-03-5.31528E-14
 -1       509 8.85828E-03 2.73085E-03-5.62145E-14
 -1       510 9.14410E-03 2.88207E-03-5.93273E-14
 -1       511 9.42987E-03 3.03355E-03-6.24883E-14
 -1       512 9.71560E-03 3.18524E-03-6.56851E-14
 -1       513 1.00013E-02 3.33710E-03-6.89236E-14
 -1       514 1.02870E-02 3.48910E-03-7.22040E-14
 -1       515 1.05727E-02 3.64120E-03-7.55136E-14
 -1       516 1.08584E-02 3.79338E-03-7.88545E-14
 -1       517 1.11440E-02 3.94562E-03-8.22156E-14
 -1       518 1.14297E-02 4.09790E-03-8.55971E-14
 -1       519 1.17154E-02 4.25021E-03-8.90057E-14
 -1       520 1.20011E-02 4.40254E-03-9.24469E-14
 -1       521 1.22868E-02 4.55488E-03-9.59100E-14
 -1       522 1.25725E-02 4.70722E-03-9.93882E-14
 -1       523 1.28582E-02 4.85957E-03-1.02877E-13
 -1       524 1.31439E-02 5.01192E-03-1.06381E-13
 -1       525 1.34296E-02 5.16427E-03-1.09890E-13
 -1       526 2.07876E-03 8.82538E-04-1.19196E-15
 -1       527 5.07633E-03 1.45377E-03-6.05609E-15
 -1       528 5.47662E-03 1.32466E-03-7.42473E-15
 -1       529 5.82461E-03 1.31216E-03-8.90159E-15
 -1       530 6.14386E-03 1.37558E-03-1.04730E-14
 -1       531 6.46530E-03 1.49133E-03-1.22263E-14
 -1       532 6.76605E-03 1.62816E-03-1.39908E-14
 -1       533 7.06421E-03 1.77884E-03-1.58438E-14
 -1       534 7.36046E-03 1.93636E-03-1.77856E-14
 -1       535 7.65499E-03 2.09674E-03-1.98156E-14
 -1       536 7.96248E-03 2.26590E-03-2.20405E-14
 -1       537 8.25381E-03 2.42660E-03-2.42375E-14
 -1       538 8.54385E-03 2.58643E-03-2.65058E-14
 -1       539 8.83283E-03 2.74523E-03-2.88419E-14
 -1       540 9.12095E-03 2.90300E-03-3.12439E-14
 -1       541 9.40839E-03 3.05982E-03-3.37117E-14
 -1       542 9.70966E-03 3.22358E-03-3.63714E-14
 -1       543 9.99618E-03 3.37879E-03-3.89665E-14
 -1       544 1.02824E-02 3.53340E-03-4.16243E-14
 -1       545 1.05685E-02 3.68751E-03-4.43435E-14
 -1       546 1.08544E-02 3.84121E-03-4.71287E-14
 -1       547 1.11402E-02 3.99458E-03-4.99653E-14
 -1       548 1.14402E-02 4.15534E-03-5.29917E-14
 -1       549 1.17259E-02 4.30823E-03-5.59219E-14
 -1       550 1.20115E-02 4.46097E-03-5.88938E-14
 -1       551 1.22972E-02 4.61359E-03-6.19086E-14
 -1       552 1.25829E-02 4.76612E-03-6.49633E-14
 -1       553 1.28828E-02 4.92620E-03-6.82168E-14
 -1       554 1.31685E-02 5.07862E-03-7.13473E-14
 -1       555 1.34542E-02 5.23100E-03-7.45048E-14
 -1       556 1.37398E-02 5.38336E-03-7.76861E-14
 -1       557 1.40255E-02 5.53571E-03-8.08643E-14
 -1       558 1.43112E-02 5.68805E-03-8.40554E-14
 -1       559 1.46112E-02 5.84800E-03-8.74204E-14
 -1       560 1.48969E-02 6.00033E-03-9.06420E-14
 -1       561 1.51826E-02 6.15267E-03-9.38870E-14
 -1       562 1.54683E-02 6.30501E-03-9.71619E-14
 -1       563 1.49949E-02 6.03795E-03-1.01746E-13
 -1       564 1.48450E-02 5.95364E-03-1.03022E-13
 -1       565 1.52920E-02 6.20511E-03-9.91724E-14
 -1       566 1.51434E-02 6.12153E-03-1.00462E-13
 -1       567 1.46952E-02 5.86934E-03-1.04295E-13
 -1       568 1.45454E-02 5.78504E-03-1.05567E-13
 -1       569 1.43956E-02 5.70073E-03-1.06834E-13
 -1       570 1.42484E-02 5.61786E-03-1.08073E-13
 -1       571 1.40986E-02 5.53355E-03-1.09331E-13
 -1       572 1.39488E-02 5.44926E-03-1.10586E-13
 -1       573 1.37990E-02 5.36496E-03-1.11840E-13
 -1       574 5.89309E-03 1.07635E-03-9.15927E-15
 -1       575 5.76065E-03 1.11987E-03-7.97989E-15
 -1       576 5.45713E-03 9.51670E-04-9.39646E-15
 -1       577 1.67545E-03 5.98771E-04-7.89892E-16
 -1       578 4.69921E-03 1.66398E-03-5.05243E-15
 -1       579 5.52584E-03 1.20938E-03-7.15708E-15
 -1       580 5.20959E-03 1.36314E-03-6.30646E-15
 -1       581 5.75782E-03 1.03006E-03-9.24406E-15
 -1       582 2.92197E-03-2.29300E-04-4.88637E-15
 -1       583 1.36431E-03 5.62412E-04-1.28325E-15
 -1       584 6.62255E-04 4.62627E-05-4.62863E-16
 -1       585 1.09349E-03 4.69620E-04-1.30100E-15
 -1       586 1.71186E-03 7.03342E-04-1.24585E-15
 -1       587 1.17492E-03 3.63904E-04-1.75720E-15
 -1       588 9.49521E-04 4.25787E-04-1.36806E-15
 -1       589 4.07280E-03 2.64407E-04-7.67371E-15
 -1       590 9.86215E-04 4.02413E-04-1.50252E-15
 -1       591 1.50065E-03 2.62007E-04-2.13204E-15
 -1       592 1.85682E-03 1.20939E-04-2.60979E-15
 -1       593 2.22833E-03-3.67220E-05-3.23491E-15
 -1       594 2.55250E-03-1.62314E-04-3.90484E-15
 -1       595 3.26367E-03-1.67113E-04-5.84597E-15
 -1       596 4.57839E-03 5.65686E-04-8.59141E-15
 -1       597 5.04781E-03 7.97090E-04-9.14940E-15
 -1       598 7.52904E-04-2.66487E-04-5.89982E-16
 -1       599 7.72874E-04 2.20830E-04-1.05157E-16
 -1       600 7.24207E-04-1.48306E-04-5.50178E-16
 -1       601 1.36198E-02 5.26559E-03-1.12296E-13
 -1       602 5.90888E-03 1.11316E-03-9.13666E-15
 -1       603 1.17810E-03 4.41226E-04-1.04888E-15
 -1       604 7.26013E-04 2.02213E-04-6.54631E-16
 -1       605 8.06667E-04 1.56047E-04-7.13690E-16
 -1       606 6.66148E-04 2.16023E-04-5.02541E-16
 -1       607 7.47646E-04 2.21446E-04-4.25292E-16
 -1       608 9.82135E-04 2.91415E-04-4.59434E-16
 -1       609 1.36088E-02 5.26365E-03-1.09442E-13
 -1       610 4.81768E-03 7.23148E-04-9.79564E-15
 -1       611 1.48599E-03-3.81089E-04-1.97011E-15
 -1       612 1.79445E-03-4.29218E-04-2.77573E-15
 -1       613 2.09808E-03-4.58072E-04-3.71704E-15
 -1       614 2.39528E-03-4.58949E-04-4.79365E-15
 -1       615 2.68711E-03-4.23261E-04-6.00437E-15
 -1       616 2.97717E-03-3.46538E-04-7.34560E-15
 -1       617 3.26979E-03-2.31155E-04-8.81385E-15
 -1       618 3.56771E-03-8.56930E-05-1.04021E-14
 -1       619 3.87097E-03 7.84598E-05-1.21040E-14
 -1       620 4.17743E-03 2.50875E-04-1.39100E-14
 -1       621 4.48429E-03 4.24189E-04-1.58147E-14
 -1       622 4.78928E-03 5.94320E-04-1.78161E-14
 -1       623 5.09112E-03 7.59705E-04-1.99060E-14
 -1       624 5.38947E-03 9.20316E-04-2.20827E-14
 -1       625 5.68457E-03 1.07687E-03-2.43409E-14
 -1       626 5.97698E-03 1.23033E-03-2.66818E-14
 -1       627 6.26730E-03 1.38165E-03-2.91049E-14
 -1       628 6.55610E-03 1.53163E-03-3.16036E-14
 -1       629 6.84383E-03 1.68090E-03-3.41749E-14
 -1       630 7.13084E-03 1.82993E-03-3.68168E-14
 -1       631 7.41738E-03 1.97902E-03-3.95241E-14
 -1       632 7.70360E-03 2.12835E-03-4.22943E-14
 -1       633 7.98963E-03 2.27803E-03-4.51267E-14
 -1       634 8.27554E-03 2.42809E-03-4.80186E-14
 -1       635 8.56138E-03 2.57854E-03-5.09711E-14
 -1       636 8.84716E-03 2.72935E-03-5.39787E-14
 -1       637 9.13292E-03 2.88048E-03-5.70394E-14
 -1       638 9.41866E-03 3.03188E-03-6.01498E-14
 -1       639 9.70439E-03 3.18351E-03-6.33052E-14
 -1       640 9.99012E-03 3.33532E-03-6.64981E-14
 -1       641 1.02758E-02 3.48727E-03-6.97347E-14
 -1       642 1.05615E-02 3.63934E-03-7.30074E-14
 -1       643 1.08473E-02 3.79149E-03-7.63109E-14
 -1       644 1.11330E-02 3.94371E-03-7.96367E-14
 -1       645 1.14187E-02 4.09598E-03-8.29817E-14
 -1       646 1.17044E-02 4.24828E-03-8.63530E-14
 -1       647 1.19901E-02 4.40060E-03-8.97570E-14
 -1       648 1.22758E-02 4.55294E-03-9.31853E-14
 -1       649 1.25615E-02 4.70528E-03-9.66298E-14
 -1       650 1.28472E-02 4.85763E-03-1.00087E-13
 -1       651 1.31330E-02 5.00998E-03-1.03557E-13
 -1       652 1.33709E-02 5.13682E-03-1.06494E-13
 -1       653 6.30841E-03 1.36488E-03-1.18832E-14
 -1       654 6.57128E-03 1.49235E-03-1.36236E-14
 -1       655 6.84156E-03 1.63536E-03-1.54540E-14
 -1       656 7.11803E-03 1.78745E-03-1.73710E-14
 -1       657 7.39886E-03 1.94434E-03-1.93783E-14
 -1       658 7.69670E-03 2.11137E-03-2.15781E-14
 -1       659 7.98195E-03 2.27104E-03-2.37543E-14
 -1       660 8.26800E-03 2.43044E-03-2.60066E-14
 -1       661 8.55439E-03 2.58915E-03-2.83294E-14
 -1       662 8.84086E-03 2.74703E-03-3.07210E-14
 -1       663 9.12727E-03 2.90405E-03-3.31774E-14
 -1       664 9.42789E-03 3.06805E-03-3.58256E-14
 -1       665 9.71406E-03 3.22350E-03-3.84092E-14
 -1       666 1.00001E-02 3.37832E-03-4.10557E-14
 -1       667 1.02861E-02 3.53261E-03-4.37624E-14
 -1       668 1.05720E-02 3.68647E-03-4.65301E-14
 -1       669 1.08578E-02 3.83997E-03-4.93577E-14
 -1       670 1.11579E-02 4.00083E-03-5.23801E-14
 -1       671 1.14436E-02 4.15381E-03-5.53020E-14
 -1       672 1.17293E-02 4.30661E-03-5.82654E-14
 -1       673 1.20150E-02 4.45927E-03-6.12683E-14
 -1       674 1.23007E-02 4.61184E-03-6.43164E-14
 -1       675 1.26007E-02 4.77195E-03-6.75590E-14
 -1       676 1.28864E-02 4.92438E-03-7.06893E-14
 -1       677 1.31721E-02 5.07678E-03-7.38494E-14
 -1       678 1.34578E-02 5.22915E-03-7.70414E-14
 -1       679 1.37435E-02 5.38150E-03-8.02425E-14
 -1       680 1.40292E-02 5.53384E-03-8.34489E-14
 -1       681 1.43292E-02 5.69379E-03-8.68267E-14
 -1       682 1.46149E-02 5.84613E-03-9.00601E-14
 -1       683 1.49007E-02 5.99846E-03-9.33090E-14
 -1       684 1.50963E-02 6.10178E-03-9.62291E-14
 -1       685 1.43729E-02 5.69526E-03-1.01985E-13
 -1       686 8.88727E-04 3.60997E-04-1.14837E-15
 -1       687 1.46725E-02 5.86387E-03-9.94818E-14
 -1       688 1.42231E-02 5.61095E-03-1.03235E-13
 -1       689 1.45227E-02 5.77957E-03-1.00736E-13
 -1       690 1.40758E-02 5.52808E-03-1.04456E-13
 -1       691 1.39260E-02 5.44377E-03-1.05698E-13
 -1       692 1.37763E-02 5.35947E-03-1.06940E-13
 -1       693 2.01118E-03 1.41047E-05-2.78204E-15
 -1       694 5.67675E-03 1.04861E-03-1.02799E-14
 -1       695 3.78742E-03 1.15973E-04-7.58422E-15
 -1       696 1.61887E-03 1.71539E-04-2.14077E-15
 -1       697 6.05147E-03 1.26300E-03-1.02325E-14
 -1       698 2.67707E-03-2.23369E-04-4.33310E-15
 -1       699 5.76700E-03 1.21604E-03-8.56399E-15
 -1       700 2.33220E-03-1.19070E-04-3.43740E-15
 -1       701 1.17589E-03-3.19964E-04-1.29907E-15
 -1       702 5.28734E-03 9.26854E-04-1.02128E-14
 -1       703 6.72270E-04 2.21204E-04-5.91812E-16
 -1       704 9.69112E-04-7.69243E-05-8.76232E-16
 -1       705 1.25166E-03 2.85753E-04-1.63543E-15
 -1       706 9.62069E-04 3.85074E-04-1.09109E-15
 -1       707 3.05410E-03-2.23229E-04-5.57802E-15
 -1       708 1.00501E-03 3.40370E-04-1.33039E-15
 -1       709 5.88516E-03 1.10010E-03-1.01992E-14
 -1       710 4.28378E-03 4.26854E-04-8.84952E-15
 -1       711 5.70742E-03 1.18459E-03-8.13055E-15
 -1       712 3.43115E-03-8.39337E-05-6.71310E-15
 -1       713 8.81983E-04 8.76228E-05-7.70841E-16
 -1       714 9.84851E-04-1.59822E-04-9.20871E-16
 -1       715 1.00647E-03-2.58453E-04-9.84279E-16
 -1       716 5.43886E-03 1.26195E-03-7.04547E-15
 -1       717 1.49477E-02 6.01820E-03-9.75062E-14
 -1       718 5.91211E-03 1.16743E-03-9.29731E-15
 -1       719 5.97259E-03 1.13175E-03-1.01822E-14
 -1       720 1.48101E-02 5.94104E-03-9.85014E-14
 -1       721 2.81873E-03-2.56995E-04-4.97181E-15
 -1       722 9.36691E-04 7.02961E-06-8.25407E-16
 -1       723 7.78260E-04 2.82654E-04-7.95283E-16
 -1       724 8.37287E-04 2.85495E-04-6.97125E-16
 -1       725 1.74240E-03 5.56969E-05-2.25296E-15
 -1       726 1.36037E-02 5.26969E-03-1.03324E-13
 -1       727 1.97119E-03-3.73160E-04-3.14218E-15
 -1       728 2.28492E-03-3.97836E-04-4.12535E-15
 -1       729 2.59101E-03-3.88751E-04-5.24387E-15
 -1       730 2.89206E-03-3.34423E-04-6.49517E-15
 -1       731 3.19394E-03-2.32305E-04-7.87594E-15
 -1       732 3.50173E-03-9.06582E-05-9.38036E-15
 -1       733 3.81650E-03 7.56592E-05-1.10015E-14
 -1       734 4.13537E-03 2.52009E-04-1.27317E-14
 -1       735 4.45395E-03 4.28399E-04-1.45642E-14
 -1       736 4.76866E-03 5.99891E-04-1.64924E-14
 -1       737 5.07764E-03 7.65167E-04-1.85115E-14
 -1       738 5.38060E-03 9.24810E-04-2.06171E-14
 -1       739 5.67826E-03 1.08008E-03-2.28086E-14
 -1       740 5.97171E-03 1.23230E-03-2.50822E-14
 -1       741 6.26207E-03 1.38257E-03-2.74401E-14
 -1       742 6.55032E-03 1.53175E-03-2.98749E-14
 -1       743 6.83723E-03 1.68045E-03-3.23833E-14
 -1       744 7.12334E-03 1.82907E-03-3.49641E-14
 -1       745 7.40902E-03 1.97788E-03-3.76101E-14
 -1       746 7.69451E-03 2.12703E-03-4.03205E-14
 -1       747 7.97993E-03 2.27658E-03-4.30920E-14
 -1       748 8.26536E-03 2.42655E-03-4.59279E-14
 -1       749 8.55085E-03 2.57693E-03-4.88204E-14
 -1       750 8.83639E-03 2.72768E-03-5.17710E-14
 -1       751 9.12198E-03 2.87876E-03-5.47790E-14
 -1       752 9.40762E-03 3.03012E-03-5.78405E-14
 -1       753 9.69329E-03 3.18171E-03-6.09532E-14
 -1       754 9.97899E-03 3.33349E-03-6.41031E-14
 -1       755 1.02647E-02 3.48542E-03-6.72926E-14
 -1       756 1.05504E-02 3.63747E-03-7.05247E-14
 -1       757 1.08362E-02 3.78961E-03-7.37913E-14
 -1       758 1.11219E-02 3.94181E-03-7.70817E-14
 -1       759 1.14076E-02 4.09407E-03-8.03920E-14
 -1       760 1.16934E-02 4.24636E-03-8.37272E-14
 -1       761 1.19791E-02 4.39867E-03-8.70924E-14
 -1       762 1.22648E-02 4.55100E-03-9.04874E-14
 -1       763 1.25505E-02 4.70335E-03-9.39006E-14
 -1       764 1.28363E-02 4.85569E-03-9.73252E-14
 -1       765 1.31220E-02 5.00804E-03-1.00765E-13
 -1       766 6.18656E-03 1.26888E-03-1.14865E-14
 -1       767 1.37535E-02 5.35399E-03-1.02101E-13
 -1       768 6.89674E-03 1.65521E-03-1.69898E-14
 -1       769 6.41100E-03 1.38578E-03-1.32062E-14
 -1       770 7.16118E-03 1.80542E-03-1.89739E-14
 -1       771 7.44685E-03 1.96761E-03-2.11521E-14
 -1       772 7.72401E-03 2.12426E-03-2.33099E-14
 -1       773 8.00443E-03 2.28176E-03-2.55455E-14
 -1       774 8.28692E-03 2.43934E-03-2.78553E-14
 -1       775 8.57072E-03 2.59658E-03-3.02369E-14
 -1       776 8.85534E-03 2.75327E-03-3.26845E-14
 -1       777 9.15470E-03 2.91713E-03-3.53223E-14
 -1       778 9.44011E-03 3.07256E-03-3.78982E-14
 -1       779 9.72567E-03 3.22741E-03-4.05335E-14
 -1       780 1.00113E-02 3.38177E-03-4.32317E-14
 -1       781 1.02970E-02 3.53569E-03-4.59909E-14
 -1       782 1.05828E-02 3.68926E-03-4.88098E-14
 -1       783 1.08828E-02 3.85019E-03-5.18249E-14
 -1       784 1.11685E-02 4.00322E-03-5.47425E-14
 -1       785 1.14543E-02 4.15606E-03-5.77021E-14
 -1       786 1.17400E-02 4.30877E-03-6.06977E-14
 -1       787 1.20258E-02 4.46136E-03-6.37377E-14
 -1       788 1.23258E-02 4.62150E-03-6.69781E-14
 -1       789 1.26115E-02 4.77395E-03-7.01053E-14
 -1       790 1.28972E-02 4.92635E-03-7.32660E-14
 -1       791 1.31830E-02 5.07873E-03-7.64617E-14
 -1       792 1.34687E-02 5.23109E-03-7.96757E-14
 -1       793 1.37544E-02 5.38344E-03-8.28979E-14
 -1       794 1.40544E-02 5.54339E-03-8.62910E-14
 -1       795 1.43401E-02 5.69572E-03-8.95361E-14
 -1       796 1.46258E-02 5.84806E-03-9.27921E-14
 -1       797 1.47868E-02 5.93313E-03-9.51423E-14
 -1       798 1.40505E-02 5.52118E-03-9.96736E-14
 -1       799 8.42756E-04 3.02759E-04-9.71733E-16
 -1       800 4.09433E-03 3.12350E-04-8.49394E-15
 -1       801 2.10188E-03-8.29943E-05-2.95749E-15
 -1       802 5.12011E-03 8.75378E-04-1.11287E-14
 -1       803 3.62402E-03 2.95768E-05-7.73384E-15
 -1       804 4.56661E-03 5.95981E-04-1.04694E-14
 -1       805 3.22706E-03-1.70552E-04-6.49859E-15
 -1       806 1.33164E-03-2.73247E-04-1.57418E-15
 -1       807 1.15809E-03-2.15057E-04-1.22565E-15
 -1       808 1.34873E-02 5.20325E-03-1.04905E-13
 -1       809 1.65188E-03-3.28131E-04-2.29271E-15
 -1       810 6.64309E-03 1.51207E-03-1.50937E-14
 -1       811 1.02254E-03 2.69215E-04-1.19461E-15
 -1       812 2.41266E-03-2.09030E-04-3.76386E-15
 -1       813 5.86118E-03 1.13021E-03-1.14241E-14
 -1       814 5.55441E-03 1.04112E-03-1.13622E-14
 -1       815 1.39020E-02 5.43759E-03-1.00887E-13
 -1       816 1.35815E-03 1.90635E-04-1.65080E-15
 -1       817 3.89895E-03 1.96705E-04-8.65012E-15
 -1       818 5.99802E-03 1.16800E-03-1.14157E-14
 -1       819 1.14744E-03-1.25152E-04-1.17115E-15
 -1       820 2.99546E-03-2.46172E-04-5.83283E-15
 -1       821 1.42003E-02 5.60549E-03-9.84426E-14
 -1       822 1.43502E-02 5.68979E-03-9.72119E-14
 -1       823 4.22448E-03 3.97389E-04-9.53822E-15
 -1       824 6.03179E-03 1.17787E-03-1.03560E-14
 -1       825 1.44878E-02 5.76696E-03-9.62512E-14
 -1       826 1.12327E-03 1.38031E-04-1.17955E-15
 -1       827 1.11950E-03-3.12257E-05-1.10783E-15
 -1       828 9.88490E-04 3.43240E-04-8.17865E-16
 -1       829 2.57115E-03-2.84091E-04-4.45310E-15
 -1       830 2.48305E-03-3.41379E-04-4.51872E-15
 -1       831 2.79797E-03-3.18730E-04-5.67726E-15
 -1       832 3.11035E-03-2.37119E-04-6.96860E-15
 -1       833 3.42823E-03-1.00830E-04-8.38745E-15
 -1       834 3.75564E-03 7.06983E-05-9.92828E-15
 -1       835 4.08907E-03 2.55359E-04-1.15827E-14
 -1       836 4.42203E-03 4.37891E-04-1.33412E-14
 -1       837 4.74860E-03 6.11798E-04-1.51988E-14
 -1       838 5.06608E-03 7.76535E-04-1.71481E-14
 -1       839 5.37433E-03 9.34014E-04-1.91842E-14
 -1       840 5.67473E-03 1.08662E-03-2.13050E-14
 -1       841 5.96911E-03 1.23632E-03-2.35116E-14
 -1       842 6.25927E-03 1.38455E-03-2.58022E-14
 -1       843 6.54668E-03 1.53221E-03-2.81728E-14
 -1       844 6.83245E-03 1.67987E-03-3.06212E-14
 -1       845 7.11737E-03 1.82783E-03-3.31396E-14
 -1       846 7.40192E-03 1.97625E-03-3.57252E-14
 -1       847 7.68642E-03 2.12518E-03-3.83757E-14
 -1       848 7.97103E-03 2.27464E-03-4.10902E-14
 -1       849 8.25582E-03 2.42458E-03-4.38678E-14
 -1       850 8.54080E-03 2.57496E-03-4.67037E-14
 -1       851 8.82597E-03 2.72573E-03-4.95983E-14
 -1       852 9.11130E-03 2.87683E-03-5.25528E-14
 -1       853 9.39676E-03 3.02821E-03-5.55622E-14
 -1       854 9.68232E-03 3.17981E-03-5.86240E-14
 -1       855 9.96795E-03 3.33160E-03-6.17329E-14
 -1       856 1.02536E-02 3.48353E-03-6.48781E-14
 -1       857 1.05393E-02 3.63557E-03-6.80680E-14
 -1       858 1.08251E-02 3.78771E-03-7.12946E-14
 -1       859 1.11108E-02 3.93991E-03-7.45513E-14
 -1       860 1.13966E-02 4.09216E-03-7.78258E-14
 -1       861 1.16823E-02 4.24444E-03-8.11263E-14
 -1       862 1.19681E-02 4.39675E-03-8.44572E-14
 -1       863 1.22538E-02 4.54908E-03-8.78159E-14
 -1       864 1.25396E-02 4.70142E-03-9.11988E-14
 -1       865 1.28253E-02 4.85376E-03-9.45937E-14
 -1       866 1.31110E-02 5.00611E-03-9.80021E-14
 -1       867 1.34312E-02 5.17991E-03-9.97434E-14
 -1       868 1.83410E-03-6.04983E-05-2.41659E-15
 -1       869 6.92767E-03 1.67708E-03-1.85509E-14
 -1       870 7.20141E-03 1.83183E-03-2.07076E-14
 -1       871 6.25605E-03 1.29546E-03-1.27711E-14
 -1       872 7.47018E-03 1.98344E-03-2.28467E-14
 -1       873 7.74440E-03 2.13746E-03-2.50664E-14
 -1       874 8.02239E-03 2.29271E-03-2.73626E-14
 -1       875 8.30294E-03 2.44841E-03-2.97315E-14
 -1       876 8.58523E-03 2.60412E-03-3.21685E-14
 -1       877 8.88290E-03 2.76735E-03-3.47972E-14
 -1       878 9.16718E-03 2.92241E-03-3.73627E-14
 -1       879 9.45198E-03 3.07706E-03-3.99896E-14
 -1       880 9.73712E-03 3.23131E-03-4.26790E-14
 -1       881 1.00225E-02 3.38518E-03-4.54328E-14
 -1       882 1.03080E-02 3.53873E-03-4.82427E-14
 -1       883 1.06079E-02 3.69966E-03-5.12461E-14
 -1       884 1.08936E-02 3.85270E-03-5.41600E-14
 -1       885 1.11793E-02 4.00556E-03-5.71169E-14
 -1       886 1.14650E-02 4.15828E-03-6.01161E-14
 -1       887 1.17508E-02 4.31089E-03-6.31523E-14
 -1       888 1.20508E-02 4.47104E-03-6.63830E-14
 -1       889 1.23366E-02 4.62350E-03-6.95090E-14
 -1       890 1.26223E-02 4.77592E-03-7.26713E-14
 -1       891 1.29081E-02 4.92831E-03-7.58667E-14
 -1       892 1.31938E-02 5.08067E-03-7.90901E-14
 -1       893 1.34795E-02 5.23302E-03-8.23224E-14
 -1       894 1.37796E-02 5.39298E-03-8.57291E-14
 -1       895 1.40653E-02 5.54532E-03-8.89844E-14
 -1       896 1.43510E-02 5.69765E-03-9.22536E-14
 -1       897 1.32785E-03-1.79608E-04-1.51045E-15
 -1       898 6.45830E-03 1.41065E-03-1.46339E-14
 -1       899 1.46954E-03 6.20624E-05-1.73484E-15
 -1       900 5.44712E-03 1.01688E-03-1.25512E-14
 -1       901 5.80054E-03 1.13995E-03-1.26169E-14
 -1       902 4.37113E-03 4.69483E-04-1.09254E-14
 -1       903 2.15840E-03-3.18812E-04-3.49615E-15
 -1       904 6.10036E-03 1.20772E-03-1.14533E-14
 -1       905 1.13675E-03 5.04473E-05-1.14934E-15
 -1       906 2.13566E-03-1.83206E-04-3.13542E-15
 -1       907 3.42679E-03-8.15657E-05-7.61822E-15
 -1       908 1.82640E-03-2.71691E-04-2.60764E-15
 -1       909 6.67852E-03 1.53640E-03-1.65876E-14
 -1       910 1.46373E-02 5.85005E-03-9.57015E-14
 -1       911 4.96031E-03 7.95117E-04-1.22109E-14
 -1       912 4.06715E-03 2.88466E-04-9.97819E-15
 -1       913 3.73873E-03 9.26225E-05-8.76177E-15
 -1       914 1.32883E-02 5.10198E-03-9.92327E-14
 -1       915 1.35797E-02 5.26350E-03-9.85531E-14
 -1       916 1.38780E-02 5.43140E-03-9.61553E-14
 -1       917 1.30834E-03-7.98726E-05-1.43406E-15
 -1       918 1.40278E-02 5.51571E-03-9.49419E-14
 -1       919 6.03229E-03 1.21389E-03-1.28270E-14
 -1       920 4.76132E-03 6.75504E-04-1.26982E-14
 -1       921 1.41654E-02 5.59289E-03-9.39989E-14
 -1       922 1.37288E-02 5.34745E-03-9.73573E-14
 -1       923 2.00464E-03-2.14679E-04-2.91055E-15
 -1       924 6.15892E-03 1.25484E-03-1.28070E-14
 -1       925 4.73405E-03 6.30989E-04-1.39328E-14
 -1       926 5.06091E-03 7.94976E-04-1.58138E-14
 -1       927 5.37404E-03 9.48905E-04-1.77818E-14
 -1       928 5.67636E-03 1.09715E-03-1.98335E-14
 -1       929 5.97074E-03 1.24281E-03-2.19704E-14
 -1       930 6.25981E-03 1.38777E-03-2.41916E-14
 -1       931 6.54563E-03 1.53306E-03-2.64953E-14
 -1       932 6.82968E-03 1.67912E-03-2.88823E-14
 -1       933 7.11294E-03 1.82610E-03-3.13419E-14
 -1       934 7.39603E-03 1.97398E-03-3.38686E-14
 -1       935 7.67927E-03 2.12267E-03-3.64615E-14
 -1       936 7.96286E-03 2.27206E-03-3.91181E-14
 -1       937 8.24683E-03 2.42205E-03-4.18386E-14
 -1       938 8.53118E-03 2.57252E-03-4.46190E-14
 -1       939 8.81588E-03 2.72340E-03-4.74561E-14
 -1       940 9.10087E-03 2.87460E-03-5.03552E-14
 -1       941 9.38609E-03 3.02606E-03-5.33111E-14
 -1       942 9.67148E-03 3.17774E-03-5.63238E-14
 -1       943 9.95701E-03 3.32958E-03-5.93823E-14
 -1       944 1.02426E-02 3.48155E-03-6.24884E-14
 -1       945 1.05283E-02 3.63362E-03-6.56348E-14
 -1       946 1.08140E-02 3.78577E-03-6.88152E-14
 -1       947 1.10998E-02 3.93798E-03-7.20391E-14
 -1       948 1.13855E-02 4.09024E-03-7.52831E-14
 -1       949 1.16713E-02 4.24252E-03-7.85462E-14
 -1       950 1.19571E-02 4.39483E-03-8.18415E-14
 -1       951 1.22428E-02 4.54716E-03-8.51686E-14
 -1       952 1.25286E-02 4.69949E-03-8.85218E-14
 -1       953 1.28143E-02 4.85184E-03-9.18881E-14
 -1       954 1.31001E-02 5.00418E-03-9.52639E-14
 -1       955 6.94767E-03 1.69996E-03-2.01885E-14
 -1       956 7.20970E-03 1.84494E-03-2.23060E-14
 -1       957 8.03648E-03 2.30296E-03-2.92050E-14
 -1       958 8.31634E-03 2.45701E-03-3.16309E-14
 -1       959 8.61212E-03 2.61905E-03-3.42497E-14
 -1       960 8.89510E-03 2.77336E-03-3.68046E-14
 -1       961 9.17896E-03 2.92750E-03-3.94232E-14
 -1       962 9.46343E-03 3.08141E-03-4.21048E-14
 -1       963 9.74834E-03 3.23507E-03-4.48497E-14
 -1       964 1.00335E-02 3.38848E-03-4.76507E-14
 -1       965 1.03332E-02 3.54932E-03-5.06478E-14
 -1       966 1.06188E-02 3.70231E-03-5.35524E-14
 -1       967 1.09044E-02 3.85514E-03-5.65092E-14
 -1       968 1.11901E-02 4.00785E-03-5.95118E-14
 -1       969 1.14759E-02 4.16045E-03-6.25499E-14
 -1       970 1.17759E-02 4.32060E-03-6.57809E-14
 -1       971 1.20617E-02 4.47307E-03-6.88987E-14
 -1       972 1.23474E-02 4.62549E-03-7.20592E-14
 -1       973 1.26332E-02 4.77788E-03-7.52553E-14
 -1       974 1.29189E-02 4.93025E-03-7.84818E-14
 -1       975 1.32047E-02 5.08260E-03-8.17275E-14
 -1       976 1.35047E-02 5.24256E-03-8.51429E-14
 -1       977 1.37905E-02 5.39490E-03-8.84131E-14
 -1       978 1.37054E-02 5.34163E-03-9.26737E-14
 -1       979 7.47851E-03 1.99409E-03-2.45092E-14
 -1       980 7.75913E-03 2.14967E-03-2.68492E-14
 -1       981 5.77106E-03 1.15019E-03-1.41626E-14
 -1       982 6.34708E-03 1.36243E-03-1.46699E-14
 -1       983 6.69490E-03 1.56119E-03-1.81578E-14
 -1       984 6.51516E-03 1.45906E-03-1.63787E-14
 -1       985 6.02319E-03 1.24222E-03-1.44014E-14
 -1       986 5.36270E-03 9.79742E-04-1.39593E-14
 -1       987 1.65322E-03-1.41741E-04-2.10555E-15
 -1       988 4.39074E-03 4.51331E-04-1.21187E-14
 -1       989 6.17645E-03 1.29431E-03-1.43962E-14
 -1       990 1.39809E-03-3.65203E-05-1.58710E-15
 -1       991 1.35563E-02 5.25768E-03-9.38593E-14
 -1       992 1.38431E-02 5.41881E-03-9.17490E-14
 -1       993 1.40762E-02 5.54724E-03-9.16930E-14
 -1       994 5.16815E-03 8.76992E-04-1.44852E-14
 -1       995 1.32580E-02 5.08977E-03-9.62059E-14
 -1       996 6.69139E-03 1.57658E-03-1.97020E-14
 -1       997 5.38485E-03 9.70247E-04-1.64061E-14
 -1       998 5.68657E-03 1.11187E-03-1.83904E-14
 -1       999 5.97881E-03 1.25171E-03-2.04587E-14
 -1      1000 6.26494E-03 1.39206E-03-2.26121E-14
 -1      1001 6.54781E-03 1.53407E-03-2.48470E-14
 -1      1002 6.82916E-03 1.67798E-03-2.71671E-14
 -1      1003 7.11009E-03 1.82367E-03-2.95681E-14
 -1      1004 7.39123E-03 1.97087E-03-3.20372E-14
 -1      1005 7.67291E-03 2.11931E-03-3.45721E-14
 -1      1006 7.95526E-03 2.26870E-03-3.71714E-14
 -1      1007 8.23827E-03 2.41882E-03-3.98358E-14
 -1      1008 8.52190E-03 2.56949E-03-4.25602E-14
 -1      1009 8.80606E-03 2.72057E-03-4.53447E-14
 -1      1010 9.09065E-03 2.87198E-03-4.81852E-14
 -1      1011 9.37558E-03 3.02361E-03-5.10882E-14
 -1      1012 9.66077E-03 3.17543E-03-5.40485E-14
 -1      1013 9.94616E-03 3.32739E-03-5.70596E-14
 -1      1014 1.02317E-02 3.47945E-03-6.01198E-14
 -1      1015 1.05173E-02 3.63159E-03-6.32232E-14
 -1      1016 1.08030E-02 3.78378E-03-6.63634E-14
 -1      1017 1.10887E-02 3.93603E-03-6.95449E-14
 -1      1018 1.13745E-02 4.08830E-03-7.27560E-14
 -1      1019 1.16603E-02 4.24060E-03-7.59874E-14
 -1      1020 1.19460E-02 4.39291E-03-7.92492E-14
 -1      1021 1.22318E-02 4.54524E-03-8.25398E-14
 -1      1022 1.25176E-02 4.69758E-03-8.58640E-14
 -1      1023 1.28033E-02 4.84992E-03-8.92051E-14
 -1      1024 1.30891E-02 5.00226E-03-9.25560E-14
 -1      1025 6.95101E-03 1.71477E-03-2.18007E-14
 -1      1026 8.33473E-03 2.46856E-03-3.36183E-14
 -1      1027 8.05465E-03 2.31583E-03-3.11348E-14
 -1      1028 8.90636E-03 2.77890E-03-3.88361E-14
 -1      1029 9.19012E-03 2.93224E-03-4.15093E-14
 -1      1030 9.47450E-03 3.08549E-03-4.42457E-14
 -1      1031 9.75932E-03 3.23862E-03-4.70376E-14
 -1      1032 1.00587E-02 3.39926E-03-5.00272E-14
 -1      1033 1.03441E-02 3.55212E-03-5.29286E-14
 -1      1034 1.06296E-02 3.70486E-03-5.58825E-14
 -1      1035 1.09153E-02 3.85750E-03-5.88871E-14
 -1      1036 1.12010E-02 4.01007E-03-6.19285E-14
 -1      1037 1.15010E-02 4.17020E-03-6.51617E-14
 -1      1038 1.17868E-02 4.32265E-03-6.82787E-14
 -1      1039 1.20725E-02 4.47506E-03-7.14354E-14
 -1      1040 1.23583E-02 4.62745E-03-7.46308E-14
 -1      1041 1.26441E-02 4.77982E-03-7.78589E-14
 -1      1042 1.29298E-02 4.93218E-03-8.11094E-14
 -1      1043 1.32299E-02 5.09214E-03-8.45441E-14
 -1      1044 1.35156E-02 5.24449E-03-8.78229E-14
 -1      1045 8.62347E-03 2.62556E-03-3.62259E-14
 -1      1046 7.77673E-03 2.16398E-03-2.87173E-14
 -1      1047 1.34071E-02 5.17372E-03-9.50329E-14
 -1      1048 7.21702E-03 1.85855E-03-2.39852E-14
 -1      1049 5.73186E-03 1.14140E-03-1.57262E-14
 -1      1050 7.49486E-03 2.00994E-03-2.63112E-14
 -1      1051 5.98987E-03 1.24919E-03-1.59956E-14
 -1      1052 1.35318E-02 5.25113E-03-8.93186E-14
 -1      1053 6.33782E-03 1.38305E-03-1.60910E-14
 -1      1054 6.18795E-03 1.32623E-03-1.60941E-14
 -1      1055 5.55483E-03 1.05951E-03-1.60752E-14
 -1      1056 6.50642E-03 1.47589E-03-1.78691E-14
 -1      1057 1.33827E-02 5.16718E-03-9.04906E-14
 -1      1058 6.68266E-03 1.58596E-03-2.12738E-14
 -1      1059 1.31798E-02 5.05380E-03-9.15441E-14
 -1      1060 5.99574E-03 1.26212E-03-1.89750E-14
 -1      1061 6.27600E-03 1.39664E-03-2.10589E-14
 -1      1062 6.55384E-03 1.53463E-03-2.32268E-14
 -1      1063 6.83104E-03 1.67593E-03-2.54784E-14
 -1      1064 7.10870E-03 1.82014E-03-2.78166E-14
 -1      1065 7.38733E-03 1.96664E-03-3.02292E-14
 -1      1066 7.66710E-03 2.11487E-03-3.27071E-14
 -1      1067 7.94801E-03 2.26436E-03-3.52490E-14
 -1      1068 8.22995E-03 2.41474E-03-3.78581E-14
 -1      1069 8.51279E-03 2.56574E-03-4.05278E-14
 -1      1070 8.79636E-03 2.71717E-03-4.32561E-14
 -1      1071 9.08053E-03 2.86889E-03-4.60432E-14
 -1      1072 9.36516E-03 3.02081E-03-4.88896E-14
 -1      1073 9.65014E-03 3.17285E-03-5.17952E-14
 -1      1074 9.93539E-03 3.32499E-03-5.47592E-14
 -1      1075 1.02208E-02 3.47720E-03-5.77717E-14
 -1      1076 1.05064E-02 3.62944E-03-6.08310E-14
 -1      1077 1.07920E-02 3.78172E-03-6.39290E-14
 -1      1078 1.10778E-02 3.93402E-03-6.70695E-14
 -1      1079 1.13635E-02 4.08633E-03-7.02441E-14
 -1      1080 1.16493E-02 4.23865E-03-7.34424E-14
 -1      1081 1.19350E-02 4.39098E-03-7.66705E-14
 -1      1082 1.22208E-02 4.54332E-03-7.99305E-14
 -1      1083 1.25066E-02 4.69566E-03-8.32223E-14
 -1      1084 1.27924E-02 4.84800E-03-8.65379E-14
 -1      1085 6.24338E-03 1.36653E-03-1.77920E-14
 -1      1086 9.20081E-03 2.93652E-03-4.36156E-14
 -1      1087 8.91693E-03 2.78385E-03-4.08909E-14
 -1      1088 9.77726E-03 3.24572E-03-4.93104E-14
 -1      1089 1.00624E-02 3.39836E-03-5.22067E-14
 -1      1090 1.03478E-02 3.55094E-03-5.51587E-14
 -1      1091 1.06334E-02 3.70348E-03-5.81604E-14
 -1      1092 1.09190E-02 3.85596E-03-6.12047E-14
 -1      1093 1.12190E-02 4.01604E-03-6.44440E-14
 -1      1094 1.15047E-02 4.16845E-03-6.75657E-14
 -1      1095 1.17905E-02 4.32085E-03-7.07179E-14
 -1      1096 1.20763E-02 4.47323E-03-7.39079E-14
 -1      1097 1.23621E-02 4.62559E-03-7.71346E-14
 -1      1098 1.26478E-02 4.77794E-03-8.03896E-14
 -1      1099 1.29479E-02 4.93791E-03-8.38323E-14
 -1      1100 8.63382E-03 2.63130E-03-3.82283E-14
 -1      1101 6.00312E-03 1.26313E-03-1.75187E-14
 -1      1102 7.78493E-03 2.17262E-03-3.05528E-14
 -1      1103 9.48526E-03 3.08923E-03-4.64008E-14
 -1      1104 7.50119E-03 2.01952E-03-2.80842E-14
 -1      1105 7.22029E-03 1.86878E-03-2.56901E-14
 -1      1106 8.34468E-03 2.47522E-03-3.55620E-14
 -1      1107 6.94956E-03 1.72508E-03-2.34390E-14
 -1      1108 8.06395E-03 2.32347E-03-3.30251E-14
 -1      1109 1.32408E-02 5.09406E-03-8.72077E-14
 -1      1110 6.41976E-03 1.45300E-03-1.91920E-14
 -1      1111 6.29387E-03 1.40010E-03-1.95363E-14
 -1      1112 0.00000E+00 0.00000E+00 0.00000E+00
 -1      1113 0.00000E+00 0.00000E+00 0.00000E+00
 -1      1114 0.00000E+00 0.00000E+00 0.00000E+00
 -1      1115 0.00000E+00 0.00000E+00 0.00000E+00
 -1      1116 0.00000E+00 0.00000E+00 0.00000E+00
 -1      1117 0.00000E+00 0.00000E+00 0.00000E+00
 -1      1118 0.00000E+00 0.00000E+00 0.00000E+00
 -1      1119 0.00000E+00 0.00000E+00 0.00000E+00
 -1      1120 0.00000E+00 0.00000E+00 0.00000E+00
 -1      1121 0.00000E+00 0.00000E+00 0.00000E+00
 -1      1122 0.00000E+00 0.00000E+00 0.00000E+00
 -1      1123 0.00000E+00 0.00000E+00 0.00000E+00
 -1      1124 0.00000E+00 0.00000E+00 0.00000E+00
 -1      1125 0.00000E+00 0.00000E+00 0.00000E+00
 -1      1126 0.00000E+00 0.00000E+00 0.00000E+00
 -1      1127 0.00000E+00 0.00000E+00 0.00000E+00
 -1      1128 0.00000E+00 0.00000E+00 0.00000E+00
 -1      1129 2.21706E-04-1.55443E-04-1.89464E-17
 -1      1130 5.77456E-04-3.55824E-04-1.70138E-16
 -1      1131 8.70475E-04-4.88564E-04-4.77849E-16
 -1      1132 1.14633E-03-5.82548E-04-9.63490E-16
 -1      1133 1.41054E-03-6.51897E-04-1.60988E-15
 -1      1134 1.66415E-03-7.00820E-04-2.41007E-15
 -1      1135 1.90746E-03-7.28301E-04-3.36013E-15
 -1      1136 2.14153E-03-7.30776E-04-4.45615E-15
 -1      1137 2.36899E-03-7.04220E-04-5.69594E-15
 -1      1138 2.59406E-03-6.45988E-04-7.07628E-15
 -1      1139 2.82182E-03-5.56158E-04-8.58989E-15
 -1      1140 3.05710E-03-4.37952E-04-1.02278E-14
 -1      1141 3.30329E-03-2.97133E-04-1.19832E-14
 -1      1142 3.56182E-03-1.40697E-04-1.38490E-14
 -1      1143 3.83217E-03 2.45561E-05-1.58166E-14
 -1      1144 4.11243E-03 1.93081E-04-1.78817E-14
 -1      1145 4.39997E-03 3.61051E-04-2.00424E-14
 -1      1146 4.69217E-03 5.26313E-04-2.22883E-14
 -1      1147 4.98675E-03 6.88032E-04-2.46142E-14
 -1      1148 5.28200E-03 8.46252E-04-2.70235E-14
 -1      1149 5.57678E-03 1.00150E-03-2.95120E-14
 -1      1150 5.87046E-03 1.15447E-03-3.20821E-14
 -1      1151 6.16275E-03 1.30587E-03-3.47275E-14
 -1      1152 6.45363E-03 1.45631E-03-3.74505E-14
 -1      1153 6.74322E-03 1.60627E-03-4.02534E-14
 -1      1154 7.03170E-03 1.75609E-03-4.31221E-14
 -1      1155 7.31929E-03 1.90598E-03-4.60425E-14
 -1      1156 7.60619E-03 2.05609E-03-4.90171E-14
 -1      1157 7.89257E-03 2.20649E-03-5.20622E-14
 -1      1158 8.17860E-03 2.35719E-03-5.51688E-14
 -1      1159 8.46438E-03 2.50819E-03-5.83233E-14
 -1      1160 8.75001E-03 2.65945E-03-6.15235E-14
 -1      1161 9.03555E-03 2.81095E-03-6.47639E-14
 -1      1162 9.32105E-03 2.96265E-03-6.80397E-14
 -1      1163 9.60653E-03 3.11451E-03-7.13494E-14
 -1      1164 9.89202E-03 3.26650E-03-7.46924E-14
 -1      1165 1.01775E-02 3.41859E-03-7.80664E-14
 -1      1166 1.04631E-02 3.57076E-03-8.14726E-14
 -1      1167 1.07486E-02 3.72299E-03-8.49063E-14
 -1      1168 1.10342E-02 3.87525E-03-8.83681E-14
 -1      1169 1.13198E-02 4.02755E-03-9.18610E-14
 -1      1170 1.16055E-02 4.17988E-03-9.53858E-14
 -1      1171 1.18911E-02 4.33221E-03-9.89254E-14
 -1      1172 1.21768E-02 4.48455E-03-1.02486E-13
 -1      1173 1.24625E-02 4.63690E-03-1.06052E-13
 -1      1174 1.27482E-02 4.78924E-03-1.09599E-13
 -1      1175 1.30339E-02 4.94159E-03-1.13150E-13
 -1      1176 1.33196E-02 5.09393E-03-1.16689E-13
 -1      1177 1.36053E-02 5.24627E-03-1.20230E-13
 -1      1178 1.38839E-02 5.39479E-03-1.23702E-13
 -1      1179 2.57778E-04 1.53609E-04 4.78133E-17
 -1      1180 6.65116E-04 3.08236E-04 1.05019E-16
 -1      1181 1.05871E-03 4.23719E-04 1.00939E-16
 -1      1182 1.47411E-03 5.42167E-04 2.20500E-17
 -1      1183 1.92133E-03 6.99480E-04-1.36528E-16
 -1      1184 2.41023E-03 9.40126E-04-3.87535E-16
 -1      1185 2.90105E-03 1.28813E-03-7.37393E-16
 -1      1186 3.32459E-03 1.70296E-03-1.18253E-15
 -1      1187 3.63087E-03 2.05615E-03-1.72137E-15
 -1      1188 3.85105E-03 2.22213E-03-2.36147E-15
 -1      1189 4.08825E-03 2.16590E-03-3.16732E-15
 -1      1190 4.40807E-03 1.96146E-03-4.11971E-15
 -1      1191 4.81475E-03 1.74569E-03-5.20458E-15
 -1      1192 5.28794E-03 1.60180E-03-6.46695E-15
 -1      1193 5.76814E-03 1.56326E-03-7.87527E-15
 -1      1194 6.21531E-03 1.61076E-03-9.38809E-15
 -1      1195 6.63340E-03 1.71545E-03-1.10488E-14
 -1      1196 7.01603E-03 1.85161E-03-1.28144E-14
 -1      1197 7.36295E-03 1.99996E-03-1.46236E-14
 -1      1198 7.69095E-03 2.15558E-03-1.65200E-14
 -1      1199 8.00558E-03 2.31427E-03-1.85166E-14
 -1      1200 8.31844E-03 2.47786E-03-2.06596E-14
 -1      1201 8.62461E-03 2.64126E-03-2.28887E-14
 -1      1202 8.91890E-03 2.80002E-03-2.51265E-14
 -1      1203 9.21022E-03 2.95795E-03-2.74154E-14
 -1      1204 9.49950E-03 3.11503E-03-2.97638E-14
 -1      1205 9.78739E-03 3.27131E-03-3.21761E-14
 -1      1206 1.00815E-02 3.43075E-03-3.47203E-14
 -1      1207 1.03750E-02 3.58954E-03-3.73358E-14
 -1      1208 1.06609E-02 3.74392E-03-3.99514E-14
 -1      1209 1.09466E-02 3.89786E-03-4.26491E-14
 -1      1210 1.12322E-02 4.05144E-03-4.54122E-14
 -1      1211 1.15176E-02 4.20473E-03-4.82370E-14
 -1      1212 1.18102E-02 4.36160E-03-5.11676E-14
 -1      1213 1.21028E-02 4.51828E-03-5.41396E-14
 -1      1214 1.23883E-02 4.67100E-03-5.70898E-14
 -1      1215 1.26738E-02 4.82360E-03-6.00739E-14
 -1      1216 1.29593E-02 4.97613E-03-6.31000E-14
 -1      1217 1.32520E-02 5.13240E-03-6.62584E-14
 -1      1218 1.35447E-02 5.28863E-03-6.94447E-14
 -1      1219 1.38303E-02 5.44101E-03-7.25563E-14
 -1      1220 1.41159E-02 5.59338E-03-7.56689E-14
 -1      1221 1.44016E-02 5.74573E-03-7.87968E-14
 -1      1222 1.46873E-02 5.89807E-03-8.19515E-14
 -1      1223 1.49801E-02 6.05422E-03-8.51888E-14
 -1      1224 1.52729E-02 6.21036E-03-8.84329E-14
 -1      1225 1.55586E-02 6.36270E-03-9.16403E-14
 -1      1226 1.58443E-02 6.51505E-03-9.48878E-14
 -1      1227 1.61301E-02 6.66739E-03-9.81690E-14
 -1      1228 1.64158E-02 6.81974E-03-1.01498E-13
 -1      1229 1.64837E-02 6.85378E-03-1.03839E-13
 -1      1230 1.63339E-02 6.76949E-03-1.05154E-13
 -1      1231 1.61841E-02 6.68521E-03-1.06469E-13
 -1      1232 1.60343E-02 6.60091E-03-1.07785E-13
 -1      1233 1.58844E-02 6.51662E-03-1.09088E-13
 -1      1234 1.57359E-02 6.43303E-03-1.10415E-13
 -1      1235 1.55873E-02 6.34944E-03-1.11785E-13
 -1      1236 1.54375E-02 6.26513E-03-1.13147E-13
 -1      1237 1.52877E-02 6.18082E-03-1.14487E-13
 -1      1238 1.51379E-02 6.09651E-03-1.15819E-13
 -1      1239 1.49881E-02 6.01220E-03-1.17114E-13
 -1      1240 1.48396E-02 5.92861E-03-1.18407E-13
 -1      1241 1.46911E-02 5.84502E-03-1.19709E-13
 -1      1242 1.45413E-02 5.76073E-03-1.20999E-13
 -1      1243 1.43915E-02 5.67644E-03-1.22276E-13
 -1      1244 1.42417E-02 5.59215E-03-1.23536E-13
 -1      1245 1.40932E-02 5.50858E-03-1.24785E-13
 -1      1246 5.83990E-03 9.99644E-04-6.71944E-15
 -1      1247 5.78547E-03 1.16719E-03-6.37317E-15
 -1      1248 5.60839E-03 1.34204E-03-5.92633E-15
 -1      1249 5.33633E-03 1.51772E-03-5.43881E-15
 -1      1250 4.98127E-03 1.69266E-03-4.91694E-15
 -1      1251 4.53935E-03 1.84978E-03-4.35855E-15
 -1      1252 4.04152E-03 1.94676E-03-3.81360E-15
 -1      1253 3.51534E-03 1.94157E-03-3.31178E-15
 -1      1254 2.96663E-03 1.82333E-03-2.86219E-15
 -1      1255 2.42329E-03 1.60891E-03-2.49044E-15
 -1      1256 1.92884E-03 1.34951E-03-2.21559E-15
 -1      1257 1.53028E-03 1.10347E-03-2.04495E-15
 -1      1258 1.23608E-03 8.89130E-04-1.96436E-15
 -1      1259 1.04755E-03 7.06652E-04-1.96082E-15
 -1      1260 9.68555E-04 5.48792E-04-2.03262E-15
 -1      1261 1.00618E-03 4.04898E-04-2.18963E-15
 -1      1262 1.15480E-03 2.72928E-04-2.42910E-15
 -1      1263 1.39329E-03 1.51850E-04-2.73799E-15
 -1      1264 1.70678E-03 3.98615E-05-3.12111E-15
 -1      1265 2.09113E-03-5.71975E-05-3.58429E-15
 -1      1266 2.52213E-03-1.21519E-04-4.10422E-15
 -1      1267 2.97032E-03-1.38094E-04-4.64643E-15
 -1      1268 3.43912E-03-1.01433E-04-5.20246E-15
 -1      1269 3.93415E-03-4.04558E-06-5.75497E-15
 -1      1270 4.41741E-03 1.39648E-04-6.24557E-15
 -1      1271 4.85160E-03 3.05646E-04-6.61927E-15
 -1      1272 5.23770E-03 4.82724E-04-6.87218E-15
 -1      1273 5.55245E-03 6.61604E-04-6.97988E-15
 -1      1274 5.76228E-03 8.35141E-04-6.92503E-15
 -1      1275 1.74210E-04-1.15634E-04-3.94243E-17
 -1      1276 1.17358E-04-5.95853E-05-5.28142E-17
 -1      1277 1.22667E-04-7.08654E-05-4.85723E-17
 -1      1278 1.13313E-04-4.42927E-05-5.83030E-17
 -1      1279 1.15113E-04-5.14301E-05-5.73950E-17
 -1      1280 2.36369E-04-1.12453E-04-1.36867E-16
 -1      1281 1.11804E-04-3.12971E-05-5.85469E-17
 -1      1282 1.12668E-04-3.76807E-05-5.89264E-17
 -1      1283 2.29772E-04-8.30994E-05-1.43711E-16
 -1      1284 1.10505E-04-1.85529E-05-5.67580E-17
 -1      1285 1.11303E-04-2.48479E-05-5.76660E-17
 -1      1286 2.26848E-04-5.72546E-05-1.42356E-16
 -1      1287 1.08554E-04-5.92929E-06-5.37087E-17
 -1      1288 1.09725E-04-1.20716E-05-5.48471E-17
 -1      1289 2.24050E-04-3.22145E-05-1.37057E-16
 -1      1290 1.05340E-04 6.38595E-06-5.05103E-17
 -1      1291 1.07163E-04 5.31871E-07-5.15538E-17
 -1      1292 2.19457E-04-7.44374E-06-1.29752E-16
 -1      1293 1.00797E-04 1.69056E-05-4.69460E-17
 -1      1294 1.03250E-04 1.20764E-05-4.78811E-17
 -1      1295 2.11940E-04 1.59117E-05-1.21553E-16
 -1      1296 9.54210E-05 2.40124E-05-4.32732E-17
 -1      1297 9.81675E-05 2.09407E-05-4.41541E-17
 -1      1298 2.01459E-04 3.51489E-05-1.12865E-16
 -1      1299 9.04210E-05 2.63947E-05-3.95056E-17
 -1      1300 9.27617E-05 2.55756E-05-4.03594E-17
 -1      1301 1.89366E-04 4.73717E-05-1.03867E-16
 -1      1302 8.75820E-05 2.39237E-05-3.54263E-17
 -1      1303 8.85835E-05 2.52018E-05-3.64021E-17
 -1      1304 1.78702E-04 5.06341E-05-9.44476E-17
 -1      1305 8.86261E-05 1.84380E-05-3.04661E-17
 -1      1306 8.74915E-05 2.07294E-05-3.18078E-17
 -1      1307 1.73655E-04 4.56518E-05-8.39850E-17
 -1      1308 9.46172E-05 1.31709E-05-2.40693E-17
 -1      1309 9.09069E-05 1.48184E-05-2.61428E-17
 -1      1310 1.77880E-04 3.65386E-05-7.14625E-17
 -1      1311 1.05429E-04 1.25772E-05-1.59513E-17
 -1      1312 9.93639E-05 1.15012E-05-1.89464E-17
 -1      1313 1.93347E-04 3.01672E-05-5.59584E-17
 -1      1314 1.19981E-04 2.10835E-05-4.77049E-18
 -1      1315 1.12105E-04 1.52407E-05-9.36480E-18
 -1      1316 2.19127E-04 3.47942E-05-3.59549E-17
 -1      1317 1.37947E-04 4.44201E-05 1.05710E-17
 -1      1318 1.28221E-04 3.06125E-05 3.36103E-18
 -1      1319 2.52982E-04 5.85876E-05-1.00695E-17
 -1      1320 1.86064E-04 9.73360E-05 3.18891E-17
 -1      1321 1.62867E-04 6.60271E-05 2.00035E-17
 -1      1322 3.06643E-04 1.09651E-04 1.94479E-17
 -1      1323 4.01562E-04 1.91612E-04 5.67173E-17
 -1      1324 4.40367E-04-2.75666E-04-1.56030E-16
 -1      1325 5.99821E-04-3.56287E-04-2.65982E-16
 -1      1326 7.52565E-04-4.22685E-04-4.24289E-16
 -1      1327 9.00297E-04-4.78108E-04-6.25544E-16
 -1      1328 6.37890E-04-3.51666E-04-3.70675E-16
 -1      1329 1.04365E-03-5.25719E-04-8.66711E-16
 -1      1330 1.18337E-03-5.66435E-04-1.14825E-15
 -1      1331 9.40946E-04-4.65127E-04-7.71884E-16
 -1      1332 1.32000E-03-6.01862E-04-1.46835E-15
 -1      1333 1.45384E-03-6.31966E-04-1.82707E-15
 -1      1334 1.22872E-03-5.48712E-04-1.33055E-15
 -1      1335 1.58511E-03-6.57197E-04-2.22356E-15
 -1      1336 1.71395E-03-6.77171E-04-2.65676E-15
 -1      1337 1.50496E-03-6.10495E-04-2.04130E-15
 -1      1338 1.84051E-03-6.91640E-04-3.12683E-15
 -1      1339 1.96495E-03-7.00074E-04-3.63373E-15
 -1      1340 1.77169E-03-6.51666E-04-2.89943E-15
 -1      1341 2.08752E-03-7.01913E-04-4.17641E-15
 -1      1342 2.20849E-03-6.96637E-04-4.75478E-15
 -1      1343 2.03040E-03-6.69489E-04-3.90245E-15
 -1      1344 2.32828E-03-6.83711E-04-5.36871E-15
 -1      1345 2.44728E-03-6.62810E-04-6.01753E-15
 -1      1346 2.28289E-03-6.59585E-04-5.04779E-15
 -1      1347 2.56604E-03-6.33699E-04-6.70093E-15
 -1      1348 2.68503E-03-5.96393E-04-7.41728E-15
 -1      1349 2.53182E-03-6.18034E-04-6.33230E-15
 -1      1350 2.80481E-03-5.51113E-04-8.16620E-15
 -1      1351 2.92584E-03-4.98258E-04-8.94720E-15
 -1      1352 2.78051E-03-5.43231E-04-7.75108E-15
 -1      1353 3.04857E-03-4.38487E-04-9.75861E-15
 -1      1354 3.17333E-03-3.72511E-04-1.06002E-14
 -1      1355 3.03238E-03-4.36920E-04-9.29777E-15
 -1      1356 3.30038E-03-3.01265E-04-1.14701E-14
 -1      1357 3.42986E-03-2.25614E-04-1.23679E-14
 -1      1358 3.29025E-03-3.04080E-04-1.09648E-14
 -1      1359 3.56183E-03-1.46542E-04-1.32937E-14
 -1      1360 3.69624E-03-6.48978E-05-1.42448E-14
 -1      1361 3.55574E-03-1.51767E-04-1.27464E-14
 -1      1362 3.83296E-03 1.84808E-05-1.52211E-14
 -1      1363 3.97181E-03 1.02885E-04-1.62217E-14
 -1      1364 3.82913E-03 1.25009E-05-1.46338E-14
 -1      1365 4.11255E-03 1.87729E-04-1.72470E-14
 -1      1366 4.25494E-03 2.72500E-04-1.82965E-14
 -1      1367 4.10963E-03 1.82142E-04-1.66206E-14
 -1      1368 4.39870E-03 3.56878E-04-1.93683E-14
 -1      1369 4.54356E-03 4.40547E-04-2.04631E-14
 -1      1370 4.39575E-03 3.52315E-04-1.87033E-14
 -1      1371 4.68928E-03 5.23401E-04-2.15780E-14
 -1      1372 4.83562E-03 6.05284E-04-2.27133E-14
 -1      1373 4.68578E-03 5.20070E-04-2.08760E-14
 -1      1374 4.98236E-03 6.86234E-04-2.38703E-14
 -1      1375 5.12935E-03 7.66206E-04-2.50476E-14
 -1      1376 4.97810E-03 6.84064E-04-2.31338E-14
 -1      1377 5.27642E-03 8.45314E-04-2.62445E-14
 -1      1378 5.42346E-03 9.23581E-04-2.74628E-14
 -1      1379 5.27139E-03 8.44089E-04-2.54745E-14
 -1      1380 5.57037E-03 1.00114E-03-2.87000E-14
 -1      1381 5.71708E-03 1.07806E-03-2.99576E-14
 -1      1382 5.56470E-03 1.00060E-03-2.78951E-14
 -1      1383 5.86354E-03 1.15446E-03-3.12346E-14
 -1      1384 6.00972E-03 1.23041E-03-3.25318E-14
 -1      1385 5.85739E-03 1.15434E-03-3.03959E-14
 -1      1386 6.15559E-03 1.30602E-03-3.38495E-14
 -1      1387 6.30117E-03 1.38135E-03-3.51835E-14
 -1      1388 6.14915E-03 1.30612E-03-3.29760E-14
 -1      1389 6.44644E-03 1.45648E-03-3.65384E-14
 -1      1390 6.59141E-03 1.53147E-03-3.79121E-14
 -1      1391 6.43984E-03 1.45664E-03-3.56340E-14
 -1      1392 6.73611E-03 1.60637E-03-3.93033E-14
 -1      1393 6.88056E-03 1.68122E-03-4.07136E-14
 -1      1394 6.72949E-03 1.60649E-03-3.83648E-14
 -1      1395 7.02477E-03 1.75606E-03-4.21393E-14
 -1      1396 7.16876E-03 1.83092E-03-4.35786E-14
 -1      1397 7.01819E-03 1.75609E-03-4.11652E-14
 -1      1398 7.31256E-03 1.90582E-03-4.50312E-14
 -1      1399 7.45619E-03 1.98077E-03-4.64972E-14
 -1      1400 7.30608E-03 1.90571E-03-4.40277E-14
 -1      1401 7.59967E-03 2.05579E-03-4.79795E-14
 -1      1402 7.74302E-03 2.13088E-03-4.94770E-14
 -1      1403 7.59332E-03 2.05554E-03-4.69484E-14
 -1      1404 7.88626E-03 2.20605E-03-5.09899E-14
 -1      1405 8.02940E-03 2.28131E-03-5.25205E-14
 -1      1406 7.88005E-03 2.20567E-03-4.99286E-14
 -1      1407 8.17247E-03 2.35664E-03-5.40649E-14
 -1      1408 8.31546E-03 2.43205E-03-5.56213E-14
 -1      1409 8.16639E-03 2.35613E-03-5.29687E-14
 -1      1410 8.45840E-03 2.50753E-03-5.71912E-14
 -1      1411 8.60130E-03 2.58309E-03-5.87716E-14
 -1      1412 8.45245E-03 2.50692E-03-5.60666E-14
 -1      1413 8.74416E-03 2.65872E-03-6.03640E-14
 -1      1414 8.88699E-03 2.73440E-03-6.19671E-14
 -1      1415 8.73831E-03 2.65801E-03-5.92136E-14
 -1      1416 9.02980E-03 2.81015E-03-6.35791E-14
 -1      1417 9.17260E-03 2.88595E-03-6.52008E-14
 -1      1418 9.02404E-03 2.80937E-03-6.24033E-14
 -1      1419 9.31538E-03 2.96180E-03-6.68333E-14
 -1      1420 9.45816E-03 3.03769E-03-6.84736E-14
 -1      1421 9.30969E-03 2.96096E-03-6.56334E-14
 -1      1422 9.60093E-03 3.11362E-03-7.01230E-14
 -1      1423 9.74370E-03 3.18958E-03-7.17801E-14
 -1      1424 9.59530E-03 3.11274E-03-6.89019E-14
 -1      1425 9.88647E-03 3.26558E-03-7.34463E-14
 -1      1426 1.00292E-02 3.34160E-03-7.51209E-14
 -1      1427 9.88089E-03 3.26467E-03-7.22066E-14
 -1      1428 1.01720E-02 3.41765E-03-7.68038E-14
 -1      1429 1.03148E-02 3.49372E-03-7.84928E-14
 -1      1430 1.01665E-02 3.41672E-03-7.55452E-14
 -1      1431 1.04576E-02 3.56980E-03-8.01896E-14
 -1      1432 1.06004E-02 3.64591E-03-8.18963E-14
 -1      1433 1.04521E-02 3.56886E-03-7.89141E-14
 -1      1434 1.07432E-02 3.72202E-03-8.36065E-14
 -1      1435 1.08860E-02 3.79815E-03-8.53212E-14
 -1      1436 1.07377E-02 3.72106E-03-8.23109E-14
 -1      1437 1.10288E-02 3.87428E-03-8.70474E-14
 -1      1438 1.11716E-02 3.95043E-03-8.87801E-14
 -1      1439 1.10233E-02 3.87332E-03-8.57327E-14
 -1      1440 1.13144E-02 4.02658E-03-9.05187E-14
 -1      1441 1.14572E-02 4.10274E-03-9.22649E-14
 -1      1442 1.13089E-02 4.02561E-03-8.91829E-14
 -1      1443 1.16000E-02 4.17890E-03-9.40190E-14
 -1      1444 1.17428E-02 4.25506E-03-9.57787E-14
 -1      1445 1.15945E-02 4.17792E-03-9.26611E-14
 -1      1446 1.18857E-02 4.33123E-03-9.75435E-14
 -1      1447 1.20285E-02 4.40740E-03-9.93102E-14
 -1      1448 1.18802E-02 4.33026E-03-9.61656E-14
 -1      1449 1.21713E-02 4.48357E-03-1.01082E-13
 -1      1450 1.23142E-02 4.55975E-03-1.02859E-13
 -1      1451 1.21659E-02 4.48260E-03-9.96901E-14
 -1      1452 1.24570E-02 4.63592E-03-1.04632E-13
 -1      1453 1.25999E-02 4.71210E-03-1.06404E-13
 -1      1454 1.24516E-02 4.63495E-03-1.03221E-13
 -1      1455 1.27427E-02 4.78827E-03-1.08178E-13
 -1      1456 1.28856E-02 4.86444E-03-1.09947E-13
 -1      1457 1.27373E-02 4.78729E-03-1.06757E-13
 -1      1458 1.30284E-02 4.94062E-03-1.11718E-13
 -1      1459 1.31713E-02 5.01679E-03-1.13491E-13
 -1      1460 1.30229E-02 4.93964E-03-1.10294E-13
 -1      1461 1.33141E-02 5.09296E-03-1.15262E-13
 -1      1462 1.34570E-02 5.16913E-03-1.17028E-13
 -1      1463 1.33087E-02 5.09199E-03-1.13832E-13
 -1      1464 1.35998E-02 5.24530E-03-1.18798E-13
 -1      1465 1.37427E-02 5.32146E-03-1.20574E-13
 -1      1466 1.35944E-02 5.24433E-03-1.17368E-13
 -1      1467 1.39575E-02 5.43622E-03-1.23088E-13
 -1      1468 1.39520E-02 5.43525E-03-1.21650E-13
 -1      1469 7.97715E-04 3.21220E-04 7.31972E-17
 -1      1470 6.00682E-04 2.60702E-04 7.29261E-17
 -1      1471 5.42544E-04 2.14694E-04 4.52248E-17
 -1      1472 1.19542E-03 4.30794E-04 1.99493E-17
 -1      1473 9.95108E-04 3.75568E-04 5.57144E-17
 -1      1474 9.28194E-04 3.28308E-04 1.50975E-17
 -1      1475 1.61005E-03 5.58673E-04-1.09653E-16
 -1      1476 1.39980E-03 4.90300E-04-3.48164E-17
 -1      1477 1.31953E-03 4.40318E-04-8.74274E-17
 -1      1478 2.04799E-03 7.41604E-04-3.20409E-16
 -1      1479 1.82605E-03 6.41260E-04-2.04413E-16
 -1      1480 1.72577E-03 5.85789E-04-2.68028E-16
 -1      1481 2.52580E-03 1.03417E-03-6.37972E-16
 -1      1482 2.28606E-03 8.74119E-04-4.66153E-16
 -1      1483 2.16237E-03 8.10749E-04-5.41030E-16
 -1      1484 2.97172E-03 1.42227E-03-1.04292E-15
 -1      1485 2.75271E-03 1.21816E-03-8.27531E-16
 -1      1486 2.61403E-03 1.14837E-03-9.12912E-16
 -1      1487 3.37013E-03 1.84895E-03-1.56229E-15
 -1      1488 3.17900E-03 1.64015E-03-1.28669E-15
 -1      1489 3.04910E-03 1.57334E-03-1.38371E-15
 -1      1490 3.67272E-03 2.13163E-03-2.15018E-15
 -1      1491 3.52641E-03 2.01125E-03-1.84056E-15
 -1      1492 3.43214E-03 1.95975E-03-1.95053E-15
 -1      1493 3.95203E-03 2.19843E-03-2.87318E-15
 -1      1494 3.81119E-03 2.19324E-03-2.49434E-15
 -1      1495 3.76534E-03 2.15866E-03-2.61595E-15
 -1      1496 4.27929E-03 2.04310E-03-3.78471E-15
 -1      1497 4.10883E-03 2.14067E-03-3.31004E-15
 -1      1498 4.10903E-03 2.11176E-03-3.44162E-15
 -1      1499 4.64463E-03 1.81233E-03-4.78342E-15
 -1      1500 4.45601E-03 1.92862E-03-4.26815E-15
 -1      1501 4.48393E-03 1.89391E-03-4.40884E-15
 -1      1502 5.07092E-03 1.61508E-03-5.96330E-15
 -1      1503 4.85497E-03 1.70322E-03-5.35803E-15
 -1      1504 4.88686E-03 1.66103E-03-5.50612E-15
 -1      1505 5.52823E-03 1.51904E-03-7.32198E-15
 -1      1506 5.30066E-03 1.55311E-03-6.62911E-15
 -1      1507 5.31752E-03 1.50648E-03-6.78444E-15
 -1      1508 5.96699E-03 1.52795E-03-8.79327E-15
 -1      1509 5.75099E-03 1.51278E-03-8.04440E-15
 -1      1510 5.74447E-03 1.46491E-03-8.20920E-15
 -1      1511 6.37613E-03 1.60798E-03-1.03657E-14
 -1      1512 6.17548E-03 1.56123E-03-9.56663E-15
 -1      1513 6.14726E-03 1.51391E-03-9.73932E-15
 -1      1514 6.77369E-03 1.73609E-03-1.21264E-14
 -1      1515 6.57876E-03 1.66794E-03-1.12321E-14
 -1      1516 6.53401E-03 1.62195E-03-1.14118E-14
 -1      1517 7.12659E-03 1.88008E-03-1.39006E-14
 -1      1518 6.95291E-03 1.80622E-03-1.30025E-14
 -1      1519 6.89729E-03 1.76175E-03-1.31865E-14
 -1      1520 7.46012E-03 2.03435E-03-1.57586E-14
 -1      1521 7.29542E-03 1.95635E-03-1.48187E-14
 -1      1522 7.23334E-03 1.91326E-03-1.50085E-14
 -1      1523 7.77937E-03 2.19310E-03-1.77105E-14
 -1      1524 7.62123E-03 2.11339E-03-1.67233E-14
 -1      1525 7.55536E-03 2.07147E-03-1.69198E-14
 -1      1526 8.08834E-03 2.35334E-03-1.97574E-14
 -1      1527 7.93490E-03 2.27315E-03-1.87219E-14
 -1      1528 7.86691E-03 2.23216E-03-1.89249E-14
 -1      1529 8.40499E-03 2.52163E-03-2.19972E-14
 -1      1530 8.24747E-03 2.43754E-03-2.08653E-14
 -1      1531 8.17833E-03 2.39729E-03-2.10684E-14
 -1      1532 8.70138E-03 2.68124E-03-2.42079E-14
 -1      1533 8.55369E-03 2.60154E-03-2.30951E-14
 -1      1534 8.48402E-03 2.56184E-03-2.32987E-14
 -1      1535 8.99429E-03 2.83995E-03-2.64784E-14
 -1      1536 8.84819E-03 2.76072E-03-2.53359E-14
 -1      1537 8.77833E-03 2.72141E-03-2.55437E-14
 -1      1538 9.28475E-03 2.99771E-03-2.88038E-14
 -1      1539 9.13976E-03 2.91895E-03-2.76336E-14
 -1      1540 9.06989E-03 2.87994E-03-2.78492E-14
 -1      1541 9.57354E-03 3.15457E-03-3.11948E-14
 -1      1542 9.42931E-03 3.07625E-03-2.99916E-14
 -1      1543 9.35952E-03 3.03746E-03-3.02159E-14
 -1      1544 9.86116E-03 3.31062E-03-3.36500E-14
 -1      1545 9.71746E-03 3.23269E-03-3.24136E-14
 -1      1546 9.64780E-03 3.19405E-03-3.26475E-14
 -1      1547 1.01623E-02 3.47370E-03-3.63019E-14
 -1      1548 1.00118E-02 3.39225E-03-3.49660E-14
 -1      1549 9.94231E-03 3.35373E-03-3.52076E-14
 -1      1550 1.04486E-02 3.62840E-03-3.88883E-14
 -1      1551 1.03055E-02 3.55112E-03-3.75880E-14
 -1      1552 1.02361E-02 3.51269E-03-3.78361E-14
 -1      1553 1.07346E-02 3.78260E-03-4.15540E-14
 -1      1554 1.05916E-02 3.70556E-03-4.02117E-14
 -1      1555 1.05224E-02 3.66719E-03-4.04660E-14
 -1      1556 1.10203E-02 3.93639E-03-4.42840E-14
 -1      1557 1.08774E-02 3.85954E-03-4.29111E-14
 -1      1558 1.08083E-02 3.82121E-03-4.31688E-14
 -1      1559 1.13059E-02 4.08984E-03-4.70788E-14
 -1      1560 1.11631E-02 4.01315E-03-4.56727E-14
 -1      1561 1.10941E-02 3.97485E-03-4.59319E-14
 -1      1562 1.15914E-02 4.24301E-03-4.99209E-14
 -1      1563 1.14487E-02 4.16645E-03-4.84947E-14
 -1      1564 1.13797E-02 4.12817E-03-4.87526E-14
 -1      1565 1.18912E-02 4.40362E-03-5.29489E-14
 -1      1566 1.17413E-02 4.32334E-03-5.14296E-14
 -1      1567 1.16724E-02 4.28508E-03-5.16904E-14
 -1      1568 1.21767E-02 4.55641E-03-5.58787E-14
 -1      1569 1.20340E-02 4.48003E-03-5.44075E-14
 -1      1570 1.19651E-02 4.44177E-03-5.46720E-14
 -1      1571 1.24622E-02 4.70907E-03-5.88508E-14
 -1      1572 1.23195E-02 4.63275E-03-5.73598E-14
 -1      1573 1.22507E-02 4.59450E-03-5.76284E-14
 -1      1574 1.27478E-02 4.86163E-03-6.18584E-14
 -1      1575 1.26050E-02 4.78536E-03-6.03504E-14
 -1      1576 1.25362E-02 4.74711E-03-6.06234E-14
 -1      1577 1.30333E-02 5.01412E-03-6.49174E-14
 -1      1578 1.28906E-02 4.93788E-03-6.33806E-14
 -1      1579 1.28218E-02 4.89963E-03-6.36590E-14
 -1      1580 1.33332E-02 5.17418E-03-6.81668E-14
 -1      1581 1.31833E-02 5.09415E-03-6.65382E-14
 -1      1582 1.31145E-02 5.05591E-03-6.68170E-14
 -1      1583 1.36188E-02 5.32658E-03-7.12851E-14
 -1      1584 1.34760E-02 5.25038E-03-6.97246E-14
 -1      1585 1.34073E-02 5.21213E-03-7.00047E-14
 -1      1586 1.39044E-02 5.47895E-03-7.44064E-14
 -1      1587 1.37616E-02 5.40276E-03-7.28450E-14
 -1      1588 1.36929E-02 5.36451E-03-7.31323E-14
 -1      1589 1.41901E-02 5.63130E-03-7.75363E-14
 -1      1590 1.40473E-02 5.55513E-03-7.59698E-14
 -1      1591 1.39786E-02 5.51688E-03-7.62696E-14
 -1      1592 1.44757E-02 5.78365E-03-8.06845E-14
 -1      1593 1.43329E-02 5.70748E-03-7.91086E-14
 -1      1594 1.42642E-02 5.66922E-03-7.94153E-14
 -1      1595 1.47614E-02 5.93599E-03-8.38480E-14
 -1      1596 1.46186E-02 5.85982E-03-8.22626E-14
 -1      1597 1.45499E-02 5.82156E-03-8.25792E-14
 -1      1598 1.50614E-02 6.09594E-03-8.71761E-14
 -1      1599 1.49114E-02 6.01596E-03-8.55112E-14
 -1      1600 1.48427E-02 5.97771E-03-8.58307E-14
 -1      1601 1.53471E-02 6.24828E-03-9.03708E-14
 -1      1602 1.52042E-02 6.17211E-03-8.87679E-14
 -1      1603 1.51356E-02 6.13385E-03-8.91013E-14
 -1      1604 1.56328E-02 6.40062E-03-9.36046E-14
 -1      1605 1.54899E-02 6.32445E-03-9.19842E-14
 -1      1606 1.54213E-02 6.28619E-03-9.23215E-14
 -1      1607 1.59185E-02 6.55296E-03-9.68706E-14
 -1      1608 1.57757E-02 6.47679E-03-9.52335E-14
 -1      1609 1.57070E-02 6.43853E-03-9.55798E-14
 -1      1610 1.62042E-02 6.70531E-03-1.00177E-13
 -1      1611 1.60614E-02 6.62913E-03-9.85164E-14
 -1      1612 1.59927E-02 6.59088E-03-9.88637E-14
 -1      1613 1.63409E-02 6.77760E-03-1.02166E-13
 -1      1614 1.61727E-02 6.68245E-03-1.04045E-13
 -1      1615 1.62476E-02 6.72459E-03-1.03383E-13
 -1      1616 1.60229E-02 6.59816E-03-1.05364E-13
 -1      1617 1.60978E-02 6.64031E-03-1.04704E-13
 -1      1618 1.60116E-02 6.59541E-03-1.02939E-13
 -1      1619 1.58731E-02 6.51387E-03-1.06677E-13
 -1      1620 1.59480E-02 6.55602E-03-1.06022E-13
 -1      1621 1.58617E-02 6.51112E-03-1.04256E-13
 -1      1622 1.57233E-02 6.42957E-03-1.07991E-13
 -1      1623 1.57982E-02 6.47172E-03-1.07334E-13
 -1      1624 1.57119E-02 6.42683E-03-1.05571E-13
 -1      1625 1.55760E-02 6.34670E-03-1.09308E-13
 -1      1626 1.56496E-02 6.38814E-03-1.08646E-13
 -1      1627 1.55634E-02 6.34324E-03-1.06879E-13
 -1      1628 1.54262E-02 6.26240E-03-1.10660E-13
 -1      1629 1.55011E-02 6.30455E-03-1.09981E-13
 -1      1630 1.54148E-02 6.25966E-03-1.08193E-13
 -1      1631 1.52764E-02 6.17809E-03-1.11998E-13
 -1      1632 1.53513E-02 6.22024E-03-1.11332E-13
 -1      1633 1.52650E-02 6.17535E-03-1.09524E-13
 -1      1634 1.51265E-02 6.09378E-03-1.13328E-13
 -1      1635 1.52014E-02 6.13593E-03-1.12664E-13
 -1      1636 1.51152E-02 6.09105E-03-1.10849E-13
 -1      1637 1.49768E-02 6.00947E-03-1.14639E-13
 -1      1638 1.50516E-02 6.05162E-03-1.13987E-13
 -1      1639 1.49654E-02 6.00674E-03-1.12162E-13
 -1      1640 1.48270E-02 5.92516E-03-1.15934E-13
 -1      1641 1.49019E-02 5.96732E-03-1.15289E-13
 -1      1642 1.48156E-02 5.92243E-03-1.13461E-13
 -1      1643 1.46797E-02 5.84229E-03-1.17212E-13
 -1      1644 1.47533E-02 5.88373E-03-1.16570E-13
 -1      1645 1.46671E-02 5.83884E-03-1.14741E-13
 -1      1646 1.45299E-02 5.75799E-03-1.18505E-13
 -1      1647 1.46048E-02 5.80014E-03-1.17860E-13
 -1      1648 1.45186E-02 5.75526E-03-1.16018E-13
 -1      1649 1.43801E-02 5.67370E-03-1.19787E-13
 -1      1650 1.44550E-02 5.71584E-03-1.19151E-13
 -1      1651 1.43688E-02 5.67096E-03-1.17302E-13
 -1      1652 1.42304E-02 5.58941E-03-1.21057E-13
 -1      1653 1.43053E-02 5.63155E-03-1.20424E-13
 -1      1654 1.42190E-02 5.58666E-03-1.18576E-13
 -1      1655 1.40537E-02 5.49126E-03-1.21669E-13
 -1      1656 1.41286E-02 5.53340E-03-1.21042E-13
 -1      1657 1.40424E-02 5.48851E-03-1.19194E-13
 -1      1658 1.38389E-02 5.37650E-03-1.19159E-13
 -1      1659 5.85749E-03 1.02012E-03-7.01324E-15
 -1      1660 5.85601E-03 9.77087E-04-7.15460E-15
 -1      1661 5.74068E-03 1.13736E-03-6.56983E-15
 -1      1662 5.81520E-03 1.08011E-03-6.78961E-15
 -1      1663 5.50220E-03 1.30226E-03-5.99229E-15
 -1      1664 5.62557E-03 1.22856E-03-6.23046E-15
 -1      1665 5.16726E-03 1.48387E-03-5.44340E-15
 -1      1666 5.32966E-03 1.39350E-03-5.70548E-15
 -1      1667 4.78315E-03 1.69475E-03-4.84684E-15
 -1      1668 4.96814E-03 1.59778E-03-5.11865E-15
 -1      1669 4.32490E-03 1.89511E-03-4.22142E-15
 -1      1670 4.53327E-03 1.80393E-03-4.51464E-15
 -1      1671 3.89438E-03 2.00542E-03-3.64837E-15
 -1      1672 4.09424E-03 1.96913E-03-3.90112E-15
 -1      1673 3.44102E-03 1.98094E-03-3.11112E-15
 -1      1674 3.65225E-03 2.01439E-03-3.34869E-15
 -1      1675 2.97178E-03 1.79781E-03-2.65630E-15
 -1      1676 3.18898E-03 1.89983E-03-2.84953E-15
 -1      1677 2.46585E-03 1.49469E-03-2.29008E-15
 -1      1678 2.70320E-03 1.64325E-03-2.44271E-15
 -1      1679 1.96866E-03 1.17829E-03-2.04227E-15
 -1      1680 2.18795E-03 1.31760E-03-2.14116E-15
 -1      1681 1.52271E-03 9.43842E-04-1.92482E-15
 -1      1682 1.70449E-03 1.05372E-03-1.98022E-15
 -1      1683 1.20818E-03 7.54101E-04-1.86544E-15
 -1      1684 1.33969E-03 8.33715E-04-1.88321E-15
 -1      1685 1.01249E-03 6.14110E-04-1.87450E-15
 -1      1686 1.08779E-03 6.70345E-04-1.85823E-15
 -1      1687 9.49955E-04 5.13657E-04-1.97222E-15
 -1      1688 9.61294E-04 5.58271E-04-1.92029E-15
 -1      1689 1.03082E-03 4.21196E-04-2.13933E-15
 -1      1690 9.74566E-04 4.63779E-04-2.04416E-15
 -1      1691 1.23236E-03 3.13867E-04-2.40934E-15
 -1      1692 1.12666E-03 3.62491E-04-2.28188E-15
 -1      1693 1.52722E-03 1.97736E-04-2.73799E-15
 -1      1694 1.38249E-03 2.55565E-04-2.57301E-15
 -1      1695 1.87350E-03 6.14382E-05-3.15745E-15
 -1      1696 1.70648E-03 1.23506E-04-2.95633E-15
 -1      1697 2.27305E-03-7.01429E-05-3.66878E-15
 -1      1698 2.08210E-03-1.07178E-05-3.41928E-15
 -1      1699 2.67512E-03-1.59794E-04-4.22909E-15
 -1      1700 2.49192E-03-1.25371E-04-3.96851E-15
 -1      1701 3.07691E-03-1.84005E-04-4.82771E-15
 -1      1702 2.89250E-03-1.82848E-04-4.54863E-15
 -1      1703 3.49304E-03-1.21936E-04-5.43492E-15
 -1      1704 3.29951E-03-1.60123E-04-5.15460E-15
 -1      1705 3.93929E-03 2.71950E-05-6.06844E-15
 -1      1706 3.72466E-03-5.41369E-05-5.78728E-15
 -1      1707 4.40787E-03 2.24994E-04-6.56559E-15
 -1      1708 4.20034E-03 1.30553E-04-6.34372E-15
 -1      1709 4.84941E-03 4.32196E-04-6.95837E-15
 -1      1710 4.64764E-03 3.36745E-04-6.79487E-15
 -1      1711 5.26108E-03 6.24673E-04-7.21143E-15
 -1      1712 5.07667E-03 5.38667E-04-7.11382E-15
 -1      1713 5.59562E-03 7.95229E-04-7.34086E-15
 -1      1714 5.45073E-03 7.27212E-04-7.32469E-15
 -1      1715 5.80820E-03 9.15663E-04-7.21701E-15
 -1      1716 5.72986E-03 8.62142E-04-7.28625E-15
 -1      1717 5.00920E-03 1.49932E-03-5.37793E-15
 -1      1718 5.37668E-03 1.29647E-03-6.00706E-15
 -1      1719 1.62722E-02 6.73934E-03-1.02503E-13
 -1      1720 1.61110E-02 6.65230E-03-1.01400E-13
 -1      1721 5.84360E-03 1.03675E-03-7.23145E-15
 -1      1722 5.67296E-03 1.13569E-03-6.64858E-15
 -1      1723 5.84257E-03 9.71915E-04-7.53128E-15
 -1      1724 4.58756E-03 1.73645E-03-4.70836E-15
 -1      1725 4.17477E-03 1.94721E-03-4.04657E-15
 -1      1726 3.76671E-03 2.04343E-03-3.42876E-15
 -1      1727 3.36498E-03 1.96713E-03-2.88013E-15
 -1      1728 2.92325E-03 1.71139E-03-2.42615E-15
 -1      1729 2.42975E-03 1.35666E-03-2.08996E-15
 -1      1730 1.91813E-03 1.04180E-03-1.90305E-15
 -1      1731 1.47467E-03 8.12992E-04-1.81090E-15
 -1      1732 1.16140E-03 6.48857E-04-1.76736E-15
 -1      1733 9.81584E-04 5.53430E-04-1.80456E-15
 -1      1734 9.53601E-04 4.87859E-04-1.91495E-15
 -1      1735 1.08039E-03 4.23860E-04-2.11396E-15
 -1      1736 1.33239E-03 3.28834E-04-2.40538E-15
 -1      1737 1.66049E-03 2.01780E-04-2.76976E-15
 -1      1738 2.03396E-03 4.69216E-05-3.23587E-15
 -1      1739 2.42540E-03-9.88671E-05-3.78761E-15
 -1      1740 2.80631E-03-1.92794E-04-4.40387E-15
 -1      1741 3.17252E-03-1.99262E-04-5.05493E-15
 -1      1742 3.56306E-03-1.01449E-04-5.74405E-15
 -1      1743 3.98763E-03 9.11191E-05-6.38975E-15
 -1      1744 4.45127E-03 3.25190E-04-6.91020E-15
 -1      1745 4.90466E-03 5.51980E-04-7.30907E-15
 -1      1746 5.32495E-03 7.49911E-04-7.58776E-15
 -1      1747 5.65777E-03 8.84466E-04-7.65159E-15
 -1      1748 2.97722E-04-1.85254E-04-1.20997E-16
 -1      1749 3.49839E-04-1.16878E-04-2.20052E-16
 -1      1750 3.53176E-04-1.36908E-04-2.19402E-16
 -1      1751 3.58219E-04-1.58891E-04-2.15770E-16
 -1      1752 3.67385E-04-1.83200E-04-2.06988E-16
 -1      1753 4.81234E-04-1.96673E-04-3.21683E-16
 -1      1754 3.40879E-04-4.23095E-05-2.06378E-16
 -1      1755 3.43519E-04-6.03820E-05-2.11636E-16
 -1      1756 3.32737E-04-6.19730E-06-1.94872E-16
 -1      1757 3.37390E-04-2.40096E-05-2.00889E-16
 -1      1758 4.59840E-04-4.76536E-05-2.99850E-16
 -1      1759 3.19563E-04 2.70044E-05-1.82024E-16
 -1      1760 3.26796E-04 1.09997E-05-1.88732E-16
 -1      1761 4.47118E-04-1.21205E-06-2.82543E-16
 -1      1762 3.01479E-04 5.38072E-05-1.68878E-16
 -1      1763 3.10941E-04 4.14952E-05-1.75722E-16
 -1      1764 4.26731E-04 4.10159E-05-2.64017E-16
 -1      1765 2.81230E-04 7.03816E-05-1.55095E-16
 -1      1766 2.91195E-04 6.35912E-05-1.62183E-16
 -1      1767 3.99400E-04 7.45064E-05-2.44677E-16
 -1      1768 2.64448E-04 7.46420E-05-1.40648E-16
 -1      1769 2.71790E-04 7.40451E-05-1.48170E-16
 -1      1770 3.69965E-04 9.46491E-05-2.24471E-16
 -1      1771 2.58444E-04 6.86594E-05-1.24372E-16
 -1      1772 2.59594E-04 7.25736E-05-1.33005E-16
 -1      1773 3.47717E-04 9.95805E-05-2.03058E-16
 -1      1774 2.69007E-04 5.89573E-05-1.04842E-16
 -1      1775 2.61332E-04 6.36208E-05-1.15427E-16
 -1      1776 3.43109E-04 9.31084E-05-1.78907E-16
 -1      1777 2.98545E-04 5.59653E-05-8.04071E-17
 -1      1778 2.81557E-04 5.58878E-05-9.36886E-17
 -1      1779 3.64318E-04 8.48558E-05-1.50026E-16
 -1      1780 3.44547E-04 7.07807E-05-4.88027E-17
 -1      1781 3.19965E-04 6.05010E-05-6.60821E-17
 -1      1782 4.12864E-04 8.82486E-05-1.13895E-16
 -1      1783 4.03698E-04 1.13933E-04-7.87402E-18
 -1      1784 3.72976E-04 8.82614E-05-3.00866E-17
 -1      1785 4.83676E-04 1.16278E-04-6.80066E-17
 -1      1786 4.91538E-04 1.77418E-04 2.59124E-17
 -1      1787 4.45219E-04 1.40967E-04 6.03087E-18
 -1      1788 5.72921E-04 1.69455E-04-2.44488E-17
 -1      1789 6.77974E-04 2.35744E-04 1.49349E-17
 -1      1790 3.54589E-04-2.01212E-04-1.73798E-16
 -1      1791 1.05292E-03 3.42523E-04-5.98751E-17
 -1      1792 8.64496E-04 2.89390E-04-1.36609E-17
 -1      1793 8.02973E-04 2.52847E-04-3.89906E-17
 -1      1794 4.78869E-04-2.50493E-04-2.76566E-16
 -1      1795 8.41025E-04-4.02506E-04-6.78860E-16
 -1      1796 9.91070E-04-4.50706E-04-9.18848E-16
 -1      1797 1.13787E-03-4.92830E-04-1.19632E-15
 -1      1798 1.28224E-03-5.29231E-04-1.51162E-15
 -1      1799 1.04810E-03-4.34867E-04-1.06630E-15
 -1      1800 1.42416E-03-5.60780E-04-1.86349E-15
 -1      1801 1.56381E-03-5.87185E-04-2.25244E-15
 -1      1802 1.34270E-03-5.08456E-04-1.69130E-15
 -1      1803 1.70141E-03-6.08516E-04-2.67745E-15
 -1      1804 1.83702E-03-6.24221E-04-3.13817E-15
 -1      1805 1.62951E-03-5.62445E-04-2.46100E-15
 -1      1806 1.97082E-03-6.33865E-04-3.63463E-15
 -1      1807 2.10306E-03-6.36795E-04-4.16649E-15
 -1      1808 1.90891E-03-5.95173E-04-3.37333E-15
 -1      1809 2.23383E-03-6.32417E-04-4.73369E-15
 -1      1810 2.36367E-03-6.20181E-04-5.33567E-15
 -1      1811 2.18171E-03-6.02262E-04-4.42638E-15
 -1      1812 2.49261E-03-5.99672E-04-5.97124E-15
 -1      1813 2.62142E-03-5.70645E-04-6.64068E-15
 -1      1814 2.44955E-03-5.78633E-04-5.61779E-15
 -1      1815 2.75007E-03-5.33114E-04-7.34395E-15
 -1      1816 2.87942E-03-4.87261E-04-8.07850E-15
 -1      1817 2.71501E-03-5.20783E-04-6.94369E-15
 -1      1818 3.00942E-03-4.33610E-04-8.84457E-15
 -1      1819 3.14075E-03-3.72748E-04-9.64159E-15
 -1      1820 2.98124E-03-4.28580E-04-8.39967E-15
 -1      1821 3.27336E-03-3.05605E-04-1.04679E-14
 -1      1822 3.40764E-03-2.33016E-04-1.13233E-14
 -1      1823 3.25104E-03-3.05837E-04-9.97870E-15
 -1      1824 3.54355E-03-1.56087E-04-1.22067E-14
 -1      1825 3.68112E-03-7.56969E-05-1.31175E-14
 -1      1826 3.52619E-03-1.59442E-04-1.16754E-14
 -1      1827 3.82036E-03 7.10953E-06-1.40538E-14
 -1      1828 3.96101E-03 9.15793E-05-1.50155E-14
 -1      1829 3.80713E-03 2.43701E-06-1.34818E-14
 -1      1830 4.10312E-03 1.76895E-04-1.60016E-14
 -1      1831 4.24628E-03 2.62512E-04-1.70127E-14
 -1      1832 4.09315E-03 1.72168E-04-1.53910E-14
 -1      1833 4.39055E-03 3.47904E-04-1.80465E-14
 -1      1834 4.53548E-03 4.32740E-04-1.91029E-14
 -1      1835 4.38296E-03 3.43843E-04-1.73975E-14
 -1      1836 4.68114E-03 5.16762E-04-2.01825E-14
 -1      1837 4.82714E-03 5.99814E-04-2.12827E-14
 -1      1838 4.67512E-03 5.13661E-04-1.94961E-14
 -1      1839 4.97354E-03 6.81841E-04-2.24043E-14
 -1      1840 5.12001E-03 7.62805E-04-2.35470E-14
 -1      1841 4.96839E-03 6.79713E-04-2.16833E-14
 -1      1842 5.26661E-03 8.42775E-04-2.47113E-14
 -1      1843 5.41312E-03 9.21783E-04-2.58947E-14
 -1      1844 5.26182E-03 8.41479E-04-2.39546E-14
 -1      1845 5.55958E-03 9.99958E-04-2.70982E-14
 -1      1846 5.70584E-03 1.07736E-03-2.83220E-14
 -1      1847 5.55480E-03 9.99290E-04-2.63090E-14
 -1      1848 5.85192E-03 1.15414E-03-2.95655E-14
 -1      1849 5.99777E-03 1.23036E-03-3.08285E-14
 -1      1850 5.84698E-03 1.15389E-03-2.87424E-14
 -1      1851 6.14338E-03 1.30616E-03-3.21116E-14
 -1      1852 6.28874E-03 1.38159E-03-3.34149E-14
 -1      1853 6.13820E-03 1.30615E-03-3.12561E-14
 -1      1854 6.43386E-03 1.45677E-03-3.47370E-14
 -1      1855 6.57873E-03 1.53175E-03-3.60762E-14
 -1      1856 6.42844E-03 1.45686E-03-3.38469E-14
 -1      1857 6.72337E-03 1.60660E-03-3.74330E-14
 -1      1858 6.86780E-03 1.68137E-03-3.88076E-14
 -1      1859 6.71775E-03 1.60668E-03-3.65110E-14
 -1      1860 7.01201E-03 1.75611E-03-4.02003E-14
 -1      1861 7.15605E-03 1.83085E-03-4.16093E-14
 -1      1862 7.00625E-03 1.75612E-03-3.92446E-14
 -1      1863 7.29991E-03 1.90562E-03-4.30316E-14
 -1      1864 7.44362E-03 1.98043E-03-4.44693E-14
 -1      1865 7.29406E-03 1.90551E-03-4.20439E-14
 -1      1866 7.58719E-03 2.05531E-03-4.59239E-14
 -1      1867 7.73064E-03 2.13027E-03-4.73916E-14
 -1      1868 7.58129E-03 2.05508E-03-4.49060E-14
 -1      1869 7.87398E-03 2.20530E-03-4.88743E-14
 -1      1870 8.01723E-03 2.28043E-03-5.03714E-14
 -1      1871 7.86808E-03 2.20495E-03-4.78274E-14
 -1      1872 8.16040E-03 2.35564E-03-5.18835E-14
 -1      1873 8.30350E-03 2.43094E-03-5.34099E-14
 -1      1874 8.15452E-03 2.35517E-03-5.08077E-14
 -1      1875 8.44654E-03 2.50632E-03-5.49526E-14
 -1      1876 8.58953E-03 2.58179E-03-5.65054E-14
 -1      1877 8.44070E-03 2.50575E-03-5.38455E-14
 -1      1878 8.73248E-03 2.65733E-03-5.80697E-14
 -1      1879 8.87539E-03 2.73294E-03-5.96474E-14
 -1      1880 8.72668E-03 2.65666E-03-5.69363E-14
 -1      1881 9.01828E-03 2.80862E-03-6.12355E-14
 -1      1882 9.16115E-03 2.88436E-03-6.28334E-14
 -1      1883 9.01254E-03 2.80787E-03-6.00754E-14
 -1      1884 9.30399E-03 2.96015E-03-6.44415E-14
 -1      1885 9.44683E-03 3.03599E-03-6.60600E-14
 -1      1886 9.29830E-03 2.95935E-03-6.32591E-14
 -1      1887 9.58965E-03 3.11188E-03-6.76893E-14
 -1      1888 9.73247E-03 3.18781E-03-6.93260E-14
 -1      1889 9.58400E-03 3.11103E-03-6.64828E-14
 -1      1890 9.87528E-03 3.26377E-03-7.09735E-14
 -1      1891 1.00181E-02 3.33977E-03-7.26289E-14
 -1      1892 9.86967E-03 3.26289E-03-6.97464E-14
 -1      1893 1.01609E-02 3.41579E-03-7.42919E-14
 -1      1894 1.03037E-02 3.49184E-03-7.59640E-14
 -1      1895 1.01553E-02 3.41488E-03-7.30471E-14
 -1      1896 1.04465E-02 3.56791E-03-7.76436E-14
 -1      1897 1.05893E-02 3.64400E-03-7.93302E-14
 -1      1898 1.04410E-02 3.56698E-03-7.63790E-14
 -1      1899 1.07321E-02 3.72011E-03-8.10211E-14
 -1      1900 1.08750E-02 3.79622E-03-8.27195E-14
 -1      1901 1.07266E-02 3.71916E-03-7.97389E-14
 -1      1902 1.10178E-02 3.87235E-03-8.44250E-14
 -1      1903 1.11606E-02 3.94849E-03-8.61360E-14
 -1      1904 1.10123E-02 3.87139E-03-8.31245E-14
 -1      1905 1.13034E-02 4.02464E-03-8.78548E-14
 -1      1906 1.14462E-02 4.10079E-03-8.95798E-14
 -1      1907 1.12979E-02 4.02367E-03-8.65332E-14
 -1      1908 1.15891E-02 4.17695E-03-9.13128E-14
 -1      1909 1.17319E-02 4.25311E-03-9.30506E-14
 -1      1910 1.15836E-02 4.17598E-03-8.99705E-14
 -1      1911 1.18747E-02 4.32928E-03-9.47947E-14
 -1      1912 1.20176E-02 4.40545E-03-9.65476E-14
 -1      1913 1.18692E-02 4.32831E-03-9.34346E-14
 -1      1914 1.21604E-02 4.48162E-03-9.83015E-14
 -1      1915 1.23032E-02 4.55779E-03-1.00058E-13
 -1      1916 1.21549E-02 4.48065E-03-9.69208E-14
 -1      1917 1.24461E-02 4.63397E-03-1.01820E-13
 -1      1918 1.25889E-02 4.71014E-03-1.03581E-13
 -1      1919 1.24406E-02 4.63299E-03-1.00423E-13
 -1      1920 1.27318E-02 4.78632E-03-1.05343E-13
 -1      1921 1.28746E-02 4.86249E-03-1.07108E-13
 -1      1922 1.27263E-02 4.78534E-03-1.03936E-13
 -1      1923 1.30175E-02 4.93867E-03-1.08874E-13
 -1      1924 1.31603E-02 5.01484E-03-1.10638E-13
 -1      1925 1.30120E-02 4.93769E-03-1.07454E-13
 -1      1926 1.33032E-02 5.09102E-03-1.12405E-13
 -1      1927 1.34460E-02 5.16719E-03-1.14173E-13
 -1      1928 1.32977E-02 5.09004E-03-1.10981E-13
 -1      1929 1.35711E-02 5.23376E-03-1.15779E-13
 -1      1930 1.37139E-02 5.30993E-03-1.17547E-13
 -1      1931 1.38156E-02 5.36594E-03-1.17564E-13
 -1      1932 1.35656E-02 5.23279E-03-1.14350E-13
 -1      1933 1.43500E-03 4.62205E-04-2.08994E-16
 -1      1934 1.24219E-03 3.98753E-04-1.24615E-16
 -1      1935 1.16463E-03 3.59323E-04-1.58727E-16
 -1      1936 1.83292E-03 6.30366E-04-4.38207E-16
 -1      1937 1.63171E-03 5.37906E-04-3.12765E-16
 -1      1938 1.53606E-03 4.92241E-04-3.54683E-16
 -1      1939 2.27520E-03 9.03115E-04-7.74039E-16
 -1      1940 2.05182E-03 7.52040E-04-5.93289E-16
 -1      1941 1.93830E-03 6.94956E-04-6.42322E-16
 -1      1942 2.71832E-03 1.28155E-03-1.19619E-15
 -1      1943 2.49675E-03 1.07886E-03-9.71960E-16
 -1      1944 2.37441E-03 1.00838E-03-1.02716E-15
 -1      1945 3.16314E-03 1.72776E-03-1.73546E-15
 -1      1946 2.94385E-03 1.50460E-03-1.44977E-15
 -1      1947 2.83177E-03 1.43099E-03-1.50991E-15
 -1      1948 3.53847E-03 2.05033E-03-2.34288E-15
 -1      1949 3.35222E-03 1.90964E-03-2.02418E-15
 -1      1950 3.26964E-03 1.85409E-03-2.09012E-15
 -1      1951 3.89531E-03 2.14520E-03-3.08351E-15
 -1      1952 3.71353E-03 2.12952E-03-2.69617E-15
 -1      1953 3.66427E-03 2.09958E-03-2.76881E-15
 -1      1954 4.28884E-03 1.98645E-03-4.00985E-15
 -1      1955 4.08684E-03 2.08872E-03-3.52757E-15
 -1      1956 4.06681E-03 2.06765E-03-3.60695E-15
 -1      1957 4.68685E-03 1.74071E-03-5.01904E-15
 -1      1958 4.48665E-03 1.86523E-03-4.49810E-15
 -1      1959 4.48724E-03 1.83509E-03-4.58327E-15
 -1      1960 5.11057E-03 1.53286E-03-6.21215E-15
 -1      1961 4.90159E-03 1.62633E-03-5.60060E-15
 -1      1962 4.91421E-03 1.58822E-03-5.69060E-15
 -1      1963 5.53626E-03 1.43266E-03-7.58576E-15
 -1      1964 5.32763E-03 1.46859E-03-6.88448E-15
 -1      1965 5.33976E-03 1.42898E-03-6.98060E-15
 -1      1966 5.93509E-03 1.44110E-03-9.06987E-15
 -1      1967 5.73943E-03 1.42588E-03-8.31517E-15
 -1      1968 5.73954E-03 1.38727E-03-8.41728E-15
 -1      1969 6.30950E-03 1.52224E-03-1.06550E-14
 -1      1970 6.12527E-03 1.47464E-03-9.85042E-15
 -1      1971 6.10938E-03 1.43683E-03-9.95750E-15
 -1      1972 6.68062E-03 1.65227E-03-1.24244E-14
 -1      1973 6.49760E-03 1.58292E-03-1.15264E-14
 -1      1974 6.46680E-03 1.54544E-03-1.16378E-14
 -1      1975 7.01703E-03 1.79825E-03-1.42055E-14
 -1      1976 6.85058E-03 1.72326E-03-1.33035E-14
 -1      1977 6.80841E-03 1.68600E-03-1.34186E-14
 -1      1978 7.34029E-03 1.95441E-03-1.60752E-14
 -1      1979 7.18000E-03 1.87540E-03-1.51292E-14
 -1      1980 7.13011E-03 1.83841E-03-1.52463E-14
 -1      1981 7.65341E-03 2.11478E-03-1.80368E-14
 -1      1982 7.49786E-03 2.03423E-03-1.70448E-14
 -1      1983 7.44288E-03 1.99757E-03-1.71653E-14
 -1      1984 7.95887E-03 2.27634E-03-2.00868E-14
 -1      1985 7.80689E-03 2.19548E-03-1.90516E-14
 -1      1986 7.74867E-03 2.15918E-03-1.91745E-14
 -1      1987 8.27354E-03 2.44571E-03-2.23277E-14
 -1      1988 8.11681E-03 2.36109E-03-2.11954E-14
 -1      1989 8.05656E-03 2.32513E-03-2.13212E-14
 -1      1990 8.56902E-03 2.60611E-03-2.45418E-14
 -1      1991 8.42168E-03 2.52603E-03-2.34258E-14
 -1      1992 8.36022E-03 2.49036E-03-2.35516E-14
 -1      1993 8.86155E-03 2.76542E-03-2.68212E-14
 -1      1994 8.71558E-03 2.68590E-03-2.56740E-14
 -1      1995 8.65344E-03 2.65047E-03-2.58007E-14
 -1      1996 9.15195E-03 2.92363E-03-2.91621E-14
 -1      1997 9.00696E-03 2.84466E-03-2.79843E-14
 -1      1998 8.94446E-03 2.80943E-03-2.81166E-14
 -1      1999 9.44083E-03 3.08083E-03-3.15663E-14
 -1      2000 9.29654E-03 3.00235E-03-3.03558E-14
 -1      2001 9.23385E-03 2.96728E-03-3.04944E-14
 -1      2002 9.72863E-03 3.23713E-03-3.40362E-14
 -1      2003 9.58484E-03 3.15909E-03-3.27934E-14
 -1      2004 9.52208E-03 3.12414E-03-3.29361E-14
 -1      2005 1.00300E-02 3.40041E-03-3.66990E-14
 -1      2006 9.87940E-03 3.31887E-03-3.53585E-14
 -1      2007 9.81664E-03 3.28402E-03-3.55069E-14
 -1      2008 1.03165E-02 3.55525E-03-3.92982E-14
 -1      2009 1.01733E-02 3.47791E-03-3.79920E-14
 -1      2010 1.01106E-02 3.44313E-03-3.81430E-14
 -1      2011 1.06026E-02 3.70955E-03-4.19717E-14
 -1      2012 1.04596E-02 3.63247E-03-4.06259E-14
 -1      2013 1.03969E-02 3.59774E-03-4.07826E-14
 -1      2014 1.08886E-02 3.86341E-03-4.47030E-14
 -1      2015 1.07456E-02 3.78653E-03-4.33277E-14
 -1      2016 1.06830E-02 3.75185E-03-4.34865E-14
 -1      2017 1.11743E-02 4.01691E-03-4.74959E-14
 -1      2018 1.10314E-02 3.94020E-03-4.60924E-14
 -1      2019 1.09689E-02 3.90555E-03-4.62500E-14
 -1      2020 1.14600E-02 4.17012E-03-5.03406E-14
 -1      2021 1.13171E-02 4.09355E-03-4.89129E-14
 -1      2022 1.12546E-02 4.05892E-03-4.90716E-14
 -1      2023 1.17599E-02 4.33075E-03-5.33759E-14
 -1      2024 1.16099E-02 4.25046E-03-5.18530E-14
 -1      2025 1.15474E-02 4.21585E-03-5.20142E-14
 -1      2026 1.20455E-02 4.48355E-03-5.63112E-14
 -1      2027 1.19027E-02 4.40717E-03-5.48365E-14
 -1      2028 1.18402E-02 4.37257E-03-5.50011E-14
 -1      2029 1.23310E-02 4.63622E-03-5.92874E-14
 -1      2030 1.21882E-02 4.55990E-03-5.77941E-14
 -1      2031 1.21258E-02 4.52531E-03-5.79589E-14
 -1      2032 1.26166E-02 4.78879E-03-6.23060E-14
 -1      2033 1.24738E-02 4.71252E-03-6.07926E-14
 -1      2034 1.24114E-02 4.67793E-03-6.09594E-14
 -1      2035 1.29022E-02 4.94128E-03-6.53690E-14
 -1      2036 1.27594E-02 4.86505E-03-6.38326E-14
 -1      2037 1.26970E-02 4.83046E-03-6.40032E-14
 -1      2038 1.32021E-02 5.10134E-03-6.86203E-14
 -1      2039 1.30522E-02 5.02132E-03-6.69907E-14
 -1      2040 1.29898E-02 4.98673E-03-6.71632E-14
 -1      2041 1.34878E-02 5.25374E-03-7.17466E-14
 -1      2042 1.33449E-02 5.17755E-03-7.01812E-14
 -1      2043 1.32826E-02 5.14296E-03-7.03564E-14
 -1      2044 1.37734E-02 5.40611E-03-7.48859E-14
 -1      2045 1.36306E-02 5.32993E-03-7.33150E-14
 -1      2046 1.35682E-02 5.29534E-03-7.34954E-14
 -1      2047 1.40591E-02 5.55847E-03-7.80325E-14
 -1      2048 1.39162E-02 5.48229E-03-7.64578E-14
 -1      2049 1.38539E-02 5.44771E-03-7.66479E-14
 -1      2050 1.43447E-02 5.71081E-03-8.11971E-14
 -1      2051 1.42019E-02 5.63464E-03-7.96135E-14
 -1      2052 1.41396E-02 5.60005E-03-7.98082E-14
 -1      2053 1.46304E-02 5.86315E-03-8.43671E-14
 -1      2054 1.44876E-02 5.78698E-03-8.27808E-14
 -1      2055 1.44252E-02 5.75239E-03-8.29825E-14
 -1      2056 1.49304E-02 6.02310E-03-8.77155E-14
 -1      2057 1.47804E-02 5.94312E-03-8.60382E-14
 -1      2058 1.47181E-02 5.90853E-03-8.62475E-14
 -1      2059 1.52161E-02 6.17543E-03-9.09247E-14
 -1      2060 1.50732E-02 6.09927E-03-8.93172E-14
 -1      2061 1.50109E-02 6.06468E-03-8.95305E-14
 -1      2062 1.55018E-02 6.32777E-03-9.41695E-14
 -1      2063 1.53589E-02 6.25160E-03-9.25439E-14
 -1      2064 1.52966E-02 6.21701E-03-9.27623E-14
 -1      2065 1.57875E-02 6.48011E-03-9.74404E-14
 -1      2066 1.56446E-02 6.40394E-03-9.58008E-14
 -1      2067 1.55823E-02 6.36935E-03-9.60232E-14
 -1      2068 1.60207E-02 6.60429E-03-1.00242E-13
 -1      2069 1.58778E-02 6.52812E-03-9.85898E-14
 -1      2070 1.58155E-02 6.49353E-03-9.88117E-14
 -1      2071 1.59961E-02 6.58955E-03-1.01120E-13
 -1      2072 1.55507E-02 6.33978E-03-1.04467E-13
 -1      2073 1.56257E-02 6.38193E-03-1.03809E-13
 -1      2074 1.57006E-02 6.42408E-03-1.03152E-13
 -1      2075 1.57755E-02 6.46622E-03-1.02495E-13
 -1      2076 1.55394E-02 6.33704E-03-1.02047E-13
 -1      2077 1.58484E-02 6.50681E-03-1.02139E-13
 -1      2078 1.59233E-02 6.54896E-03-1.01480E-13
 -1      2079 1.58329E-02 6.50095E-03-1.00324E-13
 -1      2080 1.56872E-02 6.41977E-03-1.01035E-13
 -1      2081 1.54035E-02 6.25692E-03-1.05757E-13
 -1      2082 1.54771E-02 6.29835E-03-1.05111E-13
 -1      2083 1.53908E-02 6.25346E-03-1.03346E-13
 -1      2084 1.52536E-02 6.17261E-03-1.07072E-13
 -1      2085 1.53285E-02 6.21476E-03-1.06415E-13
 -1      2086 1.52423E-02 6.16987E-03-1.04640E-13
 -1      2087 1.51038E-02 6.08831E-03-1.08385E-13
 -1      2088 1.51787E-02 6.13046E-03-1.07729E-13
 -1      2089 1.50925E-02 6.08557E-03-1.05941E-13
 -1      2090 1.49540E-02 6.00400E-03-1.09695E-13
 -1      2091 1.50289E-02 6.04616E-03-1.09040E-13
 -1      2092 1.49427E-02 6.00127E-03-1.07239E-13
 -1      2093 1.48042E-02 5.91970E-03-1.10993E-13
 -1      2094 1.48791E-02 5.96185E-03-1.10345E-13
 -1      2095 1.47928E-02 5.91696E-03-1.08533E-13
 -1      2096 1.46544E-02 5.83539E-03-1.12283E-13
 -1      2097 1.47293E-02 5.87755E-03-1.11640E-13
 -1      2098 1.46430E-02 5.83266E-03-1.09821E-13
 -1      2099 1.45072E-02 5.75252E-03-1.13545E-13
 -1      2100 1.45808E-02 5.79396E-03-1.12914E-13
 -1      2101 1.44945E-02 5.74907E-03-1.11091E-13
 -1      2102 1.43574E-02 5.66822E-03-1.14824E-13
 -1      2103 1.44323E-02 5.71037E-03-1.14185E-13
 -1      2104 1.43460E-02 5.66548E-03-1.12355E-13
 -1      2105 1.42076E-02 5.58392E-03-1.16097E-13
 -1      2106 1.42825E-02 5.62607E-03-1.15459E-13
 -1      2107 1.41962E-02 5.58118E-03-1.13623E-13
 -1      2108 1.40578E-02 5.49963E-03-1.17359E-13
 -1      2109 1.41327E-02 5.54178E-03-1.16730E-13
 -1      2110 1.40464E-02 5.49689E-03-1.14886E-13
 -1      2111 5.58448E-03 1.14988E-03-6.67168E-15
 -1      2112 5.71037E-03 1.09405E-03-7.02619E-15
 -1      2113 5.86418E-03 1.00176E-03-7.90992E-15
 -1      2114 5.81419E-03 9.83018E-04-7.98040E-15
 -1      2115 5.82336E-03 1.04560E-03-7.50552E-15
 -1      2116 5.87001E-03 1.02709E-03-7.74484E-15
 -1      2117 5.27867E-03 1.29949E-03-6.05635E-15
 -1      2118 5.44459E-03 1.21784E-03-6.35954E-15
 -1      2119 5.51139E-03 1.16873E-03-6.72307E-15
 -1      2120 4.87068E-03 1.53468E-03-5.30871E-15
 -1      2121 5.05622E-03 1.42103E-03-5.64761E-15
 -1      2122 3.45472E-04-7.89581E-05-2.15526E-16
 -1      2123 3.47504E-04-9.75759E-05-2.18656E-16
 -1      2124 4.72209E-04-1.44233E-04-3.22808E-16
 -1      2125 4.66864E-04-9.54546E-05-3.14066E-16
 -1      2126 4.04774E-03 2.00931E-03-3.83130E-15
 -1      2127 4.22483E-03 1.92307E-03-4.15268E-15
 -1      2128 3.70610E-03 2.07014E-03-3.23228E-15
 -1      2129 3.87124E-03 2.05822E-03-3.52596E-15
 -1      2130 3.96364E-03 2.05212E-03-3.62007E-15
 -1      2131 3.32624E-03 1.94123E-03-2.65321E-15
 -1      2132 3.50215E-03 2.02933E-03-2.89916E-15
 -1      2133 2.88121E-03 1.62269E-03-2.21920E-15
 -1      2134 3.09191E-03 1.78951E-03-2.41183E-15
 -1      2135 2.38282E-03 1.22365E-03-1.87670E-15
 -1      2136 2.62161E-03 1.40659E-03-2.00243E-15
 -1      2137 1.82751E-03 8.91670E-04-1.73100E-15
 -1      2138 2.06331E-03 1.01907E-03-1.77581E-15
 -1      2139 1.43914E-03 6.99258E-04-1.66389E-15
 -1      2140 1.62592E-03 7.88995E-04-1.69681E-15
 -1      2141 1.75168E-03 7.83804E-04-1.57839E-15
 -1      2142 1.12024E-03 5.71211E-04-1.65357E-15
 -1      2143 1.24782E-03 6.21844E-04-1.65898E-15
 -1      2144 9.54933E-04 5.06287E-04-1.70440E-15
 -1      2145 1.00852E-03 5.23438E-04-1.66272E-15
 -1      2146 9.60171E-04 4.74818E-04-1.82103E-15
 -1      2147 9.37770E-04 4.88455E-04-1.76031E-15
 -1      2148 9.39141E-04 4.73458E-04-1.61394E-15
 -1      2149 1.14170E-03 4.21504E-04-2.08060E-15
 -1      2150 1.04152E-03 4.48575E-04-1.95203E-15
 -1      2151 1.41763E-03 3.35571E-04-2.35886E-15
 -1      2152 1.27225E-03 3.82305E-04-2.21227E-15
 -1      2153 1.78240E-03 1.88397E-04-2.79148E-15
 -1      2154 1.61179E-03 2.60334E-04-2.58766E-15
 -1      2155 2.16219E-03 2.01848E-05-3.29614E-15
 -1      2156 1.98074E-03 1.02512E-04-3.04588E-15
 -1      2157 2.54100E-03-1.35731E-04-3.90364E-15
 -1      2158 2.36830E-03-6.63501E-05-3.61047E-15
 -1      2159 2.88430E-03-2.24717E-04-4.57178E-15
 -1      2160 2.73082E-03-1.93170E-04-4.25248E-15
 -1      2161 3.23573E-03-2.06560E-04-5.32948E-15
 -1      2162 3.08156E-03-2.29704E-04-4.99421E-15
 -1      2163 3.57934E-03-7.76939E-05-6.04906E-15
 -1      2164 3.40853E-03-1.55321E-04-5.68412E-15
 -1      2165 3.29059E-03-1.90434E-04-5.61714E-15
 -1      2166 4.04776E-03 1.71516E-04-6.76052E-15
 -1      2167 3.83828E-03 5.31219E-05-6.46968E-15
 -1      2168 4.48303E-03 4.30808E-04-7.37016E-15
 -1      2169 4.27144E-03 3.09269E-04-7.12467E-15
 -1      2170 4.95536E-03 6.66081E-04-7.76966E-15
 -1      2171 4.73944E-03 5.61587E-04-7.60169E-15
 -1      2172 5.37900E-03 8.41858E-04-8.00938E-15
 -1      2173 5.18580E-03 7.62608E-04-7.88877E-15
 -1      2174 5.72283E-03 9.52498E-04-8.03225E-15
 -1      2175 5.58936E-03 9.18556E-04-8.08622E-15
 -1      2176 5.77243E-03 9.96779E-04-8.41432E-15
 -1      2177 4.47395E-03 1.77969E-03-4.61041E-15
 -1      2178 4.67135E-03 1.65624E-03-4.95386E-15
 -1      2179 4.76113E-03 1.58626E-03-5.20778E-15
 -1      2180 5.16294E-03 1.34443E-03-5.98470E-15
 -1      2181 6.34132E-04-3.17579E-04-4.26810E-16
 -1      2182 4.34445E-03 1.85944E-03-4.37926E-15
 -1      2183 6.94176E-04-3.12388E-04-5.29890E-16
 -1      2184 5.77545E-03 1.06611E-03-7.52594E-15
 -1      2185 5.88150E-03 1.02815E-03-8.19092E-15
 -1      2186 1.39561E-02 5.44362E-03-1.17346E-13
 -1      2187 5.48264E-03 9.15668E-04-8.38870E-15
 -1      2188 5.04312E-03 7.53696E-04-8.18564E-15
 -1      2189 4.57541E-03 5.30823E-04-7.82072E-15
 -1      2190 3.66756E-03-1.69718E-05-6.40227E-15
 -1      2191 3.53275E-03-7.50824E-05-6.33171E-15
 -1      2192 3.75053E-03 5.35712E-05-6.76596E-15
 -1      2193 2.97128E-03-2.40309E-04-4.82830E-15
 -1      2194 2.63740E-03-1.72371E-04-4.05944E-15
 -1      2195 2.27668E-03-2.35033E-05-3.40297E-15
 -1      2196 1.89669E-03 1.51467E-04-2.84645E-15
 -1      2197 1.51662E-03 3.08024E-04-2.37742E-15
 -1      2198 9.89119E-04 4.56638E-04-1.78784E-15
 -1      2199 1.36533E-03 6.15628E-04-1.54773E-15
 -1      2200 2.24459E-03 1.07868E-03-1.69630E-15
 -1      2201 2.78671E-03 1.49938E-03-1.98585E-15
 -1      2202 3.62820E-03 2.07069E-03-2.98321E-15
 -1      2203 3.24630E-03 1.87498E-03-2.42528E-15
 -1      2204 1.06190E-03 5.10371E-04-1.55377E-15
 -1      2205 1.20510E-03 4.07345E-04-2.03731E-15
 -1      2206 4.12409E-03 2.62348E-04-7.20545E-15
 -1      2207 1.16803E-03 3.45548E-04-2.61415E-16
 -1      2208 9.98177E-04 2.90921E-04-1.73635E-16
 -1      2209 5.62828E-04 7.02543E-06-3.94812E-16
 -1      2210 5.73260E-04-2.06784E-05-4.07443E-16
 -1      2211 5.81193E-04-4.92923E-05-4.19383E-16
 -1      2212 5.87024E-04-7.81553E-05-4.30550E-16
 -1      2213 7.04163E-04-4.70143E-05-5.59652E-16
 -1      2214 4.95417E-04 9.80465E-05-3.41293E-16
 -1      2215 5.15185E-04 7.98996E-05-3.55293E-16
 -1      2216 4.55760E-04 1.21540E-04-3.12697E-16
 -1      2217 4.74793E-04 1.12148E-04-3.27185E-16
 -1      2218 5.87828E-04 1.24517E-04-4.54145E-16
 -1      2219 4.28668E-04 1.27001E-04-2.82408E-16
 -1      2220 4.39531E-04 1.26295E-04-2.97979E-16
 -1      2221 5.37592E-04 1.50666E-04-4.15764E-16
 -1      2222 4.28235E-04 1.20228E-04-2.47578E-16
 -1      2223 4.24064E-04 1.24325E-04-2.65602E-16
 -1      2224 5.06853E-04 1.56200E-04-3.74212E-16
 -1      2225 4.64862E-04 1.14610E-04-2.06364E-16
 -1      2226 4.41805E-04 1.16114E-04-2.28062E-16
 -1      2227 5.15352E-04 1.49698E-04-3.26941E-16
 -1      2228 5.37567E-04 1.26190E-04-1.55678E-16
 -1      2229 4.97376E-04 1.17204E-04-1.82593E-16
 -1      2230 5.73249E-04 1.48515E-04-2.71471E-16
 -1      2231 1.51645E-03 4.82362E-04-4.95142E-16
 -1      2232 1.34024E-03 4.07804E-04-3.67883E-16
 -1      2233 1.15756E-03 3.35731E-04-3.72911E-16
 -1      2234 9.60665E-04-3.76282E-04-9.40315E-16
 -1      2235 1.11164E-03-4.17474E-04-1.21439E-15
 -1      2236 4.24877E-03 1.93349E-03-4.15886E-15
 -1      2237 4.45873E-03 1.79203E-03-4.62271E-15
 -1      2238 1.26132E-03-4.54087E-04-1.52417E-15
 -1      2239 1.40963E-03-4.86074E-04-1.86972E-15
 -1      2240 1.18014E-03-3.98424E-04-1.36309E-15
 -1      2241 1.55638E-03-5.13624E-04-2.25090E-15
 -1      2242 1.70150E-03-5.36191E-04-2.66744E-15
 -1      2243 1.48196E-03-4.62420E-04-2.04756E-15
 -1      2244 1.84493E-03-5.53511E-04-3.11887E-15
 -1      2245 1.98674E-03-5.64740E-04-3.60527E-15
 -1      2246 1.77886E-03-5.08879E-04-2.87137E-15
 -1      2247 2.12688E-03-5.69320E-04-4.12616E-15
 -1      2248 2.26570E-03-5.66358E-04-4.68207E-15
 -1      2249 2.06956E-03-5.33326E-04-3.83339E-15
 -1      2250 2.40316E-03-5.55299E-04-5.27168E-15
 -1      2251 2.53994E-03-5.35510E-04-5.89486E-15
 -1      2252 2.35402E-03-5.29302E-04-4.93289E-15
 -1      2253 2.67601E-03-5.06764E-04-6.55145E-15
 -1      2254 2.81223E-03-4.68951E-04-7.24103E-15
 -1      2255 2.63393E-03-4.90771E-04-6.16709E-15
 -1      2256 2.94858E-03-4.22359E-04-7.96223E-15
 -1      2257 3.08585E-03-3.67499E-04-8.71453E-15
 -1      2258 2.91244E-03-4.14871E-04-7.53235E-15
 -1      2259 3.22398E-03-3.05155E-04-9.49729E-15
 -1      2260 3.36348E-03-2.36282E-04-1.03101E-14
 -1      2261 3.19308E-03-3.03665E-04-9.02362E-15
 -1      2262 3.50425E-03-1.61955E-04-1.11519E-14
 -1      2263 3.64640E-03-8.32899E-05-1.20211E-14
 -1      2264 3.47833E-03-1.63819E-04-1.06356E-14
 -1      2265 3.78984E-03-1.38260E-06-1.29175E-14
 -1      2266 3.93437E-03 8.27793E-05-1.38397E-14
 -1      2267 3.76882E-03-4.50290E-06-1.23613E-14
 -1      2268 4.07994E-03 1.68283E-04-1.47869E-14
 -1      2269 4.22617E-03 2.54415E-04-1.57595E-14
 -1      2270 4.06356E-03 1.65185E-04-1.41916E-14
 -1      2271 4.37306E-03 3.40541E-04-1.67569E-14
 -1      2272 4.52020E-03 4.26247E-04-1.77765E-14
 -1      2273 4.36077E-03 3.38046E-04-1.61223E-14
 -1      2274 4.66767E-03 5.11175E-04-1.88188E-14
 -1      2275 4.81509E-03 5.95147E-04-1.98838E-14
 -1      2276 4.65864E-03 5.09416E-04-1.81494E-14
 -1      2277 4.96255E-03 6.78028E-04-2.09701E-14
 -1      2278 5.10979E-03 7.59795E-04-2.20777E-14
 -1      2279 4.95586E-03 6.76921E-04-2.02644E-14
 -1      2280 5.25689E-03 8.40462E-04-2.32065E-14
 -1      2281 5.40369E-03 9.20088E-04-2.43568E-14
 -1      2282 5.25168E-03 8.39850E-04-2.24667E-14
 -1      2283 5.55026E-03 9.98768E-04-2.55275E-14
 -1      2284 5.69650E-03 1.07660E-03-2.67168E-14
 -1      2285 5.54583E-03 9.98493E-04-2.47521E-14
 -1      2286 5.84248E-03 1.15370E-03-2.79268E-14
 -1      2287 5.98814E-03 1.23017E-03-2.91571E-14
 -1      2288 5.83833E-03 1.15362E-03-2.71186E-14
 -1      2289 6.13354E-03 1.30613E-03-3.04069E-14
 -1      2290 6.27867E-03 1.38168E-03-3.16764E-14
 -1      2291 6.12936E-03 1.30615E-03-2.95659E-14
 -1      2292 6.42355E-03 1.45691E-03-3.29651E-14
 -1      2293 6.56819E-03 1.53189E-03-3.42719E-14
 -1      2294 6.41916E-03 1.45694E-03-3.20906E-14
 -1      2295 6.71261E-03 1.60672E-03-3.55962E-14
 -1      2296 6.85685E-03 1.68143E-03-3.69368E-14
 -1      2297 6.70796E-03 1.60670E-03-3.46888E-14
 -1      2298 7.00090E-03 1.75608E-03-3.82971E-14
 -1      2299 7.14479E-03 1.83072E-03-3.96739E-14
 -1      2300 6.99597E-03 1.75599E-03-3.73583E-14
 -1      2301 7.28854E-03 1.90537E-03-4.10664E-14
 -1      2302 7.43216E-03 1.98007E-03-4.24740E-14
 -1      2303 7.28336E-03 1.90518E-03-4.00957E-14
 -1      2304 7.57566E-03 2.05483E-03-4.38977E-14
 -1      2305 7.71906E-03 2.12966E-03-4.53372E-14
 -1      2306 7.57030E-03 2.05453E-03-4.28976E-14
 -1      2307 7.86237E-03 2.20458E-03-4.67897E-14
 -1      2308 8.00561E-03 2.27959E-03-4.82570E-14
 -1      2309 7.85688E-03 2.20418E-03-4.57592E-14
 -1      2310 8.14878E-03 2.35469E-03-4.97397E-14
 -1      2311 8.29189E-03 2.42988E-03-5.12366E-14
 -1      2312 8.14319E-03 2.35419E-03-4.86795E-14
 -1      2313 8.43495E-03 2.50517E-03-5.27480E-14
 -1      2314 8.57797E-03 2.58054E-03-5.42741E-14
 -1      2315 8.42931E-03 2.50457E-03-5.16600E-14
 -1      2316 8.72095E-03 2.65599E-03-5.58106E-14
 -1      2317 8.86390E-03 2.73153E-03-5.73603E-14
 -1      2318 8.71528E-03 2.65532E-03-5.46934E-14
 -1      2319 9.00683E-03 2.80714E-03-5.89235E-14
 -1      2320 9.14973E-03 2.88281E-03-6.04978E-14
 -1      2321 9.00116E-03 2.80640E-03-5.77797E-14
 -1      2322 9.29262E-03 2.95855E-03-6.20837E-14
 -1      2323 9.43549E-03 3.03434E-03-6.36790E-14
 -1      2324 9.28696E-03 2.95775E-03-6.09154E-14
 -1      2325 9.57835E-03 3.11019E-03-6.52858E-14
 -1      2326 9.72121E-03 3.18608E-03-6.69009E-14
 -1      2327 9.57271E-03 3.10934E-03-6.40964E-14
 -1      2328 9.86405E-03 3.26201E-03-6.85276E-14
 -1      2329 1.00069E-02 3.33797E-03-7.01627E-14
 -1      2330 9.85844E-03 3.26113E-03-6.73148E-14
 -1      2331 1.01497E-02 3.41397E-03-7.18062E-14
 -1      2332 1.02926E-02 3.49000E-03-7.34583E-14
 -1      2333 1.01441E-02 3.41307E-03-7.05731E-14
 -1      2334 1.04354E-02 3.56605E-03-7.51179E-14
 -1      2335 1.05782E-02 3.64212E-03-7.67873E-14
 -1      2336 1.04298E-02 3.56512E-03-7.38656E-14
 -1      2337 1.07211E-02 3.71821E-03-7.84605E-14
 -1      2338 1.08639E-02 3.79432E-03-8.01404E-14
 -1      2339 1.07155E-02 3.71727E-03-7.71878E-14
 -1      2340 1.10067E-02 3.87044E-03-8.18279E-14
 -1      2341 1.11496E-02 3.94657E-03-8.35200E-14
 -1      2342 1.10012E-02 3.86948E-03-8.05373E-14
 -1      2343 1.12924E-02 4.02271E-03-8.52201E-14
 -1      2344 1.14352E-02 4.09885E-03-8.69256E-14
 -1      2345 1.12869E-02 4.02175E-03-8.39105E-14
 -1      2346 1.15781E-02 4.17501E-03-8.86364E-14
 -1      2347 1.17209E-02 4.25117E-03-9.03549E-14
 -1      2348 1.15726E-02 4.17404E-03-8.73095E-14
 -1      2349 1.18638E-02 4.32733E-03-9.20809E-14
 -1      2350 1.20066E-02 4.40350E-03-9.38130E-14
 -1      2351 1.18583E-02 4.32636E-03-9.07339E-14
 -1      2352 1.21494E-02 4.47967E-03-9.55487E-14
 -1      2353 1.22923E-02 4.55585E-03-9.72896E-14
 -1      2354 1.21440E-02 4.47870E-03-9.41844E-14
 -1      2355 1.24351E-02 4.63202E-03-9.90333E-14
 -1      2356 1.25780E-02 4.70819E-03-1.00782E-13
 -1      2357 1.24297E-02 4.63105E-03-9.76528E-14
 -1      2358 1.27208E-02 4.78437E-03-1.02534E-13
 -1      2359 1.28637E-02 4.86055E-03-1.04285E-13
 -1      2360 1.27154E-02 4.78340E-03-1.01135E-13
 -1      2361 1.30065E-02 4.93672E-03-1.06040E-13
 -1      2362 1.31494E-02 5.01290E-03-1.07798E-13
 -1      2363 1.30011E-02 4.93575E-03-1.04631E-13
 -1      2364 1.32922E-02 5.08907E-03-1.09558E-13
 -1      2365 1.34351E-02 5.16524E-03-1.11320E-13
 -1      2366 1.32868E-02 5.08810E-03-1.08138E-13
 -1      2367 2.35069E-03 1.02889E-03-1.23778E-15
 -1      2368 2.13183E-03 8.48558E-04-1.01733E-15
 -1      2369 3.83350E-03 2.10528E-03-3.24345E-15
 -1      2370 3.62032E-03 2.07815E-03-2.84866E-15
 -1      2371 5.08432E-03 1.46224E-03-6.20292E-15
 -1      2372 4.86880E-03 1.56750E-03-5.59410E-15
 -1      2373 5.50058E-03 1.34677E-03-7.57409E-15
 -1      2374 5.30110E-03 1.38947E-03-6.87429E-15
 -1      2375 5.27496E-03 1.34724E-03-6.76011E-15
 -1      2376 5.86888E-03 1.34630E-03-9.05469E-15
 -1      2377 5.69001E-03 1.33548E-03-8.30118E-15
 -1      2378 5.65490E-03 1.28361E-03-8.18055E-15
 -1      2379 6.20862E-03 1.42085E-03-1.06355E-14
 -1      2380 6.04136E-03 1.37652E-03-9.83286E-15
 -1      2381 5.98763E-03 1.31896E-03-9.70332E-15
 -1      2382 6.54885E-03 1.54623E-03-1.23968E-14
 -1      2383 6.38014E-03 1.47909E-03-1.15030E-14
 -1      2384 6.30589E-03 1.41639E-03-1.13638E-14
 -1      2385 6.86365E-03 1.68977E-03-1.41707E-14
 -1      2386 6.70699E-03 1.61590E-03-1.32730E-14
 -1      2387 6.61544E-03 1.54904E-03-1.31225E-14
 -1      2388 7.17214E-03 1.84492E-03-1.60330E-14
 -1      2389 7.01844E-03 1.76635E-03-1.50908E-14
 -1      2390 6.91424E-03 1.69676E-03-1.49312E-14
 -1      2391 7.47565E-03 2.00518E-03-1.79862E-14
 -1      2392 7.32435E-03 1.92467E-03-1.69979E-14
 -1      2393 7.21128E-03 1.85349E-03-1.68272E-14
 -1      2394 7.77509E-03 2.16711E-03-2.00281E-14
 -1      2395 7.62575E-03 2.08608E-03-1.89965E-14
 -1      2396 7.50675E-03 2.01412E-03-1.88136E-14
 -1      2397 8.08596E-03 2.33708E-03-2.22584E-14
 -1      2398 7.93088E-03 2.25218E-03-2.11325E-14
 -1      2399 7.80794E-03 2.17996E-03-2.09395E-14
 -1      2400 8.37935E-03 2.49809E-03-2.44641E-14
 -1      2401 8.23291E-03 2.41773E-03-2.33521E-14
 -1      2402 8.10750E-03 2.34554E-03-2.31494E-14
 -1      2403 8.67071E-03 2.65798E-03-2.67401E-14
 -1      2404 8.52523E-03 2.57819E-03-2.55926E-14
 -1      2405 8.39833E-03 2.50618E-03-2.53827E-14
 -1      2406 8.96050E-03 2.81671E-03-2.90812E-14
 -1      2407 8.81576E-03 2.73750E-03-2.79024E-14
 -1      2408 8.68797E-03 2.66572E-03-2.76838E-14
 -1      2409 9.24911E-03 2.97434E-03-3.14860E-14
 -1      2410 9.10493E-03 2.89566E-03-3.02754E-14
 -1      2411 8.97661E-03 2.82414E-03-3.00518E-14
 -1      2412 9.53684E-03 3.13101E-03-3.39575E-14
 -1      2413 9.39307E-03 3.05279E-03-3.27141E-14
 -1      2414 9.26447E-03 2.98150E-03-3.24858E-14
 -1      2415 9.83826E-03 3.29460E-03-3.66204E-14
 -1      2416 9.68762E-03 3.21291E-03-3.52808E-14
 -1      2417 9.55888E-03 3.14182E-03-3.50488E-14
 -1      2418 1.01248E-02 3.44967E-03-3.92202E-14
 -1      2419 9.98160E-03 3.37222E-03-3.79129E-14
 -1      2420 9.85281E-03 3.30131E-03-3.76770E-14
 -1      2421 1.04111E-02 3.60415E-03-4.18862E-14
 -1      2422 1.02680E-02 3.52698E-03-4.05436E-14
 -1      2423 1.01392E-02 3.45622E-03-4.03031E-14
 -1      2424 1.06971E-02 3.75816E-03-4.46135E-14
 -1      2425 1.05541E-02 3.68121E-03-4.32441E-14
 -1      2426 1.04254E-02 3.61057E-03-4.29922E-14
 -1      2427 1.09830E-02 3.91177E-03-4.74005E-14
 -1      2428 1.08401E-02 3.83501E-03-4.59995E-14
 -1      2429 1.07114E-02 3.76446E-03-4.57450E-14
 -1      2430 1.12688E-02 4.06506E-03-5.02397E-14
 -1      2431 1.11259E-02 3.98845E-03-4.88134E-14
 -1      2432 1.09972E-02 3.91798E-03-4.85536E-14
 -1      2433 1.15688E-02 4.22576E-03-5.32739E-14
 -1      2434 1.14188E-02 4.14544E-03-5.17505E-14
 -1      2435 1.12901E-02 4.07503E-03-5.14847E-14
 -1      2436 1.18544E-02 4.37861E-03-5.62074E-14
 -1      2437 1.17116E-02 4.30221E-03-5.47349E-14
 -1      2438 1.15830E-02 4.23184E-03-5.44655E-14
 -1      2439 1.21401E-02 4.53131E-03-5.91795E-14
 -1      2440 1.19973E-02 4.45498E-03-5.76885E-14
 -1      2441 1.18687E-02 4.38464E-03-5.74154E-14
 -1      2442 1.24257E-02 4.68391E-03-6.21982E-14
 -1      2443 1.22829E-02 4.60762E-03-6.06838E-14
 -1      2444 1.21544E-02 4.53731E-03-6.04063E-14
 -1      2445 1.27114E-02 4.83642E-03-6.52606E-14
 -1      2446 1.25685E-02 4.76017E-03-6.37248E-14
 -1      2447 1.24400E-02 4.68988E-03-6.34431E-14
 -1      2448 1.30113E-02 4.99649E-03-6.85104E-14
 -1      2449 1.28613E-02 4.91646E-03-6.68804E-14
 -1      2450 1.27328E-02 4.84618E-03-6.65952E-14
 -1      2451 1.32969E-02 5.14889E-03-7.16426E-14
 -1      2452 1.31541E-02 5.07270E-03-7.00737E-14
 -1      2453 1.30256E-02 5.00243E-03-6.97878E-14
 -1      2454 1.35826E-02 5.30127E-03-7.47943E-14
 -1      2455 1.34398E-02 5.22508E-03-7.32151E-14
 -1      2456 1.33113E-02 5.15482E-03-7.29314E-14
 -1      2457 1.38683E-02 5.45362E-03-7.79547E-14
 -1      2458 1.37254E-02 5.37745E-03-7.63724E-14
 -1      2459 1.35970E-02 5.30719E-03-7.60947E-14
 -1      2460 1.41540E-02 5.60597E-03-8.11318E-14
 -1      2461 1.40111E-02 5.52980E-03-7.95404E-14
 -1      2462 1.38827E-02 5.45954E-03-7.92705E-14
 -1      2463 1.44396E-02 5.75830E-03-8.43166E-14
 -1      2464 1.42968E-02 5.68214E-03-8.27242E-14
 -1      2465 1.41684E-02 5.61188E-03-8.24579E-14
 -1      2466 1.47396E-02 5.91825E-03-8.76774E-14
 -1      2467 1.45896E-02 5.83828E-03-8.59941E-14
 -1      2468 1.44612E-02 5.76802E-03-8.57379E-14
 -1      2469 1.50253E-02 6.07059E-03-9.08959E-14
 -1      2470 1.48825E-02 5.99442E-03-8.92835E-14
 -1      2471 1.47540E-02 5.92417E-03-8.90319E-14
 -1      2472 1.53110E-02 6.22292E-03-9.41447E-14
 -1      2473 1.51682E-02 6.14676E-03-9.25169E-14
 -1      2474 1.50397E-02 6.07650E-03-9.22667E-14
 -1      2475 1.55967E-02 6.37527E-03-9.74155E-14
 -1      2476 1.54539E-02 6.29909E-03-9.57786E-14
 -1      2477 1.53255E-02 6.22884E-03-9.55275E-14
 -1      2478 1.57426E-02 6.45294E-03-9.91700E-14
 -1      2479 1.50811E-02 6.08283E-03-1.03514E-13
 -1      2480 1.51560E-02 6.12498E-03-1.02868E-13
 -1      2481 1.49313E-02 5.99853E-03-1.04804E-13
 -1      2482 1.50062E-02 6.04068E-03-1.04159E-13
 -1      2483 1.49199E-02 5.99580E-03-1.02385E-13
 -1      2484 1.53782E-02 6.25000E-03-1.00938E-13
 -1      2485 1.54531E-02 6.29215E-03-1.00283E-13
 -1      2486 1.52303E-02 6.16678E-03-1.02225E-13
 -1      2487 1.53040E-02 6.20821E-03-1.01585E-13
 -1      2488 1.52177E-02 6.16332E-03-9.98220E-14
 -1      2489 1.50691E-02 6.07974E-03-1.01107E-13
 -1      2490 1.47815E-02 5.91423E-03-1.06087E-13
 -1      2491 1.48564E-02 5.95638E-03-1.05445E-13
 -1      2492 1.47701E-02 5.91149E-03-1.03660E-13
 -1      2493 1.46317E-02 5.82992E-03-1.07370E-13
 -1      2494 1.47066E-02 5.87208E-03-1.06730E-13
 -1      2495 1.46203E-02 5.82719E-03-1.04933E-13
 -1      2496 1.44819E-02 5.74562E-03-1.08647E-13
 -1      2497 1.45568E-02 5.78777E-03-1.08008E-13
 -1      2498 1.44705E-02 5.74288E-03-1.06202E-13
 -1      2499 1.43346E-02 5.66274E-03-1.09895E-13
 -1      2500 1.44083E-02 5.70418E-03-1.09272E-13
 -1      2501 1.43220E-02 5.65929E-03-1.07457E-13
 -1      2502 1.41848E-02 5.57844E-03-1.11160E-13
 -1      2503 1.42597E-02 5.62059E-03-1.10529E-13
 -1      2504 1.41735E-02 5.57570E-03-1.08707E-13
 -1      2505 1.40351E-02 5.49415E-03-1.12422E-13
 -1      2506 1.41100E-02 5.53630E-03-1.11793E-13
 -1      2507 1.40237E-02 5.49140E-03-1.09965E-13
 -1      2508 1.38853E-02 5.40985E-03-1.13677E-13
 -1      2509 1.39602E-02 5.45200E-03-1.13048E-13
 -1      2510 1.38739E-02 5.40711E-03-1.11217E-13
 -1      2511 5.89888E-03 1.05025E-03-8.59340E-15
 -1      2512 5.88431E-03 1.04452E-03-8.76953E-15
 -1      2513 5.70844E-03 1.09278E-03-7.51976E-15
 -1      2514 5.82505E-03 1.06531E-03-8.01445E-15
 -1      2515 5.56512E-03 9.78178E-04-8.94052E-15
 -1      2516 5.36560E-03 9.20702E-04-8.85880E-15
 -1      2517 1.91238E-03 6.99173E-04-8.22882E-16
 -1      2518 1.71037E-03 5.77508E-04-6.43271E-16
 -1      2519 1.49124E-03 4.77519E-04-6.45060E-16
 -1      2520 1.87436E-03 7.00679E-04-1.00272E-15
 -1      2521 4.62178E-03 1.67878E-03-4.97383E-15
 -1      2522 4.79531E-03 1.56175E-03-5.33514E-15
 -1      2523 4.51509E-03 1.76633E-03-4.73841E-15
 -1      2524 1.38311E-02 5.37705E-03-1.15739E-13
 -1      2525 5.44586E-03 1.19430E-03-6.79293E-15
 -1      2526 5.57655E-03 1.14083E-03-7.11911E-15
 -1      2527 5.07100E-03 1.38974E-03-5.95218E-15
 -1      2528 5.26934E-03 1.27948E-03-6.37748E-15
 -1      2529 5.81628E-03 1.02704E-03-8.80818E-15
 -1      2530 5.72731E-03 1.01346E-03-8.86307E-15
 -1      2531 3.02916E-03-2.47978E-04-5.09841E-15
 -1      2532 2.87521E-03-2.43614E-04-4.67139E-15
 -1      2533 1.27715E-03 5.38754E-04-1.42197E-15
 -1      2534 1.45557E-03 6.00459E-04-1.42181E-15
 -1      2535 2.03649E-03 8.68302E-04-1.40979E-15
 -1      2536 2.30819E-03 1.05164E-03-1.48453E-15
 -1      2537 3.96846E-03 2.07125E-03-3.53740E-15
 -1      2538 5.33702E-04 5.80214E-05-3.68710E-16
 -1      2539 5.49555E-04 3.36046E-05-3.82005E-16
 -1      2540 6.78792E-04 1.88384E-05-5.26543E-16
 -1      2541 6.38939E-04 7.83633E-05-4.91184E-16
 -1      2542 1.01711E-03 4.65122E-04-1.43842E-15
 -1      2543 1.12831E-03 4.92853E-04-1.43038E-15
 -1      2544 1.19604E-03 4.81622E-04-1.31031E-15
 -1      2545 1.65126E-03 6.77713E-04-1.40707E-15
 -1      2546 1.82883E-03 7.67562E-04-1.43071E-15
 -1      2547 1.90437E-03 7.60570E-04-1.24308E-15
 -1      2548 1.52783E-03 5.92906E-04-1.28474E-15
 -1      2549 1.24952E-03 3.89484E-04-1.97088E-15
 -1      2550 1.13250E-03 4.16983E-04-1.85392E-15
 -1      2551 9.24993E-04 4.48704E-04-1.52430E-15
 -1      2552 9.43278E-04 4.48803E-04-1.47525E-15
 -1      2553 4.17418E-03 3.34067E-04-7.64795E-15
 -1      2554 3.97570E-03 2.01308E-04-7.26844E-15
 -1      2555 1.02196E-03 4.36905E-04-1.71567E-15
 -1      2556 9.47075E-04 4.42154E-04-1.59947E-15
 -1      2557 1.61148E-03 2.70818E-04-2.38260E-15
 -1      2558 1.43285E-03 3.33898E-04-2.17003E-15
 -1      2559 1.98488E-03 1.09301E-04-2.87380E-15
 -1      2560 1.81018E-03 1.89390E-04-2.63255E-15
 -1      2561 2.36162E-03-6.86177E-05-3.49945E-15
 -1      2562 2.18693E-03 1.61167E-05-3.19415E-15
 -1      2563 2.68449E-03-2.01081E-04-4.18179E-15
 -1      2564 2.53487E-03-1.42990E-04-3.83924E-15
 -1      2565 3.33852E-03-1.64825E-04-5.93872E-15
 -1      2566 3.20386E-03-2.15474E-04-5.57407E-15
 -1      2567 4.67184E-03 6.25191E-04-8.34197E-15
 -1      2568 4.44460E-03 5.00769E-04-8.09441E-15
 -1      2569 5.13841E-03 8.38457E-04-8.74041E-15
 -1      2570 4.92919E-03 7.52117E-04-8.61063E-15
 -1      2571 6.18338E-04-2.51610E-04-4.63957E-16
 -1      2572 8.20729E-04-3.27438E-04-7.24071E-16
 -1      2573 8.88291E-04-3.15315E-04-8.41693E-16
 -1      2574 6.11135E-04-2.19076E-04-4.66695E-16
 -1      2575 8.72490E-04 2.55176E-04-1.11131E-16
 -1      2576 7.02349E-04 2.05141E-04-5.83436E-17
 -1      2577 6.48598E-04 1.77001E-04-7.68022E-17
 -1      2578 8.86427E-04 2.45568E-04-1.89857E-16
 -1      2579 7.17767E-04-1.14475E-04-5.88383E-16
 -1      2580 5.91262E-04-1.07223E-04-4.40010E-16
 -1      2581 5.94431E-04-1.36375E-04-4.48223E-16
 -1      2582 5.95509E-04 1.48467E-04-1.11348E-16
 -1      2583 6.06400E-04-1.88190E-04-4.64784E-16
 -1      2584 5.26466E-03 9.10123E-04-9.29428E-15
 -1      2585 6.89431E-04 1.75713E-04-1.86144E-16
 -1      2586 1.36552E-02 5.28248E-03-1.14125E-13
 -1      2587 1.37957E-02 5.36017E-03-1.13907E-13
 -1      2588 1.37094E-02 5.31527E-03-1.12069E-13
 -1      2589 1.35302E-02 5.21590E-03-1.12521E-13
 -1      2590 1.35247E-02 5.21493E-03-1.11095E-13
 -1      2591 4.80172E-03 7.13375E-04-8.89283E-15
 -1      2592 3.42642E-03-1.16916E-04-6.28363E-15
 -1      2593 5.66338E-03 1.12246E-03-7.59227E-15
 -1      2594 2.58562E-03 1.24289E-03-1.51716E-15
 -1      2595 2.76182E-03-2.30891E-04-4.42794E-15
 -1      2596 2.82970E-03 1.48107E-03-1.79945E-15
 -1      2597 3.27384E-03 1.87542E-03-2.30767E-15
 -1      2598 3.05356E-03 1.68329E-03-1.99927E-15
 -1      2599 4.86959E-03 1.53347E-03-5.58306E-15
 -1      2600 4.67520E-03 1.68070E-03-5.10429E-15
 -1      2601 4.19928E-03 1.97546E-03-4.01434E-15
 -1      2602 1.56142E-02 6.38268E-03-9.89201E-14
 -1      2603 4.32160E-03 1.91769E-03-4.24228E-15
 -1      2604 1.55413E-02 6.34210E-03-9.92745E-14
 -1      2605 2.42424E-03-1.10434E-04-3.61007E-15
 -1      2606 5.87081E-03 1.05825E-03-9.22185E-15
 -1      2607 5.88978E-03 1.06590E-03-8.58462E-15
 -1      2608 5.93166E-03 1.08183E-03-9.16986E-15
 -1      2609 5.86308E-03 1.08553E-03-8.57437E-15
 -1      2610 2.07176E-03 5.40495E-05-2.95873E-15
 -1      2611 4.99195E-03 1.44135E-03-5.83336E-15
 -1      2612 5.12334E-03 1.37872E-03-6.21787E-15
 -1      2613 5.36652E-03 1.24256E-03-6.75936E-15
 -1      2614 5.64314E-03 1.01613E-03-9.34059E-15
 -1      2615 1.69445E-03 2.20930E-04-2.40471E-15
 -1      2616 1.05006E-03 4.12845E-04-1.65464E-15
 -1      2617 3.82664E-03 1.20391E-04-7.18937E-15
 -1      2618 1.32904E-03 3.50814E-04-1.97342E-15
 -1      2619 3.09114E-03-2.38673E-04-5.39973E-15
 -1      2620 4.29702E-03 4.29607E-04-8.15663E-15
 -1      2621 1.53801E-02 6.25506E-03-9.81736E-14
 -1      2622 9.20472E-04 4.23769E-04-1.45753E-15
 -1      2623 9.71798E-04 4.32087E-04-1.35392E-15
 -1      2624 1.11785E-03 4.31906E-04-1.19130E-15
 -1      2625 1.25394E-03 4.67650E-04-1.18179E-15
 -1      2626 6.14933E-04 1.83639E-04-5.31693E-16
 -1      2627 6.43471E-04 1.72709E-04-5.56928E-16
 -1      2628 6.77016E-04 1.54871E-04-5.81810E-16
 -1      2629 7.10712E-04 1.31283E-04-6.06218E-16
 -1      2630 7.60746E-04 1.88612E-04-7.22919E-16
 -1      2631 5.98442E-04 1.79026E-04-4.06684E-16
 -1      2632 5.79253E-04 1.82103E-04-4.37923E-16
 -1      2633 6.82629E-04 1.83213E-04-3.36116E-16
 -1      2634 6.33503E-04 1.78042E-04-3.72979E-16
 -1      2635 6.87139E-04 2.10509E-04-4.93041E-16
 -1      2636 1.13396E-03 3.31385E-04-4.94694E-16
 -1      2637 9.92063E-04 2.77677E-04-3.70472E-16
 -1      2638 1.36143E-02 5.26462E-03-1.10870E-13
 -1      2639 1.37039E-02 5.31430E-03-1.10644E-13
 -1      2640 1.35192E-02 5.21396E-03-1.09673E-13
 -1      2641 4.91453E-03 7.85361E-04-9.49672E-15
 -1      2642 4.68333E-03 6.70908E-04-9.21260E-15
 -1      2643 7.91348E-04 2.08152E-04-2.59843E-16
 -1      2644 1.40655E-03-4.09306E-04-1.85109E-15
 -1      2645 1.55922E-03-4.37340E-04-2.22415E-15
 -1      2646 1.71086E-03-4.61431E-04-2.63125E-15
 -1      2647 1.86116E-03-4.80620E-04-3.07275E-15
 -1      2648 1.64053E-03-4.11268E-04-2.39935E-15
 -1      2649 2.00988E-03-4.94346E-04-3.54851E-15
 -1      2650 2.15700E-03-5.01318E-04-4.05829E-15
 -1      2651 1.94750E-03-4.51958E-04-3.27149E-15
 -1      2652 2.30234E-03-5.00828E-04-4.60199E-15
 -1      2653 2.44640E-03-4.91634E-04-5.17944E-15
 -1      2654 2.24809E-03-4.69117E-04-4.27909E-15
 -1      2655 2.58908E-03-4.73215E-04-5.79007E-15
 -1      2656 2.73135E-03-4.44899E-04-6.43399E-15
 -1      2657 2.54190E-03-4.53349E-04-5.42111E-15
 -1      2658 2.87318E-03-4.06668E-04-7.11097E-15
 -1      2659 3.01566E-03-3.58798E-04-7.81916E-15
 -1      2660 2.83159E-03-3.97374E-04-6.69647E-15
 -1      2661 3.15871E-03-3.01902E-04-8.55800E-15
 -1      2662 3.30315E-03-2.37072E-04-9.32761E-15
 -1      2663 3.12176E-03-2.99936E-04-8.10025E-15
 -1      2664 3.44882E-03-1.65367E-04-1.01267E-14
 -1      2665 3.59599E-03-8.82818E-05-1.09556E-14
 -1      2666 3.41646E-03-1.66972E-04-9.62644E-15
 -1      2667 3.74445E-03-6.98586E-06-1.18121E-14
 -1      2668 3.89398E-03 7.71229E-05-1.26951E-14
 -1      2669 3.71719E-03-9.26179E-06-1.12701E-14
 -1      2670 4.04439E-03 1.63053E-04-1.36042E-14
 -1      2671 4.19523E-03 2.49805E-04-1.45375E-14
 -1      2672 4.02265E-03 1.61581E-04-1.30235E-14
 -1      2673 4.34640E-03 3.36679E-04-1.54966E-14
 -1      2674 4.49740E-03 4.23131E-04-1.64800E-14
 -1      2675 4.33002E-03 3.36316E-04-1.48790E-14
 -1      2676 4.64826E-03 5.08752E-04-1.74864E-14
 -1      2677 4.79857E-03 5.93347E-04-1.85155E-14
 -1      2678 4.63653E-03 5.09206E-04-1.68313E-14
 -1      2679 4.94846E-03 6.76737E-04-1.95661E-14
 -1      2680 5.09763E-03 7.58940E-04-2.06389E-14
 -1      2681 4.94031E-03 6.77580E-04-1.88755E-14
 -1      2682 5.24625E-03 8.39928E-04-2.17330E-14
 -1      2683 5.39417E-03 9.19819E-04-2.28485E-14
 -1      2684 5.24058E-03 8.40821E-04-2.10072E-14
 -1      2685 5.54153E-03 9.98673E-04-2.39850E-14
 -1      2686 5.68827E-03 1.07663E-03-2.51418E-14
 -1      2687 5.53733E-03 9.99425E-04-2.32250E-14
 -1      2688 5.83453E-03 1.15380E-03-2.63182E-14
 -1      2689 5.98028E-03 1.23032E-03-2.75153E-14
 -1      2690 5.83104E-03 1.15434E-03-2.55247E-14
 -1      2691 6.12563E-03 1.30628E-03-2.87323E-14
 -1      2692 6.27059E-03 1.38180E-03-2.99685E-14
 -1      2693 6.12233E-03 1.30658E-03-2.79061E-14
 -1      2694 6.41525E-03 1.45699E-03-3.12245E-14
 -1      2695 6.55962E-03 1.53191E-03-3.24991E-14
 -1      2696 6.41181E-03 1.45708E-03-3.03655E-14
 -1      2697 6.70375E-03 1.60665E-03-3.37909E-14
 -1      2698 6.84768E-03 1.68127E-03-3.51007E-14
 -1      2699 6.70001E-03 1.60657E-03-3.29001E-14
 -1      2700 6.99144E-03 1.75583E-03-3.64287E-14
 -1      2701 7.13506E-03 1.83037E-03-3.77732E-14
 -1      2702 6.98733E-03 1.75561E-03-3.55069E-14
 -1      2703 7.27854E-03 1.90492E-03-3.91340E-14
 -1      2704 7.42193E-03 1.97951E-03-4.05113E-14
 -1      2705 7.27407E-03 1.90458E-03-3.81811E-14
 -1      2706 7.56522E-03 2.05417E-03-4.19042E-14
 -1      2707 7.70844E-03 2.12890E-03-4.33122E-14
 -1      2708 7.56044E-03 2.05372E-03-4.09201E-14
 -1      2709 7.85160E-03 2.20371E-03-4.47370E-14
 -1      2710 7.99471E-03 2.27863E-03-4.61754E-14
 -1      2711 7.84656E-03 2.20318E-03-4.37215E-14
 -1      2712 8.13777E-03 2.35363E-03-4.76278E-14
 -1      2713 8.28080E-03 2.42874E-03-4.90947E-14
 -1      2714 8.13253E-03 2.35302E-03-4.65846E-14
 -1      2715 8.42379E-03 2.50394E-03-5.05778E-14
 -1      2716 8.56676E-03 2.57924E-03-5.20756E-14
 -1      2717 8.41840E-03 2.50327E-03-4.95051E-14
 -1      2718 8.70971E-03 2.65462E-03-5.35858E-14
 -1      2719 8.85264E-03 2.73009E-03-5.51077E-14
 -1      2720 8.70422E-03 2.65389E-03-5.24840E-14
 -1      2721 8.99555E-03 2.80564E-03-5.66458E-14
 -1      2722 9.13845E-03 2.88126E-03-5.81954E-14
 -1      2723 8.99000E-03 2.80486E-03-5.55186E-14
 -1      2724 9.28134E-03 2.95695E-03-5.97552E-14
 -1      2725 9.42422E-03 3.03270E-03-6.13283E-14
 -1      2726 9.27576E-03 2.95613E-03-5.86039E-14
 -1      2727 9.56710E-03 3.10850E-03-6.29111E-14
 -1      2728 9.70996E-03 3.18435E-03-6.45054E-14
 -1      2729 9.56150E-03 3.10764E-03-6.17353E-14
 -1      2730 9.85283E-03 3.26025E-03-6.61105E-14
 -1      2731 9.99569E-03 3.33619E-03-6.77235E-14
 -1      2732 9.84723E-03 3.25937E-03-6.49100E-14
 -1      2733 1.01385E-02 3.41216E-03-6.93450E-14
 -1      2734 1.02814E-02 3.48817E-03-7.09771E-14
 -1      2735 1.01330E-02 3.41126E-03-6.81253E-14
 -1      2736 1.04243E-02 3.56420E-03-7.26187E-14
 -1      2737 1.05671E-02 3.64025E-03-7.42675E-14
 -1      2738 1.04187E-02 3.56328E-03-7.13783E-14
 -1      2739 1.07100E-02 3.71633E-03-7.59232E-14
 -1      2740 1.08528E-02 3.79242E-03-7.75856E-14
 -1      2741 1.07044E-02 3.71539E-03-7.46639E-14
 -1      2742 1.09957E-02 3.86853E-03-7.92553E-14
 -1      2743 1.11385E-02 3.94465E-03-8.09285E-14
 -1      2744 1.09901E-02 3.86759E-03-7.79778E-14
 -1      2745 1.12814E-02 4.02079E-03-8.26075E-14
 -1      2746 1.14242E-02 4.09693E-03-8.42964E-14
 -1      2747 1.12758E-02 4.01983E-03-8.13136E-14
 -1      2748 1.15671E-02 4.17308E-03-8.59898E-14
 -1      2749 1.17099E-02 4.24924E-03-8.76888E-14
 -1      2750 1.15615E-02 4.17212E-03-8.46750E-14
 -1      2751 1.18528E-02 4.32540E-03-8.93944E-14
 -1      2752 1.19956E-02 4.40156E-03-9.11076E-14
 -1      2753 1.18473E-02 4.32443E-03-8.80616E-14
 -1      2754 1.21385E-02 4.47773E-03-9.28263E-14
 -1      2755 1.22813E-02 4.55390E-03-9.45488E-14
 -1      2756 1.21330E-02 4.47676E-03-9.14754E-14
 -1      2757 1.24242E-02 4.63007E-03-9.62785E-14
 -1      2758 1.25670E-02 4.70625E-03-9.80098E-14
 -1      2759 1.24187E-02 4.62911E-03-9.49107E-14
 -1      2760 1.27099E-02 4.78242E-03-9.97438E-14
 -1      2761 1.28527E-02 4.85860E-03-1.01484E-13
 -1      2762 1.27044E-02 4.78145E-03-9.83640E-14
 -1      2763 1.29956E-02 4.93478E-03-1.03228E-13
 -1      2764 1.31384E-02 5.01095E-03-1.04973E-13
 -1      2765 1.29901E-02 4.93381E-03-1.01828E-13
 -1      2766 1.32574E-02 5.07437E-03-1.06445E-13
 -1      2767 1.34003E-02 5.15054E-03-1.08198E-13
 -1      2768 1.34899E-02 5.20023E-03-1.07975E-13
 -1      2769 1.32519E-02 5.07340E-03-1.05034E-13
 -1      2770 3.46112E-03 2.00916E-03-2.53991E-15
 -1      2771 4.53607E-03 1.78652E-03-4.74198E-15
 -1      2772 6.38387E-03 1.41517E-03-1.20824E-14
 -1      2773 6.23617E-03 1.35290E-03-1.11998E-14
 -1      2774 6.66540E-03 1.55091E-03-1.38344E-14
 -1      2775 6.52408E-03 1.48063E-03-1.29476E-14
 -1      2776 6.44200E-03 1.41725E-03-1.27673E-14
 -1      2777 6.94964E-03 1.70056E-03-1.56753E-14
 -1      2778 6.80695E-03 1.62439E-03-1.47438E-14
 -1      2779 6.70692E-03 1.55636E-03-1.45524E-14
 -1      2780 7.23634E-03 1.85744E-03-1.76050E-14
 -1      2781 7.09260E-03 1.77833E-03-1.66297E-14
 -1      2782 6.97951E-03 1.70654E-03-1.64271E-14
 -1      2783 7.52447E-03 2.01757E-03-1.96244E-14
 -1      2784 7.38018E-03 1.93724E-03-1.86028E-14
 -1      2785 7.25786E-03 1.86281E-03-1.83887E-14
 -1      2786 7.82763E-03 2.18674E-03-2.18316E-14
 -1      2787 7.67595E-03 2.10211E-03-2.07169E-14
 -1      2788 7.54712E-03 2.02596E-03-2.04900E-14
 -1      2789 8.11635E-03 2.34761E-03-2.40190E-14
 -1      2790 7.97197E-03 2.26724E-03-2.29167E-14
 -1      2791 7.83874E-03 2.19011E-03-2.26780E-14
 -1      2792 8.40476E-03 2.50768E-03-2.62783E-14
 -1      2793 8.26057E-03 2.42776E-03-2.51395E-14
 -1      2794 8.12449E-03 2.35012E-03-2.48928E-14
 -1      2795 8.69273E-03 2.66674E-03-2.86074E-14
 -1      2796 8.54878E-03 2.58734E-03-2.74343E-14
 -1      2797 8.41080E-03 2.50948E-03-2.71791E-14
 -1      2798 8.98025E-03 2.82476E-03-3.10011E-14
 -1      2799 8.83653E-03 2.74588E-03-2.97958E-14
 -1      2800 8.69732E-03 2.66797E-03-2.95347E-14
 -1      2801 9.26735E-03 2.98180E-03-3.34646E-14
 -1      2802 9.12384E-03 2.90340E-03-3.22247E-14
 -1      2803 8.98383E-03 2.82553E-03-3.19581E-14
 -1      2804 9.56843E-03 3.14576E-03-3.61158E-14
 -1      2805 9.41793E-03 3.06390E-03-3.47817E-14
 -1      2806 9.27740E-03 2.98611E-03-3.45095E-14
 -1      2807 9.85487E-03 3.30114E-03-3.87073E-14
 -1      2808 9.71168E-03 3.22354E-03-3.74041E-14
 -1      2809 9.57084E-03 3.14585E-03-3.71253E-14
 -1      2810 1.01411E-02 3.45588E-03-4.13563E-14
 -1      2811 9.99801E-03 3.37858E-03-4.00231E-14
 -1      2812 9.85699E-03 3.30100E-03-3.97397E-14
 -1      2813 1.04271E-02 3.61009E-03-4.40742E-14
 -1      2814 1.02841E-02 3.53305E-03-4.27084E-14
 -1      2815 1.01430E-02 3.45556E-03-4.24179E-14
 -1      2816 1.07131E-02 3.76387E-03-4.68460E-14
 -1      2817 1.05701E-02 3.68703E-03-4.54529E-14
 -1      2818 1.04290E-02 3.60963E-03-4.51575E-14
 -1      2819 1.09989E-02 3.91731E-03-4.96757E-14
 -1      2820 1.08560E-02 3.84063E-03-4.82546E-14
 -1      2821 1.07148E-02 3.76329E-03-4.79528E-14
 -1      2822 1.12990E-02 4.07812E-03-5.26997E-14
 -1      2823 1.11490E-02 3.99775E-03-5.11809E-14
 -1      2824 1.10078E-02 3.92047E-03-5.08760E-14
 -1      2825 1.15847E-02 4.23105E-03-5.56266E-14
 -1      2826 1.14419E-02 4.15461E-03-5.41577E-14
 -1      2827 1.13007E-02 4.07737E-03-5.38472E-14
 -1      2828 1.18704E-02 4.38381E-03-5.85919E-14
 -1      2829 1.17276E-02 4.30745E-03-5.71047E-14
 -1      2830 1.15865E-02 4.23025E-03-5.67898E-14
 -1      2831 1.21561E-02 4.53645E-03-6.16014E-14
 -1      2832 1.20133E-02 4.46015E-03-6.00925E-14
 -1      2833 1.18722E-02 4.38297E-03-5.97747E-14
 -1      2834 1.24418E-02 4.68900E-03-6.46557E-14
 -1      2835 1.22990E-02 4.61273E-03-6.31232E-14
 -1      2836 1.21579E-02 4.53558E-03-6.28016E-14
 -1      2837 1.27418E-02 4.84909E-03-6.79012E-14
 -1      2838 1.25918E-02 4.76905E-03-6.62740E-14
 -1      2839 1.24507E-02 4.69192E-03-6.59485E-14
 -1      2840 1.30275E-02 5.00151E-03-7.10313E-14
 -1      2841 1.28846E-02 4.92531E-03-6.94608E-14
 -1      2842 1.27436E-02 4.84818E-03-6.91351E-14
 -1      2843 1.33131E-02 5.15390E-03-7.41886E-14
 -1      2844 1.31703E-02 5.07771E-03-7.26069E-14
 -1      2845 1.30293E-02 5.00059E-03-7.22786E-14
 -1      2846 1.35988E-02 5.30626E-03-7.73652E-14
 -1      2847 1.34560E-02 5.23008E-03-7.57765E-14
 -1      2848 1.33150E-02 5.15297E-03-7.54508E-14
 -1      2849 1.38845E-02 5.45861E-03-8.05561E-14
 -1      2850 1.37417E-02 5.38244E-03-7.89584E-14
 -1      2851 1.36007E-02 5.30533E-03-7.86435E-14
 -1      2852 1.41702E-02 5.61095E-03-8.37562E-14
 -1      2853 1.40274E-02 5.53478E-03-8.21542E-14
 -1      2854 1.38864E-02 5.45767E-03-8.18440E-14
 -1      2855 1.44702E-02 5.77090E-03-8.71284E-14
 -1      2856 1.43202E-02 5.69092E-03-8.54408E-14
 -1      2857 1.41792E-02 5.61382E-03-8.51374E-14
 -1      2858 1.47559E-02 5.92323E-03-9.03567E-14
 -1      2859 1.46131E-02 5.84706E-03-8.87405E-14
 -1      2860 1.44721E-02 5.76996E-03-8.84427E-14
 -1      2861 1.50416E-02 6.07556E-03-9.36081E-14
 -1      2862 1.48988E-02 5.99940E-03-9.19783E-14
 -1      2863 1.47578E-02 5.92229E-03-9.16861E-14
 -1      2864 1.52823E-02 6.20340E-03-9.67059E-14
 -1      2865 1.51395E-02 6.12723E-03-9.50683E-14
 -1      2866 1.49985E-02 6.05012E-03-9.47748E-14
 -1      2867 1.51941E-02 6.15345E-03-9.77076E-14
 -1      2868 1.44591E-02 5.74015E-03-1.03778E-13
 -1      2869 1.45340E-02 5.78230E-03-1.03148E-13
 -1      2870 9.09731E-04 3.95837E-04-1.34471E-15
 -1      2871 8.91940E-04 3.93254E-04-1.28094E-15
 -1      2872 1.47588E-02 5.90876E-03-1.01250E-13
 -1      2873 1.48337E-02 5.95091E-03-1.00614E-13
 -1      2874 1.43093E-02 5.65584E-03-1.05035E-13
 -1      2875 1.43842E-02 5.69799E-03-1.04407E-13
 -1      2876 1.42980E-02 5.65311E-03-1.02620E-13
 -1      2877 1.46090E-02 5.82445E-03-1.02515E-13
 -1      2878 1.46839E-02 5.86660E-03-1.01886E-13
 -1      2879 1.45976E-02 5.82172E-03-1.00112E-13
 -1      2880 1.44478E-02 5.73741E-03-1.01368E-13
 -1      2881 1.41621E-02 5.57297E-03-1.06267E-13
 -1      2882 1.42357E-02 5.61440E-03-1.05652E-13
 -1      2883 1.41494E-02 5.56952E-03-1.03854E-13
 -1      2884 1.40123E-02 5.48866E-03-1.07518E-13
 -1      2885 1.40872E-02 5.53082E-03-1.06892E-13
 -1      2886 1.40009E-02 5.48593E-03-1.05086E-13
 -1      2887 1.38625E-02 5.40437E-03-1.08764E-13
 -1      2888 1.39374E-02 5.44651E-03-1.08140E-13
 -1      2889 1.38511E-02 5.40162E-03-1.06325E-13
 -1      2890 1.37788E-02 5.35645E-03-1.10024E-13
 -1      2891 2.14574E-03-2.73286E-06-3.05208E-15
 -1      2892 1.96707E-03 7.97876E-05-2.74220E-15
 -1      2893 5.73608E-03 1.05372E-03-9.77703E-15
 -1      2894 5.58611E-03 1.02507E-03-9.85508E-15
 -1      2895 3.89053E-03 1.83908E-04-7.66639E-15
 -1      2896 3.69127E-03 4.82667E-05-7.15007E-15
 -1      2897 1.75452E-03 1.70702E-04-2.41219E-15
 -1      2898 1.58031E-03 2.41437E-04-2.17843E-15
 -1      2899 6.09546E-03 1.30186E-03-1.03827E-14
 -1      2900 5.95176E-03 1.26160E-03-9.58817E-15
 -1      2901 6.18486E-03 1.29676E-03-1.10712E-14
 -1      2902 2.80832E-03-2.51106E-04-4.65283E-15
 -1      2903 2.64364E-03-2.11933E-04-4.16643E-15
 -1      2904 5.79146E-03 1.24105E-03-8.76235E-15
 -1      2905 5.63146E-03 1.23608E-03-8.01763E-15
 -1      2906 2.46512E-03-1.49496E-04-3.71702E-15
 -1      2907 2.31667E-03-8.12505E-05-3.38587E-15
 -1      2908 1.09963E-03-3.42492E-04-1.20848E-15
 -1      2909 1.25319E-03-3.77556E-04-1.51231E-15
 -1      2910 1.32983E-03-3.54863E-04-1.66242E-15
 -1      2911 7.33773E-04-2.07004E-04-6.23877E-16
 -1      2912 5.37408E-03 9.64700E-04-9.82547E-15
 -1      2913 5.16936E-03 8.93150E-04-9.69830E-15
 -1      2914 5.82103E-04 1.88434E-04-4.76602E-16
 -1      2915 5.92444E-04 1.88357E-04-5.04723E-16
 -1      2916 6.85480E-04 2.18758E-04-6.58463E-16
 -1      2917 8.28983E-04-4.13670E-05-7.19558E-16
 -1      2918 8.39544E-04-7.97126E-05-7.39710E-16
 -1      2919 1.37645E-03 3.07286E-04-1.91224E-15
 -1      2920 1.21655E-03 3.51948E-04-1.73231E-15
 -1      2921 9.26131E-04 3.99690E-04-1.24647E-15
 -1      2922 9.99058E-04 4.07113E-04-1.21416E-15
 -1      2923 3.14732E-03-2.22399E-04-5.75671E-15
 -1      2924 2.99734E-03-2.54316E-04-5.27277E-15
 -1      2925 1.07583E-03 3.80710E-04-1.56753E-15
 -1      2926 9.80368E-04 3.89251E-04-1.44640E-15
 -1      2927 5.91741E-03 1.08485E-03-9.69458E-15
 -1      2928 5.84520E-03 1.07393E-03-9.73724E-15
 -1      2929 5.81314E-03 1.08620E-03-1.02604E-14
 -1      2930 4.39676E-03 5.10110E-04-8.75209E-15
 -1      2931 4.15267E-03 3.57296E-04-8.28595E-15
 -1      2932 5.62186E-03 1.15694E-03-7.66692E-15
 -1      2933 5.74128E-03 1.12137E-03-8.08410E-15
 -1      2934 3.50506E-03-6.20040E-05-6.72536E-15
 -1      2935 3.33785E-03-1.49624E-04-6.31567E-15
 -1      2936 3.58362E-03-5.53544E-06-7.18052E-15
 -1      2937 7.90194E-04 2.12606E-04-3.50184E-16
 -1      2938 6.49449E-04 2.19032E-04-5.78422E-16
 -1      2939 8.44179E-04 1.29629E-04-7.84176E-16
 -1      2940 7.43164E-04 1.02140E-04-6.30206E-16
 -1      2941 7.71529E-04 6.94915E-05-6.53733E-16
 -1      2942 1.26758E-03 4.03449E-04-7.66572E-16
 -1      2943 1.08752E-03 3.42520E-04-7.46805E-16
 -1      2944 1.83287E-03 1.10144E-04-2.49165E-15
 -1      2945 5.05308E-03 8.52784E-04-1.00297E-14
 -1      2946 8.46751E-04-1.17959E-04-7.57912E-16
 -1      2947 8.51730E-04-1.55886E-04-7.74202E-16
 -1      2948 9.77897E-04-1.17835E-04-9.46956E-16
 -1      2949 8.62211E-04-2.01886E-04-8.00494E-16
 -1      2950 8.74852E-04-2.67528E-04-8.26813E-16
 -1      2951 1.01497E-03-3.09883E-04-1.05582E-15
 -1      2952 9.94614E-04-2.09849E-04-1.00195E-15
 -1      2953 1.43451E-03 2.58409E-04-1.91551E-15
 -1      2954 4.53428E-03 5.94029E-04-9.34666E-15
 -1      2955 1.03425E-03 3.90717E-04-1.09248E-15
 -1      2956 2.52878E-03-1.91326E-04-3.91805E-15
 -1      2957 5.44485E-03 1.26287E-03-7.26921E-15
 -1      2958 5.25106E-03 1.32032E-03-6.57888E-15
 -1      2959 1.51199E-02 6.11166E-03-9.83466E-14
 -1      2960 1.50220E-02 6.05999E-03-9.68760E-14
 -1      2961 1.50456E-02 6.06987E-03-9.89856E-14
 -1      2962 9.10798E-04 3.66835E-04-1.26692E-15
 -1      2963 8.83517E-04 3.68227E-04-1.14514E-15
 -1      2964 1.36925E-02 5.31156E-03-1.08194E-13
 -1      2965 2.19746E-03-5.35331E-05-3.14641E-15
 -1      2966 5.84483E-03 1.11257E-03-8.65558E-15
 -1      2967 5.92761E-03 1.12035E-03-9.24042E-15
 -1      2968 5.82858E-03 1.14472E-03-8.73211E-15
 -1      2969 5.50506E-03 1.01430E-03-1.02699E-14
 -1      2970 1.41400E-03 4.84083E-04-9.47769E-16
 -1      2971 5.96872E-03 1.10786E-03-9.67502E-15
 -1      2972 5.95194E-03 1.09629E-03-9.68666E-15
 -1      2973 5.95653E-03 1.11385E-03-1.02113E-14
 -1      2974 5.31802E-03 1.27313E-03-6.70519E-15
 -1      2975 5.47872E-03 1.19926E-03-7.13310E-15
 -1      2976 8.43866E-04 2.41155E-04-4.70151E-16
 -1      2977 1.11074E-03 3.40229E-04-1.51153E-15
 -1      2978 1.70639E-03 6.19135E-04-1.03022E-15
 -1      2979 3.23066E-03-1.88488E-04-6.17328E-15
 -1      2980 5.92006E-03 1.21115E-03-9.41112E-15
 -1      2981 1.49025E-02 5.98949E-03-1.00121E-13
 -1      2982 1.49768E-02 6.03128E-03-9.94860E-14
 -1      2983 1.48789E-02 5.97962E-03-9.80083E-14
 -1      2984 1.47413E-02 5.90245E-03-9.89928E-14
 -1      2985 2.87816E-03-2.63787E-04-4.97958E-15
 -1      2986 2.76316E-03-2.61844E-04-4.69427E-15
 -1      2987 2.93663E-03-2.64196E-04-5.31479E-15
 -1      2988 7.95459E-04 3.38794E-05-6.76176E-16
 -1      2989 8.14557E-04-3.27491E-06-6.98240E-16
 -1      2990 9.55230E-04-3.25129E-05-8.97584E-16
 -1      2991 9.11836E-04 5.22434E-05-8.42710E-16
 -1      2992 1.08938E-03-2.91076E-04-1.18265E-15
 -1      2993 7.08685E-04 2.48096E-04-6.69034E-16
 -1      2994 7.12343E-04 2.52874E-04-7.22485E-16
 -1      2995 7.84081E-04 2.43869E-04-5.78232E-16
 -1      2996 7.34568E-04 2.43368E-04-6.25171E-16
 -1      2997 7.77251E-04 2.80275E-04-7.74581E-16
 -1      2998 1.89192E-03 4.72904E-05-2.55546E-15
 -1      2999 1.70205E-03 1.26295E-04-2.24030E-15
 -1      3000 1.36900E-02 5.31458E-03-1.05134E-13
 -1      3001 1.37649E-02 5.35673E-03-1.04521E-13
 -1      3002 1.88235E-03-4.06151E-04-3.00309E-15
 -1      3003 2.03772E-03-4.23100E-04-3.46725E-15
 -1      3004 2.19124E-03-4.34142E-04-3.96476E-15
 -1      3005 2.34290E-03-4.37197E-04-4.49589E-15
 -1      3006 2.13087E-03-3.94833E-04-3.65934E-15
 -1      3007 2.49238E-03-4.31422E-04-5.06068E-15
 -1      3008 2.64067E-03-4.15011E-04-5.65867E-15
 -1      3009 2.44026E-03-4.05928E-04-4.70858E-15
 -1      3010 2.78767E-03-3.87462E-04-6.29004E-15
 -1      3011 2.93486E-03-3.48486E-04-6.95456E-15
 -1      3012 2.74188E-03-3.75959E-04-5.89218E-15
 -1      3013 3.08220E-03-2.98387E-04-7.64987E-15
 -1      3014 3.23105E-03-2.38235E-04-8.37623E-15
 -1      3015 3.04098E-03-2.96994E-04-7.20699E-15
 -1      3016 3.38127E-03-1.69090E-04-9.13413E-15
 -1      3017 3.53344E-03-9.30676E-05-9.92071E-15
 -1      3018 3.34421E-03-1.72236E-04-8.64815E-15
 -1      3019 3.68725E-03-1.15051E-05-1.07357E-14
 -1      3020 3.84245E-03 7.35299E-05-1.15796E-14
 -1      3021 3.65526E-03-1.44426E-05-1.02096E-14
 -1      3022 3.99870E-03 1.60885E-04-1.24505E-14
 -1      3023 4.15532E-03 2.49037E-04-1.33466E-14
 -1      3024 3.97291E-03 1.60327E-04-1.18842E-14
 -1      3025 4.31210E-03 3.37233E-04-1.42673E-14
 -1      3026 4.46830E-03 4.24731E-04-1.52139E-14
 -1      3027 4.29282E-03 3.39106E-04-1.36641E-14
 -1      3028 4.62391E-03 5.11109E-04-1.61838E-14
 -1      3029 4.77837E-03 5.96178E-04-1.71770E-14
 -1      3030 4.61051E-03 5.14388E-04-1.55436E-14
 -1      3031 4.93182E-03 6.79765E-04-1.81921E-14
 -1      3032 5.08393E-03 7.61979E-04-1.92290E-14
 -1      3033 4.92306E-03 6.83361E-04-1.75164E-14
 -1      3034 5.23493E-03 8.42794E-04-2.02895E-14
 -1      3035 5.38468E-03 9.22435E-04-2.13700E-14
 -1      3036 5.22941E-03 8.45972E-04-1.95784E-14
 -1      3037 5.53342E-03 1.00095E-03-2.24719E-14
 -1      3038 5.68111E-03 1.07856E-03-2.35954E-14
 -1      3039 5.52985E-03 1.00337E-03-2.17272E-14
 -1      3040 5.82798E-03 1.15536E-03-2.47382E-14
 -1      3041 5.97406E-03 1.23152E-03-2.59022E-14
 -1      3042 5.82539E-03 1.15696E-03-2.39589E-14
 -1      3043 6.11951E-03 1.30714E-03-2.70867E-14
 -1      3044 6.26441E-03 1.38237E-03-2.82899E-14
 -1      3045 6.11721E-03 1.30804E-03-2.62732E-14
 -1      3046 6.40886E-03 1.45727E-03-2.95130E-14
 -1      3047 6.55294E-03 1.53196E-03-3.07557E-14
 -1      3048 6.40642E-03 1.45760E-03-2.86684E-14
 -1      3049 6.69672E-03 1.60648E-03-3.20167E-14
 -1      3050 6.84027E-03 1.68092E-03-3.32952E-14
 -1      3051 6.69391E-03 1.60640E-03-3.11398E-14
 -1      3052 6.98363E-03 1.75532E-03-3.45917E-14
 -1      3053 7.12685E-03 1.82971E-03-3.59054E-14
 -1      3054 6.98035E-03 1.75495E-03-3.36840E-14
 -1      3055 7.26995E-03 1.90413E-03-3.72354E-14
 -1      3056 7.41298E-03 1.97861E-03-3.85811E-14
 -1      3057 7.26619E-03 1.90359E-03-3.62966E-14
 -1      3058 7.55594E-03 2.05317E-03-3.99433E-14
 -1      3059 7.69886E-03 2.12781E-03-4.13214E-14
 -1      3060 7.55173E-03 2.05250E-03-3.89747E-14
 -1      3061 7.84174E-03 2.20255E-03-4.27147E-14
 -1      3062 7.98461E-03 2.27739E-03-4.41249E-14
 -1      3063 7.83717E-03 2.20181E-03-4.17164E-14
 -1      3064 8.12747E-03 2.35233E-03-4.55491E-14
 -1      3065 8.27031E-03 2.42738E-03-4.69865E-14
 -1      3066 8.12259E-03 2.35154E-03-4.45203E-14
 -1      3067 8.41315E-03 2.50252E-03-4.84406E-14
 -1      3068 8.55600E-03 2.57777E-03-4.99086E-14
 -1      3069 8.40805E-03 2.50170E-03-4.73836E-14
 -1      3070 8.69884E-03 2.65311E-03-5.13920E-14
 -1      3071 8.84169E-03 2.72853E-03-5.28889E-14
 -1      3072 8.69356E-03 2.65226E-03-5.03080E-14
 -1      3073 8.98453E-03 2.80404E-03-5.43988E-14
 -1      3074 9.12738E-03 2.87962E-03-5.59234E-14
 -1      3075 8.97913E-03 2.80317E-03-5.32872E-14
 -1      3076 9.27023E-03 2.95528E-03-5.74585E-14
 -1      3077 9.41309E-03 3.03100E-03-5.90059E-14
 -1      3078 9.26476E-03 2.95440E-03-5.63205E-14
 -1      3079 9.55594E-03 3.10677E-03-6.05656E-14
 -1      3080 9.69880E-03 3.18260E-03-6.21367E-14
 -1      3081 9.55042E-03 3.10587E-03-5.94033E-14
 -1      3082 9.84166E-03 3.25848E-03-6.37183E-14
 -1      3083 9.98452E-03 3.33439E-03-6.53116E-14
 -1      3084 9.83611E-03 3.25757E-03-6.25348E-14
 -1      3085 1.01274E-02 3.41035E-03-6.69127E-14
 -1      3086 1.02702E-02 3.48633E-03-6.85221E-14
 -1      3087 1.01218E-02 3.40943E-03-6.57044E-14
 -1      3088 1.04131E-02 3.56235E-03-7.01430E-14
 -1      3089 1.05560E-02 3.63839E-03-7.17731E-14
 -1      3090 1.04076E-02 3.56142E-03-6.89155E-14
 -1      3091 1.06988E-02 3.71446E-03-7.34110E-14
 -1      3092 1.08417E-02 3.79054E-03-7.50550E-14
 -1      3093 1.06933E-02 3.71352E-03-7.21628E-14
 -1      3094 1.09846E-02 3.86664E-03-7.67057E-14
 -1      3095 1.11274E-02 3.94275E-03-7.83618E-14
 -1      3096 1.09790E-02 3.86569E-03-7.54404E-14
 -1      3097 1.12703E-02 4.01888E-03-8.00241E-14
 -1      3098 1.14132E-02 4.09502E-03-8.16919E-14
 -1      3099 1.12648E-02 4.01793E-03-7.87405E-14
 -1      3100 1.15560E-02 4.17116E-03-8.33663E-14
 -1      3101 1.16989E-02 4.24731E-03-8.50487E-14
 -1      3102 1.15505E-02 4.17020E-03-8.20647E-14
 -1      3103 1.18417E-02 4.32347E-03-8.67363E-14
 -1      3104 1.19846E-02 4.39963E-03-8.84297E-14
 -1      3105 1.18362E-02 4.32251E-03-8.54166E-14
 -1      3106 1.21275E-02 4.47580E-03-9.01318E-14
 -1      3107 1.22703E-02 4.55197E-03-9.18388E-14
 -1      3108 1.21220E-02 4.47483E-03-8.87947E-14
 -1      3109 1.24132E-02 4.62814E-03-9.35494E-14
 -1      3110 1.25560E-02 4.70431E-03-9.52650E-14
 -1      3111 1.24077E-02 4.62717E-03-9.21960E-14
 -1      3112 1.26989E-02 4.78048E-03-9.69865E-14
 -1      3113 1.28418E-02 4.85666E-03-9.87079E-14
 -1      3114 1.26934E-02 4.77952E-03-9.56148E-14
 -1      3115 1.29846E-02 4.93284E-03-1.00436E-13
 -1      3116 1.31275E-02 5.00901E-03-1.02168E-13
 -1      3117 1.29791E-02 4.93187E-03-9.90504E-14
 -1      3118 5.61233E-03 1.19468E-03-7.82013E-15
 -1      3119 6.25193E-03 1.30433E-03-1.17106E-14
 -1      3120 6.13624E-03 1.24904E-03-1.08795E-14
 -1      3121 1.38398E-02 5.39888E-03-1.03902E-13
 -1      3122 1.39146E-02 5.44104E-03-1.03286E-13
 -1      3123 1.36786E-02 5.31184E-03-1.02723E-13
 -1      3124 7.00702E-03 1.71641E-03-1.72090E-14
 -1      3125 6.87365E-03 1.64061E-03-1.62436E-14
 -1      3126 6.49308E-03 1.43000E-03-1.34409E-14
 -1      3127 6.37037E-03 1.36467E-03-1.25647E-14
 -1      3128 6.30346E-03 1.31651E-03-1.23584E-14
 -1      3129 7.27918E-03 1.87140E-03-1.92028E-14
 -1      3130 7.14217E-03 1.79332E-03-1.81947E-14
 -1      3131 7.02894E-03 1.72694E-03-1.79959E-14
 -1      3132 7.57078E-03 2.03711E-03-2.13883E-14
 -1      3133 7.42432E-03 1.95396E-03-2.02844E-14
 -1      3134 7.30361E-03 1.88424E-03-2.00740E-14
 -1      3135 7.85203E-03 2.19603E-03-2.35575E-14
 -1      3136 7.71103E-03 2.11649E-03-2.24631E-14
 -1      3137 7.58500E-03 2.04451E-03-2.22434E-14
 -1      3138 8.13537E-03 2.35501E-03-2.58002E-14
 -1      3139 7.99347E-03 2.27554E-03-2.46701E-14
 -1      3140 7.86380E-03 2.20213E-03-2.44422E-14
 -1      3141 8.41995E-03 2.51353E-03-2.81154E-14
 -1      3142 8.27753E-03 2.43434E-03-2.69480E-14
 -1      3143 8.14530E-03 2.36003E-03-2.67145E-14
 -1      3144 8.70522E-03 2.67135E-03-3.04994E-14
 -1      3145 8.56251E-03 2.59253E-03-2.92998E-14
 -1      3146 8.42851E-03 2.51768E-03-2.90582E-14
 -1      3147 8.99086E-03 2.82838E-03-3.29514E-14
 -1      3148 8.84800E-03 2.74996E-03-3.17167E-14
 -1      3149 8.71277E-03 2.67480E-03-3.14714E-14
 -1      3150 9.29096E-03 2.99243E-03-3.55921E-14
 -1      3151 9.14089E-03 2.91050E-03-3.42631E-14
 -1      3152 9.00481E-03 2.83518E-03-3.40110E-14
 -1      3153 9.57683E-03 3.14794E-03-3.81736E-14
 -1      3154 9.43388E-03 3.07026E-03-3.68750E-14
 -1      3155 9.29725E-03 2.99486E-03-3.66192E-14
 -1      3156 9.86271E-03 3.30282E-03-4.08116E-14
 -1      3157 9.71976E-03 3.22545E-03-3.94847E-14
 -1      3158 9.58277E-03 3.15003E-03-3.92244E-14
 -1      3159 1.01486E-02 3.45718E-03-4.35182E-14
 -1      3160 1.00056E-02 3.38006E-03-4.21555E-14
 -1      3161 9.86841E-03 3.30465E-03-4.18909E-14
 -1      3162 1.04344E-02 3.61108E-03-4.62792E-14
 -1      3163 1.02915E-02 3.53418E-03-4.48909E-14
 -1      3164 1.01541E-02 3.45879E-03-4.46198E-14
 -1      3165 1.07202E-02 3.76463E-03-4.90990E-14
 -1      3166 1.05773E-02 3.68790E-03-4.76830E-14
 -1      3167 1.04398E-02 3.61254E-03-4.74070E-14
 -1      3168 1.10203E-02 3.92553E-03-5.21158E-14
 -1      3169 1.08702E-02 3.84511E-03-5.06013E-14
 -1      3170 1.07327E-02 3.76978E-03-5.03216E-14
 -1      3171 1.13060E-02 4.07853E-03-5.50356E-14
 -1      3172 1.11632E-02 4.00206E-03-5.35695E-14
 -1      3173 1.10256E-02 3.92675E-03-5.32883E-14
 -1      3174 1.15918E-02 4.23135E-03-5.79951E-14
 -1      3175 1.14489E-02 4.15496E-03-5.65108E-14
 -1      3176 1.13114E-02 4.07968E-03-5.62270E-14
 -1      3177 1.18775E-02 4.38404E-03-6.09980E-14
 -1      3178 1.17347E-02 4.30771E-03-5.94921E-14
 -1      3179 1.15971E-02 4.23245E-03-5.92063E-14
 -1      3180 1.21632E-02 4.53661E-03-6.40451E-14
 -1      3181 1.20204E-02 4.46034E-03-6.25152E-14
 -1      3182 1.18829E-02 4.38509E-03-6.22268E-14
 -1      3183 1.24633E-02 4.69674E-03-6.72858E-14
 -1      3184 1.23133E-02 4.61668E-03-6.56596E-14
 -1      3185 1.21758E-02 4.54145E-03-6.53682E-14
 -1      3186 1.27490E-02 4.84918E-03-7.04096E-14
 -1      3187 1.26061E-02 4.77296E-03-6.88424E-14
 -1      3188 1.24686E-02 4.69774E-03-6.85491E-14
 -1      3189 1.30347E-02 5.00158E-03-7.35715E-14
 -1      3190 1.28918E-02 4.92538E-03-7.19861E-14
 -1      3191 1.27544E-02 4.85016E-03-7.16918E-14
 -1      3192 1.33204E-02 5.15395E-03-7.67586E-14
 -1      3193 1.31775E-02 5.07776E-03-7.51635E-14
 -1      3194 1.30401E-02 5.00255E-03-7.48698E-14
 -1      3195 1.36061E-02 5.30630E-03-7.99616E-14
 -1      3196 1.34633E-02 5.23013E-03-7.83593E-14
 -1      3197 1.33258E-02 5.15492E-03-7.80715E-14
 -1      3198 1.38918E-02 5.45864E-03-8.31750E-14
 -1      3199 1.37490E-02 5.38247E-03-8.15663E-14
 -1      3200 1.36115E-02 5.30727E-03-8.12848E-14
 -1      3201 1.41918E-02 5.61859E-03-8.65646E-14
 -1      3202 1.40418E-02 5.53862E-03-8.48695E-14
 -1      3203 1.39044E-02 5.46342E-03-8.45928E-14
 -1      3204 1.44775E-02 5.77093E-03-8.98005E-14
 -1      3205 1.43347E-02 5.69476E-03-8.81804E-14
 -1      3206 1.41973E-02 5.61956E-03-8.79120E-14
 -1      3207 1.47632E-02 5.92326E-03-9.30602E-14
 -1      3208 1.46204E-02 5.84709E-03-9.14293E-14
 -1      3209 1.44830E-02 5.77189E-03-9.11651E-14
 -1      3210 1.49416E-02 6.01746E-03-9.56986E-14
 -1      3211 1.48437E-02 5.96580E-03-9.42342E-14
 -1      3212 1.47063E-02 5.89059E-03-9.39736E-14
 -1      3213 1.48673E-02 5.97567E-03-9.63300E-14
 -1      3214 1.41368E-02 5.56607E-03-1.01458E-13
 -1      3215 1.42117E-02 5.60822E-03-1.00839E-13
 -1      3216 9.03941E-04 3.36868E-04-1.17425E-15
 -1      3217 8.48015E-04 3.37849E-04-1.08872E-15
 -1      3218 4.05254E-03 2.94131E-04-8.11547E-15
 -1      3219 3.91707E-03 2.10579E-04-8.06801E-15
 -1      3220 2.23537E-03-1.01888E-04-3.24068E-15
 -1      3221 2.08308E-03-3.31633E-05-2.91645E-15
 -1      3222 4.16639E-03 3.74580E-04-8.70319E-15
 -1      3223 5.19639E-03 9.19648E-04-1.06938E-14
 -1      3224 4.96679E-03 8.20860E-04-1.04800E-14
 -1      3225 8.89175E-04 2.71500E-04-6.01651E-16
 -1      3226 3.67965E-03 6.15178E-05-7.69864E-15
 -1      3227 3.51425E-03-4.14688E-05-7.25441E-15
 -1      3228 5.58316E-03 1.18262E-03-7.61015E-15
 -1      3229 4.66894E-03 6.71579E-04-1.01609E-14
 -1      3230 4.41213E-03 5.26514E-04-9.67553E-15
 -1      3231 3.31353E-03-1.47580E-04-6.64819E-15
 -1      3232 3.13959E-03-2.19141E-04-6.07254E-15
 -1      3233 1.25196E-03-2.99792E-04-1.48213E-15
 -1      3234 1.40966E-03-3.30242E-04-1.81245E-15
 -1      3235 1.08041E-03-2.39427E-04-1.15122E-15
 -1      3236 1.16626E-03-2.69497E-04-1.31099E-15
 -1      3237 1.07058E-03-1.87338E-04-1.11498E-15
 -1      3238 1.35481E-02 5.23345E-03-1.07174E-13
 -1      3239 1.36318E-02 5.28136E-03-1.05927E-13
 -1      3240 1.35455E-02 5.23647E-03-1.04121E-13
 -1      3241 1.34291E-02 5.17003E-03-1.05706E-13
 -1      3242 7.47244E-04 2.65976E-04-8.02147E-16
 -1      3243 7.81491E-04 2.58142E-04-8.44451E-16
 -1      3244 1.56784E-03-3.58702E-04-2.17575E-15
 -1      3245 1.72555E-03-3.84185E-04-2.57255E-15
 -1      3246 1.81347E-03-3.56727E-04-2.74413E-15
 -1      3247 6.74295E-03 1.56690E-03-1.53001E-14
 -1      3248 6.61473E-03 1.49514E-03-1.43801E-14
 -1      3249 6.77060E-03 1.57871E-03-1.60556E-14
 -1      3250 1.12907E-03 2.99109E-04-1.44191E-15
 -1      3251 1.00822E-03 3.20475E-04-1.29761E-15
 -1      3252 2.55664E-03-2.28895E-04-4.09154E-15
 -1      3253 2.39856E-03-1.75067E-04-3.64842E-15
 -1      3254 8.63111E-04 2.47989E-04-9.40803E-16
 -1      3255 9.19815E-04 2.19219E-04-9.82694E-16
 -1      3256 8.32927E-04 3.21325E-04-9.34670E-16
 -1      3257 8.86923E-04 3.24737E-04-9.07037E-16
 -1      3258 5.89032E-03 1.11956E-03-1.08261E-14
 -1      3259 5.78511E-03 1.10042E-03-1.08671E-14
 -1      3260 5.62364E-03 1.06043E-03-1.08395E-14
 -1      3261 5.43102E-03 1.00498E-03-1.08053E-14
 -1      3262 5.73100E-03 1.10075E-03-1.14180E-14
 -1      3263 1.39889E-02 5.48283E-03-1.02677E-13
 -1      3264 1.40625E-02 5.52427E-03-1.02070E-13
 -1      3265 1.39763E-02 5.47938E-03-1.00293E-13
 -1      3266 1.38277E-02 5.39579E-03-1.01504E-13
 -1      3267 1.49343E-03 2.02471E-04-1.92823E-15
 -1      3268 1.31277E-03 2.57070E-04-1.68244E-15
 -1      3269 3.97020E-03 2.50960E-04-8.60900E-15
 -1      3270 3.82289E-03 1.53772E-04-8.14801E-15
 -1      3271 3.74479E-03 1.03982E-04-8.22235E-15
 -1      3272 6.00638E-03 1.14587E-03-1.08125E-14
 -1      3273 5.95598E-03 1.13413E-03-1.08207E-14
 -1      3274 5.94985E-03 1.15274E-03-1.14401E-14
 -1      3275 1.93912E-03-7.95023E-06-2.63530E-15
 -1      3276 9.09281E-04 3.04746E-04-1.11367E-15
 -1      3277 1.05793E-03-9.90178E-05-1.06493E-15
 -1      3278 1.06590E-03-1.43584E-04-1.09098E-15
 -1      3279 1.15427E-03-1.70750E-04-1.24601E-15
 -1      3280 1.33101E-02 5.10662E-03-1.04241E-13
 -1      3281 3.02345E-03-2.51928E-04-5.75008E-15
 -1      3282 2.91201E-03-2.72953E-04-5.43702E-15
 -1      3283 3.10588E-03-2.28898E-04-6.20207E-15
 -1      3284 1.18049E-03 2.55067E-04-1.44894E-15
 -1      3285 1.41254E-02 5.56333E-03-9.90712E-14
 -1      3286 1.42866E-02 5.65037E-03-1.00220E-13
 -1      3287 1.43615E-02 5.69253E-03-9.95984E-14
 -1      3288 1.55715E-03 1.42265E-04-1.97879E-15
 -1      3289 1.44364E-02 5.73468E-03-9.89762E-14
 -1      3290 1.45113E-02 5.77683E-03-9.83494E-14
 -1      3291 1.42752E-02 5.64764E-03-9.78379E-14
 -1      3292 1.33046E-02 5.10565E-03-1.02839E-13
 -1      3293 2.62783E-03-2.59038E-04-4.38970E-15
 -1      3294 7.89465E-04 2.98405E-04-9.10940E-16
 -1      3295 8.18652E-04 3.23848E-04-9.91740E-16
 -1      3296 4.23133E-03 4.17542E-04-9.22416E-15
 -1      3297 4.14115E-03 3.60005E-04-9.04296E-15
 -1      3298 5.34669E-03 9.80214E-04-1.12727E-14
 -1      3299 1.24472E-03-2.45354E-04-1.44058E-15
 -1      3300 3.40949E-03-9.58529E-05-7.14178E-15
 -1      3301 5.98386E-03 1.12867E-03-9.76159E-15
 -1      3302 6.02241E-03 1.14445E-03-1.02912E-14
 -1      3303 5.99308E-03 1.15350E-03-9.84367E-15
 -1      3304 2.27902E-03-1.56972E-04-3.39258E-15
 -1      3305 4.83452E-03 7.53784E-04-1.08270E-14
 -1      3306 4.38275E-03 5.04171E-04-1.00282E-14
 -1      3307 6.53000E-03 1.44184E-03-1.41615E-14
 -1      3308 1.49195E-03-3.04012E-04-1.96170E-15
 -1      3309 1.45801E-02 5.81542E-03-9.78660E-14
 -1      3310 1.46490E-02 5.85400E-03-9.73819E-14
 -1      3311 1.44190E-02 5.72838E-03-9.67401E-14
 -1      3312 6.11635E-03 1.21032E-03-1.09389E-14
 -1      3313 6.05573E-03 1.20240E-03-1.03225E-14
 -1      3314 1.53711E-03 5.48582E-04-1.05309E-15
 -1      3315 1.08067E-03 2.17042E-04-1.22904E-15
 -1      3316 9.56117E-04 1.60815E-04-9.71120E-16
 -1      3317 1.00306E-03 1.18180E-04-1.00877E-15
 -1      3318 1.24438E-03 1.76144E-04-1.44816E-15
 -1      3319 1.02777E-03-7.76731E-06-1.00602E-15
 -1      3320 1.04563E-03-5.35099E-05-1.03627E-15
 -1      3321 1.13710E-03-7.69702E-05-1.18572E-15
 -1      3322 9.56839E-04 3.50831E-04-9.71947E-16
 -1      3323 1.06362E-03 3.69357E-04-9.51570E-16
 -1      3324 4.04423E-03 2.95589E-04-9.12253E-15
 -1      3325 2.69891E-03-2.85486E-04-4.75570E-15
 -1      3326 2.50703E-03-2.62403E-04-4.14703E-15
 -1      3327 1.33628E-02 5.13887E-03-1.02057E-13
 -1      3328 2.38508E-03-3.76913E-04-4.36597E-15
 -1      3329 2.54077E-03-3.75942E-04-4.91732E-15
 -1      3330 2.69388E-03-3.63096E-04-5.50216E-15
 -1      3331 2.84626E-03-3.36730E-04-6.12113E-15
 -1      3332 2.64329E-03-3.46960E-04-5.12142E-15
 -1      3333 2.99756E-03-2.96456E-04-6.77186E-15
 -1      3334 3.15055E-03-2.42888E-04-7.45458E-15
 -1      3335 2.95303E-03-2.95772E-04-6.34466E-15
 -1      3336 3.30482E-03-1.76959E-04-8.17022E-15
 -1      3337 3.46185E-03-1.01497E-04-8.91572E-15
 -1      3338 3.26440E-03-1.83753E-04-7.69873E-15
 -1      3339 3.62111E-03-1.82779E-05-9.69063E-15
 -1      3340 3.78251E-03 6.94416E-05-1.04936E-14
 -1      3341 3.58579E-03-2.42192E-05-9.17799E-15
 -1      3342 3.94564E-03 1.60084E-04-1.13248E-14
 -1      3343 4.10916E-03 2.51325E-04-1.21839E-14
 -1      3344 3.91725E-03 1.59125E-04-1.07737E-14
 -1      3345 4.27281E-03 3.42259E-04-1.30683E-14
 -1      3346 4.43549E-03 4.31735E-04-1.39773E-14
 -1      3347 4.25238E-03 3.46059E-04-1.24791E-14
 -1      3348 4.59708E-03 5.19386E-04-1.49111E-14
 -1      3349 4.75677E-03 6.05061E-04-1.58687E-14
 -1      3350 4.58382E-03 5.25912E-04-1.42863E-14
 -1      3351 4.91473E-03 6.88659E-04-1.68484E-14
 -1      3352 5.07055E-03 7.70488E-04-1.78505E-14
 -1      3353 4.90701E-03 6.95711E-04-1.61878E-14
 -1      3354 5.22453E-03 8.50568E-04-1.88748E-14
 -1      3355 5.37658E-03 9.29329E-04-1.99210E-14
 -1      3356 5.22051E-03 8.56721E-04-1.81796E-14
 -1      3357 5.52701E-03 1.00683E-03-2.09889E-14
 -1      3358 5.67590E-03 1.08345E-03-2.20776E-14
 -1      3359 5.52508E-03 1.01148E-03-2.02582E-14
 -1      3360 5.82351E-03 1.15925E-03-2.31872E-14
 -1      3361 5.97000E-03 1.23452E-03-2.43175E-14
 -1      3362 5.82248E-03 1.16234E-03-2.24220E-14
 -1      3363 6.11556E-03 1.30931E-03-2.54675E-14
 -1      3364 6.26036E-03 1.38382E-03-2.66393E-14
 -1      3365 6.11467E-03 1.31105E-03-2.46696E-14
 -1      3366 6.40455E-03 1.45810E-03-2.78301E-14
 -1      3367 6.54826E-03 1.53226E-03-2.90404E-14
 -1      3368 6.40332E-03 1.45880E-03-2.69984E-14
 -1      3369 6.69159E-03 1.60634E-03-3.02704E-14
 -1      3370 6.83464E-03 1.68042E-03-3.15183E-14
 -1      3371 6.68979E-03 1.60631E-03-2.94071E-14
 -1      3372 6.97747E-03 1.75452E-03-3.27833E-14
 -1      3373 7.12017E-03 1.82868E-03-3.40662E-14
 -1      3374 6.97504E-03 1.75401E-03-3.18898E-14
 -1      3375 7.26276E-03 1.90292E-03-3.53657E-14
 -1      3376 7.40531E-03 1.97726E-03-3.66815E-14
 -1      3377 7.25969E-03 1.90213E-03-3.44417E-14
 -1      3378 7.54781E-03 2.05170E-03-3.80138E-14
 -1      3379 7.69031E-03 2.12626E-03-3.93616E-14
 -1      3380 7.54417E-03 2.05075E-03-3.70598E-14
 -1      3381 7.83282E-03 2.20093E-03-4.07261E-14
 -1      3382 7.97534E-03 2.27572E-03-4.21064E-14
 -1      3383 7.82869E-03 2.19991E-03-3.97427E-14
 -1      3384 8.11789E-03 2.35063E-03-4.35009E-14
 -1      3385 8.26047E-03 2.42565E-03-4.49109E-14
 -1      3386 8.11337E-03 2.34959E-03-4.24893E-14
 -1      3387 8.40308E-03 2.50078E-03-4.63354E-14
 -1      3388 8.54572E-03 2.57600E-03-4.77747E-14
 -1      3389 8.39825E-03 2.49974E-03-4.52956E-14
 -1      3390 8.68839E-03 2.65133E-03-4.92306E-14
 -1      3391 8.83109E-03 2.72675E-03-5.07005E-14
 -1      3392 8.68332E-03 2.65031E-03-4.81615E-14
 -1      3393 8.97382E-03 2.80224E-03-5.21824E-14
 -1      3394 9.11657E-03 2.87782E-03-5.36793E-14
 -1      3395 8.96858E-03 2.80124E-03-5.10865E-14
 -1      3396 9.25934E-03 2.95347E-03-5.51906E-14
 -1      3397 9.40213E-03 3.02918E-03-5.67132E-14
 -1      3398 9.25398E-03 2.95248E-03-5.40665E-14
 -1      3399 9.54494E-03 3.10494E-03-5.82498E-14
 -1      3400 9.68776E-03 3.18076E-03-5.97971E-14
 -1      3401 9.53950E-03 3.10397E-03-5.71022E-14
 -1      3402 9.83059E-03 3.25663E-03-6.13553E-14
 -1      3403 9.97343E-03 3.33254E-03-6.29264E-14
 -1      3404 9.82510E-03 3.25567E-03-6.01846E-14
 -1      3405 1.01163E-02 3.40849E-03-6.45043E-14
 -1      3406 1.02591E-02 3.48447E-03-6.60937E-14
 -1      3407 1.01108E-02 3.40753E-03-6.33098E-14
 -1      3408 1.04020E-02 3.56048E-03-6.76964E-14
 -1      3409 1.05449E-02 3.63652E-03-6.93045E-14
 -1      3410 1.03965E-02 3.55953E-03-6.64794E-14
 -1      3411 1.06877E-02 3.71257E-03-7.09198E-14
 -1      3412 1.08306E-02 3.78865E-03-7.25479E-14
 -1      3413 1.06822E-02 3.71162E-03-6.96860E-14
 -1      3414 1.09735E-02 3.86474E-03-7.41790E-14
 -1      3415 1.11163E-02 3.94085E-03-7.58164E-14
 -1      3416 1.09679E-02 3.86379E-03-7.29243E-14
 -1      3417 1.12592E-02 4.01697E-03-7.74639E-14
 -1      3418 1.14021E-02 4.09311E-03-7.91143E-14
 -1      3419 1.12537E-02 4.01602E-03-7.61904E-14
 -1      3420 1.15450E-02 4.16925E-03-8.07693E-14
 -1      3421 1.16878E-02 4.24539E-03-8.24322E-14
 -1      3422 1.15394E-02 4.16829E-03-7.94801E-14
 -1      3423 1.18307E-02 4.32155E-03-8.41031E-14
 -1      3424 1.19736E-02 4.39771E-03-8.57813E-14
 -1      3425 1.18252E-02 4.32059E-03-8.27952E-14
 -1      3426 1.21164E-02 4.47387E-03-8.74651E-14
 -1      3427 1.22593E-02 4.55004E-03-8.91548E-14
 -1      3428 1.21109E-02 4.47291E-03-8.61410E-14
 -1      3429 1.24022E-02 4.62621E-03-9.08503E-14
 -1      3430 1.25451E-02 4.70238E-03-9.25494E-14
 -1      3431 1.23967E-02 4.62524E-03-8.95108E-14
 -1      3432 1.26879E-02 4.77855E-03-9.42522E-14
 -1      3433 1.28308E-02 4.85473E-03-9.59608E-14
 -1      3434 1.26824E-02 4.77759E-03-9.28981E-14
 -1      3435 1.29736E-02 4.93090E-03-9.76713E-14
 -1      3436 1.31165E-02 5.00708E-03-9.93881E-14
 -1      3437 1.29682E-02 4.92994E-03-9.63007E-14
 -1      3438 1.35174E-02 5.22480E-03-1.01539E-13
 -1      3439 1.35923E-02 5.26695E-03-1.00933E-13
 -1      3440 1.97990E-03-6.80493E-05-2.72651E-15
 -1      3441 1.80700E-03 1.01221E-06-2.37943E-15
 -1      3442 7.04565E-03 1.73792E-03-1.87899E-14
 -1      3443 6.91647E-03 1.66371E-03-1.77922E-14
 -1      3444 7.32446E-03 1.89727E-03-2.09536E-14
 -1      3445 7.18389E-03 1.81696E-03-1.98605E-14
 -1      3446 7.06453E-03 1.75211E-03-1.96406E-14
 -1      3447 6.34097E-03 1.33278E-03-1.30138E-14
 -1      3448 6.23741E-03 1.27323E-03-1.21488E-14
 -1      3449 7.59700E-03 2.05207E-03-2.31041E-14
 -1      3450 7.46001E-03 1.97436E-03-2.20184E-14
 -1      3451 7.33562E-03 1.90606E-03-2.17892E-14
 -1      3452 7.87411E-03 2.20834E-03-2.53317E-14
 -1      3453 7.73507E-03 2.13006E-03-2.42076E-14
 -1      3454 7.60701E-03 2.05939E-03-2.39691E-14
 -1      3455 8.15429E-03 2.36514E-03-2.76319E-14
 -1      3456 8.01387E-03 2.28670E-03-2.64726E-14
 -1      3457 7.88309E-03 2.21440E-03-2.62255E-14
 -1      3458 8.43647E-03 2.52189E-03-3.00066E-14
 -1      3459 8.29516E-03 2.44353E-03-2.88116E-14
 -1      3460 8.16238E-03 2.37014E-03-2.85586E-14
 -1      3461 8.71996E-03 2.67829E-03-3.24469E-14
 -1      3462 8.57807E-03 2.60014E-03-3.12181E-14
 -1      3463 8.44383E-03 2.52603E-03-3.09604E-14
 -1      3464 9.01852E-03 2.84197E-03-3.50778E-14
 -1      3465 8.86914E-03 2.76020E-03-3.37539E-14
 -1      3466 8.73384E-03 2.68562E-03-3.34913E-14
 -1      3467 9.30342E-03 2.99732E-03-3.76496E-14
 -1      3468 9.16091E-03 2.91971E-03-3.63558E-14
 -1      3469 9.02486E-03 2.84484E-03-3.60877E-14
 -1      3470 9.58864E-03 3.15213E-03-4.02805E-14
 -1      3471 9.44599E-03 3.07479E-03-3.89584E-14
 -1      3472 9.30944E-03 2.99974E-03-3.86850E-14
 -1      3473 9.87408E-03 3.30648E-03-4.29756E-14
 -1      3474 9.73134E-03 3.22936E-03-4.16195E-14
 -1      3475 9.59444E-03 3.15421E-03-4.13441E-14
 -1      3476 1.01597E-02 3.46040E-03-4.57289E-14
 -1      3477 1.00169E-02 3.38349E-03-4.43441E-14
 -1      3478 9.87972E-03 3.30828E-03-4.40637E-14
 -1      3479 1.04453E-02 3.61398E-03-4.85395E-14
 -1      3480 1.03025E-02 3.53723E-03-4.71268E-14
 -1      3481 1.01652E-02 3.46200E-03-4.68421E-14
 -1      3482 1.07453E-02 3.77493E-03-5.15485E-14
 -1      3483 1.05953E-02 3.69449E-03-5.00377E-14
 -1      3484 1.04579E-02 3.61924E-03-4.97468E-14
 -1      3485 1.10310E-02 3.92797E-03-5.44647E-14
 -1      3486 1.08882E-02 3.85147E-03-5.30020E-14
 -1      3487 1.07507E-02 3.77622E-03-5.27080E-14
 -1      3488 1.13168E-02 4.08082E-03-5.74209E-14
 -1      3489 1.11739E-02 4.00441E-03-5.59364E-14
 -1      3490 1.10364E-02 3.92917E-03-5.56423E-14
 -1      3491 1.16025E-02 4.23353E-03-6.04207E-14
 -1      3492 1.14596E-02 4.15719E-03-5.89160E-14
 -1      3493 1.13221E-02 4.08195E-03-5.86213E-14
 -1      3494 1.18883E-02 4.38614E-03-6.34618E-14
 -1      3495 1.17454E-02 4.30985E-03-6.19361E-14
 -1      3496 1.16079E-02 4.23461E-03-6.16410E-14
 -1      3497 1.21883E-02 4.54628E-03-6.66979E-14
 -1      3498 1.20383E-02 4.46622E-03-6.50749E-14
 -1      3499 1.19008E-02 4.39099E-03-6.47774E-14
 -1      3500 1.24740E-02 4.69873E-03-6.98199E-14
 -1      3501 1.23312E-02 4.62251E-03-6.82541E-14
 -1      3502 1.21937E-02 4.54729E-03-6.79554E-14
 -1      3503 1.27598E-02 4.85115E-03-7.29797E-14
 -1      3504 1.26169E-02 4.77494E-03-7.13945E-14
 -1      3505 1.24794E-02 4.69973E-03-7.10957E-14
 -1      3506 1.30455E-02 5.00353E-03-7.61736E-14
 -1      3507 1.29026E-02 4.92734E-03-7.45733E-14
 -1      3508 1.27652E-02 4.85212E-03-7.42730E-14
 -1      3509 1.33312E-02 5.15589E-03-7.93848E-14
 -1      3510 1.31884E-02 5.07971E-03-7.77773E-14
 -1      3511 1.30509E-02 5.00450E-03-7.74795E-14
 -1      3512 1.36170E-02 5.30823E-03-8.26119E-14
 -1      3513 1.34741E-02 5.23206E-03-8.09973E-14
 -1      3514 1.33367E-02 5.15685E-03-8.07041E-14
 -1      3515 1.39170E-02 5.46819E-03-8.60133E-14
 -1      3516 1.37670E-02 5.38821E-03-8.43100E-14
 -1      3517 1.36296E-02 5.31301E-03-8.40235E-14
 -1      3518 1.42027E-02 5.62052E-03-8.92632E-14
 -1      3519 1.40598E-02 5.54436E-03-8.76369E-14
 -1      3520 1.39224E-02 5.46915E-03-8.73546E-14
 -1      3521 1.44884E-02 5.77286E-03-9.25299E-14
 -1      3522 1.43456E-02 5.69669E-03-9.08925E-14
 -1      3523 1.42082E-02 5.62149E-03-9.06186E-14
 -1      3524 1.23841E-03-1.51696E-04-1.38088E-15
 -1      3525 1.24303E-03-1.99124E-04-1.41212E-15
 -1      3526 1.33167E-03-2.28290E-04-1.58956E-15
 -1      3527 6.55513E-03 1.45580E-03-1.48888E-14
 -1      3528 6.44589E-03 1.39262E-03-1.39394E-14
 -1      3529 6.36153E-03 1.34735E-03-1.37138E-14
 -1      3530 1.61329E-03 6.98986E-05-2.02929E-15
 -1      3531 1.42851E-03 1.36727E-04-1.73527E-15
 -1      3532 1.29547E-03 1.14474E-04-1.48353E-15
 -1      3533 1.66054E-03 9.14522E-06-2.10272E-15
 -1      3534 5.50008E-03 1.04117E-03-1.19771E-14
 -1      3535 5.28875E-03 9.61636E-04-1.18567E-14
 -1      3536 5.84046E-03 1.14243E-03-1.20379E-14
 -1      3537 5.68820E-03 1.10138E-03-1.20073E-14
 -1      3538 4.45166E-03 5.35620E-04-1.07279E-14
 -1      3539 4.28620E-03 4.38352E-04-1.02540E-14
 -1      3540 2.06665E-03-3.50889E-04-3.36397E-15
 -1      3541 2.22717E-03-3.67315E-04-3.84802E-15
 -1      3542 2.32533E-03-3.41817E-04-4.03277E-15
 -1      3543 6.15890E-03 1.22836E-03-1.14954E-14
 -1      3544 6.08489E-03 1.18280E-03-1.09218E-14
 -1      3545 6.04874E-03 1.16206E-03-1.08324E-14
 -1      3546 6.18606E-03 1.24466E-03-1.21280E-14
 -1      3547 1.49463E-03-2.56658E-04-1.92481E-15
 -1      3548 1.00685E-03 7.73620E-05-9.92994E-16
 -1      3549 1.03826E-03 3.13446E-05-1.02678E-15
 -1      3550 1.13290E-03 1.25128E-05-1.17353E-15
 -1      3551 1.13573E-03 1.00372E-04-1.20756E-15
 -1      3552 2.28425E-03-2.02582E-04-3.48864E-15
 -1      3553 2.13857E-03-1.38244E-04-3.09373E-15
 -1      3554 1.99926E-03-1.24846E-04-2.80720E-15
 -1      3555 3.50900E-03-3.94243E-05-7.71674E-15
 -1      3556 3.32109E-03-1.40733E-04-7.08817E-15
 -1      3557 9.81153E-04 3.00802E-04-6.50711E-16
 -1      3558 1.74058E-03-3.03673E-04-2.49486E-15
 -1      3559 1.90417E-03-3.28813E-04-2.91301E-15
 -1      3560 1.99671E-03-3.01598E-04-3.07865E-15
 -1      3561 6.79036E-03 1.59142E-03-1.68157E-14
 -1      3562 6.66768E-03 1.52078E-03-1.58613E-14
 -1      3563 6.80379E-03 1.60361E-03-1.75822E-14
 -1      3564 1.47237E-02 5.89554E-03-9.71040E-14
 -1      3565 1.47925E-02 5.93413E-03-9.66131E-14
 -1      3566 1.47120E-02 5.89159E-03-9.54323E-14
 -1      3567 1.45625E-02 5.80851E-03-9.59860E-14
 -1      3568 5.98435E-03 1.19524E-03-9.78665E-15
 -1      3569 5.02763E-03 8.45549E-04-1.16952E-14
 -1      3570 4.76147E-03 7.09632E-04-1.13549E-14
 -1      3571 8.92863E-04 3.01005E-04-7.81317E-16
 -1      3572 4.12675E-03 3.41233E-04-9.79186E-15
 -1      3573 3.97099E-03 2.42824E-04-9.33934E-15
 -1      3574 4.20839E-03 3.79511E-04-1.04781E-14
 -1      3575 3.80105E-03 1.37275E-04-8.74401E-15
 -1      3576 3.66937E-03 5.50001E-05-8.27897E-15
 -1      3577 3.57137E-03-6.91273E-06-8.21753E-15
 -1      3578 3.89128E-03 1.85673E-04-9.39469E-15
 -1      3579 5.85576E-03 1.16539E-03-8.95396E-15
 -1      3580 5.74133E-03 1.17299E-03-8.37404E-15
 -1      3581 2.36824E-03-2.52823E-04-3.80647E-15
 -1      3582 2.78585E-03-2.92601E-04-5.16061E-15
 -1      3583 1.32052E-02 5.05501E-03-1.00009E-13
 -1      3584 1.34460E-02 5.18584E-03-1.01284E-13
 -1      3585 6.06847E-03 1.18454E-03-1.14559E-14
 -1      3586 1.35054E-02 5.22170E-03-9.91580E-14
 -1      3587 1.36666E-02 5.30875E-03-1.00333E-13
 -1      3588 1.37408E-02 5.35054E-03-9.97319E-14
 -1      3589 5.20352E-03 9.22276E-04-1.24120E-14
 -1      3590 1.39643E-02 5.47629E-03-9.79193E-14
 -1      3591 1.40392E-02 5.51845E-03-9.73095E-14
 -1      3592 1.22970E-03-1.02548E-04-1.34643E-15
 -1      3593 1.32262E-03-1.29993E-04-1.51815E-15
 -1      3594 1.21509E-03-5.20366E-05-1.30959E-15
 -1      3595 1.46316E-02 5.84905E-03-9.42518E-14
 -1      3596 1.41141E-02 5.56060E-03-9.67003E-14
 -1      3597 1.41890E-02 5.60275E-03-9.60852E-14
 -1      3598 1.39529E-02 5.47356E-03-9.55596E-14
 -1      3599 6.57059E-03 1.46952E-03-1.56222E-14
 -1      3600 5.95650E-03 1.17479E-03-1.21391E-14
 -1      3601 5.93237E-03 1.18324E-03-1.27467E-14
 -1      3602 5.63627E-03 1.09253E-03-1.26115E-14
 -1      3603 4.85101E-03 7.40267E-04-1.24846E-14
 -1      3604 4.65462E-03 6.43474E-04-1.15931E-14
 -1      3605 4.56220E-03 5.79327E-04-1.18274E-14
 -1      3606 1.57860E-03-2.27367E-04-2.06618E-15
 -1      3607 6.02690E-03 1.19184E-03-1.21341E-14
 -1      3608 1.44942E-02 5.77385E-03-9.39789E-14
 -1      3609 1.42578E-02 5.64134E-03-9.56066E-14
 -1      3610 1.43266E-02 5.67993E-03-9.51308E-14
 -1      3611 1.40966E-02 5.55430E-03-9.44796E-14
 -1      3612 1.38154E-02 5.39252E-03-9.91268E-14
 -1      3613 1.38897E-02 5.43432E-03-9.85263E-14
 -1      3614 1.38034E-02 5.38943E-03-9.67661E-14
 -1      3615 1.36542E-02 5.30548E-03-9.79646E-14
 -1      3616 1.31997E-02 5.05405E-03-9.86264E-14
 -1      3617 1.92072E-03-2.46488E-04-2.80499E-15
 -1      3618 2.09185E-03-2.74928E-04-3.24128E-15
 -1      3619 6.14345E-03 1.22720E-03-1.21454E-14
 -1      3620 6.08760E-03 1.20875E-03-1.21239E-14
 -1      3621 6.10935E-03 1.23474E-03-1.28399E-14
 -1      3622 6.21986E-03 1.27137E-03-1.28132E-14
 -1      3623 2.89445E-03-2.93895E-04-5.80182E-15
 -1      3624 3.05330E-03-2.54007E-04-6.43283E-15
 -1      3625 3.25716E-03-1.75849E-04-7.33258E-15
 -1      3626 3.42051E-03-9.83950E-05-8.04108E-15
 -1      3627 3.56736E-03-1.76818E-05-8.61637E-15
 -1      3628 3.73794E-03 7.76518E-05-9.37786E-15
 -1      3629 3.89310E-03 1.70086E-04-9.99409E-15
 -1      3630 4.06827E-03 2.69938E-04-1.08063E-14
 -1      3631 4.57177E-03 5.34443E-04-1.36678E-14
 -1      3632 4.73766E-03 6.21192E-04-1.45899E-14
 -1      3633 4.90097E-03 7.04801E-04-1.55341E-14
 -1      3634 5.06095E-03 7.85881E-04-1.65018E-14
 -1      3635 4.89688E-03 7.16034E-04-1.48880E-14
 -1      3636 5.21816E-03 8.64569E-04-1.74916E-14
 -1      3637 5.37256E-03 9.41696E-04-1.85027E-14
 -1      3638 5.21781E-03 8.74297E-04-1.68105E-14
 -1      3639 5.52462E-03 1.01737E-03-1.95359E-14
 -1      3640 5.67454E-03 1.09219E-03-2.05905E-14
 -1      3641 5.52594E-03 1.02466E-03-1.88203E-14
 -1      3642 5.82268E-03 1.16623E-03-2.16647E-14
 -1      3643 5.96932E-03 1.23990E-03-2.27607E-14
 -1      3644 5.82432E-03 1.17104E-03-2.09153E-14
 -1      3645 6.11473E-03 1.31324E-03-2.38787E-14
 -1      3646 6.25917E-03 1.38650E-03-2.50157E-14
 -1      3647 6.11593E-03 1.31594E-03-2.30941E-14
 -1      3648 6.40284E-03 1.45969E-03-2.61739E-14
 -1      3649 6.54593E-03 1.53295E-03-2.73518E-14
 -1      3650 6.40320E-03 1.46080E-03-2.53558E-14
 -1      3651 6.68857E-03 1.60630E-03-2.85504E-14
 -1      3652 6.83091E-03 1.67978E-03-2.97685E-14
 -1      3653 6.68798E-03 1.60630E-03-2.76999E-14
 -1      3654 6.97304E-03 1.75341E-03-3.10024E-14
 -1      3655 7.11504E-03 1.82722E-03-3.22538E-14
 -1      3656 6.97150E-03 1.75271E-03-3.01218E-14
 -1      3657 7.25696E-03 1.90119E-03-3.35246E-14
 -1      3658 7.39887E-03 1.97533E-03-3.48110E-14
 -1      3659 7.25457E-03 1.90008E-03-3.26134E-14
 -1      3660 7.54079E-03 2.04963E-03-3.61142E-14
 -1      3661 7.68275E-03 2.12410E-03-3.74326E-14
 -1      3662 7.53767E-03 2.04833E-03-3.51747E-14
 -1      3663 7.82476E-03 2.19872E-03-3.87669E-14
 -1      3664 7.96685E-03 2.27349E-03-4.01186E-14
 -1      3665 7.82104E-03 2.19735E-03-3.77994E-14
 -1      3666 8.10900E-03 2.34839E-03-4.14848E-14
 -1      3667 8.25123E-03 2.42342E-03-4.28661E-14
 -1      3668 8.10479E-03 2.34702E-03-4.04869E-14
 -1      3669 8.39353E-03 2.49857E-03-4.42624E-14
 -1      3670 8.53591E-03 2.57382E-03-4.56739E-14
 -1      3671 8.38894E-03 2.49725E-03-4.32373E-14
 -1      3672 8.67835E-03 2.64918E-03-4.71008E-14
 -1      3673 8.82085E-03 2.72462E-03-4.85425E-14
 -1      3674 8.67347E-03 2.64792E-03-4.60470E-14
 -1      3675 8.96341E-03 2.80015E-03-4.99973E-14
 -1      3676 9.10602E-03 2.87575E-03-5.14669E-14
 -1      3677 8.95831E-03 2.79896E-03-4.89151E-14
 -1      3678 9.24867E-03 2.95143E-03-5.29516E-14
 -1      3679 9.39137E-03 3.02716E-03-5.44493E-14
 -1      3680 9.24342E-03 2.95029E-03-5.18429E-14
 -1      3681 9.53409E-03 3.10295E-03-5.59609E-14
 -1      3682 9.67685E-03 3.17879E-03-5.74850E-14
 -1      3683 9.52873E-03 3.10187E-03-5.48272E-14
 -1      3684 9.81963E-03 3.25467E-03-5.90204E-14
 -1      3685 9.96244E-03 3.33059E-03-6.05654E-14
 -1      3686 9.81420E-03 3.25363E-03-5.78615E-14
 -1      3687 1.01053E-02 3.40655E-03-6.21229E-14
 -1      3688 1.02481E-02 3.48254E-03-6.36915E-14
 -1      3689 1.00998E-02 3.40554E-03-6.09425E-14
 -1      3690 1.03909E-02 3.55856E-03-6.52683E-14
 -1      3691 1.05338E-02 3.63460E-03-6.68584E-14
 -1      3692 1.03854E-02 3.55757E-03-6.40666E-14
 -1      3693 1.06767E-02 3.71066E-03-6.84576E-14
 -1      3694 1.08195E-02 3.78674E-03-7.00618E-14
 -1      3695 1.06711E-02 3.70968E-03-6.72300E-14
 -1      3696 1.09624E-02 3.86283E-03-7.16741E-14
 -1      3697 1.11053E-02 3.93894E-03-7.32940E-14
 -1      3698 1.09569E-02 3.86187E-03-7.04302E-14
 -1      3699 1.12482E-02 4.01506E-03-7.49222E-14
 -1      3700 1.13910E-02 4.09119E-03-7.65577E-14
 -1      3701 1.12426E-02 4.01410E-03-7.36607E-14
 -1      3702 1.15339E-02 4.16733E-03-7.81986E-14
 -1      3703 1.16768E-02 4.24348E-03-7.98428E-14
 -1      3704 1.15284E-02 4.16637E-03-7.69185E-14
 -1      3705 1.18197E-02 4.31963E-03-8.14931E-14
 -1      3706 1.19626E-02 4.39579E-03-8.31547E-14
 -1      3707 1.18142E-02 4.31867E-03-8.01989E-14
 -1      3708 1.21054E-02 4.47195E-03-8.48220E-14
 -1      3709 1.22483E-02 4.54812E-03-8.64958E-14
 -1      3710 1.20999E-02 4.47099E-03-8.35074E-14
 -1      3711 1.23912E-02 4.62428E-03-8.81769E-14
 -1      3712 1.25341E-02 4.70045E-03-8.98618E-14
 -1      3713 1.23857E-02 4.62332E-03-8.68479E-14
 -1      3714 1.26769E-02 4.77662E-03-9.15484E-14
 -1      3715 1.28198E-02 4.85280E-03-9.32396E-14
 -1      3716 1.26714E-02 4.77566E-03-9.02068E-14
 -1      3717 1.29627E-02 4.92897E-03-9.49350E-14
 -1      3718 1.31055E-02 5.00514E-03-9.66355E-14
 -1      3719 1.29572E-02 4.92801E-03-9.35780E-14
 -1      3720 3.16158E-03-2.13681E-04-6.78099E-15
 -1      3721 7.07635E-03 1.76387E-03-2.04730E-14
 -1      3722 6.94095E-03 1.68761E-03-1.93902E-14
 -1      3723 7.34084E-03 1.91258E-03-2.26022E-14
 -1      3724 7.20763E-03 1.83765E-03-2.15271E-14
 -1      3725 7.07886E-03 1.77095E-03-2.12598E-14
 -1      3726 8.16965E-03 2.37502E-03-2.94904E-14
 -1      3727 8.02991E-03 2.29756E-03-2.83000E-14
 -1      3728 8.45065E-03 2.53009E-03-3.19199E-14
 -1      3729 8.30991E-03 2.45253E-03-3.06971E-14
 -1      3730 8.17620E-03 2.37966E-03-3.04273E-14
 -1      3731 8.74735E-03 2.69287E-03-3.45413E-14
 -1      3732 8.59882E-03 2.61149E-03-3.32227E-14
 -1      3733 8.46402E-03 2.53783E-03-3.29483E-14
 -1      3734 9.03098E-03 2.84766E-03-3.71023E-14
 -1      3735 8.88905E-03 2.77029E-03-3.58144E-14
 -1      3736 8.75344E-03 2.69610E-03-3.55357E-14
 -1      3737 9.31533E-03 3.00213E-03-3.97271E-14
 -1      3738 9.17308E-03 2.92493E-03-3.84067E-14
 -1      3739 9.03688E-03 2.85039E-03-3.81231E-14
 -1      3740 9.60015E-03 3.15626E-03-4.24125E-14
 -1      3741 9.45769E-03 3.07924E-03-4.10616E-14
 -1      3742 9.32107E-03 3.00445E-03-4.07734E-14
 -1      3743 9.88531E-03 3.31006E-03-4.51579E-14
 -1      3744 9.74270E-03 3.23320E-03-4.37783E-14
 -1      3745 9.60578E-03 3.15826E-03-4.34863E-14
 -1      3746 1.01707E-02 3.46357E-03-4.79600E-14
 -1      3747 1.00280E-02 3.38685E-03-4.65522E-14
 -1      3748 9.89086E-03 3.31180E-03-4.62562E-14
 -1      3749 1.04705E-02 3.62447E-03-5.09608E-14
 -1      3750 1.03206E-02 3.54405E-03-4.94533E-14
 -1      3751 1.01833E-02 3.46893E-03-4.91541E-14
 -1      3752 1.07561E-02 3.77750E-03-5.38735E-14
 -1      3753 1.06133E-02 3.70101E-03-5.24114E-14
 -1      3754 1.04760E-02 3.62585E-03-5.21080E-14
 -1      3755 1.10418E-02 3.93035E-03-5.68260E-14
 -1      3756 1.08990E-02 3.85394E-03-5.53439E-14
 -1      3757 1.07616E-02 3.77876E-03-5.50411E-14
 -1      3758 1.13275E-02 4.08307E-03-5.98273E-14
 -1      3759 1.11847E-02 4.00672E-03-5.83202E-14
 -1      3760 1.10472E-02 3.93152E-03-5.80171E-14
 -1      3761 1.16133E-02 4.23568E-03-6.28651E-14
 -1      3762 1.14704E-02 4.15938E-03-6.13402E-14
 -1      3763 1.13330E-02 4.08417E-03-6.10365E-14
 -1      3764 1.19133E-02 4.39583E-03-6.60987E-14
 -1      3765 1.17633E-02 4.31576E-03-6.44771E-14
 -1      3766 1.16259E-02 4.24054E-03-6.41705E-14
 -1      3767 1.21991E-02 4.54829E-03-6.92184E-14
 -1      3768 1.20562E-02 4.47207E-03-6.76538E-14
 -1      3769 1.19188E-02 4.39685E-03-6.73481E-14
 -1      3770 1.24849E-02 4.70071E-03-7.23770E-14
 -1      3771 1.23420E-02 4.62451E-03-7.07930E-14
 -1      3772 1.22045E-02 4.54929E-03-7.04865E-14
 -1      3773 1.27706E-02 4.85310E-03-7.55714E-14
 -1      3774 1.26277E-02 4.77691E-03-7.39701E-14
 -1      3775 1.24903E-02 4.70169E-03-7.36639E-14
 -1      3776 1.30564E-02 5.00547E-03-7.87896E-14
 -1      3777 1.29135E-02 4.92928E-03-7.71783E-14
 -1      3778 1.27761E-02 4.85407E-03-7.68717E-14
 -1      3779 1.33421E-02 5.15782E-03-8.20261E-14
 -1      3780 1.31992E-02 5.08164E-03-8.04065E-14
 -1      3781 1.30618E-02 5.00643E-03-8.01038E-14
 -1      3782 1.36421E-02 5.31778E-03-8.54403E-14
 -1      3783 1.34921E-02 5.23780E-03-8.37332E-14
 -1      3784 1.33547E-02 5.16259E-03-8.34362E-14
 -1      3785 1.39279E-02 5.47011E-03-8.87028E-14
 -1      3786 1.37850E-02 5.39394E-03-8.70687E-14
 -1      3787 1.36476E-02 5.31874E-03-8.67801E-14
 -1      3788 1.37917E-02 5.38652E-03-9.44175E-14
 -1      3789 1.38666E-02 5.42867E-03-9.38172E-14
 -1      3790 1.44194E-02 5.73231E-03-9.42512E-14
 -1      3791 2.69345E-03-3.20610E-04-5.08994E-15
 -1      3792 7.61183E-03 2.06453E-03-2.48127E-14
 -1      3793 7.47565E-03 1.98821E-03-2.36972E-14
 -1      3794 7.34404E-03 1.91841E-03-2.34201E-14
 -1      3795 2.53178E-03-3.21803E-04-4.53306E-15
 -1      3796 7.89085E-03 2.22028E-03-2.71277E-14
 -1      3797 7.75256E-03 2.14317E-03-2.59751E-14
 -1      3798 7.89759E-03 2.22580E-03-2.80372E-14
 -1      3799 5.78736E-03 1.15150E-03-1.34064E-14
 -1      3800 5.61611E-03 1.09226E-03-1.33725E-14
 -1      3801 6.41030E-03 1.38377E-03-1.46758E-14
 -1      3802 6.31197E-03 1.32569E-03-1.37335E-14
 -1      3803 6.25750E-03 1.30527E-03-1.37484E-14
 -1      3804 2.36691E-03-3.08974E-04-4.00988E-15
 -1      3805 6.81475E-03 1.61684E-03-1.83799E-14
 -1      3806 6.69177E-03 1.54773E-03-1.73913E-14
 -1      3807 6.82191E-03 1.62866E-03-1.91848E-14
 -1      3808 6.60169E-03 1.49537E-03-1.65082E-14
 -1      3809 6.49396E-03 1.43308E-03-1.55223E-14
 -1      3810 6.43429E-03 1.40849E-03-1.55379E-14
 -1      3811 6.60690E-03 1.50836E-03-1.72812E-14
 -1      3812 2.07853E-03-2.02661E-04-3.06851E-15
 -1      3813 1.93795E-03-1.43002E-04-2.70358E-15
 -1      3814 6.03474E-03 1.23132E-03-1.36295E-14
 -1      3815 5.91699E-03 1.19435E-03-1.35211E-14
 -1      3816 5.90602E-03 1.20234E-03-1.43070E-14
 -1      3817 5.39942E-03 1.00583E-03-1.32752E-14
 -1      3818 5.16482E-03 8.98802E-04-1.31009E-14
 -1      3819 1.49186E-03-1.61881E-04-1.84533E-15
 -1      3820 1.74853E-03-2.10497E-04-2.39401E-15
 -1      3821 1.83473E-03-1.79686E-04-2.53497E-15
 -1      3822 1.48239E-03-1.08010E-04-1.79746E-15
 -1      3823 4.22421E-03 3.73136E-04-1.10584E-14
 -1      3824 4.23049E-03 3.50476E-04-1.18827E-14
 -1      3825 4.40117E-03 4.43843E-04-1.27555E-14
 -1      3826 4.37149E-03 4.61123E-04-1.15478E-14
 -1      3827 1.42582E-02 5.64527E-03-9.31325E-14
 -1      3828 6.17777E-03 1.27482E-03-1.36160E-14
 -1      3829 6.10993E-03 1.25423E-03-1.36241E-14
 -1      3830 6.10858E-03 1.27080E-03-1.44216E-14
 -1      3831 1.25933E-03-3.00470E-05-1.38187E-15
 -1      3832 1.35702E-03-5.63775E-05-1.55438E-15
 -1      3833 1.53170E-03-8.64829E-05-1.87965E-15
 -1      3834 1.26981E-03 1.44227E-05-1.40128E-15
 -1      3835 1.75376E-03-1.01168E-04-2.30752E-15
 -1      3836 1.33597E-02 5.14095E-03-9.94990E-14
 -1      3837 5.57244E-03 1.07677E-03-1.40911E-14
 -1      3838 1.36425E-02 5.30257E-03-9.56094E-14
 -1      3839 1.37171E-02 5.34454E-03-9.50147E-14
 -1      3840 1.36308E-02 5.29966E-03-9.32730E-14
 -1      3841 1.30394E-03 6.43834E-05-1.47147E-15
 -1      3842 1.37742E-02 5.38022E-03-9.22159E-14
 -1      3843 1.39354E-02 5.46726E-03-9.33494E-14
 -1      3844 1.40042E-02 5.50585E-03-9.28789E-14
 -1      3845 1.42136E-02 5.62245E-03-9.19752E-14
 -1      3846 1.40707E-02 5.54628E-03-9.03363E-14
 -1      3847 1.61835E-03-4.12050E-05-2.02631E-15
 -1      3848 7.61862E-03 2.07109E-03-2.56891E-14
 -1      3849 1.44433E-03 1.59263E-05-1.70592E-15
 -1      3850 5.26138E-03 9.33691E-04-1.42501E-14
 -1      3851 5.06016E-03 8.41510E-04-1.33569E-14
 -1      3852 4.96464E-03 7.83149E-04-1.36078E-14
 -1      3853 2.16119E-03-2.60047E-04-3.36379E-15
 -1      3854 4.55976E-03 5.44077E-04-1.30416E-14
 -1      3855 1.33446E-02 5.13484E-03-9.79805E-14
 -1      3856 1.34188E-02 5.17664E-03-9.73906E-14
 -1      3857 4.56586E-03 5.65058E-04-1.24397E-14
 -1      3858 1.31942E-02 5.05308E-03-9.72513E-14
 -1      3859 1.39333E-02 5.47107E-03-9.00509E-14
 -1      3860 1.32731E-02 5.09588E-03-9.77274E-14
 -1      3861 6.82277E-03 1.63737E-03-1.99707E-14
 -1      3862 6.69640E-03 1.56907E-03-1.89485E-14
 -1      3863 5.22063E-03 8.85893E-04-1.61361E-14
 -1      3864 5.37691E-03 9.60484E-04-1.71130E-14
 -1      3865 5.52985E-03 1.03326E-03-1.81117E-14
 -1      3866 5.68003E-03 1.10529E-03-1.91316E-14
 -1      3867 5.53682E-03 1.04334E-03-1.74103E-14
 -1      3868 5.82793E-03 1.17665E-03-2.01728E-14
 -1      3869 5.97398E-03 1.24790E-03-2.12342E-14
 -1      3870 5.83380E-03 1.18317E-03-1.94363E-14
 -1      3871 6.11853E-03 1.31904E-03-2.23172E-14
 -1      3872 6.26198E-03 1.39043E-03-2.34211E-14
 -1      3873 6.12275E-03 1.32259E-03-2.15471E-14
 -1      3874 6.40455E-03 1.46203E-03-2.45463E-14
 -1      3875 6.54654E-03 1.53398E-03-2.56905E-14
 -1      3876 6.40701E-03 1.46339E-03-2.37422E-14
 -1      3877 6.68807E-03 1.60625E-03-2.68558E-14
 -1      3878 6.82934E-03 1.67889E-03-2.80427E-14
 -1      3879 6.68890E-03 1.60614E-03-2.60195E-14
 -1      3880 6.97044E-03 1.75186E-03-2.92467E-14
 -1      3881 7.11148E-03 1.82516E-03-3.04680E-14
 -1      3882 6.96987E-03 1.75083E-03-2.83775E-14
 -1      3883 7.25251E-03 1.89877E-03-3.17091E-14
 -1      3884 7.39361E-03 1.97266E-03-3.29669E-14
 -1      3885 7.25078E-03 1.89723E-03-3.08113E-14
 -1      3886 7.53478E-03 2.04680E-03-3.42406E-14
 -1      3887 7.67607E-03 2.12118E-03-3.55309E-14
 -1      3888 7.53211E-03 2.04503E-03-3.33131E-14
 -1      3889 7.81747E-03 2.19576E-03-3.68365E-14
 -1      3890 7.95902E-03 2.27053E-03-3.81582E-14
 -1      3891 7.81406E-03 2.19394E-03-3.58796E-14
 -1      3892 8.10069E-03 2.34547E-03-3.94970E-14
 -1      3893 8.24251E-03 2.42055E-03-4.08501E-14
 -1      3894 8.09671E-03 2.34370E-03-3.85117E-14
 -1      3895 8.38444E-03 2.49576E-03-4.22188E-14
 -1      3896 8.52649E-03 2.57109E-03-4.36015E-14
 -1      3897 8.38002E-03 2.49410E-03-4.12066E-14
 -1      3898 8.66865E-03 2.64653E-03-4.49993E-14
 -1      3899 8.81092E-03 2.72205E-03-4.64127E-14
 -1      3900 8.66390E-03 2.64499E-03-4.39597E-14
 -1      3901 8.95327E-03 2.79766E-03-4.78428E-14
 -1      3902 9.09571E-03 2.87334E-03-4.92841E-14
 -1      3903 8.94828E-03 2.79624E-03-4.67734E-14
 -1      3904 9.23821E-03 2.94908E-03-5.07408E-14
 -1      3905 9.38078E-03 3.02487E-03-5.22134E-14
 -1      3906 9.23304E-03 2.94776E-03-4.96470E-14
 -1      3907 9.52341E-03 3.10072E-03-5.36986E-14
 -1      3908 9.66608E-03 3.17661E-03-5.51968E-14
 -1      3909 9.51812E-03 3.09950E-03-5.25759E-14
 -1      3910 9.80880E-03 3.25254E-03-5.67073E-14
 -1      3911 9.95154E-03 3.32850E-03-5.82304E-14
 -1      3912 9.80342E-03 3.25139E-03-5.55604E-14
 -1      3913 1.00943E-02 3.40449E-03-5.97663E-14
 -1      3914 1.02371E-02 3.48051E-03-6.13125E-14
 -1      3915 1.00889E-02 3.40340E-03-5.85952E-14
 -1      3916 1.03799E-02 3.55655E-03-6.28676E-14
 -1      3917 1.05228E-02 3.63261E-03-6.44335E-14
 -1      3918 1.03745E-02 3.55550E-03-6.16748E-14
 -1      3919 1.06656E-02 3.70869E-03-6.60110E-14
 -1      3920 1.08085E-02 3.78478E-03-6.75983E-14
 -1      3921 1.06601E-02 3.70767E-03-6.47966E-14
 -1      3922 1.09514E-02 3.86089E-03-6.91930E-14
 -1      3923 1.10942E-02 3.93700E-03-7.07927E-14
 -1      3924 1.09459E-02 3.85990E-03-6.79573E-14
 -1      3925 1.12371E-02 4.01313E-03-7.24012E-14
 -1      3926 1.13800E-02 4.08927E-03-7.40183E-14
 -1      3927 1.12316E-02 4.01215E-03-7.11507E-14
 -1      3928 1.15229E-02 4.16541E-03-7.56435E-14
 -1      3929 1.16658E-02 4.24156E-03-7.72745E-14
 -1      3930 1.15174E-02 4.16444E-03-7.43719E-14
 -1      3931 1.18087E-02 4.31771E-03-7.89099E-14
 -1      3932 1.19515E-02 4.39387E-03-8.05497E-14
 -1      3933 1.18031E-02 4.31675E-03-7.76217E-14
 -1      3934 1.20944E-02 4.47003E-03-8.22005E-14
 -1      3935 1.22373E-02 4.54620E-03-8.38594E-14
 -1      3936 1.20889E-02 4.46907E-03-8.08982E-14
 -1      3937 1.23802E-02 4.62236E-03-8.55245E-14
 -1      3938 1.25231E-02 4.69853E-03-8.71958E-14
 -1      3939 1.23747E-02 4.62141E-03-8.42059E-14
 -1      3940 1.26659E-02 4.77470E-03-8.88681E-14
 -1      3941 1.28088E-02 4.85087E-03-9.05446E-14
 -1      3942 1.26604E-02 4.77374E-03-8.75340E-14
 -1      3943 1.29517E-02 4.92705E-03-9.22268E-14
 -1      3944 1.30946E-02 5.00322E-03-9.39096E-14
 -1      3945 1.29462E-02 4.92609E-03-9.08807E-14
 -1      3946 7.08230E-03 1.77888E-03-2.20799E-14
 -1      3947 6.95155E-03 1.70730E-03-2.10150E-14
 -1      3948 6.82180E-03 1.64457E-03-2.07645E-14
 -1      3949 8.47342E-03 2.54345E-03-3.39512E-14
 -1      3950 8.32577E-03 2.46273E-03-3.26373E-14
 -1      3951 8.18561E-03 2.38597E-03-3.14029E-14
 -1      3952 8.04596E-03 2.30931E-03-3.01846E-14
 -1      3953 8.19453E-03 2.39195E-03-3.23838E-14
 -1      3954 9.04258E-03 2.85302E-03-3.91500E-14
 -1      3955 8.90079E-03 2.77612E-03-3.78351E-14
 -1      3956 9.32669E-03 3.00670E-03-4.18262E-14
 -1      3957 9.18456E-03 2.92988E-03-4.04797E-14
 -1      3958 9.04811E-03 2.85553E-03-4.01822E-14
 -1      3959 9.61134E-03 3.16020E-03-4.45640E-14
 -1      3960 9.46896E-03 3.08347E-03-4.31872E-14
 -1      3961 9.33220E-03 3.00885E-03-4.28837E-14
 -1      3962 9.89636E-03 3.31349E-03-4.73576E-14
 -1      3963 9.75381E-03 3.23687E-03-4.59544E-14
 -1      3964 9.61682E-03 3.16206E-03-4.56470E-14
 -1      3965 1.01959E-02 3.47426E-03-5.03535E-14
 -1      3966 1.00461E-02 3.39390E-03-4.88490E-14
 -1      3967 9.90895E-03 3.31896E-03-4.85377E-14
 -1      3968 1.04814E-02 3.62719E-03-5.32589E-14
 -1      3969 1.03386E-02 3.55074E-03-5.17982E-14
 -1      3970 1.02014E-02 3.47571E-03-5.14854E-14
 -1      3971 1.07670E-02 3.77999E-03-5.62131E-14
 -1      3972 1.06242E-02 3.70361E-03-5.47310E-14
 -1      3973 1.04868E-02 3.62851E-03-5.44128E-14
 -1      3974 1.10527E-02 3.93267E-03-5.92122E-14
 -1      3975 1.09098E-02 3.85634E-03-5.77070E-14
 -1      3976 1.07724E-02 3.78120E-03-5.73922E-14
 -1      3977 1.13384E-02 4.08526E-03-6.22523E-14
 -1      3978 1.11955E-02 4.00898E-03-6.07284E-14
 -1      3979 1.10581E-02 3.93380E-03-6.04134E-14
 -1      3980 1.16384E-02 4.24540E-03-6.54854E-14
 -1      3981 1.14884E-02 4.16534E-03-6.38628E-14
 -1      3982 1.13510E-02 4.09015E-03-6.35513E-14
 -1      3983 1.19242E-02 4.39786E-03-6.86049E-14
 -1      3984 1.17813E-02 4.32164E-03-6.70416E-14
 -1      3985 1.16439E-02 4.24643E-03-6.67286E-14
 -1      3986 1.22100E-02 4.55028E-03-7.17596E-14
 -1      3987 1.20671E-02 4.47407E-03-7.01772E-14
 -1      3988 1.19296E-02 4.39886E-03-6.98651E-14
 -1      3989 1.24957E-02 4.70267E-03-7.49517E-14
 -1      3990 1.23528E-02 4.62648E-03-7.33504E-14
 -1      3991 1.22154E-02 4.55126E-03-7.30360E-14
 -1      3992 1.27815E-02 4.85504E-03-7.81757E-14
 -1      3993 1.26386E-02 4.77886E-03-7.65624E-14
 -1      3994 1.25012E-02 4.70364E-03-7.62455E-14
 -1      3995 1.30673E-02 5.00739E-03-8.14214E-14
 -1      3996 1.29244E-02 4.93122E-03-7.97970E-14
 -1      3997 1.27869E-02 4.85600E-03-7.94848E-14
 -1      3998 1.33673E-02 5.16736E-03-8.48480E-14
 -1      3999 1.32173E-02 5.08738E-03-8.31316E-14
 -1      4000 1.30799E-02 5.01216E-03-8.28253E-14
 -1      4001 1.36530E-02 5.31970E-03-8.81181E-14
 -1      4002 1.35102E-02 5.24353E-03-8.64823E-14
 -1      4003 1.33727E-02 5.16832E-03-8.61792E-14
 -1      4004 1.41208E-02 5.57007E-03-9.28462E-14
 -1      4005 1.31790E-02 5.04698E-03-9.57440E-14
 -1      4006 8.75923E-03 2.69921E-03-3.65355E-14
 -1      4007 8.61793E-03 2.62227E-03-3.52523E-14
 -1      4008 8.76477E-03 2.70214E-03-3.75415E-14
 -1      4009 7.90691E-03 2.23289E-03-2.89811E-14
 -1      4010 7.76855E-03 2.15671E-03-2.77963E-14
 -1      4011 7.91554E-03 2.23953E-03-2.99338E-14
 -1      4012 6.27077E-03 1.32785E-03-1.45561E-14
 -1      4013 4.94419E-03 7.58284E-04-1.42423E-14
 -1      4014 5.10768E-03 8.36941E-04-1.51740E-14
 -1      4015 4.74058E-03 6.54187E-04-1.33405E-14
 -1      4016 1.34934E-02 5.21861E-03-9.67989E-14
 -1      4017 1.35680E-02 5.26059E-03-9.62054E-14
 -1      4018 1.34817E-02 5.21570E-03-9.44549E-14
 -1      4019 1.33325E-02 5.13175E-03-9.56312E-14
 -1      4020 7.34889E-03 1.92543E-03-2.42726E-14
 -1      4021 7.21485E-03 1.85160E-03-2.31658E-14
 -1      4022 7.08424E-03 1.78570E-03-2.29066E-14
 -1      4023 5.74991E-03 1.15044E-03-1.49621E-14
 -1      4024 5.55194E-03 1.06747E-03-1.48583E-14
 -1      4025 7.62760E-03 2.07906E-03-2.66030E-14
 -1      4026 7.48766E-03 2.00187E-03-2.54281E-14
 -1      4027 7.63568E-03 2.08641E-03-2.75227E-14
 -1      4028 6.00904E-03 1.24933E-03-1.52164E-14
 -1      4029 5.88287E-03 1.20249E-03-1.50922E-14
 -1      4030 5.86517E-03 1.20034E-03-1.58875E-14
 -1      4031 1.39596E-02 5.48303E-03-9.17231E-14
 -1      4032 5.27592E-03 9.26167E-04-1.54588E-14
 -1      4033 1.38168E-02 5.40686E-03-9.00811E-14
 -1      4034 7.35593E-03 1.93349E-03-2.51598E-14
 -1      4035 8.47893E-03 2.54691E-03-3.49305E-14
 -1      4036 1.36186E-02 5.29638E-03-9.09943E-14
 -1      4037 1.36874E-02 5.33497E-03-9.05345E-14
 -1      4038 6.34976E-03 1.37303E-03-1.53989E-14
 -1      4039 6.26049E-03 1.33805E-03-1.52556E-14
 -1      4040 6.43247E-03 1.42040E-03-1.62586E-14
 -1      4041 6.18686E-03 1.31217E-03-1.52606E-14
 -1      4042 6.10841E-03 1.28520E-03-1.52619E-14
 -1      4043 6.26881E-03 1.35592E-03-1.61166E-14
 -1      4044 5.45758E-03 1.02316E-03-1.50272E-14
 -1      4045 5.36386E-03 9.74050E-04-1.52987E-14
 -1      4046 5.46841E-03 1.01800E-03-1.62654E-14
 -1      4047 5.64345E-03 1.10490E-03-1.59264E-14
 -1      4048 6.09451E-03 1.29085E-03-1.60706E-14
 -1      4049 6.60477E-03 1.51790E-03-1.80363E-14
 -1      4050 6.51569E-03 1.46776E-03-1.71422E-14
 -1      4051 6.60014E-03 1.52549E-03-1.87980E-14
 -1      4052 1.34695E-02 5.21243E-03-9.21740E-14
 -1      4053 1.35440E-02 5.25441E-03-9.15866E-14
 -1      4054 1.34572E-02 5.20915E-03-8.99041E-14
 -1      4055 1.31735E-02 5.04601E-03-9.43826E-14
 -1      4056 1.32481E-02 5.08799E-03-9.38017E-14
 -1      4057 6.81948E-03 1.65037E-03-2.15633E-14
 -1      4058 6.68883E-03 1.58196E-03-2.05065E-14
 -1      4059 1.31344E-02 5.02803E-03-9.20506E-14
 -1      4060 1.32934E-02 5.11376E-03-9.32904E-14
 -1      4061 1.33680E-02 5.15574E-03-9.27054E-14
 -1      4062 1.29916E-02 4.95186E-03-9.03767E-14
 -1      4063 5.84277E-03 1.19022E-03-1.87079E-14
 -1      4064 5.98661E-03 1.25808E-03-1.97359E-14
 -1      4065 6.12890E-03 1.32628E-03-2.07842E-14
 -1      4066 6.27022E-03 1.39517E-03-2.18537E-14
 -1      4067 6.13714E-03 1.33017E-03-2.00287E-14
 -1      4068 6.41070E-03 1.46467E-03-2.29463E-14
 -1      4069 6.55078E-03 1.53493E-03-2.40580E-14
 -1      4070 6.41572E-03 1.46584E-03-2.21558E-14
 -1      4071 6.69051E-03 1.60580E-03-2.51897E-14
 -1      4072 6.83017E-03 1.67738E-03-2.63424E-14
 -1      4073 6.69292E-03 1.60521E-03-2.43661E-14
 -1      4074 6.96977E-03 1.74951E-03-2.75159E-14
 -1      4075 7.10949E-03 1.82222E-03-2.87071E-14
 -1      4076 6.97014E-03 1.74787E-03-2.66590E-14
 -1      4077 7.24933E-03 1.89539E-03-2.99178E-14
 -1      4078 7.38937E-03 1.96900E-03-3.11469E-14
 -1      4079 7.24814E-03 1.89321E-03-2.90319E-14
 -1      4080 7.52960E-03 2.04298E-03-3.23927E-14
 -1      4081 7.67007E-03 2.11728E-03-3.36536E-14
 -1      4082 7.52724E-03 2.04059E-03-3.14773E-14
 -1      4083 7.81075E-03 2.19186E-03-3.49309E-14
 -1      4084 7.95167E-03 2.26668E-03-3.62244E-14
 -1      4085 7.80752E-03 2.18948E-03-3.39878E-14
 -1      4086 8.09279E-03 2.34170E-03-3.75330E-14
 -1      4087 8.23412E-03 2.41690E-03-3.88595E-14
 -1      4088 8.08891E-03 2.33945E-03-3.65625E-14
 -1      4089 8.37564E-03 2.49224E-03-4.02001E-14
 -1      4090 8.51733E-03 2.56771E-03-4.15549E-14
 -1      4091 8.37128E-03 2.49017E-03-3.91992E-14
 -1      4092 8.65919E-03 2.64328E-03-4.29263E-14
 -1      4093 8.80119E-03 2.71895E-03-4.43115E-14
 -1      4094 8.65448E-03 2.64140E-03-4.18980E-14
 -1      4095 8.94331E-03 2.79469E-03-4.57119E-14
 -1      4096 9.08556E-03 2.87049E-03-4.71288E-14
 -1      4097 8.93836E-03 2.79299E-03-4.46578E-14
 -1      4098 9.22790E-03 2.94635E-03-4.85589E-14
 -1      4099 9.37033E-03 3.02225E-03-5.00023E-14
 -1      4100 9.22277E-03 2.94482E-03-4.74756E-14
 -1      4101 9.51284E-03 3.09820E-03-5.14611E-14
 -1      4102 9.65542E-03 3.17418E-03-5.29341E-14
 -1      4103 9.50758E-03 3.09681E-03-5.03533E-14
 -1      4104 9.79806E-03 3.25018E-03-5.44208E-14
 -1      4105 9.94074E-03 3.32621E-03-5.59206E-14
 -1      4106 9.79271E-03 3.24891E-03-5.32866E-14
 -1      4107 1.00835E-02 3.40227E-03-5.74316E-14
 -1      4108 1.02262E-02 3.47834E-03-5.89557E-14
 -1      4109 1.00781E-02 3.40109E-03-5.62745E-14
 -1      4110 1.03690E-02 3.55443E-03-6.04897E-14
 -1      4111 1.05118E-02 3.63053E-03-6.20328E-14
 -1      4112 1.03636E-02 3.55331E-03-5.93077E-14
 -1      4113 1.06547E-02 3.70664E-03-6.35876E-14
 -1      4114 1.07975E-02 3.78276E-03-6.51546E-14
 -1      4115 1.06492E-02 3.70557E-03-6.23863E-14
 -1      4116 1.09404E-02 3.85889E-03-6.67290E-14
 -1      4117 1.10832E-02 3.93502E-03-6.83124E-14
 -1      4118 1.09349E-02 3.85786E-03-6.55043E-14
 -1      4119 1.12261E-02 4.01117E-03-6.99023E-14
 -1      4120 1.13690E-02 4.08732E-03-7.14982E-14
 -1      4121 1.12206E-02 4.01017E-03-6.86576E-14
 -1      4122 1.15119E-02 4.16347E-03-7.31048E-14
 -1      4123 1.16548E-02 4.23962E-03-7.47195E-14
 -1      4124 1.15064E-02 4.16249E-03-7.18433E-14
 -1      4125 1.17976E-02 4.31578E-03-7.63389E-14
 -1      4126 1.19405E-02 4.39195E-03-7.79656E-14
 -1      4127 1.17922E-02 4.31481E-03-7.50584E-14
 -1      4128 1.20834E-02 4.46811E-03-7.96010E-14
 -1      4129 1.22263E-02 4.54428E-03-8.12425E-14
 -1      4130 1.20779E-02 4.46715E-03-7.83055E-14
 -1      4131 1.23692E-02 4.62045E-03-8.28903E-14
 -1      4132 1.25121E-02 4.69661E-03-8.45464E-14
 -1      4133 1.23637E-02 4.61949E-03-8.15813E-14
 -1      4134 1.26550E-02 4.77278E-03-8.62070E-14
 -1      4135 1.27978E-02 4.84896E-03-8.78696E-14
 -1      4136 1.26495E-02 4.77183E-03-8.48821E-14
 -1      4137 6.21729E-03 1.34777E-03-1.69593E-14
 -1      4138 6.11920E-03 1.30891E-03-1.69087E-14
 -1      4139 9.33761E-03 3.01091E-03-4.39476E-14
 -1      4140 9.19548E-03 2.93441E-03-4.25766E-14
 -1      4141 9.05350E-03 2.85791E-03-4.12196E-14
 -1      4142 8.91170E-03 2.78141E-03-3.98787E-14
 -1      4143 9.05877E-03 2.86015E-03-4.22630E-14
 -1      4144 9.91794E-03 3.32244E-03-4.96865E-14
 -1      4145 9.76827E-03 3.24220E-03-4.81852E-14
 -1      4146 1.02032E-02 3.47520E-03-5.25859E-14
 -1      4147 1.00606E-02 3.39883E-03-5.11297E-14
 -1      4148 9.91978E-03 3.32204E-03-5.07682E-14
 -1      4149 1.04887E-02 3.62788E-03-5.55381E-14
 -1      4150 1.03459E-02 3.55155E-03-5.40543E-14
 -1      4151 1.02051E-02 3.47466E-03-5.36913E-14
 -1      4152 1.07743E-02 3.78048E-03-5.85368E-14
 -1      4153 1.06315E-02 3.70419E-03-5.70313E-14
 -1      4154 1.04906E-02 3.62722E-03-5.66660E-14
 -1      4155 1.10600E-02 3.93301E-03-6.15805E-14
 -1      4156 1.09171E-02 3.85675E-03-6.00542E-14
 -1      4157 1.07762E-02 3.77973E-03-5.96878E-14
 -1      4158 1.13600E-02 4.09311E-03-6.48154E-14
 -1      4159 1.12100E-02 4.01307E-03-6.31936E-14
 -1      4160 1.10690E-02 3.93601E-03-6.28293E-14
 -1      4161 1.16457E-02 4.24555E-03-6.79344E-14
 -1      4162 1.15029E-02 4.16934E-03-6.63692E-14
 -1      4163 1.13619E-02 4.09225E-03-6.60070E-14
 -1      4164 1.19315E-02 4.39796E-03-7.10884E-14
 -1      4165 1.17886E-02 4.32176E-03-6.95079E-14
 -1      4166 1.16476E-02 4.24466E-03-6.91440E-14
 -1      4167 1.22173E-02 4.55034E-03-7.42777E-14
 -1      4168 1.20744E-02 4.47415E-03-7.26802E-14
 -1      4169 1.19334E-02 4.39704E-03-7.23185E-14
 -1      4170 1.25031E-02 4.70271E-03-7.75052E-14
 -1      4171 1.23602E-02 4.62653E-03-7.58874E-14
 -1      4172 1.22192E-02 4.54941E-03-7.55257E-14
 -1      4173 1.27888E-02 4.85506E-03-8.07553E-14
 -1      4174 1.26459E-02 4.77889E-03-7.91268E-14
 -1      4175 1.25049E-02 4.70177E-03-7.87645E-14
 -1      4176 1.30889E-02 5.01503E-03-8.41918E-14
 -1      4177 1.29389E-02 4.93505E-03-8.24724E-14
 -1      4178 1.27979E-02 4.85793E-03-8.21124E-14
 -1      4179 1.36793E-02 5.33165E-03-8.97834E-14
 -1      4180 8.77010E-03 2.70492E-03-3.85512E-14
 -1      4181 8.62874E-03 2.62846E-03-3.72406E-14
 -1      4182 8.77526E-03 2.70751E-03-3.95676E-14
 -1      4183 5.99679E-03 1.25852E-03-1.67748E-14
 -1      4184 5.86982E-03 1.20493E-03-1.66368E-14
 -1      4185 6.12699E-03 1.31775E-03-1.76809E-14
 -1      4186 7.92015E-03 2.24387E-03-3.08622E-14
 -1      4187 7.78127E-03 2.16834E-03-2.96465E-14
 -1      4188 5.61868E-03 1.08653E-03-1.72421E-14
 -1      4189 9.62224E-03 3.16385E-03-4.67358E-14
 -1      4190 9.47987E-03 3.08739E-03-4.53351E-14
 -1      4191 9.34294E-03 3.01286E-03-4.50166E-14
 -1      4192 7.63959E-03 2.09134E-03-2.84208E-14
 -1      4193 7.49869E-03 2.01480E-03-2.72143E-14
 -1      4194 7.64303E-03 2.09571E-03-2.93260E-14
 -1      4195 7.35865E-03 1.93895E-03-2.60254E-14
 -1      4196 7.21962E-03 1.86382E-03-2.48574E-14
 -1      4197 7.36082E-03 1.94367E-03-2.68971E-14
 -1      4198 8.48415E-03 2.55015E-03-3.59144E-14
 -1      4199 8.33988E-03 2.47191E-03-3.46020E-14
 -1      4200 8.48913E-03 2.55315E-03-3.69017E-14
 -1      4201 7.08501E-03 1.79152E-03-2.37385E-14
 -1      4202 6.95164E-03 1.72024E-03-2.26408E-14
 -1      4203 7.08522E-03 1.79637E-03-2.45770E-14
 -1      4204 8.19952E-03 2.39572E-03-3.33399E-14
 -1      4205 8.05959E-03 2.31967E-03-3.20945E-14
 -1      4206 7.92436E-03 2.24780E-03-3.17955E-14
 -1      4207 8.20421E-03 2.39917E-03-3.43015E-14
 -1      4208 1.32812E-02 5.11049E-03-9.10188E-14
 -1      4209 6.35106E-03 1.40030E-03-1.69956E-14
 -1      4210 6.38103E-03 1.42323E-03-1.78574E-14
 -1      4211 1.29861E-02 4.95090E-03-8.90388E-14
 -1      4212 9.63118E-03 3.16747E-03-4.78636E-14
 -1      4213 6.81669E-03 1.65495E-03-2.23681E-14
 -1      4214 5.78414E-03 1.16711E-03-1.68185E-14
 -1      4215 1.33782E-02 5.16928E-03-8.75160E-14
 -1      4216 1.32353E-02 5.09310E-03-8.58722E-14
 -1      4217 1.30943E-02 5.01599E-03-8.55192E-14
 -1      4218 5.84391E-03 1.19272E-03-1.79856E-14
 -1      4219 6.55217E-03 1.51909E-03-2.02447E-14
 -1      4220 6.55964E-03 1.51542E-03-1.94724E-14
 -1      4221 6.46663E-03 1.46613E-03-1.85516E-14
 -1      4222 6.42416E-03 1.42872E-03-1.69920E-14
 -1      4223 6.14765E-03 1.33377E-03-1.92803E-14
 -1      4224 6.28520E-03 1.39957E-03-2.03159E-14
 -1      4225 6.48383E-03 1.49439E-03-2.11992E-14
 -1      4226 6.61936E-03 1.56233E-03-2.22736E-14
 -1      4227 6.75513E-03 1.63157E-03-2.33671E-14
 -1      4228 6.89146E-03 1.70190E-03-2.44816E-14
 -1      4229 7.02821E-03 1.77326E-03-2.56180E-14
 -1      4230 7.16554E-03 1.84544E-03-2.67737E-14
 -1      4231 7.30678E-03 1.92021E-03-2.79790E-14
 -1      4232 7.44514E-03 1.99376E-03-2.91747E-14
 -1      4233 7.58742E-03 2.06971E-03-3.04171E-14
 -1      4234 7.72671E-03 2.14421E-03-3.16482E-14
 -1      4235 7.86640E-03 2.21910E-03-3.28948E-14
 -1      4236 8.00649E-03 2.29424E-03-3.41561E-14
 -1      4237 8.14692E-03 2.36964E-03-3.54338E-14
 -1      4238 8.28768E-03 2.44521E-03-3.67264E-14
 -1      4239 8.43224E-03 2.52284E-03-3.80691E-14
 -1      4240 8.57355E-03 2.59869E-03-3.93942E-14
 -1      4241 8.71507E-03 2.67463E-03-4.07351E-14
 -1      4242 8.85680E-03 2.75063E-03-4.20907E-14
 -1      4243 8.99870E-03 2.82670E-03-4.34606E-14
 -1      4244 9.14076E-03 2.90280E-03-4.48466E-14
 -1      4245 9.28294E-03 2.97893E-03-4.62458E-14
 -1      4246 9.42525E-03 3.05508E-03-4.76605E-14
 -1      4247 9.57122E-03 3.13316E-03-4.91251E-14
 -1      4248 9.71371E-03 3.20934E-03-5.05681E-14
 -1      4249 9.85627E-03 3.28552E-03-5.20263E-14
 -1      4250 9.99890E-03 3.36171E-03-5.34974E-14
 -1      4251 1.01416E-02 3.43790E-03-5.49822E-14
 -1      4252 1.02843E-02 3.51410E-03-5.64793E-14
 -1      4253 1.04271E-02 3.59029E-03-5.79865E-14
 -1      4254 1.05699E-02 3.66648E-03-5.95062E-14
 -1      4255 1.07127E-02 3.74267E-03-6.10370E-14
 -1      4256 1.08555E-02 3.81886E-03-6.25773E-14
 -1      4257 1.10055E-02 3.89885E-03-6.42044E-14
 -1      4258 1.11484E-02 3.97504E-03-6.57650E-14
 -1      4259 1.12912E-02 4.05122E-03-6.73335E-14
 -1      4260 1.14341E-02 4.12740E-03-6.89072E-14
 -1      4261 1.15770E-02 4.20358E-03-7.04946E-14
 -1      4262 1.17199E-02 4.27975E-03-7.20881E-14
 -1      4263 1.18628E-02 4.35593E-03-7.36886E-14
 -1      4264 1.20056E-02 4.43211E-03-7.52987E-14
 -1      4265 1.21485E-02 4.50828E-03-7.69150E-14
 -1      4266 1.22914E-02 4.58446E-03-7.85420E-14
 -1      4267 1.24343E-02 4.66063E-03-8.01733E-14
 -1      4268 1.25772E-02 4.73680E-03-8.18114E-14
 -1      4269 1.27272E-02 4.81678E-03-8.35394E-14
 -1      4270 1.28701E-02 4.89295E-03-8.51900E-14
 -1      4271 1.30875E-02 5.00759E-03-8.85227E-14
 -1      4272 1.35237E-02 5.24781E-03-8.85666E-14
 -1      4273 1.33863E-02 5.17260E-03-8.82623E-14
 -1      4274 6.26915E-03 1.38438E-03-1.86801E-14
 -1      4275 6.15036E-03 1.33249E-03-1.85387E-14
 -1      4276 1.33117E-02 5.13062E-03-8.88459E-14
 -1      4277 6.33329E-03 1.41018E-03-1.85106E-14
 -1      4278 6.35887E-03 1.42794E-03-1.93877E-14
 -1      4279 1.30166E-02 4.97103E-03-8.68818E-14
 -1      4280 5.99899E-03 1.26446E-03-1.82654E-14
 -1      4281 6.49144E-03 1.49343E-03-2.04220E-14
 -3
    1PSTEP                         2           1           1          
  100CL  101 1.000000000        4281                     0    1           1
 -4  STRESS      6    1
 -5  SXX         1    4    1    1
 -5  SYY         1    4    2    2
 -5  SZZ         1    4    3    3
 -5  SXY         1    4    1    2
 -5  SYZ         1    4    2    3
 -5  SZX         1    4    3    1
 -1         1 6.86883E+01 7.94265E-01 3.50732E+00-1.15060E-01-3.50518E-14 1.44409E-12
 -1         2-8.75219E-01-2.60698E+01-3.46740E+00-2.98926E-01 1.82611E-12-4.76008E-14
 -1         3 1.99998E+01 1.07587E-05-3.18666E-05 1.13456E-05 4.40059E-13 4.67989E-13
 -1         4 1.99998E+01 9.59295E-06-3.29597E-05-9.82366E-06 3.29085E-14 9.30347E-14
 -1         5 3.64533E+01 6.93075E+00 2.66873E+00 6.20391E+00-5.29438E-14 3.07071E-12
 -1         6 3.74832E+01 1.28608E+01 5.38609E+00-9.05641E+00-2.61791E-13 1.59917E-12
 -1         7 2.17195E+01 6.36389E+00-1.44699E-01-4.95181E+00-3.32789E-14-6.13079E-13
 -1         8 2.05174E+01 6.19200E+00 5.61162E-02-3.41158E+00-1.46966E-14-1.03157E-12
 -1         9 1.99853E+01 6.02789E+00 7.19086E-02-2.53266E+00-1.28023E-15-1.13451E-12
 -1        10 1.97124E+01 5.93728E+00 9.20838E-02-1.73948E+00 9.78384E-15-1.08941E-12
 -1        11 1.94407E+01 5.84999E+00 1.06199E-01-9.44225E-01 1.45908E-14-9.90570E-13
 -1        12 1.90385E+01 5.72715E+00 1.10389E-01-1.61450E-01 1.89918E-14-8.71455E-13
 -1        13 1.84230E+01 5.54318E+00 9.86190E-02 5.83703E-01 2.46782E-14-7.68951E-13
 -1        14 1.76105E+01 5.30290E+00 6.61191E-02 1.18935E+00 2.71033E-14-6.81692E-13
 -1        15 1.67179E+01 5.04047E+00 1.35017E-02 1.55506E+00 3.01460E-14-6.07096E-13
 -1        16 1.59755E+01 4.82378E+00-4.79302E-02 1.61406E+00 3.11001E-14-5.38689E-13
 -1        17 1.56847E+01 4.74172E+00-9.67093E-02 1.38797E+00 3.31801E-14-4.59910E-13
 -1        18 1.60925E+01 4.86610E+00-1.11350E-01 1.02371E+00 3.62002E-14-3.33236E-13
 -1        19 1.73331E+01 5.23707E+00-7.90535E-02 7.42436E-01 4.31877E-14-1.29181E-13
 -1        20 1.93238E+01 5.82887E+00-2.12154E-03 8.25228E-01 4.56996E-14 1.87672E-13
 -1        21 2.18596E+01 6.57527E+00 1.16697E-01 1.55455E+00 4.39371E-14 6.99566E-13
 -1        22 2.49693E+01 7.38530E+00 3.11169E-01 3.40061E+00-1.33227E-15 1.56752E-12
 -1        23 2.41117E+01-1.43602E+00-9.75481E-01-7.48669E-01-1.79790E-13 7.64916E-13
 -1        24 2.01632E+01-9.49374E-02-3.09078E-01 6.51909E-02-4.28442E-14 5.07788E-14
 -1        25 1.91415E+01-4.73853E-02-5.25129E-02 5.28636E-02-1.99834E-14-5.61676E-13
 -1        26 1.84151E+01-1.30734E-02 1.15827E-02 1.35194E-02-7.95544E-15-9.41476E-13
 -1        27 1.77151E+01-6.57065E-03 1.34175E-02-6.39112E-03-8.46567E-15-1.20382E-12
 -1        28 1.70018E+01-7.70729E-03 1.88861E-03-1.77090E-02 3.35452E-15-1.34655E-12
 -1        29 1.63448E+01-1.25936E-02-1.26638E-02-1.98853E-02 3.52613E-14-1.49449E-12
 -1        30 1.58681E+01-1.78393E-02-2.55600E-02-1.29756E-02-2.15808E-14-1.66227E-12
 -1        31 1.56933E+01-2.05730E-02-3.25317E-02 7.31579E-04-5.65010E-15-1.83119E-12
 -1        32 1.58867E+01-1.91631E-02-3.09908E-02 1.66288E-02-2.36145E-14-2.00048E-12
 -1        33 1.64275E+01-1.37804E-02-2.16604E-02 2.94907E-02 3.66235E-14-2.10776E-12
 -1        34 1.72136E+01-6.14830E-03-8.25379E-03 3.57603E-02-2.75336E-14-2.08369E-12
 -1        35 1.80996E+01 1.42508E-03 4.59503E-03 3.48230E-02-9.57313E-15-2.10509E-12
 -1        36 1.89443E+01 7.10498E-03 1.35111E-02 2.85735E-02 3.92839E-15-2.03962E-12
 -1        37 1.96470E+01 1.01014E-02 1.73920E-02 1.99418E-02-7.36025E-14-2.13328E-12
 -1        38 2.01601E+01 1.06070E-02 1.70203E-02 1.14926E-02-8.23918E-15-2.15829E-12
 -1        39 2.04827E+01 9.37477E-03 1.40506E-02 4.74936E-03-1.42867E-14-2.14792E-12
 -1        40 2.06433E+01 7.26994E-03 1.01046E-02 2.00343E-04 3.06019E-14-1.87380E-12
 -1        41 2.06834E+01 4.98859E-03 6.31540E-03-2.35153E-03 4.81816E-14-1.88306E-12
 -1        42 2.06446E+01 2.96195E-03 3.25956E-03-3.40638E-03-1.57390E-14-1.93288E-12
 -1        43 2.05621E+01 1.38296E-03 1.09386E-03-3.50081E-03-1.28096E-14-1.88330E-12
 -1        44 2.04617E+01 2.80618E-04-2.64769E-04-3.07583E-03 5.14645E-14-1.81849E-12
 -1        45 2.03605E+01-4.05511E-04-9.97161E-04-2.43983E-03 5.31916E-14-1.56159E-12
 -1        46 2.02687E+01-7.70300E-04-1.29564E-03-1.78101E-03-5.80363E-14-2.11055E-12
 -1        47 2.01908E+01-9.10049E-04-1.32327E-03-1.19755E-03 7.10422E-14-1.92134E-12
 -1        48 2.01283E+01-9.06544E-04-1.20159E-03-7.28435E-04 9.40868E-14-1.62888E-12
 -1        49 2.00802E+01-8.22011E-04-1.01300E-03-3.78003E-04 2.86966E-14-1.34435E-12
 -1        50 2.00448E+01-6.99910E-04-8.08597E-04-1.33083E-04-6.12514E-14-1.78286E-12
 -1        51 2.00199E+01-5.68246E-04-6.16946E-04 2.62834E-05 6.88307E-15-1.93312E-12
 -1        52 2.00032E+01-4.43441E-04-4.51632E-04 1.20779E-04-3.79319E-14-1.84809E-12
 -1        53 1.99927E+01-3.33867E-04-3.16984E-04 1.68820E-04 1.99094E-14-1.74365E-12
 -1        54 1.99868E+01-2.42671E-04-2.12102E-04 1.85426E-04 2.27316E-14-1.50697E-12
 -1        55 1.99840E+01-1.69861E-04-1.33494E-04 1.82109E-04-4.05846E-14-1.39015E-12
 -1        56 1.99833E+01-1.13752E-04-7.67028E-05 1.67255E-04 1.53588E-14-1.31517E-12
 -1        57 1.99840E+01-7.19038E-05-3.72262E-05 1.46695E-04 5.49884E-14-1.19122E-12
 -1        58 1.99854E+01-4.16976E-05-1.09946E-05 1.24283E-04 5.76837E-14-1.50873E-12
 -1        59 1.99873E+01-2.06581E-05 5.43521E-06 1.02418E-04-1.11119E-14-1.62700E-12
 -1        60 1.99892E+01-6.61049E-06 1.48440E-05 8.24680E-05-6.04602E-14-1.39700E-12
 -1        61 1.99911E+01 2.26485E-06 1.94000E-05 6.51001E-05 1.59988E-15-1.46904E-12
 -1        62 1.99928E+01 7.43717E-06 2.07459E-05 5.05276E-05 1.46545E-14-1.60331E-12
 -1        63 1.99943E+01 1.00620E-05 2.00999E-05 3.86844E-05-1.33444E-13-1.63008E-12
 -1        64 1.99956E+01 1.10316E-05 1.83547E-05 2.93432E-05 9.53684E-14-1.64191E-12
 -1        65 1.99968E+01 1.10297E-05 1.61783E-05 2.21876E-05 5.49387E-14-1.46092E-12
 -1        66 1.99977E+01 1.05790E-05 1.41147E-05 1.68390E-05 7.18499E-14-1.44742E-12
 -1        67 1.99984E+01 1.00823E-05 1.27188E-05 1.28280E-05 8.57098E-14-3.53672E-13
 -1        68 1.99990E+01 9.82091E-06 1.25923E-05 9.49637E-06-2.81673E-14-1.38804E-13
 -1        69 1.99995E+01 9.79016E-06 1.40407E-05 5.66793E-06-1.06499E-14-1.20850E-13
 -1        70 1.99997E+01 8.38192E-06 1.44556E-05-1.58282E-06 9.64520E-14 2.55002E-13
 -1        71 1.99998E+01-1.55077E-06 6.10796E-07-1.14585E-05-3.52333E-14 1.65269E-13
 -1        72 2.66145E+01-4.68764E-01-1.07248E+00-4.94973E-01 1.20633E-14 3.06102E-12
 -1        73 2.72255E+01-7.42642E-02-3.05732E-01-1.03837E-01 3.04635E-14 2.72483E-12
 -1        74 2.89546E+01-1.43748E-02-8.57980E-02-9.97028E-02 2.93233E-15 2.46857E-12
 -1        75 3.13885E+01 3.38339E-02 4.34102E-02-1.56407E-01 1.54877E-14 2.42118E-12
 -1        76 3.36285E+01 9.32210E-02 2.48177E-01-1.98478E-01 1.27077E-14 2.51265E-12
 -1        77 3.37407E+01 8.41459E-02 4.38930E-01-3.21333E-02-1.71460E-14 2.69762E-12
 -1        78 2.95310E+01-2.55682E-02 2.37751E-01 4.03260E-01-4.51496E-14 3.25598E-12
 -1        79 2.18099E+01-1.45039E-01-5.42375E-01 7.57100E-01-3.09613E-14 3.41377E-12
 -1        80 1.64632E+01-1.56480E-01-1.18173E+00 4.67288E-01 1.11855E-14 3.02517E-12
 -1        81 1.76013E+01-4.70071E-02-1.02005E+00-2.70867E-01 5.48173E-15 2.28598E-12
 -1        82 2.45584E+01 4.83589E-02-2.46397E-01-7.06712E-01 1.55546E-14 1.71946E-12
 -1        83 3.12570E+01 8.77874E-02 3.26543E-01-5.42817E-01 9.89573E-15 1.21825E-12
 -1        84 3.44588E+01 6.66113E-02 4.10935E-01-1.92416E-01-5.15690E-14 1.09151E-12
 -1        85 3.38622E+01 2.90279E-02 2.17055E-01 4.86050E-02 4.22097E-14 1.12765E-12
 -1        86 3.13281E+01 3.80959E-04 3.84799E-02 1.17657E-01 1.01634E-14 1.08338E-12
 -1        87 2.84854E+01-1.32982E-02-4.44729E-02 1.08587E-01 5.09941E-14 6.85951E-13
 -1        88 2.59717E+01-1.64019E-02-6.02940E-02 7.66074E-02-1.43771E-14 6.59042E-13
 -1        89 2.41599E+01-1.53961E-02-5.08811E-02 5.01797E-02-6.36850E-14 7.67549E-13
 -1        90 2.28586E+01-1.22205E-02-3.65676E-02 3.17870E-02-6.01879E-14 1.03527E-12
 -1        91 2.19472E+01-9.22102E-03-2.47716E-02 1.97619E-02 4.42631E-14 6.17562E-13
 -1        92 2.13155E+01-6.69716E-03-1.65432E-02 1.27131E-02 4.94499E-14 9.24139E-14
 -1        93 2.08652E+01-4.54414E-03-1.04780E-02 7.12321E-03 4.19115E-14-6.19123E-15
 -1        94 2.05732E+01-3.33359E-03-7.01137E-03 4.46131E-03-3.62424E-14 6.08328E-13
 -1        95 2.03730E+01-2.35739E-03-4.68234E-03 2.73001E-03-9.27327E-14 1.23051E-12
 -1        96 2.02362E+01-1.67097E-03-3.14997E-03 1.63837E-03 3.87583E-14 1.52664E-12
 -1        97 2.01432E+01-1.18920E-03-2.13311E-03 9.57512E-04 1.87701E-14 1.52468E-12
 -1        98 2.00806E+01-8.52387E-04-1.46098E-03 5.94783E-04-1.29945E-14 1.16815E-12
 -1        99 2.00378E+01-5.65049E-04-9.48979E-04 2.11921E-04 9.41689E-15 1.15259E-12
 -1       100 2.00119E+01-4.09814E-04-6.43003E-04 7.62444E-05-2.69998E-14 1.19499E-12
 -1       101 1.99959E+01-2.84164E-04-4.25120E-04-2.09279E-05-3.64286E-14 4.48111E-13
 -1       102 1.99867E+01-1.94270E-04-2.73201E-04-7.70937E-05 3.60716E-15 4.36598E-13
 -1       103 1.99821E+01-1.29754E-04-1.68102E-04-1.04946E-04-8.36892E-14 2.09692E-13
 -1       104 1.99805E+01-8.63121E-05-9.65838E-05-1.08151E-04-6.87531E-14 6.28475E-13
 -1       105 1.99808E+01-4.87502E-05-4.43225E-05-1.19562E-04-4.12365E-15 9.99446E-13
 -1       106 1.99822E+01-2.85942E-05-1.32368E-05-1.07679E-04 2.02000E-14 1.09839E-12
 -1       107 1.99842E+01-1.37049E-05 6.21214E-06-9.66996E-05 8.52733E-15 1.48809E-12
 -1       108 1.99864E+01-3.73813E-06 1.76195E-05-8.41831E-05 3.42874E-14 1.07748E-12
 -1       109 1.99886E+01 1.75542E-06 2.36273E-05-7.15189E-05 4.10210E-14 1.99153E-14
 -1       110 1.99907E+01 5.56126E-06 2.51988E-05-5.95650E-05-6.29339E-14 3.10993E-13
 -1       111 1.99925E+01 7.35747E-06 2.49677E-05-4.82603E-05 8.25756E-14 9.16727E-13
 -1       112 1.99941E+01 7.89027E-06 2.29856E-05-3.90371E-05-8.54539E-14 1.26056E-12
 -1       113 1.99955E+01 7.78724E-06 2.03675E-05-3.12667E-05 1.85896E-13 1.21621E-12
 -1       114 1.99967E+01 7.45337E-06 1.76089E-05-2.50188E-05 6.06364E-14 5.66940E-13
 -1       115 1.99976E+01 6.94672E-06 1.52622E-05-2.06910E-05-1.47124E-13 1.09766E-12
 -1       116 1.99984E+01 6.35951E-06 1.32344E-05-1.63097E-05 1.56169E-14 1.66762E-12
 -1       117 1.99990E+01 6.50394E-06 1.31127E-05-1.37427E-05 2.78035E-14 1.37926E-12
 -1       118 1.99995E+01 6.63111E-06 1.45677E-05-1.12582E-05-1.13584E-14 1.48890E-12
 -1       119 1.99997E+01 5.76917E-06 1.51898E-05-6.09803E-06 1.19816E-13 1.02579E-12
 -1       120 1.99998E+01-5.62250E-06 3.82876E-07 6.99351E-06-1.56658E-13 8.45437E-13
 -1       121 1.99998E+01 2.37995E-05 2.07949E-07 1.25143E-05 1.10191E-12-7.04015E-14
 -1       122 1.99998E+01-6.40187E-05 1.45776E-05-1.85531E-06 8.68892E-13-8.42583E-14
 -1       123 1.99998E+01-3.29699E-04 1.04169E-05-1.03208E-05 4.58717E-13 1.30682E-13
 -1       124 1.99998E+01-6.97331E-04 3.27915E-06-1.36274E-05 8.57285E-13 2.83740E-13
 -1       125 1.99998E+01-1.09288E-03-3.10990E-06-1.33955E-05-6.57148E-13-6.05390E-13
 -1       126 1.99998E+01-1.44568E-03-7.93567E-06-1.11004E-05-2.48974E-12-4.06657E-14
 -1       127 1.99998E+01-1.71503E-03-1.11357E-05-7.20979E-06-1.82330E-12 3.64685E-13
 -1       128 1.99998E+01-1.85824E-03-1.27442E-05-2.46680E-06-1.28427E-12 1.14675E-13
 -1       129 1.99998E+01-1.85683E-03-1.27207E-05 2.54494E-06-1.05579E-12 5.97523E-14
 -1       130 1.99998E+01-1.71105E-03-1.10716E-05 7.26079E-06-1.04689E-13-8.88850E-14
 -1       131 1.99998E+01-1.43997E-03-7.77096E-06 1.12216E-05-6.90445E-13-8.55199E-14
 -1       132 1.99998E+01-1.08667E-03-3.02503E-06 1.33829E-05-1.14512E-12 3.18120E-13
 -1       133 1.99998E+01-6.91736E-04 3.27327E-06 1.35051E-05-5.04774E-13 1.24444E-14
 -1       134 1.99998E+01-3.24326E-04 1.10527E-05 1.12807E-05-4.74039E-13-7.77553E-15
 -1       135 1.99998E+01-6.59660E-05 1.27824E-05 2.73013E-06-1.18481E-13-6.81236E-14
 -1       136 1.99998E+01 2.08990E-05-9.92975E-08-2.14368E-05-4.85919E-13-4.32668E-14
 -1       137-1.92236E+00-2.31775E+01-3.44345E+00-4.57353E+00 2.99985E-12 7.80382E-13
 -1       138-2.44237E+00-1.22334E+01-2.91008E+00-4.59972E+00 3.57203E-12 1.71213E-12
 -1       139 1.38053E+00 4.47103E-01-1.87191E+00 1.41643E+00 3.31857E-12 2.55240E-12
 -1       140 1.39425E+01 8.71166E+00-3.69777E-01 1.11314E+01 2.48646E-12 2.73004E-12
 -1       141 3.56964E+01 1.00182E+01 1.65751E+00 1.83873E+01 1.20964E-12 2.09832E-12
 -1       142 6.15170E+01 5.84185E+00 3.82076E+00 1.73366E+01 2.10928E-13 3.44391E-13
 -1       143 7.73681E+01 1.60111E+00 5.12093E+00 5.63763E+00-9.55624E-14-1.75157E-12
 -1       144 7.41835E+01 2.65768E+00 4.87498E+00-9.85130E+00 5.49581E-13-3.41943E-12
 -1       145 5.34775E+01 7.58192E+00 3.15752E+00-1.86241E+01 1.61290E-12-4.06608E-12
 -1       146 2.62598E+01 9.97338E+00 7.61758E-01-1.59226E+01 2.49067E-12-3.68505E-12
 -1       147 6.75877E+00 5.18090E+00-1.23349E+00-6.19597E+00 2.59281E-12-2.55096E-12
 -1       148-1.70274E+00-5.87803E+00-2.59665E+00 2.61777E+00 1.89049E-12-1.18222E-12
 -1       149-2.48167E+00-1.77492E+01-3.29106E+00 5.57555E+00 7.05436E-13-2.63040E-13
 -1       150-1.11959E+00-2.47743E+01-3.49167E+00 3.19180E+00-7.86884E-13 6.11490E-14
 -1       151-7.98262E-01-2.34388E+01-3.24529E+00-1.58424E+00-2.29139E-12-2.34191E-13
 -1       152-1.38670E+00-1.37379E+01-2.56849E+00-3.38756E+00-3.32390E-12-1.01352E-12
 -1       153 2.37168E-01-1.06711E+00-1.57606E+00 2.59266E-01-3.44369E-12-1.91136E-12
 -1       154 7.97926E+00 8.86581E+00-3.75404E-01 8.50877E+00-2.98633E-12-2.56806E-12
 -1       155 2.31954E+01 1.23998E+01 9.54243E-01 1.67833E+01-1.87528E-12-2.44599E-12
 -1       156 4.43822E+01 9.06663E+00 2.27042E+00 1.93796E+01-7.17509E-13-1.47798E-12
 -1       157 6.17608E+01 3.39989E+00 3.16675E+00 1.27785E+01-3.43371E-14-4.37983E-14
 -1       158 6.14810E+01 3.75409E+00 3.19265E+00-1.35356E+01-6.44634E-13 2.64094E-12
 -1       159 4.20661E+01 9.83669E+00 2.21783E+00-1.96511E+01-1.35494E-12 2.90656E-12
 -1       160 2.11370E+01 1.25177E+01 8.89816E-01-1.60797E+01-2.00673E-12 2.35501E-12
 -1       161 6.04313E+00 7.55523E+00-5.37518E-01-6.87445E+00-2.00412E-12 1.72318E-12
 -1       162-7.36858E-01-4.82628E+00-1.90900E+00 1.38984E+00-1.40898E-12 6.49980E-13
 -1       163-1.42001E+00-1.86381E+01-2.93154E+00 3.72964E+00 1.16573E-13 1.21417E-13
 -1       164 2.19259E+01 3.79509E+00-6.46223E-02-3.83300E+00-3.72362E-13-7.18516E-13
 -1       165 2.09437E+01 4.20359E+00-5.23429E-02-2.95539E+00-2.02879E-13-9.11760E-13
 -1       166 2.05372E+01 4.32475E+00-3.68639E-02-2.18408E+00-4.61549E-14-9.28257E-13
 -1       167 2.02861E+01 4.29744E+00-2.86434E-02-1.42309E+00 7.48850E-14-8.74649E-13
 -1       168 1.99654E+01 4.22567E+00-2.37821E-02-6.51997E-01 1.63969E-13-7.72495E-13
 -1       169 1.94195E+01 4.17308E+00-2.04355E-02 1.29239E-01 2.48145E-13-6.76332E-13
 -1       170 1.85866E+01 4.20064E+00-1.78713E-02 8.45906E-01 3.24216E-13-5.83805E-13
 -1       171 1.75127E+01 4.35299E+00-1.59062E-02 1.39913E+00 3.77859E-13-5.25639E-13
 -1       172 1.63972E+01 4.62802E+00-1.49048E-02 1.68366E+00 4.22880E-13-4.68876E-13
 -1       173 1.55914E+01 4.95488E+00-1.51495E-02 1.64676E+00 4.48177E-13-4.11375E-13
 -1       174 1.54925E+01 5.20866E+00-1.71680E-02 1.35991E+00 4.65466E-13-3.24166E-13
 -1       175 1.63852E+01 5.28546E+00-2.22388E-02 1.00426E+00 4.82970E-13-1.79322E-13
 -1       176 1.83282E+01 5.11868E+00-2.98690E-02 8.48852E-01 4.83079E-13 4.94223E-14
 -1       177 2.11349E+01 4.66313E+00-3.78612E-02 1.13116E+00 4.46686E-13 4.08668E-13
 -1       178 2.46410E+01 3.63722E+00-3.60331E-02 1.93237E+00 3.20952E-13 9.92248E-13
 -1       179 2.73836E+01 9.76569E-01-3.29273E-01 1.80329E+00 1.68926E-13 1.67140E-12
 -1       180 2.28816E+01 8.56958E-01-2.54480E-03-2.15250E+00-3.82836E-13-2.55657E-13
 -1       181 2.11342E+01 1.38357E-01-1.24614E-02-1.03394E+00-3.19102E-13-3.78696E-13
 -1       182 2.00413E+01 4.23041E-02 1.24889E-02-6.86971E-01-2.06721E-13-4.82272E-13
 -1       183 1.92794E+01-1.02445E-03 9.66454E-03-6.01512E-01-1.48574E-13-5.70006E-13
 -1       184 1.86404E+01 4.39561E-03 5.60654E-03-5.75644E-01-1.11724E-13-6.34357E-13
 -1       185 1.80904E+01 3.51118E-02 3.83181E-03-5.12547E-01-7.81712E-14-7.25947E-13
 -1       186 1.76620E+01 7.43182E-02 3.40798E-03-3.66831E-01-1.14181E-13-7.86778E-13
 -1       187 1.74157E+01 1.04571E-01 3.35456E-03-1.37080E-01-1.08413E-13-8.03619E-13
 -1       188 1.74008E+01 1.11886E-01 3.18742E-03 1.37894E-01-1.25013E-13-8.52721E-13
 -1       189 1.76250E+01 9.20154E-02 2.72858E-03 3.95882E-01-8.21348E-14-9.06367E-13
 -1       190 1.80450E+01 5.23113E-02 1.94314E-03 5.78342E-01-3.32317E-14-1.05207E-12
 -1       191 1.85792E+01 7.07053E-03 9.30698E-04 6.53800E-01-9.29421E-15-1.06177E-12
 -1       192 1.91352E+01-3.01859E-02-1.34635E-04 6.25538E-01 5.17267E-15-1.07178E-12
 -1       193 1.96353E+01-5.21560E-02-1.03783E-03 5.22750E-01-4.34257E-14-1.03354E-12
 -1       194 2.00316E+01-5.85224E-02-1.62349E-03 3.84034E-01-1.82515E-15-9.57211E-13
 -1       195 2.03069E+01-5.34029E-02-1.84271E-03 2.43255E-01 4.59940E-14-8.82341E-13
 -1       196 2.04680E+01-4.21790E-02-1.75052E-03 1.22508E-01 9.09562E-14-8.47536E-13
 -1       197 2.05356E+01-2.93526E-02-1.45558E-03 3.16388E-02 4.03744E-14-8.95490E-13
 -1       198 2.05353E+01-1.77569E-02-1.07291E-03-2.86504E-02-6.37683E-14-9.42718E-13
 -1       199 2.04915E+01-8.67844E-03-6.92853E-04-6.28555E-02 3.04284E-14-9.67915E-13
 -1       200 2.04245E+01-2.34242E-03-3.69873E-04-7.74483E-02 6.38308E-14-8.05633E-13
 -1       201 2.03491E+01 1.59602E-03-1.26319E-04-7.88360E-02 9.03461E-14-8.86657E-13
 -1       202 2.02752E+01 3.69552E-03 3.77581E-05-7.23565E-02-1.33852E-13-8.03686E-13
 -1       203 2.02085E+01 4.52023E-03 1.34440E-04-6.19754E-02 5.73091E-14-5.65208E-13
 -1       204 2.01518E+01 4.54332E-03 1.80177E-04-5.03691E-02 5.59491E-14-6.34049E-13
 -1       205 2.01058E+01 4.11933E-03 1.91041E-04-3.91715E-02 9.55120E-14-6.95881E-13
 -1       206 2.00699E+01 3.49175E-03 1.80436E-04-2.92539E-02-1.77303E-13-7.91551E-13
 -1       207 2.00429E+01 2.81451E-03 1.58422E-04-2.09738E-02-6.62338E-14-8.17182E-13
 -1       208 2.00233E+01 2.17589E-03 1.31915E-04-1.43711E-02 2.50900E-14-8.65696E-13
 -1       209 2.00097E+01 1.61952E-03 1.05276E-04-9.30856E-03 1.39896E-14-8.25563E-13
 -1       210 2.00007E+01 1.16069E-03 8.09615E-05-5.56639E-03 1.32577E-13-6.73763E-13
 -1       211 1.99951E+01 7.98116E-04 6.01254E-05-2.90149E-03 1.02080E-14-7.26830E-13
 -1       212 1.99920E+01 5.21881E-04 4.30856E-05-1.08126E-03 9.57841E-14-6.54518E-13
 -1       213 1.99906E+01 3.18501E-04 2.96722E-05 9.94274E-05 1.00618E-13-5.21958E-13
 -1       214 1.99904E+01 1.73899E-04 1.94641E-05 8.11756E-04-1.00393E-13-6.34606E-13
 -1       215 1.99909E+01 7.50308E-05 1.19425E-05 1.19283E-03-4.19850E-14-6.10097E-13
 -1       216 1.99917E+01 1.06229E-05 6.58258E-06 1.34870E-03 2.46688E-14-7.69038E-13
 -1       217 1.99928E+01-2.86146E-05 2.90245E-06 1.35893E-03 5.74161E-14-4.66724E-13
 -1       218 1.99939E+01-5.00708E-05 4.85973E-07 1.28131E-03-1.20952E-13-4.57176E-13
 -1       219 1.99950E+01-5.94658E-05-1.01211E-06 1.15646E-03 1.36118E-14-4.29867E-13
 -1       220 1.99960E+01-6.11414E-05-1.87022E-06 1.01165E-03-2.15772E-15-3.80615E-13
 -1       221 1.99968E+01-5.83648E-05-2.30780E-06 8.64027E-04 2.23382E-13-3.71834E-13
 -1       222 1.99976E+01-5.36225E-05-2.48918E-06 7.23028E-04-8.60012E-15-1.79670E-13
 -1       223 1.99982E+01-4.89086E-05-2.52591E-06 5.92159E-04 4.02712E-13-3.48076E-13
 -1       224 1.99988E+01-4.59025E-05-2.42810E-06 4.70179E-04 3.02325E-13-4.02268E-13
 -1       225 1.99992E+01-4.62109E-05-2.12789E-06 3.51986E-04 8.65642E-14-1.96390E-13
 -1       226 1.99995E+01-5.07626E-05-1.80881E-06 2.30222E-04 2.38523E-13-5.74512E-14
 -1       227 1.99997E+01-5.64833E-05-1.29567E-06 1.02048E-04 6.18629E-14 8.41200E-14
 -1       228 2.69386E+01 3.25640E-01-4.29418E-02-1.77259E-01 2.16247E-13 1.47048E-12
 -1       229 2.73050E+01 2.08481E-01 3.42808E-03-1.10555E+00 1.11798E-13 1.29017E-12
 -1       230 2.84533E+01 3.80948E-02 1.12724E-02-1.48932E+00 4.15857E-15 1.20092E-12
 -1       231 2.97891E+01-3.02057E-01 3.31182E-02-1.17372E+00-9.19004E-14 1.27043E-12
 -1       232 3.06132E+01-8.36386E-01 5.74667E-02 3.90900E-01-1.93769E-13 1.46216E-12
 -1       233 2.99815E+01-9.87369E-01-1.89269E-03 2.84528E+00-2.69725E-13 1.71067E-12
 -1       234 2.78817E+01 9.60455E-02-1.90381E-01 4.13107E+00 2.27041E-14 1.79652E-12
 -1       235 2.61957E+01 1.52121E+00-3.33315E-01 2.08800E+00 3.80473E-13 1.56160E-12
 -1       236 2.65109E+01 1.59425E+00-2.87499E-01-1.96769E+00 5.45411E-13 1.02246E-12
 -1       237 2.86661E+01 1.27562E-01-1.23037E-01-4.19862E+00 3.85962E-13 4.74992E-13
 -1       238 3.04738E+01-8.77436E-01 1.67375E-02-3.14187E+00 2.16399E-13 1.03785E-13
 -1       239 3.08996E+01-9.00726E-01 4.98625E-02-7.63870E-01 2.72508E-14 1.08214E-13
 -1       240 2.99073E+01-4.49184E-01 1.83432E-02 1.04239E+00-1.36696E-14 1.28586E-13
 -1       241 2.82095E+01-8.84879E-02-6.74459E-03 1.72430E+00 8.41341E-15 2.39040E-13
 -1       242 2.64066E+01 7.71561E-02-1.14141E-02 1.70256E+00 1.98367E-13 2.59149E-13
 -1       243 2.47341E+01 1.21184E-01-6.54899E-03 1.38656E+00-5.41672E-14 3.33686E-13
 -1       244 2.34596E+01 1.09959E-01-1.55281E-03 1.04613E+00 1.49091E-14 1.94769E-13
 -1       245 2.24832E+01 8.61838E-02 1.12486E-03 7.56924E-01-1.32065E-13 1.38748E-13
 -1       246 2.17614E+01 6.29447E-02 2.04359E-03 5.35863E-01 1.78682E-13 1.84979E-13
 -1       247 2.12369E+01 4.45785E-02 1.99481E-03 3.75221E-01 1.41107E-13 3.26071E-13
 -1       248 2.08456E+01 3.04305E-02 1.75641E-03 2.56872E-01-7.78725E-14 3.47180E-13
 -1       249 2.05831E+01 2.10627E-02 1.31059E-03 1.78374E-01-2.88560E-13 4.05200E-13
 -1       250 2.03966E+01 1.46301E-02 9.83131E-04 1.23592E-01-2.07261E-13 5.99873E-13
 -1       251 2.02650E+01 1.01757E-02 7.24019E-04 8.52929E-02-8.56386E-14 4.85100E-13
 -1       252 2.01727E+01 7.09515E-03 5.28562E-04 5.84576E-02-3.65693E-14 4.56628E-13
 -1       253 2.01084E+01 4.97400E-03 3.80309E-04 3.96174E-02 1.91888E-13 5.63059E-13
 -1       254 2.00625E+01 3.39464E-03 2.79536E-04 2.58727E-02-3.33804E-14 6.54683E-13
 -1       255 2.00333E+01 2.35968E-03 1.97977E-04 1.67682E-02 5.58669E-14 5.56503E-13
 -1       256 2.00140E+01 1.62535E-03 1.43158E-04 1.04453E-02 1.78701E-13 6.16165E-13
 -1       257 2.00018E+01 1.10224E-03 1.03040E-04 6.09641E-03 8.53152E-14 6.13464E-13
 -1       258 1.99944E+01 7.30023E-04 7.34827E-05 3.15609E-03 1.69080E-14 5.38398E-13
 -1       259 1.99904E+01 4.70678E-04 5.19613E-05 1.21655E-03-1.00156E-13 1.64623E-13
 -1       260 1.99885E+01 2.75470E-04 3.60045E-05-5.73968E-05-2.59943E-13 2.60827E-13
 -1       261 1.99883E+01 1.52921E-04 2.43638E-05-7.72627E-04-8.68130E-14 6.13139E-13
 -1       262 1.99888E+01 6.91402E-05 1.62221E-05-1.15362E-03 1.85987E-14 4.53854E-13
 -1       263 1.99899E+01 1.47127E-05 1.03246E-05-1.31233E-03 2.04689E-13 4.33944E-13
 -1       264 1.99912E+01-1.81080E-05 6.35255E-06-1.32876E-03 3.34211E-13 4.54026E-13
 -1       265 1.99926E+01-3.83160E-05 3.24584E-06-1.25324E-03-1.87901E-13 2.37031E-13
 -1       266 1.99939E+01-4.61636E-05 1.42539E-06-1.13385E-03-1.64919E-13 1.35343E-13
 -1       267 1.99950E+01-4.84109E-05 1.84401E-07-9.95031E-04-1.16454E-13 4.58725E-13
 -1       268 1.99961E+01-4.66469E-05-6.01071E-07-8.53196E-04 1.70678E-13 5.37366E-13
 -1       269 1.99970E+01-4.28946E-05-1.08872E-06-7.17938E-04 1.75589E-13 5.54750E-13
 -1       270 1.99978E+01-3.85539E-05-1.30536E-06-5.93824E-04-2.28451E-13 5.13735E-13
 -1       271 1.99984E+01-3.48152E-05-1.46279E-06-4.75677E-04-6.38543E-14 4.16820E-13
 -1       272 1.99989E+01-3.28993E-05-1.21605E-06-3.71027E-04-7.52799E-14 7.86810E-13
 -1       273 1.99993E+01-3.39398E-05-5.78986E-07-2.68551E-04-1.11605E-13 1.20616E-12
 -1       274 1.99996E+01-3.92403E-05-4.78464E-07-1.60407E-04 6.08691E-13 9.87754E-13
 -1       275 1.99997E+01-3.77207E-05-2.00495E-06-4.88946E-05 5.46635E-14 2.47708E-13
 -1       276 1.99997E+01-1.26572E-04-1.32925E-06-1.07677E-04 1.57152E-13 1.93709E-13
 -1       277 1.99998E+01-3.12916E-04-4.23820E-07-2.17532E-04 3.04347E-13-2.43792E-13
 -1       278 1.99998E+01-5.62416E-04-1.62028E-07-2.88819E-04 8.03271E-14-1.99970E-14
 -1       279 1.99998E+01-8.41381E-04 1.60944E-07-3.07439E-04-4.18164E-13-6.41602E-13
 -1       280 1.99998E+01-1.10609E-03 7.29812E-07-2.78064E-04-3.32030E-13-1.01741E-12
 -1       281 1.99998E+01-1.32885E-03 1.23939E-06-2.08492E-04-3.31835E-13 2.36876E-13
 -1       282 1.99998E+01-1.47457E-03 1.59667E-06-1.10814E-04-5.54092E-13 3.34606E-13
 -1       283 1.99998E+01-1.52452E-03 1.72006E-06 1.15078E-06-3.56424E-13 1.82417E-13
 -1       284 1.99998E+01-1.47233E-03 1.59418E-06 1.12890E-04-1.92107E-13 6.17231E-13
 -1       285 1.99998E+01-1.32474E-03 1.23627E-06 2.09984E-04-1.63355E-13-2.79598E-13
 -1       286 1.99998E+01-1.10533E-03 6.96226E-07 2.77872E-04-1.35577E-13-6.22827E-14
 -1       287 1.99998E+01-8.35957E-04 1.56119E-07 3.07013E-04-5.86306E-14 4.78463E-13
 -1       288 1.99998E+01-5.57513E-04-2.10321E-07 2.87526E-04 1.21807E-13 1.29733E-13
 -1       289 1.99998E+01-3.11762E-04-1.17236E-06 2.15248E-04 3.92023E-14 1.39705E-13
 -1       290 1.99997E+01-1.73664E-04-1.34343E-06 1.78468E-04 1.07974E-13-3.23439E-13
 -1       291-1.02596E+00-9.46766E+00-6.60605E-01 2.65070E-01 9.55902E-13 8.02886E-13
 -1       292 2.77021E+00-8.84696E+00-6.52601E-01 3.24970E+00 1.21636E-12 7.85885E-13
 -1       293 8.81842E+00-6.86275E+00-7.54443E-01 4.44003E+00 1.56164E-12 9.99770E-13
 -1       294 1.95202E+01-3.58119E+00-3.57801E-01 6.15242E+00 1.36974E-12 7.60780E-13
 -1       295 3.11997E+01 1.90240E-01 1.70800E-01 6.54477E+00 1.09596E-12 5.76761E-13
 -1       296 4.22246E+01 2.96057E+00 6.44638E-01 3.29819E+00 1.09397E-12-2.43694E-14
 -1       297 5.13146E+01 6.20642E+00 1.40093E+00 2.34676E+00 9.06303E-13-4.75842E-13
 -1       298 5.14877E+01 7.47282E+00 1.35203E+00-2.57429E-01 8.33972E-13-8.69377E-13
 -1       299 4.71662E+01 5.44150E+00 9.34369E-01-1.73635E+00 8.14571E-13-1.10895E-12
 -1       300 3.86656E+01 1.13143E+00 3.68720E-01-3.54977E+00 6.36012E-13-1.19682E-12
 -1       301 2.73273E+01-2.86192E+00-7.80641E-02-5.65265E+00 5.47951E-13-1.23329E-12
 -1       302 1.35355E+01-4.91810E+00-6.15957E-01-5.54032E+00 7.04881E-13-1.35197E-12
 -1       303 4.72229E+00-8.21185E+00-9.34330E-01-3.28584E+00 3.84581E-13-9.97976E-13
 -1       304 5.57921E-02-1.00375E+01-9.57263E-01-1.20847E+00-7.61474E-14-7.86399E-13
 -1       305-1.46494E+00-1.09947E+01-1.01040E+00 1.10411E+00-5.87412E-13-7.15344E-13
 -1       306 7.38023E-01-8.44407E+00-7.34211E-01 3.55457E+00-8.49348E-13-7.54813E-13
 -1       307 5.61841E+00-5.76626E+00-6.19541E-01 5.23754E+00-1.30920E-12-8.14291E-13
 -1       308 1.38342E+01-1.99015E+00-2.73789E-01 7.37284E+00-1.27265E-12-9.02445E-13
 -1       309 2.32021E+01 1.92573E+00 8.00332E-02 8.62388E+00-1.32233E-12-7.89369E-13
 -1       310 3.40537E+01 4.68716E+00 4.97647E-01 8.50182E+00-1.08523E-12-6.43485E-13
 -1       311 4.33206E+01 6.20822E+00 8.32429E-01 6.09755E+00-8.60881E-13-2.46220E-13
 -1       312 4.75614E+01 7.14572E+00 9.33342E-01 1.91095E+00-7.22866E-13 1.61066E-13
 -1       313 4.83787E+01 6.96398E+00 1.02075E+00-2.44669E+00-6.13787E-13 6.35950E-13
 -1       314 4.17920E+01 6.04977E+00 6.85956E-01-5.41110E+00-5.57526E-13 7.35523E-13
 -1       315 3.28837E+01 4.26127E+00 4.78575E-01-8.62082E+00-6.36199E-13 1.10606E-12
 -1       316 2.19454E+01 1.03867E+00 5.61736E-02-8.46103E+00-6.78402E-13 8.99475E-13
 -1       317 1.16845E+01-3.27156E+00-3.78154E-01-6.78141E+00-3.82583E-13 8.75328E-13
 -1       318 4.37234E+00-7.51143E+00-6.18249E-01-5.07799E+00 2.41002E-13 7.52828E-13
 -1       319-5.67689E-01-1.05841E+01-8.66386E-01-2.42485E+00 7.03201E-13 6.36310E-13
 -1       320 2.12628E+01 2.69225E+00-2.17584E-02-2.36370E+00-1.73757E-13-6.77610E-13
 -1       321 2.17076E+01 2.07981E+00-2.29603E-02-2.67085E+00-3.34892E-13-6.18557E-13
 -1       322 2.08413E+01 2.87007E+00-2.13284E-02-1.08253E+00 1.16151E-13-6.23814E-13
 -1       323 2.04480E+01 2.85202E+00-1.92160E-02-2.71678E-01 2.40786E-13-5.33630E-13
 -1       324 1.97306E+01 2.92382E+00-1.64343E-02 5.90109E-01 3.55689E-13-4.50614E-13
 -1       325 1.86264E+01 3.19088E+00-1.31553E-02 1.39586E+00 4.58025E-13-3.97754E-13
 -1       326 1.72328E+01 3.69290E+00-8.74037E-03 1.97272E+00 5.24643E-13-3.62009E-13
 -1       327 1.58748E+01 4.34180E+00-4.23351E-03 2.13755E+00 5.70625E-13-3.40792E-13
 -1       328 1.50858E+01 4.89854E+00-1.16953E-03 1.82977E+00 5.82582E-13-2.87460E-13
 -1       329 1.53570E+01 5.10537E+00-3.20542E-03 1.18690E+00 5.89818E-13-1.94710E-13
 -1       330 1.69644E+01 4.78286E+00-9.36738E-03 5.42666E-01 5.54515E-13-4.63555E-14
 -1       331 1.97481E+01 3.92250E+00-1.52328E-02 2.21267E-01 5.11573E-13 1.90122E-13
 -1       332 2.32247E+01 2.55741E+00-2.12464E-02 2.37265E-01 4.15412E-13 5.94729E-13
 -1       333 2.53608E+01 1.37572E+00-1.36904E-02 2.67227E-02 3.26151E-13 9.34381E-13
 -1       334 2.54198E+01 7.42783E-01 8.36752E-03-1.36056E+00 2.16504E-13 7.61756E-13
 -1       335 2.12411E+01 4.62258E-01 1.01751E-02-1.57063E+00-2.70856E-13-4.76726E-13
 -1       336 2.06022E+01 1.30100E-01 5.64021E-03-1.22249E+00-2.13477E-13-4.36180E-13
 -1       337 2.00526E+01 4.73690E-02 3.59362E-03-1.09461E+00-1.48053E-13-4.39946E-13
 -1       338 1.95617E+01 1.03072E-01 2.56700E-03-9.90474E-01-1.50271E-13-4.56861E-13
 -1       339 1.91413E+01 2.30394E-01 2.80150E-03-7.96602E-01-1.19744E-13-4.95133E-13
 -1       340 1.88332E+01 3.61802E-01 3.35512E-03-4.67085E-01-1.20691E-13-4.92011E-13
 -1       341 1.86891E+01 4.32635E-01 3.65793E-03-2.93763E-02-1.19069E-13-5.17247E-13
 -1       342 1.87366E+01 4.04558E-01 3.43862E-03 4.29271E-01-1.15648E-13-5.25856E-13
 -1       343 1.89568E+01 2.83625E-01 2.64422E-03 8.02509E-01-1.30222E-13-5.17904E-13
 -1       344 1.92878E+01 1.14098E-01 1.45167E-03 1.01341E+00-5.43823E-14-5.26309E-13
 -1       345 1.96505E+01-4.81320E-02 1.14792E-04 1.04250E+00-3.08601E-14-5.58769E-13
 -1       346 1.99779E+01-1.62678E-01-1.03094E-03 9.23554E-01 3.45443E-14-5.12827E-13
 -1       347 2.02303E+01-2.16187E-01-1.76244E-03 7.17696E-01-1.36707E-14-4.79387E-13
 -1       348 2.03961E+01-2.17356E-01-2.01985E-03 4.86079E-01 5.12956E-14-5.17866E-13
 -1       349 2.04828E+01-1.85128E-01-1.90173E-03 2.73401E-01 8.83931E-14-4.93172E-13
 -1       350 2.05071E+01-1.38531E-01-1.55855E-03 1.03675E-01-2.01306E-14-5.35993E-13
 -1       351 2.04876E+01-9.14205E-02-1.13116E-03-1.62334E-02-1.31644E-14-5.84651E-13
 -1       352 2.04411E+01-5.15020E-02-7.20715E-04-9.03560E-02 3.03084E-14-5.41637E-13
 -1       353 2.03810E+01-2.16026E-02-3.81709E-04-1.27897E-01 1.12421E-13-5.65441E-13
 -1       354 2.03168E+01-1.51650E-03-1.32507E-04-1.39252E-01 1.47175E-13-5.73892E-13
 -1       355 2.02548E+01 1.04307E-02 3.13131E-05-1.33785E-01 7.00278E-14-3.39639E-13
 -1       356 2.01987E+01 1.63409E-02 1.25352E-04-1.18896E-01 1.89895E-15-1.03174E-13
 -1       357 2.01504E+01 1.81757E-02 1.68239E-04-9.98868E-02 1.21856E-15-2.18260E-13
 -1       358 2.01103E+01 1.75188E-02 1.77103E-04-8.02291E-02 5.49794E-14-3.26793E-13
 -1       359 2.00782E+01 1.55292E-02 1.65661E-04-6.19667E-02-4.80037E-14-3.19014E-13
 -1       360 2.00532E+01 1.29895E-02 1.43876E-04-4.61249E-02-1.47808E-13-2.18306E-13
 -1       361 2.00343E+01 1.03858E-02 1.18399E-04-3.30556E-02-2.95506E-14-4.58690E-13
 -1       362 2.00204E+01 7.99054E-03 9.32825E-05-2.27023E-02-2.57036E-14-5.51068E-13
 -1       363 2.00106E+01 5.93167E-03 7.07210E-05-1.47879E-02 1.80400E-13-5.92594E-13
 -1       364 2.00039E+01 4.24675E-03 5.16660E-05-8.93983E-03 5.83155E-14-4.87468E-13
 -1       365 1.99995E+01 2.92103E-03 3.63009E-05-4.76738E-03 3.14846E-13-2.34608E-13
 -1       366 1.99969E+01 1.91319E-03 2.43781E-05-1.90539E-03 5.96597E-14-2.06077E-13
 -1       367 1.99954E+01 1.17168E-03 1.54420E-05-3.55201E-05 1.68109E-14-4.06058E-13
 -1       368 1.99949E+01 6.44233E-04 8.96950E-06 1.10648E-03 6.82845E-14-2.40988E-13
 -1       369 1.99948E+01 2.83071E-04 4.45007E-06 1.73182E-03-1.87198E-15-4.70722E-14
 -1       370 1.99951E+01 4.71456E-05 1.42713E-06 2.00395E-03 1.88062E-13 2.63983E-13
 -1       371 1.99956E+01-9.72984E-05-4.85628E-07 2.04565E-03-4.22350E-15 1.24413E-13
 -1       372 1.99962E+01-1.77127E-04-1.60253E-06 1.94635E-03 1.14125E-13 3.83051E-13
 -1       373 1.99968E+01-2.13204E-04-2.17240E-06 1.76903E-03 4.94663E-14 5.66606E-13
 -1       374 1.99974E+01-2.21458E-04-2.38912E-06 1.55607E-03 7.72990E-14 4.05925E-13
 -1       375 1.99979E+01-2.13976E-04-2.40200E-06 1.33409E-03 7.79349E-14 2.80112E-13
 -1       376 1.99984E+01-2.00027E-04-2.31623E-06 1.11774E-03 1.54299E-14 3.05572E-13
 -1       377 1.99988E+01-1.86996E-04-2.22138E-06 9.12530E-04 1.29937E-13-3.30206E-13
 -1       378 1.99991E+01-1.80004E-04-2.08057E-06 7.17344E-04 9.29549E-14-3.71059E-13
 -1       379 1.99994E+01-1.83993E-04-2.36708E-06 5.27136E-04 6.22409E-14-5.72056E-13
 -1       380 1.99996E+01-1.81498E-04-1.81201E-06 3.50125E-04 2.10800E-13-4.07488E-13
 -1       381 2.59927E+01 2.05315E-01 7.28726E-03-2.13365E+00 5.05566E-14 6.82670E-13
 -1       382 2.71267E+01-7.05342E-01 7.88289E-03-2.05311E+00-1.52907E-13 6.84544E-13
 -1       383 2.89578E+01-2.16436E+00 6.69951E-04-5.00331E-01-3.00362E-13 8.38318E-13
 -1       384 3.09429E+01-2.81933E+00-4.81946E-02 2.48057E+00-3.66862E-13 9.97872E-13
 -1       385 3.21541E+01-2.85761E-01-1.84715E-01 4.73240E+00 1.52447E-14 1.08573E-12
 -1       386 3.22043E+01 3.93619E+00-2.45613E-01 2.89137E+00 5.31047E-13 8.40800E-13
 -1       387 3.24455E+01 4.51108E+00-1.88426E-01-1.93464E+00 9.43745E-13 4.25125E-13
 -1       388 3.23341E+01 6.57943E-01-1.27913E-01-4.73861E+00 6.54907E-13-1.43885E-13
 -1       389 3.14659E+01-2.50214E+00-8.89604E-02-3.38335E+00 3.55209E-13-2.71587E-13
 -1       390 2.96526E+01-2.66628E+00-1.35031E-02-3.41253E-01 5.39742E-14-3.31772E-13
 -1       391 2.75151E+01-1.38440E+00-5.74187E-03 1.89863E+00-1.23944E-13-2.13408E-13
 -1       392 2.57913E+01-2.95625E-01-6.78597E-03 2.69642E+00-8.89124E-14-5.28787E-14
 -1       393 2.44730E+01 2.29321E-01-3.35682E-03 2.61604E+00 6.01457E-14 1.90830E-13
 -1       394 2.33921E+01 3.82995E-01 1.73782E-03 2.15501E+00 1.32526E-14 1.56038E-13
 -1       395 2.25781E+01 3.59130E-01 4.53330E-03 1.65840E+00 1.10187E-13 1.11950E-13
 -1       396 2.19311E+01 2.87279E-01 5.07850E-03 1.22561E+00-9.33611E-14 1.10309E-13
 -1       397 2.14277E+01 2.13764E-01 4.46064E-03 8.85529E-01 6.50346E-14 8.38242E-14
 -1       398 2.10424E+01 1.53484E-01 3.40254E-03 6.31822E-01-1.65339E-14 3.47590E-13
 -1       399 2.07406E+01 1.06563E-01 2.56844E-03 4.40001E-01-7.22274E-14 4.73108E-13
 -1       400 2.05291E+01 7.46914E-02 1.79405E-03 3.10594E-01-1.66748E-13 3.54313E-13
 -1       401 2.03728E+01 5.23416E-02 1.26756E-03 2.18386E-01-2.04205E-13 1.11460E-13
 -1       402 2.02587E+01 3.67319E-02 8.93895E-04 1.52877E-01-1.30177E-14 7.36556E-14
 -1       403 2.01761E+01 2.58287E-02 6.29621E-04 1.06314E-01-7.81366E-14 3.31887E-14
 -1       404 2.01167E+01 1.81795E-02 4.35338E-04 7.32053E-02 1.19471E-13 1.37123E-13
 -1       405 2.00729E+01 1.25605E-02 3.13208E-04 4.86860E-02-5.55621E-14 1.15731E-13
 -1       406 2.00440E+01 8.78717E-03 2.14512E-04 3.23161E-02 3.84803E-14 1.62226E-13
 -1       407 2.00242E+01 6.10184E-03 1.50104E-04 2.07744E-02 2.57039E-13 3.64282E-13
 -1       408 2.00110E+01 4.18022E-03 1.04207E-04 1.27243E-02 2.50408E-13 1.68189E-13
 -1       409 2.00024E+01 2.80723E-03 7.11874E-05 7.19056E-03 6.38449E-14 1.93832E-13
 -1       410 1.99972E+01 1.83130E-03 4.71467E-05 3.46671E-03 2.17724E-14 1.72454E-13
 -1       411 1.99941E+01 1.11234E-03 3.11378E-05 9.38333E-04-2.45752E-13 1.20046E-13
 -1       412 1.99928E+01 6.41972E-04 1.86948E-05-5.38674E-04-2.30353E-13 4.64120E-14
 -1       413 1.99925E+01 3.22475E-04 1.07716E-05-1.39215E-03 4.24837E-14 2.11050E-13
 -1       414 1.99927E+01 1.11451E-04 5.31828E-06-1.82013E-03 1.20904E-13 4.27670E-13
 -1       415 1.99934E+01-2.12461E-05 1.85059E-06-1.96719E-03 3.05432E-13 1.18919E-13
 -1       416 1.99942E+01-1.03108E-04-4.69665E-07-1.93279E-03-4.39872E-14 2.76988E-13
 -1       417 1.99951E+01-1.41672E-04-1.81440E-06-1.79487E-03-6.92934E-14 6.11283E-14
 -1       418 1.99959E+01-1.55873E-04-2.45614E-06-1.60553E-03-1.76021E-13 1.10396E-13
 -1       419 1.99967E+01-1.54826E-04-2.71851E-06-1.39706E-03 3.49726E-14-1.71881E-13
 -1       420 1.99974E+01-1.45347E-04-2.75050E-06-1.18932E-03-7.56754E-14 1.08397E-13
 -1       421 1.99980E+01-1.32566E-04-2.58678E-06-9.92841E-04 1.57906E-13 3.78078E-13
 -1       422 1.99985E+01-1.20765E-04-2.52507E-06-8.02086E-04-3.60301E-13 1.36238E-13
 -1       423 1.99989E+01-1.14017E-04-2.32781E-06-6.32730E-04-3.38953E-13 5.08841E-13
 -1       424 1.99993E+01-1.14179E-04-2.00166E-06-4.69201E-04-1.96826E-13-1.80966E-14
 -1       425 1.99995E+01-1.20917E-04-1.69366E-06-3.05586E-04 6.96130E-13-1.57877E-13
 -1       426 1.99996E+01-1.31306E-04-1.19142E-06-2.06637E-04 6.76560E-13 9.00701E-14
 -1       427 1.99998E+01-6.84246E-04-3.79990E-07-5.28908E-04-3.02589E-13-4.68651E-13
 -1       428 1.99997E+01-4.51003E-04-1.38172E-06-4.68278E-04-6.98960E-15-4.40774E-13
 -1       429 1.99997E+01-2.79297E-04-1.63737E-06-3.49781E-04 4.65820E-13-4.27447E-13
 -1       430 1.99998E+01-9.08261E-04 4.08203E-07-5.10956E-04-2.76205E-14-1.07131E-12
 -1       431 1.99999E+01-1.10629E-03 1.01913E-06-4.21202E-04 3.00076E-13-1.93209E-13
 -1       432 2.00000E+01-1.25160E-03 1.45936E-06-2.75285E-04 1.76049E-13 1.34107E-13
 -1       433 2.00000E+01-1.32792E-03 1.69578E-06-9.42425E-05-3.96203E-14 2.89304E-13
 -1       434 2.00000E+01-1.32670E-03 1.69576E-06 9.84752E-05 1.06678E-13 4.10464E-13
 -1       435 2.00000E+01-1.24817E-03 1.45692E-06 2.78730E-04-4.75002E-14 1.58311E-13
 -1       436 1.99999E+01-1.10432E-03 9.99667E-07 4.21315E-04 2.79097E-13-1.70857E-13
 -1       437 1.99998E+01-9.06114E-04 4.19443E-07 5.10638E-04 4.05698E-13 6.03732E-13
 -1       438 1.99998E+01-6.78814E-04-2.17789E-07 5.27806E-04 4.22901E-13 3.14315E-13
 -1       439 1.99997E+01-4.45053E-04-1.24477E-06 4.68079E-04 3.09985E-13-2.68768E-15
 -1       440 1.10020E+01-6.26142E+00-8.88291E-02 6.17109E+00 5.31075E-13 3.59802E-13
 -1       441 1.57822E+00-3.55394E+00 3.72406E-02-2.00730E+00 4.68979E-13 6.48259E-13
 -1       442 4.38387E+00-3.46581E+00 1.04376E-01 3.52247E+00 1.62682E-13 6.58334E-13
 -1       443 1.89604E+01-6.66959E+00-1.30636E-01 6.02201E+00 5.69711E-13 1.36627E-13
 -1       444 2.94262E+01-5.22191E+00-4.34054E-02 3.13678E+00 6.79887E-13-1.60150E-13
 -1       445 2.10445E+01 2.86210E+00-2.77984E-02-1.79645E+00-9.77365E-15-6.93946E-13
 -1       446 3.93315E+01 3.86944E+00 1.60797E-01-2.36382E+00 1.17144E-12-1.02474E-13
 -1       447 4.00364E+01 7.00919E+00 2.44291E-01-1.16182E+00 1.07075E-12-9.06220E-15
 -1       448 3.86160E+01 5.83141E+00 5.54487E-02 1.81836E+00 7.02965E-13 1.90542E-13
 -1       449 3.81088E+01 1.83262E+00 8.22083E-02 2.54393E+00 3.86330E-13 4.59632E-14
 -1       450 3.35756E+01-3.95335E+00-4.11768E-02 2.92859E-01-1.25490E-13-4.79755E-14
 -1       451 2.44368E+01-6.47616E+00-7.14753E-02-4.77941E+00-2.15397E-13-6.06591E-13
 -1       452 1.58682E+01-5.99765E+00-4.29515E-02-6.33781E+00-1.38028E-13-8.53024E-13
 -1       453 6.50688E+00-5.03371E+00-8.85440E-02-4.92719E+00-5.57054E-14-9.28840E-13
 -1       454 1.73053E+00-3.29299E+00-1.47834E-02-1.01208E+00-1.30729E-14-9.12215E-13
 -1       455 1.55586E+00-3.17742E+00-2.41752E-02 3.06957E+00 4.70526E-14-8.04801E-13
 -1       456 6.84950E+00-3.96367E+00-2.04928E-02 7.09049E+00-7.39964E-14-5.19598E-13
 -1       457 1.43419E+01-4.26557E+00-1.16055E-02 8.15785E+00-1.35711E-13-2.98653E-13
 -1       458 2.29461E+01-3.27581E+00-2.93688E-03 6.87446E+00-4.45061E-13-8.16569E-14
 -1       459 2.99722E+01-4.75866E-01 2.23328E-02 4.42947E+00-6.90635E-13-4.97796E-14
 -1       460 3.49785E+01 3.59331E+00 5.28594E-02 1.84563E+00-8.89164E-13-7.94642E-14
 -1       461 3.60632E+01 7.17975E+00-1.78777E-02-1.62674E-01-9.21013E-13-1.35392E-13
 -1       462 3.64860E+01 8.86295E+00-1.51773E-02-1.14283E-01-7.67747E-13-2.13504E-13
 -1       463 3.61801E+01 7.44321E+00-2.98207E-02-1.15742E-01-4.69666E-13-1.81133E-13
 -1       464 3.42484E+01 2.73433E+00 1.17452E-02-2.26434E+00-2.34909E-13-4.06342E-14
 -1       465 2.93361E+01-1.88401E+00 3.25380E-03-4.25879E+00 2.44249E-15 1.33435E-13
 -1       466 2.18059E+01-4.59856E+00 1.84007E-03-7.18671E+00 2.55865E-13 4.10491E-13
 -1       467 1.29158E+01-5.31605E+00-1.43458E-02-8.09087E+00 3.31291E-13 6.81278E-13
 -1       468 4.54157E+00-4.48634E+00-1.38385E-02-5.88241E+00 4.74162E-13 9.73596E-13
 -1       469 3.56564E+01-1.89347E+00 9.95631E-03-2.14939E-01 7.50750E-13-1.48687E-13
 -1       470 3.27572E+01 4.65255E+00-1.06611E-01 1.06101E+00-2.20393E-13-4.33403E-13
 -1       471 2.21639E+01 1.37540E+00 1.44119E-02-2.12234E+00 2.17714E-13 2.80043E-13
 -1       472 2.09649E+01 1.63775E+00-7.04902E-03 2.15496E-01 2.86957E-13-4.02226E-13
 -1       473 2.14068E+01 1.65341E+00-8.72451E-03-7.13847E-01 1.66909E-13-4.69940E-13
 -1       474 1.85728E+01 2.26781E+00-4.16815E-03 2.24531E+00 5.01224E-13-3.06465E-13
 -1       475 1.67026E+01 3.08577E+00 4.48425E-04 2.81937E+00 5.87825E-13-3.09981E-13
 -1       476 1.50069E+01 4.01270E+00 5.06613E-03 2.66603E+00 6.21704E-13-3.15166E-13
 -1       477 1.42548E+01 4.63733E+00 5.71238E-03 1.75809E+00 6.14812E-13-2.64855E-13
 -1       478 1.51689E+01 4.53904E+00 3.76807E-03 4.70507E-01 5.52130E-13-1.85195E-13
 -1       479 1.77061E+01 3.70214E+00-3.62698E-03-5.94207E-01 4.69752E-13-7.72324E-16
 -1       480 2.25477E+01 4.68651E-02 4.64287E-03-3.11147E+00-3.32230E-14 1.77136E-13
 -1       481 2.14135E+01 5.30698E-01 7.63974E-04-1.72161E+00-1.94038E-13-4.44154E-13
 -1       482 3.41817E+01-7.13912E-02-1.03234E-01-3.91112E+00 7.20549E-13-3.36953E-13
 -1       483 2.11411E+01 1.78237E-01 1.28707E-03-1.52555E+00-1.57751E-13-3.67642E-13
 -1       484 2.08036E+01 1.59051E-01 1.27826E-03-1.41892E+00-1.45413E-13-3.45335E-13
 -1       485 2.04359E+01 3.52224E-01 1.25804E-03-1.25136E+00-1.51253E-13-3.52139E-13
 -1       486 2.00903E+01 6.33108E-01 1.42996E-03-9.16259E-01-1.22834E-13-3.81140E-13
 -1       487 1.98426E+01 8.57388E-01 1.54140E-03-3.94419E-01-1.59823E-13-4.05984E-13
 -1       488 1.97616E+01 9.03183E-01 1.55931E-03 2.29145E-01-1.07873E-13-3.98704E-13
 -1       489 1.98616E+01 7.32056E-01 1.34729E-03 8.02011E-01-1.24911E-13-4.02655E-13
 -1       490 2.00878E+01 4.06261E-01 1.11553E-03 1.18361E+00-1.12059E-13-4.11934E-13
 -1       491 2.03474E+01 4.48647E-02 5.74120E-04 1.31112E+00-2.31912E-14-3.84270E-13
 -1       492 2.05585E+01-2.44521E-01-8.47523E-05 1.21225E+00 3.77009E-14-3.67624E-13
 -1       493 2.06811E+01-4.09601E-01-6.35977E-04 9.69291E-01 2.69527E-15-4.48348E-13
 -1       494 2.07150E+01-4.53602E-01-9.00795E-04 6.72199E-01-4.01159E-14-3.17690E-13
 -1       495 2.06825E+01-4.11381E-01-9.27408E-04 3.89033E-01 5.76487E-14-3.25373E-13
 -1       496 2.06113E+01-3.24560E-01-8.01846E-04 1.57646E-01-2.23037E-15-4.01847E-13
 -1       497 2.05237E+01-2.26547E-01-6.06408E-04-9.42322E-03-5.08602E-14-4.14719E-13
 -1       498 2.04347E+01-1.37923E-01-4.05411E-04-1.15657E-01-2.65306E-15-4.13124E-13
 -1       499 2.03524E+01-6.80158E-02-2.32387E-04-1.72255E-01 9.62718E-14-3.95434E-13
 -1       500 2.02804E+01-1.85688E-02-1.00908E-04-1.92527E-01 1.07656E-13-4.42720E-13
 -1       501 2.02194E+01 1.27833E-02-1.15657E-05-1.88773E-01 1.89567E-13-4.82816E-13
 -1       502 2.01691E+01 3.00213E-02 4.22103E-05-1.70935E-01 1.82523E-13-4.74842E-13
 -1       503 2.01283E+01 3.72593E-02 6.92796E-05-1.46318E-01-2.70191E-14-4.12769E-13
 -1       504 2.00957E+01 3.80289E-02 7.81344E-05-1.19854E-01 2.13849E-14-2.83338E-13
 -1       505 2.00700E+01 3.50441E-02 7.57433E-05-9.45768E-02-1.75641E-14-3.37201E-13
 -1       506 2.00500E+01 3.02227E-02 6.72747E-05-7.21289E-02-8.49015E-14-2.18223E-13
 -1       507 2.00347E+01 2.48187E-02 5.62502E-05-5.31984E-02-2.15105E-13-1.25439E-13
 -1       508 2.00233E+01 1.95840E-02 4.48725E-05-3.78700E-02-1.31204E-13-4.48981E-14
 -1       509 2.00148E+01 1.49171E-02 3.43826E-05-2.58808E-02 6.32670E-14-1.31781E-13
 -1       510 2.00088E+01 1.09840E-02 2.53689E-05-1.67961E-02 2.40607E-13-1.92157E-13
 -1       511 2.00045E+01 7.80802E-03 1.80077E-05-1.01239E-02 2.29115E-13-2.11541E-13
 -1       512 2.00016E+01 5.33315E-03 1.22365E-05-5.38309E-03 2.28029E-13-2.70658E-13
 -1       513 1.99997E+01 3.46566E-03 7.87154E-06-2.13989E-03-6.34165E-14-2.60794E-13
 -1       514 1.99986E+01 2.10007E-03 4.68202E-06-2.42304E-05 2.20801E-13-1.18494E-13
 -1       515 1.99980E+01 1.13412E-03 2.43412E-06 1.26719E-03 1.83628E-13 1.49281E-13
 -1       516 1.99977E+01 4.76449E-04 9.14213E-07 1.97477E-03 1.86017E-13 1.64200E-13
 -1       517 1.99977E+01 4.96217E-05-6.09726E-08 2.28357E-03-1.53485E-13 8.28884E-14
 -1       518 1.99979E+01-2.09495E-04-6.41869E-07 2.33211E-03 1.98650E-13 1.76855E-13
 -1       519 1.99981E+01-3.50921E-04-9.47753E-07 2.22102E-03 7.63643E-14 1.80377E-13
 -1       520 1.99983E+01-4.13423E-04-1.07164E-06 2.02095E-03-2.22621E-14 3.92161E-13
 -1       521 1.99986E+01-4.26613E-04-1.08766E-06 1.77929E-03-8.18988E-14 3.22372E-13
 -1       522 1.99988E+01-4.12983E-04-1.05356E-06 1.52563E-03-1.46765E-13 6.78237E-14
 -1       523 1.99990E+01-3.89610E-04-9.56817E-07 1.27628E-03-4.00887E-13-7.88131E-14
 -1       524 1.99992E+01-3.70765E-04-1.08048E-06 1.03750E-03 2.43528E-14-3.58702E-13
 -1       525 1.99994E+01-3.60695E-04-9.11482E-07 8.09017E-04-7.73157E-14-2.75200E-13
 -1       526 2.78630E+01-4.81731E+00 2.97633E-02-1.78976E+00-4.31422E-13 2.38974E-13
 -1       527 2.92795E+01-5.37092E+00 1.51375E-02 1.13448E+00 2.15772E-13-5.33355E-13
 -1       528 2.50398E+01-3.40452E+00 3.62124E-02 3.20588E+00-1.08229E-13-4.36240E-13
 -1       529 2.27927E+01-1.05287E+00 2.21676E-02 3.77060E+00-2.69352E-13-2.98890E-13
 -1       530 2.18034E+01 2.73808E-01 5.43255E-03 3.50542E+00-1.59908E-13-1.12483E-13
 -1       531 2.13885E+01 7.76120E-01 3.31770E-03 2.90402E+00-3.56689E-15-3.98280E-14
 -1       532 2.11783E+01 8.16150E-01 3.68781E-03 2.29311E+00 4.38002E-14 9.58610E-14
 -1       533 2.10063E+01 6.95945E-01 4.05228E-03 1.74864E+00-6.15238E-14 2.06696E-13
 -1       534 2.08406E+01 5.40935E-01 3.60451E-03 1.30379E+00 5.15364E-14-7.79987E-15
 -1       535 2.06821E+01 4.01345E-01 2.77994E-03 9.57794E-01-1.09682E-13 1.00270E-13
 -1       536 2.05326E+01 2.85890E-01 2.07848E-03 6.86184E-01-1.08834E-13 1.43155E-13
 -1       537 2.04112E+01 2.04465E-01 1.44657E-03 4.96155E-01 1.62170E-15 1.69483E-13
 -1       538 2.03106E+01 1.45599E-01 1.01335E-03 3.56849E-01-1.33268E-13-4.78197E-14
 -1       539 2.02300E+01 1.03578E-01 7.08691E-04 2.55286E-01-6.38739E-15-1.66922E-13
 -1       540 2.01670E+01 7.37200E-02 4.95157E-04 1.81444E-01 5.35165E-14-2.03753E-13
 -1       541 2.01186E+01 5.25004E-02 3.39454E-04 1.27836E-01-6.33355E-14-1.88144E-13
 -1       542 2.00807E+01 3.67199E-02 2.43746E-04 8.74068E-02 1.25413E-13-1.17586E-13
 -1       543 2.00542E+01 2.60329E-02 1.64483E-04 5.98478E-02 1.26795E-14-2.57223E-13
 -1       544 2.00350E+01 1.83461E-02 1.14036E-04 4.00614E-02 1.81607E-13-4.97243E-13
 -1       545 2.00213E+01 1.27985E-02 7.85532E-05 2.59680E-02 2.80931E-13-3.08591E-13
 -1       546 2.00118E+01 8.79471E-03 5.31866E-05 1.60462E-02 1.18955E-13 7.55170E-14
 -1       547 2.00053E+01 5.91549E-03 3.47651E-05 9.17235E-03-7.21426E-14-1.44271E-14
 -1       548 2.00009E+01 3.76920E-03 2.32451E-05 4.32918E-03-8.36565E-14 1.92057E-14
 -1       549 1.99984E+01 2.33690E-03 1.35947E-05 1.33694E-03-3.29481E-13 1.87632E-13
 -1       550 1.99970E+01 1.34137E-03 7.67148E-06-5.37960E-04-2.40795E-13 3.28952E-13
 -1       551 1.99964E+01 6.64380E-04 3.59780E-06-1.63154E-03-5.40532E-14 6.07239E-14
 -1       552 1.99962E+01 2.18768E-04 9.95091E-07-2.19010E-03 3.16119E-13 4.65475E-14
 -1       553 1.99964E+01-7.24040E-05-5.53098E-07-2.39772E-03 5.85813E-14 3.09206E-13
 -1       554 1.99967E+01-2.31074E-04-1.55100E-06-2.36793E-03-5.94389E-15 1.32645E-13
 -1       555 1.99971E+01-3.11390E-04-1.99106E-06-2.20914E-03-1.76017E-13 5.97729E-14
 -1       556 1.99975E+01-3.40161E-04-2.14632E-06-1.98284E-03 1.31015E-13-1.14021E-13
 -1       557 1.99979E+01-3.37418E-04-2.12920E-06-1.72951E-03 7.31555E-15-1.96239E-13
 -1       558 1.99983E+01-3.18173E-04-1.97383E-06-1.47379E-03-6.76575E-14-3.25168E-13
 -1       559 1.99987E+01-2.92805E-04-1.86204E-06-1.21689E-03-1.81626E-13-1.19673E-13
 -1       560 1.99990E+01-2.72701E-04-1.78848E-06-9.87270E-04-3.89302E-13-1.63229E-13
 -1       561 1.99993E+01-2.64096E-04-2.04585E-06-7.71587E-04 1.54057E-13-5.44072E-13
 -1       562 1.99995E+01-2.66256E-04-1.84379E-06-5.62781E-04 2.43236E-13-6.46091E-13
 -1       563 2.00000E+01-9.72356E-04 4.72290E-07-6.38915E-04 3.91089E-13-4.59693E-13
 -1       564 2.00001E+01-1.12680E-03 5.76902E-07-4.73487E-04 3.48269E-13 7.45406E-14
 -1       565 1.99997E+01-5.58795E-04-1.79053E-07-7.11920E-04 3.18457E-13-7.41440E-13
 -1       566 1.99998E+01-7.77717E-04 1.33442E-07-7.22868E-04 1.41622E-13-6.10703E-13
 -1       567 2.00002E+01-1.22465E-03 7.15359E-07-2.49994E-04 1.76137E-13 8.06330E-14
 -1       568 2.00002E+01-1.25712E-03 7.68835E-07 3.37647E-06 2.42301E-13 5.42087E-13
 -1       569 2.00002E+01-1.22152E-03 7.16542E-07 2.56099E-04 2.15542E-13 3.94055E-13
 -1       570 2.00001E+01-1.12351E-03 5.76467E-07 4.74477E-04 2.64755E-13 7.39055E-14
 -1       571 2.00000E+01-9.69210E-04 2.93486E-07 6.38547E-04 3.68934E-13 8.80930E-14
 -1       572 1.99998E+01-7.71206E-04-1.13432E-07 7.20773E-04 2.93579E-13 4.89620E-13
 -1       573 1.99997E+01-5.52305E-04-5.58412E-07 7.08482E-04 2.42687E-13 1.62079E-13
 -1       574 5.85538E+00-1.18277E-01 2.14960E-01 5.45713E-01 7.61127E-14 4.05481E-13
 -1       575 1.13046E+01-3.24203E+00 1.44978E-01 5.73834E+00-1.19557E-13 1.03584E-13
 -1       576 1.20736E+01-3.27015E+00 1.49511E-01-7.56205E+00 3.69059E-13 8.03316E-13
 -1       577 2.45108E+01-2.30548E+00 6.70999E-02-3.37168E+00-3.14089E-13 1.57278E-13
 -1       578 3.34507E+01-3.39941E+00-6.30242E-02-1.51435E+00 5.16614E-13-3.38590E-13
 -1       579 1.85201E+01-5.41714E+00 8.96991E-02 6.06121E+00 4.47142E-14-1.24494E-13
 -1       580 2.59701E+01-6.03649E+00-1.13830E-02 3.61567E+00 2.51806E-13-5.35263E-13
 -1       581 5.90277E+00-1.28233E+00 1.78718E-01-4.32521E+00 2.58037E-13 8.67056E-13
 -1       582 3.07466E+01 7.73402E+00-1.88047E-01-9.57934E-01-7.70772E-13-1.94376E-13
 -1       583 1.38669E+01-3.53876E+00 8.76251E-02-5.95465E+00-2.12518E-13-7.36328E-13
 -1       584 2.00484E+01 1.79508E+00-4.82204E-03 1.26868E+00 4.08026E-13-3.25815E-13
 -1       585 7.14086E+00-1.28234E+00 1.67067E-01-3.69328E+00 2.38004E-14-8.51735E-13
 -1       586 2.23014E+01-4.99618E+00 1.57952E-01-4.95899E+00-3.48596E-13-3.68254E-13
 -1       587 1.29010E+01-2.71847E+00 1.16401E-01 7.91155E+00 3.97585E-13-2.47011E-13
 -1       588 4.16457E+00 1.28547E-01 1.74727E-01 1.07277E+00 2.95488E-13-7.55951E-13
 -1       589 3.07910E+01-7.54563E-01-8.56407E-02-6.36642E-01 8.44463E-14-4.58925E-13
 -1       590 6.89562E+00-5.22210E-01 1.75644E-01 5.76680E+00 4.62595E-13-5.51087E-13
 -1       591 2.11945E+01-4.16492E+00 6.50860E-02 6.88903E+00 1.72258E-13 1.00722E-13
 -1       592 2.73261E+01-3.29799E+00-2.00306E-02 3.69474E+00-1.68116E-13 2.22038E-13
 -1       593 3.09844E+01 1.33637E-01-8.35718E-02 5.36429E-01-4.96336E-13 1.83381E-13
 -1       594 3.18071E+01 4.26867E+00-1.35005E-01-1.30531E+00-7.18064E-13 9.07122E-14
 -1       595 3.10082E+01 7.69842E+00-1.87114E-01 7.65052E-01-5.01599E-13-4.50098E-13
 -1       596 2.64345E+01-4.67144E+00-1.60330E-02-4.31671E+00 3.63432E-13-8.97268E-14
 -1       597 1.97557E+01-5.12682E+00 6.92719E-02-7.27406E+00 4.35506E-13 3.11195E-13
 -1       598 2.15476E+01 1.32003E+00-8.67036E-03-2.06186E+00-1.99780E-13-5.33404E-13
 -1       599 2.27395E+01 1.90744E+00 4.97094E-03-1.02197E+00 3.59952E-13 4.17536E-13
 -1       600 2.15481E+01 1.69075E+00-9.41804E-03-1.44877E+00 3.57634E-14-5.84805E-13
 -1       601 1.99995E+01-3.61213E-04-1.10558E-06 6.54552E-04 2.31642E-13 4.48761E-14
 -1       602 9.55052E+00-2.42136E-01 1.69101E-01 3.41690E+00-1.42438E-13 3.02133E-13
 -1       603 1.31347E+01-6.41365E-01 1.44247E-01-4.59497E+00-4.47350E-14-6.33701E-13
 -1       604 1.56594E+01 2.47845E+00 1.41086E-02 3.84435E+00 6.24211E-13-2.67591E-13
 -1       605 1.83782E+01 1.28580E+00 5.20673E-04 3.37809E+00 5.43175E-13-2.25754E-13
 -1       606 1.30852E+01 4.19782E+00 2.38136E-02 1.04870E+00 5.51538E-13-3.16599E-13
 -1       607 1.52528E+01 3.55527E+00 3.03007E-02-8.40424E-01 4.27945E-13-2.03150E-13
 -1       608 1.82249E+01 1.95436E+00 4.23396E-02-2.64145E+00 2.21998E-13-6.04126E-14
 -1       609 1.99996E+01-5.55845E-04-5.14097E-07 8.70207E-04 2.91363E-13 7.99026E-14
 -1       610 2.37832E+01-4.84603E+00 1.80455E-02-4.81197E+00 4.58796E-13-1.27398E-13
 -1       611 2.17748E+01 1.86052E-01 5.60196E-05-1.67334E+00-1.37453E-13-3.36170E-13
 -1       612 2.15802E+01 3.60840E-01 6.87842E-04-1.62556E+00-1.46369E-13-3.10915E-13
 -1       613 2.12752E+01 7.91884E-01 3.61636E-04-1.40346E+00-1.58348E-13-2.99726E-13
 -1       614 2.09543E+01 1.26618E+00 4.95142E-04-9.06275E-01-1.71947E-13-3.70689E-13
 -1       615 2.07498E+01 1.52667E+00 2.96909E-04-1.69195E-01-1.42293E-13-3.74098E-13
 -1       616 2.07486E+01 1.40845E+00-1.79588E-04 6.17425E-01-1.03278E-13-3.49786E-13
 -1       617 2.09235E+01 9.41907E-01 2.36856E-04 1.21700E+00-1.16972E-13-2.72013E-13
 -1       618 2.11531E+01 3.18563E-01 6.02606E-04 1.48197E+00-3.70710E-14-3.01016E-13
 -1       619 2.13092E+01-2.39199E-01 4.10783E-04 1.41755E+00-4.01000E-14-3.40758E-13
 -1       620 2.13297E+01-5.97001E-01-8.53364E-05 1.13653E+00-2.13064E-14-3.86940E-13
 -1       621 2.12254E+01-7.34475E-01-3.00703E-04 7.72542E-01 7.65790E-14-2.74394E-13
 -1       622 2.10441E+01-7.03309E-01-3.60054E-04 4.25003E-01 2.96837E-14-2.10242E-13
 -1       623 2.08375E+01-5.76878E-01-3.29662E-04 1.45707E-01-3.17611E-14-1.77657E-13
 -1       624 2.06419E+01-4.17761E-01-2.50532E-04-5.11302E-02-9.23779E-14-2.69960E-13
 -1       625 2.04762E+01-2.66310E-01-1.70616E-04-1.72605E-01 1.95966E-15-2.27677E-13
 -1       626 2.03454E+01-1.42399E-01-1.01317E-04-2.34445E-01 5.90998E-14-2.19096E-13
 -1       627 2.02471E+01-5.17171E-02-4.78534E-05-2.53732E-01-7.30960E-15-2.66069E-13
 -1       628 2.01758E+01 8.11660E-03-1.16640E-05-2.45453E-01 1.91085E-14-3.94198E-13
 -1       629 2.01250E+01 4.30219E-02 1.01413E-05-2.21316E-01 2.63583E-13-4.17750E-13
 -1       630 2.00892E+01 5.96734E-02 2.14116E-05-1.89738E-01 1.64494E-13-2.88208E-13
 -1       631 2.00640E+01 6.40744E-02 2.56218E-05-1.56336E-01 2.30516E-14-1.76378E-13
 -1       632 2.00462E+01 6.10037E-02 2.54820E-05-1.24552E-01 6.44709E-14-2.02547E-13
 -1       633 2.00335E+01 5.39500E-02 2.29588E-05-9.62525E-02 1.14315E-13 6.05699E-14
 -1       634 2.00243E+01 4.52758E-02 1.93811E-05-7.22274E-02-4.66130E-14 9.57560E-14
 -1       635 2.00175E+01 3.64617E-02 1.55751E-05-5.25829E-02-1.26860E-13 1.15096E-13
 -1       636 2.00125E+01 2.83465E-02 1.20101E-05-3.70235E-02-5.63739E-15 1.74087E-13
 -1       637 2.00088E+01 2.13326E-02 8.91568E-06-2.50503E-02 1.79720E-13 2.28176E-13
 -1       638 2.00061E+01 1.55438E-02 6.37023E-06-1.60896E-02 2.00795E-13 1.55620E-13
 -1       639 2.00040E+01 1.09394E-02 4.36243E-06-9.57295E-03 1.43320E-13-4.11001E-14
 -1       640 2.00026E+01 7.39303E-03 2.83522E-06-4.98040E-03-1.05563E-15-4.71491E-14
 -1       641 2.00015E+01 4.74266E-03 1.71262E-06-1.86194E-03 1.20252E-13 1.20275E-13
 -1       642 2.00007E+01 2.82119E-03 9.16257E-07 1.56806E-04 2.14022E-13 7.40702E-14
 -1       643 2.00002E+01 1.47345E-03 3.73770E-07 1.37738E-03 9.66163E-14-6.14748E-14
 -1       644 1.99999E+01 5.64228E-04 2.23869E-08 2.03593E-03-3.18762E-14-1.01780E-13
 -1       645 1.99996E+01-1.92567E-05-1.89865E-07 2.31267E-03-3.84377E-14-8.90776E-15
 -1       646 1.99995E+01-3.68020E-04-3.04451E-07 2.34151E-03 2.97796E-14-1.90381E-13
 -1       647 1.99995E+01-5.53685E-04-3.51972E-07 2.21922E-03 1.16509E-13-2.57709E-13
 -1       648 1.99995E+01-6.31527E-04-3.57615E-07 2.01328E-03-9.06915E-14-3.83401E-13
 -1       649 1.99995E+01-6.43656E-04-3.51563E-07 1.76868E-03-6.29348E-14-7.12463E-14
 -1       650 1.99995E+01-6.21804E-04-4.04687E-07 1.51323E-03-2.88315E-13 2.01380E-14
 -1       651 1.99996E+01-5.90847E-04-4.11687E-07 1.26314E-03-5.09225E-13 4.35638E-14
 -1       652 1.99996E+01-5.67893E-04-6.33777E-07 1.06046E-03-8.67836E-14 1.21959E-15
 -1       653 1.84439E+01 1.20038E+00 7.17962E-03 3.13837E+00-1.87045E-13-1.37628E-13
 -1       654 1.90353E+01 1.36168E+00 1.60180E-03 2.46280E+00-9.71578E-14 9.09341E-15
 -1       655 1.95015E+01 1.22266E+00 1.31169E-03 1.92668E+00-1.18359E-13 2.90660E-14
 -1       656 1.98120E+01 9.91060E-01 1.24987E-03 1.48945E+00 1.80819E-14 5.76262E-15
 -1       657 1.99948E+01 7.61094E-01 1.07333E-03 1.13732E+00-7.32719E-14 1.90494E-13
 -1       658 2.00910E+01 5.58648E-01 8.04388E-04 8.47494E-01-8.29851E-14 2.59784E-14
 -1       659 2.01264E+01 4.09433E-01 5.96687E-04 6.34532E-01-4.70180E-14-2.83785E-14
 -1       660 2.01303E+01 2.97591E-01 4.18550E-04 4.71062E-01 8.06518E-14 1.79335E-15
 -1       661 2.01185E+01 2.15497E-01 2.95696E-04 3.46997E-01-1.66964E-16 2.15240E-14
 -1       662 2.01002E+01 1.55816E-01 2.09810E-04 2.53517E-01 3.84252E-14-5.99065E-14
 -1       663 2.00805E+01 1.12574E-01 1.43100E-04 1.83446E-01-8.19004E-14-1.06125E-13
 -1       664 2.00616E+01 7.98887E-02 1.03650E-04 1.29089E-01-2.59816E-15-2.46214E-13
 -1       665 2.00461E+01 5.74735E-02 7.01087E-05 9.10558E-02 2.21578E-13-3.24312E-13
 -1       666 2.00335E+01 4.11273E-02 4.91725E-05 6.30616E-02 1.41422E-13-3.16344E-13
 -1       667 2.00235E+01 2.91909E-02 3.42611E-05 4.26437E-02 1.09490E-13-3.11364E-13
 -1       668 2.00160E+01 2.04732E-02 2.36313E-05 2.79115E-02-6.00212E-14-1.19895E-13
 -1       669 2.00103E+01 1.41222E-02 1.54249E-05 1.74222E-02 1.48880E-13-9.70417E-14
 -1       670 2.00061E+01 9.32252E-03 1.10597E-05 9.79623E-03-9.93990E-14-1.87746E-13
 -1       671 2.00033E+01 6.06871E-03 6.41130E-06 4.89089E-03-3.32141E-13-1.79421E-13
 -1       672 2.00014E+01 3.76026E-03 3.96892E-06 1.64685E-03-3.15399E-13-2.69583E-13
 -1       673 2.00001E+01 2.15129E-03 2.11947E-06-4.04139E-04-2.46209E-14-4.43981E-13
 -1       674 1.99994E+01 1.05651E-03 8.76431E-07-1.61458E-03 2.29232E-13-4.46409E-13
 -1       675 1.99989E+01 3.07736E-04 2.98316E-07-2.26554E-03-5.92264E-14-2.72506E-13
 -1       676 1.99988E+01-1.32788E-04-3.43595E-07-2.49493E-03-8.52411E-14-2.74571E-15
 -1       677 1.99987E+01-3.87895E-04-5.51812E-07-2.48424E-03-4.64751E-14-1.26750E-13
 -1       678 1.99988E+01-5.16352E-04-6.79143E-07-2.33037E-03 1.47508E-13-2.43704E-13
 -1       679 1.99989E+01-5.62211E-04-7.23515E-07-2.09982E-03 6.30418E-14-3.34335E-13
 -1       680 1.99990E+01-5.58485E-04-6.84579E-07-1.83635E-03-1.73795E-13-1.56062E-13
 -1       681 1.99992E+01-5.27862E-04-6.38714E-07-1.55377E-03-1.28721E-13-1.71258E-13
 -1       682 1.99993E+01-4.92915E-04-6.38025E-07-1.29348E-03-2.69706E-13-2.10062E-13
 -1       683 1.99994E+01-4.67482E-04-8.04663E-07-1.04745E-03 1.15270E-13-7.76931E-13
 -1       684 1.99996E+01-5.08051E-04-5.36712E-07-8.81618E-04 1.85892E-13-7.45479E-13
 -1       685 2.00004E+01-1.24005E-03 2.41930E-07-1.52739E-04-1.77037E-13 6.50986E-13
 -1       686 7.91152E+00 2.03803E+00 1.52308E-01 3.10586E+00 5.59058E-13-5.50497E-13
 -1       687 2.00002E+01-1.05462E-03 1.32533E-07-6.98254E-04 1.84187E-13-5.32645E-13
 -1       688 2.00004E+01-1.23776E-03 2.36500E-07 1.62586E-04-5.83644E-14 5.75368E-13
 -1       689 2.00004E+01-1.17757E-03 2.36499E-07-4.51278E-04-5.31791E-14-1.06254E-13
 -1       690 2.00003E+01-1.17294E-03 2.13377E-07 4.54590E-04 1.21572E-13 3.95153E-13
 -1       691 2.00002E+01-1.04859E-03 1.71398E-07 7.00609E-04 3.45069E-14-6.33117E-14
 -1       692 2.00000E+01-8.74384E-04 3.73759E-07 8.66339E-04 1.21472E-13 6.18057E-13
 -1       693 2.84678E+01-1.91692E+00-4.55477E-02 7.38236E-01-1.72772E-13 2.30403E-13
 -1       694 1.08396E+01-9.01305E-01 1.28828E-01-5.57270E+00 2.39392E-13 7.56242E-13
 -1       695 2.94128E+01 1.58920E+00-1.22406E-01 1.54488E+00-6.75154E-15-4.86708E-13
 -1       696 2.46449E+01-3.73540E+00 1.16258E-02 4.26986E+00 1.78253E-13 1.88407E-13
 -1       697 1.79256E+01 3.60000E-01 3.85275E-02 4.03276E+00-3.04603E-13-1.38583E-13
 -1       698 2.86628E+01 5.31806E+00-1.34214E-01-1.93700E+00-6.16354E-13 5.24546E-14
 -1       699 1.89468E+01-1.96304E+00 9.43316E-02 4.96394E+00-3.76487E-13-1.51958E-13
 -1       700 2.93486E+01 1.39422E+00-1.11751E-01-1.53187E+00-4.29660E-13 1.84693E-13
 -1       701 2.18117E+01 4.26031E-01-1.03405E-04-1.70385E+00-9.34525E-14-3.71279E-13
 -1       702 1.73812E+01-3.56277E+00 8.60646E-02-6.87658E+00 4.07882E-13 3.13867E-13
 -1       703 1.34156E+01 3.65949E+00 2.28895E-02 2.98660E+00 6.36530E-13-3.05414E-13
 -1       704 2.20861E+01 5.98765E-01-2.22037E-03-3.48524E-01 1.92687E-13-3.14651E-13
 -1       705 1.84417E+01-2.52333E+00 6.78953E-02 6.68965E+00 5.00641E-13 8.00922E-15
 -1       706 8.14712E+00 1.42714E+00 1.79111E-01-1.38302E+00 2.86148E-13-6.71803E-13
 -1       707 2.73053E+01 6.85435E+00-1.56306E-01 3.44949E-02-5.18627E-13-2.37251E-13
 -1       708 1.23762E+01 1.36499E-02 1.21211E-01 6.43890E+00 6.40096E-13-2.63366E-13
 -1       709 8.43205E+00 7.76064E-01 1.54365E-01-2.13015E+00 1.24033E-15 5.76907E-13
 -1       710 2.80159E+01-3.10395E+00-2.29649E-02-1.09584E+00 3.20303E-13-3.72837E-13
 -1       711 1.74239E+01-2.89537E+00 1.32620E-01 5.44060E+00-3.22100E-13-8.15320E-14
 -1       712 2.83304E+01 5.16019E+00-1.46620E-01 1.83079E+00-2.30149E-13-4.19876E-13
 -1       713 2.04276E+01 6.34359E-01 1.20955E-03 2.16668E+00 4.21226E-13-2.16292E-13
 -1       714 2.21047E+01 7.56172E-01-4.02176E-03-1.16480E+00 5.28730E-14-3.95578E-13
 -1       715 2.18666E+01 7.65647E-01-1.33659E-03-1.69574E+00-5.32328E-14-4.70445E-13
 -1       716 2.20863E+01-5.33799E+00 2.81819E-02 4.93287E+00 2.16493E-14-3.93347E-13
 -1       717 1.99998E+01-7.31276E-04 1.56165E-07-9.05720E-04 2.59446E-13-6.34336E-13
 -1       718 1.42659E+01-4.82921E-01 9.92768E-02 4.49301E+00-2.85733E-13-1.12660E-13
 -1       719 9.49436E+00 1.19119E+00 1.34050E-01 7.67264E-01-1.70171E-13 3.19203E-13
 -1       720 2.00000E+01-9.06913E-04 2.18208E-07-8.40277E-04 5.15028E-13-9.25125E-13
 -1       721 2.62086E+01 5.66236E+00-8.88358E-02-1.23601E+00-4.89015E-13-4.06602E-14
 -1       722 2.16187E+01 4.87586E-01 9.30663E-04 7.95494E-01 3.08222E-13-2.58506E-13
 -1       723 1.12531E+01 3.31725E+00 8.46433E-02 2.32769E+00 5.70605E-13-3.99163E-13
 -1       724 1.21034E+01 3.26592E+00 7.11725E-02-8.00062E-01 4.03916E-13-3.92297E-13
 -1       725 2.61325E+01-2.63639E+00-1.12283E-02 1.51125E+00 7.42063E-14 1.38754E-13
 -1       726 2.00003E+01-9.93986E-04-2.21953E-07 9.49377E-04 6.50239E-14 2.17241E-13
 -1       727 2.24255E+01 6.97754E-01-2.05883E-03-1.77890E+00-1.50977E-13-2.14759E-13
 -1       728 2.21222E+01 1.48055E+00-1.24760E-03-1.48186E+00-2.18127E-13-2.32457E-13
 -1       729 2.17984E+01 2.15722E+00 7.66301E-04-7.57410E-01-2.08587E-13-3.09994E-13
 -1       730 2.16642E+01 2.30125E+00-2.49065E-03 2.34648E-01-4.85707E-14-3.32166E-13
 -1       731 2.17958E+01 1.78501E+00-1.88662E-03 1.12485E+00-7.88600E-14-3.18344E-13
 -1       732 2.20484E+01 8.47823E-01-1.42549E-03 1.59649E+00-1.03118E-13-2.68260E-13
 -1       733 2.22102E+01-1.00331E-01 7.14907E-05 1.58258E+00-8.99172E-14-2.96048E-13
 -1       734 2.21540E+01-7.56197E-01-2.70474E-04 1.23754E+00-3.28138E-14-2.92437E-13
 -1       735 2.19024E+01-1.05061E+00-1.83247E-04 7.75082E-01 5.41622E-14-2.59998E-13
 -1       736 2.15400E+01-1.05317E+00-1.71172E-04 3.48432E-01 6.78813E-14-2.80475E-13
 -1       737 2.11591E+01-8.85555E-01-1.55862E-04 2.66187E-02 2.68512E-14-3.21983E-13
 -1       738 2.08204E+01-6.53891E-01-9.77435E-05-1.81312E-01-8.06582E-14-2.26575E-13
 -1       739 2.05501E+01-4.26378E-01-6.49679E-05-2.94679E-01-3.39887E-14-1.26000E-13
 -1       740 2.03506E+01-2.36677E-01-3.99713E-05-3.39673E-01 2.35616E-14-1.91452E-13
 -1       741 2.02127E+01-9.54643E-02-1.72832E-05-3.40066E-01-3.37564E-15-2.19203E-13
 -1       742 2.01225E+01-3.69856E-04-2.79107E-06-3.14324E-01 4.42739E-14-1.93648E-13
 -1       743 2.00668E+01 5.68285E-02 4.67523E-06-2.75464E-01 1.58669E-13-1.55579E-14
 -1       744 2.00344E+01 8.58036E-02 7.68203E-06-2.32049E-01 2.26495E-13-8.96973E-14
 -1       745 2.00167E+01 9.54445E-02 8.29448E-06-1.89343E-01 1.00224E-13-1.01266E-13
 -1       746 2.00081E+01 9.29559E-02 7.70022E-06-1.50303E-01-5.89466E-14-9.23009E-14
 -1       747 2.00043E+01 8.36963E-02 6.58268E-06-1.16336E-01 1.21270E-13-1.69659E-13
 -1       748 2.00032E+01 7.13725E-02 5.32808E-06-8.78586E-02 1.09546E-13-1.75148E-13
 -1       749 2.00032E+01 5.83711E-02 4.13442E-06-6.46959E-02 6.03600E-16 2.96412E-14
 -1       750 2.00035E+01 4.60996E-02 3.09273E-06-4.63449E-02-4.83740E-14 1.90731E-13
 -1       751 2.00037E+01 3.52834E-02 2.23122E-06-3.21546E-02 7.51601E-14 3.60908E-13
 -1       752 2.00038E+01 2.62011E-02 1.54854E-06-2.14378E-02 1.41839E-13 2.52095E-13
 -1       753 2.00037E+01 1.88581E-02 1.02738E-06-1.35385E-02-6.07471E-15 1.12271E-13
 -1       754 2.00034E+01 1.31089E-02 6.42105E-07-7.86737E-03 3.14928E-14-6.31960E-14
 -1       755 2.00031E+01 8.73687E-03 3.65667E-07-3.91737E-03 2.06633E-13 7.11616E-14
 -1       756 2.00026E+01 5.50553E-03 1.73753E-07-1.26664E-03 1.09365E-13-8.13308E-14
 -1       757 2.00022E+01 3.18722E-03 4.64941E-08 4.26231E-04 1.10288E-13-3.73038E-14
 -1       758 2.00018E+01 1.57859E-03-3.25415E-08 1.43084E-03-7.84730E-14-2.37565E-14
 -1       759 2.00014E+01 5.06691E-04-7.76268E-08 1.95530E-03 9.37593E-15 9.24192E-14
 -1       760 2.00010E+01-1.70407E-04-1.00180E-07 2.15660E-03-1.64170E-13 1.31507E-13
 -1       761 2.00007E+01-5.65976E-04-1.08641E-07 2.15035E-03 1.74754E-14 1.53913E-13
 -1       762 2.00005E+01-7.68461E-04-1.01271E-07 2.01932E-03 3.89255E-14 7.36639E-14
 -1       763 2.00003E+01-8.45685E-04-7.83470E-08 1.82071E-03 5.04274E-14-3.02707E-14
 -1       764 2.00001E+01-8.48877E-04-2.05465E-07 1.59276E-03 8.11842E-14 6.74504E-14
 -1       765 2.00000E+01-8.20417E-04-6.95423E-07 1.35941E-03-3.91304E-13 2.84234E-13
 -1       766 1.53612E+01 1.52715E+00 3.16184E-02 2.67678E+00-3.50047E-13-1.96002E-14
 -1       767 2.00005E+01-1.14615E-03 7.64195E-08 6.96408E-04-3.47705E-14 1.36700E-13
 -1       768 1.85740E+01 1.41682E+00 2.99603E-04 1.25880E+00-5.40100E-14 4.35687E-14
 -1       769 1.68376E+01 1.78189E+00 3.86291E-03 2.05925E+00-1.57472E-13-1.57532E-14
 -1       770 1.91261E+01 1.12384E+00 2.03688E-04 1.02424E+00-2.32401E-13 1.52647E-13
 -1       771 1.94988E+01 8.51656E-01 1.48791E-04 8.12654E-01 2.38997E-14 5.95018E-14
 -1       772 1.97196E+01 6.41387E-01 1.66395E-04 6.41960E-01-3.26196E-14-1.59047E-14
 -1       773 1.98541E+01 4.77548E-01 1.11227E-04 4.99498E-01 8.30065E-14 6.04268E-14
 -1       774 1.99331E+01 3.53264E-01 7.92126E-05 3.83392E-01 2.73242E-14-3.24865E-14
 -1       775 1.99774E+01 2.60337E-01 5.90969E-05 2.90491E-01-1.00142E-13 5.16046E-15
 -1       776 2.00007E+01 1.91325E-01 3.86092E-05 2.17206E-01-1.94478E-14 2.04881E-13
 -1       777 2.00120E+01 1.38072E-01 2.72198E-05 1.57819E-01 4.56638E-14 1.37906E-13
 -1       778 2.00158E+01 1.00869E-01 2.00628E-05 1.14689E-01 1.44800E-13 2.63612E-13
 -1       779 2.00159E+01 7.32883E-02 1.37218E-05 8.18890E-02 3.04880E-13 8.67503E-14
 -1       780 2.00143E+01 5.28524E-02 9.74431E-06 5.72667E-02 1.37906E-13-2.88366E-13
 -1       781 2.00121E+01 3.77204E-02 7.01778E-06 3.90149E-02-1.81795E-13-7.29655E-14
 -1       782 2.00097E+01 2.65438E-02 4.21933E-06 2.56679E-02 1.20294E-13-1.13535E-13
 -1       783 2.00075E+01 1.79815E-02 3.47924E-06 1.56897E-02 1.40844E-13-1.18875E-13
 -1       784 2.00057E+01 1.20910E-02 1.84215E-06 9.06939E-03-4.67381E-14-2.89641E-13
 -1       785 2.00042E+01 7.84078E-03 1.18892E-06 4.52391E-03-1.79848E-13-5.26698E-13
 -1       786 2.00030E+01 4.82128E-03 6.56844E-07 1.50784E-03-5.89917E-14-6.29759E-13
 -1       787 2.00021E+01 2.71716E-03 2.30104E-07-4.04477E-04-8.19397E-14-3.96993E-13
 -1       788 2.00014E+01 1.23199E-03 2.07203E-07-1.57318E-03 1.54629E-13-2.60815E-13
 -1       789 2.00009E+01 3.18412E-04-1.07943E-07-2.13876E-03-2.01420E-13-4.42356E-13
 -1       790 2.00005E+01-2.48644E-04-1.37907E-07-2.35250E-03 2.85249E-14-4.63210E-13
 -1       791 2.00002E+01-5.72420E-04-1.78555E-07-2.34134E-03 1.17456E-13-6.21971E-13
 -1       792 2.00000E+01-7.31322E-04-2.04237E-07-2.19588E-03 2.29228E-13-4.76063E-13
 -1       793 1.99999E+01-7.84271E-04-1.85517E-07-1.97823E-03-2.82191E-13-4.07251E-13
 -1       794 1.99998E+01-7.73373E-04-1.53358E-07-1.71685E-03-4.79765E-15-5.24541E-13
 -1       795 1.99998E+01-7.33962E-04-2.32752E-07-1.46211E-03-2.90370E-14-7.22311E-13
 -1       796 1.99997E+01-6.91647E-04-1.00878E-07-1.21527E-03 2.27501E-13-7.65626E-13
 -1       797 1.99998E+01-7.07509E-04 2.69454E-07-1.05733E-03 2.76460E-13-5.38784E-13
 -1       798 2.00007E+01-1.27896E-03 3.02176E-08 7.43990E-06-1.83367E-13 6.79536E-13
 -1       799 1.16545E+01 2.25591E+00 7.15651E-02 4.35943E+00 6.50845E-13-3.67990E-13
 -1       800 2.85400E+01-1.64645E+00-6.30893E-02 2.34156E-01 1.84477E-13-4.37803E-13
 -1       801 2.76281E+01-4.63246E-01-5.08708E-02-1.09426E+00-2.14154E-13 1.45980E-13
 -1       802 2.10468E+01-3.67621E+00 2.49337E-02-5.05836E+00 3.68282E-13-6.49914E-14
 -1       803 2.69401E+01 2.37423E+00-8.18248E-02 2.11709E+00-8.96817E-14-3.52102E-13
 -1       804 2.53828E+01-3.73706E+00-4.62900E-04-1.86055E+00 3.14753E-13-1.83407E-13
 -1       805 2.56820E+01 5.09069E+00-8.53317E-02 1.21645E+00-2.68525E-13-3.66565E-13
 -1       806 2.23997E+01 2.20268E-01 3.33050E-03-1.59966E+00-3.83337E-14-3.70963E-13
 -1       807 2.23472E+01 4.04537E-01 4.69625E-06-1.41362E+00 4.69511E-15-4.09535E-13
 -1       808 1.99999E+01-7.90701E-04 5.10100E-07 1.07163E-03-3.23129E-13 4.97325E-13
 -1       809 2.25500E+01 1.83142E-01-1.27013E-03-1.75222E+00-9.26285E-14-2.48750E-13
 -1       810 1.77483E+01 1.69206E+00-1.81310E-05 1.53328E+00-1.79860E-13-2.65552E-14
 -1       811 1.66226E+01-2.08380E-01 5.64177E-02 5.73344E+00 6.18732E-13-1.33242E-13
 -1       812 2.67549E+01 2.60627E+00-7.48591E-02-2.28448E+00-4.26104E-13 1.01929E-13
 -1       813 1.19203E+01 7.32312E-01 7.84849E-02-3.45738E+00 7.87972E-14 5.53991E-13
 -1       814 1.55114E+01-1.50724E+00 5.74021E-02-5.61896E+00 3.18060E-13 4.63577E-13
 -1       815 2.00007E+01-1.24360E-03 2.44632E-08 3.71644E-04-6.49397E-14 6.78264E-13
 -1       816 2.21684E+01-2.60565E+00 3.41820E-02 4.51087E+00 3.97129E-13 5.16150E-14
 -1       817 2.70724E+01-1.61698E-01-4.38179E-02 1.54499E+00 7.05729E-14-2.88457E-13
 -1       818 1.14089E+01 1.57699E+00 7.49924E-02-1.28175E+00-1.58387E-13 2.71732E-13
 -1       819 2.26084E+01 1.79517E-01-1.84105E-03-7.57530E-01 1.36771E-13-2.27404E-13
 -1       820 2.47248E+01 5.11315E+00-5.87094E-02 8.24519E-03-3.24706E-13-2.88648E-13
 -1       821 2.00007E+01-1.24928E-03 7.77359E-08-3.61060E-04-9.63727E-14-1.12257E-13
 -1       822 2.00005E+01-1.15550E-03 8.86113E-08-6.91955E-04 1.15552E-14-2.89302E-13
 -1       823 2.67344E+01-2.43828E+00-3.18998E-02 7.54609E-02 2.26887E-13-2.35534E-13
 -1       824 1.24922E+01 1.10218E+00 7.66490E-02 2.74768E+00-3.49339E-13 9.40290E-14
 -1       825 2.00003E+01-1.02641E-03-3.48398E-07-9.10232E-04 1.94923E-13-6.91643E-13
 -1       826 2.11546E+01-8.54041E-01 3.02362E-03 3.25812E+00 4.35694E-13-8.42382E-14
 -1       827 2.25006E+01-1.13966E-01-2.71585E-04 3.28426E-01 2.59069E-13-2.23929E-13
 -1       828 1.24911E+01 1.85825E+00 6.21577E-02-2.48741E+00 2.23160E-13-4.32675E-13
 -1       829 2.46775E+01 3.58992E+00-3.94958E-02-1.83025E+00-3.59568E-13-1.41147E-13
 -1       830 2.30852E+01 2.49105E+00-3.72666E-03-1.49630E+00-2.49876E-13-1.48569E-13
 -1       831 2.27392E+01 3.30398E+00-1.00828E-02-3.90670E-01-2.03319E-13-2.24285E-13
 -1       832 2.27192E+01 2.97937E+00-1.11158E-02 8.70472E-01-1.49496E-13-4.83335E-13
 -1       833 2.30507E+01 1.75228E+00-1.38320E-02 1.68497E+00-8.71319E-14-5.48484E-13
 -1       834 2.32677E+01 2.59580E-01-7.54125E-03 1.76573E+00-5.51018E-14-4.37394E-13
 -1       835 2.31823E+01-8.82435E-01 1.70062E-03 1.30487E+00 1.38441E-14-2.79657E-13
 -1       836 2.27466E+01-1.42002E+00-5.39598E-04 6.69942E-01 1.13222E-14-1.76478E-13
 -1       837 2.21425E+01-1.46916E+00-1.75750E-04 1.26116E-01 5.26995E-14-1.94908E-13
 -1       838 2.15367E+01-1.24701E+00-1.26541E-04-2.40912E-01 8.84481E-14-1.69969E-13
 -1       839 2.10176E+01-9.20995E-01-5.69316E-06-4.38328E-01 7.25545E-15-2.26833E-13
 -1       840 2.06212E+01-6.00929E-01-5.43596E-06-5.12843E-01 4.81207E-14-2.22423E-13
 -1       841 2.03418E+01-3.34552E-01-2.55365E-05-5.10789E-01-6.61444E-14-1.37345E-13
 -1       842 2.01593E+01-1.36627E-01-1.67574E-05-4.67022E-01 7.27736E-14-8.03078E-14
 -1       843 2.00492E+01-3.21334E-03-4.67705E-06-4.04950E-01-5.32638E-14-1.24115E-13
 -1       844 1.99893E+01 7.75550E-02 1.65652E-06-3.38522E-01 2.20162E-13-1.69165E-13
 -1       845 1.99617E+01 1.19169E-01 3.26843E-06-2.75291E-01 1.89100E-13-1.80228E-13
 -1       846 1.99536E+01 1.33854E-01 3.06132E-06-2.18885E-01 1.21827E-13-1.21185E-13
 -1       847 1.99561E+01 1.31480E-01 2.36517E-06-1.70627E-01 1.63417E-14-1.62815E-13
 -1       848 1.99635E+01 1.19408E-01 1.65816E-06-1.30558E-01 2.24104E-15-4.13600E-14
 -1       849 1.99724E+01 1.02762E-01 1.07614E-06-9.80559E-02 1.73879E-13-2.37586E-14
 -1       850 1.99809E+01 8.48820E-02 6.42010E-07-7.22128E-02 2.43019E-13-1.72708E-13
 -1       851 1.99880E+01 6.77767E-02 3.52678E-07-5.20346E-02 1.63658E-14-1.44793E-13
 -1       852 1.99936E+01 5.25193E-02 1.61707E-07-3.65539E-02 1.56207E-13-6.42739E-14
 -1       853 1.99977E+01 3.95596E-02 3.51900E-08-2.48872E-02 1.02016E-14-4.09740E-14
 -1       854 2.00005E+01 2.89585E-02-4.02824E-08-1.62606E-02 1.81636E-13 2.16530E-14
 -1       855 2.00022E+01 2.05554E-02-7.61294E-08-1.00152E-02-1.59882E-13 1.72563E-13
 -1       856 2.00031E+01 1.40794E-02-8.98173E-08-5.60305E-03 1.61152E-13 7.02086E-14
 -1       857 2.00035E+01 9.22073E-03-9.28153E-08-2.57735E-03 1.60789E-14-2.92793E-14
 -1       858 2.00035E+01 5.67350E-03-8.94635E-08-5.80404E-04 1.27972E-13 3.59592E-14
 -1       859 2.00033E+01 3.15925E-03-8.00131E-08 6.68952E-04 1.42412E-14-1.78824E-14
 -1       860 2.00029E+01 1.43752E-03-6.78863E-08 1.38807E-03-1.44971E-13 1.06614E-13
 -1       861 2.00024E+01 3.08238E-04-5.73335E-08 1.74194E-03 9.07714E-15-1.55885E-13
 -1       862 2.00020E+01-3.90162E-04-5.23605E-08 1.85338E-03 4.78546E-14-3.28657E-14
 -1       863 2.00016E+01-7.85211E-04-5.41136E-08 1.81178E-03 1.86890E-14-3.11215E-14
 -1       864 2.00012E+01-9.75710E-04-2.32862E-08 1.68035E-03 1.72361E-13 9.00855E-14
 -1       865 2.00009E+01-1.03678E-03-1.00494E-07 1.50246E-03 1.53738E-13 2.88021E-13
 -1       866 2.00006E+01-1.02412E-03 1.48770E-06 1.30621E-03-1.65155E-13-4.60397E-14
 -1       867 2.00006E+01-1.11610E-03 3.39755E-07 9.67877E-04-5.74714E-14 1.16305E-13
 -1       868 2.59316E+01-1.29165E+00-1.19878E-02-4.66758E-01-1.47712E-15 6.99683E-14
 -1       869 1.82702E+01 1.37715E+00-2.21703E-04 5.79557E-01-1.22805E-13-5.37718E-14
 -1       870 1.88819E+01 1.08550E+00-1.12914E-04 5.46237E-01-9.87845E-14-3.24316E-14
 -1       871 1.46234E+01 2.01535E+00 1.78096E-02 9.36766E-01-1.33627E-13 8.82675E-14
 -1       872 1.92722E+01 8.45359E-01 3.73591E-05 4.86574E-01-5.15061E-14 4.66271E-14
 -1       873 1.95330E+01 6.48667E-01 3.68446E-05 4.15005E-01 4.77266E-14 1.16755E-13
 -1       874 1.97052E+01 4.92757E-01 1.02665E-05 3.42463E-01 1.08990E-13 2.20792E-13
 -1       875 1.98176E+01 3.71833E-01 7.52306E-06 2.75156E-01 4.74241E-15 2.72787E-13
 -1       876 1.98901E+01 2.79086E-01 2.96485E-06 2.15945E-01-1.27277E-13 1.96234E-13
 -1       877 1.99380E+01 2.05487E-01-1.73274E-06 1.63852E-01 7.63832E-14 1.11392E-13
 -1       878 1.99662E+01 1.52774E-01 2.98933E-06 1.23487E-01 1.01663E-13 8.34536E-14
 -1       879 1.99836E+01 1.12862E-01 9.33347E-07 9.11892E-02 2.17150E-13 1.10984E-13
 -1       880 1.99940E+01 8.27321E-02 7.70845E-07 6.59145E-02 3.21818E-13 5.32331E-13
 -1       881 2.00000E+01 6.00428E-02 9.93985E-07 4.65007E-02 1.94291E-14 4.64103E-13
 -1       882 2.00032E+01 4.30158E-02 1.05609E-07 3.18454E-02 8.94785E-14-5.78847E-14
 -1       883 2.00047E+01 2.97762E-02 4.12942E-07 2.05574E-02 1.74967E-13-1.20408E-13
 -1       884 2.00052E+01 2.05269E-02 1.92658E-07 1.28414E-02 2.00046E-13-2.04038E-13
 -1       885 2.00050E+01 1.37484E-02 8.71139E-08 7.37360E-03-7.89483E-14-1.61507E-13
 -1       886 2.00046E+01 8.85061E-03 7.00286E-08 3.61129E-03-1.34145E-13 3.67114E-14
 -1       887 2.00040E+01 5.36998E-03-6.86707E-08 1.11087E-03-2.12823E-13 1.20420E-13
 -1       888 2.00033E+01 2.85342E-03 1.00735E-07-5.27805E-04 1.41093E-13 3.16047E-14
 -1       889 2.00027E+01 1.25517E-03-4.70691E-08-1.42623E-03 2.19234E-14 2.27490E-13
 -1       890 2.00022E+01 2.18219E-04-2.43910E-08-1.88473E-03 3.99337E-14 1.08793E-13
 -1       891 2.00017E+01-4.16358E-04-2.61579E-08-2.04911E-03 2.61215E-14 1.52053E-13
 -1       892 2.00013E+01-7.70716E-04-3.91883E-08-2.02657E-03 8.90344E-14 8.06789E-14
 -1       893 2.00009E+01-9.37343E-04-3.58842E-08-1.89307E-03-3.67858E-14-3.62063E-14
 -1       894 2.00006E+01-9.85196E-04 2.61250E-09-1.69017E-03-2.44342E-14-4.32177E-13
 -1       895 2.00004E+01-9.63265E-04-2.15875E-07-1.47329E-03-4.06070E-14-5.81127E-13
 -1       896 2.00002E+01-9.16738E-04-6.18329E-07-1.25393E-03 6.29261E-14-7.04184E-13
 -1       897 2.29574E+01-6.82105E-02-2.40655E-03-1.16197E+00 8.08021E-14-1.98591E-13
 -1       898 1.62592E+01 1.91508E+00-2.88118E-05 6.78627E-01-9.68364E-14 7.75187E-14
 -1       899 2.40720E+01-2.00915E+00-1.15133E-02 1.76695E+00 2.52451E-13 2.31707E-14
 -1       900 1.87866E+01-1.95135E+00 1.80858E-02-4.56310E+00 3.25512E-13 9.35840E-14
 -1       901 1.50773E+01 6.27900E-02 2.87371E-02-3.93060E+00 6.74487E-14 4.19138E-13
 -1       902 2.50216E+01-2.46777E+00-1.00379E-02-4.62467E-02 2.26808E-13-2.23803E-13
 -1       903 2.33995E+01 1.28221E+00-4.75596E-04-1.95804E+00-2.18693E-13-1.38709E-13
 -1       904 1.24918E+01 1.82598E+00 4.97129E-02 8.70843E-01-3.24229E-13 2.90604E-13
 -1       905 2.21952E+01-5.53121E-01 3.77489E-03 1.60847E+00 3.28658E-13-1.30949E-13
 -1       906 2.58120E+01 6.69266E-01-4.03295E-02-1.99258E+00-2.50591E-13 5.22464E-14
 -1       907 2.47856E+01 2.94504E+00-3.40971E-02 1.83667E+00-1.70780E-13-3.63800E-13
 -1       908 2.35055E+01 2.28172E-01 6.43374E-04-1.80829E+00-1.12175E-13-1.32761E-13
 -1       909 1.74107E+01 1.66340E+00-1.53662E-03 5.63213E-01-1.41558E-13-4.34418E-14
 -1       910 2.00001E+01-8.75889E-04-5.25921E-08-1.02317E-03 1.48413E-13-7.51142E-13
 -1       911 2.28141E+01-3.18342E+00 1.31674E-02-2.83313E+00 2.40667E-13-1.24609E-13
 -1       912 2.53486E+01-1.20808E+00-1.59910E-02 1.16891E+00 1.71887E-13-2.55460E-13
 -1       913 2.53582E+01 8.09997E-01-2.10843E-02 1.95369E+00-1.67115E-14-3.47989E-13
 -1       914 2.00006E+01-1.05940E-03 4.75946E-08 1.14055E-03-2.53265E-13-4.30335E-14
 -1       915 2.00009E+01-1.24743E-03-2.22107E-08 6.30833E-04 3.24189E-14 3.31998E-13
 -1       916 2.00011E+01-1.32141E-03-1.25404E-07-2.04818E-04 1.24972E-13 1.51632E-13
 -1       917 2.32443E+01-4.57558E-01 4.08167E-03-2.64239E-01 1.73359E-13-1.58678E-13
 -1       918 2.00009E+01-1.25951E-03-4.18804E-08-6.17071E-04 9.92458E-14-2.07365E-13
 -1       919 1.38267E+01 1.38357E+00 3.10236E-02-2.09507E+00-7.58313E-14 3.72098E-13
 -1       920 2.34581E+01-2.70490E+00 6.20709E-04-1.17201E+00 2.06714E-13-9.69208E-14
 -1       921 2.00007E+01-1.15275E-03 2.35872E-07-9.20783E-04 2.17696E-13-6.71066E-13
 -1       922 2.00011E+01-1.31694E-03-6.95706E-08 2.24503E-04 2.20874E-14 9.20821E-13
 -1       923 2.47041E+01 3.74446E-01-2.70260E-02-1.83202E+00-1.70067E-13-2.91785E-14
 -1       924 1.37766E+01 1.88886E+00 2.01089E-02-5.18512E-01-4.81733E-14 2.76992E-15
 -1       925 2.28363E+01-1.98353E+00 2.22565E-03-2.93992E-01 6.85990E-14-1.67080E-14
 -1       926 2.19098E+01-1.65817E+00-9.10118E-04-7.02845E-01 8.45716E-14 3.28175E-14
 -1       927 2.11682E+01-1.20217E+00 5.39169E-04-8.62266E-01 5.45354E-17-4.23470E-15
 -1       928 2.06304E+01-7.64810E-01 1.61902E-04-8.54432E-01-4.04714E-14-1.05791E-14
 -1       929 2.02737E+01-4.11528E-01 2.59672E-06-7.65059E-01 6.54893E-14-3.55998E-14
 -1       930 2.00552E+01-1.54425E-01-6.34859E-05-6.44327E-01 4.11312E-14 3.75175E-14
 -1       931 1.99355E+01 1.51601E-02-3.38372E-05-5.22206E-01-2.46123E-14-6.20665E-14
 -1       932 1.98805E+01 1.15881E-01-1.65773E-05-4.12342E-01 1.46548E-13 2.60757E-15
 -1       933 1.98653E+01 1.66472E-01-1.02154E-05-3.19440E-01 1.64741E-13 7.92229E-14
 -1       934 1.98723E+01 1.83079E-01-7.65035E-06-2.43823E-01 1.80070E-13-1.55303E-13
 -1       935 1.98902E+01 1.78366E-01-6.46829E-06-1.83784E-01 1.79541E-13-8.64445E-14
 -1       936 1.99118E+01 1.61628E-01-5.54160E-06-1.36920E-01 1.18795E-13 1.01917E-13
 -1       937 1.99331E+01 1.39289E-01-4.41922E-06-1.00791E-01 1.09602E-13 1.07370E-13
 -1       938 1.99518E+01 1.15504E-01-3.60199E-06-7.32186E-02 3.31788E-14 7.72700E-14
 -1       939 1.99673E+01 9.27808E-02-2.79495E-06-5.23731E-02 7.83117E-14-9.09257E-14
 -1       940 1.99793E+01 7.24646E-02-2.13356E-06-3.67631E-02-3.93501E-16-4.77180E-14
 -1       941 1.99883E+01 5.51292E-02-1.54835E-06-2.51960E-02 2.22450E-13-1.88689E-13
 -1       942 1.99947E+01 4.08573E-02-1.15101E-06-1.67292E-02 1.29684E-13-4.18272E-14
 -1       943 1.99990E+01 2.94549E-02-8.18562E-07-1.06236E-02 8.20737E-14-5.83653E-14
 -1       944 2.00018E+01 2.05843E-02-5.54553E-07-6.30003E-03-3.40399E-14-2.68700E-14
 -1       945 2.00033E+01 1.38543E-02-3.67712E-07-3.30811E-03 4.34466E-14-5.78586E-14
 -1       946 2.00040E+01 8.87549E-03-2.24128E-07-1.29880E-03 4.99888E-14-2.57083E-15
 -1       947 2.00042E+01 5.28879E-03-1.34440E-07-3.68180E-06 6.43640E-14 5.77024E-14
 -1       948 2.00040E+01 2.78184E-03-6.55433E-08 7.81599E-04-1.15559E-13-3.13625E-13
 -1       949 2.00036E+01 1.09221E-03-1.99453E-08 1.21139E-03-1.62023E-13-1.04957E-13
 -1       950 2.00031E+01 5.95144E-06 2.36368E-09 1.40050E-03 1.30342E-13-3.18594E-14
 -1       951 2.00026E+01-6.47091E-04-6.27430E-09 1.43300E-03 1.56506E-13 1.46789E-13
 -1       952 2.00021E+01-9.99878E-04-3.53187E-08 1.36937E-03 1.36244E-13 3.13033E-13
 -1       953 2.00016E+01-1.15520E-03-1.26429E-07 1.25154E-03 4.69207E-13 3.34793E-13
 -1       954 2.00012E+01-1.18596E-03-8.34216E-08 1.10889E-03-1.15040E-13 1.04217E-13
 -1       955 1.83829E+01 1.17487E+00 1.20320E-04 5.37203E-02-1.67013E-13-1.07314E-13
 -1       956 1.88791E+01 9.59925E-01 2.25474E-05 1.64418E-01-5.77954E-14-4.89600E-14
 -1       957 1.96498E+01 4.67815E-01-2.14962E-05 1.96870E-01-1.27027E-13-9.91424E-14
 -1       958 1.97670E+01 3.60665E-01-3.37622E-05 1.70222E-01-1.16122E-14-3.77174E-15
 -1       959 1.98507E+01 2.72269E-01-1.82986E-05 1.39262E-01 4.43065E-14-4.83077E-14
 -1       960 1.99044E+01 2.06701E-01-8.85719E-06 1.10994E-01 7.54885E-14 1.34605E-13
 -1       961 1.99406E+01 1.55646E-01-9.24082E-06 8.58576E-02 1.52092E-13-2.66696E-14
 -1       962 1.99648E+01 1.16149E-01-6.75759E-06 6.46268E-02 1.13007E-13 4.49572E-14
 -1       963 1.99808E+01 8.57636E-02-4.33150E-06 4.73444E-02 1.37897E-13 1.84902E-13
 -1       964 1.99911E+01 6.25193E-02-3.71027E-06 3.36736E-02 3.47103E-13 1.80600E-13
 -1       965 1.99978E+01 4.41287E-02-2.68206E-06 2.27251E-02 1.92813E-13 3.10657E-14
 -1       966 2.00015E+01 3.10654E-02-1.44103E-06 1.49764E-02 3.28376E-13-2.19329E-15
 -1       967 2.00036E+01 2.13390E-02-1.04488E-06 9.30352E-03-8.48010E-14 1.69021E-13
 -1       968 2.00045E+01 1.41970E-02-5.47286E-07 5.26930E-03-3.45856E-13 3.11373E-13
 -1       969 2.00048E+01 9.03206E-03-4.01966E-07 2.48576E-03-6.71977E-14 1.59255E-13
 -1       970 2.00046E+01 5.22207E-03-8.90189E-08 5.71660E-04-3.22690E-14 2.17537E-13
 -1       971 2.00041E+01 2.74166E-03-2.65246E-08-5.55194E-04-7.36517E-14 4.40245E-13
 -1       972 2.00036E+01 1.08042E-03 4.74501E-08-1.20651E-03-9.66360E-14 5.72839E-13
 -1       973 2.00030E+01 1.68221E-05 8.59691E-08-1.52843E-03 7.35967E-15 6.36092E-13
 -1       974 2.00025E+01-6.21703E-04 1.01394E-07-1.63184E-03 3.57336E-13 5.88243E-13
 -1       975 2.00019E+01-9.66953E-04 9.38246E-08-1.59747E-03 2.35938E-13 2.70624E-13
 -1       976 2.00014E+01-1.12159E-03 6.29605E-08-1.47531E-03 9.44644E-15 2.11155E-13
 -1       977 2.00010E+01-1.14893E-03-1.22085E-07-1.31652E-03 2.48009E-13 2.14149E-13
 -1       978 2.00014E+01-1.33907E-03-5.18941E-08-4.69103E-04 4.22844E-13-2.96504E-13
 -1       979 1.92294E+01 7.68005E-01-1.73797E-06 2.09037E-01 6.75626E-15-1.24334E-13
 -1       980 1.94802E+01 6.01120E-01-3.34024E-05 2.13785E-01 2.40475E-14-1.31077E-13
 -1       981 1.76503E+01-4.41597E-01 6.96358E-03-3.40640E+00 1.58601E-13 8.72917E-14
 -1       982 1.57193E+01 1.82263E+00 4.42851E-03-3.35199E-01-1.05103E-13-1.41138E-14
 -1       983 1.76895E+01 1.38692E+00 1.13481E-04-1.60581E-01-1.12300E-13-6.69584E-14
 -1       984 1.68635E+01 1.61412E+00 1.31844E-03-2.57059E-01-1.19985E-13-5.77281E-14
 -1       985 1.61681E+01 7.36004E-01 8.92550E-03-2.53379E+00 9.01349E-14 2.36280E-13
 -1       986 2.06420E+01-1.96884E+00 8.44068E-03-3.05506E+00 1.37560E-13 5.70547E-14
 -1       987 2.42836E+01-6.26932E-01-3.95401E-03-1.03631E+00 1.77900E-14-7.43205E-14
 -1       988 2.37623E+01-1.87292E+00 6.62326E-04 4.18804E-01 1.44379E-13-1.71253E-13
 -1       989 1.55047E+01 1.41548E+00 9.11137E-03-1.56444E+00 4.48805E-15 2.48275E-13
 -1       990 2.36908E+01-9.91783E-01 1.02936E-03 2.69975E-01 1.81359E-13-1.11586E-13
 -1       991 2.00015E+01-1.36733E-03-2.54837E-07 1.32582E-05 4.48123E-13 7.14951E-13
 -1       992 2.00012E+01-1.26400E-03-1.29479E-07-8.50989E-04 6.17440E-13-5.94486E-13
 -1       993 2.00007E+01-1.11166E-03 1.40821E-06-1.14282E-03 2.79467E-13-5.17986E-13
 -1       994 2.18422E+01-2.14618E+00-2.48583E-03-1.90081E+00 1.04572E-13-2.63275E-14
 -1       995 2.00011E+01-1.22410E-03 2.71414E-07 9.28755E-04-3.10347E-13-1.83653E-14
 -1       996 1.81972E+01 1.02596E+00 1.09796E-03-5.82698E-01-1.28560E-13 1.16485E-13
 -1       997 2.11474E+01-1.47154E+00-3.18730E-03-1.50205E+00 2.46202E-14-5.89794E-14
 -1       998 2.04961E+01-8.98713E-01-2.81339E-03-1.35266E+00-1.89186E-14-4.90091E-14
 -1       999 2.00731E+01-4.32017E-01-8.30628E-04-1.11176E+00-9.32827E-15-4.54354E-14
 -1      1000 1.98533E+01-1.19277E-01-1.56606E-04-8.70095E-01 1.57892E-13 5.49192E-14
 -1      1001 1.97527E+01 7.59536E-02-1.90877E-05-6.61801E-01 3.68147E-14 1.75197E-13
 -1      1002 1.97237E+01 1.86463E-01-9.51391E-06-4.92091E-01 4.98465E-14 1.52569E-13
 -1      1003 1.97362E+01 2.37120E-01-9.42610E-06-3.59943E-01 1.54903E-13-7.01263E-14
 -1      1004 1.97692E+01 2.48623E-01-1.60356E-05-2.60200E-01 7.38935E-14-1.19928E-13
 -1      1005 1.98097E+01 2.36416E-01-2.18531E-05-1.86420E-01 6.54071E-14-4.01622E-14
 -1      1006 1.98502E+01 2.11422E-01-2.31008E-05-1.32605E-01 2.90981E-13-2.66161E-13
 -1      1007 1.98868E+01 1.80977E-01-2.13566E-05-9.37140E-02 1.34286E-13-1.98763E-13
 -1      1008 1.99178E+01 1.49709E-01-1.93113E-05-6.57411E-02 3.92221E-14-1.04670E-13
 -1      1009 1.99428E+01 1.20349E-01-1.62561E-05-4.57149E-02 1.26177E-13-3.26722E-14
 -1      1010 1.99622E+01 9.43172E-02-1.30746E-05-3.14143E-02-7.62507E-14 2.09604E-14
 -1      1011 1.99767E+01 7.21708E-02-1.02221E-05-2.12415E-02 6.68528E-14 1.72802E-14
 -1      1012 1.99871E+01 5.39305E-02-7.99223E-06-1.40303E-02 1.18150E-13 1.94527E-14
 -1      1013 1.99944E+01 3.93107E-02-6.00129E-06-8.95965E-03 1.44765E-13 3.09114E-14
 -1      1014 1.99992E+01 2.78768E-02-4.41184E-06-5.42975E-03-5.51691E-14 2.65423E-14
 -1      1015 2.00022E+01 1.91377E-02-3.09623E-06-3.00901E-03 5.90235E-15-4.45969E-14
 -1      1016 2.00038E+01 1.26102E-02-2.15656E-06-1.38624E-03 1.28698E-14-4.50305E-14
 -1      1017 2.00046E+01 7.85145E-03-1.47868E-06-3.30184E-04 2.20257E-13 3.01205E-14
 -1      1018 2.00047E+01 4.47361E-03-9.35535E-07 3.24049E-04-1.42509E-13 5.11159E-14
 -1      1019 2.00045E+01 2.15076E-03-5.49125E-07 6.99552E-04-1.80177E-13 8.17581E-14
 -1      1020 2.00040E+01 6.15343E-04-2.78106E-07 8.85528E-04 4.87160E-15 2.26323E-13
 -1      1021 2.00034E+01-3.46671E-04-9.88319E-08 9.46372E-04 3.65038E-13 2.64219E-13
 -1      1022 2.00028E+01-9.02825E-04-6.71669E-08 9.28318E-04 2.35364E-13 4.07867E-13
 -1      1023 2.00023E+01-1.18771E-03-7.70418E-07 8.65418E-04 2.39716E-13 3.90601E-13
 -1      1024 2.00017E+01-1.28333E-03 4.69355E-08 7.75455E-04-6.89391E-14-1.06360E-13
 -1      1025 1.86737E+01 9.12932E-01 1.95864E-04-2.80107E-01-1.53905E-13-9.12319E-14
 -1      1026 1.97641E+01 3.28220E-01-4.73520E-05 8.13195E-02-2.07747E-14-2.36115E-13
 -1      1027 1.96593E+01 4.16259E-01-6.58878E-05 7.91029E-02 1.39468E-14-1.29327E-13
 -1      1028 1.98939E+01 1.95778E-01-3.63897E-05 6.26965E-02 1.82873E-13-2.99409E-14
 -1      1029 1.99313E+01 1.49099E-01-2.83257E-05 5.05592E-02 9.79909E-14-5.89655E-14
 -1      1030 1.99573E+01 1.12174E-01-2.11895E-05 3.91422E-02 2.95008E-14-1.33156E-13
 -1      1031 1.99752E+01 8.32448E-02-1.69358E-05 2.92037E-02 3.40212E-13-3.80801E-13
 -1      1032 1.99877E+01 5.98685E-02-1.23797E-05 2.06683E-02 3.20399E-13-4.33289E-13
 -1      1033 1.99953E+01 4.29475E-02-7.92957E-06 1.42897E-02 2.12445E-13-3.01645E-13
 -1      1034 2.00001E+01 3.01329E-02-5.83013E-06 9.41104E-03 9.18339E-14 5.84871E-14
 -1      1035 2.00029E+01 2.05694E-02-3.96198E-06 5.80662E-03-2.75411E-13 9.89178E-14
 -1      1036 2.00044E+01 1.35364E-02-3.00965E-06 3.22267E-03-2.07707E-13 9.23603E-15
 -1      1037 2.00050E+01 8.25750E-03-1.70559E-06 1.37198E-03 1.87634E-15 4.62746E-14
 -1      1038 2.00050E+01 4.74846E-03-1.01088E-06 2.24779E-04-6.63674E-14 1.53730E-13
 -1      1039 2.00046E+01 2.33996E-03-5.73803E-07-4.89877E-04-2.07157E-13 2.93494E-13
 -1      1040 2.00041E+01 7.47118E-04-2.55146E-07-8.94379E-04 1.17503E-13 5.48026E-14
 -1      1041 2.00035E+01-2.55267E-04-5.30557E-08-1.08579E-03 4.68024E-14-2.25232E-13
 -1      1042 2.00028E+01-8.41680E-04 4.65483E-08-1.13674E-03 2.95333E-13 7.07487E-14
 -1      1043 2.00022E+01-1.15161E-03 5.45367E-08-1.09699E-03 1.01037E-13 2.55414E-13
 -1      1044 2.00017E+01-1.25805E-03 5.16555E-07-1.00958E-03 3.87054E-13-3.12456E-13
 -1      1045 1.98408E+01 2.54134E-01-4.69469E-05 7.39588E-02-1.11935E-13-2.59794E-13
 -1      1046 1.95149E+01 5.20983E-01-7.64042E-05 5.94396E-02-1.89132E-13-3.65546E-14
 -1      1047 2.00014E+01-1.32522E-03-4.23174E-08 4.94375E-04 1.29842E-13 2.74299E-13
 -1      1048 1.90346E+01 7.80697E-01-3.19206E-05-9.74561E-02 2.25796E-14-2.79357E-13
 -1      1049 1.92810E+01-7.92797E-01-3.61247E-03-2.60298E+00 3.61870E-14 1.38842E-13
 -1      1050 1.93117E+01 6.44871E-01-6.37024E-05 7.46275E-03-8.00598E-14-1.44101E-13
 -1      1051 1.80224E+01 1.04797E-01 4.30042E-03-2.39034E+00 4.57899E-14 2.05388E-13
 -1      1052 2.00017E+01-1.30645E-03 6.81384E-07-7.49139E-04 5.47629E-13-5.57610E-13
 -1      1053 1.67244E+01 1.31876E+00 5.07963E-03-1.13401E+00-1.23908E-14 1.18233E-13
 -1      1054 1.71419E+01 8.28660E-01 2.29504E-04-1.83083E+00 6.61661E-14 1.24637E-13
 -1      1055 2.04234E+01-1.27345E+00 4.52936E-04-2.12978E+00-3.09498E-14 2.66592E-14
 -1      1056 1.75726E+01 1.17090E+00-3.49578E-04-8.44590E-01-8.05403E-14 2.01307E-14
 -1      1057 2.00019E+01-1.36795E-03 9.63931E-07-2.32518E-04 4.04459E-13 1.64655E-13
 -1      1058 1.87274E+01 6.82547E-01 1.07322E-03-7.64990E-01 7.16670E-14-3.53874E-14
 -1      1059 2.00019E+01-1.33550E-03 6.10234E-07 4.07051E-04-2.75478E-14 1.68864E-13
 -1      1060 1.96755E+01-3.42663E-01 5.26129E-03-1.51090E+00-4.11148E-14 2.97461E-14
 -1      1061 1.94974E+01 6.82874E-04 4.30143E-04-1.13246E+00 1.76891E-13-1.19831E-15
 -1      1062 1.94629E+01 2.00274E-01-1.91180E-04-8.15823E-01 2.21555E-13-1.28858E-14
 -1      1063 1.94963E+01 3.04893E-01 1.52344E-04-5.69300E-01 5.63609E-16 1.08698E-13
 -1      1064 1.95620E+01 3.41449E-01 1.47930E-04-3.89774E-01-1.08924E-13 3.26898E-14
 -1      1065 1.96379E+01 3.36948E-01 9.77684E-05-2.62489E-01 8.50967E-14-1.10699E-13
 -1      1066 1.97120E+01 3.09280E-01 4.42129E-05-1.74384E-01 1.32673E-13-1.77236E-13
 -1      1067 1.97783E+01 2.70579E-01 2.18391E-05-1.14553E-01 1.30602E-14-1.76407E-13
 -1      1068 1.98345E+01 2.28475E-01 1.77864E-05-7.44632E-02 1.13368E-13-3.59897E-13
 -1      1069 1.98801E+01 1.87441E-01 4.22448E-06-4.79622E-02 2.45868E-13-4.84669E-13
 -1      1070 1.99160E+01 1.50057E-01-9.34093E-07-3.06511E-02 1.29476E-13-4.40280E-13
 -1      1071 1.99435E+01 1.17511E-01-5.61391E-08-1.93998E-02 2.16182E-13-3.63202E-13
 -1      1072 1.99639E+01 9.01072E-02 3.02847E-06-1.21154E-02 6.57377E-14-8.30949E-15
 -1      1073 1.99786E+01 6.76469E-02 1.57742E-06-7.42749E-03 8.87483E-14 2.42682E-13
 -1      1074 1.99890E+01 4.96734E-02 5.84711E-07-4.43206E-03 6.56435E-14 2.22457E-13
 -1      1075 1.99959E+01 3.55992E-02 1.03762E-06-2.51724E-03 1.89781E-14 7.53460E-14
 -1      1076 2.00004E+01 2.48012E-02 1.54159E-06-1.30424E-03-6.48126E-15 2.24952E-13
 -1      1077 2.00031E+01 1.66816E-02 2.16072E-06-5.40196E-04-6.75645E-14 6.62190E-14
 -1      1078 2.00045E+01 1.07140E-02 1.98613E-06-7.40907E-05-2.29513E-14 1.06202E-13
 -1      1079 2.00050E+01 6.42698E-03 1.41794E-06 1.95435E-04-3.07770E-13-2.26792E-13
 -1      1080 2.00050E+01 3.43388E-03 1.26920E-06 3.41645E-04-1.18957E-13-3.76873E-13
 -1      1081 2.00046E+01 1.41364E-03 1.10270E-06 4.08062E-04-2.01643E-14-3.63169E-13
 -1      1082 2.00041E+01 1.09471E-04 9.36435E-07 4.24387E-04 3.38146E-13-2.01964E-13
 -1      1083 2.00035E+01-6.82400E-04 6.10114E-07 4.10780E-04 3.80666E-13-2.26482E-13
 -1      1084 2.00028E+01-1.12330E-03 6.68729E-07 3.77956E-04 3.68698E-13-1.26810E-13
 -1      1085 1.81930E+01 4.94584E-01 1.45590E-03-1.61821E+00-1.20975E-14 2.65317E-13
 -1      1086 1.99330E+01 1.36463E-01 4.41380E-06 2.08636E-02 1.55657E-13-3.31266E-13
 -1      1087 1.98985E+01 1.77548E-01-5.13224E-07 2.28728E-02 2.04785E-13-3.80727E-13
 -1      1088 1.99755E+01 7.62938E-02 4.84209E-06 1.35581E-02 4.59192E-13-4.04482E-13
 -1      1089 1.99872E+01 5.57582E-02 5.75466E-06 1.00712E-02 1.98291E-13-3.62456E-13
 -1      1090 1.99950E+01 3.99052E-02 4.75029E-06 7.11025E-03-9.25864E-14-2.08531E-13
 -1      1091 2.00000E+01 2.78597E-02 3.62418E-06 4.74988E-03-1.81589E-14-2.49314E-13
 -1      1092 2.00029E+01 1.88530E-02 2.31492E-06 2.95354E-03-1.27847E-13-3.70400E-13
 -1      1093 2.00046E+01 1.19653E-02 1.38540E-06 1.59741E-03 3.64468E-14-2.50931E-13
 -1      1094 2.00051E+01 7.30351E-03 1.35205E-06 7.01518E-04-2.23641E-13-6.36472E-14
 -1      1095 2.00051E+01 4.03395E-03 9.22755E-07 1.05567E-04-1.65842E-13 1.48297E-13
 -1      1096 2.00048E+01 1.81376E-03 5.86831E-07-2.65165E-04 3.86962E-14-3.95579E-14
 -1      1097 2.00042E+01 3.65979E-04 3.59360E-07-4.74601E-04 3.54087E-13 8.02106E-14
 -1      1098 2.00036E+01-5.25720E-04 4.46876E-07-5.72985E-04 1.44002E-13-1.32028E-13
 -1      1099 2.00029E+01-1.04752E-03 4.46391E-07-5.98398E-04 2.32411E-13-2.30959E-13
 -1      1100 1.98510E+01 2.27487E-01-2.42076E-05 2.14449E-02-1.18441E-13-3.29236E-13
 -1      1101 1.89998E+01-1.72890E-01 9.27654E-04-1.96753E+00-9.36561E-15 1.81622E-13
 -1      1102 1.95845E+01 4.35518E-01-1.55398E-04-4.91376E-02-1.85048E-13-3.77959E-13
 -1      1103 1.99577E+01 1.03260E-01 2.84059E-06 1.74010E-02 3.67820E-13-4.38524E-13
 -1      1104 1.94333E+01 5.19514E-01-2.50008E-04-1.25404E-01-1.57559E-13-3.23538E-13
 -1      1105 1.92408E+01 5.99897E-01-3.11429E-04-2.54928E-01 4.50553E-14-2.55529E-13
 -1      1106 1.97848E+01 2.88637E-01-3.22156E-05 1.28144E-02 2.47589E-14-2.97588E-13
 -1      1107 1.90077E+01 6.60522E-01-2.90207E-04-4.57781E-01 1.05304E-13-2.23963E-13
 -1      1108 1.96982E+01 3.58020E-01-6.44749E-05-7.95024E-03 6.30126E-14-2.69741E-13
 -1      1109 2.00023E+01-1.28552E-03-2.80362E-06-5.78180E-04 6.25195E-13-4.43422E-13
 -1      1110 1.84199E+01 6.06947E-01-1.22464E-03-1.20584E+00-8.90843E-14 1.89268E-13
 -1      1111 1.89148E+01 2.53474E-01-8.94397E-04-1.34624E+00 3.10812E-14 2.17971E-13
 -1      1112 2.92604E+01 9.50935E+00 2.43726E+00-7.01489E+00-8.46545E-14 4.68597E-13
 -1      1113 2.14447E+01 6.49963E+00 2.20681E-01-4.08352E+00-2.80886E-14-7.54778E-13
 -1      1114 2.02869E+01 6.11426E+00 9.39090E-02-2.96447E+00-1.08524E-14-1.06377E-12
 -1      1115 1.98637E+01 5.98853E+00 9.80777E-02-2.13781E+00-1.65146E-15-1.09621E-12
 -1      1116 1.95872E+01 5.91019E+00 1.13381E-01-1.34415E+00 3.41394E-15-1.02372E-12
 -1      1117 1.92466E+01 5.81040E+00 1.21356E-01-5.52693E-01 5.43315E-15-9.16985E-13
 -1      1118 1.87326E+01 5.65403E+00 1.14152E-01 2.16189E-01 7.89646E-15-8.05030E-13
 -1      1119 1.80116E+01 5.42931E+00 8.60738E-02 8.97873E-01 1.00198E-14-7.12368E-13
 -1      1120 1.71530E+01 5.15672E+00 3.61054E-02 1.38928E+00 1.19765E-14-6.29909E-13
 -1      1121 1.63330E+01 4.89155E+00-2.78084E-02 1.60362E+00 1.18933E-14-5.60877E-13
 -1      1122 1.58176E+01 4.71904E+00-8.74395E-02 1.51545E+00 1.35725E-14-4.88941E-13
 -1      1123 1.58821E+01 4.72872E+00-1.19708E-01 1.20940E+00 1.52170E-14-3.84366E-13
 -1      1124 1.67118E+01 4.98171E+00-1.06085E-01 8.70470E-01 1.72640E-14-2.19036E-13
 -1      1125 1.83382E+01 5.48970E+00-3.91745E-02 7.55199E-01 1.98175E-14 3.99888E-14
 -1      1126 2.06328E+01 6.21644E+00 8.86104E-02 1.14301E+00 2.10942E-14 4.56205E-13
 -1      1127 2.35047E+01 7.14941E+00 3.26615E-01 2.38792E+00 1.48215E-14 1.13812E-12
 -1      1128 2.91828E+01 9.24702E+00 1.64044E+00 5.19340E+00 8.77076E-15 2.29161E-12
 -1      1129 3.01999E+01 3.79553E+00 1.34431E+00-4.42345E+00-2.86965E-13 1.17584E-12
 -1      1130 2.11548E+01-1.73048E-01-6.25054E-01-1.15681E-01-1.01974E-13 5.09065E-13
 -1      1131 1.94915E+01-8.01180E-02-2.18223E-01 5.89631E-02-3.43510E-14-2.91215E-13
 -1      1132 1.87358E+01-2.91818E-02-3.13896E-02 2.63108E-02-2.65955E-14-7.78076E-13
 -1      1133 1.80560E+01-9.44157E-03 8.53002E-03 2.26092E-03-1.82033E-14-1.10884E-12
 -1      1134 1.73499E+01-7.85047E-03 4.07636E-03-1.25934E-02-3.10516E-16-1.26497E-12
 -1      1135 1.66482E+01-1.58460E-02-1.37920E-02-1.89515E-02 2.96616E-15-1.45334E-12
 -1      1136 1.60590E+01-2.73711E-02-3.42958E-02-1.64043E-02-7.04038E-15-1.58804E-12
 -1      1137 1.57160E+01-3.64131E-02-4.95418E-02-6.03816E-03-1.33747E-15-1.78669E-12
 -1      1138 1.57214E+01-3.82593E-02-5.34080E-02 8.75951E-03-1.82493E-15-1.94875E-12
 -1      1139 1.61004E+01-3.14188E-02-4.41165E-02 2.31278E-02-1.09830E-14-2.11062E-12
 -1      1140 1.67876E+01-1.81752E-02-2.52090E-02 3.27175E-02-1.23165E-16-2.11462E-12
 -1      1141 1.76510E+01-3.06511E-03-3.47589E-03 3.54570E-02-1.64235E-14-2.13061E-12
 -1      1142 1.85393E+01 9.54201E-03 1.45664E-02 3.19694E-02-6.17995E-18-2.10119E-12
 -1      1143 1.93270E+01 1.72151E-02 2.52894E-02 2.46292E-02-2.95833E-14-2.10776E-12
 -1      1144 1.99396E+01 1.97401E-02 2.84250E-02 1.61478E-02-2.73418E-14-2.20160E-12
 -1      1145 2.03549E+01 1.83648E-02 2.59215E-02 8.55310E-03-2.05855E-14-2.19897E-12
 -1      1146 2.05899E+01 1.48044E-02 2.04071E-02 2.85739E-03 9.34257E-15-1.99324E-12
 -1      1147 2.06824E+01 1.05497E-02 1.41110E-02-7.73623E-04 2.36408E-14-1.93988E-12
 -1      1148 2.06758E+01 6.58280E-03 8.44273E-03-2.66645E-03 1.22623E-15-1.94860E-12
 -1      1149 2.06094E+01 3.38835E-03 4.03673E-03-3.32280E-03-1.79559E-14-1.93713E-12
 -1      1150 2.05137E+01 1.09187E-03 9.93721E-04-3.22259E-03 9.65181E-15-1.93421E-12
 -1      1151 2.04103E+01-3.87143E-04-8.69432E-04-2.73821E-03 4.00778E-14-1.62082E-12
 -1      1152 2.03124E+01-1.21748E-03-1.83823E-03-2.11974E-03-3.24010E-14-1.81996E-12
 -1      1153 2.02269E+01-1.58278E-03-2.19576E-03-1.51407E-03 7.55388E-15-2.16862E-12
 -1      1154 2.01567E+01-1.64441E-03-2.17578E-03-9.93774E-04 5.38989E-14-1.80257E-12
 -1      1155 2.01016E+01-1.52791E-03-1.95070E-03-5.83998E-04 4.40303E-14-1.41537E-12
 -1      1156 2.00602E+01-1.32266E-03-1.63692E-03-2.83006E-04-2.43487E-14-1.59750E-12
 -1      1157 2.00305E+01-1.08737E-03-1.30662E-03-7.60940E-05-3.81692E-14-2.00753E-12
 -1      1158 2.00101E+01-8.57429E-04-1.00009E-03 5.58813E-05 2.23012E-14-1.93696E-12
 -1      1159 1.99969E+01-6.51697E-04-7.36356E-04 1.31806E-04-3.58869E-14-1.84622E-12
 -1      1160 1.99889E+01-4.78169E-04-5.21222E-04 1.68083E-04 2.14253E-14-1.69883E-12
 -1      1161 1.99848E+01-3.38169E-04-3.52967E-04 1.77888E-04 1.93592E-15-1.49452E-12
 -1      1162 1.99833E+01-2.29307E-04-2.26104E-04 1.71203E-04-5.97395E-15-1.32197E-12
 -1      1163 1.99834E+01-1.47427E-04-1.33728E-04 1.55235E-04 4.51228E-14-1.22078E-12
 -1      1164 1.99846E+01-8.78139E-05-6.88701E-05 1.34949E-04 1.33766E-14-1.38794E-12
 -1      1165 1.99863E+01-4.58892E-05-2.52017E-05 1.13590E-04 1.21262E-14-1.54027E-12
 -1      1166 1.99882E+01-1.75654E-05 2.66411E-06 9.31489E-05-2.75724E-14-1.58437E-12
 -1      1167 1.99901E+01 6.13997E-07 1.91120E-05 7.47324E-05 1.10367E-15-1.44499E-12
 -1      1168 1.99920E+01 1.14604E-05 2.75912E-05 5.88516E-05-1.02077E-14-1.53633E-12
 -1      1169 1.99936E+01 1.71944E-05 3.07450E-05 4.56331E-05-4.89902E-14-1.67790E-12
 -1      1170 1.99950E+01 1.95328E-05 3.05615E-05 3.49687E-05 3.18862E-15-1.55086E-12
 -1      1171 1.99962E+01 1.97852E-05 2.85299E-05 2.66122E-05 6.44046E-14-1.68745E-12
 -1      1172 1.99973E+01 1.89513E-05 2.57960E-05 2.02324E-05-2.55450E-15-1.38439E-12
 -1      1173 1.99981E+01 1.78010E-05 2.33272E-05 1.54132E-05 1.00523E-13-8.89081E-13
 -1      1174 1.99988E+01 1.69262E-05 2.20336E-05 1.15991E-05-1.17768E-14-2.23830E-13
 -1      1175 1.99993E+01 1.67244E-05 2.26151E-05 7.90914E-06-2.39032E-14-2.38800E-13
 -1      1176 1.99996E+01 1.68745E-05 2.41459E-05 2.67742E-06 6.33783E-14 2.22379E-13
 -1      1177 1.99998E+01 1.81151E-05 1.86876E-05-7.32285E-06-2.44458E-14 3.49440E-14
 -1      1178 1.99998E+01-8.31217E-06-1.77590E-05-8.32864E-06 3.99448E-14 2.13772E-13
 -1      1179 3.19189E+01 5.17695E-01 7.01376E-02 1.92291E+00-4.46865E-14 3.14548E-12
 -1      1180 2.67728E+01-1.18516E-01-6.38497E-01 7.27538E-02 6.91808E-15 2.92806E-12
 -1      1181 2.78775E+01-7.54180E-02-2.44129E-01-2.48276E-02 1.70679E-14 2.60769E-12
 -1      1182 3.00499E+01 8.19738E-04-4.74972E-02-8.68762E-02 4.54671E-15 2.46211E-12
 -1      1183 3.26074E+01 1.38431E-01 1.88508E-01-1.60833E-01 1.13512E-14 2.48376E-12
 -1      1184 3.42122E+01 2.86590E-01 5.04664E-01-1.71248E-01 3.51455E-15 2.62780E-12
 -1      1185 3.24962E+01 2.67813E-01 5.87722E-01 5.04425E-02-3.20542E-14 2.95380E-12
 -1      1186 2.61759E+01-9.82336E-02-3.75542E-02 4.42074E-01-3.42348E-14 3.39762E-12
 -1      1187 1.86949E+01-4.07951E-01-1.03868E+00 5.84605E-01-4.60673E-14 3.29770E-12
 -1      1188 1.59777E+01-3.59984E-01-1.41843E+00 2.18840E-01 1.11092E-14 2.69432E-12
 -1      1189 2.03327E+01-2.07545E-02-8.11734E-01-3.24641E-01-7.32747E-15 2.03021E-12
 -1      1190 2.78753E+01 1.40039E-01 5.68974E-02-5.33899E-01 1.21257E-14 1.46178E-12
 -1      1191 3.31871E+01 1.39831E-01 4.59884E-01-3.81409E-01 2.74884E-14 1.15286E-12
 -1      1192 3.44941E+01 6.84865E-02 3.86575E-01-1.34233E-01-1.26756E-14 1.14013E-12
 -1      1193 3.27697E+01 1.75506E-02 1.61414E-01 3.02718E-02 2.17274E-14 1.09225E-12
 -1      1194 2.99663E+01-7.50785E-03 6.69689E-03 8.52222E-02 2.64097E-14 1.01950E-12
 -1      1195 2.72234E+01-1.80466E-02-5.44705E-02 8.49615E-02 2.88463E-14 6.30676E-13
 -1      1196 2.50396E+01-1.86734E-02-6.22689E-02 6.45951E-02-1.65562E-14 7.24310E-13
 -1      1197 2.34816E+01-1.59969E-02-5.03833E-02 4.53703E-02-4.38980E-14 1.01714E-12
 -1      1198 2.23788E+01-1.26583E-02-3.65260E-02 3.04588E-02-2.89378E-14 9.19532E-13
 -1      1199 2.16130E+01-9.63282E-03-2.53444E-02 2.00271E-02 3.97579E-14 3.26201E-13
 -1      1200 2.10757E+01-6.65041E-03-1.68535E-02 1.34150E-02 6.87644E-14 4.67959E-14
 -1      1201 2.07087E+01-5.17017E-03-1.15449E-02 8.26297E-03 9.54358E-15 2.97559E-13
 -1      1202 2.04653E+01-3.78372E-03-7.91562E-03 5.37554E-03-6.15367E-14 8.53631E-13
 -1      1203 2.02989E+01-2.76754E-03-5.46651E-03 3.49273E-03 6.09902E-15 1.49916E-12
 -1      1204 2.01855E+01-2.02636E-03-3.80088E-03 2.26212E-03-3.81835E-14 1.52955E-12
 -1      1205 2.01089E+01-1.50624E-03-2.66948E-03 1.45822E-03 1.02272E-14 1.45532E-12
 -1      1206 2.00569E+01-1.01103E-03-1.81282E-03 9.70952E-04 1.08325E-14 1.08654E-12
 -1      1207 2.00232E+01-7.75006E-04-1.27397E-03 5.42036E-04-1.00894E-13 1.29870E-12
 -1      1208 2.00027E+01-5.59975E-04-8.86367E-04 3.12342E-04 4.81234E-14 7.51212E-13
 -1      1209 1.99904E+01-4.00956E-04-6.09096E-04 1.60860E-04-6.74483E-14 5.49181E-13
 -1      1210 1.99838E+01-2.83458E-04-4.10681E-04 6.31912E-05 1.40129E-14 1.55669E-13
 -1      1211 1.99808E+01-2.02720E-04-2.72263E-04 3.41386E-06-6.20177E-14 3.74032E-13
 -1      1212 1.99803E+01-1.23801E-04-1.64382E-04-2.79091E-05-3.65666E-14 8.57545E-13
 -1      1213 1.99813E+01-8.56128E-05-9.53614E-05-5.49019E-05 4.80112E-14 1.03036E-12
 -1      1214 1.99831E+01-5.33825E-05-4.89227E-05-6.28183E-05 4.39685E-15 1.32322E-12
 -1      1215 1.99852E+01-3.07992E-05-1.78780E-05-6.37543E-05-8.83749E-14 1.43260E-12
 -1      1216 1.99874E+01-1.67614E-05 1.20396E-06-6.01024E-05 1.14755E-13 5.12966E-13
 -1      1217 1.99896E+01-4.40724E-06 1.34910E-05-5.44621E-05 4.06345E-15 4.41914E-14
 -1      1218 1.99916E+01 1.25998E-06 2.00680E-05-4.75296E-05-7.04071E-15 6.22821E-13
 -1      1219 1.99933E+01 4.83272E-06 2.20865E-05-4.06026E-05 5.01843E-14 1.01125E-12
 -1      1220 1.99948E+01 6.67738E-06 2.19124E-05-3.40629E-05-4.15096E-14 1.35425E-12
 -1      1221 1.99961E+01 7.49004E-06 2.04841E-05-2.82674E-05 7.86802E-14 1.01372E-12
 -1      1222 1.99971E+01 7.67922E-06 1.85614E-05-2.34031E-05 8.30962E-14 5.43217E-13
 -1      1223 1.99980E+01 7.79847E-06 1.67684E-05-2.00097E-05-1.37048E-13 1.55719E-12
 -1      1224 1.99987E+01 8.81180E-06 1.68020E-05-1.66612E-05 8.92526E-14 1.57943E-12
 -1      1225 1.99993E+01 1.03027E-05 1.84967E-05-1.46068E-05-1.30192E-14 1.38449E-12
 -1      1226 1.99996E+01 1.21015E-05 2.13737E-05-1.18983E-05 3.67194E-15 1.40662E-12
 -1      1227 1.99998E+01 9.87003E-06 1.69884E-05-4.64299E-06 1.03936E-13 7.56035E-13
 -1      1228 1.99998E+01-7.62874E-06-1.74069E-05 7.08221E-06 1.04432E-14 8.02493E-13
 -1      1229 1.99998E+01 2.16638E-05-1.69250E-05 7.99967E-06 8.91229E-13 9.25937E-14
 -1      1230 1.99998E+01 1.34205E-05 1.75963E-05 6.28218E-06 1.05092E-12-6.86007E-14
 -1      1231 1.99998E+01-1.72838E-04 1.97305E-05-6.23685E-06 6.66503E-13-8.58253E-14
 -1      1232 1.99998E+01-5.01761E-04 1.03153E-05-1.19423E-05 6.91475E-13 2.16786E-13
 -1      1233 1.99998E+01-8.96665E-04-5.56465E-07-1.34361E-05 4.22335E-13-1.83197E-13
 -1      1234 1.99998E+01-1.28213E-03-9.73303E-06-1.20812E-05-1.94272E-12-1.81703E-13
 -1      1235 1.99998E+01-1.60185E-03-1.63938E-05-9.12371E-06-2.29059E-12 9.81803E-14
 -1      1236 1.99998E+01-1.81360E-03-2.05352E-05-4.81949E-06-1.38125E-12 6.64788E-14
 -1      1237 1.99998E+01-1.88630E-03-2.18949E-05 3.74407E-08-1.36369E-12-5.24797E-15
 -1      1238 1.99998E+01-1.81079E-03-2.04523E-05 4.88911E-06-5.34954E-13 3.25782E-14
 -1      1239 1.99998E+01-1.59680E-03-1.62204E-05 9.15977E-06-9.98933E-14-8.85052E-14
 -1      1240 1.99998E+01-1.27572E-03-9.49207E-06 1.22500E-05-1.18609E-12 1.39295E-13
 -1      1241 1.99998E+01-8.90505E-04-4.35064E-07 1.33888E-05-7.89196E-13 1.05924E-13
 -1      1242 1.99998E+01-4.96507E-04 1.04780E-05 1.20610E-05-4.80902E-13-4.63880E-14
 -1      1243 1.99998E+01-1.64430E-04 2.11014E-05 7.54491E-06-2.90749E-13-1.88955E-14
 -1      1244 1.99998E+01 6.45258E-06 1.57628E-05-1.17715E-05-3.12121E-13-1.51324E-13
 -1      1245 1.99998E+01 2.44860E-05-1.69326E-05-8.35850E-06-2.60792E-13 6.96113E-14
 -1      1246-1.61471E+00-2.67243E+01-4.09205E+00-2.73879E+00 2.49101E-12 4.11560E-13
 -1      1247-2.66624E+00-1.93241E+01-3.74069E+00-5.36875E+00 3.40072E-12 1.28741E-12
 -1      1248-1.30391E+00-6.51466E+00-2.77935E+00-2.43990E+00 3.57114E-12 2.21478E-12
 -1      1249 6.95365E+00 4.88446E+00-1.22243E+00 6.02003E+00 3.01026E-12 2.79243E-12
 -1      1250 2.47318E+01 1.02070E+01 8.75188E-01 1.52845E+01 1.90625E-12 2.55196E-12
 -1      1251 4.97848E+01 8.78231E+00 3.29596E+00 1.87976E+01 7.28972E-13 1.31317E-12
 -1      1252 7.26512E+01 3.94790E+00 5.42762E+00 1.24092E+01-8.38218E-15-7.22977E-13
 -1      1253 7.95083E+01 2.34683E+00 6.07863E+00-2.28742E+00 1.91416E-13-2.71602E-12
 -1      1254 6.67231E+01 5.76255E+00 4.99276E+00-1.53600E+01 1.09673E-12-3.93663E-12
 -1      1255 4.07111E+01 9.81601E+00 2.47878E+00-1.83786E+01 2.12086E-12-4.07185E-12
 -1      1256 1.60169E+01 8.42720E+00-1.02867E-01-1.11914E+01 2.64300E-12-3.24096E-12
 -1      1257 1.75191E+00-3.29398E-01-2.09587E+00-1.19472E+00 2.33036E-12-1.92291E-12
 -1      1258-2.58930E+00-1.28060E+01-3.34659E+00 4.89542E+00 1.33338E-12-7.26308E-13
 -1      1259-2.02827E+00-2.28016E+01-3.86964E+00 4.87963E+00-4.67404E-14-1.13382E-13
 -1      1260-8.99802E-01-2.60313E+01-3.87627E+00 8.27898E-01-1.58829E-12-6.94098E-14
 -1      1261-1.27742E+00-1.99367E+01-3.31219E+00-2.96053E+00-2.92733E-12-6.58792E-13
 -1      1262-9.78845E-01-8.05659E+00-2.36236E+00-2.23821E+00-3.49298E-12-1.52267E-12
 -1      1263 3.59116E+00 4.09488E+00-1.05678E+00 4.06371E+00-3.30869E-12-2.32103E-12
 -1      1264 1.53173E+01 1.13033E+01 4.07006E-01 1.28218E+01-2.51132E-12-2.61680E-12
 -1      1265 3.43123E+01 1.14571E+01 1.95493E+00 1.88559E+01-1.29730E-12-2.06835E-12
 -1      1266 5.47340E+01 6.63865E+00 3.29477E+00 1.68851E+01-3.59490E-13-7.71161E-13
 -1      1267 6.74637E+01 2.32341E+00 4.02018E+00 6.66836E+00 3.64986E-15 7.31304E-13
 -1      1268 6.76203E+01 2.26882E+00 4.04817E+00-7.21563E+00-3.13222E-13 2.14112E-12
 -1      1269 5.33539E+01 7.30136E+00 3.26596E+00-1.74558E+01-1.05976E-12 2.91500E-12
 -1      1270 3.21102E+01 1.20167E+01 1.93891E+00-1.86638E+01-1.66467E-12 2.69940E-12
 -1      1271 1.32929E+01 1.07489E+01 2.97451E-01-1.16370E+01-2.12363E-12 2.17781E-12
 -1      1272 2.06696E+00 1.41362E+00-1.36773E+00-2.24083E+00-1.74327E-12 1.23335E-12
 -1      1273-1.47162E+00-1.26531E+01-2.76977E+00 3.26007E+00-7.66720E-13 4.30100E-13
 -1      1274-1.08653E+00-2.44715E+01-3.74819E+00 2.14191E+00 1.07492E-12 2.35159E-14
 -1      1275 2.32754E+01 1.91822E+00-7.61128E-01-2.92916E+00-1.10911E-13 6.36713E-14
 -1      1276 2.12493E+01 4.86611E+00-4.86111E-02-3.47769E+00-1.62689E-13-9.19154E-13
 -1      1277 2.17684E+01 4.99108E+00-1.26567E-01-4.38434E+00-2.61235E-13-7.49095E-13
 -1      1278 2.04406E+01 5.12095E+00-9.74740E-03-2.72931E+00-9.19820E-14-1.09295E-12
 -1      1279 2.07175E+01 5.21326E+00-6.02030E-03-3.18416E+00-1.32463E-13-1.04569E-12
 -1      1280 2.14635E+01 4.00404E+00-2.92487E-02-3.25534E+00-2.59553E-13-7.89882E-13
 -1      1281 2.01135E+01 5.12754E+00 1.40754E-02-1.95981E+00-7.20257E-15-1.07519E-12
 -1      1282 2.02569E+01 5.18221E+00 1.09425E-02-2.35703E+00-3.72966E-14-1.09856E-12
 -1      1283 2.07486E+01 4.29663E+00-2.63217E-02-2.56183E+00-1.25296E-13-9.13450E-13
 -1      1284 1.98546E+01 5.06305E+00 2.56306E-02-1.18383E+00 5.66248E-14-9.97310E-13
 -1      1285 1.99899E+01 5.11143E+00 2.08649E-02-1.57610E+00 3.97911E-14-1.04981E-12
 -1      1286 2.04218E+01 4.33278E+00-2.00390E-02-1.80386E+00 1.39459E-14-8.96290E-13
 -1      1287 1.94894E+01 4.96059E+00 2.83543E-02-4.08555E-01 1.08004E-13-8.83529E-13
 -1      1288 1.96950E+01 5.02588E+00 2.95747E-02-7.92232E-01 9.07364E-14-9.44276E-13
 -1      1289 2.01344E+01 4.27820E+00-1.70808E-02-1.03816E+00 1.04908E-13-8.14848E-13
 -1      1290 1.89007E+01 4.84006E+00 2.17779E-02 3.54674E-01 1.53072E-13-7.79838E-13
 -1      1291 1.92291E+01 4.93911E+00 3.65597E-02-1.18565E-02 1.41658E-13-8.38687E-13
 -1      1292 1.96991E+01 4.20985E+00-1.64188E-02-2.60453E-01 1.98357E-13-7.24195E-13
 -1      1293 1.80689E+01 4.73607E+00 5.44400E-03 1.01692E+00 1.92166E-13-6.89480E-13
 -1      1294 1.85188E+01 4.86890E+00 3.92025E-02 7.14191E-01 1.84817E-13-7.37799E-13
 -1      1295 1.90049E+01 4.18656E+00-1.80183E-02 4.92146E-01 2.70870E-13-6.22426E-13
 -1      1296 1.70800E+01 4.68973E+00-1.81554E-02 1.47827E+00 2.22711E-13-6.15671E-13
 -1      1297 1.75925E+01 4.83929E+00 3.39873E-02 1.28627E+00 2.14342E-13-6.60635E-13
 -1      1298 1.80451E+01 4.26273E+00-2.06448E-02 1.13223E+00 3.33369E-13-5.51920E-13
 -1      1299 1.61553E+01 4.73435E+00-4.16262E-02 1.65271E+00 2.46358E-13-5.50490E-13
 -1      1300 1.66012E+01 4.86279E+00 1.77259E-02 1.60388E+00 2.39524E-13-5.92556E-13
 -1      1301 1.69445E+01 4.46400E+00-2.24268E-02 1.55562E+00 3.80692E-13-4.91586E-13
 -1      1302 1.56248E+01 4.87584E+00-5.43805E-02 1.52489E+00 2.63011E-13-4.75867E-13
 -1      1303 1.58269E+01 4.93155E+00-8.72445E-03 1.61062E+00 2.55483E-13-5.23462E-13
 -1      1304 1.59804E+01 4.75824E+00-2.22288E-02 1.67998E+00 4.15324E-13-4.36247E-13
 -1      1305 1.58086E+01 5.08273E+00-4.84642E-02 1.20336E+00 2.74752E-13-3.64746E-13
 -1      1306 1.56158E+01 5.02107E+00-3.85109E-02 1.35411E+00 2.64622E-13-4.36305E-13
 -1      1307 1.55292E+01 5.04784E+00-2.12955E-02 1.51222E+00 4.35267E-13-3.63267E-13
 -1      1308 1.69062E+01 5.31505E+00-2.35872E-02 8.88023E-01 2.90837E-13-1.85397E-13
 -1      1309 1.62325E+01 5.11129E+00-6.23295E-02 9.99297E-01 2.73559E-13-2.94162E-13
 -1      1310 1.59268E+01 5.21994E+00-2.08656E-02 1.17913E+00 4.47172E-13-2.44972E-13
 -1      1311 1.88949E+01 5.52368E+00 1.52614E-02 8.49931E-01 2.94875E-13 9.04745E-14
 -1      1312 1.77842E+01 5.19131E+00-7.09253E-02 7.88436E-01 2.81247E-13-7.62654E-14
 -1      1313 1.73490E+01 5.18933E+00-2.21378E-02 9.10505E-01 4.61100E-13-5.93050E-14
 -1      1314 2.15699E+01 5.64857E+00 6.32488E-02 1.34568E+00 2.76307E-13 5.33393E-13
 -1      1315 2.01389E+01 5.22836E+00-6.36724E-02 9.78923E-01 2.62790E-13 2.73601E-13
 -1      1316 1.97305E+01 4.91429E+00-1.91767E-02 9.63277E-01 4.38233E-13 2.36994E-13
 -1      1317 2.47933E+01 5.40670E+00 9.55387E-02 2.66919E+00 1.79051E-13 1.25422E-12
 -1      1318 2.31146E+01 5.04685E+00-4.51520E-02 1.76214E+00 1.89238E-13 8.31654E-13
 -1      1319 2.28899E+01 4.28820E+00 4.72189E-03 1.49606E+00 3.61780E-13 7.11584E-13
 -1      1320 3.16541E+01 3.42269E+00 9.07654E-01 3.96796E+00 4.17860E-14 2.33646E-12
 -1      1321 2.62768E+01 3.74901E+00-1.70109E-01 2.78848E+00 6.03406E-14 1.62151E-12
 -1      1322 2.63997E+01 2.68972E+00 3.07735E-02 2.01022E+00 2.60106E-13 1.34531E-12
 -1      1323 2.67670E+01 2.84222E-01-7.67796E-01 4.04100E-01 1.06276E-13 2.34471E-12
 -1      1324 2.29599E+01 1.18176E-01-4.22513E-01-1.39580E+00-2.54588E-13 2.25708E-13
 -1      1325 2.15151E+01 3.01229E-01-1.72858E-01-8.98994E-01-2.16355E-13-9.54375E-14
 -1      1326 2.08129E+01 1.32402E-01-7.52311E-02-5.31809E-01-1.78742E-13-1.82741E-13
 -1      1327 2.01706E+01 6.64643E-02-1.44488E-02-4.72621E-01-1.56555E-13-4.53387E-13
 -1      1328 2.17788E+01 3.40695E-01-1.05368E-01-1.49867E+00-3.83728E-13-3.17864E-13
 -1      1329 1.96517E+01 3.64510E-02 6.04556E-03-3.33854E-01-1.21204E-13-5.19244E-13
 -1      1330 1.92410E+01 1.52571E-02 1.54844E-02-3.32419E-01-9.83710E-14-6.88139E-13
 -1      1331 2.04699E+01 9.08527E-02-2.77025E-02-8.38415E-01-2.69531E-13-4.39544E-13
 -1      1332 1.88616E+01 5.85598E-03 1.70288E-02-2.98140E-01-8.87404E-14-7.43617E-13
 -1      1333 1.85020E+01 1.46148E-03 1.31469E-02-3.02016E-01-7.88102E-14-8.78481E-13
 -1      1334 1.96231E+01 1.19818E-02-8.05258E-04-6.39208E-01-1.84439E-13-5.31753E-13
 -1      1335 1.81804E+01 1.97685E-03 1.17270E-02-2.92233E-01-5.57896E-14-8.99665E-13
 -1      1336 1.78320E+01 7.30351E-03 7.43261E-03-2.92973E-01-4.79766E-14-9.62484E-13
 -1      1337 1.89398E+01-2.19691E-03 1.66737E-03-5.89611E-01-1.26161E-13-6.17585E-13
 -1      1338 1.75512E+01 1.29597E-02 5.89094E-03-2.67256E-01-4.47984E-14-1.03120E-12
 -1      1339 1.72389E+01 2.28883E-02 3.00435E-03-2.59097E-01-2.24759E-14-1.10061E-12
 -1      1340 1.83447E+01 1.35677E-02-2.12780E-03-5.48097E-01-1.06267E-13-6.86710E-13
 -1      1341 1.70182E+01 3.05360E-02 1.50645E-03-1.98721E-01-3.01616E-14-1.12103E-12
 -1      1342 1.67952E+01 4.01702E-02-1.67455E-04-1.79624E-01-7.55316E-14-1.19037E-12
 -1      1343 1.78452E+01 4.24557E-02-7.74327E-03-4.44688E-01-8.19956E-14-7.73686E-13
 -1      1344 1.66680E+01 4.64162E-02-1.46941E-03-8.41741E-02-7.15070E-14-1.20305E-12
 -1      1345 1.65877E+01 5.12362E-02-2.10578E-03-5.66513E-02-5.74913E-14-1.29078E-12
 -1      1346 1.74961E+01 7.06859E-02-1.30028E-02-2.55757E-01-1.28147E-13-8.01538E-13
 -1      1347 1.65810E+01 5.32594E-02-2.90354E-03 5.76679E-02-6.71329E-14-1.30421E-12
 -1      1348 1.66721E+01 5.06432E-02-2.56028E-03 8.72850E-02-6.20840E-14-1.39173E-12
 -1      1349 1.73594E+01 8.59827E-02-1.57661E-02-4.16925E-04-1.18330E-13-8.60463E-13
 -1      1350 1.67906E+01 4.76030E-02-2.78430E-03 1.94643E-01-6.52347E-14-1.43368E-12
 -1      1351 1.70433E+01 3.79374E-02-1.59623E-03 2.18873E-01-1.56823E-14-1.49057E-12
 -1      1352 1.74677E+01 8.13291E-02-1.46785E-02 2.69585E-01-1.07071E-13-9.15874E-13
 -1      1353 1.72642E+01 3.13994E-02-1.59139E-03 2.94951E-01 1.02297E-14-1.55518E-12
 -1      1354 1.76323E+01 1.76982E-02 1.68088E-04 3.08414E-01-2.51466E-14-1.55927E-12
 -1      1355 1.78029E+01 5.79362E-02-1.00607E-02 4.92389E-01-5.01812E-14-9.96395E-13
 -1      1356 1.79127E+01 1.06025E-02-1.27681E-04 3.40055E-01-2.58787E-14-1.53881E-12
 -1      1357 1.83298E+01-3.17154E-03 1.86975E-03 3.41387E-01-1.32350E-14-1.56851E-12
 -1      1358 1.82981E+01 2.42376E-02-3.69706E-03 6.22103E-01-2.80620E-14-1.08310E-12
 -1      1359 1.86209E+01-8.21258E-03 9.13334E-04 3.29826E-01 1.13943E-14-1.55395E-12
 -1      1360 1.90219E+01-1.89587E-02 2.85268E-03 3.21366E-01 1.36664E-14-1.51327E-12
 -1      1361 1.88609E+01-8.81023E-03 2.22744E-03 6.44732E-01 7.05610E-15-1.09871E-12
 -1      1362 1.92830E+01-2.07641E-02 1.24937E-03 2.78647E-01-1.88903E-14-1.51528E-12
 -1      1363 1.96201E+01-2.71498E-02 2.94554E-03 2.64629E-01-6.11353E-14-1.55747E-12
 -1      1364 1.94020E+01-3.27980E-02 6.22519E-03 5.77302E-01-2.32999E-14-1.05666E-12
 -1      1365 1.98263E+01-2.60063E-02 9.99944E-04 2.06800E-01-2.76393E-14-1.53641E-12
 -1      1366 2.00759E+01-2.83042E-02 2.37583E-03 1.91406E-01 9.23740E-15-1.54294E-12
 -1      1367 1.98569E+01-4.44678E-02 7.90264E-03 4.54583E-01-2.77235E-14-1.02611E-12
 -1      1368 2.02185E+01-2.53079E-02 4.71051E-04 1.32613E-01 5.80178E-15-1.52165E-12
 -1      1369 2.03784E+01-2.46744E-02 1.52476E-03 1.18817E-01 2.34613E-14-1.50640E-12
 -1      1370 2.01937E+01-4.51762E-02 7.69395E-03 3.13357E-01 1.12028E-14-9.58124E-13
 -1      1371 2.04614E+01-2.10243E-02-5.28356E-05 6.83305E-02 4.95613E-14-1.47810E-12
 -1      1372 2.05438E+01-1.87878E-02 7.12122E-04 5.76255E-02 7.40167E-14-1.34068E-12
 -1      1373 2.04089E+01-3.86860E-02 6.36067E-03 1.81766E-01 7.07112E-14-8.79650E-13
 -1      1374 2.05783E+01-1.53669E-02-4.11042E-04 1.95996E-02 2.38351E-14-1.36543E-12
 -1      1375 2.06020E+01-1.25998E-02 1.10926E-04 1.22951E-02 4.34717E-14-1.34348E-12
 -1      1376 2.05184E+01-2.89975E-02 4.61051E-03 7.56811E-02 5.66092E-14-8.84482E-13
 -1      1377 2.06014E+01-9.87051E-03-5.66693E-04-1.29513E-02 1.01765E-14-1.37701E-12
 -1      1378 2.05860E+01-7.25325E-03-2.40639E-04-1.72566E-02-3.20544E-14-1.40712E-12
 -1      1379 2.05469E+01-1.91159E-02 2.92481E-03 1.80864E-04-1.05150E-14-9.44562E-13
 -1      1380 2.05631E+01-5.33965E-03-5.59542E-04-3.15929E-02 5.06881E-15-1.42346E-12
 -1      1381 2.05255E+01-3.20380E-03-3.84619E-04-3.35978E-02-4.16561E-15-1.38738E-12
 -1      1382 2.05202E+01-1.07419E-02 1.54740E-03-4.68151E-02-2.24668E-14-9.68217E-13
 -1      1383 2.04907E+01-2.02699E-03-4.55561E-04-3.97287E-02 9.56651E-15-1.32390E-12
 -1      1384 2.04434E+01-4.63215E-04-3.90541E-04-4.01601E-02 6.36370E-14-1.30107E-12
 -1      1385 2.04612E+01-4.50383E-03 5.48726E-04-7.09184E-02 2.17733E-14-9.17015E-13
 -1      1386 2.04046E+01 1.42024E-04-3.14564E-04-4.07670E-02 8.18314E-14-1.31203E-12
 -1      1387 2.03561E+01 1.17847E-03-3.23261E-04-4.02427E-02 7.28299E-14-1.21393E-12
 -1      1388 2.03874E+01-3.55559E-04-9.99123E-05-7.86396E-02 1.00696E-13-8.41783E-13
 -1      1389 2.03181E+01 1.38916E-03-1.77340E-04-3.75599E-02-5.82701E-14-1.21030E-12
 -1      1390 2.02736E+01 2.00119E-03-2.29944E-04-3.65440E-02-1.11504E-13-1.39345E-12
 -1      1391 2.03112E+01 2.07281E-03-4.69514E-04-7.58807E-02-3.86519E-14-8.68676E-13
 -1      1392 2.02395E+01 1.96884E-03-6.52157E-05-3.22308E-02 1.70084E-15-1.30488E-12
 -1      1393 2.02014E+01 2.27059E-03-1.38964E-04-3.10387E-02 9.15208E-14-1.20706E-12
 -1      1394 2.02400E+01 3.24116E-03-6.38632E-04-6.72978E-02-5.91814E-14-6.94941E-13
 -1      1395 2.01725E+01 2.10890E-03 1.49540E-05-2.62143E-02 6.17911E-14-1.24174E-12
 -1      1396 2.01416E+01 2.20205E-03-6.40094E-05-2.50402E-02 8.07160E-14-1.14195E-12
 -1      1397 2.01780E+01 3.57327E-03-6.76300E-04-5.62042E-02 7.03870E-14-6.47195E-13
 -1      1398 2.01182E+01 1.98812E-03 6.49562E-05-2.03869E-02 1.26177E-13-1.10935E-12
 -1      1399 2.00943E+01 1.95311E-03-9.20873E-06-1.93360E-02 5.79880E-14-1.02890E-12
 -1      1400 2.01266E+01 3.40590E-03-6.36115E-04-4.47431E-02 9.77896E-14-6.26762E-13
 -1      1401 2.00762E+01 1.73432E-03 9.05738E-05-1.52170E-02-5.00076E-14-1.05354E-12
 -1      1402 2.00584E+01 1.62963E-03 2.65936E-05-1.43346E-02-1.20889E-13-1.22359E-12
 -1      1403 2.00858E+01 2.98108E-03-5.56188E-04-3.41551E-02-5.80290E-14-7.80954E-13
 -1      1404 2.00448E+01 1.43175E-03 9.85894E-05-1.08985E-02-8.27846E-14-1.27948E-12
 -1      1405 2.00322E+01 1.29699E-03 4.68830E-05-1.01927E-02-3.49904E-14-1.37721E-12
 -1      1406 2.00547E+01 2.45860E-03-4.61624E-04-2.50449E-02-1.54985E-13-8.50409E-13
 -1      1407 2.00224E+01 1.13136E-03 9.51804E-05-7.45544E-03-1.74192E-14-1.34109E-12
 -1      1408 2.00139E+01 9.91457E-04 5.57102E-05-6.91341E-03-6.39296E-15-1.36013E-12
 -1      1409 2.00317E+01 1.93501E-03-3.67661E-04-1.76036E-02-2.42744E-14-8.58338E-13
 -1      1410 2.00071E+01 8.60588E-04 8.52638E-05-4.81708E-03-1.34579E-15-1.27461E-12
 -1      1411 2.00016E+01 7.29861E-04 5.67826E-05-4.41617E-03 6.22139E-14-1.21885E-12
 -1      1412 2.00154E+01 1.46222E-03-2.82582E-04-1.17774E-02 3.67375E-14-9.27176E-13
 -1      1413 1.99972E+01 6.31369E-04 7.23915E-05-2.86879E-03 6.26995E-14-1.13311E-12
 -1      1414 1.99940E+01 5.16924E-04 5.30982E-05-2.58329E-03 7.72094E-14-1.05729E-12
 -1      1415 2.00044E+01 1.06281E-03-2.10073E-04-7.38419E-03 6.17861E-14-7.70168E-13
 -1      1416 1.99913E+01 4.46149E-04 5.89153E-05-1.48328E-03 4.36811E-14-1.01384E-12
 -1      1417 1.99897E+01 3.50481E-04 4.68820E-05-1.28837E-03 2.57020E-14-1.02315E-12
 -1      1418 1.99973E+01 7.41520E-04-1.50981E-04-4.19047E-03 7.48836E-14-7.50839E-13
 -1      1419 1.99883E+01 3.02079E-04 4.62463E-05-5.38726E-04-1.57997E-15-9.56654E-13
 -1      1420 1.99878E+01 2.24934E-04 3.96687E-05-4.12399E-04 3.08161E-14-9.96634E-13
 -1      1421 1.99931E+01 4.93227E-04-1.04543E-04-1.95717E-03 7.42295E-14-6.88706E-13
 -1      1422 1.99872E+01 1.93769E-04 3.51175E-05 7.23076E-05 3.17345E-15-8.66024E-13
 -1      1423 1.99874E+01 1.33419E-04 3.24403E-05 1.48424E-04 4.24270E-14-8.40211E-13
 -1      1424 1.99910E+01 3.08122E-04-6.92029E-05-4.64843E-04 7.54242E-14-5.59979E-13
 -1      1425 1.99873E+01 1.15001E-04 2.58073E-05 4.39411E-04-4.67793E-14-9.49711E-13
 -1      1426 1.99879E+01 6.90640E-05 2.57676E-05 4.80041E-04-1.62964E-14-1.09579E-12
 -1      1427 1.99903E+01 1.74920E-04-4.31217E-05 4.74880E-04 5.11990E-15-6.48130E-13
 -1      1428 1.99882E+01 5.96977E-05 1.83133E-05 6.34263E-04 3.27148E-14-1.06726E-12
 -1      1429 1.99891E+01 2.56406E-05 1.99338E-05 6.50794E-04-4.22118E-14-1.09677E-12
 -1      1430 1.99905E+01 8.26613E-05-2.44743E-05 1.01613E-03-5.40229E-14-6.40347E-13
 -1      1431 1.99895E+01 2.24246E-05 1.24751E-05 7.12260E-04 5.37151E-14-1.15498E-12
 -1      1432 1.99904E+01-2.15360E-06 1.50331E-05 7.13226E-04 7.33525E-15-1.07564E-12
 -1      1433 1.99912E+01 2.16062E-05-1.16069E-05 1.28037E-03-2.57393E-14-7.02319E-13
 -1      1434 1.99910E+01-1.41231E-06 8.05900E-06 7.14890E-04-9.50042E-15-8.93992E-13
 -1      1435 1.99919E+01-1.86408E-05 1.10430E-05 7.06493E-04 2.37369E-14-1.00228E-12
 -1      1436 1.99922E+01-1.64157E-05-3.10493E-06 1.36022E-03 3.36431E-14-6.55380E-13
 -1      1437 1.99925E+01-1.55437E-05 4.81019E-06 6.72273E-04-6.54639E-14-9.33262E-13
 -1      1438 1.99933E+01-2.72300E-05 7.87586E-06 6.58870E-04-8.74211E-14-1.02011E-12
 -1      1439 1.99933E+01-3.79846E-05 2.19380E-06 1.32417E-03-1.87145E-14-5.01291E-13
 -1      1440 1.99939E+01-2.29096E-05 2.48437E-06 6.05531E-04 4.12130E-14-1.02224E-12
 -1      1441 1.99946E+01-3.05423E-05 5.41369E-06 5.90062E-04-3.86105E-15-1.06523E-12
 -1      1442 1.99945E+01-4.82373E-05 5.21480E-06 1.22127E-03-1.07735E-13-4.60356E-13
 -1      1443 1.99951E+01-2.57760E-05 8.64291E-07 5.28839E-04-7.39600E-14-9.96969E-13
 -1      1444 1.99958E+01-3.05566E-05 3.53081E-06 5.13171E-04 5.11280E-14-9.66641E-13
 -1      1445 1.99955E+01-5.10910E-05 6.67758E-06 1.08530E-03 8.28082E-14-3.98216E-13
 -1      1446 1.99962E+01-2.58686E-05-2.30764E-07 4.51099E-04 1.39545E-13-1.03090E-12
 -1      1447 1.99968E+01-2.87566E-05 2.11234E-06 4.36295E-04 1.86509E-13-9.78440E-13
 -1      1448 1.99964E+01-4.94912E-05 7.13198E-06 9.38354E-04 6.05223E-14-3.89794E-13
 -1      1449 1.99972E+01-2.45056E-05-9.34148E-07 3.77219E-04 9.91800E-16-8.23535E-13
 -1      1450 1.99976E+01-2.62700E-05 1.07433E-06 3.63738E-04 3.00944E-14-7.68957E-13
 -1      1451 1.99973E+01-4.56604E-05 6.99691E-06 7.93636E-04 1.05006E-13-3.62695E-13
 -1      1452 1.99979E+01-2.27372E-05-1.31354E-06 3.09034E-04 2.73667E-13-9.24209E-13
 -1      1453 1.99983E+01-2.39906E-05 4.10773E-07 2.96836E-04 2.95994E-13-4.57602E-13
 -1      1454 1.99979E+01-4.13397E-05 6.60005E-06 6.57558E-04 1.75476E-13-2.06501E-13
 -1      1455 1.99986E+01-2.14241E-05-1.31199E-06 2.45911E-04 1.65656E-13-4.10764E-13
 -1      1456 1.99989E+01-2.26569E-05 2.16589E-07 2.34538E-04 8.07741E-14-2.33626E-13
 -1      1457 1.99985E+01-3.79700E-05 6.22673E-06 5.31199E-04 3.61257E-13-4.50102E-13
 -1      1458 1.99991E+01-2.13573E-05-7.41088E-07 1.85146E-04 6.88407E-14-1.73108E-13
 -1      1459 1.99993E+01-2.28348E-05 6.19713E-07 1.73673E-04 4.18041E-14-1.49813E-13
 -1      1460 1.99990E+01-3.69913E-05 6.09492E-06 4.11387E-04 1.62978E-13-3.54465E-13
 -1      1461 1.99995E+01-2.29029E-05 5.14743E-07 1.22764E-04 1.51752E-13-8.67675E-14
 -1      1462 1.99996E+01-2.42294E-05 1.04009E-06 1.09862E-04 2.42587E-13 9.95603E-14
 -1      1463 1.99993E+01-3.93974E-05 6.16358E-06 2.91695E-04 1.26491E-13-1.11282E-13
 -1      1464 1.99997E+01-2.75413E-05 8.46601E-07 5.53747E-05 3.15466E-14 1.57044E-13
 -1      1465 1.99997E+01-2.29093E-05-1.64064E-06 4.08108E-05-7.16811E-14 1.96345E-13
 -1      1466 1.99996E+01-4.48805E-05 5.75505E-06 1.67312E-04 2.29002E-13 3.82714E-14
 -1      1467 1.99998E+01-2.36349E-06-4.96188E-06-8.64923E-06-2.16381E-13 1.39842E-13
 -1      1468 1.99998E+01-2.92333E-05 1.24094E-06 3.55069E-05-1.80069E-13 4.01786E-14
 -1      1469 2.72378E+01 9.33268E-02-1.38286E-01-2.41291E-01 1.21139E-13 2.08467E-12
 -1      1470 2.74777E+01 2.77630E-01-2.13292E-01-3.90245E-03 1.02085E-13 2.23033E-12
 -1      1471 2.70101E+01 8.09067E-01-1.29637E-01 8.13200E-01 1.97453E-13 1.60603E-12
 -1      1472 2.82058E+01 5.63162E-02-2.49152E-02-6.48639E-01 5.73742E-14 1.86963E-12
 -1      1473 2.74966E+01 1.75202E-01-5.38493E-02-5.46708E-01 7.29486E-14 1.97189E-12
 -1      1474 2.69217E+01 2.22346E-01-8.25696E-02-6.43806E-01 1.64230E-13 1.38870E-12
 -1      1475 2.99219E+01-8.91369E-03 2.47925E-02-8.25228E-01 9.25475E-15 1.79520E-12
 -1      1476 2.88398E+01 7.06459E-02 3.96929E-03-7.67752E-01 2.05239E-15 1.81383E-12
 -1      1477 2.77686E+01 9.33948E-02-2.95449E-02-1.29661E+00 4.92644E-14 1.27037E-12
 -1      1478 3.15986E+01-1.36723E-01 1.04673E-01-6.07179E-01-3.86410E-14 1.88615E-12
 -1      1479 3.06295E+01-1.05882E-01 3.67524E-02-6.70001E-01-3.60163E-14 1.82518E-12
 -1      1480 2.91170E+01-1.07384E-01 2.62836E-02-1.35982E+00-3.90868E-14 1.24157E-12
 -1      1481 3.19635E+01-3.11905E-01 1.85401E-01 3.35119E-01-1.02196E-13 2.07545E-12
 -1      1482 3.19753E+01-3.88365E-01 8.62278E-02 9.53818E-03-7.73652E-14 1.96320E-12
 -1      1483 3.03792E+01-4.74752E-01 1.09022E-01-4.71651E-01-1.32283E-13 1.38469E-12
 -1      1484 2.95876E+01-2.98242E-01 8.01452E-02 1.76957E+00-1.40015E-13 2.45365E-12
 -1      1485 3.14547E+01-5.70030E-01 8.39239E-02 1.26127E+00-1.53103E-13 2.17804E-12
 -1      1486 3.06524E+01-7.94379E-01 1.47744E-01 1.56580E+00-2.62110E-13 1.59438E-12
 -1      1487 2.49078E+01 1.30825E-01-3.36296E-01 2.44658E+00 3.24879E-14 2.56084E-12
 -1      1488 2.82315E+01-2.20269E-01-9.82560E-02 2.19638E+00-1.09565E-14 2.48451E-12
 -1      1489 2.92944E+01-4.70422E-01 6.73691E-04 3.55977E+00-1.29750E-13 1.75293E-12
 -1      1490 2.16371E+01 5.75108E-01-6.83941E-01 1.15565E+00 2.31676E-13 2.24243E-12
 -1      1491 2.38793E+01 5.30650E-01-4.12771E-01 1.51981E+00 1.44856E-13 2.42631E-12
 -1      1492 2.71228E+01 7.65093E-01-2.56274E-01 3.21578E+00 1.65590E-13 1.72663E-12
 -1      1493 2.23392E+01 5.15562E-01-5.87598E-01-1.24763E+00 2.66162E-13 1.61707E-12
 -1      1494 2.18090E+01 8.66620E-01-5.46702E-01-5.42940E-01 2.73670E-13 1.94952E-12
 -1      1495 2.61133E+01 1.58461E+00-3.84585E-01 6.60327E-02 4.89442E-13 1.31005E-12
 -1      1496 2.66850E+01-2.20300E-02-1.42963E-01-2.50426E+00 1.91028E-13 1.09224E-12
 -1      1497 2.36611E+01 3.70273E-01-3.66570E-01-2.14534E+00 1.66311E-13 1.37834E-12
 -1      1498 2.72583E+01 8.78312E-01-3.03093E-01-3.19850E+00 4.27519E-13 8.07784E-13
 -1      1499 3.07565E+01-3.15324E-01 1.91974E-01-1.82574E+00 8.62886E-14 6.51562E-13
 -1      1500 2.78484E+01-2.31605E-01-4.62604E-02-1.97042E+00 1.38681E-13 8.83460E-13
 -1      1501 2.93640E+01-4.59023E-01-1.24185E-01-3.71850E+00 3.52517E-13 2.79249E-13
 -1      1502 3.25420E+01-2.86880E-01 2.35967E-01-4.34090E-01-2.56739E-14 5.92498E-13
 -1      1503 3.11256E+01-4.21194E-01 1.30631E-01-7.59588E-01 1.96926E-14 6.53644E-13
 -1      1504 3.06313E+01-9.68533E-01 7.51866E-03-1.92971E+00 1.19446E-13 1.00447E-13
 -1      1505 3.17996E+01-1.24754E-01 1.14063E-01 5.85677E-01 1.64920E-14 6.24896E-13
 -1      1506 3.20664E+01-2.89534E-01 1.22610E-01 3.45756E-01-2.24543E-14 6.05314E-13
 -1      1507 3.04436E+01-7.00831E-01 4.26946E-02 1.82061E-01 2.42861E-14 1.37077E-13
 -1      1508 2.97364E+01-1.22719E-02 8.55225E-03 9.42472E-01 4.68896E-15 6.16326E-13
 -1      1509 3.08926E+01-1.13022E-01 4.24273E-02 8.51938E-01-6.48787E-16 6.47586E-13
 -1      1510 2.91283E+01-2.53629E-01 3.07850E-02 1.40579E+00-3.24775E-14 2.18527E-13
 -1      1511 2.74486E+01 3.34304E-02-3.46555E-02 9.11469E-01 1.21389E-13 4.38122E-13
 -1      1512 2.87756E+01-3.48798E-03-9.58063E-03 9.05836E-01 1.24541E-13 6.35034E-13
 -1      1513 2.73646E+01 1.51189E-02 1.13394E-02 1.71780E+00 1.28506E-13 2.77434E-13
 -1      1514 2.53681E+01 4.28803E-02-3.76793E-02 7.28920E-01-4.16941E-14 4.55122E-13
 -1      1515 2.65633E+01 4.09155E-02-2.48606E-02 7.58273E-01 2.03830E-15 4.52388E-13
 -1      1516 2.56001E+01 1.12525E-01 1.90228E-03 1.54215E+00 5.63377E-14 3.10578E-13
 -1      1517 2.38295E+01 3.59870E-02-2.83310E-02 5.41833E-01-3.24359E-14 4.28019E-13
 -1      1518 2.47045E+01 4.95565E-02-2.05343E-02 5.74487E-01 1.89553E-14 4.28518E-13
 -1      1519 2.41060E+01 1.21505E-01-1.74878E-03 1.21276E+00 3.06092E-14 3.07185E-13
 -1      1520 2.26885E+01 2.73258E-02-1.86456E-02 3.87877E-01-6.16044E-14 5.97047E-13
 -1      1521 2.33244E+01 4.34105E-02-1.30266E-02 4.15620E-01-9.01189E-14 4.59553E-13
 -1      1522 2.29682E+01 9.91457E-02-1.95339E-03 8.99071E-01-9.85080E-14 1.67688E-13
 -1      1523 2.18684E+01 1.95975E-02-1.15879E-02 2.72174E-01 1.14709E-13 4.16476E-13
 -1      1524 2.23174E+01 3.37585E-02-7.11808E-03 2.93380E-01 3.48523E-14 5.42018E-13
 -1      1525 2.21148E+01 7.34788E-02-1.49855E-03 6.45020E-01 3.36797E-15 1.93387E-13
 -1      1526 2.12869E+01 1.35322E-02-7.32589E-03 1.89225E-01 1.02937E-13 1.66307E-13
 -1      1527 2.16005E+01 2.49548E-02-3.47484E-03 2.04577E-01 9.12118E-14 3.73886E-13
 -1      1528 2.14910E+01 5.19715E-02-1.15506E-03 4.54984E-01 1.59688E-13 2.82395E-13
 -1      1529 2.08629E+01 9.17201E-03-4.26115E-03 1.28529E-01-1.24640E-14 1.19350E-13
 -1      1530 2.10870E+01 1.75775E-02-1.55452E-03 1.40172E-01 3.31436E-14 1.55699E-13
 -1      1531 2.10335E+01 3.59333E-02-6.08962E-04 3.15823E-01 6.43908E-14 3.31944E-13
 -1      1532 2.05838E+01 6.41717E-03-2.56634E-03 8.88164E-02-1.67037E-13 5.05095E-13
 -1      1533 2.07302E+01 1.25763E-02-4.12665E-04 9.64277E-02-1.31086E-13 2.22138E-13
 -1      1534 2.07082E+01 2.40304E-02-7.84210E-04 2.17661E-01-2.11653E-13 3.54251E-13
 -1      1535 2.03889E+01 4.45156E-03-1.58326E-03 6.12219E-02-1.43822E-13 8.58139E-13
 -1      1536 2.04895E+01 8.85730E-03-2.05647E-05 6.65944E-02-1.38032E-13 6.18378E-13
 -1      1537 2.04847E+01 1.64597E-02-6.26672E-04 1.51141E-01-2.86616E-13 4.89779E-13
 -1      1538 2.02535E+01 3.09443E-03-9.77848E-04 4.20221E-02 3.93525E-14 9.92747E-13
 -1      1539 2.03226E+01 6.27808E-03 1.64385E-04 4.58272E-02-6.72428E-14 9.07839E-13
 -1      1540 2.03268E+01 1.12814E-02-5.14622E-04 1.04633E-01-1.38995E-13 5.35063E-13
 -1      1541 2.01601E+01 2.15663E-03-6.01304E-04 2.86335E-02-1.63951E-14 9.29860E-13
 -1      1542 2.02072E+01 4.46091E-03 2.28638E-04 3.13358E-02-5.59522E-14 9.64480E-13
 -1      1543 2.02158E+01 7.75029E-03-4.19902E-04 7.20608E-02-5.43775E-14 4.93790E-13
 -1      1544 2.00961E+01 1.48102E-03-3.92874E-04 1.92654E-02 1.44931E-13 8.39396E-13
 -1      1545 2.01279E+01 3.19350E-03 2.38635E-04 2.11975E-02 1.38322E-13 1.01235E-12
 -1      1546 2.01382E+01 5.33386E-03-3.44181E-04 4.92100E-02 5.46144E-14 5.26250E-13
 -1      1547 2.00512E+01 1.00075E-03-2.21706E-04 1.24482E-02 1.49895E-14 8.64013E-13
 -1      1548 2.00731E+01 2.23655E-03 2.14029E-04 1.39193E-02-1.49705E-14 8.00598E-13
 -1      1549 2.00836E+01 3.70571E-03-2.35502E-04 3.28966E-02 9.04649E-14 5.66054E-13
 -1      1550 2.00234E+01 7.13503E-04-1.15840E-04 7.99245E-03-2.00693E-14 8.98024E-13
 -1      1551 2.00368E+01 1.59852E-03 1.95299E-04 8.95559E-03-6.44118E-14 9.02895E-13
 -1      1552 2.00466E+01 2.45581E-03-2.20066E-04 2.14315E-02-7.65327E-14 6.58948E-13
 -1      1553 2.00055E+01 4.89725E-04-5.67915E-05 4.89632E-03 7.48875E-14 5.07020E-13
 -1      1554 2.00139E+01 1.11955E-03 1.57133E-04 5.58176E-03 1.59015E-13 7.93608E-13
 -1      1555 2.00226E+01 1.68193E-03-1.67110E-04 1.36992E-02 2.02227E-13 5.07851E-13
 -1      1556 1.99946E+01 3.29968E-04-1.89990E-05 2.77915E-03 5.77012E-16 5.57891E-13
 -1      1557 1.99995E+01 7.84907E-04 1.29823E-04 3.26238E-03-6.89604E-14 5.17082E-13
 -1      1558 2.00071E+01 1.12807E-03-1.29381E-04 8.34398E-03 6.16060E-14 6.47700E-13
 -1      1559 1.99885E+01 2.16299E-04 4.17928E-06 1.35895E-03-6.96338E-14 3.25802E-13
 -1      1560 1.99911E+01 5.42767E-04 1.06375E-04 1.69482E-03 8.78618E-14 3.85070E-13
 -1      1561 1.99975E+01 7.38736E-04-9.92171E-05 4.68331E-03 1.51519E-13 6.17751E-13
 -1      1562 1.99856E+01 1.33109E-04 1.56209E-05 4.28465E-04-1.20245E-13 3.69128E-13
 -1      1563 1.99866E+01 3.71276E-04 8.73194E-05 6.61224E-04-1.18399E-13 2.53292E-13
 -1      1564 1.99920E+01 4.65059E-04-7.60526E-05 2.23106E-03-9.37826E-14 3.02651E-13
 -1      1565 1.99848E+01 7.30006E-05 2.32676E-05-1.72919E-04-7.04703E-14 6.21741E-13
 -1      1566 1.99848E+01 2.41106E-04 7.04227E-05-8.83499E-06-1.35262E-13 4.69448E-13
 -1      1567 1.99891E+01 2.84117E-04-5.26978E-05 6.15947E-04-2.21161E-13 1.61277E-13
 -1      1568 1.99853E+01 4.12523E-05 2.78628E-05-4.95700E-04-4.28638E-14 8.38677E-13
 -1      1569 1.99847E+01 1.52310E-04 5.60045E-05-4.01031E-04-6.04364E-14 7.92593E-13
 -1      1570 1.99882E+01 1.41071E-04-4.18406E-05-3.90751E-04-1.36244E-13 4.36994E-13
 -1      1571 1.99866E+01 1.63708E-05 2.77170E-05-6.61993E-04 3.93821E-14 1.01735E-12
 -1      1572 1.99857E+01 8.79415E-05 4.30763E-05-6.05077E-04-2.73574E-14 8.42231E-13
 -1      1573 1.99884E+01 6.07966E-05-2.92496E-05-9.44839E-04-5.70283E-14 5.61609E-13
 -1      1574 1.99882E+01 3.64222E-07 2.59770E-05-7.21568E-04 1.16586E-13 7.48037E-13
 -1      1575 1.99871E+01 4.57675E-05 3.35239E-05-6.91003E-04 1.07880E-13 9.49097E-13
 -1      1576 1.99892E+01 6.81223E-06-2.06695E-05-1.21972E-03 1.29922E-13 4.95793E-13
 -1      1577 1.99899E+01-9.47049E-06 2.37006E-05-7.14870E-04 1.85880E-13 3.02143E-13
 -1      1578 1.99888E+01 1.83701E-05 2.60673E-05-7.00721E-04 2.06274E-13 6.54537E-13
 -1      1579 1.99904E+01-2.64362E-05-1.43980E-05-1.31097E-03 2.79262E-13 4.29646E-13
 -1      1580 1.99916E+01-1.54541E-05 2.01103E-05-6.64061E-04-1.56205E-13 2.94829E-13
 -1      1581 1.99906E+01 4.65392E-07 2.01425E-05-6.61863E-04-7.81426E-14 1.21124E-13
 -1      1582 1.99918E+01-4.30258E-05-9.69770E-06-1.28374E-03 7.70273E-14 3.55346E-13
 -1      1583 1.99932E+01-1.64179E-05 1.72807E-05-5.93776E-04-7.17664E-14 5.46797E-13
 -1      1584 1.99923E+01-1.05719E-05 1.47373E-05-5.99233E-04-1.34916E-13 2.82357E-13
 -1      1585 1.99932E+01-5.27472E-05-6.19440E-06-1.18904E-03-1.68656E-13 1.77863E-13
 -1      1586 1.99946E+01-1.66257E-05 1.43319E-05-5.17131E-04-9.52082E-14 8.00958E-13
 -1      1587 1.99938E+01-1.64496E-05 1.07556E-05-5.26087E-04 1.28696E-14 6.88593E-13
 -1      1588 1.99944E+01-5.32294E-05-3.65366E-06-1.06145E-03-1.12581E-13 2.73519E-13
 -1      1589 1.99958E+01-1.57144E-05 1.16583E-05-4.40723E-04 1.81846E-13 8.09685E-13
 -1      1590 1.99951E+01-1.86153E-05 7.77112E-06-4.51214E-04-8.18504E-14 8.92410E-13
 -1      1591 1.99956E+01-5.06721E-05-2.08359E-06-9.22219E-04-1.31270E-13 5.46566E-13
 -1      1592 1.99968E+01-1.42994E-05 9.31176E-06-3.69043E-04 8.02193E-14 5.72294E-13
 -1      1593 1.99963E+01-1.88140E-05 5.46895E-06-3.79783E-04 2.13418E-13 8.20411E-13
 -1      1594 1.99965E+01-4.60525E-05-1.04200E-06-7.84449E-04 2.70588E-13 5.73876E-13
 -1      1595 1.99977E+01-1.27142E-05 7.64772E-06-3.04143E-04-1.72574E-13 7.05507E-13
 -1      1596 1.99972E+01-1.80116E-05 3.73677E-06-3.14256E-04 9.71569E-15 5.18853E-13
 -1      1597 1.99974E+01-4.08133E-05-3.19626E-07-6.55360E-04 6.43162E-14 5.94932E-13
 -1      1598 1.99984E+01-1.16713E-05 6.03902E-06-2.42579E-04-1.12462E-15 1.02441E-12
 -1      1599 1.99980E+01-1.68161E-05 2.55770E-06-2.53069E-04-1.57095E-13 8.03109E-13
 -1      1600 1.99981E+01-3.58809E-05-3.60756E-08-5.34734E-04-2.64468E-13 4.10004E-13
 -1      1601 1.99990E+01-1.12274E-05 5.41604E-06-1.88251E-04 3.97841E-14 9.85348E-13
 -1      1602 1.99987E+01-1.67706E-05 1.63755E-06-1.98080E-04 2.94447E-14 1.08755E-12
 -1      1603 1.99987E+01-3.20180E-05 1.01880E-06-4.23845E-04-6.61226E-15 5.80102E-13
 -1      1604 1.99994E+01-1.18267E-05 5.71582E-06-1.34781E-04-2.63825E-14 1.27883E-12
 -1      1605 1.99992E+01-1.77820E-05 1.55266E-06-1.45629E-04-5.79716E-14 1.20906E-12
 -1      1606 1.99991E+01-3.05705E-05 2.15242E-06-3.20976E-04-1.71834E-13 1.05037E-12
 -1      1607 1.99996E+01-1.35220E-05 5.60162E-06-7.72525E-05 3.43789E-13 9.86443E-13
 -1      1608 1.99995E+01-2.06458E-05 1.83369E-06-9.11295E-05 2.08100E-13 1.24344E-12
 -1      1609 1.99995E+01-3.24084E-05 3.50190E-06-2.16768E-04 2.87021E-13 1.13843E-12
 -1      1610 1.99998E+01-1.42893E-05-1.24712E-06-1.82459E-05-5.18721E-14 5.21294E-13
 -1      1611 1.99997E+01-2.20940E-05 7.37251E-07-3.37510E-05 8.02098E-14 6.13895E-13
 -1      1612 1.99997E+01-3.42750E-05 3.79789E-06-1.06085E-04 3.88093E-13 5.71627E-13
 -1      1613 1.99998E+01-3.73632E-06-5.11140E-06 5.25435E-06 4.68153E-13 4.03410E-13
 -1      1614 1.99998E+01-1.07225E-04 3.24383E-06-5.88854E-05 4.82219E-13-1.87629E-14
 -1      1615 1.99998E+01-5.40415E-05-1.81838E-06-4.36817E-05 5.88282E-13 1.02084E-13
 -1      1616 1.99998E+01-3.29002E-04 2.34744E-06-1.16436E-04 3.40787E-13-1.16791E-13
 -1      1617 1.99998E+01-2.02056E-04 2.21034E-06-1.06045E-04 5.34550E-13-1.30429E-13
 -1      1618 1.99998E+01-2.06142E-04 4.07776E-06-1.63181E-04 2.22130E-13-1.44063E-13
 -1      1619 1.99998E+01-6.30193E-04 9.26221E-07-1.51210E-04 3.86580E-13 7.50307E-14
 -1      1620 1.99998E+01-4.56791E-04 1.62512E-06-1.46394E-04 3.29667E-13 1.86344E-13
 -1      1621 1.99998E+01-4.27804E-04 3.73983E-06-2.55772E-04 2.91680E-13-3.06187E-14
 -1      1622 1.99998E+01-9.61206E-04-1.92154E-08-1.58524E-04-4.82688E-13-7.45444E-13
 -1      1623 1.99998E+01-7.74331E-04 6.63923E-07-1.59307E-04 2.15957E-13-1.35076E-13
 -1      1624 1.99998E+01-6.99567E-04 8.80240E-07-3.00805E-04-1.11428E-13-2.75062E-13
 -1      1625 1.99998E+01-1.26516E-03-3.86823E-07-1.41161E-04-1.32005E-12-4.52888E-13
 -1      1626 1.99998E+01-1.09810E-03 1.18636E-07-1.46391E-04-4.81229E-13-8.06860E-13
 -1      1627 1.99998E+01-9.79833E-04-1.93204E-06-2.94950E-04-4.19567E-13-1.03107E-12
 -1      1628 1.99998E+01-1.50843E-03-4.92689E-07-1.03437E-04-1.17958E-12 3.32100E-13
 -1      1629 1.99998E+01-1.38064E-03-1.78514E-07-1.12241E-04-1.33171E-12 4.09597E-14
 -1      1630 1.99998E+01-1.23083E-03-4.15514E-06-2.45079E-04-3.59921E-13-2.58347E-13
 -1      1631 1.99998E+01-1.65194E-03-4.58913E-07-5.18510E-05-8.88199E-13 1.76417E-13
 -1      1632 1.99998E+01-1.58392E-03-2.97427E-07-6.27728E-05-1.14566E-12 4.22977E-13
 -1      1633 1.99998E+01-1.42028E-03-5.72524E-06-1.60756E-04-4.92670E-13 3.86293E-13
 -1      1634 1.99998E+01-1.67715E-03-3.85088E-07 6.39908E-06-7.00629E-13 1.00084E-13
 -1      1635 1.99998E+01-1.67782E-03-3.82867E-07-5.22316E-06-8.48307E-13 2.06264E-13
 -1      1636 1.99998E+01-1.52083E-03-6.51545E-06-5.51975E-05-4.81065E-13 2.16759E-13
 -1      1637 1.99998E+01-1.58089E-03-2.87152E-07 6.38081E-05-2.65983E-13 2.27624E-13
 -1      1638 1.99998E+01-1.65013E-03-4.56871E-07 5.29364E-05-5.41125E-13 3.81953E-13
 -1      1639 1.99998E+01-1.51967E-03-6.49901E-06 5.74117E-05-2.16286E-13 3.60846E-13
 -1      1640 1.99998E+01-1.37583E-03-1.36565E-07 1.12928E-04-3.91296E-13-2.37382E-13
 -1      1641 1.99998E+01-1.50449E-03-5.15154E-07 1.04237E-04-1.52917E-13-1.25856E-13
 -1      1642 1.99998E+01-1.41703E-03-5.66897E-06 1.62562E-04-1.76463E-13 1.79542E-13
 -1      1643 1.99998E+01-1.09497E-03 9.48882E-08 1.46308E-04-6.47079E-13 1.53001E-13
 -1      1644 1.99998E+01-1.26219E-03-4.01976E-07 1.41197E-04-4.20286E-13-1.42554E-13
 -1      1645 1.99998E+01-1.22805E-03-4.14156E-06 2.45664E-04-1.28639E-13-3.17848E-13
 -1      1646 1.99998E+01-7.68862E-04 6.33742E-07 1.59003E-04-2.98643E-13 1.75309E-13
 -1      1647 1.99998E+01-9.55507E-04-2.17415E-08 1.58331E-04-5.31526E-13 4.22530E-13
 -1      1648 1.99998E+01-9.76601E-04-1.86096E-06 2.94762E-04-1.57041E-13 4.49042E-13
 -1      1649 1.99998E+01-4.52159E-04 1.71635E-06 1.46036E-04-2.07874E-13 7.71046E-14
 -1      1650 1.99998E+01-6.25148E-04 8.71714E-07 1.50610E-04-2.29673E-13 1.15813E-13
 -1      1651 1.99998E+01-6.94347E-04 8.84167E-07 2.99970E-04-4.77170E-14 1.85025E-13
 -1      1652 1.99998E+01-2.02527E-04 6.61429E-07 1.05978E-04-6.46189E-14 1.25987E-13
 -1      1653 1.99998E+01-3.26298E-04 2.34777E-06 1.16606E-04-2.72137E-13 7.48048E-14
 -1      1654 1.99998E+01-4.24307E-04 3.62483E-06 2.54371E-04 6.96403E-14 5.58941E-14
 -1      1655 1.99998E+01-8.05807E-05-2.98632E-06 6.95896E-05-2.22369E-13-2.51411E-13
 -1      1656 1.99998E+01-1.36703E-04 2.03841E-06 9.13720E-05 2.31631E-16-1.94733E-13
 -1      1657 1.99997E+01-2.34688E-04 2.71718E-06 1.97152E-04 1.34602E-13 3.49990E-14
 -1      1658 1.99997E+01-1.14200E-04-1.49565E-06 1.41461E-04 1.11688E-13-3.03992E-13
 -1      1659-8.49982E-01-1.54290E+01-1.58451E+00-1.68824E+00 1.88827E-12 7.54785E-13
 -1      1660-7.06340E-01-1.66902E+01-1.66555E+00-3.05490E-01 1.36911E-12 4.02622E-13
 -1      1661 1.03641E+00-1.01566E+01-1.35904E+00-3.90184E-01 2.33336E-12 1.17217E-12
 -1      1662 4.49458E-01-1.47465E+01-1.68911E+00-6.13040E-01 2.04303E-12 7.91311E-13
 -1      1663 5.67013E+00-2.97284E+00-1.02737E+00 2.81228E+00 2.43405E-12 1.68121E-12
 -1      1664 2.98622E+00-8.69615E+00-1.67630E+00 2.18824E-01 2.50244E-12 1.36580E-12
 -1      1665 1.69790E+01 2.56951E+00-2.21345E-01 8.21759E+00 1.93734E-12 1.68376E-12
 -1      1666 1.04657E+01-1.45146E+00-1.13446E+00 4.33655E+00 2.26619E-12 1.68376E-12
 -1      1667 3.26428E+01 5.26259E+00 7.83013E-01 1.20513E+01 1.18405E-12 1.34825E-12
 -1      1668 2.23944E+01 4.10157E+00-3.09822E-01 9.19702E+00 1.71274E-12 1.62603E-12
 -1      1669 5.03546E+01 4.44263E+00 1.85697E+00 9.96803E+00 7.01633E-13 1.96287E-13
 -1      1670 3.90739E+01 5.43838E+00 7.92202E-01 1.06868E+01 1.07159E-12 9.38583E-13
 -1      1671 6.27104E+01 3.75384E+00 2.74080E+00 4.42727E+00 3.70981E-13-1.06615E-12
 -1      1672 5.56918E+01 5.17591E+00 2.09784E+00 9.42700E+00 5.23637E-13-1.46549E-13
 -1      1673 6.14735E+01 4.31236E+00 2.45089E+00-4.31856E+00 6.42875E-13-2.06835E-12
 -1      1674 6.30025E+01 4.06451E+00 2.64925E+00 2.06541E+00 4.14058E-13-1.34570E-12
 -1      1675 4.97318E+01 5.41963E+00 1.47775E+00-9.70651E+00 1.12800E-12-2.51354E-12
 -1      1676 5.87146E+01 4.00570E+00 2.33690E+00-5.98841E+00 7.38909E-13-2.21523E-12
 -1      1677 3.25228E+01 4.64528E+00 2.19912E-01-9.82314E+00 1.46461E-12-2.39364E-12
 -1      1678 4.46374E+01 4.39891E+00 1.41630E+00-1.06100E+01 1.17401E-12-2.51488E-12
 -1      1679 1.72208E+01 8.03791E-01-7.85040E-01-6.51493E+00 1.48348E-12-1.90203E-12
 -1      1680 2.64073E+01 3.40312E+00 2.77875E-01-1.01495E+01 1.52711E-12-2.33502E-12
 -1      1681 5.50749E+00-4.93141E+00-1.62353E+00-1.77965E+00 1.27698E-12-1.28253E-12
 -1      1682 1.03396E+01 2.77717E-01-7.61757E-01-5.52003E+00 1.64380E-12-1.86806E-12
 -1      1683 9.79363E-01-1.21488E+01-1.93051E+00 1.03544E+00 5.59330E-13-6.31703E-13
 -1      1684 2.27645E+00-6.81586E+00-1.42307E+00-3.78911E-01 1.12110E-12-1.04305E-12
 -1      1685-4.93495E-01-1.64884E+01-1.94895E+00 1.14866E+00-3.98570E-13-3.66596E-13
 -1      1686-5.29776E-01-1.34341E+01-1.75733E+00 1.86111E+00 2.85660E-13-5.12659E-13
 -1      1687-7.89319E-01-1.65768E+01-1.81973E+00 6.49246E-02-1.39433E-12-4.26492E-13
 -1      1688-9.60544E-01-1.71942E+01-1.93907E+00 1.78799E+00-7.00114E-13-3.18245E-13
 -1      1689 3.20969E-01-1.07839E+01-1.33086E+00 3.72656E-01-2.03071E-12-8.24875E-13
 -1      1690-2.11880E-02-1.49996E+01-1.72793E+00 8.60088E-01-1.54349E-12-5.32602E-13
 -1      1691 3.46403E+00-3.26544E+00-8.50529E-01 2.68632E+00-2.37321E-12-1.29396E-12
 -1      1692 1.89142E+00-9.02155E+00-1.47450E+00 1.01164E+00-2.26774E-12-9.23789E-13
 -1      1693 1.12511E+01 3.39613E+00-1.80305E-01 7.61433E+00-2.12963E-12-1.67766E-12
 -1      1694 6.88300E+00-1.28808E+00-9.50130E-01 4.20798E+00-2.28129E-12-1.41787E-12
 -1      1695 2.29606E+01 7.31730E+00 5.42777E-01 1.22773E+01-1.63813E-12-1.59961E-12
 -1      1696 1.54428E+01 5.17943E+00-3.04947E-01 8.91352E+00-2.08389E-12-1.66578E-12
 -1      1697 3.83908E+01 7.08755E+00 1.24017E+00 1.37146E+01-9.32254E-13-1.08225E-12
 -1      1698 2.85214E+01 7.85934E+00 4.41117E-01 1.27879E+01-1.40177E-12-1.50013E-12
 -1      1699 5.13500E+01 4.84512E+00 1.68025E+00 9.59688E+00-4.55330E-13-1.74416E-13
 -1      1700 4.35504E+01 6.78548E+00 1.17044E+00 1.25365E+01-7.46347E-13-7.88036E-13
 -1      1701 5.70594E+01 3.67538E+00 1.81681E+00 1.35092E+00-3.65596E-13 7.45265E-13
 -1      1702 5.39758E+01 4.57417E+00 1.61419E+00 6.83677E+00-3.84720E-13 9.83658E-14
 -1      1703 5.42123E+01 4.66395E+00 1.66347E+00-7.55534E+00-5.83394E-13 1.58251E-12
 -1      1704 5.75023E+01 3.61573E+00 1.87471E+00-1.73200E+00-3.59879E-13 1.04128E-12
 -1      1705 4.17723E+01 7.01904E+00 1.06902E+00-1.23714E+01-9.14546E-13 1.79567E-12
 -1      1706 5.04041E+01 5.04081E+00 1.63277E+00-9.62155E+00-6.64517E-13 1.65779E-12
 -1      1707 2.68127E+01 7.70509E+00 3.70551E-01-1.24927E+01-1.23879E-12 1.71063E-12
 -1      1708 3.65729E+01 7.22330E+00 1.17444E+00-1.38504E+01-9.90652E-13 1.94555E-12
 -1      1709 1.37765E+01 4.11740E+00-4.12774E-01-8.05955E+00-1.28164E-12 1.35092E-12
 -1      1710 2.13205E+01 6.94295E+00 5.09151E-01-1.18449E+01-1.36569E-12 1.56453E-12
 -1      1711 5.18925E+00-3.54844E+00-1.12451E+00-2.99407E+00-8.72857E-13 7.56062E-13
 -1      1712 9.20427E+00 2.25541E+00-2.71305E-01-6.52723E+00-1.18994E-12 1.21481E-12
 -1      1713 1.34102E+00-1.21372E+01-1.57816E+00-7.74423E-01 1.32006E-13 4.79249E-13
 -1      1714 2.57443E+00-6.09588E+00-9.66595E-01-1.92338E+00-5.79981E-13 6.39211E-13
 -1      1715-5.74590E-01-1.73722E+01-1.84157E+00-1.05144E+00 1.20109E-12 2.24848E-13
 -1      1716-4.52909E-01-1.41370E+01-1.56196E+00 3.47016E-01 4.49973E-13 3.64403E-13
 -1      1717 2.53983E+01-1.63618E+00-4.37731E-02 6.33297E+00 1.26843E-12 6.99329E-13
 -1      1718 1.39265E+01-5.41313E+00-6.81185E-01 5.34376E+00 1.55431E-12 9.41247E-13
 -1      1719 1.99998E+01-1.58789E-05 3.19392E-07-1.57383E-05 4.42986E-13 1.48768E-13
 -1      1720 1.99997E+01-8.07478E-05 6.08781E-08-7.70090E-05 1.61566E-13 2.90959E-13
 -1      1721 2.85347E-01-1.01104E+01-1.08053E+00 1.67710E+00 1.10228E-12 8.30613E-13
 -1      1722 5.23960E+00-8.78945E+00-1.08056E+00 3.59096E+00 1.43641E-12 9.45334E-13
 -1      1723-1.40635E+00-1.11156E+01-1.21525E+00-1.08371E+00 8.95506E-13 7.00606E-13
 -1      1724 3.78408E+01 1.95614E+00 7.97966E-01 5.24238E+00 1.08524E-12 2.83440E-13
 -1      1725 4.77780E+01 5.35714E+00 1.53982E+00 2.85374E+00 1.06087E-12-1.83964E-13
 -1      1726 5.33045E+01 7.77524E+00 2.15102E+00 1.03803E+00 8.47766E-13-7.16122E-13
 -1      1727 5.09928E+01 7.49360E+00 1.89239E+00-1.04421E+00 8.43992E-13-1.06154E-12
 -1      1728 4.41604E+01 3.97541E+00 1.19067E+00-2.74823E+00 7.61877E-13-1.23301E-12
 -1      1729 3.36572E+01-6.09791E-01 4.09140E-01-4.66109E+00 6.25278E-13-1.29463E-12
 -1      1730 2.06559E+01-3.70073E+00-2.47598E-01-5.96858E+00 6.74572E-13-1.39733E-12
 -1      1731 8.66067E+00-7.02066E+00-1.01184E+00-4.26875E+00 5.67990E-13-1.22014E-12
 -1      1732 1.88589E+00-9.99612E+00-1.30983E+00-2.06282E+00 1.48326E-13-9.05831E-13
 -1      1733-1.24663E+00-1.14570E+01-1.38515E+00 1.33292E-02-3.43725E-13-7.75657E-13
 -1      1734-8.65814E-01-1.05516E+01-1.23303E+00 2.32734E+00-7.76712E-13-7.68552E-13
 -1      1735 2.81358E+00-7.90946E+00-9.76780E-01 4.25592E+00-1.12521E-12-8.05966E-13
 -1      1736 9.51433E+00-4.09328E+00-5.66561E-01 6.30914E+00-1.34770E-12-9.15046E-13
 -1      1737 1.84994E+01-4.12017E-02-8.97051E-02 7.95712E+00-1.34182E-12-8.91287E-13
 -1      1738 2.90382E+01 3.62778E+00 4.93838E-01 8.71325E+00-1.21825E-12-7.78044E-13
 -1      1739 3.96497E+01 5.99487E+00 1.08308E+00 7.52203E+00-9.92963E-13-4.78728E-13
 -1      1740 4.67749E+01 7.37409E+00 1.44536E+00 4.09630E+00-7.91256E-13-3.19744E-14
 -1      1741 4.94520E+01 7.78004E+00 1.58560E+00-2.48008E-01-6.56586E-13 4.28851E-13
 -1      1742 4.62152E+01 7.12301E+00 1.32211E+00-4.09980E+00-6.07736E-13 7.70606E-13
 -1      1743 3.84638E+01 5.66383E+00 1.00665E+00-7.42630E+00-5.85726E-13 1.00164E-12
 -1      1744 2.78196E+01 3.01385E+00 4.86508E-01-8.66592E+00-7.21923E-13 1.04960E-12
 -1      1745 1.68126E+01-1.09714E+00-1.49268E-01-7.65122E+00-5.57998E-13 9.84213E-13
 -1      1746 7.72324E+00-5.98906E+00-7.21364E-01-5.75599E+00-9.32587E-14 8.02358E-13
 -1      1747 1.40465E+00-9.81372E+00-1.08034E+00-3.73124E+00 4.85723E-13 8.03357E-13
 -1      1748 2.38817E+01 2.05163E+00-2.45734E-02-2.88122E+00-2.92974E-13-2.32869E-14
 -1      1749 2.09131E+01 3.47363E+00-3.51101E-02-2.27589E+00-1.01627E-13-7.42455E-13
 -1      1750 2.10776E+01 3.38592E+00-5.27374E-02-2.64068E+00-1.94600E-13-7.37202E-13
 -1      1751 2.13255E+01 3.11509E+00-4.83232E-02-2.80813E+00-2.51665E-13-6.83217E-13
 -1      1752 2.14913E+01 2.78572E+00-1.57676E-01-3.10717E+00-3.44370E-13-6.16708E-13
 -1      1753 2.14486E+01 2.47565E+00-8.48234E-03-2.50294E+00-2.51511E-13-6.51867E-13
 -1      1754 2.04059E+01 3.54529E+00-1.99895E-02-8.71601E-01 1.39945E-13-6.31061E-13
 -1      1755 2.05541E+01 3.57048E+00-2.68355E-02-1.24755E+00 9.38958E-14-6.84886E-13
 -1      1756 1.99312E+01 3.51283E+00-1.78034E-02-7.38699E-02 2.47585E-13-5.38191E-13
 -1      1757 2.02035E+01 3.53474E+00-1.90279E-02-4.60006E-01 2.04566E-13-5.94611E-13
 -1      1758 2.06507E+01 2.87440E+00-1.68808E-02-6.81060E-01 1.70664E-13-5.80810E-13
 -1      1759 1.91449E+01 3.56340E+00-1.88393E-02 7.17119E-01 3.42432E-13-4.54969E-13
 -1      1760 1.95841E+01 3.55590E+00-9.41927E-03 3.55251E-01 3.01568E-13-5.05655E-13
 -1      1761 2.00883E+01 2.88413E+00-2.14345E-02 1.58070E-01 2.89318E-13-4.92793E-13
 -1      1762 1.80402E+01 3.77082E+00-2.28198E-02 1.39764E+00 4.18162E-13-4.07605E-13
 -1      1763 1.86342E+01 3.71720E+00 1.86675E-03 1.10838E+00 3.91452E-13-4.37738E-13
 -1      1764 1.91690E+01 3.03597E+00-2.50059E-02 9.98151E-01 3.97818E-13-4.25123E-13
 -1      1765 1.67727E+01 4.15440E+00-2.71888E-02 1.82796E+00 4.77159E-13-3.63713E-13
 -1      1766 1.74193E+01 4.05617E+00 1.18372E-02 1.66672E+00 4.54824E-13-3.94684E-13
 -1      1767 1.79134E+01 3.40918E+00-2.42958E-02 1.69872E+00 4.79936E-13-3.84843E-13
 -1      1768 1.56924E+01 4.63989E+00-2.71126E-02 1.89077E+00 5.11068E-13-3.29348E-13
 -1      1769 1.61902E+01 4.52088E+00 1.48212E-02 1.89108E+00 5.02885E-13-3.59416E-13
 -1      1770 1.65388E+01 3.98748E+00-1.53697E-02 2.07789E+00 5.36252E-13-3.54423E-13
 -1      1771 1.52706E+01 5.04939E+00-1.99465E-02 1.59510E+00 5.28823E-13-2.64613E-13
 -1      1772 1.53800E+01 4.95249E+00 6.65951E-03 1.72474E+00 5.17241E-13-3.09754E-13
 -1      1773 1.54757E+01 4.60672E+00-8.42152E-04 2.00504E+00 5.63475E-13-3.15407E-13
 -1      1774 1.58883E+01 5.20102E+00-9.51914E-03 1.10222E+00 5.38536E-13-1.53404E-13
 -1      1775 1.54303E+01 5.16231E+00-1.29712E-02 1.27327E+00 5.30037E-13-2.25945E-13
 -1      1776 1.52281E+01 5.01093E+00 1.18787E-02 1.51727E+00 5.75006E-13-2.42152E-13
 -1      1777 1.76948E+01 4.96008E+00-2.90967E-03 7.07076E-01 5.23633E-13 3.02466E-14
 -1      1778 1.66398E+01 5.01405E+00-3.76359E-02 7.84082E-01 5.20483E-13-8.71516E-14
 -1      1779 1.61703E+01 4.96614E+00 1.21567E-02 8.55677E-01 5.59172E-13-1.20932E-13
 -1      1780 2.04878E+01 4.27436E+00-1.21012E-02 6.83248E-01 4.83804E-13 3.11834E-13
 -1      1781 1.89791E+01 4.46953E+00-5.95167E-02 5.53947E-01 4.92162E-13 1.47958E-13
 -1      1782 1.83743E+01 4.38619E+00 7.34655E-03 3.56791E-01 5.18374E-13 8.45712E-14
 -1      1783 2.39480E+01 3.00044E+00-2.77784E-02 1.02985E+00 3.69156E-13 7.99069E-13
 -1      1784 2.21445E+01 3.51863E+00-6.76376E-02 7.22797E-01 4.23207E-13 5.16462E-13
 -1      1785 2.14869E+01 3.30443E+00-2.13677E-04 2.20787E-01 4.54348E-13 3.86351E-13
 -1      1786 2.63440E+01 1.28442E+00-1.05248E-01 8.01930E-01 2.58626E-13 1.31345E-12
 -1      1787 2.50779E+01 2.41092E+00-7.11385E-03 1.02191E+00 3.17101E-13 9.82853E-13
 -1      1788 2.43434E+01 2.00663E+00 1.24996E-03 1.45131E-01 3.70579E-13 7.69978E-13
 -1      1789 2.61135E+01 9.05142E-01-3.49443E-02-1.34013E-01 2.85084E-13 1.20874E-12
 -1      1790 2.27297E+01 2.51784E+00 9.42120E-02-3.27098E+00-3.62156E-13-3.97751E-13
 -1      1791 2.63602E+01 4.52744E-01-2.24783E-03-1.28743E+00 1.62228E-13 1.02715E-12
 -1      1792 2.61932E+01 6.11990E-01-3.33116E-03-7.48510E-01 2.18381E-13 1.10607E-12
 -1      1793 2.53251E+01 1.05417E+00-1.29790E-02-6.65773E-01 2.74107E-13 8.50338E-13
 -1      1794 2.24431E+01 1.69422E+00 8.14064E-02-2.59807E+00-3.61496E-13-4.41695E-13
 -1      1795 2.12503E+01 3.70143E-01 3.01596E-02-1.32367E+00-2.84623E-13-4.32561E-13
 -1      1796 2.06549E+01 2.10608E-01 3.09486E-05-1.10539E+00-2.25122E-13-4.95728E-13
 -1      1797 2.03549E+01 1.18931E-01 2.47978E-02-9.69295E-01-2.12047E-13-4.61932E-13
 -1      1798 1.99555E+01 5.30273E-02 6.27522E-03-9.06465E-01-1.72846E-13-5.14238E-13
 -1      1799 2.08880E+01 2.80964E-01-1.30001E-03-1.37699E+00-2.44390E-13-4.48955E-13
 -1      1800 1.96838E+01 3.25225E-02 1.40715E-02-8.54811E-01-1.43574E-13-4.97095E-13
 -1      1801 1.93589E+01 3.04074E-02 6.85188E-03-8.30396E-01-1.25275E-13-5.38326E-13
 -1      1802 2.03032E+01 8.17905E-02-1.63285E-03-1.15459E+00-1.89880E-13-4.38024E-13
 -1      1803 1.91115E+01 4.99698E-02 7.01592E-03-7.86805E-01-1.31939E-13-5.35810E-13
 -1      1804 1.88412E+01 8.37425E-02 8.74514E-03-7.44659E-01-1.05365E-13-5.79573E-13
 -1      1805 1.97883E+01 7.00941E-02-2.02220E-03-1.04533E+00-1.54623E-13-4.57409E-13
 -1      1806 1.86259E+01 1.24195E-01 4.91628E-03-6.59263E-01-1.00435E-13-6.09196E-13
 -1      1807 1.84210E+01 1.71206E-01 1.11622E-02-5.71727E-01-1.10514E-13-6.61105E-13
 -1      1808 1.93306E+01 1.59584E-01-4.10076E-03-9.00061E-01-1.39787E-13-4.73983E-13
 -1      1809 1.82614E+01 2.12270E-01 6.06332E-03-4.24698E-01-1.24435E-13-6.57315E-13
 -1      1810 1.81460E+01 2.49208E-01 1.20817E-02-2.89928E-01-9.68114E-14-6.46406E-13
 -1      1811 1.89596E+01 2.84620E-01-7.21451E-03-6.38727E-01-1.20366E-13-5.15097E-13
 -1      1812 1.80707E+01 2.71213E-01 8.52395E-03-9.40729E-02-1.09248E-13-6.54252E-13
 -1      1813 1.80646E+01 2.79508E-01 1.05650E-02 6.60420E-02-1.12388E-13-6.73057E-13
 -1      1814 1.87275E+01 3.81872E-01-9.84344E-03-2.51963E-01-1.29111E-13-5.00301E-13
 -1      1815 1.80893E+01 2.70754E-01 1.02909E-02 2.71567E-01-1.31051E-13-6.88913E-13
 -1      1816 1.81947E+01 2.44618E-01 7.14271E-03 4.21228E-01-9.89374E-14-6.87519E-13
 -1      1817 1.86790E+01 4.02699E-01-1.01628E-02 2.01520E-01-1.16102E-13-5.44232E-13
 -1      1818 1.83095E+01 2.07034E-01 9.82529E-03 5.88885E-01-1.15792E-13-7.12065E-13
 -1      1819 1.85071E+01 1.55787E-01 3.18514E-03 6.94360E-01-8.70215E-14-7.50888E-13
 -1      1820 1.88202E+01 3.31801E-01-7.63501E-03 6.22402E-01-1.28824E-13-5.35374E-13
 -1      1821 1.86790E+01 1.03080E-01 6.78111E-03 7.89577E-01-5.90383E-14-7.83103E-13
 -1      1822 1.89324E+01 4.50358E-02-1.71230E-05 8.32959E-01-1.35237E-14-7.88950E-13
 -1      1823 1.91082E+01 1.92912E-01-3.31336E-03 9.16910E-01-9.26410E-14-5.27955E-13
 -1      1824 1.91195E+01-5.53921E-03 2.11669E-03 8.46641E-01-1.85984E-14-8.11201E-13
 -1      1825 1.93867E+01-5.30810E-02-1.92820E-03 8.30181E-01-1.72516E-14-8.17290E-13
 -1      1826 1.94682E+01 3.34068E-02 8.87673E-04 1.03631E+00-3.41079E-14-5.65614E-13
 -1      1827 1.95536E+01-8.90762E-02-2.57899E-03 7.77086E-01-5.67471E-16-8.33147E-13
 -1      1828 1.97979E+01-1.16830E-01-2.65771E-03 7.17840E-01 1.01065E-14-7.66401E-13
 -1      1829 1.98232E+01-1.00492E-01 3.62378E-03 9.88744E-01-1.16488E-14-5.51505E-13
 -1      1830 1.99247E+01-1.34128E-01-5.99404E-03 6.25272E-01-1.69404E-14-7.44783E-13
 -1      1831 2.01219E+01-1.41752E-01-2.61693E-03 5.45475E-01 2.01922E-15-6.93160E-13
 -1      1832 2.01184E+01-1.82443E-01 4.62533E-03 8.23180E-01 1.90503E-14-4.94248E-13
 -1      1833 2.02033E+01-1.42991E-01-7.59772E-03 4.41011E-01 1.21561E-14-7.20178E-13
 -1      1834 2.03436E+01-1.35797E-01-2.19660E-03 3.60042E-01 6.82284E-14-6.56341E-13
 -1      1835 2.03287E+01-2.09630E-01 4.36385E-03 6.01857E-01-2.68535E-15-5.42525E-13
 -1      1836 2.03842E+01-1.26743E-01-7.57354E-03 2.63972E-01 6.60682E-14-6.36224E-13
 -1      1837 2.04692E+01-1.11653E-01-1.66085E-03 1.94444E-01 8.87432E-14-6.21828E-13
 -1      1838 2.04534E+01-1.95105E-01 3.46728E-03 3.78131E-01 9.16658E-14-5.21497E-13
 -1      1839 2.04784E+01-9.80896E-02-6.47168E-03 1.17729E-01 1.37817E-14-6.75839E-13
 -1      1840 2.05170E+01-8.09155E-02-1.14208E-03 6.52791E-02 2.10834E-14-7.27388E-13
 -1      1841 2.05060E+01-1.57172E-01 2.41579E-03 1.86290E-01 1.80756E-14-5.02863E-13
 -1      1842 2.05047E+01-6.70531E-02-4.88237E-03 1.10833E-02 1.24438E-14-7.96698E-13
 -1      1843 2.05088E+01-5.14835E-02-6.94303E-04-2.38424E-02-4.31931E-14-7.86836E-13
 -1      1844 2.05052E+01-1.11828E-01 1.47260E-03 4.14843E-02-1.10023E-14-5.86611E-13
 -1      1845 2.04836E+01-3.96701E-02-3.25623E-03-5.73310E-02-3.60081E-14-7.60707E-13
 -1      1846 2.04650E+01-2.74111E-02-3.35447E-04-7.72506E-02 4.41514E-14-7.34333E-13
 -1      1847 2.04692E+01-6.96218E-02 7.34126E-04-5.51738E-02-1.22797E-15-5.74347E-13
 -1      1848 2.04336E+01-1.85220E-02-1.85719E-03-9.42064E-02 8.67884E-14-7.59010E-13
 -1      1849 2.04024E+01-9.90194E-03-6.66817E-05-1.02786E-01 1.16429E-13-6.84554E-13
 -1      1850 2.04135E+01-3.57300E-02 2.07268E-04-1.10529E-01 5.54901E-14-5.48858E-13
 -1      1851 2.03695E+01-3.89809E-03-7.92087E-04-1.07925E-01 1.13954E-13-6.65638E-13
 -1      1852 2.03333E+01 1.50959E-03 1.19228E-04-1.08819E-01 1.23101E-13-7.18390E-13
 -1      1853 2.03496E+01-1.14568E-02-1.38204E-04-1.34517E-01 1.40074E-13-5.49218E-13
 -1      1854 2.03018E+01 5.11083E-03-6.43911E-05-1.06384E-01 6.87432E-14-6.12171E-13
 -1      1855 2.02657E+01 8.02876E-03 2.34428E-04-1.02659E-01 5.70072E-15-5.57659E-13
 -1      1856 2.02853E+01 4.09996E-03-3.42668E-04-1.37081E-01 1.10543E-13-4.94943E-13
 -1      1857 2.02375E+01 9.84160E-03 3.76459E-04-9.59940E-02-4.46650E-14-4.55459E-13
 -1      1858 2.02045E+01 1.10138E-02 2.93474E-04-8.99456E-02 3.86793E-14-3.52446E-13
 -1      1859 2.02255E+01 1.27734E-02-4.44375E-04-1.26621E-01 2.60031E-14-2.22075E-13
 -1      1860 2.01803E+01 1.16142E-02 5.99876E-04-8.14421E-02 4.21481E-14-4.22936E-13
 -1      1861 2.01520E+01 1.16743E-02 3.11120E-04-7.46317E-02 2.07646E-14-4.07684E-13
 -1      1862 2.01730E+01 1.65390E-02-4.75320E-04-1.09481E-01 3.80086E-14-1.63016E-13
 -1      1863 2.01321E+01 1.15283E-02 6.73511E-04-6.58497E-02 2.30689E-14-4.54008E-13
 -1      1864 2.01089E+01 1.09579E-02 3.00706E-04-5.92410E-02 6.94793E-14-5.05422E-13
 -1      1865 2.01287E+01 1.71204E-02-4.60625E-04-9.00305E-02 2.02719E-16-2.63194E-13
 -1      1866 2.00930E+01 1.04079E-02 6.53654E-04-5.10952E-02-9.47273E-15-5.57634E-13
 -1      1867 2.00748E+01 9.54216E-03 2.73252E-04-4.52099E-02-1.18742E-13-5.73178E-13
 -1      1868 2.00927E+01 1.58498E-02-4.19125E-04-7.10066E-02 2.90952E-14-3.50608E-13
 -1      1869 2.00624E+01 8.81991E-03 5.82543E-04-3.81561E-02-1.73489E-13-4.96111E-13
 -1      1870 2.00486E+01 7.87425E-03 2.37179E-04-3.32157E-02-1.05878E-13-4.76265E-13
 -1      1871 2.00643E+01 1.36693E-02-3.64332E-04-5.39273E-02-1.08077E-13-2.44429E-13
 -1      1872 2.00394E+01 7.12469E-03 4.89311E-04-2.74076E-02-1.63353E-14-5.71977E-13
 -1      1873 2.00293E+01 6.22488E-03 1.98448E-04-2.34455E-02 2.78175E-14-6.08165E-13
 -1      1874 2.00425E+01 1.11932E-02-3.05457E-04-3.94674E-02-9.12522E-14-3.69120E-13
 -1      1875 2.00225E+01 5.52992E-03 3.92448E-04-1.88539E-02 2.85434E-14-6.84671E-13
 -1      1876 2.00155E+01 4.73991E-03 1.60948E-04-1.57972E-02 9.74320E-15-6.72278E-13
 -1      1877 2.00264E+01 8.78846E-03-2.48383E-04-2.77650E-02-5.45902E-14-5.24860E-13
 -1      1878 2.00106E+01 4.13891E-03 3.02556E-04-1.22953E-02 3.88989E-14-7.19127E-13
 -1      1879 2.00059E+01 3.48274E-03 1.26948E-04-1.00202E-02 1.61651E-13-6.37976E-13
 -1      1880 2.00147E+01 6.64787E-03-1.96526E-04-1.86463E-02 9.97833E-14-5.53256E-13
 -1      1881 2.00027E+01 2.98818E-03 2.24805E-04-7.43943E-03 8.57229E-14-5.68893E-13
 -1      1882 1.99997E+01 2.46609E-03 9.75450E-05-5.80587E-03-2.63165E-14-6.06174E-13
 -1      1883 2.00066E+01 4.85077E-03-1.51544E-04-1.17823E-02 1.44990E-13-5.50444E-13
 -1      1884 1.99976E+01 2.07481E-03 1.60883E-04-3.97041E-03 1.18163E-13-5.21307E-13
 -1      1885 1.99959E+01 1.67432E-03 7.30447E-05-2.84311E-03 2.43013E-13-4.60558E-13
 -1      1886 2.00012E+01 3.40754E-03-1.13919E-04-6.78880E-03 1.45604E-13-3.58734E-13
 -1      1887 1.99946E+01 1.37509E-03 1.10420E-04-1.58914E-03 1.11972E-13-4.17573E-13
 -1      1888 1.99939E+01 1.07810E-03 5.32548E-05-8.47685E-04 1.47950E-13-3.72878E-13
 -1      1889 1.99979E+01 2.29059E-03-8.33901E-05-3.28659E-03 1.90312E-13-1.82176E-13
 -1      1890 1.99932E+01 8.56443E-04 7.19690E-05-3.28789E-05 1.21542E-13-5.49882E-13
 -1      1891 1.99930E+01 6.43629E-04 3.77058E-05 4.23975E-04 2.81076E-15-4.98859E-13
 -1      1892 1.99959E+01 1.45475E-03-5.92813E-05-9.33373E-04 3.97373E-14-3.62555E-13
 -1      1893 1.99927E+01 4.84661E-04 4.36407E-05 9.17488E-04 7.22366E-15-4.09798E-13
 -1      1894 1.99929E+01 3.37817E-04 2.58022E-05 1.17135E-03 4.62848E-14-3.66931E-13
 -1      1895 1.99950E+01 8.49692E-04-4.07181E-05 5.62239E-04 4.85062E-14-3.41689E-13
 -1      1896 1.99929E+01 2.27813E-04 2.34811E-05 1.43754E-03-4.82193E-14-2.96842E-13
 -1      1897 1.99933E+01 1.31033E-04 1.69200E-05 1.55197E-03-3.47124E-14-3.69592E-13
 -1      1898 1.99947E+01 4.27085E-04-2.67765E-05 1.43781E-03 1.61812E-14-1.98262E-13
 -1      1899 1.99935E+01 5.81221E-05 9.68257E-06 1.66339E-03 1.25678E-13-2.71381E-13
 -1      1900 1.99940E+01-1.82484E-06 1.04656E-05 1.68635E-03 1.67780E-13-5.96940E-14
 -1      1901 1.99949E+01 1.44078E-04-1.65726E-05 1.88038E-03 1.02023E-13 1.14752E-13
 -1      1902 1.99942E+01-4.74601E-05 6.80766E-07 1.69734E-03 6.26221E-14-1.47025E-13
 -1      1903 1.99948E+01-8.11819E-05 5.90524E-06 1.66397E-03-3.13225E-14-1.27318E-13
 -1      1904 1.99954E+01-3.53396E-05-9.31149E-06 2.03273E-03 7.03400E-14 1.88020E-13
 -1      1905 1.99951E+01-1.07399E-04-4.81648E-06 1.61404E-03 5.04385E-14-1.87674E-14
 -1      1906 1.99956E+01-1.23166E-04 2.77677E-06 1.54920E-03-1.46282E-14 3.61787E-14
 -1      1907 1.99959E+01-1.40304E-04-4.30871E-06 2.00066E-03 1.13585E-13 2.15232E-13
 -1      1908 1.99959E+01-1.36100E-04-7.83882E-06 1.46604E-03 1.11325E-14 1.61812E-13
 -1      1909 1.99964E+01-1.40226E-04 6.88644E-07 1.38663E-03 7.67087E-14 1.72200E-13
 -1      1910 1.99965E+01-1.93718E-04-9.94573E-07 1.86010E-03 2.18926E-14 4.69085E-13
 -1      1911 1.99967E+01-1.44591E-04-9.18238E-06 1.28882E-03 1.41406E-14 5.02420E-14
 -1      1912 1.99971E+01-1.41839E-04-6.87462E-07 1.20561E-03 1.55906E-13 1.26936E-13
 -1      1913 1.99971E+01-2.13208E-04 1.09137E-06 1.66349E-03 8.33142E-14 4.87215E-13
 -1      1914 1.99974E+01-1.41235E-04-9.44419E-06 1.10474E-03 9.44211E-14-7.25069E-14
 -1      1915 1.99978E+01-1.35208E-04-1.62182E-06 1.02386E-03 7.85977E-14 5.41037E-14
 -1      1916 1.99977E+01-2.12181E-04 2.31044E-06 1.44514E-03-1.04788E-14 2.15007E-13
 -1      1917 1.99980E+01-1.32414E-04-9.04713E-06 9.26194E-04 6.50831E-14 6.67311E-14
 -1      1918 1.99983E+01-1.25924E-04-2.33783E-06 8.50217E-04 2.35377E-13 1.70061E-13
 -1      1919 1.99982E+01-2.00856E-04 2.93951E-06 1.22555E-03 1.40534E-13 2.67566E-13
 -1      1920 1.99985E+01-1.23196E-04-8.28028E-06 7.57956E-04 2.38291E-13-2.34332E-13
 -1      1921 1.99988E+01-1.18411E-04-2.93701E-06 6.86605E-04 3.03203E-13-2.98214E-13
 -1      1922 1.99986E+01-1.87236E-04 3.17238E-06 1.01471E-03-1.91452E-14 6.15187E-14
 -1      1923 1.99989E+01-1.17367E-04-7.23084E-06 5.99024E-04 2.18243E-13-3.82520E-13
 -1      1924 1.99991E+01-1.16067E-04-3.44517E-06 5.30074E-04 5.84901E-14-2.65669E-13
 -1      1925 1.99990E+01-1.77235E-04 3.22595E-06 8.14586E-04 1.66172E-13-4.26192E-13
 -1      1926 1.99993E+01-1.17997E-04-5.85597E-06 4.44517E-04 9.64998E-14-3.47142E-13
 -1      1927 1.99994E+01-1.20241E-04-3.70993E-06 3.74322E-04 1.61677E-13-2.59551E-13
 -1      1928 1.99993E+01-1.76115E-04 2.81973E-06 6.22354E-04 5.80049E-14-4.26987E-13
 -1      1929 1.99995E+01-1.20527E-04-4.59829E-06 2.93090E-04 2.12292E-13-2.42151E-13
 -1      1930 1.99996E+01-1.22401E-04-4.12720E-06 2.22842E-04 1.68328E-13-2.94514E-13
 -1      1931 1.99996E+01-1.68361E-04 2.41242E-06 2.63994E-04 1.30542E-13-3.30290E-13
 -1      1932 1.99995E+01-1.76891E-04 3.70575E-06 4.37505E-04 2.02717E-13-4.34384E-13
 -1      1933 2.71961E+01 7.93453E-02-5.43381E-03-1.83978E+00 2.99452E-14 9.44814E-13
 -1      1934 2.66872E+01 2.81933E-01 1.83936E-02-1.57808E+00 8.73884E-14 9.75105E-13
 -1      1935 2.56211E+01 4.51985E-01-1.91136E-02-1.76292E+00 1.33050E-13 7.23390E-13
 -1      1936 2.83574E+01-5.76200E-01-2.00666E-02-1.60499E+00-1.13685E-13 9.74193E-13
 -1      1937 2.77946E+01-2.39536E-01 2.09745E-02-1.74196E+00-6.27016E-14 9.40543E-13
 -1      1938 2.64847E+01-2.75673E-01-2.08053E-02-2.13330E+00-5.19636E-14 6.95131E-13
 -1      1939 2.96299E+01-1.51981E+00-1.86958E-02 1.79329E-02-2.26943E-13 1.16012E-12
 -1      1940 2.92861E+01-1.13434E+00 2.10214E-02-8.70328E-01-1.92533E-13 1.03979E-12
 -1      1941 2.79664E+01-1.43967E+00-1.52081E-02-1.38643E+00-2.26538E-13 7.57309E-13
 -1      1942 3.03566E+01-1.70713E+00-1.73261E-02 2.74781E+00-2.92535E-13 1.36645E-12
 -1      1943 3.05767E+01-1.86243E+00-1.07395E-02 1.31079E+00-2.90851E-13 1.22376E-12
 -1      1944 2.98661E+01-2.48798E+00-3.66028E-02 9.05328E-01-3.40453E-13 9.30067E-13
 -1      1945 2.99909E+01 1.48241E-01-1.40107E-01 4.50444E+00 3.03368E-14 1.46043E-12
 -1      1946 3.09019E+01-1.00664E+00-1.00943E-01 3.67147E+00-1.48000E-13 1.39158E-12
 -1      1947 3.15847E+01-1.68657E+00-1.17793E-01 3.73486E+00-2.02491E-13 1.05579E-12
 -1      1948 2.91741E+01 2.62943E+00-3.12415E-01 2.52725E+00 4.64628E-13 1.23143E-12
 -1      1949 3.00649E+01 1.65734E+00-1.94380E-01 3.51092E+00 2.55629E-13 1.36627E-12
 -1      1950 3.23929E+01 1.85175E+00-1.44208E-01 4.05039E+00 2.63234E-13 9.77093E-13
 -1      1951 2.93613E+01 2.82493E+00-3.09011E-01-1.98080E+00 7.69718E-13 7.35870E-13
 -1      1952 2.93697E+01 3.23931E+00-1.98331E-01 1.42474E-01 6.55698E-13 1.01188E-12
 -1      1953 3.26185E+01 4.49993E+00-9.67457E-02 3.86610E-01 7.40408E-13 6.28123E-13
 -1      1954 3.04727E+01 2.53126E-01-1.64580E-01-4.55745E+00 5.02459E-13 1.72279E-13
 -1      1955 2.95477E+01 1.54049E+00-1.91997E-01-3.40015E+00 5.70488E-13 4.69881E-13
 -1      1956 3.25000E+01 2.72401E+00-1.22484E-01-3.57432E+00 7.98028E-13 1.41248E-13
 -1      1957 3.11032E+01-1.58954E+00 4.42579E-02-3.31061E+00 2.71339E-13-8.33300E-14
 -1      1958 3.01739E+01-1.01777E+00-1.24304E-01-3.80012E+00 4.20483E-13 7.03639E-14
 -1      1959 3.18403E+01-1.05788E+00-1.23039E-01-4.09625E+00 5.43857E-13-1.69642E-13
 -1      1960 3.04169E+01-1.63948E+00 1.16431E-01-5.75669E-01 3.81552E-14-1.28854E-13
 -1      1961 3.00927E+01-1.84427E+00-4.69485E-02-1.70117E+00 1.14381E-13-1.28852E-13
 -1      1962 3.03790E+01-2.64517E+00-1.05694E-01-1.81312E+00 1.85463E-13-3.18329E-13
 -1      1963 2.88050E+01-8.28345E-01 6.64583E-02 1.47486E+00-5.92512E-14-9.91741E-14
 -1      1964 2.92036E+01-1.25354E+00-8.33097E-03 6.22085E-01-2.05669E-14-5.61079E-14
 -1      1965 2.83936E+01-2.09539E+00-7.55678E-02 8.74843E-01-2.62568E-14-2.40349E-13
 -1      1966 2.70249E+01-1.61577E-01 8.44906E-03 2.22528E+00-2.33103E-14 9.48408E-14
 -1      1967 2.78303E+01-4.35572E-01 7.37360E-04 1.89243E+00-9.49102E-14 5.71661E-14
 -1      1968 2.65715E+01-8.78113E-01-4.09750E-02 2.34594E+00-1.13944E-13-1.09855E-13
 -1      1969 2.54246E+01 1.55787E-01-1.61873E-02 2.17130E+00 1.52059E-13 2.48728E-13
 -1      1970 2.63254E+01 4.76522E-02 2.10669E-03 2.16852E+00 9.95606E-14 2.43462E-13
 -1      1971 2.51218E+01-4.69217E-02-1.39657E-02 2.66851E+00 1.47131E-14 6.06650E-14
 -1      1972 2.40362E+01 2.44587E-01-1.83341E-02 1.77598E+00-5.63629E-14 2.76024E-13
 -1      1973 2.48845E+01 2.29415E-01 5.31707E-03 1.92098E+00 6.44242E-14 2.87039E-13
 -1      1974 2.39434E+01 3.06120E-01 1.35769E-03 2.38387E+00 3.08317E-14 1.97268E-13
 -1      1975 2.29945E+01 2.26485E-01-1.27730E-02 1.35210E+00 1.00002E-13 1.50290E-13
 -1      1976 2.36512E+01 2.48257E-01 8.28947E-03 1.51529E+00 4.93182E-14 2.40396E-13
 -1      1977 2.29943E+01 3.72404E-01 5.53819E-03 1.90039E+00 7.70868E-14 1.12651E-13
 -1      1978 2.21886E+01 1.80121E-01-7.84698E-03 9.88951E-01-9.91273E-14 7.73250E-14
 -1      1979 2.26928E+01 2.09043E-01 9.41625E-03 1.13220E+00-7.41161E-14 1.46323E-13
 -1      1980 2.22562E+01 3.24735E-01 5.75858E-03 1.43637E+00-2.68691E-14 1.37888E-13
 -1      1981 2.15816E+01 1.33684E-01-4.40141E-03 7.07735E-01 1.47719E-13 1.64888E-13
 -1      1982 2.19552E+01 1.59520E-01 8.76414E-03 8.19871E-01-6.69178E-14 1.23062E-13
 -1      1983 2.16764E+01 2.51090E-01 4.36185E-03 1.05117E+00-3.49807E-14 7.58926E-14
 -1      1984 2.11310E+01 9.56806E-02-2.58628E-03 5.00845E-01 5.76548E-14 3.90251E-13
 -1      1985 2.14031E+01 1.16056E-01 7.28050E-03 5.83864E-01 1.10272E-13 2.70389E-13
 -1      1986 2.12301E+01 1.83423E-01 2.77746E-03 7.55599E-01 9.17140E-14 2.32514E-13
 -1      1987 2.07875E+01 6.63801E-02-1.30895E-03 3.46012E-01-9.18710E-14 5.15751E-13
 -1      1988 2.09892E+01 8.16663E-02 5.65697E-03 4.08156E-01 1.15775E-14 4.60200E-13
 -1      1989 2.08861E+01 1.29899E-01 1.94867E-03 5.33669E-01-6.46956E-14 4.07608E-13
 -1      1990 2.05527E+01 4.66853E-02-5.31918E-04 2.42478E-01-2.34248E-13 3.67913E-13
 -1      1991 2.06890E+01 5.71166E-02 4.19982E-03 2.84549E-01-1.43096E-13 3.99958E-13
 -1      1992 2.06297E+01 8.97305E-02 7.08752E-04 3.73959E-01-1.09742E-13 4.36312E-13
 -1      1993 2.03826E+01 3.27382E-02-2.09218E-04 1.69412E-01-2.27373E-13 3.88571E-13
 -1      1994 2.04792E+01 4.00778E-02 3.07623E-03 1.99284E-01-2.86368E-13 2.89490E-13
 -1      1995 2.04463E+01 6.26235E-02 2.38618E-04 2.63558E-01-2.35539E-13 2.27814E-13
 -1      1996 2.02606E+01 2.29996E-02-3.39373E-05 1.17862E-01-1.00298E-13 2.72086E-13
 -1      1997 2.03287E+01 2.81556E-02 2.23503E-03 1.39058E-01-5.89689E-14 3.09055E-13
 -1      1998 2.03120E+01 4.37159E-02-9.60366E-06 1.85021E-01-4.38816E-14 5.80898E-14
 -1      1999 2.01736E+01 1.61892E-02 5.15186E-05 8.14450E-02-6.48141E-14 2.84279E-13
 -1      2000 2.02214E+01 1.98160E-02 1.61581E-03 9.65084E-02-1.37069E-13 2.44871E-13
 -1      2001 2.02144E+01 3.05692E-02-1.27987E-04 1.29196E-01-7.55521E-14 5.49003E-14
 -1      2002 2.01121E+01 1.13835E-02 6.13788E-05 5.56949E-02 1.62332E-13 4.08621E-13
 -1      2003 2.01455E+01 1.39751E-02 1.16939E-03 6.64165E-02 9.48238E-14 3.26372E-13
 -1      2004 2.01440E+01 2.13956E-02-1.79131E-04 8.94987E-02 3.87524E-14 1.30583E-13
 -1      2005 2.00674E+01 7.85618E-03 8.12020E-05 3.67276E-02-6.84566E-14 4.28978E-13
 -1      2006 2.00911E+01 9.74194E-03 8.36489E-04 4.46292E-02 2.64368E-14 3.50002E-13
 -1      2007 2.00929E+01 1.49877E-02-1.27365E-04 6.07741E-02 5.17924E-14 1.04219E-13
 -1      2008 2.00386E+01 5.52410E-03 9.72601E-05 2.41359E-02 1.29227E-13 4.18725E-13
 -1      2009 2.00538E+01 6.80270E-03 5.93993E-04 2.94550E-02-9.12652E-15 5.08201E-13
 -1      2010 2.00571E+01 1.02914E-02-1.66325E-04 4.03989E-02-5.32131E-14 1.50535E-13
 -1      2011 2.00191E+01 3.83731E-03 8.81959E-05 1.53061E-02 1.82598E-13 5.23436E-13
 -1      2012 2.00291E+01 4.74377E-03 4.20461E-04 1.90607E-02 2.16251E-13 4.39398E-13
 -1      2013 2.00331E+01 7.15256E-03-1.42748E-04 2.64713E-02 1.90797E-13 2.34345E-13
 -1      2014 2.00064E+01 2.62926E-03 7.72498E-05 9.18408E-03 1.94763E-13 4.20868E-13
 -1      2015 2.00128E+01 3.27513E-03 2.97516E-04 1.18098E-02 1.53238E-13 5.37339E-13
 -1      2016 2.00168E+01 4.91647E-03-1.18793E-04 1.67011E-02 2.18424E-13 3.34720E-13
 -1      2017 1.99984E+01 1.76480E-03 6.55091E-05 5.00584E-03 8.31703E-14 4.97293E-13
 -1      2018 2.00023E+01 2.22342E-03 2.08413E-04 6.81632E-03 1.43737E-13 4.33049E-13
 -1      2019 2.00061E+01 3.32320E-03-9.64468E-05 9.92650E-03 9.92428E-14 1.04206E-13
 -1      2020 1.99938E+01 1.14768E-03 5.19942E-05 2.21633E-03-6.63075E-15 2.05006E-13
 -1      2021 1.99960E+01 1.47469E-03 1.45010E-04 3.44345E-03-3.99938E-15 3.68604E-13
 -1      2022 1.99994E+01 2.18717E-03-7.79376E-05 5.30861E-03 8.92156E-14 1.69019E-13
 -1      2023 1.99914E+01 6.92857E-04 4.25600E-05 3.49517E-04-3.30366E-13 2.08154E-13
 -1      2024 1.99924E+01 9.28237E-04 9.73445E-05 1.17869E-03-1.35416E-13 1.40057E-13
 -1      2025 1.99953E+01 1.39189E-03-5.45820E-05 2.19145E-03-1.04950E-13 1.68227E-13
 -1      2026 1.99906E+01 4.01889E-04 3.56990E-05-7.16985E-04-1.31723E-13 3.25068E-13
 -1      2027 1.99908E+01 5.52676E-04 6.29659E-05-2.26624E-04-2.85471E-13 1.81920E-13
 -1      2028 1.99932E+01 8.09368E-04-4.59388E-05 1.94931E-04-3.05136E-13 5.56344E-14
 -1      2029 1.99907E+01 2.00781E-04 2.85276E-05-1.31518E-03 5.49494E-14 2.15783E-13
 -1      2030 1.99904E+01 2.99324E-04 3.87939E-05-1.03002E-03-5.62880E-15 3.39543E-13
 -1      2031 1.99925E+01 4.35380E-04-3.44509E-05-9.68492E-04-7.91777E-14 1.00907E-13
 -1      2032 1.99913E+01 6.78739E-05 2.23477E-05-1.59475E-03 2.10480E-13 4.18051E-13
 -1      2033 1.99908E+01 1.30227E-04 2.25183E-05-1.44931E-03 1.32564E-13 4.08977E-13
 -1      2034 1.99925E+01 1.84568E-04-2.56604E-05-1.60700E-03 7.27792E-14 4.01822E-13
 -1      2035 1.99923E+01-1.56974E-05 1.73900E-05-1.66759E-03 3.44783E-13 2.77316E-13
 -1      2036 1.99917E+01 2.16006E-05 1.17109E-05-1.61310E-03 2.13704E-13 3.03011E-13
 -1      2037 1.99930E+01 2.23545E-05-1.90135E-05-1.89336E-03 2.38033E-13 2.23025E-13
 -1      2038 1.99934E+01-6.72920E-05 1.32212E-05-1.60514E-03-6.50722E-14 2.49745E-13
 -1      2039 1.99927E+01-4.62668E-05 4.25308E-06-1.61216E-03 1.31224E-13 3.65123E-13
 -1      2040 1.99937E+01-7.46159E-05-1.34973E-05-1.94867E-03 7.81064E-14 2.18984E-13
 -1      2041 1.99945E+01-9.06192E-05 9.90854E-06-1.47054E-03-4.10783E-14 5.29141E-14
 -1      2042 1.99938E+01-8.33657E-05-5.35254E-07-1.51205E-03-9.33417E-14 1.74757E-13
 -1      2043 1.99946E+01-1.30731E-04-9.48038E-06-1.86183E-03-2.12197E-14 1.99254E-13
 -1      2044 1.99955E+01-9.92642E-05 7.43758E-06-1.30317E-03-1.10623E-13 1.91449E-13
 -1      2045 1.99949E+01-9.95224E-05-3.36303E-06-1.36222E-03-1.53467E-13 1.57517E-13
 -1      2046 1.99955E+01-1.53194E-04-6.46682E-06-1.69836E-03-1.11014E-13 8.80742E-14
 -1      2047 1.99964E+01-9.84154E-05 5.42413E-06-1.12589E-03 1.12276E-13 2.24713E-13
 -1      2048 1.99959E+01-1.02922E-04-4.78667E-06-1.19159E-03-1.34477E-13 2.37676E-13
 -1      2049 1.99963E+01-1.57269E-04-4.31691E-06-1.49951E-03-1.08415E-13-3.60278E-14
 -1      2050 1.99972E+01-9.23821E-05 3.80457E-06-9.53049E-04-1.62077E-14 4.44433E-13
 -1      2051 1.99967E+01-9.88740E-05-5.38403E-06-1.01887E-03 1.53937E-13 3.24671E-13
 -1      2052 1.99970E+01-1.50372E-04-2.77614E-06-1.29156E-03 7.26407E-14-1.15681E-13
 -1      2053 1.99979E+01-8.43566E-05 2.65971E-06-7.92111E-04-6.74458E-14 4.87475E-13
 -1      2054 1.99975E+01-9.13306E-05-5.47393E-06-8.54353E-04 1.63664E-13 5.33737E-13
 -1      2055 1.99977E+01-1.38296E-04-1.66400E-06-1.08975E-03 5.92872E-14 2.73858E-13
 -1      2056 1.99985E+01-7.72890E-05 1.45499E-06-6.36912E-04-1.59733E-13 2.92857E-13
 -1      2057 1.99981E+01-8.31711E-05-5.29517E-06-6.98028E-04-3.52766E-13 2.71570E-13
 -1      2058 1.99983E+01-1.25517E-04-1.21930E-06-8.96578E-04-1.67752E-13 2.23746E-13
 -1      2059 1.99989E+01-7.38316E-05 3.83157E-07-4.99190E-04-2.05022E-13 6.39429E-13
 -1      2060 1.99987E+01-7.78545E-05-4.99950E-06-5.54939E-04-1.34265E-13 5.12340E-13
 -1      2061 1.99987E+01-1.15329E-04-2.49360E-07-7.16934E-04-3.20998E-13 3.57850E-13
 -1      2062 1.99993E+01-7.51241E-05-1.79441E-07-3.65597E-04-2.50344E-13 6.69564E-13
 -1      2063 1.99991E+01-7.66493E-05-4.48228E-06-4.21741E-04-2.24931E-13 5.20913E-13
 -1      2064 1.99991E+01-1.11334E-04 4.16567E-07-5.51032E-04-2.47597E-13 1.88063E-13
 -1      2065 1.99995E+01-8.17249E-05-1.41321E-06-2.29640E-04 6.67663E-13 4.76159E-13
 -1      2066 1.99994E+01-8.00300E-05-3.48691E-06-2.89316E-04 3.23500E-13 5.41549E-13
 -1      2067 1.99994E+01-1.14730E-04 9.30943E-07-3.88040E-04 2.94548E-13-1.56077E-13
 -1      2068 1.99997E+01-8.58532E-05-2.84855E-06-1.24543E-04 3.96146E-13 1.46586E-13
 -1      2069 1.99996E+01-8.81322E-05-2.57655E-06-1.84649E-04 7.01197E-13 5.26531E-13
 -1      2070 1.99996E+01-1.23949E-04 1.12819E-06-2.55980E-04 6.87045E-13-3.43947E-14
 -1      2071 1.99997E+01-1.26516E-04 2.42924E-07-1.55919E-04 3.26466E-13 2.31317E-13
 -1      2072 1.99998E+01-7.60011E-04 1.63811E-06-4.16971E-04-3.05263E-13-4.62281E-13
 -1      2073 1.99998E+01-6.26730E-04-2.23964E-06-4.07142E-04-1.79139E-13-2.39904E-13
 -1      2074 1.99997E+01-5.06198E-04 3.65912E-07-3.79527E-04-3.55546E-14-3.35473E-13
 -1      2075 1.99997E+01-3.85919E-04-3.04770E-06-3.38849E-04 2.38557E-13-1.49881E-13
 -1      2076 1.99997E+01-5.65858E-04 4.62226E-09-5.03362E-04-2.69335E-13-5.56438E-13
 -1      2077 1.99997E+01-2.98164E-04-5.40878E-07-2.83795E-04 3.18059E-13-5.25639E-13
 -1      2078 1.99997E+01-2.02921E-04-2.69570E-06-2.23384E-04 3.31619E-13-1.59446E-13
 -1      2079 1.99996E+01-2.04241E-04-1.83199E-06-2.77142E-04 6.18095E-13-1.82040E-13
 -1      2080 1.99997E+01-3.62712E-04 1.03195E-06-4.08505E-04 2.47587E-13-3.70402E-13
 -1      2081 1.99998E+01-1.00166E-03 2.94462E-06-3.91624E-04-2.60105E-13-1.10866E-12
 -1      2082 1.99998E+01-8.74794E-04-3.14500E-07-4.09268E-04-2.36101E-13-8.16803E-13
 -1      2083 1.99998E+01-7.99517E-04-1.20559E-06-5.23504E-04-8.68788E-14-7.85783E-13
 -1      2084 1.99999E+01-1.20977E-03 4.05331E-06-3.10661E-04 2.60612E-14 5.24476E-14
 -1      2085 1.99999E+01-1.10298E-03 1.58591E-06-3.51679E-04-5.11828E-14-4.35570E-13
 -1      2086 1.99999E+01-1.01551E-03-2.45589E-06-4.69173E-04 1.70075E-13-6.78119E-13
 -1      2087 1.99999E+01-1.35402E-03 4.70454E-06-1.88120E-04-1.62867E-13 1.95324E-13
 -1      2088 1.99999E+01-1.28400E-03 3.21960E-06-2.45456E-04-3.45441E-14 2.13424E-13
 -1      2089 1.99999E+01-1.19131E-03-3.56136E-06-3.50402E-04 1.34650E-13 1.94407E-14
 -1      2090 1.99999E+01-1.41700E-03 4.80339E-06-4.14741E-05-2.26906E-13 1.55239E-13
 -1      2091 1.99999E+01-1.39297E-03 4.32882E-06-1.07151E-04-2.43888E-13 2.22397E-13
 -1      2092 2.00000E+01-1.30483E-03-4.26451E-06-1.85867E-04 1.51941E-13 1.51793E-13
 -1      2093 1.99999E+01-1.39129E-03 4.29940E-06 1.10276E-04-1.73091E-14 4.78195E-13
 -1      2094 1.99999E+01-1.41637E-03 4.82321E-06 4.47372E-05-7.09878E-14 2.08406E-13
 -1      2095 2.00000E+01-1.34329E-03-4.49123E-06 2.14088E-06 5.81936E-14 3.07245E-13
 -1      2096 1.99999E+01-1.28028E-03 3.22686E-06 2.47848E-04-8.67510E-14-6.72021E-14
 -1      2097 1.99999E+01-1.35125E-03 4.67342E-06 1.90916E-04-1.47535E-13 4.94652E-13
 -1      2098 2.00000E+01-1.30246E-03-4.21858E-06 1.89752E-04-3.47559E-14 4.43553E-13
 -1      2099 1.99999E+01-1.10154E-03 1.57507E-06 3.51533E-04 6.08377E-14-2.20440E-13
 -1      2100 1.99999E+01-1.20681E-03 4.01649E-06 3.11561E-04 3.57834E-14-1.38271E-13
 -1      2101 1.99999E+01-1.18836E-03-3.55820E-06 3.52127E-04 1.33563E-13-8.74104E-15
 -1      2102 1.99998E+01-8.71127E-04-3.66571E-07 4.08821E-04 1.73554E-13 6.29832E-13
 -1      2103 1.99998E+01-1.00013E-03 2.93863E-06 3.91279E-04 1.13508E-13 3.66970E-13
 -1      2104 1.99999E+01-1.01332E-03-2.43861E-06 4.69041E-04 3.86790E-13 4.66567E-14
 -1      2105 1.99998E+01-6.21321E-04-2.24137E-06 4.06012E-04 2.86101E-13 1.50263E-13
 -1      2106 1.99998E+01-7.54567E-04 1.64959E-06 4.16101E-04 2.48777E-13 4.06338E-13
 -1      2107 1.99998E+01-7.95184E-04-8.44971E-07 5.22699E-04 4.51766E-13 5.76951E-13
 -1      2108 1.99997E+01-3.75951E-04-1.19221E-06 3.38716E-04 2.13555E-13-3.30175E-14
 -1      2109 1.99997E+01-5.01160E-04 5.58933E-07 3.77865E-04 3.02182E-13 1.73013E-14
 -1      2110 1.99997E+01-5.61055E-04 1.34790E-07 5.00987E-04 3.32885E-13 8.06969E-14
 -1      2111 1.03246E+01-6.61703E+00-3.02532E-01 5.44539E+00 1.05771E-12 6.86368E-13
 -1      2112 6.76961E+00-7.27965E+00-3.61938E-01 4.66643E+00 8.83515E-13 5.76927E-13
 -1      2113 3.35928E-01-6.22175E+00-2.24852E-01-7.16951E-01 7.15594E-13 6.77902E-13
 -1      2114 6.89068E-01-6.80806E+00-3.08393E-01-2.50546E+00 5.87530E-13 6.60083E-13
 -1      2115 3.85843E+00-5.98485E+00-1.41778E-01 3.62460E+00 6.89615E-13 6.79179E-13
 -1      2116 1.71418E+00-6.14132E+00-2.15613E-01 1.72795E+00 5.28924E-13 7.28528E-13
 -1      2117 1.92505E+01-5.04031E+00-1.60842E-01 6.11456E+00 1.00653E-12 4.08396E-13
 -1      2118 1.38579E+01-6.72291E+00-5.01343E-01 5.23864E+00 1.04783E-12 5.82284E-13
 -1      2119 1.49184E+01-6.65542E+00-1.77591E-01 6.09146E+00 5.74985E-13 3.12202E-13
 -1      2120 3.01682E+01-2.58673E+00 7.26729E-02 4.80871E+00 9.11327E-13 1.93068E-13
 -1      2121 2.43915E+01-4.46390E+00-3.11046E-01 4.61698E+00 9.79439E-13 2.63012E-13
 -1      2122 2.06634E+01 3.57114E+00-2.75956E-02-1.61316E+00 3.70706E-14-7.16274E-13
 -1      2123 2.07705E+01 3.56923E+00-3.77676E-02-1.97487E+00-3.37456E-14-7.37674E-13
 -1      2124 2.11775E+01 2.80573E+00-1.30794E-02-2.08437E+00-8.98361E-14-6.79363E-13
 -1      2125 2.09552E+01 2.89547E+00-1.17839E-02-1.44681E+00 5.18177E-14-6.65076E-13
 -1      2126 4.47485E+01 4.87002E+00 6.34342E-01 2.91482E-01 1.06842E-12-2.40252E-13
 -1      2127 4.05598E+01 3.30701E+00 2.52044E-01 2.50912E-01 1.15211E-12-6.56142E-14
 -1      2128 4.49999E+01 6.89665E+00 5.10322E-01-3.40574E-01 9.33253E-13-4.03930E-13
 -1      2129 4.53091E+01 6.27747E+00 6.29295E-01 1.14382E-01 9.96092E-13-2.39808E-13
 -1      2130 4.03086E+01 5.98851E+00 5.21300E-01-1.91467E+00 1.10389E-12-1.99840E-14
 -1      2131 4.24738E+01 5.46311E+00 3.09562E-01 4.86414E-01 7.33691E-13-4.25548E-13
 -1      2132 4.44775E+01 6.59844E+00 5.84956E-01 3.40682E-01 7.88036E-13-3.31402E-13
 -1      2133 3.80296E+01 1.31789E+00 4.94653E-02-3.16266E-01 4.73954E-13-5.68878E-13
 -1      2134 4.21378E+01 3.46134E+00 4.06526E-01 8.12272E-02 6.24112E-13-5.21250E-13
 -1      2135 3.05068E+01-3.51243E+00-1.55538E-01-2.47182E+00 1.77913E-13-6.21170E-13
 -1      2136 3.57359E+01-1.55748E+00 1.13028E-01-1.82409E+00 2.68952E-13-6.07292E-13
 -1      2137 1.91679E+01-5.84759E+00-4.04699E-01-5.17739E+00 1.95177E-13-9.68392E-13
 -1      2138 2.54672E+01-4.66378E+00-1.19839E-01-5.24038E+00 1.89460E-13-8.61811E-13
 -1      2139 1.02644E+01-6.88032E+00-5.00195E-01-4.94238E+00 1.08913E-13-9.30929E-13
 -1      2140 1.50427E+01-5.53845E+00-2.11849E-01-6.01799E+00 2.77778E-13-1.04361E-12
 -1      2141 2.02948E+01-6.21845E+00-1.03567E-02-5.58746E+00-1.57763E-13-7.66776E-13
 -1      2142 3.19739E+00-7.16932E+00-4.75847E-01-2.98485E+00-5.94524E-14-8.28837E-13
 -1      2143 5.93663E+00-6.47893E+00-3.67637E-01-4.32133E+00 1.72973E-13-9.34641E-13
 -1      2144 1.96556E-01-6.71862E+00-4.04749E-01 2.28501E-01-2.84411E-13-8.02025E-13
 -1      2145 1.10257E+00-6.33552E+00-3.35689E-01-1.35170E+00-4.20497E-14-8.39107E-13
 -1      2146 1.21424E+00-5.54048E+00-2.66856E-01 3.50199E+00-4.02123E-13-7.42961E-13
 -1      2147 1.97552E-01-6.73593E+00-4.15593E-01 1.88775E+00-2.47441E-13-7.66831E-13
 -1      2148 1.48267E+00-3.56829E+00-1.56942E-01 1.03989E+00 4.45824E-15-8.70970E-13
 -1      2149 6.49919E+00-4.80543E+00-2.13166E-01 6.35109E+00-6.82010E-13-6.20032E-13
 -1      2150 3.77626E+00-5.92299E+00-3.40219E-01 5.19632E+00-4.49085E-13-6.30829E-13
 -1      2151 1.42367E+01-3.11121E+00-4.39308E-02 7.83586E+00-7.02327E-13-5.44037E-13
 -1      2152 1.00426E+01-4.90694E+00-3.35254E-01 6.77806E+00-6.62137E-13-5.71189E-13
 -1      2153 2.31207E+01-6.56471E-01 1.07292E-01 7.72525E+00-8.99336E-13-3.94684E-13
 -1      2154 1.83084E+01-2.67067E+00-2.27597E-01 7.12366E+00-8.10463E-13-4.82780E-13
 -1      2155 3.17273E+01 2.12116E+00 2.39782E-01 6.41476E+00-9.14296E-13-3.40616E-13
 -1      2156 2.65588E+01 4.18366E-01-1.00830E-01 6.45501E+00-9.70224E-13-4.07119E-13
 -1      2157 3.85264E+01 4.87095E+00 3.00669E-01 3.99463E+00-9.02403E-13-1.90403E-13
 -1      2158 3.43759E+01 3.74068E+00 8.10447E-02 4.90194E+00-9.58629E-13-3.37286E-13
 -1      2159 4.10034E+01 7.08128E+00 2.43193E-01 1.09296E+00-8.21898E-13-1.53488E-14
 -1      2160 3.93525E+01 6.34947E+00 2.03681E-01 2.49309E+00-8.84681E-13-1.85962E-13
 -1      2161 4.18144E+01 7.68951E+00 2.81474E-01-8.72602E-01-6.75904E-13 1.62773E-13
 -1      2162 4.13409E+01 7.83992E+00 2.20928E-01 5.24278E-01-7.54397E-13-1.31006E-14
 -1      2163 3.88635E+01 6.51123E+00 1.98698E-01-2.44625E+00-4.95382E-13 2.28262E-13
 -1      2164 4.18298E+01 7.27569E+00 4.24876E-01-1.53305E+00-5.69211E-13 2.09416E-13
 -1      2165 3.70484E+01 8.57209E+00 2.87601E-01-7.56605E-02-6.26998E-13-1.74458E-13
 -1      2166 3.36143E+01 3.17532E+00 1.24287E-01-5.16384E+00-4.09922E-13 5.34683E-13
 -1      2167 3.74423E+01 4.45426E+00 2.49665E-01-3.86528E+00-3.87620E-13 3.65541E-13
 -1      2168 2.57542E+01-8.18726E-01-1.20573E-01-6.27127E+00-2.91545E-13 4.81004E-13
 -1      2169 3.08537E+01 1.09377E+00 2.16286E-01-6.31162E+00-3.39700E-13 5.79425E-13
 -1      2170 1.67886E+01-4.02047E+00-2.74447E-01-7.04266E+00-2.39808E-14 6.74516E-13
 -1      2171 2.18859E+01-1.86444E+00 6.93260E-02-7.76385E+00-2.16938E-13 5.94802E-13
 -1      2172 8.55948E+00-6.17138E+00-3.21923E-01-6.49528E+00 2.84661E-13 6.61998E-13
 -1      2173 1.25380E+01-4.30071E+00-9.67347E-02-7.54327E+00-3.41949E-14 7.25614E-13
 -1      2174 2.07298E+00-7.18400E+00-3.70395E-01-4.01448E+00 5.90916E-13 8.00693E-13
 -1      2175 4.57107E+00-5.82575E+00-1.99662E-01-5.69659E+00 3.70870E-13 8.42881E-13
 -1      2176 2.87463E+00-4.35269E+00-1.22594E-01-3.94808E+00 4.85556E-13 8.50320E-13
 -1      2177 3.83868E+01 4.33451E-01 2.14096E-01 1.74193E+00 8.97032E-13-6.55032E-14
 -1      2178 3.35368E+01-1.16513E+00-6.93900E-03 2.91458E+00 8.66834E-13 1.99063E-13
 -1      2179 3.28684E+01-3.37686E+00 1.22713E-01 1.46227E+00 7.22616E-13-1.21625E-13
 -1      2180 2.43842E+01-5.95740E+00-2.75861E-02 4.74604E+00 6.72573E-13-3.03646E-14
 -1      2181 2.15617E+01 1.00792E+00-2.78436E-02-1.92225E+00-3.27009E-13-5.03864E-13
 -1      2182 3.82616E+01 1.11538E+00 2.75456E-01-1.28852E+00 1.00983E-12-1.25788E-13
 -1      2183 2.15213E+01 1.15499E+00-1.61737E-02-2.10303E+00-3.22711E-13-5.29007E-13
 -1      2184 7.30241E+00-5.27576E+00-1.25093E-01 4.86395E+00 3.55715E-13 4.71956E-13
 -1      2185 2.60717E+00-3.81802E+00-5.74278E-02 8.03303E-01 3.54508E-13 6.46483E-13
 -1      2186 1.99997E+01-3.06214E-04-1.87011E-06 3.24041E-04 2.13153E-13-6.67679E-14
 -1      2187 8.49832E+00-5.25565E+00-1.07746E-01-7.06054E+00 4.20497E-13 8.54539E-13
 -1      2188 1.74426E+01-5.07200E+00-1.75209E-02-7.72244E+00 2.74891E-13 5.80674E-13
 -1      2189 2.59095E+01-3.22372E+00 9.52307E-02-5.81482E+00 1.13354E-13 3.00315E-13
 -1      2190 3.67459E+01 5.23531E+00 1.81924E-01-1.69373E+00-3.61100E-13 5.06817E-14
 -1      2191 3.42133E+01 5.89951E+00-1.66317E-01 4.78524E-01-3.22464E-13-2.95125E-13
 -1      2192 3.37891E+01 3.89085E+00 6.98700E-02-5.11271E-01-2.21018E-13-2.82108E-13
 -1      2193 3.70398E+01 8.42768E+00 2.73306E-01-1.42247E-01-8.46545E-13-1.50630E-13
 -1      2194 3.62259E+01 5.73865E+00 2.87880E-01 8.70522E-01-9.15934E-13-1.31173E-13
 -1      2195 3.29661E+01 1.77332E+00 2.22854E-01 3.18700E+00-7.90954E-13-8.42659E-14
 -1      2196 2.67007E+01-1.84209E+00 8.80256E-02 5.68070E+00-6.00298E-13-9.51461E-14
 -1      2197 1.86863E+01-3.94744E+00-1.09696E-02 7.53089E+00-3.02980E-13-2.20157E-13
 -1      2198 3.89786E+00-3.93152E+00-1.35212E-01 5.13845E+00-3.83304E-14-6.98164E-13
 -1      2199 1.10061E+01-5.74414E+00-1.60068E-01-5.73681E+00-8.63754E-14-9.27342E-13
 -1      2200 2.95129E+01-5.22839E+00 7.19719E-02-2.56101E+00-1.26232E-13-3.72147E-13
 -1      2201 3.61409E+01-9.64847E-01 1.31449E-01 1.61499E+00 1.22000E-13-3.31957E-14
 -1      2202 3.99551E+01 6.99597E+00 4.73274E-01 1.83596E-01 9.11382E-13 4.75314E-14
 -1      2203 3.89991E+01 4.27035E+00 3.21719E-01 2.36288E+00 5.57610E-13 1.04305E-13
 -1      2204 3.79813E+00-4.53399E+00-1.89752E-01-2.93756E+00-5.00433E-14-9.46243E-13
 -1      2205 1.05628E+01-4.27963E+00-7.74558E-02 7.68770E+00-1.30618E-13-4.46504E-13
 -1      2206 3.21567E+01 6.19510E-01 1.68973E-01-3.19252E+00-1.38230E-13 8.73190E-14
 -1      2207 2.41226E+01 7.12366E-01 1.54396E-02-2.15163E+00 1.27419E-13 4.86475E-13
 -1      2208 2.38484E+01 1.11200E+00 2.44938E-02-1.72437E+00 2.17460E-13 5.20485E-13
 -1      2209 2.03537E+01 2.28849E+00-5.91582E-03 4.06109E-01 3.26784E-13-4.24900E-13
 -1      2210 2.06967E+01 2.24235E+00-1.36835E-02-2.57902E-02 2.62837E-13-4.77415E-13
 -1      2211 2.09421E+01 2.25525E+00-7.66288E-03-4.92758E-01 2.08695E-13-5.05615E-13
 -1      2212 2.11023E+01 2.24554E+00-2.23626E-02-8.89643E-01 1.41799E-13-5.51632E-13
 -1      2213 2.11897E+01 1.65360E+00-8.26030E-03-2.57057E-01 2.16314E-13-4.41492E-13
 -1      2214 1.78546E+01 2.97839E+00-1.90756E-02 2.11307E+00 5.20149E-13-3.33832E-13
 -1      2215 1.86420E+01 2.76324E+00 1.30505E-02 1.80194E+00 4.81127E-13-3.56385E-13
 -1      2216 1.62155E+01 3.69536E+00-2.76551E-02 2.47330E+00 5.85437E-13-3.27670E-13
 -1      2217 1.70407E+01 3.43342E+00 2.61959E-02 2.37029E+00 5.55117E-13-3.40172E-13
 -1      2218 1.76112E+01 2.63273E+00-2.10872E-02 2.56027E+00 5.37055E-13-3.09473E-13
 -1      2219 1.49817E+01 4.42763E+00-2.64897E-02 2.23506E+00 6.05705E-13-3.05748E-13
 -1      2220 1.55198E+01 4.21181E+00 2.70073E-02 2.38287E+00 5.98214E-13-3.35356E-13
 -1      2221 1.58483E+01 3.52767E+00 5.96833E-04 2.78318E+00 6.00803E-13-3.16070E-13
 -1      2222 1.47864E+01 4.85190E+00-1.44954E-02 1.45691E+00 6.05962E-13-2.29467E-13
 -1      2223 1.47160E+01 4.77535E+00 9.92366E-03 1.79342E+00 5.99092E-13-2.79666E-13
 -1      2224 1.46435E+01 4.34002E+00 2.28830E-02 2.24378E+00 6.07717E-13-2.90381E-13
 -1      2225 1.60996E+01 4.65577E+00-4.07269E-04 5.05088E-01 5.59694E-13-1.13787E-13
 -1      2226 1.52477E+01 4.79903E+00-1.73235E-02 8.45033E-01 5.71812E-13-1.88148E-13
 -1      2227 1.47352E+01 4.63576E+00 3.74052E-02 1.11432E+00 5.74834E-13-2.25182E-13
 -1      2228 1.88083E+01 3.81939E+00 9.99725E-03-1.85210E-01 4.94132E-13 9.72417E-14
 -1      2229 1.72879E+01 4.19578E+00-3.95145E-02 6.79355E-03 5.09934E-13-2.13163E-14
 -1      2230 1.64591E+01 4.14885E+00 2.10366E-02-7.00500E-02 5.03259E-13-9.01934E-14
 -1      2231 2.48904E+01-4.64685E-01 1.53210E-02-2.61930E+00-9.49033E-14 4.16278E-13
 -1      2232 2.43346E+01 2.30424E-01 5.62617E-02-2.59714E+00 8.14800E-15 4.38608E-13
 -1      2233 2.22391E+01 6.82188E-01-1.54150E-02-2.64949E+00 1.03715E-13 2.32023E-13
 -1      2234 2.13191E+01 5.22476E-01 8.84780E-03-1.65781E+00-2.14786E-13-4.64846E-13
 -1      2235 2.10053E+01 3.02707E-01-8.78715E-03-1.46081E+00-1.91186E-13-4.48661E-13
 -1      2236 3.64750E+01 1.54551E+00-7.83944E-02-3.14831E+00 9.49352E-13-1.81855E-13
 -1      2237 3.51144E+01-8.27836E-01-2.68934E-02-2.25655E+00 7.69135E-13-2.62290E-13
 -1      2238 2.08857E+01 1.72689E-01 1.26023E-02-1.38245E+00-1.85875E-13-3.99557E-13
 -1      2239 2.06031E+01 1.07102E-01-7.96283E-04-1.30600E+00-1.50297E-13-4.11844E-13
 -1      2240 2.12783E+01 3.42903E-01 2.48599E-03-1.61320E+00-1.85343E-13-4.06033E-13
 -1      2241 2.04363E+01 1.03967E-01 5.89983E-03-1.25996E+00-1.42378E-13-3.94397E-13
 -1      2242 2.01933E+01 1.42680E-01 5.07515E-03-1.19971E+00-1.50574E-13-4.09901E-13
 -1      2243 2.09644E+01 1.66394E-01 1.01285E-03-1.47132E+00-1.51751E-13-3.52584E-13
 -1      2244 2.00023E+01 2.15278E-01 8.05484E-04-1.12190E+00-1.45287E-13-4.03321E-13
 -1      2245 1.98040E+01 3.13272E-01 9.91113E-03-1.01661E+00-1.26311E-13-4.08047E-13
 -1      2246 2.06109E+01 2.53607E-01-1.50899E-04-1.34154E+00-1.50743E-13-3.49846E-13
 -1      2247 1.96195E+01 4.16022E-01 2.34877E-05-8.58337E-01-1.12863E-13-4.43391E-13
 -1      2248 1.94797E+01 5.19897E-01 1.20632E-02-6.82222E-01-1.01596E-13-4.44527E-13
 -1      2249 2.02499E+01 4.88150E-01-2.97586E-03-1.09354E+00-1.51769E-13-3.73847E-13
 -1      2250 1.93461E+01 6.01242E-01 2.99361E-03-4.35956E-01-1.43370E-13-4.50087E-13
 -1      2251 1.92819E+01 6.57347E-01 1.02206E-02-2.02555E-01-1.42832E-13-4.76577E-13
 -1      2252 1.99463E+01 7.36250E-01-6.93905E-03-6.63488E-01-1.30725E-13-3.83489E-13
 -1      2253 1.92391E+01 6.74244E-01 7.68280E-03 9.13840E-02-1.15218E-13-4.76529E-13
 -1      2254 1.92586E+01 6.50098E-01 5.18195E-03 3.35426E-01-9.44123E-14-4.77286E-13
 -1      2255 1.97779E+01 8.68438E-01-9.32321E-03-8.43283E-02-1.43301E-13-4.02310E-13
 -1      2256 1.93157E+01 5.88959E-01 1.09839E-02 6.06193E-01-1.22556E-13-4.70285E-13
 -1      2257 1.94103E+01 4.89643E-01-5.45916E-04 8.03566E-01-1.27932E-13-4.50679E-13
 -1      2258 1.97909E+01 8.07381E-01-8.02513E-03 5.21852E-01-1.08771E-13-3.94398E-13
 -1      2259 1.95369E+01 3.72593E-01 1.07923E-02 9.85542E-01-1.16084E-13-4.56854E-13
 -1      2260 1.96822E+01 2.35346E-01-4.31918E-03 1.09543E+00-7.27178E-14-4.56811E-13
 -1      2261 1.99641E+01 5.64459E-01-3.45529E-03 1.00438E+00-1.28393E-13-4.19363E-13
 -1      2262 1.98264E+01 1.04684E-01 7.06839E-03 1.15837E+00-5.07298E-14-4.49597E-13
 -1      2263 1.99902E+01-2.43448E-02-5.31864E-03 1.17150E+00-8.47627E-15-4.63603E-13
 -1      2264 2.02184E+01 2.26826E-01 1.56651E-03 1.25947E+00-7.23927E-14-4.14314E-13
 -1      2265 2.01066E+01-1.29985E-01 1.71130E-03 1.12698E+00-1.22612E-14-4.40909E-13
 -1      2266 2.02598E+01-2.18735E-01-4.19140E-03 1.06257E+00 2.96124E-14-3.85850E-13
 -1      2267 2.04614E+01-9.50491E-02 4.48228E-03 1.27054E+00 1.38642E-14-3.79037E-13
 -1      2268 2.03260E+01-2.80153E-01-3.05674E-03 9.48407E-01 3.16233E-14-4.47874E-13
 -1      2269 2.04495E+01-3.19353E-01-2.21984E-03 8.39405E-01-7.88172E-15-4.36554E-13
 -1      2270 2.06307E+01-3.21625E-01 4.85085E-03 1.09514E+00 3.04044E-14-4.07530E-13
 -1      2271 2.04662E+01-3.37147E-01-5.97074E-03 6.98052E-01-5.39902E-14-4.27383E-13
 -1      2272 2.05520E+01-3.35061E-01-3.91895E-04 5.76590E-01 1.08418E-14-4.16775E-13
 -1      2273 2.07076E+01-4.27165E-01 3.68709E-03 8.21306E-01-3.88109E-14-4.17251E-13
 -1      2274 2.05321E+01-3.21404E-01-6.91343E-03 4.40830E-01 6.27727E-14-4.08177E-13
 -1      2275 2.05813E+01-2.93764E-01 8.08458E-04 3.29951E-01 9.73771E-14-4.34981E-13
 -1      2276 2.07055E+01-4.29577E-01 2.10589E-03 5.28811E-01 1.56176E-14-2.92131E-13
 -1      2277 2.05404E+01-2.63529E-01-6.41759E-03 2.18413E-01 2.13863E-14-4.64730E-13
 -1      2278 2.05591E+01-2.25475E-01 1.35710E-03 1.30261E-01-7.68775E-15-4.37826E-13
 -1      2279 2.06509E+01-3.66392E-01 7.81284E-04 2.70530E-01 3.06438E-14-4.03552E-13
 -1      2280 2.05101E+01-1.90764E-01-5.15747E-03 4.93859E-02-1.75730E-14-4.83979E-13
 -1      2281 2.05063E+01-1.53002E-01 1.44207E-03-1.27222E-02 2.48727E-15-4.65894E-13
 -1      2282 2.05693E+01-2.74916E-01-7.23283E-05 7.12259E-02-4.06283E-14-4.07383E-13
 -1      2283 2.04574E+01-1.21364E-01-3.67524E-03-6.43625E-02-2.20146E-14-4.69710E-13
 -1      2284 2.04389E+01-8.96818E-02 1.27468E-03-1.02641E-01 1.70759E-14-4.64288E-13
 -1      2285 2.04796E+01-1.82193E-01-5.16331E-04-6.50124E-02-2.22879E-14-4.04547E-13
 -1      2286 2.03945E+01-6.46009E-02-2.30403E-03-1.30338E-01 5.85760E-14-4.85590E-13
 -1      2287 2.03678E+01-4.10137E-02 1.01408E-03-1.49601E-01 8.18259E-14-4.92199E-13
 -1      2288 2.03931E+01-1.03277E-01-6.89077E-04-1.45838E-01 2.94721E-14-4.33939E-13
 -1      2289 2.03295E+01-2.32042E-02-1.19955E-03-1.59744E-01 1.07787E-13-5.14894E-13
 -1      2290 2.02996E+01-7.42957E-03 7.52899E-04-1.65389E-01 1.38415E-13-5.36186E-13
 -1      2291 2.03154E+01-4.37903E-02-7.11234E-04-1.83687E-01 1.04831E-13-3.96519E-13
 -1      2292 2.02678E+01 3.91039E-03-3.99742E-04-1.63915E-01 1.72924E-13-5.22894E-13
 -1      2293 2.02380E+01 1.32450E-02 5.32899E-04-1.60797E-01 1.32517E-13-4.11894E-13
 -1      2294 2.02487E+01-3.48093E-03-6.63794E-04-1.91452E-01 1.55395E-13-4.64982E-13
 -1      2295 2.02122E+01 1.95225E-02 1.22981E-04-1.52513E-01 1.17725E-13-3.80709E-13
 -1      2296 2.01847E+01 2.40909E-02 3.65139E-04-1.44475E-01 9.40706E-14-3.17403E-13
 -1      2297 2.01929E+01 2.07878E-02-5.91502E-04-1.80281E-01 1.78418E-13-4.54592E-13
 -1      2298 2.01641E+01 2.67741E-02 4.24005E-04-1.32908E-01-2.22493E-14-2.69929E-13
 -1      2299 2.01400E+01 2.81261E-02 2.45390E-04-1.22714E-01-2.30454E-14-3.07774E-13
 -1      2300 2.01473E+01 3.30408E-02-5.15120E-04-1.58793E-01 8.23686E-14-4.76010E-13
 -1      2301 2.01238E+01 2.84798E-02 5.63604E-04-1.10242E-01-3.32132E-16-2.78467E-13
 -1      2302 2.01035E+01 2.78641E-02 1.63811E-04-9.97075E-02 3.67898E-14-3.11646E-13
 -1      2303 2.01107E+01 3.70859E-02-4.42675E-04-1.33085E-01 2.43169E-15-3.54611E-13
 -1      2304 2.00909E+01 2.68616E-02 5.95363E-04-8.77913E-02 5.34106E-14-3.52569E-13
 -1      2305 2.00745E+01 2.51936E-02 1.10028E-04-7.79917E-02 2.07791E-14-3.39162E-13
 -1      2306 2.00816E+01 3.60354E-02-3.76507E-04-1.07118E-01-3.00374E-14-2.68365E-13
 -1      2307 2.00649E+01 2.35231E-02 5.61764E-04-6.74174E-02-8.00291E-14-2.39536E-13
 -1      2308 2.00520E+01 2.14223E-02 7.52802E-05-5.88970E-02-1.19402E-13-1.92096E-13
 -1      2309 2.00589E+01 3.21971E-02-3.16884E-04-8.32094E-02-3.82654E-14-3.13399E-13
 -1      2310 2.00447E+01 1.95341E-02 4.93763E-04-4.99924E-02-1.43516E-13-2.68512E-13
 -1      2311 2.00348E+01 1.73871E-02 5.29837E-05-4.29422E-02-8.36647E-14-3.16129E-13
 -1      2312 2.00415E+01 2.71508E-02-2.63558E-04-6.25066E-02-1.89375E-13-1.98439E-13
 -1      2313 2.00294E+01 1.55513E-02 4.12302E-04-3.57456E-02-1.04743E-13-3.51362E-13
 -1      2314 2.00221E+01 1.35758E-02 3.85507E-05-3.01407E-02-1.06297E-13-3.92479E-13
 -1      2315 2.00283E+01 2.18953E-02-2.16282E-04-4.53831E-02-1.29733E-13-9.55566E-15
 -1      2316 2.00181E+01 1.19359E-02 3.30468E-04-2.45246E-02 1.28247E-14-3.62488E-13
 -1      2317 2.00129E+01 1.02350E-02 2.89635E-05-2.02222E-02 1.48863E-13-4.14433E-13
 -1      2318 2.00184E+01 1.70030E-02-1.74877E-04-3.17408E-02-5.08809E-14-4.21412E-14
 -1      2319 2.00101E+01 8.85138E-03 2.55634E-04-1.59781E-02 1.75518E-13-4.62722E-13
 -1      2320 2.00065E+01 7.45571E-03 2.23301E-05-1.27834E-02 1.51728E-13-3.96931E-13
 -1      2321 2.00113E+01 1.27547E-02-1.39152E-04-2.12245E-02 1.68665E-13-2.17916E-13
 -1      2322 2.00045E+01 6.33763E-03 1.91274E-04-9.67638E-03 1.55341E-13-4.02318E-13
 -1      2323 2.00021E+01 5.23590E-03 1.75122E-05-7.38335E-03 2.86729E-13-1.90921E-13
 -1      2324 2.00062E+01 9.24443E-03-1.08846E-04-1.33674E-02 2.18977E-13-2.24529E-13
 -1      2325 2.00008E+01 4.36413E-03 1.38379E-04-5.18438E-03 3.00457E-13-2.65847E-13
 -1      2326 1.99993E+01 3.52335E-03 1.38481E-05-3.59952E-03 1.38885E-13-2.00340E-13
 -1      2327 2.00027E+01 6.45581E-03-8.35940E-05-7.68075E-03 2.47562E-13-2.27375E-13
 -1      2328 1.99985E+01 2.86516E-03 9.64798E-05-2.10282E-03-1.17576E-14-2.86252E-13
 -1      2329 1.99976E+01 2.24374E-03 1.09617E-05-1.05659E-03-3.44949E-14-3.47034E-13
 -1      2330 2.00004E+01 4.31450E-03-6.29423E-05-3.70600E-03 8.78985E-14-2.81766E-13
 -1      2331 1.99971E+01 1.76215E-03 6.43489E-05-8.70264E-05 7.14921E-14-3.01716E-13
 -1      2332 1.99968E+01 1.31773E-03 8.63978E-06 5.61956E-04 1.69506E-13-1.63549E-13
 -1      2333 1.99990E+01 2.72166E-03-4.63687E-05-1.04095E-03 5.09123E-15-2.56070E-13
 -1      2334 1.99965E+01 9.76807E-04 4.04540E-05 1.14749E-03 7.90586E-14-7.15986E-14
 -1      2335 1.99964E+01 6.70427E-04 6.75669E-06 1.51274E-03 9.35473E-14 1.32071E-14
 -1      2336 1.99982E+01 1.57427E-03-3.33204E-05 6.51028E-04 2.65036E-13 6.31503E-14
 -1      2337 1.99963E+01 4.38043E-04 2.32320E-05 1.82736E-03 1.55255E-13 1.30977E-13
 -1      2338 1.99965E+01 2.36087E-04 5.23064E-06 1.99713E-03 1.50084E-13 2.20904E-13
 -1      2339 1.99978E+01 7.76404E-04-2.32464E-05 1.64152E-03 2.00680E-13 1.46508E-13
 -1      2340 1.99965E+01 8.50110E-05 1.12411E-05 2.12767E-03-2.76357E-14 1.09737E-13
 -1      2341 1.99967E+01-4.02902E-05 3.99934E-06 2.16856E-03-1.15717E-13 9.69779E-14
 -1      2342 1.99977E+01 2.44488E-04-1.56252E-05 2.14289E-03-1.17210E-14 8.01742E-14
 -1      2343 1.99968E+01-1.32271E-04 3.23233E-06 2.17980E-03 8.69539E-14 1.13014E-13
 -1      2344 1.99970E+01-2.03116E-04 3.00739E-06 2.14059E-03 1.83407E-13 3.09431E-13
 -1      2345 1.99978E+01-9.10084E-05-9.98249E-06 2.31653E-03-3.04494E-15 8.71936E-14
 -1      2346 1.99972E+01-2.53606E-04-1.82861E-06 2.07945E-03 2.91897E-14 3.15241E-13
 -1      2347 1.99974E+01-2.87297E-04 2.20043E-06 1.99470E-03 3.19116E-14 3.56463E-13
 -1      2348 1.99979E+01-2.86019E-04-5.90171E-06 2.28167E-03 1.64446E-13 2.26935E-13
 -1      2349 1.99976E+01-3.09950E-04-4.76810E-06 1.89396E-03 5.15949E-15 4.27366E-13
 -1      2350 1.99979E+01-3.19735E-04 1.52213E-06 1.78714E-03 5.43451E-14 4.20711E-13
 -1      2351 1.99982E+01-3.84395E-04-3.02816E-06 2.12362E-03 2.88475E-14 2.41647E-13
 -1      2352 1.99980E+01-3.24996E-04-6.22645E-06 1.66866E-03 1.79800E-14 3.53136E-13
 -1      2353 1.99982E+01-3.20919E-04 9.13325E-07 1.55469E-03 1.39275E-14 3.77684E-13
 -1      2354 1.99984E+01-4.19886E-04-1.07212E-06 1.90116E-03-4.21352E-14 3.74963E-13
 -1      2355 1.99984E+01-3.16752E-04-6.68315E-06 1.43199E-03 2.85885E-15 2.24256E-13
 -1      2356 1.99986E+01-3.06434E-04 3.29525E-07 1.31933E-03-7.85990E-14 6.12886E-14
 -1      2357 1.99987E+01-4.18197E-04 1.91149E-07 1.65256E-03-1.16954E-13 2.28250E-13
 -1      2358 1.99987E+01-2.98930E-04-6.45123E-06 1.19971E-03-2.75015E-13-9.32779E-15
 -1      2359 1.99989E+01-2.88327E-04-2.87618E-07 1.09196E-03-1.62642E-13-2.59998E-13
 -1      2360 1.99989E+01-3.98877E-04 9.41339E-07 1.40059E-03-2.67913E-13-8.18223E-14
 -1      2361 1.99990E+01-2.82844E-04-5.95411E-06 9.77864E-04 1.36467E-13-4.03719E-13
 -1      2362 1.99992E+01-2.75562E-04-8.19524E-07 8.74460E-04 1.49782E-13-4.10045E-13
 -1      2363 1.99991E+01-3.77260E-04 1.20783E-06 1.15659E-03-1.87146E-13-1.82400E-13
 -1      2364 1.99993E+01-2.73913E-04-4.98043E-06 7.66109E-04-2.42777E-14-3.61741E-13
 -1      2365 1.99994E+01-2.74263E-04-2.14702E-06 6.65950E-04-1.32727E-13-4.62970E-13
 -1      2366 1.99993E+01-3.61762E-04 2.06181E-06 9.22149E-04 6.14752E-14-3.58450E-13
 -1      2367 2.97010E+01-3.85918E+00 9.51953E-03 2.95449E-01-3.54258E-13 5.99278E-13
 -1      2368 2.86116E+01-3.36282E+00 8.41699E-02-1.05835E+00-3.69614E-13 5.43388E-13
 -1      2369 3.59995E+01 5.37110E+00-1.24092E-01-1.37948E+00 9.72666E-13 2.23398E-13
 -1      2370 3.60618E+01 5.71054E+00 1.63884E-02 7.36037E-01 7.97695E-13 3.76893E-13
 -1      2371 2.95697E+01-3.84802E+00 7.65988E-02 2.42431E-01 1.33962E-13-4.14467E-13
 -1      2372 3.05664E+01-3.81517E+00-3.76723E-02-1.11063E+00 2.86368E-13-3.80751E-13
 -1      2373 2.64171E+01-2.19155E+00 9.34827E-02 2.44195E+00-1.51164E-13-3.10706E-13
 -1      2374 2.74269E+01-3.13936E+00-3.71310E-03 1.49874E+00 6.49480E-15-3.72089E-13
 -1      2375 2.67461E+01-4.49390E+00-6.91615E-02 2.25961E+00 8.90676E-14-4.98277E-13
 -1      2376 2.43668E+01-5.62191E-01 4.42591E-02 3.18266E+00-1.89635E-13-2.00993E-13
 -1      2377 2.51920E+01-1.30056E+00 7.14150E-03 2.86021E+00-2.19255E-13-2.44838E-13
 -1      2378 2.36874E+01-2.28316E+00-4.59586E-02 3.54824E+00-1.94914E-13-3.57745E-13
 -1      2379 2.31719E+01 2.88470E-01 6.81398E-03 3.04881E+00-6.40052E-14-3.66547E-15
 -1      2380 2.38339E+01-5.73693E-02 1.00026E-02 3.10068E+00-8.99107E-14-1.03705E-13
 -1      2381 2.22125E+01-4.18524E-01-2.19233E-02 3.65896E+00-2.24857E-13-2.17357E-13
 -1      2382 2.24043E+01 5.79939E-01-4.88154E-03 2.53060E+00 2.13531E-14-3.65766E-15
 -1      2383 2.29530E+01 4.86688E-01 1.27651E-02 2.75546E+00-1.23545E-14 6.28352E-14
 -1      2384 2.15787E+01 5.29390E-01-3.40562E-03 3.20893E+00-8.81261E-14-5.65923E-14
 -1      2385 2.18870E+01 5.75498E-01-5.72253E-03 1.97777E+00 5.90595E-14 6.48132E-14
 -1      2386 2.23091E+01 5.97308E-01 1.45363E-02 2.22099E+00 7.29070E-14 4.96938E-14
 -1      2387 2.12879E+01 7.97642E-01 3.02323E-03 2.59763E+00 5.16900E-14 2.29333E-14
 -1      2388 2.14753E+01 4.77272E-01-4.07447E-03 1.48808E+00-8.98704E-14 1.77939E-13
 -1      2389 2.18121E+01 5.33559E-01 1.48819E-02 1.70344E+00-1.38535E-14 1.96097E-13
 -1      2390 2.10975E+01 7.58005E-01 5.12761E-03 2.01756E+00-3.39086E-14 1.45130E-13
 -1      2391 2.11397E+01 3.64916E-01-2.40084E-03 1.09445E+00 1.55375E-14 1.47559E-14
 -1      2392 2.14030E+01 4.22563E-01 1.32898E-02 1.26617E+00-3.76569E-14 1.01078E-13
 -1      2393 2.09248E+01 6.18480E-01 4.18481E-03 1.52238E+00-9.92956E-15 1.13785E-13
 -1      2394 2.08667E+01 2.67445E-01-1.57210E-03 7.93988E-01-4.16949E-14 2.37124E-13
 -1      2395 2.10693E+01 3.15880E-01 1.08595E-02 9.23869E-01 1.34424E-14 6.39126E-14
 -1      2396 2.07592E+01 4.70006E-01 2.57374E-03 1.12743E+00-2.49301E-14-2.43634E-14
 -1      2397 2.06400E+01 1.88928E-01-8.08540E-04 5.61886E-01-9.33845E-14 2.51847E-13
 -1      2398 2.07979E+01 2.27046E-01 8.35179E-03 6.60840E-01-1.03449E-13 2.19223E-13
 -1      2399 2.06037E+01 3.42477E-01 1.65045E-03 8.18967E-01-7.83373E-14 1.71482E-13
 -1      2400 2.04733E+01 1.34728E-01-1.75812E-04 4.02159E-01-6.64371E-14 2.36046E-13
 -1      2401 2.05848E+01 1.61293E-01 6.22476E-03 4.70028E-01 7.44630E-15 2.73373E-13
 -1      2402 2.04671E+01 2.43144E-01 2.02599E-04 5.89022E-01-5.06142E-14 1.90718E-13
 -1      2403 2.03442E+01 9.55843E-02 2.21864E-05 2.86516E-01-1.93426E-13 1.87977E-14
 -1      2404 2.04264E+01 1.14671E-01 4.56742E-03 3.35327E-01-1.91607E-13 1.37950E-13
 -1      2405 2.03560E+01 1.73186E-01-2.81073E-04 4.24833E-01-7.30566E-14 6.66391E-14
 -1      2406 2.02463E+01 6.78157E-02 1.22692E-04 2.03144E-01 2.40433E-15-1.73875E-14
 -1      2407 2.03063E+01 8.13962E-02 3.32229E-03 2.38136E-01-2.39750E-14-3.88134E-14
 -1      2408 2.02660E+01 1.22972E-01-4.96710E-04 3.04830E-01-3.45264E-14-1.08115E-13
 -1      2409 2.01730E+01 4.81548E-02 1.58878E-04 1.43112E-01 4.09200E-14-1.28173E-13
 -1      2410 2.02165E+01 5.78094E-02 2.40437E-03 1.68186E-01 3.63255E-14 5.12020E-15
 -1      2411 2.01949E+01 8.72987E-02-5.53413E-04 2.17457E-01 8.27322E-15-1.23020E-13
 -1      2412 2.01187E+01 3.41587E-02 1.21599E-04 9.98990E-02 1.42896E-14-5.31003E-14
 -1      2413 2.01501E+01 4.11097E-02 1.74060E-03 1.17886E-01 2.81654E-15-1.18101E-13
 -1      2414 2.01399E+01 6.20005E-02-5.29381E-04 1.53989E-01 2.12890E-14-2.30100E-13
 -1      2415 2.00776E+01 2.38004E-02 1.14788E-04 6.75607E-02 8.93332E-14-4.41679E-14
 -1      2416 2.01006E+01 2.89044E-02 1.24178E-03 8.09055E-02 7.60450E-14-2.57497E-14
 -1      2417 2.00974E+01 4.38750E-02-3.89309E-04 1.07120E-01 1.30793E-14-1.04163E-13
 -1      2418 2.00498E+01 1.68732E-02 1.26970E-04 4.57191E-02-2.75112E-14-1.04718E-13
 -1      2419 2.00650E+01 2.03653E-02 8.86075E-04 5.47274E-02-8.33117E-15-7.32842E-14
 -1      2420 2.00657E+01 3.06865E-02-3.89647E-04 7.32840E-02 1.05175E-13-1.54342E-13
 -1      2421 2.00301E+01 1.18447E-02 1.04536E-04 3.01410E-02 2.20309E-13-9.18374E-14
 -1      2422 2.00406E+01 1.43518E-02 6.28344E-04 3.65327E-02 6.33640E-14-2.41030E-13
 -1      2423 2.00433E+01 2.16755E-02-3.13972E-04 4.96947E-02 1.13383E-13-3.94161E-13
 -1      2424 2.00165E+01 8.22107E-03 8.39329E-05 1.91387E-02 3.37366E-13-8.01810E-14
 -1      2425 2.00235E+01 1.00316E-02 4.45950E-04 2.36284E-02 3.25822E-13-3.00700E-14
 -1      2426 2.00271E+01 1.51828E-02-2.48119E-04 3.28216E-02 2.25201E-13-3.96149E-13
 -1      2427 2.00073E+01 5.60983E-03 6.51443E-05 1.14651E-02-1.12016E-14 6.84164E-14
 -1      2428 2.00119E+01 6.91668E-03 3.13636E-04 1.45760E-02 1.50569E-13 3.60108E-14
 -1      2429 2.00157E+01 1.05057E-02-1.92142E-04 2.08651E-02 2.23372E-13-6.46901E-14
 -1      2430 2.00014E+01 3.72922E-03 4.51187E-05 6.20453E-03-2.42318E-14 6.42891E-14
 -1      2431 2.00042E+01 4.68070E-03 2.19394E-04 8.32338E-03 7.56582E-15 6.43138E-14
 -1      2432 2.00080E+01 7.13605E-03-1.46884E-04 1.25064E-02 3.31022E-14-2.17236E-15
 -1      2433 1.99976E+01 2.33733E-03 3.32736E-05 2.55260E-03-1.07270E-13 1.00781E-13
 -1      2434 1.99993E+01 3.03365E-03 1.48300E-04 4.00051E-03-3.16133E-14 1.61224E-13
 -1      2435 2.00027E+01 4.70774E-03-1.00033E-04 6.67172E-03-8.27216E-14 5.67333E-14
 -1      2436 1.99957E+01 1.42601E-03 2.72742E-05 3.44627E-04-3.03268E-13 7.36766E-14
 -1      2437 1.99965E+01 1.89011E-03 9.71470E-05 1.20901E-03-2.87907E-13 1.02611E-13
 -1      2438 1.99994E+01 2.94110E-03-7.93779E-05 2.78055E-03-1.79799E-13 3.38729E-14
 -1      2439 1.99948E+01 7.89299E-04 1.97506E-05-1.00248E-03-1.21532E-13 2.75378E-13
 -1      2440 1.99950E+01 1.10585E-03 6.08483E-05-4.89172E-04-2.02807E-13 1.75872E-13
 -1      2441 1.99975E+01 1.76401E-03-5.68476E-05 3.61080E-04-2.86670E-13 2.63263E-13
 -1      2442 1.99946E+01 3.59839E-04 1.37945E-05-1.75050E-03-6.65657E-14 3.03640E-13
 -1      2443 1.99945E+01 5.72339E-04 3.63384E-05-1.47848E-03-6.07083E-14 2.12978E-13
 -1      2444 1.99966E+01 9.52248E-04-4.00293E-05-1.11180E-03-1.54173E-13 1.48710E-13
 -1      2445 1.99948E+01 7.97542E-05 9.13948E-06-2.09493E-03 3.40575E-13 1.25686E-13
 -1      2446 1.99945E+01 2.19220E-04 1.98780E-05-1.98282E-03 2.18499E-13 1.91767E-13
 -1      2447 1.99962E+01 4.07821E-04-2.75782E-05-1.92918E-03 1.77922E-13 3.25103E-15
 -1      2448 1.99953E+01-9.89884E-05 6.00475E-06-2.17458E-03-6.67362E-14 2.76610E-13
 -1      2449 1.99949E+01-1.12831E-05 8.52083E-06-2.16819E-03 1.70781E-13 2.66066E-13
 -1      2450 1.99962E+01 5.56448E-05-1.75481E-05-2.30697E-03 1.67013E-13 2.72760E-13
 -1      2451 1.99959E+01-1.91115E-04 3.97798E-06-2.08581E-03-8.57248E-14 1.43935E-13
 -1      2452 1.99955E+01-1.45709E-04 8.91463E-07-2.14246E-03-1.96687E-14 1.16356E-13
 -1      2453 1.99965E+01-1.62946E-04-1.12104E-05-2.39003E-03 1.20502E-14 1.00361E-13
 -1      2454 1.99965E+01-2.35077E-04 2.41943E-06-1.90894E-03-2.19400E-13 1.23459E-13
 -1      2455 1.99961E+01-2.15265E-04-3.66294E-06-1.99826E-03-1.42164E-13 4.01015E-14
 -1      2456 1.99969E+01-2.76092E-04-6.53368E-06-2.29290E-03-4.10974E-14 1.23115E-13
 -1      2457 1.99971E+01-2.47029E-04 1.26858E-06-1.68971E-03 7.95975E-14-1.26516E-13
 -1      2458 1.99967E+01-2.42860E-04-6.02642E-06-1.79302E-03-4.36145E-14 3.01078E-14
 -1      2459 1.99973E+01-3.26769E-04-3.32955E-06-2.09828E-03-7.14402E-14-6.81694E-15
 -1      2460 1.99977E+01-2.40013E-04 3.99398E-07-1.45802E-03-1.73795E-14-7.67891E-14
 -1      2461 1.99973E+01-2.44849E-04-7.08007E-06-1.56373E-03 1.10382E-13-2.13680E-13
 -1      2462 1.99977E+01-3.37371E-04-1.19053E-06-1.85707E-03 1.23117E-13-5.10340E-14
 -1      2463 1.99982E+01-2.23845E-04-1.19170E-07-1.23125E-03 5.08825E-15 4.76409E-16
 -1      2464 1.99979E+01-2.32637E-04-7.25787E-06-1.33293E-03-1.13362E-13-1.49693E-13
 -1      2465 1.99982E+01-3.25015E-04 1.84771E-07-1.60176E-03-7.22290E-14-3.62550E-13
 -1      2466 1.99986E+01-2.05565E-04-7.67234E-07-1.00690E-03-2.69422E-13 6.96469E-14
 -1      2467 1.99983E+01-2.14390E-04-6.82581E-06-1.10668E-03 4.17301E-14 1.51614E-13
 -1      2468 1.99985E+01-3.02326E-04 6.23806E-07-1.34522E-03-1.19376E-13-1.87431E-13
 -1      2469 1.99990E+01-1.93306E-04-1.61234E-06-8.07046E-04-3.65283E-13 1.11338E-13
 -1      2470 1.99988E+01-1.98798E-04-6.26244E-06-8.96611E-04-3.48197E-13 8.42744E-14
 -1      2471 1.99989E+01-2.78777E-04 1.46738E-06-1.10161E-03-3.39140E-13-5.91670E-14
 -1      2472 1.99993E+01-1.89756E-04-1.97661E-06-6.15762E-04 2.95092E-14-3.01598E-13
 -1      2473 1.99991E+01-1.90897E-04-5.45655E-06-7.03043E-04-5.74755E-14 1.81934E-14
 -1      2474 1.99991E+01-2.63839E-04 1.89677E-06-8.79068E-04-9.13729E-14-4.52650E-13
 -1      2475 1.99995E+01-1.95316E-04-2.60871E-06-4.29507E-04 5.00390E-13-4.04262E-13
 -1      2476 1.99994E+01-1.91251E-04-4.54656E-06-5.15763E-04 5.07294E-14-3.10448E-13
 -1      2477 1.99994E+01-2.59010E-04 2.94622E-06-6.65621E-04 1.80357E-13-6.15975E-13
 -1      2478 1.99996E+01-2.00202E-04-3.07245E-06-3.29784E-04 5.74311E-13-2.11101E-13
 -1      2479 2.00000E+01-1.03271E-03 4.39278E-06-5.26521E-04 3.98526E-13-2.99290E-13
 -1      2480 1.99999E+01-9.40032E-04-7.75013E-07-5.75128E-04 2.34886E-13-7.07498E-13
 -1      2481 2.00000E+01-1.18187E-03 4.53321E-06-3.70488E-04 2.37726E-13 1.25640E-13
 -1      2482 2.00000E+01-1.11408E-03 7.92579E-07-4.48726E-04 3.36154E-13-8.06443E-14
 -1      2483 2.00000E+01-1.05818E-03-2.83003E-06-5.59332E-04 4.34117E-13-1.66992E-13
 -1      2484 1.99997E+01-6.17936E-04 3.11165E-06-6.16818E-04-7.53094E-14-6.54370E-13
 -1      2485 1.99997E+01-5.08731E-04-3.97478E-06-5.90299E-04 1.00569E-13-6.65510E-13
 -1      2486 1.99999E+01-8.37659E-04 3.78275E-06-6.13619E-04-3.53601E-14-8.19483E-13
 -1      2487 1.99998E+01-7.32512E-04-2.41623E-06-6.25021E-04-4.74394E-14-5.65465E-13
 -1      2488 1.99998E+01-6.72421E-04-2.31379E-06-7.20371E-04 2.37683E-13-6.11311E-13
 -1      2489 1.99999E+01-8.81477E-04-2.41706E-06-6.84529E-04 2.04746E-13-6.35448E-13
 -1      2490 2.00001E+01-1.26916E-03 4.19791E-06-1.68297E-04 5.56153E-14 2.46239E-13
 -1      2491 2.00001E+01-1.23355E-03 2.28294E-06-2.65188E-04 1.96296E-13 1.00333E-14
 -1      2492 2.00001E+01-1.18625E-03-3.61878E-06-3.63792E-04 2.63987E-13 1.54831E-14
 -1      2493 2.00001E+01-1.28577E-03 3.42298E-06 5.42703E-05 1.64556E-13 4.13735E-13
 -1      2494 2.00001E+01-1.28632E-03 3.47262E-06-4.88029E-05 2.97663E-14 4.87043E-13
 -1      2495 2.00002E+01-1.25251E-03-3.96589E-06-1.23970E-04 2.07482E-13 4.53247E-13
 -1      2496 2.00001E+01-1.23032E-03 2.27911E-06 2.69887E-04 6.41050E-14 2.54348E-13
 -1      2497 2.00001E+01-1.26703E-03 4.20270E-06 1.73478E-04 9.89482E-14 4.62829E-13
 -1      2498 2.00002E+01-1.25094E-03-3.93200E-06 1.30480E-04 2.80131E-13 4.32409E-13
 -1      2499 2.00000E+01-1.11153E-03 7.68268E-07 4.49241E-04 2.74817E-13 9.23066E-14
 -1      2500 2.00000E+01-1.17855E-03 4.51512E-06 3.72799E-04 1.83545E-13 4.85445E-14
 -1      2501 2.00001E+01-1.18279E-03-3.60399E-06 3.67290E-04 2.66324E-13 2.28993E-13
 -1      2502 1.99999E+01-9.37940E-04-1.06897E-06 5.74881E-04 4.46252E-13 2.80329E-13
 -1      2503 2.00000E+01-1.02984E-03 4.40651E-06 5.26533E-04 3.41447E-13-1.11460E-13
 -1      2504 2.00000E+01-1.05453E-03-2.87519E-06 5.59743E-04 2.07522E-13 6.06463E-14
 -1      2505 1.99998E+01-7.27332E-04-2.65353E-06 6.21665E-04 3.06058E-13 4.31271E-13
 -1      2506 1.99999E+01-8.32995E-04 3.55988E-06 6.13182E-04 3.27752E-13 6.38886E-13
 -1      2507 1.99999E+01-8.75838E-04-2.31223E-06 6.85238E-04 3.86719E-13 3.37713E-13
 -1      2508 1.99997E+01-5.01020E-04-3.30949E-06 5.84513E-04 2.67194E-13 3.81033E-14
 -1      2509 1.99997E+01-6.12474E-04 2.50132E-06 6.17247E-04 2.69722E-13 2.33954E-13
 -1      2510 1.99998E+01-6.63027E-04 1.44885E-06 7.17104E-04 2.49710E-13 2.96836E-13
 -1      2511 5.00426E+00-1.70368E+00 1.39962E-01 2.00733E+00 1.02501E-13 5.46285E-13
 -1      2512 3.79264E+00-1.72582E+00 1.61798E-01-7.60910E-01 2.66343E-13 4.98435E-13
 -1      2513 1.11883E+01-4.78884E+00 5.16012E-02 6.00751E+00 2.02394E-13 1.89460E-13
 -1      2514 7.77627E+00-3.34927E+00 9.61746E-02 4.71687E+00 5.05707E-14 3.39173E-13
 -1      2515 8.43758E+00-3.68016E+00 1.09008E-01-6.71420E+00 4.31766E-13 8.70443E-13
 -1      2516 1.23559E+01-4.38201E+00 3.06375E-02-7.93247E+00 3.54716E-13 7.66498E-13
 -1      2517 2.66876E+01-2.40779E+00-9.69947E-03-1.89779E+00-2.99351E-13 4.74169E-13
 -1      2518 2.58431E+01-1.31395E+00 1.04691E-01-2.57065E+00-2.43090E-13 4.17646E-13
 -1      2519 2.32114E+01-1.21417E+00-6.57999E-02-3.30958E+00-1.75474E-13 1.76414E-13
 -1      2520 2.56256E+01-3.60670E+00-7.22337E-02-2.58569E+00-3.77351E-13 2.08306E-13
 -1      2521 3.43732E+01-2.70164E+00-7.68467E-02-6.44113E-01 6.31634E-13-2.29150E-13
 -1      2522 3.15709E+01-4.13407E+00-4.09778E-02 8.08820E-01 5.89362E-13-2.48301E-13
 -1      2523 3.42082E+01-1.72934E+00-1.12291E-02-2.74773E+00 6.19588E-13-3.20688E-13
 -1      2524 1.99996E+01-3.12706E-04-2.74132E-06 4.14546E-04 2.55449E-13-3.55585E-14
 -1      2525 1.87053E+01-6.12334E+00-4.10997E-02 6.10651E+00 2.98539E-13-3.71231E-16
 -1      2526 1.48498E+01-5.71453E+00-2.73674E-03 6.05815E+00 2.46969E-13 9.30922E-14
 -1      2527 2.74658E+01-5.74009E+00-5.31606E-02 3.29190E+00 4.63463E-13-3.43892E-13
 -1      2528 2.27076E+01-6.32693E+00-5.43661E-02 4.73245E+00 3.88078E-13-2.10804E-13
 -1      2529 3.76325E+00-2.32493E+00 1.04890E-01-3.07695E+00 3.48999E-13 7.47957E-13
 -1      2530 5.21445E+00-2.83809E+00 7.52966E-02-5.19978E+00 3.48249E-13 9.58178E-13
 -1      2531 3.34335E+01 8.19501E+00-1.68462E-01-3.74199E-01-7.67775E-13-2.10835E-13
 -1      2532 3.33440E+01 7.46733E+00-1.25710E-01-7.36350E-01-8.44325E-13-1.16546E-13
 -1      2533 1.02119E+01-4.19102E+00 4.05467E-03-5.39470E+00-1.32699E-13-8.32057E-13
 -1      2534 1.44988E+01-4.82968E+00-5.51990E-02-6.12457E+00-1.60871E-13-7.66526E-13
 -1      2535 2.64602E+01-5.66095E+00 3.64400E-02-3.08257E+00-3.63320E-13-1.77108E-13
 -1      2536 3.01587E+01-4.76356E+00-1.04699E-01-7.74999E-01-2.98539E-13 1.29063E-13
 -1      2537 3.58050E+01 4.54114E+00-1.16330E-02-2.36267E+00 1.01485E-12 1.28869E-13
 -1      2538 1.93215E+01 2.50002E+00-9.46655E-03 1.33830E+00 4.41831E-13-3.58748E-13
 -1      2539 1.99008E+01 2.37393E+00-1.43917E-03 9.21819E-01 3.82586E-13-3.94648E-13
 -1      2540 2.05011E+01 1.70012E+00-1.58100E-02 7.38288E-01 3.41749E-13-3.60846E-13
 -1      2541 1.92922E+01 1.99399E+00-2.26083E-02 1.76502E+00 4.43582E-13-3.21072E-13
 -1      2542 4.39455E+00-2.23413E+00 6.45867E-02-2.32244E+00 5.27356E-15-8.66363E-13
 -1      2543 6.85801E+00-3.16720E+00 4.02701E-02-4.37044E+00-1.73195E-14-8.81406E-13
 -1      2544 1.05400E+01-2.46464E+00 1.65381E-01-4.91425E+00-8.66529E-14-8.18179E-13
 -1      2545 1.91838E+01-5.52186E+00 4.19456E-02-5.41701E+00-2.65898E-13-6.01045E-13
 -1      2546 2.29723E+01-5.80056E+00-3.39414E-02-4.86907E+00-2.83662E-13-4.61714E-13
 -1      2547 2.52171E+01-4.85381E+00 1.21588E-01-3.55696E+00-3.67095E-13-7.78340E-14
 -1      2548 1.83014E+01-4.25458E+00 1.75659E-01-5.41602E+00-2.83717E-13-5.77316E-13
 -1      2549 1.34255E+01-3.52597E+00 4.92400E-03 8.10138E+00 1.09357E-13-2.64538E-13
 -1      2550 1.00295E+01-3.21364E+00 7.73650E-02 7.39238E+00 1.82687E-13-3.90188E-13
 -1      2551 2.87009E+00-1.46774E+00 6.34673E-02 2.14210E+00 1.63820E-13-7.64777E-13
 -1      2552 3.06151E+00-1.51932E+00 1.05078E-01-4.22396E-02 1.57513E-13-8.17846E-13
 -1      2553 3.01447E+01-1.17223E+00-1.58686E-02-2.33374E+00 4.65565E-14-1.82465E-13
 -1      2554 3.24216E+01 8.86684E-01-6.36625E-02-1.63205E+00-8.69443E-14-2.83218E-13
 -1      2555 6.76039E+00-2.26331E+00 5.60178E-02 6.50535E+00 1.98563E-13-5.25802E-13
 -1      2556 4.30912E+00-1.69942E+00 1.12596E-01 4.38551E+00 2.62027E-13-6.81233E-13
 -1      2557 2.18917E+01-3.86753E+00-2.58724E-02 6.94631E+00-1.41970E-13 2.18159E-14
 -1      2558 1.79103E+01-4.08089E+00 5.73359E-02 7.44682E+00 2.81442E-14-8.60145E-14
 -1      2559 2.83985E+01-2.05711E+00-6.80289E-02 4.11735E+00-4.29309E-13 1.01363E-13
 -1      2560 2.52820E+01-3.23309E+00-7.69029E-03 5.17759E+00-2.90074E-13 9.67004E-14
 -1      2561 3.26398E+01 1.70955E+00-1.09275E-01 1.27865E+00-6.98844E-13 6.08402E-14
 -1      2562 3.05338E+01-1.50468E-01-4.49161E-02 2.33581E+00-5.79276E-13 8.57092E-14
 -1      2563 3.36056E+01 5.57752E+00-1.81200E-01-6.32818E-01-8.25895E-13-1.58484E-14
 -1      2564 3.34175E+01 3.89607E+00-4.31657E-02 7.45468E-02-7.81014E-13-7.77156E-16
 -1      2565 3.36723E+01 7.47643E+00-1.05658E-01 5.42404E-01-4.77340E-13-2.91045E-13
 -1      2566 3.35191E+01 8.17299E+00-1.62344E-01 1.81849E-01-6.31994E-13-3.34260E-13
 -1      2567 2.42917E+01-4.53960E+00 2.04863E-02-5.62494E+00 3.25240E-13 1.78413E-13
 -1      2568 2.75649E+01-3.42833E+00-9.50591E-02-4.41050E+00 1.78080E-13-7.71605E-15
 -1      2569 1.65651E+01-5.09355E+00 5.97906E-02-7.61035E+00 3.80307E-13 5.00846E-13
 -1      2570 2.05195E+01-4.98683E+00-3.05587E-02-7.30734E+00 3.31735E-13 3.57291E-13
 -1      2571 2.15844E+01 1.65866E+00-2.13422E-02-2.29321E+00-2.55067E-13-5.90162E-13
 -1      2572 2.13721E+01 8.84846E-01-1.19590E-02-1.81937E+00-2.42870E-13-5.18970E-13
 -1      2573 2.15132E+01 9.45523E-01 1.55964E-02-1.88107E+00-1.97290E-13-4.71279E-13
 -1      2574 2.14248E+01 1.98805E+00-1.06722E-02-2.22147E+00-1.88136E-13-6.00076E-13
 -1      2575 2.41161E+01 1.29479E+00 7.24045E-03-1.18755E+00 2.93397E-13 5.99282E-13
 -1      2576 2.40894E+01 1.66830E+00 2.87627E-03-4.81761E-01 3.38354E-13 6.63778E-13
 -1      2577 2.29905E+01 2.25902E+00 2.97883E-03-3.88893E-01 3.87717E-13 5.03587E-13
 -1      2578 2.24460E+01 1.65504E+00 9.49738E-03-1.57537E+00 2.94911E-13 3.62961E-13
 -1      2579 2.14863E+01 1.69643E+00-7.59268E-04-1.08059E+00 1.03212E-13-5.23205E-13
 -1      2580 2.12183E+01 2.26905E+00-9.03429E-03-1.25939E+00 8.54258E-14-6.03498E-13
 -1      2581 2.12692E+01 2.24611E+00-3.14025E-02-1.61286E+00 1.06512E-14-6.52228E-13
 -1      2582 2.11701E+01 2.88532E+00-2.95559E-02-3.89038E-01 4.35570E-13 2.94719E-13
 -1      2583 2.13578E+01 2.10668E+00-9.74748E-03-1.98380E+00-1.01011E-13-6.17010E-13
 -1      2584 1.60193E+01-4.30381E+00 1.31031E-01-7.51048E+00 3.82694E-13 5.47867E-13
 -1      2585 2.01940E+01 2.82550E+00 5.40801E-03-8.54763E-01 4.07068E-13 2.01035E-13
 -1      2586 1.99995E+01-2.73845E-04-3.65931E-06 5.00633E-04 3.34770E-13-2.03824E-13
 -1      2587 1.99996E+01-4.00122E-04 1.90997E-06 5.60821E-04 2.90239E-13 1.27339E-13
 -1      2588 1.99996E+01-4.57224E-04-1.52058E-06 6.83436E-04 2.21074E-13 1.78198E-13
 -1      2589 1.99994E+01-2.75588E-04-5.05757E-06 5.92101E-04 1.29537E-13-3.84427E-13
 -1      2590 1.99995E+01-3.56122E-04 2.65385E-06 7.30122E-04-3.63582E-14-6.15215E-14
 -1      2591 2.33002E+01-4.97228E+00 7.99579E-02-5.85629E+00 4.02040E-13 1.88308E-13
 -1      2592 3.21589E+01 6.35557E+00-7.40441E-02 8.35540E-01-3.76477E-13-3.84054E-13
 -1      2593 1.48580E+01-4.45882E+00 9.74096E-02 5.94252E+00-7.12208E-14-6.27276E-15
 -1      2594 3.23332E+01-3.57801E+00-3.71489E-02 1.65933E+00-2.78073E-13 5.01293E-13
 -1      2595 3.16056E+01 6.22888E+00-7.36733E-02-1.19214E+00-7.72882E-13-1.75276E-14
 -1      2596 3.32573E+01-1.71250E+00-8.63305E-02 2.68327E+00-1.05471E-14 5.11896E-13
 -1      2597 3.53855E+01 3.25871E+00-3.67525E-02 2.85385E+00 4.82503E-13 4.52083E-13
 -1      2598 3.51668E+01 4.74300E-01-1.09976E-01 3.61253E+00 2.13218E-13 5.64104E-13
 -1      2599 3.11094E+01-4.59646E+00-1.20285E-01-3.08841E-01 3.44356E-13-4.57134E-13
 -1      2600 3.26075E+01-2.95002E+00 9.52188E-04-2.62125E+00 4.35485E-13-3.10391E-13
 -1      2601 3.53822E+01 1.86600E+00-1.11290E-01-3.60452E+00 8.93230E-13-1.35475E-13
 -1      2602 1.99996E+01-2.72940E-04-1.02353E-06-4.55359E-04 3.48861E-13-4.06263E-13
 -1      2603 3.31409E+01 3.55001E-01-7.45628E-02-4.20386E+00 7.01883E-13-2.36644E-13
 -1      2604 1.99996E+01-3.56124E-04 3.26197E-07-5.17137E-04 1.31648E-13-5.39643E-13
 -1      2605 3.16819E+01 2.28849E+00-1.64488E-02-3.87987E-01-5.86031E-13 1.07636E-13
 -1      2606 5.71086E+00-7.77169E-01 1.77725E-01-1.83404E+00 1.95077E-13 5.58276E-13
 -1      2607 7.34690E+00-1.71130E+00 2.00565E-01 3.40773E+00-1.65146E-14 5.00822E-13
 -1      2608 7.65534E+00-2.83063E-01 1.50973E-01 2.12556E+00-3.85039E-14 3.56104E-13
 -1      2609 1.02399E+01-1.69523E+00 1.33011E-01 4.49244E+00-1.43593E-13 1.91763E-13
 -1      2610 2.93952E+01-1.57970E+00 1.89777E-02 2.08183E+00-3.45113E-13 1.83215E-13
 -1      2611 2.93432E+01-5.53128E+00-4.29913E-02 1.97187E+00 3.81806E-13-3.49831E-13
 -1      2612 2.80030E+01-5.43337E+00 1.85851E-01 2.36166E+00 2.41016E-13-5.38500E-13
 -1      2613 2.23388E+01-5.87249E+00 2.68489E-02 4.90717E+00 1.77913E-13-3.23429E-13
 -1      2614 8.89840E+00-2.33645E+00 1.54934E-01-6.06224E+00 3.47555E-13 8.79630E-13
 -1      2615 2.44583E+01-3.80315E+00 5.90635E-02 5.32389E+00-2.24820E-15 1.45411E-13
 -1      2616 9.91555E+00-1.71111E+00 1.58657E-01 6.88442E+00 4.20053E-13-4.18804E-13
 -1      2617 3.19665E+01 1.93675E+00-7.46644E-02 2.54618E-01-6.37684E-14-4.22246E-13
 -1      2618 1.71250E+01-3.53508E+00 1.07995E-01 7.52617E+00 2.75224E-13-8.43076E-14
 -1      2619 3.11267E+01 7.90550E+00-1.01514E-01-7.67446E-02-6.36102E-13-3.51464E-13
 -1      2620 2.88980E+01-2.73399E+00 2.49618E-02-2.44467E+00 2.33633E-13-2.76307E-13
 -1      2621 1.99996E+01-4.13589E-04-2.40784E-06-6.45674E-04 2.81046E-13-7.29079E-13
 -1      2622 5.46218E+00-2.60460E-01 1.75035E-01 3.47984E+00 3.63140E-13-6.78180E-13
 -1      2623 5.47279E+00-6.30182E-01 1.57763E-01-1.32061E+00 1.54293E-13-8.19456E-13
 -1      2624 1.01540E+01-8.85734E-01 1.93799E-01-4.04017E+00-8.57647E-15-7.45182E-13
 -1      2625 1.32399E+01-2.30142E+00 1.26608E-02-5.35770E+00-1.24484E-13-6.72656E-13
 -1      2626 1.51919E+01 3.20587E+00-3.31414E-02 3.22677E+00 6.28443E-13-2.93919E-13
 -1      2627 1.62890E+01 2.83636E+00 5.07123E-02 3.29941E+00 6.10153E-13-2.94397E-13
 -1      2628 1.74341E+01 2.16299E+00-2.64114E-02 3.09789E+00 5.69931E-13-2.66569E-13
 -1      2629 1.85326E+01 1.83374E+00 3.24067E-02 2.78110E+00 5.27753E-13-2.65260E-13
 -1      2630 1.70557E+01 1.83631E+00 6.81885E-03 3.67712E+00 5.68216E-13-2.60580E-13
 -1      2631 1.41499E+01 4.35971E+00 9.66289E-03 7.37086E-01 5.49893E-13-2.53993E-13
 -1      2632 1.36868E+01 4.39332E+00 3.13482E-03 1.41315E+00 5.88903E-13-2.90185E-13
 -1      2633 1.64998E+01 3.64211E+00 1.06257E-02-6.81398E-01 4.50666E-13-1.00982E-13
 -1      2634 1.51354E+01 4.00044E+00-2.07032E-02-1.85523E-01 4.90440E-13-1.94250E-13
 -1      2635 1.41917E+01 3.92811E+00 6.32671E-02 4.28920E-02 4.79935E-13-2.58217E-13
 -1      2636 2.04276E+01 9.78557E-01 3.17125E-02-2.78947E+00 9.31130E-14 5.34460E-14
 -1      2637 2.01644E+01 1.68310E+00 3.40472E-02-2.29381E+00 2.13959E-13 1.03862E-13
 -1      2638 1.99996E+01-4.59949E-04-1.16060E-06 7.59545E-04 2.38459E-13 1.91578E-13
 -1      2639 1.99997E+01-5.55151E-04-2.10826E-06 7.87115E-04 2.87764E-13 1.54140E-13
 -1      2640 1.99995E+01-4.62296E-04-3.88998E-06 8.38691E-04 1.55550E-13-1.57312E-14
 -1      2641 2.20078E+01-4.77393E+00 1.35310E-01-5.92087E+00 4.39537E-13 1.23998E-13
 -1      2642 2.47528E+01-4.96653E+00-1.29752E-01-4.68512E+00 3.74339E-13-1.04264E-13
 -1      2643 1.98486E+01 2.52124E+00-1.88528E-03-1.37285E+00 3.51573E-13 1.33113E-13
 -1      2644 2.14593E+01 1.86238E-01 3.28501E-03-1.60037E+00-1.37550E-13-3.38725E-13
 -1      2645 2.12905E+01 1.77825E-01-1.55203E-03-1.54489E+00-1.35386E-13-3.43422E-13
 -1      2646 2.11886E+01 2.46869E-01-1.87361E-03-1.51992E+00-1.45620E-13-3.23701E-13
 -1      2647 2.10168E+01 3.78304E-01 6.09139E-03-1.43469E+00-1.53850E-13-3.48571E-13
 -1      2648 2.16827E+01 2.78527E-01 5.77779E-03-1.65379E+00-1.51265E-13-3.17803E-13
 -1      2649 2.08493E+01 5.46701E-01-5.97084E-03-1.32353E+00-1.47330E-13-3.31663E-13
 -1      2650 2.06976E+01 7.42544E-01 1.11848E-02-1.15291E+00-1.47338E-13-3.43378E-13
 -1      2651 2.14314E+01 5.79662E-01 3.57391E-03-1.52634E+00-1.51741E-13-3.08620E-13
 -1      2652 2.05194E+01 9.25420E-01-4.75614E-03-9.10102E-01-1.44816E-13-3.59883E-13
 -1      2653 2.04141E+01 1.08469E+00 1.11163E-02-6.41491E-01-1.55321E-13-3.83986E-13
 -1      2654 2.11108E+01 1.02814E+00-1.46814E-03-1.16923E+00-1.68370E-13-3.36287E-13
 -1      2655 2.03015E+01 1.18465E+00 1.42920E-03-2.86303E-01-1.55663E-13-3.80523E-13
 -1      2656 2.02649E+01 1.21688E+00 5.07960E-03 3.64096E-02-1.26919E-13-3.74647E-13
 -1      2657 2.08381E+01 1.38912E+00-7.41911E-03-5.46259E-01-1.62194E-13-3.71339E-13
 -1      2658 2.02688E+01 1.17207E+00 8.74125E-03 4.14891E-01-1.10042E-13-3.74695E-13
 -1      2659 2.03032E+01 1.04859E+00-3.57099E-03 7.10073E-01-1.05855E-13-3.69499E-13
 -1      2660 2.07333E+01 1.45800E+00-9.55682E-03 2.27567E-01-1.17775E-13-3.72454E-13
 -1      2661 2.04084E+01 8.70200E-01 1.25840E-02 1.00128E+00-1.14536E-13-3.64332E-13
 -1      2662 2.04943E+01 6.38794E-01-9.27102E-03 1.19447E+00-1.00186E-13-3.57956E-13
 -1      2663 2.08289E+01 1.17120E+00-4.90193E-03 9.31246E-01-1.16095E-13-3.10132E-13
 -1      2664 2.06321E+01 3.98100E-01 1.09303E-02 1.32804E+00-7.78166E-14-3.63757E-13
 -1      2665 2.07354E+01 1.47532E-01-9.99977E-03 1.38799E+00-3.21107E-14-3.69268E-13
 -1      2666 2.10442E+01 6.33798E-01 2.47505E-03 1.36679E+00-6.50002E-14-2.76993E-13
 -1      2667 2.08327E+01-7.12932E-02 5.29705E-03 1.36336E+00-3.03190E-14-3.57655E-13
 -1      2668 2.09216E+01-2.64723E-01-6.87846E-03 1.30755E+00 1.65284E-14-3.75144E-13
 -1      2669 2.12450E+01 4.75169E-02 7.20845E-03 1.46305E+00-4.92904E-14-3.31889E-13
 -1      2670 2.09427E+01-4.08868E-01-6.69537E-04 1.17560E+00 1.13752E-14-4.01606E-13
 -1      2671 2.09987E+01-5.12547E-01-2.52265E-03 1.04869E+00-5.14991E-15-4.33116E-13
 -1      2672 2.13329E+01-4.11461E-01 7.00250E-03 1.28353E+00-2.67678E-14-3.61930E-13
 -1      2673 2.09487E+01-5.71775E-01-4.54411E-03 8.72794E-01 7.26155E-15-3.95849E-13
 -1      2674 2.09689E+01-5.92647E-01 1.20019E-03 7.21246E-01 1.35405E-14-3.30977E-13
 -1      2675 2.12854E+01-6.62250E-01 4.25902E-03 9.55368E-01 2.20406E-14-3.19492E-13
 -1      2676 2.08745E+01-5.85067E-01-5.97462E-03 5.50277E-01-2.21177E-17-2.58650E-13
 -1      2677 2.08658E+01-5.49959E-01 3.36980E-03 4.07958E-01 3.04770E-14-2.57416E-13
 -1      2678 2.11361E+01-7.18603E-01 1.14299E-03 5.96295E-01 6.83778E-14-2.62581E-13
 -1      2679 2.07558E+01-5.03287E-01-5.68383E-03 2.68578E-01 2.38264E-15-2.58057E-13
 -1      2680 2.07286E+01-4.41301E-01 4.07347E-03 1.53559E-01 1.67737E-15-2.86384E-13
 -1      2681 2.09375E+01-6.41807E-01-1.10662E-03 2.81669E-01-6.97415E-15-1.66317E-13
 -1      2682 2.06236E+01-3.80080E-01-4.55273E-03 5.40286E-02-3.39574E-14-3.34419E-13
 -1      2683 2.05873E+01-3.13180E-01 3.81896E-03-2.82321E-02-7.65425E-14-3.69051E-13
 -1      2684 2.07343E+01-4.99814E-01-2.21149E-03 4.36754E-02-5.91868E-14-2.04122E-13
 -1      2685 2.04981E+01-2.53772E-01-3.21778E-03-9.05777E-02-3.30846E-14-3.32889E-13
 -1      2686 2.04594E+01-1.94753E-01 3.10213E-03-1.42324E-01 1.20219E-14-3.42563E-13
 -1      2687 2.05533E+01-3.44537E-01-2.45681E-03-1.14844E-01-5.01481E-14-2.28908E-13
 -1      2688 2.03891E+01-1.45543E-01-2.01029E-03-1.74862E-01 1.76192E-14-3.17233E-13
 -1      2689 2.03520E+01-9.97649E-02 2.27411E-03-2.01920E-01 8.49472E-14-2.90655E-13
 -1      2690 2.04057E+01-2.06502E-01-2.22670E-03-2.05723E-01 2.34997E-14-2.25123E-13
 -1      2691 2.02995E+01-6.34084E-02-1.05509E-03-2.12985E-01 6.91978E-14-2.86159E-13
 -1      2692 2.02660E+01-3.14699E-02 1.52583E-03-2.22072E-01 4.74626E-14-3.58346E-13
 -1      2693 2.02922E+01-9.87478E-02-1.80573E-03-2.45567E-01 2.87265E-14-2.09996E-13
 -1      2694 2.02283E+01-7.26709E-03-3.69429E-04-2.19112E-01 6.61427E-14-4.18226E-13
 -1      2695 2.01992E+01 1.26962E-02 9.33327E-04-2.16364E-01 1.12654E-13-4.97657E-13
 -1      2696 2.02084E+01-2.30661E-02-1.36773E-03-2.50491E-01 1.30205E-14-3.53873E-13
 -1      2697 2.01727E+01 2.69741E-02 8.05722E-05-2.05257E-01 2.02121E-13-5.14826E-13
 -1      2698 2.01481E+01 3.77182E-02 5.06243E-04-1.95607E-01 2.13937E-13-4.68054E-13
 -1      2699 2.01481E+01 2.46417E-02-9.93876E-04-2.33854E-01 1.18610E-13-4.33433E-13
 -1      2700 2.01298E+01 4.46772E-02 3.45788E-04-1.80606E-01 1.88093E-13-4.11207E-13
 -1      2701 2.01094E+01 4.89485E-02 2.22320E-04-1.67673E-01 8.54648E-14-3.57628E-13
 -1      2702 2.01054E+01 5.06697E-02-7.06511E-04-2.05702E-01 2.57773E-13-3.65522E-13
 -1      2703 2.00968E+01 5.09679E-02 4.76697E-04-1.51624E-01 7.21725E-15-3.15758E-13
 -1      2704 2.00802E+01 5.10852E-02 4.87979E-05-1.37850E-01 4.71642E-14-2.67331E-13
 -1      2705 2.00754E+01 6.13721E-02-4.99394E-04-1.73025E-01 7.08655E-14-1.92355E-13
 -1      2706 2.00716E+01 5.00737E-02 5.16494E-04-1.22504E-01 3.77793E-14-2.25908E-13
 -1      2707 2.00583E+01 4.78036E-02-4.64218E-05-1.09394E-01-1.85685E-14-2.34241E-13
 -1      2708 2.00542E+01 6.21592E-02-3.56019E-04-1.40324E-01 4.38049E-14-2.33331E-13
 -1      2709 2.00524E+01 4.51610E-02 4.99139E-04-9.57024E-02 8.84161E-15-1.79168E-13
 -1      2710 2.00419E+01 4.17454E-02-9.00124E-05-8.40682E-02 3.78247E-14-1.12164E-13
 -1      2711 2.00391E+01 5.71819E-02-2.58853E-04-1.10230E-01 7.23971E-14-9.25210E-14
 -1      2712 2.00377E+01 3.84227E-02 4.49663E-04-7.24413E-02-5.43997E-14-6.67168E-14
 -1      2713 2.00296E+01 3.46708E-02-1.02044E-04-6.26228E-02-1.92139E-13-6.17442E-14
 -1      2714 2.00283E+01 4.93787E-02-1.93150E-04-8.40517E-02 5.70657E-14 1.56399E-13
 -1      2715 2.00267E+01 3.12656E-02 3.85449E-04-5.31226E-02-1.80405E-13 5.24629E-14
 -1      2716 2.00205E+01 2.76611E-02-9.65486E-05-4.51585E-02-1.32453E-13 7.69744E-14
 -1      2717 2.00204E+01 4.06798E-02-1.47983E-04-6.22231E-02-7.42863E-14 5.36534E-14
 -1      2718 2.00184E+01 2.45132E-02 3.17841E-04-3.76449E-02-5.14300E-14 8.94496E-14
 -1      2719 2.00138E+01 2.13108E-02-8.27211E-05-3.14000E-02 4.43148E-14 1.26814E-13
 -1      2720 2.00146E+01 3.22504E-02-1.15906E-04-4.46395E-02-9.55703E-14 8.68388E-14
 -1      2721 2.00122E+01 1.85848E-02 2.53686E-04-2.56302E-02 1.11560E-13 5.46007E-14
 -1      2722 2.00088E+01 1.58886E-02-6.61879E-05-2.08827E-02 2.52116E-13 1.20232E-13
 -1      2723 2.00104E+01 2.47146E-02-9.21349E-05-3.08969E-02 9.58923E-14 1.45891E-13
 -1      2724 2.00077E+01 1.36367E-02 1.96637E-04-1.65763E-02 2.16819E-13 3.94998E-14
 -1      2725 2.00053E+01 1.14584E-02-5.01061E-05-1.30753E-02 1.77605E-13-3.70831E-14
 -1      2726 2.00072E+01 1.83371E-02-7.37408E-05-2.04547E-02 1.88078E-13 2.47134E-13
 -1      2727 2.00045E+01 9.66708E-03 1.48206E-04-9.95409E-03 1.65598E-13-7.70437E-14
 -1      2728 2.00029E+01 7.96693E-03-3.60260E-05-7.45358E-03 1.23616E-13-1.46071E-13
 -1      2729 2.00049E+01 1.31606E-02-5.90030E-05-1.27394E-02 1.88434E-13 1.08498E-14
 -1      2730 2.00023E+01 6.58767E-03 1.08561E-04-5.26349E-03 9.69696E-14-1.38475E-13
 -1      2731 2.00012E+01 5.30159E-03-2.45149E-05-3.54136E-03 1.55762E-14-1.29431E-13
 -1      2732 2.00031E+01 9.10212E-03-4.69330E-05-7.20543E-03 6.30076E-14-5.09960E-14
 -1      2733 2.00007E+01 4.27151E-03 7.70897E-05-2.06272E-03 1.17670E-14-5.22370E-14
 -1      2734 2.00001E+01 3.32791E-03-1.55830E-05-9.28852E-04 1.49524E-13 1.59278E-14
 -1      2735 2.00019E+01 6.01792E-03-3.69541E-05-3.36738E-03 4.55752E-14-4.74956E-15
 -1      2736 1.99998E+01 2.58188E-03 5.27886E-05 2.06695E-05 2.63001E-13 7.23138E-14
 -1      2737 1.99994E+01 1.91149E-03-8.95896E-06 7.22592E-04 2.25375E-13 1.36121E-13
 -1      2738 2.00010E+01 3.74368E-03-2.87080E-05-8.13030E-04 2.22742E-13 1.77257E-13
 -1      2739 1.99992E+01 1.38895E-03 3.45151E-05 1.28950E-03 1.82980E-13 8.32545E-14
 -1      2740 1.99990E+01 9.29836E-04-4.25896E-06 1.68379E-03 1.44762E-13 2.87539E-14
 -1      2741 2.00004E+01 2.11859E-03-2.19418E-05 7.95334E-04 1.50694E-13-5.80743E-14
 -1      2742 1.99988E+01 5.77971E-04 2.11406E-05 1.98250E-03 7.22194E-14 2.35417E-15
 -1      2743 1.99988E+01 2.77571E-04-1.08467E-06 2.16521E-03-7.87296E-14 4.73698E-14
 -1      2744 2.00000E+01 9.97727E-04-1.64536E-05 1.72618E-03 3.44346E-14-9.42352E-14
 -1      2745 1.99987E+01 5.23559E-05 1.16367E-05 2.28280E-03-8.75912E-14 4.19783E-14
 -1      2746 1.99988E+01-1.32284E-04 9.25705E-07 2.32610E-03 8.00339E-14 6.90370E-14
 -1      2747 1.99997E+01 2.57366E-04-1.20655E-05 2.18726E-03-6.09432E-14-5.33680E-14
 -1      2748 1.99987E+01-2.66363E-04 5.11508E-06 2.32706E-03 1.08915E-13 2.96756E-14
 -1      2749 1.99988E+01-3.69356E-04 2.07596E-06 2.28365E-03 8.37384E-14-6.76537E-14
 -1      2750 1.99996E+01-2.04124E-04-8.61356E-06 2.33525E-03-1.89279E-14 1.00524E-14
 -1      2751 1.99988E+01-4.40233E-04 8.39921E-07 2.21438E-03 1.13362E-13-8.07822E-14
 -1      2752 1.99989E+01-4.88075E-04 2.60813E-06 2.12146E-03 1.09296E-13 4.65643E-14
 -1      2753 1.99995E+01-4.67823E-04-5.94602E-06 2.28512E-03 3.94237E-14-2.52243E-13
 -1      2754 1.99989E+01-5.17304E-04-1.77994E-06 2.01418E-03-4.74931E-14 4.22731E-14
 -1      2755 1.99990E+01-5.30249E-04 2.70433E-06 1.89690E-03-8.42291E-14-2.44045E-14
 -1      2756 1.99995E+01-5.96962E-04-3.92543E-06 2.11868E-03 6.75313E-14-3.31659E-13
 -1      2757 1.99990E+01-5.34268E-04-3.20956E-06 1.77291E-03-1.44111E-13 3.12927E-14
 -1      2758 1.99991E+01-5.27671E-04 2.49163E-06 1.64722E-03-1.48016E-13 8.75898E-14
 -1      2759 1.99995E+01-6.40043E-04-2.44241E-06 1.89191E-03-6.72149E-14-2.50392E-13
 -1      2760 1.99992E+01-5.18935E-04-3.80152E-06 1.51956E-03-1.85765E-13 5.73268E-14
 -1      2761 1.99993E+01-5.04290E-04 2.11763E-06 1.39443E-03-3.24958E-13-4.75100E-15
 -1      2762 1.99995E+01-6.33911E-04-1.43842E-06 1.64101E-03-1.83697E-13 6.45755E-14
 -1      2763 1.99993E+01-4.91904E-04-3.50624E-06 1.27041E-03-4.48670E-13 8.44260E-14
 -1      2764 1.99994E+01-4.79069E-04 1.57049E-06 1.15043E-03-3.54059E-13-1.07623E-13
 -1      2765 1.99995E+01-6.06289E-04-8.49841E-07 1.38776E-03-3.92394E-13-1.56339E-14
 -1      2766 1.99994E+01-4.73284E-04-4.25514E-06 1.04916E-03-1.27522E-13-2.11829E-13
 -1      2767 1.99995E+01-4.62407E-04 6.96686E-07 9.32095E-04-9.32147E-15-1.59751E-13
 -1      2768 1.99996E+01-5.55633E-04 4.01153E-06 9.62532E-04 9.79331E-14 7.20105E-14
 -1      2769 1.99996E+01-5.81345E-04-1.70938E-06 1.16164E-03-3.22615E-13 4.60591E-15
 -1      2770 3.50905E+01 4.55414E+00-2.89363E-01 2.34959E+00 6.14064E-13 4.98074E-13
 -1      2771 3.24790E+01-1.66178E+00-1.94065E-01-3.57399E+00 5.20320E-13-2.78805E-13
 -1      2772 1.99221E+01 9.79859E-01-4.20834E-03 3.03175E+00-8.66878E-14-8.70753E-14
 -1      2773 2.01339E+01 7.38187E-01 2.62278E-02 3.32545E+00-1.84429E-13-8.01451E-14
 -1      2774 2.00957E+01 1.07338E+00-1.17132E-02 2.39132E+00-1.36554E-14 7.53434E-14
 -1      2775 2.02136E+01 1.07370E+00 1.47362E-02 2.68238E+00-1.01865E-14-3.22594E-15
 -1      2776 1.87782E+01 1.29425E+00 1.27105E-02 2.79318E+00-1.28906E-13-9.98911E-14
 -1      2777 2.02430E+01 9.41861E-01-1.06251E-02 1.84631E+00-7.54986E-14 6.60273E-14
 -1      2778 2.03382E+01 1.02771E+00 1.11833E-02 2.10656E+00-2.80088E-14 9.82587E-14
 -1      2779 1.93066E+01 1.30850E+00 1.35557E-02 2.19021E+00-1.03030E-13 3.43662E-14
 -1      2780 2.03187E+01 7.50607E-01-7.98683E-03 1.40232E+00 7.79728E-14-1.26258E-14
 -1      2781 2.04089E+01 8.52808E-01 9.56776E-03 1.61788E+00 8.87051E-15 8.96452E-14
 -1      2782 1.96871E+01 1.11835E+00 1.14494E-02 1.70444E+00-6.00067E-14 1.54052E-14
 -1      2783 2.03335E+01 5.68465E-01-5.91838E-03 1.05124E+00-1.34131E-13 1.17864E-13
 -1      2784 2.04197E+01 6.60228E-01 8.18087E-03 1.22124E+00 2.35116E-14 9.61443E-14
 -1      2785 1.99231E+01 8.83143E-01 8.00410E-03 1.31023E+00-1.75519E-14 9.41746E-14
 -1      2786 2.03090E+01 4.12723E-01-4.00830E-03 7.68609E-01-7.65999E-14 8.94133E-14
 -1      2787 2.03889E+01 4.88496E-01 6.69604E-03 9.03392E-01-1.12531E-13 1.11218E-13
 -1      2788 2.00551E+01 6.63729E-01 5.29715E-03 9.89326E-01-9.26259E-14 1.29346E-13
 -1      2789 2.02680E+01 3.00036E-01-2.50876E-03 5.66177E-01-5.64620E-14 6.07521E-14
 -1      2790 2.03336E+01 3.54783E-01 5.41021E-03 6.62149E-01-6.26665E-14 2.96632E-14
 -1      2791 2.01141E+01 4.85659E-01 2.73926E-03 7.38726E-01-6.05690E-14-1.96874E-14
 -1      2792 2.02205E+01 2.16590E-01-1.62891E-03 4.14257E-01 9.56348E-15 2.95217E-15
 -1      2793 2.02745E+01 2.56844E-01 4.21550E-03 4.85289E-01 2.72554E-14 6.41844E-14
 -1      2794 2.01303E+01 3.53915E-01 1.35620E-03 5.50902E-01 2.76276E-14-6.70435E-14
 -1      2795 2.01746E+01 1.55946E-01-1.03702E-03 3.01152E-01-2.15783E-14-7.39240E-14
 -1      2796 2.02179E+01 1.85125E-01 3.22877E-03 3.53415E-01-1.49091E-14-4.65152E-14
 -1      2797 2.01245E+01 2.56367E-01 5.44251E-04 4.07556E-01 3.86127E-14 5.33656E-14
 -1      2798 2.01341E+01 1.12204E-01-6.48678E-04 2.17356E-01 1.24704E-14-1.76145E-13
 -1      2799 2.01680E+01 1.33237E-01 2.44397E-03 2.55659E-01-7.28719E-15-1.31982E-13
 -1      2800 2.01085E+01 1.85214E-01 9.42184E-05 2.99123E-01 2.38097E-14 1.85288E-14
 -1      2801 2.01001E+01 8.06248E-02-4.49587E-04 1.55474E-01-8.06721E-14-1.68285E-13
 -1      2802 2.01262E+01 9.58580E-02 1.83373E-03 1.83494E-01-2.77284E-14-2.34191E-13
 -1      2803 2.00892E+01 1.33679E-01-1.27965E-04 2.17646E-01-2.98981E-14-5.58879E-14
 -1      2804 2.00716E+01 5.69473E-02-2.79253E-04 1.08040E-01 4.44276E-14-1.71994E-13
 -1      2805 2.00918E+01 6.82494E-02 1.34949E-03 1.29219E-01-5.60975E-14-1.38131E-13
 -1      2806 2.00699E+01 9.58234E-02-1.49648E-04 1.55589E-01-2.07346E-14-1.12380E-13
 -1      2807 2.00506E+01 4.08217E-02-1.44590E-04 7.52815E-02 1.80908E-13-3.18534E-13
 -1      2808 2.00649E+01 4.86485E-02 1.00530E-03 8.98700E-02 2.00662E-13-2.43378E-13
 -1      2809 2.00527E+01 6.82086E-02-2.59344E-04 1.09597E-01 9.71147E-14-3.29686E-13
 -1      2810 2.00346E+01 2.90687E-02-8.29354E-05 5.14163E-02 1.95283E-13-4.57802E-13
 -1      2811 2.00450E+01 3.47344E-02 7.33784E-04 6.19391E-02 9.25893E-14-3.16699E-13
 -1      2812 2.00388E+01 4.89039E-02-2.45313E-04 7.66910E-02 1.65750E-13-2.55023E-13
 -1      2813 2.00227E+01 2.05119E-02-4.65359E-05 3.41874E-02 1.31898E-13-3.00903E-13
 -1      2814 2.00301E+01 2.46334E-02 5.36219E-04 4.17204E-02 1.61456E-13-4.14425E-13
 -1      2815 2.00277E+01 3.48347E-02-2.14678E-04 5.25753E-02 1.26199E-13-3.46537E-13
 -1      2816 2.00141E+01 1.42843E-02-2.49248E-05 2.18857E-02 8.70876E-14 1.50583E-14
 -1      2817 2.00193E+01 1.72809E-02 3.88855E-04 2.72169E-02 8.32019E-14-1.82989E-13
 -1      2818 2.00191E+01 2.45736E-02-1.79077E-04 3.50700E-02 3.13041E-14-1.71066E-13
 -1      2819 2.00080E+01 9.75247E-03-1.89049E-05 1.32243E-02 2.31451E-14-6.78911E-14
 -1      2820 2.00115E+01 1.19403E-02 2.80300E-04 1.69443E-02 2.13293E-13 5.44601E-14
 -1      2821 2.00126E+01 1.70942E-02-1.44283E-04 2.25156E-02 8.63858E-14-9.49546E-14
 -1      2822 2.00036E+01 6.35467E-03-1.00617E-05 7.00540E-03-9.79770E-14-7.18617E-14
 -1      2823 2.00060E+01 7.97378E-03 1.96595E-04 9.63185E-03-1.09009E-13-2.51256E-14
 -1      2824 2.00078E+01 1.15915E-02-1.00466E-04 1.34897E-02-6.96687E-14-1.76466E-13
 -1      2825 2.00009E+01 4.07617E-03-2.45533E-07 3.07484E-03-3.07196E-13 2.79194E-14
 -1      2826 2.00024E+01 5.17491E-03 1.36316E-04 4.71958E-03-2.02920E-13-1.18698E-13
 -1      2827 2.00044E+01 7.57825E-03-8.64041E-05 7.26323E-03-1.73643E-13-1.85539E-13
 -1      2828 1.99993E+01 2.46308E-03 2.45698E-06 5.26216E-04-2.81754E-13 1.03187E-13
 -1      2829 2.00001E+01 3.22787E-03 9.09484E-05 1.56839E-03-3.20757E-13 2.18339E-14
 -1      2830 2.00021E+01 4.83044E-03-6.46606E-05 3.20928E-03-3.55628E-13-2.31886E-13
 -1      2831 1.99983E+01 1.34761E-03 3.26887E-06-1.03759E-03 5.00434E-15-1.16693E-13
 -1      2832 1.99987E+01 1.87211E-03 5.94330E-05-4.18099E-04-1.10761E-13 2.37100E-14
 -1      2833 2.00006E+01 2.89517E-03-4.75515E-05 5.78731E-04-1.61013E-13-3.46518E-13
 -1      2834 1.99978E+01 5.95175E-04 2.75979E-06-1.91641E-03 2.16773E-13-2.14255E-13
 -1      2835 1.99980E+01 9.47865E-04 3.73886E-05-1.58668E-03 1.29694E-13-2.78883E-13
 -1      2836 1.99996E+01 1.56057E-03-3.42955E-05-1.03860E-03 1.18694E-13-5.05858E-13
 -1      2837 1.99977E+01 9.01844E-05 2.75666E-06-2.34094E-03 5.14936E-14 1.70432E-14
 -1      2838 1.99976E+01 3.21893E-04 2.16386E-05-2.20460E-03 1.12433E-13-1.11729E-13
 -1      2839 1.99991E+01 6.56425E-04-2.24618E-05-1.96139E-03 4.12032E-14-2.65130E-13
 -1      2840 1.99977E+01-1.96746E-04 3.27890E-06-2.43677E-03-4.21230E-14 5.00921E-14
 -1      2841 1.99976E+01-6.60500E-05 1.04747E-05-2.43206E-03 3.10927E-14 9.50631E-14
 -1      2842 1.99988E+01 6.77946E-05-1.61917E-05-2.39263E-03-3.79866E-14-1.38198E-13
 -1      2843 1.99979E+01-3.57373E-04 3.01728E-06-2.34978E-03-8.96227E-14-9.14088E-14
 -1      2844 1.99977E+01-2.88679E-04 3.17750E-06-2.41842E-03 2.45410E-14 7.82865E-14
 -1      2845 1.99987E+01-2.72289E-04-1.05755E-05-2.49748E-03-3.94380E-14-5.02938E-14
 -1      2846 1.99982E+01-4.31439E-04 2.57068E-06-2.15808E-03 1.45740E-13-2.67113E-13
 -1      2847 1.99979E+01-4.03057E-04-1.21659E-06-2.26630E-03-3.56391E-14-9.00211E-14
 -1      2848 1.99987E+01-4.59072E-04-6.55921E-06-2.41187E-03 6.84219E-16-1.66939E-13
 -1      2849 1.99984E+01-4.50251E-04 2.07320E-06-1.91503E-03 7.00171E-14-2.40922E-13
 -1      2850 1.99982E+01-4.46954E-04-3.76332E-06-2.04060E-03 1.65648E-13-2.26348E-13
 -1      2851 1.99988E+01-5.42763E-04-3.73658E-06-2.21732E-03 1.35576E-13-2.16646E-13
 -1      2852 1.99987E+01-4.37308E-04 1.71215E-06-1.65480E-03-5.79460E-14-2.33611E-13
 -1      2853 1.99985E+01-4.47611E-04-4.99016E-06-1.78388E-03-1.24883E-13-1.70424E-13
 -1      2854 1.99989E+01-5.61566E-04-1.80893E-06-1.96887E-03-5.28702E-14-2.24042E-13
 -1      2855 1.99989E+01-4.08903E-04 1.12685E-06-1.38438E-03-1.70031E-13-2.53690E-13
 -1      2856 1.99987E+01-4.24678E-04-5.23517E-06-1.51545E-03-3.06097E-14-2.71840E-13
 -1      2857 1.99991E+01-5.43070E-04-8.06641E-07-1.69511E-03-1.48959E-13-1.40425E-13
 -1      2858 1.99991E+01-3.81736E-04 2.57607E-07-1.13905E-03-3.76535E-13-1.44189E-13
 -1      2859 1.99990E+01-3.95756E-04-5.21421E-06-1.25736E-03-2.44207E-13-1.55591E-13
 -1      2860 1.99992E+01-5.09089E-04 2.97385E-07-1.42300E-03-2.55682E-13-1.74745E-13
 -1      2861 1.99993E+01-3.65345E-04-1.85806E-06-9.06906E-04 1.37141E-13-6.40292E-13
 -1      2862 1.99992E+01-3.72445E-04-4.92131E-06-1.01799E-03-1.46465E-13-4.35553E-13
 -1      2863 1.99994E+01-4.77516E-04 1.24950E-06-1.16961E-03-9.08541E-14-4.50726E-13
 -1      2864 1.99995E+01-3.88718E-04-2.81005E-06-7.21730E-04 2.29774E-13-6.71209E-13
 -1      2865 1.99994E+01-3.89302E-04-4.87296E-06-8.31430E-04 1.86781E-13-5.76270E-13
 -1      2866 1.99995E+01-4.81209E-04 4.77569E-06-9.62484E-04 1.98234E-13-7.18049E-13
 -1      2867 1.99996E+01-5.25431E-04 5.00890E-06-7.95743E-04 2.98581E-13-7.66694E-13
 -1      2868 2.00003E+01-1.24332E-03 2.81851E-06-7.19287E-05 5.17452E-14 6.33795E-13
 -1      2869 2.00003E+01-1.22857E-03 1.61548E-06-2.03398E-04 5.77461E-14 4.07294E-13
 -1      2870 7.28986E+00 6.96694E-01 1.13697E-01 4.46206E+00 5.07067E-13-5.48644E-13
 -1      2871 6.24084E+00 1.18706E+00 2.24599E-01 2.04760E+00 4.38535E-13-6.44124E-13
 -1      2872 2.00002E+01-1.08390E-03 4.31924E-06-5.82660E-04 1.65484E-13-3.52145E-13
 -1      2873 2.00001E+01-1.01273E-03-6.93050E-07-6.68266E-04 2.86934E-13-5.32869E-13
 -1      2874 2.00003E+01-1.22594E-03 1.57610E-06 2.11311E-04 1.05834E-13 4.68543E-13
 -1      2875 2.00003E+01-1.24214E-03 2.86710E-06 8.02137E-05 9.32678E-14 5.73468E-13
 -1      2876 2.00004E+01-1.24783E-03-3.69564E-06 4.98907E-06-1.77980E-13 5.36426E-13
 -1      2877 2.00003E+01-1.19472E-03 3.85310E-06-3.47371E-04 5.31056E-14-1.02563E-13
 -1      2878 2.00002E+01-1.15030E-03 1.97431E-07-4.63494E-04 1.08940E-13-9.27839E-15
 -1      2879 2.00003E+01-1.12393E-03-3.08120E-06-5.78132E-04-3.23937E-14-3.25987E-13
 -1      2880 2.00004E+01-1.21743E-03-3.57532E-06-3.03580E-04-1.17397E-13 1.80421E-13
 -1      2881 2.00002E+01-1.14638E-03 1.37610E-07 4.65563E-04 2.21766E-13 1.68967E-13
 -1      2882 2.00003E+01-1.19078E-03 3.86069E-06 3.52155E-04 1.68721E-13 4.07826E-13
 -1      2883 2.00004E+01-1.21370E-03-3.54944E-06 3.10143E-04 7.01226E-14 4.71600E-13
 -1      2884 2.00001E+01-1.00902E-03-1.59893E-06 6.69508E-04 1.52001E-13 8.65130E-14
 -1      2885 2.00002E+01-1.07885E-03 4.57712E-06 5.83764E-04 1.54158E-13-9.19073E-14
 -1      2886 2.00003E+01-1.11812E-03-3.02506E-06 5.80358E-04 8.61124E-14 2.97710E-14
 -1      2887 1.99999E+01-8.28348E-04-4.20588E-06 7.96063E-04 2.81049E-13 4.80281E-13
 -1      2888 2.00000E+01-9.14427E-04 5.87689E-06 7.46581E-04 2.82673E-13 3.33905E-13
 -1      2889 2.00001E+01-9.66115E-04-2.05498E-06 7.85273E-04 3.93768E-14 3.94547E-13
 -1      2890 1.99998E+01-6.58077E-04 3.72965E-06 7.95529E-04 2.73343E-13 1.82125E-13
 -1      2891 2.94655E+01-1.08601E+00-1.60335E-01 7.40574E-01-3.40040E-13 2.23752E-13
 -1      2892 2.80361E+01-2.40917E+00 3.45350E-02 2.09587E+00-1.79681E-13 2.25625E-13
 -1      2893 8.47964E+00-1.04441E+00 1.64712E-01-4.91959E+00 2.44714E-13 8.04967E-13
 -1      2894 1.11615E+01-2.17588E+00 4.15749E-02-6.58726E+00 3.08420E-13 8.13932E-13
 -1      2895 3.01143E+01 6.25360E-01-8.63978E-02 5.40703E-01 4.83502E-14-4.82614E-13
 -1      2896 3.08456E+01 2.97378E+00-1.85622E-01 1.18378E+00-1.04472E-13-4.56510E-13
 -1      2897 2.56753E+01-3.70111E+00-1.20188E-01 4.09371E+00-5.02376E-15 2.10304E-13
 -1      2898 2.30978E+01-3.78298E+00 1.02367E-01 5.44582E+00 1.78704E-13 1.58679E-13
 -1      2899 1.99160E+01 3.31952E-01 2.95603E-02 3.74775E+00-2.70969E-13-9.77950E-14
 -1      2900 2.03636E+01-3.91923E-01 4.29501E-02 3.93110E+00-2.73184E-13-1.85674E-13
 -1      2901 1.82125E+01 7.89207E-01 2.51194E-02 3.57071E+00-2.60542E-13-1.19202E-13
 -1      2902 2.95938E+01 6.45958E+00-1.96205E-01-1.44369E+00-7.00634E-13-7.15539E-14
 -1      2903 3.03303E+01 4.92328E+00-8.41229E-02-1.71132E+00-6.83065E-13 9.52433E-14
 -1      2904 2.10324E+01-1.38555E+00 1.10703E-01 4.29034E+00-3.18218E-13-1.97876E-13
 -1      2905 2.20598E+01-2.79158E+00 6.60540E-02 4.17386E+00-2.54782E-13-2.92245E-13
 -1      2906 3.03397E+01 2.64490E+00-2.09071E-01-1.31501E+00-5.72709E-13 1.36668E-13
 -1      2907 3.02427E+01 9.08728E-01-4.55979E-02-5.89774E-01-4.48239E-13 1.86989E-13
 -1      2908 2.15895E+01 4.78456E-01-5.21552E-03-1.71120E+00-1.44048E-13-3.98323E-13
 -1      2909 2.14700E+01 2.88648E-01-8.01718E-03-1.60855E+00-1.23137E-13-3.69862E-13
 -1      2910 2.18051E+01 2.95812E-01 4.95243E-03-1.68267E+00-1.23864E-13-3.50397E-13
 -1      2911 2.15555E+01 1.57537E+00-2.08807E-04-1.80115E+00-8.77406E-14-5.59587E-13
 -1      2912 1.49814E+01-3.29304E+00 1.91762E-01-7.11543E+00 3.75019E-13 5.30465E-13
 -1      2913 1.82197E+01-4.48898E+00-4.82586E-02-7.13950E+00 4.12947E-13 2.63664E-13
 -1      2914 1.37506E+01 4.12187E+00-1.67001E-02 2.34743E+00 6.30865E-13-2.84535E-13
 -1      2915 1.43146E+01 3.85501E+00 3.98448E-02 2.81329E+00 6.30180E-13-3.02653E-13
 -1      2916 1.46095E+01 3.06998E+00 4.64802E-02 3.45305E+00 6.22941E-13-2.92829E-13
 -1      2917 2.15544E+01 1.11449E+00 5.53656E-03-6.06604E-02 2.42950E-13-3.61728E-13
 -1      2918 2.17161E+01 1.10567E+00-1.53701E-02-5.20935E-01 1.75718E-13-3.97702E-13
 -1      2919 1.94959E+01-3.48637E+00-3.75750E-02 6.86766E+00 3.46556E-13 5.75096E-14
 -1      2920 1.58963E+01-2.49727E+00 1.39092E-01 7.23820E+00 4.70485E-13-9.22734E-14
 -1      2921 5.99241E+00 7.54841E-01 1.15250E-01-8.88108E-02 2.87567E-13-7.01939E-13
 -1      2922 7.58392E+00 8.87066E-02 1.61039E-01-2.55402E+00 1.65035E-13-7.54508E-13
 -1      2923 2.90985E+01 7.30725E+00-1.70606E-01 4.71949E-01-5.13534E-13-3.76570E-13
 -1      2924 2.89053E+01 7.29449E+00-1.87561E-01-4.79555E-01-6.24834E-13-2.22895E-13
 -1      2925 1.24412E+01-1.40798E+00 4.34945E-02 7.20890E+00 5.20389E-13-2.43236E-13
 -1      2926 9.81179E+00-1.61233E-01 1.81258E-01 6.06405E+00 5.64868E-13-3.94185E-13
 -1      2927 7.02784E+00 2.99444E-01 1.41984E-01-8.26321E-01 4.72929E-14 4.78700E-13
 -1      2928 7.17109E+00-2.09290E-01 1.68229E-01-3.21474E+00 1.15248E-13 6.89032E-13
 -1      2929 9.63554E+00-2.84662E-02 1.80301E-01-3.84025E+00 1.01599E-13 6.74918E-13
 -1      2930 2.74388E+01-3.69800E+00 4.60630E-02-2.55498E+00 3.33428E-13-2.87742E-13
 -1      2931 2.91583E+01-2.10745E+00-1.23251E-01-9.44844E-01 2.00749E-13-4.08548E-13
 -1      2932 1.78733E+01-4.24635E+00 6.41184E-02 5.81226E+00-1.36752E-13-1.07886E-13
 -1      2933 1.44403E+01-3.03706E+00 1.27012E-01 5.60707E+00-2.21240E-13 1.50990E-14
 -1      2934 3.04955E+01 4.99983E+00-1.05445E-01 1.48410E+00-2.22822E-13-4.32127E-13
 -1      2935 2.94915E+01 6.36530E+00-2.14922E-01 1.28056E+00-3.58685E-13-4.31252E-13
 -1      2936 2.90593E+01 3.39750E+00-1.00263E-01 1.72290E+00-1.10995E-13-4.40994E-13
 -1      2937 1.78850E+01 2.82244E+00 7.79233E-03-1.57329E+00 3.53916E-13-2.35376E-14
 -1      2938 1.32138E+01 3.97278E+00 4.68494E-02 2.03974E+00 5.96693E-13-3.19196E-13
 -1      2939 1.93493E+01 9.17600E-01-2.30748E-02 2.79590E+00 4.71530E-13-2.20440E-13
 -1      2940 1.94679E+01 1.45992E+00-3.38242E-03 2.21720E+00 4.63818E-13-2.65510E-13
 -1      2941 2.02538E+01 1.23900E+00 9.78192E-03 1.70692E+00 4.16885E-13-2.80263E-13
 -1      2942 1.83838E+01-2.14255E-01 1.24541E-01-3.92074E+00-5.97751E-14-2.08937E-13
 -1      2943 1.58743E+01 7.40482E-01 5.58824E-02-3.55764E+00 9.12742E-14-3.12236E-13
 -1      2944 2.67475E+01-2.89353E+00 1.81629E-02 2.49674E+00-2.06779E-15 1.99465E-13
 -1      2945 2.07351E+01-4.25885E+00 8.96212E-02-5.94255E+00 4.39607E-13 1.23993E-13
 -1      2946 2.17920E+01 1.19102E+00 2.05465E-03-9.36567E-01 1.21174E-13-4.24767E-13
 -1      2947 2.17752E+01 1.18227E+00-2.74783E-02-1.28782E+00 4.10965E-14-5.01134E-13
 -1      2948 2.20958E+01 6.91162E-01-2.53984E-03-7.65076E-01 1.26065E-13-3.48192E-13
 -1      2949 2.17683E+01 1.22811E+00 1.04352E-02-1.59376E+00-8.06885E-15-5.25829E-13
 -1      2950 2.16408E+01 1.02405E+00-2.24246E-02-1.84881E+00-1.29272E-13-5.00317E-13
 -1      2951 2.16103E+01 6.70221E-01-6.03893E-03-1.71950E+00-1.37484E-13-4.45476E-13
 -1      2952 2.20052E+01 7.86604E-01 4.78732E-03-1.45228E+00-1.06388E-14-4.58706E-13
 -1      2953 2.16602E+01-3.18870E+00 8.46204E-02 5.55203E+00 3.48097E-13 7.95340E-14
 -1      2954 2.61780E+01-4.08367E+00 4.12214E-02-2.90656E+00 3.86365E-13-2.83856E-13
 -1      2955 1.04026E+01 4.39378E-01 1.92945E-01-3.02827E+00 1.25899E-13-6.75598E-13
 -1      2956 2.91803E+01 3.37687E+00-9.98479E-02-1.79877E+00-5.32158E-13 1.36904E-13
 -1      2957 2.38455E+01-4.21398E+00 1.37788E-01 3.97038E+00-7.29555E-14-4.06088E-13
 -1      2958 2.57645E+01-5.52660E+00-1.70496E-02 3.21452E+00 1.57263E-13-4.77098E-13
 -1      2959 1.99997E+01-6.46494E-04-1.97870E-06-8.07009E-04 3.03933E-13-7.22559E-13
 -1      2960 1.99997E+01-6.26218E-04-4.32425E-06-8.97760E-04 1.93321E-13-8.05665E-13
 -1      2961 1.99998E+01-7.47976E-04 4.59116E-06-8.11921E-04 2.29003E-13-6.64505E-13
 -1      2962 1.00571E+01 9.91855E-01 1.47274E-01 4.94147E+00 5.96898E-13-4.33431E-13
 -1      2963 7.75721E+00 1.75349E+00 1.30061E-01 9.33954E-01 4.12385E-13-6.10928E-13
 -1      2964 1.99998E+01-7.20480E-04-1.22535E-06 8.80162E-04 1.70528E-13 2.64482E-13
 -1      2965 2.90547E+01-2.67551E-01-4.76821E-02-4.13620E-01-2.91538E-13 2.00229E-13
 -1      2966 1.29955E+01-1.74371E+00 1.69437E-01 5.05951E+00-2.09915E-13 1.89571E-14
 -1      2967 1.18315E+01-3.69015E-01 1.00826E-01 4.02947E+00-2.19227E-13 8.73190E-14
 -1      2968 1.57080E+01-1.68536E+00 9.21817E-02 4.97193E+00-2.94959E-13-7.72715E-14
 -1      2969 1.41061E+01-2.21260E+00 1.48684E-01-6.37138E+00 3.47791E-13 6.03184E-13
 -1      2970 1.91963E+01-1.64923E+00 1.43980E-01-4.32305E+00-1.82035E-13-2.67147E-13
 -1      2971 9.35578E+00 4.49666E-01 1.16157E-01 2.03312E+00-1.36023E-13 3.06588E-13
 -1      2972 7.95380E+00 5.87381E-01 2.36046E-01 6.22499E-01-5.91523E-14 3.83860E-13
 -1      2973 8.88938E+00 9.39150E-01 1.23913E-01-5.84897E-01-7.47761E-14 4.33542E-13
 -1      2974 2.38399E+01-5.85310E+00-8.68217E-02 4.35984E+00 1.56958E-13-4.86574E-13
 -1      2975 2.04515E+01-5.17659E+00 1.45780E-01 5.38378E+00 7.03326E-14-2.63407E-13
 -1      2976 1.65172E+01 2.68822E+00-1.27185E-02-1.74111E+00 3.23519E-13-1.34706E-13
 -1      2977 1.55447E+01-1.27814E+00 1.39897E-01 6.61162E+00 5.61717E-13-1.37987E-13
 -1      2978 2.34678E+01-3.62609E+00 1.03058E-01-4.11848E+00-3.26794E-13-8.41029E-14
 -1      2979 2.79519E+01 6.14444E+00-1.23849E-01 9.39318E-01-4.02151E-13-3.32397E-13
 -1      2980 1.82514E+01-8.01299E-01 4.67391E-05 4.48122E+00-3.07164E-13-1.43725E-13
 -1      2981 2.00000E+01-9.33068E-04 4.50963E-06-7.36741E-04 3.15024E-13-7.75439E-13
 -1      2982 1.99999E+01-8.42982E-04-9.74143E-07-7.80864E-04 3.27025E-13-7.95545E-13
 -1      2983 1.99999E+01-8.25349E-04-3.29210E-06-8.76089E-04 4.20440E-13-7.06121E-13
 -1      2984 2.00001E+01-9.87140E-04-3.01562E-06-7.72748E-04 4.26757E-13-6.76729E-13
 -1      2985 2.82970E+01 6.52094E+00-1.55154E-01-1.07651E+00-6.08583E-13-1.26916E-13
 -1      2986 2.74236E+01 5.61273E+00-7.26920E-02-1.57562E+00-5.39735E-13-1.65562E-14
 -1      2987 2.67497E+01 6.27884E+00-1.04038E-01-6.46443E-01-5.02570E-13-1.22902E-13
 -1      2988 2.08475E+01 1.14798E+00 8.23101E-03 1.04191E+00 3.64355E-13-2.87957E-13
 -1      2989 2.12739E+01 1.06078E+00-5.34307E-03 5.08536E-01 3.02094E-13-3.28984E-13
 -1      2990 2.18528E+01 5.39844E-01-6.92470E-03 2.12837E-01 2.47749E-13-2.83798E-13
 -1      2991 2.10283E+01 5.31027E-01-1.20200E-02 1.47511E+00 3.57292E-13-2.39141E-13
 -1      2992 2.18657E+01 6.27751E-01 1.62128E-02-1.70578E+00-6.44324E-14-3.90112E-13
 -1      2993 1.21104E+01 3.71210E+00 2.33128E-02 1.72127E+00 5.61557E-13-3.57700E-13
 -1      2994 1.23022E+01 3.45662E+00 2.29848E-02 2.65234E+00 6.07217E-13-3.41314E-13
 -1      2995 1.38461E+01 3.41844E+00 8.62026E-02-8.34292E-01 4.12432E-13-3.00347E-13
 -1      2996 1.25033E+01 3.73314E+00 2.11531E-02 1.83962E-01 4.79942E-13-3.43683E-13
 -1      2997 1.14324E+01 3.31081E+00 5.53048E-02 8.35404E-01 4.83496E-13-4.02872E-13
 -1      2998 2.70450E+01-2.48222E+00-1.33520E-01 1.22707E+00-4.86625E-14 1.66540E-13
 -1      2999 2.55655E+01-2.98823E+00 7.87711E-02 2.77456E+00 1.20303E-13 1.73563E-13
 -1      3000 2.00001E+01-9.36469E-04-4.63136E-06 9.03520E-04 1.96765E-14 5.57417E-13
 -1      3001 2.00002E+01-1.01372E-03 4.56933E-06 8.21555E-04-7.56239E-15 2.42505E-13
 -1      3002 2.19878E+01 4.99867E-01-1.02445E-02-1.69175E+00-1.43150E-13-2.58987E-13
 -1      3003 2.18587E+01 7.81778E-01 7.94846E-03-1.58871E+00-1.72823E-13-2.54413E-13
 -1      3004 2.16819E+01 1.09275E+00-1.40183E-02-1.43318E+00-2.01294E-13-2.61013E-13
 -1      3005 2.15538E+01 1.41373E+00 1.33000E-02-1.18800E+00-2.06861E-13-3.09950E-13
 -1      3006 2.22913E+01 1.09620E+00 4.99676E-03-1.65163E+00-1.96907E-13-2.13274E-13
 -1      3007 2.13669E+01 1.67858E+00-8.25212E-03-8.29745E-01-1.89498E-13-3.46205E-13
 -1      3008 2.12860E+01 1.85935E+00 9.18366E-03-4.54800E-01-1.61980E-13-3.54800E-13
 -1      3009 2.19663E+01 1.82436E+00 4.13943E-04-1.14120E+00-2.12506E-13-2.62909E-13
 -1      3010 2.12144E+01 1.91351E+00 2.51813E-03 2.66710E-02-1.08287E-13-3.74611E-13
 -1      3011 2.12056E+01 1.83351E+00-4.57133E-03 4.28154E-01-8.51799E-14-3.40059E-13
 -1      3012 2.17267E+01 2.22338E+00-8.40830E-03-2.68000E-01-1.32706E-13-3.42350E-13
 -1      3013 2.12886E+01 1.63146E+00 1.24726E-02 8.61797E-01-7.58794E-14-3.20756E-13
 -1      3014 2.13424E+01 1.31495E+00-1.51335E-02 1.16309E+00-9.50380E-14-2.81536E-13
 -1      3015 2.17301E+01 2.03820E+00-7.75701E-03 6.95159E-01-6.34946E-14-3.13944E-13
 -1      3016 2.15010E+01 9.44023E-01 1.43456E-02 1.40157E+00-1.23505E-13-2.61761E-13
 -1      3017 2.15767E+01 5.31959E-01-1.74048E-02 1.52579E+00-4.99800E-14-2.63014E-13
 -1      3018 2.19366E+01 1.32366E+00 2.12930E-03 1.38695E+00-1.04117E-13-3.09033E-13
 -1      3019 2.16872E+01 1.49102E-01 8.66124E-03 1.53207E+00-7.79990E-14-2.88776E-13
 -1      3020 2.17395E+01-2.03384E-01-1.16667E-02 1.48820E+00-7.41800E-14-3.22198E-13
 -1      3021 2.21527E+01 3.87035E-01 9.70000E-03 1.61148E+00-8.91776E-14-2.63384E-13
 -1      3022 2.17299E+01-4.79410E-01 3.46153E-04 1.32953E+00-5.48145E-14-3.08739E-13
 -1      3023 2.17326E+01-6.89591E-01-4.03325E-03 1.18119E+00-3.17741E-14-3.12854E-13
 -1      3024 2.22026E+01-4.17605E-01 1.04351E-02 1.41901E+00-6.22208E-14-3.02131E-13
 -1      3025 2.16112E+01-8.22624E-01-4.87849E-03 9.57726E-01 7.12725E-15-3.12766E-13
 -1      3026 2.15642E+01-8.89045E-01 2.44424E-03 7.73782E-01 7.83190E-14-2.32587E-13
 -1      3027 2.20378E+01-8.99512E-01 5.77674E-03 1.00685E+00 2.20089E-14-2.73557E-13
 -1      3028 2.13785E+01-9.02038E-01-6.42543E-03 5.61122E-01 9.87172E-14-2.71839E-13
 -1      3029 2.12987E+01-8.66344E-01 5.95214E-03 3.90132E-01 5.86987E-14-2.64112E-13
 -1      3030 2.17177E+01-1.05432E+00 1.43975E-04 5.57496E-01 6.11854E-14-2.81737E-13
 -1      3031 2.10996E+01-8.05356E-01-5.64106E-03 2.25325E-01 1.24373E-14-2.92383E-13
 -1      3032 2.10074E+01-7.17303E-01 6.83771E-03 9.08052E-02-5.25472E-15-2.87793E-13
 -1      3033 2.13380E+01-9.75019E-01-3.62999E-03 1.82106E-01 3.53483E-14-2.78290E-13
 -1      3034 2.08288E+01-6.25312E-01-4.00687E-03-1.88698E-02-7.46127E-14-2.46961E-13
 -1      3035 2.07401E+01-5.23394E-01 6.17312E-03-1.11783E-01-9.73893E-14-2.81728E-13
 -1      3036 2.09755E+01-7.76113E-01-5.16595E-03-8.20972E-02-3.26316E-14-2.80730E-13
 -1      3037 2.05970E+01-4.29652E-01-2.42567E-03-1.74089E-01-6.22322E-14-2.33647E-13
 -1      3038 2.05206E+01-3.36671E-01 4.84943E-03-2.30026E-01-1.31057E-14-1.66080E-13
 -1      3039 2.06718E+01-5.45863E-01-5.14241E-03-2.41517E-01-5.31290E-14-1.78653E-13
 -1      3040 2.04148E+01-2.56659E-01-1.21954E-03-2.57213E-01 2.32973E-15-2.05257E-13
 -1      3041 2.03536E+01-1.82721E-01 3.44311E-03-2.84399E-01 3.58628E-14-2.35776E-13
 -1      3042 2.04393E+01-3.36082E-01-4.37023E-03-3.19545E-01 6.68600E-16-1.17961E-13
 -1      3043 2.02805E+01-1.22078E-01-3.99899E-04-2.88129E-01 3.28023E-14-2.27885E-13
 -1      3044 2.02338E+01-6.92015E-02 2.23075E-03-2.95089E-01-9.21884E-15-2.34382E-13
 -1      3045 2.02734E+01-1.69385E-01-3.34865E-03-3.41314E-01 1.01085E-14-2.28329E-13
 -1      3046 2.01862E+01-2.76840E-02 1.04034E-04-2.84701E-01-5.22745E-15-2.35800E-13
 -1      3047 2.01516E+01 6.41652E-03 1.30022E-03-2.78739E-01 1.17624E-14-2.61107E-13
 -1      3048 2.01619E+01-5.01758E-02-2.37855E-03-3.27974E-01 9.15216E-15-2.08574E-13
 -1      3049 2.01225E+01 3.18708E-02 3.82645E-04-2.60971E-01 5.61133E-14-1.75015E-13
 -1      3050 2.00973E+01 5.11703E-02 6.44728E-04-2.47708E-01 1.89966E-13-2.05651E-13
 -1      3051 2.00909E+01 2.67699E-02-1.59138E-03-2.95229E-01 9.69725E-14-9.80941E-14
 -1      3052 2.00806E+01 6.44798E-02 5.13467E-04-2.27079E-01 2.76132E-13-1.94976E-13
 -1      3053 2.00625E+01 7.31326E-02 2.17677E-04-2.10521E-01 1.80415E-13-1.83060E-13
 -1      3054 2.00483E+01 7.04173E-02-1.00993E-03-2.53811E-01 2.31863E-13-7.79776E-14
 -1      3055 2.00538E+01 7.80209E-02 5.52001E-04-1.89857E-01 1.08973E-13-1.53102E-13
 -1      3056 2.00407E+01 7.96382E-02-3.70403E-05-1.72659E-01 5.94824E-14-8.24209E-14
 -1      3057 2.00242E+01 9.00944E-02-6.09195E-04-2.10587E-01 1.46892E-13-1.34040E-13
 -1      3058 2.00367E+01 7.91790E-02 5.35645E-04-1.53581E-01-4.32470E-15-1.09928E-13
 -1      3059 2.00272E+01 7.65801E-02-1.71000E-04-1.37357E-01 2.27606E-14-1.09408E-13
 -1      3060 2.00116E+01 9.38999E-02-3.48939E-04-1.69629E-01 2.29447E-14-1.17702E-13
 -1      3061 2.00259E+01 7.30860E-02 4.89003E-04-1.20667E-01 6.27698E-14-1.33723E-13
 -1      3062 2.00189E+01 6.83025E-02-2.25930E-04-1.06281E-01 8.37448E-14-8.42870E-14
 -1      3063 2.00058E+01 8.81600E-02-1.89413E-04-1.33091E-01 1.46851E-14-7.91941E-14
 -1      3064 2.00188E+01 6.33872E-02 4.28003E-04-9.22483E-02 1.25063E-13-6.24939E-14
 -1      3065 2.00136E+01 5.77812E-02-2.32876E-04-8.00563E-02 3.45427E-14-2.14499E-15
 -1      3066 2.00035E+01 7.74418E-02-9.74647E-05-1.01866E-01 1.47769E-13-2.55968E-13
 -1      3067 2.00141E+01 5.24914E-02 3.62688E-04-6.86292E-02-1.25504E-14 6.44977E-14
 -1      3068 2.00102E+01 4.69077E-02-2.13480E-04-5.86610E-02-5.01835E-14 7.04923E-14
 -1      3069 2.00030E+01 6.48166E-02-4.81812E-05-7.60625E-02 6.02528E-14-3.81172E-14
 -1      3070 2.00108E+01 4.18663E-02 2.99192E-04-4.96087E-02-1.14442E-13 1.59242E-13
 -1      3071 2.00079E+01 3.67769E-02-1.81977E-04-4.17050E-02-6.97114E-14 1.93564E-13
 -1      3072 2.00032E+01 5.21972E-02-2.42555E-05-5.53311E-02-6.15587E-14 7.04648E-14
 -1      3073 2.00084E+01 3.23101E-02 2.41033E-04-3.47128E-02-1.21856E-14 2.61723E-13
 -1      3074 2.00062E+01 2.79348E-02-1.47150E-04-2.86187E-02 1.37030E-13 2.56461E-13
 -1      3075 2.00035E+01 4.06602E-02-1.43457E-05-3.90893E-02-1.22025E-14 2.80644E-13
 -1      3076 2.00066E+01 2.41731E-02 1.89960E-04-2.33483E-02 1.01642E-13 2.88685E-13
 -1      3077 2.00049E+01 2.05714E-02-1.13974E-04-1.87745E-02 1.75008E-13 2.51013E-13
 -1      3078 2.00037E+01 3.07134E-02-1.14320E-05-2.66645E-02 1.52924E-13 3.19779E-13
 -1      3079 2.00051E+01 1.75256E-02 1.46548E-04-1.49004E-02 1.27723E-13 9.39267E-14
 -1      3080 2.00038E+01 1.46635E-02-8.49051E-05-1.15615E-02 9.74358E-14 7.18123E-15
 -1      3081 2.00037E+01 2.25018E-02-1.14462E-05-1.73828E-02 7.29175E-14 1.14196E-13
 -1      3082 2.00039E+01 1.22775E-02 1.10636E-04-8.79039E-03 1.41298E-13-1.04107E-13
 -1      3083 2.00030E+01 1.00723E-02-6.08405E-05-6.42565E-03 4.82342E-16-1.29150E-13
 -1      3084 2.00035E+01 1.59567E-02-1.22465E-05-1.06207E-02 2.47787E-14 2.44545E-15
 -1      3085 2.00029E+01 8.25810E-03 8.16313E-05-4.50497E-03 3.65747E-14-2.55217E-14
 -1      3086 2.00023E+01 6.60782E-03-4.17689E-05-2.88862E-03 1.48115E-13 2.94001E-14
 -1      3087 2.00032E+01 1.08977E-02-1.28325E-05-5.82959E-03 7.92268E-14 1.13985E-15
 -1      3088 2.00021E+01 5.26794E-03 5.87179E-05-1.60824E-03 1.44187E-13 5.40044E-14
 -1      3089 2.00017E+01 4.06875E-03-2.72062E-05-5.52118E-04 1.35736E-13-2.45885E-15
 -1      3090 2.00028E+01 7.09825E-03-1.28566E-05-2.54520E-03 2.13876E-13 1.32012E-14
 -1      3091 2.00015E+01 3.10868E-03 4.09984E-05 2.57742E-04 1.33466E-13-5.79992E-14
 -1      3092 2.00012E+01 2.26471E-03-1.64647E-05 9.05539E-04 9.99129E-14-1.05859E-13
 -1      3093 2.00024E+01 4.32604E-03-1.23003E-05-3.86164E-04 8.36735E-14-1.21190E-13
 -1      3094 2.00010E+01 1.59979E-03 2.75847E-05 1.37869E-03-9.11401E-15-7.79020E-14
 -1      3095 2.00008E+01 1.02769E-03-8.81718E-06 1.73745E-03-7.36161E-14-1.37444E-13
 -1      3096 2.00019E+01 2.36540E-03-1.12871E-05 9.52626E-04 4.75005E-15-1.10722E-14
 -1      3097 2.00007E+01 5.85819E-04 1.76560E-05 1.97692E-03-3.60219E-14-4.07350E-14
 -1      3098 2.00005E+01 2.16102E-04-3.58712E-06 2.13796E-03-9.33825E-15-4.08586E-14
 -1      3099 2.00015E+01 1.02796E-03-9.98698E-06 1.70957E-03-4.19493E-14 8.76488E-15
 -1      3100 2.00004E+01-6.18972E-05 1.04887E-05 2.22124E-03-1.19364E-13 6.23096E-14
 -1      3101 2.00003E+01-2.85335E-04-1.88924E-07 2.25269E-03-1.12366E-13-2.53229E-14
 -1      3102 2.00012E+01 1.56139E-04-8.55716E-06 2.06680E-03-6.67961E-15 9.59836E-14
 -1      3103 2.00002E+01-4.46695E-04 5.46781E-06 2.23663E-03 1.37584E-14-4.18541E-14
 -1      3104 2.00001E+01-5.68050E-04 1.86040E-06 2.18794E-03 4.26308E-14-8.64538E-14
 -1      3105 2.00009E+01-3.77763E-04-7.12443E-06 2.16022E-03-1.01033E-13 1.77990E-13
 -1      3106 2.00000E+01-6.49638E-04 2.08958E-06 2.11305E-03 7.03137E-14-1.29051E-13
 -1      3107 2.00000E+01-7.03043E-04 2.94814E-06 2.01890E-03-2.64519E-14-2.10678E-13
 -1      3108 2.00006E+01-6.74666E-04-5.77720E-06 2.08869E-03 6.83231E-14 9.07075E-14
 -1      3109 1.99999E+01-7.33140E-04-5.66146E-08 1.91305E-03-7.01988E-14-1.82741E-13
 -1      3110 1.99999E+01-7.44555E-04 3.38120E-06 1.79673E-03 2.35875E-14-1.45369E-13
 -1      3111 2.00004E+01-8.12711E-04-4.56224E-06 1.92193E-03 1.02456E-15 6.90279E-14
 -1      3112 1.99998E+01-7.44703E-04-1.33055E-06 1.67824E-03-4.33335E-14-4.40651E-14
 -1      3113 1.99998E+01-7.34027E-04 3.14283E-06 1.55448E-03-2.31662E-13 2.18661E-14
 -1      3114 2.00002E+01-8.51458E-04-3.54833E-06 1.70720E-03 1.11986E-13-7.16927E-14
 -1      3115 1.99998E+01-7.19096E-04-1.70971E-06 1.43352E-03-3.24940E-13 1.13678E-13
 -1      3116 1.99998E+01-7.01895E-04 3.28028E-06 1.31198E-03-4.59100E-13 9.54836E-14
 -1      3117 2.00001E+01-8.36083E-04-2.59070E-06 1.47536E-03-1.67274E-13 1.20167E-13
 -1      3118 2.02635E+01-3.67198E+00 2.53455E-02 5.00490E+00-2.08916E-13-2.86354E-13
 -1      3119 1.68405E+01 1.33424E+00-1.41998E-02 2.91240E+00-2.90089E-13-4.48582E-14
 -1      3120 1.65287E+01 9.23273E-01 1.62806E-02 3.34698E+00-3.30520E-13-7.67164E-14
 -1      3121 2.00004E+01-1.09816E-03-1.49458E-06 6.97911E-04 5.07163E-15-6.84611E-14
 -1      3122 2.00004E+01-1.15339E-03 4.11716E-06 5.72484E-04 4.17618E-14 2.65787E-13
 -1      3123 2.00004E+01-1.07212E-03-1.09529E-06 8.28322E-04 5.85209E-15 1.12085E-13
 -1      3124 1.91664E+01 1.18746E+00-1.38356E-02 1.38600E+00-1.85117E-14 4.11348E-14
 -1      3125 1.90158E+01 1.32281E+00 1.12088E-03 1.58076E+00-9.39405E-14-9.37564E-17
 -1      3126 1.78926E+01 1.54119E+00-2.23360E-02 2.27378E+00-1.73235E-13 2.77998E-14
 -1      3127 1.76270E+01 1.50396E+00 1.50771E-02 2.57385E+00-1.87917E-13-5.84671E-14
 -1      3128 1.62019E+01 1.68494E+00 4.25074E-02 2.35492E+00-2.62481E-13-1.09838E-14
 -1      3129 1.95421E+01 9.29785E-01-1.00974E-02 1.08873E+00-1.47886E-13 1.62878E-13
 -1      3130 1.94538E+01 1.05972E+00 7.82278E-04 1.24934E+00-1.17321E-13 3.08624E-14
 -1      3131 1.88961E+01 1.28737E+00 1.61774E-02 1.14062E+00-1.21480E-13 9.37848E-14
 -1      3132 1.97826E+01 6.95742E-01-7.14002E-03 8.34884E-01-5.03542E-14 1.87140E-14
 -1      3133 1.97374E+01 8.09759E-01 1.43816E-03 9.69699E-01-3.21770E-14 1.25065E-13
 -1      3134 1.93439E+01 9.98208E-01 1.09221E-02 9.16901E-01-1.16059E-13 1.28915E-13
 -1      3135 1.99154E+01 5.18203E-01-4.92989E-03 6.41049E-01-6.39605E-14-2.19775E-14
 -1      3136 1.99010E+01 6.03686E-01 1.79830E-03 7.42711E-01-6.17883E-14-6.92889E-14
 -1      3137 1.96279E+01 7.53483E-01 7.01340E-03 7.26134E-01 1.22862E-15 1.23113E-14
 -1      3138 1.99874E+01 3.82094E-01-3.46796E-03 4.86953E-01 4.59780E-14 4.61709E-15
 -1      3139 1.99883E+01 4.47317E-01 1.90193E-03 5.66132E-01 1.97918E-14 2.80561E-14
 -1      3140 1.97982E+01 5.63509E-01 4.37546E-03 5.69523E-01 2.28913E-14 1.83149E-14
 -1      3141 2.00228E+01 2.80267E-01-2.41274E-03 3.66158E-01 1.02108E-14-3.83014E-14
 -1      3142 2.00313E+01 3.28923E-01 1.76265E-03 4.27067E-01 5.07889E-14 3.05936E-15
 -1      3143 1.99003E+01 4.17759E-01 2.66027E-03 4.40379E-01 3.86099E-14 2.78487E-14
 -1      3144 2.00370E+01 2.05011E-01-1.66601E-03 2.72536E-01-2.85889E-14-2.52391E-15
 -1      3145 2.00483E+01 2.40936E-01 1.53837E-03 3.18948E-01-5.27056E-14-2.63912E-14
 -1      3146 1.99590E+01 3.08102E-01 1.56366E-03 3.36026E-01-3.11301E-14-4.74370E-14
 -1      3147 2.00395E+01 1.49594E-01-1.19583E-03 2.00636E-01-5.97344E-14 6.26739E-14
 -1      3148 2.00512E+01 1.76074E-01 1.27875E-03 2.35756E-01 8.88375E-15 5.55721E-14
 -1      3149 1.99911E+01 2.26545E-01 8.90895E-04 2.53121E-01-4.39298E-14 1.25848E-13
 -1      3150 2.00361E+01 1.07265E-01-8.20894E-04 1.43568E-01 1.60880E-14-6.24328E-14
 -1      3151 2.00470E+01 1.27354E-01 1.02914E-03 1.70931E-01-3.23972E-14-3.20212E-14
 -1      3152 2.00074E+01 1.65034E-01 5.27501E-04 1.86860E-01 4.56528E-15 1.51849E-13
 -1      3153 2.00306E+01 7.79281E-02-5.38555E-04 1.02911E-01 1.25571E-13-2.38454E-14
 -1      3154 2.00395E+01 9.20064E-02 8.28158E-04 1.22300E-01 5.01681E-14-1.11322E-13
 -1      3155 2.00142E+01 1.19567E-01 2.06927E-04 1.35780E-01 1.04083E-13 1.75577E-13
 -1      3156 2.00245E+01 5.62884E-02-3.69350E-04 7.24742E-02 2.03784E-13-1.40309E-13
 -1      3157 2.00317E+01 6.66567E-02 6.46027E-04 8.68170E-02 1.79309E-13-8.00060E-14
 -1      3158 2.00158E+01 8.70460E-02 6.62220E-05 9.79011E-02 1.85488E-13 2.63337E-13
 -1      3159 2.00189E+01 4.03408E-02-2.53145E-04 4.99349E-02 1.23291E-13-3.78854E-13
 -1      3160 2.00245E+01 4.79834E-02 4.97762E-04 6.04556E-02 1.84564E-13-3.66966E-13
 -1      3161 2.00149E+01 6.29893E-02-5.93939E-06 6.92750E-02 2.65944E-13-1.50939E-13
 -1      3162 2.00140E+01 2.85940E-02-1.72552E-04 3.34363E-02-8.70376E-14-6.72062E-14
 -1      3163 2.00183E+01 3.42213E-02 3.78560E-04 4.10685E-02-5.46278E-15-1.74150E-13
 -1      3164 2.00130E+01 4.51891E-02-4.01700E-05 4.79063E-02-5.91160E-14-2.10188E-13
 -1      3165 2.00100E+01 1.99469E-02-1.25181E-04 2.15189E-02 1.53001E-13-6.29962E-14
 -1      3166 2.00133E+01 2.40948E-02 2.84322E-04 2.69869E-02 2.94865E-15-1.37820E-13
 -1      3167 2.00107E+01 3.20379E-02-5.19905E-05 3.21669E-02-1.87994E-14-8.78510E-14
 -1      3168 2.00068E+01 1.33729E-02-8.39476E-05 1.27141E-02-2.92074E-14-2.00875E-13
 -1      3169 2.00092E+01 1.64942E-02 2.08449E-04 1.66947E-02 8.00726E-14-1.13783E-13
 -1      3170 2.00084E+01 2.21956E-02-3.97066E-05 2.05359E-02 1.60562E-13-2.76751E-14
 -1      3171 2.00045E+01 8.88740E-03-5.00313E-05 6.95821E-03-2.23066E-13-2.49174E-13
 -1      3172 2.00061E+01 1.10354E-02 1.52048E-04 9.55081E-03-1.01048E-13-2.55548E-13
 -1      3173 2.00064E+01 1.49616E-02-5.00731E-05 1.22821E-02-3.31920E-15-2.29065E-13
 -1      3174 2.00028E+01 5.66443E-03-3.09387E-05 3.06735E-03-3.16676E-13-4.21818E-13
 -1      3175 2.00039E+01 7.19241E-03 1.07348E-04 4.79408E-03-3.13145E-13-3.38613E-13
 -1      3176 2.00048E+01 9.90438E-03-4.34023E-05 6.72213E-03-8.29231E-14-3.87745E-13
 -1      3177 2.00016E+01 3.39109E-03-1.83694E-05 5.37517E-04-6.34296E-14-6.31917E-13
 -1      3178 2.00023E+01 4.46240E-03 7.48809E-05 1.64179E-03-1.32716E-13-4.90449E-13
 -1      3179 2.00035E+01 6.28182E-03-3.59416E-05 2.96149E-03-9.46792E-14-6.17534E-13
 -1      3180 2.00008E+01 1.81883E-03-1.11027E-05-1.02115E-03 1.24713E-13-4.18411E-13
 -1      3181 2.00012E+01 2.55696E-03 5.10645E-05-3.56093E-04-7.67002E-14-5.67188E-13
 -1      3182 2.00025E+01 3.73069E-03-2.88084E-05 5.13643E-04-1.43972E-13-5.64256E-13
 -1      3183 2.00002E+01 7.24920E-04-5.15333E-06-1.92888E-03-5.31638E-14-2.81970E-13
 -1      3184 2.00004E+01 1.22910E-03 3.32557E-05-1.56116E-03 1.81889E-13-3.40871E-13
 -1      3185 2.00017E+01 1.94886E-03-2.02378E-05-1.01728E-03 8.59346E-14-2.37618E-13
 -1      3186 1.99998E+01 6.64864E-05-3.61396E-07-2.32327E-03-1.65689E-13-1.73774E-13
 -1      3187 2.00000E+01 3.69478E-04 2.03994E-05-2.17817E-03-1.39997E-13-3.78916E-13
 -1      3188 2.00011E+01 7.52813E-04-1.73354E-05-1.87336E-03-4.50046E-14-3.94532E-13
 -1      3189 1.99996E+01-3.33357E-04 1.94032E-06-2.42314E-03 1.91835E-14-2.84300E-13
 -1      3190 1.99997E+01-1.55568E-04 1.12525E-05-2.40793E-03-6.02565E-14-2.56103E-13
 -1      3191 2.00006E+01 1.85408E-05-1.30636E-05-2.25736E-03-1.37990E-13-4.16047E-13
 -1      3192 1.99995E+01-5.52012E-04 3.07945E-06-2.33928E-03 5.60642E-14-4.52320E-13
 -1      3193 1.99995E+01-4.59122E-04 5.28324E-06-2.40255E-03-7.02624E-15-3.94175E-13
 -1      3194 2.00003E+01-4.22345E-04-9.64908E-06-2.35422E-03 1.61957E-13-4.42515E-13
 -1      3195 1.99995E+01-6.49577E-04 3.51981E-06-2.15022E-03 1.52678E-13-4.05313E-13
 -1      3196 1.99994E+01-6.12535E-04 1.37281E-06-2.25680E-03 2.15355E-13-3.72471E-13
 -1      3197 2.00001E+01-6.60201E-04-6.98931E-06-2.27274E-03 1.14622E-13-5.44406E-13
 -1      3198 1.99995E+01-6.71313E-04 3.62280E-06-1.90904E-03-2.39206E-13-2.57719E-13
 -1      3199 1.99994E+01-6.68123E-04-9.73042E-07-2.03545E-03-1.44105E-13-3.82958E-13
 -1      3200 2.00000E+01-7.63556E-04-4.96092E-06-2.08911E-03-2.26753E-14-4.13000E-13
 -1      3201 1.99995E+01-6.49156E-04 3.28341E-06-1.63631E-03-5.32758E-14-1.94130E-13
 -1      3202 1.99994E+01-6.64802E-04-2.21548E-06-1.77456E-03-1.47592E-13-3.42566E-13
 -1      3203 1.99999E+01-7.82588E-04-3.53954E-06-1.84827E-03-1.50277E-13-4.98669E-13
 -1      3204 1.99995E+01-6.11398E-04 2.62604E-06-1.37815E-03-2.26439E-13-5.23262E-13
 -1      3205 1.99995E+01-6.32203E-04-2.91314E-06-1.50737E-03-1.14435E-13-3.88811E-13
 -1      3206 1.99998E+01-7.56007E-04-2.27526E-06-1.58929E-03 3.52544E-14-5.93289E-13
 -1      3207 1.99996E+01-5.79128E-04 4.03748E-07-1.13208E-03 1.58157E-13-9.06303E-13
 -1      3208 1.99995E+01-5.93987E-04-3.07927E-06-1.25365E-03 1.19955E-14-6.19120E-13
 -1      3209 1.99998E+01-7.13608E-04-1.16837E-06-1.33819E-03 2.25228E-14-7.69249E-13
 -1      3210 1.99997E+01-6.08734E-04-1.54924E-06-9.69218E-04 1.25817E-13-7.33145E-13
 -1      3211 1.99996E+01-5.92298E-04-3.73605E-06-1.05758E-03 1.38592E-13-8.97120E-13
 -1      3212 1.99998E+01-6.99069E-04 9.09912E-07-1.13493E-03 3.06907E-13-6.09485E-13
 -1      3213 1.99998E+01-7.13493E-04 4.56482E-06-9.79180E-04 2.80702E-13-4.36211E-13
 -1      3214 2.00006E+01-1.25507E-03 1.50630E-06 8.67201E-05-1.40467E-13 6.50074E-13
 -1      3215 2.00006E+01-1.25609E-03 1.60204E-06-7.43889E-05-2.28299E-13 6.54138E-13
 -1      3216 1.17282E+01 1.05679E+00 1.48371E-02 5.40307E+00 6.36935E-13-3.20396E-13
 -1      3217 9.88765E+00 2.13066E+00 1.18638E-01 3.80496E+00 6.03722E-13-4.51791E-13
 -1      3218 2.95352E+01-1.25854E+00-9.93325E-02-1.92060E-01 1.32838E-13-4.53748E-13
 -1      3219 2.90756E+01-4.02433E-02-7.04039E-02 9.56958E-01 9.30644E-14-4.63143E-13
 -1      3220 2.82951E+01 3.03194E-01-1.60512E-01-1.22416E+00-3.37022E-13 1.48312E-13
 -1      3221 2.81381E+01-9.86299E-01 2.38034E-02-2.68275E-01-1.98484E-13 1.65576E-13
 -1      3222 2.82678E+01-2.33143E+00-2.65721E-02-4.73228E-01 2.51443E-13-3.88772E-13
 -1      3223 1.94906E+01-3.45263E+00 1.53984E-01-5.85047E+00 3.78392E-13 1.34528E-13
 -1      3224 2.20498E+01-4.44753E+00-1.18850E-01-5.01878E+00 4.13766E-13-1.05905E-13
 -1      3225 1.51242E+01 2.53540E+00 4.89622E-02-1.83960E+00 3.02057E-13-2.42729E-13
 -1      3226 2.82089E+01 2.04717E+00-7.40927E-02 1.87723E+00-6.11872E-14-4.07986E-13
 -1      3227 2.75378E+01 3.68021E+00-1.51056E-01 1.93945E+00-1.63258E-13-3.85372E-13
 -1      3228 1.96531E+01-4.23068E+00 5.65485E-02 5.26163E+00-1.56153E-13-2.31010E-13
 -1      3229 2.48795E+01-4.11238E+00 1.02485E-01-3.18901E+00 3.98070E-13-2.27905E-13
 -1      3230 2.64438E+01-3.59558E+00-1.00604E-01-1.55867E+00 3.09966E-13-2.73715E-13
 -1      3231 2.70321E+01 5.20884E+00-9.13870E-02 1.53715E+00-2.65732E-13-3.91215E-13
 -1      3232 2.64657E+01 5.98663E+00-1.27892E-01 6.20406E-01-3.92200E-13-2.98168E-13
 -1      3233 2.20815E+01 3.15726E-01-5.79652E-03-1.64727E+00-7.55663E-14-3.94721E-13
 -1      3234 2.20702E+01 1.92121E-01-9.69040E-03-1.62670E+00-9.79544E-14-3.74619E-13
 -1      3235 2.20704E+01 5.63869E-01-1.67202E-02-1.54590E+00-2.04363E-14-4.70041E-13
 -1      3236 2.20754E+01 4.28174E-01-3.13462E-03-1.57017E+00-4.43213E-14-4.23458E-13
 -1      3237 2.22569E+01 6.03812E-01 1.42299E-02-1.29816E+00 2.47281E-14-3.97431E-13
 -1      3238 1.99998E+01-6.75808E-04-2.56817E-06 9.73028E-04-6.23697E-14 2.44636E-13
 -1      3239 2.00000E+01-8.24862E-04 6.39593E-06 9.69095E-04-1.36997E-13 6.39840E-13
 -1      3240 2.00001E+01-8.95296E-04 1.58832E-06 1.01538E-03-1.51753E-13 4.27952E-13
 -1      3241 1.99998E+01-6.80967E-04-1.77895E-06 1.06965E-03-1.90869E-13 2.20023E-13
 -1      3242 1.25685E+01 2.92142E+00 1.72426E-02 3.65658E+00 6.39626E-13-3.32907E-13
 -1      3243 1.38276E+01 2.40621E+00 6.27451E-02 4.15138E+00 6.48136E-13-2.91642E-13
 -1      3244 2.21574E+01 1.83056E-01 4.72090E-04-1.70855E+00-1.15132E-13-3.01268E-13
 -1      3245 2.20566E+01 2.96772E-01-3.35244E-05-1.68881E+00-1.13304E-13-2.82836E-13
 -1      3246 2.24998E+01 4.66377E-01 1.19639E-02-1.77461E+00-1.15136E-13-2.14997E-13
 -1      3247 1.85900E+01 1.43534E+00-1.84892E-02 1.75230E+00-1.47876E-13 3.23911E-14
 -1      3248 1.83720E+01 1.53667E+00 7.01035E-03 1.98440E+00-1.51151E-13-6.17984E-15
 -1      3249 1.82248E+01 1.57916E+00 2.13013E-02 1.39465E+00-1.16055E-13 1.64907E-14
 -1      3250 1.72306E+01-1.45370E+00-3.14722E-02 6.26650E+00 5.44495E-13-6.78416E-14
 -1      3251 1.46807E+01-1.78489E-02 1.47344E-01 6.02770E+00 6.25881E-13-1.85886E-13
 -1      3252 2.75479E+01 3.77578E+00-1.75299E-01-2.05793E+00-5.15796E-13 7.39131E-14
 -1      3253 2.81164E+01 2.18272E+00-2.55094E-02-1.97570E+00-4.31641E-13 1.52316E-13
 -1      3254 1.59395E+01 1.15150E+00-1.54832E-02 4.73585E+00 6.27494E-13-1.91704E-13
 -1      3255 1.76824E+01 5.75848E-01 3.91078E-02 4.44098E+00 5.81745E-13-1.77635E-13
 -1      3256 9.81599E+00 2.70445E+00 8.24420E-02 9.28068E-01 4.79356E-13-4.74870E-13
 -1      3257 1.04808E+01 2.45631E+00 2.03226E-01-1.10418E+00 3.53051E-13-5.24386E-13
 -1      3258 1.01750E+01 7.39534E-01 9.48364E-02-2.81407E+00 5.29542E-14 5.84519E-13
 -1      3259 1.12834E+01-8.37601E-02 6.77105E-02-4.49507E+00 1.48027E-13 6.26957E-13
 -1      3260 1.33248E+01-1.13677E+00 1.29014E-01-5.57686E+00 3.02106E-13 5.88959E-13
 -1      3261 1.61308E+01-2.65413E+00-4.21517E-02-6.28844E+00 3.67956E-13 4.16889E-13
 -1      3262 1.37027E+01-3.13824E-01 1.16199E-01-4.58690E+00 1.91066E-13 5.33483E-13
 -1      3263 2.00005E+01-1.20684E-03-3.35665E-08 4.13835E-04 2.41772E-14 5.08230E-13
 -1      3264 2.00006E+01-1.23563E-03 2.97348E-06 2.64665E-04-4.56257E-14 6.93982E-13
 -1      3265 2.00007E+01-1.26770E-03-3.29852E-06 1.90474E-04-5.33979E-14 7.86659E-13
 -1      3266 2.00006E+01-1.20080E-03-2.94663E-06 5.36751E-04-1.00664E-13 4.11543E-13
 -1      3267 2.31293E+01-3.33807E+00-8.22139E-02 4.49145E+00 2.92072E-13 1.01625E-13
 -1      3268 2.04247E+01-2.44825E+00 9.99016E-02 5.50558E+00 4.49397E-13 4.21590E-14
 -1      3269 2.78264E+01-7.84168E-01-3.28515E-02 9.40411E-01 1.25219E-13-3.79335E-13
 -1      3270 2.81161E+01 5.76630E-01-1.20604E-01 1.48914E+00 2.05530E-14-3.93068E-13
 -1      3271 2.70902E+01 1.07938E+00-4.20594E-02 1.85048E+00-8.03871E-15-3.01481E-13
 -1      3272 1.03343E+01 1.35263E+00 6.33750E-02-3.10967E-01-1.92683E-13 3.04784E-13
 -1      3273 1.00789E+01 1.21046E+00 1.45274E-01-1.72027E+00-7.84390E-14 4.08062E-13
 -1      3274 1.16862E+01 1.15015E+00 8.96807E-02-2.30690E+00-1.52135E-15 4.29129E-13
 -1      3275 2.69908E+01-1.59953E+00-1.21181E-02 1.93622E-01-6.46050E-14 1.21257E-13
 -1      3276 1.40814E+01 1.07672E+00 1.03758E-01 5.18663E+00 6.31925E-13-2.68736E-13
 -1      3277 2.23740E+01 4.07207E-01 1.18199E-02-5.56553E-01 1.66451E-13-2.65988E-13
 -1      3278 2.23198E+01 4.52639E-01-1.62160E-02-9.49801E-01 9.45884E-14-3.07550E-13
 -1      3279 2.24722E+01 3.02816E-01-1.95791E-03-1.09065E+00 6.62067E-14-3.04496E-13
 -1      3280 1.99998E+01-6.90374E-04-9.76228E-07 1.16371E-03-3.87424E-13 1.98236E-13
 -1      3281 2.60223E+01 5.81189E+00-1.22664E-01 4.01921E-02-3.94421E-13-2.48300E-13
 -1      3282 2.54918E+01 5.54926E+00-3.59582E-02-5.82679E-01-4.11143E-13-1.61480E-13
 -1      3283 2.52250E+01 5.08205E+00-6.55263E-02 5.76605E-01-2.94022E-13-3.13111E-13
 -1      3284 1.94314E+01-1.43926E+00 7.79289E-02 5.20171E+00 5.22089E-13-4.07382E-14
 -1      3285 2.00007E+01-1.27071E-03-3.31075E-06-1.77670E-04-1.85630E-13 2.90496E-13
 -1      3286 2.00006E+01-1.23974E-03 2.92061E-06-2.54458E-04-1.48689E-13 3.15674E-13
 -1      3287 2.00005E+01-1.21180E-03 1.87608E-07-4.07054E-04-1.96633E-14-1.16302E-13
 -1      3288 2.43037E+01-2.67767E+00 4.68506E-02 3.05259E+00 2.37782E-13 1.01776E-13
 -1      3289 2.00004E+01-1.16055E-03 3.90458E-06-5.68820E-04 7.82601E-14-1.60297E-13
 -1      3290 2.00004E+01-1.10502E-03-9.12184E-07-6.95337E-04 1.05147E-13-3.30094E-13
 -1      3291 2.00006E+01-1.20895E-03-2.94825E-06-5.29245E-04 4.27916E-15-2.57883E-13
 -1      3292 2.00000E+01-8.08709E-04-3.12314E-06 1.21167E-03-4.01348E-13 4.27453E-13
 -1      3293 2.65606E+01 4.16157E+00-8.57267E-02-1.85601E+00-4.57488E-13 2.84772E-14
 -1      3294 1.15065E+01 2.85082E+00 1.14236E-01 3.23063E+00 6.06874E-13-3.92346E-13
 -1      3295 9.76195E+00 2.73547E+00 1.41942E-01 2.65969E+00 5.69203E-13-4.69402E-13
 -1      3296 2.73151E+01-2.65648E+00-1.12909E-02-4.63751E-01 2.77060E-13-3.16247E-13
 -1      3297 2.74984E+01-2.08785E+00-9.11509E-02 1.07791E-01 2.13805E-13-3.47167E-13
 -1      3298 1.83548E+01-2.59175E+00 8.06123E-02-5.45112E+00 3.41442E-13 1.84186E-13
 -1      3299 2.24059E+01 3.23211E-01 1.48558E-02-1.51619E+00-6.61558E-15-3.74049E-13
 -1      3300 2.63963E+01 3.82699E+00-7.95029E-02 1.71892E+00-1.84665E-13-3.87058E-13
 -1      3301 1.12505E+01 5.03680E-01 1.86844E-01 3.04536E+00-2.22645E-13 2.17881E-13
 -1      3302 1.09099E+01 1.10632E+00 7.30713E-02 1.80549E+00-2.61957E-13 2.19019E-13
 -1      3303 1.32172E+01 3.02528E-01 5.00138E-02 3.59580E+00-3.09575E-13-1.20459E-14
 -1      3304 2.73154E+01 1.05586E+00-5.57221E-02-1.70064E+00-3.17024E-13 1.35107E-13
 -1      3305 2.34770E+01-3.81317E+00 4.08653E-02-3.48629E+00 3.57967E-13-1.72957E-13
 -1      3306 2.60919E+01-3.11573E+00-3.62043E-03-8.92835E-01 2.57979E-13-1.95267E-13
 -1      3307 1.73567E+01 1.76664E+00 2.47367E-02 1.78781E+00-1.73044E-13-4.33377E-14
 -1      3308 2.24774E+01 1.76289E-01-2.76743E-03-1.66662E+00-7.23328E-14-3.19828E-13
 -1      3309 2.00003E+01-1.03303E-03 4.21657E-06-8.01325E-04 2.81530E-13-5.48298E-13
 -1      3310 2.00002E+01-9.67209E-04-1.17368E-06-8.74016E-04 4.10641E-13-8.28712E-13
 -1      3311 2.00004E+01-1.09522E-03-3.38706E-06-8.05643E-04 6.62328E-14-4.90004E-13
 -1      3312 1.41075E+01 1.38781E+00 1.11820E-01 2.70714E+00-3.37751E-13 8.06299E-15
 -1      3313 1.52022E+01 6.44156E-01 3.54657E-02 3.50419E+00-3.14040E-13-3.25712E-14
 -1      3314 1.99733E+01-2.85408E+00 1.90185E-01-4.68182E+00-2.79818E-13-2.85494E-13
 -1      3315 1.90687E+01-6.09000E-01 1.61906E-02 4.53412E+00 5.21097E-13-1.03846E-13
 -1      3316 1.97012E+01 2.34078E-01-3.31033E-03 3.33848E+00 5.08084E-13-1.45038E-13
 -1      3317 2.07924E+01-7.36867E-02 1.79505E-02 2.70506E+00 4.26493E-13-1.49727E-13
 -1      3318 2.15946E+01-1.75754E+00-1.39527E-02 3.89597E+00 4.10783E-13-3.16630E-14
 -1      3319 2.20864E+01 2.11373E-01 1.54455E-02 5.45934E-01 2.88344E-13-2.38543E-13
 -1      3320 2.22761E+01 2.37946E-01-9.45783E-03-1.63993E-02 2.29515E-13-2.64100E-13
 -1      3321 2.25581E+01 3.64167E-02-5.68667E-03-2.22396E-01 1.93267E-13-2.23523E-13
 -1      3322 1.04126E+01 1.66235E+00 1.40193E-01-2.05186E+00 2.55632E-13-5.57082E-13
 -1      3323 1.26285E+01 6.91015E-01 9.88451E-02-3.40089E+00 8.89497E-14-5.34142E-13
 -1      3324 2.70261E+01-1.29592E+00-1.41259E-02 8.32013E-01 1.56732E-13-2.53478E-13
 -1      3325 2.53605E+01 4.45108E+00-1.35438E-01-1.49422E+00-4.34812E-13-9.26984E-14
 -1      3326 2.58162E+01 3.31392E+00 1.94179E-02-2.10238E+00-4.01949E-13-1.70974E-14
 -1      3327 2.00002E+01-9.03860E-04 1.56663E-06 1.14958E-03-1.59727E-13 3.12039E-13
 -1      3328 2.25709E+01 1.92539E+00-2.33227E-02-1.47286E+00-2.25796E-13-2.11409E-13
 -1      3329 2.24473E+01 2.39439E+00 1.66249E-02-1.12606E+00-2.36721E-13-2.23997E-13
 -1      3330 2.22541E+01 2.68475E+00-1.75953E-02-5.65774E-01-2.08453E-13-2.76940E-13
 -1      3331 2.22151E+01 2.79129E+00-2.87262E-03-8.15565E-02-9.92002E-14-2.69725E-13
 -1      3332 2.29234E+01 2.97810E+00 4.18471E-03-9.75004E-01-2.32786E-13-1.73614E-13
 -1      3333 2.22249E+01 2.66658E+00 7.87958E-04 5.43329E-01-7.87191E-14-3.82983E-13
 -1      3334 2.22591E+01 2.32170E+00-2.72757E-02 9.78213E-01-1.16655E-13-3.97368E-13
 -1      3335 2.27841E+01 3.14135E+00-4.44263E-03 2.32925E-01-1.67608E-13-3.52611E-13
 -1      3336 2.24551E+01 1.83241E+00 1.65591E-02 1.39603E+00-1.07275E-13-4.50405E-13
 -1      3337 2.25186E+01 1.21156E+00-3.41394E-02 1.61161E+00-1.00927E-13-3.97880E-13
 -1      3338 2.29639E+01 2.41418E+00 7.65646E-03 1.31927E+00-1.18065E-13-5.54133E-13
 -1      3339 2.26791E+01 6.11532E-01 1.23762E-02 1.67422E+00-1.01418E-13-3.50705E-13
 -1      3340 2.27147E+01 1.76496E-02-2.23152E-02 1.64894E+00-6.51137E-14-3.53287E-13
 -1      3341 2.32307E+01 1.03497E+00 1.81968E-02 1.76525E+00-7.22963E-14-4.67065E-13
 -1      3342 2.26892E+01-4.59949E-01 4.56819E-04 1.44246E+00-4.60297E-14-3.03921E-13
 -1      3343 2.26504E+01-8.33139E-01-6.63771E-03 1.25954E+00-4.46052E-15-2.72277E-13
 -1      3344 2.32648E+01-2.88605E-01 1.59992E-02 1.56086E+00-1.32049E-14-3.61101E-13
 -1      3345 2.24411E+01-1.08649E+00-7.80007E-03 9.56536E-01-2.77095E-15-2.58146E-13
 -1      3346 2.23257E+01-1.22477E+00 4.38518E-03 7.23403E-01 5.38100E-14-2.47566E-13
 -1      3347 2.29714E+01-1.14839E+00 5.21545E-03 9.88395E-01 1.00166E-14-1.96170E-13
 -1      3348 2.20178E+01-1.27322E+00-8.82379E-03 4.50235E-01 4.19009E-14-2.54249E-13
 -1      3349 2.18542E+01-1.24116E+00 9.72334E-03 2.44064E-01 6.02478E-14-2.50225E-13
 -1      3350 2.24319E+01-1.45099E+00-2.27313E-03 3.88495E-01 3.80183E-14-1.98391E-13
 -1      3351 2.15382E+01-1.16501E+00-6.55099E-03 5.11365E-02 6.28198E-14-2.26471E-13
 -1      3352 2.13633E+01-1.04491E+00 1.03834E-02-9.88140E-02 5.73739E-14-1.96190E-13
 -1      3353 2.18159E+01-1.37089E+00-8.02217E-03-6.58190E-02 8.64247E-14-2.12667E-13
 -1      3354 2.10918E+01-9.15285E-01-3.60567E-03-2.09267E-01 1.66318E-14-2.71202E-13
 -1      3355 2.09337E+01-7.70417E-01 8.85959E-03-3.02289E-01-2.44362E-14-1.92578E-13
 -1      3356 2.12503E+01-1.09529E+00-9.39724E-03-3.46437E-01 3.03999E-14-2.10011E-13
 -1      3357 2.07256E+01-6.35114E-01-1.30241E-03-3.50355E-01-1.04830E-14-2.04568E-13
 -1      3358 2.05973E+01-5.01515E-01 6.57337E-03-3.97960E-01-2.86164E-14-1.46599E-13
 -1      3359 2.07960E+01-7.70778E-01-8.69328E-03-4.79745E-01 4.83345E-14-2.33527E-13
 -1      3360 2.04507E+01-3.84726E-01 7.10107E-05-4.05489E-01-6.40365E-14-1.36802E-13
 -1      3361 2.03546E+01-2.77806E-01 4.40492E-03-4.21158E-01-1.48325E-14-1.68182E-13
 -1      3362 2.04632E+01-4.75195E-01-7.06618E-03-5.14199E-01-2.59441E-14-1.66629E-13
 -1      3363 2.02590E+01-1.88521E-01 7.74166E-04-4.05443E-01 6.76478E-14-1.70682E-13
 -1      3364 2.01915E+01-1.11524E-01 2.68453E-03-4.00915E-01 5.23414E-14-1.52724E-13
 -1      3365 2.02374E+01-2.40779E-01-5.21189E-03-4.90040E-01 6.80391E-15-1.00484E-13
 -1      3366 2.01341E+01-4.97383E-02 1.03435E-03-3.73991E-01-2.64941E-14-1.61764E-13
 -1      3367 2.00892E+01 4.72791E-04 1.44786E-03-3.58073E-01 1.11423E-14-1.68454E-13
 -1      3368 2.00955E+01-7.32853E-02-3.55187E-03-4.36362E-01 1.69349E-14-7.00299E-14
 -1      3369 2.00582E+01 3.90044E-02 1.04627E-03-3.27423E-01 1.48675E-13-2.09526E-13
 -1      3370 2.00299E+01 6.80116E-02 6.21873E-04-3.06155E-01 2.22158E-13-7.58825E-14
 -1      3371 2.00138E+01 3.51241E-02-2.26274E-03-3.71699E-01 3.99357E-14-1.69908E-13
 -1      3372 2.00159E+01 8.88101E-02 9.45969E-04-2.76029E-01 1.95762E-13-9.70338E-14
 -1      3373 1.99989E+01 1.02442E-01 1.08717E-04-2.53294E-01 2.22313E-13-1.44574E-13
 -1      3374 1.99724E+01 9.72182E-02-1.33910E-03-3.06661E-01 2.41582E-13-1.41201E-13
 -1      3375 1.99951E+01 1.10795E-01 8.07995E-04-2.25884E-01 1.46947E-13-8.45913E-14
 -1      3376 1.99854E+01 1.14136E-01-1.81669E-04-2.04012E-01 1.11020E-13-9.70046E-14
 -1      3377 1.99561E+01 1.25947E-01-7.19380E-04-2.46756E-01 1.54781E-13-1.58123E-13
 -1      3378 1.99872E+01 1.14445E-01 6.68978E-04-1.80254E-01 4.94792E-14-1.34938E-13
 -1      3379 1.99820E+01 1.11492E-01-3.22498E-04-1.60510E-01-3.01467E-14-1.36671E-13
 -1      3380 1.99542E+01 1.32450E-01-3.28804E-04-1.94405E-01 7.33687E-14-1.49849E-13
 -1      3381 1.99864E+01 1.07106E-01 5.44084E-04-1.40608E-01-5.81663E-14-8.58462E-14
 -1      3382 1.99837E+01 1.00769E-01-3.68905E-04-1.23557E-01 8.06210E-14-6.70030E-14
 -1      3383 1.99597E+01 1.25418E-01-9.98654E-05-1.50259E-01 7.37504E-15-1.12088E-13
 -1      3384 1.99888E+01 9.40579E-02 4.37812E-04-1.07321E-01 1.78029E-13-1.29095E-13
 -1      3385 1.99875E+01 8.63175E-02-3.60020E-04-9.30866E-02 1.55256E-13-9.57455E-14
 -1      3386 1.99681E+01 1.11150E-01 2.14380E-05-1.14009E-01 7.58474E-14-6.57337E-15
 -1      3387 1.99923E+01 7.88468E-02 3.49668E-04-8.01317E-02 1.55223E-13-1.35361E-13
 -1      3388 1.99917E+01 7.09566E-02-3.22113E-04-6.85771E-02 1.27873E-13-3.05224E-14
 -1      3389 1.99768E+01 9.39186E-02 7.56916E-05-8.48771E-02 2.13448E-13-1.22676E-13
 -1      3390 1.99958E+01 6.36831E-02 2.77386E-04-5.84440E-02-3.89632E-14-7.81657E-14
 -1      3391 1.99955E+01 5.63672E-02-2.72013E-04-4.92942E-02 4.39474E-15 3.33742E-14
 -1      3392 1.99847E+01 7.64255E-02 9.07408E-05-6.19081E-02 1.08676E-13-1.93746E-13
 -1      3393 1.99987E+01 4.98145E-02 2.18461E-04-4.15174E-02 1.06691E-13 9.35531E-14
 -1      3394 1.99985E+01 4.34319E-02-2.19922E-04-3.44368E-02 1.35311E-13 1.99669E-13
 -1      3395 1.99910E+01 6.02289E-02 8.51024E-05-4.41175E-02 1.23025E-13-9.71281E-14
 -1      3396 2.00009E+01 3.78323E-02 1.70620E-04-2.85810E-02 2.89682E-14 1.27551E-13
 -1      3397 2.00006E+01 3.25054E-02-1.71509E-04-2.32239E-02 1.15059E-13 1.03331E-13
 -1      3398 1.99958E+01 4.61000E-02 7.01975E-05-3.05784E-02 5.75272E-14-4.71768E-14
 -1      3399 2.00023E+01 2.79081E-02 1.31937E-04-1.89024E-02 1.83451E-13 7.11504E-14
 -1      3400 2.00020E+01 2.36166E-02-1.29450E-04-1.49427E-02 9.42583E-14 1.34028E-13
 -1      3401 1.99992E+01 3.42998E-02 5.28360E-05-2.04616E-02 1.02401E-13-3.13934E-14
 -1      3402 2.00031E+01 1.99647E-02 1.00821E-04-1.18236E-02-4.60226E-14 1.75044E-13
 -1      3403 2.00027E+01 1.66106E-02-9.46134E-05-8.96976E-03-4.24846E-14 1.10431E-13
 -1      3404 2.00014E+01 2.47809E-02 3.65203E-05-1.30507E-02 2.56779E-14 9.06360E-14
 -1      3405 2.00034E+01 1.37931E-02 7.59792E-05-6.77565E-03 4.32164E-14 7.75574E-14
 -1      3406 2.00031E+01 1.12440E-02-6.68236E-05-4.77747E-03 1.66660E-13 7.36702E-14
 -1      3407 2.00027E+01 1.73283E-02 2.28438E-05-7.74261E-03-1.46641E-14 1.45840E-13
 -1      3408 2.00034E+01 9.12957E-03 5.63288E-05-3.28170E-03 1.60558E-13 3.19207E-14
 -1      3409 2.00030E+01 7.24458E-03-4.53573E-05-1.93112E-03 8.23043E-14-1.51316E-14
 -1      3410 2.00033E+01 1.16516E-02 1.22633E-05-4.04037E-03 1.16461E-13-5.09279E-14
 -1      3411 2.00031E+01 5.70152E-03 4.09607E-05-9.52131E-04 1.08283E-13-9.93843E-14
 -1      3412 2.00028E+01 4.34720E-03-2.92653E-05-8.06021E-05 1.70275E-13 1.70385E-14
 -1      3413 2.00035E+01 7.44251E-03 4.59606E-06-1.54229E-03 2.20854E-14 2.39656E-14
 -1      3414 2.00028E+01 3.25464E-03 2.90978E-05 5.24232E-04 4.33058E-14 7.96723E-15
 -1      3415 2.00025E+01 2.31259E-03-1.75530E-05 1.05003E-03-5.35833E-14 6.76690E-14
 -1      3416 2.00034E+01 4.40819E-03-5.67350E-07 7.05377E-05 1.31847E-13-2.94783E-14
 -1      3417 2.00024E+01 1.56574E-03 2.00738E-05 1.39076E-03-7.22364E-14 1.08070E-13
 -1      3418 2.00021E+01 9.35639E-04-9.29936E-06 1.67401E-03-7.66237E-14 1.45244E-13
 -1      3419 2.00030E+01 2.28849E-03-3.75847E-06 1.04686E-03-7.82457E-14 7.30914E-14
 -1      3420 2.00019E+01 4.47110E-04 1.33261E-05 1.83396E-03-2.10055E-14 2.35941E-14
 -1      3421 2.00017E+01 4.67803E-05-3.70190E-06 1.95273E-03-1.57317E-14-1.54814E-14
 -1      3422 2.00026E+01 8.62588E-04-5.47798E-06 1.57742E-03-1.18084E-13-8.62795E-14
 -1      3423 2.00015E+01-2.54073E-04 8.37998E-06 1.99374E-03-4.50332E-14 1.02204E-13
 -1      3424 2.00014E+01-4.90180E-04-9.17588E-08 2.00575E-03 1.82373E-14 1.50689E-13
 -1      3425 2.00022E+01-5.07951E-05-6.15994E-06 1.80570E-03 1.41579E-13-1.08149E-13
 -1      3426 2.00012E+01-6.59141E-04 4.84540E-06 1.97262E-03-6.50120E-15 8.69811E-14
 -1      3427 2.00010E+01-7.82215E-04 2.07093E-06 1.91940E-03 5.43805E-14 8.43879E-14
 -1      3428 2.00018E+01-5.96564E-04-6.16198E-06 1.83747E-03-3.53470E-14-2.38806E-14
 -1      3429 2.00009E+01-8.62500E-04 2.42008E-06 1.84364E-03 8.35730E-14 1.54959E-13
 -1      3430 2.00007E+01-9.11762E-04 3.24828E-06 1.75404E-03 1.06066E-13 1.47258E-13
 -1      3431 2.00014E+01-8.88165E-04-5.74557E-06 1.74880E-03 1.22299E-13-1.91519E-14
 -1      3432 2.00006E+01-9.36370E-04 8.02943E-07 1.65706E-03 6.78317E-14 1.74374E-13
 -1      3433 2.00005E+01-9.41800E-04 3.31858E-06 1.55044E-03 1.71024E-13 2.27214E-13
 -1      3434 2.00010E+01-1.01253E-03-5.05385E-06 1.59253E-03 1.44228E-13 2.14868E-13
 -1      3435 2.00004E+01-9.34950E-04-2.65429E-07 1.44464E-03 4.96566E-14 1.03682E-13
 -1      3436 2.00003E+01-9.24571E-04-1.83914E-07 1.33461E-03-2.43908E-13 8.86949E-14
 -1      3437 2.00007E+01-1.03645E-03-3.65192E-06 1.40505E-03 2.88597E-14 1.39071E-13
 -1      3438 2.00005E+01-1.05662E-03-1.15765E-07 9.59730E-04 1.08508E-13 1.33823E-14
 -1      3439 2.00006E+01-1.12682E-03 3.86929E-06 8.30530E-04 4.08622E-14 9.71103E-14
 -1      3440 2.65989E+01-1.02347E+00-1.04359E-01-7.00016E-01-9.65799E-14 1.17470E-13
 -1      3441 2.61100E+01-1.79119E+00 4.25573E-02 4.52112E-01 3.47604E-14 1.27818E-13
 -1      3442 1.86720E+01 1.24226E+00-1.06059E-02 8.14342E-01-1.73203E-13 8.57720E-14
 -1      3443 1.83914E+01 1.38719E+00-7.94555E-03 9.04693E-01-8.97928E-14 3.38514E-14
 -1      3444 1.91730E+01 9.62014E-01-7.59283E-03 6.87257E-01-6.99880E-14 7.71144E-15
 -1      3445 1.89838E+01 1.09794E+00-5.21845E-03 7.74336E-01-2.10347E-13 6.20769E-14
 -1      3446 1.86223E+01 1.24661E+00 1.52062E-02 5.64645E-01-1.26280E-13-4.03583E-14
 -1      3447 1.56469E+01 1.86173E+00-2.44961E-02 1.54339E+00-1.49056E-13 2.40407E-14
 -1      3448 1.48937E+01 1.76003E+00 7.68746E-03 1.79303E+00-2.49486E-13 7.11219E-14
 -1      3449 1.94844E+01 7.37970E-01-5.46973E-03 5.69136E-01-4.34298E-14 7.77635E-14
 -1      3450 1.93730E+01 8.44830E-01-2.91288E-03 6.43584E-01 4.22969E-15 4.41075E-14
 -1      3451 1.91065E+01 9.76723E-01 1.06462E-02 5.17285E-01-5.72908E-14-9.67390E-15
 -1      3452 1.96858E+01 5.58601E-01-4.03772E-03 4.60481E-01 8.31136E-14 1.20933E-13
 -1      3453 1.96187E+01 6.43843E-01-1.31220E-03 5.24748E-01 2.04095E-14 1.02777E-13
 -1      3454 1.94220E+01 7.54263E-01 7.11899E-03 4.51064E-01-1.61017E-14 6.29523E-14
 -1      3455 1.98140E+01 4.19416E-01-2.94314E-03 3.65033E-01 7.40411E-14 1.14393E-13
 -1      3456 1.97753E+01 4.85371E-01-3.98255E-04 4.18858E-01 1.62428E-13 1.59009E-13
 -1      3457 1.96317E+01 5.75354E-01 4.69296E-03 3.78598E-01 8.09267E-14 1.62314E-13
 -1      3458 1.98942E+01 3.13208E-01-2.13832E-03 2.84176E-01-6.95394E-14 1.29166E-13
 -1      3459 1.98730E+01 3.63439E-01 1.02248E-04 3.28122E-01-2.40425E-15 1.13420E-13
 -1      3460 1.97695E+01 4.35254E-01 3.04845E-03 3.08494E-01 4.24142E-14 2.43570E-13
 -1      3461 1.99432E+01 2.32872E-01-1.58571E-03 2.17491E-01-4.90965E-14 2.52710E-13
 -1      3462 1.99326E+01 2.70857E-01 3.30969E-04 2.52689E-01-1.02531E-13 1.22644E-13
 -1      3463 1.98589E+01 3.27409E-01 1.98102E-03 2.45192E-01-8.88488E-14 2.00367E-13
 -1      3464 1.99735E+01 1.69981E-01-1.14195E-03 1.61383E-01 3.63796E-14 1.85735E-13
 -1      3465 1.99688E+01 1.99597E-01 4.29225E-04 1.90163E-01-4.19983E-15 2.12349E-13
 -1      3466 1.99174E+01 2.43380E-01 1.28178E-03 1.89469E-01 1.05001E-14 1.26205E-13
 -1      3467 1.99901E+01 1.25433E-01-8.01173E-04 1.19418E-01 1.17344E-13 2.21312E-13
 -1      3468 1.99891E+01 1.46553E-01 4.47204E-04 1.40656E-01 5.16100E-14 1.69440E-13
 -1      3469 1.99540E+01 1.79860E-01 7.70314E-04 1.43317E-01 7.74249E-14 8.30246E-14
 -1      3470 1.99991E+01 9.20018E-02-5.77744E-04 8.67449E-02 2.64195E-13 2.07010E-13
 -1      3471 1.99999E+01 1.07873E-01 4.17594E-04 1.03007E-01 2.03611E-13 2.88775E-13
 -1      3472 1.99760E+01 1.33211E-01 4.63771E-04 1.07013E-01 1.55347E-13 8.78177E-14
 -1      3473 2.00038E+01 6.69695E-02-4.14131E-04 6.17156E-02 2.50815E-13 1.76480E-13
 -1      3474 2.00052E+01 7.88622E-02 3.60275E-04 7.40109E-02 3.67684E-13 2.89540E-13
 -1      3475 1.99894E+01 9.80146E-02 2.75154E-04 7.82799E-02 2.44809E-13 2.91550E-13
 -1      3476 2.00058E+01 4.82567E-02-2.94725E-04 4.28321E-02-1.34366E-13 1.23778E-13
 -1      3477 2.00074E+01 5.71474E-02 2.98663E-04 5.20040E-02 4.61719E-14 1.05819E-13
 -1      3478 1.99973E+01 7.14979E-02 1.57586E-04 5.59841E-02 1.83337E-13 5.63649E-13
 -1      3479 2.00063E+01 3.42926E-02-2.17348E-04 2.88030E-02 9.82153E-14-1.43974E-13
 -1      3480 2.00079E+01 4.09303E-02 2.38882E-04 3.55527E-02-1.10700E-13-6.76102E-14
 -1      3481 2.00017E+01 5.15844E-02 8.72250E-05 3.90002E-02 2.52191E-14 1.76485E-13
 -1      3482 2.00060E+01 2.35199E-02-1.51861E-04 1.81430E-02 1.99520E-13-9.96005E-14
 -1      3483 2.00074E+01 2.86020E-02 1.86175E-04 2.31957E-02 1.49314E-13-1.23956E-13
 -1      3484 2.00040E+01 3.64177E-02 5.51703E-05 2.60523E-02 1.41798E-13-8.07409E-14
 -1      3485 2.00054E+01 1.60537E-02-9.87911E-05 1.09638E-02 4.32353E-14-2.70693E-13
 -1      3486 2.00065E+01 1.95959E-02 1.43240E-04 1.43577E-02 1.71284E-13-1.87525E-13
 -1      3487 2.00049E+01 2.51448E-02 1.42885E-05 1.65955E-02 2.01473E-13-1.76313E-13
 -1      3488 2.00046E+01 1.06101E-02-6.60543E-05 5.95020E-03-8.25858E-14-3.24202E-13
 -1      3489 2.00055E+01 1.31772E-02 1.07227E-04 8.29284E-03 2.55960E-14-2.18574E-13
 -1      3490 2.00050E+01 1.71175E-02-1.08637E-06 1.00253E-02 6.08533E-14-1.83409E-13
 -1      3491 2.00038E+01 6.70460E-03-4.29222E-05 2.55703E-03-1.17046E-13-2.93415E-13
 -1      3492 2.00045E+01 8.53820E-03 7.88506E-05 4.12483E-03-9.77218E-14-2.97746E-13
 -1      3493 2.00047E+01 1.12760E-02-8.59716E-06 5.43099E-03-9.31546E-14-1.28131E-13
 -1      3494 2.00031E+01 3.94864E-03-2.82324E-05 3.48511E-04-2.26817E-13-1.28730E-13
 -1      3495 2.00036E+01 5.23783E-03 5.67233E-05 1.35579E-03-2.09675E-13-1.59421E-13
 -1      3496 2.00042E+01 7.08794E-03-1.16188E-05 2.31726E-03-1.88008E-13 1.43546E-13
 -1      3497 2.00024E+01 1.97890E-03-1.64169E-05-1.05710E-03 2.11292E-13-3.70381E-14
 -1      3498 2.00028E+01 2.88669E-03 3.95056E-05-4.34084E-04 6.68457E-14-9.49390E-14
 -1      3499 2.00036E+01 4.09296E-03-9.86324E-06 2.57820E-04-4.34665E-14 8.69964E-14
 -1      3500 2.00018E+01 7.47460E-04-7.21146E-06-1.78836E-03-8.79113E-14-1.04591E-13
 -1      3501 2.00021E+01 1.31479E-03 2.67387E-05-1.47273E-03 1.36383E-13-2.14796E-14
 -1      3502 2.00030E+01 2.03550E-03-1.24226E-05-9.98336E-04 1.09621E-13 8.71866E-14
 -1      3503 2.00014E+01-3.90730E-05-2.07386E-06-2.12416E-03-1.63279E-14-3.07026E-13
 -1      3504 2.00016E+01 3.15729E-04 1.71680E-05-1.99254E-03-4.99451E-14-1.88124E-13
 -1      3505 2.00024E+01 7.20302E-04-1.13636E-05-1.67048E-03 1.64134E-15 2.28795E-13
 -1      3506 2.00010E+01-5.07637E-04 1.03632E-06-2.20020E-03 1.68408E-13-2.63757E-13
 -1      3507 2.00011E+01-3.01554E-04 1.04891E-05-2.18688E-03 3.09775E-14-2.74578E-13
 -1      3508 2.00019E+01-1.12660E-04-9.88921E-06-1.97672E-03-3.14916E-14 8.15237E-14
 -1      3509 2.00007E+01-7.57161E-04 2.79791E-06-2.11550E-03 7.24261E-14-2.49854E-13
 -1      3510 2.00008E+01-6.52452E-04 5.80573E-06-2.17406E-03 8.51663E-14-3.51618E-13
 -1      3511 2.00015E+01-6.04542E-04-8.35171E-06-2.04384E-03 1.21493E-13 1.64773E-13
 -1      3512 2.00004E+01-8.62521E-04 3.69087E-06-1.93946E-03-1.33444E-13-2.66574E-13
 -1      3513 2.00005E+01-8.23140E-04 2.69886E-06-2.03759E-03 1.30263E-13-2.72365E-13
 -1      3514 2.00011E+01-8.62760E-04-6.89906E-06-1.96320E-03-2.70182E-15 5.85711E-14
 -1      3515 2.00002E+01-8.78229E-04 3.96248E-06-1.70658E-03-2.06282E-14-6.26686E-13
 -1      3516 2.00003E+01-8.79373E-04 6.66474E-07-1.82933E-03-1.81261E-13-5.57110E-13
 -1      3517 2.00007E+01-9.68054E-04-5.55191E-06-1.79325E-03-4.76555E-14-2.30152E-13
 -1      3518 2.00001E+01-8.46539E-04 3.55047E-06-1.46975E-03 3.68145E-14-7.34809E-13
 -1      3519 2.00001E+01-8.66466E-04-6.27794E-07-1.59198E-03 3.63227E-14-6.28572E-13
 -1      3520 2.00005E+01-9.79279E-04-4.43121E-06-1.58195E-03 2.37663E-14-4.60271E-13
 -1      3521 2.00000E+01-8.01265E-04 2.53716E-06-1.23558E-03 1.00813E-13-7.21151E-13
 -1      3522 2.00000E+01-8.24023E-04-1.06739E-06-1.35437E-03 2.15822E-14-5.34020E-13
 -1      3523 2.00003E+01-9.42346E-04-2.75551E-06-1.36335E-03-5.69709E-14-5.51456E-13
 -1      3524 2.28034E+01 9.23429E-02 1.38081E-02-9.57389E-01 1.12882E-13-2.01851E-13
 -1      3525 2.25994E+01 1.61239E-01-1.77335E-02-1.26473E+00 4.50420E-14-3.02119E-13
 -1      3526 2.26952E+01 1.05828E-01 5.97932E-03-1.40469E+00 3.16312E-14-2.88048E-13
 -1      3527 1.69437E+01 1.77893E+00-2.45520E-02 1.12881E+00-1.73556E-13 3.64747E-15
 -1      3528 1.65067E+01 1.85941E+00 3.54351E-03 1.34741E+00-1.13575E-13 3.67139E-14
 -1      3529 1.55500E+01 1.99954E+00 3.91645E-02 7.91578E-01-1.02202E-13 7.46944E-14
 -1      3530 2.49347E+01-2.47203E+00-9.01148E-02 1.69394E+00 1.66275E-13 7.11913E-14
 -1      3531 2.32041E+01-2.21520E+00 2.73979E-02 3.07442E+00 3.11186E-13 6.02365E-14
 -1      3532 2.26754E+01-1.42247E+00 3.05742E-02 2.51616E+00 3.51996E-13-2.06580E-14
 -1      3533 2.51149E+01-1.75150E+00-8.69963E-04 6.66018E-01 1.27943E-13 3.66165E-14
 -1      3534 1.73513E+01-1.63726E+00 1.01034E-01-5.03317E+00 3.06939E-13 2.34604E-13
 -1      3535 1.95835E+01-2.94072E+00-9.63212E-02-4.86212E+00 3.46025E-13 3.23144E-14
 -1      3536 1.35160E+01 3.86562E-01 4.90553E-02-3.69787E+00 6.33417E-14 4.76980E-13
 -1      3537 1.51125E+01-7.65023E-01-1.72965E-02-4.76971E+00 1.92284E-13 4.77673E-13
 -1      3538 2.51606E+01-2.98141E+00-1.43052E-03-9.01136E-01 2.63549E-13-1.84387E-13
 -1      3539 2.58040E+01-2.52111E+00-5.38562E-02-2.80593E-02 2.26660E-13-2.14891E-13
 -1      3540 2.28799E+01 9.25071E-01-2.58030E-02-1.83411E+00-1.75971E-13-1.91995E-13
 -1      3541 2.27739E+01 1.43212E+00 1.00559E-02-1.69569E+00-2.15798E-13-1.94728E-13
 -1      3542 2.32673E+01 1.83373E+00-3.83769E-03-1.71725E+00-2.26868E-13-1.50671E-13
 -1      3543 1.38499E+01 1.63655E+00 1.58191E-02 1.85815E+00-3.14460E-13 9.31477E-14
 -1      3544 1.23378E+01 1.44203E+00 1.91884E-02 1.74405E+00-3.52975E-13 1.94733E-13
 -1      3545 1.11958E+01 1.55975E+00 1.42109E-01 8.01453E-01-2.45678E-13 3.27315E-13
 -1      3546 1.36863E+01 1.98118E+00 7.98581E-02 8.96921E-01-2.18938E-13 1.81152E-13
 -1      3547 2.28004E+01 3.55904E-02-5.23547E-03-1.48763E+00-9.25627E-15-2.40866E-13
 -1      3548 2.13317E+01 6.81588E-02 1.85667E-02 1.87479E+00 3.80270E-13-1.60819E-13
 -1      3549 2.18877E+01-2.71867E-02-3.03778E-03 1.19803E+00 3.16237E-13-2.01518E-13
 -1      3550 2.23754E+01-3.06930E-01 1.02048E-02 9.49790E-01 2.90746E-13-1.84019E-13
 -1      3551 2.16745E+01-6.89190E-01 4.02166E-03 2.39499E+00 3.59563E-13-9.83406E-14
 -1      3552 2.61594E+01 1.44146E+00-1.34078E-01-2.06194E+00-3.42459E-13 8.52894E-14
 -1      3553 2.67972E+01 2.60079E-01 1.86282E-02-1.59589E+00-2.20275E-13 1.30326E-13
 -1      3554 2.60421E+01-2.87418E-01 1.81336E-02-1.26011E+00-1.27409E-13 5.52232E-14
 -1      3555 2.58925E+01 2.73406E+00-3.78744E-02 2.00620E+00-1.35003E-13-3.61919E-13
 -1      3556 2.52022E+01 3.98599E+00-7.16733E-02 1.54859E+00-2.18103E-13-3.67213E-13
 -1      3557 1.55910E+01 1.96809E+00 9.48564E-02-2.65525E+00 2.27152E-13-2.42313E-13
 -1      3558 2.30149E+01 1.89481E-01-4.76749E-03-1.76668E+00-9.64068E-14-1.87106E-13
 -1      3559 2.29520E+01 5.02055E-01-1.23362E-03-1.78704E+00-1.25609E-13-1.87839E-13
 -1      3560 2.34742E+01 7.62079E-01 6.40866E-03-1.90161E+00-1.69674E-13-1.42498E-13
 -1      3561 1.79535E+01 1.52958E+00-1.51371E-02 9.33878E-01-1.04488E-13 2.82383E-14
 -1      3562 1.75479E+01 1.67495E+00-5.44044E-03 1.02767E+00-1.61025E-13 2.62761E-14
 -1      3563 1.79012E+01 1.54620E+00 2.05793E-02 5.74804E-01-1.17110E-13-9.57134E-14
 -1      3564 2.00000E+01-8.85508E-04 4.15945E-06-9.29048E-04 3.65479E-13-8.74300E-13
 -1      3565 1.99999E+01-8.02806E-04-5.02232E-07-9.62563E-04 2.62082E-13-6.09384E-13
 -1      3566 1.99999E+01-7.94122E-04-9.04805E-07-1.04047E-03 3.17244E-13-5.20163E-13
 -1      3567 2.00002E+01-9.55596E-04-2.96078E-07-9.69826E-04 1.17763E-13-6.90429E-13
 -1      3568 1.63147E+01 6.58120E-02 1.40411E-01 4.19456E+00-2.83319E-13-1.53613E-13
 -1      3569 2.22125E+01-3.31154E+00 1.05020E-01-3.85131E+00 2.94770E-13-1.26297E-13
 -1      3570 2.39031E+01-3.56540E+00-5.77916E-02-2.39741E+00 2.75460E-13-1.65072E-13
 -1      3571 1.22417E+01 2.47995E+00 2.11356E-02-1.60069E+00 3.08475E-13-4.05329E-13
 -1      3572 2.60740E+01-1.72203E+00-1.65528E-03 6.41736E-01 2.07391E-13-2.29202E-13
 -1      3573 2.61042E+01-7.84387E-01-7.41890E-02 1.29985E+00 1.22831E-13-2.55421E-13
 -1      3574 2.52722E+01-1.89780E+00-7.11644E-03 5.44310E-01 2.15509E-13-2.18046E-13
 -1      3575 2.62173E+01 4.02331E-01-1.42601E-02 1.76347E+00 3.42400E-14-3.14707E-13
 -1      3576 2.60596E+01 1.46341E+00-8.89670E-02 1.96241E+00-5.62328E-14-3.29521E-13
 -1      3577 2.51782E+01 1.90842E+00 2.04735E-03 1.95539E+00-1.18176E-13-3.47417E-13
 -1      3578 2.54651E+01-1.91971E-01 1.26695E-02 1.61482E+00 8.64777E-14-3.05764E-13
 -1      3579 1.65899E+01-1.32598E+00 7.57029E-02 4.79588E+00-2.99233E-13-1.35406E-13
 -1      3580 1.82912E+01-2.27084E+00 1.94557E-01 5.14615E+00-3.64063E-13-1.38195E-13
 -1      3581 2.53562E+01 2.15097E+00-2.46486E-02-1.99717E+00-3.09329E-13-1.90230E-14
 -1      3582 2.47085E+01 4.45988E+00-5.16460E-02-9.62162E-01-3.55917E-13-2.32592E-13
 -1      3583 2.00003E+01-9.40625E-04 1.49651E-06 1.25839E-03-2.54979E-13 7.24236E-14
 -1      3584 2.00004E+01-1.03039E-03-3.42647E-06 1.04322E-03 1.44239E-14-2.88797E-14
 -1      3585 1.18827E+01 1.68374E+00 4.99654E-02-1.62375E-01-2.71066E-13 3.15997E-13
 -1      3586 2.00008E+01-1.18544E-03-2.21802E-06 8.05576E-04-2.93771E-14 2.36439E-13
 -1      3587 2.00007E+01-1.19791E-03-1.52515E-06 6.63544E-04-1.60647E-14 3.06545E-13
 -1      3588 2.00008E+01-1.24050E-03 3.44646E-06 4.98950E-04-5.74873E-14 4.94140E-13
 -1      3589 2.09691E+01-2.65643E+00 3.62869E-02-3.76592E+00 2.92514E-13-2.35554E-15
 -1      3590 2.00009E+01-1.29708E-03 1.80196E-06-9.72339E-05-7.07419E-14 4.32245E-13
 -1      3591 2.00009E+01-1.28386E-03 4.71033E-07-2.83627E-04 4.52877E-14 2.06921E-14
 -1      3592 2.28951E+01-1.58994E-01-1.46518E-02-5.08812E-01 1.52172E-13-1.98372E-13
 -1      3593 2.30668E+01-2.26812E-01-3.67077E-03-7.14748E-01 1.09446E-13-1.72129E-13
 -1      3594 2.28930E+01-3.05086E-01 4.99329E-03 4.91284E-02 2.26169E-13-1.88112E-13
 -1      3595 1.99999E+01-7.84699E-04-9.23297E-07-1.11938E-03 1.79162E-13-6.95191E-13
 -1      3596 2.00008E+01-1.24970E-03 3.10558E-06-4.86752E-04 2.00582E-14-1.62226E-13
 -1      3597 2.00007E+01-1.20710E-03-5.47861E-07-6.54389E-04 4.37018E-14-2.04465E-13
 -1      3598 2.00010E+01-1.29486E-03-2.67576E-06-4.12798E-04 1.74337E-13-7.90910E-14
 -1      3599 1.69178E+01 1.81539E+00 2.48988E-02 6.17209E-01-1.37202E-13 1.85147E-14
 -1      3600 1.29242E+01 1.06752E+00 5.70082E-02-2.75985E+00-1.75936E-14 4.30062E-13
 -1      3601 1.44361E+01 7.70243E-01 5.34918E-02-2.98388E+00-5.26324E-14 4.21507E-13
 -1      3602 1.69695E+01-9.06177E-01 6.21691E-02-4.32011E+00 2.00211E-13 2.38989E-13
 -1      3603 2.30513E+01-2.90746E+00-1.38657E-02-1.99725E+00 2.16199E-13-1.09177E-13
 -1      3604 2.43606E+01-3.19118E+00 6.92058E-03-1.49244E+00 2.57720E-13-1.24696E-13
 -1      3605 2.42363E+01-2.61197E+00-1.72374E-04-6.12781E-01 2.16459E-13-1.65395E-13
 -1      3606 2.32911E+01 1.89025E-02 1.11953E-02-1.48935E+00-1.17838E-14-1.54098E-13
 -1      3607 1.25733E+01 1.44377E+00 2.04763E-02-1.69421E+00-7.52124E-14 2.82972E-13
 -1      3608 2.00001E+01-8.96857E-04-2.39654E-06-1.13521E-03 1.02208E-13-8.52652E-13
 -1      3609 2.00006E+01-1.14825E-03 4.99018E-06-8.02396E-04-3.96636E-15-5.00462E-13
 -1      3610 2.00005E+01-1.09283E-03-2.67065E-06-9.17299E-04 1.70053E-13-8.02768E-13
 -1      3611 2.00008E+01-1.20974E-03-2.74161E-06-7.69466E-04 1.14941E-13-3.03937E-13
 -1      3612 2.00009E+01-1.27918E-03 1.66800E-07 2.98611E-04-2.14834E-14 8.08324E-13
 -1      3613 2.00009E+01-1.29464E-03 1.98735E-06 1.14380E-04-7.20956E-14 8.07504E-13
 -1      3614 2.00011E+01-1.32331E-03-2.97570E-06 9.87394E-06 4.02430E-14 5.44580E-13
 -1      3615 2.00010E+01-1.28585E-03-2.48480E-06 4.29628E-04-9.17680E-15 6.44302E-13
 -1      3616 2.00006E+01-1.03529E-03 5.04926E-06 1.22353E-03-2.38906E-13-9.97870E-14
 -1      3617 2.40917E+01 2.47921E-01-2.19933E-02-1.79452E+00-1.28950E-13-7.52180E-14
 -1      3618 2.41322E+01 8.98323E-01 1.77207E-02-1.91819E+00-1.98520E-13-5.93299E-14
 -1      3619 1.30469E+01 1.82926E+00 2.25834E-03 1.43236E-01-1.71769E-13 1.58599E-13
 -1      3620 1.26995E+01 1.76984E+00 7.62681E-02-9.01257E-01-1.00397E-13 1.16029E-13
 -1      3621 1.37655E+01 1.63130E+00 2.24554E-02-1.27393E+00-5.57421E-14 1.49832E-13
 -1      3622 1.41396E+01 1.92735E+00 3.96351E-04 2.59094E-01-7.37856E-14 6.56055E-14
 -1      3623 2.36511E+01 4.14229E+00-5.47033E-02-1.84841E-01-2.83922E-13-2.74050E-13
 -1      3624 2.36492E+01 4.03136E+00-2.54516E-02 4.82321E-01-2.50217E-13-3.77611E-13
 -1      3625 2.37136E+01 3.03529E+00-1.53855E-02 1.30373E+00-1.61274E-13-4.38823E-13
 -1      3626 2.38248E+01 2.24166E+00-6.79712E-02 1.71999E+00-1.17795E-13-4.67989E-13
 -1      3627 2.41601E+01 1.38525E+00-1.53754E-02 1.81629E+00-6.70089E-14-4.49307E-13
 -1      3628 2.42195E+01 4.44435E-01-5.40493E-02 1.82671E+00-1.67154E-14-4.24285E-13
 -1      3629 2.42973E+01-3.79516E-01-1.09847E-02 1.50504E+00 3.85768E-14-3.84978E-13
 -1      3630 2.42054E+01-1.04706E+00-1.39616E-02 1.23734E+00 1.01598E-13-3.07520E-13
 -1      3631 2.27774E+01-1.72015E+00-1.17516E-02 1.84985E-01 2.23970E-14-8.21689E-14
 -1      3632 2.25124E+01-1.68469E+00 2.03523E-02-6.70655E-02 6.49264E-14-8.43166E-14
 -1      3633 2.20274E+01-1.58962E+00-8.61927E-03-3.02207E-01 7.54399E-14-5.13065E-14
 -1      3634 2.17446E+01-1.42034E+00 1.52246E-02-4.62538E-01 1.04415E-13-5.72824E-14
 -1      3635 2.23281E+01-1.85796E+00-1.88434E-02-5.15623E-01 8.39175E-14-5.36030E-16
 -1      3636 2.13615E+01-1.23942E+00-2.39198E-03-5.58289E-01 4.16683E-14-7.62528E-14
 -1      3637 2.11148E+01-1.03801E+00 1.24283E-02-6.38390E-01 4.33377E-15-1.03829E-13
 -1      3638 2.14856E+01-1.44768E+00-1.69493E-02-7.90857E-01 3.63095E-14-9.64853E-15
 -1      3639 2.08340E+01-8.50918E-01 4.54934E-04-6.52394E-01-1.67115E-14-1.04088E-13
 -1      3640 2.06428E+01-6.68440E-01 8.41119E-03-6.75162E-01 2.21018E-14-1.23386E-13
 -1      3641 2.08626E+01-9.98639E-01-1.32537E-02-8.63783E-01-2.63471E-14-5.24938E-15
 -1      3642 2.04566E+01-5.08741E-01 2.08768E-03-6.43805E-01 6.45029E-14-1.31261E-13
 -1      3643 2.03190E+01-3.64861E-01 5.03804E-03-6.32334E-01 1.59029E-14-1.18261E-13
 -1      3644 2.04253E+01-5.99333E-01-1.02283E-02-8.11652E-01 9.77988E-15-1.39678E-14
 -1      3645 2.02060E+01-2.44034E-01 2.56470E-03-5.81133E-01 4.02719E-15-3.74597E-14
 -1      3646 2.01142E+01-1.41804E-01 2.67624E-03-5.52339E-01 4.50194E-14-3.72473E-14
 -1      3647 2.01460E+01-2.90000E-01-7.22453E-03-7.05111E-01 5.49633E-14-7.13622E-16
 -1      3648 2.00529E+01-5.89088E-02 2.44624E-03-4.97045E-01 8.11145E-15-6.96331E-14
 -1      3649 1.99963E+01 7.08262E-03 1.17159E-03-4.61760E-01-4.52723E-14-1.24580E-13
 -1      3650 1.99839E+01-7.38981E-02-4.66497E-03-5.82837E-01 1.18142E-14-3.94434E-14
 -1      3651 1.99687E+01 5.85406E-02 2.05843E-03-4.10220E-01 2.30717E-14-1.06112E-13
 -1      3652 1.99368E+01 9.64034E-02 2.65620E-04-3.74583E-01 1.58381E-13-8.44414E-14
 -1      3653 1.99014E+01 6.30756E-02-2.81405E-03-4.66562E-01 3.19636E-14-8.54938E-14
 -1      3654 1.99298E+01 1.24148E-01 1.62047E-03-3.29941E-01 1.93520E-13-3.09779E-14
 -1      3655 1.99141E+01 1.41814E-01-2.39444E-04-2.97101E-01 1.72335E-13-1.06527E-13
 -1      3656 1.98694E+01 1.39949E-01-1.54594E-03-3.65122E-01 1.66967E-13 1.02363E-13
 -1      3657 1.99186E+01 1.52994E-01 1.22220E-03-2.60107E-01 2.06444E-13-1.60746E-13
 -1      3658 1.99129E+01 1.57200E-01-4.85094E-04-2.31413E-01 1.79805E-13-1.23117E-13
 -1      3659 1.98673E+01 1.74300E-01-7.27813E-04-2.80922E-01 1.84016E-13-5.95176E-14
 -1      3660 1.99229E+01 1.57668E-01 8.98200E-04-2.01624E-01 1.50483E-13-1.15902E-13
 -1      3661 1.99227E+01 1.53637E-01-5.71562E-04-1.77421E-01 1.25538E-13-6.15670E-14
 -1      3662 1.98810E+01 1.80677E-01-2.31831E-04-2.13196E-01 1.48496E-13-1.72301E-13
 -1      3663 1.99345E+01 1.47816E-01 6.50780E-04-1.53911E-01 8.77455E-14-5.78846E-14
 -1      3664 1.99371E+01 1.39335E-01-5.66232E-04-1.34010E-01 7.91987E-14 3.68619E-14
 -1      3665 1.99013E+01 1.70171E-01 4.45361E-05-1.59853E-01 1.71822E-13 6.86906E-15
 -1      3666 1.99486E+01 1.30355E-01 4.69329E-04-1.15730E-01 7.66892E-14-1.09909E-14
 -1      3667 1.99521E+01 1.19997E-01-5.13305E-04-9.96932E-02 1.59971E-13 1.00240E-13
 -1      3668 1.99230E+01 1.50722E-01 1.79127E-04-1.18457E-01 1.07803E-13 1.03644E-13
 -1      3669 1.99623E+01 1.09931E-01 3.39465E-04-8.56533E-02 1.18221E-13 3.14883E-14
 -1      3670 1.99658E+01 9.93311E-02-4.39885E-04-7.29557E-02 1.51434E-13-1.92464E-14
 -1      3671 1.99431E+01 1.27675E-01 2.27396E-04-8.66905E-02 5.56584E-14 1.28827E-13
 -1      3672 1.99742E+01 8.94610E-02 2.47319E-04-6.22945E-02 1.32389E-13-1.81391E-13
 -1      3673 1.99772E+01 7.95769E-02-3.61869E-04-5.24026E-02 1.51347E-14-1.44870E-13
 -1      3674 1.99601E+01 1.04395E-01 2.26301E-04-6.25506E-02 2.32363E-14-6.83707E-14
 -1      3675 1.99837E+01 7.06164E-02 1.82050E-04-4.43986E-02 2.13575E-14-1.32437E-13
 -1      3676 1.99861E+01 6.19336E-02-2.88103E-04-3.68149E-02 8.91496E-14-1.28135E-13
 -1      3677 1.99738E+01 8.28326E-02 2.00302E-04-4.43780E-02 5.03422E-14-4.02760E-14
 -1      3678 1.99910E+01 5.42132E-02 1.35439E-04-3.08785E-02 1.35285E-13-1.94937E-13
 -1      3679 1.99927E+01 4.69087E-02-2.23024E-04-2.51592E-02 1.47387E-13-1.21618E-13
 -1      3680 1.99842E+01 6.39606E-02 1.64511E-04-3.08335E-02 8.97757E-14-1.14095E-13
 -1      3681 1.99963E+01 4.05126E-02 1.01722E-04-2.08168E-02 1.27949E-13-7.59271E-14
 -1      3682 1.99974E+01 3.45744E-02-1.68184E-04-1.65798E-02 1.79360E-13 2.59671E-14
 -1      3683 1.99918E+01 4.81139E-02 1.27596E-04-2.08508E-02 2.12314E-13-1.86037E-13
 -1      3684 1.99998E+01 2.94429E-02 7.68437E-05-1.34551E-02 1.50175E-13-2.44876E-14
 -1      3685 2.00005E+01 2.47546E-02-1.23516E-04-1.03780E-02-3.30329E-14 5.82828E-14
 -1      3686 1.99971E+01 3.52402E-02 9.40732E-05-1.35916E-02 8.99517E-14-1.24592E-17
 -1      3687 2.00020E+01 2.07519E-02 5.81918E-05-8.17365E-03-1.20039E-13 7.66799E-14
 -1      3688 2.00023E+01 1.71472E-02-8.81895E-05-5.98996E-03 1.09123E-13 8.22646E-14
 -1      3689 2.00005E+01 2.50745E-02 6.59191E-05-8.39809E-03 1.04432E-14-1.02159E-13
 -1      3690 2.00033E+01 1.41057E-02 4.39808E-05-4.47305E-03 1.83532E-13-1.90912E-14
 -1      3691 2.00033E+01 1.14044E-02-6.09486E-05-2.96617E-03 4.39453E-14-5.18878E-14
 -1      3692 2.00026E+01 1.72520E-02 4.35795E-05-4.75668E-03 1.18928E-14-7.69873E-14
 -1      3693 2.00038E+01 9.15267E-03 3.30273E-05-1.95568E-03-5.05093E-14 7.30582E-15
 -1      3694 2.00037E+01 7.18088E-03-4.04671E-05-9.52334E-04 2.44542E-14 7.46778E-14
 -1      3695 2.00037E+01 1.13815E-02 2.66613E-05-2.26878E-03 4.04823E-14 1.95474E-14
 -1      3696 2.00039E+01 5.55875E-03 2.45538E-05-3.08772E-04 8.37967E-14 6.81677E-14
 -1      3697 2.00037E+01 4.16019E-03-2.54445E-05 3.27223E-04 7.56829E-14-2.49900E-14
 -1      3698 2.00041E+01 7.08776E-03 1.43759E-05-6.26215E-04 5.04671E-14 7.57006E-14
 -1      3699 2.00037E+01 3.02710E-03 1.79841E-05 7.10066E-04-3.42145E-14-1.57865E-13
 -1      3700 2.00034E+01 2.06784E-03-1.47121E-05 1.08420E-03-1.18835E-13-4.99663E-14
 -1      3701 2.00041E+01 4.03379E-03 5.86509E-06 4.06616E-04-3.24212E-14-2.59146E-13
 -1      3702 2.00033E+01 1.30520E-03 1.29186E-05 1.28639E-03-1.86739E-13 2.78720E-14
 -1      3703 2.00030E+01 6.74288E-04-7.28718E-06 1.47892E-03-1.12838E-13-1.20875E-13
 -1      3704 2.00038E+01 1.93125E-03 2.81839E-07 1.00863E-03-1.53709E-13-1.62485E-13
 -1      3705 2.00028E+01 1.85106E-04 9.04239E-06 1.55988E-03 6.36187E-14-4.34267E-14
 -1      3706 2.00026E+01-2.06837E-04-2.34958E-06 1.63075E-03 1.05966E-13-1.23114E-13
 -1      3707 2.00033E+01 5.41121E-04-3.11999E-06 1.31401E-03-1.51465E-14-4.83072E-14
 -1      3708 2.00023E+01-4.99832E-04 6.10488E-06 1.63382E-03 1.53421E-14-5.05566E-14
 -1      3709 2.00021E+01-7.23238E-04 7.56460E-07 1.62685E-03 3.88028E-14 4.19828E-14
 -1      3710 2.00028E+01-3.29279E-04-4.96104E-06 1.42185E-03 1.95022E-13-4.44080E-14
 -1      3711 2.00018E+01-8.80462E-04 3.91989E-06 1.58301E-03 1.29047E-13 8.54132E-14
 -1      3712 2.00016E+01-9.89920E-04 2.56856E-06 1.52940E-03 2.12814E-13 1.67952E-13
 -1      3713 2.00023E+01-8.31977E-04-5.74351E-06 1.40418E-03 1.53506E-13 2.38436E-13
 -1      3714 2.00014E+01-1.05811E-03 2.34323E-06 1.45993E-03 3.10544E-13 1.59362E-13
 -1      3715 2.00012E+01-1.09521E-03 3.27089E-06 1.38105E-03 3.23478E-13 2.62207E-13
 -1      3716 2.00018E+01-1.08516E-03-5.82890E-06 1.31197E-03 3.03863E-13 3.35206E-13
 -1      3717 2.00010E+01-1.10703E-03 1.33404E-06 1.29935E-03 8.35212E-14 2.01553E-13
 -1      3718 2.00009E+01-1.10645E-03 8.28781E-07 1.21271E-03-1.53218E-13-1.35444E-14
 -1      3719 2.00014E+01-1.17781E-03-4.82707E-06 1.18009E-03 1.73602E-13 2.92087E-13
 -1      3720 2.40934E+01 3.90621E+00-5.90595E-02 1.03069E+00-2.10729E-13-4.05936E-13
 -1      3721 1.86142E+01 1.13003E+00-5.26759E-03 3.09743E-01-9.56672E-14-2.23351E-14
 -1      3722 1.82982E+01 1.25766E+00-1.15483E-02 3.02260E-01-1.62164E-13-4.08958E-14
 -1      3723 1.90627E+01 9.01714E-01-4.15742E-03 3.31645E-01-3.04376E-14 1.93768E-14
 -1      3724 1.88607E+01 1.01049E+00-7.79248E-03 3.46365E-01-1.27511E-14 3.10814E-16
 -1      3725 1.86657E+01 1.08031E+00 1.21606E-02 1.12817E-01-1.08538E-13-8.00111E-14
 -1      3726 1.97293E+01 4.18193E-01-1.98675E-03 2.37967E-01-1.76787E-14 1.48775E-13
 -1      3727 1.96722E+01 4.78123E-01-1.63738E-03 2.67247E-01 4.35336E-15 1.30520E-13
 -1      3728 1.98255E+01 3.18377E-01-1.54462E-03 1.94441E-01-7.35219E-14 1.14082E-13
 -1      3729 1.97890E+01 3.65346E-01-8.67540E-04 2.21209E-01 4.63421E-14 1.93057E-13
 -1      3730 1.97159E+01 4.17069E-01 2.77243E-03 1.83751E-01-8.97082E-14-1.12755E-13
 -1      3731 1.98922E+01 2.37487E-01-1.19394E-03 1.52462E-01 8.54862E-14-1.03394E-14
 -1      3732 1.98684E+01 2.75433E-01-3.87884E-04 1.76528E-01-2.75721E-14 4.03541E-14
 -1      3733 1.98141E+01 3.18222E-01 1.89175E-03 1.54749E-01 2.69104E-14-3.78874E-14
 -1      3734 1.99338E+01 1.78536E-01-8.96943E-04 1.17833E-01 1.08588E-13 5.97410E-14
 -1      3735 1.99201E+01 2.06317E-01-9.99988E-05 1.36946E-01 8.52510E-14 9.12487E-14
 -1      3736 1.98808E+01 2.40823E-01 1.29205E-03 1.25017E-01 6.26209E-14 5.52882E-14
 -1      3737 1.99611E+01 1.33250E-01-6.80558E-04 8.89266E-02 2.09524E-13 1.91083E-14
 -1      3738 1.99529E+01 1.54647E-01 6.06178E-05 1.04404E-01 1.60780E-13 2.22457E-14
 -1      3739 1.99246E+01 1.81994E-01 8.52092E-04 9.82606E-02 1.14203E-13 1.74639E-14
 -1      3740 1.99787E+01 9.86249E-02-5.09294E-04 6.55423E-02 1.60571E-13 2.18817E-13
 -1      3741 1.99740E+01 1.14998E-01 1.25967E-04 7.77852E-02 1.93229E-13 5.59211E-14
 -1      3742 1.99541E+01 1.36431E-01 5.65995E-04 7.50691E-02 1.53949E-13 6.67964E-14
 -1      3743 1.99899E+01 7.22555E-02-3.76554E-04 4.71043E-02 1.26007E-13 3.55016E-13
 -1      3744 1.99873E+01 8.47256E-02 1.46638E-04 5.65899E-02 2.00002E-13 3.64138E-13
 -1      3745 1.99737E+01 1.01298E-01 3.73388E-04 5.58211E-02 7.94667E-14 5.50386E-14
 -1      3746 1.99968E+01 5.22485E-02-2.83716E-04 3.28866E-02 2.25967E-13 6.27802E-14
 -1      3747 1.99956E+01 6.17076E-02 1.39896E-04 4.01018E-02 1.78843E-13 3.36537E-13
 -1      3748 1.99865E+01 7.43707E-02 2.46236E-04 4.03706E-02 2.65323E-13 1.70912E-13
 -1      3749 2.00010E+01 3.65589E-02-2.04668E-04 2.17178E-02 1.64904E-13-8.05193E-14
 -1      3750 2.00005E+01 4.39327E-02 1.24765E-04 2.72885E-02 1.40725E-13 2.38492E-14
 -1      3751 1.99948E+01 5.34508E-02 1.66372E-04 2.80695E-02 2.80638E-13 1.26821E-13
 -1      3752 2.00032E+01 2.55055E-02-1.40223E-04 1.39554E-02 2.81981E-13-1.04369E-13
 -1      3753 2.00032E+01 3.07193E-02 1.05884E-04 1.78135E-02 2.71616E-13-6.29227E-14
 -1      3754 1.99998E+01 3.76786E-02 9.57667E-05 1.87563E-02 2.59159E-13-1.86297E-14
 -1      3755 2.00042E+01 1.73283E-02-9.77232E-05 8.36607E-03-8.90992E-14 1.28098E-14
 -1      3756 2.00045E+01 2.11713E-02 8.66678E-05 1.11137E-02 1.20626E-13 1.44915E-14
 -1      3757 2.00027E+01 2.62394E-02 5.56504E-05 1.20614E-02 1.60447E-13 5.73105E-14
 -1      3758 2.00045E+01 1.13674E-02-6.62841E-05 4.45502E-03-2.33406E-13 1.94972E-13
 -1      3759 2.00049E+01 1.41586E-02 6.80562E-05 6.36029E-03-2.12959E-13 8.41690E-14
 -1      3760 2.00041E+01 1.77832E-02 3.05390E-05 7.22593E-03-2.17317E-13 1.84481E-13
 -1      3761 2.00044E+01 7.08656E-03-4.52096E-05 1.80502E-03-6.01527E-14 1.02570E-13
 -1      3762 2.00048E+01 9.08367E-03 5.16667E-05 3.08468E-03-8.38422E-14 2.03587E-13
 -1      3763 2.00047E+01 1.16191E-02 1.50933E-05 3.83339E-03-2.18824E-13 2.77889E-13
 -1      3764 2.00040E+01 3.95946E-03-2.82930E-05 2.17869E-05-1.05899E-14 7.49676E-14
 -1      3765 2.00043E+01 5.40030E-03 3.82096E-05 8.66256E-04-5.43720E-14 1.28213E-13
 -1      3766 2.00047E+01 7.12182E-03 7.40623E-06 1.49377E-03-3.96628E-14 1.35903E-13
 -1      3767 2.00034E+01 1.94809E-03-1.52086E-05-9.93374E-04 1.43613E-14 2.69912E-13
 -1      3768 2.00038E+01 2.87455E-03 2.78145E-05-5.16020E-04 8.20315E-14 1.35645E-13
 -1      3769 2.00043E+01 3.97301E-03-1.86717E-06-1.45490E-05-3.16626E-14 3.15559E-13
 -1      3770 2.00029E+01 6.17519E-04-7.35606E-06-1.54994E-03 1.71325E-14 4.04959E-13
 -1      3771 2.00032E+01 1.22172E-03 1.95750E-05-1.29698E-03-3.89309E-14 4.94076E-13
 -1      3772 2.00038E+01 1.89904E-03-5.44431E-06-8.97477E-04-1.59937E-13 5.16819E-13
 -1      3773 2.00024E+01-2.18535E-04-2.25104E-06-1.79379E-03-4.34791E-14 4.03901E-13
 -1      3774 2.00026E+01 1.54751E-04 1.33636E-05-1.69128E-03 6.18355E-14 4.74671E-13
 -1      3775 2.00033E+01 5.36519E-04-7.00597E-06-1.37871E-03 6.14315E-14 6.09794E-13
 -1      3776 2.00019E+01-7.06000E-04 9.33425E-07-1.83429E-03 3.04081E-13 4.46739E-13
 -1      3777 2.00021E+01-4.94248E-04 8.75174E-06-1.82859E-03 1.70503E-13 4.98618E-13
 -1      3778 2.00027E+01-3.13791E-04-7.44708E-06-1.58739E-03 8.70132E-14 5.89160E-13
 -1      3779 2.00014E+01-9.56161E-04 2.74322E-06-1.75030E-03-5.87172E-15 1.20449E-13
 -1      3780 2.00016E+01-8.52749E-04 5.44665E-06-1.80292E-03 2.09173E-13 2.37576E-13
 -1      3781 2.00022E+01-8.04262E-04-7.17597E-06-1.61902E-03 3.71941E-13 4.42841E-13
 -1      3782 2.00010E+01-1.05375E-03 3.61609E-06-1.58732E-03 8.15300E-14-4.11870E-14
 -1      3783 2.00012E+01-1.02042E-03 3.02359E-06-1.67720E-03 1.36596E-14 7.58222E-14
 -1      3784 2.00017E+01-1.05300E-03-6.42369E-06-1.53864E-03 7.08498E-14 2.31011E-13
 -1      3785 2.00007E+01-1.05365E-03 3.75149E-06-1.39884E-03 5.53962E-14-1.44050E-13
 -1      3786 2.00008E+01-1.06124E-03 1.54413E-06-1.49849E-03 6.85843E-14-5.69004E-14
 -1      3787 2.00012E+01-1.14245E-03-6.01295E-06-1.39711E-03 1.29781E-13 2.25838E-13
 -1      3788 2.00012E+01-1.32781E-03 1.86802E-06-3.35632E-04 2.11167E-13-3.28803E-14
 -1      3789 2.00012E+01-1.29982E-03-1.84794E-07-5.42550E-04 1.80239E-13-3.29209E-13
 -1      3790 2.00003E+01-9.67698E-04 2.74305E-06-1.07767E-03 1.70056E-13-7.57867E-13
 -1      3791 2.36740E+01 3.59189E+00-6.56583E-03-1.07257E+00-2.91021E-13-1.99058E-13
 -1      3792 1.93724E+01 7.06906E-01-3.24619E-03 3.16328E-01 1.63990E-14-2.49286E-14
 -1      3793 1.92379E+01 7.99404E-01-4.77622E-03 3.41912E-01-2.44450E-14 2.26567E-14
 -1      3794 1.90780E+01 8.72931E-01 8.46215E-03 1.88927E-01-3.09053E-14-4.64160E-14
 -1      3795 2.38395E+01 2.99608E+00-2.22267E-02-1.63118E+00-2.90377E-13-1.43053E-13
 -1      3796 1.95864E+01 5.45328E-01-2.55496E-03 2.80928E-01 1.85665E-14 3.53068E-14
 -1      3797 1.94983E+01 6.20660E-01-2.87861E-03 3.10490E-01 5.89724E-14 1.53706E-14
 -1      3798 1.95760E+01 5.38607E-01 4.04139E-03 2.05863E-01-6.29551E-14-9.92811E-14
 -1      3799 1.64514E+01-1.72435E-01 3.36336E-02-3.65199E+00 1.10097E-13 2.08991E-13
 -1      3800 1.80026E+01-1.24905E+00-5.65422E-02-3.99476E+00 2.32387E-13 1.19680E-13
 -1      3801 1.59230E+01 1.84543E+00-2.06124E-02 1.96086E-01-1.07469E-13 2.45917E-14
 -1      3802 1.51400E+01 1.90495E+00-2.87394E-03 2.52969E-01-1.21625E-13 8.63892E-15
 -1      3803 1.48680E+01 1.89734E+00 4.79525E-02-4.40249E-01-7.07255E-14 2.27843E-14
 -1      3804 2.39661E+01 2.28201E+00-4.55180E-02-1.89210E+00-2.73798E-13-1.24306E-13
 -1      3805 1.79515E+01 1.38398E+00-6.79121E-03 2.25318E-01-1.46459E-13-3.86864E-14
 -1      3806 1.75190E+01 1.50720E+00-1.19476E-02 1.81196E-01-1.49261E-13-4.07187E-14
 -1      3807 1.80822E+01 1.30120E+00 1.64484E-02-4.67622E-02-1.44325E-13-5.57185E-14
 -1      3808 1.70912E+01 1.62659E+00-1.57237E-02 1.66692E-01-1.35588E-13-3.48362E-14
 -1      3809 1.65335E+01 1.74996E+00-9.02699E-03 1.84496E-01-9.68071E-14 5.66539E-15
 -1      3810 1.63775E+01 1.74824E+00 3.42030E-02-3.00532E-01-1.16007E-13-4.02934E-14
 -1      3811 1.73394E+01 1.52202E+00 2.27899E-02-2.08770E-01-1.11182E-13-4.74297E-14
 -1      3812 2.51520E+01 4.81552E-01-7.08968E-02-1.86269E+00-2.11033E-13-1.24093E-14
 -1      3813 2.53490E+01-3.71385E-01-2.03652E-02-1.23741E+00-9.92331E-14 4.51321E-15
 -1      3814 1.49682E+01 1.02948E+00-1.05316E-03-2.34249E+00-8.20264E-15 3.76475E-13
 -1      3815 1.56156E+01 4.14809E-01 9.99314E-03-3.20739E+00 4.70821E-14 3.43361E-13
 -1      3816 1.69381E+01 1.87064E-01 3.47456E-02-2.94933E+00 1.11981E-13 1.03507E-13
 -1      3817 1.99049E+01-1.89189E+00 6.93591E-02-3.77486E+00 2.46629E-13 8.36930E-14
 -1      3818 2.15786E+01-2.65347E+00-3.96847E-02-2.98276E+00 2.10313E-13-1.55136E-14
 -1      3819 2.35751E+01-3.88270E-01-1.45053E-02-1.06635E+00 5.56426E-14-1.23925E-13
 -1      3820 2.38867E+01-1.51340E-01-1.60861E-03-1.44463E+00-5.98938E-14-9.19605E-14
 -1      3821 2.45502E+01-6.66868E-02 2.05113E-02-1.47520E+00-8.27099E-14-4.75535E-14
 -1      3822 2.37773E+01-5.81514E-01 8.81926E-04-6.30756E-01 9.67715E-14-1.14287E-13
 -1      3823 2.44977E+01-1.58487E+00-1.03987E-02 7.64524E-01 1.79255E-13-2.10982E-13
 -1      3824 2.34703E+01-1.39277E+00-9.74866E-03 8.54906E-01 6.65514E-14-2.47490E-13
 -1      3825 2.32759E+01-1.62495E+00 1.05377E-02 5.48773E-01 5.94381E-14-1.64863E-13
 -1      3826 2.44350E+01-2.12612E+00 2.46955E-02 2.05268E-01 1.98968E-13-1.87534E-13
 -1      3827 2.00005E+01-1.03941E-03-5.46113E-07-1.09634E-03 1.93124E-13-7.69174E-13
 -1      3828 1.45975E+01 1.63204E+00-2.39518E-03-1.08712E+00-3.14939E-14 1.19691E-13
 -1      3829 1.47541E+01 1.41162E+00 4.20193E-02-1.83548E+00-3.06114E-14 3.34442E-13
 -1      3830 1.58163E+01 1.08337E+00 1.09749E-02-2.02839E+00 3.04603E-14 2.91702E-13
 -1      3831 2.30374E+01-5.76233E-01-1.87683E-02 3.20210E-01 2.17676E-13-1.75295E-13
 -1      3832 2.34881E+01-6.72413E-01 2.05406E-02-3.59846E-04 1.81208E-13-1.37408E-13
 -1      3833 2.39999E+01-8.74754E-01-1.84504E-02-3.57603E-01 9.76528E-14-1.09684E-13
 -1      3834 2.30088E+01-8.12920E-01 6.23126E-03 9.40112E-01 2.71109E-13-1.27526E-13
 -1      3835 2.50567E+01-9.25989E-01-7.42485E-03-7.65848E-01 1.46823E-14-2.15904E-14
 -1      3836 2.00006E+01-1.08440E-03 2.16672E-06 1.04824E-03-2.02568E-13 8.35882E-14
 -1      3837 1.92122E+01-1.23415E+00 2.68235E-02-3.31391E+00 1.54363E-13 1.17903E-13
 -1      3838 2.00013E+01-1.34225E-03-4.87126E-08 1.19035E-04 3.02102E-13 7.68378E-13
 -1      3839 2.00013E+01-1.34213E-03 8.76683E-07-9.63396E-05 2.54598E-13 4.60465E-13
 -1      3840 2.00015E+01-1.35352E-03-2.55246E-06-2.28662E-04 3.66192E-13 2.33109E-13
 -1      3841 2.30166E+01-1.29899E+00-2.63207E-02 1.73858E+00 2.86340E-13-5.16184E-14
 -1      3842 2.00013E+01-1.29951E-03-1.09621E-06-6.62965E-04 5.19201E-13-4.45729E-13
 -1      3843 2.00011E+01-1.25649E-03 3.02270E-06-7.32051E-04 3.13795E-13-3.39697E-13
 -1      3844 2.00009E+01-1.21015E-03-2.91799E-06-8.83571E-04 4.42328E-13-4.67598E-13
 -1      3845 2.00004E+01-1.01630E-03-3.06463E-09-1.20179E-03 1.08266E-13-6.47139E-13
 -1      3846 2.00005E+01-1.03637E-03-1.96841E-07-1.30253E-03 3.13727E-14-4.35437E-13
 -1      3847 2.46886E+01-1.23943E+00-3.03181E-02-3.27703E-02 8.85932E-14-1.84913E-14
 -1      3848 1.93714E+01 6.90374E-01 5.80345E-03 2.12683E-01 4.85935E-14-1.50793E-13
 -1      3849 2.39440E+01-1.39875E+00 3.46472E-02 9.62438E-01 2.09761E-13-3.59547E-14
 -1      3850 2.11952E+01-2.06321E+00-1.60399E-02-2.48456E+00 1.32809E-13-9.66241E-16
 -1      3851 2.23264E+01-2.62779E+00 1.89513E-02-2.33451E+00 2.05341E-13-1.03935E-13
 -1      3852 2.26037E+01-2.43573E+00-1.15535E-02-1.54846E+00 1.61913E-13-7.32175E-14
 -1      3853 2.45499E+01 1.08894E+00-9.92745E-03-2.00660E+00-2.39489E-13-2.60425E-14
 -1      3854 2.32575E+01-1.94402E+00-1.18540E-02 4.90117E-02 8.66394E-14-8.85386E-14
 -1      3855 2.00009E+01-1.17405E-03-2.73247E-06 9.50982E-04-2.59300E-13 1.33244E-13
 -1      3856 2.00010E+01-1.23195E-03 4.01815E-06 7.76479E-04-1.20232E-13 1.19291E-13
 -1      3857 2.36641E+01-2.33240E+00-1.01817E-02-3.65160E-01 1.79931E-13-1.08477E-13
 -1      3858 2.00008E+01-1.12621E-03-3.34163E-06 1.12476E-03-2.50631E-13 5.58187E-14
 -1      3859 2.00009E+01-1.13629E-03-4.20715E-06-1.22957E-03 2.66894E-13-1.25983E-13
 -1      3860 2.00008E+01-1.14571E-03-1.67410E-06 1.03836E-03-3.52003E-13 5.98110E-14
 -1      3861 1.82755E+01 1.10756E+00-3.75512E-04-2.56375E-01-1.62425E-13-8.05867E-14
 -1      3862 1.79186E+01 1.18153E+00-1.32456E-02-3.87480E-01-8.66859E-14-4.06690E-14
 -1      3863 2.15796E+01-1.57281E+00 8.29001E-03-1.09761E+00 5.45970E-14 6.49914E-15
 -1      3864 2.12019E+01-1.31398E+00 1.58237E-02-1.16924E+00 2.22691E-14-2.10634E-14
 -1      3865 2.08427E+01-1.04839E+00 3.29667E-03-1.10822E+00-1.44339E-14-3.54287E-14
 -1      3866 2.05858E+01-8.06373E-01 1.17280E-02-1.08445E+00-3.06803E-14-3.45637E-14
 -1      3867 2.07700E+01-1.17248E+00-1.27414E-02-1.42023E+00 1.01340E-15-6.80434E-14
 -1      3868 2.03680E+01-5.99588E-01 4.53384E-03-9.89683E-01-3.86804E-14-3.75772E-14
 -1      3869 2.01891E+01-4.15493E-01 4.80836E-03-9.30805E-01 1.40186E-14-2.86390E-14
 -1      3870 2.02551E+01-6.69712E-01-9.62568E-03-1.23555E+00-3.17075E-14-5.68396E-14
 -1      3871 2.00756E+01-2.61204E-01 5.32502E-03-8.22845E-01 1.21683E-13-1.39009E-14
 -1      3872 1.99621E+01-1.35972E-01 1.76956E-03-7.53672E-01 9.70335E-14 6.52625E-14
 -1      3873 1.99417E+01-2.83863E-01-8.99555E-03-9.89232E-01 9.07490E-14-4.49239E-14
 -1      3874 1.99122E+01-3.40415E-02 4.43175E-03-6.56373E-01 4.35716E-14 8.49717E-14
 -1      3875 1.98475E+01 4.40561E-02 1.52155E-04-5.90290E-01 3.26065E-14 1.02536E-13
 -1      3876 1.97908E+01-2.60537E-02-5.04609E-03-7.63808E-01 8.57573E-14 1.20094E-13
 -1      3877 1.98351E+01 1.05575E-01 3.41830E-03-5.09229E-01 1.62775E-14 7.65462E-14
 -1      3878 1.98033E+01 1.48602E-01-6.52276E-04-4.51648E-01 1.10720E-13 8.17921E-14
 -1      3879 1.97317E+01 1.29192E-01-2.71173E-03-5.75022E-01 1.53069E-14 1.61704E-13
 -1      3880 1.98118E+01 1.80477E-01 2.50787E-03-3.87344E-01 1.54405E-13 3.28873E-14
 -1      3881 1.98006E+01 1.99015E-01-9.90323E-04-3.39752E-01 1.66981E-13 4.26610E-14
 -1      3882 1.97273E+01 2.11127E-01-1.22566E-03-4.24334E-01 1.13123E-13 4.61005E-14
 -1      3883 1.98193E+01 2.10655E-01 1.75556E-03-2.90441E-01 1.17993E-13 1.50148E-15
 -1      3884 1.98199E+01 2.13280E-01-1.06202E-03-2.52373E-01 9.40878E-14-1.22201E-13
 -1      3885 1.97522E+01 2.42954E-01-3.45652E-04-3.08721E-01 1.20250E-13-1.28425E-13
 -1      3886 1.98421E+01 2.12084E-01 1.18657E-03-2.15387E-01 1.12808E-13-1.71166E-13
 -1      3887 1.98489E+01 2.05191E-01-9.96623E-04-1.85581E-01 1.37132E-13-1.34150E-13
 -1      3888 1.97901E+01 2.42971E-01 1.31948E-04-2.22274E-01 6.91108E-14-7.17188E-14
 -1      3889 1.98707E+01 1.96605E-01 7.78821E-04-1.58259E-01 2.09106E-13-1.70045E-13
 -1      3890 1.98800E+01 1.84726E-01-8.70687E-04-1.35250E-01 1.90382E-13-1.08612E-13
 -1      3891 1.98311E+01 2.24508E-01 3.61335E-04-1.58745E-01 1.70138E-13-1.13857E-13
 -1      3892 1.98995E+01 1.72536E-01 4.99670E-04-1.15276E-01 9.73887E-14-3.20306E-14
 -1      3893 1.99090E+01 1.58707E-01-7.26459E-04-9.76927E-02 1.24568E-13-4.62623E-14
 -1      3894 1.98698E+01 1.96799E-01 4.44877E-04-1.12601E-01 2.11507E-13-2.79348E-13
 -1      3895 1.99254E+01 1.45387E-01 3.15870E-04-8.31824E-02 4.05035E-14-2.98942E-14
 -1      3896 1.99340E+01 1.31497E-01-5.87404E-04-6.98538E-02 4.25067E-14-2.71719E-14
 -1      3897 1.99035E+01 1.65889E-01 4.41709E-04-7.93248E-02 7.03714E-14-1.24619E-13
 -1      3898 1.99472E+01 1.18565E-01 1.97537E-04-5.93749E-02 7.38970E-14-1.07847E-14
 -1      3899 1.99544E+01 1.05715E-01-4.63049E-04-4.93454E-02 1.12863E-13 7.80417E-16
 -1      3900 1.99314E+01 1.35488E-01 3.96003E-04-5.54407E-02 1.04052E-13-1.11595E-13
 -1      3901 1.99646E+01 9.40121E-02 1.23859E-04-4.18122E-02 6.13506E-14 3.68042E-14
 -1      3902 1.99702E+01 8.27480E-02-3.57400E-04-3.43227E-02-2.70475E-14 4.59964E-14
 -1      3903 1.99534E+01 1.07702E-01 3.32635E-04-3.83602E-02 3.72849E-14-1.46997E-14
 -1      3904 1.99779E+01 7.26564E-02 7.88756E-05-2.89374E-02 2.28133E-14-3.54537E-14
 -1      3905 1.99821E+01 6.31700E-02-2.70336E-04-2.33936E-02 1.35627E-13-2.62104E-15
 -1      3906 1.99701E+01 8.35283E-02 2.66695E-04-2.61822E-02-2.81140E-14-1.86319E-14
 -1      3907 1.99877E+01 5.47814E-02 5.20067E-05-1.95670E-02 1.99078E-13-9.27807E-14
 -1      3908 1.99906E+01 4.70390E-02-2.00708E-04-1.55071E-02 1.37592E-13-1.73602E-14
 -1      3909 1.99824E+01 6.32608E-02 2.04395E-04-1.75319E-02 6.35063E-14 3.25945E-14
 -1      3910 1.99945E+01 4.02724E-02 3.58549E-05-1.28150E-02 8.46416E-14 2.58353E-14
 -1      3911 1.99965E+01 3.41240E-02-1.45977E-04-9.88074E-03 5.55319E-14 8.15201E-15
 -1      3912 1.99911E+01 4.67696E-02 1.51115E-04-1.14208E-02 1.93988E-13 3.85478E-14
 -1      3913 1.99991E+01 2.88081E-02 2.61314E-05-8.01080E-03 3.64316E-14-2.67444E-14
 -1      3914 2.00003E+01 2.40444E-02-1.03764E-04-5.92483E-03-2.03891E-14 2.44605E-14
 -1      3915 1.99970E+01 3.36951E-02 1.07563E-04-7.14168E-03 4.22620E-14 3.66953E-14
 -1      3916 2.00020E+01 1.99690E-02 2.00533E-05-4.64893E-03 7.79833E-15 1.01102E-14
 -1      3917 2.00026E+01 1.63644E-02-7.17778E-05-3.19686E-03-1.36420E-14-6.00542E-14
 -1      3918 2.00008E+01 2.35726E-02 7.33626E-05-4.18147E-03-3.78937E-14 1.60281E-14
 -1      3919 2.00036E+01 1.33142E-02 1.59197E-05-2.34845E-03 5.87517E-15-8.57915E-14
 -1      3920 2.00039E+01 1.06521E-02-4.79339E-05-1.36504E-03 9.07733E-14-7.43076E-14
 -1      3921 2.00031E+01 1.59130E-02 4.75500E-05-2.17075E-03-1.14300E-14-5.80415E-14
 -1      3922 2.00043E+01 8.42560E-03 1.29377E-05-8.20403E-04 1.76097E-13-7.26275E-14
 -1      3923 2.00043E+01 6.50919E-03-3.06034E-05-1.78694E-04 2.00091E-13 1.22795E-13
 -1      3924 2.00042E+01 1.02506E-02 2.81886E-05-8.39349E-04 1.00429E-13-8.62720E-14
 -1      3925 2.00045E+01 4.92783E-03 1.05825E-05 1.51770E-04-8.51696E-14 6.78908E-14
 -1      3926 2.00043E+01 3.58840E-03-1.82362E-05 5.48420E-04-1.57847E-13-1.36225E-13
 -1      3927 2.00046E+01 6.16951E-03 1.47131E-05 9.99086E-06 3.55435E-14 8.47965E-14
 -1      3928 2.00042E+01 2.50092E-03 8.63711E-06 7.31124E-04-1.51832E-13-1.20324E-13
 -1      3929 2.00040E+01 1.59749E-03-9.64620E-06 9.55747E-04-1.72464E-13-6.01838E-14
 -1      3930 2.00046E+01 3.31106E-03 5.58990E-06 5.20695E-04-1.30800E-13 4.77912E-14
 -1      3931 2.00038E+01 8.79095E-04 6.97617E-06 1.03897E-03-3.52283E-14 3.21457E-14
 -1      3932 2.00036E+01 2.97303E-04-3.88543E-06 1.14605E-03 9.07228E-14 1.74755E-13
 -1      3933 2.00042E+01 1.37713E-03-2.81141E-07 7.98434E-04-8.21747E-14 1.11789E-13
 -1      3934 2.00033E+01-1.52189E-04 5.53553E-06 1.16456E-03 2.30333E-13 1.05008E-13
 -1      3935 2.00030E+01-5.02976E-04-1.94242E-07 1.19413E-03 3.20383E-13 2.01462E-13
 -1      3936 2.00037E+01 1.25922E-04-3.79485E-06 9.19726E-04 1.40079E-13 3.03338E-13
 -1      3937 2.00027E+01-7.62342E-04 4.24318E-06 1.17280E-03 2.26414E-13 2.99488E-13
 -1      3938 2.00025E+01-9.52616E-04 2.07427E-06 1.15372E-03 1.42061E-13 3.58104E-13
 -1      3939 2.00031E+01-6.34040E-04-5.63935E-06 9.39585E-04 3.55312E-13 2.64877E-13
 -1      3940 2.00022E+01-1.08337E-03 2.97935E-06 1.11053E-03 1.16262E-13 4.41097E-13
 -1      3941 2.00019E+01-1.16830E-03 3.38575E-06 1.06330E-03 3.88053E-13 3.68618E-13
 -1      3942 2.00025E+01-1.05123E-03-6.19772E-06 8.97994E-04 1.83666E-13 4.74641E-13
 -1      3943 2.00017E+01-1.21584E-03 1.54549E-06 1.00653E-03 2.41804E-13 2.23416E-13
 -1      3944 2.00014E+01-1.23619E-03 9.38812E-07 9.46861E-04-5.37262E-14-8.29294E-15
 -1      3945 2.00020E+01-1.24337E-03-5.05000E-06 8.16128E-04 1.09666E-13 1.40082E-13
 -1      3946 1.87658E+01 9.42692E-01-5.36597E-04-5.25562E-02-1.54833E-13-1.20776E-13
 -1      3947 1.85051E+01 1.02321E+00-1.16394E-02-1.24220E-01-1.83585E-13-1.52826E-13
 -1      3948 1.84663E+01 9.82298E-01 1.12600E-02-4.23947E-01-1.44260E-13 2.94107E-14
 -1      3949 1.98052E+01 2.99711E-01-9.38999E-04 1.11471E-01-4.51438E-15-9.03081E-14
 -1      3950 1.97623E+01 3.42452E-01-1.30829E-03 1.24149E-01-3.18561E-14-1.08131E-13
 -1      3951 1.97100E+01 3.88357E-01-1.07194E-03 1.26079E-01-5.73507E-14-1.33220E-13
 -1      3952 1.96495E+01 4.38471E-01-2.17032E-03 1.35582E-01-9.47997E-14-1.45700E-13
 -1      3953 1.97179E+01 3.74628E-01 2.25973E-03 8.07294E-02-3.46781E-14-2.22905E-13
 -1      3954 1.99160E+01 1.75020E-01-6.54615E-04 7.48201E-02 1.51069E-13 7.52467E-15
 -1      3955 1.98978E+01 2.00839E-01-4.02962E-04 8.62259E-02 1.25527E-13 6.76657E-14
 -1      3956 1.99472E+01 1.31988E-01-5.20446E-04 5.79791E-02 1.01175E-13 3.47319E-14
 -1      3957 1.99352E+01 1.52298E-01-1.97578E-04 6.78270E-02 9.19524E-14-2.15984E-14
 -1      3958 1.99147E+01 1.73248E-01 7.98363E-04 5.66136E-02 1.37706E-13 3.53916E-15
 -1      3959 1.99684E+01 9.84188E-02-4.04905E-04 4.35156E-02 3.58774E-14 8.64564E-14
 -1      3960 1.99606E+01 1.14260E-01-7.66103E-05 5.16570E-02 3.91131E-14-5.31100E-14
 -1      3961 1.99458E+01 1.31196E-01 5.58424E-04 4.47885E-02 7.22150E-14-1.44568E-13
 -1      3962 1.99827E+01 7.24229E-02-3.13995E-04 3.16329E-02 3.10945E-13-1.14151E-13
 -1      3963 1.99777E+01 8.46832E-02-1.27546E-05 3.81526E-02 2.00781E-13-9.72236E-14
 -1      3964 1.99672E+01 9.81041E-02 3.88242E-04 3.40986E-02 1.83018E-13-2.13819E-13
 -1      3965 1.99924E+01 5.16340E-02-2.35289E-04 2.18238E-02 2.75650E-13-1.36855E-13
 -1      3966 1.99893E+01 6.13878E-02 2.25372E-05 2.70726E-02 3.41215E-13-1.50380E-13
 -1      3967 1.99821E+01 7.17827E-02 2.66233E-04 2.48497E-02 3.26908E-13-4.39308E-13
 -1      3968 1.99982E+01 3.67236E-02-1.69074E-04 1.47148E-02 1.91392E-13-9.24926E-14
 -1      3969 1.99965E+01 4.37344E-02 3.81634E-05 1.84877E-02 1.91207E-13-1.35144E-13
 -1      3970 1.99919E+01 5.15837E-02 1.74645E-04 1.74075E-02 3.03637E-13-3.73142E-13
 -1      3971 2.00017E+01 2.55204E-02-1.21901E-04 9.41020E-03 3.79368E-16 1.77756E-13
 -1      3972 2.00008E+01 3.07763E-02 4.36860E-05 1.21890E-02 2.53865E-13 3.52896E-14
 -1      3973 1.99980E+01 3.66407E-02 1.12193E-04 1.17856E-02 1.45818E-13-1.76716E-13
 -1      3974 2.00036E+01 1.72238E-02-8.53338E-05 5.57031E-03-3.39611E-13 1.81478E-13
 -1      3975 2.00033E+01 2.11036E-02 4.07314E-05 7.56297E-03-2.50717E-13 9.72613E-14
 -1      3976 2.00017E+01 2.54104E-02 7.04910E-05 7.55623E-03-8.83778E-14 6.48083E-14
 -1      3977 2.00045E+01 1.11671E-02-5.95015E-05 2.87381E-03-1.85689E-13 1.15967E-13
 -1      3978 2.00045E+01 1.39885E-02 3.44776E-05 4.26220E-03-2.81147E-13 1.43100E-13
 -1      3979 2.00037E+01 1.70886E-02 4.24592E-05 4.47428E-03-2.50375E-13 4.29795E-14
 -1      3980 2.00047E+01 6.65858E-03-3.87760E-05 9.79839E-04-3.56575E-14 2.60422E-13
 -1      3981 2.00049E+01 8.73680E-03 2.81846E-05 1.93979E-03-8.71321E-14 1.52215E-13
 -1      3982 2.00047E+01 1.09080E-02 2.52094E-05 2.26510E-03-1.11029E-13 5.34048E-14
 -1      3983 2.00045E+01 3.69142E-03-2.28453E-05-1.63198E-04-1.20881E-13 3.97748E-13
 -1      3984 2.00048E+01 5.05818E-03 2.27412E-05 4.16889E-04-2.41760E-14 2.48914E-13
 -1      3985 2.00050E+01 6.50735E-03 9.77501E-06 7.76215E-04 4.50702E-15 5.20839E-14
 -1      3986 2.00041E+01 1.67565E-03-1.27213E-05-8.49918E-04-2.04164E-13 4.39497E-13
 -1      3987 2.00044E+01 2.59473E-03 1.77900E-05-5.06797E-04-1.83959E-13 4.24429E-13
 -1      3988 2.00048E+01 3.53903E-03 1.41262E-06-1.49377E-04-1.75166E-13 1.70131E-13
 -1      3989 2.00035E+01 3.61138E-04-5.83994E-06-1.21527E-03 7.62419E-14 3.57049E-13
 -1      3990 2.00039E+01 9.53046E-04 1.33964E-05-1.03650E-03-2.62673E-14 2.52545E-13
 -1      3991 2.00043E+01 1.53477E-03-3.32559E-06-7.03856E-04-5.19683E-14 1.79470E-13
 -1      3992 2.00030E+01-4.49754E-04-1.34771E-06-1.36370E-03 7.76525E-14 1.95082E-13
 -1      3993 2.00033E+01-9.14000E-05 9.83114E-06-1.29518E-03-6.45915E-14 1.65232E-13
 -1      3994 2.00037E+01 2.35640E-04-5.87850E-06-9.97969E-04 1.49274E-13-9.52953E-14
 -1      3995 2.00024E+01-9.09124E-04 1.40161E-06-1.37239E-03 3.11129E-13 2.26116E-13
 -1      3996 2.00027E+01-7.12162E-04 7.02451E-06-1.37428E-03 3.63159E-13 2.83720E-13
 -1      3997 2.00031E+01-5.58588E-04-6.96863E-06-1.11636E-03 1.36101E-13-5.94987E-14
 -1      3998 2.00019E+01-1.13762E-03 2.87848E-06-1.29112E-03-3.55229E-14 2.82966E-13
 -1      3999 2.00021E+01-1.04753E-03 4.66878E-06-1.33890E-03 1.33961E-13 2.17383E-13
 -1      4000 2.00025E+01-1.00645E-03-6.79359E-06-1.11930E-03 1.96557E-13 1.62868E-13
 -1      4001 2.00014E+01-1.20382E-03 2.95688E-06-1.16621E-03 3.56913E-13 4.51538E-14
 -1      4002 2.00016E+01-1.18276E-03 3.25655E-06-1.23442E-03 8.10257E-14 1.41612E-14
 -1      4003 2.00019E+01-1.21327E-03-5.87162E-06-1.05410E-03 2.35825E-13 2.17609E-14
 -1      4004 2.00007E+01-1.12632E-03 4.80461E-06-1.03266E-03 3.66404E-13-6.15743E-13
 -1      4005 2.00012E+01-1.19869E-03 4.62922E-06 1.01742E-03-2.52560E-13 3.67796E-14
 -1      4006 1.98709E+01 2.29728E-01-8.05799E-04 9.32168E-02-1.09468E-14-3.78120E-14
 -1      4007 1.98437E+01 2.62175E-01-7.66849E-04 1.05629E-01-2.89992E-14-1.15818E-13
 -1      4008 1.98704E+01 2.26134E-01 1.13711E-03 6.83931E-02 3.69238E-14-2.07460E-13
 -1      4009 1.95781E+01 4.94910E-01-1.13725E-03 1.30078E-01-1.53011E-13-7.52665E-14
 -1      4010 1.94901E+01 5.55110E-01-3.46320E-03 1.32974E-01-6.23633E-14-7.00145E-14
 -1      4011 1.95958E+01 4.71848E-01 3.08988E-03 7.02273E-02-6.87851E-14-5.90867E-14
 -1      4012 1.55454E+01 1.61259E+00-8.78866E-03-9.17493E-01-1.75060E-14 9.06332E-14
 -1      4013 2.24079E+01-2.11882E+00-3.84721E-03-1.09559E+00 9.11432E-14-6.63922E-15
 -1      4014 2.19438E+01-1.86402E+00 1.75222E-02-1.26225E+00 7.87616E-14-5.49213E-15
 -1      4015 2.32146E+01-2.27919E+00 3.19820E-02-7.08848E-01 1.36432E-13-5.24949E-14
 -1      4016 2.00012E+01-1.28778E-03-1.21206E-06 5.61889E-04 4.22531E-14 2.89660E-13
 -1      4017 2.00012E+01-1.31733E-03 2.82616E-06 3.59143E-04 8.18308E-14 6.33467E-13
 -1      4018 2.00015E+01-1.34648E-03-7.91414E-07 2.56852E-04 3.69366E-13 5.01172E-13
 -1      4019 2.00013E+01-1.27484E-03-1.03676E-06 7.13382E-04-9.61160E-14 1.08571E-13
 -1      4020 1.91245E+01 7.77966E-01-9.17609E-04 5.96648E-02-5.19734E-15-2.72609E-13
 -1      4021 1.89407E+01 8.56112E-01-7.99166E-03 2.58899E-02-3.82763E-14-1.96332E-13
 -1      4022 1.88762E+01 8.55223E-01 7.69401E-03-1.84234E-01-5.36960E-14-1.81340E-13
 -1      4023 1.85597E+01-6.01310E-01 2.36234E-02-3.00914E+00 1.12146E-13 1.31241E-13
 -1      4024 1.98669E+01-1.40663E+00-2.33429E-02-2.84417E+00 8.72362E-14 1.07886E-13
 -1      4025 1.93905E+01 6.24772E-01-1.07467E-03 1.13513E-01-4.42546E-14-1.65608E-13
 -1      4026 1.92596E+01 6.97028E-01-5.31343E-03 1.02797E-01-1.19325E-14-2.32927E-13
 -1      4027 1.94255E+01 5.87394E-01 4.25470E-03 3.52480E-02-1.67409E-13-3.98676E-14
 -1      4028 1.71001E+01 3.90947E-01-3.65749E-03-2.47748E+00 9.96592E-14 1.20727E-13
 -1      4029 1.78014E+01-1.83958E-01-1.41851E-02-2.87975E+00 1.15188E-13 1.26007E-13
 -1      4030 1.87168E+01-3.35502E-01 2.34206E-02-2.48976E+00 2.77393E-14 1.96344E-13
 -1      4031 2.00009E+01-1.18860E-03 1.56397E-06-1.00299E-03 4.88883E-13-5.59113E-13
 -1      4032 2.14480E+01-1.79177E+00-9.42528E-03-1.70186E+00 4.75442E-14-2.22432E-14
 -1      4033 2.00011E+01-1.20252E-03 2.18003E-06-1.07853E-03 4.77789E-13-2.82397E-13
 -1      4034 1.91900E+01 7.18943E-01 5.75900E-03-4.21478E-02-1.53732E-14-2.67245E-13
 -1      4035 1.98069E+01 2.92816E-01 1.60821E-03 7.79339E-02-6.29732E-14-2.70300E-13
 -1      4036 2.00016E+01-1.32311E-03 1.83523E-06-6.09942E-04 5.88611E-13-4.42422E-13
 -1      4037 2.00014E+01-1.28934E-03 1.35294E-07-8.00704E-04 6.66270E-13-6.00260E-13
 -1      4038 1.61779E+01 1.54357E+00-1.15854E-02-7.59006E-01-4.59498E-14 4.58416E-14
 -1      4039 1.61800E+01 1.37473E+00 2.38756E-02-1.34882E+00 5.54353E-15 1.98637E-13
 -1      4040 1.67391E+01 1.46028E+00-1.16515E-02-6.85598E-01-6.94132E-14-1.03250E-14
 -1      4041 1.63212E+01 1.09208E+00-7.52103E-03-1.72308E+00 1.05358E-14 2.17241E-13
 -1      4042 1.66980E+01 7.71721E-01 1.00236E-02-2.17718E+00 8.17590E-14 1.67315E-13
 -1      4043 1.69198E+01 1.07503E+00 1.35780E-03-1.48294E+00 2.60192E-14 1.68589E-13
 -1      4044 2.05626E+01-1.58349E+00 2.01601E-02-2.54822E+00 5.49877E-14-5.68339E-15
 -1      4045 2.11123E+01-1.69256E+00 5.03797E-03-2.03130E+00 3.72288E-14 3.51767E-14
 -1      4046 2.07707E+01-1.38949E+00-1.18280E-02-1.82281E+00-7.66835E-15-3.10450E-14
 -1      4047 1.97977E+01-1.05270E+00-2.16895E-02-2.38572E+00-9.53447E-15 5.66552E-14
 -1      4048 1.75958E+01 4.84466E-01 1.59719E-02-2.10609E+00 6.00005E-14 1.28645E-13
 -1      4049 1.76077E+01 1.27209E+00-7.77247E-03-4.93681E-01-1.04286E-13-1.30126E-13
 -1      4050 1.72005E+01 1.36373E+00-1.18268E-02-5.65478E-01-1.28070E-13-5.52453E-14
 -1      4051 1.79352E+01 1.11066E+00 1.64757E-02-7.10237E-01-1.09608E-13 7.14936E-14
 -1      4052 2.00017E+01-1.37064E-03-1.97825E-06-1.12034E-04 4.49862E-13 4.84396E-13
 -1      4053 2.00017E+01-1.35117E-03 6.36536E-08-3.52134E-04 4.75910E-13-7.21508E-14
 -1      4054 2.00018E+01-1.32975E-03-4.43918E-07-4.95691E-04 3.67072E-13-2.79237E-13
 -1      4055 2.00014E+01-1.25780E-03-1.90087E-06 8.52716E-04-1.43170E-13-1.01726E-13
 -1      4056 2.00016E+01-1.30354E-03 2.73802E-06 6.34476E-04 1.05887E-14 4.00554E-14
 -1      4057 1.87034E+01 8.07182E-01 4.53376E-03-5.10898E-01-1.94673E-14-4.55135E-14
 -1      4058 1.84468E+01 8.28209E-01-1.19841E-02-6.75979E-01-3.04691E-14 9.04956E-14
 -1      4059 2.00018E+01-1.30100E-03 2.71634E-06 5.95336E-04-1.04381E-13-5.82412E-14
 -1      4060 2.00017E+01-1.33356E-03-2.76902E-06 4.48258E-04 1.23967E-13 1.82030E-13
 -1      4061 2.00017E+01-1.34860E-03 2.66147E-06 2.12636E-04 2.50538E-13 5.07658E-13
 -1      4062 2.00021E+01-1.26782E-03 1.05650E-06 6.28738E-04 6.90519E-14 1.10085E-13
 -1      4063 2.00700E+01-6.39468E-01-6.92956E-03-1.46003E+00-3.29220E-14-2.49282E-14
 -1      4064 1.98697E+01-3.85599E-01 1.66023E-04-1.30101E+00-8.76165E-15-2.37375E-15
 -1      4065 1.97955E+01-2.06244E-01 6.18678E-03-1.12314E+00 8.52848E-14 1.45568E-14
 -1      4066 1.96784E+01-6.29734E-02-1.68434E-03-9.92471E-01 1.52308E-13 3.36471E-15
 -1      4067 1.95591E+01-1.85369E-01-9.87891E-03-1.31915E+00 5.98866E-14 2.55384E-14
 -1      4068 1.96742E+01 5.15891E-02 7.93763E-03-8.40732E-01 1.73731E-13 6.13014E-14
 -1      4069 1.96072E+01 1.31001E-01-3.61803E-03-7.33667E-01 1.09211E-13 1.08717E-13
 -1      4070 1.94746E+01 9.48785E-02-3.61577E-03-9.67318E-01 2.11353E-13-5.88807E-14
 -1      4071 1.96362E+01 1.99505E-01 6.19698E-03-6.13591E-01 1.13089E-15 2.16695E-13
 -1      4072 1.96085E+01 2.37983E-01-3.52127E-03-5.28285E-01 9.86027E-15 2.07494E-13
 -1      4073 1.94797E+01 2.55897E-01 2.47686E-04-6.85845E-01 9.83423E-14 2.78102E-14
 -1      4074 1.96508E+01 2.70370E-01 4.23994E-03-4.39153E-01-3.03461E-15 1.35605E-13
 -1      4075 1.96473E+01 2.82260E-01-3.13657E-03-3.73968E-01 5.64905E-14-2.49377E-14
 -1      4076 1.95342E+01 3.27057E-01 2.07565E-03-4.74604E-01-6.42907E-14 5.99025E-14
 -1      4077 1.96923E+01 2.91361E-01 2.77373E-03-3.09687E-01 1.06532E-13-8.75873E-14
 -1      4078 1.97019E+01 2.86869E-01-2.60940E-03-2.61277E-01 1.00530E-13-1.30222E-13
 -1      4079 1.96069E+01 3.43538E-01 2.82236E-03-3.22513E-01-2.89780E-14-2.11120E-14
 -1      4080 1.97439E+01 2.81821E-01 1.74337E-03-2.16041E-01 1.48377E-13-7.98423E-14
 -1      4081 1.97594E+01 2.68201E-01-2.05742E-03-1.80692E-01 9.14151E-14-4.31687E-15
 -1      4082 1.96820E+01 3.27160E-01 2.85894E-03-2.15900E-01 1.45937E-13-1.50045E-13
 -1      4083 1.97960E+01 2.55285E-01 1.03703E-03-1.49513E-01-8.92042E-15-4.83170E-14
 -1      4084 1.98131E+01 2.37455E-01-1.57917E-03-1.24019E-01 1.51340E-13-1.82134E-13
 -1      4085 1.97516E+01 2.93247E-01 2.52792E-03-1.42753E-01 6.44264E-14-1.65741E-13
 -1      4086 1.98435E+01 2.20970E-01 5.73378E-04-1.02801E-01 2.44257E-13-3.37388E-13
 -1      4087 1.98597E+01 2.02031E-01-1.19573E-03-8.45802E-02 1.55878E-13-3.16614E-13
 -1      4088 1.98118E+01 2.52196E-01 2.13209E-03-9.33701E-02 5.43280E-14-2.34248E-13
 -1      4089 1.98840E+01 1.84805E-01 2.97679E-04-7.02981E-02 1.88937E-13-3.01468E-13
 -1      4090 1.98982E+01 1.66610E-01-8.78528E-04-5.72944E-02 1.42447E-13-2.20178E-13
 -1      4091 1.98616E+01 2.10067E-01 1.73362E-03-6.04777E-02 1.83782E-13-4.26325E-13
 -1      4092 1.99172E+01 1.50188E-01 1.28407E-04-4.78047E-02 8.93860E-14-1.88946E-13
 -1      4093 1.99288E+01 1.33776E-01-6.41894E-04-3.85513E-02 1.21297E-13-1.79609E-13
 -1      4094 1.99015E+01 1.70312E-01 1.35062E-03-3.88498E-02 1.72398E-13-4.52818E-13
 -1      4095 1.99432E+01 1.19070E-01 3.83481E-05-3.22799E-02 1.56098E-13-2.01013E-13
 -1      4096 1.99524E+01 1.04889E-01-4.62010E-04-2.56987E-02 6.02349E-14-1.59082E-13
 -1      4097 1.99323E+01 1.34935E-01 1.03100E-03-2.47449E-02 1.63301E-13-4.41802E-13
 -1      4098 1.99630E+01 9.22547E-02-9.08111E-06-2.15758E-02-9.12910E-14 1.58687E-14
 -1      4099 1.99700E+01 8.03989E-02-3.30018E-04-1.69050E-02 5.40007E-14 4.95265E-14
 -1      4100 1.99556E+01 1.04645E-01 7.73299E-04-1.55931E-02 1.01247E-13-1.91950E-13
 -1      4101 1.99776E+01 6.99195E-02-2.53301E-05-1.42146E-02 8.67061E-14 1.30660E-13
 -1      4102 1.99827E+01 6.02742E-02-2.29160E-04-1.08933E-02 4.43687E-14 1.56616E-13
 -1      4103 1.99726E+01 7.94608E-02 5.62793E-04-9.68119E-03 1.18964E-13 1.83482E-13
 -1      4104 1.99880E+01 5.17938E-02-2.97340E-05-9.15686E-03 1.03040E-13 1.59444E-13
 -1      4105 1.99915E+01 4.41336E-02-1.58456E-04-6.80893E-03 1.82002E-13 9.49208E-14
 -1      4106 1.99848E+01 5.90479E-02 3.97393E-04-5.88338E-03 5.40551E-14 3.02147E-13
 -1      4107 1.99951E+01 3.74446E-02-2.56928E-05-5.69612E-03 6.12511E-14 7.48661E-14
 -1      4108 1.99975E+01 3.14915E-02-1.07247E-04-4.04748E-03-8.60938E-14 3.98863E-14
 -1      4109 1.99931E+01 4.28904E-02 2.74280E-04-3.45225E-03 8.44633E-14 1.28206E-13
 -1      4110 1.99998E+01 2.63318E-02-1.92802E-05-3.34649E-03-8.87926E-14 1.18507E-13
 -1      4111 2.00012E+01 2.18036E-02-7.02265E-05-2.20153E-03 7.78109E-15 8.16745E-14
 -1      4112 1.99986E+01 3.03569E-02 1.82890E-04-1.90196E-03-2.71113E-14 1.51300E-13
 -1      4113 2.00026E+01 1.79072E-02-1.34550E-05-1.76943E-03-2.95957E-14 9.16990E-14
 -1      4114 2.00034E+01 1.45368E-02-4.37939E-05-9.88839E-04-5.13354E-14 1.00294E-13
 -1      4115 2.00020E+01 2.08350E-02 1.16900E-04-9.21902E-04-5.22740E-15 2.06994E-13
 -1      4116 2.00041E+01 1.16657E-02-7.68846E-06-7.36717E-04 3.09232E-14 1.36753E-13
 -1      4117 2.00045E+01 9.21564E-03-2.50039E-05-2.13602E-04 1.38728E-13 1.09404E-13
 -1      4118 2.00039E+01 1.37375E-02 6.69646E-05-3.13603E-04-7.91046E-14 9.41491E-14
 -1      4119 2.00048E+01 7.14578E-03-3.44159E-06-7.83811E-05-8.00365E-14 7.34586E-14
 -1      4120 2.00048E+01 5.41051E-03-1.31536E-05 2.58240E-04-1.64793E-13-4.07669E-14
 -1      4121 2.00048E+01 8.57721E-03 3.34032E-05 5.36501E-05-1.34699E-13-1.83560E-14
 -1      4122 2.00048E+01 3.96274E-03-1.09078E-07 3.20002E-04-1.23100E-13-1.14600E-13
 -1      4123 2.00047E+01 2.77093E-03-5.28724E-06 5.25121E-04-2.21577E-13-6.63600E-14
 -1      4124 2.00050E+01 4.92029E-03 1.19702E-05 2.62257E-04-1.60540E-13-3.41542E-13
 -1      4125 2.00045E+01 1.79232E-03 2.01480E-06 5.40719E-04-1.16671E-13-4.23091E-14
 -1      4126 2.00043E+01 1.00527E-03-2.91651E-07 6.54632E-04-2.43389E-14-1.00694E-13
 -1      4127 2.00048E+01 2.40403E-03-1.52121E-06 3.69472E-04-1.25991E-13-3.19452E-13
 -1      4128 2.00040E+01 3.72655E-04 3.22529E-06 6.42575E-04 1.16767E-13 3.50831E-14
 -1      4129 2.00038E+01-1.20146E-04 2.68183E-06 6.94676E-04 3.55110E-13 7.69321E-14
 -1      4130 2.00043E+01 7.37537E-04-9.41942E-06 4.11847E-04 1.35324E-13-3.86456E-13
 -1      4131 2.00035E+01-5.04104E-04 3.79720E-06 6.67202E-04 3.58574E-13 1.10243E-14
 -1      4132 2.00032E+01-7.88998E-04 4.27548E-06 6.78994E-04 2.99916E-13 9.95521E-14
 -1      4133 2.00037E+01-3.10811E-04-1.34996E-05 4.13951E-04 3.67737E-13-1.93083E-13
 -1      4134 2.00028E+01-1.00043E-03 3.49595E-06 6.42509E-04 2.59916E-13 1.92390E-13
 -1      4135 2.00025E+01-1.14487E-03 4.23277E-06 6.31024E-04 2.65347E-13 1.25210E-13
 -1      4136 2.00031E+01-9.22343E-04-1.43678E-05 3.91522E-04 4.04738E-13-1.67266E-13
 -1      4137 1.76740E+01 6.54918E-01-8.37021E-04-1.71210E+00 6.23048E-15 1.60578E-13
 -1      4138 1.80830E+01 2.90994E-01-7.64072E-03-1.99792E+00 8.56016E-15 2.48766E-13
 -1      4139 1.99448E+01 1.23619E-01-3.95761E-04 3.02875E-02 1.03954E-13-2.20546E-13
 -1      4140 1.99317E+01 1.42035E-01-3.74527E-04 3.51779E-02 1.21525E-13-1.52812E-13
 -1      4141 1.99145E+01 1.62568E-01-4.64093E-04 3.71731E-02 1.81972E-13-1.49980E-13
 -1      4142 1.98953E+01 1.85413E-01-6.33030E-04 4.20468E-02 2.04483E-13-2.01532E-13
 -1      4143 1.99192E+01 1.58383E-01 1.34483E-03 2.20989E-02 1.85003E-13-3.17880E-13
 -1      4144 1.99813E+01 6.75710E-02-2.57812E-04 1.72175E-02 3.65527E-13-4.42451E-13
 -1      4145 1.99752E+01 7.95504E-02-1.05614E-04 2.10984E-02 4.60691E-13-4.02818E-13
 -1      4146 1.99911E+01 4.89435E-02-1.96762E-04 1.22324E-02 2.78583E-13-3.13428E-13
 -1      4147 1.99874E+01 5.77337E-02-4.20209E-05 1.52121E-02 2.82930E-13-3.71282E-13
 -1      4148 1.99825E+01 6.65106E-02 4.94208E-04 1.17899E-02 2.91020E-13-3.87659E-13
 -1      4149 1.99974E+01 3.47047E-02-1.46144E-04 8.28386E-03-7.23928E-14-1.21412E-13
 -1      4150 1.99952E+01 4.14179E-02-5.36660E-06 1.05960E-02 8.76429E-14-2.48340E-13
 -1      4151 1.99919E+01 4.81432E-02 3.36629E-04 8.54832E-03 7.53776E-14-2.71436E-13
 -1      4152 2.00014E+01 2.39807E-02-1.05002E-04 5.28374E-03-8.22888E-14-3.89091E-14
 -1      4153 2.00001E+01 2.90220E-02 1.08287E-05 7.01955E-03 2.29808E-14-4.02600E-14
 -1      4154 1.99980E+01 3.40800E-02 2.23287E-04 5.88403E-03-7.19960E-14-2.13826E-13
 -1      4155 2.00036E+01 1.60270E-02-7.39124E-05 3.08172E-03-1.29779E-13-1.67538E-13
 -1      4156 2.00030E+01 1.97546E-02 1.79498E-05 4.35020E-03-1.48526E-13-5.62160E-14
 -1      4157 2.00018E+01 2.34757E-02 1.41940E-04 3.80975E-03-7.55718E-14-2.86755E-13
 -1      4158 2.00047E+01 9.99740E-03-4.90954E-05 1.47043E-03-3.10853E-15-1.38549E-13
 -1      4159 2.00045E+01 1.27923E-02 1.95461E-05 2.38874E-03-8.35626E-14-1.28620E-13
 -1      4160 2.00039E+01 1.54580E-02 8.34142E-05 2.23471E-03-4.50861E-14-3.11556E-13
 -1      4161 2.00050E+01 5.94932E-03-3.03903E-05 4.47960E-04-1.54091E-13 1.30166E-13
 -1      4162 2.00051E+01 7.82566E-03 1.96284E-05 1.03776E-03-1.01718E-13-9.21885E-14
 -1      4163 2.00049E+01 9.66045E-03 4.24561E-05 1.11407E-03-8.16854E-14-1.80576E-13
 -1      4164 2.00048E+01 3.13848E-03-1.76127E-05-2.06841E-04-1.98755E-13 1.97041E-13
 -1      4165 2.00051E+01 4.43102E-03 1.78042E-05 1.71867E-04-1.07770E-13 2.14427E-13
 -1      4166 2.00051E+01 5.66825E-03 1.65732E-05 3.75064E-04-2.04639E-13 1.37645E-13
 -1      4167 2.00044E+01 1.25223E-03-8.71109E-06-5.93171E-04 1.27033E-13 5.43183E-14
 -1      4168 2.00047E+01 2.11055E-03 1.49137E-05-3.66742E-04-9.74956E-14 1.43811E-13
 -1      4169 2.00049E+01 2.91021E-03 3.99158E-07-1.01722E-04-6.61160E-14 4.46925E-14
 -1      4170 2.00038E+01 4.11758E-05-2.78573E-06-7.91892E-04 2.53785E-13-3.00592E-14
 -1      4171 2.00042E+01 5.84067E-04 1.20850E-05-6.72016E-04 2.05762E-13 4.12701E-14
 -1      4172 2.00045E+01 1.06943E-03-9.15876E-06-3.86345E-04 2.01936E-13-1.77353E-14
 -1      4173 2.00032E+01-6.88883E-04 8.77687E-07-8.65128E-04 1.45794E-13-1.07161E-13
 -1      4174 2.00035E+01-3.68582E-04 9.56052E-06-8.16612E-04 1.50682E-13-2.36487E-13
 -1      4175 2.00039E+01-1.02988E-04-1.41106E-05-5.35716E-04 2.74220E-13-1.14943E-14
 -1      4176 2.00026E+01-1.09807E-03 3.03693E-06-8.55155E-04 1.81981E-13-4.30147E-15
 -1      4177 2.00029E+01-9.29233E-04 7.07839E-06-8.55221E-04 2.38229E-13-1.17725E-13
 -1      4178 2.00032E+01-8.10679E-04-1.55218E-05-5.94784E-04 1.55578E-13-1.55430E-13
 -1      4179 2.00014E+01-1.26631E-03-3.17555E-06-9.29801E-04 5.66432E-13-5.18686E-13
 -1      4180 1.98720E+01 2.10923E-01-5.13316E-04 4.27753E-02 4.44417E-15-2.04498E-13
 -1      4181 1.98445E+01 2.38799E-01-1.04305E-03 4.67035E-02-1.52465E-13-2.89998E-13
 -1      4182 1.98794E+01 2.04413E-01 1.80133E-03 2.25981E-02 3.92412E-14-3.39774E-13
 -1      4183 1.85292E+01-2.95759E-02 6.27702E-03-2.15749E+00-8.44919E-16 1.99482E-13
 -1      4184 1.91229E+01-4.63978E-01 1.18938E-03-2.27845E+00 1.79570E-14 1.39285E-13
 -1      4185 1.86058E+01 1.75648E-01 1.01743E-02-1.78539E+00 1.59356E-15 2.15207E-13
 -1      4186 1.96218E+01 4.26877E-01-1.25515E-04 1.75616E-02-7.24845E-14-2.05036E-13
 -1      4187 1.95441E+01 4.71049E-01-3.92224E-03 3.15084E-03-1.93359E-13-2.16802E-13
 -1      4188 2.04966E+01-1.05975E+00 1.23997E-02-1.71683E+00-1.09079E-14 1.42967E-14
 -1      4189 1.99662E+01 9.26552E-02-3.25373E-04 2.34754E-02 3.36088E-13-3.60823E-13
 -1      4190 1.99573E+01 1.07298E-01-2.12390E-04 2.79002E-02 1.78125E-13-3.00785E-13
 -1      4191 1.99478E+01 1.20858E-01 9.84097E-04 1.92317E-02 2.33111E-13-4.38367E-13
 -1      4192 1.94744E+01 5.23231E-01 4.90978E-04-2.89338E-02-2.32077E-13-2.33252E-13
 -1      4193 1.93639E+01 5.71672E-01-5.84240E-03-6.13091E-02-1.27379E-13-2.46890E-13
 -1      4194 1.95223E+01 4.82587E-01 4.48969E-03-8.39039E-02-1.79814E-13-3.00829E-13
 -1      4195 1.92768E+01 6.28309E-01 1.52057E-03-1.17825E-01-1.71310E-14-2.22078E-13
 -1      4196 1.91251E+01 6.75736E-01-8.26173E-03-1.78723E-01 5.29390E-14-2.27659E-13
 -1      4197 1.93527E+01 5.65462E-01 4.97621E-03-1.85134E-01-4.80290E-14-3.21577E-13
 -1      4198 1.98124E+01 2.70920E-01-4.90276E-04 4.45905E-02-3.78235E-14-2.55623E-13
 -1      4199 1.97721E+01 3.05240E-01-1.65995E-03 4.57576E-02 4.45809E-14-3.04585E-13
 -1      4200 1.98242E+01 2.60509E-01 2.34879E-03 1.79660E-02-7.93660E-14-3.03137E-13
 -1      4201 1.90223E+01 7.30648E-01 3.21284E-03-2.69317E-01 6.85886E-14-1.81589E-13
 -1      4202 1.88230E+01 7.67341E-01-1.11084E-02-3.70768E-01 5.45538E-15-1.29971E-13
 -1      4203 1.91413E+01 6.36008E-01 5.03836E-03-3.49235E-01 7.87168E-14-2.40187E-13
 -1      4204 1.97308E+01 3.43077E-01-4.08402E-04 3.84104E-02 3.77371E-15-2.00094E-13
 -1      4205 1.96752E+01 3.82340E-01-2.55640E-03 3.39383E-02 5.83299E-14-1.38700E-13
 -1      4206 1.96520E+01 4.00956E-01 3.78610E-03-2.64239E-02-6.89136E-14-2.96804E-13
 -1      4207 1.97498E+01 3.26612E-01 3.03921E-03 3.78113E-03 5.62344E-14-3.24128E-13
 -1      4208 2.00019E+01-1.34757E-03 2.40292E-06 9.45862E-05 2.38202E-13 3.16493E-13
 -1      4209 1.73316E+01 1.01488E+00-3.95929E-03-1.31644E+00 2.79295E-14 1.27743E-13
 -1      4210 1.78582E+01 8.48934E-01 4.30837E-03-1.24702E+00-5.49461E-14 1.87821E-13
 -1      4211 2.00024E+01-1.25222E-03-5.25624E-06 3.86688E-04 9.11601E-14 1.09530E-14
 -1      4212 1.99683E+01 9.04548E-02 7.04568E-04 1.54980E-02 4.67135E-13-3.29352E-13
 -1      4213 1.88837E+01 6.74605E-01 3.91205E-03-6.01770E-01 9.20075E-14-1.38602E-13
 -1      4214 1.96682E+01-7.21643E-01-3.40322E-03-2.08823E+00-1.10218E-14 1.01062E-13
 -1      4215 2.00020E+01-1.26823E-03 1.04158E-06-7.93722E-04 5.22741E-13-4.69235E-13
 -1      4216 2.00023E+01-1.20678E-03 4.39328E-06-8.23384E-04 4.10839E-13-8.49377E-14
 -1      4217 2.00026E+01-1.18168E-03-1.27190E-05-5.95830E-04 4.15143E-13-3.20031E-13
 -1      4218 1.97957E+01-5.87657E-01-4.91851E-03-1.69362E+00-1.18286E-15 7.76065E-14
 -1      4219 1.86018E+01 6.64218E-01 1.13073E-02-9.67674E-01-1.74380E-14 5.24425E-14
 -1      4220 1.82906E+01 8.30060E-01 1.06412E-03-8.91265E-01-1.18961E-13 1.74555E-13
 -1      4221 1.79811E+01 8.67421E-01-8.98760E-03-1.05026E+00-7.59167E-14 1.43242E-13
 -1      4222 1.71938E+01 1.25823E+00 1.58084E-02-9.70162E-01-3.41932E-14 5.18622E-14
 -1      4223 1.93200E+01-3.71876E-02 1.38021E-02-1.43950E+00-6.02269E-15 1.27158E-13
 -1      4224 1.92244E+01 1.23756E-01 3.87698E-03-1.24421E+00 1.22454E-13 1.11009E-13
 -1      4225 1.90987E+01 3.54426E-01 5.65920E-03-9.76086E-01 1.33668E-13 8.30970E-15
 -1      4226 1.90931E+01 4.20834E-01-5.53953E-03-8.13887E-01 1.54980E-13 2.55785E-15
 -1      4227 1.92266E+01 4.45311E-01 4.76447E-03-6.52364E-01 1.64612E-13-1.12259E-13
 -1      4228 1.92426E+01 4.66161E-01-6.38910E-03-5.28533E-01 5.88428E-14-1.40212E-13
 -1      4229 1.93569E+01 4.62788E-01 1.91023E-03-4.21827E-01 1.77764E-14-1.36953E-13
 -1      4230 1.93898E+01 4.58545E-01-5.69574E-03-3.33191E-01-6.06830E-14-1.13742E-13
 -1      4231 1.94858E+01 4.37737E-01 2.65333E-04-2.63293E-01-1.25201E-13-1.42966E-13
 -1      4232 1.95241E+01 4.19653E-01-4.77639E-03-2.01551E-01-3.69319E-14-1.89712E-13
 -1      4233 1.96004E+01 3.90978E-01-6.41873E-04-1.58948E-01-3.11200E-14-2.97729E-13
 -1      4234 1.96380E+01 3.66641E-01-3.77004E-03-1.16896E-01-4.95222E-14-3.74004E-13
 -1      4235 1.96961E+01 3.36534E-01-1.01760E-03-9.27985E-02 6.75959E-14-3.39753E-13
 -1      4236 1.97299E+01 3.10520E-01-2.84757E-03-6.46842E-02 8.33306E-14-3.10516E-13
 -1      4237 1.97744E+01 2.81336E-01-1.07758E-03-5.15543E-02 4.26132E-14-2.70383E-13
 -1      4238 1.98031E+01 2.56148E-01-2.11199E-03-3.31043E-02 1.61663E-14-2.63008E-13
 -1      4239 1.98372E+01 2.28988E-01-9.98892E-04-2.65683E-02 1.55431E-14-3.63756E-13
 -1      4240 1.98605E+01 2.06040E-01-1.54474E-03-1.46919E-02 1.18567E-13-4.43361E-13
 -1      4241 1.98851E+01 1.82983E-01-8.75709E-04-1.23550E-02 2.14446E-13-4.97495E-13
 -1      4242 1.99035E+01 1.62990E-01-1.10151E-03-4.79713E-03 1.82594E-13-5.00361E-13
 -1      4243 1.99214E+01 1.43484E-01-7.16093E-04-4.58830E-03 1.82888E-13-4.93903E-13
 -1      4244 1.99355E+01 1.26557E-01-7.77668E-04 1.68192E-04 2.15170E-13-4.32374E-13
 -1      4245 1.99484E+01 1.10458E-01-5.66807E-04-6.73919E-04 3.33793E-13-4.61595E-13
 -1      4246 1.99589E+01 9.65010E-02-5.35694E-04 2.29910E-03 3.07265E-13-3.17756E-13
 -1      4247 1.99681E+01 8.31836E-02-4.32688E-04 1.04841E-03 3.15357E-13-2.39969E-13
 -1      4248 1.99757E+01 7.19338E-02-3.63659E-04 2.88439E-03 2.62066E-13-1.28867E-13
 -1      4249 1.99819E+01 6.16523E-02-3.21975E-04 1.58911E-03 1.28617E-13-9.91732E-14
 -1      4250 1.99872E+01 5.27559E-02-2.38736E-04 2.71892E-03 4.75086E-14-6.81100E-14
 -1      4251 1.99913E+01 4.47343E-02-2.32161E-04 1.55194E-03-4.78272E-14-1.16861E-14
 -1      4252 1.99949E+01 3.78224E-02-1.53916E-04 2.24841E-03 2.29155E-14-9.37811E-14
 -1      4253 1.99975E+01 3.16816E-02-1.61118E-04 1.27801E-03-5.02926E-15-1.47996E-13
 -1      4254 1.99999E+01 2.64093E-02-9.49251E-05 1.70538E-03-2.87290E-14-7.56801E-14
 -1      4255 2.00014E+01 2.17889E-02-1.08281E-04 9.42326E-04-8.60418E-14-1.35764E-13
 -1      4256 2.00028E+01 1.78478E-02-5.23324E-05 1.20641E-03-1.01960E-13-2.60813E-13
 -1      4257 2.00037E+01 1.42877E-02-6.79861E-05 6.22014E-04-1.12752E-15-2.43419E-13
 -1      4258 2.00044E+01 1.14203E-02-2.36720E-05 7.81328E-04-3.05286E-14-1.42702E-13
 -1      4259 2.00048E+01 8.98510E-03-3.89255E-05 3.76819E-04-1.55887E-13-1.54668E-13
 -1      4260 2.00051E+01 6.93170E-03-6.42524E-06 4.67581E-04-2.62662E-13-2.33672E-13
 -1      4261 2.00051E+01 5.21686E-03-1.93304E-05 1.90497E-04-2.95748E-13-2.25655E-13
 -1      4262 2.00051E+01 3.78663E-03 3.32637E-06 2.42205E-04-8.73075E-14-2.13094E-13
 -1      4263 2.00049E+01 2.61750E-03-6.16917E-06 6.13788E-05-1.62993E-14-2.82318E-13
 -1      4264 2.00048E+01 1.65439E-03 8.76895E-06 8.82456E-05 3.94451E-15-1.84012E-13
 -1      4265 2.00045E+01 8.88493E-04 2.10914E-06-2.18883E-05 2.26875E-13-1.94213E-13
 -1      4266 2.00042E+01 2.68331E-04 1.13342E-05-1.06442E-05 4.01988E-13-7.41355E-14
 -1      4267 2.00039E+01-2.06310E-04 6.91896E-06-7.06843E-05 2.97328E-13-1.60048E-13
 -1      4268 2.00036E+01-5.81841E-04 1.18447E-05-6.87556E-05 3.26162E-13-1.21592E-13
 -1      4269 2.00033E+01-8.62858E-04 8.73929E-06-9.51082E-05 3.60894E-13-2.61030E-13
 -1      4270 2.00029E+01-1.06725E-03 9.48520E-06-9.68899E-05 4.22533E-13-1.69537E-13
 -1      4271 2.00024E+01-1.26927E-03-1.54863E-06 6.98933E-05 3.39137E-13 3.95671E-15
 -1      4272 2.00017E+01-1.27634E-03 2.96530E-06-8.76844E-04 5.20313E-13-4.92521E-13
 -1      4273 2.00020E+01-1.29623E-03-3.47031E-06-6.60900E-04 5.26279E-13-4.68152E-13
 -1      4274 1.85662E+01 3.73354E-01 7.82046E-04-1.47556E+00 3.00695E-14 2.31817E-13
 -1      4275 1.89181E+01 3.79112E-02-1.33553E-02-1.63920E+00-7.79709E-15 2.04904E-13
 -1      4276 2.00021E+01-1.32855E-03 1.64431E-06-4.08433E-04 4.61087E-13-1.56194E-13
 -1      4277 1.83112E+01 5.42948E-01-1.23262E-03-1.40921E+00-4.71638E-14 2.53893E-13
 -1      4278 1.86701E+01 4.27101E-01-1.77195E-03-1.27810E+00-3.07376E-14 2.17366E-13
 -1      4279 2.00026E+01-1.20192E-03 4.69996E-06-1.06523E-04 5.24574E-13-2.68002E-13
 -1      4280 1.93752E+01-2.62563E-01 8.40757E-03-1.73086E+00-2.98719E-14 1.37283E-13
 -1      4281 1.87899E+01 4.73256E-01-5.81779E-03-1.05294E+00 5.89739E-14 1.08903E-13
 -3
    1PSTEP                         3           1           1          
  100CL  101 1.000000000        4281                     0    1           1
 -4  TOSTRAIN    6    1
 -5  EXX         1    4    1    1
 -5  EYY         1    4    2    2
 -5  EZZ         1    4    3    3
 -5  EXY         1    4    1    2
 -5  EYZ         1    4    2    3
 -5  EZX         1    4    3    1
 -1         1 3.20942E-04-9.93543E-05-8.25592E-05-7.12279E-07-2.17264E-19 8.93974E-18
 -1         2 3.80283E-05-1.17938E-04 2.19815E-05-1.85050E-06 1.13041E-17-2.94900E-19
 -1         3 9.52372E-05-2.85711E-05-2.85713E-05 7.02345E-11 2.72418E-18 2.89708E-18
 -1         4 9.52372E-05-2.85711E-05-2.85713E-05-6.08131E-11 2.03719E-19 5.75929E-19
 -1         5 1.59873E-04-2.28850E-05-4.92690E-05 3.84051E-05-3.27855E-19 1.90088E-17
 -1         6 1.52424E-04 2.69894E-10-4.62720E-05-5.60635E-05-1.62122E-18 9.89970E-18
 -1         7 9.45418E-05-5.16949E-07-4.08082E-05-3.06541E-05-2.05935E-19-3.79521E-18
 -1         8 8.87761E-05 9.49613E-08-3.78891E-05-2.11193E-05-9.09502E-20-6.38590E-18
 -1         9 8.64541E-05 5.10850E-08-3.68193E-05-1.56783E-05-7.90123E-21-7.02318E-18
 -1        10 8.52552E-05-1.93459E-08-3.62039E-05-1.07682E-05 6.05496E-20-6.74398E-18
 -1        11 8.40658E-05-6.69892E-08-3.56238E-05-5.84520E-06 9.03149E-20-6.13208E-18
 -1        12 8.23204E-05-8.34646E-08-3.48539E-05-9.99454E-07 1.17658E-19-5.39474E-18
 -1        13 7.96686E-05-6.32883E-08-3.37677E-05 3.61340E-06 1.52784E-19-4.76017E-18
 -1        14 7.61897E-05-4.96995E-10-3.24186E-05 7.36261E-06 1.67845E-19-4.21998E-18
 -1        15 7.23890E-05 1.00260E-07-3.10190E-05 9.62656E-06 1.86771E-19-3.75821E-18
 -1        16 6.92511E-05 2.16727E-07-2.99415E-05 9.99178E-06 1.92581E-19-3.33474E-18
 -1        17 6.80535E-05 3.10986E-07-2.96412E-05 8.59220E-06 2.05412E-19-2.84706E-18
 -1        18 6.98384E-05 3.41723E-07-3.04711E-05 6.33726E-06 2.23908E-19-2.06289E-18
 -1        19 7.51700E-05 2.89807E-07-3.26196E-05 4.59603E-06 2.67292E-19-7.99693E-19
 -1        20 8.36944E-05 1.54081E-07-3.59426E-05 5.10855E-06 2.83015E-19 1.16179E-18
 -1        21 9.45332E-05-8.38622E-08-4.00655E-05 9.62341E-06 2.72109E-19 4.33059E-18
 -1        22 1.07907E-04-9.46903E-07-4.47392E-05 2.10514E-05-8.15269E-21 9.70366E-18
 -1        23 1.18262E-04-3.98899E-05-3.70389E-05-4.63462E-06-1.11300E-18 4.73555E-18
 -1        24 9.65922E-05-2.88150E-05-3.01407E-05 4.03563E-07-2.65181E-19 3.14276E-19
 -1        25 9.12929E-05-2.74957E-05-2.75274E-05 3.27251E-07-1.23692E-19-3.47704E-18
 -1        26 8.76932E-05-2.63861E-05-2.62335E-05 8.36916E-08-4.92487E-20-5.82816E-18
 -1        27 8.43477E-05-2.53577E-05-2.52340E-05-3.95641E-08-5.24071E-20-7.45220E-18
 -1        28 8.09693E-05-2.43277E-05-2.42683E-05-1.09627E-07 2.07647E-20-8.33579E-18
 -1        29 7.78687E-05-2.33916E-05-2.33921E-05-1.23099E-07 2.18281E-19-9.25159E-18
 -1        30 7.56243E-05-2.27171E-05-2.27649E-05-8.03249E-08-1.33593E-19-1.02902E-17
 -1        31 7.48060E-05-2.24705E-05-2.25446E-05 4.52882E-09-3.49749E-20-1.13359E-17
 -1        32 7.57226E-05-2.27423E-05-2.28155E-05 1.02940E-07-1.46183E-19-1.23839E-17
 -1        33 7.82767E-05-2.35025E-05-2.35513E-05 1.82561E-07 2.26718E-19-1.30480E-17
 -1        34 8.19903E-05-2.46084E-05-2.46214E-05 2.21373E-07-1.70446E-19-1.28990E-17
 -1        35 8.61800E-05-2.58564E-05-2.58367E-05 2.15571E-07-5.92618E-20-1.30315E-17
 -1        36 9.01814E-05-2.70487E-05-2.70091E-05 1.76884E-07 2.43183E-20-1.26263E-17
 -1        37 9.35177E-05-2.80438E-05-2.79987E-05 1.23449E-07-4.55636E-19-1.32061E-17
 -1        38 9.59612E-05-2.87740E-05-2.87343E-05 7.11449E-08-5.10044E-20-1.33608E-17
 -1        39 9.75032E-05-2.92364E-05-2.92075E-05 2.94008E-08-8.84417E-20-1.32967E-17
 -1        40 9.82766E-05-2.94703E-05-2.94527E-05 1.24022E-09 1.89441E-19-1.15997E-17
 -1        41 9.84762E-05-2.95330E-05-2.95247E-05-1.45571E-08 2.98268E-19-1.16571E-17
 -1        42 9.82989E-05-2.94829E-05-2.94810E-05-2.10871E-08-9.74329E-20-1.19655E-17
 -1        43 9.79111E-05-2.93694E-05-2.93712E-05-2.16717E-08-7.92975E-20-1.16585E-17
 -1        44 9.74365E-05-2.92292E-05-2.92326E-05-1.90409E-08 3.18590E-19-1.12573E-17
 -1        45 9.69570E-05-2.90870E-05-2.90907E-05-1.51037E-08 3.29282E-19-9.66699E-18
 -1        46 9.65205E-05-2.89571E-05-2.89603E-05-1.10253E-08-3.59272E-19-1.30653E-17
 -1        47 9.61500E-05-2.88465E-05-2.88491E-05-7.41341E-09 4.39785E-19-1.18940E-17
 -1        48 9.58519E-05-2.87573E-05-2.87591E-05-4.50936E-09 5.82442E-19-1.00835E-17
 -1        49 9.56227E-05-2.86885E-05-2.86897E-05-2.34002E-09 1.77646E-19-8.32219E-18
 -1        50 9.54537E-05-2.86376E-05-2.86383E-05-8.23847E-10-3.79175E-19-1.10368E-17
 -1        51 9.53345E-05-2.86017E-05-2.86020E-05 1.62707E-10 4.26095E-20-1.19669E-17
 -1        52 9.52545E-05-2.85774E-05-2.85775E-05 7.47677E-10-2.34817E-19-1.14406E-17
 -1        53 9.52043E-05-2.85621E-05-2.85620E-05 1.04508E-09 1.23249E-19-1.07940E-17
 -1        54 9.51757E-05-2.85534E-05-2.85532E-05 1.14788E-09 1.40719E-19-9.32884E-18
 -1        55 9.51622E-05-2.85492E-05-2.85489E-05 1.12734E-09-2.51238E-19-8.60569E-18
 -1        56 9.51590E-05-2.85480E-05-2.85478E-05 1.03539E-09 9.50785E-20-8.14156E-18
 -1        57 9.51621E-05-2.85489E-05-2.85487E-05 9.08110E-10 3.40404E-19-7.37422E-18
 -1        58 9.51689E-05-2.85508E-05-2.85506E-05 7.69370E-10 3.57090E-19-9.33977E-18
 -1        59 9.51775E-05-2.85533E-05-2.85532E-05 6.34016E-10-6.87880E-20-1.00719E-17
 -1        60 9.51866E-05-2.85560E-05-2.85559E-05 5.10516E-10-3.74278E-19-8.64810E-18
 -1        61 9.51955E-05-2.85587E-05-2.85586E-05 4.03001E-10 9.90401E-21-9.09403E-18
 -1        62 9.52037E-05-2.85611E-05-2.85610E-05 3.12790E-10 9.07182E-20-9.92526E-18
 -1        63 9.52110E-05-2.85633E-05-2.85632E-05 2.39475E-10-8.26085E-19-1.00910E-17
 -1        64 9.52173E-05-2.85652E-05-2.85651E-05 1.81648E-10 5.90376E-19-1.01642E-17
 -1        65 9.52226E-05-2.85668E-05-2.85667E-05 1.37352E-10 3.40097E-19-9.04379E-18
 -1        66 9.52270E-05-2.85681E-05-2.85681E-05 1.04241E-10 4.44785E-19-8.96021E-18
 -1        67 9.52306E-05-2.85692E-05-2.85691E-05 7.94114E-11 5.30585E-19-2.18940E-18
 -1        68 9.52334E-05-2.85700E-05-2.85700E-05 5.87871E-11-1.74369E-19-8.59265E-19
 -1        69 9.52355E-05-2.85706E-05-2.85706E-05 3.50872E-11-6.59278E-20-7.48118E-19
 -1        70 9.52368E-05-2.85710E-05-2.85710E-05-9.79838E-12 5.97084E-19 1.57858E-18
 -1        71 9.52373E-05-2.85712E-05-2.85712E-05-7.09336E-11-2.18111E-19 1.02309E-18
 -1        72 1.28938E-04-3.87208E-05-4.24581E-05-3.06412E-06 7.45918E-20 1.89489E-17
 -1        73 1.30188E-04-3.88105E-05-4.02434E-05-6.42803E-07 1.88591E-19 1.68680E-17
 -1        74 1.38022E-04-4.13096E-05-4.17518E-05-6.17208E-07 1.81368E-20 1.52815E-17
 -1        75 1.49358E-04-4.47415E-05-4.46823E-05-9.68233E-07 9.58760E-20 1.49882E-17
 -1        76 1.59648E-04-4.79513E-05-4.69921E-05-1.22868E-06 7.86483E-20 1.55546E-17
 -1        77 1.59923E-04-4.84274E-05-4.62311E-05-1.98920E-07-1.06124E-19 1.66995E-17
 -1        78 1.40321E-04-4.26485E-05-4.10184E-05 2.49637E-06-2.79514E-19 2.01558E-17
 -1        79 1.04839E-04-3.10729E-05-3.35326E-05 4.68681E-06-1.91648E-19 2.11328E-17
 -1        80 8.03080E-05-2.25758E-05-2.89226E-05 2.89274E-06 6.92449E-20 1.87274E-17
 -1        81 8.53399E-05-2.39113E-05-2.99349E-05-1.67679E-06 3.39210E-20 1.41510E-17
 -1        82 1.17228E-04-3.45012E-05-3.63259E-05-4.37488E-06 9.63107E-20 1.06442E-17
 -1        83 1.48251E-04-4.47013E-05-4.32233E-05-3.36030E-06 6.12544E-20 7.54103E-18
 -1        84 1.63407E-04-4.94967E-05-4.73652E-05-1.19115E-06-3.19265E-19 6.75694E-18
 -1        85 1.60897E-04-4.85465E-05-4.73825E-05 3.00888E-07 2.61296E-19 6.98065E-18
 -1        86 1.49126E-04-4.48076E-05-4.45718E-05 7.28351E-07 6.29170E-20 6.70660E-18
 -1        87 1.35727E-04-4.06933E-05-4.08863E-05 6.72203E-07 3.15672E-19 4.24636E-18
 -1        88 1.23784E-04-3.70944E-05-3.73661E-05 4.74236E-07-8.89972E-20 4.07968E-18
 -1        89 1.15142E-04-3.45148E-05-3.47345E-05 3.10636E-07-3.94243E-19 4.75143E-18
 -1        90 1.08920E-04-3.26611E-05-3.28118E-05 1.96777E-07-3.72591E-19 6.40878E-18
 -1        91 1.04559E-04-3.13617E-05-3.14580E-05 1.22336E-07 2.74009E-19 3.82301E-18
 -1        92 1.01535E-04-3.04589E-05-3.05199E-05 7.87000E-08 3.06116E-19 5.72081E-19
 -1        93 9.93797E-05-2.98141E-05-2.98509E-05 4.40960E-08 2.59452E-19-3.83282E-20
 -1        94 9.79826E-05-2.93962E-05-2.94190E-05 2.76176E-08-2.24356E-19 3.76584E-18
 -1        95 9.70243E-05-2.91088E-05-2.91232E-05 1.69001E-08-5.74059E-19 7.61742E-18
 -1        96 9.63695E-05-2.89122E-05-2.89214E-05 1.01423E-08 2.39933E-19 9.45061E-18
 -1        97 9.59248E-05-2.87786E-05-2.87845E-05 5.92746E-09 1.16196E-19 9.43849E-18
 -1        98 9.56254E-05-2.86886E-05-2.86924E-05 3.68199E-09-8.04421E-20 7.23138E-18
 -1        99 9.54203E-05-2.86268E-05-2.86292E-05 1.31189E-09 5.82951E-20 7.13510E-18
 -1       100 9.52962E-05-2.85895E-05-2.85909E-05 4.71989E-10-1.67142E-19 7.39753E-18
 -1       101 9.52196E-05-2.85663E-05-2.85672E-05-1.29554E-10-2.25510E-19 2.77402E-18
 -1       102 9.51756E-05-2.85530E-05-2.85535E-05-4.77247E-10 2.23300E-20 2.70275E-18
 -1       103 9.51534E-05-2.85463E-05-2.85465E-05-6.49663E-10-5.18076E-19 1.29809E-18
 -1       104 9.51455E-05-2.85439E-05-2.85439E-05-6.69508E-10-4.25614E-19 3.89056E-18
 -1       105 9.51468E-05-2.85442E-05-2.85442E-05-7.40145E-10-2.55274E-20 6.18705E-18
 -1       106 9.51535E-05-2.85462E-05-2.85461E-05-6.66583E-10 1.25047E-19 6.79958E-18
 -1       107 9.51628E-05-2.85489E-05-2.85488E-05-5.98617E-10 5.27883E-20 9.21196E-18
 -1       108 9.51732E-05-2.85520E-05-2.85519E-05-5.21134E-10 2.12255E-19 6.67012E-18
 -1       109 9.51836E-05-2.85551E-05-2.85550E-05-4.42736E-10 2.53940E-19 1.23285E-19
 -1       110 9.51938E-05-2.85582E-05-2.85580E-05-3.68735E-10-3.89591E-19 1.92520E-18
 -1       111 9.52025E-05-2.85608E-05-2.85607E-05-2.98754E-10 5.11182E-19 5.67497E-18
 -1       112 9.52102E-05-2.85631E-05-2.85630E-05-2.41658E-10-5.29000E-19 7.80346E-18
 -1       113 9.52167E-05-2.85650E-05-2.85649E-05-1.93556E-10 1.15079E-18 7.52891E-18
 -1       114 9.52222E-05-2.85666E-05-2.85666E-05-1.54878E-10 3.75368E-19 3.50963E-18
 -1       115 9.52267E-05-2.85680E-05-2.85680E-05-1.28087E-10-9.10770E-19 6.79505E-18
 -1       116 9.52305E-05-2.85692E-05-2.85691E-05-1.00965E-10 9.66759E-20 1.03234E-17
 -1       117 9.52334E-05-2.85700E-05-2.85700E-05-8.50741E-11 1.72117E-19 8.53826E-18
 -1       118 9.52355E-05-2.85706E-05-2.85706E-05-6.96935E-11-7.03138E-20 9.21697E-18
 -1       119 9.52368E-05-2.85711E-05-2.85710E-05-3.77497E-11 7.41716E-19 6.35013E-18
 -1       120 9.52373E-05-2.85712E-05-2.85712E-05 4.32932E-11-9.69789E-19 5.23366E-18
 -1       121 9.52371E-05-2.85710E-05-2.85712E-05 7.74696E-11 6.82134E-18-4.35819E-19
 -1       122 9.52373E-05-2.85715E-05-2.85710E-05-1.14853E-11 5.37885E-18-5.21599E-19
 -1       123 9.52376E-05-2.85727E-05-2.85706E-05-6.38905E-11 2.83968E-18 8.08984E-19
 -1       124 9.52381E-05-2.85745E-05-2.85701E-05-8.43602E-11 5.30700E-18 1.75648E-18
 -1       125 9.52387E-05-2.85763E-05-2.85696E-05-8.29244E-11-4.06806E-18-3.74765E-18
 -1       126 9.52392E-05-2.85780E-05-2.85691E-05-6.87166E-11-1.54127E-17-2.51740E-19
 -1       127 9.52396E-05-2.85793E-05-2.85687E-05-4.46320E-11-1.12871E-17 2.25758E-18
 -1       128 9.52398E-05-2.85800E-05-2.85685E-05-1.52707E-11-7.95022E-18 7.09892E-19
 -1       129 9.52398E-05-2.85800E-05-2.85685E-05 1.57544E-11-6.53587E-18 3.69895E-19
 -1       130 9.52396E-05-2.85793E-05-2.85687E-05 4.49477E-11-6.48075E-19-5.50240E-19
 -1       131 9.52392E-05-2.85780E-05-2.85691E-05 6.94670E-11-4.27418E-18-5.29409E-19
 -1       132 9.52387E-05-2.85763E-05-2.85696E-05 8.28463E-11-7.08885E-18 1.96931E-18
 -1       133 9.52381E-05-2.85744E-05-2.85701E-05 8.36033E-11-3.12479E-18 7.70370E-20
 -1       134 9.52376E-05-2.85727E-05-2.85706E-05 6.98327E-11-2.93453E-18-4.81342E-20
 -1       135 9.52372E-05-2.85715E-05-2.85710E-05 1.69008E-11-7.33451E-19-4.21718E-19
 -1       136 9.52371E-05-2.85711E-05-2.85712E-05-1.32704E-10-3.00807E-18-2.67842E-19
 -1       137 2.88758E-05-1.02703E-04 1.94595E-05-2.83123E-05 1.85704E-17 4.83087E-18
 -1       138 1.00032E-05-5.06078E-05 7.10785E-06-2.84744E-05 2.21114E-17 1.05991E-17
 -1       139 8.60939E-06 2.83103E-06-1.15248E-05 8.76839E-06 2.05422E-17 1.58006E-17
 -1       140 5.44759E-05 2.20945E-05-3.41239E-05 6.89085E-05 1.53910E-17 1.69008E-17
 -1       141 1.53303E-04-5.65699E-06-5.74137E-05 1.13826E-04 7.48862E-18 1.29901E-17
 -1       142 2.79134E-04-6.55214E-05-7.80328E-05 1.07322E-04 1.30602E-18 2.13198E-18
 -1       143 3.58817E-04-1.10217E-04-8.84278E-05 3.48996E-05-5.91573E-19-1.08431E-17
 -1       144 3.42494E-04-1.00285E-04-8.65590E-05-6.09842E-05 3.40219E-18-2.11693E-17
 -1       145 2.39313E-04-4.48028E-05-7.21919E-05-1.15292E-04 9.98398E-18-2.51700E-17
 -1       146 1.09711E-04 8.89014E-06-4.81342E-05-9.85686E-05 1.54181E-17-2.28106E-17
 -1       147 2.65454E-05 1.67777E-05-2.29304E-05-3.83560E-05 1.60492E-17-1.57925E-17
 -1       148 3.99842E-06-2.18486E-05-1.53533E-06 1.62052E-05 1.17026E-17-7.31688E-18
 -1       149 1.82400E-05-7.62730E-05 1.32294E-05 3.45153E-05 4.36794E-18-1.62884E-18
 -1       150 3.50486E-05-1.11385E-04 2.03642E-05 1.97587E-05-4.87107E-18 3.78663E-19
 -1       151 3.43189E-05-1.05837E-04 1.91706E-05-9.80721E-06-1.41853E-17-1.44976E-18
 -1       152 1.66915E-05-5.97681E-05 9.37559E-06-2.09706E-05-2.05770E-17-6.27408E-18
 -1       153 4.90534E-06-3.16879E-06-6.31943E-06 1.60498E-06-2.13169E-17-1.18322E-17
 -1       154 2.58673E-05 3.13555E-05-2.58520E-05 5.26733E-05-1.84856E-17-1.58980E-17
 -1       155 9.13770E-05 2.45473E-05-4.63063E-05 1.03896E-04-1.16103E-17-1.51416E-17
 -1       156 1.95148E-04-2.34722E-05-6.55439E-05 1.19969E-04-4.44142E-18-9.14838E-18
 -1       157 2.84718E-04-7.65637E-05-7.80069E-05 7.91051E-05-2.12685E-19-2.71262E-19
 -1       158 2.82843E-04-7.45143E-05-7.79899E-05-8.37920E-05-3.99064E-18 1.63486E-17
 -1       159 1.83094E-04-1.64214E-05-6.35858E-05-1.21649E-04-8.38796E-18 1.79935E-17
 -1       160 8.14990E-05 2.81410E-05-4.38409E-05-9.95408E-05-1.24222E-17 1.45766E-17
 -1       161 1.87515E-05 2.81121E-05-2.19858E-05-4.25561E-05-1.24061E-17 1.06667E-17
 -1       162 6.11297E-06-1.92025E-05-1.14312E-06 8.60378E-06-8.72359E-18 4.02298E-18
 -1       163 2.40518E-05-8.25364E-05 1.46948E-05 2.30882E-05 7.20825E-19 7.51636E-19
 -1       164 9.90798E-05-1.31585E-05-3.70520E-05-2.37281E-05-2.30511E-18-4.44803E-18
 -1       165 9.38017E-05-9.82775E-06-3.61740E-05-1.82953E-05-1.25590E-18-5.64426E-18
 -1       166 9.16705E-05-8.69211E-06-3.56926E-05-1.35205E-05-2.85721E-19-5.74631E-18
 -1       167 9.05024E-05-8.47531E-06-3.52558E-05-8.80960E-06 4.63588E-19-5.41449E-18
 -1       168 8.90707E-05-8.36583E-06-3.46719E-05-4.03617E-06 1.01504E-18-4.78211E-18
 -1       169 8.65412E-05-7.84105E-06-3.38009E-05 8.00053E-07 1.53613E-18-4.18684E-18
 -1       170 8.25324E-05-6.52373E-06-3.26383E-05 5.23656E-06 2.00705E-18-3.61406E-18
 -1       171 7.71978E-05-4.26685E-06-3.13124E-05 8.66131E-06 2.33913E-18-3.25396E-18
 -1       172 7.14917E-05-1.36507E-06-3.01070E-05 1.04227E-05 2.61781E-18-2.90256E-18
 -1       173 6.71880E-05 1.34286E-06-2.94240E-05 1.01943E-05 2.77442E-18-2.54661E-18
 -1       174 6.63576E-05 2.69548E-06-2.96549E-05 8.41851E-06 2.88146E-18-2.00674E-18
 -1       175 7.05058E-05 1.79325E-06-3.10640E-05 6.21685E-06 2.98982E-18-1.11010E-18
 -1       176 8.00072E-05-1.76576E-06-3.36377E-05 5.25480E-06 2.99052E-18 3.05958E-19
 -1       177 9.40350E-05-7.93328E-06-3.70347E-05 7.00242E-06 2.76519E-18 2.52988E-18
 -1       178 1.12193E-04-1.78298E-05-4.05690E-05 1.19623E-05 1.98693E-18 6.14239E-18
 -1       179 1.29473E-04-3.39987E-05-4.20825E-05 1.11632E-05 1.04577E-18 1.03467E-17
 -1       180 1.07739E-04-2.86036E-05-3.39243E-05-1.33250E-05-2.36995E-18-1.58263E-18
 -1       181 1.00459E-04-2.95150E-05-3.04487E-05-6.40056E-06-1.97540E-18-2.34431E-18
 -1       182 9.53564E-05-2.84468E-05-2.86314E-05-4.25267E-06-1.27970E-18-2.98549E-18
 -1       183 9.17942E-05-2.75606E-05-2.74945E-05-3.72364E-06-9.19743E-19-3.52861E-18
 -1       184 8.87495E-05-2.66162E-05-2.66087E-05-3.56351E-06-6.91625E-19-3.92697E-18
 -1       185 8.60893E-05-2.56818E-05-2.58754E-05-3.17291E-06-4.83920E-19-4.49396E-18
 -1       186 8.39938E-05-2.48824E-05-2.53214E-05-2.27086E-06-7.06839E-19-4.87053E-18
 -1       187 8.27779E-05-2.43865E-05-2.50130E-05-8.48589E-07-6.71126E-19-4.97478E-18
 -1       188 8.26965E-05-2.43300E-05-2.50029E-05 8.53627E-07-7.73889E-19-5.27875E-18
 -1       189 8.37933E-05-2.47443E-05-2.52971E-05 2.45070E-06-5.08450E-19-5.61084E-18
 -1       190 8.58509E-05-2.55322E-05-2.58440E-05 3.58021E-06-2.05721E-19-6.51283E-18
 -1       191 8.84609E-05-2.65093E-05-2.65474E-05 4.04733E-06-5.75358E-20-6.57286E-18
 -1       192 9.11631E-05-2.74795E-05-2.72934E-05 3.87238E-06 3.20206E-20-6.63482E-18
 -1       193 9.35774E-05-2.82973E-05-2.79809E-05 3.23607E-06-2.68824E-19-6.39809E-18
 -1       194 9.54743E-05-2.88929E-05-2.85407E-05 2.37736E-06-1.13018E-20-5.92559E-18
 -1       195 9.67783E-05-2.92615E-05-2.89423E-05 1.50586E-06 2.84725E-19-5.46211E-18
 -1       196 9.75294E-05-2.94383E-05-2.91881E-05 7.58382E-07 5.63063E-19-5.24665E-18
 -1       197 9.78326E-05-2.94743E-05-2.93016E-05 1.95859E-07 2.49937E-19-5.54351E-18
 -1       198 9.78140E-05-2.94191E-05-2.93159E-05-1.77360E-07-3.94757E-19-5.83588E-18
 -1       199 9.75921E-05-2.93139E-05-2.92645E-05-3.89105E-07 1.88367E-19-5.99185E-18
 -1       200 9.72634E-05-2.91885E-05-2.91763E-05-4.79442E-07 3.95143E-19-4.98725E-18
 -1       201 9.68984E-05-2.90624E-05-2.90730E-05-4.88032E-07 5.59286E-19-5.48883E-18
 -1       202 9.65432E-05-2.89470E-05-2.89697E-05-4.47921E-07-8.28606E-19-4.97520E-18
 -1       203 9.62244E-05-2.88480E-05-2.88751E-05-3.83657E-07 3.54771E-19-3.49891E-18
 -1       204 9.59542E-05-2.87669E-05-2.87939E-05-3.11809E-07 3.46352E-19-3.92507E-18
 -1       205 9.57356E-05-2.87032E-05-2.87275E-05-2.42491E-07 5.91264E-19-4.30784E-18
 -1       206 9.55655E-05-2.86549E-05-2.86754E-05-1.81095E-07-1.09759E-18-4.90008E-18
 -1       207 9.54379E-05-2.86195E-05-2.86359E-05-1.29838E-07-4.10019E-19-5.05875E-18
 -1       208 9.53457E-05-2.85945E-05-2.86072E-05-8.89641E-08 1.55319E-19-5.35907E-18
 -1       209 9.52818E-05-2.85777E-05-2.85871E-05-5.76244E-08 8.66023E-20-5.11063E-18
 -1       210 9.52396E-05-2.85670E-05-2.85737E-05-3.44586E-08 8.20715E-19-4.17091E-18
 -1       211 9.52136E-05-2.85607E-05-2.85653E-05-1.79616E-08 6.31923E-20-4.49943E-18
 -1       212 9.51993E-05-2.85576E-05-2.85606E-05-6.69349E-09 5.92949E-19-4.05178E-18
 -1       213 9.51930E-05-2.85566E-05-2.85584E-05 6.15503E-10 6.22876E-19-3.23117E-18
 -1       214 9.51921E-05-2.85569E-05-2.85579E-05 5.02516E-09-6.21480E-19-3.92851E-18
 -1       215 9.51944E-05-2.85580E-05-2.85584E-05 7.38416E-09-2.59907E-19-3.77679E-18
 -1       216 9.51987E-05-2.85596E-05-2.85596E-05 8.34911E-09 1.52712E-19-4.76071E-18
 -1       217 9.52038E-05-2.85613E-05-2.85611E-05 8.41240E-09 3.55433E-19-2.88924E-18
 -1       218 9.52091E-05-2.85630E-05-2.85626E-05 7.93194E-09-7.48753E-19-2.83014E-18
 -1       219 9.52143E-05-2.85645E-05-2.85642E-05 7.15906E-09 8.42634E-20-2.66108E-18
 -1       220 9.52190E-05-2.85660E-05-2.85656E-05 6.26262E-09-1.33573E-20-2.35619E-18
 -1       221 9.52232E-05-2.85672E-05-2.85669E-05 5.34874E-09 1.38284E-18-2.30183E-18
 -1       222 9.52268E-05-2.85683E-05-2.85679E-05 4.47589E-09-5.32389E-20-1.11224E-18
 -1       223 9.52298E-05-2.85691E-05-2.85689E-05 3.66575E-09 2.49298E-18-2.15476E-18
 -1       224 9.52323E-05-2.85699E-05-2.85696E-05 2.91063E-09 1.87154E-18-2.49023E-18
 -1       225 9.52342E-05-2.85705E-05-2.85702E-05 2.17896E-09 5.35874E-19-1.21575E-18
 -1       226 9.52357E-05-2.85709E-05-2.85706E-05 1.42518E-09 1.47657E-18-3.55651E-19
 -1       227 9.52366E-05-2.85712E-05-2.85709E-05 6.31726E-10 3.82961E-19 5.20743E-19
 -1       228 1.27875E-04-3.68717E-05-3.91534E-05-1.09732E-06 1.33868E-18 9.10295E-18
 -1       229 1.29721E-04-3.80192E-05-3.92886E-05-6.84385E-06 6.92079E-19 7.98675E-18
 -1       230 1.35421E-04-4.04822E-05-4.06483E-05-9.21962E-06 2.57443E-20 7.43426E-18
 -1       231 1.42237E-04-4.40415E-05-4.19666E-05-7.26589E-06-5.68902E-19 7.86456E-18
 -1       232 1.46890E-04-4.77981E-05-4.22647E-05 2.41986E-06-1.19952E-18 9.05149E-18
 -1       233 1.44182E-04-4.75298E-05-4.14292E-05 1.76136E-05-1.66969E-18 1.05898E-17
 -1       234 1.32905E-04-3.91017E-05-4.08748E-05 2.55733E-05 1.40607E-19 1.11214E-17
 -1       235 1.23044E-04-2.97024E-05-4.11827E-05 1.29257E-05 2.35528E-18 9.66709E-18
 -1       236 1.24375E-04-2.98703E-05-4.15192E-05-1.21809E-05 3.37617E-18 6.32959E-18
 -1       237 1.36499E-04-4.01683E-05-4.17197E-05-2.59915E-05 2.38932E-18 2.94042E-18
 -1       238 1.46343E-04-4.77362E-05-4.22009E-05-1.94497E-05 1.33960E-18 6.42382E-19
 -1       239 1.48357E-04-4.85027E-05-4.26182E-05-4.72872E-06 1.68718E-19 6.69940E-19
 -1       240 1.43031E-04-4.48898E-05-4.19956E-05 6.45290E-06-8.46305E-20 7.96085E-19
 -1       241 1.34467E-04-4.07110E-05-4.02050E-05 1.06742E-05 5.20826E-20 1.47974E-18
 -1       242 1.25652E-04-3.73401E-05-3.78883E-05 1.05397E-05 1.22799E-18 1.60425E-18
 -1       243 1.17617E-04-3.47479E-05-3.55387E-05 8.58345E-06-3.35332E-19 2.06567E-18
 -1       244 1.11558E-04-3.29879E-05-3.36782E-05 6.47601E-06 9.22935E-20 1.20572E-18
 -1       245 1.06938E-04-3.17101E-05-3.22367E-05 4.68572E-06-8.17546E-19 8.58920E-19
 -1       246 1.03533E-04-3.07909E-05-3.11679E-05 3.31725E-06 1.10612E-18 1.14511E-18
 -1       247 1.01061E-04-3.01289E-05-3.03925E-05 2.32280E-06 8.73524E-19 2.01853E-18
 -1       248 9.92190E-05-2.96371E-05-2.98146E-05 1.59016E-06-4.82072E-19 2.14921E-18
 -1       249 9.79830E-05-2.93061E-05-2.94283E-05 1.10422E-06-1.78633E-18 2.50838E-18
 -1       250 9.71044E-05-2.90698E-05-2.91542E-05 7.65091E-07-1.28305E-18 3.71350E-18
 -1       251 9.64845E-05-2.89026E-05-2.89611E-05 5.28004E-07-5.30144E-19 3.00300E-18
 -1       252 9.60497E-05-2.87851E-05-2.88258E-05 3.61880E-07-2.26381E-19 2.82675E-18
 -1       253 9.57467E-05-2.87032E-05-2.87316E-05 2.45250E-07 1.18788E-18 3.48561E-18
 -1       254 9.55304E-05-2.86449E-05-2.86642E-05 1.60164E-07-2.06641E-19 4.05280E-18
 -1       255 9.53930E-05-2.86080E-05-2.86214E-05 1.03803E-07 3.45843E-19 3.44502E-18
 -1       256 9.53023E-05-2.85839E-05-2.85931E-05 6.46611E-08 1.10624E-18 3.81436E-18
 -1       257 9.52448E-05-2.85689E-05-2.85750E-05 3.77397E-08 5.28142E-19 3.79763E-18
 -1       258 9.52103E-05-2.85601E-05-2.85641E-05 1.95377E-08 1.04668E-19 3.33294E-18
 -1       259 9.51915E-05-2.85555E-05-2.85581E-05 7.53100E-09-6.20014E-19 1.01910E-18
 -1       260 9.51831E-05-2.85538E-05-2.85553E-05-3.55313E-10-1.60917E-18 1.61465E-18
 -1       261 9.51819E-05-2.85540E-05-2.85548E-05-4.78293E-09-5.37414E-19 3.79562E-18
 -1       262 9.51848E-05-2.85552E-05-2.85555E-05-7.14146E-09 1.15135E-19 2.80958E-18
 -1       263 9.51899E-05-2.85569E-05-2.85569E-05-8.12395E-09 1.26712E-18 2.68632E-18
 -1       264 9.51960E-05-2.85589E-05-2.85588E-05-8.22564E-09 2.06893E-18 2.81064E-18
 -1       265 9.52028E-05-2.85610E-05-2.85607E-05-7.75815E-09-1.16320E-18 1.46734E-18
 -1       266 9.52089E-05-2.85629E-05-2.85626E-05-7.01909E-09-1.02093E-18 8.37840E-19
 -1       267 9.52145E-05-2.85646E-05-2.85643E-05-6.15971E-09-7.20904E-19 2.83973E-18
 -1       268 9.52195E-05-2.85661E-05-2.85658E-05-5.28169E-09 1.05658E-18 3.32655E-18
 -1       269 9.52238E-05-2.85673E-05-2.85671E-05-4.44438E-09 1.08698E-18 3.43416E-18
 -1       270 9.52275E-05-2.85684E-05-2.85682E-05-3.67605E-09-1.41422E-18 3.18026E-18
 -1       271 9.52306E-05-2.85693E-05-2.85691E-05-2.94467E-09-3.95288E-19 2.58032E-18
 -1       272 9.52330E-05-2.85700E-05-2.85698E-05-2.29683E-09-4.66018E-19 4.87073E-18
 -1       273 9.52348E-05-2.85706E-05-2.85704E-05-1.66246E-09-6.90890E-19 7.46673E-18
 -1       274 9.52361E-05-2.85710E-05-2.85708E-05-9.92994E-10 3.76809E-18 6.11467E-18
 -1       275 9.52369E-05-2.85712E-05-2.85710E-05-3.02681E-10 3.38393E-19 1.53343E-18
 -1       276 9.52371E-05-2.85717E-05-2.85709E-05-6.66574E-10 9.72848E-19 1.19915E-18
 -1       277 9.52374E-05-2.85726E-05-2.85706E-05-1.34662E-09 1.88405E-18-1.50919E-18
 -1       278 9.52379E-05-2.85738E-05-2.85703E-05-1.78793E-09 4.97263E-19-1.23791E-19
 -1       279 9.52384E-05-2.85752E-05-2.85699E-05-1.90319E-09-2.58864E-18-3.97182E-18
 -1       280 9.52388E-05-2.85764E-05-2.85696E-05-1.72135E-09-2.05542E-18-6.29822E-18
 -1       281 9.52392E-05-2.85775E-05-2.85693E-05-1.29066E-09-2.05421E-18 1.46637E-18
 -1       282 9.52395E-05-2.85782E-05-2.85691E-05-6.85990E-10-3.43009E-18 2.07137E-18
 -1       283 9.52395E-05-2.85785E-05-2.85690E-05 7.12389E-12-2.20644E-18 1.12925E-18
 -1       284 9.52394E-05-2.85782E-05-2.85691E-05 6.98841E-10-1.18923E-18 3.82095E-18
 -1       285 9.52392E-05-2.85775E-05-2.85693E-05 1.29990E-09-1.01124E-18-1.73085E-18
 -1       286 9.52388E-05-2.85764E-05-2.85696E-05 1.72016E-09-8.39287E-19-3.85560E-19
 -1       287 9.52383E-05-2.85751E-05-2.85700E-05 1.90056E-09-3.62951E-19 2.96191E-18
 -1       288 9.52378E-05-2.85738E-05-2.85703E-05 1.77992E-09 7.54042E-19 8.03112E-19
 -1       289 9.52374E-05-2.85726E-05-2.85706E-05 1.33249E-09 2.42681E-19 8.64842E-19
 -1       290 9.52370E-05-2.85718E-05-2.85708E-05 1.10480E-09 6.68410E-19-2.00224E-18
 -1       291 9.58342E-06-4.26747E-05 1.18452E-05 1.64091E-06 5.91750E-18 4.97050E-18
 -1       292 2.67623E-05-4.51535E-05 5.57345E-06 2.01172E-05 7.52991E-18 4.86504E-18
 -1       293 5.28742E-05-4.41997E-05-6.38639E-06 2.74859E-05 9.66698E-18 6.18922E-18
 -1       294 9.85803E-05-4.44281E-05-2.44738E-05 3.80864E-05 8.47944E-18 4.70929E-18
 -1       295 1.48054E-04-4.39091E-05-4.40295E-05 4.05153E-05 6.78473E-18 3.57067E-18
 -1       296 1.95919E-04-4.71438E-05-6.14806E-05 2.04174E-05 6.77231E-18-1.50772E-19
 -1       297 2.33488E-04-4.57536E-05-7.55019E-05 1.45276E-05 5.61064E-18-2.94619E-18
 -1       298 2.32573E-04-3.99006E-05-7.77911E-05-1.59361E-06 5.16203E-18-5.38181E-18
 -1       299 2.15492E-04-4.28031E-05-7.07044E-05-1.07488E-05 5.04228E-18-6.86520E-18
 -1       300 1.81979E-04-5.03756E-05-5.50971E-05-2.19747E-05 3.93712E-18-7.40900E-18
 -1       301 1.34330E-04-5.25557E-05-3.53223E-05-3.49926E-05 3.39173E-18-7.63431E-18
 -1       302 7.23606E-05-4.18760E-05-1.52437E-05-3.42972E-05 4.36391E-18-8.36911E-18
 -1       303 3.55531E-05-4.45154E-05 5.35895E-07-2.03409E-05 2.38122E-18-6.17798E-18
 -1       304 1.59724E-05-4.65096E-05 9.70112E-06-7.48103E-06-4.71374E-19-4.86790E-18
 -1       305 1.01743E-05-4.88196E-05 1.29881E-05 6.83498E-06-3.63631E-18-4.42818E-18
 -1       306 1.66262E-05-4.02153E-05 7.51239E-06 2.20045E-05-5.25838E-18-4.67255E-18
 -1       307 3.58769E-05-3.45996E-05-2.73899E-06 3.24229E-05-8.10462E-18-5.04096E-18
 -1       308 6.91114E-05-2.88489E-05-1.82239E-05 4.56414E-05-7.87804E-18-5.58629E-18
 -1       309 1.07621E-04-2.40901E-05-3.55158E-05 5.33859E-05-8.18615E-18-4.88632E-18
 -1       310 1.54754E-04-2.70393E-05-5.29744E-05 5.26303E-05-6.71792E-18-3.98381E-18
 -1       311 1.96230E-04-3.35128E-05-6.67915E-05 3.77468E-05-5.32937E-18-1.52445E-18
 -1       312 2.14941E-04-3.52509E-05-7.37085E-05 1.18297E-05-4.47445E-18 9.97170E-19
 -1       313 2.18968E-04-3.74089E-05-7.42003E-05-1.51462E-05-3.79905E-18 3.93701E-18
 -1       314 1.89387E-04-3.18743E-05-6.50789E-05-3.34973E-05-3.45124E-18 4.55301E-18
 -1       315 1.49818E-04-2.73687E-05-5.07853E-05-5.33670E-05-3.93828E-18 6.84636E-18
 -1       316 1.02938E-04-2.64847E-05-3.25669E-05-5.23778E-05-4.20065E-18 5.56776E-18
 -1       317 6.08543E-05-3.17308E-05-1.38192E-05-4.19802E-05-2.36830E-18 5.41868E-18
 -1       318 3.24345E-05-4.11317E-05 1.54038E-06-3.14352E-05 1.49247E-18 4.66048E-18
 -1       319 1.36545E-05-4.83516E-05 1.18054E-05-1.50110E-05 4.35322E-18 3.93891E-18
 -1       320 9.74363E-05-1.75241E-05-3.43251E-05-1.46324E-05-1.07564E-18-4.19473E-18
 -1       321 1.00431E-04-2.10741E-05-3.40913E-05-1.65338E-05-2.07315E-18-3.82916E-18
 -1       322 9.51748E-05-1.60759E-05-3.39750E-05-6.70140E-06 7.19031E-19-3.86171E-18
 -1       323 9.33247E-05-1.56030E-05-3.33773E-05-1.68181E-06 1.49058E-18-3.30340E-18
 -1       324 8.98017E-05-1.42401E-05-3.24417E-05 3.65306E-06 2.20189E-18-2.78952E-18
 -1       325 8.41573E-05-1.13956E-05-3.12301E-05 8.64103E-06 2.83539E-18-2.46229E-18
 -1       326 7.67978E-05-7.02052E-06-2.99354E-05 1.22121E-05 3.24779E-18-2.24101E-18
 -1       327 6.93979E-05-1.99704E-06-2.89011E-05 1.32324E-05 3.53245E-18-2.10966E-18
 -1       328 6.48410E-05 1.77688E-06-2.85546E-05 1.13271E-05 3.60646E-18-1.77951E-18
 -1       329 6.58398E-05 2.37731E-06-2.92472E-05 7.34749E-06 3.65126E-18-1.20535E-18
 -1       330 7.39635E-05-1.44593E-06-3.11121E-05 3.35936E-06 3.43271E-18-2.86962E-19
 -1       331 8.84569E-05-9.51130E-06-3.38877E-05 1.36975E-06 3.16687E-18 1.17696E-18
 -1       332 1.06971E-04-2.09697E-05-3.69328E-05 1.46878E-06 2.57161E-18 3.68169E-18
 -1       333 1.18820E-04-2.96590E-05-3.82602E-05 1.65426E-07 2.01905E-18 5.78427E-18
 -1       334 1.19973E-04-3.27888E-05-3.73352E-05-8.42252E-06 1.34026E-18 4.71564E-18
 -1       335 1.00473E-04-2.81577E-05-3.09563E-05-9.72294E-06-1.67672E-18-2.95117E-18
 -1       336 9.79118E-05-2.88203E-05-2.95907E-05-7.56781E-06-1.32152E-18-2.70016E-18
 -1       337 9.54158E-05-2.84261E-05-2.86971E-05-6.77615E-06-9.16520E-19-2.72347E-18
 -1       338 9.30002E-05-2.74582E-05-2.80804E-05-6.13151E-06-9.30247E-19-2.82819E-18
 -1       339 9.08158E-05-2.62516E-05-2.76605E-05-4.93134E-06-7.41272E-19-3.06511E-18
 -1       340 8.91602E-05-2.51865E-05-2.74054E-05-2.89148E-06-7.47134E-19-3.04578E-18
 -1       341 8.83723E-05-2.46437E-05-2.72993E-05-1.81854E-07-7.37094E-19-3.20200E-18
 -1       342 8.86391E-05-2.48450E-05-2.73281E-05 2.65739E-06-7.15914E-19-3.25530E-18
 -1       343 8.98615E-05-2.57343E-05-2.74737E-05 4.96791E-06-8.06133E-19-3.20607E-18
 -1       344 9.16816E-05-2.70127E-05-2.77101E-05 6.27349E-06-3.36653E-19-3.25810E-18
 -1       345 9.36426E-05-2.83016E-05-2.80029E-05 6.45359E-06-1.91039E-19-3.45904E-18
 -1       346 9.53665E-05-2.93130E-05-2.83123E-05 5.71724E-06 2.13845E-19-3.17464E-18
 -1       347 9.66460E-05-2.99273E-05-2.85999E-05 4.44288E-06-8.46264E-20-2.96764E-18
 -1       348 9.74378E-05-3.01695E-05-2.88364E-05 3.00906E-06 3.17543E-19-3.20583E-18
 -1       349 9.78044E-05-3.01400E-05-2.90058E-05 1.69248E-06 5.47197E-19-3.05297E-18
 -1       350 9.78528E-05-2.99533E-05-2.91053E-05 6.41798E-07-1.24618E-19-3.31805E-18
 -1       351 9.76921E-05-2.97017E-05-2.91428E-05-1.00493E-07-8.14928E-20-3.61927E-18
 -1       352 9.74134E-05-2.94459E-05-2.91315E-05-5.59347E-07 1.87623E-19-3.35299E-18
 -1       353 9.70839E-05-2.92181E-05-2.90867E-05-7.91741E-07 6.95937E-19-3.50035E-18
 -1       354 9.67490E-05-2.90310E-05-2.90225E-05-8.62038E-07 9.11084E-19-3.55266E-18
 -1       355 9.64364E-05-2.88858E-05-2.89502E-05-8.28195E-07 4.33505E-19-2.10253E-18
 -1       356 9.61608E-05-2.87777E-05-2.88780E-05-7.36021E-07 1.17554E-20-6.38694E-19
 -1       357 9.59280E-05-2.86999E-05-2.88114E-05-6.18347E-07 7.54363E-21-1.35113E-18
 -1       358 9.57381E-05-2.86459E-05-2.87532E-05-4.96656E-07 3.40349E-19-2.02300E-18
 -1       359 9.55880E-05-2.86094E-05-2.87045E-05-3.83603E-07-2.97165E-19-1.97485E-18
 -1       360 9.54726E-05-2.85858E-05-2.86653E-05-2.85535E-07-9.15001E-19-1.35142E-18
 -1       361 9.53864E-05-2.85711E-05-2.86347E-05-2.04630E-07-1.82932E-19-2.83951E-18
 -1       362 9.53238E-05-2.85627E-05-2.86116E-05-1.40538E-07-1.59118E-19-3.41137E-18
 -1       363 9.52800E-05-2.85584E-05-2.85947E-05-9.15440E-08 1.11676E-18-3.66844E-18
 -1       364 9.52504E-05-2.85568E-05-2.85828E-05-5.53418E-08 3.61001E-19-3.01766E-18
 -1       365 9.52315E-05-2.85569E-05-2.85747E-05-2.95124E-08 1.94904E-18-1.45234E-18
 -1       366 9.52204E-05-2.85579E-05-2.85696E-05-1.17952E-08 3.69322E-19-1.27572E-18
 -1       367 9.52147E-05-2.85594E-05-2.85665E-05-2.19886E-10 1.04068E-19-2.51369E-18
 -1       368 9.52127E-05-2.85610E-05-2.85650E-05 6.84962E-09 4.22714E-19-1.49183E-18
 -1       369 9.52131E-05-2.85627E-05-2.85644E-05 1.07208E-08-1.15884E-20-2.91399E-19
 -1       370 9.52149E-05-2.85643E-05-2.85646E-05 1.24054E-08 1.16419E-18 1.63418E-18
 -1       371 9.52175E-05-2.85657E-05-2.85651E-05 1.26635E-08-2.61455E-20 7.70175E-19
 -1       372 9.52204E-05-2.85669E-05-2.85658E-05 1.20488E-08 7.06491E-19 2.37127E-18
 -1       373 9.52233E-05-2.85679E-05-2.85666E-05 1.09511E-08 3.06220E-19 3.50756E-18
 -1       374 9.52260E-05-2.85688E-05-2.85674E-05 9.63282E-09 4.78517E-19 2.51287E-18
 -1       375 9.52285E-05-2.85695E-05-2.85682E-05 8.25864E-09 4.82454E-19 1.73403E-18
 -1       376 9.52307E-05-2.85701E-05-2.85688E-05 6.91933E-09 9.55183E-20 1.89164E-18
 -1       377 9.52325E-05-2.85706E-05-2.85694E-05 5.64900E-09 8.04371E-19-2.04413E-18
 -1       378 9.52341E-05-2.85710E-05-2.85699E-05 4.44070E-09 5.75435E-19-2.29703E-18
 -1       379 9.52354E-05-2.85714E-05-2.85703E-05 3.26322E-09 3.85301E-19-3.54130E-18
 -1       380 9.52362E-05-2.85717E-05-2.85705E-05 2.16744E-09 1.30495E-18-2.52254E-18
 -1       381 1.23471E-04-3.61652E-05-3.73911E-05-1.32083E-05 3.12964E-19 4.22604E-18
 -1       382 1.30171E-04-4.21225E-05-3.77073E-05-1.27097E-05-9.46553E-19 4.23766E-18
 -1       383 1.40985E-04-5.16758E-05-3.82732E-05-3.09729E-06-1.85938E-18 5.18958E-18
 -1       384 1.51443E-04-5.75606E-05-4.04060E-05 1.53559E-05-2.27105E-18 6.17728E-18
 -1       385 1.53787E-04-4.70313E-05-4.64057E-05 2.92958E-05 9.42854E-20 6.72134E-18
 -1       386 1.48082E-04-2.69115E-05-5.27989E-05 1.78990E-05 3.28744E-18 5.20507E-18
 -1       387 1.48327E-04-2.46002E-05-5.36924E-05-1.19763E-05 5.84252E-18 2.63170E-18
 -1       388 1.53215E-04-4.28758E-05-4.77406E-05-2.93343E-05 4.05438E-18-8.90761E-19
 -1       389 1.53539E-04-5.67391E-05-4.18004E-05-2.09445E-05 2.19888E-18-1.68123E-18
 -1       390 1.45031E-04-5.50382E-05-3.86162E-05-2.11252E-06 3.34115E-19-2.05386E-18
 -1       391 1.33010E-04-4.58914E-05-3.73569E-05 1.17534E-05-7.67280E-19-1.32110E-18
 -1       392 1.23248E-04-3.82428E-05-3.64547E-05 1.66921E-05-5.50403E-19-3.27345E-19
 -1       393 1.16215E-04-3.38647E-05-3.53051E-05 1.61945E-05 3.72328E-19 1.18131E-18
 -1       394 1.10842E-04-3.15960E-05-3.39562E-05 1.33405E-05 8.20414E-20 9.65947E-19
 -1       395 1.06995E-04-3.05507E-05-3.27458E-05 1.02663E-05 6.82115E-19 6.93022E-19
 -1       396 1.04016E-04-2.99694E-05-3.17163E-05 7.58709E-06-5.77943E-19 6.82865E-19
 -1       397 1.01725E-04-2.95994E-05-3.08951E-05 5.48185E-06 4.02587E-19 5.18912E-19
 -1       398 9.99779E-05-2.93346E-05-3.02637E-05 3.91128E-06-1.02352E-19 2.15175E-18
 -1       399 9.86089E-05-2.91257E-05-2.97694E-05 2.72381E-06-4.47121E-19 2.92877E-18
 -1       400 9.76482E-05-2.89741E-05-2.94254E-05 1.92273E-06-1.03225E-18 2.19337E-18
 -1       401 9.69368E-05-2.88566E-05-2.91728E-05 1.35191E-06-1.26413E-18 6.89992E-19
 -1       402 9.64163E-05-2.87674E-05-2.89892E-05 9.46380E-07-8.05858E-20 4.55964E-19
 -1       403 9.60387E-05-2.87008E-05-2.88568E-05 6.58137E-07-4.83703E-19 2.05454E-19
 -1       404 9.57671E-05-2.86522E-05-2.87620E-05 4.53176E-07 7.39579E-19 8.48859E-19
 -1       405 9.55667E-05-2.86162E-05-2.86920E-05 3.01389E-07-3.43956E-19 7.16428E-19
 -1       406 9.54350E-05-2.85928E-05-2.86459E-05 2.00052E-07 2.38212E-19 1.00426E-18
 -1       407 9.53445E-05-2.85772E-05-2.86140E-05 1.28603E-07 1.59119E-18 2.25508E-18
 -1       408 9.52842E-05-2.85673E-05-2.85926E-05 7.87698E-08 1.55014E-18 1.04117E-18
 -1       409 9.52455E-05-2.85616E-05-2.85786E-05 4.45130E-08 3.95231E-19 1.19991E-18
 -1       410 9.52219E-05-2.85587E-05-2.85698E-05 2.14606E-08 1.34782E-19 1.06757E-18
 -1       411 9.52085E-05-2.85578E-05-2.85645E-05 5.80873E-09-1.52132E-18 7.43144E-19
 -1       412 9.52029E-05-2.85581E-05-2.85620E-05-3.33465E-09-1.42599E-18 2.87313E-19
 -1       413 9.52017E-05-2.85591E-05-2.85611E-05-8.61809E-09 2.62995E-19 1.30650E-18
 -1       414 9.52033E-05-2.85605E-05-2.85612E-05-1.12675E-08 7.48454E-19 2.64748E-18
 -1       415 9.52065E-05-2.85621E-05-2.85619E-05-1.21779E-08 1.89077E-18 7.36166E-19
 -1       416 9.52107E-05-2.85637E-05-2.85630E-05-1.19649E-08-2.72301E-19 1.71468E-18
 -1       417 9.52148E-05-2.85651E-05-2.85642E-05-1.11111E-08-4.28959E-19 3.78413E-19
 -1       418 9.52189E-05-2.85663E-05-2.85654E-05-9.93898E-09-1.08966E-18 6.83402E-19
 -1       419 9.52226E-05-2.85674E-05-2.85665E-05-8.64847E-09 2.16497E-19-1.06403E-18
 -1       420 9.52259E-05-2.85684E-05-2.85675E-05-7.36246E-09-4.68467E-19 6.71028E-19
 -1       421 9.52287E-05-2.85692E-05-2.85684E-05-6.14616E-09 9.77514E-19 2.34049E-18
 -1       422 9.52313E-05-2.85699E-05-2.85692E-05-4.96529E-09-2.23044E-18 8.43377E-19
 -1       423 9.52332E-05-2.85705E-05-2.85698E-05-3.91690E-09-2.09828E-18 3.14997E-18
 -1       424 9.52348E-05-2.85709E-05-2.85702E-05-2.90458E-09-1.21845E-18-1.12027E-19
 -1       425 9.52360E-05-2.85713E-05-2.85706E-05-1.89172E-09 4.30938E-18-9.77336E-19
 -1       426 9.52366E-05-2.85715E-05-2.85707E-05-1.27918E-09 4.18823E-18 5.57577E-19
 -1       427 9.52380E-05-2.85744E-05-2.85701E-05-3.27419E-09-1.87317E-18-2.90117E-18
 -1       428 9.52373E-05-2.85731E-05-2.85704E-05-2.89886E-09-4.32689E-20-2.72860E-18
 -1       429 9.52369E-05-2.85723E-05-2.85705E-05-2.16531E-09 2.88365E-18-2.64610E-18
 -1       430 9.52387E-05-2.85755E-05-2.85699E-05-3.16306E-09-1.70984E-19-6.63192E-18
 -1       431 9.52393E-05-2.85766E-05-2.85697E-05-2.60744E-09 1.85761E-18-1.19606E-18
 -1       432 9.52397E-05-2.85773E-05-2.85696E-05-1.70415E-09 1.08983E-18 8.30187E-19
 -1       433 9.52399E-05-2.85777E-05-2.85695E-05-5.83406E-10-2.45269E-19 1.79093E-18
 -1       434 9.52399E-05-2.85777E-05-2.85695E-05 6.09608E-10 6.60389E-19 2.54097E-18
 -1       435 9.52397E-05-2.85773E-05-2.85696E-05 1.72547E-09-2.94049E-19 9.80021E-19
 -1       436 9.52393E-05-2.85766E-05-2.85697E-05 2.60814E-09 1.72774E-18-1.05769E-18
 -1       437 9.52387E-05-2.85755E-05-2.85699E-05 3.16109E-09 2.51146E-18 3.73739E-18
 -1       438 9.52380E-05-2.85743E-05-2.85701E-05 3.26737E-09 2.61796E-18 1.94576E-18
 -1       439 9.52373E-05-2.85731E-05-2.85704E-05 2.89763E-09 1.91895E-18-1.66380E-20
 -1       440 6.14620E-05-4.54064E-05-7.19519E-06 3.82020E-05 3.28755E-18 2.22717E-18
 -1       441 1.25392E-05-1.92313E-05 2.99979E-06-1.24262E-05 2.90328E-18 4.01356E-18
 -1       442 2.56776E-05-2.29156E-05-8.14484E-07 2.18058E-05 1.00696E-18 4.07518E-18
 -1       443 1.00002E-04-5.86596E-05-1.81804E-05 3.72791E-05 3.52705E-18 8.45789E-19
 -1       444 1.47647E-04-6.68417E-05-3.47843E-05 1.94182E-05 4.20912E-18-9.90923E-19
 -1       445 9.61628E-05-1.63947E-05-3.42846E-05-1.11209E-05-6.05041E-20-4.29587E-18
 -1       446 1.81535E-04-3.79916E-05-6.09499E-05-1.46332E-05 7.25177E-18-6.34745E-19
 -1       447 1.80287E-04-2.41667E-05-6.60446E-05-7.19224E-06 6.62824E-18-5.60630E-20
 -1       448 1.75476E-04-2.74762E-05-6.32322E-05 1.12565E-05 4.35280E-18 1.17949E-18
 -1       449 1.78735E-04-4.58318E-05-5.66677E-05 1.57482E-05 2.39181E-18 2.84497E-19
 -1       450 1.65590E-04-6.67318E-05-4.25136E-05 1.81294E-06-7.76809E-19-2.97309E-19
 -1       451 1.25720E-04-6.56465E-05-2.59985E-05-2.95868E-05-1.33334E-18-3.75511E-18
 -1       452 8.41921E-05-5.11677E-05-1.43053E-05-3.92341E-05-8.54444E-19-5.28051E-18
 -1       453 3.83027E-05-3.31391E-05-2.52617E-06-3.05017E-05-3.44954E-19-5.74955E-18
 -1       454 1.29660E-05-1.81320E-05 2.16168E-06-6.26524E-06-8.08122E-20-5.64706E-18
 -1       455 1.19826E-05-1.73187E-05 2.20138E-06 1.90021E-05 2.91273E-19-4.98235E-18
 -1       456 3.83083E-05-2.86303E-05-4.22021E-06 4.38935E-05-4.57927E-19-3.21666E-18
 -1       457 7.44049E-05-4.07841E-05-1.44500E-05 5.05010E-05-8.40045E-19-1.84878E-18
 -1       458 1.13951E-04-4.83751E-05-2.81144E-05 4.25562E-05-2.75497E-18-5.06155E-19
 -1       459 1.43373E-04-4.51154E-05-4.20313E-05 2.74205E-05-4.27545E-18-3.08108E-19
 -1       460 1.61356E-04-3.29338E-05-5.48509E-05 1.14253E-05-5.50423E-18-4.92232E-19
 -1       461 1.61498E-04-1.73040E-05-6.18607E-05-1.00703E-06-5.70180E-18-8.38457E-19
 -1       462 1.61103E-04-9.89670E-06-6.48565E-05-7.07468E-07-4.75281E-18-1.32169E-18
 -1       463 1.61695E-04-1.61994E-05-6.24610E-05-7.16497E-07-2.90765E-18-1.12126E-18
 -1       464 1.59165E-04-3.59224E-05-5.27765E-05-1.40174E-05-1.45401E-18-2.51992E-19
 -1       465 1.42382E-04-5.08848E-05-3.92017E-05-2.63639E-05 1.50348E-20 8.26069E-19
 -1       466 1.10404E-04-5.30517E-05-2.45731E-05-4.44891E-05 1.58395E-18 2.54110E-18
 -1       467 6.91185E-05-4.37452E-05-1.09251E-05-5.00863E-05 2.05088E-18 4.21742E-18
 -1       468 2.80553E-05-2.78317E-05-1.44792E-07-3.64149E-05 2.93497E-18 6.02685E-18
 -1       469 1.72483E-04-5.99685E-05-4.81854E-05-1.33057E-06 4.64748E-18-9.20513E-19
 -1       470 1.49492E-04-2.44887E-05-5.39501E-05 6.56816E-06-1.36420E-18-2.68292E-18
 -1       471 1.03557E-04-2.51338E-05-3.35589E-05-1.31383E-05 1.34776E-18 1.73360E-18
 -1       472 9.75034E-05-2.21410E-05-3.23231E-05 1.33402E-06 1.77640E-18-2.48998E-18
 -1       473 9.95875E-05-2.26953E-05-3.29847E-05-4.41905E-06 1.03325E-18-2.90915E-18
 -1       474 8.52081E-05-1.57275E-05-2.97921E-05 1.38995E-05 3.10281E-18-1.89716E-18
 -1       475 7.51274E-05-9.16737E-06-2.82670E-05 1.74533E-05 3.63891E-18-1.91893E-18
 -1       476 6.57219E-05-2.33759E-06-2.71468E-05 1.65040E-05 3.84864E-18-1.95103E-18
 -1       477 6.12469E-05 1.71040E-06-2.69615E-05 1.08834E-05 3.80598E-18-1.63958E-18
 -1       478 6.57431E-05-6.07866E-08-2.81363E-05 2.91266E-06 3.41795E-18-1.14644E-18
 -1       479 7.90310E-05-7.65997E-06-3.06004E-05-3.67842E-06 2.90799E-18-4.78252E-21
 -1       480 1.07296E-04-3.19944E-05-3.22558E-05-1.92615E-05-2.05647E-19 1.09656E-18
 -1       481 1.01210E-04-2.80646E-05-3.13452E-05-1.06576E-05-1.20119E-18-2.74953E-18
 -1       482 1.63019E-04-4.90235E-05-4.92206E-05-2.42117E-05 4.46069E-18-2.08587E-18
 -1       483 1.00415E-04-2.93547E-05-3.04501E-05-9.44386E-06-9.76553E-19-2.27588E-18
 -1       484 9.88357E-05-2.89639E-05-2.99406E-05-8.78380E-06-9.00175E-19-2.13779E-18
 -1       485 9.68088E-05-2.75187E-05-2.96913E-05-7.74649E-06-9.36329E-19-2.17991E-18
 -1       486 9.47617E-05-2.56877E-05-2.95981E-05-5.67208E-06-7.60400E-19-2.35944E-18
 -1       487 9.32616E-05-2.42660E-05-2.95641E-05-2.44164E-06-9.89384E-19-2.51324E-18
 -1       488 9.28105E-05-2.39323E-05-2.95137E-05 1.41852E-06-6.67787E-19-2.46817E-18
 -1       489 9.35311E-05-2.48896E-05-2.94130E-05 4.96483E-06-7.73262E-19-2.49263E-18
 -1       490 9.50743E-05-2.67639E-05-2.92719E-05 7.32708E-06-6.93698E-19-2.55007E-18
 -1       491 9.68273E-05-2.88548E-05-2.91290E-05 8.11647E-06-1.43565E-19-2.37881E-18
 -1       492 9.82473E-05-3.05336E-05-2.90204E-05 7.50440E-06 2.33387E-19-2.27577E-18
 -1       493 9.90674E-05-3.14940E-05-2.89623E-05 6.00037E-06 1.66846E-20-2.77549E-18
 -1       494 9.92919E-05-3.17515E-05-2.89491E-05 4.16123E-06-2.48337E-19-1.96666E-18
 -1       495 9.90773E-05-3.15041E-05-2.89632E-05 2.40830E-06 3.56873E-19-2.01421E-18
 -1       496 9.86137E-05-3.09890E-05-2.89848E-05 9.75904E-07-1.38065E-20-2.48762E-18
 -1       497 9.80564E-05-3.03975E-05-2.89988E-05-5.83342E-08-3.14849E-19-2.56731E-18
 -1       498 9.75058E-05-2.98486E-05-2.89973E-05-7.15973E-07-1.64236E-20-2.55744E-18
 -1       499 9.70138E-05-2.93984E-05-2.89788E-05-1.06634E-06 5.95968E-19-2.44793E-18
 -1       500 9.65999E-05-2.90602E-05-2.89459E-05-1.19183E-06 6.66442E-19-2.74065E-18
 -1       501 9.62648E-05-2.88240E-05-2.89032E-05-1.16859E-06 1.17351E-18-2.98886E-18
 -1       502 9.60005E-05-2.86701E-05-2.88557E-05-1.05817E-06 1.12991E-18-2.93950E-18
 -1       503 9.57957E-05-2.85774E-05-2.88076E-05-9.05779E-07-1.67261E-19-2.55524E-18
 -1       504 9.56392E-05-2.85271E-05-2.87620E-05-7.41951E-07 1.32383E-19-1.75400E-18
 -1       505 9.55210E-05-2.85046E-05-2.87211E-05-5.85476E-07-1.08730E-19-2.08744E-18
 -1       506 9.54329E-05-2.84990E-05-2.86857E-05-4.46512E-07-5.25581E-19-1.35091E-18
 -1       507 9.53680E-05-2.85030E-05-2.86563E-05-3.29323E-07-1.33160E-18-7.76527E-19
 -1       508 9.53210E-05-2.85115E-05-2.86325E-05-2.34434E-07-8.12212E-19-2.77941E-19
 -1       509 9.52874E-05-2.85217E-05-2.86138E-05-1.60214E-07 3.91653E-19-8.15784E-19
 -1       510 9.52641E-05-2.85317E-05-2.85995E-05-1.03976E-07 1.48947E-18-1.18955E-18
 -1       511 9.52483E-05-2.85407E-05-2.85889E-05-6.26720E-08 1.41833E-18-1.30954E-18
 -1       512 9.52381E-05-2.85483E-05-2.85813E-05-3.33239E-08 1.41161E-18-1.67550E-18
 -1       513 9.52318E-05-2.85545E-05-2.85760E-05-1.32469E-08-3.92578E-19-1.61444E-18
 -1       514 9.52284E-05-2.85594E-05-2.85724E-05-1.49998E-10 1.36687E-18-7.33535E-19
 -1       515 9.52269E-05-2.85632E-05-2.85702E-05 7.84448E-09 1.13674E-18 9.24120E-19
 -1       516 9.52266E-05-2.85659E-05-2.85689E-05 1.22247E-08 1.15153E-18 1.01647E-18
 -1       517 9.52272E-05-2.85679E-05-2.85682E-05 1.41364E-08-9.50144E-19 5.13119E-19
 -1       518 9.52282E-05-2.85694E-05-2.85681E-05 1.44369E-08 1.22974E-18 1.09482E-18
 -1       519 9.52294E-05-2.85703E-05-2.85682E-05 1.37492E-08 4.72732E-19 1.11662E-18
 -1       520 9.52306E-05-2.85710E-05-2.85684E-05 1.25107E-08-1.37813E-19 2.42766E-18
 -1       521 9.52319E-05-2.85714E-05-2.85688E-05 1.10146E-08-5.06993E-19 1.99564E-18
 -1       522 9.52330E-05-2.85717E-05-2.85691E-05 9.44435E-09-9.08548E-19 4.19861E-19
 -1       523 9.52341E-05-2.85719E-05-2.85695E-05 7.90076E-09-2.48168E-18-4.87891E-19
 -1       524 9.52350E-05-2.85721E-05-2.85698E-05 6.42263E-09 1.50756E-19-2.22054E-18
 -1       525 9.52358E-05-2.85723E-05-2.85701E-05 5.00820E-09-4.78621E-19-1.70362E-18
 -1       526 1.39520E-04-6.27864E-05-3.27807E-05-1.10795E-05-2.67080E-18 1.47935E-18
 -1       527 1.47077E-04-6.74252E-05-3.40830E-05 7.02295E-06 1.33577E-18-3.30173E-18
 -1       528 1.24049E-04-5.20349E-05-3.07351E-05 1.98459E-05-6.69950E-19-2.70055E-18
 -1       529 1.10009E-04-3.76063E-05-3.09514E-05 2.33418E-05-1.66742E-18-1.85030E-18
 -1       530 1.03427E-04-2.98516E-05-3.15130E-05 2.17002E-05-9.89912E-19-6.96312E-19
 -1       531 1.00736E-04-2.68639E-05-3.16479E-05 1.79773E-05-2.20793E-20-2.46553E-19
 -1       532 9.96778E-05-2.63736E-05-3.14031E-05 1.41954E-05 2.71142E-19 5.93427E-19
 -1       533 9.90302E-05-2.67008E-05-3.09840E-05 1.08249E-05-3.80861E-19 1.27955E-18
 -1       534 9.84632E-05-2.72016E-05-3.05279E-05 8.07108E-06 3.19037E-19-4.82849E-20
 -1       535 9.79086E-05-2.76386E-05-3.01059E-05 5.92920E-06-6.78981E-19 6.20716E-19
 -1       536 9.73629E-05-2.79739E-05-2.97308E-05 4.24781E-06-6.73733E-19 8.86196E-19
 -1       537 9.69019E-05-2.81872E-05-2.94440E-05 3.07143E-06 1.00387E-20 1.04918E-18
 -1       538 9.65076E-05-2.83232E-05-2.92183E-05 2.20906E-06-8.24996E-19-2.96027E-19
 -1       539 9.61844E-05-2.84078E-05-2.90446E-05 1.58034E-06-3.95404E-20-1.03333E-18
 -1       540 9.59273E-05-2.84596E-05-2.89129E-05 1.12323E-06 3.31292E-19-1.26133E-18
 -1       541 9.57274E-05-2.84913E-05-2.88142E-05 7.91366E-07-3.92077E-19-1.16470E-18
 -1       542 9.55696E-05-2.85122E-05-2.87380E-05 5.41090E-07 7.76365E-19-7.27912E-19
 -1       543 9.54590E-05-2.85252E-05-2.86853E-05 3.70487E-07 7.84922E-20-1.59233E-18
 -1       544 9.53784E-05-2.85342E-05-2.86471E-05 2.47999E-07 1.12423E-18-3.07817E-18
 -1       545 9.53211E-05-2.85410E-05-2.86198E-05 1.60754E-07 1.73910E-18-1.91033E-18
 -1       546 9.52814E-05-2.85464E-05-2.86005E-05 9.93337E-08 7.36388E-19 4.67486E-19
 -1       547 9.52548E-05-2.85509E-05-2.85873E-05 5.67812E-08-4.46597E-19-8.93107E-20
 -1       548 9.52372E-05-2.85549E-05-2.85781E-05 2.67997E-08-5.17874E-19 1.18892E-19
 -1       549 9.52273E-05-2.85581E-05-2.85725E-05 8.27627E-09-2.03964E-18 1.16153E-18
 -1       550 9.52220E-05-2.85608E-05-2.85691E-05-3.33023E-09-1.49063E-18 2.03637E-18
 -1       551 9.52198E-05-2.85631E-05-2.85672E-05-1.01000E-08-3.34615E-19 3.75910E-19
 -1       552 9.52197E-05-2.85650E-05-2.85663E-05-1.35577E-08 1.95693E-18 2.88151E-19
 -1       553 9.52209E-05-2.85666E-05-2.85661E-05-1.48430E-08 3.62646E-19 1.91413E-18
 -1       554 9.52226E-05-2.85678E-05-2.85664E-05-1.46586E-08-3.67955E-20 8.21135E-19
 -1       555 9.52247E-05-2.85688E-05-2.85668E-05-1.36756E-08-1.08963E-18 3.70022E-19
 -1       556 9.52268E-05-2.85695E-05-2.85674E-05-1.22747E-08 8.11045E-19-7.05841E-19
 -1       557 9.52288E-05-2.85701E-05-2.85680E-05-1.07065E-08 4.52868E-20-1.21481E-18
 -1       558 9.52307E-05-2.85706E-05-2.85686E-05-9.12349E-09-4.18832E-19-2.01295E-18
 -1       559 9.52324E-05-2.85710E-05-2.85692E-05-7.53315E-09-1.12435E-18-7.40830E-19
 -1       560 9.52338E-05-2.85713E-05-2.85696E-05-6.11167E-09-2.40996E-18-1.01047E-18
 -1       561 9.52350E-05-2.85716E-05-2.85700E-05-4.77649E-09 9.53686E-19-3.36806E-18
 -1       562 9.52360E-05-2.85719E-05-2.85703E-05-3.48388E-09 1.50575E-18-3.99961E-18
 -1       563 9.52394E-05-2.85760E-05-2.85700E-05-3.95519E-09 2.42103E-18-2.84572E-18
 -1       564 9.52401E-05-2.85769E-05-2.85699E-05-2.93111E-09 2.15595E-18 4.61442E-19
 -1       565 9.52374E-05-2.85736E-05-2.85702E-05-4.40712E-09 1.97140E-18-4.58987E-18
 -1       566 9.52384E-05-2.85749E-05-2.85701E-05-4.47490E-09 8.76708E-19-3.78054E-18
 -1       567 9.52406E-05-2.85775E-05-2.85699E-05-1.54758E-09 1.09037E-18 4.99157E-19
 -1       568 9.52407E-05-2.85777E-05-2.85699E-05 2.09020E-11 1.49996E-18 3.35577E-18
 -1       569 9.52406E-05-2.85775E-05-2.85699E-05 1.58537E-09 1.33430E-18 2.43939E-18
 -1       570 9.52401E-05-2.85769E-05-2.85699E-05 2.93724E-09 1.63896E-18 4.57510E-19
 -1       571 9.52394E-05-2.85760E-05-2.85700E-05 3.95291E-09 2.28388E-18 5.45337E-19
 -1       572 9.52384E-05-2.85749E-05-2.85701E-05 4.46193E-09 1.81739E-18 3.03098E-18
 -1       573 9.52374E-05-2.85736E-05-2.85702E-05 4.38584E-09 1.50235E-18 1.00335E-18
 -1       574 2.77446E-05-9.23514E-06-7.17224E-06 3.37822E-06 4.71175E-19 2.51039E-18
 -1       575 5.82560E-05-3.17948E-05-1.08277E-05 3.55231E-05-7.39777E-19 6.41363E-19
 -1       576 6.19514E-05-3.30337E-05-1.18644E-05-4.68127E-05 2.28471E-18 4.97293E-18
 -1       577 1.19916E-04-4.60897E-05-3.14023E-05-2.08723E-05-1.94431E-18 9.73611E-19
 -1       578 1.64235E-04-6.38843E-05-4.32305E-05-9.37455E-06 3.19813E-18-2.09598E-18
 -1       579 9.58016E-05-5.23813E-05-1.82914E-05 3.75218E-05 2.76874E-19-7.70721E-19
 -1       580 1.32307E-04-6.58291E-05-2.85308E-05 2.23827E-05 1.55881E-18-3.31357E-18
 -1       581 2.96850E-05-1.47941E-05-5.74959E-06-2.67751E-05 1.59729E-18 5.36744E-18
 -1       582 1.35632E-04-6.82636E-06-5.58677E-05-5.93007E-06-4.77176E-18-1.20330E-18
 -1       583 7.09631E-05-3.67863E-05-1.43372E-05-3.68621E-05-1.31539E-18-4.55815E-18
 -1       584 9.29109E-05-2.00856E-05-3.12279E-05 7.85372E-06 2.52587E-18-2.01694E-18
 -1       585 3.55974E-05-1.65463E-05-7.57375E-06-2.28632E-05 1.47384E-19-5.27289E-18
 -1       586 1.13109E-04-5.58761E-05-2.39696E-05-3.06985E-05-2.15819E-18-2.27960E-18
 -1       587 6.51504E-05-3.15413E-05-1.39921E-05 4.89763E-05 2.46132E-18-1.52905E-18
 -1       588 1.93980E-05-5.58687E-06-5.30099E-06 6.64097E-06 1.82921E-18-4.67954E-18
 -1       589 1.47824E-04-4.74580E-05-4.33170E-05-3.94112E-06 5.22752E-19-2.84095E-18
 -1       590 3.33314E-05-1.25885E-05-8.26848E-06 3.56993E-05 2.86358E-18-3.41143E-18
 -1       591 1.06783E-04-5.02038E-05-2.40181E-05 4.26464E-05 1.06636E-18 6.23522E-19
 -1       592 1.34864E-04-5.47134E-05-3.44212E-05 2.28722E-05-1.04066E-18 1.37452E-18
 -1       593 1.47473E-04-4.35076E-05-4.48522E-05 3.32075E-06-3.07256E-18 1.13518E-18
 -1       594 1.45557E-04-2.49188E-05-5.21797E-05-8.08048E-06-4.44544E-18 5.61265E-19
 -1       595 1.36928E-04-7.37098E-06-5.61862E-05 4.73604E-06-3.10501E-18-2.78630E-18
 -1       596 1.32575E-04-5.99856E-05-3.11665E-05-2.67225E-05 2.24985E-18-5.55389E-19
 -1       597 1.01300E-04-5.27348E-05-2.05685E-05-4.50299E-05 2.69595E-18 1.92640E-18
 -1       598 1.00734E-04-2.44840E-05-3.27093E-05-1.27639E-05-1.23673E-18-3.30203E-18
 -1       599 1.05551E-04-2.34090E-05-3.51862E-05-6.32651E-06 2.22827E-18 2.58474E-18
 -1       600 1.00208E-04-2.27184E-05-3.32433E-05-8.96858E-06 2.21393E-19-3.62022E-18
 -1       601 9.52363E-05-2.85725E-05-2.85702E-05 4.05199E-09 1.43397E-18 2.77805E-19
 -1       602 4.55830E-05-1.50382E-05-1.24924E-05 2.11522E-05-8.81748E-19 1.87014E-18
 -1       603 6.32564E-05-2.20240E-05-1.71607E-05-2.84450E-05-2.76927E-19-3.92282E-18
 -1       604 7.10076E-05-1.05885E-05-2.58440E-05 2.37983E-05 3.86419E-18-1.65650E-18
 -1       605 8.56776E-05-2.01324E-05-2.80889E-05 2.09120E-05 3.36251E-18-1.39752E-18
 -1       606 5.62795E-05 1.26248E-06-2.45766E-05 6.49195E-06 3.41428E-18-1.95991E-18
 -1       607 6.75103E-05-4.90319E-06-2.67244E-05-5.20262E-06 2.64918E-18-1.25760E-18
 -1       608 8.39327E-05-1.67896E-05-2.86259E-05-1.63518E-05 1.37426E-18-3.73987E-19
 -1       609 9.52371E-05-2.85736E-05-2.85701E-05 5.38700E-09 1.80367E-18 4.94635E-19
 -1       610 1.20151E-04-5.70781E-05-2.69672E-05-2.97884E-05 2.84013E-18-7.88647E-19
 -1       611 1.03424E-04-3.02210E-05-3.13724E-05-1.03588E-05-8.50897E-19-2.08105E-18
 -1       612 1.02246E-04-2.91116E-05-3.13411E-05-1.00630E-05-9.06092E-19-1.92471E-18
 -1       613 1.00178E-04-2.66227E-05-3.15226E-05-8.68809E-06-9.80248E-19-1.85545E-18
 -1       614 9.79727E-05-2.39060E-05-3.17411E-05-5.61028E-06-1.06443E-18-2.29474E-18
 -1       615 9.66270E-05-2.23731E-05-3.18221E-05-1.04740E-06-8.80863E-19-2.31585E-18
 -1       616 9.67909E-05-2.29336E-05-3.16537E-05 3.82215E-06-6.39337E-19-2.16534E-18
 -1       617 9.82898E-05-2.54058E-05-3.12352E-05 7.53381E-06-7.24111E-19-1.68389E-18
 -1       618 1.00273E-04-2.87026E-05-3.06709E-05 9.17411E-06-2.29488E-19-1.86344E-18
 -1       619 1.01813E-04-3.15813E-05-3.00980E-05 8.77528E-06-2.48240E-19-2.10945E-18
 -1       620 1.02423E-04-3.33138E-05-2.96186E-05 7.03563E-06-1.31897E-19-2.39534E-18
 -1       621 1.02123E-04-3.38190E-05-2.92742E-05 4.78241E-06 4.74061E-19-1.69863E-18
 -1       622 1.01215E-04-3.34116E-05-2.90600E-05 2.63097E-06 1.83756E-19-1.30150E-18
 -1       623 1.00051E-04-3.25144E-05-2.89452E-05 9.01996E-07-1.96616E-19-1.09978E-18
 -1       624 9.88920E-05-3.14774E-05-2.88928E-05-3.16520E-07-5.71863E-19-1.67118E-18
 -1       625 9.78862E-05-3.05195E-05-2.88720E-05-1.06851E-06 1.21311E-20-1.40943E-18
 -1       626 9.70863E-05-2.97428E-05-2.88619E-05-1.45133E-06 3.65856E-19-1.35631E-18
 -1       627 9.64889E-05-2.91707E-05-2.88508E-05-1.57072E-06-4.52499E-20-1.64709E-18
 -1       628 9.60635E-05-2.87839E-05-2.88342E-05-1.51947E-06 1.18290E-19-2.44028E-18
 -1       629 9.57717E-05-2.85451E-05-2.88114E-05-1.37005E-06 1.63170E-18-2.58607E-18
 -1       630 9.55774E-05-2.84147E-05-2.87840E-05-1.17457E-06 1.01830E-18-1.78414E-18
 -1       631 9.54513E-05-2.83578E-05-2.87543E-05-9.67796E-07 1.42700E-19-1.09186E-18
 -1       632 9.53709E-05-2.83470E-05-2.87244E-05-7.71039E-07 3.99106E-19-1.25386E-18
 -1       633 9.53204E-05-2.83624E-05-2.86962E-05-5.95849E-07 7.07662E-19 3.74957E-19
 -1       634 9.52889E-05-2.83905E-05-2.86707E-05-4.47122E-07-2.88557E-19 5.92775E-19
 -1       635 9.52694E-05-2.84229E-05-2.86485E-05-3.25513E-07-7.85324E-19 7.12499E-19
 -1       636 9.52573E-05-2.84544E-05-2.86298E-05-2.29193E-07-3.48981E-20 1.07768E-18
 -1       637 9.52497E-05-2.84825E-05-2.86145E-05-1.55073E-07 1.11255E-18 1.41252E-18
 -1       638 9.52448E-05-2.85061E-05-2.86023E-05-9.96026E-08 1.24301E-18 9.63362E-19
 -1       639 9.52417E-05-2.85251E-05-2.85928E-05-5.92611E-08 8.87218E-19-2.54429E-19
 -1       640 9.52397E-05-2.85399E-05-2.85856E-05-3.08310E-08-6.53488E-21-2.91875E-19
 -1       641 9.52383E-05-2.85510E-05-2.85803E-05-1.15263E-08 7.44419E-19 7.44557E-19
 -1       642 9.52375E-05-2.85590E-05-2.85765E-05 9.70704E-10 1.32490E-18 4.58530E-19
 -1       643 9.52369E-05-2.85647E-05-2.85738E-05 8.52663E-09 5.98101E-19-3.80558E-19
 -1       644 9.52366E-05-2.85685E-05-2.85720E-05 1.26034E-08-1.97329E-19-6.30069E-19
 -1       645 9.52364E-05-2.85710E-05-2.85709E-05 1.43165E-08-2.37948E-19-5.51433E-20
 -1       646 9.52364E-05-2.85725E-05-2.85702E-05 1.44951E-08 1.84350E-19-1.17855E-18
 -1       647 9.52364E-05-2.85733E-05-2.85699E-05 1.37380E-08 7.21243E-19-1.59534E-18
 -1       648 9.52364E-05-2.85737E-05-2.85698E-05 1.24632E-08-5.61423E-19-2.37344E-18
 -1       649 9.52365E-05-2.85737E-05-2.85698E-05 1.09490E-08-3.89596E-19-4.41049E-19
 -1       650 9.52367E-05-2.85737E-05-2.85698E-05 9.36758E-09-1.78481E-18 1.24664E-19
 -1       651 9.52368E-05-2.85736E-05-2.85700E-05 7.81946E-09-3.15234E-18 2.69681E-19
 -1       652 9.52370E-05-2.85735E-05-2.85700E-05 6.56477E-09-5.37232E-19 7.54984E-21
 -1       653 8.61031E-05-2.06426E-05-2.80291E-05 1.94280E-05-1.15790E-18-8.51986E-19
 -1       654 8.86967E-05-2.07114E-05-2.91309E-05 1.52459E-05-6.01454E-19 5.62934E-20
 -1       655 9.11156E-05-2.20389E-05-2.95997E-05 1.19271E-05-7.32703E-19 1.79932E-19
 -1       656 9.29251E-05-2.35853E-05-2.97127E-05 9.22043E-06 1.11936E-19 3.56725E-20
 -1       657 9.41245E-05-2.49413E-05-2.96462E-05 7.04054E-06-4.53587E-19 1.17925E-18
 -1       658 9.48722E-05-2.60424E-05-2.94957E-05 5.24639E-06-5.13717E-19 1.60818E-19
 -1       659 9.52541E-05-2.68031E-05-2.93340E-05 3.92806E-06-2.91064E-19-1.75677E-19
 -1       660 9.54328E-05-2.73411E-05-2.91807E-05 2.91610E-06 4.99273E-19 1.11015E-20
 -1       661 9.54940E-05-2.77149E-05-2.90471E-05 2.14808E-06-1.03359E-21 1.33244E-19
 -1       662 9.54922E-05-2.79728E-05-2.89361E-05 1.56939E-06 2.37870E-19-3.70850E-19
 -1       663 9.54606E-05-2.81506E-05-2.88466E-05 1.13562E-06-5.07002E-19-6.56962E-19
 -1       664 9.54169E-05-2.82791E-05-2.87730E-05 7.99124E-07-1.60839E-20-1.52418E-18
 -1       665 9.53755E-05-2.83637E-05-2.87191E-05 5.63679E-07 1.37167E-18-2.00764E-18
 -1       666 9.53387E-05-2.84235E-05-2.86778E-05 3.90381E-07 8.75469E-19-1.95832E-18
 -1       667 9.53085E-05-2.84661E-05-2.86466E-05 2.63985E-07 6.77793E-19-1.92749E-18
 -1       668 9.52848E-05-2.84968E-05-2.86234E-05 1.72786E-07-3.71560E-19-7.42209E-19
 -1       669 9.52670E-05-2.85189E-05-2.86063E-05 1.07852E-07 9.21639E-19-6.00734E-19
 -1       670 9.52537E-05-2.85357E-05-2.85934E-05 6.06433E-08-6.15327E-19-1.16224E-18
 -1       671 9.52450E-05-2.85472E-05-2.85847E-05 3.02769E-08-2.05611E-18-1.11070E-18
 -1       672 9.52393E-05-2.85555E-05-2.85787E-05 1.01948E-08-1.95247E-18-1.66885E-18
 -1       673 9.52356E-05-2.85614E-05-2.85747E-05-2.50181E-09-1.52415E-19-2.74846E-18
 -1       674 9.52336E-05-2.85655E-05-2.85720E-05-9.99502E-09 1.41905E-18-2.76348E-18
 -1       675 9.52326E-05-2.85684E-05-2.85704E-05-1.40248E-08-3.66640E-19-1.68694E-18
 -1       676 9.52324E-05-2.85703E-05-2.85695E-05-1.54448E-08-5.27683E-19-1.69973E-20
 -1       677 9.52326E-05-2.85714E-05-2.85691E-05-1.53786E-08-2.87703E-19-7.84642E-19
 -1       678 9.52330E-05-2.85721E-05-2.85689E-05-1.44261E-08 9.13144E-19-1.50864E-18
 -1       679 9.52336E-05-2.85725E-05-2.85690E-05-1.29989E-08 3.90259E-19-2.06969E-18
 -1       680 9.52342E-05-2.85727E-05-2.85692E-05-1.13679E-08-1.07587E-18-9.66099E-19
 -1       681 9.52349E-05-2.85727E-05-2.85695E-05-9.61855E-09-7.96846E-19-1.06017E-18
 -1       682 9.52354E-05-2.85728E-05-2.85697E-05-8.00725E-09-1.66961E-18-1.30039E-18
 -1       683 9.52360E-05-2.85728E-05-2.85699E-05-6.48422E-09 7.13574E-19-4.80958E-18
 -1       684 9.52368E-05-2.85732E-05-2.85701E-05-5.45763E-09 1.15076E-18-4.61487E-18
 -1       685 9.52419E-05-2.85779E-05-2.85703E-05-9.45525E-10-1.09595E-18 4.02991E-18
 -1       686 3.45448E-05-1.81486E-06-1.34884E-05 1.92267E-05 3.46086E-18-3.40804E-18
 -1       687 9.52406E-05-2.85767E-05-2.85702E-05-4.32252E-09 1.14020E-18-3.29733E-18
 -1       688 9.52419E-05-2.85779E-05-2.85703E-05 1.00649E-09-3.61304E-19 3.56180E-18
 -1       689 9.52414E-05-2.85775E-05-2.85702E-05-2.79362E-09-3.29204E-19-6.57764E-19
 -1       690 9.52414E-05-2.85775E-05-2.85702E-05 2.81413E-09 7.52588E-19 2.44618E-18
 -1       691 9.52406E-05-2.85767E-05-2.85702E-05 4.33710E-09 2.13614E-19-3.91930E-19
 -1       692 9.52393E-05-2.85756E-05-2.85702E-05 5.36305E-09 7.51967E-19 3.82607E-18
 -1       693 1.38365E-04-4.97315E-05-3.81468E-05 4.57003E-06-1.06952E-18 1.42624E-18
 -1       694 5.27206E-05-1.99611E-05-1.35841E-05-3.44977E-05 1.48195E-18 4.68150E-18
 -1       695 1.37965E-04-3.42757E-05-4.48714E-05 9.56355E-06-4.17958E-20-3.01300E-18
 -1       696 1.22677E-04-5.30113E-05-2.98154E-05 2.64324E-05 1.10350E-18 1.16632E-18
 -1       697 8.47906E-05-2.39487E-05-2.59388E-05 2.49647E-05-1.88563E-18-8.57852E-19
 -1       698 1.29084E-04-1.54310E-05-4.91832E-05-1.19910E-05-3.81525E-18 3.24784E-19
 -1       699 9.28927E-05-3.65495E-05-2.38134E-05 3.07292E-05-2.33064E-18-9.40657E-19
 -1       700 1.37923E-04-3.51277E-05-4.44504E-05-9.48300E-06-2.65982E-18 1.14323E-18
 -1       701 1.03257E-04-2.91306E-05-3.17686E-05-1.05476E-05-5.78517E-19-2.29839E-18
 -1       702 8.77345E-05-4.19188E-05-1.93308E-05-4.25693E-05 2.52495E-18 1.94293E-18
 -1       703 5.86231E-05-1.77164E-06-2.42839E-05 1.84885E-05 3.94043E-18-1.89067E-18
 -1       704 1.04320E-04-2.86972E-05-3.24176E-05-2.15753E-06 1.19282E-18-1.94784E-18
 -1       705 9.13255E-05-3.84582E-05-2.24173E-05 4.14121E-05 3.09911E-18 4.95779E-20
 -1       706 3.65011E-05-5.09869E-06-1.28246E-05-8.56153E-06 1.77138E-18-4.15877E-18
 -1       707 1.20457E-04-6.14449E-06-4.95438E-05 2.13540E-07-3.21063E-18-1.46870E-18
 -1       708 5.87416E-05-1.77884E-05-1.71226E-05 3.98598E-05 3.96245E-18-1.63027E-18
 -1       709 3.88235E-05-8.57077E-06-1.24194E-05-1.31866E-05 7.67624E-21 3.57141E-18
 -1       710 1.37876E-04-5.47706E-05-3.56979E-05-6.78379E-06 1.98283E-18-2.30806E-18
 -1       711 8.69176E-05-3.88682E-05-2.01235E-05 3.36799E-05-1.99394E-18-5.04567E-19
 -1       712 1.27744E-04-1.56902E-05-4.85419E-05 1.13335E-05-1.42455E-18-2.59929E-18
 -1       713 9.63662E-05-2.61632E-05-3.00827E-05 1.34128E-05 2.60759E-18-1.33894E-18
 -1       714 1.04186E-04-2.79715E-05-3.26775E-05-7.21068E-06 3.27310E-19-2.44881E-18
 -1       715 1.03035E-04-2.75902E-05-3.23382E-05-1.04974E-05-3.29536E-19-2.91228E-18
 -1       716 1.12758E-04-5.70111E-05-2.37920E-05 3.05368E-05 1.34043E-19-2.43501E-18
 -1       717 9.52383E-05-2.85747E-05-2.85701E-05-5.60684E-09 1.60609E-18-3.92684E-18
 -1       718 6.84811E-05-2.28213E-05-1.92173E-05 2.78139E-05-1.76880E-18-6.97505E-19
 -1       719 4.33180E-05-8.08253E-06-1.46267E-05 4.74973E-06-1.05343E-18 1.97610E-18
 -1       720 9.52395E-05-2.85758E-05-2.85702E-05-5.20171E-09 3.18827E-18-5.72697E-18
 -1       721 1.16841E-04-1.03503E-05-4.59529E-05-7.65148E-06-3.02732E-18-2.51704E-19
 -1       722 1.02248E-04-2.85633E-05-3.15760E-05 4.92449E-06 1.90804E-18-1.60028E-18
 -1       723 4.87265E-05-4.00403E-07-2.04118E-05 1.44095E-05 3.53232E-18-2.47099E-18
 -1       724 5.28679E-05-1.84022E-06-2.16172E-05-4.95277E-06 2.50045E-18-2.42855E-18
 -1       725 1.28223E-04-4.98703E-05-3.36193E-05 9.35538E-06 4.59366E-19 8.58911E-19
 -1       726 9.52408E-05-2.85765E-05-2.85704E-05 5.87710E-09 4.02529E-19 1.34482E-18
 -1       727 1.05794E-04-2.87109E-05-3.30430E-05-1.10123E-05-9.34617E-19-1.32946E-18
 -1       728 1.03230E-04-2.45510E-05-3.37241E-05-9.17343E-06-1.35031E-18-1.43902E-18
 -1       729 1.00719E-04-2.08692E-05-3.42187E-05-4.68873E-06-1.29125E-18-1.91901E-18
 -1       730 9.98788E-05-1.99869E-05-3.42482E-05 1.45259E-06-3.00676E-19-2.05626E-18
 -1       731 1.01242E-04-2.26340E-05-3.36958E-05 6.96336E-06-4.88180E-19-1.97070E-18
 -1       732 1.03783E-04-2.74584E-05-3.27157E-05 9.88306E-06-6.38353E-19-1.66066E-18
 -1       733 1.05906E-04-3.22067E-05-3.15852E-05 9.79692E-06-5.56632E-19-1.83268E-18
 -1       734 1.06576E-04-3.52492E-05-3.05696E-05 7.66097E-06-2.03133E-19-1.81032E-18
 -1       735 1.05798E-04-3.62918E-05-2.97892E-05 4.79813E-06 3.35289E-19-1.60951E-18
 -1       736 1.04076E-04-3.57863E-05-2.92677E-05 2.15696E-06 4.20218E-19-1.73627E-18
 -1       737 1.02023E-04-3.44440E-05-2.89630E-05 1.64782E-07 1.66222E-19-1.99323E-18
 -1       738 1.00079E-04-3.28570E-05-2.88098E-05-1.12241E-06-4.99313E-19-1.40261E-18
 -1       739 9.84667E-05-3.13875E-05-2.87484E-05-1.82420E-06-2.10406E-19-7.80001E-19
 -1       740 9.72459E-05-3.01993E-05-2.87344E-05-2.10274E-06 1.45857E-19-1.18518E-18
 -1       741 9.63872E-05-2.93298E-05-2.87390E-05-2.10517E-06-2.08967E-20-1.35697E-18
 -1       742 9.58221E-05-2.87482E-05-2.87460E-05-1.94581E-06 2.74077E-19-1.19877E-18
 -1       743 9.54751E-05-2.83963E-05-2.87480E-05-1.70525E-06 9.82235E-19-9.63108E-20
 -1       744 9.52791E-05-2.82119E-05-2.87431E-05-1.43649E-06 1.40211E-18-5.55269E-19
 -1       745 9.51815E-05-2.81409E-05-2.87317E-05-1.17213E-06 6.20434E-19-6.26887E-19
 -1       746 9.51436E-05-2.81403E-05-2.87157E-05-9.30449E-07-3.64908E-19-5.71386E-19
 -1       747 9.51392E-05-2.81791E-05-2.86972E-05-7.20173E-07 7.50721E-19-1.05027E-18
 -1       748 9.51514E-05-2.82361E-05-2.86779E-05-5.43887E-07 6.78144E-19-1.08425E-18
 -1       749 9.51698E-05-2.82980E-05-2.86593E-05-4.00498E-07 3.73657E-21 1.83493E-19
 -1       750 9.51887E-05-2.83569E-05-2.86422E-05-2.86897E-07-2.99458E-19 1.18071E-18
 -1       751 9.52054E-05-2.84087E-05-2.86271E-05-1.99052E-07 4.65277E-19 2.23419E-18
 -1       752 9.52188E-05-2.84521E-05-2.86143E-05-1.32710E-07 8.78049E-19 1.56059E-18
 -1       753 9.52288E-05-2.84869E-05-2.86037E-05-8.38100E-08-3.76053E-20 6.95010E-19
 -1       754 9.52357E-05-2.85139E-05-2.85951E-05-4.87028E-08 1.94955E-19-3.91213E-19
 -1       755 9.52402E-05-2.85342E-05-2.85883E-05-2.42504E-08 1.27916E-18 4.40524E-19
 -1       756 9.52428E-05-2.85490E-05-2.85831E-05-7.84109E-09 6.77024E-19-5.03477E-19
 -1       757 9.52440E-05-2.85594E-05-2.85791E-05 2.63857E-09 6.82733E-19-2.30928E-19
 -1       758 9.52442E-05-2.85664E-05-2.85762E-05 8.85761E-09-4.85786E-19-1.47064E-19
 -1       759 9.52439E-05-2.85710E-05-2.85741E-05 1.21042E-08 5.80414E-20 5.72119E-19
 -1       760 9.52433E-05-2.85737E-05-2.85727E-05 1.33504E-08-1.01629E-18 8.14091E-19
 -1       761 9.52424E-05-2.85752E-05-2.85717E-05 1.33117E-08 1.08181E-19 9.52795E-19
 -1       762 9.52416E-05-2.85758E-05-2.85710E-05 1.25005E-08 2.40967E-19 4.56015E-19
 -1       763 9.52407E-05-2.85759E-05-2.85706E-05 1.12710E-08 3.12170E-19-1.87390E-19
 -1       764 9.52400E-05-2.85757E-05-2.85704E-05 9.85992E-09 5.02569E-19 4.17550E-19
 -1       765 9.52394E-05-2.85754E-05-2.85703E-05 8.41537E-09-2.42236E-18 1.75954E-18
 -1       766 7.09215E-05-1.47175E-05-2.39756E-05 1.65705E-05-2.16696E-18-1.21337E-19
 -1       767 9.52422E-05-2.85776E-05-2.85705E-05 4.31110E-09-2.15246E-19 8.46238E-19
 -1       768 8.64233E-05-1.97880E-05-2.85569E-05 7.79256E-06-3.34350E-19 2.69712E-19
 -1       769 7.76281E-05-1.55741E-05-2.65809E-05 1.27477E-05-9.74825E-19-9.75167E-20
 -1       770 8.94710E-05-2.19717E-05-2.89276E-05 6.34053E-06-1.43867E-18 9.44958E-19
 -1       771 9.16343E-05-2.38001E-05-2.90713E-05 5.03071E-06 1.47950E-19 3.68344E-19
 -1       772 9.29863E-05-2.51169E-05-2.90863E-05 3.97404E-06-2.01931E-19-9.84573E-20
 -1       773 9.38607E-05-2.60891E-05-2.90446E-05 3.09213E-06 5.13849E-19 3.74071E-19
 -1       774 9.44146E-05-2.67937E-05-2.89801E-05 2.37338E-06 1.69150E-19-2.01107E-19
 -1       775 9.47587E-05-2.72996E-05-2.89108E-05 1.79828E-06-6.19928E-19 3.19456E-20
 -1       776 9.49682E-05-2.76615E-05-2.88456E-05 1.34461E-06-1.20391E-19 1.26831E-18
 -1       777 9.50980E-05-2.79311E-05-2.87857E-05 9.76974E-07 2.82681E-19 8.53701E-19
 -1       778 9.51690E-05-2.81136E-05-2.87379E-05 7.09981E-07 8.96380E-19 1.63189E-18
 -1       779 9.52091E-05-2.82452E-05-2.86988E-05 5.06932E-07 1.88735E-18 5.37026E-19
 -1       780 9.52307E-05-2.83402E-05-2.86673E-05 3.54508E-07 8.53706E-19-1.78512E-18
 -1       781 9.52417E-05-2.84091E-05-2.86425E-05 2.41521E-07-1.12540E-18-4.51691E-19
 -1       782 9.52466E-05-2.84590E-05-2.86233E-05 1.58896E-07 7.44674E-19-7.02834E-19
 -1       783 9.52482E-05-2.84965E-05-2.86078E-05 9.71268E-08 8.71893E-19-7.35895E-19
 -1       784 9.52480E-05-2.85220E-05-2.85968E-05 5.61438E-08-2.89331E-19-1.79302E-18
 -1       785 9.52470E-05-2.85401E-05-2.85886E-05 2.80052E-08-1.11335E-18-3.26051E-18
 -1       786 9.52456E-05-2.85528E-05-2.85826E-05 9.33424E-09-3.65187E-19-3.89851E-18
 -1       787 9.52443E-05-2.85615E-05-2.85783E-05-2.50390E-09-5.07246E-19-2.45758E-18
 -1       788 9.52429E-05-2.85675E-05-2.85752E-05-9.73871E-09 9.57227E-19-1.61457E-18
 -1       789 9.52418E-05-2.85712E-05-2.85731E-05-1.32400E-08-1.24689E-18-2.73839E-18
 -1       790 9.52408E-05-2.85733E-05-2.85718E-05-1.45631E-08 1.76583E-19-2.86749E-18
 -1       791 9.52400E-05-2.85745E-05-2.85709E-05-1.44940E-08 7.27110E-19-3.85030E-18
 -1       792 9.52393E-05-2.85750E-05-2.85704E-05-1.35935E-08 1.41903E-18-2.94705E-18
 -1       793 9.52388E-05-2.85750E-05-2.85702E-05-1.22462E-08-1.74690E-18-2.52108E-18
 -1       794 9.52384E-05-2.85749E-05-2.85701E-05-1.06281E-08-2.96997E-20-3.24716E-18
 -1       795 9.52381E-05-2.85746E-05-2.85701E-05-9.05115E-09-1.79753E-19-4.47145E-18
 -1       796 9.52379E-05-2.85744E-05-2.85701E-05-7.52312E-09 1.40834E-18-4.73959E-18
 -1       797 9.52381E-05-2.85745E-05-2.85701E-05-6.54539E-09 1.71142E-18-3.33533E-18
 -1       798 9.52434E-05-2.85786E-05-2.85707E-05 4.60565E-11-1.13513E-18 4.20665E-18
 -1       799 5.21728E-05-6.00916E-06-1.95313E-05 2.69870E-05 4.02904E-18-2.27807E-18
 -1       800 1.38347E-04-4.85215E-05-3.87198E-05 1.44954E-06 1.14199E-18-2.71021E-18
 -1       801 1.32297E-04-4.16019E-05-3.90491E-05-6.77401E-06-1.32571E-18 9.03678E-19
 -1       802 1.05439E-04-4.76083E-05-2.46965E-05-3.13137E-05 2.27982E-18-4.02344E-19
 -1       803 1.25011E-04-2.70631E-05-4.22673E-05 1.31058E-05-5.55164E-19-2.17969E-18
 -1       804 1.26210E-04-5.40560E-05-3.09247E-05-1.15177E-05 1.94847E-18-1.13540E-18
 -1       805 1.15145E-04-1.23253E-05-4.43674E-05 7.53038E-06-1.66233E-18-2.26922E-18
 -1       806 1.06346E-04-3.09554E-05-3.22984E-05-9.90269E-06-2.37301E-19-2.29644E-18
 -1       807 1.05837E-04-2.99982E-05-3.25024E-05-8.75095E-06 2.90636E-20-2.53522E-18
 -1       808 9.52389E-05-2.85751E-05-2.85702E-05 6.63391E-09-2.00032E-18 3.07868E-18
 -1       809 1.07121E-04-3.13404E-05-3.24820E-05-1.08471E-05-5.73417E-19-1.53988E-18
 -1       810 8.20984E-05-1.72972E-05-2.77720E-05 9.49176E-06-1.11342E-18-1.64391E-19
 -1       811 7.93724E-05-2.48195E-05-2.31803E-05 3.54927E-05 3.83023E-18-8.24831E-19
 -1       812 1.23788E-04-2.57035E-05-4.23010E-05-1.41420E-05-2.63773E-18 6.30987E-19
 -1       813 5.56049E-05-1.36539E-05-1.77014E-05-2.14028E-05 4.87785E-19 3.42948E-18
 -1       814 7.59348E-05-2.94184E-05-1.97326E-05-3.47840E-05 1.96896E-18 2.86977E-18
 -1       815 9.52431E-05-2.85783E-05-2.85706E-05 2.30065E-09-4.02007E-19 4.19877E-18
 -1       816 1.09237E-04-4.41258E-05-2.77839E-05 2.79244E-05 2.45842E-18 3.19505E-19
 -1       817 1.29210E-04-3.93822E-05-3.86525E-05 9.56420E-06 4.36877E-19-1.78571E-18
 -1       818 5.19682E-05-8.89610E-06-1.81942E-05-7.93462E-06-9.80490E-19 1.68214E-18
 -1       819 1.07405E-04-3.14402E-05-3.25629E-05-4.68947E-06 8.46676E-19-1.40774E-18
 -1       820 1.10517E-04-1.08889E-05-4.29052E-05 5.10417E-08-2.01010E-18-1.78688E-18
 -1       821 9.52431E-05-2.85784E-05-2.85706E-05-2.23513E-09-5.96593E-19-6.94922E-19
 -1       822 9.52422E-05-2.85777E-05-2.85705E-05-4.28353E-09 7.15321E-20-1.79092E-18
 -1       823 1.30836E-04-4.97573E-05-3.48607E-05 4.67139E-07 1.40454E-18-1.45805E-18
 -1       824 5.78028E-05-1.27071E-05-1.90556E-05 1.70095E-05-2.16258E-18 5.82097E-19
 -1       825 9.52410E-05-2.85768E-05-2.85704E-05-5.63477E-09 1.20667E-18-4.28160E-18
 -1       826 1.01952E-04-3.42920E-05-2.89863E-05 2.01693E-05 2.69715E-18-5.21468E-19
 -1       827 1.07309E-04-3.26861E-05-3.19823E-05 2.03311E-06 1.60376E-18-1.38622E-18
 -1       828 5.67381E-05-9.08446E-06-2.02031E-05-1.53983E-05 1.38148E-18-2.67834E-18
 -1       829 1.12440E-04-1.81023E-05-4.05701E-05-1.13301E-05-2.22589E-18-8.73762E-19
 -1       830 1.06376E-04-2.11114E-05-3.65553E-05-9.26283E-06-1.54685E-18-9.19716E-19
 -1       831 1.03577E-04-1.67370E-05-3.72526E-05-2.41843E-06-1.25865E-18-1.38842E-18
 -1       832 1.03946E-04-1.82527E-05-3.67652E-05 5.38863E-06-9.25448E-19-2.99208E-18
 -1       833 1.07282E-04-2.45657E-05-3.54987E-05 1.04308E-05-5.39393E-19-3.39537E-18
 -1       834 1.10438E-04-3.19927E-05-3.36463E-05 1.09307E-05-3.41104E-19-2.70767E-18
 -1       835 1.11650E-04-3.73221E-05-3.18489E-05 8.07777E-06 8.57025E-20-1.73121E-18
 -1       836 1.10346E-04-3.92564E-05-3.04691E-05 4.14726E-06 7.00895E-20-1.09249E-18
 -1       837 1.07540E-04-3.86280E-05-2.95342E-05 7.80715E-07 3.26235E-19-1.20657E-18
 -1       838 1.04337E-04-3.67047E-05-2.89859E-05-1.49136E-06 5.47536E-19-1.05219E-18
 -1       839 1.01399E-04-3.44108E-05-2.87094E-05-2.71346E-06 4.49149E-20-1.40421E-18
 -1       840 9.90546E-05-3.23204E-05-2.86004E-05-3.17474E-06 2.97891E-19-1.37690E-18
 -1       841 9.73437E-05-3.06528E-05-2.85819E-05-3.16202E-06-4.09465E-19-8.50228E-19
 -1       842 9.61918E-05-2.94496E-05-2.86039E-05-2.89109E-06 4.50503E-19-4.97143E-19
 -1       843 9.54770E-05-2.86570E-05-2.86372E-05-2.50683E-06-3.29729E-19-7.68331E-19
 -1       844 9.50761E-05-2.81868E-05-2.86669E-05-2.09561E-06 1.36291E-18-1.04721E-18
 -1       845 9.48855E-05-2.79493E-05-2.86869E-05-1.70418E-06 1.17062E-18-1.11570E-18
 -1       846 9.48260E-05-2.78678E-05-2.86964E-05-1.35500E-06 7.54165E-19-7.50196E-19
 -1       847 9.48414E-05-2.78827E-05-2.86966E-05-1.05626E-06 1.01163E-19-1.00790E-18
 -1       848 9.48939E-05-2.79507E-05-2.86899E-05-8.08214E-07 1.38731E-20-2.56038E-19
 -1       849 9.49598E-05-2.80427E-05-2.86788E-05-6.07012E-07 1.07639E-18-1.47077E-19
 -1       850 9.50257E-05-2.81399E-05-2.86653E-05-4.47032E-07 1.50440E-18-1.06914E-18
 -1       851 9.50843E-05-2.82316E-05-2.86511E-05-3.22119E-07 1.01312E-19-8.96336E-19
 -1       852 9.51327E-05-2.83122E-05-2.86374E-05-2.26286E-07 9.66993E-19-3.97886E-19
 -1       853 9.51707E-05-2.83798E-05-2.86247E-05-1.54063E-07 6.31526E-20-2.53649E-19
 -1       854 9.51991E-05-2.84342E-05-2.86135E-05-1.00661E-07 1.12441E-18 1.34042E-19
 -1       855 9.52193E-05-2.84767E-05-2.86040E-05-6.19989E-08-9.89745E-19 1.06824E-18
 -1       856 9.52330E-05-2.85089E-05-2.85960E-05-3.46856E-08 9.97609E-19 4.34625E-19
 -1       857 9.52416E-05-2.85325E-05-2.85896E-05-1.59550E-08 9.95361E-20-1.81253E-19
 -1       858 9.52467E-05-2.85494E-05-2.85845E-05-3.59298E-09 7.92209E-19 2.22604E-19
 -1       859 9.52491E-05-2.85610E-05-2.85806E-05 4.14113E-09 8.81597E-20-1.10701E-19
 -1       860 9.52497E-05-2.85687E-05-2.85776E-05 8.59280E-09-8.97437E-19 6.59991E-19
 -1       861 9.52493E-05-2.85734E-05-2.85754E-05 1.07834E-08 5.61918E-20-9.65003E-19
 -1       862 9.52481E-05-2.85761E-05-2.85737E-05 1.14733E-08 2.96243E-19-2.03454E-19
 -1       863 9.52467E-05-2.85774E-05-2.85726E-05 1.12158E-08 1.15694E-19-1.92657E-19
 -1       864 9.52452E-05-2.85778E-05-2.85717E-05 1.04022E-08 1.06700E-18 5.57672E-19
 -1       865 9.52436E-05-2.85776E-05-2.85712E-05 9.30093E-09 9.51711E-19 1.78298E-18
 -1       866 9.52423E-05-2.85771E-05-2.85708E-05 8.08605E-09-1.02239E-18-2.85007E-19
 -1       867 9.52428E-05-2.85777E-05-2.85708E-05 5.99162E-09-3.55775E-19 7.19982E-19
 -1       868 1.25346E-04-4.31787E-05-3.52570E-05-2.88946E-06-9.14365E-21 4.33143E-19
 -1       869 8.50340E-05-1.95421E-05-2.80687E-05 3.58774E-06-7.60223E-19-3.32872E-19
 -1       870 8.83633E-05-2.18050E-05-2.85254E-05 3.38147E-06-6.11523E-19-2.00768E-19
 -1       871 6.67305E-05-1.13190E-05-2.36848E-05 5.79903E-06-8.27212E-19 5.46409E-19
 -1       872 9.05647E-05-2.35063E-05-2.87392E-05 3.01213E-06-3.18847E-19 2.88644E-19
 -1       873 9.20877E-05-2.48155E-05-2.88308E-05 2.56908E-06 2.95451E-19 7.22771E-19
 -1       874 9.31304E-05-2.58039E-05-2.88542E-05 2.12001E-06 6.74700E-19 1.36681E-18
 -1       875 9.38384E-05-2.65403E-05-2.88420E-05 1.70334E-06 2.93579E-20 1.68868E-18
 -1       876 9.43161E-05-2.70855E-05-2.88131E-05 1.33680E-06-7.87903E-19 1.21478E-18
 -1       877 9.46492E-05-2.75043E-05-2.87764E-05 1.01432E-06 4.72848E-19 6.89567E-19
 -1       878 9.48591E-05-2.77957E-05-2.87414E-05 7.64440E-07 6.29345E-19 5.16617E-19
 -1       879 9.49988E-05-2.80106E-05-2.87092E-05 5.64504E-07 1.34426E-18 6.87042E-19
 -1       880 9.50913E-05-2.81689E-05-2.86810E-05 4.08042E-07 1.99221E-18 3.29538E-18
 -1       881 9.51522E-05-2.82855E-05-2.86572E-05 2.87861E-07 1.20275E-19 2.87302E-18
 -1       882 9.51917E-05-2.83711E-05-2.86374E-05 1.97138E-07 5.53914E-19-3.58334E-19
 -1       883 9.52180E-05-2.84364E-05-2.86207E-05 1.27260E-07 1.08313E-18-7.45383E-19
 -1       884 9.52333E-05-2.84811E-05-2.86081E-05 7.94941E-08 1.23838E-18-1.26309E-18
 -1       885 9.52424E-05-2.85131E-05-2.85982E-05 4.56461E-08-4.88728E-19-9.99806E-19
 -1       886 9.52473E-05-2.85358E-05-2.85906E-05 2.23556E-08-8.30420E-19 2.27261E-19
 -1       887 9.52495E-05-2.85516E-05-2.85848E-05 6.87684E-09-1.31748E-18 7.45456E-19
 -1       888 9.52500E-05-2.85626E-05-2.85803E-05-3.26736E-09 8.73431E-19 1.95648E-19
 -1       889 9.52494E-05-2.85694E-05-2.85771E-05-8.82907E-09 1.35717E-19 1.40827E-18
 -1       890 9.52482E-05-2.85735E-05-2.85749E-05-1.16674E-08 2.47209E-19 6.73477E-19
 -1       891 9.52468E-05-2.85758E-05-2.85733E-05-1.26850E-08 1.61704E-19 9.41282E-19
 -1       892 9.52453E-05-2.85769E-05-2.85722E-05-1.25454E-08 5.51165E-19 4.99441E-19
 -1       893 9.52438E-05-2.85772E-05-2.85714E-05-1.17190E-08-2.27722E-19-2.24134E-19
 -1       894 9.52424E-05-2.85770E-05-2.85709E-05-1.04629E-08-1.51259E-19-2.67538E-18
 -1       895 9.52413E-05-2.85766E-05-2.85706E-05-9.12039E-09-2.51377E-19-3.59745E-18
 -1       896 9.52403E-05-2.85761E-05-2.85704E-05-7.76244E-09 3.89543E-19-4.35923E-18
 -1       897 1.09422E-04-3.31176E-05-3.27102E-05-7.19317E-06 5.00203E-19-1.22937E-18
 -1       898 7.46889E-05-1.41079E-05-2.59634E-05 4.20102E-06-5.99464E-19 4.79874E-19
 -1       899 1.17515E-04-4.39395E-05-3.15732E-05 1.09383E-05 1.56280E-18 1.43448E-19
 -1       900 9.22217E-05-3.61559E-05-2.39642E-05-2.82478E-05 2.01507E-18 5.79328E-19
 -1       901 7.16658E-05-2.12810E-05-2.14918E-05-2.43323E-05 4.17534E-19 2.59468E-18
 -1       902 1.22690E-04-4.74821E-05-3.22676E-05-2.86289E-07 1.40404E-18-1.38545E-18
 -1       903 1.09595E-04-2.73214E-05-3.52618E-05-1.21212E-05-1.35381E-18-8.58675E-19
 -1       904 5.68050E-05-9.22126E-06-2.02172E-05 5.39093E-06-2.00714E-18 1.79901E-18
 -1       905 1.06476E-04-3.43468E-05-3.08993E-05 9.95717E-06 2.03455E-18-8.10635E-19
 -1       906 1.22016E-04-3.36296E-05-3.80224E-05-1.23350E-05-1.55127E-18 3.23401E-19
 -1       907 1.13868E-04-2.13353E-05-3.97776E-05 1.13699E-05-1.05726E-18-2.25210E-18
 -1       908 1.11604E-04-3.24937E-05-3.39022E-05-1.11942E-05-6.94415E-19-8.21856E-19
 -1       909 8.05340E-05-1.69493E-05-2.72560E-05 3.48656E-06-8.76314E-19-2.68924E-19
 -1       910 9.52396E-05-2.85757E-05-2.85703E-05-6.33393E-09 9.18744E-19-4.64993E-18
 -1       911 1.13167E-04-4.77695E-05-2.79811E-05-1.75384E-05 1.48984E-18-7.71391E-19
 -1       912 1.22456E-04-4.19422E-05-3.45626E-05 7.23609E-06 1.06406E-18-1.58142E-18
 -1       913 1.19626E-04-3.23387E-05-3.74835E-05 1.20942E-05-1.03451E-19-2.15422E-18
 -1       914 9.52423E-05-2.85773E-05-2.85707E-05 7.06057E-09-1.56783E-18-2.66398E-19
 -1       915 9.52443E-05-2.85787E-05-2.85710E-05 3.90516E-09 2.00688E-19 2.05522E-18
 -1       916 9.52451E-05-2.85793E-05-2.85711E-05-1.26792E-09 7.73637E-19 9.38676E-19
 -1       917 1.11335E-04-3.53908E-05-3.25330E-05-1.63576E-06 1.07317E-18-9.82290E-19
 -1       918 9.52443E-05-2.85788E-05-2.85710E-05-3.81996E-09 6.14379E-19-1.28369E-18
 -1       919 6.38206E-05-1.32083E-05-2.15812E-05-1.29695E-05-4.69431E-19 2.30345E-18
 -1       920 1.15568E-04-4.63929E-05-2.96444E-05-7.25530E-06 1.27966E-18-5.99987E-19
 -1       921 9.52431E-05-2.85779E-05-2.85708E-05-5.70008E-09 1.34764E-18-4.15422E-18
 -1       922 9.52451E-05-2.85792E-05-2.85711E-05 1.38978E-09 1.36731E-19 5.70032E-18
 -1       923 1.17142E-04-3.34698E-05-3.59552E-05-1.13411E-05-1.05279E-18-1.80636E-19
 -1       924 6.28756E-05-1.07150E-05-2.22834E-05-3.20984E-06-2.98218E-19 1.71657E-20
 -1       925 1.11575E-04-4.20719E-05-2.97791E-05-1.81995E-06 4.24658E-19-1.03430E-19
 -1       926 1.06702E-04-3.91944E-05-2.89352E-05-4.35094E-06 5.23537E-19 2.03156E-19
 -1       927 1.02518E-04-3.59657E-05-2.85204E-05-5.33784E-06 3.37283E-22-2.62136E-20
 -1       928 9.93322E-05-3.31141E-05-2.83786E-05-5.28934E-06-2.50537E-19-6.54900E-20
 -1       929 9.71291E-05-3.09220E-05-2.83745E-05-4.73608E-06 4.05410E-19-2.20380E-19
 -1       930 9.57216E-05-2.93855E-05-2.84300E-05-3.98869E-06 2.54622E-19 2.32252E-19
 -1       931 9.49095E-05-2.84071E-05-2.85012E-05-3.23270E-06-1.52362E-19-3.84221E-19
 -1       932 9.45036E-05-2.78489E-05-2.85664E-05-2.55260E-06 9.07202E-19 1.61420E-20
 -1       933 9.43586E-05-2.75862E-05-2.86168E-05-1.97749E-06 1.01983E-18 4.90427E-19
 -1       934 9.43686E-05-2.75172E-05-2.86506E-05-1.50938E-06 1.11472E-18-9.61399E-19
 -1       935 9.44606E-05-2.75652E-05-2.86694E-05-1.13771E-06 1.11144E-18-5.35133E-19
 -1       936 9.45874E-05-2.76758E-05-2.86764E-05-8.47599E-07 7.35401E-19 6.30915E-19
 -1       937 9.47204E-05-2.78125E-05-2.86748E-05-6.23945E-07 6.78486E-19 6.64670E-19
 -1       938 9.48436E-05-2.79526E-05-2.86676E-05-4.53258E-07 2.05392E-19 4.78338E-19
 -1       939 9.49497E-05-2.80828E-05-2.86572E-05-3.24214E-07 4.84787E-19-5.62873E-19
 -1       940 9.50362E-05-2.81968E-05-2.86454E-05-2.27581E-07-2.43597E-21-2.95397E-19
 -1       941 9.51037E-05-2.82922E-05-2.86335E-05-1.55975E-07 1.37707E-18-1.16808E-18
 -1       942 9.51546E-05-2.83693E-05-2.86223E-05-1.03562E-07 8.02808E-19-2.58930E-19
 -1       943 9.51914E-05-2.84298E-05-2.86121E-05-6.57650E-08 5.08075E-19-3.61309E-19
 -1       944 9.52170E-05-2.84759E-05-2.86033E-05-3.90002E-08-2.10723E-19-1.66338E-19
 -1       945 9.52340E-05-2.85102E-05-2.85959E-05-2.04788E-08 2.68955E-19-3.58172E-19
 -1       946 9.52446E-05-2.85349E-05-2.85899E-05-8.04021E-09 3.09454E-19-1.59147E-20
 -1       947 9.52505E-05-2.85522E-05-2.85850E-05-2.27921E-11 3.98444E-19 3.57206E-19
 -1       948 9.52532E-05-2.85639E-05-2.85811E-05 4.83847E-09-7.15364E-19-1.94149E-18
 -1       949 9.52537E-05-2.85714E-05-2.85781E-05 7.49910E-09-1.00300E-18-6.49732E-19
 -1       950 9.52529E-05-2.85758E-05-2.85759E-05 8.66974E-09 8.06876E-19-1.97225E-19
 -1       951 9.52513E-05-2.85782E-05-2.85742E-05 8.87095E-09 9.68850E-19 9.08696E-19
 -1       952 9.52494E-05-2.85791E-05-2.85729E-05 8.47706E-09 8.43416E-19 1.93782E-18
 -1       953 9.52473E-05-2.85792E-05-2.85720E-05 7.74765E-09 2.90461E-18 2.07253E-18
 -1       954 9.52453E-05-2.85787E-05-2.85714E-05 6.86458E-09-7.12154E-19 6.45150E-19
 -1       955 8.58593E-05-2.06669E-05-2.79392E-05 3.32554E-07-1.03389E-18-6.64324E-19
 -1       956 8.85290E-05-2.23991E-05-2.83413E-05 1.01783E-06-3.57781E-19-3.03085E-19
 -1       957 9.29020E-05-2.58434E-05-2.87395E-05 1.21872E-06-7.86359E-19-6.13739E-19
 -1       958 9.36135E-05-2.65211E-05-2.87540E-05 1.05376E-06-7.18853E-20-2.33489E-20
 -1       959 9.41381E-05-2.70616E-05-2.87472E-05 8.62099E-07 2.74278E-19-2.99048E-19
 -1       960 9.44874E-05-2.74505E-05-2.87301E-05 6.87105E-07 4.67310E-19 8.33272E-19
 -1       961 9.47329E-05-2.77454E-05-2.87090E-05 5.31499E-07 9.41524E-19-1.65097E-19
 -1       962 9.49047E-05-2.79681E-05-2.86871E-05 4.00071E-07 6.99569E-19 2.78307E-19
 -1       963 9.50241E-05-2.81356E-05-2.86665E-05 2.93085E-07 8.53649E-19 1.14463E-18
 -1       964 9.51064E-05-2.82610E-05-2.86480E-05 2.08456E-07 2.14873E-18 1.11800E-18
 -1       965 9.51645E-05-2.83581E-05-2.86313E-05 1.40679E-07 1.19360E-18 1.92311E-19
 -1       966 9.52010E-05-2.84257E-05-2.86180E-05 9.27108E-08 2.03280E-18-1.35775E-20
 -1       967 9.52247E-05-2.84749E-05-2.86071E-05 5.75932E-08-5.24959E-19 1.04632E-18
 -1       968 9.52394E-05-2.85103E-05-2.85982E-05 3.26195E-08-2.14102E-18 1.92754E-18
 -1       969 9.52480E-05-2.85353E-05-2.85912E-05 1.53880E-08-4.15986E-19 9.85862E-19
 -1       970 9.52524E-05-2.85531E-05-2.85854E-05 3.53885E-09-1.99760E-19 1.34666E-18
 -1       971 9.52539E-05-2.85643E-05-2.85813E-05-3.43691E-09-4.55939E-19 2.72533E-18
 -1       972 9.52537E-05-2.85714E-05-2.85781E-05-7.46885E-09-5.98223E-19 3.54615E-18
 -1       973 9.52525E-05-2.85757E-05-2.85758E-05-9.46170E-09 4.55599E-20 3.93771E-18
 -1       974 9.52507E-05-2.85779E-05-2.85740E-05-1.01019E-08 2.21208E-18 3.64150E-18
 -1       975 9.52487E-05-2.85788E-05-2.85728E-05-9.88911E-09 1.46057E-18 1.67529E-18
 -1       976 9.52466E-05-2.85788E-05-2.85719E-05-9.13285E-09 5.84780E-20 1.30715E-18
 -1       977 9.52447E-05-2.85784E-05-2.85713E-05-8.14987E-09 1.53529E-18 1.32568E-18
 -1       978 9.52467E-05-2.85798E-05-2.85715E-05-2.90397E-09 2.61760E-18-1.83550E-18
 -1       979 9.04715E-05-2.38134E-05-2.85677E-05 1.29404E-06 4.18242E-20-7.69685E-19
 -1       980 9.19043E-05-2.49664E-05-2.86878E-05 1.32343E-06 1.48865E-19-8.11426E-19
 -1       981 8.46700E-05-2.73275E-05-2.45507E-05-2.10872E-05 9.81817E-19 5.40392E-19
 -1       982 7.22435E-05-1.37832E-05-2.50388E-05-2.07504E-06-6.50641E-19-8.73714E-20
 -1       983 8.22544E-05-1.86665E-05-2.72515E-05-9.94072E-07-6.95190E-19-4.14505E-19
 -1       984 7.79947E-05-1.64063E-05-2.63904E-05-1.59132E-06-7.42761E-19-3.57365E-19
 -1       985 7.59270E-05-1.96053E-05-2.41063E-05-1.56853E-05 5.57977E-19 1.46269E-18
 -1       986 1.01096E-04-3.88761E-05-2.66357E-05-1.89123E-05 8.51564E-19 3.53203E-19
 -1       987 1.16537E-04-3.76706E-05-3.38140E-05-6.41526E-06 1.10132E-19-4.60081E-19
 -1       988 1.15829E-04-4.28658E-05-3.12674E-05 2.59260E-06 8.93778E-19-1.06014E-18
 -1       989 7.17967E-05-1.54222E-05-2.41283E-05-9.68462E-06 2.77813E-20 1.53694E-18
 -1       990 1.14229E-04-3.85682E-05-3.24222E-05 1.67128E-06 1.12270E-18-6.90776E-19
 -1       991 9.52472E-05-2.85801E-05-2.85716E-05 8.20745E-11 2.77409E-18 4.42589E-18
 -1       992 9.52455E-05-2.85791E-05-2.85713E-05-5.26803E-09 3.82225E-18-3.68015E-18
 -1       993 9.52431E-05-2.85777E-05-2.85708E-05-7.07463E-09 1.73003E-18-3.20658E-18
 -1       994 1.07080E-04-4.14194E-05-2.81490E-05-1.17669E-05 6.47352E-19-1.62979E-19
 -1       995 9.52452E-05-2.85789E-05-2.85713E-05 5.74944E-09-1.92120E-18-1.13690E-19
 -1       996 8.51863E-05-2.11121E-05-2.74565E-05-3.60718E-06-7.95848E-19 7.21096E-19
 -1       997 1.02809E-04-3.72134E-05-2.81236E-05-9.29839E-06 1.52410E-19-3.65110E-19
 -1       998 9.88883E-05-3.35557E-05-2.80096E-05-8.37362E-06-1.17114E-19-3.03390E-19
 -1       999 9.62045E-05-3.07319E-05-2.80626E-05-6.88235E-06-5.77467E-20-2.81267E-19
 -1      1000 9.47102E-05-2.89296E-05-2.81922E-05-5.38631E-06 9.77426E-19 3.39975E-19
 -1      1001 9.39518E-05-2.78564E-05-2.83267E-05-4.09686E-06 2.27900E-19 1.08455E-18
 -1      1002 9.36561E-05-2.72888E-05-2.84432E-05-3.04628E-06 3.08574E-19 9.44474E-19
 -1      1003 9.36433E-05-2.70654E-05-2.85334E-05-2.22822E-06 9.58924E-19-4.34115E-19
 -1      1004 9.37838E-05-2.70578E-05-2.85969E-05-1.61076E-06 4.57436E-19-7.42413E-19
 -1      1005 9.39941E-05-2.71737E-05-2.86374E-05-1.15403E-06 4.04901E-19-2.48623E-19
 -1      1006 9.42228E-05-2.73506E-05-2.86596E-05-8.20888E-07 1.80131E-18-1.64766E-18
 -1      1007 9.44405E-05-2.75479E-05-2.86683E-05-5.80134E-07 8.31294E-19-1.23044E-18
 -1      1008 9.46327E-05-2.77410E-05-2.86679E-05-4.06969E-07 2.42803E-19-6.47959E-19
 -1      1009 9.47937E-05-2.79166E-05-2.86617E-05-2.82997E-07 7.81095E-19-2.02256E-19
 -1      1010 9.49232E-05-2.80682E-05-2.86522E-05-1.94469E-07-4.72028E-19 1.29755E-19
 -1      1011 9.50239E-05-2.81944E-05-2.86413E-05-1.31495E-07 4.13850E-19 1.06973E-19
 -1      1012 9.50998E-05-2.82962E-05-2.86301E-05-8.68545E-08 7.31403E-19 1.20421E-19
 -1      1013 9.51553E-05-2.83762E-05-2.86196E-05-5.54645E-08 8.96166E-19 1.91356E-19
 -1      1014 9.51945E-05-2.84375E-05-2.86101E-05-3.36127E-08-3.41523E-19 1.64310E-19
 -1      1015 9.52211E-05-2.84834E-05-2.86019E-05-1.86272E-08 3.65383E-20-2.76076E-19
 -1      1016 9.52383E-05-2.85168E-05-2.85949E-05-8.58152E-09 7.96700E-20-2.78760E-19
 -1      1017 9.52486E-05-2.85406E-05-2.85892E-05-2.04400E-09 1.36350E-18 1.86460E-19
 -1      1018 9.52541E-05-2.85568E-05-2.85845E-05 2.00602E-09-8.82200E-19 3.16432E-19
 -1      1019 9.52562E-05-2.85676E-05-2.85809E-05 4.33056E-09-1.11538E-18 5.06121E-19
 -1      1020 9.52562E-05-2.85742E-05-2.85780E-05 5.48184E-09 3.01576E-20 1.40105E-18
 -1      1021 9.52549E-05-2.85780E-05-2.85758E-05 5.85849E-09 2.25976E-18 1.63564E-18
 -1      1022 9.52529E-05-2.85798E-05-2.85742E-05 5.74673E-09 1.45701E-18 2.52489E-18
 -1      1023 9.52506E-05-2.85803E-05-2.85730E-05 5.35735E-09 1.48396E-18 2.41801E-18
 -1      1024 9.52481E-05-2.85800E-05-2.85721E-05 4.80044E-09-4.26766E-19-6.58421E-19
 -1      1025 8.76181E-05-2.23297E-05-2.79800E-05-1.73399E-06-9.52746E-19-5.64769E-19
 -1      1026 9.36457E-05-2.66713E-05-2.87035E-05 5.03406E-07-1.28605E-19-1.46167E-18
 -1      1027 9.30211E-05-2.61024E-05-2.86797E-05 4.89684E-07 8.63372E-20-8.00595E-19
 -1      1028 9.44531E-05-2.74875E-05-2.86997E-05 3.88121E-07 1.13207E-18-1.85349E-19
 -1      1029 9.46979E-05-2.77632E-05-2.86864E-05 3.12985E-07 6.06611E-19-3.65025E-19
 -1      1030 9.48747E-05-2.79763E-05-2.86708E-05 2.42309E-07 1.82624E-19-8.24301E-19
 -1      1031 9.50011E-05-2.81396E-05-2.86550E-05 1.80785E-07 2.10607E-18-2.35734E-18
 -1      1032 9.50940E-05-2.82687E-05-2.86394E-05 1.27947E-07 1.98342E-18-2.68227E-18
 -1      1033 9.51546E-05-2.83603E-05-2.86262E-05 8.84602E-08 1.31513E-18-1.86732E-18
 -1      1034 9.51957E-05-2.84281E-05-2.86147E-05 5.82588E-08 5.68495E-19 3.62063E-19
 -1      1035 9.52227E-05-2.84777E-05-2.86050E-05 3.59457E-08-1.70493E-18 6.12348E-19
 -1      1036 9.52397E-05-2.85133E-05-2.85971E-05 1.99499E-08-1.28580E-18 5.71755E-20
 -1      1037 9.52500E-05-2.85392E-05-2.85903E-05 8.49318E-09 1.16154E-20 2.86462E-19
 -1      1038 9.52549E-05-2.85559E-05-2.85853E-05 1.39149E-09-4.10846E-19 9.51664E-19
 -1      1039 9.52566E-05-2.85669E-05-2.85813E-05-3.03257E-09-1.28240E-18 1.81687E-18
 -1      1040 9.52564E-05-2.85737E-05-2.85783E-05-5.53663E-09 7.27398E-19 3.39254E-19
 -1      1041 9.52549E-05-2.85776E-05-2.85760E-05-6.72158E-09 2.89729E-19-1.39429E-18
 -1      1042 9.52528E-05-2.85795E-05-2.85743E-05-7.03698E-09 1.82825E-18 4.37968E-19
 -1      1043 9.52504E-05-2.85801E-05-2.85730E-05-6.79089E-09 6.25465E-19 1.58113E-18
 -1      1044 9.52480E-05-2.85799E-05-2.85721E-05-6.24979E-09 2.39605E-18-1.93425E-18
 -1      1045 9.41171E-05-2.71338E-05-2.87073E-05 4.57840E-07-6.92931E-19-1.60825E-18
 -1      1046 9.21838E-05-2.53974E-05-2.86230E-05 3.67959E-07-1.17082E-18-2.26290E-19
 -1      1047 9.52467E-05-2.85797E-05-2.85715E-05 3.06042E-09 8.03782E-19 1.69804E-18
 -1      1048 8.95259E-05-2.34747E-05-2.83078E-05-6.03300E-07 1.39780E-19-1.72935E-18
 -1      1049 9.29521E-05-3.13144E-05-2.64289E-05-1.61137E-05 2.24013E-19 8.59500E-19
 -1      1050 9.10394E-05-2.45173E-05-2.85097E-05 4.61980E-08-4.95608E-19-8.92053E-19
 -1      1051 8.56651E-05-2.52534E-05-2.58755E-05-1.47974E-05 2.83462E-19 1.27145E-18
 -1      1052 9.52481E-05-2.85801E-05-2.85720E-05-4.63753E-09 3.39008E-18-3.45187E-18
 -1      1053 7.77489E-05-1.76195E-05-2.57518E-05-7.02006E-06-7.67063E-20 7.31916E-19
 -1      1054 8.04438E-05-2.05427E-05-2.56711E-05-1.13337E-05 4.09600E-19 7.71560E-19
 -1      1055 9.90730E-05-3.52410E-05-2.73550E-05-1.31843E-05-1.91593E-19 1.65039E-19
 -1      1056 8.20068E-05-1.95275E-05-2.67781E-05-5.22842E-06-4.98584E-19 1.24619E-19
 -1      1057 9.52493E-05-2.85807E-05-2.85722E-05-1.43939E-09 2.50379E-18 1.01929E-18
 -1      1058 8.82015E-05-2.35047E-05-2.77234E-05-4.73565E-06 4.43652E-19-2.19065E-19
 -1      1059 9.52492E-05-2.85805E-05-2.85723E-05 2.51984E-09-1.70534E-19 1.04535E-18
 -1      1060 9.41748E-05-2.97471E-05-2.75933E-05-9.35317E-06-2.54521E-19 1.84140E-19
 -1      1061 9.28431E-05-2.78508E-05-2.78523E-05-7.01046E-06 1.09504E-18-7.41816E-21
 -1      1062 9.23948E-05-2.68502E-05-2.80912E-05-5.05033E-06 1.37153E-18-7.97694E-20
 -1      1063 9.24038E-05-2.64002E-05-2.82867E-05-3.52424E-06 3.48946E-21 6.72895E-19
 -1      1064 9.26646E-05-2.63200E-05-2.84329E-05-2.41289E-06-6.74294E-19 2.02365E-19
 -1      1065 9.30323E-05-2.64498E-05-2.85350E-05-1.62493E-06 5.26789E-19-6.85278E-19
 -1      1066 9.34249E-05-2.66873E-05-2.86017E-05-1.07952E-06 8.21311E-19-1.09718E-18
 -1      1067 9.37960E-05-2.69663E-05-2.86412E-05-7.09138E-07 8.08493E-20-1.09204E-18
 -1      1068 9.41234E-05-2.72470E-05-2.86613E-05-4.60963E-07 7.01799E-19-2.22793E-18
 -1      1069 9.43994E-05-2.75076E-05-2.86679E-05-2.96909E-07 1.52204E-18-3.00033E-18
 -1      1070 9.46238E-05-2.77369E-05-2.86658E-05-1.89745E-07 8.01517E-19-2.72554E-18
 -1      1071 9.48010E-05-2.79311E-05-2.86585E-05-1.20094E-07 1.33827E-18-2.24839E-18
 -1      1072 9.49374E-05-2.80908E-05-2.86485E-05-7.50000E-08 4.06948E-19-5.14397E-20
 -1      1073 9.50397E-05-2.82188E-05-2.86375E-05-4.59797E-08 5.49394E-19 1.50232E-18
 -1      1074 9.51146E-05-2.83191E-05-2.86266E-05-2.74366E-08 4.06364E-19 1.37711E-18
 -1      1075 9.51679E-05-2.83961E-05-2.86165E-05-1.55829E-08 1.17483E-19 4.66427E-19
 -1      1076 9.52047E-05-2.84539E-05-2.86075E-05-8.07385E-09-4.01221E-20 1.39256E-18
 -1      1077 9.52290E-05-2.84964E-05-2.85997E-05-3.34407E-09-4.18256E-19 4.09927E-19
 -1      1078 9.52441E-05-2.85268E-05-2.85931E-05-4.58656E-10-1.42080E-19 6.57442E-19
 -1      1079 9.52528E-05-2.85480E-05-2.85878E-05 1.20984E-09-1.90524E-18-1.40395E-18
 -1      1080 9.52570E-05-2.85622E-05-2.85835E-05 2.11495E-09-7.36399E-19-2.33302E-18
 -1      1081 9.52581E-05-2.85713E-05-2.85801E-05 2.52610E-09-1.24827E-19-2.24819E-18
 -1      1082 9.52574E-05-2.85768E-05-2.85774E-05 2.62716E-09 2.09328E-18-1.25025E-18
 -1      1083 9.52556E-05-2.85796E-05-2.85754E-05 2.54292E-09 2.35651E-18-1.40203E-18
 -1      1084 9.52532E-05-2.85808E-05-2.85739E-05 2.33973E-09 2.28242E-18-7.85016E-19
 -1      1085 8.59248E-05-2.36369E-05-2.66896E-05-1.00175E-05-7.48880E-20 1.64244E-18
 -1      1086 9.47242E-05-2.78259E-05-2.86707E-05 1.29155E-07 9.63590E-19-2.05069E-18
 -1      1087 9.45009E-05-2.75809E-05-2.86800E-05 1.41593E-07 1.26771E-18-2.35688E-18
 -1      1088 9.50122E-05-2.81731E-05-2.86453E-05 8.39311E-08 2.84262E-18-2.50394E-18
 -1      1089 9.50976E-05-2.82877E-05-2.86328E-05 6.23455E-08 1.22752E-18-2.24378E-18
 -1      1090 9.51574E-05-2.83743E-05-2.86213E-05 4.40159E-08-5.73154E-19-1.29091E-18
 -1      1091 9.51983E-05-2.84388E-05-2.86112E-05 2.94040E-08-1.12412E-19-1.54337E-18
 -1      1092 9.52252E-05-2.84859E-05-2.86026E-05 1.82838E-08-7.91436E-19-2.29295E-18
 -1      1093 9.52427E-05-2.85210E-05-2.85950E-05 9.88871E-09 2.25623E-19-1.55338E-18
 -1      1094 9.52521E-05-2.85440E-05-2.85892E-05 4.34273E-09-1.38444E-18-3.94006E-19
 -1      1095 9.52568E-05-2.85596E-05-2.85845E-05 6.53510E-10-1.02664E-18 9.18030E-19
 -1      1096 9.52583E-05-2.85696E-05-2.85808E-05-1.64150E-09 2.39548E-19-2.44882E-19
 -1      1097 9.52577E-05-2.85757E-05-2.85780E-05-2.93801E-09 2.19197E-18 4.96542E-19
 -1      1098 9.52560E-05-2.85791E-05-2.85758E-05-3.54705E-09 8.91443E-19-8.17316E-19
 -1      1099 9.52535E-05-2.85806E-05-2.85741E-05-3.70437E-09 1.43873E-18-1.42975E-18
 -1      1100 9.42034E-05-2.72752E-05-2.86836E-05 1.32754E-07-7.33205E-19-2.03813E-18
 -1      1101 9.07207E-05-2.79671E-05-2.68911E-05-1.21800E-05-5.79773E-20 1.12433E-18
 -1      1102 9.26374E-05-2.59037E-05-2.86007E-05-3.04185E-07-1.14553E-18-2.33975E-18
 -1      1103 9.48894E-05-2.80194E-05-2.86586E-05 1.07721E-07 2.27698E-18-2.71467E-18
 -1      1104 9.17979E-05-2.52877E-05-2.85053E-05-7.76310E-07-9.75365E-19-2.00285E-18
 -1      1105 9.07661E-05-2.46297E-05-2.83453E-05-1.57813E-06 2.78913E-19-1.58185E-18
 -1      1106 9.38010E-05-2.68895E-05-2.86765E-05 7.93274E-08 1.53269E-19-1.84221E-18
 -1      1107 8.95695E-05-2.40081E-05-2.80988E-05-2.83388E-06 6.51880E-19-1.38644E-18
 -1      1108 9.32898E-05-2.64354E-05-2.86521E-05-4.92158E-08 3.90078E-19-1.66982E-18
 -1      1109 9.52508E-05-2.85808E-05-2.85729E-05-3.57921E-09 3.87026E-18-2.74499E-18
 -1      1110 8.68486E-05-2.34222E-05-2.71871E-05-7.46475E-06-5.51473E-19 1.17166E-18
 -1      1111 8.97097E-05-2.58129E-05-2.73875E-05-8.33385E-06 1.92407E-19 1.34935E-18
 -1      1112 1.22269E-04 2.69894E-10-4.37793E-05-4.34255E-05-5.24737E-19 2.90088E-18
 -1      1113 9.25172E-05 7.64754E-11-3.88696E-05-2.52789E-05-1.73642E-19-4.67245E-18
 -1      1114 8.77356E-05 4.83890E-11-3.72688E-05-1.83515E-05-6.72862E-20-6.58524E-18
 -1      1115 8.58937E-05 4.32785E-11-3.64646E-05-1.32341E-05-1.02703E-20-6.78604E-18
 -1      1116 8.46674E-05 4.26781E-11-3.58850E-05-8.32091E-06 2.10699E-20-6.33728E-18
 -1      1117 8.31766E-05 4.23607E-11-3.52178E-05-3.42143E-06 3.36696E-20-5.67658E-18
 -1      1118 8.09625E-05 3.96887E-11-3.42944E-05 1.33831E-06 4.88632E-20-4.98354E-18
 -1      1119 7.78904E-05 3.27403E-11-3.30771E-05 5.55826E-06 6.21510E-20-4.40988E-18
 -1      1120 7.42624E-05 2.08254E-11-3.16990E-05 8.60029E-06 7.43271E-20-3.89943E-18
 -1      1121 7.08279E-05 5.55311E-12-3.04532E-05 9.92716E-06 7.37977E-20-3.47210E-18
 -1      1122 6.87053E-05-8.66453E-12-2.97544E-05 9.38138E-06 8.40416E-20-3.02678E-18
 -1      1123 6.90449E-05-1.58023E-11-3.00141E-05 7.48679E-06 9.41795E-20-2.37941E-18
 -1      1124 7.26147E-05-1.11698E-11-3.14959E-05 5.38863E-06 1.06726E-19-1.35594E-18
 -1      1125 7.95381E-05 7.29514E-12-3.42263E-05 4.67504E-06 1.22820E-19 2.47549E-19
 -1      1126 8.92444E-05 3.96124E-11-3.79342E-05 7.07579E-06 1.30655E-19 2.82414E-18
 -1      1127 1.01247E-04 9.36106E-11-4.22363E-05 1.47824E-05 9.21148E-20 7.04549E-18
 -1      1128 1.23412E-04 2.15924E-10-4.70881E-05 3.21496E-05 5.37866E-20 1.41858E-17
 -1      1129 1.36466E-04-2.69892E-05-4.21634E-05-2.73832E-05-1.77676E-18 7.27940E-18
 -1      1130 1.01877E-04-3.01522E-05-3.29503E-05-7.16123E-07-6.31172E-19 3.15117E-18
 -1      1131 9.32431E-05-2.79148E-05-2.87698E-05 3.65010E-07-2.12632E-19-1.80278E-18
 -1      1132 8.93048E-05-2.68596E-05-2.68733E-05 1.62876E-07-1.64639E-19-4.81663E-18
 -1      1133 8.59823E-05-2.58515E-05-2.57402E-05 1.39962E-08-1.12686E-19-6.86421E-18
 -1      1134 8.26240E-05-2.48288E-05-2.47550E-05-7.79594E-08-1.92402E-21-7.83075E-18
 -1      1135 7.93194E-05-2.38389E-05-2.38262E-05-1.17319E-07 1.83601E-20-8.99684E-18
 -1      1136 7.65597E-05-2.30228E-05-2.30657E-05-1.01550E-07-4.35825E-20-9.83069E-18
 -1      1137 7.49611E-05-2.25541E-05-2.26354E-05-3.73791E-08-8.27842E-21-1.10605E-17
 -1      1138 7.49949E-05-2.25651E-05-2.26589E-05 5.42256E-08-1.12927E-20-1.20637E-17
 -1      1139 7.67767E-05-2.30872E-05-2.31658E-05 1.43172E-07-6.79909E-20-1.30657E-17
 -1      1140 8.00031E-05-2.40329E-05-2.40764E-05 2.02537E-07-7.61006E-22-1.30904E-17
 -1      1141 8.40618E-05-2.52254E-05-2.52279E-05 2.19496E-07-1.01670E-19-1.31895E-17
 -1      1142 8.82478E-05-2.64601E-05-2.64290E-05 1.97906E-07-3.63959E-23-1.30074E-17
 -1      1143 9.19726E-05-2.75642E-05-2.75142E-05 1.52467E-07-1.83134E-19-1.30481E-17
 -1      1144 9.48815E-05-2.84317E-05-2.83779E-05 9.99629E-08-1.69258E-19-1.36289E-17
 -1      1145 9.68648E-05-2.90280E-05-2.89812E-05 5.29477E-08-1.27435E-19-1.36127E-17
 -1      1146 9.79969E-05-2.93728E-05-2.93381E-05 1.76886E-08 5.78340E-20-1.23391E-17
 -1      1147 9.84525E-05-2.95162E-05-2.94942E-05-4.78910E-09 1.46349E-19-1.20088E-17
 -1      1148 9.84348E-05-2.95176E-05-2.95061E-05-1.65066E-08 7.58938E-21-1.20628E-17
 -1      1149 9.81292E-05-2.94316E-05-2.94276E-05-2.05697E-08-1.11156E-19-1.19918E-17
 -1      1150 9.76815E-05-2.93016E-05-2.93022E-05-1.99494E-08 5.97494E-20-1.19737E-17
 -1      1151 9.71939E-05-2.91582E-05-2.91612E-05-1.69508E-08 2.48101E-19-1.00336E-17
 -1      1152 9.67301E-05-2.90209E-05-2.90247E-05-1.31222E-08-2.00578E-19-1.12664E-17
 -1      1153 9.63242E-05-2.89000E-05-2.89038E-05-9.37282E-09 4.67622E-20-1.34248E-17
 -1      1154 9.59896E-05-2.88000E-05-2.88032E-05-6.15194E-09 3.33660E-19-1.11588E-17
 -1      1155 9.57268E-05-2.87210E-05-2.87236E-05-3.61522E-09 2.72568E-19-8.76179E-18
 -1      1156 9.55292E-05-2.86614E-05-2.86634E-05-1.75194E-09-1.50730E-19-9.88928E-18
 -1      1157 9.53868E-05-2.86183E-05-2.86197E-05-4.71058E-10-2.36285E-19-1.24275E-17
 -1      1158 9.52888E-05-2.85885E-05-2.85894E-05 3.45932E-10 1.38055E-19-1.19907E-17
 -1      1159 9.52251E-05-2.85690E-05-2.85695E-05 8.15939E-10-2.22157E-19-1.14290E-17
 -1      1160 9.51868E-05-2.85572E-05-2.85574E-05 1.04052E-09 1.32632E-19-1.05166E-17
 -1      1161 9.51668E-05-2.85508E-05-2.85509E-05 1.10121E-09 1.19843E-20-9.25181E-18
 -1      1162 9.51592E-05-2.85483E-05-2.85483E-05 1.05983E-09-3.69816E-20-8.18360E-18
 -1      1163 9.51596E-05-2.85483E-05-2.85482E-05 9.60982E-10 2.79332E-19-7.55724E-18
 -1      1164 9.51650E-05-2.85497E-05-2.85496E-05 8.35398E-10 8.28074E-20-8.59202E-18
 -1      1165 9.51729E-05-2.85520E-05-2.85519E-05 7.03176E-10 7.50671E-20-9.53500E-18
 -1      1166 9.51820E-05-2.85547E-05-2.85546E-05 5.76636E-10-1.70686E-19-9.80800E-18
 -1      1167 9.51911E-05-2.85574E-05-2.85573E-05 4.62629E-10 6.83221E-21-8.94520E-18
 -1      1168 9.51997E-05-2.85599E-05-2.85598E-05 3.64319E-10-6.31906E-20-9.51059E-18
 -1      1169 9.52075E-05-2.85622E-05-2.85622E-05 2.82490E-10-3.03273E-19-1.03870E-17
 -1      1170 9.52143E-05-2.85643E-05-2.85642E-05 2.16473E-10 1.97391E-20-9.60058E-18
 -1      1171 9.52201E-05-2.85660E-05-2.85659E-05 1.64742E-10 3.98695E-19-1.04461E-17
 -1      1172 9.52249E-05-2.85674E-05-2.85674E-05 1.25248E-10-1.58136E-20-8.57004E-18
 -1      1173 9.52289E-05-2.85686E-05-2.85686E-05 9.54153E-11 6.22285E-19-5.50384E-18
 -1      1174 9.52321E-05-2.85696E-05-2.85696E-05 7.18039E-11-7.29042E-20-1.38562E-18
 -1      1175 9.52346E-05-2.85703E-05-2.85703E-05 4.89613E-11-1.47972E-19-1.47829E-18
 -1      1176 9.52363E-05-2.85709E-05-2.85708E-05 1.65745E-11 3.92342E-19 1.37663E-18
 -1      1177 9.52372E-05-2.85711E-05-2.85711E-05-4.53319E-11-1.51331E-19 2.16320E-19
 -1      1178 9.52373E-05-2.85712E-05-2.85712E-05-5.15582E-11 2.47277E-19 1.32335E-18
 -1      1179 1.51155E-04-4.32335E-05-4.60041E-05 1.19037E-05-2.76556E-19 1.94720E-17
 -1      1180 1.28571E-04-3.78991E-05-4.11180E-05 4.50381E-07 4.27222E-20 1.81260E-17
 -1      1181 1.33207E-04-3.98354E-05-4.08798E-05-1.53695E-07 1.05667E-19 1.61429E-17
 -1      1182 1.43161E-04-4.28567E-05-4.31558E-05-5.37805E-07 2.81440E-20 1.52415E-17
 -1      1183 1.54807E-04-4.61922E-05-4.58822E-05-9.95632E-07 7.02706E-20 1.53757E-17
 -1      1184 1.61785E-04-4.82309E-05-4.68809E-05-1.06011E-06 2.17052E-20 1.62673E-17
 -1      1185 1.53521E-04-4.59874E-05-4.40070E-05 3.12263E-07-1.98417E-19 1.82855E-17
 -1      1186 1.24841E-04-3.78082E-05-3.74326E-05 2.73665E-06-2.11957E-19 2.10318E-17
 -1      1187 9.10901E-05-2.71658E-05-3.10704E-05 3.61898E-06-2.85106E-19 2.04148E-17
 -1      1188 7.86249E-05-2.25132E-05-2.90654E-05 1.35473E-06 6.88214E-20 1.66790E-17
 -1      1189 9.80118E-05-2.79860E-05-3.28825E-05-2.00968E-06-4.53957E-20 1.25679E-17
 -1      1190 1.32458E-04-3.92363E-05-3.97510E-05-3.30509E-06 7.50666E-20 9.04885E-18
 -1      1191 1.57177E-04-4.74013E-05-4.54200E-05-2.36110E-06 1.70148E-19 7.13625E-18
 -1      1192 1.63608E-04-4.95035E-05-4.75343E-05-8.30967E-07-7.84961E-20 7.05785E-18
 -1      1193 1.55791E-04-4.69609E-05-4.60703E-05 1.87397E-07 1.34506E-19 6.76139E-18
 -1      1194 1.42698E-04-4.28544E-05-4.27664E-05 5.27566E-07 1.63489E-19 6.31103E-18
 -1      1195 1.29739E-04-3.88987E-05-3.91242E-05 5.25952E-07 1.78562E-19 3.90419E-18
 -1      1196 1.19352E-04-3.57709E-05-3.60408E-05 3.99874E-07-1.02484E-19 4.48372E-18
 -1      1197 1.11912E-04-3.35493E-05-3.37621E-05 2.80864E-07-2.71750E-19 6.29658E-18
 -1      1198 1.06636E-04-3.19778E-05-3.21256E-05 1.88554E-07-1.79139E-19 5.69233E-18
 -1      1199 1.02969E-04-3.08854E-05-3.09826E-05 1.23977E-07 2.46121E-19 2.01934E-18
 -1      1200 1.00394E-04-3.01158E-05-3.01789E-05 8.30453E-08 4.25682E-19 2.89699E-19
 -1      1201 9.86368E-05-2.95920E-05-2.96315E-05 5.11517E-08 5.90789E-20 1.84204E-18
 -1      1202 9.74707E-05-2.92429E-05-2.92685E-05 3.32771E-08-3.80940E-19 5.28438E-18
 -1      1203 9.66730E-05-2.90037E-05-2.90204E-05 2.16216E-08 3.77567E-20 9.28049E-18
 -1      1204 9.61296E-05-2.88406E-05-2.88516E-05 1.40036E-08-2.36374E-19 9.46866E-18
 -1      1205 9.57625E-05-2.87303E-05-2.87375E-05 9.02708E-09 6.33116E-20 9.00913E-18
 -1      1206 9.55131E-05-2.86549E-05-2.86599E-05 6.01066E-09 6.70585E-20 6.72621E-18
 -1      1207 9.53515E-05-2.86064E-05-2.86095E-05 3.35546E-09-6.24582E-19 8.03955E-18
 -1      1208 9.52529E-05-2.85766E-05-2.85787E-05 1.93355E-09 2.97907E-19 4.65036E-18
 -1      1209 9.51939E-05-2.85588E-05-2.85601E-05 9.95798E-10-4.17537E-19 3.39969E-18
 -1      1210 9.51618E-05-2.85490E-05-2.85498E-05 3.91183E-10 8.67468E-20 9.63667E-19
 -1      1211 9.51475E-05-2.85446E-05-2.85451E-05 2.11334E-11-3.83919E-19 2.31544E-18
 -1      1212 9.51448E-05-2.85437E-05-2.85439E-05-1.72771E-10-2.26365E-19 5.30861E-18
 -1      1213 9.51493E-05-2.85450E-05-2.85450E-05-3.39869E-10 2.97212E-19 6.37840E-18
 -1      1214 9.51576E-05-2.85474E-05-2.85474E-05-3.88875E-10 2.72186E-20 8.19138E-18
 -1      1215 9.51676E-05-2.85504E-05-2.85503E-05-3.94669E-10-5.47082E-19 8.86846E-18
 -1      1216 9.51782E-05-2.85535E-05-2.85534E-05-3.72062E-10 7.10389E-19 3.17551E-18
 -1      1217 9.51886E-05-2.85566E-05-2.85565E-05-3.37147E-10 2.51547E-20 2.73566E-19
 -1      1218 9.51981E-05-2.85595E-05-2.85593E-05-2.94231E-10-4.35854E-20 3.85556E-18
 -1      1219 9.52063E-05-2.85619E-05-2.85618E-05-2.51349E-10 3.10665E-19 6.26013E-18
 -1      1220 9.52134E-05-2.85640E-05-2.85639E-05-2.10865E-10-2.56964E-19 8.38348E-18
 -1      1221 9.52195E-05-2.85658E-05-2.85658E-05-1.74989E-10 4.87068E-19 6.27540E-18
 -1      1222 9.52245E-05-2.85673E-05-2.85673E-05-1.44876E-10 5.14405E-19 3.36277E-18
 -1      1223 9.52286E-05-2.85686E-05-2.85685E-05-1.23870E-10-8.48395E-19 9.63975E-18
 -1      1224 9.52320E-05-2.85696E-05-2.85695E-05-1.03141E-10 5.52516E-19 9.77745E-18
 -1      1225 9.52345E-05-2.85703E-05-2.85703E-05-9.04232E-11-8.05948E-20 8.57064E-18
 -1      1226 9.52362E-05-2.85709E-05-2.85708E-05-7.36561E-11 2.27310E-20 8.70767E-18
 -1      1227 9.52372E-05-2.85711E-05-2.85711E-05-2.87423E-11 6.43414E-19 4.68022E-18
 -1      1228 9.52373E-05-2.85712E-05-2.85712E-05 4.38422E-11 6.46482E-20 4.96781E-18
 -1      1229 9.52371E-05-2.85710E-05-2.85712E-05 4.95218E-11 5.51713E-18 5.73199E-19
 -1      1230 9.52372E-05-2.85711E-05-2.85711E-05 3.88897E-11 6.50570E-18-4.24671E-19
 -1      1231 9.52374E-05-2.85720E-05-2.85708E-05-3.86091E-11 4.12597E-18-5.31299E-19
 -1      1232 9.52379E-05-2.85736E-05-2.85704E-05-7.39286E-11 4.28056E-18 1.34201E-18
 -1      1233 9.52384E-05-2.85754E-05-2.85699E-05-8.31759E-11 2.61445E-18-1.13408E-18
 -1      1234 9.52390E-05-2.85772E-05-2.85693E-05-7.47884E-11-1.20264E-17-1.12483E-18
 -1      1235 9.52394E-05-2.85787E-05-2.85689E-05-5.64801E-11-1.41798E-17 6.07783E-19
 -1      1236 9.52397E-05-2.85797E-05-2.85686E-05-2.98349E-11-8.55060E-18 4.11535E-19
 -1      1237 9.52398E-05-2.85801E-05-2.85685E-05 2.31776E-13-8.44187E-18-3.24875E-20
 -1      1238 9.52397E-05-2.85797E-05-2.85686E-05 3.02659E-11-3.31162E-18 2.01675E-19
 -1      1239 9.52394E-05-2.85787E-05-2.85689E-05 5.67033E-11-6.18387E-19-5.47889E-19
 -1      1240 9.52389E-05-2.85772E-05-2.85694E-05 7.58333E-11-7.34249E-18 8.62301E-19
 -1      1241 9.52384E-05-2.85754E-05-2.85699E-05 8.28832E-11-4.88550E-18 6.55717E-19
 -1      1242 9.52379E-05-2.85735E-05-2.85704E-05 7.46636E-11-2.97701E-18-2.87164E-19
 -1      1243 9.52374E-05-2.85720E-05-2.85708E-05 4.67066E-11-1.79988E-18-1.16972E-19
 -1      1244 9.52372E-05-2.85712E-05-2.85711E-05-7.28714E-11-1.93218E-18-9.36770E-19
 -1      1245 9.52371E-05-2.85710E-05-2.85712E-05-5.17431E-11-1.61442E-18 4.30927E-19
 -1      1246 3.63343E-05-1.19106E-04 2.09984E-05-1.69544E-05 1.54209E-17 2.54772E-18
 -1      1247 2.02533E-05-8.28666E-05 1.36019E-05-3.32351E-05 2.10522E-17 7.96973E-18
 -1      1248 7.06805E-06-2.51889E-05-2.06563E-06-1.51042E-05 2.21042E-17 1.37101E-17
 -1      1249 2.78812E-05 1.50719E-05-2.27327E-05 3.72668E-05 1.86347E-17 1.72846E-17
 -1      1250 1.01939E-04 1.20232E-05-4.57450E-05 9.46184E-05 1.17992E-17 1.58006E-17
 -1      1251 2.19816E-04-3.40091E-05-6.79723E-05 1.16366E-04 4.51214E-18 8.12813E-18
 -1      1252 3.32564E-04-9.27416E-05-8.35814E-05 7.68191E-05-5.16690E-20-4.47488E-18
 -1      1253 3.66575E-04-1.11092E-04-8.79900E-05-1.41602E-05 1.18495E-18-1.68142E-17
 -1      1254 3.02364E-04-7.50105E-05-7.97758E-05-9.50859E-05 6.78918E-18-2.43708E-17
 -1      1255 1.76299E-04-1.49570E-05-6.03780E-05-1.13772E-04 1.31282E-17-2.52077E-17
 -1      1256 6.43792E-05 1.73951E-05-3.54100E-05-6.92801E-05 1.63596E-17-2.00611E-17
 -1      1257 1.18071E-05-1.07719E-06-1.20125E-05-7.39591E-06 1.44267E-17-1.19050E-17
 -1      1258 1.07451E-05-5.25009E-05 6.05705E-06 3.03050E-05 8.25179E-18-4.49605E-18
 -1      1259 2.84434E-05-1.00154E-04 1.70444E-05 3.02072E-05-2.88415E-19-7.02084E-19
 -1      1260 3.84403E-05-1.17136E-04 2.00146E-05 5.12508E-06-9.83278E-18-4.29657E-19
 -1      1261 2.71298E-05-8.83802E-05 1.45336E-05-1.83271E-05-1.81231E-17-4.07846E-18
 -1      1262 1.02230E-05-3.35916E-05 1.65846E-06-1.38556E-05-2.16214E-17-9.42578E-18
 -1      1263 1.27606E-05 1.58789E-05-1.60124E-05 2.51563E-05-2.04830E-17-1.43691E-17
 -1      1264 5.62103E-05 3.13621E-05-3.60913E-05 7.93730E-05-1.55439E-17-1.61987E-17
 -1      1265 1.44232E-04 2.74711E-06-5.60756E-05 1.16727E-04-8.03157E-18-1.28021E-17
 -1      1266 2.46447E-04-5.12856E-05-7.19858E-05 1.04527E-04-2.22579E-18-4.77303E-18
 -1      1267 3.12193E-04-9.10559E-05-8.05521E-05 4.12803E-05 2.23670E-20 4.52697E-18
 -1      1268 3.12977E-04-9.15796E-05-8.05646E-05-4.46682E-05-1.93904E-18 1.32548E-17
 -1      1269 2.38970E-04-4.61172E-05-7.10982E-05-1.08060E-04-6.56069E-18 1.80460E-17
 -1      1270 1.32969E-04 8.58074E-06-5.38054E-05-1.15538E-04-1.03050E-17 1.67137E-17
 -1      1271 4.75192E-05 3.17705E-05-3.29291E-05-7.20384E-05-1.31443E-17 1.34797E-17
 -1      1272 9.77709E-06 5.73264E-06-1.14853E-05-1.38718E-05-1.07912E-17 7.63346E-18
 -1      1273 1.50249E-05-5.41936E-05 6.98873E-06 2.01814E-05-4.74508E-18 2.66180E-18
 -1      1274 3.51399E-05-1.09624E-04 1.86629E-05 1.32595E-05 6.65344E-18 1.45478E-19
 -1      1275 1.09182E-04-2.30289E-05-3.96153E-05-1.81329E-05-6.86520E-19 3.94929E-19
 -1      1276 9.43049E-05-7.11471E-06-3.75392E-05-2.15285E-05-1.00707E-18-5.68994E-18
 -1      1277 9.67096E-05-7.14980E-06-3.88305E-05-2.71411E-05-1.61699E-18-4.63729E-18
 -1      1278 9.00346E-05-4.80149E-06-3.65629E-05-1.68957E-05-5.69418E-19-6.76583E-18
 -1      1279 9.12160E-05-4.76286E-06-3.70727E-05-1.97115E-05-8.20087E-19-6.47329E-18
 -1      1280 9.65288E-05-1.15535E-05-3.65215E-05-2.01521E-05-1.60674E-18-4.88976E-18
 -1      1281 8.84335E-05-4.33685E-06-3.59916E-05-1.21321E-05-4.46280E-20-6.65588E-18
 -1      1282 8.90426E-05-4.27687E-06-3.62895E-05-1.45911E-05-2.30843E-19-6.80056E-18
 -1      1283 9.27025E-05-9.14313E-06-3.59043E-05-1.58590E-05-7.75644E-19-5.65463E-18
 -1      1284 8.72762E-05-4.29057E-06-3.54746E-05-7.32847E-06 3.50513E-19-6.17378E-18
 -1      1285 8.78580E-05-4.24662E-06-3.57596E-05-9.75678E-06 2.46328E-19-6.49886E-18
 -1      1286 9.10858E-05-8.51316E-06-3.54592E-05-1.11668E-05 8.63312E-20-5.54849E-18
 -1      1287 8.56794E-05-4.26056E-06-3.47935E-05-2.52915E-06 6.68600E-19-5.46948E-18
 -1      1288 8.65638E-05-4.24523E-06-3.51748E-05-4.90429E-06 5.61689E-19-5.84548E-18
 -1      1289 8.97908E-05-8.36668E-06-3.49565E-05-6.42669E-06 6.49453E-19-5.04427E-18
 -1      1290 8.30581E-05-3.98425E-06-3.38117E-05 2.19560E-06 9.47512E-19-4.82758E-18
 -1      1291 8.44589E-05-4.00273E-06-3.43519E-05-7.33973E-08 8.76970E-19-5.19189E-18
 -1      1292 8.78145E-05-8.07117E-06-3.42338E-05-1.61233E-06 1.22791E-18-4.48319E-18
 -1      1293 7.92690E-05-3.26782E-06-3.25527E-05 6.29522E-06 1.18955E-18-4.26820E-18
 -1      1294 8.11733E-05-3.32624E-06-3.32244E-05 4.42118E-06 1.14413E-18-4.56735E-18
 -1      1295 8.45446E-05-7.18817E-06-3.32165E-05 3.04662E-06 1.67681E-18-3.85313E-18
 -1      1296 7.46596E-05-2.04201E-06-3.11861E-05 9.15119E-06 1.37876E-18-3.81130E-18
 -1      1297 7.68122E-05-2.13650E-06-3.18836E-05 7.96262E-06 1.32693E-18-4.08961E-18
 -1      1298 7.98691E-05-5.45055E-06-3.19667E-05 7.00906E-06 2.06372E-18-3.41664E-18
 -1      1299 7.02262E-05-4.75064E-07-3.00406E-05 1.02311E-05 1.52508E-18-3.40779E-18
 -1      1300 7.20811E-05-5.85181E-07-3.05784E-05 9.92875E-06 1.48273E-18-3.66820E-18
 -1      1301 7.43431E-05-2.91728E-06-3.06904E-05 9.63004E-06 2.35664E-18-3.04318E-18
 -1      1302 6.75160E-05 9.74843E-07-2.95456E-05 9.43981E-06 1.62817E-18-2.94584E-18
 -1      1303 6.83336E-05 8.86164E-07-2.96965E-05 9.97054E-06 1.58162E-18-3.24048E-18
 -1      1304 6.93314E-05-1.39117E-07-2.97325E-05 1.03999E-05 2.57105E-18-2.70057E-18
 -1      1305 6.80875E-05 1.68894E-06-3.00756E-05 7.44936E-06 1.70095E-18-2.25795E-18
 -1      1306 6.72432E-05 1.65655E-06-2.96647E-05 8.38258E-06 1.63814E-18-2.70093E-18
 -1      1307 6.67679E-05 1.88313E-06-2.94972E-05 9.36139E-06 2.69452E-18-2.24879E-18
 -1      1308 7.29463E-05 1.19180E-06-3.18569E-05 5.49729E-06 1.80047E-18-1.14770E-18
 -1      1309 7.00846E-05 1.23931E-06-3.07879E-05 6.18612E-06 1.69343E-18-1.82101E-18
 -1      1310 6.84147E-05 2.13409E-06-3.03090E-05 7.29936E-06 2.76821E-18-1.51649E-18
 -1      1311 8.20627E-05-7.11206E-07-3.48109E-05 5.26148E-06 1.82557E-18 5.60087E-19
 -1      1312 7.73718E-05-5.84135E-07-3.31599E-05 4.88079E-06 1.74108E-18-4.72115E-19
 -1      1313 7.52325E-05-4.15436E-08-3.23030E-05 5.63646E-06 2.85447E-18-3.67123E-19
 -1      1314 9.45542E-05-4.00658E-06-3.85824E-05 8.33041E-06 1.71058E-18 3.30195E-18
 -1      1315 8.85213E-05-3.78193E-06-3.65421E-05 6.06000E-06 1.62673E-18 1.69375E-18
 -1      1316 8.69619E-05-4.75771E-06-3.52982E-05 5.96314E-06 2.71289E-18 1.46709E-18
 -1      1317 1.10203E-04-9.80931E-06-4.26879E-05 1.65236E-05 1.10834E-18 7.76433E-18
 -1      1318 1.02924E-04-8.92372E-06-4.04456E-05 1.09085E-05 1.17145E-18 5.14827E-18
 -1      1319 1.02867E-04-1.22866E-05-3.88033E-05 9.26131E-06 2.23966E-18 4.40499E-18
 -1      1320 1.44547E-04-3.02182E-05-4.57875E-05 2.45636E-05 2.58769E-19 1.44633E-17
 -1      1321 1.20015E-04-1.94428E-05-4.37040E-05 1.72620E-05 3.73330E-19 1.00379E-17
 -1      1322 1.21827E-04-2.49497E-05-4.14098E-05 1.24442E-05 1.61022E-18 8.32824E-18
 -1      1323 1.28153E-04-3.57883E-05-4.23008E-05 2.50157E-06 6.57880E-19 1.45148E-17
 -1      1324 1.09768E-04-3.16336E-05-3.49807E-05-8.64064E-06-1.57601E-18 1.39697E-18
 -1      1325 1.02270E-04-2.90545E-05-3.19893E-05-5.56520E-06-1.33937E-18-5.90805E-19
 -1      1326 9.90273E-05-2.89947E-05-3.02801E-05-3.29215E-06-1.10644E-18-1.13127E-18
 -1      1327 9.59760E-05-2.84780E-05-2.89789E-05-2.92575E-06-9.69138E-19-2.80667E-18
 -1      1328 1.03372E-04-2.93397E-05-3.21010E-05-9.27751E-06-2.37550E-18-1.96771E-18
 -1      1329 9.35189E-05-2.79089E-05-2.80972E-05-2.06672E-06-7.50312E-19-3.21436E-18
 -1      1330 9.15797E-05-2.74366E-05-2.74352E-05-2.05783E-06-6.08977E-19-4.25989E-18
 -1      1331 9.73856E-05-2.87706E-05-2.95045E-05-5.19019E-06-1.66852E-18-2.72101E-18
 -1      1332 8.97845E-05-2.69416E-05-2.68724E-05-1.84563E-06-5.49345E-19-4.60333E-18
 -1      1333 8.80840E-05-2.64433E-05-2.63709E-05-1.86962E-06-4.87874E-19-5.43822E-18
 -1      1334 9.34273E-05-2.79748E-05-2.80539E-05-3.95700E-06-1.14177E-18-3.29181E-18
 -1      1335 8.65537E-05-2.59793E-05-2.59190E-05-1.80906E-06-3.45364E-19-5.56936E-18
 -1      1336 8.48932E-05-2.54501E-05-2.54493E-05-1.81364E-06-2.96996E-19-5.95824E-18
 -1      1337 9.01901E-05-2.70697E-05-2.70457E-05-3.64997E-06-7.80997E-19-3.82314E-18
 -1      1338 8.35504E-05-2.50199E-05-2.50637E-05-1.65444E-06-2.77327E-19-6.38362E-18
 -1      1339 8.20530E-05-2.45223E-05-2.46454E-05-1.60394E-06-1.39138E-19-6.81332E-18
 -1      1340 8.73393E-05-2.61390E-05-2.62362E-05-3.39298E-06-6.57847E-19-4.25106E-18
 -1      1341 8.09932E-05-2.41684E-05-2.43482E-05-1.23018E-06-1.86711E-19-6.93969E-18
 -1      1342 7.99200E-05-2.38016E-05-2.40513E-05-1.11196E-06-4.67575E-19-7.36896E-18
 -1      1343 8.49276E-05-2.52799E-05-2.55907E-05-2.75283E-06-5.07591E-19-4.78949E-18
 -1      1344 7.93072E-05-2.35883E-05-2.38847E-05-5.21078E-07-4.42661E-19-7.44744E-18
 -1      1345 7.89189E-05-2.34497E-05-2.37799E-05-3.50698E-07-3.55899E-19-7.99055E-18
 -1      1346 8.32324E-05-2.46393E-05-2.51574E-05-1.58326E-06-7.93293E-19-4.96190E-18
 -1      1347 7.88851E-05-2.34293E-05-2.37770E-05 3.56992E-07-4.15582E-19-8.07366E-18
 -1      1348 7.93224E-05-2.35725E-05-2.39019E-05 5.40336E-07-3.84331E-19-8.61550E-18
 -1      1349 8.25635E-05-2.43672E-05-2.49971E-05-2.58097E-09-7.32518E-19-5.32667E-18
 -1      1350 7.98910E-05-2.37558E-05-2.40678E-05 1.20493E-06-4.03833E-19-8.87516E-18
 -1      1351 8.11067E-05-2.41647E-05-2.44094E-05 1.35493E-06-9.70845E-20-9.22734E-18
 -1      1352 8.30844E-05-2.45456E-05-2.51400E-05 1.66886E-06-6.62817E-19-5.66970E-18
 -1      1353 8.21679E-05-2.45113E-05-2.47156E-05 1.82589E-06 6.33256E-20-9.62727E-18
 -1      1354 8.39379E-05-2.51050E-05-2.52135E-05 1.90923E-06-1.55669E-19-9.65260E-18
 -1      1355 8.47071E-05-2.51424E-05-2.55633E-05 3.04813E-06-3.10649E-19-6.16816E-18
 -1      1356 8.52835E-05-2.55389E-05-2.56053E-05 2.10510E-06-1.60203E-19-9.52596E-18
 -1      1357 8.72867E-05-2.62032E-05-2.61720E-05 2.11335E-06-8.19314E-20-9.70983E-18
 -1      1358 8.71045E-05-2.60194E-05-2.61924E-05 3.85112E-06-1.73718E-19-6.70488E-18
 -1      1359 8.86814E-05-2.66417E-05-2.65852E-05 2.04178E-06 7.05362E-20-9.61974E-18
 -1      1360 9.06033E-05-2.72684E-05-2.71334E-05 1.98941E-06 8.45999E-20-9.36792E-18
 -1      1361 8.98233E-05-2.69893E-05-2.69210E-05 3.99120E-06 4.36809E-20-6.80156E-18
 -1      1362 9.18516E-05-2.76478E-05-2.75115E-05 1.72496E-06-1.16942E-19-9.38033E-18
 -1      1363 9.34637E-05-2.81622E-05-2.79759E-05 1.63818E-06-3.78455E-19-9.64150E-18
 -1      1364 9.24285E-05-2.78822E-05-2.76406E-05 3.57377E-06-1.44237E-19-6.54123E-18
 -1      1365 9.44467E-05-2.84485E-05-2.82814E-05 1.28019E-06-1.71099E-19-9.51115E-18
 -1      1366 9.56365E-05-2.88180E-05-2.86281E-05 1.18490E-06 5.71847E-20-9.55153E-18
 -1      1367 9.46089E-05-2.85900E-05-2.82658E-05 2.81408E-06-1.71620E-19-6.35214E-18
 -1      1368 9.63142E-05-2.90048E-05-2.88452E-05 8.20938E-07 3.59195E-20-9.41976E-18
 -1      1369 9.70731E-05-2.92317E-05-2.90695E-05 7.35534E-07 1.45236E-19-9.32531E-18
 -1      1370 9.62138E-05-2.90742E-05-2.87469E-05 1.93983E-06 6.93541E-20-5.93125E-18
 -1      1371 9.74654E-05-2.93306E-05-2.92008E-05 4.22998E-07 3.06811E-19-9.15015E-18
 -1      1372 9.78536E-05-2.94388E-05-2.93181E-05 3.56729E-07 4.58200E-19-8.29945E-18
 -1      1373 9.72316E-05-2.93489E-05-2.90701E-05 1.12522E-06 4.37737E-19-5.44545E-18
 -1      1374 9.80142E-05-2.94701E-05-2.93775E-05 1.21331E-07 1.47552E-19-8.45267E-18
 -1      1375 9.81227E-05-2.94916E-05-2.94129E-05 7.61126E-08 2.69112E-19-8.31676E-18
 -1      1376 9.77417E-05-2.94567E-05-2.92487E-05 4.68502E-07 3.50435E-19-5.47536E-18
 -1      1377 9.81167E-05-2.94767E-05-2.94191E-05-8.01746E-08 6.29981E-20-8.52438E-18
 -1      1378 9.80395E-05-2.94428E-05-2.93994E-05-1.06826E-07-1.98434E-19-8.71077E-18
 -1      1379 9.78654E-05-2.94479E-05-2.93114E-05 1.11964E-09-6.50925E-20-5.84729E-18
 -1      1380 9.79280E-05-2.94005E-05-2.93709E-05-1.95575E-07 3.13783E-20-8.81190E-18
 -1      1381 9.77454E-05-2.93368E-05-2.93193E-05-2.07986E-07-2.57865E-20-8.58852E-18
 -1      1382 9.77284E-05-2.93679E-05-2.92919E-05-2.89807E-07-1.39082E-19-5.99373E-18
 -1      1383 9.75785E-05-2.92815E-05-2.92718E-05-2.45940E-07 5.92212E-20-8.19560E-18
 -1      1384 9.73507E-05-2.92065E-05-2.92060E-05-2.48610E-07 3.93944E-19-8.05423E-18
 -1      1385 9.74399E-05-2.92525E-05-2.92212E-05-4.39018E-07 1.34787E-19-5.67676E-18
 -1      1386 9.71648E-05-2.91482E-05-2.91511E-05-2.52367E-07 5.06575E-19-8.12207E-18
 -1      1387 9.69324E-05-2.90740E-05-2.90833E-05-2.49121E-07 4.50852E-19-7.51480E-18
 -1      1388 9.70837E-05-2.91265E-05-2.91249E-05-4.86817E-07 6.23359E-19-5.21104E-18
 -1      1389 9.67513E-05-2.90191E-05-2.90287E-05-2.32514E-07-3.60720E-19-7.49235E-18
 -1      1390 9.65382E-05-2.89524E-05-2.89662E-05-2.26225E-07-6.90263E-19-8.62615E-18
 -1      1391 9.67176E-05-2.90054E-05-2.90212E-05-4.69737E-07-2.39274E-19-5.37752E-18
 -1      1392 9.63759E-05-2.89041E-05-2.89167E-05-1.99524E-07 1.05290E-20-8.07782E-18
 -1      1393 9.61939E-05-2.88481E-05-2.88630E-05-1.92144E-07 5.66557E-19-7.47230E-18
 -1      1394 9.63773E-05-2.88980E-05-2.89220E-05-4.16605E-07-3.66361E-19-4.30202E-18
 -1      1395 9.60565E-05-2.88078E-05-2.88208E-05-1.62279E-07 3.82516E-19-7.68696E-18
 -1      1396 9.59093E-05-2.87631E-05-2.87771E-05-1.55011E-07 4.99671E-19-7.06921E-18
 -1      1397 9.60815E-05-2.88077E-05-2.88340E-05-3.47931E-07 4.35729E-19-4.00645E-18
 -1      1398 9.57982E-05-2.87310E-05-2.87429E-05-1.26204E-07 7.81094E-19-6.86743E-18
 -1      1399 9.56844E-05-2.86968E-05-2.87090E-05-1.19699E-07 3.58973E-19-6.36939E-18
 -1      1400 9.58371E-05-2.87352E-05-2.87602E-05-2.76981E-07 6.05364E-19-3.87995E-18
 -1      1401 9.55982E-05-2.86721E-05-2.86823E-05-9.42004E-08-3.09571E-19-6.52193E-18
 -1      1402 9.55139E-05-2.86472E-05-2.86571E-05-8.87381E-08-7.48359E-19-7.57463E-18
 -1      1403 9.56434E-05-2.86791E-05-2.87010E-05-2.11436E-07-3.59227E-19-4.83447E-18
 -1      1404 9.54494E-05-2.86288E-05-2.86370E-05-6.74671E-08-5.12476E-19-7.92057E-18
 -1      1405 9.53895E-05-2.86113E-05-2.86191E-05-6.30979E-08-2.16607E-19-8.52556E-18
 -1      1406 9.54955E-05-2.86371E-05-2.86552E-05-1.55040E-07-9.59430E-19-5.26444E-18
 -1      1407 9.53430E-05-2.85982E-05-2.86046E-05-4.61527E-08-1.07833E-19-8.30196E-18
 -1      1408 9.53026E-05-2.85866E-05-2.85924E-05-4.27973E-08-3.95755E-20-8.41988E-18
 -1      1409 9.53868E-05-2.86070E-05-2.86212E-05-1.08975E-07-1.50270E-19-5.31352E-18
 -1      1410 9.52705E-05-2.85776E-05-2.85824E-05-2.98200E-08-8.33126E-21-7.89042E-18
 -1      1411 9.52448E-05-2.85704E-05-2.85745E-05-2.73382E-08 3.85133E-19-7.54524E-18
 -1      1412 9.53098E-05-2.85861E-05-2.85969E-05-7.29076E-08 2.27422E-19-5.73966E-18
 -1      1413 9.52237E-05-2.85645E-05-2.85680E-05-1.77591E-08 3.88140E-19-7.01450E-18
 -1      1414 9.52088E-05-2.85605E-05-2.85634E-05-1.59918E-08 4.77963E-19-6.54511E-18
 -1      1415 9.52577E-05-2.85723E-05-2.85802E-05-4.57116E-08 3.82486E-19-4.76771E-18
 -1      1416 9.51959E-05-2.85570E-05-2.85594E-05-9.18224E-09 2.70407E-19-6.27614E-18
 -1      1417 9.51887E-05-2.85552E-05-2.85570E-05-7.97561E-09 1.59107E-19-6.33381E-18
 -1      1418 9.52244E-05-2.85638E-05-2.85693E-05-2.59410E-08 4.63565E-19-4.64805E-18
 -1      1419 9.51817E-05-2.85533E-05-2.85549E-05-3.33497E-09-9.78074E-21-5.92214E-18
 -1      1420 9.51795E-05-2.85530E-05-2.85541E-05-2.55295E-09 1.90767E-19-6.16964E-18
 -1      1421 9.52049E-05-2.85591E-05-2.85628E-05-1.21158E-08 4.59516E-19-4.26342E-18
 -1      1422 9.51766E-05-2.85522E-05-2.85532E-05 4.47619E-10 1.96452E-20-5.36110E-18
 -1      1423 9.51778E-05-2.85528E-05-2.85534E-05 9.18816E-10 2.62644E-19-5.20131E-18
 -1      1424 9.51951E-05-2.85571E-05-2.85594E-05-2.87760E-09 4.66912E-19-3.46654E-18
 -1      1425 9.51775E-05-2.85528E-05-2.85533E-05 2.72016E-09-2.89586E-19-5.87916E-18
 -1      1426 9.51805E-05-2.85539E-05-2.85542E-05 2.97168E-09-1.00882E-19-6.78349E-18
 -1      1427 9.51918E-05-2.85567E-05-2.85581E-05 2.93973E-09 3.16946E-20-4.01223E-18
 -1      1428 9.51819E-05-2.85544E-05-2.85546E-05 3.92639E-09 2.02520E-19-6.60686E-18
 -1      1429 9.51859E-05-2.85557E-05-2.85557E-05 4.02873E-09-2.61311E-19-6.78954E-18
 -1      1430 9.51928E-05-2.85574E-05-2.85581E-05 6.29034E-09-3.34427E-19-3.96405E-18
 -1      1431 9.51882E-05-2.85564E-05-2.85565E-05 4.40923E-09 3.32522E-19-7.14987E-18
 -1      1432 9.51926E-05-2.85578E-05-2.85577E-05 4.41521E-09 4.54087E-20-6.65872E-18
 -1      1433 9.51963E-05-2.85588E-05-2.85590E-05 7.92609E-09-1.59339E-19-4.34769E-18
 -1      1434 9.51953E-05-2.85586E-05-2.85585E-05 4.42551E-09-5.88121E-20-5.53424E-18
 -1      1435 9.51996E-05-2.85600E-05-2.85598E-05 4.37353E-09 1.46943E-19-6.20460E-18
 -1      1436 9.52012E-05-2.85604E-05-2.85603E-05 8.42038E-09 2.08267E-19-4.05711E-18
 -1      1437 9.52023E-05-2.85608E-05-2.85607E-05 4.16169E-09-4.05252E-19-5.77734E-18
 -1      1438 9.52063E-05-2.85620E-05-2.85618E-05 4.07872E-09-5.41179E-19-6.31494E-18
 -1      1439 9.52065E-05-2.85621E-05-2.85619E-05 8.19724E-09-1.15852E-19-3.10323E-18
 -1      1440 9.52090E-05-2.85628E-05-2.85626E-05 3.74852E-09 2.55128E-19-6.32814E-18
 -1      1441 9.52125E-05-2.85639E-05-2.85637E-05 3.65276E-09-2.39017E-20-6.59431E-18
 -1      1442 9.52118E-05-2.85637E-05-2.85634E-05 7.56022E-09-6.66930E-19-2.84982E-18
 -1      1443 9.52150E-05-2.85646E-05-2.85644E-05 3.27377E-09-4.57847E-19-6.17171E-18
 -1      1444 9.52180E-05-2.85656E-05-2.85653E-05 3.17677E-09 3.16506E-19-5.98397E-18
 -1      1445 9.52167E-05-2.85652E-05-2.85649E-05 6.71851E-09 5.12622E-19-2.46514E-18
 -1      1446 9.52202E-05-2.85662E-05-2.85660E-05 2.79252E-09 8.63852E-19-6.38176E-18
 -1      1447 9.52228E-05-2.85670E-05-2.85668E-05 2.70088E-09 1.15458E-18-6.05701E-18
 -1      1448 9.52212E-05-2.85666E-05-2.85662E-05 5.80886E-09 3.74662E-19-2.41301E-18
 -1      1449 9.52246E-05-2.85675E-05-2.85674E-05 2.33517E-09 6.13971E-21-5.09808E-18
 -1      1450 9.52268E-05-2.85682E-05-2.85680E-05 2.25171E-09 1.86299E-19-4.76021E-18
 -1      1451 9.52251E-05-2.85677E-05-2.85674E-05 4.91299E-09 6.50040E-19-2.24525E-18
 -1      1452 9.52284E-05-2.85686E-05-2.85685E-05 1.91307E-09 1.69413E-18-5.72130E-18
 -1      1453 9.52301E-05-2.85691E-05-2.85690E-05 1.83756E-09 1.83234E-18-2.83278E-18
 -1      1454 9.52284E-05-2.85687E-05-2.85684E-05 4.07059E-09 1.08628E-18-1.27834E-18
 -1      1455 9.52314E-05-2.85695E-05-2.85694E-05 1.52231E-09 1.02549E-18-2.54283E-18
 -1      1456 9.52328E-05-2.85699E-05-2.85698E-05 1.45190E-09 5.00030E-19-1.44625E-18
 -1      1457 9.52311E-05-2.85695E-05-2.85692E-05 3.28837E-09 2.23635E-18-2.78635E-18
 -1      1458 9.52338E-05-2.85702E-05-2.85701E-05 1.14614E-09 4.26157E-19-1.07162E-18
 -1      1459 9.52348E-05-2.85705E-05-2.85704E-05 1.07512E-09 2.58787E-19-9.27416E-19
 -1      1460 9.52333E-05-2.85702E-05-2.85699E-05 2.54668E-09 1.00891E-18-2.19431E-18
 -1      1461 9.52355E-05-2.85708E-05-2.85706E-05 7.59967E-10 9.39415E-19-5.37132E-19
 -1      1462 9.52362E-05-2.85710E-05-2.85708E-05 6.80098E-10 1.50173E-18 6.16326E-19
 -1      1463 9.52350E-05-2.85707E-05-2.85704E-05 1.80573E-09 7.83040E-19-6.88890E-19
 -1      1464 9.52367E-05-2.85711E-05-2.85709E-05 3.42796E-10 1.95289E-19 9.72175E-19
 -1      1465 9.52369E-05-2.85712E-05-2.85710E-05 2.52638E-10-4.43740E-19 1.21547E-18
 -1      1466 9.52362E-05-2.85711E-05-2.85708E-05 1.03574E-09 1.41763E-18 2.36918E-19
 -1      1467 9.52372E-05-2.85712E-05-2.85712E-05-5.35428E-11-1.33950E-18 8.65691E-19
 -1      1468 9.52370E-05-2.85712E-05-2.85710E-05 2.19804E-10-1.11472E-18 2.48725E-19
 -1      1469 1.29768E-04-3.82692E-05-3.97030E-05-1.49370E-06 7.49889E-19 1.29051E-17
 -1      1470 1.30754E-04-3.76271E-05-4.06662E-05-2.41580E-08 6.31834E-19 1.38067E-17
 -1      1471 1.27649E-04-3.45479E-05-4.03590E-05 5.03409E-06 1.22237E-18 9.94210E-18
 -1      1472 1.34268E-04-3.99902E-05-4.04930E-05-4.01539E-06 3.55172E-19 1.15739E-17
 -1      1473 1.30763E-04-3.83697E-05-3.97876E-05-3.38439E-06 4.51574E-19 1.22071E-17
 -1      1474 1.27999E-04-3.72828E-05-3.91704E-05-3.98547E-06 1.01655E-18 8.59672E-18
 -1      1475 1.42463E-04-4.28234E-05-4.26148E-05-5.10855E-06 5.72938E-20 1.11133E-17
 -1      1476 1.37226E-04-4.08690E-05-4.12818E-05-4.75275E-06 1.26989E-20 1.12285E-17
 -1      1477 1.32140E-04-3.91824E-05-3.99435E-05-8.02661E-06 3.04972E-19 7.86417E-18
 -1      1478 1.50515E-04-4.59415E-05-4.44472E-05-3.75873E-06-2.39181E-19 1.16762E-17
 -1      1479 1.45953E-04-4.43131E-05-4.34301E-05-4.14763E-06-2.22955E-19 1.12988E-17
 -1      1480 1.38768E-04-4.21446E-05-4.13171E-05-8.41792E-06-2.41973E-19 7.68587E-18
 -1      1481 1.52388E-04-4.74122E-05-4.43337E-05 2.07455E-06-6.32641E-19 1.28480E-17
 -1      1482 1.52695E-04-4.76515E-05-4.47135E-05 5.90459E-08-4.78944E-19 1.21532E-17
 -1      1483 1.45185E-04-4.58153E-05-4.22014E-05-2.91975E-06-8.18843E-19 8.57188E-18
 -1      1484 1.41205E-04-4.38026E-05-4.14602E-05 1.09545E-05-8.66746E-19 1.51892E-17
 -1      1485 1.50479E-04-4.77695E-05-4.37213E-05 7.80786E-06-9.47724E-19 1.34833E-17
 -1      1486 1.46888E-04-4.77830E-05-4.19508E-05 9.69303E-06-1.62260E-18 9.86989E-18
 -1      1487 1.18902E-04-3.44792E-05-3.73709E-05 1.51455E-05 2.01170E-19 1.58531E-17
 -1      1488 1.34891E-04-4.12393E-05-4.04839E-05 1.35966E-05-6.77097E-20 1.53804E-17
 -1      1489 1.40168E-04-4.40902E-05-4.11739E-05 2.20367E-05-8.03199E-19 1.08514E-17
 -1      1490 1.03189E-04-2.71945E-05-3.49886E-05 7.15399E-06 1.43392E-18 1.38818E-17
 -1      1491 1.13542E-04-3.09967E-05-3.68369E-05 9.40836E-06 8.96902E-19 1.50200E-17
 -1      1492 1.28429E-04-3.47375E-05-4.10603E-05 1.99072E-05 1.02533E-18 1.06887E-17
 -1      1493 1.06480E-04-2.86187E-05-3.54478E-05-7.72341E-06 1.64748E-18 1.00104E-17
 -1      1494 1.03395E-04-2.62479E-05-3.49971E-05-3.36106E-06 1.69407E-18 1.20685E-17
 -1      1495 1.22635E-04-2.92095E-05-4.13998E-05 4.08774E-07 3.02963E-18 8.10988E-18
 -1      1496 1.27307E-04-3.80222E-05-3.87708E-05-1.55026E-05 1.18251E-18 6.76144E-18
 -1      1497 1.12667E-04-3.15147E-05-3.60762E-05-1.32807E-05 1.02936E-18 8.53237E-18
 -1      1498 1.28980E-04-3.43250E-05-4.16385E-05-1.98002E-05 2.64655E-18 5.00051E-18
 -1      1499 1.46636E-04-4.57137E-05-4.25733E-05-1.13022E-05 5.34167E-19 4.03315E-18
 -1      1500 1.33008E-04-4.08202E-05-3.96728E-05-1.21979E-05 8.58488E-19 5.46908E-18
 -1      1501 1.40662E-04-4.39570E-05-4.18842E-05-2.30193E-05 2.18212E-18 1.72869E-18
 -1      1502 1.55035E-04-4.81917E-05-4.49551E-05-2.68722E-06-1.58938E-19 3.66797E-18
 -1      1503 1.48632E-04-4.66574E-05-4.32414E-05-4.70221E-06 1.21920E-19 4.04606E-18
 -1      1504 1.47236E-04-4.83817E-05-4.23395E-05-1.19458E-05 7.39433E-19 6.21828E-19
 -1      1505 1.51442E-04-4.61850E-05-4.47066E-05 3.62562E-06 1.02094E-19 3.86840E-18
 -1      1506 1.52936E-04-4.73630E-05-4.48117E-05 2.14039E-06-1.39046E-19 3.74722E-18
 -1      1507 1.45910E-04-4.68891E-05-4.22864E-05 1.12704E-06 1.50348E-19 8.48615E-19
 -1      1508 1.41607E-04-4.25512E-05-4.24222E-05 5.83435E-06 2.90241E-20 3.81541E-18
 -1      1509 1.47208E-04-4.47311E-05-4.37688E-05 5.27390E-06-4.01017E-21 4.00880E-18
 -1      1510 1.39024E-04-4.28635E-05-4.11029E-05 8.70251E-06-2.01064E-19 1.35276E-18
 -1      1511 1.30709E-04-3.90035E-05-3.94250E-05 5.64242E-06 7.51459E-19 2.71220E-18
 -1      1512 1.37045E-04-4.11109E-05-4.11486E-05 5.60755E-06 7.70974E-19 3.93124E-18
 -1      1513 1.30270E-04-3.90366E-05-3.90600E-05 1.06340E-05 7.95510E-19 1.71741E-18
 -1      1514 1.20793E-04-3.59822E-05-3.64809E-05 4.51236E-06-2.58107E-19 2.81739E-18
 -1      1515 1.26469E-04-3.77173E-05-3.81245E-05 4.69407E-06 1.26062E-20 2.80050E-18
 -1      1516 1.21742E-04-3.60385E-05-3.67233E-05 9.54663E-06 3.48759E-19 1.92261E-18
 -1      1517 1.13463E-04-3.38303E-05-3.42285E-05 3.35420E-06-2.00787E-19 2.64962E-18
 -1      1518 1.17599E-04-3.50268E-05-3.54607E-05 3.55635E-06 1.17347E-19 2.65267E-18
 -1      1519 1.14619E-04-3.38560E-05-3.46190E-05 7.50754E-06 1.89491E-19 1.90163E-18
 -1      1520 1.08028E-04-3.22554E-05-3.25400E-05 2.40114E-06-3.81363E-19 3.69600E-18
 -1      1521 1.11025E-04-3.30952E-05-3.34446E-05 2.57288E-06-5.57877E-19 2.84481E-18
 -1      1522 1.09233E-04-3.23367E-05-3.29626E-05 5.56567E-06-6.09817E-19 1.03808E-18
 -1      1523 1.04124E-04-3.11307E-05-3.13238E-05 1.68489E-06 7.10095E-19 2.57818E-18
 -1      1524 1.06235E-04-3.17111E-05-3.19641E-05 1.81616E-06 2.15749E-19 3.35534E-18
 -1      1525 1.05206E-04-3.12405E-05-3.17046E-05 3.99298E-06 2.08516E-20 1.19716E-18
 -1      1526 1.01357E-04-3.03350E-05-3.04641E-05 1.17139E-06 6.37230E-19 1.02951E-18
 -1      1527 1.02829E-04-3.07341E-05-3.09101E-05 1.26643E-06 5.64647E-19 2.31453E-18
 -1      1528 1.02265E-04-3.04523E-05-3.07812E-05 2.81657E-06 9.88540E-19 1.74815E-18
 -1      1529 9.93399E-05-2.97543E-05-2.98375E-05 7.95657E-07-7.71627E-20 7.38829E-19
 -1      1530 1.00391E-04-3.00383E-05-3.01568E-05 8.67731E-07 2.05174E-19 9.63851E-19
 -1      1531 1.00109E-04-2.98759E-05-3.01021E-05 1.95509E-06 3.98608E-19 2.05489E-18
 -1      1532 9.80127E-05-2.93712E-05-2.94268E-05 5.49816E-07-1.03404E-18 3.12678E-18
 -1      1533 9.86978E-05-2.95541E-05-2.96345E-05 5.96934E-07-8.11486E-19 1.37514E-18
 -1      1534 9.85774E-05-2.94676E-05-2.96213E-05 1.34743E-06-1.31023E-18 2.19298E-18
 -1      1535 9.70857E-05-2.91035E-05-2.91408E-05 3.78993E-07-8.90331E-19 5.31229E-18
 -1      1536 9.75566E-05-2.92286E-05-2.92835E-05 4.12251E-07-8.54481E-19 3.82805E-18
 -1      1537 9.75237E-05-2.91846E-05-2.92904E-05 9.35638E-07-1.77429E-18 3.03196E-18
 -1      1538 9.64422E-05-2.89174E-05-2.89427E-05 2.60137E-07 2.43611E-19 6.14558E-18
 -1      1539 9.67649E-05-2.90026E-05-2.90404E-05 2.83692E-07-4.16265E-19 5.61995E-18
 -1      1540 9.67789E-05-2.89838E-05-2.90568E-05 6.47726E-07-8.60446E-19 3.31230E-18
 -1      1541 9.59981E-05-2.87890E-05-2.88060E-05 1.77255E-07-1.01494E-19 5.75627E-18
 -1      1542 9.62179E-05-2.88465E-05-2.88727E-05 1.93983E-07-3.46370E-19 5.97059E-18
 -1      1543 9.62550E-05-2.88421E-05-2.88927E-05 4.46091E-07-3.36622E-19 3.05680E-18
 -1      1544 9.56939E-05-2.87010E-05-2.87126E-05 1.19262E-07 8.97190E-19 5.19626E-18
 -1      1545 9.58424E-05-2.87393E-05-2.87576E-05 1.31223E-07 8.56281E-19 6.26692E-18
 -1      1546 9.58891E-05-2.87430E-05-2.87781E-05 3.04633E-07 3.38090E-19 3.25774E-18
 -1      1547 9.54808E-05-2.86395E-05-2.86471E-05 7.70600E-08 9.27921E-20 5.34865E-18
 -1      1548 9.55827E-05-2.86655E-05-2.86780E-05 8.61672E-08-9.26740E-20 4.95608E-18
 -1      1549 9.56313E-05-2.86729E-05-2.86973E-05 2.03645E-07 5.60022E-19 3.50415E-18
 -1      1550 9.53485E-05-2.86013E-05-2.86064E-05 4.94771E-08-1.24238E-19 5.55919E-18
 -1      1551 9.54106E-05-2.86166E-05-2.86253E-05 5.54394E-08-3.98740E-19 5.58935E-18
 -1      1552 9.54566E-05-2.86259E-05-2.86425E-05 1.32671E-07-4.73774E-19 4.07920E-18
 -1      1553 9.52637E-05-2.85769E-05-2.85803E-05 3.03106E-08 4.63590E-19 3.13869E-18
 -1      1554 9.53023E-05-2.85861E-05-2.85921E-05 3.45537E-08 9.84378E-19 4.91281E-18
 -1      1555 9.53437E-05-2.85955E-05-2.86070E-05 8.48047E-08 1.25188E-18 3.14384E-18
 -1      1556 9.52121E-05-2.85622E-05-2.85643E-05 1.72042E-08 3.57197E-21 3.45361E-18
 -1      1557 9.52345E-05-2.85672E-05-2.85713E-05 2.01957E-08-4.26898E-19 3.20098E-18
 -1      1558 9.52706E-05-2.85760E-05-2.85838E-05 5.16532E-08 3.81371E-19 4.00957E-18
 -1      1559 9.51832E-05-2.85540E-05-2.85553E-05 8.41254E-09-4.31066E-19 2.01687E-18
 -1      1560 9.51947E-05-2.85563E-05-2.85590E-05 1.04917E-08 5.43906E-19 2.38377E-18
 -1      1561 9.52253E-05-2.85642E-05-2.85694E-05 2.89919E-08 9.37975E-19 3.82417E-18
 -1      1562 9.51694E-05-2.85503E-05-2.85510E-05 2.65240E-09-7.44372E-19 2.28508E-18
 -1      1563 9.51738E-05-2.85507E-05-2.85525E-05 4.09329E-09-7.32946E-19 1.56800E-18
 -1      1564 9.51993E-05-2.85576E-05-2.85610E-05 1.38114E-08-5.80559E-19 1.87355E-18
 -1      1565 9.51656E-05-2.85494E-05-2.85497E-05-1.07045E-09-4.36245E-19 3.84887E-18
 -1      1566 9.51653E-05-2.85487E-05-2.85497E-05-5.46928E-11-8.37334E-19 2.90610E-18
 -1      1567 9.51860E-05-2.85545E-05-2.85566E-05 3.81300E-09-1.36909E-18 9.98379E-19
 -1      1568 9.51681E-05-2.85503E-05-2.85504E-05-3.06862E-09-2.65347E-19 5.19181E-18
 -1      1569 9.51651E-05-2.85490E-05-2.85496E-05-2.48257E-09-3.74130E-19 4.90653E-18
 -1      1570 9.51817E-05-2.85538E-05-2.85549E-05-2.41894E-09-8.43412E-19 2.70520E-18
 -1      1571 9.51740E-05-2.85522E-05-2.85521E-05-4.09805E-09 2.43794E-19 6.29791E-18
 -1      1572 9.51697E-05-2.85506E-05-2.85509E-05-3.74572E-09-1.69356E-19 5.21381E-18
 -1      1573 9.51827E-05-2.85545E-05-2.85551E-05-5.84900E-09-3.53033E-19 3.47662E-18
 -1      1574 9.51817E-05-2.85545E-05-2.85544E-05-4.46685E-09 7.21723E-19 4.63070E-18
 -1      1575 9.51768E-05-2.85529E-05-2.85530E-05-4.27764E-09 6.67831E-19 5.87536E-18
 -1      1576 9.51869E-05-2.85560E-05-2.85562E-05-7.55068E-09 8.04281E-19 3.06919E-18
 -1      1577 9.51899E-05-2.85570E-05-2.85568E-05-4.42539E-09 1.15069E-18 1.87041E-18
 -1      1578 9.51849E-05-2.85554E-05-2.85554E-05-4.33779E-09 1.27693E-18 4.05190E-18
 -1      1579 9.51927E-05-2.85579E-05-2.85578E-05-8.11555E-09 1.72877E-18 2.65971E-18
 -1      1580 9.51983E-05-2.85596E-05-2.85594E-05-4.11086E-09-9.66986E-19 1.82513E-18
 -1      1581 9.51934E-05-2.85581E-05-2.85579E-05-4.09725E-09-4.83740E-19 7.49818E-19
 -1      1582 9.51992E-05-2.85599E-05-2.85597E-05-7.94694E-09 4.76836E-19 2.19976E-18
 -1      1583 9.52057E-05-2.85618E-05-2.85616E-05-3.67576E-09-4.44268E-19 3.38494E-18
 -1      1584 9.52015E-05-2.85605E-05-2.85604E-05-3.70954E-09-8.35194E-19 1.74792E-18
 -1      1585 9.52057E-05-2.85619E-05-2.85616E-05-7.36073E-09-1.04406E-18 1.10106E-18
 -1      1586 9.52123E-05-2.85638E-05-2.85636E-05-3.20129E-09-5.89384E-19 4.95831E-18
 -1      1587 9.52086E-05-2.85627E-05-2.85625E-05-3.25673E-09 7.96689E-20 4.26272E-18
 -1      1588 9.52117E-05-2.85637E-05-2.85634E-05-6.57086E-09-6.96933E-19 1.69321E-18
 -1      1589 9.52181E-05-2.85655E-05-2.85653E-05-2.72828E-09 1.12571E-18 5.01234E-18
 -1      1590 9.52149E-05-2.85646E-05-2.85644E-05-2.79323E-09-5.06693E-19 5.52444E-18
 -1      1591 9.52170E-05-2.85653E-05-2.85650E-05-5.70898E-09-8.12622E-19 3.38351E-18
 -1      1592 9.52230E-05-2.85670E-05-2.85668E-05-2.28455E-09 4.96596E-19 3.54277E-18
 -1      1593 9.52203E-05-2.85662E-05-2.85660E-05-2.35104E-09 1.32116E-18 5.07873E-18
 -1      1594 9.52217E-05-2.85667E-05-2.85664E-05-4.85611E-09 1.67507E-18 3.55256E-18
 -1      1595 9.52270E-05-2.85682E-05-2.85681E-05-1.88279E-09-1.06832E-18 4.36743E-18
 -1      1596 9.52248E-05-2.85675E-05-2.85674E-05-1.94539E-09 6.01447E-20 3.21195E-18
 -1      1597 9.52257E-05-2.85679E-05-2.85676E-05-4.05699E-09 3.98148E-19 3.68291E-18
 -1      1598 9.52305E-05-2.85692E-05-2.85691E-05-1.50168E-09-6.96193E-21 6.34156E-18
 -1      1599 9.52287E-05-2.85687E-05-2.85686E-05-1.56662E-09-9.72492E-19 4.97163E-18
 -1      1600 9.52291E-05-2.85689E-05-2.85687E-05-3.31026E-09-1.63719E-18 2.53812E-18
 -1      1601 9.52332E-05-2.85700E-05-2.85699E-05-1.16537E-09 2.46283E-19 6.09977E-18
 -1      1602 9.52318E-05-2.85696E-05-2.85695E-05-1.22621E-09 1.82277E-19 6.73247E-18
 -1      1603 9.52318E-05-2.85697E-05-2.85695E-05-2.62380E-09-4.09330E-20 3.59111E-18
 -1      1604 9.52351E-05-2.85706E-05-2.85705E-05-8.34359E-10-1.63320E-19 7.91654E-18
 -1      1605 9.52341E-05-2.85703E-05-2.85702E-05-9.01516E-10-3.58872E-19 7.48468E-18
 -1      1606 9.52340E-05-2.85703E-05-2.85701E-05-1.98699E-09-1.06373E-18 6.50231E-18
 -1      1607 9.52364E-05-2.85710E-05-2.85709E-05-4.78230E-10 2.12822E-18 6.10655E-18
 -1      1608 9.52358E-05-2.85708E-05-2.85707E-05-5.64135E-10 1.28824E-18 7.69751E-18
 -1      1609 9.52355E-05-2.85708E-05-2.85706E-05-1.34190E-09 1.77679E-18 7.04740E-18
 -1      1610 9.52370E-05-2.85712E-05-2.85711E-05-1.12951E-10-3.21113E-19 3.22706E-18
 -1      1611 9.52368E-05-2.85711E-05-2.85710E-05-2.08935E-10 4.96537E-19 3.80030E-18
 -1      1612 9.52366E-05-2.85711E-05-2.85709E-05-6.56717E-10 2.40248E-18 3.53864E-18
 -1      1613 9.52372E-05-2.85712E-05-2.85712E-05 3.25269E-11 2.89809E-18 2.49730E-18
 -1      1614 9.52372E-05-2.85716E-05-2.85709E-05-3.64528E-10 2.98517E-18-1.16151E-19
 -1      1615 9.52371E-05-2.85714E-05-2.85710E-05-2.70411E-10 3.64175E-18 6.31949E-19
 -1      1616 9.52375E-05-2.85727E-05-2.85706E-05-7.20793E-10 2.10963E-18-7.22991E-19
 -1      1617 9.52373E-05-2.85721E-05-2.85708E-05-6.56468E-10 3.30912E-18-8.07420E-19
 -1      1618 9.52372E-05-2.85721E-05-2.85708E-05-1.01017E-09 1.37509E-18-8.91821E-19
 -1      1619 9.52380E-05-2.85741E-05-2.85702E-05-9.36060E-10 2.39312E-18 4.64476E-19
 -1      1620 9.52377E-05-2.85733E-05-2.85705E-05-9.06252E-10 2.04080E-18 1.15356E-18
 -1      1621 9.52376E-05-2.85731E-05-2.85705E-05-1.58335E-09 1.80564E-18-1.89544E-19
 -1      1622 9.52385E-05-2.85757E-05-2.85698E-05-9.81340E-10-2.98807E-18-4.61465E-18
 -1      1623 9.52382E-05-2.85748E-05-2.85700E-05-9.86187E-10 1.33688E-18-8.36184E-19
 -1      1624 9.52381E-05-2.85745E-05-2.85701E-05-1.86213E-09-6.89791E-19-1.70277E-18
 -1      1625 9.52390E-05-2.85772E-05-2.85694E-05-8.73853E-10-8.17176E-18-2.80359E-18
 -1      1626 9.52387E-05-2.85764E-05-2.85696E-05-9.06233E-10-2.97904E-18-4.99485E-18
 -1      1627 9.52386E-05-2.85758E-05-2.85698E-05-1.82588E-09-2.59732E-18-6.38280E-18
 -1      1628 9.52394E-05-2.85784E-05-2.85690E-05-6.40324E-10-7.30215E-18 2.05586E-18
 -1      1629 9.52392E-05-2.85777E-05-2.85692E-05-6.94828E-10-8.24392E-18 2.53560E-19
 -1      1630 9.52390E-05-2.85770E-05-2.85694E-05-1.51716E-09-2.22808E-18-1.59929E-18
 -1      1631 9.52396E-05-2.85790E-05-2.85688E-05-3.20982E-10-5.49837E-18 1.09210E-18
 -1      1632 9.52395E-05-2.85787E-05-2.85689E-05-3.88593E-10-7.09218E-18 2.61843E-18
 -1      1633 9.52393E-05-2.85779E-05-2.85692E-05-9.95154E-10-3.04986E-18 2.39134E-18
 -1      1634 9.52396E-05-2.85792E-05-2.85688E-05 3.96134E-11-4.33723E-18 6.19565E-19
 -1      1635 9.52396E-05-2.85792E-05-2.85688E-05-3.23338E-11-5.25142E-18 1.27687E-18
 -1      1636 9.52395E-05-2.85784E-05-2.85691E-05-3.41699E-10-2.97802E-18 1.34184E-18
 -1      1637 9.52395E-05-2.85787E-05-2.85689E-05 3.95002E-10-1.64656E-18 1.40910E-18
 -1      1638 9.52396E-05-2.85790E-05-2.85688E-05 3.27702E-10-3.34982E-18 2.36447E-18
 -1      1639 9.52395E-05-2.85784E-05-2.85691E-05 3.55406E-10-1.33891E-18 2.23381E-18
 -1      1640 9.52392E-05-2.85777E-05-2.85692E-05 6.99080E-10-2.42231E-18-1.46950E-18
 -1      1641 9.52394E-05-2.85783E-05-2.85690E-05 6.45279E-10-9.46632E-19-7.79108E-19
 -1      1642 9.52393E-05-2.85779E-05-2.85692E-05 1.00633E-09-1.09239E-18 1.11145E-18
 -1      1643 9.52387E-05-2.85764E-05-2.85696E-05 9.05715E-10-4.00572E-18 9.47147E-19
 -1      1644 9.52390E-05-2.85772E-05-2.85694E-05 8.74075E-10-2.60177E-18-8.82480E-19
 -1      1645 9.52390E-05-2.85770E-05-2.85694E-05 1.52078E-09-7.96340E-19-1.96763E-18
 -1      1646 9.52382E-05-2.85748E-05-2.85700E-05 9.84307E-10-1.84874E-18 1.08525E-18
 -1      1647 9.52385E-05-2.85757E-05-2.85698E-05 9.80145E-10-3.29040E-18 2.61566E-18
 -1      1648 9.52386E-05-2.85758E-05-2.85698E-05 1.82471E-09-9.72158E-19 2.77978E-18
 -1      1649 9.52377E-05-2.85733E-05-2.85705E-05 9.04031E-10-1.28684E-18 4.77314E-19
 -1      1650 9.52380E-05-2.85741E-05-2.85702E-05 9.32347E-10-1.42179E-18 7.16937E-19
 -1      1651 9.52381E-05-2.85744E-05-2.85701E-05 1.85696E-09-2.95391E-19 1.14539E-18
 -1      1652 9.52373E-05-2.85721E-05-2.85708E-05 6.56054E-10-4.00022E-19 7.79922E-19
 -1      1653 9.52375E-05-2.85727E-05-2.85706E-05 7.21848E-10-1.68466E-18 4.63077E-19
 -1      1654 9.52376E-05-2.85731E-05-2.85705E-05 1.57468E-09 4.31107E-19 3.46011E-19
 -1      1655 9.52371E-05-2.85715E-05-2.85710E-05 4.30793E-10-1.37657E-18-1.55635E-18
 -1      1656 9.52372E-05-2.85717E-05-2.85709E-05 5.65636E-10 1.43391E-21-1.20549E-18
 -1      1657 9.52372E-05-2.85722E-05-2.85707E-05 1.22047E-09 8.33249E-19 2.16660E-19
 -1      1658 9.52368E-05-2.85715E-05-2.85708E-05 8.75714E-10 6.91403E-19-1.88185E-18
 -1      1659 2.02575E-05-6.99935E-05 1.57104E-05-1.04510E-05 1.16891E-17 4.67245E-18
 -1      1660 2.28590E-05-7.60889E-05 1.69211E-05-1.89113E-06 8.47546E-18 2.49218E-18
 -1      1661 2.13862E-05-4.79039E-05 6.55725E-06-2.41542E-06 1.44445E-17 7.25643E-18
 -1      1662 2.56197E-05-6.84504E-05 1.23809E-05-3.79501E-06 1.26479E-17 4.89871E-18
 -1      1663 3.27152E-05-2.07889E-05-8.74551E-06 1.74094E-05 1.50670E-17 1.04066E-17
 -1      1664 2.90379E-05-4.32816E-05 1.74660E-07 1.35463E-06 1.54905E-17 8.45508E-18
 -1      1665 7.74980E-05-1.17038E-05-2.89805E-05 5.08708E-05 1.19940E-17 1.04219E-17
 -1      1666 5.35307E-05-2.02420E-05-1.82796E-05 2.68453E-05 1.40286E-17 1.04227E-17
 -1      1667 1.46805E-04-2.26912E-05-5.04219E-05 7.46033E-05 7.32938E-18 8.34836E-18
 -1      1668 1.01223E-04-1.20181E-05-3.93268E-05 5.69340E-05 1.06015E-17 1.00678E-17
 -1      1669 2.30784E-04-5.34326E-05-6.94390E-05 6.17069E-05 4.34358E-18 1.21719E-18
 -1      1670 1.77165E-04-3.10545E-05-5.98165E-05 6.61566E-05 6.63439E-18 5.81065E-18
 -1      1671 2.89343E-04-7.56263E-05-8.18975E-05 2.74069E-05 2.29631E-18-6.60008E-18
 -1      1672 2.54808E-04-5.79094E-05-7.69642E-05 5.83576E-05 3.24170E-18-9.06325E-19
 -1      1673 2.83069E-04-7.07855E-05-8.23089E-05-2.67339E-05 3.97978E-18-1.28050E-17
 -1      1674 2.90421E-04-7.44334E-05-8.31946E-05 1.27858E-05 2.56312E-18-8.33057E-18
 -1      1675 2.26965E-04-4.73487E-05-7.17508E-05-6.00879E-05 6.98294E-18-1.55617E-17
 -1      1676 2.70533E-04-6.81417E-05-7.84724E-05-3.70711E-05 4.57440E-18-1.37135E-17
 -1      1677 1.47920E-04-2.46549E-05-5.20501E-05-6.08099E-05 9.06664E-18-1.48180E-17
 -1      1678 2.04252E-04-4.48438E-05-6.33076E-05-6.56812E-05 7.26754E-18-1.55668E-17
 -1      1679 8.19772E-05-1.96522E-05-2.94878E-05-4.03305E-05 9.18268E-18-1.17755E-17
 -1      1680 1.20491E-04-2.19164E-05-4.12631E-05-6.28304E-05 9.45289E-18-1.44546E-17
 -1      1681 3.55903E-05-2.90314E-05-8.55407E-06-1.10169E-05 7.90451E-18-7.93924E-18
 -1      1682 4.99275E-05-1.23601E-05-1.87950E-05-3.41716E-05 1.01746E-17-1.15662E-17
 -1      1683 2.47769E-05-5.64924E-05 6.76335E-06 6.40989E-06 3.46267E-18-3.91086E-18
 -1      1684 2.26102E-05-3.36756E-05-2.91632E-07-2.34564E-06 6.93974E-18-6.45651E-18
 -1      1685 2.39891E-05-7.50271E-05 1.49791E-05 7.11077E-06-2.46720E-18-2.26920E-18
 -1      1686 1.91794E-05-6.07048E-05 1.15802E-05 1.15211E-05 1.76860E-18-3.17362E-18
 -1      1687 2.25220E-05-7.52097E-05 1.61433E-05 4.01914E-07-8.63190E-18-2.63999E-18
 -1      1688 2.27591E-05-7.77346E-05 1.67016E-05 1.10685E-05-4.33411E-18-1.96978E-18
 -1      1689 1.88353E-05-4.99094E-05 8.60967E-06 2.30692E-06-1.25717E-17-5.10676E-18
 -1      1690 2.37956E-05-6.89281E-05 1.32301E-05 5.32435E-06-9.55496E-18-3.29750E-18
 -1      1691 2.23754E-05-1.92833E-05-4.33385E-06 1.66296E-05-1.46909E-17-8.01039E-18
 -1      1692 2.40011E-05-4.35554E-05 3.16449E-06 6.26251E-06-1.40370E-17-5.71874E-18
 -1      1693 4.89827E-05 3.56593E-07-2.17832E-05 4.71363E-05-1.31849E-17-1.03855E-17
 -1      1694 3.59736E-05-1.46092E-05-1.25172E-05 2.60494E-05-1.41217E-17-8.77696E-18
 -1      1695 9.81073E-05 1.26811E-06-4.06694E-05 7.60024E-05-1.01415E-17-9.90266E-18
 -1      1696 6.65738E-05 3.03839E-06-3.09125E-05 5.51790E-05-1.28986E-17-1.03126E-17
 -1      1697 1.70917E-04-2.28654E-05-5.90635E-05 8.48996E-05-5.77041E-18-6.70003E-18
 -1      1698 1.23958E-04-3.94960E-06-4.98719E-05 7.91632E-05-8.67828E-18-9.28687E-18
 -1      1699 2.35202E-04-5.26854E-05-7.22775E-05 5.94093E-05-2.81877E-18-1.07997E-18
 -1      1700 1.96017E-04-3.15751E-05-6.63349E-05 7.76071E-05-4.62014E-18-4.87722E-18
 -1      1701 2.63865E-04-6.66071E-05-7.81125E-05 8.36284E-06-2.26348E-18 4.61379E-18
 -1      1702 2.48187E-04-5.76326E-05-7.59563E-05 4.23229E-05-2.38164E-18 6.09017E-19
 -1      1703 2.49115E-04-5.76133E-05-7.61876E-05-4.67712E-05-3.61132E-18 9.79594E-18
 -1      1704 2.65977E-04-6.76066E-05-7.83843E-05-1.07219E-05-2.22812E-18 6.44592E-18
 -1      1705 1.87361E-04-2.77779E-05-6.46114E-05-7.65848E-05-5.66157E-18 1.11165E-17
 -1      1706 2.30486E-04-5.03346E-05-7.14320E-05-5.95620E-05-4.11363E-18 1.02635E-17
 -1      1707 1.16143E-04-2.14231E-06-4.75466E-05-7.73358E-05-7.66819E-18 1.05888E-17
 -1      1708 1.62160E-04-1.95280E-05-5.69734E-05-8.57405E-05-6.13252E-18 1.20431E-17
 -1      1709 6.03101E-05 5.15606E-07-2.75283E-05-4.98925E-05-7.93500E-18 8.36360E-18
 -1      1710 9.08804E-05 1.87644E-06-3.79519E-05-7.33254E-05-8.45593E-18 9.68159E-18
 -1      1711 3.13864E-05-2.27041E-05-7.69885E-06-1.85347E-05-5.40407E-18 4.68070E-18
 -1      1712 4.09954E-05-2.02134E-06-1.76629E-05-4.04066E-05-7.36495E-18 7.51911E-18
 -1      1713 2.59792E-05-5.74577E-05 7.90815E-06-4.79405E-06 8.18234E-19 2.96689E-18
 -1      1714 2.23485E-05-3.13249E-05 4.27800E-07-1.19066E-05-3.58718E-18 3.95628E-18
 -1      1715 2.47120E-05-7.92729E-05 1.68688E-05-6.50894E-06 7.43462E-18 1.39125E-18
 -1      1716 2.02704E-05-6.44407E-05 1.34048E-05 2.14820E-06 2.78504E-18 2.25565E-18
 -1      1717 1.23344E-04-4.40121E-05-3.41543E-05 3.92041E-05 7.85284E-18 4.32919E-18
 -1      1718 7.50227E-05-4.46987E-05-1.54056E-05 3.30804E-05 9.62145E-18 5.82632E-18
 -1      1719 9.52370E-05-2.85712E-05-2.85711E-05-9.74273E-11 2.74229E-18 9.20948E-19
 -1      1720 9.52370E-05-2.85714E-05-2.85709E-05-4.76722E-10 1.00017E-18 1.80117E-18
 -1      1721 1.73458E-05-4.70087E-05 8.89037E-06 1.03821E-05 6.82370E-18 5.14234E-18
 -1      1722 3.90505E-05-4.77960E-05-7.43360E-08 2.22297E-05 8.89130E-18 5.85204E-18
 -1      1723 1.09187E-05-4.91864E-05 1.21016E-05-6.70867E-06 5.54341E-18 4.33766E-18
 -1      1724 1.76260E-04-4.58833E-05-5.30530E-05 3.24528E-05 6.71803E-18 1.75421E-18
 -1      1725 2.17662E-04-4.49439E-05-6.85749E-05 1.76660E-05 6.56747E-18-1.13841E-18
 -1      1726 2.39651E-04-4.21972E-05-7.70138E-05 6.42587E-06 5.24822E-18-4.43337E-18
 -1      1727 2.29414E-04-3.98665E-05-7.45407E-05-6.46417E-06 5.22365E-18-6.57128E-18
 -1      1728 2.02907E-04-4.58567E-05-6.30955E-05-1.70129E-05 4.71612E-18-7.63261E-18
 -1      1729 1.60559E-04-5.15700E-05-4.52623E-05-2.88544E-05 3.87094E-18-8.01378E-18
 -1      1730 1.04002E-04-4.67772E-05-2.54007E-05-3.69484E-05 4.17503E-18-8.64990E-18
 -1      1731 5.27163E-05-4.43586E-05-7.16115E-06-2.64256E-05 3.51688E-18-7.55320E-18
 -1      1732 2.51318E-05-4.84235E-05 5.34877E-06-1.27699E-05 9.18607E-19-5.60736E-18
 -1      1733 1.24096E-05-5.07975E-05 1.15521E-05 8.25142E-08-2.12764E-18-4.80183E-18
 -1      1734 1.27122E-05-4.72473E-05 1.04390E-05 1.44074E-05-4.80839E-18-4.75821E-18
 -1      1735 2.60926E-05-4.02881E-05 2.62850E-06 2.63462E-05-6.96600E-18-4.98966E-18
 -1      1736 5.19632E-05-3.22743E-05-1.04423E-05 3.90566E-05-8.34243E-18-5.66432E-18
 -1      1737 8.82795E-05-2.64958E-05-2.67960E-05 4.92583E-05-8.30601E-18-5.51757E-18
 -1      1738 1.32389E-04-2.49135E-05-4.43140E-05 5.39391E-05-7.54156E-18-4.81708E-18
 -1      1739 1.78697E-04-2.96427E-05-6.00490E-05 4.65649E-05-6.14697E-18-2.96377E-18
 -1      1740 2.10138E-04-3.37714E-05-7.04730E-05 2.53580E-05-4.89776E-18-1.97782E-19
 -1      1741 2.22106E-04-3.58631E-05-7.42096E-05-1.53529E-06-4.06449E-18 2.65513E-18
 -1      1742 2.08008E-04-3.39913E-05-6.99017E-05-2.53797E-05-3.76189E-18 4.77049E-18
 -1      1743 1.73632E-04-2.94158E-05-5.82460E-05-4.59723E-05-3.62599E-18 6.20113E-18
 -1      1744 1.27474E-04-2.60857E-05-4.17311E-05-5.36462E-05-4.46937E-18 6.49759E-18
 -1      1745 8.18407E-05-2.90293E-05-2.31615E-05-4.73647E-05-3.45420E-18 6.09186E-18
 -1      1746 4.63636E-05-3.85220E-05-5.91246E-06-3.56323E-05-5.75982E-19 4.96700E-18
 -1      1747 2.22518E-05-4.71953E-05 6.86850E-06-2.30982E-05 3.00781E-18 4.97314E-18
 -1      1748 1.10827E-04-2.43120E-05-3.71647E-05-1.78362E-05-1.81371E-18-1.44419E-19
 -1      1749 9.46740E-05-1.32846E-05-3.50054E-05-1.40889E-05-6.29117E-19-4.59619E-18
 -1      1750 9.56081E-05-1.39122E-05-3.51991E-05-1.63470E-05-1.20465E-18-4.56368E-18
 -1      1751 9.71691E-05-1.55622E-05-3.51453E-05-1.73837E-05-1.55793E-18-4.22947E-18
 -1      1752 9.85850E-05-1.72112E-05-3.54322E-05-1.92349E-05-2.13188E-18-3.81784E-18
 -1      1753 9.86119E-05-1.88400E-05-3.42180E-05-1.54944E-05-1.55697E-18-4.03534E-18
 -1      1754 9.21346E-05-1.22404E-05-3.43111E-05-5.39562E-06 8.66323E-19-3.90657E-18
 -1      1755 9.28144E-05-1.23224E-05-3.45915E-05-7.72292E-06 5.81257E-19-4.23977E-18
 -1      1756 8.99178E-05-1.17200E-05-3.35763E-05-4.57290E-07 1.53267E-18-3.33165E-18
 -1      1757 9.11847E-05-1.20029E-05-3.40024E-05-2.84766E-06 1.26636E-18-3.68094E-18
 -1      1758 9.42545E-05-1.57893E-05-3.36877E-05-4.21608E-06 1.05649E-18-3.59548E-18
 -1      1759 8.61028E-05-1.03544E-05-3.25302E-05 4.43931E-06 2.11981E-18-2.81648E-18
 -1      1760 8.81914E-05-1.10310E-05-3.31020E-05 2.19917E-06 1.86685E-18-3.13024E-18
 -1      1761 9.15689E-05-1.49330E-05-3.29198E-05 9.78526E-07 1.79102E-18-3.05064E-18
 -1      1762 8.05516E-05-7.78287E-06-3.12673E-05 8.65206E-06 2.58861E-18-2.52328E-18
 -1      1763 8.34213E-05-8.92199E-06-3.19217E-05 6.86140E-06 2.42328E-18-2.70982E-18
 -1      1764 8.69796E-05-1.28916E-05-3.18405E-05 6.17903E-06 2.46268E-18-2.63170E-18
 -1      1765 7.39740E-05-4.13930E-06-3.00254E-05 1.13160E-05 2.95384E-18-2.25155E-18
 -1      1766 7.71374E-05-5.58646E-06-3.06228E-05 1.03178E-05 2.81558E-18-2.44329E-18
 -1      1767 8.04662E-05-9.32164E-06-3.05765E-05 1.05159E-05 2.97103E-18-2.38237E-18
 -1      1768 6.81363E-05-2.84347E-07-2.91753E-05 1.17048E-05 3.16376E-18-2.03882E-18
 -1      1769 7.06164E-05-1.62197E-06-2.95166E-05 1.17067E-05 3.11309E-18-2.22495E-18
 -1      1770 7.30817E-05-4.61689E-06-2.93964E-05 1.28632E-05 3.31965E-18-2.19404E-18
 -1      1771 6.55323E-05 2.25803E-06-2.91236E-05 9.87443E-06 3.27366E-18-1.63808E-18
 -1      1772 6.61535E-05 1.60237E-06-2.90147E-05 1.06770E-05 3.20197E-18-1.91753E-18
 -1      1773 6.71139E-05-1.70123E-07-2.86932E-05 1.24122E-05 3.48818E-18-1.95252E-18
 -1      1774 6.82421E-05 2.08280E-06-3.01729E-05 6.82324E-06 3.33382E-18-9.49638E-19
 -1      1775 6.61212E-05 2.55773E-06-2.94797E-05 7.88216E-06 3.28118E-18-1.39871E-18
 -1      1776 6.53393E-05 2.09018E-06-2.88563E-05 9.39264E-06 3.55956E-18-1.49904E-18
 -1      1777 7.71791E-05-1.65463E-06-3.23779E-05 4.37714E-06 3.24156E-18 1.87234E-19
 -1      1778 7.21280E-05 1.59035E-07-3.11133E-05 4.85384E-06 3.22203E-18-5.39514E-19
 -1      1779 6.98895E-05 5.30493E-07-3.01370E-05 5.29705E-06 3.46155E-18-7.48630E-19
 -1      1780 9.14721E-05-8.89693E-06-3.54322E-05 4.22963E-06 2.99495E-18 1.93041E-18
 -1      1781 8.40767E-05-5.74451E-06-3.37815E-05 3.42919E-06 3.04672E-18 9.15934E-19
 -1      1782 8.12204E-05-5.37292E-06-3.24801E-05 2.20870E-06 3.20898E-18 5.23539E-19
 -1      1783 1.09792E-04-1.98840E-05-3.86301E-05 6.37524E-06 2.28529E-18 4.94657E-18
 -1      1784 1.00520E-04-1.47830E-05-3.69837E-05 4.47446E-06 2.61985E-18 3.19718E-18
 -1      1785 9.75983E-05-1.49599E-05-3.54172E-05 1.36678E-06 2.81264E-18 2.39173E-18
 -1      1786 1.23763E-04-3.13677E-05-3.99704E-05 4.96433E-06 1.60110E-18 8.13088E-18
 -1      1787 1.15984E-04-2.43348E-05-3.93036E-05 6.32612E-06 1.96303E-18 6.08445E-18
 -1      1788 1.13053E-04-2.52227E-05-3.76369E-05 8.98431E-07 2.29408E-18 4.76656E-18
 -1      1789 1.23107E-04-3.29449E-05-3.87644E-05-8.29607E-07 1.76485E-18 7.48271E-18
 -1      1790 1.04505E-04-2.06158E-05-3.56192E-05-2.02489E-05-2.24192E-18-2.46232E-18
 -1      1791 1.24881E-04-3.54984E-05-3.83150E-05-7.96979E-06 1.00428E-18 6.35852E-18
 -1      1792 1.23860E-04-3.44999E-05-3.83091E-05-4.63363E-06 1.35192E-18 6.84711E-18
 -1      1793 1.19108E-04-3.11403E-05-3.77464E-05-4.12145E-06 1.69687E-18 5.26400E-18
 -1      1794 1.04335E-04-2.41102E-05-3.40942E-05-1.60833E-05-2.23786E-18-2.73433E-18
 -1      1795 1.00620E-04-2.86380E-05-3.07427E-05-8.19413E-06-1.76193E-18-2.67777E-18
 -1      1796 9.80560E-05-2.85042E-05-2.98078E-05-6.84291E-06-1.39358E-18-3.06880E-18
 -1      1797 9.67228E-05-2.85475E-05-2.91302E-05-6.00040E-06-1.31267E-18-2.85958E-18
 -1      1798 9.49416E-05-2.82644E-05-2.85538E-05-5.61145E-06-1.06999E-18-3.18337E-18
 -1      1799 9.90673E-05-2.85003E-05-3.02476E-05-8.52425E-06-1.51287E-18-2.77924E-18
 -1      1800 9.36656E-05-2.79849E-05-2.80991E-05-5.29169E-06-8.88792E-19-3.07725E-18
 -1      1801 9.21319E-05-2.75205E-05-2.76664E-05-5.14054E-06-7.75513E-19-3.33249E-18
 -1      1802 9.65675E-05-2.86128E-05-2.91292E-05-7.14748E-06-1.17544E-18-2.71158E-18
 -1      1803 9.09259E-05-2.70743E-05-2.73402E-05-4.87069E-06-8.16766E-19-3.31692E-18
 -1      1804 8.95881E-05-2.65298E-05-2.69941E-05-4.60979E-06-6.52263E-19-3.58783E-18
 -1      1805 9.41330E-05-2.79324E-05-2.83788E-05-6.47111E-06-9.57193E-19-2.83158E-18
 -1      1806 8.85105E-05-2.60241E-05-2.67625E-05-4.08115E-06-6.21742E-19-3.77121E-18
 -1      1807 8.74585E-05-2.55164E-05-2.65071E-05-3.53926E-06-6.84138E-19-4.09255E-18
 -1      1808 9.18283E-05-2.68493E-05-2.78626E-05-5.57181E-06-8.65348E-19-2.93418E-18
 -1      1809 8.66470E-05-2.50855E-05-2.63620E-05-2.62908E-06-7.70310E-19-4.06909E-18
 -1      1810 8.60363E-05-2.47534E-05-2.62213E-05-1.79479E-06-5.99306E-19-4.00156E-18
 -1      1811 8.98873E-05-2.57194E-05-2.75260E-05-3.95403E-06-7.45126E-19-3.18870E-18
 -1      1812 8.56514E-05-2.45360E-05-2.61622E-05-5.82356E-07-6.76296E-19-4.05013E-18
 -1      1813 8.56076E-05-2.44907E-05-2.61556E-05 4.08832E-07-6.95728E-19-4.16654E-18
 -1      1814 8.86470E-05-2.49210E-05-2.73459E-05-1.55977E-06-7.99255E-19-3.09710E-18
 -1      1815 8.57379E-05-2.45672E-05-2.61796E-05 1.68113E-06-8.11266E-19-4.26470E-18
 -1      1816 8.62820E-05-2.48378E-05-2.63079E-05 2.60760E-06-6.12468E-19-4.25607E-18
 -1      1817 8.83868E-05-2.47521E-05-2.73079E-05 1.24750E-06-7.18724E-19-3.36905E-18
 -1      1818 8.68784E-05-2.51846E-05-2.64054E-05 3.64548E-06-7.16812E-19-4.40803E-18
 -1      1819 8.79018E-05-2.57014E-05-2.66461E-05 4.29842E-06-5.38703E-19-4.64836E-18
 -1      1820 8.91567E-05-2.52950E-05-2.73963E-05 3.85296E-06-7.97485E-19-3.31422E-18
 -1      1821 8.87907E-05-2.62031E-05-2.67993E-05 4.88786E-06-3.65478E-19-4.84779E-18
 -1      1822 9.00901E-05-2.68318E-05-2.71107E-05 5.15642E-06-8.37189E-20-4.88397E-18
 -1      1823 9.07206E-05-2.63741E-05-2.75888E-05 5.67611E-06-5.73489E-19-3.26829E-18
 -1      1824 9.10500E-05-2.73429E-05-2.72955E-05 5.24111E-06-1.15134E-19-5.02173E-18
 -1      1825 9.23961E-05-2.79453E-05-2.76286E-05 5.13921E-06-1.06796E-19-5.05942E-18
 -1      1826 9.26566E-05-2.76539E-05-2.78552E-05 6.41524E-06-2.11145E-19-3.50142E-18
 -1      1827 9.32434E-05-2.83542E-05-2.78188E-05 4.81053E-06-3.51386E-21-5.15758E-18
 -1      1828 9.44465E-05-2.88353E-05-2.81285E-05 4.44377E-06 6.25630E-20-4.74439E-18
 -1      1829 9.45343E-05-2.88025E-05-2.81580E-05 6.12079E-06-7.21095E-20-3.41408E-18
 -1      1830 9.50795E-05-2.90939E-05-2.83007E-05 3.87073E-06-1.04868E-19-4.61056E-18
 -1      1831 9.60250E-05-2.94169E-05-2.85556E-05 3.37675E-06 1.24987E-20-4.29099E-18
 -1      1832 9.60557E-05-2.96159E-05-2.84579E-05 5.09587E-06 1.17931E-19-3.05963E-18
 -1      1833 9.64212E-05-2.95319E-05-2.86937E-05 2.73007E-06 7.52503E-20-4.45824E-18
 -1      1834 9.70713E-05-2.97058E-05-2.88787E-05 2.22883E-06 4.22365E-19-4.06306E-18
 -1      1835 9.70966E-05-3.00455E-05-2.87208E-05 3.72578E-06-1.66247E-20-3.35849E-18
 -1      1836 9.72597E-05-2.97131E-05-2.89753E-05 1.63411E-06 4.08994E-19-3.93853E-18
 -1      1837 9.76344E-05-2.97711E-05-2.90902E-05 1.20370E-06 5.49367E-19-3.84941E-18
 -1      1838 9.76711E-05-3.01532E-05-2.89240E-05 2.34081E-06 5.67456E-19-3.22832E-18
 -1      1839 9.76657E-05-2.97127E-05-2.91456E-05 7.28800E-07 8.53171E-20-4.18377E-18
 -1      1840 9.78173E-05-2.96937E-05-2.91999E-05 4.04108E-07 1.30514E-19-4.50288E-18
 -1      1841 9.78688E-05-3.00462E-05-2.90583E-05 1.15323E-06 1.11896E-19-3.11296E-18
 -1      1842 9.77441E-05-2.96047E-05-2.92199E-05 6.86110E-08 7.70362E-20-4.93194E-18
 -1      1843 9.77354E-05-2.95424E-05-2.92280E-05-1.47596E-07-2.67386E-19-4.87089E-18
 -1      1844 9.78013E-05-2.98277E-05-2.91263E-05 2.56808E-07-6.81084E-20-3.63140E-18
 -1      1845 9.76022E-05-2.94465E-05-2.92211E-05-3.54906E-07-2.22907E-19-4.70914E-18
 -1      1846 9.74921E-05-2.93658E-05-2.91982E-05-4.78218E-07 2.73319E-19-4.54587E-18
 -1      1847 9.75710E-05-2.95743E-05-2.91388E-05-3.41552E-07-7.60179E-21-3.55548E-18
 -1      1848 9.73320E-05-2.92764E-05-2.91732E-05-5.83182E-07 5.37262E-19-4.69864E-18
 -1      1849 9.71687E-05-2.91934E-05-2.91325E-05-6.36293E-07 7.20752E-19-4.23771E-18
 -1      1850 9.72581E-05-2.93326E-05-2.91102E-05-6.84225E-07 3.43511E-19-3.39769E-18
 -1      1851 9.70043E-05-2.91167E-05-2.90975E-05-6.68108E-07 7.05429E-19-4.12062E-18
 -1      1852 9.68227E-05-2.90405E-05-2.90491E-05-6.73643E-07 7.62054E-19-4.44718E-18
 -1      1853 9.69194E-05-2.91252E-05-2.90551E-05-8.32722E-07 8.67125E-19-3.39992E-18
 -1      1854 9.66682E-05-2.89782E-05-2.90102E-05-6.58566E-07 4.25553E-19-3.78963E-18
 -1      1855 9.64913E-05-2.89130E-05-2.89613E-05-6.35509E-07 3.52903E-20-3.45217E-18
 -1      1856 9.65912E-05-2.89590E-05-2.89865E-05-8.48598E-07 6.84315E-19-3.06393E-18
 -1      1857 9.63544E-05-2.88644E-05-2.89230E-05-5.94248E-07-2.76498E-19-2.81951E-18
 -1      1858 9.61955E-05-2.88115E-05-2.88778E-05-5.56806E-07 2.39444E-19-2.18181E-18
 -1      1859 9.62944E-05-2.88321E-05-2.89140E-05-7.83847E-07 1.60972E-19-1.37475E-18
 -1      1860 9.60794E-05-2.87746E-05-2.88428E-05-5.04165E-07 2.60917E-19-2.61818E-18
 -1      1861 9.59447E-05-2.87334E-05-2.88037E-05-4.62006E-07 1.28543E-19-2.52376E-18
 -1      1862 9.60388E-05-2.87391E-05-2.88444E-05-6.77742E-07 2.35291E-19-1.00914E-18
 -1      1863 9.58496E-05-2.87062E-05-2.87734E-05-4.07641E-07 1.42808E-19-2.81052E-18
 -1      1864 9.57405E-05-2.86752E-05-2.87412E-05-3.66730E-07 4.30110E-19-3.12880E-18
 -1      1865 9.58271E-05-2.86731E-05-2.87819E-05-5.57331E-07 1.25494E-21-1.62930E-18
 -1      1866 9.56651E-05-2.86556E-05-2.87160E-05-3.16304E-07-5.86409E-20-3.45202E-18
 -1      1867 9.55801E-05-2.86332E-05-2.86906E-05-2.79871E-07-7.35071E-19-3.54825E-18
 -1      1868 9.56574E-05-2.86277E-05-2.87285E-05-4.39565E-07 1.80113E-19-2.17043E-18
 -1      1869 9.55220E-05-2.86194E-05-2.86704E-05-2.36205E-07-1.07398E-18-3.07116E-18
 -1      1870 9.54581E-05-2.86038E-05-2.86510E-05-2.05621E-07-6.55436E-19-2.94831E-18
 -1      1871 9.55252E-05-2.85976E-05-2.86845E-05-3.33836E-07-6.69047E-19-1.51313E-18
 -1      1872 9.54146E-05-2.85944E-05-2.86355E-05-1.69666E-07-1.01123E-19-3.54081E-18
 -1      1873 9.53684E-05-2.85839E-05-2.86212E-05-1.45139E-07 1.72204E-19-3.76483E-18
 -1      1874 9.54251E-05-2.85785E-05-2.86496E-05-2.44322E-07-5.64895E-19-2.28503E-18
 -1      1875 9.53368E-05-2.85778E-05-2.86096E-05-1.16714E-07 1.76697E-19-4.23844E-18
 -1      1876 9.53047E-05-2.85712E-05-2.85995E-05-9.77923E-08 6.03151E-20-4.16172E-18
 -1      1877 9.53515E-05-2.85669E-05-2.86228E-05-1.71878E-07-3.37939E-19-3.24914E-18
 -1      1878 9.52824E-05-2.85674E-05-2.85911E-05-7.61140E-08 2.40803E-19-4.45174E-18
 -1      1879 9.52612E-05-2.85635E-05-2.85843E-05-6.20296E-08 1.00070E-18-3.94938E-18
 -1      1880 9.52990E-05-2.85605E-05-2.86029E-05-1.15429E-07 6.17706E-19-3.42492E-18
 -1      1881 9.52462E-05-2.85613E-05-2.85784E-05-4.60536E-08 5.30666E-19-3.52172E-18
 -1      1882 9.52331E-05-2.85594E-05-2.85741E-05-3.59411E-08-1.62912E-19-3.75250E-18
 -1      1883 9.52629E-05-2.85576E-05-2.85885E-05-7.29379E-08 8.97556E-19-3.40751E-18
 -1      1884 9.52234E-05-2.85583E-05-2.85702E-05-2.45787E-08 7.31488E-19-3.22714E-18
 -1      1885 9.52162E-05-2.85577E-05-2.85676E-05-1.76002E-08 1.50436E-18-2.85107E-18
 -1      1886 9.52393E-05-2.85568E-05-2.85786E-05-4.20259E-08 9.01357E-19-2.22073E-18
 -1      1887 9.52105E-05-2.85574E-05-2.85652E-05-9.83756E-09 6.93160E-19-2.58497E-18
 -1      1888 9.52072E-05-2.85576E-05-2.85639E-05-5.24757E-09 9.15880E-19-2.30829E-18
 -1      1889 9.52247E-05-2.85573E-05-2.85720E-05-2.03456E-08 1.17812E-18-1.12775E-18
 -1      1890 9.52043E-05-2.85577E-05-2.85626E-05-2.03536E-10 7.52405E-19-3.40403E-18
 -1      1891 9.52037E-05-2.85584E-05-2.85621E-05 2.62461E-09 1.73999E-20-3.08818E-18
 -1      1892 9.52167E-05-2.85586E-05-2.85680E-05-5.77803E-09 2.45993E-19-2.24439E-18
 -1      1893 9.52027E-05-2.85588E-05-2.85615E-05 5.67969E-09 4.47179E-20-2.53684E-18
 -1      1894 9.52038E-05-2.85597E-05-2.85617E-05 7.25122E-09 2.86525E-19-2.27148E-18
 -1      1895 9.52131E-05-2.85602E-05-2.85657E-05 3.48053E-09 3.00277E-19-2.11522E-18
 -1      1896 9.52039E-05-2.85602E-05-2.85615E-05 8.89908E-09-2.98500E-19-1.83759E-18
 -1      1897 9.52060E-05-2.85613E-05-2.85620E-05 9.60742E-09-2.14886E-19-2.28795E-18
 -1      1898 9.52125E-05-2.85619E-05-2.85647E-05 8.90072E-09 1.00169E-19-1.22734E-18
 -1      1899 9.52069E-05-2.85618E-05-2.85621E-05 1.02972E-08 7.78005E-19-1.67998E-18
 -1      1900 9.52094E-05-2.85629E-05-2.85628E-05 1.04393E-08 1.03864E-18-3.69534E-19
 -1      1901 9.52138E-05-2.85635E-05-2.85645E-05 1.16404E-08 6.31574E-19 7.10371E-19
 -1      1902 9.52107E-05-2.85634E-05-2.85631E-05 1.05074E-08 3.87661E-19-9.10157E-19
 -1      1903 9.52133E-05-2.85644E-05-2.85638E-05 1.03008E-08-1.93902E-19-7.88159E-19
 -1      1904 9.52161E-05-2.85650E-05-2.85648E-05 1.25836E-08 4.35438E-19 1.16393E-18
 -1      1905 9.52148E-05-2.85649E-05-2.85643E-05 9.99166E-09 3.12238E-19-1.16179E-19
 -1      1906 9.52173E-05-2.85657E-05-2.85650E-05 9.59030E-09-9.05556E-20 2.23963E-19
 -1      1907 9.52189E-05-2.85663E-05-2.85654E-05 1.23850E-08 7.03146E-19 1.33239E-18
 -1      1908 9.52188E-05-2.85662E-05-2.85654E-05 9.07551E-09 6.89157E-20 1.00170E-18
 -1      1909 9.52211E-05-2.85669E-05-2.85661E-05 8.58392E-09 4.74863E-19 1.06600E-18
 -1      1910 9.52218E-05-2.85674E-05-2.85662E-05 1.15149E-08 1.35526E-19 2.90386E-18
 -1      1911 9.52225E-05-2.85674E-05-2.85665E-05 7.97843E-09 8.75371E-20 3.11022E-19
 -1      1912 9.52246E-05-2.85680E-05-2.85671E-05 7.46332E-09 9.65135E-19 7.85792E-19
 -1      1913 9.52247E-05-2.85683E-05-2.85670E-05 1.02978E-08 5.15754E-19 3.01610E-18
 -1      1914 9.52258E-05-2.85683E-05-2.85675E-05 6.83884E-09 5.84512E-19-4.48852E-19
 -1      1915 9.52276E-05-2.85689E-05-2.85680E-05 6.33818E-09 4.86557E-19 3.34928E-19
 -1      1916 9.52273E-05-2.85691E-05-2.85678E-05 8.94609E-09-6.48685E-20 1.33100E-18
 -1      1917 9.52287E-05-2.85692E-05-2.85684E-05 5.73358E-09 4.02896E-19 4.13097E-19
 -1      1918 9.52302E-05-2.85696E-05-2.85688E-05 5.26325E-09 1.45709E-18 1.05276E-18
 -1      1919 9.52296E-05-2.85698E-05-2.85685E-05 7.58672E-09 8.69974E-19 1.65636E-18
 -1      1920 9.52311E-05-2.85699E-05-2.85691E-05 4.69211E-09 1.47513E-18-1.45062E-18
 -1      1921 9.52324E-05-2.85702E-05-2.85695E-05 4.25041E-09 1.87697E-18-1.84609E-18
 -1      1922 9.52317E-05-2.85703E-05-2.85691E-05 6.28157E-09-1.18518E-19 3.80830E-19
 -1      1923 9.52331E-05-2.85704E-05-2.85698E-05 3.70824E-09 1.35103E-18-2.36798E-18
 -1      1924 9.52341E-05-2.85707E-05-2.85700E-05 3.28141E-09 3.62081E-19-1.64461E-18
 -1      1925 9.52334E-05-2.85708E-05-2.85697E-05 5.04267E-09 1.02869E-18-2.63833E-18
 -1      1926 9.52348E-05-2.85709E-05-2.85702E-05 2.75177E-09 5.97380E-19-2.14897E-18
 -1      1927 9.52355E-05-2.85712E-05-2.85704E-05 2.31723E-09 1.00086E-18-1.60674E-18
 -1      1928 9.52348E-05-2.85712E-05-2.85701E-05 3.85267E-09 3.59078E-19-2.64325E-18
 -1      1929 9.52359E-05-2.85713E-05-2.85706E-05 1.81437E-09 1.31419E-18-1.49903E-18
 -1      1930 9.52364E-05-2.85715E-05-2.85707E-05 1.37950E-09 1.04203E-18-1.82318E-18
 -1      1931 9.52366E-05-2.85717E-05-2.85707E-05 1.63425E-09 8.08115E-19-2.04465E-18
 -1      1932 9.52358E-05-2.85715E-05-2.85704E-05 2.70836E-09 1.25492E-18-2.68904E-18
 -1      1933 1.29400E-04-3.84660E-05-3.89909E-05-1.13891E-05 1.85376E-19 5.84884E-18
 -1      1934 1.26653E-04-3.68083E-05-3.84398E-05-9.76905E-06 5.40989E-19 6.03633E-18
 -1      1935 1.21387E-04-3.44219E-05-3.73383E-05-1.09133E-05 8.23647E-19 4.47813E-18
 -1      1936 1.35887E-04-4.32258E-05-3.97830E-05-9.93566E-06-7.03765E-19 6.03073E-18
 -1      1937 1.32667E-04-4.08772E-05-3.92645E-05-1.07836E-05-3.88126E-19 5.82240E-18
 -1      1938 1.26541E-04-3.91184E-05-3.75406E-05-1.32061E-05-3.21661E-19 4.30319E-18
 -1      1939 1.43293E-04-4.95389E-05-4.02463E-05 1.11013E-07-1.40488E-18 7.18173E-18
 -1      1940 1.41048E-04-4.72689E-05-4.01166E-05-5.38774E-06-1.19191E-18 6.43676E-18
 -1      1941 1.35252E-04-4.67858E-05-3.79677E-05-8.58265E-06-1.40237E-18 4.68811E-18
 -1      1942 1.47019E-04-5.14709E-05-4.10103E-05 1.70102E-05-1.81090E-18 8.45905E-18
 -1      1943 1.48279E-04-5.25344E-05-4.10715E-05 8.11441E-06-1.80058E-18 7.57565E-18
 -1      1944 1.45826E-04-5.44611E-05-3.92859E-05 5.60441E-06-2.10752E-18 5.75757E-18
 -1      1945 1.42802E-04-4.19380E-05-4.37230E-05 2.78847E-05 1.87618E-19 9.04075E-18
 -1      1946 1.48734E-04-4.87949E-05-4.31882E-05 2.27282E-05-9.16172E-19 8.61464E-18
 -1      1947 1.52981E-04-5.29840E-05-4.32725E-05 2.31205E-05-1.25340E-18 6.53592E-18
 -1      1948 1.35614E-04-2.87098E-05-4.69213E-05 1.56449E-05 2.87652E-18 7.62314E-18
 -1      1949 1.41076E-04-3.47801E-05-4.62431E-05 2.17343E-05 1.58247E-18 8.45795E-18
 -1      1950 1.51812E-04-3.72517E-05-4.96076E-05 2.50738E-05 1.62969E-18 6.04887E-18
 -1      1951 1.36222E-04-2.80513E-05-4.74519E-05-1.22621E-05 4.76477E-18 4.55540E-18
 -1      1952 1.35512E-04-2.62481E-05-4.75288E-05 8.81980E-07 4.05898E-18 6.26396E-18
 -1      1953 1.49036E-04-2.50314E-05-5.34870E-05 2.39330E-06 4.58330E-18 3.88833E-18
 -1      1954 1.44981E-04-4.20919E-05-4.46777E-05-2.82128E-05 3.11041E-18 1.06647E-18
 -1      1955 1.38777E-04-3.46011E-05-4.53260E-05-2.10485E-05 3.53170E-18 2.90875E-18
 -1      1956 1.51045E-04-3.32820E-05-5.09032E-05-2.21267E-05 4.93990E-18 8.74350E-19
 -1      1957 1.50318E-04-5.20656E-05-4.19516E-05-2.04942E-05 1.67972E-18-5.15853E-19
 -1      1958 1.45317E-04-4.77746E-05-4.22436E-05-2.35246E-05 2.60288E-18 4.35587E-19
 -1      1959 1.53307E-04-5.03479E-05-4.45608E-05-2.53578E-05 3.36664E-18-1.04990E-18
 -1      1960 1.47018E-04-5.14260E-05-4.05561E-05-3.56367E-06 2.36190E-19-7.97680E-19
 -1      1961 1.46000E-04-5.17048E-05-4.05785E-05-1.05310E-05 7.08014E-19-7.97680E-19
 -1      1962 1.48592E-04-5.58436E-05-4.01230E-05-1.12241E-05 1.14809E-18-1.97061E-18
 -1      1963 1.38255E-04-4.51895E-05-3.96502E-05 9.13010E-06-3.66805E-19-6.13887E-19
 -1      1964 1.40867E-04-4.76767E-05-3.99683E-05 3.85100E-06-1.27267E-19-3.47330E-19
 -1      1965 1.38309E-04-5.04324E-05-3.79287E-05 5.41569E-06-1.62472E-19-1.48787E-18
 -1      1966 1.28909E-04-3.93885E-05-3.83359E-05 1.37755E-05-1.44293E-19 5.87100E-19
 -1      1967 1.33146E-04-4.18327E-05-3.91318E-05 1.17151E-05-5.87550E-19 3.53901E-19
 -1      1968 1.27844E-04-4.20823E-05-3.69000E-05 1.45225E-05-7.05393E-19-6.80062E-19
 -1      1969 1.20870E-04-3.55559E-05-3.66205E-05 1.34414E-05 9.41318E-19 1.53975E-18
 -1      1970 1.25288E-04-3.73837E-05-3.76657E-05 1.34242E-05 6.16326E-19 1.50714E-18
 -1      1971 1.19715E-04-3.60918E-05-3.58878E-05 1.65193E-05 9.10825E-20 3.75553E-19
 -1      1972 1.14135E-04-3.31465E-05-3.47741E-05 1.09941E-05-3.48911E-19 1.70870E-18
 -1      1973 1.18162E-04-3.44644E-05-3.58516E-05 1.18918E-05 3.98814E-19 1.77689E-18
 -1      1974 1.13577E-04-3.27491E-05-3.46358E-05 1.47573E-05 1.90860E-19 1.22118E-18
 -1      1975 1.09192E-04-3.17525E-05-3.32336E-05 8.37013E-06 6.19062E-19 9.30366E-19
 -1      1976 1.12259E-04-3.26172E-05-3.41027E-05 9.38038E-06 3.05309E-19 1.48816E-18
 -1      1977 1.08957E-04-3.10836E-05-3.33547E-05 1.17643E-05 4.77217E-19 6.97366E-19
 -1      1978 1.05414E-04-3.08290E-05-3.19926E-05 6.12208E-06-6.13649E-19 4.78679E-19
 -1      1979 1.07749E-04-3.14363E-05-3.26721E-05 7.00887E-06-4.58807E-19 9.05812E-19
 -1      1980 1.05510E-04-3.02565E-05-3.22311E-05 8.89179E-06-1.66329E-19 8.53596E-19
 -1      1981 1.02585E-04-3.01880E-05-3.10428E-05 4.38121E-06 9.14442E-19 1.02074E-18
 -1      1982 1.04308E-04-3.06175E-05-3.15508E-05 5.07539E-06-4.14259E-19 7.61815E-19
 -1      1983 1.02856E-04-2.97768E-05-3.13042E-05 6.50721E-06-2.16549E-19 4.69811E-19
 -1      1984 1.00491E-04-2.97278E-05-3.03361E-05 3.10047E-06 3.56912E-19 2.41584E-18
 -1      1985 1.01743E-04-3.00336E-05-3.07070E-05 3.61440E-06 6.82629E-19 1.67384E-18
 -1      1986 1.00830E-04-2.94593E-05-3.05775E-05 4.67752E-06 5.67754E-19 1.43937E-18
 -1      1987 9.88950E-05-2.93784E-05-2.97974E-05 2.14198E-06-5.68723E-19 3.19275E-18
 -1      1988 9.98240E-05-2.96038E-05-3.00744E-05 2.52668E-06 7.16735E-20 2.84886E-18
 -1      1989 9.92691E-05-2.92215E-05-3.00135E-05 3.30366E-06-4.00498E-19 2.52329E-18
 -1      1990 9.78041E-05-2.91380E-05-2.94302E-05 1.50105E-06-1.45011E-18 2.27756E-18
 -1      1991 9.84316E-05-2.92898E-05-2.96174E-05 1.76149E-06-8.85838E-19 2.47593E-18
 -1      1992 9.81076E-05-2.90448E-05-2.95959E-05 2.31498E-06-6.79355E-19 2.70098E-18
 -1      1993 9.70135E-05-2.89618E-05-2.91658E-05 1.04874E-06-1.40754E-18 2.40544E-18
 -1      1994 9.74585E-05-2.90696E-05-2.92986E-05 1.23366E-06-1.77275E-18 1.79208E-18
 -1      1995 9.72737E-05-2.89112E-05-2.92974E-05 1.63155E-06-1.45810E-18 1.41028E-18
 -1      1996 9.64461E-05-2.88341E-05-2.89767E-05 7.29620E-07-6.20891E-19 1.68434E-18
 -1      1997 9.67601E-05-2.89102E-05-2.90706E-05 8.60836E-07-3.65046E-19 1.91320E-18
 -1      1998 9.66613E-05-2.88089E-05-2.90796E-05 1.14537E-06-2.71647E-19 3.59604E-19
 -1      1999 9.60416E-05-2.87424E-05-2.88423E-05 5.04184E-07-4.01231E-19 1.75982E-18
 -1      2000 9.62619E-05-2.87957E-05-2.89084E-05 5.97433E-07-8.48520E-19 1.51587E-18
 -1      2001 9.62154E-05-2.87319E-05-2.89219E-05 7.99783E-07-4.67704E-19 3.39859E-19
 -1      2002 9.57554E-05-2.86774E-05-2.87475E-05 3.44778E-07 1.00491E-18 2.52956E-18
 -1      2003 9.59091E-05-2.87144E-05-2.87936E-05 4.11150E-07 5.87004E-19 2.02040E-18
 -1      2004 9.58937E-05-2.86750E-05-2.88086E-05 5.54040E-07 2.39896E-19 8.08373E-19
 -1      2005 9.55478E-05-2.86304E-05-2.86786E-05 2.27361E-07-4.23779E-19 2.65558E-18
 -1      2006 9.56570E-05-2.86564E-05-2.87116E-05 2.76276E-07 1.63656E-19 2.16668E-18
 -1      2007 9.56595E-05-2.86327E-05-2.87262E-05 3.76221E-07 3.20620E-19 6.45163E-19
 -1      2008 9.54136E-05-2.86003E-05-2.86339E-05 1.49413E-07 7.99975E-19 2.59211E-18
 -1      2009 9.54835E-05-2.86167E-05-2.86551E-05 1.82341E-07-5.64975E-20 3.14601E-18
 -1      2010 9.54955E-05-2.86038E-05-2.86685E-05 2.50088E-07-3.29414E-19 9.31884E-19
 -1      2011 9.53233E-05-2.85805E-05-2.86037E-05 9.47518E-08 1.13037E-18 3.24032E-18
 -1      2012 9.53694E-05-2.85910E-05-2.86178E-05 1.17995E-07 1.33870E-18 2.72009E-18
 -1      2013 9.53856E-05-2.85844E-05-2.86296E-05 1.63870E-07 1.18112E-18 1.45071E-18
 -1      2014 9.52646E-05-2.85681E-05-2.85839E-05 5.68538E-08 1.20568E-18 2.60537E-18
 -1      2015 9.52938E-05-2.85745E-05-2.85929E-05 7.31082E-08 9.48619E-19 3.32638E-18
 -1      2016 9.53113E-05-2.85719E-05-2.86030E-05 1.03388E-07 1.35215E-18 2.07208E-18
 -1      2017 9.52280E-05-2.85609E-05-2.85714E-05 3.09885E-08 5.14864E-19 3.07848E-18
 -1      2018 9.52456E-05-2.85644E-05-2.85769E-05 4.21962E-08 8.89802E-19 2.68078E-18
 -1      2019 9.52626E-05-2.85642E-05-2.85854E-05 6.14498E-08 6.14360E-19 6.45084E-19
 -1      2020 9.52069E-05-2.85572E-05-2.85640E-05 1.37201E-08-4.10475E-20 1.26908E-18
 -1      2021 9.52165E-05-2.85588E-05-2.85671E-05 2.13166E-08-2.47581E-20 2.28183E-18
 -1      2022 9.52321E-05-2.85600E-05-2.85740E-05 3.28628E-08 5.52287E-19 1.04631E-18
 -1      2023 9.51960E-05-2.85559E-05-2.85599E-05 2.16368E-09-2.04512E-18 1.28858E-18
 -1      2024 9.52003E-05-2.85562E-05-2.85614E-05 7.29662E-09-8.38291E-19 8.67018E-19
 -1      2025 9.52139E-05-2.85580E-05-2.85670E-05 1.35661E-08-6.49688E-19 1.04141E-18
 -1      2026 9.51925E-05-2.85561E-05-2.85584E-05-4.43848E-09-8.15430E-19 2.01232E-18
 -1      2027 9.51932E-05-2.85557E-05-2.85587E-05-1.40291E-09-1.76720E-18 1.12617E-18
 -1      2028 9.52048E-05-2.85579E-05-2.85631E-05 1.20671E-09-1.88894E-18 3.44403E-19
 -1      2029 9.51934E-05-2.85572E-05-2.85583E-05-8.14160E-09 3.40163E-19 1.33580E-18
 -1      2030 9.51920E-05-2.85564E-05-2.85580E-05-6.37634E-09-3.48450E-20 2.10193E-18
 -1      2031 9.52017E-05-2.85586E-05-2.85615E-05-5.99543E-09-4.90148E-19 6.24662E-19
 -1      2032 9.51967E-05-2.85588E-05-2.85590E-05-9.87226E-09 1.30297E-18 2.58793E-18
 -1      2033 9.51942E-05-2.85577E-05-2.85584E-05-8.97190E-09 8.20633E-19 2.53176E-18
 -1      2034 9.52021E-05-2.85598E-05-2.85611E-05-9.94811E-09 4.50538E-19 2.48747E-18
 -1      2035 9.52014E-05-2.85605E-05-2.85603E-05-1.03232E-08 2.13437E-18 1.71672E-18
 -1      2036 9.51983E-05-2.85594E-05-2.85595E-05-9.98586E-09 1.32293E-18 1.87578E-18
 -1      2037 9.52047E-05-2.85613E-05-2.85615E-05-1.17208E-08 1.47354E-18 1.38063E-18
 -1      2038 9.52068E-05-2.85624E-05-2.85619E-05-9.93655E-09-4.02828E-19 1.54604E-18
 -1      2039 9.52035E-05-2.85612E-05-2.85609E-05-9.98002E-09 8.12339E-19 2.26028E-18
 -1      2040 9.52084E-05-2.85628E-05-2.85624E-05-1.20632E-08 4.83516E-19 1.35562E-18
 -1      2041 9.52119E-05-2.85640E-05-2.85634E-05-9.10335E-09-2.54294E-19 3.27564E-19
 -1      2042 9.52089E-05-2.85630E-05-2.85625E-05-9.36029E-09-5.77830E-19 1.08183E-18
 -1      2043 9.52127E-05-2.85643E-05-2.85636E-05-1.15256E-08-1.31360E-19 1.23348E-18
 -1      2044 9.52168E-05-2.85655E-05-2.85648E-05-8.06723E-09-6.84807E-19 1.18516E-18
 -1      2045 9.52139E-05-2.85646E-05-2.85640E-05-8.43276E-09-9.50035E-19 9.75106E-19
 -1      2046 9.52168E-05-2.85657E-05-2.85648E-05-1.05136E-08-6.87227E-19 5.45221E-19
 -1      2047 9.52211E-05-2.85668E-05-2.85661E-05-6.96982E-09 6.95039E-19 1.39108E-18
 -1      2048 9.52186E-05-2.85660E-05-2.85654E-05-7.37651E-09-8.32480E-19 1.47133E-18
 -1      2049 9.52207E-05-2.85669E-05-2.85659E-05-9.28266E-09-6.71141E-19-2.23029E-19
 -1      2050 9.52249E-05-2.85679E-05-2.85673E-05-5.89983E-09-1.00333E-19 2.75125E-18
 -1      2051 9.52227E-05-2.85672E-05-2.85667E-05-6.30729E-09 9.52942E-19 2.00987E-18
 -1      2052 9.52242E-05-2.85679E-05-2.85670E-05-7.99539E-09 4.49681E-19-7.16118E-19
 -1      2053 9.52281E-05-2.85688E-05-2.85683E-05-4.90354E-09-4.17522E-19 3.01770E-18
 -1      2054 9.52263E-05-2.85683E-05-2.85677E-05-5.28885E-09 1.01316E-18 3.30409E-18
 -1      2055 9.52273E-05-2.85688E-05-2.85679E-05-6.74608E-09 3.67016E-19 1.69531E-18
 -1      2056 9.52310E-05-2.85696E-05-2.85691E-05-3.94279E-09-9.88823E-19 1.81292E-18
 -1      2057 9.52294E-05-2.85692E-05-2.85687E-05-4.32113E-09-2.18379E-18 1.68115E-18
 -1      2058 9.52300E-05-2.85696E-05-2.85688E-05-5.55024E-09-1.03846E-18 1.38509E-18
 -1      2059 9.52331E-05-2.85703E-05-2.85698E-05-3.09023E-09-1.26918E-18 3.95837E-18
 -1      2060 9.52319E-05-2.85699E-05-2.85695E-05-3.43534E-09-8.31166E-19 3.17163E-18
 -1      2061 9.52323E-05-2.85702E-05-2.85695E-05-4.43816E-09-1.98713E-18 2.21526E-18
 -1      2062 9.52348E-05-2.85708E-05-2.85703E-05-2.26322E-09-1.54975E-18 4.14492E-18
 -1      2063 9.52339E-05-2.85705E-05-2.85700E-05-2.61078E-09-1.39243E-18 3.22470E-18
 -1      2064 9.52340E-05-2.85707E-05-2.85700E-05-3.41115E-09-1.53274E-18 1.16420E-18
 -1      2065 9.52360E-05-2.85712E-05-2.85707E-05-1.42158E-09 4.13315E-18 2.94765E-18
 -1      2066 9.52354E-05-2.85710E-05-2.85705E-05-1.79100E-09 2.00262E-18 3.35245E-18
 -1      2067 9.52354E-05-2.85711E-05-2.85704E-05-2.40215E-09 1.82339E-18-9.66188E-19
 -1      2068 9.52367E-05-2.85714E-05-2.85709E-05-7.70981E-10 2.45233E-18 9.07438E-19
 -1      2069 9.52363E-05-2.85713E-05-2.85708E-05-1.14307E-09 4.34074E-18 3.25948E-18
 -1      2070 9.52363E-05-2.85714E-05-2.85707E-05-1.58464E-09 4.25314E-18-2.12920E-19
 -1      2071 9.52368E-05-2.85716E-05-2.85708E-05-9.65213E-10 2.02098E-18 1.43196E-18
 -1      2072 9.52382E-05-2.85748E-05-2.85700E-05-2.58125E-09-1.88972E-18-2.86174E-18
 -1      2073 9.52379E-05-2.85741E-05-2.85702E-05-2.52040E-09-1.10895E-18-1.48512E-18
 -1      2074 9.52376E-05-2.85735E-05-2.85703E-05-2.34945E-09-2.20100E-19-2.07674E-18
 -1      2075 9.52373E-05-2.85729E-05-2.85705E-05-2.09764E-09 1.47678E-18-9.27835E-19
 -1      2076 9.52376E-05-2.85737E-05-2.85702E-05-3.11605E-09-1.66731E-18-3.44462E-18
 -1      2077 9.52371E-05-2.85724E-05-2.85706E-05-1.75683E-09 1.96894E-18-3.25395E-18
 -1      2078 9.52369E-05-2.85720E-05-2.85707E-05-1.38285E-09 2.05288E-18-9.87048E-19
 -1      2079 9.52367E-05-2.85719E-05-2.85706E-05-1.71564E-09 3.82630E-18-1.12692E-18
 -1      2080 9.52371E-05-2.85727E-05-2.85704E-05-2.52884E-09 1.53268E-18-2.29297E-18
 -1      2081 9.52388E-05-2.85760E-05-2.85698E-05-2.42434E-09-1.61018E-18-6.86310E-18
 -1      2082 9.52385E-05-2.85753E-05-2.85699E-05-2.53356E-09-1.46158E-18-5.05640E-18
 -1      2083 9.52383E-05-2.85750E-05-2.85700E-05-3.24074E-09-5.37821E-19-4.86437E-18
 -1      2084 9.52393E-05-2.85770E-05-2.85695E-05-1.92314E-09 1.61331E-19 3.24676E-19
 -1      2085 9.52390E-05-2.85765E-05-2.85696E-05-2.17706E-09-3.16846E-19-2.69639E-18
 -1      2086 9.52390E-05-2.85761E-05-2.85698E-05-2.90440E-09 1.05284E-18-4.19788E-18
 -1      2087 9.52396E-05-2.85777E-05-2.85693E-05-1.16455E-09-1.00823E-18 1.20915E-18
 -1      2088 9.52394E-05-2.85774E-05-2.85694E-05-1.51949E-09-2.13845E-19 1.32119E-18
 -1      2089 9.52395E-05-2.85770E-05-2.85696E-05-2.16916E-09 8.33545E-19 1.20347E-19
 -1      2090 9.52397E-05-2.85781E-05-2.85693E-05-2.56744E-10-1.40466E-18 9.61001E-19
 -1      2091 9.52397E-05-2.85779E-05-2.85693E-05-6.63316E-10-1.50979E-18 1.37674E-18
 -1      2092 9.52398E-05-2.85776E-05-2.85695E-05-1.15061E-09 9.40587E-19 9.39670E-19
 -1      2093 9.52397E-05-2.85779E-05-2.85693E-05 6.82663E-10-1.07152E-19 2.96026E-18
 -1      2094 9.52397E-05-2.85781E-05-2.85693E-05 2.76945E-10-4.39448E-19 1.29013E-18
 -1      2095 9.52399E-05-2.85778E-05-2.85695E-05 1.32531E-11 3.60246E-19 1.90199E-18
 -1      2096 9.52394E-05-2.85774E-05-2.85694E-05 1.53430E-09-5.37030E-19-4.16013E-19
 -1      2097 9.52396E-05-2.85777E-05-2.85693E-05 1.18186E-09-9.13311E-19 3.06213E-18
 -1      2098 9.52398E-05-2.85776E-05-2.85695E-05 1.17466E-09-2.15155E-19 2.74581E-18
 -1      2099 9.52390E-05-2.85765E-05-2.85696E-05 2.17616E-09 3.76614E-19-1.36463E-18
 -1      2100 9.52392E-05-2.85770E-05-2.85695E-05 1.92871E-09 2.21516E-19-8.55963E-19
 -1      2101 9.52395E-05-2.85770E-05-2.85696E-05 2.17984E-09 8.26819E-19-5.41112E-20
 -1      2102 9.52385E-05-2.85753E-05-2.85699E-05 2.53079E-09 1.07438E-18 3.89896E-18
 -1      2103 9.52388E-05-2.85760E-05-2.85698E-05 2.42220E-09 7.02672E-19 2.27172E-18
 -1      2104 9.52390E-05-2.85761E-05-2.85698E-05 2.90359E-09 2.39441E-18 2.88827E-19
 -1      2105 9.52379E-05-2.85741E-05-2.85702E-05 2.51341E-09 1.77110E-18 9.30202E-19
 -1      2106 9.52382E-05-2.85747E-05-2.85700E-05 2.57586E-09 1.54005E-18 2.51543E-18
 -1      2107 9.52383E-05-2.85749E-05-2.85700E-05 3.23576E-09 2.79665E-18 3.57160E-18
 -1      2108 9.52373E-05-2.85728E-05-2.85705E-05 2.09681E-09 1.32201E-18-2.04394E-19
 -1      2109 9.52376E-05-2.85734E-05-2.85703E-05 2.33917E-09 1.87065E-18 1.07103E-19
 -1      2110 9.52376E-05-2.85737E-05-2.85702E-05 3.10135E-09 2.06072E-18 4.99552E-19
 -1      2111 5.90500E-05-4.58270E-05-6.73719E-06 3.37096E-05 6.54756E-18 4.24888E-18
 -1      2112 4.31528E-05-4.38188E-05-9.94894E-07 2.88874E-05 5.46929E-18 3.57130E-18
 -1      2113 1.08091E-05-2.97861E-05 7.33760E-06-4.43827E-06 4.42985E-18 4.19662E-18
 -1      2114 1.34476E-05-3.29632E-05 7.27288E-06-1.55100E-05 3.63695E-18 4.08609E-18
 -1      2115 2.71258E-05-3.38088E-05 2.36261E-06 2.24380E-05 4.26820E-18 4.20425E-18
 -1      2116 1.72441E-05-3.13852E-05 5.29775E-06 1.06968E-05 3.27421E-18 4.51003E-18
 -1      2117 9.90993E-05-5.12725E-05-2.10662E-05 3.78521E-05 6.23077E-18 2.52839E-18
 -1      2118 7.63103E-05-5.10946E-05-1.25802E-05 3.24297E-05 6.48658E-18 3.60455E-18
 -1      2119 8.08013E-05-5.27507E-05-1.26499E-05 3.77090E-05 3.55966E-18 1.93248E-18
 -1      2120 1.47250E-04-5.55191E-05-3.90561E-05 2.97682E-05 5.64251E-18 1.19516E-18
 -1      2121 1.22971E-04-5.56573E-05-2.99491E-05 2.85813E-05 6.06306E-18 1.62884E-18
 -1      2122 9.33348E-05-1.24742E-05-3.47521E-05-9.98623E-06 2.29486E-19-4.43414E-18
 -1      2123 9.38622E-05-1.26218E-05-3.49509E-05-1.22254E-05-2.08900E-19-4.56659E-18
 -1      2124 9.68559E-05-1.68743E-05-3.43241E-05-1.29033E-05-5.56127E-19-4.20558E-18
 -1      2125 9.56669E-05-1.61312E-05-3.41284E-05-8.95645E-06 3.20775E-19-4.11714E-18
 -1      2126 2.05225E-04-4.16420E-05-6.78629E-05 1.80441E-06 6.61363E-18-1.48739E-18
 -1      2127 1.88057E-04-4.25549E-05-6.14666E-05 1.55326E-06 7.13202E-18-4.07423E-19
 -1      2128 2.03704E-04-3.21734E-05-7.17078E-05-2.10832E-06 5.77676E-18-2.50053E-18
 -1      2129 2.05891E-04-3.57336E-05-7.06984E-05 7.08082E-07 6.16682E-18-1.48527E-18
 -1      2130 1.82646E-04-2.98118E-05-6.36564E-05-1.18527E-05 6.83344E-18-1.23455E-19
 -1      2131 1.94009E-04-3.51042E-05-6.70072E-05 3.01113E-06 4.54264E-18-2.63427E-18
 -1      2132 2.01535E-04-3.29537E-05-7.01801E-05 2.10898E-06 4.87891E-18-2.05151E-18
 -1      2133 1.79140E-04-4.81230E-05-5.59751E-05-1.95784E-06 2.93412E-18-3.52196E-18
 -1      2134 1.95131E-04-4.42950E-05-6.32058E-05 5.02835E-07 3.86311E-18-3.22677E-18
 -1      2135 1.50510E-04-6.00847E-05-3.93040E-05-1.53018E-05 1.10114E-18-3.84426E-18
 -1      2136 1.72234E-04-5.86293E-05-4.82880E-05-1.12920E-05 1.66506E-18-3.75913E-18
 -1      2137 1.00208E-04-5.46503E-05-2.09562E-05-3.20505E-05 1.20872E-18-5.99488E-18
 -1      2138 1.28106E-04-5.84190E-05-3.02899E-05-3.24405E-05 1.17229E-18-5.33419E-18
 -1      2139 5.94218E-05-4.67123E-05-7.21633E-06-3.05957E-05 6.75085E-19-5.76289E-18
 -1      2140 7.98464E-05-4.75604E-05-1.45863E-05-3.72542E-05 1.71948E-18-6.46043E-18
 -1      2141 1.05540E-04-5.85895E-05-2.01584E-05-3.45890E-05-9.77053E-19-4.74677E-18
 -1      2142 2.61473E-05-3.80275E-05 3.40824E-06-1.84776E-05-3.68459E-19-5.13048E-18
 -1      2143 3.80505E-05-3.88078E-05-9.75940E-07-2.67511E-05 1.07107E-18-5.78566E-18
 -1      2144 1.11122E-05-3.16960E-05 7.38985E-06 1.41453E-06-1.76061E-18-4.96488E-18
 -1      2145 1.47807E-05-3.12647E-05 5.87712E-06-8.36768E-06-2.60039E-19-5.19401E-18
 -1      2146 1.40783E-05-2.77366E-05 4.90959E-06 2.16790E-05-2.48964E-18-4.59897E-18
 -1      2147 1.11572E-05-3.17644E-05 7.36153E-06 1.16861E-05-1.53196E-18-4.74720E-18
 -1      2148 1.23821E-05-1.88858E-05 2.23211E-06 6.43741E-06 2.75815E-20-5.39221E-18
 -1      2149 3.81179E-05-3.18630E-05-3.43474E-06 3.93163E-05-4.22161E-18-3.83812E-18
 -1      2150 2.69296E-05-3.31133E-05 1.44666E-06 3.21677E-05-2.77996E-18-3.90546E-18
 -1      2151 7.23012E-05-3.50907E-05-1.61028E-05 4.85077E-05-4.34740E-18-3.36780E-18
 -1      2152 5.53108E-05-3.72340E-05-8.93311E-06 4.19594E-05-4.09837E-18-3.53591E-18
 -1      2153 1.10883E-04-3.63089E-05-3.15809E-05 4.78230E-05-5.56755E-18-2.44327E-18
 -1      2154 9.13233E-05-3.85472E-05-2.34234E-05 4.40989E-05-5.01698E-18-2.98876E-18
 -1      2155 1.47710E-04-3.55666E-05-4.72132E-05 3.97104E-05-5.66009E-18-2.10954E-18
 -1      2156 1.26017E-04-3.58049E-05-3.90189E-05 3.99596E-05-6.00589E-18-2.52035E-18
 -1      2157 1.76071E-04-3.22723E-05-6.05645E-05 2.47287E-05-5.58618E-18-1.17907E-18
 -1      2158 1.58235E-04-3.14114E-05-5.40663E-05 3.03454E-05-5.93439E-18-2.08878E-18
 -1      2159 1.84791E-04-2.52033E-05-6.75343E-05 6.76597E-06-5.08770E-18-9.52912E-20
 -1      2160 1.78031E-04-2.62733E-05-6.43187E-05 1.54334E-05-5.47628E-18-1.15154E-18
 -1      2161 1.87729E-04-2.35203E-05-6.93796E-05-5.40182E-06-4.18392E-18 1.00776E-18
 -1      2162 1.85346E-04-2.20412E-05-6.92063E-05 3.24553E-06-4.67012E-18-8.12093E-20
 -1      2163 1.75479E-04-2.47973E-05-6.38749E-05-1.51434E-05-3.06668E-18 1.41327E-18
 -1      2164 1.88189E-04-2.57177E-05-6.81275E-05-9.49030E-06-3.52323E-18 1.29660E-18
 -1      2165 1.63764E-04-1.25177E-05-6.38026E-05-4.68375E-07-3.88195E-18-1.07986E-18
 -1      2166 1.55354E-04-3.30774E-05-5.19648E-05-3.19666E-05-2.53750E-18 3.31020E-18
 -1      2167 1.71577E-04-3.26349E-05-5.86634E-05-2.39279E-05-2.39954E-18 2.26243E-18
 -1      2168 1.23981E-04-4.05182E-05-3.61963E-05-3.88221E-05-1.80460E-18 2.97817E-18
 -1      2169 1.45051E-04-3.91773E-05-4.46093E-05-3.90719E-05-2.10276E-18 3.58718E-18
 -1      2170 8.60813E-05-4.27367E-05-1.95471E-05-4.35974E-05-1.49078E-19 4.17566E-18
 -1      2171 1.06783E-04-4.02429E-05-2.82720E-05-4.80619E-05-1.34297E-18 3.68205E-18
 -1      2172 5.00356E-05-4.11554E-05-4.94454E-06-4.02089E-05 1.76268E-18 4.09821E-18
 -1      2173 6.59869E-05-3.82529E-05-1.22282E-05-4.66964E-05-2.11758E-19 4.49203E-18
 -1      2174 2.06633E-05-3.66418E-05 5.53766E-06-2.48515E-05 3.65791E-18 4.95684E-18
 -1      2175 3.03748E-05-3.39865E-05 8.41615E-07-3.52646E-05 2.29588E-18 5.21857E-18
 -1      2176 2.00820E-05-2.46586E-05 1.52773E-06-2.44405E-05 3.00591E-18 5.26431E-18
 -1      2177 1.81869E-04-5.30801E-05-5.44380E-05 1.07834E-05 5.55317E-18-4.06576E-19
 -1      2178 1.61373E-04-5.34480E-05-4.62782E-05 1.80426E-05 5.36638E-18 1.23328E-18
 -1      2179 1.61165E-04-6.32104E-05-4.15464E-05 9.05215E-06 4.47360E-18-7.53012E-19
 -1      2180 1.24665E-04-6.31638E-05-2.64554E-05 2.93802E-05 4.16317E-18-1.87830E-19
 -1      2181 1.01275E-04-2.59630E-05-3.23749E-05-1.18996E-05-2.02441E-18-3.11913E-18
 -1      2182 1.80211E-04-4.97416E-05-5.49411E-05-7.97655E-06 6.25121E-18-7.79270E-19
 -1      2183 1.00856E-04-2.52217E-05-3.24718E-05-1.30187E-05-1.99774E-18-3.27480E-18
 -1      2184 4.24889E-05-3.53760E-05-3.49091E-06 3.01102E-05 2.20186E-18 2.92142E-18
 -1      2185 1.79515E-05-2.18235E-05 1.45631E-06 4.97283E-06 2.19429E-18 4.00138E-18
 -1      2186 9.52371E-05-2.85724E-05-2.85706E-05 2.00597E-09 1.31952E-18-4.13325E-19
 -1      2187 4.81302E-05-3.70135E-05-5.14546E-06-4.37081E-05 2.60336E-18 5.29014E-18
 -1      2188 9.03309E-05-4.90454E-05-1.77557E-05-4.78056E-05 1.70127E-18 3.59481E-18
 -1      2189 1.27848E-04-5.25006E-05-3.19547E-05-3.59965E-05 7.01767E-19 1.85924E-18
 -1      2190 1.67242E-04-2.78240E-05-5.91069E-05-1.04850E-05-2.23511E-18 3.13402E-19
 -1      2191 1.54730E-04-2.05456E-05-5.80959E-05 2.96229E-06-1.99582E-18-1.82705E-18
 -1      2192 1.55242E-04-2.98421E-05-5.34957E-05-3.16501E-06-1.36796E-18-1.74701E-18
 -1      2193 1.63950E-04-1.31727E-05-6.36522E-05-8.80578E-07-5.24102E-18-9.32583E-19
 -1      2194 1.63895E-04-2.48356E-05-5.85785E-05 5.38895E-06-5.66983E-18-8.12305E-19
 -1      2195 1.54130E-04-3.89684E-05-4.85665E-05 1.97290E-05-4.89635E-18-5.21349E-19
 -1      2196 1.29652E-04-4.70414E-05-3.50931E-05 3.51663E-05-3.71615E-18-5.89111E-19
 -1      2197 9.46372E-05-4.54764E-05-2.11077E-05 4.66198E-05-1.87491E-18-1.36288E-18
 -1      2198 2.43709E-05-2.40968E-05-5.95780E-07 3.18095E-05-2.37593E-19-4.32199E-18
 -1      2199 6.08448E-05-4.28474E-05-8.27936E-06-3.55136E-05-5.34478E-19-5.74066E-18
 -1      2200 1.47904E-04-6.71612E-05-3.43495E-05-1.58538E-05-7.80964E-19-2.30393E-18
 -1      2201 1.73290E-04-5.64121E-05-4.96255E-05 9.99755E-06 7.55342E-19-2.05829E-19
 -1      2202 1.79592E-04-2.44407E-05-6.48192E-05 1.13655E-06 5.64293E-18 2.94370E-19
 -1      2203 1.79150E-04-3.58376E-05-6.02816E-05 1.46274E-05 3.45251E-18 6.45016E-19
 -1      2204 2.48346E-05-2.67453E-05 1.47648E-07-1.81849E-05-3.10438E-19-5.85766E-18
 -1      2205 5.65237E-05-3.53583E-05-9.34485E-06 4.75905E-05-8.08069E-19-2.76408E-18
 -1      2206 1.52001E-04-4.32295E-05-4.60185E-05-1.97632E-05-8.55636E-19 5.40407E-19
 -1      2207 1.13830E-04-3.10907E-05-3.54050E-05-1.33196E-05 7.88783E-19 3.01151E-18
 -1      2208 1.11940E-04-2.88090E-05-3.55411E-05-1.06747E-05 1.34617E-18 3.22205E-18
 -1      2209 9.36613E-05-1.81706E-05-3.23741E-05 2.51401E-06 2.02295E-18-2.63035E-18
 -1      2210 9.53718E-05-1.88693E-05-3.28352E-05-1.59653E-07 1.62709E-18-2.95541E-18
 -1      2211 9.65135E-05-1.91671E-05-3.31756E-05-3.05041E-06 1.29192E-18-3.12998E-18
 -1      2212 9.73110E-05-1.94211E-05-3.34605E-05-5.50731E-06 8.77803E-19-3.41487E-18
 -1      2213 9.85527E-05-2.23849E-05-3.26726E-05-1.59130E-06 1.33909E-18-2.73305E-18
 -1      2214 8.07941E-05-1.12964E-05-2.98522E-05 1.30809E-05 3.21997E-18-2.06659E-18
 -1      2215 8.48052E-05-1.34918E-05-3.05167E-05 1.11549E-05 2.97840E-18-2.20620E-18
 -1      2216 7.19771E-05-5.52856E-06-2.85758E-05 1.53109E-05 3.62413E-18-2.02843E-18
 -1      2217 7.62038E-05-8.03164E-06-2.91240E-05 1.46732E-05 3.43644E-18-2.10583E-18
 -1      2218 8.01320E-05-1.25919E-05-2.90203E-05 1.58493E-05 3.32462E-18-1.91579E-18
 -1      2219 6.50541E-05-2.80644E-07-2.78537E-05 1.38361E-05 3.74959E-18-1.89272E-18
 -1      2220 6.78485E-05-2.15352E-06-2.80594E-05 1.47511E-05 3.70324E-18-2.07601E-18
 -1      2221 7.04276E-05-5.84279E-06-2.76771E-05 1.72292E-05 3.71926E-18-1.95662E-18
 -1      2222 6.35011E-05 2.00150E-06-2.81238E-05 9.01896E-06 3.75119E-18-1.42051E-18
 -1      2223 6.32401E-05 1.70272E-06-2.77975E-05 1.11021E-05 3.70866E-18-1.73126E-18
 -1      2224 6.34984E-05-2.85277E-07-2.70104E-05 1.38901E-05 3.76206E-18-1.79760E-18
 -1      2225 7.00144E-05-8.28579E-07-2.96525E-05 3.12674E-06 3.46478E-18-7.04399E-19
 -1      2226 6.57771E-05 1.09485E-06-2.87207E-05 5.23115E-06 3.53979E-18-1.16473E-18
 -1      2227 6.34914E-05 9.71405E-07-2.74946E-05 6.89819E-06 3.55850E-18-1.39398E-18
 -1      2228 8.40927E-05-8.69569E-06-3.22776E-05-1.14654E-06 3.05891E-18 6.01966E-19
 -1      2229 7.63860E-05-4.66070E-06-3.08792E-05 4.20553E-08 3.15673E-18-1.31968E-19
 -1      2230 7.24198E-05-3.78664E-06-2.93398E-05-4.33643E-07 3.11542E-18-5.58340E-19
 -1      2231 1.19168E-04-3.77923E-05-3.48209E-05-1.62147E-05-5.87497E-19 2.57694E-18
 -1      2232 1.15470E-04-3.37469E-05-3.48250E-05-1.60775E-05 5.04448E-20 2.71519E-18
 -1      2233 1.04948E-04-2.84996E-05-3.28181E-05-1.64016E-05 6.42058E-19 1.43633E-18
 -1      2234 1.00760E-04-2.79805E-05-3.11601E-05-1.02626E-05-1.32963E-18-2.87763E-18
 -1      2235 9.96051E-05-2.85535E-05-3.04818E-05-9.04314E-06-1.18353E-18-2.77743E-18
 -1      2236 1.71595E-04-4.46356E-05-5.46883E-05-1.94895E-05 5.87671E-18-1.12613E-18
 -1      2237 1.68433E-04-5.40671E-05-4.91089E-05-1.39691E-05 4.76138E-18-1.62334E-18
 -1      2238 9.91909E-05-2.90324E-05-3.00234E-05-8.55805E-06-1.15065E-18-2.47345E-18
 -1      2239 9.79580E-05-2.89218E-05-2.95898E-05-8.08476E-06-9.30408E-19-2.54951E-18
 -1      2240 1.00832E-04-2.87683E-05-3.08756E-05-9.98645E-06-1.14736E-18-2.51354E-18
 -1      2241 9.71586E-05-2.87080E-05-2.93151E-05-7.79974E-06-8.81384E-19-2.44151E-18
 -1      2242 9.59473E-05-2.81753E-05-2.90272E-05-7.42675E-06-9.32127E-19-2.53748E-18
 -1      2243 9.95916E-05-2.91583E-05-3.01821E-05-9.10814E-06-9.39410E-19-2.18266E-18
 -1      2244 9.49402E-05-2.75507E-05-2.88784E-05-6.94507E-06-8.99397E-19-2.49675E-18
 -1      2245 9.38430E-05-2.68138E-05-2.86917E-05-6.29327E-06-7.81926E-19-2.52600E-18
 -1      2246 9.77853E-05-2.82363E-05-2.98072E-05-8.30476E-06-9.33169E-19-2.16571E-18
 -1      2247 9.28319E-05-2.60468E-05-2.86221E-05-5.31351E-06-6.98675E-19-2.74480E-18
 -1      2248 9.20006E-05-2.53697E-05-2.85134E-05-4.22328E-06-6.28929E-19-2.75183E-18
 -1      2249 9.57349E-05-2.65996E-05-2.96399E-05-6.76956E-06-9.39518E-19-2.31429E-18
 -1      2250 9.12610E-05-2.47785E-05-2.84819E-05-2.69877E-06-8.87532E-19-2.78626E-18
 -1      2251 9.08647E-05-2.44299E-05-2.84359E-05-1.25391E-06-8.84200E-19-2.95024E-18
 -1      2252 9.39403E-05-2.49788E-05-2.95795E-05-4.10731E-06-8.09250E-19-2.37398E-18
 -1      2253 9.06406E-05-2.42847E-05-2.84110E-05 5.65710E-07-7.13250E-19-2.94994E-18
 -1      2254 9.07716E-05-2.44240E-05-2.84164E-05 2.07645E-06-5.84459E-19-2.95463E-18
 -1      2255 9.29533E-05-2.41054E-05-2.95392E-05-5.22032E-07-8.87102E-19-2.49049E-18
 -1      2256 9.11224E-05-2.48050E-05-2.83829E-05 3.75262E-06-7.58683E-19-2.91129E-18
 -1      2257 9.17313E-05-2.53966E-05-2.84311E-05 4.97446E-06-7.91963E-19-2.78992E-18
 -1      2258 9.31007E-05-2.44166E-05-2.94644E-05 3.23051E-06-6.73345E-19-2.44151E-18
 -1      2259 9.24854E-05-2.61511E-05-2.83908E-05 6.10098E-06-7.18615E-19-2.82814E-18
 -1      2260 9.33946E-05-2.69905E-05-2.84742E-05 6.78123E-06-4.50157E-19-2.82788E-18
 -1      2261 9.42659E-05-2.58274E-05-2.93430E-05 6.21759E-06-7.94814E-19-2.59606E-18
 -1      2262 9.42520E-05-2.78351E-05-2.84394E-05 7.17083E-06-3.14042E-19-2.78322E-18
 -1      2263 9.52340E-05-2.86658E-05-2.85480E-05 7.25212E-06-5.24718E-20-2.86992E-18
 -1      2264 9.59519E-05-2.78056E-05-2.92000E-05 7.79670E-06-4.48147E-19-2.56480E-18
 -1      2265 9.59288E-05-2.93451E-05-2.85298E-05 6.97653E-06-7.59021E-20-2.72944E-18
 -1      2266 9.67938E-05-2.99782E-05-2.86501E-05 6.57782E-06 1.83314E-19-2.38859E-18
 -1      2267 9.75647E-05-2.96896E-05-2.90735E-05 7.86527E-06 8.58266E-20-2.34642E-18
 -1      2268 9.71953E-05-3.03669E-05-2.86515E-05 5.87109E-06 1.95761E-19-2.77255E-18
 -1      2269 9.78381E-05-3.07312E-05-2.87680E-05 5.19632E-06-4.87912E-20-2.70248E-18
 -1      2270 9.86940E-05-3.10109E-05-2.89899E-05 6.77941E-06 1.88218E-19-2.52280E-18
 -1      2271 9.79481E-05-3.08343E-05-2.87842E-05 4.32127E-06-3.34224E-19-2.64571E-18
 -1      2272 9.83460E-05-3.09550E-05-2.88832E-05 3.56936E-06 6.71158E-20-2.58003E-18
 -1      2273 9.92127E-05-3.16217E-05-2.89545E-05 5.08427E-06-2.40258E-19-2.58298E-18
 -1      2274 9.82407E-05-3.08521E-05-2.89053E-05 2.72895E-06 3.88593E-19-2.52681E-18
 -1      2275 9.84246E-05-3.08019E-05-2.89783E-05 2.04255E-06 6.02810E-19-2.69274E-18
 -1      2276 9.92084E-05-3.16279E-05-2.89556E-05 3.27359E-06 9.66805E-20-1.80843E-18
 -1      2277 9.81971E-05-3.05892E-05-2.89975E-05 1.35208E-06 1.32392E-19-2.87690E-18
 -1      2278 9.82208E-05-3.04458E-05-2.90416E-05 8.06375E-07-4.75902E-20-2.71035E-18
 -1      2279 9.88597E-05-3.12471E-05-2.89741E-05 1.67471E-06 1.89699E-19-2.49818E-18
 -1      2280 9.79471E-05-3.02012E-05-2.90522E-05 3.05722E-07-1.08785E-19-2.99606E-18
 -1      2281 9.78658E-05-3.00254E-05-2.90693E-05-7.87563E-08 1.53980E-20-2.88411E-18
 -1      2282 9.83419E-05-3.06937E-05-2.89923E-05 4.40922E-07-2.51508E-19-2.52189E-18
 -1      2283 9.75950E-05-2.97976E-05-2.90690E-05-3.98434E-07-1.36280E-19-2.90773E-18
 -1      2284 9.74545E-05-2.96273E-05-2.90643E-05-6.35398E-07 1.05707E-19-2.87416E-18
 -1      2285 9.77829E-05-3.01234E-05-2.89988E-05-4.02458E-07-1.37973E-19-2.50434E-18
 -1      2286 9.72121E-05-2.94393E-05-2.90537E-05-8.06853E-07 3.62613E-19-3.00604E-18
 -1      2287 9.70465E-05-2.92936E-05-2.90334E-05-9.26100E-07 5.06541E-19-3.04694E-18
 -1      2288 9.72584E-05-2.96238E-05-2.89887E-05-9.02805E-07 1.82447E-19-2.68629E-18
 -1      2289 9.68422E-05-2.91510E-05-2.90148E-05-9.88891E-07 6.67252E-19-3.18744E-18
 -1      2290 9.66742E-05-2.90358E-05-2.89852E-05-1.02384E-06 8.56858E-19-3.31925E-18
 -1      2291 9.68036E-05-2.92295E-05-2.89628E-05-1.13711E-06 6.48955E-19-2.45464E-18
 -1      2292 9.65084E-05-2.89348E-05-2.89615E-05-1.01471E-06 1.07048E-18-3.23697E-18
 -1      2293 9.63517E-05-2.88491E-05-2.89278E-05-9.95412E-07 8.20344E-19-2.54982E-18
 -1      2294 9.64281E-05-2.89423E-05-2.89248E-05-1.18518E-06 9.61970E-19-2.87846E-18
 -1      2295 9.62206E-05-2.87818E-05-2.89019E-05-9.44126E-07 7.28771E-19-2.35677E-18
 -1      2296 9.60826E-05-2.87211E-05-2.88679E-05-8.94369E-07 5.82342E-19-1.96488E-18
 -1      2297 9.61279E-05-2.87472E-05-2.88796E-05-1.11603E-06 1.10449E-18-2.81414E-18
 -1      2298 9.59807E-05-2.86790E-05-2.88421E-05-8.22763E-07-1.37734E-19-1.67099E-18
 -1      2299 9.58642E-05-2.86378E-05-2.88104E-05-7.59656E-07-1.42662E-19-1.90527E-18
 -1      2300 9.58933E-05-2.86238E-05-2.88316E-05-9.83002E-07 5.09901E-19-2.94673E-18
 -1      2301 9.57861E-05-2.86135E-05-2.87863E-05-6.82451E-07-2.05606E-21-1.72384E-18
 -1      2302 9.56911E-05-2.85869E-05-2.87584E-05-6.17237E-07 2.27746E-19-1.92924E-18
 -1      2303 9.57128E-05-2.85523E-05-2.87846E-05-8.23858E-07 1.50532E-20-2.19521E-18
 -1      2304 9.56320E-05-2.85743E-05-2.87369E-05-5.43470E-07 3.30637E-19-2.18257E-18
 -1      2305 9.55569E-05-2.85581E-05-2.87134E-05-4.82806E-07 1.28632E-19-2.09958E-18
 -1      2306 9.55758E-05-2.85159E-05-2.87413E-05-6.63111E-07-1.85946E-19-1.66131E-18
 -1      2307 9.55126E-05-2.85529E-05-2.86950E-05-4.17346E-07-4.95418E-19-1.48284E-18
 -1      2308 9.54549E-05-2.85438E-05-2.86759E-05-3.64601E-07-7.39157E-19-1.18916E-18
 -1      2309 9.54732E-05-2.85018E-05-2.87031E-05-5.15106E-07-2.36881E-19-1.94009E-18
 -1      2310 9.54222E-05-2.85429E-05-2.86608E-05-3.09477E-07-8.88433E-19-1.66222E-18
 -1      2311 9.53790E-05-2.85385E-05-2.86458E-05-2.65833E-07-5.17924E-19-1.95699E-18
 -1      2312 9.53972E-05-2.85010E-05-2.86707E-05-3.86946E-07-1.17232E-18-1.22843E-18
 -1      2313 9.53552E-05-2.85399E-05-2.86337E-05-2.21282E-07-6.48412E-19-2.17510E-18
 -1      2314 9.53239E-05-2.85384E-05-2.86222E-05-1.86585E-07-6.58030E-19-2.42963E-18
 -1      2315 9.53417E-05-2.85072E-05-2.86441E-05-2.80943E-07-8.03110E-19-5.91541E-20
 -1      2316 9.53069E-05-2.85410E-05-2.86128E-05-1.51819E-07 7.93912E-20-2.24397E-18
 -1      2317 9.52849E-05-2.85412E-05-2.86044E-05-1.25185E-07 9.21531E-19-2.56554E-18
 -1      2318 9.53019E-05-2.85166E-05-2.86229E-05-1.96490E-07-3.14977E-19-2.60874E-19
 -1      2319 9.52730E-05-2.85440E-05-2.85972E-05-9.89123E-08 1.08654E-18-2.86447E-18
 -1      2320 9.52582E-05-2.85452E-05-2.85912E-05-7.91353E-08 9.39270E-19-2.45719E-18
 -1      2321 9.52739E-05-2.85266E-05-2.86065E-05-1.31390E-07 1.04412E-18-1.34900E-18
 -1      2322 9.52501E-05-2.85479E-05-2.85860E-05-5.99014E-08 9.61636E-19-2.49054E-18
 -1      2323 9.52406E-05-2.85495E-05-2.85818E-05-4.57064E-08 1.77499E-18-1.18189E-18
 -1      2324 9.52547E-05-2.85362E-05-2.85941E-05-8.27508E-08 1.35557E-18-1.38994E-18
 -1      2325 9.52354E-05-2.85520E-05-2.85781E-05-3.20938E-08 1.85997E-18-1.64572E-18
 -1      2326 9.52298E-05-2.85537E-05-2.85754E-05-2.22827E-08 8.59767E-19-1.24020E-18
 -1      2327 9.52421E-05-2.85445E-05-2.85850E-05-4.75475E-08 1.53253E-18-1.40756E-18
 -1      2328 9.52265E-05-2.85557E-05-2.85729E-05-1.30174E-08-7.27854E-20-1.77203E-18
 -1      2329 9.52237E-05-2.85574E-05-2.85712E-05-6.54079E-09-2.13540E-19-2.14831E-18
 -1      2330 9.52341E-05-2.85514E-05-2.85785E-05-2.29419E-08 5.44134E-19-1.74427E-18
 -1      2331 9.52219E-05-2.85590E-05-2.85695E-05-5.38735E-10 4.42570E-19-1.86777E-18
 -1      2332 9.52208E-05-2.85606E-05-2.85687E-05 3.47877E-09 1.04932E-18-1.01245E-18
 -1      2333 9.52295E-05-2.85570E-05-2.85741E-05-6.44400E-09 3.15171E-20-1.58520E-18
 -1      2334 9.52200E-05-2.85618E-05-2.85676E-05 7.10350E-09 4.89410E-19-4.43230E-19
 -1      2335 9.52202E-05-2.85632E-05-2.85673E-05 9.36458E-09 5.79103E-19 8.17581E-20
 -1      2336 9.52272E-05-2.85613E-05-2.85712E-05 4.03018E-09 1.64070E-18 3.90930E-19
 -1      2337 9.52200E-05-2.85641E-05-2.85667E-05 1.13123E-08 9.61104E-19 8.10809E-19
 -1      2338 9.52209E-05-2.85653E-05-2.85667E-05 1.23632E-08 9.29092E-19 1.36750E-18
 -1      2339 9.52265E-05-2.85645E-05-2.85695E-05 1.01618E-08 1.24231E-18 9.06955E-19
 -1      2340 9.52211E-05-2.85660E-05-2.85664E-05 1.31713E-08-1.71078E-19 6.79323E-19
 -1      2341 9.52224E-05-2.85669E-05-2.85666E-05 1.34244E-08-7.16343E-19 6.00340E-19
 -1      2342 9.52267E-05-2.85669E-05-2.85685E-05 1.32655E-08-7.25588E-20 4.96316E-19
 -1      2343 9.52229E-05-2.85674E-05-2.85666E-05 1.34940E-08 5.38286E-19 6.99612E-19
 -1      2344 9.52243E-05-2.85682E-05-2.85669E-05 1.32513E-08 1.13538E-18 1.91553E-18
 -1      2345 9.52276E-05-2.85686E-05-2.85681E-05 1.43404E-08-1.88496E-20 5.39770E-19
 -1      2346 9.52249E-05-2.85686E-05-2.85670E-05 1.28728E-08 1.80698E-19 1.95149E-18
 -1      2347 9.52263E-05-2.85692E-05-2.85674E-05 1.23482E-08 1.97548E-19 2.20667E-18
 -1      2348 9.52287E-05-2.85698E-05-2.85681E-05 1.41246E-08 1.01800E-18 1.40483E-18
 -1      2349 9.52270E-05-2.85694E-05-2.85675E-05 1.17245E-08 3.19397E-20 2.64560E-18
 -1      2350 9.52283E-05-2.85699E-05-2.85679E-05 1.10632E-08 3.36422E-19 2.60440E-18
 -1      2351 9.52300E-05-2.85707E-05-2.85683E-05 1.31462E-08 1.78580E-19 1.49591E-18
 -1      2352 9.52289E-05-2.85701E-05-2.85681E-05 1.03298E-08 1.11305E-19 2.18608E-18
 -1      2353 9.52302E-05-2.85704E-05-2.85685E-05 9.62428E-09 8.62177E-20 2.33804E-18
 -1      2354 9.52313E-05-2.85712E-05-2.85686E-05 1.17691E-08-2.60837E-19 2.32120E-18
 -1      2355 9.52308E-05-2.85706E-05-2.85687E-05 8.86472E-09 1.76977E-20 1.38825E-18
 -1      2356 9.52318E-05-2.85709E-05-2.85690E-05 8.16730E-09-4.86565E-19 3.79406E-19
 -1      2357 9.52325E-05-2.85716E-05-2.85690E-05 1.02301E-08-7.23998E-19 1.41298E-18
 -1      2358 9.52324E-05-2.85710E-05-2.85692E-05 7.42677E-09-1.70248E-18-5.77434E-20
 -1      2359 9.52333E-05-2.85712E-05-2.85695E-05 6.75972E-09-1.00683E-18-1.60951E-18
 -1      2360 9.52336E-05-2.85718E-05-2.85693E-05 8.67031E-09-1.65851E-18-5.06519E-19
 -1      2361 9.52338E-05-2.85713E-05-2.85696E-05 6.05344E-09 8.44797E-19-2.49921E-18
 -1      2362 9.52345E-05-2.85716E-05-2.85699E-05 5.41332E-09 9.27222E-19-2.53837E-18
 -1      2363 9.52346E-05-2.85720E-05-2.85697E-05 7.15986E-09-1.15852E-18-1.12914E-18
 -1      2364 9.52349E-05-2.85717E-05-2.85700E-05 4.74258E-09-1.50290E-19-2.23935E-18
 -1      2365 9.52356E-05-2.85719E-05-2.85702E-05 4.12254E-09-8.21644E-19-2.86601E-18
 -1      2366 9.52354E-05-2.85722E-05-2.85700E-05 5.70854E-09 3.80561E-19-2.21898E-18
 -1      2367 1.46933E-04-6.08206E-05-3.68715E-05 1.82897E-06-2.19313E-18 3.70979E-18
 -1      2368 1.40929E-04-5.70073E-05-3.56688E-05-6.55168E-06-2.28807E-18 3.36383E-18
 -1      2369 1.63931E-04-2.56740E-05-5.96918E-05-8.53964E-06 6.02113E-18 1.38305E-18
 -1      2370 1.63541E-04-2.43472E-05-5.95967E-05 4.55642E-06 4.93863E-18 2.33305E-18
 -1      2371 1.46196E-04-6.06758E-05-3.63805E-05 1.50077E-06 8.29245E-19-2.56582E-18
 -1      2372 1.51058E-04-6.17799E-05-3.83954E-05-6.87533E-06 1.77263E-18-2.35698E-18
 -1      2373 1.28793E-04-4.83081E-05-3.41627E-05 1.51168E-05-9.35760E-19-1.92342E-18
 -1      2374 1.35095E-04-5.41253E-05-3.47142E-05 9.27789E-06 4.02870E-20-2.30342E-18
 -1      2375 1.33881E-04-5.95095E-05-3.21183E-05 1.39880E-05 5.51418E-19-3.08458E-18
 -1      2376 1.16772E-04-3.75500E-05-3.37958E-05 1.97022E-05-1.17392E-18-1.24424E-18
 -1      2377 1.21809E-04-4.21918E-05-3.40966E-05 1.77060E-05-1.35732E-18-1.51569E-18
 -1      2378 1.16124E-04-4.46457E-05-3.07964E-05 2.19653E-05-1.20665E-18-2.21465E-18
 -1      2379 1.09921E-04-3.17388E-05-3.34824E-05 1.88736E-05-3.96226E-19-2.26945E-20
 -1      2380 1.13562E-04-3.43359E-05-3.39188E-05 1.91947E-05-5.56593E-19-6.41972E-19
 -1      2381 1.06403E-04-3.36938E-05-3.12386E-05 2.26507E-05-1.39195E-18-1.34554E-18
 -1      2382 1.05866E-04-2.92376E-05-3.28579E-05 1.56656E-05 1.32183E-19-2.26416E-20
 -1      2383 1.08587E-04-3.04907E-05-3.34245E-05 1.70576E-05-7.64811E-20 3.88973E-19
 -1      2384 1.02004E-04-2.83009E-05-3.15992E-05 1.98648E-05-5.45542E-19-3.50332E-19
 -1      2385 1.03410E-04-2.85185E-05-3.21165E-05 1.22434E-05 3.65611E-19 4.01224E-19
 -1      2386 1.05360E-04-2.90466E-05-3.26543E-05 1.37490E-05 4.51323E-19 3.07628E-19
 -1      2387 1.00227E-04-2.66173E-05-3.15364E-05 1.60805E-05 3.19986E-19 1.41967E-19
 -1      2388 1.01588E-04-2.84005E-05-3.13803E-05 9.21190E-06-5.56345E-19 1.10153E-18
 -1      2389 1.03084E-04-2.86406E-05-3.18515E-05 1.05451E-05-8.57588E-20 1.21393E-18
 -1      2390 9.93743E-05-2.65371E-05-3.11978E-05 1.24897E-05-2.09915E-19 8.98427E-19
 -1      2391 1.00148E-04-2.84585E-05-3.07324E-05 6.77517E-06 9.61846E-20 9.13456E-20
 -1      2392 1.01296E-04-2.85825E-05-3.11161E-05 7.83820E-06-2.33109E-19 6.25720E-19
 -1      2393 9.87522E-05-2.69534E-05-3.07561E-05 9.42428E-06-6.14645E-20 7.04386E-19
 -1      2394 9.89854E-05-2.85338E-05-3.01991E-05 4.91516E-06-2.58112E-19 1.46791E-18
 -1      2395 9.98631E-05-2.86103E-05-3.04985E-05 5.71919E-06 8.32177E-20 3.95650E-19
 -1      2396 9.81784E-05-2.74216E-05-3.03152E-05 6.97933E-06-1.54330E-19-1.50821E-19
 -1      2397 9.80172E-05-2.85850E-05-2.97595E-05 3.47834E-06-5.78095E-19 1.55905E-18
 -1      2398 9.87013E-05-2.86420E-05-2.99958E-05 4.09091E-06-6.40400E-19 1.35709E-18
 -1      2399 9.76214E-05-2.78054E-05-2.99153E-05 5.06980E-06-4.84943E-19 1.06156E-18
 -1      2400 9.72995E-05-2.86057E-05-2.94408E-05 2.48956E-06-4.11274E-19 1.46124E-18
 -1      2401 9.77836E-05-2.86477E-05-2.96076E-05 2.90970E-06 4.60988E-20 1.69231E-18
 -1      2402 9.71145E-05-2.80811E-05-2.95850E-05 3.64633E-06-3.13327E-19 1.18064E-18
 -1      2403 9.67405E-05-2.86080E-05-2.91996E-05 1.77367E-06-1.19740E-18 1.16367E-19
 -1      2404 9.70981E-05-2.86410E-05-2.93226E-05 2.07583E-06-1.18614E-18 8.53973E-19
 -1      2405 9.66864E-05-2.82549E-05-2.93288E-05 2.62992E-06-4.52254E-19 4.12528E-19
 -1      2406 9.63138E-05-2.86005E-05-2.90196E-05 1.25756E-06 1.48843E-20-1.07637E-19
 -1      2407 9.65758E-05-2.86262E-05-2.91095E-05 1.47417E-06-1.48416E-19-2.40274E-19
 -1      2408 9.63298E-05-2.83651E-05-2.91295E-05 1.88704E-06-2.13735E-19-6.69285E-19
 -1      2409 9.59929E-05-2.85895E-05-2.88866E-05 8.85934E-07 2.53313E-19-7.93454E-19
 -1      2410 9.61831E-05-2.86089E-05-2.89519E-05 1.04115E-06 2.24873E-19 3.16965E-20
 -1      2411 9.60423E-05-2.84334E-05-2.89772E-05 1.34616E-06 5.12153E-20-7.61549E-19
 -1      2412 9.57545E-05-2.85785E-05-2.87892E-05 6.18423E-07 8.84595E-20-3.28716E-19
 -1      2413 9.58915E-05-2.85926E-05-2.88363E-05 7.29769E-07 1.74361E-20-7.31100E-19
 -1      2414 9.58166E-05-2.84753E-05-2.88624E-05 9.53267E-07 1.31789E-19-1.42443E-18
 -1      2415 9.55733E-05-2.85691E-05-2.87157E-05 4.18233E-07 5.53015E-19-2.73420E-19
 -1      2416 9.56740E-05-2.85793E-05-2.87505E-05 5.00844E-07 4.70754E-19-1.59403E-19
 -1      2417 9.56397E-05-2.85011E-05-2.87751E-05 6.63123E-07 8.09673E-20-6.44820E-19
 -1      2418 9.54507E-05-2.85623E-05-2.86660E-05 2.83023E-07-1.70307E-19-6.48253E-19
 -1      2419 9.55174E-05-2.85686E-05-2.86892E-05 3.38788E-07-5.15740E-20-4.53664E-19
 -1      2420 9.55078E-05-2.85186E-05-2.87110E-05 4.53663E-07 6.51083E-19-9.55450E-19
 -1      2421 9.53641E-05-2.85581E-05-2.86308E-05 1.86587E-07 1.36382E-18-5.68518E-19
 -1      2422 9.54098E-05-2.85619E-05-2.86469E-05 2.26155E-07 3.92254E-19-1.49209E-18
 -1      2423 9.54135E-05-2.85296E-05-2.86657E-05 3.07634E-07 7.01895E-19-2.44004E-18
 -1      2424 9.53046E-05-2.85559E-05-2.86063E-05 1.18478E-07 2.08845E-18-4.96359E-19
 -1      2425 9.53351E-05-2.85579E-05-2.86172E-05 1.46271E-07 2.01699E-18-1.86147E-19
 -1      2426 9.53458E-05-2.85375E-05-2.86330E-05 2.03181E-07 1.39410E-18-2.45235E-18
 -1      2427 9.52648E-05-2.85553E-05-2.85896E-05 7.09745E-08-6.93432E-20 4.23530E-19
 -1      2428 9.52844E-05-2.85559E-05-2.85968E-05 9.02322E-08 9.32095E-19 2.22924E-19
 -1      2429 9.52983E-05-2.85436E-05-2.86098E-05 1.29165E-07 1.38278E-18-4.00462E-19
 -1      2430 9.52393E-05-2.85557E-05-2.85785E-05 3.84090E-08-1.50007E-19 3.97980E-19
 -1      2431 9.52513E-05-2.85555E-05-2.85831E-05 5.15257E-08 4.68360E-20 3.98133E-19
 -1      2432 9.52660E-05-2.85486E-05-2.85937E-05 7.74205E-08 2.04919E-19-1.34479E-20
 -1      2433 9.52235E-05-2.85570E-05-2.85712E-05 1.58018E-08-6.64049E-19 6.23879E-19
 -1      2434 9.52303E-05-2.85562E-05-2.85741E-05 2.47651E-08-1.95701E-19 9.98051E-19
 -1      2435 9.52444E-05-2.85527E-05-2.85825E-05 4.13011E-08-5.12086E-19 3.51206E-19
 -1      2436 9.52155E-05-2.85585E-05-2.85672E-05 2.13340E-09-1.87737E-18 4.56093E-19
 -1      2437 9.52184E-05-2.85575E-05-2.85686E-05 7.48435E-09-1.78228E-18 6.35210E-19
 -1      2438 9.52312E-05-2.85565E-05-2.85752E-05 1.72129E-08-1.11304E-18 2.09689E-19
 -1      2439 9.52121E-05-2.85602E-05-2.85650E-05-6.20584E-09-7.52340E-19 1.70472E-18
 -1      2440 9.52127E-05-2.85591E-05-2.85656E-05-3.02821E-09-1.25547E-18 1.08873E-18
 -1      2441 9.52239E-05-2.85594E-05-2.85707E-05 2.23525E-09-1.77462E-18 1.62972E-18
 -1      2442 9.52117E-05-2.85620E-05-2.85641E-05-1.08364E-08-4.12073E-19 1.87967E-18
 -1      2443 9.52109E-05-2.85609E-05-2.85642E-05-9.15247E-09-3.75813E-19 1.31844E-18
 -1      2444 9.52204E-05-2.85619E-05-2.85681E-05-6.88260E-09-9.54406E-19 9.20586E-19
 -1      2445 9.52132E-05-2.85636E-05-2.85641E-05-1.29686E-08 2.10832E-18 7.78059E-19
 -1      2446 9.52116E-05-2.85626E-05-2.85638E-05-1.22746E-08 1.35262E-18 1.18713E-18
 -1      2447 9.52194E-05-2.85640E-05-2.85667E-05-1.19425E-08 1.10142E-18 2.01254E-20
 -1      2448 9.52158E-05-2.85652E-05-2.85645E-05-1.34617E-08-4.13129E-19 1.71235E-18
 -1      2449 9.52137E-05-2.85642E-05-2.85641E-05-1.34222E-08 1.05721E-18 1.64707E-18
 -1      2450 9.52200E-05-2.85657E-05-2.85662E-05-1.42813E-08 1.03389E-18 1.68851E-18
 -1      2451 9.52187E-05-2.85665E-05-2.85652E-05-1.29122E-08-5.30677E-19 8.91028E-19
 -1      2452 9.52166E-05-2.85656E-05-2.85647E-05-1.32629E-08-1.21758E-19 7.20297E-19
 -1      2453 9.52216E-05-2.85672E-05-2.85662E-05-1.47954E-08 7.45967E-20 6.21283E-19
 -1      2454 9.52217E-05-2.85675E-05-2.85661E-05-1.18173E-08-1.35819E-18 7.64268E-19
 -1      2455 9.52197E-05-2.85668E-05-2.85655E-05-1.23702E-08-8.80065E-19 2.48247E-19
 -1      2456 9.52236E-05-2.85683E-05-2.85666E-05-1.41941E-08-2.54413E-19 7.62143E-19
 -1      2457 9.52247E-05-2.85685E-05-2.85669E-05-1.04601E-08 4.92747E-19-7.83195E-19
 -1      2458 9.52228E-05-2.85679E-05-2.85664E-05-1.10996E-08-2.69995E-19 1.86382E-19
 -1      2459 9.52257E-05-2.85691E-05-2.85671E-05-1.29894E-08-4.42249E-19-4.22001E-20
 -1      2460 9.52273E-05-2.85692E-05-2.85677E-05-9.02584E-09-1.07587E-19-4.75361E-19
 -1      2461 9.52257E-05-2.85687E-05-2.85673E-05-9.68021E-09 6.83315E-19-1.32278E-18
 -1      2462 9.52278E-05-2.85698E-05-2.85677E-05-1.14961E-08 7.62152E-19-3.15925E-19
 -1      2463 9.52297E-05-2.85699E-05-2.85685E-05-7.62205E-09 3.14987E-20 2.94920E-21
 -1      2464 9.52282E-05-2.85695E-05-2.85681E-05-8.25147E-09-7.01763E-19-9.26669E-19
 -1      2465 9.52298E-05-2.85703E-05-2.85683E-05-9.91566E-09-4.47132E-19-2.24436E-18
 -1      2466 9.52318E-05-2.85704E-05-2.85692E-05-6.23321E-09-1.66785E-18 4.31147E-19
 -1      2467 9.52305E-05-2.85701E-05-2.85688E-05-6.85085E-09 2.58329E-19 9.38565E-19
 -1      2468 9.52315E-05-2.85708E-05-2.85689E-05-8.32758E-09-7.38994E-19-1.16029E-18
 -1      2469 9.52335E-05-2.85709E-05-2.85697E-05-4.99600E-09-2.26128E-18 6.89238E-19
 -1      2470 9.52325E-05-2.85706E-05-2.85694E-05-5.55045E-09-2.15551E-18 5.21699E-19
 -1      2471 9.52331E-05-2.85711E-05-2.85694E-05-6.81951E-09-2.09944E-18-3.66272E-19
 -1      2472 9.52348E-05-2.85713E-05-2.85701E-05-3.81186E-09 1.82676E-19-1.86704E-18
 -1      2473 9.52341E-05-2.85710E-05-2.85699E-05-4.35217E-09-3.55801E-19 1.12626E-19
 -1      2474 9.52344E-05-2.85715E-05-2.85698E-05-5.44185E-09-5.65642E-19-2.80212E-18
 -1      2475 9.52360E-05-2.85716E-05-2.85704E-05-2.65885E-09 3.09765E-18-2.50258E-18
 -1      2476 9.52354E-05-2.85714E-05-2.85703E-05-3.19282E-09 3.14039E-19-1.92182E-18
 -1      2477 9.52355E-05-2.85718E-05-2.85702E-05-4.12051E-09 1.11650E-18-3.81318E-18
 -1      2478 9.52364E-05-2.85718E-05-2.85706E-05-2.04152E-09 3.55526E-18-1.30681E-18
 -1      2479 9.52394E-05-2.85763E-05-2.85699E-05-3.25941E-09 2.46707E-18-1.85275E-18
 -1      2480 9.52390E-05-2.85758E-05-2.85700E-05-3.56031E-09 1.45406E-18-4.37975E-18
 -1      2481 9.52399E-05-2.85771E-05-2.85698E-05-2.29350E-09 1.47163E-18 7.77769E-19
 -1      2482 9.52397E-05-2.85767E-05-2.85698E-05-2.77783E-09 2.08096E-18-4.99227E-19
 -1      2483 9.52398E-05-2.85765E-05-2.85700E-05-3.46253E-09 2.68739E-18-1.03376E-18
 -1      2484 9.52377E-05-2.85740E-05-2.85702E-05-3.81840E-09-4.66201E-19-4.05086E-18
 -1      2485 9.52373E-05-2.85734E-05-2.85703E-05-3.65423E-09 6.22568E-19-4.11982E-18
 -1      2486 9.52386E-05-2.85752E-05-2.85700E-05-3.79860E-09-2.18896E-19-5.07299E-18
 -1      2487 9.52382E-05-2.85746E-05-2.85701E-05-3.86918E-09-2.93673E-19-3.50050E-18
 -1      2488 9.52379E-05-2.85743E-05-2.85701E-05-4.45944E-09 1.47137E-18-3.78431E-18
 -1      2489 9.52389E-05-2.85755E-05-2.85700E-05-4.23756E-09 1.26747E-18-3.93372E-18
 -1      2490 9.52402E-05-2.85776E-05-2.85697E-05-1.04184E-09 3.44285E-19 1.52433E-18
 -1      2491 9.52401E-05-2.85774E-05-2.85697E-05-1.64164E-09 1.21516E-18 6.21107E-20
 -1      2492 9.52404E-05-2.85772E-05-2.85699E-05-2.25205E-09 1.63421E-18 9.58475E-20
 -1      2493 9.52403E-05-2.85777E-05-2.85697E-05 3.35959E-10 1.01868E-18 2.56122E-18
 -1      2494 9.52403E-05-2.85777E-05-2.85697E-05-3.02113E-10 1.84268E-19 3.01503E-18
 -1      2495 9.52407E-05-2.85776E-05-2.85699E-05-7.67434E-10 1.28441E-18 2.80581E-18
 -1      2496 9.52401E-05-2.85774E-05-2.85697E-05 1.67073E-09 3.96840E-19 1.57453E-18
 -1      2497 9.52402E-05-2.85776E-05-2.85697E-05 1.07391E-09 6.12536E-19 2.86513E-18
 -1      2498 9.52407E-05-2.85776E-05-2.85699E-05 8.07731E-10 1.73414E-18 2.67681E-18
 -1      2499 9.52397E-05-2.85767E-05-2.85698E-05 2.78102E-09 1.70125E-18 5.71422E-19
 -1      2500 9.52399E-05-2.85771E-05-2.85698E-05 2.30780E-09 1.13623E-18 3.00513E-19
 -1      2501 9.52403E-05-2.85772E-05-2.85699E-05 2.27370E-09 1.64867E-18 1.41757E-18
 -1      2502 9.52390E-05-2.85758E-05-2.85700E-05 3.55879E-09 2.76251E-18 1.73537E-18
 -1      2503 9.52393E-05-2.85763E-05-2.85699E-05 3.25949E-09 2.11372E-18-6.89988E-19
 -1      2504 9.52397E-05-2.85765E-05-2.85700E-05 3.46507E-09 1.28466E-18 3.75429E-19
 -1      2505 9.52382E-05-2.85746E-05-2.85701E-05 3.84840E-09 1.89465E-18 2.66977E-18
 -1      2506 9.52386E-05-2.85752E-05-2.85700E-05 3.79589E-09 2.02894E-18 3.95501E-18
 -1      2507 9.52389E-05-2.85755E-05-2.85700E-05 4.24195E-09 2.39398E-18 2.09061E-18
 -1      2508 9.52373E-05-2.85733E-05-2.85703E-05 3.61842E-09 1.65406E-18 2.35878E-19
 -1      2509 9.52377E-05-2.85740E-05-2.85702E-05 3.82106E-09 1.66971E-18 1.44829E-18
 -1      2510 9.52379E-05-2.85743E-05-2.85701E-05 4.43921E-09 1.54582E-18 1.83756E-18
 -1      2511 2.60637E-05-1.54617E-05-4.04862E-06 1.24263E-05 6.34428E-19 3.38136E-18
 -1      2512 2.02945E-05-1.38674E-05-2.18213E-06-4.71039E-06 1.64875E-18 3.08659E-18
 -1      2513 6.00451E-05-3.88610E-05-8.89636E-06 3.71893E-05 1.25319E-18 1.17272E-18
 -1      2514 4.16771E-05-2.71953E-05-5.86630E-06 2.91996E-05 3.13402E-19 2.09958E-18
 -1      2515 4.52806E-05-2.97340E-05-6.27723E-06-4.15641E-05 2.67281E-18 5.38861E-18
 -1      2516 6.50539E-05-3.85618E-05-1.12454E-05-4.91057E-05 2.19551E-18 4.74508E-18
 -1      2517 1.30538E-04-4.95770E-05-3.47317E-05-1.17482E-05-1.85320E-18 2.93535E-18
 -1      2518 1.24790E-04-4.33251E-05-3.45431E-05-1.59136E-05-1.50481E-18 2.58542E-18
 -1      2519 1.12359E-04-3.88470E-05-3.17380E-05-2.04879E-05-1.08621E-18 1.09209E-18
 -1      2520 1.27282E-04-5.36795E-05-3.17995E-05-1.60067E-05-2.33601E-18 1.28950E-18
 -1      2521 1.67651E-04-6.18598E-05-4.56111E-05-3.98737E-06 3.91006E-18-1.41963E-18
 -1      2522 1.56302E-04-6.47287E-05-3.93905E-05 5.00698E-06 3.64838E-18-1.53652E-18
 -1      2523 1.65383E-04-5.70878E-05-4.64519E-05-1.70098E-05 3.83568E-18-1.98545E-18
 -1      2524 9.52367E-05-2.85724E-05-2.85705E-05 2.56624E-09 1.58135E-18-2.20124E-19
 -1      2525 9.78791E-05-5.58218E-05-1.81699E-05 3.78022E-05 1.84738E-18-2.32934E-21
 -1      2526 7.88807E-05-4.84221E-05-1.30634E-05 3.75028E-05 1.52889E-18 5.76194E-19
 -1      2527 1.39066E-04-6.64947E-05-3.12899E-05 2.03784E-05 2.86890E-18-2.12881E-18
 -1      2528 1.17247E-04-6.24899E-05-2.36598E-05 2.92961E-05 2.40219E-18-1.30496E-18
 -1      2529 2.10917E-05-1.65970E-05-1.55527E-06-1.90478E-05 2.16046E-18 4.63115E-18
 -1      2530 2.87775E-05-2.10715E-05-3.03624E-06-3.21891E-05 2.15549E-18 5.93114E-18
 -1      2531 1.47741E-04-8.49764E-06-6.02715E-05-2.31647E-06-4.75355E-18-1.30512E-18
 -1      2532 1.48293E-04-1.18960E-05-5.89005E-05-4.55836E-06-5.22725E-18-7.21460E-19
 -1      2533 5.46097E-05-3.45515E-05-8.58201E-06-3.33958E-05-8.21410E-19-5.15102E-18
 -1      2534 7.60202E-05-4.36322E-05-1.40758E-05-3.79140E-05-9.95899E-19-4.74518E-18
 -1      2535 1.34036E-04-6.48092E-05-2.95396E-05-1.90826E-05-2.24887E-18-1.09648E-18
 -1      2536 1.50567E-04-6.56179E-05-3.67773E-05-4.79761E-06-1.84812E-18 7.98646E-19
 -1      2537 1.64029E-04-2.95088E-05-5.76927E-05-1.46260E-05 6.28287E-18 7.97905E-19
 -1      2538 8.84491E-05-1.56837E-05-3.12187E-05 8.28470E-06 2.73515E-18-2.22081E-18
 -1      2539 9.13763E-05-1.71232E-05-3.18278E-05 5.70650E-06 2.36839E-18-2.44307E-18
 -1      2540 9.52181E-05-2.11689E-05-3.17913E-05 4.57035E-06 2.11559E-18-2.23380E-18
 -1      2541 8.90515E-05-1.80329E-05-3.05166E-05 1.09263E-05 2.74598E-18-1.98759E-18
 -1      2542 2.40258E-05-1.70089E-05-2.77876E-06-1.43770E-05 3.26108E-20-5.36341E-18
 -1      2543 3.71242E-05-2.49366E-05-5.08083E-06-2.70551E-05-1.07573E-19-5.45659E-18
 -1      2544 5.34753E-05-2.70298E-05-1.07487E-05-3.04215E-05-5.36595E-19-5.06505E-18
 -1      2545 9.91799E-05-5.37599E-05-1.93173E-05-3.35339E-05-1.64621E-18-3.72067E-18
 -1      2546 1.17727E-04-6.03908E-05-2.46927E-05-3.01418E-05-1.75548E-18-2.85823E-18
 -1      2547 1.26842E-04-5.93115E-05-2.85114E-05-2.20193E-05-2.27238E-18-4.81793E-19
 -1      2548 9.29766E-05-4.66557E-05-1.92304E-05-3.35278E-05-1.75632E-18-3.57374E-18
 -1      2549 6.89608E-05-3.59766E-05-1.41187E-05 5.01514E-05 6.77415E-19-1.63774E-18
 -1      2550 5.22399E-05-2.97414E-05-9.36852E-06 4.57624E-05 1.13121E-18-2.41563E-18
 -1      2551 1.56732E-05-1.11800E-05-1.70114E-06 1.32606E-05 1.01416E-18-4.73407E-18
 -1      2552 1.65990E-05-1.17586E-05-1.70275E-06-2.61483E-07 9.75147E-19-5.06314E-18
 -1      2553 1.45244E-04-4.86233E-05-4.14649E-05-1.44469E-05 2.88203E-19-1.12994E-18
 -1      2554 1.53213E-04-4.20033E-05-4.78864E-05-1.01032E-05-5.38184E-19-1.75315E-18
 -1      2555 3.53456E-05-2.05154E-05-6.15766E-06 4.02712E-05 1.22883E-18-3.25494E-18
 -1      2556 2.27865E-05-1.44092E-05-3.19198E-06 2.71484E-05 1.62207E-18-4.21780E-18
 -1      2557 1.09808E-04-4.96537E-05-2.58720E-05 4.30010E-05-8.78797E-19 1.34890E-19
 -1      2558 9.10351E-05-4.51009E-05-1.94833E-05 4.60993E-05 1.74277E-19-5.32506E-19
 -1      2559 1.38267E-04-5.02678E-05-3.79545E-05 2.54884E-05-2.65767E-18 6.27651E-19
 -1      2560 1.25020E-04-5.15018E-05-3.15351E-05 3.20517E-05-1.79571E-18 5.98429E-19
 -1      2561 1.53142E-04-3.83315E-05-4.95909E-05 7.91546E-06-4.32611E-18 3.76294E-19
 -1      2562 1.45678E-04-4.42721E-05-4.36186E-05 1.44598E-05-3.58594E-18 5.30666E-19
 -1      2563 1.52318E-04-2.11896E-05-5.68388E-05-3.91744E-06-5.11290E-18-9.84676E-20
 -1      2564 1.53627E-04-2.91249E-05-5.35106E-05 4.61480E-07-4.83486E-18-4.87044E-21
 -1      2565 1.49814E-04-1.23503E-05-5.92870E-05 3.35774E-06-2.95572E-18-1.80153E-18
 -1      2566 1.48171E-04-8.73354E-06-6.03332E-05 1.12573E-06-3.91245E-18-2.06922E-18
 -1      2567 1.22131E-04-5.63489E-05-2.81198E-05-3.48211E-05 2.01340E-18 1.10443E-18
 -1      2568 1.36295E-04-5.55680E-05-3.49334E-05-2.73031E-05 1.10263E-18-4.78574E-20
 -1      2569 8.60727E-05-4.80049E-05-1.61033E-05-4.71117E-05 2.35433E-18 3.10044E-18
 -1      2570 1.04880E-04-5.30168E-05-2.23351E-05-4.52359E-05 2.05321E-18 2.21176E-18
 -1      2571 1.00444E-04-2.29060E-05-3.33060E-05-1.41960E-05-1.57898E-18-3.65336E-18
 -1      2572 1.00525E-04-2.63010E-05-3.18527E-05-1.12628E-05-1.50348E-18-3.21267E-18
 -1      2573 1.01071E-04-2.62529E-05-3.20096E-05-1.16447E-05-1.22132E-18-2.91744E-18
 -1      2574 9.91979E-05-2.11247E-05-3.34977E-05-1.37520E-05-1.16465E-18-3.71474E-18
 -1      2575 1.12979E-04-2.82963E-05-3.62668E-05-7.35150E-06 1.81625E-18 3.70983E-18
 -1      2576 1.12324E-04-2.64732E-05-3.67830E-05-2.98233E-06 2.09458E-18 4.10910E-18
 -1      2577 1.06247E-04-2.20906E-05-3.60565E-05-2.40743E-06 2.40015E-18 3.11748E-18
 -1      2578 1.04508E-04-2.41981E-05-3.43848E-05-9.75228E-06 1.82564E-18 2.24691E-18
 -1      2579 9.98934E-05-2.26154E-05-3.31218E-05-6.68939E-06 6.38935E-19-3.23888E-18
 -1      2580 9.78107E-05-1.94939E-05-3.35963E-05-7.79622E-06 5.28828E-19-3.73594E-18
 -1      2581 9.81179E-05-1.96439E-05-3.37428E-05-9.98438E-06 6.59379E-20-4.03759E-18
 -1      2582 9.67303E-05-1.64611E-05-3.45056E-05-2.40833E-06 2.69637E-18 1.82446E-18
 -1      2583 9.87084E-05-2.04655E-05-3.35671E-05-1.22806E-05-6.25305E-19-3.81959E-18
 -1      2584 8.22435E-05-4.35662E-05-1.61124E-05-4.64935E-05 2.36915E-18 3.39168E-18
 -1      2585 9.21178E-05-1.54016E-05-3.28593E-05-5.29139E-06 2.51994E-18 1.24450E-18
 -1      2586 9.52362E-05-2.85721E-05-2.85704E-05 3.09916E-09 2.07239E-18-1.26177E-18
 -1      2587 9.52368E-05-2.85728E-05-2.85703E-05 3.47175E-09 1.79672E-18 7.88292E-19
 -1      2588 9.52368E-05-2.85730E-05-2.85702E-05 4.23080E-09 1.36856E-18 1.10313E-18
 -1      2589 9.52358E-05-2.85719E-05-2.85702E-05 3.66539E-09 8.01896E-19-2.37979E-18
 -1      2590 9.52361E-05-2.85724E-05-2.85702E-05 4.51980E-09-2.25074E-19-3.80848E-19
 -1      2591 1.17943E-04-5.70778E-05-2.58021E-05-3.62533E-05 2.48890E-18 1.16573E-18
 -1      2592 1.44164E-04-1.55708E-05-5.53732E-05 5.17239E-06-2.33061E-18-2.37741E-18
 -1      2593 7.69831E-05-4.25974E-05-1.43922E-05 3.67871E-05-4.40669E-19-3.87518E-20
 -1      2594 1.59132E-04-6.31753E-05-4.12557E-05 1.02720E-05-1.72141E-18 3.10332E-18
 -1      2595 1.41710E-04-1.53843E-05-5.44001E-05-7.37990E-06-4.78489E-18-1.08526E-19
 -1      2596 1.60938E-04-5.55418E-05-4.54751E-05 1.66107E-05-6.52215E-20 3.16896E-18
 -1      2597 1.63899E-04-3.49805E-05-5.53810E-05 1.76667E-05 2.98706E-18 2.79796E-18
 -1      2598 1.66941E-04-4.78227E-05-5.14396E-05 2.23633E-05 1.32010E-18 3.49189E-18
 -1      2599 1.54878E-04-6.61580E-05-3.84484E-05-1.91188E-06 2.13177E-18-2.82973E-18
 -1      2600 1.59487E-04-6.06311E-05-4.23632E-05-1.62268E-05 2.69589E-18-1.92149E-18
 -1      2601 1.65980E-04-4.15013E-05-5.37417E-05-2.23137E-05 5.52922E-18-8.39198E-19
 -1      2602 9.52364E-05-2.85721E-05-2.85704E-05-2.81889E-09 2.15961E-18-2.51496E-18
 -1      2603 1.57413E-04-4.55472E-05-4.82064E-05-2.60239E-05 4.34507E-18-1.46526E-18
 -1      2604 9.52367E-05-2.85725E-05-2.85703E-05-3.20133E-09 8.14965E-19-3.34065E-18
 -1      2605 1.47621E-04-3.43388E-05-4.86075E-05-2.40182E-06-3.62805E-18 6.66191E-19
 -1      2606 2.80509E-05-1.21131E-05-6.20183E-06-1.13536E-05 1.20760E-18 3.45611E-18
 -1      2607 3.71434E-05-1.89311E-05-7.09578E-06 2.10955E-05-1.02279E-19 3.10014E-18
 -1      2608 3.66427E-05-1.24998E-05-9.81290E-06 1.31582E-05-2.38334E-19 2.20462E-18
 -1      2609 5.09934E-05-2.28910E-05-1.15733E-05 2.78103E-05-8.88749E-19 1.18690E-18
 -1      2610 1.42207E-04-4.95427E-05-3.96461E-05 1.28875E-05-2.13632E-18 1.13439E-18
 -1      2611 1.47693E-04-6.81968E-05-3.42217E-05 1.22068E-05 2.36343E-18-2.16565E-18
 -1      2612 1.40844E-04-6.61430E-05-3.13574E-05 1.46198E-05 1.49215E-18-3.33355E-18
 -1      2613 1.14726E-04-5.99151E-05-2.33954E-05 3.03777E-05 1.10114E-18-2.00222E-18
 -1      2614 4.54898E-05-2.40593E-05-8.63644E-06-3.75281E-05 2.15157E-18 5.44494E-18
 -1      2615 1.21817E-04-5.31350E-05-2.92261E-05 3.29574E-05-1.42937E-20 9.00184E-19
 -1      2616 4.94347E-05-2.25399E-05-1.09651E-05 4.26178E-05 2.60039E-18-2.59256E-18
 -1      2617 1.49561E-04-3.63371E-05-4.87888E-05 1.57620E-06-3.94717E-19-2.61373E-18
 -1      2618 8.64436E-05-4.14523E-05-1.88999E-05 4.65906E-05 1.70360E-18-5.21878E-19
 -1      2619 1.37074E-04-6.67650E-06-5.62437E-05-4.75086E-07-3.93764E-18-2.17568E-18
 -1      2620 1.41479E-04-5.43375E-05-3.72583E-05-1.51337E-05 1.44631E-18-1.71058E-18
 -1      2621 9.52366E-05-2.85728E-05-2.85702E-05-3.99703E-09 1.73981E-18-4.51334E-18
 -1      2622 2.61324E-05-9.29346E-06-6.59753E-06 2.15419E-05 2.24803E-18-4.19790E-18
 -1      2623 2.67358E-05-1.10445E-05-6.16676E-06-8.17521E-06 9.55136E-19-5.07225E-18
 -1      2624 4.93408E-05-1.90003E-05-1.23175E-05-2.50106E-05-5.30454E-20-4.61315E-18
 -1      2625 6.63170E-05-2.98914E-05-1.55662E-05-3.31667E-05-7.70482E-19-4.16401E-18
 -1      2626 6.78101E-05-6.38936E-06-2.64404E-05 1.99753E-05 3.89037E-18-1.81949E-18
 -1      2627 7.34425E-05-9.83604E-06-2.70805E-05 2.04249E-05 3.77715E-18-1.82245E-18
 -1      2628 7.99674E-05-1.45682E-05-2.81217E-05 1.91774E-05 3.52814E-18-1.65019E-18
 -1      2629 8.55846E-05-1.77894E-05-2.89404E-05 1.72163E-05 3.26704E-18-1.64209E-18
 -1      2630 7.85847E-05-1.56307E-05-2.69561E-05 2.27631E-05 3.51754E-18-1.61312E-18
 -1      2631 6.11385E-05 5.32590E-07-2.63963E-05 4.56291E-06 3.40410E-18-1.57233E-18
 -1      2632 5.88947E-05 1.36350E-06-2.58139E-05 8.74806E-06 3.64559E-18-1.79637E-18
 -1      2633 7.33523E-05-6.24297E-06-2.87236E-05-4.21818E-06 2.78984E-18-6.25131E-19
 -1      2634 6.63879E-05-2.54266E-06-2.74355E-05-1.14848E-06 3.03606E-18-1.20250E-18
 -1      2635 6.18776E-05-1.65898E-06-2.55842E-05 2.65522E-07 2.97102E-18-1.59850E-18
 -1      2636 9.58312E-05-2.45679E-05-3.04293E-05-1.72682E-05 5.76416E-19 3.30866E-19
 -1      2637 9.35681E-05-2.08402E-05-3.10486E-05-1.41998E-05 1.32450E-18 6.42951E-19
 -1      2638 9.52367E-05-2.85730E-05-2.85702E-05 4.70194E-09 1.47618E-18 1.18596E-18
 -1      2639 9.52372E-05-2.85736E-05-2.85702E-05 4.87262E-09 1.78139E-18 9.54202E-19
 -1      2640 9.52365E-05-2.85729E-05-2.85701E-05 5.19189E-09 9.62928E-19-9.73835E-20
 -1      2641 1.11426E-04-5.43660E-05-2.39755E-05-3.66530E-05 2.72083E-18 7.67597E-19
 -1      2642 1.25151E-04-5.88258E-05-2.88839E-05-2.90031E-05 2.31727E-18-6.45492E-19
 -1      2643 9.09181E-05-1.63466E-05-3.19659E-05-8.49859E-06 2.17640E-18 8.24031E-19
 -1      2644 1.01916E-04-2.97740E-05-3.09066E-05-9.90704E-06-8.51501E-19-2.09687E-18
 -1      2645 1.01132E-04-2.95660E-05-3.06764E-05-9.56362E-06-8.38100E-19-2.12595E-18
 -1      2646 1.00548E-04-2.90912E-05-3.06310E-05-9.40900E-06-9.01461E-19-2.00387E-18
 -1      2647 9.95311E-05-2.82313E-05-3.05355E-05-8.88140E-06-9.52404E-19-2.15782E-18
 -1      2648 1.02845E-04-2.96572E-05-3.13456E-05-1.02378E-05-9.36403E-19-1.96735E-18
 -1      2649 9.85100E-05-2.71729E-05-3.05942E-05-8.19325E-06-9.12045E-19-2.05316E-18
 -1      2650 9.74834E-05-2.60481E-05-3.05755E-05-7.13707E-06-9.12095E-19-2.12567E-18
 -1      2651 1.01221E-04-2.78611E-05-3.14273E-05-9.44879E-06-9.39346E-19-1.91050E-18
 -1      2652 9.63961E-05-2.48998E-05-3.06581E-05-5.63396E-06-8.96480E-19-2.22785E-18
 -1      2653 9.56445E-05-2.40137E-05-3.06596E-05-3.97113E-06-9.61511E-19-2.37706E-18
 -1      2654 9.90609E-05-2.52603E-05-3.16340E-05-7.23809E-06-1.04229E-18-2.08178E-18
 -1      2655 9.49796E-05-2.33631E-05-3.06877E-05-1.77235E-06-9.63630E-19-2.35562E-18
 -1      2656 9.47538E-05-2.31624E-05-3.06640E-05 2.25393E-07-7.85691E-19-2.31925E-18
 -1      2657 9.72551E-05-2.31432E-05-3.17885E-05-3.38160E-06-1.00406E-18-2.29876E-18
 -1      2658 9.48310E-05-2.33866E-05-3.05881E-05 2.56838E-06-6.81213E-19-2.31954E-18
 -1      2659 9.51889E-05-2.40061E-05-3.05195E-05 4.39569E-06-6.55296E-19-2.28738E-18
 -1      2660 9.66607E-05-2.26625E-05-3.17473E-05 1.40875E-06-7.29084E-19-2.30567E-18
 -1      2661 9.59218E-05-2.50290E-05-3.03381E-05 6.19841E-06-7.09033E-19-2.25539E-18
 -1      2662 9.66927E-05-2.62225E-05-3.02343E-05 7.39434E-06-6.20201E-19-2.21592E-18
 -1      2663 9.75192E-05-2.41715E-05-3.14521E-05 5.76485E-06-7.18682E-19-1.91987E-18
 -1      2664 9.76640E-05-2.75944E-05-2.99912E-05 8.22121E-06-4.81723E-19-2.25183E-18
 -1      2665 9.85434E-05-2.89051E-05-2.98803E-05 8.59232E-06-1.98781E-19-2.28594E-18
 -1      2666 9.93017E-05-2.70486E-05-3.09568E-05 8.46110E-06-4.02383E-19-1.71472E-18
 -1      2667 9.92978E-05-3.01081E-05-2.96340E-05 8.43987E-06-1.87689E-19-2.21406E-18
 -1      2668 1.00015E-04-3.11388E-05-2.95426E-05 8.09437E-06 1.02319E-19-2.32232E-18
 -1      2669 1.01089E-04-3.01341E-05-3.03836E-05 9.05700E-06-3.05133E-19-2.05455E-18
 -1      2670 1.00312E-04-3.18641E-05-2.93372E-05 7.27752E-06 7.04179E-20-2.48613E-18
 -1      2671 1.00730E-04-3.24353E-05-2.92780E-05 6.49189E-06-3.18800E-20-2.68120E-18
 -1      2672 1.02163E-04-3.24449E-05-2.98544E-05 7.94567E-06-1.65705E-19-2.24052E-18
 -1      2673 1.00579E-04-3.26430E-05-2.91315E-05 5.40301E-06 4.49527E-20-2.45049E-18
 -1      2674 1.00697E-04-3.27795E-05-2.91033E-05 4.46486E-06 8.38223E-20-2.04890E-18
 -1      2675 1.02299E-04-3.35673E-05-2.94413E-05 5.91418E-06 1.36442E-19-1.97781E-18
 -1      2676 1.00247E-04-3.25982E-05-2.90133E-05 3.40648E-06-1.37312E-22-1.60116E-18
 -1      2677 1.00142E-04-3.24320E-05-2.90066E-05 2.52545E-06 1.88667E-19-1.59353E-18
 -1      2678 1.01673E-04-3.36180E-05-2.91624E-05 3.69135E-06 4.23291E-19-1.62550E-18
 -1      2679 9.95641E-05-3.20396E-05-2.89592E-05 1.66263E-06 1.47495E-20-1.59750E-18
 -1      2680 9.93322E-05-3.17195E-05-2.89624E-05 9.50604E-07 1.03842E-20-1.77285E-18
 -1      2681 1.00621E-04-3.29654E-05-2.89992E-05 1.74367E-06-4.31740E-20-1.02958E-18
 -1      2682 9.87572E-05-3.12657E-05-2.89410E-05 3.34463E-07-2.10213E-19-2.07021E-18
 -1      2683 9.84768E-05-3.09072E-05-2.89449E-05-1.74770E-07-4.73835E-19-2.28460E-18
 -1      2684 9.94519E-05-3.19973E-05-2.89169E-05 2.70371E-07-3.66394E-19-1.26362E-18
 -1      2685 9.79772E-05-3.04869E-05-2.89358E-05-5.60719E-07-2.04810E-19-2.06074E-18
 -1      2686 9.76995E-05-3.01595E-05-2.89347E-05-8.81056E-07 7.44212E-20-2.12063E-18
 -1      2687 9.83686E-05-3.09990E-05-2.88814E-05-7.10938E-07-3.10442E-19-1.41705E-18
 -1      2688 9.73019E-05-2.98175E-05-2.89290E-05-1.08248E-06 1.09071E-19-1.96382E-18
 -1      2689 9.70536E-05-2.95526E-05-2.89209E-05-1.24998E-06 5.25864E-19-1.79929E-18
 -1      2690 9.74682E-05-3.01312E-05-2.88666E-05-1.27352E-06 1.45474E-19-1.39362E-18
 -1      2691 9.67565E-05-2.92998E-05-2.89138E-05-1.31848E-06 4.28367E-19-1.77146E-18
 -1      2692 9.65477E-05-2.91035E-05-2.88992E-05-1.37473E-06 2.93816E-19-2.21833E-18
 -1      2693 9.67731E-05-2.94565E-05-2.88564E-05-1.52018E-06 1.77831E-19-1.29997E-18
 -1      2694 9.63359E-05-2.89316E-05-2.88889E-05-1.35641E-06 4.09455E-19-2.58902E-18
 -1      2695 9.61671E-05-2.87968E-05-2.88697E-05-1.33939E-06 6.97382E-19-3.08074E-18
 -1      2696 9.62653E-05-2.89770E-05-2.88427E-05-1.55066E-06 8.06034E-20-2.19064E-18
 -1      2697 9.60217E-05-2.86898E-05-2.88562E-05-1.27064E-06 1.25122E-18-3.18702E-18
 -1      2698 9.58886E-05-2.86041E-05-2.88344E-05-1.21090E-06 1.32437E-18-2.89748E-18
 -1      2699 9.59095E-05-2.86642E-05-2.88229E-05-1.44767E-06 7.34250E-19-2.68316E-18
 -1      2700 9.57917E-05-2.85446E-05-2.88190E-05-1.11804E-06 1.16439E-18-2.54557E-18
 -1      2701 9.56888E-05-2.84949E-05-2.87966E-05-1.03798E-06 5.29068E-19-2.21389E-18
 -1      2702 9.56686E-05-2.84797E-05-2.87978E-05-1.27340E-06 1.59574E-18-2.26275E-18
 -1      2703 9.56257E-05-2.84677E-05-2.87803E-05-9.38622E-07 4.46782E-20-1.95469E-18
 -1      2704 9.55472E-05-2.84429E-05-2.87588E-05-8.53360E-07 2.91969E-19-1.65491E-18
 -1      2705 9.55100E-05-2.83861E-05-2.87691E-05-1.07111E-06 4.38691E-19-1.19077E-18
 -1      2706 9.55069E-05-2.84360E-05-2.87428E-05-7.58357E-07 2.33872E-19-1.39848E-18
 -1      2707 9.54477E-05-2.84271E-05-2.87233E-05-6.77198E-07-1.14948E-19-1.45007E-18
 -1      2708 9.54077E-05-2.83523E-05-2.87393E-05-8.68674E-07 2.71173E-19-1.44443E-18
 -1      2709 9.54223E-05-2.84319E-05-2.87084E-05-5.92443E-07 5.47338E-20-1.10913E-18
 -1      2710 9.53781E-05-2.84324E-05-2.86914E-05-5.20422E-07 2.34153E-19-6.94347E-19
 -1      2711 9.53430E-05-2.83546E-05-2.87102E-05-6.82377E-07 4.48173E-19-5.72749E-19
 -1      2712 9.53622E-05-2.84430E-05-2.86781E-05-4.48446E-07-3.36760E-19-4.13009E-19
 -1      2713 9.53298E-05-2.84485E-05-2.86638E-05-3.87665E-07-1.18943E-18-3.82226E-19
 -1      2714 9.53025E-05-2.83764E-05-2.86833E-05-5.20320E-07 3.53264E-19 9.68183E-19
 -1      2715 9.53198E-05-2.84612E-05-2.86523E-05-3.28854E-07-1.11679E-18 3.24770E-19
 -1      2716 9.52963E-05-2.84688E-05-2.86407E-05-2.79553E-07-8.19950E-19 4.76508E-19
 -1      2717 9.52775E-05-2.84067E-05-2.86594E-05-3.85191E-07-4.59867E-19 3.32140E-19
 -1      2718 9.52900E-05-2.84814E-05-2.86312E-05-2.33040E-07-3.18376E-19 5.53736E-19
 -1      2719 9.52733E-05-2.84895E-05-2.86219E-05-1.94381E-07 2.74330E-19 7.85038E-19
 -1      2720 9.52619E-05-2.84386E-05-2.86390E-05-2.76340E-07-5.91626E-19 5.37573E-19
 -1      2721 9.52693E-05-2.85007E-05-2.86142E-05-1.58663E-07 6.90608E-19 3.38004E-19
 -1      2722 9.52576E-05-2.85083E-05-2.86071E-05-1.29274E-07 1.56072E-18 7.44293E-19
 -1      2723 9.52523E-05-2.84684E-05-2.86220E-05-1.91266E-07 5.93619E-19 9.03137E-19
 -1      2724 9.52551E-05-2.85178E-05-2.86010E-05-1.02615E-07 1.34221E-18 2.44523E-19
 -1      2725 9.52472E-05-2.85244E-05-2.85956E-05-8.09421E-08 1.09946E-18-2.29562E-19
 -1      2726 9.52463E-05-2.84943E-05-2.86083E-05-1.26624E-07 1.16429E-18 1.52988E-18
 -1      2727 9.52455E-05-2.85320E-05-2.85910E-05-6.16206E-08 1.02513E-18-4.76937E-19
 -1      2728 9.52404E-05-2.85375E-05-2.85871E-05-4.61412E-08 7.65241E-19-9.04248E-19
 -1      2729 9.52425E-05-2.85156E-05-2.85974E-05-7.88630E-08 1.16650E-18 6.71653E-20
 -1      2730 9.52392E-05-2.85434E-05-2.85835E-05-3.25835E-08 6.00288E-19-8.57224E-19
 -1      2731 9.52361E-05-2.85478E-05-2.85808E-05-2.19227E-08 9.64242E-20-8.01238E-19
 -1      2732 9.52401E-05-2.85325E-05-2.85891E-05-4.46050E-08 3.90047E-19-3.15689E-19
 -1      2733 9.52354E-05-2.85522E-05-2.85782E-05-1.27692E-08 7.28430E-20-3.23372E-19
 -1      2734 9.52336E-05-2.85556E-05-2.85763E-05-5.75004E-09 9.25624E-19 9.86006E-20
 -1      2735 9.52385E-05-2.85454E-05-2.85829E-05-2.08457E-08 2.82132E-19-2.94021E-20
 -1      2736 9.52331E-05-2.85589E-05-2.85745E-05 1.27954E-10 1.62810E-18 4.47657E-19
 -1      2737 9.52324E-05-2.85614E-05-2.85733E-05 4.47319E-09 1.39518E-18 8.42656E-19
 -1      2738 9.52375E-05-2.85550E-05-2.85783E-05-5.03305E-09 1.37888E-18 1.09730E-18
 -1      2739 9.52321E-05-2.85637E-05-2.85720E-05 7.98259E-09 1.13273E-18 5.15385E-19
 -1      2740 9.52319E-05-2.85655E-05-2.85713E-05 1.04234E-08 8.96144E-19 1.78001E-19
 -1      2741 9.52369E-05-2.85618E-05-2.85751E-05 4.92350E-09 9.32865E-19-3.59507E-19
 -1      2742 9.52317E-05-2.85671E-05-2.85705E-05 1.22726E-08 4.47072E-19 1.45734E-20
 -1      2743 9.52320E-05-2.85684E-05-2.85701E-05 1.34037E-08-4.87374E-19 2.93242E-19
 -1      2744 9.52365E-05-2.85666E-05-2.85729E-05 1.06859E-08 2.13167E-19-5.83361E-19
 -1      2745 9.52319E-05-2.85694E-05-2.85696E-05 1.41316E-08-5.42231E-19 2.59866E-19
 -1      2746 9.52324E-05-2.85703E-05-2.85695E-05 1.43997E-08 4.95448E-19 4.27372E-19
 -1      2747 9.52363E-05-2.85698E-05-2.85714E-05 1.35402E-08-3.77267E-19-3.30373E-19
 -1      2748 9.52323E-05-2.85709E-05-2.85692E-05 1.44056E-08 6.74236E-19 1.83706E-19
 -1      2749 9.52329E-05-2.85715E-05-2.85692E-05 1.41369E-08 5.18380E-19-4.18809E-19
 -1      2750 9.52363E-05-2.85718E-05-2.85705E-05 1.44563E-08-1.17173E-19 6.22290E-20
 -1      2751 9.52329E-05-2.85718E-05-2.85690E-05 1.37081E-08 7.01762E-19-5.00080E-19
 -1      2752 9.52335E-05-2.85722E-05-2.85691E-05 1.31329E-08 6.76595E-19 2.88255E-19
 -1      2753 9.52363E-05-2.85729E-05-2.85700E-05 1.41460E-08 2.44052E-19-1.56151E-18
 -1      2754 9.52336E-05-2.85723E-05-2.85691E-05 1.24687E-08-2.94005E-19 2.61691E-19
 -1      2755 9.52342E-05-2.85726E-05-2.85693E-05 1.17427E-08-5.21418E-19-1.51076E-19
 -1      2756 9.52363E-05-2.85735E-05-2.85698E-05 1.31157E-08 4.18051E-19-2.05313E-18
 -1      2757 9.52342E-05-2.85726E-05-2.85693E-05 1.09752E-08-8.92118E-19 1.93717E-19
 -1      2758 9.52348E-05-2.85727E-05-2.85694E-05 1.01971E-08-9.16287E-19 5.42222E-19
 -1      2759 9.52364E-05-2.85737E-05-2.85698E-05 1.17118E-08-4.16092E-19-1.55005E-18
 -1      2760 9.52348E-05-2.85727E-05-2.85695E-05 9.40678E-09-1.14997E-18 3.54880E-19
 -1      2761 9.52354E-05-2.85728E-05-2.85697E-05 8.63220E-09-2.01165E-18-2.94110E-20
 -1      2762 9.52366E-05-2.85737E-05-2.85698E-05 1.01586E-08-1.13717E-18 3.99753E-19
 -1      2763 9.52354E-05-2.85728E-05-2.85697E-05 7.86446E-09-2.77748E-18 5.22637E-19
 -1      2764 9.52359E-05-2.85728E-05-2.85699E-05 7.12169E-09-2.19179E-18-6.66240E-19
 -1      2765 9.52367E-05-2.85736E-05-2.85699E-05 8.59091E-09-2.42911E-18-9.67816E-20
 -1      2766 9.52360E-05-2.85728E-05-2.85699E-05 6.49479E-09-7.89421E-19-1.31132E-18
 -1      2767 9.52364E-05-2.85729E-05-2.85700E-05 5.77011E-09-5.77043E-20-9.88935E-19
 -1      2768 9.52371E-05-2.85735E-05-2.85701E-05 5.95853E-09 6.06252E-19 4.45779E-19
 -1      2769 9.52369E-05-2.85736E-05-2.85700E-05 7.19112E-09-1.99714E-18 2.85128E-20
 -1      2770 1.61005E-04-2.80295E-05-5.80131E-05 1.45451E-05 3.80233E-18 3.08331E-18
 -1      2771 1.57313E-04-5.40346E-05-4.49488E-05-2.21247E-05 3.22105E-18-1.72594E-18
 -1      2772 9.34735E-05-2.37882E-05-2.98800E-05 1.87680E-05-5.36638E-19-5.39034E-19
 -1      2773 9.47836E-05-2.52850E-05-2.96924E-05 2.05861E-05-1.14170E-18-4.96130E-19
 -1      2774 9.41772E-05-2.35801E-05-3.02973E-05 1.48034E-05-8.45348E-20 4.66413E-19
 -1      2775 9.47002E-05-2.37847E-05-3.03402E-05 1.66052E-05-6.30576E-20-1.99698E-20
 -1      2776 8.75527E-05-2.06810E-05-2.86143E-05 1.72911E-05-7.97988E-19-6.18375E-19
 -1      2777 9.50649E-05-2.44183E-05-3.03147E-05 1.14295E-05-4.67372E-19 4.08740E-19
 -1      2778 9.53642E-05-2.41766E-05-3.04694E-05 1.30406E-05-1.73390E-19 6.08270E-19
 -1      2779 9.00474E-05-2.13692E-05-2.93855E-05 1.35584E-05-6.37805E-19 2.12741E-19
 -1      2780 9.56948E-05-2.54410E-05-3.01370E-05 8.68105E-06 4.82686E-19-7.81591E-20
 -1      2781 9.59535E-05-2.51083E-05-3.03284E-05 1.00154E-05 5.49182E-20 5.54945E-19
 -1      2782 9.21343E-05-2.28154E-05-2.96676E-05 1.05513E-05-3.71469E-19 9.53673E-20
 -1      2783 9.60227E-05-2.63325E-05-2.98882E-05 6.50766E-06-8.30337E-19 7.29636E-19
 -1      2784 9.62817E-05-2.60387E-05-3.00752E-05 7.56007E-06 1.45549E-19 5.95179E-19
 -1      2785 9.35986E-05-2.42675E-05-2.96850E-05 8.11092E-06-1.08654E-19 5.82986E-19
 -1      2786 9.61259E-05-2.70419E-05-2.96216E-05 4.75805E-06-4.74189E-19 5.53511E-19
 -1      2787 9.63827E-05-2.68104E-05-2.97930E-05 5.59242E-06-6.96619E-19 6.88495E-19
 -1      2788 9.45448E-05-2.54971E-05-2.95731E-05 6.12440E-06-5.73397E-19 8.00710E-19
 -1      2789 9.60892E-05-2.75219E-05-2.93948E-05 3.50490E-06-3.49528E-19 3.76085E-19
 -1      2790 9.63121E-05-2.73663E-05-2.95291E-05 4.09902E-06-3.87936E-19 1.83629E-19
 -1      2791 9.50836E-05-2.64256E-05-2.94152E-05 4.57307E-06-3.74951E-19-1.21874E-19
 -1      2792 9.59808E-05-2.78527E-05-2.92035E-05 2.56445E-06 5.92021E-20 1.82750E-20
 -1      2793 9.61725E-05-2.77466E-05-2.93105E-05 3.00417E-06 1.68724E-19 3.97332E-19
 -1      2794 9.53509E-05-2.70742E-05-2.92567E-05 3.41035E-06 1.71028E-19-4.15031E-19
 -1      2795 9.58484E-05-2.80768E-05-2.90486E-05 1.86428E-06-1.33580E-19-4.57625E-19
 -1      2796 9.60068E-05-2.80058E-05-2.91318E-05 2.18781E-06-9.22947E-20-2.87951E-19
 -1      2797 9.54639E-05-2.75293E-05-2.91129E-05 2.52297E-06 2.39031E-19 3.30359E-19
 -1      2798 9.57174E-05-2.82278E-05-2.89264E-05 1.34553E-06 7.71981E-20-1.09042E-18
 -1      2799 9.58441E-05-2.81804E-05-2.89901E-05 1.58265E-06-4.51109E-20-8.17032E-19
 -1      2800 9.54902E-05-2.78446E-05-2.89906E-05 1.85171E-06 1.47393E-19 1.14702E-19
 -1      2801 9.56002E-05-2.83298E-05-2.88317E-05 9.62455E-07-4.99399E-19-1.04176E-18
 -1      2802 9.56993E-05-2.82978E-05-2.88799E-05 1.13591E-06-1.71652E-19-1.44976E-18
 -1      2803 9.54723E-05-2.80622E-05-2.88905E-05 1.34733E-06-1.85083E-19-3.45973E-19
 -1      2804 9.54979E-05-2.84021E-05-2.87563E-05 6.68821E-07 2.75028E-19-1.06473E-18
 -1      2805 9.55760E-05-2.83795E-05-2.87937E-05 7.99930E-07-3.47270E-19-8.55097E-19
 -1      2806 9.54345E-05-2.82148E-05-2.88089E-05 9.63167E-07-1.28357E-19-6.95686E-19
 -1      2807 9.54210E-05-2.84491E-05-2.87027E-05 4.66028E-07 1.11990E-18-1.97188E-18
 -1      2808 9.54761E-05-2.84339E-05-2.87288E-05 5.56338E-07 1.24219E-18-1.50663E-18
 -1      2809 9.53921E-05-2.83216E-05-2.87454E-05 6.78460E-07 6.01186E-19-2.04091E-18
 -1      2810 9.53614E-05-2.84823E-05-2.86628E-05 3.18292E-07 1.20889E-18-2.83401E-18
 -1      2811 9.54016E-05-2.84713E-05-2.86818E-05 3.83432E-07 5.73172E-19-1.96052E-18
 -1      2812 9.53534E-05-2.83937E-05-2.86979E-05 4.74754E-07 1.02607E-18-1.57871E-18
 -1      2813 9.53169E-05-2.85061E-05-2.86334E-05 2.11636E-07 8.16511E-19-1.86273E-18
 -1      2814 9.53456E-05-2.84979E-05-2.86471E-05 2.58269E-07 9.99487E-19-2.56549E-18
 -1      2815 9.53205E-05-2.84448E-05-2.86618E-05 3.25466E-07 7.81229E-19-2.14523E-18
 -1      2816 9.52847E-05-2.85235E-05-2.86120E-05 1.35483E-07 5.39114E-19 9.32183E-20
 -1      2817 9.53046E-05-2.85172E-05-2.86218E-05 1.68486E-07 5.15060E-19-1.13279E-18
 -1      2818 9.52942E-05-2.84814E-05-2.86347E-05 2.17100E-07 1.93787E-19-1.05898E-18
 -1      2819 9.52621E-05-2.85363E-05-2.85968E-05 8.18647E-08 1.43279E-19-4.20278E-19
 -1      2820 9.52755E-05-2.85314E-05-2.86036E-05 1.04893E-07 1.32038E-18 3.37134E-19
 -1      2821 9.52740E-05-2.85079E-05-2.86146E-05 1.39382E-07 5.34769E-19-5.87814E-19
 -1      2822 9.52463E-05-2.85463E-05-2.85857E-05 4.33668E-08-6.06524E-19-4.44858E-19
 -1      2823 9.52551E-05-2.85424E-05-2.85905E-05 5.96257E-08-6.74818E-19-1.55539E-19
 -1      2824 9.52589E-05-2.85272E-05-2.85996E-05 8.35079E-08-4.31282E-19-1.09241E-18
 -1      2825 9.52367E-05-2.85534E-05-2.85786E-05 1.90348E-08-1.90169E-18 1.72834E-19
 -1      2826 9.52418E-05-2.85504E-05-2.85815E-05 2.92165E-08-1.25617E-18-7.34795E-19
 -1      2827 9.52483E-05-2.85415E-05-2.85889E-05 4.49629E-08-1.07493E-18-1.14858E-18
 -1      2828 9.52310E-05-2.85586E-05-2.85739E-05 3.25753E-09-1.74419E-18 6.38780E-19
 -1      2829 9.52337E-05-2.85563E-05-2.85757E-05 9.70909E-09-1.98564E-18 1.35162E-19
 -1      2830 9.52413E-05-2.85513E-05-2.85816E-05 1.98670E-08-2.20150E-18-1.43549E-18
 -1      2831 9.52280E-05-2.85626E-05-2.85709E-05-6.42316E-09 3.09793E-20-7.22388E-19
 -1      2832 9.52291E-05-2.85607E-05-2.85720E-05-2.58823E-09-6.85665E-19 1.46776E-19
 -1      2833 9.52369E-05-2.85584E-05-2.85766E-05 3.58262E-09-9.96746E-19-2.14511E-18
 -1      2834 9.52268E-05-2.85655E-05-2.85691E-05-1.18635E-08 1.34193E-18-1.32634E-18
 -1      2835 9.52269E-05-2.85640E-05-2.85697E-05-9.82228E-09 8.02869E-19-1.72642E-18
 -1      2836 9.52342E-05-2.85634E-05-2.85733E-05-6.42941E-09 7.34773E-19-3.13150E-18
 -1      2837 9.52268E-05-2.85677E-05-2.85682E-05-1.44916E-08 3.18770E-19 1.05505E-19
 -1      2838 9.52263E-05-2.85665E-05-2.85684E-05-1.36475E-08 6.96014E-19-6.91656E-19
 -1      2839 9.52328E-05-2.85670E-05-2.85712E-05-1.21419E-08 2.55067E-19-1.64128E-18
 -1      2840 9.52275E-05-2.85691E-05-2.85679E-05-1.50848E-08-2.60762E-19 3.10094E-19
 -1      2841 9.52267E-05-2.85683E-05-2.85678E-05-1.50556E-08 1.92479E-19 5.88486E-19
 -1      2842 9.52323E-05-2.85694E-05-2.85699E-05-1.48115E-08-2.35155E-19-8.55511E-19
 -1      2843 9.52287E-05-2.85701E-05-2.85679E-05-1.45462E-08-5.54807E-19-5.65864E-19
 -1      2844 9.52276E-05-2.85695E-05-2.85677E-05-1.49712E-08 1.51921E-19 4.84631E-19
 -1      2845 9.52323E-05-2.85709E-05-2.85692E-05-1.54606E-08-2.44140E-19-3.11342E-19
 -1      2846 9.52299E-05-2.85708E-05-2.85682E-05-1.33595E-08 9.02198E-19-1.65355E-18
 -1      2847 9.52289E-05-2.85704E-05-2.85679E-05-1.40295E-08-2.20623E-19-5.57273E-19
 -1      2848 9.52327E-05-2.85718E-05-2.85690E-05-1.49306E-08 4.23564E-21-1.03343E-18
 -1      2849 9.52312E-05-2.85713E-05-2.85685E-05-1.18549E-08 4.33439E-19-1.49142E-18
 -1      2850 9.52302E-05-2.85710E-05-2.85682E-05-1.26323E-08 1.02544E-18-1.40120E-18
 -1      2851 9.52333E-05-2.85723E-05-2.85690E-05-1.37262E-08 8.39279E-19-1.34114E-18
 -1      2852 9.52324E-05-2.85716E-05-2.85689E-05-1.02440E-08-3.58713E-19-1.44616E-18
 -1      2853 9.52315E-05-2.85714E-05-2.85686E-05-1.10431E-08-7.73084E-19-1.05500E-18
 -1      2854 9.52339E-05-2.85726E-05-2.85691E-05-1.21883E-08-3.27291E-19-1.38693E-18
 -1      2855 9.52336E-05-2.85719E-05-2.85693E-05-8.56998E-09-1.05257E-18-1.57046E-18
 -1      2856 9.52328E-05-2.85717E-05-2.85691E-05-9.38137E-09-1.89489E-19-1.68282E-18
 -1      2857 9.52345E-05-2.85727E-05-2.85694E-05-1.04935E-08-9.22128E-19-8.69301E-19
 -1      2858 9.52346E-05-2.85720E-05-2.85697E-05-7.05128E-09-2.33093E-18-8.92601E-19
 -1      2859 9.52339E-05-2.85719E-05-2.85695E-05-7.78365E-09-1.51176E-18-9.63185E-19
 -1      2860 9.52352E-05-2.85728E-05-2.85696E-05-8.80906E-09-1.58279E-18-1.08175E-18
 -1      2861 9.52354E-05-2.85722E-05-2.85700E-05-5.61418E-09 8.48970E-19-3.96371E-18
 -1      2862 9.52349E-05-2.85721E-05-2.85698E-05-6.30186E-09-9.06690E-19-2.69628E-18
 -1      2863 9.52357E-05-2.85728E-05-2.85698E-05-7.24045E-09-5.62430E-19-2.79021E-18
 -1      2864 9.52363E-05-2.85726E-05-2.85702E-05-4.46785E-09 1.42241E-18-4.15510E-18
 -1      2865 9.52358E-05-2.85724E-05-2.85700E-05-5.14695E-09 1.15626E-18-3.56738E-18
 -1      2866 9.52364E-05-2.85730E-05-2.85700E-05-5.95824E-09 1.22716E-18-4.44507E-18
 -1      2867 9.52371E-05-2.85734E-05-2.85701E-05-4.92603E-09 1.84836E-18-4.74620E-18
 -1      2868 9.52413E-05-2.85778E-05-2.85701E-05-4.45273E-10 3.20328E-19 3.92349E-18
 -1      2869 9.52412E-05-2.85777E-05-2.85701E-05-1.25913E-09 3.57476E-19 2.52134E-18
 -1      2870 3.35559E-05-7.25892E-06-1.08679E-05 2.76223E-05 3.13900E-18-3.39639E-18
 -1      2871 2.77016E-05-3.58367E-06-9.54176E-06 1.26756E-05 2.71474E-18-3.98741E-18
 -1      2872 9.52404E-05-2.85768E-05-2.85701E-05-3.60694E-09 1.02443E-18-2.17994E-18
 -1      2873 9.52399E-05-2.85764E-05-2.85701E-05-4.13689E-09 1.77626E-18-3.29871E-18
 -1      2874 9.52412E-05-2.85777E-05-2.85701E-05 1.30812E-09 6.55163E-19 2.90051E-18
 -1      2875 9.52413E-05-2.85778E-05-2.85701E-05 4.96561E-10 5.77372E-19 3.55004E-18
 -1      2876 9.52419E-05-2.85780E-05-2.85703E-05 3.08847E-11-1.10178E-18 3.32073E-18
 -1      2877 9.52410E-05-2.85775E-05-2.85701E-05-2.15039E-09 3.28749E-19-6.34914E-19
 -1      2878 9.52408E-05-2.85772E-05-2.85701E-05-2.86925E-09 6.74391E-19-5.74376E-20
 -1      2879 9.52410E-05-2.85772E-05-2.85702E-05-3.57891E-09-2.00533E-19-2.01801E-18
 -1      2880 9.52417E-05-2.85778E-05-2.85703E-05-1.87930E-09-7.26742E-19 1.11689E-18
 -1      2881 9.52407E-05-2.85772E-05-2.85701E-05 2.88205E-09 1.37284E-18 1.04598E-18
 -1      2882 9.52410E-05-2.85775E-05-2.85701E-05 2.18001E-09 1.04446E-18 2.52464E-18
 -1      2883 9.52417E-05-2.85777E-05-2.85703E-05 1.91994E-09 4.34092E-19 2.91943E-18
 -1      2884 9.52399E-05-2.85763E-05-2.85701E-05 4.14457E-09 9.40959E-19 5.35557E-19
 -1      2885 9.52404E-05-2.85768E-05-2.85701E-05 3.61378E-09 9.54313E-19-5.68950E-19
 -1      2886 9.52410E-05-2.85771E-05-2.85702E-05 3.59269E-09 5.33077E-19 1.84297E-19
 -1      2887 9.52388E-05-2.85752E-05-2.85701E-05 4.92801E-09 1.73983E-18 2.97317E-18
 -1      2888 9.52394E-05-2.85758E-05-2.85701E-05 4.62169E-09 1.74988E-18 2.06703E-18
 -1      2889 9.52399E-05-2.85762E-05-2.85702E-05 4.86121E-09 2.43761E-19 2.44244E-18
 -1      2890 9.52378E-05-2.85742E-05-2.85701E-05 4.92470E-09 1.69212E-18 1.12744E-18
 -1      2891 1.42092E-04-4.70359E-05-4.13056E-05 4.58450E-06-2.10501E-18 1.38500E-18
 -1      2892 1.36898E-04-5.15731E-05-3.64454E-05 1.29745E-05-1.11231E-18 1.39665E-18
 -1      2893 4.16359E-05-1.73224E-05-9.83742E-06-3.04546E-05 1.51492E-18 4.98309E-18
 -1      2894 5.61990E-05-2.63657E-05-1.26386E-05-4.07782E-05 1.90932E-18 5.03858E-18
 -1      2895 1.42631E-04-3.99190E-05-4.43252E-05 3.34721E-06 2.99214E-19-2.98749E-18
 -1      2896 1.42901E-04-2.96391E-05-4.91973E-05 7.32818E-06-6.46710E-19-2.82581E-18
 -1      2897 1.27722E-04-5.41316E-05-3.19640E-05 2.53420E-05-3.10226E-20 1.30189E-18
 -1      2898 1.15248E-04-5.11573E-05-2.71051E-05 3.37122E-05 1.10623E-18 9.82373E-19
 -1      2899 9.43215E-05-2.69129E-05-2.87848E-05 2.32004E-05-1.67744E-18-6.05390E-19
 -1      2900 9.74680E-05-3.10185E-05-2.83264E-05 2.43354E-05-1.69113E-18-1.14942E-18
 -1      2901 8.55631E-05-2.22957E-05-2.70257E-05 2.21044E-05-1.61288E-18-7.37925E-19
 -1      2902 1.31975E-04-1.12367E-05-5.24391E-05-8.93710E-06-4.33723E-18-4.42892E-19
 -1      2903 1.37517E-04-1.97647E-05-5.07629E-05-1.05939E-05-4.22839E-18 5.89535E-19
 -1      2904 1.01976E-04-3.68023E-05-2.75398E-05 2.65593E-05-1.96996E-18-1.22497E-18
 -1      2905 1.08940E-04-4.49016E-05-2.72115E-05 2.58381E-05-1.57718E-18-1.80916E-18
 -1      2906 1.40995E-04-3.04489E-05-4.81164E-05-8.14056E-06-3.54547E-18 8.45974E-19
 -1      2907 1.42780E-04-3.88115E-05-4.47192E-05-3.65099E-06-2.77483E-18 1.15747E-18
 -1      2908 1.02131E-04-2.85564E-05-3.15505E-05-1.05932E-05-8.91730E-19-2.46581E-18
 -1      2909 1.01837E-04-2.92855E-05-3.11220E-05-9.95766E-06-7.62282E-19-2.28962E-18
 -1      2910 1.03404E-04-2.97486E-05-3.15491E-05-1.04165E-05-7.66781E-19-2.16913E-18
 -1      2911 1.00395E-04-2.32915E-05-3.30451E-05-1.11499E-05-5.43157E-19-3.46411E-18
 -1      2912 7.57702E-05-3.73570E-05-1.57844E-05-4.40479E-05 2.32151E-18 3.28395E-18
 -1      2913 9.32422E-05-4.73353E-05-1.98451E-05-4.41969E-05 2.55624E-18 1.63213E-18
 -1      2914 5.96143E-05 8.13907E-09-2.56116E-05 1.45317E-05 3.90536E-18-1.76141E-18
 -1      2915 6.26008E-05-2.14920E-06-2.57669E-05 1.74156E-05 3.90112E-18-1.87356E-18
 -1      2916 6.51171E-05-6.31820E-06-2.50351E-05 2.13760E-05 3.85632E-18-1.81274E-18
 -1      2917 1.01040E-04-2.54928E-05-3.23577E-05-3.75517E-07 1.50398E-18-2.23927E-18
 -1      2918 1.01853E-04-2.57360E-05-3.26758E-05-3.22484E-06 1.08777E-18-2.46196E-18
 -1      2919 9.78717E-05-4.43993E-05-2.30496E-05 4.25141E-05 2.14522E-18 3.55966E-19
 -1      2920 7.90653E-05-3.47994E-05-1.84791E-05 4.48079E-05 2.91231E-18-5.71059E-19
 -1      2921 2.72923E-05-5.13074E-06-9.09012E-06-5.49781E-07 1.78017E-18-4.34486E-18
 -1      2922 3.57571E-05-1.06418E-05-1.01940E-05-1.58106E-05 1.02184E-18-4.67096E-18
 -1      2923 1.28369E-04-6.52920E-06-5.28207E-05 2.92159E-06-3.17913E-18-2.33114E-18
 -1      2924 1.27492E-04-6.28971E-06-5.26071E-05-2.96867E-06-3.86798E-18-1.37983E-18
 -1      2925 6.11931E-05-2.45400E-05-1.55546E-05 4.46265E-05 3.22158E-18-1.50550E-18
 -1      2926 4.66942E-05-1.50436E-05-1.29234E-05 3.75393E-05 3.49687E-18-2.43967E-18
 -1      2927 3.28353E-05-8.81668E-06-9.79143E-06-5.11532E-06 2.92769E-19 2.96334E-18
 -1      2928 3.42067E-05-1.14814E-05-9.14433E-06-1.99008E-05 7.13413E-19 4.26566E-18
 -1      2929 4.56666E-05-1.41582E-05-1.28658E-05-2.37730E-05 6.28948E-19 4.17799E-18
 -1      2930 1.35878E-04-5.68736E-05-3.36961E-05-1.58165E-05 2.06403E-18-1.78131E-18
 -1      2931 1.42036E-04-5.15141E-05-3.92310E-05-5.84903E-06 1.24274E-18-2.52924E-18
 -1      2932 9.10854E-05-4.58455E-05-1.91617E-05 3.59806E-05-8.46398E-19-6.67780E-19
 -1      2933 7.29206E-05-3.52726E-05-1.56855E-05 3.47104E-05-1.36944E-18 9.37030E-20
 -1      2934 1.38225E-04-1.96056E-05-5.12097E-05 9.18727E-06-1.37939E-18-2.67504E-18
 -1      2935 1.31649E-04-1.15127E-05-5.22474E-05 7.92727E-06-2.22029E-18-2.66969E-18
 -1      2936 1.33667E-04-2.51915E-05-4.68443E-05 1.06656E-05-6.87261E-19-2.72999E-18
 -1      2937 8.11236E-05-1.21210E-05-2.95450E-05-9.73941E-06 2.19088E-18-1.45716E-19
 -1      2938 5.71803E-05-2.57193E-08-2.43291E-05 1.26270E-05 3.69380E-18-1.97598E-18
 -1      2939 9.08616E-05-2.32394E-05-2.90626E-05 1.73080E-05 2.91899E-18-1.36462E-18
 -1      2940 9.06235E-05-2.08545E-05-2.99130E-05 1.37256E-05 2.87126E-18-1.64362E-18
 -1      2941 9.46626E-05-2.30479E-05-3.06574E-05 1.05666E-05 2.58072E-18-1.73496E-18
 -1      2942 8.76702E-05-2.74608E-05-2.53635E-05-2.42713E-05-3.70074E-19-1.29339E-18
 -1      2943 7.44544E-05-1.92314E-05-2.34694E-05-2.20235E-05 5.64997E-19-1.93282E-18
 -1      2944 1.31477E-04-5.20153E-05-3.39906E-05 1.54560E-05-1.28114E-20 1.23476E-18
 -1      2945 1.04694E-04-5.00298E-05-2.31107E-05-3.67872E-05 2.72141E-18 7.67511E-19
 -1      2946 1.02067E-04-2.54628E-05-3.28231E-05-5.79780E-06 7.50123E-19-2.62951E-18
 -1      2947 1.02042E-04-2.54384E-05-3.29273E-05-7.97219E-06 2.54408E-19-3.10226E-18
 -1      2948 1.04234E-04-2.82706E-05-3.25649E-05-4.73619E-06 7.80402E-19-2.15548E-18
 -1      2949 1.01889E-04-2.52643E-05-3.28023E-05-9.86615E-06-4.99493E-20-3.25513E-18
 -1      2950 1.01621E-04-2.60070E-05-3.24852E-05-1.14450E-05-8.00261E-19-3.09720E-18
 -1      2951 1.01957E-04-2.76717E-05-3.18581E-05-1.06445E-05-8.51089E-19-2.75770E-18
 -1      2952 1.03656E-04-2.76971E-05-3.25369E-05-8.99030E-06-6.58593E-20-2.83961E-18
 -1      2953 1.07578E-04-4.62484E-05-2.59850E-05 3.43697E-05 2.15475E-18 4.92341E-19
 -1      2954 1.30432E-04-5.69021E-05-3.13670E-05-1.79930E-05 2.39170E-18-1.75728E-18
 -1      2955 4.86330E-05-1.30443E-05-1.45698E-05-1.87464E-05 7.79482E-19-4.18212E-18
 -1      2956 1.34272E-04-2.54632E-05-4.69857E-05-1.11353E-05-3.29422E-18 8.47562E-19
 -1      2957 1.19373E-04-5.43284E-05-2.73889E-05 2.45786E-05-4.51680E-19-2.51389E-18
 -1      2958 1.30608E-04-6.30993E-05-2.89925E-05 1.98994E-05 9.73876E-19-2.95345E-18
 -1      2959 9.52378E-05-2.85741E-05-2.85701E-05-4.99577E-09 1.88149E-18-4.47299E-18
 -1      2960 9.52375E-05-2.85740E-05-2.85701E-05-5.55756E-09 1.19675E-18-4.98745E-18
 -1      2961 9.52384E-05-2.85748E-05-2.85701E-05-5.02618E-09 1.41764E-18-4.11360E-18
 -1      2962 4.62635E-05-9.85452E-06-1.50829E-05 3.05901E-05 3.69502E-18-2.68298E-18
 -1      2963 3.42483E-05-2.91760E-06-1.29674E-05 5.78162E-06 2.55286E-18-3.78200E-18
 -1      2964 9.52382E-05-2.85746E-05-2.85701E-05 5.44862E-09 1.05565E-18 1.63727E-18
 -1      2965 1.38806E-04-4.27126E-05-4.13515E-05-2.56050E-06-1.80474E-18 1.23932E-18
 -1      2966 6.41322E-05-2.71104E-05-1.52671E-05 3.13208E-05-1.29956E-18 1.17314E-19
 -1      2967 5.67235E-05-1.88034E-05-1.58948E-05 2.49443E-05-1.35711E-18 5.40407E-19
 -1      2968 7.70757E-05-3.05971E-05-1.95933E-05 3.07786E-05-1.82589E-18-4.78256E-19
 -1      2969 7.01203E-05-3.09001E-05-1.62827E-05-3.94419E-05 2.15305E-18 3.73404E-18
 -1      2970 9.35613E-05-3.54824E-05-2.43816E-05-2.67617E-05-1.12687E-18-1.65378E-18
 -1      2971 4.37430E-05-1.13901E-05-1.34547E-05 1.25860E-05-8.42030E-19 1.89767E-18
 -1      2972 3.66989E-05-8.90273E-06-1.10777E-05 3.85356E-06-3.66223E-19 2.37614E-18
 -1      2973 4.08117E-05-8.40400E-06-1.34507E-05-3.62079E-06-4.62900E-19 2.68372E-18
 -1      2974 1.22009E-04-6.18049E-05-2.61089E-05 2.69895E-05 9.71335E-19-3.01216E-18
 -1      2975 1.04575E-04-5.40751E-05-2.11271E-05 3.33281E-05 4.35587E-19-1.63064E-18
 -1      2976 7.48310E-05-1.07768E-05-2.74968E-05-1.07783E-05 2.00270E-18-8.33897E-19
 -1      2977 7.56483E-05-2.84929E-05-1.97146E-05 4.09291E-05 3.47728E-18-8.54180E-19
 -1      2978 1.16784E-04-5.09398E-05-2.78546E-05-2.54953E-05-2.02303E-18-5.20634E-19
 -1      2979 1.24504E-04-1.04952E-05-4.92989E-05 5.81483E-06-2.48922E-18-2.05779E-18
 -1      2980 8.80561E-05-2.98892E-05-2.49285E-05 2.77409E-05-1.90151E-18-8.89702E-19
 -1      2981 9.52395E-05-2.85759E-05-2.85701E-05-4.56078E-09 1.95015E-18-4.80034E-18
 -1      2982 9.52389E-05-2.85753E-05-2.85701E-05-4.83392E-09 2.02444E-18-4.92480E-18
 -1      2983 9.52389E-05-2.85752E-05-2.85701E-05-5.42341E-09 2.60273E-18-4.37123E-18
 -1      2984 9.52400E-05-2.85763E-05-2.85702E-05-4.78368E-09 2.64183E-18-4.18927E-18
 -1      2985 1.25654E-04-9.15059E-06-5.04788E-05-6.66411E-06-3.76750E-18-7.85702E-19
 -1      2986 1.22674E-04-1.23455E-05-4.75409E-05-9.75385E-06-3.34123E-18-1.02438E-19
 -1      2987 1.18558E-04-8.16603E-06-4.76791E-05-4.00179E-06-3.11126E-18-7.60847E-19
 -1      2988 9.76221E-05-2.43273E-05-3.13829E-05 6.44993E-06 2.25553E-18-1.78258E-18
 -1      2989 9.97967E-05-2.53324E-05-3.19322E-05 3.14808E-06 1.87011E-18-2.03657E-18
 -1      2990 1.03300E-04-2.86377E-05-3.20224E-05 1.31756E-06 1.53368E-18-1.75684E-18
 -1      2991 9.93933E-05-2.74946E-05-3.08563E-05 9.13165E-06 2.21181E-18-1.48040E-18
 -1      2992 1.03202E-04-2.82706E-05-3.20563E-05-1.05596E-05-3.98868E-19-2.41498E-18
 -1      2993 5.23325E-05 3.42706E-07-2.24926E-05 1.06555E-05 3.47630E-18-2.21433E-18
 -1      2994 5.36111E-05-1.14732E-06-2.24032E-05 1.64192E-05 3.75895E-18-2.11290E-18
 -1      2995 6.09274E-05-3.62506E-06-2.42532E-05-5.16467E-06 2.55315E-18-1.85932E-18
 -1      2996 5.41764E-05-1.15271E-07-2.30942E-05 1.13881E-06 2.97107E-18-2.12754E-18
 -1      2997 4.96310E-05-6.45185E-07-2.07983E-05 5.17155E-06 2.99308E-18-2.49393E-18
 -1      2998 1.32523E-04-5.02651E-05-3.57255E-05 7.59615E-06-3.01253E-19 1.03102E-18
 -1      2999 1.25897E-04-5.08644E-05-3.18782E-05 1.71758E-05 7.44754E-19 1.07441E-18
 -1      3000 9.52400E-05-2.85760E-05-2.85703E-05 5.59322E-09 1.21807E-19 3.45068E-18
 -1      3001 9.52407E-05-2.85766E-05-2.85703E-05 5.08581E-09-4.68148E-20 1.50122E-18
 -1      3002 1.04004E-04-2.90162E-05-3.21741E-05-1.04727E-05-8.86164E-19-1.60325E-18
 -1      3003 1.02961E-04-2.75154E-05-3.23058E-05-9.83484E-06-1.06985E-18-1.57494E-18
 -1      3004 1.01706E-04-2.57506E-05-3.26020E-05-8.87205E-06-1.24611E-18-1.61579E-18
 -1      3005 1.00598E-04-2.40781E-05-3.27474E-05-7.35430E-06-1.28056E-18-1.91874E-18
 -1      3006 1.04576E-04-2.66319E-05-3.33870E-05-1.02244E-05-1.21894E-18-1.32027E-18
 -1      3007 9.93610E-05-2.25191E-05-3.29614E-05-5.13652E-06-1.17308E-18-2.14318E-18
 -1      3008 9.86924E-05-2.15676E-05-3.30210E-05-2.81543E-06-1.00274E-18-2.19638E-18
 -1      3009 1.01994E-04-2.26935E-05-3.39846E-05-7.06460E-06-1.31551E-18-1.62753E-18
 -1      3010 9.82837E-05-2.11979E-05-3.30279E-05 1.65106E-07-6.70350E-19-2.31902E-18
 -1      3011 9.83662E-05-2.15562E-05-3.29348E-05 2.65048E-06-5.27304E-19-2.10513E-18
 -1      3012 1.00296E-04-2.04386E-05-3.42544E-05-1.65905E-06-8.21509E-19-2.11931E-18
 -1      3013 9.90259E-05-2.26613E-05-3.26836E-05 5.33493E-06-4.69728E-19-1.98563E-18
 -1      3014 9.97736E-05-2.42058E-05-3.24397E-05 7.20007E-06-5.88330E-19-1.74284E-18
 -1      3015 1.00576E-04-2.13261E-05-3.39916E-05 4.30337E-06-3.93063E-19-1.94346E-18
 -1      3016 1.01016E-04-2.62408E-05-3.19960E-05 8.67637E-06-7.64553E-19-1.62043E-18
 -1      3017 1.02011E-04-2.82658E-05-3.16667E-05 9.44536E-06-3.09400E-19-1.62818E-18
 -1      3018 1.02566E-04-2.50379E-05-3.32189E-05 8.58585E-06-6.44534E-19-1.91306E-18
 -1      3019 1.03047E-04-3.02841E-05-3.11535E-05 9.48424E-06-4.82851E-19-1.78766E-18
 -1      3020 1.03829E-04-3.20083E-05-3.08214E-05 9.21267E-06-4.59211E-19-1.99456E-18
 -1      3021 1.04922E-04-2.98175E-05-3.21534E-05 9.97580E-06-5.52055E-19-1.63047E-18
 -1      3022 1.04160E-04-3.33260E-05-3.03561E-05 8.23044E-06-3.39328E-19-1.91124E-18
 -1      3023 1.04479E-04-3.43246E-05-3.00807E-05 7.31214E-06-1.96696E-19-1.93672E-18
 -1      3024 1.06308E-04-3.37215E-05-3.10717E-05 8.78436E-06-3.85177E-19-1.87034E-18
 -1      3025 1.04093E-04-3.47834E-05-2.97212E-05 5.92878E-06 4.41212E-20-1.93617E-18
 -1      3026 1.03953E-04-3.50431E-05-2.95243E-05 4.79008E-06 4.84831E-19-1.43983E-18
 -1      3027 1.06218E-04-3.57742E-05-3.01700E-05 6.23286E-06 1.36246E-19-1.69345E-18
 -1      3028 1.03100E-04-3.48270E-05-2.92827E-05 3.47361E-06 6.11107E-19-1.68281E-18
 -1      3029 1.02651E-04-3.45607E-05-2.91607E-05 2.41511E-06 3.63373E-19-1.63498E-18
 -1      3030 1.04924E-04-3.60461E-05-2.95185E-05 3.45117E-06 3.78766E-19-1.74409E-18
 -1      3031 1.01633E-04-3.39692E-05-2.90186E-05 1.39487E-06 7.69923E-20-1.80999E-18
 -1      3032 1.01050E-04-3.34361E-05-2.89533E-05 5.62128E-07-3.25299E-20-1.78157E-18
 -1      3033 1.03008E-04-3.51207E-05-2.91073E-05 1.12733E-06 2.18823E-19-1.72275E-18
 -1      3034 1.00084E-04-3.27273E-05-2.88811E-05-1.16813E-07-4.61889E-19-1.52881E-18
 -1      3035 9.95014E-05-3.21299E-05-2.88517E-05-6.91989E-07-6.02886E-19-1.74403E-18
 -1      3036 1.00999E-04-3.36534E-05-2.88808E-05-5.08221E-07-2.02005E-19-1.73785E-18
 -1      3037 9.86981E-05-3.14667E-05-2.88220E-05-1.07769E-06-3.85247E-19-1.44639E-18
 -1      3038 9.81912E-05-3.09253E-05-2.88111E-05-1.42397E-06-8.11306E-20-1.02812E-18
 -1      3039 9.92242E-05-3.21231E-05-2.87758E-05-1.49511E-06-3.28893E-19-1.10595E-18
 -1      3040 9.75819E-05-3.03845E-05-2.88032E-05-1.59227E-06 1.44223E-20-1.27064E-18
 -1      3041 9.71781E-05-2.99516E-05-2.87992E-05-1.76057E-06 2.22008E-19-1.45957E-18
 -1      3042 9.78164E-05-3.07932E-05-2.87397E-05-1.97813E-06 4.13900E-21-7.30237E-19
 -1      3043 9.67489E-05-2.95529E-05-2.87997E-05-1.78366E-06 2.03062E-19-1.41072E-18
 -1      3044 9.64470E-05-2.92381E-05-2.87959E-05-1.82674E-06-5.70690E-20-1.45094E-18
 -1      3045 9.67869E-05-2.97638E-05-2.87360E-05-2.11289E-06 6.25766E-20-1.41346E-18
 -1      3046 9.61642E-05-2.89694E-05-2.87974E-05-1.76244E-06-3.23604E-20-1.45971E-18
 -1      3047 9.59491E-05-2.87593E-05-2.87910E-05-1.72552E-06 7.28149E-20-1.61638E-18
 -1      3048 9.60841E-05-2.90382E-05-2.87423E-05-2.03032E-06 5.66562E-20-1.29117E-18
 -1      3049 9.57752E-05-2.85952E-05-2.87901E-05-1.61554E-06 3.47368E-19-1.08343E-18
 -1      3050 9.56276E-05-2.84677E-05-2.87805E-05-1.53343E-06 1.17598E-18-1.27308E-18
 -1      3051 9.56351E-05-2.85716E-05-2.87472E-05-1.82761E-06 6.00306E-19-6.07249E-19
 -1      3052 9.55293E-05-2.83803E-05-2.87763E-05-1.40573E-06 1.70939E-18-1.20699E-18
 -1      3053 9.54311E-05-2.83128E-05-2.87642E-05-1.30322E-06 1.11686E-18-1.13323E-18
 -1      3054 9.53687E-05-2.83036E-05-2.87458E-05-1.57121E-06 1.43534E-18-4.82719E-19
 -1      3055 9.53820E-05-2.82775E-05-2.87571E-05-1.17531E-06 6.74595E-19-9.47777E-19
 -1      3056 9.53183E-05-2.82503E-05-2.87435E-05-1.06884E-06 3.68224E-19-5.10225E-19
 -1      3057 9.52253E-05-2.81761E-05-2.87376E-05-1.30363E-06 9.09331E-19-8.29769E-19
 -1      3058 9.52990E-05-2.82476E-05-2.87344E-05-9.50741E-07-2.67719E-20-6.80505E-19
 -1      3059 9.52585E-05-2.82454E-05-2.87205E-05-8.50306E-07 1.40899E-19-6.77287E-19
 -1      3060 9.51597E-05-2.81404E-05-2.87238E-05-1.05008E-06 1.42039E-19-7.28633E-19
 -1      3061 9.52561E-05-2.82610E-05-2.87104E-05-7.46984E-07 3.88575E-19-8.27810E-19
 -1      3062 9.52307E-05-2.82728E-05-2.86970E-05-6.57931E-07 5.18420E-19-5.21777E-19
 -1      3063 9.51398E-05-2.81596E-05-2.87065E-05-8.23895E-07 9.09078E-20-4.90249E-19
 -1      3064 9.52366E-05-2.82971E-05-2.86868E-05-5.71061E-07 7.74202E-19-3.86867E-19
 -1      3065 9.52208E-05-2.83154E-05-2.86746E-05-4.95587E-07 2.13836E-19-1.32785E-20
 -1      3066 9.51444E-05-2.82075E-05-2.86876E-05-6.30601E-07 9.14761E-19-1.58456E-18
 -1      3067 9.52299E-05-2.83422E-05-2.86649E-05-4.24847E-07-7.76932E-20 3.99271E-19
 -1      3068 9.52202E-05-2.83624E-05-2.86541E-05-3.63139E-07-3.10660E-19 4.36381E-19
 -1      3069 9.51600E-05-2.82670E-05-2.86686E-05-4.70863E-07 3.72994E-19-2.35964E-19
 -1      3070 9.52295E-05-2.83880E-05-2.86453E-05-3.07102E-07-7.08451E-19 9.85783E-19
 -1      3071 9.52235E-05-2.84073E-05-2.86361E-05-2.58174E-07-4.31547E-19 1.19825E-18
 -1      3072 9.51788E-05-2.83274E-05-2.86507E-05-3.42526E-07-3.81078E-19 4.36211E-19
 -1      3073 9.52317E-05-2.84300E-05-2.86285E-05-2.14889E-07-7.54350E-20 1.62019E-18
 -1      3074 9.52280E-05-2.84471E-05-2.86209E-05-1.77163E-07 8.48282E-19 1.58761E-18
 -1      3075 9.51967E-05-2.83828E-05-2.86346E-05-2.41982E-07-7.55392E-20 1.73732E-18
 -1      3076 9.52346E-05-2.84660E-05-2.86144E-05-1.44537E-07 6.29210E-19 1.78710E-18
 -1      3077 9.52322E-05-2.84803E-05-2.86083E-05-1.16223E-07 1.08338E-18 1.55389E-18
 -1      3078 9.52118E-05-2.84304E-05-2.86206E-05-1.65066E-07 9.46670E-19 1.97959E-18
 -1      3079 9.52371E-05-2.84955E-05-2.86030E-05-9.22407E-08 7.90664E-19 5.81451E-19
 -1      3080 9.52355E-05-2.85070E-05-2.85983E-05-7.15709E-08 6.03174E-19 4.44552E-20
 -1      3081 9.52235E-05-2.84695E-05-2.86089E-05-1.07608E-07 4.51394E-19 7.06925E-19
 -1      3082 9.52390E-05-2.85187E-05-2.85940E-05-5.44167E-08 8.74701E-19-6.44469E-19
 -1      3083 9.52379E-05-2.85276E-05-2.85904E-05-3.97778E-08 2.98592E-21-7.99498E-19
 -1      3084 9.52320E-05-2.85004E-05-2.85993E-05-6.57470E-08 1.53392E-19 1.51385E-20
 -1      3085 9.52401E-05-2.85364E-05-2.85870E-05-2.78879E-08 2.26415E-19-1.57991E-19
 -1      3086 9.52395E-05-2.85431E-05-2.85843E-05-1.78819E-08 9.16901E-19 1.82000E-19
 -1      3087 9.52377E-05-2.85241E-05-2.85916E-05-3.60879E-08 4.90452E-19 7.05619E-21
 -1      3088 9.52407E-05-2.85495E-05-2.85817E-05-9.95579E-09 8.92585E-19 3.34313E-19
 -1      3089 9.52403E-05-2.85544E-05-2.85798E-05-3.41788E-09 8.40273E-19-1.52215E-20
 -1      3090 9.52412E-05-2.85416E-05-2.85856E-05-1.57560E-08 1.32400E-18 8.17216E-20
 -1      3091 9.52409E-05-2.85589E-05-2.85779E-05 1.59555E-09 8.26220E-19-3.59043E-19
 -1      3092 9.52406E-05-2.85623E-05-2.85765E-05 5.60572E-09 6.18508E-19-6.55317E-19
 -1      3093 9.52432E-05-2.85542E-05-2.85810E-05-2.39054E-09 5.17979E-19-7.50225E-19
 -1      3094 9.52407E-05-2.85653E-05-2.85751E-05 8.53477E-09-5.64201E-20-4.82251E-19
 -1      3095 9.52405E-05-2.85677E-05-2.85741E-05 1.07557E-08-4.55719E-19-8.50845E-19
 -1      3096 9.52439E-05-2.85629E-05-2.85776E-05 5.89721E-09 2.94050E-20-6.85423E-20
 -1      3097 9.52403E-05-2.85696E-05-2.85731E-05 1.22381E-08-2.22993E-19-2.52169E-19
 -1      3098 9.52402E-05-2.85711E-05-2.85725E-05 1.32350E-08-5.78082E-20-2.52934E-19
 -1      3099 9.52439E-05-2.85687E-05-2.85751E-05 1.05831E-08-2.59686E-19 5.42588E-20
 -1      3100 9.52399E-05-2.85723E-05-2.85718E-05 1.37505E-08-7.38919E-19 3.85726E-19
 -1      3101 9.52399E-05-2.85732E-05-2.85714E-05 1.39452E-08-6.95596E-19-1.56761E-19
 -1      3102 9.52435E-05-2.85723E-05-2.85734E-05 1.27944E-08-4.13500E-20 5.94184E-19
 -1      3103 9.52394E-05-2.85738E-05-2.85710E-05 1.38458E-08 8.51712E-20-2.59097E-19
 -1      3104 9.52394E-05-2.85743E-05-2.85708E-05 1.35444E-08 2.63905E-19-5.35190E-19
 -1      3105 9.52428E-05-2.85744E-05-2.85722E-05 1.33728E-08-6.25444E-19 1.10185E-18
 -1      3106 9.52390E-05-2.85745E-05-2.85705E-05 1.30808E-08 4.35275E-19-7.98888E-19
 -1      3107 9.52390E-05-2.85748E-05-2.85704E-05 1.24979E-08-1.63750E-19-1.30420E-18
 -1      3108 9.52419E-05-2.85755E-05-2.85713E-05 1.29300E-08 4.22953E-19 5.61523E-19
 -1      3109 9.52386E-05-2.85748E-05-2.85702E-05 1.18427E-08-4.34564E-19-1.13125E-18
 -1      3110 9.52386E-05-2.85748E-05-2.85702E-05 1.11226E-08 1.46018E-19-8.99903E-19
 -1      3111 9.52411E-05-2.85758E-05-2.85708E-05 1.18977E-08 6.34251E-21 4.27316E-19
 -1      3112 9.52383E-05-2.85747E-05-2.85701E-05 1.03891E-08-2.68255E-19-2.72784E-19
 -1      3113 9.52383E-05-2.85747E-05-2.85701E-05 9.62298E-09-1.43410E-18 1.35362E-19
 -1      3114 9.52403E-05-2.85758E-05-2.85705E-05 1.05684E-08 6.93247E-19-4.43812E-19
 -1      3115 9.52380E-05-2.85745E-05-2.85701E-05 8.87416E-09-2.01153E-18 7.03722E-19
 -1      3116 9.52381E-05-2.85745E-05-2.85701E-05 8.12176E-09-2.84205E-18 5.91089E-19
 -1      3117 9.52396E-05-2.85755E-05-2.85703E-05 9.13317E-09-1.03551E-18 7.43889E-19
 -1      3118 1.01702E-04-4.64697E-05-2.35815E-05 3.09827E-05-1.29342E-18-1.77268E-18
 -1      3119 7.83072E-05-1.76841E-05-2.60316E-05 1.80292E-05-1.79579E-18-2.77655E-19
 -1      3120 7.73660E-05-1.92392E-05-2.48539E-05 2.07194E-05-2.04606E-18-4.74855E-19
 -1      3121 9.52414E-05-2.85772E-05-2.85704E-05 4.32040E-09 3.13958E-20-4.23807E-19
 -1      3122 9.52418E-05-2.85776E-05-2.85704E-05 3.54395E-09 2.58525E-19 1.64535E-18
 -1      3123 9.52415E-05-2.85771E-05-2.85705E-05 5.12771E-09 3.62272E-20 6.93862E-19
 -1      3124 8.95918E-05-2.17062E-05-2.91428E-05 8.58000E-06-1.14594E-19 2.54643E-19
 -1      3125 8.86601E-05-2.08680E-05-2.90498E-05 9.78564E-06-5.81534E-19-5.79440E-22
 -1      3126 8.30330E-05-1.81899E-05-2.78689E-05 1.40758E-05-1.07241E-18 1.72097E-19
 -1      3127 8.17679E-05-1.80412E-05-2.72581E-05 1.59334E-05-1.16330E-18-3.61941E-19
 -1      3128 7.46842E-05-1.51828E-05-2.53502E-05 1.45781E-05-1.62489E-18-6.80009E-20
 -1      3129 9.17437E-05-2.34753E-05-2.92936E-05 6.73975E-06-9.15481E-19 1.00829E-18
 -1      3130 9.11223E-05-2.27460E-05-2.93013E-05 7.73399E-06-7.26271E-19 1.91052E-19
 -1      3131 8.81192E-05-2.08872E-05-2.87565E-05 7.06099E-06-7.52018E-19 5.80573E-19
 -1      3132 9.32193E-05-2.49377E-05-2.92888E-05 5.16833E-06-3.11716E-19 1.15848E-19
 -1      3133 9.28286E-05-2.43423E-05-2.93462E-05 6.00290E-06-1.99191E-19 7.74211E-19
 -1      3134 9.06724E-05-2.28964E-05-2.90082E-05 5.67605E-06-7.18464E-19 7.98046E-19
 -1      3135 9.41019E-05-2.59759E-05-2.92143E-05 3.96840E-06-3.95946E-19-1.36052E-19
 -1      3136 9.39015E-05-2.55578E-05-2.92838E-05 4.59773E-06-3.82499E-19-4.28932E-19
 -1      3137 9.23797E-05-2.44618E-05-2.90828E-05 4.49512E-06 7.60634E-21 7.62131E-20
 -1      3138 9.46371E-05-2.67290E-05-2.91158E-05 3.01447E-06 2.84626E-19 2.85818E-20
 -1      3139 9.45408E-05-2.64274E-05-2.91847E-05 3.50463E-06 1.22521E-19 1.73680E-19
 -1      3140 9.34660E-05-2.56061E-05-2.90674E-05 3.52562E-06 1.41707E-19 1.13378E-19
 -1      3141 9.49498E-05-2.72660E-05-2.90159E-05 2.26669E-06 6.32096E-20-2.37104E-19
 -1      3142 9.49147E-05-2.70524E-05-2.90776E-05 2.64375E-06 3.14407E-19 1.89387E-20
 -1      3143 9.41626E-05-2.64434E-05-2.90131E-05 2.72615E-06 2.39014E-19 1.72397E-19
 -1      3144 9.51239E-05-2.76457E-05-2.89251E-05 1.68713E-06-1.76979E-19-1.56243E-20
 -1      3145 9.51219E-05-2.74954E-05-2.89773E-05 1.97444E-06-3.26273E-19-1.63374E-19
 -1      3146 9.46005E-05-2.70479E-05-2.89456E-05 2.08016E-06-1.92710E-19-2.93658E-19
 -1      3147 9.52144E-05-2.79139E-05-2.88473E-05 1.24203E-06-3.69784E-19 3.87981E-19
 -1      3148 9.52285E-05-2.78079E-05-2.88900E-05 1.45944E-06 5.49947E-20 3.44018E-19
 -1      3149 9.48706E-05-2.74811E-05-2.88780E-05 1.56694E-06-2.71947E-19 7.79059E-19
 -1      3150 9.52580E-05-2.81110E-05-2.87802E-05 8.88756E-07 9.95922E-20-3.86489E-19
 -1      3151 9.52784E-05-2.80336E-05-2.88156E-05 1.05814E-06-2.00554E-19-1.98226E-19
 -1      3152 9.50369E-05-2.77969E-05-2.88153E-05 1.15675E-06 2.82612E-20 9.40018E-19
 -1      3153 9.52733E-05-2.82433E-05-2.87291E-05 6.37066E-07 7.77343E-19-1.47615E-19
 -1      3154 9.52935E-05-2.81909E-05-2.87553E-05 7.57094E-07 3.10564E-19-6.89134E-19
 -1      3155 9.51344E-05-2.80226E-05-2.87615E-05 8.40546E-07 6.44325E-19 1.08691E-18
 -1      3156 9.52750E-05-2.83379E-05-2.86886E-05 4.48650E-07 1.26152E-18-8.68579E-19
 -1      3157 9.52930E-05-2.83003E-05-2.87089E-05 5.37438E-07 1.11001E-18-4.95275E-19
 -1      3158 9.51888E-05-2.81796E-05-2.87180E-05 6.06054E-07 1.14826E-18 1.63018E-18
 -1      3159 9.52706E-05-2.84059E-05-2.86572E-05 3.09121E-07 7.63227E-19-2.34529E-18
 -1      3160 9.52855E-05-2.83787E-05-2.86726E-05 3.74249E-07 1.14254E-18-2.27169E-18
 -1      3161 9.52191E-05-2.82928E-05-2.86827E-05 4.28845E-07 1.64632E-18-9.34386E-19
 -1      3162 9.52642E-05-2.84550E-05-2.86331E-05 2.06987E-07-5.38804E-19-4.16039E-19
 -1      3163 9.52759E-05-2.84352E-05-2.86447E-05 2.54234E-07-3.38172E-20-1.07807E-18
 -1      3164 9.52353E-05-2.83747E-05-2.86547E-05 2.96563E-07-3.65956E-19-1.30116E-18
 -1      3165 9.52576E-05-2.84906E-05-2.86149E-05 1.33212E-07 9.47150E-19-3.89976E-19
 -1      3166 9.52664E-05-2.84760E-05-2.86234E-05 1.67062E-07 1.82535E-20-8.53169E-19
 -1      3167 9.52432E-05-2.84340E-05-2.86327E-05 1.99128E-07-1.16377E-19-5.43840E-19
 -1      3168 9.52515E-05-2.85174E-05-2.86007E-05 7.87061E-08-1.80808E-19-1.24351E-18
 -1      3169 9.52581E-05-2.85064E-05-2.86072E-05 1.03348E-07 4.95687E-19-7.04370E-19
 -1      3170 9.52465E-05-2.84777E-05-2.86154E-05 1.27127E-07 9.93953E-19-1.71322E-19
 -1      3171 9.52470E-05-2.85355E-05-2.85908E-05 4.30747E-08-1.38089E-18-1.54251E-18
 -1      3172 9.52513E-05-2.85279E-05-2.85952E-05 5.91241E-08-6.25537E-19-1.58196E-18
 -1      3173 9.52473E-05-2.85093E-05-2.86022E-05 7.60318E-08-2.05474E-20-1.41802E-18
 -1      3174 9.52435E-05-2.85484E-05-2.85837E-05 1.89884E-08-1.96037E-18-2.61126E-18
 -1      3175 9.52464E-05-2.85429E-05-2.85868E-05 2.96776E-08-1.93852E-18-2.09618E-18
 -1      3176 9.52468E-05-2.85311E-05-2.85926E-05 4.16132E-08-5.13334E-19-2.40033E-18
 -1      3177 9.52409E-05-2.85575E-05-2.85787E-05 3.32748E-09-3.92659E-19-3.91187E-18
 -1      3178 9.52427E-05-2.85536E-05-2.85808E-05 1.01634E-08-8.21576E-19-3.03611E-18
 -1      3179 9.52458E-05-2.85464E-05-2.85856E-05 1.83330E-08-5.86109E-19-3.82283E-18
 -1      3180 9.52391E-05-2.85638E-05-2.85752E-05-6.32139E-09 7.72032E-19-2.59016E-18
 -1      3181 9.52402E-05-2.85611E-05-2.85766E-05-2.20438E-09-4.74811E-19-3.51116E-18
 -1      3182 9.52446E-05-2.85571E-05-2.85804E-05 3.17969E-09-8.91257E-19-3.49301E-18
 -1      3183 9.52379E-05-2.85682E-05-2.85727E-05-1.19407E-08-3.29109E-19-1.74553E-18
 -1      3184 9.52384E-05-2.85663E-05-2.85737E-05-9.66432E-09 1.12598E-18-2.11015E-18
 -1      3185 9.52433E-05-2.85645E-05-2.85767E-05-6.29747E-09 5.31976E-19-1.47097E-18
 -1      3186 9.52372E-05-2.85709E-05-2.85713E-05-1.43822E-08-1.02570E-18-1.07574E-18
 -1      3187 9.52373E-05-2.85696E-05-2.85718E-05-1.34839E-08-8.66649E-19-2.34567E-18
 -1      3188 9.52421E-05-2.85693E-05-2.85741E-05-1.15970E-08-2.78600E-19-2.44234E-18
 -1      3189 9.52368E-05-2.85725E-05-2.85704E-05-1.50004E-08 1.18755E-19-1.75995E-18
 -1      3190 9.52367E-05-2.85717E-05-2.85707E-05-1.49062E-08-3.73016E-19-1.58540E-18
 -1      3191 9.52411E-05-2.85722E-05-2.85724E-05-1.39742E-08-8.54222E-19-2.57553E-18
 -1      3192 9.52366E-05-2.85734E-05-2.85699E-05-1.44813E-08 3.47064E-19-2.80007E-18
 -1      3193 9.52363E-05-2.85729E-05-2.85700E-05-1.48729E-08-4.34958E-20-2.44013E-18
 -1      3194 9.52403E-05-2.85739E-05-2.85713E-05-1.45738E-08 1.00259E-18-2.73938E-18
 -1      3195 9.52365E-05-2.85738E-05-2.85697E-05-1.33109E-08 9.45149E-19-2.50908E-18
 -1      3196 9.52362E-05-2.85735E-05-2.85697E-05-1.39707E-08 1.33315E-18-2.30577E-18
 -1      3197 9.52396E-05-2.85747E-05-2.85707E-05-1.40694E-08 7.09562E-19-3.37013E-18
 -1      3198 9.52365E-05-2.85739E-05-2.85697E-05-1.18179E-08-1.48080E-18-1.59540E-18
 -1      3199 9.52362E-05-2.85738E-05-2.85696E-05-1.26004E-08-8.92081E-19-2.37069E-18
 -1      3200 9.52390E-05-2.85750E-05-2.85703E-05-1.29326E-08-1.40371E-19-2.55667E-18
 -1      3201 9.52366E-05-2.85738E-05-2.85698E-05-1.01295E-08-3.29802E-19-1.20176E-18
 -1      3202 9.52363E-05-2.85738E-05-2.85697E-05-1.09853E-08-9.13667E-19-2.12065E-18
 -1      3203 9.52385E-05-2.85749E-05-2.85701E-05-1.14417E-08-9.30289E-19-3.08700E-18
 -1      3204 9.52367E-05-2.85737E-05-2.85699E-05-8.53141E-09-1.40177E-18-3.23924E-18
 -1      3205 9.52365E-05-2.85737E-05-2.85698E-05-9.33133E-09-7.08410E-19-2.40693E-18
 -1      3206 9.52382E-05-2.85747E-05-2.85701E-05-9.83843E-09 2.18242E-19-3.67274E-18
 -1      3207 9.52369E-05-2.85736E-05-2.85700E-05-7.00810E-09 9.79064E-19-5.61045E-18
 -1      3208 9.52367E-05-2.85736E-05-2.85699E-05-7.76069E-09 7.42579E-20-3.83265E-18
 -1      3209 9.52379E-05-2.85745E-05-2.85701E-05-8.28405E-09 1.39427E-19-4.76202E-18
 -1      3210 9.52374E-05-2.85739E-05-2.85701E-05-5.99992E-09 7.78870E-19-4.53852E-18
 -1      3211 9.52370E-05-2.85737E-05-2.85700E-05-6.54695E-09 8.57949E-19-5.55360E-18
 -1      3212 9.52380E-05-2.85744E-05-2.85701E-05-7.02576E-09 1.89990E-18-3.77300E-18
 -1      3213 9.52382E-05-2.85746E-05-2.85701E-05-6.06159E-09 1.73768E-18-2.70035E-18
 -1      3214 9.52427E-05-2.85782E-05-2.85705E-05 5.36839E-10-8.69557E-19 4.02427E-18
 -1      3215 9.52427E-05-2.85782E-05-2.85705E-05-4.60502E-10-1.41328E-18 4.04943E-18
 -1      3216 5.43176E-05-1.17434E-05-1.81936E-05 3.34476E-05 3.94289E-18-1.98343E-18
 -1      3217 4.38708E-05-4.14871E-06-1.66041E-05 2.35545E-05 3.73732E-18-2.79690E-18
 -1      3218 1.42583E-04-4.80442E-05-4.08682E-05-1.18894E-06 8.22310E-19-2.80897E-18
 -1      3219 1.38613E-04-4.16277E-05-4.18144E-05 5.92403E-06 5.76088E-19-2.86710E-18
 -1      3220 1.34535E-04-3.87484E-05-4.16190E-05-7.57815E-06-2.08635E-18 9.18078E-19
 -1      3221 1.35366E-04-4.49279E-05-3.86749E-05-1.66075E-06-1.22870E-18 1.02502E-18
 -1      3222 1.37977E-04-5.14466E-05-3.71785E-05-2.92950E-06 1.55654E-18-2.40674E-18
 -1      3223 9.75245E-05-4.45047E-05-2.21781E-05-3.62172E-05 2.34244E-18 8.32792E-19
 -1      3224 1.11523E-04-5.25086E-05-2.57121E-05-3.10687E-05 2.56143E-18-6.55630E-19
 -1      3225 6.83280E-05-9.60259E-06-2.49948E-05-1.13880E-05 1.86988E-18-1.50261E-18
 -1      3226 1.31510E-04-3.04442E-05-4.35758E-05 1.16210E-05-3.78835E-19-2.52569E-18
 -1      3227 1.26091E-04-2.15991E-05-4.53164E-05 1.20061E-05-1.01062E-18-2.38562E-18
 -1      3228 9.95494E-05-4.83028E-05-2.17628E-05 3.25720E-05-9.66888E-19-1.43000E-18
 -1      3229 1.24202E-04-5.52712E-05-2.91792E-05-1.97415E-05 2.46426E-18-1.41087E-18
 -1      3230 1.31203E-04-5.47549E-05-3.31194E-05-9.64888E-06 1.91885E-18-1.69444E-18
 -1      3231 1.21414E-04-1.36827E-05-4.64937E-05 9.51567E-06-1.64494E-18-2.42183E-18
 -1      3232 1.17658E-04-9.11769E-06-4.69695E-05 3.84061E-06-2.42791E-18-1.84583E-18
 -1      3233 1.04707E-04-3.00333E-05-3.20237E-05-1.01974E-05-4.67790E-19-2.44351E-18
 -1      3234 1.04835E-04-3.06001E-05-3.18494E-05-1.00701E-05-6.06383E-19-2.31907E-18
 -1      3235 1.04315E-04-2.88201E-05-3.24142E-05-9.56985E-06-1.26511E-19-2.90978E-18
 -1      3236 1.04514E-04-2.94928E-05-3.21628E-05-9.72012E-06-2.74371E-19-2.62141E-18
 -1      3237 1.05102E-04-2.89406E-05-3.25904E-05-8.03622E-06 1.53079E-19-2.46029E-18
 -1      3238 9.52379E-05-2.85743E-05-2.85701E-05 6.02351E-09-3.86098E-19 1.51442E-18
 -1      3239 9.52392E-05-2.85753E-05-2.85702E-05 5.99916E-09-8.48077E-19 3.96092E-18
 -1      3240 9.52399E-05-2.85759E-05-2.85703E-05 6.28568E-09-9.39421E-19 2.64922E-18
 -1      3241 9.52379E-05-2.85743E-05-2.85701E-05 6.62165E-09-1.18157E-18 1.36204E-18
 -1      3242 5.56518E-05-4.06807E-06-2.20463E-05 2.26360E-05 3.95959E-18-2.06094E-18
 -1      3243 6.23184E-05-8.38516E-06-2.28923E-05 2.56990E-05 4.01230E-18-1.80540E-18
 -1      3244 1.05249E-04-3.07824E-05-3.19127E-05-1.05768E-05-7.12722E-19-1.86499E-18
 -1      3245 1.04608E-04-3.00962E-05-3.19336E-05-1.04545E-05-7.01404E-19-1.75089E-18
 -1      3246 1.06459E-04-2.99388E-05-3.27518E-05-1.09857E-05-7.12745E-19-1.33093E-18
 -1      3247 8.64996E-05-1.96957E-05-2.86956E-05 1.08476E-05-9.15423E-19 2.00516E-19
 -1      3248 8.52803E-05-1.89382E-05-2.84075E-05 1.22844E-05-9.35700E-19-3.82554E-20
 -1      3249 8.44985E-05-1.85461E-05-2.81900E-05 8.63354E-06-7.18439E-19 1.02086E-19
 -1      3250 8.41720E-05-3.14925E-05-2.26882E-05 3.87926E-05 3.37061E-18-4.20022E-19
 -1      3251 6.97229E-05-2.12679E-05-2.02452E-05 3.73143E-05 3.87443E-18-1.15075E-18
 -1      3252 1.26037E-04-2.11238E-05-4.55828E-05-1.27396E-05-3.19300E-18 4.57610E-19
 -1      3253 1.30806E-04-2.97359E-05-4.34059E-05-1.22305E-05-2.67197E-18 9.43012E-19
 -1      3254 7.42794E-05-1.72653E-05-2.44894E-05 2.93171E-05 3.88454E-18-1.18677E-18
 -1      3255 8.33236E-05-2.25744E-05-2.58970E-05 2.74918E-05 3.60126E-18-1.09966E-18
 -1      3256 4.27615E-05-1.26230E-06-1.74938E-05 5.74518E-06 2.96746E-18-2.93984E-18
 -1      3257 4.61094E-05-3.56622E-06-1.75139E-05-6.83537E-06 2.18554E-18-3.24636E-18
 -1      3258 4.72603E-05-1.11496E-05-1.51406E-05-1.74204E-05 3.27828E-19 3.61852E-18
 -1      3259 5.37533E-05-1.66147E-05-1.56770E-05-2.78266E-05 9.16410E-19 3.88121E-18
 -1      3260 6.48909E-05-2.46329E-05-1.67971E-05-3.45234E-05 1.87020E-18 3.64584E-18
 -1      3261 8.06654E-05-3.56226E-05-1.94532E-05-3.89285E-05 2.27783E-18 2.58070E-18
 -1      3262 6.55334E-05-2.12357E-05-1.85737E-05-2.83951E-05 1.18275E-18 3.30258E-18
 -1      3263 9.52422E-05-2.85779E-05-2.85704E-05 2.56184E-09 1.49669E-19 3.14619E-18
 -1      3264 9.52425E-05-2.85781E-05-2.85704E-05 1.63840E-09-2.82445E-19 4.29608E-18
 -1      3265 9.52433E-05-2.85785E-05-2.85706E-05 1.17913E-09-3.30558E-19 4.86980E-18
 -1      3266 9.52427E-05-2.85780E-05-2.85706E-05 3.32275E-09-6.23158E-19 2.54765E-18
 -1      3267 1.15025E-04-4.88199E-05-2.86646E-05 2.78042E-05 1.80799E-18 6.29104E-19
 -1      3268 1.00615E-04-4.09792E-05-2.52049E-05 3.40822E-05 2.78197E-18 2.60952E-19
 -1      3269 1.33674E-04-4.34392E-05-3.87882E-05 5.82159E-06 7.75194E-19-2.34829E-18
 -1      3270 1.33235E-04-3.72477E-05-4.15639E-05 9.21849E-06 1.27267E-19-2.43331E-18
 -1      3271 1.27519E-04-3.35003E-05-4.04426E-05 1.14554E-05-4.97102E-20-1.86630E-18
 -1      3272 4.71879E-05-8.41268E-06-1.63938E-05-1.92503E-06-1.19281E-18 1.88698E-18
 -1      3273 4.60578E-05-8.84180E-06-1.54358E-05-1.06493E-05-4.85588E-19 2.52617E-18
 -1      3274 5.38775E-05-1.13458E-05-1.79106E-05-1.42808E-05-9.41662E-21 2.65661E-18
 -1      3275 1.30830E-04-4.61578E-05-3.63309E-05 1.19861E-06-3.99942E-19 7.50577E-19
 -1      3276 6.53680E-05-1.51373E-05-2.11604E-05 3.21077E-05 3.91192E-18-1.66357E-18
 -1      3277 1.05944E-04-3.00406E-05-3.24882E-05-3.44533E-06 1.03041E-18-1.64659E-18
 -1      3278 1.05661E-04-2.97068E-05-3.26092E-05-5.87972E-06 5.85548E-19-1.90388E-18
 -1      3279 1.06581E-04-3.06584E-05-3.25451E-05-6.75163E-06 4.09851E-19-1.88497E-18
 -1      3280 9.52379E-05-2.85744E-05-2.85701E-05 7.20395E-09-2.39834E-18 1.22718E-18
 -1      3281 1.15788E-04-9.32387E-06-4.60616E-05 2.48808E-07-2.44168E-18-1.53709E-18
 -1      3282 1.13513E-04-9.94043E-06-4.45156E-05-3.60706E-06-2.54528E-18-9.99644E-19
 -1      3283 1.12953E-04-1.17419E-05-4.36078E-05 3.56946E-06-1.82017E-18-1.93831E-18
 -1      3284 9.44754E-05-3.47241E-05-2.53320E-05 3.22010E-05 3.23196E-18-2.52211E-19
 -1      3285 9.52433E-05-2.85785E-05-2.85706E-05-1.09986E-09-1.14914E-18 1.79831E-18
 -1      3286 9.52425E-05-2.85781E-05-2.85704E-05-1.57522E-09-9.20457E-19 1.95417E-18
 -1      3287 9.52423E-05-2.85779E-05-2.85704E-05-2.51986E-09-1.21725E-19-7.19967E-19
 -1      3288 1.19490E-04-4.75373E-05-3.06712E-05 1.88970E-05 1.47196E-18 6.30007E-19
 -1      3289 9.52419E-05-2.85776E-05-2.85704E-05-3.52127E-09 4.84467E-19-9.92312E-19
 -1      3290 9.52414E-05-2.85772E-05-2.85704E-05-4.30447E-09 6.50911E-19-2.04344E-18
 -1      3291 9.52427E-05-2.85780E-05-2.85706E-05-3.27628E-09 2.64900E-20-1.59642E-18
 -1      3292 9.52391E-05-2.85752E-05-2.85702E-05 7.50082E-09-2.48453E-18 2.64613E-18
 -1      3293 1.20656E-04-1.80043E-05-4.42970E-05-1.14896E-05-2.83211E-18 1.76236E-19
 -1      3294 5.05572E-05-3.02574E-06-1.99665E-05 1.99992E-05 3.75684E-18-2.42881E-18
 -1      3295 4.23749E-05-1.12237E-06-1.71775E-05 1.64647E-05 3.52365E-18-2.90585E-18
 -1      3296 1.33883E-04-5.16553E-05-3.52803E-05-2.87084E-06 1.71514E-18-1.95770E-18
 -1      3297 1.34058E-04-4.90953E-05-3.67348E-05 6.67278E-07 1.32356E-18-2.14911E-18
 -1      3298 9.09913E-05-3.86780E-05-2.21348E-05-3.37451E-05 2.11372E-18 1.14019E-18
 -1      3299 1.06212E-04-3.04905E-05-3.23994E-05-9.38594E-06-4.09537E-20-2.31554E-18
 -1      3300 1.20343E-04-1.93717E-05-4.35548E-05 1.06409E-05-1.14318E-18-2.39604E-18
 -1      3301 5.25872E-05-1.39406E-05-1.59019E-05 1.88522E-05-1.37823E-18 1.34890E-18
 -1      3302 5.02671E-05-1.04218E-05-1.68181E-05 1.11768E-05-1.62159E-18 1.35599E-18
 -1      3303 6.24352E-05-1.75125E-05-1.90757E-05 2.22597E-05-1.91641E-18-7.46448E-20
 -1      3304 1.28645E-04-3.39145E-05-4.07957E-05-1.05277E-05-1.96252E-18 8.36392E-19
 -1      3305 1.17184E-04-5.17550E-05-2.78967E-05-2.15818E-05 2.21594E-18-1.07073E-18
 -1      3306 1.28703E-04-5.21058E-05-3.28403E-05-5.52707E-06 1.59700E-18-1.20880E-18
 -1      3307 8.00920E-05-1.64181E-05-2.72013E-05 1.10674E-05-1.07123E-18-2.68281E-19
 -1      3308 1.06787E-04-3.12671E-05-3.23755E-05-1.03171E-05-4.47774E-19-1.97989E-18
 -1      3309 9.52408E-05-2.85767E-05-2.85703E-05-4.96058E-09 1.74280E-18-3.39423E-18
 -1      3310 9.52402E-05-2.85763E-05-2.85703E-05-5.41057E-09 2.54206E-18-5.13012E-18
 -1      3311 9.52416E-05-2.85772E-05-2.85705E-05-4.98731E-09 4.10013E-19-3.03336E-18
 -1      3312 6.50363E-05-1.37047E-05-2.16037E-05 1.67585E-05-2.09083E-18 4.98955E-20
 -1      3313 7.14206E-05-1.87007E-05-2.24688E-05 2.16926E-05-1.94410E-18-2.01567E-19
 -1      3314 9.89167E-05-4.23959E-05-2.35504E-05-2.89827E-05-1.73218E-18-1.76733E-18
 -1      3315 9.16500E-05-3.01641E-05-2.62938E-05 2.80683E-05 3.22581E-18-6.42872E-19
 -1      3316 9.34854E-05-2.70251E-05-2.84947E-05 2.06668E-05 3.14528E-18-8.97858E-19
 -1      3317 9.90910E-05-3.00799E-05-2.95127E-05 1.67456E-05 2.64019E-18-9.26879E-19
 -1      3318 1.05362E-04-3.91987E-05-2.84051E-05 2.41179E-05 2.54296E-18-1.96015E-19
 -1      3319 1.04849E-04-3.05675E-05-3.17803E-05 3.37959E-06 1.78499E-18-1.47669E-18
 -1      3320 1.05750E-04-3.06763E-05-3.22079E-05-1.01519E-07 1.42081E-18-1.63490E-18
 -1      3321 1.07375E-04-3.20443E-05-3.23049E-05-1.37673E-06 1.19641E-18-1.38371E-18
 -1      3322 4.70087E-05-7.15947E-06-1.65823E-05-1.27020E-05 1.58251E-18-3.44859E-18
 -1      3323 5.90075E-05-1.48914E-05-1.85572E-05-2.10531E-05 5.50677E-19-3.30650E-18
 -1      3324 1.30567E-04-4.47596E-05-3.68246E-05 5.15055E-06 9.70250E-19-1.56905E-18
 -1      3325 1.14599E-04-1.48401E-05-4.32329E-05-9.24995E-06-2.69182E-18-5.73845E-19
 -1      3326 1.18172E-04-2.11275E-05-4.15220E-05-1.30148E-05-2.48816E-18-1.05826E-19
 -1      3327 9.52402E-05-2.85760E-05-2.85704E-05 7.11644E-09-9.88789E-19 1.93167E-18
 -1      3328 1.04763E-04-2.30424E-05-3.51058E-05-9.11769E-06-1.39778E-18-1.30873E-18
 -1      3329 1.03448E-04-2.06895E-05-3.54090E-05-6.97082E-06-1.46541E-18-1.38664E-18
 -1      3330 1.02162E-04-1.89819E-05-3.57107E-05-3.50241E-06-1.29042E-18-1.71439E-18
 -1      3331 1.01803E-04-1.84398E-05-3.57370E-05-5.04874E-07-6.14086E-19-1.66972E-18
 -1      3332 1.04898E-04-1.85722E-05-3.69822E-05-6.03574E-06-1.44106E-18-1.07475E-18
 -1      3333 1.02022E-04-1.90529E-05-3.55554E-05 3.36346E-06-4.87309E-19-2.37085E-18
 -1      3334 1.02718E-04-2.07040E-05-3.52453E-05 6.05561E-06-7.22150E-19-2.45990E-18
 -1      3335 1.04014E-04-1.75836E-05-3.70575E-05 1.44192E-06-1.03758E-18-2.18283E-18
 -1      3336 1.04288E-04-2.33767E-05-3.46176E-05 8.64208E-06-6.64080E-19-2.78823E-18
 -1      3337 1.05550E-04-2.63514E-05-3.40628E-05 9.97665E-06-6.24789E-19-2.46307E-18
 -1      3338 1.05892E-04-2.13204E-05-3.62180E-05 8.16690E-06-7.30877E-19-3.43035E-18
 -1      3339 1.07105E-04-2.95044E-05-3.32135E-05 1.03642E-05-6.27833E-19-2.17103E-18
 -1      3340 1.08172E-04-3.23337E-05-3.25811E-05 1.02077E-05-4.03085E-19-2.18701E-18
 -1      3341 1.09118E-04-2.82844E-05-3.45786E-05 1.09277E-05-4.47548E-19-2.89135E-18
 -1      3342 1.08700E-04-3.46040E-05-3.17539E-05 8.92954E-06-2.84947E-19-1.88142E-18
 -1      3343 1.09059E-04-3.63155E-05-3.11991E-05 7.79718E-06-2.76138E-20-1.68553E-18
 -1      3344 1.11174E-04-3.46326E-05-3.27470E-05 9.66246E-06-8.17503E-20-2.23538E-18
 -1      3345 1.08425E-04-3.72213E-05-3.05437E-05 5.92141E-06-1.71541E-20-1.59805E-18
 -1      3346 1.08056E-04-3.77323E-05-3.01232E-05 4.47821E-06 3.33109E-19-1.53255E-18
 -1      3347 1.11021E-04-3.82923E-05-3.11509E-05 6.11863E-06 6.20071E-20-1.21439E-18
 -1      3348 1.06678E-04-3.75044E-05-2.96772E-05 2.78717E-06 2.59386E-19-1.57392E-18
 -1      3349 1.05827E-04-3.71445E-05-2.94009E-05 1.51087E-06 3.72962E-19-1.54901E-18
 -1      3350 1.08895E-04-3.89519E-05-2.99836E-05 2.40497E-06 2.35349E-19-1.22813E-18
 -1      3351 1.04237E-04-3.63072E-05-2.91357E-05 3.16559E-07 3.88885E-19-1.40196E-18
 -1      3352 1.03208E-04-3.55096E-05-2.89769E-05-6.11706E-07 3.55171E-19-1.21451E-18
 -1      3353 1.05855E-04-3.76822E-05-2.92454E-05-4.07451E-07 5.35011E-19-1.31651E-18
 -1      3354 1.01750E-04-3.44844E-05-2.88407E-05-1.29546E-06 1.02959E-19-1.67887E-18
 -1      3355 1.00772E-04-3.35866E-05-2.87625E-05-1.87131E-06-1.51272E-19-1.19215E-18
 -1      3356 1.02770E-04-3.55598E-05-2.88376E-05-2.14461E-06 1.88190E-19-1.30006E-18
 -1      3357 9.96023E-05-3.26304E-05-2.87068E-05-2.16886E-06-6.48952E-20-1.26637E-18
 -1      3358 9.87895E-05-3.18223E-05-2.86770E-05-2.46356E-06-1.77150E-19-9.07520E-19
 -1      3359 1.00142E-04-3.33665E-05-2.86489E-05-2.96985E-06 2.99215E-19-1.44564E-18
 -1      3360 9.79338E-05-3.10474E-05-2.86653E-05-2.51017E-06-3.96416E-19-8.46867E-19
 -1      3361 9.73173E-05-3.04072E-05-2.86602E-05-2.60717E-06-9.18201E-20-1.04113E-18
 -1      3362 9.81325E-05-3.14858E-05-2.85879E-05-3.18314E-06-1.60607E-19-1.03151E-18
 -1      3363 9.67399E-05-2.98403E-05-2.86685E-05-2.50989E-06 4.18772E-19-1.05660E-18
 -1      3364 9.63056E-05-2.93799E-05-2.86729E-05-2.48185E-06 3.24019E-19-9.45432E-19
 -1      3365 9.67200E-05-3.00497E-05-2.85914E-05-3.03358E-06 4.21194E-20-6.22042E-19
 -1      3366 9.59464E-05-2.90014E-05-2.86871E-05-2.31518E-06-1.64011E-19-1.00139E-18
 -1      3367 9.56603E-05-2.86987E-05-2.86927E-05-2.21664E-06 6.89760E-20-1.04281E-18
 -1      3368 9.58027E-05-2.90518E-05-2.86201E-05-2.70129E-06 1.04835E-19-4.33519E-19
 -1      3369 9.54582E-05-2.84704E-05-2.87054E-05-2.02691E-06 9.20371E-19-1.29707E-18
 -1      3370 9.52823E-05-2.82911E-05-2.87083E-05-1.89525E-06 1.37526E-18-4.69749E-19
 -1      3371 9.52570E-05-2.84207E-05-2.86521E-05-2.30099E-06 2.47221E-19-1.05181E-18
 -1      3372 9.51857E-05-2.81726E-05-2.87165E-05-1.70875E-06 1.21186E-18-6.00685E-19
 -1      3373 9.50862E-05-2.80821E-05-2.87156E-05-1.56801E-06 1.37622E-18-8.94983E-19
 -1      3374 9.49696E-05-2.80671E-05-2.86772E-05-1.89838E-06 1.49551E-18-8.74099E-19
 -1      3375 9.50555E-05-2.80381E-05-2.87189E-05-1.39833E-06 9.09674E-19-5.23660E-19
 -1      3376 9.50058E-05-2.80068E-05-2.87145E-05-1.26293E-06 6.87264E-19-6.00505E-19
 -1      3377 9.48501E-05-2.79079E-05-2.86920E-05-1.52754E-06 9.58168E-19-9.78855E-19
 -1      3378 9.50129E-05-2.80092E-05-2.87135E-05-1.11586E-06 3.06300E-19-8.35331E-19
 -1      3379 9.49935E-05-2.80143E-05-2.87065E-05-9.93631E-07-1.86623E-19-8.46058E-19
 -1      3380 9.48313E-05-2.78748E-05-2.86968E-05-1.20346E-06 4.54187E-19-9.27635E-19
 -1      3381 9.50193E-05-2.80427E-05-2.87023E-05-8.70433E-07-3.60077E-19-5.31429E-19
 -1      3382 9.50169E-05-2.80677E-05-2.86938E-05-7.64877E-07 4.99083E-19-4.14780E-19
 -1      3383 9.48671E-05-2.79165E-05-2.86935E-05-9.30177E-07 4.56550E-20-6.93877E-19
 -1      3384 9.50497E-05-2.81081E-05-2.86877E-05-6.64371E-07 1.10208E-18-7.99159E-19
 -1      3385 9.50557E-05-2.81420E-05-2.86786E-05-5.76250E-07 9.61106E-19-5.92710E-19
 -1      3386 9.49272E-05-2.79966E-05-2.86845E-05-7.05767E-07 4.69532E-19-4.06923E-20
 -1      3387 9.50884E-05-2.81855E-05-2.86714E-05-4.96053E-07 9.60903E-19-8.37947E-19
 -1      3388 9.50977E-05-2.82212E-05-2.86625E-05-4.24525E-07 7.91593E-19-1.88948E-19
 -1      3389 9.49935E-05-2.80912E-05-2.86721E-05-5.25430E-07 1.32134E-18-7.59425E-19
 -1      3390 9.51269E-05-2.82626E-05-2.86551E-05-3.61796E-07-2.41201E-19-4.83883E-19
 -1      3391 9.51364E-05-2.82962E-05-2.86468E-05-3.05155E-07 2.72056E-20 2.06602E-19
 -1      3392 9.50557E-05-2.81857E-05-2.86583E-05-3.83240E-07 6.72754E-19-1.19938E-18
 -1      3393 9.51606E-05-2.83327E-05-2.86397E-05-2.57012E-07 6.60471E-19 5.79138E-19
 -1      3394 9.51691E-05-2.83621E-05-2.86323E-05-2.13180E-07 8.37637E-19 1.23604E-18
 -1      3395 9.51091E-05-2.82719E-05-2.86442E-05-2.73108E-07 7.61584E-19-6.01269E-19
 -1      3396 9.51880E-05-2.83928E-05-2.86259E-05-1.76930E-07 1.79327E-19 7.89604E-19
 -1      3397 9.51948E-05-2.84173E-05-2.86195E-05-1.43767E-07 7.12270E-19 6.39669E-19
 -1      3398 9.51522E-05-2.83460E-05-2.86310E-05-1.89295E-07 3.56121E-19-2.92047E-19
 -1      3399 9.52089E-05-2.84420E-05-2.86139E-05-1.17015E-07 1.13565E-18 4.40455E-19
 -1      3400 9.52140E-05-2.84616E-05-2.86086E-05-9.25025E-08 5.83504E-19 8.29699E-19
 -1      3401 9.51852E-05-2.84070E-05-2.86190E-05-1.26667E-07 6.33909E-19-1.94340E-19
 -1      3402 9.52240E-05-2.84809E-05-2.86039E-05-7.31939E-08-2.84902E-19 1.08361E-18
 -1      3403 9.52276E-05-2.84961E-05-2.85995E-05-5.55271E-08-2.63000E-19 6.83621E-19
 -1      3404 9.52093E-05-2.84555E-05-2.86087E-05-8.07901E-08 1.58958E-19 5.61080E-19
 -1      3405 9.52344E-05-2.85107E-05-2.85956E-05-4.19445E-08 2.67530E-19 4.80117E-19
 -1      3406 9.52367E-05-2.85221E-05-2.85922E-05-2.95748E-08 1.03171E-18 4.56054E-19
 -1      3407 9.52262E-05-2.84928E-05-2.85999E-05-4.79304E-08-9.07775E-20 9.02817E-19
 -1      3408 9.52410E-05-2.85328E-05-2.85890E-05-2.03153E-08 9.93933E-19 1.97605E-19
 -1      3409 9.52423E-05-2.85412E-05-2.85863E-05-1.19545E-08 5.09503E-19-9.36715E-20
 -1      3410 9.52373E-05-2.85207E-05-2.85928E-05-2.50118E-08 7.20952E-19-3.15268E-19
 -1      3411 9.52448E-05-2.85488E-05-2.85838E-05-5.89414E-09 6.70323E-19-6.15236E-19
 -1      3412 9.52454E-05-2.85547E-05-2.85818E-05-4.98965E-10 1.05408E-18 1.05476E-19
 -1      3413 9.52441E-05-2.85410E-05-2.85870E-05-9.54753E-09 1.36719E-19 1.48358E-19
 -1      3414 9.52466E-05-2.85599E-05-2.85799E-05 3.24524E-09 2.68084E-19 4.93210E-20
 -1      3415 9.52467E-05-2.85640E-05-2.85784E-05 6.50021E-09-3.31706E-19 4.18903E-19
 -1      3416 9.52478E-05-2.85552E-05-2.85825E-05 4.36662E-10 8.16198E-19-1.82485E-19
 -1      3417 9.52471E-05-2.85674E-05-2.85769E-05 8.60947E-09-4.47178E-19 6.69008E-19
 -1      3418 9.52469E-05-2.85700E-05-2.85758E-05 1.03629E-08-4.74337E-19 8.99132E-19
 -1      3419 9.52493E-05-2.85649E-05-2.85791E-05 6.48059E-09-4.84378E-19 4.52470E-19
 -1      3420 9.52467E-05-2.85721E-05-2.85748E-05 1.13531E-08-1.30034E-19 1.46058E-19
 -1      3421 9.52463E-05-2.85737E-05-2.85740E-05 1.20884E-08-9.73867E-20-9.58372E-20
 -1      3422 9.52494E-05-2.85711E-05-2.85764E-05 9.76496E-09-7.30998E-19-5.34111E-19
 -1      3423 9.52458E-05-2.85748E-05-2.85732E-05 1.23422E-08-2.78777E-19 6.32691E-19
 -1      3424 9.52453E-05-2.85757E-05-2.85727E-05 1.24166E-08 1.12898E-19 9.32836E-19
 -1      3425 9.52486E-05-2.85748E-05-2.85745E-05 1.11781E-08 8.76442E-19-6.69491E-19
 -1      3426 9.52446E-05-2.85762E-05-2.85721E-05 1.22114E-08-4.02455E-20 5.38454E-19
 -1      3427 9.52442E-05-2.85766E-05-2.85718E-05 1.18820E-08 3.36641E-19 5.22401E-19
 -1      3428 9.52473E-05-2.85768E-05-2.85731E-05 1.13748E-08-2.18815E-19-1.47832E-19
 -1      3429 9.52434E-05-2.85768E-05-2.85714E-05 1.14130E-08 5.17356E-19 9.59268E-19
 -1      3430 9.52430E-05-2.85768E-05-2.85712E-05 1.08583E-08 6.56597E-19 9.11598E-19
 -1      3431 9.52458E-05-2.85776E-05-2.85721E-05 1.08259E-08 7.57090E-19-1.18559E-19
 -1      3432 9.52422E-05-2.85767E-05-2.85709E-05 1.02580E-08 4.19910E-19 1.07946E-18
 -1      3433 9.52418E-05-2.85766E-05-2.85708E-05 9.59796E-09 1.05872E-18 1.40656E-18
 -1      3434 9.52443E-05-2.85777E-05-2.85714E-05 9.85851E-09 8.92843E-19 1.33013E-18
 -1      3435 9.52411E-05-2.85764E-05-2.85706E-05 8.94301E-09 3.07398E-19 6.41844E-19
 -1      3436 9.52408E-05-2.85762E-05-2.85705E-05 8.26186E-09-1.50991E-18 5.49063E-19
 -1      3437 9.52429E-05-2.85774E-05-2.85710E-05 8.69791E-09 1.78655E-19 8.60914E-19
 -1      3438 9.52418E-05-2.85771E-05-2.85706E-05 5.94118E-09 6.71717E-19 8.28430E-20
 -1      3439 9.52425E-05-2.85777E-05-2.85707E-05 5.14137E-09 2.52956E-19 6.01159E-19
 -1      3440 1.28273E-04-4.27231E-05-3.70333E-05-4.33343E-06-5.97880E-19 7.27191E-19
 -1      3441 1.26831E-04-4.58903E-05-3.45385E-05 2.79879E-06 2.15199E-19 7.91235E-19
 -1      3442 8.71547E-05-2.07436E-05-2.84994E-05 5.04116E-06-1.07221E-18 5.30969E-19
 -1      3443 8.56077E-05-1.96564E-05-2.82929E-05 5.60048E-06-5.55864E-19 2.09560E-19
 -1      3444 8.99367E-05-2.27982E-05-2.88005E-05 4.25445E-06-4.33259E-19 4.77366E-20
 -1      3445 8.88381E-05-2.18840E-05-2.87131E-05 4.79351E-06-1.30215E-18 3.84285E-19
 -1      3446 8.68752E-05-2.06888E-05-2.83118E-05 3.49542E-06-7.81732E-19-2.49838E-19
 -1      3447 7.18844E-05-1.34523E-05-2.51290E-05 9.55432E-06-9.22720E-19 1.48833E-19
 -1      3448 6.83971E-05-1.29066E-05-2.37545E-05 1.10997E-05-1.54444E-18 4.40272E-19
 -1      3449 9.17363E-05-2.43129E-05-2.89151E-05 3.52322E-06-2.68851E-19 4.81394E-19
 -1      3450 9.10495E-05-2.36485E-05-2.88964E-05 3.98409E-06 2.61836E-20 2.73046E-19
 -1      3451 8.95729E-05-2.26592E-05-2.86396E-05 3.20224E-06-3.54657E-19-5.98862E-20
 -1      3452 9.29498E-05-2.54568E-05-2.89398E-05 2.85060E-06 5.14512E-19 7.48631E-19
 -1      3453 9.25045E-05-2.49589E-05-2.89528E-05 3.24844E-06 1.26344E-19 6.36241E-19
 -1      3454 9.13982E-05-2.41642E-05-2.87894E-05 2.79230E-06-9.96769E-20 3.89705E-19
 -1      3455 9.37576E-05-2.63043E-05-2.89189E-05 2.25973E-06 4.58350E-19 7.08148E-19
 -1      3456 9.34751E-05-2.59385E-05-2.89457E-05 2.59293E-06 1.00551E-18 9.84341E-19
 -1      3457 9.26558E-05-2.53123E-05-2.88449E-05 2.34370E-06 5.00975E-19 1.00480E-18
 -1      3458 9.42897E-05-2.69257E-05-2.88778E-05 1.75919E-06-4.30482E-19 7.99598E-19
 -1      3459 9.41139E-05-2.66595E-05-2.89087E-05 2.03123E-06-1.48834E-20 7.02126E-19
 -1      3460 9.35143E-05-2.61738E-05-2.88494E-05 1.90973E-06 2.62564E-19 1.50781E-18
 -1      3461 9.46370E-05-2.73790E-05-2.88304E-05 1.34637E-06-3.03931E-19 1.56439E-18
 -1      3462 9.45297E-05-2.71858E-05-2.88605E-05 1.56426E-06-6.34713E-19 7.59226E-19
 -1      3463 9.40957E-05-2.68136E-05-2.88282E-05 1.51785E-06-5.50016E-19 1.24037E-18
 -1      3464 9.48707E-05-2.77225E-05-2.87818E-05 9.99041E-07 2.25207E-19 1.14979E-18
 -1      3465 9.48040E-05-2.75771E-05-2.88100E-05 1.17720E-06-2.59990E-20 1.31454E-18
 -1      3466 9.44951E-05-2.72963E-05-2.87950E-05 1.17290E-06 6.50006E-20 7.81268E-19
 -1      3467 9.50127E-05-2.79588E-05-2.87402E-05 7.39255E-07 7.26417E-19 1.37002E-18
 -1      3468 9.49762E-05-2.78586E-05-2.87631E-05 8.70729E-07 3.19491E-19 1.04891E-18
 -1      3469 9.47608E-05-2.76503E-05-2.87589E-05 8.87199E-07 4.79297E-19 5.13962E-19
 -1      3470 9.51034E-05-2.81313E-05-2.87044E-05 5.36992E-07 1.63549E-18 1.28149E-18
 -1      3471 9.50827E-05-2.80581E-05-2.87233E-05 6.37660E-07 1.26045E-18 1.78766E-18
 -1      3472 9.49328E-05-2.79034E-05-2.87252E-05 6.62464E-07 9.61672E-19 5.43633E-19
 -1      3473 9.51610E-05-2.82573E-05-2.86745E-05 3.82049E-07 1.55267E-18 1.09249E-18
 -1      3474 9.51497E-05-2.82038E-05-2.86898E-05 4.58163E-07 2.27614E-18 1.79239E-18
 -1      3475 9.50471E-05-2.80899E-05-2.86950E-05 4.84590E-07 1.51548E-18 1.80484E-18
 -1      3476 9.51971E-05-2.83495E-05-2.86500E-05 2.65151E-07-8.31787E-19 7.66245E-19
 -1      3477 9.51913E-05-2.83103E-05-2.86622E-05 3.21929E-07 2.85826E-19 6.55072E-19
 -1      3478 9.51227E-05-2.82273E-05-2.86689E-05 3.46568E-07 1.13494E-18 3.48925E-18
 -1      3479 9.52194E-05-2.84168E-05-2.86304E-05 1.78305E-07 6.07999E-19-8.91268E-19
 -1      3480 9.52168E-05-2.83881E-05-2.86400E-05 2.20088E-07-6.85286E-19-4.18539E-19
 -1      3481 9.51723E-05-2.83283E-05-2.86471E-05 2.41430E-07 1.56119E-19 1.09252E-18
 -1      3482 9.52333E-05-2.84678E-05-2.86143E-05 1.12314E-07 1.23512E-18-6.16575E-19
 -1      3483 9.52324E-05-2.84461E-05-2.86220E-05 1.43593E-07 9.24326E-19-7.67349E-19
 -1      3484 9.52050E-05-2.84038E-05-2.86289E-05 1.61276E-07 8.77796E-19-4.99825E-19
 -1      3485 9.52409E-05-2.85025E-05-2.86025E-05 6.78714E-08 2.67647E-19-1.67572E-18
 -1      3486 9.52410E-05-2.84876E-05-2.86081E-05 8.88811E-08 1.06033E-18-1.16087E-18
 -1      3487 9.52255E-05-2.84587E-05-2.86143E-05 1.02734E-07 1.24721E-18-1.09146E-18
 -1      3488 9.52449E-05-2.85274E-05-2.85935E-05 3.68345E-08-5.11245E-19-2.00697E-18
 -1      3489 9.52454E-05-2.85167E-05-2.85976E-05 5.13367E-08 1.58451E-19-1.35308E-18
 -1      3490 9.52376E-05-2.84971E-05-2.86031E-05 6.20611E-08 3.76711E-19-1.13539E-18
 -1      3491 9.52467E-05-2.85449E-05-2.85866E-05 1.58292E-08-7.24571E-19-1.81638E-18
 -1      3492 9.52473E-05-2.85373E-05-2.85897E-05 2.55347E-08-6.04944E-19-1.84319E-18
 -1      3493 9.52446E-05-2.85245E-05-2.85943E-05 3.36204E-08-5.76671E-19-7.93191E-19
 -1      3494 9.52470E-05-2.85569E-05-2.85816E-05 2.15745E-09-1.40411E-18-7.96899E-19
 -1      3495 9.52477E-05-2.85517E-05-2.85838E-05 8.39299E-09-1.29799E-18-9.86890E-19
 -1      3496 9.52481E-05-2.85437E-05-2.85877E-05 1.43450E-08-1.16386E-18 8.88617E-19
 -1      3497 9.52466E-05-2.85654E-05-2.85777E-05-6.54393E-09 1.30800E-18-2.29284E-19
 -1      3498 9.52472E-05-2.85617E-05-2.85794E-05-2.68719E-09 4.13807E-19-5.87717E-19
 -1      3499 9.52495E-05-2.85571E-05-2.85825E-05 1.59603E-09-2.69078E-19 5.38549E-19
 -1      3500 9.52457E-05-2.85705E-05-2.85751E-05-1.10708E-08-5.44213E-19-6.47468E-19
 -1      3501 9.52463E-05-2.85682E-05-2.85762E-05-9.11690E-09 8.44273E-19-1.32969E-19
 -1      3502 9.52495E-05-2.85660E-05-2.85787E-05-6.18017E-09 6.78605E-19 5.39727E-19
 -1      3503 9.52446E-05-2.85735E-05-2.85733E-05-1.31495E-08-1.01078E-19-1.90064E-18
 -1      3504 9.52451E-05-2.85722E-05-2.85740E-05-1.23348E-08-3.09184E-19-1.16458E-18
 -1      3505 9.52486E-05-2.85714E-05-2.85760E-05-1.03411E-08 1.01607E-20 1.41635E-18
 -1      3506 9.52435E-05-2.85752E-05-2.85721E-05-1.36203E-08 1.04253E-18-1.63278E-18
 -1      3507 9.52439E-05-2.85745E-05-2.85726E-05-1.35378E-08 1.91766E-19-1.69977E-18
 -1      3508 9.52473E-05-2.85747E-05-2.85740E-05-1.22368E-08-1.94948E-19 5.04671E-19
 -1      3509 9.52424E-05-2.85760E-05-2.85713E-05-1.30960E-08 4.48352E-19-1.54672E-18
 -1      3510 9.52427E-05-2.85756E-05-2.85716E-05-1.34585E-08 5.27220E-19-2.17668E-18
 -1      3511 9.52459E-05-2.85764E-05-2.85727E-05-1.26524E-08 7.52102E-19 1.02003E-18
 -1      3512 9.52413E-05-2.85761E-05-2.85708E-05-1.20062E-08-8.26081E-19-1.65022E-18
 -1      3513 9.52416E-05-2.85761E-05-2.85709E-05-1.26137E-08 8.06391E-19-1.68607E-18
 -1      3514 9.52445E-05-2.85771E-05-2.85718E-05-1.21531E-08-1.67256E-20 3.62583E-19
 -1      3515 9.52404E-05-2.85759E-05-2.85705E-05-1.05645E-08-1.27698E-19-3.87948E-18
 -1      3516 9.52406E-05-2.85760E-05-2.85706E-05-1.13244E-08-1.12209E-18-3.44878E-18
 -1      3517 9.52430E-05-2.85771E-05-2.85711E-05-1.11011E-08-2.95010E-19-1.42475E-18
 -1      3518 9.52397E-05-2.85756E-05-2.85703E-05-9.09842E-09 2.27900E-19-4.54882E-18
 -1      3519 9.52398E-05-2.85757E-05-2.85703E-05-9.85509E-09 2.24855E-19-3.89116E-18
 -1      3520 9.52418E-05-2.85768E-05-2.85707E-05-9.79302E-09 1.47125E-19-2.84930E-18
 -1      3521 9.52391E-05-2.85752E-05-2.85702E-05-7.64885E-09 6.24080E-19-4.46427E-18
 -1      3522 9.52392E-05-2.85753E-05-2.85702E-05-8.38421E-09 1.33604E-19-3.30584E-18
 -1      3523 9.52407E-05-2.85763E-05-2.85705E-05-8.43979E-09-3.52677E-19-3.41378E-18
 -1      3524 1.08436E-04-3.21563E-05-3.26424E-05-5.92669E-06 6.98792E-19-1.24955E-18
 -1      3525 1.07411E-04-3.14917E-05-3.25996E-05-7.82930E-06 2.78830E-19-1.87026E-18
 -1      3526 1.07913E-04-3.19263E-05-3.25444E-05-8.69569E-06 1.95814E-19-1.78316E-18
 -1      3527 7.81782E-05-1.56991E-05-2.68636E-05 6.98790E-06-1.07440E-18 2.25804E-20
 -1      3528 7.59420E-05-1.47317E-05-2.62204E-05 8.34109E-06-7.03084E-19 2.27283E-19
 -1      3529 7.11353E-05-1.27487E-05-2.48843E-05 4.90024E-06-6.32682E-19 4.62387E-19
 -1      3530 1.22397E-04-4.72638E-05-3.25186E-05 1.04863E-05 1.02933E-18 4.40717E-19
 -1      3531 1.13621E-04-4.37364E-05-2.98537E-05 1.90321E-05 1.92640E-18 3.72895E-19
 -1      3532 1.09967E-04-3.92108E-05-3.02158E-05 1.55762E-05 2.17902E-18-1.27884E-19
 -1      3533 1.22098E-04-4.42177E-05-3.33804E-05 4.12297E-06 7.92049E-19 2.26681E-19
 -1      3534 8.48200E-05-3.27284E-05-2.19676E-05-3.11577E-05 1.90012E-18 1.45234E-18
 -1      3535 9.75935E-05-4.18423E-05-2.42341E-05-3.00989E-05 2.14204E-18 2.00032E-19
 -1      3536 6.37394E-05-1.75378E-05-1.96272E-05-2.28916E-05 3.92097E-19 2.95278E-18
 -1      3537 7.30820E-05-2.52076E-05-2.05788E-05-2.95268E-05 1.19035E-18 2.95710E-18
 -1      3538 1.24074E-04-5.01389E-05-3.16914E-05-5.57846E-06 1.63148E-18-1.14145E-18
 -1      3539 1.26555E-04-4.87911E-05-3.35177E-05-1.73701E-07 1.40312E-18-1.33027E-18
 -1      3540 1.07667E-04-2.82437E-05-3.41300E-05-1.13540E-05-1.08935E-18-1.18854E-18
 -1      3541 1.06387E-04-2.57289E-05-3.45321E-05-1.04971E-05-1.33590E-18-1.20546E-18
 -1      3542 1.08183E-04-2.45015E-05-3.58769E-05-1.06306E-05-1.40441E-18-9.32729E-19
 -1      3543 6.35914E-05-1.20151E-05-2.20482E-05 1.15028E-05-1.94665E-18 5.76591E-19
 -1      3544 5.66642E-05-1.07861E-05-1.95941E-05 1.07965E-05-2.18509E-18 1.20549E-18
 -1      3545 5.08820E-05-8.76961E-06-1.75455E-05 4.96138E-06-1.52087E-18 2.02631E-18
 -1      3546 6.22284E-05-1.02317E-05-2.20018E-05 5.55237E-06-1.35533E-18 1.12145E-18
 -1      3547 1.08530E-04-3.23950E-05-3.26477E-05-9.20914E-06-5.73038E-20-1.49108E-18
 -1      3548 1.01456E-04-3.01759E-05-3.04829E-05 1.16059E-05 2.35405E-18-9.95548E-19
 -1      3549 1.04270E-04-3.13933E-05-3.12438E-05 7.41636E-06 1.95766E-18-1.24750E-18
 -1      3550 1.06973E-04-3.34409E-05-3.14777E-05 5.87965E-06 1.79985E-18-1.13916E-18
 -1      3551 1.04191E-04-3.42511E-05-2.99598E-05 1.48261E-05 2.22587E-18-6.08759E-19
 -1      3552 1.22701E-04-3.03148E-05-4.00682E-05-1.27644E-05-2.11996E-18 5.27966E-19
 -1      3553 1.27207E-04-3.70698E-05-3.85645E-05-9.87932E-06-1.36359E-18 8.06799E-19
 -1      3554 1.24395E-04-3.85975E-05-3.67060E-05-7.80071E-06-7.88727E-19 3.41831E-19
 -1      3555 1.19446E-04-2.39158E-05-4.10754E-05 1.24193E-05-8.35810E-19-2.24051E-18
 -1      3556 1.14418E-04-1.69198E-05-4.20387E-05 9.58650E-06-1.35022E-18-2.27325E-18
 -1      3557 7.12957E-05-1.30365E-05-2.46327E-05-1.64372E-05 1.40618E-18-1.49999E-18
 -1      3558 1.09331E-04-3.19693E-05-3.31718E-05-1.09366E-05-5.96801E-19-1.15827E-18
 -1      3559 1.08580E-04-3.03960E-05-3.35116E-05-1.10626E-05-7.77578E-19-1.16281E-18
 -1      3560 1.10684E-04-2.99147E-05-3.45927E-05-1.17719E-05-1.05036E-18-8.82129E-19
 -1      3561 8.33295E-05-1.83426E-05-2.79051E-05 5.78115E-06-6.46834E-19 1.74810E-19
 -1      3562 8.11763E-05-1.70847E-05-2.74871E-05 6.36177E-06-9.96822E-19 1.62659E-19
 -1      3563 8.30056E-05-1.82397E-05-2.76840E-05 3.55831E-06-7.24969E-19-5.92508E-19
 -1      3564 9.52396E-05-2.85757E-05-2.85702E-05-5.75125E-09 2.26249E-18-5.41233E-18
 -1      3565 9.52389E-05-2.85751E-05-2.85702E-05-5.95872E-09 1.62241E-18-3.77238E-18
 -1      3566 9.52389E-05-2.85751E-05-2.85702E-05-6.44102E-09 1.96389E-18-3.22005E-18
 -1      3567 9.52403E-05-2.85762E-05-2.85703E-05-6.00369E-09 7.29010E-19-4.27408E-18
 -1      3568 7.73947E-05-2.31940E-05-2.27322E-05 2.59663E-05-1.75389E-18-9.50980E-19
 -1      3569 1.10355E-04-4.76514E-05-2.65013E-05-2.38414E-05 1.82474E-18-7.81831E-19
 -1      3570 1.19000E-04-5.10428E-05-2.93291E-05-1.48411E-05 1.70522E-18-1.02188E-18
 -1      3571 5.47209E-05-5.70906E-06-2.09303E-05-9.90901E-06 1.90962E-18-2.50912E-18
 -1      3572 1.26624E-04-4.54464E-05-3.47964E-05 3.97265E-06 1.28384E-18-1.41886E-18
 -1      3573 1.25532E-04-4.09209E-05-3.65244E-05 8.04672E-06 7.60391E-19-1.58118E-18
 -1      3574 1.23065E-04-4.51300E-05-3.34258E-05 3.36954E-06 1.33409E-18-1.34981E-18
 -1      3575 1.24290E-04-3.55171E-05-3.80960E-05 1.09167E-05 2.11970E-19-1.94818E-18
 -1      3576 1.22130E-04-3.01323E-05-3.97423E-05 1.21483E-05-3.48104E-19-2.03992E-18
 -1      3577 1.17167E-04-2.68840E-05-3.86854E-05 1.21048E-05-7.31572E-19-2.15068E-18
 -1      3578 1.21519E-04-3.73110E-05-3.60442E-05 9.99652E-06 5.35345E-19-1.89284E-18
 -1      3579 8.07855E-05-3.01222E-05-2.14451E-05 2.96888E-05-1.85225E-18-8.38245E-19
 -1      3580 9.00670E-05-3.72217E-05-2.19598E-05 3.18571E-05-2.25374E-18-8.55397E-19
 -1      3581 1.17706E-04-2.59452E-05-3.94133E-05-1.23634E-05-1.91485E-18-1.17791E-19
 -1      3582 1.11362E-04-1.39865E-05-4.19150E-05-5.95624E-06-2.20334E-18-1.43988E-18
 -1      3583 9.52409E-05-2.85764E-05-2.85705E-05 7.79004E-09-1.57844E-18 4.48337E-19
 -1      3584 9.52415E-05-2.85769E-05-2.85706E-05 6.45804E-09 8.92906E-20-1.78779E-19
 -1      3585 5.41075E-05-9.02883E-06-1.91427E-05-1.00518E-06-1.67803E-18 1.95617E-18
 -1      3586 9.52435E-05-2.85782E-05-2.85709E-05 4.98690E-09-1.81858E-19 1.46367E-18
 -1      3587 9.52432E-05-2.85782E-05-2.85707E-05 4.10765E-09-9.94483E-20 1.89766E-18
 -1      3588 9.52437E-05-2.85785E-05-2.85708E-05 3.08874E-09-3.55873E-19 3.05896E-18
 -1      3589 1.03596E-04-4.26573E-05-2.59881E-05-2.33129E-05 1.81080E-18-1.45700E-20
 -1      3590 9.52443E-05-2.85789E-05-2.85709E-05-6.01924E-10-4.37926E-19 2.67580E-18
 -1      3591 9.52441E-05-2.85788E-05-2.85708E-05-1.75578E-09 2.80353E-19 1.28094E-19
 -1      3592 1.09272E-04-3.34434E-05-3.25499E-05-3.14979E-06 9.42010E-19-1.22801E-18
 -1      3593 1.10171E-04-3.40274E-05-3.26460E-05-4.42463E-06 6.77517E-19-1.06556E-18
 -1      3594 1.09443E-04-3.41642E-05-3.22447E-05 3.04128E-07 1.40010E-18-1.16450E-18
 -1      3595 9.52388E-05-2.85750E-05-2.85702E-05-6.92950E-09 1.10910E-18-4.30356E-18
 -1      3596 9.52438E-05-2.85786E-05-2.85708E-05-3.01323E-09 1.24170E-19-1.00426E-18
 -1      3597 9.52433E-05-2.85782E-05-2.85707E-05-4.05098E-09 2.70535E-19-1.26573E-18
 -1      3598 9.52447E-05-2.85790E-05-2.85710E-05-2.55542E-09 1.07923E-18-4.89611E-19
 -1      3599 7.79319E-05-1.55592E-05-2.66431E-05 3.82082E-06-8.49344E-19 1.14617E-19
 -1      3600 5.99374E-05-1.34612E-05-1.97167E-05-1.70848E-05-1.08930E-19 2.66230E-18
 -1      3601 6.75668E-05-1.70317E-05-2.14687E-05-1.84716E-05-3.25819E-19 2.60931E-18
 -1      3602 8.20131E-05-2.86462E-05-2.26516E-05-2.67435E-05 1.23941E-18 1.47945E-18
 -1      3603 1.13942E-04-4.67557E-05-2.88430E-05-1.23639E-05 1.33836E-18-6.75866E-19
 -1      3604 1.20552E-04-5.00068E-05-3.02091E-05-9.23894E-06 1.59540E-18-7.71932E-19
 -1      3605 1.19142E-04-4.70609E-05-3.08927E-05-3.79340E-06 1.33999E-18-1.02387E-18
 -1      3606 1.10867E-04-3.31990E-05-3.32467E-05-9.21980E-06-7.29474E-20-9.53936E-19
 -1      3607 5.77813E-05-1.11160E-05-1.99269E-05-1.04880E-05-4.65600E-19 1.75172E-18
 -1      3608 9.52399E-05-2.85759E-05-2.85703E-05-7.02747E-09 6.32715E-19-5.27833E-18
 -1      3609 9.52427E-05-2.85778E-05-2.85707E-05-4.96721E-09-2.45536E-20-3.09810E-18
 -1      3610 9.52420E-05-2.85773E-05-2.85706E-05-5.67852E-09 1.05271E-18-4.96952E-18
 -1      3611 9.52437E-05-2.85783E-05-2.85709E-05-4.76336E-09 7.11541E-19-1.88152E-18
 -1      3612 9.52441E-05-2.85788E-05-2.85709E-05 1.84855E-09-1.32993E-19 5.00391E-18
 -1      3613 9.52443E-05-2.85789E-05-2.85709E-05 7.08065E-10-4.46306E-19 4.99883E-18
 -1      3614 9.52451E-05-2.85793E-05-2.85711E-05 6.11244E-11 2.49123E-19 3.37121E-18
 -1      3615 9.52447E-05-2.85790E-05-2.85710E-05 2.65960E-09-5.68088E-20 3.98853E-18
 -1      3616 9.52423E-05-2.85772E-05-2.85708E-05 7.57423E-09-1.47894E-18-6.17729E-19
 -1      3617 1.14400E-04-3.32047E-05-3.48756E-05-1.11089E-05-7.98262E-19-4.65638E-19
 -1      3618 1.13606E-04-3.02221E-05-3.56735E-05-1.18745E-05-1.22893E-18-3.67280E-19
 -1      3619 5.95117E-05-9.93091E-06-2.12409E-05 8.86697E-07-1.06334E-18 9.81844E-19
 -1      3620 5.78364E-05-9.82326E-06-2.03073E-05-5.57921E-06-6.21510E-19 7.18310E-19
 -1      3621 6.31873E-05-1.19289E-05-2.18884E-05-7.88621E-06-3.45073E-19 9.27541E-19
 -1      3622 6.45776E-05-1.10222E-05-2.29509E-05 1.60391E-06-4.56769E-19 4.06126E-19
 -1      3623 1.06785E-04-1.39839E-05-3.99653E-05-1.14426E-06-1.75763E-18-1.69650E-18
 -1      3624 1.06892E-04-1.45512E-05-3.96648E-05 2.98580E-06-1.54895E-18-2.33760E-18
 -1      3625 1.08608E-04-1.94008E-05-3.82860E-05 8.07068E-06-9.98361E-19-2.71653E-18
 -1      3626 1.10346E-04-2.32638E-05-3.75615E-05 1.06476E-05-7.29189E-19-2.89707E-18
 -1      3627 1.13091E-04-2.78961E-05-3.65666E-05 1.12437E-05-4.14808E-19-2.78142E-18
 -1      3628 1.14773E-04-3.24057E-05-3.54915E-05 1.13082E-05-1.03470E-19-2.62652E-18
 -1      3629 1.16259E-04-3.65019E-05-3.42205E-05 9.31693E-06 2.38810E-19-2.38320E-18
 -1      3630 1.16779E-04-3.95452E-05-3.31498E-05 7.65973E-06 6.28935E-19-1.90370E-18
 -1      3631 1.10938E-04-4.07136E-05-3.01377E-05 1.14515E-06 1.38645E-19-5.08664E-19
 -1      3632 1.09580E-04-4.02120E-05-2.96570E-05-4.15167E-07 4.01925E-19-5.21959E-19
 -1      3633 1.07175E-04-3.90250E-05-2.92378E-05-1.87081E-06 4.67008E-19-3.17612E-19
 -1      3634 1.05553E-04-3.78490E-05-2.89622E-05-2.86333E-06 6.46380E-19-3.54605E-19
 -1      3635 1.09005E-04-4.07178E-05-2.93328E-05-3.19195E-06 5.19487E-19-3.31699E-21
 -1      3636 1.03496E-04-3.64150E-05-2.87573E-05-3.45608E-06 2.57946E-19-4.72039E-19
 -1      3637 1.02012E-04-3.51246E-05-2.86219E-05-3.95194E-06 2.68288E-20-6.42753E-19
 -1      3638 1.04405E-04-3.75632E-05-2.87063E-05-4.89578E-06 2.24773E-19-5.97274E-20
 -1      3639 1.00425E-04-3.38156E-05-2.85452E-05-4.03863E-06-1.03451E-19-6.44353E-19
 -1      3640 9.92422E-05-3.26848E-05-2.84948E-05-4.17957E-06 1.36821E-19-7.63816E-19
 -1      3641 1.00791E-04-3.45402E-05-2.84402E-05-5.34723E-06-1.63101E-19-3.24958E-20
 -1      3642 9.81362E-05-3.16493E-05-2.84870E-05-3.98546E-06 3.99304E-19-8.12567E-19
 -1      3643 9.72710E-05-3.07717E-05-2.84819E-05-3.91445E-06 9.84461E-20-7.32090E-19
 -1      3644 9.81343E-05-3.20184E-05-2.83716E-05-5.02451E-06 6.05422E-20-8.64673E-20
 -1      3645 9.65639E-05-3.00314E-05-2.85048E-05-3.59749E-06 2.49303E-20-2.31893E-19
 -1      3646 9.59809E-05-2.94137E-05-2.85193E-05-3.41924E-06 2.78692E-19-2.30578E-19
 -1      3647 9.63579E-05-3.01506E-05-2.84001E-05-4.36497E-06 3.40249E-19-4.41714E-21
 -1      3648 9.55708E-05-2.89310E-05-2.85512E-05-3.07694E-06 5.02135E-20-4.31062E-19
 -1      3649 9.52086E-05-2.85341E-05-2.85706E-05-2.85851E-06-2.80257E-19-7.71211E-19
 -1      3650 9.52736E-05-2.88936E-05-2.84651E-05-3.60804E-06 7.31355E-20-2.44173E-19
 -1      3651 9.50024E-05-2.82509E-05-2.86005E-05-2.53946E-06 1.42825E-19-6.56886E-19
 -1      3652 9.47988E-05-2.80224E-05-2.86175E-05-2.31885E-06 9.80454E-19-5.22733E-19
 -1      3653 9.46823E-05-2.81261E-05-2.85340E-05-2.88824E-06 1.97870E-19-5.29248E-19
 -1      3654 9.47240E-05-2.78822E-05-2.86407E-05-2.04249E-06 1.19798E-18-1.91768E-19
 -1      3655 9.46268E-05-2.77731E-05-2.86524E-05-1.83920E-06 1.06683E-18-6.59453E-19
 -1      3656 9.44185E-05-2.77162E-05-2.85922E-05-2.26028E-06 1.03360E-18 6.33674E-19
 -1      3657 9.46302E-05-2.77283E-05-2.86679E-05-1.61018E-06 1.27799E-18-9.95097E-19
 -1      3658 9.45994E-05-2.76977E-05-2.86739E-05-1.43256E-06 1.11308E-18-7.62155E-19
 -1      3659 9.43582E-05-2.75508E-05-2.86343E-05-1.73904E-06 1.13915E-18-3.68442E-19
 -1      3660 9.46443E-05-2.77117E-05-2.86822E-05-1.24815E-06 9.31562E-19-7.17491E-19
 -1      3661 9.46515E-05-2.77286E-05-2.86833E-05-1.09832E-06 7.77139E-19-3.81129E-19
 -1      3662 9.44135E-05-2.75407E-05-2.86606E-05-1.31978E-06 9.19262E-19-1.06663E-18
 -1      3663 9.47143E-05-2.77750E-05-2.86860E-05-9.52782E-07 5.43187E-19-3.58333E-19
 -1      3664 9.47403E-05-2.78173E-05-2.86833E-05-8.29586E-07 4.90277E-19 2.28193E-19
 -1      3665 9.45251E-05-2.76202E-05-2.86734E-05-9.89565E-07 1.06366E-18 4.25227E-20
 -1      3666 9.48065E-05-2.78779E-05-2.86820E-05-7.16422E-07 4.74743E-19-6.80386E-20
 -1      3667 9.48395E-05-2.79309E-05-2.86769E-05-6.17148E-07 9.90294E-19 6.20536E-19
 -1      3668 9.46560E-05-2.77440E-05-2.86759E-05-7.33306E-07 6.67352E-19 6.41608E-19
 -1      3669 9.49009E-05-2.79945E-05-2.86730E-05-5.30235E-07 7.31846E-19 1.94927E-19
 -1      3670 9.49339E-05-2.80489E-05-2.86666E-05-4.51630E-07 9.37447E-19-1.19144E-19
 -1      3671 9.47843E-05-2.78825E-05-2.86714E-05-5.36655E-07 3.44552E-19 7.97498E-19
 -1      3672 9.49869E-05-2.81089E-05-2.86611E-05-3.85633E-07 8.19551E-19-1.12289E-18
 -1      3673 9.50163E-05-2.81594E-05-2.86542E-05-3.24397E-07 9.36907E-20-8.96814E-19
 -1      3674 9.48988E-05-2.80177E-05-2.86625E-05-3.87218E-07 1.43844E-19-4.23247E-19
 -1      3675 9.50595E-05-2.82122E-05-2.86482E-05-2.74849E-07 1.32213E-19-8.19847E-19
 -1      3676 9.50839E-05-2.82563E-05-2.86414E-05-2.27902E-07 5.51879E-19-7.93215E-19
 -1      3677 9.49947E-05-2.81398E-05-2.86514E-05-2.74721E-07 3.11642E-19-2.49328E-19
 -1      3678 9.51177E-05-2.83006E-05-2.86354E-05-1.91153E-07 8.37480E-19-1.20675E-18
 -1      3679 9.51368E-05-2.83374E-05-2.86291E-05-1.55747E-07 9.12395E-19-7.52874E-19
 -1      3680 9.50714E-05-2.82445E-05-2.86395E-05-1.90874E-07 5.55755E-19-7.06305E-19
 -1      3681 9.51623E-05-2.83733E-05-2.86235E-05-1.28866E-07 7.92063E-19-4.70025E-19
 -1      3682 9.51766E-05-2.84028E-05-2.86179E-05-1.02637E-07 1.11032E-18 1.60749E-19
 -1      3683 9.51302E-05-2.83308E-05-2.86279E-05-1.29076E-07 1.31433E-18-1.15166E-18
 -1      3684 9.51950E-05-2.84311E-05-2.86128E-05-8.32934E-08 9.29654E-19-1.51590E-19
 -1      3685 9.52052E-05-2.84541E-05-2.86081E-05-6.42450E-08-2.04489E-19 3.60798E-19
 -1      3686 9.51737E-05-2.83996E-05-2.86172E-05-8.41385E-08 5.56844E-19-7.71314E-23
 -1      3687 9.52180E-05-2.84756E-05-2.86037E-05-5.05988E-08-7.43099E-19 4.74685E-19
 -1      3688 9.52249E-05-2.84930E-05-2.85997E-05-3.70807E-08 6.75521E-19 5.09257E-19
 -1      3689 9.52047E-05-2.84529E-05-2.86077E-05-5.19882E-08 6.46484E-20-6.32414E-19
 -1      3690 9.52334E-05-2.85090E-05-2.85960E-05-2.76903E-08 1.13615E-18-1.18184E-19
 -1      3691 9.52378E-05-2.85218E-05-2.85928E-05-1.83620E-08 2.72042E-19-3.21210E-19
 -1      3692 9.52258E-05-2.84931E-05-2.85996E-05-2.94461E-08 7.36221E-20-4.76588E-19
 -1      3693 9.52431E-05-2.85333E-05-2.85898E-05-1.21066E-08-3.12676E-19 4.52265E-20
 -1      3694 9.52456E-05-2.85425E-05-2.85872E-05-5.89540E-09 1.51383E-19 4.62291E-19
 -1      3695 9.52394E-05-2.85226E-05-2.85928E-05-1.40448E-08 2.50605E-19 1.21008E-19
 -1      3696 9.52486E-05-2.85505E-05-2.85848E-05-1.91144E-09 5.18742E-19 4.21991E-19
 -1      3697 9.52498E-05-2.85569E-05-2.85828E-05 2.02567E-09 4.68513E-19-1.54700E-19
 -1      3698 9.52476E-05-2.85436E-05-2.85874E-05-3.87657E-09 3.12415E-19 4.68623E-19
 -1      3699 9.52511E-05-2.85623E-05-2.85809E-05 4.39565E-09-2.11804E-19-9.77261E-19
 -1      3700 9.52515E-05-2.85665E-05-2.85793E-05 6.71169E-09-7.35647E-19-3.09315E-19
 -1      3701 9.52518E-05-2.85581E-05-2.85830E-05 2.51714E-09-2.00703E-19-1.60424E-18
 -1      3702 9.52518E-05-2.85699E-05-2.85779E-05 7.96339E-09-1.15600E-18 1.72541E-19
 -1      3703 9.52515E-05-2.85725E-05-2.85767E-05 9.15525E-09-6.98520E-19-7.48274E-19
 -1      3704 9.52534E-05-2.85676E-05-2.85796E-05 6.24392E-09-9.51534E-19-1.00586E-18
 -1      3705 9.52511E-05-2.85746E-05-2.85756E-05 9.65642E-09 3.93830E-19-2.68832E-19
 -1      3706 9.52506E-05-2.85761E-05-2.85748E-05 1.00951E-08 6.55978E-19-7.62133E-19
 -1      3707 9.52532E-05-2.85736E-05-2.85770E-05 8.13435E-09-9.37642E-20-2.99045E-19
 -1      3708 9.52498E-05-2.85771E-05-2.85740E-05 1.01141E-08 9.49748E-20-3.12970E-19
 -1      3709 9.52490E-05-2.85778E-05-2.85734E-05 1.00710E-08 2.40208E-19 2.59893E-19
 -1      3710 9.52520E-05-2.85770E-05-2.85750E-05 8.80190E-09 1.20728E-18-2.74907E-19
 -1      3711 9.52481E-05-2.85782E-05-2.85728E-05 9.79960E-09 7.98864E-19 5.28749E-19
 -1      3712 9.52473E-05-2.85785E-05-2.85723E-05 9.46769E-09 1.31742E-18 1.03971E-18
 -1      3713 9.52502E-05-2.85787E-05-2.85736E-05 8.69252E-09 9.50274E-19 1.47603E-18
 -1      3714 9.52463E-05-2.85785E-05-2.85719E-05 9.03765E-09 1.92242E-18 9.86525E-19
 -1      3715 9.52455E-05-2.85784E-05-2.85716E-05 8.54936E-09 2.00248E-18 1.62319E-18
 -1      3716 9.52482E-05-2.85792E-05-2.85725E-05 8.12172E-09 1.88106E-18 2.07508E-18
 -1      3717 9.52445E-05-2.85782E-05-2.85713E-05 8.04361E-09 5.17036E-19 1.24771E-18
 -1      3718 9.52438E-05-2.85779E-05-2.85711E-05 7.50728E-09-9.48494E-19-8.38461E-20
 -1      3719 9.52463E-05-2.85790E-05-2.85717E-05 7.30530E-09 1.07468E-18 1.80815E-18
 -1      3720 1.09234E-04-1.57338E-05-4.02806E-05 6.38048E-06-1.30452E-18-2.51295E-18
 -1      3721 8.70321E-05-2.12031E-05-2.82311E-05 1.91746E-06-5.92225E-19-1.38266E-19
 -1      3722 8.53541E-05-2.01349E-05-2.79919E-05 1.87113E-06-1.00387E-18-2.53165E-19
 -1      3723 8.94927E-05-2.29327E-05-2.85404E-05 2.05304E-06-1.88423E-19 1.19952E-19
 -1      3724 8.83804E-05-2.21209E-05-2.84245E-05 2.14416E-06-7.89358E-20 1.92464E-21
 -1      3725 8.73236E-05-2.15383E-05-2.81507E-05 6.98388E-07-6.71903E-19-4.95307E-19
 -1      3726 9.33546E-05-2.61905E-05-2.87916E-05 1.47313E-06-1.09439E-19 9.20987E-19
 -1      3727 9.29966E-05-2.58241E-05-2.87940E-05 1.65439E-06 2.69495E-20 8.07979E-19
 -1      3728 9.39545E-05-2.68039E-05-2.87843E-05 1.20368E-06-4.55135E-19 7.06223E-19
 -1      3729 9.37129E-05-2.65291E-05-2.87961E-05 1.36939E-06 2.86879E-19 1.19511E-18
 -1      3730 9.32854E-05-2.61835E-05-2.87482E-05 1.13750E-06-5.55337E-19-6.98008E-19
 -1      3731 9.43872E-05-2.72848E-05-2.87624E-05 9.43814E-07 5.29200E-19-6.40057E-20
 -1      3732 9.42187E-05-2.70714E-05-2.87788E-05 1.09279E-06-1.70685E-19 2.49811E-19
 -1      3733 9.38955E-05-2.67932E-05-2.87515E-05 9.57968E-07 1.66588E-19-2.34541E-19
 -1      3734 9.46693E-05-2.76255E-05-2.87362E-05 7.29442E-07 6.72212E-19 3.69825E-19
 -1      3735 9.45631E-05-2.74747E-05-2.87525E-05 8.47759E-07 5.27744E-19 5.64873E-19
 -1      3736 9.43246E-05-2.72562E-05-2.87390E-05 7.73912E-07 3.87653E-19 3.42261E-19
 -1      3737 9.48635E-05-2.78804E-05-2.87095E-05 5.50498E-07 1.29705E-18 1.18289E-19
 -1      3738 9.47927E-05-2.77678E-05-2.87247E-05 6.46312E-07 9.95305E-19 1.37712E-19
 -1      3739 9.46180E-05-2.75983E-05-2.87197E-05 6.08280E-07 7.06972E-19 1.08110E-19
 -1      3740 9.49966E-05-2.80707E-05-2.86843E-05 4.05738E-07 9.94014E-19 1.35458E-18
 -1      3741 9.49497E-05-2.79868E-05-2.86979E-05 4.81527E-07 1.19618E-18 3.46178E-19
 -1      3742 9.48239E-05-2.78570E-05-2.86981E-05 4.64714E-07 9.53020E-19 4.13501E-19
 -1      3743 9.50873E-05-2.82124E-05-2.86620E-05 2.91598E-07 7.80045E-19 2.19772E-18
 -1      3744 9.50565E-05-2.81501E-05-2.86737E-05 3.50318E-07 1.23810E-18 2.25419E-18
 -1      3745 9.49676E-05-2.80520E-05-2.86768E-05 3.45559E-07 4.91937E-19 3.40715E-19
 -1      3746 9.51486E-05-2.83177E-05-2.86429E-05 2.03584E-07 1.39884E-18 3.88639E-19
 -1      3747 9.51285E-05-2.82714E-05-2.86526E-05 2.48249E-07 1.10712E-18 2.08333E-18
 -1      3748 9.50672E-05-2.81983E-05-2.86572E-05 2.49913E-07 1.64248E-18 1.05803E-18
 -1      3749 9.51911E-05-2.83985E-05-2.86261E-05 1.34444E-07 1.02083E-18-4.98453E-19
 -1      3750 9.51777E-05-2.83632E-05-2.86344E-05 1.68929E-07 8.71154E-19 1.47638E-19
 -1      3751 9.51368E-05-2.83097E-05-2.86396E-05 1.73764E-07 1.73728E-18 7.85083E-19
 -1      3752 9.52172E-05-2.84544E-05-2.86131E-05 8.63905E-08 1.74560E-18-6.46092E-19
 -1      3753 9.52094E-05-2.84299E-05-2.86194E-05 1.10274E-07 1.68143E-18-3.89521E-19
 -1      3754 9.51834E-05-2.83919E-05-2.86246E-05 1.16110E-07 1.60432E-18-1.15326E-19
 -1      3755 9.52336E-05-2.84948E-05-2.86027E-05 5.17899E-08-5.51566E-19 7.92987E-20
 -1      3756 9.52290E-05-2.84771E-05-2.86076E-05 6.87992E-08 7.46730E-19 8.97093E-20
 -1      3757 9.52132E-05-2.84504E-05-2.86124E-05 7.46660E-08 9.93245E-19 3.54779E-19
 -1      3758 9.52434E-05-2.85236E-05-2.85944E-05 2.75787E-08-1.44490E-18 1.20697E-18
 -1      3759 9.52409E-05-2.85111E-05-2.85983E-05 3.93732E-08-1.31832E-18 5.21046E-19
 -1      3760 9.52322E-05-2.84926E-05-2.86025E-05 4.47320E-08-1.34529E-18 1.14202E-18
 -1      3761 9.52488E-05-2.85439E-05-2.85880E-05 1.11739E-08-3.72374E-19 6.34956E-19
 -1      3762 9.52477E-05-2.85350E-05-2.85910E-05 1.90956E-08-5.19023E-19 1.26030E-18
 -1      3763 9.52437E-05-2.85228E-05-2.85946E-05 2.37305E-08-1.35463E-18 1.72027E-18
 -1      3764 9.52513E-05-2.85582E-05-2.85829E-05 1.34871E-10-6.55564E-20 4.64085E-19
 -1      3765 9.52510E-05-2.85520E-05-2.85852E-05 5.36253E-09-3.36589E-19 7.93696E-19
 -1      3766 9.52501E-05-2.85442E-05-2.85882E-05 9.24713E-09-2.45531E-19 8.41305E-19
 -1      3767 9.52517E-05-2.85670E-05-2.85792E-05-6.14946E-09 8.89035E-20 1.67088E-18
 -1      3768 9.52520E-05-2.85632E-05-2.85808E-05-3.19441E-09 5.07814E-19 8.39708E-19
 -1      3769 9.52531E-05-2.85587E-05-2.85833E-05-9.00652E-11-1.96006E-19 1.95346E-18
 -1      3770 9.52510E-05-2.85726E-05-2.85765E-05-9.59485E-09 1.06058E-19 2.50689E-18
 -1      3771 9.52516E-05-2.85702E-05-2.85777E-05-8.02891E-09-2.41001E-19 3.05857E-18
 -1      3772 9.52537E-05-2.85679E-05-2.85797E-05-5.55581E-09-9.90089E-19 3.19936E-18
 -1      3773 9.52497E-05-2.85758E-05-2.85745E-05-1.11044E-08-2.69157E-19 2.50034E-18
 -1      3774 9.52504E-05-2.85745E-05-2.85753E-05-1.04698E-08 3.82792E-19 2.93844E-18
 -1      3775 9.52529E-05-2.85735E-05-2.85769E-05-8.53488E-09 3.80290E-19 3.77492E-18
 -1      3776 9.52480E-05-2.85775E-05-2.85731E-05-1.13551E-08 1.88240E-18 2.76553E-18
 -1      3777 9.52488E-05-2.85768E-05-2.85737E-05-1.13199E-08 1.05550E-18 3.08668E-18
 -1      3778 9.52515E-05-2.85768E-05-2.85749E-05-9.82672E-09 5.38653E-19 3.64718E-18
 -1      3779 9.52463E-05-2.85780E-05-2.85721E-05-1.08352E-08-3.63488E-20 7.45635E-19
 -1      3780 9.52470E-05-2.85778E-05-2.85725E-05-1.11609E-08 1.29488E-18 1.47071E-18
 -1      3781 9.52496E-05-2.85783E-05-2.85734E-05-1.00225E-08 2.30249E-18 2.74139E-18
 -1      3782 9.52445E-05-2.85779E-05-2.85714E-05-9.82629E-09 5.04709E-19-2.54967E-19
 -1      3783 9.52452E-05-2.85780E-05-2.85717E-05-1.03827E-08 8.45596E-20 4.69376E-19
 -1      3784 9.52475E-05-2.85788E-05-2.85723E-05-9.52491E-09 4.38594E-19 1.43007E-18
 -1      3785 9.52430E-05-2.85775E-05-2.85709E-05-8.65947E-09 3.42929E-19-8.91739E-19
 -1      3786 9.52436E-05-2.85777E-05-2.85711E-05-9.27638E-09 4.24569E-19-3.52241E-19
 -1      3787 9.52456E-05-2.85786E-05-2.85716E-05-8.64877E-09 8.03408E-19 1.39805E-18
 -1      3788 9.52459E-05-2.85795E-05-2.85713E-05-2.07772E-09 1.30722E-18-2.03545E-19
 -1      3789 9.52455E-05-2.85793E-05-2.85712E-05-3.35865E-09 1.11576E-18-2.03796E-18
 -1      3790 9.52407E-05-2.85764E-05-2.85704E-05-6.67127E-09 1.05273E-18-4.69156E-18
 -1      3791 1.07611E-04-1.67063E-05-3.89825E-05-6.63973E-06-1.80159E-18-1.23224E-18
 -1      3792 9.12441E-05-2.43040E-05-2.87001E-05 1.95822E-06 1.01518E-19-1.54320E-19
 -1      3793 9.04737E-05-2.36692E-05-2.86474E-05 2.11660E-06-1.51326E-19 1.40256E-19
 -1      3794 8.95883E-05-2.31095E-05-2.84610E-05 1.16955E-06-1.91319E-19-2.87337E-19
 -1      3795 1.09273E-04-1.97577E-05-3.84424E-05-1.00978E-05-1.79758E-18-8.85573E-19
 -1      3796 9.24932E-05-2.53801E-05-2.87718E-05 1.73908E-06 1.14935E-19 2.18566E-19
 -1      3797 9.19667E-05-2.48951E-05-2.87551E-05 1.92208E-06 3.65067E-19 9.51508E-20
 -1      3798 9.24441E-05-2.54068E-05-2.87160E-05 1.27439E-06-3.89722E-19-6.14598E-19
 -1      3799 7.85383E-05-2.43712E-05-2.30955E-05-2.26076E-05 6.81555E-19 1.29376E-18
 -1      3800 8.75917E-05-3.15851E-05-2.42028E-05-2.47295E-05 1.43859E-18 7.40916E-19
 -1      3801 7.32170E-05-1.39300E-05-2.54816E-05 1.21387E-06-6.65286E-19 1.52228E-19
 -1      3802 6.93779E-05-1.25532E-05-2.43636E-05 1.56600E-06-7.52920E-19 5.34690E-20
 -1      3803 6.80211E-05-1.22736E-05-2.37221E-05-2.72535E-06-4.37823E-19 1.41048E-19
 -1      3804 1.10929E-04-2.33055E-05-3.77140E-05-1.17130E-05-1.69495E-18-7.69520E-19
 -1      3805 8.35158E-05-1.90449E-05-2.76544E-05 1.39482E-06-9.06654E-19-2.39486E-19
 -1      3806 8.12877E-05-1.78329E-05-2.72372E-05 1.12169E-06-9.23995E-19-2.52068E-19
 -1      3807 8.42235E-05-1.96591E-05-2.76123E-05-2.89480E-07-8.93440E-19-3.44923E-19
 -1      3808 7.90853E-05-1.66478E-05-2.68145E-05 1.03190E-06-8.39353E-19-2.15651E-19
 -1      3809 7.62441E-05-1.52733E-05-2.61623E-05 1.14212E-06-5.99277E-19 3.50667E-20
 -1      3810 7.54415E-05-1.51203E-05-2.57310E-05-1.86043E-06-7.18136E-19-2.49435E-19
 -1      3811 8.03619E-05-1.75555E-05-2.68364E-05-1.29239E-06-6.88265E-19-2.93614E-19
 -1      3812 1.19185E-04-3.35371E-05-3.69570E-05-1.15309E-05-1.30640E-18-7.68285E-20
 -1      3813 1.21269E-04-3.79522E-05-3.57792E-05-7.66015E-06-6.14311E-19 2.79442E-20
 -1      3814 6.98080E-05-1.64794E-05-2.28589E-05-1.45012E-05-5.07773E-20 2.33055E-18
 -1      3815 7.37531E-05-2.03470E-05-2.28530E-05-1.98553E-05 2.91455E-19 2.12555E-18
 -1      3816 8.03406E-05-2.33561E-05-2.42990E-05-1.82578E-05 6.93211E-19 6.40761E-19
 -1      3817 9.73891E-05-3.75437E-05-2.54027E-05-2.33682E-05 1.52676E-18 5.18113E-19
 -1      3818 1.06603E-04-4.34055E-05-2.72249E-05-1.84647E-05 1.30194E-18-9.60390E-20
 -1      3819 1.12838E-04-3.55069E-05-3.31931E-05-6.60123E-06 3.44458E-19-7.67154E-19
 -1      3820 1.13965E-04-3.48423E-05-3.39154E-05-8.94293E-06-3.70769E-19-5.69279E-19
 -1      3821 1.16972E-04-3.54186E-05-3.48788E-05-9.13219E-06-5.12018E-19-2.94380E-19
 -1      3822 1.14055E-04-3.67379E-05-3.31326E-05-3.90468E-06 5.99061E-19-7.07486E-19
 -1      3823 1.18935E-04-4.25288E-05-3.27821E-05 4.73277E-06 1.10968E-18-1.30609E-18
 -1      3824 1.13767E-04-4.01473E-05-3.15857E-05 5.29228E-06 4.11989E-19-1.53207E-18
 -1      3825 1.13144E-04-4.10042E-05-3.08797E-05 3.39717E-06 3.67951E-19-1.02058E-18
 -1      3826 1.19359E-04-4.50668E-05-3.17522E-05 1.27070E-06 1.23171E-18-1.16094E-18
 -1      3827 9.52417E-05-2.85770E-05-2.85706E-05-6.78687E-09 1.19553E-18-4.76155E-18
 -1      3828 6.71837E-05-1.30785E-05-2.31964E-05-6.72982E-06-1.94970E-19 7.40929E-19
 -1      3829 6.81808E-05-1.44153E-05-2.28937E-05-1.13625E-05-1.89497E-19 2.07035E-18
 -1      3830 7.37525E-05-1.74515E-05-2.40902E-05-1.25567E-05 1.88563E-19 1.80577E-18
 -1      3831 1.10552E-04-3.56277E-05-3.21767E-05 1.98225E-06 1.34752E-18-1.08515E-18
 -1      3832 1.12780E-04-3.67858E-05-3.24961E-05-2.22762E-09 1.12177E-18-8.50620E-19
 -1      3833 1.15561E-04-3.84247E-05-3.31237E-05-2.21373E-06 6.04517E-19-6.78999E-19
 -1      3834 1.10718E-04-3.67497E-05-3.16788E-05 5.81974E-06 1.67830E-18-7.89456E-19
 -1      3835 1.20651E-04-4.01942E-05-3.45078E-05-4.74097E-06 9.08906E-20-1.33656E-19
 -1      3836 9.52426E-05-2.85775E-05-2.85707E-05 6.48911E-09-1.25399E-18 5.17451E-19
 -1      3837 9.32114E-05-3.33612E-05-2.55552E-05-2.05147E-05 9.55572E-19 7.29892E-19
 -1      3838 9.52461E-05-2.85797E-05-2.85713E-05 7.36882E-10 1.87016E-18 4.75663E-18
 -1      3839 9.52461E-05-2.85797E-05-2.85713E-05-5.96388E-10 1.57609E-18 2.85050E-18
 -1      3840 9.52470E-05-2.85799E-05-2.85716E-05-1.41553E-09 2.26690E-18 1.44305E-18
 -1      3841 1.11496E-04-3.90289E-05-3.11505E-05 1.07626E-05 1.77258E-18-3.19537E-19
 -1      3842 9.52461E-05-2.85795E-05-2.85714E-05-4.10407E-09 3.21410E-18-2.75927E-18
 -1      3843 9.52449E-05-2.85789E-05-2.85711E-05-4.53174E-09 1.94254E-18-2.10289E-18
 -1      3844 9.52442E-05-2.85785E-05-2.85710E-05-5.46973E-09 2.73822E-18-2.89465E-18
 -1      3845 9.52417E-05-2.85769E-05-2.85706E-05-7.43962E-09 6.70218E-19-4.00610E-18
 -1      3846 9.52422E-05-2.85771E-05-2.85707E-05-8.06331E-09 1.94212E-19-2.69556E-18
 -1      3847 1.19379E-04-4.11281E-05-3.36432E-05-2.02864E-07 5.48447E-19-1.14469E-19
 -1      3848 9.12500E-05-2.43942E-05-2.86320E-05 1.31661E-06 3.00816E-19-9.33483E-19
 -1      3849 1.15968E-04-4.09159E-05-3.20425E-05 5.95795E-06 1.29853E-18-2.22576E-19
 -1      3850 1.03900E-04-4.00807E-05-2.74078E-05-1.53806E-05 8.22154E-19-5.97886E-21
 -1      3851 1.10043E-04-4.44352E-05-2.80507E-05-1.44517E-05 1.27115E-18-6.43405E-19
 -1      3852 1.11133E-04-4.38732E-05-2.88664E-05-9.58571E-06 1.00231E-18-4.53252E-19
 -1      3853 1.15363E-04-2.98716E-05-3.66742E-05-1.24218E-05-1.48253E-18-1.61208E-19
 -1      3854 1.13544E-04-4.24653E-05-3.05042E-05 3.03406E-07 5.36336E-19-5.48103E-19
 -1      3855 9.52439E-05-2.85783E-05-2.85710E-05 5.88703E-09-1.60519E-18 8.24842E-19
 -1      3856 9.52448E-05-2.85788E-05-2.85711E-05 4.80677E-09-7.44291E-19 7.38471E-19
 -1      3857 1.16033E-04-4.48980E-05-3.05223E-05-2.26051E-06 1.11386E-18-6.71525E-19
 -1      3858 9.52437E-05-2.85780E-05-2.85710E-05 6.96281E-09-1.55152E-18 3.45545E-19
 -1      3859 9.52438E-05-2.85781E-05-2.85711E-05-7.61164E-09 1.65220E-18-7.79896E-19
 -1      3860 9.52438E-05-2.85781E-05-2.85710E-05 6.42791E-09-2.17906E-18 3.70258E-19
 -1      3861 8.54446E-05-2.08333E-05-2.76919E-05-1.58708E-06-1.00549E-18-4.98869E-19
 -1      3862 8.36576E-05-1.99527E-05-2.73490E-05-2.39868E-06-5.36627E-19-2.51760E-19
 -1      3863 1.04995E-04-3.83294E-05-2.85417E-05-6.79473E-06 3.37981E-19 4.02308E-20
 -1      3864 1.02816E-04-3.65682E-05-2.83360E-05-7.23814E-06 1.37856E-19-1.30393E-19
 -1      3865 1.00744E-04-3.47723E-05-2.82619E-05-6.86040E-06-8.93520E-20-2.19322E-19
 -1      3866 9.91627E-05-3.32649E-05-2.82004E-05-6.71327E-06-1.89927E-19-2.13966E-19
 -1      3867 1.00598E-04-3.52365E-05-2.80572E-05-8.79188E-06 6.27375E-21-4.21222E-19
 -1      3868 9.78404E-05-3.19587E-05-2.82189E-05-6.12661E-06-2.39450E-19-2.32621E-19
 -1      3869 9.67253E-05-3.08270E-05-2.82251E-05-5.76213E-06 8.67820E-20-1.77289E-19
 -1      3870 9.74234E-05-3.21112E-05-2.80250E-05-7.64864E-06-1.96287E-19-3.51864E-19
 -1      3871 9.59637E-05-2.99309E-05-2.82809E-05-5.09380E-06 7.53277E-19-8.60535E-20
 -1      3872 9.52492E-05-2.91672E-05-2.83146E-05-4.66559E-06 6.00684E-19 4.04006E-19
 -1      3873 9.53789E-05-2.98270E-05-2.81255E-05-6.12381E-06 5.61779E-19-2.78100E-19
 -1      3874 9.48621E-05-2.86144E-05-2.83762E-05-4.06326E-06 2.69729E-19 5.26015E-19
 -1      3875 9.44489E-05-2.81440E-05-2.84158E-05-3.65417E-06 2.01850E-19 6.34749E-19
 -1      3876 9.42864E-05-2.83895E-05-2.82594E-05-4.72833E-06 5.30877E-19 7.43440E-19
 -1      3877 9.42972E-05-2.78380E-05-2.84704E-05-3.15237E-06 1.00765E-19 4.73858E-19
 -1      3878 9.40899E-05-2.75818E-05-2.85058E-05-2.79592E-06 6.85410E-19 5.06332E-19
 -1      3879 9.37798E-05-2.75691E-05-2.83856E-05-3.55966E-06 9.47568E-20 1.00102E-18
 -1      3880 9.40806E-05-2.74468E-05-2.85485E-05-2.39784E-06 9.55840E-19 2.03588E-19
 -1      3881 9.40055E-05-2.73374E-05-2.85756E-05-2.10322E-06 1.03369E-18 2.64092E-19
 -1      3882 9.36397E-05-2.71747E-05-2.84893E-05-2.62683E-06 7.00286E-19 2.85384E-19
 -1      3883 9.40740E-05-2.73126E-05-2.86058E-05-1.79797E-06 7.30433E-19 9.29493E-21
 -1      3884 9.40775E-05-2.72971E-05-2.86240E-05-1.56231E-06 5.82448E-19-7.56483E-19
 -1      3885 9.37117E-05-2.70601E-05-2.85662E-05-1.91113E-06 7.44404E-19-7.95010E-19
 -1      3886 9.41816E-05-2.73377E-05-2.86432E-05-1.33335E-06 6.98335E-19-1.05960E-18
 -1      3887 9.42269E-05-2.73771E-05-2.86535E-05-1.14883E-06 8.48909E-19-8.30452E-19
 -1      3888 9.38913E-05-2.71148E-05-2.86181E-05-1.37598E-06 4.27829E-19-4.43973E-19
 -1      3889 9.43406E-05-2.74517E-05-2.86639E-05-9.79697E-07 1.29447E-18-1.05266E-18
 -1      3890 9.44038E-05-2.75190E-05-2.86680E-05-8.37264E-07 1.17856E-18-6.72359E-19
 -1      3891 9.41127E-05-2.72616E-05-2.86492E-05-9.82708E-07 1.05323E-18-7.04832E-19
 -1      3892 9.45124E-05-2.76070E-05-2.86720E-05-7.13614E-07 6.02882E-19-1.98285E-19
 -1      3893 9.45789E-05-2.76846E-05-2.86716E-05-6.04765E-07 7.71133E-19-2.86386E-19
 -1      3894 9.43364E-05-2.74489E-05-2.86645E-05-6.97055E-07 1.30933E-18-1.72930E-18
 -1      3895 9.46749E-05-2.77730E-05-2.86711E-05-5.14939E-07 2.50736E-19-1.85059E-19
 -1      3896 9.47367E-05-2.78501E-05-2.86677E-05-4.32428E-07 2.63137E-19-1.68207E-19
 -1      3897 9.45411E-05-2.76443E-05-2.86685E-05-4.91058E-07 4.35633E-19-7.71454E-19
 -1      3898 9.48172E-05-2.79317E-05-2.86645E-05-3.67559E-07 4.57458E-19-6.67623E-20
 -1      3899 9.48704E-05-2.80022E-05-2.86594E-05-3.05471E-07 6.98674E-19 4.83114E-21
 -1      3900 9.47171E-05-2.78287E-05-2.86650E-05-3.43204E-07 6.44130E-19-6.90825E-19
 -1      3901 9.49352E-05-2.80734E-05-2.86546E-05-2.58837E-07 3.79789E-19 2.27836E-19
 -1      3902 9.49786E-05-2.81343E-05-2.86488E-05-2.12474E-07-1.67437E-19 2.84740E-19
 -1      3903 9.48616E-05-2.79924E-05-2.86571E-05-2.37468E-07 2.30811E-19-9.09983E-20
 -1      3904 9.50290E-05-2.81940E-05-2.86433E-05-1.79136E-07 1.41225E-19-2.19475E-19
 -1      3905 9.50630E-05-2.82447E-05-2.86374E-05-1.44818E-07 8.39594E-19-1.62255E-20
 -1      3906 9.49760E-05-2.81313E-05-2.86468E-05-1.62080E-07-1.74039E-19-1.15341E-19
 -1      3907 9.51010E-05-2.82930E-05-2.86318E-05-1.21129E-07 1.23239E-18-5.74356E-19
 -1      3908 9.51266E-05-2.83338E-05-2.86262E-05-9.59960E-08 8.51761E-19-1.07468E-19
 -1      3909 9.50637E-05-2.82454E-05-2.86357E-05-1.08531E-07 3.93134E-19 2.01776E-19
 -1      3910 9.51544E-05-2.83719E-05-2.86210E-05-7.93307E-08 5.23972E-19 1.59933E-19
 -1      3911 9.51729E-05-2.84037E-05-2.86159E-05-6.11665E-08 3.43769E-19 5.04648E-20
 -1      3912 9.51289E-05-2.83363E-05-2.86249E-05-7.07003E-08 1.20088E-18 2.38629E-19
 -1      3913 9.51926E-05-2.84330E-05-2.86112E-05-4.95906E-08 2.25529E-19-1.65561E-19
 -1      3914 9.52055E-05-2.84573E-05-2.86068E-05-3.66775E-08-1.26218E-19 1.51422E-19
 -1      3915 9.51758E-05-2.84069E-05-2.86148E-05-4.42104E-08 2.61622E-19 2.27162E-19
 -1      3916 9.52188E-05-2.84792E-05-2.86026E-05-2.87791E-08 4.82754E-20 6.25872E-20
 -1      3917 9.52274E-05-2.84972E-05-2.85989E-05-1.97901E-08-8.44506E-20-3.71764E-19
 -1      3918 9.52083E-05-2.84605E-05-2.86060E-05-2.58853E-08-2.34580E-19 9.92217E-20
 -1      3919 9.52360E-05-2.85131E-05-2.85955E-05-1.45380E-08 3.63701E-20-5.31090E-19
 -1      3920 9.52413E-05-2.85262E-05-2.85924E-05-8.45025E-09 5.61930E-19-4.59999E-19
 -1      3921 9.52300E-05-2.85001E-05-2.85983E-05-1.34380E-08-7.07569E-20-3.59305E-19
 -1      3922 9.52465E-05-2.85375E-05-2.85895E-05-5.07869E-09 1.09012E-18-4.49599E-19
 -1      3923 9.52495E-05-2.85466E-05-2.85871E-05-1.10620E-09 1.23866E-18 7.60157E-19
 -1      3924 9.52436E-05-2.85287E-05-2.85920E-05-5.19597E-09 6.21705E-19-5.34065E-19
 -1      3925 9.52523E-05-2.85543E-05-2.85848E-05 9.39527E-10-5.27241E-19 4.20276E-19
 -1      3926 9.52536E-05-2.85605E-05-2.85828E-05 3.39498E-09-9.77149E-19-8.43296E-19
 -1      3927 9.52514E-05-2.85487E-05-2.85868E-05 6.18482E-11 2.20031E-19 5.24931E-19
 -1      3928 9.52547E-05-2.85656E-05-2.85810E-05 4.52600E-09-9.39911E-19-7.44864E-19
 -1      3929 9.52550E-05-2.85696E-05-2.85795E-05 5.91653E-09-1.06763E-18-3.72566E-19
 -1      3930 9.52551E-05-2.85622E-05-2.85827E-05 3.22335E-09-8.09713E-19 2.95850E-19
 -1      3931 9.52550E-05-2.85727E-05-2.85781E-05 6.43174E-09-2.18080E-19 1.98997E-19
 -1      3932 9.52546E-05-2.85751E-05-2.85769E-05 7.09460E-09 5.61617E-19 1.08181E-18
 -1      3933 9.52562E-05-2.85709E-05-2.85794E-05 4.94269E-09-5.08700E-19 6.92027E-19
 -1      3934 9.52539E-05-2.85769E-05-2.85759E-05 7.20921E-09 1.42587E-18 6.50048E-19
 -1      3935 9.52532E-05-2.85781E-05-2.85750E-05 7.39226E-09 1.98333E-18 1.24715E-18
 -1      3936 9.52555E-05-2.85761E-05-2.85769E-05 5.69354E-09 8.67157E-19 1.87780E-18
 -1      3937 9.52521E-05-2.85790E-05-2.85742E-05 7.26018E-09 1.40161E-18 1.85397E-18
 -1      3938 9.52512E-05-2.85795E-05-2.85736E-05 7.14209E-09 8.79428E-19 2.21683E-18
 -1      3939 9.52538E-05-2.85789E-05-2.85750E-05 5.81648E-09 2.19955E-18 1.63971E-18
 -1      3940 9.52500E-05-2.85797E-05-2.85730E-05 6.87471E-09 7.19719E-19 2.73060E-18
 -1      3941 9.52490E-05-2.85798E-05-2.85725E-05 6.58236E-09 2.40223E-18 2.28192E-18
 -1      3942 9.52516E-05-2.85800E-05-2.85736E-05 5.55901E-09 1.13698E-18 2.93825E-18
 -1      3943 9.52478E-05-2.85796E-05-2.85721E-05 6.23089E-09 1.49688E-18 1.38305E-18
 -1      3944 9.52467E-05-2.85794E-05-2.85717E-05 5.86152E-09-3.32591E-19-5.13373E-20
 -1      3945 9.52493E-05-2.85802E-05-2.85725E-05 5.05222E-09 6.78886E-19 8.67172E-19
 -1      3946 8.80149E-05-2.23185E-05-2.81575E-05-3.25348E-07-9.58491E-19-7.47663E-19
 -1      3947 8.66746E-05-2.15469E-05-2.79531E-05-7.68980E-07-1.13648E-18-9.46069E-19
 -1      3948 8.65156E-05-2.17190E-05-2.77301E-05-2.62444E-06-8.93037E-19 1.82065E-19
 -1      3949 9.38835E-05-2.68646E-05-2.87257E-05 6.90058E-07-2.79461E-20-5.59050E-19
 -1      3950 9.36188E-05-2.65993E-05-2.87273E-05 7.68538E-07-1.97205E-19-6.69384E-19
 -1      3951 9.33037E-05-2.63063E-05-2.87170E-05 7.80492E-07-3.55028E-19-8.24696E-19
 -1      3952 9.29460E-05-2.59797E-05-2.87075E-05 8.39319E-07-5.86855E-19-9.01951E-19
 -1      3953 9.33562E-05-2.63877E-05-2.86928E-05 4.99754E-07-2.14674E-19-1.37989E-18
 -1      3954 9.45890E-05-2.76171E-05-2.87046E-05 4.63172E-07 9.35187E-19 4.65814E-20
 -1      3955 9.44652E-05-2.74685E-05-2.87143E-05 5.33779E-07 7.77071E-19 4.18883E-19
 -1      3956 9.47986E-05-2.78667E-05-2.86870E-05 3.58918E-07 6.26321E-19 2.15007E-19
 -1      3957 9.47120E-05-2.77533E-05-2.86973E-05 4.19881E-07 5.69229E-19-1.33704E-19
 -1      3958 9.45832E-05-2.76257E-05-2.86933E-05 3.50465E-07 8.52463E-19 2.19091E-20
 -1      3959 9.49476E-05-2.80571E-05-2.86688E-05 2.69382E-07 2.22098E-19 5.35207E-19
 -1      3960 9.48874E-05-2.79710E-05-2.86788E-05 3.19781E-07 2.42129E-19-3.28776E-19
 -1      3961 9.47916E-05-2.78700E-05-2.86787E-05 2.77262E-07 4.47045E-19-8.94947E-19
 -1      3962 9.50526E-05-2.82014E-05-2.86516E-05 1.95823E-07 1.92490E-18-7.06652E-19
 -1      3963 9.50111E-05-2.81363E-05-2.86607E-05 2.36183E-07 1.24293E-18-6.01860E-19
 -1      3964 9.49414E-05-2.80580E-05-2.86629E-05 2.11087E-07 1.13297E-18-1.32364E-18
 -1      3965 9.51285E-05-2.83144E-05-2.86355E-05 1.35100E-07 1.70641E-18-8.47200E-19
 -1      3966 9.50992E-05-2.82638E-05-2.86437E-05 1.67592E-07 2.11228E-18-9.30925E-19
 -1      3967 9.50501E-05-2.82045E-05-2.86472E-05 1.53832E-07 2.02372E-18-2.71952E-18
 -1      3968 9.51774E-05-2.83938E-05-2.86221E-05 9.10913E-08 1.18481E-18-5.72573E-19
 -1      3969 9.51590E-05-2.83583E-05-2.86288E-05 1.14448E-07 1.18366E-18-8.36604E-19
 -1      3970 9.51257E-05-2.83145E-05-2.86327E-05 1.07761E-07 1.87966E-18-2.30993E-18
 -1      3971 9.52100E-05-2.84522E-05-2.86109E-05 5.82536E-08 2.34847E-21 1.10039E-18
 -1      3972 9.51980E-05-2.84261E-05-2.86164E-05 7.54557E-08 1.57155E-18 2.18460E-19
 -1      3973 9.51760E-05-2.83942E-05-2.86204E-05 7.29586E-08 9.02685E-19-1.09395E-18
 -1      3974 9.52310E-05-2.84945E-05-2.86016E-05 3.44828E-08-2.10235E-18 1.12343E-18
 -1      3975 9.52236E-05-2.84757E-05-2.86061E-05 4.68184E-08-1.55206E-18 6.02094E-19
 -1      3976 9.52097E-05-2.84529E-05-2.86098E-05 4.67766E-08-5.47101E-19 4.01194E-19
 -1      3977 9.52438E-05-2.85246E-05-2.85941E-05 1.77903E-08-1.14950E-18 7.17892E-19
 -1      3978 9.52395E-05-2.85113E-05-2.85977E-05 2.63851E-08-1.74044E-18 8.85858E-19
 -1      3979 9.52315E-05-2.84955E-05-2.86010E-05 2.76979E-08-1.54994E-18 2.66063E-19
 -1      3980 9.52512E-05-2.85464E-05-2.85879E-05 6.06567E-09-2.20737E-19 1.61214E-18
 -1      3981 9.52490E-05-2.85369E-05-2.85908E-05 1.20082E-08-5.39389E-19 9.42281E-19
 -1      3982 9.52450E-05-2.85263E-05-2.85936E-05 1.40221E-08-6.87324E-19 3.30601E-19
 -1      3983 9.52544E-05-2.85603E-05-2.85833E-05-1.01027E-09-7.48313E-19 2.46225E-18
 -1      3984 9.52537E-05-2.85542E-05-2.85854E-05 2.58074E-09-1.49661E-19 1.54090E-18
 -1      3985 9.52524E-05-2.85475E-05-2.85878E-05 4.80514E-09 2.79006E-20 3.22424E-19
 -1      3986 9.52552E-05-2.85693E-05-2.85797E-05-5.26140E-09-1.26387E-18 2.72070E-18
 -1      3987 9.52553E-05-2.85654E-05-2.85813E-05-3.13732E-09-1.13879E-18 2.62741E-18
 -1      3988 9.52557E-05-2.85614E-05-2.85833E-05-9.24712E-10-1.08436E-18 1.05319E-18
 -1      3989 9.52545E-05-2.85748E-05-2.85770E-05-7.52312E-09 4.71974E-19 2.21030E-18
 -1      3990 9.52551E-05-2.85724E-05-2.85782E-05-6.41645E-09-1.62607E-19 1.56337E-18
 -1      3991 9.52564E-05-2.85703E-05-2.85798E-05-4.35720E-09-3.21709E-19 1.11100E-18
 -1      3992 9.52529E-05-2.85778E-05-2.85750E-05-8.44196E-09 4.80706E-19 1.20765E-18
 -1      3993 9.52538E-05-2.85765E-05-2.85759E-05-8.01778E-09-3.99852E-19 1.02287E-18
 -1      3994 9.52556E-05-2.85756E-05-2.85771E-05-6.17790E-09 9.24076E-19-5.89923E-19
 -1      3995 9.52508E-05-2.85792E-05-2.85736E-05-8.49576E-09 1.92604E-18 1.39976E-18
 -1      3996 9.52518E-05-2.85786E-05-2.85742E-05-8.50746E-09 2.24813E-18 1.75636E-18
 -1      3997 9.52538E-05-2.85785E-05-2.85751E-05-6.91080E-09 8.42531E-19-3.68325E-19
 -1      3998 9.52485E-05-2.85795E-05-2.85724E-05-7.99267E-09-2.19904E-19 1.75170E-18
 -1      3999 9.52496E-05-2.85794E-05-2.85729E-05-8.28843E-09 8.29281E-19 1.34570E-18
 -1      4000 9.52515E-05-2.85798E-05-2.85736E-05-6.92898E-09 1.21678E-18 1.00823E-18
 -1      4001 9.52464E-05-2.85791E-05-2.85717E-05-7.21942E-09 2.20946E-18 2.79524E-19
 -1      4002 9.52473E-05-2.85793E-05-2.85720E-05-7.64167E-09 5.01587E-19 8.76646E-20
 -1      4003 9.52491E-05-2.85800E-05-2.85725E-05-6.52536E-09 1.45987E-18 1.34710E-19
 -1      4004 9.52431E-05-2.85778E-05-2.85708E-05-6.39268E-09 2.26822E-18-3.81174E-18
 -1      4005 9.52453E-05-2.85788E-05-2.85713E-05 6.29830E-09-1.56346E-18 2.27683E-19
 -1      4006 9.42962E-05-2.72919E-05-2.87190E-05 5.77056E-07-6.77659E-20-2.34074E-19
 -1      4007 9.41202E-05-2.70986E-05-2.87263E-05 6.53897E-07-1.79519E-19-7.16967E-19
 -1      4008 9.42962E-05-2.73111E-05-2.87039E-05 4.23386E-07 2.28576E-19-1.28428E-18
 -1      4009 9.25237E-05-2.56104E-05-2.86812E-05 8.05243E-07-9.47212E-19-4.65936E-19
 -1      4010 9.20218E-05-2.51946E-05-2.86525E-05 8.23171E-07-3.86058E-19-4.33423E-19
 -1      4011 9.26346E-05-2.57515E-05-2.86533E-05 4.34740E-07-4.25813E-19-3.65775E-19
 -1      4012 7.17346E-05-1.45162E-05-2.45533E-05-5.67972E-06-1.08369E-19 5.61063E-19
 -1      4013 1.09737E-04-4.20954E-05-2.90027E-05-6.78224E-06 5.64217E-19-4.11010E-20
 -1      4014 1.07132E-04-4.02496E-05-2.86019E-05-7.81394E-06 4.87567E-19-3.39955E-20
 -1      4015 1.13756E-04-4.40626E-05-2.97554E-05-4.38810E-06 8.44575E-19-3.24963E-19
 -1      4016 9.52455E-05-2.85792E-05-2.85712E-05 3.47836E-09 2.61567E-19 1.79313E-18
 -1      4017 9.52459E-05-2.85795E-05-2.85713E-05 2.22326E-09 5.06571E-19 3.92146E-18
 -1      4018 9.52469E-05-2.85799E-05-2.85716E-05 1.59004E-09 2.28655E-18 3.10250E-18
 -1      4019 9.52460E-05-2.85793E-05-2.85714E-05 4.41617E-09-5.95004E-19 6.72103E-19
 -1      4020 8.99588E-05-2.36147E-05-2.84364E-05 3.69354E-07-3.21740E-20-1.68758E-18
 -1      4021 8.89822E-05-2.29700E-05-2.83192E-05 1.60271E-07-2.36948E-19-1.21539E-18
 -1      4022 8.86538E-05-2.29045E-05-2.81511E-05-1.14049E-06-3.32402E-19-1.12258E-18
 -1      4023 8.92047E-05-2.94110E-05-2.55423E-05-1.86280E-05 6.94241E-19 8.12450E-19
 -1      4024 9.66473E-05-3.50462E-05-2.64830E-05-1.76068E-05 5.40033E-19 6.67866E-19
 -1      4025 9.14447E-05-2.47241E-05-2.85984E-05 7.02702E-07-2.73958E-19-1.02519E-18
 -1      4026 9.07241E-05-2.41869E-05-2.85347E-05 6.36360E-07-7.38676E-20-1.44193E-18
 -1      4027 9.16574E-05-2.49597E-05-2.85696E-05 2.18202E-07-1.03634E-18-2.46799E-19
 -1      4028 8.08760E-05-2.25619E-05-2.50047E-05-1.53368E-05 6.16941E-19 7.47361E-19
 -1      4029 8.50515E-05-2.62863E-05-2.52353E-05-1.78270E-05 7.13073E-19 7.80045E-19
 -1      4030 8.95736E-05-2.83694E-05-2.61475E-05-1.54128E-05 1.71721E-19 1.21546E-18
 -1      4031 9.52443E-05-2.85784E-05-2.85711E-05-6.20900E-09 3.02642E-18-3.46117E-18
 -1      4032 1.04706E-04-3.91587E-05-2.81251E-05-1.05353E-05 2.94324E-19-1.37696E-19
 -1      4033 9.52452E-05-2.85788E-05-2.85713E-05-6.67662E-09 2.95774E-18-1.74817E-18
 -1      4034 9.03456E-05-2.39989E-05-2.84139E-05-2.60915E-07-9.51667E-20-1.65437E-18
 -1      4035 9.38979E-05-2.69035E-05-2.87062E-05 4.82448E-07-3.89834E-19-1.67329E-18
 -1      4036 9.52475E-05-2.85800E-05-2.85718E-05-3.77583E-09 3.64378E-18-2.73881E-18
 -1      4037 9.52468E-05-2.85796E-05-2.85717E-05-4.95674E-09 4.12453E-18-3.71589E-18
 -1      4038 7.48492E-05-1.57444E-05-2.53716E-05-4.69861E-06-2.84451E-19 2.83781E-19
 -1      4039 7.50498E-05-1.66021E-05-2.49646E-05-8.34986E-06 3.43164E-20 1.22966E-18
 -1      4040 7.76407E-05-1.69427E-05-2.60546E-05-4.24418E-06-4.29703E-19-6.39196E-20
 -1      4041 7.61705E-05-1.81048E-05-2.49119E-05-1.06667E-05 6.52232E-20 1.34482E-18
 -1      4042 7.83973E-05-2.01937E-05-2.49090E-05-1.34778E-05 5.06129E-19 1.03576E-18
 -1      4043 7.90328E-05-1.90539E-05-2.57004E-05-9.18010E-06 1.61072E-19 1.04365E-18
 -1      4044 1.00150E-04-3.69443E-05-2.70170E-05-1.57747E-05 3.40401E-19-3.51800E-20
 -1      4045 1.02945E-04-3.82274E-05-2.77185E-05-1.25747E-05 2.30465E-19 2.17762E-19
 -1      4046 1.00910E-04-3.62722E-05-2.77438E-05-1.12841E-05-4.74719E-20-1.92182E-19
 -1      4047 9.58097E-05-3.32643E-05-2.68819E-05-1.47687E-05-5.90226E-20 3.50728E-19
 -1      4048 8.30746E-05-2.28527E-05-2.57529E-05-1.30377E-05 3.71434E-19 7.96378E-19
 -1      4049 8.20398E-05-1.90851E-05-2.70081E-05-3.05612E-06-6.45581E-19-8.05542E-19
 -1      4050 7.99759E-05-1.80613E-05-2.65767E-05-3.50058E-06-7.92813E-19-3.41995E-19
 -1      4051 8.37954E-05-2.03564E-05-2.71299E-05-4.39670E-06-6.78529E-19 4.42580E-19
 -1      4052 9.52482E-05-2.85804E-05-2.85719E-05-6.93545E-10 2.78486E-18 2.99864E-18
 -1      4053 9.52480E-05-2.85802E-05-2.85719E-05-2.17988E-09 2.94611E-18-4.46648E-19
 -1      4054 9.52487E-05-2.85804E-05-2.85721E-05-3.06856E-09 2.27235E-18-1.72861E-18
 -1      4055 9.52466E-05-2.85794E-05-2.85717E-05 5.27872E-09-8.86289E-19-6.29733E-19
 -1      4056 9.52474E-05-2.85799E-05-2.85718E-05 3.92771E-09 6.55489E-20 2.47962E-19
 -1      4057 8.79043E-05-2.28819E-05-2.78507E-05-3.16270E-06-1.20510E-19-2.81751E-19
 -1      4058 8.66760E-05-2.23916E-05-2.75928E-05-4.18463E-06-1.88618E-19 5.60212E-19
 -1      4059 9.52487E-05-2.85802E-05-2.85722E-05 3.68541E-09-6.46170E-19-3.60540E-19
 -1      4060 9.52479E-05-2.85801E-05-2.85719E-05 2.77493E-09 7.67415E-19 1.12685E-18
 -1      4061 9.52482E-05-2.85803E-05-2.85720E-05 1.31632E-09 1.55095E-18 3.14264E-18
 -1      4062 9.52499E-05-2.85805E-05-2.85726E-05 3.89219E-09 4.27464E-19 6.81478E-19
 -1      4063 9.64951E-05-3.17067E-05-2.77910E-05-9.03831E-06-2.03802E-19-1.54319E-19
 -1      4064 9.51682E-05-3.02217E-05-2.78336E-05-8.05388E-06-5.42399E-20-1.46957E-20
 -1      4065 9.45503E-05-2.92703E-05-2.79553E-05-6.95278E-06 5.27953E-19 9.01126E-20
 -1      4066 9.37989E-05-2.84094E-05-2.80300E-05-6.14387E-06 9.42857E-19 2.08288E-20
 -1      4067 9.34175E-05-2.88102E-05-2.77238E-05-8.16617E-06 3.70727E-19 1.58092E-19
 -1      4068 9.36015E-05-2.78716E-05-2.81419E-05-5.20453E-06 1.07548E-18 3.79485E-19
 -1      4069 9.31859E-05-2.73814E-05-2.82147E-05-4.54175E-06 6.76070E-19 6.73008E-19
 -1      4070 9.26058E-05-2.73639E-05-2.79736E-05-5.98816E-06 1.30837E-18-3.64500E-19
 -1      4071 9.32120E-05-2.71106E-05-2.83072E-05-3.79842E-06 7.00064E-21 1.34145E-18
 -1      4072 9.30389E-05-2.68739E-05-2.83689E-05-3.27033E-06 6.10399E-20 1.28449E-18
 -1      4073 9.23944E-05-2.66099E-05-2.81925E-05-4.24571E-06 6.08786E-19 1.72158E-19
 -1      4074 9.31832E-05-2.67912E-05-2.84387E-05-2.71857E-06-1.87858E-20 8.39462E-19
 -1      4075 9.31600E-05-2.67191E-05-2.84858E-05-2.31504E-06 3.49703E-19-1.54376E-19
 -1      4076 9.25500E-05-2.63516E-05-2.83634E-05-2.93803E-06-3.97990E-19 3.70825E-19
 -1      4077 9.33527E-05-2.67484E-05-2.85349E-05-1.91711E-06 6.59483E-19-5.42207E-19
 -1      4078 9.34124E-05-2.67758E-05-2.85678E-05-1.61743E-06 6.22326E-19-8.06137E-19
 -1      4079 9.28712E-05-2.63779E-05-2.84871E-05-1.99651E-06-1.79387E-19-1.30694E-19
 -1      4080 9.36135E-05-2.68661E-05-2.85999E-05-1.33739E-06 9.18522E-19-4.94262E-19
 -1      4081 9.37124E-05-2.69477E-05-2.86207E-05-1.11857E-06 5.65903E-19-2.67232E-20
 -1      4082 9.32525E-05-2.65634E-05-2.85709E-05-1.33653E-06 9.03419E-19-9.28851E-19
 -1      4083 9.39005E-05-2.70658E-05-2.86398E-05-9.25556E-07-5.52218E-20-2.99105E-19
 -1      4084 9.40111E-05-2.71714E-05-2.86512E-05-7.67738E-07 9.36868E-19-1.12750E-18
 -1      4085 9.36325E-05-2.68237E-05-2.86234E-05-8.83711E-07 3.98830E-19-1.02602E-18
 -1      4086 9.41762E-05-2.72964E-05-2.86607E-05-6.36387E-07 1.51207E-18-2.08859E-18
 -1      4087 9.42831E-05-2.74072E-05-2.86653E-05-5.23592E-07 9.64961E-19-1.95999E-18
 -1      4088 9.39785E-05-2.71047E-05-2.86527E-05-5.78005E-07 3.36316E-19-1.45011E-18
 -1      4089 9.44215E-05-2.75262E-05-2.86684E-05-4.35179E-07 1.16961E-18-1.86623E-18
 -1      4090 9.45167E-05-2.76314E-05-2.86682E-05-3.54680E-07 8.81814E-19-1.36300E-18
 -1      4091 9.42766E-05-2.73759E-05-2.86656E-05-3.74386E-07 1.13770E-18-2.63915E-18
 -1      4092 9.46289E-05-2.77381E-05-2.86670E-05-2.95934E-07 5.53342E-19-1.16967E-18
 -1      4093 9.47091E-05-2.78318E-05-2.86639E-05-2.38651E-07 7.50887E-19-1.11186E-18
 -1      4094 9.45236E-05-2.76216E-05-2.86675E-05-2.40499E-07 1.06723E-18-2.80316E-18
 -1      4095 9.47975E-05-2.79234E-05-2.86602E-05-1.99828E-07 9.66321E-19-1.24437E-18
 -1      4096 9.48623E-05-2.80033E-05-2.86555E-05-1.59087E-07 3.72883E-19-9.84794E-19
 -1      4097 9.47215E-05-2.78337E-05-2.86626E-05-1.53183E-07 1.01091E-18-2.73497E-18
 -1      4098 9.49302E-05-2.80793E-05-2.86504E-05-1.33565E-07-5.65135E-19 9.82350E-20
 -1      4099 9.49807E-05-2.81452E-05-2.86450E-05-1.04650E-07 3.34290E-19 3.06592E-19
 -1      4100 9.48759E-05-2.80108E-05-2.86538E-05-9.65289E-08 6.26768E-19-1.18826E-18
 -1      4101 9.50316E-05-2.82065E-05-2.86394E-05-8.79949E-08 5.36752E-19 8.08847E-19
 -1      4102 9.50698E-05-2.82593E-05-2.86339E-05-6.74344E-08 2.74663E-19 9.69525E-19
 -1      4103 9.49934E-05-2.81547E-05-2.86432E-05-5.99312E-08 7.36443E-19 1.13584E-18
 -1      4104 9.51070E-05-2.83076E-05-2.86284E-05-5.66853E-08 6.37869E-19 9.87036E-19
 -1      4105 9.51350E-05-2.83489E-05-2.86231E-05-4.21505E-08 1.12668E-18 5.87605E-19
 -1      4106 9.50806E-05-2.82690E-05-2.86321E-05-3.64209E-08 3.34627E-19 1.87044E-18
 -1      4107 9.51614E-05-2.83861E-05-2.86181E-05-3.52617E-08 3.79173E-19 4.63457E-19
 -1      4108 9.51812E-05-2.84177E-05-2.86133E-05-2.50558E-08-5.32962E-19 2.46915E-19
 -1      4109 9.51436E-05-2.83577E-05-2.86215E-05-2.13710E-08 5.22868E-19 7.93653E-19
 -1      4110 9.51994E-05-2.84457E-05-2.86088E-05-2.07164E-08-5.49668E-19 7.33615E-19
 -1      4111 9.52128E-05-2.84692E-05-2.86046E-05-1.36285E-08 4.81686E-20 5.05604E-19
 -1      4112 9.51878E-05-2.84251E-05-2.86119E-05-1.17741E-08-1.67832E-19 9.36617E-19
 -1      4113 9.52249E-05-2.84898E-05-2.86008E-05-1.09536E-08-1.83212E-19 5.67660E-19
 -1      4114 9.52336E-05-2.85070E-05-2.85973E-05-6.12138E-09-3.17790E-19 6.20867E-19
 -1      4115 9.52177E-05-2.84752E-05-2.86035E-05-5.70701E-09-3.23601E-20 1.28139E-18
 -1      4116 9.52411E-05-2.85218E-05-2.85940E-05-4.56063E-09 1.91429E-19 8.46569E-19
 -1      4117 9.52463E-05-2.85339E-05-2.85911E-05-1.32230E-09 8.58795E-19 6.77264E-19
 -1      4118 9.52370E-05-2.85117E-05-2.85963E-05-1.94135E-09-4.89695E-19 5.82828E-19
 -1      4119 9.52506E-05-2.85442E-05-2.85885E-05-4.85217E-10-4.95464E-19 4.54744E-19
 -1      4120 9.52534E-05-2.85526E-05-2.85861E-05 1.59863E-09-1.02015E-18-2.52367E-19
 -1      4121 9.52487E-05-2.85375E-05-2.85904E-05 3.32120E-10-8.33852E-19-1.13632E-19
 -1      4122 9.52555E-05-2.85595E-05-2.85840E-05 1.98097E-09-7.62048E-19-7.09428E-19
 -1      4123 9.52566E-05-2.85650E-05-2.85821E-05 3.25075E-09-1.37167E-18-4.10800E-19
 -1      4124 9.52549E-05-2.85552E-05-2.85856E-05 1.62350E-09-9.93817E-19-2.11431E-18
 -1      4125 9.52571E-05-2.85694E-05-2.85805E-05 3.34731E-09-7.22249E-19-2.61914E-19
 -1      4126 9.52572E-05-2.85728E-05-2.85790E-05 4.05249E-09-1.50669E-19-6.23342E-19
 -1      4127 9.52575E-05-2.85668E-05-2.85817E-05 2.28721E-09-7.79943E-19-1.97756E-18
 -1      4128 9.52568E-05-2.85754E-05-2.85777E-05 3.97785E-09 7.22842E-19 2.17181E-19
 -1      4129 9.52562E-05-2.85774E-05-2.85766E-05 4.30038E-09 2.19830E-18 4.76247E-19
 -1      4130 9.52576E-05-2.85741E-05-2.85787E-05 2.54953E-09 8.37723E-19-2.39235E-18
 -1      4131 9.52552E-05-2.85788E-05-2.85756E-05 4.13030E-09 2.21974E-18 6.82459E-20
 -1      4132 9.52542E-05-2.85797E-05-2.85748E-05 4.20330E-09 1.85662E-18 6.16275E-19
 -1      4133 9.52563E-05-2.85782E-05-2.85764E-05 2.56256E-09 2.27646E-18-1.19527E-18
 -1      4134 9.52530E-05-2.85803E-05-2.85740E-05 3.97744E-09 1.60901E-18 1.19099E-18
 -1      4135 9.52519E-05-2.85805E-05-2.85734E-05 3.90634E-09 1.64262E-18 7.75111E-19
 -1      4136 9.52542E-05-2.85802E-05-2.85746E-05 2.42371E-09 2.50552E-18-1.03546E-18
 -1      4137 8.32276E-05-2.21287E-05-2.61882E-05-1.05987E-05 3.85714E-20 9.94054E-19
 -1      4138 8.57049E-05-2.44363E-05-2.62850E-05-1.23681E-05 5.29925E-20 1.53998E-18
 -1      4139 9.47993E-05-2.79034E-05-2.86711E-05 1.87494E-07 6.43524E-19-1.36528E-18
 -1      4140 9.47103E-05-2.77969E-05-2.86785E-05 2.17768E-07 7.52301E-19-9.45979E-19
 -1      4141 9.45992E-05-2.76744E-05-2.86837E-05 2.30119E-07 1.12649E-18-9.28449E-19
 -1      4142 9.44757E-05-2.75381E-05-2.86898E-05 2.60290E-07 1.26585E-18-1.24758E-18
 -1      4143 9.46249E-05-2.77037E-05-2.86758E-05 1.36803E-07 1.14526E-18-1.96783E-18
 -1      4144 9.50530E-05-2.82226E-05-2.86425E-05 1.06585E-07 2.26279E-18-2.73898E-18
 -1      4145 9.50065E-05-2.81570E-05-2.86502E-05 1.30609E-07 2.85190E-18-2.49363E-18
 -1      4146 9.51261E-05-2.83254E-05-2.86296E-05 7.57242E-08 1.72456E-18-1.94027E-18
 -1      4147 9.50957E-05-2.82785E-05-2.86361E-05 9.41701E-08 1.75147E-18-2.29841E-18
 -1      4148 9.50591E-05-2.82304E-05-2.86391E-05 7.29850E-08 1.80155E-18-2.39980E-18
 -1      4149 9.51765E-05-2.84023E-05-2.86180E-05 5.12811E-08-4.48146E-19-7.51598E-19
 -1      4150 9.51560E-05-2.83673E-05-2.86237E-05 6.55945E-08 5.42551E-19-1.53734E-18
 -1      4151 9.51303E-05-2.83311E-05-2.86270E-05 5.29181E-08 4.66623E-19-1.68032E-18
 -1      4152 9.52105E-05-2.84590E-05-2.86081E-05 3.27089E-08-5.09407E-19-2.40866E-19
 -1      4153 9.51970E-05-2.84334E-05-2.86130E-05 4.34544E-08 1.42262E-19-2.49228E-19
 -1      4154 9.51796E-05-2.84066E-05-2.86162E-05 3.64250E-08-4.45690E-19-1.32368E-18
 -1      4155 9.52324E-05-2.85001E-05-2.85998E-05 1.90773E-08-8.03396E-19-1.03714E-18
 -1      4156 9.52240E-05-2.84816E-05-2.86038E-05 2.69298E-08-9.19445E-19-3.48004E-19
 -1      4157 9.52128E-05-2.84624E-05-2.86068E-05 2.35841E-08-4.67825E-19-1.77515E-18
 -1      4158 9.52463E-05-2.85305E-05-2.85927E-05 9.10268E-09-1.92433E-20-8.57686E-19
 -1      4159 9.52412E-05-2.85170E-05-2.85960E-05 1.47874E-08-5.17292E-19-7.96217E-19
 -1      4160 9.52345E-05-2.85035E-05-2.85987E-05 1.38339E-08-2.79105E-19-1.92868E-18
 -1      4161 9.52535E-05-2.85502E-05-2.85872E-05 2.77309E-09-9.53894E-19 8.05788E-19
 -1      4162 9.52511E-05-2.85414E-05-2.85898E-05 6.42421E-09-6.29681E-19-5.70691E-19
 -1      4163 9.52476E-05-2.85325E-05-2.85920E-05 6.89665E-09-5.05672E-19-1.11785E-18
 -1      4164 9.52567E-05-2.85634E-05-2.85829E-05-1.28044E-09-1.23039E-18 1.21978E-18
 -1      4165 9.52558E-05-2.85576E-05-2.85849E-05 1.06394E-09-6.67147E-19 1.32740E-18
 -1      4166 9.52545E-05-2.85518E-05-2.85868E-05 2.32183E-09-1.26681E-18 8.52087E-19
 -1      4167 9.52573E-05-2.85718E-05-2.85796E-05-3.67201E-09 7.86396E-19 3.36256E-19
 -1      4168 9.52575E-05-2.85681E-05-2.85811E-05-2.27031E-09-6.03544E-19 8.90257E-19
 -1      4169 9.52574E-05-2.85646E-05-2.85826E-05-6.29708E-10-4.09289E-19 2.76668E-19
 -1      4170 9.52563E-05-2.85767E-05-2.85770E-05-4.90219E-09 1.57105E-18-1.86081E-19
 -1      4171 9.52571E-05-2.85746E-05-2.85782E-05-4.16010E-09 1.27376E-18 2.55482E-19
 -1      4172 9.52578E-05-2.85727E-05-2.85794E-05-2.39166E-09 1.25008E-18-1.09790E-19
 -1      4173 9.52544E-05-2.85793E-05-2.85750E-05-5.35555E-09 9.02537E-19-6.63379E-19
 -1      4174 9.52555E-05-2.85783E-05-2.85759E-05-5.05521E-09 9.32793E-19-1.46397E-18
 -1      4175 9.52567E-05-2.85774E-05-2.85769E-05-3.31634E-09 1.69755E-18-7.11549E-20
 -1      4176 9.52520E-05-2.85803E-05-2.85735E-05-5.29381E-09 1.12655E-18-2.66282E-20
 -1      4177 9.52532E-05-2.85800E-05-2.85742E-05-5.29423E-09 1.47475E-18-7.28773E-19
 -1      4178 9.52546E-05-2.85799E-05-2.85749E-05-3.68199E-09 9.63105E-19-9.62183E-19
 -1      4179 9.52467E-05-2.85795E-05-2.85717E-05-5.75591E-09 3.50648E-18-3.21091E-18
 -1      4180 9.43278E-05-2.73834E-05-2.86923E-05 2.64800E-07 2.75116E-20-1.26594E-18
 -1      4181 9.41579E-05-2.72106E-05-2.86954E-05 2.89117E-07-9.43828E-19-1.79523E-18
 -1      4182 9.43691E-05-2.74283E-05-2.86826E-05 1.39893E-07 2.42921E-19-2.10336E-18
 -1      4183 8.82678E-05-2.66202E-05-2.63982E-05-1.33559E-05-5.23068E-21 1.23489E-18
 -1      4184 9.17225E-05-2.95295E-05-2.66499E-05-1.41047E-05 1.11163E-19 8.62243E-19
 -1      4185 8.83336E-05-2.57578E-05-2.67822E-05-1.10524E-05 9.86413E-21 1.33224E-18
 -1      4186 9.28274E-05-2.59982E-05-2.86415E-05 1.08715E-07-4.48714E-19-1.26927E-18
 -1      4187 9.23996E-05-2.56714E-05-2.86117E-05 1.95052E-08-1.19699E-18-1.34211E-18
 -1      4188 9.90989E-05-3.43450E-05-2.77078E-05-1.06280E-05-6.75236E-20 8.85017E-20
 -1      4189 9.49451E-05-2.80814E-05-2.86570E-05 1.45324E-07 2.08054E-18-2.23366E-18
 -1      4190 9.48816E-05-2.79991E-05-2.86647E-05 1.72715E-07 1.10268E-18-1.86200E-18
 -1      4191 9.48156E-05-2.79228E-05-2.86649E-05 1.19053E-07 1.44307E-18-2.71370E-18
 -1      4192 9.19870E-05-2.53297E-05-2.85657E-05-1.79114E-07-1.43667E-18-1.44394E-18
 -1      4193 9.14007E-05-2.49321E-05-2.85072E-05-3.79533E-07-7.88539E-19-1.52837E-18
 -1      4194 9.22673E-05-2.55973E-05-2.85570E-05-5.19405E-07-1.11313E-18-1.86228E-18
 -1      4195 9.08947E-05-2.45486E-05-2.84287E-05-7.29395E-07-1.06049E-19-1.37477E-18
 -1      4196 9.01184E-05-2.40920E-05-2.83262E-05-1.10638E-06 3.27718E-19-1.40932E-18
 -1      4197 9.13409E-05-2.49612E-05-2.84308E-05-1.14607E-06-2.97323E-19-1.99071E-18
 -1      4198 9.39586E-05-2.70127E-05-2.86929E-05 2.76036E-07-2.34146E-19-1.58243E-18
 -1      4199 9.37193E-05-2.67900E-05-2.86899E-05 2.83261E-07 2.75977E-19-1.88552E-18
 -1      4200 9.40256E-05-2.70832E-05-2.86813E-05 1.11218E-07-4.91314E-19-1.87656E-18
 -1      4201 8.95340E-05-2.37000E-05-2.82032E-05-1.66720E-06 4.24596E-19-1.12412E-18
 -1      4202 8.85529E-05-2.32201E-05-2.80391E-05-2.29523E-06 3.37713E-20-8.04579E-19
 -1      4203 9.02332E-05-2.43233E-05-2.82293E-05-2.16193E-06 4.87294E-19-1.48687E-18
 -1      4204 9.34667E-05-2.65526E-05-2.86789E-05 2.37779E-07 2.33611E-20-1.23868E-18
 -1      4205 9.31488E-05-2.62831E-05-2.86658E-05 2.10094E-07 3.61090E-19-8.58616E-19
 -1      4206 9.30029E-05-2.61704E-05-2.86291E-05-1.63576E-07-4.26608E-19-1.83736E-18
 -1      4207 9.35758E-05-2.66631E-05-2.86661E-05 2.34070E-08 3.48118E-19-2.00651E-18
 -1      4208 9.52493E-05-2.85806E-05-2.85723E-05 5.85534E-10 1.47459E-18 1.95924E-18
 -1      4209 8.10871E-05-1.99210E-05-2.62281E-05-8.14937E-06 1.72894E-19 7.90791E-19
 -1      4210 8.38199E-05-2.14753E-05-2.67039E-05-7.71967E-06-3.40142E-19 1.16270E-18
 -1      4211 9.52511E-05-2.85807E-05-2.85730E-05 2.39378E-09 5.64324E-19 6.78042E-20
 -1      4212 9.49571E-05-2.80965E-05-2.86521E-05 9.59400E-08 2.89179E-18-2.03885E-18
 -1      4213 8.89529E-05-2.37698E-05-2.79218E-05-3.72524E-06 5.69570E-19-8.58016E-19
 -1      4214 9.46937E-05-3.15289E-05-2.70827E-05-1.29271E-05-6.82292E-20 6.25622E-19
 -1      4215 9.52494E-05-2.85803E-05-2.85725E-05-4.91351E-09 3.23601E-18-2.90479E-18
 -1      4216 9.52506E-05-2.85804E-05-2.85729E-05-5.09714E-09 2.54329E-18-5.25805E-19
 -1      4217 9.52521E-05-2.85807E-05-2.85735E-05-3.68847E-09 2.56993E-18-1.98114E-18
 -1      4218 9.51120E-05-3.10710E-05-2.74636E-05-1.04843E-05-7.32055E-21 4.80421E-19
 -1      4219 8.76150E-05-2.34272E-05-2.74691E-05-5.99036E-06-1.07952E-19 3.24644E-19
 -1      4220 8.59108E-05-2.21783E-05-2.73102E-05-5.51735E-06-7.36423E-19 1.08057E-18
 -1      4221 8.43980E-05-2.15439E-05-2.69693E-05-6.50160E-06-4.69961E-19 8.86738E-19
 -1      4222 8.00554E-05-1.85936E-05-2.62848E-05-6.00577E-06-2.11675E-19 3.21052E-19
 -1      4223 9.20332E-05-2.77968E-05-2.74811E-05-8.91119E-06-3.72833E-20 7.87169E-19
 -1      4224 9.13625E-05-2.68797E-05-2.76218E-05-7.70227E-06 7.58049E-19 6.87200E-19
 -1      4225 9.04317E-05-2.56042E-05-2.77632E-05-6.04244E-06 8.27467E-19 5.14411E-20
 -1      4226 9.03262E-05-2.52640E-05-2.79034E-05-5.03835E-06 9.59402E-19 1.58335E-20
 -1      4227 9.09122E-05-2.53528E-05-2.80800E-05-4.03844E-06 1.01903E-18-6.94937E-19
 -1      4228 9.09748E-05-2.52605E-05-2.81859E-05-3.27187E-06 3.64265E-19-8.67982E-19
 -1      4229 9.15118E-05-2.54517E-05-2.83047E-05-2.61131E-06 1.10044E-19-8.47803E-19
 -1      4230 9.16856E-05-2.55081E-05-2.83819E-05-2.06261E-06-3.75657E-19-7.04118E-19
 -1      4231 9.21638E-05-2.57528E-05-2.84609E-05-1.62991E-06-7.75056E-19-8.85027E-19
 -1      4232 9.23791E-05-2.58864E-05-2.85138E-05-1.24770E-06-2.28626E-19-1.17440E-18
 -1      4233 9.27775E-05-2.61378E-05-2.85621E-05-9.83964E-07-1.92647E-19-1.84308E-18
 -1      4234 9.29960E-05-2.63030E-05-2.85960E-05-7.23642E-07-3.06566E-19-2.31527E-18
 -1      4235 9.33116E-05-2.65333E-05-2.86229E-05-5.74467E-07 4.18451E-19-2.10323E-18
 -1      4236 9.35126E-05-2.67029E-05-2.86428E-05-4.00426E-07 5.15856E-19-1.92224E-18
 -1      4237 9.37632E-05-2.69078E-05-2.86561E-05-3.19145E-07 2.63796E-19-1.67380E-18
 -1      4238 9.39373E-05-2.70673E-05-2.86661E-05-2.04931E-07 1.00077E-19-1.62814E-18
 -1      4239 9.41369E-05-2.72469E-05-2.86707E-05-1.64471E-07 9.62194E-20-2.25182E-18
 -1      4240 9.42815E-05-2.73887E-05-2.86738E-05-9.09501E-08 7.33987E-19-2.74461E-18
 -1      4241 9.44307E-05-2.75347E-05-2.86728E-05-7.64831E-08 1.32752E-18-3.07973E-18
 -1      4242 9.45471E-05-2.76558E-05-2.86716E-05-2.96965E-08 1.13034E-18-3.09747E-18
 -1      4243 9.46599E-05-2.77749E-05-2.86676E-05-2.84037E-08 1.13216E-18-3.05750E-18
 -1      4244 9.47513E-05-2.78755E-05-2.86638E-05 1.04119E-09 1.33200E-18-2.67660E-18
 -1      4245 9.48353E-05-2.79709E-05-2.86582E-05-4.17188E-09 2.06633E-18-2.85749E-18
 -1      4246 9.49052E-05-2.80524E-05-2.86531E-05 1.42325E-08 1.90211E-18-1.96706E-18
 -1      4247 9.49680E-05-2.81291E-05-2.86468E-05 6.49018E-09 1.95221E-18-1.48552E-18
 -1      4248 9.50202E-05-2.81937E-05-2.86412E-05 1.78558E-08 1.62232E-18-7.97746E-19
 -1      4249 9.50642E-05-2.82515E-05-2.86351E-05 9.83736E-09 7.96200E-19-6.13929E-19
 -1      4250 9.51021E-05-2.83016E-05-2.86297E-05 1.68314E-08 2.94101E-19-4.21633E-19
 -1      4251 9.51331E-05-2.83457E-05-2.86240E-05 9.60723E-09-2.96073E-19-7.23425E-20
 -1      4252 9.51601E-05-2.83838E-05-2.86189E-05 1.39187E-08 1.41858E-19-5.80550E-19
 -1      4253 9.51813E-05-2.84168E-05-2.86139E-05 7.91151E-09-3.11335E-20-9.16167E-19
 -1      4254 9.51998E-05-2.84453E-05-2.86094E-05 1.05571E-08-1.77846E-19-4.68496E-19
 -1      4255 9.52139E-05-2.84696E-05-2.86051E-05 5.83345E-09-5.32640E-19-8.40442E-19
 -1      4256 9.52261E-05-2.84904E-05-2.86012E-05 7.46824E-09-6.31179E-19-1.61456E-18
 -1      4257 9.52354E-05-2.85086E-05-2.85974E-05 3.85057E-09-6.97992E-21-1.50688E-18
 -1      4258 9.52429E-05-2.85234E-05-2.85942E-05 4.83679E-09-1.88986E-19-8.83391E-19
 -1      4259 9.52480E-05-2.85354E-05-2.85913E-05 2.33269E-09-9.65014E-19-9.57468E-19
 -1      4260 9.52523E-05-2.85456E-05-2.85886E-05 2.89455E-09-1.62600E-18-1.44654E-18
 -1      4261 9.52549E-05-2.85538E-05-2.85862E-05 1.17927E-09-1.83082E-18-1.39691E-18
 -1      4262 9.52569E-05-2.85607E-05-2.85841E-05 1.49937E-09-5.40475E-19-1.31915E-18
 -1      4263 9.52578E-05-2.85660E-05-2.85822E-05 3.79964E-10-1.00900E-19-1.74768E-18
 -1      4264 9.52584E-05-2.85704E-05-2.85806E-05 5.46283E-10 2.44184E-20-1.13912E-18
 -1      4265 9.52582E-05-2.85736E-05-2.85791E-05-1.35499E-10 1.40447E-18-1.20227E-18
 -1      4266 9.52578E-05-2.85762E-05-2.85778E-05-6.58927E-11 2.48850E-18-4.58934E-19
 -1      4267 9.52570E-05-2.85780E-05-2.85767E-05-4.37570E-10 1.84060E-18-9.90775E-19
 -1      4268 9.52560E-05-2.85794E-05-2.85757E-05-4.25630E-10 2.01910E-18-7.52715E-19
 -1      4269 9.52548E-05-2.85802E-05-2.85748E-05-5.88765E-10 2.23411E-18-1.61590E-18
 -1      4270 9.52536E-05-2.85807E-05-2.85741E-05-5.99794E-10 2.61568E-18-1.04951E-18
 -1      4271 9.52513E-05-2.85809E-05-2.85730E-05 4.32673E-10 2.09942E-18 2.44939E-20
 -1      4272 9.52481E-05-2.85800E-05-2.85720E-05-5.42808E-09 3.22098E-18-3.04894E-18
 -1      4273 9.52494E-05-2.85804E-05-2.85724E-05-4.09129E-09 3.25792E-18-2.89809E-18
 -1      4274 8.78760E-05-2.47464E-05-2.70528E-05-9.13444E-06 1.86144E-19 1.43506E-18
 -1      4275 9.00513E-05-2.68263E-05-2.71437E-05-1.01474E-05-4.82685E-20 1.26845E-18
 -1      4276 9.52501E-05-2.85808E-05-2.85726E-05-2.52839E-09 2.85435E-18-9.66914E-19
 -1      4277 8.64225E-05-2.35717E-05-2.69404E-05-8.72366E-06-2.91965E-19 1.57172E-18
 -1      4278 8.82978E-05-2.46353E-05-2.72902E-05-7.91205E-06-1.90283E-19 1.34560E-18
 -1      4279 9.52522E-05-2.85809E-05-2.85734E-05-6.59427E-10 3.24736E-18-1.65906E-18
 -1      4280 9.26260E-05-2.89412E-05-2.72638E-05-1.07149E-05-1.84921E-19 8.49845E-19
 -1      4281 8.88078E-05-2.45808E-05-2.75465E-05-6.51822E-06 3.65076E-19 6.74165E-19
 -3
    1PSTEP                         4           1           1          
  100CL  101 1.000000000        4281                     0    1           1
 -4  ERROR       1    1
 -5  STR(%)      1    1    0    0
 -1         1 1.18711E+01
 -1         2 2.69574E+01
 -1         3 6.93108E-05
 -1         4 7.64460E-05
 -1         5 1.10658E+01
 -1         6 1.31925E+01
 -1         7 1.31925E+01
 -1         8 3.72049E+00
 -1         9 1.85663E+00
 -1        10 1.55936E+00
 -1        11 1.56040E+00
 -1        12 1.59047E+00
 -1        13 1.56290E+00
 -1        14 1.53319E+00
 -1        15 1.52948E+00
 -1        16 1.49096E+00
 -1        17 1.17910E+00
 -1        18 2.32754E+00
 -1        19 3.33515E+00
 -1        20 3.94924E+00
 -1        21 4.64064E+00
 -1        22 7.82599E+00
 -1        23 1.31925E+01
 -1        24 4.20948E+00
 -1        25 3.36732E+00
 -1        26 2.41943E+00
 -1        27 2.20602E+00
 -1        28 2.47949E+00
 -1        29 2.72234E+00
 -1        30 2.76019E+00
 -1        31 2.76019E+00
 -1        32 2.75212E+00
 -1        33 2.67992E+00
 -1        34 2.31669E+00
 -1        35 1.76836E+00
 -1        36 1.22524E+00
 -1        37 8.47260E-01
 -1        38 6.31515E-01
 -1        39 4.15089E-01
 -1        40 3.35946E-01
 -1        41 2.68968E-01
 -1        42 2.34629E-01
 -1        43 2.07501E-01
 -1        44 1.66662E-01
 -1        45 1.23470E-01
 -1        46 1.04844E-01
 -1        47 9.20232E-02
 -1        48 7.61942E-02
 -1        49 6.01538E-02
 -1        50 4.55087E-02
 -1        51 3.72067E-02
 -1        52 3.17977E-02
 -1        53 2.62402E-02
 -1        54 2.10243E-02
 -1        55 1.64070E-02
 -1        56 1.24890E-02
 -1        57 9.85851E-03
 -1        58 8.18284E-03
 -1        59 6.62930E-03
 -1        60 5.25480E-03
 -1        61 4.07998E-03
 -1        62 3.17364E-03
 -1        63 2.43975E-03
 -1        64 1.83116E-03
 -1        65 1.33431E-03
 -1        66 1.10816E-03
 -1        67 9.16264E-04
 -1        68 7.39319E-04
 -1        69 5.67320E-04
 -1        70 4.79409E-04
 -1        71 3.18776E-04
 -1        72 1.10658E+01
 -1        73 1.66785E+00
 -1        74 1.96064E+00
 -1        75 2.98396E+00
 -1        76 3.44302E+00
 -1        77 3.88184E+00
 -1        78 5.79759E+00
 -1        79 1.04656E+01
 -1        80 1.21322E+01
 -1        81 1.21322E+01
 -1        82 1.12808E+01
 -1        83 4.59035E+00
 -1        84 3.87219E+00
 -1        85 4.38675E+00
 -1        86 4.38675E+00
 -1        87 3.82620E+00
 -1        88 3.13328E+00
 -1        89 2.29587E+00
 -1        90 1.65871E+00
 -1        91 1.15469E+00
 -1        92 7.82473E-01
 -1        93 5.55733E-01
 -1        94 3.73756E-01
 -1        95 2.62511E-01
 -1        96 1.83018E-01
 -1        97 1.26620E-01
 -1        98 8.67399E-02
 -1        99 6.04047E-02
 -1       100 3.85933E-02
 -1       101 3.10338E-02
 -1       102 2.47054E-02
 -1       103 1.94598E-02
 -1       104 1.51670E-02
 -1       105 1.15442E-02
 -1       106 1.00353E-02
 -1       107 8.51909E-03
 -1       108 7.08133E-03
 -1       109 5.77848E-03
 -1       110 4.70560E-03
 -1       111 3.68755E-03
 -1       112 2.93365E-03
 -1       113 2.29050E-03
 -1       114 1.75186E-03
 -1       115 1.30556E-03
 -1       116 9.75536E-04
 -1       117 7.47129E-04
 -1       118 5.74364E-04
 -1       119 3.87727E-04
 -1       120 2.49398E-04
 -1       121 1.05475E-04
 -1       122 1.05475E-04
 -1       123 8.87397E-05
 -1       124 4.53756E-05
 -1       125 4.67390E-05
 -1       126 7.58876E-05
 -1       127 9.32002E-05
 -1       128 9.81437E-05
 -1       129 9.81437E-05
 -1       130 9.28450E-05
 -1       131 7.46368E-05
 -1       132 4.62626E-05
 -1       133 4.59333E-05
 -1       134 8.83693E-05
 -1       135 1.40241E-04
 -1       136 1.56704E-04
 -1       137 2.72575E+01
 -1       138 2.83898E+01
 -1       139 2.90147E+01
 -1       140 2.69689E+01
 -1       141 1.34671E+01
 -1       142 1.31252E+01
 -1       143 1.34053E+01
 -1       144 1.42504E+01
 -1       145 1.42504E+01
 -1       146 1.72770E+01
 -1       147 4.52974E+01
 -1       148 4.52974E+01
 -1       149 2.56029E+01
 -1       150 2.56029E+01
 -1       151 2.58898E+01
 -1       152 2.78891E+01
 -1       153 3.28728E+01
 -1       154 3.28728E+01
 -1       155 1.32433E+01
 -1       156 1.17271E+01
 -1       157 1.18711E+01
 -1       158 1.24610E+01
 -1       159 1.24610E+01
 -1       160 1.54130E+01
 -1       161 4.23312E+01
 -1       162 4.23312E+01
 -1       163 2.50977E+01
 -1       164 6.17540E+00
 -1       165 2.38110E+00
 -1       166 1.73727E+00
 -1       167 1.56040E+00
 -1       168 1.59047E+00
 -1       169 1.59047E+00
 -1       170 1.59327E+00
 -1       171 1.72478E+00
 -1       172 1.72478E+00
 -1       173 1.58007E+00
 -1       174 1.89967E+00
 -1       175 3.06941E+00
 -1       176 3.73044E+00
 -1       177 4.01717E+00
 -1       178 4.64064E+00
 -1       179 1.10658E+01
 -1       180 4.20948E+00
 -1       181 3.36732E+00
 -1       182 2.41943E+00
 -1       183 2.11248E+00
 -1       184 2.20602E+00
 -1       185 2.47949E+00
 -1       186 2.72234E+00
 -1       187 2.76019E+00
 -1       188 2.75212E+00
 -1       189 2.67992E+00
 -1       190 2.31669E+00
 -1       191 1.76836E+00
 -1       192 1.33557E+00
 -1       193 9.83380E-01
 -1       194 6.78888E-01
 -1       195 4.15089E-01
 -1       196 3.35946E-01
 -1       197 2.68968E-01
 -1       198 2.34629E-01
 -1       199 2.07501E-01
 -1       200 1.66662E-01
 -1       201 1.30739E-01
 -1       202 1.05431E-01
 -1       203 9.20232E-02
 -1       204 7.61942E-02
 -1       205 6.01538E-02
 -1       206 4.70135E-02
 -1       207 3.72067E-02
 -1       208 3.17977E-02
 -1       209 2.62402E-02
 -1       210 2.10243E-02
 -1       211 1.64070E-02
 -1       212 1.24910E-02
 -1       213 9.85851E-03
 -1       214 8.18284E-03
 -1       215 6.62930E-03
 -1       216 5.25480E-03
 -1       217 4.23776E-03
 -1       218 3.35208E-03
 -1       219 2.71336E-03
 -1       220 2.14857E-03
 -1       221 1.65851E-03
 -1       222 1.24311E-03
 -1       223 9.16264E-04
 -1       224 7.39319E-04
 -1       225 5.67320E-04
 -1       226 4.79409E-04
 -1       227 3.18776E-04
 -1       228 2.03476E+00
 -1       229 1.99106E+00
 -1       230 2.38088E+00
 -1       231 2.98396E+00
 -1       232 3.44302E+00
 -1       233 3.88184E+00
 -1       234 6.24933E+00
 -1       235 1.04656E+01
 -1       236 1.21322E+01
 -1       237 1.12808E+01
 -1       238 4.59035E+00
 -1       239 3.11823E+00
 -1       240 3.87458E+00
 -1       241 4.38675E+00
 -1       242 3.82620E+00
 -1       243 3.13328E+00
 -1       244 2.35871E+00
 -1       245 1.76601E+00
 -1       246 1.26723E+00
 -1       247 8.82519E-01
 -1       248 6.23557E-01
 -1       249 4.06003E-01
 -1       250 2.72751E-01
 -1       251 1.83906E-01
 -1       252 1.29622E-01
 -1       253 9.06773E-02
 -1       254 6.47340E-02
 -1       255 4.19181E-02
 -1       256 3.10338E-02
 -1       257 2.47054E-02
 -1       258 1.94598E-02
 -1       259 1.51670E-02
 -1       260 1.15442E-02
 -1       261 1.00353E-02
 -1       262 8.51909E-03
 -1       263 7.08133E-03
 -1       264 5.77848E-03
 -1       265 4.70560E-03
 -1       266 3.68755E-03
 -1       267 2.93365E-03
 -1       268 2.30152E-03
 -1       269 1.79061E-03
 -1       270 1.36045E-03
 -1       271 1.02853E-03
 -1       272 7.47129E-04
 -1       273 5.74364E-04
 -1       274 3.87727E-04
 -1       275 2.49398E-04
 -1       276 1.43169E-04
 -1       277 1.43169E-04
 -1       278 1.36741E-04
 -1       279 7.84438E-05
 -1       280 1.34201E-04
 -1       281 1.70413E-04
 -1       282 1.84974E-04
 -1       283 1.84974E-04
 -1       284 1.84801E-04
 -1       285 1.68900E-04
 -1       286 1.33992E-04
 -1       287 7.87544E-05
 -1       288 1.36371E-04
 -1       289 1.36371E-04
 -1       290 1.81382E-04
 -1       291 3.07364E+01
 -1       292 3.17135E+01
 -1       293 3.17135E+01
 -1       294 2.90147E+01
 -1       295 1.34671E+01
 -1       296 1.30424E+01
 -1       297 1.31252E+01
 -1       298 1.34053E+01
 -1       299 1.42504E+01
 -1       300 1.26259E+01
 -1       301 1.93602E+01
 -1       302 4.52974E+01
 -1       303 3.81991E+01
 -1       304 3.26973E+01
 -1       305 3.26973E+01
 -1       306 2.82602E+01
 -1       307 3.28575E+01
 -1       308 3.28728E+01
 -1       309 1.32433E+01
 -1       310 1.09522E+01
 -1       311 1.17271E+01
 -1       312 1.18711E+01
 -1       313 1.15867E+01
 -1       314 1.24610E+01
 -1       315 1.10978E+01
 -1       316 1.54130E+01
 -1       317 4.23312E+01
 -1       318 3.64392E+01
 -1       319 3.07364E+01
 -1       320 1.10646E+00
 -1       321 2.47463E+00
 -1       322 1.19503E+00
 -1       323 1.43199E+00
 -1       324 1.75892E+00
 -1       325 1.84415E+00
 -1       326 2.07466E+00
 -1       327 2.07466E+00
 -1       328 1.95512E+00
 -1       329 3.16937E+00
 -1       330 3.94404E+00
 -1       331 5.13841E+00
 -1       332 3.78193E+00
 -1       333 2.68341E+00
 -1       334 3.42797E+00
 -1       335 2.05301E+00
 -1       336 1.87877E+00
 -1       337 1.85733E+00
 -1       338 1.95298E+00
 -1       339 2.05352E+00
 -1       340 2.06430E+00
 -1       341 1.94033E+00
 -1       342 1.98545E+00
 -1       343 1.89454E+00
 -1       344 1.65077E+00
 -1       345 1.35091E+00
 -1       346 1.06806E+00
 -1       347 7.59322E-01
 -1       348 5.24019E-01
 -1       349 3.16099E-01
 -1       350 1.49823E-01
 -1       351 1.23450E-01
 -1       352 1.47288E-01
 -1       353 1.44212E-01
 -1       354 1.26042E-01
 -1       355 1.10535E-01
 -1       356 9.41834E-02
 -1       357 7.82894E-02
 -1       358 6.13314E-02
 -1       359 4.70135E-02
 -1       360 3.59654E-02
 -1       361 2.64963E-02
 -1       362 1.91252E-02
 -1       363 1.65388E-02
 -1       364 1.38536E-02
 -1       365 1.12944E-02
 -1       366 8.98791E-03
 -1       367 6.99195E-03
 -1       368 5.88214E-03
 -1       369 4.97925E-03
 -1       370 4.10638E-03
 -1       371 3.34455E-03
 -1       372 2.72875E-03
 -1       373 2.17371E-03
 -1       374 1.73918E-03
 -1       375 1.36650E-03
 -1       376 1.04175E-03
 -1       377 7.66968E-04
 -1       378 5.42352E-04
 -1       379 4.10318E-04
 -1       380 2.78499E-04
 -1       381 3.86465E+00
 -1       382 4.56951E+00
 -1       383 5.50366E+00
 -1       384 5.40484E+00
 -1       385 4.09107E+00
 -1       386 8.70806E+00
 -1       387 8.06117E+00
 -1       388 5.83996E+00
 -1       389 4.72257E+00
 -1       390 5.35418E+00
 -1       391 4.60872E+00
 -1       392 3.65961E+00
 -1       393 3.30776E+00
 -1       394 2.93403E+00
 -1       395 2.28974E+00
 -1       396 1.71771E+00
 -1       397 1.24706E+00
 -1       398 8.80229E-01
 -1       399 6.23557E-01
 -1       400 4.06003E-01
 -1       401 2.72751E-01
 -1       402 1.83906E-01
 -1       403 1.29622E-01
 -1       404 9.06773E-02
 -1       405 6.47340E-02
 -1       406 4.19181E-02
 -1       407 2.79495E-02
 -1       408 1.86610E-02
 -1       409 1.52853E-02
 -1       410 1.25602E-02
 -1       411 1.00553E-02
 -1       412 7.95741E-03
 -1       413 6.21415E-03
 -1       414 5.10012E-03
 -1       415 4.36190E-03
 -1       416 3.71602E-03
 -1       417 3.07057E-03
 -1       418 2.54137E-03
 -1       419 2.05824E-03
 -1       420 1.63197E-03
 -1       421 1.26411E-03
 -1       422 9.80860E-04
 -1       423 6.78585E-04
 -1       424 5.27475E-04
 -1       425 3.82374E-04
 -1       426 2.32446E-04
 -1       427 1.49387E-04
 -1       428 2.89935E-04
 -1       429 2.89935E-04
 -1       430 1.79454E-04
 -1       431 2.33459E-04
 -1       432 2.58416E-04
 -1       433 2.58416E-04
 -1       434 2.57183E-04
 -1       435 2.57183E-04
 -1       436 2.32777E-04
 -1       437 1.79578E-04
 -1       438 1.46690E-04
 -1       439 2.29353E-04
 -1       440 3.17135E+01
 -1       441 3.07364E+01
 -1       442 2.61409E+01
 -1       443 1.97957E+01
 -1       444 1.14999E+01
 -1       445 1.11710E+00
 -1       446 9.70183E+00
 -1       447 1.08765E+01
 -1       448 1.12368E+01
 -1       449 8.12957E+00
 -1       450 9.38613E+00
 -1       451 1.50909E+01
 -1       452 2.73198E+01
 -1       453 2.96039E+01
 -1       454 4.56314E+01
 -1       455 4.56314E+01
 -1       456 2.60288E+01
 -1       457 2.17309E+01
 -1       458 1.26516E+01
 -1       459 7.52489E+00
 -1       460 8.63611E+00
 -1       461 1.06051E+01
 -1       462 1.11757E+01
 -1       463 1.04983E+01
 -1       464 7.76064E+00
 -1       465 7.75568E+00
 -1       466 1.47111E+01
 -1       467 2.52135E+01
 -1       468 2.75981E+01
 -1       469 6.18102E+00
 -1       470 8.28580E+00
 -1       471 5.71377E+00
 -1       472 1.85652E+00
 -1       473 1.30105E+00
 -1       474 2.48352E+00
 -1       475 2.74839E+00
 -1       476 2.99767E+00
 -1       477 3.96948E+00
 -1       478 4.38022E+00
 -1       479 5.71377E+00
 -1       480 9.39522E+00
 -1       481 1.22154E+00
 -1       482 4.40025E+00
 -1       483 1.44294E+00
 -1       484 1.57026E+00
 -1       485 1.65189E+00
 -1       486 1.65167E+00
 -1       487 1.55636E+00
 -1       488 1.46520E+00
 -1       489 1.49814E+00
 -1       490 1.43494E+00
 -1       491 1.28951E+00
 -1       492 1.12009E+00
 -1       493 8.69497E-01
 -1       494 6.32287E-01
 -1       495 4.42498E-01
 -1       496 2.72544E-01
 -1       497 2.09964E-01
 -1       498 1.60796E-01
 -1       499 1.30574E-01
 -1       500 1.28953E-01
 -1       501 1.16237E-01
 -1       502 1.02674E-01
 -1       503 8.70928E-02
 -1       504 7.13793E-02
 -1       505 5.57537E-02
 -1       506 4.16360E-02
 -1       507 2.96865E-02
 -1       508 2.00705E-02
 -1       509 1.37724E-02
 -1       510 9.60946E-03
 -1       511 8.47765E-03
 -1       512 7.44896E-03
 -1       513 6.33969E-03
 -1       514 5.25147E-03
 -1       515 4.24589E-03
 -1       516 3.70344E-03
 -1       517 3.16644E-03
 -1       518 2.63103E-03
 -1       519 2.16634E-03
 -1       520 1.75463E-03
 -1       521 1.38202E-03
 -1       522 1.06704E-03
 -1       523 8.20794E-04
 -1       524 6.09896E-04
 -1       525 4.07365E-04
 -1       526 7.85908E+00
 -1       527 8.40363E+00
 -1       528 7.20324E+00
 -1       529 5.58485E+00
 -1       530 4.67625E+00
 -1       531 3.62137E+00
 -1       532 2.71680E+00
 -1       533 2.00389E+00
 -1       534 1.44605E+00
 -1       535 1.02684E+00
 -1       536 7.22367E-01
 -1       537 4.91021E-01
 -1       538 3.37673E-01
 -1       539 2.30011E-01
 -1       540 1.54810E-01
 -1       541 1.02601E-01
 -1       542 6.80310E-02
 -1       543 4.08168E-02
 -1       544 2.77108E-02
 -1       545 1.98004E-02
 -1       546 1.52853E-02
 -1       547 1.25602E-02
 -1       548 1.00553E-02
 -1       549 7.95741E-03
 -1       550 6.34676E-03
 -1       551 5.24200E-03
 -1       552 4.34238E-03
 -1       553 3.63273E-03
 -1       554 2.95068E-03
 -1       555 2.44136E-03
 -1       556 1.97405E-03
 -1       557 1.58866E-03
 -1       558 1.24476E-03
 -1       559 9.59418E-04
 -1       560 6.86220E-04
 -1       561 4.79306E-04
 -1       562 3.35729E-04
 -1       563 2.94488E-04
 -1       564 3.37311E-04
 -1       565 3.15186E-04
 -1       566 2.54992E-04
 -1       567 3.37311E-04
 -1       568 3.37098E-04
 -1       569 3.36852E-04
 -1       570 3.35829E-04
 -1       571 2.97106E-04
 -1       572 3.28848E-04
 -1       573 2.83028E-04
 -1       574 2.39908E+01
 -1       575 2.22916E+01
 -1       576 1.92391E+01
 -1       577 1.42457E+01
 -1       578 5.25121E+00
 -1       579 1.39105E+01
 -1       580 1.01772E+01
 -1       581 2.75981E+01
 -1       582 7.71296E+00
 -1       583 1.80820E+01
 -1       584 2.37714E+00
 -1       585 2.96039E+01
 -1       586 1.19746E+01
 -1       587 1.51975E+01
 -1       588 4.56314E+01
 -1       589 4.78120E+00
 -1       590 2.60288E+01
 -1       591 1.09462E+01
 -1       592 6.85251E+00
 -1       593 4.03478E+00
 -1       594 5.53047E+00
 -1       595 7.49687E+00
 -1       596 7.67631E+00
 -1       597 1.11644E+01
 -1       598 9.77572E-01
 -1       599 5.71377E+00
 -1       600 9.01562E-01
 -1       601 2.54640E-04
 -1       602 1.52755E+01
 -1       603 1.46799E+01
 -1       604 6.49487E+00
 -1       605 3.64987E+00
 -1       606 6.27698E+00
 -1       607 7.63319E+00
 -1       608 1.01856E+01
 -1       609 5.13533E-04
 -1       610 7.66948E+00
 -1       611 1.17797E+00
 -1       612 1.35264E+00
 -1       613 1.41784E+00
 -1       614 1.46481E+00
 -1       615 1.33819E+00
 -1       616 1.37544E+00
 -1       617 1.39524E+00
 -1       618 1.26630E+00
 -1       619 1.15561E+00
 -1       620 1.00677E+00
 -1       621 8.17365E-01
 -1       622 6.32287E-01
 -1       623 4.42498E-01
 -1       624 3.38456E-01
 -1       625 2.44329E-01
 -1       626 1.77009E-01
 -1       627 1.57946E-01
 -1       628 1.37204E-01
 -1       629 1.15980E-01
 -1       630 9.77000E-02
 -1       631 7.94297E-02
 -1       632 6.28391E-02
 -1       633 4.79820E-02
 -1       634 3.53789E-02
 -1       635 2.51278E-02
 -1       636 1.70820E-02
 -1       637 1.09710E-02
 -1       638 6.49036E-03
 -1       639 4.75077E-03
 -1       640 4.70912E-03
 -1       641 4.38500E-03
 -1       642 3.90460E-03
 -1       643 3.35738E-03
 -1       644 2.80318E-03
 -1       645 2.45009E-03
 -1       646 2.07173E-03
 -1       647 1.70036E-03
 -1       648 1.35908E-03
 -1       649 1.07377E-03
 -1       650 8.20881E-04
 -1       651 6.09896E-04
 -1       652 4.78547E-04
 -1       653 4.29005E+00
 -1       654 3.18563E+00
 -1       655 2.37756E+00
 -1       656 1.63303E+00
 -1       657 1.12098E+00
 -1       658 7.50972E-01
 -1       659 5.00420E-01
 -1       660 3.57943E-01
 -1       661 2.55205E-01
 -1       662 1.80306E-01
 -1       663 1.25959E-01
 -1       664 8.69787E-02
 -1       665 5.74457E-02
 -1       666 3.77688E-02
 -1       667 2.39835E-02
 -1       668 1.44287E-02
 -1       669 9.63167E-03
 -1       670 8.65565E-03
 -1       671 7.51003E-03
 -1       672 6.34676E-03
 -1       673 5.24200E-03
 -1       674 4.24106E-03
 -1       675 3.58997E-03
 -1       676 2.96476E-03
 -1       677 2.44136E-03
 -1       678 1.99867E-03
 -1       679 1.61108E-03
 -1       680 1.26480E-03
 -1       681 9.66859E-04
 -1       682 7.24183E-04
 -1       683 5.29121E-04
 -1       684 4.26204E-04
 -1       685 4.30495E-04
 -1       686 1.66431E+01
 -1       687 4.16823E-04
 -1       688 4.28368E-04
 -1       689 4.30495E-04
 -1       690 4.28368E-04
 -1       691 4.16660E-04
 -1       692 5.13533E-04
 -1       693 4.63562E+00
 -1       694 1.44142E+01
 -1       695 3.26087E+00
 -1       696 6.93391E+00
 -1       697 8.97921E+00
 -1       698 4.73815E+00
 -1       699 7.64706E+00
 -1       700 3.15280E+00
 -1       701 8.82421E-01
 -1       702 1.08607E+01
 -1       703 5.54054E+00
 -1       704 1.34226E+00
 -1       705 9.07607E+00
 -1       706 1.71424E+01
 -1       707 5.71766E+00
 -1       708 1.24630E+01
 -1       709 1.27059E+01
 -1       710 5.11541E+00
 -1       711 1.10796E+01
 -1       712 5.72698E+00
 -1       713 3.61936E+00
 -1       714 9.73227E-01
 -1       715 7.55211E-01
 -1       716 8.40363E+00
 -1       717 3.37569E-04
 -1       718 1.11465E+01
 -1       719 1.05843E+01
 -1       720 3.60969E-04
 -1       721 4.75316E+00
 -1       722 2.05438E+00
 -1       723 7.18782E+00
 -1       724 1.09403E+01
 -1       725 4.56865E+00
 -1       726 5.77590E-04
 -1       727 1.33411E+00
 -1       728 1.56881E+00
 -1       729 1.68234E+00
 -1       730 1.62668E+00
 -1       731 1.72399E+00
 -1       732 1.44732E+00
 -1       733 1.29161E+00
 -1       734 1.22491E+00
 -1       735 1.00677E+00
 -1       736 8.17365E-01
 -1       737 6.51257E-01
 -1       738 4.89553E-01
 -1       739 3.39943E-01
 -1       740 2.59539E-01
 -1       741 2.11493E-01
 -1       742 1.70904E-01
 -1       743 1.37921E-01
 -1       744 1.13547E-01
 -1       745 8.99329E-02
 -1       746 6.89398E-02
 -1       747 5.13386E-02
 -1       748 3.78517E-02
 -1       749 2.71997E-02
 -1       750 1.89732E-02
 -1       751 1.27548E-02
 -1       752 8.15737E-03
 -1       753 4.84008E-03
 -1       754 2.76726E-03
 -1       755 2.86572E-03
 -1       756 3.00844E-03
 -1       757 2.90167E-03
 -1       758 2.64705E-03
 -1       759 2.31710E-03
 -1       760 2.02531E-03
 -1       761 1.76490E-03
 -1       762 1.48583E-03
 -1       763 1.21214E-03
 -1       764 9.57777E-04
 -1       765 7.32008E-04
 -1       766 6.76977E+00
 -1       767 5.27557E-04
 -1       768 2.11901E+00
 -1       769 4.19930E+00
 -1       770 1.43056E+00
 -1       771 9.74460E-01
 -1       772 6.60103E-01
 -1       773 4.51533E-01
 -1       774 3.07093E-01
 -1       775 2.07096E-01
 -1       776 1.38859E-01
 -1       777 9.30569E-02
 -1       778 6.16275E-02
 -1       779 4.28869E-02
 -1       780 2.92066E-02
 -1       781 1.92489E-02
 -1       782 1.21324E-02
 -1       783 7.17697E-03
 -1       784 4.83507E-03
 -1       785 4.78062E-03
 -1       786 4.43189E-03
 -1       787 3.93143E-03
 -1       788 3.35782E-03
 -1       789 2.80235E-03
 -1       790 2.43618E-03
 -1       791 2.05557E-03
 -1       792 1.68729E-03
 -1       793 1.34859E-03
 -1       794 1.04273E-03
 -1       795 7.75541E-04
 -1       796 5.58793E-04
 -1       797 4.68242E-04
 -1       798 5.05177E-04
 -1       799 1.00525E+01
 -1       800 2.78034E+00
 -1       801 2.64685E+00
 -1       802 7.16398E+00
 -1       803 3.18968E+00
 -1       804 5.33594E+00
 -1       805 3.95962E+00
 -1       806 1.00663E+00
 -1       807 8.10644E-01
 -1       808 5.31906E-04
 -1       809 1.16904E+00
 -1       810 2.87397E+00
 -1       811 8.28641E+00
 -1       812 3.15280E+00
 -1       813 8.78105E+00
 -1       814 8.73543E+00
 -1       815 5.27557E-04
 -1       816 6.19640E+00
 -1       817 2.30985E+00
 -1       818 7.74153E+00
 -1       819 9.61050E-01
 -1       820 3.71600E+00
 -1       821 5.26403E-04
 -1       822 5.28061E-04
 -1       823 2.85633E+00
 -1       824 8.97921E+00
 -1       825 5.28061E-04
 -1       826 5.59465E+00
 -1       827 1.44508E+00
 -1       828 1.07429E+01
 -1       829 2.83223E+00
 -1       830 1.92637E+00
 -1       831 2.83223E+00
 -1       832 3.71600E+00
 -1       833 2.74823E+00
 -1       834 2.41984E+00
 -1       835 2.21650E+00
 -1       836 1.30120E+00
 -1       837 1.19389E+00
 -1       838 8.96402E-01
 -1       839 6.60357E-01
 -1       840 4.89553E-01
 -1       841 3.81832E-01
 -1       842 2.87945E-01
 -1       843 2.21520E-01
 -1       844 1.74988E-01
 -1       845 1.35836E-01
 -1       846 1.02702E-01
 -1       847 8.12477E-02
 -1       848 6.40112E-02
 -1       849 4.94927E-02
 -1       850 3.67987E-02
 -1       851 2.62848E-02
 -1       852 1.80931E-02
 -1       853 1.21361E-02
 -1       854 7.65673E-03
 -1       855 4.39614E-03
 -1       856 2.43465E-03
 -1       857 1.72410E-03
 -1       858 2.09336E-03
 -1       859 2.18271E-03
 -1       860 2.09388E-03
 -1       861 1.90100E-03
 -1       862 1.66550E-03
 -1       863 1.47617E-03
 -1       864 1.26012E-03
 -1       865 1.04077E-03
 -1       866 8.34924E-04
 -1       867 6.34564E-04
 -1       868 2.46539E+00
 -1       869 1.45044E+00
 -1       870 9.96509E-01
 -1       871 4.77675E+00
 -1       872 6.98559E-01
 -1       873 4.97310E-01
 -1       874 3.53372E-01
 -1       875 2.49800E-01
 -1       876 1.75171E-01
 -1       877 1.20771E-01
 -1       878 8.15951E-02
 -1       879 5.55633E-02
 -1       880 3.74782E-02
 -1       881 2.46446E-02
 -1       882 1.56953E-02
 -1       883 9.28078E-03
 -1       884 5.14567E-03
 -1       885 2.89942E-03
 -1       886 2.89676E-03
 -1       887 3.02325E-03
 -1       888 2.89301E-03
 -1       889 2.62072E-03
 -1       890 2.28543E-03
 -1       891 1.97159E-03
 -1       892 1.71139E-03
 -1       893 1.43806E-03
 -1       894 1.16836E-03
 -1       895 9.15850E-04
 -1       896 6.97485E-04
 -1       897 1.68952E+00
 -1       898 3.42554E+00
 -1       899 3.36122E+00
 -1       900 5.37558E+00
 -1       901 6.33082E+00
 -1       902 2.21913E+00
 -1       903 2.73978E+00
 -1       904 7.00606E+00
 -1       905 2.87829E+00
 -1       906 2.73978E+00
 -1       907 3.19303E+00
 -1       908 1.53922E+00
 -1       909 2.09902E+00
 -1       910 5.08238E-04
 -1       911 5.09177E+00
 -1       912 2.41984E+00
 -1       913 2.74823E+00
 -1       914 7.51059E-04
 -1       915 6.34564E-04
 -1       916 6.16101E-04
 -1       917 1.68952E+00
 -1       918 6.32633E-04
 -1       919 5.11901E+00
 -1       920 3.03220E+00
 -1       921 6.69889E-04
 -1       922 6.19494E-04
 -1       923 1.90883E+00
 -1       924 4.89202E+00
 -1       925 1.87307E+00
 -1       926 1.19389E+00
 -1       927 9.40322E-01
 -1       928 7.33551E-01
 -1       929 5.42678E-01
 -1       930 4.15224E-01
 -1       931 3.11523E-01
 -1       932 2.26666E-01
 -1       933 1.67409E-01
 -1       934 1.30399E-01
 -1       935 1.02702E-01
 -1       936 8.12477E-02
 -1       937 6.23086E-02
 -1       938 4.64275E-02
 -1       939 3.35919E-02
 -1       940 2.35300E-02
 -1       941 1.58513E-02
 -1       942 1.05678E-02
 -1       943 6.68842E-03
 -1       944 3.97016E-03
 -1       945 2.43465E-03
 -1       946 1.39570E-03
 -1       947 1.51451E-03
 -1       948 1.67386E-03
 -1       949 1.66065E-03
 -1       950 1.54252E-03
 -1       951 1.36729E-03
 -1       952 1.19968E-03
 -1       953 1.02887E-03
 -1       954 8.53582E-04
 -1       955 1.01617E+00
 -1       956 6.91265E-01
 -1       957 2.41492E-01
 -1       958 1.79648E-01
 -1       959 1.31079E-01
 -1       960 9.35609E-02
 -1       961 6.63667E-02
 -1       962 4.61325E-02
 -1       963 3.16059E-02
 -1       964 2.14200E-02
 -1       965 1.38916E-02
 -1       966 8.53053E-03
 -1       967 4.97349E-03
 -1       968 2.54477E-03
 -1       969 1.68154E-03
 -1       970 2.05089E-03
 -1       971 2.12545E-03
 -1       972 2.02654E-03
 -1       973 1.83210E-03
 -1       974 1.59235E-03
 -1       975 1.38612E-03
 -1       976 1.17845E-03
 -1       977 9.65053E-04
 -1       978 7.02985E-04
 -1       979 4.69556E-01
 -1       980 3.28218E-01
 -1       981 4.15134E+00
 -1       982 3.45566E+00
 -1       983 1.30756E+00
 -1       984 1.92682E+00
 -1       985 3.61453E+00
 -1       986 4.02161E+00
 -1       987 2.44963E+00
 -1       988 2.21650E+00
 -1       989 3.70617E+00
 -1       990 2.44963E+00
 -1       991 6.83167E-04
 -1       992 7.46721E-04
 -1       993 7.75463E-04
 -1       994 2.71031E+00
 -1       995 7.70861E-04
 -1       996 1.04190E+00
 -1       997 1.67245E+00
 -1       998 1.83500E+00
 -1       999 9.17994E-01
 -1      1000 6.10525E-01
 -1      1001 4.23824E-01
 -1      1002 3.03201E-01
 -1      1003 2.25750E-01
 -1      1004 1.67409E-01
 -1      1005 1.30399E-01
 -1      1006 9.91458E-02
 -1      1007 7.38782E-02
 -1      1008 5.40124E-02
 -1      1009 3.86999E-02
 -1      1010 2.71096E-02
 -1      1011 1.84740E-02
 -1      1012 1.25706E-02
 -1      1013 8.92883E-03
 -1      1014 6.10117E-03
 -1      1015 3.97016E-03
 -1      1016 2.40939E-03
 -1      1017 1.30043E-03
 -1      1018 1.14827E-03
 -1      1019 1.29843E-03
 -1      1020 1.30457E-03
 -1      1021 1.22234E-03
 -1      1022 1.09066E-03
 -1      1023 1.09954E-03
 -1      1024 8.00646E-04
 -1      1025 6.91265E-01
 -1      1026 1.31274E-01
 -1      1027 1.86177E-01
 -1      1028 6.59544E-02
 -1      1029 4.85264E-02
 -1      1030 3.47725E-02
 -1      1031 2.41910E-02
 -1      1032 1.65677E-02
 -1      1033 1.09818E-02
 -1      1034 7.08887E-03
 -1      1035 4.30556E-03
 -1      1036 2.48829E-03
 -1      1037 1.25705E-03
 -1      1038 1.40611E-03
 -1      1039 1.55833E-03
 -1      1040 1.54564E-03
 -1      1041 1.43487E-03
 -1      1042 1.27140E-03
 -1      1043 1.08004E-03
 -1      1044 9.21850E-04
 -1      1045 9.36700E-02
 -1      1046 2.68952E-01
 -1      1047 7.70861E-04
 -1      1048 5.07376E-01
 -1      1049 2.76097E+00
 -1      1050 3.77044E-01
 -1      1051 2.44256E+00
 -1      1052 7.44903E-04
 -1      1053 2.37423E+00
 -1      1054 2.50305E+00
 -1      1055 1.91395E+00
 -1      1056 1.48857E+00
 -1      1057 1.10606E-03
 -1      1058 1.17111E+00
 -1      1059 1.10606E-03
 -1      1060 1.41162E+00
 -1      1061 1.17111E+00
 -1      1062 9.40148E-01
 -1      1063 6.30420E-01
 -1      1064 4.45015E-01
 -1      1065 3.06125E-01
 -1      1066 2.07031E-01
 -1      1067 1.40305E-01
 -1      1068 9.44846E-02
 -1      1069 6.17658E-02
 -1      1070 4.61305E-02
 -1      1071 3.42601E-02
 -1      1072 2.47614E-02
 -1      1073 1.73949E-02
 -1      1074 1.20258E-02
 -1      1075 8.23170E-03
 -1      1076 5.40892E-03
 -1      1077 3.34754E-03
 -1      1078 1.87703E-03
 -1      1079 9.37806E-04
 -1      1080 8.94071E-04
 -1      1081 9.95499E-04
 -1      1082 1.01617E-03
 -1      1083 1.03234E-03
 -1      1084 1.10606E-03
 -1      1085 1.48857E+00
 -1      1086 4.01070E-02
 -1      1087 5.61895E-02
 -1      1088 2.19481E-02
 -1      1089 1.60668E-02
 -1      1090 1.13277E-02
 -1      1091 7.64234E-03
 -1      1092 4.87940E-03
 -1      1093 2.92174E-03
 -1      1094 1.45711E-03
 -1      1095 9.87874E-04
 -1      1096 1.14957E-03
 -1      1097 1.17057E-03
 -1      1098 1.10463E-03
 -1      1099 1.03234E-03
 -1      1100 7.97283E-02
 -1      1101 1.83500E+00
 -1      1102 2.07031E-01
 -1      1103 2.87516E-02
 -1      1104 3.50170E-01
 -1      1105 5.68750E-01
 -1      1106 1.06318E-01
 -1      1107 8.97521E-01
 -1      1108 1.42694E-01
 -1      1109 1.10357E-03
 -1      1110 1.26073E+00
 -1      1111 1.17111E+00
 -1      1112 1.31925E+01
 -1      1113 8.45648E+00
 -1      1114 2.78856E+00
 -1      1115 1.70800E+00
 -1      1116 1.55988E+00
 -1      1117 1.57544E+00
 -1      1118 1.57669E+00
 -1      1119 1.54805E+00
 -1      1120 1.53133E+00
 -1      1121 1.51022E+00
 -1      1122 1.33503E+00
 -1      1123 1.75332E+00
 -1      1124 2.83135E+00
 -1      1125 3.64220E+00
 -1      1126 4.29494E+00
 -1      1127 6.23331E+00
 -1      1128 9.44589E+00
 -1      1129 1.31925E+01
 -1      1130 8.70098E+00
 -1      1131 3.78840E+00
 -1      1132 2.89337E+00
 -1      1133 2.31273E+00
 -1      1134 2.34276E+00
 -1      1135 2.60091E+00
 -1      1136 2.74126E+00
 -1      1137 2.76019E+00
 -1      1138 2.75615E+00
 -1      1139 2.71602E+00
 -1      1140 2.49830E+00
 -1      1141 2.04252E+00
 -1      1142 1.49680E+00
 -1      1143 1.03625E+00
 -1      1144 7.39388E-01
 -1      1145 5.23302E-01
 -1      1146 3.75518E-01
 -1      1147 3.02457E-01
 -1      1148 2.51799E-01
 -1      1149 2.21065E-01
 -1      1150 1.87081E-01
 -1      1151 1.45066E-01
 -1      1152 1.14157E-01
 -1      1153 9.84338E-02
 -1      1154 8.41087E-02
 -1      1155 6.81740E-02
 -1      1156 5.28312E-02
 -1      1157 4.13577E-02
 -1      1158 3.45022E-02
 -1      1159 2.90190E-02
 -1      1160 2.36323E-02
 -1      1161 1.87157E-02
 -1      1162 1.44480E-02
 -1      1163 1.11737E-02
 -1      1164 9.02068E-03
 -1      1165 7.40607E-03
 -1      1166 5.94205E-03
 -1      1167 4.66739E-03
 -1      1168 3.62681E-03
 -1      1169 2.80670E-03
 -1      1170 2.13546E-03
 -1      1171 1.58273E-03
 -1      1172 1.22123E-03
 -1      1173 1.01221E-03
 -1      1174 8.27792E-04
 -1      1175 6.53320E-04
 -1      1176 5.23364E-04
 -1      1177 3.99092E-04
 -1      1178 1.97611E-04
 -1      1179 1.10658E+01
 -1      1180 6.36683E+00
 -1      1181 1.81425E+00
 -1      1182 2.47230E+00
 -1      1183 3.21349E+00
 -1      1184 3.66243E+00
 -1      1185 4.83971E+00
 -1      1186 8.13158E+00
 -1      1187 1.12989E+01
 -1      1188 1.21322E+01
 -1      1189 1.17065E+01
 -1      1190 7.93557E+00
 -1      1191 4.23127E+00
 -1      1192 4.12947E+00
 -1      1193 4.38675E+00
 -1      1194 4.10648E+00
 -1      1195 3.47974E+00
 -1      1196 2.71457E+00
 -1      1197 1.97729E+00
 -1      1198 1.40670E+00
 -1      1199 9.68580E-01
 -1      1200 6.69103E-01
 -1      1201 4.64744E-01
 -1      1202 3.18134E-01
 -1      1203 2.22765E-01
 -1      1204 1.54819E-01
 -1      1205 1.06680E-01
 -1      1206 7.35723E-02
 -1      1207 4.94990E-02
 -1      1208 3.48135E-02
 -1      1209 2.78696E-02
 -1      1210 2.20826E-02
 -1      1211 1.73134E-02
 -1      1212 1.33556E-02
 -1      1213 1.07897E-02
 -1      1214 9.27718E-03
 -1      1215 7.80021E-03
 -1      1216 6.42991E-03
 -1      1217 5.24204E-03
 -1      1218 4.19657E-03
 -1      1219 3.31060E-03
 -1      1220 2.61207E-03
 -1      1221 2.02118E-03
 -1      1222 1.52871E-03
 -1      1223 1.14055E-03
 -1      1224 8.61333E-04
 -1      1225 6.60747E-04
 -1      1226 4.81046E-04
 -1      1227 3.18563E-04
 -1      1228 1.59354E-04
 -1      1229 8.73929E-05
 -1      1230 1.05475E-04
 -1      1231 9.71074E-05
 -1      1232 6.70576E-05
 -1      1233 4.60573E-05
 -1      1234 6.13133E-05
 -1      1235 8.45439E-05
 -1      1236 9.56720E-05
 -1      1237 9.81437E-05
 -1      1238 9.54943E-05
 -1      1239 8.37409E-05
 -1      1240 6.04497E-05
 -1      1241 4.60979E-05
 -1      1242 6.71513E-05
 -1      1243 1.14305E-04
 -1      1244 1.48473E-04
 -1      1245 1.16575E-04
 -1      1246 2.71074E+01
 -1      1247 2.78236E+01
 -1      1248 2.87023E+01
 -1      1249 2.79918E+01
 -1      1250 2.02180E+01
 -1      1251 1.32962E+01
 -1      1252 1.32653E+01
 -1      1253 1.38278E+01
 -1      1254 1.42504E+01
 -1      1255 1.57637E+01
 -1      1256 3.12872E+01
 -1      1257 4.52974E+01
 -1      1258 3.54501E+01
 -1      1259 2.56029E+01
 -1      1260 2.57463E+01
 -1      1261 2.68895E+01
 -1      1262 3.03810E+01
 -1      1263 3.28728E+01
 -1      1264 2.30581E+01
 -1      1265 1.24852E+01
 -1      1266 1.17991E+01
 -1      1267 1.18711E+01
 -1      1268 1.21661E+01
 -1      1269 1.24610E+01
 -1      1270 1.39370E+01
 -1      1271 2.88721E+01
 -1      1272 4.23312E+01
 -1      1273 3.37145E+01
 -1      1274 2.60275E+01
 -1      1275 1.31925E+01
 -1      1276 4.94794E+00
 -1      1277 9.68394E+00
 -1      1278 2.11886E+00
 -1      1279 3.05079E+00
 -1      1280 4.27825E+00
 -1      1281 1.64832E+00
 -1      1282 1.79695E+00
 -1      1283 2.05919E+00
 -1      1284 1.56040E+00
 -1      1285 1.55988E+00
 -1      1286 1.64884E+00
 -1      1287 1.59047E+00
 -1      1288 1.57544E+00
 -1      1289 1.57544E+00
 -1      1290 1.57669E+00
 -1      1291 1.59047E+00
 -1      1292 1.59047E+00
 -1      1293 1.56323E+00
 -1      1294 1.57809E+00
 -1      1295 1.59187E+00
 -1      1296 1.62713E+00
 -1      1297 1.62899E+00
 -1      1298 1.65902E+00
 -1      1299 1.60787E+00
 -1      1300 1.62713E+00
 -1      1301 1.72478E+00
 -1      1302 1.37958E+00
 -1      1303 1.53551E+00
 -1      1304 1.65242E+00
 -1      1305 2.11361E+00
 -1      1306 1.53939E+00
 -1      1307 1.73987E+00
 -1      1308 3.20228E+00
 -1      1309 2.69848E+00
 -1      1310 2.48454E+00
 -1      1311 3.83984E+00
 -1      1312 3.53279E+00
 -1      1313 3.39993E+00
 -1      1314 4.32891E+00
 -1      1315 3.98321E+00
 -1      1316 3.87380E+00
 -1      1317 6.23331E+00
 -1      1318 4.64064E+00
 -1      1319 4.32891E+00
 -1      1320 1.10658E+01
 -1      1321 9.44589E+00
 -1      1322 7.85322E+00
 -1      1323 1.10658E+01
 -1      1324 8.70098E+00
 -1      1325 4.20948E+00
 -1      1326 3.78840E+00
 -1      1327 3.36732E+00
 -1      1328 3.78840E+00
 -1      1329 2.89337E+00
 -1      1330 2.41943E+00
 -1      1331 2.89337E+00
 -1      1332 2.26595E+00
 -1      1333 2.15925E+00
 -1      1334 2.26595E+00
 -1      1335 2.20602E+00
 -1      1336 2.34276E+00
 -1      1337 2.15925E+00
 -1      1338 2.47949E+00
 -1      1339 2.60091E+00
 -1      1340 2.34276E+00
 -1      1341 2.72234E+00
 -1      1342 2.74126E+00
 -1      1343 2.60091E+00
 -1      1344 2.76019E+00
 -1      1345 2.76019E+00
 -1      1346 2.74126E+00
 -1      1347 2.75615E+00
 -1      1348 2.75212E+00
 -1      1349 2.75615E+00
 -1      1350 2.71602E+00
 -1      1351 2.67992E+00
 -1      1352 2.71602E+00
 -1      1353 2.49830E+00
 -1      1354 2.31669E+00
 -1      1355 2.49830E+00
 -1      1356 2.04252E+00
 -1      1357 1.76836E+00
 -1      1358 2.04252E+00
 -1      1359 1.55196E+00
 -1      1360 1.28041E+00
 -1      1361 1.55196E+00
 -1      1362 1.10431E+00
 -1      1363 9.15320E-01
 -1      1364 1.15947E+00
 -1      1365 7.63074E-01
 -1      1366 6.55202E-01
 -1      1367 8.31134E-01
 -1      1368 5.23302E-01
 -1      1369 4.15089E-01
 -1      1370 5.46989E-01
 -1      1371 3.75518E-01
 -1      1372 3.35946E-01
 -1      1373 3.75518E-01
 -1      1374 3.02457E-01
 -1      1375 2.68968E-01
 -1      1376 3.02457E-01
 -1      1377 2.51799E-01
 -1      1378 2.34629E-01
 -1      1379 2.51799E-01
 -1      1380 2.21065E-01
 -1      1381 2.07501E-01
 -1      1382 2.21065E-01
 -1      1383 1.87081E-01
 -1      1384 1.66662E-01
 -1      1385 1.87081E-01
 -1      1386 1.48700E-01
 -1      1387 1.27104E-01
 -1      1388 1.48700E-01
 -1      1389 1.14451E-01
 -1      1390 1.05138E-01
 -1      1391 1.18085E-01
 -1      1392 9.84338E-02
 -1      1393 9.20232E-02
 -1      1394 9.87274E-02
 -1      1395 8.41087E-02
 -1      1396 7.61942E-02
 -1      1397 8.41087E-02
 -1      1398 6.81740E-02
 -1      1399 6.01538E-02
 -1      1400 6.81740E-02
 -1      1401 5.35836E-02
 -1      1402 4.62611E-02
 -1      1403 5.35836E-02
 -1      1404 4.13577E-02
 -1      1405 3.72067E-02
 -1      1406 4.21101E-02
 -1      1407 3.45022E-02
 -1      1408 3.17977E-02
 -1      1409 3.45022E-02
 -1      1410 2.90190E-02
 -1      1411 2.62402E-02
 -1      1412 2.90190E-02
 -1      1413 2.36323E-02
 -1      1414 2.10243E-02
 -1      1415 2.36323E-02
 -1      1416 1.87157E-02
 -1      1417 1.64070E-02
 -1      1418 1.87157E-02
 -1      1419 1.44490E-02
 -1      1420 1.24900E-02
 -1      1421 1.44490E-02
 -1      1422 1.11737E-02
 -1      1423 9.85851E-03
 -1      1424 1.11747E-02
 -1      1425 9.02068E-03
 -1      1426 8.18284E-03
 -1      1427 9.02068E-03
 -1      1428 7.40607E-03
 -1      1429 6.62930E-03
 -1      1430 7.40607E-03
 -1      1431 5.94205E-03
 -1      1432 5.25480E-03
 -1      1433 5.94205E-03
 -1      1434 4.74628E-03
 -1      1435 4.15887E-03
 -1      1436 4.74628E-03
 -1      1437 3.71603E-03
 -1      1438 3.26286E-03
 -1      1439 3.79492E-03
 -1      1440 2.94350E-03
 -1      1441 2.57656E-03
 -1      1442 3.03272E-03
 -1      1443 2.29416E-03
 -1      1444 1.98987E-03
 -1      1445 2.43097E-03
 -1      1446 1.74484E-03
 -1      1447 1.49641E-03
 -1      1448 1.90354E-03
 -1      1449 1.28871E-03
 -1      1450 1.17564E-03
 -1      1451 1.45081E-03
 -1      1452 1.01221E-03
 -1      1453 9.16264E-04
 -1      1454 1.07969E-03
 -1      1455 8.27792E-04
 -1      1456 7.39319E-04
 -1      1457 8.27792E-04
 -1      1458 6.53320E-04
 -1      1459 5.67320E-04
 -1      1460 6.53320E-04
 -1      1461 5.23364E-04
 -1      1462 4.79409E-04
 -1      1463 5.23364E-04
 -1      1464 3.99092E-04
 -1      1465 3.18776E-04
 -1      1466 3.99092E-04
 -1      1467 2.37740E-04
 -1      1468 2.37740E-04
 -1      1469 1.85131E+00
 -1      1470 6.55028E+00
 -1      1471 6.55028E+00
 -1      1472 1.97585E+00
 -1      1473 1.82946E+00
 -1      1474 2.01291E+00
 -1      1475 2.68242E+00
 -1      1476 2.17076E+00
 -1      1477 2.18597E+00
 -1      1478 3.21349E+00
 -1      1479 2.98396E+00
 -1      1480 2.68242E+00
 -1      1481 3.66243E+00
 -1      1482 3.44302E+00
 -1      1483 3.21349E+00
 -1      1484 4.83971E+00
 -1      1485 3.88184E+00
 -1      1486 3.66243E+00
 -1      1487 8.35745E+00
 -1      1488 6.02346E+00
 -1      1489 5.06559E+00
 -1      1490 1.12989E+01
 -1      1491 1.04656E+01
 -1      1492 8.35745E+00
 -1      1493 1.21322E+01
 -1      1494 1.21322E+01
 -1      1495 1.12989E+01
 -1      1496 1.12808E+01
 -1      1497 1.17065E+01
 -1      1498 1.17065E+01
 -1      1499 4.59035E+00
 -1      1500 7.93557E+00
 -1      1501 7.93557E+00
 -1      1502 3.49521E+00
 -1      1503 3.85429E+00
 -1      1504 3.85429E+00
 -1      1505 4.13066E+00
 -1      1506 3.87338E+00
 -1      1507 3.49640E+00
 -1      1508 4.38675E+00
 -1      1509 4.38675E+00
 -1      1510 4.13066E+00
 -1      1511 3.82620E+00
 -1      1512 4.10648E+00
 -1      1513 4.10648E+00
 -1      1514 3.13328E+00
 -1      1515 3.47974E+00
 -1      1516 3.47974E+00
 -1      1517 2.32729E+00
 -1      1518 2.74599E+00
 -1      1519 2.74599E+00
 -1      1520 1.71236E+00
 -1      1521 2.03094E+00
 -1      1522 2.06236E+00
 -1      1523 1.21096E+00
 -1      1524 1.46297E+00
 -1      1525 1.51662E+00
 -1      1526 8.32496E-01
 -1      1527 1.01860E+00
 -1      1528 1.07488E+00
 -1      1529 5.89645E-01
 -1      1530 7.03015E-01
 -1      1531 7.53038E-01
 -1      1532 3.89880E-01
 -1      1533 4.80868E-01
 -1      1534 5.14780E-01
 -1      1535 2.67631E-01
 -1      1536 3.23254E-01
 -1      1537 3.39377E-01
 -1      1538 1.83462E-01
 -1      1539 2.23209E-01
 -1      1540 2.28329E-01
 -1      1541 1.28121E-01
 -1      1542 1.56320E-01
 -1      1543 1.56764E-01
 -1      1544 8.87086E-02
 -1      1545 1.08649E-01
 -1      1546 1.10150E-01
 -1      1547 6.25693E-02
 -1      1548 7.57369E-02
 -1      1549 7.77056E-02
 -1      1550 4.02557E-02
 -1      1551 5.11614E-02
 -1      1552 5.33261E-02
 -1      1553 3.10338E-02
 -1      1554 3.48135E-02
 -1      1555 3.64760E-02
 -1      1556 2.47054E-02
 -1      1557 2.78696E-02
 -1      1558 2.78696E-02
 -1      1559 1.94598E-02
 -1      1560 2.20826E-02
 -1      1561 2.20826E-02
 -1      1562 1.51670E-02
 -1      1563 1.73134E-02
 -1      1564 1.73134E-02
 -1      1565 1.15442E-02
 -1      1566 1.33556E-02
 -1      1567 1.33556E-02
 -1      1568 1.00353E-02
 -1      1569 1.07897E-02
 -1      1570 1.07897E-02
 -1      1571 8.51909E-03
 -1      1572 9.27718E-03
 -1      1573 9.27718E-03
 -1      1574 7.08133E-03
 -1      1575 7.80021E-03
 -1      1576 7.80021E-03
 -1      1577 5.77848E-03
 -1      1578 6.42991E-03
 -1      1579 6.42991E-03
 -1      1580 4.70560E-03
 -1      1581 5.24204E-03
 -1      1582 5.24204E-03
 -1      1583 3.68755E-03
 -1      1584 4.19657E-03
 -1      1585 4.19657E-03
 -1      1586 2.93365E-03
 -1      1587 3.31060E-03
 -1      1588 3.31060E-03
 -1      1589 2.29601E-03
 -1      1590 2.61758E-03
 -1      1591 2.61758E-03
 -1      1592 1.77124E-03
 -1      1593 2.04055E-03
 -1      1594 2.04607E-03
 -1      1595 1.33301E-03
 -1      1596 1.55616E-03
 -1      1597 1.57553E-03
 -1      1598 1.00203E-03
 -1      1599 1.16704E-03
 -1      1600 1.19449E-03
 -1      1601 7.47129E-04
 -1      1602 8.61333E-04
 -1      1603 8.87829E-04
 -1      1604 5.74364E-04
 -1      1605 6.60747E-04
 -1      1606 6.60747E-04
 -1      1607 3.87727E-04
 -1      1608 4.81046E-04
 -1      1609 4.81046E-04
 -1      1610 2.49398E-04
 -1      1611 3.18563E-04
 -1      1612 3.18563E-04
 -1      1613 1.77437E-04
 -1      1614 1.24322E-04
 -1      1615 1.24322E-04
 -1      1616 1.15954E-04
 -1      1617 1.24322E-04
 -1      1618 1.43169E-04
 -1      1619 9.10582E-05
 -1      1620 1.12740E-04
 -1      1621 1.39955E-04
 -1      1622 6.25914E-05
 -1      1623 6.19097E-05
 -1      1624 1.07592E-04
 -1      1625 1.05044E-04
 -1      1626 9.04700E-05
 -1      1627 1.06322E-04
 -1      1628 1.31807E-04
 -1      1629 1.23150E-04
 -1      1630 1.52307E-04
 -1      1631 1.41559E-04
 -1      1632 1.39087E-04
 -1      1633 1.77694E-04
 -1      1634 1.41559E-04
 -1      1635 1.41559E-04
 -1      1636 1.84974E-04
 -1      1637 1.38823E-04
 -1      1638 1.41472E-04
 -1      1639 1.84887E-04
 -1      1640 1.21768E-04
 -1      1641 1.30872E-04
 -1      1642 1.76850E-04
 -1      1643 9.01273E-05
 -1      1644 1.04314E-04
 -1      1645 1.51446E-04
 -1      1646 6.23439E-05
 -1      1647 6.25085E-05
 -1      1648 1.06373E-04
 -1      1649 1.12370E-04
 -1      1650 9.11522E-05
 -1      1651 1.07563E-04
 -1      1652 1.38306E-04
 -1      1653 1.12370E-04
 -1      1654 1.36371E-04
 -1      1655 1.69043E-04
 -1      1656 1.60812E-04
 -1      1657 1.58877E-04
 -1      1658 2.50079E-04
 -1      1659 2.89970E+01
 -1      1660 2.88469E+01
 -1      1661 3.00516E+01
 -1      1662 2.94855E+01
 -1      1663 3.03641E+01
 -1      1664 3.00516E+01
 -1      1665 2.79918E+01
 -1      1666 2.90147E+01
 -1      1667 1.34671E+01
 -1      1668 2.02180E+01
 -1      1669 1.30838E+01
 -1      1670 1.32548E+01
 -1      1671 1.32653E+01
 -1      1672 1.31252E+01
 -1      1673 1.38278E+01
 -1      1674 1.34053E+01
 -1      1675 1.42504E+01
 -1      1676 1.42504E+01
 -1      1677 1.49515E+01
 -1      1678 1.34381E+01
 -1      1679 3.23288E+01
 -1      1680 1.83186E+01
 -1      1681 4.52974E+01
 -1      1682 4.52974E+01
 -1      1683 3.19010E+01
 -1      1684 4.17483E+01
 -1      1685 2.91501E+01
 -1      1686 2.91501E+01
 -1      1687 2.92935E+01
 -1      1688 2.91501E+01
 -1      1689 2.80746E+01
 -1      1690 2.70750E+01
 -1      1691 3.28652E+01
 -1      1692 3.03733E+01
 -1      1693 3.28728E+01
 -1      1694 3.28728E+01
 -1      1695 1.32433E+01
 -1      1696 2.30581E+01
 -1      1697 1.13397E+01
 -1      1698 1.20978E+01
 -1      1699 1.17991E+01
 -1      1700 1.17271E+01
 -1      1701 1.18711E+01
 -1      1702 1.18711E+01
 -1      1703 1.20239E+01
 -1      1704 1.17289E+01
 -1      1705 1.24610E+01
 -1      1706 1.24610E+01
 -1      1707 1.32554E+01
 -1      1708 1.17794E+01
 -1      1709 2.88721E+01
 -1      1710 1.54130E+01
 -1      1711 4.23312E+01
 -1      1712 4.23312E+01
 -1      1713 3.07685E+01
 -1      1714 3.93852E+01
 -1      1715 2.88469E+01
 -1      1716 2.79171E+01
 -1      1717 2.12409E+01
 -1      1718 3.03641E+01
 -1      1719 1.77437E-04
 -1      1720 1.96284E-04
 -1      1721 3.12249E+01
 -1      1722 3.17135E+01
 -1      1723 3.07364E+01
 -1      1724 1.32548E+01
 -1      1725 1.30838E+01
 -1      1726 1.32653E+01
 -1      1727 1.38278E+01
 -1      1728 1.34381E+01
 -1      1729 1.59931E+01
 -1      1730 3.23288E+01
 -1      1731 4.17483E+01
 -1      1732 3.54482E+01
 -1      1733 3.26973E+01
 -1      1734 3.04787E+01
 -1      1735 3.05588E+01
 -1      1736 3.28652E+01
 -1      1737 2.30581E+01
 -1      1738 1.20978E+01
 -1      1739 1.13397E+01
 -1      1740 1.17991E+01
 -1      1741 1.17289E+01
 -1      1742 1.20239E+01
 -1      1743 1.17794E+01
 -1      1744 1.32554E+01
 -1      1745 2.88721E+01
 -1      1746 3.93852E+01
 -1      1747 3.35878E+01
 -1      1748 9.68394E+00
 -1      1749 1.42187E+00
 -1      1750 1.74378E+00
 -1      1751 2.42786E+00
 -1      1752 4.32501E+00
 -1      1753 1.79054E+00
 -1      1754 1.39275E+00
 -1      1755 1.37771E+00
 -1      1756 1.51123E+00
 -1      1757 1.51123E+00
 -1      1758 1.31351E+00
 -1      1759 1.67609E+00
 -1      1760 1.67470E+00
 -1      1761 1.59546E+00
 -1      1762 1.78446E+00
 -1      1763 1.71871E+00
 -1      1764 1.80153E+00
 -1      1765 1.89972E+00
 -1      1766 1.89972E+00
 -1      1767 1.95940E+00
 -1      1768 1.82736E+00
 -1      1769 1.89972E+00
 -1      1770 2.07466E+00
 -1      1771 1.92740E+00
 -1      1772 1.76760E+00
 -1      1773 2.01489E+00
 -1      1774 3.11939E+00
 -1      1775 2.53452E+00
 -1      1776 2.56224E+00
 -1      1777 3.83724E+00
 -1      1778 3.50673E+00
 -1      1779 3.55670E+00
 -1      1780 4.57779E+00
 -1      1781 4.43442E+00
 -1      1782 4.54122E+00
 -1      1783 4.21128E+00
 -1      1784 3.89955E+00
 -1      1785 4.46017E+00
 -1      1786 6.87460E+00
 -1      1787 3.66202E+00
 -1      1788 3.23267E+00
 -1      1789 2.35909E+00
 -1      1790 5.19244E+00
 -1      1791 2.70952E+00
 -1      1792 2.73137E+00
 -1      1793 3.05569E+00
 -1      1794 3.34205E+00
 -1      1795 2.71016E+00
 -1      1796 2.23622E+00
 -1      1797 2.14910E+00
 -1      1798 1.99562E+00
 -1      1799 1.96589E+00
 -1      1800 1.98491E+00
 -1      1801 2.03168E+00
 -1      1802 1.86805E+00
 -1      1803 2.07950E+00
 -1      1804 2.21624E+00
 -1      1805 1.90516E+00
 -1      1806 2.26651E+00
 -1      1807 2.38793E+00
 -1      1808 2.00325E+00
 -1      1809 2.39332E+00
 -1      1810 2.41224E+00
 -1      1811 2.05891E+00
 -1      1812 2.35026E+00
 -1      1813 2.34622E+00
 -1      1814 2.00232E+00
 -1      1815 2.36878E+00
 -1      1816 2.33268E+00
 -1      1817 1.96289E+00
 -1      1818 2.28723E+00
 -1      1819 2.10562E+00
 -1      1820 1.94000E+00
 -1      1821 1.98373E+00
 -1      1822 1.70956E+00
 -1      1823 1.77266E+00
 -1      1824 1.55963E+00
 -1      1825 1.34324E+00
 -1      1826 1.50084E+00
 -1      1827 1.20181E+00
 -1      1828 1.02572E+00
 -1      1829 1.20948E+00
 -1      1830 8.71351E-01
 -1      1831 7.19105E-01
 -1      1832 9.13691E-01
 -1      1833 6.01454E-01
 -1      1834 4.69554E-01
 -1      1835 6.41670E-01
 -1      1836 3.65594E-01
 -1      1837 3.26023E-01
 -1      1838 4.20059E-01
 -1      1839 2.42884E-01
 -1      1840 2.09395E-01
 -1      1841 2.32961E-01
 -1      1842 1.96209E-01
 -1      1843 1.79040E-01
 -1      1844 1.36636E-01
 -1      1845 1.90959E-01
 -1      1846 1.77395E-01
 -1      1847 1.35369E-01
 -1      1848 1.75857E-01
 -1      1849 1.55437E-01
 -1      1850 1.45750E-01
 -1      1851 1.46352E-01
 -1      1852 1.28390E-01
 -1      1853 1.35127E-01
 -1      1854 1.20637E-01
 -1      1855 1.07983E-01
 -1      1856 1.18288E-01
 -1      1857 9.98074E-02
 -1      1858 9.31033E-02
 -1      1859 1.02359E-01
 -1      1860 8.51563E-02
 -1      1861 7.72418E-02
 -1      1862 8.62364E-02
 -1      1863 6.87628E-02
 -1      1864 6.07426E-02
 -1      1865 6.98104E-02
 -1      1866 5.35836E-02
 -1      1867 4.70135E-02
 -1      1868 5.41725E-02
 -1      1869 4.14894E-02
 -1      1870 3.65860E-02
 -1      1871 4.14894E-02
 -1      1872 3.18515E-02
 -1      1873 2.91470E-02
 -1      1874 3.12308E-02
 -1      1875 2.54614E-02
 -1      1876 2.26827E-02
 -1      1877 2.28107E-02
 -1      1878 2.13895E-02
 -1      1879 1.87815E-02
 -1      1880 1.78320E-02
 -1      1881 1.74390E-02
 -1      1882 1.51303E-02
 -1      1883 1.51962E-02
 -1      1884 1.38507E-02
 -1      1885 1.18927E-02
 -1      1886 1.25740E-02
 -1      1887 1.07394E-02
 -1      1888 9.42321E-03
 -1      1889 1.01412E-02
 -1      1890 8.42523E-03
 -1      1891 7.58740E-03
 -1      1892 7.98993E-03
 -1      1893 7.03249E-03
 -1      1894 6.25572E-03
 -1      1895 6.43704E-03
 -1      1896 5.80428E-03
 -1      1897 5.11703E-03
 -1      1898 5.43070E-03
 -1      1899 4.68059E-03
 -1      1900 4.17207E-03
 -1      1901 4.54282E-03
 -1      1902 3.79116E-03
 -1      1903 3.34831E-03
 -1      1904 3.72546E-03
 -1      1905 3.04041E-03
 -1      1906 2.72105E-03
 -1      1907 3.03665E-03
 -1      1908 2.44354E-03
 -1      1909 2.16114E-03
 -1      1910 2.45123E-03
 -1      1911 1.94387E-03
 -1      1912 1.69884E-03
 -1      1913 1.95645E-03
 -1      1914 1.51251E-03
 -1      1915 1.30481E-03
 -1      1916 1.55284E-03
 -1      1917 1.14243E-03
 -1      1918 9.79005E-04
 -1      1919 1.20412E-03
 -1      1920 8.41616E-04
 -1      1921 7.53144E-04
 -1      1922 9.04357E-04
 -1      1923 6.40836E-04
 -1      1924 5.54836E-04
 -1      1925 6.54660E-04
 -1      1926 4.88819E-04
 -1      1927 4.44864E-04
 -1      1928 4.76335E-04
 -1      1929 3.78954E-04
 -1      1930 2.98637E-04
 -1      1931 2.29941E-04
 -1      1932 3.44409E-04
 -1      1933 3.12276E+00
 -1      1934 2.92786E+00
 -1      1935 3.64631E+00
 -1      1936 3.77674E+00
 -1      1937 3.47520E+00
 -1      1938 4.21708E+00
 -1      1939 4.47334E+00
 -1      1940 4.24381E+00
 -1      1941 5.03658E+00
 -1      1942 4.64334E+00
 -1      1943 4.42393E+00
 -1      1944 5.45425E+00
 -1      1945 5.17020E+00
 -1      1946 3.98645E+00
 -1      1947 4.74795E+00
 -1      1948 9.58682E+00
 -1      1949 7.47870E+00
 -1      1950 6.39956E+00
 -1      1951 1.00967E+01
 -1      1952 9.26337E+00
 -1      1953 8.38462E+00
 -1      1954 8.56038E+00
 -1      1955 8.98606E+00
 -1      1956 6.95056E+00
 -1      1957 4.65646E+00
 -1      1958 8.00169E+00
 -1      1959 5.28127E+00
 -1      1960 4.23620E+00
 -1      1961 4.97226E+00
 -1      1962 5.03838E+00
 -1      1963 4.24165E+00
 -1      1964 3.86348E+00
 -1      1965 4.98145E+00
 -1      1966 4.02318E+00
 -1      1967 3.76709E+00
 -1      1968 4.13416E+00
 -1      1969 3.56698E+00
 -1      1970 3.84726E+00
 -1      1971 3.48368E+00
 -1      1972 3.03365E+00
 -1      1973 3.38012E+00
 -1      1974 3.12089E+00
 -1      1975 2.32422E+00
 -1      1976 2.71151E+00
 -1      1977 2.61188E+00
 -1      1978 1.74186E+00
 -1      1979 2.03821E+00
 -1      1980 2.00373E+00
 -1      1981 1.25715E+00
 -1      1982 1.50654E+00
 -1      1983 1.48239E+00
 -1      1984 8.81374E-01
 -1      1985 1.07373E+00
 -1      1986 1.06365E+00
 -1      1987 6.23557E-01
 -1      1988 7.53038E-01
 -1      1989 7.51893E-01
 -1      1990 4.06003E-01
 -1      1991 5.14780E-01
 -1      1992 5.14780E-01
 -1      1993 2.72751E-01
 -1      1994 3.39377E-01
 -1      1995 3.39377E-01
 -1      1996 1.83906E-01
 -1      1997 2.28329E-01
 -1      1998 2.28329E-01
 -1      1999 1.29622E-01
 -1      2000 1.56764E-01
 -1      2001 1.56764E-01
 -1      2002 9.06773E-02
 -1      2003 1.10150E-01
 -1      2004 1.10150E-01
 -1      2005 6.47340E-02
 -1      2006 7.77056E-02
 -1      2007 7.77056E-02
 -1      2008 4.19181E-02
 -1      2009 5.33261E-02
 -1      2010 5.33261E-02
 -1      2011 2.94917E-02
 -1      2012 3.49338E-02
 -1      2013 3.49338E-02
 -1      2014 2.16832E-02
 -1      2015 2.48474E-02
 -1      2016 2.33052E-02
 -1      2017 1.73726E-02
 -1      2018 1.99953E-02
 -1      2019 1.69731E-02
 -1      2020 1.38636E-02
 -1      2021 1.60100E-02
 -1      2022 1.39227E-02
 -1      2023 1.07998E-02
 -1      2024 1.26112E-02
 -1      2025 1.13078E-02
 -1      2026 8.99634E-03
 -1      2027 9.75082E-03
 -1      2028 9.00638E-03
 -1      2029 7.36662E-03
 -1      2030 8.12471E-03
 -1      2031 7.08578E-03
 -1      2032 6.09073E-03
 -1      2033 6.80961E-03
 -1      2034 5.65714E-03
 -1      2035 5.07019E-03
 -1      2036 5.72162E-03
 -1      2037 4.73101E-03
 -1      2038 4.21081E-03
 -1      2039 4.74725E-03
 -1      2040 4.03896E-03
 -1      2041 3.37906E-03
 -1      2042 3.88808E-03
 -1      2043 3.39329E-03
 -1      2044 2.73751E-03
 -1      2045 3.11446E-03
 -1      2046 2.80597E-03
 -1      2047 2.17988E-03
 -1      2048 2.49594E-03
 -1      2049 2.29980E-03
 -1      2050 1.71129E-03
 -1      2051 1.96675E-03
 -1      2052 1.84511E-03
 -1      2053 1.31228E-03
 -1      2054 1.52736E-03
 -1      2055 1.44804E-03
 -1      2056 1.00469E-03
 -1      2057 1.17066E-03
 -1      2058 1.12249E-03
 -1      2059 7.12857E-04
 -1      2060 8.53556E-04
 -1      2061 8.29722E-04
 -1      2062 5.50919E-04
 -1      2063 6.37302E-04
 -1      2064 6.03030E-04
 -1      2065 3.85051E-04
 -1      2066 4.78369E-04
 -1      2067 4.54924E-04
 -1      2068 2.40922E-04
 -1      2069 3.10087E-04
 -1      2070 3.07410E-04
 -1      2071 1.87808E-04
 -1      2072 1.13915E-04
 -1      2073 1.43064E-04
 -1      2074 2.13338E-04
 -1      2075 2.16552E-04
 -1      2076 2.19661E-04
 -1      2077 2.16552E-04
 -1      2078 2.16552E-04
 -1      2079 2.61190E-04
 -1      2080 2.89935E-04
 -1      2081 1.56827E-04
 -1      2082 1.28949E-04
 -1      2083 1.64420E-04
 -1      2084 2.01936E-04
 -1      2085 1.83830E-04
 -1      2086 2.06456E-04
 -1      2087 2.21695E-04
 -1      2088 2.14415E-04
 -1      2089 2.45937E-04
 -1      2090 2.21695E-04
 -1      2091 2.21695E-04
 -1      2092 2.58416E-04
 -1      2093 2.20992E-04
 -1      2094 2.21079E-04
 -1      2095 2.57800E-04
 -1      2096 2.13042E-04
 -1      2097 2.20992E-04
 -1      2098 2.57183E-04
 -1      2099 1.83384E-04
 -1      2100 2.00838E-04
 -1      2101 2.44980E-04
 -1      2102 1.29166E-04
 -1      2103 1.56785E-04
 -1      2104 2.06177E-04
 -1      2105 1.41530E-04
 -1      2106 1.12722E-04
 -1      2107 1.63134E-04
 -1      2108 1.82862E-04
 -1      2109 1.82862E-04
 -1      2110 1.88021E-04
 -1      2111 3.17135E+01
 -1      2112 3.17135E+01
 -1      2113 3.07364E+01
 -1      2114 3.07364E+01
 -1      2115 2.89272E+01
 -1      2116 2.84387E+01
 -1      2117 2.44052E+01
 -1      2118 2.57546E+01
 -1      2119 2.57546E+01
 -1      2120 1.24835E+01
 -1      2121 2.02573E+01
 -1      2122 1.33875E+00
 -1      2123 1.42719E+00
 -1      2124 1.11178E+00
 -1      2125 1.15606E+00
 -1      2126 1.14135E+01
 -1      2127 1.13721E+01
 -1      2128 1.21409E+01
 -1      2129 1.20009E+01
 -1      2130 1.02892E+01
 -1      2131 1.27436E+01
 -1      2132 1.23210E+01
 -1      2133 1.03777E+01
 -1      2134 1.11900E+01
 -1      2135 1.43732E+01
 -1      2136 1.10060E+01
 -1      2137 3.01941E+01
 -1      2138 1.72256E+01
 -1      2139 3.27595E+01
 -1      2140 3.63086E+01
 -1      2141 2.12054E+01
 -1      2142 3.11506E+01
 -1      2143 3.39015E+01
 -1      2144 3.91643E+01
 -1      2145 3.91643E+01
 -1      2146 3.69458E+01
 -1      2147 3.91643E+01
 -1      2148 4.56314E+01
 -1      2149 2.94431E+01
 -1      2150 2.71445E+01
 -1      2151 2.73019E+01
 -1      2152 2.72942E+01
 -1      2153 1.29474E+01
 -1      2154 2.27622E+01
 -1      2155 9.23856E+00
 -1      2156 1.03841E+01
 -1      2157 1.01816E+01
 -1      2158 9.79417E+00
 -1      2159 1.12381E+01
 -1      2160 1.11661E+01
 -1      2161 1.13812E+01
 -1      2162 1.15234E+01
 -1      2163 1.14797E+01
 -1      2164 1.10425E+01
 -1      2165 1.08370E+01
 -1      2166 9.42923E+00
 -1      2167 1.01108E+01
 -1      2168 1.15844E+01
 -1      2169 9.42675E+00
 -1      2170 2.85211E+01
 -1      2171 1.50621E+01
 -1      2172 3.08264E+01
 -1      2173 3.37723E+01
 -1      2174 2.91673E+01
 -1      2175 3.20187E+01
 -1      2176 2.91673E+01
 -1      2177 9.61172E+00
 -1      2178 9.82407E+00
 -1      2179 8.84046E+00
 -1      2180 1.56478E+01
 -1      2181 2.92097E+00
 -1      2182 7.94143E+00
 -1      2183 2.26382E+00
 -1      2184 2.89272E+01
 -1      2185 2.84387E+01
 -1      2186 2.05367E-04
 -1      2187 2.64058E+01
 -1      2188 1.99623E+01
 -1      2189 1.12334E+01
 -1      2190 1.03734E+01
 -1      2191 9.39207E+00
 -1      2192 8.02322E+00
 -1      2193 1.08904E+01
 -1      2194 9.62059E+00
 -1      2195 8.08050E+00
 -1      2196 1.00882E+01
 -1      2197 1.71912E+01
 -1      2198 3.58301E+01
 -1      2199 2.84619E+01
 -1      2200 1.22385E+01
 -1      2201 8.75785E+00
 -1      2202 1.10566E+01
 -1      2203 9.68317E+00
 -1      2204 3.76176E+01
 -1      2205 2.38798E+01
 -1      2206 7.75816E+00
 -1      2207 4.78921E+00
 -1      2208 4.57087E+00
 -1      2209 1.80772E+00
 -1      2210 1.64426E+00
 -1      2211 1.36652E+00
 -1      2212 1.24804E+00
 -1      2213 1.57879E+00
 -1      2214 2.27909E+00
 -1      2215 2.16383E+00
 -1      2216 2.41153E+00
 -1      2217 2.41153E+00
 -1      2218 2.61595E+00
 -1      2219 2.47639E+00
 -1      2220 2.53616E+00
 -1      2221 2.87303E+00
 -1      2222 3.56942E+00
 -1      2223 2.96230E+00
 -1      2224 3.48357E+00
 -1      2225 4.16213E+00
 -1      2226 3.77479E+00
 -1      2227 4.17485E+00
 -1      2228 5.42609E+00
 -1      2229 4.82890E+00
 -1      2230 5.04700E+00
 -1      2231 6.98237E+00
 -1      2232 6.62993E+00
 -1      2233 7.55450E+00
 -1      2234 1.63728E+00
 -1      2235 1.55016E+00
 -1      2236 7.05104E+00
 -1      2237 5.29064E+00
 -1      2238 1.66085E+00
 -1      2239 1.65013E+00
 -1      2240 1.33224E+00
 -1      2241 1.71380E+00
 -1      2242 1.76162E+00
 -1      2243 1.50660E+00
 -1      2244 1.80244E+00
 -1      2245 1.85271E+00
 -1      2246 1.61108E+00
 -1      2247 1.85259E+00
 -1      2248 1.85799E+00
 -1      2249 1.65178E+00
 -1      2250 1.81033E+00
 -1      2251 1.74834E+00
 -1      2252 1.60401E+00
 -1      2253 1.70276E+00
 -1      2254 1.72533E+00
 -1      2255 1.51078E+00
 -1      2256 1.74180E+00
 -1      2257 1.69634E+00
 -1      2258 1.48167E+00
 -1      2259 1.66474E+00
 -1      2260 1.54285E+00
 -1      2261 1.46654E+00
 -1      2262 1.47014E+00
 -1      2263 1.32021E+00
 -1      2264 1.36222E+00
 -1      2265 1.23550E+00
 -1      2266 1.09407E+00
 -1      2267 1.20480E+00
 -1      2268 9.68778E-01
 -1      2269 8.14409E-01
 -1      2270 9.94792E-01
 -1      2271 6.95804E-01
 -1      2272 5.78153E-01
 -1      2273 7.50892E-01
 -1      2274 4.83258E-01
 -1      2275 3.79298E-01
 -1      2276 5.37392E-01
 -1      2277 2.94322E-01
 -1      2278 2.11184E-01
 -1      2279 3.57521E-01
 -1      2280 1.79893E-01
 -1      2281 1.66707E-01
 -1      2282 2.41254E-01
 -1      2283 1.42123E-01
 -1      2284 1.54042E-01
 -1      2285 1.85380E-01
 -1      2286 1.38931E-01
 -1      2287 1.37393E-01
 -1      2288 1.45685E-01
 -1      2289 1.36583E-01
 -1      2290 1.27497E-01
 -1      2291 1.29763E-01
 -1      2292 1.21139E-01
 -1      2293 1.13386E-01
 -1      2294 1.22595E-01
 -1      2295 1.06604E-01
 -1      2296 9.84287E-02
 -1      2297 1.09455E-01
 -1      2298 9.06381E-02
 -1      2299 8.26911E-02
 -1      2300 9.48834E-02
 -1      2301 7.48343E-02
 -1      2302 6.63553E-02
 -1      2303 7.92360E-02
 -1      2304 5.85425E-02
 -1      2305 5.13836E-02
 -1      2306 6.35665E-02
 -1      2307 4.43247E-02
 -1      2308 3.88007E-02
 -1      2309 4.86948E-02
 -1      2310 3.28259E-02
 -1      2311 2.80914E-02
 -1      2312 3.56613E-02
 -1      2313 2.32834E-02
 -1      2314 1.95979E-02
 -1      2315 2.48785E-02
 -1      2316 1.64488E-02
 -1      2317 1.51556E-02
 -1      2318 1.69214E-02
 -1      2319 1.30741E-02
 -1      2320 1.17315E-02
 -1      2321 1.16909E-02
 -1      2322 1.11656E-02
 -1      2323 9.88604E-03
 -1      2324 9.04355E-03
 -1      2325 9.37170E-03
 -1      2326 8.21844E-03
 -1      2327 7.96331E-03
 -1      2328 7.66380E-03
 -1      2329 6.66582E-03
 -1      2330 6.89433E-03
 -1      2331 6.12171E-03
 -1      2332 5.56680E-03
 -1      2333 5.79558E-03
 -1      2334 5.06401E-03
 -1      2335 4.61257E-03
 -1      2336 4.74868E-03
 -1      2337 4.34135E-03
 -1      2338 3.90491E-03
 -1      2339 3.97467E-03
 -1      2340 3.63641E-03
 -1      2341 3.25549E-03
 -1      2342 3.43494E-03
 -1      2343 2.98779E-03
 -1      2344 2.67989E-03
 -1      2345 2.89873E-03
 -1      2346 2.44755E-03
 -1      2347 2.17003E-03
 -1      2348 2.39869E-03
 -1      2349 1.96417E-03
 -1      2350 1.74690E-03
 -1      2351 1.96049E-03
 -1      2352 1.56060E-03
 -1      2353 1.37426E-03
 -1      2354 1.56832E-03
 -1      2355 1.21677E-03
 -1      2356 1.05439E-03
 -1      2357 1.22453E-03
 -1      2358 9.31270E-04
 -1      2359 7.93881E-04
 -1      2360 9.43916E-04
 -1      2361 6.88432E-04
 -1      2362 5.76124E-04
 -1      2363 7.15345E-04
 -1      2364 4.74859E-04
 -1      2365 4.08842E-04
 -1      2366 5.08631E-04
 -1      2367 6.63196E+00
 -1      2368 6.68137E+00
 -1      2369 9.46884E+00
 -1      2370 9.79229E+00
 -1      2371 6.87890E+00
 -1      2372 6.56310E+00
 -1      2373 5.90598E+00
 -1      2374 6.27871E+00
 -1      2375 7.80343E+00
 -1      2376 4.62223E+00
 -1      2377 5.09679E+00
 -1      2378 6.39405E+00
 -1      2379 3.99201E+00
 -1      2380 4.16793E+00
 -1      2381 5.13055E+00
 -1      2382 3.27770E+00
 -1      2383 3.46456E+00
 -1      2384 4.14881E+00
 -1      2385 2.50327E+00
 -1      2386 2.82541E+00
 -1      2387 3.16908E+00
 -1      2388 1.86080E+00
 -1      2389 2.14681E+00
 -1      2390 2.36034E+00
 -1      2391 1.34656E+00
 -1      2392 1.58188E+00
 -1      2393 1.72497E+00
 -1      2394 9.53534E-01
 -1      2395 1.13695E+00
 -1      2396 1.23644E+00
 -1      2397 6.72962E-01
 -1      2398 8.01298E-01
 -1      2399 8.74602E-01
 -1      2400 4.48512E-01
 -1      2401 5.57289E-01
 -1      2402 6.06694E-01
 -1      2403 3.05212E-01
 -1      2404 3.71838E-01
 -1      2405 4.14347E-01
 -1      2406 2.06958E-01
 -1      2407 2.51381E-01
 -1      2408 2.83842E-01
 -1      2409 1.42216E-01
 -1      2410 1.69358E-01
 -1      2411 1.92410E-01
 -1      2412 9.66390E-02
 -1      2413 1.16111E-01
 -1      2414 1.28705E-01
 -1      2415 6.63825E-02
 -1      2416 7.93541E-02
 -1      2417 8.53159E-02
 -1      2418 4.13675E-02
 -1      2419 5.27754E-02
 -1      2420 5.44239E-02
 -1      2421 2.78301E-02
 -1      2422 3.48145E-02
 -1      2423 3.42638E-02
 -1      2424 1.92307E-02
 -1      2425 2.38749E-02
 -1      2426 2.37556E-02
 -1      2427 1.52853E-02
 -1      2428 1.69731E-02
 -1      2429 1.75428E-02
 -1      2430 1.25602E-02
 -1      2431 1.39227E-02
 -1      2432 1.39227E-02
 -1      2433 1.00553E-02
 -1      2434 1.13078E-02
 -1      2435 1.13078E-02
 -1      2436 7.95741E-03
 -1      2437 9.00638E-03
 -1      2438 9.00638E-03
 -1      2439 6.28046E-03
 -1      2440 7.15209E-03
 -1      2441 7.15209E-03
 -1      2442 5.17106E-03
 -1      2443 5.72808E-03
 -1      2444 5.79438E-03
 -1      2445 4.35214E-03
 -1      2446 4.72125E-03
 -1      2447 4.79219E-03
 -1      2448 3.67438E-03
 -1      2449 3.99732E-03
 -1      2450 3.98756E-03
 -1      2451 3.01062E-03
 -1      2452 3.33335E-03
 -1      2453 3.29171E-03
 -1      2454 2.49137E-03
 -1      2455 2.75597E-03
 -1      2456 2.69602E-03
 -1      2457 2.01615E-03
 -1      2458 2.25771E-03
 -1      2459 2.20771E-03
 -1      2460 1.61031E-03
 -1      2461 1.82345E-03
 -1      2462 1.78135E-03
 -1      2463 1.25444E-03
 -1      2464 1.43836E-03
 -1      2465 1.41671E-03
 -1      2466 9.70139E-04
 -1      2467 1.11176E-03
 -1      2468 1.10209E-03
 -1      2469 6.82402E-04
 -1      2470 8.33540E-04
 -1      2471 8.22819E-04
 -1      2472 5.03390E-04
 -1      2473 5.78945E-04
 -1      2474 5.82763E-04
 -1      2475 3.59052E-04
 -1      2476 4.31602E-04
 -1      2477 4.07518E-04
 -1      2478 3.36154E-04
 -1      2479 2.63974E-04
 -1      2480 2.36971E-04
 -1      2481 2.97863E-04
 -1      2482 2.85385E-04
 -1      2483 3.15900E-04
 -1      2484 2.32286E-04
 -1      2485 3.02560E-04
 -1      2486 2.17223E-04
 -1      2487 2.02189E-04
 -1      2488 2.85089E-04
 -1      2489 2.74740E-04
 -1      2490 2.97863E-04
 -1      2491 2.97863E-04
 -1      2492 3.37311E-04
 -1      2493 2.97140E-04
 -1      2494 2.97757E-04
 -1      2495 3.37204E-04
 -1      2496 2.97018E-04
 -1      2497 2.97018E-04
 -1      2498 3.36975E-04
 -1      2499 2.84303E-04
 -1      2500 2.96506E-04
 -1      2501 3.36340E-04
 -1      2502 2.38342E-04
 -1      2503 2.64941E-04
 -1      2504 3.16467E-04
 -1      2505 2.37769E-04
 -1      2506 2.54213E-04
 -1      2507 3.12977E-04
 -1      2508 2.56190E-04
 -1      2509 2.14859E-04
 -1      2510 3.05938E-04
 -1      2511 2.50658E+01
 -1      2512 2.73636E+01
 -1      2513 2.70025E+01
 -1      2514 2.42163E+01
 -1      2515 2.34186E+01
 -1      2516 2.22263E+01
 -1      2517 9.87466E+00
 -1      2518 9.40759E+00
 -1      2519 1.18204E+01
 -1      2520 1.10524E+01
 -1      2521 5.71611E+00
 -1      2522 8.37555E+00
 -1      2523 4.82573E+00
 -1      2524 2.53926E-04
 -1      2525 1.68531E+01
 -1      2526 2.28120E+01
 -1      2527 1.08385E+01
 -1      2528 1.49864E+01
 -1      2529 2.91673E+01
 -1      2530 2.75981E+01
 -1      2531 9.44434E+00
 -1      2532 9.15902E+00
 -1      2533 2.38429E+01
 -1      2534 2.27009E+01
 -1      2535 1.14750E+01
 -1      2536 8.62260E+00
 -1      2537 8.88150E+00
 -1      2538 2.11065E+00
 -1      2539 2.06803E+00
 -1      2540 2.11683E+00
 -1      2541 2.43033E+00
 -1      2542 3.76176E+01
 -1      2543 2.96039E+01
 -1      2544 2.38429E+01
 -1      2545 1.96472E+01
 -1      2546 1.35327E+01
 -1      2547 9.91682E+00
 -1      2548 1.50283E+01
 -1      2549 1.84642E+01
 -1      2550 2.06131E+01
 -1      2551 4.56314E+01
 -1      2552 4.56314E+01
 -1      2553 6.26844E+00
 -1      2554 6.27092E+00
 -1      2555 2.60288E+01
 -1      2556 3.58301E+01
 -1      2557 1.17989E+01
 -1      2558 1.63386E+01
 -1      2559 7.18870E+00
 -1      2560 9.75205E+00
 -1      2561 6.33544E+00
 -1      2562 5.77984E+00
 -1      2563 8.06777E+00
 -1      2564 7.08329E+00
 -1      2565 8.99761E+00
 -1      2566 9.33630E+00
 -1      2567 1.11937E+01
 -1      2568 7.71599E+00
 -1      2569 1.81889E+01
 -1      2570 1.29377E+01
 -1      2571 1.72610E+00
 -1      2572 1.51529E+00
 -1      2573 1.09956E+00
 -1      2574 1.04201E+00
 -1      2575 4.57087E+00
 -1      2576 4.19859E+00
 -1      2577 4.74785E+00
 -1      2578 5.71377E+00
 -1      2579 1.10131E+00
 -1      2580 1.04829E+00
 -1      2581 1.00933E+00
 -1      2582 5.42609E+00
 -1      2583 1.04733E+00
 -1      2584 1.52017E+01
 -1      2585 5.71377E+00
 -1      2586 2.66569E-04
 -1      2587 2.41996E-04
 -1      2588 2.68834E-04
 -1      2589 3.32479E-04
 -1      2590 3.31003E-04
 -1      2591 9.42034E+00
 -1      2592 7.89133E+00
 -1      2593 1.81011E+01
 -1      2594 7.39548E+00
 -1      2595 6.62171E+00
 -1      2596 6.73860E+00
 -1      2597 8.41882E+00
 -1      2598 6.11032E+00
 -1      2599 6.82742E+00
 -1      2600 4.98689E+00
 -1      2601 7.77090E+00
 -1      2602 3.12832E-04
 -1      2603 5.12011E+00
 -1      2604 3.12832E-04
 -1      2605 4.78263E+00
 -1      2606 2.57944E+01
 -1      2607 2.07082E+01
 -1      2608 1.96331E+01
 -1      2609 1.87836E+01
 -1      2610 5.44365E+00
 -1      2611 9.95176E+00
 -1      2612 9.29039E+00
 -1      2613 1.20438E+01
 -1      2614 2.34186E+01
 -1      2615 8.89937E+00
 -1      2616 2.06131E+01
 -1      2617 6.53350E+00
 -1      2618 1.30718E+01
 -1      2619 7.60491E+00
 -1      2620 6.22876E+00
 -1      2621 3.25458E-04
 -1      2622 3.58301E+01
 -1      2623 3.76176E+01
 -1      2624 2.21419E+01
 -1      2625 1.63809E+01
 -1      2626 4.74627E+00
 -1      2627 4.62163E+00
 -1      2628 3.19913E+00
 -1      2629 3.06669E+00
 -1      2630 5.07237E+00
 -1      2631 5.32860E+00
 -1      2632 5.12323E+00
 -1      2633 6.67348E+00
 -1      2634 6.00670E+00
 -1      2635 6.95509E+00
 -1      2636 9.79039E+00
 -1      2637 7.94967E+00
 -1      2638 3.84087E-04
 -1      2639 3.98281E-04
 -1      2640 4.60449E-04
 -1      2641 9.41692E+00
 -1      2642 7.67290E+00
 -1      2643 5.71377E+00
 -1      2644 1.31045E+00
 -1      2645 1.37412E+00
 -1      2646 1.46145E+00
 -1      2647 1.50227E+00
 -1      2648 1.26531E+00
 -1      2649 1.53487E+00
 -1      2650 1.53475E+00
 -1      2651 1.38524E+00
 -1      2652 1.55824E+00
 -1      2653 1.51058E+00
 -1      2654 1.44132E+00
 -1      2655 1.44727E+00
 -1      2656 1.40170E+00
 -1      2657 1.40150E+00
 -1      2658 1.42032E+00
 -1      2659 1.43679E+00
 -1      2660 1.35682E+00
 -1      2661 1.44669E+00
 -1      2662 1.41509E+00
 -1      2663 1.38534E+00
 -1      2664 1.35062E+00
 -1      2665 1.27790E+00
 -1      2666 1.33077E+00
 -1      2667 1.22256E+00
 -1      2668 1.13785E+00
 -1      2669 1.21096E+00
 -1      2670 1.06343E+00
 -1      2671 9.38135E-01
 -1      2672 1.08119E+00
 -1      2673 8.43431E-01
 -1      2674 7.24826E-01
 -1      2675 9.12069E-01
 -1      2676 6.32287E-01
 -1      2677 5.37392E-01
 -1      2678 7.24826E-01
 -1      2679 4.42498E-01
 -1      2680 3.57521E-01
 -1      2681 5.37392E-01
 -1      2682 3.05500E-01
 -1      2683 2.74210E-01
 -1      2684 3.90477E-01
 -1      2685 2.27146E-01
 -1      2686 2.02562E-01
 -1      2687 2.91392E-01
 -1      2688 1.68903E-01
 -1      2689 1.53792E-01
 -1      2690 2.10669E-01
 -1      2691 1.44260E-01
 -1      2692 1.43449E-01
 -1      2693 1.67478E-01
 -1      2694 1.33079E-01
 -1      2695 1.26720E-01
 -1      2696 1.47575E-01
 -1      2697 1.16108E-01
 -1      2698 1.09327E-01
 -1      2699 1.26592E-01
 -1      2700 1.00187E-01
 -1      2701 9.23964E-02
 -1      2702 1.06840E-01
 -1      2703 8.32613E-02
 -1      2704 7.54045E-02
 -1      2705 8.85648E-02
 -1      2706 6.71092E-02
 -1      2707 5.92964E-02
 -1      2708 7.11344E-02
 -1      2709 5.18679E-02
 -1      2710 4.48090E-02
 -1      2711 5.54106E-02
 -1      2712 3.85074E-02
 -1      2713 3.25327E-02
 -1      2714 4.16805E-02
 -1      2715 2.74072E-02
 -1      2716 2.25991E-02
 -1      2717 3.02533E-02
 -1      2718 1.85763E-02
 -1      2719 1.54272E-02
 -1      2720 2.11049E-02
 -1      2721 1.23717E-02
 -1      2722 1.02902E-02
 -1      2723 1.40265E-02
 -1      2724 8.04991E-03
 -1      2725 7.48400E-03
 -1      2726 8.73069E-03
 -1      2727 6.61421E-03
 -1      2728 6.09987E-03
 -1      2729 5.62056E-03
 -1      2730 6.07904E-03
 -1      2731 5.52440E-03
 -1      2732 4.72994E-03
 -1      2733 5.36234E-03
 -1      2734 4.81824E-03
 -1      2735 4.54706E-03
 -1      2736 4.57803E-03
 -1      2737 4.07524E-03
 -1      2738 4.14480E-03
 -1      2739 3.80163E-03
 -1      2740 3.53041E-03
 -1      2741 3.63099E-03
 -1      2742 3.25331E-03
 -1      2743 2.98481E-03
 -1      2744 3.08028E-03
 -1      2745 2.80826E-03
 -1      2746 2.54056E-03
 -1      2747 2.62664E-03
 -1      2748 2.35138E-03
 -1      2749 2.11904E-03
 -1      2750 2.26091E-03
 -1      2751 1.93335E-03
 -1      2752 1.72750E-03
 -1      2753 1.88605E-03
 -1      2754 1.55685E-03
 -1      2755 1.37055E-03
 -1      2756 1.52972E-03
 -1      2757 1.22789E-03
 -1      2758 1.07040E-03
 -1      2759 1.21642E-03
 -1      2760 9.43960E-04
 -1      2761 8.20838E-04
 -1      2762 9.47324E-04
 -1      2763 7.15345E-04
 -1      2764 6.09896E-04
 -1      2765 7.15389E-04
 -1      2766 5.44221E-04
 -1      2767 4.42956E-04
 -1      2768 4.96040E-04
 -1      2769 5.44221E-04
 -1      2770 9.97242E+00
 -1      2771 4.56141E+00
 -1      2772 3.95571E+00
 -1      2773 4.48315E+00
 -1      2774 2.95121E+00
 -1      2775 3.40350E+00
 -1      2776 3.73784E+00
 -1      2777 2.19072E+00
 -1      2778 2.54718E+00
 -1      2779 2.78159E+00
 -1      2780 1.53954E+00
 -1      2781 1.81846E+00
 -1      2782 2.00530E+00
 -1      2783 1.07391E+00
 -1      2784 1.28351E+00
 -1      2785 1.37701E+00
 -1      2786 7.36669E-01
 -1      2787 8.88905E-01
 -1      2788 9.35977E-01
 -1      2789 4.95720E-01
 -1      2790 6.11393E-01
 -1      2791 6.25696E-01
 -1      2792 3.47808E-01
 -1      2793 4.24482E-01
 -1      2794 4.29182E-01
 -1      2795 2.42608E-01
 -1      2796 2.96439E-01
 -1      2797 3.06574E-01
 -1      2798 1.67558E-01
 -1      2799 2.05158E-01
 -1      2800 2.17756E-01
 -1      2801 1.14280E-01
 -1      2802 1.40384E-01
 -1      2803 1.53132E-01
 -1      2804 7.75049E-02
 -1      2805 9.47898E-02
 -1      2806 1.06469E-01
 -1      2807 4.91313E-02
 -1      2808 6.27384E-02
 -1      2809 7.22122E-02
 -1      2810 3.27398E-02
 -1      2811 3.92928E-02
 -1      2812 4.76072E-02
 -1      2813 2.18919E-02
 -1      2814 2.58471E-02
 -1      2815 3.08761E-02
 -1      2816 1.48570E-02
 -1      2817 1.71146E-02
 -1      2818 1.92061E-02
 -1      2819 1.10959E-02
 -1      2820 1.24585E-02
 -1      2821 1.20302E-02
 -1      2822 9.35550E-03
 -1      2823 1.06079E-02
 -1      2824 9.14366E-03
 -1      2825 7.73372E-03
 -1      2826 8.78269E-03
 -1      2827 8.08284E-03
 -1      2828 6.34676E-03
 -1      2829 7.15209E-03
 -1      2830 6.92840E-03
 -1      2831 5.24200E-03
 -1      2832 5.79438E-03
 -1      2833 5.79438E-03
 -1      2834 4.29172E-03
 -1      2835 4.74153E-03
 -1      2836 4.74153E-03
 -1      2837 3.61135E-03
 -1      2838 3.96618E-03
 -1      2839 3.91551E-03
 -1      2840 2.95772E-03
 -1      2841 3.29875E-03
 -1      2842 3.27737E-03
 -1      2843 2.44136E-03
 -1      2844 2.69602E-03
 -1      2845 2.70306E-03
 -1      2846 1.98636E-03
 -1      2847 2.22002E-03
 -1      2848 2.22002E-03
 -1      2849 1.59987E-03
 -1      2850 1.79257E-03
 -1      2851 1.80488E-03
 -1      2852 1.25478E-03
 -1      2853 1.42673E-03
 -1      2854 1.43794E-03
 -1      2855 9.63139E-04
 -1      2856 1.10581E-03
 -1      2857 1.11583E-03
 -1      2858 7.05201E-04
 -1      2859 8.41801E-04
 -1      2860 8.45521E-04
 -1      2861 5.04213E-04
 -1      2862 6.07670E-04
 -1      2863 6.26652E-04
 -1      2864 3.80967E-04
 -1      2865 4.52755E-04
 -1      2866 4.77662E-04
 -1      2867 3.70695E-04
 -1      2868 3.83796E-04
 -1      2869 3.83903E-04
 -1      2870 2.13359E+01
 -1      2871 3.11372E+01
 -1      2872 3.77067E-04
 -1      2873 3.55655E-04
 -1      2874 3.82610E-04
 -1      2875 3.82733E-04
 -1      2876 4.29432E-04
 -1      2877 3.83903E-04
 -1      2878 3.83903E-04
 -1      2879 4.23659E-04
 -1      2880 4.30495E-04
 -1      2881 3.82098E-04
 -1      2882 3.82610E-04
 -1      2883 4.28368E-04
 -1      2884 3.56883E-04
 -1      2885 3.76244E-04
 -1      2886 4.22514E-04
 -1      2887 4.21191E-04
 -1      2888 4.05320E-04
 -1      2889 4.65096E-04
 -1      2890 4.21191E-04
 -1      2891 4.33520E+00
 -1      2892 5.74406E+00
 -1      2893 2.10062E+01
 -1      2894 1.68266E+01
 -1      2895 4.02103E+00
 -1      2896 5.77333E+00
 -1      2897 6.89321E+00
 -1      2898 8.94008E+00
 -1      2899 6.82773E+00
 -1      2900 7.28203E+00
 -1      2901 6.63463E+00
 -1      2902 6.22555E+00
 -1      2903 5.13431E+00
 -1      2904 6.61596E+00
 -1      2905 7.42515E+00
 -1      2906 4.34163E+00
 -1      2907 3.59379E+00
 -1      2908 1.05198E+00
 -1      2909 1.16268E+00
 -1      2910 1.03020E+00
 -1      2911 9.39567E-01
 -1      2912 1.50499E+01
 -1      2913 1.10125E+01
 -1      2914 4.75501E+00
 -1      2915 4.26910E+00
 -1      2916 6.01770E+00
 -1      2917 1.59939E+00
 -1      2918 1.32166E+00
 -1      2919 1.00112E+01
 -1      2920 1.21368E+01
 -1      2921 3.13869E+01
 -1      2922 2.33732E+01
 -1      2923 6.60726E+00
 -1      2924 6.71531E+00
 -1      2925 1.38302E+01
 -1      2926 1.92459E+01
 -1      2927 1.83483E+01
 -1      2928 2.01520E+01
 -1      2929 1.35601E+01
 -1      2930 6.39586E+00
 -1      2931 4.94830E+00
 -1      2932 1.24951E+01
 -1      2933 1.66856E+01
 -1      2934 7.00639E+00
 -1      2935 6.61193E+00
 -1      2936 4.49393E+00
 -1      2937 7.94967E+00
 -1      2938 5.90876E+00
 -1      2939 3.63461E+00
 -1      2940 3.05144E+00
 -1      2941 2.99825E+00
 -1      2942 1.20375E+01
 -1      2943 1.24327E+01
 -1      2944 5.78477E+00
 -1      2945 9.26508E+00
 -1      2946 1.13714E+00
 -1      2947 9.37395E-01
 -1      2948 1.15775E+00
 -1      2949 8.28386E-01
 -1      2950 8.66391E-01
 -1      2951 9.88377E-01
 -1      2952 8.64219E-01
 -1      2953 8.00499E+00
 -1      2954 6.39244E+00
 -1      2955 1.59111E+01
 -1      2956 3.94548E+00
 -1      2957 7.80343E+00
 -1      2958 8.40363E+00
 -1      2959 3.26377E-04
 -1      2960 3.81887E-04
 -1      2961 2.96280E-04
 -1      2962 1.45531E+01
 -1      2963 1.68927E+01
 -1      2964 5.13533E-04
 -1      2965 3.89421E+00
 -1      2966 1.67191E+01
 -1      2967 1.32110E+01
 -1      2968 1.11130E+01
 -1      2969 1.26374E+01
 -1      2970 1.44628E+01
 -1      2971 1.29299E+01
 -1      2972 1.72875E+01
 -1      2973 1.16451E+01
 -1      2974 9.29039E+00
 -1      2975 1.11571E+01
 -1      2976 8.90938E+00
 -1      2977 1.07695E+01
 -1      2978 1.31101E+01
 -1      2979 5.72232E+00
 -1      2980 8.31313E+00
 -1      2981 3.27728E-04
 -1      2982 3.07980E-04
 -1      2983 3.49269E-04
 -1      2984 3.88896E-04
 -1      2985 6.23306E+00
 -1      2986 4.74566E+00
 -1      2987 5.23541E+00
 -1      2988 2.21576E+00
 -1      2989 1.95545E+00
 -1      2990 1.69832E+00
 -1      2991 2.83687E+00
 -1      2992 8.18816E-01
 -1      2993 6.73240E+00
 -1      2994 6.36418E+00
 -1      2995 9.28674E+00
 -1      2996 8.60864E+00
 -1      2997 9.06405E+00
 -1      2998 4.60213E+00
 -1      2999 5.75128E+00
 -1      3000 5.45562E-04
 -1      3001 4.97125E-04
 -1      3002 1.34338E+00
 -1      3003 1.37598E+00
 -1      3004 1.49332E+00
 -1      3005 1.51681E+00
 -1      3006 1.45146E+00
 -1      3007 1.57358E+00
 -1      3008 1.51027E+00
 -1      3009 1.62558E+00
 -1      3010 1.48243E+00
 -1      3011 1.50106E+00
 -1      3012 1.65451E+00
 -1      3013 1.54972E+00
 -1      3014 1.55962E+00
 -1      3015 1.67533E+00
 -1      3016 1.42128E+00
 -1      3017 1.35681E+00
 -1      3018 1.58566E+00
 -1      3019 1.27896E+00
 -1      3020 1.22361E+00
 -1      3021 1.36947E+00
 -1      3022 1.19026E+00
 -1      3023 1.11584E+00
 -1      3024 1.25826E+00
 -1      3025 1.00677E+00
 -1      3026 9.12069E-01
 -1      3027 1.11584E+00
 -1      3028 8.17365E-01
 -1      3029 7.24826E-01
 -1      3030 9.12069E-01
 -1      3031 6.41772E-01
 -1      3032 5.46878E-01
 -1      3033 7.34311E-01
 -1      3034 4.66026E-01
 -1      3035 4.14005E-01
 -1      3036 5.70405E-01
 -1      3037 3.39199E-01
 -1      3038 2.92136E-01
 -1      3039 4.14748E-01
 -1      3040 2.51934E-01
 -1      3041 2.18274E-01
 -1      3042 2.99741E-01
 -1      3043 1.94251E-01
 -1      3044 1.84720E-01
 -1      3045 2.35516E-01
 -1      3046 1.64425E-01
 -1      3047 1.54054E-01
 -1      3048 1.91199E-01
 -1      3049 1.37563E-01
 -1      3050 1.26951E-01
 -1      3051 1.54413E-01
 -1      3052 1.14763E-01
 -1      3053 1.05623E-01
 -1      3054 1.25734E-01
 -1      3055 9.38164E-02
 -1      3056 8.46813E-02
 -1      3057 1.01740E-01
 -1      3058 7.41848E-02
 -1      3059 6.58894E-02
 -1      3060 7.94363E-02
 -1      3061 5.70888E-02
 -1      3062 4.96603E-02
 -1      3063 6.01392E-02
 -1      3064 4.29169E-02
 -1      3065 3.66153E-02
 -1      3066 4.45952E-02
 -1      3067 3.12893E-02
 -1      3068 2.61638E-02
 -1      3069 3.25257E-02
 -1      3070 2.20505E-02
 -1      3071 1.80276E-02
 -1      3072 2.30864E-02
 -1      3073 1.49184E-02
 -1      3074 1.18629E-02
 -1      3075 1.58640E-02
 -1      3076 9.56419E-03
 -1      3077 7.32386E-03
 -1      3078 1.04561E-02
 -1      3079 5.66522E-03
 -1      3080 4.79542E-03
 -1      3081 6.49872E-03
 -1      3082 3.75902E-03
 -1      3083 3.73819E-03
 -1      3084 3.80367E-03
 -1      3085 3.78742E-03
 -1      3086 3.62536E-03
 -1      3087 2.81649E-03
 -1      3088 3.69672E-03
 -1      3089 3.45652E-03
 -1      3090 2.93708E-03
 -1      3091 3.40314E-03
 -1      3092 3.12953E-03
 -1      3093 2.95506E-03
 -1      3094 3.00221E-03
 -1      3095 2.72511E-03
 -1      3096 2.77436E-03
 -1      3097 2.56014E-03
 -1      3098 2.38360E-03
 -1      3099 2.48207E-03
 -1      3100 2.23770E-03
 -1      3101 2.04852E-03
 -1      3102 2.17120E-03
 -1      3103 1.91831E-03
 -1      3104 1.73263E-03
 -1      3105 1.89510E-03
 -1      3106 1.59310E-03
 -1      3107 1.42245E-03
 -1      3108 1.62536E-03
 -1      3109 1.28561E-03
 -1      3110 1.14296E-03
 -1      3111 1.34899E-03
 -1      3112 1.01577E-03
 -1      3113 8.89329E-04
 -1      3114 1.08496E-03
 -1      3115 7.76445E-04
 -1      3116 6.70952E-04
 -1      3117 8.44893E-04
 -1      3118 8.02534E+00
 -1      3119 5.52991E+00
 -1      3120 7.87449E+00
 -1      3121 4.72108E-04
 -1      3122 4.77962E-04
 -1      3123 5.52573E-04
 -1      3124 1.87602E+00
 -1      3125 2.24829E+00
 -1      3126 3.69246E+00
 -1      3127 4.24467E+00
 -1      3128 5.48453E+00
 -1      3129 1.27577E+00
 -1      3130 1.53179E+00
 -1      3131 1.77478E+00
 -1      3132 8.62716E-01
 -1      3133 1.04772E+00
 -1      3134 1.20251E+00
 -1      3135 5.80262E-01
 -1      3136 7.05538E-01
 -1      3137 8.17281E-01
 -1      3138 4.04738E-01
 -1      3139 4.75976E-01
 -1      3140 5.55818E-01
 -1      3141 2.81149E-01
 -1      3142 3.32518E-01
 -1      3143 3.79313E-01
 -1      3144 1.93701E-01
 -1      3145 2.31151E-01
 -1      3146 2.57094E-01
 -1      3147 1.32409E-01
 -1      3148 1.59583E-01
 -1      3149 1.72978E-01
 -1      3150 9.00178E-02
 -1      3151 1.09508E-01
 -1      3152 1.15958E-01
 -1      3153 5.95366E-02
 -1      3154 7.43031E-02
 -1      3155 7.73422E-02
 -1      3156 4.03279E-02
 -1      3157 5.01663E-02
 -1      3158 5.22572E-02
 -1      3159 2.65950E-02
 -1      3160 3.34877E-02
 -1      3161 3.60468E-02
 -1      3162 1.68388E-02
 -1      3163 2.16162E-02
 -1      3164 2.42277E-02
 -1      3165 1.08820E-02
 -1      3166 1.32805E-02
 -1      3167 1.56906E-02
 -1      3168 7.91631E-03
 -1      3169 8.40432E-03
 -1      3170 9.65467E-03
 -1      3171 6.17255E-03
 -1      3172 6.74536E-03
 -1      3173 6.00602E-03
 -1      3174 5.56369E-03
 -1      3175 6.14532E-03
 -1      3176 4.80784E-03
 -1      3177 4.83695E-03
 -1      3178 5.38933E-03
 -1      3179 4.60625E-03
 -1      3180 4.08624E-03
 -1      3181 4.58672E-03
 -1      3182 4.18166E-03
 -1      3183 3.47390E-03
 -1      3184 3.79944E-03
 -1      3185 3.64463E-03
 -1      3186 2.88355E-03
 -1      3187 3.19616E-03
 -1      3188 3.08008E-03
 -1      3189 2.43877E-03
 -1      3190 2.70047E-03
 -1      3191 2.61926E-03
 -1      3192 2.02712E-03
 -1      3193 2.24847E-03
 -1      3194 2.24587E-03
 -1      3195 1.64918E-03
 -1      3196 1.84298E-03
 -1      3197 1.87143E-03
 -1      3198 1.30669E-03
 -1      3199 1.47983E-03
 -1      3200 1.51794E-03
 -1      3201 1.00480E-03
 -1      3202 1.15377E-03
 -1      3203 1.19566E-03
 -1      3204 7.49862E-04
 -1      3205 8.71200E-04
 -1      3206 9.09137E-04
 -1      3207 5.43957E-04
 -1      3208 6.41488E-04
 -1      3209 6.67167E-04
 -1      3210 4.47223E-04
 -1      3211 4.98681E-04
 -1      3212 5.13518E-04
 -1      3213 4.02906E-04
 -1      3214 4.66772E-04
 -1      3215 4.67836E-04
 -1      3216 1.12577E+01
 -1      3217 1.33478E+01
 -1      3218 3.78077E+00
 -1      3219 3.02060E+00
 -1      3220 2.89982E+00
 -1      3221 3.64123E+00
 -1      3222 3.94787E+00
 -1      3223 9.01233E+00
 -1      3224 7.41673E+00
 -1      3225 1.05629E+01
 -1      3226 3.22527E+00
 -1      3227 4.45833E+00
 -1      3228 9.74161E+00
 -1      3229 6.50271E+00
 -1      3230 5.22567E+00
 -1      3231 4.84330E+00
 -1      3232 4.83864E+00
 -1      3233 9.44524E-01
 -1      3234 1.09230E+00
 -1      3235 7.82927E-01
 -1      3236 8.46532E-01
 -1      3237 8.91936E-01
 -1      3238 5.22720E-04
 -1      3239 5.22720E-04
 -1      3240 5.54748E-04
 -1      3241 5.05226E-04
 -1      3242 7.79651E+00
 -1      3243 8.27367E+00
 -1      3244 1.17351E+00
 -1      3245 1.26084E+00
 -1      3246 1.25157E+00
 -1      3247 2.62577E+00
 -1      3248 3.02980E+00
 -1      3249 2.49649E+00
 -1      3250 8.68124E+00
 -1      3251 1.03747E+01
 -1      3252 3.94548E+00
 -1      3253 3.15280E+00
 -1      3254 7.39064E+00
 -1      3255 5.96814E+00
 -1      3256 1.37917E+01
 -1      3257 1.40413E+01
 -1      3258 1.07435E+01
 -1      3259 1.15976E+01
 -1      3260 1.15748E+01
 -1      3261 9.79805E+00
 -1      3262 8.75824E+00
 -1      3263 4.77962E-04
 -1      3264 4.77962E-04
 -1      3265 5.16367E-04
 -1      3266 5.27557E-04
 -1      3267 6.56516E+00
 -1      3268 7.63624E+00
 -1      3269 2.54509E+00
 -1      3270 2.78536E+00
 -1      3271 2.74976E+00
 -1      3272 9.16291E+00
 -1      3273 1.02237E+01
 -1      3274 8.26129E+00
 -1      3275 3.60775E+00
 -1      3276 9.16944E+00
 -1      3277 1.15166E+00
 -1      3278 9.67138E-01
 -1      3279 8.85847E-01
 -1      3280 5.70901E-04
 -1      3281 4.71683E+00
 -1      3282 4.23458E+00
 -1      3283 3.83781E+00
 -1      3284 7.24141E+00
 -1      3285 5.15790E-04
 -1      3286 4.78449E-04
 -1      3287 4.78449E-04
 -1      3288 5.38253E+00
 -1      3289 4.79278E-04
 -1      3290 4.72442E-04
 -1      3291 5.27232E-04
 -1      3292 6.31957E-04
 -1      3293 3.95298E+00
 -1      3294 8.62014E+00
 -1      3295 1.19155E+01
 -1      3296 3.98587E+00
 -1      3297 2.81833E+00
 -1      3298 7.94971E+00
 -1      3299 9.08635E-01
 -1      3300 3.57465E+00
 -1      3301 1.21274E+01
 -1      3302 9.78175E+00
 -1      3303 1.00629E+01
 -1      3304 2.89982E+00
 -1      3305 6.24996E+00
 -1      3306 4.09613E+00
 -1      3307 3.53663E+00
 -1      3308 1.08783E+00
 -1      3309 4.72442E-04
 -1      3310 4.44515E-04
 -1      3311 5.28061E-04
 -1      3312 7.87449E+00
 -1      3313 8.97921E+00
 -1      3314 1.61638E+01
 -1      3315 6.94053E+00
 -1      3316 4.62226E+00
 -1      3317 4.60700E+00
 -1      3318 5.89553E+00
 -1      3319 1.74973E+00
 -1      3320 1.39367E+00
 -1      3321 1.20307E+00
 -1      3322 1.39426E+01
 -1      3323 1.27114E+01
 -1      3324 2.58309E+00
 -1      3325 3.79270E+00
 -1      3326 2.99252E+00
 -1      3327 6.54799E-04
 -1      3328 1.74759E+00
 -1      3329 1.80435E+00
 -1      3330 2.25729E+00
 -1      3331 2.22945E+00
 -1      3332 2.37930E+00
 -1      3333 2.67134E+00
 -1      3334 2.71999E+00
 -1      3335 3.27411E+00
 -1      3336 2.23611E+00
 -1      3337 2.09778E+00
 -1      3338 3.23212E+00
 -1      3339 1.93358E+00
 -1      3340 1.85573E+00
 -1      3341 2.58404E+00
 -1      3342 1.75406E+00
 -1      3343 1.72071E+00
 -1      3344 2.31817E+00
 -1      3345 1.26306E+00
 -1      3346 1.15399E+00
 -1      3347 1.75885E+00
 -1      3348 1.10033E+00
 -1      3349 1.00563E+00
 -1      3350 1.24754E+00
 -1      3351 8.56883E-01
 -1      3352 7.73830E-01
 -1      3353 1.04515E+00
 -1      3354 6.55807E-01
 -1      3355 5.74955E-01
 -1      3356 7.78380E-01
 -1      3357 4.89553E-01
 -1      3358 4.14748E-01
 -1      3359 5.74955E-01
 -1      3360 3.60887E-01
 -1      3361 3.20686E-01
 -1      3362 4.35693E-01
 -1      3363 2.73742E-01
 -1      3364 2.49719E-01
 -1      3365 3.34888E-01
 -1      3366 2.16506E-01
 -1      3367 1.96212E-01
 -1      3368 2.54732E-01
 -1      3369 1.72946E-01
 -1      3370 1.56455E-01
 -1      3371 1.98254E-01
 -1      3372 1.36879E-01
 -1      3373 1.24691E-01
 -1      3374 1.55412E-01
 -1      3375 1.08124E-01
 -1      3376 9.63173E-02
 -1      3377 1.19269E-01
 -1      3378 8.55903E-02
 -1      3379 7.50937E-02
 -1      3380 9.19747E-02
 -1      3381 6.64755E-02
 -1      3382 5.76749E-02
 -1      3383 7.26294E-02
 -1      3384 5.04157E-02
 -1      3385 4.36722E-02
 -1      3386 5.67520E-02
 -1      3387 3.73252E-02
 -1      3388 3.19992E-02
 -1      3389 4.31457E-02
 -1      3390 2.67423E-02
 -1      3391 2.26290E-02
 -1      3392 3.15418E-02
 -1      3393 1.85331E-02
 -1      3394 1.54240E-02
 -1      3395 2.21890E-02
 -1      3396 1.24455E-02
 -1      3397 1.01467E-02
 -1      3398 1.51146E-02
 -1      3399 7.90705E-03
 -1      3400 6.24841E-03
 -1      3401 9.89641E-03
 -1      3402 4.61811E-03
 -1      3403 3.58170E-03
 -1      3404 6.02643E-03
 -1      3405 2.60096E-03
 -1      3406 2.65019E-03
 -1      3407 3.41539E-03
 -1      3408 2.29491E-03
 -1      3409 2.36627E-03
 -1      3410 2.07938E-03
 -1      3411 2.55090E-03
 -1      3412 2.49752E-03
 -1      3413 1.90873E-03
 -1      3414 2.54219E-03
 -1      3415 2.41488E-03
 -1      3416 2.13804E-03
 -1      3417 2.37046E-03
 -1      3418 2.20549E-03
 -1      3419 2.13829E-03
 -1      3420 2.10905E-03
 -1      3421 1.96315E-03
 -1      3422 1.99744E-03
 -1      3423 1.84540E-03
 -1      3424 1.71520E-03
 -1      3425 1.78325E-03
 -1      3426 1.62053E-03
 -1      3427 1.48100E-03
 -1      3428 1.57083E-03
 -1      3429 1.37297E-03
 -1      3430 1.23613E-03
 -1      3431 1.36814E-03
 -1      3432 1.12646E-03
 -1      3433 9.99272E-04
 -1      3434 1.15044E-03
 -1      3435 8.96351E-04
 -1      3436 7.83466E-04
 -1      3437 9.37845E-04
 -1      3438 6.06077E-04
 -1      3439 5.81060E-04
 -1      3440 2.55612E+00
 -1      3441 3.51702E+00
 -1      3442 1.44050E+00
 -1      3443 1.78472E+00
 -1      3444 9.85485E-01
 -1      3445 1.21353E+00
 -1      3446 1.22347E+00
 -1      3447 4.48802E+00
 -1      3448 5.77326E+00
 -1      3449 6.79331E-01
 -1      3450 8.36509E-01
 -1      3451 8.47534E-01
 -1      3452 4.74422E-01
 -1      3453 5.78707E-01
 -1      3454 5.97935E-01
 -1      3455 3.30232E-01
 -1      3456 4.02452E-01
 -1      3457 4.25341E-01
 -1      3458 2.28448E-01
 -1      3459 2.78446E-01
 -1      3460 3.01586E-01
 -1      3461 1.57015E-01
 -1      3462 1.91134E-01
 -1      3463 2.12486E-01
 -1      3464 1.06914E-01
 -1      3465 1.29815E-01
 -1      3466 1.47971E-01
 -1      3467 7.16113E-02
 -1      3468 8.73260E-02
 -1      3469 1.01183E-01
 -1      3470 4.92251E-02
 -1      3471 5.85954E-02
 -1      3472 6.85792E-02
 -1      3473 3.33424E-02
 -1      3474 4.01826E-02
 -1      3475 4.65208E-02
 -1      3476 2.19468E-02
 -1      3477 2.69256E-02
 -1      3478 3.10614E-02
 -1      3479 1.39138E-02
 -1      3480 1.74721E-02
 -1      3481 2.01699E-02
 -1      3482 8.22887E-03
 -1      3483 1.07066E-02
 -1      3484 1.24880E-02
 -1      3485 4.99037E-03
 -1      3486 6.16132E-03
 -1      3487 7.21322E-03
 -1      3488 3.84002E-03
 -1      3489 3.86725E-03
 -1      3490 4.02255E-03
 -1      3491 3.66433E-03
 -1      3492 3.83869E-03
 -1      3493 2.89809E-03
 -1      3494 3.47734E-03
 -1      3495 3.72757E-03
 -1      3496 2.96000E-03
 -1      3497 3.12542E-03
 -1      3498 3.41222E-03
 -1      3499 2.95813E-03
 -1      3500 2.71153E-03
 -1      3501 2.98927E-03
 -1      3502 2.75686E-03
 -1      3503 2.36080E-03
 -1      3504 2.54389E-03
 -1      3505 2.45307E-03
 -1      3506 2.01358E-03
 -1      3507 2.20388E-03
 -1      3508 2.12851E-03
 -1      3509 1.69934E-03
 -1      3510 1.88348E-03
 -1      3511 1.84149E-03
 -1      3512 1.39333E-03
 -1      3513 1.56268E-03
 -1      3514 1.57473E-03
 -1      3515 1.10555E-03
 -1      3516 1.25847E-03
 -1      3517 1.30321E-03
 -1      3518 8.45696E-04
 -1      3519 9.79292E-04
 -1      3520 1.04211E-03
 -1      3521 6.28139E-04
 -1      3522 7.36513E-04
 -1      3523 8.06667E-04
 -1      3524 1.32529E+00
 -1      3525 1.25008E+00
 -1      3526 1.34808E+00
 -1      3527 3.14975E+00
 -1      3528 3.81242E+00
 -1      3529 4.10114E+00
 -1      3530 3.96493E+00
 -1      3531 4.77881E+00
 -1      3532 4.47793E+00
 -1      3533 2.91331E+00
 -1      3534 7.05550E+00
 -1      3535 6.26978E+00
 -1      3536 7.55594E+00
 -1      3537 7.53313E+00
 -1      3538 3.77754E+00
 -1      3539 2.53773E+00
 -1      3540 2.03694E+00
 -1      3541 2.15429E+00
 -1      3542 2.33307E+00
 -1      3543 6.88791E+00
 -1      3544 7.99263E+00
 -1      3545 8.79518E+00
 -1      3546 5.89141E+00
 -1      3547 1.42928E+00
 -1      3548 3.24883E+00
 -1      3549 2.46634E+00
 -1      3550 2.16169E+00
 -1      3551 4.23647E+00
 -1      3552 2.94629E+00
 -1      3553 2.69331E+00
 -1      3554 2.60259E+00
 -1      3555 3.19135E+00
 -1      3556 3.57633E+00
 -1      3557 1.04642E+01
 -1      3558 1.35413E+00
 -1      3559 1.43667E+00
 -1      3560 2.13950E+00
 -1      3561 2.10901E+00
 -1      3562 2.48649E+00
 -1      3563 1.77473E+00
 -1      3564 4.34603E-04
 -1      3565 4.22903E-04
 -1      3566 4.88240E-04
 -1      3567 5.18149E-04
 -1      3568 1.00629E+01
 -1      3569 6.12788E+00
 -1      3570 5.21385E+00
 -1      3571 1.08416E+01
 -1      3572 2.63808E+00
 -1      3573 2.36485E+00
 -1      3574 2.31949E+00
 -1      3575 2.52904E+00
 -1      3576 2.96896E+00
 -1      3577 2.97063E+00
 -1      3578 2.58404E+00
 -1      3579 9.39678E+00
 -1      3580 9.36333E+00
 -1      3581 2.78601E+00
 -1      3582 3.27411E+00
 -1      3583 7.41534E-04
 -1      3584 6.64325E-04
 -1      3585 7.37379E+00
 -1      3586 6.34564E-04
 -1      3587 5.81060E-04
 -1      3588 5.81060E-04
 -1      3589 5.23368E+00
 -1      3590 5.60639E-04
 -1      3591 5.71252E-04
 -1      3592 1.32529E+00
 -1      3593 1.68952E+00
 -1      3594 1.56730E+00
 -1      3595 5.33515E-04
 -1      3596 5.79518E-04
 -1      3597 5.80347E-04
 -1      3598 6.24367E-04
 -1      3599 2.76228E+00
 -1      3600 6.95003E+00
 -1      3601 5.72492E+00
 -1      3602 5.85320E+00
 -1      3603 4.06199E+00
 -1      3604 4.18407E+00
 -1      3605 2.62567E+00
 -1      3606 1.61437E+00
 -1      3607 6.43027E+00
 -1      3608 6.02861E-04
 -1      3609 5.98975E-04
 -1      3610 5.98975E-04
 -1      3611 6.51261E-04
 -1      3612 5.73525E-04
 -1      3613 5.62335E-04
 -1      3614 6.17797E-04
 -1      3615 6.27029E-04
 -1      3616 7.92992E-04
 -1      3617 1.72403E+00
 -1      3618 2.32430E+00
 -1      3619 5.94904E+00
 -1      3620 6.31677E+00
 -1      3621 5.00551E+00
 -1      3622 4.83438E+00
 -1      3623 3.27411E+00
 -1      3624 3.71600E+00
 -1      3625 3.45451E+00
 -1      3626 2.97063E+00
 -1      3627 2.74823E+00
 -1      3628 2.58404E+00
 -1      3629 2.41984E+00
 -1      3630 2.31817E+00
 -1      3631 1.58714E+00
 -1      3632 1.53348E+00
 -1      3633 1.19389E+00
 -1      3634 1.04515E+00
 -1      3635 1.53348E+00
 -1      3636 9.18362E-01
 -1      3637 8.00339E-01
 -1      3638 1.06711E+00
 -1      3639 6.96954E-01
 -1      3640 6.11552E-01
 -1      3641 8.36936E-01
 -1      3642 5.16116E-01
 -1      3643 4.62255E-01
 -1      3644 6.38115E-01
 -1      3645 3.98528E-01
 -1      3646 3.51584E-01
 -1      3647 4.78951E-01
 -1      3648 2.99734E-01
 -1      3649 2.66521E-01
 -1      3650 3.63373E-01
 -1      3651 2.24093E-01
 -1      3652 2.00827E-01
 -1      3653 2.69094E-01
 -1      3654 1.71198E-01
 -1      3655 1.51622E-01
 -1      3656 1.97037E-01
 -1      3657 1.33117E-01
 -1      3658 1.16550E-01
 -1      3659 1.48904E-01
 -1      3660 1.02702E-01
 -1      3661 9.19747E-02
 -1      3662 1.16550E-01
 -1      3663 8.12477E-02
 -1      3664 7.26294E-02
 -1      3665 9.19747E-02
 -1      3666 6.31599E-02
 -1      3667 5.59007E-02
 -1      3668 7.17781E-02
 -1      3669 4.79601E-02
 -1      3670 4.16131E-02
 -1      3671 5.43681E-02
 -1      3672 3.51953E-02
 -1      3673 2.99384E-02
 -1      3674 4.00097E-02
 -1      3675 2.49074E-02
 -1      3676 2.08116E-02
 -1      3677 2.85610E-02
 -1      3678 1.69722E-02
 -1      3679 1.39937E-02
 -1      3680 1.96906E-02
 -1      3681 1.13520E-02
 -1      3682 9.11228E-03
 -1      3683 1.32095E-02
 -1      3684 7.17258E-03
 -1      3685 5.54228E-03
 -1      3686 8.62813E-03
 -1      3687 4.18315E-03
 -1      3688 3.20241E-03
 -1      3689 5.32929E-03
 -1      3690 2.43465E-03
 -1      3691 2.07938E-03
 -1      3692 3.20241E-03
 -1      3693 1.55990E-03
 -1      3694 1.74453E-03
 -1      3695 1.91518E-03
 -1      3696 1.80393E-03
 -1      3697 1.84861E-03
 -1      3698 1.45510E-03
 -1      3699 1.92829E-03
 -1      3700 1.88387E-03
 -1      3701 1.59418E-03
 -1      3702 1.87726E-03
 -1      3703 1.78083E-03
 -1      3704 1.66726E-03
 -1      3705 1.72176E-03
 -1      3706 1.60401E-03
 -1      3707 1.60159E-03
 -1      3708 1.51639E-03
 -1      3709 1.42173E-03
 -1      3710 1.45491E-03
 -1      3711 1.33792E-03
 -1      3712 1.22990E-03
 -1      3713 1.28349E-03
 -1      3714 1.14449E-03
 -1      3715 1.03482E-03
 -1      3716 1.11427E-03
 -1      3717 9.47174E-04
 -1      3718 8.44253E-04
 -1      3719 9.41225E-04
 -1      3720 3.83781E+00
 -1      3721 1.00634E+00
 -1      3722 1.23330E+00
 -1      3723 6.94912E-01
 -1      3724 8.43887E-01
 -1      3725 8.53718E-01
 -1      3726 2.45646E-01
 -1      3727 2.97432E-01
 -1      3728 1.77410E-01
 -1      3729 2.14724E-01
 -1      3730 2.10570E-01
 -1      3731 1.25925E-01
 -1      3732 1.53125E-01
 -1      3733 1.55363E-01
 -1      3734 8.75780E-02
 -1      3735 1.07166E-01
 -1      3736 1.12320E-01
 -1      3737 6.09650E-02
 -1      3738 7.39809E-02
 -1      3739 7.99638E-02
 -1      3740 4.18054E-02
 -1      3741 5.08479E-02
 -1      3742 5.62496E-02
 -1      3743 2.81253E-02
 -1      3744 3.45421E-02
 -1      3745 3.88692E-02
 -1      3746 1.85576E-02
 -1      3747 2.30323E-02
 -1      3748 2.65130E-02
 -1      3749 1.15862E-02
 -1      3750 1.47934E-02
 -1      3751 1.76558E-02
 -1      3752 6.83810E-03
 -1      3753 8.90565E-03
 -1      3754 1.12111E-02
 -1      3755 3.93646E-03
 -1      3756 5.05958E-03
 -1      3757 6.75201E-03
 -1      3758 2.72076E-03
 -1      3759 2.72210E-03
 -1      3760 3.75913E-03
 -1      3761 2.35239E-03
 -1      3762 2.28915E-03
 -1      3763 2.11315E-03
 -1      3764 2.47195E-03
 -1      3765 2.53707E-03
 -1      3766 1.86621E-03
 -1      3767 2.37308E-03
 -1      3768 2.50923E-03
 -1      3769 2.08817E-03
 -1      3770 2.15599E-03
 -1      3771 2.32363E-03
 -1      3772 2.07600E-03
 -1      3773 1.90184E-03
 -1      3774 2.05876E-03
 -1      3775 1.92932E-03
 -1      3776 1.65187E-03
 -1      3777 1.78197E-03
 -1      3778 1.71223E-03
 -1      3779 1.41209E-03
 -1      3780 1.54876E-03
 -1      3781 1.48924E-03
 -1      3782 1.17340E-03
 -1      3783 1.30826E-03
 -1      3784 1.28229E-03
 -1      3785 9.40452E-04
 -1      3786 1.06671E-03
 -1      3787 1.07175E-03
 -1      3788 6.59543E-04
 -1      3789 6.67809E-04
 -1      3790 6.12773E-04
 -1      3791 2.83223E+00
 -1      3792 4.83433E-01
 -1      3793 5.84058E-01
 -1      3794 5.80411E-01
 -1      3795 2.37930E+00
 -1      3796 3.40795E-01
 -1      3797 4.12764E-01
 -1      3798 2.84855E-01
 -1      3799 5.24108E+00
 -1      3800 4.76346E+00
 -1      3801 3.44060E+00
 -1      3802 4.11621E+00
 -1      3803 4.17384E+00
 -1      3804 2.78601E+00
 -1      3805 1.37900E+00
 -1      3806 1.70329E+00
 -1      3807 1.16187E+00
 -1      3808 2.01292E+00
 -1      3809 2.67618E+00
 -1      3810 2.69124E+00
 -1      3811 1.61719E+00
 -1      3812 2.32430E+00
 -1      3813 2.18711E+00
 -1      3814 4.36677E+00
 -1      3815 4.97268E+00
 -1      3816 3.88293E+00
 -1      3817 4.69860E+00
 -1      3818 4.55669E+00
 -1      3819 2.06958E+00
 -1      3820 1.99443E+00
 -1      3821 2.17923E+00
 -1      3822 2.06958E+00
 -1      3823 2.31817E+00
 -1      3824 2.21650E+00
 -1      3825 1.75885E+00
 -1      3826 2.21782E+00
 -1      3827 6.83687E-04
 -1      3828 4.29910E+00
 -1      3829 4.41259E+00
 -1      3830 3.66035E+00
 -1      3831 1.94735E+00
 -1      3832 2.06958E+00
 -1      3833 2.44963E+00
 -1      3834 2.66396E+00
 -1      3835 2.45751E+00
 -1      3836 6.92812E-04
 -1      3837 4.08647E+00
 -1      3838 6.51331E-04
 -1      3839 6.49634E-04
 -1      3840 6.93076E-04
 -1      3841 3.11976E+00
 -1      3842 7.24853E-04
 -1      3843 6.89677E-04
 -1      3844 7.08305E-04
 -1      3845 7.36474E-04
 -1      3846 8.45657E-04
 -1      3847 2.45751E+00
 -1      3848 3.98887E-01
 -1      3849 2.90542E+00
 -1      3850 3.36596E+00
 -1      3851 3.90104E+00
 -1      3852 2.87125E+00
 -1      3853 2.73978E+00
 -1      3854 2.04478E+00
 -1      3855 7.02713E-04
 -1      3856 7.02713E-04
 -1      3857 2.62435E+00
 -1      3858 8.02321E-04
 -1      3859 8.70258E-04
 -1      3860 7.60960E-04
 -1      3861 1.02904E+00
 -1      3862 1.17473E+00
 -1      3863 1.43317E+00
 -1      3864 1.30638E+00
 -1      3865 1.38766E+00
 -1      3866 1.28428E+00
 -1      3867 1.75373E+00
 -1      3868 8.25772E-01
 -1      3869 7.30336E-01
 -1      3870 1.37650E+00
 -1      3871 5.76602E-01
 -1      3872 5.12875E-01
 -1      3873 7.64260E-01
 -1      3874 4.19524E-01
 -1      3875 3.67673E-01
 -1      3876 5.17174E-01
 -1      3877 3.07362E-01
 -1      3878 2.64933E-01
 -1      3879 3.63512E-01
 -1      3880 2.26208E-01
 -1      3881 1.96579E-01
 -1      3882 2.64476E-01
 -1      3883 1.67409E-01
 -1      3884 1.48904E-01
 -1      3885 1.96579E-01
 -1      3886 1.30399E-01
 -1      3887 1.16550E-01
 -1      3888 1.48904E-01
 -1      3889 1.00924E-01
 -1      3890 9.01967E-02
 -1      3891 1.14772E-01
 -1      3892 7.75630E-02
 -1      3893 6.80934E-02
 -1      3894 8.65120E-02
 -1      3895 5.81605E-02
 -1      3896 5.02200E-02
 -1      3897 6.39453E-02
 -1      3898 4.25637E-02
 -1      3899 3.61459E-02
 -1      3900 4.63561E-02
 -1      3901 3.03507E-02
 -1      3902 2.53198E-02
 -1      3903 3.29047E-02
 -1      3904 2.10020E-02
 -1      3905 1.71626E-02
 -1      3906 2.27918E-02
 -1      3907 1.42109E-02
 -1      3908 1.15692E-02
 -1      3909 1.55223E-02
 -1      3910 9.74833E-03
 -1      3911 7.80862E-03
 -1      3912 1.07497E-02
 -1      3913 6.39480E-03
 -1      3914 5.03567E-03
 -1      3915 7.51500E-03
 -1      3916 3.97016E-03
 -1      3917 3.20241E-03
 -1      3918 5.03567E-03
 -1      3919 2.42202E-03
 -1      3920 1.90254E-03
 -1      3921 3.18977E-03
 -1      3922 1.34807E-03
 -1      3923 1.40747E-03
 -1      3924 1.85491E-03
 -1      3925 1.33139E-03
 -1      3926 1.41106E-03
 -1      3927 1.22435E-03
 -1      3928 1.48615E-03
 -1      3929 1.47954E-03
 -1      3930 1.22335E-03
 -1      3931 1.48261E-03
 -1      3932 1.42354E-03
 -1      3933 1.30150E-03
 -1      3934 1.38243E-03
 -1      3935 1.29481E-03
 -1      3936 1.26345E-03
 -1      3937 1.22897E-03
 -1      3938 1.14517E-03
 -1      3939 1.15650E-03
 -1      3940 1.14961E-03
 -1      3941 1.06420E-03
 -1      3942 1.09510E-03
 -1      3943 9.14757E-04
 -1      3944 8.27114E-04
 -1      3945 9.50093E-04
 -1      3946 6.91265E-01
 -1      3947 8.53718E-01
 -1      3948 8.66585E-01
 -1      3949 1.31176E-01
 -1      3950 1.55461E-01
 -1      3951 1.82912E-01
 -1      3952 2.13834E-01
 -1      3953 1.58726E-01
 -1      3954 6.61606E-02
 -1      3955 7.97576E-02
 -1      3956 4.73295E-02
 -1      3957 5.74466E-02
 -1      3958 5.72404E-02
 -1      3959 3.31892E-02
 -1      3960 4.04525E-02
 -1      3961 4.16495E-02
 -1      3962 2.28055E-02
 -1      3963 2.78985E-02
 -1      3964 2.94818E-02
 -1      3965 1.52297E-02
 -1      3966 1.89939E-02
 -1      3967 2.03794E-02
 -1      3968 9.75618E-03
 -1      3969 1.24367E-02
 -1      3970 1.37748E-02
 -1      3971 6.03118E-03
 -1      3972 7.80970E-03
 -1      3973 9.03535E-03
 -1      3974 3.42516E-03
 -1      3975 4.63952E-03
 -1      3976 5.69721E-03
 -1      3977 2.08491E-03
 -1      3978 2.51653E-03
 -1      3979 3.39693E-03
 -1      3980 1.65397E-03
 -1      3981 1.46929E-03
 -1      3982 1.87267E-03
 -1      3983 1.76578E-03
 -1      3984 1.72850E-03
 -1      3985 1.33158E-03
 -1      3986 1.79243E-03
 -1      3987 1.84189E-03
 -1      3988 1.48222E-03
 -1      3989 1.68887E-03
 -1      3990 1.78609E-03
 -1      3991 1.55198E-03
 -1      3992 1.51361E-03
 -1      3993 1.63349E-03
 -1      3994 1.49026E-03
 -1      3995 1.32876E-03
 -1      3996 1.43188E-03
 -1      3997 1.35314E-03
 -1      3998 1.12924E-03
 -1      3999 1.23308E-03
 -1      4000 1.17572E-03
 -1      4001 9.43452E-04
 -1      4002 1.05015E-03
 -1      4003 1.00094E-03
 -1      4004 7.22676E-04
 -1      4005 8.12221E-04
 -1      4006 9.36154E-02
 -1      4007 1.12374E-01
 -1      4008 7.98122E-02
 -1      4009 2.55222E-01
 -1      4010 2.98585E-01
 -1      4011 2.27564E-01
 -1      4012 3.58092E+00
 -1      4013 2.29169E+00
 -1      4014 1.95210E+00
 -1      4015 2.45264E+00
 -1      4016 7.02713E-04
 -1      4017 6.95178E-04
 -1      4018 7.27014E-04
 -1      4019 7.70861E-04
 -1      4020 4.88466E-01
 -1      4021 5.99321E-01
 -1      4022 5.99321E-01
 -1      4023 3.45615E+00
 -1      4024 3.39129E+00
 -1      4025 3.52631E-01
 -1      4026 4.23300E-01
 -1      4027 3.22998E-01
 -1      4028 3.02855E+00
 -1      4029 3.29695E+00
 -1      4030 2.60177E+00
 -1      4031 7.61092E-04
 -1      4032 2.19138E+00
 -1      4033 8.55887E-04
 -1      4034 4.42210E-01
 -1      4035 1.12472E-01
 -1      4036 7.23944E-04
 -1      4037 7.45812E-04
 -1      4038 2.91495E+00
 -1      4039 3.04020E+00
 -1      4040 2.15053E+00
 -1      4041 3.10461E+00
 -1      4042 3.05879E+00
 -1      4043 2.43864E+00
 -1      4044 2.96778E+00
 -1      4045 2.31213E+00
 -1      4046 1.79320E+00
 -1      4047 2.33746E+00
 -1      4048 2.47281E+00
 -1      4049 1.39807E+00
 -1      4050 1.70770E+00
 -1      4051 1.26524E+00
 -1      4052 8.94616E-04
 -1      4053 9.04524E-04
 -1      4054 9.25484E-04
 -1      4055 7.85754E-04
 -1      4056 7.85754E-04
 -1      4057 9.31189E-01
 -1      4058 1.10651E+00
 -1      4059 9.53355E-04
 -1      4060 9.38463E-04
 -1      4061 8.94616E-04
 -1      4062 1.10280E-03
 -1      4063 1.62331E+00
 -1      4064 1.16480E+00
 -1      4065 1.04455E+00
 -1      4066 8.90819E-01
 -1      4067 1.29136E+00
 -1      4068 7.75336E-01
 -1      4069 6.81986E-01
 -1      4070 1.05563E+00
 -1      4071 5.27122E-01
 -1      4072 4.66811E-01
 -1      4073 7.85284E-01
 -1      4074 3.74108E-01
 -1      4075 3.35383E-01
 -1      4076 5.37718E-01
 -1      4077 2.65938E-01
 -1      4078 2.36767E-01
 -1      4079 3.75570E-01
 -1      4080 1.87220E-01
 -1      4081 1.68715E-01
 -1      4082 2.56578E-01
 -1      4083 1.35352E-01
 -1      4084 1.19725E-01
 -1      4085 1.73668E-01
 -1      4086 9.68152E-02
 -1      4087 8.41814E-02
 -1      4088 1.17395E-01
 -1      4089 6.78220E-02
 -1      4090 5.78891E-02
 -1      4091 7.81252E-02
 -1      4092 5.00714E-02
 -1      4093 4.24152E-02
 -1      4094 5.39481E-02
 -1      4095 3.64800E-02
 -1      4096 3.06848E-02
 -1      4097 4.01953E-02
 -1      4098 2.59355E-02
 -1      4099 2.16177E-02
 -1      4100 2.95108E-02
 -1      4101 1.79344E-02
 -1      4102 1.49827E-02
 -1      4103 2.10782E-02
 -1      4104 1.22982E-02
 -1      4105 1.04773E-02
 -1      4106 1.47104E-02
 -1      4107 8.58026E-03
 -1      4108 7.16644E-03
 -1      4109 1.01288E-02
 -1      4110 5.75505E-03
 -1      4111 4.68954E-03
 -1      4112 6.82031E-03
 -1      4113 3.65885E-03
 -1      4114 2.87846E-03
 -1      4115 4.37823E-03
 -1      4116 2.14321E-03
 -1      4117 1.58873E-03
 -1      4118 2.61228E-03
 -1      4119 1.11912E-03
 -1      4120 1.04304E-03
 -1      4121 1.40742E-03
 -1      4122 1.02117E-03
 -1      4123 1.09625E-03
 -1      4124 9.15939E-04
 -1      4125 1.14697E-03
 -1      4126 1.15003E-03
 -1      4127 9.44785E-04
 -1      4128 1.16037E-03
 -1      4129 1.11925E-03
 -1      4130 1.00583E-03
 -1      4131 1.12734E-03
 -1      4132 1.06150E-03
 -1      4133 1.02425E-03
 -1      4134 1.09836E-03
 -1      4135 1.10280E-03
 -1      4136 1.06920E-03
 -1      4137 1.99581E+00
 -1      4138 1.96557E+00
 -1      4139 3.74398E-02
 -1      4140 4.43167E-02
 -1      4141 5.23579E-02
 -1      4142 6.10719E-02
 -1      4143 4.81483E-02
 -1      4144 1.92579E-02
 -1      4145 2.30696E-02
 -1      4146 1.35243E-02
 -1      4147 1.63173E-02
 -1      4148 1.90075E-02
 -1      4149 9.20826E-03
 -1      4150 1.11547E-02
 -1      4151 1.36972E-02
 -1      4152 5.97395E-03
 -1      4153 7.36561E-03
 -1      4154 9.48500E-03
 -1      4155 3.68385E-03
 -1      4156 4.59248E-03
 -1      4157 6.26087E-03
 -1      4158 2.08939E-03
 -1      4159 2.70501E-03
 -1      4160 3.90057E-03
 -1      4161 1.43161E-03
 -1      4162 1.35708E-03
 -1      4163 2.18943E-03
 -1      4164 1.27310E-03
 -1      4165 1.19699E-03
 -1      4166 1.22249E-03
 -1      4167 1.34761E-03
 -1      4168 1.35395E-03
 -1      4169 1.06872E-03
 -1      4170 1.30272E-03
 -1      4171 1.35811E-03
 -1      4172 1.16007E-03
 -1      4173 1.18801E-03
 -1      4174 1.26975E-03
 -1      4175 1.13760E-03
 -1      4176 1.05619E-03
 -1      4177 1.15187E-03
 -1      4178 1.06848E-03
 -1      4179 8.34285E-04
 -1      4180 7.28414E-02
 -1      4181 8.66992E-02
 -1      4182 6.79589E-02
 -1      4183 2.13878E+00
 -1      4184 2.29799E+00
 -1      4185 1.66179E+00
 -1      4186 1.96604E-01
 -1      4187 2.37991E-01
 -1      4188 1.87448E+00
 -1      4189 2.64713E-02
 -1      4190 3.17621E-02
 -1      4191 3.44293E-02
 -1      4192 3.09561E-01
 -1      4193 3.63607E-01
 -1      4194 2.78600E-01
 -1      4195 4.72897E-01
 -1      4196 5.38063E-01
 -1      4197 4.59460E-01
 -1      4198 9.99939E-02
 -1      4199 1.18796E-01
 -1      4200 9.30231E-02
 -1      4201 7.02449E-01
 -1      4202 7.94393E-01
 -1      4203 7.33135E-01
 -1      4204 1.36984E-01
 -1      4205 1.64435E-01
 -1      4206 1.74862E-01
 -1      4207 1.24506E-01
 -1      4208 1.10606E-03
 -1      4209 1.99581E+00
 -1      4210 1.48857E+00
 -1      4211 1.10606E-03
 -1      4212 2.53499E-02
 -1      4213 1.03432E+00
 -1      4214 1.87448E+00
 -1      4215 1.01271E-03
 -1      4216 1.09180E-03
 -1      4217 1.06795E-03
 -1      4218 1.83500E+00
 -1      4219 1.21592E+00
 -1      4220 1.15132E+00
 -1      4221 1.37465E+00
 -1      4222 1.93140E+00
 -1      4223 1.29136E+00
 -1      4224 1.17111E+00
 -1      4225 1.17111E+00
 -1      4226 1.05563E+00
 -1      4227 9.18834E-01
 -1      4228 7.63971E-01
 -1      4229 5.99585E-01
 -1      4230 5.06882E-01
 -1      4231 3.97593E-01
 -1      4232 3.28148E-01
 -1      4233 2.56578E-01
 -1      4234 2.07031E-01
 -1      4235 1.74862E-01
 -1      4236 1.41499E-01
 -1      4237 1.23311E-01
 -1      4238 1.00401E-01
 -1      4239 8.71065E-02
 -1      4240 7.07471E-02
 -1      4241 5.89776E-02
 -1      4242 5.11600E-02
 -1      4243 4.31188E-02
 -1      4244 3.71836E-02
 -1      4245 3.15059E-02
 -1      4246 2.67565E-02
 -1      4247 2.33548E-02
 -1      4248 1.96715E-02
 -1      4249 1.67308E-02
 -1      4250 1.40463E-02
 -1      4251 1.16767E-02
 -1      4252 9.77967E-03
 -1      4253 7.93702E-03
 -1      4254 6.52563E-03
 -1      4255 5.14416E-03
 -1      4256 4.11347E-03
 -1      4257 3.13464E-03
 -1      4258 2.39938E-03
 -1      4259 1.66707E-03
 -1      4260 1.19746E-03
 -1      4261 9.62840E-04
 -1      4262 9.40973E-04
 -1      4263 1.02182E-03
 -1      4264 1.07253E-03
 -1      4265 1.08303E-03
 -1      4266 1.09337E-03
 -1      4267 1.06040E-03
 -1      4268 1.06848E-03
 -1      4269 1.03234E-03
 -1      4270 1.06920E-03
 -1      4271 1.10606E-03
 -1      4272 8.33376E-04
 -1      4273 9.24236E-04
 -1      4274 1.32984E+00
 -1      4275 1.50306E+00
 -1      4276 1.10482E-03
 -1      4277 1.37465E+00
 -1      4278 1.21592E+00
 -1      4279 1.10482E-03
 -1      4280 1.62331E+00
 -1      4281 1.17111E+00
 -3
 9999
