    1C
    1UUSER                                                              
    1UDATE              27.october.2022                                 
    1UTIME              00:04:25                                        
    1UHOST                                                              
    1UPGM               CalculiX                                        
    1UVERSION           Version 2.17                             
    1UCOMPILETIME       Thu Jul 23 21:43:50 CEST 2020                    
    1UDIR                                                               
    1UDBN                                                               
    1UMAT    1SOLIDMATERIAL                                             
    2C                          4321                                     1
 -1         1 4.36278E+01 3.23681E+01 0.00000E+00
 -1         2 4.99933E+01 2.53969E+01 0.00000E+00
 -1         3 1.50000E+02 0.00000E+00 0.00000E+00
 -1         4 1.50000E+02 5.00000E+01 0.00000E+00
 -1         5 0.00000E+00 0.00000E+00 0.00000E+00
 -1         6 0.00000E+00 5.00000E+01 0.00000E+00
 -1         7 0.00000E+00 4.70500E+01 0.00000E+00
 -1         8 0.00000E+00 4.41000E+01 0.00000E+00
 -1         9 0.00000E+00 4.11500E+01 0.00000E+00
 -1        10 0.00000E+00 3.82000E+01 0.00000E+00
 -1        11 0.00000E+00 3.52500E+01 0.00000E+00
 -1        12 0.00000E+00 3.23500E+01 0.00000E+00
 -1        13 0.00000E+00 2.94000E+01 0.00000E+00
 -1        14 0.00000E+00 2.64500E+01 0.00000E+00
 -1        15 0.00000E+00 2.35000E+01 0.00000E+00
 -1        16 0.00000E+00 2.05500E+01 0.00000E+00
 -1        17 0.00000E+00 1.76000E+01 0.00000E+00
 -1        18 0.00000E+00 1.47000E+01 0.00000E+00
 -1        19 0.00000E+00 1.17500E+01 0.00000E+00
 -1        20 0.00000E+00 8.80000E+00 0.00000E+00
 -1        21 0.00000E+00 5.85000E+00 0.00000E+00
 -1        22 0.00000E+00 2.90000E+00 0.00000E+00
 -1        23 3.15000E+00 5.00000E+01 0.00000E+00
 -1        24 6.15000E+00 5.00000E+01 0.00000E+00
 -1        25 9.15000E+00 5.00000E+01 0.00000E+00
 -1        26 1.21500E+01 5.00000E+01 0.00000E+00
 -1        27 1.51500E+01 5.00000E+01 0.00000E+00
 -1        28 1.81500E+01 5.00000E+01 0.00000E+00
 -1        29 2.11500E+01 5.00000E+01 0.00000E+00
 -1        30 2.41500E+01 5.00000E+01 0.00000E+00
 -1        31 2.71500E+01 5.00000E+01 0.00000E+00
 -1        32 3.01500E+01 5.00000E+01 0.00000E+00
 -1        33 3.31500E+01 5.00000E+01 0.00000E+00
 -1        34 3.61500E+01 5.00000E+01 0.00000E+00
 -1        35 3.91500E+01 5.00000E+01 0.00000E+00
 -1        36 4.21500E+01 5.00000E+01 0.00000E+00
 -1        37 4.51500E+01 5.00000E+01 0.00000E+00
 -1        38 4.81500E+01 5.00000E+01 0.00000E+00
 -1        39 5.11500E+01 5.00000E+01 0.00000E+00
 -1        40 5.41500E+01 5.00000E+01 0.00000E+00
 -1        41 5.71500E+01 5.00000E+01 0.00000E+00
 -1        42 6.01500E+01 5.00000E+01 0.00000E+00
 -1        43 6.31500E+01 5.00000E+01 0.00000E+00
 -1        44 6.61500E+01 5.00000E+01 0.00000E+00
 -1        45 6.91500E+01 5.00000E+01 0.00000E+00
 -1        46 7.21500E+01 5.00000E+01 0.00000E+00
 -1        47 7.51500E+01 5.00000E+01 0.00000E+00
 -1        48 7.81500E+01 5.00000E+01 0.00000E+00
 -1        49 8.11500E+01 5.00000E+01 0.00000E+00
 -1        50 8.41500E+01 5.00000E+01 0.00000E+00
 -1        51 8.71500E+01 5.00000E+01 0.00000E+00
 -1        52 9.01500E+01 5.00000E+01 0.00000E+00
 -1        53 9.31500E+01 5.00000E+01 0.00000E+00
 -1        54 9.61500E+01 5.00000E+01 0.00000E+00
 -1        55 9.91500E+01 5.00000E+01 0.00000E+00
 -1        56 1.02150E+02 5.00000E+01 0.00000E+00
 -1        57 1.05150E+02 5.00000E+01 0.00000E+00
 -1        58 1.08150E+02 5.00000E+01 0.00000E+00
 -1        59 1.11150E+02 5.00000E+01 0.00000E+00
 -1        60 1.14150E+02 5.00000E+01 0.00000E+00
 -1        61 1.17150E+02 5.00000E+01 0.00000E+00
 -1        62 1.20150E+02 5.00000E+01 0.00000E+00
 -1        63 1.23150E+02 5.00000E+01 0.00000E+00
 -1        64 1.26150E+02 5.00000E+01 0.00000E+00
 -1        65 1.29150E+02 5.00000E+01 0.00000E+00
 -1        66 1.32150E+02 5.00000E+01 0.00000E+00
 -1        67 1.35150E+02 5.00000E+01 0.00000E+00
 -1        68 1.38150E+02 5.00000E+01 0.00000E+00
 -1        69 1.41150E+02 5.00000E+01 0.00000E+00
 -1        70 1.44150E+02 5.00000E+01 0.00000E+00
 -1        71 1.47150E+02 5.00000E+01 0.00000E+00
 -1        72 3.15000E+00 0.00000E+00 0.00000E+00
 -1        73 6.15000E+00 0.00000E+00 0.00000E+00
 -1        74 9.15000E+00 0.00000E+00 0.00000E+00
 -1        75 1.21500E+01 0.00000E+00 0.00000E+00
 -1        76 1.51500E+01 0.00000E+00 0.00000E+00
 -1        77 1.81500E+01 0.00000E+00 0.00000E+00
 -1        78 2.11500E+01 0.00000E+00 0.00000E+00
 -1        79 2.41500E+01 0.00000E+00 0.00000E+00
 -1        80 2.71500E+01 0.00000E+00 0.00000E+00
 -1        81 3.01500E+01 0.00000E+00 0.00000E+00
 -1        82 3.31500E+01 0.00000E+00 0.00000E+00
 -1        83 3.61500E+01 0.00000E+00 0.00000E+00
 -1        84 3.91500E+01 0.00000E+00 0.00000E+00
 -1        85 4.21500E+01 0.00000E+00 0.00000E+00
 -1        86 4.51500E+01 0.00000E+00 0.00000E+00
 -1        87 4.81500E+01 0.00000E+00 0.00000E+00
 -1        88 5.11500E+01 0.00000E+00 0.00000E+00
 -1        89 5.41500E+01 0.00000E+00 0.00000E+00
 -1        90 5.71500E+01 0.00000E+00 0.00000E+00
 -1        91 6.01500E+01 0.00000E+00 0.00000E+00
 -1        92 6.31500E+01 0.00000E+00 0.00000E+00
 -1        93 6.61500E+01 0.00000E+00 0.00000E+00
 -1        94 6.91500E+01 0.00000E+00 0.00000E+00
 -1        95 7.21500E+01 0.00000E+00 0.00000E+00
 -1        96 7.51500E+01 0.00000E+00 0.00000E+00
 -1        97 7.81500E+01 0.00000E+00 0.00000E+00
 -1        98 8.11500E+01 0.00000E+00 0.00000E+00
 -1        99 8.41500E+01 0.00000E+00 0.00000E+00
 -1       100 8.71500E+01 0.00000E+00 0.00000E+00
 -1       101 9.01500E+01 0.00000E+00 0.00000E+00
 -1       102 9.31500E+01 0.00000E+00 0.00000E+00
 -1       103 9.61500E+01 0.00000E+00 0.00000E+00
 -1       104 9.91500E+01 0.00000E+00 0.00000E+00
 -1       105 1.02150E+02 0.00000E+00 0.00000E+00
 -1       106 1.05150E+02 0.00000E+00 0.00000E+00
 -1       107 1.08150E+02 0.00000E+00 0.00000E+00
 -1       108 1.11150E+02 0.00000E+00 0.00000E+00
 -1       109 1.14150E+02 0.00000E+00 0.00000E+00
 -1       110 1.17150E+02 0.00000E+00 0.00000E+00
 -1       111 1.20150E+02 0.00000E+00 0.00000E+00
 -1       112 1.23150E+02 0.00000E+00 0.00000E+00
 -1       113 1.26150E+02 0.00000E+00 0.00000E+00
 -1       114 1.29150E+02 0.00000E+00 0.00000E+00
 -1       115 1.32150E+02 0.00000E+00 0.00000E+00
 -1       116 1.35150E+02 0.00000E+00 0.00000E+00
 -1       117 1.38150E+02 0.00000E+00 0.00000E+00
 -1       118 1.41150E+02 0.00000E+00 0.00000E+00
 -1       119 1.44150E+02 0.00000E+00 0.00000E+00
 -1       120 1.47150E+02 0.00000E+00 0.00000E+00
 -1       121 1.50000E+02 2.95000E+00 0.00000E+00
 -1       122 1.50000E+02 5.90000E+00 0.00000E+00
 -1       123 1.50000E+02 8.85000E+00 0.00000E+00
 -1       124 1.50000E+02 1.18000E+01 0.00000E+00
 -1       125 1.50000E+02 1.47500E+01 0.00000E+00
 -1       126 1.50000E+02 1.76500E+01 0.00000E+00
 -1       127 1.50000E+02 2.06000E+01 0.00000E+00
 -1       128 1.50000E+02 2.35500E+01 0.00000E+00
 -1       129 1.50000E+02 2.65000E+01 0.00000E+00
 -1       130 1.50000E+02 2.94500E+01 0.00000E+00
 -1       131 1.50000E+02 3.24000E+01 0.00000E+00
 -1       132 1.50000E+02 3.53000E+01 0.00000E+00
 -1       133 1.50000E+02 3.82500E+01 0.00000E+00
 -1       134 1.50000E+02 4.12000E+01 0.00000E+00
 -1       135 1.50000E+02 4.41500E+01 0.00000E+00
 -1       136 1.50000E+02 4.71000E+01 0.00000E+00
 -1       137 4.98059E+01 2.37880E+01 0.00000E+00
 -1       138 4.93273E+01 2.24168E+01 0.00000E+00
 -1       139 4.85358E+01 2.11213E+01 0.00000E+00
 -1       140 4.73231E+01 1.98967E+01 0.00000E+00
 -1       141 4.61457E+01 1.91469E+01 0.00000E+00
 -1       142 4.47502E+01 1.86210E+01 0.00000E+00
 -1       143 4.31209E+01 1.83981E+01 0.00000E+00
 -1       144 4.16337E+01 1.85302E+01 0.00000E+00
 -1       145 4.01888E+01 1.89833E+01 0.00000E+00
 -1       146 3.88090E+01 1.97852E+01 0.00000E+00
 -1       147 3.77224E+01 2.07907E+01 0.00000E+00
 -1       148 3.68711E+01 2.20031E+01 0.00000E+00
 -1       149 3.62975E+01 2.33559E+01 0.00000E+00
 -1       150 3.60202E+01 2.47843E+01 0.00000E+00
 -1       151 3.60535E+01 2.63124E+01 0.00000E+00
 -1       152 3.64460E+01 2.78734E+01 0.00000E+00
 -1       153 3.71185E+01 2.92030E+01 0.00000E+00
 -1       154 3.81204E+01 3.04224E+01 0.00000E+00
 -1       155 3.92322E+01 3.13007E+01 0.00000E+00
 -1       156 4.06692E+01 3.19998E+01 0.00000E+00
 -1       157 4.20901E+01 3.23384E+01 0.00000E+00
 -1       158 4.50780E+01 3.20793E+01 0.00000E+00
 -1       159 4.64507E+01 3.14835E+01 0.00000E+00
 -1       160 4.76379E+01 3.06341E+01 0.00000E+00
 -1       161 4.86833E+01 2.94742E+01 0.00000E+00
 -1       162 4.93978E+01 2.82222E+01 0.00000E+00
 -1       163 4.98441E+01 2.68346E+01 0.00000E+00
 -1       164 2.59800E+00 4.55750E+01 0.00000E+00
 -1       165 2.59800E+00 4.26250E+01 0.00000E+00
 -1       166 2.59800E+00 3.96750E+01 0.00000E+00
 -1       167 2.59800E+00 3.67250E+01 0.00000E+00
 -1       168 2.59800E+00 3.38250E+01 0.00000E+00
 -1       169 2.59800E+00 3.08750E+01 0.00000E+00
 -1       170 2.59800E+00 2.79250E+01 0.00000E+00
 -1       171 2.59800E+00 2.49750E+01 0.00000E+00
 -1       172 2.59800E+00 2.20250E+01 0.00000E+00
 -1       173 2.59800E+00 1.90750E+01 0.00000E+00
 -1       174 2.59800E+00 1.61750E+01 0.00000E+00
 -1       175 2.59800E+00 1.32250E+01 0.00000E+00
 -1       176 2.59800E+00 1.02750E+01 0.00000E+00
 -1       177 2.59800E+00 7.32500E+00 0.00000E+00
 -1       178 2.59800E+00 4.37500E+00 0.00000E+00
 -1       179 2.87400E+00 2.18750E+00 0.00000E+00
 -1       180 4.65000E+00 4.74020E+01 0.00000E+00
 -1       181 7.65000E+00 4.74020E+01 0.00000E+00
 -1       182 1.06500E+01 4.74020E+01 0.00000E+00
 -1       183 1.36500E+01 4.74020E+01 0.00000E+00
 -1       184 1.66500E+01 4.74020E+01 0.00000E+00
 -1       185 1.96500E+01 4.74020E+01 0.00000E+00
 -1       186 2.26500E+01 4.74020E+01 0.00000E+00
 -1       187 2.56500E+01 4.74020E+01 0.00000E+00
 -1       188 2.86500E+01 4.74020E+01 0.00000E+00
 -1       189 3.16500E+01 4.74020E+01 0.00000E+00
 -1       190 3.46500E+01 4.74020E+01 0.00000E+00
 -1       191 3.76500E+01 4.74020E+01 0.00000E+00
 -1       192 4.06500E+01 4.74020E+01 0.00000E+00
 -1       193 4.36500E+01 4.74020E+01 0.00000E+00
 -1       194 4.66500E+01 4.74020E+01 0.00000E+00
 -1       195 4.96500E+01 4.74020E+01 0.00000E+00
 -1       196 5.26500E+01 4.74020E+01 0.00000E+00
 -1       197 5.56500E+01 4.74020E+01 0.00000E+00
 -1       198 5.86500E+01 4.74020E+01 0.00000E+00
 -1       199 6.16500E+01 4.74020E+01 0.00000E+00
 -1       200 6.46500E+01 4.74020E+01 0.00000E+00
 -1       201 6.76500E+01 4.74020E+01 0.00000E+00
 -1       202 7.06500E+01 4.74020E+01 0.00000E+00
 -1       203 7.36500E+01 4.74020E+01 0.00000E+00
 -1       204 7.66500E+01 4.74020E+01 0.00000E+00
 -1       205 7.96500E+01 4.74020E+01 0.00000E+00
 -1       206 8.26500E+01 4.74020E+01 0.00000E+00
 -1       207 8.56500E+01 4.74020E+01 0.00000E+00
 -1       208 8.86500E+01 4.74020E+01 0.00000E+00
 -1       209 9.16500E+01 4.74020E+01 0.00000E+00
 -1       210 9.46500E+01 4.74020E+01 0.00000E+00
 -1       211 9.76500E+01 4.74020E+01 0.00000E+00
 -1       212 1.00650E+02 4.74020E+01 0.00000E+00
 -1       213 1.03650E+02 4.74020E+01 0.00000E+00
 -1       214 1.06650E+02 4.74020E+01 0.00000E+00
 -1       215 1.09650E+02 4.74020E+01 0.00000E+00
 -1       216 1.12650E+02 4.74020E+01 0.00000E+00
 -1       217 1.15650E+02 4.74020E+01 0.00000E+00
 -1       218 1.18650E+02 4.74020E+01 0.00000E+00
 -1       219 1.21650E+02 4.74020E+01 0.00000E+00
 -1       220 1.24650E+02 4.74020E+01 0.00000E+00
 -1       221 1.27650E+02 4.74020E+01 0.00000E+00
 -1       222 1.30650E+02 4.74020E+01 0.00000E+00
 -1       223 1.33650E+02 4.74020E+01 0.00000E+00
 -1       224 1.36650E+02 4.74020E+01 0.00000E+00
 -1       225 1.39650E+02 4.74020E+01 0.00000E+00
 -1       226 1.42650E+02 4.74020E+01 0.00000E+00
 -1       227 1.45650E+02 4.74020E+01 0.00000E+00
 -1       228 5.87400E+00 2.18750E+00 0.00000E+00
 -1       229 8.87400E+00 2.18750E+00 0.00000E+00
 -1       230 1.18740E+01 2.18750E+00 0.00000E+00
 -1       231 1.48740E+01 2.18750E+00 0.00000E+00
 -1       232 1.78740E+01 2.18750E+00 0.00000E+00
 -1       233 2.08740E+01 2.18750E+00 0.00000E+00
 -1       234 2.38740E+01 2.18750E+00 0.00000E+00
 -1       235 2.68740E+01 2.18750E+00 0.00000E+00
 -1       236 2.98740E+01 2.18750E+00 0.00000E+00
 -1       237 3.28740E+01 2.18750E+00 0.00000E+00
 -1       238 3.58740E+01 2.18750E+00 0.00000E+00
 -1       239 3.88740E+01 2.18750E+00 0.00000E+00
 -1       240 4.18740E+01 2.18750E+00 0.00000E+00
 -1       241 4.48740E+01 2.18750E+00 0.00000E+00
 -1       242 4.78740E+01 2.18750E+00 0.00000E+00
 -1       243 5.08740E+01 2.18750E+00 0.00000E+00
 -1       244 5.38740E+01 2.18750E+00 0.00000E+00
 -1       245 5.68740E+01 2.18750E+00 0.00000E+00
 -1       246 5.98740E+01 2.18750E+00 0.00000E+00
 -1       247 6.28740E+01 2.18750E+00 0.00000E+00
 -1       248 6.58740E+01 2.18750E+00 0.00000E+00
 -1       249 6.88740E+01 2.18750E+00 0.00000E+00
 -1       250 7.18740E+01 2.18750E+00 0.00000E+00
 -1       251 7.48740E+01 2.18750E+00 0.00000E+00
 -1       252 7.78740E+01 2.18750E+00 0.00000E+00
 -1       253 8.08740E+01 2.18750E+00 0.00000E+00
 -1       254 8.38740E+01 2.18750E+00 0.00000E+00
 -1       255 8.68740E+01 2.18750E+00 0.00000E+00
 -1       256 8.98740E+01 2.18750E+00 0.00000E+00
 -1       257 9.28740E+01 2.18750E+00 0.00000E+00
 -1       258 9.58740E+01 2.18750E+00 0.00000E+00
 -1       259 9.88740E+01 2.18750E+00 0.00000E+00
 -1       260 1.01874E+02 2.18750E+00 0.00000E+00
 -1       261 1.04874E+02 2.18750E+00 0.00000E+00
 -1       262 1.07874E+02 2.18750E+00 0.00000E+00
 -1       263 1.10874E+02 2.18750E+00 0.00000E+00
 -1       264 1.13874E+02 2.18750E+00 0.00000E+00
 -1       265 1.16874E+02 2.18750E+00 0.00000E+00
 -1       266 1.19874E+02 2.18750E+00 0.00000E+00
 -1       267 1.22874E+02 2.18750E+00 0.00000E+00
 -1       268 1.25874E+02 2.18750E+00 0.00000E+00
 -1       269 1.28874E+02 2.18750E+00 0.00000E+00
 -1       270 1.31874E+02 2.18750E+00 0.00000E+00
 -1       271 1.34874E+02 2.18750E+00 0.00000E+00
 -1       272 1.37874E+02 2.18750E+00 0.00000E+00
 -1       273 1.40874E+02 2.18750E+00 0.00000E+00
 -1       274 1.43874E+02 2.18750E+00 0.00000E+00
 -1       275 1.46874E+02 2.18750E+00 0.00000E+00
 -1       276 1.47402E+02 4.42500E+00 0.00000E+00
 -1       277 1.47402E+02 7.37500E+00 0.00000E+00
 -1       278 1.47402E+02 1.03250E+01 0.00000E+00
 -1       279 1.47402E+02 1.32750E+01 0.00000E+00
 -1       280 1.47402E+02 1.61750E+01 0.00000E+00
 -1       281 1.47402E+02 1.91250E+01 0.00000E+00
 -1       282 1.47402E+02 2.20750E+01 0.00000E+00
 -1       283 1.47402E+02 2.50250E+01 0.00000E+00
 -1       284 1.47402E+02 2.79750E+01 0.00000E+00
 -1       285 1.47402E+02 3.09250E+01 0.00000E+00
 -1       286 1.47402E+02 3.38250E+01 0.00000E+00
 -1       287 1.47402E+02 3.67750E+01 0.00000E+00
 -1       288 1.47402E+02 3.97250E+01 0.00000E+00
 -1       289 1.47402E+02 4.26750E+01 0.00000E+00
 -1       290 1.46526E+02 4.50385E+01 0.00000E+00
 -1       291 5.14368E+01 2.44134E+01 0.00000E+00
 -1       292 5.07904E+01 2.26752E+01 0.00000E+00
 -1       293 5.00376E+01 2.10933E+01 0.00000E+00
 -1       294 4.90886E+01 1.93611E+01 0.00000E+00
 -1       295 4.73856E+01 1.84991E+01 0.00000E+00
 -1       296 4.59051E+01 1.76710E+01 0.00000E+00
 -1       297 4.41226E+01 1.71423E+01 0.00000E+00
 -1       298 4.22700E+01 1.72565E+01 0.00000E+00
 -1       299 4.05235E+01 1.75199E+01 0.00000E+00
 -1       300 3.88476E+01 1.82636E+01 0.00000E+00
 -1       301 3.74422E+01 1.93981E+01 0.00000E+00
 -1       302 3.62359E+01 2.06521E+01 0.00000E+00
 -1       303 3.54681E+01 2.22062E+01 0.00000E+00
 -1       304 3.49687E+01 2.38390E+01 0.00000E+00
 -1       305 3.46572E+01 2.55784E+01 0.00000E+00
 -1       306 3.47489E+01 2.74704E+01 0.00000E+00
 -1       307 3.57004E+01 2.90854E+01 0.00000E+00
 -1       308 3.65533E+01 3.06888E+01 0.00000E+00
 -1       309 3.79248E+01 3.18129E+01 0.00000E+00
 -1       310 3.93103E+01 3.29665E+01 0.00000E+00
 -1       311 4.10986E+01 3.33485E+01 0.00000E+00
 -1       312 4.28339E+01 3.36492E+01 0.00000E+00
 -1       313 4.45897E+01 3.34128E+01 0.00000E+00
 -1       314 4.62470E+01 3.28936E+01 0.00000E+00
 -1       315 4.77498E+01 3.20448E+01 0.00000E+00
 -1       316 4.91857E+01 3.09781E+01 0.00000E+00
 -1       317 5.00935E+01 2.94492E+01 0.00000E+00
 -1       318 5.07751E+01 2.78996E+01 0.00000E+00
 -1       319 5.11246E+01 2.62409E+01 0.00000E+00
 -1       320 5.19600E+00 4.11500E+01 0.00000E+00
 -1       321 5.19600E+00 4.41000E+01 0.00000E+00
 -1       322 5.19600E+00 3.52750E+01 0.00000E+00
 -1       323 5.19600E+00 3.23250E+01 0.00000E+00
 -1       324 5.19600E+00 2.93750E+01 0.00000E+00
 -1       325 5.19600E+00 2.64250E+01 0.00000E+00
 -1       326 5.19600E+00 2.34750E+01 0.00000E+00
 -1       327 5.19600E+00 2.05250E+01 0.00000E+00
 -1       328 5.19600E+00 1.76250E+01 0.00000E+00
 -1       329 5.19600E+00 1.46750E+01 0.00000E+00
 -1       330 5.19600E+00 1.17250E+01 0.00000E+00
 -1       331 5.19600E+00 8.77500E+00 0.00000E+00
 -1       332 5.19600E+00 5.82500E+00 0.00000E+00
 -1       333 5.53500E+00 4.00625E+00 0.00000E+00
 -1       334 8.53500E+00 4.00625E+00 0.00000E+00
 -1       335 9.15000E+00 4.48040E+01 0.00000E+00
 -1       336 1.21500E+01 4.48040E+01 0.00000E+00
 -1       337 1.51500E+01 4.48040E+01 0.00000E+00
 -1       338 1.81500E+01 4.48040E+01 0.00000E+00
 -1       339 2.11500E+01 4.48040E+01 0.00000E+00
 -1       340 2.41500E+01 4.48040E+01 0.00000E+00
 -1       341 2.71500E+01 4.48040E+01 0.00000E+00
 -1       342 3.01500E+01 4.48040E+01 0.00000E+00
 -1       343 3.31500E+01 4.48040E+01 0.00000E+00
 -1       344 3.61500E+01 4.48040E+01 0.00000E+00
 -1       345 3.91500E+01 4.48040E+01 0.00000E+00
 -1       346 4.21500E+01 4.48040E+01 0.00000E+00
 -1       347 4.51500E+01 4.48040E+01 0.00000E+00
 -1       348 4.81500E+01 4.48040E+01 0.00000E+00
 -1       349 5.11500E+01 4.48040E+01 0.00000E+00
 -1       350 5.41500E+01 4.48040E+01 0.00000E+00
 -1       351 5.71500E+01 4.48040E+01 0.00000E+00
 -1       352 6.01500E+01 4.48040E+01 0.00000E+00
 -1       353 6.31500E+01 4.48040E+01 0.00000E+00
 -1       354 6.61500E+01 4.48040E+01 0.00000E+00
 -1       355 6.91500E+01 4.48040E+01 0.00000E+00
 -1       356 7.21500E+01 4.48040E+01 0.00000E+00
 -1       357 7.51500E+01 4.48040E+01 0.00000E+00
 -1       358 7.81500E+01 4.48040E+01 0.00000E+00
 -1       359 8.11500E+01 4.48040E+01 0.00000E+00
 -1       360 8.41500E+01 4.48040E+01 0.00000E+00
 -1       361 8.71500E+01 4.48040E+01 0.00000E+00
 -1       362 9.01500E+01 4.48040E+01 0.00000E+00
 -1       363 9.31500E+01 4.48040E+01 0.00000E+00
 -1       364 9.61500E+01 4.48040E+01 0.00000E+00
 -1       365 9.91500E+01 4.48040E+01 0.00000E+00
 -1       366 1.02150E+02 4.48040E+01 0.00000E+00
 -1       367 1.05150E+02 4.48040E+01 0.00000E+00
 -1       368 1.08150E+02 4.48040E+01 0.00000E+00
 -1       369 1.11150E+02 4.48040E+01 0.00000E+00
 -1       370 1.14150E+02 4.48040E+01 0.00000E+00
 -1       371 1.17150E+02 4.48040E+01 0.00000E+00
 -1       372 1.20150E+02 4.48040E+01 0.00000E+00
 -1       373 1.23150E+02 4.48040E+01 0.00000E+00
 -1       374 1.26150E+02 4.48040E+01 0.00000E+00
 -1       375 1.29150E+02 4.48040E+01 0.00000E+00
 -1       376 1.32150E+02 4.48040E+01 0.00000E+00
 -1       377 1.35150E+02 4.48040E+01 0.00000E+00
 -1       378 1.38150E+02 4.48040E+01 0.00000E+00
 -1       379 1.41150E+02 4.48040E+01 0.00000E+00
 -1       380 1.43838E+02 4.49212E+01 0.00000E+00
 -1       381 1.15350E+01 4.00625E+00 0.00000E+00
 -1       382 1.45350E+01 4.00625E+00 0.00000E+00
 -1       383 1.75350E+01 4.00625E+00 0.00000E+00
 -1       384 2.05350E+01 4.00625E+00 0.00000E+00
 -1       385 2.35350E+01 4.00625E+00 0.00000E+00
 -1       386 2.65350E+01 4.00625E+00 0.00000E+00
 -1       387 2.95350E+01 4.00625E+00 0.00000E+00
 -1       388 3.25350E+01 4.00625E+00 0.00000E+00
 -1       389 3.55350E+01 4.00625E+00 0.00000E+00
 -1       390 3.85350E+01 4.00625E+00 0.00000E+00
 -1       391 4.15350E+01 4.00625E+00 0.00000E+00
 -1       392 4.45350E+01 4.00625E+00 0.00000E+00
 -1       393 4.75350E+01 4.00625E+00 0.00000E+00
 -1       394 5.05350E+01 4.00625E+00 0.00000E+00
 -1       395 5.35350E+01 4.00625E+00 0.00000E+00
 -1       396 5.65350E+01 4.00625E+00 0.00000E+00
 -1       397 5.95350E+01 4.00625E+00 0.00000E+00
 -1       398 6.25350E+01 4.00625E+00 0.00000E+00
 -1       399 6.55350E+01 4.00625E+00 0.00000E+00
 -1       400 6.85350E+01 4.00625E+00 0.00000E+00
 -1       401 7.15350E+01 4.00625E+00 0.00000E+00
 -1       402 7.45350E+01 4.00625E+00 0.00000E+00
 -1       403 7.75350E+01 4.00625E+00 0.00000E+00
 -1       404 8.05350E+01 4.00625E+00 0.00000E+00
 -1       405 8.35350E+01 4.00625E+00 0.00000E+00
 -1       406 8.65350E+01 4.00625E+00 0.00000E+00
 -1       407 8.95350E+01 4.00625E+00 0.00000E+00
 -1       408 9.25350E+01 4.00625E+00 0.00000E+00
 -1       409 9.55350E+01 4.00625E+00 0.00000E+00
 -1       410 9.85350E+01 4.00625E+00 0.00000E+00
 -1       411 1.01535E+02 4.00625E+00 0.00000E+00
 -1       412 1.04535E+02 4.00625E+00 0.00000E+00
 -1       413 1.07535E+02 4.00625E+00 0.00000E+00
 -1       414 1.10535E+02 4.00625E+00 0.00000E+00
 -1       415 1.13535E+02 4.00625E+00 0.00000E+00
 -1       416 1.16535E+02 4.00625E+00 0.00000E+00
 -1       417 1.19535E+02 4.00625E+00 0.00000E+00
 -1       418 1.22535E+02 4.00625E+00 0.00000E+00
 -1       419 1.25535E+02 4.00625E+00 0.00000E+00
 -1       420 1.28535E+02 4.00625E+00 0.00000E+00
 -1       421 1.31535E+02 4.00625E+00 0.00000E+00
 -1       422 1.34535E+02 4.00625E+00 0.00000E+00
 -1       423 1.37535E+02 4.00625E+00 0.00000E+00
 -1       424 1.40535E+02 4.00625E+00 0.00000E+00
 -1       425 1.43535E+02 4.00625E+00 0.00000E+00
 -1       426 1.45469E+02 4.21562E+00 0.00000E+00
 -1       427 1.44804E+02 1.18000E+01 0.00000E+00
 -1       428 1.44804E+02 8.85000E+00 0.00000E+00
 -1       429 1.45136E+02 6.53281E+00 0.00000E+00
 -1       430 1.44804E+02 1.47000E+01 0.00000E+00
 -1       431 1.44804E+02 1.76500E+01 0.00000E+00
 -1       432 1.44804E+02 2.06000E+01 0.00000E+00
 -1       433 1.44804E+02 2.35500E+01 0.00000E+00
 -1       434 1.44804E+02 2.65000E+01 0.00000E+00
 -1       435 1.44804E+02 2.94500E+01 0.00000E+00
 -1       436 1.44804E+02 3.23500E+01 0.00000E+00
 -1       437 1.44804E+02 3.53000E+01 0.00000E+00
 -1       438 1.44804E+02 3.82500E+01 0.00000E+00
 -1       439 1.44804E+02 4.12000E+01 0.00000E+00
 -1       440 5.16601E+01 2.12913E+01 0.00000E+00
 -1       441 5.26410E+01 2.55595E+01 0.00000E+00
 -1       442 5.25640E+01 2.30049E+01 0.00000E+00
 -1       443 5.08469E+01 1.95239E+01 0.00000E+00
 -1       444 4.88603E+01 1.76989E+01 0.00000E+00
 -1       445 5.19600E+00 3.82125E+01 0.00000E+00
 -1       446 4.54063E+01 1.60837E+01 0.00000E+00
 -1       447 4.30804E+01 1.53203E+01 0.00000E+00
 -1       448 4.13339E+01 1.55837E+01 0.00000E+00
 -1       449 3.90579E+01 1.64772E+01 0.00000E+00
 -1       450 3.71728E+01 1.76267E+01 0.00000E+00
 -1       451 3.58446E+01 1.90684E+01 0.00000E+00
 -1       452 3.43894E+01 2.07065E+01 0.00000E+00
 -1       453 3.39788E+01 2.26435E+01 0.00000E+00
 -1       454 3.31247E+01 2.44064E+01 0.00000E+00
 -1       455 3.31573E+01 2.65994E+01 0.00000E+00
 -1       456 3.41079E+01 2.89358E+01 0.00000E+00
 -1       457 3.49608E+01 3.05392E+01 0.00000E+00
 -1       458 3.62580E+01 3.24477E+01 0.00000E+00
 -1       459 3.76435E+01 3.36013E+01 0.00000E+00
 -1       460 3.98636E+01 3.47528E+01 0.00000E+00
 -1       461 4.15989E+01 3.50535E+01 0.00000E+00
 -1       462 4.38848E+01 3.48156E+01 0.00000E+00
 -1       463 4.58309E+01 3.44700E+01 0.00000E+00
 -1       464 4.77183E+01 3.37437E+01 0.00000E+00
 -1       465 4.92407E+01 3.25519E+01 0.00000E+00
 -1       466 5.09702E+01 3.10038E+01 0.00000E+00
 -1       467 5.16975E+01 2.92300E+01 0.00000E+00
 -1       468 5.22915E+01 2.72182E+01 0.00000E+00
 -1       469 4.73798E+01 1.68708E+01 0.00000E+00
 -1       470 5.06185E+01 1.78617E+01 0.00000E+00
 -1       471 5.37683E+01 2.41510E+01 0.00000E+00
 -1       472 3.25163E+01 2.80648E+01 0.00000E+00
 -1       473 1.00350E+01 6.60425E+00 0.00000E+00
 -1       474 7.79400E+00 3.08500E+01 0.00000E+00
 -1       475 7.79400E+00 3.38000E+01 0.00000E+00
 -1       476 7.79400E+00 2.49500E+01 0.00000E+00
 -1       477 7.79400E+00 2.20000E+01 0.00000E+00
 -1       478 7.79400E+00 1.91000E+01 0.00000E+00
 -1       479 7.79400E+00 1.61500E+01 0.00000E+00
 -1       480 7.79400E+00 1.32000E+01 0.00000E+00
 -1       481 7.79400E+00 1.02500E+01 0.00000E+00
 -1       482 1.30350E+01 6.60425E+00 0.00000E+00
 -1       483 1.06500E+01 4.22060E+01 0.00000E+00
 -1       484 4.69043E+01 1.51955E+01 0.00000E+00
 -1       485 1.36500E+01 4.22060E+01 0.00000E+00
 -1       486 1.66500E+01 4.22060E+01 0.00000E+00
 -1       487 1.96500E+01 4.22060E+01 0.00000E+00
 -1       488 2.26500E+01 4.22060E+01 0.00000E+00
 -1       489 2.56500E+01 4.22060E+01 0.00000E+00
 -1       490 2.86500E+01 4.22060E+01 0.00000E+00
 -1       491 3.16500E+01 4.22060E+01 0.00000E+00
 -1       492 3.46500E+01 4.22060E+01 0.00000E+00
 -1       493 3.76500E+01 4.22060E+01 0.00000E+00
 -1       494 4.06500E+01 4.22060E+01 0.00000E+00
 -1       495 4.36500E+01 4.22060E+01 0.00000E+00
 -1       496 4.66500E+01 4.22060E+01 0.00000E+00
 -1       497 4.96500E+01 4.22060E+01 0.00000E+00
 -1       498 5.26500E+01 4.22060E+01 0.00000E+00
 -1       499 5.56500E+01 4.22060E+01 0.00000E+00
 -1       500 5.86500E+01 4.22060E+01 0.00000E+00
 -1       501 6.16500E+01 4.22060E+01 0.00000E+00
 -1       502 6.46500E+01 4.22060E+01 0.00000E+00
 -1       503 6.76500E+01 4.22060E+01 0.00000E+00
 -1       504 7.06500E+01 4.22060E+01 0.00000E+00
 -1       505 7.36500E+01 4.22060E+01 0.00000E+00
 -1       506 7.66500E+01 4.22060E+01 0.00000E+00
 -1       507 7.96500E+01 4.22060E+01 0.00000E+00
 -1       508 8.26500E+01 4.22060E+01 0.00000E+00
 -1       509 8.56500E+01 4.22060E+01 0.00000E+00
 -1       510 8.86500E+01 4.22060E+01 0.00000E+00
 -1       511 9.16500E+01 4.22060E+01 0.00000E+00
 -1       512 9.46500E+01 4.22060E+01 0.00000E+00
 -1       513 9.76500E+01 4.22060E+01 0.00000E+00
 -1       514 1.00650E+02 4.22060E+01 0.00000E+00
 -1       515 1.03650E+02 4.22060E+01 0.00000E+00
 -1       516 1.06650E+02 4.22060E+01 0.00000E+00
 -1       517 1.09650E+02 4.22060E+01 0.00000E+00
 -1       518 1.12650E+02 4.22060E+01 0.00000E+00
 -1       519 1.15650E+02 4.22060E+01 0.00000E+00
 -1       520 1.18650E+02 4.22060E+01 0.00000E+00
 -1       521 1.21650E+02 4.22060E+01 0.00000E+00
 -1       522 1.24650E+02 4.22060E+01 0.00000E+00
 -1       523 1.27650E+02 4.22060E+01 0.00000E+00
 -1       524 1.30650E+02 4.22060E+01 0.00000E+00
 -1       525 1.33650E+02 4.22060E+01 0.00000E+00
 -1       526 1.36650E+02 4.22060E+01 0.00000E+00
 -1       527 1.39650E+02 4.22060E+01 0.00000E+00
 -1       528 1.90350E+01 6.60425E+00 0.00000E+00
 -1       529 2.20350E+01 6.60425E+00 0.00000E+00
 -1       530 2.50350E+01 6.60425E+00 0.00000E+00
 -1       531 2.80350E+01 6.60425E+00 0.00000E+00
 -1       532 3.10350E+01 6.60425E+00 0.00000E+00
 -1       533 3.40350E+01 6.60425E+00 0.00000E+00
 -1       534 3.70350E+01 6.60425E+00 0.00000E+00
 -1       535 4.00350E+01 6.60425E+00 0.00000E+00
 -1       536 4.30350E+01 6.60425E+00 0.00000E+00
 -1       537 4.60350E+01 6.60425E+00 0.00000E+00
 -1       538 4.90350E+01 6.60425E+00 0.00000E+00
 -1       539 5.20350E+01 6.60425E+00 0.00000E+00
 -1       540 5.50350E+01 6.60425E+00 0.00000E+00
 -1       541 5.80350E+01 6.60425E+00 0.00000E+00
 -1       542 6.10350E+01 6.60425E+00 0.00000E+00
 -1       543 6.40350E+01 6.60425E+00 0.00000E+00
 -1       544 6.70350E+01 6.60425E+00 0.00000E+00
 -1       545 7.00350E+01 6.60425E+00 0.00000E+00
 -1       546 7.30350E+01 6.60425E+00 0.00000E+00
 -1       547 7.60350E+01 6.60425E+00 0.00000E+00
 -1       548 7.90350E+01 6.60425E+00 0.00000E+00
 -1       549 8.20350E+01 6.60425E+00 0.00000E+00
 -1       550 8.50350E+01 6.60425E+00 0.00000E+00
 -1       551 8.80350E+01 6.60425E+00 0.00000E+00
 -1       552 9.10350E+01 6.60425E+00 0.00000E+00
 -1       553 9.40350E+01 6.60425E+00 0.00000E+00
 -1       554 9.70350E+01 6.60425E+00 0.00000E+00
 -1       555 1.00035E+02 6.60425E+00 0.00000E+00
 -1       556 1.03035E+02 6.60425E+00 0.00000E+00
 -1       557 1.06035E+02 6.60425E+00 0.00000E+00
 -1       558 1.09035E+02 6.60425E+00 0.00000E+00
 -1       559 1.12035E+02 6.60425E+00 0.00000E+00
 -1       560 1.15035E+02 6.60425E+00 0.00000E+00
 -1       561 1.18035E+02 6.60425E+00 0.00000E+00
 -1       562 1.21035E+02 6.60425E+00 0.00000E+00
 -1       563 1.24035E+02 6.60425E+00 0.00000E+00
 -1       564 1.27035E+02 6.60425E+00 0.00000E+00
 -1       565 1.30035E+02 6.60425E+00 0.00000E+00
 -1       566 1.33035E+02 6.60425E+00 0.00000E+00
 -1       567 1.36035E+02 6.60425E+00 0.00000E+00
 -1       568 1.39035E+02 6.60425E+00 0.00000E+00
 -1       569 1.42035E+02 6.60425E+00 0.00000E+00
 -1       570 1.42206E+02 1.61750E+01 0.00000E+00
 -1       571 1.42206E+02 1.91250E+01 0.00000E+00
 -1       572 1.42206E+02 1.03250E+01 0.00000E+00
 -1       573 1.42206E+02 1.32500E+01 0.00000E+00
 -1       574 1.42206E+02 2.20750E+01 0.00000E+00
 -1       575 1.42206E+02 2.50250E+01 0.00000E+00
 -1       576 1.42206E+02 2.79750E+01 0.00000E+00
 -1       577 1.42206E+02 3.08750E+01 0.00000E+00
 -1       578 1.42206E+02 3.38250E+01 0.00000E+00
 -1       579 1.42206E+02 3.67750E+01 0.00000E+00
 -1       580 1.42206E+02 3.97250E+01 0.00000E+00
 -1       581 5.28116E+01 1.96907E+01 0.00000E+00
 -1       582 1.60350E+01 6.60425E+00 0.00000E+00
 -1       583 4.88755E+01 1.59342E+01 0.00000E+00
 -1       584 5.36394E+01 2.87097E+01 0.00000E+00
 -1       585 5.37155E+01 2.14043E+01 0.00000E+00
 -1       586 5.39889E+01 2.70511E+01 0.00000E+00
 -1       587 7.79400E+00 2.79000E+01 0.00000E+00
 -1       588 4.48305E+01 1.39132E+01 0.00000E+00
 -1       589 3.71352E+01 1.54446E+01 0.00000E+00
 -1       590 4.19014E+01 1.34247E+01 0.00000E+00
 -1       591 4.51137E+01 3.60840E+01 0.00000E+00
 -1       592 3.96253E+01 1.43182E+01 0.00000E+00
 -1       593 3.50009E+01 1.69583E+01 0.00000E+00
 -1       594 3.35457E+01 1.85965E+01 0.00000E+00
 -1       595 3.27522E+01 2.13715E+01 0.00000E+00
 -1       596 3.18980E+01 2.31344E+01 0.00000E+00
 -1       597 3.10910E+01 2.55334E+01 0.00000E+00
 -1       598 3.32420E+01 3.04249E+01 0.00000E+00
 -1       599 3.41910E+01 3.24576E+01 0.00000E+00
 -1       600 3.59606E+01 3.42138E+01 0.00000E+00
 -1       601 3.80411E+01 3.55508E+01 0.00000E+00
 -1       602 4.04528E+01 3.65105E+01 0.00000E+00
 -1       603 4.29541E+01 3.69738E+01 0.00000E+00
 -1       604 4.73906E+01 3.57075E+01 0.00000E+00
 -1       605 4.95124E+01 3.44673E+01 0.00000E+00
 -1       606 5.12419E+01 3.29192E+01 0.00000E+00
 -1       607 5.26882E+01 3.06722E+01 0.00000E+00
 -1       608 7.92300E+00 4.16780E+01 0.00000E+00
 -1       609 7.61550E+00 6.21462E+00 0.00000E+00
 -1       610 7.79400E+00 3.67375E+01 0.00000E+00
 -1       611 5.29599E+01 3.25876E+01 0.00000E+00
 -1       612 5.25833E+01 1.80284E+01 0.00000E+00
 -1       613 5.49197E+01 2.25504E+01 0.00000E+00
 -1       614 5.51162E+01 2.56426E+01 0.00000E+00
 -1       615 1.41678E+02 4.22645E+01 0.00000E+00
 -1       616 3.19085E+01 1.92614E+01 0.00000E+00
 -1       617 3.04499E+01 2.69988E+01 0.00000E+00
 -1       618 5.06337E+01 1.60970E+01 0.00000E+00
 -1       619 1.03920E+01 2.05500E+01 0.00000E+00
 -1       620 1.03920E+01 2.35000E+01 0.00000E+00
 -1       621 1.03920E+01 1.46750E+01 0.00000E+00
 -1       622 1.03920E+01 1.17250E+01 0.00000E+00
 -1       623 1.15350E+01 9.20225E+00 0.00000E+00
 -1       624 1.40178E+02 3.96665E+01 0.00000E+00
 -1       625 1.51500E+01 3.96080E+01 0.00000E+00
 -1       626 1.81500E+01 3.96080E+01 0.00000E+00
 -1       627 2.11500E+01 3.96080E+01 0.00000E+00
 -1       628 2.41500E+01 3.96080E+01 0.00000E+00
 -1       629 2.71500E+01 3.96080E+01 0.00000E+00
 -1       630 3.01500E+01 3.96080E+01 0.00000E+00
 -1       631 3.31500E+01 3.96080E+01 0.00000E+00
 -1       632 3.61500E+01 3.96080E+01 0.00000E+00
 -1       633 3.91500E+01 3.96080E+01 0.00000E+00
 -1       634 4.21500E+01 3.96080E+01 0.00000E+00
 -1       635 4.51500E+01 3.96080E+01 0.00000E+00
 -1       636 4.81500E+01 3.96080E+01 0.00000E+00
 -1       637 5.11500E+01 3.96080E+01 0.00000E+00
 -1       638 5.41500E+01 3.96080E+01 0.00000E+00
 -1       639 5.71500E+01 3.96080E+01 0.00000E+00
 -1       640 6.01500E+01 3.96080E+01 0.00000E+00
 -1       641 6.31500E+01 3.96080E+01 0.00000E+00
 -1       642 6.61500E+01 3.96080E+01 0.00000E+00
 -1       643 6.91500E+01 3.96080E+01 0.00000E+00
 -1       644 7.21500E+01 3.96080E+01 0.00000E+00
 -1       645 7.51500E+01 3.96080E+01 0.00000E+00
 -1       646 7.81500E+01 3.96080E+01 0.00000E+00
 -1       647 8.11500E+01 3.96080E+01 0.00000E+00
 -1       648 8.41500E+01 3.96080E+01 0.00000E+00
 -1       649 8.71500E+01 3.96080E+01 0.00000E+00
 -1       650 9.01500E+01 3.96080E+01 0.00000E+00
 -1       651 9.31500E+01 3.96080E+01 0.00000E+00
 -1       652 9.61500E+01 3.96080E+01 0.00000E+00
 -1       653 9.91500E+01 3.96080E+01 0.00000E+00
 -1       654 1.02150E+02 3.96080E+01 0.00000E+00
 -1       655 1.05150E+02 3.96080E+01 0.00000E+00
 -1       656 1.08150E+02 3.96080E+01 0.00000E+00
 -1       657 1.11150E+02 3.96080E+01 0.00000E+00
 -1       658 1.14150E+02 3.96080E+01 0.00000E+00
 -1       659 1.17150E+02 3.96080E+01 0.00000E+00
 -1       660 1.20150E+02 3.96080E+01 0.00000E+00
 -1       661 1.23150E+02 3.96080E+01 0.00000E+00
 -1       662 1.26150E+02 3.96080E+01 0.00000E+00
 -1       663 1.29150E+02 3.96080E+01 0.00000E+00
 -1       664 1.32150E+02 3.96080E+01 0.00000E+00
 -1       665 1.35150E+02 3.96080E+01 0.00000E+00
 -1       666 1.37664E+02 3.96372E+01 0.00000E+00
 -1       667 2.35350E+01 9.20225E+00 0.00000E+00
 -1       668 3.58924E+01 3.66071E+01 0.00000E+00
 -1       669 2.05350E+01 9.20225E+00 0.00000E+00
 -1       670 2.95350E+01 9.20225E+00 0.00000E+00
 -1       671 3.25350E+01 9.20225E+00 0.00000E+00
 -1       672 3.55350E+01 9.20225E+00 0.00000E+00
 -1       673 3.85350E+01 9.20225E+00 0.00000E+00
 -1       674 4.15350E+01 9.20225E+00 0.00000E+00
 -1       675 4.45350E+01 9.20225E+00 0.00000E+00
 -1       676 4.75350E+01 9.20225E+00 0.00000E+00
 -1       677 5.05350E+01 9.20225E+00 0.00000E+00
 -1       678 5.35350E+01 9.20225E+00 0.00000E+00
 -1       679 5.65350E+01 9.20225E+00 0.00000E+00
 -1       680 5.95350E+01 9.20225E+00 0.00000E+00
 -1       681 6.25350E+01 9.20225E+00 0.00000E+00
 -1       682 6.55350E+01 9.20225E+00 0.00000E+00
 -1       683 6.85350E+01 9.20225E+00 0.00000E+00
 -1       684 7.15350E+01 9.20225E+00 0.00000E+00
 -1       685 7.45350E+01 9.20225E+00 0.00000E+00
 -1       686 7.75350E+01 9.20225E+00 0.00000E+00
 -1       687 8.05350E+01 9.20225E+00 0.00000E+00
 -1       688 8.35350E+01 9.20225E+00 0.00000E+00
 -1       689 8.65350E+01 9.20225E+00 0.00000E+00
 -1       690 8.95350E+01 9.20225E+00 0.00000E+00
 -1       691 9.25350E+01 9.20225E+00 0.00000E+00
 -1       692 9.55350E+01 9.20225E+00 0.00000E+00
 -1       693 9.85350E+01 9.20225E+00 0.00000E+00
 -1       694 1.01535E+02 9.20225E+00 0.00000E+00
 -1       695 1.04535E+02 9.20225E+00 0.00000E+00
 -1       696 1.07535E+02 9.20225E+00 0.00000E+00
 -1       697 1.10535E+02 9.20225E+00 0.00000E+00
 -1       698 1.13535E+02 9.20225E+00 0.00000E+00
 -1       699 1.16535E+02 9.20225E+00 0.00000E+00
 -1       700 1.19535E+02 9.20225E+00 0.00000E+00
 -1       701 1.22535E+02 9.20225E+00 0.00000E+00
 -1       702 1.25535E+02 9.20225E+00 0.00000E+00
 -1       703 1.28535E+02 9.20225E+00 0.00000E+00
 -1       704 1.31535E+02 9.20225E+00 0.00000E+00
 -1       705 1.34535E+02 9.20225E+00 0.00000E+00
 -1       706 1.37535E+02 9.20225E+00 0.00000E+00
 -1       707 1.39870E+02 9.76363E+00 0.00000E+00
 -1       708 1.39608E+02 2.35500E+01 0.00000E+00
 -1       709 1.39608E+02 1.76500E+01 0.00000E+00
 -1       710 1.39608E+02 2.65000E+01 0.00000E+00
 -1       711 1.39608E+02 2.06000E+01 0.00000E+00
 -1       712 1.75350E+01 9.20225E+00 0.00000E+00
 -1       713 1.39608E+02 2.94000E+01 0.00000E+00
 -1       714 1.39608E+02 3.23500E+01 0.00000E+00
 -1       715 1.39608E+02 3.53000E+01 0.00000E+00
 -1       716 5.56564E+01 2.82686E+01 0.00000E+00
 -1       717 4.84624E+01 1.40373E+01 0.00000E+00
 -1       718 4.94861E+01 3.68575E+01 0.00000E+00
 -1       719 5.49287E+01 1.96690E+01 0.00000E+00
 -1       720 2.65350E+01 9.20225E+00 0.00000E+00
 -1       721 1.21500E+01 3.96080E+01 0.00000E+00
 -1       722 1.03920E+01 1.76125E+01 0.00000E+00
 -1       723 1.45350E+01 9.20225E+00 0.00000E+00
 -1       724 4.37308E+01 1.14813E+01 0.00000E+00
 -1       725 1.03920E+01 3.23250E+01 0.00000E+00
 -1       726 4.65593E+01 3.77532E+01 0.00000E+00
 -1       727 4.00754E+01 1.21190E+01 0.00000E+00
 -1       728 3.75353E+01 1.30133E+01 0.00000E+00
 -1       729 3.29910E+01 1.66384E+01 0.00000E+00
 -1       730 3.09324E+01 2.15781E+01 0.00000E+00
 -1       731 3.50758E+01 1.48025E+01 0.00000E+00
 -1       732 2.93924E+01 2.36268E+01 0.00000E+00
 -1       733 3.21624E+01 3.21668E+01 0.00000E+00
 -1       734 3.36316E+01 3.47910E+01 0.00000E+00
 -1       735 3.83041E+01 3.75668E+01 0.00000E+00
 -1       736 4.63886E+01 1.27550E+01 0.00000E+00
 -1       737 3.13199E+01 2.97243E+01 0.00000E+00
 -1       738 5.47052E+01 3.02311E+01 0.00000E+00
 -1       739 5.16328E+01 3.50960E+01 0.00000E+00
 -1       740 1.03920E+01 3.52625E+01 0.00000E+00
 -1       741 1.03920E+01 2.64500E+01 0.00000E+00
 -1       742 5.49769E+01 3.21465E+01 0.00000E+00
 -1       743 5.25984E+01 1.62638E+01 0.00000E+00
 -1       744 5.47004E+01 1.80068E+01 0.00000E+00
 -1       745 5.61329E+01 2.08151E+01 0.00000E+00
 -1       746 1.39870E+02 1.26886E+01 0.00000E+00
 -1       747 5.62677E+01 2.40419E+01 0.00000E+00
 -1       748 5.02206E+01 1.42000E+01 0.00000E+00
 -1       749 2.87513E+01 2.50922E+01 0.00000E+00
 -1       750 1.03920E+01 2.93875E+01 0.00000E+00
 -1       751 4.48150E+01 3.84246E+01 0.00000E+00
 -1       752 3.13538E+01 1.73033E+01 0.00000E+00
 -1       753 1.39739E+02 1.51693E+01 0.00000E+00
 -1       754 1.05210E+01 3.87342E+01 0.00000E+00
 -1       755 5.33508E+01 3.47645E+01 0.00000E+00
 -1       756 1.33920E+01 1.17250E+01 0.00000E+00
 -1       757 1.66500E+01 3.70100E+01 0.00000E+00
 -1       758 1.96500E+01 3.70100E+01 0.00000E+00
 -1       759 2.26500E+01 3.70100E+01 0.00000E+00
 -1       760 2.56500E+01 3.70100E+01 0.00000E+00
 -1       761 2.86500E+01 3.70100E+01 0.00000E+00
 -1       762 3.16500E+01 3.70100E+01 0.00000E+00
 -1       763 5.26500E+01 3.70100E+01 0.00000E+00
 -1       764 5.56500E+01 3.70100E+01 0.00000E+00
 -1       765 5.86500E+01 3.70100E+01 0.00000E+00
 -1       766 6.16500E+01 3.70100E+01 0.00000E+00
 -1       767 6.46500E+01 3.70100E+01 0.00000E+00
 -1       768 6.76500E+01 3.70100E+01 0.00000E+00
 -1       769 7.06500E+01 3.70100E+01 0.00000E+00
 -1       770 7.36500E+01 3.70100E+01 0.00000E+00
 -1       771 7.66500E+01 3.70100E+01 0.00000E+00
 -1       772 7.96500E+01 3.70100E+01 0.00000E+00
 -1       773 8.26500E+01 3.70100E+01 0.00000E+00
 -1       774 8.56500E+01 3.70100E+01 0.00000E+00
 -1       775 8.86500E+01 3.70100E+01 0.00000E+00
 -1       776 9.16500E+01 3.70100E+01 0.00000E+00
 -1       777 9.46500E+01 3.70100E+01 0.00000E+00
 -1       778 9.76500E+01 3.70100E+01 0.00000E+00
 -1       779 1.00650E+02 3.70100E+01 0.00000E+00
 -1       780 1.03650E+02 3.70100E+01 0.00000E+00
 -1       781 1.06650E+02 3.70100E+01 0.00000E+00
 -1       782 1.09650E+02 3.70100E+01 0.00000E+00
 -1       783 1.12650E+02 3.70100E+01 0.00000E+00
 -1       784 1.15650E+02 3.70100E+01 0.00000E+00
 -1       785 1.18650E+02 3.70100E+01 0.00000E+00
 -1       786 1.21650E+02 3.70100E+01 0.00000E+00
 -1       787 1.24650E+02 3.70100E+01 0.00000E+00
 -1       788 1.27650E+02 3.70100E+01 0.00000E+00
 -1       789 1.30650E+02 3.70100E+01 0.00000E+00
 -1       790 1.33650E+02 3.70100E+01 0.00000E+00
 -1       791 4.85918E+01 1.15098E+01 0.00000E+00
 -1       792 1.37010E+02 2.79500E+01 0.00000E+00
 -1       793 3.40350E+01 1.18003E+01 0.00000E+00
 -1       794 3.10350E+01 1.18003E+01 0.00000E+00
 -1       795 5.20350E+01 1.18003E+01 0.00000E+00
 -1       796 5.50350E+01 1.18003E+01 0.00000E+00
 -1       797 5.80350E+01 1.18003E+01 0.00000E+00
 -1       798 6.10350E+01 1.18003E+01 0.00000E+00
 -1       799 6.40350E+01 1.18003E+01 0.00000E+00
 -1       800 6.70350E+01 1.18003E+01 0.00000E+00
 -1       801 7.00350E+01 1.18003E+01 0.00000E+00
 -1       802 7.30350E+01 1.18003E+01 0.00000E+00
 -1       803 7.60350E+01 1.18003E+01 0.00000E+00
 -1       804 7.90350E+01 1.18003E+01 0.00000E+00
 -1       805 8.20350E+01 1.18003E+01 0.00000E+00
 -1       806 8.50350E+01 1.18003E+01 0.00000E+00
 -1       807 8.80350E+01 1.18003E+01 0.00000E+00
 -1       808 9.10350E+01 1.18003E+01 0.00000E+00
 -1       809 9.40350E+01 1.18003E+01 0.00000E+00
 -1       810 9.70350E+01 1.18003E+01 0.00000E+00
 -1       811 1.00035E+02 1.18003E+01 0.00000E+00
 -1       812 1.03035E+02 1.18003E+01 0.00000E+00
 -1       813 1.06035E+02 1.18003E+01 0.00000E+00
 -1       814 1.09035E+02 1.18003E+01 0.00000E+00
 -1       815 1.12035E+02 1.18003E+01 0.00000E+00
 -1       816 1.15035E+02 1.18003E+01 0.00000E+00
 -1       817 1.18035E+02 1.18003E+01 0.00000E+00
 -1       818 1.21035E+02 1.18003E+01 0.00000E+00
 -1       819 1.24035E+02 1.18003E+01 0.00000E+00
 -1       820 1.27035E+02 1.18003E+01 0.00000E+00
 -1       821 1.30035E+02 1.18003E+01 0.00000E+00
 -1       822 1.33035E+02 1.18003E+01 0.00000E+00
 -1       823 1.36035E+02 1.18003E+01 0.00000E+00
 -1       824 1.37953E+02 1.22444E+01 0.00000E+00
 -1       825 1.90350E+01 1.18003E+01 0.00000E+00
 -1       826 5.67242E+01 2.99979E+01 0.00000E+00
 -1       827 1.29900E+01 2.20250E+01 0.00000E+00
 -1       828 1.37010E+02 2.50000E+01 0.00000E+00
 -1       829 1.37010E+02 3.38250E+01 0.00000E+00
 -1       830 4.02829E+01 3.88786E+01 0.00000E+00
 -1       831 2.92510E+01 2.88831E+01 0.00000E+00
 -1       832 1.37010E+02 3.08875E+01 0.00000E+00
 -1       833 5.73945E+01 2.65424E+01 0.00000E+00
 -1       834 2.20350E+01 1.18003E+01 0.00000E+00
 -1       835 2.99614E+01 3.15595E+01 0.00000E+00
 -1       836 3.08057E+01 3.42847E+01 0.00000E+00
 -1       837 2.85236E+01 2.13705E+01 0.00000E+00
 -1       838 2.94996E+01 1.90538E+01 0.00000E+00
 -1       839 1.36500E+01 3.70100E+01 0.00000E+00
 -1       840 1.20210E+01 3.61362E+01 0.00000E+00
 -1       841 1.37337E+02 3.67311E+01 0.00000E+00
 -1       842 1.29900E+01 2.49750E+01 0.00000E+00
 -1       843 5.21853E+01 1.43668E+01 0.00000E+00
 -1       844 1.29900E+01 1.90875E+01 0.00000E+00
 -1       845 1.37136E+01 1.50524E+01 0.00000E+00
 -1       846 5.71754E+01 1.85142E+01 0.00000E+00
 -1       847 1.20210E+01 3.31987E+01 0.00000E+00
 -1       848 2.80350E+01 1.18003E+01 0.00000E+00
 -1       849 5.84623E+01 2.82718E+01 0.00000E+00
 -1       850 1.37010E+02 1.91250E+01 0.00000E+00
 -1       851 1.37010E+02 2.20625E+01 0.00000E+00
 -1       852 5.74809E+01 2.23067E+01 0.00000E+00
 -1       853 5.53678E+01 3.43233E+01 0.00000E+00
 -1       854 2.75524E+01 2.69765E+01 0.00000E+00
 -1       855 1.20210E+01 3.02612E+01 0.00000E+00
 -1       856 3.20130E+01 1.42193E+01 0.00000E+00
 -1       857 1.62135E+01 1.17626E+01 0.00000E+00
 -1       858 1.37141E+02 1.66443E+01 0.00000E+00
 -1       859 2.50350E+01 1.18003E+01 0.00000E+00
 -1       860 2.68883E+01 2.32956E+01 0.00000E+00
 -1       861 1.81500E+01 3.44120E+01 0.00000E+00
 -1       862 5.85233E+01 2.00058E+01 0.00000E+00
 -1       863 2.11500E+01 3.44120E+01 0.00000E+00
 -1       864 2.41500E+01 3.44120E+01 0.00000E+00
 -1       865 2.71500E+01 3.44120E+01 0.00000E+00
 -1       866 5.64506E+01 1.57595E+01 0.00000E+00
 -1       867 6.01500E+01 3.44120E+01 0.00000E+00
 -1       868 6.31500E+01 3.44120E+01 0.00000E+00
 -1       869 6.61500E+01 3.44120E+01 0.00000E+00
 -1       870 6.91500E+01 3.44120E+01 0.00000E+00
 -1       871 7.21500E+01 3.44120E+01 0.00000E+00
 -1       872 7.51500E+01 3.44120E+01 0.00000E+00
 -1       873 7.81500E+01 3.44120E+01 0.00000E+00
 -1       874 8.11500E+01 3.44120E+01 0.00000E+00
 -1       875 8.41500E+01 3.44120E+01 0.00000E+00
 -1       876 8.71500E+01 3.44120E+01 0.00000E+00
 -1       877 9.01500E+01 3.44120E+01 0.00000E+00
 -1       878 9.31500E+01 3.44120E+01 0.00000E+00
 -1       879 9.61500E+01 3.44120E+01 0.00000E+00
 -1       880 9.91500E+01 3.44120E+01 0.00000E+00
 -1       881 1.02150E+02 3.44120E+01 0.00000E+00
 -1       882 1.05150E+02 3.44120E+01 0.00000E+00
 -1       883 1.08150E+02 3.44120E+01 0.00000E+00
 -1       884 1.11150E+02 3.44120E+01 0.00000E+00
 -1       885 1.14150E+02 3.44120E+01 0.00000E+00
 -1       886 1.17150E+02 3.44120E+01 0.00000E+00
 -1       887 1.20150E+02 3.44120E+01 0.00000E+00
 -1       888 1.23150E+02 3.44120E+01 0.00000E+00
 -1       889 1.26150E+02 3.44120E+01 0.00000E+00
 -1       890 1.29150E+02 3.44120E+01 0.00000E+00
 -1       891 1.32150E+02 3.44120E+01 0.00000E+00
 -1       892 1.36500E+01 3.40725E+01 0.00000E+00
 -1       893 6.25350E+01 1.43982E+01 0.00000E+00
 -1       894 6.55350E+01 1.43982E+01 0.00000E+00
 -1       895 6.85350E+01 1.43982E+01 0.00000E+00
 -1       896 7.15350E+01 1.43982E+01 0.00000E+00
 -1       897 7.45350E+01 1.43982E+01 0.00000E+00
 -1       898 7.75350E+01 1.43982E+01 0.00000E+00
 -1       899 8.05350E+01 1.43982E+01 0.00000E+00
 -1       900 8.35350E+01 1.43982E+01 0.00000E+00
 -1       901 8.65350E+01 1.43982E+01 0.00000E+00
 -1       902 8.95350E+01 1.43982E+01 0.00000E+00
 -1       903 9.25350E+01 1.43982E+01 0.00000E+00
 -1       904 9.55350E+01 1.43982E+01 0.00000E+00
 -1       905 9.85350E+01 1.43982E+01 0.00000E+00
 -1       906 1.01535E+02 1.43982E+01 0.00000E+00
 -1       907 1.04535E+02 1.43982E+01 0.00000E+00
 -1       908 1.07535E+02 1.43982E+01 0.00000E+00
 -1       909 1.10535E+02 1.43982E+01 0.00000E+00
 -1       910 1.13535E+02 1.43982E+01 0.00000E+00
 -1       911 1.16535E+02 1.43982E+01 0.00000E+00
 -1       912 1.19535E+02 1.43982E+01 0.00000E+00
 -1       913 1.22535E+02 1.43982E+01 0.00000E+00
 -1       914 1.25535E+02 1.43982E+01 0.00000E+00
 -1       915 1.28535E+02 1.43982E+01 0.00000E+00
 -1       916 1.31535E+02 1.43982E+01 0.00000E+00
 -1       917 1.34535E+02 1.43982E+01 0.00000E+00
 -1       918 1.34412E+02 2.64750E+01 0.00000E+00
 -1       919 2.87892E+01 1.64440E+01 0.00000E+00
 -1       920 1.25055E+01 2.76181E+01 0.00000E+00
 -1       921 5.95350E+01 1.43982E+01 0.00000E+00
 -1       922 1.34580E+02 3.41185E+01 0.00000E+00
 -1       923 2.68133E+01 1.92860E+01 0.00000E+00
 -1       924 2.05350E+01 1.43982E+01 0.00000E+00
 -1       925 2.73006E+01 3.08333E+01 0.00000E+00
 -1       926 5.58601E+01 1.43825E+01 0.00000E+00
 -1       927 2.56894E+01 2.51799E+01 0.00000E+00
 -1       928 1.59000E+01 3.42422E+01 0.00000E+00
 -1       929 2.84121E+01 1.41221E+01 0.00000E+00
 -1       930 1.37547E+02 1.44444E+01 0.00000E+00
 -1       931 5.73112E+01 3.22600E+01 0.00000E+00
 -1       932 5.86077E+01 2.48072E+01 0.00000E+00
 -1       933 2.51781E+01 2.12111E+01 0.00000E+00
 -1       934 1.70321E+01 1.49794E+01 0.00000E+00
 -1       935 5.96755E+01 2.65366E+01 0.00000E+00
 -1       936 5.97769E+01 1.75181E+01 0.00000E+00
 -1       937 1.34412E+02 2.35375E+01 0.00000E+00
 -1       938 1.63085E+01 1.90145E+01 0.00000E+00
 -1       939 1.36500E+01 3.11350E+01 0.00000E+00
 -1       940 1.34580E+02 3.11810E+01 0.00000E+00
 -1       941 5.90493E+01 3.05339E+01 0.00000E+00
 -1       942 1.34412E+02 2.06000E+01 0.00000E+00
 -1       943 1.55880E+01 2.35000E+01 0.00000E+00
 -1       944 2.56021E+01 2.89266E+01 0.00000E+00
 -1       945 1.34543E+02 1.81193E+01 0.00000E+00
 -1       946 2.35350E+01 1.43982E+01 0.00000E+00
 -1       947 1.34496E+02 2.88280E+01 0.00000E+00
 -1       948 2.39792E+01 2.30954E+01 0.00000E+00
 -1       949 1.59482E+01 2.12572E+01 0.00000E+00
 -1       950 1.96500E+01 3.18140E+01 0.00000E+00
 -1       951 2.26500E+01 3.18140E+01 0.00000E+00
 -1       952 2.49753E+01 3.13236E+01 0.00000E+00
 -1       953 6.70350E+01 1.69963E+01 0.00000E+00
 -1       954 6.16500E+01 3.18140E+01 0.00000E+00
 -1       955 6.46500E+01 3.18140E+01 0.00000E+00
 -1       956 6.76500E+01 3.18140E+01 0.00000E+00
 -1       957 7.06500E+01 3.18140E+01 0.00000E+00
 -1       958 7.36500E+01 3.18140E+01 0.00000E+00
 -1       959 7.66500E+01 3.18140E+01 0.00000E+00
 -1       960 7.96500E+01 3.18140E+01 0.00000E+00
 -1       961 8.26500E+01 3.18140E+01 0.00000E+00
 -1       962 8.56500E+01 3.18140E+01 0.00000E+00
 -1       963 8.86500E+01 3.18140E+01 0.00000E+00
 -1       964 9.16500E+01 3.18140E+01 0.00000E+00
 -1       965 9.46500E+01 3.18140E+01 0.00000E+00
 -1       966 9.76500E+01 3.18140E+01 0.00000E+00
 -1       967 1.00650E+02 3.18140E+01 0.00000E+00
 -1       968 1.03650E+02 3.18140E+01 0.00000E+00
 -1       969 1.06650E+02 3.18140E+01 0.00000E+00
 -1       970 1.09650E+02 3.18140E+01 0.00000E+00
 -1       971 1.12650E+02 3.18140E+01 0.00000E+00
 -1       972 1.15650E+02 3.18140E+01 0.00000E+00
 -1       973 1.18650E+02 3.18140E+01 0.00000E+00
 -1       974 1.21650E+02 3.18140E+01 0.00000E+00
 -1       975 1.24650E+02 3.18140E+01 0.00000E+00
 -1       976 1.27650E+02 3.18140E+01 0.00000E+00
 -1       977 1.30650E+02 3.18140E+01 0.00000E+00
 -1       978 6.40350E+01 1.69963E+01 0.00000E+00
 -1       979 7.30350E+01 1.69963E+01 0.00000E+00
 -1       980 7.60350E+01 1.69963E+01 0.00000E+00
 -1       981 7.90350E+01 1.69963E+01 0.00000E+00
 -1       982 8.20350E+01 1.69963E+01 0.00000E+00
 -1       983 8.50350E+01 1.69963E+01 0.00000E+00
 -1       984 8.80350E+01 1.69963E+01 0.00000E+00
 -1       985 9.10350E+01 1.69963E+01 0.00000E+00
 -1       986 9.40350E+01 1.69963E+01 0.00000E+00
 -1       987 9.70350E+01 1.69963E+01 0.00000E+00
 -1       988 1.00035E+02 1.69963E+01 0.00000E+00
 -1       989 1.03035E+02 1.69963E+01 0.00000E+00
 -1       990 1.06035E+02 1.69963E+01 0.00000E+00
 -1       991 1.09035E+02 1.69963E+01 0.00000E+00
 -1       992 1.12035E+02 1.69963E+01 0.00000E+00
 -1       993 1.15035E+02 1.69963E+01 0.00000E+00
 -1       994 1.18035E+02 1.69963E+01 0.00000E+00
 -1       995 1.21035E+02 1.69963E+01 0.00000E+00
 -1       996 1.24035E+02 1.69963E+01 0.00000E+00
 -1       997 1.27035E+02 1.69963E+01 0.00000E+00
 -1       998 1.30035E+02 1.69963E+01 0.00000E+00
 -1       999 1.98114E+01 1.84333E+01 0.00000E+00
 -1      1000 6.14702E+01 1.99310E+01 0.00000E+00
 -1      1001 2.40156E+01 1.85666E+01 0.00000E+00
 -1      1002 1.32615E+02 3.14975E+01 0.00000E+00
 -1      1003 2.59735E+01 1.42602E+01 0.00000E+00
 -1      1004 1.55717E+01 2.64968E+01 0.00000E+00
 -1      1005 7.00350E+01 1.69963E+01 0.00000E+00
 -1      1006 2.62139E+01 1.63444E+01 0.00000E+00
 -1      1007 6.00389E+01 2.23691E+01 0.00000E+00
 -1      1008 2.28167E+01 2.04509E+01 0.00000E+00
 -1      1009 6.11067E+01 2.40984E+01 0.00000E+00
 -1      1010 6.10350E+01 1.69963E+01 0.00000E+00
 -1      1011 1.33035E+02 1.69963E+01 0.00000E+00
 -1      1012 6.07403E+01 2.88879E+01 0.00000E+00
 -1      1013 1.31814E+02 2.20688E+01 0.00000E+00
 -1      1014 1.74000E+01 3.16443E+01 0.00000E+00
 -1      1015 1.31945E+02 1.95881E+01 0.00000E+00
 -1      1016 1.31814E+02 2.50063E+01 0.00000E+00
 -1      1017 1.46108E+01 2.88159E+01 0.00000E+00
 -1      1018 1.83332E+01 2.27906E+01 0.00000E+00
 -1      1019 1.83169E+01 2.57874E+01 0.00000E+00
 -1      1020 1.31898E+02 2.73592E+01 0.00000E+00
 -1      1021 2.30485E+01 2.69927E+01 0.00000E+00
 -1      1022 6.61500E+01 2.92160E+01 0.00000E+00
 -1      1023 6.91500E+01 2.92160E+01 0.00000E+00
 -1      1024 7.21500E+01 2.92160E+01 0.00000E+00
 -1      1025 7.51500E+01 2.92160E+01 0.00000E+00
 -1      1026 7.81500E+01 2.92160E+01 0.00000E+00
 -1      1027 8.11500E+01 2.92160E+01 0.00000E+00
 -1      1028 8.41500E+01 2.92160E+01 0.00000E+00
 -1      1029 8.71500E+01 2.92160E+01 0.00000E+00
 -1      1030 9.01500E+01 2.92160E+01 0.00000E+00
 -1      1031 9.31500E+01 2.92160E+01 0.00000E+00
 -1      1032 9.61500E+01 2.92160E+01 0.00000E+00
 -1      1033 9.91500E+01 2.92160E+01 0.00000E+00
 -1      1034 1.02150E+02 2.92160E+01 0.00000E+00
 -1      1035 1.05150E+02 2.92160E+01 0.00000E+00
 -1      1036 1.08150E+02 2.92160E+01 0.00000E+00
 -1      1037 1.11150E+02 2.92160E+01 0.00000E+00
 -1      1038 1.14150E+02 2.92160E+01 0.00000E+00
 -1      1039 1.17150E+02 2.92160E+01 0.00000E+00
 -1      1040 1.20150E+02 2.92160E+01 0.00000E+00
 -1      1041 1.23150E+02 2.92160E+01 0.00000E+00
 -1      1042 1.26150E+02 2.92160E+01 0.00000E+00
 -1      1043 1.29150E+02 2.92160E+01 0.00000E+00
 -1      1044 8.05350E+01 1.95942E+01 0.00000E+00
 -1      1045 6.55350E+01 1.95942E+01 0.00000E+00
 -1      1046 7.75350E+01 1.95942E+01 0.00000E+00
 -1      1047 7.45350E+01 1.95942E+01 0.00000E+00
 -1      1048 8.35350E+01 1.95942E+01 0.00000E+00
 -1      1049 8.65350E+01 1.95942E+01 0.00000E+00
 -1      1050 8.95350E+01 1.95942E+01 0.00000E+00
 -1      1051 9.25350E+01 1.95942E+01 0.00000E+00
 -1      1052 9.55350E+01 1.95942E+01 0.00000E+00
 -1      1053 9.85350E+01 1.95942E+01 0.00000E+00
 -1      1054 1.01535E+02 1.95942E+01 0.00000E+00
 -1      1055 1.04535E+02 1.95942E+01 0.00000E+00
 -1      1056 1.07535E+02 1.95942E+01 0.00000E+00
 -1      1057 1.10535E+02 1.95942E+01 0.00000E+00
 -1      1058 1.13535E+02 1.95942E+01 0.00000E+00
 -1      1059 1.16535E+02 1.95942E+01 0.00000E+00
 -1      1060 1.19535E+02 1.95942E+01 0.00000E+00
 -1      1061 1.22535E+02 1.95942E+01 0.00000E+00
 -1      1062 1.25535E+02 1.95942E+01 0.00000E+00
 -1      1063 1.28535E+02 1.95942E+01 0.00000E+00
 -1      1064 6.21715E+01 2.64498E+01 0.00000E+00
 -1      1065 2.27304E+01 1.68743E+01 0.00000E+00
 -1      1066 2.24217E+01 2.93897E+01 0.00000E+00
 -1      1067 1.90723E+01 2.06120E+01 0.00000E+00
 -1      1068 1.32257E+02 2.94284E+01 0.00000E+00
 -1      1069 1.29216E+02 2.35375E+01 0.00000E+00
 -1      1070 2.09869E+01 2.44406E+01 0.00000E+00
 -1      1071 6.41038E+01 2.20324E+01 0.00000E+00
 -1      1072 6.34451E+01 2.90519E+01 0.00000E+00
 -1      1073 1.29300E+02 2.58905E+01 0.00000E+00
 -1      1074 1.73561E+01 2.81065E+01 0.00000E+00
 -1      1075 7.15350E+01 1.95942E+01 0.00000E+00
 -1      1076 2.03184E+01 2.81273E+01 0.00000E+00
 -1      1077 6.85350E+01 1.95942E+01 0.00000E+00
 -1      1078 6.76500E+01 2.66180E+01 0.00000E+00
 -1      1079 1.26216E+02 2.35375E+01 0.00000E+00
 -1      1080 7.06500E+01 2.66180E+01 0.00000E+00
 -1      1081 7.36500E+01 2.66180E+01 0.00000E+00
 -1      1082 7.66500E+01 2.66180E+01 0.00000E+00
 -1      1083 7.96500E+01 2.66180E+01 0.00000E+00
 -1      1084 8.26500E+01 2.66180E+01 0.00000E+00
 -1      1085 8.56500E+01 2.66180E+01 0.00000E+00
 -1      1086 8.86500E+01 2.66180E+01 0.00000E+00
 -1      1087 9.16500E+01 2.66180E+01 0.00000E+00
 -1      1088 9.46500E+01 2.66180E+01 0.00000E+00
 -1      1089 9.76500E+01 2.66180E+01 0.00000E+00
 -1      1090 1.00650E+02 2.66180E+01 0.00000E+00
 -1      1091 1.03650E+02 2.66180E+01 0.00000E+00
 -1      1092 1.06650E+02 2.66180E+01 0.00000E+00
 -1      1093 1.09650E+02 2.66180E+01 0.00000E+00
 -1      1094 1.12650E+02 2.66180E+01 0.00000E+00
 -1      1095 1.15650E+02 2.66180E+01 0.00000E+00
 -1      1096 1.18650E+02 2.66180E+01 0.00000E+00
 -1      1097 1.21650E+02 2.66180E+01 0.00000E+00
 -1      1098 1.24650E+02 2.66180E+01 0.00000E+00
 -1      1099 8.50350E+01 2.21922E+01 0.00000E+00
 -1      1100 6.71038E+01 2.20324E+01 0.00000E+00
 -1      1101 8.20350E+01 2.21922E+01 0.00000E+00
 -1      1102 7.60350E+01 2.21922E+01 0.00000E+00
 -1      1103 8.80350E+01 2.21922E+01 0.00000E+00
 -1      1104 9.10350E+01 2.21922E+01 0.00000E+00
 -1      1105 9.40350E+01 2.21922E+01 0.00000E+00
 -1      1106 9.70350E+01 2.21922E+01 0.00000E+00
 -1      1107 1.00035E+02 2.21922E+01 0.00000E+00
 -1      1108 1.03035E+02 2.21922E+01 0.00000E+00
 -1      1109 1.06035E+02 2.21922E+01 0.00000E+00
 -1      1110 1.09035E+02 2.21922E+01 0.00000E+00
 -1      1111 1.12035E+02 2.21922E+01 0.00000E+00
 -1      1112 1.15035E+02 2.21922E+01 0.00000E+00
 -1      1113 1.18035E+02 2.21922E+01 0.00000E+00
 -1      1114 1.21035E+02 2.21922E+01 0.00000E+00
 -1      1115 1.23626E+02 2.28649E+01 0.00000E+00
 -1      1116 6.51686E+01 2.43837E+01 0.00000E+00
 -1      1117 7.90350E+01 2.21922E+01 0.00000E+00
 -1      1118 6.56593E+01 2.67998E+01 0.00000E+00
 -1      1119 1.27650E+02 2.66180E+01 0.00000E+00
 -1      1120 7.30350E+01 2.21922E+01 0.00000E+00
 -1      1121 7.00350E+01 2.21922E+01 0.00000E+00
 -1      1122 0.00000E+00 4.85250E+01 0.00000E+00
 -1      1123 0.00000E+00 4.55750E+01 0.00000E+00
 -1      1124 0.00000E+00 4.26250E+01 0.00000E+00
 -1      1125 0.00000E+00 3.96750E+01 0.00000E+00
 -1      1126 0.00000E+00 3.67250E+01 0.00000E+00
 -1      1127 0.00000E+00 3.38000E+01 0.00000E+00
 -1      1128 0.00000E+00 3.08750E+01 0.00000E+00
 -1      1129 0.00000E+00 2.79250E+01 0.00000E+00
 -1      1130 0.00000E+00 2.49750E+01 0.00000E+00
 -1      1131 0.00000E+00 2.20250E+01 0.00000E+00
 -1      1132 0.00000E+00 1.90750E+01 0.00000E+00
 -1      1133 0.00000E+00 1.61500E+01 0.00000E+00
 -1      1134 0.00000E+00 1.32250E+01 0.00000E+00
 -1      1135 0.00000E+00 1.02750E+01 0.00000E+00
 -1      1136 0.00000E+00 7.32500E+00 0.00000E+00
 -1      1137 0.00000E+00 4.37500E+00 0.00000E+00
 -1      1138 0.00000E+00 1.45000E+00 0.00000E+00
 -1      1139 1.57500E+00 5.00000E+01 0.00000E+00
 -1      1140 4.65000E+00 5.00000E+01 0.00000E+00
 -1      1141 7.65000E+00 5.00000E+01 0.00000E+00
 -1      1142 1.06500E+01 5.00000E+01 0.00000E+00
 -1      1143 1.36500E+01 5.00000E+01 0.00000E+00
 -1      1144 1.66500E+01 5.00000E+01 0.00000E+00
 -1      1145 1.96500E+01 5.00000E+01 0.00000E+00
 -1      1146 2.26500E+01 5.00000E+01 0.00000E+00
 -1      1147 2.56500E+01 5.00000E+01 0.00000E+00
 -1      1148 2.86500E+01 5.00000E+01 0.00000E+00
 -1      1149 3.16500E+01 5.00000E+01 0.00000E+00
 -1      1150 3.46500E+01 5.00000E+01 0.00000E+00
 -1      1151 3.76500E+01 5.00000E+01 0.00000E+00
 -1      1152 4.06500E+01 5.00000E+01 0.00000E+00
 -1      1153 4.36500E+01 5.00000E+01 0.00000E+00
 -1      1154 4.66500E+01 5.00000E+01 0.00000E+00
 -1      1155 4.96500E+01 5.00000E+01 0.00000E+00
 -1      1156 5.26500E+01 5.00000E+01 0.00000E+00
 -1      1157 5.56500E+01 5.00000E+01 0.00000E+00
 -1      1158 5.86500E+01 5.00000E+01 0.00000E+00
 -1      1159 6.16500E+01 5.00000E+01 0.00000E+00
 -1      1160 6.46500E+01 5.00000E+01 0.00000E+00
 -1      1161 6.76500E+01 5.00000E+01 0.00000E+00
 -1      1162 7.06500E+01 5.00000E+01 0.00000E+00
 -1      1163 7.36500E+01 5.00000E+01 0.00000E+00
 -1      1164 7.66500E+01 5.00000E+01 0.00000E+00
 -1      1165 7.96500E+01 5.00000E+01 0.00000E+00
 -1      1166 8.26500E+01 5.00000E+01 0.00000E+00
 -1      1167 8.56500E+01 5.00000E+01 0.00000E+00
 -1      1168 8.86500E+01 5.00000E+01 0.00000E+00
 -1      1169 9.16500E+01 5.00000E+01 0.00000E+00
 -1      1170 9.46500E+01 5.00000E+01 0.00000E+00
 -1      1171 9.76500E+01 5.00000E+01 0.00000E+00
 -1      1172 1.00650E+02 5.00000E+01 0.00000E+00
 -1      1173 1.03650E+02 5.00000E+01 0.00000E+00
 -1      1174 1.06650E+02 5.00000E+01 0.00000E+00
 -1      1175 1.09650E+02 5.00000E+01 0.00000E+00
 -1      1176 1.12650E+02 5.00000E+01 0.00000E+00
 -1      1177 1.15650E+02 5.00000E+01 0.00000E+00
 -1      1178 1.18650E+02 5.00000E+01 0.00000E+00
 -1      1179 1.21650E+02 5.00000E+01 0.00000E+00
 -1      1180 1.24650E+02 5.00000E+01 0.00000E+00
 -1      1181 1.27650E+02 5.00000E+01 0.00000E+00
 -1      1182 1.30650E+02 5.00000E+01 0.00000E+00
 -1      1183 1.33650E+02 5.00000E+01 0.00000E+00
 -1      1184 1.36650E+02 5.00000E+01 0.00000E+00
 -1      1185 1.39650E+02 5.00000E+01 0.00000E+00
 -1      1186 1.42650E+02 5.00000E+01 0.00000E+00
 -1      1187 1.45650E+02 5.00000E+01 0.00000E+00
 -1      1188 1.48575E+02 5.00000E+01 0.00000E+00
 -1      1189 1.57500E+00 0.00000E+00 0.00000E+00
 -1      1190 4.65000E+00 0.00000E+00 0.00000E+00
 -1      1191 7.65000E+00 0.00000E+00 0.00000E+00
 -1      1192 1.06500E+01 0.00000E+00 0.00000E+00
 -1      1193 1.36500E+01 0.00000E+00 0.00000E+00
 -1      1194 1.66500E+01 0.00000E+00 0.00000E+00
 -1      1195 1.96500E+01 0.00000E+00 0.00000E+00
 -1      1196 2.26500E+01 0.00000E+00 0.00000E+00
 -1      1197 2.56500E+01 0.00000E+00 0.00000E+00
 -1      1198 2.86500E+01 0.00000E+00 0.00000E+00
 -1      1199 3.16500E+01 0.00000E+00 0.00000E+00
 -1      1200 3.46500E+01 0.00000E+00 0.00000E+00
 -1      1201 3.76500E+01 0.00000E+00 0.00000E+00
 -1      1202 4.06500E+01 0.00000E+00 0.00000E+00
 -1      1203 4.36500E+01 0.00000E+00 0.00000E+00
 -1      1204 4.66500E+01 0.00000E+00 0.00000E+00
 -1      1205 4.96500E+01 0.00000E+00 0.00000E+00
 -1      1206 5.26500E+01 0.00000E+00 0.00000E+00
 -1      1207 5.56500E+01 0.00000E+00 0.00000E+00
 -1      1208 5.86500E+01 0.00000E+00 0.00000E+00
 -1      1209 6.16500E+01 0.00000E+00 0.00000E+00
 -1      1210 6.46500E+01 0.00000E+00 0.00000E+00
 -1      1211 6.76500E+01 0.00000E+00 0.00000E+00
 -1      1212 7.06500E+01 0.00000E+00 0.00000E+00
 -1      1213 7.36500E+01 0.00000E+00 0.00000E+00
 -1      1214 7.66500E+01 0.00000E+00 0.00000E+00
 -1      1215 7.96500E+01 0.00000E+00 0.00000E+00
 -1      1216 8.26500E+01 0.00000E+00 0.00000E+00
 -1      1217 8.56500E+01 0.00000E+00 0.00000E+00
 -1      1218 8.86500E+01 0.00000E+00 0.00000E+00
 -1      1219 9.16500E+01 0.00000E+00 0.00000E+00
 -1      1220 9.46500E+01 0.00000E+00 0.00000E+00
 -1      1221 9.76500E+01 0.00000E+00 0.00000E+00
 -1      1222 1.00650E+02 0.00000E+00 0.00000E+00
 -1      1223 1.03650E+02 0.00000E+00 0.00000E+00
 -1      1224 1.06650E+02 0.00000E+00 0.00000E+00
 -1      1225 1.09650E+02 0.00000E+00 0.00000E+00
 -1      1226 1.12650E+02 0.00000E+00 0.00000E+00
 -1      1227 1.15650E+02 0.00000E+00 0.00000E+00
 -1      1228 1.18650E+02 0.00000E+00 0.00000E+00
 -1      1229 1.21650E+02 0.00000E+00 0.00000E+00
 -1      1230 1.24650E+02 0.00000E+00 0.00000E+00
 -1      1231 1.27650E+02 0.00000E+00 0.00000E+00
 -1      1232 1.30650E+02 0.00000E+00 0.00000E+00
 -1      1233 1.33650E+02 0.00000E+00 0.00000E+00
 -1      1234 1.36650E+02 0.00000E+00 0.00000E+00
 -1      1235 1.39650E+02 0.00000E+00 0.00000E+00
 -1      1236 1.42650E+02 0.00000E+00 0.00000E+00
 -1      1237 1.45650E+02 0.00000E+00 0.00000E+00
 -1      1238 1.48575E+02 0.00000E+00 0.00000E+00
 -1      1239 1.50000E+02 1.47500E+00 0.00000E+00
 -1      1240 1.50000E+02 4.42500E+00 0.00000E+00
 -1      1241 1.50000E+02 7.37500E+00 0.00000E+00
 -1      1242 1.50000E+02 1.03250E+01 0.00000E+00
 -1      1243 1.50000E+02 1.32750E+01 0.00000E+00
 -1      1244 1.50000E+02 1.62000E+01 0.00000E+00
 -1      1245 1.50000E+02 1.91250E+01 0.00000E+00
 -1      1246 1.50000E+02 2.20750E+01 0.00000E+00
 -1      1247 1.50000E+02 2.50250E+01 0.00000E+00
 -1      1248 1.50000E+02 2.79750E+01 0.00000E+00
 -1      1249 1.50000E+02 3.09250E+01 0.00000E+00
 -1      1250 1.50000E+02 3.38500E+01 0.00000E+00
 -1      1251 1.50000E+02 3.67750E+01 0.00000E+00
 -1      1252 1.50000E+02 3.97250E+01 0.00000E+00
 -1      1253 1.50000E+02 4.26750E+01 0.00000E+00
 -1      1254 1.50000E+02 4.56250E+01 0.00000E+00
 -1      1255 1.50000E+02 4.85500E+01 0.00000E+00
 -1      1256 4.99463E+01 2.45870E+01 0.00000E+00
 -1      1257 4.96022E+01 2.30899E+01 0.00000E+00
 -1      1258 4.89668E+01 2.17475E+01 0.00000E+00
 -1      1259 4.79673E+01 2.04715E+01 0.00000E+00
 -1      1260 4.67531E+01 1.94924E+01 0.00000E+00
 -1      1261 4.54620E+01 1.88467E+01 0.00000E+00
 -1      1262 4.39421E+01 1.84615E+01 0.00000E+00
 -1      1263 4.23738E+01 1.84244E+01 0.00000E+00
 -1      1264 4.08990E+01 1.87176E+01 0.00000E+00
 -1      1265 3.94760E+01 1.93448E+01 0.00000E+00
 -1      1266 3.82390E+01 2.02592E+01 0.00000E+00
 -1      1267 3.72646E+01 2.13743E+01 0.00000E+00
 -1      1268 3.65487E+01 2.26644E+01 0.00000E+00
 -1      1269 3.61216E+01 2.40629E+01 0.00000E+00
 -1      1270 3.59950E+01 2.55493E+01 0.00000E+00
 -1      1271 3.62047E+01 2.71043E+01 0.00000E+00
 -1      1272 3.67468E+01 2.85561E+01 0.00000E+00
 -1      1273 3.75850E+01 2.98410E+01 0.00000E+00
 -1      1274 3.86541E+01 3.08897E+01 0.00000E+00
 -1      1275 3.99307E+01 3.16914E+01 0.00000E+00
 -1      1276 4.13708E+01 3.22063E+01 0.00000E+00
 -1      1277 4.28581E+01 3.23956E+01 0.00000E+00
 -1      1278 4.43605E+01 3.22621E+01 0.00000E+00
 -1      1279 4.57803E+01 3.18182E+01 0.00000E+00
 -1      1280 4.70665E+01 3.10898E+01 0.00000E+00
 -1      1281 4.81930E+01 3.00834E+01 0.00000E+00
 -1      1282 4.90729E+01 2.88667E+01 0.00000E+00
 -1      1283 4.96572E+01 2.75401E+01 0.00000E+00
 -1      1284 4.99559E+01 2.61196E+01 0.00000E+00
 -1      1285 1.57500E+00 4.85250E+01 0.00000E+00
 -1      1286 1.29900E+00 4.48375E+01 0.00000E+00
 -1      1287 1.29900E+00 4.63125E+01 0.00000E+00
 -1      1288 1.29900E+00 4.18875E+01 0.00000E+00
 -1      1289 1.29900E+00 4.33625E+01 0.00000E+00
 -1      1290 2.59800E+00 4.41000E+01 0.00000E+00
 -1      1291 1.29900E+00 3.89375E+01 0.00000E+00
 -1      1292 1.29900E+00 4.04125E+01 0.00000E+00
 -1      1293 2.59800E+00 4.11500E+01 0.00000E+00
 -1      1294 1.29900E+00 3.59875E+01 0.00000E+00
 -1      1295 1.29900E+00 3.74625E+01 0.00000E+00
 -1      1296 2.59800E+00 3.82000E+01 0.00000E+00
 -1      1297 1.29900E+00 3.30875E+01 0.00000E+00
 -1      1298 1.29900E+00 3.45375E+01 0.00000E+00
 -1      1299 2.59800E+00 3.52750E+01 0.00000E+00
 -1      1300 1.29900E+00 3.01375E+01 0.00000E+00
 -1      1301 1.29900E+00 3.16125E+01 0.00000E+00
 -1      1302 2.59800E+00 3.23500E+01 0.00000E+00
 -1      1303 1.29900E+00 2.71875E+01 0.00000E+00
 -1      1304 1.29900E+00 2.86625E+01 0.00000E+00
 -1      1305 2.59800E+00 2.94000E+01 0.00000E+00
 -1      1306 1.29900E+00 2.42375E+01 0.00000E+00
 -1      1307 1.29900E+00 2.57125E+01 0.00000E+00
 -1      1308 2.59800E+00 2.64500E+01 0.00000E+00
 -1      1309 1.29900E+00 2.12875E+01 0.00000E+00
 -1      1310 1.29900E+00 2.27625E+01 0.00000E+00
 -1      1311 2.59800E+00 2.35000E+01 0.00000E+00
 -1      1312 1.29900E+00 1.83375E+01 0.00000E+00
 -1      1313 1.29900E+00 1.98125E+01 0.00000E+00
 -1      1314 2.59800E+00 2.05500E+01 0.00000E+00
 -1      1315 1.29900E+00 1.54375E+01 0.00000E+00
 -1      1316 1.29900E+00 1.68875E+01 0.00000E+00
 -1      1317 2.59800E+00 1.76250E+01 0.00000E+00
 -1      1318 1.29900E+00 1.24875E+01 0.00000E+00
 -1      1319 1.29900E+00 1.39625E+01 0.00000E+00
 -1      1320 2.59800E+00 1.47000E+01 0.00000E+00
 -1      1321 1.29900E+00 9.53750E+00 0.00000E+00
 -1      1322 1.29900E+00 1.10125E+01 0.00000E+00
 -1      1323 2.59800E+00 1.17500E+01 0.00000E+00
 -1      1324 1.29900E+00 6.58750E+00 0.00000E+00
 -1      1325 1.29900E+00 8.06250E+00 0.00000E+00
 -1      1326 2.59800E+00 8.80000E+00 0.00000E+00
 -1      1327 1.29900E+00 3.63750E+00 0.00000E+00
 -1      1328 1.29900E+00 5.11250E+00 0.00000E+00
 -1      1329 2.59800E+00 5.85000E+00 0.00000E+00
 -1      1330 1.43700E+00 1.09375E+00 0.00000E+00
 -1      1331 1.43700E+00 2.54375E+00 0.00000E+00
 -1      1332 2.73600E+00 3.28125E+00 0.00000E+00
 -1      1333 3.01200E+00 1.09375E+00 0.00000E+00
 -1      1334 3.90000E+00 4.87010E+01 0.00000E+00
 -1      1335 5.40000E+00 4.87010E+01 0.00000E+00
 -1      1336 6.90000E+00 4.87010E+01 0.00000E+00
 -1      1337 8.40000E+00 4.87010E+01 0.00000E+00
 -1      1338 6.15000E+00 4.74020E+01 0.00000E+00
 -1      1339 9.90000E+00 4.87010E+01 0.00000E+00
 -1      1340 1.14000E+01 4.87010E+01 0.00000E+00
 -1      1341 9.15000E+00 4.74020E+01 0.00000E+00
 -1      1342 1.29000E+01 4.87010E+01 0.00000E+00
 -1      1343 1.44000E+01 4.87010E+01 0.00000E+00
 -1      1344 1.21500E+01 4.74020E+01 0.00000E+00
 -1      1345 1.59000E+01 4.87010E+01 0.00000E+00
 -1      1346 1.74000E+01 4.87010E+01 0.00000E+00
 -1      1347 1.51500E+01 4.74020E+01 0.00000E+00
 -1      1348 1.89000E+01 4.87010E+01 0.00000E+00
 -1      1349 2.04000E+01 4.87010E+01 0.00000E+00
 -1      1350 1.81500E+01 4.74020E+01 0.00000E+00
 -1      1351 2.19000E+01 4.87010E+01 0.00000E+00
 -1      1352 2.34000E+01 4.87010E+01 0.00000E+00
 -1      1353 2.11500E+01 4.74020E+01 0.00000E+00
 -1      1354 2.49000E+01 4.87010E+01 0.00000E+00
 -1      1355 2.64000E+01 4.87010E+01 0.00000E+00
 -1      1356 2.41500E+01 4.74020E+01 0.00000E+00
 -1      1357 2.79000E+01 4.87010E+01 0.00000E+00
 -1      1358 2.94000E+01 4.87010E+01 0.00000E+00
 -1      1359 2.71500E+01 4.74020E+01 0.00000E+00
 -1      1360 3.09000E+01 4.87010E+01 0.00000E+00
 -1      1361 3.24000E+01 4.87010E+01 0.00000E+00
 -1      1362 3.01500E+01 4.74020E+01 0.00000E+00
 -1      1363 3.39000E+01 4.87010E+01 0.00000E+00
 -1      1364 3.54000E+01 4.87010E+01 0.00000E+00
 -1      1365 3.31500E+01 4.74020E+01 0.00000E+00
 -1      1366 3.69000E+01 4.87010E+01 0.00000E+00
 -1      1367 3.84000E+01 4.87010E+01 0.00000E+00
 -1      1368 3.61500E+01 4.74020E+01 0.00000E+00
 -1      1369 3.99000E+01 4.87010E+01 0.00000E+00
 -1      1370 4.14000E+01 4.87010E+01 0.00000E+00
 -1      1371 3.91500E+01 4.74020E+01 0.00000E+00
 -1      1372 4.29000E+01 4.87010E+01 0.00000E+00
 -1      1373 4.44000E+01 4.87010E+01 0.00000E+00
 -1      1374 4.21500E+01 4.74020E+01 0.00000E+00
 -1      1375 4.59000E+01 4.87010E+01 0.00000E+00
 -1      1376 4.74000E+01 4.87010E+01 0.00000E+00
 -1      1377 4.51500E+01 4.74020E+01 0.00000E+00
 -1      1378 4.89000E+01 4.87010E+01 0.00000E+00
 -1      1379 5.04000E+01 4.87010E+01 0.00000E+00
 -1      1380 4.81500E+01 4.74020E+01 0.00000E+00
 -1      1381 5.19000E+01 4.87010E+01 0.00000E+00
 -1      1382 5.34000E+01 4.87010E+01 0.00000E+00
 -1      1383 5.11500E+01 4.74020E+01 0.00000E+00
 -1      1384 5.49000E+01 4.87010E+01 0.00000E+00
 -1      1385 5.64000E+01 4.87010E+01 0.00000E+00
 -1      1386 5.41500E+01 4.74020E+01 0.00000E+00
 -1      1387 5.79000E+01 4.87010E+01 0.00000E+00
 -1      1388 5.94000E+01 4.87010E+01 0.00000E+00
 -1      1389 5.71500E+01 4.74020E+01 0.00000E+00
 -1      1390 6.09000E+01 4.87010E+01 0.00000E+00
 -1      1391 6.24000E+01 4.87010E+01 0.00000E+00
 -1      1392 6.01500E+01 4.74020E+01 0.00000E+00
 -1      1393 6.39000E+01 4.87010E+01 0.00000E+00
 -1      1394 6.54000E+01 4.87010E+01 0.00000E+00
 -1      1395 6.31500E+01 4.74020E+01 0.00000E+00
 -1      1396 6.69000E+01 4.87010E+01 0.00000E+00
 -1      1397 6.84000E+01 4.87010E+01 0.00000E+00
 -1      1398 6.61500E+01 4.74020E+01 0.00000E+00
 -1      1399 6.99000E+01 4.87010E+01 0.00000E+00
 -1      1400 7.14000E+01 4.87010E+01 0.00000E+00
 -1      1401 6.91500E+01 4.74020E+01 0.00000E+00
 -1      1402 7.29000E+01 4.87010E+01 0.00000E+00
 -1      1403 7.44000E+01 4.87010E+01 0.00000E+00
 -1      1404 7.21500E+01 4.74020E+01 0.00000E+00
 -1      1405 7.59000E+01 4.87010E+01 0.00000E+00
 -1      1406 7.74000E+01 4.87010E+01 0.00000E+00
 -1      1407 7.51500E+01 4.74020E+01 0.00000E+00
 -1      1408 7.89000E+01 4.87010E+01 0.00000E+00
 -1      1409 8.04000E+01 4.87010E+01 0.00000E+00
 -1      1410 7.81500E+01 4.74020E+01 0.00000E+00
 -1      1411 8.19000E+01 4.87010E+01 0.00000E+00
 -1      1412 8.34000E+01 4.87010E+01 0.00000E+00
 -1      1413 8.11500E+01 4.74020E+01 0.00000E+00
 -1      1414 8.49000E+01 4.87010E+01 0.00000E+00
 -1      1415 8.64000E+01 4.87010E+01 0.00000E+00
 -1      1416 8.41500E+01 4.74020E+01 0.00000E+00
 -1      1417 8.79000E+01 4.87010E+01 0.00000E+00
 -1      1418 8.94000E+01 4.87010E+01 0.00000E+00
 -1      1419 8.71500E+01 4.74020E+01 0.00000E+00
 -1      1420 9.09000E+01 4.87010E+01 0.00000E+00
 -1      1421 9.24000E+01 4.87010E+01 0.00000E+00
 -1      1422 9.01500E+01 4.74020E+01 0.00000E+00
 -1      1423 9.39000E+01 4.87010E+01 0.00000E+00
 -1      1424 9.54000E+01 4.87010E+01 0.00000E+00
 -1      1425 9.31500E+01 4.74020E+01 0.00000E+00
 -1      1426 9.69000E+01 4.87010E+01 0.00000E+00
 -1      1427 9.84000E+01 4.87010E+01 0.00000E+00
 -1      1428 9.61500E+01 4.74020E+01 0.00000E+00
 -1      1429 9.99000E+01 4.87010E+01 0.00000E+00
 -1      1430 1.01400E+02 4.87010E+01 0.00000E+00
 -1      1431 9.91500E+01 4.74020E+01 0.00000E+00
 -1      1432 1.02900E+02 4.87010E+01 0.00000E+00
 -1      1433 1.04400E+02 4.87010E+01 0.00000E+00
 -1      1434 1.02150E+02 4.74020E+01 0.00000E+00
 -1      1435 1.05900E+02 4.87010E+01 0.00000E+00
 -1      1436 1.07400E+02 4.87010E+01 0.00000E+00
 -1      1437 1.05150E+02 4.74020E+01 0.00000E+00
 -1      1438 1.08900E+02 4.87010E+01 0.00000E+00
 -1      1439 1.10400E+02 4.87010E+01 0.00000E+00
 -1      1440 1.08150E+02 4.74020E+01 0.00000E+00
 -1      1441 1.11900E+02 4.87010E+01 0.00000E+00
 -1      1442 1.13400E+02 4.87010E+01 0.00000E+00
 -1      1443 1.11150E+02 4.74020E+01 0.00000E+00
 -1      1444 1.14900E+02 4.87010E+01 0.00000E+00
 -1      1445 1.16400E+02 4.87010E+01 0.00000E+00
 -1      1446 1.14150E+02 4.74020E+01 0.00000E+00
 -1      1447 1.17900E+02 4.87010E+01 0.00000E+00
 -1      1448 1.19400E+02 4.87010E+01 0.00000E+00
 -1      1449 1.17150E+02 4.74020E+01 0.00000E+00
 -1      1450 1.20900E+02 4.87010E+01 0.00000E+00
 -1      1451 1.22400E+02 4.87010E+01 0.00000E+00
 -1      1452 1.20150E+02 4.74020E+01 0.00000E+00
 -1      1453 1.23900E+02 4.87010E+01 0.00000E+00
 -1      1454 1.25400E+02 4.87010E+01 0.00000E+00
 -1      1455 1.23150E+02 4.74020E+01 0.00000E+00
 -1      1456 1.26900E+02 4.87010E+01 0.00000E+00
 -1      1457 1.28400E+02 4.87010E+01 0.00000E+00
 -1      1458 1.26150E+02 4.74020E+01 0.00000E+00
 -1      1459 1.29900E+02 4.87010E+01 0.00000E+00
 -1      1460 1.31400E+02 4.87010E+01 0.00000E+00
 -1      1461 1.29150E+02 4.74020E+01 0.00000E+00
 -1      1462 1.32900E+02 4.87010E+01 0.00000E+00
 -1      1463 1.34400E+02 4.87010E+01 0.00000E+00
 -1      1464 1.32150E+02 4.74020E+01 0.00000E+00
 -1      1465 1.35900E+02 4.87010E+01 0.00000E+00
 -1      1466 1.37400E+02 4.87010E+01 0.00000E+00
 -1      1467 1.35150E+02 4.74020E+01 0.00000E+00
 -1      1468 1.38900E+02 4.87010E+01 0.00000E+00
 -1      1469 1.40400E+02 4.87010E+01 0.00000E+00
 -1      1470 1.38150E+02 4.74020E+01 0.00000E+00
 -1      1471 1.41900E+02 4.87010E+01 0.00000E+00
 -1      1472 1.43400E+02 4.87010E+01 0.00000E+00
 -1      1473 1.41150E+02 4.74020E+01 0.00000E+00
 -1      1474 1.44900E+02 4.87010E+01 0.00000E+00
 -1      1475 1.46400E+02 4.87010E+01 0.00000E+00
 -1      1476 1.44150E+02 4.74020E+01 0.00000E+00
 -1      1477 1.48575E+02 4.85500E+01 0.00000E+00
 -1      1478 1.47825E+02 4.72510E+01 0.00000E+00
 -1      1479 6.01200E+00 1.09375E+00 0.00000E+00
 -1      1480 4.51200E+00 1.09375E+00 0.00000E+00
 -1      1481 4.37400E+00 2.18750E+00 0.00000E+00
 -1      1482 9.01200E+00 1.09375E+00 0.00000E+00
 -1      1483 7.51200E+00 1.09375E+00 0.00000E+00
 -1      1484 7.37400E+00 2.18750E+00 0.00000E+00
 -1      1485 1.20120E+01 1.09375E+00 0.00000E+00
 -1      1486 1.05120E+01 1.09375E+00 0.00000E+00
 -1      1487 1.03740E+01 2.18750E+00 0.00000E+00
 -1      1488 1.50120E+01 1.09375E+00 0.00000E+00
 -1      1489 1.35120E+01 1.09375E+00 0.00000E+00
 -1      1490 1.33740E+01 2.18750E+00 0.00000E+00
 -1      1491 1.80120E+01 1.09375E+00 0.00000E+00
 -1      1492 1.65120E+01 1.09375E+00 0.00000E+00
 -1      1493 1.63740E+01 2.18750E+00 0.00000E+00
 -1      1494 2.10120E+01 1.09375E+00 0.00000E+00
 -1      1495 1.95120E+01 1.09375E+00 0.00000E+00
 -1      1496 1.93740E+01 2.18750E+00 0.00000E+00
 -1      1497 2.40120E+01 1.09375E+00 0.00000E+00
 -1      1498 2.25120E+01 1.09375E+00 0.00000E+00
 -1      1499 2.23740E+01 2.18750E+00 0.00000E+00
 -1      1500 2.70120E+01 1.09375E+00 0.00000E+00
 -1      1501 2.55120E+01 1.09375E+00 0.00000E+00
 -1      1502 2.53740E+01 2.18750E+00 0.00000E+00
 -1      1503 3.00120E+01 1.09375E+00 0.00000E+00
 -1      1504 2.85120E+01 1.09375E+00 0.00000E+00
 -1      1505 2.83740E+01 2.18750E+00 0.00000E+00
 -1      1506 3.30120E+01 1.09375E+00 0.00000E+00
 -1      1507 3.15120E+01 1.09375E+00 0.00000E+00
 -1      1508 3.13740E+01 2.18750E+00 0.00000E+00
 -1      1509 3.60120E+01 1.09375E+00 0.00000E+00
 -1      1510 3.45120E+01 1.09375E+00 0.00000E+00
 -1      1511 3.43740E+01 2.18750E+00 0.00000E+00
 -1      1512 3.90120E+01 1.09375E+00 0.00000E+00
 -1      1513 3.75120E+01 1.09375E+00 0.00000E+00
 -1      1514 3.73740E+01 2.18750E+00 0.00000E+00
 -1      1515 4.20120E+01 1.09375E+00 0.00000E+00
 -1      1516 4.05120E+01 1.09375E+00 0.00000E+00
 -1      1517 4.03740E+01 2.18750E+00 0.00000E+00
 -1      1518 4.50120E+01 1.09375E+00 0.00000E+00
 -1      1519 4.35120E+01 1.09375E+00 0.00000E+00
 -1      1520 4.33740E+01 2.18750E+00 0.00000E+00
 -1      1521 4.80120E+01 1.09375E+00 0.00000E+00
 -1      1522 4.65120E+01 1.09375E+00 0.00000E+00
 -1      1523 4.63740E+01 2.18750E+00 0.00000E+00
 -1      1524 5.10120E+01 1.09375E+00 0.00000E+00
 -1      1525 4.95120E+01 1.09375E+00 0.00000E+00
 -1      1526 4.93740E+01 2.18750E+00 0.00000E+00
 -1      1527 5.40120E+01 1.09375E+00 0.00000E+00
 -1      1528 5.25120E+01 1.09375E+00 0.00000E+00
 -1      1529 5.23740E+01 2.18750E+00 0.00000E+00
 -1      1530 5.70120E+01 1.09375E+00 0.00000E+00
 -1      1531 5.55120E+01 1.09375E+00 0.00000E+00
 -1      1532 5.53740E+01 2.18750E+00 0.00000E+00
 -1      1533 6.00120E+01 1.09375E+00 0.00000E+00
 -1      1534 5.85120E+01 1.09375E+00 0.00000E+00
 -1      1535 5.83740E+01 2.18750E+00 0.00000E+00
 -1      1536 6.30120E+01 1.09375E+00 0.00000E+00
 -1      1537 6.15120E+01 1.09375E+00 0.00000E+00
 -1      1538 6.13740E+01 2.18750E+00 0.00000E+00
 -1      1539 6.60120E+01 1.09375E+00 0.00000E+00
 -1      1540 6.45120E+01 1.09375E+00 0.00000E+00
 -1      1541 6.43740E+01 2.18750E+00 0.00000E+00
 -1      1542 6.90120E+01 1.09375E+00 0.00000E+00
 -1      1543 6.75120E+01 1.09375E+00 0.00000E+00
 -1      1544 6.73740E+01 2.18750E+00 0.00000E+00
 -1      1545 7.20120E+01 1.09375E+00 0.00000E+00
 -1      1546 7.05120E+01 1.09375E+00 0.00000E+00
 -1      1547 7.03740E+01 2.18750E+00 0.00000E+00
 -1      1548 7.50120E+01 1.09375E+00 0.00000E+00
 -1      1549 7.35120E+01 1.09375E+00 0.00000E+00
 -1      1550 7.33740E+01 2.18750E+00 0.00000E+00
 -1      1551 7.80120E+01 1.09375E+00 0.00000E+00
 -1      1552 7.65120E+01 1.09375E+00 0.00000E+00
 -1      1553 7.63740E+01 2.18750E+00 0.00000E+00
 -1      1554 8.10120E+01 1.09375E+00 0.00000E+00
 -1      1555 7.95120E+01 1.09375E+00 0.00000E+00
 -1      1556 7.93740E+01 2.18750E+00 0.00000E+00
 -1      1557 8.40120E+01 1.09375E+00 0.00000E+00
 -1      1558 8.25120E+01 1.09375E+00 0.00000E+00
 -1      1559 8.23740E+01 2.18750E+00 0.00000E+00
 -1      1560 8.70120E+01 1.09375E+00 0.00000E+00
 -1      1561 8.55120E+01 1.09375E+00 0.00000E+00
 -1      1562 8.53740E+01 2.18750E+00 0.00000E+00
 -1      1563 9.00120E+01 1.09375E+00 0.00000E+00
 -1      1564 8.85120E+01 1.09375E+00 0.00000E+00
 -1      1565 8.83740E+01 2.18750E+00 0.00000E+00
 -1      1566 9.30120E+01 1.09375E+00 0.00000E+00
 -1      1567 9.15120E+01 1.09375E+00 0.00000E+00
 -1      1568 9.13740E+01 2.18750E+00 0.00000E+00
 -1      1569 9.60120E+01 1.09375E+00 0.00000E+00
 -1      1570 9.45120E+01 1.09375E+00 0.00000E+00
 -1      1571 9.43740E+01 2.18750E+00 0.00000E+00
 -1      1572 9.90120E+01 1.09375E+00 0.00000E+00
 -1      1573 9.75120E+01 1.09375E+00 0.00000E+00
 -1      1574 9.73740E+01 2.18750E+00 0.00000E+00
 -1      1575 1.02012E+02 1.09375E+00 0.00000E+00
 -1      1576 1.00512E+02 1.09375E+00 0.00000E+00
 -1      1577 1.00374E+02 2.18750E+00 0.00000E+00
 -1      1578 1.05012E+02 1.09375E+00 0.00000E+00
 -1      1579 1.03512E+02 1.09375E+00 0.00000E+00
 -1      1580 1.03374E+02 2.18750E+00 0.00000E+00
 -1      1581 1.08012E+02 1.09375E+00 0.00000E+00
 -1      1582 1.06512E+02 1.09375E+00 0.00000E+00
 -1      1583 1.06374E+02 2.18750E+00 0.00000E+00
 -1      1584 1.11012E+02 1.09375E+00 0.00000E+00
 -1      1585 1.09512E+02 1.09375E+00 0.00000E+00
 -1      1586 1.09374E+02 2.18750E+00 0.00000E+00
 -1      1587 1.14012E+02 1.09375E+00 0.00000E+00
 -1      1588 1.12512E+02 1.09375E+00 0.00000E+00
 -1      1589 1.12374E+02 2.18750E+00 0.00000E+00
 -1      1590 1.17012E+02 1.09375E+00 0.00000E+00
 -1      1591 1.15512E+02 1.09375E+00 0.00000E+00
 -1      1592 1.15374E+02 2.18750E+00 0.00000E+00
 -1      1593 1.20012E+02 1.09375E+00 0.00000E+00
 -1      1594 1.18512E+02 1.09375E+00 0.00000E+00
 -1      1595 1.18374E+02 2.18750E+00 0.00000E+00
 -1      1596 1.23012E+02 1.09375E+00 0.00000E+00
 -1      1597 1.21512E+02 1.09375E+00 0.00000E+00
 -1      1598 1.21374E+02 2.18750E+00 0.00000E+00
 -1      1599 1.26012E+02 1.09375E+00 0.00000E+00
 -1      1600 1.24512E+02 1.09375E+00 0.00000E+00
 -1      1601 1.24374E+02 2.18750E+00 0.00000E+00
 -1      1602 1.29012E+02 1.09375E+00 0.00000E+00
 -1      1603 1.27512E+02 1.09375E+00 0.00000E+00
 -1      1604 1.27374E+02 2.18750E+00 0.00000E+00
 -1      1605 1.32012E+02 1.09375E+00 0.00000E+00
 -1      1606 1.30512E+02 1.09375E+00 0.00000E+00
 -1      1607 1.30374E+02 2.18750E+00 0.00000E+00
 -1      1608 1.35012E+02 1.09375E+00 0.00000E+00
 -1      1609 1.33512E+02 1.09375E+00 0.00000E+00
 -1      1610 1.33374E+02 2.18750E+00 0.00000E+00
 -1      1611 1.38012E+02 1.09375E+00 0.00000E+00
 -1      1612 1.36512E+02 1.09375E+00 0.00000E+00
 -1      1613 1.36374E+02 2.18750E+00 0.00000E+00
 -1      1614 1.41012E+02 1.09375E+00 0.00000E+00
 -1      1615 1.39512E+02 1.09375E+00 0.00000E+00
 -1      1616 1.39374E+02 2.18750E+00 0.00000E+00
 -1      1617 1.44012E+02 1.09375E+00 0.00000E+00
 -1      1618 1.42512E+02 1.09375E+00 0.00000E+00
 -1      1619 1.42374E+02 2.18750E+00 0.00000E+00
 -1      1620 1.47012E+02 1.09375E+00 0.00000E+00
 -1      1621 1.45512E+02 1.09375E+00 0.00000E+00
 -1      1622 1.45374E+02 2.18750E+00 0.00000E+00
 -1      1623 1.48575E+02 1.47500E+00 0.00000E+00
 -1      1624 1.48701E+02 5.16250E+00 0.00000E+00
 -1      1625 1.48701E+02 3.68750E+00 0.00000E+00
 -1      1626 1.48701E+02 8.11250E+00 0.00000E+00
 -1      1627 1.48701E+02 6.63750E+00 0.00000E+00
 -1      1628 1.47402E+02 5.90000E+00 0.00000E+00
 -1      1629 1.48701E+02 1.10625E+01 0.00000E+00
 -1      1630 1.48701E+02 9.58750E+00 0.00000E+00
 -1      1631 1.47402E+02 8.85000E+00 0.00000E+00
 -1      1632 1.48701E+02 1.40125E+01 0.00000E+00
 -1      1633 1.48701E+02 1.25375E+01 0.00000E+00
 -1      1634 1.47402E+02 1.18000E+01 0.00000E+00
 -1      1635 1.48701E+02 1.69125E+01 0.00000E+00
 -1      1636 1.48701E+02 1.54625E+01 0.00000E+00
 -1      1637 1.47402E+02 1.47250E+01 0.00000E+00
 -1      1638 1.48701E+02 1.98625E+01 0.00000E+00
 -1      1639 1.48701E+02 1.83875E+01 0.00000E+00
 -1      1640 1.47402E+02 1.76500E+01 0.00000E+00
 -1      1641 1.48701E+02 2.28125E+01 0.00000E+00
 -1      1642 1.48701E+02 2.13375E+01 0.00000E+00
 -1      1643 1.47402E+02 2.06000E+01 0.00000E+00
 -1      1644 1.48701E+02 2.57625E+01 0.00000E+00
 -1      1645 1.48701E+02 2.42875E+01 0.00000E+00
 -1      1646 1.47402E+02 2.35500E+01 0.00000E+00
 -1      1647 1.48701E+02 2.87125E+01 0.00000E+00
 -1      1648 1.48701E+02 2.72375E+01 0.00000E+00
 -1      1649 1.47402E+02 2.65000E+01 0.00000E+00
 -1      1650 1.48701E+02 3.16625E+01 0.00000E+00
 -1      1651 1.48701E+02 3.01875E+01 0.00000E+00
 -1      1652 1.47402E+02 2.94500E+01 0.00000E+00
 -1      1653 1.48701E+02 3.45625E+01 0.00000E+00
 -1      1654 1.48701E+02 3.31125E+01 0.00000E+00
 -1      1655 1.47402E+02 3.23750E+01 0.00000E+00
 -1      1656 1.48701E+02 3.75125E+01 0.00000E+00
 -1      1657 1.48701E+02 3.60375E+01 0.00000E+00
 -1      1658 1.47402E+02 3.53000E+01 0.00000E+00
 -1      1659 1.48701E+02 4.04625E+01 0.00000E+00
 -1      1660 1.48701E+02 3.89875E+01 0.00000E+00
 -1      1661 1.47402E+02 3.82500E+01 0.00000E+00
 -1      1662 1.48701E+02 4.34125E+01 0.00000E+00
 -1      1663 1.48701E+02 4.19375E+01 0.00000E+00
 -1      1664 1.47402E+02 4.12000E+01 0.00000E+00
 -1      1665 1.48263E+02 4.60692E+01 0.00000E+00
 -1      1666 1.48263E+02 4.45942E+01 0.00000E+00
 -1      1667 1.46964E+02 4.38568E+01 0.00000E+00
 -1      1668 1.46088E+02 4.62202E+01 0.00000E+00
 -1      1669 5.06213E+01 2.41007E+01 0.00000E+00
 -1      1670 5.07150E+01 2.49052E+01 0.00000E+00
 -1      1671 5.00588E+01 2.25460E+01 0.00000E+00
 -1      1672 5.02981E+01 2.32316E+01 0.00000E+00
 -1      1673 4.92867E+01 2.11073E+01 0.00000E+00
 -1      1674 4.96824E+01 2.17550E+01 0.00000E+00
 -1      1675 4.82059E+01 1.96289E+01 0.00000E+00
 -1      1676 4.88122E+01 2.02412E+01 0.00000E+00
 -1      1677 4.67656E+01 1.88230E+01 0.00000E+00
 -1      1678 4.73544E+01 1.91979E+01 0.00000E+00
 -1      1679 4.53276E+01 1.81460E+01 0.00000E+00
 -1      1680 4.60254E+01 1.84090E+01 0.00000E+00
 -1      1681 4.36217E+01 1.77702E+01 0.00000E+00
 -1      1682 4.44364E+01 1.78816E+01 0.00000E+00
 -1      1683 4.19519E+01 1.78934E+01 0.00000E+00
 -1      1684 4.26954E+01 1.78273E+01 0.00000E+00
 -1      1685 4.03561E+01 1.82516E+01 0.00000E+00
 -1      1686 4.10786E+01 1.80251E+01 0.00000E+00
 -1      1687 3.88283E+01 1.90244E+01 0.00000E+00
 -1      1688 3.95182E+01 1.86234E+01 0.00000E+00
 -1      1689 3.75823E+01 2.00944E+01 0.00000E+00
 -1      1690 3.81256E+01 1.95916E+01 0.00000E+00
 -1      1691 3.65535E+01 2.13276E+01 0.00000E+00
 -1      1692 3.69791E+01 2.07214E+01 0.00000E+00
 -1      1693 3.58828E+01 2.27811E+01 0.00000E+00
 -1      1694 3.61696E+01 2.21046E+01 0.00000E+00
 -1      1695 3.54944E+01 2.43117E+01 0.00000E+00
 -1      1696 3.56331E+01 2.35975E+01 0.00000E+00
 -1      1697 3.53553E+01 2.59454E+01 0.00000E+00
 -1      1698 3.53387E+01 2.51813E+01 0.00000E+00
 -1      1699 3.55975E+01 2.76719E+01 0.00000E+00
 -1      1700 3.54012E+01 2.68914E+01 0.00000E+00
 -1      1701 3.64094E+01 2.91442E+01 0.00000E+00
 -1      1702 3.60732E+01 2.84794E+01 0.00000E+00
 -1      1703 3.73369E+01 3.05556E+01 0.00000E+00
 -1      1704 3.68359E+01 2.99459E+01 0.00000E+00
 -1      1705 3.85785E+01 3.15568E+01 0.00000E+00
 -1      1706 3.80226E+01 3.11176E+01 0.00000E+00
 -1      1707 3.99897E+01 3.24831E+01 0.00000E+00
 -1      1708 3.92713E+01 3.21336E+01 0.00000E+00
 -1      1709 4.15943E+01 3.28434E+01 0.00000E+00
 -1      1710 4.08839E+01 3.26741E+01 0.00000E+00
 -1      1711 4.32308E+01 3.30087E+01 0.00000E+00
 -1      1712 4.24620E+01 3.29938E+01 0.00000E+00
 -1      1713 4.48338E+01 3.27460E+01 0.00000E+00
 -1      1714 4.41087E+01 3.28904E+01 0.00000E+00
 -1      1715 4.63489E+01 3.21885E+01 0.00000E+00
 -1      1716 4.56625E+01 3.24864E+01 0.00000E+00
 -1      1717 4.76938E+01 3.13394E+01 0.00000E+00
 -1      1718 4.71002E+01 3.17642E+01 0.00000E+00
 -1      1719 4.89345E+01 3.02261E+01 0.00000E+00
 -1      1720 4.84118E+01 3.08061E+01 0.00000E+00
 -1      1721 4.97457E+01 2.88357E+01 0.00000E+00
 -1      1722 4.93884E+01 2.94617E+01 0.00000E+00
 -1      1723 5.03096E+01 2.73671E+01 0.00000E+00
 -1      1724 5.00865E+01 2.80609E+01 0.00000E+00
 -1      1725 5.05590E+01 2.58189E+01 0.00000E+00
 -1      1726 5.04844E+01 2.65378E+01 0.00000E+00
 -1      1727 4.82371E+01 1.89301E+01 0.00000E+00
 -1      1728 4.95631E+01 2.02272E+01 0.00000E+00
 -1      1729 1.48437E+02 2.56875E+00 0.00000E+00
 -1      1730 1.47138E+02 3.30625E+00 0.00000E+00
 -1      1731 5.11136E+01 2.35443E+01 0.00000E+00
 -1      1732 5.04140E+01 2.18842E+01 0.00000E+00
 -1      1733 5.12807E+01 2.53272E+01 0.00000E+00
 -1      1734 4.66453E+01 1.80851E+01 0.00000E+00
 -1      1735 4.50138E+01 1.74067E+01 0.00000E+00
 -1      1736 4.31963E+01 1.71994E+01 0.00000E+00
 -1      1737 4.13967E+01 1.73882E+01 0.00000E+00
 -1      1738 3.96855E+01 1.78918E+01 0.00000E+00
 -1      1739 3.81449E+01 1.88308E+01 0.00000E+00
 -1      1740 3.68391E+01 2.00251E+01 0.00000E+00
 -1      1741 3.58520E+01 2.14291E+01 0.00000E+00
 -1      1742 3.52184E+01 2.30226E+01 0.00000E+00
 -1      1743 3.48129E+01 2.47087E+01 0.00000E+00
 -1      1744 3.47031E+01 2.65244E+01 0.00000E+00
 -1      1745 3.52246E+01 2.82779E+01 0.00000E+00
 -1      1746 3.61268E+01 2.98871E+01 0.00000E+00
 -1      1747 3.72390E+01 3.12508E+01 0.00000E+00
 -1      1748 3.86175E+01 3.23897E+01 0.00000E+00
 -1      1749 4.02044E+01 3.31575E+01 0.00000E+00
 -1      1750 4.19662E+01 3.34988E+01 0.00000E+00
 -1      1751 4.37118E+01 3.35310E+01 0.00000E+00
 -1      1752 4.54183E+01 3.31532E+01 0.00000E+00
 -1      1753 4.69984E+01 3.24692E+01 0.00000E+00
 -1      1754 4.84677E+01 3.15114E+01 0.00000E+00
 -1      1755 4.96396E+01 3.02136E+01 0.00000E+00
 -1      1756 5.04343E+01 2.86744E+01 0.00000E+00
 -1      1757 5.09499E+01 2.70703E+01 0.00000E+00
 -1      1758 2.87400E+00 4.77875E+01 0.00000E+00
 -1      1759 3.89700E+00 4.04125E+01 0.00000E+00
 -1      1760 3.89700E+00 4.18875E+01 0.00000E+00
 -1      1761 3.89700E+00 4.33625E+01 0.00000E+00
 -1      1762 3.89700E+00 4.48375E+01 0.00000E+00
 -1      1763 5.19600E+00 4.26250E+01 0.00000E+00
 -1      1764 3.89700E+00 3.45500E+01 0.00000E+00
 -1      1765 3.89700E+00 3.60000E+01 0.00000E+00
 -1      1766 3.89700E+00 3.16000E+01 0.00000E+00
 -1      1767 3.89700E+00 3.30750E+01 0.00000E+00
 -1      1768 5.19600E+00 3.38000E+01 0.00000E+00
 -1      1769 3.89700E+00 2.86500E+01 0.00000E+00
 -1      1770 3.89700E+00 3.01250E+01 0.00000E+00
 -1      1771 5.19600E+00 3.08500E+01 0.00000E+00
 -1      1772 3.89700E+00 2.57000E+01 0.00000E+00
 -1      1773 3.89700E+00 2.71750E+01 0.00000E+00
 -1      1774 5.19600E+00 2.79000E+01 0.00000E+00
 -1      1775 3.89700E+00 2.27500E+01 0.00000E+00
 -1      1776 3.89700E+00 2.42250E+01 0.00000E+00
 -1      1777 5.19600E+00 2.49500E+01 0.00000E+00
 -1      1778 3.89700E+00 1.98000E+01 0.00000E+00
 -1      1779 3.89700E+00 2.12750E+01 0.00000E+00
 -1      1780 5.19600E+00 2.20000E+01 0.00000E+00
 -1      1781 3.89700E+00 1.69000E+01 0.00000E+00
 -1      1782 3.89700E+00 1.83500E+01 0.00000E+00
 -1      1783 5.19600E+00 1.90750E+01 0.00000E+00
 -1      1784 3.89700E+00 1.39500E+01 0.00000E+00
 -1      1785 3.89700E+00 1.54250E+01 0.00000E+00
 -1      1786 5.19600E+00 1.61500E+01 0.00000E+00
 -1      1787 3.89700E+00 1.10000E+01 0.00000E+00
 -1      1788 3.89700E+00 1.24750E+01 0.00000E+00
 -1      1789 5.19600E+00 1.32000E+01 0.00000E+00
 -1      1790 3.89700E+00 8.05000E+00 0.00000E+00
 -1      1791 3.89700E+00 9.52500E+00 0.00000E+00
 -1      1792 5.19600E+00 1.02500E+01 0.00000E+00
 -1      1793 3.89700E+00 5.10000E+00 0.00000E+00
 -1      1794 3.89700E+00 6.57500E+00 0.00000E+00
 -1      1795 5.19600E+00 7.30000E+00 0.00000E+00
 -1      1796 4.20450E+00 3.09687E+00 0.00000E+00
 -1      1797 4.06650E+00 4.19063E+00 0.00000E+00
 -1      1798 5.36550E+00 4.91563E+00 0.00000E+00
 -1      1799 5.70450E+00 3.09687E+00 0.00000E+00
 -1      1800 3.62400E+00 4.64885E+01 0.00000E+00
 -1      1801 8.70450E+00 3.09687E+00 0.00000E+00
 -1      1802 7.20450E+00 3.09687E+00 0.00000E+00
 -1      1803 7.03500E+00 4.00625E+00 0.00000E+00
 -1      1804 4.92300E+00 4.57510E+01 0.00000E+00
 -1      1805 8.40000E+00 4.61030E+01 0.00000E+00
 -1      1806 9.90000E+00 4.61030E+01 0.00000E+00
 -1      1807 1.14000E+01 4.61030E+01 0.00000E+00
 -1      1808 1.29000E+01 4.61030E+01 0.00000E+00
 -1      1809 1.06500E+01 4.48040E+01 0.00000E+00
 -1      1810 1.44000E+01 4.61030E+01 0.00000E+00
 -1      1811 1.59000E+01 4.61030E+01 0.00000E+00
 -1      1812 1.36500E+01 4.48040E+01 0.00000E+00
 -1      1813 1.74000E+01 4.61030E+01 0.00000E+00
 -1      1814 1.89000E+01 4.61030E+01 0.00000E+00
 -1      1815 1.66500E+01 4.48040E+01 0.00000E+00
 -1      1816 2.04000E+01 4.61030E+01 0.00000E+00
 -1      1817 2.19000E+01 4.61030E+01 0.00000E+00
 -1      1818 1.96500E+01 4.48040E+01 0.00000E+00
 -1      1819 2.34000E+01 4.61030E+01 0.00000E+00
 -1      1820 2.49000E+01 4.61030E+01 0.00000E+00
 -1      1821 2.26500E+01 4.48040E+01 0.00000E+00
 -1      1822 2.64000E+01 4.61030E+01 0.00000E+00
 -1      1823 2.79000E+01 4.61030E+01 0.00000E+00
 -1      1824 2.56500E+01 4.48040E+01 0.00000E+00
 -1      1825 2.94000E+01 4.61030E+01 0.00000E+00
 -1      1826 3.09000E+01 4.61030E+01 0.00000E+00
 -1      1827 2.86500E+01 4.48040E+01 0.00000E+00
 -1      1828 3.24000E+01 4.61030E+01 0.00000E+00
 -1      1829 3.39000E+01 4.61030E+01 0.00000E+00
 -1      1830 3.16500E+01 4.48040E+01 0.00000E+00
 -1      1831 3.54000E+01 4.61030E+01 0.00000E+00
 -1      1832 3.69000E+01 4.61030E+01 0.00000E+00
 -1      1833 3.46500E+01 4.48040E+01 0.00000E+00
 -1      1834 3.84000E+01 4.61030E+01 0.00000E+00
 -1      1835 3.99000E+01 4.61030E+01 0.00000E+00
 -1      1836 3.76500E+01 4.48040E+01 0.00000E+00
 -1      1837 4.14000E+01 4.61030E+01 0.00000E+00
 -1      1838 4.29000E+01 4.61030E+01 0.00000E+00
 -1      1839 4.06500E+01 4.48040E+01 0.00000E+00
 -1      1840 4.44000E+01 4.61030E+01 0.00000E+00
 -1      1841 4.59000E+01 4.61030E+01 0.00000E+00
 -1      1842 4.36500E+01 4.48040E+01 0.00000E+00
 -1      1843 4.74000E+01 4.61030E+01 0.00000E+00
 -1      1844 4.89000E+01 4.61030E+01 0.00000E+00
 -1      1845 4.66500E+01 4.48040E+01 0.00000E+00
 -1      1846 5.04000E+01 4.61030E+01 0.00000E+00
 -1      1847 5.19000E+01 4.61030E+01 0.00000E+00
 -1      1848 4.96500E+01 4.48040E+01 0.00000E+00
 -1      1849 5.34000E+01 4.61030E+01 0.00000E+00
 -1      1850 5.49000E+01 4.61030E+01 0.00000E+00
 -1      1851 5.26500E+01 4.48040E+01 0.00000E+00
 -1      1852 5.64000E+01 4.61030E+01 0.00000E+00
 -1      1853 5.79000E+01 4.61030E+01 0.00000E+00
 -1      1854 5.56500E+01 4.48040E+01 0.00000E+00
 -1      1855 5.94000E+01 4.61030E+01 0.00000E+00
 -1      1856 6.09000E+01 4.61030E+01 0.00000E+00
 -1      1857 5.86500E+01 4.48040E+01 0.00000E+00
 -1      1858 6.24000E+01 4.61030E+01 0.00000E+00
 -1      1859 6.39000E+01 4.61030E+01 0.00000E+00
 -1      1860 6.16500E+01 4.48040E+01 0.00000E+00
 -1      1861 6.54000E+01 4.61030E+01 0.00000E+00
 -1      1862 6.69000E+01 4.61030E+01 0.00000E+00
 -1      1863 6.46500E+01 4.48040E+01 0.00000E+00
 -1      1864 6.84000E+01 4.61030E+01 0.00000E+00
 -1      1865 6.99000E+01 4.61030E+01 0.00000E+00
 -1      1866 6.76500E+01 4.48040E+01 0.00000E+00
 -1      1867 7.14000E+01 4.61030E+01 0.00000E+00
 -1      1868 7.29000E+01 4.61030E+01 0.00000E+00
 -1      1869 7.06500E+01 4.48040E+01 0.00000E+00
 -1      1870 7.44000E+01 4.61030E+01 0.00000E+00
 -1      1871 7.59000E+01 4.61030E+01 0.00000E+00
 -1      1872 7.36500E+01 4.48040E+01 0.00000E+00
 -1      1873 7.74000E+01 4.61030E+01 0.00000E+00
 -1      1874 7.89000E+01 4.61030E+01 0.00000E+00
 -1      1875 7.66500E+01 4.48040E+01 0.00000E+00
 -1      1876 8.04000E+01 4.61030E+01 0.00000E+00
 -1      1877 8.19000E+01 4.61030E+01 0.00000E+00
 -1      1878 7.96500E+01 4.48040E+01 0.00000E+00
 -1      1879 8.34000E+01 4.61030E+01 0.00000E+00
 -1      1880 8.49000E+01 4.61030E+01 0.00000E+00
 -1      1881 8.26500E+01 4.48040E+01 0.00000E+00
 -1      1882 8.64000E+01 4.61030E+01 0.00000E+00
 -1      1883 8.79000E+01 4.61030E+01 0.00000E+00
 -1      1884 8.56500E+01 4.48040E+01 0.00000E+00
 -1      1885 8.94000E+01 4.61030E+01 0.00000E+00
 -1      1886 9.09000E+01 4.61030E+01 0.00000E+00
 -1      1887 8.86500E+01 4.48040E+01 0.00000E+00
 -1      1888 9.24000E+01 4.61030E+01 0.00000E+00
 -1      1889 9.39000E+01 4.61030E+01 0.00000E+00
 -1      1890 9.16500E+01 4.48040E+01 0.00000E+00
 -1      1891 9.54000E+01 4.61030E+01 0.00000E+00
 -1      1892 9.69000E+01 4.61030E+01 0.00000E+00
 -1      1893 9.46500E+01 4.48040E+01 0.00000E+00
 -1      1894 9.84000E+01 4.61030E+01 0.00000E+00
 -1      1895 9.99000E+01 4.61030E+01 0.00000E+00
 -1      1896 9.76500E+01 4.48040E+01 0.00000E+00
 -1      1897 1.01400E+02 4.61030E+01 0.00000E+00
 -1      1898 1.02900E+02 4.61030E+01 0.00000E+00
 -1      1899 1.00650E+02 4.48040E+01 0.00000E+00
 -1      1900 1.04400E+02 4.61030E+01 0.00000E+00
 -1      1901 1.05900E+02 4.61030E+01 0.00000E+00
 -1      1902 1.03650E+02 4.48040E+01 0.00000E+00
 -1      1903 1.07400E+02 4.61030E+01 0.00000E+00
 -1      1904 1.08900E+02 4.61030E+01 0.00000E+00
 -1      1905 1.06650E+02 4.48040E+01 0.00000E+00
 -1      1906 1.10400E+02 4.61030E+01 0.00000E+00
 -1      1907 1.11900E+02 4.61030E+01 0.00000E+00
 -1      1908 1.09650E+02 4.48040E+01 0.00000E+00
 -1      1909 1.13400E+02 4.61030E+01 0.00000E+00
 -1      1910 1.14900E+02 4.61030E+01 0.00000E+00
 -1      1911 1.12650E+02 4.48040E+01 0.00000E+00
 -1      1912 1.16400E+02 4.61030E+01 0.00000E+00
 -1      1913 1.17900E+02 4.61030E+01 0.00000E+00
 -1      1914 1.15650E+02 4.48040E+01 0.00000E+00
 -1      1915 1.19400E+02 4.61030E+01 0.00000E+00
 -1      1916 1.20900E+02 4.61030E+01 0.00000E+00
 -1      1917 1.18650E+02 4.48040E+01 0.00000E+00
 -1      1918 1.22400E+02 4.61030E+01 0.00000E+00
 -1      1919 1.23900E+02 4.61030E+01 0.00000E+00
 -1      1920 1.21650E+02 4.48040E+01 0.00000E+00
 -1      1921 1.25400E+02 4.61030E+01 0.00000E+00
 -1      1922 1.26900E+02 4.61030E+01 0.00000E+00
 -1      1923 1.24650E+02 4.48040E+01 0.00000E+00
 -1      1924 1.28400E+02 4.61030E+01 0.00000E+00
 -1      1925 1.29900E+02 4.61030E+01 0.00000E+00
 -1      1926 1.27650E+02 4.48040E+01 0.00000E+00
 -1      1927 1.31400E+02 4.61030E+01 0.00000E+00
 -1      1928 1.32900E+02 4.61030E+01 0.00000E+00
 -1      1929 1.30650E+02 4.48040E+01 0.00000E+00
 -1      1930 1.34400E+02 4.61030E+01 0.00000E+00
 -1      1931 1.35900E+02 4.61030E+01 0.00000E+00
 -1      1932 1.33650E+02 4.48040E+01 0.00000E+00
 -1      1933 1.37400E+02 4.61030E+01 0.00000E+00
 -1      1934 1.38900E+02 4.61030E+01 0.00000E+00
 -1      1935 1.36650E+02 4.48040E+01 0.00000E+00
 -1      1936 1.40400E+02 4.61030E+01 0.00000E+00
 -1      1937 1.41900E+02 4.61030E+01 0.00000E+00
 -1      1938 1.39650E+02 4.48040E+01 0.00000E+00
 -1      1939 1.43244E+02 4.61616E+01 0.00000E+00
 -1      1940 1.44744E+02 4.61616E+01 0.00000E+00
 -1      1941 1.45182E+02 4.49799E+01 0.00000E+00
 -1      1942 1.42494E+02 4.48626E+01 0.00000E+00
 -1      1943 1.17045E+01 3.09687E+00 0.00000E+00
 -1      1944 1.02045E+01 3.09687E+00 0.00000E+00
 -1      1945 1.00350E+01 4.00625E+00 0.00000E+00
 -1      1946 1.47045E+01 3.09687E+00 0.00000E+00
 -1      1947 1.32045E+01 3.09687E+00 0.00000E+00
 -1      1948 1.30350E+01 4.00625E+00 0.00000E+00
 -1      1949 1.77045E+01 3.09687E+00 0.00000E+00
 -1      1950 1.62045E+01 3.09687E+00 0.00000E+00
 -1      1951 1.60350E+01 4.00625E+00 0.00000E+00
 -1      1952 2.07045E+01 3.09687E+00 0.00000E+00
 -1      1953 1.92045E+01 3.09687E+00 0.00000E+00
 -1      1954 1.90350E+01 4.00625E+00 0.00000E+00
 -1      1955 2.37045E+01 3.09687E+00 0.00000E+00
 -1      1956 2.22045E+01 3.09687E+00 0.00000E+00
 -1      1957 2.20350E+01 4.00625E+00 0.00000E+00
 -1      1958 2.67045E+01 3.09687E+00 0.00000E+00
 -1      1959 2.52045E+01 3.09687E+00 0.00000E+00
 -1      1960 2.50350E+01 4.00625E+00 0.00000E+00
 -1      1961 2.97045E+01 3.09687E+00 0.00000E+00
 -1      1962 2.82045E+01 3.09687E+00 0.00000E+00
 -1      1963 2.80350E+01 4.00625E+00 0.00000E+00
 -1      1964 3.27045E+01 3.09687E+00 0.00000E+00
 -1      1965 3.12045E+01 3.09687E+00 0.00000E+00
 -1      1966 3.10350E+01 4.00625E+00 0.00000E+00
 -1      1967 3.57045E+01 3.09687E+00 0.00000E+00
 -1      1968 3.42045E+01 3.09687E+00 0.00000E+00
 -1      1969 3.40350E+01 4.00625E+00 0.00000E+00
 -1      1970 3.87045E+01 3.09687E+00 0.00000E+00
 -1      1971 3.72045E+01 3.09687E+00 0.00000E+00
 -1      1972 3.70350E+01 4.00625E+00 0.00000E+00
 -1      1973 4.17045E+01 3.09687E+00 0.00000E+00
 -1      1974 4.02045E+01 3.09687E+00 0.00000E+00
 -1      1975 4.00350E+01 4.00625E+00 0.00000E+00
 -1      1976 4.47045E+01 3.09687E+00 0.00000E+00
 -1      1977 4.32045E+01 3.09687E+00 0.00000E+00
 -1      1978 4.30350E+01 4.00625E+00 0.00000E+00
 -1      1979 4.77045E+01 3.09687E+00 0.00000E+00
 -1      1980 4.62045E+01 3.09687E+00 0.00000E+00
 -1      1981 4.60350E+01 4.00625E+00 0.00000E+00
 -1      1982 5.07045E+01 3.09687E+00 0.00000E+00
 -1      1983 4.92045E+01 3.09687E+00 0.00000E+00
 -1      1984 4.90350E+01 4.00625E+00 0.00000E+00
 -1      1985 5.37045E+01 3.09687E+00 0.00000E+00
 -1      1986 5.22045E+01 3.09687E+00 0.00000E+00
 -1      1987 5.20350E+01 4.00625E+00 0.00000E+00
 -1      1988 5.67045E+01 3.09687E+00 0.00000E+00
 -1      1989 5.52045E+01 3.09687E+00 0.00000E+00
 -1      1990 5.50350E+01 4.00625E+00 0.00000E+00
 -1      1991 5.97045E+01 3.09687E+00 0.00000E+00
 -1      1992 5.82045E+01 3.09687E+00 0.00000E+00
 -1      1993 5.80350E+01 4.00625E+00 0.00000E+00
 -1      1994 6.27045E+01 3.09687E+00 0.00000E+00
 -1      1995 6.12045E+01 3.09687E+00 0.00000E+00
 -1      1996 6.10350E+01 4.00625E+00 0.00000E+00
 -1      1997 6.57045E+01 3.09687E+00 0.00000E+00
 -1      1998 6.42045E+01 3.09687E+00 0.00000E+00
 -1      1999 6.40350E+01 4.00625E+00 0.00000E+00
 -1      2000 6.87045E+01 3.09687E+00 0.00000E+00
 -1      2001 6.72045E+01 3.09687E+00 0.00000E+00
 -1      2002 6.70350E+01 4.00625E+00 0.00000E+00
 -1      2003 7.17045E+01 3.09687E+00 0.00000E+00
 -1      2004 7.02045E+01 3.09687E+00 0.00000E+00
 -1      2005 7.00350E+01 4.00625E+00 0.00000E+00
 -1      2006 7.47045E+01 3.09687E+00 0.00000E+00
 -1      2007 7.32045E+01 3.09687E+00 0.00000E+00
 -1      2008 7.30350E+01 4.00625E+00 0.00000E+00
 -1      2009 7.77045E+01 3.09687E+00 0.00000E+00
 -1      2010 7.62045E+01 3.09687E+00 0.00000E+00
 -1      2011 7.60350E+01 4.00625E+00 0.00000E+00
 -1      2012 8.07045E+01 3.09687E+00 0.00000E+00
 -1      2013 7.92045E+01 3.09687E+00 0.00000E+00
 -1      2014 7.90350E+01 4.00625E+00 0.00000E+00
 -1      2015 8.37045E+01 3.09687E+00 0.00000E+00
 -1      2016 8.22045E+01 3.09687E+00 0.00000E+00
 -1      2017 8.20350E+01 4.00625E+00 0.00000E+00
 -1      2018 8.67045E+01 3.09687E+00 0.00000E+00
 -1      2019 8.52045E+01 3.09687E+00 0.00000E+00
 -1      2020 8.50350E+01 4.00625E+00 0.00000E+00
 -1      2021 8.97045E+01 3.09687E+00 0.00000E+00
 -1      2022 8.82045E+01 3.09687E+00 0.00000E+00
 -1      2023 8.80350E+01 4.00625E+00 0.00000E+00
 -1      2024 9.27045E+01 3.09687E+00 0.00000E+00
 -1      2025 9.12045E+01 3.09687E+00 0.00000E+00
 -1      2026 9.10350E+01 4.00625E+00 0.00000E+00
 -1      2027 9.57045E+01 3.09687E+00 0.00000E+00
 -1      2028 9.42045E+01 3.09687E+00 0.00000E+00
 -1      2029 9.40350E+01 4.00625E+00 0.00000E+00
 -1      2030 9.87045E+01 3.09687E+00 0.00000E+00
 -1      2031 9.72045E+01 3.09687E+00 0.00000E+00
 -1      2032 9.70350E+01 4.00625E+00 0.00000E+00
 -1      2033 1.01704E+02 3.09687E+00 0.00000E+00
 -1      2034 1.00204E+02 3.09687E+00 0.00000E+00
 -1      2035 1.00035E+02 4.00625E+00 0.00000E+00
 -1      2036 1.04704E+02 3.09687E+00 0.00000E+00
 -1      2037 1.03204E+02 3.09687E+00 0.00000E+00
 -1      2038 1.03035E+02 4.00625E+00 0.00000E+00
 -1      2039 1.07704E+02 3.09687E+00 0.00000E+00
 -1      2040 1.06204E+02 3.09687E+00 0.00000E+00
 -1      2041 1.06035E+02 4.00625E+00 0.00000E+00
 -1      2042 1.10704E+02 3.09687E+00 0.00000E+00
 -1      2043 1.09204E+02 3.09687E+00 0.00000E+00
 -1      2044 1.09035E+02 4.00625E+00 0.00000E+00
 -1      2045 1.13704E+02 3.09687E+00 0.00000E+00
 -1      2046 1.12204E+02 3.09687E+00 0.00000E+00
 -1      2047 1.12035E+02 4.00625E+00 0.00000E+00
 -1      2048 1.16704E+02 3.09687E+00 0.00000E+00
 -1      2049 1.15204E+02 3.09687E+00 0.00000E+00
 -1      2050 1.15035E+02 4.00625E+00 0.00000E+00
 -1      2051 1.19704E+02 3.09687E+00 0.00000E+00
 -1      2052 1.18204E+02 3.09687E+00 0.00000E+00
 -1      2053 1.18035E+02 4.00625E+00 0.00000E+00
 -1      2054 1.22704E+02 3.09687E+00 0.00000E+00
 -1      2055 1.21204E+02 3.09687E+00 0.00000E+00
 -1      2056 1.21035E+02 4.00625E+00 0.00000E+00
 -1      2057 1.25704E+02 3.09687E+00 0.00000E+00
 -1      2058 1.24204E+02 3.09687E+00 0.00000E+00
 -1      2059 1.24035E+02 4.00625E+00 0.00000E+00
 -1      2060 1.28704E+02 3.09687E+00 0.00000E+00
 -1      2061 1.27204E+02 3.09687E+00 0.00000E+00
 -1      2062 1.27035E+02 4.00625E+00 0.00000E+00
 -1      2063 1.31704E+02 3.09687E+00 0.00000E+00
 -1      2064 1.30204E+02 3.09687E+00 0.00000E+00
 -1      2065 1.30035E+02 4.00625E+00 0.00000E+00
 -1      2066 1.34704E+02 3.09687E+00 0.00000E+00
 -1      2067 1.33204E+02 3.09687E+00 0.00000E+00
 -1      2068 1.33035E+02 4.00625E+00 0.00000E+00
 -1      2069 1.37704E+02 3.09687E+00 0.00000E+00
 -1      2070 1.36204E+02 3.09687E+00 0.00000E+00
 -1      2071 1.36035E+02 4.00625E+00 0.00000E+00
 -1      2072 1.40704E+02 3.09687E+00 0.00000E+00
 -1      2073 1.39204E+02 3.09687E+00 0.00000E+00
 -1      2074 1.39035E+02 4.00625E+00 0.00000E+00
 -1      2075 1.43704E+02 3.09687E+00 0.00000E+00
 -1      2076 1.42204E+02 3.09687E+00 0.00000E+00
 -1      2077 1.42035E+02 4.00625E+00 0.00000E+00
 -1      2078 1.46171E+02 3.20156E+00 0.00000E+00
 -1      2079 1.44671E+02 3.20156E+00 0.00000E+00
 -1      2080 1.44502E+02 4.11094E+00 0.00000E+00
 -1      2081 1.46435E+02 4.32031E+00 0.00000E+00
 -1      2082 1.46103E+02 1.25375E+01 0.00000E+00
 -1      2083 1.46103E+02 1.10625E+01 0.00000E+00
 -1      2084 1.46103E+02 9.58750E+00 0.00000E+00
 -1      2085 1.46103E+02 8.11250E+00 0.00000E+00
 -1      2086 1.44804E+02 1.03250E+01 0.00000E+00
 -1      2087 1.46269E+02 6.95391E+00 0.00000E+00
 -1      2088 1.46269E+02 5.47891E+00 0.00000E+00
 -1      2089 1.45302E+02 5.37422E+00 0.00000E+00
 -1      2090 1.44970E+02 7.69141E+00 0.00000E+00
 -1      2091 1.46103E+02 1.54375E+01 0.00000E+00
 -1      2092 1.46103E+02 1.39875E+01 0.00000E+00
 -1      2093 1.44804E+02 1.32500E+01 0.00000E+00
 -1      2094 1.46103E+02 1.83875E+01 0.00000E+00
 -1      2095 1.46103E+02 1.69125E+01 0.00000E+00
 -1      2096 1.44804E+02 1.61750E+01 0.00000E+00
 -1      2097 1.46103E+02 2.13375E+01 0.00000E+00
 -1      2098 1.46103E+02 1.98625E+01 0.00000E+00
 -1      2099 1.44804E+02 1.91250E+01 0.00000E+00
 -1      2100 1.46103E+02 2.42875E+01 0.00000E+00
 -1      2101 1.46103E+02 2.28125E+01 0.00000E+00
 -1      2102 1.44804E+02 2.20750E+01 0.00000E+00
 -1      2103 1.46103E+02 2.72375E+01 0.00000E+00
 -1      2104 1.46103E+02 2.57625E+01 0.00000E+00
 -1      2105 1.44804E+02 2.50250E+01 0.00000E+00
 -1      2106 1.46103E+02 3.01875E+01 0.00000E+00
 -1      2107 1.46103E+02 2.87125E+01 0.00000E+00
 -1      2108 1.44804E+02 2.79750E+01 0.00000E+00
 -1      2109 1.46103E+02 3.30875E+01 0.00000E+00
 -1      2110 1.46103E+02 3.16375E+01 0.00000E+00
 -1      2111 1.44804E+02 3.09000E+01 0.00000E+00
 -1      2112 1.46103E+02 3.60375E+01 0.00000E+00
 -1      2113 1.46103E+02 3.45625E+01 0.00000E+00
 -1      2114 1.44804E+02 3.38250E+01 0.00000E+00
 -1      2115 1.46103E+02 3.89875E+01 0.00000E+00
 -1      2116 1.46103E+02 3.75125E+01 0.00000E+00
 -1      2117 1.44804E+02 3.67750E+01 0.00000E+00
 -1      2118 1.46103E+02 4.19375E+01 0.00000E+00
 -1      2119 1.46103E+02 4.04625E+01 0.00000E+00
 -1      2120 1.44804E+02 3.97250E+01 0.00000E+00
 -1      2121 5.08489E+01 2.11923E+01 0.00000E+00
 -1      2122 5.12252E+01 2.19832E+01 0.00000E+00
 -1      2123 5.20389E+01 2.49864E+01 0.00000E+00
 -1      2124 5.18828E+01 2.59002E+01 0.00000E+00
 -1      2125 5.16772E+01 2.28400E+01 0.00000E+00
 -1      2126 5.20004E+01 2.37091E+01 0.00000E+00
 -1      2127 4.99678E+01 1.94425E+01 0.00000E+00
 -1      2128 5.04422E+01 2.03086E+01 0.00000E+00
 -1      2129 4.81230E+01 1.80990E+01 0.00000E+00
 -1      2130 4.89745E+01 1.85300E+01 0.00000E+00
 -1      2131 3.89700E+00 3.74688E+01 0.00000E+00
 -1      2132 3.89700E+00 3.89437E+01 0.00000E+00
 -1      2133 5.19600E+00 3.96813E+01 0.00000E+00
 -1      2134 5.19600E+00 3.67438E+01 0.00000E+00
 -1      2135 4.47644E+01 1.66130E+01 0.00000E+00
 -1      2136 4.56557E+01 1.68774E+01 0.00000E+00
 -1      2137 4.26752E+01 1.62884E+01 0.00000E+00
 -1      2138 4.36015E+01 1.62313E+01 0.00000E+00
 -1      2139 4.09287E+01 1.65518E+01 0.00000E+00
 -1      2140 4.18019E+01 1.64201E+01 0.00000E+00
 -1      2141 4.22072E+01 1.54520E+01 0.00000E+00
 -1      2142 3.89527E+01 1.73704E+01 0.00000E+00
 -1      2143 3.97907E+01 1.69986E+01 0.00000E+00
 -1      2144 3.73075E+01 1.85124E+01 0.00000E+00
 -1      2145 3.80102E+01 1.79451E+01 0.00000E+00
 -1      2146 3.60403E+01 1.98602E+01 0.00000E+00
 -1      2147 3.66434E+01 1.92332E+01 0.00000E+00
 -1      2148 3.49288E+01 2.14564E+01 0.00000E+00
 -1      2149 3.53127E+01 2.06793E+01 0.00000E+00
 -1      2150 3.44738E+01 2.32413E+01 0.00000E+00
 -1      2151 3.47235E+01 2.24249E+01 0.00000E+00
 -1      2152 3.38909E+01 2.49924E+01 0.00000E+00
 -1      2153 3.40467E+01 2.41227E+01 0.00000E+00
 -1      2154 3.39531E+01 2.70349E+01 0.00000E+00
 -1      2155 3.39073E+01 2.60889E+01 0.00000E+00
 -1      2156 3.49041E+01 2.90106E+01 0.00000E+00
 -1      2157 3.44284E+01 2.82031E+01 0.00000E+00
 -1      2158 3.57570E+01 3.06140E+01 0.00000E+00
 -1      2159 3.53306E+01 2.98123E+01 0.00000E+00
 -1      2160 3.45343E+01 2.97375E+01 0.00000E+00
 -1      2161 3.70914E+01 3.21303E+01 0.00000E+00
 -1      2162 3.64057E+01 3.15682E+01 0.00000E+00
 -1      2163 3.84769E+01 3.32839E+01 0.00000E+00
 -1      2164 3.77842E+01 3.27071E+01 0.00000E+00
 -1      2165 3.69508E+01 3.30245E+01 0.00000E+00
 -1      2166 4.04811E+01 3.40506E+01 0.00000E+00
 -1      2167 3.95870E+01 3.38596E+01 0.00000E+00
 -1      2168 4.22164E+01 3.43514E+01 0.00000E+00
 -1      2169 4.13488E+01 3.42010E+01 0.00000E+00
 -1      2170 4.07313E+01 3.49032E+01 0.00000E+00
 -1      2171 4.42372E+01 3.41142E+01 0.00000E+00
 -1      2172 4.33593E+01 3.42324E+01 0.00000E+00
 -1      2173 4.60389E+01 3.36818E+01 0.00000E+00
 -1      2174 4.52103E+01 3.39414E+01 0.00000E+00
 -1      2175 4.77340E+01 3.28943E+01 0.00000E+00
 -1      2176 4.69826E+01 3.33186E+01 0.00000E+00
 -1      2177 4.92132E+01 3.17650E+01 0.00000E+00
 -1      2178 4.84953E+01 3.22984E+01 0.00000E+00
 -1      2179 5.05319E+01 3.02265E+01 0.00000E+00
 -1      2180 5.00779E+01 3.09909E+01 0.00000E+00
 -1      2181 5.12363E+01 2.85648E+01 0.00000E+00
 -1      2182 5.08955E+01 2.93396E+01 0.00000E+00
 -1      2183 5.17081E+01 2.67296E+01 0.00000E+00
 -1      2184 5.15333E+01 2.75589E+01 0.00000E+00
 -1      2185 5.24662E+01 2.63888E+01 0.00000E+00
 -1      2186 4.66424E+01 1.72709E+01 0.00000E+00
 -1      2187 4.73827E+01 1.76850E+01 0.00000E+00
 -1      2188 4.81201E+01 1.72849E+01 0.00000E+00
 -1      2189 4.98536E+01 1.86114E+01 0.00000E+00
 -1      2190 5.07327E+01 1.86928E+01 0.00000E+00
 -1      2191 4.97394E+01 1.77803E+01 0.00000E+00
 -1      2192 6.42300E+00 4.57510E+01 0.00000E+00
 -1      2193 4.63930E+01 1.64772E+01 0.00000E+00
 -1      2194 7.17300E+00 4.44520E+01 0.00000E+00
 -1      2195 5.21121E+01 2.21481E+01 0.00000E+00
 -1      2196 5.26025E+01 2.42822E+01 0.00000E+00
 -1      2197 5.32046E+01 2.48552E+01 0.00000E+00
 -1      2198 5.31662E+01 2.35779E+01 0.00000E+00
 -1      2199 1.45665E+02 4.31193E+01 0.00000E+00
 -1      2200 5.12535E+01 2.04076E+01 0.00000E+00
 -1      2201 5.19945E+01 2.82241E+01 0.00000E+00
 -1      2202 5.13339E+01 3.01169E+01 0.00000E+00
 -1      2203 5.01055E+01 3.17778E+01 0.00000E+00
 -1      2204 4.84795E+01 3.31478E+01 0.00000E+00
 -1      2205 4.67746E+01 3.41069E+01 0.00000E+00
 -1      2206 4.27419E+01 3.49345E+01 0.00000E+00
 -1      2207 3.87536E+01 3.41771E+01 0.00000E+00
 -1      2208 3.56094E+01 3.14934E+01 0.00000E+00
 -1      2209 3.36326E+01 2.77676E+01 0.00000E+00
 -1      2210 3.28368E+01 2.73321E+01 0.00000E+00
 -1      2211 3.33121E+01 2.85003E+01 0.00000E+00
 -1      2212 3.31410E+01 2.55029E+01 0.00000E+00
 -1      2213 3.35518E+01 2.35249E+01 0.00000E+00
 -1      2214 3.41841E+01 2.16750E+01 0.00000E+00
 -1      2215 3.51170E+01 1.98874E+01 0.00000E+00
 -1      2216 3.65087E+01 1.83475E+01 0.00000E+00
 -1      2217 4.01959E+01 1.60305E+01 0.00000E+00
 -1      2218 4.42434E+01 1.57020E+01 0.00000E+00
 -1      2219 3.81153E+01 1.70520E+01 0.00000E+00
 -1      2220 4.48578E+01 3.46428E+01 0.00000E+00
 -1      2221 1.07850E+01 5.30525E+00 0.00000E+00
 -1      2222 9.28500E+00 5.30525E+00 0.00000E+00
 -1      2223 6.49500E+00 3.01125E+01 0.00000E+00
 -1      2224 6.49500E+00 3.15875E+01 0.00000E+00
 -1      2225 6.49500E+00 3.30625E+01 0.00000E+00
 -1      2226 6.49500E+00 3.45375E+01 0.00000E+00
 -1      2227 7.79400E+00 3.23250E+01 0.00000E+00
 -1      2228 6.49500E+00 2.42125E+01 0.00000E+00
 -1      2229 6.49500E+00 2.56875E+01 0.00000E+00
 -1      2230 6.49500E+00 2.12625E+01 0.00000E+00
 -1      2231 6.49500E+00 2.27375E+01 0.00000E+00
 -1      2232 7.79400E+00 2.34750E+01 0.00000E+00
 -1      2233 6.49500E+00 1.83625E+01 0.00000E+00
 -1      2234 6.49500E+00 1.98125E+01 0.00000E+00
 -1      2235 7.79400E+00 2.05500E+01 0.00000E+00
 -1      2236 6.49500E+00 1.54125E+01 0.00000E+00
 -1      2237 6.49500E+00 1.68875E+01 0.00000E+00
 -1      2238 7.79400E+00 1.76250E+01 0.00000E+00
 -1      2239 6.49500E+00 1.24625E+01 0.00000E+00
 -1      2240 6.49500E+00 1.39375E+01 0.00000E+00
 -1      2241 7.79400E+00 1.46750E+01 0.00000E+00
 -1      2242 6.49500E+00 9.51250E+00 0.00000E+00
 -1      2243 6.49500E+00 1.09875E+01 0.00000E+00
 -1      2244 7.79400E+00 1.17250E+01 0.00000E+00
 -1      2245 1.37850E+01 5.30525E+00 0.00000E+00
 -1      2246 1.22850E+01 5.30525E+00 0.00000E+00
 -1      2247 1.15350E+01 6.60425E+00 0.00000E+00
 -1      2248 9.90000E+00 4.35050E+01 0.00000E+00
 -1      2249 1.14000E+01 4.35050E+01 0.00000E+00
 -1      2250 4.61553E+01 1.56396E+01 0.00000E+00
 -1      2251 4.71420E+01 1.60331E+01 0.00000E+00
 -1      2252 1.29000E+01 4.35050E+01 0.00000E+00
 -1      2253 1.44000E+01 4.35050E+01 0.00000E+00
 -1      2254 1.21500E+01 4.22060E+01 0.00000E+00
 -1      2255 1.59000E+01 4.35050E+01 0.00000E+00
 -1      2256 1.74000E+01 4.35050E+01 0.00000E+00
 -1      2257 1.51500E+01 4.22060E+01 0.00000E+00
 -1      2258 1.89000E+01 4.35050E+01 0.00000E+00
 -1      2259 2.04000E+01 4.35050E+01 0.00000E+00
 -1      2260 1.81500E+01 4.22060E+01 0.00000E+00
 -1      2261 2.19000E+01 4.35050E+01 0.00000E+00
 -1      2262 2.34000E+01 4.35050E+01 0.00000E+00
 -1      2263 2.11500E+01 4.22060E+01 0.00000E+00
 -1      2264 2.49000E+01 4.35050E+01 0.00000E+00
 -1      2265 2.64000E+01 4.35050E+01 0.00000E+00
 -1      2266 2.41500E+01 4.22060E+01 0.00000E+00
 -1      2267 2.79000E+01 4.35050E+01 0.00000E+00
 -1      2268 2.94000E+01 4.35050E+01 0.00000E+00
 -1      2269 2.71500E+01 4.22060E+01 0.00000E+00
 -1      2270 3.09000E+01 4.35050E+01 0.00000E+00
 -1      2271 3.24000E+01 4.35050E+01 0.00000E+00
 -1      2272 3.01500E+01 4.22060E+01 0.00000E+00
 -1      2273 3.39000E+01 4.35050E+01 0.00000E+00
 -1      2274 3.54000E+01 4.35050E+01 0.00000E+00
 -1      2275 3.31500E+01 4.22060E+01 0.00000E+00
 -1      2276 3.69000E+01 4.35050E+01 0.00000E+00
 -1      2277 3.84000E+01 4.35050E+01 0.00000E+00
 -1      2278 3.61500E+01 4.22060E+01 0.00000E+00
 -1      2279 3.99000E+01 4.35050E+01 0.00000E+00
 -1      2280 4.14000E+01 4.35050E+01 0.00000E+00
 -1      2281 3.91500E+01 4.22060E+01 0.00000E+00
 -1      2282 4.29000E+01 4.35050E+01 0.00000E+00
 -1      2283 4.44000E+01 4.35050E+01 0.00000E+00
 -1      2284 4.21500E+01 4.22060E+01 0.00000E+00
 -1      2285 4.59000E+01 4.35050E+01 0.00000E+00
 -1      2286 4.74000E+01 4.35050E+01 0.00000E+00
 -1      2287 4.51500E+01 4.22060E+01 0.00000E+00
 -1      2288 4.89000E+01 4.35050E+01 0.00000E+00
 -1      2289 5.04000E+01 4.35050E+01 0.00000E+00
 -1      2290 4.81500E+01 4.22060E+01 0.00000E+00
 -1      2291 5.19000E+01 4.35050E+01 0.00000E+00
 -1      2292 5.34000E+01 4.35050E+01 0.00000E+00
 -1      2293 5.11500E+01 4.22060E+01 0.00000E+00
 -1      2294 5.49000E+01 4.35050E+01 0.00000E+00
 -1      2295 5.64000E+01 4.35050E+01 0.00000E+00
 -1      2296 5.41500E+01 4.22060E+01 0.00000E+00
 -1      2297 5.79000E+01 4.35050E+01 0.00000E+00
 -1      2298 5.94000E+01 4.35050E+01 0.00000E+00
 -1      2299 5.71500E+01 4.22060E+01 0.00000E+00
 -1      2300 6.09000E+01 4.35050E+01 0.00000E+00
 -1      2301 6.24000E+01 4.35050E+01 0.00000E+00
 -1      2302 6.01500E+01 4.22060E+01 0.00000E+00
 -1      2303 6.39000E+01 4.35050E+01 0.00000E+00
 -1      2304 6.54000E+01 4.35050E+01 0.00000E+00
 -1      2305 6.31500E+01 4.22060E+01 0.00000E+00
 -1      2306 6.69000E+01 4.35050E+01 0.00000E+00
 -1      2307 6.84000E+01 4.35050E+01 0.00000E+00
 -1      2308 6.61500E+01 4.22060E+01 0.00000E+00
 -1      2309 6.99000E+01 4.35050E+01 0.00000E+00
 -1      2310 7.14000E+01 4.35050E+01 0.00000E+00
 -1      2311 6.91500E+01 4.22060E+01 0.00000E+00
 -1      2312 7.29000E+01 4.35050E+01 0.00000E+00
 -1      2313 7.44000E+01 4.35050E+01 0.00000E+00
 -1      2314 7.21500E+01 4.22060E+01 0.00000E+00
 -1      2315 7.59000E+01 4.35050E+01 0.00000E+00
 -1      2316 7.74000E+01 4.35050E+01 0.00000E+00
 -1      2317 7.51500E+01 4.22060E+01 0.00000E+00
 -1      2318 7.89000E+01 4.35050E+01 0.00000E+00
 -1      2319 8.04000E+01 4.35050E+01 0.00000E+00
 -1      2320 7.81500E+01 4.22060E+01 0.00000E+00
 -1      2321 8.19000E+01 4.35050E+01 0.00000E+00
 -1      2322 8.34000E+01 4.35050E+01 0.00000E+00
 -1      2323 8.11500E+01 4.22060E+01 0.00000E+00
 -1      2324 8.49000E+01 4.35050E+01 0.00000E+00
 -1      2325 8.64000E+01 4.35050E+01 0.00000E+00
 -1      2326 8.41500E+01 4.22060E+01 0.00000E+00
 -1      2327 8.79000E+01 4.35050E+01 0.00000E+00
 -1      2328 8.94000E+01 4.35050E+01 0.00000E+00
 -1      2329 8.71500E+01 4.22060E+01 0.00000E+00
 -1      2330 9.09000E+01 4.35050E+01 0.00000E+00
 -1      2331 9.24000E+01 4.35050E+01 0.00000E+00
 -1      2332 9.01500E+01 4.22060E+01 0.00000E+00
 -1      2333 9.39000E+01 4.35050E+01 0.00000E+00
 -1      2334 9.54000E+01 4.35050E+01 0.00000E+00
 -1      2335 9.31500E+01 4.22060E+01 0.00000E+00
 -1      2336 9.69000E+01 4.35050E+01 0.00000E+00
 -1      2337 9.84000E+01 4.35050E+01 0.00000E+00
 -1      2338 9.61500E+01 4.22060E+01 0.00000E+00
 -1      2339 9.99000E+01 4.35050E+01 0.00000E+00
 -1      2340 1.01400E+02 4.35050E+01 0.00000E+00
 -1      2341 9.91500E+01 4.22060E+01 0.00000E+00
 -1      2342 1.02900E+02 4.35050E+01 0.00000E+00
 -1      2343 1.04400E+02 4.35050E+01 0.00000E+00
 -1      2344 1.02150E+02 4.22060E+01 0.00000E+00
 -1      2345 1.05900E+02 4.35050E+01 0.00000E+00
 -1      2346 1.07400E+02 4.35050E+01 0.00000E+00
 -1      2347 1.05150E+02 4.22060E+01 0.00000E+00
 -1      2348 1.08900E+02 4.35050E+01 0.00000E+00
 -1      2349 1.10400E+02 4.35050E+01 0.00000E+00
 -1      2350 1.08150E+02 4.22060E+01 0.00000E+00
 -1      2351 1.11900E+02 4.35050E+01 0.00000E+00
 -1      2352 1.13400E+02 4.35050E+01 0.00000E+00
 -1      2353 1.11150E+02 4.22060E+01 0.00000E+00
 -1      2354 1.14900E+02 4.35050E+01 0.00000E+00
 -1      2355 1.16400E+02 4.35050E+01 0.00000E+00
 -1      2356 1.14150E+02 4.22060E+01 0.00000E+00
 -1      2357 1.17900E+02 4.35050E+01 0.00000E+00
 -1      2358 1.19400E+02 4.35050E+01 0.00000E+00
 -1      2359 1.17150E+02 4.22060E+01 0.00000E+00
 -1      2360 1.20900E+02 4.35050E+01 0.00000E+00
 -1      2361 1.22400E+02 4.35050E+01 0.00000E+00
 -1      2362 1.20150E+02 4.22060E+01 0.00000E+00
 -1      2363 1.23900E+02 4.35050E+01 0.00000E+00
 -1      2364 1.25400E+02 4.35050E+01 0.00000E+00
 -1      2365 1.23150E+02 4.22060E+01 0.00000E+00
 -1      2366 1.26900E+02 4.35050E+01 0.00000E+00
 -1      2367 1.28400E+02 4.35050E+01 0.00000E+00
 -1      2368 1.26150E+02 4.22060E+01 0.00000E+00
 -1      2369 1.29900E+02 4.35050E+01 0.00000E+00
 -1      2370 1.31400E+02 4.35050E+01 0.00000E+00
 -1      2371 1.29150E+02 4.22060E+01 0.00000E+00
 -1      2372 1.32900E+02 4.35050E+01 0.00000E+00
 -1      2373 1.34400E+02 4.35050E+01 0.00000E+00
 -1      2374 1.32150E+02 4.22060E+01 0.00000E+00
 -1      2375 1.35900E+02 4.35050E+01 0.00000E+00
 -1      2376 1.37400E+02 4.35050E+01 0.00000E+00
 -1      2377 1.35150E+02 4.22060E+01 0.00000E+00
 -1      2378 1.38900E+02 4.35050E+01 0.00000E+00
 -1      2379 1.40400E+02 4.35050E+01 0.00000E+00
 -1      2380 1.38150E+02 4.22060E+01 0.00000E+00
 -1      2381 1.97850E+01 5.30525E+00 0.00000E+00
 -1      2382 1.82850E+01 5.30525E+00 0.00000E+00
 -1      2383 2.27850E+01 5.30525E+00 0.00000E+00
 -1      2384 2.12850E+01 5.30525E+00 0.00000E+00
 -1      2385 2.05350E+01 6.60425E+00 0.00000E+00
 -1      2386 2.57850E+01 5.30525E+00 0.00000E+00
 -1      2387 2.42850E+01 5.30525E+00 0.00000E+00
 -1      2388 2.35350E+01 6.60425E+00 0.00000E+00
 -1      2389 2.87850E+01 5.30525E+00 0.00000E+00
 -1      2390 2.72850E+01 5.30525E+00 0.00000E+00
 -1      2391 2.65350E+01 6.60425E+00 0.00000E+00
 -1      2392 3.17850E+01 5.30525E+00 0.00000E+00
 -1      2393 3.02850E+01 5.30525E+00 0.00000E+00
 -1      2394 2.95350E+01 6.60425E+00 0.00000E+00
 -1      2395 3.47850E+01 5.30525E+00 0.00000E+00
 -1      2396 3.32850E+01 5.30525E+00 0.00000E+00
 -1      2397 3.25350E+01 6.60425E+00 0.00000E+00
 -1      2398 3.77850E+01 5.30525E+00 0.00000E+00
 -1      2399 3.62850E+01 5.30525E+00 0.00000E+00
 -1      2400 3.55350E+01 6.60425E+00 0.00000E+00
 -1      2401 4.07850E+01 5.30525E+00 0.00000E+00
 -1      2402 3.92850E+01 5.30525E+00 0.00000E+00
 -1      2403 3.85350E+01 6.60425E+00 0.00000E+00
 -1      2404 4.37850E+01 5.30525E+00 0.00000E+00
 -1      2405 4.22850E+01 5.30525E+00 0.00000E+00
 -1      2406 4.15350E+01 6.60425E+00 0.00000E+00
 -1      2407 4.67850E+01 5.30525E+00 0.00000E+00
 -1      2408 4.52850E+01 5.30525E+00 0.00000E+00
 -1      2409 4.45350E+01 6.60425E+00 0.00000E+00
 -1      2410 4.97850E+01 5.30525E+00 0.00000E+00
 -1      2411 4.82850E+01 5.30525E+00 0.00000E+00
 -1      2412 4.75350E+01 6.60425E+00 0.00000E+00
 -1      2413 5.27850E+01 5.30525E+00 0.00000E+00
 -1      2414 5.12850E+01 5.30525E+00 0.00000E+00
 -1      2415 5.05350E+01 6.60425E+00 0.00000E+00
 -1      2416 5.57850E+01 5.30525E+00 0.00000E+00
 -1      2417 5.42850E+01 5.30525E+00 0.00000E+00
 -1      2418 5.35350E+01 6.60425E+00 0.00000E+00
 -1      2419 5.87850E+01 5.30525E+00 0.00000E+00
 -1      2420 5.72850E+01 5.30525E+00 0.00000E+00
 -1      2421 5.65350E+01 6.60425E+00 0.00000E+00
 -1      2422 6.17850E+01 5.30525E+00 0.00000E+00
 -1      2423 6.02850E+01 5.30525E+00 0.00000E+00
 -1      2424 5.95350E+01 6.60425E+00 0.00000E+00
 -1      2425 6.47850E+01 5.30525E+00 0.00000E+00
 -1      2426 6.32850E+01 5.30525E+00 0.00000E+00
 -1      2427 6.25350E+01 6.60425E+00 0.00000E+00
 -1      2428 6.77850E+01 5.30525E+00 0.00000E+00
 -1      2429 6.62850E+01 5.30525E+00 0.00000E+00
 -1      2430 6.55350E+01 6.60425E+00 0.00000E+00
 -1      2431 7.07850E+01 5.30525E+00 0.00000E+00
 -1      2432 6.92850E+01 5.30525E+00 0.00000E+00
 -1      2433 6.85350E+01 6.60425E+00 0.00000E+00
 -1      2434 7.37850E+01 5.30525E+00 0.00000E+00
 -1      2435 7.22850E+01 5.30525E+00 0.00000E+00
 -1      2436 7.15350E+01 6.60425E+00 0.00000E+00
 -1      2437 7.67850E+01 5.30525E+00 0.00000E+00
 -1      2438 7.52850E+01 5.30525E+00 0.00000E+00
 -1      2439 7.45350E+01 6.60425E+00 0.00000E+00
 -1      2440 7.97850E+01 5.30525E+00 0.00000E+00
 -1      2441 7.82850E+01 5.30525E+00 0.00000E+00
 -1      2442 7.75350E+01 6.60425E+00 0.00000E+00
 -1      2443 8.27850E+01 5.30525E+00 0.00000E+00
 -1      2444 8.12850E+01 5.30525E+00 0.00000E+00
 -1      2445 8.05350E+01 6.60425E+00 0.00000E+00
 -1      2446 8.57850E+01 5.30525E+00 0.00000E+00
 -1      2447 8.42850E+01 5.30525E+00 0.00000E+00
 -1      2448 8.35350E+01 6.60425E+00 0.00000E+00
 -1      2449 8.87850E+01 5.30525E+00 0.00000E+00
 -1      2450 8.72850E+01 5.30525E+00 0.00000E+00
 -1      2451 8.65350E+01 6.60425E+00 0.00000E+00
 -1      2452 9.17850E+01 5.30525E+00 0.00000E+00
 -1      2453 9.02850E+01 5.30525E+00 0.00000E+00
 -1      2454 8.95350E+01 6.60425E+00 0.00000E+00
 -1      2455 9.47850E+01 5.30525E+00 0.00000E+00
 -1      2456 9.32850E+01 5.30525E+00 0.00000E+00
 -1      2457 9.25350E+01 6.60425E+00 0.00000E+00
 -1      2458 9.77850E+01 5.30525E+00 0.00000E+00
 -1      2459 9.62850E+01 5.30525E+00 0.00000E+00
 -1      2460 9.55350E+01 6.60425E+00 0.00000E+00
 -1      2461 1.00785E+02 5.30525E+00 0.00000E+00
 -1      2462 9.92850E+01 5.30525E+00 0.00000E+00
 -1      2463 9.85350E+01 6.60425E+00 0.00000E+00
 -1      2464 1.03785E+02 5.30525E+00 0.00000E+00
 -1      2465 1.02285E+02 5.30525E+00 0.00000E+00
 -1      2466 1.01535E+02 6.60425E+00 0.00000E+00
 -1      2467 1.06785E+02 5.30525E+00 0.00000E+00
 -1      2468 1.05285E+02 5.30525E+00 0.00000E+00
 -1      2469 1.04535E+02 6.60425E+00 0.00000E+00
 -1      2470 1.09785E+02 5.30525E+00 0.00000E+00
 -1      2471 1.08285E+02 5.30525E+00 0.00000E+00
 -1      2472 1.07535E+02 6.60425E+00 0.00000E+00
 -1      2473 1.12785E+02 5.30525E+00 0.00000E+00
 -1      2474 1.11285E+02 5.30525E+00 0.00000E+00
 -1      2475 1.10535E+02 6.60425E+00 0.00000E+00
 -1      2476 1.15785E+02 5.30525E+00 0.00000E+00
 -1      2477 1.14285E+02 5.30525E+00 0.00000E+00
 -1      2478 1.13535E+02 6.60425E+00 0.00000E+00
 -1      2479 1.18785E+02 5.30525E+00 0.00000E+00
 -1      2480 1.17285E+02 5.30525E+00 0.00000E+00
 -1      2481 1.16535E+02 6.60425E+00 0.00000E+00
 -1      2482 1.21785E+02 5.30525E+00 0.00000E+00
 -1      2483 1.20285E+02 5.30525E+00 0.00000E+00
 -1      2484 1.19535E+02 6.60425E+00 0.00000E+00
 -1      2485 1.24785E+02 5.30525E+00 0.00000E+00
 -1      2486 1.23285E+02 5.30525E+00 0.00000E+00
 -1      2487 1.22535E+02 6.60425E+00 0.00000E+00
 -1      2488 1.27785E+02 5.30525E+00 0.00000E+00
 -1      2489 1.26285E+02 5.30525E+00 0.00000E+00
 -1      2490 1.25535E+02 6.60425E+00 0.00000E+00
 -1      2491 1.30785E+02 5.30525E+00 0.00000E+00
 -1      2492 1.29285E+02 5.30525E+00 0.00000E+00
 -1      2493 1.28535E+02 6.60425E+00 0.00000E+00
 -1      2494 1.33785E+02 5.30525E+00 0.00000E+00
 -1      2495 1.32285E+02 5.30525E+00 0.00000E+00
 -1      2496 1.31535E+02 6.60425E+00 0.00000E+00
 -1      2497 1.36785E+02 5.30525E+00 0.00000E+00
 -1      2498 1.35285E+02 5.30525E+00 0.00000E+00
 -1      2499 1.34535E+02 6.60425E+00 0.00000E+00
 -1      2500 1.39785E+02 5.30525E+00 0.00000E+00
 -1      2501 1.38285E+02 5.30525E+00 0.00000E+00
 -1      2502 1.37535E+02 6.60425E+00 0.00000E+00
 -1      2503 1.42785E+02 5.30525E+00 0.00000E+00
 -1      2504 1.41285E+02 5.30525E+00 0.00000E+00
 -1      2505 1.40535E+02 6.60425E+00 0.00000E+00
 -1      2506 1.44336E+02 5.26953E+00 0.00000E+00
 -1      2507 1.43505E+02 1.69125E+01 0.00000E+00
 -1      2508 1.43505E+02 1.54375E+01 0.00000E+00
 -1      2509 1.43505E+02 1.98625E+01 0.00000E+00
 -1      2510 1.43505E+02 1.83875E+01 0.00000E+00
 -1      2511 1.42206E+02 1.76500E+01 0.00000E+00
 -1      2512 1.43505E+02 1.10625E+01 0.00000E+00
 -1      2513 1.43505E+02 9.58750E+00 0.00000E+00
 -1      2514 1.43505E+02 1.39750E+01 0.00000E+00
 -1      2515 1.43505E+02 1.25250E+01 0.00000E+00
 -1      2516 1.42206E+02 1.17875E+01 0.00000E+00
 -1      2517 1.42206E+02 1.47125E+01 0.00000E+00
 -1      2518 1.43505E+02 2.28125E+01 0.00000E+00
 -1      2519 1.43505E+02 2.13375E+01 0.00000E+00
 -1      2520 1.42206E+02 2.06000E+01 0.00000E+00
 -1      2521 1.43505E+02 2.57625E+01 0.00000E+00
 -1      2522 1.43505E+02 2.42875E+01 0.00000E+00
 -1      2523 1.42206E+02 2.35500E+01 0.00000E+00
 -1      2524 1.43505E+02 2.87125E+01 0.00000E+00
 -1      2525 1.43505E+02 2.72375E+01 0.00000E+00
 -1      2526 1.42206E+02 2.65000E+01 0.00000E+00
 -1      2527 1.43505E+02 3.16125E+01 0.00000E+00
 -1      2528 1.43505E+02 3.01625E+01 0.00000E+00
 -1      2529 1.42206E+02 2.94250E+01 0.00000E+00
 -1      2530 1.43505E+02 3.45625E+01 0.00000E+00
 -1      2531 1.43505E+02 3.30875E+01 0.00000E+00
 -1      2532 1.42206E+02 3.23500E+01 0.00000E+00
 -1      2533 1.43505E+02 3.75125E+01 0.00000E+00
 -1      2534 1.43505E+02 3.60375E+01 0.00000E+00
 -1      2535 1.42206E+02 3.53000E+01 0.00000E+00
 -1      2536 1.43505E+02 4.04625E+01 0.00000E+00
 -1      2537 1.43505E+02 3.89875E+01 0.00000E+00
 -1      2538 1.42206E+02 3.82500E+01 0.00000E+00
 -1      2539 5.18292E+01 1.96073E+01 0.00000E+00
 -1      2540 5.22358E+01 2.04910E+01 0.00000E+00
 -1      2541 1.67850E+01 5.30525E+00 0.00000E+00
 -1      2542 1.52850E+01 5.30525E+00 0.00000E+00
 -1      2543 1.75350E+01 6.60425E+00 0.00000E+00
 -1      2544 4.81276E+01 1.64025E+01 0.00000E+00
 -1      2545 4.88679E+01 1.68166E+01 0.00000E+00
 -1      2546 1.44321E+02 4.30606E+01 0.00000E+00
 -1      2547 5.29655E+01 2.79640E+01 0.00000E+00
 -1      2548 5.26685E+01 2.89699E+01 0.00000E+00
 -1      2549 5.26878E+01 2.13478E+01 0.00000E+00
 -1      2550 5.31398E+01 2.22046E+01 0.00000E+00
 -1      2551 5.32635E+01 2.05475E+01 0.00000E+00
 -1      2552 5.33149E+01 2.63053E+01 0.00000E+00
 -1      2553 5.31402E+01 2.71346E+01 0.00000E+00
 -1      2554 5.38142E+01 2.78804E+01 0.00000E+00
 -1      2555 6.49500E+00 2.71625E+01 0.00000E+00
 -1      2556 6.49500E+00 2.86375E+01 0.00000E+00
 -1      2557 7.79400E+00 2.93750E+01 0.00000E+00
 -1      2558 7.79400E+00 2.64250E+01 0.00000E+00
 -1      2559 4.39555E+01 1.46167E+01 0.00000E+00
 -1      2560 4.51184E+01 1.49984E+01 0.00000E+00
 -1      2561 3.71540E+01 1.65356E+01 0.00000E+00
 -1      2562 3.80965E+01 1.59609E+01 0.00000E+00
 -1      2563 4.16176E+01 1.45042E+01 0.00000E+00
 -1      2564 4.24909E+01 1.43725E+01 0.00000E+00
 -1      2565 4.54723E+01 3.52770E+01 0.00000E+00
 -1      2566 4.44992E+01 3.54498E+01 0.00000E+00
 -1      2567 3.93416E+01 1.53977E+01 0.00000E+00
 -1      2568 4.04796E+01 1.49510E+01 0.00000E+00
 -1      2569 4.07634E+01 1.38714E+01 0.00000E+00
 -1      2570 3.54227E+01 1.80133E+01 0.00000E+00
 -1      2571 3.60869E+01 1.72925E+01 0.00000E+00
 -1      2572 3.39676E+01 1.96515E+01 0.00000E+00
 -1      2573 3.46952E+01 1.88324E+01 0.00000E+00
 -1      2574 3.42733E+01 1.77774E+01 0.00000E+00
 -1      2575 3.33655E+01 2.20075E+01 0.00000E+00
 -1      2576 3.35708E+01 2.10390E+01 0.00000E+00
 -1      2577 3.25113E+01 2.37704E+01 0.00000E+00
 -1      2578 3.29384E+01 2.28889E+01 0.00000E+00
 -1      2579 3.23251E+01 2.22529E+01 0.00000E+00
 -1      2580 3.21242E+01 2.60664E+01 0.00000E+00
 -1      2581 3.21078E+01 2.49699E+01 0.00000E+00
 -1      2582 3.41014E+01 3.04820E+01 0.00000E+00
 -1      2583 3.36749E+01 2.96804E+01 0.00000E+00
 -1      2584 3.52245E+01 3.24526E+01 0.00000E+00
 -1      2585 3.45759E+01 3.14984E+01 0.00000E+00
 -1      2586 3.68021E+01 3.39075E+01 0.00000E+00
 -1      2587 3.61093E+01 3.33307E+01 0.00000E+00
 -1      2588 3.89524E+01 3.51518E+01 0.00000E+00
 -1      2589 3.78423E+01 3.45760E+01 0.00000E+00
 -1      2590 4.10258E+01 3.57820E+01 0.00000E+00
 -1      2591 4.01582E+01 3.56317E+01 0.00000E+00
 -1      2592 4.34195E+01 3.58947E+01 0.00000E+00
 -1      2593 4.22765E+01 3.60136E+01 0.00000E+00
 -1      2594 4.75544E+01 3.47256E+01 0.00000E+00
 -1      2595 4.66107E+01 3.50888E+01 0.00000E+00
 -1      2596 4.93766E+01 3.35096E+01 0.00000E+00
 -1      2597 4.86153E+01 3.41055E+01 0.00000E+00
 -1      2598 5.11061E+01 3.19615E+01 0.00000E+00
 -1      2599 5.02413E+01 3.27355E+01 0.00000E+00
 -1      2600 5.03772E+01 3.36932E+01 0.00000E+00
 -1      2601 5.21928E+01 2.99511E+01 0.00000E+00
 -1      2602 5.18292E+01 3.08380E+01 0.00000E+00
 -1      2603 6.55950E+00 4.28890E+01 0.00000E+00
 -1      2604 8.53650E+00 4.32410E+01 0.00000E+00
 -1      2605 9.28650E+00 4.19420E+01 0.00000E+00
 -1      2606 6.55950E+00 4.14140E+01 0.00000E+00
 -1      2607 8.07525E+00 5.11044E+00 0.00000E+00
 -1      2608 6.57525E+00 5.11044E+00 0.00000E+00
 -1      2609 6.40575E+00 6.01981E+00 0.00000E+00
 -1      2610 8.82525E+00 6.40944E+00 0.00000E+00
 -1      2611 4.58674E+01 1.45543E+01 0.00000E+00
 -1      2612 7.79400E+00 3.52687E+01 0.00000E+00
 -1      2613 6.49500E+00 3.60062E+01 0.00000E+00
 -1      2614 6.49500E+00 3.74750E+01 0.00000E+00
 -1      2615 1.45350E+01 6.60425E+00 0.00000E+00
 -1      2616 6.40575E+00 7.49481E+00 0.00000E+00
 -1      2617 6.55950E+00 3.99453E+01 0.00000E+00
 -1      2618 5.19650E+01 3.17957E+01 0.00000E+00
 -1      2619 5.21009E+01 3.27534E+01 0.00000E+00
 -1      2620 5.28240E+01 3.16299E+01 0.00000E+00
 -1      2621 5.16009E+01 1.79450E+01 0.00000E+00
 -1      2622 5.17151E+01 1.87762E+01 0.00000E+00
 -1      2623 5.26974E+01 1.88596E+01 0.00000E+00
 -1      2624 4.78899E+01 1.55648E+01 0.00000E+00
 -1      2625 4.84515E+01 3.50874E+01 0.00000E+00
 -1      2626 5.31638E+01 2.96910E+01 0.00000E+00
 -1      2627 5.37419E+01 2.27776E+01 0.00000E+00
 -1      2628 5.43440E+01 2.33507E+01 0.00000E+00
 -1      2629 5.43176E+01 2.19773E+01 0.00000E+00
 -1      2630 1.43586E+02 6.56853E+00 0.00000E+00
 -1      2631 1.43419E+02 7.72713E+00 0.00000E+00
 -1      2632 4.40339E+01 3.65289E+01 0.00000E+00
 -1      2633 5.44422E+01 2.48968E+01 0.00000E+00
 -1      2634 5.38786E+01 2.56010E+01 0.00000E+00
 -1      2635 5.45526E+01 2.63468E+01 0.00000E+00
 -1      2636 4.17034E+01 3.67422E+01 0.00000E+00
 -1      2637 3.92469E+01 3.60307E+01 0.00000E+00
 -1      2638 7.70475E+00 8.23231E+00 0.00000E+00
 -1      2639 1.42758E+02 4.35929E+01 0.00000E+00
 -1      2640 1.43241E+02 4.17323E+01 0.00000E+00
 -1      2641 1.41942E+02 4.09948E+01 0.00000E+00
 -1      2642 1.41414E+02 4.35342E+01 0.00000E+00
 -1      2643 3.70008E+01 3.48823E+01 0.00000E+00
 -1      2644 3.50758E+01 3.33357E+01 0.00000E+00
 -1      2645 3.37165E+01 3.14413E+01 0.00000E+00
 -1      2646 3.14945E+01 2.43339E+01 0.00000E+00
 -1      2647 3.31490E+01 1.99840E+01 0.00000E+00
 -1      2648 3.27271E+01 1.89290E+01 0.00000E+00
 -1      2649 3.23303E+01 2.03165E+01 0.00000E+00
 -1      2650 3.83803E+01 1.48814E+01 0.00000E+00
 -1      2651 4.62521E+01 3.58958E+01 0.00000E+00
 -1      2652 3.28791E+01 2.92448E+01 0.00000E+00
 -1      2653 3.14831E+01 2.75318E+01 0.00000E+00
 -1      2654 3.18036E+01 2.67991E+01 0.00000E+00
 -1      2655 3.07704E+01 2.62661E+01 0.00000E+00
 -1      2656 3.60680E+01 1.62014E+01 0.00000E+00
 -1      2657 4.33659E+01 1.36689E+01 0.00000E+00
 -1      2658 4.97546E+01 1.60156E+01 0.00000E+00
 -1      2659 4.97470E+01 1.68979E+01 0.00000E+00
 -1      2660 5.06261E+01 1.69793E+01 0.00000E+00
 -1      2661 1.42120E+02 8.46463E+00 0.00000E+00
 -1      2662 1.40664E+02 4.22352E+01 0.00000E+00
 -1      2663 9.09300E+00 1.98250E+01 0.00000E+00
 -1      2664 9.09300E+00 2.12750E+01 0.00000E+00
 -1      2665 9.09300E+00 2.27500E+01 0.00000E+00
 -1      2666 9.09300E+00 2.42250E+01 0.00000E+00
 -1      2667 1.03920E+01 2.20250E+01 0.00000E+00
 -1      2668 9.09300E+00 1.39375E+01 0.00000E+00
 -1      2669 9.09300E+00 1.54125E+01 0.00000E+00
 -1      2670 9.09300E+00 1.09875E+01 0.00000E+00
 -1      2671 9.09300E+00 1.24625E+01 0.00000E+00
 -1      2672 1.03920E+01 1.32000E+01 0.00000E+00
 -1      2673 1.22850E+01 7.90325E+00 0.00000E+00
 -1      2674 1.07850E+01 7.90325E+00 0.00000E+00
 -1      2675 1.40928E+02 4.09655E+01 0.00000E+00
 -1      2676 1.41192E+02 3.96958E+01 0.00000E+00
 -1      2677 1.39914E+02 4.09362E+01 0.00000E+00
 -1      2678 8.91450E+00 8.42712E+00 0.00000E+00
 -1      2679 1.44000E+01 4.09070E+01 0.00000E+00
 -1      2680 1.59000E+01 4.09070E+01 0.00000E+00
 -1      2681 1.74000E+01 4.09070E+01 0.00000E+00
 -1      2682 1.89000E+01 4.09070E+01 0.00000E+00
 -1      2683 1.66500E+01 3.96080E+01 0.00000E+00
 -1      2684 2.04000E+01 4.09070E+01 0.00000E+00
 -1      2685 2.19000E+01 4.09070E+01 0.00000E+00
 -1      2686 1.96500E+01 3.96080E+01 0.00000E+00
 -1      2687 2.34000E+01 4.09070E+01 0.00000E+00
 -1      2688 2.49000E+01 4.09070E+01 0.00000E+00
 -1      2689 2.26500E+01 3.96080E+01 0.00000E+00
 -1      2690 2.64000E+01 4.09070E+01 0.00000E+00
 -1      2691 2.79000E+01 4.09070E+01 0.00000E+00
 -1      2692 2.56500E+01 3.96080E+01 0.00000E+00
 -1      2693 2.94000E+01 4.09070E+01 0.00000E+00
 -1      2694 3.09000E+01 4.09070E+01 0.00000E+00
 -1      2695 2.86500E+01 3.96080E+01 0.00000E+00
 -1      2696 3.24000E+01 4.09070E+01 0.00000E+00
 -1      2697 3.39000E+01 4.09070E+01 0.00000E+00
 -1      2698 3.16500E+01 3.96080E+01 0.00000E+00
 -1      2699 3.54000E+01 4.09070E+01 0.00000E+00
 -1      2700 3.69000E+01 4.09070E+01 0.00000E+00
 -1      2701 3.46500E+01 3.96080E+01 0.00000E+00
 -1      2702 3.84000E+01 4.09070E+01 0.00000E+00
 -1      2703 3.99000E+01 4.09070E+01 0.00000E+00
 -1      2704 3.76500E+01 3.96080E+01 0.00000E+00
 -1      2705 4.14000E+01 4.09070E+01 0.00000E+00
 -1      2706 4.29000E+01 4.09070E+01 0.00000E+00
 -1      2707 4.06500E+01 3.96080E+01 0.00000E+00
 -1      2708 4.44000E+01 4.09070E+01 0.00000E+00
 -1      2709 4.59000E+01 4.09070E+01 0.00000E+00
 -1      2710 4.36500E+01 3.96080E+01 0.00000E+00
 -1      2711 4.74000E+01 4.09070E+01 0.00000E+00
 -1      2712 4.89000E+01 4.09070E+01 0.00000E+00
 -1      2713 4.66500E+01 3.96080E+01 0.00000E+00
 -1      2714 5.04000E+01 4.09070E+01 0.00000E+00
 -1      2715 5.19000E+01 4.09070E+01 0.00000E+00
 -1      2716 4.96500E+01 3.96080E+01 0.00000E+00
 -1      2717 5.34000E+01 4.09070E+01 0.00000E+00
 -1      2718 5.49000E+01 4.09070E+01 0.00000E+00
 -1      2719 5.26500E+01 3.96080E+01 0.00000E+00
 -1      2720 5.64000E+01 4.09070E+01 0.00000E+00
 -1      2721 5.79000E+01 4.09070E+01 0.00000E+00
 -1      2722 5.56500E+01 3.96080E+01 0.00000E+00
 -1      2723 5.94000E+01 4.09070E+01 0.00000E+00
 -1      2724 6.09000E+01 4.09070E+01 0.00000E+00
 -1      2725 5.86500E+01 3.96080E+01 0.00000E+00
 -1      2726 6.24000E+01 4.09070E+01 0.00000E+00
 -1      2727 6.39000E+01 4.09070E+01 0.00000E+00
 -1      2728 6.16500E+01 3.96080E+01 0.00000E+00
 -1      2729 6.54000E+01 4.09070E+01 0.00000E+00
 -1      2730 6.69000E+01 4.09070E+01 0.00000E+00
 -1      2731 6.46500E+01 3.96080E+01 0.00000E+00
 -1      2732 6.84000E+01 4.09070E+01 0.00000E+00
 -1      2733 6.99000E+01 4.09070E+01 0.00000E+00
 -1      2734 6.76500E+01 3.96080E+01 0.00000E+00
 -1      2735 7.14000E+01 4.09070E+01 0.00000E+00
 -1      2736 7.29000E+01 4.09070E+01 0.00000E+00
 -1      2737 7.06500E+01 3.96080E+01 0.00000E+00
 -1      2738 7.44000E+01 4.09070E+01 0.00000E+00
 -1      2739 7.59000E+01 4.09070E+01 0.00000E+00
 -1      2740 7.36500E+01 3.96080E+01 0.00000E+00
 -1      2741 7.74000E+01 4.09070E+01 0.00000E+00
 -1      2742 7.89000E+01 4.09070E+01 0.00000E+00
 -1      2743 7.66500E+01 3.96080E+01 0.00000E+00
 -1      2744 8.04000E+01 4.09070E+01 0.00000E+00
 -1      2745 8.19000E+01 4.09070E+01 0.00000E+00
 -1      2746 7.96500E+01 3.96080E+01 0.00000E+00
 -1      2747 8.34000E+01 4.09070E+01 0.00000E+00
 -1      2748 8.49000E+01 4.09070E+01 0.00000E+00
 -1      2749 8.26500E+01 3.96080E+01 0.00000E+00
 -1      2750 8.64000E+01 4.09070E+01 0.00000E+00
 -1      2751 8.79000E+01 4.09070E+01 0.00000E+00
 -1      2752 8.56500E+01 3.96080E+01 0.00000E+00
 -1      2753 8.94000E+01 4.09070E+01 0.00000E+00
 -1      2754 9.09000E+01 4.09070E+01 0.00000E+00
 -1      2755 8.86500E+01 3.96080E+01 0.00000E+00
 -1      2756 9.24000E+01 4.09070E+01 0.00000E+00
 -1      2757 9.39000E+01 4.09070E+01 0.00000E+00
 -1      2758 9.16500E+01 3.96080E+01 0.00000E+00
 -1      2759 9.54000E+01 4.09070E+01 0.00000E+00
 -1      2760 9.69000E+01 4.09070E+01 0.00000E+00
 -1      2761 9.46500E+01 3.96080E+01 0.00000E+00
 -1      2762 9.84000E+01 4.09070E+01 0.00000E+00
 -1      2763 9.99000E+01 4.09070E+01 0.00000E+00
 -1      2764 9.76500E+01 3.96080E+01 0.00000E+00
 -1      2765 1.01400E+02 4.09070E+01 0.00000E+00
 -1      2766 1.02900E+02 4.09070E+01 0.00000E+00
 -1      2767 1.00650E+02 3.96080E+01 0.00000E+00
 -1      2768 1.04400E+02 4.09070E+01 0.00000E+00
 -1      2769 1.05900E+02 4.09070E+01 0.00000E+00
 -1      2770 1.03650E+02 3.96080E+01 0.00000E+00
 -1      2771 1.07400E+02 4.09070E+01 0.00000E+00
 -1      2772 1.08900E+02 4.09070E+01 0.00000E+00
 -1      2773 1.06650E+02 3.96080E+01 0.00000E+00
 -1      2774 1.10400E+02 4.09070E+01 0.00000E+00
 -1      2775 1.11900E+02 4.09070E+01 0.00000E+00
 -1      2776 1.09650E+02 3.96080E+01 0.00000E+00
 -1      2777 1.13400E+02 4.09070E+01 0.00000E+00
 -1      2778 1.14900E+02 4.09070E+01 0.00000E+00
 -1      2779 1.12650E+02 3.96080E+01 0.00000E+00
 -1      2780 1.16400E+02 4.09070E+01 0.00000E+00
 -1      2781 1.17900E+02 4.09070E+01 0.00000E+00
 -1      2782 1.15650E+02 3.96080E+01 0.00000E+00
 -1      2783 1.19400E+02 4.09070E+01 0.00000E+00
 -1      2784 1.20900E+02 4.09070E+01 0.00000E+00
 -1      2785 1.18650E+02 3.96080E+01 0.00000E+00
 -1      2786 1.22400E+02 4.09070E+01 0.00000E+00
 -1      2787 1.23900E+02 4.09070E+01 0.00000E+00
 -1      2788 1.21650E+02 3.96080E+01 0.00000E+00
 -1      2789 1.25400E+02 4.09070E+01 0.00000E+00
 -1      2790 1.26900E+02 4.09070E+01 0.00000E+00
 -1      2791 1.24650E+02 3.96080E+01 0.00000E+00
 -1      2792 1.28400E+02 4.09070E+01 0.00000E+00
 -1      2793 1.29900E+02 4.09070E+01 0.00000E+00
 -1      2794 1.27650E+02 3.96080E+01 0.00000E+00
 -1      2795 1.31400E+02 4.09070E+01 0.00000E+00
 -1      2796 1.32900E+02 4.09070E+01 0.00000E+00
 -1      2797 1.30650E+02 3.96080E+01 0.00000E+00
 -1      2798 1.34400E+02 4.09070E+01 0.00000E+00
 -1      2799 1.35900E+02 4.09070E+01 0.00000E+00
 -1      2800 1.33650E+02 3.96080E+01 0.00000E+00
 -1      2801 1.37157E+02 4.09216E+01 0.00000E+00
 -1      2802 1.38657E+02 4.09216E+01 0.00000E+00
 -1      2803 1.38921E+02 3.96519E+01 0.00000E+00
 -1      2804 1.36407E+02 3.96226E+01 0.00000E+00
 -1      2805 2.42850E+01 7.90325E+00 0.00000E+00
 -1      2806 2.27850E+01 7.90325E+00 0.00000E+00
 -1      2807 3.69667E+01 3.60789E+01 0.00000E+00
 -1      2808 3.59265E+01 3.54104E+01 0.00000E+00
 -1      2809 2.12850E+01 7.90325E+00 0.00000E+00
 -1      2810 1.97850E+01 7.90325E+00 0.00000E+00
 -1      2811 2.20350E+01 9.20225E+00 0.00000E+00
 -1      2812 3.02850E+01 7.90325E+00 0.00000E+00
 -1      2813 2.87850E+01 7.90325E+00 0.00000E+00
 -1      2814 3.32850E+01 7.90325E+00 0.00000E+00
 -1      2815 3.17850E+01 7.90325E+00 0.00000E+00
 -1      2816 3.10350E+01 9.20225E+00 0.00000E+00
 -1      2817 3.62850E+01 7.90325E+00 0.00000E+00
 -1      2818 3.47850E+01 7.90325E+00 0.00000E+00
 -1      2819 3.40350E+01 9.20225E+00 0.00000E+00
 -1      2820 3.92850E+01 7.90325E+00 0.00000E+00
 -1      2821 3.77850E+01 7.90325E+00 0.00000E+00
 -1      2822 3.70350E+01 9.20225E+00 0.00000E+00
 -1      2823 4.22850E+01 7.90325E+00 0.00000E+00
 -1      2824 4.07850E+01 7.90325E+00 0.00000E+00
 -1      2825 4.00350E+01 9.20225E+00 0.00000E+00
 -1      2826 4.52850E+01 7.90325E+00 0.00000E+00
 -1      2827 4.37850E+01 7.90325E+00 0.00000E+00
 -1      2828 4.30350E+01 9.20225E+00 0.00000E+00
 -1      2829 4.82850E+01 7.90325E+00 0.00000E+00
 -1      2830 4.67850E+01 7.90325E+00 0.00000E+00
 -1      2831 4.60350E+01 9.20225E+00 0.00000E+00
 -1      2832 5.12850E+01 7.90325E+00 0.00000E+00
 -1      2833 4.97850E+01 7.90325E+00 0.00000E+00
 -1      2834 4.90350E+01 9.20225E+00 0.00000E+00
 -1      2835 5.42850E+01 7.90325E+00 0.00000E+00
 -1      2836 5.27850E+01 7.90325E+00 0.00000E+00
 -1      2837 5.20350E+01 9.20225E+00 0.00000E+00
 -1      2838 5.72850E+01 7.90325E+00 0.00000E+00
 -1      2839 5.57850E+01 7.90325E+00 0.00000E+00
 -1      2840 5.50350E+01 9.20225E+00 0.00000E+00
 -1      2841 6.02850E+01 7.90325E+00 0.00000E+00
 -1      2842 5.87850E+01 7.90325E+00 0.00000E+00
 -1      2843 5.80350E+01 9.20225E+00 0.00000E+00
 -1      2844 6.32850E+01 7.90325E+00 0.00000E+00
 -1      2845 6.17850E+01 7.90325E+00 0.00000E+00
 -1      2846 6.10350E+01 9.20225E+00 0.00000E+00
 -1      2847 6.62850E+01 7.90325E+00 0.00000E+00
 -1      2848 6.47850E+01 7.90325E+00 0.00000E+00
 -1      2849 6.40350E+01 9.20225E+00 0.00000E+00
 -1      2850 6.92850E+01 7.90325E+00 0.00000E+00
 -1      2851 6.77850E+01 7.90325E+00 0.00000E+00
 -1      2852 6.70350E+01 9.20225E+00 0.00000E+00
 -1      2853 7.22850E+01 7.90325E+00 0.00000E+00
 -1      2854 7.07850E+01 7.90325E+00 0.00000E+00
 -1      2855 7.00350E+01 9.20225E+00 0.00000E+00
 -1      2856 7.52850E+01 7.90325E+00 0.00000E+00
 -1      2857 7.37850E+01 7.90325E+00 0.00000E+00
 -1      2858 7.30350E+01 9.20225E+00 0.00000E+00
 -1      2859 7.82850E+01 7.90325E+00 0.00000E+00
 -1      2860 7.67850E+01 7.90325E+00 0.00000E+00
 -1      2861 7.60350E+01 9.20225E+00 0.00000E+00
 -1      2862 8.12850E+01 7.90325E+00 0.00000E+00
 -1      2863 7.97850E+01 7.90325E+00 0.00000E+00
 -1      2864 7.90350E+01 9.20225E+00 0.00000E+00
 -1      2865 8.42850E+01 7.90325E+00 0.00000E+00
 -1      2866 8.27850E+01 7.90325E+00 0.00000E+00
 -1      2867 8.20350E+01 9.20225E+00 0.00000E+00
 -1      2868 8.72850E+01 7.90325E+00 0.00000E+00
 -1      2869 8.57850E+01 7.90325E+00 0.00000E+00
 -1      2870 8.50350E+01 9.20225E+00 0.00000E+00
 -1      2871 9.02850E+01 7.90325E+00 0.00000E+00
 -1      2872 8.87850E+01 7.90325E+00 0.00000E+00
 -1      2873 8.80350E+01 9.20225E+00 0.00000E+00
 -1      2874 9.32850E+01 7.90325E+00 0.00000E+00
 -1      2875 9.17850E+01 7.90325E+00 0.00000E+00
 -1      2876 9.10350E+01 9.20225E+00 0.00000E+00
 -1      2877 9.62850E+01 7.90325E+00 0.00000E+00
 -1      2878 9.47850E+01 7.90325E+00 0.00000E+00
 -1      2879 9.40350E+01 9.20225E+00 0.00000E+00
 -1      2880 9.92850E+01 7.90325E+00 0.00000E+00
 -1      2881 9.77850E+01 7.90325E+00 0.00000E+00
 -1      2882 9.70350E+01 9.20225E+00 0.00000E+00
 -1      2883 1.02285E+02 7.90325E+00 0.00000E+00
 -1      2884 1.00785E+02 7.90325E+00 0.00000E+00
 -1      2885 1.00035E+02 9.20225E+00 0.00000E+00
 -1      2886 1.05285E+02 7.90325E+00 0.00000E+00
 -1      2887 1.03785E+02 7.90325E+00 0.00000E+00
 -1      2888 1.03035E+02 9.20225E+00 0.00000E+00
 -1      2889 1.08285E+02 7.90325E+00 0.00000E+00
 -1      2890 1.06785E+02 7.90325E+00 0.00000E+00
 -1      2891 1.06035E+02 9.20225E+00 0.00000E+00
 -1      2892 1.11285E+02 7.90325E+00 0.00000E+00
 -1      2893 1.09785E+02 7.90325E+00 0.00000E+00
 -1      2894 1.09035E+02 9.20225E+00 0.00000E+00
 -1      2895 1.14285E+02 7.90325E+00 0.00000E+00
 -1      2896 1.12785E+02 7.90325E+00 0.00000E+00
 -1      2897 1.12035E+02 9.20225E+00 0.00000E+00
 -1      2898 1.17285E+02 7.90325E+00 0.00000E+00
 -1      2899 1.15785E+02 7.90325E+00 0.00000E+00
 -1      2900 1.15035E+02 9.20225E+00 0.00000E+00
 -1      2901 1.20285E+02 7.90325E+00 0.00000E+00
 -1      2902 1.18785E+02 7.90325E+00 0.00000E+00
 -1      2903 1.18035E+02 9.20225E+00 0.00000E+00
 -1      2904 1.23285E+02 7.90325E+00 0.00000E+00
 -1      2905 1.21785E+02 7.90325E+00 0.00000E+00
 -1      2906 1.21035E+02 9.20225E+00 0.00000E+00
 -1      2907 1.26285E+02 7.90325E+00 0.00000E+00
 -1      2908 1.24785E+02 7.90325E+00 0.00000E+00
 -1      2909 1.24035E+02 9.20225E+00 0.00000E+00
 -1      2910 1.29285E+02 7.90325E+00 0.00000E+00
 -1      2911 1.27785E+02 7.90325E+00 0.00000E+00
 -1      2912 1.27035E+02 9.20225E+00 0.00000E+00
 -1      2913 1.32285E+02 7.90325E+00 0.00000E+00
 -1      2914 1.30785E+02 7.90325E+00 0.00000E+00
 -1      2915 1.30035E+02 9.20225E+00 0.00000E+00
 -1      2916 1.35285E+02 7.90325E+00 0.00000E+00
 -1      2917 1.33785E+02 7.90325E+00 0.00000E+00
 -1      2918 1.33035E+02 9.20225E+00 0.00000E+00
 -1      2919 1.38285E+02 7.90325E+00 0.00000E+00
 -1      2920 1.36785E+02 7.90325E+00 0.00000E+00
 -1      2921 1.36035E+02 9.20225E+00 0.00000E+00
 -1      2922 1.40953E+02 8.18394E+00 0.00000E+00
 -1      2923 1.39453E+02 8.18394E+00 0.00000E+00
 -1      2924 1.38703E+02 9.48294E+00 0.00000E+00
 -1      2925 1.41038E+02 1.00443E+01 0.00000E+00
 -1      2926 1.40907E+02 2.42875E+01 0.00000E+00
 -1      2927 1.40907E+02 2.28125E+01 0.00000E+00
 -1      2928 1.40907E+02 1.83875E+01 0.00000E+00
 -1      2929 1.40907E+02 1.69125E+01 0.00000E+00
 -1      2930 1.40907E+02 2.72375E+01 0.00000E+00
 -1      2931 1.40907E+02 2.57625E+01 0.00000E+00
 -1      2932 1.39608E+02 2.50250E+01 0.00000E+00
 -1      2933 1.40907E+02 2.13375E+01 0.00000E+00
 -1      2934 1.40907E+02 1.98625E+01 0.00000E+00
 -1      2935 1.39608E+02 1.91250E+01 0.00000E+00
 -1      2936 1.39608E+02 2.20750E+01 0.00000E+00
 -1      2937 1.82850E+01 7.90325E+00 0.00000E+00
 -1      2938 1.67850E+01 7.90325E+00 0.00000E+00
 -1      2939 1.90350E+01 9.20225E+00 0.00000E+00
 -1      2940 1.40907E+02 3.01375E+01 0.00000E+00
 -1      2941 1.40907E+02 2.86875E+01 0.00000E+00
 -1      2942 1.39608E+02 2.79500E+01 0.00000E+00
 -1      2943 1.40907E+02 3.30875E+01 0.00000E+00
 -1      2944 1.40907E+02 3.16125E+01 0.00000E+00
 -1      2945 1.39608E+02 3.08750E+01 0.00000E+00
 -1      2946 1.40907E+02 3.60375E+01 0.00000E+00
 -1      2947 1.40907E+02 3.45625E+01 0.00000E+00
 -1      2948 1.39608E+02 3.38250E+01 0.00000E+00
 -1      2949 1.41192E+02 3.82207E+01 0.00000E+00
 -1      2950 5.48227E+01 2.76598E+01 0.00000E+00
 -1      2951 5.46479E+01 2.84892E+01 0.00000E+00
 -1      2952 4.76833E+01 1.46164E+01 0.00000E+00
 -1      2953 4.86689E+01 1.49857E+01 0.00000E+00
 -1      2954 4.94993E+01 3.56624E+01 0.00000E+00
 -1      2955 4.84383E+01 3.62825E+01 0.00000E+00
 -1      2956 4.25521E+01 3.82909E+01 0.00000E+00
 -1      2957 4.13014E+01 3.80593E+01 0.00000E+00
 -1      2958 5.38701E+01 1.96799E+01 0.00000E+00
 -1      2959 5.43221E+01 2.05366E+01 0.00000E+00
 -1      2960 2.72850E+01 7.90325E+00 0.00000E+00
 -1      2961 2.57850E+01 7.90325E+00 0.00000E+00
 -1      2962 2.50350E+01 9.20225E+00 0.00000E+00
 -1      2963 2.80350E+01 9.20225E+00 0.00000E+00
 -1      2964 1.14000E+01 4.09070E+01 0.00000E+00
 -1      2965 1.29000E+01 4.09070E+01 0.00000E+00
 -1      2966 1.36500E+01 3.96080E+01 0.00000E+00
 -1      2967 9.09300E+00 1.68813E+01 0.00000E+00
 -1      2968 9.09300E+00 1.83563E+01 0.00000E+00
 -1      2969 1.03920E+01 1.90812E+01 0.00000E+00
 -1      2970 1.03920E+01 1.61437E+01 0.00000E+00
 -1      2971 1.52850E+01 7.90325E+00 0.00000E+00
 -1      2972 1.37850E+01 7.90325E+00 0.00000E+00
 -1      2973 1.30350E+01 9.20225E+00 0.00000E+00
 -1      2974 1.60350E+01 9.20225E+00 0.00000E+00
 -1      2975 4.28161E+01 1.24530E+01 0.00000E+00
 -1      2976 4.42806E+01 1.26973E+01 0.00000E+00
 -1      2977 7.85850E+00 3.92077E+01 0.00000E+00
 -1      2978 9.09300E+00 3.15875E+01 0.00000E+00
 -1      2979 9.09300E+00 3.30625E+01 0.00000E+00
 -1      2980 4.69749E+01 3.67304E+01 0.00000E+00
 -1      2981 4.58365E+01 3.69186E+01 0.00000E+00
 -1      2982 3.98504E+01 1.32186E+01 0.00000E+00
 -1      2983 4.09884E+01 1.27718E+01 0.00000E+00
 -1      2984 3.73352E+01 1.42290E+01 0.00000E+00
 -1      2985 3.85803E+01 1.36658E+01 0.00000E+00
 -1      2986 3.32684E+01 1.76174E+01 0.00000E+00
 -1      2987 3.39959E+01 1.67983E+01 0.00000E+00
 -1      2988 3.14152E+01 2.23562E+01 0.00000E+00
 -1      2989 3.18423E+01 2.14748E+01 0.00000E+00
 -1      2990 3.50383E+01 1.58804E+01 0.00000E+00
 -1      2991 3.61055E+01 1.51235E+01 0.00000E+00
 -1      2992 3.02417E+01 2.45801E+01 0.00000E+00
 -1      2993 3.06452E+01 2.33806E+01 0.00000E+00
 -1      2994 3.31767E+01 3.23122E+01 0.00000E+00
 -1      2995 3.27022E+01 3.12958E+01 0.00000E+00
 -1      2996 3.47961E+01 3.45024E+01 0.00000E+00
 -1      2997 3.39113E+01 3.36243E+01 0.00000E+00
 -1      2998 3.93784E+01 3.70387E+01 0.00000E+00
 -1      2999 3.81726E+01 3.65588E+01 0.00000E+00
 -1      3000 3.70982E+01 3.70869E+01 0.00000E+00
 -1      3001 4.56095E+01 1.33341E+01 0.00000E+00
 -1      3002 4.66464E+01 1.39752E+01 0.00000E+00
 -1      3003 4.74255E+01 1.33961E+01 0.00000E+00
 -1      3004 3.22809E+01 3.00746E+01 0.00000E+00
 -1      3005 3.19181E+01 2.88946E+01 0.00000E+00
 -1      3006 5.41723E+01 2.94704E+01 0.00000E+00
 -1      3007 5.36967E+01 3.04517E+01 0.00000E+00
 -1      3008 5.51808E+01 2.92498E+01 0.00000E+00
 -1      3009 5.14374E+01 3.40076E+01 0.00000E+00
 -1      3010 5.05726E+01 3.47817E+01 0.00000E+00
 -1      3011 9.09300E+00 3.45313E+01 0.00000E+00
 -1      3012 9.09300E+00 3.60000E+01 0.00000E+00
 -1      3013 1.03920E+01 3.37938E+01 0.00000E+00
 -1      3014 1.03920E+01 2.49750E+01 0.00000E+00
 -1      3015 9.09300E+00 2.57000E+01 0.00000E+00
 -1      3016 9.09300E+00 2.71750E+01 0.00000E+00
 -1      3017 4.19031E+01 1.18001E+01 0.00000E+00
 -1      3018 5.05595E+01 3.59767E+01 0.00000E+00
 -1      3019 5.38325E+01 3.14093E+01 0.00000E+00
 -1      3020 5.39684E+01 3.23670E+01 0.00000E+00
 -1      3021 5.48410E+01 3.11888E+01 0.00000E+00
 -1      3022 5.16085E+01 1.70627E+01 0.00000E+00
 -1      3023 5.25908E+01 1.71461E+01 0.00000E+00
 -1      3024 5.16160E+01 1.61804E+01 0.00000E+00
 -1      3025 5.36418E+01 1.80176E+01 0.00000E+00
 -1      3026 5.37560E+01 1.88487E+01 0.00000E+00
 -1      3027 5.48146E+01 1.88379E+01 0.00000E+00
 -1      3028 5.49242E+01 2.11097E+01 0.00000E+00
 -1      3029 5.55263E+01 2.16827E+01 0.00000E+00
 -1      3030 5.55308E+01 2.02421E+01 0.00000E+00
 -1      3031 3.47620E+01 3.56990E+01 0.00000E+00
 -1      3032 1.41038E+02 1.15068E+01 0.00000E+00
 -1      3033 1.39870E+02 1.12261E+01 0.00000E+00
 -1      3034 1.41038E+02 1.29693E+01 0.00000E+00
 -1      3035 9.66450E+00 9.72612E+00 0.00000E+00
 -1      3036 1.09635E+01 1.04636E+01 0.00000E+00
 -1      3037 5.50180E+01 2.40965E+01 0.00000E+00
 -1      3038 5.56919E+01 2.48422E+01 0.00000E+00
 -1      3039 5.55937E+01 2.32961E+01 0.00000E+00
 -1      3040 1.39893E+02 3.74832E+01 0.00000E+00
 -1      3041 3.08849E+01 2.83616E+01 0.00000E+00
 -1      3042 5.53863E+01 2.69556E+01 0.00000E+00
 -1      3043 4.93415E+01 1.41186E+01 0.00000E+00
 -1      3044 4.95480E+01 1.50671E+01 0.00000E+00
 -1      3045 5.04271E+01 1.51485E+01 0.00000E+00
 -1      3046 3.01624E+01 2.26024E+01 0.00000E+00
 -1      3047 4.80227E+01 3.73054E+01 0.00000E+00
 -1      3048 3.28970E+01 3.34789E+01 0.00000E+00
 -1      3049 2.99212E+01 2.53128E+01 0.00000E+00
 -1      3050 2.90719E+01 2.43595E+01 0.00000E+00
 -1      3051 2.96006E+01 2.60455E+01 0.00000E+00
 -1      3052 3.40334E+01 1.57204E+01 0.00000E+00
 -1      3053 9.09300E+00 2.86437E+01 0.00000E+00
 -1      3054 9.09300E+00 3.01187E+01 0.00000E+00
 -1      3055 1.03920E+01 3.08563E+01 0.00000E+00
 -1      3056 1.03920E+01 2.79188E+01 0.00000E+00
 -1      3057 4.49643E+01 3.72543E+01 0.00000E+00
 -1      3058 4.38845E+01 3.76992E+01 0.00000E+00
 -1      3059 3.24497E+01 1.79499E+01 0.00000E+00
 -1      3060 3.21724E+01 1.69708E+01 0.00000E+00
 -1      3061 3.16311E+01 1.82824E+01 0.00000E+00
 -1      3062 3.14205E+01 2.04198E+01 0.00000E+00
 -1      3063 1.40973E+02 1.56722E+01 0.00000E+00
 -1      3064 1.40973E+02 1.42097E+01 0.00000E+00
 -1      3065 1.39805E+02 1.39290E+01 0.00000E+00
 -1      3066 1.39674E+02 1.64097E+01 0.00000E+00
 -1      3067 3.63055E+01 1.39079E+01 0.00000E+00
 -1      3068 3.88053E+01 1.25661E+01 0.00000E+00
 -1      3069 9.15750E+00 3.77359E+01 0.00000E+00
 -1      3070 9.22200E+00 4.02061E+01 0.00000E+00
 -1      3071 1.05855E+01 4.04701E+01 0.00000E+00
 -1      3072 1.04565E+01 3.69984E+01 0.00000E+00
 -1      3073 4.56871E+01 3.80889E+01 0.00000E+00
 -1      3074 5.31553E+01 3.36761E+01 0.00000E+00
 -1      3075 5.22964E+01 3.38418E+01 0.00000E+00
 -1      3076 5.24918E+01 3.49302E+01 0.00000E+00
 -1      3077 1.13355E+01 3.91711E+01 0.00000E+00
 -1      3078 3.17411E+01 3.09456E+01 0.00000E+00
 -1      3079 4.50597E+01 1.21182E+01 0.00000E+00
 -1      3080 1.24635E+01 1.04636E+01 0.00000E+00
 -1      3081 1.18920E+01 1.17250E+01 0.00000E+00
 -1      3082 1.39635E+01 1.04636E+01 0.00000E+00
 -1      3083 1.18920E+01 1.32000E+01 0.00000E+00
 -1      3084 1.59000E+01 3.83090E+01 0.00000E+00
 -1      3085 1.74000E+01 3.83090E+01 0.00000E+00
 -1      3086 1.89000E+01 3.83090E+01 0.00000E+00
 -1      3087 2.04000E+01 3.83090E+01 0.00000E+00
 -1      3088 1.81500E+01 3.70100E+01 0.00000E+00
 -1      3089 2.19000E+01 3.83090E+01 0.00000E+00
 -1      3090 2.34000E+01 3.83090E+01 0.00000E+00
 -1      3091 2.11500E+01 3.70100E+01 0.00000E+00
 -1      3092 2.49000E+01 3.83090E+01 0.00000E+00
 -1      3093 2.64000E+01 3.83090E+01 0.00000E+00
 -1      3094 2.41500E+01 3.70100E+01 0.00000E+00
 -1      3095 2.79000E+01 3.83090E+01 0.00000E+00
 -1      3096 2.94000E+01 3.83090E+01 0.00000E+00
 -1      3097 2.71500E+01 3.70100E+01 0.00000E+00
 -1      3098 3.09000E+01 3.83090E+01 0.00000E+00
 -1      3099 3.24000E+01 3.83090E+01 0.00000E+00
 -1      3100 3.01500E+01 3.70100E+01 0.00000E+00
 -1      3101 3.72270E+01 3.85874E+01 0.00000E+00
 -1      3102 3.87270E+01 3.85874E+01 0.00000E+00
 -1      3103 5.19000E+01 3.83090E+01 0.00000E+00
 -1      3104 5.34000E+01 3.83090E+01 0.00000E+00
 -1      3105 5.49000E+01 3.83090E+01 0.00000E+00
 -1      3106 5.64000E+01 3.83090E+01 0.00000E+00
 -1      3107 5.41500E+01 3.70100E+01 0.00000E+00
 -1      3108 5.79000E+01 3.83090E+01 0.00000E+00
 -1      3109 5.94000E+01 3.83090E+01 0.00000E+00
 -1      3110 5.71500E+01 3.70100E+01 0.00000E+00
 -1      3111 6.09000E+01 3.83090E+01 0.00000E+00
 -1      3112 6.24000E+01 3.83090E+01 0.00000E+00
 -1      3113 6.01500E+01 3.70100E+01 0.00000E+00
 -1      3114 6.39000E+01 3.83090E+01 0.00000E+00
 -1      3115 6.54000E+01 3.83090E+01 0.00000E+00
 -1      3116 6.31500E+01 3.70100E+01 0.00000E+00
 -1      3117 6.69000E+01 3.83090E+01 0.00000E+00
 -1      3118 6.84000E+01 3.83090E+01 0.00000E+00
 -1      3119 6.61500E+01 3.70100E+01 0.00000E+00
 -1      3120 6.99000E+01 3.83090E+01 0.00000E+00
 -1      3121 7.14000E+01 3.83090E+01 0.00000E+00
 -1      3122 6.91500E+01 3.70100E+01 0.00000E+00
 -1      3123 7.29000E+01 3.83090E+01 0.00000E+00
 -1      3124 7.44000E+01 3.83090E+01 0.00000E+00
 -1      3125 7.21500E+01 3.70100E+01 0.00000E+00
 -1      3126 7.59000E+01 3.83090E+01 0.00000E+00
 -1      3127 7.74000E+01 3.83090E+01 0.00000E+00
 -1      3128 7.51500E+01 3.70100E+01 0.00000E+00
 -1      3129 7.89000E+01 3.83090E+01 0.00000E+00
 -1      3130 8.04000E+01 3.83090E+01 0.00000E+00
 -1      3131 7.81500E+01 3.70100E+01 0.00000E+00
 -1      3132 8.19000E+01 3.83090E+01 0.00000E+00
 -1      3133 8.34000E+01 3.83090E+01 0.00000E+00
 -1      3134 8.11500E+01 3.70100E+01 0.00000E+00
 -1      3135 8.49000E+01 3.83090E+01 0.00000E+00
 -1      3136 8.64000E+01 3.83090E+01 0.00000E+00
 -1      3137 8.41500E+01 3.70100E+01 0.00000E+00
 -1      3138 8.79000E+01 3.83090E+01 0.00000E+00
 -1      3139 8.94000E+01 3.83090E+01 0.00000E+00
 -1      3140 8.71500E+01 3.70100E+01 0.00000E+00
 -1      3141 9.09000E+01 3.83090E+01 0.00000E+00
 -1      3142 9.24000E+01 3.83090E+01 0.00000E+00
 -1      3143 9.01500E+01 3.70100E+01 0.00000E+00
 -1      3144 9.39000E+01 3.83090E+01 0.00000E+00
 -1      3145 9.54000E+01 3.83090E+01 0.00000E+00
 -1      3146 9.31500E+01 3.70100E+01 0.00000E+00
 -1      3147 9.69000E+01 3.83090E+01 0.00000E+00
 -1      3148 9.84000E+01 3.83090E+01 0.00000E+00
 -1      3149 9.61500E+01 3.70100E+01 0.00000E+00
 -1      3150 9.99000E+01 3.83090E+01 0.00000E+00
 -1      3151 1.01400E+02 3.83090E+01 0.00000E+00
 -1      3152 9.91500E+01 3.70100E+01 0.00000E+00
 -1      3153 1.02900E+02 3.83090E+01 0.00000E+00
 -1      3154 1.04400E+02 3.83090E+01 0.00000E+00
 -1      3155 1.02150E+02 3.70100E+01 0.00000E+00
 -1      3156 1.05900E+02 3.83090E+01 0.00000E+00
 -1      3157 1.07400E+02 3.83090E+01 0.00000E+00
 -1      3158 1.05150E+02 3.70100E+01 0.00000E+00
 -1      3159 1.08900E+02 3.83090E+01 0.00000E+00
 -1      3160 1.10400E+02 3.83090E+01 0.00000E+00
 -1      3161 1.08150E+02 3.70100E+01 0.00000E+00
 -1      3162 1.11900E+02 3.83090E+01 0.00000E+00
 -1      3163 1.13400E+02 3.83090E+01 0.00000E+00
 -1      3164 1.11150E+02 3.70100E+01 0.00000E+00
 -1      3165 1.14900E+02 3.83090E+01 0.00000E+00
 -1      3166 1.16400E+02 3.83090E+01 0.00000E+00
 -1      3167 1.14150E+02 3.70100E+01 0.00000E+00
 -1      3168 1.17900E+02 3.83090E+01 0.00000E+00
 -1      3169 1.19400E+02 3.83090E+01 0.00000E+00
 -1      3170 1.17150E+02 3.70100E+01 0.00000E+00
 -1      3171 1.20900E+02 3.83090E+01 0.00000E+00
 -1      3172 1.22400E+02 3.83090E+01 0.00000E+00
 -1      3173 1.20150E+02 3.70100E+01 0.00000E+00
 -1      3174 1.23900E+02 3.83090E+01 0.00000E+00
 -1      3175 1.25400E+02 3.83090E+01 0.00000E+00
 -1      3176 1.23150E+02 3.70100E+01 0.00000E+00
 -1      3177 1.26900E+02 3.83090E+01 0.00000E+00
 -1      3178 1.28400E+02 3.83090E+01 0.00000E+00
 -1      3179 1.26150E+02 3.70100E+01 0.00000E+00
 -1      3180 1.29900E+02 3.83090E+01 0.00000E+00
 -1      3181 1.31400E+02 3.83090E+01 0.00000E+00
 -1      3182 1.29150E+02 3.70100E+01 0.00000E+00
 -1      3183 1.32900E+02 3.83090E+01 0.00000E+00
 -1      3184 1.34400E+02 3.83090E+01 0.00000E+00
 -1      3185 1.32150E+02 3.70100E+01 0.00000E+00
 -1      3186 4.74902E+01 1.21324E+01 0.00000E+00
 -1      3187 4.85271E+01 1.27735E+01 0.00000E+00
 -1      3188 1.38309E+02 2.86750E+01 0.00000E+00
 -1      3189 1.38309E+02 2.72250E+01 0.00000E+00
 -1      3190 3.47850E+01 1.05013E+01 0.00000E+00
 -1      3191 3.32850E+01 1.05013E+01 0.00000E+00
 -1      3192 3.17850E+01 1.05013E+01 0.00000E+00
 -1      3193 3.02850E+01 1.05013E+01 0.00000E+00
 -1      3194 3.25350E+01 1.18003E+01 0.00000E+00
 -1      3195 4.08052E+01 1.06606E+01 0.00000E+00
 -1      3196 3.93052E+01 1.06606E+01 0.00000E+00
 -1      3197 4.41329E+01 1.03418E+01 0.00000E+00
 -1      3198 4.26329E+01 1.03418E+01 0.00000E+00
 -1      3199 4.95634E+01 1.03560E+01 0.00000E+00
 -1      3200 4.80634E+01 1.03560E+01 0.00000E+00
 -1      3201 5.27850E+01 1.05013E+01 0.00000E+00
 -1      3202 5.12850E+01 1.05013E+01 0.00000E+00
 -1      3203 5.57850E+01 1.05013E+01 0.00000E+00
 -1      3204 5.42850E+01 1.05013E+01 0.00000E+00
 -1      3205 5.35350E+01 1.18003E+01 0.00000E+00
 -1      3206 5.87850E+01 1.05013E+01 0.00000E+00
 -1      3207 5.72850E+01 1.05013E+01 0.00000E+00
 -1      3208 5.65350E+01 1.18003E+01 0.00000E+00
 -1      3209 6.17850E+01 1.05013E+01 0.00000E+00
 -1      3210 6.02850E+01 1.05013E+01 0.00000E+00
 -1      3211 5.95350E+01 1.18003E+01 0.00000E+00
 -1      3212 6.47850E+01 1.05013E+01 0.00000E+00
 -1      3213 6.32850E+01 1.05013E+01 0.00000E+00
 -1      3214 6.25350E+01 1.18003E+01 0.00000E+00
 -1      3215 6.77850E+01 1.05013E+01 0.00000E+00
 -1      3216 6.62850E+01 1.05013E+01 0.00000E+00
 -1      3217 6.55350E+01 1.18003E+01 0.00000E+00
 -1      3218 7.07850E+01 1.05013E+01 0.00000E+00
 -1      3219 6.92850E+01 1.05013E+01 0.00000E+00
 -1      3220 6.85350E+01 1.18003E+01 0.00000E+00
 -1      3221 7.37850E+01 1.05013E+01 0.00000E+00
 -1      3222 7.22850E+01 1.05013E+01 0.00000E+00
 -1      3223 7.15350E+01 1.18003E+01 0.00000E+00
 -1      3224 7.67850E+01 1.05013E+01 0.00000E+00
 -1      3225 7.52850E+01 1.05013E+01 0.00000E+00
 -1      3226 7.45350E+01 1.18003E+01 0.00000E+00
 -1      3227 7.97850E+01 1.05013E+01 0.00000E+00
 -1      3228 7.82850E+01 1.05013E+01 0.00000E+00
 -1      3229 7.75350E+01 1.18003E+01 0.00000E+00
 -1      3230 8.27850E+01 1.05013E+01 0.00000E+00
 -1      3231 8.12850E+01 1.05013E+01 0.00000E+00
 -1      3232 8.05350E+01 1.18003E+01 0.00000E+00
 -1      3233 8.57850E+01 1.05013E+01 0.00000E+00
 -1      3234 8.42850E+01 1.05013E+01 0.00000E+00
 -1      3235 8.35350E+01 1.18003E+01 0.00000E+00
 -1      3236 8.87850E+01 1.05013E+01 0.00000E+00
 -1      3237 8.72850E+01 1.05013E+01 0.00000E+00
 -1      3238 8.65350E+01 1.18003E+01 0.00000E+00
 -1      3239 9.17850E+01 1.05013E+01 0.00000E+00
 -1      3240 9.02850E+01 1.05013E+01 0.00000E+00
 -1      3241 8.95350E+01 1.18003E+01 0.00000E+00
 -1      3242 9.47850E+01 1.05013E+01 0.00000E+00
 -1      3243 9.32850E+01 1.05013E+01 0.00000E+00
 -1      3244 9.25350E+01 1.18003E+01 0.00000E+00
 -1      3245 9.77850E+01 1.05013E+01 0.00000E+00
 -1      3246 9.62850E+01 1.05013E+01 0.00000E+00
 -1      3247 9.55350E+01 1.18003E+01 0.00000E+00
 -1      3248 1.00785E+02 1.05013E+01 0.00000E+00
 -1      3249 9.92850E+01 1.05013E+01 0.00000E+00
 -1      3250 9.85350E+01 1.18003E+01 0.00000E+00
 -1      3251 1.03785E+02 1.05013E+01 0.00000E+00
 -1      3252 1.02285E+02 1.05013E+01 0.00000E+00
 -1      3253 1.01535E+02 1.18003E+01 0.00000E+00
 -1      3254 1.06785E+02 1.05013E+01 0.00000E+00
 -1      3255 1.05285E+02 1.05013E+01 0.00000E+00
 -1      3256 1.04535E+02 1.18003E+01 0.00000E+00
 -1      3257 1.09785E+02 1.05013E+01 0.00000E+00
 -1      3258 1.08285E+02 1.05013E+01 0.00000E+00
 -1      3259 1.07535E+02 1.18003E+01 0.00000E+00
 -1      3260 1.12785E+02 1.05013E+01 0.00000E+00
 -1      3261 1.11285E+02 1.05013E+01 0.00000E+00
 -1      3262 1.10535E+02 1.18003E+01 0.00000E+00
 -1      3263 1.15785E+02 1.05013E+01 0.00000E+00
 -1      3264 1.14285E+02 1.05013E+01 0.00000E+00
 -1      3265 1.13535E+02 1.18003E+01 0.00000E+00
 -1      3266 1.18785E+02 1.05013E+01 0.00000E+00
 -1      3267 1.17285E+02 1.05013E+01 0.00000E+00
 -1      3268 1.16535E+02 1.18003E+01 0.00000E+00
 -1      3269 1.21785E+02 1.05013E+01 0.00000E+00
 -1      3270 1.20285E+02 1.05013E+01 0.00000E+00
 -1      3271 1.19535E+02 1.18003E+01 0.00000E+00
 -1      3272 1.24785E+02 1.05013E+01 0.00000E+00
 -1      3273 1.23285E+02 1.05013E+01 0.00000E+00
 -1      3274 1.22535E+02 1.18003E+01 0.00000E+00
 -1      3275 1.27785E+02 1.05013E+01 0.00000E+00
 -1      3276 1.26285E+02 1.05013E+01 0.00000E+00
 -1      3277 1.25535E+02 1.18003E+01 0.00000E+00
 -1      3278 1.30785E+02 1.05013E+01 0.00000E+00
 -1      3279 1.29285E+02 1.05013E+01 0.00000E+00
 -1      3280 1.28535E+02 1.18003E+01 0.00000E+00
 -1      3281 1.33785E+02 1.05013E+01 0.00000E+00
 -1      3282 1.32285E+02 1.05013E+01 0.00000E+00
 -1      3283 1.31535E+02 1.18003E+01 0.00000E+00
 -1      3284 1.36785E+02 1.05013E+01 0.00000E+00
 -1      3285 1.35285E+02 1.05013E+01 0.00000E+00
 -1      3286 1.34535E+02 1.18003E+01 0.00000E+00
 -1      3287 1.38912E+02 1.10040E+01 0.00000E+00
 -1      3288 1.37744E+02 1.07233E+01 0.00000E+00
 -1      3289 1.36994E+02 1.20223E+01 0.00000E+00
 -1      3290 1.38912E+02 1.24665E+01 0.00000E+00
 -1      3291 1.97850E+01 1.05013E+01 0.00000E+00
 -1      3292 1.82850E+01 1.05013E+01 0.00000E+00
 -1      3293 5.61903E+01 2.91332E+01 0.00000E+00
 -1      3294 5.57147E+01 3.01145E+01 0.00000E+00
 -1      3295 1.16910E+01 2.12875E+01 0.00000E+00
 -1      3296 1.16910E+01 2.27625E+01 0.00000E+00
 -1      3297 3.45554E+01 1.33014E+01 0.00000E+00
 -1      3298 3.57851E+01 1.24068E+01 0.00000E+00
 -1      3299 1.38309E+02 2.57500E+01 0.00000E+00
 -1      3300 1.38309E+02 2.42750E+01 0.00000E+00
 -1      3301 1.37010E+02 2.64750E+01 0.00000E+00
 -1      3302 1.38309E+02 3.45625E+01 0.00000E+00
 -1      3303 1.38309E+02 3.30875E+01 0.00000E+00
 -1      3304 4.03678E+01 3.76946E+01 0.00000E+00
 -1      3305 3.92935E+01 3.82227E+01 0.00000E+00
 -1      3306 3.02854E+01 2.93037E+01 0.00000E+00
 -1      3307 2.98504E+01 2.79410E+01 0.00000E+00
 -1      3308 3.60212E+01 3.81075E+01 0.00000E+00
 -1      3309 3.80351E+01 1.11078E+01 0.00000E+00
 -1      3310 3.45212E+01 3.81075E+01 0.00000E+00
 -1      3311 3.37712E+01 3.68085E+01 0.00000E+00
 -1      3312 3.26408E+01 3.59005E+01 0.00000E+00
 -1      3313 4.34825E+01 3.90163E+01 0.00000E+00
 -1      3314 1.38309E+02 3.16187E+01 0.00000E+00
 -1      3315 1.38309E+02 3.01437E+01 0.00000E+00
 -1      3316 1.37010E+02 2.94188E+01 0.00000E+00
 -1      3317 1.37010E+02 3.23563E+01 0.00000E+00
 -1      3318 3.65351E+01 1.11078E+01 0.00000E+00
 -1      3319 5.62553E+01 2.60925E+01 0.00000E+00
 -1      3320 5.65255E+01 2.74055E+01 0.00000E+00
 -1      3321 2.27850E+01 1.05013E+01 0.00000E+00
 -1      3322 2.12850E+01 1.05013E+01 0.00000E+00
 -1      3323 2.05350E+01 1.18003E+01 0.00000E+00
 -1      3324 3.10619E+01 3.18631E+01 0.00000E+00
 -1      3325 3.06406E+01 3.06419E+01 0.00000E+00
 -1      3326 4.54618E+01 1.09786E+01 0.00000E+00
 -1      3327 3.22186E+01 3.45378E+01 0.00000E+00
 -1      3328 3.14840E+01 3.32258E+01 0.00000E+00
 -1      3329 3.03835E+01 3.29221E+01 0.00000E+00
 -1      3330 3.12278E+01 3.56474E+01 0.00000E+00
 -1      3331 5.21414E+01 3.60530E+01 0.00000E+00
 -1      3332 5.10681E+01 3.69337E+01 0.00000E+00
 -1      3333 2.89580E+01 2.24986E+01 0.00000E+00
 -1      3334 2.97280E+01 2.14743E+01 0.00000E+00
 -1      3335 3.02160E+01 2.03160E+01 0.00000E+00
 -1      3336 3.07041E+01 1.91576E+01 0.00000E+00
 -1      3337 2.90116E+01 2.02121E+01 0.00000E+00
 -1      3338 1.29000E+01 3.83090E+01 0.00000E+00
 -1      3339 1.44000E+01 3.83090E+01 0.00000E+00
 -1      3340 1.51500E+01 3.70100E+01 0.00000E+00
 -1      3341 1.12710E+01 3.74352E+01 0.00000E+00
 -1      3342 1.20855E+01 3.78721E+01 0.00000E+00
 -1      3343 1.12065E+01 3.56994E+01 0.00000E+00
 -1      3344 1.38758E+02 3.81988E+01 0.00000E+00
 -1      3345 1.38473E+02 3.60156E+01 0.00000E+00
 -1      3346 1.37173E+02 3.52781E+01 0.00000E+00
 -1      3347 1.37501E+02 3.81842E+01 0.00000E+00
 -1      3348 1.16910E+01 2.42375E+01 0.00000E+00
 -1      3349 1.16910E+01 2.57125E+01 0.00000E+00
 -1      3350 1.29900E+01 2.35000E+01 0.00000E+00
 -1      3351 1.28355E+01 3.65731E+01 0.00000E+00
 -1      3352 5.58505E+01 3.10722E+01 0.00000E+00
 -1      3353 5.14095E+01 1.52319E+01 0.00000E+00
 -1      3354 5.23918E+01 1.53153E+01 0.00000E+00
 -1      3355 5.12029E+01 1.42834E+01 0.00000E+00
 -1      3356 5.36494E+01 1.71353E+01 0.00000E+00
 -1      3357 1.16910E+01 1.83500E+01 0.00000E+00
 -1      3358 1.16910E+01 1.98188E+01 0.00000E+00
 -1      3359 1.29900E+01 2.05562E+01 0.00000E+00
 -1      3360 1.35528E+01 1.33887E+01 0.00000E+00
 -1      3361 1.20528E+01 1.48637E+01 0.00000E+00
 -1      3362 5.60520E+01 1.90916E+01 0.00000E+00
 -1      3363 5.66541E+01 1.96647E+01 0.00000E+00
 -1      3364 5.03181E+01 3.82327E+01 0.00000E+00
 -1      3365 4.94062E+01 1.28549E+01 0.00000E+00
 -1      3366 4.58546E+01 3.86806E+01 0.00000E+00
 -1      3367 4.73546E+01 3.86806E+01 0.00000E+00
 -1      3368 4.88181E+01 3.82327E+01 0.00000E+00
 -1      3369 4.69618E+01 1.09786E+01 0.00000E+00
 -1      3370 1.36243E+02 3.81696E+01 0.00000E+00
 -1      3371 5.03134E+01 1.16550E+01 0.00000E+00
 -1      3372 1.12065E+01 3.27619E+01 0.00000E+00
 -1      3373 1.12065E+01 3.42306E+01 0.00000E+00
 -1      3374 1.20210E+01 3.46675E+01 0.00000E+00
 -1      3375 2.95350E+01 1.18003E+01 0.00000E+00
 -1      3376 2.87850E+01 1.05013E+01 0.00000E+00
 -1      3377 2.72850E+01 1.05013E+01 0.00000E+00
 -1      3378 1.35493E+02 3.68706E+01 0.00000E+00
 -1      3379 2.96062E+01 3.02213E+01 0.00000E+00
 -1      3380 5.70593E+01 2.82702E+01 0.00000E+00
 -1      3381 5.75932E+01 2.91348E+01 0.00000E+00
 -1      3382 5.79284E+01 2.74071E+01 0.00000E+00
 -1      3383 1.38309E+02 1.98625E+01 0.00000E+00
 -1      3384 1.38309E+02 1.83875E+01 0.00000E+00
 -1      3385 1.38309E+02 2.28062E+01 0.00000E+00
 -1      3386 1.38309E+02 2.13312E+01 0.00000E+00
 -1      3387 1.37010E+02 2.05938E+01 0.00000E+00
 -1      3388 1.37010E+02 2.35313E+01 0.00000E+00
 -1      3389 5.62003E+01 2.24285E+01 0.00000E+00
 -1      3390 5.68743E+01 2.31743E+01 0.00000E+00
 -1      3391 5.68069E+01 2.15609E+01 0.00000E+00
 -1      3392 5.51723E+01 3.32349E+01 0.00000E+00
 -1      3393 5.41638E+01 3.34555E+01 0.00000E+00
 -1      3394 5.43593E+01 3.45439E+01 0.00000E+00
 -1      3395 2.84017E+01 2.79298E+01 0.00000E+00
 -1      3396 2.90012E+01 2.69877E+01 0.00000E+00
 -1      3397 2.81519E+01 2.60343E+01 0.00000E+00
 -1      3398 5.59379E+01 1.82605E+01 0.00000E+00
 -1      3399 4.49825E+01 3.90163E+01 0.00000E+00
 -1      3400 1.12065E+01 3.12931E+01 0.00000E+00
 -1      3401 1.20210E+01 3.17300E+01 0.00000E+00
 -1      3402 1.12065E+01 2.98244E+01 0.00000E+00
 -1      3403 3.35444E+01 1.45109E+01 0.00000E+00
 -1      3404 3.30240E+01 1.30098E+01 0.00000E+00
 -1      3405 3.15240E+01 1.30098E+01 0.00000E+00
 -1      3406 3.25020E+01 1.54288E+01 0.00000E+00
 -1      3407 1.20528E+01 1.63325E+01 0.00000E+00
 -1      3408 1.68743E+01 1.04824E+01 0.00000E+00
 -1      3409 1.53743E+01 1.04824E+01 0.00000E+00
 -1      3410 1.48027E+01 1.17438E+01 0.00000E+00
 -1      3411 1.76243E+01 1.17814E+01 0.00000E+00
 -1      3412 3.04267E+01 1.81786E+01 0.00000E+00
 -1      3413 3.16834E+01 1.57613E+01 0.00000E+00
 -1      3414 1.38375E+02 1.71472E+01 0.00000E+00
 -1      3415 1.38440E+02 1.59068E+01 0.00000E+00
 -1      3416 1.37076E+02 1.78847E+01 0.00000E+00
 -1      3417 5.68311E+01 2.52922E+01 0.00000E+00
 -1      3418 5.30004E+01 3.58872E+01 0.00000E+00
 -1      3419 2.57850E+01 1.05013E+01 0.00000E+00
 -1      3420 2.42850E+01 1.05013E+01 0.00000E+00
 -1      3421 2.35350E+01 1.18003E+01 0.00000E+00
 -1      3422 2.65350E+01 1.18003E+01 0.00000E+00
 -1      3423 2.81404E+01 2.34612E+01 0.00000E+00
 -1      3424 2.77060E+01 2.23330E+01 0.00000E+00
 -1      3425 2.78198E+01 2.41939E+01 0.00000E+00
 -1      3426 1.74000E+01 3.57110E+01 0.00000E+00
 -1      3427 1.89000E+01 3.57110E+01 0.00000E+00
 -1      3428 1.49635E+01 1.34075E+01 0.00000E+00
 -1      3429 5.78493E+01 1.92600E+01 0.00000E+00
 -1      3430 5.73281E+01 2.04104E+01 0.00000E+00
 -1      3431 5.80021E+01 2.11562E+01 0.00000E+00
 -1      3432 2.04000E+01 3.57110E+01 0.00000E+00
 -1      3433 2.19000E+01 3.57110E+01 0.00000E+00
 -1      3434 1.96500E+01 3.44120E+01 0.00000E+00
 -1      3435 2.34000E+01 3.57110E+01 0.00000E+00
 -1      3436 2.49000E+01 3.57110E+01 0.00000E+00
 -1      3437 2.26500E+01 3.44120E+01 0.00000E+00
 -1      3438 2.64000E+01 3.57110E+01 0.00000E+00
 -1      3439 2.79000E+01 3.57110E+01 0.00000E+00
 -1      3440 2.56500E+01 3.44120E+01 0.00000E+00
 -1      3441 2.97278E+01 3.56474E+01 0.00000E+00
 -1      3442 5.55755E+01 1.68832E+01 0.00000E+00
 -1      3443 5.68130E+01 1.71369E+01 0.00000E+00
 -1      3444 5.55089E+01 3.56666E+01 0.00000E+00
 -1      3445 5.70089E+01 3.56666E+01 0.00000E+00
 -1      3446 5.94000E+01 3.57110E+01 0.00000E+00
 -1      3447 6.09000E+01 3.57110E+01 0.00000E+00
 -1      3448 6.24000E+01 3.57110E+01 0.00000E+00
 -1      3449 6.39000E+01 3.57110E+01 0.00000E+00
 -1      3450 6.16500E+01 3.44120E+01 0.00000E+00
 -1      3451 6.54000E+01 3.57110E+01 0.00000E+00
 -1      3452 6.69000E+01 3.57110E+01 0.00000E+00
 -1      3453 6.46500E+01 3.44120E+01 0.00000E+00
 -1      3454 6.84000E+01 3.57110E+01 0.00000E+00
 -1      3455 6.99000E+01 3.57110E+01 0.00000E+00
 -1      3456 6.76500E+01 3.44120E+01 0.00000E+00
 -1      3457 7.14000E+01 3.57110E+01 0.00000E+00
 -1      3458 7.29000E+01 3.57110E+01 0.00000E+00
 -1      3459 7.06500E+01 3.44120E+01 0.00000E+00
 -1      3460 7.44000E+01 3.57110E+01 0.00000E+00
 -1      3461 7.59000E+01 3.57110E+01 0.00000E+00
 -1      3462 7.36500E+01 3.44120E+01 0.00000E+00
 -1      3463 7.74000E+01 3.57110E+01 0.00000E+00
 -1      3464 7.89000E+01 3.57110E+01 0.00000E+00
 -1      3465 7.66500E+01 3.44120E+01 0.00000E+00
 -1      3466 8.04000E+01 3.57110E+01 0.00000E+00
 -1      3467 8.19000E+01 3.57110E+01 0.00000E+00
 -1      3468 7.96500E+01 3.44120E+01 0.00000E+00
 -1      3469 8.34000E+01 3.57110E+01 0.00000E+00
 -1      3470 8.49000E+01 3.57110E+01 0.00000E+00
 -1      3471 8.26500E+01 3.44120E+01 0.00000E+00
 -1      3472 8.64000E+01 3.57110E+01 0.00000E+00
 -1      3473 8.79000E+01 3.57110E+01 0.00000E+00
 -1      3474 8.56500E+01 3.44120E+01 0.00000E+00
 -1      3475 8.94000E+01 3.57110E+01 0.00000E+00
 -1      3476 9.09000E+01 3.57110E+01 0.00000E+00
 -1      3477 8.86500E+01 3.44120E+01 0.00000E+00
 -1      3478 9.24000E+01 3.57110E+01 0.00000E+00
 -1      3479 9.39000E+01 3.57110E+01 0.00000E+00
 -1      3480 9.16500E+01 3.44120E+01 0.00000E+00
 -1      3481 9.54000E+01 3.57110E+01 0.00000E+00
 -1      3482 9.69000E+01 3.57110E+01 0.00000E+00
 -1      3483 9.46500E+01 3.44120E+01 0.00000E+00
 -1      3484 9.84000E+01 3.57110E+01 0.00000E+00
 -1      3485 9.99000E+01 3.57110E+01 0.00000E+00
 -1      3486 9.76500E+01 3.44120E+01 0.00000E+00
 -1      3487 1.01400E+02 3.57110E+01 0.00000E+00
 -1      3488 1.02900E+02 3.57110E+01 0.00000E+00
 -1      3489 1.00650E+02 3.44120E+01 0.00000E+00
 -1      3490 1.04400E+02 3.57110E+01 0.00000E+00
 -1      3491 1.05900E+02 3.57110E+01 0.00000E+00
 -1      3492 1.03650E+02 3.44120E+01 0.00000E+00
 -1      3493 1.07400E+02 3.57110E+01 0.00000E+00
 -1      3494 1.08900E+02 3.57110E+01 0.00000E+00
 -1      3495 1.06650E+02 3.44120E+01 0.00000E+00
 -1      3496 1.10400E+02 3.57110E+01 0.00000E+00
 -1      3497 1.11900E+02 3.57110E+01 0.00000E+00
 -1      3498 1.09650E+02 3.44120E+01 0.00000E+00
 -1      3499 1.13400E+02 3.57110E+01 0.00000E+00
 -1      3500 1.14900E+02 3.57110E+01 0.00000E+00
 -1      3501 1.12650E+02 3.44120E+01 0.00000E+00
 -1      3502 1.16400E+02 3.57110E+01 0.00000E+00
 -1      3503 1.17900E+02 3.57110E+01 0.00000E+00
 -1      3504 1.15650E+02 3.44120E+01 0.00000E+00
 -1      3505 1.19400E+02 3.57110E+01 0.00000E+00
 -1      3506 1.20900E+02 3.57110E+01 0.00000E+00
 -1      3507 1.18650E+02 3.44120E+01 0.00000E+00
 -1      3508 1.22400E+02 3.57110E+01 0.00000E+00
 -1      3509 1.23900E+02 3.57110E+01 0.00000E+00
 -1      3510 1.21650E+02 3.44120E+01 0.00000E+00
 -1      3511 1.25400E+02 3.57110E+01 0.00000E+00
 -1      3512 1.26900E+02 3.57110E+01 0.00000E+00
 -1      3513 1.24650E+02 3.44120E+01 0.00000E+00
 -1      3514 1.28400E+02 3.57110E+01 0.00000E+00
 -1      3515 1.29900E+02 3.57110E+01 0.00000E+00
 -1      3516 1.27650E+02 3.44120E+01 0.00000E+00
 -1      3517 1.31400E+02 3.57110E+01 0.00000E+00
 -1      3518 1.32900E+02 3.57110E+01 0.00000E+00
 -1      3519 1.30650E+02 3.44120E+01 0.00000E+00
 -1      3520 1.28355E+01 3.36356E+01 0.00000E+00
 -1      3521 1.28355E+01 3.51044E+01 0.00000E+00
 -1      3522 1.36500E+01 3.55412E+01 0.00000E+00
 -1      3523 5.36101E+01 1.30835E+01 0.00000E+00
 -1      3524 5.21101E+01 1.30835E+01 0.00000E+00
 -1      3525 6.32850E+01 1.30992E+01 0.00000E+00
 -1      3526 6.17850E+01 1.30992E+01 0.00000E+00
 -1      3527 6.62850E+01 1.30992E+01 0.00000E+00
 -1      3528 6.47850E+01 1.30992E+01 0.00000E+00
 -1      3529 6.40350E+01 1.43982E+01 0.00000E+00
 -1      3530 6.92850E+01 1.30992E+01 0.00000E+00
 -1      3531 6.77850E+01 1.30992E+01 0.00000E+00
 -1      3532 6.70350E+01 1.43982E+01 0.00000E+00
 -1      3533 7.22850E+01 1.30992E+01 0.00000E+00
 -1      3534 7.07850E+01 1.30992E+01 0.00000E+00
 -1      3535 7.00350E+01 1.43982E+01 0.00000E+00
 -1      3536 7.52850E+01 1.30992E+01 0.00000E+00
 -1      3537 7.37850E+01 1.30992E+01 0.00000E+00
 -1      3538 7.30350E+01 1.43982E+01 0.00000E+00
 -1      3539 7.82850E+01 1.30992E+01 0.00000E+00
 -1      3540 7.67850E+01 1.30992E+01 0.00000E+00
 -1      3541 7.60350E+01 1.43982E+01 0.00000E+00
 -1      3542 8.12850E+01 1.30992E+01 0.00000E+00
 -1      3543 7.97850E+01 1.30992E+01 0.00000E+00
 -1      3544 7.90350E+01 1.43982E+01 0.00000E+00
 -1      3545 8.42850E+01 1.30992E+01 0.00000E+00
 -1      3546 8.27850E+01 1.30992E+01 0.00000E+00
 -1      3547 8.20350E+01 1.43982E+01 0.00000E+00
 -1      3548 8.72850E+01 1.30992E+01 0.00000E+00
 -1      3549 8.57850E+01 1.30992E+01 0.00000E+00
 -1      3550 8.50350E+01 1.43982E+01 0.00000E+00
 -1      3551 9.02850E+01 1.30992E+01 0.00000E+00
 -1      3552 8.87850E+01 1.30992E+01 0.00000E+00
 -1      3553 8.80350E+01 1.43982E+01 0.00000E+00
 -1      3554 9.32850E+01 1.30992E+01 0.00000E+00
 -1      3555 9.17850E+01 1.30992E+01 0.00000E+00
 -1      3556 9.10350E+01 1.43982E+01 0.00000E+00
 -1      3557 9.62850E+01 1.30992E+01 0.00000E+00
 -1      3558 9.47850E+01 1.30992E+01 0.00000E+00
 -1      3559 9.40350E+01 1.43982E+01 0.00000E+00
 -1      3560 9.92850E+01 1.30992E+01 0.00000E+00
 -1      3561 9.77850E+01 1.30992E+01 0.00000E+00
 -1      3562 9.70350E+01 1.43982E+01 0.00000E+00
 -1      3563 1.02285E+02 1.30992E+01 0.00000E+00
 -1      3564 1.00785E+02 1.30992E+01 0.00000E+00
 -1      3565 1.00035E+02 1.43982E+01 0.00000E+00
 -1      3566 1.05285E+02 1.30992E+01 0.00000E+00
 -1      3567 1.03785E+02 1.30992E+01 0.00000E+00
 -1      3568 1.03035E+02 1.43982E+01 0.00000E+00
 -1      3569 1.08285E+02 1.30992E+01 0.00000E+00
 -1      3570 1.06785E+02 1.30992E+01 0.00000E+00
 -1      3571 1.06035E+02 1.43982E+01 0.00000E+00
 -1      3572 1.11285E+02 1.30992E+01 0.00000E+00
 -1      3573 1.09785E+02 1.30992E+01 0.00000E+00
 -1      3574 1.09035E+02 1.43982E+01 0.00000E+00
 -1      3575 1.14285E+02 1.30992E+01 0.00000E+00
 -1      3576 1.12785E+02 1.30992E+01 0.00000E+00
 -1      3577 1.12035E+02 1.43982E+01 0.00000E+00
 -1      3578 1.17285E+02 1.30992E+01 0.00000E+00
 -1      3579 1.15785E+02 1.30992E+01 0.00000E+00
 -1      3580 1.15035E+02 1.43982E+01 0.00000E+00
 -1      3581 1.20285E+02 1.30992E+01 0.00000E+00
 -1      3582 1.18785E+02 1.30992E+01 0.00000E+00
 -1      3583 1.18035E+02 1.43982E+01 0.00000E+00
 -1      3584 1.23285E+02 1.30992E+01 0.00000E+00
 -1      3585 1.21785E+02 1.30992E+01 0.00000E+00
 -1      3586 1.21035E+02 1.43982E+01 0.00000E+00
 -1      3587 1.26285E+02 1.30992E+01 0.00000E+00
 -1      3588 1.24785E+02 1.30992E+01 0.00000E+00
 -1      3589 1.24035E+02 1.43982E+01 0.00000E+00
 -1      3590 1.29285E+02 1.30992E+01 0.00000E+00
 -1      3591 1.27785E+02 1.30992E+01 0.00000E+00
 -1      3592 1.27035E+02 1.43982E+01 0.00000E+00
 -1      3593 1.32285E+02 1.30992E+01 0.00000E+00
 -1      3594 1.30785E+02 1.30992E+01 0.00000E+00
 -1      3595 1.30035E+02 1.43982E+01 0.00000E+00
 -1      3596 1.35285E+02 1.30992E+01 0.00000E+00
 -1      3597 1.33785E+02 1.30992E+01 0.00000E+00
 -1      3598 1.33035E+02 1.43982E+01 0.00000E+00
 -1      3599 3.97165E+01 3.92433E+01 0.00000E+00
 -1      3600 4.12165E+01 3.92433E+01 0.00000E+00
 -1      3601 1.35711E+02 2.72125E+01 0.00000E+00
 -1      3602 1.35711E+02 2.57375E+01 0.00000E+00
 -1      3603 2.91444E+01 1.77489E+01 0.00000E+00
 -1      3604 3.00715E+01 1.68737E+01 0.00000E+00
 -1      3605 1.14487E+01 2.70341E+01 0.00000E+00
 -1      3606 1.14487E+01 2.85028E+01 0.00000E+00
 -1      3607 1.22633E+01 2.89397E+01 0.00000E+00
 -1      3608 1.27478E+01 2.62966E+01 0.00000E+00
 -1      3609 6.02850E+01 1.30992E+01 0.00000E+00
 -1      3610 5.87850E+01 1.30992E+01 0.00000E+00
 -1      3611 6.10350E+01 1.43982E+01 0.00000E+00
 -1      3612 1.34115E+02 3.55643E+01 0.00000E+00
 -1      3613 1.35958E+02 3.54248E+01 0.00000E+00
 -1      3614 1.35795E+02 3.39717E+01 0.00000E+00
 -1      3615 1.33365E+02 3.42653E+01 0.00000E+00
 -1      3616 2.76685E+01 2.03282E+01 0.00000E+00
 -1      3617 2.81565E+01 1.91699E+01 0.00000E+00
 -1      3618 2.12850E+01 1.30992E+01 0.00000E+00
 -1      3619 1.97850E+01 1.30992E+01 0.00000E+00
 -1      3620 2.86310E+01 3.11964E+01 0.00000E+00
 -1      3621 2.82758E+01 2.98582E+01 0.00000E+00
 -1      3622 5.69476E+01 1.30914E+01 0.00000E+00
 -1      3623 5.54476E+01 1.30914E+01 0.00000E+00
 -1      3624 5.40227E+01 1.43747E+01 0.00000E+00
 -1      3625 5.76976E+01 1.43904E+01 0.00000E+00
 -1      3626 2.72204E+01 2.51360E+01 0.00000E+00
 -1      3627 2.62889E+01 2.42378E+01 0.00000E+00
 -1      3628 2.66209E+01 2.60782E+01 0.00000E+00
 -1      3629 1.47750E+01 3.56261E+01 0.00000E+00
 -1      3630 1.62750E+01 3.56261E+01 0.00000E+00
 -1      3631 1.70250E+01 3.43271E+01 0.00000E+00
 -1      3632 1.47750E+01 3.41574E+01 0.00000E+00
 -1      3633 3.04011E+01 1.53317E+01 0.00000E+00
 -1      3634 5.45245E+01 1.60116E+01 0.00000E+00
 -1      3635 5.45004E+01 3.58872E+01 0.00000E+00
 -1      3636 3.02125E+01 1.41707E+01 0.00000E+00
 -1      3637 2.97235E+01 1.29612E+01 0.00000E+00
 -1      3638 2.82235E+01 1.29612E+01 0.00000E+00
 -1      3639 2.86006E+01 1.52831E+01 0.00000E+00
 -1      3640 1.38643E+02 1.48068E+01 0.00000E+00
 -1      3641 1.38709E+02 1.35665E+01 0.00000E+00
 -1      3642 1.37750E+02 1.33444E+01 0.00000E+00
 -1      3643 1.37344E+02 1.55443E+01 0.00000E+00
 -1      3644 5.70177E+01 3.11290E+01 0.00000E+00
 -1      3645 5.61440E+01 3.22033E+01 0.00000E+00
 -1      3646 1.33518E+01 1.70700E+01 0.00000E+00
 -1      3647 5.74377E+01 2.44246E+01 0.00000E+00
 -1      3648 5.80011E+01 2.56748E+01 0.00000E+00
 -1      3649 5.80443E+01 2.35570E+01 0.00000E+00
 -1      3650 2.60332E+01 2.22534E+01 0.00000E+00
 -1      3651 2.68508E+01 2.12908E+01 0.00000E+00
 -1      3652 2.59957E+01 2.02486E+01 0.00000E+00
 -1      3653 1.66228E+01 1.33710E+01 0.00000E+00
 -1      3654 1.53728E+01 1.50159E+01 0.00000E+00
 -1      3655 5.11278E+01 1.30001E+01 0.00000E+00
 -1      3656 5.91416E+01 2.56719E+01 0.00000E+00
 -1      3657 5.85350E+01 2.65395E+01 0.00000E+00
 -1      3658 5.90689E+01 2.74042E+01 0.00000E+00
 -1      3659 5.84761E+01 1.80161E+01 0.00000E+00
 -1      3660 5.91501E+01 1.87619E+01 0.00000E+00
 -1      3661 1.35711E+02 2.42687E+01 0.00000E+00
 -1      3662 1.35711E+02 2.28000E+01 0.00000E+00
 -1      3663 1.34412E+02 2.50063E+01 0.00000E+00
 -1      3664 1.66703E+01 1.69969E+01 0.00000E+00
 -1      3665 1.50110E+01 1.70335E+01 0.00000E+00
 -1      3666 1.46492E+01 1.90510E+01 0.00000E+00
 -1      3667 5.77589E+01 3.43676E+01 0.00000E+00
 -1      3668 2.78013E+01 1.78650E+01 0.00000E+00
 -1      3669 1.28355E+01 3.21669E+01 0.00000E+00
 -1      3670 1.36500E+01 3.26037E+01 0.00000E+00
 -1      3671 1.28355E+01 3.06981E+01 0.00000E+00
 -1      3672 5.63395E+01 3.32917E+01 0.00000E+00
 -1      3673 1.34580E+02 3.26497E+01 0.00000E+00
 -1      3674 1.35795E+02 3.25030E+01 0.00000E+00
 -1      3675 1.35795E+02 3.10343E+01 0.00000E+00
 -1      3676 1.36791E+02 1.31223E+01 0.00000E+00
 -1      3677 5.78867E+01 3.02659E+01 0.00000E+00
 -1      3678 5.81802E+01 3.13970E+01 0.00000E+00
 -1      3679 5.87558E+01 2.94028E+01 0.00000E+00
 -1      3680 2.89778E+01 3.43484E+01 0.00000E+00
 -1      3681 1.35711E+02 2.13312E+01 0.00000E+00
 -1      3682 1.35711E+02 1.98625E+01 0.00000E+00
 -1      3683 1.34412E+02 2.20688E+01 0.00000E+00
 -1      3684 5.42293E+01 1.53231E+01 0.00000E+00
 -1      3685 1.42890E+01 2.27625E+01 0.00000E+00
 -1      3686 1.42890E+01 2.42375E+01 0.00000E+00
 -1      3687 2.74265E+01 2.89049E+01 0.00000E+00
 -1      3688 2.65773E+01 2.79515E+01 0.00000E+00
 -1      3689 2.64513E+01 2.98799E+01 0.00000E+00
 -1      3690 1.80335E+01 1.33898E+01 0.00000E+00
 -1      3691 2.85557E+01 3.29857E+01 0.00000E+00
 -1      3692 2.72253E+01 3.26226E+01 0.00000E+00
 -1      3693 1.35777E+02 1.86222E+01 0.00000E+00
 -1      3694 1.35842E+02 1.73818E+01 0.00000E+00
 -1      3695 1.34478E+02 1.93597E+01 0.00000E+00
 -1      3696 2.27850E+01 1.30992E+01 0.00000E+00
 -1      3697 2.20350E+01 1.43982E+01 0.00000E+00
 -1      3698 2.42850E+01 1.30992E+01 0.00000E+00
 -1      3699 1.36041E+02 1.44213E+01 0.00000E+00
 -1      3700 1.87835E+01 1.46888E+01 0.00000E+00
 -1      3701 1.35753E+02 2.98577E+01 0.00000E+00
 -1      3702 1.35753E+02 2.83890E+01 0.00000E+00
 -1      3703 1.34454E+02 2.76515E+01 0.00000E+00
 -1      3704 1.34538E+02 3.00045E+01 0.00000E+00
 -1      3705 5.81137E+01 1.66388E+01 0.00000E+00
 -1      3706 2.54338E+01 2.31955E+01 0.00000E+00
 -1      3707 2.45786E+01 2.21533E+01 0.00000E+00
 -1      3708 2.48343E+01 2.41377E+01 0.00000E+00
 -1      3709 1.44691E+01 2.01724E+01 0.00000E+00
 -1      3710 1.44691E+01 2.16411E+01 0.00000E+00
 -1      3711 1.57681E+01 2.23786E+01 0.00000E+00
 -1      3712 1.61284E+01 2.01359E+01 0.00000E+00
 -1      3713 1.89000E+01 3.31130E+01 0.00000E+00
 -1      3714 2.04000E+01 3.31130E+01 0.00000E+00
 -1      3715 2.19000E+01 3.31130E+01 0.00000E+00
 -1      3716 2.34000E+01 3.31130E+01 0.00000E+00
 -1      3717 2.11500E+01 3.18140E+01 0.00000E+00
 -1      3718 2.45627E+01 3.28678E+01 0.00000E+00
 -1      3719 2.60627E+01 3.28678E+01 0.00000E+00
 -1      3720 2.61380E+01 3.10784E+01 0.00000E+00
 -1      3721 2.38127E+01 3.15688E+01 0.00000E+00
 -1      3722 6.77850E+01 1.56973E+01 0.00000E+00
 -1      3723 6.62850E+01 1.56973E+01 0.00000E+00
 -1      3724 6.09000E+01 3.31130E+01 0.00000E+00
 -1      3725 6.24000E+01 3.31130E+01 0.00000E+00
 -1      3726 6.39000E+01 3.31130E+01 0.00000E+00
 -1      3727 6.54000E+01 3.31130E+01 0.00000E+00
 -1      3728 6.31500E+01 3.18140E+01 0.00000E+00
 -1      3729 6.69000E+01 3.31130E+01 0.00000E+00
 -1      3730 6.84000E+01 3.31130E+01 0.00000E+00
 -1      3731 6.61500E+01 3.18140E+01 0.00000E+00
 -1      3732 6.99000E+01 3.31130E+01 0.00000E+00
 -1      3733 7.14000E+01 3.31130E+01 0.00000E+00
 -1      3734 6.91500E+01 3.18140E+01 0.00000E+00
 -1      3735 7.29000E+01 3.31130E+01 0.00000E+00
 -1      3736 7.44000E+01 3.31130E+01 0.00000E+00
 -1      3737 7.21500E+01 3.18140E+01 0.00000E+00
 -1      3738 7.59000E+01 3.31130E+01 0.00000E+00
 -1      3739 7.74000E+01 3.31130E+01 0.00000E+00
 -1      3740 7.51500E+01 3.18140E+01 0.00000E+00
 -1      3741 7.89000E+01 3.31130E+01 0.00000E+00
 -1      3742 8.04000E+01 3.31130E+01 0.00000E+00
 -1      3743 7.81500E+01 3.18140E+01 0.00000E+00
 -1      3744 8.19000E+01 3.31130E+01 0.00000E+00
 -1      3745 8.34000E+01 3.31130E+01 0.00000E+00
 -1      3746 8.11500E+01 3.18140E+01 0.00000E+00
 -1      3747 8.49000E+01 3.31130E+01 0.00000E+00
 -1      3748 8.64000E+01 3.31130E+01 0.00000E+00
 -1      3749 8.41500E+01 3.18140E+01 0.00000E+00
 -1      3750 8.79000E+01 3.31130E+01 0.00000E+00
 -1      3751 8.94000E+01 3.31130E+01 0.00000E+00
 -1      3752 8.71500E+01 3.18140E+01 0.00000E+00
 -1      3753 9.09000E+01 3.31130E+01 0.00000E+00
 -1      3754 9.24000E+01 3.31130E+01 0.00000E+00
 -1      3755 9.01500E+01 3.18140E+01 0.00000E+00
 -1      3756 9.39000E+01 3.31130E+01 0.00000E+00
 -1      3757 9.54000E+01 3.31130E+01 0.00000E+00
 -1      3758 9.31500E+01 3.18140E+01 0.00000E+00
 -1      3759 9.69000E+01 3.31130E+01 0.00000E+00
 -1      3760 9.84000E+01 3.31130E+01 0.00000E+00
 -1      3761 9.61500E+01 3.18140E+01 0.00000E+00
 -1      3762 9.99000E+01 3.31130E+01 0.00000E+00
 -1      3763 1.01400E+02 3.31130E+01 0.00000E+00
 -1      3764 9.91500E+01 3.18140E+01 0.00000E+00
 -1      3765 1.02900E+02 3.31130E+01 0.00000E+00
 -1      3766 1.04400E+02 3.31130E+01 0.00000E+00
 -1      3767 1.02150E+02 3.18140E+01 0.00000E+00
 -1      3768 1.05900E+02 3.31130E+01 0.00000E+00
 -1      3769 1.07400E+02 3.31130E+01 0.00000E+00
 -1      3770 1.05150E+02 3.18140E+01 0.00000E+00
 -1      3771 1.08900E+02 3.31130E+01 0.00000E+00
 -1      3772 1.10400E+02 3.31130E+01 0.00000E+00
 -1      3773 1.08150E+02 3.18140E+01 0.00000E+00
 -1      3774 1.11900E+02 3.31130E+01 0.00000E+00
 -1      3775 1.13400E+02 3.31130E+01 0.00000E+00
 -1      3776 1.11150E+02 3.18140E+01 0.00000E+00
 -1      3777 1.14900E+02 3.31130E+01 0.00000E+00
 -1      3778 1.16400E+02 3.31130E+01 0.00000E+00
 -1      3779 1.14150E+02 3.18140E+01 0.00000E+00
 -1      3780 1.17900E+02 3.31130E+01 0.00000E+00
 -1      3781 1.19400E+02 3.31130E+01 0.00000E+00
 -1      3782 1.17150E+02 3.18140E+01 0.00000E+00
 -1      3783 1.20900E+02 3.31130E+01 0.00000E+00
 -1      3784 1.22400E+02 3.31130E+01 0.00000E+00
 -1      3785 1.20150E+02 3.18140E+01 0.00000E+00
 -1      3786 1.23900E+02 3.31130E+01 0.00000E+00
 -1      3787 1.25400E+02 3.31130E+01 0.00000E+00
 -1      3788 1.23150E+02 3.18140E+01 0.00000E+00
 -1      3789 1.26900E+02 3.31130E+01 0.00000E+00
 -1      3790 1.28400E+02 3.31130E+01 0.00000E+00
 -1      3791 1.26150E+02 3.18140E+01 0.00000E+00
 -1      3792 1.29900E+02 3.31130E+01 0.00000E+00
 -1      3793 1.31400E+02 3.31130E+01 0.00000E+00
 -1      3794 1.29150E+02 3.18140E+01 0.00000E+00
 -1      3795 1.35838E+02 1.55213E+01 0.00000E+00
 -1      3796 2.56458E+01 2.70532E+01 0.00000E+00
 -1      3797 6.47850E+01 1.56973E+01 0.00000E+00
 -1      3798 6.32850E+01 1.56973E+01 0.00000E+00
 -1      3799 6.55350E+01 1.69963E+01 0.00000E+00
 -1      3800 7.37850E+01 1.56973E+01 0.00000E+00
 -1      3801 7.22850E+01 1.56973E+01 0.00000E+00
 -1      3802 7.67850E+01 1.56973E+01 0.00000E+00
 -1      3803 7.52850E+01 1.56973E+01 0.00000E+00
 -1      3804 7.45350E+01 1.69963E+01 0.00000E+00
 -1      3805 7.97850E+01 1.56973E+01 0.00000E+00
 -1      3806 7.82850E+01 1.56973E+01 0.00000E+00
 -1      3807 7.75350E+01 1.69963E+01 0.00000E+00
 -1      3808 8.27850E+01 1.56973E+01 0.00000E+00
 -1      3809 8.12850E+01 1.56973E+01 0.00000E+00
 -1      3810 8.05350E+01 1.69963E+01 0.00000E+00
 -1      3811 8.57850E+01 1.56973E+01 0.00000E+00
 -1      3812 8.42850E+01 1.56973E+01 0.00000E+00
 -1      3813 8.35350E+01 1.69963E+01 0.00000E+00
 -1      3814 8.87850E+01 1.56973E+01 0.00000E+00
 -1      3815 8.72850E+01 1.56973E+01 0.00000E+00
 -1      3816 8.65350E+01 1.69963E+01 0.00000E+00
 -1      3817 9.17850E+01 1.56973E+01 0.00000E+00
 -1      3818 9.02850E+01 1.56973E+01 0.00000E+00
 -1      3819 8.95350E+01 1.69963E+01 0.00000E+00
 -1      3820 9.47850E+01 1.56973E+01 0.00000E+00
 -1      3821 9.32850E+01 1.56973E+01 0.00000E+00
 -1      3822 9.25350E+01 1.69963E+01 0.00000E+00
 -1      3823 9.77850E+01 1.56973E+01 0.00000E+00
 -1      3824 9.62850E+01 1.56973E+01 0.00000E+00
 -1      3825 9.55350E+01 1.69963E+01 0.00000E+00
 -1      3826 1.00785E+02 1.56973E+01 0.00000E+00
 -1      3827 9.92850E+01 1.56973E+01 0.00000E+00
 -1      3828 9.85350E+01 1.69963E+01 0.00000E+00
 -1      3829 1.03785E+02 1.56973E+01 0.00000E+00
 -1      3830 1.02285E+02 1.56973E+01 0.00000E+00
 -1      3831 1.01535E+02 1.69963E+01 0.00000E+00
 -1      3832 1.06785E+02 1.56973E+01 0.00000E+00
 -1      3833 1.05285E+02 1.56973E+01 0.00000E+00
 -1      3834 1.04535E+02 1.69963E+01 0.00000E+00
 -1      3835 1.09785E+02 1.56973E+01 0.00000E+00
 -1      3836 1.08285E+02 1.56973E+01 0.00000E+00
 -1      3837 1.07535E+02 1.69963E+01 0.00000E+00
 -1      3838 1.12785E+02 1.56973E+01 0.00000E+00
 -1      3839 1.11285E+02 1.56973E+01 0.00000E+00
 -1      3840 1.10535E+02 1.69963E+01 0.00000E+00
 -1      3841 1.15785E+02 1.56973E+01 0.00000E+00
 -1      3842 1.14285E+02 1.56973E+01 0.00000E+00
 -1      3843 1.13535E+02 1.69963E+01 0.00000E+00
 -1      3844 1.18785E+02 1.56973E+01 0.00000E+00
 -1      3845 1.17285E+02 1.56973E+01 0.00000E+00
 -1      3846 1.16535E+02 1.69963E+01 0.00000E+00
 -1      3847 1.21785E+02 1.56973E+01 0.00000E+00
 -1      3848 1.20285E+02 1.56973E+01 0.00000E+00
 -1      3849 1.19535E+02 1.69963E+01 0.00000E+00
 -1      3850 1.24785E+02 1.56973E+01 0.00000E+00
 -1      3851 1.23285E+02 1.56973E+01 0.00000E+00
 -1      3852 1.22535E+02 1.69963E+01 0.00000E+00
 -1      3853 1.27785E+02 1.56973E+01 0.00000E+00
 -1      3854 1.26285E+02 1.56973E+01 0.00000E+00
 -1      3855 1.25535E+02 1.69963E+01 0.00000E+00
 -1      3856 1.30785E+02 1.56973E+01 0.00000E+00
 -1      3857 1.29285E+02 1.56973E+01 0.00000E+00
 -1      3858 1.28535E+02 1.69963E+01 0.00000E+00
 -1      3859 2.01732E+01 1.64158E+01 0.00000E+00
 -1      3860 1.84217E+01 1.67064E+01 0.00000E+00
 -1      3861 1.80600E+01 1.87239E+01 0.00000E+00
 -1      3862 6.06235E+01 1.87245E+01 0.00000E+00
 -1      3863 5.99967E+01 1.99684E+01 0.00000E+00
 -1      3864 2.45969E+01 1.98889E+01 0.00000E+00
 -1      3865 2.54145E+01 1.89263E+01 0.00000E+00
 -1      3866 1.32383E+02 3.29548E+01 0.00000E+00
 -1      3867 1.33598E+02 3.28080E+01 0.00000E+00
 -1      3868 1.33598E+02 3.13393E+01 0.00000E+00
 -1      3869 1.31633E+02 3.16558E+01 0.00000E+00
 -1      3870 2.70043E+01 1.30302E+01 0.00000E+00
 -1      3871 2.55043E+01 1.30302E+01 0.00000E+00
 -1      3872 2.47543E+01 1.43292E+01 0.00000E+00
 -1      3873 2.71928E+01 1.41912E+01 0.00000E+00
 -1      3874 1.55798E+01 2.49984E+01 0.00000E+00
 -1      3875 1.42808E+01 2.57359E+01 0.00000E+00
 -1      3876 7.07850E+01 1.56973E+01 0.00000E+00
 -1      3877 6.92850E+01 1.56973E+01 0.00000E+00
 -1      3878 6.85350E+01 1.69963E+01 0.00000E+00
 -1      3879 7.15350E+01 1.69963E+01 0.00000E+00
 -1      3880 2.65136E+01 1.78152E+01 0.00000E+00
 -1      3881 2.75015E+01 1.63942E+01 0.00000E+00
 -1      3882 2.73130E+01 1.52333E+01 0.00000E+00
 -1      3883 2.51147E+01 1.74555E+01 0.00000E+00
 -1      3884 5.92811E+01 2.11874E+01 0.00000E+00
 -1      3885 5.87599E+01 2.23379E+01 0.00000E+00
 -1      3886 5.93233E+01 2.35882E+01 0.00000E+00
 -1      3887 6.07545E+01 2.11501E+01 0.00000E+00
 -1      3888 5.87306E+01 3.33360E+01 0.00000E+00
 -1      3889 1.34539E+02 1.62588E+01 0.00000E+00
 -1      3890 5.94806E+01 3.20370E+01 0.00000E+00
 -1      3891 2.33980E+01 2.17732E+01 0.00000E+00
 -1      3892 2.39974E+01 2.08310E+01 0.00000E+00
 -1      3893 2.34162E+01 1.95088E+01 0.00000E+00
 -1      3894 5.98572E+01 2.44528E+01 0.00000E+00
 -1      3895 6.03911E+01 2.53175E+01 0.00000E+00
 -1      3896 6.05728E+01 2.32338E+01 0.00000E+00
 -1      3897 5.61554E+01 1.50710E+01 0.00000E+00
 -1      3898 6.17850E+01 1.56973E+01 0.00000E+00
 -1      3899 6.02850E+01 1.56973E+01 0.00000E+00
 -1      3900 1.33785E+02 1.56973E+01 0.00000E+00
 -1      3901 1.32285E+02 1.56973E+01 0.00000E+00
 -1      3902 1.40386E+01 2.70574E+01 0.00000E+00
 -1      3903 5.96013E+01 2.85798E+01 0.00000E+00
 -1      3904 5.98948E+01 2.97109E+01 0.00000E+00
 -1      3905 6.25350E+01 1.69963E+01 0.00000E+00
 -1      3906 1.31535E+02 1.69963E+01 0.00000E+00
 -1      3907 6.02079E+01 2.77122E+01 0.00000E+00
 -1      3908 1.33113E+02 2.28031E+01 0.00000E+00
 -1      3909 1.33113E+02 2.13344E+01 0.00000E+00
 -1      3910 2.52887E+01 3.01251E+01 0.00000E+00
 -1      3911 1.77750E+01 3.30281E+01 0.00000E+00
 -1      3912 1.85250E+01 3.17291E+01 0.00000E+00
 -1      3913 1.66500E+01 3.29432E+01 0.00000E+00
 -1      3914 1.31880E+02 2.08284E+01 0.00000E+00
 -1      3915 1.33179E+02 2.00940E+01 0.00000E+00
 -1      3916 1.33244E+02 1.88537E+01 0.00000E+00
 -1      3917 1.47750E+01 3.26886E+01 0.00000E+00
 -1      3918 1.33113E+02 2.57406E+01 0.00000E+00
 -1      3919 1.33113E+02 2.42719E+01 0.00000E+00
 -1      3920 1.31814E+02 2.35375E+01 0.00000E+00
 -1      3921 1.35582E+01 2.82170E+01 0.00000E+00
 -1      3922 1.33159E+01 2.95386E+01 0.00000E+00
 -1      3923 1.41304E+01 2.99754E+01 0.00000E+00
 -1      3924 1.50913E+01 2.76563E+01 0.00000E+00
 -1      3925 1.71407E+01 2.20239E+01 0.00000E+00
 -1      3926 1.69606E+01 2.31453E+01 0.00000E+00
 -1      3927 1.69525E+01 2.46437E+01 0.00000E+00
 -1      3928 1.69443E+01 2.61421E+01 0.00000E+00
 -1      3929 1.83251E+01 2.42890E+01 0.00000E+00
 -1      3930 1.33197E+02 2.80936E+01 0.00000E+00
 -1      3931 1.33155E+02 2.69171E+01 0.00000E+00
 -1      3932 1.31856E+02 2.61828E+01 0.00000E+00
 -1      3933 2.43253E+01 2.79596E+01 0.00000E+00
 -1      3934 2.43689E+01 2.60863E+01 0.00000E+00
 -1      3935 2.35138E+01 2.50440E+01 0.00000E+00
 -1      3936 1.33789E+02 1.75578E+01 0.00000E+00
 -1      3937 6.03496E+01 3.11740E+01 0.00000E+00
 -1      3938 6.54000E+01 3.05150E+01 0.00000E+00
 -1      3939 6.69000E+01 3.05150E+01 0.00000E+00
 -1      3940 6.84000E+01 3.05150E+01 0.00000E+00
 -1      3941 6.99000E+01 3.05150E+01 0.00000E+00
 -1      3942 6.76500E+01 2.92160E+01 0.00000E+00
 -1      3943 7.14000E+01 3.05150E+01 0.00000E+00
 -1      3944 7.29000E+01 3.05150E+01 0.00000E+00
 -1      3945 7.06500E+01 2.92160E+01 0.00000E+00
 -1      3946 7.44000E+01 3.05150E+01 0.00000E+00
 -1      3947 7.59000E+01 3.05150E+01 0.00000E+00
 -1      3948 7.36500E+01 2.92160E+01 0.00000E+00
 -1      3949 7.74000E+01 3.05150E+01 0.00000E+00
 -1      3950 7.89000E+01 3.05150E+01 0.00000E+00
 -1      3951 7.66500E+01 2.92160E+01 0.00000E+00
 -1      3952 8.04000E+01 3.05150E+01 0.00000E+00
 -1      3953 8.19000E+01 3.05150E+01 0.00000E+00
 -1      3954 7.96500E+01 2.92160E+01 0.00000E+00
 -1      3955 8.34000E+01 3.05150E+01 0.00000E+00
 -1      3956 8.49000E+01 3.05150E+01 0.00000E+00
 -1      3957 8.26500E+01 2.92160E+01 0.00000E+00
 -1      3958 8.64000E+01 3.05150E+01 0.00000E+00
 -1      3959 8.79000E+01 3.05150E+01 0.00000E+00
 -1      3960 8.56500E+01 2.92160E+01 0.00000E+00
 -1      3961 8.94000E+01 3.05150E+01 0.00000E+00
 -1      3962 9.09000E+01 3.05150E+01 0.00000E+00
 -1      3963 8.86500E+01 2.92160E+01 0.00000E+00
 -1      3964 9.24000E+01 3.05150E+01 0.00000E+00
 -1      3965 9.39000E+01 3.05150E+01 0.00000E+00
 -1      3966 9.16500E+01 2.92160E+01 0.00000E+00
 -1      3967 9.54000E+01 3.05150E+01 0.00000E+00
 -1      3968 9.69000E+01 3.05150E+01 0.00000E+00
 -1      3969 9.46500E+01 2.92160E+01 0.00000E+00
 -1      3970 9.84000E+01 3.05150E+01 0.00000E+00
 -1      3971 9.99000E+01 3.05150E+01 0.00000E+00
 -1      3972 9.76500E+01 2.92160E+01 0.00000E+00
 -1      3973 1.01400E+02 3.05150E+01 0.00000E+00
 -1      3974 1.02900E+02 3.05150E+01 0.00000E+00
 -1      3975 1.00650E+02 2.92160E+01 0.00000E+00
 -1      3976 1.04400E+02 3.05150E+01 0.00000E+00
 -1      3977 1.05900E+02 3.05150E+01 0.00000E+00
 -1      3978 1.03650E+02 2.92160E+01 0.00000E+00
 -1      3979 1.07400E+02 3.05150E+01 0.00000E+00
 -1      3980 1.08900E+02 3.05150E+01 0.00000E+00
 -1      3981 1.06650E+02 2.92160E+01 0.00000E+00
 -1      3982 1.10400E+02 3.05150E+01 0.00000E+00
 -1      3983 1.11900E+02 3.05150E+01 0.00000E+00
 -1      3984 1.09650E+02 2.92160E+01 0.00000E+00
 -1      3985 1.13400E+02 3.05150E+01 0.00000E+00
 -1      3986 1.14900E+02 3.05150E+01 0.00000E+00
 -1      3987 1.12650E+02 2.92160E+01 0.00000E+00
 -1      3988 1.16400E+02 3.05150E+01 0.00000E+00
 -1      3989 1.17900E+02 3.05150E+01 0.00000E+00
 -1      3990 1.15650E+02 2.92160E+01 0.00000E+00
 -1      3991 1.19400E+02 3.05150E+01 0.00000E+00
 -1      3992 1.20900E+02 3.05150E+01 0.00000E+00
 -1      3993 1.18650E+02 2.92160E+01 0.00000E+00
 -1      3994 1.22400E+02 3.05150E+01 0.00000E+00
 -1      3995 1.23900E+02 3.05150E+01 0.00000E+00
 -1      3996 1.21650E+02 2.92160E+01 0.00000E+00
 -1      3997 1.25400E+02 3.05150E+01 0.00000E+00
 -1      3998 1.26900E+02 3.05150E+01 0.00000E+00
 -1      3999 1.24650E+02 2.92160E+01 0.00000E+00
 -1      4000 1.28400E+02 3.05150E+01 0.00000E+00
 -1      4001 1.29900E+02 3.05150E+01 0.00000E+00
 -1      4002 1.27650E+02 2.92160E+01 0.00000E+00
 -1      4003 8.12850E+01 1.82952E+01 0.00000E+00
 -1      4004 7.97850E+01 1.82952E+01 0.00000E+00
 -1      4005 6.62850E+01 1.82952E+01 0.00000E+00
 -1      4006 6.47850E+01 1.82952E+01 0.00000E+00
 -1      4007 7.82850E+01 1.82952E+01 0.00000E+00
 -1      4008 7.67850E+01 1.82952E+01 0.00000E+00
 -1      4009 7.90350E+01 1.95942E+01 0.00000E+00
 -1      4010 7.52850E+01 1.82952E+01 0.00000E+00
 -1      4011 7.37850E+01 1.82952E+01 0.00000E+00
 -1      4012 7.60350E+01 1.95942E+01 0.00000E+00
 -1      4013 8.42850E+01 1.82952E+01 0.00000E+00
 -1      4014 8.27850E+01 1.82952E+01 0.00000E+00
 -1      4015 8.20350E+01 1.95942E+01 0.00000E+00
 -1      4016 8.72850E+01 1.82952E+01 0.00000E+00
 -1      4017 8.57850E+01 1.82952E+01 0.00000E+00
 -1      4018 8.50350E+01 1.95942E+01 0.00000E+00
 -1      4019 9.02850E+01 1.82952E+01 0.00000E+00
 -1      4020 8.87850E+01 1.82952E+01 0.00000E+00
 -1      4021 8.80350E+01 1.95942E+01 0.00000E+00
 -1      4022 9.32850E+01 1.82952E+01 0.00000E+00
 -1      4023 9.17850E+01 1.82952E+01 0.00000E+00
 -1      4024 9.10350E+01 1.95942E+01 0.00000E+00
 -1      4025 9.62850E+01 1.82952E+01 0.00000E+00
 -1      4026 9.47850E+01 1.82952E+01 0.00000E+00
 -1      4027 9.40350E+01 1.95942E+01 0.00000E+00
 -1      4028 9.92850E+01 1.82952E+01 0.00000E+00
 -1      4029 9.77850E+01 1.82952E+01 0.00000E+00
 -1      4030 9.70350E+01 1.95942E+01 0.00000E+00
 -1      4031 1.02285E+02 1.82952E+01 0.00000E+00
 -1      4032 1.00785E+02 1.82952E+01 0.00000E+00
 -1      4033 1.00035E+02 1.95942E+01 0.00000E+00
 -1      4034 1.05285E+02 1.82952E+01 0.00000E+00
 -1      4035 1.03785E+02 1.82952E+01 0.00000E+00
 -1      4036 1.03035E+02 1.95942E+01 0.00000E+00
 -1      4037 1.08285E+02 1.82952E+01 0.00000E+00
 -1      4038 1.06785E+02 1.82952E+01 0.00000E+00
 -1      4039 1.06035E+02 1.95942E+01 0.00000E+00
 -1      4040 1.11285E+02 1.82952E+01 0.00000E+00
 -1      4041 1.09785E+02 1.82952E+01 0.00000E+00
 -1      4042 1.09035E+02 1.95942E+01 0.00000E+00
 -1      4043 1.14285E+02 1.82952E+01 0.00000E+00
 -1      4044 1.12785E+02 1.82952E+01 0.00000E+00
 -1      4045 1.12035E+02 1.95942E+01 0.00000E+00
 -1      4046 1.17285E+02 1.82952E+01 0.00000E+00
 -1      4047 1.15785E+02 1.82952E+01 0.00000E+00
 -1      4048 1.15035E+02 1.95942E+01 0.00000E+00
 -1      4049 1.20285E+02 1.82952E+01 0.00000E+00
 -1      4050 1.18785E+02 1.82952E+01 0.00000E+00
 -1      4051 1.18035E+02 1.95942E+01 0.00000E+00
 -1      4052 1.23285E+02 1.82952E+01 0.00000E+00
 -1      4053 1.21785E+02 1.82952E+01 0.00000E+00
 -1      4054 1.21035E+02 1.95942E+01 0.00000E+00
 -1      4055 1.26285E+02 1.82952E+01 0.00000E+00
 -1      4056 1.24785E+02 1.82952E+01 0.00000E+00
 -1      4057 1.24035E+02 1.95942E+01 0.00000E+00
 -1      4058 1.29285E+02 1.82952E+01 0.00000E+00
 -1      4059 1.27785E+02 1.82952E+01 0.00000E+00
 -1      4060 1.27035E+02 1.95942E+01 0.00000E+00
 -1      4061 6.09235E+01 2.64932E+01 0.00000E+00
 -1      4062 6.14559E+01 2.76688E+01 0.00000E+00
 -1      4063 6.16391E+01 2.52741E+01 0.00000E+00
 -1      4064 2.16327E+01 1.56363E+01 0.00000E+00
 -1      4065 2.12709E+01 1.76538E+01 0.00000E+00
 -1      4066 6.04059E+01 1.72572E+01 0.00000E+00
 -1      4067 6.12526E+01 1.84636E+01 0.00000E+00
 -1      4068 6.27526E+01 1.84636E+01 0.00000E+00
 -1      4069 5.79928E+01 1.50789E+01 0.00000E+00
 -1      4070 2.36985E+01 3.03567E+01 0.00000E+00
 -1      4071 2.40119E+01 2.91582E+01 0.00000E+00
 -1      4072 2.27351E+01 2.81912E+01 0.00000E+00
 -1      4073 5.96559E+01 1.59582E+01 0.00000E+00
 -1      4074 1.55250E+01 3.13896E+01 0.00000E+00
 -1      4075 1.32490E+02 1.82922E+01 0.00000E+00
 -1      4076 1.76904E+01 1.98132E+01 0.00000E+00
 -1      4077 1.75103E+01 2.09346E+01 0.00000E+00
 -1      4078 1.87028E+01 2.17013E+01 0.00000E+00
 -1      4079 1.94419E+01 1.95226E+01 0.00000E+00
 -1      4080 1.33418E+02 3.03047E+01 0.00000E+00
 -1      4081 1.33376E+02 2.91282E+01 0.00000E+00
 -1      4082 1.32077E+02 2.83938E+01 0.00000E+00
 -1      4083 1.32436E+02 3.04629E+01 0.00000E+00
 -1      4084 2.31327E+01 1.56363E+01 0.00000E+00
 -1      4085 6.35026E+01 1.97626E+01 0.00000E+00
 -1      4086 1.30515E+02 2.42719E+01 0.00000E+00
 -1      4087 1.30515E+02 2.28031E+01 0.00000E+00
 -1      4088 2.20177E+01 2.57166E+01 0.00000E+00
 -1      4089 2.24830E+01 2.37680E+01 0.00000E+00
 -1      4090 6.27870E+01 2.09817E+01 0.00000E+00
 -1      4091 6.20714E+01 2.22007E+01 0.00000E+00
 -1      4092 6.48194E+01 2.08133E+01 0.00000E+00
 -1      4093 6.11951E+01 3.03509E+01 0.00000E+00
 -1      4094 6.25476E+01 3.04330E+01 0.00000E+00
 -1      4095 6.40476E+01 3.04330E+01 0.00000E+00
 -1      4096 6.47976E+01 2.91340E+01 0.00000E+00
 -1      4097 6.20927E+01 2.89699E+01 0.00000E+00
 -1      4098 2.60937E+01 1.53023E+01 0.00000E+00
 -1      4099 2.25359E+01 3.06019E+01 0.00000E+00
 -1      4100 2.48744E+01 1.53713E+01 0.00000E+00
 -1      4101 1.28876E+02 2.15659E+01 0.00000E+00
 -1      4102 1.30174E+02 2.08315E+01 0.00000E+00
 -1      4103 2.27736E+01 1.86626E+01 0.00000E+00
 -1      4104 2.13141E+01 1.94421E+01 0.00000E+00
 -1      4105 2.10359E+01 3.06019E+01 0.00000E+00
 -1      4106 6.28083E+01 2.77509E+01 0.00000E+00
 -1      4107 1.60054E+01 3.02301E+01 0.00000E+00
 -1      4108 1.30599E+02 2.66249E+01 0.00000E+00
 -1      4109 1.30557E+02 2.54484E+01 0.00000E+00
 -1      4110 1.29258E+02 2.47140E+01 0.00000E+00
 -1      4111 2.19018E+01 2.24457E+01 0.00000E+00
 -1      4112 1.30990E+02 1.82922E+01 0.00000E+00
 -1      4113 1.30240E+02 1.95912E+01 0.00000E+00
 -1      4114 2.44721E+01 1.66094E+01 0.00000E+00
 -1      4115 2.09445E+01 2.05314E+01 0.00000E+00
 -1      4116 1.64639E+01 2.73017E+01 0.00000E+00
 -1      4117 1.59835E+01 2.84612E+01 0.00000E+00
 -1      4118 1.78365E+01 2.69470E+01 0.00000E+00
 -1      4119 1.96601E+01 2.36156E+01 0.00000E+00
 -1      4120 1.96519E+01 2.51140E+01 0.00000E+00
 -1      4121 7.30350E+01 1.95942E+01 0.00000E+00
 -1      4122 7.22850E+01 1.82952E+01 0.00000E+00
 -1      4123 7.07850E+01 1.82952E+01 0.00000E+00
 -1      4124 2.13701E+01 2.87585E+01 0.00000E+00
 -1      4125 2.16835E+01 2.75600E+01 0.00000E+00
 -1      4126 2.06527E+01 2.62839E+01 0.00000E+00
 -1      4127 1.99842E+01 2.99706E+01 0.00000E+00
 -1      4128 6.92850E+01 1.82952E+01 0.00000E+00
 -1      4129 6.77850E+01 1.82952E+01 0.00000E+00
 -1      4130 7.00350E+01 1.95942E+01 0.00000E+00
 -1      4131 6.70350E+01 1.95942E+01 0.00000E+00
 -1      4132 1.31453E+02 3.06212E+01 0.00000E+00
 -1      4133 1.30703E+02 2.93222E+01 0.00000E+00
 -1      4134 1.85030E+01 2.99603E+01 0.00000E+00
 -1      4135 1.88373E+01 2.81169E+01 0.00000E+00
 -1      4136 6.26052E+01 2.30654E+01 0.00000E+00
 -1      4137 6.69000E+01 2.79170E+01 0.00000E+00
 -1      4138 6.84000E+01 2.79170E+01 0.00000E+00
 -1      4139 2.33730E+01 1.77205E+01 0.00000E+00
 -1      4140 1.27716E+02 2.35375E+01 0.00000E+00
 -1      4141 1.27376E+02 2.15659E+01 0.00000E+00
 -1      4142 1.25876E+02 2.15659E+01 0.00000E+00
 -1      4143 1.73780E+01 2.98754E+01 0.00000E+00
 -1      4144 1.30524E+02 2.82876E+01 0.00000E+00
 -1      4145 1.93177E+01 2.69574E+01 0.00000E+00
 -1      4146 6.99000E+01 2.79170E+01 0.00000E+00
 -1      4147 7.14000E+01 2.79170E+01 0.00000E+00
 -1      4148 6.91500E+01 2.66180E+01 0.00000E+00
 -1      4149 7.29000E+01 2.79170E+01 0.00000E+00
 -1      4150 7.44000E+01 2.79170E+01 0.00000E+00
 -1      4151 7.21500E+01 2.66180E+01 0.00000E+00
 -1      4152 7.59000E+01 2.79170E+01 0.00000E+00
 -1      4153 7.74000E+01 2.79170E+01 0.00000E+00
 -1      4154 7.51500E+01 2.66180E+01 0.00000E+00
 -1      4155 7.89000E+01 2.79170E+01 0.00000E+00
 -1      4156 8.04000E+01 2.79170E+01 0.00000E+00
 -1      4157 7.81500E+01 2.66180E+01 0.00000E+00
 -1      4158 8.19000E+01 2.79170E+01 0.00000E+00
 -1      4159 8.34000E+01 2.79170E+01 0.00000E+00
 -1      4160 8.11500E+01 2.66180E+01 0.00000E+00
 -1      4161 8.49000E+01 2.79170E+01 0.00000E+00
 -1      4162 8.64000E+01 2.79170E+01 0.00000E+00
 -1      4163 8.41500E+01 2.66180E+01 0.00000E+00
 -1      4164 8.79000E+01 2.79170E+01 0.00000E+00
 -1      4165 8.94000E+01 2.79170E+01 0.00000E+00
 -1      4166 8.71500E+01 2.66180E+01 0.00000E+00
 -1      4167 9.09000E+01 2.79170E+01 0.00000E+00
 -1      4168 9.24000E+01 2.79170E+01 0.00000E+00
 -1      4169 9.01500E+01 2.66180E+01 0.00000E+00
 -1      4170 9.39000E+01 2.79170E+01 0.00000E+00
 -1      4171 9.54000E+01 2.79170E+01 0.00000E+00
 -1      4172 9.31500E+01 2.66180E+01 0.00000E+00
 -1      4173 9.69000E+01 2.79170E+01 0.00000E+00
 -1      4174 9.84000E+01 2.79170E+01 0.00000E+00
 -1      4175 9.61500E+01 2.66180E+01 0.00000E+00
 -1      4176 9.99000E+01 2.79170E+01 0.00000E+00
 -1      4177 1.01400E+02 2.79170E+01 0.00000E+00
 -1      4178 9.91500E+01 2.66180E+01 0.00000E+00
 -1      4179 1.02900E+02 2.79170E+01 0.00000E+00
 -1      4180 1.04400E+02 2.79170E+01 0.00000E+00
 -1      4181 1.02150E+02 2.66180E+01 0.00000E+00
 -1      4182 1.05900E+02 2.79170E+01 0.00000E+00
 -1      4183 1.07400E+02 2.79170E+01 0.00000E+00
 -1      4184 1.05150E+02 2.66180E+01 0.00000E+00
 -1      4185 1.08900E+02 2.79170E+01 0.00000E+00
 -1      4186 1.10400E+02 2.79170E+01 0.00000E+00
 -1      4187 1.08150E+02 2.66180E+01 0.00000E+00
 -1      4188 1.11900E+02 2.79170E+01 0.00000E+00
 -1      4189 1.13400E+02 2.79170E+01 0.00000E+00
 -1      4190 1.11150E+02 2.66180E+01 0.00000E+00
 -1      4191 1.14900E+02 2.79170E+01 0.00000E+00
 -1      4192 1.16400E+02 2.79170E+01 0.00000E+00
 -1      4193 1.14150E+02 2.66180E+01 0.00000E+00
 -1      4194 1.17900E+02 2.79170E+01 0.00000E+00
 -1      4195 1.19400E+02 2.79170E+01 0.00000E+00
 -1      4196 1.17150E+02 2.66180E+01 0.00000E+00
 -1      4197 1.20900E+02 2.79170E+01 0.00000E+00
 -1      4198 1.22400E+02 2.79170E+01 0.00000E+00
 -1      4199 1.20150E+02 2.66180E+01 0.00000E+00
 -1      4200 1.23900E+02 2.79170E+01 0.00000E+00
 -1      4201 1.25400E+02 2.79170E+01 0.00000E+00
 -1      4202 1.23150E+02 2.66180E+01 0.00000E+00
 -1      4203 8.57850E+01 2.08932E+01 0.00000E+00
 -1      4204 8.42850E+01 2.08932E+01 0.00000E+00
 -1      4205 6.63194E+01 2.08133E+01 0.00000E+00
 -1      4206 6.56038E+01 2.20324E+01 0.00000E+00
 -1      4207 6.78194E+01 2.08133E+01 0.00000E+00
 -1      4208 8.27850E+01 2.08932E+01 0.00000E+00
 -1      4209 8.12850E+01 2.08932E+01 0.00000E+00
 -1      4210 8.35350E+01 2.21922E+01 0.00000E+00
 -1      4211 7.67850E+01 2.08932E+01 0.00000E+00
 -1      4212 7.52850E+01 2.08932E+01 0.00000E+00
 -1      4213 8.87850E+01 2.08932E+01 0.00000E+00
 -1      4214 8.72850E+01 2.08932E+01 0.00000E+00
 -1      4215 8.65350E+01 2.21922E+01 0.00000E+00
 -1      4216 9.17850E+01 2.08932E+01 0.00000E+00
 -1      4217 9.02850E+01 2.08932E+01 0.00000E+00
 -1      4218 8.95350E+01 2.21922E+01 0.00000E+00
 -1      4219 9.47850E+01 2.08932E+01 0.00000E+00
 -1      4220 9.32850E+01 2.08932E+01 0.00000E+00
 -1      4221 9.25350E+01 2.21922E+01 0.00000E+00
 -1      4222 9.77850E+01 2.08932E+01 0.00000E+00
 -1      4223 9.62850E+01 2.08932E+01 0.00000E+00
 -1      4224 9.55350E+01 2.21922E+01 0.00000E+00
 -1      4225 1.00785E+02 2.08932E+01 0.00000E+00
 -1      4226 9.92850E+01 2.08932E+01 0.00000E+00
 -1      4227 9.85350E+01 2.21922E+01 0.00000E+00
 -1      4228 1.03785E+02 2.08932E+01 0.00000E+00
 -1      4229 1.02285E+02 2.08932E+01 0.00000E+00
 -1      4230 1.01535E+02 2.21922E+01 0.00000E+00
 -1      4231 1.06785E+02 2.08932E+01 0.00000E+00
 -1      4232 1.05285E+02 2.08932E+01 0.00000E+00
 -1      4233 1.04535E+02 2.21922E+01 0.00000E+00
 -1      4234 1.09785E+02 2.08932E+01 0.00000E+00
 -1      4235 1.08285E+02 2.08932E+01 0.00000E+00
 -1      4236 1.07535E+02 2.21922E+01 0.00000E+00
 -1      4237 1.12785E+02 2.08932E+01 0.00000E+00
 -1      4238 1.11285E+02 2.08932E+01 0.00000E+00
 -1      4239 1.10535E+02 2.21922E+01 0.00000E+00
 -1      4240 1.15785E+02 2.08932E+01 0.00000E+00
 -1      4241 1.14285E+02 2.08932E+01 0.00000E+00
 -1      4242 1.13535E+02 2.21922E+01 0.00000E+00
 -1      4243 1.18785E+02 2.08932E+01 0.00000E+00
 -1      4244 1.17285E+02 2.08932E+01 0.00000E+00
 -1      4245 1.16535E+02 2.21922E+01 0.00000E+00
 -1      4246 1.21785E+02 2.08932E+01 0.00000E+00
 -1      4247 1.20285E+02 2.08932E+01 0.00000E+00
 -1      4248 1.19535E+02 2.21922E+01 0.00000E+00
 -1      4249 1.24580E+02 2.12296E+01 0.00000E+00
 -1      4250 1.23080E+02 2.12296E+01 0.00000E+00
 -1      4251 1.22330E+02 2.25286E+01 0.00000E+00
 -1      4252 1.24921E+02 2.32012E+01 0.00000E+00
 -1      4253 6.31376E+01 2.42411E+01 0.00000E+00
 -1      4254 6.36701E+01 2.54167E+01 0.00000E+00
 -1      4255 6.46362E+01 2.32080E+01 0.00000E+00
 -1      4256 7.97850E+01 2.08932E+01 0.00000E+00
 -1      4257 7.82850E+01 2.08932E+01 0.00000E+00
 -1      4258 8.05350E+01 2.21922E+01 0.00000E+00
 -1      4259 2.05750E+01 2.16208E+01 0.00000E+00
 -1      4260 1.29225E+02 2.75532E+01 0.00000E+00
 -1      4261 6.39154E+01 2.66248E+01 0.00000E+00
 -1      4262 6.45522E+01 2.79259E+01 0.00000E+00
 -1      4263 6.59046E+01 2.80079E+01 0.00000E+00
 -1      4264 6.54140E+01 2.55918E+01 0.00000E+00
 -1      4265 6.66546E+01 2.67089E+01 0.00000E+00
 -1      4266 1.27758E+02 2.47140E+01 0.00000E+00
 -1      4267 1.26900E+02 2.79170E+01 0.00000E+00
 -1      4268 1.28400E+02 2.79170E+01 0.00000E+00
 -1      4269 7.75350E+01 2.21922E+01 0.00000E+00
 -1      4270 6.61362E+01 2.32080E+01 0.00000E+00
 -1      4271 7.37850E+01 2.08932E+01 0.00000E+00
 -1      4272 7.22850E+01 2.08932E+01 0.00000E+00
 -1      4273 7.45350E+01 2.21922E+01 0.00000E+00
 -1      4274 1.26150E+02 2.66180E+01 0.00000E+00
 -1      4275 7.07850E+01 2.08932E+01 0.00000E+00
 -1      4276 6.92850E+01 2.08932E+01 0.00000E+00
 -1      4277 7.15350E+01 2.21922E+01 0.00000E+00
 -1      4278 6.85694E+01 2.21123E+01 0.00000E+00
 -1      4279 6.64093E+01 2.55008E+01 0.00000E+00
 -1      4280 6.88425E+01 2.44051E+01 0.00000E+00
 -1      4281 7.03425E+01 2.44051E+01 0.00000E+00
 -1      4282 7.18425E+01 2.44051E+01 0.00000E+00
 -1      4283 7.33425E+01 2.44051E+01 0.00000E+00
 -1      4284 7.48425E+01 2.44051E+01 0.00000E+00
 -1      4285 7.63425E+01 2.44051E+01 0.00000E+00
 -1      4286 7.78425E+01 2.44051E+01 0.00000E+00
 -1      4287 7.93425E+01 2.44051E+01 0.00000E+00
 -1      4288 8.08425E+01 2.44051E+01 0.00000E+00
 -1      4289 8.23425E+01 2.44051E+01 0.00000E+00
 -1      4290 8.38425E+01 2.44051E+01 0.00000E+00
 -1      4291 8.53425E+01 2.44051E+01 0.00000E+00
 -1      4292 8.68425E+01 2.44051E+01 0.00000E+00
 -1      4293 8.83425E+01 2.44051E+01 0.00000E+00
 -1      4294 8.98425E+01 2.44051E+01 0.00000E+00
 -1      4295 9.13425E+01 2.44051E+01 0.00000E+00
 -1      4296 9.28425E+01 2.44051E+01 0.00000E+00
 -1      4297 9.43425E+01 2.44051E+01 0.00000E+00
 -1      4298 9.58425E+01 2.44051E+01 0.00000E+00
 -1      4299 9.73425E+01 2.44051E+01 0.00000E+00
 -1      4300 9.88425E+01 2.44051E+01 0.00000E+00
 -1      4301 1.00342E+02 2.44051E+01 0.00000E+00
 -1      4302 1.01842E+02 2.44051E+01 0.00000E+00
 -1      4303 1.03342E+02 2.44051E+01 0.00000E+00
 -1      4304 1.04842E+02 2.44051E+01 0.00000E+00
 -1      4305 1.06342E+02 2.44051E+01 0.00000E+00
 -1      4306 1.07842E+02 2.44051E+01 0.00000E+00
 -1      4307 1.09342E+02 2.44051E+01 0.00000E+00
 -1      4308 1.10842E+02 2.44051E+01 0.00000E+00
 -1      4309 1.12342E+02 2.44051E+01 0.00000E+00
 -1      4310 1.13842E+02 2.44051E+01 0.00000E+00
 -1      4311 1.15342E+02 2.44051E+01 0.00000E+00
 -1      4312 1.16842E+02 2.44051E+01 0.00000E+00
 -1      4313 1.18342E+02 2.44051E+01 0.00000E+00
 -1      4314 1.19842E+02 2.44051E+01 0.00000E+00
 -1      4315 1.21342E+02 2.44051E+01 0.00000E+00
 -1      4316 1.22638E+02 2.47414E+01 0.00000E+00
 -1      4317 1.24138E+02 2.47414E+01 0.00000E+00
 -1      4318 1.28475E+02 2.62542E+01 0.00000E+00
 -1      4319 6.73769E+01 2.43252E+01 0.00000E+00
 -1      4320 1.25433E+02 2.50777E+01 0.00000E+00
 -1      4321 1.26933E+02 2.50777E+01 0.00000E+00
 -3
    3C                          2079                                     1
 -1       164    8    0    1
 -2         6         7        23      1122      1285      1139
 -1       165    8    0    1
 -2         7         8       164      1123      1286      1287
 -1       166    8    0    1
 -2         8         9       165      1124      1288      1289
 -1       167    8    0    1
 -2         8       165       164      1289      1290      1286
 -1       168    8    0    1
 -2         9        10       166      1125      1291      1292
 -1       169    8    0    1
 -2         9       166       165      1292      1293      1288
 -1       170    8    0    1
 -2        10        11       167      1126      1294      1295
 -1       171    8    0    1
 -2        10       167       166      1295      1296      1291
 -1       172    8    0    1
 -2        11        12       168      1127      1297      1298
 -1       173    8    0    1
 -2        11       168       167      1298      1299      1294
 -1       174    8    0    1
 -2        12        13       169      1128      1300      1301
 -1       175    8    0    1
 -2        12       169       168      1301      1302      1297
 -1       176    8    0    1
 -2        13        14       170      1129      1303      1304
 -1       177    8    0    1
 -2        13       170       169      1304      1305      1300
 -1       178    8    0    1
 -2        14        15       171      1130      1306      1307
 -1       179    8    0    1
 -2        14       171       170      1307      1308      1303
 -1       180    8    0    1
 -2        15        16       172      1131      1309      1310
 -1       181    8    0    1
 -2        15       172       171      1310      1311      1306
 -1       182    8    0    1
 -2        16        17       173      1132      1312      1313
 -1       183    8    0    1
 -2        16       173       172      1313      1314      1309
 -1       184    8    0    1
 -2        17        18       174      1133      1315      1316
 -1       185    8    0    1
 -2        17       174       173      1316      1317      1312
 -1       186    8    0    1
 -2        18        19       175      1134      1318      1319
 -1       187    8    0    1
 -2        18       175       174      1319      1320      1315
 -1       188    8    0    1
 -2        19        20       176      1135      1321      1322
 -1       189    8    0    1
 -2        19       176       175      1322      1323      1318
 -1       190    8    0    1
 -2        20        21       177      1136      1324      1325
 -1       191    8    0    1
 -2        20       177       176      1325      1326      1321
 -1       192    8    0    1
 -2        21        22       178      1137      1327      1328
 -1       193    8    0    1
 -2        21       178       177      1328      1329      1324
 -1       194    8    0    1
 -2        22         5       179      1138      1330      1331
 -1       195    8    0    1
 -2       178        22       179      1327      1331      1332
 -1       196    8    0    1
 -2         5        72       179      1189      1333      1330
 -1       197    8    0    1
 -2        24        23       180      1140      1334      1335
 -1       198    8    0    1
 -2        25        24       181      1141      1336      1337
 -1       199    8    0    1
 -2        24       180       181      1335      1338      1336
 -1       200    8    0    1
 -2        26        25       182      1142      1339      1340
 -1       201    8    0    1
 -2        25       181       182      1337      1341      1339
 -1       202    8    0    1
 -2        27        26       183      1143      1342      1343
 -1       203    8    0    1
 -2        26       182       183      1340      1344      1342
 -1       204    8    0    1
 -2        28        27       184      1144      1345      1346
 -1       205    8    0    1
 -2        27       183       184      1343      1347      1345
 -1       206    8    0    1
 -2        29        28       185      1145      1348      1349
 -1       207    8    0    1
 -2        28       184       185      1346      1350      1348
 -1       208    8    0    1
 -2        30        29       186      1146      1351      1352
 -1       209    8    0    1
 -2        29       185       186      1349      1353      1351
 -1       210    8    0    1
 -2        31        30       187      1147      1354      1355
 -1       211    8    0    1
 -2        30       186       187      1352      1356      1354
 -1       212    8    0    1
 -2        32        31       188      1148      1357      1358
 -1       213    8    0    1
 -2        31       187       188      1355      1359      1357
 -1       214    8    0    1
 -2        33        32       189      1149      1360      1361
 -1       215    8    0    1
 -2        32       188       189      1358      1362      1360
 -1       216    8    0    1
 -2        34        33       190      1150      1363      1364
 -1       217    8    0    1
 -2        33       189       190      1361      1365      1363
 -1       218    8    0    1
 -2        35        34       191      1151      1366      1367
 -1       219    8    0    1
 -2        34       190       191      1364      1368      1366
 -1       220    8    0    1
 -2        36        35       192      1152      1369      1370
 -1       221    8    0    1
 -2        35       191       192      1367      1371      1369
 -1       222    8    0    1
 -2        37        36       193      1153      1372      1373
 -1       223    8    0    1
 -2        36       192       193      1370      1374      1372
 -1       224    8    0    1
 -2        38        37       194      1154      1375      1376
 -1       225    8    0    1
 -2        37       193       194      1373      1377      1375
 -1       226    8    0    1
 -2        39        38       195      1155      1378      1379
 -1       227    8    0    1
 -2        38       194       195      1376      1380      1378
 -1       228    8    0    1
 -2        40        39       196      1156      1381      1382
 -1       229    8    0    1
 -2        39       195       196      1379      1383      1381
 -1       230    8    0    1
 -2        41        40       197      1157      1384      1385
 -1       231    8    0    1
 -2        40       196       197      1382      1386      1384
 -1       232    8    0    1
 -2        42        41       198      1158      1387      1388
 -1       233    8    0    1
 -2        41       197       198      1385      1389      1387
 -1       234    8    0    1
 -2        43        42       199      1159      1390      1391
 -1       235    8    0    1
 -2        42       198       199      1388      1392      1390
 -1       236    8    0    1
 -2        44        43       200      1160      1393      1394
 -1       237    8    0    1
 -2        43       199       200      1391      1395      1393
 -1       238    8    0    1
 -2        45        44       201      1161      1396      1397
 -1       239    8    0    1
 -2        44       200       201      1394      1398      1396
 -1       240    8    0    1
 -2        46        45       202      1162      1399      1400
 -1       241    8    0    1
 -2        45       201       202      1397      1401      1399
 -1       242    8    0    1
 -2        47        46       203      1163      1402      1403
 -1       243    8    0    1
 -2        46       202       203      1400      1404      1402
 -1       244    8    0    1
 -2        48        47       204      1164      1405      1406
 -1       245    8    0    1
 -2        47       203       204      1403      1407      1405
 -1       246    8    0    1
 -2        49        48       205      1165      1408      1409
 -1       247    8    0    1
 -2        48       204       205      1406      1410      1408
 -1       248    8    0    1
 -2        50        49       206      1166      1411      1412
 -1       249    8    0    1
 -2        49       205       206      1409      1413      1411
 -1       250    8    0    1
 -2        51        50       207      1167      1414      1415
 -1       251    8    0    1
 -2        50       206       207      1412      1416      1414
 -1       252    8    0    1
 -2        52        51       208      1168      1417      1418
 -1       253    8    0    1
 -2        51       207       208      1415      1419      1417
 -1       254    8    0    1
 -2        53        52       209      1169      1420      1421
 -1       255    8    0    1
 -2        52       208       209      1418      1422      1420
 -1       256    8    0    1
 -2        54        53       210      1170      1423      1424
 -1       257    8    0    1
 -2        53       209       210      1421      1425      1423
 -1       258    8    0    1
 -2        55        54       211      1171      1426      1427
 -1       259    8    0    1
 -2        54       210       211      1424      1428      1426
 -1       260    8    0    1
 -2        56        55       212      1172      1429      1430
 -1       261    8    0    1
 -2        55       211       212      1427      1431      1429
 -1       262    8    0    1
 -2        57        56       213      1173      1432      1433
 -1       263    8    0    1
 -2        56       212       213      1430      1434      1432
 -1       264    8    0    1
 -2        58        57       214      1174      1435      1436
 -1       265    8    0    1
 -2        57       213       214      1433      1437      1435
 -1       266    8    0    1
 -2        59        58       215      1175      1438      1439
 -1       267    8    0    1
 -2        58       214       215      1436      1440      1438
 -1       268    8    0    1
 -2        60        59       216      1176      1441      1442
 -1       269    8    0    1
 -2        59       215       216      1439      1443      1441
 -1       270    8    0    1
 -2        61        60       217      1177      1444      1445
 -1       271    8    0    1
 -2        60       216       217      1442      1446      1444
 -1       272    8    0    1
 -2        62        61       218      1178      1447      1448
 -1       273    8    0    1
 -2        61       217       218      1445      1449      1447
 -1       274    8    0    1
 -2        63        62       219      1179      1450      1451
 -1       275    8    0    1
 -2        62       218       219      1448      1452      1450
 -1       276    8    0    1
 -2        64        63       220      1180      1453      1454
 -1       277    8    0    1
 -2        63       219       220      1451      1455      1453
 -1       278    8    0    1
 -2        65        64       221      1181      1456      1457
 -1       279    8    0    1
 -2        64       220       221      1454      1458      1456
 -1       280    8    0    1
 -2        66        65       222      1182      1459      1460
 -1       281    8    0    1
 -2        65       221       222      1457      1461      1459
 -1       282    8    0    1
 -2        67        66       223      1183      1462      1463
 -1       283    8    0    1
 -2        66       222       223      1460      1464      1462
 -1       284    8    0    1
 -2        68        67       224      1184      1465      1466
 -1       285    8    0    1
 -2        67       223       224      1463      1467      1465
 -1       286    8    0    1
 -2        69        68       225      1185      1468      1469
 -1       287    8    0    1
 -2        68       224       225      1466      1470      1468
 -1       288    8    0    1
 -2        70        69       226      1186      1471      1472
 -1       289    8    0    1
 -2        69       225       226      1469      1473      1471
 -1       290    8    0    1
 -2        71        70       227      1187      1474      1475
 -1       291    8    0    1
 -2        70       226       227      1472      1476      1474
 -1       292    8    0    1
 -2         4        71       136      1188      1477      1255
 -1       293    8    0    1
 -2       136        71       227      1477      1475      1478
 -1       294    8    0    1
 -2        72        73       228      1190      1479      1480
 -1       295    8    0    1
 -2        72       228       179      1480      1481      1333
 -1       296    8    0    1
 -2        73        74       229      1191      1482      1483
 -1       297    8    0    1
 -2        73       229       228      1483      1484      1479
 -1       298    8    0    1
 -2        74        75       230      1192      1485      1486
 -1       299    8    0    1
 -2        74       230       229      1486      1487      1482
 -1       300    8    0    1
 -2        75        76       231      1193      1488      1489
 -1       301    8    0    1
 -2        75       231       230      1489      1490      1485
 -1       302    8    0    1
 -2        76        77       232      1194      1491      1492
 -1       303    8    0    1
 -2        76       232       231      1492      1493      1488
 -1       304    8    0    1
 -2        77        78       233      1195      1494      1495
 -1       305    8    0    1
 -2        77       233       232      1495      1496      1491
 -1       306    8    0    1
 -2        78        79       234      1196      1497      1498
 -1       307    8    0    1
 -2        78       234       233      1498      1499      1494
 -1       308    8    0    1
 -2        79        80       235      1197      1500      1501
 -1       309    8    0    1
 -2        79       235       234      1501      1502      1497
 -1       310    8    0    1
 -2        80        81       236      1198      1503      1504
 -1       311    8    0    1
 -2        80       236       235      1504      1505      1500
 -1       312    8    0    1
 -2        81        82       237      1199      1506      1507
 -1       313    8    0    1
 -2        81       237       236      1507      1508      1503
 -1       314    8    0    1
 -2        82        83       238      1200      1509      1510
 -1       315    8    0    1
 -2        82       238       237      1510      1511      1506
 -1       316    8    0    1
 -2        83        84       239      1201      1512      1513
 -1       317    8    0    1
 -2        83       239       238      1513      1514      1509
 -1       318    8    0    1
 -2        84        85       240      1202      1515      1516
 -1       319    8    0    1
 -2        84       240       239      1516      1517      1512
 -1       320    8    0    1
 -2        85        86       241      1203      1518      1519
 -1       321    8    0    1
 -2        85       241       240      1519      1520      1515
 -1       322    8    0    1
 -2        86        87       242      1204      1521      1522
 -1       323    8    0    1
 -2        86       242       241      1522      1523      1518
 -1       324    8    0    1
 -2        87        88       243      1205      1524      1525
 -1       325    8    0    1
 -2        87       243       242      1525      1526      1521
 -1       326    8    0    1
 -2        88        89       244      1206      1527      1528
 -1       327    8    0    1
 -2        88       244       243      1528      1529      1524
 -1       328    8    0    1
 -2        89        90       245      1207      1530      1531
 -1       329    8    0    1
 -2        89       245       244      1531      1532      1527
 -1       330    8    0    1
 -2        90        91       246      1208      1533      1534
 -1       331    8    0    1
 -2        90       246       245      1534      1535      1530
 -1       332    8    0    1
 -2        91        92       247      1209      1536      1537
 -1       333    8    0    1
 -2        91       247       246      1537      1538      1533
 -1       334    8    0    1
 -2        92        93       248      1210      1539      1540
 -1       335    8    0    1
 -2        92       248       247      1540      1541      1536
 -1       336    8    0    1
 -2        93        94       249      1211      1542      1543
 -1       337    8    0    1
 -2        93       249       248      1543      1544      1539
 -1       338    8    0    1
 -2        94        95       250      1212      1545      1546
 -1       339    8    0    1
 -2        94       250       249      1546      1547      1542
 -1       340    8    0    1
 -2        95        96       251      1213      1548      1549
 -1       341    8    0    1
 -2        95       251       250      1549      1550      1545
 -1       342    8    0    1
 -2        96        97       252      1214      1551      1552
 -1       343    8    0    1
 -2        96       252       251      1552      1553      1548
 -1       344    8    0    1
 -2        97        98       253      1215      1554      1555
 -1       345    8    0    1
 -2        97       253       252      1555      1556      1551
 -1       346    8    0    1
 -2        98        99       254      1216      1557      1558
 -1       347    8    0    1
 -2        98       254       253      1558      1559      1554
 -1       348    8    0    1
 -2        99       100       255      1217      1560      1561
 -1       349    8    0    1
 -2        99       255       254      1561      1562      1557
 -1       350    8    0    1
 -2       100       101       256      1218      1563      1564
 -1       351    8    0    1
 -2       100       256       255      1564      1565      1560
 -1       352    8    0    1
 -2       101       102       257      1219      1566      1567
 -1       353    8    0    1
 -2       101       257       256      1567      1568      1563
 -1       354    8    0    1
 -2       102       103       258      1220      1569      1570
 -1       355    8    0    1
 -2       102       258       257      1570      1571      1566
 -1       356    8    0    1
 -2       103       104       259      1221      1572      1573
 -1       357    8    0    1
 -2       103       259       258      1573      1574      1569
 -1       358    8    0    1
 -2       104       105       260      1222      1575      1576
 -1       359    8    0    1
 -2       104       260       259      1576      1577      1572
 -1       360    8    0    1
 -2       105       106       261      1223      1578      1579
 -1       361    8    0    1
 -2       105       261       260      1579      1580      1575
 -1       362    8    0    1
 -2       106       107       262      1224      1581      1582
 -1       363    8    0    1
 -2       106       262       261      1582      1583      1578
 -1       364    8    0    1
 -2       107       108       263      1225      1584      1585
 -1       365    8    0    1
 -2       107       263       262      1585      1586      1581
 -1       366    8    0    1
 -2       108       109       264      1226      1587      1588
 -1       367    8    0    1
 -2       108       264       263      1588      1589      1584
 -1       368    8    0    1
 -2       109       110       265      1227      1590      1591
 -1       369    8    0    1
 -2       109       265       264      1591      1592      1587
 -1       370    8    0    1
 -2       110       111       266      1228      1593      1594
 -1       371    8    0    1
 -2       110       266       265      1594      1595      1590
 -1       372    8    0    1
 -2       111       112       267      1229      1596      1597
 -1       373    8    0    1
 -2       111       267       266      1597      1598      1593
 -1       374    8    0    1
 -2       112       113       268      1230      1599      1600
 -1       375    8    0    1
 -2       112       268       267      1600      1601      1596
 -1       376    8    0    1
 -2       113       114       269      1231      1602      1603
 -1       377    8    0    1
 -2       113       269       268      1603      1604      1599
 -1       378    8    0    1
 -2       114       115       270      1232      1605      1606
 -1       379    8    0    1
 -2       114       270       269      1606      1607      1602
 -1       380    8    0    1
 -2       115       116       271      1233      1608      1609
 -1       381    8    0    1
 -2       115       271       270      1609      1610      1605
 -1       382    8    0    1
 -2       116       117       272      1234      1611      1612
 -1       383    8    0    1
 -2       116       272       271      1612      1613      1608
 -1       384    8    0    1
 -2       117       118       273      1235      1614      1615
 -1       385    8    0    1
 -2       117       273       272      1615      1616      1611
 -1       386    8    0    1
 -2       118       119       274      1236      1617      1618
 -1       387    8    0    1
 -2       118       274       273      1618      1619      1614
 -1       388    8    0    1
 -2       119       120       275      1237      1620      1621
 -1       389    8    0    1
 -2       119       275       274      1621      1622      1617
 -1       390    8    0    1
 -2       120         3       121      1238      1239      1623
 -1       391    8    0    1
 -2       121       122       276      1240      1624      1625
 -1       392    8    0    1
 -2       122       123       277      1241      1626      1627
 -1       393    8    0    1
 -2       122       277       276      1627      1628      1624
 -1       394    8    0    1
 -2       123       124       278      1242      1629      1630
 -1       395    8    0    1
 -2       123       278       277      1630      1631      1626
 -1       396    8    0    1
 -2       124       125       279      1243      1632      1633
 -1       397    8    0    1
 -2       124       279       278      1633      1634      1629
 -1       398    8    0    1
 -2       125       126       280      1244      1635      1636
 -1       399    8    0    1
 -2       125       280       279      1636      1637      1632
 -1       400    8    0    1
 -2       126       127       281      1245      1638      1639
 -1       401    8    0    1
 -2       126       281       280      1639      1640      1635
 -1       402    8    0    1
 -2       127       128       282      1246      1641      1642
 -1       403    8    0    1
 -2       127       282       281      1642      1643      1638
 -1       404    8    0    1
 -2       128       129       283      1247      1644      1645
 -1       405    8    0    1
 -2       128       283       282      1645      1646      1641
 -1       406    8    0    1
 -2       129       130       284      1248      1647      1648
 -1       407    8    0    1
 -2       129       284       283      1648      1649      1644
 -1       408    8    0    1
 -2       130       131       285      1249      1650      1651
 -1       409    8    0    1
 -2       130       285       284      1651      1652      1647
 -1       410    8    0    1
 -2       131       132       286      1250      1653      1654
 -1       411    8    0    1
 -2       131       286       285      1654      1655      1650
 -1       412    8    0    1
 -2       132       133       287      1251      1656      1657
 -1       413    8    0    1
 -2       132       287       286      1657      1658      1653
 -1       414    8    0    1
 -2       133       134       288      1252      1659      1660
 -1       415    8    0    1
 -2       133       288       287      1660      1661      1656
 -1       416    8    0    1
 -2       134       135       289      1253      1662      1663
 -1       417    8    0    1
 -2       134       289       288      1663      1664      1659
 -1       418    8    0    1
 -2       135       136       290      1254      1665      1666
 -1       419    8    0    1
 -2       289       135       290      1662      1666      1667
 -1       420    8    0    1
 -2       136       227       290      1478      1668      1665
 -1       421    8    0    1
 -2         2       137       291      1256      1669      1670
 -1       422    8    0    1
 -2       137       138       292      1257      1671      1672
 -1       423    8    0    1
 -2       138       139       293      1258      1673      1674
 -1       424    8    0    1
 -2       139       140       294      1259      1675      1676
 -1       425    8    0    1
 -2       140       141       295      1260      1677      1678
 -1       426    8    0    1
 -2       141       142       296      1261      1679      1680
 -1       427    8    0    1
 -2       142       143       297      1262      1681      1682
 -1       428    8    0    1
 -2       143       144       298      1263      1683      1684
 -1       429    8    0    1
 -2       144       145       299      1264      1685      1686
 -1       430    8    0    1
 -2       145       146       300      1265      1687      1688
 -1       431    8    0    1
 -2       146       147       301      1266      1689      1690
 -1       432    8    0    1
 -2       147       148       302      1267      1691      1692
 -1       433    8    0    1
 -2       148       149       303      1268      1693      1694
 -1       434    8    0    1
 -2       149       150       304      1269      1695      1696
 -1       435    8    0    1
 -2       150       151       305      1270      1697      1698
 -1       436    8    0    1
 -2       151       152       306      1271      1699      1700
 -1       437    8    0    1
 -2       152       153       307      1272      1701      1702
 -1       438    8    0    1
 -2       153       154       308      1273      1703      1704
 -1       439    8    0    1
 -2       154       155       309      1274      1705      1706
 -1       440    8    0    1
 -2       155       156       310      1275      1707      1708
 -1       441    8    0    1
 -2       156       157       311      1276      1709      1710
 -1       442    8    0    1
 -2       157         1       312      1277      1711      1712
 -1       443    8    0    1
 -2         1       158       313      1278      1713      1714
 -1       444    8    0    1
 -2       158       159       314      1279      1715      1716
 -1       445    8    0    1
 -2       159       160       315      1280      1717      1718
 -1       446    8    0    1
 -2       160       161       316      1281      1719      1720
 -1       447    8    0    1
 -2       161       162       317      1282      1721      1722
 -1       448    8    0    1
 -2       162       163       318      1283      1723      1724
 -1       449    8    0    1
 -2       163         2       319      1284      1725      1726
 -1       450    8    0    1
 -2       294       140       295      1675      1678      1727
 -1       451    8    0    1
 -2       293       139       294      1673      1676      1728
 -1       452    8    0    1
 -2       120       121       275      1623      1729      1620
 -1       453    8    0    1
 -2       121       276       275      1625      1730      1729
 -1       454    8    0    1
 -2       291       137       292      1669      1672      1731
 -1       455    8    0    1
 -2       292       138       293      1671      1674      1732
 -1       456    8    0    1
 -2         2       291       319      1670      1733      1725
 -1       457    8    0    1
 -2       141       296       295      1680      1734      1677
 -1       458    8    0    1
 -2       142       297       296      1682      1735      1679
 -1       459    8    0    1
 -2       143       298       297      1684      1736      1681
 -1       460    8    0    1
 -2       144       299       298      1686      1737      1683
 -1       461    8    0    1
 -2       145       300       299      1688      1738      1685
 -1       462    8    0    1
 -2       146       301       300      1690      1739      1687
 -1       463    8    0    1
 -2       147       302       301      1692      1740      1689
 -1       464    8    0    1
 -2       148       303       302      1694      1741      1691
 -1       465    8    0    1
 -2       149       304       303      1696      1742      1693
 -1       466    8    0    1
 -2       150       305       304      1698      1743      1695
 -1       467    8    0    1
 -2       151       306       305      1700      1744      1697
 -1       468    8    0    1
 -2       152       307       306      1702      1745      1699
 -1       469    8    0    1
 -2       153       308       307      1704      1746      1701
 -1       470    8    0    1
 -2       154       309       308      1706      1747      1703
 -1       471    8    0    1
 -2       155       310       309      1708      1748      1705
 -1       472    8    0    1
 -2       156       311       310      1710      1749      1707
 -1       473    8    0    1
 -2       157       312       311      1712      1750      1709
 -1       474    8    0    1
 -2         1       313       312      1714      1751      1711
 -1       475    8    0    1
 -2       158       314       313      1716      1752      1713
 -1       476    8    0    1
 -2       159       315       314      1718      1753      1715
 -1       477    8    0    1
 -2       160       316       315      1720      1754      1717
 -1       478    8    0    1
 -2       161       317       316      1722      1755      1719
 -1       479    8    0    1
 -2       162       318       317      1724      1756      1721
 -1       480    8    0    1
 -2       163       319       318      1726      1757      1723
 -1       481    8    0    1
 -2        23         7       164      1285      1287      1758
 -1       482    8    0    1
 -2       165       166       320      1293      1759      1760
 -1       483    8    0    1
 -2       164       165       321      1290      1761      1762
 -1       484    8    0    1
 -2       165       320       321      1760      1763      1761
 -1       485    8    0    1
 -2       167       168       322      1299      1764      1765
 -1       486    8    0    1
 -2       168       169       323      1302      1766      1767
 -1       487    8    0    1
 -2       168       323       322      1767      1768      1764
 -1       488    8    0    1
 -2       169       170       324      1305      1769      1770
 -1       489    8    0    1
 -2       169       324       323      1770      1771      1766
 -1       490    8    0    1
 -2       170       171       325      1308      1772      1773
 -1       491    8    0    1
 -2       170       325       324      1773      1774      1769
 -1       492    8    0    1
 -2       171       172       326      1311      1775      1776
 -1       493    8    0    1
 -2       171       326       325      1776      1777      1772
 -1       494    8    0    1
 -2       172       173       327      1314      1778      1779
 -1       495    8    0    1
 -2       172       327       326      1779      1780      1775
 -1       496    8    0    1
 -2       173       174       328      1317      1781      1782
 -1       497    8    0    1
 -2       173       328       327      1782      1783      1778
 -1       498    8    0    1
 -2       174       175       329      1320      1784      1785
 -1       499    8    0    1
 -2       174       329       328      1785      1786      1781
 -1       500    8    0    1
 -2       175       176       330      1323      1787      1788
 -1       501    8    0    1
 -2       175       330       329      1788      1789      1784
 -1       502    8    0    1
 -2       176       177       331      1326      1790      1791
 -1       503    8    0    1
 -2       176       331       330      1791      1792      1787
 -1       504    8    0    1
 -2       177       178       332      1329      1793      1794
 -1       505    8    0    1
 -2       177       332       331      1794      1795      1790
 -1       506    8    0    1
 -2       178       179       333      1332      1796      1797
 -1       507    8    0    1
 -2       332       178       333      1793      1797      1798
 -1       508    8    0    1
 -2       179       228       333      1481      1799      1796
 -1       509    8    0    1
 -2       180        23       164      1334      1758      1800
 -1       510    8    0    1
 -2       228       229       334      1484      1801      1802
 -1       511    8    0    1
 -2       228       334       333      1802      1803      1799
 -1       512    8    0    1
 -2       180       164       321      1800      1762      1804
 -1       513    8    0    1
 -2       182       181       335      1341      1805      1806
 -1       514    8    0    1
 -2       183       182       336      1344      1807      1808
 -1       515    8    0    1
 -2       182       335       336      1806      1809      1807
 -1       516    8    0    1
 -2       184       183       337      1347      1810      1811
 -1       517    8    0    1
 -2       183       336       337      1808      1812      1810
 -1       518    8    0    1
 -2       185       184       338      1350      1813      1814
 -1       519    8    0    1
 -2       184       337       338      1811      1815      1813
 -1       520    8    0    1
 -2       186       185       339      1353      1816      1817
 -1       521    8    0    1
 -2       185       338       339      1814      1818      1816
 -1       522    8    0    1
 -2       187       186       340      1356      1819      1820
 -1       523    8    0    1
 -2       186       339       340      1817      1821      1819
 -1       524    8    0    1
 -2       188       187       341      1359      1822      1823
 -1       525    8    0    1
 -2       187       340       341      1820      1824      1822
 -1       526    8    0    1
 -2       189       188       342      1362      1825      1826
 -1       527    8    0    1
 -2       188       341       342      1823      1827      1825
 -1       528    8    0    1
 -2       190       189       343      1365      1828      1829
 -1       529    8    0    1
 -2       189       342       343      1826      1830      1828
 -1       530    8    0    1
 -2       191       190       344      1368      1831      1832
 -1       531    8    0    1
 -2       190       343       344      1829      1833      1831
 -1       532    8    0    1
 -2       192       191       345      1371      1834      1835
 -1       533    8    0    1
 -2       191       344       345      1832      1836      1834
 -1       534    8    0    1
 -2       193       192       346      1374      1837      1838
 -1       535    8    0    1
 -2       192       345       346      1835      1839      1837
 -1       536    8    0    1
 -2       194       193       347      1377      1840      1841
 -1       537    8    0    1
 -2       193       346       347      1838      1842      1840
 -1       538    8    0    1
 -2       195       194       348      1380      1843      1844
 -1       539    8    0    1
 -2       194       347       348      1841      1845      1843
 -1       540    8    0    1
 -2       196       195       349      1383      1846      1847
 -1       541    8    0    1
 -2       195       348       349      1844      1848      1846
 -1       542    8    0    1
 -2       197       196       350      1386      1849      1850
 -1       543    8    0    1
 -2       196       349       350      1847      1851      1849
 -1       544    8    0    1
 -2       198       197       351      1389      1852      1853
 -1       545    8    0    1
 -2       197       350       351      1850      1854      1852
 -1       546    8    0    1
 -2       199       198       352      1392      1855      1856
 -1       547    8    0    1
 -2       198       351       352      1853      1857      1855
 -1       548    8    0    1
 -2       200       199       353      1395      1858      1859
 -1       549    8    0    1
 -2       199       352       353      1856      1860      1858
 -1       550    8    0    1
 -2       201       200       354      1398      1861      1862
 -1       551    8    0    1
 -2       200       353       354      1859      1863      1861
 -1       552    8    0    1
 -2       202       201       355      1401      1864      1865
 -1       553    8    0    1
 -2       201       354       355      1862      1866      1864
 -1       554    8    0    1
 -2       203       202       356      1404      1867      1868
 -1       555    8    0    1
 -2       202       355       356      1865      1869      1867
 -1       556    8    0    1
 -2       204       203       357      1407      1870      1871
 -1       557    8    0    1
 -2       203       356       357      1868      1872      1870
 -1       558    8    0    1
 -2       205       204       358      1410      1873      1874
 -1       559    8    0    1
 -2       204       357       358      1871      1875      1873
 -1       560    8    0    1
 -2       206       205       359      1413      1876      1877
 -1       561    8    0    1
 -2       205       358       359      1874      1878      1876
 -1       562    8    0    1
 -2       207       206       360      1416      1879      1880
 -1       563    8    0    1
 -2       206       359       360      1877      1881      1879
 -1       564    8    0    1
 -2       208       207       361      1419      1882      1883
 -1       565    8    0    1
 -2       207       360       361      1880      1884      1882
 -1       566    8    0    1
 -2       209       208       362      1422      1885      1886
 -1       567    8    0    1
 -2       208       361       362      1883      1887      1885
 -1       568    8    0    1
 -2       210       209       363      1425      1888      1889
 -1       569    8    0    1
 -2       209       362       363      1886      1890      1888
 -1       570    8    0    1
 -2       211       210       364      1428      1891      1892
 -1       571    8    0    1
 -2       210       363       364      1889      1893      1891
 -1       572    8    0    1
 -2       212       211       365      1431      1894      1895
 -1       573    8    0    1
 -2       211       364       365      1892      1896      1894
 -1       574    8    0    1
 -2       213       212       366      1434      1897      1898
 -1       575    8    0    1
 -2       212       365       366      1895      1899      1897
 -1       576    8    0    1
 -2       214       213       367      1437      1900      1901
 -1       577    8    0    1
 -2       213       366       367      1898      1902      1900
 -1       578    8    0    1
 -2       215       214       368      1440      1903      1904
 -1       579    8    0    1
 -2       214       367       368      1901      1905      1903
 -1       580    8    0    1
 -2       216       215       369      1443      1906      1907
 -1       581    8    0    1
 -2       215       368       369      1904      1908      1906
 -1       582    8    0    1
 -2       217       216       370      1446      1909      1910
 -1       583    8    0    1
 -2       216       369       370      1907      1911      1909
 -1       584    8    0    1
 -2       218       217       371      1449      1912      1913
 -1       585    8    0    1
 -2       217       370       371      1910      1914      1912
 -1       586    8    0    1
 -2       219       218       372      1452      1915      1916
 -1       587    8    0    1
 -2       218       371       372      1913      1917      1915
 -1       588    8    0    1
 -2       220       219       373      1455      1918      1919
 -1       589    8    0    1
 -2       219       372       373      1916      1920      1918
 -1       590    8    0    1
 -2       221       220       374      1458      1921      1922
 -1       591    8    0    1
 -2       220       373       374      1919      1923      1921
 -1       592    8    0    1
 -2       222       221       375      1461      1924      1925
 -1       593    8    0    1
 -2       221       374       375      1922      1926      1924
 -1       594    8    0    1
 -2       223       222       376      1464      1927      1928
 -1       595    8    0    1
 -2       222       375       376      1925      1929      1927
 -1       596    8    0    1
 -2       224       223       377      1467      1930      1931
 -1       597    8    0    1
 -2       223       376       377      1928      1932      1930
 -1       598    8    0    1
 -2       225       224       378      1470      1933      1934
 -1       599    8    0    1
 -2       224       377       378      1931      1935      1933
 -1       600    8    0    1
 -2       226       225       379      1473      1936      1937
 -1       601    8    0    1
 -2       225       378       379      1934      1938      1936
 -1       602    8    0    1
 -2       227       226       380      1476      1939      1940
 -1       603    8    0    1
 -2       290       227       380      1668      1940      1941
 -1       604    8    0    1
 -2       226       379       380      1937      1942      1939
 -1       605    8    0    1
 -2       229       230       381      1487      1943      1944
 -1       606    8    0    1
 -2       229       381       334      1944      1945      1801
 -1       607    8    0    1
 -2       230       231       382      1490      1946      1947
 -1       608    8    0    1
 -2       230       382       381      1947      1948      1943
 -1       609    8    0    1
 -2       231       232       383      1493      1949      1950
 -1       610    8    0    1
 -2       231       383       382      1950      1951      1946
 -1       611    8    0    1
 -2       232       233       384      1496      1952      1953
 -1       612    8    0    1
 -2       232       384       383      1953      1954      1949
 -1       613    8    0    1
 -2       233       234       385      1499      1955      1956
 -1       614    8    0    1
 -2       233       385       384      1956      1957      1952
 -1       615    8    0    1
 -2       234       235       386      1502      1958      1959
 -1       616    8    0    1
 -2       234       386       385      1959      1960      1955
 -1       617    8    0    1
 -2       235       236       387      1505      1961      1962
 -1       618    8    0    1
 -2       235       387       386      1962      1963      1958
 -1       619    8    0    1
 -2       236       237       388      1508      1964      1965
 -1       620    8    0    1
 -2       236       388       387      1965      1966      1961
 -1       621    8    0    1
 -2       237       238       389      1511      1967      1968
 -1       622    8    0    1
 -2       237       389       388      1968      1969      1964
 -1       623    8    0    1
 -2       238       239       390      1514      1970      1971
 -1       624    8    0    1
 -2       238       390       389      1971      1972      1967
 -1       625    8    0    1
 -2       239       240       391      1517      1973      1974
 -1       626    8    0    1
 -2       239       391       390      1974      1975      1970
 -1       627    8    0    1
 -2       240       241       392      1520      1976      1977
 -1       628    8    0    1
 -2       240       392       391      1977      1978      1973
 -1       629    8    0    1
 -2       241       242       393      1523      1979      1980
 -1       630    8    0    1
 -2       241       393       392      1980      1981      1976
 -1       631    8    0    1
 -2       242       243       394      1526      1982      1983
 -1       632    8    0    1
 -2       242       394       393      1983      1984      1979
 -1       633    8    0    1
 -2       243       244       395      1529      1985      1986
 -1       634    8    0    1
 -2       243       395       394      1986      1987      1982
 -1       635    8    0    1
 -2       244       245       396      1532      1988      1989
 -1       636    8    0    1
 -2       244       396       395      1989      1990      1985
 -1       637    8    0    1
 -2       245       246       397      1535      1991      1992
 -1       638    8    0    1
 -2       245       397       396      1992      1993      1988
 -1       639    8    0    1
 -2       246       247       398      1538      1994      1995
 -1       640    8    0    1
 -2       246       398       397      1995      1996      1991
 -1       641    8    0    1
 -2       247       248       399      1541      1997      1998
 -1       642    8    0    1
 -2       247       399       398      1998      1999      1994
 -1       643    8    0    1
 -2       248       249       400      1544      2000      2001
 -1       644    8    0    1
 -2       248       400       399      2001      2002      1997
 -1       645    8    0    1
 -2       249       250       401      1547      2003      2004
 -1       646    8    0    1
 -2       249       401       400      2004      2005      2000
 -1       647    8    0    1
 -2       250       251       402      1550      2006      2007
 -1       648    8    0    1
 -2       250       402       401      2007      2008      2003
 -1       649    8    0    1
 -2       251       252       403      1553      2009      2010
 -1       650    8    0    1
 -2       251       403       402      2010      2011      2006
 -1       651    8    0    1
 -2       252       253       404      1556      2012      2013
 -1       652    8    0    1
 -2       252       404       403      2013      2014      2009
 -1       653    8    0    1
 -2       253       254       405      1559      2015      2016
 -1       654    8    0    1
 -2       253       405       404      2016      2017      2012
 -1       655    8    0    1
 -2       254       255       406      1562      2018      2019
 -1       656    8    0    1
 -2       254       406       405      2019      2020      2015
 -1       657    8    0    1
 -2       255       256       407      1565      2021      2022
 -1       658    8    0    1
 -2       255       407       406      2022      2023      2018
 -1       659    8    0    1
 -2       256       257       408      1568      2024      2025
 -1       660    8    0    1
 -2       256       408       407      2025      2026      2021
 -1       661    8    0    1
 -2       257       258       409      1571      2027      2028
 -1       662    8    0    1
 -2       257       409       408      2028      2029      2024
 -1       663    8    0    1
 -2       258       259       410      1574      2030      2031
 -1       664    8    0    1
 -2       258       410       409      2031      2032      2027
 -1       665    8    0    1
 -2       259       260       411      1577      2033      2034
 -1       666    8    0    1
 -2       259       411       410      2034      2035      2030
 -1       667    8    0    1
 -2       260       261       412      1580      2036      2037
 -1       668    8    0    1
 -2       260       412       411      2037      2038      2033
 -1       669    8    0    1
 -2       261       262       413      1583      2039      2040
 -1       670    8    0    1
 -2       261       413       412      2040      2041      2036
 -1       671    8    0    1
 -2       262       263       414      1586      2042      2043
 -1       672    8    0    1
 -2       262       414       413      2043      2044      2039
 -1       673    8    0    1
 -2       263       264       415      1589      2045      2046
 -1       674    8    0    1
 -2       263       415       414      2046      2047      2042
 -1       675    8    0    1
 -2       264       265       416      1592      2048      2049
 -1       676    8    0    1
 -2       264       416       415      2049      2050      2045
 -1       677    8    0    1
 -2       265       266       417      1595      2051      2052
 -1       678    8    0    1
 -2       265       417       416      2052      2053      2048
 -1       679    8    0    1
 -2       266       267       418      1598      2054      2055
 -1       680    8    0    1
 -2       266       418       417      2055      2056      2051
 -1       681    8    0    1
 -2       267       268       419      1601      2057      2058
 -1       682    8    0    1
 -2       267       419       418      2058      2059      2054
 -1       683    8    0    1
 -2       268       269       420      1604      2060      2061
 -1       684    8    0    1
 -2       268       420       419      2061      2062      2057
 -1       685    8    0    1
 -2       269       270       421      1607      2063      2064
 -1       686    8    0    1
 -2       269       421       420      2064      2065      2060
 -1       687    8    0    1
 -2       270       271       422      1610      2066      2067
 -1       688    8    0    1
 -2       270       422       421      2067      2068      2063
 -1       689    8    0    1
 -2       271       272       423      1613      2069      2070
 -1       690    8    0    1
 -2       271       423       422      2070      2071      2066
 -1       691    8    0    1
 -2       272       273       424      1616      2072      2073
 -1       692    8    0    1
 -2       272       424       423      2073      2074      2069
 -1       693    8    0    1
 -2       273       274       425      1619      2075      2076
 -1       694    8    0    1
 -2       273       425       424      2076      2077      2072
 -1       695    8    0    1
 -2       274       275       426      1622      2078      2079
 -1       696    8    0    1
 -2       425       274       426      2075      2079      2080
 -1       697    8    0    1
 -2       275       276       426      1730      2081      2078
 -1       698    8    0    1
 -2       278       279       427      1634      2082      2083
 -1       699    8    0    1
 -2       277       278       428      1631      2084      2085
 -1       700    8    0    1
 -2       278       427       428      2083      2086      2084
 -1       701    8    0    1
 -2       276       277       429      1628      2087      2088
 -1       702    8    0    1
 -2       426       276       429      2081      2088      2089
 -1       703    8    0    1
 -2       277       428       429      2085      2090      2087
 -1       704    8    0    1
 -2       279       280       430      1637      2091      2092
 -1       705    8    0    1
 -2       279       430       427      2092      2093      2082
 -1       706    8    0    1
 -2       280       281       431      1640      2094      2095
 -1       707    8    0    1
 -2       280       431       430      2095      2096      2091
 -1       708    8    0    1
 -2       281       282       432      1643      2097      2098
 -1       709    8    0    1
 -2       281       432       431      2098      2099      2094
 -1       710    8    0    1
 -2       282       283       433      1646      2100      2101
 -1       711    8    0    1
 -2       282       433       432      2101      2102      2097
 -1       712    8    0    1
 -2       283       284       434      1649      2103      2104
 -1       713    8    0    1
 -2       283       434       433      2104      2105      2100
 -1       714    8    0    1
 -2       284       285       435      1652      2106      2107
 -1       715    8    0    1
 -2       284       435       434      2107      2108      2103
 -1       716    8    0    1
 -2       285       286       436      1655      2109      2110
 -1       717    8    0    1
 -2       285       436       435      2110      2111      2106
 -1       718    8    0    1
 -2       286       287       437      1658      2112      2113
 -1       719    8    0    1
 -2       286       437       436      2113      2114      2109
 -1       720    8    0    1
 -2       287       288       438      1661      2115      2116
 -1       721    8    0    1
 -2       287       438       437      2116      2117      2112
 -1       722    8    0    1
 -2       288       289       439      1664      2118      2119
 -1       723    8    0    1
 -2       288       439       438      2119      2120      2115
 -1       724    8    0    1
 -2       292       293       440      1732      2121      2122
 -1       725    8    0    1
 -2       319       291       441      1733      2123      2124
 -1       726    8    0    1
 -2       291       292       442      1731      2125      2126
 -1       727    8    0    1
 -2       293       294       443      1728      2127      2128
 -1       728    8    0    1
 -2       294       295       444      1727      2129      2130
 -1       729    8    0    1
 -2       166       167       445      1296      2131      2132
 -1       730    8    0    1
 -2       320       166       445      1759      2132      2133
 -1       731    8    0    1
 -2       167       322       445      1765      2134      2131
 -1       732    8    0    1
 -2       296       297       446      1735      2135      2136
 -1       733    8    0    1
 -2       297       298       447      1736      2137      2138
 -1       734    8    0    1
 -2       298       299       448      1737      2139      2140
 -1       735    8    0    1
 -2       298       448       447      2140      2141      2137
 -1       736    8    0    1
 -2       299       300       449      1738      2142      2143
 -1       737    8    0    1
 -2       300       301       450      1739      2144      2145
 -1       738    8    0    1
 -2       301       302       451      1740      2146      2147
 -1       739    8    0    1
 -2       302       303       452      1741      2148      2149
 -1       740    8    0    1
 -2       303       304       453      1742      2150      2151
 -1       741    8    0    1
 -2       304       305       454      1743      2152      2153
 -1       742    8    0    1
 -2       305       306       455      1744      2154      2155
 -1       743    8    0    1
 -2       306       307       456      1745      2156      2157
 -1       744    8    0    1
 -2       307       308       457      1746      2158      2159
 -1       745    8    0    1
 -2       307       457       456      2159      2160      2156
 -1       746    8    0    1
 -2       308       309       458      1747      2161      2162
 -1       747    8    0    1
 -2       309       310       459      1748      2163      2164
 -1       748    8    0    1
 -2       309       459       458      2164      2165      2161
 -1       749    8    0    1
 -2       310       311       460      1749      2166      2167
 -1       750    8    0    1
 -2       311       312       461      1750      2168      2169
 -1       751    8    0    1
 -2       311       461       460      2169      2170      2166
 -1       752    8    0    1
 -2       312       313       462      1751      2171      2172
 -1       753    8    0    1
 -2       313       314       463      1752      2173      2174
 -1       754    8    0    1
 -2       314       315       464      1753      2175      2176
 -1       755    8    0    1
 -2       315       316       465      1754      2177      2178
 -1       756    8    0    1
 -2       316       317       466      1755      2179      2180
 -1       757    8    0    1
 -2       317       318       467      1756      2181      2182
 -1       758    8    0    1
 -2       318       319       468      1757      2183      2184
 -1       759    8    0    1
 -2       319       441       468      2124      2185      2183
 -1       760    8    0    1
 -2       295       296       469      1734      2186      2187
 -1       761    8    0    1
 -2       295       469       444      2187      2188      2129
 -1       762    8    0    1
 -2       443       294       470      2127      2189      2190
 -1       763    8    0    1
 -2       294       444       470      2130      2191      2189
 -1       764    8    0    1
 -2       180       321       181      1804      2192      1338
 -1       765    8    0    1
 -2       296       446       469      2136      2193      2186
 -1       766    8    0    1
 -2       335       181       321      1805      2192      2194
 -1       767    8    0    1
 -2       442       292       440      2125      2122      2195
 -1       768    8    0    1
 -2       441       291       471      2123      2196      2197
 -1       769    8    0    1
 -2       291       442       471      2126      2198      2196
 -1       770    8    0    1
 -2       439       289       290      2118      1667      2199
 -1       771    8    0    1
 -2       440       293       443      2121      2128      2200
 -1       772    8    0    1
 -2       467       318       468      2181      2184      2201
 -1       773    8    0    1
 -2       466       317       467      2179      2182      2202
 -1       774    8    0    1
 -2       465       316       466      2177      2180      2203
 -1       775    8    0    1
 -2       464       315       465      2175      2178      2204
 -1       776    8    0    1
 -2       463       314       464      2173      2176      2205
 -1       777    8    0    1
 -2       461       312       462      2168      2172      2206
 -1       778    8    0    1
 -2       459       310       460      2163      2167      2207
 -1       779    8    0    1
 -2       457       308       458      2158      2162      2208
 -1       780    8    0    1
 -2       455       306       472      2154      2209      2210
 -1       781    8    0    1
 -2       306       456       472      2157      2211      2209
 -1       782    8    0    1
 -2       454       305       455      2152      2155      2212
 -1       783    8    0    1
 -2       453       304       454      2150      2153      2213
 -1       784    8    0    1
 -2       452       303       453      2148      2151      2214
 -1       785    8    0    1
 -2       451       302       452      2146      2149      2215
 -1       786    8    0    1
 -2       450       301       451      2144      2147      2216
 -1       787    8    0    1
 -2       448       299       449      2139      2143      2217
 -1       788    8    0    1
 -2       446       297       447      2135      2138      2218
 -1       789    8    0    1
 -2       449       300       450      2142      2145      2219
 -1       790    8    0    1
 -2       462       313       463      2171      2174      2220
 -1       791    8    0    1
 -2       334       381       473      1945      2221      2222
 -1       792    8    0    1
 -2       323       324       474      1771      2223      2224
 -1       793    8    0    1
 -2       322       323       475      1768      2225      2226
 -1       794    8    0    1
 -2       323       474       475      2224      2227      2225
 -1       795    8    0    1
 -2       325       326       476      1777      2228      2229
 -1       796    8    0    1
 -2       326       327       477      1780      2230      2231
 -1       797    8    0    1
 -2       326       477       476      2231      2232      2228
 -1       798    8    0    1
 -2       327       328       478      1783      2233      2234
 -1       799    8    0    1
 -2       327       478       477      2234      2235      2230
 -1       800    8    0    1
 -2       328       329       479      1786      2236      2237
 -1       801    8    0    1
 -2       328       479       478      2237      2238      2233
 -1       802    8    0    1
 -2       329       330       480      1789      2239      2240
 -1       803    8    0    1
 -2       329       480       479      2240      2241      2236
 -1       804    8    0    1
 -2       330       331       481      1792      2242      2243
 -1       805    8    0    1
 -2       330       481       480      2243      2244      2239
 -1       806    8    0    1
 -2       381       382       482      1948      2245      2246
 -1       807    8    0    1
 -2       381       482       473      2246      2247      2221
 -1       808    8    0    1
 -2       336       335       483      1809      2248      2249
 -1       809    8    0    1
 -2       469       446       484      2193      2250      2251
 -1       810    8    0    1
 -2       337       336       485      1812      2252      2253
 -1       811    8    0    1
 -2       336       483       485      2249      2254      2252
 -1       812    8    0    1
 -2       338       337       486      1815      2255      2256
 -1       813    8    0    1
 -2       337       485       486      2253      2257      2255
 -1       814    8    0    1
 -2       339       338       487      1818      2258      2259
 -1       815    8    0    1
 -2       338       486       487      2256      2260      2258
 -1       816    8    0    1
 -2       340       339       488      1821      2261      2262
 -1       817    8    0    1
 -2       339       487       488      2259      2263      2261
 -1       818    8    0    1
 -2       341       340       489      1824      2264      2265
 -1       819    8    0    1
 -2       340       488       489      2262      2266      2264
 -1       820    8    0    1
 -2       342       341       490      1827      2267      2268
 -1       821    8    0    1
 -2       341       489       490      2265      2269      2267
 -1       822    8    0    1
 -2       343       342       491      1830      2270      2271
 -1       823    8    0    1
 -2       342       490       491      2268      2272      2270
 -1       824    8    0    1
 -2       344       343       492      1833      2273      2274
 -1       825    8    0    1
 -2       343       491       492      2271      2275      2273
 -1       826    8    0    1
 -2       345       344       493      1836      2276      2277
 -1       827    8    0    1
 -2       344       492       493      2274      2278      2276
 -1       828    8    0    1
 -2       346       345       494      1839      2279      2280
 -1       829    8    0    1
 -2       345       493       494      2277      2281      2279
 -1       830    8    0    1
 -2       347       346       495      1842      2282      2283
 -1       831    8    0    1
 -2       346       494       495      2280      2284      2282
 -1       832    8    0    1
 -2       348       347       496      1845      2285      2286
 -1       833    8    0    1
 -2       347       495       496      2283      2287      2285
 -1       834    8    0    1
 -2       349       348       497      1848      2288      2289
 -1       835    8    0    1
 -2       348       496       497      2286      2290      2288
 -1       836    8    0    1
 -2       350       349       498      1851      2291      2292
 -1       837    8    0    1
 -2       349       497       498      2289      2293      2291
 -1       838    8    0    1
 -2       351       350       499      1854      2294      2295
 -1       839    8    0    1
 -2       350       498       499      2292      2296      2294
 -1       840    8    0    1
 -2       352       351       500      1857      2297      2298
 -1       841    8    0    1
 -2       351       499       500      2295      2299      2297
 -1       842    8    0    1
 -2       353       352       501      1860      2300      2301
 -1       843    8    0    1
 -2       352       500       501      2298      2302      2300
 -1       844    8    0    1
 -2       354       353       502      1863      2303      2304
 -1       845    8    0    1
 -2       353       501       502      2301      2305      2303
 -1       846    8    0    1
 -2       355       354       503      1866      2306      2307
 -1       847    8    0    1
 -2       354       502       503      2304      2308      2306
 -1       848    8    0    1
 -2       356       355       504      1869      2309      2310
 -1       849    8    0    1
 -2       355       503       504      2307      2311      2309
 -1       850    8    0    1
 -2       357       356       505      1872      2312      2313
 -1       851    8    0    1
 -2       356       504       505      2310      2314      2312
 -1       852    8    0    1
 -2       358       357       506      1875      2315      2316
 -1       853    8    0    1
 -2       357       505       506      2313      2317      2315
 -1       854    8    0    1
 -2       359       358       507      1878      2318      2319
 -1       855    8    0    1
 -2       358       506       507      2316      2320      2318
 -1       856    8    0    1
 -2       360       359       508      1881      2321      2322
 -1       857    8    0    1
 -2       359       507       508      2319      2323      2321
 -1       858    8    0    1
 -2       361       360       509      1884      2324      2325
 -1       859    8    0    1
 -2       360       508       509      2322      2326      2324
 -1       860    8    0    1
 -2       362       361       510      1887      2327      2328
 -1       861    8    0    1
 -2       361       509       510      2325      2329      2327
 -1       862    8    0    1
 -2       363       362       511      1890      2330      2331
 -1       863    8    0    1
 -2       362       510       511      2328      2332      2330
 -1       864    8    0    1
 -2       364       363       512      1893      2333      2334
 -1       865    8    0    1
 -2       363       511       512      2331      2335      2333
 -1       866    8    0    1
 -2       365       364       513      1896      2336      2337
 -1       867    8    0    1
 -2       364       512       513      2334      2338      2336
 -1       868    8    0    1
 -2       366       365       514      1899      2339      2340
 -1       869    8    0    1
 -2       365       513       514      2337      2341      2339
 -1       870    8    0    1
 -2       367       366       515      1902      2342      2343
 -1       871    8    0    1
 -2       366       514       515      2340      2344      2342
 -1       872    8    0    1
 -2       368       367       516      1905      2345      2346
 -1       873    8    0    1
 -2       367       515       516      2343      2347      2345
 -1       874    8    0    1
 -2       369       368       517      1908      2348      2349
 -1       875    8    0    1
 -2       368       516       517      2346      2350      2348
 -1       876    8    0    1
 -2       370       369       518      1911      2351      2352
 -1       877    8    0    1
 -2       369       517       518      2349      2353      2351
 -1       878    8    0    1
 -2       371       370       519      1914      2354      2355
 -1       879    8    0    1
 -2       370       518       519      2352      2356      2354
 -1       880    8    0    1
 -2       372       371       520      1917      2357      2358
 -1       881    8    0    1
 -2       371       519       520      2355      2359      2357
 -1       882    8    0    1
 -2       373       372       521      1920      2360      2361
 -1       883    8    0    1
 -2       372       520       521      2358      2362      2360
 -1       884    8    0    1
 -2       374       373       522      1923      2363      2364
 -1       885    8    0    1
 -2       373       521       522      2361      2365      2363
 -1       886    8    0    1
 -2       375       374       523      1926      2366      2367
 -1       887    8    0    1
 -2       374       522       523      2364      2368      2366
 -1       888    8    0    1
 -2       376       375       524      1929      2369      2370
 -1       889    8    0    1
 -2       375       523       524      2367      2371      2369
 -1       890    8    0    1
 -2       377       376       525      1932      2372      2373
 -1       891    8    0    1
 -2       376       524       525      2370      2374      2372
 -1       892    8    0    1
 -2       378       377       526      1935      2375      2376
 -1       893    8    0    1
 -2       377       525       526      2373      2377      2375
 -1       894    8    0    1
 -2       379       378       527      1938      2378      2379
 -1       895    8    0    1
 -2       378       526       527      2376      2380      2378
 -1       896    8    0    1
 -2       383       384       528      1954      2381      2382
 -1       897    8    0    1
 -2       384       385       529      1957      2383      2384
 -1       898    8    0    1
 -2       384       529       528      2384      2385      2381
 -1       899    8    0    1
 -2       385       386       530      1960      2386      2387
 -1       900    8    0    1
 -2       385       530       529      2387      2388      2383
 -1       901    8    0    1
 -2       386       387       531      1963      2389      2390
 -1       902    8    0    1
 -2       386       531       530      2390      2391      2386
 -1       903    8    0    1
 -2       387       388       532      1966      2392      2393
 -1       904    8    0    1
 -2       387       532       531      2393      2394      2389
 -1       905    8    0    1
 -2       388       389       533      1969      2395      2396
 -1       906    8    0    1
 -2       388       533       532      2396      2397      2392
 -1       907    8    0    1
 -2       389       390       534      1972      2398      2399
 -1       908    8    0    1
 -2       389       534       533      2399      2400      2395
 -1       909    8    0    1
 -2       390       391       535      1975      2401      2402
 -1       910    8    0    1
 -2       390       535       534      2402      2403      2398
 -1       911    8    0    1
 -2       391       392       536      1978      2404      2405
 -1       912    8    0    1
 -2       391       536       535      2405      2406      2401
 -1       913    8    0    1
 -2       392       393       537      1981      2407      2408
 -1       914    8    0    1
 -2       392       537       536      2408      2409      2404
 -1       915    8    0    1
 -2       393       394       538      1984      2410      2411
 -1       916    8    0    1
 -2       393       538       537      2411      2412      2407
 -1       917    8    0    1
 -2       394       395       539      1987      2413      2414
 -1       918    8    0    1
 -2       394       539       538      2414      2415      2410
 -1       919    8    0    1
 -2       395       396       540      1990      2416      2417
 -1       920    8    0    1
 -2       395       540       539      2417      2418      2413
 -1       921    8    0    1
 -2       396       397       541      1993      2419      2420
 -1       922    8    0    1
 -2       396       541       540      2420      2421      2416
 -1       923    8    0    1
 -2       397       398       542      1996      2422      2423
 -1       924    8    0    1
 -2       397       542       541      2423      2424      2419
 -1       925    8    0    1
 -2       398       399       543      1999      2425      2426
 -1       926    8    0    1
 -2       398       543       542      2426      2427      2422
 -1       927    8    0    1
 -2       399       400       544      2002      2428      2429
 -1       928    8    0    1
 -2       399       544       543      2429      2430      2425
 -1       929    8    0    1
 -2       400       401       545      2005      2431      2432
 -1       930    8    0    1
 -2       400       545       544      2432      2433      2428
 -1       931    8    0    1
 -2       401       402       546      2008      2434      2435
 -1       932    8    0    1
 -2       401       546       545      2435      2436      2431
 -1       933    8    0    1
 -2       402       403       547      2011      2437      2438
 -1       934    8    0    1
 -2       402       547       546      2438      2439      2434
 -1       935    8    0    1
 -2       403       404       548      2014      2440      2441
 -1       936    8    0    1
 -2       403       548       547      2441      2442      2437
 -1       937    8    0    1
 -2       404       405       549      2017      2443      2444
 -1       938    8    0    1
 -2       404       549       548      2444      2445      2440
 -1       939    8    0    1
 -2       405       406       550      2020      2446      2447
 -1       940    8    0    1
 -2       405       550       549      2447      2448      2443
 -1       941    8    0    1
 -2       406       407       551      2023      2449      2450
 -1       942    8    0    1
 -2       406       551       550      2450      2451      2446
 -1       943    8    0    1
 -2       407       408       552      2026      2452      2453
 -1       944    8    0    1
 -2       407       552       551      2453      2454      2449
 -1       945    8    0    1
 -2       408       409       553      2029      2455      2456
 -1       946    8    0    1
 -2       408       553       552      2456      2457      2452
 -1       947    8    0    1
 -2       409       410       554      2032      2458      2459
 -1       948    8    0    1
 -2       409       554       553      2459      2460      2455
 -1       949    8    0    1
 -2       410       411       555      2035      2461      2462
 -1       950    8    0    1
 -2       410       555       554      2462      2463      2458
 -1       951    8    0    1
 -2       411       412       556      2038      2464      2465
 -1       952    8    0    1
 -2       411       556       555      2465      2466      2461
 -1       953    8    0    1
 -2       412       413       557      2041      2467      2468
 -1       954    8    0    1
 -2       412       557       556      2468      2469      2464
 -1       955    8    0    1
 -2       413       414       558      2044      2470      2471
 -1       956    8    0    1
 -2       413       558       557      2471      2472      2467
 -1       957    8    0    1
 -2       414       415       559      2047      2473      2474
 -1       958    8    0    1
 -2       414       559       558      2474      2475      2470
 -1       959    8    0    1
 -2       415       416       560      2050      2476      2477
 -1       960    8    0    1
 -2       415       560       559      2477      2478      2473
 -1       961    8    0    1
 -2       416       417       561      2053      2479      2480
 -1       962    8    0    1
 -2       416       561       560      2480      2481      2476
 -1       963    8    0    1
 -2       417       418       562      2056      2482      2483
 -1       964    8    0    1
 -2       417       562       561      2483      2484      2479
 -1       965    8    0    1
 -2       418       419       563      2059      2485      2486
 -1       966    8    0    1
 -2       418       563       562      2486      2487      2482
 -1       967    8    0    1
 -2       419       420       564      2062      2488      2489
 -1       968    8    0    1
 -2       419       564       563      2489      2490      2485
 -1       969    8    0    1
 -2       420       421       565      2065      2491      2492
 -1       970    8    0    1
 -2       420       565       564      2492      2493      2488
 -1       971    8    0    1
 -2       421       422       566      2068      2494      2495
 -1       972    8    0    1
 -2       421       566       565      2495      2496      2491
 -1       973    8    0    1
 -2       422       423       567      2071      2497      2498
 -1       974    8    0    1
 -2       422       567       566      2498      2499      2494
 -1       975    8    0    1
 -2       423       424       568      2074      2500      2501
 -1       976    8    0    1
 -2       423       568       567      2501      2502      2497
 -1       977    8    0    1
 -2       424       425       569      2077      2503      2504
 -1       978    8    0    1
 -2       424       569       568      2504      2505      2500
 -1       979    8    0    1
 -2       425       426       429      2080      2089      2506
 -1       980    8    0    1
 -2       430       431       570      2096      2507      2508
 -1       981    8    0    1
 -2       431       432       571      2099      2509      2510
 -1       982    8    0    1
 -2       431       571       570      2510      2511      2507
 -1       983    8    0    1
 -2       428       427       572      2086      2512      2513
 -1       984    8    0    1
 -2       427       430       573      2093      2514      2515
 -1       985    8    0    1
 -2       572       427       573      2512      2515      2516
 -1       986    8    0    1
 -2       430       570       573      2508      2517      2514
 -1       987    8    0    1
 -2       432       433       574      2102      2518      2519
 -1       988    8    0    1
 -2       432       574       571      2519      2520      2509
 -1       989    8    0    1
 -2       433       434       575      2105      2521      2522
 -1       990    8    0    1
 -2       433       575       574      2522      2523      2518
 -1       991    8    0    1
 -2       434       435       576      2108      2524      2525
 -1       992    8    0    1
 -2       434       576       575      2525      2526      2521
 -1       993    8    0    1
 -2       435       436       577      2111      2527      2528
 -1       994    8    0    1
 -2       435       577       576      2528      2529      2524
 -1       995    8    0    1
 -2       436       437       578      2114      2530      2531
 -1       996    8    0    1
 -2       436       578       577      2531      2532      2527
 -1       997    8    0    1
 -2       437       438       579      2117      2533      2534
 -1       998    8    0    1
 -2       437       579       578      2534      2535      2530
 -1       999    8    0    1
 -2       438       439       580      2120      2536      2537
 -1      1000    8    0    1
 -2       438       580       579      2537      2538      2533
 -1      1001    8    0    1
 -2       440       443       581      2200      2539      2540
 -1      1002    8    0    1
 -2       382       383       582      1951      2541      2542
 -1      1003    8    0    1
 -2       383       528       582      2382      2543      2541
 -1      1004    8    0    1
 -2       444       469       583      2188      2544      2545
 -1      1005    8    0    1
 -2       439       290       380      2199      1941      2546
 -1      1006    8    0    1
 -2       467       468       584      2201      2547      2548
 -1      1007    8    0    1
 -2       442       440       585      2195      2549      2550
 -1      1008    8    0    1
 -2       440       581       585      2540      2551      2549
 -1      1009    8    0    1
 -2       468       441       586      2185      2552      2553
 -1      1010    8    0    1
 -2       468       586       584      2553      2554      2547
 -1      1011    8    0    1
 -2       324       325       587      1774      2555      2556
 -1      1012    8    0    1
 -2       474       324       587      2223      2556      2557
 -1      1013    8    0    1
 -2       325       476       587      2229      2558      2555
 -1      1014    8    0    1
 -2       446       447       588      2218      2559      2560
 -1      1015    8    0    1
 -2       449       450       589      2219      2561      2562
 -1      1016    8    0    1
 -2       447       448       590      2141      2563      2564
 -1      1017    8    0    1
 -2       462       463       591      2220      2565      2566
 -1      1018    8    0    1
 -2       448       449       592      2217      2567      2568
 -1      1019    8    0    1
 -2       448       592       590      2568      2569      2563
 -1      1020    8    0    1
 -2       450       451       593      2216      2570      2571
 -1      1021    8    0    1
 -2       451       452       594      2215      2572      2573
 -1      1022    8    0    1
 -2       451       594       593      2573      2574      2570
 -1      1023    8    0    1
 -2       452       453       595      2214      2575      2576
 -1      1024    8    0    1
 -2       453       454       596      2213      2577      2578
 -1      1025    8    0    1
 -2       453       596       595      2578      2579      2575
 -1      1026    8    0    1
 -2       454       455       597      2212      2580      2581
 -1      1027    8    0    1
 -2       456       457       598      2160      2582      2583
 -1      1028    8    0    1
 -2       457       458       599      2208      2584      2585
 -1      1029    8    0    1
 -2       458       459       600      2165      2586      2587
 -1      1030    8    0    1
 -2       459       460       601      2207      2588      2589
 -1      1031    8    0    1
 -2       460       461       602      2170      2590      2591
 -1      1032    8    0    1
 -2       461       462       603      2206      2592      2593
 -1      1033    8    0    1
 -2       463       464       604      2205      2594      2595
 -1      1034    8    0    1
 -2       464       465       605      2204      2596      2597
 -1      1035    8    0    1
 -2       465       466       606      2203      2598      2599
 -1      1036    8    0    1
 -2       465       606       605      2599      2600      2596
 -1      1037    8    0    1
 -2       466       467       607      2202      2601      2602
 -1      1038    8    0    1
 -2       335       321       608      2194      2603      2604
 -1      1039    8    0    1
 -2       483       335       608      2248      2604      2605
 -1      1040    8    0    1
 -2       321       320       608      1763      2606      2603
 -1      1041    8    0    1
 -2       333       334       609      1803      2607      2608
 -1      1042    8    0    1
 -2       332       333       609      1798      2608      2609
 -1      1043    8    0    1
 -2       334       473       609      2222      2610      2607
 -1      1044    8    0    1
 -2       446       588       484      2560      2611      2250
 -1      1045    8    0    1
 -2       322       475       610      2226      2612      2613
 -1      1046    8    0    1
 -2       322       610       445      2613      2614      2134
 -1      1047    8    0    1
 -2       482       382       582      2245      2542      2615
 -1      1048    8    0    1
 -2       331       332       609      1795      2609      2616
 -1      1049    8    0    1
 -2       608       320       445      2606      2133      2617
 -1      1050    8    0    1
 -2       606       466       611      2598      2618      2619
 -1      1051    8    0    1
 -2       466       607       611      2602      2620      2618
 -1      1052    8    0    1
 -2       443       470       612      2190      2621      2622
 -1      1053    8    0    1
 -2       443       612       581      2622      2623      2539
 -1      1054    8    0    1
 -2       469       484       583      2251      2624      2544
 -1      1055    8    0    1
 -2       604       464       605      2594      2597      2625
 -1      1056    8    0    1
 -2       467       584       607      2548      2626      2601
 -1      1057    8    0    1
 -2       471       442       613      2198      2627      2628
 -1      1058    8    0    1
 -2       442       585       613      2550      2629      2627
 -1      1059    8    0    1
 -2       425       429       569      2506      2630      2503
 -1      1060    8    0    1
 -2       429       428       569      2090      2631      2630
 -1      1061    8    0    1
 -2       603       462       591      2592      2566      2632
 -1      1062    8    0    1
 -2       441       471       614      2197      2633      2634
 -1      1063    8    0    1
 -2       441       614       586      2634      2635      2552
 -1      1064    8    0    1
 -2       602       461       603      2590      2593      2636
 -1      1065    8    0    1
 -2       601       460       602      2588      2591      2637
 -1      1066    8    0    1
 -2       331       609       481      2616      2638      2242
 -1      1067    8    0    1
 -2       439       380       615      2546      2639      2640
 -1      1068    8    0    1
 -2       580       439       615      2536      2640      2641
 -1      1069    8    0    1
 -2       380       379       615      1942      2642      2639
 -1      1070    8    0    1
 -2       600       459       601      2586      2589      2643
 -1      1071    8    0    1
 -2       599       458       600      2584      2587      2644
 -1      1072    8    0    1
 -2       598       457       599      2582      2585      2645
 -1      1073    8    0    1
 -2       596       454       597      2577      2581      2646
 -1      1074    8    0    1
 -2       594       452       616      2572      2647      2648
 -1      1075    8    0    1
 -2       452       595       616      2576      2649      2647
 -1      1076    8    0    1
 -2       592       449       589      2567      2562      2650
 -1      1077    8    0    1
 -2       591       463       604      2565      2595      2651
 -1      1078    8    0    1
 -2       472       456       598      2211      2583      2652
 -1      1079    8    0    1
 -2       455       472       617      2210      2653      2654
 -1      1080    8    0    1
 -2       455       617       597      2654      2655      2580
 -1      1081    8    0    1
 -2       450       593       589      2571      2656      2561
 -1      1082    8    0    1
 -2       447       590       588      2564      2657      2559
 -1      1083    8    0    1
 -2       444       583       618      2545      2658      2659
 -1      1084    8    0    1
 -2       444       618       470      2659      2660      2191
 -1      1085    8    0    1
 -2       569       428       572      2631      2513      2661
 -1      1086    8    0    1
 -2       615       379       527      2642      2379      2662
 -1      1087    8    0    1
 -2       477       478       619      2235      2663      2664
 -1      1088    8    0    1
 -2       476       477       620      2232      2665      2666
 -1      1089    8    0    1
 -2       477       619       620      2664      2667      2665
 -1      1090    8    0    1
 -2       479       480       621      2241      2668      2669
 -1      1091    8    0    1
 -2       480       481       622      2244      2670      2671
 -1      1092    8    0    1
 -2       480       622       621      2671      2672      2668
 -1      1093    8    0    1
 -2       473       482       623      2247      2673      2674
 -1      1094    8    0    1
 -2       580       615       624      2641      2675      2676
 -1      1095    8    0    1
 -2       615       527       624      2662      2677      2675
 -1      1096    8    0    1
 -2       609       473       481      2610      2678      2638
 -1      1097    8    0    1
 -2       486       485       625      2257      2679      2680
 -1      1098    8    0    1
 -2       487       486       626      2260      2681      2682
 -1      1099    8    0    1
 -2       486       625       626      2680      2683      2681
 -1      1100    8    0    1
 -2       488       487       627      2263      2684      2685
 -1      1101    8    0    1
 -2       487       626       627      2682      2686      2684
 -1      1102    8    0    1
 -2       489       488       628      2266      2687      2688
 -1      1103    8    0    1
 -2       488       627       628      2685      2689      2687
 -1      1104    8    0    1
 -2       490       489       629      2269      2690      2691
 -1      1105    8    0    1
 -2       489       628       629      2688      2692      2690
 -1      1106    8    0    1
 -2       491       490       630      2272      2693      2694
 -1      1107    8    0    1
 -2       490       629       630      2691      2695      2693
 -1      1108    8    0    1
 -2       492       491       631      2275      2696      2697
 -1      1109    8    0    1
 -2       491       630       631      2694      2698      2696
 -1      1110    8    0    1
 -2       493       492       632      2278      2699      2700
 -1      1111    8    0    1
 -2       492       631       632      2697      2701      2699
 -1      1112    8    0    1
 -2       494       493       633      2281      2702      2703
 -1      1113    8    0    1
 -2       493       632       633      2700      2704      2702
 -1      1114    8    0    1
 -2       495       494       634      2284      2705      2706
 -1      1115    8    0    1
 -2       494       633       634      2703      2707      2705
 -1      1116    8    0    1
 -2       496       495       635      2287      2708      2709
 -1      1117    8    0    1
 -2       495       634       635      2706      2710      2708
 -1      1118    8    0    1
 -2       497       496       636      2290      2711      2712
 -1      1119    8    0    1
 -2       496       635       636      2709      2713      2711
 -1      1120    8    0    1
 -2       498       497       637      2293      2714      2715
 -1      1121    8    0    1
 -2       497       636       637      2712      2716      2714
 -1      1122    8    0    1
 -2       499       498       638      2296      2717      2718
 -1      1123    8    0    1
 -2       498       637       638      2715      2719      2717
 -1      1124    8    0    1
 -2       500       499       639      2299      2720      2721
 -1      1125    8    0    1
 -2       499       638       639      2718      2722      2720
 -1      1126    8    0    1
 -2       501       500       640      2302      2723      2724
 -1      1127    8    0    1
 -2       500       639       640      2721      2725      2723
 -1      1128    8    0    1
 -2       502       501       641      2305      2726      2727
 -1      1129    8    0    1
 -2       501       640       641      2724      2728      2726
 -1      1130    8    0    1
 -2       503       502       642      2308      2729      2730
 -1      1131    8    0    1
 -2       502       641       642      2727      2731      2729
 -1      1132    8    0    1
 -2       504       503       643      2311      2732      2733
 -1      1133    8    0    1
 -2       503       642       643      2730      2734      2732
 -1      1134    8    0    1
 -2       505       504       644      2314      2735      2736
 -1      1135    8    0    1
 -2       504       643       644      2733      2737      2735
 -1      1136    8    0    1
 -2       506       505       645      2317      2738      2739
 -1      1137    8    0    1
 -2       505       644       645      2736      2740      2738
 -1      1138    8    0    1
 -2       507       506       646      2320      2741      2742
 -1      1139    8    0    1
 -2       506       645       646      2739      2743      2741
 -1      1140    8    0    1
 -2       508       507       647      2323      2744      2745
 -1      1141    8    0    1
 -2       507       646       647      2742      2746      2744
 -1      1142    8    0    1
 -2       509       508       648      2326      2747      2748
 -1      1143    8    0    1
 -2       508       647       648      2745      2749      2747
 -1      1144    8    0    1
 -2       510       509       649      2329      2750      2751
 -1      1145    8    0    1
 -2       509       648       649      2748      2752      2750
 -1      1146    8    0    1
 -2       511       510       650      2332      2753      2754
 -1      1147    8    0    1
 -2       510       649       650      2751      2755      2753
 -1      1148    8    0    1
 -2       512       511       651      2335      2756      2757
 -1      1149    8    0    1
 -2       511       650       651      2754      2758      2756
 -1      1150    8    0    1
 -2       513       512       652      2338      2759      2760
 -1      1151    8    0    1
 -2       512       651       652      2757      2761      2759
 -1      1152    8    0    1
 -2       514       513       653      2341      2762      2763
 -1      1153    8    0    1
 -2       513       652       653      2760      2764      2762
 -1      1154    8    0    1
 -2       515       514       654      2344      2765      2766
 -1      1155    8    0    1
 -2       514       653       654      2763      2767      2765
 -1      1156    8    0    1
 -2       516       515       655      2347      2768      2769
 -1      1157    8    0    1
 -2       515       654       655      2766      2770      2768
 -1      1158    8    0    1
 -2       517       516       656      2350      2771      2772
 -1      1159    8    0    1
 -2       516       655       656      2769      2773      2771
 -1      1160    8    0    1
 -2       518       517       657      2353      2774      2775
 -1      1161    8    0    1
 -2       517       656       657      2772      2776      2774
 -1      1162    8    0    1
 -2       519       518       658      2356      2777      2778
 -1      1163    8    0    1
 -2       518       657       658      2775      2779      2777
 -1      1164    8    0    1
 -2       520       519       659      2359      2780      2781
 -1      1165    8    0    1
 -2       519       658       659      2778      2782      2780
 -1      1166    8    0    1
 -2       521       520       660      2362      2783      2784
 -1      1167    8    0    1
 -2       520       659       660      2781      2785      2783
 -1      1168    8    0    1
 -2       522       521       661      2365      2786      2787
 -1      1169    8    0    1
 -2       521       660       661      2784      2788      2786
 -1      1170    8    0    1
 -2       523       522       662      2368      2789      2790
 -1      1171    8    0    1
 -2       522       661       662      2787      2791      2789
 -1      1172    8    0    1
 -2       524       523       663      2371      2792      2793
 -1      1173    8    0    1
 -2       523       662       663      2790      2794      2792
 -1      1174    8    0    1
 -2       525       524       664      2374      2795      2796
 -1      1175    8    0    1
 -2       524       663       664      2793      2797      2795
 -1      1176    8    0    1
 -2       526       525       665      2377      2798      2799
 -1      1177    8    0    1
 -2       525       664       665      2796      2800      2798
 -1      1178    8    0    1
 -2       527       526       666      2380      2801      2802
 -1      1179    8    0    1
 -2       624       527       666      2677      2802      2803
 -1      1180    8    0    1
 -2       526       665       666      2799      2804      2801
 -1      1181    8    0    1
 -2       529       530       667      2388      2805      2806
 -1      1182    8    0    1
 -2       600       601       668      2643      2807      2808
 -1      1183    8    0    1
 -2       528       529       669      2385      2809      2810
 -1      1184    8    0    1
 -2       529       667       669      2806      2811      2809
 -1      1185    8    0    1
 -2       531       532       670      2394      2812      2813
 -1      1186    8    0    1
 -2       532       533       671      2397      2814      2815
 -1      1187    8    0    1
 -2       532       671       670      2815      2816      2812
 -1      1188    8    0    1
 -2       533       534       672      2400      2817      2818
 -1      1189    8    0    1
 -2       533       672       671      2818      2819      2814
 -1      1190    8    0    1
 -2       534       535       673      2403      2820      2821
 -1      1191    8    0    1
 -2       534       673       672      2821      2822      2817
 -1      1192    8    0    1
 -2       535       536       674      2406      2823      2824
 -1      1193    8    0    1
 -2       535       674       673      2824      2825      2820
 -1      1194    8    0    1
 -2       536       537       675      2409      2826      2827
 -1      1195    8    0    1
 -2       536       675       674      2827      2828      2823
 -1      1196    8    0    1
 -2       537       538       676      2412      2829      2830
 -1      1197    8    0    1
 -2       537       676       675      2830      2831      2826
 -1      1198    8    0    1
 -2       538       539       677      2415      2832      2833
 -1      1199    8    0    1
 -2       538       677       676      2833      2834      2829
 -1      1200    8    0    1
 -2       539       540       678      2418      2835      2836
 -1      1201    8    0    1
 -2       539       678       677      2836      2837      2832
 -1      1202    8    0    1
 -2       540       541       679      2421      2838      2839
 -1      1203    8    0    1
 -2       540       679       678      2839      2840      2835
 -1      1204    8    0    1
 -2       541       542       680      2424      2841      2842
 -1      1205    8    0    1
 -2       541       680       679      2842      2843      2838
 -1      1206    8    0    1
 -2       542       543       681      2427      2844      2845
 -1      1207    8    0    1
 -2       542       681       680      2845      2846      2841
 -1      1208    8    0    1
 -2       543       544       682      2430      2847      2848
 -1      1209    8    0    1
 -2       543       682       681      2848      2849      2844
 -1      1210    8    0    1
 -2       544       545       683      2433      2850      2851
 -1      1211    8    0    1
 -2       544       683       682      2851      2852      2847
 -1      1212    8    0    1
 -2       545       546       684      2436      2853      2854
 -1      1213    8    0    1
 -2       545       684       683      2854      2855      2850
 -1      1214    8    0    1
 -2       546       547       685      2439      2856      2857
 -1      1215    8    0    1
 -2       546       685       684      2857      2858      2853
 -1      1216    8    0    1
 -2       547       548       686      2442      2859      2860
 -1      1217    8    0    1
 -2       547       686       685      2860      2861      2856
 -1      1218    8    0    1
 -2       548       549       687      2445      2862      2863
 -1      1219    8    0    1
 -2       548       687       686      2863      2864      2859
 -1      1220    8    0    1
 -2       549       550       688      2448      2865      2866
 -1      1221    8    0    1
 -2       549       688       687      2866      2867      2862
 -1      1222    8    0    1
 -2       550       551       689      2451      2868      2869
 -1      1223    8    0    1
 -2       550       689       688      2869      2870      2865
 -1      1224    8    0    1
 -2       551       552       690      2454      2871      2872
 -1      1225    8    0    1
 -2       551       690       689      2872      2873      2868
 -1      1226    8    0    1
 -2       552       553       691      2457      2874      2875
 -1      1227    8    0    1
 -2       552       691       690      2875      2876      2871
 -1      1228    8    0    1
 -2       553       554       692      2460      2877      2878
 -1      1229    8    0    1
 -2       553       692       691      2878      2879      2874
 -1      1230    8    0    1
 -2       554       555       693      2463      2880      2881
 -1      1231    8    0    1
 -2       554       693       692      2881      2882      2877
 -1      1232    8    0    1
 -2       555       556       694      2466      2883      2884
 -1      1233    8    0    1
 -2       555       694       693      2884      2885      2880
 -1      1234    8    0    1
 -2       556       557       695      2469      2886      2887
 -1      1235    8    0    1
 -2       556       695       694      2887      2888      2883
 -1      1236    8    0    1
 -2       557       558       696      2472      2889      2890
 -1      1237    8    0    1
 -2       557       696       695      2890      2891      2886
 -1      1238    8    0    1
 -2       558       559       697      2475      2892      2893
 -1      1239    8    0    1
 -2       558       697       696      2893      2894      2889
 -1      1240    8    0    1
 -2       559       560       698      2478      2895      2896
 -1      1241    8    0    1
 -2       559       698       697      2896      2897      2892
 -1      1242    8    0    1
 -2       560       561       699      2481      2898      2899
 -1      1243    8    0    1
 -2       560       699       698      2899      2900      2895
 -1      1244    8    0    1
 -2       561       562       700      2484      2901      2902
 -1      1245    8    0    1
 -2       561       700       699      2902      2903      2898
 -1      1246    8    0    1
 -2       562       563       701      2487      2904      2905
 -1      1247    8    0    1
 -2       562       701       700      2905      2906      2901
 -1      1248    8    0    1
 -2       563       564       702      2490      2907      2908
 -1      1249    8    0    1
 -2       563       702       701      2908      2909      2904
 -1      1250    8    0    1
 -2       564       565       703      2493      2910      2911
 -1      1251    8    0    1
 -2       564       703       702      2911      2912      2907
 -1      1252    8    0    1
 -2       565       566       704      2496      2913      2914
 -1      1253    8    0    1
 -2       565       704       703      2914      2915      2910
 -1      1254    8    0    1
 -2       566       567       705      2499      2916      2917
 -1      1255    8    0    1
 -2       566       705       704      2917      2918      2913
 -1      1256    8    0    1
 -2       567       568       706      2502      2919      2920
 -1      1257    8    0    1
 -2       567       706       705      2920      2921      2916
 -1      1258    8    0    1
 -2       568       569       707      2505      2922      2923
 -1      1259    8    0    1
 -2       706       568       707      2919      2923      2924
 -1      1260    8    0    1
 -2       569       572       707      2661      2925      2922
 -1      1261    8    0    1
 -2       574       575       708      2523      2926      2927
 -1      1262    8    0    1
 -2       570       571       709      2511      2928      2929
 -1      1263    8    0    1
 -2       575       576       710      2526      2930      2931
 -1      1264    8    0    1
 -2       575       710       708      2931      2932      2926
 -1      1265    8    0    1
 -2       571       574       711      2520      2933      2934
 -1      1266    8    0    1
 -2       709       571       711      2928      2934      2935
 -1      1267    8    0    1
 -2       574       708       711      2927      2936      2933
 -1      1268    8    0    1
 -2       582       528       712      2543      2937      2938
 -1      1269    8    0    1
 -2       528       669       712      2810      2939      2937
 -1      1270    8    0    1
 -2       576       577       713      2529      2940      2941
 -1      1271    8    0    1
 -2       576       713       710      2941      2942      2930
 -1      1272    8    0    1
 -2       577       578       714      2532      2943      2944
 -1      1273    8    0    1
 -2       577       714       713      2944      2945      2940
 -1      1274    8    0    1
 -2       578       579       715      2535      2946      2947
 -1      1275    8    0    1
 -2       578       715       714      2947      2948      2943
 -1      1276    8    0    1
 -2       579       580       624      2538      2676      2949
 -1      1277    8    0    1
 -2       584       586       716      2554      2950      2951
 -1      1278    8    0    1
 -2       583       484       717      2624      2952      2953
 -1      1279    8    0    1
 -2       604       605       718      2625      2954      2955
 -1      1280    8    0    1
 -2       602       603       634      2636      2956      2957
 -1      1281    8    0    1
 -2       585       581       719      2551      2958      2959
 -1      1282    8    0    1
 -2       530       531       720      2391      2960      2961
 -1      1283    8    0    1
 -2       667       530       720      2805      2961      2962
 -1      1284    8    0    1
 -2       531       670       720      2813      2963      2960
 -1      1285    8    0    1
 -2       485       483       721      2254      2964      2965
 -1      1286    8    0    1
 -2       485       721       625      2965      2966      2679
 -1      1287    8    0    1
 -2       478       479       722      2238      2967      2968
 -1      1288    8    0    1
 -2       619       478       722      2663      2968      2969
 -1      1289    8    0    1
 -2       479       621       722      2669      2970      2967
 -1      1290    8    0    1
 -2       482       582       723      2615      2971      2972
 -1      1291    8    0    1
 -2       623       482       723      2673      2972      2973
 -1      1292    8    0    1
 -2       582       712       723      2938      2974      2971
 -1      1293    8    0    1
 -2       588       590       724      2657      2975      2976
 -1      1294    8    0    1
 -2       608       445       610      2617      2614      2977
 -1      1295    8    0    1
 -2       475       474       725      2227      2978      2979
 -1      1296    8    0    1
 -2       591       604       726      2651      2980      2981
 -1      1297    8    0    1
 -2       590       592       727      2569      2982      2983
 -1      1298    8    0    1
 -2       592       589       728      2650      2984      2985
 -1      1299    8    0    1
 -2       593       594       729      2574      2986      2987
 -1      1300    8    0    1
 -2       595       596       730      2579      2988      2989
 -1      1301    8    0    1
 -2       589       593       731      2656      2990      2991
 -1      1302    8    0    1
 -2       596       597       732      2646      2992      2993
 -1      1303    8    0    1
 -2       598       599       733      2645      2994      2995
 -1      1304    8    0    1
 -2       599       600       734      2644      2996      2997
 -1      1305    8    0    1
 -2       601       602       735      2637      2998      2999
 -1      1306    8    0    1
 -2       601       735       668      2999      3000      2807
 -1      1307    8    0    1
 -2       484       588       736      2611      3001      3002
 -1      1308    8    0    1
 -2       484       736       717      3002      3003      2952
 -1      1309    8    0    1
 -2       472       598       737      2652      3004      3005
 -1      1310    8    0    1
 -2       607       584       738      2626      3006      3007
 -1      1311    8    0    1
 -2       584       716       738      2951      3008      3006
 -1      1312    8    0    1
 -2       605       606       739      2600      3009      3010
 -1      1313    8    0    1
 -2       610       475       740      2612      3011      3012
 -1      1314    8    0    1
 -2       475       725       740      2979      3013      3011
 -1      1315    8    0    1
 -2       476       620       741      2666      3014      3015
 -1      1316    8    0    1
 -2       476       741       587      3015      3016      2558
 -1      1317    8    0    1
 -2       724       590       727      2975      2983      3017
 -1      1318    8    0    1
 -2       605       739       718      3010      3018      2954
 -1      1319    8    0    1
 -2       611       607       742      2620      3019      3020
 -1      1320    8    0    1
 -2       607       738       742      3007      3021      3019
 -1      1321    8    0    1
 -2       612       470       743      2621      3022      3023
 -1      1322    8    0    1
 -2       470       618       743      2660      3024      3022
 -1      1323    8    0    1
 -2       581       612       744      2623      3025      3026
 -1      1324    8    0    1
 -2       581       744       719      3026      3027      2958
 -1      1325    8    0    1
 -2       613       585       745      2629      3028      3029
 -1      1326    8    0    1
 -2       585       719       745      2959      3030      3028
 -1      1327    8    0    1
 -2       600       668       734      2808      3031      2996
 -1      1328    8    0    1
 -2       707       572       746      2925      3032      3033
 -1      1329    8    0    1
 -2       572       573       746      2516      3034      3032
 -1      1330    8    0    1
 -2       481       473       623      2678      2674      3035
 -1      1331    8    0    1
 -2       481       623       622      3035      3036      2670
 -1      1332    8    0    1
 -2       614       471       747      2633      3037      3038
 -1      1333    8    0    1
 -2       471       613       747      2628      3039      3037
 -1      1334    8    0    1
 -2       579       624       715      2949      3040      2946
 -1      1335    8    0    1
 -2       472       737       617      3005      3041      2653
 -1      1336    8    0    1
 -2       716       586       614      2950      2635      3042
 -1      1337    8    0    1
 -2       583       717       748      2953      3043      3044
 -1      1338    8    0    1
 -2       583       748       618      3044      3045      2658
 -1      1339    8    0    1
 -2       730       596       732      2988      2993      3046
 -1      1340    8    0    1
 -2       604       718       726      2955      3047      2980
 -1      1341    8    0    1
 -2       733       599       734      2994      2997      3048
 -1      1342    8    0    1
 -2       732       597       749      2992      3049      3050
 -1      1343    8    0    1
 -2       597       617       749      2655      3051      3049
 -1      1344    8    0    1
 -2       731       593       729      2990      2987      3052
 -1      1345    8    0    1
 -2       474       587       750      2557      3053      3054
 -1      1346    8    0    1
 -2       725       474       750      2978      3054      3055
 -1      1347    8    0    1
 -2       587       741       750      3016      3056      3053
 -1      1348    8    0    1
 -2       603       591       751      2632      3057      3058
 -1      1349    8    0    1
 -2       729       594       752      2986      3059      3060
 -1      1350    8    0    1
 -2       594       616       752      2648      3061      3059
 -1      1351    8    0    1
 -2       616       595       730      2649      2989      3062
 -1      1352    8    0    1
 -2       573       570       753      2517      3063      3064
 -1      1353    8    0    1
 -2       746       573       753      3034      3064      3065
 -1      1354    8    0    1
 -2       570       709       753      2929      3066      3063
 -1      1355    8    0    1
 -2       728       589       731      2984      2991      3067
 -1      1356    8    0    1
 -2       727       592       728      2982      2985      3068
 -1      1357    8    0    1
 -2       608       610       754      2977      3069      3070
 -1      1358    8    0    1
 -2       483       608       754      2605      3070      3071
 -1      1359    8    0    1
 -2       610       740       754      3012      3072      3069
 -1      1360    8    0    1
 -2       751       591       726      3057      2981      3073
 -1      1361    8    0    1
 -2       606       611       755      2619      3074      3075
 -1      1362    8    0    1
 -2       606       755       739      3075      3076      3009
 -1      1363    8    0    1
 -2       483       754       721      3071      3077      2964
 -1      1364    8    0    1
 -2       598       733       737      2995      3078      3004
 -1      1365    8    0    1
 -2       736       588       724      3001      2976      3079
 -1      1366    8    0    1
 -2       622       623       756      3036      3080      3081
 -1      1367    8    0    1
 -2       623       723       756      2973      3082      3080
 -1      1368    8    0    1
 -2       621       622       756      2672      3081      3083
 -1      1369    8    0    1
 -2       626       625       757      2683      3084      3085
 -1      1370    8    0    1
 -2       627       626       758      2686      3086      3087
 -1      1371    8    0    1
 -2       626       757       758      3085      3088      3086
 -1      1372    8    0    1
 -2       628       627       759      2689      3089      3090
 -1      1373    8    0    1
 -2       627       758       759      3087      3091      3089
 -1      1374    8    0    1
 -2       629       628       760      2692      3092      3093
 -1      1375    8    0    1
 -2       628       759       760      3090      3094      3092
 -1      1376    8    0    1
 -2       630       629       761      2695      3095      3096
 -1      1377    8    0    1
 -2       629       760       761      3093      3097      3095
 -1      1378    8    0    1
 -2       631       630       762      2698      3098      3099
 -1      1379    8    0    1
 -2       630       761       762      3096      3100      3098
 -1      1380    8    0    1
 -2       633       632       735      2704      3101      3102
 -1      1381    8    0    1
 -2       638       637       763      2719      3103      3104
 -1      1382    8    0    1
 -2       639       638       764      2722      3105      3106
 -1      1383    8    0    1
 -2       638       763       764      3104      3107      3105
 -1      1384    8    0    1
 -2       640       639       765      2725      3108      3109
 -1      1385    8    0    1
 -2       639       764       765      3106      3110      3108
 -1      1386    8    0    1
 -2       641       640       766      2728      3111      3112
 -1      1387    8    0    1
 -2       640       765       766      3109      3113      3111
 -1      1388    8    0    1
 -2       642       641       767      2731      3114      3115
 -1      1389    8    0    1
 -2       641       766       767      3112      3116      3114
 -1      1390    8    0    1
 -2       643       642       768      2734      3117      3118
 -1      1391    8    0    1
 -2       642       767       768      3115      3119      3117
 -1      1392    8    0    1
 -2       644       643       769      2737      3120      3121
 -1      1393    8    0    1
 -2       643       768       769      3118      3122      3120
 -1      1394    8    0    1
 -2       645       644       770      2740      3123      3124
 -1      1395    8    0    1
 -2       644       769       770      3121      3125      3123
 -1      1396    8    0    1
 -2       646       645       771      2743      3126      3127
 -1      1397    8    0    1
 -2       645       770       771      3124      3128      3126
 -1      1398    8    0    1
 -2       647       646       772      2746      3129      3130
 -1      1399    8    0    1
 -2       646       771       772      3127      3131      3129
 -1      1400    8    0    1
 -2       648       647       773      2749      3132      3133
 -1      1401    8    0    1
 -2       647       772       773      3130      3134      3132
 -1      1402    8    0    1
 -2       649       648       774      2752      3135      3136
 -1      1403    8    0    1
 -2       648       773       774      3133      3137      3135
 -1      1404    8    0    1
 -2       650       649       775      2755      3138      3139
 -1      1405    8    0    1
 -2       649       774       775      3136      3140      3138
 -1      1406    8    0    1
 -2       651       650       776      2758      3141      3142
 -1      1407    8    0    1
 -2       650       775       776      3139      3143      3141
 -1      1408    8    0    1
 -2       652       651       777      2761      3144      3145
 -1      1409    8    0    1
 -2       651       776       777      3142      3146      3144
 -1      1410    8    0    1
 -2       653       652       778      2764      3147      3148
 -1      1411    8    0    1
 -2       652       777       778      3145      3149      3147
 -1      1412    8    0    1
 -2       654       653       779      2767      3150      3151
 -1      1413    8    0    1
 -2       653       778       779      3148      3152      3150
 -1      1414    8    0    1
 -2       655       654       780      2770      3153      3154
 -1      1415    8    0    1
 -2       654       779       780      3151      3155      3153
 -1      1416    8    0    1
 -2       656       655       781      2773      3156      3157
 -1      1417    8    0    1
 -2       655       780       781      3154      3158      3156
 -1      1418    8    0    1
 -2       657       656       782      2776      3159      3160
 -1      1419    8    0    1
 -2       656       781       782      3157      3161      3159
 -1      1420    8    0    1
 -2       658       657       783      2779      3162      3163
 -1      1421    8    0    1
 -2       657       782       783      3160      3164      3162
 -1      1422    8    0    1
 -2       659       658       784      2782      3165      3166
 -1      1423    8    0    1
 -2       658       783       784      3163      3167      3165
 -1      1424    8    0    1
 -2       660       659       785      2785      3168      3169
 -1      1425    8    0    1
 -2       659       784       785      3166      3170      3168
 -1      1426    8    0    1
 -2       661       660       786      2788      3171      3172
 -1      1427    8    0    1
 -2       660       785       786      3169      3173      3171
 -1      1428    8    0    1
 -2       662       661       787      2791      3174      3175
 -1      1429    8    0    1
 -2       661       786       787      3172      3176      3174
 -1      1430    8    0    1
 -2       663       662       788      2794      3177      3178
 -1      1431    8    0    1
 -2       662       787       788      3175      3179      3177
 -1      1432    8    0    1
 -2       664       663       789      2797      3180      3181
 -1      1433    8    0    1
 -2       663       788       789      3178      3182      3180
 -1      1434    8    0    1
 -2       665       664       790      2800      3183      3184
 -1      1435    8    0    1
 -2       664       789       790      3181      3185      3183
 -1      1436    8    0    1
 -2       717       736       791      3003      3186      3187
 -1      1437    8    0    1
 -2       710       713       792      2942      3188      3189
 -1      1438    8    0    1
 -2       671       672       793      2819      3190      3191
 -1      1439    8    0    1
 -2       670       671       794      2816      3192      3193
 -1      1440    8    0    1
 -2       671       793       794      3191      3194      3192
 -1      1441    8    0    1
 -2       673       674       727      2825      3195      3196
 -1      1442    8    0    1
 -2       674       675       724      2828      3197      3198
 -1      1443    8    0    1
 -2       676       677       791      2834      3199      3200
 -1      1444    8    0    1
 -2       677       678       795      2837      3201      3202
 -1      1445    8    0    1
 -2       678       679       796      2840      3203      3204
 -1      1446    8    0    1
 -2       678       796       795      3204      3205      3201
 -1      1447    8    0    1
 -2       679       680       797      2843      3206      3207
 -1      1448    8    0    1
 -2       679       797       796      3207      3208      3203
 -1      1449    8    0    1
 -2       680       681       798      2846      3209      3210
 -1      1450    8    0    1
 -2       680       798       797      3210      3211      3206
 -1      1451    8    0    1
 -2       681       682       799      2849      3212      3213
 -1      1452    8    0    1
 -2       681       799       798      3213      3214      3209
 -1      1453    8    0    1
 -2       682       683       800      2852      3215      3216
 -1      1454    8    0    1
 -2       682       800       799      3216      3217      3212
 -1      1455    8    0    1
 -2       683       684       801      2855      3218      3219
 -1      1456    8    0    1
 -2       683       801       800      3219      3220      3215
 -1      1457    8    0    1
 -2       684       685       802      2858      3221      3222
 -1      1458    8    0    1
 -2       684       802       801      3222      3223      3218
 -1      1459    8    0    1
 -2       685       686       803      2861      3224      3225
 -1      1460    8    0    1
 -2       685       803       802      3225      3226      3221
 -1      1461    8    0    1
 -2       686       687       804      2864      3227      3228
 -1      1462    8    0    1
 -2       686       804       803      3228      3229      3224
 -1      1463    8    0    1
 -2       687       688       805      2867      3230      3231
 -1      1464    8    0    1
 -2       687       805       804      3231      3232      3227
 -1      1465    8    0    1
 -2       688       689       806      2870      3233      3234
 -1      1466    8    0    1
 -2       688       806       805      3234      3235      3230
 -1      1467    8    0    1
 -2       689       690       807      2873      3236      3237
 -1      1468    8    0    1
 -2       689       807       806      3237      3238      3233
 -1      1469    8    0    1
 -2       690       691       808      2876      3239      3240
 -1      1470    8    0    1
 -2       690       808       807      3240      3241      3236
 -1      1471    8    0    1
 -2       691       692       809      2879      3242      3243
 -1      1472    8    0    1
 -2       691       809       808      3243      3244      3239
 -1      1473    8    0    1
 -2       692       693       810      2882      3245      3246
 -1      1474    8    0    1
 -2       692       810       809      3246      3247      3242
 -1      1475    8    0    1
 -2       693       694       811      2885      3248      3249
 -1      1476    8    0    1
 -2       693       811       810      3249      3250      3245
 -1      1477    8    0    1
 -2       694       695       812      2888      3251      3252
 -1      1478    8    0    1
 -2       694       812       811      3252      3253      3248
 -1      1479    8    0    1
 -2       695       696       813      2891      3254      3255
 -1      1480    8    0    1
 -2       695       813       812      3255      3256      3251
 -1      1481    8    0    1
 -2       696       697       814      2894      3257      3258
 -1      1482    8    0    1
 -2       696       814       813      3258      3259      3254
 -1      1483    8    0    1
 -2       697       698       815      2897      3260      3261
 -1      1484    8    0    1
 -2       697       815       814      3261      3262      3257
 -1      1485    8    0    1
 -2       698       699       816      2900      3263      3264
 -1      1486    8    0    1
 -2       698       816       815      3264      3265      3260
 -1      1487    8    0    1
 -2       699       700       817      2903      3266      3267
 -1      1488    8    0    1
 -2       699       817       816      3267      3268      3263
 -1      1489    8    0    1
 -2       700       701       818      2906      3269      3270
 -1      1490    8    0    1
 -2       700       818       817      3270      3271      3266
 -1      1491    8    0    1
 -2       701       702       819      2909      3272      3273
 -1      1492    8    0    1
 -2       701       819       818      3273      3274      3269
 -1      1493    8    0    1
 -2       702       703       820      2912      3275      3276
 -1      1494    8    0    1
 -2       702       820       819      3276      3277      3272
 -1      1495    8    0    1
 -2       703       704       821      2915      3278      3279
 -1      1496    8    0    1
 -2       703       821       820      3279      3280      3275
 -1      1497    8    0    1
 -2       704       705       822      2918      3281      3282
 -1      1498    8    0    1
 -2       704       822       821      3282      3283      3278
 -1      1499    8    0    1
 -2       705       706       823      2921      3284      3285
 -1      1500    8    0    1
 -2       705       823       822      3285      3286      3281
 -1      1501    8    0    1
 -2       706       707       824      2924      3287      3288
 -1      1502    8    0    1
 -2       823       706       824      3284      3288      3289
 -1      1503    8    0    1
 -2       707       746       824      3033      3290      3287
 -1      1504    8    0    1
 -2       712       669       825      2939      3291      3292
 -1      1505    8    0    1
 -2       738       716       826      3008      3293      3294
 -1      1506    8    0    1
 -2       620       619       827      2667      3295      3296
 -1      1507    8    0    1
 -2       728       731       793      3067      3297      3298
 -1      1508    8    0    1
 -2       708       710       828      2932      3299      3300
 -1      1509    8    0    1
 -2       710       792       828      3189      3301      3299
 -1      1510    8    0    1
 -2       714       715       829      2948      3302      3303
 -1      1511    8    0    1
 -2       735       602       830      2998      3304      3305
 -1      1512    8    0    1
 -2       617       737       831      3041      3306      3307
 -1      1513    8    0    1
 -2       735       632       668      3101      3308      3000
 -1      1514    8    0    1
 -2       673       727       728      3196      3068      3309
 -1      1515    8    0    1
 -2       727       674       724      3195      3198      3017
 -1      1516    8    0    1
 -2       668       632       631      3308      2701      3310
 -1      1517    8    0    1
 -2       734       668       762      3031      3311      3312
 -1      1518    8    0    1
 -2       668       631       762      3310      3099      3311
 -1      1519    8    0    1
 -2       634       603       751      2956      3058      3313
 -1      1520    8    0    1
 -2       713       714       832      2945      3314      3315
 -1      1521    8    0    1
 -2       792       713       832      3188      3315      3316
 -1      1522    8    0    1
 -2       714       829       832      3303      3317      3314
 -1      1523    8    0    1
 -2       672       673       728      2822      3309      3318
 -1      1524    8    0    1
 -2       716       614       833      3042      3319      3320
 -1      1525    8    0    1
 -2       669       667       834      2811      3321      3322
 -1      1526    8    0    1
 -2       669       834       825      3322      3323      3291
 -1      1527    8    0    1
 -2       737       733       835      3078      3324      3325
 -1      1528    8    0    1
 -2       724       675       736      3197      3326      3079
 -1      1529    8    0    1
 -2       733       734       836      3048      3327      3328
 -1      1530    8    0    1
 -2       835       733       836      3324      3328      3329
 -1      1531    8    0    1
 -2       734       762       836      3312      3330      3327
 -1      1532    8    0    1
 -2       718       739       763      3018      3331      3332
 -1      1533    8    0    1
 -2       730       732       837      3046      3333      3334
 -1      1534    8    0    1
 -2       616       730       838      3062      3335      3336
 -1      1535    8    0    1
 -2       730       837       838      3334      3337      3335
 -1      1536    8    0    1
 -2       625       721       839      2966      3338      3339
 -1      1537    8    0    1
 -2       625       839       757      3339      3340      3084
 -1      1538    8    0    1
 -2       721       754       840      3077      3341      3342
 -1      1539    8    0    1
 -2       754       740       840      3072      3343      3341
 -1      1540    8    0    1
 -2       715       624       841      3040      3344      3345
 -1      1541    8    0    1
 -2       829       715       841      3302      3345      3346
 -1      1542    8    0    1
 -2       624       666       841      2803      3347      3344
 -1      1543    8    0    1
 -2       672       728       793      3318      3298      3190
 -1      1544    8    0    1
 -2       741       620       842      3014      3348      3349
 -1      1545    8    0    1
 -2       620       827       842      3296      3350      3348
 -1      1546    8    0    1
 -2       721       840       839      3342      3351      3338
 -1      1547    8    0    1
 -2       742       738       826      3021      3294      3352
 -1      1548    8    0    1
 -2       743       618       843      3024      3353      3354
 -1      1549    8    0    1
 -2       618       748       843      3045      3355      3353
 -1      1550    8    0    1
 -2       744       612       743      3025      3023      3356
 -1      1551    8    0    1
 -2       619       722       844      2969      3357      3358
 -1      1552    8    0    1
 -2       619       844       827      3358      3359      3295
 -1      1553    8    0    1
 -2       621       756       845      3083      3360      3361
 -1      1554    8    0    1
 -2       745       719       846      3030      3362      3363
 -1      1555    8    0    1
 -2       718       763       637      3332      3103      3364
 -1      1556    8    0    1
 -2       717       791       748      3187      3365      3043
 -1      1557    8    0    1
 -2       636       635       726      2713      3366      3367
 -1      1558    8    0    1
 -2       637       636       718      2716      3368      3364
 -1      1559    8    0    1
 -2       791       736       676      3186      3369      3200
 -1      1560    8    0    1
 -2       666       665       841      2804      3370      3347
 -1      1561    8    0    1
 -2       791       677       795      3199      3202      3371
 -1      1562    8    0    1
 -2       740       725       847      3013      3372      3373
 -1      1563    8    0    1
 -2       740       847       840      3373      3374      3343
 -1      1564    8    0    1
 -2       670       794       848      3193      3375      3376
 -1      1565    8    0    1
 -2       670       848       720      3376      3377      2963
 -1      1566    8    0    1
 -2       841       665       790      3370      3184      3378
 -1      1567    8    0    1
 -2       675       676       736      2831      3369      3326
 -1      1568    8    0    1
 -2       737       835       831      3325      3379      3306
 -1      1569    8    0    1
 -2       826       716       849      3293      3380      3381
 -1      1570    8    0    1
 -2       716       833       849      3320      3382      3380
 -1      1571    8    0    1
 -2       709       711       850      2935      3383      3384
 -1      1572    8    0    1
 -2       711       708       851      2936      3385      3386
 -1      1573    8    0    1
 -2       850       711       851      3383      3386      3387
 -1      1574    8    0    1
 -2       708       828       851      3300      3388      3385
 -1      1575    8    0    1
 -2       747       613       852      3039      3389      3390
 -1      1576    8    0    1
 -2       613       745       852      3029      3391      3389
 -1      1577    8    0    1
 -2       611       742       853      3020      3392      3393
 -1      1578    8    0    1
 -2       611       853       755      3393      3394      3074
 -1      1579    8    0    1
 -2       617       831       854      3307      3395      3396
 -1      1580    8    0    1
 -2       617       854       749      3396      3397      3051
 -1      1581    8    0    1
 -2       636       726       718      3367      3047      3368
 -1      1582    8    0    1
 -2       846       719       744      3362      3027      3398
 -1      1583    8    0    1
 -2       726       635       751      3366      3399      3073
 -1      1584    8    0    1
 -2       847       725       855      3372      3400      3401
 -1      1585    8    0    1
 -2       725       750       855      3055      3402      3400
 -1      1586    8    0    1
 -2       793       731       856      3297      3403      3404
 -1      1587    8    0    1
 -2       794       793       856      3194      3404      3405
 -1      1588    8    0    1
 -2       731       729       856      3052      3406      3403
 -1      1589    8    0    1
 -2       621       845       722      3361      3407      2970
 -1      1590    8    0    1
 -2       723       712       857      2974      3408      3409
 -1      1591    8    0    1
 -2       756       723       857      3082      3409      3410
 -1      1592    8    0    1
 -2       712       825       857      3292      3411      3408
 -1      1593    8    0    1
 -2       752       616       838      3061      3336      3412
 -1      1594    8    0    1
 -2       729       752       856      3060      3413      3406
 -1      1595    8    0    1
 -2       753       709       858      3066      3414      3415
 -1      1596    8    0    1
 -2       709       850       858      3384      3416      3414
 -1      1597    8    0    1
 -2       833       614       747      3319      3038      3417
 -1      1598    8    0    1
 -2       763       739       755      3331      3076      3418
 -1      1599    8    0    1
 -2       667       720       859      2962      3419      3420
 -1      1600    8    0    1
 -2       834       667       859      3321      3420      3421
 -1      1601    8    0    1
 -2       720       848       859      3377      3422      3419
 -1      1602    8    0    1
 -2       837       732       860      3333      3423      3424
 -1      1603    8    0    1
 -2       860       732       749      3423      3050      3425
 -1      1604    8    0    1
 -2       758       757       861      3088      3426      3427
 -1      1605    8    0    1
 -2       845       756       857      3360      3410      3428
 -1      1606    8    0    1
 -2       745       846       862      3363      3429      3430
 -1      1607    8    0    1
 -2       745       862       852      3430      3431      3391
 -1      1608    8    0    1
 -2       759       758       863      3091      3432      3433
 -1      1609    8    0    1
 -2       758       861       863      3427      3434      3432
 -1      1610    8    0    1
 -2       760       759       864      3094      3435      3436
 -1      1611    8    0    1
 -2       759       863       864      3433      3437      3435
 -1      1612    8    0    1
 -2       761       760       865      3097      3438      3439
 -1      1613    8    0    1
 -2       760       864       865      3436      3440      3438
 -1      1614    8    0    1
 -2       762       761       836      3100      3441      3330
 -1      1615    8    0    1
 -2       635       634       751      2710      3313      3399
 -1      1616    8    0    1
 -2       846       744       866      3398      3442      3443
 -1      1617    8    0    1
 -2       765       764       853      3110      3444      3445
 -1      1618    8    0    1
 -2       766       765       867      3113      3446      3447
 -1      1619    8    0    1
 -2       767       766       868      3116      3448      3449
 -1      1620    8    0    1
 -2       766       867       868      3447      3450      3448
 -1      1621    8    0    1
 -2       768       767       869      3119      3451      3452
 -1      1622    8    0    1
 -2       767       868       869      3449      3453      3451
 -1      1623    8    0    1
 -2       769       768       870      3122      3454      3455
 -1      1624    8    0    1
 -2       768       869       870      3452      3456      3454
 -1      1625    8    0    1
 -2       770       769       871      3125      3457      3458
 -1      1626    8    0    1
 -2       769       870       871      3455      3459      3457
 -1      1627    8    0    1
 -2       771       770       872      3128      3460      3461
 -1      1628    8    0    1
 -2       770       871       872      3458      3462      3460
 -1      1629    8    0    1
 -2       772       771       873      3131      3463      3464
 -1      1630    8    0    1
 -2       771       872       873      3461      3465      3463
 -1      1631    8    0    1
 -2       773       772       874      3134      3466      3467
 -1      1632    8    0    1
 -2       772       873       874      3464      3468      3466
 -1      1633    8    0    1
 -2       774       773       875      3137      3469      3470
 -1      1634    8    0    1
 -2       773       874       875      3467      3471      3469
 -1      1635    8    0    1
 -2       775       774       876      3140      3472      3473
 -1      1636    8    0    1
 -2       774       875       876      3470      3474      3472
 -1      1637    8    0    1
 -2       776       775       877      3143      3475      3476
 -1      1638    8    0    1
 -2       775       876       877      3473      3477      3475
 -1      1639    8    0    1
 -2       777       776       878      3146      3478      3479
 -1      1640    8    0    1
 -2       776       877       878      3476      3480      3478
 -1      1641    8    0    1
 -2       778       777       879      3149      3481      3482
 -1      1642    8    0    1
 -2       777       878       879      3479      3483      3481
 -1      1643    8    0    1
 -2       779       778       880      3152      3484      3485
 -1      1644    8    0    1
 -2       778       879       880      3482      3486      3484
 -1      1645    8    0    1
 -2       780       779       881      3155      3487      3488
 -1      1646    8    0    1
 -2       779       880       881      3485      3489      3487
 -1      1647    8    0    1
 -2       781       780       882      3158      3490      3491
 -1      1648    8    0    1
 -2       780       881       882      3488      3492      3490
 -1      1649    8    0    1
 -2       782       781       883      3161      3493      3494
 -1      1650    8    0    1
 -2       781       882       883      3491      3495      3493
 -1      1651    8    0    1
 -2       783       782       884      3164      3496      3497
 -1      1652    8    0    1
 -2       782       883       884      3494      3498      3496
 -1      1653    8    0    1
 -2       784       783       885      3167      3499      3500
 -1      1654    8    0    1
 -2       783       884       885      3497      3501      3499
 -1      1655    8    0    1
 -2       785       784       886      3170      3502      3503
 -1      1656    8    0    1
 -2       784       885       886      3500      3504      3502
 -1      1657    8    0    1
 -2       786       785       887      3173      3505      3506
 -1      1658    8    0    1
 -2       785       886       887      3503      3507      3505
 -1      1659    8    0    1
 -2       787       786       888      3176      3508      3509
 -1      1660    8    0    1
 -2       786       887       888      3506      3510      3508
 -1      1661    8    0    1
 -2       788       787       889      3179      3511      3512
 -1      1662    8    0    1
 -2       787       888       889      3509      3513      3511
 -1      1663    8    0    1
 -2       789       788       890      3182      3514      3515
 -1      1664    8    0    1
 -2       788       889       890      3512      3516      3514
 -1      1665    8    0    1
 -2       790       789       891      3185      3517      3518
 -1      1666    8    0    1
 -2       789       890       891      3515      3519      3517
 -1      1667    8    0    1
 -2       840       847       892      3374      3520      3521
 -1      1668    8    0    1
 -2       840       892       839      3521      3522      3351
 -1      1669    8    0    1
 -2       795       796       843      3205      3523      3524
 -1      1670    8    0    1
 -2       798       799       893      3214      3525      3526
 -1      1671    8    0    1
 -2       799       800       894      3217      3527      3528
 -1      1672    8    0    1
 -2       799       894       893      3528      3529      3525
 -1      1673    8    0    1
 -2       800       801       895      3220      3530      3531
 -1      1674    8    0    1
 -2       800       895       894      3531      3532      3527
 -1      1675    8    0    1
 -2       801       802       896      3223      3533      3534
 -1      1676    8    0    1
 -2       801       896       895      3534      3535      3530
 -1      1677    8    0    1
 -2       802       803       897      3226      3536      3537
 -1      1678    8    0    1
 -2       802       897       896      3537      3538      3533
 -1      1679    8    0    1
 -2       803       804       898      3229      3539      3540
 -1      1680    8    0    1
 -2       803       898       897      3540      3541      3536
 -1      1681    8    0    1
 -2       804       805       899      3232      3542      3543
 -1      1682    8    0    1
 -2       804       899       898      3543      3544      3539
 -1      1683    8    0    1
 -2       805       806       900      3235      3545      3546
 -1      1684    8    0    1
 -2       805       900       899      3546      3547      3542
 -1      1685    8    0    1
 -2       806       807       901      3238      3548      3549
 -1      1686    8    0    1
 -2       806       901       900      3549      3550      3545
 -1      1687    8    0    1
 -2       807       808       902      3241      3551      3552
 -1      1688    8    0    1
 -2       807       902       901      3552      3553      3548
 -1      1689    8    0    1
 -2       808       809       903      3244      3554      3555
 -1      1690    8    0    1
 -2       808       903       902      3555      3556      3551
 -1      1691    8    0    1
 -2       809       810       904      3247      3557      3558
 -1      1692    8    0    1
 -2       809       904       903      3558      3559      3554
 -1      1693    8    0    1
 -2       810       811       905      3250      3560      3561
 -1      1694    8    0    1
 -2       810       905       904      3561      3562      3557
 -1      1695    8    0    1
 -2       811       812       906      3253      3563      3564
 -1      1696    8    0    1
 -2       811       906       905      3564      3565      3560
 -1      1697    8    0    1
 -2       812       813       907      3256      3566      3567
 -1      1698    8    0    1
 -2       812       907       906      3567      3568      3563
 -1      1699    8    0    1
 -2       813       814       908      3259      3569      3570
 -1      1700    8    0    1
 -2       813       908       907      3570      3571      3566
 -1      1701    8    0    1
 -2       814       815       909      3262      3572      3573
 -1      1702    8    0    1
 -2       814       909       908      3573      3574      3569
 -1      1703    8    0    1
 -2       815       816       910      3265      3575      3576
 -1      1704    8    0    1
 -2       815       910       909      3576      3577      3572
 -1      1705    8    0    1
 -2       816       817       911      3268      3578      3579
 -1      1706    8    0    1
 -2       816       911       910      3579      3580      3575
 -1      1707    8    0    1
 -2       817       818       912      3271      3581      3582
 -1      1708    8    0    1
 -2       817       912       911      3582      3583      3578
 -1      1709    8    0    1
 -2       818       819       913      3274      3584      3585
 -1      1710    8    0    1
 -2       818       913       912      3585      3586      3581
 -1      1711    8    0    1
 -2       819       820       914      3277      3587      3588
 -1      1712    8    0    1
 -2       819       914       913      3588      3589      3584
 -1      1713    8    0    1
 -2       820       821       915      3280      3590      3591
 -1      1714    8    0    1
 -2       820       915       914      3591      3592      3587
 -1      1715    8    0    1
 -2       821       822       916      3283      3593      3594
 -1      1716    8    0    1
 -2       821       916       915      3594      3595      3590
 -1      1717    8    0    1
 -2       822       823       917      3286      3596      3597
 -1      1718    8    0    1
 -2       822       917       916      3597      3598      3593
 -1      1719    8    0    1
 -2       735       830       633      3305      3599      3102
 -1      1720    8    0    1
 -2       830       602       634      3304      2957      3600
 -1      1721    8    0    1
 -2       828       792       918      3301      3601      3602
 -1      1722    8    0    1
 -2       752       838       919      3412      3603      3604
 -1      1723    8    0    1
 -2       750       741       920      3056      3605      3606
 -1      1724    8    0    1
 -2       855       750       920      3402      3606      3607
 -1      1725    8    0    1
 -2       741       842       920      3349      3608      3605
 -1      1726    8    0    1
 -2       797       798       921      3211      3609      3610
 -1      1727    8    0    1
 -2       798       893       921      3526      3611      3609
 -1      1728    8    0    1
 -2       841       790       922      3378      3612      3613
 -1      1729    8    0    1
 -2       829       841       922      3346      3613      3614
 -1      1730    8    0    1
 -2       790       891       922      3518      3615      3612
 -1      1731    8    0    1
 -2       838       837       923      3337      3616      3617
 -1      1732    8    0    1
 -2       825       834       924      3323      3618      3619
 -1      1733    8    0    1
 -2       831       835       925      3379      3620      3621
 -1      1734    8    0    1
 -2       796       797       926      3208      3622      3623
 -1      1735    8    0    1
 -2       843       796       926      3523      3623      3624
 -1      1736    8    0    1
 -2       797       921       926      3610      3625      3622
 -1      1737    8    0    1
 -2       860       749       927      3425      3626      3627
 -1      1738    8    0    1
 -2       749       854       927      3397      3628      3626
 -1      1739    8    0    1
 -2       757       839       928      3340      3629      3630
 -1      1740    8    0    1
 -2       861       757       928      3426      3630      3631
 -1      1741    8    0    1
 -2       839       892       928      3522      3632      3629
 -1      1742    8    0    1
 -2       856       752       919      3413      3604      3633
 -1      1743    8    0    1
 -2       744       743       866      3356      3634      3442
 -1      1744    8    0    1
 -2       764       763       755      3107      3418      3635
 -1      1745    8    0    1
 -2       794       856       929      3405      3636      3637
 -1      1746    8    0    1
 -2       848       794       929      3375      3637      3638
 -1      1747    8    0    1
 -2       856       919       929      3633      3639      3636
 -1      1748    8    0    1
 -2       746       753       930      3065      3640      3641
 -1      1749    8    0    1
 -2       824       746       930      3290      3641      3642
 -1      1750    8    0    1
 -2       753       858       930      3415      3643      3640
 -1      1751    8    0    1
 -2       742       826       931      3352      3644      3645
 -1      1752    8    0    1
 -2       722       845       844      3407      3646      3357
 -1      1753    8    0    1
 -2       833       747       932      3417      3647      3648
 -1      1754    8    0    1
 -2       747       852       932      3390      3649      3647
 -1      1755    8    0    1
 -2       837       860       933      3424      3650      3651
 -1      1756    8    0    1
 -2       837       933       923      3651      3652      3616
 -1      1757    8    0    1
 -2       764       755       853      3635      3394      3444
 -1      1758    8    0    1
 -2       845       857       934      3428      3653      3654
 -1      1759    8    0    1
 -2       843       748       795      3355      3655      3524
 -1      1760    8    0    1
 -2       833       932       935      3648      3656      3657
 -1      1761    8    0    1
 -2       833       935       849      3657      3658      3382
 -1      1762    8    0    1
 -2       862       846       936      3429      3659      3660
 -1      1763    8    0    1
 -2       851       828       937      3388      3661      3662
 -1      1764    8    0    1
 -2       828       918       937      3602      3663      3661
 -1      1765    8    0    1
 -2       634       633       830      2707      3599      3600
 -1      1766    8    0    1
 -2       845       934       938      3654      3664      3665
 -1      1767    8    0    1
 -2       845       938       844      3665      3666      3646
 -1      1768    8    0    1
 -2       765       853       867      3445      3667      3446
 -1      1769    8    0    1
 -2       838       923       919      3617      3668      3603
 -1      1770    8    0    1
 -2       892       847       939      3520      3669      3670
 -1      1771    8    0    1
 -2       847       855       939      3401      3671      3669
 -1      1772    8    0    1
 -2       742       931       853      3645      3672      3392
 -1      1773    8    0    1
 -2       829       922       940      3614      3673      3674
 -1      1774    8    0    1
 -2       829       940       832      3674      3675      3317
 -1      1775    8    0    1
 -2       823       824       930      3289      3642      3676
 -1      1776    8    0    1
 -2       931       826       941      3644      3677      3678
 -1      1777    8    0    1
 -2       826       849       941      3381      3679      3677
 -1      1778    8    0    1
 -2       761       865       836      3439      3680      3441
 -1      1779    8    0    1
 -2       850       851       942      3387      3681      3682
 -1      1780    8    0    1
 -2       851       937       942      3662      3683      3681
 -1      1781    8    0    1
 -2       743       843       926      3354      3624      3684
 -1      1782    8    0    1
 -2       842       827       943      3350      3685      3686
 -1      1783    8    0    1
 -2       854       831       944      3395      3687      3688
 -1      1784    8    0    1
 -2       831       925       944      3621      3689      3687
 -1      1785    8    0    1
 -2       857       825       934      3411      3690      3653
 -1      1786    8    0    1
 -2       925       835       865      3620      3691      3692
 -1      1787    8    0    1
 -2       858       850       945      3416      3693      3694
 -1      1788    8    0    1
 -2       850       942       945      3682      3695      3693
 -1      1789    8    0    1
 -2       924       834       946      3618      3696      3697
 -1      1790    8    0    1
 -2       834       859       946      3421      3698      3696
 -1      1791    8    0    1
 -2       823       930       917      3676      3699      3596
 -1      1792    8    0    1
 -2       825       924       934      3619      3700      3690
 -1      1793    8    0    1
 -2       792       832       947      3316      3701      3702
 -1      1794    8    0    1
 -2       918       792       947      3601      3702      3703
 -1      1795    8    0    1
 -2       832       940       947      3675      3704      3701
 -1      1796    8    0    1
 -2       846       866       936      3443      3705      3659
 -1      1797    8    0    1
 -2       748       791       795      3365      3371      3655
 -1      1798    8    0    1
 -2       933       860       948      3650      3706      3707
 -1      1799    8    0    1
 -2       860       927       948      3627      3708      3706
 -1      1800    8    0    1
 -2       835       836       865      3329      3680      3691
 -1      1801    8    0    1
 -2       827       844       949      3359      3709      3710
 -1      1802    8    0    1
 -2       943       827       949      3685      3710      3711
 -1      1803    8    0    1
 -2       844       938       949      3666      3712      3709
 -1      1804    8    0    1
 -2       863       861       950      3434      3713      3714
 -1      1805    8    0    1
 -2       864       863       951      3437      3715      3716
 -1      1806    8    0    1
 -2       863       950       951      3714      3717      3715
 -1      1807    8    0    1
 -2       865       864       952      3440      3718      3719
 -1      1808    8    0    1
 -2       925       865       952      3692      3719      3720
 -1      1809    8    0    1
 -2       864       951       952      3716      3721      3718
 -1      1810    8    0    1
 -2       894       895       953      3532      3722      3723
 -1      1811    8    0    1
 -2       868       867       954      3450      3724      3725
 -1      1812    8    0    1
 -2       869       868       955      3453      3726      3727
 -1      1813    8    0    1
 -2       868       954       955      3725      3728      3726
 -1      1814    8    0    1
 -2       870       869       956      3456      3729      3730
 -1      1815    8    0    1
 -2       869       955       956      3727      3731      3729
 -1      1816    8    0    1
 -2       871       870       957      3459      3732      3733
 -1      1817    8    0    1
 -2       870       956       957      3730      3734      3732
 -1      1818    8    0    1
 -2       872       871       958      3462      3735      3736
 -1      1819    8    0    1
 -2       871       957       958      3733      3737      3735
 -1      1820    8    0    1
 -2       873       872       959      3465      3738      3739
 -1      1821    8    0    1
 -2       872       958       959      3736      3740      3738
 -1      1822    8    0    1
 -2       874       873       960      3468      3741      3742
 -1      1823    8    0    1
 -2       873       959       960      3739      3743      3741
 -1      1824    8    0    1
 -2       875       874       961      3471      3744      3745
 -1      1825    8    0    1
 -2       874       960       961      3742      3746      3744
 -1      1826    8    0    1
 -2       876       875       962      3474      3747      3748
 -1      1827    8    0    1
 -2       875       961       962      3745      3749      3747
 -1      1828    8    0    1
 -2       877       876       963      3477      3750      3751
 -1      1829    8    0    1
 -2       876       962       963      3748      3752      3750
 -1      1830    8    0    1
 -2       878       877       964      3480      3753      3754
 -1      1831    8    0    1
 -2       877       963       964      3751      3755      3753
 -1      1832    8    0    1
 -2       879       878       965      3483      3756      3757
 -1      1833    8    0    1
 -2       878       964       965      3754      3758      3756
 -1      1834    8    0    1
 -2       880       879       966      3486      3759      3760
 -1      1835    8    0    1
 -2       879       965       966      3757      3761      3759
 -1      1836    8    0    1
 -2       881       880       967      3489      3762      3763
 -1      1837    8    0    1
 -2       880       966       967      3760      3764      3762
 -1      1838    8    0    1
 -2       882       881       968      3492      3765      3766
 -1      1839    8    0    1
 -2       881       967       968      3763      3767      3765
 -1      1840    8    0    1
 -2       883       882       969      3495      3768      3769
 -1      1841    8    0    1
 -2       882       968       969      3766      3770      3768
 -1      1842    8    0    1
 -2       884       883       970      3498      3771      3772
 -1      1843    8    0    1
 -2       883       969       970      3769      3773      3771
 -1      1844    8    0    1
 -2       885       884       971      3501      3774      3775
 -1      1845    8    0    1
 -2       884       970       971      3772      3776      3774
 -1      1846    8    0    1
 -2       886       885       972      3504      3777      3778
 -1      1847    8    0    1
 -2       885       971       972      3775      3779      3777
 -1      1848    8    0    1
 -2       887       886       973      3507      3780      3781
 -1      1849    8    0    1
 -2       886       972       973      3778      3782      3780
 -1      1850    8    0    1
 -2       888       887       974      3510      3783      3784
 -1      1851    8    0    1
 -2       887       973       974      3781      3785      3783
 -1      1852    8    0    1
 -2       889       888       975      3513      3786      3787
 -1      1853    8    0    1
 -2       888       974       975      3784      3788      3786
 -1      1854    8    0    1
 -2       890       889       976      3516      3789      3790
 -1      1855    8    0    1
 -2       889       975       976      3787      3791      3789
 -1      1856    8    0    1
 -2       891       890       977      3519      3792      3793
 -1      1857    8    0    1
 -2       890       976       977      3790      3794      3792
 -1      1858    8    0    1
 -2       930       858       917      3643      3795      3699
 -1      1859    8    0    1
 -2       927       854       944      3628      3688      3796
 -1      1860    8    0    1
 -2       893       894       978      3529      3797      3798
 -1      1861    8    0    1
 -2       894       953       978      3723      3799      3797
 -1      1862    8    0    1
 -2       896       897       979      3538      3800      3801
 -1      1863    8    0    1
 -2       897       898       980      3541      3802      3803
 -1      1864    8    0    1
 -2       897       980       979      3803      3804      3800
 -1      1865    8    0    1
 -2       898       899       981      3544      3805      3806
 -1      1866    8    0    1
 -2       898       981       980      3806      3807      3802
 -1      1867    8    0    1
 -2       899       900       982      3547      3808      3809
 -1      1868    8    0    1
 -2       899       982       981      3809      3810      3805
 -1      1869    8    0    1
 -2       900       901       983      3550      3811      3812
 -1      1870    8    0    1
 -2       900       983       982      3812      3813      3808
 -1      1871    8    0    1
 -2       901       902       984      3553      3814      3815
 -1      1872    8    0    1
 -2       901       984       983      3815      3816      3811
 -1      1873    8    0    1
 -2       902       903       985      3556      3817      3818
 -1      1874    8    0    1
 -2       902       985       984      3818      3819      3814
 -1      1875    8    0    1
 -2       903       904       986      3559      3820      3821
 -1      1876    8    0    1
 -2       903       986       985      3821      3822      3817
 -1      1877    8    0    1
 -2       904       905       987      3562      3823      3824
 -1      1878    8    0    1
 -2       904       987       986      3824      3825      3820
 -1      1879    8    0    1
 -2       905       906       988      3565      3826      3827
 -1      1880    8    0    1
 -2       905       988       987      3827      3828      3823
 -1      1881    8    0    1
 -2       906       907       989      3568      3829      3830
 -1      1882    8    0    1
 -2       906       989       988      3830      3831      3826
 -1      1883    8    0    1
 -2       907       908       990      3571      3832      3833
 -1      1884    8    0    1
 -2       907       990       989      3833      3834      3829
 -1      1885    8    0    1
 -2       908       909       991      3574      3835      3836
 -1      1886    8    0    1
 -2       908       991       990      3836      3837      3832
 -1      1887    8    0    1
 -2       909       910       992      3577      3838      3839
 -1      1888    8    0    1
 -2       909       992       991      3839      3840      3835
 -1      1889    8    0    1
 -2       910       911       993      3580      3841      3842
 -1      1890    8    0    1
 -2       910       993       992      3842      3843      3838
 -1      1891    8    0    1
 -2       911       912       994      3583      3844      3845
 -1      1892    8    0    1
 -2       911       994       993      3845      3846      3841
 -1      1893    8    0    1
 -2       912       913       995      3586      3847      3848
 -1      1894    8    0    1
 -2       912       995       994      3848      3849      3844
 -1      1895    8    0    1
 -2       913       914       996      3589      3850      3851
 -1      1896    8    0    1
 -2       913       996       995      3851      3852      3847
 -1      1897    8    0    1
 -2       914       915       997      3592      3853      3854
 -1      1898    8    0    1
 -2       914       997       996      3854      3855      3850
 -1      1899    8    0    1
 -2       915       916       998      3595      3856      3857
 -1      1900    8    0    1
 -2       915       998       997      3857      3858      3853
 -1      1901    8    0    1
 -2       934       924       999      3700      3859      3860
 -1      1902    8    0    1
 -2       934       999       938      3860      3861      3664
 -1      1903    8    0    1
 -2       862       936      1000      3660      3862      3863
 -1      1904    8    0    1
 -2       923       933      1001      3652      3864      3865
 -1      1905    8    0    1
 -2       922       891      1002      3615      3866      3867
 -1      1906    8    0    1
 -2       940       922      1002      3673      3867      3868
 -1      1907    8    0    1
 -2       891       977      1002      3793      3869      3866
 -1      1908    8    0    1
 -2       859       848      1003      3422      3870      3871
 -1      1909    8    0    1
 -2       946       859      1003      3698      3871      3872
 -1      1910    8    0    1
 -2       848       929      1003      3638      3873      3870
 -1      1911    8    0    1
 -2       842       943      1004      3686      3874      3875
 -1      1912    8    0    1
 -2       895       896      1005      3535      3876      3877
 -1      1913    8    0    1
 -2       953       895      1005      3722      3877      3878
 -1      1914    8    0    1
 -2       896       979      1005      3801      3879      3876
 -1      1915    8    0    1
 -2       919       923      1006      3668      3880      3881
 -1      1916    8    0    1
 -2       929       919      1006      3639      3881      3882
 -1      1917    8    0    1
 -2       923      1001      1006      3865      3883      3880
 -1      1918    8    0    1
 -2       852       862      1007      3431      3884      3885
 -1      1919    8    0    1
 -2       932       852      1007      3649      3885      3886
 -1      1920    8    0    1
 -2       862      1000      1007      3863      3887      3884
 -1      1921    8    0    1
 -2       867       853       931      3667      3672      3888
 -1      1922    8    0    1
 -2       917       858       945      3795      3694      3889
 -1      1923    8    0    1
 -2       867       931       954      3888      3890      3724
 -1      1924    8    0    1
 -2       933       948      1008      3707      3891      3892
 -1      1925    8    0    1
 -2       933      1008      1001      3892      3893      3864
 -1      1926    8    0    1
 -2       935       932      1009      3656      3894      3895
 -1      1927    8    0    1
 -2       932      1007      1009      3886      3896      3894
 -1      1928    8    0    1
 -2       743       926       866      3684      3897      3634
 -1      1929    8    0    1
 -2       921       893      1010      3611      3898      3899
 -1      1930    8    0    1
 -2       916       917      1011      3598      3900      3901
 -1      1931    8    0    1
 -2       920       842      1004      3608      3875      3902
 -1      1932    8    0    1
 -2       941       849      1012      3679      3903      3904
 -1      1933    8    0    1
 -2      1010       893       978      3898      3798      3905
 -1      1934    8    0    1
 -2       916      1011       998      3901      3906      3856
 -1      1935    8    0    1
 -2      1012       849       935      3903      3658      3907
 -1      1936    8    0    1
 -2       942       937      1013      3683      3908      3909
 -1      1937    8    0    1
 -2       944       925       952      3689      3720      3910
 -1      1938    8    0    1
 -2       950       861      1014      3713      3911      3912
 -1      1939    8    0    1
 -2       861       928      1014      3631      3913      3911
 -1      1940    8    0    1
 -2       942      1013      1015      3909      3914      3915
 -1      1941    8    0    1
 -2       942      1015       945      3915      3916      3695
 -1      1942    8    0    1
 -2       892       939       928      3670      3917      3632
 -1      1943    8    0    1
 -2       937       918      1016      3663      3918      3919
 -1      1944    8    0    1
 -2       937      1016      1013      3919      3920      3908
 -1      1945    8    0    1
 -2       855       920      1017      3607      3921      3922
 -1      1946    8    0    1
 -2       939       855      1017      3671      3922      3923
 -1      1947    8    0    1
 -2       920      1004      1017      3902      3924      3921
 -1      1948    8    0    1
 -2       943       949      1018      3711      3925      3926
 -1      1949    8    0    1
 -2      1004       943      1019      3874      3927      3928
 -1      1950    8    0    1
 -2       943      1018      1019      3926      3929      3927
 -1      1951    8    0    1
 -2       918       947      1020      3703      3930      3931
 -1      1952    8    0    1
 -2       918      1020      1016      3931      3932      3918
 -1      1953    8    0    1
 -2       927       944      1021      3796      3933      3934
 -1      1954    8    0    1
 -2       948       927      1021      3708      3934      3935
 -1      1955    8    0    1
 -2      1011       917       945      3900      3889      3936
 -1      1956    8    0    1
 -2       931       941       954      3678      3937      3890
 -1      1957    8    0    1
 -2       956       955      1022      3731      3938      3939
 -1      1958    8    0    1
 -2       957       956      1023      3734      3940      3941
 -1      1959    8    0    1
 -2       956      1022      1023      3939      3942      3940
 -1      1960    8    0    1
 -2       958       957      1024      3737      3943      3944
 -1      1961    8    0    1
 -2       957      1023      1024      3941      3945      3943
 -1      1962    8    0    1
 -2       959       958      1025      3740      3946      3947
 -1      1963    8    0    1
 -2       958      1024      1025      3944      3948      3946
 -1      1964    8    0    1
 -2       960       959      1026      3743      3949      3950
 -1      1965    8    0    1
 -2       959      1025      1026      3947      3951      3949
 -1      1966    8    0    1
 -2       961       960      1027      3746      3952      3953
 -1      1967    8    0    1
 -2       960      1026      1027      3950      3954      3952
 -1      1968    8    0    1
 -2       962       961      1028      3749      3955      3956
 -1      1969    8    0    1
 -2       961      1027      1028      3953      3957      3955
 -1      1970    8    0    1
 -2       963       962      1029      3752      3958      3959
 -1      1971    8    0    1
 -2       962      1028      1029      3956      3960      3958
 -1      1972    8    0    1
 -2       964       963      1030      3755      3961      3962
 -1      1973    8    0    1
 -2       963      1029      1030      3959      3963      3961
 -1      1974    8    0    1
 -2       965       964      1031      3758      3964      3965
 -1      1975    8    0    1
 -2       964      1030      1031      3962      3966      3964
 -1      1976    8    0    1
 -2       966       965      1032      3761      3967      3968
 -1      1977    8    0    1
 -2       965      1031      1032      3965      3969      3967
 -1      1978    8    0    1
 -2       967       966      1033      3764      3970      3971
 -1      1979    8    0    1
 -2       966      1032      1033      3968      3972      3970
 -1      1980    8    0    1
 -2       968       967      1034      3767      3973      3974
 -1      1981    8    0    1
 -2       967      1033      1034      3971      3975      3973
 -1      1982    8    0    1
 -2       969       968      1035      3770      3976      3977
 -1      1983    8    0    1
 -2       968      1034      1035      3974      3978      3976
 -1      1984    8    0    1
 -2       970       969      1036      3773      3979      3980
 -1      1985    8    0    1
 -2       969      1035      1036      3977      3981      3979
 -1      1986    8    0    1
 -2       971       970      1037      3776      3982      3983
 -1      1987    8    0    1
 -2       970      1036      1037      3980      3984      3982
 -1      1988    8    0    1
 -2       972       971      1038      3779      3985      3986
 -1      1989    8    0    1
 -2       971      1037      1038      3983      3987      3985
 -1      1990    8    0    1
 -2       973       972      1039      3782      3988      3989
 -1      1991    8    0    1
 -2       972      1038      1039      3986      3990      3988
 -1      1992    8    0    1
 -2       974       973      1040      3785      3991      3992
 -1      1993    8    0    1
 -2       973      1039      1040      3989      3993      3991
 -1      1994    8    0    1
 -2       975       974      1041      3788      3994      3995
 -1      1995    8    0    1
 -2       974      1040      1041      3992      3996      3994
 -1      1996    8    0    1
 -2       976       975      1042      3791      3997      3998
 -1      1997    8    0    1
 -2       975      1041      1042      3995      3999      3997
 -1      1998    8    0    1
 -2       977       976      1043      3794      4000      4001
 -1      1999    8    0    1
 -2       976      1042      1043      3998      4002      4000
 -1      2000    8    0    1
 -2       981       982      1044      3810      4003      4004
 -1      2001    8    0    1
 -2       978       953      1045      3799      4005      4006
 -1      2002    8    0    1
 -2       980       981      1046      3807      4007      4008
 -1      2003    8    0    1
 -2       981      1044      1046      4004      4009      4007
 -1      2004    8    0    1
 -2       979       980      1047      3804      4010      4011
 -1      2005    8    0    1
 -2       980      1046      1047      4008      4012      4010
 -1      2006    8    0    1
 -2       982       983      1048      3813      4013      4014
 -1      2007    8    0    1
 -2       982      1048      1044      4014      4015      4003
 -1      2008    8    0    1
 -2       983       984      1049      3816      4016      4017
 -1      2009    8    0    1
 -2       983      1049      1048      4017      4018      4013
 -1      2010    8    0    1
 -2       984       985      1050      3819      4019      4020
 -1      2011    8    0    1
 -2       984      1050      1049      4020      4021      4016
 -1      2012    8    0    1
 -2       985       986      1051      3822      4022      4023
 -1      2013    8    0    1
 -2       985      1051      1050      4023      4024      4019
 -1      2014    8    0    1
 -2       986       987      1052      3825      4025      4026
 -1      2015    8    0    1
 -2       986      1052      1051      4026      4027      4022
 -1      2016    8    0    1
 -2       987       988      1053      3828      4028      4029
 -1      2017    8    0    1
 -2       987      1053      1052      4029      4030      4025
 -1      2018    8    0    1
 -2       988       989      1054      3831      4031      4032
 -1      2019    8    0    1
 -2       988      1054      1053      4032      4033      4028
 -1      2020    8    0    1
 -2       989       990      1055      3834      4034      4035
 -1      2021    8    0    1
 -2       989      1055      1054      4035      4036      4031
 -1      2022    8    0    1
 -2       990       991      1056      3837      4037      4038
 -1      2023    8    0    1
 -2       990      1056      1055      4038      4039      4034
 -1      2024    8    0    1
 -2       991       992      1057      3840      4040      4041
 -1      2025    8    0    1
 -2       991      1057      1056      4041      4042      4037
 -1      2026    8    0    1
 -2       992       993      1058      3843      4043      4044
 -1      2027    8    0    1
 -2       992      1058      1057      4044      4045      4040
 -1      2028    8    0    1
 -2       993       994      1059      3846      4046      4047
 -1      2029    8    0    1
 -2       993      1059      1058      4047      4048      4043
 -1      2030    8    0    1
 -2       994       995      1060      3849      4049      4050
 -1      2031    8    0    1
 -2       994      1060      1059      4050      4051      4046
 -1      2032    8    0    1
 -2       995       996      1061      3852      4052      4053
 -1      2033    8    0    1
 -2       995      1061      1060      4053      4054      4049
 -1      2034    8    0    1
 -2       996       997      1062      3855      4055      4056
 -1      2035    8    0    1
 -2       996      1062      1061      4056      4057      4052
 -1      2036    8    0    1
 -2       997       998      1063      3858      4058      4059
 -1      2037    8    0    1
 -2       997      1063      1062      4059      4060      4055
 -1      2038    8    0    1
 -2      1012       935      1064      3907      4061      4062
 -1      2039    8    0    1
 -2       935      1009      1064      3895      4063      4061
 -1      2040    8    0    1
 -2       999       924      1065      3859      4064      4065
 -1      2041    8    0    1
 -2      1000       936      1010      3862      4066      4067
 -1      2042    8    0    1
 -2      1010       978      1000      3905      4068      4067
 -1      2043    8    0    1
 -2       866       926       921      3897      3625      4069
 -1      2044    8    0    1
 -2       944       952      1066      3910      4070      4071
 -1      2045    8    0    1
 -2       944      1066      1021      4071      4072      3933
 -1      2046    8    0    1
 -2       936       866       921      3705      4069      4073
 -1      2047    8    0    1
 -2       928       939      1014      3917      4074      3913
 -1      2048    8    0    1
 -2      1011       945      1015      3936      3916      4075
 -1      2049    8    0    1
 -2       949       938      1067      3712      4076      4077
 -1      2050    8    0    1
 -2      1018       949      1067      3925      4077      4078
 -1      2051    8    0    1
 -2       938       999      1067      3861      4079      4076
 -1      2052    8    0    1
 -2       947       940      1068      3704      4080      4081
 -1      2053    8    0    1
 -2      1020       947      1068      3930      4081      4082
 -1      2054    8    0    1
 -2       940      1002      1068      3868      4083      4080
 -1      2055    8    0    1
 -2      1065       924       946      4064      3697      4084
 -1      2056    8    0    1
 -2      1000       978      1045      4068      4006      4085
 -1      2057    8    0    1
 -2       936       921      1010      4073      3899      4066
 -1      2058    8    0    1
 -2      1013      1016      1069      3920      4086      4087
 -1      2059    8    0    1
 -2       948      1021      1070      3935      4088      4089
 -1      2060    8    0    1
 -2      1007      1000      1071      3887      4090      4091
 -1      2061    8    0    1
 -2      1000      1045      1071      4085      4092      4090
 -1      2062    8    0    1
 -2       941      1012       954      3904      4093      3937
 -1      2063    8    0    1
 -2       955       954      1072      3728      4094      4095
 -1      2064    8    0    1
 -2      1022       955      1072      3938      4095      4096
 -1      2065    8    0    1
 -2       954      1012      1072      4093      4097      4094
 -1      2066    8    0    1
 -2       929      1006      1003      3882      4098      3873
 -1      2067    8    0    1
 -2       952       951      1066      3721      4099      4070
 -1      2068    8    0    1
 -2       946      1003      1006      3872      4098      4100
 -1      2069    8    0    1
 -2      1013      1069      1063      4087      4101      4102
 -1      2070    8    0    1
 -2       999      1065      1008      4065      4103      4104
 -1      2071    8    0    1
 -2      1066       951       950      4099      3717      4105
 -1      2072    8    0    1
 -2      1012      1064      1072      4062      4106      4097
 -1      2073    8    0    1
 -2      1014       939      1017      4074      3923      4107
 -1      2074    8    0    1
 -2      1016      1020      1073      3932      4108      4109
 -1      2075    8    0    1
 -2      1016      1073      1069      4109      4110      4086
 -1      2076    8    0    1
 -2      1008       948      1070      3891      4089      4111
 -1      2077    8    0    1
 -2      1011      1015       998      4075      4112      3906
 -1      2078    8    0    1
 -2      1015      1013      1063      3914      4102      4113
 -1      2079    8    0    1
 -2      1065       946      1006      4084      4100      4114
 -1      2080    8    0    1
 -2      1067       999      1008      4079      4104      4115
 -1      2081    8    0    1
 -2      1017      1004      1074      3924      4116      4117
 -1      2082    8    0    1
 -2      1004      1019      1074      3928      4118      4116
 -1      2083    8    0    1
 -2      1019      1018      1070      3929      4119      4120
 -1      2084    8    0    1
 -2       979      1047      1075      4011      4121      4122
 -1      2085    8    0    1
 -2       979      1075      1005      4122      4123      3879
 -1      2086    8    0    1
 -2      1021      1066      1076      4072      4124      4125
 -1      2087    8    0    1
 -2      1070      1021      1076      4088      4125      4126
 -1      2088    8    0    1
 -2      1066       950      1076      4105      4127      4124
 -1      2089    8    0    1
 -2       953      1005      1077      3878      4128      4129
 -1      2090    8    0    1
 -2      1005      1075      1077      4123      4130      4128
 -1      2091    8    0    1
 -2       998      1015      1063      4112      4113      4058
 -1      2092    8    0    1
 -2      1045       953      1077      4005      4129      4131
 -1      2093    8    0    1
 -2      1002       977      1068      3869      4132      4083
 -1      2094    8    0    1
 -2      1068       977      1043      4132      4001      4133
 -1      2095    8    0    1
 -2      1076       950      1074      4127      4134      4135
 -1      2096    8    0    1
 -2      1009      1007      1071      3896      4091      4136
 -1      2097    8    0    1
 -2      1023      1022      1078      3942      4137      4138
 -1      2098    8    0    1
 -2      1008      1065      1001      4103      4139      3893
 -1      2099    8    0    1
 -2      1063      1069      1079      4101      4140      4141
 -1      2100    8    0    1
 -2      1063      1079      1062      4141      4142      4060
 -1      2101    8    0    1
 -2      1017      1074      1014      4117      4143      4107
 -1      2102    8    0    1
 -2      1068      1043      1020      4133      4144      4082
 -1      2103    8    0    1
 -2      1076      1074      1019      4135      4118      4145
 -1      2104    8    0    1
 -2      1024      1023      1080      3945      4146      4147
 -1      2105    8    0    1
 -2      1023      1078      1080      4138      4148      4146
 -1      2106    8    0    1
 -2      1025      1024      1081      3948      4149      4150
 -1      2107    8    0    1
 -2      1024      1080      1081      4147      4151      4149
 -1      2108    8    0    1
 -2      1026      1025      1082      3951      4152      4153
 -1      2109    8    0    1
 -2      1025      1081      1082      4150      4154      4152
 -1      2110    8    0    1
 -2      1027      1026      1083      3954      4155      4156
 -1      2111    8    0    1
 -2      1026      1082      1083      4153      4157      4155
 -1      2112    8    0    1
 -2      1028      1027      1084      3957      4158      4159
 -1      2113    8    0    1
 -2      1027      1083      1084      4156      4160      4158
 -1      2114    8    0    1
 -2      1029      1028      1085      3960      4161      4162
 -1      2115    8    0    1
 -2      1028      1084      1085      4159      4163      4161
 -1      2116    8    0    1
 -2      1030      1029      1086      3963      4164      4165
 -1      2117    8    0    1
 -2      1029      1085      1086      4162      4166      4164
 -1      2118    8    0    1
 -2      1031      1030      1087      3966      4167      4168
 -1      2119    8    0    1
 -2      1030      1086      1087      4165      4169      4167
 -1      2120    8    0    1
 -2      1032      1031      1088      3969      4170      4171
 -1      2121    8    0    1
 -2      1031      1087      1088      4168      4172      4170
 -1      2122    8    0    1
 -2      1033      1032      1089      3972      4173      4174
 -1      2123    8    0    1
 -2      1032      1088      1089      4171      4175      4173
 -1      2124    8    0    1
 -2      1034      1033      1090      3975      4176      4177
 -1      2125    8    0    1
 -2      1033      1089      1090      4174      4178      4176
 -1      2126    8    0    1
 -2      1035      1034      1091      3978      4179      4180
 -1      2127    8    0    1
 -2      1034      1090      1091      4177      4181      4179
 -1      2128    8    0    1
 -2      1036      1035      1092      3981      4182      4183
 -1      2129    8    0    1
 -2      1035      1091      1092      4180      4184      4182
 -1      2130    8    0    1
 -2      1037      1036      1093      3984      4185      4186
 -1      2131    8    0    1
 -2      1036      1092      1093      4183      4187      4185
 -1      2132    8    0    1
 -2      1038      1037      1094      3987      4188      4189
 -1      2133    8    0    1
 -2      1037      1093      1094      4186      4190      4188
 -1      2134    8    0    1
 -2      1039      1038      1095      3990      4191      4192
 -1      2135    8    0    1
 -2      1038      1094      1095      4189      4193      4191
 -1      2136    8    0    1
 -2      1040      1039      1096      3993      4194      4195
 -1      2137    8    0    1
 -2      1039      1095      1096      4192      4196      4194
 -1      2138    8    0    1
 -2      1041      1040      1097      3996      4197      4198
 -1      2139    8    0    1
 -2      1040      1096      1097      4195      4199      4197
 -1      2140    8    0    1
 -2      1042      1041      1098      3999      4200      4201
 -1      2141    8    0    1
 -2      1041      1097      1098      4198      4202      4200
 -1      2142    8    0    1
 -2      1048      1049      1099      4018      4203      4204
 -1      2143    8    0    1
 -2      1074       950      1014      4134      3912      4143
 -1      2144    8    0    1
 -2      1071      1045      1100      4092      4205      4206
 -1      2145    8    0    1
 -2      1045      1077      1100      4131      4207      4205
 -1      2146    8    0    1
 -2      1044      1048      1101      4015      4208      4209
 -1      2147    8    0    1
 -2      1048      1099      1101      4204      4210      4208
 -1      2148    8    0    1
 -2      1047      1046      1102      4012      4211      4212
 -1      2149    8    0    1
 -2      1049      1050      1103      4021      4213      4214
 -1      2150    8    0    1
 -2      1049      1103      1099      4214      4215      4203
 -1      2151    8    0    1
 -2      1050      1051      1104      4024      4216      4217
 -1      2152    8    0    1
 -2      1050      1104      1103      4217      4218      4213
 -1      2153    8    0    1
 -2      1051      1052      1105      4027      4219      4220
 -1      2154    8    0    1
 -2      1051      1105      1104      4220      4221      4216
 -1      2155    8    0    1
 -2      1052      1053      1106      4030      4222      4223
 -1      2156    8    0    1
 -2      1052      1106      1105      4223      4224      4219
 -1      2157    8    0    1
 -2      1053      1054      1107      4033      4225      4226
 -1      2158    8    0    1
 -2      1053      1107      1106      4226      4227      4222
 -1      2159    8    0    1
 -2      1054      1055      1108      4036      4228      4229
 -1      2160    8    0    1
 -2      1054      1108      1107      4229      4230      4225
 -1      2161    8    0    1
 -2      1055      1056      1109      4039      4231      4232
 -1      2162    8    0    1
 -2      1055      1109      1108      4232      4233      4228
 -1      2163    8    0    1
 -2      1056      1057      1110      4042      4234      4235
 -1      2164    8    0    1
 -2      1056      1110      1109      4235      4236      4231
 -1      2165    8    0    1
 -2      1057      1058      1111      4045      4237      4238
 -1      2166    8    0    1
 -2      1057      1111      1110      4238      4239      4234
 -1      2167    8    0    1
 -2      1058      1059      1112      4048      4240      4241
 -1      2168    8    0    1
 -2      1058      1112      1111      4241      4242      4237
 -1      2169    8    0    1
 -2      1059      1060      1113      4051      4243      4244
 -1      2170    8    0    1
 -2      1059      1113      1112      4244      4245      4240
 -1      2171    8    0    1
 -2      1060      1061      1114      4054      4246      4247
 -1      2172    8    0    1
 -2      1060      1114      1113      4247      4248      4243
 -1      2173    8    0    1
 -2      1061      1062      1115      4057      4249      4250
 -1      2174    8    0    1
 -2      1114      1061      1115      4246      4250      4251
 -1      2175    8    0    1
 -2      1062      1079      1115      4142      4252      4249
 -1      2176    8    0    1
 -2      1064      1009      1116      4063      4253      4254
 -1      2177    8    0    1
 -2      1009      1071      1116      4136      4255      4253
 -1      2178    8    0    1
 -2      1076      1019      1070      4145      4120      4126
 -1      2179    8    0    1
 -2      1046      1044      1117      4009      4256      4257
 -1      2180    8    0    1
 -2      1044      1101      1117      4209      4258      4256
 -1      2181    8    0    1
 -2      1070      1018      1008      4119      4259      4111
 -1      2182    8    0    1
 -2      1006      1001      1065      3883      4139      4114
 -1      2183    8    0    1
 -2      1020      1043      1073      4144      4260      4108
 -1      2184    8    0    1
 -2      1072      1064      1118      4106      4261      4262
 -1      2185    8    0    1
 -2      1022      1072      1118      4096      4262      4263
 -1      2186    8    0    1
 -2      1064      1116      1118      4254      4264      4261
 -1      2187    8    0    1
 -2      1078      1022      1118      4137      4263      4265
 -1      2188    8    0    1
 -2      1079      1069      1073      4140      4110      4266
 -1      2189    8    0    1
 -2      1043      1042      1119      4002      4267      4268
 -1      2190    8    0    1
 -2      1102      1046      1117      4211      4257      4269
 -1      2191    8    0    1
 -2      1116      1071      1100      4255      4206      4270
 -1      2192    8    0    1
 -2      1008      1018      1067      4259      4078      4115
 -1      2193    8    0    1
 -2      1075      1047      1120      4121      4271      4272
 -1      2194    8    0    1
 -2      1047      1102      1120      4212      4273      4271
 -1      2195    8    0    1
 -2      1042      1098      1119      4201      4274      4267
 -1      2196    8    0    1
 -2      1077      1075      1121      4130      4275      4276
 -1      2197    8    0    1
 -2      1075      1120      1121      4272      4277      4275
 -1      2198    8    0    1
 -2      1100      1077      1121      4207      4276      4278
 -1      2199    8    0    1
 -2      1078      1118      1116      4265      4264      4279
 -1      2200    8    0    1
 -2      1080      1078      1121      4148      4280      4281
 -1      2201    8    0    1
 -2      1081      1080      1120      4151      4282      4283
 -1      2202    8    0    1
 -2      1082      1081      1102      4154      4284      4285
 -1      2203    8    0    1
 -2      1083      1082      1117      4157      4286      4287
 -1      2204    8    0    1
 -2      1084      1083      1101      4160      4288      4289
 -1      2205    8    0    1
 -2      1085      1084      1099      4163      4290      4291
 -1      2206    8    0    1
 -2      1086      1085      1103      4166      4292      4293
 -1      2207    8    0    1
 -2      1087      1086      1104      4169      4294      4295
 -1      2208    8    0    1
 -2      1088      1087      1105      4172      4296      4297
 -1      2209    8    0    1
 -2      1089      1088      1106      4175      4298      4299
 -1      2210    8    0    1
 -2      1090      1089      1107      4178      4300      4301
 -1      2211    8    0    1
 -2      1091      1090      1108      4181      4302      4303
 -1      2212    8    0    1
 -2      1092      1091      1109      4184      4304      4305
 -1      2213    8    0    1
 -2      1093      1092      1110      4187      4306      4307
 -1      2214    8    0    1
 -2      1094      1093      1111      4190      4308      4309
 -1      2215    8    0    1
 -2      1095      1094      1112      4193      4310      4311
 -1      2216    8    0    1
 -2      1096      1095      1113      4196      4312      4313
 -1      2217    8    0    1
 -2      1097      1096      1114      4199      4314      4315
 -1      2218    8    0    1
 -2      1098      1097      1115      4202      4316      4317
 -1      2219    8    0    1
 -2      1103      1104      1086      4218      4294      4293
 -1      2220    8    0    1
 -2      1102      1117      1082      4269      4286      4285
 -1      2221    8    0    1
 -2      1104      1105      1087      4221      4296      4295
 -1      2222    8    0    1
 -2      1101      1099      1084      4210      4290      4289
 -1      2223    8    0    1
 -2      1099      1103      1085      4215      4292      4291
 -1      2224    8    0    1
 -2      1105      1106      1088      4224      4298      4297
 -1      2225    8    0    1
 -2      1106      1107      1089      4227      4300      4299
 -1      2226    8    0    1
 -2      1107      1108      1090      4230      4302      4301
 -1      2227    8    0    1
 -2      1108      1109      1091      4233      4304      4303
 -1      2228    8    0    1
 -2      1109      1110      1092      4236      4306      4305
 -1      2229    8    0    1
 -2      1110      1111      1093      4239      4308      4307
 -1      2230    8    0    1
 -2      1111      1112      1094      4242      4310      4309
 -1      2231    8    0    1
 -2      1112      1113      1095      4245      4312      4311
 -1      2232    8    0    1
 -2      1113      1114      1096      4248      4314      4313
 -1      2233    8    0    1
 -2      1101      1083      1117      4288      4287      4258
 -1      2234    8    0    1
 -2      1043      1119      1073      4268      4318      4260
 -1      2235    8    0    1
 -2      1102      1081      1120      4284      4283      4273
 -1      2236    8    0    1
 -2      1116      1100      1078      4270      4319      4279
 -1      2237    8    0    1
 -2      1078      1100      1121      4319      4278      4280
 -1      2238    8    0    1
 -2      1080      1121      1120      4281      4277      4282
 -1      2239    8    0    1
 -2      1097      1114      1115      4315      4251      4316
 -1      2240    8    0    1
 -2      1098      1115      1079      4317      4252      4320
 -1      2241    8    0    1
 -2      1098      1079      1119      4320      4321      4274
 -1      2242    8    0    1
 -2      1079      1073      1119      4266      4318      4321
 -3
    1PSTEP                         1           1           1          
  100CL  101 1.000000000        4321                     0    1           1
 -4  DISP        4    1
 -5  D1          1    2    1    0
 -5  D2          1    2    2    0
 -5  D3          1    2    3    0
 -5  ALL         1    2    0    0    1ALL
 -1         1 4.73428E-03-8.85435E-04-1.74644E-14
 -1         2 6.72026E-03-3.39771E-05-2.25244E-14
 -1         3 1.51613E-02 5.19940E-04-1.76474E-13
 -1         4 1.52534E-02-9.10140E-04-1.88404E-13
 -1         5 0.00000E+00 0.00000E+00 0.00000E+00
 -1         6 0.00000E+00 0.00000E+00 0.00000E+00
 -1         7 0.00000E+00 0.00000E+00 0.00000E+00
 -1         8 0.00000E+00 0.00000E+00 0.00000E+00
 -1         9 0.00000E+00 0.00000E+00 0.00000E+00
 -1        10 0.00000E+00 0.00000E+00 0.00000E+00
 -1        11 0.00000E+00 0.00000E+00 0.00000E+00
 -1        12 0.00000E+00 0.00000E+00 0.00000E+00
 -1        13 0.00000E+00 0.00000E+00 0.00000E+00
 -1        14 0.00000E+00 0.00000E+00 0.00000E+00
 -1        15 0.00000E+00 0.00000E+00 0.00000E+00
 -1        16 0.00000E+00 0.00000E+00 0.00000E+00
 -1        17 0.00000E+00 0.00000E+00 0.00000E+00
 -1        18 0.00000E+00 0.00000E+00 0.00000E+00
 -1        19 0.00000E+00 0.00000E+00 0.00000E+00
 -1        20 0.00000E+00 0.00000E+00 0.00000E+00
 -1        21 0.00000E+00 0.00000E+00 0.00000E+00
 -1        22 0.00000E+00 0.00000E+00 0.00000E+00
 -1        23 4.19166E-04-2.46780E-04 3.27598E-17
 -1        24 7.30338E-04-3.69806E-04-1.36111E-16
 -1        25 1.02948E-03-4.53756E-04-4.99621E-16
 -1        26 1.33174E-03-5.15818E-04-1.05355E-15
 -1        27 1.64206E-03-5.67601E-04-1.79257E-15
 -1        28 1.96288E-03-6.17602E-04-2.71341E-15
 -1        29 2.29470E-03-6.73330E-04-3.81536E-15
 -1        30 2.63572E-03-7.41455E-04-5.09754E-15
 -1        31 2.98115E-03-8.26820E-04-6.56285E-15
 -1        32 3.32293E-03-9.30354E-04-8.21153E-15
 -1        33 3.65076E-03-1.04633E-03-1.00460E-14
 -1        34 3.95531E-03-1.16046E-03-1.20642E-14
 -1        35 4.23316E-03-1.25148E-03-1.42789E-14
 -1        36 4.49094E-03-1.29789E-03-1.66929E-14
 -1        37 4.74442E-03-1.28770E-03-1.93090E-14
 -1        38 5.01184E-03-1.22489E-03-2.21225E-14
 -1        39 5.30543E-03-1.12742E-03-2.51224E-14
 -1        40 5.62713E-03-1.01843E-03-2.82994E-14
 -1        41 5.97031E-03-9.17300E-04-3.16388E-14
 -1        42 6.32474E-03-8.35306E-04-3.51312E-14
 -1        43 6.68090E-03-7.76023E-04-3.87710E-14
 -1        44 7.03212E-03-7.37947E-04-4.25528E-14
 -1        45 7.37476E-03-7.17197E-04-4.64782E-14
 -1        46 7.70758E-03-7.09365E-04-5.05371E-14
 -1        47 8.03081E-03-7.10474E-04-5.47160E-14
 -1        48 8.34549E-03-7.17337E-04-5.90060E-14
 -1        49 8.65297E-03-7.27582E-04-6.34059E-14
 -1        50 8.95461E-03-7.39540E-04-6.79220E-14
 -1        51 9.25166E-03-7.52093E-04-7.25521E-14
 -1        52 9.54520E-03-7.64538E-04-7.72920E-14
 -1        53 9.83611E-03-7.76462E-04-8.21363E-14
 -1        54 1.01251E-02-7.87655E-04-8.70906E-14
 -1        55 1.04127E-02-7.98041E-04-9.21604E-14
 -1        56 1.06994E-02-8.07626E-04-9.73348E-14
 -1        57 1.09854E-02-8.16468E-04-1.02599E-13
 -1        58 1.12711E-02-8.24647E-04-1.07930E-13
 -1        59 1.15565E-02-8.32258E-04-1.13324E-13
 -1        60 1.18418E-02-8.39392E-04-1.18778E-13
 -1        61 1.21270E-02-8.46135E-04-1.24290E-13
 -1        62 1.24123E-02-8.52567E-04-1.29868E-13
 -1        63 1.26976E-02-8.58754E-04-1.35522E-13
 -1        64 1.29829E-02-8.64753E-04-1.41234E-13
 -1        65 1.32683E-02-8.70615E-04-1.47020E-13
 -1        66 1.35538E-02-8.76378E-04-1.52877E-13
 -1        67 1.38393E-02-8.82077E-04-1.58789E-13
 -1        68 1.41249E-02-8.87739E-04-1.64731E-13
 -1        69 1.44106E-02-8.93390E-04-1.70695E-13
 -1        70 1.46963E-02-8.99048E-04-1.76670E-13
 -1        71 1.49820E-02-9.04727E-04-1.82674E-13
 -1        72 4.21051E-04 2.47883E-04 1.10019E-16
 -1        73 7.29789E-04 3.73311E-04 7.71376E-17
 -1        74 1.02897E-03 4.56880E-04-1.01461E-16
 -1        75 1.33045E-03 5.19342E-04-4.32387E-16
 -1        76 1.63922E-03 5.71502E-04-9.18766E-16
 -1        77 1.95755E-03 6.21579E-04-1.56470E-15
 -1        78 2.28567E-03 6.76669E-04-2.37509E-15
 -1        79 2.62159E-03 7.42826E-04-3.35217E-15
 -1        80 2.96055E-03 8.24119E-04-4.49623E-15
 -1        81 3.29499E-03 9.20770E-04-5.81435E-15
 -1        82 3.61566E-03 1.02686E-03-7.31063E-15
 -1        83 3.91458E-03 1.12906E-03-8.98427E-15
 -1        84 4.18927E-03 1.20834E-03-1.08463E-14
 -1        85 4.44600E-03 1.24597E-03-1.29052E-14
 -1        86 4.69891E-03 1.23166E-03-1.51647E-14
 -1        87 4.96428E-03 1.16882E-03-1.76275E-14
 -1        88 5.25332E-03 1.07295E-03-2.02786E-14
 -1        89 5.56834E-03 9.64462E-04-2.31088E-14
 -1        90 5.90397E-03 8.61066E-04-2.61194E-14
 -1        91 6.25125E-03 7.73707E-04-2.93028E-14
 -1        92 6.60147E-03 7.06488E-04-3.26574E-14
 -1        93 6.94818E-03 6.58715E-04-3.61735E-14
 -1        94 7.28765E-03 6.27236E-04-3.98461E-14
 -1        95 7.61837E-03 6.08163E-04-4.36657E-14
 -1        96 7.94029E-03 5.97838E-04-4.76171E-14
 -1        97 8.25418E-03 5.93241E-04-5.16900E-14
 -1        98 8.56121E-03 5.92076E-04-5.58833E-14
 -1        99 8.86260E-03 5.92697E-04-6.02027E-14
 -1       100 9.15953E-03 5.93987E-04-6.46452E-14
 -1       101 9.45301E-03 5.95228E-04-6.92058E-14
 -1       102 9.74390E-03 5.95996E-04-7.38751E-14
 -1       103 1.00329E-02 5.96066E-04-7.86552E-14
 -1       104 1.03205E-02 5.95352E-04-8.35428E-14
 -1       105 1.06072E-02 5.93853E-04-8.85303E-14
 -1       106 1.08933E-02 5.91620E-04-9.36173E-14
 -1       107 1.11789E-02 5.88732E-04-9.87952E-14
 -1       108 1.14643E-02 5.85279E-04-1.04046E-13
 -1       109 1.17496E-02 5.81351E-04-1.09354E-13
 -1       110 1.20349E-02 5.77035E-04-1.14722E-13
 -1       111 1.23201E-02 5.72406E-04-1.20135E-13
 -1       112 1.26054E-02 5.67534E-04-1.25612E-13
 -1       113 1.28908E-02 5.62475E-04-1.31168E-13
 -1       114 1.31762E-02 5.57277E-04-1.36788E-13
 -1       115 1.34617E-02 5.51981E-04-1.42428E-13
 -1       116 1.37472E-02 5.46621E-04-1.48104E-13
 -1       117 1.40328E-02 5.41224E-04-1.53807E-13
 -1       118 1.43184E-02 5.35815E-04-1.59530E-13
 -1       119 1.46041E-02 5.30414E-04-1.65273E-13
 -1       120 1.48898E-02 5.25034E-04-1.71020E-13
 -1       121 1.51665E-02 4.35657E-04-1.77162E-13
 -1       122 1.51718E-02 3.51366E-04-1.77852E-13
 -1       123 1.51770E-02 2.67051E-04-1.78529E-13
 -1       124 1.51822E-02 1.82703E-04-1.79215E-13
 -1       125 1.51875E-02 9.83173E-05-1.79930E-13
 -1       126 1.51926E-02 1.53288E-05-1.80657E-13
 -1       127 1.51980E-02-6.91174E-05-1.81380E-13
 -1       128 1.52033E-02-1.53581E-04-1.82115E-13
 -1       129 1.52088E-02-2.38050E-04-1.82870E-13
 -1       130 1.52143E-02-3.22513E-04-1.83618E-13
 -1       131 1.52198E-02-4.06959E-04-1.84363E-13
 -1       132 1.52253E-02-4.89947E-04-1.85090E-13
 -1       133 1.52310E-02-5.74332E-04-1.85808E-13
 -1       134 1.52366E-02-6.58680E-04-1.86512E-13
 -1       135 1.52423E-02-7.42994E-04-1.87179E-13
 -1       136 1.52479E-02-8.27285E-04-1.87802E-13
 -1       137 6.65995E-03 1.52062E-04-2.21981E-14
 -1       138 6.51027E-03 3.15370E-04-2.16254E-14
 -1       139 6.26282E-03 4.72110E-04-2.07887E-14
 -1       140 5.88441E-03 6.24539E-04-1.96019E-14
 -1       141 5.51396E-03 7.21241E-04-1.85188E-14
 -1       142 5.07387E-03 7.91457E-04-1.73064E-14
 -1       143 4.56029E-03 8.23006E-04-1.59739E-14
 -1       144 4.08890E-03 8.07534E-04-1.48296E-14
 -1       145 3.63247E-03 7.50294E-04-1.37841E-14
 -1       146 3.19709E-03 6.49367E-04-1.28457E-14
 -1       147 2.85495E-03 5.24963E-04-1.21549E-14
 -1       148 2.58791E-03 3.78260E-04-1.16539E-14
 -1       149 2.40851E-03 2.16939E-04-1.13534E-14
 -1       150 2.32232E-03 4.78506E-05-1.12574E-14
 -1       151 2.33346E-03-1.32110E-04-1.13751E-14
 -1       152 2.45770E-03-3.16146E-04-1.17378E-14
 -1       153 2.66983E-03-4.78731E-04-1.22836E-14
 -1       154 2.98650E-03-6.30395E-04-1.30685E-14
 -1       155 3.33960E-03-7.42863E-04-1.39350E-14
 -1       156 3.79408E-03-8.35461E-04-1.50675E-14
 -1       157 4.24681E-03-8.80980E-04-1.62062E-14
 -1       158 5.19360E-03-8.47131E-04-1.86688E-14
 -1       159 5.62568E-03-7.69287E-04-1.98162E-14
 -1       160 5.99683E-03-6.61109E-04-2.08078E-14
 -1       161 6.32073E-03-5.18010E-04-2.16665E-14
 -1       162 6.54050E-03-3.67232E-04-2.22214E-14
 -1       163 6.67636E-03-2.03298E-04-2.25157E-14
 -1       164 2.52209E-04-1.07761E-04-4.52045E-17
 -1       165 2.34158E-04-7.31985E-05-6.86469E-17
 -1       166 2.23691E-04-4.99506E-05-8.03597E-17
 -1       167 2.15653E-04-3.32581E-05-8.60348E-17
 -1       168 2.09297E-04-2.12976E-05-8.80440E-17
 -1       169 2.04441E-04-1.24217E-05-8.80203E-17
 -1       170 2.01439E-04-5.75611E-06-8.67192E-17
 -1       171 2.00489E-04-1.64839E-07-8.46355E-17
 -1       172 2.01650E-04 5.52158E-06-8.12914E-17
 -1       173 2.04812E-04 1.24531E-05-7.65819E-17
 -1       174 2.09641E-04 2.15351E-05-7.01106E-17
 -1       175 2.16074E-04 3.41216E-05-6.04544E-17
 -1       176 2.24026E-04 5.13030E-05-4.62819E-17
 -1       177 2.34332E-04 7.50589E-05-2.50485E-17
 -1       178 2.51081E-04 1.10278E-04 8.15862E-18
 -1       179 3.10459E-04 1.70011E-04 4.53061E-17
 -1       180 4.92345E-04-2.35400E-04-1.21712E-16
 -1       181 8.12112E-04-3.36561E-04-4.19637E-16
 -1       182 1.12343E-03-4.07235E-04-8.97858E-16
 -1       183 1.43475E-03-4.61557E-04-1.55649E-15
 -1       184 1.75015E-03-5.09336E-04-2.39308E-15
 -1       185 2.07174E-03-5.58904E-04-3.40647E-15
 -1       186 2.39998E-03-6.17907E-04-4.59610E-15
 -1       187 2.73352E-03-6.92942E-04-5.96293E-15
 -1       188 3.06906E-03-7.87970E-04-7.50833E-15
 -1       189 3.40152E-03-9.01552E-04-9.23467E-15
 -1       190 3.72501E-03-1.02378E-03-1.11446E-14
 -1       191 4.03521E-03-1.13520E-03-1.32416E-14
 -1       192 4.33226E-03-1.21090E-03-1.55386E-14
 -1       193 4.62233E-03-1.23060E-03-1.80365E-14
 -1       194 4.91536E-03-1.18931E-03-2.07368E-14
 -1       195 5.22013E-03-1.10038E-03-2.36297E-14
 -1       196 5.54013E-03-9.88223E-04-2.67035E-14
 -1       197 5.87316E-03-8.76878E-04-2.99449E-14
 -1       198 6.21380E-03-7.82474E-04-3.33439E-14
 -1       199 6.55621E-03-7.11847E-04-3.68928E-14
 -1       200 6.89582E-03-6.64969E-04-4.05871E-14
 -1       201 7.22975E-03-6.38197E-04-4.44206E-14
 -1       202 7.55668E-03-6.26735E-04-4.83923E-14
 -1       203 7.87639E-03-6.26023E-04-5.24892E-14
 -1       204 8.18933E-03-6.32308E-04-5.67042E-14
 -1       205 8.49629E-03-6.42761E-04-6.10321E-14
 -1       206 8.79821E-03-6.55378E-04-6.54728E-14
 -1       207 9.09600E-03-6.68809E-04-7.00320E-14
 -1       208 9.39051E-03-6.82198E-04-7.47025E-14
 -1       209 9.68246E-03-6.95041E-04-7.94833E-14
 -1       210 9.97247E-03-7.07076E-04-8.43660E-14
 -1       211 1.02610E-02-7.18200E-04-8.93609E-14
 -1       212 1.05485E-02-7.28415E-04-9.44634E-14
 -1       213 1.08353E-02-7.37778E-04-9.96609E-14
 -1       214 1.11215E-02-7.46381E-04-1.04940E-13
 -1       215 1.14074E-02-7.54328E-04-1.10290E-13
 -1       216 1.16931E-02-7.61725E-04-1.15698E-13
 -1       217 1.19786E-02-7.68669E-04-1.21168E-13
 -1       218 1.22641E-02-7.75251E-04-1.26699E-13
 -1       219 1.25495E-02-7.81547E-04-1.32299E-13
 -1       220 1.28350E-02-7.87624E-04-1.37965E-13
 -1       221 1.31205E-02-7.93536E-04-1.43695E-13
 -1       222 1.34060E-02-7.99331E-04-1.49492E-13
 -1       223 1.36916E-02-8.05045E-04-1.55355E-13
 -1       224 1.39772E-02-8.10710E-04-1.61255E-13
 -1       225 1.42628E-02-8.16352E-04-1.67190E-13
 -1       226 1.45485E-02-8.21996E-04-1.73152E-13
 -1       227 1.48342E-02-8.27657E-04-1.79135E-13
 -1       228 6.35581E-04 2.97111E-04-2.08472E-17
 -1       229 9.48732E-04 3.83851E-04-2.24525E-16
 -1       230 1.25793E-03 4.47083E-04-5.75085E-16
 -1       231 1.56914E-03 4.98406E-04-1.07795E-15
 -1       232 1.88543E-03 5.46571E-04-1.73790E-15
 -1       233 2.20795E-03 5.99148E-04-2.55928E-15
 -1       234 2.53603E-03 6.62787E-04-3.54501E-15
 -1       235 2.86713E-03 7.42366E-04-4.69605E-15
 -1       236 3.19688E-03 8.39089E-04-6.01682E-15
 -1       237 3.51971E-03 9.47913E-04-7.51249E-15
 -1       238 3.83052E-03 1.05568E-03-9.18831E-15
 -1       239 4.12723E-03 1.14233E-03-1.10502E-14
 -1       240 4.41288E-03 1.18687E-03-1.31080E-14
 -1       241 4.69555E-03 1.17669E-03-1.53650E-14
 -1       242 4.98501E-03 1.11416E-03-1.78219E-14
 -1       243 5.28823E-03 1.01550E-03-2.04690E-14
 -1       244 5.60682E-03 9.02839E-04-2.33009E-14
 -1       245 5.93765E-03 7.95467E-04-2.63095E-14
 -1       246 6.27523E-03 7.05223E-04-2.94894E-14
 -1       247 6.61408E-03 6.36421E-04-3.28395E-14
 -1       248 6.95000E-03 5.88185E-04-3.63504E-14
 -1       249 7.28042E-03 5.57031E-04-4.00149E-14
 -1       250 7.60416E-03 5.38753E-04-4.38197E-14
 -1       251 7.92109E-03 5.29443E-04-4.77579E-14
 -1       252 8.23166E-03 5.25912E-04-5.18274E-14
 -1       253 8.53664E-03 5.25760E-04-5.60181E-14
 -1       254 8.83694E-03 5.27286E-04-6.03293E-14
 -1       255 9.13342E-03 5.29351E-04-6.47655E-14
 -1       256 9.42688E-03 5.31234E-04-6.93183E-14
 -1       257 9.71801E-03 5.32520E-04-7.39798E-14
 -1       258 1.00074E-02 5.33000E-04-7.87500E-14
 -1       259 1.02955E-02 5.32603E-04-8.36269E-14
 -1       260 1.05826E-02 5.31344E-04-8.86067E-14
 -1       261 1.08691E-02 5.29289E-04-9.36867E-14
 -1       262 1.11551E-02 5.26530E-04-9.88519E-14
 -1       263 1.14408E-02 5.23168E-04-1.04091E-13
 -1       264 1.17264E-02 5.19303E-04-1.09393E-13
 -1       265 1.20119E-02 5.15027E-04-1.14753E-13
 -1       266 1.22973E-02 5.10423E-04-1.20166E-13
 -1       267 1.25828E-02 5.05564E-04-1.25643E-13
 -1       268 1.28682E-02 5.00510E-04-1.31185E-13
 -1       269 1.31537E-02 4.95312E-04-1.36792E-13
 -1       270 1.34392E-02 4.90012E-04-1.42429E-13
 -1       271 1.37248E-02 4.84645E-04-1.48101E-13
 -1       272 1.40104E-02 4.79241E-04-1.53798E-13
 -1       273 1.42961E-02 4.73823E-04-1.59518E-13
 -1       274 1.45817E-02 4.68414E-04-1.65255E-13
 -1       275 1.48674E-02 4.63028E-04-1.70997E-13
 -1       276 1.49217E-02 3.98149E-04-1.72531E-13
 -1       277 1.49269E-02 3.13842E-04-1.73221E-13
 -1       278 1.49322E-02 2.29512E-04-1.73905E-13
 -1       279 1.49374E-02 1.45158E-04-1.74603E-13
 -1       280 1.49425E-02 6.22097E-05-1.75297E-13
 -1       281 1.49478E-02-2.21895E-05-1.76010E-13
 -1       282 1.49532E-02-1.06604E-04-1.76727E-13
 -1       283 1.49586E-02-1.91026E-04-1.77451E-13
 -1       284 1.49641E-02-2.75449E-04-1.78173E-13
 -1       285 1.49696E-02-3.59863E-04-1.78892E-13
 -1       286 1.49751E-02-4.42832E-04-1.79593E-13
 -1       287 1.49807E-02-5.27210E-04-1.80293E-13
 -1       288 1.49864E-02-6.11564E-04-1.80976E-13
 -1       289 1.49920E-02-6.95893E-04-1.81637E-13
 -1       290 1.49131E-02-7.61780E-04-1.80393E-13
 -1       291 6.72799E-03 7.31322E-06-2.39710E-14
 -1       292 6.57370E-03 1.19733E-04-2.31454E-14
 -1       293 6.31095E-03 2.53498E-04-2.22612E-14
 -1       294 5.91568E-03 4.17121E-04-2.12085E-14
 -1       295 5.54205E-03 6.24717E-04-1.95642E-14
 -1       296 5.15817E-03 7.76590E-04-1.81993E-14
 -1       297 4.75440E-03 8.84303E-04-1.66718E-14
 -1       298 4.36083E-03 8.91348E-04-1.52225E-14
 -1       299 3.98005E-03 8.17350E-04-1.39433E-14
 -1       300 3.57366E-03 6.66301E-04-1.28168E-14
 -1       301 3.16720E-03 4.88531E-04-1.19481E-14
 -1       302 2.81692E-03 3.13722E-04-1.12557E-14
 -1       303 2.52576E-03 1.76883E-04-1.08657E-14
 -1       304 2.34321E-03 6.39093E-05-1.06542E-14
 -1       305 2.28592E-03-3.13374E-05-1.05749E-14
 -1       306 2.38197E-03-1.22605E-04-1.07464E-14
 -1       307 2.61203E-03-2.66466E-04-1.14146E-14
 -1       308 2.95082E-03-4.16991E-04-1.20694E-14
 -1       309 3.31696E-03-6.06528E-04-1.30623E-14
 -1       310 3.73367E-03-7.78458E-04-1.41254E-14
 -1       311 4.11557E-03-9.11080E-04-1.54952E-14
 -1       312 4.50005E-03-9.67412E-04-1.68999E-14
 -1       313 4.88506E-03-9.27509E-04-1.83580E-14
 -1       314 5.27099E-03-8.13476E-04-1.97763E-14
 -1       315 5.65747E-03-6.51466E-04-2.10838E-14
 -1       316 6.02713E-03-4.62445E-04-2.23599E-14
 -1       317 6.36833E-03-3.10998E-04-2.30984E-14
 -1       318 6.60575E-03-1.84236E-04-2.36274E-14
 -1       319 6.73173E-03-8.25842E-05-2.38167E-14
 -1       320 4.69365E-04-1.23861E-04-2.73253E-16
 -1       321 4.97598E-04-1.75211E-04-2.36979E-16
 -1       322 4.31403E-04-5.75163E-05-3.02391E-16
 -1       323 4.18201E-04-3.61079E-05-3.04949E-16
 -1       324 4.09056E-04-1.97532E-05-3.03400E-16
 -1       325 4.04488E-04-6.41210E-06-2.98295E-16
 -1       326 4.04807E-04 6.04421E-06-2.89983E-16
 -1       327 4.09940E-04 1.97663E-05-2.78003E-16
 -1       328 4.19264E-04 3.64861E-05-2.61838E-16
 -1       329 4.32546E-04 5.86797E-05-2.39426E-16
 -1       330 4.49339E-04 8.80631E-05-2.08567E-16
 -1       331 4.70284E-04 1.27136E-04-1.65941E-16
 -1       332 4.99134E-04 1.80166E-04-1.05855E-16
 -1       333 5.60491E-04 2.34252E-04-7.26551E-17
 -1       334 8.73457E-04 3.21625E-04-2.91644E-16
 -1       335 9.12885E-04-2.98758E-04-7.30759E-16
 -1       336 1.22212E-03-3.57627E-04-1.31499E-15
 -1       337 1.53248E-03-4.05430E-04-2.07226E-15
 -1       338 1.84627E-03-4.50513E-04-3.00215E-15
 -1       339 2.16533E-03-5.00797E-04-4.10395E-15
 -1       340 2.49078E-03-5.63835E-04-5.37710E-15
 -1       341 2.82270E-03-6.45975E-04-6.82328E-15
 -1       342 3.15951E-03-7.50263E-04-8.44419E-15
 -1       343 3.49732E-03-8.72958E-04-1.02441E-14
 -1       344 3.83033E-03-9.99762E-04-1.22268E-14
 -1       345 4.15360E-03-1.10517E-03-1.44029E-14
 -1       346 4.46748E-03-1.16002E-03-1.67831E-14
 -1       347 4.77911E-03-1.14680E-03-1.93681E-14
 -1       348 5.09769E-03-1.07124E-03-2.21529E-14
 -1       349 5.42751E-03-9.58670E-04-2.51253E-14
 -1       350 5.76599E-03-8.38750E-04-2.82709E-14
 -1       351 6.10725E-03-7.33041E-04-3.15775E-14
 -1       352 6.44603E-03-6.51664E-04-3.50369E-14
 -1       353 6.77927E-03-5.96025E-04-3.86434E-14
 -1       354 7.10582E-03-5.62821E-04-4.23897E-14
 -1       355 7.42566E-03-5.47060E-04-4.62718E-14
 -1       356 7.73933E-03-5.43782E-04-5.02871E-14
 -1       357 8.04753E-03-5.48800E-04-5.44230E-14
 -1       358 8.35104E-03-5.58892E-04-5.86776E-14
 -1       359 8.65062E-03-5.71730E-04-6.30464E-14
 -1       360 8.94694E-03-5.85725E-04-6.75305E-14
 -1       361 9.24063E-03-5.99850E-04-7.21328E-14
 -1       362 9.53222E-03-6.13483E-04-7.68439E-14
 -1       363 9.82217E-03-6.26289E-04-8.16601E-14
 -1       364 1.01109E-02-6.38124E-04-8.65833E-14
 -1       365 1.03986E-02-6.48964E-04-9.16159E-14
 -1       366 1.06857E-02-6.58863E-04-9.67482E-14
 -1       367 1.09722E-02-6.67913E-04-1.01967E-13
 -1       368 1.12584E-02-6.76224E-04-1.07267E-13
 -1       369 1.15443E-02-6.83911E-04-1.12632E-13
 -1       370 1.18301E-02-6.91083E-04-1.18063E-13
 -1       371 1.21157E-02-6.97839E-04-1.23548E-13
 -1       372 1.24014E-02-7.04266E-04-1.29100E-13
 -1       373 1.26869E-02-7.10438E-04-1.34715E-13
 -1       374 1.29725E-02-7.16418E-04-1.40392E-13
 -1       375 1.32581E-02-7.22257E-04-1.46137E-13
 -1       376 1.35437E-02-7.27997E-04-1.51945E-13
 -1       377 1.38294E-02-7.33674E-04-1.57804E-13
 -1       378 1.41150E-02-7.39316E-04-1.63702E-13
 -1       379 1.44007E-02-7.44948E-04-1.69636E-13
 -1       380 1.46569E-02-7.53353E-04-1.75002E-13
 -1       381 1.18386E-03 3.85668E-04-6.53716E-16
 -1       382 1.49464E-03 4.36683E-04-1.16539E-15
 -1       383 1.80855E-03 4.83356E-04-1.83132E-15
 -1       384 2.12724E-03 5.33427E-04-2.65634E-15
 -1       385 2.45122E-03 5.93914E-04-3.64317E-15
 -1       386 2.77961E-03 6.70403E-04-4.79358E-15
 -1       387 3.11000E-03 7.65266E-04-6.11080E-15
 -1       388 3.43837E-03 8.74943E-04-7.60037E-15
 -1       389 3.75999E-03 9.87366E-04-9.26878E-15
 -1       390 4.07148E-03 1.08202E-03-1.11209E-14
 -1       391 4.37363E-03 1.13540E-03-1.31690E-14
 -1       392 4.67232E-03 1.13149E-03-1.54167E-14
 -1       393 4.97578E-03 1.07086E-03-1.78641E-14
 -1       394 5.28972E-03 9.70426E-04-2.05050E-14
 -1       395 5.61471E-03 8.54375E-04-2.33304E-14
 -1       396 5.94724E-03 7.43699E-04-2.63320E-14
 -1       397 6.28247E-03 6.51014E-04-2.95062E-14
 -1       398 6.61626E-03 5.80740E-04-3.28479E-14
 -1       399 6.94592E-03 5.31821E-04-3.63475E-14
 -1       400 7.27004E-03 5.00547E-04-3.99993E-14
 -1       401 7.58818E-03 4.82512E-04-4.37915E-14
 -1       402 7.90053E-03 4.73658E-04-4.77183E-14
 -1       403 8.20759E-03 4.70687E-04-5.17772E-14
 -1       404 8.51003E-03 4.71124E-04-5.59587E-14
 -1       405 8.80859E-03 4.73219E-04-6.02608E-14
 -1       406 9.10396E-03 4.75803E-04-6.46860E-14
 -1       407 9.39677E-03 4.78143E-04-6.92303E-14
 -1       408 9.68758E-03 4.79818E-04-7.38813E-14
 -1       409 9.97685E-03 4.80620E-04-7.86405E-14
 -1       410 1.02650E-02 4.80485E-04-8.35068E-14
 -1       411 1.05522E-02 4.79434E-04-8.84750E-14
 -1       412 1.08389E-02 4.77541E-04-9.35438E-14
 -1       413 1.11251E-02 4.74906E-04-9.86989E-14
 -1       414 1.14110E-02 4.71637E-04-1.03930E-13
 -1       415 1.16967E-02 4.67840E-04-1.09224E-13
 -1       416 1.19824E-02 4.63612E-04-1.14575E-13
 -1       417 1.22679E-02 4.59042E-04-1.19987E-13
 -1       418 1.25535E-02 4.54205E-04-1.25459E-13
 -1       419 1.28390E-02 4.49165E-04-1.30993E-13
 -1       420 1.31245E-02 4.43974E-04-1.36591E-13
 -1       421 1.34101E-02 4.38677E-04-1.42219E-13
 -1       422 1.36957E-02 4.33309E-04-1.47882E-13
 -1       423 1.39814E-02 4.27900E-04-1.53578E-13
 -1       424 1.42670E-02 4.22477E-04-1.59297E-13
 -1       425 1.45527E-02 4.17061E-04-1.65030E-13
 -1       426 1.47372E-02 4.07599E-04-1.68780E-13
 -1       427 1.46873E-02 1.92017E-04-1.69278E-13
 -1       428 1.46821E-02 2.76349E-04-1.68591E-13
 -1       429 1.47097E-02 3.41979E-04-1.68686E-13
 -1       430 1.46925E-02 1.09096E-04-1.69959E-13
 -1       431 1.46977E-02 2.47283E-05-1.70652E-13
 -1       432 1.47030E-02-5.96525E-05-1.71350E-13
 -1       433 1.47084E-02-1.44042E-04-1.72052E-13
 -1       434 1.47138E-02-2.28433E-04-1.72753E-13
 -1       435 1.47193E-02-3.12822E-04-1.73453E-13
 -1       436 1.47248E-02-3.95773E-04-1.74129E-13
 -1       437 1.47304E-02-4.80141E-04-1.74813E-13
 -1       438 1.47361E-02-5.64492E-04-1.75481E-13
 -1       439 1.47418E-02-6.48823E-04-1.76133E-13
 -1       440 6.43566E-03 1.21960E-04-2.39209E-14
 -1       441 6.76597E-03-4.26688E-05-2.53603E-14
 -1       442 6.66047E-03 2.66381E-05-2.50244E-14
 -1       443 6.12074E-03 2.54550E-04-2.29360E-14
 -1       444 5.61804E-03 5.14341E-04-2.08521E-14
 -1       445 4.48202E-04-8.59088E-05-2.93087E-16
 -1       446 4.92111E-03 8.55162E-04-1.76411E-14
 -1       447 4.53045E-03 9.40816E-04-1.56942E-14
 -1       448 4.25705E-03 9.06800E-04-1.43941E-14
 -1       449 3.84271E-03 7.46420E-04-1.28538E-14
 -1       450 3.43145E-03 5.34796E-04-1.16936E-14
 -1       451 3.05389E-03 3.45931E-04-1.09583E-14
 -1       452 2.67763E-03 1.66053E-04-1.01999E-14
 -1       453 2.42134E-03 7.03554E-05-1.00635E-14
 -1       454 2.28131E-03 1.44954E-06-9.68810E-15
 -1       455 2.29129E-03-4.91102E-05-9.81897E-15
 -1       456 2.51694E-03-1.49107E-04-1.04796E-14
 -1       457 2.79316E-03-2.67270E-04-1.10785E-14
 -1       458 3.22129E-03-4.67850E-04-1.20048E-14
 -1       459 3.56628E-03-6.50837E-04-1.29955E-14
 -1       460 4.02015E-03-8.78772E-04-1.46521E-14
 -1       461 4.31123E-03-9.77214E-04-1.60029E-14
 -1       462 4.68541E-03-9.87965E-04-1.78599E-14
 -1       463 5.02493E-03-8.92822E-04-1.95346E-14
 -1       464 5.39101E-03-7.18928E-04-2.12159E-14
 -1       465 5.76330E-03-5.24917E-04-2.25773E-14
 -1       466 6.18631E-03-3.06568E-04-2.41664E-14
 -1       467 6.48370E-03-1.83799E-04-2.47394E-14
 -1       468 6.70158E-03-9.17385E-05-2.51578E-14
 -1       469 5.30095E-03 6.84452E-04-1.94227E-14
 -1       470 5.87000E-03 3.63121E-04-2.25486E-14
 -1       471 6.76215E-03-1.73341E-05-2.64192E-14
 -1       472 2.36204E-03-7.66764E-05-9.54483E-15
 -1       473 9.77652E-04 2.82956E-04-5.87329E-16
 -1       474 6.25591E-04-4.30085E-05-6.47154E-16
 -1       475 6.44543E-04-7.11700E-05-6.46574E-16
 -1       476 6.10308E-04-3.65194E-07-6.27255E-16
 -1       477 6.15037E-04 1.98987E-05-6.07441E-16
 -1       478 6.27329E-04 4.29326E-05-5.80956E-16
 -1       479 6.46628E-04 7.21318E-05-5.44788E-16
 -1       480 6.71813E-04 1.09478E-04-4.97266E-16
 -1       481 7.02576E-04 1.57201E-04-4.34413E-16
 -1       482 1.28278E-03 3.35748E-04-1.06141E-15
 -1       483 1.01697E-03-2.60173E-04-1.07279E-15
 -1       484 5.09713E-03 7.81870E-04-1.88447E-14
 -1       485 1.31855E-03-3.07852E-04-1.75479E-15
 -1       486 1.62296E-03-3.49306E-04-2.60462E-15
 -1       487 1.93180E-03-3.91388E-04-3.62229E-15
 -1       488 2.24735E-03-4.41454E-04-4.80630E-15
 -1       489 2.57217E-03-5.07027E-04-6.15717E-15
 -1       490 2.90815E-03-5.94850E-04-7.67699E-15
 -1       491 3.25477E-03-7.08338E-04-9.36711E-15
 -1       492 3.60707E-03-8.42518E-04-1.12360E-14
 -1       493 3.95577E-03-9.77267E-04-1.32930E-14
 -1       494 4.29315E-03-1.07614E-03-1.55504E-14
 -1       495 4.62179E-03-1.10206E-03-1.80164E-14
 -1       496 4.95354E-03-1.04481E-03-2.06885E-14
 -1       497 5.29711E-03-9.30179E-04-2.35595E-14
 -1       498 5.64964E-03-7.98630E-04-2.66118E-14
 -1       499 6.00161E-03-6.80679E-04-2.98295E-14
 -1       500 6.34522E-03-5.89734E-04-3.32013E-14
 -1       501 6.67753E-03-5.27236E-04-3.67214E-14
 -1       502 6.99913E-03-4.89181E-04-4.03829E-14
 -1       503 7.31204E-03-4.70001E-04-4.41795E-14
 -1       504 7.61836E-03-4.64399E-04-4.81090E-14
 -1       505 7.91977E-03-4.67967E-04-5.21663E-14
 -1       506 8.21753E-03-4.77298E-04-5.63439E-14
 -1       507 8.51251E-03-4.89894E-04-6.06417E-14
 -1       508 8.80533E-03-5.04011E-04-6.50519E-14
 -1       509 9.09646E-03-5.18489E-04-6.95794E-14
 -1       510 9.38626E-03-5.32605E-04-7.42238E-14
 -1       511 9.67501E-03-5.45946E-04-7.89729E-14
 -1       512 9.96294E-03-5.58316E-04-8.38259E-14
 -1       513 1.02502E-02-5.69659E-04-8.87904E-14
 -1       514 1.05371E-02-5.80008E-04-9.38563E-14
 -1       515 1.08235E-02-5.89449E-04-9.90111E-14
 -1       516 1.11097E-02-5.98091E-04-1.04255E-13
 -1       517 1.13957E-02-6.06051E-04-1.09576E-13
 -1       518 1.16816E-02-6.13443E-04-1.14961E-13
 -1       519 1.19674E-02-6.20373E-04-1.20409E-13
 -1       520 1.22531E-02-6.26935E-04-1.25914E-13
 -1       521 1.25388E-02-6.33209E-04-1.31481E-13
 -1       522 1.28245E-02-6.39264E-04-1.37114E-13
 -1       523 1.31101E-02-6.45155E-04-1.42805E-13
 -1       524 1.33958E-02-6.50930E-04-1.48560E-13
 -1       525 1.36815E-02-6.56625E-04-1.54368E-13
 -1       526 1.39672E-02-6.62273E-04-1.60229E-13
 -1       527 1.42528E-02-6.67899E-04-1.66131E-13
 -1       528 1.90122E-03 4.24589E-04-2.46217E-15
 -1       529 2.21781E-03 4.75055E-04-3.39678E-15
 -1       530 2.54136E-03 5.38808E-04-4.49054E-15
 -1       531 2.87243E-03 6.21295E-04-5.74652E-15
 -1       532 3.20956E-03 7.24306E-04-7.16947E-15
 -1       533 3.54844E-03 8.42266E-04-8.76427E-15
 -1       534 3.88254E-03 9.58486E-04-1.05381E-14
 -1       535 4.20691E-03 1.04574E-03-1.25029E-14
 -1       536 4.52323E-03 1.07599E-03-1.46682E-14
 -1       537 4.84002E-03 1.03755E-03-1.70359E-14
 -1       538 5.16559E-03 9.43420E-04-1.96037E-14
 -1       539 5.50138E-03 8.22411E-04-2.23613E-14
 -1       540 5.84217E-03 7.02110E-04-2.52985E-14
 -1       541 6.18139E-03 5.99528E-04-2.84083E-14
 -1       542 6.51468E-03 5.20882E-04-3.16852E-14
 -1       543 6.84044E-03 4.65517E-04-3.51200E-14
 -1       544 7.15885E-03 4.29594E-04-3.87053E-14
 -1       545 7.47082E-03 4.08436E-04-4.24348E-14
 -1       546 7.77742E-03 3.97686E-04-4.63013E-14
 -1       547 8.07962E-03 3.93755E-04-5.03023E-14
 -1       548 8.37824E-03 3.93906E-04-5.44284E-14
 -1       549 8.67394E-03 3.96169E-04-5.86777E-14
 -1       550 8.96729E-03 3.99199E-04-6.30457E-14
 -1       551 9.25876E-03 4.02133E-04-6.75356E-14
 -1       552 9.54873E-03 4.04455E-04-7.21395E-14
 -1       553 9.83754E-03 4.05898E-04-7.68492E-14
 -1       554 1.01254E-02 4.06358E-04-8.16621E-14
 -1       555 1.04127E-02 4.05837E-04-8.65827E-14
 -1       556 1.06994E-02 4.04402E-04-9.16021E-14
 -1       557 1.09857E-02 4.02150E-04-9.67160E-14
 -1       558 1.12718E-02 3.99195E-04-1.01911E-13
 -1       559 1.15577E-02 3.95650E-04-1.07174E-13
 -1       560 1.18435E-02 3.91622E-04-1.12496E-13
 -1       561 1.21292E-02 3.87205E-04-1.17884E-13
 -1       562 1.24149E-02 3.82483E-04-1.23331E-13
 -1       563 1.27005E-02 3.77527E-04-1.28839E-13
 -1       564 1.29861E-02 3.72395E-04-1.34400E-13
 -1       565 1.32718E-02 3.67137E-04-1.40013E-13
 -1       566 1.35574E-02 3.61791E-04-1.45657E-13
 -1       567 1.38431E-02 3.56391E-04-1.51331E-13
 -1       568 1.41288E-02 3.50964E-04-1.57038E-13
 -1       569 1.44145E-02 3.45534E-04-1.62768E-13
 -1       570 1.44476E-02 7.16403E-05-1.65313E-13
 -1       571 1.44529E-02-1.27161E-05-1.65998E-13
 -1       572 1.44373E-02 2.38886E-04-1.63958E-13
 -1       573 1.44424E-02 1.55270E-04-1.64636E-13
 -1       574 1.44582E-02-9.70803E-05-1.66680E-13
 -1       575 1.44636E-02-1.81449E-04-1.67362E-13
 -1       576 1.44691E-02-2.65817E-04-1.68040E-13
 -1       577 1.44746E-02-3.48751E-04-1.68701E-13
 -1       578 1.44802E-02-4.33108E-04-1.69364E-13
 -1       579 1.44858E-02-5.17452E-04-1.70017E-13
 -1       580 1.44915E-02-6.01782E-04-1.70659E-13
 -1       581 6.32494E-03 1.46958E-04-2.49400E-14
 -1       582 1.59013E-03 3.80559E-04-1.68497E-15
 -1       583 5.43297E-03 6.01317E-04-2.06943E-14
 -1       584 6.63631E-03-1.11247E-04-2.67456E-14
 -1       585 6.57062E-03 5.28737E-05-2.60683E-14
 -1       586 6.75563E-03-6.78139E-05-2.69553E-14
 -1       587 6.13905E-04-2.03415E-05-6.40340E-16
 -1       588 4.76205E-03 9.22104E-04-1.69626E-14
 -1       589 3.64198E-03 6.39379E-04-1.15243E-14
 -1       590 4.37721E-03 9.51728E-04-1.46281E-14
 -1       591 4.84106E-03-9.67947E-04-1.90120E-14
 -1       592 4.05394E-03 8.49628E-04-1.30769E-14
 -1       593 3.21548E-03 4.06649E-04-1.03347E-14
 -1       594 2.86534E-03 2.34643E-04-9.61230E-15
 -1       595 2.49065E-03 8.14047E-05-9.33669E-15
 -1       596 2.30777E-03 1.97430E-05-8.97394E-15
 -1       597 2.21711E-03-2.11772E-05-8.66779E-15
 -1       598 2.63980E-03-1.77283E-04-1.00659E-14
 -1       599 2.97579E-03-3.24492E-04-1.07196E-14
 -1       600 3.39517E-03-5.43094E-04-1.19083E-14
 -1       601 3.80174E-03-7.70761E-04-1.33786E-14
 -1       602 4.18973E-03-9.54837E-04-1.51982E-14
 -1       603 4.53448E-03-1.02456E-03-1.72188E-14
 -1       604 5.18310E-03-8.22880E-04-2.10596E-14
 -1       605 5.57811E-03-6.05116E-04-2.30098E-14
 -1       606 5.96643E-03-3.96196E-04-2.46212E-14
 -1       607 6.37815E-03-2.07574E-04-2.59223E-14
 -1       608 7.38074E-04-1.95119E-04-6.07309E-16
 -1       609 7.38646E-04 2.39312E-04-2.96895E-16
 -1       610 6.69660E-04-1.07178E-04-6.36979E-16
 -1       611 6.19770E-03-2.95737E-04-2.63782E-14
 -1       612 6.11992E-03 2.43519E-04-2.45212E-14
 -1       613 6.72224E-03 7.54741E-06-2.74780E-14
 -1       614 6.82292E-03-4.38385E-05-2.80287E-14
 -1       615 1.44461E-02-6.73373E-04-1.70153E-13
 -1       616 2.63562E-03 1.50311E-04-8.76591E-15
 -1       617 2.22355E-03-4.03718E-05-8.39882E-15
 -1       618 5.69065E-03 4.64347E-04-2.23740E-14
 -1       619 8.33270E-04 4.11744E-05-1.02741E-15
 -1       620 8.20294E-04 1.24289E-05-1.06448E-15
 -1       621 8.89318E-04 1.17762E-04-9.15558E-16
 -1       622 9.29039E-04 1.70607E-04-8.34046E-16
 -1       623 1.08044E-03 2.43177E-04-9.30242E-16
 -1       624 1.42982E-02-5.96313E-04-1.66641E-13
 -1       625 1.40870E-03-2.58346E-04-2.21766E-15
 -1       626 1.70455E-03-2.93020E-04-3.15368E-15
 -1       627 2.00624E-03-3.30560E-04-4.25283E-15
 -1       628 2.31728E-03-3.77894E-04-5.51278E-15
 -1       629 2.64234E-03-4.43162E-04-6.93450E-15
 -1       630 2.98574E-03-5.35318E-04-8.52001E-15
 -1       631 3.34785E-03-6.60805E-04-1.02760E-14
 -1       632 3.72143E-03-8.15149E-04-1.22117E-14
 -1       633 4.09125E-03-9.65498E-04-1.43426E-14
 -1       634 4.44637E-03-1.05193E-03-1.66829E-14
 -1       635 4.79734E-03-1.02855E-03-1.92379E-14
 -1       636 5.15942E-03-9.10330E-04-2.20028E-14
 -1       637 5.53257E-03-7.57994E-04-2.49620E-14
 -1       638 5.90259E-03-6.21960E-04-2.80954E-14
 -1       639 6.25663E-03-5.21089E-04-3.13843E-14
 -1       640 6.59111E-03-4.54319E-04-3.48191E-14
 -1       641 6.90882E-03-4.14506E-04-3.83982E-14
 -1       642 7.21442E-03-3.94269E-04-4.21111E-14
 -1       643 7.51215E-03-3.87704E-04-4.59541E-14
 -1       644 7.80507E-03-3.90357E-04-4.99297E-14
 -1       645 8.09519E-03-3.98915E-04-5.40283E-14
 -1       646 8.38369E-03-4.10954E-04-5.82523E-14
 -1       647 8.67126E-03-4.24747E-04-6.25933E-14
 -1       648 8.95828E-03-4.39109E-04-6.70474E-14
 -1       649 9.24495E-03-4.53272E-04-7.16191E-14
 -1       650 9.53139E-03-4.66773E-04-7.63004E-14
 -1       651 9.81766E-03-4.79369E-04-8.10908E-14
 -1       652 1.01038E-02-4.90970E-04-8.59865E-14
 -1       653 1.03898E-02-5.01582E-04-9.09869E-14
 -1       654 1.06758E-02-5.11273E-04-9.60792E-14
 -1       655 1.09617E-02-5.20141E-04-1.01262E-13
 -1       656 1.12476E-02-5.28299E-04-1.06530E-13
 -1       657 1.15334E-02-5.35859E-04-1.11873E-13
 -1       658 1.18191E-02-5.42929E-04-1.17278E-13
 -1       659 1.21049E-02-5.49604E-04-1.22740E-13
 -1       660 1.23906E-02-5.55968E-04-1.28267E-13
 -1       661 1.26764E-02-5.62092E-04-1.33856E-13
 -1       662 1.29621E-02-5.68035E-04-1.39500E-13
 -1       663 1.32478E-02-5.73845E-04-1.45205E-13
 -1       664 1.35335E-02-5.79563E-04-1.50965E-13
 -1       665 1.38192E-02-5.85220E-04-1.56777E-13
 -1       666 1.40587E-02-5.90771E-04-1.61692E-13
 -1       667 2.29935E-03 4.13352E-04-4.17116E-15
 -1       668 3.56621E-03-6.66460E-04-1.19607E-14
 -1       669 1.98502E-03 3.64242E-04-3.13064E-15
 -1       670 2.96322E-03 5.65829E-04-6.72579E-15
 -1       671 3.31376E-03 6.78638E-04-8.24935E-15
 -1       672 3.66958E-03 8.09826E-04-9.94500E-15
 -1       673 4.01958E-03 9.34648E-04-1.18243E-14
 -1       674 4.35749E-03 1.01235E-03-1.39030E-14
 -1       675 4.68897E-03 1.00748E-03-1.61880E-14
 -1       676 5.02682E-03 9.22080E-04-1.86806E-14
 -1       677 5.37797E-03 7.91226E-04-2.13723E-14
 -1       678 5.73407E-03 6.56775E-04-2.42480E-14
 -1       679 6.08472E-03 5.43078E-04-2.72972E-14
 -1       680 6.42319E-03 4.57470E-04-3.05123E-14
 -1       681 6.74844E-03 3.97952E-04-3.38878E-14
 -1       682 7.06244E-03 3.59373E-04-3.74103E-14
 -1       683 7.36803E-03 3.36356E-04-4.10761E-14
 -1       684 7.66772E-03 3.24275E-04-4.48812E-14
 -1       685 7.96340E-03 3.19448E-04-4.88236E-14
 -1       686 8.25634E-03 3.19084E-04-5.28972E-14
 -1       687 8.54738E-03 3.21150E-04-5.70936E-14
 -1       688 8.83706E-03 3.24228E-04-6.14080E-14
 -1       689 9.12575E-03 3.27381E-04-6.58429E-14
 -1       690 9.41368E-03 3.30028E-04-7.03946E-14
 -1       691 9.70105E-03 3.31847E-04-7.50558E-14
 -1       692 9.98797E-03 3.32695E-04-7.98206E-14
 -1       693 1.02746E-02 3.32547E-04-8.46913E-14
 -1       694 1.05609E-02 3.31453E-04-8.96663E-14
 -1       695 1.08470E-02 3.29502E-04-9.47350E-14
 -1       696 1.11330E-02 3.26805E-04-9.98921E-14
 -1       697 1.14189E-02 3.23475E-04-1.05123E-13
 -1       698 1.17047E-02 3.19622E-04-1.10415E-13
 -1       699 1.19905E-02 3.15345E-04-1.15775E-13
 -1       700 1.22763E-02 3.10733E-04-1.21200E-13
 -1       701 1.25620E-02 3.05860E-04-1.26685E-13
 -1       702 1.28477E-02 3.00790E-04-1.32218E-13
 -1       703 1.31334E-02 2.95575E-04-1.37805E-13
 -1       704 1.34191E-02 2.90256E-04-1.43432E-13
 -1       705 1.37048E-02 2.84870E-04-1.49090E-13
 -1       706 1.39905E-02 2.79445E-04-1.54782E-13
 -1       707 1.42139E-02 2.59167E-04-1.59362E-13
 -1       708 1.42135E-02-1.34485E-04-1.62010E-13
 -1       709 1.42028E-02 3.42074E-05-1.60669E-13
 -1       710 1.42189E-02-2.18835E-04-1.62672E-13
 -1       711 1.42081E-02-5.01367E-05-1.61346E-13
 -1       712 1.67870E-03 3.23923E-04-2.24544E-15
 -1       713 1.42243E-02-3.01753E-04-1.63313E-13
 -1       714 1.42299E-02-3.86097E-04-1.63957E-13
 -1       715 1.42355E-02-4.70434E-04-1.64593E-13
 -1       716 6.76463E-03-8.64536E-05-2.88877E-14
 -1       717 5.25746E-03 7.15796E-04-2.01113E-14
 -1       718 5.41661E-03-7.27299E-04-2.31504E-14
 -1       719 6.50281E-03 9.74784E-05-2.71478E-14
 -1       720 2.62470E-03 4.78387E-04-5.36784E-15
 -1       721 1.11674E-03-2.20743E-04-1.44471E-15
 -1       722 8.56898E-04 7.53729E-05-9.78608E-16
 -1       723 1.37775E-03 2.85612E-04-1.51320E-15
 -1       724 4.60412E-03 9.80306E-04-1.58271E-14
 -1       725 8.53578E-04-7.49237E-05-1.11283E-15
 -1       726 4.99529E-03-9.35372E-04-2.04176E-14
 -1       727 4.16460E-03 9.20078E-04-1.31866E-14
 -1       728 3.81988E-03 7.68328E-04-1.15741E-14
 -1       729 2.99330E-03 3.21648E-04-9.17422E-15
 -1       730 2.36413E-03 5.10052E-05-8.39107E-15
 -1       731 3.40125E-03 5.34057E-04-1.02189E-14
 -1       732 2.18026E-03 5.53105E-06-7.71659E-15
 -1       733 2.72928E-03-2.26795E-04-9.52410E-15
 -1       734 3.13884E-03-4.31690E-04-1.04725E-14
 -1       735 3.93426E-03-8.62533E-04-1.36549E-14
 -1       736 4.94159E-03 8.78416E-04-1.81440E-14
 -1       737 2.43311E-03-1.08732E-04-8.96719E-15
 -1       738 6.57431E-03-1.47449E-04-2.80375E-14
 -1       739 5.81386E-03-5.01899E-04-2.51916E-14
 -1       740 8.85777E-04-1.15813E-04-1.10647E-15
 -1       741 8.19463E-04-1.41094E-05-1.09076E-15
 -1       742 6.43876E-03-2.20960E-04-2.84997E-14
 -1       743 5.95809E-03 3.43587E-04-2.43260E-14
 -1       744 6.34129E-03 1.75533E-04-2.66997E-14
 -1       745 6.68022E-03 4.53247E-05-2.85784E-14
 -1       746 1.42190E-02 1.75563E-04-1.60038E-13
 -1       747 6.84596E-03-2.35552E-05-2.91078E-14
 -1       748 5.50355E-03 5.93192E-04-2.17580E-14
 -1       749 2.12607E-03-1.34364E-05-7.46513E-15
 -1       750 8.30894E-04-4.20125E-05-1.10707E-15
 -1       751 4.76535E-03-1.01685E-03-1.88870E-14
 -1       752 2.75223E-03 2.31996E-04-8.34580E-15
 -1       753 1.42109E-02 1.04889E-04-1.60354E-13
 -1       754 9.45959E-04-1.79262E-04-1.10518E-15
 -1       755 6.05430E-03-4.02132E-04-2.69592E-14
 -1       756 1.21367E-03 2.08218E-04-1.39218E-15
 -1       757 1.49075E-03-2.08904E-04-2.70181E-15
 -1       758 1.77553E-03-2.35899E-04-3.71779E-15
 -1       759 2.06690E-03-2.66601E-04-4.89113E-15
 -1       760 2.36987E-03-3.07764E-04-6.22066E-15
 -1       761 2.69199E-03-3.69234E-04-7.70629E-15
 -1       762 3.04167E-03-4.65192E-04-9.35365E-15
 -1       763 5.82587E-03-5.56659E-04-2.63699E-14
 -1       764 6.19182E-03-4.42422E-04-2.95804E-14
 -1       765 6.52680E-03-3.74191E-04-3.29374E-14
 -1       766 6.83782E-03-3.36645E-04-3.64319E-14
 -1       767 7.13325E-03-3.18713E-04-4.00633E-14
 -1       768 7.41992E-03-3.13362E-04-4.38248E-14
 -1       769 7.70224E-03-3.16222E-04-4.77153E-14
 -1       770 7.98286E-03-3.24368E-04-5.17348E-14
 -1       771 8.26325E-03-3.35733E-04-5.58827E-14
 -1       772 8.54410E-03-3.48827E-04-6.01534E-14
 -1       773 8.82572E-03-3.62589E-04-6.45375E-14
 -1       774 9.10814E-03-3.76295E-04-6.90352E-14
 -1       775 9.39131E-03-3.89485E-04-7.36485E-14
 -1       776 9.67512E-03-4.01894E-04-7.83743E-14
 -1       777 9.95945E-03-4.13404E-04-8.32072E-14
 -1       778 1.02442E-02-4.23994E-04-8.81444E-14
 -1       779 1.05292E-02-4.33708E-04-9.31727E-14
 -1       780 1.08145E-02-4.42627E-04-9.82925E-14
 -1       781 1.10999E-02-4.50849E-04-1.03503E-13
 -1       782 1.13855E-02-4.58478E-04-1.08797E-13
 -1       783 1.16712E-02-4.65614E-04-1.14158E-13
 -1       784 1.19568E-02-4.72351E-04-1.19578E-13
 -1       785 1.22426E-02-4.78769E-04-1.25066E-13
 -1       786 1.25283E-02-4.84938E-04-1.30610E-13
 -1       787 1.28141E-02-4.90918E-04-1.36215E-13
 -1       788 1.30998E-02-4.96756E-04-1.41878E-13
 -1       789 1.33856E-02-5.02493E-04-1.47592E-13
 -1       790 1.36713E-02-5.08162E-04-1.53356E-13
 -1       791 5.19135E-03 8.02599E-04-1.99226E-14
 -1       792 1.39741E-02-2.55487E-04-1.57978E-13
 -1       793 3.41293E-03 6.29859E-04-9.34754E-15
 -1       794 3.04430E-03 5.01739E-04-7.72923E-15
 -1       795 5.63251E-03 6.08707E-04-2.31773E-14
 -1       796 6.00008E-03 4.78614E-04-2.61716E-14
 -1       797 6.34652E-03 3.86700E-04-2.93308E-14
 -1       798 6.67203E-03 3.25936E-04-3.26466E-14
 -1       799 6.98111E-03 2.87827E-04-3.61101E-14
 -1       800 7.27915E-03 2.65287E-04-3.97156E-14
 -1       801 7.57047E-03 2.53263E-04-4.34600E-14
 -1       802 7.85803E-03 2.48155E-04-4.73447E-14
 -1       803 8.14369E-03 2.47363E-04-5.13603E-14
 -1       804 8.42852E-03 2.49009E-04-5.55033E-14
 -1       805 8.71312E-03 2.51762E-04-5.97675E-14
 -1       806 8.99777E-03 2.54711E-04-6.41504E-14
 -1       807 9.28259E-03 2.57271E-04-6.86509E-14
 -1       808 9.56760E-03 2.59097E-04-7.32641E-14
 -1       809 9.85280E-03 2.60020E-04-7.79814E-14
 -1       810 1.01382E-02 2.59989E-04-8.28019E-14
 -1       811 1.04236E-02 2.59032E-04-8.77309E-14
 -1       812 1.07092E-02 2.57224E-04-9.27543E-14
 -1       813 1.09948E-02 2.54665E-04-9.78687E-14
 -1       814 1.12805E-02 2.51462E-04-1.03069E-13
 -1       815 1.15662E-02 2.47720E-04-1.08334E-13
 -1       816 1.18520E-02 2.43540E-04-1.13666E-13
 -1       817 1.21377E-02 2.39007E-04-1.19064E-13
 -1       818 1.24235E-02 2.34199E-04-1.24523E-13
 -1       819 1.27092E-02 2.29180E-04-1.30038E-13
 -1       820 1.29949E-02 2.24003E-04-1.35601E-13
 -1       821 1.32807E-02 2.18711E-04-1.41211E-13
 -1       822 1.35664E-02 2.13340E-04-1.46857E-13
 -1       823 1.38521E-02 2.07920E-04-1.52533E-13
 -1       824 1.40356E-02 1.91745E-04-1.56279E-13
 -1       825 1.75858E-03 2.65948E-04-2.84699E-15
 -1       826 6.73214E-03-1.26622E-04-3.02275E-14
 -1       827 1.03640E-03 3.16685E-05-1.60165E-15
 -1       828 1.39686E-02-1.71156E-04-1.57339E-13
 -1       829 1.39852E-02-4.23426E-04-1.59215E-13
 -1       830 4.21738E-03-9.94064E-04-1.51755E-14
 -1       831 2.24752E-03-7.19412E-05-7.85475E-15
 -1       832 1.39796E-02-3.39458E-04-1.58601E-13
 -1       833 6.90501E-03-5.80947E-05-3.06270E-14
 -1       834 2.05813E-03 3.00492E-04-3.83630E-15
 -1       835 2.47539E-03-1.56890E-04-8.30299E-15
 -1       836 2.76547E-03-2.95673E-04-8.82704E-15
 -1       837 2.22506E-03 4.82310E-05-7.17984E-15
 -1       838 2.44046E-03 1.23011E-04-7.52204E-15
 -1       839 1.20992E-03-1.80753E-04-1.84519E-15
 -1       840 1.04468E-03-1.47063E-04-1.45355E-15
 -1       841 1.40220E-02-5.07102E-04-1.60452E-13
 -1       842 1.02649E-03-1.43937E-06-1.64692E-15
 -1       843 5.77219E-03 4.70760E-04-2.36751E-14
 -1       844 1.06205E-03 6.94134E-05-1.54131E-15
 -1       845 1.18264E-03 1.40737E-04-1.59085E-15
 -1       846 6.61076E-03 1.14907E-04-2.94111E-14
 -1       847 1.00279E-03-9.81129E-05-1.46522E-15
 -1       848 2.69596E-03 4.09128E-04-6.27465E-15
 -1       849 6.92069E-03-8.72444E-05-3.20055E-14
 -1       850 1.39580E-02-3.21194E-06-1.56043E-13
 -1       851 1.39633E-02-8.71833E-05-1.56696E-13
 -1       852 6.84646E-03 4.69098E-06-3.02363E-14
 -1       853 6.31656E-03-3.16015E-04-2.90940E-14
 -1       854 2.08317E-03-3.65119E-05-6.95582E-15
 -1       855 9.71355E-04-5.84900E-05-1.46132E-15
 -1       856 3.04419E-03 4.16327E-04-8.45637E-15
 -1       857 1.48417E-03 2.37782E-04-2.05307E-15
 -1       858 1.39660E-02 6.74591E-05-1.55734E-13
 -1       859 2.36885E-03 3.45382E-04-4.97829E-15
 -1       860 2.05375E-03 1.31434E-05-6.50269E-15
 -1       861 1.56425E-03-1.59705E-04-3.20559E-15
 -1       862 6.80692E-03 5.78268E-05-3.10952E-14
 -1       863 1.83425E-03-1.78114E-04-4.29451E-15
 -1       864 2.10915E-03-1.99573E-04-5.53588E-15
 -1       865 2.39522E-03-2.31034E-04-6.92823E-15
 -1       866 6.36477E-03 2.44089E-04-2.82443E-14
 -1       867 6.79237E-03-2.55897E-04-3.44844E-14
 -1       868 7.07057E-03-2.43536E-04-3.80346E-14
 -1       869 7.34128E-03-2.41710E-04-4.17157E-14
 -1       870 7.60984E-03-2.46007E-04-4.55254E-14
 -1       871 7.87885E-03-2.54212E-04-4.94653E-14
 -1       872 8.14959E-03-2.64877E-04-5.35335E-14
 -1       873 8.42255E-03-2.76949E-04-5.77297E-14
 -1       874 8.69778E-03-2.89636E-04-6.20458E-14
 -1       875 8.97512E-03-3.02356E-04-6.64733E-14
 -1       876 9.25430E-03-3.14711E-04-7.10167E-14
 -1       877 9.53503E-03-3.26450E-04-7.56762E-14
 -1       878 9.81702E-03-3.37445E-04-8.04492E-14
 -1       879 1.01000E-02-3.47652E-04-8.53215E-14
 -1       880 1.03838E-02-3.57091E-04-9.02910E-14
 -1       881 1.06682E-02-3.65819E-04-9.53471E-14
 -1       882 1.09530E-02-3.73915E-04-1.00498E-13
 -1       883 1.12381E-02-3.81465E-04-1.05737E-13
 -1       884 1.15235E-02-3.88556E-04-1.11052E-13
 -1       885 1.18090E-02-3.95270E-04-1.16429E-13
 -1       886 1.20946E-02-4.01681E-04-1.21875E-13
 -1       887 1.23803E-02-4.07852E-04-1.27385E-13
 -1       888 1.26661E-02-4.13839E-04-1.32948E-13
 -1       889 1.29519E-02-4.19686E-04-1.38568E-13
 -1       890 1.32376E-02-4.25431E-04-1.44244E-13
 -1       891 1.35234E-02-4.31104E-04-1.49969E-13
 -1       892 1.15765E-03-1.23812E-04-1.86287E-15
 -1       893 6.91798E-03 2.13779E-04-3.48063E-14
 -1       894 7.20486E-03 1.94700E-04-3.83537E-14
 -1       895 7.48506E-03 1.84603E-04-4.20387E-14
 -1       896 7.76241E-03 1.80182E-04-4.58605E-14
 -1       897 8.03912E-03 1.79287E-04-4.98201E-14
 -1       898 8.31639E-03 1.80425E-04-5.39093E-14
 -1       899 8.59473E-03 1.82531E-04-5.81215E-14
 -1       900 8.87432E-03 1.84847E-04-6.24542E-14
 -1       901 9.15514E-03 1.86861E-04-6.69038E-14
 -1       902 9.43705E-03 1.88255E-04-7.14670E-14
 -1       903 9.71989E-03 1.88857E-04-7.61401E-14
 -1       904 1.00035E-02 1.88602E-04-8.09159E-14
 -1       905 1.02877E-02 1.87500E-04-8.57955E-14
 -1       906 1.05723E-02 1.85606E-04-9.07762E-14
 -1       907 1.08574E-02 1.83004E-04-9.58490E-14
 -1       908 1.11426E-02 1.79787E-04-1.01009E-13
 -1       909 1.14281E-02 1.76052E-04-1.06246E-13
 -1       910 1.17136E-02 1.71888E-04-1.11553E-13
 -1       911 1.19993E-02 1.67379E-04-1.16923E-13
 -1       912 1.22850E-02 1.62595E-04-1.22358E-13
 -1       913 1.25708E-02 1.57600E-04-1.27851E-13
 -1       914 1.28565E-02 1.52443E-04-1.33395E-13
 -1       915 1.31423E-02 1.47167E-04-1.38987E-13
 -1       916 1.34281E-02 1.41807E-04-1.44621E-13
 -1       917 1.37138E-02 1.36392E-04-1.50282E-13
 -1       918 1.37239E-02-2.08521E-04-1.52685E-13
 -1       919 2.54374E-03 2.19716E-04-7.00188E-15
 -1       920 9.93294E-04-2.95750E-05-1.55880E-15
 -1       921 6.61823E-03 2.47482E-04-3.13983E-14
 -1       922 1.37543E-02-4.27276E-04-1.54575E-13
 -1       923 2.20225E-03 9.97562E-05-6.26585E-15
 -1       924 1.82753E-03 2.05919E-04-3.48893E-15
 -1       925 2.21447E-03-1.13849E-04-6.94236E-15
 -1       926 6.21984E-03 3.24924E-04-2.74188E-14
 -1       927 1.96032E-03-1.14080E-05-6.03353E-15
 -1       928 1.35979E-03-1.42125E-04-2.48992E-15
 -1       929 2.63211E-03 3.15346E-04-6.64689E-15
 -1       930 1.40008E-02 1.29603E-04-1.56008E-13
 -1       931 6.64192E-03-1.97228E-04-3.10794E-14
 -1       932 6.97092E-03-3.61639E-05-3.17908E-14
 -1       933 1.99901E-03 5.15176E-05-5.64473E-15
 -1       934 1.48589E-03 1.66373E-04-2.43351E-15
 -1       935 7.02786E-03-6.13624E-05-3.31995E-14
 -1       936 6.78781E-03 1.29265E-04-3.21465E-14
 -1       937 1.37185E-02-1.24571E-04-1.52066E-13
 -1       938 1.34235E-03 8.26499E-05-2.38672E-15
 -1       939 1.11598E-03-7.71702E-05-1.86216E-15
 -1       940 1.37487E-02-3.43326E-04-1.53979E-13
 -1       941 6.87274E-03-1.37811E-04-3.28915E-14
 -1       942 1.37131E-02-4.06213E-05-1.51432E-13
 -1       943 1.23676E-03 1.61917E-05-2.30097E-15
 -1       944 2.01342E-03-6.72733E-05-6.10487E-15
 -1       945 1.37212E-02 3.00345E-05-1.51132E-13
 -1       946 2.11631E-03 2.32203E-04-4.57858E-15
 -1       947 1.37363E-02-2.75923E-04-1.53334E-13
 -1       948 1.87002E-03 1.97643E-05-5.21850E-15
 -1       949 1.28267E-03 4.67785E-05-2.35048E-15
 -1       950 1.63046E-03-1.11830E-04-3.72455E-15
 -1       951 1.88054E-03-1.21867E-04-4.88020E-15
 -1       952 2.05331E-03-1.17709E-04-5.87028E-15
 -1       953 7.41081E-03 1.18967E-04-4.06154E-14
 -1       954 7.02766E-03-1.71652E-04-3.60232E-14
 -1       955 7.27492E-03-1.74462E-04-3.96248E-14
 -1       956 7.52547E-03-1.80774E-04-4.33557E-14
 -1       957 7.78054E-03-1.89154E-04-4.72160E-14
 -1       958 8.04031E-03-1.98944E-04-5.12073E-14
 -1       959 8.30456E-03-2.09624E-04-5.53263E-14
 -1       960 8.57284E-03-2.20752E-04-5.95701E-14
 -1       961 8.84465E-03-2.31951E-04-6.39291E-14
 -1       962 9.11945E-03-2.42931E-04-6.84009E-14
 -1       963 9.39674E-03-2.53487E-04-7.29946E-14
 -1       964 9.67608E-03-2.63499E-04-7.77034E-14
 -1       965 9.95705E-03-2.72915E-04-8.25170E-14
 -1       966 1.02393E-02-2.81730E-04-8.74252E-14
 -1       967 1.05226E-02-2.89976E-04-9.24247E-14
 -1       968 1.08066E-02-2.97709E-04-9.75148E-14
 -1       969 1.10911E-02-3.04990E-04-1.02695E-13
 -1       970 1.13761E-02-3.11887E-04-1.07962E-13
 -1       971 1.16614E-02-3.18464E-04-1.13297E-13
 -1       972 1.19469E-02-3.24781E-04-1.18698E-13
 -1       973 1.22325E-02-3.30891E-04-1.24168E-13
 -1       974 1.25182E-02-3.36839E-04-1.29697E-13
 -1       975 1.28040E-02-3.42663E-04-1.35277E-13
 -1       976 1.30897E-02-3.48395E-04-1.40911E-13
 -1       977 1.33755E-02-3.54060E-04-1.46597E-13
 -1       978 7.14643E-03 1.25536E-04-3.69881E-14
 -1       979 7.94095E-03 1.15399E-04-4.82790E-14
 -1       980 8.20938E-03 1.15955E-04-5.23122E-14
 -1       981 8.48055E-03 1.17109E-04-5.64731E-14
 -1       982 8.75436E-03 1.18362E-04-6.07550E-14
 -1       983 9.03057E-03 1.19353E-04-6.51542E-14
 -1       984 9.30885E-03 1.19837E-04-6.96693E-14
 -1       985 9.58888E-03 1.19672E-04-7.42958E-14
 -1       986 9.87033E-03 1.18795E-04-7.90268E-14
 -1       987 1.01529E-02 1.17205E-04-8.38631E-14
 -1       988 1.04364E-02 1.14938E-04-8.88001E-14
 -1       989 1.07206E-02 1.12058E-04-9.38298E-14
 -1       990 1.10052E-02 1.08640E-04-9.89489E-14
 -1       991 1.12903E-02 1.04763E-04-1.04152E-13
 -1       992 1.15756E-02 1.00504E-04-1.09429E-13
 -1       993 1.18611E-02 9.59320E-05-1.14777E-13
 -1       994 1.21467E-02 9.11107E-05-1.20189E-13
 -1       995 1.24324E-02 8.60938E-05-1.25660E-13
 -1       996 1.27182E-02 8.09266E-05-1.31180E-13
 -1       997 1.30039E-02 7.56470E-05-1.36754E-13
 -1       998 1.32897E-02 7.02859E-05-1.42379E-13
 -1       999 1.64941E-03 1.03598E-04-3.45097E-15
 -1      1000 7.03071E-03 5.35810E-05-3.44252E-14
 -1      1001 2.00060E-03 1.11003E-04-5.02336E-15
 -1      1002 1.35621E-02-3.48702E-04-1.50281E-13
 -1      1003 2.36667E-03 2.66358E-04-5.56386E-15
 -1      1004 1.23370E-03-2.11433E-05-2.34779E-15
 -1      1005 7.67503E-03 1.16100E-04-4.43779E-14
 -1      1006 2.29387E-03 1.91597E-04-5.81597E-15
 -1      1007 7.00710E-03 2.19415E-06-3.31136E-14
 -1      1008 1.84307E-03 6.65302E-05-4.63774E-15
 -1      1009 7.11015E-03-2.70392E-05-3.45586E-14
 -1      1010 6.87788E-03 1.38347E-04-3.34947E-14
 -1      1011 1.35755E-02 6.48685E-05-1.48030E-13
 -1      1012 7.05062E-03-1.03290E-04-3.46773E-14
 -1      1013 1.34683E-02-7.78389E-05-1.46827E-13
 -1      1014 1.43842E-03-1.00726E-04-2.95464E-15
 -1      1015 1.34763E-02-7.20724E-06-1.46543E-13
 -1      1016 1.34736E-02-1.61757E-04-1.47439E-13
 -1      1017 1.17118E-03-4.89503E-05-2.10465E-15
 -1      1018 1.45692E-03 2.67277E-05-3.11591E-15
 -1      1019 1.44517E-03-1.44055E-05-3.18270E-15
 -1      1020 1.34860E-02-2.29134E-04-1.48078E-13
 -1      1021 1.79869E-03-3.46575E-05-4.95914E-15
 -1      1022 7.44413E-03-1.22240E-04-4.12037E-14
 -1      1023 7.68361E-03-1.30015E-04-4.49852E-14
 -1      1024 7.93181E-03-1.38357E-04-4.88978E-14
 -1      1025 8.18720E-03-1.47122E-04-5.29417E-14
 -1      1026 8.44857E-03-1.56172E-04-5.71106E-14
 -1      1027 8.71490E-03-1.65327E-04-6.14013E-14
 -1      1028 8.98536E-03-1.74410E-04-6.58057E-14
 -1      1029 9.25923E-03-1.83281E-04-7.03300E-14
 -1      1030 9.53587E-03-1.91843E-04-7.49716E-14
 -1      1031 9.81476E-03-2.00042E-04-7.97225E-14
 -1      1032 1.00954E-02-2.07861E-04-8.45721E-14
 -1      1033 1.03775E-02-2.15309E-04-8.95149E-14
 -1      1034 1.06606E-02-2.22411E-04-9.45484E-14
 -1      1035 1.09445E-02-2.29205E-04-9.96728E-14
 -1      1036 1.12291E-02-2.35732E-04-1.04886E-13
 -1      1037 1.15140E-02-2.42034E-04-1.10176E-13
 -1      1038 1.17993E-02-2.48150E-04-1.15537E-13
 -1      1039 1.20848E-02-2.54117E-04-1.20964E-13
 -1      1040 1.23704E-02-2.59965E-04-1.26455E-13
 -1      1041 1.26561E-02-2.65722E-04-1.31998E-13
 -1      1042 1.29419E-02-2.71410E-04-1.37592E-13
 -1      1043 1.32277E-02-2.77047E-04-1.43238E-13
 -1      1044 8.63628E-03 5.56452E-05-5.90527E-14
 -1      1045 7.34552E-03 5.81550E-05-3.91900E-14
 -1      1046 8.36859E-03 5.59026E-05-5.48228E-14
 -1      1047 8.10514E-03 5.60768E-05-5.07148E-14
 -1      1048 8.90763E-03 5.51281E-05-6.34031E-14
 -1      1049 9.18207E-03 5.42149E-05-6.78686E-14
 -1      1050 9.45908E-03 5.28173E-05-7.24503E-14
 -1      1051 9.73820E-03 5.08923E-05-7.71361E-14
 -1      1052 1.00190E-02 4.84355E-05-8.19274E-14
 -1      1053 1.03012E-02 4.54706E-05-8.68242E-14
 -1      1054 1.05843E-02 4.20401E-05-9.18138E-14
 -1      1055 1.08683E-02 3.81970E-05-9.68901E-14
 -1      1056 1.11528E-02 3.39984E-05-1.02055E-13
 -1      1057 1.14378E-02 2.95006E-05-1.07301E-13
 -1      1058 1.17231E-02 2.47566E-05-1.12622E-13
 -1      1059 1.20086E-02 1.98137E-05-1.18011E-13
 -1      1060 1.22942E-02 1.47135E-05-1.23461E-13
 -1      1061 1.25799E-02 9.49155E-06-1.28962E-13
 -1      1062 1.28657E-02 4.17681E-06-1.34516E-13
 -1      1063 1.31514E-02-1.20649E-06-1.40122E-13
 -1      1064 7.18467E-03-6.43114E-05-3.60848E-14
 -1      1065 1.94952E-03 1.51176E-04-4.42303E-15
 -1      1066 1.79506E-03-7.23538E-05-4.75500E-15
 -1      1067 1.54358E-03 6.10142E-05-3.28945E-15
 -1      1068 1.35240E-02-2.88914E-04-1.49178E-13
 -1      1069 1.32234E-02-1.15032E-04-1.42226E-13
 -1      1070 1.64559E-03 2.30242E-06-4.08644E-15
 -1      1071 7.28524E-03 8.20813E-06-3.78174E-14
 -1      1072 7.24047E-03-1.12400E-04-3.78874E-14
 -1      1073 1.32358E-02-1.82372E-04-1.42861E-13
 -1      1074 1.38438E-03-4.48196E-05-2.90955E-15
 -1      1075 7.84650E-03 5.63682E-05-4.67372E-14
 -1      1076 1.61370E-03-4.93216E-05-3.92471E-15
 -1      1077 7.59320E-03 5.69926E-05-4.28957E-14
 -1      1078 7.58110E-03-7.70609E-05-4.27704E-14
 -1      1079 1.29376E-02-1.09540E-04-1.36597E-13
 -1      1080 7.81878E-03-8.30369E-05-4.66038E-14
 -1      1081 8.06648E-03-8.92342E-05-5.05710E-14
 -1      1082 8.32190E-03-9.57087E-05-5.46676E-14
 -1      1083 8.58354E-03-1.02368E-04-5.88866E-14
 -1      1084 8.85026E-03-1.09116E-04-6.32240E-14
 -1      1085 9.12113E-03-1.15868E-04-6.76794E-14
 -1      1086 9.39539E-03-1.22561E-04-7.22538E-14
 -1      1087 9.67239E-03-1.29152E-04-7.69382E-14
 -1      1088 9.95159E-03-1.35617E-04-8.17279E-14
 -1      1089 1.02325E-02-1.41948E-04-8.66139E-14
 -1      1090 1.05148E-02-1.48147E-04-9.15938E-14
 -1      1091 1.07981E-02-1.54224E-04-9.66632E-14
 -1      1092 1.10822E-02-1.60191E-04-1.01824E-13
 -1      1093 1.13668E-02-1.66063E-04-1.07064E-13
 -1      1094 1.16519E-02-1.71856E-04-1.12383E-13
 -1      1095 1.19372E-02-1.77585E-04-1.17773E-13
 -1      1096 1.22227E-02-1.83261E-04-1.23224E-13
 -1      1097 1.25084E-02-1.88897E-04-1.28729E-13
 -1      1098 1.27942E-02-1.94501E-04-1.34286E-13
 -1      1099 9.05539E-03-8.44466E-06-6.60631E-14
 -1      1100 7.51510E-03 7.31679E-06-4.14737E-14
 -1      1101 8.78462E-03-5.67424E-06-6.16446E-14
 -1      1102 8.25609E-03-9.50485E-07-5.31678E-14
 -1      1103 9.32952E-03-1.15203E-05-7.05984E-14
 -1      1104 9.60638E-03-1.49118E-05-7.52413E-14
 -1      1105 9.88544E-03-1.86154E-05-7.99879E-14
 -1      1106 1.01662E-02-2.26151E-05-8.48417E-14
 -1      1107 1.04484E-02-2.68863E-05-8.97903E-14
 -1      1108 1.07316E-02-3.13989E-05-9.48297E-14
 -1      1109 1.10156E-02-3.61205E-05-9.99583E-14
 -1      1110 1.13002E-02-4.10192E-05-1.05168E-13
 -1      1111 1.15852E-02-4.60646E-05-1.10460E-13
 -1      1112 1.18705E-02-5.12294E-05-1.15823E-13
 -1      1113 1.21561E-02-5.64893E-05-1.21251E-13
 -1      1114 1.24417E-02-6.18240E-05-1.26734E-13
 -1      1115 1.26897E-02-8.56448E-05-1.31644E-13
 -1      1116 7.39165E-03-3.44455E-05-3.94174E-14
 -1      1117 8.51790E-03-3.18573E-06-5.73468E-14
 -1      1118 7.42932E-03-7.66555E-05-4.03203E-14
 -1      1119 1.30799E-02-2.00082E-04-1.39895E-13
 -1      1120 8.00019E-03 1.04899E-06-4.91147E-14
 -1      1121 7.75149E-03 2.78922E-06-4.51958E-14
 -1      1122 0.00000E+00 0.00000E+00 0.00000E+00
 -1      1123 0.00000E+00 0.00000E+00 0.00000E+00
 -1      1124 0.00000E+00 0.00000E+00 0.00000E+00
 -1      1125 0.00000E+00 0.00000E+00 0.00000E+00
 -1      1126 0.00000E+00 0.00000E+00 0.00000E+00
 -1      1127 0.00000E+00 0.00000E+00 0.00000E+00
 -1      1128 0.00000E+00 0.00000E+00 0.00000E+00
 -1      1129 0.00000E+00 0.00000E+00 0.00000E+00
 -1      1130 0.00000E+00 0.00000E+00 0.00000E+00
 -1      1131 0.00000E+00 0.00000E+00 0.00000E+00
 -1      1132 0.00000E+00 0.00000E+00 0.00000E+00
 -1      1133 0.00000E+00 0.00000E+00 0.00000E+00
 -1      1134 0.00000E+00 0.00000E+00 0.00000E+00
 -1      1135 0.00000E+00 0.00000E+00 0.00000E+00
 -1      1136 0.00000E+00 0.00000E+00 0.00000E+00
 -1      1137 0.00000E+00 0.00000E+00 0.00000E+00
 -1      1138 0.00000E+00 0.00000E+00 0.00000E+00
 -1      1139 2.14454E-04-1.42971E-04 1.29020E-17
 -1      1140 5.69168E-04-3.14343E-04-7.88757E-17
 -1      1141 8.75690E-04-4.19008E-04-3.40670E-16
 -1      1142 1.17879E-03-4.89483E-04-8.00670E-16
 -1      1143 1.48643E-03-5.43516E-04-1.44841E-15
 -1      1144 1.80256E-03-5.91685E-04-2.27876E-15
 -1      1145 2.12899E-03-6.42198E-04-3.29062E-15
 -1      1146 2.46528E-03-7.02409E-04-4.48253E-15
 -1      1147 2.80831E-03-7.78609E-04-5.85616E-15
 -1      1148 3.15184E-03-8.74395E-04-7.41242E-15
 -1      1149 3.48681E-03-9.87916E-04-9.15484E-15
 -1      1150 3.80334E-03-1.10897E-03-1.10831E-14
 -1      1151 4.09478E-03-1.21834E-03-1.32000E-14
 -1      1152 4.36246E-03-1.29217E-03-1.55150E-14
 -1      1153 4.61766E-03-1.31146E-03-1.80296E-14
 -1      1154 4.87778E-03-1.27160E-03-2.07432E-14
 -1      1155 5.15833E-03-1.18503E-03-2.36486E-14
 -1      1156 5.46629E-03-1.07483E-03-2.67360E-14
 -1      1157 5.79899E-03-9.64351E-04-2.99921E-14
 -1      1158 6.14780E-03-8.69741E-04-3.34086E-14
 -1      1159 6.50288E-03-7.98191E-04-3.69764E-14
 -1      1160 6.85626E-03-7.50010E-04-4.06857E-14
 -1      1161 7.20292E-03-7.21786E-04-4.45351E-14
 -1      1162 7.54048E-03-7.08863E-04-4.85262E-14
 -1      1163 7.86844E-03-7.06766E-04-5.26449E-14
 -1      1164 8.18741E-03-7.11796E-04-5.68802E-14
 -1      1165 8.49856E-03-7.21149E-04-6.12252E-14
 -1      1166 8.80320E-03-7.32831E-04-6.56804E-14
 -1      1167 9.10265E-03-7.45487E-04-7.02559E-14
 -1      1168 9.39803E-03-7.58249E-04-7.49396E-14
 -1      1169 9.69034E-03-7.70596E-04-7.97294E-14
 -1      1170 9.98036E-03-7.82246E-04-8.46284E-14
 -1      1171 1.02687E-02-7.93078E-04-8.96404E-14
 -1      1172 1.05559E-02-8.03074E-04-9.47592E-14
 -1      1173 1.08423E-02-8.12278E-04-9.99792E-14
 -1      1174 1.11282E-02-8.20767E-04-1.05275E-13
 -1      1175 1.14137E-02-8.28637E-04-1.10637E-13
 -1      1176 1.16991E-02-8.35981E-04-1.16062E-13
 -1      1177 1.19844E-02-8.42893E-04-1.21545E-13
 -1      1178 1.22697E-02-8.49456E-04-1.27090E-13
 -1      1179 1.25549E-02-8.55743E-04-1.32706E-13
 -1      1180 1.28403E-02-8.61817E-04-1.38387E-13
 -1      1181 1.31256E-02-8.67731E-04-1.44135E-13
 -1      1182 1.34111E-02-8.73529E-04-1.49956E-13
 -1      1183 1.36966E-02-8.79248E-04-1.55841E-13
 -1      1184 1.39821E-02-8.84919E-04-1.61766E-13
 -1      1185 1.42678E-02-8.90568E-04-1.67720E-13
 -1      1186 1.45534E-02-8.96216E-04-1.73689E-13
 -1      1187 1.48391E-02-9.01882E-04-1.79676E-13
 -1      1188 1.51177E-02-9.07428E-04-1.85545E-13
 -1      1189 2.30992E-04 1.55291E-04 5.53350E-17
 -1      1190 5.70928E-04 3.19357E-04 7.74391E-17
 -1      1191 8.75821E-04 4.22230E-04-2.97478E-17
 -1      1192 1.17801E-03 4.92793E-04-2.86731E-16
 -1      1193 1.48428E-03 5.47290E-04-6.97793E-16
 -1      1194 1.79835E-03 5.95819E-04-1.26530E-15
 -1      1195 2.12171E-03 6.46222E-04-1.99396E-15
 -1      1196 2.45365E-03 7.05343E-04-2.88757E-15
 -1      1197 2.79094E-03 7.78726E-04-3.94900E-15
 -1      1198 3.12758E-03 8.69124E-04-5.18062E-15
 -1      1199 3.45527E-03 9.74112E-04-6.58977E-15
 -1      1200 3.76534E-03 1.08381E-03-8.17525E-15
 -1      1201 4.05233E-03 1.18072E-03-9.94319E-15
 -1      1202 4.31796E-03 1.24378E-03-1.19038E-14
 -1      1203 4.57248E-03 1.25646E-03-1.40616E-14
 -1      1204 4.83140E-03 1.21477E-03-1.64239E-14
 -1      1205 5.10863E-03 1.12949E-03-1.89815E-14
 -1      1206 5.41089E-03 1.02085E-03-2.17198E-14
 -1      1207 5.73639E-03 9.09820E-04-2.46404E-14
 -1      1208 6.07785E-03 8.11511E-04-2.77379E-14
 -1      1209 6.42641E-03 7.33259E-04-3.10059E-14
 -1      1210 6.77462E-03 6.76130E-04-3.44392E-14
 -1      1211 7.11748E-03 6.37550E-04-3.80292E-14
 -1      1212 7.45241E-03 6.13522E-04-4.17748E-14
 -1      1213 7.77866E-03 5.99999E-04-4.56633E-14
 -1      1214 8.09656E-03 5.93523E-04-4.96745E-14
 -1      1215 8.40707E-03 5.91405E-04-5.38046E-14
 -1      1216 8.71135E-03 5.91692E-04-5.80599E-14
 -1      1217 9.01060E-03 5.93035E-04-6.24406E-14
 -1      1218 9.30589E-03 5.94556E-04-6.69430E-14
 -1      1219 9.59815E-03 5.95718E-04-7.15552E-14
 -1      1220 9.88816E-03 5.96225E-04-7.62805E-14
 -1      1221 1.01765E-02 5.95943E-04-8.11135E-14
 -1      1222 1.04637E-02 5.94845E-04-8.60488E-14
 -1      1223 1.07501E-02 5.92969E-04-9.10870E-14
 -1      1224 1.10360E-02 5.90387E-04-9.62166E-14
 -1      1225 1.13216E-02 5.87190E-04-1.01428E-13
 -1      1226 1.16069E-02 5.83472E-04-1.06709E-13
 -1      1227 1.18922E-02 5.79322E-04-1.12048E-13
 -1      1228 1.21775E-02 5.74825E-04-1.17442E-13
 -1      1229 1.24628E-02 5.70052E-04-1.22882E-13
 -1      1230 1.27481E-02 5.65067E-04-1.28396E-13
 -1      1231 1.30335E-02 5.59922E-04-1.33986E-13
 -1      1232 1.33189E-02 5.54661E-04-1.39617E-13
 -1      1233 1.36044E-02 5.49321E-04-1.45268E-13
 -1      1234 1.38900E-02 5.43933E-04-1.50954E-13
 -1      1235 1.41756E-02 5.38522E-04-1.56669E-13
 -1      1236 1.44613E-02 5.33112E-04-1.62403E-13
 -1      1237 1.47470E-02 5.27718E-04-1.68146E-13
 -1      1238 1.50255E-02 5.22482E-04-1.73751E-13
 -1      1239 1.51639E-02 4.77795E-04-1.76818E-13
 -1      1240 1.51691E-02 3.93509E-04-1.77513E-13
 -1      1241 1.51744E-02 3.09207E-04-1.78197E-13
 -1      1242 1.51796E-02 2.24875E-04-1.78873E-13
 -1      1243 1.51848E-02 1.40508E-04-1.79569E-13
 -1      1244 1.51900E-02 5.68209E-05-1.80297E-13
 -1      1245 1.51953E-02-2.68958E-05-1.81024E-13
 -1      1246 1.52006E-02-1.11350E-04-1.81746E-13
 -1      1247 1.52060E-02-1.95815E-04-1.82496E-13
 -1      1248 1.52115E-02-2.80281E-04-1.83244E-13
 -1      1249 1.52170E-02-3.64735E-04-1.83987E-13
 -1      1250 1.52226E-02-4.48451E-04-1.84725E-13
 -1      1251 1.52282E-02-5.32137E-04-1.85451E-13
 -1      1252 1.52338E-02-6.16504E-04-1.86161E-13
 -1      1253 1.52395E-02-7.00835E-04-1.86848E-13
 -1      1254 1.52451E-02-7.85137E-04-1.87493E-13
 -1      1255 1.52507E-02-8.68708E-04-1.88110E-13
 -1      1256 6.74261E-03 4.50106E-05-2.24167E-14
 -1      1257 6.61834E-03 1.99446E-04-2.19632E-14
 -1      1258 6.39403E-03 3.53443E-04-2.12714E-14
 -1      1259 6.05563E-03 5.20528E-04-2.02763E-14
 -1      1260 5.66307E-03 6.69823E-04-1.91405E-14
 -1      1261 5.26107E-03 7.79605E-04-1.79993E-14
 -1      1262 4.80227E-03 8.49968E-04-1.67253E-14
 -1      1263 4.33432E-03 8.60163E-04-1.54777E-14
 -1      1264 3.89003E-03 8.08429E-04-1.43660E-14
 -1      1265 3.44936E-03 7.02817E-04-1.33530E-14
 -1      1266 3.05044E-03 5.63472E-04-1.25212E-14
 -1      1267 2.72235E-03 4.12777E-04-1.19079E-14
 -1      1268 2.47164E-03 2.59605E-04-1.14946E-14
 -1      1269 2.31840E-03 1.10489E-04-1.12895E-14
 -1      1270 2.27361E-03-3.86306E-05-1.12978E-14
 -1      1271 2.35114E-03-1.96465E-04-1.15433E-14
 -1      1272 2.54509E-03-3.57375E-04-1.20163E-14
 -1      1273 2.83731E-03-5.19331E-04-1.26963E-14
 -1      1274 3.19419E-03-6.71059E-04-1.35458E-14
 -1      1275 3.60197E-03-8.01317E-04-1.45607E-14
 -1      1276 4.04533E-03-8.94625E-04-1.57159E-14
 -1      1277 4.49279E-03-9.30079E-04-1.69225E-14
 -1      1278 4.94284E-03-9.05812E-04-1.81571E-14
 -1      1279 5.37498E-03-8.25947E-04-1.93274E-14
 -1      1280 5.77809E-03-7.05242E-04-2.03841E-14
 -1      1281 6.14422E-03-5.57369E-04-2.13006E-14
 -1      1282 6.44138E-03-4.01778E-04-2.19930E-14
 -1      1283 6.64448E-03-2.52611E-04-2.24125E-14
 -1      1284 6.74963E-03-1.06901E-04-2.25627E-14
 -1      1285 1.72781E-04-1.03512E-04-1.36881E-17
 -1      1286 1.18072E-04-4.71303E-05-4.24465E-17
 -1      1287 1.23441E-04-5.92031E-05-3.43150E-17
 -1      1288 1.12246E-04-3.13792E-05-5.53756E-17
 -1      1289 1.15023E-04-3.83095E-05-5.16758E-17
 -1      1290 2.37336E-04-8.69275E-05-1.22013E-16
 -1      1291 1.08368E-04-2.07553E-05-6.18808E-17
 -1      1292 1.10390E-04-2.55915E-05-6.01326E-17
 -1      1293 2.25914E-04-5.87195E-05-1.44497E-16
 -1      1294 1.05179E-04-1.32402E-05-6.52554E-17
 -1      1295 1.06813E-04-1.67223E-05-6.44965E-17
 -1      1296 2.17573E-04-3.91208E-05-1.56396E-16
 -1      1297 1.02623E-04-8.01574E-06-6.63667E-17
 -1      1298 1.03896E-04-1.04697E-05-6.62448E-17
 -1      1299 2.10827E-04-2.51993E-05-1.62075E-16
 -1      1300 1.00704E-04-4.32609E-06-6.65700E-17
 -1      1301 1.01609E-04-6.10977E-06-6.66784E-17
 -1      1302 2.05448E-04-1.52492E-05-1.63904E-16
 -1      1303 9.96116E-05-1.68954E-06-6.56349E-17
 -1      1304 1.00069E-04-3.04364E-06-6.59466E-17
 -1      1305 2.01641E-04-8.08138E-06-1.63267E-16
 -1      1306 9.94321E-05 5.13780E-07-6.41577E-17
 -1      1307 9.94085E-05-7.12379E-07-6.46862E-17
 -1      1308 1.99717E-04-2.63678E-06-1.60638E-16
 -1      1309 1.00175E-04 2.92321E-06-6.16098E-17
 -1      1310 9.96766E-05 1.51932E-06-6.23281E-17
 -1      1311 1.99822E-04 2.29444E-06-1.56179E-16
 -1      1312 1.01770E-04 6.15828E-06-5.83030E-17
 -1      1313 1.00840E-04 4.28468E-06-5.92788E-17
 -1      1314 2.01926E-04 7.93631E-06-1.49511E-16
 -1      1315 1.04049E-04 1.06988E-05-5.34241E-17
 -1      1316 1.02774E-04 8.14073E-06-5.49555E-17
 -1      1317 2.05802E-04 1.53842E-05-1.40594E-16
 -1      1318 1.06970E-04 1.72460E-05-4.67020E-17
 -1      1319 1.05350E-04 1.36403E-05-4.90601E-17
 -1      1320 2.11189E-04 2.57515E-05-1.28180E-16
 -1      1321 1.10479E-04 2.63931E-05-3.71068E-17
 -1      1322 1.08488E-04 2.14320E-05-4.07931E-17
 -1      1323 2.17929E-04 4.02801E-05-1.11144E-16
 -1      1324 1.14978E-04 3.93215E-05-2.31206E-17
 -1      1325 1.12260E-04 3.23035E-05-2.90973E-17
 -1      1326 2.26095E-04 6.04114E-05-8.75358E-17
 -1      1327 1.22639E-04 5.95533E-05-2.04643E-18
 -1      1328 1.17657E-04 4.81967E-05-1.20346E-17
 -1      1329 2.37212E-04 8.92465E-05-5.42914E-17
 -1      1330 1.62528E-04 1.04258E-04 2.93954E-17
 -1      1331 1.42007E-04 7.87201E-05 1.07200E-17
 -1      1332 2.69316E-04 1.35262E-04-1.52330E-17
 -1      1333 3.47327E-04 2.06302E-04 3.82046E-17
 -1      1334 4.39483E-04-2.40785E-04-9.24011E-17
 -1      1335 6.02630E-04-3.06033E-04-1.81550E-16
 -1      1336 7.61555E-04-3.57719E-04-3.22699E-16
 -1      1337 9.18184E-04-3.99315E-04-5.11323E-16
 -1      1338 6.47409E-04-2.92467E-04-2.98318E-16
 -1      1339 1.07350E-03-4.34265E-04-7.45348E-16
 -1      1340 1.22849E-03-4.63969E-04-1.02593E-15
 -1      1341 9.65339E-04-3.77162E-04-6.85839E-16
 -1      1342 1.38406E-03-4.90560E-04-1.35216E-15
 -1      1343 1.54072E-03-5.14862E-04-1.72421E-15
 -1      1344 1.27846E-03-4.37203E-04-1.25433E-15
 -1      1345 1.69895E-03-5.38342E-04-2.14081E-15
 -1      1346 1.85899E-03-5.61760E-04-2.60230E-15
 -1      1347 1.59266E-03-4.85643E-04-2.00198E-15
 -1      1348 2.02101E-03-5.86326E-04-3.10857E-15
 -1      1349 2.18498E-03-6.12797E-04-3.65936E-15
 -1      1350 1.91139E-03-5.31888E-04-2.92710E-15
 -1      1351 2.35081E-03-6.42290E-04-4.25487E-15
 -1      1352 2.51817E-03-6.75451E-04-4.89513E-15
 -1      1353 2.23619E-03-5.84122E-04-4.02862E-15
 -1      1354 2.68668E-03-7.13220E-04-5.58006E-15
 -1      1355 2.85572E-03-7.55927E-04-6.31007E-15
 -1      1356 2.56675E-03-6.49876E-04-5.30656E-15
 -1      1357 3.02461E-03-8.04017E-04-7.08629E-15
 -1      1358 3.19248E-03-8.57174E-04-7.90733E-15
 -1      1359 2.90092E-03-7.35093E-04-6.76304E-15
 -1      1360 3.35845E-03-9.14864E-04-8.77418E-15
 -1      1361 3.52157E-03-9.75779E-04-9.68798E-15
 -1      1362 3.23470E-03-8.41793E-04-8.39910E-15
 -1      1363 3.68105E-03-1.03799E-03-1.06472E-14
 -1      1364 3.83624E-03-1.09905E-03-1.16536E-14
 -1      1365 3.56276E-03-9.64699E-04-1.02169E-14
 -1      1366 3.98683E-03-1.15578E-03-1.27083E-14
 -1      1367 4.13295E-03-1.20510E-03-1.38118E-14
 -1      1368 3.87994E-03-1.08846E-03-1.22208E-14
 -1      1369 4.27510E-03-1.24361E-03-1.49655E-14
 -1      1370 4.41442E-03-1.26885E-03-1.61682E-14
 -1      1371 4.18384E-03-1.18875E-03-1.44199E-14
 -1      1372 4.55217E-03-1.27885E-03-1.74213E-14
 -1      1373 4.69010E-03-1.27302E-03-1.87249E-14
 -1      1374 4.47742E-03-1.24012E-03-1.68174E-14
 -1      1375 4.82968E-03-1.25199E-03-2.00782E-14
 -1      1376 4.97247E-03-1.21739E-03-2.14793E-14
 -1      1377 4.76889E-03-1.22807E-03-1.94161E-14
 -1      1378 5.11944E-03-1.17207E-03-2.29270E-14
 -1      1379 5.27127E-03-1.11904E-03-2.44222E-14
 -1      1380 5.06793E-03-1.15737E-03-2.22106E-14
 -1      1381 5.42809E-03-1.06187E-03-2.59616E-14
 -1      1382 5.58964E-03-1.00352E-03-2.75436E-14
 -1      1383 5.38065E-03-1.04941E-03-2.51916E-14
 -1      1384 5.75533E-03-9.46784E-04-2.91681E-14
 -1      1385 5.92433E-03-8.93716E-04-3.08326E-14
 -1      1386 5.70741E-03-9.31127E-04-2.83486E-14
 -1      1387 6.09576E-03-8.45695E-04-3.25357E-14
 -1      1388 6.26866E-03-8.03680E-04-3.42775E-14
 -1      1389 6.04416E-03-8.24062E-04-3.16688E-14
 -1      1390 6.44221E-03-7.67845E-04-3.60551E-14
 -1      1391 6.61563E-03-7.38328E-04-3.78713E-14
 -1      1392 6.38533E-03-7.39789E-04-3.51417E-14
 -1      1393 6.78831E-03-7.14603E-04-3.97223E-14
 -1      1394 6.95975E-03-6.96360E-04-4.16067E-14
 -1      1395 6.72589E-03-6.81045E-04-3.87623E-14
 -1      1396 7.12960E-03-6.82830E-04-4.35284E-14
 -1      1397 7.29761E-03-6.73527E-04-4.54839E-14
 -1      1398 7.06226E-03-6.45198E-04-4.25264E-14
 -1      1399 7.46365E-03-6.67717E-04-4.74733E-14
 -1      1400 7.62765E-03-6.64895E-04-4.94956E-14
 -1      1401 7.39245E-03-6.27417E-04-4.64278E-14
 -1      1402 7.78962E-03-6.64475E-04-5.15484E-14
 -1      1403 7.94961E-03-6.66014E-04-5.36321E-14
 -1      1404 7.71566E-03-6.22656E-04-5.04596E-14
 -1      1405 8.10771E-03-6.69089E-04-5.57449E-14
 -1      1406 8.26404E-03-6.73341E-04-5.78851E-14
 -1      1407 8.03199E-03-6.26584E-04-5.46147E-14
 -1      1408 8.41873E-03-6.78491E-04-6.00531E-14
 -1      1409 8.57190E-03-6.84265E-04-6.22487E-14
 -1      1410 8.34201E-03-6.35857E-04-5.88863E-14
 -1      1411 8.72370E-03-6.90490E-04-6.44746E-14
 -1      1412 8.87426E-03-6.96966E-04-6.67286E-14
 -1      1413 8.64655E-03-6.48065E-04-6.32725E-14
 -1      1414 9.02372E-03-7.03598E-04-6.90109E-14
 -1      1415 9.17218E-03-7.10244E-04-7.13221E-14
 -1      1416 8.94652E-03-6.61567E-04-6.77722E-14
 -1      1417 9.31979E-03-7.16859E-04-7.36608E-14
 -1      1418 9.46662E-03-7.23347E-04-7.60256E-14
 -1      1419 9.24278E-03-6.75302E-04-7.23853E-14
 -1      1420 9.61280E-03-7.29696E-04-7.84178E-14
 -1      1421 9.75839E-03-7.35845E-04-8.08361E-14
 -1      1422 9.53611E-03-6.88626E-04-7.71101E-14
 -1      1423 9.90348E-03-7.41798E-04-8.32827E-14
 -1      1424 1.00481E-02-7.47521E-04-8.57583E-14
 -1      1425 9.82718E-03-7.01190E-04-8.19415E-14
 -1      1426 1.01924E-02-7.53029E-04-8.82592E-14
 -1      1427 1.03364E-02-7.58303E-04-9.07855E-14
 -1      1428 1.01165E-02-7.12836E-04-8.68806E-14
 -1      1429 1.04802E-02-7.63365E-04-9.33409E-14
 -1      1430 1.06237E-02-7.68208E-04-9.59219E-14
 -1      1431 1.04046E-02-7.23532E-04-9.19291E-14
 -1      1432 1.07670E-02-7.72853E-04-9.85244E-14
 -1      1433 1.09102E-02-7.77300E-04-1.01149E-13
 -1      1434 1.06918E-02-7.33322E-04-9.70776E-14
 -1      1435 1.10532E-02-7.81573E-04-1.03791E-13
 -1      1436 1.11962E-02-7.85674E-04-1.06451E-13
 -1      1437 1.09783E-02-7.42292E-04-1.02312E-13
 -1      1438 1.13391E-02-7.89625E-04-1.09128E-13
 -1      1439 1.14819E-02-7.93433E-04-1.11822E-13
 -1      1440 1.12644E-02-7.50545E-04-1.07625E-13
 -1      1441 1.16247E-02-7.97114E-04-1.14530E-13
 -1      1442 1.17674E-02-8.00676E-04-1.17256E-13
 -1      1443 1.15502E-02-7.58191E-04-1.13003E-13
 -1      1444 1.19101E-02-8.04135E-04-1.19993E-13
 -1      1445 1.20528E-02-8.07499E-04-1.22744E-13
 -1      1446 1.18358E-02-7.65335E-04-1.18443E-13
 -1      1447 1.21955E-02-8.10781E-04-1.25515E-13
 -1      1448 1.23382E-02-8.13987E-04-1.28303E-13
 -1      1449 1.21213E-02-7.72073E-04-1.23945E-13
 -1      1450 1.24809E-02-8.17128E-04-1.31105E-13
 -1      1451 1.26236E-02-8.20211E-04-1.33926E-13
 -1      1452 1.24068E-02-7.78490E-04-1.29509E-13
 -1      1453 1.27663E-02-8.23245E-04-1.36764E-13
 -1      1454 1.29090E-02-8.26235E-04-1.39615E-13
 -1      1455 1.26923E-02-7.84656E-04-1.35143E-13
 -1      1456 1.30517E-02-8.29188E-04-1.42485E-13
 -1      1457 1.31945E-02-8.32109E-04-1.45373E-13
 -1      1458 1.29778E-02-7.90634E-04-1.40839E-13
 -1      1459 1.33372E-02-8.35004E-04-1.48278E-13
 -1      1460 1.34799E-02-8.37877E-04-1.51196E-13
 -1      1461 1.32633E-02-7.96472E-04-1.46603E-13
 -1      1462 1.36227E-02-8.40733E-04-1.54130E-13
 -1      1463 1.37655E-02-8.43575E-04-1.57078E-13
 -1      1464 1.35488E-02-8.02214E-04-1.52431E-13
 -1      1465 1.39083E-02-8.46406E-04-1.60035E-13
 -1      1466 1.40511E-02-8.49231E-04-1.62997E-13
 -1      1467 1.38344E-02-8.07893E-04-1.58310E-13
 -1      1468 1.41939E-02-8.52052E-04-1.65969E-13
 -1      1469 1.43367E-02-8.54872E-04-1.68949E-13
 -1      1470 1.41200E-02-8.13538E-04-1.64226E-13
 -1      1471 1.44796E-02-8.57693E-04-1.71931E-13
 -1      1472 1.46224E-02-8.60519E-04-1.74917E-13
 -1      1473 1.44057E-02-8.19174E-04-1.70175E-13
 -1      1474 1.47652E-02-8.63350E-04-1.77912E-13
 -1      1475 1.49081E-02-8.66188E-04-1.80913E-13
 -1      1476 1.46914E-02-8.24821E-04-1.76146E-13
 -1      1477 1.51149E-02-8.66000E-04-1.85244E-13
 -1      1478 1.50410E-02-8.27460E-04-1.83468E-13
 -1      1479 6.74524E-04 3.38805E-04-1.12622E-17
 -1      1480 5.13916E-04 2.79611E-04 3.12115E-17
 -1      1481 4.67280E-04 2.40453E-04-8.33480E-18
 -1      1482 9.86419E-04 4.23965E-04-2.05809E-16
 -1      1483 8.31499E-04 3.85188E-04-9.01514E-17
 -1      1484 7.88625E-04 3.47309E-04-1.42261E-16
 -1      1485 1.29482E-03 4.85229E-04-5.48403E-16
 -1      1486 1.14048E-03 4.56658E-04-3.58004E-16
 -1      1487 1.10193E-03 4.20012E-04-4.21131E-16
 -1      1488 1.60622E-03 5.35213E-04-1.04548E-15
 -1      1489 1.44980E-03 5.11074E-04-7.77265E-16
 -1      1490 1.41337E-03 4.74683E-04-8.49323E-16
 -1      1491 1.92388E-03 5.82765E-04-1.69965E-15
 -1      1492 1.76411E-03 5.58854E-04-1.35238E-15
 -1      1493 1.72762E-03 5.21972E-04-1.43177E-15
 -1      1494 2.24871E-03 6.35409E-04-2.51592E-15
 -1      1495 2.08539E-03 6.08086E-04-2.08732E-15
 -1      1496 2.04708E-03 5.70205E-04-2.17289E-15
 -1      1497 2.57944E-03 6.99763E-04-3.49765E-15
 -1      1498 2.41347E-03 6.65879E-04-2.98604E-15
 -1      1499 2.37217E-03 6.26745E-04-3.07664E-15
 -1      1500 2.91260E-03 7.80662E-04-4.64594E-15
 -1      1501 2.74601E-03 7.38129E-04-4.05065E-15
 -1      1502 2.70141E-03 6.97811E-04-4.14518E-15
 -1      1503 3.24264E-03 8.79140E-04-5.96781E-15
 -1      1504 3.07844E-03 8.28055E-04-5.28520E-15
 -1      1505 3.03150E-03 7.87057E-04-5.38156E-15
 -1      1506 3.56289E-03 9.89739E-04-7.46560E-15
 -1      1507 3.40445E-03 9.33742E-04-6.69466E-15
 -1      1508 3.35762E-03 8.93080E-04-6.79166E-15
 -1      1509 3.86760E-03 1.09867E-03-9.14081E-15
 -1      1510 3.71748E-03 1.04563E-03-8.27978E-15
 -1      1511 3.67454E-03 1.00672E-03-8.37771E-15
 -1      1512 4.15498E-03 1.18524E-03-1.10060E-14
 -1      1513 4.01338E-03 1.14605E-03-1.00495E-14
 -1      1514 3.97856E-03 1.11023E-03-1.01464E-14
 -1      1515 4.42932E-03 1.22827E-03-1.30633E-14
 -1      1516 4.29324E-03 1.21304E-03-1.20104E-14
 -1      1517 4.26999E-03 1.18092E-03-1.21070E-14
 -1      1518 4.70056E-03 1.21547E-03-1.53221E-14
 -1      1519 4.56452E-03 1.22878E-03-1.41670E-14
 -1      1520 4.55433E-03 1.19973E-03-1.42635E-14
 -1      1521 4.98036E-03 1.14992E-03-1.77799E-14
 -1      1522 4.83868E-03 1.18831E-03-1.65260E-14
 -1      1523 4.84060E-03 1.16068E-03-1.66200E-14
 -1      1524 5.27701E-03 1.04855E-03-2.04273E-14
 -1      1525 5.12625E-03 1.10227E-03-1.90809E-14
 -1      1526 5.13722E-03 1.07426E-03-1.91724E-14
 -1      1527 5.59261E-03 9.33985E-04-2.32579E-14
 -1      1528 5.43254E-03 9.91596E-04-2.18201E-14
 -1      1529 5.44835E-03 9.62014E-04-2.19117E-14
 -1      1530 5.92368E-03 8.25675E-04-2.62653E-14
 -1      1531 5.75658E-03 8.78209E-04-2.47400E-14
 -1      1532 5.77307E-03 8.46690E-04-2.48320E-14
 -1      1533 6.26384E-03 7.35310E-04-2.94482E-14
 -1      1534 6.09308E-03 7.77927E-04-2.78350E-14
 -1      1535 6.10701E-03 7.44737E-04-2.79264E-14
 -1      1536 6.60655E-03 6.66891E-04-3.27967E-14
 -1      1537 6.43527E-03 6.98399E-04-3.11019E-14
 -1      1538 6.44481E-03 6.64083E-04-3.11907E-14
 -1      1539 6.94670E-03 6.19229E-04-3.63075E-14
 -1      1540 6.77722E-03 6.40692E-04-3.45325E-14
 -1      1541 6.78178E-03 6.05815E-04-3.46196E-14
 -1      1542 7.28109E-03 5.88624E-04-3.99695E-14
 -1      1543 7.11477E-03 6.02073E-04-3.81197E-14
 -1      1544 7.11463E-03 5.67094E-04-3.82034E-14
 -1      1545 7.60823E-03 5.70757E-04-4.37822E-14
 -1      1546 7.44562E-03 5.78358E-04-4.18586E-14
 -1      1547 7.44152E-03 5.43591E-04-4.19370E-14
 -1      1548 7.92784E-03 5.61691E-04-4.77293E-14
 -1      1549 7.76897E-03 5.65336E-04-4.57392E-14
 -1      1550 7.76180E-03 5.30965E-04-4.58104E-14
 -1      1551 8.24042E-03 5.58255E-04-5.17936E-14
 -1      1552 8.08496E-03 5.59430E-04-4.97458E-14
 -1      1553 8.07557E-03 5.25536E-04-4.98135E-14
 -1      1554 8.54682E-03 5.58085E-04-5.59873E-14
 -1      1555 8.39433E-03 5.57877E-04-5.38754E-14
 -1      1556 8.38342E-03 5.24472E-04-5.39410E-14
 -1      1557 8.84807E-03 5.59518E-04-6.03014E-14
 -1      1558 8.69802E-03 5.58679E-04-5.81294E-14
 -1      1559 8.68617E-03 5.25736E-04-5.81920E-14
 -1      1560 9.14513E-03 5.61447E-04-6.47394E-14
 -1      1561 8.99706E-03 5.60471E-04-6.25050E-14
 -1      1562 8.98467E-03 5.27938E-04-6.25655E-14
 -1      1563 9.43891E-03 5.63177E-04-6.92934E-14
 -1      1564 9.29238E-03 5.62367E-04-6.70021E-14
 -1      1565 9.27974E-03 5.30184E-04-6.70580E-14
 -1      1566 9.73018E-03 5.64309E-04-7.39583E-14
 -1      1567 9.58482E-03 5.63835E-04-7.16125E-14
 -1      1568 9.57213E-03 5.31941E-04-7.16640E-14
 -1      1569 1.00196E-02 5.64645E-04-7.87343E-14
 -1      1570 9.87507E-03 5.64584E-04-7.63325E-14
 -1      1571 9.86245E-03 5.32923E-04-7.63807E-14
 -1      1572 1.03076E-02 5.64118E-04-8.36132E-14
 -1      1573 1.01637E-02 5.64490E-04-8.11606E-14
 -1      1574 1.01512E-02 5.33014E-04-8.12040E-14
 -1      1575 1.05946E-02 5.62748E-04-8.85970E-14
 -1      1576 1.04512E-02 5.63535E-04-8.60922E-14
 -1      1577 1.04389E-02 5.32202E-04-8.61306E-14
 -1      1578 1.08810E-02 5.60599E-04-9.36770E-14
 -1      1579 1.07379E-02 5.61766E-04-9.11249E-14
 -1      1580 1.07257E-02 5.30539E-04-9.11596E-14
 -1      1581 1.11669E-02 5.57764E-04-9.88417E-14
 -1      1582 1.10240E-02 5.59262E-04-9.62498E-14
 -1      1583 1.10120E-02 5.28115E-04-9.62780E-14
 -1      1584 1.14525E-02 5.54340E-04-1.04085E-13
 -1      1585 1.13097E-02 5.56119E-04-1.01454E-13
 -1      1586 1.12979E-02 5.25030E-04-1.01478E-13
 -1      1587 1.17380E-02 5.50426E-04-1.09390E-13
 -1      1588 1.15953E-02 5.52439E-04-1.06731E-13
 -1      1589 1.15836E-02 5.21390E-04-1.06750E-13
 -1      1590 1.20234E-02 5.46113E-04-1.14755E-13
 -1      1591 1.18807E-02 5.48314E-04-1.12066E-13
 -1      1592 1.18691E-02 5.17294E-04-1.12081E-13
 -1      1593 1.23087E-02 5.41481E-04-1.20172E-13
 -1      1594 1.21660E-02 5.43832E-04-1.17457E-13
 -1      1595 1.21546E-02 5.12830E-04-1.17471E-13
 -1      1596 1.25941E-02 5.36601E-04-1.25646E-13
 -1      1597 1.24514E-02 5.39068E-04-1.22901E-13
 -1      1598 1.24400E-02 5.08077E-04-1.22916E-13
 -1      1599 1.28795E-02 5.31532E-04-1.31196E-13
 -1      1600 1.27368E-02 5.34087E-04-1.28412E-13
 -1      1601 1.27255E-02 5.03101E-04-1.28425E-13
 -1      1602 1.31650E-02 5.26324E-04-1.36799E-13
 -1      1603 1.30222E-02 5.28943E-04-1.33990E-13
 -1      1604 1.30110E-02 4.97959E-04-1.33996E-13
 -1      1605 1.34505E-02 5.21016E-04-1.42442E-13
 -1      1606 1.33077E-02 5.23680E-04-1.39618E-13
 -1      1607 1.32965E-02 4.92696E-04-1.39617E-13
 -1      1608 1.37360E-02 5.15645E-04-1.48106E-13
 -1      1609 1.35932E-02 5.18337E-04-1.45271E-13
 -1      1610 1.35820E-02 4.87350E-04-1.45270E-13
 -1      1611 1.40216E-02 5.10238E-04-1.53807E-13
 -1      1612 1.38788E-02 5.12944E-04-1.50953E-13
 -1      1613 1.38676E-02 4.81955E-04-1.50952E-13
 -1      1614 1.43073E-02 5.04820E-04-1.59530E-13
 -1      1615 1.41644E-02 5.07529E-04-1.56665E-13
 -1      1616 1.41532E-02 4.76536E-04-1.56661E-13
 -1      1617 1.45929E-02 4.99412E-04-1.65264E-13
 -1      1618 1.44501E-02 5.02114E-04-1.62396E-13
 -1      1619 1.44389E-02 4.71116E-04-1.62389E-13
 -1      1620 1.48786E-02 4.94027E-04-1.71008E-13
 -1      1621 1.47358E-02 4.96716E-04-1.68136E-13
 -1      1622 1.47246E-02 4.65715E-04-1.68127E-13
 -1      1623 1.50282E-02 4.80339E-04-1.74090E-13
 -1      1624 1.50467E-02 3.74748E-04-1.75193E-13
 -1      1625 1.50441E-02 4.16897E-04-1.74848E-13
 -1      1626 1.50520E-02 2.90436E-04-1.75877E-13
 -1      1627 1.50494E-02 3.32595E-04-1.75536E-13
 -1      1628 1.49243E-02 3.55993E-04-1.72876E-13
 -1      1629 1.50572E-02 2.06097E-04-1.76562E-13
 -1      1630 1.50546E-02 2.48270E-04-1.76219E-13
 -1      1631 1.49296E-02 2.71674E-04-1.73562E-13
 -1      1632 1.50624E-02 1.21729E-04-1.77264E-13
 -1      1633 1.50598E-02 1.63916E-04-1.76911E-13
 -1      1634 1.49348E-02 1.87332E-04-1.74251E-13
 -1      1635 1.50676E-02 3.87635E-05-1.77978E-13
 -1      1636 1.50650E-02 8.02493E-05-1.77617E-13
 -1      1637 1.49400E-02 1.03681E-04-1.74948E-13
 -1      1638 1.50729E-02-4.56552E-05-1.78695E-13
 -1      1639 1.50702E-02-3.44332E-06-1.78339E-13
 -1      1640 1.49452E-02 2.00079E-05-1.75655E-13
 -1      1641 1.50782E-02-1.30090E-04-1.79419E-13
 -1      1642 1.50756E-02-8.78710E-05-1.79055E-13
 -1      1643 1.49505E-02-6.43982E-05-1.76367E-13
 -1      1644 1.50837E-02-2.14531E-04-1.80156E-13
 -1      1645 1.50809E-02-1.72310E-04-1.79788E-13
 -1      1646 1.49559E-02-1.48816E-04-1.77086E-13
 -1      1647 1.50892E-02-2.98971E-04-1.80888E-13
 -1      1648 1.50864E-02-2.56752E-04-1.80524E-13
 -1      1649 1.49613E-02-2.33237E-04-1.77809E-13
 -1      1650 1.50947E-02-3.83398E-04-1.81621E-13
 -1      1651 1.50919E-02-3.41186E-04-1.81255E-13
 -1      1652 1.49668E-02-3.17654E-04-1.78531E-13
 -1      1653 1.51002E-02-4.66375E-04-1.82333E-13
 -1      1654 1.50974E-02-4.24889E-04-1.81978E-13
 -1      1655 1.49723E-02-4.01345E-04-1.79240E-13
 -1      1656 1.51058E-02-5.50757E-04-1.83045E-13
 -1      1657 1.51030E-02-5.08570E-04-1.82691E-13
 -1      1658 1.49779E-02-4.85018E-04-1.79943E-13
 -1      1659 1.51115E-02-6.35110E-04-1.83735E-13
 -1      1660 1.51087E-02-5.92937E-04-1.83394E-13
 -1      1661 1.49835E-02-5.69384E-04-1.80636E-13
 -1      1662 1.51171E-02-7.19435E-04-1.84404E-13
 -1      1663 1.51143E-02-6.77276E-04-1.84075E-13
 -1      1664 1.49892E-02-6.53726E-04-1.81309E-13
 -1      1665 1.50805E-02-7.94525E-04-1.84097E-13
 -1      1666 1.50777E-02-7.52375E-04-1.83782E-13
 -1      1667 1.49526E-02-7.28833E-04-1.81020E-13
 -1      1668 1.48737E-02-7.94716E-04-1.79772E-13
 -1      1669 6.73355E-03 3.58795E-05-2.30994E-14
 -1      1670 6.77373E-03-9.91098E-06-2.32645E-14
 -1      1671 6.55452E-03 1.57506E-04-2.24067E-14
 -1      1672 6.64987E-03 1.03193E-04-2.26953E-14
 -1      1673 6.26692E-03 3.04247E-04-2.15599E-14
 -1      1674 6.41270E-03 2.32061E-04-2.19814E-14
 -1      1675 5.84828E-03 4.84741E-04-2.04541E-14
 -1      1676 6.04625E-03 3.88314E-04-2.10566E-14
 -1      1677 5.47871E-03 6.76196E-04-1.91081E-14
 -1      1678 5.65030E-03 6.01185E-04-1.96522E-14
 -1      1679 5.08489E-03 8.19075E-04-1.78318E-14
 -1      1680 5.26619E-03 7.57058E-04-1.84386E-14
 -1      1681 4.66586E-03 9.06360E-04-1.64086E-14
 -1      1682 4.85989E-03 8.76560E-04-1.70750E-14
 -1      1683 4.26706E-03 8.93763E-04-1.51095E-14
 -1      1684 4.44669E-03 9.09396E-04-1.56818E-14
 -1      1685 3.87338E-03 8.00228E-04-1.39378E-14
 -1      1686 4.05700E-03 8.53966E-04-1.44579E-14
 -1      1687 3.45288E-03 6.37902E-04-1.28927E-14
 -1      1688 3.64904E-03 7.19797E-04-1.33571E-14
 -1      1689 3.05391E-03 4.61237E-04-1.20958E-14
 -1      1690 3.22930E-03 5.42967E-04-1.24388E-14
 -1      1691 2.71220E-03 2.90806E-04-1.14861E-14
 -1      1692 2.86509E-03 3.64984E-04-1.17327E-14
 -1      1693 2.44173E-03 1.56131E-04-1.11290E-14
 -1      1694 2.55344E-03 2.16531E-04-1.12774E-14
 -1      1695 2.28695E-03 4.52202E-05-1.09680E-14
 -1      1696 2.34320E-03 9.33951E-05-1.10152E-14
 -1      1697 2.26301E-03-5.45230E-05-1.09869E-14
 -1      1698 2.25582E-03-1.07520E-05-1.09297E-14
 -1      1699 2.39505E-03-1.59743E-04-1.12601E-14
 -1      1700 2.31407E-03-1.07654E-04-1.10828E-14
 -1      1701 2.64775E-03-3.11575E-04-1.18784E-14
 -1      1702 2.51834E-03-2.45097E-04-1.16085E-14
 -1      1703 3.00826E-03-4.76040E-04-1.26114E-14
 -1      1704 2.83351E-03-3.91307E-04-1.22245E-14
 -1      1705 3.37833E-03-6.60946E-04-1.35574E-14
 -1      1706 3.20535E-03-5.81121E-04-1.31268E-14
 -1      1707 3.80686E-03-8.30110E-04-1.46692E-14
 -1      1708 3.61231E-03-7.50836E-04-1.41055E-14
 -1      1709 4.19337E-03-9.43707E-04-1.59353E-14
 -1      1710 4.01499E-03-9.01379E-04-1.53667E-14
 -1      1711 4.59008E-03-9.77678E-04-1.72698E-14
 -1      1712 4.40707E-03-9.73638E-04-1.66407E-14
 -1      1713 4.98294E-03-9.20006E-04-1.85960E-14
 -1      1714 4.80348E-03-9.56214E-04-1.79927E-14
 -1      1715 5.37966E-03-7.91269E-04-1.98666E-14
 -1      1716 5.19530E-03-8.58620E-04-1.92913E-14
 -1      1717 5.76912E-03-6.24205E-04-2.09974E-14
 -1      1718 5.59137E-03-7.04154E-04-2.04998E-14
 -1      1719 6.14271E-03-4.35487E-04-2.20489E-14
 -1      1720 5.96799E-03-5.20075E-04-2.16155E-14
 -1      1721 6.46136E-03-2.88582E-04-2.26802E-14
 -1      1722 6.33015E-03-3.55233E-04-2.24011E-14
 -1      1723 6.67661E-03-1.64521E-04-2.30843E-14
 -1      1724 6.58948E-03-2.18446E-04-2.29346E-14
 -1      1725 6.77473E-03-6.22769E-05-2.31813E-14
 -1      1726 6.74512E-03-1.07117E-04-2.31755E-14
 -1      1727 5.69740E-03 5.00880E-04-2.04354E-14
 -1      1728 6.10183E-03 2.94064E-04-2.17765E-14
 -1      1729 1.50170E-02 4.49335E-04-1.74081E-13
 -1      1730 1.48946E-02 4.30585E-04-1.71764E-13
 -1      1731 6.69487E-03 3.20935E-05-2.35747E-14
 -1      1732 6.46134E-03 1.42733E-04-2.27289E-14
 -1      1733 6.78446E-03-3.38901E-05-2.39075E-14
 -1      1734 5.30799E-03 7.08333E-04-1.89470E-14
 -1      1735 4.92653E-03 8.64290E-04-1.75066E-14
 -1      1736 4.55865E-03 9.34593E-04-1.60207E-14
 -1      1737 4.19199E-03 8.93114E-04-1.46511E-14
 -1      1738 3.81577E-03 7.56406E-04-1.34375E-14
 -1      1739 3.40797E-03 5.61891E-04-1.24281E-14
 -1      1740 3.00977E-03 3.62930E-04-1.16339E-14
 -1      1741 2.66129E-03 2.00113E-04-1.10837E-14
 -1      1742 2.39756E-03 8.54348E-05-1.07740E-14
 -1      1743 2.26227E-03 2.71121E-06-1.06261E-14
 -1      1744 2.28172E-03-6.13253E-05-1.06767E-14
 -1      1745 2.46561E-03-1.50638E-04-1.11011E-14
 -1      1746 2.78043E-03-2.96885E-04-1.17769E-14
 -1      1747 3.15960E-03-4.79869E-04-1.26107E-14
 -1      1748 3.56922E-03-6.85925E-04-1.36539E-14
 -1      1749 3.95645E-03-8.69872E-04-1.48782E-14
 -1      1750 4.32570E-03-9.82549E-04-1.62740E-14
 -1      1751 4.67933E-03-9.92393E-04-1.77045E-14
 -1      1752 5.04448E-03-8.98918E-04-1.91348E-14
 -1      1753 5.42332E-03-7.32953E-04-2.04832E-14
 -1      1754 5.81300E-03-5.30072E-04-2.17572E-14
 -1      1755 6.19130E-03-3.43189E-04-2.27538E-14
 -1      1756 6.50898E-03-2.04669E-04-2.33772E-14
 -1      1757 6.71315E-03-1.07064E-04-2.37326E-14
 -1      1758 2.99001E-04-1.60196E-04-7.98786E-17
 -1      1759 3.40741E-04-8.28633E-05-2.28035E-16
 -1      1760 3.48727E-04-1.00052E-04-2.16325E-16
 -1      1761 3.58107E-04-1.20723E-04-2.01540E-16
 -1      1762 3.70318E-04-1.45176E-04-1.80018E-16
 -1      1763 4.77999E-04-1.46894E-04-3.14744E-16
 -1      1764 3.16748E-04-3.61441E-05-2.48730E-16
 -1      1765 3.21759E-04-4.50656E-05-2.46371E-16
 -1      1766 3.08400E-04-2.17064E-05-2.50410E-16
 -1      1767 3.12243E-04-2.83327E-05-2.49990E-16
 -1      1768 4.22208E-04-4.47390E-05-3.67897E-16
 -1      1769 3.02885E-04-1.09805E-05-2.48513E-16
 -1      1770 3.05261E-04-1.59666E-05-2.49936E-16
 -1      1771 4.11170E-04-2.64441E-05-3.68669E-16
 -1      1772 3.00562E-04-2.28527E-06-2.43824E-16
 -1      1773 3.01307E-04-6.47446E-06-2.46466E-16
 -1      1774 4.04365E-04-1.23257E-05-3.64956E-16
 -1      1775 3.01597E-04 6.12124E-06-2.36302E-16
 -1      1776 3.00662E-04 1.85634E-06-2.40706E-16
 -1      1777 4.02257E-04-2.30383E-07-3.57258E-16
 -1      1778 3.05872E-04 1.59744E-05-2.25487E-16
 -1      1779 3.03350E-04 1.07758E-05-2.31328E-16
 -1      1780 4.04979E-04 1.20680E-05-3.45400E-16
 -1      1781 3.12891E-04 2.86660E-05-2.11054E-16
 -1      1782 3.09061E-04 2.18738E-05-2.19104E-16
 -1      1783 4.12180E-04 2.66166E-05-3.28893E-16
 -1      1784 3.22481E-04 4.61810E-05-1.91226E-16
 -1      1785 3.17399E-04 3.67814E-05-2.02190E-16
 -1      1786 4.23319E-04 4.55197E-05-3.06978E-16
 -1      1787 3.34340E-04 7.00578E-05-1.64094E-16
 -1      1788 3.28120E-04 5.72649E-05-1.79178E-16
 -1      1789 4.37994E-04 7.09560E-05-2.77149E-16
 -1      1790 3.49103E-04 1.02812E-04-1.26337E-16
 -1      1791 3.41238E-04 8.52368E-05-1.47208E-16
 -1      1792 4.56025E-04 1.05037E-04-2.36763E-16
 -1      1793 3.70636E-04 1.49497E-04-7.34954E-17
 -1      1794 3.58650E-04 1.24189E-04-1.02837E-16
 -1      1795 4.79048E-04 1.51167E-04-1.81631E-16
 -1      1796 4.29473E-04 2.07488E-04-3.30004E-17
 -1      1797 3.98486E-04 1.75100E-04-5.82081E-17
 -1      1798 5.22828E-04 2.06423E-04-1.30687E-16
 -1      1799 5.90034E-04 2.66586E-04-8.62754E-17
 -1      1800 3.58820E-04-1.67205E-04-1.34482E-16
 -1      1801 9.07563E-04 3.54858E-04-3.00514E-16
 -1      1802 7.49292E-04 3.14700E-04-1.75532E-16
 -1      1803 7.12825E-04 2.83003E-04-2.03952E-16
 -1      1804 4.84949E-04-2.02654E-04-2.35313E-16
 -1      1805 8.57778E-04-3.19926E-04-6.22630E-16
 -1      1806 1.01526E-03-3.54282E-04-8.66494E-16
 -1      1807 1.17154E-03-3.83933E-04-1.15439E-15
 -1      1808 1.32800E-03-4.09778E-04-1.48673E-15
 -1      1809 1.06565E-03-3.31083E-04-1.05325E-15
 -1      1810 1.48462E-03-4.33619E-04-1.86261E-15
 -1      1811 1.64199E-03-4.56085E-04-2.28252E-15
 -1      1812 1.37645E-03-3.82386E-04-1.72331E-15
 -1      1813 1.80040E-03-4.78647E-04-2.74628E-15
 -1      1814 1.95996E-03-5.01993E-04-3.25354E-15
 -1      1815 1.68899E-03-4.26672E-04-2.56627E-15
 -1      1816 2.12104E-03-5.27410E-04-3.80376E-15
 -1      1817 2.28337E-03-5.55639E-04-4.39807E-15
 -1      1818 2.00552E-03-4.72304E-04-3.58138E-15
 -1      1819 2.44740E-03-5.87787E-04-5.03649E-15
 -1      1820 2.61238E-03-6.24530E-04-5.71766E-15
 -1      1821 2.32771E-03-5.27322E-04-4.76840E-15
 -1      1822 2.77890E-03-6.66590E-04-6.44302E-15
 -1      1823 2.94569E-03-7.14322E-04-7.21344E-15
 -1      1824 2.65640E-03-5.99184E-04-6.12834E-15
 -1      1825 3.11339E-03-7.67675E-04-8.02795E-15
 -1      1826 3.28027E-03-8.26187E-04-8.88702E-15
 -1      1827 2.99113E-03-6.93347E-04-7.66158E-15
 -1      1828 3.44686E-03-8.88579E-04-9.79205E-15
 -1      1829 3.61142E-03-9.53081E-04-1.07421E-14
 -1      1830 3.32933E-03-8.10266E-04-9.37217E-15
 -1      1831 3.77406E-03-1.01698E-03-1.17396E-14
 -1      1832 3.93396E-03-1.07701E-03-1.27851E-14
 -1      1833 3.66593E-03-9.41212E-04-1.12643E-14
 -1      1834 4.09066E-03-1.12956E-03-1.38795E-14
 -1      1835 4.24520E-03-1.17092E-03-1.50242E-14
 -1      1836 3.99466E-03-1.06509E-03-1.33450E-14
 -1      1837 4.39668E-03-1.19807E-03-1.62185E-14
 -1      1838 4.54812E-03-1.20876E-03-1.74632E-14
 -1      1839 4.31228E-03-1.15154E-03-1.56238E-14
 -1      1840 4.69842E-03-1.20223E-03-1.87588E-14
 -1      1841 4.85116E-03-1.17922E-03-2.01047E-14
 -1      1842 4.62284E-03-1.17390E-03-1.81058E-14
 -1      1843 5.00531E-03-1.14172E-03-2.14982E-14
 -1      1844 5.16307E-03-1.09296E-03-2.29389E-14
 -1      1845 4.93615E-03-1.12530E-03-2.07891E-14
 -1      1846 5.32370E-03-1.03654E-03-2.44271E-14
 -1      1847 5.48734E-03-9.76216E-04-2.59593E-14
 -1      1848 5.26014E-03-1.02358E-03-2.36657E-14
 -1      1849 5.65376E-03-9.15432E-04-2.75331E-14
 -1      1850 5.82160E-03-8.56896E-04-2.91494E-14
 -1      1851 5.59527E-03-8.99745E-04-2.67230E-14
 -1      1852 5.99116E-03-8.02804E-04-3.08065E-14
 -1      1853 6.16064E-03-7.54384E-04-3.25014E-14
 -1      1854 5.93623E-03-7.81632E-04-2.99479E-14
 -1      1855 6.33059E-03-7.12476E-04-3.42336E-14
 -1      1856 6.49946E-03-6.77204E-04-3.60031E-14
 -1      1857 6.27684E-03-6.85491E-04-3.33312E-14
 -1      1858 6.66782E-03-6.48435E-04-3.78097E-14
 -1      1859 6.83462E-03-6.25758E-04-3.96520E-14
 -1      1860 6.61292E-03-6.16443E-04-3.68624E-14
 -1      1861 7.00026E-03-6.08539E-04-4.15300E-14
 -1      1862 7.16419E-03-5.96204E-04-4.34425E-14
 -1      1863 6.94260E-03-5.72679E-04-4.05389E-14
 -1      1864 7.32664E-03-5.87982E-04-4.53879E-14
 -1      1865 7.48742E-03-5.83323E-04-4.73662E-14
 -1      1866 7.26553E-03-5.49380E-04-4.43535E-14
 -1      1867 7.64662E-03-5.81524E-04-4.93763E-14
 -1      1868 7.80429E-03-5.82128E-04-5.14179E-14
 -1      1869 7.58208E-03-5.41149E-04-4.82999E-14
 -1      1870 7.96045E-03-5.84577E-04-5.34911E-14
 -1      1871 8.11526E-03-5.88519E-04-5.55936E-14
 -1      1872 7.89289E-03-5.43193E-04-5.23735E-14
 -1      1873 8.26870E-03-5.93551E-04-5.77246E-14
 -1      1874 8.42097E-03-5.99412E-04-5.98847E-14
 -1      1875 8.19871E-03-5.51718E-04-5.65684E-14
 -1      1876 8.57207E-03-6.05833E-04-6.20742E-14
 -1      1877 8.72220E-03-6.12627E-04-6.42923E-14
 -1      1878 8.50027E-03-5.63936E-04-6.08812E-14
 -1      1879 8.87135E-03-6.19628E-04-6.65383E-14
 -1      1880 9.01971E-03-6.26705E-04-6.88131E-14
 -1      1881 8.79827E-03-5.77909E-04-6.53085E-14
 -1      1882 9.16727E-03-6.33765E-04-7.11154E-14
 -1      1883 9.31420E-03-6.40723E-04-7.34468E-14
 -1      1884 9.09335E-03-5.92362E-04-6.98508E-14
 -1      1885 9.46050E-03-6.47532E-04-7.58050E-14
 -1      1886 9.60630E-03-6.54140E-04-7.81895E-14
 -1      1887 9.38606E-03-6.06507E-04-7.45049E-14
 -1      1888 9.75162E-03-6.60532E-04-8.06031E-14
 -1      1889 9.89655E-03-6.66676E-04-8.30429E-14
 -1      1890 9.67690E-03-6.19898E-04-7.92689E-14
 -1      1891 1.00411E-02-6.72581E-04-8.55090E-14
 -1      1892 1.01854E-02-6.78227E-04-8.80012E-14
 -1      1893 9.96629E-03-6.32321E-04-8.41409E-14
 -1      1894 1.03294E-02-6.83633E-04-9.05196E-14
 -1      1895 1.04732E-02-6.88793E-04-9.30654E-14
 -1      1896 1.02546E-02-6.43713E-04-8.91169E-14
 -1      1897 1.06168E-02-6.93728E-04-9.56346E-14
 -1      1898 1.07602E-02-6.98440E-04-9.82249E-14
 -1      1899 1.05420E-02-6.54104E-04-9.41972E-14
 -1      1900 1.09035E-02-7.02952E-04-1.00840E-13
 -1      1901 1.10467E-02-7.07268E-04-1.03472E-13
 -1      1902 1.08288E-02-6.63579E-04-9.93694E-14
 -1      1903 1.11898E-02-7.11413E-04-1.06123E-13
 -1      1904 1.13328E-02-7.15391E-04-1.08793E-13
 -1      1905 1.11152E-02-6.72247E-04-1.04628E-13
 -1      1906 1.14757E-02-7.19225E-04-1.11478E-13
 -1      1907 1.16186E-02-7.22921E-04-1.14181E-13
 -1      1908 1.14013E-02-6.80227E-04-1.09959E-13
 -1      1909 1.17615E-02-7.26499E-04-1.16897E-13
 -1      1910 1.19043E-02-7.29966E-04-1.19629E-13
 -1      1911 1.16871E-02-6.87635E-04-1.15354E-13
 -1      1912 1.20471E-02-7.33337E-04-1.22377E-13
 -1      1913 1.21899E-02-7.36620E-04-1.25140E-13
 -1      1914 1.19729E-02-6.94577E-04-1.20813E-13
 -1      1915 1.23327E-02-7.39828E-04-1.27920E-13
 -1      1916 1.24755E-02-7.42968E-04-1.30715E-13
 -1      1917 1.22585E-02-7.01147E-04-1.26332E-13
 -1      1918 1.26182E-02-7.46050E-04-1.33527E-13
 -1      1919 1.27610E-02-7.49080E-04-1.36354E-13
 -1      1920 1.25441E-02-7.07428E-04-1.31917E-13
 -1      1921 1.29038E-02-7.52067E-04-1.39200E-13
 -1      1922 1.30465E-02-7.55015E-04-1.42060E-13
 -1      1923 1.28297E-02-7.13487E-04-1.37564E-13
 -1      1924 1.31893E-02-7.57932E-04-1.44938E-13
 -1      1925 1.33321E-02-7.60821E-04-1.47830E-13
 -1      1926 1.31153E-02-7.19382E-04-1.43278E-13
 -1      1927 1.34749E-02-7.63689E-04-1.50738E-13
 -1      1928 1.36177E-02-7.66540E-04-1.53660E-13
 -1      1929 1.34009E-02-7.25159E-04-1.49051E-13
 -1      1930 1.37605E-02-7.69376E-04-1.56591E-13
 -1      1931 1.39033E-02-7.72203E-04-1.59535E-13
 -1      1932 1.36866E-02-7.30856E-04-1.54881E-13
 -1      1933 1.40461E-02-7.75023E-04-1.62489E-13
 -1      1934 1.41889E-02-7.77839E-04-1.65452E-13
 -1      1935 1.39722E-02-7.36506E-04-1.60756E-13
 -1      1936 1.43318E-02-7.80655E-04-1.68422E-13
 -1      1937 1.44746E-02-7.83472E-04-1.71400E-13
 -1      1938 1.42579E-02-7.42136E-04-1.66673E-13
 -1      1939 1.46027E-02-7.87675E-04-1.74085E-13
 -1      1940 1.47456E-02-7.90502E-04-1.77076E-13
 -1      1941 1.47850E-02-7.57560E-04-1.77700E-13
 -1      1942 1.45288E-02-7.49149E-04-1.72324E-13
 -1      1943 1.22026E-03 4.17685E-04-6.58355E-16
 -1      1944 1.06397E-03 3.88613E-04-4.60596E-16
 -1      1945 1.02666E-03 3.57387E-04-4.95209E-16
 -1      1946 1.53271E-03 4.67561E-04-1.16781E-15
 -1      1947 1.37614E-03 4.43704E-04-8.93898E-16
 -1      1948 1.33852E-03 4.12843E-04-9.33119E-16
 -1      1949 1.84835E-03 5.13707E-04-1.83185E-15
 -1      1950 1.68995E-03 4.90668E-04-1.48003E-15
 -1      1951 1.65144E-03 4.59510E-04-1.52302E-15
 -1      1952 2.16884E-03 5.64042E-04-2.65558E-15
 -1      1953 2.00795E-03 5.37971E-04-2.22354E-15
 -1      1954 1.96788E-03 5.05863E-04-2.26891E-15
 -1      1955 2.49425E-03 6.25673E-04-3.64240E-15
 -1      1956 2.33104E-03 5.93144E-04-3.12847E-15
 -1      1957 2.28911E-03 5.59565E-04-3.17511E-15
 -1      1958 2.82305E-03 7.04160E-04-4.79278E-15
 -1      1959 2.65849E-03 6.62679E-04-4.19692E-15
 -1      1960 2.61514E-03 6.27369E-04-4.24365E-15
 -1      1961 3.15211E-03 8.01578E-04-6.11398E-15
 -1      1962 2.98797E-03 7.50695E-04-5.43160E-15
 -1      1963 2.94453E-03 7.13879E-04-5.47716E-15
 -1      1964 3.47703E-03 9.13658E-04-7.60934E-15
 -1      1965 3.31558E-03 8.56456E-04-6.83987E-15
 -1      1966 3.27424E-03 8.19114E-04-6.88235E-15
 -1      1967 3.79322E-03 1.02731E-03-9.28042E-15
 -1      1968 3.63658E-03 9.71459E-04-8.42212E-15
 -1      1969 3.59983E-03 9.35366E-04-8.46129E-15
 -1      1970 4.09805E-03 1.12124E-03-1.11412E-14
 -1      1971 3.94704E-03 1.07812E-03-1.01870E-14
 -1      1972 3.91685E-03 1.04535E-03-1.02217E-14
 -1      1973 4.39330E-03 1.17204E-03-1.31942E-14
 -1      1974 4.24636E-03 1.15305E-03-1.21430E-14
 -1      1975 4.22349E-03 1.12485E-03-1.21725E-14
 -1      1976 4.68549E-03 1.16465E-03-1.54463E-14
 -1      1977 4.53892E-03 1.17568E-03-1.42950E-14
 -1      1978 4.52306E-03 1.15162E-03-1.43203E-14
 -1      1979 4.98312E-03 1.10069E-03-1.78969E-14
 -1      1980 4.83287E-03 1.13879E-03-1.66472E-14
 -1      1981 4.82329E-03 1.11689E-03-1.66677E-14
 -1      1982 5.29213E-03 9.97571E-04-2.05396E-14
 -1      1983 5.13588E-03 1.05256E-03-1.91949E-14
 -1      1984 5.13180E-03 1.03060E-03-1.92118E-14
 -1      1985 5.61347E-03 8.79600E-04-2.33677E-14
 -1      1986 5.45138E-03 9.39121E-04-2.19309E-14
 -1      1987 5.45172E-03 9.15753E-04-2.19450E-14
 -1      1988 5.94406E-03 7.67779E-04-2.63708E-14
 -1      1989 5.77799E-03 8.22115E-04-2.48474E-14
 -1      1990 5.78104E-03 7.97042E-04-2.48579E-14
 -1      1991 6.27914E-03 6.74672E-04-2.95480E-14
 -1      1992 6.11147E-03 7.18610E-04-2.79380E-14
 -1      1993 6.11519E-03 6.92146E-04-2.79456E-14
 -1      1994 6.61428E-03 6.04531E-04-3.28913E-14
 -1      1995 6.44707E-03 6.36806E-04-3.11992E-14
 -1      1996 6.44963E-03 6.09425E-04-3.12029E-14
 -1      1997 6.94624E-03 5.56079E-04-3.63942E-14
 -1      1998 6.78091E-03 5.77835E-04-3.46237E-14
 -1      1999 6.78109E-03 5.49949E-04-3.46233E-14
 -1      2000 7.27306E-03 5.25393E-04-4.00458E-14
 -1      2001 7.11042E-03 5.38794E-04-3.82017E-14
 -1      2002 7.10769E-03 5.10706E-04-3.81958E-14
 -1      2003 7.59387E-03 5.07916E-04-4.38450E-14
 -1      2004 7.43426E-03 5.15253E-04-4.19287E-14
 -1      2005 7.42860E-03 4.87174E-04-4.19166E-14
 -1      2006 7.90860E-03 4.99508E-04-4.77793E-14
 -1      2007 7.75199E-03 5.02777E-04-4.57942E-14
 -1      2008 7.74373E-03 4.74842E-04-4.57767E-14
 -1      2009 8.21764E-03 4.96848E-04-5.18367E-14
 -1      2010 8.06379E-03 4.97605E-04-4.97929E-14
 -1      2011 8.05340E-03 4.69896E-04-4.97688E-14
 -1      2012 8.52164E-03 4.97468E-04-5.60249E-14
 -1      2013 8.37022E-03 4.96848E-04-5.39160E-14
 -1      2014 8.35818E-03 4.69405E-04-5.38880E-14
 -1      2015 8.82136E-03 4.99644E-04-6.03316E-14
 -1      2016 8.67198E-03 4.98427E-04-5.81631E-14
 -1      2017 8.65875E-03 4.71257E-04-5.81307E-14
 -1      2018 9.11756E-03 5.02235E-04-6.47600E-14
 -1      2019 8.96985E-03 5.00928E-04-6.25305E-14
 -1      2020 8.95579E-03 4.74019E-04-6.24925E-14
 -1      2021 9.41095E-03 5.04532E-04-6.93045E-14
 -1      2022 9.26456E-03 5.03442E-04-6.70179E-14
 -1      2023 9.24997E-03 4.76773E-04-6.69749E-14
 -1      2024 9.70212E-03 5.06136E-04-7.39618E-14
 -1      2025 9.55677E-03 5.05431E-04-7.16195E-14
 -1      2026 9.54186E-03 4.78970E-04-7.15716E-14
 -1      2027 9.99161E-03 5.06854E-04-7.87263E-14
 -1      2028 9.84704E-03 5.06609E-04-7.63300E-14
 -1      2029 9.83196E-03 4.80324E-04-7.62773E-14
 -1      2030 1.02798E-02 5.06632E-04-8.35951E-14
 -1      2031 1.01359E-02 5.06858E-04-8.11484E-14
 -1      2032 1.01207E-02 4.80721E-04-8.10895E-14
 -1      2033 1.05671E-02 5.05497E-04-8.85694E-14
 -1      2034 1.04236E-02 5.06173E-04-8.60697E-14
 -1      2035 1.04084E-02 4.80155E-04-8.60055E-14
 -1      2036 1.08538E-02 5.03529E-04-9.36390E-14
 -1      2037 1.07105E-02 5.04611E-04-9.10931E-14
 -1      2038 1.06954E-02 4.78686E-04-9.10238E-14
 -1      2039 1.11400E-02 5.00828E-04-9.87952E-14
 -1      2040 1.09969E-02 5.02264E-04-9.62075E-14
 -1      2041 1.09819E-02 4.76412E-04-9.61331E-14
 -1      2042 1.14258E-02 4.97503E-04-1.04026E-13
 -1      2043 1.12829E-02 4.99237E-04-1.01401E-13
 -1      2044 1.12680E-02 4.73441E-04-1.01323E-13
 -1      2045 1.17115E-02 4.93659E-04-1.09325E-13
 -1      2046 1.15687E-02 4.95640E-04-1.06669E-13
 -1      2047 1.15538E-02 4.69886E-04-1.06586E-13
 -1      2048 1.19971E-02 4.89394E-04-1.14681E-13
 -1      2049 1.18543E-02 4.91574E-04-1.11994E-13
 -1      2050 1.18395E-02 4.65850E-04-1.11908E-13
 -1      2051 1.22826E-02 4.84794E-04-1.20097E-13
 -1      2052 1.21399E-02 4.87132E-04-1.17382E-13
 -1      2053 1.21251E-02 4.61429E-04-1.17292E-13
 -1      2054 1.25681E-02 4.79934E-04-1.25571E-13
 -1      2055 1.24254E-02 4.82393E-04-1.22827E-13
 -1      2056 1.24107E-02 4.56706E-04-1.22735E-13
 -1      2057 1.28536E-02 4.74876E-04-1.31111E-13
 -1      2058 1.27109E-02 4.77427E-04-1.28333E-13
 -1      2059 1.26962E-02 4.51749E-04-1.28240E-13
 -1      2060 1.31391E-02 4.69672E-04-1.36699E-13
 -1      2061 1.29964E-02 4.72290E-04-1.33898E-13
 -1      2062 1.29818E-02 4.46618E-04-1.33801E-13
 -1      2063 1.34247E-02 4.64365E-04-1.42336E-13
 -1      2064 1.32819E-02 4.67029E-04-1.39513E-13
 -1      2065 1.32673E-02 4.41360E-04-1.39411E-13
 -1      2066 1.37103E-02 4.58990E-04-1.48000E-13
 -1      2067 1.35675E-02 4.61684E-04-1.45165E-13
 -1      2068 1.35529E-02 4.36016E-04-1.45057E-13
 -1      2069 1.39959E-02 4.53577E-04-1.53693E-13
 -1      2070 1.38531E-02 4.56287E-04-1.50842E-13
 -1      2071 1.38385E-02 4.30618E-04-1.50735E-13
 -1      2072 1.42816E-02 4.48152E-04-1.59414E-13
 -1      2073 1.41387E-02 4.50865E-04-1.56552E-13
 -1      2074 1.41242E-02 4.25194E-04-1.56440E-13
 -1      2075 1.45672E-02 4.42736E-04-1.65143E-13
 -1      2076 1.44244E-02 4.45442E-04-1.62277E-13
 -1      2077 1.44099E-02 4.19767E-04-1.62165E-13
 -1      2078 1.48023E-02 4.35309E-04-1.69889E-13
 -1      2079 1.46595E-02 4.38004E-04-1.67017E-13
 -1      2080 1.46450E-02 4.12326E-04-1.66905E-13
 -1      2081 1.48295E-02 4.02868E-04-1.70656E-13
 -1      2082 1.48124E-02 1.68581E-04-1.71940E-13
 -1      2083 1.48097E-02 2.10755E-04-1.71594E-13
 -1      2084 1.48071E-02 2.52924E-04-1.71249E-13
 -1      2085 1.48045E-02 2.95087E-04-1.70906E-13
 -1      2086 1.46847E-02 2.34183E-04-1.68934E-13
 -1      2087 1.48183E-02 3.27904E-04-1.70952E-13
 -1      2088 1.48157E-02 3.70058E-04-1.70607E-13
 -1      2089 1.47234E-02 3.74787E-04-1.68731E-13
 -1      2090 1.46959E-02 3.09163E-04-1.68636E-13
 -1      2091 1.48175E-02 8.56482E-05-1.72628E-13
 -1      2092 1.48149E-02 1.27117E-04-1.72282E-13
 -1      2093 1.46899E-02 1.50556E-04-1.69620E-13
 -1      2094 1.48228E-02 1.26703E-06-1.73332E-13
 -1      2095 1.48201E-02 4.34594E-05-1.72979E-13
 -1      2096 1.46951E-02 6.69113E-05-1.70307E-13
 -1      2097 1.48281E-02-8.31278E-05-1.74037E-13
 -1      2098 1.48254E-02-4.09292E-05-1.73684E-13
 -1      2099 1.47004E-02-1.74628E-05-1.71003E-13
 -1      2100 1.48335E-02-1.67531E-04-1.74750E-13
 -1      2101 1.48308E-02-1.25329E-04-1.74394E-13
 -1      2102 1.47057E-02-1.01847E-04-1.71703E-13
 -1      2103 1.48389E-02-2.51935E-04-1.75459E-13
 -1      2104 1.48362E-02-2.09733E-04-1.75104E-13
 -1      2105 1.47111E-02-1.86237E-04-1.72404E-13
 -1      2106 1.48445E-02-3.36334E-04-1.76169E-13
 -1      2107 1.48417E-02-2.94136E-04-1.75815E-13
 -1      2108 1.47166E-02-2.70627E-04-1.73104E-13
 -1      2109 1.48499E-02-4.19293E-04-1.76859E-13
 -1      2110 1.48472E-02-3.77815E-04-1.76515E-13
 -1      2111 1.47221E-02-3.54297E-04-1.73795E-13
 -1      2112 1.48556E-02-5.03665E-04-1.77550E-13
 -1      2113 1.48527E-02-4.61481E-04-1.77205E-13
 -1      2114 1.47276E-02-4.37956E-04-1.74476E-13
 -1      2115 1.48612E-02-5.88018E-04-1.78225E-13
 -1      2116 1.48584E-02-5.45844E-04-1.77890E-13
 -1      2117 1.47333E-02-5.22315E-04-1.75152E-13
 -1      2118 1.48669E-02-6.72350E-04-1.78883E-13
 -1      2119 1.48641E-02-6.30187E-04-1.78556E-13
 -1      2120 1.47389E-02-6.06657E-04-1.75811E-13
 -1      2121 6.37171E-03 1.34231E-04-2.31216E-14
 -1      2122 6.51500E-03 7.95902E-05-2.35664E-14
 -1      2123 6.78673E-03-3.06333E-05-2.46838E-14
 -1      2124 6.78559E-03-4.72219E-05-2.46057E-14
 -1      2125 6.63788E-03 2.89405E-05-2.41075E-14
 -1      2126 6.72670E-03-1.44465E-06-2.45244E-14
 -1      2127 5.99484E-03 2.92147E-04-2.21123E-14
 -1      2128 6.19422E-03 2.05465E-04-2.26440E-14
 -1      2129 5.53299E-03 5.51791E-04-2.02661E-14
 -1      2130 5.72150E-03 4.36910E-04-2.10889E-14
 -1      2131 3.27365E-04-5.57481E-05-2.42333E-16
 -1      2132 3.33651E-04-6.81514E-05-2.36180E-16
 -1      2133 4.54986E-04-1.02230E-04-3.44858E-16
 -1      2134 4.36849E-04-6.92498E-05-3.60999E-16
 -1      2135 4.82274E-03 9.04166E-04-1.72321E-14
 -1      2136 4.98811E-03 8.37690E-04-1.79970E-14
 -1      2137 4.46707E-03 9.59119E-04-1.55367E-14
 -1      2138 4.61516E-03 9.52971E-04-1.62578E-14
 -1      2139 4.16962E-03 8.92254E-04-1.42428E-14
 -1      2140 4.31812E-03 9.38958E-04-1.48829E-14
 -1      2141 4.40410E-03 9.61941E-04-1.51066E-14
 -1      2142 3.77039E-03 7.06516E-04-1.29002E-14
 -1      2143 3.94588E-03 7.99806E-04-1.34586E-14
 -1      2144 3.35508E-03 4.81592E-04-1.18732E-14
 -1      2145 3.54673E-03 5.86832E-04-1.23021E-14
 -1      2146 2.96407E-03 2.84497E-04-1.11473E-14
 -1      2147 3.14552E-03 3.76711E-04-1.14897E-14
 -1      2148 2.60197E-03 1.23884E-04-1.05623E-14
 -1      2149 2.75742E-03 1.84305E-04-1.07527E-14
 -1      2150 2.35404E-03 4.00908E-05-1.03786E-14
 -1      2151 2.45627E-03 7.55450E-05-1.04839E-14
 -1      2152 2.24486E-03-1.31249E-05-1.01496E-14
 -1      2153 2.27903E-03 4.20548E-06-1.01890E-14
 -1      2154 2.30289E-03-5.45554E-05-1.03025E-14
 -1      2155 2.25218E-03-3.66452E-05-1.02189E-14
 -1      2156 2.55833E-03-1.54707E-04-1.09749E-14
 -1      2157 2.42699E-03-1.02553E-04-1.06431E-14
 -1      2158 2.88900E-03-2.91604E-04-1.16104E-14
 -1      2159 2.71073E-03-2.18164E-04-1.12872E-14
 -1      2160 2.64449E-03-1.65381E-04-1.08122E-14
 -1      2161 3.31210E-03-5.04419E-04-1.25834E-14
 -1      2162 3.12607E-03-4.01001E-04-1.20910E-14
 -1      2163 3.69177E-03-7.10951E-04-1.36194E-14
 -1      2164 3.50313E-03-6.07464E-04-1.30931E-14
 -1      2165 3.42855E-03-5.40542E-04-1.25496E-14
 -1      2166 4.09728E-03-9.22750E-04-1.51485E-14
 -1      2167 3.93513E-03-8.39929E-04-1.44623E-14
 -1      2168 4.40321E-03-1.01389E-03-1.65302E-14
 -1      2169 4.25359E-03-9.78587E-04-1.58295E-14
 -1      2170 4.18960E-03-9.58582E-04-1.53914E-14
 -1      2171 4.75197E-03-9.95068E-04-1.81879E-14
 -1      2172 4.59934E-03-1.01944E-03-1.74581E-14
 -1      2173 5.09158E-03-8.68658E-04-1.97277E-14
 -1      2174 4.93046E-03-9.40938E-04-1.90162E-14
 -1      2175 5.46316E-03-6.71121E-04-2.12077E-14
 -1      2176 5.28760E-03-7.69782E-04-2.05523E-14
 -1      2177 5.85329E-03-4.57116E-04-2.25117E-14
 -1      2178 5.66701E-03-5.62409E-04-2.18721E-14
 -1      2179 6.26019E-03-2.58795E-04-2.36631E-14
 -1      2180 6.08395E-03-3.35354E-04-2.32892E-14
 -1      2181 6.55847E-03-1.44234E-04-2.42055E-14
 -1      2182 6.42795E-03-1.93523E-04-2.39382E-14
 -1      2183 6.75070E-03-7.08770E-05-2.45048E-14
 -1      2184 6.68123E-03-9.71799E-05-2.44078E-14
 -1      2185 6.77529E-03-5.29125E-05-2.52807E-14
 -1      2186 5.19052E-03 7.41141E-04-1.88778E-14
 -1      2187 5.36057E-03 6.48077E-04-1.95636E-14
 -1      2188 5.42117E-03 5.92688E-04-2.01926E-14
 -1      2189 5.84759E-03 3.49232E-04-2.19310E-14
 -1      2190 5.97003E-03 2.76359E-04-2.27909E-14
 -1      2191 5.71638E-03 4.12165E-04-2.17455E-14
 -1      2192 6.43396E-04-2.54219E-04-3.79281E-16
 -1      2193 5.07489E-03 7.90619E-04-1.85897E-14
 -1      2194 6.99937E-04-2.41510E-04-5.02812E-16
 -1      2195 6.57474E-03 3.67398E-05-2.45016E-14
 -1      2196 6.77080E-03-2.28198E-05-2.52146E-14
 -1      2197 6.79742E-03-3.24741E-05-2.59147E-14
 -1      2198 6.74152E-03-1.75847E-05-2.57472E-14
 -1      2199 1.48274E-02-7.05299E-04-1.78266E-13
 -1      2200 6.27945E-03 1.46615E-04-2.34653E-14
 -1      2201 6.62663E-03-1.03410E-04-2.49714E-14
 -1      2202 6.34038E-03-2.03538E-04-2.44815E-14
 -1      2203 5.95905E-03-3.78681E-04-2.34020E-14
 -1      2204 5.53907E-03-6.08585E-04-2.19413E-14
 -1      2205 5.17087E-03-8.19766E-04-2.04276E-14
 -1      2206 4.49684E-03-1.02939E-03-1.69911E-14
 -1      2207 3.83249E-03-7.76597E-04-1.38727E-14
 -1      2208 3.02158E-03-3.28822E-04-1.15818E-14
 -1      2209 2.35479E-03-6.47352E-05-1.01719E-14
 -1      2210 2.29818E-03-4.52888E-05-9.71324E-15
 -1      2211 2.41823E-03-7.64892E-05-1.00396E-14
 -1      2212 2.23582E-03-2.24654E-05-9.77828E-15
 -1      2213 2.31086E-03 9.42295E-06-9.89846E-15
 -1      2214 2.52938E-03 8.01670E-05-1.01594E-14
 -1      2215 2.86833E-03 2.12748E-04-1.06100E-14
 -1      2216 3.27302E-03 4.13652E-04-1.13680E-14
 -1      2217 4.08340E-03 8.57646E-04-1.36757E-14
 -1      2218 4.70389E-03 9.41367E-04-1.67225E-14
 -1      2219 3.67646E-03 6.40325E-04-1.23207E-14
 -1      2220 4.83269E-03-9.76853E-04-1.87582E-14
 -1      2221 1.07764E-03 3.34235E-04-6.66811E-16
 -1      2222 9.22483E-04 3.03608E-04-4.75450E-16
 -1      2223 5.13930E-04-2.93997E-05-5.22653E-16
 -1      2224 5.19949E-04-3.95385E-05-5.23765E-16
 -1      2225 5.27396E-04-5.11164E-05-5.23128E-16
 -1      2226 5.36045E-04-6.43411E-05-5.20973E-16
 -1      2227 6.31799E-04-5.51929E-05-7.09217E-16
 -1      2228 5.05133E-04 3.58056E-06-5.03910E-16
 -1      2229 5.04913E-04-4.15824E-06-5.10619E-16
 -1      2230 5.10384E-04 2.01064E-05-4.86007E-16
 -1      2231 5.06984E-04 1.15790E-05-4.95819E-16
 -1      2232 6.09313E-04 9.27120E-06-6.77708E-16
 -1      2233 5.21354E-04 3.97420E-05-4.62290E-16
 -1      2234 5.15218E-04 2.93749E-05-4.75124E-16
 -1      2235 6.17934E-04 3.01416E-05-6.52879E-16
 -1      2236 5.37620E-04 6.54974E-05-4.29886E-16
 -1      2237 5.28927E-04 5.17781E-05-4.47206E-16
 -1      2238 6.33771E-04 5.56203E-05-6.19310E-16
 -1      2239 5.58389E-04 9.93301E-05-3.87263E-16
 -1      2240 5.47519E-04 8.12939E-05-4.10289E-16
 -1      2241 6.55970E-04 8.85104E-05-5.74980E-16
 -1      2242 5.83788E-04 1.43765E-04-3.30370E-16
 -1      2243 5.70543E-04 1.20081E-04-3.61107E-16
 -1      2244 6.83649E-04 1.30967E-04-5.17110E-16
 -1      2245 1.38754E-03 3.85496E-04-1.16086E-15
 -1      2246 1.23245E-03 3.61347E-04-8.94670E-16
 -1      2247 1.12822E-03 3.11018E-04-8.49418E-16
 -1      2248 9.62856E-04-2.80160E-04-9.51184E-16
 -1      2249 1.11632E-03-3.07941E-04-1.24644E-15
 -1      2250 4.98439E-03 8.36896E-04-1.83077E-14
 -1      2251 5.15368E-03 7.41731E-04-1.92008E-14
 -1      2252 1.26980E-03-3.32666E-04-1.58409E-15
 -1      2253 1.42383E-03-3.55023E-04-1.96463E-15
 -1      2254 1.16577E-03-2.84854E-04-1.44601E-15
 -1      2255 1.57838E-03-3.76311E-04-2.38754E-15
 -1      2256 1.73382E-03-3.97219E-04-2.85336E-15
 -1      2257 1.46939E-03-3.27865E-04-2.21085E-15
 -1      2258 1.89041E-03-4.18959E-04-3.36131E-15
 -1      2259 2.04831E-03-4.42356E-04-3.91137E-15
 -1      2260 1.77624E-03-3.67812E-04-3.14358E-15
 -1      2261 2.20801E-03-4.68485E-04-4.50360E-15
 -1      2262 2.36937E-03-4.98312E-04-5.13931E-15
 -1      2263 2.08847E-03-4.12069E-04-4.24346E-15
 -1      2264 2.53313E-03-5.32678E-04-5.81689E-15
 -1      2265 2.69868E-03-5.72560E-04-6.53729E-15
 -1      2266 2.40878E-03-4.68398E-04-5.51008E-15
 -1      2267 2.86693E-03-6.18342E-04-7.30080E-15
 -1      2268 3.03664E-03-6.70627E-04-8.10753E-15
 -1      2269 2.73981E-03-5.44502E-04-6.94536E-15
 -1      2270 3.20863E-03-7.29019E-04-8.95833E-15
 -1      2271 3.38090E-03-7.92787E-04-9.85349E-15
 -1      2272 3.08272E-03-6.46507E-04-8.55059E-15
 -1      2273 3.55380E-03-8.60349E-04-1.07943E-14
 -1      2274 3.72518E-03-9.28807E-04-1.17817E-14
 -1      2275 3.43477E-03-7.74874E-04-1.03312E-14
 -1      2276 3.89469E-03-9.95076E-04-1.28174E-14
 -1      2277 4.06127E-03-1.05387E-03-1.39014E-14
 -1      2278 3.78772E-03-9.17666E-04-1.22955E-14
 -1      2279 4.22385E-03-1.10163E-03-1.50355E-14
 -1      2280 4.38466E-03-1.13280E-03-1.62212E-14
 -1      2281 4.13054E-03-1.04460E-03-1.44532E-14
 -1      2282 4.54235E-03-1.14524E-03-1.74572E-14
 -1      2283 4.70160E-03-1.13739E-03-1.87456E-14
 -1      2284 4.45914E-03-1.11334E-03-1.68143E-14
 -1      2285 4.86107E-03-1.10993E-03-2.00849E-14
 -1      2286 5.02462E-03-1.06677E-03-2.14723E-14
 -1      2287 4.78364E-03-1.09557E-03-1.93824E-14
 -1      2288 5.19096E-03-1.01107E-03-2.29074E-14
 -1      2289 5.36071E-03-9.48684E-04-2.43902E-14
 -1      2290 5.11872E-03-1.00059E-03-2.21529E-14
 -1      2291 5.53305E-03-8.83234E-04-2.59163E-14
 -1      2292 5.70625E-03-8.19194E-04-2.74846E-14
 -1      2293 5.46802E-03-8.67475E-04-2.51119E-14
 -1      2294 5.88026E-03-7.59058E-04-2.90945E-14
 -1      2295 6.05281E-03-7.04727E-04-3.07453E-14
 -1      2296 5.82301E-03-7.35754E-04-2.82461E-14
 -1      2297 6.22449E-03-6.57381E-04-3.24335E-14
 -1      2298 6.39365E-03-6.17062E-04-3.41586E-14
 -1      2299 6.17294E-03-6.28071E-04-3.15401E-14
 -1      2300 6.56114E-03-5.83974E-04-3.59205E-14
 -1      2301 6.72601E-03-5.57395E-04-3.77195E-14
 -1      2302 6.51188E-03-5.50681E-04-3.49841E-14
 -1      2303 6.88902E-03-5.36962E-04-3.95527E-14
 -1      2304 7.04977E-03-5.21808E-04-4.14221E-14
 -1      2305 6.83903E-03-5.01056E-04-3.85731E-14
 -1      2306 7.20879E-03-5.11330E-04-4.33262E-14
 -1      2307 7.36601E-03-5.04774E-04-4.52606E-14
 -1      2308 7.15608E-03-4.73620E-04-4.23027E-14
 -1      2309 7.52173E-03-5.01508E-04-4.72304E-14
 -1      2310 7.67605E-03-5.00953E-04-4.92302E-14
 -1      2311 7.46539E-03-4.62514E-04-4.61649E-14
 -1      2312 7.82910E-03-5.02558E-04-5.12622E-14
 -1      2313 7.98105E-03-5.05903E-04-5.33250E-14
 -1      2314 7.76899E-03-4.62680E-04-5.01571E-14
 -1      2315 8.13195E-03-5.10556E-04-5.54189E-14
 -1      2316 8.28198E-03-5.16223E-04-5.75416E-14
 -1      2317 8.06841E-03-4.70129E-04-5.42736E-14
 -1      2318 8.43113E-03-5.22591E-04-5.96931E-14
 -1      2319 8.57958E-03-5.29459E-04-6.18751E-14
 -1      2320 8.36468E-03-4.81890E-04-5.85118E-14
 -1      2321 8.72731E-03-5.36618E-04-6.40842E-14
 -1      2322 8.87449E-03-5.43932E-04-6.63229E-14
 -1      2323 8.65855E-03-4.95855E-04-6.28656E-14
 -1      2324 9.02107E-03-5.51274E-04-6.85905E-14
 -1      2325 9.16721E-03-5.58555E-04-7.08863E-14
 -1      2326 8.95053E-03-5.10598E-04-6.73339E-14
 -1      2327 9.31287E-03-5.65704E-04-7.32098E-14
 -1      2328 9.45818E-03-5.72667E-04-7.55601E-14
 -1      2329 9.24102E-03-5.25209E-04-7.19189E-14
 -1      2330 9.60312E-03-5.79413E-04-7.79390E-14
 -1      2331 9.74777E-03-5.85910E-04-8.03454E-14
 -1      2332 9.53034E-03-5.39150E-04-7.66140E-14
 -1      2333 9.89213E-03-5.92154E-04-8.27767E-14
 -1      2334 1.00363E-02-5.98129E-04-8.52358E-14
 -1      2335 9.81873E-03-5.52143E-04-8.14169E-14
 -1      2336 1.01802E-02-6.03845E-04-8.77197E-14
 -1      2337 1.03240E-02-6.09297E-04-9.02295E-14
 -1      2338 1.01064E-02-5.64081E-04-8.63257E-14
 -1      2339 1.04676E-02-6.14505E-04-9.27655E-14
 -1      2340 1.06110E-02-6.19469E-04-9.53237E-14
 -1      2341 1.03935E-02-5.74971E-04-9.13390E-14
 -1      2342 1.07544E-02-6.24212E-04-9.79071E-14
 -1      2343 1.08976E-02-6.28740E-04-1.00511E-13
 -1      2344 1.06802E-02-5.84884E-04-9.64488E-14
 -1      2345 1.10408E-02-6.33077E-04-1.03137E-13
 -1      2346 1.11839E-02-6.37229E-04-1.05780E-13
 -1      2347 1.09665E-02-5.93926E-04-1.01648E-13
 -1      2348 1.13269E-02-6.41219E-04-1.08441E-13
 -1      2349 1.14699E-02-6.45054E-04-1.11120E-13
 -1      2350 1.12526E-02-6.02217E-04-1.06927E-13
 -1      2351 1.16128E-02-6.48757E-04-1.13813E-13
 -1      2352 1.17558E-02-6.52333E-04-1.16525E-13
 -1      2353 1.15386E-02-6.09877E-04-1.12277E-13
 -1      2354 1.18986E-02-6.55802E-04-1.19251E-13
 -1      2355 1.20415E-02-6.59169E-04-1.21991E-13
 -1      2356 1.18244E-02-6.17020E-04-1.17691E-13
 -1      2357 1.21844E-02-6.62452E-04-1.24750E-13
 -1      2358 1.23272E-02-6.65655E-04-1.27523E-13
 -1      2359 1.21102E-02-6.23748E-04-1.23168E-13
 -1      2360 1.24700E-02-6.68793E-04-1.30311E-13
 -1      2361 1.26129E-02-6.71870E-04-1.33114E-13
 -1      2362 1.23959E-02-6.30149E-04-1.28709E-13
 -1      2363 1.27557E-02-6.74897E-04-1.35933E-13
 -1      2364 1.28985E-02-6.77878E-04-1.38770E-13
 -1      2365 1.26816E-02-6.36298E-04-1.34309E-13
 -1      2366 1.30413E-02-6.80823E-04-1.41622E-13
 -1      2367 1.31841E-02-6.83735E-04-1.44489E-13
 -1      2368 1.29673E-02-6.42257E-04-1.39971E-13
 -1      2369 1.33270E-02-6.86621E-04-1.47370E-13
 -1      2370 1.34698E-02-6.89485E-04-1.50265E-13
 -1      2371 1.32530E-02-6.48077E-04-1.45695E-13
 -1      2372 1.36126E-02-6.92331E-04-1.53178E-13
 -1      2373 1.37554E-02-6.95164E-04-1.56097E-13
 -1      2374 1.35386E-02-6.53802E-04-1.51477E-13
 -1      2375 1.38983E-02-6.97987E-04-1.59027E-13
 -1      2376 1.40411E-02-7.00802E-04-1.61974E-13
 -1      2377 1.38243E-02-6.59464E-04-1.57308E-13
 -1      2378 1.41839E-02-7.03615E-04-1.64927E-13
 -1      2379 1.43268E-02-7.06426E-04-1.67890E-13
 -1      2380 1.41100E-02-6.65093E-04-1.63185E-13
 -1      2381 2.01443E-03 4.76184E-04-2.60759E-15
 -1      2382 1.85626E-03 4.52572E-04-2.18711E-15
 -1      2383 2.33490E-03 5.31114E-04-3.56841E-15
 -1      2384 2.17407E-03 5.02125E-04-3.06791E-15
 -1      2385 2.05879E-03 4.46351E-04-2.95525E-15
 -1      2386 2.66113E-03 6.01591E-04-4.69027E-15
 -1      2387 2.49748E-03 5.64063E-04-4.10937E-15
 -1      2388 2.37895E-03 5.02199E-04-3.96972E-15
 -1      2389 2.99240E-03 6.91974E-04-5.97821E-15
 -1      2390 2.82649E-03 6.44158E-04-5.31317E-15
 -1      2391 2.70661E-03 5.75014E-04-5.14488E-15
 -1      2392 3.32604E-03 8.01597E-04-7.43595E-15
 -1      2393 3.15944E-03 7.44700E-04-6.68470E-15
 -1      2394 3.04163E-03 6.69168E-04-6.48456E-15
 -1      2395 3.65724E-03 9.21191E-04-9.06721E-15
 -1      2396 3.49249E-03 8.61178E-04-8.22985E-15
 -1      2397 3.38118E-03 7.83576E-04-7.99362E-15
 -1      2398 3.98047E-03 1.03078E-03-1.08833E-14
 -1      2399 3.82007E-03 9.78952E-04-9.95163E-15
 -1      2400 3.71916E-03 9.07238E-04-9.67903E-15
 -1      2401 4.29339E-03 1.10319E-03-1.28916E-14
 -1      2402 4.13778E-03 1.07338E-03-1.18630E-14
 -1      2403 4.04850E-03 1.01652E-03-1.15488E-14
 -1      2404 4.60012E-03 1.11575E-03-1.50976E-14
 -1      2405 4.44649E-03 1.11786E-03-1.39695E-14
 -1      2406 4.36673E-03 1.08055E-03-1.36146E-14
 -1      2407 4.90958E-03 1.06336E-03-1.75055E-14
 -1      2408 4.75344E-03 1.09700E-03-1.62769E-14
 -1      2409 4.67999E-03 1.07624E-03-1.58807E-14
 -1      2410 5.22906E-03 9.62333E-04-2.01074E-14
 -1      2411 5.06767E-03 1.01720E-03-1.87819E-14
 -1      2412 4.99905E-03 1.00436E-03-1.83480E-14
 -1      2413 5.55908E-03 8.40232E-04-2.28979E-14
 -1      2414 5.39305E-03 9.02151E-04-2.14797E-14
 -1      2415 5.32992E-03 8.88933E-04-2.10100E-14
 -1      2416 5.89500E-03 7.21914E-04-2.58649E-14
 -1      2417 5.72689E-03 7.79420E-04-2.43599E-14
 -1      2418 5.66970E-03 7.61594E-04-2.38571E-14
 -1      2419 6.23121E-03 6.22445E-04-2.90064E-14
 -1      2420 6.06359E-03 6.69338E-04-2.74145E-14
 -1      2421 6.01116E-03 6.46038E-04-2.68802E-14
 -1      2422 6.56377E-03 5.47075E-04-3.23137E-14
 -1      2423 6.39830E-03 5.81726E-04-3.06395E-14
 -1      2424 6.34823E-03 5.53719E-04-3.00736E-14
 -1      2425 6.89074E-03 4.94757E-04-3.57772E-14
 -1      2426 6.72813E-03 5.18246E-04-3.40254E-14
 -1      2427 6.67796E-03 4.86608E-04-3.34278E-14
 -1      2428 7.21159E-03 4.61456E-04-3.93912E-14
 -1      2429 7.05199E-03 4.76010E-04-3.75665E-14
 -1      2430 6.99992E-03 4.41711E-04-3.69354E-14
 -1      2431 7.52655E-03 4.42404E-04-4.31523E-14
 -1      2432 7.36980E-03 4.50418E-04-4.12539E-14
 -1      2433 7.31487E-03 4.14250E-04-4.05924E-14
 -1      2434 7.83616E-03 4.33225E-04-4.70490E-14
 -1      2435 7.68198E-03 4.36806E-04-4.50834E-14
 -1      2436 7.62394E-03 3.99408E-04-4.43902E-14
 -1      2437 8.14107E-03 4.30373E-04-5.10739E-14
 -1      2438 7.98915E-03 4.31183E-04-4.90458E-14
 -1      2439 7.92820E-03 3.93064E-04-4.83218E-14
 -1      2440 8.44195E-03 4.31186E-04-5.52298E-14
 -1      2441 8.29195E-03 4.30449E-04-5.31366E-14
 -1      2442 8.22853E-03 3.91998E-04-5.23856E-14
 -1      2443 8.73944E-03 4.33786E-04-5.95043E-14
 -1      2444 8.59106E-03 4.32352E-04-5.73518E-14
 -1      2445 8.52567E-03 3.93846E-04-5.65737E-14
 -1      2446 9.03415E-03 4.36918E-04-6.39010E-14
 -1      2447 8.88709E-03 4.35345E-04-6.16887E-14
 -1      2448 8.82022E-03 3.96970E-04-6.08827E-14
 -1      2449 9.32660E-03 4.39795E-04-6.84139E-14
 -1      2450 9.18061E-03 4.38427E-04-6.61423E-14
 -1      2451 9.11267E-03 4.00293E-04-6.53109E-14
 -1      2452 9.61726E-03 4.41964E-04-7.30402E-14
 -1      2453 9.47212E-03 4.40990E-04-7.07125E-14
 -1      2454 9.40343E-03 4.03153E-04-6.98553E-14
 -1      2455 9.90651E-03 4.43202E-04-7.77731E-14
 -1      2456 9.76203E-03 4.42710E-04-7.53926E-14
 -1      2457 9.69287E-03 4.05186E-04-7.45094E-14
 -1      2458 1.01947E-02 4.43437E-04-8.26137E-14
 -1      2459 1.00507E-02 4.43449E-04-8.01812E-14
 -1      2460 9.98128E-03 4.06228E-04-7.92714E-14
 -1      2461 1.04821E-02 4.42695E-04-8.75561E-14
 -1      2462 1.03385E-02 4.43188E-04-8.50715E-14
 -1      2463 1.02689E-02 4.06246E-04-8.41393E-14
 -1      2464 1.07689E-02 4.41054E-04-9.25979E-14
 -1      2465 1.06255E-02 4.41984E-04-9.00661E-14
 -1      2466 1.05559E-02 4.05288E-04-8.91081E-14
 -1      2467 1.10552E-02 4.38619E-04-9.77291E-14
 -1      2468 1.09121E-02 4.39931E-04-9.51521E-14
 -1      2469 1.08425E-02 4.03445E-04-9.41732E-14
 -1      2470 1.13413E-02 4.35506E-04-1.02936E-13
 -1      2471 1.11983E-02 4.37142E-04-1.00324E-13
 -1      2472 1.11287E-02 4.00832E-04-9.93242E-14
 -1      2473 1.16272E-02 4.31829E-04-1.08215E-13
 -1      2474 1.14842E-02 4.33733E-04-1.05568E-13
 -1      2475 1.14147E-02 3.97565E-04-1.04551E-13
 -1      2476 1.19129E-02 4.27691E-04-1.13553E-13
 -1      2477 1.17700E-02 4.29813E-04-1.10878E-13
 -1      2478 1.17006E-02 3.93759E-04-1.09845E-13
 -1      2479 1.21985E-02 4.23187E-04-1.18955E-13
 -1      2480 1.20557E-02 4.25481E-04-1.16245E-13
 -1      2481 1.19863E-02 3.89516E-04-1.15199E-13
 -1      2482 1.24842E-02 4.18397E-04-1.24414E-13
 -1      2483 1.23414E-02 4.20824E-04-1.21676E-13
 -1      2484 1.22720E-02 3.84928E-04-1.20617E-13
 -1      2485 1.27698E-02 4.13388E-04-1.29935E-13
 -1      2486 1.26270E-02 4.15916E-04-1.27167E-13
 -1      2487 1.25577E-02 3.80072E-04-1.26095E-13
 -1      2488 1.30554E-02 4.08217E-04-1.35506E-13
 -1      2489 1.29126E-02 4.10820E-04-1.32717E-13
 -1      2490 1.28433E-02 3.75013E-04-1.31628E-13
 -1      2491 1.33410E-02 4.02930E-04-1.41126E-13
 -1      2492 1.31982E-02 4.05586E-04-1.38311E-13
 -1      2493 1.31290E-02 3.69805E-04-1.37215E-13
 -1      2494 1.36266E-02 3.97566E-04-1.46778E-13
 -1      2495 1.34838E-02 4.00256E-04-1.43947E-13
 -1      2496 1.34146E-02 3.64491E-04-1.42839E-13
 -1      2497 1.39122E-02 3.92155E-04-1.52460E-13
 -1      2498 1.37694E-02 3.94865E-04-1.49617E-13
 -1      2499 1.37003E-02 3.59108E-04-1.48498E-13
 -1      2500 1.41979E-02 3.86724E-04-1.58175E-13
 -1      2501 1.40551E-02 3.89441E-04-1.55313E-13
 -1      2502 1.39859E-02 3.53686E-04-1.54189E-13
 -1      2503 1.44836E-02 3.81297E-04-1.63900E-13
 -1      2504 1.43407E-02 3.84009E-04-1.61036E-13
 -1      2505 1.42716E-02 3.48250E-04-1.59905E-13
 -1      2506 1.46312E-02 3.79519E-04-1.66855E-13
 -1      2507 1.45727E-02 4.81837E-05-1.67986E-13
 -1      2508 1.45700E-02 9.03629E-05-1.67641E-13
 -1      2509 1.45780E-02-3.61837E-05-1.68673E-13
 -1      2510 1.45753E-02 6.00105E-06-1.68329E-13
 -1      2511 1.44503E-02 2.94630E-05-1.65660E-13
 -1      2512 1.45623E-02 2.15450E-04-1.66620E-13
 -1      2513 1.45597E-02 2.57613E-04-1.66276E-13
 -1      2514 1.45674E-02 1.32182E-04-1.67300E-13
 -1      2515 1.45649E-02 1.73639E-04-1.66961E-13
 -1      2516 1.44399E-02 1.97080E-04-1.64302E-13
 -1      2517 1.44450E-02 1.13457E-04-1.64981E-13
 -1      2518 1.45833E-02-1.20559E-04-1.69367E-13
 -1      2519 1.45806E-02-7.83708E-05-1.69020E-13
 -1      2520 1.44556E-02-5.48977E-05-1.66345E-13
 -1      2521 1.45887E-02-2.04938E-04-1.70060E-13
 -1      2522 1.45860E-02-1.62748E-04-1.69715E-13
 -1      2523 1.44609E-02-1.39264E-04-1.67031E-13
 -1      2524 1.45942E-02-2.89315E-04-1.70748E-13
 -1      2525 1.45915E-02-2.47127E-04-1.70403E-13
 -1      2526 1.44664E-02-2.23633E-04-1.67713E-13
 -1      2527 1.45997E-02-3.72257E-04-1.71417E-13
 -1      2528 1.45969E-02-3.30787E-04-1.71081E-13
 -1      2529 1.44718E-02-3.07284E-04-1.68380E-13
 -1      2530 1.46053E-02-4.56619E-04-1.72089E-13
 -1      2531 1.46025E-02-4.14440E-04-1.71754E-13
 -1      2532 1.44773E-02-3.90930E-04-1.69041E-13
 -1      2533 1.46109E-02-5.40967E-04-1.72749E-13
 -1      2534 1.46081E-02-4.98795E-04-1.72420E-13
 -1      2535 1.44830E-02-4.75282E-04-1.69699E-13
 -1      2536 1.46166E-02-6.25298E-04-1.73395E-13
 -1      2537 1.46138E-02-5.83135E-04-1.73073E-13
 -1      2538 1.44886E-02-5.59619E-04-1.70346E-13
 -1      2539 6.21645E-03 1.59124E-04-2.39724E-14
 -1      2540 6.37347E-03 9.69764E-05-2.44720E-14
 -1      2541 1.69913E-03 4.30146E-04-1.80652E-15
 -1      2542 1.54298E-03 4.08224E-04-1.46451E-15
 -1      2543 1.74486E-03 4.00810E-04-2.09941E-15
 -1      2544 5.33093E-03 6.38165E-04-2.01169E-14
 -1      2545 5.48059E-03 5.46468E-04-2.08341E-14
 -1      2546 1.46993E-02-7.01090E-04-1.75575E-13
 -1      2547 6.68793E-03-7.73760E-05-2.59774E-14
 -1      2548 6.57491E-03-1.08172E-04-2.57650E-14
 -1      2549 6.51117E-03 4.74022E-05-2.50227E-14
 -1      2550 6.62958E-03 1.31462E-05-2.55815E-14
 -1      2551 6.45954E-03 6.74995E-05-2.55397E-14
 -1      2552 6.79210E-03-4.93711E-05-2.61800E-14
 -1      2553 6.75191E-03-5.86758E-05-2.60773E-14
 -1      2554 6.72369E-03-6.87812E-05-2.68794E-14
 -1      2555 5.06329E-04-1.20314E-05-5.15741E-16
 -1      2556 5.09338E-04-2.03150E-05-5.19861E-16
 -1      2557 6.16414E-04-3.04590E-05-7.05965E-16
 -1      2558 6.08727E-04-9.97081E-06-6.95285E-16
 -1      2559 4.64643E-03 9.64359E-04-1.63916E-14
 -1      2560 4.80928E-03 9.15359E-04-1.73740E-14
 -1      2561 3.58587E-03 5.77829E-04-1.16657E-14
 -1      2562 3.77428E-03 6.92691E-04-1.22364E-14
 -1      2563 4.33764E-03 9.57512E-04-1.45823E-14
 -1      2564 4.45081E-03 9.76510E-04-1.52262E-14
 -1      2565 4.89730E-03-9.55163E-04-1.93427E-14
 -1      2566 4.75344E-03-1.00903E-03-1.85030E-14
 -1      2567 3.99333E-03 8.13777E-04-1.30311E-14
 -1      2568 4.17142E-03 9.02384E-04-1.37935E-14
 -1      2569 4.23528E-03 9.32882E-04-1.39009E-14
 -1      2570 3.17410E-03 3.45952E-04-1.06942E-14
 -1      2571 3.35341E-03 4.44718E-04-1.10516E-14
 -1      2572 2.78697E-03 1.64465E-04-9.94502E-15
 -1      2573 2.97790E-03 2.48486E-04-1.03158E-14
 -1      2574 3.05402E-03 2.93074E-04-1.00125E-14
 -1      2575 2.44539E-03 4.40092E-05-9.72773E-15
 -1      2576 2.57438E-03 8.33632E-05-9.79509E-15
 -1      2577 2.26843E-03-3.11753E-06-9.35701E-15
 -1      2578 2.34254E-03 1.32458E-05-9.54061E-15
 -1      2579 2.37221E-03 2.29916E-05-9.18543E-15
 -1      2580 2.22559E-03-2.45613E-05-9.26652E-15
 -1      2581 2.22023E-03-1.84924E-05-9.20377E-15
 -1      2582 2.71875E-03-1.79302E-04-1.06065E-14
 -1      2583 2.57556E-03-1.27359E-04-1.03117E-14
 -1      2584 3.11825E-03-3.59785E-04-1.14015E-14
 -1      2585 2.90730E-03-2.58190E-04-1.09474E-14
 -1      2586 3.51373E-03-5.80749E-04-1.25028E-14
 -1      2587 3.34771E-03-4.82822E-04-1.20134E-14
 -1      2588 3.93866E-03-8.34805E-04-1.40738E-14
 -1      2589 3.73171E-03-7.09965E-04-1.32497E-14
 -1      2590 4.26426E-03-9.92424E-04-1.56709E-14
 -1      2591 4.13902E-03-9.38374E-04-1.49952E-14
 -1      2592 4.59491E-03-1.04025E-03-1.76128E-14
 -1      2593 4.44248E-03-1.03537E-03-1.66780E-14
 -1      2594 5.23836E-03-7.74705E-04-2.11988E-14
 -1      2595 5.07469E-03-8.70747E-04-2.03548E-14
 -1      2596 5.62502E-03-5.45411E-04-2.28444E-14
 -1      2597 5.44996E-03-6.50571E-04-2.21578E-14
 -1      2598 6.05143E-03-3.18024E-04-2.44343E-14
 -1      2599 5.83822E-03-4.27362E-04-2.36327E-14
 -1      2600 5.74762E-03-4.79938E-04-2.38542E-14
 -1      2601 6.42920E-03-1.58580E-04-2.53621E-14
 -1      2602 6.27917E-03-2.15529E-04-2.50718E-14
 -1      2603 6.15152E-04-1.88413E-04-4.58536E-16
 -1      2604 8.19611E-04-2.44557E-04-7.26483E-16
 -1      2605 8.73884E-04-2.28285E-04-8.78705E-16
 -1      2606 5.98754E-04-1.59179E-04-4.81345E-16
 -1      2607 8.01030E-04 2.80497E-04-3.39193E-16
 -1      2608 6.45143E-04 2.39491E-04-2.12937E-16
 -1      2609 6.14542E-04 2.12080E-04-2.30854E-16
 -1      2610 8.55205E-04 2.63202E-04-4.72387E-16
 -1      2611 4.90054E-03 8.80672E-04-1.79554E-14
 -1      2612 6.53834E-04-8.68411E-05-7.03471E-16
 -1      2613 5.45937E-04-7.95490E-05-5.16514E-16
 -1      2614 5.56813E-04-9.69809E-05-5.09399E-16
 -1      2615 1.43529E-03 3.58215E-04-1.39877E-15
 -1      2616 5.96432E-04 1.79752E-04-2.73707E-16
 -1      2617 5.84113E-04-1.33805E-04-4.98394E-16
 -1      2618 6.16878E-03-2.62534E-04-2.53038E-14
 -1      2619 6.07182E-03-3.16235E-04-2.55326E-14
 -1      2620 6.27922E-03-2.22114E-04-2.61885E-14
 -1      2621 5.98126E-03 2.71820E-04-2.35736E-14
 -1      2622 6.09565E-03 2.12351E-04-2.37733E-14
 -1      2623 6.21429E-03 1.66544E-04-2.47749E-14
 -1      2624 5.23402E-03 6.98127E-04-1.98183E-14
 -1      2625 5.34749E-03-7.16291E-04-2.20774E-14
 -1      2626 6.52608E-03-1.25509E-04-2.63654E-14
 -1      2627 6.70444E-03-8.04508E-06-2.62757E-14
 -1      2628 6.76436E-03-1.90627E-05-2.69781E-14
 -1      2629 6.66624E-03 6.46624E-06-2.68025E-14
 -1      2630 1.45621E-02 3.43752E-04-1.65724E-13
 -1      2631 1.45483E-02 3.10941E-04-1.65678E-13
 -1      2632 4.67309E-03-1.03366E-03-1.81697E-14
 -1      2633 6.82290E-03-3.70716E-05-2.72474E-14
 -1      2634 6.81535E-03-4.11740E-05-2.67123E-14
 -1      2635 6.81841E-03-4.68084E-05-2.75176E-14
 -1      2636 4.37418E-03-1.02785E-03-1.62557E-14
 -1      2637 4.02484E-03-8.85771E-04-1.43337E-14
 -1      2638 7.15369E-04 1.95071E-04-4.15642E-16
 -1      2639 1.45515E-02-7.13362E-04-1.72581E-13
 -1      2640 1.45939E-02-6.61095E-04-1.73145E-13
 -1      2641 1.44688E-02-6.37580E-04-1.70413E-13
 -1      2642 1.44234E-02-7.09164E-04-1.69903E-13
 -1      2643 3.63032E-03-6.53867E-04-1.26873E-14
 -1      2644 3.20485E-03-4.08138E-04-1.13542E-14
 -1      2645 2.80935E-03-2.16156E-04-1.04334E-14
 -1      2646 2.22059E-03-1.22558E-05-8.85335E-15
 -1      2647 2.66975E-03 1.18498E-04-9.51095E-15
 -1      2648 2.75009E-03 1.62446E-04-9.22295E-15
 -1      2649 2.56285E-03 8.70110E-05-9.08789E-15
 -1      2650 3.87902E-03 7.59903E-04-1.23412E-14
 -1      2651 4.98751E-03-9.19572E-04-2.00833E-14
 -1      2652 2.47462E-03-9.34040E-05-9.84011E-15
 -1      2653 2.26742E-03-3.89817E-05-8.99922E-15
 -1      2654 2.24024E-03-3.16106E-05-9.13293E-15
 -1      2655 2.19363E-03-2.60868E-05-8.56930E-15
 -1      2656 3.45600E-03 5.11481E-04-1.09680E-14
 -1      2657 4.56335E-03 9.79927E-04-1.58336E-14
 -1      2658 5.53704E-03 5.20806E-04-2.15799E-14
 -1      2659 5.61579E-03 4.66622E-04-2.16655E-14
 -1      2660 5.74897E-03 3.94588E-04-2.25144E-14
 -1      2661 1.44259E-02 2.92214E-04-1.63367E-13
 -1      2662 1.43495E-02-6.70638E-04-1.68148E-13
 -1      2663 7.28057E-04 4.22132E-05-8.44133E-16
 -1      2664 7.20469E-04 2.89906E-05-8.62117E-16
 -1      2665 7.15032E-04 1.66553E-05-8.77743E-16
 -1      2666 7.12112E-04 5.04879E-06-8.91390E-16
 -1      2667 8.22560E-04 2.57702E-05-1.10330E-15
 -1      2668 7.78667E-04 1.13981E-04-7.40998E-16
 -1      2669 7.63421E-04 9.26743E-05-7.72060E-16
 -1      2670 8.13877E-04 1.64872E-04-6.65321E-16
 -1      2671 7.95601E-04 1.37976E-04-7.05639E-16
 -1      2672 9.05813E-04 1.41780E-04-9.26790E-16
 -1      2673 1.17835E-03 2.87845E-04-1.04359E-15
 -1      2674 1.02732E-03 2.63207E-04-7.97268E-16
 -1      2675 1.43722E-02-6.34845E-04-1.68404E-13
 -1      2676 1.43948E-02-5.99048E-04-1.68656E-13
 -1      2677 1.42755E-02-6.32111E-04-1.66397E-13
 -1      2678 8.32284E-04 2.15757E-04-5.60519E-16
 -1      2679 1.36316E-03-2.82009E-04-2.03632E-15
 -1      2680 1.51316E-03-3.00829E-04-2.46202E-15
 -1      2681 1.66404E-03-3.19303E-04-2.92865E-15
 -1      2682 1.81621E-03-3.38201E-04-3.43712E-15
 -1      2683 1.55466E-03-2.73813E-04-2.71750E-15
 -1      2684 1.96998E-03-3.58412E-04-3.98688E-15
 -1      2685 2.12569E-03-3.80967E-04-4.57699E-15
 -1      2686 1.85345E-03-3.08223E-04-3.73382E-15
 -1      2687 2.28401E-03-4.06636E-04-5.20847E-15
 -1      2688 2.44510E-03-4.36799E-04-5.88149E-15
 -1      2689 2.15983E-03-3.48759E-04-4.91237E-15
 -1      2690 2.60996E-03-4.72008E-04-6.59576E-15
 -1      2691 2.77824E-03-5.13890E-04-7.35161E-15
 -1      2692 2.47828E-03-4.03179E-04-6.25270E-15
 -1      2693 2.95114E-03-5.62617E-04-8.15010E-15
 -1      2694 3.12726E-03-6.19525E-04-8.99081E-15
 -1      2695 2.81401E-03-4.80673E-04-7.75673E-15
 -1      2696 3.30765E-03-6.84154E-04-9.87514E-15
 -1      2697 3.48922E-03-7.55489E-04-1.08045E-14
 -1      2698 3.17029E-03-5.90933E-04-9.42806E-15
 -1      2699 3.67240E-03-8.31397E-04-1.17814E-14
 -1      2700 3.85320E-03-9.07444E-04-1.28051E-14
 -1      2701 3.54349E-03-7.36863E-04-1.12754E-14
 -1      2702 4.03059E-03-9.79970E-04-1.38784E-14
 -1      2703 4.20387E-03-1.03859E-03-1.50017E-14
 -1      2704 3.91830E-03-9.02263E-04-1.33101E-14
 -1      2705 4.37102E-03-1.07938E-03-1.61780E-14
 -1      2706 4.53770E-03-1.09497E-03-1.74057E-14
 -1      2707 4.27682E-03-1.03655E-03-1.55465E-14
 -1      2708 4.70201E-03-1.08393E-03-1.86857E-14
 -1      2709 4.87098E-03-1.04887E-03-2.00188E-14
 -1      2710 4.61924E-03-1.07236E-03-1.79941E-14
 -1      2711 5.04270E-03-9.92756E-04-2.14021E-14
 -1      2712 5.22004E-03-9.25635E-04-2.28334E-14
 -1      2713 4.96744E-03-9.90354E-04-2.06529E-14
 -1      2714 5.40123E-03-8.51686E-04-2.43104E-14
 -1      2715 5.58351E-03-7.78894E-04-2.58336E-14
 -1      2716 5.33471E-03-8.39375E-04-2.35125E-14
 -1      2717 5.76656E-03-7.10284E-04-2.73984E-14
 -1      2718 5.94650E-03-6.48975E-04-2.90048E-14
 -1      2719 5.71124E-03-6.84640E-04-2.65548E-14
 -1      2720 6.12408E-03-5.96297E-04-3.06506E-14
 -1      2721 6.29696E-03-5.51724E-04-3.23331E-14
 -1      2722 6.07781E-03-5.62299E-04-2.97642E-14
 -1      2723 6.46634E-03-5.15606E-04-3.40533E-14
 -1      2724 6.63137E-03-4.86539E-04-3.58088E-14
 -1      2725 6.42445E-03-4.78452E-04-3.31265E-14
 -1      2726 6.79315E-03-4.64344E-04-3.75993E-14
 -1      2727 6.95157E-03-4.47604E-04-3.94256E-14
 -1      2728 6.75130E-03-4.26408E-04-3.66315E-14
 -1      2729 7.10747E-03-4.35933E-04-4.12862E-14
 -1      2730 7.26107E-03-4.28241E-04-4.31803E-14
 -1      2731 7.06288E-03-3.97944E-04-4.02757E-14
 -1      2732 7.41290E-03-4.24069E-04-4.51067E-14
 -1      2733 7.56323E-03-4.22675E-04-4.70652E-14
 -1      2734 7.36417E-03-3.85989E-04-4.40539E-14
 -1      2735 7.71236E-03-4.23607E-04-4.90577E-14
 -1      2736 7.86053E-03-4.26370E-04-5.10797E-14
 -1      2737 7.65910E-03-3.85265E-04-4.79624E-14
 -1      2738 8.00788E-03-4.30572E-04-5.31332E-14
 -1      2739 8.15462E-03-4.35889E-04-5.52186E-14
 -1      2740 7.95030E-03-3.91886E-04-5.19993E-14
 -1      2741 8.30078E-03-4.42010E-04-5.73337E-14
 -1      2742 8.44654E-03-4.48724E-04-5.94775E-14
 -1      2743 8.23939E-03-4.02994E-04-5.61600E-14
 -1      2744 8.59187E-03-4.55806E-04-6.16511E-14
 -1      2745 8.73693E-03-4.63119E-04-6.38534E-14
 -1      2746 8.52729E-03-4.16538E-04-6.04420E-14
 -1      2747 8.88167E-03-4.70510E-04-6.60849E-14
 -1      2748 9.02621E-03-4.77896E-04-6.83442E-14
 -1      2749 8.81452E-03-4.31087E-04-6.48391E-14
 -1      2750 9.17051E-03-4.85181E-04-7.06333E-14
 -1      2751 9.31465E-03-4.92315E-04-7.29495E-14
 -1      2752 9.10134E-03-4.45694E-04-6.93523E-14
 -1      2753 9.45859E-03-4.99246E-04-7.52945E-14
 -1      2754 9.60242E-03-5.05948E-04-7.76665E-14
 -1      2755 9.38790E-03-4.59768E-04-7.39798E-14
 -1      2756 9.74610E-03-5.12398E-04-8.00645E-14
 -1      2757 9.88968E-03-5.18586E-04-8.24890E-14
 -1      2758 9.67428E-03-4.72980E-04-7.87164E-14
 -1      2759 1.00331E-02-5.24510E-04-8.49403E-14
 -1      2760 1.01765E-02-5.30169E-04-8.74166E-14
 -1      2761 9.96052E-03-4.85184E-04-8.35594E-14
 -1      2762 1.03198E-02-5.35573E-04-8.99189E-14
 -1      2763 1.04631E-02-5.40727E-04-9.24456E-14
 -1      2764 1.02466E-02-4.96354E-04-8.85054E-14
 -1      2765 1.06063E-02-5.45648E-04-9.49962E-14
 -1      2766 1.07494E-02-5.50344E-04-9.75698E-14
 -1      2767 1.05327E-02-5.06539E-04-9.35505E-14
 -1      2768 1.08925E-02-5.54835E-04-1.00165E-13
 -1      2769 1.10355E-02-5.59130E-04-1.02782E-13
 -1      2770 1.08186E-02-5.15831E-04-9.86879E-14
 -1      2771 1.11785E-02-5.63251E-04-1.05417E-13
 -1      2772 1.13215E-02-5.67207E-04-1.08071E-13
 -1      2773 1.11045E-02-5.24344E-04-1.03912E-13
 -1      2774 1.14644E-02-5.71018E-04-1.10743E-13
 -1      2775 1.16074E-02-5.74692E-04-1.13431E-13
 -1      2776 1.13904E-02-5.32195E-04-1.09212E-13
 -1      2777 1.17503E-02-5.78248E-04-1.16137E-13
 -1      2778 1.18932E-02-5.81694E-04-1.18855E-13
 -1      2779 1.16762E-02-5.39498E-04-1.14583E-13
 -1      2780 1.20361E-02-5.85046E-04-1.21590E-13
 -1      2781 1.21790E-02-5.88311E-04-1.24344E-13
 -1      2782 1.19620E-02-5.46356E-04-1.20017E-13
 -1      2783 1.23218E-02-5.91503E-04-1.27110E-13
 -1      2784 1.24647E-02-5.94627E-04-1.29890E-13
 -1      2785 1.22477E-02-5.52861E-04-1.25513E-13
 -1      2786 1.26076E-02-5.97694E-04-1.32687E-13
 -1      2787 1.27504E-02-6.00711E-04-1.35499E-13
 -1      2788 1.25335E-02-5.59091E-04-1.31069E-13
 -1      2789 1.28933E-02-6.03685E-04-1.38328E-13
 -1      2790 1.30361E-02-6.06622E-04-1.41170E-13
 -1      2791 1.28192E-02-5.65111E-04-1.36688E-13
 -1      2792 1.31790E-02-6.09529E-04-1.44026E-13
 -1      2793 1.33218E-02-6.12408E-04-1.46897E-13
 -1      2794 1.31049E-02-5.70976E-04-1.42364E-13
 -1      2795 1.34647E-02-6.15268E-04-1.49783E-13
 -1      2796 1.36075E-02-6.18109E-04-1.52683E-13
 -1      2797 1.33907E-02-5.76730E-04-1.48098E-13
 -1      2798 1.37504E-02-6.20938E-04-1.55594E-13
 -1      2799 1.38932E-02-6.23757E-04-1.58514E-13
 -1      2800 1.36764E-02-5.82409E-04-1.53883E-13
 -1      2801 1.40129E-02-6.26531E-04-1.60977E-13
 -1      2802 1.41558E-02-6.29340E-04-1.63921E-13
 -1      2803 1.41785E-02-5.93547E-04-1.64177E-13
 -1      2804 1.39390E-02-5.88006E-04-1.59248E-13
 -1      2805 2.42092E-03 4.71941E-04-4.37888E-15
 -1      2806 2.25990E-03 4.41935E-04-3.82553E-15
 -1      2807 3.70699E-03-7.14700E-04-1.27196E-14
 -1      2808 3.51627E-03-5.97857E-04-1.19945E-14
 -1      2809 2.10090E-03 4.15800E-04-3.31233E-15
 -1      2810 1.94402E-03 3.92512E-04-2.83797E-15
 -1      2811 2.14076E-03 3.84356E-04-3.67775E-15
 -1      2812 3.09109E-03 6.44178E-04-6.99713E-15
 -1      2813 2.92004E-03 5.92187E-04-6.28103E-15
 -1      2814 3.43848E-03 7.64128E-04-8.55675E-15
 -1      2815 3.26463E-03 7.01839E-04-7.75493E-15
 -1      2816 3.14087E-03 6.17736E-04-7.51488E-15
 -1      2817 3.78489E-03 8.93671E-04-1.02939E-14
 -1      2818 3.61265E-03 8.29408E-04-9.40296E-15
 -1      2819 3.49730E-03 7.45153E-04-9.12474E-15
 -1      2820 4.12100E-03 1.00410E-03-1.22197E-14
 -1      2821 3.95455E-03 9.53929E-04-1.12331E-14
 -1      2822 3.85260E-03 8.82627E-04-1.09141E-14
 -1      2823 4.44391E-03 1.05868E-03-1.43426E-14
 -1      2824 4.28301E-03 1.04072E-03-1.32564E-14
 -1      2825 4.19465E-03 9.94141E-04-1.28942E-14
 -1      2826 4.76366E-03 1.03424E-03-1.66702E-14
 -1      2827 4.60257E-03 1.05664E-03-1.54806E-14
 -1      2828 4.52305E-03 1.03531E-03-1.50766E-14
 -1      2829 5.09285E-03 9.39619E-04-1.91984E-14
 -1      2830 4.92592E-03 9.93435E-04-1.79097E-14
 -1      2831 4.85163E-03 9.85421E-04-1.74650E-14
 -1      2832 5.43587E-03 8.09494E-04-2.19206E-14
 -1      2833 5.26302E-03 8.76157E-04-2.05356E-14
 -1      2834 5.19442E-03 8.66064E-04-2.00570E-14
 -1      2835 5.78501E-03 6.79107E-04-2.48247E-14
 -1      2836 5.61067E-03 7.42597E-04-2.33505E-14
 -1      2837 5.55032E-03 7.24062E-04-2.28388E-14
 -1      2838 6.13048E-03 5.69063E-04-2.79031E-14
 -1      2839 5.95899E-03 6.20933E-04-2.63426E-14
 -1      2840 5.90699E-03 5.94561E-04-2.58014E-14
 -1      2841 6.46665E-03 4.85865E-04-3.11470E-14
 -1      2842 6.30013E-03 5.24171E-04-2.95046E-14
 -1      2843 6.25373E-03 4.93021E-04-2.89327E-14
 -1      2844 6.79222E-03 4.28055E-04-3.45465E-14
 -1      2845 6.63087E-03 4.54139E-04-3.28277E-14
 -1      2846 6.58655E-03 4.20507E-04-3.22254E-14
 -1      2847 7.10840E-03 3.90893E-04-3.80980E-14
 -1      2848 6.95144E-03 4.07273E-04-3.63038E-14
 -1      2849 6.90632E-03 3.72386E-04-3.56713E-14
 -1      2850 7.41719E-03 3.69172E-04-4.17945E-14
 -1      2851 7.26363E-03 3.78430E-04-3.99293E-14
 -1      2852 7.21590E-03 3.42756E-04-3.92648E-14
 -1      2853 7.72042E-03 3.58259E-04-4.56317E-14
 -1      2854 7.56940E-03 3.62622E-04-4.36962E-14
 -1      2855 7.51824E-03 3.26352E-04-4.30009E-14
 -1      2856 8.01951E-03 3.54416E-04-4.95994E-14
 -1      2857 7.87040E-03 3.55646E-04-4.75991E-14
 -1      2858 7.81566E-03 3.18910E-04-4.68753E-14
 -1      2859 8.31549E-03 3.54813E-04-5.36982E-14
 -1      2860 8.16782E-03 3.54222E-04-5.16322E-14
 -1      2861 8.10978E-03 3.17156E-04-5.08811E-14
 -1      2862 8.60910E-03 3.57415E-04-5.79200E-14
 -1      2863 8.46253E-03 3.55933E-04-5.57942E-14
 -1      2864 8.40165E-03 3.18675E-04-5.50134E-14
 -1      2865 8.90085E-03 3.60829E-04-6.22628E-14
 -1      2866 8.75516E-03 3.59083E-04-6.00760E-14
 -1      2867 8.69195E-03 3.21758E-04-5.92697E-14
 -1      2868 9.19116E-03 3.64155E-04-6.67231E-14
 -1      2869 9.04615E-03 3.62542E-04-6.44796E-14
 -1      2870 8.98112E-03 3.25251E-04-6.36459E-14
 -1      2871 9.48033E-03 3.66854E-04-7.12967E-14
 -1      2872 9.33586E-03 3.65605E-04-6.89950E-14
 -1      2873 9.26944E-03 3.28418E-04-6.81368E-14
 -1      2874 9.76860E-03 3.68641E-04-7.59806E-14
 -1      2875 9.62455E-03 3.67872E-04-7.36265E-14
 -1      2876 9.55711E-03 3.30833E-04-7.27421E-14
 -1      2877 1.00562E-02 3.69406E-04-8.07718E-14
 -1      2878 9.91245E-03 3.69155E-04-7.83627E-14
 -1      2879 9.84429E-03 3.32284E-04-7.74549E-14
 -1      2880 1.03432E-02 3.69147E-04-8.56666E-14
 -1      2881 1.01997E-02 3.69403E-04-8.32067E-14
 -1      2882 1.01311E-02 3.32705E-04-8.22734E-14
 -1      2883 1.06298E-02 3.67931E-04-9.06608E-14
 -1      2884 1.04866E-02 3.68655E-04-8.81513E-14
 -1      2885 1.04176E-02 3.32121E-04-8.71955E-14
 -1      2886 1.09162E-02 3.65859E-04-9.57487E-14
 -1      2887 1.07730E-02 3.66997E-04-9.31945E-14
 -1      2888 1.07038E-02 3.30614E-04-9.22149E-14
 -1      2889 1.12023E-02 3.63049E-04-1.00921E-13
 -1      2890 1.10592E-02 3.64540E-04-9.83250E-14
 -1      2891 1.09899E-02 3.28290E-04-9.73251E-14
 -1      2892 1.14882E-02 3.59617E-04-1.06164E-13
 -1      2893 1.13453E-02 3.61405E-04-1.03535E-13
 -1      2894 1.12759E-02 3.25268E-04-1.02518E-13
 -1      2895 1.17741E-02 3.55676E-04-1.11475E-13
 -1      2896 1.16311E-02 3.57705E-04-1.08812E-13
 -1      2897 1.15618E-02 3.21663E-04-1.07780E-13
 -1      2898 1.20598E-02 3.51326E-04-1.16848E-13
 -1      2899 1.19169E-02 3.53547E-04-1.14153E-13
 -1      2900 1.18476E-02 3.17582E-04-1.13106E-13
 -1      2901 1.23455E-02 3.46653E-04-1.22283E-13
 -1      2902 1.22027E-02 3.49026E-04-1.19558E-13
 -1      2903 1.21334E-02 3.13122E-04-1.18498E-13
 -1      2904 1.26312E-02 3.41732E-04-1.27776E-13
 -1      2905 1.24884E-02 3.44220E-04-1.25021E-13
 -1      2906 1.24191E-02 3.08364E-04-1.23950E-13
 -1      2907 1.29169E-02 3.36624E-04-1.33323E-13
 -1      2908 1.27741E-02 3.39198E-04-1.30544E-13
 -1      2909 1.27048E-02 3.03379E-04-1.29458E-13
 -1      2910 1.32026E-02 3.31380E-04-1.38919E-13
 -1      2911 1.30597E-02 3.34017E-04-1.36116E-13
 -1      2912 1.29905E-02 2.98223E-04-1.35017E-13
 -1      2913 1.34882E-02 3.26041E-04-1.44553E-13
 -1      2914 1.33454E-02 3.28720E-04-1.41731E-13
 -1      2915 1.32762E-02 2.92945E-04-1.40625E-13
 -1      2916 1.37739E-02 3.20642E-04-1.50220E-13
 -1      2917 1.36311E-02 3.23348E-04-1.47384E-13
 -1      2918 1.35619E-02 2.87584E-04-1.46269E-13
 -1      2919 1.40596E-02 3.15211E-04-1.55917E-13
 -1      2920 1.39168E-02 3.17929E-04-1.53065E-13
 -1      2921 1.38476E-02 2.82170E-04-1.51943E-13
 -1      2922 1.43142E-02 3.02352E-04-1.61070E-13
 -1      2923 1.41713E-02 3.05072E-04-1.58207E-13
 -1      2924 1.41022E-02 2.69312E-04-1.57078E-13
 -1      2925 1.43256E-02 2.49028E-04-1.61666E-13
 -1      2926 1.43385E-02-1.57964E-04-1.64693E-13
 -1      2927 1.43358E-02-1.15785E-04-1.64355E-13
 -1      2928 1.43278E-02 1.07481E-05-1.63339E-13
 -1      2929 1.43252E-02 5.29224E-05-1.63000E-13
 -1      2930 1.43440E-02-2.42323E-04-1.65358E-13
 -1      2931 1.43413E-02-2.00144E-04-1.65027E-13
 -1      2932 1.42162E-02-1.76660E-04-1.62351E-13
 -1      2933 1.43332E-02-7.36060E-05-1.64016E-13
 -1      2934 1.43305E-02-3.14284E-05-1.63676E-13
 -1      2935 1.42054E-02-7.96258E-06-1.61017E-13
 -1      2936 1.42108E-02-9.23098E-05-1.61687E-13
 -1      2937 1.78868E-03 3.71200E-04-2.40208E-15
 -1      2938 1.63472E-03 3.50994E-04-2.00568E-15
 -1      2939 1.83034E-03 3.41252E-04-2.71529E-15
 -1      2940 1.43494E-02-3.25250E-04-1.66007E-13
 -1      2941 1.43467E-02-2.83787E-04-1.65683E-13
 -1      2942 1.42216E-02-2.60295E-04-1.63001E-13
 -1      2943 1.43550E-02-4.09601E-04-1.66663E-13
 -1      2944 1.43522E-02-3.67427E-04-1.66337E-13
 -1      2945 1.42271E-02-3.43927E-04-1.63643E-13
 -1      2946 1.43607E-02-4.93943E-04-1.67306E-13
 -1      2947 1.43578E-02-4.51773E-04-1.66987E-13
 -1      2948 1.42327E-02-4.28269E-04-1.64283E-13
 -1      2949 1.43920E-02-5.56887E-04-1.68342E-13
 -1      2950 6.77702E-03-6.33321E-05-2.79448E-14
 -1      2951 6.71716E-03-7.71314E-05-2.78400E-14
 -1      2952 5.15282E-03 7.54464E-04-1.95352E-14
 -1      2953 5.31009E-03 6.60836E-04-2.04613E-14
 -1      2954 5.46004E-03-6.62958E-04-2.31364E-14
 -1      2955 5.27661E-03-7.75569E-04-2.21502E-14
 -1      2956 4.49014E-03-1.06005E-03-1.70207E-14
 -1      2957 4.34147E-03-1.03211E-03-1.60004E-14
 -1      2958 6.41606E-03 9.24576E-05-2.60756E-14
 -1      2959 6.53861E-03 5.11884E-05-2.66471E-14
 -1      2960 2.75082E-03 5.46467E-04-5.60642E-15
 -1      2961 2.58474E-03 5.06437E-04-4.97276E-15
 -1      2962 2.46097E-03 4.40118E-04-4.79646E-15
 -1      2963 2.79401E-03 5.15930E-04-6.07453E-15
 -1      2964 1.06552E-03-2.40024E-04-1.30930E-15
 -1      2965 1.21407E-03-2.61929E-04-1.65189E-15
 -1      2966 1.26048E-03-2.39023E-04-1.86450E-15
 -1      2967 7.49765E-04 7.38485E-05-7.98894E-16
 -1      2968 7.37946E-04 5.70899E-05-8.23113E-16
 -1      2969 8.41181E-04 5.64635E-05-1.05868E-15
 -1      2970 8.69489E-04 9.42693E-05-1.00091E-15
 -1      2971 1.48183E-03 3.30899E-04-1.64766E-15
 -1      2972 1.32970E-03 3.10196E-04-1.32666E-15
 -1      2973 1.22701E-03 2.64547E-04-1.24922E-15
 -1      2974 1.52655E-03 3.03544E-04-1.90627E-15
 -1      2975 4.49786E-03 9.93546E-04-1.52856E-14
 -1      2976 4.66936E-03 9.75309E-04-1.64586E-14
 -1      2977 6.98360E-04-1.45706E-04-6.86544E-16
 -1      2978 7.35474E-04-5.69576E-05-9.25204E-16
 -1      2979 7.47066E-04-7.30761E-05-9.24594E-16
 -1      2980 5.05745E-03-8.94497E-04-2.07993E-14
 -1      2981 4.90236E-03-9.69720E-04-1.97742E-14
 -1      2982 4.13197E-03 9.03060E-04-1.31964E-14
 -1      2983 4.27743E-03 9.59046E-04-1.39597E-14
 -1      2984 3.76516E-03 7.09567E-04-1.16077E-14
 -1      2985 3.95492E-03 8.18348E-04-1.23728E-14
 -1      2986 2.94715E-03 2.55774E-04-9.43707E-15
 -1      2987 3.11876E-03 3.41014E-04-9.79055E-15
 -1      2988 2.31918E-03 1.65439E-05-8.71429E-15
 -1      2989 2.41534E-03 3.90664E-05-8.89177E-15
 -1      2990 3.33821E-03 4.58561E-04-1.03281E-14
 -1      2991 3.54358E-03 5.77786E-04-1.09119E-14
 -1      2992 2.17391E-03-1.12519E-05-8.22253E-15
 -1      2993 2.22625E-03-1.70780E-06-8.36994E-15
 -1      2994 2.85672E-03-2.44411E-04-1.01589E-14
 -1      2995 2.69185E-03-1.73610E-04-9.84017E-15
 -1      2996 3.28558E-03-4.66005E-04-1.12324E-14
 -1      2997 3.08273E-03-3.56794E-04-1.06501E-14
 -1      2998 4.07780E-03-9.24749E-04-1.44800E-14
 -1      2999 3.89972E-03-8.25370E-04-1.35804E-14
 -1      3000 3.77276E-03-7.70868E-04-1.28487E-14
 -1      3001 4.84017E-03 9.20063E-04-1.76133E-14
 -1      3002 4.98690E-03 8.46880E-04-1.85607E-14
 -1      3003 5.07494E-03 8.14283E-04-1.91729E-14
 -1      3004 2.52448E-03-1.10844E-04-9.54933E-15
 -1      3005 2.38511E-03-6.95549E-05-9.29529E-15
 -1      3006 6.61303E-03-1.05496E-04-2.74227E-14
 -1      3007 6.48393E-03-1.45371E-04-2.70057E-14
 -1      3008 6.69105E-03-9.49598E-05-2.84925E-14
 -1      3009 5.86082E-03-4.30475E-04-2.49530E-14
 -1      3010 5.67414E-03-5.35806E-04-2.41377E-14
 -1      3011 7.60657E-04-9.12254E-05-9.21219E-16
 -1      3012 7.75889E-04-1.11731E-04-9.14890E-16
 -1      3013 8.65989E-04-9.30876E-05-1.16922E-15
 -1      3014 8.15509E-04-9.09066E-07-1.13628E-15
 -1      3015 7.11752E-04-6.25431E-06-9.02517E-16
 -1      3016 7.13979E-04-1.76940E-05-9.11326E-16
 -1      3017 4.39257E-03 9.90826E-04-1.45289E-14
 -1      3018 5.59111E-03-6.08265E-04-2.42103E-14
 -1      3019 6.39914E-03-1.85019E-04-2.72385E-14
 -1      3020 6.31919E-03-2.31329E-04-2.74669E-14
 -1      3021 6.50918E-03-1.61797E-04-2.83039E-14
 -1      3022 5.88823E-03 3.27267E-04-2.34844E-14
 -1      3023 6.02245E-03 2.73127E-04-2.44724E-14
 -1      3024 5.80964E-03 3.84573E-04-2.33899E-14
 -1      3025 6.22690E-03 1.83261E-04-2.56451E-14
 -1      3026 6.32175E-03 1.34733E-04-2.58609E-14
 -1      3027 6.42308E-03 1.15279E-04-2.69651E-14
 -1      3028 6.63067E-03 2.60320E-05-2.73514E-14
 -1      3029 6.71195E-03 9.37915E-06-2.80617E-14
 -1      3030 6.60252E-03 5.08727E-05-2.78965E-14
 -1      3031 3.37267E-03-5.38161E-04-1.12560E-14
 -1      3032 1.43281E-02 2.07225E-04-1.62005E-13
 -1      3033 1.42164E-02 2.17370E-04-1.59709E-13
 -1      3034 1.43307E-02 1.65418E-04-1.62342E-13
 -1      3035 8.86513E-04 2.00208E-04-7.05531E-16
 -1      3036 1.00074E-03 2.04469E-04-9.31723E-16
 -1      3037 6.82009E-03-3.03492E-05-2.77835E-14
 -1      3038 6.85898E-03-3.62500E-05-2.85957E-14
 -1      3039 6.80876E-03-2.12248E-05-2.83185E-14
 -1      3040 1.42669E-02-5.33379E-04-1.65626E-13
 -1      3041 2.29337E-03-5.28532E-05-8.72125E-15
 -1      3042 6.82728E-03-5.56384E-05-2.84862E-14
 -1      3043 5.35990E-03 6.54516E-04-2.09813E-14
 -1      3044 5.43895E-03 5.90304E-04-2.12826E-14
 -1      3045 5.56887E-03 5.22452E-04-2.21194E-14
 -1      3046 2.24428E-03 1.09183E-05-8.08808E-15
 -1      3047 5.18283E-03-8.45600E-04-2.18173E-14
 -1      3048 2.94254E-03-3.04245E-04-1.00416E-14
 -1      3049 2.15519E-03-1.74300E-05-8.09320E-15
 -1      3050 2.13117E-03-8.51559E-06-7.62906E-15
 -1      3051 2.14823E-03-2.22066E-05-7.96431E-15
 -1      3052 3.21321E-03 4.11746E-04-9.73450E-15
 -1      3053 7.18753E-04-2.96495E-05-9.17980E-16
 -1      3054 7.25945E-04-4.26379E-05-9.22846E-16
 -1      3055 8.38209E-04-5.67496E-05-1.16975E-15
 -1      3056 8.20893E-04-2.71597E-05-1.15823E-15
 -1      3057 4.78411E-03-1.01451E-03-1.90185E-14
 -1      3058 4.65017E-03-1.04854E-03-1.81077E-14
 -1      3059 2.82072E-03 2.07899E-04-9.01236E-15
 -1      3060 2.87725E-03 2.56347E-04-8.79761E-15
 -1      3061 2.70020E-03 1.70436E-04-8.59780E-15
 -1      3062 2.48274E-03 7.28721E-05-8.61537E-15
 -1      3063 1.43292E-02 8.82660E-05-1.62842E-13
 -1      3064 1.43267E-02 1.30079E-04-1.62504E-13
 -1      3065 1.42149E-02 1.40229E-04-1.60208E-13
 -1      3066 1.42068E-02 6.95505E-05-1.60525E-13
 -1      3067 3.63650E-03 6.54867E-04-1.09355E-14
 -1      3068 4.01094E-03 8.63764E-04-1.24202E-14
 -1      3069 8.02080E-04-1.40336E-04-9.14335E-16
 -1      3070 8.40996E-04-1.88372E-04-8.96771E-16
 -1      3071 9.77822E-04-2.16936E-04-1.14850E-15
 -1      3072 9.11920E-04-1.44350E-04-1.16567E-15
 -1      3073 4.86550E-03-9.98381E-04-1.97048E-14
 -1      3074 6.10938E-03-3.29384E-04-2.67108E-14
 -1      3075 5.98704E-03-3.74855E-04-2.58252E-14
 -1      3076 5.92250E-03-4.34744E-04-2.61117E-14
 -1      3077 1.02830E-03-1.98823E-04-1.32466E-15
 -1      3078 2.56954E-03-1.39001E-04-9.28820E-15
 -1      3079 4.75887E-03 9.59672E-04-1.70241E-14
 -1      3080 1.14610E-03 2.25355E-04-1.19853E-15
 -1      3081 1.06856E-03 1.89173E-04-1.14261E-15
 -1      3082 1.29252E-03 2.44366E-04-1.50243E-15
 -1      3083 1.04435E-03 1.58708E-04-1.19548E-15
 -1      3084 1.44898E-03-2.31829E-04-2.50991E-15
 -1      3085 1.59389E-03-2.46840E-04-2.97734E-15
 -1      3086 1.73993E-03-2.61891E-04-3.48521E-15
 -1      3087 1.88764E-03-2.77821E-04-4.03320E-15
 -1      3088 1.63054E-03-2.19714E-04-3.24172E-15
 -1      3089 2.03740E-03-2.95205E-04-4.62077E-15
 -1      3090 2.18992E-03-3.15323E-04-5.24842E-15
 -1      3091 1.91844E-03-2.46731E-04-4.33506E-15
 -1      3092 2.34597E-03-3.38623E-04-5.91541E-15
 -1      3093 2.50631E-03-3.67199E-04-6.62273E-15
 -1      3094 2.21553E-03-2.80201E-04-5.58529E-15
 -1      3095 2.67225E-03-4.01357E-04-7.37081E-15
 -1      3096 2.84386E-03-4.44069E-04-8.15954E-15
 -1      3097 2.52874E-03-3.28343E-04-6.99287E-15
 -1      3098 3.02326E-03-4.95155E-04-8.98936E-15
 -1      3099 3.20819E-03-5.58586E-04-9.86178E-15
 -1      3100 2.86765E-03-4.03828E-04-8.56014E-15
 -1      3101 3.84216E-03-8.41760E-04-1.29866E-14
 -1      3102 4.03233E-03-9.28325E-04-1.40589E-14
 -1      3103 5.66046E-03-6.56517E-04-2.57127E-14
 -1      3104 5.85121E-03-5.84240E-04-2.72764E-14
 -1      3105 6.03782E-03-5.24904E-04-2.88795E-14
 -1      3106 6.21633E-03-4.76179E-04-3.05227E-14
 -1      3107 6.00441E-03-4.84873E-04-2.79991E-14
 -1      3108 6.38892E-03-4.38720E-04-3.22018E-14
 -1      3109 6.55455E-03-4.08941E-04-3.39167E-14
 -1      3110 6.35983E-03-3.95819E-04-3.12807E-14
 -1      3111 6.71499E-03-3.87021E-04-3.56679E-14
 -1      3112 6.87076E-03-3.70672E-04-3.74514E-14
 -1      3113 6.68455E-03-3.45733E-04-3.47064E-14
 -1      3114 7.02289E-03-3.59605E-04-3.92686E-14
 -1      3115 7.17219E-03-3.52228E-04-4.11210E-14
 -1      3116 6.98769E-03-3.20515E-04-3.82684E-14
 -1      3117 7.31927E-03-3.48296E-04-4.30069E-14
 -1      3118 7.46478E-03-3.46898E-04-4.49237E-14
 -1      3119 7.27825E-03-3.10773E-04-4.19640E-14
 -1      3120 7.60906E-03-3.47733E-04-4.68737E-14
 -1      3121 7.75256E-03-3.50263E-04-4.88559E-14
 -1      3122 7.56219E-03-3.10908E-04-4.57904E-14
 -1      3123 7.89544E-03-3.54188E-04-5.08709E-14
 -1      3124 8.03799E-03-3.59185E-04-5.29154E-14
 -1      3125 7.84319E-03-3.17451E-04-4.97467E-14
 -1      3126 8.18027E-03-3.64988E-04-5.49929E-14
 -1      3127 8.32248E-03-3.71400E-04-5.71004E-14
 -1      3128 8.12334E-03-3.28008E-04-5.38305E-14
 -1      3129 8.46460E-03-3.78206E-04-5.92366E-14
 -1      3130 8.60676E-03-3.85287E-04-6.14036E-14
 -1      3131 8.40372E-03-3.40853E-04-5.80376E-14
 -1      3132 8.74891E-03-3.92481E-04-6.35993E-14
 -1      3133 8.89116E-03-3.99720E-04-6.58239E-14
 -1      3134 8.68481E-03-3.54749E-04-6.23648E-14
 -1      3135 9.03343E-03-4.06891E-04-6.80763E-14
 -1      3136 9.17580E-03-4.13956E-04-7.03576E-14
 -1      3137 8.96674E-03-3.68833E-04-6.68051E-14
 -1      3138 9.31821E-03-4.20844E-04-7.26679E-14
 -1      3139 9.46071E-03-4.27538E-04-7.50064E-14
 -1      3140 9.24950E-03-3.82534E-04-7.13625E-14
 -1      3141 9.60324E-03-4.34000E-04-7.73710E-14
 -1      3142 9.74585E-03-4.40224E-04-7.97639E-14
 -1      3143 9.53298E-03-3.95512E-04-7.60308E-14
 -1      3144 9.88849E-03-4.46195E-04-8.21828E-14
 -1      3145 1.00312E-02-4.51917E-04-8.46279E-14
 -1      3146 9.81706E-03-4.07592E-04-8.08105E-14
 -1      3147 1.01739E-02-4.57388E-04-8.70962E-14
 -1      3148 1.03167E-02-4.62619E-04-8.95895E-14
 -1      3149 1.01016E-02-4.18719E-04-8.56935E-14
 -1      3150 1.04594E-02-4.67616E-04-9.21095E-14
 -1      3151 1.06022E-02-4.72393E-04-9.46507E-14
 -1      3152 1.03865E-02-4.28917E-04-9.06745E-14
 -1      3153 1.07451E-02-4.76962E-04-9.72144E-14
 -1      3154 1.08879E-02-4.81336E-04-9.98023E-14
 -1      3155 1.06717E-02-4.38256E-04-9.57480E-14
 -1      3156 1.10307E-02-4.85530E-04-1.02411E-13
 -1      3157 1.11736E-02-4.89558E-04-1.05038E-13
 -1      3158 1.09571E-02-4.46835E-04-1.00914E-13
 -1      3159 1.13164E-02-4.93436E-04-1.07685E-13
 -1      3160 1.14593E-02-4.97174E-04-1.10350E-13
 -1      3161 1.12426E-02-4.54760E-04-1.06162E-13
 -1      3162 1.16022E-02-5.00789E-04-1.13033E-13
 -1      3163 1.17451E-02-5.04289E-04-1.15732E-13
 -1      3164 1.15283E-02-4.62136E-04-1.11487E-13
 -1      3165 1.18879E-02-5.07691E-04-1.18446E-13
 -1      3166 1.20308E-02-5.11001E-04-1.21176E-13
 -1      3167 1.18139E-02-4.69062E-04-1.16878E-13
 -1      3168 1.21737E-02-5.14233E-04-1.23920E-13
 -1      3169 1.23166E-02-5.17394E-04-1.26681E-13
 -1      3170 1.20997E-02-4.75628E-04-1.22332E-13
 -1      3171 1.24594E-02-5.20494E-04-1.29457E-13
 -1      3172 1.26023E-02-5.23540E-04-1.32247E-13
 -1      3173 1.23854E-02-4.81911E-04-1.27848E-13
 -1      3174 1.27452E-02-5.26539E-04-1.35052E-13
 -1      3175 1.28881E-02-5.29498E-04-1.37874E-13
 -1      3176 1.26712E-02-4.87974E-04-1.33422E-13
 -1      3177 1.30309E-02-5.32423E-04-1.40708E-13
 -1      3178 1.31738E-02-5.35319E-04-1.43555E-13
 -1      3179 1.29569E-02-4.93873E-04-1.39055E-13
 -1      3180 1.33167E-02-5.38191E-04-1.46417E-13
 -1      3181 1.34595E-02-5.41042E-04-1.49292E-13
 -1      3182 1.32427E-02-4.99652E-04-1.44743E-13
 -1      3183 1.36024E-02-5.43878E-04-1.52183E-13
 -1      3184 1.37453E-02-5.46701E-04-1.55082E-13
 -1      3185 1.35284E-02-5.05347E-04-1.50487E-13
 -1      3186 5.05421E-03 8.50571E-04-1.90821E-14
 -1      3187 5.20015E-03 7.66138E-04-2.00782E-14
 -1      3188 1.40992E-02-2.78619E-04-1.60649E-13
 -1      3189 1.40965E-02-2.37164E-04-1.60335E-13
 -1      3190 3.55654E-03 7.25145E-04-9.69643E-15
 -1      3191 3.37234E-03 6.53505E-04-8.84519E-15
 -1      3192 3.18864E-03 5.88474E-04-8.03753E-15
 -1      3193 3.00971E-03 5.31219E-04-7.27272E-15
 -1      3194 3.23418E-03 5.57853E-04-8.56559E-15
 -1      3195 4.27401E-03 9.85873E-04-1.36060E-14
 -1      3196 4.10076E-03 9.37770E-04-1.25621E-14
 -1      3197 4.64436E-03 1.00964E-03-1.60708E-14
 -1      3198 4.47726E-03 1.01766E-03-1.49117E-14
 -1      3199 5.27528E-03 7.99660E-04-2.06999E-14
 -1      3200 5.09487E-03 8.73895E-04-1.93557E-14
 -1      3201 5.67424E-03 6.31499E-04-2.37663E-14
 -1      3202 5.49010E-03 7.04707E-04-2.23219E-14
 -1      3203 6.03613E-03 5.08005E-04-2.67851E-14
 -1      3204 5.85753E-03 5.65757E-04-2.52539E-14
 -1      3205 5.81069E-03 5.35577E-04-2.47029E-14
 -1      3206 6.38079E-03 4.18283E-04-2.99701E-14
 -1      3207 6.21113E-03 4.59284E-04-2.83578E-14
 -1      3208 6.17232E-03 4.23122E-04-2.77782E-14
 -1      3209 6.70748E-03 3.57971E-04-3.33109E-14
 -1      3210 6.54634E-03 3.85092E-04-3.16222E-14
 -1      3211 6.51037E-03 3.47532E-04-3.10153E-14
 -1      3212 7.01975E-03 3.19819E-04-3.68017E-14
 -1      3213 6.86520E-03 3.36689E-04-3.50381E-14
 -1      3214 6.82814E-03 2.99787E-04-3.44033E-14
 -1      3215 7.32192E-03 2.97419E-04-4.04358E-14
 -1      3216 7.17186E-03 3.07056E-04-3.86011E-14
 -1      3217 7.13152E-03 2.71053E-04-3.79369E-14
 -1      3218 7.61761E-03 2.85839E-04-4.42118E-14
 -1      3219 7.47039E-03 2.90560E-04-4.23059E-14
 -1      3220 7.42580E-03 2.55092E-04-4.16111E-14
 -1      3221 7.90934E-03 2.81372E-04-4.81220E-14
 -1      3222 7.76383E-03 2.82913E-04-4.61501E-14
 -1      3223 7.71484E-03 2.47592E-04-4.54241E-14
 -1      3224 8.19874E-03 2.81277E-04-5.21636E-14
 -1      3225 8.05424E-03 2.80915E-04-5.01268E-14
 -1      3226 8.00112E-03 2.45494E-04-4.93721E-14
 -1      3227 8.48679E-03 2.83568E-04-5.63330E-14
 -1      3228 8.34287E-03 2.82217E-04-5.42333E-14
 -1      3229 8.28614E-03 2.46591E-04-5.34515E-14
 -1      3230 8.77406E-03 2.86857E-04-6.06217E-14
 -1      3231 8.63048E-03 2.85149E-04-5.84623E-14
 -1      3232 8.57072E-03 2.49308E-04-5.76543E-14
 -1      3233 9.06086E-03 2.90214E-04-6.50316E-14
 -1      3234 8.91749E-03 2.88565E-04-6.28115E-14
 -1      3235 8.85526E-03 2.52547E-04-6.19772E-14
 -1      3236 9.34738E-03 2.93062E-04-6.95533E-14
 -1      3237 9.20413E-03 2.91724E-04-6.72789E-14
 -1      3238 9.13995E-03 2.55586E-04-6.64185E-14
 -1      3239 9.63370E-03 2.95072E-04-7.41897E-14
 -1      3240 9.49054E-03 2.94182E-04-7.18575E-14
 -1      3241 9.42486E-03 2.57980E-04-7.09740E-14
 -1      3242 9.91988E-03 2.96098E-04-7.89300E-14
 -1      3243 9.77679E-03 2.95711E-04-7.65465E-14
 -1      3244 9.70998E-03 2.59490E-04-7.56392E-14
 -1      3245 1.02060E-02 2.96111E-04-8.37784E-14
 -1      3246 1.00629E-02 2.96229E-04-8.13412E-14
 -1      3247 9.99528E-03 2.60023E-04-8.04084E-14
 -1      3248 1.04919E-02 2.95158E-04-8.87260E-14
 -1      3249 1.03490E-02 2.95751E-04-8.62402E-14
 -1      3250 1.02807E-02 2.59582E-04-8.52837E-14
 -1      3251 1.07779E-02 2.93328E-04-9.37697E-14
 -1      3252 1.06349E-02 2.94347E-04-9.12357E-14
 -1      3253 1.05663E-02 2.58227E-04-9.02580E-14
 -1      3254 1.10638E-02 2.90732E-04-9.89023E-14
 -1      3255 1.09208E-02 2.92120E-04-9.63251E-14
 -1      3256 1.08519E-02 2.56053E-04-9.53245E-14
 -1      3257 1.13496E-02 2.87485E-04-1.04113E-13
 -1      3258 1.12067E-02 2.89184E-04-1.01499E-13
 -1      3259 1.11376E-02 2.53171E-04-1.00479E-13
 -1      3260 1.16354E-02 2.83698E-04-1.09394E-13
 -1      3261 1.14925E-02 2.85653E-04-1.06746E-13
 -1      3262 1.14233E-02 2.49692E-04-1.05711E-13
 -1      3263 1.19212E-02 2.79474E-04-1.14738E-13
 -1      3264 1.17783E-02 2.81636E-04-1.12058E-13
 -1      3265 1.17090E-02 2.45720E-04-1.11009E-13
 -1      3266 1.22069E-02 2.74902E-04-1.20148E-13
 -1      3267 1.20641E-02 2.77227E-04-1.17435E-13
 -1      3268 1.19948E-02 2.41351E-04-1.16372E-13
 -1      3269 1.24927E-02 2.70060E-04-1.25618E-13
 -1      3270 1.23498E-02 2.72511E-04-1.22877E-13
 -1      3271 1.22805E-02 2.36668E-04-1.21800E-13
 -1      3272 1.27784E-02 2.65012E-04-1.31141E-13
 -1      3273 1.26355E-02 2.67558E-04-1.28372E-13
 -1      3274 1.25663E-02 2.31742E-04-1.27287E-13
 -1      3275 1.30641E-02 2.59811E-04-1.36714E-13
 -1      3276 1.29213E-02 2.62428E-04-1.33922E-13
 -1      3277 1.28520E-02 2.26632E-04-1.32824E-13
 -1      3278 1.33499E-02 2.54501E-04-1.42331E-13
 -1      3279 1.32070E-02 2.57167E-04-1.39518E-13
 -1      3280 1.31378E-02 2.21387E-04-1.38412E-13
 -1      3281 1.36356E-02 2.49117E-04-1.47983E-13
 -1      3282 1.34927E-02 2.51816E-04-1.45150E-13
 -1      3283 1.34235E-02 2.16047E-04-1.44038E-13
 -1      3284 1.39213E-02 2.43690E-04-1.53665E-13
 -1      3285 1.37784E-02 2.46408E-04-1.50822E-13
 -1      3286 1.37093E-02 2.10644E-04-1.49696E-13
 -1      3287 1.41247E-02 2.25460E-04-1.57828E-13
 -1      3288 1.40130E-02 2.35603E-04-1.55540E-13
 -1      3289 1.39439E-02 1.99840E-04-1.54412E-13
 -1      3290 1.41273E-02 1.83659E-04-1.58165E-13
 -1      3291 1.86956E-03 3.10720E-04-3.03776E-15
 -1      3292 1.71870E-03 2.93013E-04-2.58749E-15
 -1      3293 6.75981E-03-9.16591E-05-2.95869E-14
 -1      3294 6.66262E-03-1.16970E-04-2.91585E-14
 -1      3295 9.32190E-04 3.65698E-05-1.35289E-15
 -1      3296 9.24420E-04 2.08518E-05-1.37604E-15
 -1      3297 3.43064E-03 5.78855E-04-9.83591E-15
 -1      3298 3.62719E-03 6.95227E-04-1.04823E-14
 -1      3299 1.40937E-02-1.94993E-04-1.60011E-13
 -1      3300 1.40910E-02-1.52823E-04-1.59686E-13
 -1      3301 1.39713E-02-2.13322E-04-1.57673E-13
 -1      3302 1.41104E-02-4.46933E-04-1.61909E-13
 -1      3303 1.41075E-02-4.04767E-04-1.61598E-13
 -1      3304 4.22053E-03-9.92145E-04-1.52568E-14
 -1      3305 4.09548E-03-9.49084E-04-1.44644E-14
 -1      3306 2.32430E-03-7.07104E-05-8.44406E-15
 -1      3307 2.21799E-03-4.47154E-05-8.16713E-15
 -1      3308 3.66951E-03-7.45381E-04-1.21485E-14
 -1      3309 3.94409E-03 8.66743E-04-1.17646E-14
 -1      3310 3.47322E-03-6.56991E-04-1.11676E-14
 -1      3311 3.30991E-03-5.46282E-04-1.06687E-14
 -1      3312 3.10664E-03-4.35895E-04-9.96284E-15
 -1      3313 4.59904E-03-1.06604E-03-1.78278E-14
 -1      3314 1.41048E-02-3.62779E-04-1.61284E-13
 -1      3315 1.41020E-02-3.20610E-04-1.60966E-13
 -1      3316 1.39769E-02-2.97475E-04-1.58304E-13
 -1      3317 1.39824E-02-3.81446E-04-1.58925E-13
 -1      3318 3.75949E-03 7.90733E-04-1.08119E-14
 -1      3319 6.87977E-03-4.79136E-05-2.93493E-14
 -1      3320 6.85910E-03-6.12860E-05-2.97849E-14
 -1      3321 2.17766E-03 3.51609E-04-4.05154E-15
 -1      3322 2.02242E-03 3.29877E-04-3.52549E-15
 -1      3323 1.90607E-03 2.79379E-04-3.36925E-15
 -1      3324 2.59596E-03-1.67245E-04-8.94877E-15
 -1      3325 2.45192E-03-1.12926E-04-8.67963E-15
 -1      3326 4.79583E-03 9.66304E-04-1.72202E-14
 -1      3327 2.95425E-03-3.40270E-04-9.68103E-15
 -1      3328 2.75851E-03-2.42505E-04-9.22428E-15
 -1      3329 2.61776E-03-2.05394E-04-8.61202E-15
 -1      3330 2.91349E-03-3.67133E-04-9.14037E-15
 -1      3331 5.80014E-03-5.18922E-04-2.58266E-14
 -1      3332 5.60853E-03-6.31116E-04-2.47854E-14
 -1      3333 2.18480E-03 1.60879E-05-7.48648E-15
 -1      3334 2.28510E-03 3.39263E-05-7.81258E-15
 -1      3335 2.39944E-03 6.79585E-05-7.99293E-15
 -1      3336 2.53480E-03 1.14197E-04-8.17255E-15
 -1      3337 2.31691E-03 6.80902E-05-7.39214E-15
 -1      3338 1.16203E-03-1.99593E-04-1.69632E-15
 -1      3339 1.30515E-03-2.16258E-04-2.08329E-15
 -1      3340 1.34775E-03-1.93446E-04-2.30705E-15
 -1      3341 9.93628E-04-1.62207E-04-1.33143E-15
 -1      3342 1.07708E-03-1.80690E-04-1.50830E-15
 -1      3343 9.61910E-04-1.29860E-04-1.33094E-15
 -1      3344 1.41601E-02-5.51711E-04-1.63552E-13
 -1      3345 1.41287E-02-4.88774E-04-1.62534E-13
 -1      3346 1.40036E-02-4.65269E-04-1.59852E-13
 -1      3347 1.40403E-02-5.48944E-04-1.61090E-13
 -1      3348 9.20161E-04 6.06975E-06-1.39576E-15
 -1      3349 9.19626E-04-8.36098E-06-1.41219E-15
 -1      3350 1.02604E-03 1.44294E-05-1.67992E-15
 -1      3351 1.12413E-03-1.62226E-04-1.69918E-15
 -1      3352 6.60160E-03-1.49552E-04-2.93945E-14
 -1      3353 5.70902E-03 4.54327E-04-2.30745E-14
 -1      3354 5.84721E-03 3.95549E-04-2.40497E-14
 -1      3355 5.62264E-03 5.23388E-04-2.27583E-14
 -1      3356 6.14829E-03 2.34569E-04-2.55450E-14
 -1      3357 9.57348E-04 7.23302E-05-1.29638E-15
 -1      3358 9.43306E-04 5.35452E-05-1.32679E-15
 -1      3359 1.04426E-03 4.88494E-05-1.62618E-15
 -1      3360 1.19526E-03 1.71733E-04-1.54255E-15
 -1      3361 1.03336E-03 1.29044E-04-1.27956E-15
 -1      3362 6.55551E-03 8.86688E-05-2.83137E-14
 -1      3363 6.64808E-03 6.43207E-05-2.90357E-14
 -1      3364 5.45571E-03-7.41062E-04-2.41055E-14
 -1      3365 5.31874E-03 7.06781E-04-2.08878E-14
 -1      3366 4.87925E-03-1.00275E-03-1.98851E-14
 -1      3367 5.06365E-03-9.32154E-04-2.12640E-14
 -1      3368 5.26015E-03-8.30530E-04-2.26323E-14
 -1      3369 4.97205E-03 9.08798E-04-1.84814E-14
 -1      3370 1.39206E-02-5.46174E-04-1.58634E-13
 -1      3371 5.39973E-03 7.06915E-04-2.15719E-14
 -1      3372 9.24802E-04-8.50342E-05-1.34068E-15
 -1      3373 9.42208E-04-1.06204E-04-1.33743E-15
 -1      3374 1.01999E-03-1.20022E-04-1.51735E-15
 -1      3375 2.87103E-03 4.46004E-04-7.02903E-15
 -1      3376 2.83414E-03 4.82438E-04-6.54868E-15
 -1      3377 2.66395E-03 4.40768E-04-5.86510E-15
 -1      3378 1.38466E-02-5.07645E-04-1.56915E-13
 -1      3379 2.34326E-03-9.43890E-05-8.12299E-15
 -1      3380 6.85296E-03-7.55972E-05-3.04640E-14
 -1      3381 6.84438E-03-9.34961E-05-3.11470E-14
 -1      3382 6.92841E-03-6.60871E-05-3.13479E-14
 -1      3383 1.40830E-02-2.66696E-05-1.58698E-13
 -1      3384 1.40804E-02 1.54987E-05-1.58365E-13
 -1      3385 1.40883E-02-1.10831E-04-1.59360E-13
 -1      3386 1.40857E-02-6.86607E-05-1.59029E-13
 -1      3387 1.39606E-02-4.51952E-05-1.56383E-13
 -1      3388 1.39659E-02-1.29169E-04-1.57032E-13
 -1      3389 6.79468E-03-7.82010E-06-2.88790E-14
 -1      3390 6.86259E-03-1.82872E-05-2.97033E-14
 -1      3391 6.78035E-03 1.02396E-05-2.94380E-14
 -1      3392 6.37202E-03-2.50933E-04-2.88351E-14
 -1      3393 6.24433E-03-2.84235E-04-2.77644E-14
 -1      3394 6.18238E-03-3.40614E-04-2.80572E-14
 -1      3395 2.14354E-03-4.39840E-05-7.44113E-15
 -1      3396 2.14151E-03-3.15170E-05-7.70235E-15
 -1      3397 2.08450E-03-2.28664E-05-7.25030E-15
 -1      3398 6.48150E-03 1.24888E-04-2.80843E-14
 -1      3399 4.77393E-03-1.04019E-03-1.91236E-14
 -1      3400 9.09845E-04-6.61433E-05-1.33986E-15
 -1      3401 9.82716E-04-7.61818E-05-1.52142E-15
 -1      3402 8.97749E-04-4.91106E-05-1.33571E-15
 -1      3403 3.23249E-03 4.59113E-04-9.36394E-15
 -1      3404 3.24380E-03 5.17001E-04-8.94460E-15
 -1      3405 3.05581E-03 4.53343E-04-8.14041E-15
 -1      3406 3.03674E-03 3.56631E-04-8.86167E-15
 -1      3407 1.01276E-03 1.04246E-04-1.32140E-15
 -1      3408 1.57873E-03 2.77573E-04-2.19821E-15
 -1      3409 1.43050E-03 2.60542E-04-1.82242E-15
 -1      3410 1.34663E-03 2.21944E-04-1.75328E-15
 -1      3411 1.61922E-03 2.49638E-04-2.48028E-15
 -1      3412 2.58865E-03 1.54995E-04-7.97048E-15
 -1      3413 2.91185E-03 3.08962E-04-8.45018E-15
 -1      3414 1.40844E-02 5.08380E-05-1.58208E-13
 -1      3415 1.40885E-02 8.61760E-05-1.58054E-13
 -1      3416 1.39620E-02 3.21273E-05-1.55900E-13
 -1      3417 6.90472E-03-4.18914E-05-2.98970E-14
 -1      3418 5.92370E-03-4.68401E-04-2.67098E-14
 -1      3419 2.49777E-03 4.06098E-04-5.22144E-15
 -1      3420 2.33604E-03 3.76502E-04-4.61660E-15
 -1      3421 2.21136E-03 3.17241E-04-4.43467E-15
 -1      3422 2.53110E-03 3.69518E-04-5.65357E-15
 -1      3423 2.10636E-03 3.18846E-06-7.13745E-15
 -1      3424 2.11968E-03 2.07069E-05-6.87953E-15
 -1      3425 2.07404E-03-3.79845E-06-7.01742E-15
 -1      3426 1.52607E-03-1.81915E-04-3.00310E-15
 -1      3427 1.66461E-03-1.92702E-04-3.50982E-15
 -1      3428 1.32662E-03 1.84197E-04-1.86865E-15
 -1      3429 6.71837E-03 7.21937E-05-3.02881E-14
 -1      3430 6.74776E-03 3.83135E-05-2.98642E-14
 -1      3431 6.83642E-03 1.96595E-05-3.07025E-14
 -1      3432 1.80409E-03-2.03575E-04-4.05513E-15
 -1      3433 1.94533E-03-2.15365E-04-4.63930E-15
 -1      3434 1.69594E-03-1.65644E-04-3.78144E-15
 -1      3435 2.08856E-03-2.28363E-04-5.26169E-15
 -1      3436 2.23517E-03-2.44110E-04-5.92281E-15
 -1      3437 1.96797E-03-1.83501E-04-4.94511E-15
 -1      3438 2.38569E-03-2.62664E-04-6.62266E-15
 -1      3439 2.54211E-03-2.87212E-04-7.36202E-15
 -1      3440 2.24812E-03-2.06365E-04-6.26120E-15
 -1      3441 2.73923E-03-3.22598E-04-8.31404E-15
 -1      3442 6.34318E-03 1.94790E-04-2.75161E-14
 -1      3443 6.48857E-03 1.63106E-04-2.88717E-14
 -1      3444 6.24397E-03-3.68521E-04-2.93798E-14
 -1      3445 6.41213E-03-3.34726E-04-3.10352E-14
 -1      3446 6.66241E-03-3.02994E-04-3.37491E-14
 -1      3447 6.81256E-03-2.89645E-04-3.54942E-14
 -1      3448 6.95822E-03-2.81263E-04-3.72723E-14
 -1      3449 7.10097E-03-2.76035E-04-3.90820E-14
 -1      3450 6.93495E-03-2.41377E-04-3.62786E-14
 -1      3451 7.24128E-03-2.73789E-04-4.09265E-14
 -1      3452 7.38032E-03-2.73499E-04-4.28039E-14
 -1      3453 7.20849E-03-2.37151E-04-3.98945E-14
 -1      3454 7.51830E-03-2.75025E-04-4.47132E-14
 -1      3455 7.65592E-03-2.77871E-04-4.66544E-14
 -1      3456 7.47735E-03-2.40013E-04-4.36400E-14
 -1      3457 7.79325E-03-2.81844E-04-4.86294E-14
 -1      3458 7.93070E-03-2.86686E-04-5.06354E-14
 -1      3459 7.74548E-03-2.47347E-04-4.75167E-14
 -1      3460 8.06826E-03-2.92192E-04-5.26732E-14
 -1      3461 8.20617E-03-2.98229E-04-5.47430E-14
 -1      3462 8.01487E-03-2.57555E-04-5.15215E-14
 -1      3463 8.34437E-03-3.04607E-04-5.68433E-14
 -1      3464 8.48299E-03-3.11254E-04-5.89731E-14
 -1      3465 8.28638E-03-2.69498E-04-5.56535E-14
 -1      3466 8.62196E-03-3.18013E-04-6.11317E-14
 -1      3467 8.76136E-03-3.24846E-04-6.33219E-14
 -1      3468 8.56024E-03-2.82312E-04-5.99065E-14
 -1      3469 8.90109E-03-3.31635E-04-6.55406E-14
 -1      3470 9.04122E-03-3.38363E-04-6.77855E-14
 -1      3471 8.83638E-03-2.95343E-04-6.42778E-14
 -1      3472 9.18164E-03-3.44945E-04-7.00609E-14
 -1      3473 9.32240E-03-3.51380E-04-7.23650E-14
 -1      3474 9.11456E-03-3.08124E-04-6.87644E-14
 -1      3475 9.46341E-03-3.57612E-04-7.46964E-14
 -1      3476 9.60469E-03-3.63648E-04-7.70570E-14
 -1      3477 9.39447E-03-3.20347E-04-7.33667E-14
 -1      3478 9.74618E-03-3.69458E-04-7.94432E-14
 -1      3479 9.88789E-03-3.75052E-04-8.18573E-14
 -1      3480 9.67582E-03-3.31837E-04-7.80809E-14
 -1      3481 1.00298E-02-3.80416E-04-8.42954E-14
 -1      3482 1.01718E-02-3.85566E-04-8.67573E-14
 -1      3483 9.95831E-03-3.42520E-04-8.29015E-14
 -1      3484 1.03140E-02-3.90498E-04-8.92439E-14
 -1      3485 1.04563E-02-3.95229E-04-9.17549E-14
 -1      3486 1.02417E-02-3.52396E-04-8.78197E-14
 -1      3487 1.05986E-02-3.99762E-04-9.42884E-14
 -1      3488 1.07411E-02-4.04115E-04-9.68444E-14
 -1      3489 1.05258E-02-3.61510E-04-9.28324E-14
 -1      3490 1.08837E-02-4.08296E-04-9.94238E-14
 -1      3491 1.10263E-02-4.12319E-04-1.02023E-13
 -1      3492 1.08104E-02-3.69937E-04-9.79379E-14
 -1      3493 1.11690E-02-4.16196E-04-1.04645E-13
 -1      3494 1.13117E-02-4.19939E-04-1.07285E-13
 -1      3495 1.10954E-02-3.77764E-04-1.03132E-13
 -1      3496 1.14544E-02-4.23562E-04-1.09943E-13
 -1      3497 1.15972E-02-4.27074E-04-1.12620E-13
 -1      3498 1.13807E-02-3.85082E-04-1.08406E-13
 -1      3499 1.17400E-02-4.30488E-04-1.15314E-13
 -1      3500 1.18828E-02-4.33812E-04-1.18023E-13
 -1      3501 1.16662E-02-3.91979E-04-1.13753E-13
 -1      3502 1.20257E-02-4.37059E-04-1.20746E-13
 -1      3503 1.21685E-02-4.40234E-04-1.23486E-13
 -1      3504 1.19518E-02-3.98534E-04-1.19164E-13
 -1      3505 1.23114E-02-4.43349E-04-1.26241E-13
 -1      3506 1.24543E-02-4.46408E-04-1.29013E-13
 -1      3507 1.22375E-02-4.04816E-04-1.24639E-13
 -1      3508 1.25972E-02-4.49421E-04-1.31797E-13
 -1      3509 1.27401E-02-4.52393E-04-1.34595E-13
 -1      3510 1.25232E-02-4.10887E-04-1.30176E-13
 -1      3511 1.28829E-02-4.55329E-04-1.37410E-13
 -1      3512 1.30258E-02-4.58235E-04-1.40237E-13
 -1      3513 1.28090E-02-4.16795E-04-1.35767E-13
 -1      3514 1.31687E-02-4.61115E-04-1.43075E-13
 -1      3515 1.33116E-02-4.63974E-04-1.45928E-13
 -1      3516 1.30947E-02-4.22584E-04-1.41414E-13
 -1      3517 1.34545E-02-4.66815E-04-1.48795E-13
 -1      3518 1.35974E-02-4.69642E-04-1.51676E-13
 -1      3519 1.33805E-02-4.28286E-04-1.47112E-13
 -1      3520 1.07674E-03-1.09288E-04-1.71406E-15
 -1      3521 1.09926E-03-1.34420E-04-1.70874E-15
 -1      3522 1.18017E-03-1.49460E-04-1.91146E-15
 -1      3523 5.87396E-03 4.65285E-04-2.49648E-14
 -1      3524 5.68322E-03 5.36837E-04-2.34803E-14
 -1      3525 6.94754E-03 2.46274E-04-3.54995E-14
 -1      3526 6.79647E-03 2.61761E-04-3.37653E-14
 -1      3527 7.24088E-03 2.26184E-04-3.90754E-14
 -1      3528 7.09538E-03 2.34870E-04-3.72706E-14
 -1      3529 7.06364E-03 1.98195E-04-3.66032E-14
 -1      3530 7.52700E-03 2.15759E-04-4.27902E-14
 -1      3531 7.38453E-03 2.20063E-04-4.09157E-14
 -1      3532 7.34663E-03 1.85309E-04-4.02201E-14
 -1      3533 7.80957E-03 2.11550E-04-4.66414E-14
 -1      3534 7.66853E-03 2.13058E-04-4.46990E-14
 -1      3535 7.62485E-03 1.79245E-04-4.39730E-14
 -1      3536 8.09078E-03 2.11203E-04-5.06266E-14
 -1      3537 7.95022E-03 2.11011E-04-4.86177E-14
 -1      3538 7.90143E-03 1.77452E-04-4.78622E-14
 -1      3539 8.37182E-03 2.13031E-04-5.47417E-14
 -1      3540 8.23125E-03 2.11922E-04-5.26674E-14
 -1      3541 8.17808E-03 1.78228E-04-5.18849E-14
 -1      3542 8.65330E-03 2.15834E-04-5.89789E-14
 -1      3543 8.51247E-03 2.14361E-04-5.68461E-14
 -1      3544 8.45565E-03 1.80347E-04-5.60355E-14
 -1      3545 8.93546E-03 2.18780E-04-6.33361E-14
 -1      3546 8.79427E-03 2.17321E-04-6.11419E-14
 -1      3547 8.73446E-03 1.82933E-04-6.03070E-14
 -1      3548 9.21832E-03 2.21323E-04-6.78087E-14
 -1      3549 9.07679E-03 2.20120E-04-6.55580E-14
 -1      3550 9.01458E-03 1.85378E-04-6.46967E-14
 -1      3551 9.50184E-03 2.23138E-04-7.23954E-14
 -1      3552 9.35999E-03 2.22330E-04-7.00896E-14
 -1      3553 9.29590E-03 1.87285E-04-6.92024E-14
 -1      3554 9.78593E-03 2.24059E-04-7.70900E-14
 -1      3555 9.64381E-03 2.23712E-04-7.47299E-14
 -1      3556 9.57826E-03 1.88425E-04-7.38200E-14
 -1      3557 1.00705E-02 2.24037E-04-8.18904E-14
 -1      3558 9.92814E-03 2.24164E-04-7.94763E-14
 -1      3559 9.86149E-03 1.88694E-04-7.85452E-14
 -1      3560 1.03554E-02 2.23098E-04-8.67919E-14
 -1      3561 1.02129E-02 2.23677E-04-8.43286E-14
 -1      3562 1.01454E-02 1.88077E-04-8.33733E-14
 -1      3563 1.06405E-02 2.21313E-04-9.17910E-14
 -1      3564 1.04979E-02 2.22305E-04-8.92803E-14
 -1      3565 1.04299E-02 1.86614E-04-8.83025E-14
 -1      3566 1.09259E-02 2.18778E-04-9.68826E-14
 -1      3567 1.07832E-02 2.20133E-04-9.43253E-14
 -1      3568 1.07147E-02 1.84384E-04-9.33267E-14
 -1      3569 1.12114E-02 2.15600E-04-1.02057E-13
 -1      3570 1.10687E-02 2.17263E-04-9.94601E-14
 -1      3571 1.09999E-02 1.81481E-04-9.84408E-14
 -1      3572 1.14970E-02 2.11882E-04-1.07309E-13
 -1      3573 1.13542E-02 2.13802E-04-1.04673E-13
 -1      3574 1.12852E-02 1.78003E-04-1.03637E-13
 -1      3575 1.17827E-02 2.07722E-04-1.12626E-13
 -1      3576 1.16399E-02 2.09852E-04-1.09959E-13
 -1      3577 1.15708E-02 1.74046E-04-1.08908E-13
 -1      3578 1.20684E-02 2.03208E-04-1.18009E-13
 -1      3579 1.19256E-02 2.05505E-04-1.15310E-13
 -1      3580 1.18564E-02 1.69701E-04-1.14246E-13
 -1      3581 1.23542E-02 1.98416E-04-1.23457E-13
 -1      3582 1.22113E-02 2.00843E-04-1.20725E-13
 -1      3583 1.21421E-02 1.65045E-04-1.19650E-13
 -1      3584 1.26399E-02 1.93408E-04-1.28959E-13
 -1      3585 1.24971E-02 1.95936E-04-1.26202E-13
 -1      3586 1.24279E-02 1.60145E-04-1.25115E-13
 -1      3587 1.29257E-02 1.88240E-04-1.34512E-13
 -1      3588 1.27828E-02 1.90841E-04-1.31727E-13
 -1      3589 1.27136E-02 1.55059E-04-1.30631E-13
 -1      3590 1.32115E-02 1.82953E-04-1.40110E-13
 -1      3591 1.30686E-02 1.85609E-04-1.37305E-13
 -1      3592 1.29994E-02 1.49835E-04-1.36196E-13
 -1      3593 1.34972E-02 1.77585E-04-1.45745E-13
 -1      3594 1.33543E-02 1.80278E-04-1.42924E-13
 -1      3595 1.32852E-02 1.44509E-04-1.41809E-13
 -1      3596 1.37830E-02 1.72164E-04-1.51414E-13
 -1      3597 1.36401E-02 1.74879E-04-1.48575E-13
 -1      3598 1.35709E-02 1.39115E-04-1.47455E-13
 -1      3599 4.16392E-03-9.95167E-04-1.48176E-14
 -1      3600 4.34094E-03-1.04698E-03-1.59800E-14
 -1      3601 1.38490E-02-2.32003E-04-1.55336E-13
 -1      3602 1.38462E-02-1.89842E-04-1.55022E-13
 -1      3603 2.49387E-03 1.56982E-04-7.30615E-15
 -1      3604 2.65017E-03 2.09793E-04-7.70380E-15
 -1      3605 9.02868E-04-2.09593E-05-1.37148E-15
 -1      3606 9.09128E-04-3.58157E-05-1.38161E-15
 -1      3607 9.77999E-04-4.30261E-05-1.56723E-15
 -1      3608 1.00501E-03-1.53209E-05-1.65917E-15
 -1      3609 6.64131E-03 2.81449E-04-3.20675E-14
 -1      3610 6.48113E-03 3.07691E-04-3.04057E-14
 -1      3611 6.77056E-03 2.22166E-04-3.31260E-14
 -1      3612 1.37128E-02-4.67730E-04-1.53988E-13
 -1      3613 1.38881E-02-4.67195E-04-1.57521E-13
 -1      3614 1.38698E-02-4.25359E-04-1.56908E-13
 -1      3615 1.36389E-02-4.29202E-04-1.52284E-13
 -1      3616 2.20887E-03 6.34383E-05-6.75890E-15
 -1      3617 2.31396E-03 9.71199E-05-6.92189E-15
 -1      3618 1.93925E-03 2.47305E-04-3.71067E-15
 -1      3619 1.79273E-03 2.33266E-04-3.20998E-15
 -1      3620 2.33438E-03-1.18713E-04-7.65341E-15
 -1      3621 2.22618E-03-8.11703E-05-7.43906E-15
 -1      3622 6.27572E-03 3.49349E-04-2.84202E-14
 -1      3623 6.10082E-03 3.94538E-04-2.68427E-14
 -1      3624 5.99367E-03 3.78470E-04-2.55644E-14
 -1      3625 6.42188E-03 2.72013E-04-2.94256E-14
 -1      3626 2.03414E-03-1.30860E-05-6.77309E-15
 -1      3627 1.99027E-03-2.02247E-06-6.31003E-15
 -1      3628 2.00539E-03-2.19935E-05-6.53005E-15
 -1      3629 1.28390E-03-1.60279E-04-2.21290E-15
 -1      3630 1.42090E-03-1.71769E-04-2.65001E-15
 -1      3631 1.45887E-03-1.48725E-04-2.88910E-15
 -1      3632 1.25568E-03-1.31468E-04-2.21955E-15
 -1      3633 2.79038E-03 2.96010E-04-7.75668E-15
 -1      3634 6.16061E-03 2.68829E-04-2.63019E-14
 -1      3635 6.11016E-03-4.09874E-04-2.83025E-14
 -1      3636 2.83777E-03 3.49810E-04-7.56945E-15
 -1      3637 2.84105E-03 3.96201E-04-7.22485E-15
 -1      3638 2.66888E-03 3.56443E-04-6.50931E-15
 -1      3639 2.59212E-03 2.58101E-04-6.87173E-15
 -1      3640 1.41058E-02 1.17250E-04-1.58191E-13
 -1      3641 1.41099E-02 1.52586E-04-1.58032E-13
 -1      3642 1.40182E-02 1.60679E-04-1.56154E-13
 -1      3643 1.39834E-02 9.85357E-05-1.55883E-13
 -1      3644 6.69229E-03-1.46730E-04-3.06888E-14
 -1      3645 6.54363E-03-1.90797E-04-2.98141E-14
 -1      3646 1.11595E-03 1.00856E-04-1.62249E-15
 -1      3647 6.92278E-03-3.36567E-05-3.04709E-14
 -1      3648 6.95724E-03-4.57084E-05-3.12422E-14
 -1      3649 6.93278E-03-2.29091E-05-3.10464E-14
 -1      3650 2.01664E-03 2.63101E-05-6.11083E-15
 -1      3651 2.10550E-03 4.16258E-05-6.43260E-15
 -1      3652 2.08772E-03 6.56539E-05-5.99637E-15
 -1      3653 1.48328E-03 1.99285E-04-2.29126E-15
 -1      3654 1.33122E-03 1.52134E-04-2.03848E-15
 -1      3655 5.55017E-03 5.96210E-04-2.25217E-14
 -1      3656 7.01499E-03-4.78856E-05-3.25281E-14
 -1      3657 6.97715E-03-5.63887E-05-3.19379E-14
 -1      3658 6.99049E-03-6.88770E-05-3.26363E-14
 -1      3659 6.69983E-03 1.10546E-04-3.08087E-14
 -1      3660 6.79917E-03 8.29778E-05-3.16607E-14
 -1      3661 1.38435E-02-1.47860E-04-1.54707E-13
 -1      3662 1.38408E-02-1.05878E-04-1.54389E-13
 -1      3663 1.37211E-02-1.66546E-04-1.52386E-13
 -1      3664 1.40697E-03 1.19234E-04-2.46554E-15
 -1      3665 1.26105E-03 1.10525E-04-2.02128E-15
 -1      3666 1.19891E-03 7.50882E-05-1.99236E-15
 -1      3667 6.56186E-03-2.65470E-04-3.17833E-14
 -1      3668 2.36062E-03 1.41337E-04-6.67593E-15
 -1      3669 1.05679E-03-8.67712E-05-1.71444E-15
 -1      3670 1.13225E-03-9.79639E-05-1.91944E-15
 -1      3671 1.04002E-03-6.64813E-05-1.71141E-15
 -1      3672 6.48616E-03-2.36996E-04-3.01181E-14
 -1      3673 1.37515E-02-3.85307E-04-1.54297E-13
 -1      3674 1.38670E-02-3.83378E-04-1.56608E-13
 -1      3675 1.38642E-02-3.41397E-04-1.56301E-13
 -1      3676 1.39265E-02 1.68771E-04-1.54280E-13
 -1      3677 6.80803E-03-1.20295E-04-3.15833E-14
 -1      3678 6.76905E-03-1.53253E-04-3.20164E-14
 -1      3679 6.90845E-03-1.02519E-04-3.24833E-14
 -1      3680 2.57623E-03-2.45501E-04-7.89784E-15
 -1      3681 1.38382E-02-6.38962E-05-1.54069E-13
 -1      3682 1.38355E-02-2.19148E-05-1.53745E-13
 -1      3683 1.37158E-02-8.25940E-05-1.51758E-13
 -1      3684 6.07801E-03 3.16543E-04-2.59057E-14
 -1      3685 1.13331E-03 2.40199E-05-1.98813E-15
 -1      3686 1.12747E-03 6.57166E-06-2.01495E-15
 -1      3687 2.12364E-03-6.05099E-05-6.99832E-15
 -1      3688 2.03711E-03-4.63329E-05-6.56972E-15
 -1      3689 2.09925E-03-8.03510E-05-6.56257E-15
 -1      3690 1.61653E-03 2.10442E-04-2.68940E-15
 -1      3691 2.44395E-03-1.81715E-04-7.65561E-15
 -1      3692 2.30024E-03-1.58009E-04-6.98702E-15
 -1      3693 1.38396E-02 1.34184E-05-1.53595E-13
 -1      3694 1.38436E-02 4.87511E-05-1.53442E-13
 -1      3695 1.37171E-02-5.28924E-06-1.51292E-13
 -1      3696 2.08816E-03 2.62842E-04-4.24927E-15
 -1      3697 1.96870E-03 2.14233E-04-4.06142E-15
 -1      3698 2.24040E-03 2.81318E-04-4.82585E-15
 -1      3699 1.38573E-02 1.33007E-04-1.53151E-13
 -1      3700 1.65242E-03 1.82581E-04-2.98519E-15
 -1      3701 1.38579E-02-3.07691E-04-1.55974E-13
 -1      3702 1.38552E-02-2.65709E-04-1.55667E-13
 -1      3703 1.37300E-02-2.42224E-04-1.53022E-13
 -1      3704 1.37425E-02-3.09628E-04-1.53673E-13
 -1      3705 6.58680E-03 1.67276E-04-3.02131E-14
 -1      3706 1.95485E-03 1.29708E-05-5.88703E-15
 -1      3707 1.92196E-03 3.05413E-05-5.47547E-15
 -1      3708 1.90311E-03 2.02717E-06-5.66396E-15
 -1      3709 1.16997E-03 5.80609E-05-1.97622E-15
 -1      3710 1.15565E-03 3.82070E-05-2.01107E-15
 -1      3711 1.25413E-03 3.01750E-05-2.37797E-15
 -1      3712 1.30726E-03 6.25242E-05-2.42007E-15
 -1      3713 1.59458E-03-1.32819E-04-3.51355E-15
 -1      3714 1.72479E-03-1.39165E-04-4.05565E-15
 -1      3715 1.85486E-03-1.45533E-04-4.63534E-15
 -1      3716 1.98601E-03-1.52306E-04-5.25211E-15
 -1      3717 1.75120E-03-1.13274E-04-4.33221E-15
 -1      3718 2.07757E-03-1.50954E-04-5.75382E-15
 -1      3719 2.21002E-03-1.58947E-04-6.43692E-15
 -1      3720 2.12895E-03-1.07509E-04-6.44233E-15
 -1      3721 1.96254E-03-1.14701E-04-5.41198E-15
 -1      3722 7.44816E-03 1.48272E-04-4.13681E-14
 -1      3723 7.31213E-03 1.51271E-04-3.95229E-14
 -1      3724 6.91873E-03-2.02480E-04-3.52908E-14
 -1      3725 7.05007E-03-2.01252E-04-3.70616E-14
 -1      3726 7.17975E-03-2.01793E-04-3.88670E-14
 -1      3727 7.30948E-03-2.03544E-04-4.07037E-14
 -1      3728 7.15506E-03-1.67640E-04-3.78433E-14
 -1      3729 7.43890E-03-2.06357E-04-4.25721E-14
 -1      3730 7.56894E-03-2.09969E-04-4.44733E-14
 -1      3731 7.40275E-03-1.74073E-04-4.15094E-14
 -1      3732 7.69938E-03-2.14225E-04-4.64082E-14
 -1      3733 7.83069E-03-2.19042E-04-4.83765E-14
 -1      3734 7.65468E-03-1.82494E-04-4.53050E-14
 -1      3735 7.96270E-03-2.24247E-04-5.03746E-14
 -1      3736 8.09563E-03-2.29833E-04-5.24052E-14
 -1      3737 7.91146E-03-1.92292E-04-4.92322E-14
 -1      3738 8.22934E-03-2.35629E-04-5.44677E-14
 -1      3739 8.36395E-03-2.41646E-04-5.65611E-14
 -1      3740 8.17302E-03-2.03025E-04-5.32869E-14
 -1      3741 8.49931E-03-2.47732E-04-5.86854E-14
 -1      3742 8.63548E-03-2.53903E-04-6.08367E-14
 -1      3743 8.43897E-03-2.14298E-04-5.74669E-14
 -1      3744 8.77234E-03-2.60035E-04-6.30193E-14
 -1      3745 8.90989E-03-2.66147E-04-6.52328E-14
 -1      3746 8.70880E-03-2.25739E-04-6.17681E-14
 -1      3747 9.04804E-03-2.72144E-04-6.74737E-14
 -1      3748 9.18678E-03-2.78046E-04-6.97425E-14
 -1      3749 8.98197E-03-2.37038E-04-6.61853E-14
 -1      3750 9.32601E-03-2.83785E-04-7.20409E-14
 -1      3751 9.46573E-03-2.89382E-04-7.43680E-14
 -1      3752 9.25794E-03-2.47961E-04-7.07189E-14
 -1      3753 9.60585E-03-2.94792E-04-7.67220E-14
 -1      3754 9.74636E-03-3.00036E-04-7.91038E-14
 -1      3755 9.53622E-03-2.58357E-04-7.53664E-14
 -1      3756 9.88720E-03-3.05086E-04-8.15118E-14
 -1      3757 1.00283E-02-3.09965E-04-8.39432E-14
 -1      3758 9.81636E-03-2.68148E-04-8.01248E-14
 -1      3759 1.01697E-02-3.14658E-04-8.64004E-14
 -1      3760 1.03114E-02-3.19184E-04-8.88794E-14
 -1      3761 1.00980E-02-2.77314E-04-8.49841E-14
 -1      3762 1.04532E-02-3.23539E-04-9.13826E-14
 -1      3763 1.05952E-02-3.27741E-04-9.39097E-14
 -1      3764 1.03808E-02-2.85877E-04-8.99374E-14
 -1      3765 1.07373E-02-3.31792E-04-9.64603E-14
 -1      3766 1.08796E-02-3.35707E-04-9.90308E-14
 -1      3767 1.06644E-02-2.93885E-04-9.49848E-14
 -1      3768 1.10220E-02-3.39492E-04-1.01623E-13
 -1      3769 1.11645E-02-3.43161E-04-1.04238E-13
 -1      3770 1.09487E-02-3.01400E-04-1.00120E-13
 -1      3771 1.13071E-02-3.46720E-04-1.06873E-13
 -1      3772 1.14497E-02-3.50182E-04-1.09524E-13
 -1      3773 1.12335E-02-3.08490E-04-1.05341E-13
 -1      3774 1.15924E-02-3.53554E-04-1.12193E-13
 -1      3775 1.17351E-02-3.56846E-04-1.14882E-13
 -1      3776 1.15187E-02-3.15225E-04-1.10641E-13
 -1      3777 1.18779E-02-3.60067E-04-1.17587E-13
 -1      3778 1.20207E-02-3.63223E-04-1.20305E-13
 -1      3779 1.18041E-02-3.21668E-04-1.16010E-13
 -1      3780 1.21635E-02-3.66322E-04-1.23039E-13
 -1      3781 1.23064E-02-3.69372E-04-1.25793E-13
 -1      3782 1.20896E-02-3.27876E-04-1.21445E-13
 -1      3783 1.24492E-02-3.72377E-04-1.28557E-13
 -1      3784 1.25921E-02-3.75343E-04-1.31335E-13
 -1      3785 1.23753E-02-3.33899E-04-1.26942E-13
 -1      3786 1.27350E-02-3.78277E-04-1.34130E-13
 -1      3787 1.28779E-02-3.81181E-04-1.36937E-13
 -1      3788 1.26611E-02-3.39778E-04-1.32495E-13
 -1      3789 1.30208E-02-3.84061E-04-1.39758E-13
 -1      3790 1.31637E-02-3.86920E-04-1.42589E-13
 -1      3791 1.29468E-02-3.45551E-04-1.38104E-13
 -1      3792 1.33066E-02-3.89762E-04-1.45433E-13
 -1      3793 1.34495E-02-3.92589E-04-1.48292E-13
 -1      3794 1.32326E-02-3.51244E-04-1.43761E-13
 -1      3795 1.38399E-02 1.01937E-04-1.53014E-13
 -1      3796 1.96115E-03-3.45530E-05-6.11853E-15
 -1      3797 7.17542E-03 1.55509E-04-3.77112E-14
 -1      3798 7.03697E-03 1.61718E-04-3.59342E-14
 -1      3799 7.28110E-03 1.17793E-04-3.88241E-14
 -1      3800 7.99022E-03 1.45127E-04-4.90881E-14
 -1      3801 7.85444E-03 1.44984E-04-4.71072E-14
 -1      3802 8.26293E-03 1.46428E-04-5.31470E-14
 -1      3803 8.12632E-03 1.45632E-04-5.11015E-14
 -1      3804 8.07580E-03 1.14153E-04-5.03182E-14
 -1      3805 8.53755E-03 1.48428E-04-5.73320E-14
 -1      3806 8.39997E-03 1.47370E-04-5.52234E-14
 -1      3807 8.34527E-03 1.15459E-04-5.44132E-14
 -1      3808 8.81416E-03 1.50520E-04-6.16385E-14
 -1      3809 8.67560E-03 1.49481E-04-5.94705E-14
 -1      3810 8.61754E-03 1.16999E-04-5.86328E-14
 -1      3811 9.09261E-03 1.52274E-04-6.60605E-14
 -1      3812 8.95316E-03 1.51449E-04-6.38352E-14
 -1      3813 8.89241E-03 1.18373E-04-6.29735E-14
 -1      3814 9.37269E-03 1.53418E-04-7.05997E-14
 -1      3815 9.23245E-03 1.52927E-04-6.83158E-14
 -1      3816 9.16957E-03 1.19296E-04-6.74294E-14
 -1      3817 9.65412E-03 1.53800E-04-7.52484E-14
 -1      3818 9.51324E-03 1.53704E-04-7.29113E-14
 -1      3819 9.44868E-03 1.19589E-04-7.20009E-14
 -1      3820 9.93665E-03 1.53363E-04-8.00027E-14
 -1      3821 9.79526E-03 1.53681E-04-7.76119E-14
 -1      3822 9.72941E-03 1.19161E-04-7.66801E-14
 -1      3823 1.02201E-02 1.52116E-04-8.48595E-14
 -1      3824 1.00783E-02 1.52836E-04-8.24181E-14
 -1      3825 1.00114E-02 1.17989E-04-8.14624E-14
 -1      3826 1.05042E-02 1.50111E-04-8.98142E-14
 -1      3827 1.03620E-02 1.51202E-04-8.73249E-14
 -1      3828 1.02945E-02 1.16099E-04-8.63469E-14
 -1      3829 1.07888E-02 1.47426E-04-9.48644E-14
 -1      3830 1.06464E-02 1.48847E-04-9.23280E-14
 -1      3831 1.05783E-02 1.13548E-04-9.13296E-14
 -1      3832 1.10738E-02 1.44149E-04-1.00001E-13
 -1      3833 1.09312E-02 1.45855E-04-9.74230E-14
 -1      3834 1.08628E-02 1.10409E-04-9.64034E-14
 -1      3835 1.13591E-02 1.40372E-04-1.05219E-13
 -1      3836 1.12164E-02 1.42317E-04-1.02600E-13
 -1      3837 1.11476E-02 1.06764E-04-1.01563E-13
 -1      3838 1.16445E-02 1.36179E-04-1.10509E-13
 -1      3839 1.15018E-02 1.38322E-04-1.07854E-13
 -1      3840 1.14328E-02 1.02694E-04-1.06801E-13
 -1      3841 1.19301E-02 1.31651E-04-1.15868E-13
 -1      3842 1.17873E-02 1.33953E-04-1.13180E-13
 -1      3843 1.17183E-02 9.82725E-05-1.12112E-13
 -1      3844 1.22158E-02 1.26857E-04-1.21292E-13
 -1      3845 1.20730E-02 1.29284E-04-1.18572E-13
 -1      3846 1.20038E-02 9.35691E-05-1.17492E-13
 -1      3847 1.25015E-02 1.21855E-04-1.26769E-13
 -1      3848 1.23587E-02 1.24379E-04-1.24022E-13
 -1      3849 1.22895E-02 8.86426E-05-1.22932E-13
 -1      3850 1.27873E-02 1.16694E-04-1.32302E-13
 -1      3851 1.26444E-02 1.19292E-04-1.29531E-13
 -1      3852 1.25753E-02 8.35433E-05-1.28426E-13
 -1      3853 1.30731E-02 1.11417E-04-1.37885E-13
 -1      3854 1.29302E-02 1.14068E-04-1.35087E-13
 -1      3855 1.28610E-02 7.83131E-05-1.33974E-13
 -1      3856 1.33589E-02 1.06055E-04-1.43506E-13
 -1      3857 1.32160E-02 1.08745E-04-1.40689E-13
 -1      3858 1.31468E-02 7.29866E-05-1.39571E-13
 -1      3859 1.73119E-03 1.47542E-04-3.52501E-15
 -1      3860 1.56744E-03 1.32960E-04-2.97159E-15
 -1      3861 1.49133E-03 9.07325E-05-2.94387E-15
 -1      3862 6.91978E-03 8.03464E-05-3.33195E-14
 -1      3863 6.92415E-03 4.73650E-05-3.27813E-14
 -1      3864 1.99345E-03 7.44676E-05-5.37667E-15
 -1      3865 2.09800E-03 9.82893E-05-5.67179E-15
 -1      3866 1.35427E-02-3.89912E-04-1.50139E-13
 -1      3867 1.36582E-02-3.87994E-04-1.52439E-13
 -1      3868 1.36554E-02-3.46021E-04-1.52143E-13
 -1      3869 1.34688E-02-3.51391E-04-1.48448E-13
 -1      3870 2.53075E-03 3.27786E-04-5.96237E-15
 -1      3871 2.37004E-03 3.01217E-04-5.31690E-15
 -1      3872 2.23889E-03 2.42602E-04-5.10499E-15
 -1      3873 2.49795E-03 2.81810E-04-6.13870E-15
 -1      3874 1.22822E-03-2.58723E-06-2.37851E-15
 -1      3875 1.12600E-03-1.05229E-05-2.03556E-15
 -1      3876 7.71901E-03 1.45359E-04-4.51604E-14
 -1      3877 7.58358E-03 1.46406E-04-4.32477E-14
 -1      3878 7.54461E-03 1.14519E-04-4.25209E-14
 -1      3879 7.80908E-03 1.13610E-04-4.63520E-14
 -1      3880 2.24567E-03 1.35439E-04-6.08660E-15
 -1      3881 2.41582E-03 1.94575E-04-6.43946E-15
 -1      3882 2.45866E-03 2.40239E-04-6.27096E-15
 -1      3883 2.13732E-03 1.40384E-04-5.45915E-15
 -1      3884 6.92387E-03 1.92500E-05-3.21359E-14
 -1      3885 6.93556E-03-3.82688E-06-3.16975E-14
 -1      3886 7.00422E-03-2.16006E-05-3.24876E-14
 -1      3887 7.02607E-03 2.11329E-05-3.38064E-14
 -1      3888 6.71307E-03-2.16384E-04-3.28037E-14
 -1      3889 1.37175E-02 8.32203E-05-1.50717E-13
 -1      3890 6.84339E-03-1.70718E-04-3.35532E-14
 -1      3891 1.84717E-03 3.86760E-05-4.97174E-15
 -1      3892 1.91612E-03 5.47853E-05-5.17412E-15
 -1      3893 1.91318E-03 8.25769E-05-4.87536E-15
 -1      3894 7.04887E-03-3.34290E-05-3.32003E-14
 -1      3895 7.08490E-03-4.45568E-05-3.39158E-14
 -1      3896 7.07171E-03-1.64738E-05-3.38697E-14
 -1      3897 6.28858E-03 2.73289E-04-2.78771E-14
 -1      3898 6.89656E-03 1.69988E-04-3.41912E-14
 -1      3899 6.75252E-03 1.82013E-04-3.24845E-14
 -1      3900 1.36446E-02 1.00637E-04-1.49164E-13
 -1      3901 1.35018E-02 1.03352E-04-1.46333E-13
 -1      3902 1.11038E-03-2.54619E-05-1.98879E-15
 -1      3903 6.99259E-03-8.89734E-05-3.33662E-14
 -1      3904 6.97416E-03-1.11675E-04-3.38164E-14
 -1      3905 7.01561E-03 1.25092E-04-3.52636E-14
 -1      3906 1.34326E-02 6.75917E-05-1.45206E-13
 -1      3907 7.05203E-03-7.71474E-05-3.39734E-14
 -1      3908 1.35933E-02-1.01198E-04-1.49448E-13
 -1      3909 1.35907E-02-5.92290E-05-1.49133E-13
 -1      3910 2.02378E-03-8.51808E-05-6.03533E-15
 -1      3911 1.49534E-03-1.26188E-04-3.13225E-15
 -1      3912 1.53056E-03-1.04068E-04-3.37912E-15
 -1      3913 1.39625E-03-1.19322E-04-2.77254E-15
 -1      3914 1.34723E-02-4.25193E-05-1.46690E-13
 -1      3915 1.35947E-02-2.39056E-05-1.48989E-13
 -1      3916 1.35987E-02 1.14183E-05-1.48844E-13
 -1      3917 1.23023E-03-1.05433E-04-2.22096E-15
 -1      3918 1.35987E-02-1.85136E-04-1.50065E-13
 -1      3919 1.35960E-02-1.43167E-04-1.49759E-13
 -1      3920 1.34709E-02-1.19797E-04-1.47140E-13
 -1      3921 1.07813E-03-3.80842E-05-1.87650E-15
 -1      3922 1.06851E-03-5.34855E-05-1.82485E-15
 -1      3923 1.13947E-03-6.18774E-05-2.03703E-15
 -1      3924 1.19740E-03-3.43830E-05-2.27906E-15
 -1      3925 1.36625E-03 3.61116E-05-2.76980E-15
 -1      3926 1.34273E-03 2.06443E-05-2.74435E-15
 -1      3927 1.33566E-03 1.39177E-06-2.77558E-15
 -1      3928 1.33569E-03-1.75700E-05-2.80161E-15
 -1      3929 1.44226E-03 5.44121E-06-3.20155E-15
 -1      3930 1.36111E-02-2.52528E-04-1.50713E-13
 -1      3931 1.36049E-02-2.18832E-04-1.50390E-13
 -1      3932 1.34798E-02-1.95446E-04-1.47769E-13
 -1      3933 1.89286E-03-4.64877E-05-5.56346E-15
 -1      3934 1.86995E-03-2.20615E-05-5.53029E-15
 -1      3935 1.81297E-03-8.33162E-06-5.13967E-15
 -1      3936 1.36483E-02 4.74600E-05-1.49588E-13
 -1      3937 6.95238E-03-1.47026E-04-3.44792E-14
 -1      3938 7.36781E-03-1.43835E-04-4.04513E-14
 -1      3939 7.48829E-03-1.48137E-04-4.23132E-14
 -1      3940 7.61045E-03-1.52478E-04-4.42072E-14
 -1      3941 7.73466E-03-1.57130E-04-4.61347E-14
 -1      3942 7.56616E-03-1.24209E-04-4.31143E-14
 -1      3943 7.86043E-03-1.61828E-04-4.80947E-14
 -1      3944 7.98792E-03-1.66768E-04-5.00868E-14
 -1      3945 7.80915E-03-1.32878E-04-4.69607E-14
 -1      3946 8.11682E-03-1.71746E-04-5.21113E-14
 -1      3947 8.24717E-03-1.76893E-04-5.41669E-14
 -1      3948 8.06037E-03-1.41801E-04-5.09393E-14
 -1      3949 8.37875E-03-1.82043E-04-5.62547E-14
 -1      3950 8.51155E-03-1.87285E-04-5.83723E-14
 -1      3951 8.31836E-03-1.50971E-04-5.50453E-14
 -1      3952 8.64541E-03-1.92484E-04-6.05187E-14
 -1      3953 8.78029E-03-1.97702E-04-6.26942E-14
 -1      3954 8.58193E-03-1.60273E-04-5.92738E-14
 -1      3955 8.91607E-03-2.02834E-04-6.49007E-14
 -1      3956 9.05269E-03-2.07929E-04-6.71366E-14
 -1      3957 8.85015E-03-1.69544E-04-6.36209E-14
 -1      3958 9.19005E-03-2.12906E-04-6.94019E-14
 -1      3959 9.32811E-03-2.17804E-04-7.16950E-14
 -1      3960 9.12220E-03-1.78635E-04-6.80871E-14
 -1      3961 9.46677E-03-2.22565E-04-7.40162E-14
 -1      3962 9.60599E-03-2.27223E-04-7.63655E-14
 -1      3963 9.39739E-03-1.87435E-04-7.26695E-14
 -1      3964 9.74570E-03-2.31738E-04-7.87415E-14
 -1      3965 9.88585E-03-2.36137E-04-8.11439E-14
 -1      3966 9.67513E-03-1.95876E-04-7.73626E-14
 -1      3967 1.00264E-02-2.40397E-04-8.35705E-14
 -1      3968 1.01673E-02-2.44540E-04-8.60213E-14
 -1      3969 9.95489E-03-2.03927E-04-8.21599E-14
 -1      3970 1.03085E-02-2.48553E-04-8.84956E-14
 -1      3971 1.04499E-02-2.52456E-04-9.09920E-14
 -1      3972 1.02363E-02-2.11587E-04-8.70558E-14
 -1      3973 1.05916E-02-2.56241E-04-9.35119E-14
 -1      3974 1.07335E-02-2.59926E-04-9.60562E-14
 -1      3975 1.05189E-02-2.18879E-04-9.20439E-14
 -1      3976 1.08755E-02-2.63509E-04-9.86211E-14
 -1      3977 1.10177E-02-2.67004E-04-1.01206E-13
 -1      3978 1.08024E-02-2.25835E-04-9.71233E-14
 -1      3979 1.11601E-02-2.70412E-04-1.03814E-13
 -1      3980 1.13025E-02-2.73746E-04-1.06442E-13
 -1      3981 1.10867E-02-2.32499E-04-1.02291E-13
 -1      3982 1.14450E-02-2.77008E-04-1.09089E-13
 -1      3983 1.15876E-02-2.80208E-04-1.11754E-13
 -1      3984 1.13714E-02-2.38914E-04-1.07541E-13
 -1      3985 1.17303E-02-2.83350E-04-1.14436E-13
 -1      3986 1.18730E-02-2.86441E-04-1.17137E-13
 -1      3987 1.16566E-02-2.45121E-04-1.12867E-13
 -1      3988 1.20158E-02-2.89486E-04-1.19852E-13
 -1      3989 1.21586E-02-2.92490E-04-1.22581E-13
 -1      3990 1.19420E-02-2.51160E-04-1.18260E-13
 -1      3991 1.23014E-02-2.95459E-04-1.25329E-13
 -1      3992 1.24443E-02-2.98396E-04-1.28088E-13
 -1      3993 1.22276E-02-2.57064E-04-1.23718E-13
 -1      3994 1.25871E-02-3.01306E-04-1.30861E-13
 -1      3995 1.27300E-02-3.04191E-04-1.33650E-13
 -1      3996 1.25132E-02-2.62863E-04-1.29233E-13
 -1      3997 1.28729E-02-3.07056E-04-1.36451E-13
 -1      3998 1.30158E-02-3.09903E-04-1.39265E-13
 -1      3999 1.27990E-02-2.68581E-04-1.34801E-13
 -1      4000 1.31587E-02-3.12736E-04-1.42092E-13
 -1      4001 1.33016E-02-3.15556E-04-1.44927E-13
 -1      4002 1.30848E-02-2.74240E-04-1.40423E-13
 -1      4003 8.69565E-03 8.59333E-05-5.99376E-14
 -1      4004 8.55997E-03 8.55499E-05-5.77940E-14
 -1      4005 7.38014E-03 8.47409E-05-3.99418E-14
 -1      4006 7.25314E-03 8.58205E-05-3.81238E-14
 -1      4007 8.42515E-03 8.51507E-05-5.56820E-14
 -1      4008 8.29116E-03 8.46950E-05-5.36010E-14
 -1      4009 8.50268E-03 5.51540E-05-5.69557E-14
 -1      4010 8.15815E-03 8.43005E-05-5.15523E-14
 -1      4011 8.02604E-03 8.39205E-05-4.95346E-14
 -1      4012 8.23740E-03 5.50990E-05-5.27893E-14
 -1      4013 8.96924E-03 8.64004E-05-6.43116E-14
 -1      4014 8.83207E-03 8.62049E-05-6.21112E-14
 -1      4015 8.77200E-03 5.49676E-05-6.12460E-14
 -1      4016 9.24548E-03 8.63738E-05-6.88011E-14
 -1      4017 9.10705E-03 8.64459E-05-6.65415E-14
 -1      4018 9.04477E-03 5.44015E-05-6.56539E-14
 -1      4019 9.52392E-03 8.57452E-05-7.34031E-14
 -1      4020 9.38444E-03 8.61304E-05-7.10882E-14
 -1      4021 9.32043E-03 5.33549E-05-7.01761E-14
 -1      4022 9.80416E-03 8.44675E-05-7.81133E-14
 -1      4023 9.66383E-03 8.51820E-05-7.57455E-14
 -1      4024 9.59846E-03 5.17709E-05-7.48097E-14
 -1      4025 1.00858E-02 8.25418E-05-8.29258E-14
 -1      4026 9.94483E-03 8.35796E-05-8.05064E-14
 -1      4027 9.87841E-03 4.96331E-05-7.95501E-14
 -1      4028 1.03686E-02 8.00028E-05-8.78383E-14
 -1      4029 1.02271E-02 8.13426E-05-8.53695E-14
 -1      4030 1.01599E-02 4.69569E-05-8.43921E-14
 -1      4031 1.06523E-02 7.69068E-05-9.28462E-14
 -1      4032 1.05104E-02 7.85182E-05-9.03308E-14
 -1      4033 1.04426E-02 4.37803E-05-8.93317E-14
 -1      4034 1.09366E-02 7.33211E-05-9.79436E-14
 -1      4035 1.07944E-02 7.51694E-05-9.53842E-14
 -1      4036 1.07262E-02 4.01550E-05-9.43647E-14
 -1      4037 1.12214E-02 6.93166E-05-1.03126E-13
 -1      4038 1.10790E-02 7.13660E-05-1.00525E-13
 -1      4039 1.10104E-02 3.61388E-05-9.94851E-14
 -1      4040 1.15066E-02 6.49621E-05-1.08384E-13
 -1      4041 1.13640E-02 6.71786E-05-1.05746E-13
 -1      4042 1.12952E-02 3.17909E-05-1.04690E-13
 -1      4043 1.17920E-02 6.03213E-05-1.13719E-13
 -1      4044 1.16493E-02 6.26736E-05-1.11042E-13
 -1      4045 1.15803E-02 2.71675E-05-1.09972E-13
 -1      4046 1.20776E-02 5.54509E-05-1.19117E-13
 -1      4047 1.19348E-02 5.79116E-05-1.16409E-13
 -1      4048 1.18657E-02 2.23200E-05-1.15326E-13
 -1      4049 1.23632E-02 5.03999E-05-1.24573E-13
 -1      4050 1.22204E-02 5.29453E-05-1.21839E-13
 -1      4051 1.21513E-02 1.72937E-05-1.20743E-13
 -1      4052 1.26490E-02 4.52098E-05-1.30085E-13
 -1      4053 1.25061E-02 4.78202E-05-1.27321E-13
 -1      4054 1.24370E-02 1.21276E-05-1.26216E-13
 -1      4055 1.29348E-02 3.99150E-05-1.35651E-13
 -1      4056 1.27919E-02 4.25739E-05-1.32862E-13
 -1      4057 1.27227E-02 6.85419E-06-1.31744E-13
 -1      4058 1.32206E-02 3.45438E-05-1.41257E-13
 -1      4059 1.30777E-02 3.72377E-05-1.38451E-13
 -1      4060 1.30085E-02 1.50059E-06-1.37324E-13
 -1      4061 7.11352E-03-6.11234E-05-3.46663E-14
 -1      4062 7.13220E-03-7.96326E-05-3.54176E-14
 -1      4063 7.16090E-03-4.58291E-05-3.53572E-14
 -1      4064 1.88830E-03 1.75326E-04-3.99129E-15
 -1      4065 1.79191E-03 1.21585E-04-3.97054E-15
 -1      4066 6.83519E-03 1.26145E-04-3.28568E-14
 -1      4067 6.96181E-03 8.65803E-05-3.40014E-14
 -1      4068 7.08786E-03 8.37021E-05-3.57408E-14
 -1      4069 6.48921E-03 2.35177E-04-2.98505E-14
 -1      4070 1.91211E-03-8.80095E-05-5.34579E-15
 -1      4071 1.89942E-03-6.58805E-05-5.45657E-15
 -1      4072 1.78655E-03-5.01650E-05-4.90547E-15
 -1      4073 6.70343E-03 1.77810E-04-3.18183E-14
 -1      4074 1.27326E-03-8.75416E-05-2.43090E-15
 -1      4075 1.35259E-02 2.88349E-05-1.47293E-13
 -1      4076 1.44043E-03 7.07337E-05-2.86958E-15
 -1      4077 1.40868E-03 5.23161E-05-2.85080E-15
 -1      4078 1.49304E-03 4.14784E-05-3.25285E-15
 -1      4079 1.58993E-03 7.86851E-05-3.41983E-15
 -1      4080 1.36364E-02-3.16123E-04-1.51591E-13
 -1      4081 1.36301E-02-2.82425E-04-1.51269E-13
 -1      4082 1.35050E-02-2.59026E-04-1.48642E-13
 -1      4083 1.35431E-02-3.18813E-04-1.49743E-13
 -1      4084 2.02862E-03 1.84809E-04-4.54952E-15
 -1      4085 7.19028E-03 5.14663E-05-3.68149E-14
 -1      4086 1.33485E-02-1.38388E-04-1.44837E-13
 -1      4087 1.33458E-02-9.64369E-05-1.44532E-13
 -1      4088 1.71104E-03-1.55253E-05-4.56056E-15
 -1      4089 1.74998E-03 9.39179E-06-4.68308E-15
 -1      4090 7.16895E-03 2.50330E-05-3.61450E-14
 -1      4091 7.14858E-03 1.28733E-06-3.54719E-14
 -1      4092 7.32008E-03 2.93667E-05-3.85414E-14
 -1      4093 7.04698E-03-1.29524E-04-3.53879E-14
 -1      4094 7.14678E-03-1.34554E-04-3.69912E-14
 -1      4095 7.26308E-03-1.38557E-04-3.87920E-14
 -1      4096 7.34581E-03-1.14619E-04-3.95674E-14
 -1      4097 7.15052E-03-1.03634E-04-3.63045E-14
 -1      4098 2.33035E-03 2.21788E-04-5.73636E-15
 -1      4099 1.82886E-03-9.16378E-05-4.86689E-15
 -1      4100 2.20631E-03 2.06757E-04-5.22595E-15
 -1      4101 1.31874E-02-5.81113E-05-1.41187E-13
 -1      4102 1.33098E-02-3.95018E-05-1.43475E-13
 -1      4103 1.88814E-03 1.01552E-04-4.58127E-15
 -1      4104 1.74467E-03 8.23405E-05-4.07034E-15
 -1      4105 1.70991E-03-8.92226E-05-4.27664E-15
 -1      4106 7.22231E-03-8.49685E-05-3.70209E-14
 -1      4107 1.29636E-03-7.12599E-05-2.56610E-15
 -1      4108 1.33609E-02-2.05750E-04-1.45478E-13
 -1      4109 1.33547E-02-1.72069E-04-1.45158E-13
 -1      4110 1.32296E-02-1.48701E-04-1.42556E-13
 -1      4111 1.72586E-03 2.93449E-05-4.41155E-15
 -1      4112 1.33830E-02 3.15543E-05-1.44462E-13
 -1      4113 1.33139E-02-4.19416E-06-1.43334E-13
 -1      4114 2.11541E-03 1.62982E-04-5.14106E-15
 -1      4115 1.68914E-03 6.13750E-05-3.98245E-15
 -1      4116 1.30365E-03-3.18148E-05-2.67306E-15
 -1      4117 1.27458E-03-4.63076E-05-2.54397E-15
 -1      4118 1.40816E-03-2.88561E-05-3.09693E-15
 -1      4119 1.54648E-03 1.39548E-05-3.63350E-15
 -1      4120 1.53998E-03-6.18613E-06-3.67070E-15
 -1      4121 7.97677E-03 5.49580E-05-4.87497E-14
 -1      4122 7.89499E-03 8.36903E-05-4.75487E-14
 -1      4123 7.76483E-03 8.35610E-05-4.55971E-14
 -1      4124 1.69684E-03-5.79908E-05-4.37816E-15
 -1      4125 1.70118E-03-4.04523E-05-4.47548E-15
 -1      4126 1.61587E-03-2.23855E-05-4.05795E-15
 -1      4127 1.61305E-03-7.64022E-05-3.87761E-15
 -1      4128 7.63576E-03 8.36802E-05-4.36780E-14
 -1      4129 7.50743E-03 8.40225E-05-4.17933E-14
 -1      4130 7.72139E-03 5.48732E-05-4.48404E-14
 -1      4131 7.47173E-03 5.49761E-05-4.10649E-14
 -1      4132 1.34498E-02-3.21499E-04-1.47902E-13
 -1      4133 1.33759E-02-2.82989E-04-1.46218E-13
 -1      4134 1.49495E-03-7.33409E-05-3.35796E-15
 -1      4135 1.49500E-03-4.58565E-05-3.44863E-15
 -1      4136 7.20249E-03-1.27621E-05-3.62133E-14
 -1      4137 7.52016E-03-9.78336E-05-4.20242E-14
 -1      4138 7.63699E-03-1.01739E-04-4.39115E-14
 -1      4139 1.97212E-03 1.26204E-04-4.76473E-15
 -1      4140 1.30805E-02-1.12282E-04-1.39419E-13
 -1      4141 1.30445E-02-5.53873E-05-1.38374E-13
 -1      4142 1.29016E-02-5.26718E-05-1.35575E-13
 -1      4143 1.40297E-03-6.96321E-05-2.98690E-15
 -1      4144 1.33568E-02-2.53104E-04-1.45669E-13
 -1      4145 1.52101E-03-3.01795E-05-3.59446E-15
 -1      4146 7.75651E-03-1.05443E-04-4.58331E-14
 -1      4147 7.87862E-03-1.09347E-04-4.77858E-14
 -1      4148 7.70180E-03-7.95364E-05-4.47074E-14
 -1      4149 8.00288E-03-1.13139E-04-4.97713E-14
 -1      4150 8.12918E-03-1.17106E-04-5.17898E-14
 -1      4151 7.94382E-03-8.57489E-05-4.86071E-14
 -1      4152 8.25720E-03-1.21026E-04-5.38393E-14
 -1      4153 8.38686E-03-1.25065E-04-5.59209E-14
 -1      4154 8.19490E-03-9.21876E-05-5.26377E-14
 -1      4155 8.51792E-03-1.29061E-04-5.80339E-14
 -1      4156 8.65032E-03-1.33125E-04-6.01741E-14
 -1      4157 8.45309E-03-9.88324E-05-5.67949E-14
 -1      4158 8.78388E-03-1.37134E-04-6.23443E-14
 -1      4159 8.91853E-03-1.41167E-04-6.45463E-14
 -1      4160 8.71703E-03-1.05596E-04-6.10729E-14
 -1      4161 9.05413E-03-1.45131E-04-6.67782E-14
 -1      4162 9.19062E-03-1.49087E-04-6.90388E-14
 -1      4163 8.98567E-03-1.12393E-04-6.54710E-14
 -1      4164 9.32789E-03-1.52963E-04-7.13251E-14
 -1      4165 9.46588E-03-1.56807E-04-7.36412E-14
 -1      4166 9.25814E-03-1.19151E-04-6.99853E-14
 -1      4167 9.60450E-03-1.60568E-04-7.59865E-14
 -1      4168 9.74370E-03-1.64282E-04-7.83561E-14
 -1      4169 9.53372E-03-1.25819E-04-7.46119E-14
 -1      4170 9.88339E-03-1.67913E-04-8.07521E-14
 -1      4171 1.00235E-02-1.71492E-04-8.31741E-14
 -1      4172 9.81180E-03-1.32366E-04-7.93474E-14
 -1      4173 1.01641E-02-1.74991E-04-8.56193E-14
 -1      4174 1.03050E-02-1.78437E-04-8.80877E-14
 -1      4175 1.00919E-02-1.38777E-04-8.41848E-14
 -1      4176 1.04462E-02-1.81811E-04-9.05793E-14
 -1      4177 1.05876E-02-1.85133E-04-9.30937E-14
 -1      4178 1.03735E-02-1.45050E-04-8.91171E-14
 -1      4179 1.07293E-02-1.88393E-04-9.56306E-14
 -1      4180 1.08712E-02-1.91605E-04-9.81910E-14
 -1      4181 1.06563E-02-1.51193E-04-9.41408E-14
 -1      4182 1.10133E-02-1.94764E-04-1.00772E-13
 -1      4183 1.11555E-02-1.97882E-04-1.03374E-13
 -1      4184 1.09400E-02-1.57217E-04-9.92549E-14
 -1      4185 1.12979E-02-2.00954E-04-1.05999E-13
 -1      4186 1.14403E-02-2.03991E-04-1.08640E-13
 -1      4187 1.12244E-02-1.63137E-04-1.04457E-13
 -1      4188 1.15829E-02-2.06992E-04-1.11298E-13
 -1      4189 1.17255E-02-2.09964E-04-1.13977E-13
 -1      4190 1.15092E-02-1.68970E-04-1.09735E-13
 -1      4191 1.18682E-02-2.12906E-04-1.16672E-13
 -1      4192 1.20109E-02-2.15824E-04-1.19384E-13
 -1      4193 1.17945E-02-1.74730E-04-1.15085E-13
 -1      4194 1.21537E-02-2.18720E-04-1.22110E-13
 -1      4195 1.22965E-02-2.21596E-04-1.24851E-13
 -1      4196 1.20799E-02-1.80431E-04-1.20505E-13
 -1      4197 1.24394E-02-2.24455E-04-1.27608E-13
 -1      4198 1.25822E-02-2.27299E-04-1.30375E-13
 -1      4199 1.23655E-02-1.86086E-04-1.25983E-13
 -1      4200 1.27251E-02-2.30130E-04-1.33157E-13
 -1      4201 1.28680E-02-2.32950E-04-1.35952E-13
 -1      4202 1.26512E-02-1.91705E-04-1.31516E-13
 -1      4203 9.11909E-03 2.22896E-05-6.69990E-14
 -1      4204 8.98248E-03 2.31748E-05-6.47644E-14
 -1      4205 7.43761E-03 2.94920E-05-4.03654E-14
 -1      4206 7.40321E-03 5.63427E-06-3.96661E-14
 -1      4207 7.55764E-03 2.95598E-05-4.22234E-14
 -1      4208 8.84672E-03 2.39824E-05-6.25580E-14
 -1      4209 8.71185E-03 2.46700E-05-6.03803E-14
 -1      4210 8.91999E-03-7.22529E-06-6.38727E-14
 -1      4211 8.31371E-03 2.63153E-05-5.40302E-14
 -1      4212 8.18343E-03 2.67019E-05-5.19766E-14
 -1      4213 9.39449E-03 2.01761E-05-7.15544E-14
 -1      4214 9.25644E-03 2.12789E-05-6.92623E-14
 -1      4215 9.19235E-03-1.00858E-05-6.83474E-14
 -1      4216 9.67236E-03 1.76199E-05-7.62186E-14
 -1      4217 9.53315E-03 1.89475E-05-7.38721E-14
 -1      4218 9.46778E-03-1.32745E-05-7.29354E-14
 -1      4219 9.95222E-03 1.46237E-05-8.09882E-14
 -1      4220 9.81207E-03 1.61715E-05-7.85907E-14
 -1      4221 9.74572E-03-1.67907E-05-7.76298E-14
 -1      4222 1.02336E-02 1.12098E-05-8.58596E-14
 -1      4223 1.00928E-02 1.29641E-05-8.34124E-14
 -1      4224 1.00256E-02-2.06213E-05-8.24295E-14
 -1      4225 1.05163E-02 7.41397E-06-9.08263E-14
 -1      4226 1.03748E-02 9.35514E-06-8.83321E-14
 -1      4227 1.03071E-02-2.47433E-05-8.73303E-14
 -1      4228 1.07999E-02 3.27962E-06-9.58843E-14
 -1      4229 1.06580E-02 5.38507E-06-9.33438E-14
 -1      4230 1.05899E-02-2.91274E-05-9.23232E-14
 -1      4231 1.10841E-02-1.14671E-06-1.01029E-13
 -1      4232 1.09419E-02 1.09943E-06-9.84470E-14
 -1      4233 1.08735E-02-3.37407E-05-9.74063E-14
 -1      4234 1.13689E-02-5.81908E-06-1.06257E-13
 -1      4235 1.12265E-02-3.45516E-06-1.03633E-13
 -1      4236 1.11578E-02-3.85497E-05-1.02576E-13
 -1      4237 1.16541E-02-1.06944E-05-1.11561E-13
 -1      4238 1.15115E-02-8.23392E-06-1.08900E-13
 -1      4239 1.14426E-02-4.35223E-05-1.07826E-13
 -1      4240 1.19395E-02-1.57340E-05-1.16936E-13
 -1      4241 1.17968E-02-1.31958E-05-1.14240E-13
 -1      4242 1.17278E-02-4.86290E-05-1.13153E-13
 -1      4243 1.22251E-02-2.09039E-05-1.22368E-13
 -1      4244 1.20823E-02-1.83043E-05-1.19644E-13
 -1      4245 1.20132E-02-5.38434E-05-1.18545E-13
 -1      4246 1.25108E-02-2.61752E-05-1.27858E-13
 -1      4247 1.23679E-02-2.35283E-05-1.25106E-13
 -1      4248 1.22988E-02-5.91430E-05-1.23995E-13
 -1      4249 1.27776E-02-4.07465E-05-1.33096E-13
 -1      4250 1.26347E-02-3.80592E-05-1.30317E-13
 -1      4251 1.25656E-02-7.37183E-05-1.29195E-13
 -1      4252 1.28136E-02-9.75813E-05-1.34129E-13
 -1      4253 7.25352E-03-3.16396E-05-3.69936E-14
 -1      4254 7.29540E-03-4.96409E-05-3.77753E-14
 -1      4255 7.34755E-03-1.52056E-05-3.86531E-14
 -1      4256 8.57802E-03 2.53021E-05-5.82329E-14
 -1      4257 8.44525E-03 2.58228E-05-5.61166E-14
 -1      4258 8.65141E-03-4.68154E-06-5.95144E-14
 -1      4259 1.63968E-03 4.26856E-05-3.89150E-15
 -1      4260 1.32317E-02-2.29713E-04-1.43064E-13
 -1      4261 7.31000E-03-6.91027E-05-3.82151E-14
 -1      4262 7.34408E-03-9.20410E-05-3.91348E-14
 -1      4263 7.44365E-03-9.71083E-05-4.07995E-14
 -1      4264 7.41890E-03-5.50402E-05-3.99062E-14
 -1      4265 7.50894E-03-7.59830E-05-4.15734E-14
 -1      4266 1.30867E-02-1.45939E-04-1.39735E-13
 -1      4267 1.30109E-02-2.35760E-04-1.38762E-13
 -1      4268 1.31538E-02-2.38561E-04-1.41582E-13
 -1      4269 8.38739E-03-2.43706E-06-5.52776E-14
 -1      4270 7.45867E-03-1.54791E-05-4.04797E-14
 -1      4271 8.05462E-03 2.70870E-05-4.99538E-14
 -1      4272 7.92727E-03 2.73557E-05-4.79635E-14
 -1      4273 8.12889E-03-4.83709E-07-5.11622E-14
 -1      4274 1.29370E-02-1.97296E-04-1.37101E-13
 -1      4275 7.80170E-03 2.76422E-05-4.60075E-14
 -1      4276 7.67781E-03 2.77719E-05-4.40834E-14
 -1      4277 7.87709E-03 1.14637E-06-4.71776E-14
 -1      4278 7.63544E-03 3.87537E-06-4.33566E-14
 -1      4279 7.49219E-03-5.51109E-05-4.11188E-14
 -1      4280 7.67501E-03-3.87422E-05-4.40243E-14
 -1      4281 7.79412E-03-4.06132E-05-4.59475E-14
 -1      4282 7.91590E-03-4.23089E-05-4.79014E-14
 -1      4283 8.03987E-03-4.43361E-05-4.98885E-14
 -1      4284 8.16593E-03-4.62696E-05-5.19085E-14
 -1      4285 8.29375E-03-4.84268E-05-5.39601E-14
 -1      4286 8.42325E-03-5.05244E-05-5.60436E-14
 -1      4287 8.55417E-03-5.27842E-05-5.81582E-14
 -1      4288 8.68646E-03-5.50052E-05-6.03033E-14
 -1      4289 8.81992E-03-5.73487E-05-6.24765E-14
 -1      4290 8.95449E-03-5.96674E-05-6.46794E-14
 -1      4291 9.09003E-03-6.20810E-05-6.69143E-14
 -1      4292 9.22646E-03-6.44796E-05-6.91758E-14
 -1      4293 9.36369E-03-6.69527E-05-7.14641E-14
 -1      4294 9.50164E-03-6.94180E-05-7.37816E-14
 -1      4295 9.64022E-03-7.19420E-05-7.61256E-14
 -1      4296 9.77939E-03-7.44635E-05-7.84973E-14
 -1      4297 9.91906E-03-7.70312E-05-8.08918E-14
 -1      4298 1.00592E-02-7.96000E-05-8.33136E-14
 -1      4299 1.01997E-02-8.22051E-05-8.57602E-14
 -1      4300 1.03406E-02-8.48136E-05-8.82298E-14
 -1      4301 1.04818E-02-8.74503E-05-9.07233E-14
 -1      4302 1.06233E-02-9.00918E-05-9.32380E-14
 -1      4303 1.07650E-02-9.27551E-05-9.57762E-14
 -1      4304 1.09069E-02-9.54240E-05-9.83379E-14
 -1      4305 1.10489E-02-9.81094E-05-1.00919E-13
 -1      4306 1.11911E-02-1.00800E-04-1.03521E-13
 -1      4307 1.13335E-02-1.03504E-04-1.06145E-13
 -1      4308 1.14760E-02-1.06213E-04-1.08786E-13
 -1      4309 1.16185E-02-1.08931E-04-1.11445E-13
 -1      4310 1.17611E-02-1.11654E-04-1.14124E-13
 -1      4311 1.19038E-02-1.14384E-04-1.16821E-13
 -1      4312 1.20466E-02-1.17119E-04-1.19530E-13
 -1      4313 1.21893E-02-1.19858E-04-1.22255E-13
 -1      4314 1.23322E-02-1.22601E-04-1.24993E-13
 -1      4315 1.24750E-02-1.25347E-04-1.27747E-13
 -1      4316 1.25990E-02-1.37300E-04-1.30203E-13
 -1      4317 1.27419E-02-1.40059E-04-1.32981E-13
 -1      4318 1.31578E-02-1.91231E-04-1.41392E-13
 -1      4319 7.56095E-03-3.60808E-05-4.21674E-14
 -1      4320 1.28659E-02-1.52034E-04-1.35458E-13
 -1      4321 1.30088E-02-1.54800E-04-1.38263E-13
 -3
    1PSTEP                         2           1           1          
  100CL  101 1.000000000        4321                     0    1           1
 -4  STRESS      6    1
 -5  SXX         1    4    1    1
 -5  SYY         1    4    2    2
 -5  SZZ         1    4    3    3
 -5  SXY         1    4    1    2
 -5  SYZ         1    4    2    3
 -5  SZX         1    4    3    1
 -1         1 6.54542E+01 1.30183E+00 3.56876E+00-5.60273E+00-2.10248E-13 1.53867E-12
 -1         2-7.87645E-01-2.44655E+01-3.33353E+00-2.67539E-01 1.05904E-12 1.42452E-13
 -1         3 1.99999E+01 1.03813E-04-1.54848E-04 1.02028E-04-7.28740E-13-6.65448E-13
 -1         4 1.99999E+01 9.10271E-05-1.65388E-04-9.12931E-05 3.37761E-13-1.71510E-13
 -1         5 3.29699E+01 6.20495E+00 2.60128E+00 6.11039E+00-6.32203E-14 4.25135E-12
 -1         6 3.57342E+01 1.21863E+01 4.88659E+00-8.44467E+00-2.44083E-13 3.29463E-12
 -1         7 2.18263E+01 6.36863E+00-3.92269E-02-4.30769E+00-3.45279E-14 3.97425E-13
 -1         8 2.05296E+01 6.18041E+00 9.22217E-02-2.62237E+00-3.74284E-14-4.40694E-13
 -1         9 1.96931E+01 5.93297E+00 6.64156E-02-1.75026E+00-3.00003E-14-8.55323E-13
 -1        10 1.90598E+01 5.73895E+00 4.92382E-02-1.15249E+00-1.78885E-14-1.04196E-12
 -1        11 1.85369E+01 5.57957E+00 3.30780E-02-7.27149E-01-1.00510E-14-1.11746E-12
 -1        12 1.81252E+01 5.45427E+00 1.91908E-02-4.32957E-01-1.11022E-15-1.12628E-12
 -1        13 1.78303E+01 5.36499E+00 8.84692E-03-2.25434E-01 2.06953E-15-1.10843E-12
 -1        14 1.76808E+01 5.31979E+00 3.63862E-03-7.35424E-02 1.12796E-14-1.07837E-12
 -1        15 1.76880E+01 5.32197E+00 4.19727E-03 6.17634E-02 1.54017E-14-1.02921E-12
 -1        16 1.78499E+01 5.37093E+00 1.03907E-02 2.20159E-01 2.13284E-14-9.63959E-13
 -1        17 1.81523E+01 5.46222E+00 2.13553E-02 4.39619E-01 2.62897E-14-8.67104E-13
 -1        18 1.85641E+01 5.58756E+00 3.54374E-02 7.47809E-01 3.36814E-14-7.09981E-13
 -1        19 1.90816E+01 5.74557E+00 5.12694E-02 1.18946E+00 4.45130E-14-4.67851E-13
 -1        20 1.97028E+01 5.93710E+00 6.67808E-02 1.80241E+00 5.39742E-14-7.49023E-14
 -1        21 2.05188E+01 6.19182E+00 8.68874E-02 2.67432E+00 5.61495E-14 5.98798E-13
 -1        22 2.21014E+01 6.61607E+00 1.90113E-01 4.12222E+00 7.23033E-15 1.80954E-12
 -1        23 2.40171E+01-1.44380E+00-9.74304E-01-5.85972E-01-1.65829E-13 2.45666E-12
 -1        24 2.10909E+01-1.00024E-01-2.99989E-01 8.49104E-02-4.22848E-14 1.75435E-12
 -1        25 2.10190E+01-5.70420E-02-6.57298E-02 7.30985E-02-2.50854E-14 1.05512E-12
 -1        26 2.14293E+01-2.33422E-02-9.22472E-03 4.74690E-02-5.51967E-16 5.93327E-13
 -1        27 2.20854E+01-1.09601E-02-3.13993E-04 4.08502E-02 3.08250E-15 2.84885E-13
 -1        28 2.28494E+01-3.41174E-04 7.30206E-03 3.72066E-02-5.46049E-15 9.67299E-14
 -1        29 2.35769E+01 1.08361E-02 2.17505E-02 3.11620E-02-8.06874E-15-5.05828E-14
 -1        30 2.40826E+01 2.24909E-02 4.26130E-02 1.70262E-02-9.30788E-15-1.54758E-13
 -1        31 2.41406E+01 3.17799E-02 6.39836E-02-1.03833E-02 2.00573E-14-3.54775E-13
 -1        32 2.35400E+01 3.31483E-02 7.25940E-02-5.17000E-02-5.67879E-14-6.58099E-13
 -1        33 2.22097E+01 2.08320E-02 5.14933E-02-9.64448E-02 4.41973E-14-7.51409E-13
 -1        34 2.03780E+01-5.63022E-03-6.48449E-03-1.20047E-01-3.75386E-14-8.13946E-13
 -1        35 1.86313E+01-3.65542E-02-8.10160E-02-9.62088E-02 4.62989E-14-1.00025E-12
 -1        36 1.77081E+01-5.50687E-02-1.27842E-01-2.33403E-02-1.56784E-14-1.10914E-12
 -1        37 1.80674E+01-4.93750E-02-1.13373E-01 6.32659E-02-5.48043E-15-1.28337E-12
 -1        38 1.95681E+01-2.32596E-02-4.85772E-02 1.16729E-01-3.00929E-14-1.58319E-12
 -1        39 2.15715E+01 7.54503E-03 2.27637E-02 1.17467E-01-2.00764E-14-1.87565E-12
 -1        40 2.33646E+01 2.83619E-02 6.45692E-02 8.15417E-02-1.73811E-14-1.89306E-12
 -1        41 2.45151E+01 3.43723E-02 7.03210E-02 3.72045E-02 8.25512E-15-2.00295E-12
 -1        42 2.49442E+01 2.93432E-02 5.39303E-02 3.15652E-03-1.64235E-15-1.95802E-12
 -1        43 2.48000E+01 1.96287E-02 3.16891E-02-1.57488E-02 3.13649E-15-1.55802E-12
 -1        44 2.43012E+01 9.98728E-03 1.30703E-02-2.25856E-02 1.86488E-14-1.33672E-12
 -1        45 2.36410E+01 2.63230E-03 9.05547E-04-2.23015E-02-2.36745E-14-1.46646E-12
 -1        46 2.29533E+01-2.05530E-03-5.56852E-03-1.88335E-02-3.00787E-14-1.54721E-12
 -1        47 2.23154E+01-4.54659E-03-8.17698E-03-1.45342E-02 3.52739E-14-1.22488E-12
 -1        48 2.17636E+01-5.51786E-03-8.55759E-03-1.05367E-02 7.85997E-14-1.00845E-12
 -1        49 2.13080E+01-5.56105E-03-7.83561E-03-7.25422E-03 2.84709E-14-8.89841E-13
 -1        50 2.09447E+01-5.10445E-03-6.67895E-03-4.74252E-03 2.14621E-14-9.94408E-13
 -1        51 2.06629E+01-4.42549E-03-5.44332E-03-2.90999E-03 1.69472E-14-9.05965E-13
 -1        52 2.04495E+01-3.68930E-03-4.29794E-03-1.62279E-03 3.13275E-14-8.22014E-13
 -1        53 2.02918E+01-2.98602E-03-3.30975E-03-7.50835E-04-1.07412E-13-9.94522E-13
 -1        54 2.01778E+01-2.35914E-03-2.49344E-03-1.84098E-04 9.49797E-14-1.29884E-12
 -1        55 2.00978E+01-1.82468E-03-1.83909E-03 1.64452E-04-1.48135E-13-1.22275E-12
 -1        56 2.00433E+01-1.38334E-03-1.32670E-03 3.61061E-04-1.53633E-14-1.52169E-12
 -1        57 2.00077E+01-1.02797E-03-9.33565E-04 4.54902E-04-1.15637E-14-1.05834E-12
 -1        58 1.99859E+01-7.47929E-04-6.37731E-04 4.81761E-04 2.34242E-14-1.11399E-12
 -1        59 1.99737E+01-5.31570E-04-4.19541E-04 4.67213E-04 1.76871E-14-9.40818E-13
 -1        60 1.99682E+01-3.67590E-04-2.62132E-04 4.29177E-04-7.45999E-14-6.92162E-13
 -1        61 1.99671E+01-2.45711E-04-1.51450E-04 3.79911E-04 7.03416E-14-5.46825E-13
 -1        62 1.99688E+01-1.56944E-04-7.60137E-05 3.27552E-04-5.59201E-14-4.72741E-13
 -1        63 1.99721E+01-9.36321E-05-2.65687E-05 2.77271E-04-4.13445E-14-4.19374E-13
 -1        64 1.99763E+01-4.93485E-05 4.31067E-06 2.32128E-04-1.62365E-13-5.06223E-13
 -1        65 1.99808E+01-1.87251E-05 2.26788E-05 1.93660E-04-4.53989E-14-9.13165E-13
 -1        66 1.99853E+01 2.73569E-06 3.37634E-05 1.62208E-04 2.42997E-14-1.04790E-12
 -1        67 1.99895E+01 1.88837E-05 4.28617E-05 1.36923E-04 7.31481E-14-1.06039E-12
 -1        68 1.99933E+01 3.29562E-05 5.59979E-05 1.15235E-04-2.75792E-14-7.27266E-13
 -1        69 1.99964E+01 4.66187E-05 7.89647E-05 9.04877E-05 7.91912E-14-4.81007E-13
 -1        70 1.99988E+01 5.04215E-05 1.00596E-04 4.11169E-05 1.17711E-14 2.33314E-13
 -1        71 1.99999E+01-9.83067E-06 4.07744E-05-3.53089E-05-1.34472E-13 6.90957E-14
 -1        72 2.20449E+01-4.11704E-01-1.00248E+00-3.60827E-01 3.94511E-14 4.04241E-12
 -1        73 2.10362E+01-6.54704E-02-2.81256E-01-6.74109E-02 3.12766E-14 3.31492E-12
 -1        74 2.09773E+01-2.08010E-02-6.08161E-02-2.92303E-02 1.77951E-14 2.77134E-12
 -1        75 2.13532E+01-9.35607E-03-1.04245E-02-2.58274E-02 1.33190E-14 2.41160E-12
 -1        76 2.19598E+01-1.95488E-03 1.07464E-03-2.72228E-02-7.43898E-15 2.22655E-12
 -1        77 2.26540E+01 5.17972E-03 9.93760E-03-3.04924E-02-5.90897E-16 2.07564E-12
 -1        78 2.32911E+01 1.26106E-02 2.42006E-02-3.26184E-02 1.68268E-16 1.97024E-12
 -1        79 2.36938E+01 1.90601E-02 4.31568E-02-2.89232E-02 2.81958E-14 1.78350E-12
 -1        80 2.36577E+01 2.14392E-02 6.05217E-02-1.34829E-02 2.00907E-14 1.65803E-12
 -1        81 2.30074E+01 1.59521E-02 6.41603E-02 1.76836E-02 3.50154E-14 1.49880E-12
 -1        82 2.17104E+01 1.18926E-03 4.04242E-02 6.01026E-02-1.15175E-14 1.54618E-12
 -1        83 2.00056E+01-1.83099E-02-1.35578E-02 9.57497E-02 1.87130E-14 1.59947E-12
 -1        84 1.84311E+01-3.25534E-02-7.77526E-02 9.90284E-02 4.42008E-15 1.45919E-12
 -1        85 1.76317E+01-3.32156E-02-1.15074E-01 5.71654E-02-3.85109E-16 1.21213E-12
 -1        86 1.79918E+01-2.06028E-02-1.00260E-01-1.18906E-02 1.16237E-14 7.34964E-13
 -1        87 1.93764E+01-2.49687E-03-4.37111E-02-7.10275E-02-5.83276E-14 6.23366E-13
 -1        88 2.12266E+01 1.22873E-02 1.86366E-02-9.40336E-02 1.01697E-14 7.49158E-13
 -1        89 2.29124E+01 1.94332E-02 5.67896E-02-8.18704E-02 3.67027E-14 4.38167E-13
 -1        90 2.40372E+01 1.93254E-02 6.41455E-02-5.24647E-02-2.90626E-14 3.68261E-13
 -1        91 2.45097E+01 1.49063E-02 5.12769E-02-2.29487E-02-5.26788E-14 5.17302E-13
 -1        92 2.44456E+01 9.19732E-03 3.17558E-02-1.73781E-03 2.10349E-14 4.29557E-13
 -1        93 2.40344E+01 4.13915E-03 1.44551E-02 1.01099E-02 1.54563E-14 3.64193E-13
 -1        94 2.34520E+01 4.85425E-04 2.54511E-03 1.48838E-02 1.67917E-14-2.69940E-14
 -1        95 2.28256E+01-1.75251E-03-4.20165E-03 1.53839E-02 8.54718E-15-3.55305E-13
 -1        96 2.22323E+01-2.88083E-03-7.22141E-03 1.37602E-02-6.57299E-14 1.62252E-13
 -1        97 2.17112E+01-3.25884E-03-7.96793E-03 1.13525E-02 3.00043E-14 3.73261E-13
 -1        98 2.12759E+01-3.18599E-03-7.51157E-03 8.88054E-03-8.62093E-14 3.92861E-13
 -1        99 2.09254E+01-2.87573E-03-6.52526E-03 6.67449E-03-2.71280E-14 1.80607E-13
 -1       100 2.06516E+01-2.46576E-03-5.38840E-03 4.84767E-03-2.90861E-14 1.97066E-13
 -1       101 2.04431E+01-2.03793E-03-4.29430E-03 3.40521E-03-4.07538E-14 2.77280E-13
 -1       102 2.02882E+01-1.63669E-03-3.32858E-03 2.30507E-03 6.38216E-16 1.90768E-13
 -1       103 2.01760E+01-1.28304E-03-2.51873E-03 1.48983E-03-1.67407E-14 1.02367E-13
 -1       104 2.00969E+01-9.84075E-04-1.86285E-03 9.01833E-04 3.89657E-14 1.68290E-13
 -1       105 2.00429E+01-7.39049E-04-1.34566E-03 4.89670E-04 3.29693E-14-3.08922E-14
 -1       106 2.00076E+01-5.43236E-04-9.46993E-04 2.10195E-04-3.58065E-15-5.31104E-14
 -1       107 1.99859E+01-3.90171E-04-6.46148E-04 2.85557E-05 1.15621E-14-5.47629E-14
 -1       108 1.99739E+01-2.72971E-04-4.23945E-04-8.26596E-05-4.72823E-14-4.05628E-13
 -1       109 1.99684E+01-1.85042E-04-2.63602E-04-1.44559E-04 1.23584E-13-2.98783E-13
 -1       110 1.99673E+01-1.20437E-04-1.50947E-04-1.73102E-04-5.17546E-14-2.93483E-13
 -1       111 1.99690E+01-7.39812E-05-7.43058E-05-1.80150E-04-1.10586E-13 3.41019E-14
 -1       112 1.99723E+01-4.12747E-05-2.42223E-05-1.74384E-04 1.42412E-14 5.95241E-14
 -1       113 1.99764E+01-1.86181E-05 6.91488E-06-1.62058E-04 1.26815E-13-4.87438E-13
 -1       114 1.99809E+01-2.89429E-06 2.53165E-05-1.47602E-04-1.99020E-13-1.54770E-13
 -1       115 1.99854E+01 8.56227E-06 3.63831E-05-1.34057E-04 7.95852E-14 4.13639E-13
 -1       116 1.99896E+01 1.80039E-05 4.55679E-05-1.23196E-04 2.40998E-14-7.87696E-14
 -1       117 1.99934E+01 2.73199E-05 5.93464E-05-1.15187E-04 2.03998E-14-8.33530E-13
 -1       118 1.99965E+01 3.69592E-05 8.35216E-05-1.07014E-04-7.70804E-15-1.16676E-12
 -1       119 1.99988E+01 4.11514E-05 1.07171E-04-8.15920E-05 6.13848E-14-1.43960E-12
 -1       120 1.99999E+01-3.57253E-05 2.66948E-05 6.96885E-06 2.27446E-13-1.29162E-12
 -1       121 1.99998E+01-8.73043E-06 2.76650E-05 3.29476E-05-9.61764E-13 2.99082E-13
 -1       122 1.99998E+01-1.06037E-03 9.12684E-05-5.59958E-05 1.78970E-14-1.76346E-13
 -1       123 1.99998E+01-3.20272E-03 4.64222E-05-9.57865E-05 4.11680E-13 1.66032E-13
 -1       124 1.99998E+01-5.79774E-03-7.09291E-07-1.01242E-04-9.05952E-14-1.65075E-13
 -1       125 1.99998E+01-8.36659E-03-3.41952E-05-8.84488E-05-1.19488E-12-2.37793E-13
 -1       126 1.99998E+01-1.05318E-02-5.58275E-05-6.81037E-05-9.78984E-13 1.38337E-13
 -1       127 1.99998E+01-1.21228E-02-6.81619E-05-4.21955E-05-6.15088E-13-4.77188E-14
 -1       128 1.99998E+01-1.29509E-02-7.39331E-05-1.41279E-05-1.62000E-12 1.69754E-15
 -1       129 1.99998E+01-1.29446E-02-7.39156E-05 1.45496E-05-1.40693E-12-4.38571E-15
 -1       130 1.99998E+01-1.21042E-02-6.81123E-05 4.25601E-05-1.52686E-12-1.61232E-14
 -1       131 1.99998E+01-1.05024E-02-5.52103E-05 6.92165E-05-1.85075E-12-1.30647E-13
 -1       132 1.99998E+01-8.33004E-03-3.41101E-05 8.88516E-05-1.64746E-12 6.83349E-14
 -1       133 1.99998E+01-5.75686E-03-5.62296E-07 1.01111E-04-1.53386E-12 3.03751E-13
 -1       134 1.99998E+01-3.15699E-03 5.08674E-05 1.02608E-04-1.29133E-12 8.32109E-15
 -1       135 1.99998E+01-1.06855E-03 7.91862E-05 7.80031E-05-4.14471E-13-4.94493E-15
 -1       136 1.99998E+01-4.20107E-05 2.31523E-05-7.86356E-05-1.28255E-13 1.27477E-13
 -1       137-1.47847E+00-1.91102E+01-3.00584E+00-3.68698E+00 3.05977E-12 7.84706E-13
 -1       138-1.43585E+00-7.69870E+00-2.20919E+00-2.72653E+00 4.66199E-12 2.31465E-12
 -1       139 4.06661E+00 4.27437E+00-9.32972E-01 4.46324E+00 4.72927E-12 3.61322E-12
 -1       140 1.95954E+01 1.07791E+01 6.82387E-01 1.43414E+01 3.50719E-12 4.31166E-12
 -1       141 3.83785E+01 9.27302E+00 2.02890E+00 1.83093E+01 1.97936E-12 3.76987E-12
 -1       142 5.69385E+01 4.26104E+00 3.11877E+00 1.39213E+01 6.21669E-13 2.05996E-12
 -1       143 6.64295E+01 8.95095E-01 3.61455E+00 1.39640E+00 1.98522E-14-7.13721E-13
 -1       144 6.07623E+01 3.00261E+00 3.32557E+00-1.16463E+01 6.52617E-13-2.92102E-12
 -1       145 4.37600E+01 8.31404E+00 2.40892E+00-1.82222E+01 1.93348E-12-4.28790E-12
 -1       146 2.22833E+01 1.12275E+01 9.60235E-01-1.56028E+01 3.38507E-12-4.58711E-12
 -1       147 6.80805E+00 7.05405E+00-5.41385E-01-7.08004E+00 4.04393E-12-3.57298E-12
 -1       148-6.09555E-01-3.58818E+00-1.86653E+00 1.13084E+00 3.66224E-12-2.09238E-12
 -1       149-1.74135E+00-1.60788E+01-2.85371E+00 4.31297E+00 2.25769E-12-7.51912E-13
 -1       150-8.56553E-01-2.39369E+01-3.35953E+00 1.75105E+00-9.65894E-14-5.69267E-14
 -1       151-1.19926E+00-2.27297E+01-3.27864E+00-2.73139E+00-2.49606E-12-4.43284E-13
 -1       152-1.72659E+00-1.27237E+01-2.61367E+00-3.72385E+00-4.23739E-12-1.60896E-12
 -1       153 9.30493E-01 2.91765E-01-1.46887E+00 1.12418E+00-4.67837E-12-3.07820E-12
 -1       154 1.18431E+01 9.44431E+00 1.75057E-03 1.05605E+01-4.09101E-12-4.15579E-12
 -1       155 2.92826E+01 1.07508E+01 1.46263E+00 1.73174E+01-2.71599E-12-4.24671E-12
 -1       156 5.03216E+01 6.57029E+00 2.77404E+00 1.70703E+01-1.15008E-12-2.98539E-12
 -1       157 6.42853E+01 1.77450E+00 3.52029E+00 7.91622E+00-1.66239E-13-1.04594E-12
 -1       158 5.32404E+01 5.45065E+00 2.90216E+00-1.59500E+01-1.21675E-12 3.75905E-12
 -1       159 3.34199E+01 1.02254E+01 1.71751E+00-1.80738E+01-2.81469E-12 4.76508E-12
 -1       160 1.48240E+01 1.01745E+01 2.79494E-01-1.22173E+01-3.85758E-12 4.41275E-12
 -1       161 2.35149E+00 2.58250E+00-1.20294E+00-2.80587E+00-3.99086E-12 2.92122E-12
 -1       162-1.68036E+00-9.31120E+00-2.35967E+00 3.36685E+00-3.10019E-12 1.38248E-12
 -1       163-1.33275E+00-2.02809E+01-3.09856E+00 3.84551E+00-1.28353E-12 3.48780E-13
 -1       164 2.21249E+01 3.66195E+00-5.01421E-02-2.98567E+00-5.02740E-13-9.25995E-15
 -1       165 2.08043E+01 4.25306E+00-4.16457E-02-2.08172E+00-4.31576E-13-5.15286E-13
 -1       166 1.98854E+01 4.57012E+00-2.98250E-02-1.42420E+00-3.12532E-13-7.74042E-13
 -1       167 1.91662E+01 4.74053E+00-2.17838E-02-9.38509E-01-2.00026E-13-8.99668E-13
 -1       168 1.85927E+01 4.84658E+00-1.66124E-02-5.89396E-01-1.02670E-13-9.30589E-13
 -1       169 1.81527E+01 4.91572E+00-1.37254E-02-3.36654E-01-7.39383E-15-9.35356E-13
 -1       170 1.78804E+01 4.95435E+00-1.21569E-02-1.54559E-01 8.43717E-14-9.08918E-13
 -1       171 1.77943E+01 4.96441E+00-1.16882E-02-7.16794E-03 1.69300E-13-8.77359E-13
 -1       172 1.79000E+01 4.94656E+00-1.22606E-02 1.43629E-01 2.43561E-13-8.25528E-13
 -1       173 1.81872E+01 4.90131E+00-1.39461E-02 3.35227E-01 3.26841E-13-7.53510E-13
 -1       174 1.86247E+01 4.82874E+00-1.70067E-02 5.96099E-01 3.95590E-13-6.41496E-13
 -1       175 1.92051E+01 4.71793E+00-2.21420E-02 9.64830E-01 4.79343E-13-4.50473E-13
 -1       176 1.99178E+01 4.54237E+00-3.10270E-02 1.46814E+00 5.51103E-13-1.67840E-13
 -1       177 2.08261E+01 4.22346E+00-4.33833E-02 2.13739E+00 5.77573E-13 2.94764E-13
 -1       178 2.22193E+01 3.44042E+00-5.31942E-02 2.94670E+00 5.02662E-13 1.05754E-12
 -1       179 2.35621E+01 1.07692E+00-3.30325E-01 2.58282E+00 3.30205E-13 2.02330E-12
 -1       180 2.32947E+01 8.17455E-01 1.89566E-03-1.48556E+00-4.46698E-13 6.42649E-13
 -1       181 2.21560E+01 1.82841E-01-8.02237E-03-2.96128E-01-4.01446E-13 4.35453E-13
 -1       182 2.18190E+01 1.10653E-01 1.40630E-02 1.91570E-01-2.78282E-13 2.67205E-13
 -1       183 2.19447E+01 5.60429E-02 9.24462E-03 4.32730E-01-1.91854E-13 1.07124E-13
 -1       184 2.22940E+01 1.51270E-02 3.27473E-03 5.41204E-01-1.27761E-13 3.39295E-14
 -1       185 2.27342E+01-3.29897E-02-6.80861E-04 5.31148E-01-1.06712E-13-1.16248E-14
 -1       186 2.31427E+01-9.48108E-02-3.01435E-03 3.81540E-01-5.12030E-14-3.11981E-14
 -1       187 2.33911E+01-1.64128E-01-3.81386E-03 6.96433E-02-9.37349E-14-4.03575E-14
 -1       188 2.33530E+01-2.15326E-01-2.77417E-03-3.90428E-01-1.06529E-13-3.24200E-14
 -1       189 2.29426E+01-2.02642E-01-4.83117E-04-9.00065E-01-9.17010E-14 5.39499E-16
 -1       190 2.21839E+01-8.25161E-02 1.60970E-03-1.25297E+00-9.75819E-14-2.44373E-13
 -1       191 2.12771E+01 1.32651E-01 1.74725E-03-1.20065E+00-1.35201E-13-3.77465E-13
 -1       192 2.05813E+01 3.37401E-01 3.24517E-04-6.34008E-01-1.24928E-13-5.35502E-13
 -1       193 2.04418E+01 3.93003E-01-1.45981E-04 2.54096E-01-1.25602E-13-6.40862E-13
 -1       194 2.09527E+01 2.57365E-01 1.10738E-03 1.04306E+00-2.74411E-13-7.79414E-13
 -1       195 2.18831E+01 3.04727E-02 1.95150E-03 1.38519E+00-1.49571E-13-9.22179E-13
 -1       196 2.28514E+01-1.49128E-01 7.49220E-04 1.23193E+00-8.74409E-14-9.90809E-13
 -1       197 2.35567E+01-2.18225E-01-1.83231E-03 7.79892E-01-2.25662E-14-9.87252E-13
 -1       198 2.38791E+01-1.97039E-01-3.88939E-03 2.72680E-01-2.77469E-15-9.34462E-13
 -1       199 2.38465E+01-1.35546E-01-4.41280E-03-1.33511E-01 1.52819E-13-9.27064E-13
 -1       200 2.35577E+01-7.20797E-02-3.67449E-03-3.88255E-01 1.22801E-13-8.84041E-13
 -1       201 2.31223E+01-2.38857E-02-2.34042E-03-5.07038E-01-1.98421E-14-7.19154E-13
 -1       202 2.26305E+01 6.29436E-03-9.94373E-04-5.29427E-01 8.05655E-14-5.27004E-13
 -1       203 2.21441E+01 2.20334E-02 4.58479E-05-4.94467E-01 9.28310E-14-4.46089E-13
 -1       204 2.16997E+01 2.81423E-02 7.06766E-04-4.31543E-01-4.00645E-15-5.35973E-13
 -1       205 2.13146E+01 2.86061E-02 1.04202E-03-3.59643E-01 6.15767E-14-6.45356E-13
 -1       206 2.09934E+01 2.61652E-02 1.14591E-03-2.89632E-01-1.49931E-14-6.76635E-13
 -1       207 2.07336E+01 2.25072E-02 1.10736E-03-2.26918E-01 3.73013E-14-6.28213E-13
 -1       208 2.05287E+01 1.85858E-02 9.93517E-04-1.73576E-01 5.60382E-14-5.61360E-13
 -1       209 2.03707E+01 1.48921E-02 8.48900E-04-1.29817E-01-7.01231E-14-5.45003E-13
 -1       210 2.02514E+01 1.16451E-02 7.00209E-04-9.48987E-02-8.58227E-14-3.67361E-13
 -1       211 2.01632E+01 8.91262E-03 5.61869E-04-6.76715E-02-5.97914E-14-3.50040E-13
 -1       212 2.00996E+01 6.68331E-03 4.40538E-04-4.68791E-02-1.30819E-13-3.19048E-13
 -1       213 2.00549E+01 4.90844E-03 3.38275E-04-3.13180E-02 2.29110E-13-2.10553E-13
 -1       214 2.00245E+01 3.52481E-03 2.54602E-04-1.99115E-02-9.49496E-14-4.18847E-13
 -1       215 2.00046E+01 2.46716E-03 1.87763E-04-1.17372E-02-1.16626E-14-4.72643E-13
 -1       216 1.99925E+01 1.67437E-03 1.35474E-04-6.02914E-03 8.81219E-14-5.60707E-13
 -1       217 1.99858E+01 1.09224E-03 9.53480E-05-2.16639E-03 1.10992E-13-2.54978E-13
 -1       218 1.99828E+01 6.74334E-04 6.51145E-05 3.43832E-04-8.92188E-14-2.84719E-13
 -1       219 1.99823E+01 3.81827E-04 4.27268E-05 1.88457E-03 1.28539E-14-2.40056E-13
 -1       220 1.99834E+01 1.82706E-04 2.63952E-05 2.74697E-03-1.14631E-13-2.43602E-13
 -1       221 1.99854E+01 5.06906E-05 1.45848E-05 3.14608E-03-4.67208E-14-2.33106E-14
 -1       222 1.99879E+01-3.60413E-05 6.01684E-06 3.23395E-03-4.43056E-14 7.25963E-14
 -1       223 1.99906E+01-9.62907E-05-3.12406E-07 3.10962E-03 8.39864E-14 2.36606E-14
 -1       224 1.99932E+01-1.47217E-04-4.78616E-06 2.82602E-03 1.60081E-13 3.78808E-14
 -1       225 1.99955E+01-2.06629E-04-7.08427E-06 2.39405E-03 1.04971E-13-1.23428E-13
 -1       226 1.99974E+01-2.93187E-04-7.70445E-06 1.78788E-03 3.10497E-13-2.96854E-13
 -1       227 1.99988E+01-4.05186E-04-4.76997E-06 9.84699E-04-6.75195E-14 4.43873E-14
 -1       228 2.24455E+01 2.61085E-01-4.65449E-02 7.68757E-01 3.69871E-13 1.77181E-12
 -1       229 2.17753E+01 1.26313E-01 9.69723E-03 6.25761E-02 2.84146E-13 1.47620E-12
 -1       230 2.17172E+01 6.29999E-02 1.21959E-02-2.39150E-01 1.83247E-13 1.25014E-12
 -1       231 2.19692E+01 2.80909E-02 6.32295E-03-3.85100E-01 1.05004E-13 1.08851E-12
 -1       232 2.23668E+01-2.66887E-03 2.33169E-03-4.28271E-01 1.01297E-13 9.89304E-13
 -1       233 2.27797E+01-3.94357E-02 8.24501E-04-3.67447E-01 5.19363E-14 9.13299E-13
 -1       234 2.30786E+01-8.34279E-02 1.17543E-03-1.85847E-01 1.08513E-13 8.87161E-13
 -1       235 2.31328E+01-1.25683E-01 2.75293E-03 1.21997E-01 6.30372E-14 8.27117E-13
 -1       236 2.28357E+01-1.43976E-01 4.36812E-03 5.16742E-01 7.38472E-15 8.03022E-13
 -1       237 2.21611E+01-1.08157E-01 3.98347E-03 8.83590E-01-9.73332E-15 9.28220E-13
 -1       238 2.12310E+01-2.96583E-03-1.03433E-04 1.04138E+00 5.23518E-14 8.53536E-13
 -1       239 2.03373E+01 1.41088E-01-6.44863E-03 8.30904E-01 1.51493E-13 7.27931E-13
 -1       240 1.98487E+01 2.44845E-01-1.02730E-02 2.55426E-01 2.27756E-13 4.95539E-13
 -1       241 2.00086E+01 2.37254E-01-7.85476E-03-4.55011E-01 1.89670E-13 2.66315E-13
 -1       242 2.07659E+01 1.25578E-01-9.85057E-04-9.78002E-01 3.93726E-14 1.11133E-13
 -1       243 2.18131E+01-1.54137E-02 4.78891E-03-1.12060E+00-4.51570E-15-4.77448E-14
 -1       244 2.27839E+01-1.11480E-01 6.06642E-03-9.16082E-01 1.25128E-13-1.62691E-14
 -1       245 2.34360E+01-1.40109E-01 3.76583E-03-5.36001E-01-1.85034E-14 1.58419E-14
 -1       246 2.36990E+01-1.20049E-01 6.55812E-04-1.50613E-01-9.58977E-14-1.00568E-13
 -1       247 2.36254E+01-8.05408E-02-1.45761E-03 1.43312E-01 2.36714E-14 1.68023E-14
 -1       248 2.33199E+01-4.20356E-02-2.15733E-03 3.21293E-01 3.52693E-14 1.40347E-13
 -1       249 2.28884E+01-1.32516E-02-1.89108E-03 4.00198E-01 1.83632E-13 3.70381E-14
 -1       250 2.24141E+01 4.78350E-03-1.22944E-03 4.10300E-01 7.91622E-14-3.94125E-14
 -1       251 2.19527E+01 1.42697E-02-5.54361E-04 3.79896E-01-2.48140E-13 8.50073E-14
 -1       252 2.15357E+01 1.80006E-02-3.52961E-05 3.29990E-01-6.90340E-14 1.52251E-13
 -1       253 2.11775E+01 1.82987E-02 2.95705E-04 2.74146E-01-9.20011E-14 2.21242E-13
 -1       254 2.08812E+01 1.67875E-02 4.68640E-04 2.20167E-01 4.73038E-14 3.25470E-13
 -1       255 2.06433E+01 1.44901E-02 5.29948E-04 1.71960E-01-7.34369E-14 3.45820E-13
 -1       256 2.04571E+01 1.20007E-02 5.21693E-04 1.31027E-01 1.49720E-14 1.51015E-13
 -1       257 2.03147E+01 9.63533E-03 4.75285E-04 9.75002E-02 3.47850E-15 1.14062E-13
 -1       258 2.02082E+01 7.54198E-03 4.11732E-04 7.08021E-02-2.45805E-14 2.01512E-13
 -1       259 2.01305E+01 5.77156E-03 3.43973E-04 5.00442E-02 7.64243E-14 1.51939E-13
 -1       260 2.00752E+01 4.32239E-03 2.79339E-04 3.42542E-02 1.08629E-13 1.13938E-13
 -1       261 2.00370E+01 3.16659E-03 2.21521E-04 2.24975E-02-8.19185E-14 9.97220E-14
 -1       262 2.00116E+01 2.26525E-03 1.71970E-04 1.39366E-02 2.02801E-13 1.40908E-13
 -1       263 1.99956E+01 1.57691E-03 1.30826E-04 7.85335E-03 8.18818E-14-2.41137E-13
 -1       264 1.99864E+01 1.06210E-03 9.75105E-05 3.65189E-03-3.76567E-14-1.75187E-13
 -1       265 1.99818E+01 6.85393E-04 7.10986E-05 8.49999E-04-4.73941E-14-1.03537E-13
 -1       266 1.99805E+01 4.16260E-04 5.05376E-05-9.33647E-04-1.93179E-13 1.36141E-14
 -1       267 1.99811E+01 2.29016E-04 3.47730E-05-1.99396E-03 1.18321E-13 1.57064E-13
 -1       268 1.99830E+01 1.02380E-04 2.28163E-05-2.55337E-03 2.17047E-13 1.99498E-13
 -1       269 1.99856E+01 1.87514E-05 1.37916E-05-2.77410E-03-4.70581E-13 1.64544E-13
 -1       270 1.99884E+01-3.67052E-05 7.00570E-06-2.76819E-03 1.09754E-13 1.57864E-13
 -1       271 1.99913E+01-7.72104E-05 2.14393E-06-2.60467E-03 3.55477E-13 2.08762E-13
 -1       272 1.99940E+01-1.15314E-04-2.14028E-07-2.31382E-03 3.22098E-13-4.88573E-14
 -1       273 1.99963E+01-1.63613E-04 1.41824E-06-1.89060E-03 4.68055E-14-8.77741E-14
 -1       274 1.99981E+01-2.41537E-04 2.05974E-06-1.29811E-03-3.77635E-14 1.11475E-14
 -1       275 1.99993E+01-2.95612E-04-4.06195E-06-5.37372E-04-8.33602E-14 5.17056E-14
 -1       276 1.99994E+01-1.02356E-03-5.58832E-06-9.99110E-04-1.20397E-13 5.63031E-13
 -1       277 1.99996E+01-2.35476E-03-2.53150E-06-1.66119E-03-4.52052E-14 1.15603E-13
 -1       278 1.99997E+01-4.00323E-03-1.20807E-06-1.97701E-03-5.50874E-14-3.11784E-13
 -1       279 1.99999E+01-5.73961E-03 1.34274E-06-1.95636E-03 2.93493E-14-4.33935E-13
 -1       280 2.00000E+01-7.31170E-03 4.81584E-06-1.68064E-03-8.93146E-14-1.67577E-13
 -1       281 2.00000E+01-8.58943E-03 7.66909E-06-1.21610E-03-3.84371E-13-7.02980E-14
 -1       282 2.00000E+01-9.40653E-03 9.54325E-06-6.33782E-04-3.52507E-13-4.19707E-13
 -1       283 2.00001E+01-9.68478E-03 1.01813E-05 4.82248E-06-2.73733E-13 9.19062E-14
 -1       284 2.00000E+01-9.39820E-03 9.54958E-06 6.43117E-04-3.70803E-13-2.04601E-13
 -1       285 2.00000E+01-8.57324E-03 7.65177E-06 1.22469E-03-4.57160E-13-2.23291E-13
 -1       286 2.00000E+01-7.31514E-03 4.57617E-06 1.68120E-03-4.83413E-13 2.49732E-13
 -1       287 1.99999E+01-5.71320E-03 1.24229E-06 1.95893E-03-3.29605E-13 1.42600E-13
 -1       288 1.99997E+01-3.97697E-03-1.73299E-06 1.97576E-03-1.65683E-13 2.95981E-13
 -1       289 1.99996E+01-2.33582E-03-6.19744E-06 1.63658E-03-1.12059E-13 2.20476E-13
 -1       290 1.99992E+01-1.28165E-03-8.42690E-06 1.50553E-03-2.05071E-15 1.81262E-13
 -1       291-3.41539E-01-8.69530E+00-6.17606E-01 1.74220E+00 6.77430E-13 1.24939E-12
 -1       292 3.19050E+00-8.15000E+00-7.17526E-01 3.72829E+00 1.42450E-12 1.48610E-12
 -1       293 1.02261E+01-4.76528E+00-4.34648E-01 5.84295E+00 1.78407E-12 1.55040E-12
 -1       294 2.19287E+01-2.17089E+00-3.43308E-02 6.61993E+00 1.36918E-12 1.18852E-12
 -1       295 3.09762E+01 2.98730E+00 3.80674E-01 7.36307E+00 1.76459E-12 1.52167E-12
 -1       296 3.96434E+01 5.14012E+00 7.07954E-01 5.39610E+00 1.46831E-12 9.29590E-13
 -1       297 4.46532E+01 6.75208E+00 8.72281E-01 1.93203E+00 1.32591E-12 1.75845E-13
 -1       298 4.66381E+01 6.62414E+00 1.03600E+00-1.67130E+00 1.13506E-12-6.89539E-13
 -1       299 4.16471E+01 5.71604E+00 8.08350E-01-4.73480E+00 1.20985E-12-1.19449E-12
 -1       300 3.31849E+01 3.41515E+00 4.73840E-01-6.99129E+00 1.41165E-12-1.42159E-12
 -1       301 2.24075E+01 4.73138E-01 5.61386E-02-7.60538E+00 1.55589E-12-1.77092E-12
 -1       302 1.29483E+01-3.70308E+00-3.50391E-01-6.38592E+00 1.27695E-12-1.61883E-12
 -1       303 4.76725E+00-7.36594E+00-7.27987E-01-4.18187E+00 9.53460E-13-1.35411E-12
 -1       304 9.86137E-02-1.02949E+01-9.56326E-01-1.98680E+00 2.13218E-13-1.24389E-12
 -1       305-1.17499E+00-9.98884E+00-8.28023E-01 2.77118E-01-4.78048E-13-1.21661E-12
 -1       306 1.83106E+00-8.18484E+00-5.81228E-01 3.52065E+00-8.64253E-13-1.26135E-12
 -1       307 6.86582E+00-6.23117E+00-6.33148E-01 4.81056E+00-1.78335E-12-1.46003E-12
 -1       308 1.66898E+01-2.64209E+00-1.97075E-01 6.85798E+00-1.63367E-12-1.45162E-12
 -1       309 2.63621E+01 1.58539E+00 2.06136E-01 7.65762E+00-1.74605E-12-1.63664E-12
 -1       310 3.59946E+01 3.84055E+00 4.81603E-01 5.42649E+00-1.47745E-12-1.11244E-12
 -1       311 4.41614E+01 6.09967E+00 9.35382E-01 4.16357E+00-1.26316E-12-8.68999E-13
 -1       312 4.65279E+01 6.89196E+00 1.01148E+00 4.52617E-01-1.23498E-12-3.43527E-14
 -1       313 4.51728E+01 6.18870E+00 1.00032E+00-3.52586E+00-1.29768E-12 8.84876E-13
 -1       314 3.82290E+01 4.78176E+00 7.17782E-01-6.41417E+00-1.46657E-12 1.53211E-12
 -1       315 2.84122E+01 2.26043E+00 2.97100E-01-7.55951E+00-1.46153E-12 1.83953E-12
 -1       316 1.85537E+01-1.95272E+00-1.32940E-01-6.88834E+00-1.15158E-12 1.63761E-12
 -1       317 8.57963E+00-5.30679E+00-5.48250E-01-5.25758E+00-1.15452E-12 1.52812E-12
 -1       318 2.21918E+00-8.89065E+00-8.63891E-01-3.06600E+00-6.76681E-13 1.15410E-12
 -1       319-9.11697E-01-1.09221E+01-9.78662E-01-9.58968E-01 7.09710E-14 1.19367E-12
 -1       320 2.07836E+01 3.09449E+00-1.87068E-02-1.28081E+00-4.30558E-13-4.42530E-13
 -1       321 2.18523E+01 2.19575E+00-1.64594E-02-1.61906E+00-5.18143E-13-1.58724E-13
 -1       322 1.91530E+01 3.99396E+00-1.26713E-02-5.66429E-01-1.89948E-13-6.93596E-13
 -1       323 1.85539E+01 4.25240E+00-9.73816E-03-3.27523E-01-7.28317E-14-7.15168E-13
 -1       324 1.81350E+01 4.41931E+00-7.80891E-03-1.67153E-01 5.05997E-14-6.97155E-13
 -1       325 1.79250E+01 4.49821E+00-6.88243E-03-5.83406E-02 1.56406E-13-6.95686E-13
 -1       326 1.79405E+01 4.48863E+00-6.94833E-03 3.54319E-02 2.61448E-13-6.50636E-13
 -1       327 1.81781E+01 4.39210E+00-8.01404E-03 1.53385E-01 3.48831E-13-6.17615E-13
 -1       328 1.86059E+01 4.21565E+00-1.01404E-02 3.26161E-01 4.32011E-13-5.20596E-13
 -1       329 1.92073E+01 3.95021E+00-1.34222E-02 5.81534E-01 5.23643E-13-3.79299E-13
 -1       330 1.99512E+01 3.57332E+00-1.79537E-02 9.22941E-01 5.96346E-13-1.62318E-13
 -1       331 2.08408E+01 3.01601E+00-2.20409E-02 1.32234E+00 6.41561E-13 1.21013E-13
 -1       332 2.18380E+01 2.11296E+00-2.91876E-02 1.61145E+00 6.02633E-13 6.32388E-13
 -1       333 2.24006E+01 1.15471E+00-2.19368E-02 1.32856E+00 5.09896E-13 1.07501E-12
 -1       334 2.19783E+01 4.91322E-01 9.07135E-03 3.18039E-01 4.23906E-13 9.01431E-13
 -1       335 2.19276E+01 7.08050E-01 1.28840E-02-2.51984E-01-4.04315E-13-3.32618E-14
 -1       336 2.18061E+01 3.81520E-01 7.20173E-03 3.72225E-01-3.01081E-13-4.68460E-14
 -1       337 2.18958E+01 1.86150E-01 3.34295E-03 7.21381E-01-1.81848E-13-5.12735E-14
 -1       338 2.21405E+01 5.76418E-03-7.81067E-05 8.68277E-01-1.29429E-13-6.87278E-14
 -1       339 2.24860E+01-2.05890E-01-2.86283E-03 8.10012E-01-6.56169E-14-7.49292E-16
 -1       340 2.28732E+01-4.54656E-01-5.14535E-03 5.14934E-01-6.08548E-14 3.79966E-14
 -1       341 2.32260E+01-6.91136E-01-6.32862E-03-3.60970E-02-4.18864E-14 4.00392E-14
 -1       342 2.34388E+01-7.90627E-01-5.14313E-03-7.86715E-01-6.52807E-14 8.76667E-14
 -1       343 2.33907E+01-5.79410E-01-2.84010E-03-1.52922E+00-2.36231E-13 4.13825E-14
 -1       344 2.30277E+01 3.68819E-02-1.10400E-03-1.88641E+00-2.55266E-13-3.93444E-14
 -1       345 2.24975E+01 8.60480E-01-1.98812E-03-1.48268E+00-2.67552E-13-1.99322E-13
 -1       346 2.21621E+01 1.38928E+00-2.82592E-03-3.13419E-01-2.51961E-13-3.69055E-13
 -1       347 2.23056E+01 1.22542E+00-2.32981E-03 1.06803E+00-3.31951E-13-5.41543E-13
 -1       348 2.28354E+01 4.95680E-01-1.10219E-03 1.93169E+00-2.86503E-13-6.45683E-13
 -1       349 2.33798E+01-2.81861E-01-1.55850E-03 1.96383E+00-1.65941E-13-6.80091E-13
 -1       350 2.36556E+01-7.20986E-01-4.09643E-03 1.37999E+00-6.67890E-15-7.01414E-13
 -1       351 2.36154E+01-7.77296E-01-6.14033E-03 5.90047E-01 5.20365E-14-5.35967E-13
 -1       352 2.33526E+01-6.06528E-01-6.05697E-03-1.02967E-01 5.94730E-14-4.70450E-13
 -1       353 2.29761E+01-3.72145E-01-4.63689E-03-5.75973E-01 1.97809E-13-4.61206E-13
 -1       354 2.25618E+01-1.68148E-01-2.79147E-03-8.27936E-01 2.16391E-13-3.39177E-13
 -1       355 2.21534E+01-2.57890E-02-1.14583E-03-9.10350E-01 9.83273E-14-1.68176E-13
 -1       356 2.17732E+01 5.81880E-02 1.32812E-05-8.83041E-01 5.31936E-14-1.71100E-13
 -1       357 2.14326E+01 9.88597E-02 6.97350E-04-7.95212E-01 1.08005E-14-2.35297E-13
 -1       358 2.11364E+01 1.11646E-01 1.01925E-03-6.81282E-01-3.77100E-14-2.52864E-13
 -1       359 2.08851E+01 1.08431E-01 1.10291E-03-5.62755E-01 4.91383E-14-3.36302E-13
 -1       360 2.06768E+01 9.72020E-02 1.04901E-03-4.51671E-01 2.32912E-14-9.95324E-14
 -1       361 2.05077E+01 8.28561E-02 9.27413E-04-3.53815E-01 7.04141E-14-6.40331E-14
 -1       362 2.03731E+01 6.81694E-02 7.81702E-04-2.71139E-01 1.18588E-14-1.74363E-13
 -1       363 2.02679E+01 5.45751E-02 6.36595E-04-2.03422E-01-6.14456E-14-1.05244E-13
 -1       364 2.01873E+01 4.27042E-02 5.04599E-04-1.49323E-01 8.58985E-14 2.41389E-14
 -1       365 2.01266E+01 3.27330E-02 3.90883E-04-1.07027E-01-4.33712E-14 3.12183E-13
 -1       366 2.00820E+01 2.45954E-02 2.96482E-04-7.46109E-02-9.74004E-14 2.31573E-13
 -1       367 2.00498E+01 1.81078E-02 2.20280E-04-5.02469E-02-1.55372E-13 1.37017E-13
 -1       368 2.00272E+01 1.30410E-02 1.60173E-04-3.23001E-02-1.93469E-13 7.54857E-14
 -1       369 2.00120E+01 9.15986E-03 1.13730E-04-1.93656E-02-4.03305E-14 1.25417E-13
 -1       370 2.00021E+01 6.24399E-03 7.85452E-05-1.02721E-02 2.11095E-13-2.62671E-14
 -1       371 1.99961E+01 4.09708E-03 5.24089E-05-4.06605E-03 5.57415E-14 2.20640E-14
 -1       372 1.99928E+01 2.55022E-03 3.33835E-05 1.17931E-05 2.71887E-14 7.33693E-14
 -1       373 1.99915E+01 1.46122E-03 1.98126E-05 2.55305E-03-1.48931E-13 1.12666E-13
 -1       374 1.99914E+01 7.11993E-04 1.02999E-05 4.00778E-03-3.18657E-14 7.81421E-14
 -1       375 1.99921E+01 2.04651E-04 3.67694E-06 4.70783E-03 1.36685E-13 1.15779E-13
 -1       376 1.99932E+01-1.42838E-04-1.01787E-06 4.88661E-03 1.23483E-13 4.97416E-13
 -1       377 1.99946E+01-4.01196E-04-4.64592E-06 4.69534E-03-5.52025E-14 4.84865E-13
 -1       378 1.99960E+01-6.30480E-04-7.09159E-06 4.21638E-03-8.19152E-14 2.06116E-13
 -1       379 1.99973E+01-8.90352E-04-1.10116E-05 3.48398E-03 9.90244E-14 9.01656E-14
 -1       380 1.99983E+01-1.09664E-03-1.18219E-05 2.57628E-03 1.95561E-13 1.09244E-13
 -1       381 2.18123E+01 2.43615E-01 1.03946E-02-2.37412E-01 3.08258E-13 7.48659E-13
 -1       382 2.18930E+01 1.14555E-01 5.11610E-03-5.31794E-01 2.02846E-13 6.03031E-13
 -1       383 2.21394E+01 5.50091E-03 7.86863E-04-6.47324E-01 1.30562E-13 5.32448E-13
 -1       384 2.24610E+01-1.16536E-01-2.07091E-03-5.93715E-01 6.60021E-14 4.86970E-13
 -1       385 2.27695E+01-2.57248E-01-3.97995E-03-3.53543E-01 8.53879E-14 4.85489E-13
 -1       386 2.29715E+01-3.91226E-01-4.87626E-03 8.07213E-02 8.25134E-14 5.41813E-13
 -1       387 2.29714E+01-4.53367E-01-4.30905E-03 6.59391E-01 2.67755E-14 5.42084E-13
 -1       388 2.26987E+01-3.52214E-01-2.22319E-03 1.22665E+00-9.47437E-14 5.74707E-13
 -1       389 2.21691E+01-3.47673E-02 2.27977E-04 1.51868E+00 1.19506E-13 5.62397E-13
 -1       390 2.15497E+01 4.16000E-01 1.25675E-03 1.27658E+00 2.20284E-13 3.66930E-13
 -1       391 2.11394E+01 7.61313E-01 2.28905E-03 4.62265E-01 3.82605E-13 2.77374E-13
 -1       392 2.11923E+01 7.62058E-01 3.57368E-03-6.03129E-01 2.97696E-13 1.47607E-13
 -1       393 2.16983E+01 4.22260E-01 4.21424E-03-1.41646E+00 1.68581E-13-9.42098E-14
 -1       394 2.23978E+01-2.97792E-02 2.57945E-03-1.65637E+00 2.93949E-14-2.21828E-13
 -1       395 2.29878E+01-3.48544E-01-9.76731E-04-1.36061E+00 6.84743E-14-3.51914E-13
 -1       396 2.33067E+01-4.52504E-01-4.35871E-03-7.89509E-01 5.18613E-14-2.87632E-13
 -1       397 2.33418E+01-3.95591E-01-5.76680E-03-2.03500E-01 1.18247E-14-3.97640E-13
 -1       398 2.31593E+01-2.70605E-01-5.31850E-03 2.48828E-01-1.03686E-13-4.83041E-13
 -1       399 2.28415E+01-1.44869E-01-3.77921E-03 5.27591E-01-4.82719E-14-2.40555E-13
 -1       400 2.24588E+01-4.86469E-02-2.06026E-03 6.55330E-01 2.32921E-13-1.63533E-13
 -1       401 2.20615E+01 1.30900E-02-6.55954E-04 6.75806E-01 3.09279E-14-7.51669E-14
 -1       402 2.16827E+01 4.65628E-02 2.89119E-04 6.31176E-01-3.32533E-13 2.04991E-14
 -1       403 2.13410E+01 6.05220E-02 8.19516E-04 5.53640E-01-1.18567E-13 5.22183E-14
 -1       404 2.10454E+01 6.25376E-02 1.04584E-03 4.64669E-01-1.52303E-14 2.48555E-14
 -1       405 2.07977E+01 5.80553E-02 1.07762E-03 3.77098E-01-1.13001E-13 1.36574E-13
 -1       406 2.05957E+01 5.05948E-02 1.00022E-03 2.97706E-01-8.04900E-14 3.01788E-13
 -1       407 2.04348E+01 4.22538E-02 8.71643E-04 2.29391E-01 1.67179E-13 3.28696E-13
 -1       408 2.03093E+01 3.41846E-02 7.27574E-04 1.72750E-01-3.78726E-14 2.82865E-13
 -1       409 2.02135E+01 2.69515E-02 5.88024E-04 1.27123E-01-2.62531E-14 2.16987E-13
 -1       410 2.01419E+01 2.07723E-02 4.62917E-04 9.12466E-02 8.09280E-14 1.16893E-13
 -1       411 2.00896E+01 1.56711E-02 3.56117E-04 6.36442E-02-1.85536E-14 1.94296E-13
 -1       412 2.00522E+01 1.15713E-02 2.68068E-04 4.28467E-02 7.97065E-14 3.23191E-13
 -1       413 2.00264E+01 8.35097E-03 1.97432E-04 2.75052E-02 1.75325E-13 2.42766E-13
 -1       414 2.00092E+01 5.87406E-03 1.42067E-04 1.64427E-02 9.77824E-14 2.94182E-13
 -1       415 1.99983E+01 4.00770E-03 9.95788E-05 8.66759E-03-7.37445E-14 2.78118E-13
 -1       416 1.99919E+01 2.63084E-03 6.76322E-05 3.36728E-03 5.84207E-14 1.31020E-13
 -1       417 1.99888E+01 1.63781E-03 4.40949E-05-1.08268E-04-2.23681E-13-1.46236E-13
 -1       418 1.99878E+01 9.38924E-04 2.70975E-05-2.26744E-03-1.68844E-13-4.35072E-16
 -1       419 1.99882E+01 4.59328E-04 1.50377E-05-3.49814E-03-6.84556E-14 5.58094E-13
 -1       420 1.99894E+01 1.36924E-04 6.55909E-06-4.08735E-03-8.16605E-14 6.81427E-13
 -1       421 1.99911E+01-8.03542E-05 5.40713E-07-4.23771E-03-4.29587E-17 2.91375E-13
 -1       422 1.99930E+01-2.37615E-04-3.89607E-06-4.08090E-03 3.09121E-13 3.14928E-13
 -1       423 1.99949E+01-3.76002E-04-7.02009E-06-3.68755E-03 3.12779E-13 4.39145E-13
 -1       424 1.99966E+01-5.28894E-04-8.41242E-06-3.07751E-03 3.41539E-14 4.09319E-13
 -1       425 1.99980E+01-7.20727E-04-8.15319E-06-2.24208E-03-3.06151E-14 6.20049E-13
 -1       426 1.99988E+01-9.02859E-04-7.50639E-06-1.66012E-03-2.58375E-14 5.02062E-13
 -1       427 1.99999E+01-3.98155E-03-7.32804E-07-3.30302E-03 2.98049E-14-4.25658E-13
 -1       428 1.99993E+01-2.72599E-03-7.20260E-06-3.13474E-03 5.92452E-15 8.63039E-14
 -1       429 1.99990E+01-1.79324E-03-1.06501E-05-2.52731E-03-1.76809E-13 1.49347E-13
 -1       430 2.00002E+01-5.13209E-03 3.84180E-06-3.02692E-03 1.72172E-13-6.10146E-13
 -1       431 2.00005E+01-6.11417E-03 6.91266E-06-2.40019E-03 2.17707E-14-1.60731E-14
 -1       432 2.00007E+01-6.81729E-03 9.00925E-06-1.53052E-03-1.92981E-13-2.14343E-13
 -1       433 2.00008E+01-7.18240E-03 1.01226E-05-5.20256E-04-1.36503E-13-1.59905E-13
 -1       434 2.00008E+01-7.17986E-03 1.01511E-05 5.35602E-04-3.10533E-13 4.01747E-14
 -1       435 2.00007E+01-6.80976E-03 9.06812E-06 1.54495E-03-1.78145E-13-3.84850E-14
 -1       436 2.00005E+01-6.11702E-03 6.81797E-06 2.40000E-03-5.65855E-14-3.54964E-14
 -1       437 2.00002E+01-5.13483E-03 3.44186E-06 3.02805E-03-2.22299E-13 2.50303E-13
 -1       438 1.99998E+01-3.96339E-03-3.14561E-07 3.30592E-03 4.56210E-14 3.04094E-13
 -1       439 1.99993E+01-2.71104E-03-7.39063E-06 3.15447E-03 2.03026E-13 3.33260E-13
 -1       440 1.09170E+01-5.61965E+00-4.56904E-02 6.89552E+00 3.60045E-13 1.07744E-12
 -1       441 1.31591E+00-4.14253E+00-3.51010E-02-4.00820E-01 1.60188E-13 1.47954E-12
 -1       442 5.16434E+00-4.34827E+00 3.49558E-02 5.04358E+00 1.31395E-13 1.29462E-12
 -1       443 1.93163E+01-5.47146E+00-4.28322E-03 6.52400E+00 3.49373E-13 4.68094E-13
 -1       444 2.86069E+01-2.27537E+00 2.45831E-03 3.29181E+00 7.97348E-13 8.97338E-14
 -1       445 1.98969E+01 3.62958E+00-1.86421E-02-8.96829E-01-3.09302E-13-6.20597E-13
 -1       446 3.52735E+01 5.78179E+00 3.99973E-02-2.12399E-01 1.41347E-12-1.43399E-13
 -1       447 3.37893E+01 8.10691E+00-6.85480E-02-1.86753E-01 1.42819E-12 2.84646E-14
 -1       448 3.42683E+01 6.95162E+00-4.90281E-02 6.25441E-01 1.18579E-12 1.03466E-13
 -1       449 3.34220E+01 2.55848E+00-2.28696E-03-5.26533E-01 8.53588E-13-1.48867E-13
 -1       450 2.91155E+01-2.16572E+00-3.29479E-03-3.23849E+00 5.37292E-13-2.71089E-13
 -1       451 2.22931E+01-4.79032E+00-1.05846E-02-6.04554E+00 2.28442E-13-6.40765E-13
 -1       452 1.39453E+01-5.65627E+00 1.02291E-02-7.28391E+00-1.60774E-13-9.59892E-13
 -1       453 5.57476E+00-5.42421E+00-1.01314E-01-5.56734E+00-8.39467E-14-1.30652E-12
 -1       454 2.42273E+00-3.56624E+00 3.78915E-02-2.30841E+00-1.19987E-13-1.38034E-12
 -1       455 2.81371E+00-3.54383E+00 6.81757E-02 2.65770E+00-3.60822E-15-1.29381E-12
 -1       456 8.59361E+00-5.41915E+00-5.23796E-02 6.48177E+00-2.21739E-13-9.21513E-13
 -1       457 1.59908E+01-5.67220E+00-6.24211E-02 7.06702E+00-3.64625E-13-7.16555E-13
 -1       458 2.56317E+01-4.10134E+00 2.07420E-02 4.86393E+00-4.77646E-13-3.14179E-13
 -1       459 3.06952E+01-1.06931E+00-2.44317E-02 2.15459E+00-7.97308E-13-7.35523E-15
 -1       460 3.41318E+01 4.36838E+00 3.52913E-03-3.30237E-01-1.18165E-12 5.53030E-14
 -1       461 3.52022E+01 7.34850E+00 1.34374E-02-3.02172E-01-1.36632E-12 3.79419E-14
 -1       462 3.68743E+01 7.70300E+00 1.17149E-01 1.89227E-01-1.47543E-12 1.03126E-13
 -1       463 3.53911E+01 4.91056E+00 8.26597E-02-1.58823E-01-1.24702E-12 1.53016E-13
 -1       464 3.20480E+01 4.35010E-01 3.11733E-02-1.71584E+00-7.15304E-13 3.30569E-13
 -1       465 2.65803E+01-3.19536E+00 1.35240E-02-4.50636E+00-2.29206E-13 5.78357E-13
 -1       466 1.81498E+01-5.72539E+00-1.67088E-02-6.71559E+00 4.86416E-14 6.30745E-13
 -1       467 9.59866E+00-5.65085E+00-6.74455E-02-6.65291E+00-9.68670E-15 1.20072E-12
 -1       468 2.98080E+00-5.12126E+00-1.05231E-01-3.85625E+00 2.12844E-13 1.21775E-12
 -1       469 3.26893E+01 1.37274E+00 2.32220E-02 1.34351E+00 1.16548E-12-3.48332E-14
 -1       470 2.51224E+01-5.10879E+00-8.43158E-04 4.11283E+00 1.75776E-13-1.44468E-14
 -1       471 4.70612E+00-2.00811E+00 1.64748E-01 2.67133E+00-7.14949E-14 1.29574E-12
 -1       472 7.34133E+00-3.03060E+00 1.21580E-01 5.31778E+00 2.64656E-13-1.00378E-12
 -1       473 2.16211E+01 8.82578E-01 4.02325E-03 1.09421E-01 4.54396E-13 3.38936E-13
 -1       474 1.84226E+01 3.75785E+00-3.40931E-03-5.23810E-02-6.11802E-15-6.25945E-13
 -1       475 1.90030E+01 3.44180E+00-4.29724E-03-1.52417E-01-1.24265E-13-6.21652E-13
 -1       476 1.79459E+01 4.00076E+00-2.63239E-03-2.29406E-02 1.95215E-13-5.73746E-13
 -1       477 1.80979E+01 3.91785E+00-2.86114E-03-1.98525E-02 2.96319E-13-5.60516E-13
 -1       478 1.84844E+01 3.71026E+00-3.50432E-03 3.02187E-02 3.73327E-13-5.25506E-13
 -1       479 1.90741E+01 3.38204E+00-4.78860E-03 1.52818E-01 4.54076E-13-3.95964E-13
 -1       480 1.98130E+01 2.93572E+00-5.88350E-03 3.45303E-01 5.02974E-13-2.47887E-13
 -1       481 2.06565E+01 2.34476E+00-5.45520E-03 5.72490E-01 5.57830E-13-1.80524E-14
 -1       482 2.15954E+01 4.90477E-01 4.62981E-03-4.58861E-01 3.22613E-13 2.68000E-13
 -1       483 2.13786E+01 1.09325E+00 3.49638E-03 5.99008E-02-3.13224E-13-2.22375E-13
 -1       484 3.11317E+01 2.69820E+00-1.13746E-01-1.54395E+00 1.11439E-12-3.78156E-13
 -1       485 2.14078E+01 6.34214E-01 1.91778E-03 6.37834E-01-2.26948E-13-1.79902E-13
 -1       486 2.15347E+01 2.75436E-01 5.05245E-04 1.00522E+00-1.46804E-13-1.58755E-13
 -1       487 2.18006E+01-1.04075E-01-7.95331E-04 1.16348E+00-4.72886E-14-1.17376E-13
 -1       488 2.22261E+01-5.57165E-01-2.17836E-03 1.08251E+00-2.61279E-15-9.37567E-14
 -1       489 2.28132E+01-1.06401E+00-3.45269E-03 7.07944E-01-3.29697E-14-1.01159E-14
 -1       490 2.35073E+01-1.48308E+00-4.18400E-03-1.32016E-03-2.19554E-14-4.66391E-15
 -1       491 2.41482E+01-1.51363E+00-2.82394E-03-9.81041E-01-1.47015E-13 7.31274E-14
 -1       492 2.44619E+01-7.88433E-01-8.27894E-03-1.92338E+00-2.69225E-13 2.44937E-13
 -1       493 2.42660E+01 7.49551E-01-2.22458E-02-2.20198E+00-3.99252E-13 2.14417E-13
 -1       494 2.38030E+01 2.36736E+00-3.20075E-02-1.27837E+00-4.74483E-13 6.96817E-15
 -1       495 2.36577E+01 2.82700E+00-3.44671E-02 5.23723E-01-4.48960E-13-3.65800E-13
 -1       496 2.40419E+01 1.71472E+00-2.84988E-02 2.04594E+00-4.66431E-13-5.25055E-13
 -1       497 2.44717E+01-8.99677E-03-1.39731E-02 2.39698E+00-2.68215E-13-6.10477E-13
 -1       498 2.44567E+01-1.22437E+00-5.88766E-03 1.73111E+00-6.12355E-14-5.16045E-13
 -1       499 2.39740E+01-1.58297E+00-3.99953E-03 7.01346E-01 1.56627E-13-3.88256E-13
 -1       500 2.32818E+01-1.35044E+00-3.23179E-03-2.01083E-01 1.35560E-13-2.94356E-13
 -1       501 2.26055E+01-8.99812E-01-2.67770E-03-8.05473E-01 1.29022E-13-6.62891E-14
 -1       502 2.20425E+01-4.64532E-01-1.80283E-03-1.12363E+00 3.15011E-13-2.34600E-13
 -1       503 2.16056E+01-1.39270E-01-8.45723E-04-1.22925E+00 1.92018E-13-3.07322E-13
 -1       504 2.12710E+01 6.66881E-02-1.68754E-04-1.19874E+00 1.46936E-14-2.86761E-13
 -1       505 2.10110E+01 1.77543E-01 2.31724E-04-1.09137E+00-2.45549E-14-2.94140E-13
 -1       506 2.08041E+01 2.23285E-01 4.29713E-04-9.48281E-01 2.23704E-14-3.18234E-13
 -1       507 2.06364E+01 2.29086E-01 4.95799E-04-7.95854E-01 2.67394E-15-2.88658E-13
 -1       508 2.04991E+01 2.12949E-01 4.85413E-04-6.49707E-01 1.08165E-13-2.81499E-13
 -1       509 2.03867E+01 1.86573E-01 4.36192E-04-5.18097E-01 1.85543E-14-3.67061E-13
 -1       510 2.02953E+01 1.57013E-01 3.71530E-04-4.04528E-01 6.98963E-14-3.86972E-13
 -1       511 2.02218E+01 1.28219E-01 3.04827E-04-3.09599E-01-1.10176E-14-2.57221E-13
 -1       512 2.01635E+01 1.02183E-01 2.43030E-04-2.32254E-01 5.06509E-14-1.21436E-13
 -1       513 2.01180E+01 7.97217E-02 1.89191E-04-1.70601E-01 8.29751E-14-1.04306E-13
 -1       514 2.00830E+01 6.09805E-02 1.44151E-04-1.22423E-01-8.03176E-14-1.19333E-14
 -1       515 2.00566E+01 4.57453E-02 1.07580E-04-8.54791E-02-4.77780E-14-5.62932E-15
 -1       516 2.00370E+01 3.36295E-02 7.85914E-05-5.76805E-02-1.89534E-13 2.61346E-13
 -1       517 2.00229E+01 2.41839E-02 5.60940E-05-3.71714E-02-4.51094E-14 5.93767E-13
 -1       518 2.00130E+01 1.69592E-02 3.89782E-05-2.23612E-02 3.89453E-14 4.44252E-13
 -1       519 2.00062E+01 1.15381E-02 2.62128E-05-1.19239E-02-1.11956E-13 1.07895E-13
 -1       520 2.00017E+01 7.55049E-03 1.68860E-05-4.78004E-03 8.35667E-14-1.11128E-14
 -1       521 1.99990E+01 4.67832E-03 1.02169E-05-6.98909E-05 1.96319E-14 1.82837E-13
 -1       522 1.99975E+01 2.65337E-03 5.54732E-06 2.87628E-03-2.98860E-14 2.86700E-13
 -1       523 1.99969E+01 1.25220E-03 2.31999E-06 4.56710E-03-3.47559E-14 4.34810E-13
 -1       524 1.99968E+01 2.88900E-04 7.98552E-08 5.37661E-03 3.00625E-13 4.93241E-13
 -1       525 1.99971E+01-3.92377E-04-1.34012E-06 5.56666E-03 2.52387E-14 4.49875E-13
 -1       526 1.99975E+01-9.26293E-04-2.56871E-06 5.30998E-03-1.19298E-13 7.02006E-13
 -1       527 1.99981E+01-1.41146E-03-4.25445E-06 4.70039E-03-1.13128E-13 5.32002E-13
 -1       528 2.19316E+01-7.96512E-02-6.96097E-04-9.04790E-01 1.24307E-13 2.01580E-13
 -1       529 2.22757E+01-3.99055E-01-2.29805E-03-7.94541E-01 1.05434E-13 1.97888E-13
 -1       530 2.26976E+01-7.41854E-01-3.61512E-03-4.27904E-01 4.42305E-14 2.08137E-13
 -1       531 2.31290E+01-1.01366E+00-4.45574E-03 2.00922E-01-1.46746E-14 3.03809E-13
 -1       532 2.34449E+01-1.02447E+00-4.21162E-03 1.00477E+00-6.05763E-14 3.97440E-13
 -1       533 2.34885E+01-5.61809E-01-3.15230E-03 1.72087E+00 8.68612E-14 3.60420E-13
 -1       534 2.31951E+01 3.96075E-01-3.84158E-03 1.92004E+00 2.88958E-13 2.80912E-13
 -1       535 2.27434E+01 1.46206E+00-9.30889E-03 1.25897E+00 3.67725E-13 2.04385E-13
 -1       536 2.25431E+01 1.92647E+00-8.54287E-03-1.19184E-01 4.54007E-13 8.12483E-14
 -1       537 2.28001E+01 1.43356E+00-7.41847E-03-1.47330E+00 4.16267E-13-8.97685E-14
 -1       538 2.32882E+01 3.61618E-01-4.88110E-03-2.11061E+00 2.49190E-13-2.93933E-13
 -1       539 2.36089E+01-5.85481E-01-2.36770E-03-1.88069E+00 1.53766E-13-4.23574E-13
 -1       540 2.35814E+01-1.03366E+00-3.05721E-03-1.15075E+00 3.99179E-14-3.61594E-13
 -1       541 2.32767E+01-1.02089E+00-3.88616E-03-3.36693E-01-6.40070E-15-3.64084E-13
 -1       542 2.28447E+01-7.66346E-01-4.01613E-03 3.14880E-01-1.10013E-13-1.57688E-13
 -1       543 2.23970E+01-4.59170E-01-3.00517E-03 7.31905E-01-1.10872E-13-2.07901E-13
 -1       544 2.19866E+01-2.00745E-01-1.72988E-03 9.38424E-01-1.10808E-14-2.73919E-13
 -1       545 2.16287E+01-2.12163E-02-6.56581E-04 9.90961E-01 8.36528E-14-1.32153E-13
 -1       546 2.13222E+01 8.57124E-02 7.39057E-05 9.45656E-01-1.47096E-13-1.92012E-13
 -1       547 2.10618E+01 1.38453E-01 4.91261E-04 8.46766E-01-1.91054E-13-2.85425E-13
 -1       548 2.08421E+01 1.55587E-01 6.81315E-04 7.25109E-01-7.25255E-14-3.92305E-13
 -1       549 2.06585E+01 1.51684E-01 7.24400E-04 6.00219E-01-1.34743E-13-1.79224E-13
 -1       550 2.05070E+01 1.36817E-01 6.83287E-04 4.83316E-01-1.69365E-13-1.18160E-13
 -1       551 2.03839E+01 1.17381E-01 6.01111E-04 3.79992E-01-3.49665E-14-5.03752E-14
 -1       552 2.02852E+01 9.71515E-02 5.04771E-04 2.92262E-01-2.33038E-14 1.44011E-13
 -1       553 2.02075E+01 7.81783E-02 4.09587E-04 2.20021E-01 9.24056E-14 1.15602E-13
 -1       554 2.01474E+01 6.14326E-02 3.23342E-04 1.62014E-01 1.05900E-13-9.15550E-15
 -1       555 2.01017E+01 4.72462E-02 2.49248E-04 1.16453E-01-1.27136E-13 1.38032E-13
 -1       556 2.00676E+01 3.55906E-02 1.87913E-04 8.13928E-02-1.08656E-13 2.50710E-13
 -1       557 2.00427E+01 2.62501E-02 1.38570E-04 5.49480E-02 1.30561E-13 2.30282E-13
 -1       558 2.00250E+01 1.89272E-02 9.98141E-05 3.54077E-02 9.41879E-14 1.92859E-13
 -1       559 2.00127E+01 1.33022E-02 7.00265E-05 2.12851E-02 1.41846E-13 1.88841E-13
 -1       560 2.00046E+01 9.06800E-03 4.76042E-05 1.13298E-02 1.65355E-13 3.35412E-14
 -1       561 1.99995E+01 5.94613E-03 3.10772E-05 4.51773E-03-1.95689E-15 1.53053E-13
 -1       562 1.99965E+01 3.69412E-03 1.91565E-05 2.94750E-05-2.50348E-13 4.31888E-14
 -1       563 1.99951E+01 2.10590E-03 1.07403E-05-2.77520E-03-2.40312E-13 6.60840E-14
 -1       564 1.99946E+01 1.00896E-03 4.90026E-06-4.38390E-03-4.61096E-14 1.52915E-13
 -1       565 1.99949E+01 2.59364E-04 8.58234E-07-5.15594E-03 3.42403E-15 2.09456E-13
 -1       566 1.99955E+01-2.63903E-04-2.01354E-06-5.34365E-03-3.25900E-14 4.10901E-13
 -1       567 1.99963E+01-6.63851E-04-4.36649E-06-5.11143E-03 3.32434E-13 4.67793E-13
 -1       568 1.99972E+01-1.03277E-03-8.03389E-06-4.56051E-03 1.72834E-13 4.53332E-13
 -1       569 1.99981E+01-1.42247E-03-9.02245E-06-3.72376E-03-9.41347E-14 5.41859E-13
 -1       570 2.00010E+01-4.28701E-03 2.98410E-06-3.46548E-03 2.24492E-13-2.96159E-13
 -1       571 2.00015E+01-4.83936E-03 3.58084E-06-2.49299E-03 1.75016E-13-1.95916E-13
 -1       572 1.99995E+01-2.67953E-03-1.88479E-06-4.25973E-03 2.48106E-13-3.41911E-13
 -1       573 2.00004E+01-3.55690E-03 1.01252E-06-4.08942E-03 1.40312E-14-4.06489E-13
 -1       574 2.00018E+01-5.17990E-03 4.28613E-06-1.29655E-03-6.35111E-15-1.50564E-13
 -1       575 2.00019E+01-5.29381E-03 4.59016E-06 9.33061E-06-2.31224E-14-1.37155E-13
 -1       576 2.00018E+01-5.17731E-03 4.44940E-06 1.31465E-03-2.06878E-13 7.87753E-14
 -1       577 2.00015E+01-4.84256E-03 3.79539E-06 2.49087E-03 2.65374E-15-5.52012E-14
 -1       578 2.00010E+01-4.29372E-03 2.17816E-06 3.46601E-03 2.77286E-14 1.31047E-14
 -1       579 2.00004E+01-3.53866E-03 6.12087E-07 4.08270E-03-6.75474E-14 5.32465E-13
 -1       580 1.99995E+01-2.65004E-03-2.99663E-06 4.24813E-03 5.16842E-14 4.84953E-13
 -1       581 1.72211E+01-5.10399E+00 9.50500E-02 6.55186E+00-2.26555E-13 3.15546E-13
 -1       582 2.16994E+01 2.02044E-01 1.48986E-03-7.88447E-01 2.10609E-13 2.42263E-13
 -1       583 2.95670E+01-1.65789E+00-9.30641E-02 2.45525E-02 6.61622E-13-4.01221E-13
 -1       584 9.25477E+00-3.21341E+00 1.42346E-01-5.82461E+00 4.03899E-13 1.22699E-12
 -1       585 1.15203E+01-3.51662E+00 1.42691E-01 6.29694E+00-4.19970E-13 8.34763E-13
 -1       586 5.71211E+00-1.93425E+00 1.71006E-01-3.24878E+00 3.29722E-13 1.26313E-12
 -1       587 1.80580E+01 3.94656E+00-2.84752E-03-1.93931E-02 1.03338E-13-6.18384E-13
 -1       588 2.94520E+01 6.03799E+00-1.80734E-01-1.60631E+00 1.24929E-12-1.14408E-13
 -1       589 2.96403E+01-1.34494E+00-9.93134E-02 5.22533E-01 3.02702E-13 3.13825E-13
 -1       590 2.85032E+01 6.38395E+00-1.93964E-01 8.50208E-01 1.13856E-12 2.61988E-13
 -1       591 3.12806E+01 5.83461E+00-1.59957E-01 1.54738E+00-1.23682E-12-2.33549E-13
 -1       592 2.99581E+01 3.79080E+00-1.57954E-01 1.97945E+00 8.39349E-13 4.18617E-13
 -1       593 2.62873E+01-4.95777E+00-2.74602E-02-2.99413E+00-1.71214E-13 3.75047E-14
 -1       594 2.10325E+01-5.48763E+00 5.45781E-02-5.75535E+00-4.52902E-13-3.57575E-13
 -1       595 1.14297E+01-3.95389E+00 1.04370E-01-6.58869E+00-3.95593E-13-9.42905E-13
 -1       596 7.14129E+00-2.01251E+00 1.71946E-01-4.39558E+00-2.12875E-13-1.20057E-12
 -1       597 6.06871E+00-4.82110E-01 2.07987E-01 1.97144E-01 1.51170E-13-1.15399E-12
 -1       598 1.50488E+01-4.94502E+00 1.00719E-01 7.03225E+00 2.62471E-13-4.61249E-13
 -1       599 2.25093E+01-5.68390E+00 2.73428E-02 5.36774E+00 2.55129E-13 4.77118E-14
 -1       600 2.81569E+01-3.89340E+00-3.90350E-02 1.80495E+00-1.51920E-13 3.67185E-13
 -1       601 3.04719E+01 4.51901E-01-1.07181E-01-1.17571E+00-6.69020E-13 3.61662E-13
 -1       602 3.01460E+01 5.15844E+00-1.67713E-01-1.74509E+00-1.13093E-12 3.01689E-13
 -1       603 2.94121E+01 6.98207E+00-1.90905E-01 9.78774E-02-1.29710E-12-8.21556E-14
 -1       604 3.06503E+01 1.57385E+00-1.16603E-01 1.66803E+00-6.39197E-13-4.58605E-13
 -1       605 2.88805E+01-3.08903E+00-6.38733E-02-9.13100E-01-4.39622E-14-4.88498E-14
 -1       606 2.41536E+01-5.47400E+00 1.38393E-03-4.34473E+00 3.33532E-13 3.94376E-13
 -1       607 1.57581E+01-5.04990E+00 9.21055E-02-6.75916E+00 3.85351E-13 4.56263E-13
 -1       608 2.11945E+01 1.87588E+00-5.84422E-03-6.20810E-01-3.97010E-13-3.37120E-13
 -1       609 2.17501E+01 1.32213E+00-1.30654E-03 7.64835E-01 5.34686E-13 4.57977E-13
 -1       610 1.97415E+01 3.00944E+00-6.05774E-03-3.27038E-01-2.27146E-13-5.81915E-13
 -1       611 2.12614E+01-5.27248E+00 5.81557E-02-5.15690E+00 4.50799E-13 2.75125E-13
 -1       612 2.19237E+01-5.37794E+00 3.53790E-02 4.99749E+00-2.79162E-13-2.11519E-14
 -1       613 9.45077E+00-1.65264E+00 1.62170E-01 4.60565E+00-3.86330E-13 9.50219E-13
 -1       614 6.38145E+00-5.29245E-01 1.74921E-01-4.61818E-01 7.02242E-14 1.01052E-12
 -1       615 1.99985E+01-1.74590E-03-5.34274E-06 4.10344E-03 9.38276E-14 4.64277E-13
 -1       616 1.79952E+01-4.29100E+00 1.02379E-01-6.12746E+00-4.87912E-13-4.97994E-13
 -1       617 8.23667E+00-4.26167E-01 1.60016E-01 2.65651E+00 3.50183E-13-9.83810E-13
 -1       618 2.72611E+01-4.10747E+00-2.99583E-02 1.41555E+00 5.59483E-14-5.25757E-13
 -1       619 1.82562E+01 3.27851E+00-1.04879E-03-2.15576E-01 2.90534E-13-4.75319E-13
 -1       620 1.79321E+01 3.46959E+00-7.91974E-04-1.08701E-01 2.08425E-13-4.97187E-13
 -1       621 1.95585E+01 2.48651E+00-4.98041E-04-1.80393E-01 4.17941E-13-3.02871E-13
 -1       622 2.03649E+01 1.93655E+00-1.64947E-03-7.07586E-02 4.44873E-13-1.12590E-13
 -1       623 2.10730E+01 1.16949E+00 2.27306E-03-2.22385E-01 4.13832E-13 6.80949E-14
 -1       624 1.99994E+01-2.17618E-03-2.14798E-06 4.85512E-03 1.73283E-13 5.71039E-13
 -1       625 2.08147E+01 8.11220E-01 2.85441E-04 9.48707E-01-1.62261E-13-2.63716E-13
 -1       626 2.09777E+01 2.91949E-01-2.69321E-05 1.33132E+00-7.48221E-14-2.17499E-13
 -1       627 2.13153E+01-3.12198E-01-3.95900E-04 1.54240E+00 1.30410E-14-1.61232E-13
 -1       628 2.19147E+01-1.05031E+00-1.25124E-03 1.52608E+00 5.24648E-14-1.04060E-13
 -1       629 2.28459E+01-1.86513E+00-2.13898E-03 1.17792E+00 3.32754E-14-1.68626E-14
 -1       630 2.40767E+01-2.47564E+00-3.46076E-03 3.64655E-01 2.44488E-14 1.19551E-13
 -1       631 2.53165E+01-2.33349E+00-9.54863E-03-8.97426E-01-4.49432E-14 2.53624E-13
 -1       632 2.60150E+01-6.08594E-01-5.30528E-02-2.16581E+00-3.13256E-13 3.65805E-13
 -1       633 2.60111E+01 2.36220E+00-8.64169E-02-2.29637E+00-6.59348E-13 2.75788E-13
 -1       634 2.55987E+01 4.73601E+00-8.55555E-02-6.26971E-01-8.22408E-13-5.27174E-14
 -1       635 2.57751E+01 3.85270E+00-1.10875E-01 1.74983E+00-6.82298E-13-5.00997E-13
 -1       636 2.60926E+01 9.73838E-01-7.64298E-02 2.66116E+00-4.41435E-13-6.37618E-13
 -1       637 2.58400E+01-1.58934E+00-2.44261E-02 1.86567E+00-9.24044E-14-5.29224E-13
 -1       638 2.47788E+01-2.53813E+00-6.98250E-03 4.77506E-01 1.60747E-13-3.86971E-13
 -1       639 2.34657E+01-2.29559E+00 1.86353E-04-6.35271E-01 2.43816E-13-1.91581E-13
 -1       640 2.23301E+01-1.59410E+00-4.13978E-04-1.26929E+00 2.77200E-13-8.99661E-14
 -1       641 2.15091E+01-8.72901E-01-8.73791E-04-1.53594E+00 1.77146E-13 2.23880E-14
 -1       642 2.09785E+01-3.18264E-01-3.93499E-04-1.57181E+00 1.45232E-13-2.04799E-14
 -1       643 2.06544E+01 4.51670E-02-7.46077E-05-1.48229E+00 1.25503E-13-1.33009E-13
 -1       644 2.04604E+01 2.52056E-01 8.82215E-05-1.33008E+00-4.49730E-15-3.71663E-14
 -1       645 2.03425E+01 3.48281E-01 1.60748E-04-1.15242E+00-1.26317E-13-9.47761E-14
 -1       646 2.02667E+01 3.73740E-01 1.80028E-04-9.71499E-01-1.29185E-14-2.42223E-13
 -1       647 2.02138E+01 3.58012E-01 1.72728E-04-8.00276E-01 1.30578E-13-1.62936E-13
 -1       648 2.01736E+01 3.21091E-01 1.53436E-04-6.45819E-01-1.70674E-14-1.90502E-13
 -1       649 2.01410E+01 2.75612E-01 1.29934E-04-5.11320E-01 1.59162E-14-2.50940E-13
 -1       650 2.01137E+01 2.29062E-01 1.06357E-04-3.97451E-01 1.30990E-14-3.05272E-13
 -1       651 2.00906E+01 1.85549E-01 8.47769E-05-3.03310E-01 1.60648E-13-3.49822E-13
 -1       652 2.00711E+01 1.47046E-01 6.60705E-05-2.27092E-01 2.88714E-13-1.59353E-13
 -1       653 2.00550E+01 1.14240E-01 5.04439E-05-1.66562E-01 1.19674E-13 2.89828E-13
 -1       654 2.00417E+01 8.70785E-02 3.77485E-05-1.19362E-01-2.17386E-13 2.47622E-13
 -1       655 2.00311E+01 6.51139E-02 2.76679E-05-8.32155E-02 4.02150E-14 1.59415E-13
 -1       656 2.00226E+01 4.77149E-02 1.98252E-05-5.60387E-02-1.19700E-13 2.73939E-13
 -1       657 2.00161E+01 3.41946E-02 1.38410E-05-3.59995E-02-1.16732E-13 5.85033E-14
 -1       658 2.00111E+01 2.38836E-02 9.36371E-06-2.15354E-02-2.86316E-13-8.29754E-14
 -1       659 2.00074E+01 1.61680E-02 6.08237E-06-1.13473E-02-9.80625E-14-1.44303E-13
 -1       660 2.00047E+01 1.05069E-02 3.72958E-06-4.37956E-03 6.03958E-14-1.38392E-13
 -1       661 2.00028E+01 6.43668E-03 2.08093E-06 2.07276E-04-5.30312E-14-3.02094E-13
 -1       662 2.00014E+01 3.56663E-03 9.43934E-07 3.06548E-03 9.99711E-14-9.34852E-14
 -1       663 2.00006E+01 1.57132E-03 1.35117E-07 4.68907E-03 2.93182E-13 1.17126E-13
 -1       664 2.00000E+01 1.80101E-04-5.56052E-07 5.44070E-03 1.83876E-13 1.27373E-13
 -1       665 1.99997E+01-8.33285E-04-1.91937E-06 5.56717E-03 4.78084E-14 1.36680E-13
 -1       666 1.99995E+01-1.52990E-03-4.75841E-06 5.34237E-03-1.88886E-13 1.05619E-13
 -1       667 2.21179E+01-8.47580E-01-8.06794E-04-1.09275E+00 3.08491E-14 1.18683E-13
 -1       668 2.79129E+01-2.38910E+00-6.05035E-02-8.81556E-01-1.84543E-13 4.41223E-13
 -1       669 2.16154E+01-2.78453E-01-5.11929E-04-1.20435E+00 8.98600E-14 4.50748E-14
 -1       670 2.36611E+01-1.83608E+00-4.70529E-03 9.82140E-02-1.00226E-13 3.80607E-13
 -1       671 2.44135E+01-1.64959E+00-8.35883E-03 1.13811E+00 1.21111E-15 3.35228E-13
 -1       672 2.47440E+01-5.01415E-01-8.78757E-03 2.05352E+00 2.41452E-13 3.70089E-13
 -1       673 2.44343E+01 1.52562E+00-4.20485E-02 2.11500E+00 4.00013E-13 3.25330E-13
 -1       674 2.40500E+01 3.21002E+00-4.84441E-02 8.40788E-01 5.93392E-13 1.09153E-13
 -1       675 2.40385E+01 3.16393E+00-5.68419E-02-1.11023E+00 6.47697E-13-2.03364E-13
 -1       676 2.45367E+01 1.41362E+00-2.58943E-02-2.32265E+00 4.39550E-13-3.47495E-13
 -1       677 2.47498E+01-5.47887E-01-1.94036E-02-2.21174E+00 2.27105E-13-3.81120E-13
 -1       678 2.44173E+01-1.66774E+00-3.85093E-03-1.29131E+00-2.31931E-14-3.39926E-13
 -1       679 2.36549E+01-1.84506E+00-2.65961E-04-2.35243E-01-1.32480E-13-1.96849E-13
 -1       680 2.28030E+01-1.47395E+00-1.72012E-03 5.57485E-01-1.44891E-13-6.41979E-14
 -1       681 2.20698E+01-9.40449E-01-1.52606E-03 1.02936E+00-9.37738E-14-4.05465E-14
 -1       682 2.15159E+01-4.62931E-01-9.58997E-04 1.24124E+00-4.30245E-14-1.09282E-13
 -1       683 2.11229E+01-1.15299E-01-4.19351E-04 1.27841E+00 9.16923E-14-2.61051E-13
 -1       684 2.08486E+01 1.03489E-01-6.15292E-05 1.21007E+00 6.07100E-14-2.65145E-13
 -1       685 2.06541E+01 2.21361E-01 1.26668E-04 1.08509E+00-2.24536E-13-2.11926E-13
 -1       686 2.05114E+01 2.69794E-01 2.16390E-04 9.35949E-01-6.50668E-14-1.87447E-13
 -1       687 2.04024E+01 2.74923E-01 2.45568E-04 7.83204E-01-1.83117E-13-9.55144E-14
 -1       688 2.03166E+01 2.55691E-01 2.39707E-04 6.39044E-01-1.79030E-13-2.35513E-13
 -1       689 2.02476E+01 2.24707E-01 2.15726E-04 5.09961E-01-2.07321E-13-7.00640E-14
 -1       690 2.01918E+01 1.89813E-01 1.84296E-04 3.98682E-01-1.21285E-13 4.60150E-14
 -1       691 2.01466E+01 1.55562E-01 1.51692E-04 3.05555E-01-5.62401E-14 7.34957E-14
 -1       692 2.01104E+01 1.24357E-01 1.21281E-04 2.29520E-01 9.47137E-14 5.05179E-14
 -1       693 2.00816E+01 9.72565E-02 9.46179E-05 1.68772E-01-1.95499E-16 4.48616E-14
 -1       694 2.00591E+01 7.45218E-02 7.21921E-05 1.21197E-01-1.26242E-13-1.29444E-13
 -1       695 2.00418E+01 5.59617E-02 5.39054E-05 8.46463E-02 8.54247E-14-1.23933E-13
 -1       696 2.00287E+01 4.11555E-02 3.93657E-05 5.71002E-02 1.89148E-13-7.35015E-14
 -1       697 2.00190E+01 2.95879E-02 2.80593E-05 3.67523E-02 6.37857E-14-9.79939E-14
 -1       698 2.00119E+01 2.07286E-02 1.94489E-05 2.20450E-02 2.43710E-13 1.40677E-13
 -1       699 2.00069E+01 1.40767E-02 1.30268E-05 1.16743E-02-5.67204E-14 2.63313E-13
 -1       700 2.00035E+01 9.18303E-03 8.33781E-06 4.57461E-03-2.15357E-14 4.13231E-13
 -1       701 2.00012E+01 5.65773E-03 4.99076E-06-1.04308E-04-1.87651E-13 1.76922E-13
 -1       702 1.99998E+01 3.17011E-03 2.64668E-06-3.02542E-03-1.56769E-13-7.30812E-14
 -1       703 1.99990E+01 1.44307E-03 1.01839E-06-4.69212E-03 3.69328E-14-3.56464E-14
 -1       704 1.99987E+01 2.45285E-04-1.40596E-07-5.47403E-03-1.85521E-13-8.08977E-14
 -1       705 1.99986E+01-6.17044E-04-9.59953E-07-5.63022E-03-1.55204E-13 4.27475E-14
 -1       706 1.99987E+01-1.31015E-03-1.25829E-06-5.33229E-03 3.00931E-13 4.42408E-13
 -1       707 1.99992E+01-1.95233E-03-1.63043E-06-4.89474E-03-4.47791E-14 1.30214E-13
 -1       708 2.00031E+01-3.56995E-03 1.33977E-06-7.24935E-04 1.24991E-13-3.98023E-13
 -1       709 2.00022E+01-3.21908E-03 7.22310E-07-3.38842E-03 1.06114E-13-3.72864E-13
 -1       710 2.00031E+01-3.56983E-03 1.56053E-06 7.44614E-04-1.83218E-13-2.46975E-13
 -1       711 2.00028E+01-3.45548E-03 1.28758E-06-2.14082E-03 1.12285E-13-1.51693E-13
 -1       712 2.13034E+01 2.16565E-01 2.59345E-05-1.07213E+00 1.88255E-13 3.60474E-14
 -1       713 2.00028E+01-3.45838E-03 1.73982E-06 2.13747E-03-8.55728E-14 2.77642E-13
 -1       714 2.00022E+01-3.22163E-03 1.57504E-06 3.39148E-03 2.42289E-13-7.99915E-15
 -1       715 2.00014E+01-2.85688E-03 6.34420E-07 4.37113E-03 2.94607E-13 1.93429E-13
 -1       716 1.01284E+01-1.10892E+00 1.57402E-01-4.17332E+00 4.06047E-13 1.11544E-12
 -1       717 2.86083E+01 9.10051E-02-9.89657E-02-1.94160E+00 6.08378E-13-7.33254E-13
 -1       718 2.81256E+01-1.49705E+00-7.68691E-02 1.64302E+00-1.17326E-13-5.76546E-13
 -1       719 1.63346E+01-3.46941E+00 9.42290E-02 5.71107E+00-5.51958E-13 2.27249E-13
 -1       720 2.28233E+01-1.43617E+00-1.83223E-03-6.74899E-01-6.18306E-14 2.23033E-13
 -1       721 2.07379E+01 1.35281E+00 7.69410E-04 4.19911E-01-2.02989E-13-3.38296E-13
 -1       722 1.88220E+01 2.94337E+00-4.51661E-04-2.38317E-01 3.63019E-13-4.04160E-13
 -1       723 2.11406E+01 6.68920E-01 7.80360E-04-7.40108E-01 2.93705E-13 4.12970E-14
 -1       724 2.58422E+01 5.02605E+00-1.34201E-01-6.74881E-01 8.98455E-13-1.60317E-13
 -1       725 1.87251E+01 3.01851E+00-1.37994E-03 2.20774E-01-4.61181E-14-5.18867E-13
 -1       726 2.80501E+01 3.12957E+00-1.11752E-01 2.47430E+00-7.30208E-13-7.13801E-13
 -1       727 2.67593E+01 3.82694E+00-1.22915E-01 1.99323E+00 7.49893E-13 3.85214E-13
 -1       728 2.76686E+01 4.37152E-01-8.59486E-02 2.22068E+00 3.68053E-13 4.93463E-13
 -1       729 2.39951E+01-4.97417E+00 7.67779E-03-3.48077E+00-3.98683E-13 1.33470E-14
 -1       730 1.18964E+01-2.12650E+00 1.30348E-01-5.48046E+00-3.43892E-13-8.41091E-13
 -1       731 2.73963E+01-3.46032E+00-4.61187E-02-2.77726E-01-6.41006E-14 3.28879E-13
 -1       732 9.84171E+00 4.47007E-02 1.33144E-01-2.55133E+00-3.71994E-14-9.33233E-13
 -1       733 1.96486E+01-4.74217E+00 6.44714E-02 5.70885E+00 5.03323E-13-2.40554E-14
 -1       734 2.55253E+01-4.89985E+00-1.64258E-03 2.52568E+00 2.38122E-13 2.54120E-13
 -1       735 2.81155E+01 1.49451E+00-1.04688E-01-2.33585E+00-6.69631E-13 4.03018E-13
 -1       736 2.74843E+01 3.43457E+00-1.28545E-01-2.42446E+00 8.44672E-13-4.41862E-13
 -1       737 1.29185E+01-2.80729E+00 1.25140E-01 5.97915E+00 5.25920E-13-5.27460E-13
 -1       738 1.40442E+01-3.12459E+00 1.17299E-01-5.89134E+00 6.07379E-13 7.12881E-13
 -1       739 2.62862E+01-4.48445E+00-3.64972E-02-1.50960E+00 2.41935E-13-1.37040E-13
 -1       740 1.94573E+01 2.57545E+00-1.77107E-03 1.91572E-01-1.51906E-13-5.21453E-13
 -1       741 1.79063E+01 3.48826E+00-9.68810E-04 3.82443E-02 1.47587E-13-5.30256E-13
 -1       742 1.85352E+01-3.89560E+00 6.10349E-02-5.26487E+00 5.59898E-13 1.92723E-13
 -1       743 2.46536E+01-4.96315E+00 1.38110E-02 2.86104E+00-3.28747E-13-5.53543E-13
 -1       744 1.99574E+01-4.29223E+00 4.33471E-02 4.88514E+00-5.77956E-13-1.47843E-13
 -1       745 1.39026E+01-1.95250E+00 9.86308E-02 5.01436E+00-5.89138E-13 5.10397E-13
 -1       746 2.00005E+01-2.59774E-03 4.46638E-07-4.72477E-03 1.53441E-13-7.92226E-13
 -1       747 8.83152E+00-1.17806E-01 1.30457E-01 2.02391E+00-2.11707E-13 9.21326E-13
 -1       748 2.76448E+01-2.38814E+00-5.77438E-02-8.53607E-01 1.58721E-13-8.06202E-13
 -1       749 9.88009E+00 6.14801E-01 1.14269E-01-4.46747E-01 1.30192E-13-9.03545E-13
 -1       750 1.81839E+01 3.33128E+00-1.49318E-03 1.63690E-01 4.77941E-14-5.28353E-13
 -1       751 2.70039E+01 4.86314E+00-1.61528E-01 1.61514E+00-9.13901E-13-5.04364E-13
 -1       752 2.14335E+01-4.38639E+00 2.82036E-02-4.51587E+00-4.53283E-13-1.89036E-13
 -1       753 2.00015E+01-2.97339E-03 8.38268E-07-4.20051E-03 2.18665E-13-3.44531E-13
 -1       754 2.04488E+01 1.88489E+00-9.84419E-04 1.11060E-01-2.25469E-13-4.34439E-13
 -1       755 2.41623E+01-4.72052E+00 1.71200E-02-2.77628E+00 4.59769E-13 1.05883E-13
 -1       756 2.04612E+01 1.27637E+00-6.45124E-04-6.36366E-01 3.41712E-13-8.97244E-14
 -1       757 2.00655E+01 9.35328E-01 4.50234E-04 1.26887E+00-6.38062E-14-3.22072E-13
 -1       758 2.02099E+01 2.74029E-01 1.23297E-04 1.71682E+00 4.14645E-14-2.24241E-13
 -1       759 2.05814E+01-5.46563E-01 1.07939E-03 2.07412E+00 9.76314E-14-1.44099E-13
 -1       760 2.13390E+01-1.58697E+00 1.06570E-03 2.26880E+00 1.09235E-13-9.15913E-14
 -1       761 2.26834E+01-2.79135E+00-4.42440E-04 2.10840E+00 1.87370E-13-3.80791E-14
 -1       762 2.46472E+01-3.69510E+00 8.87045E-03 1.30750E+00 1.68213E-13 1.59721E-13
 -1       763 2.58212E+01-3.60873E+00-3.92474E-03-2.87935E-01 2.32217E-13-3.23234E-13
 -1       764 2.35773E+01-3.39349E+00 3.56476E-03-1.60363E+00 4.27971E-13-9.61002E-14
 -1       765 2.18692E+01-2.37064E+00 2.54030E-04-2.11087E+00 3.49084E-13 7.37967E-14
 -1       766 2.07602E+01-1.29415E+00-4.29927E-04-2.16767E+00 2.77165E-13 1.35907E-13
 -1       767 2.01647E+01-4.94027E-01 1.36926E-04-1.99662E+00 1.28803E-13 1.52215E-13
 -1       768 1.98793E+01 3.06922E-02 8.03426E-05-1.76158E+00 9.28926E-14 1.23417E-13
 -1       769 1.97744E+01 3.35603E-01 9.19031E-05-1.51872E+00 9.94601E-14-3.20717E-14
 -1       770 1.97628E+01 4.85497E-01 9.76245E-05-1.28814E+00-1.28524E-13-3.96818E-14
 -1       771 1.97933E+01 5.34358E-01 8.31571E-05-1.07669E+00-1.07280E-13 1.11070E-13
 -1       772 1.98378E+01 5.22205E-01 6.53568E-05-8.86898E-01-9.58348E-14-3.32242E-14
 -1       773 1.98821E+01 4.76666E-01 5.04774E-05-7.19666E-01 1.56299E-13-3.40205E-13
 -1       774 1.99202E+01 4.15805E-01 3.88935E-05-5.75002E-01-5.14458E-14-2.20091E-13
 -1       775 1.99502E+01 3.50837E-01 2.98792E-05-4.52159E-01-4.63706E-14-3.88114E-13
 -1       776 1.99724E+01 2.88307E-01 2.28044E-05-3.49747E-01 1.59094E-13-1.84768E-13
 -1       777 1.99880E+01 2.31690E-01 1.72349E-05-2.65890E-01 2.90943E-13 9.10435E-15
 -1       778 1.99983E+01 1.82506E-01 1.28622E-05-1.98423E-01 3.99860E-13-1.80541E-13
 -1       779 2.00048E+01 1.41082E-01 9.45238E-06-1.45072E-01 4.94420E-14-1.43283E-13
 -1       780 2.00083E+01 1.07054E-01 6.81943E-06-1.03602E-01 1.24597E-14 1.79328E-13
 -1       781 2.00099E+01 7.96987E-02 4.81136E-06-7.19247E-02-2.21850E-13-4.47270E-14
 -1       782 2.00102E+01 5.81336E-02 3.30252E-06-4.81637E-02-2.47583E-13 6.82285E-14
 -1       783 2.00097E+01 4.14478E-02 2.18861E-06-3.06838E-02-2.44211E-13-9.95784E-14
 -1       784 2.00087E+01 2.87741E-02 1.38330E-06-1.80989E-02-1.59470E-13 6.22487E-14
 -1       785 2.00075E+01 1.93277E-02 8.14929E-07-9.26102E-03-5.27290E-15-5.84855E-15
 -1       786 2.00063E+01 1.24221E-02 4.21350E-07-3.24066E-03 1.45653E-13-3.67172E-14
 -1       787 2.00051E+01 7.47094E-03 1.54899E-07 6.98893E-04 1.27479E-13 1.32869E-13
 -1       788 2.00039E+01 3.98162E-03-5.49006E-08 3.12812E-03 1.90842E-13-1.67571E-13
 -1       789 2.00029E+01 1.54386E-03-1.05381E-07 4.47732E-03 2.10016E-13-3.21982E-13
 -1       790 2.00020E+01-1.81744E-04 8.24749E-07 5.06907E-03 2.37875E-13-1.52124E-13
 -1       791 2.62933E+01 5.66912E-01-6.34114E-02-2.55529E+00 4.48440E-13-5.42119E-13
 -1       792 2.00042E+01-1.84188E-03-5.22891E-07 1.50100E-03 1.93338E-14 3.44898E-13
 -1       793 2.57941E+01-2.27114E+00-1.93774E-02 1.04161E+00-1.01837E-14 3.40675E-13
 -1       794 2.44177E+01-2.83092E+00-1.08813E-03-3.77316E-01-1.19269E-13 1.92270E-13
 -1       795 2.56997E+01-2.29736E+00-2.02792E-02-1.17408E+00 5.54626E-14-5.14513E-13
 -1       796 2.42766E+01-2.86587E+00-2.52053E-03 2.42755E-01-1.87103E-13-4.90571E-13
 -1       797 2.28397E+01-2.33432E+00-9.36122E-04 1.14235E+00-2.54299E-13-3.82030E-13
 -1       798 2.17165E+01-1.52319E+00-5.31356E-04 1.56501E+00-2.36442E-13-2.64458E-13
 -1       799 2.09651E+01-7.83664E-01-5.62578E-04 1.66505E+00-9.25443E-14-6.70135E-14
 -1       800 2.05134E+01-2.39924E-01-2.41707E-04 1.59857E+00-1.72534E-14 8.10705E-14
 -1       801 2.02628E+01 1.10106E-01 1.75046E-05 1.45342E+00 9.88301E-15 2.28865E-13
 -1       802 2.01340E+01 3.07274E-01 7.61770E-05 1.27596E+00-3.73565E-14 1.79726E-13
 -1       803 2.00735E+01 3.97200E-01 8.90920E-05 1.09112E+00-1.15329E-13 2.67399E-14
 -1       804 2.00482E+01 4.18050E-01 8.64601E-05 9.12737E-01-1.17774E-13 4.85299E-14
 -1       805 2.00393E+01 3.98100E-01 7.79035E-05 7.48554E-01-1.32121E-13 9.69056E-14
 -1       806 2.00367E+01 3.56763E-01 6.71686E-05 6.02607E-01-1.87440E-13 2.01844E-14
 -1       807 2.00357E+01 3.06602E-01 5.60546E-05 4.76481E-01-2.66685E-13-1.62309E-14
 -1       808 2.00345E+01 2.55286E-01 4.55541E-05 3.70096E-01 3.97260E-15-5.69072E-14
 -1       809 2.00323E+01 2.07161E-01 3.61844E-05 2.82283E-01-6.58465E-14-1.13363E-13
 -1       810 2.00293E+01 1.64406E-01 2.81527E-05 2.11228E-01 2.80602E-15 8.89694E-15
 -1       811 2.00259E+01 1.27844E-01 2.14743E-05 1.54803E-01 4.53504E-14 3.77362E-14
 -1       812 2.00222E+01 9.74804E-02 1.60571E-05 1.10802E-01 4.17670E-14 1.25033E-14
 -1       813 2.00186E+01 7.28722E-02 1.17569E-05 7.71062E-02 6.96537E-14-8.78179E-14
 -1       814 2.00153E+01 5.33517E-02 8.41101E-06 5.17776E-02 1.70789E-13-6.36423E-14
 -1       815 2.00123E+01 3.81730E-02 5.85770E-06 3.31103E-02-1.33960E-13 1.00483E-13
 -1       816 2.00097E+01 2.65971E-02 3.94564E-06 1.96473E-02-2.66288E-14 4.39888E-13
 -1       817 2.00074E+01 1.79397E-02 2.54459E-06 1.01764E-02 1.40619E-14 2.05752E-13
 -1       818 2.00056E+01 1.15930E-02 1.54025E-06 3.71185E-03 5.96011E-14 1.97374E-14
 -1       819 2.00041E+01 7.03300E-03 8.43033E-07-5.29854E-04-6.09895E-14-9.45414E-14
 -1       820 2.00029E+01 3.81681E-03 3.56740E-07-3.15720E-03-1.66938E-13-2.25192E-13
 -1       821 2.00019E+01 1.57338E-03-2.39624E-08-4.63042E-03-1.23570E-13-3.83244E-14
 -1       822 2.00012E+01-5.32895E-06-4.07978E-07-5.28561E-03-1.26031E-13-1.04279E-13
 -1       823 2.00006E+01-1.17453E-03 2.84307E-07-5.34965E-03 1.34702E-14-6.61106E-13
 -1       824 2.00006E+01-1.86968E-03-1.19895E-06-5.10510E-03 9.24962E-14-8.29820E-13
 -1       825 2.07438E+01 1.60488E-01 6.94295E-05-1.43461E+00 8.82199E-14-8.15634E-14
 -1       826 1.40112E+01-1.59528E+00 8.24628E-02-4.64155E+00 5.70094E-13 6.90403E-13
 -1       827 1.78992E+01 2.90062E+00-4.43526E-04-3.57461E-01 1.94882E-13-4.39811E-13
 -1       828 2.00044E+01-1.83710E-03-1.11455E-08-3.97136E-06 4.49436E-14-7.16503E-13
 -1       829 2.00027E+01-1.79981E-03-1.46470E-06 4.13143E-03 2.72185E-13-3.88118E-14
 -1       830 2.67183E+01 3.60733E+00-1.36830E-01-1.78521E+00-8.39866E-13 1.23144E-13
 -1       831 1.23319E+01-7.73318E-01 8.77179E-02 4.13522E+00 4.90391E-13-6.50324E-13
 -1       832 2.00037E+01-1.84137E-03-7.81629E-07 2.90954E-03 3.65217E-13 7.89168E-13
 -1       833 1.01101E+01 3.57179E-01 1.11239E-01-1.40924E+00 1.02602E-13 6.58546E-13
 -1       834 2.11551E+01-5.57095E-01 7.01826E-04-1.64618E+00 1.03561E-14-3.48261E-14
 -1       835 1.72133E+01-2.82718E+00 6.31496E-02 5.20102E+00 4.96873E-13-1.76572E-13
 -1       836 2.20811E+01-4.00776E+00 4.31705E-02 3.78751E+00 3.67751E-13 2.00274E-15
 -1       837 1.36472E+01-7.22864E-01 7.31789E-02-4.08855E+00-2.21063E-13-5.92073E-13
 -1       838 1.73741E+01-2.58432E+00 5.29570E-02-5.00030E+00-4.26308E-13-4.38587E-13
 -1       839 2.00152E+01 1.53909E+00-7.85868E-05 7.54036E-01-1.24016E-13-4.12278E-13
 -1       840 1.97359E+01 2.04604E+00-2.11674E-04 4.66166E-01-1.37887E-13-4.89666E-13
 -1       841 2.00013E+01-1.78555E-03 2.53901E-06 4.99758E-03 6.54689E-14 3.10152E-13
 -1       842 1.76764E+01 3.03473E+00-1.55123E-04-5.55168E-02 1.59376E-13-4.48884E-13
 -1       843 2.60142E+01-3.80692E+00-1.08417E-02 5.94625E-01-1.11815E-13-6.11024E-13
 -1       844 1.84401E+01 2.58370E+00-9.24027E-04-5.68869E-01 2.60458E-13-3.83017E-13
 -1       845 1.95021E+01 1.79478E+00-6.13568E-04-7.68553E-01 2.96174E-13-2.78962E-13
 -1       846 1.78912E+01-2.52389E+00 4.05623E-02 4.44798E+00-5.72674E-13 4.89105E-14
 -1       847 1.89145E+01 2.54140E+00-9.12290E-04 4.66823E-01-5.80434E-14-4.79892E-13
 -1       848 2.29793E+01-2.28700E+00 5.00785E-03-1.28168E+00-1.67841E-13 8.37980E-14
 -1       849 1.25917E+01 3.29581E-02 5.77106E-02-2.74900E+00 2.66460E-13 6.39728E-13
 -1       850 2.00037E+01-1.83515E-03 1.67900E-07-2.90871E-03 2.46172E-13 8.92526E-14
 -1       851 2.00043E+01-1.83829E-03 1.32574E-07-1.50202E-03 2.72062E-13-3.09848E-13
 -1       852 1.21054E+01-4.04015E-01 7.63369E-02 3.41629E+00-4.47709E-13 5.87239E-13
 -1       853 2.17199E+01-3.95579E+00 2.72153E-02-3.61855E+00 5.31799E-13 1.52700E-13
 -1       854 1.17191E+01 7.20593E-01 5.63271E-02 1.64150E+00 2.78905E-13-7.24351E-13
 -1       855 1.82554E+01 2.92637E+00-1.44091E-03 3.60163E-01 1.61612E-14-4.59667E-13
 -1       856 2.48075E+01-3.94545E+00 1.18151E-02-1.58702E+00-2.68892E-13 1.84940E-13
 -1       857 2.05548E+01 7.30123E-01-8.16984E-04-1.09013E+00 2.25005E-13-9.41243E-14
 -1       858 2.00029E+01-1.86438E-03-9.65945E-07-3.93871E-03 2.20213E-13-4.23652E-13
 -1       859 2.18765E+01-1.40749E+00 3.33282E-03-1.63935E+00-1.07888E-13 2.76347E-14
 -1       860 1.27079E+01 7.35527E-01 5.66482E-02-1.99176E+00-4.42552E-14-6.85108E-13
 -1       861 1.91205E+01 1.05618E+00 4.88355E-04 1.54874E+00 6.25455E-14-3.27586E-13
 -1       862 1.56676E+01-1.12475E+00 3.98201E-02 3.93147E+00-5.18489E-13 3.33546E-13
 -1       863 1.91169E+01 3.08098E-01 4.16805E-04 2.11649E+00 1.48637E-13-2.72636E-13
 -1       864 1.93380E+01-6.78552E-01 2.54041E-03 2.75564E+00 1.32253E-13-2.37735E-13
 -1       865 2.01079E+01-2.02503E+00 1.26773E-02 3.38708E+00 2.25664E-13-1.54863E-13
 -1       866 2.15703E+01-3.43658E+00 1.84558E-02 3.22523E+00-4.10650E-13-1.95802E-13
 -1       867 1.94234E+01-1.54836E+00 1.34651E-02-3.03433E+00 3.89355E-13 1.79397E-13
 -1       868 1.89554E+01-5.52667E-01 8.98521E-04-2.49321E+00 1.12254E-13 1.87730E-13
 -1       869 1.88502E+01 8.99696E-02 4.36170E-04-2.01393E+00 6.44204E-14 1.32463E-14
 -1       870 1.89198E+01 4.60033E-01 4.04478E-05-1.63696E+00-7.67657E-15 1.12232E-14
 -1       871 1.90648E+01 6.44820E-01 5.22368E-05-1.33753E+00 3.03196E-14-2.36819E-14
 -1       872 1.92307E+01 7.08490E-01 4.75683E-05-1.09487E+00-6.65042E-14 5.95187E-14
 -1       873 1.93901E+01 6.97247E-01 3.21640E-05-8.93764E-01-1.35408E-13 3.98188E-14
 -1       874 1.95308E+01 6.43152E-01 2.01628E-05-7.24570E-01-2.06633E-13 7.86174E-14
 -1       875 1.96485E+01 5.67747E-01 1.25463E-05-5.81499E-01 7.76537E-14-2.18666E-13
 -1       876 1.97435E+01 4.84999E-01 7.85788E-06-4.60935E-01-3.43933E-14-1.53506E-13
 -1       877 1.98179E+01 4.03544E-01 4.92098E-06-3.60273E-01 2.06058E-13-6.76555E-15
 -1       878 1.98748E+01 3.28336E-01 3.04373E-06-2.77288E-01 2.46448E-13-1.50155E-13
 -1       879 1.99173E+01 2.61854E-01 1.82990E-06-2.09863E-01 2.59523E-13-1.22910E-13
 -1       880 1.99482E+01 2.04970E-01 1.04280E-06-1.55925E-01 1.36235E-13-4.03596E-13
 -1       881 1.99701E+01 1.57556E-01 5.35087E-07-1.13463E-01 2.50518E-13-5.12702E-13
 -1       882 1.99852E+01 1.18910E-01 2.12535E-07-8.05858E-02-1.82289E-13-5.46064E-13
 -1       883 1.99952E+01 8.80372E-02 1.39524E-08-5.55635E-02-3.23521E-14-3.22920E-13
 -1       884 2.00015E+01 6.38335E-02-1.00836E-07-3.68627E-02-2.45107E-13-9.92264E-14
 -1       885 2.00051E+01 4.52028E-02-1.58902E-07-2.31591E-02-2.20902E-13-5.01884E-14
 -1       886 2.00069E+01 3.11230E-02-1.79828E-07-1.33368E-02-8.96185E-14 1.78847E-14
 -1       887 2.00074E+01 2.06806E-02-1.78782E-07-6.47632E-03 2.03702E-13 5.34449E-14
 -1       888 2.00072E+01 1.30823E-02-1.70816E-07-1.83600E-03 1.49220E-13 1.21042E-13
 -1       889 2.00064E+01 7.65367E-03-1.70436E-07 1.16879E-03-2.54477E-14 1.46902E-13
 -1       890 2.00054E+01 3.83088E-03 1.14551E-07 2.98785E-03 2.26545E-13 6.00340E-14
 -1       891 2.00043E+01 1.15245E-03 1.61013E-06 3.95603E-03 4.33360E-13 7.87159E-14
 -1       892 1.91297E+01 2.05710E+00 1.08712E-03 7.43712E-01-3.76562E-14-4.62418E-13
 -1       893 2.01369E+01-1.06639E+00-4.51253E-04 2.26576E+00-3.41316E-13 3.31874E-16
 -1       894 1.96925E+01-3.27325E-01-2.79458E-04 1.97523E+00-1.59748E-13 6.02737E-14
 -1       895 1.95174E+01 1.43340E-01 1.13441E-04 1.68352E+00-6.43965E-14 9.85384E-14
 -1       896 1.94899E+01 4.11814E-01 7.42072E-05 1.41722E+00 2.93340E-14 1.19911E-13
 -1       897 1.95351E+01 5.39686E-01 4.61040E-05 1.18229E+00-9.71624E-14 1.78733E-13
 -1       898 1.96097E+01 5.75761E-01 2.77770E-05 9.76856E-01-1.35655E-13 7.18441E-14
 -1       899 1.96900E+01 5.55884E-01 1.68637E-05 7.98165E-01-1.40253E-13 1.31604E-13
 -1       900 1.97642E+01 5.05048E-01 1.07068E-05 6.43945E-01-2.34014E-13 1.90637E-13
 -1       901 1.98274E+01 4.39933E-01 7.11753E-06 5.12339E-01-1.07674E-13 9.96811E-14
 -1       902 1.98785E+01 3.71165E-01 4.88085E-06 4.01581E-01-7.42650E-14-1.44460E-13
 -1       903 1.99182E+01 3.05117E-01 3.40613E-06 3.09795E-01 1.54419E-13-8.27114E-14
 -1       904 1.99479E+01 2.45270E-01 2.39842E-06 2.34948E-01-1.26313E-13-2.89240E-13
 -1       905 1.99694E+01 1.93202E-01 1.69431E-06 1.74910E-01-1.32290E-13-1.77945E-13
 -1       906 1.99845E+01 1.49286E-01 1.19468E-06 1.27545E-01-3.22058E-14 4.63113E-14
 -1       907 1.99946E+01 1.13175E-01 8.36413E-07 9.08019E-02 6.25776E-14 1.18174E-13
 -1       908 2.00011E+01 8.41300E-02 5.78373E-07 6.27895E-02 1.19951E-13 1.58016E-13
 -1       909 2.00049E+01 6.12358E-02 3.92971E-07 4.18185E-02-7.09957E-14-5.17976E-15
 -1       910 2.00069E+01 4.35335E-02 2.59663E-07 2.64242E-02-9.99401E-14-1.59758E-13
 -1       911 2.00075E+01 3.01034E-02 1.55413E-07 1.53685E-02 3.57511E-14-4.19755E-13
 -1       912 2.00074E+01 2.01092E-02 6.83025E-08 7.62880E-03-1.09989E-13-3.24339E-13
 -1       913 2.00067E+01 1.28160E-02 3.08981E-08 2.37780E-03 6.86837E-14 8.49056E-14
 -1       914 2.00058E+01 7.59396E-03 6.24552E-08-1.03687E-03 6.22038E-14 4.17212E-15
 -1       915 2.00048E+01 3.91476E-03 1.19948E-07-3.12093E-03-1.75046E-13-1.58885E-13
 -1       916 2.00037E+01 1.33422E-03-3.67341E-07-4.25394E-03-1.85562E-13-1.86010E-13
 -1       917 2.00027E+01-5.08871E-04-7.66386E-07-4.71442E-03 1.21104E-13-2.33206E-13
 -1       918 2.00057E+01 1.82752E-04-4.15748E-07 7.16216E-04 5.09466E-13-2.85368E-13
 -1       919 2.07212E+01-2.95827E+00 2.27564E-02-3.71793E+00-3.51836E-13-2.01676E-13
 -1       920 1.78459E+01 3.05405E+00-2.82472E-04 2.04032E-01 1.08936E-13-4.78238E-13
 -1       921 2.10376E+01-2.10949E+00 6.29372E-03 2.46402E+00-3.64074E-13-2.08023E-13
 -1       922 2.00035E+01-4.53344E-04-2.68261E-07 4.18726E-03 2.67115E-13 7.68561E-14
 -1       923 1.68534E+01-9.55332E-01 2.41540E-02-3.80126E+00-2.35263E-13-3.72659E-13
 -1       924 1.99471E+01 1.08874E-01 1.63413E-03-1.87953E+00 2.89692E-14-2.24944E-13
 -1       925 1.59770E+01-8.50168E-01 2.73497E-02 3.88614E+00 3.69240E-13-3.37933E-13
 -1       926 2.30013E+01-3.55752E+00 3.02673E-03 2.13955E+00-3.31994E-13-3.35324E-13
 -1       927 1.29642E+01 1.26630E+00 2.49326E-02-1.85285E-01 1.05863E-13-6.34309E-13
 -1       928 1.91139E+01 1.56743E+00-6.12324E-04 1.13669E+00 4.96125E-15-3.76254E-13
 -1       929 2.22920E+01-2.79401E+00 7.10810E-03-2.40003E+00-2.63750E-13-2.04893E-14
 -1       930 2.00018E+01-1.92955E-03 2.96803E-07-4.65568E-03 2.97782E-13-3.68768E-13
 -1       931 1.77450E+01-2.36427E+00 3.05363E-02-4.34796E+00 4.74866E-13 4.13436E-13
 -1       932 1.12328E+01 6.74354E-01 6.27214E-02 6.74622E-01-8.62240E-14 5.54324E-13
 -1       933 1.53341E+01 4.46039E-01 1.88704E-02-2.65785E+00-9.89990E-14-4.35379E-13
 -1       934 1.95562E+01 1.05931E+00 1.60028E-04-1.34471E+00 1.81510E-13-2.22622E-13
 -1       935 1.24159E+01 7.55386E-01 3.66792E-02-9.78333E-01 5.23280E-14 6.29271E-13
 -1       936 1.84590E+01-1.52243E+00 1.80471E-02 3.42518E+00-4.28264E-13 2.06155E-14
 -1       937 2.00057E+01 1.84651E-04-4.83767E-07-7.24301E-04 3.97363E-13-7.17401E-13
 -1       938 1.82327E+01 1.91442E+00-6.13665E-05-1.06510E+00 1.51426E-13-3.49149E-13
 -1       939 1.83299E+01 2.50486E+00-1.89073E-03 6.10175E-01 1.95462E-14-4.38136E-13
 -1       940 2.00047E+01-2.24225E-04-1.03516E-06 2.95770E-03 2.28003E-13 2.81757E-13
 -1       941 1.54774E+01-7.63235E-01 4.38104E-02-3.56056E+00 3.43477E-13 6.34937E-13
 -1       942 2.00053E+01 4.61105E-05-4.16834E-07-2.13438E-03 4.24920E-13-1.60049E-13
 -1       943 1.73912E+01 2.56193E+00 9.40513E-04-3.49422E-01 1.45062E-13-4.32758E-13
 -1       944 1.45890E+01 6.22902E-01 3.36004E-02 2.49733E+00 2.73405E-13-5.22272E-13
 -1       945 2.00045E+01-2.32847E-04-5.22466E-08-3.27348E-03 4.08627E-13-1.10574E-13
 -1       946 2.03887E+01-8.24529E-01 1.54474E-03-2.26658E+00-7.99792E-14-1.97834E-13
 -1       947 2.00053E+01 4.44656E-06 1.25660E-07 1.85600E-03 4.63301E-13 8.27648E-13
 -1       948 1.46757E+01 1.25961E+00 3.45998E-03-1.40706E+00-1.00787E-15-5.39834E-13
 -1       949 1.76947E+01 2.29812E+00 5.20870E-04-7.36030E-01 1.77870E-13-4.01600E-13
 -1       950 1.79125E+01 1.24013E+00-7.71184E-04 1.68249E+00 1.16812E-13-3.85655E-13
 -1       951 1.75842E+01 4.81477E-01 8.07502E-03 2.37288E+00 1.92766E-13-3.81049E-13
 -1       952 1.68796E+01-9.07081E-02 1.79971E-02 3.05310E+00 2.61601E-13-3.63962E-13
 -1       953 1.85338E+01 2.58392E-01 6.88044E-05 1.85994E+00-1.50323E-13-1.06375E-13
 -1       954 1.70825E+01-3.47549E-01 8.69995E-03-2.87219E+00 2.29173E-13 3.43081E-13
 -1       955 1.74555E+01 2.89325E-01 5.18443E-04-2.12675E+00 7.34799E-14 2.31705E-13
 -1       956 1.78649E+01 6.56047E-01-3.62334E-04-1.61109E+00 4.28311E-14 2.62831E-13
 -1       957 1.82534E+01 8.34965E-01-1.79748E-04-1.25606E+00 1.22368E-14 6.27749E-14
 -1       958 1.85993E+01 8.92906E-01-7.85140E-05-9.98053E-01-4.19399E-14 8.42623E-14
 -1       959 1.88961E+01 8.73968E-01-3.91591E-05-8.01781E-01-9.99151E-14 6.96386E-14
 -1       960 1.91443E+01 8.09163E-01-2.37939E-05-6.46101E-01-7.53372E-14 1.44798E-13
 -1       961 1.93477E+01 7.19983E-01-1.66312E-05-5.18913E-01-2.21252E-13 1.85275E-13
 -1       962 1.95116E+01 6.21142E-01-1.26149E-05-4.13469E-01-1.46999E-14 1.24306E-13
 -1       963 1.96413E+01 5.22377E-01-9.99815E-06-3.25815E-01 1.05925E-13 1.68974E-13
 -1       964 1.97422E+01 4.29729E-01-8.06558E-06-2.53337E-01 2.27437E-13 1.36224E-13
 -1       965 1.98194E+01 3.46559E-01-6.51349E-06-1.94019E-01 2.06527E-13 7.53540E-15
 -1       966 1.98775E+01 2.74353E-01-5.21577E-06-1.46103E-01 1.50037E-13 1.17227E-14
 -1       967 1.99202E+01 2.13340E-01-4.12065E-06-1.07961E-01 6.52859E-14-1.38884E-13
 -1       968 1.99511E+01 1.62963E-01-3.20374E-06-7.80714E-02-2.39187E-14-2.87648E-13
 -1       969 1.99727E+01 1.22216E-01-2.44780E-06-5.50312E-02-8.47497E-15-2.27554E-13
 -1       970 1.99874E+01 8.98822E-02-1.83504E-06-3.75757E-02-1.61878E-13-4.52922E-13
 -1       971 1.99970E+01 6.46899E-02-1.34533E-06-2.45937E-02-5.68907E-14-2.59187E-13
 -1       972 2.00029E+01 4.54147E-02-9.58429E-07-1.51326E-02 7.55378E-14-2.56613E-15
 -1       973 2.00061E+01 3.09349E-02-6.52404E-07-8.39449E-03 1.49345E-13 3.72622E-13
 -1       974 2.00076E+01 2.02600E-02-4.22719E-07-3.72547E-03 1.29155E-13 2.05665E-13
 -1       975 2.00078E+01 1.25346E-02-2.93550E-07-5.99953E-04 1.85840E-13 2.81990E-13
 -1       976 2.00072E+01 7.03656E-03-8.38716E-08 1.39041E-03 8.57623E-14 6.16714E-13
 -1       977 2.00062E+01 3.16827E-03-6.78980E-07 2.55573E-03 2.59947E-13 3.72516E-13
 -1       978 1.85001E+01-2.80098E-01-2.85217E-04 2.35652E+00-2.28935E-13-1.43227E-13
 -1       979 1.88977E+01 7.05377E-01-9.16727E-05 1.18753E+00-1.52494E-13 1.58984E-13
 -1       980 1.91005E+01 7.46105E-01-7.58314E-05 9.58540E-01-6.32657E-14 1.86616E-13
 -1       981 1.92863E+01 7.22147E-01-6.12351E-05 7.73569E-01-1.18480E-13 6.86436E-14
 -1       982 1.94474E+01 6.60887E-01-4.86986E-05 6.21299E-01-2.14845E-13 3.83395E-14
 -1       983 1.95819E+01 5.81145E-01-3.83313E-05 4.94815E-01-2.27416E-14-1.21340E-13
 -1       984 1.96910E+01 4.95451E-01-2.99446E-05 3.89733E-01-1.48561E-13-1.90007E-13
 -1       985 1.97773E+01 4.11744E-01-2.31962E-05 3.02970E-01-7.52378E-15-7.53535E-14
 -1       986 1.98440E+01 3.34683E-01-1.77637E-05 2.32066E-01 2.75612E-14 1.55846E-13
 -1       987 1.98944E+01 2.66636E-01-1.34024E-05 1.74855E-01-8.36059E-14 1.82132E-13
 -1       988 1.99317E+01 2.08441E-01-9.92961E-06 1.29346E-01-1.69819E-13 2.19734E-13
 -1       989 1.99587E+01 1.59957E-01-7.19973E-06 9.36909E-02-1.08101E-13 2.20617E-13
 -1       990 1.99776E+01 1.20466E-01-5.08786E-06 6.61992E-02 1.66706E-13 2.55392E-13
 -1       991 1.99904E+01 8.89521E-02-3.48315E-06 4.53568E-02 2.60199E-14 2.39885E-13
 -1       992 1.99986E+01 6.42821E-02-2.28751E-06 2.98386E-02 5.54535E-14 1.57005E-13
 -1       993 2.00036E+01 4.53280E-02-1.41740E-06 1.85112E-02 1.01413E-13 7.45613E-14
 -1       994 2.00063E+01 3.10358E-02-7.62947E-07 1.04274E-02-3.55678E-14 1.70948E-13
 -1       995 2.00074E+01 2.04651E-02-6.63928E-07 4.81110E-03-1.57681E-13 8.56936E-14
 -1       996 2.00075E+01 1.27862E-02-1.29110E-06 1.03429E-03 6.11249E-14 9.63065E-14
 -1       997 2.00068E+01 7.31082E-03-9.48729E-07-1.38655E-03-5.58261E-14 4.36427E-13
 -1       998 2.00058E+01 3.45451E-03-1.02331E-06-2.83263E-03 3.72109E-14 3.24454E-13
 -1       999 1.81120E+01 1.06472E+00-1.06595E-03-1.76335E+00 6.15350E-14-3.01153E-13
 -1      1000 1.62859E+01-1.75644E-01 4.82932E-03 2.79509E+00-2.78857E-13 2.11918E-13
 -1      1001 1.76907E+01-7.72451E-02 9.85267E-03-2.81015E+00-1.23673E-13-2.74655E-13
 -1      1002 2.00055E+01 1.34673E-03-4.55520E-07 2.86741E-03 1.16998E-13 2.45752E-13
 -1      1003 2.11117E+01-1.76393E+00-3.75482E-03-2.45155E+00-1.98993E-13-1.13647E-13
 -1      1004 1.73465E+01 2.59586E+00-2.59311E-04 1.92565E-01 1.25103E-13-4.24563E-13
 -1      1005 1.86963E+01 5.60971E-01-6.48507E-05 1.47857E+00-8.58666E-14 8.09508E-14
 -1      1006 1.97426E+01-1.60445E+00 6.44041E-03-3.19229E+00-2.73182E-13-2.62144E-13
 -1      1007 1.37793E+01 3.34454E-01 3.10472E-02 2.33978E+00-3.12623E-13 2.78224E-13
 -1      1008 1.65463E+01 8.38129E-01-2.07686E-03-2.15255E+00-7.44884E-14-3.43993E-13
 -1      1009 1.35856E+01 8.96703E-01 2.35264E-02 9.41238E-01-2.27474E-13 3.12702E-13
 -1      1010 1.87447E+01-1.15977E+00 1.51502E-02 2.98089E+00-3.80290E-13-5.22345E-14
 -1      1011 2.00047E+01 7.48098E-04 2.20399E-06-3.56606E-03 1.97977E-13-1.07462E-13
 -1      1012 1.44909E+01 3.49515E-01 2.16474E-02-2.32997E+00 6.75324E-14 5.40365E-13
 -1      1013 2.00067E+01 2.63531E-03-1.18934E-07-1.25056E-03 2.12810E-13-3.21885E-13
 -1      1014 1.81232E+01 1.72370E+00 1.56766E-03 1.22294E+00 9.65143E-14-3.91241E-13
 -1      1015 2.00061E+01 2.16187E-03 3.99832E-06-2.31515E-03 2.76074E-13-9.34601E-14
 -1      1016 2.00069E+01 2.80820E-03 5.48254E-07-6.90274E-06 5.07120E-13-5.49884E-13
 -1      1017 1.77703E+01 2.60238E+00 1.03177E-03 4.81632E-01 8.01070E-14-4.08540E-13
 -1      1018 1.68966E+01 2.09361E+00-1.06512E-03-6.97705E-01 7.03457E-14-3.81052E-13
 -1      1019 1.66713E+01 2.22166E+00-7.65108E-04 9.06423E-02 6.84743E-14-4.13372E-13
 -1      1020 2.00068E+01 2.59464E-03 1.47364E-06 9.88730E-04 5.79463E-13 1.38026E-13
 -1      1021 1.49291E+01 1.55512E+00 1.14987E-02 8.61927E-01 1.38088E-13-4.87301E-13
 -1      1022 1.66417E+01 9.08353E-01-2.01490E-03-1.29585E+00 8.01618E-14 2.97462E-13
 -1      1023 1.73731E+01 1.04021E+00-8.61804E-04-9.69027E-01-5.79254E-14 3.71835E-13
 -1      1024 1.79423E+01 1.07187E+00-5.30944E-04-7.45135E-01-1.26508E-13 2.73098E-13
 -1      1025 1.83954E+01 1.03639E+00-2.75530E-04-5.87988E-01-1.69027E-14 1.10872E-13
 -1      1026 1.87570E+01 9.59531E-01-1.71459E-04-4.70539E-01-7.53885E-14 2.06898E-13
 -1      1027 1.90466E+01 8.58690E-01-1.18219E-04-3.77970E-01-1.99355E-13 8.58144E-14
 -1      1028 1.92778E+01 7.47067E-01-8.87786E-05-3.02614E-01 2.34730E-15-1.09017E-15
 -1      1029 1.94610E+01 6.34342E-01-7.03708E-05-2.40318E-01 1.15928E-13 2.28608E-13
 -1      1030 1.96048E+01 5.27122E-01-5.72251E-05-1.88675E-01 2.03899E-13 2.62086E-13
 -1      1031 1.97160E+01 4.29481E-01-4.68522E-05-1.46099E-01 5.94727E-15 1.51384E-13
 -1      1032 1.98010E+01 3.43526E-01-3.82024E-05-1.11365E-01 1.22738E-13 7.65304E-15
 -1      1033 1.98647E+01 2.69940E-01-3.08379E-05-8.34071E-02 5.02503E-14-1.98015E-13
 -1      1034 1.99117E+01 2.08428E-01-2.45663E-05-6.12390E-02-1.00244E-13-2.70567E-13
 -1      1035 1.99456E+01 1.58088E-01-1.92803E-05-4.39418E-02-5.93194E-14-3.01431E-13
 -1      1036 1.99694E+01 1.17688E-01-1.48913E-05-3.06713E-02 3.52486E-15-6.56799E-14
 -1      1037 1.99856E+01 8.58599E-02-1.13064E-05-2.06706E-02-1.34442E-13 6.40618E-14
 -1      1038 1.99962E+01 6.12346E-02-8.42701E-06-1.32773E-02-3.39794E-14 5.49511E-15
 -1      1039 2.00027E+01 4.25236E-02-6.18302E-06-7.92633E-03 3.47571E-13-1.15696E-13
 -1      1040 2.00063E+01 2.85648E-02-4.34934E-06-4.14752E-03 1.24594E-13 1.63783E-14
 -1      1041 2.00079E+01 1.83533E-02-2.03267E-06-1.55555E-03 2.59792E-13 5.04797E-14
 -1      1042 2.00081E+01 1.10040E-02-3.54035E-07 1.53132E-04 1.41972E-13-1.32627E-13
 -1      1043 2.00075E+01 5.79784E-03-1.16065E-06 1.21474E-03 1.03130E-13-2.26108E-15
 -1      1044 1.91095E+01 8.14146E-01-1.72558E-04 5.22429E-01-9.53975E-14 1.66607E-13
 -1      1045 1.72623E+01 4.97940E-01-2.25206E-04 1.84879E+00-1.79317E-13 5.94670E-14
 -1      1046 1.88529E+01 8.88075E-01-2.32675E-04 6.57520E-01-1.09342E-13 2.14036E-13
 -1      1047 1.85432E+01 9.23976E-01-3.43150E-04 8.30999E-01-1.21119E-13-9.45661E-15
 -1      1048 1.93194E+01 7.20186E-01-1.34276E-04 4.14313E-01-5.65974E-14-2.90376E-14
 -1      1049 1.94886E+01 6.18942E-01-1.07099E-04 3.26482E-01-3.84087E-15 7.17625E-14
 -1      1050 1.96230E+01 5.19056E-01-8.62154E-05 2.54793E-01-1.24649E-13-1.42715E-13
 -1      1051 1.97280E+01 4.25977E-01-6.93357E-05 1.96438E-01-1.12502E-13-4.25144E-14
 -1      1052 1.98087E+01 3.42753E-01-5.53458E-05 1.49302E-01-8.78789E-14 2.20778E-13
 -1      1053 1.98697E+01 2.70699E-01-4.36733E-05 1.11641E-01-1.48162E-13 3.22578E-13
 -1      1054 1.99147E+01 2.09956E-01-3.39812E-05 8.19361E-02-1.05957E-13 2.88516E-13
 -1      1055 1.99473E+01 1.59913E-01-2.60236E-05 5.88397E-02-5.74670E-14 2.58803E-13
 -1      1056 1.99703E+01 1.19529E-01-1.95845E-05 4.11577E-02 1.01603E-13 3.26344E-13
 -1      1057 1.99861E+01 8.75634E-02-1.44569E-05 2.78448E-02-2.43886E-14 2.02055E-13
 -1      1058 1.99963E+01 6.27274E-02-1.04408E-05 1.80020E-02 9.52495E-14 2.39188E-13
 -1      1059 2.00026E+01 4.37831E-02-7.45401E-06 1.08698E-02-3.00093E-15 2.92772E-13
 -1      1060 2.00062E+01 2.95934E-02-4.83183E-06 5.82013E-03 9.66029E-14 3.30184E-13
 -1      1061 2.00077E+01 1.92101E-02-2.15730E-06 2.36369E-03-1.15648E-14 9.82174E-14
 -1      1062 2.00080E+01 1.17013E-02 1.09620E-06 8.20729E-05-2.53449E-14-2.35672E-14
 -1      1063 2.00074E+01 6.31288E-03-1.48289E-06-1.39462E-03 3.91079E-14-7.42388E-14
 -1      1064 1.41879E+01 1.01656E+00 1.57158E-02-6.27180E-01-1.23849E-13 4.88242E-13
 -1      1065 1.88356E+01-8.55134E-02 7.19584E-03-2.47642E+00-3.33197E-14-2.28852E-13
 -1      1066 1.61794E+01 1.18056E+00 4.21747E-04 1.76070E+00 1.92213E-13-4.37404E-13
 -1      1067 1.73759E+01 1.64159E+00 4.98507E-03-1.29046E+00 5.49163E-14-3.79148E-13
 -1      1068 2.00062E+01 1.99858E-03 4.07328E-06 1.92267E-03 2.44572E-13 4.43085E-13
 -1      1069 2.00078E+01 6.28146E-03 1.10202E-05-4.27892E-04 2.98763E-13-2.82422E-13
 -1      1070 1.57595E+01 1.88242E+00 6.20184E-03-3.89688E-01 4.19676E-14-4.33705E-13
 -1      1071 1.58527E+01 8.10491E-01 1.33728E-03 1.47269E+00-1.40631E-13 1.24156E-13
 -1      1072 1.57211E+01 7.16898E-01 6.79215E-03-1.70803E+00-2.23770E-14 5.19499E-13
 -1      1073 2.00078E+01 6.12251E-03-6.72887E-06 2.05389E-04 5.21671E-13-3.66575E-13
 -1      1074 1.71623E+01 2.22578E+00-2.00728E-03 6.30770E-01 8.67701E-14-3.97994E-13
 -1      1075 1.81747E+01 8.96689E-01-5.32901E-04 1.06236E+00-1.41618E-13 2.56162E-14
 -1      1076 1.63921E+01 1.77254E+00 3.44533E-04 9.78387E-01 1.13750E-13-4.09154E-13
 -1      1077 1.77446E+01 7.70068E-01-8.46209E-04 1.38258E+00-2.06062E-13-1.04241E-13
 -1      1078 1.65161E+01 1.21611E+00 3.21856E-04-3.81079E-01-7.88751E-14 3.75252E-13
 -1      1079 2.00084E+01 1.17455E-02 1.37599E-06-4.63910E-05 1.64015E-13-9.15563E-14
 -1      1080 1.73355E+01 1.20700E+00-2.48547E-04-2.83990E-01-1.07237E-13 2.68551E-13
 -1      1081 1.79412E+01 1.15685E+00-4.77449E-04-2.28257E-01-2.36120E-13 2.91416E-13
 -1      1082 1.84082E+01 1.07420E+00-3.22594E-04-1.85715E-01-2.46434E-13 1.97381E-14
 -1      1083 1.87753E+01 9.68417E-01-2.13142E-04-1.51889E-01-1.73416E-13-1.53007E-13
 -1      1084 1.90659E+01 8.50386E-01-1.46063E-04-1.23925E-01-1.23795E-13-7.57320E-14
 -1      1085 1.92960E+01 7.29329E-01-1.01495E-04-1.00283E-01 1.72983E-13-3.72336E-15
 -1      1086 1.94771E+01 6.12240E-01-6.96608E-05-8.01731E-02 2.07833E-13 1.25955E-13
 -1      1087 1.96185E+01 5.03884E-01-4.62497E-05-6.31612E-02 3.79158E-14 2.15755E-13
 -1      1088 1.97274E+01 4.07071E-01-2.90526E-05-4.89450E-02-1.82044E-13 1.23631E-13
 -1      1089 1.98102E+01 3.23054E-01-1.66455E-05-3.72501E-02-1.73342E-13-1.44953E-13
 -1      1090 1.98720E+01 2.51942E-01-7.94939E-06-2.77941E-02-5.75933E-14-2.16865E-13
 -1      1091 1.99174E+01 1.93068E-01-2.09052E-06-2.02848E-02-7.73915E-15-2.12687E-13
 -1      1092 1.99500E+01 1.45299E-01 1.64579E-06-1.44301E-02 1.75989E-13-1.37176E-13
 -1      1093 1.99727E+01 1.07266E-01 3.83362E-06-9.95047E-03-1.27545E-13-7.45728E-14
 -1      1094 1.99881E+01 7.75312E-02 4.91455E-06-6.58963E-03-3.55498E-14 7.03259E-14
 -1      1095 1.99980E+01 5.47001E-02 5.18888E-06-4.12101E-03 8.10844E-14-7.23532E-14
 -1      1096 2.00039E+01 3.74832E-02 4.67209E-06-2.35058E-03 2.04522E-13-1.98414E-13
 -1      1097 2.00070E+01 2.47405E-02 5.85087E-06-1.13536E-03 1.30266E-13-4.21174E-13
 -1      1098 2.00083E+01 1.54514E-02 1.74179E-06-3.15479E-04 1.15370E-13-5.76944E-13
 -1      1099 1.92878E+01 7.33359E-01 1.44362E-04 2.09596E-01 6.20993E-14 3.13464E-13
 -1      1100 1.67512E+01 1.00503E+00 3.51724E-03 1.05642E+00-1.13542E-13 1.77316E-14
 -1      1101 1.90598E+01 8.47646E-01 1.96823E-04 2.67585E-01-1.41440E-13 3.67285E-13
 -1      1102 1.84172E+01 1.04202E+00 3.59863E-04 4.37919E-01-2.82219E-13 1.56521E-13
 -1      1103 1.94687E+01 6.19927E-01 1.07633E-04 1.63332E-01 1.18750E-13 1.47571E-13
 -1      1104 1.96106E+01 5.13163E-01 8.12314E-05 1.26186E-01-8.74101E-14-1.39128E-13
 -1      1105 1.97205E+01 4.16628E-01 6.15900E-05 9.63819E-02-1.96750E-13-1.08891E-13
 -1      1106 1.98045E+01 3.32101E-01 4.65860E-05 7.26089E-02-1.36446E-13-6.18795E-14
 -1      1107 1.98674E+01 2.60054E-01 3.49557E-05 5.38218E-02-1.50224E-13 9.92851E-14
 -1      1108 1.99138E+01 2.00062E-01 2.59010E-05 3.91469E-02 5.27369E-14 1.12012E-13
 -1      1109 1.99473E+01 1.51147E-01 1.88725E-05 2.78368E-02 6.63488E-14-1.73671E-13
 -1      1110 1.99707E+01 1.12030E-01 1.34587E-05 1.92486E-02 8.59473E-14-5.52578E-14
 -1      1111 1.99867E+01 8.13266E-02 9.33635E-06 1.28336E-02 1.10522E-13-1.88544E-13
 -1      1112 1.99970E+01 5.76617E-02 6.28606E-06 8.12920E-03-7.14310E-14 4.91817E-15
 -1      1113 2.00033E+01 3.97571E-02 4.72200E-06 4.75250E-03 7.51489E-15 1.00658E-13
 -1      1114 2.00067E+01 2.64669E-02 2.07398E-06 2.37017E-03 1.26683E-13-1.40929E-13
 -1      1115 2.00080E+01 1.81820E-02 4.64595E-06 7.28205E-04 1.51595E-13-9.88094E-14
 -1      1116 1.56367E+01 1.15326E+00-6.35950E-03 4.32750E-01-6.33290E-14 2.35856E-13
 -1      1117 1.87741E+01 9.54322E-01 2.70472E-04 3.41424E-01-1.39637E-13 2.15644E-13
 -1      1118 1.59251E+01 1.13849E+00 3.52792E-03-5.46267E-01-1.83686E-14 5.36881E-13
 -1      1119 2.00082E+01 8.82650E-03-6.27992E-06 2.56610E-04 3.33310E-13-4.36828E-13
 -1      1120 1.79690E+01 1.09643E+00 4.04693E-04 5.68452E-01-2.38705E-13 8.90801E-14
 -1      1121 1.73993E+01 1.09806E+00-2.73316E-05 7.52358E-01-1.81086E-13 4.75446E-14
 -1      1122 2.85151E+01 9.24139E+00 2.28930E+00-6.42110E+00-7.07212E-14 1.80689E-12
 -1      1123 2.14597E+01 6.51904E+00 2.70410E-01-3.35606E+00-3.48610E-14 7.26086E-14
 -1      1124 2.01486E+01 6.07795E+00 1.11226E-01-2.16645E+00-2.27873E-14-6.24625E-13
 -1      1125 1.93893E+01 5.83799E+00 7.06371E-02-1.44153E+00-1.40721E-14-9.27942E-13
 -1      1126 1.88034E+01 5.65519E+00 4.72190E-02-9.32486E-01-8.01442E-15-1.05975E-12
 -1      1127 1.83327E+01 5.50842E+00 2.86688E-02-5.74432E-01-3.28904E-15-1.10252E-12
 -1      1128 1.79778E+01 5.39773E+00 1.46015E-02-3.25312E-01-3.05311E-16-1.10089E-12
 -1      1129 1.77547E+01 5.32808E+00 5.57264E-03-1.47573E-01 2.50494E-15-1.07111E-12
 -1      1130 1.76833E+01 5.30584E+00 2.86700E-03-6.07874E-03 6.24500E-15-1.03509E-12
 -1      1131 1.77681E+01 5.33245E+00 6.71225E-03 1.38706E-01 8.03871E-15-9.77709E-13
 -1      1132 1.80010E+01 5.40528E+00 1.65912E-02 3.25677E-01 1.14631E-14-8.99340E-13
 -1      1133 1.83608E+01 5.51771E+00 3.15958E-02 5.88182E-01 1.46619E-14-7.67266E-13
 -1      1134 1.88284E+01 5.66352E+00 4.99215E-02 9.61359E-01 1.83534E-14-5.69207E-13
 -1      1135 1.94050E+01 5.84308E+00 7.18775E-02 1.48655E+00 2.26902E-14-2.49851E-13
 -1      1136 2.01445E+01 6.07507E+00 1.05692E-01 2.22324E+00 2.81442E-14 2.80742E-13
 -1      1137 2.13515E+01 6.46981E+00 2.14519E-01 3.35249E+00 2.83940E-14 1.21651E-12
 -1      1138 2.58743E+01 8.19148E+00 1.43054E+00 5.56122E+00 4.35207E-14 2.95255E-12
 -1      1139 2.92549E+01 3.49333E+00 1.11599E+00-4.03997E+00-2.74059E-13 2.88747E-12
 -1      1140 2.15658E+01-1.89216E-01-6.30558E-01-5.10129E-02-9.67490E-14 2.25894E-12
 -1      1141 2.08697E+01-9.89200E-02-2.30215E-01 7.93299E-02-3.87485E-14 1.39145E-12
 -1      1142 2.11416E+01-5.17181E-02-6.15859E-02 5.44209E-02-2.09572E-14 8.11962E-13
 -1      1143 2.17162E+01-2.70608E-02-1.90001E-02 4.33756E-02-1.07566E-14 4.28609E-13
 -1      1144 2.24562E+01-9.58320E-03-1.30637E-03 3.85429E-02-3.16598E-15 1.95600E-13
 -1      1145 2.32342E+01 8.46733E-03 1.98166E-02 3.36193E-02-1.49915E-14 1.81521E-14
 -1      1146 2.38895E+01 2.93873E-02 4.94214E-02 2.32989E-02-6.22636E-15-9.64645E-14
 -1      1147 2.42122E+01 5.12202E-02 8.32446E-02 2.35910E-03-2.79074E-15-2.59175E-13
 -1      1148 2.39679E+01 6.63371E-02 1.07193E-01-3.19569E-02-2.32401E-14-4.71193E-13
 -1      1149 2.29898E+01 6.14498E-02 9.81930E-02-7.47838E-02 8.51836E-15-7.78017E-13
 -1      1150 2.13353E+01 2.46763E-02 3.69616E-02-1.08822E-01-6.73615E-15-7.45903E-13
 -1      1151 1.94235E+01-3.97265E-02-6.74137E-02-1.08669E-01 8.13065E-15-9.44536E-13
 -1      1152 1.79762E+01-1.00613E-01-1.64124E-01-6.00926E-02-2.86490E-15-1.03716E-12
 -1      1153 1.76642E+01-1.17060E-01-1.90037E-01 2.01253E-02 1.67401E-15-1.21233E-12
 -1      1154 1.86678E+01-7.67203E-02-1.26554E-01 9.05635E-02-1.27173E-14-1.44054E-12
 -1      1155 2.05461E+01-9.08208E-03-1.84647E-02 1.17755E-01-2.18978E-14-1.72773E-12
 -1      1156 2.25495E+01 4.52448E-02 7.02094E-02 1.00219E-01-8.07167E-15-1.88488E-12
 -1      1157 2.40667E+01 6.72403E-02 1.06835E-01 6.02786E-02-7.74381E-15-1.98466E-12
 -1      1158 2.48489E+01 6.21065E-02 9.82897E-02 2.12272E-02-4.16247E-15-1.99501E-12
 -1      1159 2.49573E+01 4.40497E-02 6.82428E-02-5.33901E-03 2.58162E-14-1.80788E-12
 -1      1160 2.45980E+01 2.44246E-02 3.63334E-02-1.84990E-02-3.63772E-15-1.43881E-12
 -1      1161 2.39885E+01 8.83373E-03 1.19434E-02-2.21224E-02-1.03423E-14-1.40231E-12
 -1      1162 2.32949E+01-1.42392E-03-3.21423E-03-2.05369E-02-2.47943E-14-1.54771E-12
 -1      1163 2.26215E+01-7.12552E-03-1.09468E-02-1.68434E-02 1.08082E-14-1.44313E-12
 -1      1164 2.20222E+01-9.60853E-03-1.37937E-02-1.27909E-02 4.62456E-14-1.09100E-12
 -1      1165 2.15178E+01-1.00890E-02-1.38493E-02-9.17849E-03 5.25039E-14-9.38517E-13
 -1      1166 2.11096E+01-9.46138E-03-1.25245E-02-6.26796E-03-6.02361E-15-1.01375E-12
 -1      1167 2.07892E+01-8.31151E-03-1.06626E-02-4.06210E-03 2.30738E-14-9.37782E-13
 -1      1168 2.05440E+01-6.99185E-03-8.72211E-03-2.46152E-03 3.52257E-14-9.18687E-13
 -1      1169 2.03608E+01-5.69803E-03-6.92801E-03-1.34184E-03-3.49454E-14-8.52869E-13
 -1      1170 2.02271E+01-4.52756E-03-5.37297E-03-5.86720E-04-1.28110E-14-1.27097E-12
 -1      1171 2.01319E+01-3.51985E-03-4.07918E-03-9.89962E-05-2.31302E-14-1.23354E-12
 -1      1172 2.00660E+01-2.68173E-03-3.03384E-03 1.97866E-04-6.49608E-14-1.42601E-12
 -1      1173 2.00222E+01-2.00292E-03-2.20874E-03 3.62100E-04 2.19247E-14-1.31148E-12
 -1      1174 1.99944E+01-1.46523E-03-1.57066E-03 4.36954E-04 2.48647E-15-1.03088E-12
 -1      1175 1.99781E+01-1.04778E-03-1.08672E-03 4.53921E-04 7.20704E-15-1.08610E-12
 -1      1176 1.99698E+01-7.29864E-04-7.26867E-04 4.35505E-04-2.44938E-15-8.56871E-13
 -1      1177 1.99669E+01-4.92420E-04-4.64932E-04 3.97451E-04-2.36368E-14-6.00517E-13
 -1      1178 1.99675E+01-3.18661E-04-2.78782E-04 3.50502E-04 9.02076E-15-4.83911E-13
 -1      1179 1.99702E+01-1.94231E-04-1.50091E-04 3.01752E-04-5.88967E-14-5.37576E-13
 -1      1180 1.99741E+01-1.07085E-04-6.38807E-05 2.55655E-04-3.86646E-14-2.63184E-13
 -1      1181 1.99785E+01-4.72070E-05-7.90803E-06 2.14766E-04-8.46670E-14-8.95322E-13
 -1      1182 1.99830E+01-6.24521E-06 2.80442E-05 1.80204E-04 8.94735E-15-9.22811E-13
 -1      1183 1.99874E+01 2.28331E-05 5.31042E-05 1.51829E-04-2.76509E-14-1.13377E-12
 -1      1184 1.99915E+01 4.61296E-05 7.63230E-05 1.28011E-04 7.23219E-14-8.64148E-13
 -1      1185 1.99950E+01 6.86563E-05 1.06625E-04 1.04410E-04 8.17391E-15-7.49323E-13
 -1      1186 1.99978E+01 9.19678E-05 1.44878E-04 6.95921E-05 3.70860E-14 4.44419E-14
 -1      1187 1.99995E+01 1.20601E-04 1.50140E-04 3.34299E-07-4.48341E-14 7.15009E-14
 -1      1188 1.99999E+01-3.87849E-05-7.03288E-05-4.41262E-05 6.76235E-14-6.01931E-14
 -1      1189 2.82388E+01 5.17701E-01 2.45827E-01 1.92029E+00-5.29715E-14 4.33104E-12
 -1      1190 2.14398E+01-7.25229E-02-5.79683E-01 1.07054E-01 1.91722E-14 3.72589E-12
 -1      1191 2.08957E+01-4.56736E-02-1.90415E-01 9.51815E-03 1.60523E-14 3.06133E-12
 -1      1192 2.10945E+01-2.56155E-02-5.34489E-02-6.03366E-03 1.58480E-14 2.61387E-12
 -1      1193 2.16119E+01-1.29502E-02-1.65287E-02-1.40155E-02 3.86171E-15 2.34342E-12
 -1      1194 2.22848E+01-2.01063E-04 4.68075E-04-2.09964E-02-1.19577E-15 2.17412E-12
 -1      1195 2.29777E+01 1.51537E-02 2.07608E-02-2.80566E-02-1.05970E-15 2.05678E-12
 -1      1196 2.35332E+01 3.25420E-02 4.83550E-02-3.29446E-02 1.71499E-14 1.90732E-12
 -1      1197 2.37572E+01 4.75036E-02 7.82037E-02-3.08154E-02-4.80518E-16 1.76500E-12
 -1      1198 2.34471E+01 5.14113E-02 9.67798E-02-1.56076E-02 2.37102E-14 1.57617E-12
 -1      1199 2.24774E+01 3.50507E-02 8.48146E-02 1.56401E-02 1.60037E-14 1.50286E-12
 -1      1200 2.09321E+01-2.74730E-03 2.95498E-02 5.62059E-02-4.64819E-15 1.60863E-12
 -1      1201 1.92031E+01-4.72875E-02-5.70479E-02 8.70807E-02 2.86706E-15 1.54765E-12
 -1      1202 1.79198E+01-7.33473E-02-1.33415E-01 8.62169E-02-2.66506E-14 1.36587E-12
 -1      1203 1.76496E+01-6.57476E-02-1.53962E-01 4.73658E-02 2.06996E-14 9.94630E-13
 -1      1204 1.85419E+01-3.30547E-02-1.07810E-01-1.07555E-02 1.06521E-14 6.48440E-13
 -1      1205 2.02275E+01 2.65939E-03-2.75221E-02-5.84025E-02-4.11455E-14 6.85202E-13
 -1      1206 2.20676E+01 2.51122E-02 4.13882E-02-7.71313E-02 3.70062E-14 6.39683E-13
 -1      1207 2.35186E+01 3.16798E-02 7.42464E-02-6.87149E-02 2.23606E-15 3.79183E-13
 -1      1208 2.43318E+01 2.76817E-02 7.35776E-02-4.64053E-02-3.02909E-14 4.71116E-13
 -1      1209 2.45300E+01 1.94536E-02 5.48495E-02-2.29262E-02 2.31495E-14 5.13142E-13
 -1      1210 2.42779E+01 1.11753E-02 3.23678E-02-4.99599E-03-3.24111E-15 4.65131E-13
 -1      1211 2.37662E+01 4.66414E-03 1.39165E-02 5.94972E-03 1.32826E-15 1.78389E-13
 -1      1212 2.31500E+01 2.65585E-04 1.63256E-03 1.11857E-02 2.91006E-14-2.23700E-13
 -1      1213 2.25320E+01-2.33454E-03-5.24654E-03 1.26572E-02 1.03165E-15-2.33147E-13
 -1      1214 2.19699E+01-3.62621E-03-8.33460E-03 1.20252E-02-1.96829E-14 3.79629E-13
 -1      1215 2.14891E+01-4.05956E-03-9.11239E-03 1.04252E-02-1.91769E-14 3.82205E-13
 -1      1216 2.10951E+01-3.97869E-03-8.64406E-03 8.53257E-03-4.48508E-14 3.23838E-13
 -1      1217 2.07828E+01-3.62149E-03-7.60172E-03 6.70334E-03-2.76904E-14 1.79962E-13
 -1      1218 2.05420E+01-3.14143E-03-6.37349E-03 5.09785E-03-3.42597E-14 2.13319E-13
 -1      1219 2.03610E+01-2.63174E-03-5.16588E-03 3.76710E-03 1.29987E-14 1.85799E-13
 -1      1220 2.02281E+01-2.14523E-03-4.07748E-03 2.70636E-03 5.78257E-15 1.61279E-13
 -1      1221 2.01331E+01-1.70882E-03-3.14603E-03 1.88580E-03 2.51093E-14 1.54618E-13
 -1      1222 2.00672E+01-1.33339E-03-2.37664E-03 1.26712E-03-9.61321E-15 7.94331E-14
 -1      1223 2.00231E+01-1.02042E-03-1.75811E-03 8.11804E-04 3.49742E-14-2.04379E-14
 -1      1224 1.99951E+01-7.66073E-04-1.27207E-03 4.85017E-04-1.14804E-14-1.00219E-13
 -1      1225 1.99786E+01-5.63927E-04-8.98057E-04 2.56956E-04 5.76236E-14-2.58485E-13
 -1      1226 1.99702E+01-4.06545E-04-6.16093E-04 1.03060E-04-4.67648E-15-2.48244E-13
 -1      1227 1.99671E+01-2.86436E-04-4.08033E-04 3.61078E-06 1.96278E-14-3.97118E-13
 -1      1228 1.99676E+01-1.96569E-04-2.58061E-04-5.69054E-05-3.47793E-14-1.45229E-13
 -1      1229 1.99703E+01-1.30606E-04-1.52751E-04-9.04924E-05-5.42425E-14 1.46582E-13
 -1      1230 1.99741E+01-8.29410E-05-8.08709E-05-1.06324E-04 4.49065E-14-1.93736E-13
 -1      1231 1.99785E+01-4.86108E-05-3.29928E-05-1.11351E-04 3.38130E-14-5.55749E-13
 -1      1232 1.99830E+01-2.31070E-05-9.19135E-07-1.10821E-04-7.51763E-14 2.24934E-13
 -1      1233 1.99874E+01-2.12413E-06 2.31774E-05-1.08623E-04 6.55704E-15 2.73086E-13
 -1      1234 1.99914E+01 1.85508E-05 4.77732E-05-1.07307E-04 2.70859E-14-4.69824E-13
 -1      1235 1.99950E+01 4.32036E-05 8.20199E-05-1.07425E-04 1.01957E-14-1.03538E-12
 -1      1236 1.99978E+01 7.18603E-05 1.26811E-04-1.02689E-04 4.86746E-14-1.28565E-12
 -1      1237 1.99995E+01 7.84775E-05 1.33335E-04-6.58363E-05 6.81009E-14-1.46477E-12
 -1      1238 1.99999E+01-3.59965E-05-7.32298E-05 3.80160E-05-8.22716E-14-1.02212E-12
 -1      1239 1.99998E+01 1.05800E-04-6.96741E-05 3.28902E-05-1.03486E-12-6.63312E-14
 -1      1240 1.99999E+01-3.04313E-04 1.31112E-04-8.09530E-07-5.17040E-13 1.88219E-15
 -1      1241 1.99999E+01-2.00248E-03 1.06684E-04-7.66332E-05 3.23930E-13-4.18154E-14
 -1      1242 1.99998E+01-4.46286E-03 3.32344E-05-9.86558E-05 3.16744E-13-6.82498E-14
 -1      1243 1.99998E+01-7.12302E-03-3.07390E-05-9.50075E-05-6.82343E-13-2.56884E-13
 -1      1244 1.99997E+01-9.54609E-03-7.60836E-05-7.77132E-05-1.45177E-12-6.52297E-14
 -1      1245 1.99997E+01-1.14623E-02-1.04405E-04-5.54114E-05-5.29949E-13 3.31862E-14
 -1      1246 1.99997E+01-1.26941E-02-1.20553E-04-2.82934E-05-1.06126E-12-1.22056E-13
 -1      1247 1.99997E+01-1.31120E-02-1.25657E-04 2.11258E-07-1.64901E-12 2.65054E-14
 -1      1248 1.99997E+01-1.26814E-02-1.20444E-04 2.87397E-05-1.43762E-12-6.11434E-14
 -1      1249 1.99997E+01-1.14378E-02-1.03981E-04 5.58316E-05-1.70727E-12-1.33297E-13
 -1      1250 1.99997E+01-9.51078E-03-7.51018E-05 7.93265E-05-1.79726E-12-8.15206E-15
 -1      1251 1.99998E+01-7.08304E-03-3.02753E-05 9.52268E-05-1.55027E-12 9.07765E-14
 -1      1252 1.99998E+01-4.41925E-03 3.50284E-05 1.00098E-04-1.48312E-12 6.82341E-14
 -1      1253 1.99999E+01-1.92915E-03 1.20067E-04 9.12978E-05-9.37171E-13 2.28873E-14
 -1      1254 1.99999E+01-3.31755E-04 1.26692E-04-2.01402E-05-6.79749E-14-3.31539E-14
 -1      1255 1.99998E+01 1.15009E-04-7.44398E-05-3.44550E-05 1.00061E-13 7.58582E-14
 -1      1256-1.29732E+00-2.35000E+01-3.65759E+00-2.29050E+00 2.11386E-12 4.82496E-13
 -1      1257-1.84063E+00-1.46780E+01-3.06971E+00-3.95862E+00 3.93174E-12 1.60411E-12
 -1      1258 7.27574E-01-1.83275E+00-1.74037E+00 2.39238E-01 4.98779E-12 3.13083E-12
 -1      1259 1.13652E+01 8.21305E+00-6.15302E-02 9.46726E+00 4.19065E-12 4.09539E-12
 -1      1260 2.94029E+01 1.08021E+01 1.68085E+00 1.70628E+01 2.80265E-12 4.20708E-12
 -1      1261 4.90970E+01 7.37613E+00 3.15201E+00 1.70033E+01 1.31384E-12 3.12728E-12
 -1      1262 6.40991E+01 2.75978E+00 4.06663E+00 8.14249E+00 2.83495E-13 6.64468E-13
 -1      1263 6.61527E+01 1.96526E+00 4.18579E+00-5.46945E+00 2.86996E-13-1.93823E-12
 -1      1264 5.40017E+01 6.12156E+00 3.47538E+00-1.57272E+01 1.25344E-12-3.72946E-12
 -1      1265 3.36389E+01 1.05644E+01 2.07479E+00-1.77410E+01 2.75058E-12-4.66582E-12
 -1      1266 1.42418E+01 9.84548E+00 3.30529E-01-1.15239E+01 3.85514E-12-4.26281E-12
 -1      1267 2.52351E+00 1.84400E+00-1.32313E+00-2.58602E+00 3.95461E-12-2.91678E-12
 -1      1268-1.55955E+00-1.05795E+01-2.65777E+00 3.41514E+00 3.09086E-12-1.46699E-12
 -1      1269-1.39737E+00-2.16296E+01-3.57586E+00 3.52557E+00 1.12543E-12-4.13641E-13
 -1      1270-1.06943E+00-2.53910E+01-3.88722E+00-5.74339E-01-1.34942E-12-2.44506E-13
 -1      1271-1.77489E+00-1.92243E+01-3.42419E+00-3.81943E+00-3.49565E-12-1.08052E-12
 -1      1272-9.48395E-01-6.88235E+00-2.37541E+00-2.10396E+00-4.62008E-12-2.43450E-12
 -1      1273 5.83300E+00 5.28596E+00-7.61875E-01 5.63959E+00-4.53304E-12-3.76787E-12
 -1      1274 2.06027E+01 1.09450E+01 9.90974E-01 1.44462E+01-3.49387E-12-4.35563E-12
 -1      1275 4.07295E+01 9.45787E+00 2.59020E+00 1.79957E+01-1.98508E-12-3.81806E-12
 -1      1276 5.94832E+01 4.40155E+00 3.81784E+00 1.32705E+01-6.04627E-13-2.08167E-12
 -1      1277 6.72975E+01 1.65817E+00 4.24084E+00 1.22953E+00-1.53287E-13 2.54713E-13
 -1      1278 6.14682E+01 3.57448E+00 3.87840E+00-1.13984E+01-6.81274E-13 2.75668E-12
 -1      1279 4.44255E+01 8.40760E+00 2.76933E+00-1.78509E+01-2.08478E-12 4.48619E-12
 -1      1280 2.42320E+01 1.09562E+01 1.23819E+00-1.56819E+01-3.43370E-12 4.83569E-12
 -1      1281 8.08116E+00 6.87539E+00-4.54267E-01-7.41692E+00-4.05920E-12 3.75300E-12
 -1      1282-1.75178E-01-3.62847E+00-1.98103E+00 8.81252E-01-3.68860E-12 2.22200E-12
 -1      1283-1.77609E+00-1.58767E+01-3.09087E+00 4.22153E+00-2.21934E-12 9.28535E-13
 -1      1284-1.04360E+00-2.42851E+01-3.73740E+00 2.08567E+00-1.07914E-13 1.77636E-13
 -1      1285 2.32293E+01 1.89654E+00-7.11702E-01-2.51907E+00-1.04028E-13 1.39599E-12
 -1      1286 2.13206E+01 4.77547E+00-3.68226E-02-2.69091E+00-2.48940E-13-2.59057E-13
 -1      1287 2.19169E+01 4.89354E+00-8.09394E-02-3.62086E+00-3.35787E-13 1.13021E-13
 -1      1288 2.02023E+01 5.08262E+00-1.69599E-02-1.90884E+00-2.34715E-13-7.63254E-13
 -1      1289 2.06730E+01 5.22520E+00 2.21685E-02-2.35128E+00-2.72796E-13-5.57769E-13
 -1      1290 2.14919E+01 3.98072E+00-1.59335E-02-2.40738E+00-4.30590E-13-2.18686E-13
 -1      1291 1.94435E+01 5.14747E+00-8.77894E-03-1.28829E+00-1.67921E-13-9.87571E-13
 -1      1292 1.98089E+01 5.26489E+00 2.28887E-02-1.58874E+00-1.99465E-13-8.89341E-13
 -1      1293 2.03521E+01 4.44458E+00-1.89765E-02-1.73784E+00-3.56333E-13-6.31564E-13
 -1      1294 1.88312E+01 5.15611E+00-7.03030E-03-8.32153E-01-1.04763E-13-1.08706E-12
 -1      1295 1.91292E+01 5.25066E+00 1.77769E-02-1.04773E+00-1.26198E-13-1.04724E-12
 -1      1296 1.95300E+01 4.66657E+00-1.76113E-02-1.17456E+00-2.43035E-13-8.28133E-13
 -1      1297 1.83451E+01 5.15033E+00-7.08042E-03-5.09854E-01-4.79651E-14-1.10839E-12
 -1      1298 1.85785E+01 5.22357E+00 1.21176E-02-6.61402E-01-6.88893E-14-1.10090E-12
 -1      1299 1.88812E+01 4.79580E+00-1.48972E-02-7.58629E-01-1.48520E-13-9.05099E-13
 -1      1300 1.79835E+01 5.14357E+00-7.22785E-03-2.78720E-01 5.40193E-15-1.09862E-12
 -1      1301 1.81496E+01 5.19513E+00 6.13668E-03-3.88245E-01-9.23914E-15-1.10895E-12
 -1      1302 1.83724E+01 4.87897E+00-1.29098E-02-4.59174E-01-5.33774E-14-9.31271E-13
 -1      1303 1.77783E+01 5.14335E+00-5.90593E-03-1.10963E-01 5.99234E-14-1.06954E-12
 -1      1304 1.78621E+01 5.16924E+00 6.53654E-04-1.93628E-01 3.97789E-14-1.08486E-12
 -1      1305 1.80152E+01 4.93017E+00-1.18240E-02-2.43320E-01 3.37048E-14-9.11080E-13
 -1      1306 1.77441E+01 5.15167E+00-2.90795E-03 3.08660E-02 1.03518E-13-1.02712E-12
 -1      1307 1.77396E+01 5.15019E+00-3.58258E-03-4.38137E-02 9.05361E-14-1.05417E-12
 -1      1308 1.78354E+01 4.95323E+00-1.13373E-02-8.02286E-02 1.23741E-13-8.85290E-13
 -1      1309 1.78824E+01 5.16839E+00 1.58944E-03 1.85594E-01 1.50246E-13-9.66365E-13
 -1      1310 1.77908E+01 5.13991E+00-6.16874E-03 9.97338E-02 1.33171E-13-1.00516E-12
 -1      1311 1.78452E+01 4.94931E+00-1.14161E-02 6.71693E-02 1.92177E-13-8.46210E-13
 -1      1312 1.81804E+01 5.19148E+00 6.96962E-03 3.90758E-01 1.98529E-13-8.79618E-13
 -1      1313 1.80098E+01 5.13865E+00-7.03632E-03 2.75432E-01 1.81799E-13-9.33120E-13
 -1      1314 1.80419E+01 4.91908E+00-1.20714E-02 2.36765E-01 2.70602E-13-7.82409E-13
 -1      1315 1.86080E+01 5.21779E+00 1.27972E-02 6.74780E-01 2.40662E-13-7.42611E-13
 -1      1316 1.83745E+01 5.14422E+00-6.69563E-03 5.16655E-01 2.20667E-13-8.28122E-13
 -1      1317 1.84061E+01 4.86302E+00-1.31420E-02 4.61849E-01 3.43144E-13-6.90011E-13
 -1      1318 1.91597E+01 5.24231E+00 1.84053E-02 1.07928E+00 2.94077E-13-5.18766E-13
 -1      1319 1.88639E+01 5.14822E+00-6.47177E-03 8.55835E-01 2.68771E-13-6.49007E-13
 -1      1320 1.89164E+01 4.77625E+00-1.51315E-02 7.75087E-01 4.13640E-13-5.36085E-13
 -1      1321 1.98295E+01 5.25414E+00 2.25006E-02 1.63657E+00 3.43787E-13-1.75533E-13
 -1      1322 1.94697E+01 5.13696E+00-8.70580E-03 1.32837E+00 3.14193E-13-3.78843E-13
 -1      1323 1.95662E+01 4.64217E+00-1.78898E-02 1.20926E+00 4.87475E-13-3.00059E-13
 -1      1324 2.06931E+01 5.22896E+00 2.69005E-02 2.40725E+00 3.59532E-13 3.94546E-13
 -1      1325 2.02167E+01 5.07203E+00-1.73199E-02 1.96680E+00 3.32075E-13 5.59726E-14
 -1      1326 2.03802E+01 4.41653E+00-1.96684E-02 1.79145E+00 5.39114E-13 7.87495E-14
 -1      1327 2.21040E+01 4.98315E+00 2.99597E-02 3.55098E+00 2.84078E-13 1.36971E-12
 -1      1328 2.12901E+01 4.81580E+00-3.51962E-02 2.81420E+00 2.85313E-13 7.83776E-13
 -1      1329 2.15217E+01 3.94316E+00-1.20633E-02 2.52641E+00 5.14720E-13 6.89490E-13
 -1      1330 2.79168E+01 3.19054E+00 8.72820E-01 4.31041E+00 1.07414E-13 3.05322E-12
 -1      1331 2.30117E+01 3.56298E+00-1.70280E-01 3.48507E+00 1.23498E-13 1.90717E-12
 -1      1332 2.32304E+01 2.54552E+00-1.80416E-02 2.93258E+00 4.39626E-13 1.56761E-12
 -1      1333 2.25214E+01 3.32670E-01-7.59960E-01 9.25180E-01 2.17042E-13 2.99877E-12
 -1      1334 2.32203E+01 1.10411E-01-3.97461E-01-9.98921E-01-2.82496E-13 1.51812E-12
 -1      1335 2.22122E+01 2.87526E-01-1.53023E-01-5.58761E-01-2.56774E-13 1.18869E-12
 -1      1336 2.18010E+01 1.51300E-01-6.92072E-02-1.58795E-01-2.15297E-13 1.05795E-12
 -1      1337 2.16330E+01 9.03988E-02-1.05827E-02-9.11505E-02-2.06467E-13 7.47746E-13
 -1      1338 2.24811E+01 3.46454E-01-1.03000E-01-8.01305E-01-4.57863E-13 5.51479E-13
 -1      1339 2.15002E+01 6.89515E-02 3.83129E-03 1.07883E-01-1.56042E-13 6.49751E-13
 -1      1340 2.16476E+01 4.51652E-02 1.37875E-02 1.28673E-01-1.31601E-13 4.34590E-13
 -1      1341 2.18428E+01 1.31991E-01-3.68968E-02-3.29641E-02-3.47368E-13 3.68885E-13
 -1      1342 2.17265E+01 3.71964E-02 1.16196E-02 2.27627E-01-9.80778E-14 3.50022E-13
 -1      1343 2.20199E+01 2.09631E-02 9.84849E-03 2.40182E-01-9.30844E-14 1.97287E-13
 -1      1344 2.18195E+01 6.15994E-02-1.06370E-02 3.19219E-01-2.37470E-13 1.86568E-13
 -1      1345 2.22102E+01 1.58953E-02 6.51932E-03 2.83920E-01-5.72977E-14 1.54717E-13
 -1      1346 2.25622E+01 8.05743E-04 4.78061E-03 2.87790E-01-6.24665E-14 6.00388E-14
 -1      1347 2.20881E+01 2.40255E-02-4.96553E-03 4.92251E-01-1.60507E-13 7.36460E-14
 -1      1348 2.27960E+01-6.60813E-03 3.37403E-03 2.82111E-01-5.44963E-14 3.51039E-14
 -1      1349 2.31300E+01-2.31589E-02 2.85036E-03 2.74406E-01-5.50363E-14-3.59469E-14
 -1      1350 2.25084E+01-1.16196E-02-8.15267E-04 5.42266E-01-1.28925E-13 5.60749E-15
 -1      1351 2.33446E+01-3.50424E-02 4.09650E-03 2.10252E-01-2.01124E-14-3.51819E-14
 -1      1352 2.35701E+01-5.23992E-02 3.98197E-03 1.86666E-01-3.38423E-14-8.62227E-14
 -1      1353 2.29583E+01-5.65341E-02 5.49080E-03 4.63873E-01-7.18726E-14-1.88530E-14
 -1      1354 2.36985E+01-6.84005E-02 8.15982E-03 5.44972E-02-6.10779E-14-9.03652E-14
 -1      1355 2.37112E+01-8.18600E-02 7.45121E-03 1.20647E-02-4.48825E-14-1.90122E-13
 -1      1356 2.33130E+01-1.10403E-01 1.41128E-02 2.33787E-01-8.49919E-14-3.68984E-14
 -1      1357 2.36861E+01-9.72432E-02 1.38171E-02-1.81751E-01-3.98214E-14-1.93845E-13
 -1      1358 2.33948E+01-9.74669E-02 1.11729E-02-2.39417E-01-1.06132E-13-3.26603E-13
 -1      1359 2.34400E+01-1.59169E-01 2.33217E-02-1.54589E-01-8.68073E-14-4.20508E-14
 -1      1360 2.31697E+01-1.02091E-01 1.69021E-02-4.52718E-01-8.57960E-14-3.41099E-13
 -1      1361 2.25529E+01-7.82439E-02 1.10706E-02-5.09211E-01-3.26267E-14-3.99673E-13
 -1      1362 2.32220E+01-1.72171E-01 2.85783E-02-6.47411E-01-1.21675E-13-1.54156E-14
 -1      1363 2.21397E+01-6.05208E-02 1.20821E-02-6.55022E-01-1.54954E-15-4.84619E-13
 -1      1364 2.13107E+01-1.00333E-02 2.93526E-03-6.80368E-01-6.49671E-14-5.17947E-13
 -1      1365 2.26143E+01-1.13174E-01 2.26431E-02-1.09221E+00-7.30284E-14-1.49214E-13
 -1      1366 2.08171E+01 3.03532E-02-2.63074E-03-6.55785E-01-8.79323E-14-5.80397E-13
 -1      1367 2.00398E+01 9.04383E-02-1.24421E-02-6.21687E-01-4.90311E-14-6.83294E-13
 -1      1368 2.17243E+01 2.73085E-02 7.64546E-04-1.25478E+00-1.33817E-13-3.04565E-13
 -1      1369 1.96605E+01 1.31949E-01-2.03240E-02-3.83348E-01-2.78701E-14-7.53342E-13
 -1      1370 1.92550E+01 1.68396E-01-2.60446E-02-2.91141E-01-8.44654E-14-7.92776E-13
 -1      1371 2.08509E+01 1.97258E-01-3.07274E-02-9.44113E-01-1.10360E-13-4.91929E-13
 -1      1372 1.91778E+01 1.80115E-01-2.85220E-02 7.98858E-02-6.19903E-14-8.84396E-13
 -1      1373 1.93396E+01 1.68672E-01-2.65494E-02 1.88032E-01-7.07195E-14-9.68423E-13
 -1      1374 2.03884E+01 3.00722E-01-5.14351E-02-1.97227E-01-1.30455E-13-5.78297E-13
 -1      1375 1.96157E+01 1.40982E-01-2.11755E-02 5.18209E-01-1.37532E-13-1.02897E-12
 -1      1376 2.02848E+01 8.93574E-02-1.27326E-02 5.87558E-01-1.49715E-13-1.17321E-12
 -1      1377 2.05880E+01 2.69076E-01-4.48887E-02 6.66456E-01-2.00716E-13-7.19555E-13
 -1      1378 2.07889E+01 4.49604E-02-5.40400E-03 7.32919E-01-1.07612E-13-1.27774E-12
 -1      1379 2.16920E+01-1.46930E-02 4.88740E-03 7.38468E-01-8.47049E-14-1.43085E-12
 -1      1380 2.13713E+01 1.24347E-01-1.64717E-02 1.24381E+00-2.31731E-13-8.50039E-13
 -1      1381 2.22165E+01-4.56216E-02 7.17046E-03 6.76982E-01-6.28551E-14-1.44377E-12
 -1      1382 2.30399E+01-8.54810E-02 1.52323E-02 6.33987E-01-5.22811E-14-1.45888E-12
 -1      1383 2.23905E+01-4.25092E-02 1.24466E-02 1.33198E+00-1.14205E-13-9.81163E-13
 -1      1384 2.34225E+01-9.16497E-02 1.11246E-02 4.45976E-01-3.21566E-14-1.45260E-12
 -1      1385 2.39657E+01-1.04482E-01 1.56402E-02 3.86342E-01-1.47087E-14-1.47678E-12
 -1      1386 2.32705E+01-1.48540E-01 2.71727E-02 1.01526E+00-5.08794E-14-1.02153E-12
 -1      1387 2.41427E+01-9.31016E-02 8.58453E-03 1.73576E-01 9.25475E-15-1.45030E-12
 -1      1388 2.43582E+01-8.68613E-02 1.03533E-02 1.21733E-01-1.02618E-14-1.43369E-12
 -1      1389 2.37939E+01-1.71958E-01 2.73566E-02 5.24356E-01-1.20563E-14-9.77505E-13
 -1      1390 2.43458E+01-6.99839E-02 4.09870E-03-4.94867E-02 9.09854E-14-1.44055E-12
 -1      1391 2.42918E+01-5.58182E-02 4.39279E-03-8.37916E-02 9.28103E-14-1.27576E-12
 -1      1392 2.39257E+01-1.39356E-01 1.99977E-02 6.26033E-02 4.97727E-14-9.15374E-13
 -1      1393 2.41438E+01-4.13450E-02 6.23888E-04-1.91559E-01 7.61149E-14-1.20783E-12
 -1      1394 2.39168E+01-2.69017E-02 2.65256E-04-2.08871E-01 8.58046E-14-1.06229E-12
 -1      1395 2.37435E+01-8.77434E-02 1.12553E-02-2.68307E-01 1.58367E-13-9.75355E-13
 -1      1396 2.36921E+01-1.75050E-02-1.06904E-03-2.59375E-01 2.06996E-15-1.02882E-12
 -1      1397 2.33819E+01-6.13679E-03-1.69713E-03-2.64339E-01-3.31018E-14-1.06113E-12
 -1      1398 2.33607E+01-4.11015E-02 4.22955E-03-4.53443E-01 5.08014E-14-8.01940E-13
 -1      1399 2.31282E+01-1.43077E-03-1.38898E-03-2.74164E-01 3.09670E-14-1.03460E-12
 -1      1400 2.27993E+01 6.26760E-03-2.14619E-03-2.71703E-01 3.23337E-14-1.02861E-12
 -1      1401 2.28813E+01-8.27750E-03-3.28989E-04-5.22025E-01 1.04565E-14-6.09209E-13
 -1      1402 2.25490E+01 7.70331E-03-1.01757E-03-2.57318E-01 3.76680E-14-9.74120E-13
 -1      1403 2.22403E+01 1.23356E-02-1.84125E-03-2.51170E-01 7.53474E-14-8.24830E-13
 -1      1404 2.23821E+01 1.09071E-02-2.81128E-03-5.14092E-01 8.29519E-14-5.03020E-13
 -1      1405 2.20123E+01 1.18782E-02-4.62999E-04-2.24986E-01 2.61527E-14-8.67805E-13
 -1      1406 2.17428E+01 1.43245E-02-1.29683E-03-2.17541E-01 4.06684E-14-7.53842E-13
 -1      1407 2.19112E+01 1.99833E-02-3.87565E-03-4.64017E-01 4.26991E-14-5.25887E-13
 -1      1408 2.15458E+01 1.29647E-02 1.74927E-05-1.87570E-01 8.60403E-14-8.27395E-13
 -1      1409 2.13216E+01 1.39975E-02-7.73762E-04-1.80183E-01 4.76375E-14-7.89142E-13
 -1      1410 2.14942E+01 2.26829E-02-4.08883E-03-3.95909E-01 4.42103E-14-5.31412E-13
 -1      1411 2.11579E+01 1.23430E-02 3.41953E-04-1.51000E-01-6.68302E-15-7.84190E-13
 -1      1412 2.09780E+01 1.25305E-02-3.67049E-04-1.44337E-01-1.10283E-14-8.03726E-13
 -1      1413 2.11409E+01 2.18494E-02-3.84554E-03-3.24566E-01 1.64560E-15-7.31476E-13
 -1      1414 2.08459E+01 1.09096E-02 5.17001E-04-1.18212E-01 6.34054E-14-7.69361E-13
 -1      1415 2.07056E+01 1.06321E-02-8.79291E-05-1.12534E-01 2.81077E-14-7.27031E-13
 -1      1416 2.08515E+01 1.93400E-02-3.39145E-03-2.58012E-01 4.83107E-14-6.73555E-13
 -1      1417 2.06018E+01 9.19705E-03 5.80117E-04-9.03335E-02-2.80700E-15-7.53279E-13
 -1      1418 2.04950E+01 8.69432E-03 8.48381E-05-8.56753E-02 3.54025E-14-7.14035E-13
 -1      1419 2.06206E+01 1.62503E-02-2.86860E-03-1.99910E-01 1.76465E-15-6.18376E-13
 -1      1420 2.04152E+01 7.49679E-03 5.71040E-04-6.74813E-02 2.38114E-14-6.92034E-13
 -1      1421 2.03358E+01 6.91285E-03 1.79553E-04-6.37675E-02-7.71061E-14-7.38605E-13
 -1      1422 2.04409E+01 1.31700E-02-2.35387E-03-1.51350E-01 3.57190E-14-5.87708E-13
 -1      1423 2.02757E+01 5.95255E-03 5.21394E-04-4.92649E-02-9.95320E-14-6.89173E-13
 -1      1424 2.02181E+01 5.36960E-03 2.21422E-04-4.63726E-02-3.52387E-15-8.07162E-13
 -1      1425 2.03038E+01 1.03825E-02-1.88540E-03-1.12036E-01-9.87656E-14-4.77270E-13
 -1      1426 2.01739E+01 4.62224E-03 4.53078E-04-3.50769E-02 5.25150E-14-7.90331E-13
 -1      1427 2.01331E+01 4.08389E-03 2.29806E-04-3.28711E-02-5.99059E-14-8.09938E-13
 -1      1428 2.02016E+01 7.99710E-03-1.47899E-03-8.10022E-02-7.12298E-14-3.26160E-13
 -1      1429 2.01013E+01 3.51665E-03 3.79875E-04-2.42551E-02-1.42390E-13-7.86652E-13
 -1      1430 2.00733E+01 3.04303E-03 2.18455E-04-2.26064E-02-6.28962E-14-9.64281E-13
 -1      1431 2.01270E+01 6.03020E-03-1.13804E-03-5.70361E-02-1.12861E-13-3.52011E-13
 -1      1432 2.00511E+01 2.62240E-03 3.09721E-04-1.61662E-02 1.30364E-13-8.09391E-13
 -1      1433 2.00327E+01 2.21974E-03 1.96649E-04-1.49594E-02 1.40244E-13-6.42394E-13
 -1      1434 2.00738E+01 4.45260E-03-8.59303E-04-3.89019E-02 4.09015E-14-2.91919E-13
 -1      1435 2.00176E+01 1.91515E-03 2.46677E-04-1.02451E-02-8.88152E-14-7.05214E-13
 -1      1436 2.00061E+01 1.58178E-03 1.70390E-04-9.38160E-03-4.30206E-14-7.83247E-13
 -1      1437 2.00371E+01 3.21561E-03-6.36329E-04-2.54566E-02 8.45090E-14-2.86969E-13
 -1      1438 1.99964E+01 1.36694E-03 1.92384E-04-6.00844E-03 2.38993E-14-8.04926E-13
 -1      1439 1.99898E+01 1.09696E-03 1.43388E-04-5.40659E-03 3.77331E-14-6.68761E-13
 -1      1440 2.00127E+01 2.26526E-03-4.61423E-04-1.56998E-02-9.12495E-14-4.93443E-13
 -1      1441 1.99839E+01 9.50167E-04 1.47049E-04-3.05551E-03 9.85378E-14-7.12318E-13
 -1      1442 1.99807E+01 7.35739E-04 1.17798E-04-2.64919E-03 1.56788E-14-6.36422E-13
 -1      1443 1.99972E+01 1.54939E-03-3.26766E-04-8.78690E-03 8.23168E-14-4.96643E-13
 -1      1444 1.99775E+01 6.39508E-04 1.10092E-04-1.06187E-03 6.61159E-15-4.48124E-13
 -1      1445 1.99767E+01 4.72194E-04 9.47411E-05-7.98655E-04 1.12679E-13-3.88542E-13
 -1      1446 1.99882E+01 1.02104E-03-2.25023E-04-4.02471E-03 4.92072E-14-4.34295E-13
 -1      1447 1.99753E+01 4.12756E-04 8.05442E-05 2.29650E-04 7.07451E-15-4.34706E-13
 -1      1448 1.99759E+01 2.84316E-04 7.46676E-05 3.90509E-04-1.03031E-13-4.18591E-13
 -1      1449 1.99836E+01 6.39656E-04-1.49636E-04-8.56857E-04 5.31918E-14-2.28716E-13
 -1      1450 1.99758E+01 2.50996E-04 5.72894E-05 1.01877E-03-2.83579E-14-3.65871E-13
 -1      1451 1.99773E+01 1.53797E-04 5.76058E-05 1.10832E-03-5.80682E-14-4.37012E-13
 -1      1452 1.99821E+01 3.71149E-04-9.49319E-05 1.15399E-03-3.06134E-14-2.25338E-13
 -1      1453 1.99779E+01 1.38419E-04 3.92105E-05 1.45722E-03-7.33755E-14-2.99932E-13
 -1      1454 1.99799E+01 6.56015E-05 4.33336E-05 1.49853E-03-1.58899E-13-2.91626E-13
 -1      1455 1.99826E+01 1.87397E-04-5.61113E-05 2.34435E-03-6.78285E-14-2.72305E-13
 -1      1456 1.99810E+01 6.19211E-05 2.52813E-05 1.65710E-03-1.36301E-13-3.24595E-13
 -1      1457 1.99831E+01 7.41334E-06 3.15170E-05 1.66672E-03-1.05705E-14-5.14413E-13
 -1      1458 1.99843E+01 6.53838E-05-2.91760E-05 2.96680E-03-1.37661E-13-1.42661E-13
 -1      1459 1.99844E+01 1.05794E-05 1.46569E-05 1.69777E-03-5.13415E-14-3.20381E-13
 -1      1460 1.99865E+01-3.09898E-05 2.18628E-05 1.68685E-03 2.36864E-14-4.76292E-13
 -1      1461 1.99866E+01-1.38334E-05-1.08026E-05 3.20446E-03 2.28538E-14 1.14344E-13
 -1      1462 1.99879E+01-2.49777E-05 6.81990E-06 1.63113E-03 2.11015E-14-5.46347E-13
 -1      1463 1.99900E+01-5.83813E-05 1.44523E-05 1.60615E-03 8.77195E-14-4.92743E-13
 -1      1464 1.99893E+01-6.62718E-05 1.83014E-06 3.18256E-03-1.61722E-14-1.57249E-13
 -1      1465 1.99913E+01-5.31429E-05 2.03431E-06 1.48517E-03 1.32946E-13-4.85635E-13
 -1      1466 1.99931E+01-8.27296E-05 1.00745E-05 1.44833E-03 7.54120E-14-3.65639E-13
 -1      1467 1.99919E+01-1.06326E-04 1.12906E-05 2.97688E-03 1.59422E-13 3.90732E-14
 -1      1468 1.99943E+01-8.22019E-05 1.65368E-06 1.26581E-03-1.53642E-14-4.50264E-13
 -1      1469 1.99959E+01-1.11542E-04 1.03156E-05 1.21448E-03 3.89331E-14-3.64128E-13
 -1      1470 1.99944E+01-1.48416E-04 2.00389E-05 2.61945E-03 1.38779E-13-9.45497E-14
 -1      1471 1.99968E+01-1.19857E-04 7.57975E-06 9.59265E-04 2.50240E-13-3.10923E-13
 -1      1472 1.99980E+01-1.49500E-04 1.29246E-05 8.85032E-04 1.88099E-13-1.61191E-14
 -1      1473 1.99965E+01-2.07510E-04 2.91030E-05 2.10149E-03 1.91912E-13-1.92877E-13
 -1      1474 1.99987E+01-1.78990E-04 1.30570E-05 5.38389E-04-4.76693E-14 1.09511E-13
 -1      1475 1.99993E+01-1.76085E-04 3.53851E-06 4.40873E-04-1.22259E-13 1.33379E-13
 -1      1476 1.99982E+01-2.97604E-04 3.56649E-05 1.39785E-03 1.55316E-13-1.65803E-13
 -1      1477 1.99998E+01-7.31901E-05-6.07111E-07-7.38187E-07-1.32925E-13 1.67694E-13
 -1      1478 1.99995E+01-3.14608E-04 1.88952E-05 4.33275E-04-1.36423E-13 1.28136E-13
 -1      1479 2.18579E+01 7.03296E-02-1.41617E-01 2.75491E-01 2.15029E-13 2.51927E-12
 -1      1480 2.28076E+01 2.18318E-01-2.26960E-01 4.99782E-01 1.86962E-13 2.83426E-12
 -1      1481 2.29927E+01 8.33422E-01-9.56551E-02 1.65535E+00 3.53988E-13 1.97983E-12
 -1      1482 2.14317E+01 3.27744E-02-1.68827E-02-1.19384E-02 1.53705E-13 2.09633E-12
 -1      1483 2.15672E+01 1.15907E-01-5.63846E-02 4.06141E-02 1.51427E-13 2.33290E-12
 -1      1484 2.19821E+01 1.73035E-01-5.77553E-02 4.01920E-01 3.21666E-13 1.64430E-12
 -1      1485 2.15629E+01 1.66449E-02 6.37887E-03-1.48985E-01 9.79182E-14 1.81070E-12
 -1      1486 2.14189E+01 5.66912E-02 3.83492E-03-1.18061E-01 1.00479E-13 1.97264E-12
 -1      1487 2.16774E+01 7.03737E-02-1.51049E-02-8.35889E-02 2.33461E-13 1.38965E-12
 -1      1488 2.19782E+01 6.05275E-03 7.13262E-03-2.15018E-01 5.24268E-14 1.64039E-12
 -1      1489 2.17049E+01 2.93228E-02 1.16133E-02-1.96427E-01 5.80762E-14 1.72275E-12
 -1      1490 2.17999E+01 3.15958E-02-5.50140E-03-3.08119E-01 1.39690E-13 1.18673E-12
 -1      1491 2.25123E+01-4.66639E-03 7.01210E-03-2.30791E-01 5.57335E-14 1.51449E-12
 -1      1492 2.21914E+01 9.38864E-03 8.41698E-03-2.23598E-01 4.44442E-14 1.57480E-12
 -1      1493 2.21441E+01 6.28290E-03-2.80945E-03-4.05358E-01 9.76736E-14 1.05110E-12
 -1      1494 2.30244E+01-1.79815E-02 1.00913E-02-1.92701E-01 3.69852E-14 1.42033E-12
 -1      1495 2.27300E+01-1.25834E-02 5.96120E-03-2.00027E-01 2.21993E-14 1.46052E-12
 -1      1496 2.25691E+01-2.01400E-02 1.46157E-03-3.99993E-01 6.77579E-14 9.75332E-13
 -1      1497 2.33609E+01-3.34013E-02 1.59515E-02-9.02090E-02 7.88753E-14 1.31048E-12
 -1      1498 2.31789E+01-3.90911E-02 5.98016E-03-1.16699E-01 5.10867E-14 1.38753E-12
 -1      1499 2.29479E+01-5.22520E-02 8.65857E-03-2.82786E-01 8.10662E-14 9.22023E-13
 -1      1500 2.33577E+01-4.66479E-02 2.21713E-02 7.99779E-02 5.97517E-14 1.21509E-12
 -1      1501 2.33827E+01-6.68428E-02 7.81398E-03 3.17374E-02 4.14521E-14 1.28259E-12
 -1      1502 2.31495E+01-8.72011E-02 1.77142E-02-4.15972E-02 7.42375E-14 9.00926E-13
 -1      1503 2.28802E+01-4.90008E-02 2.38550E-02 2.95563E-01 1.93734E-14 1.15079E-12
 -1      1504 2.31897E+01-8.51451E-02 9.68374E-03 2.30680E-01 2.66375E-14 1.21532E-12
 -1      1505 2.30488E+01-1.12534E-01 2.53641E-02 3.08704E-01 5.52787E-14 8.21842E-13
 -1      1506 2.19061E+01-3.04603E-02 1.46800E-02 4.92231E-01 6.55942E-15 1.22696E-12
 -1      1507 2.25091E+01-7.75079E-02 8.47030E-03 4.28944E-01 1.52274E-14 1.20565E-12
 -1      1508 2.25685E+01-1.06208E-01 2.62671E-02 6.93350E-01-2.16216E-14 8.56279E-13
 -1      1509 2.06172E+01 1.10671E-02-8.02585E-03 5.70168E-01 5.55766E-14 1.18291E-12
 -1      1510 2.13992E+01-3.17195E-02 9.84365E-04 5.38173E-01 1.48506E-14 1.19867E-12
 -1      1511 2.17465E+01-4.71627E-02 1.57654E-02 9.64460E-01 1.76131E-14 9.30350E-13
 -1      1512 1.94184E+01 6.02460E-02-3.65255E-02 4.44445E-01 8.81387E-14 1.08394E-12
 -1      1513 2.01335E+01 4.38507E-02-1.22808E-02 4.69707E-01 6.65093E-14 1.13125E-12
 -1      1514 2.07907E+01 6.14380E-02-4.78062E-03 9.47432E-01 8.95985E-14 7.67802E-13
 -1      1515 1.87983E+01 8.80811E-02-5.33658E-02 1.22021E-01 9.45251E-14 8.52131E-13
 -1      1516 1.91571E+01 1.13611E-01-2.44487E-02 2.04041E-01 9.86728E-14 9.77045E-13
 -1      1517 2.00495E+01 1.74571E-01-2.50785E-02 5.57497E-01 1.95857E-13 6.55892E-13
 -1      1518 1.90573E+01 7.51877E-02-4.49723E-02-2.66681E-01 8.77336E-14 5.05346E-13
 -1      1519 1.88890E+01 1.35567E-01-2.61997E-02-1.63009E-01 1.18870E-13 7.04377E-13
 -1      1520 1.98541E+01 2.21926E-01-3.32911E-02-9.13482E-02 2.23016E-13 3.69495E-13
 -1      1521 2.01052E+01 3.11976E-02-1.58392E-02-5.45063E-01-2.20214E-14 3.66325E-13
 -1      1522 1.94703E+01 9.80626E-02-1.47201E-02-4.66523E-01 2.30319E-14 3.98591E-13
 -1      1523 2.03128E+01 1.67627E-01-2.65541E-02-7.16711E-01 1.00388E-13 2.02966E-13
 -1      1524 2.15237E+01-1.57069E-02 1.52883E-02-6.12180E-01 2.43229E-14 3.19370E-13
 -1      1525 2.06730E+01 2.86851E-02 2.79501E-03-5.85309E-01-2.20066E-14 3.03757E-13
 -1      1526 2.12391E+01 4.69553E-02-1.21402E-02-1.05430E+00 1.55783E-14 5.81479E-14
 -1      1527 2.28294E+01-4.32306E-02 3.25944E-02-4.92022E-01 8.87129E-14 1.99354E-13
 -1      1528 2.20483E+01-3.22863E-02 1.58128E-02-5.11530E-01 6.73454E-14 3.15928E-13
 -1      1529 2.22791E+01-6.73578E-02 5.50650E-04-1.02274E+00 5.03660E-14-8.80997E-14
 -1      1530 2.37083E+01-4.79135E-02 3.34244E-02-2.81744E-01-4.74655E-14 1.74808E-13
 -1      1531 2.31810E+01-6.27899E-02 1.93604E-02-3.24785E-01 1.59820E-14 2.02366E-13
 -1      1532 2.31156E+01-1.25858E-01 7.35389E-03-7.27905E-01 8.65419E-14 4.55677E-14
 -1      1533 2.40773E+01-3.81962E-02 2.44437E-02-7.39556E-02-7.82820E-14 2.03391E-13
 -1      1534 2.38508E+01-6.43895E-02 1.53957E-02-1.18833E-01-6.80506E-14 1.73906E-13
 -1      1535 2.35873E+01-1.26956E-01 8.85019E-03-3.43340E-01-6.92016E-14-3.48697E-14
 -1      1536 2.40151E+01-2.39843E-02 1.32617E-02 8.10554E-02 4.09872E-14 2.31474E-13
 -1      1537 2.40408E+01-4.98122E-02 8.65461E-03 4.62303E-02 1.72640E-14 2.87054E-13
 -1      1538 2.36860E+01-9.54252E-02 7.43088E-03-3.14242E-03-4.15293E-15-4.90604E-14
 -1      1539 2.36647E+01-1.13326E-02 4.35000E-03 1.72530E-01 4.56180E-14 2.31360E-13
 -1      1540 2.38567E+01-3.10200E-02 2.71906E-03 1.50728E-01 8.59555E-15 2.52399E-13
 -1      1541 2.34940E+01-5.62510E-02 5.13648E-03 2.32652E-01-5.16601E-15 1.03447E-13
 -1      1542 2.31644E+01-2.40433E-03-1.13254E-03 2.11229E-01 6.43808E-14 4.00426E-14
 -1      1543 2.34410E+01-1.47700E-02-9.94481E-04 2.00566E-01 7.32246E-14 2.06283E-13
 -1      1544 2.31200E+01-2.35176E-02 3.05958E-03 3.60800E-01 1.15319E-13 1.49844E-13
 -1      1545 2.26188E+01 2.90271E-03-3.75557E-03 2.14155E-01 3.07882E-14-1.53110E-13
 -1      1546 2.29193E+01-3.29227E-03-2.64084E-03 2.11271E-01 8.80759E-14-3.07341E-14
 -1      1547 2.26613E+01-1.44155E-03 1.53352E-03 4.05133E-01 1.60383E-13-2.38056E-14
 -1      1548 2.20944E+01 5.50152E-03-4.53558E-03 1.96572E-01-1.61302E-13 1.02755E-13
 -1      1549 2.23812E+01 3.65691E-03-2.93187E-03 1.98365E-01-9.60421E-14-1.34759E-13
 -1      1550 2.21884E+01 1.10329E-02 5.35568E-04 3.94960E-01-7.20461E-14 8.13542E-15
 -1      1551 2.16269E+01 6.35555E-03-4.33320E-03 1.69506E-01-1.42985E-15 2.41009E-13
 -1      1552 2.18804E+01 7.19301E-03-2.54684E-03 1.73686E-01-7.10341E-14 1.71024E-13
 -1      1553 2.17455E+01 1.66241E-02-6.60783E-05 3.54872E-01-1.83082E-13 1.34809E-13
 -1      1554 2.12307E+01 6.21146E-03-3.71020E-03 1.39914E-01-8.56983E-14 3.19249E-13
 -1      1555 2.14436E+01 8.47972E-03-1.93655E-03 1.44996E-01-3.16368E-14 2.63691E-13
 -1      1556 2.13556E+01 1.79378E-02-4.00629E-04 3.02092E-01-7.28625E-14 1.86949E-13
 -1      1557 2.09073E+01 5.56928E-03-2.97894E-03 1.11697E-01 1.60823E-14 2.94276E-13
 -1      1558 2.10795E+01 8.43380E-03-1.33682E-03 1.16812E-01-1.04352E-14 3.19924E-13
 -1      1559 2.10270E+01 1.69082E-02-5.64119E-04 2.47265E-01-2.21355E-14 2.66792E-13
 -1      1560 2.06511E+01 4.73375E-03-2.28966E-03 8.67412E-02-6.82541E-14 2.43753E-13
 -1      1561 2.07862E+01 7.68640E-03-8.42382E-04 9.14305E-02-5.87252E-14 2.23160E-13
 -1      1562 2.07592E+01 1.47915E-02-6.21128E-04 1.96232E-01-2.44988E-14 3.81659E-13
 -1      1563 2.04532E+01 3.87611E-03-1.70128E-03 6.57134E-02-5.64960E-14 2.38687E-13
 -1      1564 2.05566E+01 6.63586E-03-4.72868E-04 6.97779E-02-1.86684E-14 2.10033E-13
 -1      1565 2.05470E+01 1.23307E-02-6.13733E-04 1.51695E-01-2.41393E-14 2.82429E-13
 -1      1566 2.03041E+01 3.08384E-03-1.22663E-03 4.86028E-02-2.25861E-15 1.98552E-13
 -1      1567 2.03812E+01 5.51618E-03-2.15250E-04 5.19922E-02 1.41064E-14 2.45190E-13
 -1      1568 2.03828E+01 9.92735E-03-5.69379E-04 1.14475E-01-2.65283E-15 8.35392E-14
 -1      1569 2.01942E+01 2.39488E-03-8.57816E-04 3.50577E-02-1.54689E-14 1.22154E-13
 -1      1570 2.02504E+01 4.45429E-03-4.63643E-05 3.78026E-02-3.75047E-15 1.99843E-13
 -1      1571 2.02587E+01 7.77410E-03-5.06074E-04 8.43568E-02-4.97952E-15 1.31829E-13
 -1      1572 2.01154E+01 1.81934E-03-5.79327E-04 2.45853E-02 9.04130E-14 2.27656E-13
 -1      1573 2.01552E+01 3.51113E-03 5.69314E-05 2.67553E-02 1.40565E-14 2.10602E-13
 -1      1574 2.01670E+01 5.94326E-03-4.35551E-04 6.06124E-02 9.63465E-15 2.43180E-13
 -1      1575 2.00604E+01 1.35270E-03-3.74226E-04 1.66637E-02 1.01657E-13 5.59223E-15
 -1      1576 2.00877E+01 2.70871E-03 1.14081E-04 1.83429E-02 8.65688E-14 1.38070E-13
 -1      1577 2.01008E+01 4.44188E-03-3.65250E-04 4.23165E-02 9.15913E-14 1.00258E-13
 -1      1578 2.00233E+01 9.83490E-04-2.26858E-04 1.07999E-02-4.53950E-14 6.92677E-14
 -1      1579 2.00413E+01 2.04730E-03 1.40117E-04 1.20734E-02-9.45175E-15-1.57737E-14
 -1      1580 2.00544E+01 3.24448E-03-2.99630E-04 2.85193E-02 3.28903E-14 5.97580E-14
 -1      1581 1.99995E+01 6.97629E-04-1.23805E-04 6.55732E-03 6.22656E-14 5.68980E-14
 -1      1582 2.00108E+01 1.51582E-03 1.46102E-04 7.50388E-03 7.53860E-14 8.89533E-14
 -1      1583 2.00230E+01 2.31170E-03-2.41091E-04 1.83369E-02 5.03380E-14 2.21996E-13
 -1      1584 1.99853E+01 4.80835E-04-5.40577E-05 3.56481E-03 5.93701E-14-3.24101E-13
 -1      1585 1.99917E+01 1.09813E-03 1.39901E-04 4.25369E-03 1.15109E-13-1.10581E-13
 -1      1586 2.00026E+01 1.60054E-03-1.90638E-04 1.09930E-02 1.81300E-13-7.69005E-14
 -1      1587 1.99778E+01 3.19840E-04-8.82998E-06 1.51644E-03 5.16518E-14-2.05308E-13
 -1      1588 1.99808E+01 7.76586E-04 1.26941E-04 2.00641E-03-8.14564E-14-2.91945E-13
 -1      1589 1.99902E+01 1.06975E-03-1.48371E-04 5.83136E-03-2.91105E-14-2.26570E-13
 -1      1590 1.99748E+01 2.02928E-04 1.87361E-05 1.66153E-04-1.23233E-13-1.73438E-13
 -1      1591 1.99757E+01 5.34064E-04 1.10848E-04 5.05694E-04 3.63308E-14-2.34859E-13
 -1      1592 1.99835E+01 6.82296E-04-1.13830E-04 2.31320E-03 4.73807E-14-1.49047E-13
 -1      1593 1.99749E+01 1.20096E-04 3.38997E-05-6.79565E-04-1.18740E-13 6.54294E-14
 -1      1594 1.99743E+01 3.54958E-04 9.39508E-05-4.51387E-04-5.54834E-14-8.76311E-14
 -1      1595 1.99807E+01 4.06331E-04-8.62399E-05 6.71714E-06-1.52822E-13-8.14056E-14
 -1      1596 1.99768E+01 6.29893E-05 4.06306E-05-1.16959E-03 6.08846E-14 1.12017E-13
 -1      1597 1.99754E+01 2.25580E-04 7.76574E-05-1.02201E-03-5.42854E-14 6.85364E-14
 -1      1598 1.99804E+01 2.15214E-04-6.46681E-05-1.42643E-03-1.10989E-13 8.87503E-14
 -1      1599 1.99798E+01 2.47005E-05 4.18941E-05-1.41556E-03 1.46321E-13-1.82929E-13
 -1      1600 1.99779E+01 1.34190E-04 6.27384E-05-1.32498E-03 1.29430E-13 1.36705E-14
 -1      1601 1.99818E+01 8.70834E-05-4.81206E-05-2.24525E-03 2.08830E-13 1.30564E-13
 -1      1602 1.99833E+01-4.92039E-07 3.99248E-05-1.49834E-03-3.11668E-13-5.54251E-14
 -1      1603 1.99812E+01 7.07903E-05 4.95423E-05-1.44729E-03-1.04544E-13-1.50566E-13
 -1      1604 1.99841E+01 4.15643E-06-3.55754E-05-2.64252E-03-6.78726E-14 2.27810E-13
 -1      1605 1.99869E+01-1.74515E-05 3.65491E-05-1.47313E-03 8.16913E-14 2.84907E-13
 -1      1606 1.99848E+01 2.67459E-05 3.81912E-05-1.44951E-03-8.87816E-14 9.32801E-14
 -1      1607 1.99869E+01-4.81092E-05-2.59425E-05-2.75589E-03-2.39752E-13 7.76719E-14
 -1      1608 1.99904E+01-3.05783E-05 3.36787E-05-1.37301E-03 1.35999E-13 4.56997E-14
 -1      1609 1.99884E+01-5.77889E-06 2.88473E-05-1.36975E-03 1.72481E-13 2.78492E-13
 -1      1610 1.99898E+01-8.20113E-05-1.79055E-05-2.67654E-03 2.54003E-13 2.24745E-13
 -1      1611 1.99937E+01-4.39965E-05 3.39326E-05-1.21089E-03 1.98169E-13-3.98704E-13
 -1      1612 1.99918E+01-3.43798E-05 2.21890E-05-1.22599E-03 1.87431E-13-1.15254E-13
 -1      1613 1.99926E+01-1.08661E-04-9.57334E-06-2.45488E-03 2.91318E-13 7.40523E-14
 -1      1614 1.99964E+01-6.19304E-05 3.96293E-05-9.80578E-04 1.85585E-14-6.23373E-13
 -1      1615 1.99949E+01-6.68346E-05 1.96537E-05-1.01772E-03 6.12120E-14-4.62044E-13
 -1      1616 1.99951E+01-1.39095E-04 1.54956E-06-2.10436E-03 1.99826E-13-5.95112E-14
 -1      1617 1.99984E+01-8.83305E-05 4.46126E-05-6.56414E-04 5.30261E-15-6.78841E-13
 -1      1618 1.99973E+01-1.11190E-04 2.09496E-05-7.28529E-04-1.93044E-14-5.89397E-13
 -1      1619 1.99972E+01-1.86507E-04 1.57050E-05-1.60592E-03-2.41725E-15-7.50506E-14
 -1      1620 1.99995E+01-1.18792E-04 6.01155E-06-2.45712E-04-5.58562E-14-6.29700E-13
 -1      1621 1.99990E+01-1.54310E-04 1.69563E-05-3.46155E-04 2.89472E-15-7.21129E-13
 -1      1622 1.99988E+01-2.49779E-04 2.57047E-05-9.28591E-04 1.61066E-14 3.98447E-14
 -1      1623 1.99998E+01-8.36879E-05-6.37936E-06-1.87203E-05-3.97255E-13-4.40219E-13
 -1      1624 1.99997E+01-1.10999E-03 2.17948E-05-5.50822E-04-8.96743E-14 2.39495E-13
 -1      1625 1.99996E+01-5.59451E-04-2.19569E-06-4.42188E-04-4.89472E-13 4.50965E-13
 -1      1626 1.99997E+01-2.80658E-03 9.34824E-06-8.87692E-04 1.63674E-13 2.10811E-13
 -1      1627 1.99997E+01-1.79779E-03 1.39275E-05-8.34728E-04-2.48950E-14 5.16229E-14
 -1      1628 1.99995E+01-1.60861E-03 2.51558E-05-1.34226E-03-1.04878E-13 2.96089E-13
 -1      1629 1.99998E+01-4.88215E-03-5.10776E-07-1.03314E-03-1.15531E-13-3.41427E-13
 -1      1630 1.99998E+01-3.66091E-03 6.88888E-06-1.02052E-03 1.05223E-13-3.32531E-14
 -1      1631 1.99997E+01-3.13555E-03 1.52712E-05-1.83797E-03 6.58329E-14-1.45447E-14
 -1      1632 1.99998E+01-7.00260E-03-4.86137E-06-1.00694E-03-4.87405E-13-3.82990E-13
 -1      1633 1.99998E+01-5.78612E-03 9.79378E-07-1.02584E-03-9.52438E-14-3.21297E-13
 -1      1634 1.99998E+01-4.87571E-03-2.18781E-06-1.98261E-03-6.30367E-14-4.92688E-13
 -1      1635 1.99999E+01-8.84996E-03-5.44168E-06-8.52290E-04-5.88536E-13 7.12852E-14
 -1      1636 1.99999E+01-7.81954E-03-1.03789E-06-8.91911E-04-6.07706E-13-2.02003E-13
 -1      1637 1.99999E+01-6.57540E-03-1.65684E-05-1.82951E-03-4.97382E-14-4.63660E-13
 -1      1638 1.99999E+01-1.02745E-02-4.59319E-06-6.03339E-04-5.29803E-13-1.20451E-13
 -1      1639 1.99999E+01-9.51495E-03-1.85337E-06-6.58196E-04-5.88796E-13 8.38028E-14
 -1      1640 2.00000E+01-8.03492E-03-2.60976E-05-1.45657E-03-2.73158E-13 6.83580E-14
 -1      1641 1.99999E+01-1.10951E-02-3.35167E-06-2.97110E-04-9.15977E-13-3.41523E-13
 -1      1642 1.99999E+01-1.06990E-02-1.95879E-06-3.59961E-04-5.60888E-13-2.58581E-13
 -1      1643 2.00000E+01-9.10487E-03-3.22666E-05-9.29568E-04-4.01043E-13-2.20432E-13
 -1      1644 1.99999E+01-1.12365E-02-2.41208E-06 3.52083E-05-8.06901E-13 9.89082E-14
 -1      1645 1.99999E+01-1.12396E-02-2.42284E-06-3.02082E-05-9.46931E-13 1.17901E-13
 -1      1646 2.00000E+01-9.66378E-03-3.51567E-05-3.15972E-04-3.32838E-13-2.50970E-13
 -1      1647 1.99999E+01-1.06857E-02-1.89921E-06 3.64768E-04-9.33055E-13-1.44156E-13
 -1      1648 1.99999E+01-1.10877E-02-3.38136E-06 3.01996E-04-8.11147E-13-8.15752E-14
 -1      1649 2.00000E+01-9.65956E-03-3.51313E-05 3.25522E-04-3.33945E-13 2.03317E-14
 -1      1650 1.99999E+01-9.49243E-03-1.65903E-06 6.62398E-04-1.13704E-12-2.52234E-13
 -1      1651 1.99999E+01-1.02573E-02-4.79670E-06 6.07836E-04-1.01405E-12-9.84750E-14
 -1      1652 2.00000E+01-9.09259E-03-3.21335E-05 9.38600E-04-4.66948E-13-2.47220E-13
 -1      1653 1.99999E+01-7.80515E-03-1.32070E-06 8.92589E-04-1.01257E-12 1.85064E-13
 -1      1654 1.99999E+01-8.83830E-03-5.66250E-06 8.53508E-04-1.12644E-12 7.87720E-14
 -1      1655 1.99999E+01-8.02679E-03-2.62104E-05 1.46083E-03-5.38888E-13-5.20557E-14
 -1      1656 1.99998E+01-5.75269E-03 8.81028E-07 1.02686E-03-9.20884E-13 1.93457E-13
 -1      1657 1.99998E+01-6.97146E-03-5.03929E-06 1.00842E-03-9.82048E-13 1.50642E-13
 -1      1658 1.99999E+01-6.56340E-03-1.62543E-05 1.83186E-03-4.27009E-13 2.66317E-13
 -1      1659 1.99998E+01-3.62970E-03 6.57837E-06 1.02233E-03-7.27117E-13 1.88618E-13
 -1      1660 1.99998E+01-4.84935E-03-7.39747E-07 1.03279E-03-8.68489E-13 3.59957E-13
 -1      1661 1.99998E+01-4.84870E-03-2.16860E-06 1.98303E-03-2.77403E-13 2.13219E-13
 -1      1662 1.99997E+01-1.80177E-03 3.02102E-06 8.30992E-04-3.49874E-13 1.49897E-13
 -1      1663 1.99997E+01-2.78359E-03 8.54524E-06 8.84548E-04-6.94486E-13 8.36850E-14
 -1      1664 1.99997E+01-3.10901E-03 1.45424E-05 1.83355E-03-1.80869E-13 2.07005E-13
 -1      1665 1.99995E+01-7.25954E-04-1.54444E-05 6.43242E-04-1.41376E-13 4.80520E-14
 -1      1666 1.99996E+01-1.27922E-03 7.10699E-06 8.01888E-04-1.73268E-13 1.26546E-13
 -1      1667 1.99995E+01-1.73672E-03 2.87683E-05 1.57178E-03 2.21682E-15 3.52639E-13
 -1      1668 1.99990E+01-8.10599E-04 1.84151E-06 1.24967E-03-5.62383E-14-5.14931E-15
 -1      1669-3.77075E-01-1.33556E+01-1.44355E+00-5.74895E-01 1.80717E-12 9.62674E-13
 -1      1670-4.44094E-01-1.56023E+01-1.63422E+00 4.77536E-01 9.13325E-13 7.20590E-13
 -1      1671 1.52784E+00-7.66123E+00-1.15304E+00 6.01332E-01 2.99005E-12 1.80761E-12
 -1      1672 7.80422E-01-1.26305E+01-1.61326E+00 2.03814E-02 2.24321E-12 1.14493E-12
 -1      1673 7.42990E+00-2.27113E-01-5.36961E-01 4.86717E+00 3.29625E-12 2.48668E-12
 -1      1674 4.10500E+00-5.69979E+00-1.28426E+00 1.82720E+00 3.12927E-12 1.98758E-12
 -1      1675 2.06873E+01 4.12137E+00 3.25481E-01 9.85493E+00 2.44882E-12 2.63201E-12
 -1      1676 1.32000E+01 9.53042E-01-5.34413E-01 6.14589E+00 2.87370E-12 2.35900E-12
 -1      1677 3.39434E+01 6.41131E+00 1.10391E+00 1.25713E+01 1.92679E-12 2.59459E-12
 -1      1678 2.50925E+01 6.44021E+00 2.91735E-01 1.10926E+01 2.53864E-12 2.87215E-12
 -1      1679 4.70123E+01 4.76372E+00 1.58386E+00 9.66941E+00 1.08940E-12 1.56952E-12
 -1      1680 3.87313E+01 6.34671E+00 9.87671E-01 1.16618E+01 1.64896E-12 2.29705E-12
 -1      1681 5.43620E+01 3.62102E+00 1.83347E+00 2.15443E+00 6.89032E-13-1.72029E-13
 -1      1682 5.01705E+01 4.70998E+00 1.53821E+00 7.44909E+00 9.48880E-13 9.97424E-13
 -1      1683 5.30015E+01 4.17224E+00 1.75739E+00-6.23315E+00 8.42271E-13-1.75299E-12
 -1      1684 5.55015E+01 3.40582E+00 1.90620E+00-6.37530E-01 5.69683E-13-7.64777E-13
 -1      1685 4.23789E+01 6.05681E+00 1.18637E+00-1.12280E+01 1.47597E-12-2.65898E-12
 -1      1686 5.00102E+01 4.39566E+00 1.74818E+00-8.36693E+00 9.87259E-13-2.04814E-12
 -1      1687 2.76588E+01 6.56260E+00 4.12201E-01-1.14353E+01 2.26485E-12-2.96940E-12
 -1      1688 3.75297E+01 6.03956E+00 1.25599E+00-1.23660E+01 1.73184E-12-2.79443E-12
 -1      1689 1.44163E+01 3.60906E+00-3.92803E-01-7.71283E+00 2.71938E-12-2.69595E-12
 -1      1690 2.20208E+01 6.03642E+00 5.19087E-01-1.11905E+01 2.51243E-12-3.08464E-12
 -1      1691 6.02311E+00-3.31446E+00-1.10416E+00-3.01285E+00 2.39853E-12-1.89104E-12
 -1      1692 1.02604E+01 1.65747E+00-2.83352E-01-6.41238E+00 2.65787E-12-2.48157E-12
 -1      1693 1.30629E+00-1.10043E+01-1.66383E+00-2.42522E-02 1.59917E-12-1.06978E-12
 -1      1694 2.66040E+00-5.34504E+00-1.04018E+00-1.51526E+00 2.28639E-12-1.61660E-12
 -1      1695-3.20603E-01-1.62058E+01-1.87944E+00 1.24700E-01 8.75966E-14-6.33327E-13
 -1      1696-2.58673E-01-1.28163E+01-1.60017E+00 9.40172E-01 1.18971E-12-9.46257E-13
 -1      1697-7.39365E-01-1.55773E+01-1.67192E+00-8.63302E-01-1.41667E-12-7.88314E-13
 -1      1698-7.23005E-01-1.61767E+01-1.76033E+00 6.46453E-01-3.11084E-13-6.46649E-13
 -1      1699 7.44224E-01-1.01523E+01-1.24320E+00 1.87172E-01-2.45981E-12-1.33905E-12
 -1      1700 3.03290E-01-1.43177E+01-1.60296E+00 3.12903E-01-1.67216E-12-8.88678E-13
 -1      1701 4.37865E+00-2.80959E+00-8.16641E-01 2.84478E+00-3.22653E-12-2.16538E-12
 -1      1702 2.34692E+00-8.65415E+00-1.47694E+00 7.01152E-01-2.96962E-12-1.54210E-12
 -1      1703 1.44745E+01 3.31068E+00 2.59439E-03 8.28927E+00-2.86704E-12-2.71305E-12
 -1      1704 8.78003E+00-1.04617E+00-8.60869E-01 4.49792E+00-3.05334E-12-2.29983E-12
 -1      1705 2.71699E+01 6.35828E+00 7.41984E-01 1.21157E+01-2.28539E-12-2.87881E-12
 -1      1706 1.88468E+01 5.20051E+00-1.13265E-01 9.41035E+00-2.82641E-12-2.87215E-12
 -1      1707 4.20569E+01 5.30923E+00 1.37747E+00 1.09677E+01-1.37584E-12-2.05558E-12
 -1      1708 3.26646E+01 6.33862E+00 6.32269E-01 1.13015E+01-1.97670E-12-2.57172E-12
 -1      1709 5.30979E+01 3.92951E+00 1.89935E+00 6.33060E+00-7.36217E-13-1.02268E-12
 -1      1710 4.67050E+01 5.52257E+00 1.41784E+00 1.03180E+01-1.12665E-12-1.83686E-12
 -1      1711 5.50559E+01 3.64967E+00 1.86815E+00-2.10122E+00-7.25697E-13 6.71740E-13
 -1      1712 5.45001E+01 3.80441E+00 1.82461E+00 3.62923E+00-7.06712E-13-4.65183E-13
 -1      1713 4.86896E+01 5.06264E+00 1.54358E+00-9.33321E+00-1.18894E-12 2.22466E-12
 -1      1714 5.41387E+01 3.62118E+00 1.91003E+00-4.86810E+00-7.81764E-13 1.23518E-12
 -1      1715 3.56478E+01 6.68792E+00 8.76186E-01-1.21750E+01-2.02643E-12 3.07887E-12
 -1      1716 4.47178E+01 5.27320E+00 1.58487E+00-1.11262E+01-1.39816E-12 2.62013E-12
 -1      1717 2.15059E+01 5.78458E+00 7.57972E-02-1.01735E+01-2.53286E-12 3.10951E-12
 -1      1718 3.03430E+01 6.47898E+00 9.51249E-01-1.24787E+01-2.18103E-12 3.22187E-12
 -1      1719 1.04690E+01 2.95229E-01-7.30505E-01-5.32364E+00-2.48512E-12 2.30005E-12
 -1      1720 1.68027E+01 4.02941E+00 1.43640E-01-9.07847E+00-2.51199E-12 2.90190E-12
 -1      1721 3.18172E+00-6.77603E+00-1.40809E+00-1.17308E+00-2.12075E-12 1.48326E-12
 -1      1722 5.88068E+00-1.28979E+00-6.82065E-01-3.83790E+00-2.56328E-12 2.13396E-12
 -1      1723 3.48944E-01-1.37722E+01-1.78972E+00 4.12272E-01-1.00731E-12 7.96169E-13
 -1      1724 8.99811E-01-8.88813E+00-1.32674E+00 2.30585E-02-1.81832E-12 1.21200E-12
 -1      1725-6.58497E-01-1.68354E+01-1.84561E+00-3.40444E-01 5.58553E-13 6.21503E-13
 -1      1726-6.98663E-01-1.50789E+01-1.73804E+00 1.12645E+00-5.79981E-13 6.98358E-13
 -1      1727 2.63093E+01 4.85726E-01 1.95143E-01 6.77775E+00 1.64690E-12 1.46405E-12
 -1      1728 1.61984E+01-3.26318E+00-1.66420E-01 6.57029E+00 1.72395E-12 1.41059E-12
 -1      1729 1.99996E+01-2.16963E-04 1.97192E-05-2.41630E-04-4.57275E-13 1.04789E-13
 -1      1730 1.99994E+01-6.33063E-04 1.14546E-05-7.59196E-04-1.29780E-13 3.52647E-13
 -1      1731 9.01949E-01-9.45449E+00-1.06367E+00 2.64017E+00 1.04361E-12 1.38656E-12
 -1      1732 6.30235E+00-6.97245E+00-8.16149E-01 4.66558E+00 1.61615E-12 1.63985E-12
 -1      1733-1.19123E+00-1.06890E+01-1.16777E+00 3.44755E-01 4.97040E-13 1.24145E-12
 -1      1734 3.61897E+01 4.57173E+00 9.22955E-01 6.61963E+00 1.64291E-12 1.27087E-12
 -1      1735 4.35097E+01 6.54915E+00 1.32576E+00 3.79296E+00 1.41975E-12 5.90139E-13
 -1      1736 4.71089E+01 7.51715E+00 1.58453E+00 1.71421E-01 1.22624E-12-2.50217E-13
 -1      1737 4.55204E+01 6.92191E+00 1.51581E+00-3.29561E+00 1.16401E-12-1.03739E-12
 -1      1738 3.84444E+01 5.14882E+00 1.08971E+00-6.05973E+00 1.35000E-12-1.38423E-12
 -1      1739 2.83529E+01 2.29859E+00 5.14870E-01-7.49990E+00 1.53327E-12-1.69464E-12
 -1      1740 1.76212E+01-1.65844E+00-1.57202E-01-6.94340E+00 1.48126E-12-1.77425E-12
 -1      1741 8.62972E+00-5.81882E+00-6.77682E-01-5.27921E+00 1.15397E-12-1.55856E-12
 -1      1742 1.99624E+00-9.60905E+00-1.16305E+00-2.95239E+00 6.25500E-13-1.34509E-12
 -1      1743-1.10063E+00-1.11173E+01-1.30479E+00-8.48069E-01-1.60150E-13-1.26266E-12
 -1      1744-2.36603E-01-9.93155E+00-1.07295E+00 1.86070E+00-7.61391E-13-1.29535E-12
 -1      1745 3.85370E+00-8.16674E+00-9.60732E-01 3.95556E+00-1.35825E-12-1.37522E-12
 -1      1746 1.16216E+01-4.54971E+00-4.97347E-01 5.93423E+00-1.78735E-12-1.55825E-12
 -1      1747 2.15868E+01-4.60023E-01 6.97827E-02 7.17110E+00-1.75326E-12-1.59961E-12
 -1      1748 3.20999E+01 3.14605E+00 6.98429E-01 6.85914E+00-1.63058E-12-1.41043E-12
 -1      1749 4.09124E+01 5.64928E+00 1.14350E+00 4.89037E+00-1.41302E-12-1.09168E-12
 -1      1750 4.67662E+01 7.22106E+00 1.56237E+00 2.40165E+00-1.25555E-12-4.73233E-13
 -1      1751 4.72528E+01 7.16979E+00 1.56227E+00-1.57060E+00-1.26499E-12 4.47531E-13
 -1      1752 4.27942E+01 6.08723E+00 1.32667E+00-5.13610E+00-1.41298E-12 1.29519E-12
 -1      1753 3.39892E+01 3.96765E+00 8.15829E-01-7.14980E+00-1.52175E-12 1.77780E-12
 -1      1754 2.35749E+01 2.59565E-01 1.58695E-01-7.17236E+00-1.34648E-12 1.81966E-12
 -1      1755 1.35400E+01-3.67383E+00-3.66929E-01-6.19508E+00-1.21569E-12 1.65473E-12
 -1      1756 5.05127E+00-7.60352E+00-9.28329E-01-4.04401E+00-9.26703E-13 1.40157E-12
 -1      1757 1.94242E-01-1.07353E+01-1.26618E+00-1.95202E+00-3.85136E-13 1.19871E-12
 -1      1758 2.39375E+01 1.95455E+00-2.72957E-02-2.32634E+00-3.44651E-13 1.12466E-12
 -1      1759 2.03218E+01 3.79381E+00-3.94333E-02-1.35797E+00-3.57415E-13-5.39031E-13
 -1      1760 2.07945E+01 3.62729E+00-3.41495E-02-1.66654E+00-4.39451E-13-4.16545E-13
 -1      1761 2.13060E+01 3.18877E+00-4.81082E-02-1.85940E+00-4.55854E-13-2.48655E-13
 -1      1762 2.17120E+01 2.79440E+00-1.30023E-01-2.17496E+00-5.09048E-13-1.78607E-14
 -1      1763 2.13033E+01 2.72985E+00-1.65415E-03-1.43879E+00-4.73383E-13-2.95215E-13
 -1      1764 1.88585E+01 4.41177E+00-2.19259E-02-5.81833E-01-1.44836E-13-7.33467E-13
 -1      1765 1.91726E+01 4.36836E+00-1.04258E-02-7.54414E-01-2.01525E-13-7.21419E-13
 -1      1766 1.83433E+01 4.57933E+00-1.67072E-02-3.34294E-01-3.90499E-14-7.47621E-13
 -1      1767 1.85844E+01 4.55302E+00-7.29188E-03-4.61087E-01-9.06775E-14-7.45383E-13
 -1      1768 1.88568E+01 4.13303E+00-6.25944E-03-4.43070E-01-1.33458E-13-7.09610E-13
 -1      1769 1.80024E+01 4.68522E+00-1.25938E-02-1.61498E-01 6.53551E-14-7.26082E-13
 -1      1770 1.81517E+01 4.67139E+00-6.65930E-03-2.54377E-01 1.95148E-14-7.38881E-13
 -1      1771 1.83466E+01 4.34125E+00-5.05985E-03-2.44390E-01-7.19021E-15-7.08125E-13
 -1      1772 1.78596E+01 4.73243E+00-9.36302E-03-3.19742E-02 1.67261E-13-7.08681E-13
 -1      1773 1.79061E+01 4.72896E+00-7.71829E-03-1.08058E-01 1.20998E-13-7.28179E-13
 -1      1774 1.80317E+01 4.46229E+00-4.06581E-03-1.11260E-01 9.88342E-14-7.00222E-13
 -1      1775 1.79251E+01 4.72093E+00-7.13929E-03 9.15350E-02 2.54036E-13-6.61818E-13
 -1      1776 1.78657E+01 4.72721E+00-9.99088E-03 1.37308E-02 2.14531E-13-6.91183E-13
 -1      1777 1.79343E+01 4.49635E+00-3.77821E-03-1.17215E-02 2.02386E-13-6.74984E-13
 -1      1778 1.81914E+01 4.65111E+00-6.37840E-03 2.47116E-01 3.40923E-13-6.10791E-13
 -1      1779 1.80325E+01 4.66770E+00-1.31178E-02 1.49447E-01 2.97445E-13-6.48274E-13
 -1      1780 1.80606E+01 4.44364E+00-4.41267E-03 9.24368E-02 2.97717E-13-6.36194E-13
 -1      1781 1.86267E+01 4.52632E+00-7.39289E-03 4.63957E-01 4.19629E-13-5.12153E-13
 -1      1782 1.83861E+01 4.55386E+00-1.70880E-02 3.33146E-01 3.78569E-13-5.71194E-13
 -1      1783 1.83944E+01 4.30870E+00-5.58924E-03 2.36689E-01 3.82733E-13-5.70938E-13
 -1      1784 1.92188E+01 4.33483E+00-1.10164E-02 7.75190E-01 5.09729E-13-3.53419E-13
 -1      1785 1.89014E+01 4.38146E+00-2.23898E-02 5.92882E-01 4.57686E-13-4.46584E-13
 -1      1786 1.89094E+01 4.09241E+00-7.14296E-03 4.49820E-01 4.66395E-13-4.49138E-13
 -1      1787 1.99445E+01 4.04754E+00-1.97247E-02 1.19448E+00 5.79408E-13-1.12129E-13
 -1      1788 1.95602E+01 4.13111E+00-3.01048E-02 9.50322E-01 5.33573E-13-2.48614E-13
 -1      1789 1.95850E+01 3.78126E+00-7.88745E-03 7.48201E-01 5.46612E-13-2.70358E-13
 -1      1790 2.08209E+01 3.57391E+00-3.96202E-02 1.71609E+00 6.19988E-13 2.48437E-13
 -1      1791 2.03540E+01 3.74862E+00-4.27148E-02 1.40520E+00 5.86992E-13 3.08434E-14
 -1      1792 2.04052E+01 3.33577E+00-5.07750E-03 1.12075E+00 6.10041E-13-1.09079E-14
 -1      1793 2.20123E+01 2.66468E+00-5.20195E-02 2.20911E+00 5.52095E-13 8.71143E-13
 -1      1794 2.13548E+01 3.10097E+00-5.13130E-02 1.90941E+00 5.75064E-13 5.03209E-13
 -1      1795 2.13895E+01 2.63527E+00 3.46848E-03 1.48444E+00 6.13956E-13 3.75793E-13
 -1      1796 2.29530E+01 1.17697E+00-1.18390E-01 1.82522E+00 4.34666E-13 1.58117E-12
 -1      1797 2.24451E+01 2.22816E+00-1.21939E-03 2.15424E+00 4.96452E-13 1.11890E-12
 -1      1798 2.21431E+01 1.66598E+00-1.68063E-02 1.48407E+00 5.61639E-13 8.60728E-13
 -1      1799 2.23572E+01 7.56748E-01-5.40633E-02 1.02011E+00 4.46976E-13 1.43371E-12
 -1      1800 2.29831E+01 2.40875E+00 8.39834E-02-2.48977E+00-4.53105E-13 3.98348E-13
 -1      1801 2.18578E+01 3.00492E-01-3.89741E-03 1.57572E-01 3.62009E-13 1.19955E-12
 -1      1802 2.21955E+01 4.34333E-01-9.71133E-03 5.38077E-01 3.85358E-13 1.32976E-12
 -1      1803 2.21738E+01 8.25654E-01-1.51998E-03 8.16572E-01 4.62515E-13 9.99645E-13
 -1      1804 2.27125E+01 1.71666E+00 7.69554E-02-1.71712E+00-4.79547E-13 2.33980E-13
 -1      1805 2.21167E+01 5.12310E-01 3.32532E-02-3.04811E-01-3.89157E-13 2.01384E-13
 -1      1806 2.19061E+01 3.76015E-01 1.25196E-02-4.41747E-03-3.34248E-13 1.07891E-13
 -1      1807 2.18571E+01 2.85356E-01 2.70674E-02 2.60810E-01-2.90496E-13 1.04628E-13
 -1      1808 2.18972E+01 2.03741E-01 1.21492E-02 4.12996E-01-2.41553E-13 1.73759E-14
 -1      1809 2.18102E+01 5.18383E-01-9.62155E-03 7.78924E-02-3.61697E-13-3.39997E-14
 -1      1810 2.19474E+01 1.47373E-01 1.60952E-02 5.64263E-01-1.93476E-13 3.01946E-14
 -1      1811 2.21040E+01 8.64829E-02 4.89497E-03 6.36036E-01-1.52890E-13-1.54425E-14
 -1      1812 2.18098E+01 2.68527E-01-8.57548E-03 5.56088E-01-2.49275E-13-4.33950E-14
 -1      1813 2.22323E+01 3.29314E-02 8.27208E-03 6.97680E-01-1.31205E-13-4.38885E-15
 -1      1814 2.24348E+01-3.30838E-02-3.27624E-03 6.98910E-01-1.11847E-13-3.11491E-14
 -1      1815 2.19926E+01 8.63710E-02-7.30316E-03 8.03386E-01-1.62306E-13-6.81287E-14
 -1      1816 2.26159E+01-9.67648E-02 3.87698E-03 6.68026E-01-8.72510E-14 7.74597E-15
 -1      1817 2.28004E+01-1.77300E-01-1.16653E-02 5.89118E-01-5.42496E-14-2.21316E-14
 -1      1818 2.23014E+01-1.04472E-01-5.73633E-03 8.49057E-01-1.03638E-13-4.27293E-14
 -1      1819 2.30051E+01-2.52413E-01 1.28249E-03 4.50254E-01-5.64063E-14-4.83120E-16
 -1      1820 2.31080E+01-3.40826E-01-1.90464E-02 2.79842E-01-6.30693E-14 4.71866E-15
 -1      1821 2.26807E+01-3.29573E-01-3.40585E-03 6.74354E-01-6.71021E-14 1.99079E-14
 -1      1822 2.32968E+01-4.12057E-01-1.00757E-03 2.42066E-02-5.75416E-14-2.09685E-15
 -1      1823 2.32602E+01-4.78119E-01-2.19832E-02-2.29904E-01-5.31450E-14 9.98312E-15
 -1      1824 2.30642E+01-5.66464E-01 5.52343E-04 2.51622E-01-6.91799E-14 3.92773E-14
 -1      1825 2.33751E+01-5.06950E-01-4.24753E-03-5.74847E-01-8.17037E-14 4.56915E-14
 -1      1826 2.31668E+01-4.95761E-01-1.60733E-02-8.59497E-01-8.49598E-14 7.48793E-14
 -1      1827 2.33611E+01-7.27939E-01 6.98251E-03-4.04322E-01-4.52798E-14 7.06944E-14
 -1      1828 2.31396E+01-4.28454E-01-9.65614E-03-1.19579E+00-1.33037E-13 4.12934E-14
 -1      1829 2.27841E+01-2.86463E-01-2.55913E-04-1.39832E+00-1.72066E-13-6.37632E-14
 -1      1830 2.34534E+01-6.65385E-01 1.40206E-02-1.16544E+00-1.59819E-13 3.72380E-14
 -1      1831 2.25821E+01-9.32359E-02-1.44565E-02-1.55298E+00-1.85367E-13-1.43342E-13
 -1      1832 2.21789E+01 1.66619E-01 1.79399E-02-1.53235E+00-1.95445E-13-2.08273E-13
 -1      1833 2.32418E+01-2.52088E-01 1.36924E-02-1.73831E+00-2.51180E-13 1.51398E-15
 -1      1834 2.18833E+01 4.24045E-01-1.19881E-02-1.34028E+00-2.01478E-13-2.96180E-13
 -1      1835 2.15859E+01 6.73784E-01 2.40654E-02-1.02873E+00-2.10758E-13-3.83682E-13
 -1      1836 2.27634E+01 4.51370E-01-1.51807E-03-1.73054E+00-2.58818E-13-1.06440E-13
 -1      1837 2.13978E+01 8.39040E-01 2.29510E-03-4.95425E-01-2.04907E-13-4.51932E-13
 -1      1838 2.13421E+01 9.07129E-01 1.29367E-02 9.53657E-04-1.91340E-13-4.98623E-13
 -1      1839 2.22882E+01 1.10053E+00-2.41558E-02-9.29385E-01-2.59738E-13-3.03682E-13
 -1      1840 2.14200E+01 8.55725E-01 1.92820E-02 6.27975E-01-2.22773E-13-5.96451E-13
 -1      1841 2.16416E+01 6.89833E-01-4.70413E-03 1.06712E+00-2.83426E-13-6.68510E-13
 -1      1842 2.21795E+01 1.27427E+00-3.09798E-02 3.87070E-01-2.76635E-13-4.64796E-13
 -1      1843 2.19340E+01 4.61620E-01 2.31844E-02 1.46515E+00-2.92048E-13-6.93642E-13
 -1      1844 2.23442E+01 1.85891E-01-1.39386E-02 1.64848E+00-1.92575E-13-6.94108E-13
 -1      1845 2.25473E+01 8.48152E-01-1.40869E-02 1.54250E+00-3.20447E-13-6.25495E-13
 -1      1846 2.26440E+01-5.75932E-02 9.75694E-03 1.67251E+00-1.47201E-13-7.62088E-13
 -1      1847 2.30883E+01-2.73071E-01-1.23997E-02 1.57865E+00-1.09149E-13-7.78506E-13
 -1      1848 2.31262E+01 1.19475E-01 7.56554E-03 1.98917E+00-2.14074E-13-6.97872E-13
 -1      1849 2.32387E+01-4.11350E-01-9.10790E-03 1.31869E+00-5.25092E-14-8.03255E-13
 -1      1850 2.35802E+01-4.91426E-01-7.06423E-03 1.06256E+00 3.07740E-15-8.07507E-13
 -1      1851 2.35573E+01-4.80123E-01 1.57088E-02 1.69180E+00-1.06166E-13-6.98891E-13
 -1      1852 2.35570E+01-5.10944E-01-2.10582E-02 7.02655E-01 3.58394E-15-7.56261E-13
 -1      1853 2.37284E+01-4.81963E-01-3.06608E-03 4.19697E-01 2.97947E-14-7.26551E-13
 -1      1854 2.36734E+01-7.31486E-01 1.17489E-02 9.84969E-01 3.06985E-14-6.42480E-13
 -1      1855 2.35859E+01-4.31097E-01-2.27990E-02 1.00821E-01 2.28055E-14-6.83126E-13
 -1      1856 2.35882E+01-3.53898E-01-1.12592E-03-1.24665E-01 8.99341E-14-6.62752E-13
 -1      1857 2.35108E+01-6.80462E-01 5.14009E-03 2.33813E-01 4.44454E-14-4.98548E-13
 -1      1858 2.33881E+01-2.83168E-01-1.79644E-02-3.43292E-01 1.71982E-13-6.71559E-13
 -1      1859 2.32616E+01-2.03810E-01-4.18271E-04-4.84718E-01 1.60962E-13-6.86078E-13
 -1      1860 2.31800E+01-4.83074E-01 6.19639E-04-3.50913E-01 1.26145E-13-5.09830E-13
 -1      1861 2.30455E+01-1.42026E-01-1.10182E-02-6.01563E-01 1.42490E-13-6.10357E-13
 -1      1862 2.28412E+01-8.13907E-02-4.47759E-05-6.67565E-01 1.09402E-13-5.29022E-13
 -1      1863 2.27757E+01-2.67787E-01-1.61541E-03-7.11355E-01 2.12049E-13-4.33484E-13
 -1      1864 2.26316E+01-3.80854E-02-4.71868E-03-7.06228E-01 1.25901E-14-4.20069E-13
 -1      1865 2.23940E+01 2.67557E-04 3.47286E-04-7.18399E-01 7.95888E-14-3.14285E-13
 -1      1866 2.23579E+01-9.73224E-02-2.41108E-03-8.75538E-01 1.32983E-13-2.35885E-13
 -1      1867 2.22014E+01 2.60631E-02-1.58434E-04-7.06620E-01 4.88432E-14-3.26861E-13
 -1      1868 2.19625E+01 4.62712E-02 7.42026E-04-6.86390E-01 7.91622E-14-3.25072E-13
 -1      1869 2.19592E+01 1.40074E-02-2.60549E-03-9.00453E-01 6.36885E-14-1.76243E-13
 -1      1870 2.17916E+01 5.90796E-02 2.61625E-03-6.46948E-01 3.24526E-14-3.13845E-13
 -1      1871 2.15708E+01 6.69467E-02 1.06059E-03-6.10638E-01-2.12381E-14-3.90460E-13
 -1      1872 2.15960E+01 7.52380E-02-2.59199E-03-8.40973E-01 6.86621E-14-2.17888E-13
 -1      1873 2.14233E+01 7.13730E-02 3.98684E-03-5.59370E-01-3.84159E-14-3.68925E-13
 -1      1874 2.12304E+01 7.18445E-02 1.25536E-03-5.17683E-01-2.64198E-15-4.37110E-13
 -1      1875 2.12761E+01 1.01464E-01-2.49344E-03-7.38862E-01-1.39364E-14-2.60622E-13
 -1      1876 2.11058E+01 7.14269E-02 4.40698E-03-4.64411E-01 3.16732E-14-5.20708E-13
 -1      1877 2.09440E+01 6.79973E-02 1.32430E-03-4.23583E-01 7.83163E-15-5.19655E-13
 -1      1878 2.10019E+01 1.06175E-01-2.33984E-03-6.21915E-01 3.57245E-15-3.25512E-13
 -1      1879 2.08411E+01 6.51100E-02 4.25842E-03-3.73755E-01 1.52307E-14-3.99557E-13
 -1      1880 2.07095E+01 5.99920E-02 1.29255E-03-3.36966E-01 1.16031E-14-3.95819E-13
 -1      1881 2.07724E+01 9.91585E-02-2.14153E-03-5.06738E-01 4.85445E-14-2.19023E-13
 -1      1882 2.06261E+01 5.60934E-02 3.81493E-03-2.93166E-01 1.36143E-14-4.00289E-13
 -1      1883 2.05219E+01 5.05736E-02 1.19318E-03-2.61697E-01 1.04394E-13-3.16288E-13
 -1      1884 2.05844E+01 8.67373E-02-1.91064E-03-4.02114E-01 1.70261E-14-1.32839E-13
 -1      1885 2.04557E+01 4.64957E-02 3.25317E-03-2.24771E-01 5.61441E-14-3.21168E-13
 -1      1886 2.03750E+01 4.12582E-02 1.05626E-03-1.98812E-01-5.65180E-14-3.32057E-13
 -1      1887 2.04335E+01 7.26604E-02-1.66272E-03-3.11820E-01 5.47725E-14-1.01992E-13
 -1      1888 2.03233E+01 3.74367E-02 2.67735E-03-1.68631E-01-8.78005E-14-2.96331E-13
 -1      1889 2.02622E+01 3.28001E-02 9.04805E-04-1.47805E-01-6.34847E-14-2.50946E-13
 -1      1890 2.03146E+01 5.89730E-02-1.41336E-03-2.36662E-01-6.00437E-15-1.73990E-13
 -1      1891 2.02226E+01 2.94337E-02 2.14313E-03-1.23743E-01 2.16923E-14-1.96474E-13
 -1      1892 2.01773E+01 2.55065E-02 7.54508E-04-1.07419E-01-1.26299E-15-1.06721E-13
 -1      1893 2.02227E+01 4.66708E-02-1.17544E-03-1.75825E-01-4.21397E-15-9.99244E-14
 -1      1894 2.01476E+01 2.26587E-02 1.67579E-03-8.86443E-02-1.18738E-13-1.37566E-14
 -1      1895 2.01147E+01 1.94360E-02 6.14943E-04-7.61115E-02-8.30131E-14 6.75702E-14
 -1      1896 2.01530E+01 3.61374E-02-9.57912E-04-1.27710E-01 2.68201E-14 1.77123E-13
 -1      1897 2.00929E+01 1.70972E-02 1.28284E-03-6.17519E-02-9.24230E-14 5.89552E-14
 -1      1898 2.00697E+01 1.45179E-02 4.91151E-04-5.23199E-02 8.20342E-14 9.53941E-14
 -1      1899 2.01012E+01 2.74191E-02-7.65869E-04-9.04350E-02-1.23900E-13 2.56980E-13
 -1      1900 2.00539E+01 1.26423E-02 9.62059E-04-4.15503E-02 7.71957E-15-1.00549E-13
 -1      1901 2.00381E+01 1.06215E-02 3.85069E-04-3.45947E-02-8.34836E-14-1.58643E-13
 -1      1902 2.00634E+01 2.03892E-02-6.01209E-04-6.21194E-02-8.19757E-14 1.75906E-13
 -1      1903 2.00271E+01 9.14831E-03 7.06372E-04-2.66801E-02-1.19404E-13-1.88218E-13
 -1      1904 2.00166E+01 7.59619E-03 2.96643E-04-2.16617E-02-1.00393E-13-1.53358E-13
 -1      1905 2.00366E+01 1.48442E-02-4.63525E-04-4.10292E-02-1.69184E-13 8.60138E-14
 -1      1906 2.00092E+01 6.46108E-03 5.06784E-04-1.59723E-02-1.70413E-14-2.15300E-13
 -1      1907 2.00027E+01 5.29200E-03 2.24641E-04-1.24399E-02 1.68230E-15-2.22220E-13
 -1      1908 2.00182E+01 1.05568E-02-3.50915E-04-2.56438E-02-7.24545E-14 1.24532E-13
 -1      1909 1.99979E+01 4.43387E-03 3.53989E-04-8.45224E-03 1.67712E-13-3.52382E-13
 -1      1910 1.99943E+01 3.57101E-03 1.67208E-04-6.03806E-03 1.94019E-13-1.42913E-13
 -1      1911 2.00060E+01 7.30549E-03-2.60639E-04-1.46753E-02 3.95609E-14-3.30312E-15
 -1      1912 1.99914E+01 2.93483E-03 2.39234E-04-3.32679E-03 8.55448E-14-1.61873E-13
 -1      1913 1.99897E+01 2.31180E-03 1.22230E-04-1.73727E-03-2.01875E-14-1.05508E-13
 -1      1914 1.99983E+01 4.88795E-03-1.89604E-04-7.06208E-03 1.26502E-13 1.36037E-14
 -1      1915 1.99881E+01 1.84978E-03 1.54726E-04 3.54433E-05 2.12396E-14-2.77651E-14
 -1      1916 1.99877E+01 1.41071E-03 8.75511E-05 1.02963E-03 8.31810E-14 2.71836E-14
 -1      1917 1.99939E+01 3.12763E-03-1.34685E-04-1.94897E-03 7.63785E-14 6.80559E-14
 -1      1918 1.99871E+01 1.08230E-03 9.37752E-05 2.12657E-03-8.28681E-14-5.70485E-14
 -1      1919 1.99875E+01 7.80892E-04 6.10895E-05 2.70063E-03-8.20970E-14-5.95566E-14
 -1      1920 1.99918E+01 1.87436E-03-9.29365E-05 1.33833E-03-1.11848E-13 5.26174E-14
 -1      1921 1.99875E+01 5.52195E-04 5.07901E-05 3.32129E-03-5.93554E-14-1.28988E-13
 -1      1922 1.99885E+01 3.50371E-04 4.08858E-05 3.60539E-03-6.57530E-14 3.43900E-14
 -1      1923 1.99912E+01 1.00278E-03-6.17014E-05 3.31964E-03-5.44701E-14 9.36387E-14
 -1      1924 1.99888E+01 1.93078E-04 2.12069E-05 3.89649E-03 9.13374E-14 9.02164E-14
 -1      1925 1.99900E+01 5.93596E-05 2.51260E-05 3.98337E-03 1.20914E-13 1.62041E-13
 -1      1926 1.99916E+01 4.08969E-04-3.86750E-05 4.38497E-03 5.54112E-16 9.99421E-14
 -1      1927 1.99906E+01-5.04356E-05 1.41621E-06 4.04773E-03 1.09285E-14 2.69065E-13
 -1      1928 1.99919E+01-1.42658E-04 1.21563E-05 3.99874E-03 1.12223E-13 4.40399E-13
 -1      1929 1.99926E+01 6.36429E-06-2.19200E-05 4.81621E-03 1.65977E-13 2.23350E-13
 -1      1930 1.99926E+01-2.25796E-04-1.13534E-05 3.90239E-03 2.00911E-14 4.17380E-13
 -1      1931 1.99939E+01-2.99611E-04 8.11790E-07 3.75182E-03 6.91143E-14 2.97683E-13
 -1      1932 1.99939E+01-2.78369E-04-9.87064E-06 4.80512E-03 2.90408E-14 6.61498E-13
 -1      1933 1.99946E+01-3.74214E-04-1.84905E-05 3.53007E-03 3.17500E-14 1.30717E-13
 -1      1934 1.99957E+01-4.49795E-04-8.82741E-06 3.28883E-03 8.86570E-14 7.76730E-14
 -1      1935 1.99953E+01-5.08817E-04-1.13958E-06 4.46771E-03-6.16736E-14 1.81770E-13
 -1      1936 1.99964E+01-5.35414E-04-2.11999E-05 2.95561E-03 8.44405E-14-3.98598E-14
 -1      1937 1.99973E+01-6.25613E-04-1.63624E-05 2.61315E-03 1.18753E-13-8.98458E-14
 -1      1938 1.99967E+01-7.39444E-04 4.12431E-06 3.86193E-03-8.13619E-15 1.23319E-13
 -1      1939 1.99978E+01-6.95607E-04-1.91177E-05 2.19162E-03 2.50612E-13-1.17130E-13
 -1      1940 1.99985E+01-7.92975E-04-2.37912E-05 1.75506E-03 1.68605E-13-1.02883E-14
 -1      1941 1.99988E+01-1.14256E-03 7.65182E-06 2.04881E-03 1.40755E-13 1.42435E-13
 -1      1942 1.99978E+01-9.76396E-04 1.12569E-05 3.03256E-03 1.47431E-13 1.47965E-13
 -1      1943 2.17637E+01 1.52284E-01 9.70878E-03-2.56169E-01 2.63393E-13 1.00398E-12
 -1      1944 2.18116E+01 2.13731E-01 1.74063E-02-7.08758E-02 2.97358E-13 1.12109E-12
 -1      1945 2.18477E+01 3.54937E-01-4.93853E-03 3.34351E-02 3.61157E-13 8.39211E-13
 -1      1946 2.19326E+01 6.93559E-02 6.18945E-03-4.69099E-01 1.61722E-13 8.43350E-13
 -1      1947 2.18199E+01 1.07618E-01 1.38175E-02-3.71959E-01 1.83588E-13 9.25978E-13
 -1      1948 2.18117E+01 1.69125E-01-5.11423E-03-3.88120E-01 2.54286E-13 6.86198E-13
 -1      1949 2.22507E+01-3.21298E-03 8.02356E-04-5.42437E-01 1.29304E-13 7.59113E-13
 -1      1950 2.20640E+01 3.11620E-02 6.65249E-03-5.07492E-01 1.17598E-13 8.11707E-13
 -1      1951 2.19912E+01 5.25408E-02-5.35318E-03-5.93649E-01 1.71126E-13 5.74826E-13
 -1      1952 2.26106E+01-8.56745E-02-3.95742E-03-4.78785E-01 6.46980E-14 7.06059E-13
 -1      1953 2.24172E+01-4.84588E-02 1.00656E-03-5.07941E-01 8.05649E-14 7.51437E-13
 -1      1954 2.22901E+01-5.87381E-02-4.23640E-03-6.26692E-01 9.53090E-14 5.20324E-13
 -1      1955 2.29060E+01-1.79685E-01-7.47301E-03-2.60496E-01 1.02892E-13 7.05320E-13
 -1      1956 2.27695E+01-1.41274E-01-3.13323E-03-3.64627E-01 6.33599E-14 7.16763E-13
 -1      1957 2.26201E+01-1.84559E-01-1.55235E-03-4.82623E-01 7.72230E-14 4.95794E-13
 -1      1958 2.30286E+01-2.65487E-01-8.40580E-03 1.18056E-01 6.15601E-14 7.07063E-13
 -1      1959 2.30097E+01-2.37604E-01-6.08996E-03-6.53296E-02 8.84145E-14 7.28180E-13
 -1      1960 2.28905E+01-3.15185E-01 2.60500E-03-1.47240E-01 8.61863E-14 5.16137E-13
 -1      1961 2.28825E+01-2.97285E-01-5.32034E-03 6.09528E-01 2.75240E-14 6.51302E-13
 -1      1962 2.30271E+01-3.02166E-01-7.63711E-03 3.69592E-01 4.82375E-14 6.62310E-13
 -1      1963 2.30045E+01-4.06174E-01 7.82308E-03 3.61247E-01 5.54201E-14 5.51951E-13
 -1      1964 2.24218E+01-2.15827E-01 1.02710E-03 1.07438E+00-6.02608E-14 7.29552E-13
 -1      1965 2.27373E+01-2.76484E-01-7.21041E-03 8.46829E-01-5.89962E-14 6.51808E-13
 -1      1966 2.28739E+01-3.82132E-01 1.21653E-02 9.43065E-01-3.49087E-14 5.76293E-13
 -1      1967 2.17097E+01 5.23374E-03 5.89922E-03 1.28758E+00 8.45866E-14 7.35063E-13
 -1      1968 2.21401E+01-1.10865E-01-4.36534E-03 1.18235E+00 4.91096E-14 7.46785E-13
 -1      1969 2.24643E+01-1.76029E-01 1.16438E-02 1.38753E+00 2.57550E-14 5.91287E-13
 -1      1970 2.09629E+01 2.98862E-01 3.57966E-03 1.04385E+00 1.94060E-13 5.58335E-13
 -1      1971 2.13815E+01 1.73368E-01 7.37098E-04 1.15703E+00 1.27161E-13 6.26353E-13
 -1      1972 2.18648E+01 1.93172E-01 2.81278E-03 1.42443E+00 1.58874E-13 4.67657E-13
 -1      1973 2.05065E+01 5.04286E-01-4.87479E-03 3.36133E-01 3.29022E-13 3.91230E-13
 -1      1974 2.07520E+01 4.46516E-01 7.67848E-03 6.64063E-01 2.83717E-13 5.20328E-13
 -1      1975 2.13192E+01 5.68642E-01-1.07582E-02 8.92450E-01 2.99941E-13 3.23401E-13
 -1      1976 2.05981E+01 4.80468E-01-1.09026E-02-5.52641E-01 2.44737E-13 1.95007E-13
 -1      1977 2.05510E+01 5.34927E-01 1.29812E-02-1.48670E-01 2.67647E-13 2.90789E-13
 -1      1978 2.11248E+01 7.32565E-01-1.59720E-02-6.92596E-02 3.35365E-13 2.14725E-13
 -1      1979 2.12232E+01 2.47792E-01-7.84892E-03-1.21252E+00 9.32067E-14-8.33361E-15
 -1      1980 2.08873E+01 3.79035E-01 1.24463E-02-9.16698E-01 1.68346E-13 8.95100E-14
 -1      1981 2.14131E+01 5.74146E-01-9.07270E-03-1.02934E+00 2.44912E-13 2.58014E-14
 -1      1982 2.21033E+01-4.02544E-02 1.34476E-03-1.39381E+00-2.14347E-14-1.11862E-13
 -1      1983 2.16066E+01 8.75980E-02 5.76020E-03-1.30976E+00 2.83380E-14-6.37303E-14
 -1      1984 2.20375E+01 1.98162E-01 2.09485E-03-1.56079E+00 9.21940E-14-1.87107E-13
 -1      1985 2.28953E+01-2.34226E-01 8.78688E-03-1.13611E+00 7.96290E-14-1.63656E-13
 -1      1986 2.24113E+01-1.66968E-01-3.15672E-03-1.23999E+00 9.34149E-15-1.79908E-13
 -1      1987 2.26985E+01-1.76886E-01 6.60568E-03-1.52233E+00 6.91508E-14-2.76695E-13
 -1      1988 2.33876E+01-2.91055E-01 1.04515E-02-6.56331E-01 2.68726E-14-1.09321E-13
 -1      1989 2.30450E+01-2.88311E-01-9.60471E-03-8.54503E-01 1.17711E-13-8.58688E-14
 -1      1990 2.31598E+01-3.88365E-01 4.35491E-03-1.07639E+00 6.24206E-14-3.09158E-13
 -1      1991 2.35362E+01-2.49284E-01 7.81077E-03-1.69311E-01-6.09131E-14-2.71449E-13
 -1      1992 2.33825E+01-2.84544E-01-1.17989E-02-3.71900E-01-1.92034E-14-1.86316E-13
 -1      1993 2.33376E+01-4.16418E-01 3.70635E-04-4.90571E-01 3.57466E-14-3.48184E-13
 -1      1994 2.34033E+01-1.67897E-01 3.85732E-03 2.03108E-01-6.03441E-14-2.79957E-13
 -1      1995 2.34209E+01-2.13041E-01-1.05376E-02 4.66644E-02-9.09290E-14-3.39424E-13
 -1      1996 2.32623E+01-3.29537E-01-1.95182E-03 3.02534E-02-3.68204E-14-4.66141E-13
 -1      1997 2.30860E+01-8.81177E-02 7.00424E-04 4.29724E-01 1.64799E-15-7.12408E-14
 -1      1998 2.32258E+01-1.26680E-01-7.54259E-03 3.32854E-01-4.62165E-14-1.36637E-13
 -1      1999 2.30096E+01-2.06643E-01-2.35274E-03 3.94458E-01-8.88560E-14-3.21611E-13
 -1      2000 2.26744E+01-2.78585E-02-1.09693E-03 5.31044E-01 2.26490E-13-1.02767E-13
 -1      2001 2.28833E+01-5.43688E-02-4.23867E-03 4.85876E-01 1.15081E-13-2.33077E-14
 -1      2002 2.26563E+01-9.69569E-02-1.78279E-03 5.95545E-01 1.00346E-13-1.92156E-13
 -1      2003 2.22359E+01 1.04301E-02-1.77381E-03 5.44576E-01 3.00854E-14-1.13094E-13
 -1      2004 2.24708E+01-4.77484E-03-1.45870E-03 5.36057E-01 1.52242E-13-1.32393E-13
 -1      2005 2.22632E+01-1.86589E-02-1.08889E-03 6.67761E-01 1.69505E-13-1.45941E-13
 -1      2006 2.18145E+01 3.09563E-02-1.77688E-03 5.05748E-01-3.17988E-13 4.29771E-14
 -1      2007 2.20458E+01 2.41304E-02 5.10322E-04 5.19446E-01-1.64101E-13-5.43246E-14
 -1      2008 2.18723E+01 2.85542E-02-6.17489E-04 6.54365E-01-1.63641E-13-2.95217E-14
 -1      2009 2.14349E+01 3.93132E-02-1.47313E-03 4.41172E-01-9.40941E-14 1.23254E-13
 -1      2010 2.16455E+01 3.78628E-02 1.69834E-03 4.66123E-01-1.91215E-13 6.99605E-14
 -1      2011 2.15100E+01 5.20428E-02-3.97873E-04 5.92490E-01-2.25012E-13 9.40503E-14
 -1      2012 2.11082E+01 4.02656E-02-1.08675E-03 3.68287E-01-3.77686E-14 1.20182E-13
 -1      2013 2.12901E+01 4.18565E-02 2.27161E-03 3.97219E-01-4.86030E-14 1.19237E-13
 -1      2014 2.11899E+01 5.99251E-02-3.44978E-04 5.08824E-01-5.98796E-14 1.43122E-14
 -1      2015 2.08367E+01 3.72161E-02-7.28593E-04 2.97307E-01-4.54025E-14 1.96078E-13
 -1      2016 2.09878E+01 4.02699E-02 2.42170E-03 3.25895E-01-1.14274E-13 1.40506E-13
 -1      2017 2.09175E+01 5.86873E-02-3.68893E-04 4.20383E-01-5.89383E-14 6.65803E-14
 -1      2018 2.06173E+01 3.23545E-02-4.39952E-04 2.33483E-01-8.12559E-14 3.46289E-13
 -1      2019 2.07390E+01 3.59004E-02 2.31295E-03 2.59450E-01-3.90449E-14 3.02766E-13
 -1      2020 2.06924E+01 5.27902E-02-4.09442E-04 3.36868E-01-1.05979E-13 2.02961E-13
 -1      2021 2.04443E+01 2.69817E-02-2.26556E-04 1.78943E-01 1.01912E-13 2.42481E-13
 -1      2022 2.05397E+01 3.04724E-02 2.06700E-03 2.01312E-01 1.40064E-14 3.58670E-13
 -1      2023 2.05111E+01 4.50186E-02-4.36410E-04 2.63052E-01 2.63941E-14 2.93751E-13
 -1      2024 2.03108E+01 2.18099E-02-7.90672E-05 1.33998E-01-4.55387E-14 1.54401E-13
 -1      2025 2.03839E+01 2.49691E-02 1.76510E-03 1.52563E-01 4.96467E-15 1.26999E-13
 -1      2026 2.03683E+01 3.69747E-02-4.40084E-04 2.00643E-01 9.75890E-14 3.30987E-13
 -1      2027 2.02100E+01 1.71858E-02 1.63150E-05 9.79973E-02-3.99166E-14 1.74349E-13
 -1      2028 2.02648E+01 1.99003E-02 1.45698E-03 1.12966E-01-1.68145E-14 9.08141E-14
 -1      2029 2.02581E+01 2.94975E-02-4.21790E-04 1.49585E-01-3.65023E-14 2.44960E-13
 -1      2030 2.01356E+01 1.32411E-02 7.30689E-05 6.98424E-02 5.38333E-14 6.60587E-14
 -1      2031 2.01757E+01 1.54903E-02 1.17028E-03 8.16245E-02 8.14453E-16 1.49144E-13
 -1      2032 2.01749E+01 2.29637E-02-3.87338E-04 1.08905E-01 4.59722E-14 1.97471E-13
 -1      2033 2.00820E+01 9.98729E-03 1.02573E-04 4.82973E-02 1.83404E-14 2.01650E-13
 -1      2034 2.01106E+01 1.17995E-02 9.18186E-04 5.73728E-02 6.25532E-14 9.03661E-14
 -1      2035 2.01134E+01 1.74846E-02-3.43327E-04 7.72291E-02 5.78541E-14 1.58614E-13
 -1      2036 2.00444E+01 7.37363E-03 1.13736E-04 3.21539E-02-2.56283E-14 1.75571E-13
 -1      2037 2.00642E+01 8.79965E-03 7.05094E-04 3.90016E-02 5.23295E-14 2.70051E-13
 -1      2038 2.00690E+01 1.30284E-02-2.95443E-04 5.30825E-02 2.67148E-14 3.21410E-13
 -1      2039 2.00189E+01 5.32135E-03 1.13202E-04 2.03169E-02 1.99176E-13 1.73684E-13
 -1      2040 2.00321E+01 6.41982E-03 5.30289E-04 2.53768E-02-1.37867E-14 1.21315E-13
 -1      2041 2.00378E+01 9.49320E-03-2.47908E-04 3.50562E-02 5.27541E-14 2.02301E-13
 -1      2042 2.00024E+01 3.74325E-03 1.05741E-04 1.18388E-02 3.10440E-14-1.20993E-14
 -1      2043 2.00107E+01 4.57215E-03 3.90393E-04 1.54954E-02 1.77678E-13 1.64949E-13
 -1      2044 2.00166E+01 6.74975E-03-2.03495E-04 2.18883E-02 2.16801E-13 3.47063E-13
 -1      2045 1.99923E+01 2.55441E-03 9.46605E-05 5.92723E-03-1.06271E-13 2.28950E-15
 -1      2046 1.99972E+01 3.16683E-03 2.80842E-04 8.50486E-03-6.65905E-14-4.86313E-14
 -1      2047 2.00028E+01 4.66458E-03-1.63787E-04 1.24957E-02 1.49060E-14 2.65690E-13
 -1      2048 1.99869E+01 1.67755E-03 8.21562E-05 1.93699E-03 4.16188E-14 9.14401E-14
 -1      2049 1.99894E+01 2.11989E-03 1.96772E-04 3.70165E-03 1.82863E-14 4.55459E-14
 -1      2050 1.99944E+01 3.11256E-03-1.29472E-04 5.97783E-03-2.52388E-14 1.99294E-13
 -1      2051 1.99847E+01 1.04521E-03 6.95992E-05-6.45285E-04-2.31608E-13-6.68361E-14
 -1      2052 1.99855E+01 1.35675E-03 1.33509E-04 5.19502E-04-1.32005E-13-3.65278E-14
 -1      2053 1.99899E+01 1.98254E-03-1.00626E-04 1.60453E-03-6.76206E-14-1.76248E-14
 -1      2054 1.99845E+01 6.00119E-04 5.77524E-05-2.21889E-03 3.35472E-14 8.37889E-14
 -1      2055 1.99842E+01 8.13354E-04 8.68156E-05-1.48713E-03-2.13679E-13-3.86881E-14
 -1      2056 1.99879E+01 1.17915E-03-7.69315E-05-1.20233E-03-2.42093E-13-8.88267E-14
 -1      2057 1.99856E+01 2.94425E-04 4.69263E-05-3.08678E-03 2.95730E-14 4.78525E-13
 -1      2058 1.99847E+01 4.35846E-04 5.29880E-05-2.66068E-03 1.17562E-13 3.31286E-13
 -1      2059 1.99877E+01 6.22377E-04-5.78494E-05-2.89002E-03-2.77954E-14 2.05722E-13
 -1      2060 1.99875E+01 8.82919E-05 3.70925E-05-3.47148E-03-3.58220E-13 5.35034E-13
 -1      2061 1.99863E+01 1.79381E-04 2.88664E-05-3.25704E-03 8.19878E-15 6.31951E-13
 -1      2062 1.99886E+01 2.45866E-04-4.27332E-05-3.79535E-03-1.05442E-13 6.05976E-13
 -1      2063 1.99898E+01-5.18798E-05 2.79910E-05-3.52844E-03 9.72621E-14 1.92971E-13
 -1      2064 1.99884E+01 6.46395E-06 1.18161E-05-3.45990E-03-2.91353E-13 2.36332E-13
 -1      2065 1.99902E+01-5.54043E-06-3.08975E-05-4.16267E-03-7.98322E-14 5.07464E-13
 -1      2066 1.99922E+01-1.55538E-04 1.92898E-05-3.35623E-03 4.50132E-13 2.50125E-13
 -1      2067 1.99908E+01-1.15053E-04-2.68683E-07-3.39242E-03 2.87126E-13 3.10218E-13
 -1      2068 1.99920E+01-1.78621E-04-2.16341E-05-4.15890E-03 1.81560E-13 3.22803E-13
 -1      2069 1.99945E+01-2.49511E-04 1.12720E-05-3.00348E-03 3.19983E-13 1.61594E-13
 -1      2070 1.99931E+01-2.14121E-04-8.78251E-06-3.12576E-03 3.30861E-13 3.72674E-13
 -1      2071 1.99939E+01-3.14816E-04-1.41189E-05-3.88528E-03 2.82105E-13 4.41129E-13
 -1      2072 1.99965E+01-3.57220E-04 4.84597E-06-2.47688E-03-4.77990E-15 2.07561E-13
 -1      2073 1.99953E+01-3.15954E-04-1.38401E-05-2.68639E-03 1.78303E-13 2.07602E-13
 -1      2074 1.99957E+01-4.49578E-04-6.77933E-06-3.38608E-03 2.44971E-13 3.42221E-13
 -1      2075 1.99980E+01-4.97838E-04-4.29088E-06-1.75310E-03-1.74129E-14 3.36926E-13
 -1      2076 1.99972E+01-4.38510E-04-1.37072E-05-2.06952E-03 2.69144E-14 3.10015E-13
 -1      2077 1.99973E+01-6.14972E-04-5.45417E-07-2.67020E-03-3.69938E-14 5.25110E-13
 -1      2078 1.99990E+01-6.24472E-04-1.45188E-05-1.07323E-03-3.44997E-14 3.67078E-13
 -1      2079 1.99984E+01-5.74509E-04-1.15079E-05-1.48077E-03-2.64915E-14 2.70569E-13
 -1      2080 1.99984E+01-7.89311E-04 5.76881E-06-1.95106E-03 6.57502E-15 5.06260E-13
 -1      2081 1.99991E+01-9.51363E-04 3.27823E-06-1.32588E-03-8.06369E-14 5.15727E-13
 -1      2082 1.99999E+01-4.84137E-03 7.73166E-06-2.62004E-03 1.01155E-13-3.62794E-13
 -1      2083 1.99998E+01-4.00539E-03-7.04254E-06-2.63419E-03 4.79441E-14-3.24888E-13
 -1      2084 1.99996E+01-3.35534E-03 2.37226E-06-2.55933E-03 4.50383E-14-6.29582E-14
 -1      2085 1.99994E+01-2.56329E-03-1.42750E-05-2.37889E-03-1.65535E-14 1.08387E-13
 -1      2086 1.99996E+01-3.35098E-03-3.08597E-06-3.24883E-03 1.88582E-14-2.62443E-13
 -1      2087 1.99993E+01-2.08487E-03-1.86253E-06-2.09280E-03-1.60709E-13 5.18007E-14
 -1      2088 1.99992E+01-1.41996E-03-1.54689E-05-1.73269E-03-1.07714E-13 3.35525E-13
 -1      2089 1.99989E+01-1.34986E-03-1.19418E-05-2.08596E-03-9.03869E-14 3.42568E-13
 -1      2090 1.99992E+01-2.25894E-03 5.67276E-07-2.83714E-03-1.41669E-13 1.87207E-13
 -1      2091 2.00001E+01-6.19030E-03 1.39652E-05-2.33670E-03 4.16609E-14-5.19464E-13
 -1      2092 2.00000E+01-5.42799E-03 5.42107E-06-2.49595E-03 7.91050E-14-3.89159E-13
 -1      2093 2.00000E+01-4.57950E-03-7.63992E-06-3.18280E-03 7.54957E-14-4.57259E-13
 -1      2094 2.00003E+01-7.31012E-03 1.96722E-05-1.78561E-03-1.72347E-13-1.16302E-13
 -1      2095 2.00002E+01-6.68959E-03 1.50181E-05-2.05458E-03-5.78293E-14-3.50093E-14
 -1      2096 2.00004E+01-5.66871E-03-1.24650E-05-2.72744E-03 1.13913E-13-3.47611E-13
 -1      2097 2.00004E+01-8.06440E-03 2.37672E-05-1.05656E-03-3.17193E-13-2.64722E-13
 -1      2098 2.00004E+01-7.66615E-03 2.18274E-05-1.39402E-03-2.38943E-13-1.24346E-13
 -1      2099 2.00006E+01-6.52860E-03-1.64631E-05-1.97418E-03-5.25412E-14-1.40398E-13
 -1      2100 2.00005E+01-8.38479E-03 2.58284E-05-2.31351E-04-1.96707E-13-1.63106E-13
 -1      2101 2.00004E+01-8.24901E-03 2.53238E-05-6.01820E-04-1.61002E-13-2.21983E-13
 -1      2102 2.00007E+01-7.07338E-03-1.87318E-05-1.02964E-03-1.66654E-13-1.79208E-13
 -1      2103 2.00004E+01-8.24361E-03 2.53778E-05 6.14146E-04-3.75990E-13-1.20905E-13
 -1      2104 2.00005E+01-8.38355E-03 2.58044E-05 2.43862E-04-2.44513E-13 6.95459E-14
 -1      2105 2.00008E+01-7.25823E-03-1.94367E-05 7.71935E-06-2.09193E-13-3.62224E-14
 -1      2106 2.00004E+01-7.65443E-03 2.20317E-05 1.40530E-03-2.66191E-13-6.85953E-14
 -1      2107 2.00004E+01-8.05673E-03 2.35929E-05 1.06854E-03-3.29760E-13-4.46591E-14
 -1      2108 2.00007E+01-7.06842E-03-1.86042E-05 1.04465E-03-3.25114E-13-7.18024E-15
 -1      2109 2.00002E+01-6.69209E-03 1.49366E-05 2.05427E-03-2.85928E-13 7.21727E-14
 -1      2110 2.00003E+01-7.30390E-03 1.95107E-05 1.79036E-03-2.66557E-13-1.07931E-13
 -1      2111 2.00006E+01-6.52535E-03-1.65099E-05 1.98100E-03-1.04814E-13-1.14190E-13
 -1      2112 2.00000E+01-5.41737E-03 4.80550E-06 2.49766E-03-2.19156E-13 1.52196E-13
 -1      2113 2.00001E+01-6.19273E-03 1.38649E-05 2.33705E-03-3.04917E-13 3.17543E-13
 -1      2114 2.00004E+01-5.67130E-03-1.29168E-05 2.72788E-03-1.66056E-13 2.04992E-13
 -1      2115 1.99997E+01-3.98210E-03-7.37583E-06 2.63412E-03-1.14404E-14 2.45871E-13
 -1      2116 1.99999E+01-4.81886E-03 7.81697E-06 2.62193E-03-4.82447E-14 2.67353E-13
 -1      2117 2.00000E+01-4.57030E-03-6.91051E-06 3.18523E-03-6.75021E-14 3.48189E-13
 -1      2118 1.99994E+01-2.52165E-03-1.04275E-05 2.39207E-03 6.06664E-14 2.33315E-13
 -1      2119 1.99996E+01-3.33312E-03 5.00683E-06 2.55708E-03-2.42572E-14 2.13281E-13
 -1      2120 1.99996E+01-3.33262E-03-7.72657E-07 3.24443E-03 3.16209E-14 2.78512E-13
 -1      2121 1.07129E+01-5.18321E+00-1.56636E-01 6.44550E+00 1.02895E-12 1.24777E-12
 -1      2122 6.97783E+00-6.66019E+00-3.88333E-01 5.25990E+00 8.50320E-13 1.28403E-12
 -1      2123 4.84387E-01-6.30242E+00-2.88992E-01 7.47271E-01 3.46750E-13 1.33660E-12
 -1      2124 2.96916E-01-7.46698E+00-4.62886E-01-9.20697E-01 7.94365E-14 1.37257E-12
 -1      2125 4.37328E+00-6.19852E+00-2.44704E-01 4.64139E+00 7.82374E-13 1.32178E-12
 -1      2126 2.41090E+00-6.13592E+00-2.12917E-01 3.32711E+00 4.36484E-13 1.24367E-12
 -1      2127 2.02381E+01-3.88013E+00-8.67649E-02 6.49471E+00 8.66418E-13 7.90479E-13
 -1      2128 1.48743E+01-5.23356E+00-2.86966E-01 6.14571E+00 1.04061E-12 9.61786E-13
 -1      2129 2.98319E+01 3.94714E-01 2.68296E-01 5.34856E+00 1.29471E-12 7.80487E-13
 -1      2130 2.52810E+01-2.05055E+00-2.85259E-02 5.05373E+00 1.06004E-12 6.59361E-13
 -1      2131 1.95144E+01 4.16781E+00-2.98328E-02-9.22428E-01-2.51079E-13-6.85688E-13
 -1      2132 1.99000E+01 4.08989E+00-1.87061E-02-1.15876E+00-3.19044E-13-6.20455E-13
 -1      2133 2.03406E+01 3.38207E+00-1.40651E-02-1.08892E+00-3.53254E-13-5.30513E-13
 -1      2134 1.95355E+01 3.82917E+00-5.89075E-03-7.26626E-01-2.47033E-13-6.56249E-13
 -1      2135 3.92696E+01 6.18522E+00 2.67855E-01 1.05452E+00 1.35120E-12 5.99520E-14
 -1      2136 3.72616E+01 5.18489E+00 2.24123E-01 2.26270E+00 1.38753E-12 3.28015E-13
 -1      2137 3.94376E+01 7.18983E+00 2.42765E-01-5.10554E-01 1.31384E-12-2.68563E-13
 -1      2138 3.85586E+01 7.25133E+00 1.60654E-01 4.44263E-01 1.38256E-12 3.43059E-14
 -1      2139 3.75339E+01 6.05532E+00 1.35019E-01-1.58175E+00 1.14325E-12-4.99933E-13
 -1      2140 3.95591E+01 6.66418E+00 2.51616E-01-6.96355E-01 1.18605E-12-2.90740E-13
 -1      2141 3.46435E+01 7.98704E+00 2.70482E-01 2.35627E-01 1.30496E-12 6.15896E-14
 -1      2142 3.31320E+01 2.58644E+00 3.67528E-02-3.44744E+00 1.06935E-12-7.55396E-13
 -1      2143 3.68890E+01 4.12060E+00 2.62789E-01-2.68740E+00 1.07073E-12-6.23057E-13
 -1      2144 2.58302E+01-1.21302E+00-1.21053E-01-5.31741E+00 9.53515E-13-9.86322E-13
 -1      2145 3.07599E+01 5.68164E-01 1.72896E-01-5.05828E+00 1.02873E-12-7.87481E-13
 -1      2146 1.74654E+01-4.22156E+00-2.71905E-01-6.19902E+00 7.18425E-13-1.10023E-12
 -1      2147 2.23478E+01-2.14708E+00 7.37076E-02-6.78971E+00 9.15545E-13-1.13698E-12
 -1      2148 9.38415E+00-6.32761E+00-3.55952E-01-5.79164E+00 3.60767E-13-1.17221E-12
 -1      2149 1.35639E+01-4.69110E+00-7.43994E-02-6.92509E+00 5.49449E-13-1.21134E-12
 -1      2150 2.80166E+00-7.49796E+00-4.68477E-01-3.68504E+00 6.92779E-14-1.25489E-12
 -1      2151 5.34689E+00-6.25976E+00-3.05719E-01-5.01911E+00 4.40759E-13-1.28017E-12
 -1      2152 7.11012E-01-6.35825E+00-2.74940E-01-8.46342E-01-2.80640E-13-1.25028E-12
 -1      2153 1.47743E+00-6.65735E+00-3.29926E-01-2.46068E+00 4.85723E-14-1.31284E-12
 -1      2154 2.35564E+00-5.74801E+00-2.01040E-01 3.22095E+00-3.93019E-13-1.22652E-12
 -1      2155 8.05886E-01-6.59307E+00-3.46985E-01 1.26533E+00-2.30982E-13-1.23462E-12
 -1      2156 7.97875E+00-5.94537E+00-2.77044E-01 5.84028E+00-9.94094E-13-1.16088E-12
 -1      2157 5.17775E+00-6.51868E+00-2.88476E-01 4.99743E+00-5.90195E-13-1.06526E-12
 -1      2158 1.62697E+01-4.07160E+00-8.08458E-02 6.99787E+00-1.02940E-12-1.01960E-12
 -1      2159 1.14536E+01-5.87221E+00-3.77477E-01 5.93998E+00-1.02951E-12-1.08948E-12
 -1      2160 1.22314E+01-5.74071E+00-1.02586E-01 6.79112E+00-3.20632E-13-8.89747E-13
 -1      2161 2.59453E+01-1.42287E+00 1.13485E-01 6.16183E+00-1.11439E-12-9.47520E-13
 -1      2162 2.11720E+01-3.47390E+00-1.84045E-01 5.81270E+00-1.00464E-12-8.57647E-13
 -1      2163 3.28318E+01 1.34201E+00 1.25974E-01 3.82817E+00-1.15802E-12-5.45841E-13
 -1      2164 2.86575E+01-1.47381E-01-3.04425E-02 4.71606E+00-1.21539E-12-7.84039E-13
 -1      2165 2.84772E+01-2.46076E+00 1.30346E-01 3.49428E+00-6.67022E-13-1.99618E-13
 -1      2166 3.85701E+01 5.21362E+00 3.62134E-01 1.96884E+00-1.26546E-12-3.80140E-13
 -1      2167 3.48104E+01 3.84667E+00 5.26547E-02 2.26181E+00-1.31092E-12-4.97491E-13
 -1      2168 4.02567E+01 7.06207E+00 3.40609E-01 4.18690E-01-1.30168E-12-2.53131E-14
 -1      2169 3.92298E+01 6.35145E+00 2.43209E-01 1.52244E+00-1.30301E-12-3.38007E-13
 -1      2170 3.51702E+01 6.21741E+00 2.68445E-01-3.39564E-01-1.28819E-12 1.50713E-14
 -1      2171 4.06960E+01 6.70771E+00 3.96801E-01-1.32555E+00-1.33404E-12 4.83058E-13
 -1      2172 4.11278E+01 7.14118E+00 3.66525E-01 1.28408E-03-1.31750E-12 7.82638E-14
 -1      2173 3.65747E+01 4.47389E+00 1.97679E-01-2.95099E+00-1.30715E-12 7.99472E-13
 -1      2174 3.97240E+01 5.52735E+00 4.15745E-01-2.00813E+00-1.29002E-12 5.10203E-13
 -1      2175 3.02347E+01 9.43649E-01-3.85000E-03-4.46289E+00-1.05485E-12 1.01497E-12
 -1      2176 3.47123E+01 2.61165E+00 3.13213E-01-4.05505E+00-1.14557E-12 8.87179E-13
 -1      2177 2.23980E+01-2.60631E+00-1.67540E-01-5.64578E+00-6.44373E-13 1.06226E-12
 -1      2178 2.74016E+01-4.42256E-01 1.81361E-01-6.01124E+00-8.90177E-13 1.15130E-12
 -1      2179 1.34303E+01-5.49669E+00-3.19132E-01-6.03977E+00-4.93383E-13 1.06773E-12
 -1      2180 1.82944E+01-3.83611E+00-2.47377E-02-6.83595E+00-5.36793E-13 1.10656E-12
 -1      2181 5.85261E+00-7.04528E+00-4.62966E-01-4.80202E+00-2.78888E-13 1.15896E-12
 -1      2182 9.29623E+00-5.45060E+00-2.11551E-01-6.05661E+00-5.59885E-13 1.31168E-12
 -1      2183 1.08159E+00-7.73312E+00-4.78739E-01-2.23640E+00 1.01474E-13 1.20048E-12
 -1      2184 2.75026E+00-6.85565E+00-3.69953E-01-3.67840E+00-2.53353E-13 1.10750E-12
 -1      2185 1.85316E+00-5.02814E+00-2.36487E-01-2.07098E+00 2.27457E-13 1.43546E-12
 -1      2186 3.56787E+01 3.25587E+00 2.80161E-01 3.41189E+00 1.33790E-12 4.03344E-13
 -1      2187 3.18197E+01 1.78203E+00 4.51137E-02 4.15073E+00 1.39609E-12 6.72351E-13
 -1      2188 3.09046E+01-3.55043E-01 1.12344E-01 2.34144E+00 9.90999E-13 5.36238E-14
 -1      2189 2.38090E+01-3.80757E+00 1.04524E-02 5.27007E+00 6.96998E-13 5.50671E-13
 -1      2190 2.26065E+01-5.07161E+00 1.39937E-01 5.43121E+00 2.68563E-13 2.85258E-13
 -1      2191 2.65530E+01-4.02708E+00-1.53008E-01 3.61207E+00 4.73149E-13 3.79141E-14
 -1      2192 2.21307E+01 1.09586E+00-1.73520E-02-9.93249E-01-4.58890E-13 1.21236E-13
 -1      2193 3.45988E+01 3.84958E+00 2.56425E-01 6.06128E-01 1.29660E-12-8.01581E-14
 -1      2194 2.18820E+01 1.33765E+00-2.27202E-02-9.16087E-01-4.71328E-13-7.38715E-14
 -1      2195 7.74427E+00-5.37399E+00-1.48203E-01 5.95147E+00 2.77223E-13 1.24767E-12
 -1      2196 2.44924E+00-4.97833E+00-1.19750E-01 2.29686E+00 2.52520E-13 1.27803E-12
 -1      2197 2.96665E+00-3.02315E+00 6.57990E-02 1.27426E+00 9.38416E-14 1.35270E-12
 -1      2198 4.72607E+00-3.34375E+00 2.27522E-03 3.76752E+00-3.87190E-14 1.30390E-12
 -1      2199 1.99992E+01-2.00716E-03-1.19857E-05 2.33927E-03 1.83319E-13 3.36811E-13
 -1      2200 1.52050E+01-5.60333E+00-1.04457E-02 6.80914E+00 4.06064E-13 7.57516E-13
 -1      2201 6.02159E+00-5.68811E+00-1.98420E-01-5.31782E+00 9.05387E-14 1.19507E-12
 -1      2202 1.38913E+01-5.70284E+00-3.94492E-02-6.79327E+00-5.87308E-14 9.63804E-13
 -1      2203 2.23689E+01-4.68823E+00-2.20824E-02-5.63041E+00-9.26481E-14 6.82343E-13
 -1      2204 2.97275E+01-1.26134E+00 1.52236E-01-3.16908E+00-4.80754E-13 5.12979E-13
 -1      2205 3.42324E+01 2.93717E+00 2.64255E-01-9.22457E-01-1.01635E-12 3.05422E-13
 -1      2206 3.67643E+01 7.99675E+00 3.47445E-01-4.64501E-02-1.43824E-12 5.01960E-14
 -1      2207 3.30423E+01 1.80286E+00 1.57110E-01 9.57330E-01-9.91388E-13-1.05471E-15
 -1      2208 2.10179E+01-4.95584E+00 1.54696E-02 6.13585E+00-4.52083E-13-5.48728E-13
 -1      2209 4.92220E+00-5.27023E+00-1.23667E-01 4.52665E+00-2.25875E-13-1.14500E-12
 -1      2210 5.15552E+00-3.23882E+00 1.03897E-01 4.10610E+00 8.37386E-14-1.13093E-12
 -1      2211 7.69931E+00-4.38980E+00-7.29464E-02 5.89926E+00 6.58085E-14-9.44578E-13
 -1      2212 2.28653E+00-3.94903E+00-9.28527E-02 1.97964E-01-9.50628E-14-1.38289E-12
 -1      2213 3.73846E+00-4.91514E+00-1.85166E-01-3.90422E+00-1.38528E-13-1.38439E-12
 -1      2214 9.61303E+00-5.61746E+00-9.83011E-02-6.54708E+00-4.84057E-14-1.18211E-12
 -1      2215 1.80276E+01-5.54171E+00-6.25253E-02-6.66010E+00 3.63043E-14-8.60159E-13
 -1      2216 2.60578E+01-3.39985E+00 1.01730E-01-4.74394E+00 3.96183E-13-5.17142E-13
 -1      2217 3.46638E+01 5.13032E+00 2.41035E-01 5.33713E-02 1.03850E-12-4.17999E-14
 -1      2218 3.53079E+01 7.34427E+00 2.49307E-01-2.24523E-01 1.44884E-12-6.02296E-14
 -1      2219 3.18289E+01 3.89419E-01 1.99852E-01-1.91925E+00 7.33337E-13-2.62401E-13
 -1      2220 3.68186E+01 6.68102E+00 3.73771E-01 1.38888E-03-1.35708E-12 1.43996E-13
 -1      2221 2.17338E+01 5.40155E-01 5.95784E-03-7.50292E-02 3.73578E-13 5.44619E-13
 -1      2222 2.18354E+01 7.28435E-01 2.07258E-02 2.35180E-01 4.31710E-13 6.18356E-13
 -1      2223 1.82697E+01 4.08090E+00-1.12788E-02-1.13017E-01 2.72664E-14-6.66924E-13
 -1      2224 1.84959E+01 4.00388E+00-4.48360E-03-1.89519E-01-4.09194E-14-6.79335E-13
 -1      2225 1.87665E+01 3.83642E+00-1.43364E-02-2.44321E-01-9.23379E-14-6.76574E-13
 -1      2226 1.90859E+01 3.71361E+00-6.40282E-03-3.58106E-01-1.61969E-13-6.64102E-13
 -1      2227 1.87179E+01 3.61329E+00 2.36470E-03-9.90881E-02-5.96996E-14-6.29924E-13
 -1      2228 1.79443E+01 4.24191E+00-5.87761E-03 4.95733E-03 2.34426E-13-6.16208E-13
 -1      2229 1.79350E+01 4.24609E+00-6.47671E-03-3.90645E-02 1.72565E-13-6.41002E-13
 -1      2230 1.81435E+01 4.15396E+00-4.33501E-03 6.63547E-02 3.30214E-13-5.97041E-13
 -1      2231 1.80135E+01 4.19761E+00-8.92039E-03 1.02608E-02 2.76509E-13-6.11762E-13
 -1      2232 1.80267E+01 3.97004E+00 3.30743E-03-2.27450E-02 2.39992E-13-5.62306E-13
 -1      2233 1.85533E+01 3.96211E+00-4.36888E-03 1.78000E-01 4.07187E-13-5.29075E-13
 -1      2234 1.83220E+01 4.04297E+00-1.16127E-02 9.49130E-02 3.59519E-13-5.83029E-13
 -1      2235 1.82963E+01 3.82458E+00 2.56141E-03 2.28672E-03 3.33306E-13-5.46657E-13
 -1      2236 1.91486E+01 3.66244E+00-6.77683E-03 3.65856E-01 4.96382E-13-3.89051E-13
 -1      2237 1.88283E+01 3.78824E+00-1.46144E-02 2.43642E-01 4.34095E-13-4.61305E-13
 -1      2238 1.87836E+01 3.55860E+00 1.48584E-03 8.79712E-02 4.01674E-13-4.61960E-13
 -1      2239 1.98837E+01 3.24206E+00-1.27309E-02 6.29321E-01 5.58634E-13-2.10752E-13
 -1      2240 1.94990E+01 3.42812E+00-1.77358E-02 4.68996E-01 5.12479E-13-3.15357E-13
 -1      2241 1.94491E+01 3.17652E+00 1.38436E-03 2.46048E-01 4.76352E-13-3.22369E-13
 -1      2242 2.07236E+01 2.65729E+00-2.38542E-02 9.30661E-01 6.08322E-13 4.27419E-14
 -1      2243 2.02912E+01 2.94008E+00-2.02250E-02 7.52505E-01 5.71950E-13-9.45528E-14
 -1      2244 2.02382E+01 2.67288E+00 4.43274E-03 4.55524E-01 5.26291E-13-1.19712E-13
 -1      2245 2.17575E+01 2.82008E-01 4.73902E-03-5.03722E-01 2.71543E-13 4.37492E-13
 -1      2246 2.17368E+01 3.98051E-01 2.04350E-02-3.36139E-01 3.09181E-13 5.02175E-13
 -1      2247 2.15679E+01 6.74736E-01-6.16941E-03-1.89115E-01 3.89383E-13 3.09858E-13
 -1      2248 2.16624E+01 9.33083E-01 1.50559E-02-1.16272E-01-3.43466E-13-1.30185E-13
 -1      2249 2.15966E+01 7.08986E-01-9.02545E-04 2.25446E-01-2.98863E-13-1.34962E-13
 -1      2250 3.28657E+01 4.08829E+00-1.37750E-01-7.68477E-01 1.27898E-12-2.59043E-13
 -1      2251 3.19495E+01 2.06173E+00-5.02641E-02-1.96537E-01 1.12055E-12-2.09111E-13
 -1      2252 2.16322E+01 5.41775E-01 1.73393E-02 4.90130E-01-2.57899E-13-1.03578E-13
 -1      2253 2.16603E+01 3.90105E-01 8.98218E-04 6.84926E-01-1.94463E-13-1.14592E-13
 -1      2254 2.13689E+01 8.46621E-01-5.72049E-03 3.60843E-01-2.81795E-13-1.94756E-13
 -1      2255 2.17380E+01 2.60805E-01 1.34314E-02 8.51707E-01-1.58923E-13-9.60519E-14
 -1      2256 2.18428E+01 1.19616E-01-2.05313E-03 9.39602E-01-1.37245E-13-1.15903E-13
 -1      2257 2.14438E+01 4.43892E-01-8.20926E-03 8.30682E-01-1.90739E-13-1.70723E-13
 -1      2258 2.19911E+01-1.80447E-02 1.14827E-02 1.00579E+00-8.73007E-14-9.12484E-14
 -1      2259 2.21438E+01-1.81495E-01-7.18779E-03 9.87578E-01-4.38591E-14-5.91438E-14
 -1      2260 2.16402E+01 7.53133E-02-1.00262E-02 1.09387E+00-1.03502E-13-1.42338E-13
 -1      2261 2.23759E+01-3.46234E-01 1.14695E-02 9.36527E-01-2.57990E-14-5.20003E-14
 -1      2262 2.25446E+01-5.39351E-01-1.37776E-02 7.97800E-01-2.22890E-14-3.98718E-14
 -1      2263 2.19847E+01-3.41567E-01-1.19304E-02 1.13470E+00-2.85964E-14-1.02059E-13
 -1      2264 2.28611E+01-7.21668E-01 1.15309E-02 6.02334E-01-5.30236E-14 1.80355E-14
 -1      2265 2.30084E+01-9.12900E-01-1.98672E-02 3.33105E-01-5.24658E-14 2.71947E-14
 -1      2266 2.24901E+01-8.23052E-01-1.32569E-02 9.10079E-01-2.05312E-14-5.01564E-14
 -1      2267 2.33768E+01-1.05835E+00 8.32758E-03-2.38155E-02-1.30065E-14 2.83410E-14
 -1      2268 2.34580E+01-1.15754E+00-2.05589E-02-3.99440E-01-1.75342E-14 3.37220E-14
 -1      2269 2.31365E+01-1.28557E+00-1.10342E-02 3.69801E-01-4.03176E-14 9.62338E-16
 -1      2270 2.37846E+01-1.15509E+00-1.64765E-03-8.78210E-01-1.13806E-13 6.20870E-14
 -1      2271 2.37580E+01-1.02354E+00-1.02245E-02-1.26226E+00-2.15956E-13 4.57102E-14
 -1      2272 2.38235E+01-1.50303E+00-1.56075E-03-4.80645E-01-8.32752E-14 2.53636E-14
 -1      2273 2.38916E+01-7.45844E-01-2.28790E-02-1.70242E+00-2.58759E-13 1.16329E-13
 -1      2274 2.37527E+01-2.86378E-01 8.94939E-03-1.90655E+00-2.74689E-13 1.07942E-13
 -1      2275 2.43349E+01-1.13574E+00 1.23086E-02-1.46558E+00-2.07235E-13 1.50113E-13
 -1      2276 2.36008E+01 2.76644E-01-4.41134E-02-2.01232E+00-2.96965E-13 7.43147E-14
 -1      2277 2.34123E+01 9.28473E-01 2.02730E-02-1.83040E+00-3.11078E-13 2.80262E-14
 -1      2278 2.44158E+01 2.83003E-03 6.05390E-03-2.11483E+00-3.34666E-13 2.16450E-13
 -1      2279 2.31208E+01 1.50933E+00-4.27464E-02-1.36827E+00-3.41682E-13-1.07229E-13
 -1      2280 2.30107E+01 1.93999E+00 5.95875E-03-7.74069E-01-3.43964E-13-1.68258E-13
 -1      2281 2.40700E+01 1.57995E+00-1.74722E-02-1.81048E+00-4.33875E-13 1.28965E-13
 -1      2282 2.29219E+01 2.10233E+00-1.29486E-02 8.95104E-02-3.31051E-13-3.70484E-13
 -1      2283 2.29757E+01 1.96843E+00-2.76325E-02 8.00498E-01-3.78423E-13-4.30355E-13
 -1      2284 2.37398E+01 2.59383E+00-4.24320E-02-4.00675E-01-4.68851E-13-1.73458E-13
 -1      2285 2.32072E+01 1.57196E+00 1.57818E-02 1.53693E+00-4.27700E-13-5.29255E-13
 -1      2286 2.33981E+01 9.82643E-01-4.67047E-02 1.96351E+00-3.65187E-13-5.72849E-13
 -1      2287 2.38698E+01 2.27691E+00-3.40740E-02 1.33742E+00-4.55795E-13-4.87137E-13
 -1      2288 2.36741E+01 3.59498E-01 1.74332E-02 2.15900E+00-2.81069E-13-6.55359E-13
 -1      2289 2.38806E+01-2.42052E-01-3.52249E-02 2.14964E+00-1.87094E-13-6.28597E-13
 -1      2290 2.43062E+01 8.77518E-01-3.44038E-03 2.28966E+00-3.70315E-13-5.78714E-13
 -1      2291 2.39149E+01-6.93880E-01-1.02750E-03 1.85362E+00-1.42894E-13-6.09408E-13
 -1      2292 2.40324E+01-1.00670E+00-1.27004E-02 1.53956E+00-1.92845E-14-5.90353E-13
 -1      2293 2.45115E+01-5.92235E-01 1.34159E-02 2.09852E+00-1.75494E-13-5.99365E-13
 -1      2294 2.37991E+01-1.15209E+00-1.74267E-02 1.04781E+00 9.62902E-14-5.61708E-13
 -1      2295 2.37936E+01-1.16724E+00 3.20500E-03 6.44670E-01 1.41160E-13-4.74461E-13
 -1      2296 2.42318E+01-1.39970E+00 5.61380E-03 1.21625E+00 4.21726E-14-4.21260E-13
 -1      2297 2.34328E+01-1.09315E+00-2.17792E-02 1.99186E-01 9.27288E-14-3.87834E-13
 -1      2298 2.33282E+01-9.47054E-01 9.46397E-03-1.46265E-01 9.28888E-14-3.31832E-13
 -1      2299 2.36167E+01-1.47460E+00-5.31577E-03 2.36005E-01 1.57573E-13-3.62929E-13
 -1      2300 2.29681E+01-7.86881E-01-1.79071E-02-4.51123E-01 9.05500E-14-2.97356E-13
 -1      2301 2.28041E+01-6.04194E-01 9.30337E-03-6.83967E-01 1.57991E-13-2.91428E-13
 -1      2302 2.29219E+01-1.13554E+00-1.02879E-02-5.18203E-01 1.19097E-13-1.75974E-13
 -1      2303 2.25032E+01-4.45511E-01-1.15530E-02-8.47913E-01 2.46921E-13-3.16647E-13
 -1      2304 2.23133E+01-2.91820E-01 6.82949E-03-9.70277E-01 2.79454E-13-2.89137E-13
 -1      2305 2.23033E+01-6.90918E-01-1.01879E-02-9.76189E-01 2.18919E-13-1.28352E-13
 -1      2306 2.20813E+01-1.71643E-01-5.63963E-03-1.02766E+00 1.88170E-13-2.99330E-13
 -1      2307 2.18875E+01-6.62736E-02 4.31970E-03-1.06578E+00 1.69491E-13-2.30478E-13
 -1      2308 2.18085E+01-3.07849E-01-7.66775E-03-1.18410E+00 2.28820E-13-3.13585E-13
 -1      2309 2.17125E+01 1.05525E-02-1.29822E-03-1.05452E+00 8.34932E-14-2.38117E-13
 -1      2310 2.15276E+01 7.19950E-02 2.44945E-03-1.03795E+00 3.62991E-14-1.98852E-13
 -1      2311 2.14275E+01-4.03482E-02-5.13301E-03-1.21854E+00 1.34091E-13-2.98664E-13
 -1      2312 2.13942E+01 1.13830E-01 1.45923E-03-9.87988E-01 3.73063E-14-2.14771E-13
 -1      2313 2.12257E+01 1.43079E-01 1.27302E-03-9.41014E-01 4.06738E-14-2.12423E-13
 -1      2314 2.11332E+01 1.19121E-01-3.35402E-03-1.14740E+00-2.91455E-14-2.98038E-13
 -1      2315 2.11217E+01 1.60850E-01 2.97446E-03-8.73124E-01 5.74627E-18-3.00300E-13
 -1      2316 2.09732E+01 1.69378E-01 6.17049E-04-8.12910E-01 2.23513E-14-2.59520E-13
 -1      2317 2.09014E+01 1.97943E-01-2.29450E-03-1.02073E+00 6.23115E-15-3.45252E-13
 -1      2318 2.08904E+01 1.72364E-01 3.61905E-03-7.40303E-01 1.94470E-14-2.29603E-13
 -1      2319 2.07632E+01 1.68947E-01 2.88445E-04-6.77706E-01 6.70062E-14-2.44112E-13
 -1      2320 2.07149E+01 2.23972E-01-1.71887E-03-8.72084E-01 1.76104E-14-2.85897E-13
 -1      2321 2.06963E+01 1.63794E-01 3.70600E-03-6.08108E-01 1.13611E-13-2.65695E-13
 -1      2322 2.05900E+01 1.54356E-01 1.42806E-04-5.49306E-01 8.73318E-14-1.39096E-13
 -1      2323 2.05629E+01 2.18968E-01-1.41166E-03-7.22303E-01 7.15528E-14-2.91558E-13
 -1      2324 2.05359E+01 1.45374E-01 3.46931E-03-4.86742E-01 6.14255E-15-1.89252E-13
 -1      2325 2.04490E+01 1.33592E-01 8.87771E-05-4.34763E-01 2.87573E-14-1.51481E-13
 -1      2326 2.04384E+01 1.97868E-01-1.22991E-03-5.83186E-01 3.56177E-14-3.16365E-13
 -1      2327 2.04053E+01 1.23370E-01 3.06995E-03-3.80902E-01 9.11044E-14-1.95287E-13
 -1      2328 2.03358E+01 1.11358E-01 7.48244E-05-3.36819E-01 5.53351E-14-2.25044E-13
 -1      2329 2.03369E+01 1.70077E-01-1.09557E-03-4.60520E-01 4.66716E-14-4.15161E-13
 -1      2330 2.03008E+01 1.01341E-01 2.61129E-03-2.91911E-01 1.90571E-14-2.42140E-13
 -1      2331 2.02462E+01 9.02108E-02 7.47089E-05-2.55662E-01-3.72396E-15-1.87404E-13
 -1      2332 2.02549E+01 1.41098E-01-9.73528E-04-3.56288E-01 1.56672E-14-3.14231E-13
 -1      2333 2.02186E+01 8.11283E-02 2.15515E-03-2.19165E-01-3.72098E-14-1.25975E-13
 -1      2334 2.01765E+01 7.13809E-02 7.66201E-05-1.90092E-01 4.54703E-14-4.85983E-14
 -1      2335 2.01895E+01 1.13890E-01-8.52448E-04-2.70217E-01 3.20306E-14-1.58122E-13
 -1      2336 2.01550E+01 6.35339E-02 1.73531E-03-1.61073E-01 7.32184E-14-4.18809E-14
 -1      2337 2.01232E+01 5.53174E-02 7.62554E-05-1.38253E-01 7.10786E-14 7.63374E-14
 -1      2338 2.01380E+01 8.98465E-02-7.32042E-04-2.00809E-01 5.79046E-14-1.00917E-13
 -1      2339 2.01067E+01 4.87643E-02 1.36747E-03-1.15634E-01-5.65772E-14 1.42924E-13
 -1      2340 2.00832E+01 4.20336E-02 7.28324E-05-9.80723E-02-1.33277E-13 9.12480E-14
 -1      2341 2.00982E+01 6.94380E-02-6.15861E-04-1.45989E-01 4.90078E-15-1.06936E-13
 -1      2342 2.00708E+01 3.67030E-02 1.05635E-03-8.07727E-02-9.31876E-14 3.48993E-14
 -1      2343 2.00538E+01 3.13169E-02 6.69695E-05-6.75173E-02-8.08432E-14 9.19117E-14
 -1      2344 2.00679E+01 5.26238E-02-5.07792E-04-1.03521E-01-8.80816E-14 9.51328E-15
 -1      2345 2.00446E+01 2.70754E-02 8.00282E-04-5.45353E-02-1.85217E-13 2.04936E-13
 -1      2346 2.00326E+01 2.28532E-02 5.96509E-05-4.47263E-02-2.27415E-13 1.52489E-13
 -1      2347 2.00453E+01 3.91004E-02-4.10682E-04-7.12334E-02-1.13178E-13 8.84782E-14
 -1      2348 2.00260E+01 1.95448E-02 5.94276E-04-3.51765E-02-1.68965E-13 2.68778E-13
 -1      2349 2.00178E+01 1.62983E-02 5.17790E-05-2.80706E-02-2.07094E-14 3.88003E-13
 -1      2350 2.00288E+01 2.84489E-02-3.26034E-04-4.71527E-02-1.34590E-13 4.64284E-13
 -1      2351 2.00132E+01 1.37663E-02 4.31855E-04-2.11971E-02-4.77269E-14 3.48390E-13
 -1      2352 2.00078E+01 1.13176E-02 4.40187E-05-1.61712E-02 1.80877E-14 2.53323E-13
 -1      2353 2.00170E+01 2.02209E-02-2.54172E-04-2.95547E-02 2.39468E-14 5.47510E-13
 -1      2354 2.00046E+01 9.41651E-03 3.06200E-04-1.13457E-02 5.60056E-14 1.38036E-13
 -1      2355 2.00013E+01 7.60580E-03 3.67767E-05-7.89044E-03 1.28108E-15 1.03084E-13
 -1      2356 2.00089E+01 1.39850E-02-1.94555E-04-1.69817E-02-7.34436E-14 2.65026E-13
 -1      2357 1.99993E+01 6.20643E-03 2.10785E-04-4.60312E-03 8.47581E-14-7.14876E-15
 -1      2358 1.99974E+01 4.89551E-03 3.02302E-05-2.31104E-03 5.65447E-14-1.19539E-14
 -1      2359 2.00034E+01 9.35004E-03-1.46094E-04-8.23204E-03-2.17080E-14-2.06795E-14
 -1      2360 1.99962E+01 3.88663E-03 1.39718E-04-1.56842E-04-5.89898E-14 2.31133E-14
 -1      2361 1.99953E+01 2.95859E-03 2.43681E-05 1.29085E-03-9.42265E-14 1.30667E-13
 -1      2362 2.00000E+01 5.97452E-03-1.07413E-04-2.33724E-03 4.08467E-14 1.61265E-13
 -1      2363 1.99947E+01 2.24638E-03 8.78871E-05 2.62659E-03-7.34241E-14 1.90475E-13
 -1      2364 1.99945E+01 1.60381E-03 1.90288E-05 3.47340E-03-6.58492E-16 2.04659E-13
 -1      2365 1.99980E+01 3.56789E-03-7.70470E-05 1.46617E-03 4.29429E-15 2.57482E-13
 -1      2366 1.99943E+01 1.10998E-03 5.09995E-05 4.22902E-03-3.40983E-14 3.09500E-13
 -1      2367 1.99945E+01 6.72177E-04 1.39347E-05 4.65540E-03 6.72138E-15 3.44349E-13
 -1      2368 1.99970E+01 1.88673E-03-5.35831E-05 3.76615E-03-4.30812E-14 3.27000E-13
 -1      2369 1.99945E+01 3.31353E-04 2.55651E-05 5.00551E-03 2.27948E-13 3.44147E-13
 -1      2370 1.99950E+01 3.10336E-05 8.72629E-06 5.13939E-03 2.60994E-13 3.77265E-13
 -1      2371 1.99967E+01 7.28508E-04-3.57668E-05 5.00299E-03 1.22801E-13 5.08771E-13
 -1      2372 1.99952E+01-2.11952E-04 8.86841E-06 5.20551E-03 3.69348E-16 3.71305E-13
 -1      2373 1.99958E+01-4.31136E-04 3.30419E-06 5.13096E-03-5.66338E-14 4.04960E-13
 -1      2374 1.99969E+01-7.61924E-05-2.25332E-05 5.49396E-03 1.48996E-13 4.26330E-13
 -1      2375 1.99961E+01-6.25845E-04-2.29218E-06 4.99238E-03-7.80752E-14 4.42989E-13
 -1      2376 1.99968E+01-8.09420E-04-1.96065E-06 4.75593E-03-8.46970E-14 3.95077E-13
 -1      2377 1.99972E+01-6.67129E-04-1.28081E-05 5.45479E-03-4.00503E-14 6.22594E-13
 -1      2378 1.99970E+01-9.94424E-04-7.96246E-06 4.45693E-03-1.03897E-13 4.23566E-13
 -1      2379 1.99977E+01-1.17647E-03-8.38206E-06 4.08047E-03 5.65694E-14 3.31579E-13
 -1      2380 1.99978E+01-1.17002E-03-5.54216E-06 5.01838E-03-1.34460E-13 6.32046E-13
 -1      2381 2.21920E+01-1.21542E-01-6.33454E-03-7.48244E-01 9.30157E-14 3.37108E-13
 -1      2382 2.20488E+01-1.19010E-02 8.79007E-03-7.69699E-01 1.21950E-13 3.81781E-13
 -1      2383 2.25106E+01-3.55632E-01-1.26293E-02-5.67336E-01 9.18831E-14 3.18961E-13
 -1      2384 2.23746E+01-2.31099E-01 6.34187E-03-6.88366E-01 8.34064E-14 3.31985E-13
 -1      2385 2.20864E+01-2.46076E-01-7.73126E-03-8.60376E-01 1.18204E-13 1.98213E-13
 -1      2386 2.28168E+01-5.92546E-01-1.76421E-02-1.61218E-01 7.32574E-14 3.57035E-13
 -1      2387 2.27330E+01-4.73333E-01 4.35194E-03-3.85365E-01 6.47152E-14 3.28217E-13
 -1      2388 2.24761E+01-5.74901E-01-6.45966E-03-6.23477E-01 7.60093E-14 2.01521E-13
 -1      2389 2.30316E+01-7.44325E-01-1.78925E-02 4.46589E-01 9.01102E-15 4.24154E-13
 -1      2390 2.30418E+01-6.84834E-01 8.56108E-04 1.44214E-01 3.07120E-14 4.11093E-13
 -1      2391 2.29126E+01-8.78690E-01-3.01691E-03-1.25235E-01 1.20990E-14 2.56407E-13
 -1      2392 2.30620E+01-6.64907E-01-9.36408E-03 1.13092E+00-6.93920E-14 4.83974E-13
 -1      2393 2.31906E+01-7.44820E-01-5.73260E-03 8.29819E-01-2.47714E-14 4.68365E-13
 -1      2394 2.33018E+01-1.01304E+00 3.92772E-03 5.98081E-01-2.44444E-14 3.62576E-13
 -1      2395 2.28396E+01-2.30964E-01 7.20495E-03 1.62433E+00 1.17505E-13 4.50280E-13
 -1      2396 2.30698E+01-5.00369E-01-1.46956E-02 1.46266E+00-8.42338E-15 4.75648E-13
 -1      2397 2.34979E+01-7.77309E-01 1.20191E-02 1.37541E+00 6.95808E-15 4.06933E-13
 -1      2398 2.24072E+01 4.94569E-01 2.08047E-02 1.58413E+00 2.68131E-13 2.93627E-13
 -1      2399 2.26624E+01 1.04932E-01-2.11848E-02 1.70328E+00 2.10095E-13 3.99667E-13
 -1      2400 2.33736E+01-6.20822E-02 1.22031E-02 1.85712E+00 2.10474E-13 3.29537E-13
 -1      2401 2.19850E+01 1.16193E+00 1.70692E-02 8.32725E-01 3.71828E-13 2.31188E-13
 -1      2402 2.21506E+01 8.64896E-01-1.75481E-02 1.25885E+00 2.98057E-13 2.70051E-13
 -1      2403 2.29789E+01 9.33448E-01-5.32552E-03 1.63894E+00 3.07494E-13 2.37285E-13
 -1      2404 2.18903E+01 1.31456E+00-1.19809E-03-3.79823E-01 3.71279E-13 1.24505E-13
 -1      2405 2.18743E+01 1.32545E+00 1.92810E-03 1.78759E-01 4.11133E-13 1.80452E-13
 -1      2406 2.26238E+01 1.67543E+00-2.58104E-02 5.91842E-01 4.21774E-13 1.46530E-13
 -1      2407 2.22377E+01 8.42980E-01-1.82856E-02-1.44143E+00 2.97717E-13-6.24778E-14
 -1      2408 2.20388E+01 1.14693E+00 1.90457E-02-1.02520E+00 3.71017E-13 4.90259E-14
 -1      2409 2.26539E+01 1.66589E+00-2.22750E-02-8.21916E-01 4.23026E-13-3.77302E-17
 -1      2410 2.28106E+01 8.28904E-02-2.05413E-02-1.86422E+00 1.28514E-13-2.57227E-13
 -1      2411 2.25183E+01 4.69918E-01 1.97646E-02-1.75686E+00 2.22013E-13-1.59010E-13
 -1      2412 2.30551E+01 9.05861E-01-3.54474E-03-1.84068E+00 3.39722E-13-2.10402E-13
 -1      2413 2.32622E+01-5.08902E-01-1.18976E-02-1.60481E+00 1.21012E-13-3.88610E-13
 -1      2414 2.29973E+01-2.51419E-01 5.43318E-03-1.76988E+00 1.21263E-13-3.05774E-13
 -1      2415 2.34834E+01-9.35729E-02 1.21711E-02-2.03137E+00 1.92251E-13-3.61139E-13
 -1      2416 2.34177E+01-7.44349E-01-2.91645E-03-9.63697E-01 2.00022E-14-3.41302E-13
 -1      2417 2.32581E+01-6.72117E-01-1.01448E-02-1.26139E+00 5.76561E-14-3.35694E-13
 -1      2418 2.36261E+01-7.93358E-01 1.29919E-02-1.52753E+00 9.05291E-14-3.80353E-13
 -1      2419 2.32946E+01-6.86985E-01 2.03843E-03-2.70600E-01 3.48679E-16-3.81007E-13
 -1      2420 2.32601E+01-7.45007E-01-1.80166E-02-5.69022E-01-4.09048E-15-3.48726E-13
 -1      2421 2.34449E+01-1.02080E+00 4.93325E-03-7.38779E-01 1.75415E-14-3.77529E-13
 -1      2422 2.29962E+01-4.91828E-01 3.23484E-03 2.78798E-01-1.23786E-13-3.15403E-13
 -1      2423 2.30672E+01-6.00497E-01-1.78042E-02 5.07016E-02-4.02031E-14-3.20931E-13
 -1      2424 2.30636E+01-8.93262E-01-2.01408E-03-1.25893E-04-4.22900E-14-3.11973E-13
 -1      2425 2.26192E+01-2.79287E-01 2.85327E-03 6.26681E-01-1.01296E-13-2.75355E-13
 -1      2426 2.27610E+01-3.84943E-01-1.33242E-02 4.86823E-01-1.06259E-13-3.04414E-13
 -1      2427 2.26174E+01-6.14701E-01-4.87547E-03 5.33996E-01-1.07271E-13-9.84899E-14
 -1      2428 2.22259E+01-1.08704E-01 2.08774E-03 7.94556E-01 1.20139E-13-2.25890E-13
 -1      2429 2.24054E+01-1.88564E-01-7.86893E-03 7.30946E-01-2.62767E-15-2.79570E-13
 -1      2430 2.21864E+01-3.32464E-01-4.88852E-03 8.43272E-01-5.21480E-14-2.78565E-13
 -1      2431 2.18501E+01 5.68908E-03 1.46601E-03 8.31702E-01 4.57521E-14-5.45277E-14
 -1      2432 2.20415E+01-4.53777E-02-3.24294E-03 8.22422E-01 1.50191E-13-1.42947E-13
 -1      2433 2.18019E+01-1.13558E-01-3.92360E-03 9.70081E-01 4.42348E-14-2.10010E-13
 -1      2434 2.15082E+01 7.12364E-02 1.08367E-03 7.87090E-01-2.44046E-13-1.14007E-13
 -1      2435 2.16940E+01 4.35710E-02 2.84943E-05 8.11062E-01-8.34836E-14-8.27260E-14
 -1      2436 2.14696E+01 2.96314E-02-2.96300E-03 9.71469E-01-1.18832E-14-1.64100E-13
 -1      2437 2.12073E+01 1.01529E-01 8.79562E-04 6.99025E-01-1.84099E-13-6.32755E-14
 -1      2438 2.13769E+01 9.00901E-02 2.02587E-03 7.40019E-01-2.66053E-13-6.38390E-14
 -1      2439 2.11860E+01 1.09418E-01-2.28948E-03 8.97772E-01-2.23281E-13-2.13483E-13
 -1      2440 2.09493E+01 1.09290E-01 7.73430E-04 5.93765E-01-3.81203E-14-1.43322E-13
 -1      2441 2.10975E+01 1.07889E-01 3.03990E-03 6.40827E-01-7.51897E-14-1.39792E-13
 -1      2442 2.09458E+01 1.44352E-01-1.87470E-03 7.86451E-01-8.59642E-14-3.26809E-13
 -1      2443 2.07331E+01 1.04134E-01 7.06460E-04 4.87571E-01-1.15375E-13 2.87347E-14
 -1      2444 2.08582E+01 1.08276E-01 3.38055E-03 5.34056E-01-8.00036E-14-5.04556E-14
 -1      2445 2.07443E+01 1.51045E-01-1.61870E-03 6.62548E-01-1.22734E-13-2.83943E-13
 -1      2446 2.05558E+01 9.25424E-02 6.47681E-04 3.89476E-01-1.27369E-13 1.28433E-13
 -1      2447 2.06584E+01 9.92758E-02 3.30472E-03 4.31808E-01-1.38216E-13 7.38960E-14
 -1      2448 2.05770E+01 1.41820E-01-1.43858E-03 5.41313E-01-1.57076E-13-1.89386E-13
 -1      2449 2.04130E+01 7.85397E-02 5.85275E-04 3.03735E-01 6.61149E-14 6.97938E-14
 -1      2450 2.04952E+01 8.60708E-02 3.00051E-03 3.40332E-01-4.76771E-14 1.52912E-13
 -1      2451 2.04402E+01 1.24895E-01-1.28526E-03 4.31048E-01-1.09630E-13-6.74197E-14
 -1      2452 2.03003E+01 6.44456E-02 5.17649E-04 2.31648E-01-5.80216E-15 2.26646E-13
 -1      2453 2.03647E+01 7.17657E-02 2.59401E-03 2.62136E-01 1.14776E-13 2.31441E-13
 -1      2454 2.03298E+01 1.05327E-01-1.13709E-03 3.35485E-01-2.05972E-14 3.49245E-14
 -1      2455 2.02130E+01 5.14783E-02 4.47449E-04 1.72825E-01 4.00775E-15 1.43010E-13
 -1      2456 2.02624E+01 5.80783E-02 2.16361E-03 1.97502E-01-4.73851E-15 2.12636E-13
 -1      2457 2.02423E+01 8.60046E-02-9.88878E-04 2.55530E-01 2.80879E-14 1.45355E-13
 -1      2458 2.01466E+01 4.01810E-02 3.78289E-04 1.25996E-01 1.31958E-13 6.30140E-14
 -1      2459 2.01837E+01 4.58535E-02 1.75415E-03 1.45493E-01 7.05304E-14 1.06068E-13
 -1      2460 2.01740E+01 6.84177E-02-8.43082E-04 1.90469E-01 8.55328E-14 4.52975E-14
 -1      2461 2.00971E+01 3.07033E-02 3.13278E-04 8.95219E-02-9.76882E-14 1.04440E-13
 -1      2462 2.01244E+01 3.54141E-02 1.38839E-03 1.04597E-01 1.84839E-14 1.03775E-13
 -1      2463 2.01217E+01 5.32044E-02-7.04391E-04 1.38762E-01 1.21448E-14 2.49920E-14
 -1      2464 2.00611E+01 2.29782E-02 2.54532E-04 6.16916E-02 3.42920E-14 2.47575E-13
 -1      2465 2.00806E+01 2.67862E-02 1.07529E-03 7.31099E-02-5.43974E-14 1.65569E-13
 -1      2466 2.00823E+01 4.05085E-02-5.77052E-04 9.85304E-02-1.32582E-13 2.22712E-13
 -1      2467 2.00354E+01 1.68306E-02 2.03176E-04 4.08853E-02 1.16655E-13 2.36796E-13
 -1      2468 2.00490E+01 1.98389E-02 8.15653E-04 4.93560E-02 1.01403E-13 2.75274E-13
 -1      2469 2.00533E+01 3.02046E-02-4.63878E-04 6.78517E-02 5.63257E-15 2.99622E-13
 -1      2470 2.00177E+01 1.20421E-02 1.59524E-04 2.56578E-02 1.30258E-13 3.21282E-13
 -1      2471 2.00268E+01 1.43693E-02 6.05815E-04 3.18051E-02 1.97864E-13 3.37665E-13
 -1      2472 2.00324E+01 2.20359E-02-3.66138E-04 4.49247E-02 1.05131E-13 1.63161E-13
 -1      2473 2.00060E+01 8.38732E-03 1.23308E-04 1.47705E-02 7.43965E-14 3.69961E-13
 -1      2474 2.00118E+01 1.01513E-02 4.39949E-04 1.91237E-02 1.14554E-13 3.04960E-13
 -1      2475 2.00178E+01 1.56957E-02-2.83825E-04 2.81493E-02 1.05230E-13 1.63344E-13
 -1      2476 1.99986E+01 5.65402E-03 9.38834E-05 7.19274E-03 8.34614E-14 9.11330E-14
 -1      2477 2.00020E+01 6.96382E-03 3.11487E-04 1.01881E-02 7.10257E-14 2.34506E-13
 -1      2478 2.00079E+01 1.08736E-02-2.16032E-04 1.61570E-02 2.01535E-13 8.51117E-14
 -1      2479 1.99943E+01 3.65269E-03 7.03863E-05 2.08885E-03-1.00025E-13-4.73077E-14
 -1      2480 1.99961E+01 4.60430E-03 2.13934E-04 4.07728E-03 7.61814E-14 9.15694E-15
 -1      2481 2.00014E+01 7.28028E-03-1.61306E-04 7.81114E-03 6.61255E-14 7.26283E-14
 -1      2482 1.99923E+01 2.21967E-03 5.18401E-05-1.20349E-03-2.22404E-13 7.67468E-14
 -1      2483 1.99929E+01 2.89526E-03 1.41315E-04 5.37040E-05-2.32703E-13-4.78818E-14
 -1      2484 1.99976E+01 4.65897E-03-1.17925E-04 2.19093E-03-1.73091E-13 2.11650E-13
 -1      2485 1.99917E+01 1.21673E-03 3.72216E-05-3.19679E-03-1.70963E-13 3.04170E-13
 -1      2486 1.99916E+01 1.68528E-03 8.83759E-05-2.45942E-03-2.31766E-13 3.36064E-14
 -1      2487 1.99955E+01 2.78886E-03-8.41039E-05-1.43236E-03-2.42309E-13-6.32561E-16
 -1      2488 1.99921E+01 5.28408E-04 2.54959E-05-4.27683E-03-4.24446E-14 3.40311E-13
 -1      2489 1.99915E+01 8.47370E-04 5.06526E-05-3.90205E-03-1.03248E-13 3.84227E-13
 -1      2490 1.99946E+01 1.48383E-03-5.81418E-05-3.62163E-03-1.65944E-13 1.33433E-13
 -1      2491 1.99930E+01 5.81781E-05 1.56587E-05-4.72315E-03-2.74048E-14 3.10535E-13
 -1      2492 1.99922E+01 2.75603E-04 2.44621E-05-4.59918E-03 5.58480E-14 3.82011E-13
 -1      2493 1.99946E+01 5.88433E-04-3.85130E-05-4.79944E-03 2.54925E-14 1.22559E-13
 -1      2494 1.99942E+01-2.75811E-04 6.82888E-06-4.72641E-03 9.49837E-14 3.50993E-13
 -1      2495 1.99933E+01-1.19034E-04 6.87029E-06-4.77979E-03-5.30345E-14 3.46621E-13
 -1      2496 1.99951E+01-2.74789E-05-2.39249E-05-5.27081E-03-8.12424E-14 2.96949E-13
 -1      2497 1.99956E+01-5.44174E-04-1.22350E-06-4.40288E-03 3.12405E-13 3.84042E-13
 -1      2498 1.99947E+01-4.13117E-04-4.48215E-06-4.59290E-03 2.78530E-13 3.70146E-13
 -1      2499 1.99959E+01-4.73831E-04-1.32822E-05-5.24336E-03 2.21267E-13 5.64488E-13
 -1      2500 1.99969E+01-8.08580E-04-7.96748E-06-3.80781E-03 1.40254E-13 3.96218E-13
 -1      2501 1.99960E+01-6.76475E-04-1.19956E-05-4.12203E-03 2.63510E-13 3.72147E-13
 -1      2502 1.99968E+01-8.40449E-04-4.42645E-06-4.84749E-03 2.34775E-13 3.14062E-13
 -1      2503 1.99981E+01-1.10085E-03-1.50135E-05-2.96400E-03-1.84032E-13 4.36108E-13
 -1      2504 1.99973E+01-9.46795E-04-1.33157E-05-3.39311E-03-6.48419E-14 3.93770E-13
 -1      2505 1.99977E+01-1.21635E-03 3.99528E-06-4.15030E-03 6.86436E-14 5.77744E-13
 -1      2506 1.99985E+01-1.23344E-03-1.15528E-05-2.39065E-03-1.10666E-13 3.13270E-13
 -1      2507 2.00008E+01-5.17270E-03 1.71627E-05-2.91754E-03 1.35519E-13-1.47647E-13
 -1      2508 2.00006E+01-4.70494E-03 2.67715E-06-3.24722E-03 2.29144E-13-5.78546E-13
 -1      2509 2.00011E+01-5.79881E-03 1.81724E-05-1.99559E-03 1.47442E-14-2.55895E-13
 -1      2510 2.00010E+01-5.46382E-03 9.03268E-06-2.45310E-03 1.04962E-13-1.49376E-13
 -1      2511 2.00013E+01-4.59394E-03-9.45719E-06-2.99180E-03 1.67046E-13-1.11986E-13
 -1      2512 1.99997E+01-3.30911E-03 1.36164E-05-3.76306E-03 6.55151E-14-4.21974E-13
 -1      2513 1.99994E+01-2.71261E-03-1.82805E-05-3.69635E-03 1.39787E-13-1.01364E-13
 -1      2514 2.00004E+01-4.31931E-03 1.49636E-05-3.54349E-03 5.66008E-14-4.80254E-13
 -1      2515 2.00001E+01-3.77066E-03-6.03017E-06-3.69088E-03-3.87827E-14-4.00669E-13
 -1      2516 1.99999E+01-3.13159E-03-8.65312E-06-4.18617E-03 1.15969E-13-5.55230E-13
 -1      2517 2.00007E+01-3.94475E-03-8.48184E-06-3.79268E-03 1.26626E-13-4.01876E-13
 -1      2518 2.00013E+01-6.15220E-03 1.81476E-05-8.92774E-04-1.13542E-13-1.72850E-13
 -1      2519 2.00012E+01-5.97785E-03 1.39052E-05-1.42449E-03-1.23644E-13-1.58301E-13
 -1      2520 2.00016E+01-5.04529E-03-1.08831E-05-1.90239E-03 1.07469E-13-1.95542E-13
 -1      2521 2.00013E+01-6.21076E-03 1.69561E-05 2.86374E-04-1.79854E-13-3.57554E-14
 -1      2522 2.00013E+01-6.21204E-03 1.69093E-05-2.69365E-04-1.29724E-13-7.07123E-14
 -1      2523 2.00018E+01-5.27529E-03-1.13348E-05-6.45992E-04 8.16886E-15-1.23849E-13
 -1      2524 2.00012E+01-5.97278E-03 1.42352E-05 1.44064E-03-1.92848E-13 9.08984E-15
 -1      2525 2.00013E+01-6.14980E-03 1.80935E-05 9.09561E-04-2.48666E-13 7.81784E-14
 -1      2526 2.00018E+01-5.27412E-03-1.12269E-05 6.64539E-04-6.99603E-14-9.33346E-14
 -1      2527 2.00010E+01-5.46666E-03 9.19225E-06 2.45182E-03-2.60756E-14-1.07454E-13
 -1      2528 2.00011E+01-5.79689E-03 1.81646E-05 2.00213E-03-7.57724E-14-1.76396E-13
 -1      2529 2.00016E+01-5.04489E-03-1.07340E-05 1.90997E-03-1.38153E-13-2.74530E-15
 -1      2530 2.00006E+01-4.71328E-03 3.69807E-07 3.24941E-03-1.36811E-13 1.73761E-13
 -1      2531 2.00008E+01-5.17572E-03 1.76297E-05 2.91758E-03-2.06379E-14 1.10437E-13
 -1      2532 2.00013E+01-4.59795E-03-9.74057E-06 2.99075E-03 2.23464E-14-2.19866E-14
 -1      2533 2.00001E+01-3.76732E-03-9.40194E-06 3.68527E-03-2.74312E-14 5.30943E-13
 -1      2534 2.00004E+01-4.31154E-03 1.56539E-05 3.54414E-03-1.37416E-13 4.02420E-13
 -1      2535 2.00007E+01-3.94050E-03-1.09640E-05 3.80256E-03 5.10161E-14 2.61317E-13
 -1      2536 1.99993E+01-2.69335E-03-1.52727E-05 3.67606E-03 1.09561E-13 4.51025E-13
 -1      2537 1.99997E+01-3.29223E-03 1.17684E-05 3.77148E-03 1.90079E-15 2.97585E-13
 -1      2538 2.00000E+01-3.10983E-03 4.06745E-06 4.18139E-03-1.77036E-14 4.33116E-13
 -1      2539 1.80200E+01-5.38603E+00-9.69995E-03 6.55010E+00 6.84175E-14 3.78222E-13
 -1      2540 1.42153E+01-5.30363E+00 3.60307E-02 6.68523E+00 6.94722E-14 6.09596E-13
 -1      2541 2.19235E+01 8.40544E-02-3.12977E-04-7.21937E-01 1.58071E-13 3.90707E-13
 -1      2542 2.18180E+01 1.84148E-01 1.33750E-02-6.52048E-01 2.03025E-13 4.23195E-13
 -1      2543 2.17920E+01 5.21158E-02-7.93950E-03-8.55898E-01 1.65449E-13 2.32638E-13
 -1      2544 3.09808E+01-2.45648E-01-6.30420E-02 8.04305E-01 9.21922E-13-2.00728E-13
 -1      2545 2.91525E+01-1.92677E+00-4.88703E-02 1.59845E+00 7.19876E-13-1.63980E-13
 -1      2546 1.99988E+01-1.87393E-03-8.34873E-06 2.89485E-03 2.11210E-13 3.06906E-13
 -1      2547 6.20635E+00-3.99395E+00 4.97663E-02-4.82579E+00 2.92211E-13 1.18472E-12
 -1      2548 9.31491E+00-4.44638E+00 2.85950E-02-6.31960E+00 1.80966E-13 1.18899E-12
 -1      2549 1.11891E+01-4.56640E+00 6.28357E-02 6.68918E+00 6.30052E-15 9.62341E-13
 -1      2550 8.37656E+00-3.78816E+00 1.11631E-01 5.66564E+00-1.30784E-13 1.11122E-12
 -1      2551 1.43649E+01-4.42114E+00 1.16363E-01 6.49207E+00-2.89491E-13 5.29271E-13
 -1      2552 3.45406E+00-2.90368E+00 8.18298E-02-1.85084E+00 2.57447E-13 1.32866E-12
 -1      2553 4.47242E+00-3.42557E+00 7.10738E-02-3.63669E+00 2.55462E-13 1.29313E-12
 -1      2554 7.50330E+00-2.70831E+00 1.29786E-01-4.50836E+00 3.48305E-13 1.24517E-12
 -1      2555 1.79871E+01 4.21720E+00-8.40911E-03-4.11224E-02 1.35315E-13-6.61445E-13
 -1      2556 1.81009E+01 4.18138E+00-4.77855E-03-9.25266E-02 7.07567E-14-6.60227E-13
 -1      2557 1.82448E+01 3.86381E+00 2.88160E-03-3.33755E-02 4.44953E-14-6.16788E-13
 -1      2558 1.80067E+01 3.98461E+00 3.39593E-03-2.03038E-02 1.49456E-13-6.05071E-13
 -1      2559 3.14113E+01 6.98531E+00-2.01268E-01-8.12342E-01 1.32627E-12-1.49047E-14
 -1      2560 3.23505E+01 5.87309E+00-6.86752E-02-1.12417E+00 1.36363E-12-1.70836E-13
 -1      2561 2.94566E+01-1.68508E+00-4.22836E-02-1.18573E+00 4.03746E-13 4.71845E-14
 -1      2562 3.11377E+01 3.85043E-01-1.62066E-01-1.04713E-01 5.94358E-13 8.12683E-14
 -1      2563 3.11964E+01 6.58813E+00-1.46832E-01 8.61070E-01 1.15097E-12 2.23654E-13
 -1      2564 3.09082E+01 7.10091E+00-1.93509E-01 2.03292E-01 1.21286E-12 1.74690E-13
 -1      2565 3.32241E+01 5.38338E+00-8.26743E-02 8.43429E-01-1.20076E-12-7.91034E-14
 -1      2566 3.37390E+01 6.67043E+00-1.19986E-01 7.59663E-01-1.36491E-12-6.12427E-14
 -1      2567 3.17156E+01 3.25452E+00-7.56632E-02 9.48247E-01 8.28837E-13 1.56708E-13
 -1      2568 3.18093E+01 5.22610E+00-2.02562E-01 1.17593E+00 1.02102E-12 2.49856E-13
 -1      2569 2.94597E+01 5.20822E+00-1.01334E-01 1.38386E+00 1.01150E-12 3.42323E-13
 -1      2570 2.44678E+01-4.85146E+00-1.57887E-02-4.39939E+00-2.14828E-14-2.78721E-13
 -1      2571 2.73672E+01-3.76283E+00-1.06054E-01-3.18046E+00 1.75360E-13-1.30063E-13
 -1      2572 1.76548E+01-5.42055E+00 5.84925E-02-6.53216E+00-3.06311E-13-6.42562E-13
 -1      2573 2.15605E+01-5.25940E+00 1.59314E-02-6.00211E+00-1.06443E-13-4.79658E-13
 -1      2574 2.37952E+01-5.30855E+00 4.21295E-02-4.45834E+00-3.19689E-13-1.66395E-13
 -1      2575 8.66627E+00-4.66869E+00 1.49461E-02-6.03561E+00-2.43694E-13-1.12949E-12
 -1      2576 1.24651E+01-4.81626E+00 1.42709E-02-6.88635E+00-2.85771E-13-9.31838E-13
 -1      2577 4.78754E+00-2.69852E+00 1.04669E-01-3.30118E+00-1.71918E-13-1.26615E-12
 -1      2578 6.40699E+00-3.72802E+00 4.79278E-02-5.07978E+00-1.56403E-13-1.24267E-12
 -1      2579 9.28685E+00-3.11288E+00 1.35523E-01-5.53320E+00-3.07837E-13-1.08985E-12
 -1      2580 4.44020E+00-1.94503E+00 1.42464E-01 1.48502E+00 8.70762E-14-1.21664E-12
 -1      2581 4.26624E+00-1.91193E+00 1.48656E-01-1.06903E+00 3.12320E-14-1.25672E-12
 -1      2582 1.53321E+01-5.41021E+00-4.83183E-02 7.11017E+00-5.65659E-14-5.87516E-13
 -1      2583 1.19593E+01-5.08281E+00 6.50160E-02 6.64656E+00 3.28626E-14-7.17870E-13
 -1      2584 2.36971E+01-5.07882E+00-8.00379E-02 5.18624E+00-1.26621E-13-1.07025E-13
 -1      2585 1.95383E+01-5.56779E+00 4.01968E-02 6.15643E+00-2.70339E-14-3.25961E-13
 -1      2586 2.90814E+01-2.64631E+00-1.33669E-01 2.11737E+00-4.80768E-13 1.87961E-13
 -1      2587 2.69899E+01-3.89766E+00 1.93384E-02 3.15905E+00-2.80581E-13 5.22360E-14
 -1      2588 3.20210E+01 2.23259E+00-1.51344E-01-6.28499E-01-9.09550E-13 1.90986E-13
 -1      2589 3.07360E+01-1.67949E-01-2.31627E-02 3.49190E-01-7.06296E-13 2.02560E-13
 -1      2590 3.23941E+01 6.06094E+00-1.71278E-01-8.53776E-01-1.25200E-12 1.47604E-13
 -1      2591 3.20526E+01 4.74910E+00-1.10094E-01-1.17182E+00-1.13301E-12 1.77469E-13
 -1      2592 3.28610E+01 7.26931E+00-1.09097E-01 3.30779E-01-1.41642E-12-3.13083E-14
 -1      2593 3.21081E+01 7.16281E+00-1.51396E-01-2.99221E-01-1.30418E-12-5.41234E-16
 -1      2594 3.13672E+01 1.03858E+00-5.79410E-02 1.48530E-01-6.74974E-13-7.36078E-14
 -1      2595 3.27005E+01 3.06643E+00-1.06211E-01 6.53677E-01-9.78162E-13-1.34726E-13
 -1      2596 2.78571E+01-3.10692E+00-1.98231E-02-2.55665E+00-1.24498E-13 2.68841E-13
 -1      2597 3.01273E+01-1.49694E+00-1.12719E-01-1.39965E+00-3.52194E-13 1.51823E-13
 -1      2598 2.12899E+01-5.41750E+00 3.55596E-02-5.54516E+00 1.97897E-13 4.70457E-13
 -1      2599 2.51692E+01-4.48065E+00-2.73597E-02-4.52582E+00 3.52218E-14 4.50556E-13
 -1      2600 2.67386E+01-4.38881E+00 8.38934E-03-2.70771E+00 1.13937E-13 2.24404E-13
 -1      2601 1.28042E+01-5.30616E+00 2.27365E-02-6.61974E+00 2.05724E-13 8.83571E-13
 -1      2602 1.66664E+01-5.45019E+00-3.32272E-02-6.71106E+00 1.95455E-13 5.09422E-13
 -1      2603 2.15115E+01 2.00871E+00-9.27107E-03-1.07583E+00-4.44349E-13-2.60967E-13
 -1      2604 2.15524E+01 1.28161E+00-4.59689E-03-4.32348E-01-4.03364E-13-1.99818E-13
 -1      2605 2.12810E+01 1.48243E+00-5.21339E-04-2.74202E-01-3.53130E-13-2.64427E-13
 -1      2606 2.10024E+01 2.47853E+00-6.43483E-03-9.67757E-01-4.18597E-13-3.81065E-13
 -1      2607 2.18743E+01 8.87594E-01-2.97135E-03 5.29403E-01 4.84460E-13 6.78993E-13
 -1      2608 2.20815E+01 1.25277E+00-4.58289E-03 1.04489E+00 5.15924E-13 7.60159E-13
 -1      2609 2.17687E+01 1.71806E+00-1.62590E-02 1.17672E+00 5.69886E-13 5.51852E-13
 -1      2610 2.16530E+01 1.09043E+00-1.07569E-02 4.20220E-01 5.02810E-13 4.08316E-13
 -1      2611 3.06285E+01 4.50614E+00-5.26675E-02-1.60992E+00 1.19840E-12-2.80137E-13
 -1      2612 1.93809E+01 3.24124E+00 2.99138E-03-2.35127E-01-1.78528E-13-5.96775E-13
 -1      2613 1.94349E+01 3.48152E+00-1.82959E-02-4.49842E-01-2.01557E-13-6.37207E-13
 -1      2614 1.98245E+01 3.31347E+00-1.09886E-02-6.05150E-01-2.75378E-13-6.06249E-13
 -1      2615 2.16176E+01 3.34013E-01-7.20362E-03-6.33193E-01 2.76458E-13 2.62349E-13
 -1      2616 2.13270E+01 2.15375E+00-1.32233E-02 1.07646E+00 5.80987E-13 2.85843E-13
 -1      2617 2.05520E+01 2.76622E+00-1.40365E-02-7.93548E-01-3.46854E-13-4.79460E-13
 -1      2618 1.99633E+01-5.49633E+00 6.07316E-02-5.92199E+00 2.84023E-13 3.91215E-13
 -1      2619 2.24860E+01-5.48659E+00-4.46548E-02-4.69059E+00 4.16583E-13 3.51066E-13
 -1      2620 1.87233E+01-5.07859E+00 1.29292E-01-6.06611E+00 4.09089E-13 2.85015E-13
 -1      2621 2.32446E+01-5.35787E+00-6.55138E-02 4.47250E+00-7.16649E-14-6.30052E-15
 -1      2622 2.08820E+01-5.47637E+00 5.22435E-02 5.71929E+00 1.89015E-14 2.22898E-13
 -1      2623 1.97830E+01-5.22455E+00 1.15798E-01 5.85938E+00-2.31565E-13 2.04670E-13
 -1      2624 3.05988E+01 5.23678E-01-3.85937E-02-7.81993E-01 8.97976E-13-3.90715E-13
 -1      2625 3.01010E+01-7.45686E-01-1.59092E-02 4.02438E-01-3.12708E-13-2.72227E-13
 -1      2626 1.24728E+01-4.24385E+00 1.23052E-01-6.38293E+00 3.98376E-13 8.86735E-13
 -1      2627 7.55696E+00-2.94899E+00 1.37999E-01 4.83929E+00-1.53877E-13 1.18422E-12
 -1      2628 7.06198E+00-1.77400E+00 1.70588E-01 3.74457E+00-1.98994E-13 1.17695E-12
 -1      2629 1.03579E+01-2.67868E+00 1.02825E-01 5.38038E+00-4.35416E-13 9.38888E-13
 -1      2630 1.99986E+01-1.59585E-03-8.46376E-06-3.12680E-03-1.49789E-13 2.01620E-13
 -1      2631 1.99988E+01-2.04077E-03 3.84828E-06-3.42560E-03-2.59001E-14 3.31135E-13
 -1      2632 3.06400E+01 6.66284E+00-5.43208E-02 8.21015E-01-1.31181E-12-1.39069E-13
 -1      2633 5.46865E+00-1.27100E+00 1.57025E-01 1.00451E+00-1.23183E-14 1.19305E-12
 -1      2634 4.19117E+00-2.16574E+00 1.53387E-01-3.79970E-01 1.24328E-13 1.25144E-12
 -1      2635 5.81962E+00-1.32492E+00 9.13870E-02-1.80611E+00 2.24064E-13 1.11494E-12
 -1      2636 3.01238E+01 6.31285E+00-5.52766E-02-9.22762E-01-1.20995E-12 9.49726E-14
 -1      2637 3.06277E+01 2.87795E+00-7.25357E-02-1.48830E+00-9.05387E-13 3.14332E-13
 -1      2638 2.12338E+01 1.89039E+00 1.15503E-02 6.97595E-01 5.41145E-13 2.06737E-13
 -1      2639 1.99983E+01-1.44771E-03-1.81564E-05 3.33021E-03 1.02925E-13 2.89351E-13
 -1      2640 1.99990E+01-2.20801E-03 5.08220E-06 3.63812E-03 2.02205E-13 4.05168E-13
 -1      2641 1.99990E+01-2.18453E-03-1.77547E-06 4.18313E-03 7.48439E-14 5.67554E-13
 -1      2642 1.99978E+01-1.30868E-03-1.59972E-05 3.78863E-03 1.01927E-13 3.15273E-13
 -1      2643 2.96070E+01-1.69358E+00-1.92577E-03 2.50338E-01-4.25601E-13 3.55410E-13
 -1      2644 2.55667E+01-4.87523E+00 4.96352E-02 3.63481E+00 6.05627E-14 1.85157E-13
 -1      2645 1.89649E+01-5.35348E+00 9.82827E-02 6.28929E+00 2.41807E-13-2.37543E-13
 -1      2646 6.39648E+00-1.34734E+00 1.53512E-01-2.04918E+00-5.03070E-14-1.21991E-12
 -1      2647 1.62811E+01-4.96441E+00 8.63440E-02-6.68362E+00-3.71064E-13-7.24476E-13
 -1      2648 1.93464E+01-4.94609E+00 2.47542E-02-5.85361E+00-4.87610E-13-4.54095E-13
 -1      2649 1.49098E+01-4.04336E+00 1.43958E-01-6.47538E+00-4.44172E-13-7.06740E-13
 -1      2650 3.01338E+01 1.33205E+00-3.51374E-02 1.33892E+00 5.75567E-13 3.56604E-13
 -1      2651 3.12441E+01 3.87356E+00-3.15961E-02 1.68978E+00-9.45632E-13-3.28404E-13
 -1      2652 1.11281E+01-4.04113E+00 1.32601E-01 6.29869E+00 2.22156E-13-7.72382E-13
 -1      2653 7.58591E+00-1.69054E+00 9.58610E-02 3.91480E+00 3.26530E-13-9.84351E-13
 -1      2654 5.86743E+00-1.85071E+00 1.68963E-01 2.62525E+00 2.17215E-13-1.12796E-12
 -1      2655 7.09499E+00-5.68655E-01 1.19298E-01 1.50399E+00 2.19803E-13-1.03365E-12
 -1      2656 2.82669E+01-3.18234E+00 1.31314E-02-1.25878E+00 8.87138E-14 1.43885E-13
 -1      2657 2.92075E+01 6.42651E+00-1.15580E-01-3.42241E-01 1.16609E-12 8.14071E-14
 -1      2658 2.83596E+01-2.98140E+00-8.23081E-02 6.90875E-01 3.59916E-13-4.24133E-13
 -1      2659 2.79914E+01-3.38495E+00-1.48432E-02 2.26972E+00 4.40328E-13-2.14717E-13
 -1      2660 2.62878E+01-4.41155E+00 4.28350E-02 2.83793E+00 1.60011E-13-3.27530E-13
 -1      2661 1.99988E+01-2.05176E-03-9.90597E-06-4.03252E-03 8.99755E-14 3.41763E-13
 -1      2662 1.99983E+01-1.57362E-03 5.77671E-08 4.39887E-03-2.05856E-14 4.46681E-13
 -1      2663 1.83780E+01 3.49180E+00-1.33365E-03-9.40644E-02 3.38543E-13-4.98640E-13
 -1      2664 1.81670E+01 3.58802E+00-8.47060E-03-1.13100E-01 2.92118E-13-5.19258E-13
 -1      2665 1.80177E+01 3.68897E+00-3.14216E-03-6.68083E-02 2.55349E-13-5.30856E-13
 -1      2666 1.79342E+01 3.72698E+00-6.24350E-03-6.20381E-02 2.00694E-13-5.28743E-13
 -1      2667 1.81005E+01 3.38928E+00 6.82106E-03-1.64882E-01 2.45263E-13-4.91974E-13
 -1      2668 1.96876E+01 2.70421E+00-4.43443E-03 7.85608E-02 4.62738E-13-2.84079E-13
 -1      2669 1.93043E+01 2.92191E+00-1.02007E-02-1.02382E-02 4.38719E-13-3.51045E-13
 -1      2670 2.05046E+01 2.12873E+00-5.09556E-03 2.38527E-01 4.98959E-13-6.42936E-14
 -1      2671 2.00875E+01 2.42483E+00-7.50373E-03 1.45861E-01 4.64398E-13-1.81924E-13
 -1      2672 1.99685E+01 2.22854E+00 5.07134E-03-1.24037E-01 4.25116E-13-2.07765E-13
 -1      2673 2.13364E+01 8.08801E-01-1.82953E-03-3.46819E-01 3.69810E-13 1.66785E-13
 -1      2674 2.13630E+01 1.04694E+00 1.14231E-02-4.92849E-02 4.28628E-13 1.97297E-13
 -1      2675 1.99989E+01-1.97480E-03-4.08229E-06 4.45973E-03 1.51566E-13 5.79810E-13
 -1      2676 1.99994E+01-2.41087E-03-1.51210E-05 4.54487E-03 1.38485E-13 5.66286E-13
 -1      2677 1.99988E+01-1.77284E-03-2.53054E-06 4.75783E-03 9.04039E-16 5.41168E-13
 -1      2678 2.11683E+01 1.60047E+00-1.52935E-03 3.60764E-01 5.09131E-13 1.55856E-13
 -1      2679 2.11288E+01 7.48080E-01 1.06940E-02 7.83697E-01-1.85337E-13-2.20665E-13
 -1      2680 2.11802E+01 5.25945E-01-1.44828E-03 9.80239E-01-1.46165E-13-2.16803E-13
 -1      2681 2.12786E+01 3.11920E-01 1.19445E-02 1.15718E+00-1.08801E-13-1.81070E-13
 -1      2682 2.13975E+01 7.41182E-02-1.81915E-03 1.25172E+00-6.56818E-14-1.91600E-13
 -1      2683 2.08717E+01 5.42447E-01-8.59601E-03 1.14675E+00-1.24307E-13-2.18806E-13
 -1      2684 2.15865E+01-1.73176E-01 1.48978E-02 1.33900E+00-1.12003E-14-1.43693E-13
 -1      2685 2.17808E+01-4.60660E-01-4.48486E-03 1.31849E+00 1.38938E-14-1.23814E-13
 -1      2686 2.11097E+01-2.35042E-02-1.36848E-02 1.44510E+00-3.80171E-14-2.05890E-13
 -1      2687 2.21066E+01-7.57856E-01 1.94485E-02 1.28570E+00 3.55020E-14-7.47846E-14
 -1      2688 2.23732E+01-1.09278E+00-1.02049E-02 1.12519E+00 2.27340E-14-6.62313E-14
 -1      2689 2.15614E+01-7.01323E-01-2.01486E-02 1.54586E+00 3.45249E-14-1.31328E-13
 -1      2690 2.28701E+01-1.40763E+00 2.35609E-02 9.19981E-01 5.38783E-15-1.60340E-14
 -1      2691 2.31792E+01-1.71592E+00-1.81639E-02 5.96498E-01-1.89224E-14-3.46338E-15
 -1      2692 2.23090E+01-1.48782E+00-2.67743E-02 1.37042E+00 3.30143E-14-6.83297E-14
 -1      2693 2.38204E+01-1.92680E+00 2.01048E-02 1.62931E-01 1.43809E-15 5.60624E-14
 -1      2694 2.41062E+01-2.01519E+00-1.98961E-02-3.05846E-01-4.98553E-14 9.33080E-14
 -1      2695 2.33855E+01-2.20660E+00-2.70768E-02 7.98637E-01 2.92776E-14 6.02585E-14
 -1      2696 2.47265E+01-1.90177E+00-3.55395E-03-9.34667E-01-8.02821E-14 1.64236E-13
 -1      2697 2.49012E+01-1.49512E+00-9.60717E-03-1.41706E+00-1.65918E-13 2.35647E-13
 -1      2698 2.46479E+01-2.40253E+00-1.73881E-02-2.50897E-01-2.65564E-14 2.03684E-13
 -1      2699 2.52004E+01-7.94013E-01-5.64240E-02-2.00535E+00-2.77098E-13 3.01871E-13
 -1      2700 2.51739E+01 2.20287E-01-9.02935E-03-2.17971E+00-3.95194E-13 2.84983E-13
 -1      2701 2.57320E+01-1.47574E+00-5.98061E-04-1.58041E+00-1.66945E-13 2.91898E-13
 -1      2702 2.50501E+01 1.37756E+00-9.92935E-02-2.20679E+00-5.12309E-13 2.69059E-13
 -1      2703 2.49064E+01 2.54404E+00-1.43971E-02-1.78576E+00-5.68795E-13 1.51672E-13
 -1      2704 2.61166E+01 8.32525E-01-4.36427E-02-2.29101E+00-4.73302E-13 3.27294E-13
 -1      2705 2.46262E+01 3.36113E+00-1.04975E-01-8.96959E-01-6.56669E-13-4.34206E-14
 -1      2706 2.46056E+01 3.70410E+00-6.92401E-02-1.85452E-02-6.32001E-13-1.92258E-13
 -1      2707 2.58660E+01 3.61371E+00-7.76971E-02-1.53660E+00-7.70300E-13 9.20791E-14
 -1      2708 2.46977E+01 3.44092E+00-4.19597E-02 1.12868E+00-5.77982E-13-4.27783E-13
 -1      2709 2.48218E+01 2.62515E+00-1.06099E-01 1.86306E+00-5.47951E-13-5.26886E-13
 -1      2710 2.57975E+01 4.38924E+00-7.93584E-02 6.25818E-01-7.55535E-13-2.50633E-13
 -1      2711 2.50879E+01 1.51556E+00-1.09661E-02 2.34483E+00-4.74336E-13-5.70182E-13
 -1      2712 2.52097E+01 3.21078E-01-8.51346E-02 2.47016E+00-3.48256E-13-5.97929E-13
 -1      2713 2.60237E+01 2.43923E+00-6.57608E-02 2.29614E+00-5.57936E-13-6.02948E-13
 -1      2714 2.51529E+01-6.86969E-01-8.72717E-03 2.14025E+00-2.07889E-13-5.68746E-13
 -1      2715 2.51111E+01-1.44924E+00-2.78650E-02 1.77356E+00-4.54823E-14-5.33649E-13
 -1      2716 2.60450E+01-2.77309E-01-1.12633E-02 2.33476E+00-2.80963E-13-5.58810E-13
 -1      2717 2.46063E+01-1.87464E+00-2.12974E-02 1.10642E+00 3.75688E-14-4.37411E-13
 -1      2718 2.43884E+01-2.02905E+00 1.04206E-02 5.98628E-01 1.60627E-13-3.81019E-13
 -1      2719 2.53033E+01-2.07403E+00-1.07482E-02 1.16599E+00 3.25191E-14-4.59601E-13
 -1      2720 2.37165E+01-1.97632E+00-2.03753E-02 2.73148E-02 1.91326E-13-2.55975E-13
 -1      2721 2.34078E+01-1.76956E+00 2.34401E-02-3.96217E-01 1.98597E-13-2.57995E-13
 -1      2722 2.40642E+01-2.44831E+00-1.94192E-02-1.05090E-01 2.35420E-13-2.76234E-13
 -1      2723 2.28112E+01-1.50960E+00-1.32631E-02-7.42550E-01 2.00419E-13-2.13848E-13
 -1      2724 2.25027E+01-1.19982E+00 2.06366E-02-1.01837E+00 2.20869E-13-8.64246E-14
 -1      2725 2.28264E+01-1.97531E+00-2.38722E-02-9.72691E-01 2.39214E-13-1.36612E-13
 -1      2726 2.20655E+01-9.13725E-01-6.78389E-03-1.17697E+00 1.72238E-13-2.46562E-14
 -1      2727 2.18019E+01-6.36056E-01 1.38343E-02-1.31672E+00 2.58855E-13-1.09977E-13
 -1      2728 2.18616E+01-1.25787E+00-2.20965E-02-1.41635E+00 2.38733E-13-6.97341E-14
 -1      2729 2.15179E+01-4.07889E-01-2.02189E-03-1.35149E+00 2.18474E-13-1.55469E-13
 -1      2730 2.13085E+01-2.08922E-01 8.03988E-03-1.39275E+00 1.65948E-13-1.97977E-13
 -1      2731 2.12056E+01-6.09421E-01-1.51405E-02-1.56103E+00 1.55032E-13-7.80626E-17
 -1      2732 2.11354E+01-5.59110E-02 6.38304E-04-1.35782E+00 1.59694E-13-2.08886E-13
 -1      2733 2.09719E+01 6.67735E-02 3.94922E-03-1.33623E+00 8.00060E-14-2.39149E-13
 -1      2734 2.07944E+01-1.44148E-01-9.06778E-03-1.53076E+00 1.17781E-13-7.27425E-14
 -1      2735 2.08697E+01 1.55563E-01 2.01211E-03-1.26559E+00 2.41626E-14-1.72400E-13
 -1      2736 2.07404E+01 2.19824E-01 1.39962E-03-1.20848E+00-2.34031E-14-1.10837E-13
 -1      2737 2.05458E+01 1.44766E-01-4.95351E-03-1.40792E+00 1.06413E-13-1.80937E-13
 -1      2738 2.06799E+01 2.62352E-01 2.67606E-03-1.12277E+00-1.15814E-13-1.92889E-13
 -1      2739 2.05754E+01 2.87259E-01-2.82826E-05-1.04918E+00-4.63880E-14-2.41090E-13
 -1      2740 2.03957E+01 2.98308E-01-2.51994E-03-1.24180E+00-1.24264E-13 1.85373E-14
 -1      2741 2.05382E+01 2.99956E-01 2.92710E-03-9.60742E-01-4.35708E-15-2.60554E-13
 -1      2742 2.04524E+01 3.00862E-01-7.30792E-04-8.83030E-01-3.64842E-14-2.90499E-13
 -1      2743 2.03018E+01 3.60077E-01-1.22919E-03-1.06180E+00-4.43743E-14-2.14697E-13
 -1      2744 2.04278E+01 2.96122E-01 2.92065E-03-7.98991E-01 3.73916E-14-2.60783E-13
 -1      2745 2.03567E+01 2.83880E-01-9.99795E-04-7.24584E-01 1.08748E-13-2.65393E-13
 -1      2746 2.02387E+01 3.65307E-01-6.18982E-04-8.85315E-01 5.36852E-14-2.29103E-13
 -1      2747 2.03390E+01 2.70119E-01 2.75179E-03-6.48754E-01 4.46407E-14-2.90769E-13
 -1      2748 2.02802E+01 2.51790E-01-1.02996E-03-5.81652E-01 4.03978E-14-3.30000E-13
 -1      2749 2.01926E+01 3.39084E-01-3.71116E-04-7.22264E-01 5.41941E-14-1.92943E-13
 -1      2750 2.02664E+01 2.34311E-01 2.48673E-03-5.15720E-01 1.95734E-14-3.71154E-13
 -1      2751 2.02182E+01 2.14188E-01-9.41813E-04-4.57662E-01 8.00034E-15-3.41845E-13
 -1      2752 2.01562E+01 2.97887E-01-2.93752E-04-5.77707E-01-1.87850E-14-2.45076E-13
 -1      2753 2.02069E+01 1.96121E-01 2.17420E-03-4.01971E-01 4.48032E-14-3.59976E-13
 -1      2754 2.01678E+01 1.76634E-01-8.05503E-04-3.53288E-01-2.22665E-14-3.30151E-13
 -1      2755 2.01262E+01 2.51857E-01-2.82670E-04-4.53531E-01 3.52568E-14-2.27733E-13
 -1      2756 2.01583E+01 1.59686E-01 1.84939E-03-3.07365E-01 8.04705E-14-2.80318E-13
 -1      2757 2.01271E+01 1.42076E-01-6.59311E-04-2.67566E-01 1.68355E-13-2.44089E-13
 -1      2758 2.01010E+01 2.06822E-01-2.87306E-04-3.49585E-01 6.43531E-14-3.65144E-13
 -1      2759 2.01192E+01 1.27065E-01 1.53618E-03-2.30487E-01 1.23500E-13-1.69453E-13
 -1      2760 2.00947E+01 1.11849E-01-5.22439E-04-1.98653E-01 1.60544E-13-1.07033E-13
 -1      2761 2.00797E+01 1.65830E-01-2.86935E-04-2.64493E-01 2.25297E-13-3.03952E-13
 -1      2762 2.00880E+01 9.90603E-02 1.24922E-03-1.69287E-01 7.52782E-14 7.73669E-14
 -1      2763 2.00691E+01 8.63327E-02-4.03159E-04-1.44323E-01 1.86565E-14 7.38205E-14
 -1      2764 2.00620E+01 1.30209E-01-2.75874E-04-1.96217E-01 2.10997E-13 1.01012E-13
 -1      2765 2.00637E+01 7.57511E-02 9.96177E-04-1.21488E-01-1.39090E-13 1.31557E-13
 -1      2766 2.00493E+01 6.53740E-02-3.03787E-04-1.02276E-01-8.49324E-14 8.22052E-14
 -1      2767 2.00474E+01 1.00272E-01-2.55082E-04-1.42450E-01-4.17471E-14 2.79182E-13
 -1      2768 2.00449E+01 5.68242E-02 7.79688E-04-8.48384E-02 5.82684E-15 8.80128E-14
 -1      2769 2.00342E+01 4.85460E-02-2.23602E-04-7.03270E-02-7.32133E-14 1.88456E-13
 -1      2770 2.00355E+01 7.57600E-02-2.27767E-04-1.00869E-01-5.40171E-14 1.50722E-13
 -1      2771 2.00307E+01 4.17798E-02 5.99085E-04-5.72564E-02-1.69213E-13 3.07611E-13
 -1      2772 2.00229E+01 3.53051E-02-1.60506E-04-4.65060E-02-8.66509E-14 4.26130E-13
 -1      2773 2.00261E+01 5.61303E-02-1.97322E-04-6.92900E-02-6.55859E-14 2.67031E-13
 -1      2774 2.00202E+01 3.00527E-02 4.51687E-04-3.68999E-02-1.02578E-13 3.12895E-13
 -1      2775 2.00146E+01 2.50836E-02-1.11930E-04-2.91010E-02-4.65986E-15 2.14449E-13
 -1      2776 2.00188E+01 4.07202E-02-1.66506E-04-4.57535E-02-1.30463E-13 1.41094E-13
 -1      2777 2.00126E+01 2.10821E-02 3.33756E-04-2.21929E-02-7.00767E-14 1.77317E-13
 -1      2778 2.00087E+01 1.73401E-02-7.53117E-05-1.66673E-02-2.40609E-13 4.77523E-14
 -1      2779 2.00131E+01 2.88495E-02-1.37247E-04-2.85620E-02-1.76874E-13-9.27307E-15
 -1      2780 2.00072E+01 1.43493E-02 2.41158E-04-1.18224E-02-1.86324E-13-1.12950E-13
 -1      2781 2.00047E+01 1.15860E-02-4.83279E-05-8.01577E-03-1.19333E-14-1.51782E-13
 -1      2782 2.00089E+01 1.98756E-02-1.10707E-04-1.62853E-02-2.40717E-13-1.32050E-13
 -1      2783 2.00035E+01 9.39420E-03 1.69793E-04-4.71968E-03 9.14778E-14-6.36183E-14
 -1      2784 2.00019E+01 7.39513E-03-2.89892E-05-2.18879E-03 4.90793E-14 1.13666E-14
 -1      2785 2.00058E+01 1.32208E-02-8.74548E-05-7.74705E-03 4.10191E-14-1.39438E-13
 -1      2786 2.00011E+01 5.82125E-03 1.15861E-04-3.38853E-05 6.82119E-14-8.30124E-14
 -1      2787 2.00002E+01 4.40489E-03-1.56604E-05 1.56782E-03 2.23973E-15-1.64032E-14
 -1      2788 2.00035E+01 8.38315E-03-6.76414E-05-2.00092E-03-2.75656E-14-2.13214E-13
 -1      2789 1.99996E+01 3.29643E-03 7.59951E-05 2.89742E-03-1.26798E-14 4.07938E-14
 -1      2790 1.99992E+01 2.31131E-03-7.04551E-06 3.83419E-03 3.91494E-14 9.32816E-14
 -1      2791 2.00019E+01 4.93587E-03-5.11526E-05 1.69769E-03 1.00656E-14-2.49849E-13
 -1      2792 1.99988E+01 1.54111E-03 4.73176E-05 4.57691E-03 1.09612E-13 2.16344E-13
 -1      2793 1.99987E+01 8.61455E-04-2.09960E-06 5.04402E-03 2.55753E-13 1.83850E-13
 -1      2794 2.00009E+01 2.52156E-03-3.77616E-05 3.92077E-03 2.27970E-13 7.60316E-14
 -1      2795 1.99985E+01 3.23399E-04 2.74948E-05 5.37419E-03 2.02330E-13 2.87792E-13
 -1      2796 1.99985E+01-1.55809E-04 7.73600E-09 5.50973E-03 1.13519E-13 3.12663E-13
 -1      2797 2.00002E+01 8.42969E-04-2.72119E-05 5.09556E-03 2.62703E-13 7.28000E-14
 -1      2798 1.99984E+01-5.53416E-04 1.45239E-05 5.54771E-03 1.18675E-13 3.70325E-13
 -1      2799 1.99986E+01-9.10074E-04 3.56023E-06 5.43928E-03-1.77234E-14 4.84558E-13
 -1      2800 1.99998E+01-3.50081E-04-1.96505E-05 5.53048E-03 1.00791E-13 1.19587E-13
 -1      2801 1.99985E+01-1.19907E-03 2.09659E-07 5.31044E-03-1.82222E-13 3.64029E-13
 -1      2802 1.99988E+01-1.49468E-03 1.98499E-06 5.01238E-03-1.73775E-13 3.71635E-13
 -1      2803 1.99995E+01-1.85892E-03 5.31126E-06 5.09988E-03-1.83453E-15 4.10211E-13
 -1      2804 1.99995E+01-1.17575E-03-1.40687E-05 5.46120E-03-6.90942E-14 3.28917E-14
 -1      2805 2.24072E+01-8.27573E-01-1.21692E-02-7.62632E-01 3.17064E-14 1.76894E-13
 -1      2806 2.22222E+01-5.84415E-01 1.53527E-02-9.30554E-01 6.95615E-14 1.68714E-13
 -1      2807 2.89205E+01-1.15758E+00-1.77854E-01-9.35827E-01-4.26083E-13 4.00083E-13
 -1      2808 2.81949E+01-2.88845E+00 2.01977E-02 2.98353E-01-1.74478E-13 4.23453E-13
 -1      2809 2.19486E+01-3.65642E-01-7.08440E-03-1.00195E+00 9.50669E-14 1.24928E-13
 -1      2810 2.17970E+01-1.45371E-01 1.34508E-02-1.04288E+00 1.01884E-13 1.16210E-13
 -1      2811 2.18289E+01-5.77717E-01-1.42617E-02-1.16038E+00 6.51804E-14 7.37515E-14
 -1      2812 2.35408E+01-1.44214E+00-1.88226E-02 5.53863E-01-7.88300E-14 3.87069E-13
 -1      2813 2.34086E+01-1.39398E+00 1.02408E-02 1.56774E-01-6.83367E-14 3.41321E-13
 -1      2814 2.39411E+01-1.06332E+00-8.37403E-03 1.43586E+00 5.36517E-14 3.50558E-13
 -1      2815 2.39156E+01-1.34444E+00-6.48706E-03 1.06320E+00-3.34062E-14 3.73410E-13
 -1      2816 2.40257E+01-1.75260E+00-6.25978E-03 6.07122E-01-4.26952E-14 3.63441E-13
 -1      2817 2.39811E+01 7.18586E-02 1.33028E-02 1.98273E+00 2.83494E-13 3.44543E-13
 -1      2818 2.40668E+01-5.97091E-01-3.39173E-02 1.85376E+00 1.69081E-13 3.63097E-13
 -1      2819 2.46041E+01-1.05458E+00 3.14365E-03 1.61920E+00 1.16810E-13 3.58630E-13
 -1      2820 2.36426E+01 1.60869E+00 1.22343E-02 1.66163E+00 3.82510E-13 2.70730E-13
 -1      2821 2.37764E+01 8.16704E-01-6.09318E-02 1.96985E+00 3.25267E-13 3.26605E-13
 -1      2822 2.46600E+01 5.34280E-01 6.21623E-04 2.16378E+00 3.28598E-13 3.76595E-13
 -1      2823 2.33016E+01 2.58045E+00-1.81940E-02 3.41057E-01 5.24109E-13 1.10575E-13
 -1      2824 2.33725E+01 2.23055E+00-5.07060E-02 1.03336E+00 4.77441E-13 1.73701E-13
 -1      2825 2.43309E+01 2.37372E+00-2.40293E-02 1.54486E+00 4.88422E-13 2.06810E-13
 -1      2826 2.33866E+01 2.18005E+00-5.93765E-02-1.25804E+00 5.08508E-13-1.45991E-13
 -1      2827 2.33343E+01 2.56290E+00-9.12665E-03-5.89544E-01 5.34857E-13-6.19565E-14
 -1      2828 2.41202E+01 3.21348E+00-3.72907E-02-1.63657E-01 6.22037E-13-5.31563E-14
 -1      2829 2.38528E+01 7.68945E-01-5.64770E-02-2.18710E+00 3.48032E-13-3.25200E-13
 -1      2830 2.36888E+01 1.57213E+00 1.52785E-02-1.89345E+00 4.59660E-13-2.45619E-13
 -1      2831 2.43221E+01 2.35947E+00-2.47873E-02-1.79899E+00 5.50889E-13-3.06206E-13
 -1      2832 2.41363E+01-6.38978E-01-3.37477E-02-2.01637E+00 1.77628E-13-4.19111E-13
 -1      2833 2.40336E+01 1.36972E-02 7.65931E-03-2.16094E+00 2.43281E-13-3.50044E-13
 -1      2834 2.47012E+01 4.21980E-01-1.18843E-02-2.32311E+00 3.29983E-13-3.43191E-13
 -1      2835 2.39854E+01-1.36102E+00-4.26728E-03-1.21254E+00-3.99420E-16-3.66171E-13
 -1      2836 2.40058E+01-1.08673E+00-6.06671E-03-1.59273E+00 7.37187E-14-3.76576E-13
 -1      2837 2.46208E+01-1.07885E+00 1.06097E-02-1.77585E+00 1.11306E-13-3.59013E-13
 -1      2838 2.34762E+01-1.40468E+00 1.14364E-02-2.93497E-01-6.71583E-14-2.47299E-13
 -1      2839 2.36050E+01-1.45247E+00-1.68365E-02-6.96350E-01-3.48597E-14-2.52349E-13
 -1      2840 2.40322E+01-1.76066E+00 2.00237E-03-7.53661E-01-7.57768E-14-2.77325E-13
 -1      2841 2.28437E+01-1.08267E+00 1.41002E-02 4.25083E-01-1.16809E-13-1.07057E-13
 -1      2842 2.30320E+01-1.27749E+00-1.70948E-02 1.10194E-01-4.53882E-14-1.59388E-13
 -1      2843 2.31972E+01-1.67574E+00-1.05250E-02 1.77351E-01-1.36991E-13-1.35703E-13
 -1      2844 2.22521E+01-6.67630E-01 1.17505E-02 8.70809E-01-1.19618E-13-9.11974E-14
 -1      2845 2.24544E+01-8.82432E-01-1.25246E-02 6.73079E-01-1.13590E-13-6.29646E-14
 -1      2846 2.24006E+01-1.22326E+00-1.44121E-02 8.07574E-01-1.17689E-13-5.82752E-14
 -1      2847 2.17653E+01-3.09005E-01 8.04017E-03 1.08282E+00-6.19712E-14-1.64338E-13
 -1      2848 2.19565E+01-4.82547E-01-7.13281E-03 9.87407E-01-6.64870E-14-1.14601E-13
 -1      2849 2.17639E+01-7.13313E-01-1.22538E-02 1.14491E+00-6.29280E-14-7.01852E-14
 -1      2850 2.13851E+01-5.39200E-02 4.78787E-03 1.13012E+00 9.30360E-14-1.87482E-13
 -1      2851 2.15562E+01-1.71724E-01-2.92463E-03 1.10903E+00 2.42135E-14-2.05112E-13
 -1      2852 2.12996E+01-2.96523E-01-8.58591E-03 1.26576E+00 3.93745E-14-1.63891E-13
 -1      2853 2.10912E+01 1.02587E-01 2.46331E-03 1.07495E+00-3.54667E-15-2.53832E-13
 -1      2854 2.12408E+01 3.36409E-02-1.08009E-04 1.10114E+00 9.00775E-14-1.94260E-13
 -1      2855 2.09734E+01-1.04192E-02-5.44055E-03 1.24761E+00 6.62606E-14-2.92079E-13
 -1      2856 2.08614E+01 1.83614E-01 9.95462E-04 9.64009E-01-2.05405E-13-3.08573E-13
 -1      2857 2.09907E+01 1.50471E-01 1.59575E-03 1.01619E+00-1.81764E-13-1.70901E-13
 -1      2858 2.07437E+01 1.59612E-01-3.31593E-03 1.14923E+00-9.73618E-14-1.97075E-13
 -1      2859 2.06789E+01 2.13733E-01 1.68891E-04 8.29182E-01-8.48367E-14-3.41983E-13
 -1      2860 2.07895E+01 2.03978E-01 2.50842E-03 8.92420E-01-8.42670E-14-2.99627E-13
 -1      2861 2.05777E+01 2.43667E-01-2.05255E-03 1.01106E+00-1.24867E-13-2.19488E-13
 -1      2862 2.05320E+01 2.12816E-01-2.40623E-04 6.90689E-01-1.92416E-13-1.68981E-13
 -1      2863 2.06254E+01 2.16874E-01 2.88498E-03 7.55409E-01-1.70460E-13-3.03652E-13
 -1      2864 2.04532E+01 2.70890E-01-1.36120E-03 8.59440E-01-1.23651E-13-1.28388E-13
 -1      2865 2.04129E+01 1.94985E-01-4.02993E-04 5.60356E-01-1.85170E-13-2.09165E-13
 -1      2866 2.04908E+01 2.06242E-01 2.91296E-03 6.20982E-01-1.36973E-13-2.44266E-13
 -1      2867 2.03565E+01 2.64053E-01-1.00271E-03 7.10601E-01-1.70079E-13-1.45746E-13
 -1      2868 2.03166E+01 1.69459E-01-4.31187E-04 4.44289E-01-1.50182E-13-6.47194E-14
 -1      2869 2.03804E+01 1.83690E-01 2.73007E-03 4.97996E-01-1.90801E-13-1.50355E-13
 -1      2870 2.02794E+01 2.39069E-01-8.16238E-04 5.73792E-01-2.10829E-13-2.05128E-13
 -1      2871 2.02393E+01 1.41856E-01-3.94227E-04 3.44892E-01-4.70521E-14 1.09986E-13
 -1      2872 2.02907E+01 1.56540E-01 2.43417E-03 3.90627E-01-2.74033E-14 2.88050E-14
 -1      2873 2.02172E+01 2.06228E-01-7.07770E-04 4.53552E-01-1.64180E-13 4.59193E-14
 -1      2874 2.01777E+01 1.15352E-01-3.31500E-04 2.62300E-01 9.21967E-14 1.14275E-13
 -1      2875 2.02185E+01 1.29104E-01 2.09182E-03 3.00082E-01-2.93697E-14 1.36273E-13
 -1      2876 2.01669E+01 1.71756E-01-6.28908E-04 3.51368E-01-8.74094E-14 5.55142E-14
 -1      2877 2.01295E+01 9.15561E-02-2.63935E-04 1.95361E-01 7.68034E-14 6.49667E-14
 -1      2878 2.01612E+01 1.03708E-01 1.74581E-03 2.25801E-01 1.53705E-13 1.25888E-13
 -1      2879 2.01265E+01 1.39133E-01-5.58341E-04 2.66851E-01 5.75888E-14 5.98051E-14
 -1      2880 2.00921E+01 7.11166E-02-2.01607E-04 1.42279E-01-5.00192E-14 1.20456E-13
 -1      2881 2.01164E+01 8.14358E-02 1.42162E-03 1.66272E-01 7.90570E-14 9.34330E-14
 -1      2882 2.00942E+01 1.10091E-01-4.89022E-04 1.98545E-01 3.35868E-14 2.10336E-14
 -1      2883 2.00638E+01 5.41225E-02-1.48547E-04 1.01026E-01-1.60440E-13 8.73313E-14
 -1      2884 2.00820E+01 6.26260E-02 1.13268E-03 1.19556E-01-1.31098E-13 7.29275E-14
 -1      2885 2.00689E+01 8.52825E-02-4.20414E-04 1.44474E-01-5.73298E-14-4.73662E-14
 -1      2886 2.00426E+01 4.03565E-02-1.05606E-04 6.95839E-02 1.20795E-13 5.98612E-14
 -1      2887 2.00560E+01 4.71927E-02 8.84399E-04 8.36145E-02-5.13528E-14 5.49816E-14
 -1      2888 2.00492E+01 6.47384E-02-3.54295E-04 1.02500E-01-7.91891E-14-1.37915E-13
 -1      2889 2.00271E+01 2.94528E-02-7.21081E-05 4.60877E-02 9.57625E-14-2.83918E-14
 -1      2890 2.00367E+01 3.48306E-02 6.77091E-04 5.64985E-02 1.91058E-13-1.86059E-14
 -1      2891 2.00342E+01 4.81492E-02-2.92737E-04 7.05330E-02 1.82517E-13-5.84065E-14
 -1      2892 2.00161E+01 2.09923E-02-4.67579E-05 2.88913E-02 1.02126E-13-2.10701E-14
 -1      2893 2.00228E+01 2.51377E-02 5.08119E-04 3.64510E-02 9.69157E-14 1.78108E-14
 -1      2894 2.00230E+01 3.50449E-02-2.37297E-04 4.66572E-02 1.06017E-13-1.02055E-13
 -1      2895 2.00084E+01 1.45568E-02-2.81163E-05 1.65916E-02 2.44572E-13-7.36864E-15
 -1      2896 2.00129E+01 1.76893E-02 3.73293E-04 2.19499E-02 2.21867E-13 5.08574E-14
 -1      2897 2.00148E+01 2.49021E-02-1.88814E-04 2.91899E-02 1.25828E-13 3.43966E-14
 -1      2898 2.00033E+01 9.75914E-03-1.48396E-05 8.02546E-03-2.50528E-14 1.76005E-13
 -1      2899 2.00062E+01 1.20783E-02 2.67819E-04 1.17165E-02 7.68302E-14 1.07604E-13
 -1      2900 2.00089E+01 1.72056E-02-1.47488E-04 1.67008E-02 1.07993E-13 2.23542E-13
 -1      2901 2.00001E+01 6.25597E-03-5.78546E-06 2.25142E-03-1.30751E-13 2.06871E-13
 -1      2902 2.00018E+01 7.93685E-03 1.86885E-04 4.70444E-03-1.44912E-14 2.89776E-13
 -1      2903 2.00048E+01 1.14812E-02-1.13041E-04 8.00578E-03-6.78503E-14 3.51726E-13
 -1      2904 1.99982E+01 3.75221E-03-4.28876E-08-1.47482E-03-2.27079E-13 5.12337E-14
 -1      2905 1.99991E+01 4.94407E-03 1.26009E-04 7.67562E-05-2.65546E-13 4.38572E-14
 -1      2906 2.00021E+01 7.31053E-03-8.48842E-05 2.14821E-03-8.83381E-14 3.57281E-13
 -1      2907 1.99973E+01 1.99884E-03 3.06432E-06-3.72762E-03-1.09351E-13-4.40369E-14
 -1      2908 1.99976E+01 2.82695E-03 8.12139E-05-2.82011E-03-1.55585E-13-1.56287E-14
 -1      2909 2.00003E+01 4.33485E-03-6.22675E-05-1.62739E-03-1.75008E-13 3.23283E-14
 -1      2910 1.99970E+01 7.87659E-04 4.00940E-06-4.93755E-03 2.12611E-14 6.85089E-14
 -1      2911 1.99969E+01 1.35644E-03 4.91164E-05-4.48349E-03 7.84046E-14 4.95311E-14
 -1      2912 1.99993E+01 2.25152E-03-4.44371E-05-3.90307E-03-7.96724E-14-9.38012E-14
 -1      2913 1.99971E+01-5.54811E-05 3.13668E-06-5.41495E-03-1.13372E-13 7.57277E-14
 -1      2914 1.99968E+01 3.41188E-04 2.69211E-05-5.27943E-03-9.22352E-14 7.65995E-14
 -1      2915 1.99988E+01 8.07606E-04-3.06686E-05-5.11430E-03-4.04509E-14-4.41042E-15
 -1      2916 1.99975E+01-6.76780E-04 5.71062E-07-5.37074E-03 1.40841E-13 3.48930E-13
 -1      2917 1.99971E+01-3.79724E-04 1.22756E-05-5.46481E-03-1.06822E-14 2.87815E-13
 -1      2918 1.99986E+01-2.08302E-04-2.02550E-05-5.57463E-03-1.87405E-13-9.41805E-14
 -1      2919 1.99980E+01-1.19272E-03-3.41680E-06-4.93029E-03 2.15950E-13 4.49883E-13
 -1      2920 1.99975E+01-9.47319E-04 5.35834E-07-5.20539E-03 3.02019E-13 5.06761E-13
 -1      2921 1.99986E+01-9.67239E-04-9.52223E-06-5.49963E-03 7.24228E-14 2.40337E-13
 -1      2922 1.99986E+01-1.72411E-03-1.06592E-05-4.31383E-03 1.13073E-14 4.69598E-13
 -1      2923 1.99982E+01-1.47563E-03-1.11539E-05-4.73714E-03 8.18961E-14 4.22032E-13
 -1      2924 1.99990E+01-1.62093E-03 6.91306E-06-5.11412E-03 1.28029E-13 2.98251E-13
 -1      2925 1.99994E+01-2.29709E-03 1.47262E-05-4.57915E-03 1.05114E-13-1.24010E-13
 -1      2926 2.00025E+01-4.42034E-03 8.32380E-06-3.52059E-04 9.71905E-14-2.69321E-13
 -1      2927 2.00024E+01-4.36768E-03 5.77952E-06-1.01418E-03 1.44691E-13-1.78736E-13
 -1      2928 2.00019E+01-4.00989E-03 1.16836E-05-2.93305E-03 9.96747E-14-2.63523E-13
 -1      2929 2.00016E+01-3.75326E-03 1.10692E-06-3.42451E-03 2.20665E-13-2.94836E-13
 -1      2930 2.00024E+01-4.36620E-03 6.19461E-06 1.03306E-03-1.22958E-13-3.65766E-14
 -1      2931 2.00025E+01-4.42046E-03 8.26421E-06 3.71221E-04-6.89852E-14-1.84240E-13
 -1      2932 2.00031E+01-3.57553E-03-3.07292E-06 9.86712E-06-1.03721E-13-3.97681E-13
 -1      2933 2.00023E+01-4.30260E-03 1.04247E-05-1.71093E-03 9.66223E-14-1.13073E-13
 -1      2934 2.00021E+01-4.14500E-03 2.72296E-06-2.31790E-03 1.59399E-13-1.72776E-13
 -1      2935 2.00025E+01-3.34511E-03-4.27543E-06-2.77646E-03-1.09932E-14-2.18546E-13
 -1      2936 2.00029E+01-3.51883E-03-3.41512E-06-1.43789E-03 1.94359E-13-2.08885E-13
 -1      2937 2.16226E+01 4.58507E-02-3.61072E-03-9.91611E-01 1.51037E-13 1.08000E-13
 -1      2938 2.15232E+01 2.38481E-01 1.26477E-02-9.19691E-01 2.02962E-13 1.45229E-13
 -1      2939 2.14286E+01-4.31094E-02-1.14885E-02-1.14781E+00 1.40874E-13 3.21830E-14
 -1      2940 2.00021E+01-4.14757E-03 3.08293E-06 2.31483E-03-8.78013E-14 1.49495E-13
 -1      2941 2.00023E+01-4.30293E-03 1.05016E-05 1.71824E-03-1.98525E-13 1.33234E-13
 -1      2942 2.00029E+01-3.51974E-03-2.94103E-06 1.44542E-03-7.03878E-14-4.15789E-14
 -1      2943 2.00016E+01-3.76051E-03-2.25110E-06 3.42611E-03 1.03584E-13-1.79500E-13
 -1      2944 2.00019E+01-4.01273E-03 1.30592E-05 2.93016E-03 1.28315E-13 6.29310E-14
 -1      2945 2.00025E+01-3.34702E-03-3.24500E-06 2.77318E-03 4.41610E-14 2.76269E-13
 -1      2946 2.00008E+01-3.22156E-03-1.71638E-05 4.24449E-03 1.32402E-13 3.56239E-13
 -1      2947 2.00013E+01-3.54681E-03 2.15841E-05 3.89601E-03 2.06034E-13 8.44624E-14
 -1      2948 2.00018E+01-3.04107E-03-4.40120E-06 3.88211E-03 2.49652E-13 3.65630E-14
 -1      2949 2.00000E+01-2.81156E-03 1.90215E-05 4.45622E-03 4.85702E-15 4.27710E-13
 -1      2950 8.10407E+00-1.45965E+00 2.16594E-01-3.70515E+00 3.88078E-13 1.16365E-12
 -1      2951 9.62181E+00-2.16011E+00 1.18048E-01-4.99238E+00 4.27935E-13 1.18078E-12
 -1      2952 2.96912E+01 1.23773E+00-1.60914E-01-1.66601E+00 8.69096E-13-5.06400E-13
 -1      2953 2.90963E+01-6.93346E-01-9.00498E-02-9.93313E-01 6.53907E-13-5.75373E-13
 -1      2954 2.86171E+01-2.08478E+00-9.77384E-03 4.96020E-01-9.50906E-14-3.51913E-13
 -1      2955 2.91265E+01-2.05396E-01-2.00448E-01 1.54522E+00-3.45460E-13-5.40429E-13
 -1      2956 2.72623E+01 5.58873E+00-2.37455E-01-1.81131E-01-1.03084E-12-5.37400E-14
 -1      2957 2.76957E+01 5.06883E+00-1.41324E-01-1.23982E+00-9.62064E-13 1.23547E-13
 -1      2958 1.66397E+01-4.32366E+00 6.03654E-02 6.15002E+00-3.86496E-13 2.93404E-13
 -1      2959 1.39847E+01-3.47543E+00 1.12852E-01 5.98305E+00-5.09384E-13 4.97158E-13
 -1      2960 2.29695E+01-1.25770E+00-1.76954E-02-2.38367E-01-3.88383E-14 2.69074E-13
 -1      2961 2.27845E+01-1.04744E+00 1.59060E-02-5.38263E-01-1.54137E-14 2.28498E-13
 -1      2962 2.24284E+01-1.15968E+00-1.57545E-02-8.99411E-01-1.63538E-14 1.57592E-13
 -1      2963 2.32059E+01-1.65563E+00-1.44174E-02-3.06886E-01-7.55634E-14 3.17020E-13
 -1      2964 2.10667E+01 1.23721E+00 6.86495E-03 2.33866E-01-2.62283E-13-2.76153E-13
 -1      2965 2.10736E+01 9.75335E-01-2.42963E-03 5.31028E-01-2.17921E-13-2.59597E-13
 -1      2966 2.07609E+01 1.07287E+00-4.58283E-03 6.91584E-01-1.90394E-13-3.03951E-13
 -1      2967 1.89562E+01 3.16002E+00-1.35893E-03-4.46751E-02 4.18586E-13-3.99474E-13
 -1      2968 1.86417E+01 3.31441E+00-9.66910E-03-1.00119E-01 3.64420E-13-4.63133E-13
 -1      2969 1.85475E+01 3.12353E+00 5.96023E-03-2.32020E-01 3.19995E-13-4.48567E-13
 -1      2970 1.91893E+01 2.72789E+00 3.28331E-03-2.13536E-01 3.86001E-13-3.43992E-13
 -1      2971 2.14256E+01 4.14574E-01-1.76267E-03-7.67779E-01 2.64513E-13 1.36425E-13
 -1      2972 2.13876E+01 6.07601E-01 1.33961E-02-5.88745E-01 3.00604E-13 1.54358E-13
 -1      2973 2.10881E+01 9.12078E-01-4.17545E-03-4.90655E-01 3.61079E-13 5.49989E-14
 -1      2974 2.11977E+01 4.33603E-01-7.85991E-03-9.13868E-01 2.46282E-13 4.52579E-14
 -1      2975 2.71365E+01 5.76871E+00-1.58614E-01 1.16854E-01 1.04070E-12 2.00291E-14
 -1      2976 2.76384E+01 5.50536E+00-1.40793E-01-1.23130E+00 1.03423E-12-1.16532E-13
 -1      2977 2.04646E+01 2.49327E+00-2.24149E-04-4.83993E-01-3.04350E-13-4.63535E-13
 -1      2978 1.85632E+01 3.37799E+00-9.00542E-03 7.78671E-02-1.81720E-14-5.72590E-13
 -1      2979 1.88713E+01 3.22382E+00-2.83850E-03 3.53441E-02-8.59774E-14-5.73205E-13
 -1      2980 2.93453E+01 2.52488E+00-8.18605E-02 2.17822E+00-6.90198E-13-5.45272E-13
 -1      2981 2.94391E+01 4.28707E+00-2.09374E-01 1.93187E+00-9.86905E-13-4.32251E-13
 -1      2982 2.83965E+01 3.84575E+00-1.00465E-01 2.05509E+00 7.85816E-13 4.26242E-13
 -1      2983 2.75582E+01 5.05948E+00-1.84657E-01 1.38413E+00 9.81520E-13 3.13173E-13
 -1      2984 2.88062E+01-2.08122E-01-1.70533E-02 1.49060E+00 3.25601E-13 4.32335E-13
 -1      2985 2.85737E+01 1.92235E+00-2.12341E-01 1.98433E+00 5.91083E-13 4.42868E-13
 -1      2986 2.25797E+01-5.10582E+00 5.82103E-02-4.56473E+00-4.26451E-13-1.67085E-13
 -1      2987 2.48980E+01-5.09673E+00-9.04234E-02-3.37239E+00-2.67952E-13 9.81160E-15
 -1      2988 9.44119E+00-2.03670E+00 1.20880E-01-4.91500E+00-2.68757E-13-9.98146E-13
 -1      2989 1.16524E+01-3.06170E+00 1.15529E-01-6.10331E+00-3.42670E-13-9.03611E-13
 -1      2990 2.70260E+01-3.94775E+00 5.56576E-02-1.53247E+00-8.79297E-14 1.98314E-13
 -1      2991 2.82528E+01-2.60751E+00-1.78576E-01-1.07350E-02 1.35307E-13 3.07046E-13
 -1      2992 7.88505E+00-2.30497E-01 1.41679E-01-1.27359E+00 6.80810E-14-1.03983E-12
 -1      2993 8.60034E+00-8.85009E-01 1.93273E-01-3.45065E+00-1.06137E-13-1.06892E-12
 -1      2994 2.07069E+01-5.37584E+00-8.62616E-02 5.60904E+00 3.73285E-13 1.46168E-14
 -1      2995 1.76593E+01-4.68993E+00 1.80201E-01 6.23856E+00 4.21052E-13-2.17444E-13
 -1      2996 2.65352E+01-4.59319E+00-1.28036E-01 2.27039E+00 3.42920E-14 3.00870E-13
 -1      2997 2.43021E+01-5.08031E+00 1.08721E-01 3.79225E+00 2.75099E-13 1.72078E-13
 -1      2998 2.90476E+01 3.23173E+00-1.58132E-01-2.06329E+00-9.15878E-13 3.78891E-13
 -1      2999 2.93238E+01 1.08132E+00-7.05032E-02-1.85409E+00-6.79110E-13 4.02567E-13
 -1      3000 2.81925E+01-4.75800E-01-6.08979E-02-1.68005E+00-4.05766E-13 3.92270E-13
 -1      3001 2.82566E+01 4.60938E+00-2.33016E-01-1.95627E+00 1.06401E-12-2.76126E-13
 -1      3002 2.93876E+01 3.12249E+00-9.78406E-02-2.08521E+00 1.01974E-12-4.05953E-13
 -1      3003 2.82981E+01 1.75723E+00-7.59864E-02-2.22067E+00 7.38576E-13-5.67477E-13
 -1      3004 1.36517E+01-3.99904E+00 8.68003E-04 6.55355E+00 3.91465E-13-4.57356E-13
 -1      3005 1.02524E+01-2.80263E+00 1.74446E-01 5.56842E+00 3.91423E-13-7.82041E-13
 -1      3006 1.17446E+01-3.15328E+00 1.39242E-01-5.81460E+00 5.43524E-13 1.01055E-12
 -1      3007 1.47424E+01-4.13408E+00 6.73188E-02-6.33153E+00 4.85972E-13 5.57832E-13
 -1      3008 1.21113E+01-2.17655E+00 1.52357E-01-5.03289E+00 5.48631E-13 9.41358E-13
 -1      3009 2.53744E+01-4.86372E+00 2.15290E-02-2.86208E+00 2.74697E-13 1.57693E-13
 -1      3010 2.73811E+01-3.93001E+00-1.10827E-01-1.33351E+00 9.01848E-14-8.92758E-14
 -1      3011 1.92200E+01 2.99495E+00-9.86371E-03 1.34969E-02-1.34458E-13-5.61672E-13
 -1      3012 1.96018E+01 2.77935E+00-5.60518E-03-6.42761E-02-1.99528E-13-5.54659E-13
 -1      3013 1.90989E+01 2.80882E+00 4.57059E-03 2.09227E-01-9.47415E-14-5.19038E-13
 -1      3014 1.79262E+01 3.49473E+00 7.36987E-03-3.57367E-02 1.82583E-13-5.02757E-13
 -1      3015 1.79229E+01 3.73700E+00-5.71759E-03 3.06481E-03 1.76335E-13-5.52511E-13
 -1      3016 1.79840E+01 3.71144E+00-3.91668E-03 1.11289E-02 1.23367E-13-5.80014E-13
 -1      3017 2.63445E+01 4.67277E+00-1.10815E-01 6.92586E-01 8.59091E-13 8.52513E-14
 -1      3018 2.74245E+01-3.08976E+00-3.68804E-02 2.74682E-02 4.08059E-14-3.33039E-13
 -1      3019 1.74066E+01-4.44347E+00 1.13674E-01-5.95604E+00 4.70124E-13 2.85785E-13
 -1      3020 1.96925E+01-4.63458E+00 2.39367E-03-5.13216E+00 5.21062E-13 2.07508E-13
 -1      3021 1.63717E+01-3.53262E+00 9.16002E-02-5.63788E+00 5.61828E-13 3.73257E-13
 -1      3022 2.49271E+01-5.03996E+00 1.21887E-02 3.44254E+00-9.11216E-14-3.33955E-13
 -1      3023 2.34303E+01-5.03381E+00 8.40166E-02 3.94914E+00-3.19453E-13-2.96600E-13
 -1      3024 2.58323E+01-4.59879E+00-5.58832E-02 2.06436E+00-1.65340E-13-5.72570E-13
 -1      3025 2.07523E+01-4.95393E+00-3.68354E-02 4.97407E+00-4.19303E-13-6.30745E-14
 -1      3026 1.87788E+01-4.60317E+00 1.09569E-01 5.64371E+00-4.14307E-13 1.35079E-13
 -1      3027 1.81918E+01-3.86723E+00 8.14190E-02 5.37098E+00-5.35579E-13 4.76702E-14
 -1      3028 1.28395E+01-2.72232E+00 1.38020E-01 5.63892E+00-5.17725E-13 6.76403E-13
 -1      3029 1.16390E+01-1.80483E+00 1.08742E-01 4.84340E+00-4.90115E-13 7.03812E-13
 -1      3030 1.50746E+01-2.74019E+00 8.61819E-02 5.32920E+00-5.74658E-13 3.82236E-13
 -1      3031 2.68690E+01-3.75970E+00-3.37284E-02 8.43229E-01-3.57006E-15 3.45307E-13
 -1      3032 2.00000E+01-2.65692E-03-4.01855E-06-4.48376E-03 2.49482E-13-6.32548E-13
 -1      3033 1.99998E+01-2.28417E-03-1.30246E-05-4.82112E-03 3.52209E-15-4.65759E-13
 -1      3034 2.00005E+01-3.06407E-03 1.25196E-05-4.40264E-03 1.22354E-13-5.20008E-13
 -1      3035 2.08619E+01 1.73067E+00-5.12446E-03 1.71679E-01 4.84443E-13 4.02759E-14
 -1      3036 2.07177E+01 1.55500E+00 9.21409E-05-1.44741E-01 4.29274E-13-1.99971E-14
 -1      3037 7.03263E+00-1.01329E+00 1.99498E-01 2.33775E+00-1.37404E-13 1.15055E-12
 -1      3038 7.43109E+00-3.83892E-01 8.47119E-02 8.99586E-01-7.00984E-14 9.47686E-13
 -1      3039 9.05224E+00-9.30368E-01 1.24760E-01 3.23998E+00-2.98612E-13 9.81770E-13
 -1      3040 2.00004E+01-2.54940E-03-5.29936E-06 4.66982E-03 1.78449E-13 3.14040E-13
 -1      3041 1.04063E+01-1.60294E+00 1.64853E-01 4.43282E+00 4.30794E-13-8.35942E-13
 -1      3042 8.11105E+00-8.47955E-01 1.56477E-01-2.44581E+00 2.24099E-13 1.01477E-12
 -1      3043 2.81274E+01-1.11572E+00-6.46943E-02-1.42433E+00 4.06751E-13-8.14723E-13
 -1      3044 2.85937E+01-2.12812E+00-8.20262E-02-3.79026E-01 3.94570E-13-6.12510E-13
 -1      3045 2.74867E+01-3.16646E+00-3.57000E-02 3.13602E-01 9.83514E-14-6.58987E-13
 -1      3046 1.07276E+01-1.01695E+00 1.36619E-01-3.95160E+00-2.01256E-13-9.01432E-13
 -1      3047 2.82881E+01 8.33287E-01-6.20678E-02 2.18627E+00-4.20247E-13-6.54157E-13
 -1      3048 2.27749E+01-4.90707E+00 4.39174E-02 4.18678E+00 3.62946E-13 1.17004E-13
 -1      3049 8.25957E+00 9.71512E-02 2.20197E-01-1.87480E-01 1.51885E-13-1.03262E-12
 -1      3050 9.76771E+00 2.60498E-01 8.02935E-02-1.41536E+00 2.62360E-14-9.05914E-13
 -1      3051 8.95056E+00 9.56985E-02 1.18403E-01 9.68276E-01 2.43250E-13-9.26495E-13
 -1      3052 2.58826E+01-4.33692E+00 4.93602E-03-1.94121E+00-2.30878E-13 1.34961E-13
 -1      3053 1.81126E+01 3.63011E+00-7.93624E-03 6.62673E-02 7.66659E-14-5.74409E-13
 -1      3054 1.83094E+01 3.53946E+00-2.84256E-03 5.64119E-02 1.57775E-14-5.69928E-13
 -1      3055 1.84585E+01 3.18870E+00 4.79968E-03 1.95319E-01 2.14645E-15-5.16768E-13
 -1      3056 1.80488E+01 3.42515E+00 5.88173E-03 1.02838E-01 9.11320E-14-5.38565E-13
 -1      3057 2.90876E+01 5.28492E+00-1.61322E-01 1.66763E+00-1.10445E-12-3.85400E-13
 -1      3058 2.80567E+01 5.95449E+00-1.95955E-01 8.99470E-01-1.13615E-12-2.67376E-13
 -1      3059 2.12773E+01-4.95146E+00 4.30585E-02-5.09821E+00-4.69139E-13-2.85008E-13
 -1      3060 2.26104E+01-4.64757E+00-8.23712E-06-4.00117E+00-4.30461E-13-6.92849E-14
 -1      3061 1.96582E+01-4.25918E+00 6.44246E-02-5.28026E+00-4.42535E-13-3.19869E-13
 -1      3062 1.49488E+01-3.30500E+00 1.20292E-01-5.88974E+00-4.29171E-13-6.76265E-13
 -1      3063 2.00013E+01-3.61386E-03 1.22600E-05-3.82596E-03 1.99991E-13-3.54607E-13
 -1      3064 2.00009E+01-3.27532E-03 2.93957E-07-4.14150E-03 1.33670E-13-4.02653E-13
 -1      3065 2.00010E+01-2.79535E-03-9.41086E-06-4.47127E-03 1.75862E-13-5.27592E-13
 -1      3066 2.00018E+01-3.10511E-03-7.12377E-06-3.80604E-03 2.69249E-13-3.42865E-13
 -1      3067 2.77796E+01-1.56340E+00-5.21271E-02 1.02320E+00 1.69968E-13 4.22343E-13
 -1      3068 2.73733E+01 2.17620E+00-6.69343E-02 2.18136E+00 5.58151E-13 4.53214E-13
 -1      3069 2.00967E+01 2.43876E+00-5.36177E-03-1.21025E-01-2.17312E-13-5.06721E-13
 -1      3070 2.08133E+01 1.88277E+00-4.23704E-03-2.37698E-01-3.12059E-13-3.85876E-13
 -1      3071 2.09141E+01 1.49835E+00 1.30324E-03 8.32439E-02-2.81868E-13-3.29019E-13
 -1      3072 1.99625E+01 2.24495E+00 4.80631E-03 1.50836E-01-1.94162E-13-4.90313E-13
 -1      3073 2.76685E+01 4.08430E+00-7.31333E-02 2.05874E+00-8.11601E-13-6.52742E-13
 -1      3074 2.27693E+01-4.90387E+00 5.97574E-02-4.00866E+00 4.36290E-13 2.84816E-13
 -1      3075 2.42455E+01-5.12289E+00 2.48328E-02-3.53555E+00 4.18887E-13 2.59098E-13
 -1      3076 2.51187E+01-4.60881E+00-3.04105E-02-2.12523E+00 3.40981E-13-2.09624E-14
 -1      3077 2.05839E+01 1.62084E+00-2.20180E-03 2.60856E-01-2.14184E-13-3.65644E-13
 -1      3078 1.63667E+01-3.78804E+00 1.26656E-01 5.95626E+00 5.10814E-13-2.65440E-13
 -1      3079 2.68224E+01 4.34787E+00-8.50380E-02-1.60662E+00 8.46739E-13-2.80383E-13
 -1      3080 2.07746E+01 1.23901E+00 4.94243E-03-4.24463E-01 3.74477E-13-2.46149E-14
 -1      3081 2.04089E+01 1.60825E+00-1.09604E-03-3.57073E-01 3.99143E-13-1.01289E-13
 -1      3082 2.08026E+01 9.62551E-01-2.60975E-03-6.90155E-01 3.18092E-13-2.03134E-14
 -1      3083 2.00058E+01 1.87491E+00-1.81017E-03-4.02009E-01 3.77895E-13-1.98015E-13
 -1      3084 2.04528E+01 8.88810E-01 6.37151E-03 1.10181E+00-1.16605E-13-2.93633E-13
 -1      3085 2.05293E+01 6.03706E-01 1.69179E-03 1.30364E+00-6.47710E-14-2.84675E-13
 -1      3086 2.06170E+01 3.04994E-01 1.01474E-02 1.51322E+00-1.79377E-14-2.14063E-13
 -1      3087 2.07800E+01-3.05794E-02 3.79427E-03 1.63725E+00 1.30737E-14-1.91495E-13
 -1      3088 2.01122E+01 5.96643E-01-8.80994E-03 1.49591E+00-9.63078E-15-2.75709E-13
 -1      3089 2.09854E+01-3.96161E-01 1.68433E-02 1.79003E+00 4.60463E-14-1.35987E-13
 -1      3090 2.12751E+01-8.17554E-01 3.93774E-03 1.81355E+00 6.88317E-14-1.34015E-13
 -1      3091 2.03475E+01-1.52030E-01-1.68604E-02 1.89971E+00 6.55084E-14-1.90248E-13
 -1      3092 2.16843E+01-1.26501E+00 2.72319E-02 1.86802E+00 7.16024E-14-8.41258E-14
 -1      3093 2.21265E+01-1.76537E+00-1.95794E-03 1.74579E+00 7.58859E-14-8.18263E-14
 -1      3094 2.08778E+01-1.09467E+00-2.76787E-02 2.17912E+00 9.68390E-14-1.03899E-13
 -1      3095 2.28401E+01-2.23971E+00 4.06811E-02 1.60321E+00 1.08812E-13-1.41215E-14
 -1      3096 2.34139E+01-2.68595E+00-1.13238E-02 1.26534E+00 9.09628E-14 4.38052E-14
 -1      3097 2.18790E+01-2.24451E+00-4.55037E-02 2.21586E+00 1.48313E-13-7.83453E-14
 -1      3098 2.44458E+01-2.99279E+00 3.59444E-02 7.86918E-01 9.87188E-14 1.34689E-13
 -1      3099 2.50047E+01-3.04931E+00-1.52671E-02 2.16431E-01 4.43534E-14 2.16748E-13
 -1      3100 2.35196E+01-3.27439E+00-4.55260E-02 1.73811E+00 1.65211E-13 4.88498E-14
 -1      3101 2.69371E+01 2.10922E-01-1.43420E-01-2.17515E+00-4.55518E-13 3.67210E-13
 -1      3102 2.70776E+01 2.07543E+00-5.60069E-02-2.30948E+00-6.86270E-13 3.20986E-13
 -1      3103 2.58540E+01-2.61864E+00-3.61759E-02 7.89256E-01 3.26900E-14-4.52817E-13
 -1      3104 2.53447E+01-3.03081E+00 1.62363E-02 1.24910E-01 1.85563E-13-3.59922E-13
 -1      3105 2.42201E+01-3.04032E+00-2.03896E-02-5.80976E-01 2.80259E-13-2.10904E-13
 -1      3106 2.36021E+01-2.77059E+00 4.02289E-02-1.08389E+00 3.27863E-13-1.42520E-13
 -1      3107 2.45886E+01-3.56096E+00-2.44056E-02-9.78848E-01 3.67316E-13-1.71940E-13
 -1      3108 2.27005E+01-2.36871E+00-2.42512E-03-1.39966E+00 2.83229E-13-8.29345E-14
 -1      3109 2.21654E+01-1.91070E+00 3.55324E-02-1.66227E+00 3.29838E-13 1.15290E-14
 -1      3110 2.26062E+01-2.87586E+00-2.55266E-02-1.85794E+00 3.66599E-13-5.27772E-14
 -1      3111 2.15743E+01-1.47109E+00 1.36372E-03-1.73813E+00 2.83511E-13 4.50559E-14
 -1      3112 2.11796E+01-1.04614E+00 1.95908E-02-1.83104E+00 2.32165E-13 1.15462E-13
 -1      3113 2.12026E+01-1.88727E+00-4.26752E-02-2.16619E+00 3.18002E-13 9.65920E-14
 -1      3114 2.08592E+01-6.92323E-01 5.65003E-03-1.77661E+00 1.29400E-13 1.31498E-13
 -1      3115 2.05959E+01-3.87745E-01 9.62561E-03-1.77298E+00 1.29438E-13 8.88129E-14
 -1      3116 2.04011E+01-9.16295E-01-2.31464E-02-2.08562E+00 2.07394E-13 1.44980E-13
 -1      3117 2.04428E+01-1.46057E-01 5.62001E-03-1.67199E+00 1.10276E-13 5.09931E-14
 -1      3118 2.02790E+01 4.57594E-02 3.80386E-03-1.61669E+00 1.14185E-13 4.51668E-15
 -1      3119 1.99898E+01-2.41814E-01-1.23991E-02-1.87986E+00 7.64148E-14 1.51186E-13
 -1      3120 2.02221E+01 1.90819E-01 4.66242E-03-1.50289E+00 1.07210E-13-4.08528E-14
 -1      3121 2.01223E+01 2.96132E-01 6.14075E-04-1.42242E+00 4.06795E-14-6.63103E-14
 -1      3122 1.98127E+01 1.79045E-01-5.95800E-03-1.63977E+00 1.10708E-13 7.29320E-14
 -1      3123 2.01157E+01 3.70365E-01 3.70906E-03-1.31000E+00-1.16340E-13-2.78852E-14
 -1      3124 2.00536E+01 4.16296E-01-1.01159E-03-1.21992E+00-1.36993E-13 1.44096E-15
 -1      3125 1.97640E+01 4.09573E-01-2.29293E-03-1.40272E+00-1.44277E-15-1.06930E-13
 -1      3126 2.00701E+01 4.43527E-01 3.01110E-03-1.11481E+00-9.86201E-14-4.94770E-15
 -1      3127 2.00292E+01 4.51979E-01-1.74441E-03-1.02446E+00-3.82811E-14-4.77715E-14
 -1      3128 1.97782E+01 5.10383E-01-4.01995E-04-1.18158E+00-1.31552E-13 2.93802E-14
 -1      3129 2.00537E+01 4.50559E-01 2.53530E-03-9.29283E-01-5.23381E-14-1.30621E-13
 -1      3130 2.00243E+01 4.37359E-01-1.97209E-03-8.44191E-01 3.90731E-14-1.25583E-13
 -1      3131 1.98175E+01 5.29251E-01 4.46350E-04-9.80897E-01-9.77326E-14 6.72221E-14
 -1      3132 2.00491E+01 4.20131E-01 2.19763E-03-7.60088E-01 1.48336E-13-2.25132E-13
 -1      3133 2.00262E+01 3.95917E-01-1.92578E-03-6.83362E-01 7.16227E-14-2.11063E-13
 -1      3134 1.98624E+01 5.00456E-01 7.30449E-04-8.02357E-01 1.23737E-14-2.84656E-13
 -1      3135 2.00480E+01 3.71289E-01 1.92895E-03-6.10624E-01-3.74558E-14-1.48038E-13
 -1      3136 2.00291E+01 3.42811E-01-1.74290E-03-5.43701E-01 1.35255E-14-1.65843E-13
 -1      3137 1.99033E+01 4.47108E-01 7.36552E-04-6.46416E-01 8.50339E-14-3.20355E-13
 -1      3138 2.00467E+01 3.15978E-01 1.68964E-03-4.82044E-01-9.04876E-15-2.93293E-13
 -1      3139 2.00307E+01 2.87275E-01-1.50374E-03-4.25236E-01-4.18566E-14-3.12523E-13
 -1      3140 1.99369E+01 3.83984E-01 6.25009E-04-5.12701E-01-7.68690E-14-2.78117E-13
 -1      3141 2.00441E+01 2.61248E-01 1.46347E-03-3.73964E-01 4.11715E-14-3.16705E-13
 -1      3142 2.00305E+01 2.34557E-01-1.25392E-03-3.26854E-01 1.11304E-13-2.88420E-13
 -1      3143 1.99625E+01 3.20032E-01 4.79892E-04-4.00138E-01 6.15022E-14-3.31737E-13
 -1      3144 2.00404E+01 2.10925E-01 1.24760E-03-2.84992E-01 1.53385E-13-1.48574E-13
 -1      3145 2.00288E+01 1.87331E-01-1.01809E-03-2.46726E-01 3.09807E-13-1.00306E-13
 -1      3146 1.99810E+01 2.60289E-01 3.41349E-04-3.07087E-01 2.28270E-13-2.14263E-14
 -1      3147 2.00357E+01 1.66788E-01 1.04485E-03-2.13146E-01 4.10377E-13-1.19385E-13
 -1      3148 2.00261E+01 1.46667E-01-8.08184E-04-1.82655E-01 3.07462E-13 8.55312E-14
 -1      3149 1.99936E+01 2.07259E-01 2.25469E-04-2.31518E-01 3.39090E-13-1.03963E-13
 -1      3150 2.00307E+01 1.29373E-01 8.59264E-04-1.56182E-01 6.54447E-14 9.38382E-14
 -1      3151 2.00228E+01 1.12683E-01-6.28608E-04-1.32324E-01-1.46266E-13 7.52056E-14
 -1      3152 2.00017E+01 1.61861E-01 1.35995E-04-1.71204E-01 2.44287E-13-1.94479E-13
 -1      3153 2.00258E+01 9.84902E-02 6.93962E-04-1.11810E-01-1.73934E-13 2.11926E-13
 -1      3154 2.00194E+01 8.49623E-02-4.79464E-04-9.34746E-02 1.51936E-14 1.85009E-13
 -1      3155 2.00065E+01 1.24073E-01 7.09475E-05-1.23884E-01-7.79350E-15 1.49039E-14
 -1      3156 2.00211E+01 7.35662E-02 5.50500E-04-7.78556E-02-1.01014E-13 1.43613E-13
 -1      3157 2.00161E+01 6.28229E-02-3.58529E-04-6.40188E-02-1.68035E-13 2.11637E-13
 -1      3158 2.00090E+01 9.33433E-02 2.61883E-05-8.73935E-02-5.52920E-14 6.73140E-14
 -1      3159 2.00170E+01 5.38509E-02 4.28922E-04-5.23428E-02-1.80892E-13 1.18633E-13
 -1      3160 2.00130E+01 4.54802E-02-2.62497E-04-4.20990E-02-1.59113E-13 4.50308E-14
 -1      3161 2.00099E+01 6.88617E-02-2.79826E-06-5.97483E-02-2.57756E-13-3.04294E-14
 -1      3162 2.00133E+01 3.85481E-02 3.28111E-04-3.35413E-02-1.42324E-13-2.98966E-14
 -1      3163 2.00104E+01 3.21461E-02-1.87708E-04-2.61142E-02-2.69546E-13-1.33617E-13
 -1      3164 2.00098E+01 4.97270E-02-2.01034E-05-3.91912E-02-2.31974E-13-3.66024E-14
 -1      3165 2.00103E+01 2.68887E-02 2.46192E-04-1.99786E-02-2.96015E-13-6.25176E-14
 -1      3166 2.00080E+01 2.20836E-02-1.30575E-04-1.47199E-02-1.13490E-13-3.09683E-14
 -1      3167 2.00090E+01 3.50460E-02-2.91106E-05-2.42118E-02-2.54841E-13 1.55766E-14
 -1      3168 2.00078E+01 1.81712E-02 1.80902E-04-1.04321E-02 1.87535E-14-9.86912E-15
 -1      3169 2.00061E+01 1.46339E-02-8.78184E-05-6.81280E-03 6.07674E-14-1.22918E-13
 -1      3170 2.00080E+01 2.39897E-02-3.24673E-05-1.35438E-02-5.35375E-14 5.14044E-14
 -1      3171 2.00057E+01 1.17788E-02 1.29865E-04-3.90949E-03 7.59768E-14-6.10985E-15
 -1      3172 2.00045E+01 9.22612E-03-5.65713E-05-1.50747E-03-2.89896E-14-1.02344E-13
 -1      3173 2.00068E+01 1.58201E-02-3.21790E-05-6.14948E-03 6.14137E-14-1.21119E-13
 -1      3174 2.00041E+01 7.18279E-03 9.07912E-05 3.77391E-04-4.46211E-14-8.04953E-15
 -1      3175 2.00033E+01 5.37569E-03-3.43962E-05 1.89142E-03 1.02273E-13 1.35532E-14
 -1      3176 2.00055E+01 9.89948E-03-2.97173E-05-1.19673E-03 1.12314E-13 8.50816E-14
 -1      3177 2.00028E+01 3.93806E-03 6.15780E-05 3.04028E-03 2.00642E-13-3.10907E-14
 -1      3178 2.00022E+01 2.67713E-03-1.93238E-05 3.91672E-03 2.77787E-13 3.27628E-14
 -1      3179 2.00044E+01 5.68731E-03-2.61295E-05 1.96684E-03 1.76783E-13-2.14657E-14
 -1      3180 2.00018E+01 1.67355E-03 4.03683E-05 4.54169E-03 2.02045E-13-1.46545E-14
 -1      3181 2.00015E+01 7.93525E-04-9.55084E-06 4.96523E-03 1.90561E-13-9.93671E-14
 -1      3182 2.00033E+01 2.73165E-03-2.21911E-05 3.84070E-03 1.83759E-13-2.74362E-13
 -1      3183 2.00011E+01 8.36269E-05 2.59596E-05 5.22075E-03 1.97347E-13 2.54078E-14
 -1      3184 2.00008E+01-5.60354E-04-5.34315E-06 5.32756E-03 4.11531E-14 2.31964E-14
 -1      3185 2.00024E+01 6.58698E-04-1.81727E-05 4.79402E-03 2.45339E-13-2.96682E-13
 -1      3186 2.67849E+01 1.90815E+00-1.15969E-01-2.48053E+00 6.24376E-13-5.32525E-13
 -1      3187 2.74967E+01 3.34669E-01-7.83533E-02-2.30773E+00 5.11202E-13-6.51701E-13
 -1      3188 2.00035E+01-2.65616E-03-4.10019E-07 1.81352E-03-1.73191E-14 3.58656E-13
 -1      3189 2.00037E+01-2.70836E-03 1.70472E-06 1.12538E-03-1.07307E-13-2.88492E-14
 -1      3190 2.52503E+01-1.33933E+00-1.72633E-02 1.51774E+00 1.27891E-13 3.11627E-13
 -1      3191 2.51101E+01-1.95332E+00-8.15138E-03 1.07750E+00-8.98847E-15 3.22800E-13
 -1      3192 2.44100E+01-2.24797E+00-2.20899E-02 3.74431E-01-4.93590E-14 2.60761E-13
 -1      3193 2.40747E+01-2.26306E+00 2.51966E-02-1.03842E-01-1.00869E-13 2.79210E-13
 -1      3194 2.50426E+01-2.61207E+00-3.83725E-02 2.97035E-01-6.54685E-14 2.75102E-13
 -1      3195 2.53251E+01 3.62655E+00-7.57091E-02 1.40838E+00 6.74336E-13 2.26827E-13
 -1      3196 2.54437E+01 2.49352E+00-1.33006E-01 1.98838E+00 5.59643E-13 3.17685E-13
 -1      3197 2.48398E+01 3.98455E+00-1.29660E-01-8.51302E-01 7.83505E-13-1.39234E-13
 -1      3198 2.48583E+01 4.15783E+00-9.68481E-02 1.08431E-01 7.63167E-13-3.80746E-14
 -1      3199 2.54567E+01-1.56214E-01-7.58783E-02-2.31968E+00 3.24400E-13-4.27191E-13
 -1      3200 2.53747E+01 1.09324E+00-1.95261E-02-2.36030E+00 4.32848E-13-4.19482E-13
 -1      3201 2.50469E+01-2.00855E+00-1.89256E-02-1.22152E+00-9.11597E-16-4.35842E-13
 -1      3202 2.52586E+01-1.33705E+00-9.01082E-03-1.71818E+00 1.51075E-13-4.49720E-13
 -1      3203 2.40019E+01-2.30057E+00 2.01681E-02-1.21566E-02-1.61157E-13-3.74561E-13
 -1      3204 2.43671E+01-2.28086E+00-1.68308E-02-5.24936E-01-9.49102E-14-4.11457E-13
 -1      3205 2.49855E+01-2.59325E+00 7.60709E-04-4.58908E-01-6.99050E-14-4.87795E-13
 -1      3206 2.28672E+01-1.84723E+00 2.64175E-02 8.24970E-01-2.31782E-13-2.76946E-13
 -1      3207 2.32579E+01-2.12788E+00-1.37309E-02 4.63035E-01-1.93546E-13-3.36342E-13
 -1      3208 2.34895E+01-2.59595E+00-1.69387E-02 7.09600E-01-2.18808E-13-4.78588E-13
 -1      3209 2.19310E+01-1.18842E+00 2.02236E-02 1.27682E+00-1.54699E-13-1.40495E-13
 -1      3210 2.22732E+01-1.53222E+00-8.06816E-03 1.07233E+00-2.02950E-13-1.91249E-13
 -1      3211 2.21994E+01-1.96430E+00-2.85610E-02 1.37430E+00-2.55152E-13-3.14429E-13
 -1      3212 2.12664E+01-5.96113E-01 1.26106E-02 1.44034E+00-5.81808E-14-1.16464E-13
 -1      3213 2.15313E+01-8.81917E-01-1.92200E-03 1.35524E+00-4.99652E-14-7.19050E-14
 -1      3214 2.12809E+01-1.17615E+00-2.23870E-02 1.62465E+00-1.46424E-13-1.68367E-13
 -1      3215 2.08337E+01-1.62278E-01 6.85131E-03 1.43128E+00 4.37169E-14-1.15530E-13
 -1      3216 2.10252E+01-3.61859E-01 1.10819E-03 1.42476E+00-2.54059E-14-6.85519E-14
 -1      3217 2.07019E+01-5.25049E-01-1.46523E-02 1.63639E+00-5.99245E-14 9.11304E-15
 -1      3218 2.05639E+01 1.14514E-01 3.07684E-03 1.32802E+00 2.66782E-14-1.78789E-14
 -1      3219 2.06998E+01-7.44694E-03 2.31264E-03 1.36854E+00 4.89510E-14-3.93542E-14
 -1      3220 2.03675E+01-7.18739E-02-8.41598E-03 1.52804E+00 9.59031E-16 1.78819E-13
 -1      3221 2.03978E+01 2.67377E-01 7.72108E-04 1.17880E+00-1.76048E-13 2.71724E-14
 -1      3222 2.04958E+01 2.03860E-01 2.65099E-03 1.24437E+00-3.29702E-14 1.71312E-14
 -1      3223 2.01882E+01 2.05399E-01-4.38391E-03 1.36541E+00-9.65254E-15 1.96951E-13
 -1      3224 2.02937E+01 3.33812E-01-4.94257E-04 1.01286E+00-8.97569E-14-9.19963E-14
 -1      3225 2.03668E+01 3.09791E-01 2.66149E-03 1.08888E+00-1.36219E-13-1.20259E-13
 -1      3226 2.00994E+01 3.50931E-01-2.04978E-03 1.18353E+00-7.30395E-14 8.40479E-14
 -1      3227 2.02254E+01 3.45269E-01-1.10141E-03 8.47795E-01-1.26251E-13-3.12076E-14
 -1      3228 2.02821E+01 3.45673E-01 2.55905E-03 9.24917E-01-1.02317E-13-5.27375E-14
 -1      3229 2.00595E+01 4.07262E-01-8.06547E-04 1.00149E+00-1.42706E-13 4.31312E-14
 -1      3230 2.01775E+01 3.24912E-01-1.31498E-03 6.93830E-01-1.88209E-13-5.59949E-14
 -1      3231 2.02228E+01 3.38969E-01 2.39934E-03 7.66433E-01-1.40158E-13 5.75944E-15
 -1      3232 2.00436E+01 4.08084E-01-2.13163E-04 8.29964E-01-9.89008E-14 4.09112E-14
 -1      3233 2.01415E+01 2.88461E-01-1.30840E-03 5.56376E-01-2.20212E-13-6.93457E-14
 -1      3234 2.01785E+01 3.09010E-01 2.19872E-03 6.21418E-01-1.86722E-13-1.26428E-13
 -1      3235 2.00382E+01 3.77527E-01 2.30336E-05 6.74781E-01-1.57558E-13 6.03588E-14
 -1      3236 2.01132E+01 2.45931E-01-1.18975E-03 4.37670E-01-2.42853E-13 2.40498E-15
 -1      3237 2.01434E+01 2.68492E-01 1.96839E-03 4.93848E-01-1.94782E-13-2.05018E-14
 -1      3238 2.00364E+01 3.31745E-01 8.08532E-05 5.38712E-01-2.42465E-13-4.93859E-14
 -1      3239 2.00900E+01 2.03307E-01-1.02376E-03 3.37888E-01-7.87302E-14-2.69039E-14
 -1      3240 2.01148E+01 2.25259E-01 1.72155E-03 3.85022E-01-8.49254E-14-4.17273E-14
 -1      3241 2.00351E+01 2.80936E-01 6.16262E-05 4.22482E-01-1.40484E-13-1.87089E-15
 -1      3242 2.00710E+01 1.63884E-01-8.47528E-04 2.55934E-01 1.62624E-14-1.27955E-14
 -1      3243 2.00910E+01 1.83831E-01 1.47211E-03 2.94530E-01-8.68111E-14-1.98399E-14
 -1      3244 2.00332E+01 2.31149E-01 1.83169E-05 3.25446E-01-5.06916E-14-9.05221E-14
 -1      3245 2.00552E+01 1.29229E-01-6.80930E-04 1.90008E-01 2.29856E-14-2.11620E-14
 -1      3246 2.00712E+01 1.46552E-01 1.23217E-03 2.20940E-01 6.98602E-14 2.51297E-14
 -1      3247 2.00305E+01 1.85661E-01-2.42506E-05 2.46096E-01-1.97369E-14-5.43046E-14
 -1      3248 2.00423E+01 9.98509E-02-5.33427E-04 1.37990E-01-5.65372E-14-5.40288E-14
 -1      3249 2.00549E+01 1.14404E-01 1.01072E-03 1.62293E-01-1.19394E-14-1.71981E-14
 -1      3250 2.00272E+01 1.45973E-01-5.65323E-05 1.82448E-01 4.99463E-14-5.82363E-14
 -1      3251 2.00319E+01 7.56401E-02-4.08366E-04 9.77026E-02 6.92397E-14-1.37652E-13
 -1      3252 2.00417E+01 8.75448E-02 8.13272E-04 1.16437E-01-2.75883E-14-1.04217E-13
 -1      3253 2.00236E+01 1.12499E-01-7.66162E-05 1.32326E-01 1.57417E-14 1.23898E-13
 -1      3254 2.00236E+01 5.61549E-02-3.05675E-04 6.70757E-02 1.43536E-13-7.09823E-14
 -1      3255 2.00311E+01 6.56747E-02 6.42313E-04 8.12462E-02 1.26045E-13-1.06476E-13
 -1      3256 2.00200E+01 8.50158E-02-8.59448E-05 9.35634E-02 7.01568E-14-7.16123E-14
 -1      3257 2.00171E+01 4.08006E-02-2.23509E-04 4.42354E-02 1.00841E-13-7.08071E-14
 -1      3258 2.00227E+01 4.82579E-02 4.98004E-04 5.47443E-02 1.89592E-13 2.66639E-14
 -1      3259 2.00166E+01 6.29622E-02-8.70756E-05 6.41281E-02 1.07544E-13-1.10992E-13
 -1      3260 2.00121E+01 2.89394E-02-1.59249E-04 2.75486E-02 5.77874E-14 1.65120E-13
 -1      3261 2.00162E+01 3.46672E-02 3.78904E-04 3.51782E-02-2.19542E-14 4.65237E-14
 -1      3262 2.00134E+01 4.56284E-02-8.26091E-05 4.21966E-02 2.79334E-14 3.01173E-14
 -1      3263 2.00083E+01 1.99536E-02-1.10070E-04 1.56341E-02-6.23031E-14 4.13886E-13
 -1      3264 2.00112E+01 2.42677E-02 2.82609E-04 2.10419E-02 1.04811E-13 3.98664E-13
 -1      3265 2.00107E+01 3.22691E-02-7.47466E-05 2.61874E-02-8.72703E-14 2.91542E-13
 -1      3266 2.00055E+01 1.32796E-02-7.32750E-05 7.35204E-03-3.37930E-14 3.12126E-13
 -1      3267 2.00075E+01 1.64646E-02 2.06253E-04 1.10776E-02-8.00392E-14 2.54514E-13
 -1      3268 2.00083E+01 2.21710E-02-6.51674E-05 1.47665E-02-2.81562E-14 3.59248E-13
 -1      3269 2.00034E+01 8.42239E-03-4.64545E-05 1.78406E-03-4.81989E-14 1.25766E-13
 -1      3270 2.00048E+01 1.07258E-02 1.46873E-04 4.25943E-03 9.21950E-15 2.11233E-13
 -1      3271 2.00063E+01 1.46865E-02-5.50910E-05 6.83572E-03 5.43211E-14 1.01092E-13
 -1      3272 2.00020E+01 4.95805E-03-2.75255E-05-1.79339E-03-1.01881E-13-2.24846E-14
 -1      3273 2.00028E+01 6.59050E-03 1.01637E-04-2.30189E-04-6.69795E-14 7.86658E-14
 -1      3274 2.00047E+01 9.24913E-03-4.53091E-05 1.51160E-03-8.04864E-15-8.12976E-16
 -1      3275 2.00010E+01 2.52986E-03-1.47926E-05-3.93652E-03-1.35208E-13-1.09706E-13
 -1      3276 2.00015E+01 3.66800E-03 6.79667E-05-3.02772E-03-1.62074E-13-8.11811E-14
 -1      3277 2.00034E+01 5.37521E-03-3.62841E-05-1.90065E-03-7.77185E-14-2.40481E-13
 -1      3278 2.00003E+01 8.39624E-04-6.86944E-06-5.06034E-03-1.24882E-13-3.80040E-15
 -1      3279 2.00006E+01 1.63067E-03 4.36430E-05-4.61575E-03 2.16733E-15-6.34734E-14
 -1      3280 2.00023E+01 2.65743E-03-2.84453E-05-3.93441E-03-1.61548E-13-1.49012E-13
 -1      3281 1.99999E+01-3.61060E-04-2.82872E-06-5.46295E-03-1.90631E-13-1.22198E-13
 -1      3282 2.00000E+01 2.05279E-04 2.67073E-05-5.34789E-03-1.93817E-13-9.44778E-14
 -1      3283 2.00015E+01 7.56511E-04-2.18732E-05-4.98675E-03-1.33364E-13 4.32244E-14
 -1      3284 1.99997E+01-1.27132E-03-7.02764E-07-5.34368E-03 1.41880E-13-1.38767E-13
 -1      3285 1.99996E+01-8.41503E-04 1.33220E-05-5.46967E-03-1.20503E-13-2.81471E-13
 -1      3286 2.00009E+01-6.08888E-04-1.52661E-05-5.34389E-03-3.64969E-14-4.50838E-13
 -1      3287 1.99998E+01-1.92451E-03-1.76061E-06-4.99381E-03 2.96396E-14-3.04922E-13
 -1      3288 1.99996E+01-1.57976E-03-5.29516E-06-5.22784E-03 1.96354E-13-2.19519E-13
 -1      3289 2.00006E+01-1.51703E-03-3.52816E-06-5.22640E-03 1.10859E-14-7.95427E-13
 -1      3290 2.00006E+01-2.22572E-03 9.43462E-06-4.90794E-03 1.25993E-13-8.55911E-13
 -1      3291 2.11896E+01-7.49848E-02-6.86761E-04-1.32416E+00 9.91748E-14-1.71123E-14
 -1      3292 2.10474E+01 2.17589E-01 1.23187E-02-1.23893E+00 1.42856E-13-2.31729E-14
 -1      3293 1.20712E+01-1.39813E+00 8.73577E-02-4.39851E+00 4.89359E-13 8.94715E-13
 -1      3294 1.40257E+01-2.35141E+00 1.07305E-01-5.28043E+00 5.85233E-13 7.43211E-13
 -1      3295 1.80839E+01 3.08428E+00-1.34595E-03-2.87891E-01 2.48126E-13-4.55049E-13
 -1      3296 1.79047E+01 3.17547E+00-6.97574E-03-2.27857E-01 1.97453E-13-4.74485E-13
 -1      3297 2.66798E+01-2.74615E+00 2.11794E-02 4.97754E-01-7.13821E-14 3.76650E-13
 -1      3298 2.66252E+01-1.09250E+00-7.35622E-02 1.62801E+00 1.58359E-13 4.25035E-13
 -1      3299 2.00038E+01-2.70946E-03 1.57216E-07 3.66646E-04-1.46138E-13-4.75905E-13
 -1      3300 2.00037E+01-2.70956E-03-2.70182E-07-3.60373E-04 4.81494E-14-6.30867E-13
 -1      3301 2.00044E+01-1.81348E-03 6.53789E-06 7.50945E-04-1.81870E-14-2.31785E-13
 -1      3302 2.00020E+01-2.32181E-03-9.59285E-06 4.22978E-03 3.40151E-13 1.44904E-13
 -1      3303 2.00025E+01-2.49866E-03 6.71504E-06 3.75838E-03 2.86276E-13 2.67300E-14
 -1      3304 2.82592E+01 4.34763E+00-1.60234E-01-1.75977E+00-9.65700E-13 2.02588E-13
 -1      3305 2.74028E+01 2.64013E+00-1.24689E-01-2.06563E+00-7.84095E-13 2.52603E-13
 -1      3306 1.24115E+01-1.83579E+00 4.83835E-02 5.06490E+00 4.97713E-13-5.90153E-13
 -1      3307 1.02441E+01-6.21187E-01 1.10175E-01 3.45755E+00 3.96294E-13-8.32612E-13
 -1      3308 2.69594E+01-1.29988E+00-3.51054E-02-1.56947E+00-2.80831E-13 3.88304E-13
 -1      3309 2.59820E+01 1.20095E+00-4.37584E-02 2.19613E+00 4.12281E-13 4.02241E-13
 -1      3310 2.65318E+01-2.44486E+00-2.96960E-02-8.58932E-01-8.94870E-14 3.33247E-13
 -1      3311 2.61451E+01-3.27488E+00-4.45792E-02 2.76429E-01 2.02815E-14 3.22365E-13
 -1      3312 2.51936E+01-4.19012E+00 7.64884E-02 1.83570E+00 2.20230E-13 2.04524E-13
 -1      3313 2.63899E+01 4.95170E+00-8.20149E-02 4.52635E-01-8.70026E-13-2.38831E-13
 -1      3314 2.00029E+01-2.53535E-03-1.37069E-06 3.14105E-03 2.86767E-13 4.22029E-13
 -1      3315 2.00033E+01-2.64737E-03 3.48982E-06 2.52382E-03 1.29378E-13 6.00376E-13
 -1      3316 2.00040E+01-1.81756E-03 5.79170E-06 2.20809E-03 2.16603E-13 6.30877E-13
 -1      3317 2.00032E+01-1.79741E-03 5.46962E-06 3.52037E-03 2.42700E-13 3.03942E-13
 -1      3318 2.60619E+01-1.76810E-01-6.59523E-02 2.10936E+00 2.75620E-13 4.10703E-13
 -1      3319 8.44682E+00 1.87694E-02 2.15105E-01-9.53425E-01 1.03595E-13 7.93643E-13
 -1      3320 9.91583E+00-3.97068E-01 8.40064E-02-2.71397E+00 2.22052E-13 9.26370E-13
 -1      3321 2.16513E+01-7.26528E-01-1.93878E-03-1.37778E+00 2.01555E-14 3.38120E-14
 -1      3322 2.14179E+01-3.81263E-01 1.71933E-02-1.40864E+00 5.37710E-14 2.64717E-14
 -1      3323 2.09022E+01-2.14886E-01-1.70626E-02-1.54946E+00 5.60038E-14-4.44408E-14
 -1      3324 1.80486E+01-3.90071E+00-5.70842E-02 5.49245E+00 4.82461E-13-1.04916E-13
 -1      3325 1.52934E+01-2.70669E+00 1.61981E-01 5.53444E+00 5.21187E-13-3.23575E-13
 -1      3326 2.56959E+01 3.49097E+00-6.67271E-02-1.76099E+00 7.35023E-13-2.85175E-13
 -1      3327 2.35162E+01-4.53775E+00-4.69882E-02 3.20428E+00 3.10092E-13 1.43365E-13
 -1      3328 2.11595E+01-4.23208E+00 1.54842E-01 4.66775E+00 4.41785E-13-9.60473E-15
 -1      3329 1.97925E+01-3.50118E+00 6.72459E-02 4.58775E+00 4.19866E-13-1.08687E-13
 -1      3330 2.34042E+01-3.92706E+00-6.19443E-03 2.58527E+00 2.41940E-13 6.58605E-14
 -1      3331 2.62017E+01-3.99830E+00 3.36832E-02-8.69884E-01 2.52864E-13-2.34854E-13
 -1      3332 2.68840E+01-2.70596E+00-5.74749E-02 6.37693E-01 6.14717E-14-4.13017E-13
 -1      3333 1.16196E+01-4.09905E-01 5.34377E-02-3.39176E+00-1.21056E-13-7.65277E-13
 -1      3334 1.28482E+01-1.39176E+00 1.18835E-01-4.76578E+00-2.76237E-13-7.13568E-13
 -1      3335 1.47502E+01-2.37357E+00 7.59404E-02-5.29805E+00-3.95260E-13-6.25333E-13
 -1      3336 1.75267E+01-3.45680E+00 3.90964E-02-5.55171E+00-4.44186E-13-4.57412E-13
 -1      3337 1.55732E+01-1.63353E+00 1.00125E-01-4.56577E+00-3.35718E-13-5.28737E-13
 -1      3338 2.03840E+01 1.45564E+00 4.38604E-03 5.84493E-01-1.56464E-13-3.96021E-13
 -1      3339 2.04168E+01 1.16580E+00-3.16893E-04 8.51449E-01-1.43265E-13-3.54179E-13
 -1      3340 2.00276E+01 1.23210E+00-4.48007E-03 1.01411E+00-1.01898E-13-3.48511E-13
 -1      3341 2.00931E+01 1.96622E+00-9.28178E-04 2.92169E-01-1.85471E-13-4.74564E-13
 -1      3342 2.02403E+01 1.70559E+00 1.64629E-03 4.43559E-01-1.78519E-13-4.33116E-13
 -1      3343 1.95898E+01 2.30661E+00-4.00559E-03 3.24625E-01-1.41117E-13-4.95238E-13
 -1      3344 2.00003E+01-2.02821E-03-1.22766E-05 4.94223E-03 1.65140E-13 4.33221E-13
 -1      3345 2.00014E+01-2.29384E-03 1.87942E-05 4.67586E-03 1.92261E-13 2.29404E-13
 -1      3346 2.00020E+01-1.77520E-03 2.90348E-06 4.57628E-03 2.16175E-13 1.03485E-13
 -1      3347 2.00004E+01-1.65969E-03-7.63283E-06 5.17445E-03-3.73168E-14 1.99579E-13
 -1      3348 1.78037E+01 3.24501E+00-3.66651E-03-8.72939E-02 1.89465E-13-4.70509E-13
 -1      3349 1.77910E+01 3.25602E+00-3.31327E-03-3.43836E-03 1.52638E-13-4.86684E-13
 -1      3350 1.77926E+01 2.98805E+00 9.36230E-03-2.09954E-01 1.76190E-13-4.50074E-13
 -1      3351 1.98647E+01 1.78876E+00-3.84758E-03 6.06875E-01-1.31031E-13-4.46483E-13
 -1      3352 1.62055E+01-2.79689E+00 7.86380E-02-5.03243E+00 5.88210E-13 4.38219E-13
 -1      3353 2.66783E+01-3.95298E+00-1.10545E-02 9.95710E-01-7.05130E-14-5.83450E-13
 -1      3354 2.53556E+01-4.32768E+00-1.61449E-03 1.76313E+00-1.97051E-13-6.09620E-13
 -1      3355 2.68362E+01-3.12236E+00-2.99744E-02-1.81272E-01-1.46020E-14-7.11292E-13
 -1      3356 2.23560E+01-4.78349E+00 2.16485E-02 3.97185E+00-4.53172E-13-3.17208E-13
 -1      3357 1.86413E+01 2.76003E+00 1.15938E-03-4.02509E-01 3.18380E-13-4.04025E-13
 -1      3358 1.83317E+01 2.92010E+00-8.71653E-03-3.86047E-01 2.70498E-13-4.30322E-13
 -1      3359 1.81756E+01 2.76006E+00 7.89339E-03-4.66820E-01 2.22372E-13-4.09748E-13
 -1      3360 1.99901E+01 1.54172E+00 2.90432E-03-7.01602E-01 3.10853E-13-1.75799E-13
 -1      3361 1.95383E+01 2.13684E+00 6.82376E-04-4.70571E-01 3.64175E-13-2.83497E-13
 -1      3362 1.72570E+01-2.95264E+00 1.09850E-01 5.04348E+00-5.75158E-13 1.10190E-13
 -1      3363 1.59185E+01-2.28302E+00 4.58164E-02 4.75697E+00-5.53710E-13 2.35492E-13
 -1      3364 2.69157E+01-1.64211E+00-6.60353E-02 1.72486E+00-7.99066E-14-5.50476E-13
 -1      3365 2.70974E+01-7.75910E-01-4.12513E-02-1.79621E+00 3.53731E-13-6.53533E-13
 -1      3366 2.69317E+01 3.67823E+00-6.36547E-02 2.11283E+00-7.21673E-13-6.50771E-13
 -1      3367 2.69404E+01 1.81498E+00-1.78331E-01 2.53100E+00-5.60482E-13-7.04409E-13
 -1      3368 2.71582E+01-2.61988E-02-4.12208E-02 2.20549E+00-3.00551E-13-6.54685E-13
 -1      3369 2.58518E+01 2.24255E+00-1.10161E-01-2.31823E+00 5.71682E-13-3.88738E-13
 -1      3370 2.00005E+01-1.23306E-03 1.56737E-05 5.25541E-03-1.52782E-15 2.32601E-13
 -1      3371 2.61150E+01-9.49708E-01-2.52843E-02-1.93641E+00 2.53568E-13-5.36168E-13
 -1      3372 1.88133E+01 2.77232E+00-5.33105E-03 3.40302E-01-5.07352E-14-4.89904E-13
 -1      3373 1.91884E+01 2.55697E+00-1.44010E-03 3.32907E-01-9.92679E-14-5.07364E-13
 -1      3374 1.93305E+01 2.30119E+00 3.60079E-03 4.68213E-01-9.01230E-14-4.89206E-13
 -1      3375 2.36046E+01-2.63867E+00-3.57657E-02-8.70226E-01-1.34524E-13 1.19888E-13
 -1      3376 2.33292E+01-2.11196E+00-1.78025E-02-6.02561E-01-1.37538E-13 2.26216E-13
 -1      3377 2.29468E+01-1.79833E+00 2.88106E-02-9.43726E-01-1.30986E-13 1.61101E-13
 -1      3378 2.00016E+01-1.00546E-03-1.10277E-05 5.06341E-03 1.16012E-13 7.93850E-14
 -1      3379 1.47914E+01-1.78055E+00 1.15954E-01 4.79461E+00 5.07379E-13-4.02817E-13
 -1      3380 1.15462E+01-5.11184E-01 1.38660E-01-3.40313E+00 3.05488E-13 9.20278E-13
 -1      3381 1.32388E+01-7.57713E-01 6.83303E-02-3.64307E+00 4.22903E-13 6.17992E-13
 -1      3382 1.12697E+01 1.42271E-01 4.03684E-02-2.10829E+00 1.26087E-13 7.18203E-13
 -1      3383 2.00033E+01-2.64064E-03 4.44513E-06-2.52522E-03 1.15964E-13-3.05503E-14
 -1      3384 2.00029E+01-2.53575E-03-1.73788E-06-3.14469E-03 1.03191E-13-1.11379E-13
 -1      3385 2.00037E+01-2.70624E-03 1.99739E-06-1.11524E-03 1.09456E-13-2.71224E-13
 -1      3386 2.00035E+01-2.65540E-03-1.61545E-06-1.81604E-03 2.34739E-13-2.31297E-13
 -1      3387 2.00040E+01-1.81487E-03 4.76609E-06-2.21252E-03 2.95466E-13-5.87409E-14
 -1      3388 2.00044E+01-1.81107E-03 6.50064E-06-7.55165E-04 1.51735E-13-5.89379E-13
 -1      3389 1.09395E+01-1.00047E+00 1.52824E-01 3.98303E+00-4.08555E-13 7.15483E-13
 -1      3390 1.03451E+01-3.27440E-01 4.37857E-02 2.77346E+00-3.19401E-13 7.41504E-13
 -1      3391 1.29350E+01-1.18675E+00 8.11099E-02 4.17806E+00-5.28935E-13 5.51489E-13
 -1      3392 2.01833E+01-3.87073E+00 5.93275E-02-4.47553E+00 5.28404E-13 1.95722E-13
 -1      3393 2.15790E+01-4.59136E+00 6.34179E-02-4.32662E+00 4.80081E-13 2.50730E-13
 -1      3394 2.28531E+01-4.39081E+00-7.21557E-03-3.13654E+00 5.32522E-13 1.66563E-13
 -1      3395 1.20237E+01 2.09093E-02 9.43913E-02 2.76919E+00 3.85108E-13-7.10820E-13
 -1      3396 1.01856E+01 2.04270E-01 1.46535E-01 2.11743E+00 2.94136E-13-8.41160E-13
 -1      3397 1.06997E+01 6.45989E-01 5.62613E-02 7.02022E-01 1.98778E-13-8.12572E-13
 -1      3398 1.87170E+01-3.41839E+00-4.59550E-03 4.68703E+00-5.93713E-13-6.75224E-14
 -1      3399 2.63302E+01 4.22117E+00-2.01420E-01 1.61469E+00-7.73770E-13-4.80050E-13
 -1      3400 1.84890E+01 2.97223E+00-1.71262E-03 2.94256E-01-1.85461E-14-4.94765E-13
 -1      3401 1.85859E+01 2.74666E+00 4.14011E-03 4.15235E-01-3.05871E-14-4.64566E-13
 -1      3402 1.82125E+01 3.11752E+00-6.95407E-03 2.59215E-01 4.43262E-14-4.93879E-13
 -1      3403 2.58318E+01-3.81104E+00-8.03801E-02-9.92085E-01-1.78512E-13 2.49016E-13
 -1      3404 2.53939E+01-3.16640E+00-1.74403E-02-2.46069E-01-1.48431E-13 2.74536E-13
 -1      3405 2.46990E+01-3.25377E+00 5.82092E-02-9.12406E-01-2.08077E-13 2.19268E-13
 -1      3406 2.46106E+01-4.34373E+00 7.86771E-02-2.42565E+00-3.30086E-13 1.13031E-13
 -1      3407 1.91405E+01 2.36568E+00-5.72047E-03-4.91267E-01 3.27269E-13-3.35770E-13
 -1      3408 2.09374E+01 4.60553E-01-1.08270E-03-1.08267E+00 2.01091E-13-3.13296E-14
 -1      3409 2.08638E+01 7.22479E-01 8.21576E-03-9.04761E-01 2.49979E-13-1.80236E-14
 -1      3410 2.04949E+01 1.00224E+00-4.23516E-03-8.68668E-01 2.90723E-13-8.15553E-14
 -1      3411 2.06250E+01 4.31762E-01-1.07772E-02-1.26756E+00 1.57356E-13-8.75532E-14
 -1      3412 1.94305E+01-3.48188E+00 7.89773E-02-4.74023E+00-4.56510E-13-3.01328E-13
 -1      3413 2.32643E+01-4.16612E+00 2.52195E-02-3.04155E+00-3.37112E-13-4.81559E-15
 -1      3414 2.00026E+01-2.53348E-03 6.10764E-06-3.66007E-03 1.68951E-13-4.37206E-13
 -1      3415 2.00021E+01-2.42867E-03-1.52080E-06-4.06637E-03 2.52352E-13-3.34082E-13
 -1      3416 2.00033E+01-1.83285E-03 6.05489E-07-3.43411E-03 1.96950E-13-2.34997E-13
 -1      3417 9.38413E+00 1.29783E-01 1.27891E-01 2.07879E-01-4.97128E-14 7.83110E-13
 -1      3418 2.50305E+01-4.17362E+00-2.02368E-03-1.57802E+00 3.25157E-13-1.23205E-13
 -1      3419 2.23663E+01-1.45939E+00-6.79697E-03-1.16622E+00-8.58064E-14 1.19443E-13
 -1      3420 2.20383E+01-1.07954E+00 2.35910E-02-1.34175E+00-3.43130E-14 9.19007E-14
 -1      3421 2.14495E+01-1.00358E+00-2.09784E-02-1.65363E+00-4.65554E-14-2.49050E-14
 -1      3422 2.23398E+01-1.88118E+00-2.55006E-02-1.47899E+00-1.43726E-13 5.41173E-14
 -1      3423 1.14912E+01 4.35594E-01 1.49603E-01-2.26811E+00-3.89480E-14-8.10310E-13
 -1      3424 1.30579E+01 2.92215E-02 5.69041E-02-2.99883E+00-1.39663E-13-6.51632E-13
 -1      3425 1.12313E+01 6.20235E-01 4.42154E-02-1.28332E+00 4.57481E-14-7.89986E-13
 -1      3426 1.96019E+01 1.00004E+00 2.06958E-03 1.40371E+00 4.69061E-15-3.24609E-13
 -1      3427 1.96764E+01 6.67553E-01 7.07379E-03 1.63613E+00 6.06028E-14-2.96042E-13
 -1      3428 2.00339E+01 1.25632E+00 2.52648E-03-9.31802E-01 2.62467E-13-1.84813E-13
 -1      3429 1.67564E+01-1.80039E+00 4.66684E-02 4.14259E+00-5.04123E-13 2.29365E-13
 -1      3430 1.49047E+01-1.51350E+00 9.90134E-02 4.44922E+00-5.58470E-13 4.17499E-13
 -1      3431 1.38209E+01-8.34886E-01 1.34430E-02 3.73705E+00-5.20573E-13 4.50903E-13
 -1      3432 1.96846E+01 2.98747E-01 5.06975E-03 1.90852E+00 9.58492E-14-2.48404E-13
 -1      3433 1.98787E+01-1.13628E-01 1.45626E-02 2.10565E+00 1.21794E-13-2.17254E-13
 -1      3434 1.91007E+01 6.77750E-01-6.50022E-03 1.83050E+00 1.08699E-13-3.00061E-13
 -1      3435 2.00075E+01-5.95660E-01 1.37741E-02 2.39037E+00 1.19195E-13-1.80704E-13
 -1      3436 2.04020E+01-1.13753E+00 2.14406E-02 2.52249E+00 1.25532E-13-1.69025E-13
 -1      3437 1.91836E+01-1.89700E-01-1.28741E-02 2.43038E+00 1.35908E-13-2.48190E-13
 -1      3438 2.07864E+01-1.73561E+00 3.78078E-02 2.77384E+00 1.72023E-13-1.34831E-13
 -1      3439 2.14394E+01-2.45027E+00 1.39171E-02 2.78566E+00 2.23932E-13-1.35159E-13
 -1      3440 1.96229E+01-1.35064E+00-1.19465E-02 3.06835E+00 1.68461E-13-2.14107E-13
 -1      3441 2.24832E+01-3.29126E+00 6.20583E-02 2.84498E+00 2.86196E-13-3.03624E-14
 -1      3442 2.09083E+01-3.74683E+00 8.93461E-02 3.98550E+00-5.05679E-13-2.21607E-13
 -1      3443 1.97484E+01-3.09105E+00-3.64291E-03 3.90276E+00-4.81656E-13-9.52138E-14
 -1      3444 2.27012E+01-3.68289E+00 5.24022E-03-2.61389E+00 4.81410E-13 1.57209E-14
 -1      3445 2.18385E+01-3.05678E+00 4.24478E-02-2.77825E+00 4.29646E-13 1.03258E-13
 -1      3446 2.06684E+01-2.00659E+00 6.24206E-03-2.63850E+00 3.52912E-13 1.40849E-13
 -1      3447 2.01754E+01-1.36959E+00 3.56749E-02-2.56696E+00 3.36365E-13 1.23721E-13
 -1      3448 1.98987E+01-9.24211E-01 1.55660E-02-2.34685E+00 1.79715E-13 1.61318E-13
 -1      3449 1.95914E+01-5.16096E-01 7.51575E-03-2.23132E+00 1.47289E-13 1.36181E-13
 -1      3450 1.91363E+01-1.10432E+00-2.54550E-02-2.75837E+00 2.53446E-13 1.68938E-13
 -1      3451 1.95304E+01-1.91639E-01 1.34153E-02-2.01291E+00 9.98386E-14 5.20407E-14
 -1      3452 1.93754E+01 5.83605E-02 3.17746E-04-1.88381E+00 5.26186E-14 3.47075E-14
 -1      3453 1.88733E+01-2.38031E-01-1.07457E-02-2.24554E+00 8.40221E-14 1.17600E-13
 -1      3454 1.94106E+01 2.53776E-01 8.56121E-03-1.70228E+00 4.14744E-14 7.34626E-14
 -1      3455 1.93491E+01 3.93167E-01-2.31675E-03-1.57751E+00 5.29763E-14-1.52325E-15
 -1      3456 1.88764E+01 2.73621E-01-3.98134E-03-1.82144E+00 2.80807E-14-8.55978E-16
 -1      3457 1.94242E+01 4.96185E-01 5.44562E-03-1.42875E+00 6.65202E-14-6.02663E-14
 -1      3458 1.94119E+01 5.60040E-01-3.12756E-03-1.31406E+00-2.03897E-14-4.39034E-14
 -1      3459 1.89939E+01 5.54044E-01-3.25712E-04-1.48441E+00 9.73829E-15-5.66546E-15
 -1      3460 1.94981E+01 6.01202E-01 3.51022E-03-1.19105E+00-9.23737E-14 2.18756E-14
 -1      3461 1.95085E+01 6.16536E-01-3.24289E-03-1.08754E+00-7.49400E-14 1.05449E-13
 -1      3462 1.91535E+01 6.79374E-01 1.42286E-03-1.21422E+00-6.81116E-15 3.11705E-14
 -1      3463 1.95916E+01 6.18984E-01 2.37320E-03-9.84408E-01-1.19837E-13 6.80826E-14
 -1      3464 1.96101E+01 6.05238E-01-3.06239E-03-8.92130E-01-1.13927E-13 4.67249E-14
 -1      3465 1.93174E+01 7.05807E-01 2.06977E-03-9.92866E-01-9.85852E-14 1.77520E-14
 -1      3466 1.96837E+01 5.85333E-01 1.73363E-03-8.04921E-01-1.76766E-13 5.92340E-15
 -1      3467 1.97028E+01 5.55845E-01-2.75621E-03-7.23749E-01-4.96666E-14-9.47889E-14
 -1      3468 1.94671E+01 6.72916E-01 2.14732E-03-8.08018E-01-1.92006E-13 2.89192E-14
 -1      3469 1.97648E+01 5.24597E-01 1.37323E-03-6.49930E-01 1.40537E-13-2.66436E-13
 -1      3470 1.97812E+01 4.88134E-01-2.40444E-03-5.79636E-01 3.48963E-14-2.58889E-13
 -1      3471 1.95955E+01 6.07770E-01 1.95975E-03-6.52058E-01-6.07754E-14-4.95116E-14
 -1      3472 1.98315E+01 4.52628E-01 1.15338E-03-5.17515E-01-1.10593E-13-2.38440E-13
 -1      3473 1.98442E+01 4.14698E-01-2.04753E-03-4.57677E-01-5.66206E-14-2.26163E-13
 -1      3474 1.97008E+01 5.28256E-01 1.66841E-03-5.20353E-01 3.44215E-14-2.49124E-13
 -1      3475 1.98839E+01 3.79266E-01 9.97278E-04-4.05947E-01 9.49879E-14-1.36251E-13
 -1      3476 1.98930E+01 3.43127E-01-1.70764E-03-3.55904E-01 2.02316E-13-2.23024E-14
 -1      3477 1.97845E+01 4.45744E-01 1.35693E-03-4.09829E-01 7.42385E-14 1.70214E-14
 -1      3478 1.99237E+01 3.10225E-01 8.67607E-04-3.13395E-01 2.41894E-13-1.33028E-13
 -1      3479 1.99297E+01 2.77623E-01-1.39730E-03-2.72280E-01 3.26249E-13-8.96787E-14
 -1      3480 1.98492E+01 3.67056E-01 1.06649E-03-3.18091E-01 2.38071E-13-1.29521E-13
 -1      3481 1.99528E+01 2.48478E-01 7.49163E-04-2.37861E-01 2.87161E-13-1.40579E-13
 -1      3482 1.99565E+01 2.20177E-01-1.12295E-03-2.04665E-01 2.84328E-13-1.73630E-13
 -1      3483 1.98981E+01 2.95917E-01 8.14791E-04-2.42971E-01 2.43606E-13-1.07959E-13
 -1      3484 1.99735E+01 1.95231E-01 6.37700E-04-1.77228E-01 2.46755E-13-3.27348E-13
 -1      3485 1.99755E+01 1.71377E-01-8.86846E-04-1.50885E-01 1.48290E-13-3.13799E-13
 -1      3486 1.99342E+01 2.34001E-01 6.06692E-04-1.82373E-01 1.81329E-13-2.61796E-13
 -1      3487 1.99877E+01 1.50595E-01 5.33560E-04-1.29363E-01 1.32098E-13-2.91991E-13
 -1      3488 1.99885E+01 1.30972E-01-6.88329E-04-1.08812E-01 9.70777E-14-1.83569E-13
 -1      3489 1.99602E+01 1.81671E-01 4.40425E-04-1.34255E-01 2.18183E-13-4.29241E-13
 -1      3490 1.99971E+01 1.14050E-01 4.38384E-04-9.22083E-02-8.51559E-14-1.61123E-13
 -1      3491 1.99970E+01 9.82456E-02-5.24873E-04-7.64527E-02-1.71815E-13-3.35092E-13
 -1      3492 1.99784E+01 1.38506E-01 3.11181E-04-9.66611E-02-1.06345E-14-5.38181E-13
 -1      3493 2.00029E+01 8.47432E-02 3.53630E-04-6.38635E-02-1.20694E-13-2.32625E-13
 -1      3494 2.00024E+01 7.22587E-02-3.92861E-04-5.19990E-02-1.25453E-13-2.47216E-14
 -1      3495 1.99907E+01 1.03648E-01 2.13113E-04-6.77795E-02-5.19316E-14-5.23042E-13
 -1      3496 2.00061E+01 6.16871E-02 2.80067E-04-4.26278E-02-2.51951E-13 2.22719E-14
 -1      3497 2.00054E+01 5.20065E-02-2.88188E-04-3.38628E-02-2.32563E-13-8.72750E-14
 -1      3498 1.99986E+01 7.60387E-02 1.40402E-04-4.59778E-02-1.40689E-13-1.55522E-13
 -1      3499 2.00077E+01 4.38805E-02 2.17726E-04-2.70258E-02-2.61307E-13-7.40369E-14
 -1      3500 2.00068E+01 3.65107E-02-2.06688E-04-2.06854E-02-1.81207E-13-6.64232E-15
 -1      3501 2.00035E+01 5.45725E-02 8.77671E-05-2.98266E-02-2.64029E-13-4.18195E-14
 -1      3502 2.00080E+01 3.03789E-02 1.66059E-04-1.58091E-02-8.12637E-14 3.77574E-14
 -1      3503 2.00071E+01 2.48721E-02-1.44394E-04-1.13320E-02-5.32205E-14 1.95572E-14
 -1      3504 2.00061E+01 3.81846E-02 5.06715E-05-1.81061E-02-1.40475E-13 6.68538E-15
 -1      3505 2.00077E+01 2.03317E-02 1.24134E-04-7.94601E-03 4.34148E-14-4.49437E-15
 -1      3506 2.00068E+01 1.62953E-02-9.77210E-05-4.87572E-03 2.12072E-13 3.05104E-14
 -1      3507 2.00072E+01 2.59028E-02 2.53587E-05-9.79939E-03 4.62022E-14-4.91642E-14
 -1      3508 2.00069E+01 1.29971E-02 9.08364E-05-2.60214E-03 1.67808E-13 8.92291E-14
 -1      3509 2.00061E+01 1.00946E-02-6.35517E-05-5.75543E-04 1.31445E-13 2.07274E-13
 -1      3510 2.00073E+01 1.68703E-02 8.73560E-06-4.07660E-03 2.12914E-13 9.59906E-14
 -1      3511 2.00058E+01 7.74232E-03 6.49884E-05 8.82417E-04 9.70119E-14 1.15857E-13
 -1      3512 2.00052E+01 5.69079E-03-3.92261E-05 2.14755E-03 6.42659E-14 4.77933E-14
 -1      3513 2.00067E+01 1.03506E-02-1.60434E-06-2.75515E-04 4.29446E-14 8.60019E-14
 -1      3514 2.00047E+01 4.03664E-03 4.54159E-05 3.01758E-03 1.71180E-13-1.18617E-13
 -1      3515 2.00042E+01 2.60134E-03-2.18334E-05 3.73485E-03 2.78049E-13-1.54072E-13
 -1      3516 2.00059E+01 5.72266E-03-7.45972E-06 2.12036E-03 7.52507E-14 1.25095E-13
 -1      3517 2.00037E+01 1.43445E-03 2.99439E-05 4.18980E-03 3.65717E-13-1.87259E-13
 -1      3518 2.00032E+01 4.30085E-04-7.22571E-06 4.50804E-03 3.79755E-13-7.15146E-14
 -1      3519 2.00048E+01 2.47138E-03-1.04886E-05 3.50389E-03 3.39297E-13 5.83759E-14
 -1      3520 1.90131E+01 2.29208E+00-4.46979E-03 6.03651E-01-4.37954E-14-4.74344E-13
 -1      3521 1.94392E+01 2.05086E+00 1.53567E-03 6.05502E-01-8.35451E-14-4.85448E-13
 -1      3522 1.95790E+01 1.80418E+00 3.53784E-03 7.49682E-01-8.82992E-14-4.38605E-13
 -1      3523 2.51233E+01-3.34535E+00 5.01062E-03 4.22839E-01-1.42791E-13-5.12470E-13
 -1      3524 2.58307E+01-2.97882E+00-2.41963E-02-2.81987E-01-1.40513E-15-5.17007E-13
 -1      3525 2.05900E+01-8.98737E-01 1.46744E-02 1.94707E+00-2.35250E-13-5.66756E-15
 -1      3526 2.09627E+01-1.30701E+00 8.26089E-03 1.93051E+00-2.65915E-13-1.13448E-13
 -1      3527 2.01230E+01-2.72528E-01 6.32296E-03 1.77822E+00-9.98525E-14 1.03548E-13
 -1      3528 2.03516E+01-5.56552E-01 8.26931E-03 1.83004E+00-1.55676E-13 4.79910E-14
 -1      3529 1.98627E+01-7.14013E-01-1.99224E-02 2.12157E+00-2.42194E-13 4.30955E-14
 -1      3530 1.98991E+01 1.29994E-01 1.87286E-03 1.56468E+00-5.01733E-14 1.23815E-13
 -1      3531 2.00289E+01-4.60418E-02 6.85770E-03 1.64604E+00-6.60650E-14 8.77672E-14
 -1      3532 1.95797E+01-9.97407E-02-1.01103E-02 1.82844E+00-1.23863E-13 7.17761E-14
 -1      3533 1.98149E+01 3.59110E-01-5.10913E-04 1.34552E+00 3.90784E-14 1.11345E-13
 -1      3534 1.98837E+01 2.63986E-01 5.14883E-03 1.43749E+00 2.16284E-14 1.54596E-13
 -1      3535 1.94936E+01 2.74905E-01-4.41901E-03 1.54895E+00-1.22283E-14 1.11542E-13
 -1      3536 1.98041E+01 4.66294E-01-1.64194E-03 1.13694E+00-1.25088E-13 8.08941E-14
 -1      3537 1.98382E+01 4.26417E-01 3.72886E-03 1.22983E+00-1.96707E-14 1.51196E-13
 -1      3538 1.95105E+01 4.75641E-01-1.37692E-03 1.29846E+00-1.20745E-14 1.34414E-13
 -1      3539 1.98273E+01 4.93999E-01-2.08789E-03 9.45582E-01-1.13594E-13 4.61031E-14
 -1      3540 1.98433E+01 4.89247E-01 2.77692E-03 1.03404E+00-1.18027E-13 8.56574E-14
 -1      3541 1.95742E+01 5.58762E-01 1.63774E-04 1.07843E+00-1.48672E-13 1.31511E-13
 -1      3542 1.98625E+01 4.73826E-01-2.16201E-03 7.74301E-01-1.18012E-13 1.42029E-13
 -1      3543 1.98699E+01 4.89633E-01 2.17621E-03 8.55290E-01-1.13293E-13 1.22236E-13
 -1      3544 1.96530E+01 5.67244E-01 8.43567E-04 8.86476E-01-1.15519E-13 5.98378E-14
 -1      3545 1.98983E+01 4.27761E-01-2.03970E-03 6.24182E-01-1.91671E-13 1.95880E-13
 -1      3546 1.99023E+01 4.54174E-01 1.79188E-03 6.96094E-01-1.75200E-13 1.99395E-13
 -1      3547 1.97305E+01 5.31881E-01 1.05346E-03 7.20097E-01-1.82817E-13 1.30773E-13
 -1      3548 1.99296E+01 3.70311E-01-1.82140E-03 4.95199E-01-2.23117E-13 7.88630E-14
 -1      3549 1.99326E+01 4.00863E-01 1.52448E-03 5.57406E-01-1.31463E-13 1.67538E-13
 -1      3550 1.97989E+01 4.73725E-01 1.02506E-03 5.77249E-01-1.43986E-13 1.49646E-13
 -1      3551 1.99548E+01 3.10553E-01-1.56574E-03 3.86486E-01-1.93210E-14-4.77283E-14
 -1      3552 1.99577E+01 3.41264E-01 1.31463E-03 4.39065E-01-1.32167E-13-4.66101E-15
 -1      3553 1.98555E+01 4.06546E-01 8.90608E-04 4.56136E-01-8.59956E-14-4.79541E-14
 -1      3554 1.99739E+01 2.53798E-01-1.30704E-03 2.96548E-01 2.73469E-14-1.29748E-13
 -1      3555 1.99769E+01 2.82395E-01 1.13256E-03 3.40062E-01 9.00947E-14 6.04275E-15
 -1      3556 1.99003E+01 3.38902E-01 7.22463E-04 3.54941E-01 1.18547E-14-9.49986E-14
 -1      3557 1.99876E+01 2.02841E-01-1.06471E-03 2.23476E-01-1.29959E-13-1.70666E-13
 -1      3558 1.99907E+01 2.28183E-01 9.66236E-04 2.58789E-01-1.06847E-13-2.43248E-13
 -1      3559 1.99344E+01 2.75748E-01 5.57674E-04 2.71709E-01 1.99780E-14-2.40005E-13
 -1      3560 1.99968E+01 1.58858E-01-8.48711E-04 1.65143E-01 5.11113E-15-2.71821E-14
 -1      3561 2.00000E+01 1.80523E-01 8.12617E-04 1.93272E-01-8.40910E-14-6.34195E-15
 -1      3562 1.99596E+01 2.19622E-01 4.13024E-04 2.04355E-01-1.55940E-13-2.56478E-13
 -1      3563 2.00028E+01 1.22024E-01-6.63016E-04 1.19379E-01 8.46843E-15 1.37991E-13
 -1      3564 2.00057E+01 1.40030E-01 6.72314E-04 1.41386E-01 6.16205E-14 8.55947E-14
 -1      3565 1.99776E+01 1.71499E-01 2.94123E-04 1.50741E-01-6.01819E-14-7.36403E-14
 -1      3566 2.00062E+01 9.19356E-02-5.07862E-04 8.40973E-02 6.38514E-14 1.15699E-13
 -1      3567 2.00089E+01 1.06550E-01 5.46756E-04 1.01007E-01 4.83584E-14 6.63891E-14
 -1      3568 1.99899E+01 1.31387E-01 2.00815E-04 1.08769E-01-1.12737E-14 9.51021E-14
 -1      3569 2.00079E+01 6.78862E-02-3.81306E-04 5.73795E-02 1.21228E-13 1.69018E-14
 -1      3570 2.00103E+01 7.95004E-02 4.36940E-04 7.01370E-02 8.49756E-14 2.78747E-14
 -1      3571 1.99981E+01 9.87388E-02 1.30279E-04 7.64670E-02 1.07056E-13 1.24299E-13
 -1      3572 2.00084E+01 4.90452E-02-2.80272E-04 3.75255E-02-1.14984E-13-6.29828E-14
 -1      3573 2.00105E+01 5.80949E-02 3.43050E-04 4.69656E-02 6.49042E-14-1.03634E-13
 -1      3574 2.00031E+01 7.27210E-02 7.87446E-05 5.20413E-02 2.83447E-14 1.38506E-13
 -1      3575 2.00081E+01 3.45661E-02-2.01234E-04 2.30721E-02-9.61522E-14-9.43256E-16
 -1      3576 2.00099E+01 4.14837E-02 2.64489E-04 2.99110E-02-1.68264E-13-7.74020E-14
 -1      3577 2.00059E+01 5.23910E-02 4.23830E-05 3.39153E-02-1.05792E-13-6.34614E-14
 -1      3578 2.00074E+01 2.36506E-02-1.40612E-04 1.27917E-02 2.73092E-14-8.95033E-14
 -1      3579 2.00089E+01 2.88374E-02 2.00074E-04 1.76281E-02 1.52848E-14-7.67344E-14
 -1      3580 2.00072E+01 3.68052E-02 1.77300E-05 2.07375E-02-6.73796E-15-3.29298E-13
 -1      3581 2.00065E+01 1.55809E-02-9.50969E-05 5.67827E-03-4.36517E-14-8.45128E-14
 -1      3582 2.00076E+01 1.93941E-02 1.48287E-04 9.00071E-03-2.98344E-14-8.17492E-14
 -1      3583 2.00074E+01 2.50825E-02 1.88588E-06 1.13785E-02-4.74731E-14-3.86586E-13
 -1      3584 2.00054E+01 9.73143E-03-6.17575E-05 9.24992E-04-7.85866E-15 4.20312E-14
 -1      3585 2.00063E+01 1.24799E-02 1.07518E-04 3.12329E-03 8.93948E-14 5.60578E-14
 -1      3586 2.00070E+01 1.64340E-02-7.70834E-06 4.91395E-03-2.74423E-14-8.02685E-14
 -1      3587 2.00043E+01 5.57024E-03-3.79077E-05-2.09973E-03-1.22646E-13-1.41721E-13
 -1      3588 2.00051E+01 7.51506E-03 7.61104E-05-7.21972E-04-6.28744E-14-1.49956E-13
 -1      3589 2.00062E+01 1.01759E-02-1.26402E-05 6.05058E-04 9.18788E-14 8.30420E-14
 -1      3590 2.00034E+01 2.65069E-03-2.14883E-05-3.88000E-03-2.06377E-13-1.75127E-13
 -1      3591 2.00039E+01 4.01080E-03 5.24451E-05-3.09187E-03-1.47833E-13-2.30051E-13
 -1      3592 2.00052E+01 5.72786E-03-1.43632E-05-2.12572E-03-6.14599E-14-7.09253E-14
 -1      3593 2.00025E+01 5.99990E-04-1.10443E-05-4.77403E-03-9.11507E-14-1.05779E-13
 -1      3594 2.00029E+01 1.55669E-03 3.49941E-05-4.40637E-03-1.56773E-13-1.44283E-13
 -1      3595 2.00042E+01 2.60182E-03-1.43916E-05-3.72042E-03-1.86944E-13-2.00004E-13
 -1      3596 2.00017E+01-8.87182E-04-3.80489E-06-5.03948E-03 1.08083E-13-4.35694E-13
 -1      3597 2.00020E+01-1.85740E-04 2.24904E-05-4.97048E-03 2.27699E-14-1.10010E-13
 -1      3598 2.00032E+01 3.96211E-04-1.15209E-05-4.50796E-03-4.92187E-14-8.60260E-14
 -1      3599 2.63000E+01 2.89338E+00-1.69326E-01-2.03569E+00-7.63126E-13 1.99635E-13
 -1      3600 2.63235E+01 4.42695E+00-2.84074E-03-1.33017E+00-8.41979E-13 4.18207E-14
 -1      3601 2.00050E+01-8.51104E-04-4.60947E-06 1.09868E-03 2.78607E-13 3.44396E-14
 -1      3602 2.00051E+01-8.47328E-04-6.06142E-06 3.69694E-04 2.46395E-13-5.29590E-13
 -1      3603 1.90679E+01-2.76304E+00 2.90612E-02-4.32952E+00-3.86661E-13-2.93342E-13
 -1      3604 2.10317E+01-3.69082E+00 1.04462E-02-4.11502E+00-3.98379E-13-2.06170E-13
 -1      3605 1.78675E+01 3.25841E+00-7.01725E-03 1.18025E-01 1.33324E-13-5.04891E-13
 -1      3606 1.80151E+01 3.19117E+00-1.37944E-03 1.87480E-01 7.72158E-14-5.04474E-13
 -1      3607 1.80551E+01 3.00326E+00 5.47954E-03 2.85730E-01 6.18739E-14-4.69687E-13
 -1      3608 1.77722E+01 3.05813E+00 8.28033E-03 7.96702E-02 1.32241E-13-4.62155E-13
 -1      3609 2.14411E+01-1.76362E+00 2.79462E-02 1.97417E+00-3.15223E-13-2.55779E-13
 -1      3610 2.19737E+01-2.26678E+00-1.99854E-03 1.81946E+00-3.01060E-13-2.87621E-13
 -1      3611 2.05014E+01-1.60485E+00-2.60073E-02 2.37311E+00-3.56020E-13-1.10100E-13
 -1      3612 2.00028E+01-2.52855E-04 1.69893E-05 4.61517E-03 2.83077E-13-4.07981E-15
 -1      3613 2.00024E+01-1.18119E-03-5.41871E-06 4.60721E-03 1.03243E-13 1.32500E-13
 -1      3614 2.00031E+01-1.15675E-03-9.17672E-06 4.17183E-03 2.41310E-13-8.50077E-14
 -1      3615 2.00039E+01 3.21866E-04-1.84253E-05 4.09546E-03 3.71702E-13 1.66022E-13
 -1      3616 1.52673E+01-8.63048E-01 2.76434E-02-3.91710E+00-2.32682E-13-4.80008E-13
 -1      3617 1.70118E+01-1.78508E+00 1.15173E-02-4.40081E+00-3.11466E-13-4.26381E-13
 -1      3618 2.05664E+01-2.33617E-01 5.16140E-03-1.76599E+00 1.28096E-14-1.35889E-13
 -1      3619 2.03752E+01 1.57225E-01 1.36765E-02-1.63854E+00 4.27437E-14-1.51318E-13
 -1      3620 1.64089E+01-1.86655E+00-8.35084E-03 4.55522E+00 4.32919E-13-2.46025E-13
 -1      3621 1.42738E+01-8.09309E-01 6.93692E-02 4.00797E+00 4.38002E-13-4.71345E-13
 -1      3622 2.29964E+01-2.85602E+00 3.06706E-02 1.60427E+00-3.06816E-13-4.04574E-13
 -1      3623 2.36837E+01-3.24627E+00-1.23128E-02 1.21234E+00-2.46424E-13-4.50745E-13
 -1      3624 2.44499E+01-3.77284E+00-5.13599E-03 1.39297E+00-2.15925E-13-4.67126E-13
 -1      3625 2.18997E+01-2.80062E+00-1.50465E-02 2.29857E+00-3.64970E-13-2.98751E-13
 -1      3626 1.16319E+01 9.70329E-01 1.08134E-01-3.31826E-01 1.24248E-13-7.54077E-13
 -1      3627 1.28177E+01 9.97925E-01 3.82542E-02-1.04394E+00 3.19736E-14-6.48676E-13
 -1      3628 1.22220E+01 9.36564E-01-5.24571E-03 6.92474E-01 1.97802E-13-6.74169E-13
 -1      3629 1.95758E+01 1.55618E+00 5.91924E-04 9.48830E-01-6.72596E-14-3.87237E-13
 -1      3630 1.96010E+01 1.24896E+00 3.07593E-03 1.20493E+00-3.30851E-14-3.46483E-13
 -1      3631 1.91120E+01 1.30697E+00-3.22298E-03 1.34091E+00 2.77343E-14-3.41197E-13
 -1      3632 1.91216E+01 1.81859E+00 2.19868E-03 9.37207E-01-1.67811E-14-4.06721E-13
 -1      3633 2.27749E+01-3.56380E+00 1.75047E-02-2.74511E+00-3.10255E-13-9.62327E-15
 -1      3634 2.29002E+01-4.23426E+00-6.87365E-03 3.08433E+00-3.59657E-13-3.10960E-13
 -1      3635 2.39299E+01-3.99893E+00 4.77912E-02-2.15872E+00 4.54701E-13-1.89055E-14
 -1      3636 2.33378E+01-3.44961E+00-4.01578E-02-2.09307E+00-2.62792E-13 5.96051E-14
 -1      3637 2.34232E+01-2.90408E+00 1.52653E-03-1.42832E+00-1.94659E-13 9.24816E-14
 -1      3638 2.27448E+01-2.46283E+00 4.97674E-02-1.80215E+00-2.02381E-13 5.56291E-14
 -1      3639 2.15570E+01-2.82723E+00 3.62172E-02-3.00004E+00-2.93301E-13-1.05429E-13
 -1      3640 2.00017E+01-2.44594E-03 8.44593E-06-4.41798E-03 2.53814E-13-3.26706E-13
 -1      3641 2.00011E+01-2.27462E-03 1.09775E-06-4.67929E-03 1.95356E-13-5.75178E-13
 -1      3642 2.00012E+01-1.91119E-03-4.59541E-06-4.87317E-03 1.39596E-13-5.77460E-13
 -1      3643 2.00023E+01-1.91033E-03-4.40945E-06-4.31301E-03 3.00977E-13-4.04967E-13
 -1      3644 1.58943E+01-2.01575E+00 4.14604E-02-4.54616E+00 5.20972E-13 5.11910E-13
 -1      3645 1.80960E+01-3.16441E+00 3.37550E-02-4.82747E+00 4.96658E-13 3.59136E-13
 -1      3646 1.89684E+01 2.20562E+00 4.53674E-03-6.72485E-01 2.85169E-13-3.43990E-13
 -1      3647 1.01521E+01 3.68547E-01 1.50322E-01 1.30567E+00-1.46423E-13 7.14082E-13
 -1      3648 1.05335E+01 4.44930E-01 3.26015E-02-3.38141E-01 2.77070E-14 5.99118E-13
 -1      3649 1.15827E+01 1.67273E-01 8.03907E-02 1.99808E+00-2.57918E-13 5.70384E-13
 -1      3650 1.39538E+01 5.37284E-01-2.17429E-03-2.34658E+00-7.64892E-14-5.64358E-13
 -1      3651 1.45713E+01-1.01117E-01 6.21712E-02-3.34061E+00-1.57098E-13-5.21846E-13
 -1      3652 1.60821E+01-2.17445E-01 3.54975E-02-3.18625E+00-1.67968E-13-4.04222E-13
 -1      3653 2.00645E+01 9.04384E-01 4.15978E-03-1.21261E+00 1.99617E-13-1.64696E-13
 -1      3654 1.95186E+01 1.41595E+00-6.51856E-03-1.05617E+00 2.42648E-13-2.38217E-13
 -1      3655 2.66296E+01-2.42459E+00-5.70641E-02-1.00582E+00 9.34773E-14-6.21392E-13
 -1      3656 1.17279E+01 6.71670E-01 9.80207E-03-1.89876E-01-3.58485E-14 5.84352E-13
 -1      3657 1.14726E+01 5.77321E-01 1.23051E-01-1.17733E+00 6.67192E-14 6.03941E-13
 -1      3658 1.24248E+01 3.76528E-01 2.65481E-02-1.83492E+00 1.67560E-13 6.74044E-13
 -1      3659 1.82553E+01-1.94639E+00 7.05953E-02 3.91119E+00-4.98584E-13 8.89948E-14
 -1      3660 1.70440E+01-1.37638E+00-7.55908E-03 3.67675E+00-4.71006E-13 2.03549E-13
 -1      3661 2.00051E+01-8.46898E-04-6.07851E-06-3.75719E-04 2.59100E-13-6.97108E-13
 -1      3662 2.00050E+01-8.48983E-04-6.30454E-06-1.10040E-03 3.21706E-13-5.49453E-13
 -1      3663 2.00057E+01 2.47264E-04 1.85370E-05-2.05896E-06 4.66856E-13-5.65480E-13
 -1      3664 1.89055E+01 1.49937E+00 8.96724E-03-1.21691E+00 1.65795E-13-2.97386E-13
 -1      3665 1.88761E+01 1.85582E+00-1.19307E-03-9.34053E-01 2.24151E-13-3.30143E-13
 -1      3666 1.83418E+01 2.23745E+00-3.94185E-03-8.15057E-01 2.07837E-13-3.47790E-13
 -1      3667 2.03097E+01-2.71726E+00-1.42310E-02-3.36045E+00 4.43270E-13 1.67959E-13
 -1      3668 1.87915E+01-1.93308E+00 5.07296E-02-3.84723E+00-3.16622E-13-2.99673E-13
 -1      3669 1.86287E+01 2.52206E+00-5.92888E-04 5.41455E-01-2.85525E-14-4.56097E-13
 -1      3670 1.87184E+01 2.28270E+00-1.41050E-03 6.79957E-01-9.68149E-15-4.53457E-13
 -1      3671 1.82850E+01 2.70598E+00-7.60353E-03 4.84423E-01 1.83069E-14-4.35520E-13
 -1      3672 1.97476E+01-3.27297E+00 2.30276E-02-4.08111E+00 4.79752E-13 2.63402E-13
 -1      3673 2.00041E+01-2.84970E-04 1.51322E-05 3.56010E-03 2.82624E-13 1.17970E-13
 -1      3674 2.00037E+01-1.04406E-03-4.40487E-07 3.54532E-03 1.90600E-13 8.25217E-14
 -1      3675 2.00042E+01-1.06053E-03-1.03815E-05 2.94970E-03 2.86754E-13 4.89627E-13
 -1      3676 2.00012E+01-1.51074E-03 8.03124E-06-4.98866E-03 1.42525E-13-4.89391E-13
 -1      3677 1.48612E+01-1.15648E+00 8.68665E-02-4.07604E+00 4.62302E-13 6.31127E-13
 -1      3678 1.65585E+01-1.55699E+00 3.34973E-02-3.97892E+00 4.50589E-13 5.25822E-13
 -1      3679 1.39584E+01-4.20452E-01 1.69262E-02-3.22439E+00 3.18350E-13 5.54237E-13
 -1      3680 2.08285E+01-3.06596E+00-4.90419E-02 3.58531E+00 3.05713E-13-8.76729E-14
 -1      3681 2.00048E+01-9.11348E-04-4.39561E-06-1.82971E-03 3.77072E-13-2.04594E-13
 -1      3682 2.00045E+01-9.15505E-04-4.16451E-06-2.51269E-03 3.72495E-13-4.22579E-14
 -1      3683 2.00055E+01 1.74309E-04 1.66685E-05-1.43369E-03 3.57268E-13-4.15956E-13
 -1      3684 2.37892E+01-4.19751E+00 3.28318E-02 2.46068E+00-3.21375E-13-4.09830E-13
 -1      3685 1.76460E+01 2.71738E+00-5.15230E-03-3.53918E-01 1.73982E-13-4.40435E-13
 -1      3686 1.75264E+01 2.78995E+00-4.52320E-03-1.95807E-01 1.45831E-13-4.48821E-13
 -1      3687 1.35683E+01-3.32915E-02 6.72582E-02 3.28163E+00 3.78265E-13-5.93942E-13
 -1      3688 1.31709E+01 6.70010E-01 4.53502E-02 2.11673E+00 2.83974E-13-6.15893E-13
 -1      3689 1.52865E+01-1.07571E-01 4.03166E-02 3.12075E+00 3.25573E-13-4.39915E-13
 -1      3690 2.01553E+01 6.03628E-01 4.49988E-03-1.40069E+00 1.24102E-13-1.65771E-13
 -1      3691 1.89166E+01-2.34381E+00 8.87475E-02 4.17727E+00 3.63821E-13-1.52332E-13
 -1      3692 1.81325E+01-1.50792E+00 1.51852E-02 3.74942E+00 2.88335E-13-2.24454E-13
 -1      3693 2.00041E+01-1.05353E-03-6.71256E-07-3.09445E-03 3.26949E-13-2.56100E-14
 -1      3694 2.00037E+01-1.06959E-03-7.06840E-06-3.60759E-03 2.86197E-13-3.56467E-13
 -1      3695 2.00049E+01-5.52822E-05 1.05937E-05-2.69909E-03 4.07074E-13-1.36827E-14
 -1      3696 2.08145E+01-6.57950E-01 1.96987E-02-1.94004E+00-3.85881E-14-1.22255E-13
 -1      3697 2.00965E+01-3.80655E-01-2.47963E-02-2.07952E+00-1.45309E-14-2.18040E-13
 -1      3698 2.11623E+01-1.12735E+00 1.00883E-02-1.96881E+00-1.10784E-13-1.04588E-13
 -1      3699 2.00022E+01-1.22816E-03-8.90656E-06-4.69338E-03 2.48085E-13-3.79607E-13
 -1      3700 1.97020E+01 5.60811E-01-1.81702E-02-1.61962E+00 1.04555E-13-2.06093E-13
 -1      3701 2.00045E+01-9.43611E-04-2.18500E-06 2.37964E-03 4.68249E-13 8.87457E-13
 -1      3702 2.00048E+01-9.42259E-04-8.29461E-06 1.69242E-03 2.70636E-13 5.91428E-13
 -1      3703 2.00055E+01 1.51369E-04 1.82491E-05 1.28321E-03 4.78879E-13 3.18600E-13
 -1      3704 2.00050E+01-5.52695E-05 1.58446E-05 2.39717E-03 3.19885E-13 5.89991E-13
 -1      3705 1.99263E+01-2.50440E+00 6.87714E-03 3.35583E+00-4.14607E-13-9.44297E-14
 -1      3706 1.38391E+01 1.00193E+00 5.89123E-02-1.69974E+00-1.72865E-14-6.14118E-13
 -1      3707 1.49846E+01 8.61023E-01 1.21228E-02-2.00793E+00-5.38320E-14-4.92746E-13
 -1      3708 1.37216E+01 1.18866E+00-3.78252E-02-8.27403E-01 4.52806E-14-5.87226E-13
 -1      3709 1.80690E+01 2.43338E+00-4.22781E-03-6.58674E-01 2.14032E-13-3.82886E-13
 -1      3710 1.77940E+01 2.58747E+00-5.29798E-03-5.43499E-01 1.76513E-13-4.15904E-13
 -1      3711 1.75648E+01 2.44614E+00 1.35479E-02-5.40520E-01 1.63581E-13-4.15401E-13
 -1      3712 1.79773E+01 2.11828E+00 9.54990E-03-8.97187E-01 1.78352E-13-3.69486E-13
 -1      3713 1.85162E+01 1.13189E+00-7.56435E-03 1.61662E+00 9.51203E-14-3.35466E-13
 -1      3714 1.85275E+01 7.78954E-01 8.77506E-03 1.89899E+00 1.42359E-13-3.33869E-13
 -1      3715 1.83428E+01 3.83653E-01-5.18748E-03 2.23749E+00 1.75152E-13-3.28731E-13
 -1      3716 1.84541E+01-6.46358E-02 1.95767E-02 2.57097E+00 1.67052E-13-3.11292E-13
 -1      3717 1.77478E+01 8.37330E-01-8.97635E-03 2.02105E+00 1.56404E-13-3.82375E-13
 -1      3718 1.81133E+01-4.31198E-01-5.88761E-03 2.92364E+00 1.95817E-13-2.98820E-13
 -1      3719 1.84311E+01-1.09088E+00 1.17522E-02 3.29156E+00 2.44431E-13-2.49472E-13
 -1      3720 1.65024E+01-4.02651E-01 6.17985E-02 3.46632E+00 3.16873E-13-3.64903E-13
 -1      3721 1.72734E+01 2.07238E-01 2.31780E-02 2.68502E+00 2.21593E-13-3.78942E-13
 -1      3722 1.90314E+01 1.93693E-01-2.45420E-03 1.76969E+00-7.61250E-14 6.37088E-15
 -1      3723 1.91321E+01-2.23302E-02 1.22426E-02 1.92358E+00-1.28938E-13-3.72745E-14
 -1      3724 1.82791E+01-9.86864E-01 1.28048E-02-2.98506E+00 3.13726E-13 2.68391E-13
 -1      3725 1.80453E+01-4.54301E-01 5.18520E-03-2.67489E+00 1.97278E-13 2.19357E-13
 -1      3726 1.82302E+01-1.05618E-01 2.03880E-02-2.30916E+00 7.53462E-14 2.00923E-13
 -1      3727 1.81544E+01 1.68386E-01-8.49722E-03-2.07019E+00 5.28160E-14 1.60660E-13
 -1      3728 1.72973E+01-2.21082E-02 1.13861E-02-2.48019E+00 1.73245E-13 2.12347E-13
 -1      3729 1.83661E+01 3.91277E-01 1.17251E-02-1.81343E+00 4.97965E-14 1.68910E-13
 -1      3730 1.83855E+01 5.41874E-01-8.36684E-03-1.62826E+00 6.48366E-16 1.17809E-13
 -1      3731 1.76775E+01 4.81535E-01 4.66169E-03-1.85949E+00 4.50508E-14 2.82440E-13
 -1      3732 1.85881E+01 6.58392E-01 6.33565E-03-1.44537E+00 2.34607E-14 6.69304E-14
 -1      3733 1.86508E+01 7.27966E-01-6.88444E-03-1.30105E+00 1.34935E-14 1.65358E-14
 -1      3734 1.80768E+01 7.52776E-01 4.81985E-03-1.42855E+00 4.10494E-14 1.83320E-13
 -1      3735 1.88305E+01 7.75228E-01 3.47287E-03-1.16582E+00-2.01808E-14 4.17300E-14
 -1      3736 1.89071E+01 7.91855E-01-5.52475E-03-1.05034E+00-3.73704E-14 7.20431E-14
 -1      3737 1.84429E+01 8.70517E-01 4.92003E-03-1.12391E+00-3.15701E-14 4.14422E-14
 -1      3738 1.90607E+01 7.95016E-01 1.89044E-03-9.46196E-01-9.58870E-14 6.42601E-14
 -1      3739 1.91361E+01 7.78890E-01-4.46010E-03-8.51114E-01-1.17158E-13 1.01056E-13
 -1      3740 1.87622E+01 8.89150E-01 4.55300E-03-8.97918E-01-5.36710E-14 6.37492E-14
 -1      3741 1.92644E+01 7.55630E-01 1.06085E-03-7.67986E-01-1.39308E-13 1.29238E-13
 -1      3742 1.93316E+01 7.20857E-01-3.64369E-03-6.88123E-01-1.34200E-13 1.37030E-13
 -1      3743 1.90324E+01 8.46338E-01 3.97439E-03-7.22606E-01-9.08056E-14 8.18613E-14
 -1      3744 1.94367E+01 6.83347E-01 6.62138E-04-6.20112E-01-1.82459E-13 1.54719E-13
 -1      3745 1.94932E+01 6.39532E-01-3.00318E-03-5.52488E-01-1.02895E-13 5.40399E-14
 -1      3746 1.92560E+01 7.68489E-01 3.36415E-03-5.81526E-01-1.21919E-13 1.50226E-13
 -1      3747 1.95780E+01 5.95938E-01 4.84336E-04-4.96198E-01-9.54668E-15-4.78902E-14
 -1      3748 1.96235E+01 5.49451E-01-2.48104E-03-4.39042E-01-5.13467E-15-4.68723E-14
 -1      3749 1.94377E+01 6.73723E-01 2.78638E-03-4.65405E-01-1.47980E-13 1.76948E-13
 -1      3750 1.96908E+01 5.05048E-01 4.08345E-04-3.92407E-01 4.72599E-14-8.92358E-15
 -1      3751 1.97264E+01 4.59911E-01-2.04178E-03-3.44506E-01 1.63289E-13 3.57985E-14
 -1      3752 1.95828E+01 5.74268E-01 2.26497E-03-3.68975E-01 4.71899E-14 1.16501E-13
 -1      3753 1.97790E+01 4.17907E-01 3.72122E-04-3.06108E-01 2.13137E-13-2.73005E-14
 -1      3754 1.98059E+01 3.76469E-01-1.66611E-03-2.66457E-01 2.23990E-13-2.76909E-14
 -1      3755 1.96967E+01 4.78011E-01 1.80910E-03-2.88996E-01 1.55615E-13 1.59311E-13
 -1      3756 1.98464E+01 3.38627E-01 3.46321E-04-2.35173E-01 2.09334E-13-3.49045E-14
 -1      3757 1.98663E+01 3.02071E-01-1.34398E-03-2.02824E-01 2.72217E-13 7.57614E-15
 -1      3758 1.97846E+01 3.89646E-01 1.42052E-03-2.23171E-01 2.08538E-13 6.21124E-14
 -1      3759 1.98969E+01 2.69178E-01 3.19225E-04-1.77670E-01 2.03066E-13-5.12658E-14
 -1      3760 1.99113E+01 2.37903E-01-1.06964E-03-1.51684E-01 1.18191E-13-1.09455E-13
 -1      3761 1.98513E+01 3.11589E-01 1.09658E-03-1.69622E-01 1.81635E-13-5.77304E-14
 -1      3762 1.99339E+01 2.10109E-01 2.87889E-04-1.31752E-01 1.12059E-13-2.07437E-13
 -1      3763 1.99440E+01 1.84022E-01-8.38814E-04-1.11211E-01 2.18095E-13-3.49641E-13
 -1      3764 1.99010E+01 2.44684E-01 8.31871E-04-1.26657E-01 1.04684E-13 1.54543E-14
 -1      3765 1.99605E+01 1.61086E-01 2.53175E-04-9.56644E-02 1.29964E-13-4.01918E-13
 -1      3766 1.99673E+01 1.39798E-01-6.47473E-04-7.96940E-02-1.06366E-13-4.14981E-13
 -1      3767 1.99372E+01 1.88759E-01 6.19589E-04-9.27022E-02 2.44480E-14-2.54133E-13
 -1      3768 1.99789E+01 1.21263E-01 2.17162E-04-6.77653E-02-8.03838E-14-3.83077E-13
 -1      3769 1.99833E+01 1.04232E-01-4.91401E-04-5.55589E-02-7.46045E-15-3.13957E-13
 -1      3770 1.99630E+01 1.43019E-01 4.52374E-04-6.62930E-02-1.63722E-14-2.51091E-13
 -1      3771 1.99914E+01 8.95399E-02 1.81924E-04-4.65652E-02-9.74180E-14-3.82174E-13
 -1      3772 1.99940E+01 7.61668E-02-3.66200E-04-3.74017E-02-1.58885E-13-2.84366E-13
 -1      3773 1.99808E+01 1.06344E-01 3.22971E-04-4.60947E-02-9.11563E-14-3.47104E-13
 -1      3774 1.99993E+01 6.47328E-02 1.49055E-04-3.07474E-02-1.80589E-13-2.04157E-13
 -1      3775 2.00008E+01 5.44217E-02-2.67458E-04-2.39998E-02-1.23265E-13-1.15594E-13
 -1      3776 1.99927E+01 7.74817E-02 2.24623E-04-3.09190E-02-1.47941E-13-3.65636E-13
 -1      3777 2.00041E+01 4.56840E-02 1.19573E-04-1.91778E-02-4.32652E-14 5.33151E-14
 -1      3778 2.00047E+01 3.78777E-02-1.90945E-04-1.43149E-02-1.31387E-14 1.10020E-13
 -1      3779 2.00003E+01 5.51759E-02 1.51281E-04-1.97340E-02 2.53799E-14-1.67672E-13
 -1      3780 2.00066E+01 3.13224E-02 9.39747E-05-1.09030E-02 3.96183E-14 2.31844E-13
 -1      3781 2.00067E+01 2.55218E-02-1.32702E-04-7.48484E-03 1.79773E-13 2.34309E-13
 -1      3782 2.00047E+01 3.82474E-02 9.77042E-05-1.16645E-02 1.52448E-13 1.97694E-13
 -1      3783 2.00076E+01 2.06956E-02 7.23705E-05-5.13884E-03 1.37865E-13 1.57565E-13
 -1      3784 2.00073E+01 1.64664E-02-8.92621E-05-2.80873E-03 1.60019E-13 1.41061E-13
 -1      3785 2.00069E+01 2.56353E-02 5.95676E-05-5.98555E-03 6.68372E-14 3.19002E-13
 -1      3786 2.00075E+01 1.29788E-02 5.46725E-05-1.25367E-03 1.99577E-13 1.28270E-13
 -1      3787 2.00070E+01 9.95047E-03-5.76626E-05 2.70611E-04 1.24526E-13 2.54644E-13
 -1      3788 2.00077E+01 1.64119E-02 3.28689E-05-2.10762E-03 1.77828E-13 1.82563E-13
 -1      3789 2.00069E+01 7.47206E-03 4.05366E-05 1.24835E-03 8.25398E-14 4.31768E-13
 -1      3790 2.00063E+01 5.33668E-03-3.43927E-05 2.18453E-03 1.82780E-13 4.62592E-13
 -1      3791 2.00075E+01 9.78576E-03 1.49215E-05 4.36061E-04 1.52023E-13 4.62312E-13
 -1      3792 2.00058E+01 3.58573E-03 2.82202E-05 2.75119E-03 2.84117E-13 2.55801E-13
 -1      3793 2.00052E+01 2.11449E-03-9.95466E-06 3.24841E-03 3.67267E-13 2.99578E-13
 -1      3794 2.00066E+01 5.09499E-03 3.22947E-06 2.00808E-03 1.54503E-13 5.71538E-13
 -1      3795 2.00028E+01-1.16092E-03 6.71378E-06-4.31677E-03 1.86722E-13-3.41527E-13
 -1      3796 1.36558E+01 1.00610E+00 4.67213E-02 1.21428E+00 1.98149E-13-6.01411E-13
 -1      3797 1.91114E+01-3.02232E-01 2.76397E-03 2.15800E+00-1.91046E-13-1.03723E-13
 -1      3798 1.93451E+01-6.59504E-01 1.72280E-02 2.32954E+00-2.81489E-13-9.62893E-14
 -1      3799 1.84966E+01-1.55088E-02-6.72841E-03 2.10169E+00-1.90658E-13-1.34997E-13
 -1      3800 1.92128E+01 6.15969E-01-3.87982E-03 1.18686E+00-1.43411E-13 1.67174E-13
 -1      3801 1.91970E+01 5.65365E-01 4.96410E-03 1.30248E+00-6.61028E-14 1.29680E-13
 -1      3802 1.93507E+01 6.55312E-01-3.59747E-03 9.69861E-01-1.11299E-13 1.57387E-13
 -1      3803 1.93183E+01 6.47438E-01 3.06144E-03 1.06966E+00-7.62894E-14 2.57366E-13
 -1      3804 1.90069E+01 7.29096E-01 2.05728E-03 1.07090E+00-1.38893E-13 2.11276E-13
 -1      3805 1.94837E+01 6.34197E-01-3.20306E-03 7.87923E-01-1.51326E-13 7.58916E-14
 -1      3806 1.94473E+01 6.52184E-01 1.96436E-03 8.74192E-01-1.19942E-13 1.10592E-13
 -1      3807 1.92014E+01 7.37421E-01 2.38628E-03 8.64532E-01-6.83262E-14 1.02574E-13
 -1      3808 1.96018E+01 5.78802E-01-2.78992E-03 6.34438E-01-2.28584E-13 5.97513E-14
 -1      3809 1.95676E+01 6.10900E-01 1.35461E-03 7.08741E-01-1.83930E-13 6.52140E-14
 -1      3810 1.93742E+01 6.94475E-01 2.33117E-03 6.96270E-01-2.00129E-13 2.66364E-15
 -1      3811 1.97013E+01 5.06925E-01-2.38976E-03 5.05111E-01-6.24700E-14-6.80059E-14
 -1      3812 1.96721E+01 5.45228E-01 1.01840E-03 5.68549E-01-1.25870E-13 2.78176E-14
 -1      3813 1.95210E+01 6.23536E-01 2.09710E-03 5.57107E-01-9.99784E-14-2.49829E-15
 -1      3814 1.97819E+01 4.30184E-01-2.01479E-03 3.96914E-01-1.22665E-13-1.61971E-13
 -1      3815 1.97584E+01 4.69593E-01 8.24326E-04 4.50402E-01-1.00109E-13-5.15750E-14
 -1      3816 1.96417E+01 5.40366E-01 1.79328E-03 4.41464E-01-7.90900E-14-1.84728E-13
 -1      3817 1.98454E+01 3.55758E-01-1.67149E-03 3.07386E-01 3.23087E-14-4.22215E-14
 -1      3818 1.98274E+01 3.93181E-01 6.98776E-04 3.51829E-01-1.06348E-13-9.65779E-14
 -1      3819 1.97383E+01 4.55245E-01 1.47873E-03 3.45648E-01-1.12809E-13-1.38155E-13
 -1      3820 1.98941E+01 2.87721E-01-1.36406E-03 2.34291E-01-2.20742E-14 1.42613E-14
 -1      3821 1.98808E+01 3.21461E-01 6.03962E-04 2.70642E-01 1.01814E-13 4.08453E-14
 -1      3822 1.98139E+01 3.74492E-01 1.18453E-03 2.66905E-01 3.05267E-14 3.19273E-14
 -1      3823 1.99305E+01 2.28045E-01-1.09476E-03 1.75483E-01-1.76672E-13-8.30689E-14
 -1      3824 1.99210E+01 2.57342E-01 5.22514E-04 2.04736E-01-1.12499E-13-1.29719E-14
 -1      3825 1.98716E+01 3.01628E-01 9.25409E-04 2.02932E-01-1.87828E-14 1.38254E-13
 -1      3826 1.99570E+01 1.77331E-01-8.63909E-04 1.28895E-01-1.40262E-13 5.14822E-14
 -1      3827 1.99506E+01 2.02034E-01 4.47773E-04 1.52052E-01-1.22685E-13-8.46899E-14
 -1      3828 1.99149E+01 2.38255E-01 7.06435E-04 1.51651E-01-1.25614E-13 1.56840E-13
 -1      3829 1.99758E+01 1.35335E-01-6.70090E-04 9.25765E-02-1.65733E-14 1.49226E-13
 -1      3830 1.99717E+01 1.55658E-01 3.78136E-04 1.10604E-01-1.17743E-13 8.69420E-14
 -1      3831 1.99465E+01 1.84715E-01 5.27159E-04 1.11143E-01-1.98024E-13 2.73583E-13
 -1      3832 1.99887E+01 1.01326E-01-5.10563E-04 6.47308E-02 1.28190E-13 2.02738E-13
 -1      3833 1.99862E+01 1.17688E-01 3.13977E-04 7.85260E-02 1.19815E-13 1.20900E-13
 -1      3834 1.99690E+01 1.40574E-01 3.84198E-04 7.96361E-02 6.27133E-14 2.32908E-13
 -1      3835 1.99972E+01 7.43387E-02-3.81738E-04 4.37526E-02-2.86567E-14 1.81067E-13
 -1      3836 1.99959E+01 8.72538E-02 2.56120E-04 5.41214E-02 7.02856E-14 1.81795E-13
 -1      3837 1.99846E+01 1.04955E-01 2.72841E-04 5.55285E-02 8.22077E-14 2.25253E-13
 -1      3838 2.00025E+01 5.33314E-02-2.79619E-04 2.82426E-02 2.36239E-14 3.74272E-14
 -1      3839 2.00019E+01 6.33333E-02 2.05192E-04 3.58876E-02 1.19582E-14 1.49895E-13
 -1      3840 1.99949E+01 7.67761E-02 1.88010E-04 3.73997E-02 5.45404E-14 2.35474E-13
 -1      3841 2.00054E+01 3.72837E-02-2.00214E-04 1.70118E-02 7.77084E-14-2.14168E-13
 -1      3842 2.00054E+01 4.48853E-02 1.61424E-04 2.25295E-02 5.95652E-14-4.65901E-14
 -1      3843 2.00014E+01 5.49019E-02 1.24807E-04 2.40204E-02 8.30672E-14 2.86244E-14
 -1      3844 2.00067E+01 2.52551E-02-1.39520E-04 9.07209E-03-9.23556E-14-1.22689E-13
 -1      3845 2.00071E+01 3.09229E-02 1.24638E-04 1.29574E-02-5.23586E-15-1.65199E-13
 -1      3846 2.00051E+01 3.82351E-02 7.87799E-05 1.43507E-02 5.49504E-14 8.69816E-14
 -1      3847 2.00070E+01 1.64115E-02-9.43993E-05 3.61828E-03-7.80478E-14-6.98792E-15
 -1      3848 2.00075E+01 2.05568E-02 9.43840E-05 6.27335E-03-1.20571E-13-1.24206E-13
 -1      3849 2.00069E+01 2.57742E-02 4.62899E-05 7.53015E-03-1.02245E-13 2.09025E-13
 -1      3850 2.00066E+01 1.00299E-02-6.16889E-05 1.02787E-05 1.61811E-13 7.96686E-14
 -1      3851 2.00072E+01 1.30059E-02 7.02805E-05 1.75245E-03 8.58604E-14-2.71646E-14
 -1      3852 2.00075E+01 1.66275E-02 2.15198E-05 2.85442E-03-4.61232E-14-9.88703E-15
 -1      3853 2.00058E+01 5.50515E-03-3.71811E-05-2.24860E-03-1.02254E-13 2.17148E-13
 -1      3854 2.00064E+01 7.60523E-03 5.13042E-05-1.17275E-03 9.27033E-14 2.10422E-13
 -1      3855 2.00071E+01 1.00395E-02 5.51247E-06-2.26994E-04-1.35102E-14 3.28906E-13
 -1      3856 2.00048E+01 2.32247E-03-2.05878E-05-3.54055E-03-1.27330E-13 4.15097E-14
 -1      3857 2.00054E+01 3.79592E-03 3.52600E-05-2.94468E-03-5.93325E-14 1.03720E-13
 -1      3858 2.00063E+01 5.37996E-03-6.99659E-07-2.14452E-03-1.56365E-14 3.54320E-13
 -1      3859 1.90335E+01 5.78627E-01 4.21924E-03-1.85972E+00 5.28221E-14-2.64102E-13
 -1      3860 1.88733E+01 1.07356E+00 7.56317E-03-1.55234E+00 1.14928E-13-2.63185E-13
 -1      3861 1.81439E+01 1.48108E+00-1.18233E-02-1.40100E+00 9.29788E-14-3.22159E-13
 -1      3862 1.73416E+01-8.57891E-01 1.24782E-02 3.11658E+00-3.81544E-13 1.28872E-13
 -1      3863 1.59973E+01-6.09412E-01 3.99852E-02 3.34806E+00-3.92634E-13 2.32907E-13
 -1      3864 1.64680E+01 1.38602E-01-1.39933E-02-2.77068E+00-1.12226E-13-3.53008E-13
 -1      3865 1.73305E+01-5.01683E-01 2.82510E-02-3.27833E+00-1.71630E-13-3.25449E-13
 -1      3866 2.00049E+01 1.30835E-03 1.70444E-05 3.38705E-03 2.61220E-13 2.05238E-13
 -1      3867 2.00045E+01 4.12436E-04-3.09741E-07 3.51645E-03 2.60763E-13 1.52426E-13
 -1      3868 2.00051E+01 5.17598E-04-1.66716E-05 2.92201E-03 2.20374E-13 2.56243E-13
 -1      3869 2.00058E+01 2.26441E-03-7.37149E-06 2.71700E-03 1.55622E-13 3.23103E-13
 -1      3870 2.21068E+01-2.05252E+00 1.28789E-02-1.88702E+00-1.82068E-13-2.15411E-14
 -1      3871 2.15715E+01-1.54890E+00 2.83154E-02-2.02730E+00-1.65580E-13-4.94353E-14
 -1      3872 2.06886E+01-1.29517E+00-1.96961E-02-2.35271E+00-1.48601E-13-1.45780E-13
 -1      3873 2.16040E+01-2.31164E+00-3.53457E-02-2.44234E+00-2.25200E-13-7.61995E-14
 -1      3874 1.73645E+01 2.60167E+00 9.26419E-03-7.82875E-02 1.31502E-13-4.30365E-13
 -1      3875 1.75023E+01 2.80115E+00-7.70396E-03 6.04870E-02 1.44889E-13-4.25349E-13
 -1      3876 1.90920E+01 4.79017E-01-3.77350E-03 1.44893E+00-3.62703E-14 1.23922E-13
 -1      3877 1.91155E+01 3.62281E-01 8.16199E-03 1.58305E+00-4.07670E-14 9.06714E-14
 -1      3878 1.86142E+01 4.10643E-01-1.48349E-03 1.66394E+00-1.12237E-13-2.77656E-14
 -1      3879 1.88025E+01 6.35983E-01 9.74062E-04 1.32995E+00-1.00975E-13 1.19573E-13
 -1      3880 1.83229E+01-1.31506E+00 5.18510E-03-3.52790E+00-2.49543E-13-3.07799E-13
 -1      3881 2.01388E+01-2.31608E+00-2.14770E-02-3.47054E+00-2.98374E-13-2.55549E-13
 -1      3882 2.10694E+01-2.20046E+00 2.56110E-02-2.81353E+00-2.80300E-13-1.46381E-13
 -1      3883 1.86945E+01-8.20646E-01 1.79573E-02-3.01275E+00-1.92486E-13-2.80738E-13
 -1      3884 1.46582E+01-3.59570E-01 4.98605E-02 3.13433E+00-4.38009E-13 2.87076E-13
 -1      3885 1.30189E+01 4.51208E-02 9.57109E-02 2.86030E+00-3.76778E-13 4.54813E-13
 -1      3886 1.24244E+01 4.49715E-01 1.10641E-02 1.58473E+00-1.90601E-13 4.14592E-13
 -1      3887 1.49813E+01 3.77089E-02-1.21096E-02 2.58875E+00-3.25007E-13 2.16088E-13
 -1      3888 1.86742E+01-1.87846E+00 5.30545E-02-3.60956E+00 4.34899E-13 2.95722E-13
 -1      3889 2.00036E+01-3.41585E-04 4.59349E-06-4.00779E-03 2.58285E-13-3.48472E-13
 -1      3890 1.72860E+01-1.26861E+00 9.10436E-03-3.57234E+00 3.55031E-13 4.24057E-13
 -1      3891 1.55362E+01 1.00680E+00-3.14609E-02-1.81313E+00-4.86070E-14-4.46264E-13
 -1      3892 1.60714E+01 6.55442E-01 4.68988E-02-2.40314E+00-8.11885E-14-3.90686E-13
 -1      3893 1.70731E+01 3.37452E-01-1.81604E-02-2.50726E+00-9.27713E-14-2.97419E-13
 -1      3894 1.25734E+01 8.26407E-01 9.06917E-02 8.28743E-01-1.76907E-13 4.18304E-13
 -1      3895 1.29109E+01 8.14439E-01 1.32499E-02 4.65555E-02-1.14706E-13 4.37438E-13
 -1      3896 1.36374E+01 6.07203E-01 1.60253E-02 1.60328E+00-2.73910E-13 3.05410E-13
 -1      3897 2.22229E+01-3.52653E+00-1.73411E-02 2.72624E+00-3.48169E-13-1.91794E-13
 -1      3898 1.94672E+01-1.10861E+00 9.14019E-03 2.59342E+00-3.96266E-13-7.96625E-14
 -1      3899 1.98984E+01-1.65128E+00 1.09247E-02 2.75652E+00-3.54725E-13-1.01129E-13
 -1      3900 2.00037E+01 7.83990E-05-9.32269E-06-4.13327E-03 1.60823E-13-2.27858E-13
 -1      3901 2.00042E+01 1.11057E-03 2.03624E-05-3.88446E-03-3.76502E-14-1.08086E-13
 -1      3902 1.76152E+01 2.82292E+00 2.04068E-03 1.99632E-01 1.10840E-13-4.45816E-13
 -1      3903 1.37009E+01 2.47022E-01 9.26084E-02-2.52263E+00 1.99118E-13 5.33650E-13
 -1      3904 1.48835E+01-2.09728E-01 8.81127E-03-2.94885E+00 1.85681E-13 5.67350E-13
 -1      3905 1.85657E+01-7.51497E-01-2.09440E-02 2.67444E+00-3.20563E-13-9.47263E-14
 -1      3906 2.00052E+01 2.09689E-03-2.24479E-06-3.22091E-03 6.99235E-14 1.32132E-13
 -1      3907 1.33774E+01 5.01224E-01-5.00639E-03-1.71152E+00 8.91448E-14 6.10414E-13
 -1      3908 2.00062E+01 1.37943E-03-1.38415E-05-1.00369E-03 3.17303E-13-5.56852E-13
 -1      3909 2.00060E+01 1.30464E-03-1.13489E-05-1.66389E-03 3.22014E-13-2.16276E-13
 -1      3910 1.56774E+01 2.05384E-01-8.39571E-03 2.79646E+00 2.64570E-13-4.30114E-13
 -1      3911 1.86342E+01 1.39751E+00 7.66928E-03 1.38521E+00 7.54571E-14-3.53394E-13
 -1      3912 1.80363E+01 1.50488E+00 1.31993E-02 1.44329E+00 1.00927E-13-3.79695E-13
 -1      3913 1.86190E+01 1.63601E+00-4.73294E-03 1.18291E+00 5.32786E-14-3.83674E-13
 -1      3914 2.00064E+01 2.45628E-03 1.95060E-05-1.79083E-03 1.96906E-13-2.07754E-13
 -1      3915 2.00057E+01 1.06039E-03-1.01177E-05-2.23605E-03 3.65075E-13-1.43744E-13
 -1      3916 2.00053E+01 9.25669E-04-4.38940E-06-2.78083E-03 3.88348E-13 1.29322E-14
 -1      3917 1.87100E+01 2.04558E+00 1.57204E-03 8.64605E-01 2.23680E-14-4.23682E-13
 -1      3918 2.00063E+01 1.45793E-03-9.95448E-06 3.36822E-04 5.16169E-13-4.47323E-13
 -1      3919 2.00063E+01 1.45796E-03-1.11966E-05-3.40373E-04 5.08197E-13-6.55596E-13
 -1      3920 2.00069E+01 2.83862E-03 3.67725E-05-6.27666E-04 3.81960E-13-5.07144E-13
 -1      3921 1.77977E+01 2.80799E+00-9.58766E-03 3.39667E-01 9.67945E-14-4.47158E-13
 -1      3922 1.80320E+01 2.76289E+00 2.98844E-03 4.21207E-01 4.46557E-14-4.26154E-13
 -1      3923 1.80364E+01 2.55575E+00-3.52101E-03 5.51458E-01 5.19262E-14-4.16049E-13
 -1      3924 1.75654E+01 2.60165E+00 3.38314E-03 3.54104E-01 1.05696E-13-4.24875E-13
 -1      3925 1.72985E+01 2.18789E+00-3.64619E-03-7.19464E-01 1.34804E-13-3.96023E-13
 -1      3926 1.71590E+01 2.31178E+00-2.32193E-03-5.22776E-01 1.17534E-13-3.96454E-13
 -1      3927 1.70198E+01 2.38173E+00-7.68002E-03-1.53146E-01 1.07413E-13-4.14725E-13
 -1      3928 1.70358E+01 2.40947E+00 4.74878E-03 1.40476E-01 9.62787E-14-4.23994E-13
 -1      3929 1.68177E+01 2.17645E+00 1.74844E-02-3.05533E-01 7.17367E-14-3.88449E-13
 -1      3930 2.00060E+01 1.27054E-03-7.97806E-06 1.40764E-03 4.98171E-13 4.42006E-13
 -1      3931 2.00062E+01 1.34758E-03-1.76850E-05 8.71740E-04 5.60302E-13-5.00335E-14
 -1      3932 2.00069E+01 2.80534E-03 3.72059E-05 4.83685E-04 5.26591E-13-1.61743E-13
 -1      3933 1.46440E+01 1.05812E+00-1.41697E-02 1.63380E+00 2.04312E-13-5.05403E-13
 -1      3934 1.39985E+01 1.46281E+00 4.74846E-02 3.82809E-01 1.19991E-13-5.71815E-13
 -1      3935 1.47546E+01 1.47858E+00 3.43129E-02-2.40175E-01 6.79513E-14-5.20459E-13
 -1      3936 2.00046E+01 2.52018E-04 8.78173E-08-3.41410E-03 3.53056E-13-1.30038E-13
 -1      3937 1.63658E+01-5.07416E-01 5.48543E-02-3.16855E+00 2.81409E-13 5.51796E-13
 -1      3938 1.70302E+01 6.23420E-01 6.23768E-03-1.70891E+00 7.06457E-14 2.90593E-13
 -1      3939 1.72292E+01 7.57086E-01-1.69010E-02-1.46646E+00 5.96019E-14 2.88939E-13
 -1      3940 1.76089E+01 8.59669E-01 3.22271E-03-1.28468E+00 1.07618E-15 3.00670E-13
 -1      3941 1.77940E+01 9.18861E-01-1.19703E-02-1.12130E+00-4.73080E-14 2.03588E-13
 -1      3942 1.70557E+01 9.90306E-01 1.31957E-02-1.12670E+00 1.35777E-14 3.35074E-13
 -1      3943 1.80896E+01 9.59436E-01 1.35106E-03-9.95671E-01-5.84136E-14 1.23463E-13
 -1      3944 1.82566E+01 9.69384E-01-8.40601E-03-8.78373E-01-6.61544E-14 1.39533E-13
 -1      3945 1.76913E+01 1.06889E+00 1.03556E-02-8.53633E-01-8.86611E-14 3.69284E-13
 -1      3946 1.84901E+01 9.67559E-01 2.37269E-04-7.88815E-01-4.92665E-14 9.52271E-14
 -1      3947 1.86347E+01 9.46256E-01-6.06174E-03-7.00062E-01-6.03522E-14 7.48615E-14
 -1      3948 1.81946E+01 1.06367E+00 8.08291E-03-6.64445E-01-7.91607E-14 1.54177E-13
 -1      3949 1.88204E+01 9.18014E-01-2.88175E-04-6.32719E-01-1.07123E-13 1.48468E-13
 -1      3950 1.89421E+01 8.77925E-01-4.54427E-03-5.62335E-01-7.52167E-14 1.78065E-13
 -1      3951 1.85957E+01 1.00529E+00 6.29724E-03-5.28026E-01-1.58912E-14 1.51463E-13
 -1      3952 1.90905E+01 8.34499E-01-4.50211E-04-5.09262E-01-1.35153E-13 9.46624E-14
 -1      3953 1.91904E+01 7.84469E-01-3.52881E-03-4.51601E-01-1.77188E-13 7.65392E-14
 -1      3954 1.89168E+01 9.14853E-01 4.97466E-03-4.23434E-01-1.60189E-13 1.71196E-13
 -1      3955 1.93088E+01 7.33873E-01-4.44206E-04-4.08565E-01-1.32845E-13 4.24278E-14
 -1      3956 1.93894E+01 6.80264E-01-2.80702E-03-3.60540E-01-1.36709E-14 1.42198E-13
 -1      3957 1.91739E+01 8.07406E-01 3.96387E-03-3.39694E-01-7.95058E-14 2.43300E-14
 -1      3958 1.94832E+01 6.28071E-01-3.67846E-04-3.25184E-01 7.38059E-14 1.77720E-13
 -1      3959 1.95469E+01 5.75251E-01-2.26042E-03-2.85039E-01 1.46167E-13 2.47365E-13
 -1      3960 1.93786E+01 6.94270E-01 3.16258E-03-2.70991E-01 5.11329E-14 9.19373E-14
 -1      3961 1.96206E+01 5.25128E-01-2.71979E-04-2.55941E-01 1.90028E-13 2.07857E-13
 -1      3962 1.96701E+01 4.75879E-01-1.82511E-03-2.22554E-01 2.52672E-13 2.45921E-13
 -1      3963 1.95400E+01 5.83524E-01 2.51243E-03-2.14099E-01 1.81885E-13 2.64574E-13
 -1      3964 1.97273E+01 4.30036E-01-1.81639E-04-1.98744E-01 1.44185E-13 8.06256E-14
 -1      3965 1.97651E+01 3.85931E-01-1.46743E-03-1.71262E-01 9.76204E-14 5.44884E-14
 -1      3966 1.96659E+01 4.80467E-01 1.97938E-03-1.67044E-01 1.01506E-13 2.34491E-13
 -1      3967 1.98089E+01 3.45505E-01-1.07194E-04-1.51981E-01 1.15113E-13-1.00152E-13
 -1      3968 1.98372E+01 3.07237E-01-1.16947E-03-1.29658E-01 1.34554E-13-8.76238E-14
 -1      3969 1.97627E+01 3.88162E-01 1.54208E-03-1.28436E-01 3.31698E-14 1.07976E-13
 -1      3970 1.98702E+01 2.72612E-01-5.10747E-05-1.14248E-01 1.26510E-13-1.17490E-13
 -1      3971 1.98909E+01 2.40267E-01-9.21035E-04-9.63834E-02 6.95188E-14-1.76291E-13
 -1      3972 1.98360E+01 3.07985E-01 1.18549E-03-9.71323E-02 1.07214E-13-7.96848E-14
 -1      3973 1.99153E+01 2.11329E-01-1.18415E-05-8.42494E-02-4.35898E-14-2.01911E-13
 -1      3974 1.99302E+01 1.84602E-01-7.15351E-04-7.01760E-02-4.09708E-14-2.66253E-13
 -1      3975 1.98905E+01 2.40113E-01 8.97693E-04-7.21087E-02-4.48224E-14-2.51241E-13
 -1      3976 1.99479E+01 1.60933E-01 1.34828E-05-6.07727E-02-4.55995E-14-2.84985E-13
 -1      3977 1.99583E+01 1.39294E-01-5.47046E-04-4.98671E-02-3.94906E-14-2.62845E-13
 -1      3978 1.99303E+01 1.83934E-01 6.68376E-04-5.24123E-02-7.43335E-14-2.72703E-13
 -1      3979 1.99708E+01 1.20312E-01 2.81700E-05-4.27027E-02-5.05234E-14-2.07832E-13
 -1      3980 1.99778E+01 1.03123E-01-4.11271E-04-3.43957E-02-1.13153E-13-2.12670E-13
 -1      3981 1.99587E+01 1.38369E-01 4.88282E-04-3.71613E-02-2.57165E-14-2.64838E-13
 -1      3982 1.99864E+01 8.81800E-02 3.51957E-05-2.90353E-02-1.88193E-13-2.19387E-13
 -1      3983 1.99909E+01 7.47720E-02-3.03431E-04-2.28219E-02-8.18892E-14-8.84925E-14
 -1      3984 1.99784E+01 1.02108E-01 3.49053E-04-2.55546E-02-7.54626E-14 6.39432E-14
 -1      3985 1.99965E+01 6.32207E-02 3.70208E-05-1.88896E-02 5.26259E-15-1.59550E-13
 -1      3986 1.99993E+01 5.29498E-02-2.19179E-04-1.43332E-02 2.66381E-14-1.17055E-13
 -1      3987 1.99915E+01 7.37711E-02 2.43225E-04-1.68825E-02-4.37339E-14 3.91380E-14
 -1      3988 2.00028E+01 4.41806E-02 3.55623E-05-1.15115E-02 1.91865E-13-7.27419E-14
 -1      3989 2.00042E+01 3.64551E-02-1.54568E-04-8.24359E-03 2.66011E-13 2.11370E-14
 -1      3990 1.99998E+01 5.20228E-02 1.64219E-04-1.05311E-02 1.01052E-13 3.90379E-15
 -1      3991 2.00062E+01 2.99194E-02 3.22029E-05-6.27092E-03 7.71404E-14 9.74871E-14
 -1      3992 2.00068E+01 2.42166E-02-1.05719E-04-3.98805E-03 1.06906E-13 7.02935E-14
 -1      3993 2.00047E+01 3.56307E-02 1.06282E-04-5.98299E-03 2.49933E-13-1.05681E-13
 -1      3994 2.00077E+01 1.94377E-02 2.81586E-05-2.65175E-03 2.38975E-13 5.67985E-14
 -1      3995 2.00077E+01 1.53045E-02-6.97929E-05-1.10708E-03 1.90766E-13 9.64780E-14
 -1      3996 2.00072E+01 2.35055E-02 6.60059E-05-2.81333E-03 1.82789E-13 1.17938E-13
 -1      3997 2.00080E+01 1.18706E-02 2.40843E-05-2.39830E-04 1.67454E-13 1.39168E-13
 -1      3998 2.00076E+01 8.92354E-03-4.39314E-05 7.58782E-04 1.10078E-13 1.75955E-13
 -1      3999 2.00081E+01 1.47010E-02 3.95471E-05-6.71654E-04 2.13442E-13-5.69176E-15
 -1      4000 2.00074E+01 6.49323E-03 1.99774E-05 1.28417E-03-7.05246E-16 3.16822E-13
 -1      4001 2.00068E+01 4.42922E-03-1.63345E-05 1.88772E-03 1.38208E-13 1.78260E-13
 -1      4002 2.00078E+01 8.40234E-03 1.80479E-05 7.00552E-04 7.81729E-14 1.61330E-14
 -1      4003 1.92724E+01 7.32159E-01-3.65342E-03 5.74676E-01-1.92489E-13 5.97474E-14
 -1      4004 1.91948E+01 7.70255E-01 6.13409E-04 6.45962E-01-1.18857E-13 1.19768E-13
 -1      4005 1.78852E+01 3.53047E-01-1.14692E-02 1.86083E+00-1.97038E-13-2.71026E-14
 -1      4006 1.79003E+01 1.32533E-01 1.63079E-02 2.10002E+00-2.11109E-13-3.54491E-15
 -1      4007 1.90623E+01 7.98201E-01-4.56357E-03 7.18962E-01-1.01802E-13 1.16890E-13
 -1      4008 1.89735E+01 8.20464E-01 1.26759E-03 8.05733E-01-7.38947E-14 1.35965E-13
 -1      4009 1.89939E+01 8.56112E-01 4.06316E-03 5.88588E-01-9.51418E-14 2.43380E-13
 -1      4010 1.88132E+01 8.25795E-01-5.81534E-03 8.98876E-01-1.13363E-13 6.97671E-14
 -1      4011 1.87178E+01 8.20418E-01 2.53674E-03 1.00691E+00-1.29589E-13 9.73495E-14
 -1      4012 1.87136E+01 9.12149E-01 4.81284E-03 7.42223E-01-1.14440E-13 9.69751E-14
 -1      4013 1.94457E+01 6.46377E-01-2.96609E-03 4.56858E-01-3.87379E-14-8.73130E-15
 -1      4014 1.93807E+01 6.92020E-01 3.04987E-04 5.16100E-01-1.30992E-13 3.06349E-14
 -1      4015 1.92247E+01 7.71230E-01 3.38579E-03 4.67354E-01-1.22843E-13-3.66056E-14
 -1      4016 1.95857E+01 5.53692E-01-2.42220E-03 3.59959E-01-7.93460E-14-1.16213E-13
 -1      4017 1.95330E+01 6.01232E-01 1.76035E-04 4.09278E-01 1.06661E-14-3.47531E-14
 -1      4018 1.94123E+01 6.72836E-01 2.78710E-03 3.69601E-01 2.20697E-15 3.54550E-14
 -1      4019 1.96969E+01 4.62511E-01-1.97533E-03 2.80358E-01-7.17065E-14-1.33830E-13
 -1      4020 1.96552E+01 5.08297E-01 1.33270E-04 3.21200E-01-1.81113E-13-1.68430E-13
 -1      4021 1.95623E+01 5.71603E-01 2.26356E-03 2.89985E-01-9.61920E-14-2.12382E-14
 -1      4022 1.97834E+01 3.77949E-01-1.60010E-03 2.15413E-01-6.25172E-14 2.23455E-14
 -1      4023 1.97513E+01 4.19817E-01 1.26458E-04 2.48906E-01-3.34241E-14-1.29663E-13
 -1      4024 1.96806E+01 4.74560E-01 1.81151E-03 2.25068E-01-1.12735E-13-1.25925E-13
 -1      4025 1.98496E+01 3.02744E-01-1.28278E-03 1.62979E-01-7.14706E-14 2.36140E-13
 -1      4026 1.98254E+01 3.39598E-01 1.30271E-04 1.90104E-01-3.37499E-14 1.37347E-13
 -1      4027 1.97723E+01 3.85944E-01 1.42715E-03 1.72407E-01-5.65126E-14 8.56731E-14
 -1      4028 1.98991E+01 2.37990E-01-1.01534E-03 1.21179E-01-2.12424E-13 3.03324E-13
 -1      4029 1.98814E+01 2.69467E-01 1.33335E-04 1.42841E-01-1.38797E-13 2.76936E-13
 -1      4030 1.98422E+01 3.07926E-01 1.10588E-03 1.30082E-01-1.28678E-13 2.36288E-13
 -1      4031 1.99355E+01 1.83693E-01-7.92158E-04 8.83271E-02-1.69862E-13 2.58560E-13
 -1      4032 1.99228E+01 2.09911E-01 1.31684E-04 1.05367E-01-1.79096E-13 3.12771E-13
 -1      4033 1.98944E+01 2.41223E-01 8.42084E-04 9.64634E-02-1.43722E-13 3.18474E-13
 -1      4034 1.99616E+01 1.39193E-01-6.08383E-04 6.28968E-02 6.17518E-14 2.80699E-13
 -1      4035 1.99527E+01 1.60555E-01 1.24949E-04 7.60900E-02-5.46151E-14 2.11806E-13
 -1      4036 1.99326E+01 1.85589E-01 6.29347E-04 7.01203E-02-7.59478E-14 2.40564E-13
 -1      4037 1.99797E+01 1.03467E-01-4.59346E-04 4.35285E-02 5.14193E-14 3.21249E-13
 -1      4038 1.99738E+01 1.20526E-01 1.14249E-04 5.35748E-02 1.56811E-13 3.01312E-13
 -1      4039 1.99600E+01 1.40189E-01 4.60863E-04 4.97819E-02 2.83907E-14 3.04899E-13
 -1      4040 1.99919E+01 7.53324E-02-3.40414E-04 2.90318E-02-1.03461E-14 2.53492E-13
 -1      4041 1.99881E+01 8.86987E-02 1.01106E-04 3.65472E-02 3.08016E-14 2.60361E-13
 -1      4042 1.99790E+01 1.03871E-01 3.29849E-04 3.43283E-02 4.39374E-14 2.35343E-13
 -1      4043 1.99997E+01 5.35849E-02-2.47045E-04 1.83858E-02 8.51525E-14 2.34608E-13
 -1      4044 1.99975E+01 6.38654E-02 8.69316E-05 2.39004E-02 6.98247E-14 2.14291E-13
 -1      4045 1.99917E+01 7.53639E-02 2.29877E-04 2.27877E-02 2.79384E-14 2.36667E-13
 -1      4046 2.00043E+01 3.70828E-02-1.75210E-04 1.07328E-02-3.94421E-14 2.95528E-13
 -1      4047 2.00032E+01 4.48450E-02 7.28826E-05 1.46921E-02 4.91392E-14 2.92390E-13
 -1      4048 1.99998E+01 5.33960E-02 1.55054E-04 1.43314E-02 8.47702E-14 2.60264E-13
 -1      4049 2.00066E+01 2.47919E-02-1.21733E-04 5.36860E-03-3.30022E-14 2.21480E-13
 -1      4050 2.00063E+01 3.05441E-02 5.99392E-05 8.13925E-03 3.01415E-14 3.11444E-13
 -1      4051 2.00046E+01 3.67737E-02 9.98776E-05 8.26557E-03 1.86664E-14 3.36281E-13
 -1      4052 2.00075E+01 1.58154E-02-8.61122E-05 1.71562E-03 2.41963E-14 1.04480E-13
 -1      4053 2.00076E+01 2.00127E-02 5.31022E-05 3.60929E-03-4.17462E-14 1.02699E-13
 -1      4054 2.00070E+01 2.44287E-02 6.21033E-05 4.03666E-03 6.34680E-14 2.32214E-13
 -1      4055 2.00073E+01 9.37476E-03-5.69099E-05-6.67882E-04-1.08467E-13 3.36153E-13
 -1      4056 2.00078E+01 1.23814E-02 4.81395E-05 5.76171E-04-6.90700E-14 1.41381E-13
 -1      4057 2.00079E+01 1.54385E-02 2.57953E-05 1.16557E-03-3.23056E-14-5.82269E-14
 -1      4058 2.00066E+01 4.82440E-03-2.14290E-05-2.11838E-03 3.82428E-14 2.49435E-13
 -1      4059 2.00072E+01 6.92982E-03 3.84529E-05-1.35387E-03 1.69532E-14 2.41711E-13
 -1      4060 2.00076E+01 8.98129E-03-9.76918E-07-7.04396E-04 2.61559E-14 2.15261E-14
 -1      4061 1.34169E+01 9.61406E-01 7.63110E-02-7.92377E-01-3.94663E-14 5.40023E-13
 -1      4062 1.42545E+01 6.84683E-01 7.42566E-03-1.44562E+00-3.38526E-14 5.69017E-13
 -1      4063 1.38128E+01 9.40864E-01 3.54560E-03 1.17024E-01-1.68487E-13 3.69378E-13
 -1      4064 1.94634E+01 4.08899E-02 2.65964E-02-2.15487E+00 2.70725E-15-2.42753E-13
 -1      4065 1.83911E+01 4.64282E-01-2.41492E-02-2.12623E+00 2.00864E-14-2.50886E-13
 -1      4066 1.86297E+01-1.31158E+00 3.37076E-02 3.18655E+00-3.77961E-13-1.89961E-14
 -1      4067 1.75170E+01-6.99346E-01 1.02275E-02 2.94217E+00-3.17766E-13 9.98340E-14
 -1      4068 1.74494E+01-2.44353E-01-1.94729E-03 2.57156E+00-2.42639E-13 5.57458E-14
 -1      4069 2.13425E+01-2.68744E+00 4.66150E-02 2.79423E+00-4.04573E-13-1.87820E-13
 -1      4070 1.64551E+01 5.65059E-01-4.90851E-04 2.36474E+00 2.31080E-13-3.99830E-13
 -1      4071 1.55001E+01 9.17927E-01 4.38311E-02 2.07158E+00 2.27667E-13-4.66293E-13
 -1      4072 1.55777E+01 1.34665E+00 5.63961E-03 1.35012E+00 1.65103E-13-4.45651E-13
 -1      4073 1.97416E+01-1.88724E+00-1.28290E-02 2.98920E+00-3.38452E-13-9.23263E-14
 -1      4074 1.82555E+01 2.12097E+00 7.55913E-03 9.06429E-01 5.93424E-14-4.17738E-13
 -1      4075 2.00054E+01 1.43968E-03-4.21138E-06-2.95133E-03 2.41577E-13-2.10141E-15
 -1      4076 1.78025E+01 1.76829E+00-3.05372E-03-1.16496E+00 1.12389E-13-3.63851E-13
 -1      4077 1.75165E+01 1.95364E+00-7.60049E-03-1.01299E+00 1.22944E-13-3.85253E-13
 -1      4078 1.71156E+01 1.88265E+00 3.82574E-03-1.00663E+00 5.34895E-14-3.79882E-13
 -1      4079 1.77696E+01 1.36785E+00 1.42055E-02-1.51565E+00 6.32786E-14-3.48389E-13
 -1      4080 2.00055E+01 8.52341E-04-3.85667E-06 2.42790E-03 2.39420E-13 4.82041E-13
 -1      4081 2.00058E+01 9.51421E-04-1.61636E-05 1.89966E-03 3.45993E-13 5.92015E-13
 -1      4082 2.00065E+01 2.35323E-03 2.14953E-05 1.45783E-03 4.02741E-13 2.20520E-13
 -1      4083 2.00059E+01 1.70245E-03 8.18223E-06 2.39037E-03 1.61426E-13 4.05279E-13
 -1      4084 1.96338E+01-4.77820E-01 4.54992E-03-2.38103E+00-5.16978E-14-2.40417E-13
 -1      4085 1.68199E+01 1.89550E-01 1.06331E-02 2.28804E+00-2.25824E-13 1.36618E-13
 -1      4086 2.00074E+01 4.44640E-03-1.71627E-05-2.42314E-04 3.98328E-13-4.19566E-13
 -1      4087 2.00073E+01 4.36456E-03-1.72237E-05-8.08410E-04 2.48332E-13-3.32696E-13
 -1      4088 1.52371E+01 1.66738E+00-3.49682E-02 1.97118E-01 9.13642E-14-4.72932E-13
 -1      4089 1.52711E+01 1.61724E+00 3.36068E-02-8.68806E-01 2.14414E-14-4.84262E-13
 -1      4090 1.60229E+01 3.69726E-01 1.24077E-02 2.09543E+00-2.41256E-13 1.93628E-13
 -1      4091 1.49452E+01 5.93465E-01 3.72817E-02 1.88708E+00-2.23445E-13 1.62511E-13
 -1      4092 1.64958E+01 6.17426E-01-2.38834E-02 1.67640E+00-1.76745E-13 1.37579E-13
 -1      4093 1.57542E+01-7.43902E-02-1.85502E-02-2.65950E+00 1.51974E-13 4.67400E-13
 -1      4094 1.63569E+01 1.83795E-01 6.12289E-03-2.29464E+00 9.84972E-14 4.18597E-13
 -1      4095 1.65415E+01 4.55331E-01-2.38037E-02-1.94039E+00 5.44087E-14 3.54600E-13
 -1      4096 1.62596E+01 8.35748E-01 2.61994E-02-1.48419E+00 2.42975E-14 3.87450E-13
 -1      4097 1.52011E+01 5.89977E-01 5.24893E-02-2.00348E+00 1.33838E-14 5.90888E-13
 -1      4098 2.04920E+01-1.67974E+00 1.62394E-02-2.80660E+00-2.30877E-13-1.66356E-13
 -1      4099 1.68582E+01 8.19459E-01-9.64590E-04 2.08088E+00 1.95181E-13-4.10875E-13
 -1      4100 2.01082E+01-1.17858E+00 1.56119E-02-2.68013E+00-1.77534E-13-2.17657E-13
 -1      4101 2.00076E+01 6.43460E-03 2.58117E-05-8.81119E-04 1.52967E-13-2.49048E-13
 -1      4102 2.00071E+01 4.44614E-03-1.39055E-05-1.39595E-03 1.20124E-13-2.24839E-13
 -1      4103 1.76992E+01 3.29736E-01-6.53068E-03-2.37166E+00-4.00209E-14-2.56476E-13
 -1      4104 1.73992E+01 9.51120E-01 6.63680E-03-1.95571E+00 1.74687E-15-3.09651E-13
 -1      4105 1.71153E+01 1.21850E+00 1.28460E-02 1.71998E+00 1.50655E-13-4.19461E-13
 -1      4106 1.48873E+01 8.24847E-01-1.76435E-02-1.21178E+00-5.82607E-14 5.52870E-13
 -1      4107 1.79013E+01 2.16324E+00-7.90928E-03 8.40483E-01 9.22823E-14-4.07522E-13
 -1      4108 2.00073E+01 4.31489E-03-1.41055E-05 5.90296E-04 5.91719E-13-5.06248E-14
 -1      4109 2.00073E+01 4.37866E-03-3.24886E-05 1.48148E-04 4.78699E-13-4.10831E-13
 -1      4110 2.00079E+01 6.28499E-03 3.73684E-05-1.33729E-04 3.94133E-13-3.46105E-13
 -1      4111 1.60894E+01 1.42570E+00 1.97031E-02-1.27268E+00-2.53129E-14-4.07708E-13
 -1      4112 2.00060E+01 2.85519E-03 1.09939E-05-2.54959E-03 1.67497E-13 2.36742E-13
 -1      4113 2.00067E+01 4.18394E-03-6.08637E-06-1.88078E-03 1.07556E-13-1.20241E-13
 -1      4114 1.91843E+01-8.18193E-01-1.03476E-02-2.82408E+00-1.60681E-13-2.53999E-13
 -1      4115 1.69726E+01 1.25674E+00-6.01659E-05-1.66866E+00-1.88957E-14-3.60891E-13
 -1      4116 1.72358E+01 2.39066E+00-1.41755E-02 4.08037E-01 1.06853E-13-4.17782E-13
 -1      4117 1.75143E+01 2.43186E+00 1.58344E-02 5.52419E-01 7.98565E-14-4.05053E-13
 -1      4118 1.69063E+01 2.22389E+00-4.97817E-03 3.80125E-01 7.39999E-14-4.15826E-13
 -1      4119 1.63272E+01 1.95678E+00-1.12705E-02-5.51462E-01 5.15679E-14-4.06896E-13
 -1      4120 1.62436E+01 2.05320E+00 6.43882E-03-1.40832E-01 5.28888E-14-4.07450E-13
 -1      4121 1.83777E+01 9.17782E-01 5.55912E-03 9.43582E-01-1.21969E-13-2.35527E-14
 -1      4122 1.85261E+01 7.88392E-01-7.53478E-03 1.12981E+00-1.40763E-13 9.90485E-14
 -1      4123 1.84347E+01 7.38816E-01 4.89103E-03 1.26857E+00-1.30917E-13 8.92935E-14
 -1      4124 1.62366E+01 1.43254E+00-2.83116E-02 1.37879E+00 1.52961E-13-4.25933E-13
 -1      4125 1.57698E+01 1.67478E+00 3.18823E-02 9.10571E-01 1.25038E-13-4.42922E-13
 -1      4126 1.60389E+01 1.85001E+00 7.23461E-03 3.05556E-01 8.10949E-14-4.21231E-13
 -1      4127 1.71220E+01 1.50197E+00-7.58816E-03 1.36670E+00 1.17600E-13-4.02707E-13
 -1      4128 1.82090E+01 6.48639E-01-9.73749E-03 1.43702E+00-1.49509E-13-3.22744E-14
 -1      4129 1.81412E+01 5.32080E-01 8.97820E-03 1.62072E+00-1.89067E-13-8.76173E-14
 -1      4130 1.79805E+01 8.42475E-01 5.88521E-03 1.21815E+00-1.60615E-13-5.44608E-14
 -1      4131 1.75250E+01 6.41494E-01 6.58161E-03 1.60854E+00-1.89249E-13-2.74889E-14
 -1      4132 2.00062E+01 2.61506E-03 3.64529E-06 2.22260E-03 2.20765E-13 3.55222E-13
 -1      4133 2.00068E+01 3.84264E-03-2.98396E-06 1.58232E-03 2.10756E-13 1.27129E-13
 -1      4134 1.74642E+01 1.73900E+00-9.94590E-03 1.15001E+00 1.09161E-13-3.99516E-13
 -1      4135 1.68464E+01 2.02843E+00 2.38933E-02 7.92193E-01 9.53869E-14-3.96303E-13
 -1      4136 1.47152E+01 8.16204E-01-1.49583E-02 1.24118E+00-1.74579E-13 2.20182E-13
 -1      4137 1.65666E+01 1.04628E+00-7.14178E-03-8.35906E-01 4.08762E-14 3.57748E-13
 -1      4138 1.69296E+01 1.09477E+00-1.69904E-02-7.00264E-01-5.87625E-14 3.88856E-13
 -1      4139 1.83185E+01-4.85188E-02 3.56812E-02-2.63896E+00-7.67531E-14-2.35081E-13
 -1      4140 2.00081E+01 8.89103E-03-1.41672E-05-2.46613E-04 2.67796E-13-1.81060E-13
 -1      4141 2.00079E+01 8.94881E-03-2.50872E-05-6.09596E-04 3.77411E-14-1.81627E-13
 -1      4142 2.00082E+01 1.19206E-02 4.43141E-05 8.37918E-05 7.47183E-14-1.98704E-13
 -1      4143 1.75872E+01 1.96587E+00-1.33481E-02 9.42203E-01 9.75389E-14-4.00773E-13
 -1      4144 2.00071E+01 4.14850E-03-1.39296E-05 1.14051E-03 3.87216E-13-2.47811E-14
 -1      4145 1.64781E+01 1.97919E+00-1.74754E-02 5.13785E-01 8.86015E-14-4.21221E-13
 -1      4146 1.73426E+01 1.12058E+00-4.53441E-03-6.19125E-01-5.40392E-14 3.62136E-13
 -1      4147 1.76264E+01 1.12066E+00-1.10826E-02-5.30083E-01-1.28138E-13 3.54742E-13
 -1      4148 1.70067E+01 1.23594E+00 2.46595E-02-3.24061E-01-1.14157E-13 2.83825E-13
 -1      4149 1.79335E+01 1.10962E+00-4.30136E-03-4.80218E-01-2.01336E-13 2.86962E-13
 -1      4150 1.81603E+01 1.08375E+00-7.64799E-03-4.18334E-01-1.05385E-13 2.85079E-13
 -1      4151 1.77004E+01 1.20337E+00 2.02811E-02-2.53873E-01-1.87277E-13 2.63238E-13
 -1      4152 1.83960E+01 1.05097E+00-3.29363E-03-3.81987E-01-8.00227E-14 9.79469E-14
 -1      4153 1.85771E+01 1.00768E+00-5.43839E-03-3.35624E-01-8.78308E-14 5.67891E-14
 -1      4154 1.82198E+01 1.13244E+00 1.50617E-02-2.05219E-01-2.46782E-13 2.19615E-13
 -1      4155 1.87618E+01 9.60306E-01-2.58135E-03-3.07528E-01-1.18768E-13-1.46089E-14
 -1      4156 1.89068E+01 9.06726E-01-4.02930E-03-2.70619E-01-1.85113E-13-4.26467E-14
 -1      4157 1.86253E+01 1.03418E+00 1.13848E-02-1.67581E-01-2.12765E-13-9.96016E-14
 -1      4158 1.90528E+01 8.51527E-01-2.04715E-03-2.48158E-01-2.07880E-13 4.78672E-14
 -1      4159 1.91687E+01 7.93480E-01-3.07868E-03-2.17655E-01-7.05327E-14-3.65757E-14
 -1      4160 1.89460E+01 9.19262E-01 8.76556E-03-1.37083E-01-1.21286E-13-1.15412E-13
 -1      4161 1.92841E+01 7.35793E-01-1.62229E-03-1.99349E-01 9.52437E-14-2.68571E-14
 -1      4162 1.93760E+01 6.77708E-01-2.39679E-03-1.73700E-01 1.38152E-13 9.28705E-14
 -1      4163 1.92005E+01 7.97441E-01 6.82453E-03-1.11558E-01 1.04510E-14-6.24609E-14
 -1      4164 1.94669E+01 6.21419E-01-1.27554E-03-1.58684E-01 1.46392E-13 1.71017E-13
 -1      4165 1.95390E+01 5.66393E-01-1.88132E-03-1.37055E-01 1.96232E-13 1.50326E-13
 -1      4166 1.94016E+01 6.76602E-01 5.33333E-03-8.98757E-02 1.83478E-13 6.41882E-14
 -1      4167 1.96099E+01 5.14080E-01-9.91284E-04-1.24775E-01 8.00822E-14 2.19389E-13
 -1      4168 1.96657E+01 4.64054E-01-1.47681E-03-1.06652E-01 8.11523E-15 1.89038E-13
 -1      4169 1.95594E+01 5.62491E-01 4.15790E-03-7.14494E-02 1.55169E-13 2.22899E-13
 -1      4170 1.97203E+01 4.17220E-01-7.59771E-04-9.67020E-02-8.73244E-14 1.40571E-13
 -1      4171 1.97630E+01 3.73206E-01-1.15252E-03-8.16929E-02 8.82037E-15 1.39041E-13
 -1      4172 1.96818E+01 4.58810E-01 3.21834E-03-5.59282E-02-9.00254E-14 1.29175E-13
 -1      4173 1.98045E+01 3.32527E-01-5.73392E-04-7.37345E-02 6.43756E-15-2.43213E-14
 -1      4174 1.98365E+01 2.94845E-01-8.90448E-04-6.14823E-02-6.14492E-14-1.82079E-13
 -1      4175 1.97755E+01 3.67532E-01 2.46442E-03-4.30357E-02-1.74207E-13 4.40304E-14
 -1      4176 1.98675E+01 2.60404E-01-4.25429E-04-5.52129E-02-1.62946E-14-1.96436E-13
 -1      4177 1.98911E+01 2.28897E-01-6.78994E-04-4.53679E-02-5.80230E-14-2.26301E-13
 -1      4178 1.98461E+01 2.89295E-01 1.86163E-03-3.25020E-02-1.09336E-13-2.29933E-13
 -1      4179 1.99139E+01 2.00382E-01-3.09730E-04-4.05109E-02-6.85419E-14-2.47393E-13
 -1      4180 1.99310E+01 1.74588E-01-5.09716E-04-3.27295E-02-3.25151E-14-2.19883E-13
 -1      4181 1.98984E+01 2.23783E-01 1.38382E-03-2.40459E-02-4.86008E-14-2.30641E-13
 -1      4182 1.99473E+01 1.51454E-01-2.20695E-04-2.90334E-02 6.20956E-14-1.82633E-13
 -1      4183 1.99593E+01 1.30744E-01-3.75796E-04-2.29866E-02 1.51856E-13-1.18063E-13
 -1      4184 1.99363E+01 1.70068E-01 1.00960E-03-1.73797E-02 6.68581E-14-1.57949E-13
 -1      4185 1.99707E+01 1.12329E-01-1.53327E-04-2.02274E-02-6.93804E-14-4.69005E-14
 -1      4186 1.99789E+01 9.60064E-02-2.71370E-04-1.56104E-02-1.64296E-13-3.57460E-14
 -1      4187 1.99632E+01 1.26873E-01 7.20695E-04-1.22207E-02 5.72274E-14-1.48380E-13
 -1      4188 1.99866E+01 8.16116E-02-1.03268E-04-1.35934E-02-8.55797E-14 1.33893E-14
 -1      4189 1.99919E+01 6.89778E-02-1.91276E-04-1.01325E-02-2.32967E-14-2.27768E-14
 -1      4190 1.99816E+01 9.27755E-02 5.01235E-04-8.30347E-03-8.46639E-14 9.44530E-15
 -1      4191 1.99969E+01 5.79273E-02-6.67824E-05-8.69242E-03-1.24971E-14-1.04486E-14
 -1      4192 2.00002E+01 4.83239E-02-1.30944E-04-6.14925E-03 2.38440E-13-7.08009E-14
 -1      4193 1.99938E+01 6.63399E-02 3.37353E-04-5.38839E-03 1.92750E-14-2.35179E-14
 -1      4194 2.00032E+01 3.99942E-02-4.06942E-05-5.14851E-03 2.72390E-13-9.65007E-14
 -1      4195 2.00050E+01 3.28267E-02-8.61735E-05-3.32041E-03 1.59557E-13-8.37554E-14
 -1      4196 2.00014E+01 4.62098E-02 2.16314E-04-3.26684E-03 1.80091E-13-5.12888E-14
 -1      4197 2.00066E+01 2.66575E-02-2.42232E-05-2.64884E-03 1.38406E-13-1.78450E-13
 -1      4198 2.00074E+01 2.14157E-02-5.54281E-05-1.37438E-03 1.55687E-13-1.69722E-13
 -1      4199 2.00057E+01 3.11439E-02 1.22220E-04-1.76339E-03 1.63954E-13-3.73624E-13
 -1      4200 2.00080E+01 1.69277E-02-9.09232E-06-9.34054E-04 1.98004E-13-2.48346E-13
 -1      4201 2.00081E+01 1.31499E-02-3.67587E-05-9.07326E-05 1.07271E-13-4.68646E-13
 -1      4202 2.00078E+01 2.00959E-02 7.46154E-05-7.21519E-04 1.18788E-13-4.65234E-13
 -1      4203 1.93851E+01 6.70400E-01-3.13396E-03 2.69282E-01 1.86831E-14 1.92877E-13
 -1      4204 1.93030E+01 7.25485E-01-5.61021E-04 3.07880E-01 4.41561E-14 2.07685E-13
 -1      4205 1.70011E+01 7.70358E-01 9.30862E-03 1.44936E+00-1.33114E-13 8.77101E-14
 -1      4206 1.63596E+01 9.13131E-01 2.02298E-02 1.26042E+00-1.20477E-13 7.54076E-14
 -1      4207 1.72133E+01 8.59027E-01-1.93440E-02 1.22995E+00-1.65242E-13 2.20088E-14
 -1      4208 1.91858E+01 7.76576E-01-3.96999E-03 3.42550E-01-6.58168E-14 1.46224E-13
 -1      4209 1.90841E+01 8.29408E-01-6.13180E-04 3.89760E-01-4.67606E-14 2.99227E-13
 -1      4210 1.91948E+01 7.98911E-01 7.77838E-03 2.38714E-01-5.17507E-14 3.23419E-13
 -1      4211 1.86291E+01 9.52041E-01-6.84778E-03 5.50153E-01-1.94557E-13 2.21367E-13
 -1      4212 1.84803E+01 9.82005E-01-2.61459E-04 6.25568E-01-1.84021E-13 1.40676E-13
 -1      4213 1.95432E+01 5.64918E-01-2.49861E-03 2.09996E-01-1.13759E-14-2.63911E-14
 -1      4214 1.94781E+01 6.18420E-01-4.59209E-04 2.41747E-01 2.27708E-14 1.67122E-13
 -1      4215 1.93945E+01 6.83121E-01 6.07510E-03 1.86470E-01 5.82656E-14 2.13584E-13
 -1      4216 1.96672E+01 4.65913E-01-1.99508E-03 1.61989E-01-1.21976E-13-8.78502E-14
 -1      4217 1.96164E+01 5.15371E-01-3.46296E-04 1.88053E-01-8.40781E-14-1.65730E-13
 -1      4218 1.95522E+01 5.71521E-01 4.74116E-03 1.44662E-01 2.61190E-14 1.18591E-14
 -1      4219 1.97629E+01 3.76770E-01-1.58575E-03 1.23315E-01-1.02436E-13 1.07026E-13
 -1      4220 1.97240E+01 4.20806E-01-2.42292E-04 1.44551E-01-1.09865E-13-2.34863E-15
 -1      4221 1.96752E+01 4.68687E-01 3.67783E-03 1.11112E-01-1.71200E-13-1.90119E-13
 -1      4222 1.98356E+01 2.99084E-01-1.24936E-03 9.24409E-02-1.12309E-13 1.63913E-13
 -1      4223 1.98064E+01 3.37125E-01-1.55734E-04 1.09556E-01-1.04312E-13 1.32157E-13
 -1      4224 1.97698E+01 3.77220E-01 2.82449E-03 8.42769E-02-1.19335E-13-1.24989E-13
 -1      4225 1.98900E+01 2.33187E-01-9.72870E-04 6.80774E-02-9.75282E-14 2.23118E-13
 -1      4226 1.98684E+01 2.65222E-01-8.86385E-05 8.16953E-02-1.07317E-13 2.78250E-13
 -1      4227 1.98414E+01 2.98196E-01 2.14086E-03 6.29760E-02-1.62027E-13 2.87242E-14
 -1      4228 1.99297E+01 1.78579E-01-7.47154E-04 4.91070E-02-3.03580E-14 2.29303E-13
 -1      4229 1.99142E+01 2.04959E-01-3.96694E-05 5.97893E-02 1.77241E-14 2.82960E-13
 -1      4230 1.98947E+01 2.31601E-01 1.59731E-03 4.62437E-02-5.19902E-14 1.40370E-13
 -1      4231 1.99581E+01 1.34262E-01-5.64903E-04 3.45519E-02 2.69561E-14 7.13400E-14
 -1      4232 1.99473E+01 1.55549E-01-6.03833E-06 4.28046E-02-2.64431E-14 1.09764E-13
 -1      4233 1.99335E+01 1.76704E-01 1.17006E-03 3.32635E-02 5.57489E-14-6.60495E-14
 -1      4234 1.99779E+01 9.89886E-02-4.19722E-04 2.35620E-02 6.63273E-14 7.32541E-14
 -1      4235 1.99705E+01 1.15842E-01 1.54234E-05 2.98351E-02 1.48816E-13 1.40972E-13
 -1      4236 1.99610E+01 1.32351E-01 8.38904E-04 2.33350E-02 3.89810E-14-1.17878E-13
 -1      4237 1.99911E+01 7.14307E-02-3.05816E-04 1.54084E-02 3.58896E-14-4.57124E-14
 -1      4238 1.99864E+01 8.45296E-02 2.77087E-05 2.00942E-02 8.56193E-16-4.22973E-14
 -1      4239 1.99801E+01 9.71901E-02 5.86320E-04 1.58586E-02 1.24185E-13-1.34706E-13
 -1      4240 1.99995E+01 5.02916E-02-2.17902E-04 9.47600E-03-1.88893E-14 2.81964E-14
 -1      4241 1.99967E+01 6.02878E-02 3.33887E-05 1.29101E-02 5.72856E-14-3.39469E-14
 -1      4242 1.99927E+01 6.98222E-02 3.97069E-04 1.03254E-02 3.78413E-14-1.30202E-13
 -1      4243 2.00045E+01 3.43741E-02-1.49268E-04 5.25433E-03 7.81118E-14 2.28832E-13
 -1      4244 2.00030E+01 4.18625E-02 3.47064E-05 7.71743E-03 4.07280E-15 1.67225E-13
 -1      4245 2.00007E+01 4.89048E-02 2.57825E-04 6.31007E-03-9.01018E-14 1.16471E-13
 -1      4246 2.00070E+01 2.26103E-02-1.03795E-04 2.34674E-03 4.32911E-14 1.24989E-14
 -1      4247 2.00065E+01 2.80991E-02 3.02088E-05 4.03813E-03 1.65276E-13 8.40825E-14
 -1      4248 2.00053E+01 3.32084E-02 1.52551E-04 3.45544E-03 1.09006E-13-6.61715E-14
 -1      4249 2.00079E+01 1.47777E-02-5.78665E-05 4.76651E-04 1.38461E-13-2.05865E-13
 -1      4250 2.00079E+01 1.88500E-02 4.82138E-05 1.55985E-03 6.04569E-14-1.22814E-13
 -1      4251 2.00074E+01 2.24237E-02 8.05442E-05 1.42192E-03 1.12623E-13-1.42079E-13
 -1      4252 2.00082E+01 1.50122E-02 3.39243E-05 2.75416E-04 1.17468E-13-9.78538E-14
 -1      4253 1.47161E+01 1.04022E+00 2.32280E-02 6.89300E-01-1.23999E-13 3.04411E-13
 -1      4254 1.48925E+01 1.06939E+00-1.41874E-02-4.79949E-02-1.10279E-13 3.79489E-13
 -1      4255 1.57530E+01 9.81483E-01 6.53381E-03 9.24563E-01-6.85342E-14 1.70239E-13
 -1      4256 1.89371E+01 8.74622E-01-5.13268E-03 4.33922E-01-6.58257E-14 1.88572E-13
 -1      4257 1.88131E+01 9.19719E-01-5.49700E-04 4.92675E-01-1.36268E-13 2.60610E-13
 -1      4258 1.89442E+01 9.11926E-01 1.00166E-02 3.04733E-01-1.15135E-13 2.93550E-13
 -1      4259 1.66631E+01 1.51788E+00 8.10527E-05-1.36656E+00-1.75268E-14-3.73067E-13
 -1      4260 2.00077E+01 6.11315E-03 2.76724E-05 6.95643E-04 3.73790E-13-2.04433E-13
 -1      4261 1.51533E+01 1.08292E+00 2.49907E-02-5.68760E-01-7.90806E-14 5.38412E-13
 -1      4262 1.57659E+01 9.31863E-01-8.18483E-03-1.10206E+00-4.21505E-14 5.26199E-13
 -1      4263 1.62129E+01 1.00280E+00-2.08481E-02-9.34118E-01 3.58360E-14 4.04863E-13
 -1      4264 1.57795E+01 1.14204E+00 1.77654E-03-6.51320E-02-3.50807E-14 4.05990E-13
 -1      4265 1.62823E+01 1.18111E+00 1.91583E-02-4.73691E-01-4.80312E-15 4.52542E-13
 -1      4266 2.00081E+01 8.87046E-03 2.48915E-07 4.80545E-06 3.84794E-13-2.36307E-13
 -1      4267 2.00081E+01 9.94817E-03-1.15955E-06 2.05068E-04 1.42880E-13-3.40084E-13
 -1      4268 2.00078E+01 7.27814E-03-2.50463E-05 7.10089E-04 1.87727E-13-1.94982E-13
 -1      4269 1.86314E+01 1.01253E+00 1.30555E-02 3.89932E-01-2.26690E-13 1.84148E-13
 -1      4270 1.61560E+01 1.04650E+00-1.71097E-02 7.45811E-01-8.52226E-14 7.37904E-14
 -1      4271 1.82481E+01 9.92092E-01-9.47912E-03 7.02878E-01-1.72929E-13 1.70221E-14
 -1      4272 1.80732E+01 9.97227E-01 5.71742E-04 8.03949E-01-1.61784E-13 3.41099E-14
 -1      4273 1.82406E+01 1.08821E+00 1.72150E-02 5.03303E-01-2.79231E-13 1.56983E-13
 -1      4274 2.00083E+01 1.21526E-02 3.88878E-05-2.32731E-05 2.30438E-13-5.47953E-13
 -1      4275 1.77759E+01 9.72630E-01-1.34314E-02 9.13201E-01-1.67723E-13 2.75749E-14
 -1      4276 1.75783E+01 9.40330E-01 3.73190E-03 1.05521E+00-2.03078E-13-3.09863E-14
 -1      4277 1.77461E+01 1.12234E+00 2.19831E-02 6.59853E-01-1.88156E-13 9.60707E-14
 -1      4278 1.71228E+01 1.07435E+00 1.94955E-02 8.97823E-01-1.48942E-13 2.25740E-14
 -1      4279 1.60757E+01 1.20082E+00 5.17538E-03 3.53157E-03-6.40677E-14 3.20811E-13
 -1      4280 1.68813E+01 1.15022E+00-1.73892E-02 2.29527E-01-1.55665E-13 1.57602E-13
 -1      4281 1.72929E+01 1.15232E+00-1.30483E-02 2.28817E-01-1.39837E-13 1.26362E-13
 -1      4282 1.75867E+01 1.13835E+00-1.74747E-02 1.60397E-01-1.82285E-13 1.40696E-13
 -1      4283 1.78969E+01 1.12496E+00-1.09596E-02 1.65820E-01-2.64645E-13 1.15440E-13
 -1      4284 1.81295E+01 1.09015E+00-1.32117E-02 1.17286E-01-2.81753E-13 1.38197E-13
 -1      4285 1.83695E+01 1.05669E+00-8.25550E-03 1.22816E-01-3.07278E-13 5.68797E-14
 -1      4286 1.85542E+01 1.00744E+00-9.84588E-03 8.70677E-02-2.31618E-13 1.72838E-13
 -1      4287 1.87425E+01 9.60434E-01-6.21273E-03 9.22228E-02-1.87794E-13 8.09653E-14
 -1      4288 1.88897E+01 9.02863E-01-7.48147E-03 6.49924E-02-1.90852E-13 1.68859E-13
 -1      4289 1.90384E+01 8.48573E-01-4.72995E-03 6.98853E-02-1.30448E-13 1.07569E-13
 -1      4290 1.91557E+01 7.87860E-01-5.78765E-03 4.85439E-02-6.45320E-15 9.81463E-14
 -1      4291 1.92733E+01 7.31317E-01-3.62609E-03 5.32027E-02 1.22697E-13 9.85025E-14
 -1      4292 1.93661E+01 6.71467E-01-4.52241E-03 3.61585E-02 1.64362E-13 8.00474E-14
 -1      4293 1.94587E+01 6.16368E-01-2.78076E-03 4.05224E-02 1.87125E-13 1.36673E-13
 -1      4294 1.95315E+01 5.60195E-01-3.54211E-03 2.67851E-02 8.67385E-14 1.07798E-13
 -1      4295 1.96037E+01 5.09014E-01-2.12108E-03 3.07685E-02 2.95650E-14 7.43032E-14
 -1      4296 1.96601E+01 4.58269E-01-2.76412E-03 1.96821E-02-1.26320E-13 5.78464E-14
 -1      4297 1.97158E+01 4.12454E-01-1.60192E-03 2.32167E-02-2.10475E-13-8.27244E-15
 -1      4298 1.97589E+01 3.68020E-01-2.13954E-03 1.43086E-02-1.76006E-13-2.82553E-14
 -1      4299 1.98012E+01 3.28227E-01-1.19340E-03 1.73596E-02-1.70524E-13-7.99826E-14
 -1      4300 1.98336E+01 2.90330E-01-1.63727E-03 1.02604E-02-1.67764E-13-3.58258E-14
 -1      4301 1.98653E+01 2.56640E-01-8.73976E-04 1.28268E-02-1.10100E-13-7.71103E-14
 -1      4302 1.98892E+01 2.25057E-01-1.23545E-03 7.22992E-03-4.60583E-16-5.66525E-14
 -1      4303 1.99124E+01 1.97166E-01-6.26889E-04 9.33779E-03 4.87484E-14-1.42959E-13
 -1      4304 1.99297E+01 1.71387E-01-9.17080E-04 4.98050E-03 8.16676E-14-1.85977E-13
 -1      4305 1.99464E+01 1.48763E-01-4.38431E-04 6.67356E-03 1.39303E-13-1.71397E-13
 -1      4306 1.99585E+01 1.28124E-01-6.68003E-04 3.32860E-03 4.85747E-14-1.02614E-13
 -1      4307 1.99702E+01 1.10118E-01-2.97083E-04 4.65997E-03-2.39337E-14-7.95016E-14
 -1      4308 1.99784E+01 9.38974E-02-4.75967E-04 2.13141E-03 4.36783E-14-4.70648E-14
 -1      4309 1.99863E+01 7.98272E-02-1.93084E-04 3.15684E-03 3.32502E-14 2.50599E-14
 -1      4310 1.99917E+01 6.73080E-02-3.30187E-04 1.27787E-03-8.89860E-14 1.42432E-13
 -1      4311 1.99968E+01 5.65106E-02-1.17992E-04 2.05100E-03-4.97838E-14 3.70606E-14
 -1      4312 2.00001E+01 4.70240E-02-2.20621E-04 6.82620E-04 8.83061E-15 2.99510E-14
 -1      4313 2.00032E+01 3.88876E-02-6.33752E-05 1.25345E-03 1.32641E-13-4.91810E-14
 -1      4314 2.00050E+01 3.18472E-02-1.33431E-04 2.83328E-04 1.58869E-13-1.94108E-13
 -1      4315 2.00067E+01 2.58346E-02-2.08932E-05 6.64288E-04 1.18243E-13-2.04436E-13
 -1      4316 2.00074E+01 2.13662E-02-8.55269E-05-1.03498E-04 1.30210E-13-1.80477E-13
 -1      4317 2.00081E+01 1.69081E-02-1.11612E-05 2.06789E-04 1.09367E-13-1.89254E-13
 -1      4318 2.00080E+01 7.42056E-03-2.88607E-05 2.33648E-04 4.66766E-13-4.32851E-13
 -1      4319 1.65412E+01 1.13287E+00-4.30562E-03 3.37550E-01-1.18741E-13 1.67094E-13
 -1      4320 2.00082E+01 1.35590E-02-4.96851E-05-1.61793E-04 1.56342E-13-2.79791E-13
 -1      4321 2.00082E+01 1.03757E-02 1.01368E-05 6.79796E-05 3.45998E-13-2.14498E-13
 -3
    1PSTEP                         3           1           1          
  100CL  101 1.000000000        4321                     0    1           1
 -4  TOSTRAIN    6    1
 -5  EXX         1    4    1    1
 -5  EYY         1    4    2    2
 -5  EZZ         1    4    3    3
 -5  EXY         1    4    1    2
 -5  EYZ         1    4    2    3
 -5  EZX         1    4    3    1
 -1         1 3.04729E-04-9.24050E-05-7.83716E-05-3.46836E-05-1.30151E-18 9.52520E-18
 -1         2 3.59622E-05-1.10615E-04 2.02020E-05-1.65619E-06 6.55577E-18 8.82052E-19
 -1         3 9.52377E-05-2.85706E-05-2.85722E-05 6.31605E-10-4.51125E-18-4.11944E-18
 -1         4 9.52377E-05-2.85706E-05-2.85722E-05-5.65148E-10 2.09090E-18-1.06173E-18
 -1         5 1.44419E-04-2.12686E-05-4.35770E-05 3.78262E-05-3.91012E-19 2.63174E-17
 -1         6 1.45773E-04 2.67522E-10-4.51884E-05-5.22766E-05-1.51090E-18 2.03953E-17
 -1         7 9.48930E-05-7.97665E-07-4.04653E-05-2.66666E-05-2.13876E-19 2.46045E-18
 -1         8 8.87989E-05-2.91721E-08-3.77179E-05-1.62337E-05-2.31690E-19-2.72812E-18
 -1         9 8.52060E-05 2.43703E-08-3.62924E-05-1.08349E-05-1.85765E-19-5.29486E-18
 -1        10 8.24921E-05 2.97060E-08-3.51923E-05-7.13446E-06-1.10644E-19-6.45026E-18
 -1        11 8.02528E-05 4.08431E-08-3.42946E-05-4.50140E-06-6.21775E-20-6.91764E-18
 -1        12 7.84910E-05 5.22390E-08-3.35935E-05-2.68021E-06-6.86891E-21-6.97219E-18
 -1        13 7.72291E-05 6.31104E-08-3.30940E-05-1.39555E-06 1.28246E-20-6.86174E-18
 -1        14 7.65893E-05 6.88514E-08-3.28406E-05-4.55263E-07 6.98405E-20-6.67561E-18
 -1        15 7.66197E-05 6.81406E-08-3.28514E-05 3.82345E-07 9.53541E-20-6.37131E-18
 -1        16 7.73121E-05 6.11319E-08-3.31232E-05 1.36289E-06 1.32038E-19-5.96737E-18
 -1        17 7.86058E-05 4.82446E-08-3.36333E-05 2.72145E-06 1.62710E-19-5.36778E-18
 -1        18 8.03678E-05 3.66187E-08-3.43337E-05 4.62930E-06 2.08489E-19-4.39512E-18
 -1        19 8.25836E-05 2.71806E-08-3.52233E-05 7.36334E-06 2.75550E-19-2.89623E-18
 -1        20 8.52460E-05 2.96267E-08-3.63105E-05 1.11578E-05 3.34287E-19-4.63684E-19
 -1        21 8.87388E-05 4.82108E-08-3.77442E-05 1.65553E-05 3.47813E-19 3.70686E-18
 -1        22 9.55215E-05-3.39889E-07-4.01196E-05 2.55185E-05 4.46810E-20 1.12020E-17
 -1        23 1.17821E-04-3.97935E-05-3.68871E-05-3.62744E-06-1.02642E-18 1.52079E-17
 -1        24 1.01004E-04-3.01776E-05-3.14155E-05 5.25636E-07-2.61763E-19 1.08602E-17
 -1        25 1.00266E-04-3.02049E-05-3.02587E-05 4.52515E-07-1.55298E-19 6.53174E-18
 -1        26 1.02091E-04-3.07112E-05-3.06238E-05 2.93856E-07-3.41295E-21 3.67293E-18
 -1        27 1.05185E-04-3.16023E-05-3.15364E-05 2.52882E-07 1.90810E-20 1.76354E-18
 -1        28 1.08797E-04-3.26541E-05-3.26068E-05 2.30327E-07-3.38043E-20 5.98773E-19
 -1        29 1.12225E-04-3.36608E-05-3.35932E-05 1.92907E-07-4.99456E-20-3.13157E-19
 -1        30 1.14586E-04-3.43575E-05-3.42329E-05 1.05400E-07-5.76189E-20-9.58027E-19
 -1        31 1.14819E-04-3.44267E-05-3.42273E-05-6.42774E-08 1.24168E-19-2.19626E-18
 -1        32 1.11944E-04-3.35744E-05-3.33302E-05-3.20048E-07-3.51543E-19-4.07395E-18
 -1        33 1.05657E-04-3.17025E-05-3.15127E-05-5.97039E-07 2.73599E-19-4.65159E-18
 -1        34 9.70555E-05-2.91290E-05-2.91343E-05-7.43151E-07-2.32381E-19-5.03847E-18
 -1        35 8.88886E-05-2.66745E-05-2.69498E-05-5.95579E-07 2.86615E-19-6.19202E-18
 -1        36 8.45854E-05-2.53768E-05-2.58273E-05-1.44488E-07-9.70581E-20-6.86613E-18
 -1        37 8.62676E-05-2.58837E-05-2.62799E-05 3.91646E-07-3.39309E-20-7.94469E-18
 -1        38 9.32839E-05-2.79958E-05-2.81525E-05 7.22606E-07-1.86295E-19-9.80062E-18
 -1        39 1.02678E-04-3.08130E-05-3.07188E-05 7.27175E-07-1.24280E-19-1.16112E-17
 -1        40 1.11127E-04-3.33352E-05-3.31110E-05 5.04782E-07-1.07596E-19-1.17190E-17
 -1        41 1.16589E-04-3.49584E-05-3.47358E-05 2.30314E-07 5.10916E-20-1.23993E-17
 -1        42 1.18663E-04-3.55719E-05-3.54197E-05 1.95404E-08-1.01743E-20-1.21210E-17
 -1        43 1.18022E-04-3.53804E-05-3.53057E-05-9.74925E-08 1.94123E-20-9.64490E-18
 -1        44 1.15687E-04-3.46872E-05-3.46681E-05-1.39815E-07 1.15445E-19-8.27488E-18
 -1        45 1.12571E-04-3.37616E-05-3.37723E-05-1.38057E-07-1.46557E-19-9.07812E-18
 -1        46 1.09312E-04-3.27922E-05-3.28140E-05-1.16588E-07-1.86201E-19-9.57793E-18
 -1        47 1.06282E-04-3.18892E-05-3.19117E-05-8.99735E-08 2.18362E-19-7.58257E-18
 -1        48 1.03656E-04-3.11049E-05-3.11238E-05-6.52273E-08 4.86569E-19-6.24274E-18
 -1        49 1.01486E-04-3.04554E-05-3.04694E-05-4.49071E-08 1.76249E-19-5.50854E-18
 -1        50 9.97535E-05-2.99358E-05-2.99455E-05-2.93584E-08 1.32861E-19-6.15586E-18
 -1        51 9.84088E-05-2.95317E-05-2.95380E-05-1.80142E-08 1.04912E-19-5.60835E-18
 -1        52 9.73902E-05-2.92251E-05-2.92288E-05-1.00458E-08 1.93931E-19-5.08866E-18
 -1        53 9.66364E-05-2.89977E-05-2.89997E-05-4.64803E-09-6.64935E-19-6.15656E-18
 -1        54 9.60919E-05-2.88332E-05-2.88340E-05-1.13965E-09 5.87969E-19-8.04046E-18
 -1        55 9.57089E-05-2.87172E-05-2.87173E-05 1.01804E-09-9.17024E-19-7.56942E-18
 -1        56 9.54481E-05-2.86379E-05-2.86376E-05 2.23514E-09-9.51056E-20-9.41998E-18
 -1        57 9.52776E-05-2.85860E-05-2.85854E-05 2.81606E-09-7.15846E-20-6.55160E-18
 -1        58 9.51728E-05-2.85539E-05-2.85532E-05 2.98233E-09 1.45007E-19-6.89611E-18
 -1        59 9.51142E-05-2.85358E-05-2.85351E-05 2.89227E-09 1.09492E-19-5.82411E-18
 -1        60 9.50876E-05-2.85274E-05-2.85267E-05 2.65681E-09-4.61809E-19-4.28481E-18
 -1        61 9.50820E-05-2.85254E-05-2.85248E-05 2.35183E-09 4.35448E-19-3.38511E-18
 -1        62 9.50899E-05-2.85275E-05-2.85270E-05 2.02770E-09-3.46172E-19-2.92649E-18
 -1        63 9.51055E-05-2.85320E-05-2.85316E-05 1.71644E-09-2.55942E-19-2.59612E-18
 -1        64 9.51253E-05-2.85378E-05-2.85375E-05 1.43698E-09-1.00511E-18-3.13376E-18
 -1        65 9.51466E-05-2.85441E-05-2.85439E-05 1.19885E-09-2.81041E-19-5.65293E-18
 -1        66 9.51678E-05-2.85504E-05-2.85502E-05 1.00414E-09 1.50426E-19-6.48697E-18
 -1        67 9.51879E-05-2.85564E-05-2.85562E-05 8.47621E-10 4.52822E-19-6.56433E-18
 -1        68 9.52059E-05-2.85617E-05-2.85616E-05 7.13357E-10-1.70728E-19-4.50212E-18
 -1        69 9.52210E-05-2.85662E-05-2.85660E-05 5.60162E-10 4.90231E-19-2.97766E-18
 -1        70 9.52320E-05-2.85696E-05-2.85693E-05 2.54533E-10 7.28688E-20 1.44433E-18
 -1        71 9.52375E-05-2.85714E-05-2.85710E-05-2.18579E-10-8.32445E-19 4.27735E-19
 -1        72 1.06996E-04-3.20211E-05-3.56782E-05-2.23369E-06 2.44131E-19 2.50244E-17
 -1        73 1.00668E-04-2.99617E-05-3.12975E-05-4.17305E-07 1.93597E-19 2.05209E-17
 -1        74 1.00009E-04-2.99798E-05-3.02275E-05-1.80949E-07 1.10165E-19 1.71559E-17
 -1        75 1.01710E-04-3.05342E-05-3.05408E-05-1.59884E-07 8.24525E-20 1.49289E-17
 -1        76 1.04572E-04-3.13820E-05-3.13633E-05-1.68522E-07-4.60479E-20 1.37833E-17
 -1        77 1.07855E-04-3.23524E-05-3.23229E-05-1.88763E-07-3.65743E-21 1.28492E-17
 -1        78 1.10858E-04-3.32476E-05-3.31758E-05-2.01923E-07 1.04059E-21 1.21967E-17
 -1        79 1.12739E-04-3.38192E-05-3.36700E-05-1.79048E-07 1.74542E-19 1.10407E-17
 -1        80 1.12538E-04-3.37810E-05-3.35391E-05-8.34658E-08 1.24375E-19 1.02640E-17
 -1        81 1.09445E-04-3.28834E-05-3.25850E-05 1.09470E-07 2.16764E-19 9.27833E-18
 -1        82 1.03323E-04-3.10669E-05-3.08241E-05 3.72064E-07-7.12972E-20 9.57160E-18
 -1        83 9.53104E-05-2.86473E-05-2.86179E-05 5.92736E-07 1.15843E-19 9.90152E-18
 -1        84 8.79248E-05-2.63741E-05-2.66539E-05 6.13033E-07 2.73731E-20 9.03310E-18
 -1        85 8.41722E-05-2.51819E-05-2.56886E-05 3.53881E-07-2.37566E-21 7.50363E-18
 -1        86 8.58477E-05-2.56574E-05-2.61505E-05-7.36084E-08 7.19564E-20 4.54981E-18
 -1        87 9.23348E-05-2.76301E-05-2.78852E-05-4.39694E-07-3.61078E-19 3.85887E-18
 -1        88 1.01035E-04-3.02919E-05-3.02525E-05-5.82113E-07 6.29538E-20 4.63756E-18
 -1        89 1.08998E-04-3.27206E-05-3.24893E-05-5.06817E-07 2.27208E-19 2.71236E-18
 -1        90 1.14343E-04-3.43384E-05-3.40610E-05-3.24782E-07-1.79904E-19 2.27963E-18
 -1        91 1.16618E-04-3.50161E-05-3.47910E-05-1.42063E-07-3.26111E-19 3.20236E-18
 -1        92 1.16349E-04-3.49238E-05-3.47842E-05-1.07579E-08 1.30214E-19 2.65917E-18
 -1        93 1.14423E-04-3.43358E-05-3.42720E-05 6.25852E-08 9.56794E-20 2.25454E-18
 -1        94 1.11672E-04-3.35042E-05-3.34915E-05 9.21381E-08 1.03948E-19-1.67104E-19
 -1        95 1.08702E-04-3.26103E-05-3.26255E-05 9.52335E-08 5.29112E-20-2.19951E-18
 -1        96 1.05883E-04-3.17639E-05-3.17908E-05 8.51819E-08-4.06899E-19 1.00441E-18
 -1        97 1.03403E-04-3.10201E-05-3.10493E-05 7.02771E-08 1.85741E-19 2.31065E-18
 -1        98 1.01329E-04-3.03985E-05-3.04253E-05 5.49748E-08-5.33677E-19 2.43199E-18
 -1        99 9.96584E-05-2.98979E-05-2.99205E-05 4.13182E-08-1.67935E-19 1.11804E-18
 -1       100 9.83523E-05-2.95064E-05-2.95245E-05 3.00094E-08-1.80057E-19 1.21993E-18
 -1       101 9.73574E-05-2.92081E-05-2.92220E-05 2.10799E-08-2.52286E-19 1.71650E-18
 -1       102 9.66178E-05-2.89862E-05-2.89967E-05 1.42695E-08 3.95092E-21 1.18094E-18
 -1       103 9.60816E-05-2.88254E-05-2.88330E-05 9.22274E-09-1.03633E-19 6.33703E-19
 -1       104 9.57035E-05-2.87119E-05-2.87173E-05 5.58278E-09 2.41217E-19 1.04179E-18
 -1       105 9.54454E-05-2.86343E-05-2.86381E-05 3.03129E-09 2.04096E-19-1.91237E-19
 -1       106 9.52766E-05-2.85836E-05-2.85861E-05 1.30121E-09-2.21659E-20-3.28779E-19
 -1       107 9.51726E-05-2.85523E-05-2.85539E-05 1.76773E-10 7.15748E-20-3.39009E-19
 -1       108 9.51146E-05-2.85348E-05-2.85357E-05-5.11702E-10-2.92700E-19-2.51103E-18
 -1       109 9.50881E-05-2.85268E-05-2.85272E-05-8.94890E-10 7.65045E-19-1.84961E-18
 -1       110 9.50827E-05-2.85251E-05-2.85252E-05-1.07158E-09-3.20386E-19-1.81680E-18
 -1       111 9.50906E-05-2.85273E-05-2.85274E-05-1.11522E-09-6.84578E-19 2.11107E-19
 -1       112 9.51062E-05-2.85320E-05-2.85319E-05-1.07952E-09 8.81597E-20 3.68483E-19
 -1       113 9.51259E-05-2.85379E-05-2.85377E-05-1.00321E-09 7.85043E-19-3.01748E-18
 -1       114 9.51472E-05-2.85442E-05-2.85441E-05-9.13725E-10-1.23203E-18-9.58102E-19
 -1       115 9.51684E-05-2.85505E-05-2.85504E-05-8.29879E-10 4.92670E-19 2.56062E-18
 -1       116 9.51884E-05-2.85565E-05-2.85563E-05-7.62644E-10 1.49189E-19-4.87621E-19
 -1       117 9.52063E-05-2.85619E-05-2.85617E-05-7.13061E-10 1.26285E-19-5.15995E-18
 -1       118 9.52214E-05-2.85664E-05-2.85661E-05-6.62466E-10-4.77164E-20-7.22281E-18
 -1       119 9.52323E-05-2.85697E-05-2.85693E-05-5.05093E-10 3.80001E-19-8.91182E-18
 -1       120 9.52374E-05-2.85714E-05-2.85710E-05 4.31405E-11 1.40800E-18-7.99572E-18
 -1       121 9.52371E-05-2.85712E-05-2.85710E-05 2.03961E-10-5.95378E-18 1.85146E-18
 -1       122 9.52387E-05-2.85764E-05-2.85693E-05-3.46640E-10 1.10791E-19-1.09167E-18
 -1       123 9.52418E-05-2.85865E-05-2.85664E-05-5.92964E-10 2.54849E-18 1.02782E-18
 -1       124 9.52454E-05-2.85987E-05-2.85629E-05-6.26739E-10-5.60828E-19-1.02189E-18
 -1       125 9.52490E-05-2.86109E-05-2.85593E-05-5.47540E-10-7.39690E-18-1.47205E-18
 -1       126 9.52521E-05-2.86212E-05-2.85563E-05-4.21595E-10-6.06038E-18 8.56370E-19
 -1       127 9.52543E-05-2.86287E-05-2.85541E-05-2.61210E-10-3.80769E-18-2.95402E-19
 -1       128 9.52555E-05-2.86326E-05-2.85529E-05-8.74582E-11-1.00286E-17 1.05085E-20
 -1       129 9.52555E-05-2.86326E-05-2.85529E-05 9.00691E-11-8.70958E-18-2.71497E-20
 -1       130 9.52543E-05-2.86286E-05-2.85541E-05 2.63468E-10-9.45200E-18-9.98104E-20
 -1       131 9.52521E-05-2.86210E-05-2.85564E-05 4.28483E-10-1.14570E-17-8.08770E-19
 -1       132 9.52490E-05-2.86107E-05-2.85594E-05 5.50034E-10-1.01986E-17 4.23025E-19
 -1       133 9.52454E-05-2.85986E-05-2.85629E-05 6.25928E-10-9.49530E-18 1.88036E-18
 -1       134 9.52417E-05-2.85863E-05-2.85664E-05 6.35190E-10-7.99392E-18 5.15115E-20
 -1       135 9.52387E-05-2.85764E-05-2.85693E-05 4.82876E-10-2.56577E-18-3.06115E-20
 -1       136 9.52374E-05-2.85714E-05-2.85710E-05-4.86792E-10-7.93959E-19 7.89142E-19
 -1       137 2.45540E-05-8.45947E-05 1.50988E-05-2.28242E-05 1.89414E-17 4.85776E-18
 -1       138 7.31676E-06-3.14533E-05 2.52941E-06-1.68785E-05 2.88601E-17 1.43288E-17
 -1       139 1.45914E-05 1.58775E-05-1.63584E-05 2.76296E-05 2.92777E-17 2.23697E-17
 -1       140 7.69379E-05 2.23608E-05-4.01427E-05 8.87804E-05 2.17107E-17 2.66930E-17
 -1       141 1.66609E-04-1.35676E-05-5.84121E-05 1.13343E-04 1.22534E-17 2.33391E-17
 -1       142 2.60593E-04-6.55054E-05-7.25766E-05 8.61792E-05 3.84844E-18 1.27531E-17
 -1       143 3.09889E-04-9.58006E-05-7.89659E-05 8.64437E-06 1.22820E-19-4.41855E-18
 -1       144 2.80304E-04-7.72560E-05-7.52566E-05-7.20959E-05 4.04006E-18-1.80831E-17
 -1       145 1.93063E-04-2.63650E-05-6.29205E-05-1.12804E-04 1.19698E-17-2.65443E-17
 -1       146 8.87000E-05 2.02590E-05-4.33000E-05-9.65890E-05 2.09560E-17-2.83997E-17
 -1       147 2.31155E-05 2.46383E-05-2.23810E-05-4.38288E-05 2.50341E-17-2.21211E-17
 -1       148 4.88981E-06-1.35493E-05-2.89149E-06 7.00041E-06 2.26717E-17-1.29522E-17
 -1       149 1.87543E-05-7.00013E-05 1.18682E-05 2.66993E-05 1.39765E-17-4.65466E-18
 -1       150 3.49161E-05-1.07962E-04 1.94215E-05 1.08398E-05-5.97899E-19-3.52352E-19
 -1       151 3.14441E-05-1.01840E-04 1.85717E-05-1.69086E-05-1.54521E-17-2.74407E-18
 -1       152 1.36887E-05-5.43888E-05 8.19727E-06-2.30524E-05-2.62301E-17-9.96015E-18
 -1       153 6.11250E-06 2.15847E-06-8.74072E-06 6.95919E-06-2.89596E-17-1.90565E-17
 -1       154 4.29011E-05 2.80518E-05-3.04022E-05 6.53744E-05-2.53242E-17-2.57265E-17
 -1       155 1.21993E-04 7.27237E-06-5.02257E-05 1.07203E-04-1.68130E-17-2.62915E-17
 -1       156 2.26278E-04-4.45639E-05-6.80645E-05 1.05673E-04-7.11931E-18-1.84801E-17
 -1       157 2.98556E-04-8.84151E-05-7.76079E-05 4.90052E-05-1.02916E-18-6.47536E-18
 -1       158 2.41593E-04-5.42481E-05-7.00245E-05-9.87383E-05-7.53245E-18 2.32688E-17
 -1       159 1.42081E-04-1.50388E-06-5.41719E-05-1.11885E-04-1.74243E-17 2.94996E-17
 -1       160 5.56561E-05 2.68735E-05-3.43811E-05-7.56306E-05-2.38796E-17 2.73164E-17
 -1       161 9.22678E-06 1.06568E-05-1.27768E-05-1.73697E-05-2.47037E-17 1.80825E-17
 -1       162 8.67093E-06-3.85676E-05 4.46572E-06 2.08424E-05-1.91916E-17 8.55884E-18
 -1       163 2.70527E-05-9.02451E-05 1.61216E-05 2.38055E-05-7.94453E-18 2.15914E-18
 -1       164 1.00197E-04-1.40974E-05-3.70771E-05-1.84827E-05-3.11217E-18-5.73335E-20
 -1       165 9.30517E-05-9.40824E-06-3.59945E-05-1.28868E-05-2.67168E-18-3.18985E-18
 -1       166 8.82063E-05-6.60265E-06-3.50785E-05-8.81650E-06-1.93472E-18-4.79169E-18
 -1       167 8.45267E-05-4.77528E-06-3.42563E-05-5.80982E-06-1.23827E-18-5.56936E-18
 -1       168 8.16367E-05-3.45831E-06-3.35638E-05-3.64864E-06-6.35582E-19-5.76079E-18
 -1       169 7.94388E-05-2.50467E-06-3.30203E-05-2.08405E-06-4.57679E-20-5.79029E-18
 -1       170 7.80846E-05-1.93394E-06-3.26790E-05-9.56791E-07 5.22302E-19-5.62663E-18
 -1       171 7.76597E-05-1.76376E-06-3.25682E-05-4.43730E-08 1.04804E-18-5.43127E-18
 -1       172 7.81892E-05-1.99889E-06-3.26964E-05 8.89133E-07 1.50776E-18-5.11041E-18
 -1       173 7.96238E-05-2.62224E-06-3.30500E-05 2.07522E-06 2.02330E-18-4.66457E-18
 -1       174 8.18153E-05-3.58846E-06-3.35859E-05 3.69014E-06 2.44890E-18-3.97116E-18
 -1       175 8.47446E-05-4.93791E-06-3.42812E-05 5.97275E-06 2.96735E-18-2.78864E-18
 -1       176 8.84017E-05-6.77928E-06-3.50908E-05 9.08848E-06 3.41157E-18-1.03899E-18
 -1       177 9.32006E-05-9.57795E-06-3.59917E-05 1.32314E-05 3.57547E-18 1.82467E-18
 -1       178 1.00967E-04-1.52829E-05-3.69101E-05 1.82415E-05 3.11169E-18 6.54680E-18
 -1       179 1.11134E-04-2.80600E-05-3.67716E-05 1.59889E-05 2.04408E-18 1.25253E-17
 -1       180 1.09757E-04-2.93882E-05-3.44369E-05-9.19635E-06-2.76524E-18 3.97833E-18
 -1       181 1.05255E-04-3.07693E-05-3.19508E-05-1.83318E-06-2.48510E-18 2.69566E-18
 -1       182 1.03722E-04-3.06632E-05-3.12611E-05 1.18591E-06-1.72269E-18 1.65412E-18
 -1       183 1.04405E-04-3.10960E-05-3.13857E-05 2.67880E-06-1.18767E-18 6.63144E-19
 -1       184 1.06136E-04-3.17812E-05-3.18546E-05 3.35031E-06-7.90902E-19 2.10036E-19
 -1       185 1.08306E-04-3.26336E-05-3.24336E-05 3.28806E-06-6.60597E-19-7.19564E-20
 -1       186 1.10343E-04-3.35082E-05-3.29399E-05 2.36191E-06-3.16981E-19-1.93133E-19
 -1       187 1.11626E-04-3.41920E-05-3.31996E-05 4.31125E-07-5.80257E-19-2.49826E-19
 -1       188 1.11516E-04-3.43829E-05-3.30671E-05-2.41694E-06-6.59468E-19-2.00700E-19
 -1       189 1.09541E-04-3.37395E-05-3.24880E-05-5.57183E-06-5.67668E-19 3.33188E-21
 -1       190 1.05753E-04-3.20865E-05-3.15657E-05-7.75645E-06-6.04078E-19-1.51276E-18
 -1       191 1.01127E-04-2.97667E-05-3.05770E-05-7.43261E-06-8.36951E-19-2.33669E-18
 -1       192 9.75239E-05-2.77957E-05-2.98824E-05-3.92481E-06-7.73374E-19-3.31501E-18
 -1       193 9.67809E-05-2.73310E-05-2.97648E-05 1.57298E-06-7.77537E-19-3.96724E-18
 -1       194 9.94053E-05-2.87084E-05-3.02948E-05 6.45703E-06-1.69873E-18-4.82491E-18
 -1       195 1.04159E-04-3.11193E-05-3.12958E-05 8.57500E-06-9.25916E-19-5.70872E-18
 -1       196 1.09028E-04-3.33561E-05-3.24283E-05 7.62626E-06-5.41305E-19-6.13355E-18
 -1       197 1.12489E-04-3.46890E-05-3.33494E-05 4.82790E-06-1.39698E-19-6.11156E-18
 -1       198 1.13997E-04-3.50457E-05-3.38500E-05 1.68802E-06-1.71789E-20-5.78477E-18
 -1       199 1.13755E-04-3.47056E-05-3.38938E-05-8.26499E-07 9.46017E-19-5.73897E-18
 -1       200 1.12288E-04-3.39919E-05-3.35684E-05-2.40348E-06 7.60194E-19-5.47264E-18
 -1       201 1.10144E-04-3.31423E-05-3.30089E-05-3.13881E-06-1.22833E-19-4.45191E-18
 -1       202 1.07757E-04-3.22979E-05-3.23430E-05-3.27741E-06 4.98739E-19-3.26240E-18
 -1       203 1.05417E-04-3.15296E-05-3.16657E-05-3.06098E-06 5.74668E-19-2.76150E-18
 -1       204 1.03291E-04-3.08666E-05-3.10364E-05-2.67146E-06-2.48043E-20-3.31793E-18
 -1       205 1.01456E-04-3.03146E-05-3.04853E-05-2.22636E-06 3.81190E-19-3.99506E-18
 -1       206 9.99296E-05-2.98676E-05-3.00225E-05-1.79296E-06-9.28142E-20-4.18869E-18
 -1       207 9.86978E-05-2.95139E-05-2.96464E-05-1.40473E-06 2.30913E-19-3.88894E-18
 -1       208 9.77278E-05-2.92397E-05-2.93486E-05-1.07452E-06 3.46903E-19-3.47509E-18
 -1       209 9.69808E-05-2.90313E-05-2.91182E-05-8.03629E-07-4.34095E-19-3.37383E-18
 -1       210 9.64175E-05-2.88761E-05-2.89439E-05-5.87468E-07-5.31282E-19-2.27414E-18
 -1       211 9.60019E-05-2.87630E-05-2.88147E-05-4.18919E-07-3.70137E-19-2.16691E-18
 -1       212 9.57023E-05-2.86826E-05-2.87212E-05-2.90204E-07-8.09835E-19-1.97506E-18
 -1       213 9.54921E-05-2.86270E-05-2.86553E-05-1.93873E-07 1.41830E-18-1.30342E-18
 -1       214 9.53493E-05-2.85900E-05-2.86102E-05-1.23261E-07-5.87783E-19-2.59286E-18
 -1       215 9.52564E-05-2.85666E-05-2.85807E-05-7.26587E-08-7.21970E-20-2.92588E-18
 -1       216 9.51997E-05-2.85529E-05-2.85624E-05-3.73233E-08 5.45517E-19-3.47104E-18
 -1       217 9.51686E-05-2.85460E-05-2.85522E-05-1.34110E-08 6.87096E-19-1.57843E-18
 -1       218 9.51551E-05-2.85437E-05-2.85475E-05 2.12849E-09-5.52307E-19-1.76255E-18
 -1       219 9.51532E-05-2.85444E-05-2.85465E-05 1.16664E-08 7.95720E-20-1.48606E-18
 -1       220 9.51588E-05-2.85469E-05-2.85479E-05 1.70051E-08-7.09621E-19-1.50801E-18
 -1       221 9.51687E-05-2.85504E-05-2.85506E-05 1.94758E-08-2.89224E-19-1.44304E-19
 -1       222 9.51807E-05-2.85544E-05-2.85541E-05 2.00197E-08-2.74273E-19 4.49406E-19
 -1       223 9.51934E-05-2.85584E-05-2.85578E-05 1.92500E-08 5.19916E-19 1.46470E-19
 -1       224 9.52057E-05-2.85623E-05-2.85615E-05 1.74944E-08 9.90980E-19 2.34500E-19
 -1       225 9.52168E-05-2.85659E-05-2.85647E-05 1.48203E-08 6.49819E-19-7.64076E-19
 -1       226 9.52261E-05-2.85691E-05-2.85673E-05 1.10678E-08 1.92213E-18-1.83767E-18
 -1       227 9.52331E-05-2.85717E-05-2.85692E-05 6.09576E-09-4.17978E-19 2.74778E-19
 -1       228 1.06577E-04-3.07553E-05-3.26597E-05 4.75897E-06 2.28969E-18 1.09683E-17
 -1       229 1.03497E-04-3.05199E-05-3.12418E-05 3.87376E-07 1.75900E-18 9.13839E-18
 -1       230 1.03308E-04-3.07420E-05-3.10565E-05-1.48045E-06 1.13438E-18 7.73894E-18
 -1       231 1.04566E-04-3.12598E-05-3.13945E-05-2.38395E-06 6.50030E-19 6.73842E-18
 -1       232 1.06509E-04-3.19687E-05-3.19377E-05-2.65120E-06 6.27079E-19 6.12426E-18
 -1       233 1.08530E-04-3.27313E-05-3.24821E-05-2.27467E-06 3.21511E-19 5.65376E-18
 -1       234 1.10015E-04-3.33683E-05-3.28446E-05-1.15048E-06 6.71747E-19 5.49195E-18
 -1       235 1.10332E-04-3.36493E-05-3.28542E-05 7.55219E-07 3.90224E-19 5.12025E-18
 -1       236 1.08941E-04-3.33142E-05-3.23959E-05 3.19888E-06 4.57166E-20 4.97108E-18
 -1       237 1.05678E-04-3.21795E-05-3.14853E-05 5.46985E-06-6.02535E-20 5.74612E-18
 -1       238 1.01105E-04-3.03440E-05-3.03263E-05 6.44664E-06 3.24080E-19 5.28376E-18
 -1       239 9.66520E-05-2.83722E-05-2.92856E-05 5.14369E-06 9.37814E-19 4.50622E-18
 -1       240 9.41827E-05-2.71747E-05-2.87540E-05 1.58121E-06 1.40991E-18 3.06761E-18
 -1       241 9.49513E-05-2.74427E-05-2.89600E-05-2.81673E-06 1.17415E-18 1.64861E-18
 -1       242 9.87073E-05-2.90662E-05-2.98497E-05-6.05430E-06 2.43727E-19 6.87969E-19
 -1       243 1.03887E-04-3.12418E-05-3.11167E-05-6.93705E-06-2.79529E-20-2.95548E-19
 -1       244 1.08645E-04-3.30879E-05-3.23603E-05-5.67098E-06 7.74605E-19-1.00711E-19
 -1       245 1.11795E-04-3.41526E-05-3.32619E-05-3.31810E-06-1.14548E-19 9.80590E-20
 -1       246 1.13023E-04-3.44283E-05-3.36810E-05-9.32365E-07-5.93668E-19-6.22567E-19
 -1       247 1.12619E-04-3.41320E-05-3.36424E-05 8.87169E-07 1.46537E-19 1.04020E-19
 -1       248 1.11110E-04-3.35112E-05-3.32644E-05 1.98896E-06 2.18332E-19 8.68823E-19
 -1       249 1.09014E-04-3.27581E-05-3.26878E-05 2.47741E-06 1.13676E-18 2.29280E-19
 -1       250 1.06729E-04-3.19956E-05-3.20329E-05 2.53995E-06 4.90052E-19-2.43983E-19
 -1       251 1.04517E-04-3.12922E-05-3.13840E-05 2.35174E-06-1.53610E-18 5.26237E-19
 -1       252 1.02525E-04-3.06795E-05-3.07912E-05 2.04280E-06-4.27352E-19 9.42511E-19
 -1       253 1.00819E-04-3.01669E-05-3.02784E-05 1.69710E-06-5.69530E-19 1.36959E-18
 -1       254 9.94096E-05-2.97510E-05-2.98520E-05 1.36294E-06 2.92833E-19 2.01481E-18
 -1       255 9.82799E-05-2.94222E-05-2.95086E-05 1.06452E-06-4.54610E-19 2.14079E-18
 -1       256 9.73967E-05-2.91680E-05-2.92390E-05 8.11121E-07 9.26839E-20 9.34855E-19
 -1       257 9.67221E-05-2.89758E-05-2.90325E-05 6.03573E-07 2.15342E-20 7.06097E-19
 -1       258 9.62183E-05-2.88336E-05-2.88777E-05 4.38298E-07-1.52164E-19 1.24745E-18
 -1       259 9.58507E-05-2.87308E-05-2.87644E-05 3.09797E-07 4.73103E-19 9.40572E-19
 -1       260 9.55894E-05-2.86586E-05-2.86836E-05 2.12050E-07 6.72463E-19 7.05328E-19
 -1       261 9.54093E-05-2.86095E-05-2.86277E-05 1.39270E-07-5.07115E-19 6.17327E-19
 -1       262 9.52899E-05-2.85775E-05-2.85904E-05 8.62739E-08 1.25543E-18 8.72288E-19
 -1       263 9.52149E-05-2.85579E-05-2.85668E-05 4.86160E-08 5.06888E-19-1.49275E-18
 -1       264 9.51717E-05-2.85471E-05-2.85530E-05 2.26069E-08-2.33113E-19-1.08449E-18
 -1       265 9.51505E-05-2.85423E-05-2.85461E-05 5.26190E-09-2.93392E-19-6.40941E-19
 -1       266 9.51444E-05-2.85416E-05-2.85439E-05-5.77972E-09-1.19587E-18 8.42778E-20
 -1       267 9.51478E-05-2.85434E-05-2.85446E-05-1.23436E-08 7.32462E-19 9.72299E-19
 -1       268 9.51570E-05-2.85467E-05-2.85472E-05-1.58065E-08 1.34362E-18 1.23499E-18
 -1       269 9.51694E-05-2.85508E-05-2.85508E-05-1.71730E-08-2.91312E-18 1.01861E-18
 -1       270 9.51831E-05-2.85551E-05-2.85548E-05-1.71364E-08 6.79431E-19 9.77251E-19
 -1       271 9.51968E-05-2.85594E-05-2.85589E-05-1.61242E-08 2.20057E-18 1.29234E-18
 -1       272 9.52096E-05-2.85634E-05-2.85627E-05-1.43237E-08 1.99394E-18-3.02450E-19
 -1       273 9.52207E-05-2.85669E-05-2.85659E-05-1.17037E-08 2.89748E-19-5.43364E-19
 -1       274 9.52293E-05-2.85698E-05-2.85683E-05-8.03589E-09-2.33774E-19 6.90084E-20
 -1       275 9.52350E-05-2.85718E-05-2.85700E-05-3.32659E-09-5.16040E-19 3.20083E-19
 -1       276 9.52368E-05-2.85755E-05-2.85692E-05-6.18497E-09-7.45312E-19 3.48543E-18
 -1       277 9.52395E-05-2.85820E-05-2.85675E-05-1.02836E-08-2.79842E-19 7.15635E-19
 -1       278 9.52426E-05-2.85901E-05-2.85654E-05-1.22387E-08-3.41017E-19-1.93009E-18
 -1       279 9.52457E-05-2.85986E-05-2.85630E-05-1.21108E-08 1.81686E-19-2.68627E-18
 -1       280 9.52483E-05-2.86062E-05-2.85609E-05-1.04040E-08-5.52900E-19-1.03738E-18
 -1       281 9.52504E-05-2.86124E-05-2.85591E-05-7.52825E-09-2.37944E-18-4.35178E-19
 -1       282 9.52518E-05-2.86163E-05-2.85580E-05-3.92341E-09-2.18218E-18-2.59819E-18
 -1       283 9.52522E-05-2.86176E-05-2.85576E-05 2.98535E-11-1.69454E-18 5.68943E-19
 -1       284 9.52517E-05-2.86163E-05-2.85580E-05 3.98120E-09-2.29545E-18-1.26658E-18
 -1       285 9.52504E-05-2.86123E-05-2.85592E-05 7.58141E-09-2.83004E-18-1.38227E-18
 -1       286 9.52483E-05-2.86062E-05-2.85609E-05 1.04074E-08-2.99256E-18 1.54596E-18
 -1       287 9.52456E-05-2.85984E-05-2.85631E-05 1.21267E-08-2.04041E-18 8.82765E-19
 -1       288 9.52426E-05-2.85900E-05-2.85654E-05 1.22309E-08-1.02566E-18 1.83227E-18
 -1       289 9.52394E-05-2.85819E-05-2.85675E-05 1.01312E-08-6.93699E-19 1.36485E-18
 -1       290 9.52363E-05-2.85764E-05-2.85685E-05 9.31996E-09-1.26949E-20 1.12210E-18
 -1       291 1.16778E-05-4.00360E-05 9.96879E-06 1.07850E-05 4.19377E-18 7.73489E-18
 -1       292 2.78608E-05-4.23424E-05 3.66821E-06 2.30799E-05 8.81888E-18 9.19978E-18
 -1       293 5.61240E-05-3.66796E-05-9.87087E-06 3.61707E-05 1.10434E-17 9.59773E-18
 -1       294 1.07573E-04-4.16153E-05-2.83890E-05 4.09805E-05 8.47562E-18 7.35712E-18
 -1       295 1.42694E-04-3.05703E-05-4.67066E-05 4.55809E-05 1.09239E-17 9.42028E-18
 -1       296 1.80423E-04-3.31680E-05-6.06052E-05 3.34044E-05 9.08948E-18 5.75453E-18
 -1       297 2.01742E-04-3.28837E-05-6.92824E-05 1.19602E-05 8.20796E-18 1.08865E-18
 -1       298 2.11143E-04-3.65623E-05-7.11555E-05-1.03462E-05 7.02614E-18-4.26836E-18
 -1       299 1.88999E-04-3.34314E-05-6.38124E-05-2.93107E-05 7.48968E-18-7.39417E-18
 -1       300 1.52468E-04-3.18213E-05-5.00294E-05-4.32794E-05 8.73884E-18-8.80131E-18
 -1       301 1.05946E-04-2.98379E-05-3.24193E-05-4.70809E-05 9.63140E-18-1.09629E-17
 -1       302 6.74494E-05-3.56307E-05-1.48760E-05-3.95319E-05 7.90515E-18-1.00209E-17
 -1       303 3.42640E-05-4.08463E-05 2.45803E-07-2.58878E-05 5.90234E-18-8.38252E-18
 -1       304 1.65428E-05-4.77982E-05 1.00123E-05-1.22993E-05 1.31968E-18-7.70016E-18
 -1       305 9.85749E-06-4.47045E-05 1.20054E-05 1.71549E-06-2.95933E-18-7.53161E-18
 -1       306 2.12423E-05-4.07609E-05 6.30907E-06 2.17945E-05-5.35071E-18-7.80795E-18
 -1       307 4.25006E-05-3.85760E-05-3.92164E-06 2.97797E-05-1.10398E-17-9.03827E-18
 -1       308 8.35310E-05-3.61424E-05-2.10065E-05 4.24542E-05-1.01129E-17-8.98638E-18
 -1       309 1.22975E-04-3.04052E-05-3.89434E-05 4.74043E-05-1.08090E-17-1.01311E-17
 -1       310 1.65228E-04-3.38205E-05-5.46140E-05 3.35926E-05-9.14627E-18-6.88638E-18
 -1       311 2.00242E-04-3.53780E-05-6.73474E-05 2.57745E-05-7.81970E-18-5.37951E-18
 -1       312 2.10271E-04-3.50946E-05-7.14975E-05 2.80192E-06-7.64511E-18-2.12685E-19
 -1       313 2.04838E-04-3.64916E-05-6.86101E-05-2.18268E-05-8.03347E-18 5.47755E-18
 -1       314 1.74187E-04-3.28680E-05-5.80260E-05-3.97068E-05-9.07870E-18 9.48550E-18
 -1       315 1.31643E-04-3.02494E-05-4.24033E-05-4.67970E-05-9.04716E-18 1.13877E-17
 -1       316 9.13307E-05-3.56141E-05-2.43488E-05-4.26421E-05-7.12863E-18 1.01373E-17
 -1       317 4.92197E-05-3.67438E-05-7.28620E-06-3.25469E-05-7.14726E-18 9.45961E-18
 -1       318 2.45026E-05-4.42725E-05 5.41689E-06-1.89800E-05-4.18900E-18 7.14456E-18
 -1       319 1.26597E-05-4.93096E-05 1.22452E-05-5.93647E-06 4.39240E-19 7.38952E-18
 -1       320 9.45753E-05-1.49284E-05-3.42006E-05-7.92881E-06-2.66536E-18-2.73946E-18
 -1       321 1.00946E-04-2.07382E-05-3.44328E-05-1.00227E-05-3.20755E-18-9.82578E-19
 -1       322 8.55174E-05-8.32452E-06-3.31275E-05-3.50647E-06-1.17587E-18-4.29368E-18
 -1       323 8.22912E-05-6.24218E-06-3.26269E-05-2.02753E-06-4.50862E-19-4.42723E-18
 -1       324 8.00549E-05-4.85164E-06-3.22576E-05-1.03475E-06 3.13237E-19-4.31573E-18
 -1       325 7.89411E-05-4.17729E-06-3.20660E-05-3.61156E-07 9.68227E-19-4.30662E-18
 -1       326 7.90287E-05-4.24496E-06-3.20747E-05 2.19340E-07 1.61849E-18-4.02775E-18
 -1       327 8.02995E-05-5.04253E-06-3.22813E-05 9.49526E-07 2.15943E-18-3.82333E-18
 -1       328 8.25915E-05-6.49080E-06-3.26505E-05 2.01909E-06 2.67435E-18-3.22274E-18
 -1       329 8.58393E-05-8.60931E-06-3.31461E-05 3.59997E-06 3.24161E-18-2.34803E-18
 -1       330 8.99266E-05-1.14603E-05-3.36919E-05 5.71344E-06 3.69166E-18-1.00484E-18
 -1       331 9.49647E-05-1.53791E-05-3.41861E-05 8.18592E-06 3.97157E-18 7.49154E-19
 -1       332 1.01014E-04-2.10938E-05-3.43547E-05 9.97567E-06 3.73058E-18 3.91481E-18
 -1       333 1.05051E-04-2.64709E-05-3.37549E-05 8.22440E-06 3.15649E-18 6.65485E-18
 -1       334 1.03944E-04-2.90709E-05-3.20563E-05 1.96881E-06 2.62418E-18 5.58030E-18
 -1       335 1.03387E-04-2.79719E-05-3.22753E-05-1.55990E-06-2.50292E-18-2.05904E-19
 -1       336 1.03283E-04-2.93450E-05-3.16623E-05 2.30425E-06-1.86384E-18-2.90000E-19
 -1       337 1.03995E-04-3.03981E-05-3.15297E-05 4.46569E-06-1.12572E-18-3.17409E-19
 -1       338 1.05423E-04-3.16018E-05-3.16379E-05 5.37505E-06-8.01228E-19-4.25460E-19
 -1       339 1.07375E-04-3.30993E-05-3.18424E-05 5.01436E-06-4.06198E-19-4.63800E-21
 -1       340 1.09577E-04-3.48337E-05-3.20511E-05 3.18769E-06-3.76717E-19 2.35217E-19
 -1       341 1.11596E-04-3.64621E-05-3.22228E-05-2.23457E-07-2.59305E-19 2.47862E-19
 -1       342 1.12750E-04-3.72416E-05-3.23791E-05-4.87014E-06-4.04119E-19 5.42698E-19
 -1       343 1.12216E-04-3.61704E-05-3.26011E-05-9.46663E-06-1.46239E-18 2.56176E-19
 -1       344 1.09605E-04-3.27195E-05-3.29546E-05-1.16778E-05-1.58022E-18-2.43558E-19
 -1       345 1.05905E-04-2.80389E-05-3.33780E-05-9.17849E-06-1.65627E-18-1.23390E-18
 -1       346 1.03553E-04-2.50405E-05-3.36583E-05-1.94021E-06-1.55975E-18-2.28463E-18
 -1       347 1.04470E-04-2.60265E-05-3.36268E-05 6.61159E-06-2.05494E-18-3.35241E-18
 -1       348 1.08034E-04-3.02601E-05-3.33354E-05 1.19581E-05-1.77359E-18-3.99708E-18
 -1       349 1.11737E-04-3.47396E-05-3.30044E-05 1.21570E-05-1.02726E-18-4.21009E-18
 -1       350 1.13682E-04-3.72212E-05-3.27833E-05 8.54280E-06-4.13491E-20-4.34209E-18
 -1       351 1.13574E-04-3.74290E-05-3.26551E-05 3.65267E-06 3.22129E-19-3.31789E-18
 -1       352 1.12078E-04-3.62404E-05-3.25232E-05-6.37415E-07 3.68168E-19-2.91231E-18
 -1       353 1.09948E-04-3.45885E-05-3.23134E-05-3.56555E-06 1.22453E-18-2.85509E-18
 -1       354 1.07682E-04-3.30279E-05-3.20043E-05-5.12532E-06 1.33956E-18-2.09966E-18
 -1       355 1.05531E-04-3.17688E-05-3.16163E-05-5.63550E-06 6.08693E-19-1.04109E-18
 -1       356 1.03599E-04-3.08275E-05-3.11876E-05-5.46644E-06 3.29294E-19-1.05919E-18
 -1       357 1.01918E-04-3.01482E-05-3.07559E-05-4.92274E-06 6.68604E-20-1.45660E-18
 -1       358 1.00488E-04-2.96646E-05-3.03494E-05-4.21746E-06-2.33442E-19-1.56535E-18
 -1       359 9.92965E-05-2.93211E-05-2.99855E-05-3.48372E-06 3.04190E-19-2.08187E-18
 -1       360 9.83208E-05-2.90770E-05-2.96722E-05-2.79606E-06 1.44184E-19-6.16152E-19
 -1       361 9.75361E-05-2.89035E-05-2.94107E-05-2.19028E-06 4.35897E-19-3.96395E-19
 -1       362 9.69162E-05-2.87809E-05-2.91981E-05-1.67848E-06 7.34121E-20-1.07939E-18
 -1       363 9.64350E-05-2.86952E-05-2.90291E-05-1.25928E-06-3.80378E-19-6.51509E-19
 -1       364 9.60682E-05-2.86363E-05-2.88976E-05-9.24383E-07 5.31752E-19 1.49431E-19
 -1       365 9.57938E-05-2.85970E-05-2.87972E-05-6.62549E-07-2.68488E-19 1.93256E-18
 -1       366 9.55928E-05-2.85718E-05-2.87222E-05-4.61877E-07-6.02955E-19 1.43355E-18
 -1       367 9.54490E-05-2.85566E-05-2.86674E-05-3.11052E-07-9.61824E-19 8.48201E-19
 -1       368 9.53490E-05-2.85485E-05-2.86282E-05-1.99953E-07-1.19767E-18 4.67292E-19
 -1       369 9.52818E-05-2.85451E-05-2.86011E-05-1.19883E-07-2.49665E-19 7.76392E-19
 -1       370 9.52389E-05-2.85447E-05-2.85829E-05-6.35893E-08 1.30678E-18-1.62606E-19
 -1       371 9.52134E-05-2.85464E-05-2.85714E-05-2.51708E-08 3.45067E-19 1.36586E-19
 -1       372 9.52002E-05-2.85491E-05-2.85646E-05 7.30050E-11 1.68311E-19 4.54191E-19
 -1       373 9.51954E-05-2.85523E-05-2.85612E-05 1.58046E-08-9.21955E-19 6.97456E-19
 -1       374 9.51961E-05-2.85558E-05-2.85601E-05 2.48101E-08-1.97264E-19 4.83737E-19
 -1       375 9.52002E-05-2.85592E-05-2.85604E-05 2.91437E-08 8.46145E-19 7.16728E-19
 -1       376 9.52062E-05-2.85625E-05-2.85616E-05 3.02504E-08 7.64420E-19 3.07924E-18
 -1       377 9.52130E-05-2.85656E-05-2.85632E-05 2.90664E-08-3.41730E-19 3.00155E-18
 -1       378 9.52199E-05-2.85687E-05-2.85648E-05 2.61014E-08-5.07094E-19 1.27596E-18
 -1       379 9.52265E-05-2.85718E-05-2.85663E-05 2.15675E-08 6.13008E-19 5.58168E-19
 -1       380 9.52316E-05-2.85742E-05-2.85675E-05 1.59484E-08 1.21062E-18 6.76271E-19
 -1       381 1.03505E-04-3.00153E-05-3.14590E-05-1.46969E-06 1.90826E-18 4.63455E-18
 -1       382 1.04082E-04-3.07375E-05-3.14150E-05-3.29206E-06 1.25571E-18 3.73304E-18
 -1       383 1.05417E-04-3.16027E-05-3.16319E-05-4.00724E-06 8.08243E-19 3.29611E-18
 -1       384 1.07127E-04-3.26391E-05-3.19305E-05-3.67538E-06 4.08585E-19 3.01458E-18
 -1       385 1.08799E-04-3.37472E-05-3.21793E-05-2.18860E-06 5.28592E-19 3.00540E-18
 -1       386 1.09954E-04-3.46724E-05-3.22807E-05 4.99703E-07 5.10801E-19 3.35408E-18
 -1       387 1.10041E-04-3.49690E-05-3.21891E-05 4.08194E-06 1.65754E-19 3.35576E-18
 -1       388 1.08596E-04-3.41008E-05-3.19342E-05 7.59354E-06-5.86514E-19 3.55772E-18
 -1       389 1.05617E-04-3.18361E-05-3.16195E-05 9.40136E-06 7.39798E-19 3.48149E-18
 -1       390 1.02022E-04-2.88062E-05-3.13736E-05 7.90265E-06 1.36367E-18 2.27148E-18
 -1       391 9.95732E-05-2.65772E-05-3.12759E-05 2.86164E-06 2.36851E-18 1.71707E-18
 -1       392 9.98218E-05-2.66509E-05-3.13463E-05-3.73366E-06 1.84287E-18 9.13755E-19
 -1       393 1.02716E-04-2.89928E-05-3.15807E-05-8.76855E-06 1.04359E-18-5.83199E-19
 -1       394 1.06695E-04-3.21423E-05-3.19420E-05-1.02537E-05 1.81969E-19-1.37322E-18
 -1       395 1.09965E-04-3.44980E-05-3.23464E-05-8.42280E-06 4.23880E-19-2.17852E-18
 -1       396 1.11637E-04-3.54438E-05-3.26696E-05-4.88743E-06 3.21052E-19-1.78058E-18
 -1       397 1.11725E-04-3.52210E-05-3.28078E-05-1.25976E-06 7.31989E-20-2.46158E-18
 -1       398 1.10676E-04-3.43656E-05-3.27234E-05 1.54036E-06-6.41867E-19-2.99026E-18
 -1       399 1.08982E-04-3.33152E-05-3.24418E-05 3.26604E-06-2.98828E-19-1.48915E-18
 -1       400 1.07019E-04-3.23127E-05-3.20243E-05 4.05680E-06 1.44189E-18-1.01235E-18
 -1       401 1.05037E-04-3.14532E-05-3.15383E-05 4.18356E-06 1.91459E-19-4.65317E-19
 -1       402 1.03184E-04-3.07540E-05-3.10404E-05 3.90728E-06-2.05854E-18 1.26899E-19
 -1       403 1.01536E-04-3.02002E-05-3.05698E-05 3.42729E-06-7.33985E-19 3.23256E-19
 -1       404 1.00125E-04-2.97685E-05-3.01492E-05 2.87652E-06-9.42837E-20 1.53867E-19
 -1       405 9.89522E-05-2.94361E-05-2.97888E-05 2.33442E-06-6.99533E-19 8.45458E-19
 -1       406 9.80009E-05-2.91829E-05-2.94899E-05 1.84294E-06-4.98272E-19 1.86821E-18
 -1       407 9.72468E-05-2.89925E-05-2.92487E-05 1.42004E-06 1.03492E-18 2.03479E-18
 -1       408 9.66611E-05-2.88516E-05-2.90587E-05 1.06941E-06-2.34449E-19 1.75107E-18
 -1       409 9.62156E-05-2.87490E-05-2.89122E-05 7.86953E-07-1.62520E-19 1.34325E-18
 -1       410 9.58836E-05-2.86759E-05-2.88016E-05 5.64860E-07 5.00983E-19 7.23624E-19
 -1       411 9.56417E-05-2.86253E-05-2.87201E-05 3.93988E-07-1.14855E-19 1.20279E-18
 -1       412 9.54699E-05-2.85913E-05-2.86613E-05 2.65241E-07 4.93421E-19 2.00070E-18
 -1       413 9.53515E-05-2.85696E-05-2.86201E-05 1.70270E-07 1.08534E-18 1.50284E-18
 -1       414 9.52731E-05-2.85567E-05-2.85922E-05 1.01788E-07 6.05320E-19 1.82113E-18
 -1       415 9.52240E-05-2.85500E-05-2.85742E-05 5.36565E-08-4.56513E-19 1.72168E-18
 -1       416 9.51958E-05-2.85475E-05-2.85633E-05 2.08451E-08 3.61652E-19 8.11078E-19
 -1       417 9.51822E-05-2.85476E-05-2.85575E-05-6.70228E-10-1.38469E-18-9.05273E-19
 -1       418 9.51784E-05-2.85495E-05-2.85552E-05-1.40365E-08-1.04522E-18-2.69328E-21
 -1       419 9.51810E-05-2.85523E-05-2.85551E-05-2.16551E-08-4.23773E-19 3.45487E-18
 -1       420 9.51874E-05-2.85556E-05-2.85565E-05-2.53026E-08-5.05517E-19 4.21836E-18
 -1       421 9.51959E-05-2.85591E-05-2.85586E-05-2.62335E-08-2.65937E-22 1.80375E-18
 -1       422 9.52051E-05-2.85626E-05-2.85611E-05-2.52627E-08 1.91361E-18 1.94955E-18
 -1       423 9.52142E-05-2.85659E-05-2.85636E-05-2.28277E-08 1.93625E-18 2.71852E-18
 -1       424 9.52226E-05-2.85691E-05-2.85658E-05-1.90513E-08 2.11429E-19 2.53388E-18
 -1       425 9.52298E-05-2.85720E-05-2.85676E-05-1.38796E-08-1.89522E-19 3.83840E-18
 -1       426 9.52337E-05-2.85740E-05-2.85685E-05-1.02769E-08-1.59946E-19 3.10800E-18
 -1       427 9.52431E-05-2.85902E-05-2.85655E-05-2.04473E-08 1.84506E-19-2.63502E-18
 -1       428 9.52389E-05-2.85835E-05-2.85666E-05-1.94055E-08 3.66756E-20 5.34262E-19
 -1       429 9.52359E-05-2.85785E-05-2.85675E-05-1.56453E-08-1.09453E-18 9.24527E-19
 -1       430 9.52466E-05-2.85962E-05-2.85644E-05-1.87381E-08 1.06583E-18-3.77709E-18
 -1       431 9.52494E-05-2.86013E-05-2.85634E-05-1.48583E-08 1.34771E-19-9.95002E-20
 -1       432 9.52512E-05-2.86049E-05-2.85627E-05-9.47464E-09-1.19465E-18-1.32689E-18
 -1       433 9.52522E-05-2.86068E-05-2.85623E-05-3.22063E-09-8.45016E-19-9.89888E-19
 -1       434 9.52522E-05-2.86068E-05-2.85623E-05 3.31563E-09-1.92235E-18 2.48700E-19
 -1       435 9.52512E-05-2.86049E-05-2.85627E-05 9.56398E-09-1.10280E-18-2.38240E-19
 -1       436 9.52494E-05-2.86013E-05-2.85634E-05 1.48571E-08-3.50291E-19-2.19740E-19
 -1       437 9.52466E-05-2.85962E-05-2.85644E-05 1.87450E-08-1.37614E-18 1.54949E-18
 -1       438 9.52430E-05-2.85901E-05-2.85656E-05 2.04652E-08 2.82416E-19 1.88249E-18
 -1       439 9.52388E-05-2.85834E-05-2.85666E-05 1.95277E-08 1.25683E-18 2.06304E-18
 -1       440 6.00792E-05-4.22907E-05-7.78527E-06 4.26865E-05 2.22918E-18 6.66999E-18
 -1       441 1.22343E-05-2.15560E-05 3.87088E-06-2.48127E-06 9.91684E-19 9.15960E-18
 -1       442 3.07540E-05-2.81336E-05-9.99365E-07 3.12222E-05 8.13363E-19 8.01431E-18
 -1       443 9.98049E-05-5.36432E-05-1.97988E-05 4.03867E-05 2.16248E-18 2.89770E-18
 -1       444 1.39470E-04-5.17056E-05-3.76048E-05 2.03779E-05 4.93598E-18 5.55442E-19
 -1       445 8.95885E-05-1.11138E-05-3.36980E-05-5.55180E-06-1.91473E-18-3.84179E-18
 -1       446 1.59652E-04-2.29155E-05-5.84600E-05-1.31485E-06 8.75027E-18-8.87902E-19
 -1       447 1.49418E-04-9.56819E-06-6.01781E-05-1.15609E-06 8.84165E-18 1.76229E-19
 -1       448 1.53322E-04-1.57818E-05-5.91191E-05 3.87178E-06 7.34060E-18 6.40463E-19
 -1       449 1.55501E-04-3.55592E-05-5.14116E-05-3.25949E-06 5.28406E-18-9.21995E-19
 -1       450 1.41744E-04-5.19018E-05-3.85154E-05-2.00478E-05 3.32609E-18-1.67808E-18
 -1       451 1.13016E-04-5.46433E-05-2.50544E-05-3.74248E-05 1.41402E-18-3.96692E-18
 -1       452 7.44720E-05-4.68711E-05-1.17928E-05-4.50908E-05-9.95475E-19-5.94213E-18
 -1       453 3.44401E-05-3.36488E-05-6.97519E-07-3.44645E-05-5.19549E-19-8.08811E-18
 -1       454 1.65773E-05-2.04973E-05 1.81402E-06-1.42901E-05-7.42848E-19-8.54487E-18
 -1       455 1.83638E-05-2.09924E-05 1.36768E-06 1.64524E-05-2.24464E-20-8.00923E-18
 -1       456 4.87384E-05-3.80072E-05-4.78436E-06 4.01253E-05-1.37272E-18-5.70466E-18
 -1       457 8.43391E-05-4.97653E-05-1.50381E-05 4.37482E-05-2.25692E-18-4.43587E-18
 -1       458 1.27885E-04-5.61766E-05-3.06589E-05 3.01100E-05-2.95689E-18-1.94489E-18
 -1       459 1.47730E-04-4.89074E-05-4.24391E-05 1.33379E-05-4.93575E-18-4.52104E-20
 -1       460 1.56287E-04-2.79630E-05-5.49835E-05-2.04432E-06-7.31498E-18 3.42307E-19
 -1       461 1.57113E-04-1.53152E-05-6.07228E-05-1.87059E-06-8.45847E-18 2.35210E-19
 -1       462 1.64420E-04-1.61639E-05-6.31240E-05 1.17140E-06-9.13377E-18 6.38451E-19
 -1       463 1.61396E-04-2.72933E-05-5.71802E-05-9.83188E-07-7.71975E-18 9.47300E-19
 -1       464 1.51944E-04-4.37559E-05-4.62559E-05-1.06218E-05-4.42808E-18 2.04633E-18
 -1       465 1.31118E-04-5.32072E-05-3.33427E-05-2.78965E-05-1.41889E-18 3.57998E-18
 -1       466 9.46308E-05-5.31683E-05-1.78288E-05-4.15727E-05 3.01120E-19 3.90464E-18
 -1       467 5.38769E-05-4.05248E-05-5.96091E-06-4.11847E-05-5.97158E-20 7.43287E-18
 -1       468 2.16607E-05-2.84949E-05 2.55670E-06-2.38720E-05 1.31756E-18 7.53849E-18
 -1       469 1.53669E-04-4.01953E-05-4.85494E-05 8.31696E-06 7.21483E-18-2.15782E-19
 -1       470 1.26930E-04-6.02155E-05-2.85949E-05 2.54604E-05 1.08828E-18-8.93355E-20
 -1       471 2.50434E-05-1.65208E-05-3.06978E-06 1.65368E-05-4.42681E-19 8.02119E-18
 -1       472 3.91145E-05-2.50927E-05-5.57924E-06 3.29196E-05 1.63853E-18-6.21362E-18
 -1       473 1.01691E-04-2.66903E-05-3.21289E-05 6.77367E-07 2.81293E-18 2.09817E-18
 -1       474 8.23633E-05-8.41862E-06-3.17026E-05-3.24263E-07-3.78744E-20-3.87490E-18
 -1       475 8.55799E-05-1.07515E-05-3.20845E-05-9.43536E-07-7.69260E-19-3.84832E-18
 -1       476 7.97453E-05-6.58208E-06-3.13650E-05-1.42014E-07 1.20847E-18-3.55176E-18
 -1       477 8.05876E-05-7.19361E-06-3.14647E-05-1.22896E-07 1.83436E-18-3.46986E-18
 -1       478 8.27257E-05-8.73341E-06-3.17234E-05 1.87068E-07 2.31107E-18-3.25313E-18
 -1       479 8.60044E-05-1.11369E-05-3.21030E-05 9.46017E-07 2.81095E-18-2.45121E-18
 -1       480 9.01619E-05-1.43162E-05-3.25261E-05 2.13759E-06 3.11365E-18-1.53454E-18
 -1       481 9.50224E-05-1.83360E-05-3.28849E-05 3.54399E-06 3.45323E-18-1.11744E-19
 -1       482 1.02128E-04-2.85216E-05-3.15293E-05-2.84057E-06 1.99713E-18 1.65905E-18
 -1       483 1.00236E-04-2.53400E-05-3.20861E-05 3.70814E-07-1.93901E-18-1.37661E-18
 -1       484 1.44554E-04-3.14628E-05-4.88701E-05-9.55777E-06 6.89861E-18-2.34120E-18
 -1       485 1.01033E-04-2.75653E-05-3.14795E-05 3.94850E-06-1.40492E-18-1.11368E-18
 -1       486 1.02152E-04-2.94530E-05-3.11550E-05 6.22279E-06-9.08788E-19-9.82770E-19
 -1       487 1.03962E-04-3.16381E-05-3.09988E-05 7.20249E-06-2.92740E-19-7.26615E-19
 -1       488 1.06638E-04-3.44017E-05-3.09661E-05 6.70122E-06-1.61749E-20-5.80398E-19
 -1       489 1.10159E-04-3.76521E-05-3.10867E-05 4.38251E-06-2.04098E-19-6.26234E-20
 -1       490 1.14064E-04-4.06382E-05-3.14831E-05-8.17243E-09-1.35916E-19-2.88694E-20
 -1       491 1.17158E-04-4.17012E-05-3.23486E-05-6.07311E-06-9.10094E-19 4.52695E-19
 -1       492 1.17623E-04-3.86882E-05-3.38586E-05-1.19066E-05-1.66664E-18 1.51628E-18
 -1       493 1.14514E-04-3.10647E-05-3.58425E-05-1.36313E-05-2.47158E-18 1.32734E-18
 -1       494 1.10011E-04-2.26854E-05-3.75386E-05-7.91371E-06-2.93729E-18 4.31329E-20
 -1       495 1.08666E-04-2.02856E-05-3.79994E-05 3.24209E-06-2.77928E-18-2.26447E-18
 -1       496 1.12076E-04-2.61395E-05-3.69309E-05 1.26654E-05-2.88743E-18-3.25035E-18
 -1       497 1.16565E-04-3.49825E-05-3.50133E-05 1.48384E-05-1.66038E-18-3.77913E-18
 -1       498 1.18218E-04-4.07600E-05-3.32170E-05 1.07164E-05-3.79080E-19-3.19456E-18
 -1       499 1.16429E-04-4.17808E-05-3.20062E-05 4.34167E-06 9.69594E-19-2.40349E-18
 -1       500 1.12800E-04-3.96858E-05-3.13459E-05-1.24480E-06 8.39177E-19-1.82220E-18
 -1       501 1.08935E-04-3.65746E-05-3.10209E-05-4.98626E-06 7.98706E-19-4.10360E-19
 -1       502 1.05631E-04-3.36988E-05-3.08343E-05-6.95580E-06 1.95007E-18-1.45228E-18
 -1       503 1.03084E-04-3.15271E-05-3.06702E-05-7.60966E-06 1.18868E-18-1.90247E-18
 -1       504 1.01196E-04-3.00694E-05-3.04832E-05-7.42077E-06 9.09609E-20-1.77519E-18
 -1       505 9.97983E-05-2.91706E-05-3.02682E-05-6.75611E-06-1.52006E-19-1.82087E-18
 -1       506 9.87475E-05-2.86575E-05-3.00371E-05-5.87031E-06 1.38483E-19-1.97002E-18
 -1       507 9.79405E-05-2.83904E-05-2.98054E-05-4.92672E-06 1.65531E-20-1.78693E-18
 -1       508 9.73099E-05-2.82711E-05-2.95863E-05-4.02199E-06 6.69591E-19-1.74261E-18
 -1       509 9.68125E-05-2.82361E-05-2.93884E-05-3.20727E-06 1.14860E-19-2.27228E-18
 -1       510 9.64197E-05-2.82462E-05-2.92159E-05-2.50422E-06 4.32691E-19-2.39554E-18
 -1       511 9.61109E-05-2.82782E-05-2.90701E-05-1.91657E-06-6.82037E-20-1.59232E-18
 -1       512 9.58705E-05-2.83188E-05-2.89499E-05-1.43776E-06 3.13553E-19-7.51750E-19
 -1       513 9.56857E-05-2.83606E-05-2.88529E-05-1.05610E-06 5.13656E-19-6.45703E-19
 -1       514 9.55459E-05-2.83998E-05-2.87764E-05-7.57855E-07-4.97204E-19-7.38726E-20
 -1       515 9.54420E-05-2.84346E-05-2.87171E-05-5.29156E-07-2.95768E-19-3.48482E-20
 -1       516 9.53663E-05-2.84643E-05-2.86720E-05-3.57070E-07-1.17331E-18 1.61786E-18
 -1       517 9.53126E-05-2.84891E-05-2.86384E-05-2.30109E-07-2.79249E-19 3.67570E-18
 -1       518 9.52755E-05-2.85092E-05-2.86140E-05-1.38426E-07 2.41090E-19 2.75013E-18
 -1       519 9.52510E-05-2.85253E-05-2.85966E-05-7.38145E-08-6.93061E-19 6.67923E-19
 -1       520 9.52356E-05-2.85380E-05-2.85846E-05-2.95907E-08 5.17318E-19-6.87933E-20
 -1       521 9.52268E-05-2.85478E-05-2.85767E-05-4.32658E-10 1.21531E-19 1.13185E-18
 -1       522 9.52225E-05-2.85553E-05-2.85717E-05 1.78056E-08-1.85008E-19 1.77481E-18
 -1       523 9.52215E-05-2.85610E-05-2.85688E-05 2.82725E-08-2.15156E-19 2.69168E-18
 -1       524 9.52224E-05-2.85655E-05-2.85673E-05 3.32838E-08 1.86101E-18 3.05340E-18
 -1       525 9.52246E-05-2.85691E-05-2.85667E-05 3.44603E-08 1.56240E-19 2.78494E-18
 -1       526 9.52276E-05-2.85723E-05-2.85666E-05 3.28713E-08-7.38514E-19 4.34575E-18
 -1       527 9.52309E-05-2.85754E-05-2.85667E-05 2.90976E-08-7.00316E-19 3.29335E-18
 -1       528 1.04551E-04-3.17092E-05-3.12204E-05-5.60108E-06 7.69523E-19 1.24788E-18
 -1       529 1.06648E-04-3.37194E-05-3.12633E-05-4.91859E-06 6.52684E-19 1.22502E-18
 -1       530 1.09149E-04-3.59526E-05-3.13825E-05-2.64893E-06 2.73806E-19 1.28847E-18
 -1       531 1.11592E-04-3.78620E-05-3.16145E-05 1.24380E-06-9.08418E-20 1.88072E-18
 -1       532 1.13112E-04-3.83651E-05-3.20492E-05 6.22002E-06-3.74998E-19 2.46034E-18
 -1       533 1.12657E-04-3.62257E-05-3.27674E-05 1.06530E-05 5.37711E-19 2.23117E-18
 -1       534 1.09893E-04-3.12443E-05-3.37200E-05 1.18860E-05 1.78879E-18 1.73898E-18
 -1       535 1.06227E-04-2.55151E-05-3.46236E-05 7.79361E-06 2.27639E-18 1.26525E-18
 -1       536 1.04608E-04-2.30186E-05-3.49973E-05-7.37808E-07 2.81052E-18 5.02964E-19
 -1       537 1.06535E-04-2.57345E-05-3.46549E-05-9.12044E-06 2.57687E-18-5.55709E-19
 -1       538 1.10387E-04-3.15399E-05-3.38087E-05-1.30657E-05 1.54260E-18-1.81959E-18
 -1       539 1.13263E-04-3.65116E-05-3.29019E-05-1.16424E-05 9.51887E-19-2.62212E-18
 -1       540 1.13773E-04-3.86055E-05-3.22256E-05-7.12370E-06 2.47109E-19-2.23844E-18
 -1       541 1.12306E-04-3.81083E-05-3.18126E-05-2.08429E-06-3.96228E-20-2.25385E-18
 -1       542 1.09885E-04-3.62788E-05-3.15597E-05 1.94926E-06-6.81030E-19-9.76165E-19
 -1       543 1.07312E-04-3.41779E-05-3.13540E-05 4.53084E-06-6.86349E-19-1.28700E-18
 -1       544 1.04987E-04-3.23629E-05-3.11309E-05 5.80929E-06-6.85968E-20-1.69569E-18
 -1       545 1.03025E-04-3.09982E-05-3.08710E-05 6.13452E-06 5.17851E-19-8.18090E-19
 -1       546 1.01412E-04-3.00522E-05-3.05824E-05 5.85406E-06-9.10592E-19-1.18865E-18
 -1       547 1.00096E-04-2.94296E-05-3.02837E-05 5.24188E-06-1.18272E-18-1.76692E-18
 -1       548 9.90247E-05-2.90345E-05-2.99934E-05 4.48877E-06-4.48967E-19-2.42855E-18
 -1       549 9.81561E-05-2.87909E-05-2.97254E-05 3.71564E-06-8.34121E-19-1.10948E-18
 -1       550 9.74562E-05-2.86452E-05-2.94880E-05 2.99196E-06-1.04845E-18-7.31468E-19
 -1       551 9.68974E-05-2.85617E-05-2.92846E-05 2.35233E-06-2.16459E-19-3.11846E-19
 -1       552 9.64568E-05-2.85170E-05-2.91153E-05 1.80924E-06-1.44261E-19 8.91496E-19
 -1       553 9.61141E-05-2.84962E-05-2.89776E-05 1.36203E-06 5.72035E-19 7.15629E-19
 -1       554 9.58518E-05-2.84899E-05-2.88682E-05 1.00294E-06 6.55569E-19-5.66768E-20
 -1       555 9.56545E-05-2.84921E-05-2.87830E-05 7.20899E-07-7.87035E-19 8.54487E-19
 -1       556 9.55088E-05-2.84988E-05-2.87179E-05 5.03860E-07-6.72630E-19 1.55202E-18
 -1       557 9.54038E-05-2.85076E-05-2.86693E-05 3.40155E-07 8.08233E-19 1.42555E-18
 -1       558 9.53299E-05-2.85171E-05-2.86337E-05 2.19191E-07 5.83068E-19 1.19389E-18
 -1       559 9.52797E-05-2.85264E-05-2.86083E-05 1.31765E-07 8.78094E-19 1.16901E-18
 -1       560 9.52470E-05-2.85349E-05-2.85907E-05 7.01371E-08 1.02363E-18 2.07636E-19
 -1       561 9.52270E-05-2.85424E-05-2.85790E-05 2.79669E-08-1.21141E-20 9.47469E-19
 -1       562 9.52161E-05-2.85489E-05-2.85716E-05 1.82464E-10-1.54977E-18 2.67359E-19
 -1       563 9.52115E-05-2.85544E-05-2.85673E-05-1.71798E-08-1.48765E-18 4.09091E-19
 -1       564 9.52111E-05-2.85590E-05-2.85652E-05-2.71384E-08-2.85440E-19 9.46619E-19
 -1       565 9.52133E-05-2.85629E-05-2.85645E-05-3.19177E-08 2.11964E-20 1.29663E-18
 -1       566 9.52170E-05-2.85662E-05-2.85646E-05-3.30797E-08-2.01748E-19 2.54367E-18
 -1       567 9.52216E-05-2.85693E-05-2.85653E-05-3.16422E-08 2.05792E-18 2.89586E-18
 -1       568 9.52264E-05-2.85724E-05-2.85660E-05-2.82318E-08 1.06992E-18 2.80634E-18
 -1       569 9.52313E-05-2.85755E-05-2.85668E-05-2.30518E-08-5.82738E-19 3.35437E-18
 -1       570 9.52492E-05-2.85933E-05-2.85668E-05-2.14530E-08 1.38971E-18-1.83336E-18
 -1       571 9.52522E-05-2.85966E-05-2.85667E-05-1.54328E-08 1.08343E-18-1.21281E-18
 -1       572 9.52395E-05-2.85834E-05-2.85669E-05-2.63698E-08 1.53590E-18-2.11659E-18
 -1       573 9.52449E-05-2.85889E-05-2.85669E-05-2.53155E-08 8.68597E-20-2.51636E-18
 -1       574 9.52540E-05-2.85986E-05-2.85666E-05-8.02627E-09-3.93164E-20-9.32063E-19
 -1       575 9.52546E-05-2.85993E-05-2.85665E-05 5.77609E-11-1.43139E-19-8.49054E-19
 -1       576 9.52540E-05-2.85986E-05-2.85666E-05 8.13834E-09-1.28067E-18 4.87656E-19
 -1       577 9.52522E-05-2.85967E-05-2.85667E-05 1.54197E-08 1.64279E-20-3.41722E-19
 -1       578 9.52492E-05-2.85934E-05-2.85668E-05 2.14562E-08 1.71653E-19 8.11243E-20
 -1       579 9.52449E-05-2.85888E-05-2.85669E-05 2.52739E-08-4.18151E-19 3.29621E-18
 -1       580 9.52394E-05-2.85833E-05-2.85669E-05 2.62979E-08 3.19950E-19 3.00209E-18
 -1       581 8.91610E-05-4.90421E-05-1.68576E-05 4.05591E-05-1.40253E-18 1.95336E-18
 -1       582 1.03040E-04-3.00391E-05-3.12806E-05-4.88086E-06 1.30377E-18 1.49972E-18
 -1       583 1.43297E-04-5.00004E-05-4.03134E-05 1.51992E-07 4.09575E-18-2.48377E-18
 -1       584 4.84576E-05-2.87264E-05-7.95268E-06-3.60571E-05 2.50039E-18 7.59529E-18
 -1       585 5.96785E-05-3.34072E-05-1.07544E-05 3.89810E-05-2.59981E-18 5.16738E-18
 -1       586 2.97194E-05-1.76152E-05-4.58262E-06-2.01115E-05 2.04111E-18 7.81907E-18
 -1       587 8.03566E-05-6.99993E-06-3.14486E-05-1.20052E-07 6.39711E-19-3.82809E-18
 -1       588 1.31880E-04-1.30638E-05-5.15606E-05-9.94385E-06 7.73368E-18-7.08305E-19
 -1       589 1.43207E-04-4.86058E-05-4.08948E-05 3.23473E-06 1.87378E-18 1.94267E-18
 -1       590 1.26887E-04-1.00420E-05-5.07624E-05 5.26319E-06 7.04848E-18 1.62182E-18
 -1       591 1.40848E-04-1.66742E-05-5.37834E-05 9.57903E-06-7.65675E-18-1.44589E-18
 -1       592 1.37468E-04-2.45202E-05-4.89649E-05 1.22538E-05 5.19591E-18 2.59134E-18
 -1       593 1.32300E-04-6.11226E-05-3.06016E-05-1.85351E-05-1.05996E-18 2.32219E-19
 -1       594 1.07916E-04-5.62559E-05-2.19470E-05-3.56284E-05-2.80357E-18-2.21357E-18
 -1       595 5.99264E-05-3.53053E-05-1.01827E-05-4.07871E-05-2.44861E-18-5.83696E-18
 -1       596 3.66355E-05-2.00309E-05-6.50805E-06-2.72107E-05-1.31780E-18-7.43197E-18
 -1       597 2.92902E-05-1.12625E-05-6.99045E-06 1.22041E-06 9.35816E-19-7.14372E-18
 -1       598 7.85811E-05-4.51898E-05-1.39543E-05 4.35330E-05 1.62503E-18-2.85551E-18
 -1       599 1.15268E-04-5.92614E-05-2.39061E-05 3.32289E-05 1.57945E-18 2.95429E-19
 -1       600 1.39698E-04-5.87084E-05-3.48481E-05 1.11735E-05-9.40498E-19 2.27317E-18
 -1       601 1.44612E-04-4.12263E-05-4.46873E-05-7.27818E-06-4.14173E-18 2.23897E-18
 -1       602 1.36423E-04-1.82622E-05-5.12336E-05-1.08029E-05-7.00078E-18 1.86768E-18
 -1       603 1.30356E-04-8.49669E-06-5.29008E-05 6.05908E-07-8.02987E-18-5.08590E-19
 -1       604 1.43872E-04-3.61250E-05-4.65897E-05 1.03259E-05-3.95686E-18-2.83904E-18
 -1       605 1.42030E-04-5.58763E-05-3.71491E-05-5.65253E-06-2.72195E-19-3.02391E-19
 -1       606 1.22835E-04-6.05738E-05-2.66785E-05-2.68959E-05 2.06480E-18 2.44133E-18
 -1       607 8.21212E-05-4.66903E-05-1.48588E-05-4.18424E-05 2.38540E-18 2.82454E-18
 -1       608 9.82547E-05-2.13368E-05-3.29855E-05-3.84311E-06-2.45768E-18-2.08693E-18
 -1       609 1.01685E-04-2.47739E-05-3.29666E-05 4.73469E-06 3.30996E-18 2.83511E-18
 -1       610 8.97166E-05-1.38628E-05-3.25302E-05-2.02452E-06-1.40614E-18-3.60234E-18
 -1       611 1.08694E-04-5.55635E-05-2.25643E-05-3.19237E-05 2.79066E-18 1.70315E-18
 -1       612 1.12031E-04-5.69794E-05-2.34684E-05 3.09368E-05-1.72800E-18-1.30939E-19
 -1       613 4.71329E-05-2.16025E-05-1.03680E-05 2.85111E-05-2.39165E-18 5.88233E-18
 -1       614 3.08940E-05-1.18865E-05-7.52734E-06-2.85887E-06 4.34726E-19 6.25566E-18
 -1       615 9.52334E-05-2.85776E-05-2.85668E-05 2.54023E-08 5.80837E-19 2.87409E-18
 -1       616 9.16752E-05-4.62870E-05-1.90899E-05-3.79319E-05-3.02049E-18-3.08286E-18
 -1       617 3.96024E-05-1.40246E-05-1.03959E-05 1.64450E-05 2.16786E-18-6.09027E-18
 -1       618 1.35726E-04-5.84610E-05-3.32193E-05 8.76291E-06 3.46311E-19-3.25462E-18
 -1       619 8.22523E-05-1.04668E-05-3.07689E-05-1.33452E-06 1.79855E-18-2.94245E-18
 -1       620 8.04354E-05-9.09425E-06-3.05776E-05-6.72914E-07 1.29025E-18-3.07782E-18
 -1       621 8.95845E-05-1.60995E-05-3.14953E-05-1.11672E-06 2.58725E-18-1.87492E-18
 -1       622 9.42116E-05-1.98687E-05-3.18671E-05-4.38029E-07 2.75398E-18-6.96986E-19
 -1       623 9.86739E-05-2.45386E-05-3.17642E-05-1.37667E-06 2.56182E-18 4.21539E-19
 -1       624 9.52386E-05-2.85810E-05-2.85675E-05 3.00555E-08 1.07270E-18 3.53500E-18
 -1       625 9.79582E-05-2.58727E-05-3.08928E-05 5.87295E-06-1.00448E-18-1.63253E-18
 -1       626 9.94766E-05-2.85778E-05-3.03853E-05 8.24148E-06-4.63186E-19-1.34642E-18
 -1       627 1.01948E-04-3.19366E-05-3.00064E-05 9.54819E-06 8.07304E-20-9.98101E-19
 -1       628 1.05858E-04-3.63065E-05-2.98123E-05 9.44717E-06 3.24784E-19-6.44182E-19
 -1       629 1.11458E-04-4.15156E-05-2.99828E-05 7.29186E-06 2.05994E-19-1.04386E-19
 -1       630 1.18193E-04-4.61792E-05-3.08752E-05 2.25739E-06 1.51348E-19 7.40075E-19
 -1       631 1.23902E-04-4.72647E-05-3.28783E-05-5.55549E-06-2.78211E-19 1.57005E-18
 -1       632 1.24826E-04-3.99866E-05-3.65475E-05-1.34074E-05-1.93919E-18 2.26450E-18
 -1       633 1.20611E-04-2.57867E-05-4.09449E-05-1.42156E-05-4.08172E-18 1.70723E-18
 -1       634 1.15255E-04-1.38949E-05-4.37427E-05-3.88125E-06-5.09109E-18-3.26353E-19
 -1       635 1.17393E-04-1.83170E-05-4.28534E-05 1.08323E-05-4.22376E-18-3.10143E-18
 -1       636 1.22968E-04-3.25286E-05-3.90303E-05 1.64738E-05-2.73274E-18-3.94717E-18
 -1       637 1.25353E-04-4.44477E-05-3.47601E-05 1.15494E-05-5.72025E-19-3.27615E-18
 -1       638 1.21630E-04-4.74747E-05-3.18057E-05 2.95599E-06 9.95100E-19-2.39554E-18
 -1       639 1.15021E-04-4.44541E-05-3.02422E-05-3.93263E-06 1.50933E-18-1.18597E-18
 -1       640 1.08612E-04-3.94905E-05-2.96248E-05-7.85753E-06 1.71600E-18-5.56933E-19
 -1       641 1.03673E-04-3.48827E-05-2.94845E-05-9.50819E-06 1.09662E-18 1.38594E-19
 -1       642 1.00353E-04-3.14843E-05-2.95165E-05-9.73023E-06 8.99053E-19-1.26780E-19
 -1       643 9.82896E-05-2.92910E-05-2.95711E-05-9.17607E-06 7.76925E-19-8.23387E-19
 -1       644 9.70703E-05-2.80290E-05-2.95888E-05-8.23381E-06-2.78404E-20-2.30077E-19
 -1       645 9.63712E-05-2.74024E-05-2.95575E-05-7.13403E-06-7.81960E-19-5.86709E-19
 -1       646 9.59740E-05-2.71730E-05-2.94855E-05-6.01404E-06-7.99715E-20-1.49947E-18
 -1       647 9.57447E-05-2.71723E-05-2.93875E-05-4.95409E-06 8.08339E-19-1.00865E-18
 -1       648 9.56059E-05-2.72907E-05-2.92774E-05-3.99792E-06-1.05655E-19-1.17930E-18
 -1       649 9.55157E-05-2.74606E-05-2.91660E-05-3.16531E-06 9.85287E-20-1.55344E-18
 -1       650 9.54522E-05-2.76433E-05-2.90606E-05-2.46041E-06 8.10893E-20-1.88978E-18
 -1       651 9.54044E-05-2.78174E-05-2.89655E-05-1.87763E-06 9.94485E-19-2.16556E-18
 -1       652 9.53667E-05-2.79729E-05-2.88828E-05-1.40581E-06 1.78728E-18-9.86468E-19
 -1       653 9.53365E-05-2.81060E-05-2.88129E-05-1.03110E-06 7.40842E-19 1.79418E-18
 -1       654 9.53123E-05-2.82164E-05-2.87552E-05-7.38909E-07-1.34572E-18 1.53290E-18
 -1       655 9.52929E-05-2.83058E-05-2.87087E-05-5.15144E-07 2.48950E-19 9.86856E-19
 -1       656 9.52777E-05-2.83766E-05-2.86718E-05-3.46906E-07-7.40999E-19 1.69581E-18
 -1       657 9.52660E-05-2.84316E-05-2.86432E-05-2.22854E-07-7.22629E-19 3.62163E-19
 -1       658 9.52570E-05-2.84736E-05-2.86214E-05-1.33315E-07-1.77244E-18-5.13658E-19
 -1       659 9.52504E-05-2.85051E-05-2.86051E-05-7.02454E-08-6.07054E-19-8.93306E-19
 -1       660 9.52456E-05-2.85281E-05-2.85932E-05-2.71116E-08 3.73879E-19-8.56715E-19
 -1       661 9.52422E-05-2.85448E-05-2.85846E-05 1.28314E-09-3.28288E-19-1.87011E-18
 -1       662 9.52399E-05-2.85565E-05-2.85786E-05 1.89768E-08 6.18869E-19-5.78718E-19
 -1       663 9.52385E-05-2.85647E-05-2.85745E-05 2.90276E-08 1.81494E-18 7.25067E-19
 -1       664 9.52377E-05-2.85705E-05-2.85717E-05 3.36806E-08 1.13828E-18 7.88498E-19
 -1       665 9.52376E-05-2.85749E-05-2.85698E-05 3.44634E-08 2.95957E-19 8.46117E-19
 -1       666 9.52378E-05-2.85779E-05-2.85685E-05 3.30718E-08-1.16929E-18 6.53833E-19
 -1       667 1.06535E-04-3.56319E-05-3.03900E-05-6.76464E-06 1.90970E-19 7.34704E-19
 -1       668 1.36418E-04-5.11658E-05-3.67507E-05-5.45725E-06-1.14244E-18 2.73142E-18
 -1       669 1.03329E-04-3.22044E-05-3.04839E-05-7.45553E-06 5.56277E-19 2.79035E-19
 -1       670 1.15302E-04-4.25381E-05-3.12010E-05 6.07992E-07-6.20447E-19 2.35614E-18
 -1       671 1.18623E-04-4.27196E-05-3.25596E-05 7.04542E-06 7.49260E-21 2.07522E-18
 -1       672 1.18557E-04-3.77237E-05-3.46741E-05 1.27123E-05 1.49470E-18 2.29105E-18
 -1       673 1.14234E-04-2.75812E-05-3.72858E-05 1.30929E-05 2.47627E-18 2.01394E-18
 -1       674 1.10007E-04-1.90021E-05-3.91735E-05 5.20488E-06 3.67334E-18 6.75701E-19
 -1       675 1.10030E-04-1.91931E-05-3.91312E-05-6.87284E-06 4.00955E-18-1.25892E-18
 -1       676 1.14859E-04-2.82840E-05-3.71953E-05-1.43783E-05 2.72103E-18-2.15115E-18
 -1       677 1.18666E-04-3.79381E-05-3.46665E-05-1.36917E-05 1.40588E-18-2.35932E-18
 -1       678 1.18661E-04-4.28179E-05-3.25177E-05-7.99385E-06-1.43573E-19-2.10430E-18
 -1       679 1.15279E-04-4.25783E-05-3.11582E-05-1.45627E-06-8.20111E-19-1.21859E-18
 -1       680 1.10694E-04-3.95921E-05-3.04783E-05 3.45110E-06-8.96945E-19-3.97418E-19
 -1       681 1.06440E-04-3.60045E-05-3.01921E-05 6.37225E-06-5.80503E-19-2.51002E-19
 -1       682 1.03119E-04-3.29401E-05-3.00803E-05 7.68388E-06-2.66343E-19-6.76508E-19
 -1       683 1.00751E-04-3.07241E-05-3.00129E-05 7.91397E-06 5.67619E-19-1.61603E-18
 -1       684 9.91315E-05-2.92909E-05-2.99319E-05 7.49089E-06 3.75824E-19-1.64137E-18
 -1       685 9.80365E-05-2.84520E-05-2.98215E-05 6.71721E-06-1.38998E-18-1.31193E-18
 -1       686 9.72874E-05-2.80175E-05-2.96863E-05 5.79397E-06-4.02795E-19-1.16038E-18
 -1       687 9.67613E-05-2.78375E-05-2.95379E-05 4.84840E-06-1.13358E-18-5.91280E-19
 -1       688 9.63801E-05-2.78065E-05-2.93878E-05 3.95599E-06-1.10828E-18-1.45793E-18
 -1       689 9.60960E-05-2.78555E-05-2.92452E-05 3.15690E-06-1.28341E-18-4.33729E-19
 -1       690 9.58799E-05-2.79418E-05-2.91157E-05 2.46803E-06-7.50814E-19 2.84855E-19
 -1       691 9.57138E-05-2.80403E-05-2.90024E-05 1.89153E-06-3.48153E-19 4.54973E-19
 -1       692 9.55859E-05-2.81371E-05-2.89062E-05 1.42084E-06 5.86323E-19 3.12730E-19
 -1       693 9.54877E-05-2.82250E-05-2.88265E-05 1.04478E-06-1.21022E-21 2.77715E-19
 -1       694 9.54131E-05-2.83011E-05-2.87620E-05 7.50267E-07-7.81497E-19-8.01318E-19
 -1       695 9.53572E-05-2.83648E-05-2.87109E-05 5.24001E-07 5.28819E-19-7.67206E-19
 -1       696 9.53160E-05-2.84165E-05-2.86711E-05 3.53478E-07 1.17092E-18-4.55009E-19
 -1       697 9.52862E-05-2.84577E-05-2.86407E-05 2.27514E-07 3.94864E-19-6.06629E-19
 -1       698 9.52652E-05-2.84898E-05-2.86180E-05 1.36469E-07 1.50868E-18 8.70860E-19
 -1       699 9.52509E-05-2.85143E-05-2.86014E-05 7.22693E-08-3.51126E-19 1.63004E-18
 -1       700 9.52416E-05-2.85327E-05-2.85895E-05 2.83190E-08-1.33316E-19 2.55810E-18
 -1       701 9.52359E-05-2.85463E-05-2.85812E-05-6.45715E-10-1.16165E-18 1.09523E-18
 -1       702 9.52328E-05-2.85561E-05-2.85757E-05-1.87288E-08-9.70473E-19-4.52408E-19
 -1       703 9.52315E-05-2.85632E-05-2.85721E-05-2.90465E-08 2.28631E-19-2.20668E-19
 -1       704 9.52314E-05-2.85684E-05-2.85699E-05-3.38868E-08-1.14846E-18-5.00795E-19
 -1       705 9.52323E-05-2.85724E-05-2.85685E-05-3.48538E-08-9.60786E-19 2.64627E-19
 -1       706 9.52338E-05-2.85758E-05-2.85677E-05-3.30094E-08 1.86290E-18 2.73872E-18
 -1       707 9.52369E-05-2.85795E-05-2.85674E-05-3.03007E-08-2.77204E-19 8.06086E-19
 -1       708 9.52578E-05-2.85928E-05-2.85707E-05-4.48769E-09 7.73751E-19-2.46395E-18
 -1       709 9.52533E-05-2.85899E-05-2.85700E-05-2.09759E-08 6.56896E-19-2.30821E-18
 -1       710 9.52578E-05-2.85928E-05-2.85707E-05 4.60951E-09-1.13421E-18-1.52889E-18
 -1       711 9.52564E-05-2.85919E-05-2.85705E-05-1.32527E-08 6.95100E-19-9.39049E-19
 -1       712 1.01135E-04-2.94022E-05-3.07427E-05-6.63701E-06 1.16539E-18 2.23149E-19
 -1       713 9.52564E-05-2.85919E-05-2.85705E-05 1.32320E-08-5.29737E-19 1.71874E-18
 -1       714 9.52534E-05-2.85900E-05-2.85700E-05 2.09949E-08 1.49988E-18-4.95186E-20
 -1       715 9.52486E-05-2.85870E-05-2.85693E-05 2.70594E-08 1.82376E-18 1.19742E-18
 -1       716 4.95896E-05-1.99745E-05-1.21354E-05-2.58348E-05 2.51362E-18 6.90512E-18
 -1       717 1.36241E-04-4.02942E-05-4.14703E-05-1.20195E-05 3.76620E-18-4.53920E-18
 -1       718 1.36180E-04-4.71984E-05-3.84068E-05 1.01711E-05-7.26265E-19-3.56905E-18
 -1       719 8.26054E-05-3.99907E-05-1.79301E-05 3.53543E-05-3.41690E-18 1.40668E-18
 -1       720 1.10737E-04-3.94409E-05-3.05617E-05-4.17795E-06-3.82760E-19 1.38068E-18
 -1       721 9.68182E-05-2.31847E-05-3.15545E-05 2.59945E-06-1.25660E-18-2.09422E-18
 -1       722 8.54245E-05-1.28719E-05-3.10956E-05-1.47530E-06 2.24726E-18-2.50194E-18
 -1       723 9.97128E-05-2.70166E-05-3.11527E-05-4.58162E-06 1.81817E-18 2.55649E-19
 -1       724 1.16070E-04-1.27922E-05-4.47366E-05-4.17783E-06 5.56188E-18-9.92439E-19
 -1       725 8.48568E-05-1.23742E-05-3.10688E-05 1.36670E-06-2.85493E-19-3.21203E-18
 -1       726 1.29261E-04-2.50091E-05-4.50745E-05 1.53171E-05-4.52040E-18-4.41875E-18
 -1       727 1.22134E-04-1.98285E-05-4.42800E-05 1.23391E-05 4.64211E-18 2.38469E-18
 -1       728 1.31254E-04-3.73222E-05-4.05604E-05 1.37470E-05 2.27839E-18 3.05482E-18
 -1       729 1.21357E-04-5.79762E-05-2.71362E-05-2.15476E-05-2.46806E-18 8.26585E-20
 -1       730 5.95012E-05-2.73072E-05-1.33363E-05-3.39267E-05-2.12881E-18-5.20682E-18
 -1       731 1.35468E-04-5.55495E-05-3.44139E-05-1.71926E-06-3.96802E-19 2.03592E-18
 -1       732 4.66112E-05-1.40369E-05-1.34894E-05-1.57940E-05-2.30261E-19-5.77716E-18
 -1       733 1.00247E-04-5.07433E-05-2.09879E-05 3.53405E-05 3.11584E-18-1.48906E-19
 -1       734 1.28551E-04-5.97949E-05-2.94727E-05 1.56352E-05 1.47415E-18 1.57315E-18
 -1       735 1.31898E-04-3.28987E-05-4.27985E-05-1.44600E-05-4.14538E-18 2.49478E-18
 -1       736 1.26155E-04-2.27246E-05-4.47820E-05-1.50086E-05 5.22897E-18-2.73536E-18
 -1       737 6.53484E-05-3.20019E-05-1.38487E-05 3.70138E-05 3.25573E-18-3.26536E-18
 -1       738 7.11734E-05-3.51097E-05-1.50409E-05-3.64702E-05 3.75990E-18 4.41307E-18
 -1       739 1.31631E-04-5.88540E-05-3.13191E-05-9.34516E-06 1.49768E-18-8.48383E-19
 -1       740 8.89769E-05-1.55295E-05-3.14837E-05 1.18592E-06-9.40369E-19-3.22804E-18
 -1       741 8.02864E-05-8.96832E-06-3.05683E-05 2.36751E-07 9.13636E-19-3.28254E-18
 -1       742 9.37408E-05-4.51165E-05-2.06231E-05-3.25920E-05 3.46607E-18 1.19306E-18
 -1       743 1.24469E-04-5.88733E-05-2.80635E-05 1.77112E-05-2.03517E-18-3.42672E-18
 -1       744 1.01105E-04-4.90117E-05-2.21724E-05 3.02414E-05-3.57783E-18-9.15209E-19
 -1       745 6.88514E-05-2.92994E-05-1.66020E-05 3.10413E-05-3.64702E-18 3.15964E-18
 -1       746 9.52442E-05-2.85845E-05-2.85684E-05-2.92486E-08 9.49871E-19-4.90425E-18
 -1       747 4.20368E-05-1.33638E-05-1.18269E-05 1.25290E-05-1.31056E-18 5.70334E-18
 -1       748 1.35136E-04-5.07821E-05-3.63558E-05-5.28423E-06 9.82535E-19-4.99081E-18
 -1       749 4.60065E-05-1.13500E-05-1.44486E-05-2.76558E-06 8.05944E-19-5.59344E-18
 -1       750 8.18333E-05-1.01117E-05-3.07431E-05 1.01332E-06 2.95867E-19-3.27076E-18
 -1       751 1.21873E-04-1.51884E-05-4.62935E-05 9.99846E-06-5.65754E-18-3.12230E-18
 -1       752 1.08290E-04-5.15471E-05-2.42187E-05-2.79554E-05-2.80605E-18-1.17022E-18
 -1       753 9.52493E-05-2.85877E-05-2.85693E-05-2.60032E-08 1.35364E-18-2.13281E-18
 -1       754 9.46841E-05-2.02356E-05-3.19100E-05 6.87515E-07-1.39576E-18-2.68939E-18
 -1       755 1.21778E-04-5.70207E-05-2.76925E-05-1.71865E-05 2.84616E-18 6.55481E-19
 -1       756 9.56120E-05-2.31515E-05-3.10568E-05-3.93941E-06 2.11536E-18-5.55436E-19
 -1       757 9.42133E-05-2.42117E-05-2.99991E-05 7.85492E-06-3.94990E-19-1.99378E-18
 -1       758 9.58459E-05-2.75665E-05-2.92621E-05 1.06279E-05 2.56685E-19-1.38816E-18
 -1       759 9.87859E-05-3.20062E-05-2.86161E-05 1.28398E-05 6.04383E-19-8.92044E-19
 -1       760 1.03880E-04-3.80428E-05-2.82121E-05 1.40450E-05 6.76213E-19-5.66995E-19
 -1       761 1.12004E-04-4.56963E-05-2.84193E-05 1.30520E-05 1.15991E-18-2.35729E-19
 -1       762 1.22634E-04-5.28187E-05-2.98894E-05 8.09404E-06 1.04132E-18 9.88747E-19
 -1       763 1.28119E-04-5.40662E-05-3.17508E-05-1.78246E-06 1.43753E-18-2.00098E-18
 -1       764 1.17116E-04-4.98465E-05-2.88171E-05-9.92724E-06 2.64934E-18-5.94895E-19
 -1       765 1.07525E-04-4.25308E-05-2.78538E-05-1.30673E-05 2.16100E-18 4.56841E-19
 -1       766 1.00707E-04-3.58194E-05-2.78107E-05-1.34189E-05 1.71579E-18 8.41327E-19
 -1       767 9.67280E-05-3.11594E-05-2.81003E-05-1.23600E-05 7.97354E-19 9.42282E-19
 -1       768 9.46194E-05-2.82530E-05-2.84425E-05-1.09050E-05 5.75049E-19 7.64012E-19
 -1       769 9.36841E-05-2.66511E-05-2.87281E-05-9.40161E-06 6.15706E-19-1.98539E-19
 -1       770 9.34148E-05-2.59208E-05-2.89256E-05-7.97421E-06-7.95625E-19-2.45649E-19
 -1       771 9.34903E-05-2.57317E-05-2.90391E-05-6.66525E-06-6.64113E-19 6.87575E-19
 -1       772 9.37195E-05-2.58531E-05-2.90854E-05-5.49032E-06-5.93263E-19-2.05674E-19
 -1       773 9.39956E-05-2.61332E-05-2.90837E-05-4.45508E-06 9.67566E-19-2.10603E-18
 -1       774 9.42638E-05-2.64774E-05-2.90512E-05-3.55954E-06-3.18474E-19-1.36247E-18
 -1       775 9.44995E-05-2.68296E-05-2.90013E-05-2.79908E-06-2.87056E-19-2.40261E-18
 -1       776 9.46947E-05-2.71591E-05-2.89437E-05-2.16510E-06 9.84868E-19-1.14380E-18
 -1       777 9.48499E-05-2.74510E-05-2.88852E-05-1.64599E-06 1.80108E-18 5.63603E-20
 -1       778 9.49695E-05-2.77000E-05-2.88297E-05-1.22834E-06 2.47532E-18-1.11764E-18
 -1       779 9.50592E-05-2.79064E-05-2.87797E-05-8.98065E-07 3.06069E-19-8.86992E-19
 -1       780 9.51247E-05-2.80735E-05-2.87362E-05-6.41344E-07 7.71313E-20 1.11012E-18
 -1       781 9.51714E-05-2.82061E-05-2.86994E-05-4.45248E-07-1.37336E-18-2.76882E-19
 -1       782 9.52037E-05-2.83092E-05-2.86690E-05-2.98156E-07-1.53266E-18 4.22367E-19
 -1       783 9.52251E-05-2.83879E-05-2.86445E-05-1.89947E-07-1.51178E-18-6.16438E-19
 -1       784 9.52386E-05-2.84469E-05-2.86250E-05-1.12041E-07-9.87193E-19 3.85349E-19
 -1       785 9.52464E-05-2.84902E-05-2.86098E-05-5.73301E-08-3.26418E-20-3.62053E-20
 -1       786 9.52503E-05-2.85213E-05-2.85981E-05-2.00612E-08 9.01662E-19-2.27297E-19
 -1       787 9.52515E-05-2.85431E-05-2.85893E-05 4.32648E-09 7.89158E-19 8.22522E-19
 -1       788 9.52511E-05-2.85581E-05-2.85827E-05 1.93645E-08 1.18140E-18-1.03734E-18
 -1       789 9.52497E-05-2.85682E-05-2.85778E-05 2.77168E-08 1.30010E-18-1.99322E-18
 -1       790 9.52480E-05-2.85752E-05-2.85740E-05 3.13799E-08 1.47256E-18-9.41721E-19
 -1       791 1.24487E-04-3.47717E-05-3.86737E-05-1.58185E-05 2.77598E-18-3.35597E-18
 -1       792 9.52610E-05-2.85863E-05-2.85749E-05 9.29193E-09 1.19685E-19 2.13508E-18
 -1       793 1.26101E-04-4.76360E-05-3.36965E-05 6.44803E-06-6.30378E-20 2.10893E-18
 -1       794 1.20321E-04-4.83615E-05-3.08435E-05-2.33576E-06-7.38328E-19 1.19024E-18
 -1       795 1.25690E-04-4.76246E-05-3.35284E-05-7.26813E-06 3.43353E-19-3.18507E-18
 -1       796 1.19700E-04-4.83242E-05-3.05987E-05 1.50277E-06-1.15825E-18-3.03687E-18
 -1       797 1.12097E-04-4.37426E-05-2.92979E-05 7.07169E-06-1.57424E-18-2.36495E-18
 -1       798 1.05589E-04-3.82761E-05-2.88501E-05 9.68814E-06-1.46368E-18-1.63712E-18
 -1       799 1.00954E-04-3.36810E-05-2.88333E-05 1.03074E-05-5.72893E-19-4.14846E-19
 -1       800 9.80260E-05-3.04470E-05-2.89633E-05 9.89588E-06-1.06806E-19 5.01866E-19
 -1       801 9.63321E-05-2.84225E-05-2.91040E-05 8.99737E-06 6.11810E-20 1.41678E-18
 -1       802 9.54372E-05-2.72998E-05-2.92015E-05 7.89880E-06-2.31254E-19 1.11259E-18
 -1       803 9.50207E-05-2.67852E-05-2.92435E-05 6.75456E-06-7.13943E-19 1.65533E-19
 -1       804 9.48705E-05-2.66498E-05-2.92371E-05 5.65028E-06-7.29077E-19 3.00423E-19
 -1       805 9.48563E-05-2.67319E-05-2.91959E-05 4.63390E-06-8.17894E-19 5.99892E-19
 -1       806 9.49031E-05-2.69251E-05-2.91332E-05 3.73043E-06-1.16034E-18 1.24951E-19
 -1       807 9.49702E-05-2.71626E-05-2.90602E-05 2.94965E-06-1.65091E-18-1.00477E-19
 -1       808 9.50374E-05-2.74051E-05-2.89851E-05 2.29107E-06 2.45923E-20-3.52283E-19
 -1       809 9.50959E-05-2.76311E-05-2.89133E-05 1.74747E-06-4.07621E-19-7.01772E-19
 -1       810 9.51429E-05-2.78305E-05-2.88481E-05 1.30760E-06 1.73706E-20 5.50763E-20
 -1       811 9.51786E-05-2.79996E-05-2.87909E-05 9.58301E-07 2.80741E-19 2.33605E-19
 -1       812 9.52046E-05-2.81390E-05-2.87423E-05 6.85916E-07 2.58558E-19 7.74014E-20
 -1       813 9.52227E-05-2.82510E-05-2.87021E-05 4.77324E-07 4.31190E-19-5.43635E-19
 -1       814 9.52346E-05-2.83392E-05-2.86694E-05 3.20528E-07 1.05727E-18-3.93976E-19
 -1       815 9.52420E-05-2.84072E-05-2.86435E-05 2.04968E-07-8.29277E-19 6.22036E-19
 -1       816 9.52461E-05-2.84586E-05-2.86232E-05 1.21626E-07-1.64845E-19 2.72312E-18
 -1       817 9.52479E-05-2.84966E-05-2.86077E-05 6.29968E-08 8.70497E-20 1.27370E-18
 -1       818 9.52482E-05-2.85242E-05-2.85960E-05 2.29781E-08 3.68959E-19 1.22184E-19
 -1       819 9.52475E-05-2.85438E-05-2.85873E-05-3.28005E-09-3.77554E-19-5.85256E-19
 -1       820 9.52464E-05-2.85574E-05-2.85810E-05-1.95445E-08-1.03343E-18-1.39404E-18
 -1       821 9.52450E-05-2.85667E-05-2.85764E-05-2.86645E-08-7.64957E-19-2.37246E-19
 -1       822 9.52437E-05-2.85731E-05-2.85731E-05-3.27204E-08-7.80190E-19-6.45538E-19
 -1       823 9.52428E-05-2.85779E-05-2.85706E-05-3.31169E-08 8.33868E-20-4.09256E-18
 -1       824 9.52436E-05-2.85812E-05-2.85696E-05-3.16030E-08 5.72595E-19-5.13698E-18
 -1       825 9.85505E-05-2.88698E-05-2.98629E-05-8.88091E-06 5.46125E-19-5.04917E-19
 -1       826 6.88812E-05-2.77304E-05-1.73444E-05-2.87334E-05 3.52914E-18 4.27389E-18
 -1       827 8.10911E-05-1.17572E-05-2.97161E-05-2.21285E-06 1.20641E-18-2.72264E-18
 -1       828 9.52618E-05-2.85865E-05-2.85751E-05-2.45846E-11 2.78223E-19-4.43549E-18
 -1       829 9.52537E-05-2.85839E-05-2.85728E-05 2.55755E-08 1.68495E-18-2.40264E-19
 -1       830 1.22272E-04-2.07957E-05-4.39738E-05-1.10513E-05-5.19925E-18 7.62290E-19
 -1       831 5.97027E-05-2.14248E-05-1.60945E-05 2.55990E-05 3.03577E-18-4.02584E-18
 -1       832 9.52583E-05-2.85855E-05-2.85741E-05 1.80114E-08 2.26086E-18 4.88532E-18
 -1       833 4.74742E-05-1.29011E-05-1.44235E-05-8.72386E-06 6.35157E-19 4.07669E-18
 -1       834 1.01534E-04-3.28755E-05-2.94224E-05-1.01907E-05 6.41108E-20-2.15592E-19
 -1       835 8.59166E-05-3.81434E-05-2.02508E-05 3.21968E-05 3.07588E-18-1.09306E-18
 -1       836 1.10812E-04-5.06906E-05-2.56134E-05 2.34465E-05 2.27653E-18 1.24110E-20
 -1       837 6.59147E-05-2.30427E-05-1.81148E-05-2.53101E-05-1.36847E-18-3.66524E-18
 -1       838 8.63502E-05-3.72021E-05-2.08761E-05-3.09542E-05-2.63903E-18-2.71504E-18
 -1       839 9.31119E-05-2.12640E-05-3.07922E-05 4.66784E-06-7.67719E-19-2.55220E-18
 -1       840 9.10579E-05-1.84508E-05-3.11181E-05 2.88579E-06-8.53585E-19-3.03126E-18
 -1       841 9.52468E-05-2.85818E-05-2.85707E-05 3.09374E-08 4.05284E-19 1.91999E-18
 -1       842 7.98383E-05-1.08007E-05-2.95881E-05-3.43676E-07 9.86617E-19-2.77881E-18
 -1       843 1.29331E-04-5.52759E-05-3.17764E-05 3.68101E-06-6.92185E-19-3.78252E-18
 -1       844 8.41203E-05-1.40383E-05-3.00384E-05-3.52157E-06 1.61236E-18-2.37105E-18
 -1       845 9.03039E-05-1.93126E-05-3.04270E-05-4.75771E-06 1.83345E-18-1.72691E-18
 -1       846 8.87437E-05-3.76353E-05-2.17601E-05 2.75351E-05-3.54512E-18 3.02794E-19
 -1       847 8.64396E-05-1.49175E-05-3.06556E-05 2.88986E-06-3.59316E-19-2.97076E-18
 -1       848 1.12685E-04-4.37252E-05-2.95366E-05-7.93419E-06-1.03901E-18 5.18751E-19
 -1       849 5.98312E-05-1.79137E-05-1.77605E-05-1.70176E-05 1.64951E-18 3.96025E-18
 -1       850 9.52583E-05-2.85854E-05-2.85741E-05-1.80063E-08 1.52392E-18 5.52516E-19
 -1       851 9.52610E-05-2.85863E-05-2.85749E-05-9.29825E-09 1.68419E-18-1.91811E-18
 -1       852 5.81129E-05-1.93264E-05-1.63528E-05 2.11484E-05-2.77152E-18 3.63533E-18
 -1       853 1.09040E-04-4.99044E-05-2.52477E-05-2.24005E-05 3.29209E-18 9.45292E-19
 -1       854 5.46952E-05-1.33906E-05-1.75027E-05 1.01616E-05 1.72656E-18-4.48407E-18
 -1       855 8.27521E-05-1.21420E-05-3.02666E-05 2.22958E-06 1.00045E-19-2.84556E-18
 -1       856 1.23750E-04-5.42440E-05-2.97466E-05-9.82440E-06-1.66456E-18 1.14486E-18
 -1       857 9.68383E-05-2.58861E-05-3.04110E-05-6.74842E-06 1.39288E-18-5.82674E-19
 -1       858 9.52544E-05-2.85844E-05-2.85729E-05-2.43825E-08 1.36322E-18-2.62261E-18
 -1       859 1.06180E-04-3.79592E-05-2.92255E-05-1.01484E-05-6.67881E-19 1.71074E-19
 -1       860 5.93822E-05-1.47326E-05-1.89352E-05-1.23300E-05-2.73969E-19-4.24115E-18
 -1       861 8.95406E-05-2.22863E-05-2.88215E-05 9.58743E-06 3.87186E-19-2.02791E-18
 -1       862 7.61577E-05-2.77952E-05-2.05859E-05 2.43377E-05-3.20969E-18 2.06481E-18
 -1       863 9.05922E-05-2.58433E-05-2.77480E-05 1.31021E-05 9.20129E-19-1.68775E-18
 -1       864 9.30516E-05-3.08606E-05-2.66443E-05 1.70587E-05 8.18710E-19-1.47170E-18
 -1       865 9.86267E-05-3.83867E-05-2.57723E-05 2.09677E-05 1.39697E-18-9.58678E-19
 -1       866 1.07599E-04-4.72057E-05-2.58174E-05 1.99657E-05-2.54211E-18-1.21208E-18
 -1       867 9.46852E-05-3.51401E-05-2.54717E-05-1.87839E-05 2.41031E-18 1.11055E-18
 -1       868 9.10520E-05-2.97122E-05-2.62853E-05-1.54341E-05 6.94908E-19 1.16214E-18
 -1       869 8.96336E-05-2.65010E-05-2.70553E-05-1.24672E-05 3.98793E-19 8.20017E-20
 -1       870 8.94371E-05-2.48377E-05-2.76853E-05-1.01336E-05-4.75217E-20 6.94775E-20
 -1       871 8.98637E-05-2.41650E-05-2.81564E-05-8.27993E-06 1.87693E-19-1.46602E-19
 -1       872 9.05626E-05-2.40988E-05-2.84844E-05-6.77777E-06-4.11693E-19 3.68449E-19
 -1       873 9.13378E-05-2.43800E-05-2.86961E-05-5.53283E-06-8.38240E-19 2.46497E-19
 -1       874 9.20849E-05-2.48385E-05-2.88198E-05-4.48543E-06-1.27916E-18 4.86679E-19
 -1       875 9.27533E-05-2.53658E-05-2.88803E-05-3.59976E-06 4.80713E-19-1.35365E-18
 -1       876 9.33238E-05-2.58955E-05-2.88978E-05-2.85341E-06-2.12911E-19-9.50274E-19
 -1       877 9.37947E-05-2.63897E-05-2.88878E-05-2.23026E-06 1.27560E-18-4.18820E-20
 -1       878 9.41729E-05-2.68291E-05-2.88616E-05-1.71654E-06 1.52563E-18-9.29530E-19
 -1       879 9.44700E-05-2.72063E-05-2.88273E-05-1.29915E-06 1.60657E-18-7.60874E-19
 -1       880 9.46985E-05-2.75214E-05-2.87902E-05-9.65249E-07 8.43357E-19-2.49845E-18
 -1       881 9.48708E-05-2.77785E-05-2.87538E-05-7.02392E-07 1.55083E-18-3.17387E-18
 -1       882 9.49979E-05-2.79841E-05-2.87202E-05-4.98865E-07-1.12845E-18-3.38040E-18
 -1       883 9.50897E-05-2.81454E-05-2.86904E-05-3.43965E-07-2.00275E-19-1.99903E-18
 -1       884 9.51542E-05-2.82696E-05-2.86648E-05-2.28198E-07-1.51733E-18-6.14259E-19
 -1       885 9.51980E-05-2.83635E-05-2.86434E-05-1.43366E-07-1.36749E-18-3.10690E-19
 -1       886 9.52266E-05-2.84331E-05-2.86258E-05-8.25612E-08-5.54781E-19 1.10715E-19
 -1       887 9.52440E-05-2.84836E-05-2.86116E-05-4.00915E-08 1.26102E-18 3.30849E-19
 -1       888 9.52536E-05-2.85194E-05-2.86004E-05-1.13657E-08 9.23743E-19 7.49307E-19
 -1       889 9.52577E-05-2.85442E-05-2.85915E-05 7.23534E-09-1.57533E-19 9.09393E-19
 -1       890 9.52583E-05-2.85609E-05-2.85846E-05 1.84962E-08 1.40242E-18 3.71639E-19
 -1       891 9.52568E-05-2.85721E-05-2.85792E-05 2.44897E-08 2.68271E-18 4.87289E-19
 -1       892 8.81535E-05-1.75340E-05-3.02617E-05 4.60393E-06-2.33109E-19-2.86258E-18
 -1       893 9.74143E-05-3.38445E-05-2.72458E-05 1.40261E-05-2.11291E-18 2.05513E-21
 -1       894 9.42418E-05-2.96904E-05-2.76659E-05 1.22276E-05-9.88918E-19 3.73121E-19
 -1       895 9.27350E-05-2.71996E-05-2.80862E-05 1.04218E-05-3.98645E-19 6.09999E-19
 -1       896 9.22205E-05-2.58818E-05-2.84306E-05 8.77329E-06 1.81591E-19 7.42307E-19
 -1       897 9.22534E-05-2.53375E-05-2.86781E-05 7.31893E-06-6.01482E-19 1.10644E-18
 -1       898 9.25569E-05-2.52722E-05-2.88362E-05 6.04720E-06-8.39767E-19 4.44749E-19
 -1       899 9.29675E-05-2.54815E-05-2.89225E-05 4.94102E-06-8.68235E-19 8.14693E-19
 -1       900 9.33936E-05-2.58296E-05-2.89560E-05 3.98633E-06-1.44866E-18 1.18014E-18
 -1       901 9.37879E-05-2.62300E-05-2.89533E-05 3.17162E-06-6.66553E-19 6.17073E-19
 -1       902 9.41294E-05-2.66305E-05-2.89281E-05 2.48598E-06-4.59736E-19-8.94274E-19
 -1       903 9.44125E-05-2.70016E-05-2.88904E-05 1.91778E-06 9.55929E-19-5.12023E-19
 -1       904 9.46394E-05-2.73290E-05-2.88473E-05 1.45444E-06-7.81937E-19-1.79054E-18
 -1       905 9.48164E-05-2.76077E-05-2.88037E-05 1.08278E-06-8.18938E-19-1.10157E-18
 -1       906 9.49510E-05-2.78384E-05-2.87625E-05 7.89562E-07-1.99370E-19 2.86689E-19
 -1       907 9.50509E-05-2.80248E-05-2.87254E-05 5.62107E-07 3.87385E-19 7.31552E-19
 -1       908 9.51232E-05-2.81724E-05-2.86932E-05 3.88697E-07 7.42554E-19 9.78195E-19
 -1       909 9.51740E-05-2.82869E-05-2.86659E-05 2.58876E-07-4.39497E-19-3.20652E-20
 -1       910 9.52086E-05-2.83739E-05-2.86434E-05 1.63578E-07-6.18677E-19-9.88977E-19
 -1       911 9.52310E-05-2.84389E-05-2.86252E-05 9.51386E-08 2.21317E-19-2.59848E-18
 -1       912 9.52446E-05-2.84862E-05-2.86107E-05 4.72259E-08-6.80885E-19-2.00781E-18
 -1       913 9.52519E-05-2.85200E-05-2.85994E-05 1.47197E-08 4.25185E-19 5.25606E-19
 -1       914 9.52550E-05-2.85436E-05-2.85906E-05-6.41871E-09 3.85071E-19 2.58274E-20
 -1       915 9.52552E-05-2.85596E-05-2.85838E-05-1.93200E-08-1.08362E-18-9.83571E-19
 -1       916 9.52539E-05-2.85704E-05-2.85786E-05-2.63339E-08-1.14872E-18-1.15149E-18
 -1       917 9.52517E-05-2.85777E-05-2.85746E-05-2.91845E-08 7.49692E-19-1.44365E-18
 -1       918 9.52649E-05-2.85787E-05-2.85798E-05 4.43372E-09 3.15384E-18-1.76656E-18
 -1       919 1.02866E-04-4.37212E-05-2.52672E-05-2.30157E-05-2.17804E-18-1.24847E-18
 -1       920 8.06177E-05-1.09506E-05-2.98584E-05 1.26306E-06 6.74367E-19-2.96052E-18
 -1       921 1.03184E-04-4.01079E-05-2.70102E-05 1.52534E-05-2.25379E-18-1.28776E-18
 -1       922 9.52555E-05-2.85786E-05-2.85758E-05 2.59211E-08 1.65357E-18 4.75776E-19
 -1       923 8.15843E-05-2.86599E-05-2.25964E-05-2.35316E-05-1.45639E-18-2.30693E-18
 -1       924 9.48282E-05-2.79797E-05-2.86436E-05-1.16352E-05 1.79332E-19-1.39251E-18
 -1       925 7.72562E-05-2.69117E-05-2.14795E-05 2.40570E-05 2.28578E-18-2.09195E-18
 -1       926 1.14608E-04-4.98039E-05-2.77625E-05 1.32448E-05-2.05520E-18-2.07582E-18
 -1       927 5.98895E-05-1.25259E-05-2.02105E-05-1.14700E-06 6.55343E-19-3.92668E-18
 -1       928 8.87802E-05-1.98407E-05-2.95476E-05 7.03668E-06 3.07120E-20-2.32919E-18
 -1       929 1.10134E-04-4.51607E-05-2.78204E-05-1.48573E-05-1.63274E-18-1.26840E-19
 -1       930 9.52494E-05-2.85832E-05-2.85712E-05-2.88209E-08 1.84341E-18-2.28285E-18
 -1       931 8.78340E-05-3.66521E-05-2.18271E-05-2.69159E-05 2.93965E-18 2.55935E-18
 -1       932 5.24363E-05-1.29252E-05-1.67115E-05 4.17623E-06-5.33760E-19 3.43153E-18
 -1       933 7.23554E-05-1.98088E-05-2.24532E-05-1.64533E-05-6.12847E-19-2.69520E-18
 -1       934 9.16112E-05-2.28933E-05-2.94500E-05-8.32438E-06 1.12363E-18-1.37814E-18
 -1       935 5.79920E-05-1.41924E-05-1.86415E-05-6.05635E-06 3.23941E-19 3.89549E-18
 -1       936 9.00490E-05-3.36454E-05-2.41091E-05 2.12035E-05-2.65115E-18 1.27617E-19
 -1       937 9.52650E-05-2.85787E-05-2.85798E-05-4.48377E-09 2.45986E-18-4.44105E-18
 -1       938 8.40877E-05-1.69304E-05-2.87819E-05-6.59345E-06 9.37400E-19-2.16140E-18
 -1       939 8.37097E-05-1.42550E-05-2.97730E-05 3.77727E-06 1.21001E-19-2.71227E-18
 -1       940 9.52608E-05-2.85792E-05-2.85778E-05 1.83096E-08 1.41144E-18 1.74421E-18
 -1       941 7.47299E-05-2.58077E-05-2.08117E-05-2.20416E-05 2.12629E-18 3.93055E-18
 -1       942 9.52631E-05-2.85787E-05-2.85790E-05-1.32128E-08 2.63046E-18-9.90779E-19
 -1       943 7.91542E-05-1.26463E-05-2.85000E-05-2.16309E-06 8.98005E-19-2.67898E-18
 -1       944 6.85335E-05-1.79232E-05-2.15713E-05 1.54597E-05 1.69250E-18-3.23311E-18
 -1       945 9.52598E-05-2.85789E-05-2.85775E-05-2.02644E-08 2.52959E-18-6.84507E-19
 -1       946 9.82649E-05-3.30553E-05-2.79415E-05-1.40312E-05-4.95111E-19-1.22468E-18
 -1       947 9.52635E-05-2.85790E-05-2.85791E-05 1.14895E-08 2.86805E-18 5.12354E-18
 -1       948 6.80797E-05-1.49720E-05-2.27482E-05-8.71038E-06-6.24687E-21-3.34182E-18
 -1       949 8.09765E-05-1.43354E-05-2.85586E-05-4.55638E-06 1.10110E-18-2.48609E-18
 -1       950 8.35269E-05-1.96828E-05-2.73645E-05 1.04154E-05 7.23120E-19-2.38739E-18
 -1       951 8.30349E-05-2.28391E-05-2.57697E-05 1.46893E-05 1.19331E-18-2.35887E-18
 -1       952 8.04830E-05-2.45714E-05-2.38985E-05 1.89001E-05 1.61944E-18-2.25309E-18
 -1       953 8.78867E-05-2.52465E-05-2.68456E-05 1.15139E-05-9.30573E-19-6.58511E-19
 -1       954 8.18294E-05-2.60710E-05-2.38657E-05-1.77802E-05 1.41869E-18 2.12384E-18
 -1       955 8.27074E-05-2.35594E-05-2.53473E-05-1.31656E-05 4.54874E-19 1.43437E-18
 -1       956 8.41340E-05-2.23967E-05-2.64602E-05-9.97342E-06 2.65145E-19 1.62705E-18
 -1       957 8.57285E-05-2.21000E-05-2.72700E-05-7.77563E-06 7.57513E-20 3.88606E-19
 -1       958 8.72924E-05-2.23183E-05-2.78463E-05-6.17842E-06-2.59628E-19 5.21624E-19
 -1       959 8.87328E-05-2.28326E-05-2.82431E-05-4.96341E-06-6.18522E-19 4.31096E-19
 -1       960 9.00073E-05-2.34958E-05-2.85050E-05-3.99967E-06-4.66373E-19 8.96370E-19
 -1       961 9.11035E-05-2.42111E-05-2.86682E-05-3.21232E-06-1.36965E-18 1.14694E-18
 -1       962 9.20249E-05-2.49158E-05-2.87611E-05-2.55957E-06-9.09991E-20 7.69514E-19
 -1       963 9.27836E-05-2.55714E-05-2.88052E-05-2.01695E-06 6.55728E-19 1.04603E-18
 -1       964 9.33966E-05-2.61568E-05-2.88171E-05-1.56828E-06 1.40794E-18 8.43294E-19
 -1       965 9.38832E-05-2.66632E-05-2.88086E-05-1.20107E-06 1.27850E-18 4.66477E-20
 -1       966 9.42627E-05-2.70899E-05-2.87884E-05-9.04446E-07 9.28803E-19 7.25689E-20
 -1       967 9.45535E-05-2.74416E-05-2.87623E-05-6.68329E-07 4.04151E-19-8.59761E-19
 -1       968 9.47722E-05-2.77255E-05-2.87343E-05-4.83299E-07-1.48068E-19-1.78068E-18
 -1       969 9.49335E-05-2.79505E-05-2.87070E-05-3.40669E-07-5.24641E-20-1.40867E-18
 -1       970 9.50499E-05-2.81255E-05-2.86819E-05-2.32612E-07-1.00210E-18-2.80380E-18
 -1       971 9.51316E-05-2.82591E-05-2.86596E-05-1.52247E-07-3.52181E-19-1.60449E-18
 -1       972 9.51871E-05-2.83593E-05-2.86405E-05-9.36778E-08 4.67615E-19-1.58856E-20
 -1       973 9.52232E-05-2.84329E-05-2.86244E-05-5.19659E-08 9.24516E-19 2.30671E-18
 -1       974 9.52451E-05-2.84857E-05-2.86112E-05-2.30624E-08 7.99530E-19 1.27316E-18
 -1       975 9.52571E-05-2.85228E-05-2.86004E-05-3.71399E-09 1.15044E-18 1.74565E-18
 -1       976 9.52623E-05-2.85482E-05-2.85917E-05 8.60733E-09 5.30909E-19 3.81776E-18
 -1       977 9.52629E-05-2.85651E-05-2.85848E-05 1.58212E-08 1.60920E-18 2.30605E-18
 -1       978 8.84963E-05-2.77621E-05-2.60299E-05 1.45880E-05-1.41722E-18-8.86642E-19
 -1       979 8.89815E-05-2.36376E-05-2.80048E-05 7.35137E-06-9.44013E-19 9.84184E-19
 -1       980 8.98889E-05-2.37334E-05-2.83526E-05 5.93382E-06-3.91645E-19 1.15524E-18
 -1       981 9.08078E-05-2.41129E-05-2.85837E-05 4.78876E-06-7.33449E-19 4.24937E-19
 -1       982 9.16625E-05-2.46348E-05-2.87263E-05 3.84614E-06-1.33000E-18 2.37340E-19
 -1       983 9.24170E-05-2.52067E-05-2.88045E-05 3.06314E-06-1.40782E-19-7.51152E-19
 -1       984 9.30589E-05-2.57707E-05-2.88379E-05 2.41263E-06-9.19663E-19-1.17623E-18
 -1       985 9.35893E-05-2.62925E-05-2.88416E-05 1.87553E-06-4.65758E-20-4.66474E-19
 -1       986 9.40171E-05-2.67548E-05-2.88268E-05 1.43660E-06 1.70617E-19 9.64763E-19
 -1       987 9.43545E-05-2.71509E-05-2.88016E-05 1.08244E-06-5.17560E-19 1.12749E-18
 -1       988 9.46153E-05-2.74813E-05-2.87717E-05 8.00715E-07-1.05126E-18 1.36026E-18
 -1       989 9.48128E-05-2.77507E-05-2.87409E-05 5.79991E-07-6.69199E-19 1.36572E-18
 -1       990 9.49591E-05-2.79657E-05-2.87115E-05 4.09804E-07 1.03199E-18 1.58100E-18
 -1       991 9.50651E-05-2.81341E-05-2.86847E-05 2.80780E-07 1.61076E-19 1.48500E-18
 -1       992 9.51398E-05-2.82634E-05-2.86613E-05 1.84715E-07 3.43283E-19 9.71935E-19
 -1       993 9.51907E-05-2.83608E-05-2.86414E-05 1.14593E-07 6.27796E-19 4.61570E-19
 -1       994 9.52239E-05-2.84327E-05-2.86248E-05 6.45503E-08-2.20182E-19 1.05825E-18
 -1       995 9.52442E-05-2.84846E-05-2.86113E-05 2.97830E-08-9.76122E-19 5.30484E-19
 -1       996 9.52554E-05-2.85212E-05-2.86004E-05 6.40276E-09 3.78392E-19 5.96183E-19
 -1       997 9.52603E-05-2.85464E-05-2.85917E-05-8.58342E-09-3.45590E-19 2.70169E-18
 -1       998 9.52610E-05-2.85633E-05-2.85847E-05-1.75353E-08 2.30353E-19 2.00853E-18
 -1       999 8.47282E-05-2.08027E-05-2.74004E-05-1.09159E-05 3.80932E-19-1.86428E-18
 -1      1000 7.77960E-05-2.41089E-05-2.29917E-05 1.73029E-05-1.72626E-18 1.31187E-18
 -1      1001 8.43378E-05-2.56544E-05-2.51152E-05-1.73962E-05-7.65591E-19-1.70025E-18
 -1      1002 9.52621E-05-2.85728E-05-2.85811E-05 1.77506E-08 7.24275E-19 1.52132E-18
 -1      1003 1.03057E-04-3.85538E-05-2.76575E-05-1.51762E-05-1.23186E-18-7.03537E-19
 -1      1004 7.88944E-05-1.24191E-05-2.84903E-05 1.19207E-06 7.74449E-19-2.62824E-18
 -1      1005 8.82288E-05-2.40376E-05-2.75107E-05 9.15304E-06-5.31555E-19 5.01124E-19
 -1      1006 9.62954E-05-3.58532E-05-2.58810E-05-1.97618E-05-1.69113E-18-1.62280E-18
 -1      1007 6.50935E-05-1.81364E-05-2.00146E-05 1.44844E-05-1.93529E-18 1.72234E-18
 -1      1008 7.75975E-05-1.96435E-05-2.48448E-05-1.33253E-05-4.61118E-19-2.12948E-18
 -1      1009 6.33786E-05-1.51716E-05-2.05769E-05 5.82671E-06-1.40817E-18 1.93577E-18
 -1      1010 9.08955E-05-3.23225E-05-2.50491E-05 1.84531E-05-2.35418E-18-3.23359E-19
 -1      1011 9.52593E-05-2.85745E-05-2.85792E-05-2.20756E-08 1.22557E-18-6.65242E-19
 -1      1012 6.84738E-05-1.90678E-05-2.10974E-05-1.44236E-05 4.18059E-19 3.34512E-18
 -1      1013 9.52664E-05-2.85685E-05-2.85848E-05-7.74157E-09 1.31739E-18-1.99262E-18
 -1      1014 8.38365E-05-1.76845E-05-2.83453E-05 7.57056E-06 5.97470E-19-2.42197E-18
 -1      1015 9.52641E-05-2.85699E-05-2.85832E-05-1.43319E-08 1.70903E-18-5.78562E-19
 -1      1016 9.52671E-05-2.85680E-05-2.85854E-05-4.27313E-11 3.13932E-18-3.40404E-18
 -1      1017 8.09012E-05-1.29953E-05-2.90989E-05 2.98153E-06 4.95902E-19-2.52906E-18
 -1      1018 7.74705E-05-1.41668E-05-2.71339E-05-4.31913E-06 4.35473E-19-2.35889E-18
 -1      1019 7.62146E-05-1.32357E-05-2.69936E-05 5.61119E-07 4.23888E-19-2.55897E-18
 -1      1020 9.52666E-05-2.85688E-05-2.85848E-05 6.12071E-09 3.58715E-18 8.54449E-19
 -1      1021 6.88527E-05-1.39383E-05-2.34941E-05 5.33574E-06 8.54834E-19-3.01662E-18
 -1      1022 7.79515E-05-1.94455E-05-2.50811E-05-8.02193E-06 4.96237E-19 1.84144E-18
 -1      1023 8.12443E-05-1.98641E-05-2.63088E-05-5.99874E-06-3.58587E-19 2.30184E-18
 -1      1024 8.39092E-05-2.05270E-05-2.71657E-05-4.61274E-06-7.83146E-19 1.69061E-18
 -1      1025 8.61171E-05-2.13436E-05-2.77611E-05-3.63993E-06-1.04636E-19 6.86352E-19
 -1      1026 8.79487E-05-2.22263E-05-2.81673E-05-2.91286E-06-4.66691E-19 1.28080E-18
 -1      1027 8.94716E-05-2.31203E-05-2.84367E-05-2.33982E-06-1.23411E-18 5.31232E-19
 -1      1028 9.07320E-05-2.39821E-05-2.86074E-05-1.87332E-06 1.45308E-20-6.74893E-21
 -1      1029 9.17655E-05-2.47807E-05-2.87080E-05-1.48768E-06 7.17648E-19 1.41519E-18
 -1      1030 9.26030E-05-2.54966E-05-2.87601E-05-1.16799E-06 1.26223E-18 1.62244E-18
 -1      1031 9.32724E-05-2.61206E-05-2.87795E-05-9.04419E-07 3.68164E-20 9.37136E-19
 -1      1032 9.37996E-05-2.66512E-05-2.87780E-05-6.89402E-07 7.59804E-19 4.73759E-20
 -1      1033 9.42082E-05-2.70927E-05-2.87639E-05-5.16330E-07 3.11073E-19-1.22581E-18
 -1      1034 9.45198E-05-2.74527E-05-2.87431E-05-3.79099E-07-6.20556E-19-1.67494E-18
 -1      1035 9.47531E-05-2.77408E-05-2.87196E-05-2.72020E-07-3.67215E-19-1.86600E-18
 -1      1036 9.49243E-05-2.79673E-05-2.86959E-05-1.89870E-07 2.18205E-20-4.06590E-19
 -1      1037 9.50471E-05-2.81420E-05-2.86736E-05-1.27961E-07-8.32260E-19 3.96573E-19
 -1      1038 9.51327E-05-2.82744E-05-2.86536E-05-8.21929E-08-2.10348E-19 3.40173E-20
 -1      1039 9.51904E-05-2.83728E-05-2.86361E-05-4.90677E-08 2.15163E-18-7.16213E-19
 -1      1040 9.52274E-05-2.84444E-05-2.86213E-05-2.56751E-08 7.71295E-19 1.01390E-19
 -1      1041 9.52494E-05-2.84953E-05-2.86089E-05-9.62959E-09 1.60824E-18 3.12493E-19
 -1      1042 9.52610E-05-2.85306E-05-2.85987E-05 9.47961E-10 8.78876E-19-8.21024E-19
 -1      1043 9.52655E-05-2.85545E-05-2.85904E-05 7.51979E-09 6.38425E-19-1.39972E-20
 -1      1044 8.98348E-05-2.34222E-05-2.84632E-05 3.23409E-06-5.90556E-19 1.03138E-18
 -1      1045 8.14905E-05-2.22890E-05-2.53729E-05 1.14449E-05-1.11006E-18 3.68126E-19
 -1      1046 8.85073E-05-2.27034E-05-2.82025E-05 4.07036E-06-6.76877E-19 1.32498E-18
 -1      1047 8.69815E-05-2.20899E-05-2.78119E-05 5.14428E-06-7.49783E-19-5.85405E-20
 -1      1048 9.09684E-05-2.41695E-05-2.86286E-05 2.56480E-06-3.50365E-19-1.79756E-19
 -1      1049 9.19188E-05-2.48934E-05-2.87256E-05 2.02108E-06-2.37768E-20 4.44244E-19
 -1      1050 9.27014E-05-2.55610E-05-2.87748E-05 1.57729E-06-7.71636E-19-8.83475E-19
 -1      1051 9.33345E-05-2.61543E-05-2.87918E-05 1.21605E-06-6.96440E-19-2.63184E-19
 -1      1052 9.38378E-05-2.66660E-05-2.87881E-05 9.24253E-07-5.44012E-19 1.36672E-18
 -1      1053 9.42307E-05-2.70961E-05-2.87721E-05 6.91111E-07-9.17194E-19 1.99691E-18
 -1      1054 9.45321E-05-2.74498E-05-2.87497E-05 5.07223E-07-6.55924E-19 1.78605E-18
 -1      1055 9.47589E-05-2.77347E-05-2.87248E-05 3.64246E-07-3.55748E-19 1.60211E-18
 -1      1056 9.49262E-05-2.79599E-05-2.86999E-05 2.54786E-07 6.28968E-19 2.02023E-18
 -1      1057 9.50466E-05-2.81345E-05-2.86767E-05 1.72373E-07-1.50977E-19 1.25082E-18
 -1      1058 9.51310E-05-2.82675E-05-2.86558E-05 1.11441E-07 5.89640E-19 1.48069E-18
 -1      1059 9.51882E-05-2.83667E-05-2.86378E-05 6.72895E-08-1.85772E-20 1.81240E-18
 -1      1060 9.52251E-05-2.84393E-05-2.86225E-05 3.60294E-08 5.98018E-19 2.04399E-18
 -1      1061 9.52473E-05-2.84909E-05-2.86099E-05 1.46324E-08-7.15913E-20 6.08012E-19
 -1      1062 9.52593E-05-2.85271E-05-2.85995E-05 5.08070E-10-1.56897E-19-1.45892E-19
 -1      1063 9.52643E-05-2.85519E-05-2.85910E-05-8.63337E-09 2.42096E-19-4.59574E-19
 -1      1064 6.60867E-05-1.54501E-05-2.16458E-05-3.88254E-06-7.66686E-19 3.02244E-18
 -1      1065 8.98053E-05-2.73255E-05-2.67516E-05-1.53302E-05-2.06264E-19-1.41670E-18
 -1      1066 7.53575E-05-1.74923E-05-2.47979E-05 1.08996E-05 1.18989E-18-2.70774E-18
 -1      1067 8.03901E-05-1.70127E-05-2.71441E-05-7.98858E-06 3.39959E-19-2.34711E-18
 -1      1068 9.52650E-05-2.85708E-05-2.85832E-05 1.19023E-08 1.51401E-18 2.74291E-18
 -1      1069 9.52663E-05-2.85527E-05-2.85915E-05-2.64886E-09 1.84948E-18-1.74833E-18
 -1      1070 7.23470E-05-1.35585E-05-2.51732E-05-2.41236E-06 2.59796E-19-2.68484E-18
 -1      1071 7.43295E-05-1.87892E-05-2.37982E-05 9.11664E-06-8.70575E-19 7.68585E-19
 -1      1072 7.38285E-05-1.90546E-05-2.34505E-05-1.05735E-05-1.38530E-19 3.21595E-18
 -1      1073 9.52666E-05-2.85534E-05-2.85914E-05 1.27145E-09 3.22939E-18-2.26927E-18
 -1      1074 7.85485E-05-1.39158E-05-2.77068E-05 3.90477E-06 5.37148E-19-2.46377E-18
 -1      1075 8.52662E-05-2.16932E-05-2.72474E-05 6.57653E-06-8.76684E-19 1.58576E-19
 -1      1076 7.55250E-05-1.49771E-05-2.59479E-05 6.05668E-06 7.04165E-19-2.53286E-18
 -1      1077 8.33993E-05-2.16813E-05-2.64536E-05 8.55885E-06-1.27562E-18-6.45301E-19
 -1      1078 7.69103E-05-1.78039E-05-2.53302E-05-2.35906E-06-4.88275E-19 2.32299E-18
 -1      1079 9.52611E-05-2.85274E-05-2.86002E-05-2.87183E-10 1.01533E-18-5.66777E-19
 -1      1080 8.08261E-05-1.90170E-05-2.64905E-05-1.75803E-06-6.63849E-19 1.66246E-18
 -1      1081 8.37821E-05-2.01207E-05-2.72852E-05-1.41302E-06-1.46170E-18 1.80400E-18
 -1      1082 8.61240E-05-2.11817E-05-2.78335E-05-1.14967E-06-1.52554E-18 1.22188E-19
 -1      1083 8.80229E-05-2.22100E-05-2.82063E-05-9.40264E-07-1.07353E-18-9.47186E-19
 -1      1084 8.95754E-05-2.31873E-05-2.84525E-05-7.67156E-07-7.66352E-19-4.68817E-19
 -1      1085 9.08438E-05-2.40925E-05-2.86081E-05-6.20800E-07 1.07085E-18-2.30495E-20
 -1      1086 9.18737E-05-2.49089E-05-2.86994E-05-4.96310E-07 1.28658E-18 7.79724E-19
 -1      1087 9.27015E-05-2.56269E-05-2.87464E-05-3.90998E-07 2.34717E-19 1.33563E-18
 -1      1088 9.33585E-05-2.62435E-05-2.87637E-05-3.02993E-07-1.12694E-18 7.65336E-19
 -1      1089 9.38727E-05-2.67619E-05-2.87618E-05-2.30596E-07-1.07307E-18-8.97326E-19
 -1      1090 9.42689E-05-2.71889E-05-2.87486E-05-1.72059E-07-3.56530E-19-1.34250E-18
 -1      1091 9.45691E-05-2.75341E-05-2.87293E-05-1.25573E-07-4.79090E-20-1.31663E-18
 -1      1092 9.47923E-05-2.78081E-05-2.87075E-05-8.93292E-08 1.08945E-18-8.49182E-19
 -1      1093 9.49549E-05-2.80217E-05-2.86857E-05-6.15981E-08-7.89564E-19-4.61641E-19
 -1      1094 9.50705E-05-2.81852E-05-2.86651E-05-4.07929E-08-2.20070E-19 4.35351E-19
 -1      1095 9.51502E-05-2.83080E-05-2.86466E-05-2.55110E-08 5.01951E-19-4.47901E-19
 -1      1096 9.52031E-05-2.83985E-05-2.86305E-05-1.45512E-08 1.26609E-18-1.22828E-18
 -1      1097 9.52362E-05-2.84637E-05-2.86168E-05-7.02841E-09 8.06411E-19-2.60727E-18
 -1      1098 9.52553E-05-2.85096E-05-2.86053E-05-1.95297E-09 7.14196E-19-3.57156E-18
 -1      1099 9.07990E-05-2.40621E-05-2.86010E-05 1.29750E-06 3.84425E-19 1.94049E-18
 -1      1100 7.83270E-05-1.91495E-05-2.53493E-05 6.53971E-06-7.02880E-19 1.09768E-19
 -1      1101 8.95496E-05-2.31921E-05-2.84382E-05 1.65648E-06-8.75584E-19 2.27367E-18
 -1      1102 8.62117E-05-2.13488E-05-2.77971E-05 2.71092E-06-1.74707E-18 9.68940E-19
 -1      1103 9.18222E-05-2.48605E-05-2.86975E-05 1.01111E-06 7.35120E-19 9.13532E-19
 -1      1104 9.26505E-05-2.55716E-05-2.87478E-05 7.81150E-07-5.41110E-19-8.61270E-19
 -1      1105 9.33120E-05-2.61883E-05-2.87671E-05 5.96650E-07-1.21798E-18-6.74087E-19
 -1      1106 9.38324E-05-2.67107E-05-2.87663E-05 4.49483E-07-8.44667E-19-3.83063E-19
 -1      1107 9.42354E-05-2.71438E-05-2.87534E-05 3.33182E-07-9.29957E-19 6.14622E-19
 -1      1108 9.45420E-05-2.74957E-05-2.87340E-05 2.42338E-07 3.26467E-19 6.93409E-19
 -1      1109 9.47710E-05-2.77764E-05-2.87119E-05 1.72323E-07 4.10731E-19-1.07511E-18
 -1      1110 9.49386E-05-2.79961E-05-2.86896E-05 1.19158E-07 5.32055E-19-3.42072E-19
 -1      1111 9.50583E-05-2.81651E-05-2.86685E-05 7.94464E-08 6.84184E-19-1.16718E-18
 -1      1112 9.51414E-05-2.82926E-05-2.86495E-05 5.03236E-08-4.42192E-19 3.04458E-20
 -1      1113 9.51969E-05-2.83868E-05-2.86329E-05 2.94202E-08 4.65208E-20 6.23121E-19
 -1      1114 9.52320E-05-2.84549E-05-2.86188E-05 1.46725E-08 7.84231E-19-8.72420E-19
 -1      1115 9.52501E-05-2.84963E-05-2.86088E-05 4.50793E-09 9.38444E-19-6.11678E-19
 -1      1116 7.28218E-05-1.68373E-05-2.40159E-05 2.67893E-06-3.92042E-19 1.46006E-18
 -1      1117 8.80370E-05-2.22762E-05-2.81822E-05 2.11358E-06-8.64417E-19 1.33494E-18
 -1      1118 7.42022E-05-1.73337E-05-2.43597E-05-3.38165E-06-1.13710E-19 3.32355E-18
 -1      1119 9.52644E-05-2.85411E-05-2.85958E-05 1.58854E-09 2.06335E-18-2.70418E-18
 -1      1120 8.39996E-05-2.04494E-05-2.72344E-05 3.51899E-06-1.47770E-18 5.51449E-19
 -1      1121 8.12852E-05-1.96272E-05-2.64250E-05 4.65746E-06-1.12101E-18 2.94323E-19
 -1      1122 1.19314E-04 2.67522E-10-4.30365E-05-3.97497E-05-4.37493E-19 1.11855E-17
 -1      1123 9.24897E-05 8.18496E-11-3.86819E-05-2.07756E-05-2.15676E-19 4.49510E-19
 -1      1124 8.71039E-05 4.69850E-11-3.69368E-05-1.34113E-05-1.41031E-19-3.86673E-18
 -1      1125 8.38891E-05 3.27874E-11-3.57026E-05-8.92377E-06-8.71915E-20-5.74441E-18
 -1      1126 8.13937E-05 2.36077E-11-3.47160E-05-5.77253E-06-4.94455E-20-6.56036E-18
 -1      1127 7.93885E-05 1.69241E-11-3.39222E-05-3.55601E-06-2.03288E-20-6.82513E-18
 -1      1128 7.78767E-05 1.20927E-11-3.33241E-05-2.01384E-06-1.87935E-21-6.81503E-18
 -1      1129 7.69267E-05 9.18038E-12-3.29489E-05-9.13545E-07 1.55113E-20-6.63071E-18
 -1      1130 7.66221E-05 8.31294E-12-3.28279E-05-3.76303E-08 3.86624E-20-6.40773E-18
 -1      1131 7.69827E-05 9.51790E-12-3.29689E-05 8.58658E-07 4.97632E-20-6.05248E-18
 -1      1132 7.79736E-05 1.27024E-11-3.33586E-05 2.01609E-06 7.09919E-20-5.56734E-18
 -1      1133 7.95047E-05 1.76417E-11-3.39617E-05 3.64112E-06 9.07384E-20-4.74974E-18
 -1      1134 8.14972E-05 2.44453E-11-3.47508E-05 5.95127E-06 1.13555E-19-3.52366E-18
 -1      1135 8.39550E-05 3.36345E-11-3.57265E-05 9.20245E-06 1.40555E-19-1.54671E-18
 -1      1136 8.70965E-05 4.75797E-11-3.69532E-05 1.37629E-05 1.74489E-19 1.73793E-18
 -1      1137 9.21246E-05 7.69937E-11-3.87232E-05 2.07535E-05 1.75653E-19 7.53071E-18
 -1      1138 1.09465E-04 1.76124E-10-4.18532E-05 3.44266E-05 2.69356E-19 1.82777E-17
 -1      1139 1.32724E-04-2.67520E-05-4.14689E-05-2.50093E-05-1.69661E-18 1.78745E-17
 -1      1140 1.03865E-04-3.08085E-05-3.35406E-05-3.15794E-07-5.98746E-19 1.39841E-17
 -1      1141 9.98495E-05-2.99560E-05-3.07687E-05 4.91090E-07-2.39869E-19 8.61380E-18
 -1      1142 1.00836E-04-3.03606E-05-3.04217E-05 3.36892E-07-1.29728E-19 5.02645E-18
 -1      1143 1.03477E-04-3.11249E-05-3.10750E-05 2.68516E-07-6.65864E-20 2.65317E-18
 -1      1144 1.06950E-04-3.21241E-05-3.20728E-05 2.38599E-07-1.96009E-20 1.21086E-18
 -1      1145 1.10598E-04-3.31796E-05-3.31094E-05 2.08119E-07-9.28047E-20 1.12285E-19
 -1      1146 1.13647E-04-3.40585E-05-3.39345E-05 1.44231E-07-3.85433E-20-5.97145E-19
 -1      1147 1.15104E-04-3.44639E-05-3.42656E-05 1.46039E-08-1.72616E-20-1.60444E-18
 -1      1148 1.13885E-04-3.40771E-05-3.38242E-05-1.97828E-07-1.43863E-19-2.91686E-18
 -1      1149 1.09247E-04-3.26902E-05-3.24627E-05-4.62948E-07 5.27278E-20-4.81634E-18
 -1      1150 1.01508E-04-3.04142E-05-3.03382E-05-6.73663E-07-4.17031E-20-4.61728E-18
 -1      1151 9.26461E-05-2.78408E-05-2.80122E-05-6.72715E-07 5.03422E-20-5.84707E-18
 -1      1152 8.59791E-05-2.59249E-05-2.63181E-05-3.72002E-07-1.77281E-20-6.42051E-18
 -1      1153 8.45540E-05-2.55205E-05-2.59723E-05 1.24585E-07 1.03629E-20-7.50486E-18
 -1      1154 8.91846E-05-2.68528E-05-2.71613E-05 5.60631E-07-7.87410E-20-8.91772E-18
 -1      1155 9.78780E-05-2.93685E-05-2.94265E-05 7.28962E-07-1.35560E-19-1.06955E-17
 -1      1156 1.07213E-04-3.20984E-05-3.19438E-05 6.20402E-07-4.99650E-20-1.16684E-17
 -1      1157 1.14354E-04-3.42134E-05-3.39683E-05 3.73153E-07-4.79500E-20-1.22860E-17
 -1      1158 1.18099E-04-3.53431E-05-3.51191E-05 1.31406E-07-2.57749E-20-1.23500E-17
 -1      1159 1.18684E-04-3.55410E-05-3.53912E-05-3.30510E-08 1.59811E-19-1.11916E-17
 -1      1160 1.17046E-04-3.50756E-05-3.50019E-05-1.14518E-07-2.25192E-20-8.90694E-18
 -1      1161 1.14201E-04-3.42442E-05-3.42250E-05-1.36948E-07-6.40230E-20-8.68095E-18
 -1      1162 1.10935E-04-3.32807E-05-3.32917E-05-1.27133E-07-1.53489E-19-9.58105E-18
 -1      1163 1.07747E-04-3.23347E-05-3.23584E-05-1.04269E-07 6.69082E-20-8.93368E-18
 -1      1164 1.04901E-04-3.14863E-05-3.15122E-05-7.91816E-08 2.86281E-19-6.75380E-18
 -1      1165 1.02500E-04-3.07679E-05-3.07912E-05-5.68192E-08 3.25025E-19-5.80987E-18
 -1      1166 1.00553E-04-3.01837E-05-3.02027E-05-3.88017E-08-3.72893E-20-6.27561E-18
 -1      1167 9.90233E-05-2.97232E-05-2.97377E-05-2.51463E-08 1.42839E-19-5.80531E-18
 -1      1168 9.78512E-05-2.93695E-05-2.93802E-05-1.52380E-08 2.18063E-19-5.68710E-18
 -1      1169 9.69744E-05-2.91041E-05-2.91118E-05-8.30665E-09-2.16330E-19-5.27967E-18
 -1      1170 9.63335E-05-2.89097E-05-2.89149E-05-3.63208E-09-7.93068E-20-7.86790E-18
 -1      1171 9.58768E-05-2.87707E-05-2.87742E-05-6.12833E-10-1.43188E-19-7.63623E-18
 -1      1172 9.55607E-05-2.86742E-05-2.86764E-05 1.22489E-09-4.02138E-19-8.82765E-18
 -1      1173 9.53497E-05-2.86095E-05-2.86108E-05 2.24157E-09 1.35725E-19-8.11868E-18
 -1      1174 9.52157E-05-2.85681E-05-2.85688E-05 2.70495E-09 1.53922E-20-6.38163E-18
 -1      1175 9.51368E-05-2.85436E-05-2.85438E-05 2.80999E-09 4.46150E-20-6.72346E-18
 -1      1176 9.50963E-05-2.85307E-05-2.85307E-05 2.69598E-09-1.51627E-20-5.30444E-18
 -1      1177 9.50818E-05-2.85258E-05-2.85256E-05 2.46041E-09-1.46323E-19-3.71749E-18
 -1      1178 9.50840E-05-2.85261E-05-2.85258E-05 2.16978E-09 5.58428E-20-2.99564E-18
 -1      1179 9.50966E-05-2.85295E-05-2.85293E-05 1.86799E-09-3.64599E-19-3.32785E-18
 -1      1180 9.51149E-05-2.85348E-05-2.85345E-05 1.58263E-09-2.39352E-19-1.62924E-18
 -1      1181 9.51358E-05-2.85409E-05-2.85407E-05 1.32950E-09-5.24129E-19-5.54247E-18
 -1      1182 9.51573E-05-2.85473E-05-2.85471E-05 1.11555E-09 5.53884E-20-5.71264E-18
 -1      1183 9.51781E-05-2.85534E-05-2.85532E-05 9.39891E-10-1.71172E-19-7.01860E-18
 -1      1184 9.51972E-05-2.85591E-05-2.85589E-05 7.92451E-10 4.47707E-19-5.34949E-18
 -1      1185 9.52139E-05-2.85641E-05-2.85638E-05 6.46351E-10 5.06004E-20-4.63867E-18
 -1      1186 9.52272E-05-2.85680E-05-2.85677E-05 4.30808E-10 2.29580E-19 2.75116E-19
 -1      1187 9.52355E-05-2.85704E-05-2.85702E-05 2.06947E-12-2.77544E-19 4.42625E-19
 -1      1188 9.52379E-05-2.85714E-05-2.85716E-05-2.73162E-10 4.18621E-19-3.72624E-19
 -1      1189 1.33380E-04-3.82271E-05-3.99101E-05 1.18875E-05-3.27987E-19 2.68111E-17
 -1      1190 1.03026E-04-3.01456E-05-3.32851E-05 6.62718E-07 1.18690E-19 2.30649E-17
 -1      1191 9.98406E-05-2.97965E-05-3.06925E-05 5.89219E-08 9.93543E-20 1.89511E-17
 -1      1192 1.00563E-04-3.01806E-05-3.03529E-05-3.73512E-08 9.81036E-20 1.61810E-17
 -1      1193 1.02956E-04-3.09122E-05-3.09344E-05-8.67625E-08 2.39088E-20 1.45067E-17
 -1      1194 1.06118E-04-3.18371E-05-3.18329E-05-1.29977E-07-7.40244E-21 1.34588E-17
 -1      1195 1.09367E-04-3.27828E-05-3.27481E-05-1.73684E-07-6.55872E-21 1.27325E-17
 -1      1196 1.11947E-04-3.35330E-05-3.34351E-05-2.03943E-07 1.06164E-19 1.18072E-17
 -1      1197 1.12950E-04-3.38243E-05-3.36343E-05-1.90762E-07-2.98447E-21 1.09262E-17
 -1      1198 1.11441E-04-3.33893E-05-3.31084E-05-9.66184E-08 1.46785E-19 9.75724E-18
 -1      1199 1.06864E-04-3.20648E-05-3.17568E-05 9.68195E-08 9.90698E-20 9.30355E-18
 -1      1200 9.96384E-05-2.99583E-05-2.97584E-05 3.47942E-07-2.87727E-20 9.95825E-18
 -1      1201 9.15924E-05-2.75767E-05-2.76371E-05 5.39071E-07 1.77513E-20 9.58079E-18
 -1      1202 8.56276E-05-2.57584E-05-2.61302E-05 5.33724E-07-1.64966E-19 8.45529E-18
 -1      1203 8.43595E-05-2.53068E-05-2.58529E-05 2.93217E-07 1.28147E-19 6.15721E-18
 -1      1204 8.84959E-05-2.64918E-05-2.69545E-05-6.65814E-08 6.59395E-20 4.01404E-18
 -1      1205 9.63570E-05-2.88445E-05-2.90313E-05-3.61539E-07-2.54710E-19 4.24162E-18
 -1      1206 1.04989E-04-3.14647E-05-3.13640E-05-4.77479E-07 2.29084E-19 3.95988E-18
 -1      1207 1.11842E-04-3.35531E-05-3.32896E-05-4.25378E-07 1.38437E-20 2.34723E-18
 -1      1208 1.15721E-04-3.47330E-05-3.44489E-05-2.87271E-07-1.87512E-19 2.91644E-18
 -1      1209 1.16703E-04-3.50285E-05-3.48094E-05-1.41924E-07 1.43307E-19 3.17661E-18
 -1      1210 1.15547E-04-3.46757E-05-3.45445E-05-3.09276E-08-2.00674E-20 2.87938E-18
 -1      1211 1.13146E-04-3.39494E-05-3.38922E-05 3.68316E-08 8.21969E-21 1.10432E-18
 -1      1212 1.10235E-04-3.30725E-05-3.30640E-05 6.92446E-08 1.80146E-19-1.38483E-18
 -1      1213 1.07306E-04-3.21923E-05-3.22103E-05 7.83540E-08 6.38625E-21-1.44328E-18
 -1      1214 1.04636E-04-3.13910E-05-3.14201E-05 7.44419E-08-1.21846E-19 2.35007E-18
 -1      1215 1.02348E-04-3.07050E-05-3.07363E-05 6.45369E-08-1.18715E-19 2.36605E-18
 -1      1216 1.00471E-04-3.01425E-05-3.01714E-05 5.28206E-08-2.77649E-19 2.00471E-18
 -1      1217 9.89819E-05-2.96961E-05-2.97208E-05 4.14969E-08-1.71416E-19 1.11404E-18
 -1      1218 9.78328E-05-2.93516E-05-2.93716E-05 3.15581E-08-2.12085E-19 1.32055E-18
 -1      1219 9.69681E-05-2.90922E-05-2.91079E-05 2.33201E-08 8.04675E-20 1.15018E-18
 -1      1220 9.63331E-05-2.89017E-05-2.89136E-05 1.67536E-08 3.57969E-20 9.98393E-19
 -1      1221 9.58788E-05-2.87652E-05-2.87741E-05 1.16740E-08 1.55439E-19 9.57158E-19
 -1      1222 9.55634E-05-2.86704E-05-2.86768E-05 7.84406E-09-5.95103E-20 4.91729E-19
 -1      1223 9.53523E-05-2.86068E-05-2.86114E-05 5.02545E-09 2.16507E-19-1.26520E-19
 -1      1224 9.52178E-05-2.85663E-05-2.85694E-05 3.00248E-09-7.10691E-20-6.20404E-19
 -1      1225 9.51384E-05-2.85423E-05-2.85444E-05 1.59068E-09 3.56718E-19-1.60015E-18
 -1      1226 9.50975E-05-2.85299E-05-2.85312E-05 6.37993E-10-2.89497E-20-1.53675E-18
 -1      1227 9.50826E-05-2.85253E-05-2.85260E-05 2.23525E-11 1.21505E-19-2.45835E-18
 -1      1228 9.50846E-05-2.85258E-05-2.85261E-05-3.52271E-10-2.15300E-19-8.99040E-19
 -1      1229 9.50970E-05-2.85294E-05-2.85295E-05-5.60191E-10-3.35787E-19 9.07412E-19
 -1      1230 9.51151E-05-2.85347E-05-2.85347E-05-6.58194E-10 2.77993E-19-1.19932E-18
 -1      1231 9.51359E-05-2.85409E-05-2.85408E-05-6.89315E-10 2.09318E-19-3.44035E-18
 -1      1232 9.51574E-05-2.85473E-05-2.85472E-05-6.86033E-10-4.65377E-19 1.39245E-18
 -1      1233 9.51781E-05-2.85535E-05-2.85533E-05-6.72426E-10 4.05912E-20 1.69053E-18
 -1      1234 9.51973E-05-2.85592E-05-2.85590E-05-6.64279E-10 1.67674E-19-2.90843E-18
 -1      1235 9.52139E-05-2.85641E-05-2.85639E-05-6.65012E-10 6.31161E-20-6.40950E-18
 -1      1236 9.52272E-05-2.85681E-05-2.85677E-05-6.35696E-10 3.01319E-19-7.95880E-18
 -1      1237 9.52356E-05-2.85706E-05-2.85702E-05-4.07558E-10 4.21577E-19-9.06763E-18
 -1      1238 9.52378E-05-2.85714E-05-2.85716E-05 2.35337E-10-5.09300E-19-6.32743E-18
 -1      1239 9.52369E-05-2.85705E-05-2.85716E-05 2.03606E-10-6.40628E-18-4.10622E-19
 -1      1240 9.52378E-05-2.85729E-05-2.85702E-05-5.01137E-12-3.20072E-18 1.16516E-20
 -1      1241 9.52402E-05-2.85809E-05-2.85679E-05-4.74396E-10 2.00528E-18-2.58857E-19
 -1      1242 9.52436E-05-2.85925E-05-2.85646E-05-6.10726E-10 1.96079E-18-4.22499E-19
 -1      1243 9.52473E-05-2.86050E-05-2.85611E-05-5.88141E-10-4.22403E-18-1.59024E-18
 -1      1244 9.52506E-05-2.86164E-05-2.85578E-05-4.81082E-10-8.98714E-18-4.03803E-19
 -1      1245 9.52533E-05-2.86255E-05-2.85552E-05-3.43023E-10-3.28064E-18 2.05439E-19
 -1      1246 9.52550E-05-2.86313E-05-2.85535E-05-1.75150E-10-6.56973E-18-7.55582E-19
 -1      1247 9.52556E-05-2.86333E-05-2.85529E-05 1.30779E-12-1.02081E-17 1.64081E-19
 -1      1248 9.52550E-05-2.86312E-05-2.85535E-05 1.77913E-10-8.89955E-18-3.78507E-19
 -1      1249 9.52533E-05-2.86254E-05-2.85552E-05 3.45624E-10-1.05688E-17-8.25174E-19
 -1      1250 9.52506E-05-2.86162E-05-2.85578E-05 4.91069E-10-1.11259E-17-5.04651E-20
 -1      1251 9.52472E-05-2.86048E-05-2.85611E-05 5.89499E-10-9.59691E-18 5.61950E-19
 -1      1252 9.52435E-05-2.85923E-05-2.85647E-05 6.19653E-10-9.18123E-18 4.22402E-19
 -1      1253 9.52401E-05-2.85806E-05-2.85679E-05 5.65177E-10-5.80153E-18 1.41684E-19
 -1      1254 9.52380E-05-2.85731E-05-2.85702E-05-1.24677E-10-4.20797E-19-2.05238E-19
 -1      1255 9.52369E-05-2.85704E-05-2.85716E-05-2.13293E-10 6.19428E-19 4.69598E-19
 -1      1256 3.26188E-05-1.04826E-04 1.80077E-05-1.41793E-05 1.30854E-17 2.98701E-18
 -1      1257 1.65890E-05-6.28807E-05 8.98045E-06-2.45058E-05 2.43378E-17 9.92977E-18
 -1      1258 8.56910E-06-7.28053E-06-6.70866E-06 1.48099E-06 3.08794E-17 1.93801E-17
 -1      1259 4.24751E-05 2.29616E-05-2.82620E-05 5.86068E-05 2.59429E-17 2.53551E-17
 -1      1260 1.22181E-04 7.03319E-06-4.94317E-05 1.05627E-04 1.73489E-17 2.60446E-17
 -1      1261 2.18755E-04-3.95170E-05-6.56663E-05 1.05259E-04 8.13406E-18 1.93598E-17
 -1      1262 2.95482E-04-8.42377E-05-7.61477E-05 5.04059E-05 1.75487E-18 4.11362E-18
 -1      1263 3.06226E-04-9.11252E-05-7.73791E-05-3.38585E-05 1.77676E-18-1.19986E-17
 -1      1264 2.43441E-04-5.29599E-05-6.93409E-05-9.73588E-05 7.75988E-18-2.30876E-17
 -1      1265 1.42129E-04-7.13031E-07-5.32676E-05-1.09825E-04 1.70279E-17-2.88838E-17
 -1      1266 5.32807E-05 2.60657E-05-3.28364E-05-7.13383E-05 2.38643E-17-2.63919E-17
 -1      1267 1.12726E-05 7.06612E-06-1.25399E-05-1.60087E-05 2.44809E-17-1.80587E-17
 -1      1268 1.14839E-05-4.43537E-05 4.68538E-06 2.11413E-05 1.91362E-17-9.08019E-18
 -1      1269 2.93537E-05-9.58936E-05 1.58678E-05 2.18250E-05 6.96769E-18-2.56069E-18
 -1      1270 3.67335E-05-1.13829E-04 1.92900E-05-3.55543E-06-8.35365E-18-1.51359E-18
 -1      1271 2.39031E-05-8.41170E-05 1.36931E-05-2.36441E-05-2.16392E-17-6.68881E-18
 -1      1272 8.70921E-06-2.80248E-05-1.24703E-07-1.30245E-05-2.86009E-17-1.50704E-17
 -1      1273 2.13132E-05 1.79268E-05-1.95122E-05 3.49117E-05-2.80622E-17-2.33264E-17
 -1      1274 8.10566E-05 2.12708E-05-4.03491E-05 8.94289E-05-2.16298E-17-2.69628E-17
 -1      1275 1.76739E-04-1.68478E-05-5.93620E-05 1.11402E-04-1.22871E-17-2.36373E-17
 -1      1276 2.71511E-04-6.94702E-05-7.30837E-05 8.21508E-05-3.74283E-18-1.28859E-17
 -1      1277 3.12037E-04-9.43015E-05-7.83136E-05 7.61139E-06-9.48942E-19 1.57654E-18
 -1      1278 2.82059E-04-7.63310E-05-7.44496E-05-7.05615E-05-4.21738E-18 1.70643E-17
 -1      1279 1.95583E-04-2.73850E-05-6.22886E-05-1.10505E-04-1.29054E-17 2.77708E-17
 -1      1280 9.79699E-05 1.57864E-05-4.43727E-05-9.70782E-05-2.12554E-17 2.99375E-17
 -1      1281 2.93087E-05 2.18444E-05-2.35297E-05-4.59143E-05-2.51264E-17 2.32316E-17
 -1      1282 7.17940E-06-1.41981E-05-3.99970E-06 5.45537E-06-2.28377E-17 1.37567E-17
 -1      1283 1.86390E-05-6.86507E-05 1.04999E-05 2.61332E-05-1.37397E-17 5.74839E-18
 -1      1284 3.50627E-05-1.08814E-04 1.83868E-05 1.29113E-05-6.67885E-19 1.09963E-18
 -1      1285 1.08923E-04-2.31368E-05-3.92830E-05-1.55943E-05-6.44169E-19 8.64185E-18
 -1      1286 9.47571E-05-7.66503E-06-3.74554E-05-1.66580E-05-1.54107E-18-1.60370E-18
 -1      1287 9.74909E-05-7.89162E-06-3.86860E-05-2.24148E-05-2.07883E-18 6.99649E-19
 -1      1288 8.89646E-05-4.63322E-06-3.62020E-05-1.18167E-05-1.45309E-18-4.72491E-18
 -1      1289 9.09465E-05-4.68258E-06-3.68918E-05-1.45556E-05-1.68872E-18-3.45285E-18
 -1      1290 9.66783E-05-1.17241E-05-3.64653E-05-1.49028E-05-2.66556E-18-1.35388E-18
 -1      1291 8.52469E-05-3.25204E-06-3.51717E-05-7.97512E-06-1.03952E-18-6.11351E-18
 -1      1292 8.67741E-05-3.26022E-06-3.57107E-05-9.83508E-06-1.23487E-18-5.50545E-18
 -1      1293 9.05926E-05-7.88268E-06-3.55142E-05-1.07580E-05-2.20586E-18-3.90961E-18
 -1      1294 8.23167E-05-2.33883E-06-3.43011E-05-5.15142E-06-6.48536E-19-6.72943E-18
 -1      1295 8.35653E-05-2.34973E-06-3.47438E-05-6.48596E-06-7.81176E-19-6.48287E-18
 -1      1296 8.63587E-05-5.65310E-06-3.46504E-05-7.27111E-06-1.50449E-18-5.12651E-18
 -1      1297 8.00102E-05-1.67182E-06-3.35986E-05-3.15624E-06-2.96938E-19-6.86147E-18
 -1      1298 8.09896E-05-1.68391E-06-3.39453E-05-4.09439E-06-4.26428E-19-6.81507E-18
 -1      1299 8.30808E-05-4.11478E-06-3.38953E-05-4.69627E-06-9.19415E-19-5.60299E-18
 -1      1300 7.82982E-05-1.18724E-06-3.30731E-05-1.72541E-06 3.34578E-20-6.80099E-18
 -1      1301 7.89961E-05-1.19799E-06-3.33203E-05-2.40342E-06-5.71747E-20-6.86492E-18
 -1      1302 8.05361E-05-2.99463E-06-3.32777E-05-2.84250E-06-3.30429E-19-5.76501E-18
 -1      1303 7.73193E-05-8.96973E-07-3.27733E-05-6.86913E-07 3.70961E-19-6.62093E-18
 -1      1304 7.76721E-05-9.02799E-07-3.28988E-05-1.19865E-06 2.46248E-19-6.71581E-18
 -1      1305 7.87604E-05-2.24207E-06-3.28354E-05-1.50627E-06 2.08651E-19-5.64002E-18
 -1      1306 7.71404E-05-8.12809E-07-3.27221E-05 1.91075E-07 6.40833E-19-6.35839E-18
 -1      1307 7.71222E-05-8.12515E-07-3.27168E-05-2.71227E-07 5.60471E-19-6.52580E-18
 -1      1308 7.78708E-05-1.87618E-06-3.26092E-05-4.96653E-07 7.66016E-19-5.48036E-18
 -1      1309 7.77686E-05-9.37168E-07-3.29222E-05 1.14892E-06 9.30082E-19-5.98224E-18
 -1      1310 7.73842E-05-9.30856E-07-3.27876E-05 6.17400E-07 8.24395E-19-6.22240E-18
 -1      1311 7.79229E-05-1.90865E-06-3.26179E-05 4.15810E-07 1.18967E-18-5.23845E-18
 -1      1312 7.91471E-05-1.26067E-06-3.33553E-05 2.41898E-06 1.22899E-18-5.44524E-18
 -1      1313 7.84303E-05-1.24855E-06-3.31028E-05 1.70506E-06 1.12543E-18-5.77646E-18
 -1      1314 7.89040E-05-2.33277E-06-3.28589E-05 1.46569E-06 1.67515E-18-4.84345E-18
 -1      1315 8.11372E-05-1.75452E-06-3.39759E-05 4.17721E-06 1.48980E-18-4.59711E-18
 -1      1316 8.01581E-05-1.74339E-06-3.36300E-05 3.19834E-06 1.36603E-18-5.12646E-18
 -1      1317 8.07197E-05-3.11840E-06-3.33042E-05 2.85907E-06 2.12422E-18-4.27147E-18
 -1      1318 8.37213E-05-2.43391E-06-3.47724E-05 6.68129E-06 1.82043E-18-3.21141E-18
 -1      1319 8.24826E-05-2.42379E-06-3.43338E-05 5.29803E-06 1.66384E-18-4.01766E-18
 -1      1320 8.32763E-05-4.25772E-06-3.39186E-05 4.79816E-06 2.56064E-18-3.31865E-18
 -1      1321 8.68883E-05-3.34035E-06-3.57267E-05 1.01311E-05 2.12828E-18-1.08664E-18
 -1      1322 8.53866E-05-3.33966E-06-3.51938E-05 8.22324E-06 1.94500E-18-2.34522E-18
 -1      1323 8.65664E-05-5.82065E-06-3.46686E-05 7.48591E-06 3.01769E-18-1.85752E-18
 -1      1324 9.10302E-05-4.70018E-06-3.69034E-05 1.49020E-05 2.22579E-18 2.44239E-18
 -1      1325 8.90488E-05-4.70365E-06-3.62092E-05 1.21754E-05 2.05575E-18 3.46463E-19
 -1      1326 9.07674E-05-8.05537E-06-3.55176E-05 1.10899E-05 3.33739E-18 4.87467E-19
 -1      1327 9.80955E-05-7.89063E-06-3.85533E-05 2.19822E-05 1.75855E-18 8.47912E-18
 -1      1328 9.45521E-05-7.43181E-06-3.74618E-05 1.74213E-05 1.76617E-18 4.85196E-18
 -1      1329 9.68686E-05-1.19512E-05-3.64358E-05 1.56397E-05 3.18635E-18 4.26815E-18
 -1      1330 1.27132E-04-2.59350E-05-4.02828E-05 2.66835E-05 6.65027E-19 1.89005E-17
 -1      1331 1.04733E-04-1.56641E-05-3.87747E-05 2.15742E-05 7.64447E-19 1.18064E-17
 -1      1332 1.07010E-04-2.10390E-05-3.69086E-05 1.81540E-05 2.72141E-18 9.70446E-18
 -1      1333 1.07855E-04-2.95036E-05-3.62675E-05 5.72731E-06 1.34355E-18 1.85638E-17
 -1      1334 1.10983E-04-3.20782E-05-3.52222E-05-6.18380E-06-1.74870E-18 9.39794E-18
 -1      1335 1.05580E-04-3.01439E-05-3.28711E-05-3.45900E-06-1.58962E-18 7.35857E-18
 -1      1336 1.03697E-04-3.03250E-05-3.16900E-05-9.83018E-07-1.33281E-18 6.54921E-18
 -1      1337 1.02900E-04-3.04586E-05-3.10838E-05-5.64265E-07-1.27812E-18 4.62893E-18
 -1      1338 1.06705E-04-3.03190E-05-3.31013E-05-4.96046E-06-2.83444E-18 3.41391E-18
 -1      1339 1.02278E-04-3.03918E-05-3.07949E-05 6.67844E-07-9.65962E-19 4.02229E-18
 -1      1340 1.03000E-04-3.07298E-05-3.09240E-05 7.96548E-07-8.14674E-19 2.69031E-18
 -1      1341 1.03877E-04-3.05227E-05-3.15682E-05-2.04064E-07-2.15038E-18 2.28359E-18
 -1      1342 1.03390E-04-3.08773E-05-3.10356E-05 1.40912E-06-6.07151E-19 2.16676E-18
 -1      1343 1.04813E-04-3.13713E-05-3.14401E-05 1.48684E-06-5.76231E-19 1.22129E-18
 -1      1344 1.03829E-04-3.08622E-05-3.13093E-05 1.97612E-06-1.47003E-18 1.15496E-18
 -1      1345 1.05731E-04-3.16625E-05-3.17205E-05 1.75760E-06-3.54699E-19 9.57756E-19
 -1      1346 1.07431E-04-3.22347E-05-3.22101E-05 1.78156E-06-3.86699E-19 3.71689E-19
 -1      1347 1.05154E-04-3.14329E-05-3.16124E-05 3.04727E-06-9.93616E-19 4.55896E-19
 -1      1348 1.08557E-04-3.26019E-05-3.25401E-05 1.74640E-06-3.37357E-19 2.17264E-19
 -1      1349 1.10172E-04-3.31572E-05-3.29962E-05 1.69870E-06-3.40698E-19-2.22531E-19
 -1      1350 1.07201E-04-3.22090E-05-3.21422E-05 3.35689E-06-7.98106E-19 3.47151E-20
 -1      1351 1.11209E-04-3.35222E-05-3.32799E-05 1.30156E-06-1.24507E-19-2.17793E-19
 -1      1352 1.12308E-04-3.39268E-05-3.35778E-05 1.15555E-06-2.09505E-19-5.33743E-19
 -1      1353 1.09398E-04-3.30746E-05-3.26906E-05 2.87160E-06-4.44934E-19-1.16712E-19
 -1      1354 1.12936E-04-3.41924E-05-3.37184E-05 3.37364E-07-3.78094E-19-5.59412E-19
 -1      1355 1.13017E-04-3.42736E-05-3.37208E-05 7.46865E-08-2.77840E-19-1.17696E-18
 -1      1356 1.11152E-04-3.38501E-05-3.30793E-05 1.44725E-06-5.26146E-19-2.28421E-19
 -1      1357 1.12910E-04-3.43200E-05-3.36325E-05-1.12513E-06-2.46533E-19-1.20002E-18
 -1      1358 1.11527E-04-3.39013E-05-3.32287E-05-1.48211E-06-6.57000E-19-2.02179E-18
 -1      1359 1.11813E-04-3.42770E-05-3.31473E-05-9.56979E-07-5.37396E-19-2.60307E-19
 -1      1360 1.10453E-04-3.36098E-05-3.28732E-05-2.80254E-06-5.31110E-19-2.11155E-18
 -1      1361 1.07491E-04-3.26069E-05-3.20540E-05-3.15226E-06-2.01978E-19-2.47424E-18
 -1      1362 1.10786E-04-3.40349E-05-3.27922E-05-4.00778E-06-7.53224E-19-9.54368E-20
 -1      1363 1.05496E-04-3.19336E-05-3.14842E-05-4.05490E-06-9.59860E-21-2.99998E-18
 -1      1364 1.01490E-04-3.04958E-05-3.04155E-05-4.21180E-06-4.02179E-19-3.20623E-18
 -1      1365 1.07817E-04-3.28775E-05-3.20367E-05-6.76127E-06-4.52084E-19-9.23689E-19
 -1      1366 9.90893E-05-2.95904E-05-2.97946E-05-4.05962E-06-5.44338E-19-3.59285E-18
 -1      1367 9.53162E-05-2.81798E-05-2.88167E-05-3.84854E-06-3.03522E-19-4.22992E-18
 -1      1368 1.03409E-04-3.09057E-05-3.10701E-05-7.76768E-06-8.28385E-19-1.88538E-18
 -1      1369 9.34619E-05-2.74290E-05-2.83717E-05-2.37311E-06-1.72543E-19-4.66355E-18
 -1      1370 9.14872E-05-2.66681E-05-2.78717E-05-1.80230E-06-5.22884E-19-4.90766E-18
 -1      1371 9.90522E-05-2.88038E-05-3.02152E-05-5.84451E-06-6.83172E-19-3.04528E-18
 -1      1372 9.11064E-05-2.64985E-05-2.77900E-05 4.94531E-07-3.83759E-19-5.47482E-18
 -1      1373 9.18901E-05-2.67868E-05-2.79953E-05 1.16401E-06-4.37797E-19-5.99498E-18
 -1      1374 9.67313E-05-2.76207E-05-2.98008E-05-1.22093E-06-8.07593E-19-3.57993E-18
 -1      1375 9.32372E-05-2.73209E-05-2.83247E-05 3.20796E-06-8.51387E-19-6.36982E-18
 -1      1376 9.64850E-05-2.85346E-05-2.91666E-05 3.63726E-06-9.26819E-19-7.26273E-18
 -1      1377 9.77177E-05-2.80660E-05-3.00095E-05 4.12568E-06-1.24253E-18-4.45437E-18
 -1      1378 9.89383E-05-2.94766E-05-2.97884E-05 4.53712E-06-6.66175E-19-7.90975E-18
 -1      1379 1.03309E-04-3.10655E-05-3.09443E-05 4.57147E-06-5.24362E-19-8.85758E-18
 -1      1380 1.01614E-04-2.99148E-05-3.07866E-05 7.69979E-06-1.43452E-18-5.26211E-18
 -1      1381 1.05848E-04-3.19653E-05-3.16385E-05 4.19084E-06-3.89106E-19-8.93763E-18
 -1      1382 1.09814E-04-3.33430E-05-3.27195E-05 3.92468E-06-3.23639E-19-9.03122E-18
 -1      1383 1.06665E-04-3.22067E-05-3.18665E-05 8.24561E-06-7.06978E-19-6.07385E-18
 -1      1384 1.11651E-04-3.39130E-05-3.32768E-05 2.76081E-06-1.99059E-19-8.99237E-18
 -1      1385 1.14249E-04-3.47566E-05-3.40129E-05 2.39164E-06-9.10627E-20-9.14203E-18
 -1      1386 1.10985E-04-3.39897E-05-3.29019E-05 6.28492E-06-3.14951E-19-6.32375E-18
 -1      1387 1.15086E-04-3.49451E-05-3.43156E-05 1.07452E-06 5.72806E-20-8.97806E-18
 -1      1388 1.16101E-04-3.52258E-05-3.46240E-05 7.53587E-07-6.35275E-20-8.87518E-18
 -1      1389 1.13511E-04-3.48492E-05-3.36153E-05 3.24601E-06-7.46448E-20-6.05123E-18
 -1      1390 1.16027E-04-3.51188E-05-3.46602E-05-3.06346E-07 5.63237E-19-8.91768E-18
 -1      1391 1.15749E-04-3.49746E-05-3.46019E-05-5.18710E-07 5.74540E-19-7.89754E-18
 -1      1392 1.14103E-04-3.48718E-05-3.38853E-05 3.87544E-07 3.08115E-19-5.66660E-18
 -1      1393 1.15029E-04-3.46890E-05-3.44291E-05-1.18584E-06 4.71182E-19-7.47704E-18
 -1      1394 1.13928E-04-3.42954E-05-3.41272E-05-1.29301E-06 5.31176E-19-6.57610E-18
 -1      1395 1.13173E-04-3.43532E-05-3.37403E-05-1.66095E-06 9.80361E-19-6.03791E-18
 -1      1396 1.12846E-04-3.39277E-05-3.38260E-05-1.60565E-06 1.28130E-20-6.36884E-18
 -1      1397 1.11354E-04-3.34295E-05-3.34020E-05-1.63638E-06-2.04916E-19-6.56893E-18
 -1      1398 1.11294E-04-3.35741E-05-3.32935E-05-2.80703E-06 3.14478E-19-4.96440E-18
 -1      1399 1.10138E-04-3.30450E-05-3.30448E-05-1.69721E-06 1.91700E-19-6.40465E-18
 -1      1400 1.08562E-04-3.25375E-05-3.25896E-05-1.68197E-06 2.00161E-19-6.36761E-18
 -1      1401 1.08971E-04-3.27265E-05-3.26773E-05-3.23158E-06 6.47318E-20-3.77130E-18
 -1      1402 1.07367E-04-3.21747E-05-3.22287E-05-1.59292E-06 2.33182E-19-6.03026E-18
 -1      1403 1.05891E-04-3.17105E-05-3.17983E-05-1.55486E-06 4.66436E-19-5.10609E-18
 -1      1404 1.06570E-04-3.19185E-05-3.20034E-05-3.18248E-06 5.13512E-19-3.11393E-18
 -1      1405 1.04804E-04-3.13889E-05-3.14653E-05-1.39277E-06 1.61897E-19-5.37212E-18
 -1      1406 1.03518E-04-3.09910E-05-3.10877E-05-1.34668E-06 2.51756E-19-4.66662E-18
 -1      1407 1.04316E-04-3.12011E-05-3.13488E-05-2.87249E-06 2.64329E-19-3.25549E-18
 -1      1408 1.02580E-04-3.07180E-05-3.07981E-05-1.16115E-06 5.32630E-19-5.12197E-18
 -1      1409 1.01513E-04-3.03917E-05-3.04831E-05-1.11542E-06 2.94900E-19-4.88517E-18
 -1      1410 1.02327E-04-3.05922E-05-3.07579E-05-2.45087E-06 2.73681E-19-3.28969E-18
 -1      1411 1.00734E-04-3.01673E-05-3.02415E-05-9.34762E-07-4.13714E-20-4.85451E-18
 -1      1412 9.98778E-05-2.99084E-05-2.99882E-05-8.93516E-07-6.82705E-20-4.97545E-18
 -1      1413 1.00645E-04-3.00918E-05-3.02509E-05-2.00922E-06 1.01876E-20-4.52819E-18
 -1      1414 9.92500E-05-2.97287E-05-2.97930E-05-7.31790E-07 3.92510E-19-4.76271E-18
 -1      1415 9.85832E-05-2.95287E-05-2.95951E-05-6.96639E-07 1.74000E-19-4.50067E-18
 -1      1416 9.92699E-05-2.96909E-05-2.98316E-05-1.59722E-06 2.99069E-19-4.16962E-18
 -1      1417 9.80898E-05-2.93882E-05-2.94415E-05-5.59207E-07-1.73774E-20-4.66315E-18
 -1      1418 9.75828E-05-2.92373E-05-2.92906E-05-5.30371E-07 2.19158E-19-4.42022E-18
 -1      1419 9.81744E-05-2.93766E-05-2.94949E-05-1.23754E-06 1.09221E-20-3.82804E-18
 -1      1420 9.72036E-05-2.91297E-05-2.91725E-05-4.17741E-07 1.47404E-19-4.28402E-18
 -1      1421 9.68271E-05-2.90185E-05-2.90602E-05-3.94751E-07-4.77323E-19-4.57232E-18
 -1      1422 9.73220E-05-2.91352E-05-2.92313E-05-9.36930E-07 2.21119E-19-3.63819E-18
 -1      1423 9.65418E-05-2.89377E-05-2.89713E-05-3.04973E-07-6.16151E-19-4.26631E-18
 -1      1424 9.62687E-05-2.88578E-05-2.88896E-05-2.87069E-07-2.18140E-20-4.99672E-18
 -1      1425 9.66727E-05-2.89533E-05-2.90293E-05-6.93555E-07-6.11406E-19-2.95453E-18
 -1      1426 9.60587E-05-2.87984E-05-2.88242E-05-2.17143E-07 3.25093E-19-4.89252E-18
 -1      1427 9.58658E-05-2.87425E-05-2.87663E-05-2.03488E-07-3.70845E-19-5.01390E-18
 -1      1428 9.61887E-05-2.88192E-05-2.88779E-05-5.01442E-07-4.40946E-19-2.01909E-18
 -1      1429 9.57149E-05-2.86999E-05-2.87193E-05-1.50150E-07-8.81459E-19-4.86975E-18
 -1      1430 9.55827E-05-2.86620E-05-2.86795E-05-1.39945E-07-3.89357E-19-5.96936E-18
 -1      1431 9.58357E-05-2.87225E-05-2.87668E-05-3.53080E-07-6.98664E-19-2.17912E-18
 -1      1432 9.54771E-05-2.86324E-05-2.86467E-05-1.00076E-07 8.07015E-19-5.01052E-18
 -1      1433 9.53901E-05-2.86078E-05-2.86203E-05-9.26058E-08 8.68178E-19-3.97672E-18
 -1      1434 9.55846E-05-2.86545E-05-2.86874E-05-2.40821E-07 2.53200E-19-1.80712E-18
 -1      1435 9.53188E-05-2.85878E-05-2.85981E-05-6.34219E-08-5.49808E-19-4.36561E-18
 -1      1436 9.52646E-05-2.85729E-05-2.85816E-05-5.80766E-08-2.66318E-19-4.84867E-18
 -1      1437 9.54112E-05-2.86083E-05-2.86321E-05-1.57589E-07 5.23151E-19-1.77647E-18
 -1      1438 9.52185E-05-2.85600E-05-2.85673E-05-3.71951E-08 1.47948E-19-4.98288E-18
 -1      1439 9.51877E-05-2.85518E-05-2.85577E-05-3.34694E-08 2.33586E-19-4.13995E-18
 -1      1440 9.52959E-05-2.85781E-05-2.85950E-05-9.71892E-08-5.64878E-19-3.05465E-18
 -1      1441 9.51598E-05-2.85441E-05-2.85491E-05-1.89151E-08 6.09996E-19-4.40958E-18
 -1      1442 9.51451E-05-2.85406E-05-2.85444E-05-1.63998E-08 9.70593E-20-3.93976E-18
 -1      1443 9.52230E-05-2.85596E-05-2.85712E-05-5.43951E-08 5.09580E-19-3.07446E-18
 -1      1444 9.51301E-05-2.85365E-05-2.85397E-05-6.57347E-09 4.09288E-20-2.77410E-18
 -1      1445 9.51262E-05-2.85360E-05-2.85383E-05-4.94406E-09 6.97540E-19-2.40526E-18
 -1      1446 9.51806E-05-2.85493E-05-2.85571E-05-2.49149E-08 3.04616E-19-2.68849E-18
 -1      1447 9.51199E-05-2.85343E-05-2.85364E-05 1.42164E-09 4.37946E-20-2.69104E-18
 -1      1448 9.51229E-05-2.85358E-05-2.85371E-05 2.41744E-09-6.37813E-19-2.59128E-18
 -1      1449 9.51594E-05-2.85448E-05-2.85497E-05-5.30435E-09 3.29282E-19-1.41586E-18
 -1      1450 9.51225E-05-2.85358E-05-2.85370E-05 6.30666E-09-1.75549E-19-2.26491E-18
 -1      1451 9.51295E-05-2.85383E-05-2.85389E-05 6.86102E-09-3.59470E-19-2.70531E-18
 -1      1452 9.51526E-05-2.85440E-05-2.85469E-05 7.14376E-09-1.89512E-19-1.39495E-18
 -1      1453 9.51327E-05-2.85393E-05-2.85399E-05 9.02088E-09-4.54229E-19-1.85672E-18
 -1      1454 9.51420E-05-2.85424E-05-2.85425E-05 9.27663E-09-9.83662E-19-1.80530E-18
 -1      1455 9.51551E-05-2.85456E-05-2.85471E-05 1.45127E-08-4.19891E-19-1.68570E-18
 -1      1456 9.51473E-05-2.85440E-05-2.85442E-05 1.02582E-08-8.43766E-19-2.00940E-18
 -1      1457 9.51575E-05-2.85473E-05-2.85471E-05 1.03178E-08-6.54367E-20-3.18446E-18
 -1      1458 9.51632E-05-2.85486E-05-2.85492E-05 1.83659E-08-8.52185E-19-8.83140E-19
 -1      1459 9.51638E-05-2.85491E-05-2.85491E-05 1.05100E-08-3.17828E-19-1.98331E-18
 -1      1460 9.51740E-05-2.85524E-05-2.85521E-05 1.04424E-08 1.46630E-19-2.94848E-18
 -1      1461 9.51744E-05-2.85524E-05-2.85524E-05 1.98371E-08 1.41476E-19 7.07843E-19
 -1      1462 9.51807E-05-2.85543E-05-2.85541E-05 1.00974E-08 1.30628E-19-3.38215E-18
 -1      1463 9.51904E-05-2.85574E-05-2.85569E-05 9.94286E-09 5.43025E-19-3.05031E-18
 -1      1464 9.51870E-05-2.85564E-05-2.85560E-05 1.97016E-08-1.00113E-19-9.73447E-19
 -1      1465 9.51968E-05-2.85593E-05-2.85589E-05 9.19391E-09 8.23001E-19-3.00631E-18
 -1      1466 9.52055E-05-2.85620E-05-2.85614E-05 8.96585E-09 4.66836E-19-2.26348E-18
 -1      1467 9.51997E-05-2.85604E-05-2.85597E-05 1.84283E-08 9.86898E-19 2.41882E-19
 -1      1468 9.52112E-05-2.85637E-05-2.85632E-05 7.83594E-09-9.51120E-20-2.78735E-18
 -1      1469 9.52185E-05-2.85661E-05-2.85653E-05 7.51820E-09 2.41015E-19-2.25413E-18
 -1      1470 9.52115E-05-2.85641E-05-2.85631E-05 1.62156E-08 8.59110E-19-5.85308E-19
 -1      1471 9.52233E-05-2.85675E-05-2.85667E-05 5.93831E-09 1.54911E-18-1.92476E-18
 -1      1472 9.52286E-05-2.85693E-05-2.85682E-05 5.47877E-09 1.16442E-18-9.97849E-20
 -1      1473 9.52218E-05-2.85675E-05-2.85660E-05 1.30092E-08 1.18803E-18-1.19400E-18
 -1      1474 9.52321E-05-2.85704E-05-2.85692E-05 3.33289E-09-2.95096E-19 6.77928E-19
 -1      1475 9.52349E-05-2.85712E-05-2.85701E-05 2.72922E-09-7.56842E-19 8.25681E-19
 -1      1476 9.52299E-05-2.85703E-05-2.85683E-05 8.65337E-09 9.61483E-19-1.02640E-18
 -1      1477 9.52371E-05-2.85715E-05-2.85710E-05-4.56973E-12-8.22870E-19 1.03811E-18
 -1      1478 9.52359E-05-2.85722E-05-2.85701E-05 2.68218E-09-8.44524E-19 7.93220E-19
 -1      1479 1.04187E-04-3.06883E-05-3.20003E-05 1.70542E-06 1.33111E-18 1.55955E-17
 -1      1480 1.08620E-04-3.12185E-05-3.39750E-05 3.09389E-06 1.15752E-18 1.75453E-17
 -1      1481 1.08435E-04-2.87414E-05-3.44928E-05 1.02474E-05 2.19127E-18 1.22564E-17
 -1      1482 1.02033E-04-3.04365E-05-3.07439E-05-7.39046E-08 9.51496E-19 1.29773E-17
 -1      1483 1.02616E-04-3.01777E-05-3.12443E-05 2.51421E-07 9.37401E-19 1.44418E-17
 -1      1484 1.04512E-04-3.04965E-05-3.19252E-05 2.48807E-06 1.99132E-18 1.01790E-17
 -1      1485 1.02647E-04-3.07340E-05-3.07975E-05-9.22286E-07 6.06151E-19 1.12091E-17
 -1      1486 1.01908E-04-3.03340E-05-3.06612E-05-7.30856E-07 6.22013E-19 1.22116E-17
 -1      1487 1.03147E-04-3.06110E-05-3.11402E-05-5.17455E-07 1.44522E-18 8.60257E-18
 -1      1488 1.04639E-04-3.13788E-05-3.13721E-05-1.33107E-06 3.24549E-19 1.01547E-17
 -1      1489 1.03298E-04-3.08840E-05-3.09936E-05-1.21598E-06 3.59521E-19 1.06646E-17
 -1      1490 1.03772E-04-3.09844E-05-3.12141E-05-1.90741E-06 8.64754E-19 7.34644E-18
 -1      1491 1.07198E-04-3.21927E-05-3.21204E-05-1.42870E-06 3.45016E-19 9.37538E-18
 -1      1492 1.05648E-04-3.16693E-05-3.16753E-05-1.38418E-06 2.75133E-19 9.74871E-18
 -1      1493 1.05443E-04-3.16005E-05-3.16567E-05-2.50936E-06 6.04648E-19 6.50681E-18
 -1      1494 1.09651E-04-3.29920E-05-3.28182E-05-1.19291E-06 2.28957E-19 8.79252E-18
 -1      1495 1.08247E-04-3.25398E-05-3.24250E-05-1.23826E-06 1.37431E-19 9.04134E-18
 -1      1496 1.07499E-04-3.23396E-05-3.22059E-05-2.47615E-06 4.19457E-19 6.03777E-18
 -1      1497 1.11267E-04-3.35546E-05-3.32491E-05-5.58437E-07 4.88275E-19 8.11247E-18
 -1      1498 1.10423E-04-3.33074E-05-3.30284E-05-7.22421E-07 3.16248E-19 8.58944E-18
 -1      1499 1.09338E-04-3.30440E-05-3.26669E-05-1.75058E-06 5.01841E-19 5.70778E-18
 -1      1500 1.11262E-04-3.36219E-05-3.31959E-05 4.95101E-07 3.69889E-19 7.52197E-18
 -1      1501 1.11431E-04-3.37334E-05-3.32712E-05 1.96469E-07 2.56598E-19 7.93984E-18
 -1      1502 1.10335E-04-3.35112E-05-3.28618E-05-2.57506E-07 4.59562E-19 5.57716E-18
 -1      1503 1.08989E-04-3.29534E-05-3.25024E-05 1.82968E-06 1.19928E-19 7.12394E-18
 -1      1504 1.10535E-04-3.35475E-05-3.29604E-05 1.42802E-06 1.64900E-19 7.52337E-18
 -1      1505 1.09881E-04-3.34989E-05-3.26453E-05 1.91103E-06 3.42201E-19 5.08760E-18
 -1      1506 1.04337E-04-3.14605E-05-3.11810E-05 3.04715E-06 4.06046E-20 7.59545E-18
 -1      1507 1.07285E-04-3.25371E-05-3.20048E-05 2.65537E-06 9.42721E-20 7.46358E-18
 -1      1508 1.07583E-04-3.27839E-05-3.19639E-05 4.29216E-06-1.33838E-19 5.30076E-18
 -1      1509 9.81729E-05-2.93890E-05-2.95072E-05 3.52961E-06 3.44045E-19 7.32286E-18
 -1      1510 1.01945E-04-3.07227E-05-3.05203E-05 3.33155E-06 9.19353E-20 7.42033E-18
 -1      1511 1.03599E-04-3.13135E-05-3.09239E-05 5.97046E-06 1.09042E-19 5.75931E-18
 -1      1512 9.24348E-05-2.74016E-05-2.80006E-05 2.75133E-06 5.45628E-19 6.71009E-18
 -1      1513 9.58286E-05-2.85358E-05-2.88832E-05 2.90771E-06 4.11724E-19 7.00300E-18
 -1      1514 9.89223E-05-2.94016E-05-2.98115E-05 5.86505E-06 5.54648E-19 4.75303E-18
 -1      1515 8.94663E-05-2.63591E-05-2.72347E-05 7.55368E-07 5.85148E-19 5.27510E-18
 -1      1516 9.10970E-05-2.67914E-05-2.76460E-05 1.26311E-06 6.10843E-19 6.04832E-18
 -1      1517 9.52603E-05-2.77751E-05-2.90110E-05 3.45117E-06 1.21244E-18 4.06028E-18
 -1      1518 9.07061E-05-2.68025E-05-2.75463E-05-1.65088E-06 5.43107E-19 3.12833E-18
 -1      1519 8.97913E-05-2.63013E-05-2.73027E-05-1.00911E-06 7.35873E-19 4.36042E-18
 -1      1520 9.42739E-05-2.72587E-05-2.88386E-05-5.65489E-07 1.38057E-18 2.28735E-18
 -1      1521 9.57170E-05-2.85505E-05-2.88417E-05-3.37420E-06-1.36329E-19 2.26772E-18
 -1      1522 9.25969E-05-2.73268E-05-2.80250E-05-2.88800E-06 1.42579E-19 2.46741E-18
 -1      1523 9.65260E-05-2.81821E-05-2.93842E-05-4.43678E-06 6.21431E-19 1.25647E-18
 -1      1524 1.02494E-04-3.08447E-05-3.06529E-05-3.78969E-06 1.50570E-19 1.97708E-18
 -1      1525 9.83980E-05-2.94003E-05-2.95606E-05-3.62334E-06-1.36233E-19 1.88036E-18
 -1      1526 1.01089E-04-3.01006E-05-3.04664E-05-6.52660E-06 9.64426E-20 3.59963E-19
 -1      1527 1.08726E-04-3.28658E-05-3.23964E-05-3.04585E-06 5.49182E-19 1.23407E-18
 -1      1528 1.05016E-04-3.16740E-05-3.13762E-05-3.16661E-06 4.16906E-19 1.95575E-18
 -1      1529 1.06186E-04-3.21488E-05-3.17284E-05-6.33125E-06 3.11788E-19-5.45383E-19
 -1      1530 1.12917E-04-3.41449E-05-3.36414E-05-1.74413E-06-2.93828E-19 1.08211E-18
 -1      1531 1.10448E-04-3.34424E-05-3.29339E-05-2.01057E-06 9.89440E-20 1.25268E-18
 -1      1532 1.10244E-04-3.36322E-05-3.28075E-05-4.50608E-06 5.35748E-19 2.82088E-19
 -1      1533 1.14673E-04-3.46129E-05-3.42251E-05-4.57821E-07-4.84602E-19 1.25909E-18
 -1      1534 1.13645E-04-3.44012E-05-3.39073E-05-7.35631E-07-4.21273E-19 1.07651E-18
 -1      1535 1.12489E-04-3.43133E-05-3.34726E-05-2.12544E-06-4.28400E-19-2.15864E-19
 -1      1536 1.14373E-04-3.44405E-05-3.42099E-05 5.01772E-07 2.53726E-19 1.43294E-18
 -1      1537 1.14539E-04-3.45936E-05-3.42316E-05 2.86188E-07 1.06878E-19 1.77701E-18
 -1      1538 1.12916E-04-3.43022E-05-3.36655E-05-1.94531E-08-2.57154E-20-3.03704E-19
 -1      1539 1.12699E-04-3.38669E-05-3.37698E-05 1.06804E-06 2.82399E-19 1.43223E-18
 -1      1540 1.13644E-04-3.42326E-05-3.40238E-05 9.33081E-07 5.32076E-20 1.56248E-18
 -1      1541 1.11949E-04-3.38380E-05-3.34580E-05 1.44022E-06-3.19821E-20 6.40383E-19
 -1      1542 1.10312E-04-3.31019E-05-3.30940E-05 1.30761E-06 3.98547E-19 2.47876E-19
 -1      1543 1.11646E-04-3.35561E-05-3.34708E-05 1.24160E-06 4.53293E-19 1.27698E-18
 -1      1544 1.10125E-04-3.31450E-05-3.29805E-05 2.23352E-06 7.13878E-19 9.27600E-19
 -1      1545 1.07710E-04-3.22934E-05-3.23347E-05 1.32572E-06 1.90593E-19-9.47830E-19
 -1      1546 1.09148E-04-3.27538E-05-3.27498E-05 1.30787E-06 5.45232E-19-1.90265E-19
 -1      1547 1.07911E-04-3.23823E-05-3.23639E-05 2.50797E-06 9.92848E-19-1.47380E-19
 -1      1548 1.05210E-04-3.15308E-05-3.15929E-05 1.21687E-06-9.98538E-19 6.36109E-19
 -1      1549 1.06576E-04-3.19515E-05-3.19923E-05 1.22797E-06-5.94545E-19-8.34208E-19
 -1      1550 1.05643E-04-3.16460E-05-3.17110E-05 2.44499E-06-4.46000E-19 5.03654E-20
 -1      1551 1.02982E-04-3.08591E-05-3.09252E-05 1.04932E-06-8.85001E-21 1.49194E-18
 -1      1552 1.04186E-04-3.12198E-05-3.12801E-05 1.07520E-06-4.39734E-19 1.05871E-18
 -1      1553 1.03527E-04-3.09858E-05-3.10891E-05 2.19683E-06-1.13336E-18 8.34533E-19
 -1      1554 1.01095E-04-3.02946E-05-3.03561E-05 8.66134E-07-5.30514E-19 1.97631E-18
 -1      1555 1.02103E-04-3.05906E-05-3.06550E-05 8.97597E-07-1.95848E-19 1.63237E-18
 -1      1556 1.01668E-04-3.04220E-05-3.05355E-05 1.87009E-06-4.51053E-19 1.15730E-18
 -1      1557 9.95547E-05-2.98367E-05-2.98897E-05 6.91459E-07 9.95578E-20 1.82170E-18
 -1      1558 1.00368E-04-3.00715E-05-3.01320E-05 7.23119E-07-6.46012E-20 1.98048E-18
 -1      1559 1.00105E-04-2.99572E-05-3.00654E-05 1.53069E-06-1.37031E-19 1.65157E-18
 -1      1560 9.83349E-05-2.94757E-05-2.95192E-05 5.36969E-07-4.22526E-19 1.50895E-18
 -1      1561 9.89724E-05-2.96568E-05-2.97096E-05 5.65999E-07-3.63537E-19 1.38146E-18
 -1      1562 9.88331E-05-2.95847E-05-2.96801E-05 1.21477E-06-1.51659E-19 2.36265E-18
 -1      1563 9.73933E-05-2.91980E-05-2.92325E-05 4.06797E-07-3.49737E-19 1.47759E-18
 -1      1564 9.78799E-05-2.93343E-05-2.93783E-05 4.31959E-07-1.15567E-19 1.30020E-18
 -1      1565 9.78260E-05-2.92932E-05-2.93734E-05 9.39065E-07-1.49433E-19 1.74837E-18
 -1      1566 9.66834E-05-2.89894E-05-2.90161E-05 3.00875E-07-1.39814E-20 1.22913E-18
 -1      1567 9.70460E-05-2.90895E-05-2.91250E-05 3.21857E-07 8.73263E-20 1.51784E-18
 -1      1568 9.70476E-05-2.90702E-05-2.91352E-05 7.08657E-07-1.64220E-20 5.17147E-19
 -1      1569 9.61609E-05-2.88363E-05-2.88564E-05 2.17024E-07-9.57590E-20 7.56191E-19
 -1      1570 9.64243E-05-2.89079E-05-2.89358E-05 2.34016E-07-2.32169E-20 1.23713E-18
 -1      1571 9.64596E-05-2.89032E-05-2.89545E-05 5.22209E-07-3.08249E-20 8.16086E-19
 -1      1572 9.57857E-05-2.87268E-05-2.87416E-05 1.52195E-07 5.59701E-19 1.40930E-18
 -1      1573 9.59720E-05-2.87765E-05-2.87979E-05 1.65628E-07 8.70161E-20 1.30373E-18
 -1      1574 9.60253E-05-2.87810E-05-2.88205E-05 3.75219E-07 5.96430E-20 1.50540E-18
 -1      1575 9.55241E-05-2.86507E-05-2.86614E-05 1.03156E-07 6.29305E-19 3.46192E-20
 -1      1576 9.56517E-05-2.86840E-05-2.87000E-05 1.13551E-07 5.35903E-19 8.54716E-19
 -1      1577 9.57123E-05-2.86938E-05-2.87235E-05 2.61959E-07 5.66995E-19 6.20643E-19
 -1      1578 9.53480E-05-2.85997E-05-2.86072E-05 6.68565E-08-2.81016E-19 4.28800E-19
 -1      1579 9.54319E-05-2.86209E-05-2.86328E-05 7.47402E-08-5.85110E-20-9.76464E-20
 -1      1580 9.54930E-05-2.86333E-05-2.86552E-05 1.76548E-07 2.03606E-19 3.69930E-19
 -1      1581 9.52350E-05-2.85672E-05-2.85723E-05 4.05929E-08 3.85454E-19 3.52226E-19
 -1      1582 9.52870E-05-2.85798E-05-2.85883E-05 4.64526E-08 4.66675E-19 5.50662E-19
 -1      1583 9.53445E-05-2.85929E-05-2.86087E-05 1.13514E-07 3.11617E-19 1.37426E-18
 -1      1584 9.51674E-05-2.85480E-05-2.85514E-05 2.20679E-08 3.67529E-19-2.00634E-18
 -1      1585 9.51968E-05-2.85545E-05-2.85605E-05 2.63324E-08 7.12581E-19-6.84549E-19
 -1      1586 9.52483E-05-2.85672E-05-2.85783E-05 6.80518E-08 1.12233E-18-4.76050E-19
 -1      1587 9.51318E-05-2.85381E-05-2.85402E-05 9.38747E-09 3.19749E-19-1.27096E-18
 -1      1588 9.51456E-05-2.85405E-05-2.85446E-05 1.24206E-08-5.04254E-19-1.80728E-18
 -1      1589 9.51901E-05-2.85521E-05-2.85597E-05 3.60989E-08-1.80208E-19-1.40258E-18
 -1      1590 9.51180E-05-2.85345E-05-2.85357E-05 1.02856E-09-7.62874E-19-1.07366E-18
 -1      1591 9.51213E-05-2.85343E-05-2.85369E-05 3.13049E-09 2.24905E-19-1.45389E-18
 -1      1592 9.51587E-05-2.85445E-05-2.85494E-05 1.43198E-08 2.93309E-19-9.22675E-19
 -1      1593 9.51183E-05-2.85350E-05-2.85356E-05-4.20683E-09-7.35056E-19 4.05039E-19
 -1      1594 9.51150E-05-2.85331E-05-2.85348E-05-2.79430E-09-3.43469E-19-5.42479E-19
 -1      1595 9.51457E-05-2.85418E-05-2.85448E-05 4.15823E-11-9.46041E-19-5.03940E-19
 -1      1596 9.51276E-05-2.85381E-05-2.85382E-05-7.24031E-09 3.76905E-19 6.93441E-19
 -1      1597 9.51203E-05-2.85353E-05-2.85362E-05-6.32674E-09-3.36052E-19 4.24273E-19
 -1      1598 9.51448E-05-2.85424E-05-2.85441E-05-8.83027E-09-6.87076E-19 5.49407E-19
 -1      1599 9.51418E-05-2.85425E-05-2.85424E-05-8.76299E-09 9.05794E-19-1.13242E-18
 -1      1600 9.51325E-05-2.85393E-05-2.85397E-05-8.20227E-09 8.01231E-19 8.46267E-20
 -1      1601 9.51514E-05-2.85450E-05-2.85458E-05-1.38992E-08 1.29276E-18 8.08256E-19
 -1      1602 9.51585E-05-2.85476E-05-2.85474E-05-9.27543E-09-1.92937E-18-3.43108E-19
 -1      1603 9.51483E-05-2.85443E-05-2.85444E-05-8.95942E-09-6.47179E-19-9.32078E-19
 -1      1604 9.51625E-05-2.85487E-05-2.85489E-05-1.63585E-08-4.20164E-19 1.41025E-18
 -1      1605 9.51758E-05-2.85529E-05-2.85526E-05-9.11936E-09 5.05708E-19 1.76371E-18
 -1      1606 9.51656E-05-2.85496E-05-2.85496E-05-8.97319E-09-5.49600E-19 5.77448E-19
 -1      1607 9.51758E-05-2.85529E-05-2.85528E-05-1.70603E-08-1.48418E-18 4.80826E-19
 -1      1608 9.51926E-05-2.85580E-05-2.85576E-05-8.49958E-09 8.41897E-19 2.82903E-19
 -1      1609 9.51830E-05-2.85550E-05-2.85548E-05-8.47941E-09 1.06774E-18 1.72400E-18
 -1      1610 9.51897E-05-2.85572E-05-2.85568E-05-1.65690E-08 1.57240E-18 1.39128E-18
 -1      1611 9.52079E-05-2.85626E-05-2.85621E-05-7.49597E-09 1.22676E-18-2.46817E-18
 -1      1612 9.51992E-05-2.85600E-05-2.85596E-05-7.58948E-09 1.16029E-18-7.13477E-19
 -1      1613 9.52031E-05-2.85614E-05-2.85608E-05-1.51969E-08 1.80340E-18 4.58419E-19
 -1      1614 9.52208E-05-2.85666E-05-2.85660E-05-6.07025E-09 1.14886E-19-3.85897E-18
 -1      1615 9.52136E-05-2.85644E-05-2.85639E-05-6.30018E-09 3.78932E-19-2.86027E-18
 -1      1616 9.52151E-05-2.85651E-05-2.85643E-05-1.30270E-08 1.23702E-18-3.68403E-19
 -1      1617 9.52305E-05-2.85696E-05-2.85688E-05-4.06352E-09 3.28257E-20-4.20235E-18
 -1      1618 9.52253E-05-2.85681E-05-2.85673E-05-4.50994E-09-1.19504E-19-3.64865E-18
 -1      1619 9.52251E-05-2.85684E-05-2.85671E-05-9.94140E-09-1.49640E-20-4.64599E-19
 -1      1620 9.52359E-05-2.85713E-05-2.85705E-05-1.52107E-09-3.45776E-19-3.89814E-18
 -1      1621 9.52335E-05-2.85707E-05-2.85697E-05-2.14286E-09 1.79197E-20-4.46413E-18
 -1      1622 9.52325E-05-2.85709E-05-2.85692E-05-5.74842E-09 9.97077E-20 2.46658E-19
 -1      1623 9.52371E-05-2.85715E-05-2.85710E-05-1.15888E-10-2.45920E-18-2.72517E-18
 -1      1624 9.52380E-05-2.85763E-05-2.85692E-05-3.40985E-09-5.55127E-19 1.48259E-18
 -1      1625 9.52371E-05-2.85736E-05-2.85701E-05-2.73735E-09-3.03006E-18 2.79169E-18
 -1      1626 9.52408E-05-2.85844E-05-2.85670E-05-5.49523E-09 1.01322E-18 1.30502E-18
 -1      1627 9.52391E-05-2.85796E-05-2.85683E-05-5.16736E-09-1.54112E-19 3.19570E-19
 -1      1628 9.52381E-05-2.85785E-05-2.85683E-05-8.30921E-09-6.49246E-19 1.83293E-18
 -1      1629 9.52441E-05-2.85944E-05-2.85642E-05-6.39563E-09-7.15192E-19-2.11359E-18
 -1      1630 9.52421E-05-2.85885E-05-2.85658E-05-6.31753E-09 6.51379E-19-2.05852E-19
 -1      1631 9.52411E-05-2.85859E-05-2.85664E-05-1.13779E-08 4.07537E-19-9.00386E-20
 -1      1632 9.52474E-05-2.86046E-05-2.85612E-05-6.23346E-09-3.01727E-18-2.37089E-18
 -1      1633 9.52455E-05-2.85987E-05-2.85629E-05-6.35044E-09-5.89605E-19-1.98898E-18
 -1      1634 9.52441E-05-2.85944E-05-2.85642E-05-1.22733E-08-3.90227E-19-3.04997E-18
 -1      1635 9.52502E-05-2.86134E-05-2.85586E-05-5.27608E-09-3.64332E-18 4.41290E-19
 -1      1636 9.52486E-05-2.86085E-05-2.85601E-05-5.52135E-09-3.76199E-18-1.25049E-18
 -1      1637 9.52470E-05-2.86026E-05-2.85620E-05-1.13255E-08-3.07903E-19-2.87028E-18
 -1      1638 9.52524E-05-2.86202E-05-2.85566E-05-3.73496E-09-3.27973E-18-7.45648E-19
 -1      1639 9.52512E-05-2.86166E-05-2.85577E-05-4.07455E-09-3.64493E-18 5.18779E-19
 -1      1640 9.52494E-05-2.86096E-05-2.85600E-05-9.01685E-09-1.69098E-18 4.23169E-19
 -1      1641 9.52536E-05-2.86241E-05-2.85555E-05-1.83925E-09-5.67034E-18-2.11419E-18
 -1      1642 9.52530E-05-2.86223E-05-2.85560E-05-2.22833E-09-3.47216E-18-1.60074E-18
 -1      1643 9.52511E-05-2.86147E-05-2.85586E-05-5.75447E-09-2.48265E-18-1.36458E-18
 -1      1644 9.52538E-05-2.86248E-05-2.85553E-05 2.17956E-10-4.99510E-18 6.12289E-19
 -1      1645 9.52538E-05-2.86248E-05-2.85553E-05-1.87003E-10-5.86196E-18 7.29861E-19
 -1      1646 9.52520E-05-2.86174E-05-2.85578E-05-1.95602E-09-2.06042E-18-1.55362E-18
 -1      1647 9.52530E-05-2.86222E-05-2.85560E-05 2.25809E-09-5.77605E-18-8.92392E-19
 -1      1648 9.52536E-05-2.86241E-05-2.85555E-05 1.86950E-09-5.02138E-18-5.04990E-19
 -1      1649 9.52520E-05-2.86174E-05-2.85578E-05 2.01514E-09-2.06728E-18 1.25863E-19
 -1      1650 9.52512E-05-2.86165E-05-2.85577E-05 4.10056E-09-7.03880E-18-1.56145E-18
 -1      1651 9.52523E-05-2.86201E-05-2.85567E-05 3.76279E-09-6.27746E-18-6.09607E-19
 -1      1652 9.52511E-05-2.86147E-05-2.85586E-05 5.81038E-09-2.89063E-18-1.53041E-18
 -1      1653 9.52486E-05-2.86084E-05-2.85601E-05 5.52555E-09-6.26828E-18 1.14564E-18
 -1      1654 9.52502E-05-2.86133E-05-2.85587E-05 5.28362E-09-6.97322E-18 4.87636E-19
 -1      1655 9.52494E-05-2.86095E-05-2.85600E-05 9.04322E-09-3.33597E-18-3.22249E-19
 -1      1656 9.52454E-05-2.85986E-05-2.85629E-05 6.35676E-09-5.70071E-18 1.19759E-18
 -1      1657 9.52473E-05-2.86044E-05-2.85613E-05 6.24260E-09-6.07935E-18 9.32545E-19
 -1      1658 9.52470E-05-2.86025E-05-2.85620E-05 1.13401E-08-2.64339E-18 1.64863E-18
 -1      1659 9.52421E-05-2.85884E-05-2.85659E-05 6.32872E-09-4.50120E-18 1.16764E-18
 -1      1660 9.52440E-05-2.85942E-05-2.85642E-05 6.39347E-09-5.37636E-18 2.22830E-18
 -1      1661 9.52441E-05-2.85942E-05-2.85642E-05 1.22759E-08-1.71726E-18 1.31993E-18
 -1      1662 9.52391E-05-2.85795E-05-2.85684E-05 5.14423E-09-2.16588E-18 9.27935E-19
 -1      1663 9.52408E-05-2.85843E-05-2.85670E-05 5.47577E-09-4.29920E-18 5.18050E-19
 -1      1664 9.52410E-05-2.85858E-05-2.85665E-05 1.13506E-08-1.11967E-18 1.28146E-18
 -1      1665 9.52369E-05-2.85742E-05-2.85698E-05 3.98198E-09-8.75182E-19 2.97464E-19
 -1      1666 9.52378E-05-2.85769E-05-2.85689E-05 4.96407E-09-1.07261E-18 7.83380E-19
 -1      1667 9.52379E-05-2.85790E-05-2.85680E-05 9.73009E-09 1.37232E-20 2.18300E-18
 -1      1668 9.52346E-05-2.85739E-05-2.85689E-05 7.73608E-09-3.48142E-19-3.18767E-20
 -1      1669 1.93461E-05-6.09973E-05 1.27441E-05-3.55887E-06 1.11876E-17 5.95951E-18
 -1      1670 2.25089E-05-7.13279E-05 1.51415E-05 2.95618E-06 5.65373E-18 4.46090E-18
 -1      1671 1.98672E-05-3.70175E-05 3.27131E-06 3.72253E-06 1.85094E-17 1.11895E-17
 -1      1672 2.40646E-05-5.89557E-05 9.24657E-06 1.26170E-07 1.38863E-17 7.08767E-18
 -1      1673 3.64720E-05-1.09286E-05-1.28467E-05 3.01301E-05 2.04076E-17 1.53940E-17
 -1      1674 2.95248E-05-3.11715E-05-3.83727E-06 1.13112E-05 1.93716E-17 1.23040E-17
 -1      1675 9.21581E-05-1.03927E-05-3.38910E-05 6.10067E-05 1.51577E-17 1.62935E-17
 -1      1676 6.22591E-05-1.35554E-05-2.27635E-05 3.80460E-05 1.77894E-17 1.46062E-17
 -1      1677 1.50899E-04-1.95375E-05-5.23928E-05 7.78226E-05 1.19279E-17 1.60631E-17
 -1      1678 1.09871E-04-5.59548E-06-4.36575E-05 6.86683E-05 1.57150E-17 1.77826E-17
 -1      1679 2.14800E-04-4.67387E-05-6.64236E-05 5.98583E-05 6.74381E-18 9.71801E-18
 -1      1680 1.73957E-04-2.65190E-05-5.96940E-05 7.21923E-05 1.02078E-17 1.42191E-17
 -1      1681 2.51074E-04-6.30363E-05-7.41020E-05 1.33370E-05 4.26566E-18-1.06557E-18
 -1      1682 2.29981E-04-5.14410E-05-7.10758E-05 4.61134E-05 5.87407E-18 6.17487E-18
 -1      1683 2.43917E-04-5.83593E-05-7.33083E-05-3.85862E-05 5.21391E-18-1.08518E-17
 -1      1684 2.56704E-04-6.57928E-05-7.50761E-05-3.94662E-06 3.52620E-18-4.73417E-18
 -1      1685 1.91457E-04-3.33942E-05-6.35445E-05-6.95064E-05 9.13716E-18-1.64612E-17
 -1      1686 2.29367E-04-5.30088E-05-6.93980E-05-5.17953E-05 6.11177E-18-1.26801E-17
 -1      1687 1.21745E-04-8.85099E-06-4.69249E-05-7.07899E-05 1.40209E-17-1.83840E-17
 -1      1688 1.68291E-04-2.66483E-05-5.62609E-05-7.65514E-05 1.07209E-17-1.72981E-17
 -1      1689 6.40545E-05-2.84760E-06-2.76211E-05-4.77461E-05 1.68322E-17-1.66908E-17
 -1      1690 9.54958E-05-3.45495E-06-3.76099E-05-6.92745E-05 1.55532E-17-1.90981E-17
 -1      1691 3.49938E-05-2.28102E-05-9.12739E-06-1.86510E-05 1.48502E-17-1.17073E-17
 -1      1692 4.68959E-05-6.36019E-06-1.83748E-05-3.96957E-05 1.64528E-17-1.53635E-17
 -1      1693 2.43177E-05-5.18906E-05 5.93130E-06-1.50133E-07 9.90097E-18-6.62221E-18
 -1      1694 2.17903E-05-2.77672E-05-1.11805E-06-9.38018E-06 1.41556E-17-1.00073E-17
 -1      1695 2.43093E-05-7.40274E-05 1.46594E-05 7.71952E-07 5.42525E-19-3.92070E-18
 -1      1696 1.93632E-05-5.83746E-05 1.10587E-05 5.82011E-06 7.36495E-18-5.85776E-18
 -1      1697 2.11209E-05-7.07329E-05 1.53480E-05-5.34425E-06-8.76954E-18-4.87976E-18
 -1      1698 2.21815E-05-7.34845E-05 1.57600E-05 4.00185E-06-1.92605E-18-4.00308E-18
 -1      1699 1.98232E-05-4.76314E-05 7.52010E-06 1.15868E-06-1.52271E-17-8.28928E-18
 -1      1700 2.41881E-05-6.63230E-05 1.23875E-05 1.93702E-06-1.03516E-17-5.50127E-18
 -1      1701 2.60310E-05-1.84676E-05-6.13028E-06 1.76105E-05-1.99713E-17-1.34051E-17
 -1      1702 2.56488E-05-4.24531E-05 1.97730E-06 4.34047E-06-1.83823E-17-9.54648E-18
 -1      1703 6.41930E-05-4.91643E-06-2.53951E-05 5.13145E-05-1.77487E-17-1.67950E-17
 -1      1704 4.45340E-05-1.62948E-05-1.51478E-05 2.78443E-05-1.89007E-17-1.42386E-17
 -1      1705 1.19237E-04-9.59660E-06-4.43641E-05 7.50021E-05-1.41488E-17-1.78224E-17
 -1      1706 8.24791E-05-1.99782E-06-3.48926E-05 5.82545E-05-1.74946E-17-1.77818E-17
 -1      1707 1.90719E-04-3.67671E-05-6.11065E-05 6.78954E-05-8.51692E-18-1.27241E-17
 -1      1708 1.45587E-04-1.73831E-05-5.27081E-05 6.99614E-05-1.22367E-17-1.59217E-17
 -1      1709 2.44520E-04-5.98555E-05-7.24231E-05 3.91894E-05-4.55746E-18-6.33157E-18
 -1      1710 2.12490E-04-4.24489E-05-6.78592E-05 6.38735E-05-6.97436E-18-1.13714E-17
 -1      1711 2.54288E-04-6.39406E-05-7.49691E-05-1.30075E-05-4.49182E-18 4.15830E-18
 -1      1712 2.51483E-04-6.23476E-05-7.46036E-05 2.24667E-05-4.37493E-18-2.87970E-18
 -1      1713 2.22418E-04-4.76539E-05-6.94385E-05-5.77770E-05-7.36019E-18 1.37711E-17
 -1      1714 2.49902E-04-6.28260E-05-7.34188E-05-3.01358E-05-4.83910E-18 7.64617E-18
 -1      1715 1.58945E-04-2.03298E-05-5.63072E-05-7.53692E-05-1.25446E-17 1.90599E-17
 -1      1716 2.03145E-04-4.10362E-05-6.38687E-05-6.88766E-05-8.65541E-18 1.62190E-17
 -1      1717 9.40371E-05-3.28537E-06-3.86255E-05-6.29786E-05-1.56794E-17 1.92480E-17
 -1      1718 1.33876E-04-1.38538E-05-4.80731E-05-7.72488E-05-1.35009E-17 1.99459E-17
 -1      1719 5.04741E-05-1.25062E-05-1.88560E-05-3.29559E-05-1.53830E-17 1.42369E-17
 -1      1720 7.40513E-05-5.02137E-06-2.90762E-05-5.62000E-05-1.55507E-17 1.79630E-17
 -1      1721 2.68427E-05-3.48005E-05-1.57048E-06-7.26191E-06-1.31290E-17 9.18226E-18
 -1      1722 3.08202E-05-1.35684E-05-9.80635E-06-2.37584E-05-1.58683E-17 1.32112E-17
 -1      1723 2.38929E-05-6.35234E-05 1.06535E-05 2.55216E-06-6.23416E-18 4.92870E-18
 -1      1724 1.88775E-05-4.17145E-05 5.09408E-06 1.42743E-07-1.12554E-17 7.50302E-18
 -1      1725 2.35515E-05-7.65913E-05 1.62027E-05-2.10751E-06 3.45759E-18 3.84765E-18
 -1      1726 2.06973E-05-6.83234E-05 1.42630E-05 6.97324E-06-3.58973E-18 4.32347E-18
 -1      1727 1.24310E-04-3.55505E-05-3.73494E-05 4.19575E-05 1.01953E-17 9.06325E-18
 -1      1728 8.20346E-05-3.84418E-05-1.92713E-05 4.06732E-05 1.06726E-17 8.73249E-18
 -1      1729 9.52365E-05-2.85719E-05-2.85705E-05-1.49580E-09-2.83075E-18 6.48693E-19
 -1      1730 9.52359E-05-2.85735E-05-2.85696E-05-4.69978E-09-8.03403E-19 2.18305E-18
 -1      1731 1.93209E-05-4.47903E-05 7.15281E-06 1.63439E-05 6.46117E-18 8.58362E-18
 -1      1732 4.11378E-05-4.10396E-05-2.92914E-06 2.88822E-05 1.00052E-17 1.01515E-17
 -1      1733 1.12657E-05-4.75301E-05 1.14110E-05 2.13420E-06 3.07690E-18 7.68555E-18
 -1      1734 1.64482E-04-3.12479E-05-5.38356E-05 4.09787E-05 1.01701E-17 7.86724E-18
 -1      1735 1.95939E-04-3.28643E-05-6.51996E-05 2.34802E-05 8.78924E-18 3.65241E-18
 -1      1736 2.11325E-04-3.37660E-05-7.04918E-05 1.06117E-06 7.59069E-18-1.54848E-18
 -1      1737 2.04710E-04-3.42331E-05-6.76995E-05-2.04014E-05 7.20613E-18-6.42220E-18
 -1      1738 1.74156E-04-3.19592E-05-5.70869E-05-3.75126E-05 8.35714E-18-8.56774E-18
 -1      1739 1.30995E-04-3.02940E-05-4.13361E-05-4.64280E-05 9.49185E-18-1.04914E-17
 -1      1740 8.65043E-05-3.28459E-05-2.35525E-05-4.29829E-05 9.16998E-18-1.09831E-17
 -1      1741 5.03746E-05-3.90687E-05-7.24263E-06-3.26808E-05 7.14388E-18-9.64834E-18
 -1      1742 2.48946E-05-4.69476E-05 5.33710E-06-1.82767E-05 3.87179E-18-8.32676E-18
 -1      1743 1.25048E-05-4.95034E-05 1.12409E-05-5.24995E-06-9.91452E-19-7.81684E-18
 -1      1744 1.45940E-05-4.54223E-05 9.41667E-06 1.15186E-05-4.71353E-18-8.01844E-18
 -1      1745 3.13902E-05-4.30221E-05 1.58657E-06 2.44868E-05-8.40934E-18-8.51310E-18
 -1      1746 6.25512E-05-3.75571E-05-1.24711E-05 3.67357E-05-1.10648E-17-9.64643E-18
 -1      1747 1.03352E-04-3.31285E-05-2.98488E-05 4.43926E-05-1.08543E-17-9.90097E-18
 -1      1748 1.47365E-04-3.18736E-05-4.70255E-05 4.24613E-05-1.00947E-17-8.73122E-18
 -1      1749 1.85117E-04-3.31785E-05-6.10714E-05 3.02737E-05-8.74710E-18-6.75763E-18
 -1      1750 2.10149E-04-3.46548E-05-6.96848E-05 1.48674E-05-7.77322E-18-2.92946E-18
 -1      1751 2.12539E-04-3.55940E-05-7.03072E-05-9.72275E-06-7.83040E-18 2.77022E-18
 -1      1752 1.93190E-04-3.40430E-05-6.35131E-05-3.17949E-05-8.74731E-18 8.01801E-18
 -1      1753 1.55020E-04-3.08279E-05-5.03391E-05-4.42607E-05-9.42007E-18 1.10063E-17
 -1      1754 1.11664E-04-3.26691E-05-3.32935E-05-4.44003E-05-8.33480E-18 1.12647E-17
 -1      1755 7.02486E-05-3.63130E-05-1.58418E-05-3.83505E-05-7.52673E-18 1.02440E-17
 -1      1756 3.62420E-05-4.20971E-05-7.74547E-07-2.50344E-05-5.73695E-18 8.67634E-18
 -1      1757 1.80700E-05-4.95892E-05 9.02922E-06-1.20839E-05-2.38440E-18 7.42086E-18
 -1      1758 1.11235E-04-2.48501E-05-3.71186E-05-1.44012E-05-2.13352E-18 6.96219E-18
 -1      1759 9.14069E-05-1.09090E-05-3.46386E-05-8.40647E-06-2.21256E-18-3.33683E-18
 -1      1760 9.38884E-05-1.23849E-05-3.50509E-05-1.03167E-05-2.72041E-18-2.57858E-18
 -1      1761 9.69706E-05-1.51838E-05-3.52217E-05-1.15106E-05-2.82195E-18-1.53927E-18
 -1      1762 9.95842E-05-1.75247E-05-3.56283E-05-1.34640E-05-3.15125E-18-1.10538E-19
 -1      1763 9.75468E-05-1.74316E-05-3.43409E-05-8.90681E-06-2.93046E-18-1.82750E-18
 -1      1764 8.35314E-05-5.90102E-06-3.33477E-05-3.60182E-06-8.96598E-19-4.54052E-18
 -1      1765 8.50724E-05-6.57280E-06-3.36796E-05-4.67018E-06-1.24753E-18-4.46590E-18
 -1      1766 8.08310E-05-4.37451E-06-3.28262E-05-2.06944E-06-2.41739E-19-4.62812E-18
 -1      1767 8.20032E-05-4.85766E-06-3.30882E-05-2.85435E-06-5.61335E-19-4.61426E-18
 -1      1768 8.38990E-05-7.24830E-06-3.28725E-05-2.74281E-06-8.26171E-19-4.39283E-18
 -1      1769 7.90507E-05-3.38919E-06-3.24709E-05-9.99748E-07 4.04577E-19-4.49479E-18
 -1      1770 7.97726E-05-3.67673E-06-3.26361E-05-1.57472E-06 1.20808E-19-4.57402E-18
 -1      1771 8.11704E-05-5.52962E-06-3.24354E-05-1.51289E-06-4.45106E-20-4.38363E-18
 -1      1772 7.82982E-05-2.96487E-06-3.23188E-05-1.97936E-07 1.03543E-18-4.38708E-18
 -1      1773 7.85223E-05-3.05020E-06-3.23725E-05-6.68931E-07 7.49040E-19-4.50776E-18
 -1      1774 7.94963E-05-4.50477E-06-3.21536E-05-6.88754E-07 6.11830E-19-4.33470E-18
 -1      1775 7.86236E-05-3.11643E-06-3.23855E-05 5.66646E-07 1.57260E-18-4.09696E-18
 -1      1776 7.83361E-05-2.99771E-06-3.23232E-05 8.50000E-08 1.32805E-18-4.27876E-18
 -1      1777 7.89836E-05-4.20388E-06-3.20618E-05-7.25619E-08 1.25287E-18-4.17847E-18
 -1      1778 7.99903E-05-3.83043E-06-3.26625E-05 1.52977E-06 2.11047E-18-3.78108E-18
 -1      1779 7.92195E-05-3.51479E-06-3.24913E-05 9.25150E-07 1.84133E-18-4.01312E-18
 -1      1780 7.96613E-05-4.63443E-06-3.21700E-05 5.72228E-07 1.84301E-18-3.93835E-18
 -1      1781 8.22430E-05-5.04512E-06-3.31110E-05 2.87211E-06 2.59770E-18-3.17044E-18
 -1      1782 8.10716E-05-4.55634E-06-3.28527E-05 2.06233E-06 2.34352E-18-3.53596E-18
 -1      1783 8.14449E-05-5.75206E-06-3.24596E-05 1.46522E-06 2.36930E-18-3.53437E-18
 -1      1784 8.53412E-05-6.79765E-06-3.37005E-05 4.79880E-06 3.15546E-18-2.18781E-18
 -1      1785 8.37792E-05-6.10588E-06-3.33678E-05 3.67022E-06 2.83330E-18-2.76456E-18
 -1      1786 8.42089E-05-7.51564E-06-3.28938E-05 2.78460E-06 2.88720E-18-2.78038E-18
 -1      1787 8.92198E-05-9.18999E-06-3.43683E-05 7.39439E-06 3.58681E-18-6.94117E-19
 -1      1788 8.72851E-05-8.22817E-06-3.39880E-05 5.88295E-06 3.30307E-18-1.53903E-18
 -1      1789 8.78716E-05-9.96135E-06-3.34180E-05 4.63172E-06 3.38379E-18-1.67364E-18
 -1      1790 9.40982E-05-1.26689E-05-3.50384E-05 1.06234E-05 3.83807E-18 1.53792E-18
 -1      1791 9.16295E-05-1.11655E-05-3.46357E-05 8.69885E-06 3.63377E-18 1.90953E-19
 -1      1792 9.24096E-05-1.32585E-05-3.39399E-05 6.93797E-06 3.77644E-18-6.75509E-20
 -1      1793 1.01088E-04-1.86829E-05-3.55006E-05 1.36754E-05 3.41774E-18 5.39295E-18
 -1      1794 9.73328E-05-1.56670E-05-3.51812E-05 1.18201E-05 3.55994E-18 3.11512E-18
 -1      1795 9.80849E-05-1.80124E-05-3.43045E-05 9.18936E-06 3.80067E-18 2.32640E-18
 -1      1796 1.07788E-04-2.70162E-05-3.50351E-05 1.12990E-05 2.69081E-18 9.78831E-18
 -1      1797 1.03700E-04-2.14524E-05-3.52533E-05 1.33358E-05 3.07329E-18 6.92651E-18
 -1      1798 1.03087E-04-2.36758E-05-3.40930E-05 9.18709E-06 3.47681E-18 5.32834E-18
 -1      1799 1.05459E-04-2.82580E-05-3.32773E-05 6.31495E-06 2.76697E-18 8.87537E-18
 -1      1800 1.05882E-04-2.14827E-05-3.58741E-05-1.54129E-05-2.80490E-18 2.46614E-18
 -1      1801 1.03661E-04-2.97889E-05-3.16732E-05 9.75444E-07 2.24104E-18 7.42578E-18
 -1      1802 1.05086E-04-2.96258E-05-3.23746E-05 3.33095E-06 2.38556E-18 8.23188E-18
 -1      1803 1.04412E-04-2.77429E-05-3.28635E-05 5.05497E-06 2.86318E-18 6.18828E-18
 -1      1804 1.05592E-04-2.43818E-05-3.45323E-05-1.06298E-05-2.96864E-18 1.44848E-18
 -1      1805 1.04538E-04-2.92032E-05-3.21688E-05-1.88693E-06-2.40909E-18 1.24666E-18
 -1      1806 1.03759E-04-2.95217E-05-3.17719E-05-2.73462E-08-2.06916E-18 6.67912E-19
 -1      1807 1.03635E-04-2.99043E-05-3.15032E-05 1.61454E-06-1.79830E-18 6.47702E-19
 -1      1808 1.03964E-04-3.03289E-05-3.15149E-05 2.55664E-06-1.49533E-18 1.07567E-19
 -1      1809 1.03131E-04-2.86752E-05-3.19438E-05 4.82191E-07-2.23908E-18-2.10468E-19
 -1      1810 1.04278E-04-3.06747E-05-3.14873E-05 3.49305E-06-1.19771E-18 1.86923E-19
 -1      1811 1.05126E-04-3.11723E-05-3.16773E-05 3.93736E-06-9.46458E-19-9.55923E-20
 -1      1812 1.03485E-04-2.98659E-05-3.15813E-05 3.44245E-06-1.54314E-18-2.68638E-19
 -1      1813 1.05809E-04-3.16154E-05-3.17681E-05 4.31897E-06-8.12222E-19-2.71646E-20
 -1      1814 1.06884E-04-3.22026E-05-3.20181E-05 4.32658E-06-6.92386E-19-1.92826E-19
 -1      1815 1.04614E-04-3.09963E-05-3.15762E-05 4.97334E-06-1.00475E-18-4.21750E-19
 -1      1816 1.07827E-04-3.27747E-05-3.21517E-05 4.13540E-06-5.40127E-19 4.79533E-20
 -1      1817 1.08843E-04-3.33996E-05-3.23742E-05 3.64692E-06-3.35839E-19-1.37008E-19
 -1      1818 1.06354E-04-3.23484E-05-3.17372E-05 5.25607E-06-6.41571E-19-2.64516E-19
 -1      1819 1.09907E-04-3.40683E-05-3.24978E-05 2.78728E-06-3.49183E-19-2.99439E-21
 -1      1820 1.10552E-04-3.46072E-05-3.26152E-05 1.73236E-06-3.90429E-19 2.92111E-20
 -1      1821 1.08479E-04-3.39655E-05-3.19464E-05 4.17457E-06-4.15394E-19 1.23242E-19
 -1      1822 1.11527E-04-3.52419E-05-3.26973E-05 1.49850E-07-3.56217E-19-1.29834E-20
 -1      1823 1.11477E-04-3.54741E-05-3.26504E-05-1.42322E-06-3.28993E-19 6.18003E-20
 -1      1824 1.10638E-04-3.56472E-05-3.21371E-05 1.55766E-06-4.28268E-19 2.43144E-19
 -1      1825 1.12040E-04-3.58010E-05-3.26890E-05-3.55858E-06-5.05785E-19 2.82854E-19
 -1      1826 1.11050E-04-3.54333E-05-3.24638E-05-5.32069E-06-5.25935E-19 4.63532E-19
 -1      1827 1.12273E-04-3.68494E-05-3.22999E-05-2.50295E-06-2.80315E-19 4.37631E-19
 -1      1828 1.10814E-04-3.50830E-05-3.24904E-05-7.40249E-06-8.23561E-19 2.55625E-19
 -1      1829 1.08905E-04-3.39125E-05-3.21407E-05-8.65627E-06-1.06518E-18-3.94717E-19
 -1      1830 1.12614E-04-3.66934E-05-3.24876E-05-7.21460E-06-9.89351E-19 2.30519E-19
 -1      1831 1.07687E-04-3.26834E-05-3.21957E-05-9.61366E-06-1.14751E-18-8.87333E-19
 -1      1832 1.05350E-04-3.09164E-05-3.18368E-05-9.48597E-06-1.20989E-18-1.28928E-18
 -1      1833 1.11016E-04-3.44226E-05-3.27773E-05-1.07610E-05-1.55493E-18 9.37361E-21
 -1      1834 1.03617E-04-2.92254E-05-3.19247E-05-8.29694E-06-1.24725E-18-1.83348E-18
 -1      1835 1.01793E-04-2.76629E-05-3.16850E-05-6.36835E-06-1.30470E-18-2.37517E-18
 -1      1836 1.07755E-04-3.03676E-05-3.31712E-05-1.07129E-05-1.60220E-18-6.58912E-19
 -1      1837 1.00692E-04-2.65761E-05-3.17559E-05-3.06692E-06-1.26847E-18-2.79768E-18
 -1      1838 1.00314E-04-2.61875E-05-3.17230E-05 5.90359E-09-1.18447E-18-3.08672E-18
 -1      1839 1.04597E-04-2.65652E-05-3.35275E-05-5.75333E-06-1.60791E-18-1.87994E-18
 -1      1840 1.00750E-04-2.65527E-05-3.17306E-05 3.88747E-06-1.37908E-18-3.69231E-18
 -1      1841 1.02076E-04-2.76249E-05-3.19244E-05 6.60601E-06-1.75454E-18-4.13839E-18
 -1      1842 1.03841E-04-2.55729E-05-3.36530E-05 2.39615E-06-1.71249E-18-2.87731E-18
 -1      1843 1.03755E-04-2.91692E-05-3.18833E-05 9.06998E-06-1.80792E-18-4.29397E-18
 -1      1844 1.06155E-04-3.10152E-05-3.22522E-05 1.02049E-05-1.19213E-18-4.29687E-18
 -1      1845 1.06177E-04-2.81515E-05-3.34892E-05 9.54880E-06-1.98372E-18-3.87211E-18
 -1      1846 1.07897E-04-3.26368E-05-3.22199E-05 1.03536E-05-9.11243E-19-4.71767E-18
 -1      1847 1.10352E-04-3.42659E-05-3.26522E-05 9.77260E-06-6.75687E-19-4.81931E-18
 -1      1848 1.09943E-04-3.24794E-05-3.31721E-05 1.23139E-05-1.32522E-18-4.32016E-18
 -1      1849 1.11261E-04-3.51439E-05-3.26538E-05 8.16334E-06-3.25056E-19-4.97253E-18
 -1      1850 1.12999E-04-3.60160E-05-3.30176E-05 6.57778E-06 1.90516E-20-4.99885E-18
 -1      1851 1.12841E-04-3.59620E-05-3.28926E-05 1.04731E-05-6.57212E-19-4.32647E-18
 -1      1852 1.12936E-04-3.60558E-05-3.30232E-05 4.34977E-06 2.21949E-20-4.68161E-18
 -1      1853 1.13685E-04-3.61884E-05-3.32238E-05 2.59813E-06 1.84455E-19-4.49770E-18
 -1      1854 1.13759E-04-3.73192E-05-3.27182E-05 6.09743E-06 1.90040E-19-3.97725E-18
 -1      1855 1.12962E-04-3.57144E-05-3.31869E-05 6.24133E-07 1.41177E-19-4.22887E-18
 -1      1856 1.12832E-04-3.53811E-05-3.31973E-05-7.71733E-07 5.56732E-19-4.10275E-18
 -1      1857 1.12921E-04-3.68346E-05-3.25904E-05 1.44741E-06 2.75127E-19-3.08625E-18
 -1      1858 1.11802E-04-3.47344E-05-3.30927E-05-2.12514E-06 1.06465E-18-4.15727E-18
 -1      1859 1.11061E-04-3.42008E-05-3.29417E-05-3.00064E-06 9.96428E-19-4.24715E-18
 -1      1860 1.11070E-04-3.54155E-05-3.24212E-05-2.17232E-06 7.80902E-19-3.15609E-18
 -1      1861 1.09959E-04-3.35828E-05-3.27718E-05-3.72396E-06 8.82079E-19-3.77840E-18
 -1      1862 1.08884E-04-3.30178E-05-3.25142E-05-4.13254E-06 6.77248E-19-3.27490E-18
 -1      1863 1.08841E-04-3.38096E-05-3.21619E-05-4.40363E-06 1.31269E-18-2.68347E-18
 -1      1864 1.07830E-04-3.25054E-05-3.22989E-05-4.37189E-06 7.79394E-20-2.60043E-18
 -1      1865 1.06637E-04-3.19906E-05-3.19901E-05-4.44723E-06 4.92692E-19-1.94557E-18
 -1      1866 1.06609E-04-3.23999E-05-3.18123E-05-5.41999E-06 8.23226E-19-1.46024E-18
 -1      1867 1.05684E-04-3.15920E-05-3.17543E-05-4.37431E-06 3.02362E-19-2.02342E-18
 -1      1868 1.04516E-04-3.11557E-05-3.14375E-05-4.24908E-06 4.90051E-19-2.01235E-18
 -1      1869 1.04551E-04-3.12998E-05-3.14026E-05-5.57423E-06 3.94263E-19-1.09103E-18
 -1      1870 1.03682E-04-3.08533E-05-3.12029E-05-4.00491E-06 2.00897E-19-1.94285E-18
 -1      1871 1.02621E-04-3.04982E-05-3.09061E-05-3.78014E-06-1.31474E-19-2.41713E-18
 -1      1872 1.02734E-04-3.04894E-05-3.09712E-05-5.20603E-06 4.25052E-19-1.34883E-18
 -1      1873 1.01908E-04-3.02705E-05-3.06877E-05-3.46277E-06-2.37813E-19-2.28382E-18
 -1      1874 1.00992E-04-2.99888E-05-3.04257E-05-3.20470E-06-1.63558E-20-2.70592E-18
 -1      1875 1.01173E-04-2.99077E-05-3.05512E-05-4.57391E-06-8.62733E-20-1.61337E-18
 -1      1876 1.00396E-04-2.98173E-05-3.02322E-05-2.87492E-06 1.96072E-19-3.22343E-18
 -1      1877 9.96341E-05-2.95980E-05-3.00108E-05-2.62218E-06 4.84811E-20-3.21691E-18
 -1      1878 9.98606E-05-2.94937E-05-3.01655E-05-3.84995E-06 2.21155E-20-2.01507E-18
 -1      1879 9.91441E-05-2.94690E-05-2.98457E-05-2.31372E-06 9.42854E-20-2.47345E-18
 -1      1880 9.85290E-05-2.93011E-05-2.96645E-05-2.08598E-06 7.18291E-20-2.45031E-18
 -1      1881 9.87775E-05-2.91996E-05-2.98267E-05-3.13695E-06 3.00512E-19-1.35586E-18
 -1      1882 9.81341E-05-2.92043E-05-2.95279E-05-1.81484E-06 8.42781E-20-2.47798E-18
 -1      1883 9.76494E-05-2.90779E-05-2.93836E-05-1.62003E-06 6.46251E-19-1.95797E-18
 -1      1884 9.78998E-05-2.89905E-05-2.95393E-05-2.48928E-06 1.05401E-19-8.22338E-19
 -1      1885 9.73369E-05-2.90056E-05-2.92733E-05-1.39144E-06 3.47558E-19-1.98819E-18
 -1      1886 9.69633E-05-2.89122E-05-2.91610E-05-1.23074E-06-3.49873E-19-2.05559E-18
 -1      1887 9.72009E-05-2.88423E-05-2.93024E-05-1.93031E-06 3.39068E-19-6.31379E-19
 -1      1888 9.67204E-05-2.88589E-05-2.90740E-05-1.04390E-06-5.43528E-19-1.83443E-18
 -1      1889 9.64385E-05-2.87911E-05-2.89885E-05-9.14986E-07-3.92999E-19-1.55347E-18
 -1      1890 9.66540E-05-2.87380E-05-2.91119E-05-1.46505E-06-3.71689E-20-1.07708E-18
 -1      1891 9.62531E-05-2.87524E-05-2.89213E-05-7.66029E-07 1.34285E-19-1.21627E-18
 -1      1892 9.60449E-05-2.87043E-05-2.88576E-05-6.64975E-07-7.81851E-21-6.60651E-19
 -1      1893 9.62337E-05-2.86657E-05-2.89619E-05-1.08844E-06-2.60860E-20-6.18579E-19
 -1      1894 9.59061E-05-2.86767E-05-2.88066E-05-5.48750E-07-7.35046E-19-8.51596E-20
 -1      1895 9.57558E-05-2.86437E-05-2.87602E-05-4.71166E-07-5.13890E-19 4.18292E-19
 -1      1896 9.59164E-05-2.86166E-05-2.88462E-05-7.90585E-07 1.66029E-19 1.09648E-18
 -1      1897 9.56540E-05-2.86245E-05-2.87224E-05-3.82273E-07-5.72143E-19 3.64961E-19
 -1      1898 9.55484E-05-2.86025E-05-2.86893E-05-3.23885E-07 5.07831E-19 5.90535E-19
 -1      1899 9.56817E-05-2.85843E-05-2.87588E-05-5.59835E-07-7.67002E-19 1.59083E-18
 -1      1900 9.54755E-05-2.85896E-05-2.86620E-05-2.57216E-07 4.77881E-20-6.22446E-19
 -1      1901 9.54036E-05-2.85758E-05-2.86391E-05-2.14158E-07-5.16803E-19-9.82075E-19
 -1      1902 9.55119E-05-2.85641E-05-2.86940E-05-3.84549E-07-5.07469E-19 1.08894E-18
 -1      1903 9.53528E-05-2.85675E-05-2.86198E-05-1.65162E-07-7.39166E-19-1.16516E-18
 -1      1904 9.53060E-05-2.85594E-05-2.86046E-05-1.34096E-07-6.21481E-19-9.49357E-19
 -1      1905 9.53921E-05-2.85524E-05-2.86472E-05-2.53990E-07-1.04733E-18 5.32466E-19
 -1      1906 9.52718E-05-2.85545E-05-2.85914E-05-9.88762E-08-1.05494E-19-1.33281E-18
 -1      1907 9.52432E-05-2.85504E-05-2.85818E-05-7.70092E-08 1.04142E-20-1.37565E-18
 -1      1908 9.53102E-05-2.85467E-05-2.86142E-05-1.58747E-07-4.48528E-19 7.70915E-19
 -1      1909 9.52213E-05-2.85478E-05-2.85731E-05-5.23234E-08 1.03822E-18-2.18141E-18
 -1      1910 9.52054E-05-2.85465E-05-2.85675E-05-3.73784E-08 1.20107E-18-8.84702E-19
 -1      1911 9.52565E-05-2.85448E-05-2.85916E-05-9.08469E-08 2.44901E-19-2.04478E-20
 -1      1912 9.51924E-05-2.85454E-05-2.85621E-05-2.05944E-08 5.29563E-19-1.00207E-18
 -1      1913 9.51854E-05-2.85458E-05-2.85594E-05-1.07545E-08-1.24970E-19-6.53147E-19
 -1      1914 9.52234E-05-2.85455E-05-2.85769E-05-4.37176E-08 7.83108E-19 8.42137E-20
 -1      1915 9.51786E-05-2.85459E-05-2.85563E-05 2.19411E-10 1.31483E-19-1.71879E-19
 -1      1916 9.51775E-05-2.85473E-05-2.85555E-05 6.37388E-09 5.14930E-19 1.68280E-19
 -1      1917 9.52048E-05-2.85476E-05-2.85678E-05-1.20651E-08 4.72820E-19 4.21298E-19
 -1      1918 9.51750E-05-2.85480E-05-2.85541E-05 1.31645E-08-5.12993E-19-3.53158E-19
 -1      1919 9.51776E-05-2.85500E-05-2.85545E-05 1.67182E-08-5.08220E-19-3.68684E-19
 -1      1920 9.51965E-05-2.85506E-05-2.85628E-05 8.28493E-09-6.92392E-19 3.25727E-19
 -1      1921 9.51778E-05-2.85511E-05-2.85542E-05 2.05604E-08-3.67438E-19-7.98499E-19
 -1      1922 9.51827E-05-2.85534E-05-2.85553E-05 2.23191E-08-4.07043E-19 2.12890E-19
 -1      1923 9.51949E-05-2.85540E-05-2.85606E-05 2.05502E-08-3.37196E-19 5.79668E-19
 -1      1924 9.51846E-05-2.85546E-05-2.85557E-05 2.41211E-08 5.65422E-19 5.58483E-19
 -1      1925 9.51906E-05-2.85570E-05-2.85572E-05 2.46590E-08 7.48517E-19 1.00311E-18
 -1      1926 9.51976E-05-2.85574E-05-2.85602E-05 2.71451E-08 3.43022E-21 6.18689E-19
 -1      1927 9.51935E-05-2.85583E-05-2.85580E-05 2.50574E-08 6.76528E-20 1.66564E-18
 -1      1928 9.51998E-05-2.85606E-05-2.85596E-05 2.47541E-08 6.94717E-19 2.72628E-18
 -1      1929 9.52029E-05-2.85608E-05-2.85610E-05 2.98147E-08 1.02747E-18 1.38264E-18
 -1      1930 9.52032E-05-2.85619E-05-2.85606E-05 2.41577E-08 1.24373E-19 2.58378E-18
 -1      1931 9.52093E-05-2.85641E-05-2.85622E-05 2.32255E-08 4.27850E-19 1.84280E-18
 -1      1932 9.52095E-05-2.85640E-05-2.85624E-05 2.97460E-08 1.79777E-19 4.09499E-18
 -1      1933 9.52128E-05-2.85654E-05-2.85632E-05 2.18528E-08 1.96548E-19 8.09203E-19
 -1      1934 9.52183E-05-2.85674E-05-2.85647E-05 2.03594E-08 5.48829E-19 4.80833E-19
 -1      1935 9.52165E-05-2.85671E-05-2.85640E-05 2.76573E-08-3.81789E-19 1.12524E-18
 -1      1936 9.52216E-05-2.85687E-05-2.85656E-05 1.82966E-08 5.22727E-19-2.46751E-19
 -1      1937 9.52262E-05-2.85705E-05-2.85668E-05 1.61767E-08 7.35135E-19-5.56189E-19
 -1      1938 9.52233E-05-2.85702E-05-2.85656E-05 2.39072E-08-5.03669E-20 7.63404E-19
 -1      1939 9.52287E-05-2.85716E-05-2.85674E-05 1.35672E-08 1.55141E-18-7.25093E-19
 -1      1940 9.52322E-05-2.85731E-05-2.85683E-05 1.08647E-08 1.04374E-18-6.36895E-20
 -1      1941 9.52339E-05-2.85751E-05-2.85680E-05 1.26831E-08 8.71339E-19 8.81739E-19
 -1      1942 9.52292E-05-2.85730E-05-2.85669E-05 1.87730E-08 9.12669E-19 9.15975E-19
 -1      1943 1.03405E-04-3.03798E-05-3.12624E-05-1.58581E-06 1.63053E-18 6.21509E-18
 -1      1944 1.03535E-04-3.01666E-05-3.13819E-05-4.38755E-07 1.84079E-18 6.94007E-18
 -1      1945 1.03537E-04-2.95137E-05-3.17415E-05 2.06979E-07 2.23574E-18 5.19512E-18
 -1      1946 1.04333E-04-3.10109E-05-3.14020E-05-2.90395E-06 1.00114E-18 5.22073E-18
 -1      1947 1.03731E-04-3.06786E-05-3.12593E-05-2.30260E-06 1.13650E-18 5.73225E-18
 -1      1948 1.03631E-04-3.03469E-05-3.14255E-05-2.40265E-06 1.57415E-18 4.24790E-18
 -1      1949 1.05959E-04-3.18031E-05-3.17783E-05-3.35794E-06 8.00452E-19 4.69928E-18
 -1      1950 1.05013E-04-3.13811E-05-3.15328E-05-3.14162E-06 7.27987E-19 5.02485E-18
 -1      1951 1.04653E-04-3.11582E-05-3.15166E-05-3.67497E-06 1.05935E-18 3.55844E-18
 -1      1952 1.07797E-04-3.27032E-05-3.21973E-05-2.96391E-06 4.00513E-19 4.37084E-18
 -1      1953 1.06816E-04-3.22568E-05-3.19506E-05-3.14440E-06 4.98735E-19 4.65175E-18
 -1      1954 1.06233E-04-3.21167E-05-3.17793E-05-3.87952E-06 5.90008E-19 3.22105E-18
 -1      1955 1.09343E-04-3.35678E-05-3.25017E-05-1.61260E-06 6.36949E-19 4.36626E-18
 -1      1956 1.08632E-04-3.31961E-05-3.23409E-05-2.25722E-06 3.92229E-19 4.43711E-18
 -1      1957 1.07981E-04-3.31911E-05-3.20582E-05-2.98767E-06 4.78048E-19 3.06920E-18
 -1      1958 1.10051E-04-3.41502E-05-3.25587E-05 7.30821E-07 3.81085E-19 4.37706E-18
 -1      1959 1.09918E-04-3.39938E-05-3.25606E-05-4.04421E-07 5.47316E-19 4.50779E-18
 -1      1960 1.09449E-04-3.42053E-05-3.22380E-05-9.11488E-07 5.33538E-19 3.19513E-18
 -1      1961 1.09396E-04-3.40973E-05-3.22899E-05 3.77327E-06 1.70386E-19 4.03188E-18
 -1      1962 1.10095E-04-3.43238E-05-3.25005E-05 2.28795E-06 2.98606E-19 4.10002E-18
 -1      1963 1.10114E-04-3.48089E-05-3.22461E-05 2.23629E-06 3.43075E-19 3.41684E-18
 -1      1964 1.07077E-04-3.30604E-05-3.17180E-05 6.65091E-06-3.73049E-19 4.51629E-18
 -1      1965 1.08678E-04-3.37882E-05-3.21212E-05 5.24227E-06-3.65217E-19 4.03501E-18
 -1      1966 1.09452E-04-3.45141E-05-3.20732E-05 5.83802E-06-2.16106E-19 3.56753E-18
 -1      1967 1.03364E-04-3.09974E-05-3.09932E-05 7.97073E-06 5.23631E-19 4.55038E-18
 -1      1968 1.05594E-04-3.21504E-05-3.14911E-05 7.31930E-06 3.04015E-19 4.62292E-18
 -1      1969 1.07208E-04-3.29467E-05-3.17850E-05 8.58947E-06 1.59437E-19 3.66035E-18
 -1      1970 9.93911E-05-2.85289E-05-3.03568E-05 6.46191E-06 1.20133E-18 3.45634E-18
 -1      1971 1.01568E-04-2.97205E-05-3.07892E-05 7.16260E-06 7.87185E-19 3.87741E-18
 -1      1972 1.03838E-04-3.03196E-05-3.14981E-05 8.81792E-06 9.83511E-19 2.89503E-18
 -1      1973 9.69364E-05-2.68866E-05-3.00386E-05 2.08082E-06 2.03678E-18 2.42190E-18
 -1      1974 9.81700E-05-2.75304E-05-3.02470E-05 4.11086E-06 1.75634E-18 3.22108E-18
 -1      1975 1.00723E-04-2.77328E-05-3.13196E-05 5.52469E-06 1.85679E-18 2.00200E-18
 -1      1976 9.74156E-05-2.71224E-05-3.01642E-05-3.42111E-06 1.51505E-18 1.20718E-18
 -1      1977 9.70794E-05-2.68299E-05-3.00610E-05-9.20340E-07 1.65685E-18 1.80013E-18
 -1      1978 9.95707E-05-2.66671E-05-3.13009E-05-4.28750E-07 2.07605E-18 1.32925E-18
 -1      1979 1.00720E-04-2.91277E-05-3.07103E-05-7.50610E-06 5.76988E-19-5.15631E-20
 -1      1980 9.89043E-05-2.80519E-05-3.03213E-05-5.67480E-06 1.04214E-18 5.54132E-19
 -1      1981 1.01160E-04-2.78432E-05-3.14536E-05-6.37211E-06 1.51611E-18 1.59725E-19
 -1      1982 1.05309E-04-3.17697E-05-3.15122E-05-8.62835E-06-1.32690E-19-6.92449E-19
 -1      1983 1.02755E-04-3.04576E-05-3.09642E-05-8.10803E-06 1.75425E-19-3.94532E-19
 -1      1984 1.04654E-04-3.05415E-05-3.17552E-05-9.66206E-06 5.70728E-19-1.15827E-18
 -1      1985 1.09347E-04-3.38354E-05-3.23311E-05-7.03306E-06 4.92937E-19-1.01309E-18
 -1      1986 1.06964E-04-3.28067E-05-3.17927E-05-7.67614E-06 5.78299E-20-1.11372E-18
 -1      1987 1.08332E-04-3.32782E-05-3.21423E-05-9.42393E-06 4.28076E-19-1.71287E-18
 -1      1988 1.11770E-04-3.48117E-05-3.29452E-05-4.06300E-06 1.66363E-19-6.76750E-19
 -1      1989 1.10164E-04-3.42807E-05-3.25553E-05-5.28978E-06 7.28700E-19-5.31573E-19
 -1      1990 1.10834E-04-3.49411E-05-3.25099E-05-6.66338E-06 3.86412E-19-1.91384E-18
 -1      1991 1.12422E-04-3.48213E-05-3.32298E-05-1.04811E-06-3.77075E-19-1.68039E-18
 -1      1992 1.11769E-04-3.47418E-05-3.30533E-05-2.30224E-06-1.18869E-19-1.15338E-18
 -1      1993 1.11726E-04-3.53229E-05-3.27428E-05-3.03687E-06 2.21294E-19-2.15542E-18
 -1      1994 1.11679E-04-3.42383E-05-3.31750E-05 1.25734E-06-3.73561E-19-1.73306E-18
 -1      1995 1.11847E-04-3.44578E-05-3.32042E-05 2.88875E-07-5.62900E-19-2.10120E-18
 -1      1996 1.11246E-04-3.47983E-05-3.27704E-05 1.87283E-07-2.27938E-19-2.88563E-18
 -1      1997 1.10058E-04-3.34006E-05-3.28508E-05 2.66020E-06 1.02041E-20-4.41010E-19
 -1      1998 1.10791E-04-3.37722E-05-3.30347E-05 2.06052E-06-2.86109E-19-8.45842E-19
 -1      1999 1.09868E-04-3.38515E-05-3.25869E-05 2.44188E-06-5.50055E-19-1.99093E-18
 -1      2000 1.08015E-04-3.25230E-05-3.23574E-05 3.28742E-06 1.40208E-18-6.36181E-19
 -1      2001 1.09052E-04-3.29433E-05-3.26330E-05 3.00781E-06 7.12403E-19-1.44287E-19
 -1      2002 1.08028E-04-3.28253E-05-3.22361E-05 3.68671E-06 6.21191E-19-1.18954E-18
 -1      2003 1.05873E-04-3.17133E-05-3.17889E-05 3.37119E-06 1.86243E-19-7.00099E-19
 -1      2004 1.07013E-04-3.21217E-05-3.21012E-05 3.31845E-06 9.42452E-19-8.19577E-19
 -1      2005 1.06043E-04-3.18918E-05-3.17831E-05 4.13376E-06 1.04932E-18-9.03443E-19
 -1      2006 1.03837E-04-3.10136E-05-3.12162E-05 3.13082E-06-1.96850E-18 2.66049E-19
 -1      2007 1.04945E-04-3.13798E-05-3.15261E-05 3.21562E-06-1.01586E-18-3.36292E-19
 -1      2008 1.04114E-04-3.11093E-05-3.12899E-05 4.05083E-06-1.01301E-18-1.82754E-19
 -1      2009 1.02017E-04-3.04319E-05-3.06844E-05 2.73107E-06-5.82487E-19 7.62998E-19
 -1      2010 1.03017E-04-3.07443E-05-3.09682E-05 2.88552E-06-1.18371E-18 4.33089E-19
 -1      2011 1.02355E-04-3.04801E-05-3.08048E-05 3.66779E-06-1.39293E-18 5.82218E-19
 -1      2012 1.00459E-04-2.99613E-05-3.02173E-05 2.27987E-06-2.33804E-19 7.43987E-19
 -1      2013 1.01319E-04-3.02184E-05-3.04634E-05 2.45897E-06-3.00874E-19 7.38136E-19
 -1      2014 1.00819E-04-2.99855E-05-3.03586E-05 3.14986E-06-3.70683E-19 8.85993E-20
 -1      2015 9.91703E-05-2.95885E-05-2.98234E-05 1.84047E-06-2.81063E-19 1.21381E-18
 -1      2016 9.98808E-05-2.97942E-05-3.00285E-05 2.01745E-06-7.07408E-19 8.69798E-19
 -1      2017 9.95239E-05-2.96022E-05-2.99678E-05 2.60237E-06-3.64857E-19 4.12164E-19
 -1      2018 9.81321E-05-2.92986E-05-2.95016E-05 1.44537E-06-5.03013E-19 2.14369E-18
 -1      2019 9.87023E-05-2.94594E-05-2.96673E-05 1.60612E-06-2.41705E-19 1.87427E-18
 -1      2020 9.84606E-05-2.93087E-05-2.96380E-05 2.08538E-06-6.56058E-19 1.25643E-18
 -1      2021 9.73155E-05-2.90773E-05-2.92457E-05 1.10774E-06 6.30887E-19 1.50108E-18
 -1      2022 9.77616E-05-2.92003E-05-2.93761E-05 1.24622E-06 8.67076E-20 2.22034E-18
 -1      2023 9.76083E-05-2.90866E-05-2.93680E-05 1.62842E-06 1.63391E-19 1.81846E-18
 -1      2024 9.66871E-05-2.89115E-05-2.90470E-05 8.29514E-07-2.81906E-19 9.55813E-19
 -1      2025 9.70282E-05-2.90035E-05-2.91472E-05 9.44437E-07 3.07331E-20 7.86186E-19
 -1      2026 9.69396E-05-2.89208E-05-2.91525E-05 1.24207E-06 6.04123E-19 2.04897E-18
 -1      2027 9.62137E-05-2.87897E-05-2.88960E-05 6.06650E-07-2.47103E-19 1.07930E-18
 -1      2028 9.64687E-05-2.88571E-05-2.89713E-05 6.99314E-07-1.04090E-19 5.62182E-19
 -1      2029 9.64257E-05-2.87991E-05-2.89843E-05 9.26000E-07-2.25968E-19 1.51642E-18
 -1      2030 9.58650E-05-2.87023E-05-2.87838E-05 4.32358E-07 3.33253E-19 4.08935E-19
 -1      2031 9.60512E-05-2.87504E-05-2.88391E-05 5.05294E-07 5.04167E-21 9.23270E-19
 -1      2032 9.60388E-05-2.87114E-05-2.88560E-05 6.74174E-07 2.84589E-19 1.22244E-18
 -1      2033 9.56142E-05-2.86412E-05-2.87024E-05 2.98983E-07 1.13536E-19 1.24831E-18
 -1      2034 9.57467E-05-2.86746E-05-2.87419E-05 3.55165E-07 3.87234E-19 5.59409E-19
 -1      2035 9.57538E-05-2.86497E-05-2.87601E-05 4.78085E-07 3.58144E-19 9.81894E-19
 -1      2036 9.54388E-05-2.85999E-05-2.86448E-05 1.99048E-07-1.58652E-19 1.08687E-18
 -1      2037 9.55302E-05-2.86223E-05-2.86724E-05 2.41438E-07 3.23943E-19 1.67175E-18
 -1      2038 9.55486E-05-2.86076E-05-2.86901E-05 3.28606E-07 1.65377E-19 1.98968E-18
 -1      2039 9.53203E-05-2.85732E-05-2.86055E-05 1.25771E-07 1.23300E-18 1.07519E-18
 -1      2040 9.53810E-05-2.85875E-05-2.86239E-05 1.57095E-07-8.53458E-20 7.50998E-19
 -1      2041 9.54050E-05-2.85799E-05-2.86402E-05 2.17014E-07 3.26573E-19 1.25234E-18
 -1      2042 9.52439E-05-2.85571E-05-2.85797E-05 7.32876E-08 1.92177E-19-7.49007E-20
 -1      2043 9.52821E-05-2.85655E-05-2.85914E-05 9.59240E-08 1.09991E-18 1.02111E-18
 -1      2044 9.53079E-05-2.85627E-05-2.86058E-05 1.35499E-07 1.34210E-18 2.14849E-18
 -1      2045 9.51979E-05-2.85485E-05-2.85637E-05 3.66924E-08-6.57869E-19 1.41730E-20
 -1      2046 9.52200E-05-2.85528E-05-2.85707E-05 5.26491E-08-4.12227E-19-3.01051E-19
 -1      2047 9.52452E-05-2.85530E-05-2.85829E-05 7.73545E-08 9.22751E-20 1.64475E-18
 -1      2048 9.51733E-05-2.85449E-05-2.85548E-05 1.19909E-08 2.57640E-19 5.66058E-19
 -1      2049 9.51842E-05-2.85464E-05-2.85583E-05 2.29149E-08 1.13201E-19 2.81951E-19
 -1      2050 9.52074E-05-2.85485E-05-2.85685E-05 3.70056E-08-1.56240E-19 1.23373E-18
 -1      2051 9.51635E-05-2.85446E-05-2.85507E-05-3.99462E-09-1.43376E-18-4.13747E-19
 -1      2052 9.51668E-05-2.85444E-05-2.85520E-05 3.21597E-09-8.17173E-19-2.26124E-19
 -1      2053 9.51871E-05-2.85474E-05-2.85603E-05 9.93278E-09-4.18604E-19-1.09106E-19
 -1      2054 9.51633E-05-2.85465E-05-2.85499E-05-1.37360E-08 2.07673E-19 5.18693E-19
 -1      2055 9.51617E-05-2.85452E-05-2.85497E-05-9.20604E-09-1.32277E-18-2.39498E-19
 -1      2056 9.51790E-05-2.85484E-05-2.85562E-05-7.44300E-09-1.49867E-18-5.49880E-19
 -1      2057 9.51692E-05-2.85496E-05-2.85511E-05-1.91086E-08 1.83071E-19 2.96230E-18
 -1      2058 9.51647E-05-2.85476E-05-2.85500E-05-1.64709E-08 7.27762E-19 2.05082E-18
 -1      2059 9.51788E-05-2.85508E-05-2.85550E-05-1.78906E-08-1.72067E-19 1.27352E-18
 -1      2060 9.51786E-05-2.85533E-05-2.85536E-05-2.14901E-08-2.21756E-18 3.31212E-18
 -1      2061 9.51725E-05-2.85510E-05-2.85519E-05-2.01626E-08 5.07544E-20 3.91208E-18
 -1      2062 9.51836E-05-2.85539E-05-2.85557E-05-2.34950E-08-6.52734E-19 3.75128E-18
 -1      2063 9.51897E-05-2.85572E-05-2.85567E-05-2.18427E-08 6.02098E-19 1.19458E-18
 -1      2064 9.51828E-05-2.85548E-05-2.85548E-05-2.14185E-08-1.80362E-18 1.46301E-18
 -1      2065 9.51912E-05-2.85573E-05-2.85575E-05-2.57689E-08-4.94199E-19 3.14145E-18
 -1      2066 9.52011E-05-2.85610E-05-2.85600E-05-2.07766E-08 2.78653E-18 1.54840E-18
 -1      2067 9.51943E-05-2.85588E-05-2.85581E-05-2.10007E-08 1.77745E-18 1.92040E-18
 -1      2068 9.52003E-05-2.85608E-05-2.85598E-05-2.57456E-08 1.12394E-18 1.99830E-18
 -1      2069 9.52121E-05-2.85647E-05-2.85631E-05-1.85930E-08 1.98085E-18 1.00034E-18
 -1      2070 9.52056E-05-2.85626E-05-2.85613E-05-1.93500E-08 2.04819E-18 2.30703E-18
 -1      2071 9.52096E-05-2.85642E-05-2.85624E-05-2.40517E-08 1.74637E-18 2.73080E-18
 -1      2072 9.52217E-05-2.85681E-05-2.85658E-05-1.53331E-08-2.95899E-20 1.28490E-18
 -1      2073 9.52162E-05-2.85662E-05-2.85643E-05-1.66300E-08 1.10378E-18 1.28515E-18
 -1      2074 9.52184E-05-2.85675E-05-2.85647E-05-2.09614E-08 1.51649E-18 2.11851E-18
 -1      2075 9.52295E-05-2.85710E-05-2.85680E-05-1.08525E-08-1.07794E-19 2.08573E-18
 -1      2076 9.52252E-05-2.85694E-05-2.85668E-05-1.28113E-08 1.66613E-19 1.91914E-18
 -1      2077 9.52263E-05-2.85705E-05-2.85667E-05-1.65298E-08-2.29009E-19 3.25068E-18
 -1      2078 9.52343E-05-2.85730E-05-2.85692E-05-6.64380E-09-2.13570E-19 2.27239E-18
 -1      2079 9.52314E-05-2.85719E-05-2.85684E-05-9.16668E-09-1.63995E-19 1.67495E-18
 -1      2080 9.52318E-05-2.85730E-05-2.85680E-05-1.20780E-08 4.07025E-20 3.13399E-18
 -1      2081 9.52353E-05-2.85747E-05-2.85688E-05-8.20783E-09-4.99181E-19 3.19260E-18
 -1      2082 9.52445E-05-2.85944E-05-2.85643E-05-1.62193E-08 6.26200E-19-2.24587E-18
 -1      2083 9.52426E-05-2.85901E-05-2.85654E-05-1.63069E-08 2.96797E-19-2.01121E-18
 -1      2084 9.52409E-05-2.85868E-05-2.85660E-05-1.58435E-08 2.78809E-19-3.89741E-19
 -1      2085 9.52390E-05-2.85828E-05-2.85670E-05-1.47265E-08-1.02474E-19 6.70964E-19
 -1      2086 9.52410E-05-2.85868E-05-2.85661E-05-2.01118E-08 1.16741E-19-1.62465E-18
 -1      2087 9.52378E-05-2.85804E-05-2.85675E-05-1.29555E-08-9.94862E-19 3.20671E-19
 -1      2088 9.52362E-05-2.85770E-05-2.85683E-05-1.07262E-08-6.66798E-19 2.07706E-18
 -1      2089 9.52347E-05-2.85762E-05-2.85680E-05-1.29131E-08-5.59538E-19 2.12066E-18
 -1      2090 9.52375E-05-2.85810E-05-2.85671E-05-1.75633E-08-8.76999E-19 1.15890E-18
 -1      2091 9.52476E-05-2.86011E-05-2.85627E-05-1.44653E-08 2.57901E-19-3.21573E-18
 -1      2092 9.52460E-05-2.85973E-05-2.85637E-05-1.54511E-08 4.89698E-19-2.40908E-18
 -1      2093 9.52448E-05-2.85933E-05-2.85650E-05-1.97031E-08 4.67354E-19-2.83065E-18
 -1      2094 9.52500E-05-2.86067E-05-2.85613E-05-1.10538E-08-1.06691E-18-7.19966E-19
 -1      2095 9.52487E-05-2.86036E-05-2.85621E-05-1.27188E-08-3.57991E-19-2.16724E-19
 -1      2096 9.52480E-05-2.85989E-05-2.85639E-05-1.68841E-08 7.05177E-19-2.15188E-18
 -1      2097 9.52515E-05-2.86104E-05-2.85604E-05-6.54062E-09-1.96358E-18-1.63876E-18
 -1      2098 9.52508E-05-2.86085E-05-2.85609E-05-8.62965E-09-1.47917E-18-7.69760E-19
 -1      2099 9.52503E-05-2.86033E-05-2.85630E-05-1.22211E-08-3.25255E-19-8.69132E-19
 -1      2100 9.52522E-05-2.86120E-05-2.85600E-05-1.43218E-09-1.21771E-18-1.00971E-18
 -1      2101 9.52519E-05-2.86114E-05-2.85601E-05-3.72555E-09-9.96680E-19-1.37418E-18
 -1      2102 9.52517E-05-2.86061E-05-2.85625E-05-6.37398E-09-1.03167E-18-1.10938E-18
 -1      2103 9.52519E-05-2.86113E-05-2.85602E-05 3.80186E-09-2.32756E-18-7.48460E-19
 -1      2104 9.52522E-05-2.86120E-05-2.85600E-05 1.50962E-09-1.51365E-18 4.30522E-19
 -1      2105 9.52522E-05-2.86071E-05-2.85623E-05 4.77865E-11-1.29501E-18-2.24234E-19
 -1      2106 9.52507E-05-2.86084E-05-2.85609E-05 8.69945E-09-1.64785E-18-4.24637E-19
 -1      2107 9.52515E-05-2.86104E-05-2.85604E-05 6.61478E-09-2.04137E-18-2.76461E-19
 -1      2108 9.52517E-05-2.86061E-05-2.85625E-05 6.46688E-09-2.01261E-18-4.44491E-20
 -1      2109 9.52487E-05-2.86036E-05-2.85621E-05 1.27169E-08-1.77003E-18 4.46783E-19
 -1      2110 9.52500E-05-2.86067E-05-2.85613E-05 1.10832E-08-1.65012E-18-6.68142E-19
 -1      2111 9.52503E-05-2.86033E-05-2.85630E-05 1.22633E-08-6.48846E-19-7.06888E-19
 -1      2112 9.52460E-05-2.85973E-05-2.85637E-05 1.54617E-08-1.35668E-18 9.42168E-19
 -1      2113 9.52476E-05-2.86011E-05-2.85627E-05 1.44675E-08-1.88758E-18 1.96574E-18
 -1      2114 9.52480E-05-2.85989E-05-2.85639E-05 1.68869E-08-1.02797E-18 1.26900E-18
 -1      2115 9.52426E-05-2.85900E-05-2.85654E-05 1.63065E-08-7.08213E-20 1.52206E-18
 -1      2116 9.52445E-05-2.85942E-05-2.85644E-05 1.62310E-08-2.98658E-19 1.65504E-18
 -1      2117 9.52448E-05-2.85932E-05-2.85650E-05 1.97181E-08-4.17870E-19 2.15546E-18
 -1      2118 9.52388E-05-2.85826E-05-2.85670E-05 1.48080E-08 3.75554E-19 1.44433E-18
 -1      2119 9.52409E-05-2.85867E-05-2.85661E-05 1.58295E-08-1.50164E-19 1.32031E-18
 -1      2120 9.52410E-05-2.85867E-05-2.85661E-05 2.00846E-08 1.95749E-19 1.72412E-18
 -1      2121 5.86419E-05-3.97622E-05-8.64538E-06 3.99007E-05 6.37011E-18 7.72438E-18
 -1      2122 4.32971E-05-4.11287E-05-2.30298E-06 3.25613E-05 5.26473E-18 7.94898E-18
 -1      2123 1.17229E-05-3.02906E-05 6.93532E-06 4.62597E-06 2.14670E-18 8.27382E-18
 -1      2124 1.27423E-05-3.53200E-05 8.03873E-06-5.69955E-06 4.91809E-19 8.49701E-18
 -1      2125 3.00297E-05-3.54147E-05 1.44223E-06 2.87324E-05 4.84376E-18 8.18276E-18
 -1      2126 2.05502E-05-3.23586E-05 4.30756E-06 2.05964E-05 2.70204E-18 7.69911E-18
 -1      2127 1.02039E-04-4.72643E-05-2.37816E-05 4.02053E-05 5.36341E-18 4.89352E-18
 -1      2128 7.87165E-05-4.57608E-05-1.51390E-05 3.80449E-05 6.44126E-18 5.95358E-18
 -1      2129 1.41110E-04-4.11208E-05-4.19033E-05 3.31101E-05 8.01526E-18 4.83148E-18
 -1      2130 1.23356E-04-4.58394E-05-3.33222E-05 3.12850E-05 6.56196E-18 4.08143E-18
 -1      2131 8.70142E-05-7.98837E-06-3.39738E-05-5.71027E-06-1.55431E-18-4.24471E-18
 -1      2132 8.89461E-05-8.92626E-06-3.43604E-05-7.17325E-06-1.97504E-18-3.84084E-18
 -1      2133 9.20487E-05-1.29328E-05-3.39565E-05-6.74096E-06-2.18682E-18-3.28415E-18
 -1      2134 8.75641E-05-9.66523E-06-3.34061E-05-4.49816E-06-1.52925E-18-4.06250E-18
 -1      2135 1.77779E-04-2.70286E-05-6.36600E-05 6.52800E-06 8.36487E-18 3.71424E-19
 -1      2136 1.69709E-04-2.88611E-05-5.95706E-05 1.40072E-05 8.58976E-18 2.02949E-18
 -1      2137 1.77180E-04-2.24490E-05-6.54546E-05-3.16057E-06 8.13321E-18-1.66273E-18
 -1      2138 1.73024E-04-2.07830E-05-6.46777E-05 2.75020E-06 8.55884E-18 2.12817E-19
 -1      2139 1.69889E-04-2.49778E-05-6.16273E-05-9.79177E-06 7.07781E-18-3.09548E-18
 -1      2140 1.78497E-04-2.51383E-05-6.48351E-05-4.31077E-06 7.34166E-18-1.79973E-18
 -1      2141 1.53173E-04-1.18436E-05-5.96128E-05 1.45864E-06 8.07815E-18 3.81271E-19
 -1      2142 1.54024E-04-3.50676E-05-5.08514E-05-2.13413E-05 6.61988E-18-4.67774E-18
 -1      2143 1.69400E-04-3.34521E-05-5.73338E-05-1.66363E-05 6.62824E-18-3.85696E-18
 -1      2144 1.24907E-04-4.25036E-05-3.57438E-05-3.29173E-05 5.90213E-18-6.10584E-18
 -1      2145 1.45417E-04-4.14842E-05-4.39311E-05-3.13131E-05 6.36821E-18-4.87595E-18
 -1      2146 8.95879E-05-4.46649E-05-2.02146E-05-3.83749E-05 4.44777E-18-6.81099E-18
 -1      2147 1.09380E-04-4.22548E-05-2.85071E-05-4.20315E-05 5.66750E-18-7.03800E-18
 -1      2148 5.42344E-05-4.30289E-05-6.06149E-06-3.58530E-05 2.23363E-18-7.25651E-18
 -1      2149 7.13979E-05-4.16093E-05-1.30297E-05-4.28696E-05 3.40041E-18-7.49857E-18
 -1      2150 2.47219E-05-3.90377E-05 4.47816E-06-2.28121E-05 4.28599E-19-7.76814E-18
 -1      2151 3.48406E-05-3.70100E-05-1.51703E-07-3.10707E-05 2.72829E-18-7.92484E-18
 -1      2152 1.28618E-05-3.09004E-05 6.75825E-06-5.23926E-06-1.73740E-18-7.74019E-18
 -1      2153 1.70172E-05-3.33410E-05 5.82880E-06-1.52328E-05 3.00273E-19-8.12728E-18
 -1      2154 1.97160E-05-3.04495E-05 3.88891E-06 1.99392E-05-2.43331E-18-7.59238E-18
 -1      2155 1.37519E-05-3.20511E-05 6.61509E-06 7.83301E-06-1.42995E-18-7.64320E-18
 -1      2156 4.68832E-05-3.93137E-05-4.22408E-06 3.61541E-05-6.15412E-18-7.18623E-18
 -1      2157 3.43805E-05-3.80260E-05 5.41928E-07 3.09365E-05-3.65410E-18-6.59415E-18
 -1      2158 8.34070E-05-4.25155E-05-1.78109E-05 4.33201E-05-6.37138E-18-6.31209E-18
 -1      2159 6.34692E-05-4.37860E-05-9.77095E-06 3.67713E-05-6.37308E-18-6.74429E-18
 -1      2160 6.65923E-05-4.46636E-05-9.76090E-06 4.20403E-05-1.98460E-18-5.50799E-18
 -1      2161 1.25420E-04-4.40024E-05-3.44917E-05 3.81447E-05-6.89824E-18-5.86486E-18
 -1      2162 1.06045E-04-4.65252E-05-2.61594E-05 3.59834E-05-6.21892E-18-5.30920E-18
 -1      2163 1.54245E-04-4.06920E-05-4.82198E-05 2.36982E-05-7.16865E-18-3.37839E-18
 -1      2164 1.36719E-04-4.15977E-05-4.08738E-05 2.91947E-05-7.52377E-18-4.85265E-18
 -1      2165 1.38935E-04-5.25858E-05-3.65457E-05 2.16313E-05-4.12929E-18-1.23540E-18
 -1      2166 1.75702E-04-3.07907E-05-6.08237E-05 1.21881E-05-7.83378E-18-2.35348E-18
 -1      2167 1.60194E-04-3.14870E-05-5.49737E-05 1.40017E-05-8.11542E-18-3.07939E-18
 -1      2168 1.81123E-04-2.43673E-05-6.59763E-05 2.59189E-06-8.05867E-18-1.56278E-19
 -1      2169 1.77388E-04-2.61450E-05-6.39579E-05 9.42464E-06-8.06672E-18-2.09217E-18
 -1      2170 1.58211E-04-2.10199E-05-5.78468E-05-2.10206E-06-7.97439E-18 9.31736E-20
 -1      2171 1.83641E-04-2.67625E-05-6.58300E-05-8.20579E-06-8.25857E-18 2.99066E-18
 -1      2172 1.85122E-04-2.52720E-05-6.72104E-05 7.94909E-09-8.15608E-18 4.84450E-19
 -1      2173 1.67491E-04-3.12277E-05-5.76995E-05-1.82680E-05-8.09213E-18 4.95006E-18
 -1      2174 1.80672E-04-3.10219E-05-6.26651E-05-1.24313E-05-7.98625E-18 3.15816E-18
 -1      2175 1.42632E-04-3.86933E-05-4.45588E-05-2.76274E-05-6.52999E-18 6.28371E-18
 -1      2176 1.61118E-04-3.76000E-05-5.18284E-05-2.51027E-05-7.09162E-18 5.49216E-18
 -1      2177 1.10620E-04-4.41689E-05-2.90717E-05-3.49501E-05-3.98825E-18 6.57636E-18
 -1      2178 1.30857E-04-4.15102E-05-3.76497E-05-3.72124E-05-5.50995E-18 7.12821E-18
 -1      2179 7.22619E-05-4.49049E-05-1.28533E-05-3.73891E-05-3.05355E-18 6.60961E-18
 -1      2180 9.26315E-05-4.43667E-05-2.07724E-05-4.23178E-05-3.32333E-18 6.85017E-18
 -1      2181 3.85957E-05-4.12485E-05-5.00792E-07-2.97268E-05-1.72625E-18 7.17437E-18
 -1      2182 5.23565E-05-3.89333E-05-6.50114E-06-3.74933E-05-3.46691E-18 8.11984E-18
 -1      2183 1.68816E-05-3.76856E-05 7.22248E-06-1.38444E-05 6.28498E-19 7.43144E-18
 -1      2184 2.34188E-05-3.60464E-05 4.10317E-06-2.27710E-05-1.56871E-18 6.85610E-18
 -1      2185 1.63455E-05-2.62531E-05 3.40956E-06-1.28203E-05 1.40809E-18 8.88622E-18
 -1      2186 1.64847E-04-3.58658E-05-5.42868E-05 2.11212E-05 8.28218E-18 2.49621E-18
 -1      2187 1.48912E-04-3.70353E-05-4.77876E-05 2.56950E-05 8.64228E-18 4.16232E-18
 -1      2188 1.47512E-04-4.60006E-05-4.31073E-05 1.44946E-05 6.13474E-18 3.32037E-19
 -1      2189 1.18801E-04-5.21591E-05-2.85237E-05 3.26242E-05 4.31479E-18 3.40867E-18
 -1      2190 1.14695E-04-5.66455E-05-2.43835E-05 3.36218E-05 1.66188E-18 1.76575E-18
 -1      2191 1.32414E-04-5.68908E-05-3.29085E-05 2.23605E-05 2.92904E-18 2.34628E-19
 -1      2192 1.03844E-04-2.63722E-05-3.32635E-05-6.14868E-06-2.84074E-18 7.50551E-19
 -1      2193 1.58890E-04-3.14618E-05-5.37052E-05 3.75222E-06 8.02648E-18-4.96361E-19
 -1      2194 1.02322E-04-2.48578E-05-3.32792E-05-5.67102E-06-2.91778E-18-4.57279E-19
 -1      2195 4.47663E-05-3.64419E-05-4.09185E-06 3.68424E-05 1.71630E-18 7.72367E-18
 -1      2196 1.89460E-05-2.70342E-05 3.04274E-06 1.42187E-05 1.56299E-18 7.91171E-18
 -1      2197 1.83517E-05-1.87280E-05 3.94052E-07 7.88825E-06 5.80906E-19 8.37377E-18
 -1      2198 2.72786E-05-2.26774E-05-1.96391E-06 2.33227E-05-2.39710E-19 8.07159E-18
 -1      2199 9.52373E-05-2.85799E-05-2.85675E-05 1.44812E-08 1.13483E-18 2.08502E-18
 -1      2200 8.04245E-05-4.83891E-05-1.37664E-05 4.21518E-05 2.51357E-18 4.68941E-18
 -1      2201 3.70836E-05-3.54050E-05-1.42126E-06-3.29199E-05 5.60312E-19 7.39777E-18
 -1      2202 7.43521E-05-4.69447E-05-1.18856E-05-4.20536E-05-3.63801E-19 5.96622E-18
 -1      2203 1.13247E-04-5.42489E-05-2.53632E-05-3.48549E-05-5.73441E-19 4.22394E-18
 -1      2204 1.43144E-04-4.86917E-05-3.99409E-05-1.96181E-05-2.97616E-18 3.17510E-18
 -1      2205 1.58438E-04-3.52944E-05-5.18410E-05-5.71045E-06-6.29187E-18 1.89100E-18
 -1      2206 1.63148E-04-1.49370E-05-6.22898E-05-2.87548E-07-8.90359E-18 3.10967E-19
 -1      2207 1.54544E-04-3.88427E-05-4.90307E-05 5.92633E-06-6.13707E-18-6.77626E-21
 -1      2208 1.07143E-04-5.36469E-05-2.28721E-05 3.79839E-05-2.79860E-18-3.39660E-18
 -1      2209 3.11446E-05-3.19514E-05-9.16995E-08 2.80221E-05-1.39803E-18-7.08755E-18
 -1      2210 2.90286E-05-2.29364E-05-2.24340E-06 2.54187E-05 5.18490E-19-7.00052E-18
 -1      2211 4.30387E-05-3.17986E-05-5.07523E-06 3.65193E-05 4.07846E-19-5.84728E-18
 -1      2212 1.66623E-05-2.19387E-05 1.93285E-06 1.22549E-06-5.88503E-19-8.56139E-18
 -1      2213 2.50883E-05-2.84816E-05 7.99221E-07-2.41690E-05-8.57197E-19-8.56943E-18
 -1      2214 5.39417E-05-4.03423E-05-6.17606E-06-4.05296E-05-2.99426E-19-7.31805E-18
 -1      2215 9.38517E-05-5.20535E-05-1.81347E-05-4.12292E-05 2.24464E-19-5.32466E-18
 -1      2216 1.28796E-04-5.35606E-05-3.18841E-05-2.93672E-05 2.45280E-18-3.20200E-18
 -1      2217 1.57392E-04-2.54340E-05-5.57010E-05 3.30394E-07 6.42898E-18-2.58980E-19
 -1      2218 1.57285E-04-1.58233E-05-5.97444E-05-1.38991E-06 8.96923E-18-3.72589E-19
 -1      2219 1.50724E-04-4.39010E-05-4.50745E-05-1.18810E-05 4.53951E-18-1.62461E-18
 -1      2220 1.65248E-04-2.13176E-05-6.03625E-05 8.59783E-09-8.40172E-18 8.91714E-19
 -1      2221 1.02714E-04-2.84847E-05-3.17916E-05-4.64466E-07 2.31262E-18 3.37145E-18
 -1      2222 1.02908E-04-2.77542E-05-3.21353E-05 1.45588E-06 2.67249E-18 3.82791E-18
 -1      2223 8.11848E-05-6.65060E-06-3.19831E-05-6.99632E-07 1.68792E-19-4.12858E-18
 -1      2224 8.23623E-05-7.35020E-06-3.21639E-05-1.17322E-06-2.53311E-19-4.20541E-18
 -1      2225 8.39043E-05-8.52017E-06-3.23582E-05-1.51246E-06-5.71617E-19-4.18832E-18
 -1      2226 8.55890E-05-9.57253E-06-3.26012E-05-2.21685E-06-1.00267E-18-4.11111E-18
 -1      2227 8.39676E-05-9.53708E-06-3.18904E-05-6.13402E-07-3.69569E-19-3.89953E-18
 -1      2228 7.93974E-05-5.42672E-06-3.17225E-05 3.06882E-08 1.45121E-18-3.81462E-18
 -1      2229 7.93484E-05-5.39277E-06-3.17182E-05-2.41828E-07 1.06826E-18-3.96811E-18
 -1      2230 8.04698E-05-6.13241E-06-3.18742E-05 4.10767E-07 2.04418E-18-3.69597E-18
 -1      2231 7.97949E-05-5.73226E-06-3.17727E-05 6.35191E-08 1.71172E-18-3.78710E-18
 -1      2232 8.01652E-05-6.85219E-06-3.14082E-05-1.40802E-07 1.48566E-18-3.48094E-18
 -1      2233 8.26951E-05-7.63128E-06-3.21857E-05 1.10190E-06 2.52068E-18-3.27522E-18
 -1      2234 8.14885E-05-6.90548E-06-3.20052E-05 5.87556E-07 2.22559E-18-3.60923E-18
 -1      2235 8.16577E-05-7.92890E-06-3.15890E-05 1.41559E-08 2.06332E-18-3.38407E-18
 -1      2236 8.59612E-05-9.90521E-06-3.26194E-05 2.26482E-06 3.07284E-18-2.40840E-18
 -1      2237 8.42677E-05-8.83745E-06-3.23789E-05 1.50826E-06 2.68725E-18-2.85569E-18
 -1      2238 8.43597E-05-9.89006E-06-3.19103E-05 5.44583E-07 2.48655E-18-2.85976E-18
 -1      2239 9.00709E-05-1.29487E-05-3.30974E-05 3.89579E-06 3.45821E-18-1.30466E-18
 -1      2240 8.79804E-05-1.15060E-05-3.28375E-05 2.90331E-06 3.17249E-18-1.95221E-18
 -1      2241 8.80751E-05-1.26602E-05-3.23158E-05 1.52316E-06 2.94884E-18-1.99562E-18
 -1      2242 9.49216E-05-1.69173E-05-3.35148E-05 5.76124E-06 3.76580E-18 2.64599E-19
 -1      2243 9.24537E-05-1.49582E-05-3.32839E-05 4.65836E-06 3.54064E-18-5.85339E-19
 -1      2244 9.25474E-05-1.61900E-05-3.27089E-05 2.81991E-06 3.25799E-18-7.41084E-19
 -1      2245 1.03197E-04-2.97460E-05-3.14624E-05-3.11828E-06 1.68098E-18 2.70828E-18
 -1      2246 1.02911E-04-2.91862E-05-3.15239E-05-2.08086E-06 1.91398E-18 3.10871E-18
 -1      2247 1.01749E-04-2.75894E-05-3.18045E-05-1.17071E-06 2.41047E-18 1.91817E-18
 -1      2248 1.01800E-04-2.65246E-05-3.22076E-05-7.19779E-07-2.12622E-18-8.05907E-19
 -1      2249 1.01830E-04-2.74749E-05-3.18695E-05 1.39562E-06-1.85010E-18-8.35480E-19
 -1      2250 1.50860E-04-2.72862E-05-5.34474E-05-4.75724E-06 7.91722E-18-1.60386E-18
 -1      2251 1.49267E-04-3.57525E-05-4.88268E-05-1.21666E-06 6.93656E-18-1.29490E-18
 -1      2252 1.02212E-04-2.83480E-05-3.15945E-05 3.03414E-06-1.59652E-18-6.41196E-19
 -1      2253 1.02586E-04-2.90869E-05-3.14963E-05 4.24002E-06-1.20382E-18-7.09382E-19
 -1      2254 1.00555E-04-2.64873E-05-3.17637E-05 2.23379E-06-1.74445E-18-1.20563E-18
 -1      2255 1.03122E-04-2.98315E-05-3.13629E-05 5.27247E-06-9.83809E-19-5.94606E-19
 -1      2256 1.03846E-04-3.06315E-05-3.13847E-05 5.81659E-06-8.49613E-19-7.17493E-19
 -1      2257 1.01491E-04-2.85085E-05-3.13072E-05 5.14232E-06-1.18077E-18-1.05685E-18
 -1      2258 1.04729E-04-3.15182E-05-3.13354E-05 6.22630E-06-5.40435E-19-5.64873E-19
 -1      2259 1.05716E-04-3.24880E-05-3.14090E-05 6.11358E-06-2.71509E-19-3.66129E-19
 -1      2260 1.02955E-04-3.05416E-05-3.10699E-05 6.77160E-06-6.40726E-19-8.81139E-19
 -1      2261 1.07030E-04-3.36307E-05-3.14163E-05 5.79755E-06-1.59709E-19-3.21907E-19
 -1      2262 1.08146E-04-3.47553E-05-3.15017E-05 4.93876E-06-1.37980E-19-2.46826E-19
 -1      2263 1.05194E-04-3.30162E-05-3.09756E-05 7.02436E-06-1.77024E-19-6.31796E-19
 -1      2264 1.09877E-04-3.61118E-05-3.15729E-05 3.72874E-06-3.28243E-19 1.11648E-19
 -1      2265 1.10896E-04-3.71879E-05-3.16596E-05 2.06208E-06-3.24788E-19 1.68350E-19
 -1      2266 1.08291E-04-3.60291E-05-3.10161E-05 5.63382E-06-1.27100E-19-3.10491E-19
 -1      2267 1.12818E-04-3.84471E-05-3.18438E-05-1.47429E-07-8.05178E-20 1.75443E-19
 -1      2268 1.13388E-04-3.89942E-05-3.19557E-05-2.47273E-06-1.08553E-19 2.08755E-19
 -1      2269 1.12026E-04-3.91581E-05-3.12681E-05 2.28924E-06-2.49584E-19 5.95777E-21
 -1      2270 1.14912E-04-3.94760E-05-3.23357E-05-5.43654E-06-7.04510E-19 3.84349E-19
 -1      2271 1.14610E-04-3.87994E-05-3.25265E-05-7.81399E-06-1.33688E-18 2.82967E-19
 -1      2272 1.15595E-04-4.11887E-05-3.18939E-05-2.97542E-06-5.15516E-19 1.57012E-19
 -1      2273 1.14868E-04-3.76498E-05-3.31743E-05-1.05388E-05-1.60184E-18 7.20130E-19
 -1      2274 1.13505E-04-3.53089E-05-3.34807E-05-1.18024E-05-1.70046E-18 6.68216E-19
 -1      2275 1.17486E-04-4.01901E-05-3.30831E-05-9.07262E-06-1.28289E-18 9.29268E-19
 -1      2276 1.12052E-04-3.23350E-05-3.43206E-05-1.24572E-05-1.83836E-18 4.60045E-19
 -1      2277 1.10132E-04-2.90538E-05-3.46760E-05-1.13310E-05-1.92574E-18 1.73496E-19
 -1      2278 1.16253E-04-3.48749E-05-3.48549E-05-1.30918E-05-2.07176E-18 1.33994E-18
 -1      2279 1.08004E-04-2.57814E-05-3.53895E-05-8.47025E-06-2.11516E-18-6.63803E-19
 -1      2280 1.06795E-04-2.36430E-05-3.56155E-05-4.79186E-06-2.12931E-18-1.04160E-18
 -1      2281 1.12387E-04-2.68371E-05-3.67259E-05-1.12077E-05-2.68590E-18 7.98355E-19
 -1      2282 1.06167E-04-2.27159E-05-3.58105E-05 5.54112E-07-2.04934E-18-2.29347E-18
 -1      2283 1.06636E-04-2.34095E-05-3.57661E-05 4.95546E-06-2.34265E-18-2.66410E-18
 -1      2284 1.09402E-04-2.15018E-05-3.78215E-05-2.48037E-06-2.90241E-18-1.07379E-18
 -1      2285 1.08242E-04-2.56902E-05-3.53237E-05 9.51431E-06-2.64767E-18-3.27634E-18
 -1      2286 1.10082E-04-2.86799E-05-3.50520E-05 1.21551E-05-2.26070E-18-3.54621E-18
 -1      2287 1.10462E-04-2.32086E-05-3.75147E-05 8.27926E-06-2.82160E-18-3.01561E-18
 -1      2288 1.12195E-04-3.21332E-05-3.42507E-05 1.33652E-05-1.73995E-18-4.05699E-18
 -1      2289 1.14113E-04-3.52174E-05-3.39370E-05 1.33073E-05-1.15820E-18-3.89131E-18
 -1      2290 1.14495E-04-3.05395E-05-3.59931E-05 1.41741E-05-2.29242E-18-3.58250E-18
 -1      2291 1.14873E-04-3.74668E-05-3.31778E-05 1.14748E-05-8.84579E-19-3.77252E-18
 -1      2292 1.15896E-04-3.91077E-05-3.29544E-05 9.53062E-06-1.19379E-19-3.65456E-18
 -1      2293 1.17548E-04-3.78557E-05-3.41064E-05 1.29909E-05-1.08639E-18-3.71035E-18
 -1      2294 1.15000E-04-3.94599E-05-3.24358E-05 6.48642E-06 5.96076E-19-3.47724E-18
 -1      2295 1.14966E-04-3.95538E-05-3.23081E-05 3.99081E-06 8.73847E-19-2.93714E-18
 -1      2296 1.17381E-04-4.12902E-05-3.25906E-05 7.52920E-06 2.61067E-19-2.60780E-18
 -1      2297 1.13178E-04-3.86498E-05-3.20175E-05 1.23306E-06 5.74034E-19-2.40087E-18
 -1      2298 1.12426E-04-3.78493E-05-3.19280E-05-9.05448E-07 5.75023E-19-2.05419E-18
 -1      2299 1.14575E-04-4.07524E-05-3.16569E-05 1.46098E-06 9.75453E-19-2.24670E-18
 -1      2300 1.10522E-04-3.65331E-05-3.17728E-05-2.79266E-06 5.60551E-19-1.84077E-18
 -1      2301 1.09441E-04-3.54677E-05-3.16699E-05-4.23408E-06 9.78042E-19-1.80408E-18
 -1      2302 1.10789E-04-3.81383E-05-3.11724E-05-3.20793E-06 7.37262E-19-1.08936E-18
 -1      2303 1.07811E-04-3.42525E-05-3.15660E-05-5.24898E-06 1.52856E-18-1.96019E-18
 -1      2304 1.06661E-04-3.32755E-05-3.14267E-05-6.00648E-06 1.72995E-18-1.78990E-18
 -1      2305 1.07208E-04-3.51373E-05-3.09233E-05-6.04307E-06 1.35521E-18-7.94560E-19
 -1      2306 1.05403E-04-3.23541E-05-3.13264E-05-6.36171E-06 1.16486E-18-1.85299E-18
 -1      2307 1.04315E-04-3.15896E-05-3.11526E-05-6.59772E-06 1.04923E-18-1.42677E-18
 -1      2308 1.04301E-04-3.26100E-05-3.07517E-05-7.33017E-06 1.41650E-18-1.94124E-18
 -1      2309 1.03380E-04-3.09657E-05-3.10391E-05-6.52800E-06 5.16863E-19-1.47406E-18
 -1      2310 1.02406E-04-3.04144E-05-3.08449E-05-6.42539E-06 2.24709E-19-1.23099E-18
 -1      2311 1.02101E-04-3.07955E-05-3.05775E-05-7.54334E-06 8.30085E-19-1.84887E-18
 -1      2312 1.01713E-04-3.00232E-05-3.07188E-05-6.11612E-06 2.30943E-19-1.32954E-18
 -1      2313 1.00869E-04-2.96429E-05-3.05208E-05-5.82532E-06 2.51790E-19-1.31500E-18
 -1      2314 1.00469E-04-2.96183E-05-3.03765E-05-7.10296E-06-1.80424E-19-1.84499E-18
 -1      2315 1.00345E-04-2.94121E-05-3.03895E-05-5.40506E-06 3.47416E-23-1.85900E-18
 -1      2316 9.96295E-05-2.91560E-05-3.02007E-05-5.03230E-06 1.38366E-19-1.60655E-18
 -1      2317 9.92510E-05-2.89133E-05-3.01528E-05-6.31878E-06 3.85737E-20-2.13727E-18
 -1      2318 9.92265E-05-2.90277E-05-3.00724E-05-4.58283E-06 1.20387E-19-1.42135E-18
 -1      2319 9.86305E-05-2.88576E-05-2.99016E-05-4.19532E-06 4.14800E-19-1.51117E-18
 -1      2320 9.83249E-05-2.85237E-05-2.99209E-05-5.39862E-06 1.09017E-19-1.76984E-18
 -1      2321 9.83145E-05-2.87915E-05-2.97825E-05-3.76448E-06 7.03303E-19-1.64478E-18
 -1      2322 9.78271E-05-2.86795E-05-2.96342E-05-3.40046E-06 5.40627E-19-8.61073E-19
 -1      2323 9.76076E-05-2.83308E-05-2.96951E-05-4.47140E-06 4.42946E-19-1.80489E-18
 -1      2324 9.75772E-05-2.86496E-05-2.95281E-05-3.01316E-06 3.80259E-20-1.17156E-18
 -1      2325 9.71853E-05-2.85769E-05-2.94033E-05-2.69139E-06 1.78021E-19-9.37741E-19
 -1      2326 9.70449E-05-2.82537E-05-2.94863E-05-3.61020E-06 2.20490E-19-1.95845E-18
 -1      2327 9.69874E-05-2.85673E-05-2.93120E-05-2.35796E-06 5.63980E-19-1.20892E-18
 -1      2328 9.66778E-05-2.85209E-05-2.92098E-05-2.08507E-06 3.42550E-19-1.39313E-18
 -1      2329 9.66011E-05-2.82413E-05-2.93009E-05-2.85084E-06 2.88919E-19-2.57004E-18
 -1      2330 9.65219E-05-2.85223E-05-2.91335E-05-1.80707E-06 1.17973E-19-1.49896E-18
 -1      2331 9.62815E-05-2.84937E-05-2.90517E-05-1.58267E-06-2.30519E-20-1.16012E-18
 -1      2332 9.62518E-05-2.82623E-05-2.91418E-05-2.20559E-06 9.69871E-20-1.94524E-18
 -1      2333 9.61599E-05-2.85004E-05-2.89893E-05-1.35674E-06-2.30346E-19-7.79848E-19
 -1      2334 9.59765E-05-2.84838E-05-2.89252E-05-1.17676E-06 2.81482E-19-3.00847E-19
 -1      2335 9.59788E-05-2.82985E-05-2.90089E-05-1.67277E-06 1.98285E-19-9.78850E-19
 -1      2336 9.58829E-05-2.84928E-05-2.88754E-05-9.97121E-07 4.53256E-19-2.59263E-19
 -1      2337 9.57457E-05-2.84841E-05-2.88261E-05-8.55850E-07 4.40010E-19 4.72565E-19
 -1      2338 9.57680E-05-2.83397E-05-2.89004E-05-1.24310E-06 3.58457E-19-6.24726E-19
 -1      2339 9.56748E-05-2.84937E-05-2.87871E-05-7.15827E-07-3.50240E-19 8.84770E-19
 -1      2340 9.55742E-05-2.84902E-05-2.87500E-05-6.07114E-07-8.25046E-19 5.64869E-19
 -1      2341 9.56073E-05-2.83802E-05-2.88138E-05-9.03742E-07 3.03381E-20-6.61982E-19
 -1      2342 9.55213E-05-2.84993E-05-2.87200E-05-5.00021E-07-5.76876E-19 2.16043E-19
 -1      2343 9.54493E-05-2.84992E-05-2.86927E-05-4.17964E-07-5.00458E-19 5.68977E-19
 -1      2344 9.54870E-05-2.84171E-05-2.87460E-05-6.40842E-07-5.45267E-19 5.88917E-20
 -1      2345 9.54108E-05-2.85074E-05-2.86700E-05-3.37600E-07-1.14658E-18 1.26865E-18
 -1      2346 9.53606E-05-2.85093E-05-2.86504E-05-2.76877E-07-1.40781E-18 9.43980E-19
 -1      2347 9.53986E-05-2.84494E-05-2.86940E-05-4.40969E-07-7.00624E-19 5.47722E-19
 -1      2348 9.53332E-05-2.85164E-05-2.86337E-05-2.17760E-07-1.04597E-18 1.66387E-18
 -1      2349 9.52994E-05-2.85193E-05-2.86199E-05-1.73771E-07-1.28201E-19 2.40192E-18
 -1      2350 9.53351E-05-2.84766E-05-2.86548E-05-2.91898E-07-8.33175E-19 2.87414E-18
 -1      2351 9.52805E-05-2.85253E-05-2.86078E-05-1.31220E-07-2.95452E-19 2.15670E-18
 -1      2352 9.52589E-05-2.85287E-05-2.85985E-05-1.00107E-07 1.11972E-19 1.56819E-18
 -1      2353 9.52907E-05-2.84991E-05-2.86259E-05-1.82958E-07 1.48242E-19 3.38935E-18
 -1      2354 9.52463E-05-2.85336E-05-2.85900E-05-7.02353E-08 3.46701E-19 8.54508E-19
 -1      2355 9.52334E-05-2.85371E-05-2.85840E-05-4.88456E-08 7.93054E-21 6.38141E-19
 -1      2356 9.52607E-05-2.85172E-05-2.86050E-05-1.05125E-07-4.54651E-19 1.64064E-18
 -1      2357 9.52255E-05-2.85411E-05-2.85783E-05-2.84955E-08 5.24693E-19-4.42542E-20
 -1      2358 9.52188E-05-2.85445E-05-2.85746E-05-1.43064E-08 3.50039E-19-7.40004E-20
 -1      2359 9.52413E-05-2.85316E-05-2.85904E-05-5.09603E-08-1.34383E-19-1.28016E-19
 -1      2360 9.52142E-05-2.85477E-05-2.85709E-05-9.70929E-10-3.65175E-19 1.43082E-19
 -1      2361 9.52117E-05-2.85507E-05-2.85689E-05 7.99098E-09-5.83307E-19 8.08891E-19
 -1      2362 9.52298E-05-2.85428E-05-2.85805E-05-1.44686E-08 2.52860E-19 9.98305E-19
 -1      2363 9.52094E-05-2.85533E-05-2.85666E-05 1.62598E-08-4.54530E-19 1.17913E-18
 -1      2364 9.52097E-05-2.85560E-05-2.85658E-05 2.15020E-08-4.07638E-21 1.26694E-18
 -1      2365 9.52237E-05-2.85515E-05-2.85741E-05 9.07627E-09 2.65837E-20 1.59394E-18
 -1      2366 9.52091E-05-2.85580E-05-2.85646E-05 2.61796E-08-2.11085E-19 1.91595E-18
 -1      2367 9.52111E-05-2.85604E-05-2.85645E-05 2.88192E-08 4.16085E-20 2.13169E-18
 -1      2368 9.52213E-05-2.85581E-05-2.85701E-05 2.33143E-08-2.66693E-19 2.02428E-18
 -1      2369 9.52115E-05-2.85621E-05-2.85639E-05 3.09865E-08 1.41110E-18 2.13044E-18
 -1      2370 9.52144E-05-2.85642E-05-2.85643E-05 3.18153E-08 1.61568E-18 2.33545E-18
 -1      2371 9.52215E-05-2.85632E-05-2.85680E-05 3.09709E-08 7.60194E-19 3.14953E-18
 -1      2372 9.52155E-05-2.85656E-05-2.85642E-05 3.22246E-08 2.28644E-21 2.29855E-18
 -1      2373 9.52189E-05-2.85675E-05-2.85648E-05 3.17631E-08-3.50590E-19 2.50689E-18
 -1      2374 9.52232E-05-2.85673E-05-2.85669E-05 3.40102E-08 9.22354E-19 2.63918E-18
 -1      2375 9.52203E-05-2.85688E-05-2.85649E-05 3.09052E-08-4.83323E-19 2.74231E-18
 -1      2376 9.52238E-05-2.85706E-05-2.85656E-05 2.94415E-08-5.24315E-19 2.44572E-18
 -1      2377 9.52260E-05-2.85707E-05-2.85666E-05 3.37677E-08-2.47930E-19 3.85415E-18
 -1      2378 9.52255E-05-2.85719E-05-2.85658E-05 2.75905E-08-6.43172E-19 2.62207E-18
 -1      2379 9.52287E-05-2.85737E-05-2.85665E-05 2.52600E-08 3.50192E-19 2.05263E-18
 -1      2380 9.52292E-05-2.85738E-05-2.85666E-05 3.10662E-08-8.32370E-19 3.91266E-18
 -1      2381 1.05859E-04-3.22726E-05-3.15594E-05-4.63199E-06 5.75812E-19 2.08686E-18
 -1      2382 1.04999E-04-3.15675E-05-3.14394E-05-4.76480E-06 7.54928E-19 2.36341E-18
 -1      2383 1.07720E-04-3.38335E-05-3.17102E-05-3.51208E-06 5.68799E-19 1.97452E-18
 -1      2384 1.06867E-04-3.30732E-05-3.16033E-05-4.26131E-06 5.16324E-19 2.05515E-18
 -1      2385 1.05536E-04-3.27128E-05-3.12373E-05-5.32614E-06 7.31737E-19 1.22703E-18
 -1      2386 1.09523E-04-3.53919E-05-3.18330E-05-9.98017E-07 4.53497E-19 2.21022E-18
 -1      2387 1.08922E-04-3.47359E-05-3.17788E-05-2.38559E-06 4.00613E-19 2.03182E-18
 -1      2388 1.07859E-04-3.48371E-05-3.13181E-05-3.85962E-06 4.70532E-19 1.24751E-18
 -1      2389 1.10763E-04-3.64212E-05-3.19242E-05 2.76460E-06 5.57751E-20 2.62572E-18
 -1      2390 1.10700E-04-3.61792E-05-3.19345E-05 8.92755E-07 1.90116E-19 2.54486E-18
 -1      2391 1.10367E-04-3.69122E-05-3.14914E-05-7.75265E-07 7.49012E-20 1.58728E-18
 -1      2392 1.10782E-04-3.60986E-05-3.20405E-05 7.00095E-06-4.29575E-19 2.99603E-18
 -1      2393 1.11504E-04-3.66681E-05-3.20928E-05 5.13697E-06-1.53349E-19 2.89940E-18
 -1      2394 1.12403E-04-3.81179E-05-3.18224E-05 3.70240E-06-1.51326E-19 2.24452E-18
 -1      2395 1.09080E-04-3.37381E-05-3.22637E-05 1.00554E-05 7.27412E-19 2.78744E-18
 -1      2396 1.10592E-04-3.53186E-05-3.23120E-05 9.05455E-06-5.21422E-20 2.94448E-18
 -1      2397 1.12988E-04-3.72870E-05-3.24007E-05 8.51446E-06 4.30721E-20 2.51910E-18
 -1      2398 1.05965E-04-2.96849E-05-3.26177E-05 9.80654E-06 1.65986E-18 1.81770E-18
 -1      2399 1.07797E-04-3.18449E-05-3.26257E-05 1.05441E-05 1.30059E-18 2.47414E-18
 -1      2400 1.11374E-04-3.37039E-05-3.32441E-05 1.14965E-05 1.30293E-18 2.03999E-18
 -1      2401 1.03006E-04-2.58986E-05-3.29858E-05 5.15496E-06 2.30179E-18 1.43116E-18
 -1      2402 1.04269E-04-2.75001E-05-3.29629E-05 7.79289E-06 1.84512E-18 1.67175E-18
 -1      2403 1.08098E-04-2.83745E-05-3.41859E-05 1.01458E-05 1.90355E-18 1.46891E-18
 -1      2404 1.02363E-04-2.50104E-05-3.31555E-05-2.35128E-06 2.29838E-18 7.70745E-19
 -1      2405 1.02267E-04-2.49401E-05-3.31333E-05 1.10660E-06 2.54511E-18 1.11708E-18
 -1      2406 1.05376E-04-2.43046E-05-3.48361E-05 3.66379E-06 2.61098E-18 9.07088E-19
 -1      2407 1.04716E-04-2.77278E-05-3.30595E-05-8.92314E-06 1.84301E-18-3.86776E-19
 -1      2408 1.03281E-04-2.60497E-05-3.30318E-05-6.34650E-06 2.29677E-18 3.03493E-19
 -1      2409 1.05528E-04-2.43980E-05-3.48486E-05-5.08805E-06 2.61875E-18-2.28302E-22
 -1      2410 1.08533E-04-3.21625E-05-3.28028E-05-1.15404E-05 7.95566E-19-1.59236E-18
 -1      2411 1.06531E-04-2.99596E-05-3.27462E-05-1.08758E-05 1.37436E-18-9.84352E-19
 -1      2412 1.08497E-04-2.86171E-05-3.42468E-05-1.13947E-05 2.10302E-18-1.30249E-18
 -1      2413 1.11516E-04-3.56381E-05-3.25614E-05-9.93455E-06 7.49118E-19-2.40568E-18
 -1      2414 1.09863E-04-3.40583E-05-3.24683E-05-1.09564E-05 7.50675E-19-1.89288E-18
 -1      2415 1.11942E-04-3.40107E-05-3.33561E-05-1.25751E-05 1.19013E-18-2.23562E-18
 -1      2416 1.12581E-04-3.69942E-05-3.24044E-05-5.96574E-06 1.23826E-19-2.11282E-18
 -1      2417 1.11728E-04-3.64120E-05-3.23140E-05-7.80859E-06 3.56912E-19-2.07811E-18
 -1      2418 1.13620E-04-3.75481E-05-3.25564E-05-9.45614E-06 5.60415E-19-2.35457E-18
 -1      2419 1.11905E-04-3.65522E-05-3.22868E-05-1.67514E-06 2.15729E-21-2.35861E-18
 -1      2420 1.11852E-04-3.67506E-05-3.22502E-05-3.52252E-06-2.53250E-20-2.15878E-18
 -1      2421 1.13094E-04-3.83607E-05-3.20109E-05-4.57339E-06 1.08591E-19-2.33708E-18
 -1      2422 1.10204E-04-3.51984E-05-3.21337E-05 1.72589E-06-7.66297E-19-1.95250E-18
 -1      2423 1.10727E-04-3.57873E-05-3.21801E-05 3.13867E-07-2.48875E-19-1.98671E-18
 -1      2424 1.11106E-04-3.71988E-05-3.16815E-05-7.79339E-10-2.61798E-19-1.93126E-18
 -1      2425 1.08105E-04-3.36471E-05-3.19006E-05 3.87945E-06-6.27069E-19-1.70458E-18
 -1      2426 1.08955E-04-3.43298E-05-3.20293E-05 3.01367E-06-6.57794E-19-1.88447E-18
 -1      2427 1.08587E-04-3.52307E-05-3.14556E-05 3.30569E-06-6.64061E-19-6.09699E-19
 -1      2428 1.05990E-04-3.22719E-05-3.15861E-05 4.91868E-06 7.43717E-19-1.39837E-18
 -1      2429 1.06973E-04-3.28944E-05-3.17758E-05 4.52490E-06-1.62723E-20-1.73067E-18
 -1      2430 1.06131E-04-3.32710E-05-3.12431E-05 5.22025E-06-3.22822E-19-1.72445E-18
 -1      2431 1.04038E-04-3.11894E-05-3.12156E-05 5.14863E-06 2.83227E-19-3.37551E-19
 -1      2432 1.05029E-04-3.16994E-05-3.14385E-05 5.09118E-06 9.29753E-19-8.84912E-19
 -1      2433 1.03986E-04-3.16807E-05-3.10020E-05 6.00526E-06 2.73833E-19-1.30007E-18
 -1      2434 1.02317E-04-3.03883E-05-3.08225E-05 4.87246E-06-1.51076E-18-7.05754E-19
 -1      2435 1.03242E-04-3.07840E-05-3.10535E-05 5.02086E-06-5.16803E-19-5.12113E-19
 -1      2436 1.02198E-04-3.05255E-05-3.07273E-05 6.01385E-06-7.35630E-20-1.01586E-18
 -1      2437 1.00841E-04-2.98139E-05-3.04369E-05 4.32730E-06-1.13966E-18-3.91705E-19
 -1      2438 1.01663E-04-3.01124E-05-3.06575E-05 4.58107E-06-1.64699E-18-3.95194E-19
 -1      2439 1.00733E-04-2.97414E-05-3.04329E-05 5.55764E-06-1.38222E-18-1.32156E-18
 -1      2440 9.96013E-05-2.94082E-05-3.00800E-05 3.67569E-06-2.35984E-19-8.87234E-19
 -1      2441 1.00306E-04-2.96299E-05-3.02789E-05 3.96703E-06-4.65461E-19-8.65381E-19
 -1      2442 9.95385E-05-2.92326E-05-3.01378E-05 4.86851E-06-5.32159E-19-2.02311E-18
 -1      2443 9.85795E-05-2.91239E-05-2.97642E-05 3.01829E-06-7.14229E-19 1.77881E-19
 -1      2444 9.91653E-05-2.92867E-05-2.99360E-05 3.30606E-06-4.95262E-19-3.12344E-19
 -1      2445 9.85688E-05-2.89131E-05-2.98582E-05 4.10149E-06-7.59782E-19-1.75775E-18
 -1      2446 9.77515E-05-2.89256E-05-2.94945E-05 2.41104E-06-7.88474E-19 7.95063E-19
 -1      2447 9.82266E-05-2.90439E-05-2.96380E-05 2.67310E-06-8.55621E-19 4.57452E-19
 -1      2448 9.77853E-05-2.87184E-05-2.96052E-05 3.35098E-06-9.72374E-19-1.17239E-18
 -1      2449 9.70919E-05-2.87883E-05-2.92709E-05 1.88026E-06 4.09282E-19 4.32057E-19
 -1      2450 9.74689E-05-2.88733E-05-2.93875E-05 2.10682E-06-2.95145E-19 9.46600E-19
 -1      2451 9.71575E-05-2.86037E-05-2.93848E-05 2.66840E-06-6.78664E-19-4.17360E-19
 -1      2452 9.65755E-05-2.86943E-05-2.90901E-05 1.43401E-06-3.59178E-20 1.40305E-18
 -1      2453 9.68685E-05-2.87544E-05-2.91826E-05 1.62275E-06 7.10520E-19 1.43273E-18
 -1      2454 9.66598E-05-2.85394E-05-2.91985E-05 2.07681E-06-1.27507E-19 2.16199E-19
 -1      2455 9.61783E-05-2.86312E-05-2.89471E-05 1.06987E-06 2.48092E-20 8.85297E-19
 -1      2456 9.64014E-05-2.86728E-05-2.90189E-05 1.22263E-06-2.93339E-20 1.31632E-18
 -1      2457 9.62704E-05-2.85066E-05-2.90451E-05 1.58185E-06 1.73878E-19 8.99816E-19
 -1      2458 9.58783E-05-2.85901E-05-2.88365E-05 7.79973E-07 8.16884E-19 3.90087E-19
 -1      2459 9.60448E-05-2.86180E-05-2.88910E-05 9.00673E-07 4.36617E-19 6.56613E-19
 -1      2460 9.59702E-05-2.84930E-05-2.89218E-05 1.17909E-06 5.29489E-19 2.80413E-19
 -1      2461 9.56564E-05-2.85644E-05-2.87526E-05 5.54183E-07-6.04737E-19 6.46535E-19
 -1      2462 9.57778E-05-2.85824E-05-2.87931E-05 6.47507E-07 1.14424E-19 6.42418E-19
 -1      2463 9.57426E-05-2.84909E-05-2.88246E-05 8.59005E-07 7.51820E-20 1.54712E-19
 -1      2464 9.54957E-05-2.85496E-05-2.86903E-05 3.81901E-07 2.12283E-19 1.53261E-18
 -1      2465 9.55820E-05-2.85605E-05-2.87197E-05 4.52585E-07-3.36746E-19 1.02495E-18
 -1      2466 9.55731E-05-2.84953E-05-2.87497E-05 6.09950E-07-8.20748E-19 1.37869E-18
 -1      2467 9.53824E-05-2.85422E-05-2.86451E-05 2.53099E-07 7.22151E-19 1.46588E-18
 -1      2468 9.54420E-05-2.85481E-05-2.86659E-05 3.05537E-07 6.27735E-19 1.70408E-18
 -1      2469 9.54495E-05-2.85031E-05-2.86930E-05 4.20034E-07 3.48682E-20 1.85480E-18
 -1      2470 9.53050E-05-2.85396E-05-2.86132E-05 1.58834E-07 8.06360E-19 1.98889E-18
 -1      2471 9.53445E-05-2.85422E-05-2.86274E-05 1.96889E-07 1.22487E-18 2.09031E-18
 -1      2472 9.53615E-05-2.85123E-05-2.86510E-05 2.78105E-07 6.50813E-19 1.01004E-18
 -1      2473 9.52543E-05-2.85402E-05-2.85913E-05 9.14363E-08 4.60550E-19 2.29023E-18
 -1      2474 9.52792E-05-2.85406E-05-2.86007E-05 1.18385E-07 7.09142E-19 1.88785E-18
 -1      2475 9.53007E-05-2.85217E-05-2.86206E-05 1.74258E-07 6.51423E-19 1.01118E-18
 -1      2476 9.52231E-05-2.85426E-05-2.85770E-05 4.45265E-08 5.16666E-19 5.64157E-19
 -1      2477 9.52374E-05-2.85416E-05-2.85828E-05 6.30695E-08 4.39683E-19 1.45171E-18
 -1      2478 9.52603E-05-2.85306E-05-2.85992E-05 1.00020E-07 1.24760E-18 5.26882E-19
 -1      2479 9.52057E-05-2.85460E-05-2.85682E-05 1.29310E-08-6.19205E-19-2.92857E-19
 -1      2480 9.52128E-05-2.85443E-05-2.85715E-05 2.52403E-08 4.71599E-19 5.66858E-20
 -1      2481 9.52347E-05-2.85386E-05-2.85846E-05 4.83547E-08 4.09349E-19 4.49604E-19
 -1      2482 9.51980E-05-2.85499E-05-2.85633E-05-7.45016E-09-1.37678E-18 4.75099E-19
 -1      2483 9.52001E-05-2.85477E-05-2.85648E-05 3.32453E-10-1.44054E-18-2.96411E-19
 -1      2484 9.52200E-05-2.85456E-05-2.85752E-05 1.35629E-08-1.07152E-18 1.31022E-18
 -1      2485 9.51967E-05-2.85538E-05-2.85611E-05-1.97897E-08-1.05834E-18 1.88296E-18
 -1      2486 9.51955E-05-2.85515E-05-2.85614E-05-1.52250E-08-1.43474E-18 2.08040E-19
 -1      2487 9.52127E-05-2.85516E-05-2.85694E-05-8.86697E-09-1.50001E-18-3.91586E-21
 -1      2488 9.51995E-05-2.85576E-05-2.85607E-05-2.64756E-08-2.62752E-19 2.10669E-18
 -1      2489 9.51964E-05-2.85553E-05-2.85603E-05-2.41555E-08-6.39155E-19 2.37855E-18
 -1      2490 9.52105E-05-2.85566E-05-2.85662E-05-2.24196E-08-1.02727E-18 8.26012E-19
 -1      2491 9.52046E-05-2.85612E-05-2.85614E-05-2.92385E-08-1.69649E-19 1.92236E-18
 -1      2492 9.52005E-05-2.85590E-05-2.85606E-05-2.84711E-08 3.45726E-19 2.36483E-18
 -1      2493 9.52117E-05-2.85609E-05-2.85648E-05-2.97108E-08 1.57811E-19 7.58700E-19
 -1      2494 9.52110E-05-2.85645E-05-2.85628E-05-2.92587E-08 5.87995E-19 2.17281E-18
 -1      2495 9.52065E-05-2.85625E-05-2.85617E-05-2.95892E-08-3.28309E-19 2.14575E-18
 -1      2496 9.52149E-05-2.85645E-05-2.85645E-05-3.26288E-08-5.02929E-19 1.83826E-18
 -1      2497 9.52178E-05-2.85677E-05-2.85643E-05-2.72559E-08 1.93394E-18 2.37740E-18
 -1      2498 9.52133E-05-2.85658E-05-2.85632E-05-2.84323E-08 1.72423E-18 2.29138E-18
 -1      2499 9.52192E-05-2.85678E-05-2.85649E-05-3.24589E-08 1.36975E-18 3.49445E-18
 -1      2500 9.52244E-05-2.85708E-05-2.85659E-05-2.35721E-08 8.68238E-19 2.45278E-18
 -1      2501 9.52202E-05-2.85690E-05-2.85649E-05-2.55173E-08 1.63125E-18 2.30377E-18
 -1      2502 9.52240E-05-2.85708E-05-2.85656E-05-3.00083E-08 1.45337E-18 1.94419E-18
 -1      2503 9.52304E-05-2.85739E-05-2.85671E-05-1.83485E-08-1.13924E-18 2.69972E-18
 -1      2504 9.52268E-05-2.85721E-05-2.85663E-05-2.10050E-08-4.01402E-19 2.43762E-18
 -1      2505 9.52289E-05-2.85740E-05-2.85664E-05-2.56923E-08 4.24937E-19 3.57651E-18
 -1      2506 9.52327E-05-2.85751E-05-2.85676E-05-1.47993E-08-6.85075E-19 1.93929E-18
 -1      2507 9.52494E-05-2.85973E-05-2.85651E-05-1.80609E-08 8.38925E-19-9.14003E-19
 -1      2508 9.52477E-05-2.85947E-05-2.85656E-05-2.01018E-08 1.41851E-18-3.58147E-18
 -1      2509 9.52518E-05-2.86007E-05-2.85647E-05-1.23536E-08 9.12735E-20-1.58411E-18
 -1      2510 9.52507E-05-2.85989E-05-2.85650E-05-1.51859E-08 6.49766E-19-9.24707E-19
 -1      2511 9.52507E-05-2.85951E-05-2.85667E-05-1.85207E-08 1.03409E-18-6.93247E-19
 -1      2512 9.52416E-05-2.85868E-05-2.85663E-05-2.32951E-08 4.05570E-19-2.61222E-18
 -1      2513 9.52389E-05-2.85834E-05-2.85667E-05-2.28822E-08 8.65350E-19-6.27494E-19
 -1      2514 9.52460E-05-2.85925E-05-2.85657E-05-2.19359E-08 3.50386E-19-2.97300E-18
 -1      2515 9.52438E-05-2.85895E-05-2.85662E-05-2.28483E-08-2.40083E-19-2.48033E-18
 -1      2516 9.52422E-05-2.85862E-05-2.85669E-05-2.59144E-08 7.17903E-19-3.43714E-18
 -1      2517 9.52471E-05-2.85912E-05-2.85668E-05-2.34785E-08 7.83875E-19-2.48781E-18
 -1      2518 9.52531E-05-2.86026E-05-2.85644E-05-5.52670E-09-7.02878E-19-1.07003E-18
 -1      2519 9.52525E-05-2.86017E-05-2.85646E-05-8.81825E-09-7.65417E-19-9.79957E-19
 -1      2520 9.52531E-05-2.85978E-05-2.85666E-05-1.17767E-08 6.65283E-19-1.21050E-18
 -1      2521 9.52534E-05-2.86029E-05-2.85644E-05 1.77279E-09-1.11338E-18-2.21343E-19
 -1      2522 9.52534E-05-2.86030E-05-2.85644E-05-1.66750E-09-8.03052E-19-4.37743E-19
 -1      2523 9.52543E-05-2.85991E-05-2.85665E-05-3.99900E-09 5.05692E-20-7.66685E-19
 -1      2524 9.52525E-05-2.86017E-05-2.85646E-05 8.91822E-09-1.19382E-18 5.62704E-20
 -1      2525 9.52531E-05-2.86026E-05-2.85644E-05 5.63062E-09-1.53936E-18 4.83961E-19
 -1      2526 9.52543E-05-2.85991E-05-2.85665E-05 4.11381E-09-4.33087E-19-5.77785E-19
 -1      2527 9.52507E-05-2.85989E-05-2.85650E-05 1.51779E-08-1.61420E-19-6.65191E-19
 -1      2528 9.52518E-05-2.86007E-05-2.85647E-05 1.23941E-08-4.69067E-19-1.09198E-18
 -1      2529 9.52531E-05-2.85978E-05-2.85666E-05 1.18236E-08-8.55233E-19-1.69947E-20
 -1      2530 9.52477E-05-2.85947E-05-2.85656E-05 2.01154E-08-8.46927E-19 1.07566E-18
 -1      2531 9.52494E-05-2.85973E-05-2.85651E-05 1.80612E-08-1.27758E-19 6.83657E-19
 -1      2532 9.52507E-05-2.85951E-05-2.85667E-05 1.85142E-08 1.38335E-19-1.36107E-19
 -1      2533 9.52437E-05-2.85894E-05-2.85662E-05 2.28136E-08-1.69812E-19 3.28679E-18
 -1      2534 9.52459E-05-2.85925E-05-2.85657E-05 2.19399E-08-8.50668E-19 2.49117E-18
 -1      2535 9.52470E-05-2.85912E-05-2.85668E-05 2.35397E-08 3.15814E-19 1.61768E-18
 -1      2536 9.52389E-05-2.85833E-05-2.85667E-05 2.27565E-08 6.78233E-19 2.79206E-18
 -1      2537 9.52415E-05-2.85867E-05-2.85663E-05 2.33472E-08 1.17668E-20 1.84220E-18
 -1      2538 9.52424E-05-2.85862E-05-2.85669E-05 2.58848E-08-1.09594E-19 2.68120E-18
 -1      2539 9.35177E-05-5.13767E-05-1.80947E-05 4.05483E-05 4.23305E-19 2.34145E-18
 -1      2540 7.52172E-05-4.56145E-05-1.25594E-05 4.13848E-05 4.30081E-19 3.77380E-18
 -1      2541 1.04278E-04-3.09186E-05-3.14409E-05-4.46913E-06 9.78536E-19 2.41866E-18
 -1      2542 1.03613E-04-3.03107E-05-3.13679E-05-4.03649E-06 1.25682E-18 2.61977E-18
 -1      2543 1.03708E-04-3.08720E-05-3.12437E-05-5.29842E-06 1.02421E-18 1.44014E-18
 -1      2544 1.47969E-04-4.53380E-05-4.42076E-05 4.97903E-06 5.70718E-18-1.24302E-18
 -1      2545 1.41644E-04-5.07517E-05-3.91266E-05 9.89514E-06 4.45637E-18-1.01517E-18
 -1      2546 9.52352E-05-2.85787E-05-2.85671E-05 1.79205E-08 1.30749E-18 1.89989E-18
 -1      2547 3.51886E-05-2.79561E-05-2.92358E-06-2.98739E-05 1.80884E-18 7.33446E-18
 -1      2548 5.06678E-05-3.45211E-05-6.81888E-06-3.91213E-05 1.12041E-18 7.36008E-18
 -1      2549 5.97150E-05-3.78189E-05-9.16174E-06 4.14092E-05 3.93870E-20 5.95739E-18
 -1      2550 4.51406E-05-3.01648E-05-6.02328E-06 3.50730E-05-8.09340E-19 6.87897E-18
 -1      2551 7.45540E-05-4.17406E-05-1.36513E-05 4.01890E-05-1.79211E-18 3.27632E-18
 -1      2552 2.04791E-05-1.88783E-05-3.96584E-07-1.14576E-05 1.59375E-18 8.22511E-18
 -1      2553 2.60894E-05-2.28030E-05-1.15705E-06-2.25128E-05 1.58130E-18 8.00510E-18
 -1      2554 3.94136E-05-2.38011E-05-6.23195E-06-2.79089E-05 2.15612E-18 7.70800E-18
 -1      2555 7.96402E-05-5.60189E-06-3.17604E-05-2.54567E-07 8.37667E-19-4.09466E-18
 -1      2556 8.02281E-05-5.94024E-06-3.18546E-05-5.72784E-07 4.38018E-19-4.08712E-18
 -1      2557 8.13562E-05-7.66905E-06-3.15700E-05-2.06610E-07 2.75448E-19-3.81821E-18
 -1      2558 8.00492E-05-6.75440E-06-3.14000E-05-1.25690E-07 9.25204E-19-3.74568E-18
 -1      2559 1.39886E-04-1.13224E-05-5.58107E-05-5.02878E-06 8.21029E-18-9.23266E-20
 -1      2560 1.45758E-04-1.81498E-05-5.49322E-05-6.95917E-06 8.44153E-18-1.05773E-18
 -1      2561 1.42737E-04-5.00447E-05-3.98750E-05-7.34022E-06 2.49938E-18 2.92438E-19
 -1      2562 1.47956E-04-4.24174E-05-4.58043E-05-6.48222E-07 3.67930E-18 5.03138E-19
 -1      2563 1.39353E-04-1.29845E-05-5.46772E-05 5.33043E-06 7.12545E-18 1.38458E-18
 -1      2564 1.37314E-04-1.00642E-05-5.52201E-05 1.25847E-06 7.50852E-18 1.08137E-18
 -1      2565 1.50637E-04-2.17097E-05-5.55472E-05 5.22123E-06-7.43314E-18-4.89585E-19
 -1      2566 1.51304E-04-1.62633E-05-5.82992E-05 4.70268E-06-8.44958E-18-3.79047E-19
 -1      2567 1.46485E-04-2.97022E-05-5.03176E-05 5.87010E-06 5.13048E-18 9.70276E-19
 -1      2568 1.44296E-04-2.02663E-05-5.38723E-05 7.27960E-06 6.32098E-18 1.54689E-18
 -1      2569 1.32989E-04-1.71394E-05-5.00081E-05 8.56675E-06 6.26169E-18 2.11906E-18
 -1      2570 1.23467E-04-5.80336E-05-2.80986E-05-2.72343E-05-1.32772E-19-1.72562E-18
 -1      2571 1.35847E-04-5.68627E-05-3.42255E-05-1.96886E-05 1.08558E-18-8.04893E-19
 -1      2572 9.17305E-05-5.11168E-05-1.71990E-05-4.04372E-05-1.89630E-18-3.97777E-18
 -1      2573 1.10160E-04-5.58682E-05-2.32114E-05-3.71559E-05-6.58568E-19-2.96933E-18
 -1      2574 1.20834E-04-5.93321E-05-2.62089E-05-2.75992E-05-1.97899E-18-1.03005E-18
 -1      2575 4.79162E-05-3.46336E-05-5.63966E-06-3.73633E-05-1.50835E-18-6.99205E-18
 -1      2576 6.62174E-05-4.07622E-05-1.08589E-05-4.26298E-05-1.76903E-18-5.76872E-18
 -1      2577 2.65033E-05-1.98390E-05-2.48590E-06-2.04359E-05-1.06419E-18-7.83738E-18
 -1      2578 3.57667E-05-2.69738E-05-3.59888E-06-3.14462E-05-9.67947E-19-7.69296E-18
 -1      2579 4.84764E-05-2.82838E-05-8.17460E-06-3.42531E-05-1.90561E-18-6.74683E-18
 -1      2580 2.37189E-05-1.58087E-05-2.88613E-06 9.19295E-06 5.39031E-19-7.53182E-18
 -1      2581 2.28344E-05-1.54114E-05-2.65542E-06-6.61780E-06 1.93335E-19-7.77979E-18
 -1      2582 8.08079E-05-4.75969E-05-1.44042E-05 4.40153E-05-3.50248E-19-3.63695E-18
 -1      2583 6.41171E-05-4.13814E-05-9.51390E-06 4.11454E-05 2.03500E-19-4.44417E-18
 -1      2584 1.20213E-04-5.79236E-05-2.69787E-05 3.21053E-05-7.83717E-19-6.62697E-19
 -1      2585 1.00936E-04-5.44825E-05-1.97664E-05 3.81113E-05-1.67289E-19-2.01774E-18
 -1      2586 1.42454E-04-5.39554E-05-3.84010E-05 1.31075E-05-2.97626E-18 1.16361E-18
 -1      2587 1.34064E-04-5.71450E-05-3.28969E-05 1.95560E-05-1.73695E-18 3.23143E-19
 -1      2588 1.49508E-04-3.48967E-05-4.96544E-05-3.89071E-06-5.63033E-18 1.18225E-18
 -1      2589 1.46635E-04-4.46753E-05-4.37790E-05 2.16165E-06-4.37238E-18 1.25403E-18
 -1      2590 1.45844E-04-1.71709E-05-5.57513E-05-5.28528E-06-7.75035E-18 9.13737E-19
 -1      2591 1.46004E-04-2.30174E-05-5.30981E-05-7.25411E-06-7.01364E-18 1.09860E-18
 -1      2592 1.46252E-04-1.21726E-05-5.78485E-05 2.04768E-06-8.76933E-18-1.93971E-19
 -1      2593 1.42879E-04-1.15438E-05-5.68222E-05-1.85232E-06-8.07349E-18-3.28225E-21
 -1      2594 1.47967E-04-3.97819E-05-4.65699E-05 9.19469E-07-4.17820E-18-4.55704E-19
 -1      2595 1.51488E-04-3.19612E-05-5.16013E-05 4.04657E-06-6.05502E-18-8.34116E-19
 -1      2596 1.37120E-04-5.45624E-05-3.54518E-05-1.58269E-05-7.70694E-19 1.66357E-18
 -1      2597 1.45763E-04-5.00062E-05-4.14372E-05-8.66449E-06-2.18024E-18 9.40207E-19
 -1      2598 1.09069E-04-5.62626E-05-2.25056E-05-3.43272E-05 1.22523E-18 2.91221E-18
 -1      2599 1.26293E-04-5.72534E-05-2.96854E-05-2.80169E-05 2.18111E-19 2.78907E-18
 -1      2600 1.33585E-04-5.91091E-05-3.18884E-05-1.67620E-05 7.05367E-19 1.38903E-18
 -1      2601 6.85199E-05-4.35915E-05-1.06032E-05-4.09794E-05 1.27351E-18 5.46972E-18
 -1      2602 8.71974E-05-4.97150E-05-1.61814E-05-4.15447E-05 1.21020E-18 3.15361E-18
 -1      2603 9.95796E-05-2.11523E-05-3.36445E-05-6.65993E-06-2.75071E-18-1.61552E-18
 -1      2604 1.00806E-04-2.46797E-05-3.26419E-05-2.67644E-06-2.49703E-18-1.23697E-18
 -1      2605 9.92211E-05-2.33415E-05-3.25217E-05-1.69744E-06-2.18605E-18-1.63693E-18
 -1      2606 9.64798E-05-1.81917E-05-3.35748E-05-5.99088E-06-2.59132E-18-2.35896E-18
 -1      2607 1.02899E-04-2.70181E-05-3.25311E-05 3.27726E-06 2.99905E-18 4.20330E-18
 -1      2608 1.03367E-04-2.55729E-05-3.33565E-05 6.46839E-06 3.19382E-18 4.70576E-18
 -1      2609 1.01229E-04-2.28937E-05-3.36299E-05 7.28447E-06 3.52787E-18 3.41624E-18
 -1      2610 1.01567E-04-2.57250E-05-3.25419E-05 2.60136E-06 3.11262E-18 2.52767E-18
 -1      2611 1.39488E-04-2.22219E-05-5.04431E-05-9.96617E-06 7.41853E-18-1.73430E-18
 -1      2612 8.76553E-05-1.22568E-05-3.23031E-05-1.45555E-06-1.10517E-18-3.69432E-18
 -1      2613 8.75995E-05-1.11593E-05-3.28248E-05-2.78474E-06-1.24773E-18-3.94461E-18
 -1      2614 8.96847E-05-1.25266E-05-3.31066E-05-3.74617E-06-1.70472E-18-3.75298E-18
 -1      2615 1.02474E-04-2.92815E-05-3.13938E-05-3.91977E-06 1.71141E-18 1.62407E-18
 -1      2616 9.84992E-05-2.01923E-05-3.36069E-05 6.66379E-06 3.59658E-18 1.76952E-18
 -1      2617 9.39351E-05-1.61675E-05-3.33786E-05-4.91244E-06-2.14719E-18-2.96808E-18
 -1      2618 1.02829E-04-5.47788E-05-2.03779E-05-3.66599E-05 1.75844E-18 2.42185E-18
 -1      2619 1.14978E-04-5.81858E-05-2.44976E-05-2.90370E-05 2.57890E-18 2.17322E-18
 -1      2620 9.62291E-05-5.11161E-05-1.88768E-05-3.75521E-05 2.53263E-18 1.76442E-18
 -1      2621 1.18436E-04-5.86267E-05-2.58645E-05 2.76869E-05-4.43528E-19-3.89106E-20
 -1      2622 1.07187E-04-5.59840E-05-2.17593E-05 3.54051E-05 1.16891E-19 1.37987E-18
 -1      2623 1.01503E-04-5.33057E-05-2.02464E-05 3.62723E-05-1.43339E-18 1.26703E-18
 -1      2624 1.45016E-04-4.11638E-05-4.46445E-05-4.84091E-06 5.55887E-18-2.41891E-18
 -1      2625 1.44426E-04-4.65296E-05-4.20119E-05 2.49128E-06-1.93584E-18-1.68538E-18
 -1      2626 6.52809E-05-3.82028E-05-1.11696E-05-3.95134E-05 2.46614E-18 5.48877E-18
 -1      2627 4.00012E-05-2.50356E-05-5.92568E-06 2.99575E-05-9.52489E-19 7.33086E-18
 -1      2628 3.59190E-05-1.87798E-05-6.74193E-06 2.31807E-05-1.23201E-18 7.28575E-18
 -1      2629 5.30030E-05-2.76995E-05-1.04806E-05 3.33071E-05-2.69547E-18 5.81202E-18
 -1      2630 9.52336E-05-2.85770E-05-2.85672E-05-1.93564E-08-9.27264E-19 1.24812E-18
 -1      2631 9.52354E-05-2.85795E-05-2.85668E-05-2.12061E-08-1.60334E-19 2.04988E-18
 -1      2632 1.36464E-04-1.19660E-05-5.35484E-05 5.08248E-06-8.12156E-18-8.60850E-19
 -1      2633 2.76326E-05-1.40891E-05-5.24890E-06 6.21840E-06-7.62727E-20 7.38570E-18
 -1      2634 2.28327E-05-1.65195E-05-2.16306E-06-2.35220E-06 7.69635E-19 7.74781E-18
 -1      2635 2.94747E-05-1.47534E-05-5.98583E-06-1.11807E-05 1.38707E-18 6.90205E-18
 -1      2636 1.34507E-04-1.28938E-05-5.23155E-05-5.71234E-06-7.49010E-18 5.87947E-19
 -1      2637 1.41839E-04-2.99458E-05-4.82106E-05-9.21326E-06-5.60492E-18 1.94585E-18
 -1      2638 9.83963E-05-2.13486E-05-3.29796E-05 4.31845E-06 3.34995E-18 1.27980E-18
 -1      2639 9.52323E-05-2.85759E-05-2.85671E-05 2.06156E-08 6.37155E-19 1.79122E-18
 -1      2640 9.52363E-05-2.85805E-05-2.85668E-05 2.25217E-08 1.25174E-18 2.50818E-18
 -1      2641 9.52364E-05-2.85804E-05-2.85669E-05 2.58956E-08 4.63319E-19 3.51343E-18
 -1      2642 9.52297E-05-2.85746E-05-2.85666E-05 2.34534E-08 6.30979E-19 1.95169E-18
 -1      2643 1.43408E-04-5.03577E-05-3.98856E-05 1.54971E-06-2.63478E-18 2.20017E-18
 -1      2644 1.28640E-04-5.98101E-05-2.93229E-05 2.25012E-05 3.74812E-19 1.14614E-18
 -1      2645 9.78163E-05-5.27258E-05-1.89768E-05 3.89337E-05 1.49734E-18-1.47050E-18
 -1      2646 3.21649E-05-1.57730E-05-6.48206E-06-1.26854E-05-3.11417E-19-7.55151E-18
 -1      2647 8.44975E-05-4.70220E-05-1.57555E-05-4.13748E-05-2.29715E-18-4.48493E-18
 -1      2648 9.91561E-05-5.12258E-05-2.04540E-05-3.62366E-05-3.01851E-18-2.81104E-18
 -1      2649 7.65697E-05-4.07595E-05-1.48380E-05-4.00857E-05-2.74947E-18-4.37514E-18
 -1      2650 1.41641E-04-3.66550E-05-4.51185E-05 8.28856E-06 3.56294E-18 2.20737E-18
 -1      2651 1.43293E-04-2.61438E-05-5.03185E-05 1.04605E-05-5.85406E-18-2.03330E-18
 -1      2652 5.85744E-05-3.53302E-05-9.49276E-06 3.89919E-05 1.37537E-18-4.78171E-18
 -1      2653 3.84015E-05-1.90241E-05-7.96548E-06 2.42345E-05 2.02155E-18-6.09334E-18
 -1      2654 3.03426E-05-1.74363E-05-4.93358E-06 1.62516E-05 1.34466E-18-6.98273E-18
 -1      2655 3.44276E-05-1.30140E-05-8.75525E-06 9.31039E-06 1.36071E-18-6.39870E-18
 -1      2656 1.39132E-04-5.55540E-05-3.57725E-05-7.79244E-06 5.49063E-19 8.90655E-19
 -1      2657 1.30068E-04-1.09575E-05-5.14561E-05-2.11864E-06 7.21863E-18 5.03932E-19
 -1      2658 1.39422E-04-5.45933E-05-3.66465E-05 4.27685E-06 2.22804E-18-2.62538E-18
 -1      2659 1.38149E-04-5.60853E-05-3.52227E-05 1.40507E-05 2.72596E-18-1.32942E-18
 -1      2660 1.31421E-04-5.86226E-05-3.10478E-05 1.75682E-05 9.90552E-19-2.02759E-18
 -1      2661 9.52354E-05-2.85795E-05-2.85668E-05-2.49632E-08 5.56991E-19 2.11568E-18
 -1      2662 9.52322E-05-2.85765E-05-2.85667E-05 2.72311E-08-1.27435E-19 2.76517E-18
 -1      2663 8.25277E-05-9.62472E-06-3.12488E-05-5.82304E-07 2.09574E-18-3.08682E-18
 -1      2664 8.13957E-05-8.85490E-06-3.11189E-05-7.00142E-07 1.80835E-18-3.21445E-18
 -1      2665 8.05331E-05-8.16854E-06-3.10245E-05-4.13575E-07 1.58073E-18-3.28625E-18
 -1      2666 8.00856E-05-7.86384E-06-3.09743E-05-3.84045E-07 1.24239E-18-3.27317E-18
 -1      2667 8.13411E-05-9.72811E-06-3.06672E-05-1.02070E-06 1.51829E-18-3.04555E-18
 -1      2668 8.98934E-05-1.52415E-05-3.20094E-05 4.86329E-07 2.86457E-18-1.75859E-18
 -1      2669 8.77658E-05-1.36492E-05-3.18003E-05-6.33793E-08 2.71588E-18-2.17313E-18
 -1      2670 9.46074E-05-1.91483E-05-3.23577E-05 1.47659E-06 3.08879E-18-3.98005E-19
 -1      2671 9.22012E-05-1.71388E-05-3.21961E-05 9.02950E-07 2.87484E-18-1.12621E-18
 -1      2672 9.18971E-05-1.79215E-05-3.16859E-05-7.67846E-07 2.63167E-18-1.28617E-18
 -1      2673 1.00449E-04-2.66265E-05-3.16447E-05-2.14698E-06 2.28930E-18 1.03247E-18
 -1      2674 1.00217E-04-2.55494E-05-3.19598E-05-3.05097E-07 2.65341E-18 1.22136E-18
 -1      2675 9.52359E-05-2.85793E-05-2.85671E-05 2.76079E-08 9.38264E-19 3.58930E-18
 -1      2676 9.52388E-05-2.85821E-05-2.85672E-05 2.81349E-08 8.57286E-19 3.50558E-18
 -1      2677 9.52347E-05-2.85781E-05-2.85671E-05 2.94532E-08 5.59643E-21 3.35008E-18
 -1      2678 9.85172E-05-2.26169E-05-3.25341E-05 2.23330E-06 3.15177E-18 9.64830E-19
 -1      2679 9.95293E-05-2.66370E-05-3.12017E-05 4.85146E-06-1.14732E-18-1.36602E-18
 -1      2680 1.00109E-04-2.77509E-05-3.10157E-05 6.06815E-06-9.04828E-19-1.34211E-18
 -1      2681 1.00864E-04-2.89297E-05-3.07867E-05 7.16351E-06-6.73534E-19-1.12091E-18
 -1      2682 1.01790E-04-3.02123E-05-3.06824E-05 7.74872E-06-4.06602E-19-1.18610E-18
 -1      2683 9.86262E-05-2.72213E-05-3.06325E-05 7.09896E-06-7.69523E-19-1.35451E-18
 -1      2684 1.03019E-04-3.16837E-05-3.05195E-05 8.28906E-06-6.93345E-20-8.89532E-19
 -1      2685 1.04383E-04-3.33026E-05-3.04787E-05 8.16207E-06 8.60086E-20-7.66468E-19
 -1      2686 1.00575E-04-3.02490E-05-3.01883E-05 8.94585E-06-2.35344E-19-1.27456E-18
 -1      2687 1.06324E-04-3.52175E-05-3.04056E-05 7.95907E-06 2.19774E-19-4.62952E-19
 -1      2688 1.08115E-04-3.71509E-05-3.04493E-05 6.96549E-06 1.40735E-19-4.10007E-19
 -1      2689 1.03704E-04-3.41129E-05-2.98961E-05 9.56960E-06 2.13728E-19-8.12980E-19
 -1      2690 1.10882E-04-3.94081E-05-3.05484E-05 5.69512E-06 3.33552E-20-9.92600E-20
 -1      2691 1.12855E-04-4.12583E-05-3.07484E-05 3.69261E-06-1.17140E-19-2.14339E-20
 -1      2692 1.08397E-04-3.89166E-05-2.98720E-05 8.48353E-06 2.04379E-19-4.22991E-19
 -1      2693 1.16154E-04-4.32330E-05-3.11808E-05 1.00862E-06 8.89881E-21 3.47055E-19
 -1      2694 1.17699E-04-4.40052E-05-3.16533E-05-1.89333E-06-3.08633E-19 5.77624E-19
 -1      2695 1.14551E-04-4.38768E-05-3.03846E-05 4.94394E-06 1.81249E-19 3.73029E-19
 -1      2696 1.20467E-04-4.43745E-05-3.26237E-05-5.78604E-06-4.96983E-19 1.01670E-18
 -1      2697 1.20727E-04-4.26791E-05-3.34830E-05-8.77225E-06-1.02711E-18 1.45877E-18
 -1      2698 1.20828E-04-4.66271E-05-3.18619E-05-1.55317E-06-1.64397E-19 1.26090E-18
 -1      2699 1.21217E-04-3.97010E-05-3.51350E-05-1.24140E-05-1.71535E-18 1.86871E-18
 -1      2700 1.19574E-04-3.49008E-05-3.63203E-05-1.34934E-05-2.44647E-18 1.76418E-18
 -1      2701 1.24642E-04-4.37864E-05-3.46546E-05-9.78350E-06-1.03343E-18 1.80697E-18
 -1      2702 1.17460E-04-2.90842E-05-3.82266E-05-1.36611E-05-3.17148E-18 1.66560E-18
 -1      2703 1.14988E-04-2.34455E-05-3.92835E-05-1.10547E-05-3.52106E-18 9.38923E-19
 -1      2704 1.23238E-04-3.32826E-05-3.87065E-05-1.41825E-05-2.93005E-18 2.02610E-18
 -1      2705 1.12616E-04-1.90250E-05-4.04818E-05-5.55260E-06-4.06507E-18-2.68797E-19
 -1      2706 1.11977E-04-1.74133E-05-4.07721E-05-1.14803E-07-3.91234E-18-1.19016E-18
 -1      2707 1.18120E-04-1.96322E-05-4.24838E-05-9.51226E-06-4.76837E-18 5.70053E-19
 -1      2708 1.12752E-04-1.88372E-05-4.03978E-05 6.98704E-06-3.57803E-18-2.64818E-18
 -1      2709 1.14600E-04-2.28074E-05-3.97152E-05 1.15332E-05-3.39210E-18-3.26171E-18
 -1      2710 1.16688E-04-1.58390E-05-4.35018E-05 3.87411E-06-4.67721E-18-1.55154E-18
 -1      2711 1.17317E-04-2.86072E-05-3.80571E-05 1.45156E-05-2.93645E-18-3.52972E-18
 -1      2712 1.19709E-04-3.43633E-05-3.68779E-05 1.52915E-05-2.15586E-18-3.70145E-18
 -1      2713 1.20532E-04-2.54673E-05-4.09744E-05 1.42142E-05-3.45399E-18-3.73258E-18
 -1      2714 1.20769E-04-3.91915E-05-3.49928E-05 1.32491E-05-1.28693E-18-3.52080E-18
 -1      2715 1.21687E-04-4.27343E-05-3.39353E-05 1.09792E-05-2.81554E-19-3.30353E-18
 -1      2716 1.24436E-04-3.85116E-05-3.68646E-05 1.44533E-05-1.73925E-18-3.45931E-18
 -1      2717 1.19881E-04-4.40483E-05-3.25752E-05 6.84925E-06 2.32567E-19-2.70778E-18
 -1      2718 1.19019E-04-4.45176E-05-3.18923E-05 3.70580E-06 9.94354E-19-2.35868E-18
 -1      2719 1.23470E-04-4.60085E-05-3.32358E-05 7.21804E-06 2.01303E-19-2.84514E-18
 -1      2720 1.15788E-04-4.32627E-05-3.11545E-05 1.69092E-07 1.18440E-18-1.58460E-18
 -1      2721 1.13960E-04-4.18996E-05-3.08001E-05-2.45277E-06 1.22941E-18-1.59711E-18
 -1      2722 1.18117E-04-4.60082E-05-3.09722E-05-6.50559E-07 1.45737E-18-1.71002E-18
 -1      2723 1.10800E-04-3.97570E-05-3.04940E-05-4.59674E-06 1.24069E-18-1.32383E-18
 -1      2724 1.08840E-04-3.78896E-05-3.03344E-05-6.30422E-06 1.36728E-18-5.35008E-19
 -1      2725 1.11553E-04-4.19813E-05-2.99009E-05-6.02142E-06 1.48085E-18-8.45690E-19
 -1      2726 1.06389E-04-3.58636E-05-3.02492E-05-7.28599E-06 1.06623E-18-1.52634E-19
 -1      2727 1.04707E-04-3.41941E-05-3.01710E-05-8.15112E-06 1.60244E-18-6.80811E-19
 -1      2728 1.05931E-04-3.71891E-05-2.95391E-05-8.76788E-06 1.47787E-18-4.31689E-19
 -1      2729 1.03052E-04-3.26793E-05-3.01668E-05-8.36639E-06 1.35246E-18-9.62424E-19
 -1      2730 1.01756E-04-3.14471E-05-3.01040E-05-8.62182E-06 1.02729E-18-1.22557E-18
 -1      2731 1.01871E-04-3.31741E-05-2.94952E-05-9.66353E-06 9.59723E-19-4.83073E-22
 -1      2732 1.00724E-04-3.04606E-05-3.01106E-05-8.40558E-06 9.88582E-19-1.29310E-18
 -1      2733 9.97653E-05-2.96476E-05-3.00365E-05-8.27193E-06 4.95275E-19-1.48045E-18
 -1      2734 9.92397E-05-3.03797E-05-2.95435E-05-9.47616E-06 7.29117E-19-4.50311E-19
 -1      2735 9.91543E-05-2.90759E-05-3.00265E-05-7.83459E-06 1.49578E-19-1.06724E-18
 -1      2736 9.84477E-05-2.85843E-05-2.99365E-05-7.48104E-06-1.44876E-19-6.86135E-19
 -1      2737 9.76372E-05-2.86546E-05-2.95815E-05-8.71569E-06 6.58747E-19-1.12009E-18
 -1      2738 9.80970E-05-2.82972E-05-2.99047E-05-6.95048E-06-7.16945E-19-1.19407E-18
 -1      2739 9.75679E-05-2.80255E-05-2.98040E-05-6.49492E-06-2.87164E-19-1.49246E-18
 -1      2740 9.66999E-05-2.77126E-05-2.95749E-05-7.68734E-06-7.69254E-19 1.14755E-19
 -1      2741 9.73684E-05-2.79162E-05-2.97549E-05-5.94745E-06-2.69727E-20-1.61295E-18
 -1      2742 9.69636E-05-2.77840E-05-2.96510E-05-5.46638E-06-2.25854E-19-1.79832E-18
 -1      2743 9.61626E-05-2.72862E-05-2.95228E-05-6.57304E-06-2.74698E-19-1.32908E-18
 -1      2744 9.68481E-05-2.77767E-05-2.95917E-05-4.94613E-06 2.31472E-19-1.61437E-18
 -1      2745 9.65328E-05-2.77278E-05-2.94914E-05-4.48552E-06 6.73205E-19-1.64291E-18
 -1      2746 9.58539E-05-2.71720E-05-2.94373E-05-5.48052E-06 3.32337E-19-1.41825E-18
 -1      2747 9.64625E-05-2.77734E-05-2.94285E-05-4.01610E-06 2.76347E-19-1.80000E-18
 -1      2748 9.62143E-05-2.77713E-05-2.93364E-05-3.60070E-06 2.50081E-19-2.04286E-18
 -1      2749 9.56713E-05-2.72313E-05-2.93327E-05-4.47116E-06 3.35487E-19-1.19441E-18
 -1      2750 9.61684E-05-2.78398E-05-2.92749E-05-3.19255E-06 1.21169E-19-2.29762E-18
 -1      2751 9.59726E-05-2.78619E-05-2.91936E-05-2.83315E-06 4.95261E-20-2.11618E-18
 -1      2752 9.55570E-05-2.73757E-05-2.92216E-05-3.57628E-06-1.16288E-19-1.51714E-18
 -1      2753 9.59399E-05-2.79361E-05-2.91368E-05-2.48839E-06 2.77353E-19-2.22842E-18
 -1      2754 9.57861E-05-2.79689E-05-2.90673E-05-2.18702E-06-1.37840E-19-2.04379E-18
 -1      2755 9.54799E-05-2.75521E-05-2.91129E-05-2.80757E-06 2.18257E-19-1.40978E-18
 -1      2756 9.57613E-05-2.80398E-05-2.90169E-05-1.90273E-06 4.98151E-19-1.73530E-18
 -1      2757 9.56415E-05-2.80756E-05-2.89592E-05-1.65636E-06 1.04220E-18-1.51103E-18
 -1      2758 9.54240E-05-2.77305E-05-2.90126E-05-2.16410E-06 3.98376E-19-2.26041E-18
 -1      2759 9.56219E-05-2.81388E-05-2.89159E-05-1.42682E-06 7.64526E-19-1.04900E-18
 -1      2760 9.55299E-05-2.81733E-05-2.88689E-05-1.22976E-06 9.93841E-19-6.62584E-19
 -1      2761 9.53813E-05-2.78953E-05-2.89236E-05-1.63733E-06 1.39470E-18-1.88161E-18
 -1      2762 9.55141E-05-2.82273E-05-2.88328E-05-1.04797E-06 4.66008E-19 4.78938E-19
 -1      2763 9.54444E-05-2.82585E-05-2.87954E-05-8.93428E-07 1.15493E-19 4.56984E-19
 -1      2764 9.53476E-05-2.80395E-05-2.88473E-05-1.21468E-06 1.30617E-18 6.25314E-19
 -1      2765 9.54316E-05-2.83031E-05-2.87658E-05-7.52068E-07-8.61030E-19 8.14398E-19
 -1      2766 9.53798E-05-2.83301E-05-2.87367E-05-6.33136E-07-5.25772E-19 5.08889E-19
 -1      2767 9.53208E-05-2.81612E-05-2.87836E-05-8.81834E-07-2.58434E-19 1.72827E-18
 -1      2768 9.53696E-05-2.83661E-05-2.87130E-05-5.25190E-07 3.60710E-20 5.44841E-19
 -1      2769 9.53318E-05-2.83888E-05-2.86907E-05-4.35357E-07-4.53225E-19 1.16663E-18
 -1      2770 9.52994E-05-2.82611E-05-2.87315E-05-6.24428E-07-3.34392E-19 9.33043E-19
 -1      2771 9.53238E-05-2.84172E-05-2.86721E-05-3.54444E-07-1.04751E-18 1.90426E-18
 -1      2772 9.52969E-05-2.84358E-05-2.86553E-05-2.87895E-07-5.36411E-19 2.63795E-18
 -1      2773 9.52826E-05-2.83412E-05-2.86899E-05-4.28938E-07-4.06008E-19 1.65305E-18
 -1      2774 9.52907E-05-2.84578E-05-2.86411E-05-2.28428E-07-6.35008E-19 1.93697E-18
 -1      2775 9.52721E-05-2.84727E-05-2.86287E-05-1.80149E-07-2.88468E-20 1.32754E-18
 -1      2776 9.52696E-05-2.84041E-05-2.86572E-05-2.83236E-07-8.07627E-19 8.73440E-19
 -1      2777 9.52674E-05-2.84895E-05-2.86179E-05-1.37385E-07-4.33808E-19 1.09768E-18
 -1      2778 9.52551E-05-2.85012E-05-2.86091E-05-1.03179E-07-1.48948E-18 2.95610E-19
 -1      2779 9.52596E-05-2.84526E-05-2.86321E-05-1.76812E-07-1.09494E-18-5.74048E-20
 -1      2780 9.52515E-05-2.85137E-05-2.86011E-05-7.31862E-08-1.15343E-18-6.99214E-19
 -1      2781 9.52438E-05-2.85228E-05-2.85949E-05-4.96214E-08-7.38726E-20-9.39604E-19
 -1      2782 9.52522E-05-2.84893E-05-2.86131E-05-1.00814E-07-1.49015E-18-8.17450E-19
 -1      2783 9.52412E-05-2.85320E-05-2.85891E-05-2.92171E-08 5.66291E-19-3.93828E-19
 -1      2784 9.52368E-05-2.85389E-05-2.85849E-05-1.35496E-08 3.03824E-19 7.03646E-20
 -1      2785 9.52468E-05-2.85166E-05-2.85990E-05-4.79579E-08 2.53928E-19-8.63187E-19
 -1      2786 9.52350E-05-2.85455E-05-2.85808E-05-2.09766E-10 4.22264E-19-5.13886E-19
 -1      2787 9.52328E-05-2.85507E-05-2.85781E-05 9.70557E-09 1.38650E-20-1.01544E-19
 -1      2788 9.52430E-05-2.85364E-05-2.85888E-05-1.23866E-08-1.70644E-19-1.31990E-18
 -1      2789 9.52316E-05-2.85553E-05-2.85753E-05 1.79364E-08-7.84943E-20 2.52533E-19
 -1      2790 9.52310E-05-2.85593E-05-2.85736E-05 2.37355E-08 2.42353E-19 5.77458E-19
 -1      2791 9.52404E-05-2.85506E-05-2.85815E-05 1.05095E-08 6.23109E-20-1.54668E-18
 -1      2792 9.52302E-05-2.85625E-05-2.85717E-05 2.83332E-08 6.78553E-19 1.33928E-18
 -1      2793 9.52307E-05-2.85655E-05-2.85708E-05 3.12249E-08 1.58323E-18 1.13812E-18
 -1      2794 9.52387E-05-2.85606E-05-2.85765E-05 2.42714E-08 1.41124E-18 4.70672E-19
 -1      2795 9.52302E-05-2.85677E-05-2.85696E-05 3.32688E-08 1.25252E-18 1.78157E-18
 -1      2796 9.52313E-05-2.85701E-05-2.85691E-05 3.41078E-08 7.02734E-19 1.93554E-18
 -1      2797 9.52378E-05-2.85676E-05-2.85730E-05 3.15439E-08 1.62626E-18 4.50667E-19
 -1      2798 9.52312E-05-2.85718E-05-2.85683E-05 3.43429E-08 7.34654E-19 2.29249E-18
 -1      2799 9.52327E-05-2.85738E-05-2.85681E-05 3.36718E-08-1.09716E-19 2.99964E-18
 -1      2800 9.52374E-05-2.85727E-05-2.85707E-05 3.42363E-08 6.23946E-19 7.40299E-19
 -1      2801 9.52327E-05-2.85750E-05-2.85676E-05 3.28741E-08-1.12804E-18 2.25352E-18
 -1      2802 9.52344E-05-2.85768E-05-2.85675E-05 3.10290E-08-1.07575E-18 2.30060E-18
 -1      2803 9.52382E-05-2.85795E-05-2.85680E-05 3.15707E-08-1.13566E-20 2.53940E-18
 -1      2804 9.52375E-05-2.85763E-05-2.85691E-05 3.38074E-08-4.27726E-19 2.03615E-19
 -1      2805 1.07901E-04-3.59338E-05-3.08860E-05-4.72106E-06 1.96273E-19 1.09506E-18
 -1      2806 1.06633E-04-3.45509E-05-3.08381E-05-5.76057E-06 4.30620E-19 1.04442E-18
 -1      2807 1.39624E-04-4.65732E-05-4.05082E-05-5.79321E-06-2.63766E-18 2.47672E-18
 -1      2808 1.38359E-04-5.40618E-05-3.60559E-05 1.84695E-06-1.08015E-18 2.62136E-18
 -1      2809 1.05049E-04-3.30861E-05-3.08665E-05-6.20253E-06 5.88508E-19 7.73365E-19
 -1      2810 1.03984E-04-3.18500E-05-3.08669E-05-6.45591E-06 6.30710E-19 7.19393E-19
 -1      2811 1.04793E-04-3.39148E-05-3.04267E-05-7.18329E-06 4.03500E-19 4.56557E-19
 -1      2812 1.14186E-04-4.04702E-05-3.16592E-05 3.42867E-06-4.87998E-19 2.39614E-18
 -1      2813 1.13446E-04-4.00935E-05-3.14006E-05 9.70508E-07-4.23037E-19 2.11294E-18
 -1      2814 1.15536E-04-3.92530E-05-3.27223E-05 8.88865E-06 3.32123E-19 2.17012E-18
 -1      2815 1.15814E-04-4.05579E-05-3.22754E-05 6.58171E-06-2.06804E-19 2.31158E-18
 -1      2816 1.16921E-04-4.26592E-05-3.18485E-05 3.75837E-06-2.64304E-19 2.24988E-18
 -1      2817 1.14074E-04-3.39356E-05-3.42980E-05 1.22740E-05 1.75496E-18 2.13290E-18
 -1      2818 1.15505E-04-3.71760E-05-3.36897E-05 1.14757E-05 1.04669E-18 2.24774E-18
 -1      2819 1.18664E-04-4.01750E-05-3.36272E-05 1.00236E-05 7.23098E-19 2.22008E-18
 -1      2820 1.10268E-04-2.61321E-05-3.60149E-05 1.02863E-05 2.36793E-18 1.67595E-18
 -1      2821 1.12141E-04-2.99901E-05-3.54231E-05 1.21943E-05 2.01354E-18 2.02185E-18
 -1      2822 1.16664E-04-3.26853E-05-3.59889E-05 1.33948E-05 2.03420E-18 2.33131E-18
 -1      2823 1.07300E-04-2.09742E-05-3.70610E-05 2.11130E-06 3.24451E-18 6.84508E-19
 -1      2824 1.08183E-04-2.26951E-05-3.68172E-05 6.39698E-06 2.95559E-18 1.07529E-18
 -1      2825 1.12505E-04-2.34206E-05-3.82639E-05 9.56345E-06 3.02351E-18 1.28025E-18
 -1      2826 1.08335E-04-2.29435E-05-3.68066E-05-7.78784E-06 3.14791E-18-9.03761E-19
 -1      2827 1.07467E-04-2.11173E-05-3.70394E-05-3.64956E-06 3.31100E-18-3.83534E-19
 -1      2828 1.10321E-04-1.91018E-05-3.92257E-05-1.01312E-06 3.85069E-18-3.29059E-19
 -1      2829 1.12567E-04-3.03332E-05-3.54429E-05-1.35392E-05 2.15447E-18-2.01315E-18
 -1      2830 1.10536E-04-2.63767E-05-3.60143E-05-1.17214E-05 2.84553E-18-1.52052E-18
 -1      2831 1.12484E-04-2.34749E-05-3.82346E-05-1.11366E-05 3.41026E-18-1.89557E-18
 -1      2832 1.15896E-04-3.74750E-05-3.37283E-05-1.24823E-05 1.09960E-18-2.59449E-18
 -1      2833 1.14415E-04-3.42794E-05-3.43168E-05-1.33772E-05 1.50602E-18-2.16694E-18
 -1      2834 1.17039E-04-3.32610E-05-3.59468E-05-1.43811E-05 2.04275E-18-2.12453E-18
 -1      2835 1.16167E-04-4.07398E-05-3.23409E-05-7.50623E-06-2.47658E-21-2.26677E-18
 -1      2836 1.15875E-04-3.94603E-05-3.27705E-05-9.85977E-06 4.56352E-19-2.33118E-18
 -1      2837 1.18768E-04-4.03251E-05-3.35809E-05-1.09933E-05 6.89035E-19-2.22246E-18
 -1      2838 1.13782E-04-4.02427E-05-3.14763E-05-1.81689E-06-4.15741E-19-1.53090E-18
 -1      2839 1.14504E-04-4.06139E-05-3.17266E-05-4.31074E-06-2.15798E-19-1.56216E-18
 -1      2840 1.16951E-04-4.27187E-05-3.18069E-05-4.66552E-06-4.69088E-19-1.71677E-18
 -1      2841 1.10306E-04-3.78096E-05-3.10201E-05 2.63147E-06-7.23105E-19-6.62737E-19
 -1      2842 1.11526E-04-3.89618E-05-3.11593E-05 6.82151E-07-2.80977E-19-9.86689E-19
 -1      2843 1.12872E-04-4.11035E-05-3.07951E-05 1.09789E-06-8.48039E-19-8.40062E-19
 -1      2844 1.06900E-04-3.49848E-05-3.07791E-05 5.39072E-06-7.40492E-19-5.64557E-19
 -1      2845 1.08204E-04-3.62618E-05-3.08767E-05 4.16668E-06-7.03176E-19-3.89781E-19
 -1      2846 1.08438E-04-3.78053E-05-3.03220E-05 4.99927E-06-7.28552E-19-3.60751E-19
 -1      2847 1.04074E-04-3.25762E-05-3.06136E-05 6.70320E-06-3.83631E-19-1.01733E-18
 -1      2848 1.05254E-04-3.36541E-05-3.07111E-05 6.11252E-06-4.11585E-19-7.09433E-19
 -1      2849 1.04674E-04-3.44705E-05-3.01306E-05 7.08756E-06-3.89554E-19-4.34480E-19
 -1      2850 1.01904E-04-3.08137E-05-3.04503E-05 6.99595E-06 5.75937E-19-1.16061E-18
 -1      2851 1.02898E-04-3.16081E-05-3.05632E-05 6.86542E-06 1.49893E-19-1.26974E-18
 -1      2852 1.01863E-04-3.18278E-05-3.00453E-05 7.83568E-06 2.43746E-19-1.01456E-18
 -1      2853 1.00284E-04-2.96452E-05-3.02651E-05 6.65443E-06-2.19558E-20-1.57134E-18
 -1      2854 1.01099E-04-3.01836E-05-3.03925E-05 6.81660E-06 5.57622E-19-1.20256E-18
 -1      2855 9.98958E-05-3.00038E-05-2.99730E-05 7.72330E-06 4.10185E-19-1.80811E-18
 -1      2856 9.90765E-05-2.89291E-05-3.00596E-05 5.96768E-06-1.27155E-18-1.91022E-18
 -1      2857 9.97387E-05-2.92725E-05-3.01941E-05 6.29073E-06-1.12520E-18-1.05796E-18
 -1      2858 9.85562E-05-2.88690E-05-2.98776E-05 7.11429E-06-6.02716E-19-1.21999E-18
 -1      2859 9.81655E-05-2.85238E-05-2.98458E-05 5.13303E-06-5.25179E-19-2.11704E-18
 -1      2860 9.87026E-05-2.87315E-05-2.99787E-05 5.52451E-06-5.21653E-19-1.85483E-18
 -1      2861 9.76439E-05-2.82335E-05-2.97546E-05 6.25896E-06-7.72989E-19-1.35873E-18
 -1      2862 9.74676E-05-2.83176E-05-2.96365E-05 4.27570E-06-1.19115E-18-1.04607E-18
 -1      2863 9.79022E-05-2.84362E-05-2.97609E-05 4.67634E-06-1.05523E-18-1.87975E-18
 -1      2864 9.70111E-05-2.79270E-05-2.96123E-05 5.32034E-06-7.65458E-19-7.94785E-19
 -1      2865 9.69265E-05-2.82323E-05-2.94418E-05 3.46887E-06-1.14629E-18-1.29483E-18
 -1      2866 9.72762E-05-2.82946E-05-2.95533E-05 3.84417E-06-8.47930E-19-1.51212E-18
 -1      2867 9.65597E-05-2.78218E-05-2.94627E-05 4.39896E-06-1.05287E-18-9.02239E-19
 -1      2868 9.65045E-05-2.82162E-05-2.92679E-05 2.75036E-06-9.29701E-19-4.00644E-19
 -1      2869 9.67834E-05-2.82441E-05-2.93643E-05 3.08283E-06-1.18115E-18-9.30770E-19
 -1      2870 9.62282E-05-2.78310E-05-2.93160E-05 3.55204E-06-1.30513E-18-1.26984E-18
 -1      2871 9.61754E-05-2.82372E-05-2.91178E-05 2.13504E-06-2.91275E-19 6.80867E-19
 -1      2872 9.63953E-05-2.82448E-05-2.91988E-05 2.41817E-06-1.69640E-19 1.78317E-19
 -1      2873 9.59789E-05-2.78987E-05-2.91797E-05 2.80770E-06-1.01635E-18 2.84263E-19
 -1      2874 9.59201E-05-2.82756E-05-2.89917E-05 1.62376E-06 5.70742E-19 7.07414E-19
 -1      2875 9.60912E-05-2.82718E-05-2.90580E-05 1.85765E-06-1.81813E-19 8.43596E-19
 -1      2876 9.57886E-05-2.79911E-05-2.90583E-05 2.17514E-06-5.41106E-19 3.43659E-19
 -1      2877 9.57241E-05-2.83200E-05-2.88884E-05 1.20938E-06 4.75450E-19 4.02175E-19
 -1      2878 9.58551E-05-2.83104E-05-2.89416E-05 1.39782E-06 9.51510E-19 7.79304E-19
 -1      2879 9.56424E-05-2.80888E-05-2.89535E-05 1.65194E-06 3.56502E-19 3.70222E-19
 -1      2880 9.55755E-05-2.83641E-05-2.88056E-05 8.80777E-07-3.09643E-19 7.45678E-19
 -1      2881 9.56741E-05-2.83520E-05-2.88473E-05 1.02930E-06 4.89400E-19 5.78394E-19
 -1      2882 9.55302E-05-2.81811E-05-2.88656E-05 1.22909E-06 2.07918E-19 1.30208E-19
 -1      2883 9.54646E-05-2.84046E-05-2.87405E-05 6.25399E-07-9.93201E-19 5.40622E-19
 -1      2884 9.55374E-05-2.83919E-05-2.87726E-05 7.40110E-07-8.11558E-19 4.51456E-19
 -1      2885 9.54448E-05-2.82631E-05-2.87936E-05 8.94365E-07-3.54899E-19-2.93219E-19
 -1      2886 9.53834E-05-2.84399E-05-2.86904E-05 4.30758E-07 7.47779E-19 3.70569E-19
 -1      2887 9.54360E-05-2.84279E-05-2.87146E-05 5.17613E-07-3.17899E-19 3.40362E-19
 -1      2888 9.53804E-05-2.83329E-05-2.87359E-05 6.34525E-07-4.90218E-19-8.53759E-19
 -1      2889 9.53252E-05-2.84698E-05-2.86526E-05 2.85305E-07 5.92815E-19-1.75759E-19
 -1      2890 9.53622E-05-2.84590E-05-2.86704E-05 3.49752E-07 1.18274E-18-1.15180E-19
 -1      2891 9.53327E-05-2.83906E-05-2.86905E-05 4.36633E-07 1.12987E-18-3.61564E-19
 -1      2892 9.52847E-05-2.84944E-05-2.86246E-05 1.78851E-07 6.32211E-19-1.30434E-19
 -1      2893 9.53099E-05-2.84850E-05-2.86375E-05 2.25649E-07 5.99954E-19 1.10258E-19
 -1      2894 9.52979E-05-2.84371E-05-2.86555E-05 2.88830E-07 6.56298E-19-6.31770E-19
 -1      2895 9.52574E-05-2.85141E-05-2.86044E-05 1.02710E-07 1.51402E-18-4.56154E-20
 -1      2896 9.52739E-05-2.85062E-05-2.86134E-05 1.35880E-07 1.37346E-18 3.14831E-19
 -1      2897 9.52732E-05-2.84737E-05-2.86290E-05 1.80699E-07 7.78938E-19 2.12932E-19
 -1      2898 9.52400E-05-2.85297E-05-2.85902E-05 4.96814E-08-1.55089E-19 1.08955E-18
 -1      2899 9.52500E-05-2.85232E-05-2.85963E-05 7.25310E-08 4.75615E-19 6.66121E-19
 -1      2900 9.52561E-05-2.85020E-05-2.86094E-05 1.03386E-07 6.68525E-19 1.38383E-18
 -1      2901 9.52296E-05-2.85418E-05-2.85805E-05 1.39373E-08-8.09410E-19 1.28063E-18
 -1      2902 9.52351E-05-2.85365E-05-2.85845E-05 2.91227E-08-8.97077E-20 1.79385E-18
 -1      2903 9.52448E-05-2.85235E-05-2.85952E-05 4.95596E-08-4.20025E-19 2.17735E-18
 -1      2904 9.52242E-05-2.85510E-05-2.85742E-05-9.12984E-09-1.40573E-18 3.17161E-19
 -1      2905 9.52266E-05-2.85468E-05-2.85766E-05 4.75157E-10-1.64386E-18 2.71497E-19
 -1      2906 9.52376E-05-2.85394E-05-2.85852E-05 1.32984E-08-5.46855E-19 2.21174E-18
 -1      2907 9.52223E-05-2.85580E-05-2.85704E-05-2.30758E-08-6.76933E-19-2.72610E-19
 -1      2908 9.52225E-05-2.85547E-05-2.85717E-05-1.74578E-08-9.63146E-19-9.67494E-20
 -1      2909 9.52335E-05-2.85512E-05-2.85784E-05-1.00743E-08-1.08338E-18 2.00127E-19
 -1      2910 9.52226E-05-2.85634E-05-2.85682E-05-3.05658E-08 1.31616E-19 4.24102E-19
 -1      2911 9.52215E-05-2.85607E-05-2.85688E-05-2.77549E-08 4.85362E-19 3.06621E-19
 -1      2912 9.52315E-05-2.85596E-05-2.85738E-05-2.41619E-08-4.93210E-19-5.80674E-19
 -1      2913 9.52244E-05-2.85676E-05-2.85672E-05-3.35211E-08-7.01825E-19 4.68790E-19
 -1      2914 9.52225E-05-2.85653E-05-2.85673E-05-3.26822E-08-5.70980E-19 4.74188E-19
 -1      2915 9.52311E-05-2.85658E-05-2.85709E-05-3.16599E-08-2.50410E-19-2.73026E-20
 -1      2916 9.52270E-05-2.85710E-05-2.85668E-05-3.32475E-08 8.71872E-19 2.16005E-18
 -1      2917 9.52248E-05-2.85691E-05-2.85667E-05-3.38297E-08-6.61279E-20 1.78171E-18
 -1      2918 9.52316E-05-2.85703E-05-2.85692E-05-3.45096E-08-1.16013E-18-5.83022E-19
 -1      2919 9.52301E-05-2.85742E-05-2.85668E-05-3.05208E-08 1.33683E-18 2.78499E-18
 -1      2920 9.52277E-05-2.85724E-05-2.85666E-05-3.22238E-08 1.86964E-18 3.13709E-18
 -1      2921 9.52329E-05-2.85740E-05-2.85681E-05-3.40453E-08 4.48332E-19 1.48780E-18
 -1      2922 9.52339E-05-2.85776E-05-2.85670E-05-2.67047E-08 6.99973E-20 2.90703E-18
 -1      2923 9.52316E-05-2.85758E-05-2.85668E-05-2.93251E-08 5.06976E-19 2.61258E-18
 -1      2924 9.52355E-05-2.85777E-05-2.85676E-05-3.16588E-08 7.92560E-19 1.84632E-18
 -1      2925 9.52383E-05-2.85815E-05-2.85672E-05-2.83471E-08 6.50703E-19-7.67679E-19
 -1      2926 9.52562E-05-2.85960E-05-2.85686E-05-2.17941E-09 6.01655E-19-1.66723E-18
 -1      2927 9.52559E-05-2.85957E-05-2.85686E-05-6.27825E-09 8.95705E-19-1.10646E-18
 -1      2928 9.52529E-05-2.85933E-05-2.85684E-05-1.81570E-08 6.17034E-19-1.63133E-18
 -1      2929 9.52511E-05-2.85916E-05-2.85684E-05-2.11993E-08 1.36602E-18-1.82518E-18
 -1      2930 9.52559E-05-2.85957E-05-2.85686E-05 6.39516E-09-7.61171E-19-2.26427E-19
 -1      2931 9.52562E-05-2.85960E-05-2.85686E-05 2.29803E-09-4.27051E-19-1.14054E-18
 -1      2932 9.52578E-05-2.85928E-05-2.85707E-05 6.10822E-11-6.42080E-19-2.46183E-18
 -1      2933 9.52552E-05-2.85952E-05-2.85685E-05-1.05915E-08 5.98138E-19-6.99976E-19
 -1      2934 9.52542E-05-2.85942E-05-2.85686E-05-1.43489E-08 9.86754E-19-1.06957E-18
 -1      2935 9.52549E-05-2.85909E-05-2.85703E-05-1.71876E-08-6.80530E-20-1.35290E-18
 -1      2936 9.52571E-05-2.85924E-05-2.85706E-05-8.90121E-09 1.20317E-18-1.29309E-18
 -1      2937 1.02904E-04-3.06659E-05-3.09721E-05-6.13854E-06 9.34989E-19 6.68569E-19
 -1      2938 1.02132E-04-2.96298E-05-3.10278E-05-5.69332E-06 1.25643E-18 8.99035E-19
 -1      2939 1.02119E-04-3.08011E-05-3.06054E-05-7.10547E-06 8.72078E-19 1.99227E-19
 -1      2940 9.52542E-05-2.85942E-05-2.85685E-05 1.43299E-08-5.43532E-19 9.25443E-19
 -1      2941 9.52552E-05-2.85952E-05-2.85685E-05 1.06367E-08-1.22896E-18 8.24782E-19
 -1      2942 9.52571E-05-2.85924E-05-2.85706E-05 8.94782E-09-4.35734E-19-2.57393E-19
 -1      2943 9.52511E-05-2.85916E-05-2.85684E-05 2.12092E-08 6.41231E-19-1.11119E-18
 -1      2944 9.52529E-05-2.85933E-05-2.85684E-05 1.81391E-08 7.94333E-19 3.89573E-19
 -1      2945 9.52549E-05-2.85910E-05-2.85703E-05 1.71673E-08 2.73378E-19 1.71024E-18
 -1      2946 9.52465E-05-2.85879E-05-2.85680E-05 2.62754E-08 8.19631E-19 2.20529E-18
 -1      2947 9.52492E-05-2.85902E-05-2.85681E-05 2.41181E-08 1.27545E-18 5.22862E-19
 -1      2948 9.52510E-05-2.85885E-05-2.85697E-05 2.40321E-08 1.54546E-18 2.26342E-19
 -1      2949 9.52421E-05-2.85849E-05-2.85673E-05 2.75861E-08 3.00673E-20 2.64773E-18
 -1      2950 4.03666E-05-1.88373E-05-8.46063E-06-2.29367E-05 2.40234E-18 7.20359E-18
 -1      2951 4.87354E-05-2.42003E-05-1.00974E-05-3.09052E-05 2.64910E-18 7.30947E-18
 -1      2952 1.39848E-04-3.62922E-05-4.49504E-05-1.03134E-05 5.38025E-18-3.13497E-18
 -1      2953 1.39673E-04-4.47391E-05-4.10044E-05-6.14908E-06 4.04802E-18-3.56177E-18
 -1      2954 1.39264E-04-5.07952E-05-3.79499E-05 3.07060E-06-5.88635E-19-2.17836E-18
 -1      2955 1.39277E-04-4.23009E-05-4.22703E-05 9.56565E-06-2.13855E-18-3.34567E-18
 -1      2956 1.22176E-04-1.19940E-05-4.80608E-05-1.12129E-06-6.38112E-18-3.32712E-19
 -1      2957 1.24845E-04-1.52261E-05-4.74794E-05-7.67505E-06-5.95570E-18 7.64844E-19
 -1      2958 8.53272E-05-4.44461E-05-1.73069E-05 3.80715E-05-2.39244E-18 1.81620E-18
 -1      2959 7.13977E-05-3.66891E-05-1.44759E-05 3.70379E-05-3.15350E-18 3.07759E-18
 -1      2960 1.11201E-04-3.87774E-05-3.11011E-05-1.47560E-06-2.40427E-19 1.66570E-18
 -1      2961 1.09971E-04-3.75598E-05-3.09772E-05-3.33211E-06-9.54174E-20 1.41452E-18
 -1      2962 1.08481E-04-3.75403E-05-3.04588E-05-5.56778E-06-1.01241E-19 9.75567E-19
 -1      2963 1.12890E-04-4.10147E-05-3.08548E-05-1.89977E-06-4.67773E-19 1.96250E-18
 -1      2964 9.85403E-05-2.42136E-05-3.18300E-05 1.44774E-06-1.62366E-18-1.70951E-18
 -1      2965 9.89608E-05-2.54573E-05-3.15101E-05 3.28732E-06-1.34904E-18-1.60703E-18
 -1      2966 9.73352E-05-2.45430E-05-3.12129E-05 4.28123E-06-1.17863E-18-1.88160E-18
 -1      2967 8.57551E-05-1.20306E-05-3.16010E-05-2.76560E-07 2.59125E-18-2.47294E-18
 -1      2968 8.40490E-05-1.08343E-05-3.14119E-05-6.19783E-07 2.25594E-18-2.86701E-18
 -1      2969 8.38506E-05-1.16309E-05-3.09302E-05-1.43631E-06 1.98092E-18-2.77684E-18
 -1      2970 8.74760E-05-1.44281E-05-3.12947E-05-1.32189E-06 2.38953E-18-2.12947E-18
 -1      2971 1.01437E-04-2.86313E-05-3.12087E-05-4.75292E-06 1.63746E-18 8.44538E-19
 -1      2972 1.00959E-04-2.76795E-05-3.13579E-05-3.64461E-06 1.86088E-18 9.55551E-19
 -1      2973 9.91225E-05-2.57767E-05-3.14487E-05-3.03739E-06 2.23525E-18 3.40470E-19
 -1      2974 1.00333E-04-2.82064E-05-3.09392E-05-5.65728E-06 1.52460E-18 2.80168E-19
 -1      2975 1.21207E-04-1.10698E-05-4.77628E-05 7.23383E-07 6.44253E-18 1.24051E-19
 -1      2976 1.23948E-04-1.30663E-05-4.80187E-05-7.62233E-06 6.40251E-18-7.21460E-19
 -1      2977 9.38888E-05-1.73621E-05-3.27980E-05-2.99614E-06-1.88407E-18-2.86950E-18
 -1      2978 8.35835E-05-1.04204E-05-3.13875E-05 4.82035E-07-1.12494E-19-3.54460E-18
 -1      2979 8.52619E-05-1.16034E-05-3.15780E-05 2.18797E-07-5.32242E-19-3.54841E-18
 -1      2980 1.36250E-04-2.97817E-05-4.59187E-05 1.34842E-05-4.27286E-18-3.37543E-18
 -1      2981 1.34361E-04-2.13421E-05-4.91773E-05 1.19592E-05-6.10944E-18-2.67578E-18
 -1      2982 1.29871E-04-2.21099E-05-4.65388E-05 1.27220E-05 4.86451E-18 2.63872E-18
 -1      2983 1.24266E-04-1.50123E-05-4.74760E-05 8.56842E-06 6.07598E-18 1.93873E-18
 -1      2984 1.37494E-04-4.21184E-05-4.09356E-05 9.22754E-06 2.01562E-18 2.67631E-18
 -1      2985 1.33622E-04-3.13622E-05-4.45769E-05 1.22840E-05 3.65908E-18 2.74153E-18
 -1      2986 1.14733E-04-5.66533E-05-2.46855E-05-2.82579E-05-2.63983E-18-1.03433E-18
 -1      2987 1.25972E-04-5.97096E-05-2.87182E-05-2.08767E-05-1.65870E-18 6.08011E-20
 -1      2988 4.76949E-05-2.33587E-05-1.00022E-05-3.04262E-05-1.66368E-18-6.17911E-18
 -1      2989 5.96964E-05-3.13909E-05-1.17223E-05-3.77824E-05-2.12108E-18-5.59338E-18
 -1      2990 1.34255E-04-5.74869E-05-3.27039E-05-9.48674E-06-5.44298E-19 1.22777E-18
 -1      2991 1.38517E-04-5.25227E-05-3.74865E-05-6.64545E-08 8.37610E-19 1.90074E-18
 -1      2992 3.76748E-05-1.25644E-05-1.02604E-05-7.88410E-06 4.21439E-19-6.43682E-18
 -1      2993 4.19422E-05-1.67766E-05-1.01016E-05-2.13612E-05-6.57033E-19-6.61681E-18
 -1      2994 1.06407E-04-5.50573E-05-2.23122E-05 3.47226E-05 2.31092E-18 9.04737E-20
 -1      2995 9.05346E-05-4.78181E-05-1.76696E-05 3.86196E-05 2.60664E-18-1.34609E-18
 -1      2996 1.33103E-04-5.95968E-05-3.19554E-05 1.40548E-05 2.12288E-19 1.86263E-18
 -1      2997 1.22826E-04-5.90645E-05-2.69419E-05 2.34758E-05 1.70301E-18 1.06525E-18
 -1      2998 1.33931E-04-2.58815E-05-4.68663E-05-1.27728E-05-5.66983E-18 2.34543E-18
 -1      2999 1.38193E-04-3.66413E-05-4.37717E-05-1.14777E-05-4.20414E-18 2.49208E-18
 -1      3000 1.35017E-04-4.24538E-05-3.98853E-05-1.04003E-05-2.51177E-18 2.42823E-18
 -1      3001 1.28303E-04-1.80843E-05-4.80610E-05-1.21103E-05 6.58674E-18-1.70937E-18
 -1      3002 1.35620E-04-2.69736E-05-4.69089E-05-1.29084E-05 6.31262E-18-2.51304E-18
 -1      3003 1.32351E-04-3.19495E-05-4.32980E-05-1.37470E-05 4.57207E-18-3.51296E-18
 -1      3004 7.07197E-05-3.85467E-05-1.37854E-05 4.05696E-05 2.42326E-18-2.83142E-18
 -1      3005 5.25755E-05-2.82413E-05-9.81184E-06 3.44712E-05 2.42336E-18-4.84143E-18
 -1      3006 6.02323E-05-3.19925E-05-1.16102E-05-3.59952E-05 3.36473E-18 6.25566E-18
 -1      3007 7.60114E-05-4.08428E-05-1.48341E-05-3.91952E-05 3.00834E-18 3.45314E-18
 -1      3008 6.05646E-05-2.78840E-05-1.34670E-05-3.11560E-05 3.39623E-18 5.82748E-18
 -1      3009 1.27748E-04-5.94404E-05-2.91984E-05-1.77176E-05 1.70058E-18 9.76100E-19
 -1      3010 1.36159E-04-5.76719E-05-3.40293E-05-8.25506E-06 5.58221E-19-5.52795E-19
 -1      3011 8.72596E-05-1.31815E-05-3.17827E-05 8.35524E-08-8.32360E-19-3.47701E-18
 -1      3012 8.93795E-05-1.47596E-05-3.19998E-05-3.97899E-07-1.23517E-18-3.43360E-18
 -1      3013 8.69282E-05-1.39154E-05-3.12750E-05 1.29522E-06-5.86496E-19-3.21309E-18
 -1      3014 8.03596E-05-8.97776E-06-3.05662E-05-2.21227E-07 1.13027E-18-3.11230E-18
 -1      3015 8.00169E-05-7.80077E-06-3.09700E-05 1.89726E-08 1.09160E-18-3.42031E-18
 -1      3016 8.03415E-05-8.01228E-06-3.10121E-05 6.88933E-08 7.63703E-19-3.59056E-18
 -1      3017 1.18933E-04-1.52255E-05-4.48381E-05 4.28744E-06 5.31799E-18 5.27715E-19
 -1      3018 1.35059E-04-5.38383E-05-3.49395E-05 1.70041E-07 2.52588E-19-2.06178E-18
 -1      3019 8.90741E-05-4.61884E-05-1.79775E-05-3.68707E-05 2.91019E-18 1.76913E-18
 -1      3020 1.00391E-04-5.02049E-05-2.14998E-05-3.17705E-05 3.22561E-18 1.28455E-18
 -1      3021 8.28763E-05-4.03410E-05-1.79054E-05-3.49012E-05 3.47797E-18 2.31049E-18
 -1      3022 1.25883E-04-5.96273E-05-2.83521E-05 2.13109E-05-5.64018E-19-2.06745E-18
 -1      3023 1.18644E-04-5.75624E-05-2.58806E-05 2.44470E-05-1.97750E-18-1.83609E-18
 -1      3024 1.29660E-04-5.87225E-05-3.05997E-05 1.27794E-05-1.02356E-18-3.54452E-18
 -1      3025 1.05950E-04-5.31837E-05-2.27445E-05 3.07919E-05-2.59557E-18-3.90482E-19
 -1      3026 9.58425E-05-4.89033E-05-1.97292E-05 3.49372E-05-2.56471E-18 8.36207E-19
 -1      3027 9.20361E-05-4.45200E-05-2.00760E-05 3.32489E-05-3.31545E-18 2.95138E-19
 -1      3028 6.48323E-05-3.15027E-05-1.37959E-05 3.49076E-05-3.20517E-18 4.18731E-18
 -1      3029 5.78469E-05-2.53770E-05-1.35310E-05 2.99829E-05-3.03397E-18 4.35703E-18
 -1      3030 7.55754E-05-3.47068E-05-1.72102E-05 3.29903E-05-3.55754E-18 2.36619E-18
 -1      3031 1.33367E-04-5.62394E-05-3.31739E-05 5.21999E-06-2.21023E-20 2.13765E-18
 -1      3032 9.52417E-05-2.85840E-05-2.85676E-05-2.77566E-08 1.54442E-18-3.91577E-18
 -1      3033 9.52405E-05-2.85820E-05-2.85680E-05-2.98450E-08 2.18034E-20-2.88327E-18
 -1      3034 9.52447E-05-2.85867E-05-2.85677E-05-2.72544E-08 7.57428E-19-3.21910E-18
 -1      3035 9.68773E-05-2.15541E-05-3.22995E-05 1.06277E-06 2.99893E-18 2.49329E-19
 -1      3036 9.64344E-05-2.21922E-05-3.18178E-05-8.96017E-07 2.65741E-18-1.23791E-19
 -1      3037 3.46513E-05-1.51568E-05-7.64907E-06 1.44718E-05-8.50633E-19 7.12228E-18
 -1      3038 3.58136E-05-1.25649E-05-9.66404E-06 5.56887E-06-4.33946E-19 5.86676E-18
 -1      3039 4.42568E-05-1.75403E-05-1.10086E-05 2.00570E-05-1.84860E-18 6.07767E-18
 -1      3040 9.52437E-05-2.85841E-05-2.85684E-05 2.89084E-08 1.10468E-18 1.94405E-18
 -1      3041 5.16084E-05-2.27348E-05-1.17913E-05 2.74413E-05 2.66688E-18-5.17527E-18
 -1      3042 3.96119E-05-1.58486E-05-9.63071E-06-1.51407E-05 1.38728E-18 6.28181E-18
 -1      3043 1.35626E-04-4.54026E-05-3.88962E-05-8.81730E-06 2.51791E-18-5.04355E-18
 -1      3044 1.39318E-04-5.08648E-05-3.81985E-05-2.34635E-06 2.44257E-18-3.79164E-18
 -1      3045 1.35463E-04-5.42941E-05-3.49132E-05 1.94135E-06 6.08831E-19-4.07931E-18
 -1      3046 5.23415E-05-2.03630E-05-1.32218E-05-2.44623E-05-1.24593E-18-5.58036E-18
 -1      3047 1.33603E-04-3.63548E-05-4.18975E-05 1.35340E-05-2.60156E-18-4.04945E-18
 -1      3048 1.15399E-04-5.59654E-05-2.53164E-05 2.59182E-05 2.24697E-18 7.24319E-19
 -1      3049 3.88779E-05-1.16513E-05-1.08896E-05-1.16059E-06 9.40243E-19-6.39224E-18
 -1      3050 4.60260E-05-1.28281E-05-1.39437E-05-8.76178E-06 1.62419E-19-5.60810E-18
 -1      3051 4.23159E-05-1.25000E-05-1.23594E-05 5.99409E-06 1.50584E-18-5.73547E-18
 -1      3052 1.29439E-04-5.76341E-05-3.07560E-05-1.20170E-05-1.42926E-18 8.35492E-19
 -1      3053 8.10761E-05-8.57765E-06-3.10989E-05 4.10226E-07 4.74599E-19-3.55586E-18
 -1      3054 8.21353E-05-9.29764E-06-3.12262E-05 3.49217E-07 9.76691E-20-3.52813E-18
 -1      3055 8.33353E-05-1.11918E-05-3.09017E-05 1.20912E-06 1.32862E-20-3.19904E-18
 -1      3056 8.10452E-05-9.48215E-06-3.06491E-05 6.36618E-07 5.64151E-19-3.33398E-18
 -1      3057 1.31193E-04-1.61570E-05-4.98718E-05 1.03234E-05-6.83725E-18-2.38577E-18
 -1      3058 1.25377E-04-1.14464E-05-4.95206E-05 5.56815E-06-7.03334E-18-1.65518E-18
 -1      3059 1.08332E-04-5.40360E-05-2.31176E-05-3.15603E-05-2.90426E-18-1.76436E-18
 -1      3060 1.14308E-04-5.44318E-05-2.56612E-05-2.47692E-05-2.66479E-18-4.28890E-19
 -1      3061 9.96030E-05-4.84570E-05-2.16918E-05-3.26873E-05-2.73941E-18-1.98023E-18
 -1      3062 7.57344E-05-3.72654E-05-1.60612E-05-3.64603E-05-2.65682E-18-4.18630E-18
 -1      3063 9.52494E-05-2.85905E-05-2.85680E-05-2.36845E-08 1.23804E-18-2.19519E-18
 -1      3064 9.52470E-05-2.85883E-05-2.85680E-05-2.56379E-08 8.27479E-19-2.49261E-18
 -1      3065 9.52467E-05-2.85861E-05-2.85689E-05-2.76793E-08 1.08867E-18-3.26605E-18
 -1      3066 9.52513E-05-2.85888E-05-2.85696E-05-2.35612E-08 1.66678E-18-2.12250E-18
 -1      3067 1.34591E-04-4.70554E-05-3.76999E-05 6.33411E-06 1.05215E-18 2.61453E-18
 -1      3068 1.27336E-04-2.86462E-05-4.25322E-05 1.35037E-05 3.45521E-18 2.80569E-18
 -1      3069 9.22225E-05-1.70888E-05-3.22191E-05-7.49202E-07-1.34527E-18-3.13685E-18
 -1      3070 9.64275E-05-2.07617E-05-3.24432E-05-1.47146E-06-1.93180E-18-2.38876E-18
 -1      3071 9.74486E-05-2.27441E-05-3.20116E-05 5.15319E-07-1.74490E-18-2.03678E-18
 -1      3072 9.18454E-05-1.78344E-05-3.17020E-05 9.33746E-07-1.20196E-18-3.03527E-18
 -1      3073 1.26024E-04-1.99728E-05-4.57093E-05 1.27446E-05-5.02418E-18-4.04077E-18
 -1      3074 1.15345E-04-5.59647E-05-2.52374E-05-2.48155E-05 2.70092E-18 1.76317E-18
 -1      3075 1.22738E-04-5.90666E-05-2.71998E-05-2.18867E-05 2.59298E-18 1.60391E-18
 -1      3076 1.26240E-04-5.77871E-05-2.94447E-05-1.31562E-05 2.11078E-18-1.29755E-19
 -1      3077 9.57062E-05-2.16841E-05-3.17315E-05 1.61482E-06-1.32590E-18-2.26351E-18
 -1      3078 8.31674E-05-4.16003E-05-1.73664E-05 3.68721E-05 3.16219E-18-1.64303E-18
 -1      3079 1.21636E-04-1.74921E-05-4.49340E-05-9.94573E-06 5.24186E-18-1.73573E-18
 -1      3080 9.71494E-05-2.37849E-05-3.14244E-05-2.62763E-06 2.31819E-18-1.52377E-19
 -1      3081 9.48894E-05-2.14957E-05-3.14583E-05-2.21045E-06 2.47089E-18-6.27029E-19
 -1      3082 9.76886E-05-2.51307E-05-3.11055E-05-4.27239E-06 1.96914E-18-1.25749E-19
 -1      3083 9.25897E-05-1.96489E-05-3.12667E-05-2.48863E-06 2.33935E-18-1.22581E-18
 -1      3084 9.61153E-05-2.49949E-05-3.04576E-05 6.82075E-06-7.21841E-19-1.81773E-18
 -1      3085 9.68937E-05-2.64552E-05-3.01819E-05 8.07016E-06-4.00963E-19-1.76227E-18
 -1      3086 9.77260E-05-2.80150E-05-2.98402E-05 9.36754E-06-1.11044E-19-1.32515E-18
 -1      3087 9.89907E-05-2.98368E-05-2.96240E-05 1.01353E-05 8.09322E-20-1.18544E-18
 -1      3088 9.49327E-05-2.58780E-05-2.96260E-05 9.26041E-06-5.96195E-20-1.70677E-18
 -1      3089 1.00472E-04-3.18897E-05-2.93330E-05 1.10811E-05 2.85049E-19-8.41825E-19
 -1      3090 1.02472E-04-3.42918E-05-2.92064E-05 1.12267E-05 4.26102E-19-8.29622E-19
 -1      3091 9.71340E-05-2.97677E-05-2.89309E-05 1.17601E-05 4.05528E-19-1.17773E-18
 -1      3092 1.05027E-04-3.70403E-05-2.90407E-05 1.15640E-05 4.43255E-19-5.20778E-19
 -1      3093 1.07889E-04-4.00130E-05-2.90966E-05 1.08073E-05 4.69771E-19-5.06542E-19
 -1      3094 1.01021E-04-3.49986E-05-2.83934E-05 1.34898E-05 5.99477E-19-6.43189E-19
 -1      3095 1.11904E-04-4.33521E-05-2.92354E-05 9.92465E-06 6.73601E-19-8.74164E-20
 -1      3096 1.15348E-04-4.62224E-05-2.96652E-05 7.83304E-06 5.63108E-19 2.71170E-19
 -1      3097 1.07457E-04-4.18788E-05-2.82659E-05 1.37173E-05 9.18123E-19-4.84999E-19
 -1      3098 1.20633E-04-4.92253E-05-3.04760E-05 4.87139E-06 6.11114E-19 8.33785E-19
 -1      3099 1.23448E-04-5.02197E-05-3.14375E-05 1.33981E-06 2.74584E-19 1.34178E-18
 -1      3100 1.16741E-04-4.91267E-05-2.91385E-05 1.07597E-05 1.02274E-18 3.02404E-19
 -1      3101 1.28176E-04-3.72723E-05-3.94659E-05-1.34652E-05-2.81988E-18 2.27317E-18
 -1      3102 1.26056E-04-2.87193E-05-4.19139E-05-1.42968E-05-4.24851E-18 1.98709E-18
 -1      3103 1.26907E-04-4.93524E-05-3.33657E-05 4.88587E-06 2.02361E-19-2.80316E-18
 -1      3104 1.24996E-04-5.06623E-05-3.17997E-05 7.73255E-07 1.14872E-18-2.22809E-18
 -1      3105 1.19706E-04-4.90486E-05-3.03539E-05-3.59652E-06 1.73494E-18-1.30560E-18
 -1      3106 1.16291E-04-4.69680E-05-2.95677E-05-6.70977E-06 2.02964E-18-8.82254E-19
 -1      3107 1.22210E-04-5.20486E-05-3.01557E-05-6.05953E-06 2.27386E-18-1.06439E-18
 -1      3108 1.11485E-04-4.37054E-05-2.90570E-05-8.66458E-06 1.75333E-18-5.13401E-19
 -1      3109 1.08228E-04-4.08142E-05-2.87661E-05-1.02902E-05 2.04186E-18 7.13725E-20
 -1      3110 1.11793E-04-4.59526E-05-2.83077E-05-1.15015E-05 2.26943E-18-3.26710E-19
 -1      3111 1.04835E-04-3.78276E-05-2.87124E-05-1.07599E-05 1.75508E-18 2.78917E-19
 -1      3112 1.02322E-04-3.52661E-05-2.86688E-05-1.13350E-05 1.43721E-18 7.14768E-19
 -1      3113 1.03722E-04-3.92155E-05-2.77966E-05-1.34098E-05 1.96859E-18 5.97946E-19
 -1      3114 1.00310E-04-3.31037E-05-2.87829E-05-1.09981E-05 8.01043E-19 8.14038E-19
 -1      3115 9.86161E-05-3.12829E-05-2.88230E-05-1.09756E-05 8.01280E-19 5.49796E-19
 -1      3116 9.84902E-05-3.34747E-05-2.79457E-05-1.29110E-05 1.28387E-18 8.97494E-19
 -1      3117 9.75471E-05-2.99075E-05-2.89685E-05-1.03504E-05 6.82663E-19 3.15673E-19
 -1      3118 9.64957E-05-2.87575E-05-2.90172E-05-1.00081E-05 7.06862E-19 2.79606E-20
 -1      3119 9.55528E-05-2.96907E-05-2.82705E-05-1.16372E-05 4.73044E-19 9.35915E-19
 -1      3120 9.60167E-05-2.79868E-05-2.91392E-05-9.30360E-06 6.63679E-19-2.52898E-19
 -1      3121 9.53964E-05-2.73368E-05-2.91662E-05-8.80544E-06 2.51826E-19-4.10492E-19
 -1      3122 9.40988E-05-2.74427E-05-2.85880E-05-1.01510E-05 6.85334E-19 4.51484E-19
 -1      3123 9.52548E-05-2.69784E-05-2.92482E-05-8.10952E-06-7.20201E-19-1.72623E-19
 -1      3124 9.49003E-05-2.66643E-05-2.92476E-05-7.55191E-06-8.48049E-19 8.92042E-21
 -1      3125 9.35327E-05-2.62807E-05-2.88304E-05-8.68350E-06-8.93138E-21-6.61948E-19
 -1      3126 9.49342E-05-2.65639E-05-2.92909E-05-6.90124E-06-6.10505E-19-3.06285E-20
 -1      3127 9.47338E-05-2.64583E-05-2.92671E-05-6.34187E-06-2.36978E-19-2.95728E-19
 -1      3128 9.34532E-05-2.58236E-05-2.89856E-05-7.31453E-06-8.14370E-19 1.81877E-19
 -1      3129 9.48464E-05-2.65062E-05-2.92797E-05-5.75270E-06-3.23998E-19-8.08607E-19
 -1      3130 9.47316E-05-2.65206E-05-2.92403E-05-5.22594E-06 2.41881E-19-7.77420E-19
 -1      3131 9.36125E-05-2.57912E-05-2.90647E-05-6.07222E-06-6.05011E-19 4.16137E-19
 -1      3132 9.48686E-05-2.66441E-05-2.92313E-05-4.70531E-06 9.18273E-19-1.39368E-18
 -1      3133 9.47999E-05-2.67208E-05-2.91836E-05-4.23033E-06 4.43379E-19-1.30658E-18
 -1      3134 9.38666E-05-2.59927E-05-2.90862E-05-4.96697E-06 7.65989E-20-1.76215E-18
 -1      3135 9.49334E-05-2.68747E-05-2.91612E-05-3.78005E-06-2.31869E-19-9.16427E-19
 -1      3136 9.48892E-05-2.69780E-05-2.91110E-05-3.36577E-06 8.37293E-20-1.02665E-18
 -1      3137 9.41379E-05-2.63053E-05-2.90685E-05-4.00162E-06 5.26400E-19-1.98315E-18
 -1      3138 9.50066E-05-2.71359E-05-2.90815E-05-2.98408E-06-5.60162E-20-1.81562E-18
 -1      3139 9.49758E-05-2.72451E-05-2.90328E-05-2.63242E-06-2.59112E-19-1.93467E-18
 -1      3140 9.43880E-05-2.66536E-05-2.90268E-05-3.17386E-06-4.75856E-19-1.72168E-18
 -1      3141 9.50730E-05-2.73925E-05-2.90007E-05-2.31502E-06 2.54871E-19-1.96056E-18
 -1      3142 9.50499E-05-2.74962E-05-2.89560E-05-2.02338E-06 6.89023E-19-1.78546E-18
 -1      3143 9.46015E-05-2.69945E-05-2.89727E-05-2.47705E-06 3.80728E-19-2.05361E-18
 -1      3144 9.51272E-05-2.76265E-05-2.89245E-05-1.76423E-06 9.49526E-19-9.19745E-19
 -1      3145 9.51090E-05-2.77190E-05-2.88850E-05-1.52735E-06 1.91785E-18-6.20945E-19
 -1      3146 9.47751E-05-2.73052E-05-2.89144E-05-1.90102E-06 1.41310E-18-1.32639E-19
 -1      3147 9.51685E-05-2.78297E-05-2.88558E-05-1.31948E-06 2.54043E-18-7.39051E-19
 -1      3148 9.51539E-05-2.79091E-05-2.88221E-05-1.13072E-06 1.90334E-18 5.29479E-19
 -1      3149 9.49112E-05-2.75757E-05-2.88573E-05-1.43321E-06 2.09913E-18-6.43581E-19
 -1      3150 9.51984E-05-2.80005E-05-2.87961E-05-9.66839E-07 4.05134E-19 5.80903E-19
 -1      3151 9.51867E-05-2.80665E-05-2.87680E-05-8.19147E-07-9.05455E-19 4.65559E-19
 -1      3152 9.50149E-05-2.78033E-05-2.88045E-05-1.05983E-06 1.51225E-18-1.20392E-18
 -1      3153 9.52192E-05-2.81403E-05-2.87457E-05-6.92158E-07-1.07674E-18 1.31192E-18
 -1      3154 9.52098E-05-2.81939E-05-2.87228E-05-5.78652E-07 9.40555E-20 1.14529E-18
 -1      3155 9.50919E-05-2.79901E-05-2.87577E-05-7.66900E-07-4.82455E-20 9.22620E-20
 -1      3156 9.52329E-05-2.82521E-05-2.87041E-05-4.81963E-07-6.25322E-19 8.89035E-19
 -1      3157 9.52255E-05-2.82947E-05-2.86859E-05-3.96307E-07-1.04022E-18 1.31013E-18
 -1      3158 9.51477E-05-2.81399E-05-2.87175E-05-5.41008E-07-3.42284E-19 4.16706E-19
 -1      3159 9.52414E-05-2.83399E-05-2.86706E-05-3.24027E-07-1.11981E-18 7.34393E-19
 -1      3160 9.52356E-05-2.83731E-05-2.86563E-05-2.60613E-07-9.84987E-19 2.78762E-19
 -1      3161 9.51869E-05-2.82577E-05-2.86840E-05-3.69870E-07-1.59563E-18-1.88372E-19
 -1      3162 9.52461E-05-2.84074E-05-2.86440E-05-2.07637E-07-8.81052E-19-1.85074E-19
 -1      3163 9.52417E-05-2.84329E-05-2.86330E-05-1.61660E-07-1.66862E-18-8.27152E-19
 -1      3164 9.52137E-05-2.83486E-05-2.86565E-05-2.42612E-07-1.43603E-18-2.26586E-19
 -1      3165 9.52483E-05-2.84584E-05-2.86234E-05-1.23677E-07-1.83248E-18-3.87014E-19
 -1      3166 9.52451E-05-2.84776E-05-2.86151E-05-9.11230E-08-7.02555E-19-1.91708E-19
 -1      3167 9.52311E-05-2.84174E-05-2.86345E-05-1.49883E-07-1.57759E-18 9.64267E-20
 -1      3168 9.52488E-05-2.84962E-05-2.86076E-05-6.45796E-08 1.16093E-19-6.10946E-20
 -1      3169 9.52464E-05-2.85104E-05-2.86015E-05-4.21745E-08 3.76179E-19-7.60921E-19
 -1      3170 9.52418E-05-2.84685E-05-2.86172E-05-8.38426E-08-3.31423E-19 3.18218E-19
 -1      3171 9.52483E-05-2.85237E-05-2.85958E-05-2.42016E-08 4.70333E-19-3.78229E-20
 -1      3172 9.52466E-05-2.85339E-05-2.85914E-05-9.33194E-09-1.79459E-19-6.33555E-19
 -1      3173 9.52477E-05-2.85057E-05-2.86038E-05-3.80682E-08 3.80180E-19-7.49781E-19
 -1      3174 9.52471E-05-2.85432E-05-2.85871E-05 2.33623E-09-2.76226E-19-4.98304E-20
 -1      3175 9.52460E-05-2.85504E-05-2.85839E-05 1.17088E-08 6.33118E-19 8.39006E-20
 -1      3176 9.52504E-05-2.85322E-05-2.85936E-05-7.40832E-09 6.95277E-19 5.26696E-19
 -1      3177 9.52457E-05-2.85568E-05-2.85808E-05 1.88208E-08 1.24207E-18-1.92466E-19
 -1      3178 9.52450E-05-2.85619E-05-2.85786E-05 2.42464E-08 1.71963E-18 2.02817E-19
 -1      3179 9.52509E-05-2.85506E-05-2.85859E-05 1.21757E-08 1.09437E-18-1.32883E-19
 -1      3180 9.52443E-05-2.85661E-05-2.85762E-05 2.81152E-08 1.25075E-18-9.07186E-20
 -1      3181 9.52439E-05-2.85697E-05-2.85747E-05 3.07371E-08 1.17966E-18-6.15129E-19
 -1      3182 9.52501E-05-2.85631E-05-2.85802E-05 2.37757E-08 1.13756E-18-1.69843E-18
 -1      3183 9.52430E-05-2.85726E-05-2.85729E-05 3.23189E-08 1.22167E-18 1.57286E-19
 -1      3184 9.52429E-05-2.85753E-05-2.85719E-05 3.29801E-08 2.54757E-19 1.43597E-19
 -1      3185 9.52486E-05-2.85717E-05-2.85759E-05 2.96773E-08 1.51877E-18-1.83660E-18
 -1      3186 1.24987E-04-2.90121E-05-4.15423E-05-1.53556E-05 3.86501E-18-3.29660E-18
 -1      3187 1.30571E-04-3.75754E-05-4.01322E-05-1.42860E-05 3.16462E-18-4.03431E-18
 -1      3188 9.52586E-05-2.85891E-05-2.85727E-05 1.12265E-08-1.07214E-19 2.22025E-18
 -1      3189 9.52594E-05-2.85896E-05-2.85728E-05 6.96666E-09-6.64280E-19-1.78591E-19
 -1      3190 1.22177E-04-4.24249E-05-3.42407E-05 9.39550E-06 7.91685E-19 1.92912E-18
 -1      3191 1.22374E-04-4.51614E-05-3.31199E-05 6.67021E-06-5.56395E-20 1.99828E-18
 -1      3192 1.19481E-04-4.55445E-05-3.17652E-05 2.31791E-06-3.05561E-19 1.61424E-18
 -1      3193 1.17839E-04-4.52049E-05-3.10395E-05-6.42831E-07-6.24432E-19 1.72844E-18
 -1      3194 1.23037E-04-4.81588E-05-3.22264E-05 1.83879E-06-4.05285E-19 1.70301E-18
 -1      3195 1.15523E-04-1.88013E-05-4.17201E-05 8.71854E-06 4.17450E-18 1.40414E-18
 -1      3196 1.17788E-04-2.42842E-05-4.05436E-05 1.23090E-05 3.46447E-18 1.96662E-18
 -1      3197 1.12778E-04-1.63261E-05-4.17950E-05-5.26997E-06 4.85038E-18-8.61922E-19
 -1      3198 1.12572E-04-1.55743E-05-4.19128E-05 6.71236E-07 4.72433E-18-2.35713E-19
 -1      3199 1.21554E-04-3.70021E-05-3.65048E-05-1.43599E-05 2.00818E-18-2.64453E-18
 -1      3200 1.19298E-04-3.10158E-05-3.79044E-05-1.46114E-05 2.67954E-18-2.59679E-18
 -1      3201 1.22167E-04-4.53188E-05-3.30020E-05-7.56181E-06-5.63806E-21-2.69806E-18
 -1      3202 1.22202E-04-4.24377E-05-3.42165E-05-1.06364E-05 9.35243E-19-2.78399E-18
 -1      3203 1.17552E-04-4.52723E-05-3.09058E-05-7.52549E-08-9.97639E-19-2.31871E-18
 -1      3204 1.19316E-04-4.56474E-05-3.16320E-05-3.24960E-06-5.87536E-19-2.54711E-18
 -1      3205 1.22682E-04-4.80435E-05-3.19853E-05-2.84086E-06-4.32749E-19-3.01968E-18
 -1      3206 1.11493E-04-4.15015E-05-2.99027E-05 5.10696E-06-1.43484E-18-1.71443E-18
 -1      3207 1.13811E-04-4.33387E-05-3.02512E-05 2.86641E-06-1.19814E-18-2.08211E-18
 -1      3208 1.15587E-04-4.58938E-05-2.99285E-05 4.39276E-06-1.35453E-18-2.96269E-18
 -1      3209 1.06102E-04-3.70180E-05-2.95359E-05 7.90410E-06-9.57662E-19-8.69731E-19
 -1      3210 1.08263E-04-3.91036E-05-2.96684E-05 6.63825E-06-1.25636E-18-1.18392E-18
 -1      3211 1.08558E-04-4.10265E-05-2.90433E-05 8.50759E-06-1.57951E-18-1.94647E-18
 -1      3212 1.02102E-04-3.32373E-05-2.94690E-05 8.91641E-06-3.60167E-19-7.20966E-19
 -1      3213 1.03793E-04-3.49559E-05-2.95083E-05 8.38960E-06-3.09308E-19-4.45127E-19
 -1      3214 1.03050E-04-3.59699E-05-2.88276E-05 1.00573E-05-9.06435E-19-1.04227E-18
 -1      3215 9.94302E-05-3.05450E-05-2.94980E-05 8.86031E-06 2.70628E-19-7.15186E-19
 -1      3216 1.00635E-04-3.17607E-05-2.95138E-05 8.81995E-06-1.57275E-19-4.24370E-19
 -1      3217 9.93515E-05-3.20535E-05-2.88939E-05 1.01300E-05-3.70959E-19 5.64137E-20
 -1      3218 9.77556E-05-2.88362E-05-2.95260E-05 8.22109E-06 1.65151E-19-1.10679E-19
 -1      3219 9.85780E-05-2.96100E-05-2.95495E-05 8.47194E-06 3.03030E-19-2.43621E-19
 -1      3220 9.71026E-05-2.94266E-05-2.90338E-05 9.45930E-06 5.93709E-21 1.10697E-18
 -1      3221 9.67495E-05-2.78677E-05-2.95181E-05 7.29732E-06-1.08982E-18 1.68210E-19
 -1      3222 9.73041E-05-2.83127E-05-2.95583E-05 7.70325E-06-2.04101E-19 1.06050E-19
 -1      3223 9.58471E-05-2.78559E-05-2.91546E-05 8.45252E-06-5.97531E-20 1.21922E-18
 -1      3224 9.61607E-05-2.74008E-05-2.94703E-05 6.27007E-06-5.55638E-19-5.69501E-19
 -1      3225 9.65386E-05-2.76241E-05-2.95254E-05 6.74066E-06-8.43262E-19-7.44463E-19
 -1      3226 9.52131E-05-2.70394E-05-2.92245E-05 7.32659E-06-4.52149E-19 5.20296E-19
 -1      3227 9.58197E-05-2.72477E-05-2.93919E-05 5.24825E-06-7.81553E-19-1.93190E-19
 -1      3228 9.60839E-05-2.73320E-05-2.94561E-05 5.72567E-06-6.33391E-19-3.26471E-19
 -1      3229 9.49406E-05-2.67159E-05-2.92420E-05 6.19969E-06-8.83419E-19 2.67003E-19
 -1      3230 9.56209E-05-2.72759E-05-2.92954E-05 4.29514E-06-1.16511E-18-3.46635E-19
 -1      3231 9.58115E-05-2.72790E-05-2.93626E-05 4.74459E-06-8.67647E-19 3.56538E-20
 -1      3232 9.48630E-05-2.66901E-05-2.92177E-05 5.13787E-06-6.12243E-19 2.53260E-19
 -1      3233 9.55019E-05-2.73981E-05-2.91919E-05 3.44423E-06-1.36321E-18-4.29283E-19
 -1      3234 9.56435E-05-2.73581E-05-2.92574E-05 3.84687E-06-1.15590E-18-7.82652E-19
 -1      3235 9.48806E-05-2.68283E-05-2.91652E-05 4.17722E-06-9.75356E-19 3.73650E-19
 -1      3236 9.54273E-05-2.75603E-05-2.90901E-05 2.70939E-06-1.50338E-18 1.48879E-20
 -1      3237 9.55347E-05-2.75006E-05-2.91505E-05 3.05715E-06-1.20580E-18-1.26916E-19
 -1      3238 9.49374E-05-2.70438E-05-2.90970E-05 3.33489E-06-1.50097E-18-3.05722E-19
 -1      3239 9.53779E-05-2.77305E-05-2.89954E-05 2.09169E-06-4.87377E-19-1.66548E-19
 -1      3240 9.54603E-05-2.76652E-05-2.90490E-05 2.38347E-06-5.25728E-19-2.58312E-19
 -1      3241 9.50039E-05-2.72839E-05-2.90226E-05 2.61537E-06-8.69660E-19-1.15817E-20
 -1      3242 9.53431E-05-2.78912E-05-2.89110E-05 1.58436E-06 1.00672E-19-7.92102E-20
 -1      3243 9.54065E-05-2.78281E-05-2.89570E-05 1.82328E-06-5.37402E-19-1.22818E-19
 -1      3244 9.50661E-05-2.75182E-05-2.89490E-05 2.01467E-06-3.13805E-19-5.60375E-19
 -1      3245 9.53174E-05-2.80340E-05-2.88382E-05 1.17624E-06 1.42292E-19-1.31003E-19
 -1      3246 9.53660E-05-2.79770E-05-2.88766E-05 1.36772E-06 4.32468E-19 1.55565E-19
 -1      3247 9.51183E-05-2.77309E-05-2.88804E-05 1.52345E-06-1.22181E-19-3.36171E-19
 -1      3248 9.52978E-05-2.81557E-05-2.87771E-05 8.54222E-07-3.49992E-19-3.34464E-19
 -1      3249 9.53348E-05-2.81066E-05-2.88085E-05 1.00467E-06-7.39103E-20-1.06465E-19
 -1      3250 9.51593E-05-2.79151E-05-2.88191E-05 1.12944E-06 3.09192E-19-3.60510E-19
 -1      3251 9.52826E-05-2.82562E-05-2.87270E-05 6.04826E-07 4.28627E-19-8.52132E-19
 -1      3252 9.53103E-05-2.82152E-05-2.87522E-05 7.20803E-07-1.70785E-19-6.45152E-19
 -1      3253 9.51900E-05-2.80694E-05-2.87663E-05 8.19161E-07 9.74487E-20 7.66990E-19
 -1      3254 9.52707E-05-2.83373E-05-2.86868E-05 4.15231E-07 8.88555E-19-4.39414E-19
 -1      3255 9.52912E-05-2.83040E-05-2.87066E-05 5.02953E-07 7.80278E-19-6.59136E-19
 -1      3256 9.52121E-05-2.81951E-05-2.87219E-05 5.79202E-07 4.34304E-19-4.43314E-19
 -1      3257 9.52616E-05-2.84013E-05-2.86552E-05 2.73838E-07 6.24256E-19-4.38330E-19
 -1      3258 9.52764E-05-2.83747E-05-2.86704E-05 3.38894E-07 1.17367E-18 1.65062E-19
 -1      3259 9.52271E-05-2.82951E-05-2.86854E-05 3.96983E-07 6.65749E-19-6.87094E-19
 -1      3260 9.52546E-05-2.84507E-05-2.86308E-05 1.70539E-07 3.57732E-19 1.02217E-18
 -1      3261 9.52650E-05-2.84300E-05-2.86422E-05 2.17770E-07-1.35907E-19 2.88004E-19
 -1      3262 9.52369E-05-2.83732E-05-2.86562E-05 2.61217E-07 1.72921E-19 1.86440E-19
 -1      3263 9.52493E-05-2.84881E-05-2.86123E-05 9.67822E-08-3.85686E-19 2.56215E-18
 -1      3264 9.52564E-05-2.84723E-05-2.86208E-05 1.30260E-07 6.48831E-19 2.46792E-18
 -1      3265 9.52428E-05-2.84329E-05-2.86331E-05 1.62112E-07-5.40245E-19 1.80478E-18
 -1      3266 9.52453E-05-2.85159E-05-2.85986E-05 4.55126E-08-2.09195E-19 1.93221E-18
 -1      3267 9.52500E-05-2.85040E-05-2.86047E-05 6.85758E-08-4.95481E-19 1.57556E-18
 -1      3268 9.52460E-05-2.84776E-05-2.86152E-05 9.14114E-08-1.74300E-19 2.22392E-18
 -1      3269 9.52425E-05-2.85362E-05-2.85886E-05 1.10442E-08-2.98374E-19 7.78552E-19
 -1      3270 9.52454E-05-2.85274E-05-2.85929E-05 2.63679E-08 5.70731E-20 1.30763E-18
 -1      3271 9.52472E-05-2.85104E-05-2.86017E-05 4.23164E-08 3.36273E-19 6.25805E-19
 -1      3272 9.52405E-05-2.85506E-05-2.85815E-05-1.11019E-08-6.30689E-19-1.39191E-19
 -1      3273 9.52421E-05-2.85443E-05-2.85844E-05-1.42498E-09-4.14635E-19 4.86979E-19
 -1      3274 9.52472E-05-2.85340E-05-2.85915E-05 9.35753E-09-4.98249E-20-5.03271E-21
 -1      3275 9.52392E-05-2.85608E-05-2.85765E-05-2.43690E-08-8.37005E-19-6.79130E-19
 -1      3276 9.52398E-05-2.85562E-05-2.85785E-05-1.87430E-08-1.00332E-18-5.02549E-19
 -1      3277 9.52464E-05-2.85506E-05-2.85841E-05-1.17659E-08-4.81114E-19-1.48869E-18
 -1      3278 9.52384E-05-2.85679E-05-2.85731E-05-3.13259E-08-7.73081E-19-2.35263E-20
 -1      3279 9.52385E-05-2.85645E-05-2.85744E-05-2.85737E-08 1.34168E-20-3.92931E-19
 -1      3280 9.52453E-05-2.85620E-05-2.85787E-05-2.43559E-08-1.00006E-18-9.22457E-19
 -1      3281 9.52381E-05-2.85730E-05-2.85708E-05-3.38183E-08-1.18010E-18-7.56464E-19
 -1      3282 9.52377E-05-2.85705E-05-2.85716E-05-3.31060E-08-1.19982E-18-5.84862E-19
 -1      3283 9.52441E-05-2.85699E-05-2.85747E-05-3.08704E-08-8.25587E-19 2.67580E-19
 -1      3284 9.52383E-05-2.85770E-05-2.85691E-05-3.30799E-08 8.78304E-19-8.59032E-19
 -1      3285 9.52376E-05-2.85749E-05-2.85697E-05-3.38599E-08-7.45968E-19-1.74244E-18
 -1      3286 9.52430E-05-2.85755E-05-2.85718E-05-3.30813E-08-2.25933E-19-2.79090E-18
 -1      3287 9.52401E-05-2.85804E-05-2.85685E-05-3.09140E-08 1.83483E-19-1.88761E-18
 -1      3288 9.52387E-05-2.85784E-05-2.85687E-05-3.23628E-08 1.21552E-18-1.35893E-18
 -1      3289 9.52432E-05-2.85795E-05-2.85701E-05-3.23539E-08 6.86267E-20-4.92407E-18
 -1      3290 9.52440E-05-2.85829E-05-2.85690E-05-3.03825E-08 7.79954E-19-5.29849E-18
 -1      3291 1.01011E-04-3.06269E-05-3.01670E-05-8.19720E-06 6.13939E-19-1.05933E-19
 -1      3292 9.98973E-05-2.90492E-05-3.03199E-05-7.66957E-06 8.84350E-19-1.43452E-19
 -1      3293 5.93544E-05-2.40271E-05-1.48312E-05-2.72289E-05 3.02944E-18 5.53864E-18
 -1      3294 6.99951E-05-3.13872E-05-1.61666E-05-3.26884E-05 3.62287E-18 4.60077E-18
 -1      3295 8.17094E-05-1.11451E-05-3.02466E-05-1.78218E-06 1.53602E-18-2.81697E-18
 -1      3296 8.07339E-05-1.04469E-05-3.01477E-05-1.41055E-06 1.22233E-18-2.93729E-18
 -1      3297 1.30940E-04-5.12213E-05-3.40901E-05 3.08133E-06-4.41873E-19 2.33162E-18
 -1      3298 1.28452E-04-4.31333E-05-3.68256E-05 1.00782E-05 9.80335E-19 2.63125E-18
 -1      3299 9.52598E-05-2.85897E-05-2.85729E-05 2.26972E-09-9.04665E-19-2.94608E-18
 -1      3300 9.52598E-05-2.85897E-05-2.85729E-05-2.23088E-09 2.98068E-19-3.90537E-18
 -1      3301 9.52614E-05-2.85863E-05-2.85750E-05 4.64871E-09-1.12586E-19-1.43486E-18
 -1      3302 9.52509E-05-2.85853E-05-2.85710E-05 2.61844E-08 2.10570E-18 8.97027E-19
 -1      3303 9.52537E-05-2.85869E-05-2.85714E-05 2.32661E-08 1.77218E-18 1.65471E-19
 -1      3304 1.28586E-04-1.94384E-05-4.73442E-05-1.08938E-05-5.97825E-18 1.25409E-18
 -1      3305 1.26896E-04-2.63966E-05-4.35122E-05-1.27872E-05-4.85392E-18 1.56368E-18
 -1      3306 6.16560E-05-2.65417E-05-1.48778E-05 3.13541E-05 3.08087E-18-3.65346E-18
 -1      3307 4.95113E-05-1.77498E-05-1.32223E-05 2.14039E-05 2.45325E-18-5.15420E-18
 -1      3308 1.30285E-04-4.46532E-05-3.68236E-05-9.71577E-06-1.73854E-18 2.40377E-18
 -1      3309 1.22071E-04-3.13359E-05-3.90412E-05 1.35951E-05 2.55222E-18 2.49007E-18
 -1      3310 1.29877E-04-4.95024E-05-3.45513E-05-5.31720E-06-5.53973E-19 2.06295E-18
 -1      3311 1.29243E-04-5.28812E-05-3.28841E-05 1.71123E-06 1.25569E-19 1.99558E-18
 -1      3312 1.25846E-04-5.60531E-05-2.96408E-05 1.13639E-05 1.36333E-18 1.26616E-18
 -1      3313 1.18709E-04-1.40031E-05-4.51642E-05 2.80203E-06-5.38586E-18-1.47850E-18
 -1      3314 9.52557E-05-2.85877E-05-2.85720E-05 1.94446E-08 1.77523E-18 2.61256E-18
 -1      3315 9.52575E-05-2.85887E-05-2.85723E-05 1.56237E-08 8.00912E-19 3.71662E-18
 -1      3316 9.52597E-05-2.85858E-05-2.85745E-05 1.36691E-08 1.34088E-18 3.90543E-18
 -1      3317 9.52561E-05-2.85846E-05-2.85735E-05 2.17928E-08 1.50243E-18 1.88155E-18
 -1      3318 1.24451E-04-3.79791E-05-3.72928E-05 1.30579E-05 1.70624E-18 2.54248E-18
 -1      3319 3.98889E-05-1.22848E-05-1.10694E-05-5.90216E-06 6.41297E-19 4.91311E-18
 -1      3320 4.76655E-05-1.61763E-05-1.31982E-05-1.68007E-05 1.37459E-18 5.73462E-18
 -1      3321 1.04142E-04-3.43873E-05-2.99017E-05-8.52909E-06 1.24770E-19 2.09312E-19
 -1      3322 1.02510E-04-3.24370E-05-2.99704E-05-8.72012E-06 3.32869E-19 1.63874E-19
 -1      3323 9.98658E-05-3.08592E-05-2.96346E-05-9.59187E-06 3.46693E-19-2.75112E-19
 -1      3324 9.15997E-05-4.42770E-05-2.04831E-05 3.40009E-05 2.98674E-18-6.49463E-19
 -1      3325 7.64612E-05-3.49682E-05-1.72097E-05 3.42608E-05 3.22635E-18-2.00302E-18
 -1      3326 1.17470E-04-1.99894E-05-4.20133E-05-1.09013E-05 4.55016E-18-1.76538E-18
 -1      3327 1.18531E-04-5.51358E-05-2.73358E-05 1.98360E-05 1.91964E-18 8.87505E-19
 -1      3328 1.06584E-04-5.06018E-05-2.34446E-05 2.88956E-05 2.73496E-18-5.94180E-20
 -1      3329 9.91557E-05-4.50434E-05-2.29531E-05 2.84004E-05 2.59915E-18-6.72835E-19
 -1      3330 1.17067E-04-5.21260E-05-2.78539E-05 1.60041E-05 1.49771E-18 4.07707E-19
 -1      3331 1.30434E-04-5.65186E-05-3.15588E-05-5.38500E-06 1.56536E-18-1.45385E-18
 -1      3332 1.31967E-04-5.12091E-05-3.48137E-05 3.94762E-06 3.80543E-19-2.55682E-18
 -1      3333 5.58407E-05-1.86277E-05-1.57594E-05-2.09966E-05-7.49412E-19-4.73746E-18
 -1      3334 6.30002E-05-2.51517E-05-1.58004E-05-2.95024E-05-1.71005E-18-4.41738E-18
 -1      3335 7.35214E-05-3.24829E-05-1.73193E-05-3.27975E-05-2.44687E-18-3.87105E-18
 -1      3336 8.83429E-05-4.15549E-05-1.99137E-05-3.43677E-05-2.74979E-18-2.83168E-18
 -1      3337 7.63487E-05-3.01692E-05-1.94371E-05-2.82643E-05-2.07825E-18-3.27309E-18
 -1      3338 9.49810E-05-2.21947E-05-3.11786E-05 3.61829E-06-9.68585E-19-2.45156E-18
 -1      3339 9.55580E-05-2.36150E-05-3.08338E-05 5.27087E-06-8.86879E-19-2.19254E-18
 -1      3340 9.36157E-05-2.27373E-05-3.03923E-05 6.27785E-06-6.30798E-19-2.15745E-18
 -1      3341 9.28737E-05-1.93401E-05-3.15177E-05 1.80866E-06-1.14815E-18-2.93777E-18
 -1      3342 9.39437E-05-2.07953E-05-3.13435E-05 2.74584E-06-1.10512E-18-2.68119E-18
 -1      3343 8.99954E-05-1.69958E-05-3.12997E-05 2.00958E-06-8.73583E-19-3.06576E-18
 -1      3344 9.52423E-05-2.85815E-05-2.85690E-05 3.05947E-08 1.02230E-18 2.68185E-18
 -1      3345 9.52479E-05-2.85843E-05-2.85700E-05 2.89458E-08 1.19019E-18 1.42012E-18
 -1      3346 9.52502E-05-2.85828E-05-2.85717E-05 2.83294E-08 1.33822E-18 6.40624E-19
 -1      3347 9.52422E-05-2.85799E-05-2.85696E-05 3.20323E-08-2.31008E-19 1.23549E-18
 -1      3348 8.01490E-05-9.97619E-06-3.00870E-05-5.40391E-07 1.17288E-18-2.91268E-18
 -1      3349 8.00722E-05-9.90607E-06-3.00829E-05-2.12851E-08 9.44900E-19-3.01280E-18
 -1      3350 8.04448E-05-1.12026E-05-2.96421E-05-1.29972E-06 1.09070E-18-2.78617E-18
 -1      3351 9.20438E-05-1.98547E-05-3.09518E-05 3.75684E-06-8.11146E-19-2.76394E-18
 -1      3352 8.10520E-05-3.65815E-05-1.87806E-05-3.11531E-05 3.64124E-18 2.71283E-18
 -1      3353 1.32702E-04-5.69198E-05-3.25174E-05 6.16392E-06-4.36540E-19-3.61185E-18
 -1      3354 1.26926E-04-5.68280E-05-3.00476E-05 1.09146E-05-1.21983E-18-3.77384E-18
 -1      3355 1.32295E-04-5.31630E-05-3.40197E-05-1.12216E-06-9.03943E-20-4.40319E-18
 -1      3356 1.13260E-04-5.47466E-05-2.50005E-05 2.45876E-05-2.80537E-18-1.96367E-18
 -1      3357 8.48238E-05-1.34891E-05-3.05679E-05-2.49172E-06 1.97093E-18-2.50111E-18
 -1      3358 8.31346E-05-1.22704E-05-3.04012E-05-2.38982E-06 1.67451E-18-2.66390E-18
 -1      3359 8.25961E-05-1.28333E-05-2.98705E-05-2.88984E-06 1.37659E-18-2.53654E-18
 -1      3360 9.29843E-05-2.12199E-05-3.07459E-05-4.34325E-06 1.92433E-18-1.08828E-18
 -1      3361 8.99860E-05-1.77374E-05-3.09613E-05-2.91306E-06 2.25442E-18-1.75498E-18
 -1      3362 8.62371E-05-3.88699E-05-1.99116E-05 3.12215E-05-3.56048E-18 6.82073E-19
 -1      3363 7.89983E-05-3.36777E-05-1.92610E-05 2.94479E-05-3.42770E-18 1.45790E-18
 -1      3364 1.30610E-04-4.61763E-05-3.64196E-05 1.06777E-05-4.94654E-19-3.40775E-18
 -1      3365 1.30202E-04-4.23464E-05-3.77985E-05-1.11194E-05 2.18969E-18-4.04569E-18
 -1      3366 1.23083E-04-2.08676E-05-4.40317E-05 1.30794E-05-4.46768E-18-4.02859E-18
 -1      3367 1.25949E-04-2.95887E-05-4.19283E-05 1.56681E-05-3.46976E-18-4.36061E-18
 -1      3368 1.29421E-04-3.88632E-05-3.89562E-05 1.36530E-05-1.86061E-18-4.05279E-18
 -1      3369 1.20058E-04-2.60950E-05-4.06594E-05-1.43509E-05 3.53890E-18-2.40646E-18
 -1      3370 9.52424E-05-2.85781E-05-2.85704E-05 3.25335E-08-9.45792E-21 1.43991E-18
 -1      3371 1.25750E-04-4.17934E-05-3.60708E-05-1.19873E-05 1.56971E-18-3.31913E-18
 -1      3372 8.56343E-05-1.36670E-05-3.08620E-05 2.10663E-06-3.14075E-19-3.03274E-18
 -1      3373 8.77224E-05-1.52339E-05-3.10716E-05 2.06085E-06-6.14515E-19-3.14083E-18
 -1      3374 8.87572E-05-1.66620E-05-3.08852E-05 2.89846E-06-5.57904E-19-3.02842E-18
 -1      3375 1.16224E-04-4.62349E-05-3.01217E-05-5.38711E-06-8.32762E-19 7.42156E-19
 -1      3376 1.14134E-04-4.33590E-05-3.03951E-05-3.73014E-06-8.51427E-19 1.40038E-18
 -1      3377 1.11798E-04-4.13857E-05-3.00749E-05-5.84212E-06-8.10862E-19 9.97287E-19
 -1      3378 9.52473E-05-2.85785E-05-2.85724E-05 3.13449E-08 7.18168E-19 4.91431E-19
 -1      3379 7.28132E-05-2.97750E-05-1.80347E-05 2.96809E-05 3.14085E-18-2.49372E-18
 -1      3380 5.55142E-05-1.91269E-05-1.51041E-05-2.10670E-05 1.89116E-18 5.69698E-18
 -1      3381 6.40267E-05-2.26183E-05-1.75047E-05-2.25524E-05 2.61799E-18 3.82552E-18
 -1      3382 5.34044E-05-1.54798E-05-1.61106E-05-1.30513E-05 7.80541E-19 4.44613E-18
 -1      3383 9.52574E-05-2.85887E-05-2.85723E-05-1.56323E-08 7.17875E-19-1.89121E-19
 -1      3384 9.52557E-05-2.85877E-05-2.85720E-05-1.94671E-08 6.38803E-19-6.89492E-19
 -1      3385 9.52594E-05-2.85896E-05-2.85728E-05-6.90389E-09 6.77586E-19-1.67900E-18
 -1      3386 9.52586E-05-2.85891E-05-2.85727E-05-1.12421E-08 1.45314E-18-1.43184E-18
 -1      3387 9.52597E-05-2.85858E-05-2.85745E-05-1.36965E-08 1.82908E-18-3.63634E-19
 -1      3388 9.52614E-05-2.85863E-05-2.85750E-05-4.67483E-09 9.39313E-19-3.64854E-18
 -1      3389 5.33040E-05-2.06104E-05-1.34709E-05 2.46568E-05-2.52908E-18 4.42914E-18
 -1      3390 4.96678E-05-1.64006E-05-1.41025E-05 1.71690E-05-1.97724E-18 4.59039E-18
 -1      3391 6.31745E-05-2.42456E-05-1.63969E-05 2.58642E-05-3.27431E-18 3.41397E-18
 -1      3392 1.01556E-04-4.73501E-05-2.30211E-05-2.77057E-05 3.27108E-18 1.21160E-18
 -1      3393 1.09226E-04-5.27813E-05-2.39660E-05-2.67838E-05 2.97192E-18 1.55214E-18
 -1      3394 1.15107E-04-5.35456E-05-2.64090E-05-1.94167E-05 3.29657E-18 1.03111E-18
 -1      3395 5.70910E-05-1.72120E-05-1.67571E-05 1.71426E-05 2.38401E-18-4.40023E-18
 -1      3396 4.80017E-05-1.37875E-05-1.41449E-05 1.31079E-05 1.82084E-18-5.20735E-18
 -1      3397 4.99477E-05-1.22895E-05-1.59402E-05 4.34585E-06 1.23053E-18-5.03005E-18
 -1      3398 9.40187E-05-4.30101E-05-2.18771E-05 2.90149E-05-3.67541E-18-4.17958E-19
 -1      3399 1.19640E-04-1.72260E-05-4.46040E-05 9.99567E-06-4.78987E-18-2.97174E-18
 -1      3400 8.37995E-05-1.22570E-05-3.06671E-05 1.82158E-06-1.14809E-19-3.06283E-18
 -1      3401 8.45745E-05-1.34778E-05-3.04553E-05 2.57050E-06-1.89349E-19-2.87589E-18
 -1      3402 8.22828E-05-1.11626E-05-3.05046E-05 1.60466E-06 2.74399E-19-3.05735E-18
 -1      3403 1.28568E-04-5.49356E-05-3.18410E-05-6.14148E-06-1.10505E-18 1.54152E-18
 -1      3404 1.25471E-04-5.13301E-05-3.18366E-05-1.52329E-06-9.18860E-19 1.69948E-18
 -1      3405 1.22180E-04-5.08616E-05-3.03589E-05-5.64823E-06-1.28811E-18 1.35736E-18
 -1      3406 1.23286E-04-5.59548E-05-2.85780E-05-1.50160E-05-2.04336E-18 6.99729E-19
 -1      3407 8.77737E-05-1.60702E-05-3.07503E-05-3.04118E-06 2.02596E-18-2.07857E-18
 -1      3408 9.90455E-05-2.77159E-05-3.05736E-05-6.70221E-06 1.24485E-18-1.93945E-19
 -1      3409 9.83075E-05-2.63768E-05-3.07984E-05-5.60090E-06 1.54749E-18-1.11574E-19
 -1      3410 9.61691E-05-2.44998E-05-3.07304E-05-5.37747E-06 1.79971E-18-5.04866E-19
 -1      3411 9.76131E-05-2.73929E-05-3.01325E-05-7.84682E-06 9.74107E-19-5.41995E-19
 -1      3412 9.73873E-05-4.44510E-05-2.24076E-05-2.93443E-05-2.82599E-18-1.86535E-18
 -1      3413 1.16698E-04-5.31093E-05-2.71630E-05-1.88286E-05-2.08688E-18-2.98182E-20
 -1      3414 9.52539E-05-2.85872E-05-2.85714E-05-2.26576E-08 1.04589E-18-2.70651E-18
 -1      3415 9.52517E-05-2.85860E-05-2.85710E-05-2.51727E-08 1.56218E-18-2.06813E-18
 -1      3416 9.52563E-05-2.85848E-05-2.85735E-05-2.12587E-08 1.21922E-18-1.45474E-18
 -1      3417 4.43182E-05-1.29706E-05-1.29823E-05 1.28687E-06-3.07758E-19 4.84789E-18
 -1      3418 1.25158E-04-5.56294E-05-2.98052E-05-9.76871E-06 2.01285E-18-7.62687E-19
 -1      3419 1.08601E-04-3.88916E-05-2.98993E-05-7.21944E-06-5.31182E-19 7.39413E-19
 -1      3420 1.06453E-04-3.66577E-05-2.98288E-05-8.30609E-06-2.12414E-19 5.68909E-19
 -1      3421 1.03604E-04-3.53911E-05-2.93083E-05-1.02368E-05-2.88199E-19-1.54177E-19
 -1      3422 1.09104E-04-4.08356E-05-2.93481E-05-9.15568E-06-8.89735E-19 3.35015E-19
 -1      3423 5.38842E-05-1.45555E-05-1.63259E-05-1.40407E-05-2.41113E-19-5.01623E-18
 -1      3424 6.20574E-05-1.85963E-05-1.84249E-05-1.85642E-05-8.64563E-19-4.03394E-18
 -1      3425 5.25330E-05-1.31543E-05-1.67202E-05-7.94435E-06 2.83187E-19-4.89045E-18
 -1      3426 9.19110E-05-2.32436E-05-2.94216E-05 8.68966E-06 2.90371E-20-2.00948E-18
 -1      3427 9.27335E-05-2.49405E-05-2.90291E-05 1.01284E-05 3.75160E-19-1.83264E-18
 -1      3428 9.36010E-05-2.26409E-05-3.04025E-05-5.76830E-06 1.62480E-18-1.14408E-18
 -1      3429 8.22978E-05-3.25777E-05-2.11435E-05 2.56446E-05-3.12077E-18 1.41987E-18
 -1      3430 7.29953E-05-2.86410E-05-1.86587E-05 2.75428E-05-3.45719E-18 2.58443E-18
 -1      3431 6.69873E-05-2.37390E-05-1.84874E-05 2.31341E-05-3.22259E-18 2.79132E-18
 -1      3432 9.33024E-05-2.67056E-05-2.85236E-05 1.18146E-05 5.93352E-19-1.53774E-18
 -1      3433 9.48022E-05-2.89601E-05-2.81665E-05 1.30350E-05 7.53958E-19-1.34491E-18
 -1      3434 8.99969E-05-2.40501E-05-2.82859E-05 1.13317E-05 6.72897E-19-1.85752E-18
 -1      3435 9.61053E-05-3.14384E-05-2.76657E-05 1.47975E-05 7.37874E-19-1.11865E-18
 -1      3436 9.87469E-05-3.45932E-05-2.74186E-05 1.56154E-05 7.77103E-19-1.04635E-18
 -1      3437 9.16401E-05-2.82901E-05-2.71955E-05 1.50452E-05 8.41335E-19-1.53643E-18
 -1      3438 1.01408E-04-3.80136E-05-2.70353E-05 1.71714E-05 1.06491E-18-8.34666E-19
 -1      3439 1.05573E-04-4.23156E-05-2.70611E-05 1.72446E-05 1.38624E-18-8.36695E-19
 -1      3440 9.53891E-05-3.44473E-05-2.61602E-05 1.89945E-05 1.04285E-18-1.32543E-18
 -1      3441 1.11676E-04-4.78802E-05-2.71216E-05 1.76118E-05 1.77170E-18-1.87955E-19
 -1      3442 1.04788E-04-4.78386E-05-2.40909E-05 2.46722E-05-3.13040E-18-1.37186E-18
 -1      3443 9.84608E-05-4.29260E-05-2.38135E-05 2.41599E-05-2.98169E-18-5.89416E-19
 -1      3444 1.13355E-04-4.99753E-05-2.71440E-05-1.61812E-05 2.98015E-18 9.73228E-20
 -1      3445 1.08299E-04-4.58146E-05-2.66289E-05-1.71987E-05 2.65971E-18 6.39221E-19
 -1      3446 1.01279E-04-3.90904E-05-2.66300E-05-1.63336E-05 2.18470E-18 8.71922E-19
 -1      3447 9.79788E-05-3.53948E-05-2.66955E-05-1.58907E-05 2.08227E-18 7.65893E-19
 -1      3448 9.60537E-05-3.28499E-05-2.70323E-05-1.45281E-05 1.11252E-18 9.98639E-19
 -1      3449 9.40190E-05-3.04561E-05-2.72147E-05-1.38130E-05 9.11792E-19 8.43026E-19
 -1      3450 9.27394E-05-3.25599E-05-2.58812E-05-1.70756E-05 1.56895E-18 1.04580E-18
 -1      3451 9.32567E-05-2.88324E-05-2.75630E-05-1.24609E-05 6.18049E-19 3.22157E-19
 -1      3452 9.21801E-05-2.74017E-05-2.77610E-05-1.16617E-05 3.25734E-19 2.14856E-19
 -1      3453 9.02280E-05-2.80799E-05-2.66729E-05-1.39010E-05 5.20137E-19 7.28000E-19
 -1      3454 9.20566E-05-2.65332E-05-2.80512E-05-1.05379E-05 2.56746E-19 4.54768E-19
 -1      3455 9.15802E-05-2.57660E-05-2.82143E-05-9.76556E-06 3.27949E-19-9.42945E-21
 -1      3456 8.95026E-05-2.56577E-05-2.73762E-05-1.12756E-05 1.73833E-19-5.29892E-21
 -1      3457 9.17796E-05-2.53939E-05-2.84318E-05-8.84466E-06 4.11792E-19-3.73077E-19
 -1      3458 9.16419E-05-2.50599E-05-2.85462E-05-8.13464E-06-1.26222E-19-2.71783E-19
 -1      3459 8.96561E-05-2.44954E-05-2.79272E-05-9.18923E-06 6.02856E-20-3.50718E-20
 -1      3460 9.19842E-05-2.49966E-05-2.86966E-05-7.37314E-06-5.71837E-19 1.35420E-19
 -1      3461 9.20216E-05-2.49288E-05-2.87655E-05-6.73237E-06-4.63914E-19 6.52779E-19
 -1      3462 9.02347E-05-2.41291E-05-2.83260E-05-7.51661E-06-4.21644E-20 1.92961E-19
 -1      3463 9.24058E-05-2.50439E-05-2.88610E-05-6.09396E-06-7.41849E-19 4.21464E-19
 -1      3464 9.25213E-05-2.51280E-05-2.88937E-05-5.52271E-06-7.05261E-19 2.89250E-19
 -1      3465 9.09762E-05-2.42382E-05-2.85947E-05-6.14631E-06-6.10289E-19 1.09893E-19
 -1      3466 9.28934E-05-2.53348E-05-2.89475E-05-4.98284E-06-1.09427E-18 3.66686E-20
 -1      3467 9.30328E-05-2.54961E-05-2.89541E-05-4.48035E-06-3.07460E-19-5.86788E-19
 -1      3468 9.17363E-05-2.46089E-05-2.87613E-05-5.00201E-06-1.18861E-18 1.79024E-19
 -1      3469 9.33665E-05-2.57393E-05-2.89783E-05-4.02338E-06 8.69988E-19-1.64937E-18
 -1      3470 9.35021E-05-2.59309E-05-2.89676E-05-3.58822E-06 2.16025E-19-1.60264E-18
 -1      3471 9.24407E-05-2.51022E-05-2.88524E-05-4.03655E-06-3.76229E-19-3.06501E-19
 -1      3472 9.37874E-05-2.61770E-05-2.89718E-05-3.20367E-06-6.84626E-19-1.47606E-18
 -1      3473 9.39066E-05-2.63712E-05-2.89510E-05-2.83324E-06-3.50509E-19-1.40006E-18
 -1      3474 9.30562E-05-2.56308E-05-2.88907E-05-3.22123E-06 2.13085E-19-1.54220E-18
 -1      3475 9.41421E-05-2.66010E-05-2.89427E-05-2.51301E-06 5.88021E-19-8.43457E-19
 -1      3476 9.42409E-05-2.67822E-05-2.89169E-05-2.20321E-06 1.25243E-18-1.38063E-19
 -1      3477 9.35730E-05-2.61429E-05-2.88938E-05-2.53704E-06 4.59572E-19 1.05371E-19
 -1      3478 9.44301E-05-2.69863E-05-2.89014E-05-1.94006E-06 1.49744E-18-8.23506E-19
 -1      3479 9.45088E-05-2.71470E-05-2.88743E-05-1.68554E-06 2.01963E-18-5.55154E-19
 -1      3480 9.39942E-05-2.66097E-05-2.88753E-05-1.96913E-06 1.47377E-18-8.01799E-19
 -1      3481 9.46574E-05-2.73219E-05-2.88554E-05-1.47247E-06 1.77767E-18-8.70251E-19
 -1      3482 9.47180E-05-2.74592E-05-2.88292E-05-1.26698E-06 1.76013E-18-1.07485E-18
 -1      3483 9.43291E-05-2.70179E-05-2.88447E-05-1.50410E-06 1.50804E-18-6.68317E-19
 -1      3484 9.48322E-05-2.76049E-05-2.88095E-05-1.09713E-06 1.52753E-18-2.02644E-18
 -1      3485 9.48778E-05-2.77190E-05-2.87854E-05-9.34049E-07 9.17986E-19-1.94256E-18
 -1      3486 9.45896E-05-2.73640E-05-2.88088E-05-1.12898E-06 1.12252E-18-1.62064E-18
 -1      3487 9.49639E-05-2.78376E-05-2.87665E-05-8.00816E-07 8.17751E-19-1.80756E-18
 -1      3488 9.49972E-05-2.79303E-05-2.87454E-05-6.73599E-07 6.00957E-19-1.13638E-18
 -1      3489 9.47883E-05-2.76501E-05-2.87720E-05-8.31101E-07 1.35065E-18-2.65720E-18
 -1      3490 9.50607E-05-2.80248E-05-2.87281E-05-5.70813E-07-5.27155E-19-9.97426E-19
 -1      3491 9.50844E-05-2.80986E-05-2.87101E-05-4.73279E-07-1.06362E-18-2.07438E-18
 -1      3492 9.49368E-05-2.78814E-05-2.87369E-05-5.98378E-07-6.58323E-20-3.33159E-18
 -1      3493 9.51302E-05-2.81725E-05-2.86949E-05-3.95345E-07-7.47151E-19-1.44006E-18
 -1      3494 9.51466E-05-2.82301E-05-2.86799E-05-3.21899E-07-7.76616E-19-1.53039E-19
 -1      3495 9.50453E-05-2.80648E-05-2.87052E-05-4.19588E-07-3.21482E-19-3.23788E-18
 -1      3496 9.51788E-05-2.82869E-05-2.86670E-05-2.63887E-07-1.55970E-18 1.37874E-19
 -1      3497 9.51897E-05-2.83310E-05-2.86547E-05-2.09627E-07-1.43968E-18-5.40274E-19
 -1      3498 9.51228E-05-2.82076E-05-2.86774E-05-2.84624E-07-8.70929E-19-9.62758E-19
 -1      3499 9.52116E-05-2.83737E-05-2.86440E-05-1.67303E-07-1.61761E-18-4.58324E-19
 -1      3500 9.52185E-05-2.84069E-05-2.86342E-05-1.28052E-07-1.12176E-18-4.11191E-20
 -1      3501 9.51765E-05-2.83166E-05-2.86539E-05-1.84641E-07-1.63446E-18-2.58883E-19
 -1      3502 9.52327E-05-2.84385E-05-2.86255E-05-9.78659E-08-5.03061E-19 2.33736E-19
 -1      3503 9.52367E-05-2.84630E-05-2.86178E-05-7.01504E-08-3.29460E-19 1.21069E-19
 -1      3504 9.52124E-05-2.83984E-05-2.86344E-05-1.12086E-07-8.69608E-19 4.13857E-20
 -1      3505 9.52453E-05-2.84857E-05-2.86108E-05-4.91896E-08 2.68758E-19-2.78223E-20
 -1      3506 9.52473E-05-2.85034E-05-2.86049E-05-3.01830E-08 1.31283E-18 1.88874E-19
 -1      3507 9.52352E-05-2.84584E-05-2.86186E-05-6.06629E-08 2.86014E-19-3.04350E-19
 -1      3508 9.52521E-05-2.85195E-05-2.85994E-05-1.61085E-08 1.03881E-18 5.52371E-19
 -1      3509 9.52527E-05-2.85320E-05-2.85948E-05-3.56289E-09 8.13706E-19 1.28313E-18
 -1      3510 9.52486E-05-2.85015E-05-2.86059E-05-2.52361E-08 1.31804E-18 5.94227E-19
 -1      3511 9.52548E-05-2.85430E-05-2.85905E-05 5.46258E-09 6.00550E-19 7.17211E-19
 -1      3512 9.52546E-05-2.85516E-05-2.85871E-05 1.32944E-08 3.97837E-19 2.95863E-19
 -1      3513 9.52554E-05-2.85318E-05-2.85959E-05-1.70557E-09 2.65848E-19 5.32393E-19
 -1      3514 9.52549E-05-2.85590E-05-2.85838E-05 1.86803E-08 1.05969E-18-7.34296E-19
 -1      3515 9.52542E-05-2.85649E-05-2.85812E-05 2.31205E-08 1.72126E-18-9.53777E-19
 -1      3516 9.52578E-05-2.85525E-05-2.85880E-05 1.31260E-08 4.65838E-19 7.74395E-19
 -1      3517 9.52534E-05-2.85699E-05-2.85786E-05 2.59369E-08 2.26396E-18-1.15922E-18
 -1      3518 9.52525E-05-2.85739E-05-2.85766E-05 2.79069E-08 2.35087E-18-4.42709E-19
 -1      3519 9.52574E-05-2.85665E-05-2.85818E-05 2.16908E-08 2.10041E-18 3.61375E-19
 -1      3520 8.72707E-05-1.62405E-05-3.04573E-05 3.73689E-06-2.71113E-19-2.93641E-18
 -1      3521 8.96357E-05-1.80065E-05-3.06928E-05 3.74834E-06-5.17183E-19-3.00516E-18
 -1      3522 9.06508E-05-1.93837E-05-3.05305E-05 4.64089E-06-5.46613E-19-2.71517E-18
 -1      3523 1.24407E-04-5.18278E-05-3.10875E-05 2.61757E-06-8.83942E-19-3.17244E-18
 -1      3524 1.27293E-04-5.10512E-05-3.27607E-05-1.74563E-06-8.68209E-21-3.20051E-18
 -1      3525 9.93104E-05-3.37149E-05-2.80605E-05 1.20533E-05-1.45631E-18-3.50845E-20
 -1      3526 1.01678E-04-3.61823E-05-2.80402E-05 1.19507E-05-1.64614E-18-7.02290E-19
 -1      3527 9.62039E-05-3.00539E-05-2.83277E-05 1.10080E-05-6.18133E-19 6.41009E-19
 -1      3528 9.76956E-05-3.17358E-05-2.82393E-05 1.13288E-05-9.63706E-19 2.97086E-19
 -1      3529 9.56328E-05-3.17469E-05-2.74501E-05 1.31335E-05-1.49930E-18 2.66779E-19
 -1      3530 9.45692E-05-2.78109E-05-2.86041E-05 9.68610E-06-3.10596E-19 7.66471E-19
 -1      3531 9.54319E-05-2.88418E-05-2.85143E-05 1.01898E-05-4.08973E-19 5.43321E-19
 -1      3532 9.33935E-05-2.84315E-05-2.78766E-05 1.13189E-05-7.66774E-19 4.44328E-19
 -1      3533 9.38442E-05-2.65962E-05-2.88224E-05 8.32939E-06 2.41914E-19 6.89277E-19
 -1      3534 9.42997E-05-2.71555E-05-2.87578E-05 8.89873E-06 1.33890E-19 9.57024E-19
 -1      3535 9.24405E-05-2.65327E-05-2.82618E-05 9.58873E-06-7.56989E-20 6.90498E-19
 -1      3536 9.36415E-05-2.60688E-05-2.89655E-05 7.03819E-06-7.74356E-19 5.00773E-19
 -1      3537 9.38533E-05-2.63151E-05-2.89317E-05 7.61322E-06-1.21771E-19 9.35973E-19
 -1      3538 9.22298E-05-2.56053E-05-2.85582E-05 8.03809E-06-7.47470E-20 8.32086E-19
 -1      3539 9.37130E-05-2.59694E-05-2.90404E-05 5.85360E-06-7.03202E-19 2.85400E-19
 -1      3540 9.37892E-05-2.60218E-05-2.90333E-05 6.40118E-06-7.30643E-19 5.30261E-19
 -1      3541 9.24120E-05-2.53026E-05-2.87606E-05 6.67598E-06-9.20350E-19 8.14116E-19
 -1      3542 9.39093E-05-2.61155E-05-2.90621E-05 4.79329E-06-7.30549E-19 8.79228E-19
 -1      3543 9.39162E-05-2.60572E-05-2.90748E-05 5.29465E-06-7.01337E-19 7.56698E-19
 -1      3544 9.27743E-05-2.53758E-05-2.88821E-05 5.48771E-06-7.15117E-19 3.70424E-19
 -1      3545 9.41455E-05-2.63862E-05-2.90469E-05 3.86399E-06-1.18654E-18 1.21259E-18
 -1      3546 9.41213E-05-2.62716E-05-2.90721E-05 4.30915E-06-1.08457E-18 1.23435E-18
 -1      3547 9.31933E-05-2.56551E-05-2.89412E-05 4.45774E-06-1.13172E-18 8.09548E-19
 -1      3548 9.43766E-05-2.67049E-05-2.90086E-05 3.06552E-06-1.38120E-18 4.88200E-19
 -1      3549 9.43421E-05-2.65684E-05-2.90405E-05 3.45061E-06-8.13821E-19 1.03714E-18
 -1      3550 9.36021E-05-2.60297E-05-2.89560E-05 3.57344E-06-8.91345E-19 9.26381E-19
 -1      3551 9.45816E-05-2.70258E-05-2.89580E-05 2.39253E-06-1.19606E-19-2.95461E-19
 -1      3552 9.45471E-05-2.68878E-05-2.89922E-05 2.71802E-06-8.18176E-19-2.88540E-20
 -1      3553 9.39679E-05-2.64303E-05-2.89415E-05 2.82370E-06-5.32354E-19-2.96859E-19
 -1      3554 9.47531E-05-2.73237E-05-2.89029E-05 1.83578E-06 1.69290E-19-8.03200E-19
 -1      3555 9.47230E-05-2.71953E-05-2.89364E-05 2.10515E-06 5.57729E-19 3.74075E-20
 -1      3556 9.42781E-05-2.68162E-05-2.89097E-05 2.19725E-06 7.33859E-20-5.88087E-19
 -1      3557 9.48906E-05-2.75862E-05-2.88485E-05 1.38342E-06-8.04505E-19-1.05650E-18
 -1      3558 9.48664E-05-2.74729E-05-2.88795E-05 1.60203E-06-6.61433E-19-1.50582E-18
 -1      3559 9.45311E-05-2.71655E-05-2.88690E-05 1.68201E-06 1.23673E-19-1.48574E-18
 -1      3560 9.49973E-05-2.78092E-05-2.87979E-05 1.02231E-06 3.16403E-20-1.68270E-19
 -1      3561 9.49789E-05-2.77129E-05-2.88254E-05 1.19645E-06-5.20563E-19-3.92597E-20
 -1      3562 9.47314E-05-2.74685E-05-2.88255E-05 1.26505E-06-9.65342E-19-1.58772E-18
 -1      3563 9.50779E-05-2.79934E-05-2.87528E-05 7.39014E-07 5.24236E-20 8.54228E-19
 -1      3564 9.50644E-05-2.79138E-05-2.87765E-05 8.75245E-07 3.81460E-19 5.29872E-19
 -1      3565 9.48859E-05-2.77232E-05-2.87830E-05 9.33158E-07-3.72555E-19-4.55869E-19
 -1      3566 9.51370E-05-2.81418E-05-2.87140E-05 5.20602E-07 3.95270E-19 7.16234E-19
 -1      3567 9.51277E-05-2.80776E-05-2.87338E-05 6.25284E-07 2.99361E-19 4.10980E-19
 -1      3568 9.50022E-05-2.79317E-05-2.87438E-05 6.73335E-07-6.97895E-20 5.88727E-19
 -1      3569 9.51792E-05-2.82589E-05-2.86815E-05 3.55207E-07 7.50460E-19 1.04630E-19
 -1      3570 9.51730E-05-2.82082E-05-2.86977E-05 4.34182E-07 5.26039E-19 1.72558E-19
 -1      3571 9.50877E-05-2.80987E-05-2.87091E-05 4.73367E-07 6.62725E-19 7.69472E-19
 -1      3572 9.52084E-05-2.83495E-05-2.86548E-05 2.32301E-07-7.11807E-19-3.89893E-19
 -1      3573 9.52045E-05-2.83103E-05-2.86678E-05 2.90739E-07 4.01788E-19-6.41543E-19
 -1      3574 9.51488E-05-2.82297E-05-2.86794E-05 3.22161E-07 1.75467E-19 8.57421E-19
 -1      3575 9.52277E-05-2.84181E-05-2.86334E-05 1.42827E-07-5.95228E-19-5.83922E-21
 -1      3576 9.52255E-05-2.83884E-05-2.86436E-05 1.85163E-07-1.04164E-18-4.79155E-19
 -1      3577 9.51913E-05-2.83304E-05-2.86545E-05 2.09952E-07-6.54903E-19-3.92856E-19
 -1      3578 9.52398E-05-2.84692E-05-2.86165E-05 7.91870E-08 1.69057E-19-5.54068E-19
 -1      3579 9.52388E-05-2.84471E-05-2.86243E-05 1.09126E-07 9.46202E-20-4.75022E-19
 -1      3580 9.52196E-05-2.84064E-05-2.86341E-05 1.28375E-07-4.17112E-20-2.03851E-18
 -1      3581 9.52467E-05-2.85063E-05-2.86034E-05 3.51512E-08-2.70225E-19-5.23174E-19
 -1      3582 9.52465E-05-2.84902E-05-2.86093E-05 5.57187E-08-1.84689E-19-5.06066E-19
 -1      3583 9.52375E-05-2.84626E-05-2.86178E-05 7.04382E-08-2.93881E-19-2.39315E-18
 -1      3584 9.52500E-05-2.85327E-05-2.85933E-05 5.72614E-09-4.86489E-20 2.60193E-19
 -1      3585 9.52503E-05-2.85212E-05-2.85978E-05 1.93346E-08 5.53396E-19 3.47024E-19
 -1      3586 9.52479E-05-2.85031E-05-2.86049E-05 3.04197E-08-1.69881E-19-4.96900E-19
 -1      3587 9.52509E-05-2.85511E-05-2.85858E-05-1.29983E-08-7.59239E-19-8.77323E-19
 -1      3588 9.52515E-05-2.85430E-05-2.85891E-05-4.46935E-09-3.89223E-19-9.28296E-19
 -1      3589 9.52531E-05-2.85318E-05-2.85949E-05 3.74559E-09 5.68773E-19 5.14070E-19
 -1      3590 9.52503E-05-2.85636E-05-2.85801E-05-2.40191E-08-1.27757E-18-1.08412E-18
 -1      3591 9.52510E-05-2.85580E-05-2.85825E-05-1.91401E-08-9.15157E-19-1.42413E-18
 -1      3592 9.52548E-05-2.85516E-05-2.85871E-05-1.31592E-08-3.80466E-19-4.39061E-19
 -1      3593 9.52489E-05-2.85721E-05-2.85758E-05-2.95535E-08-5.64266E-19-6.54823E-19
 -1      3594 9.52496E-05-2.85682E-05-2.85776E-05-2.72775E-08-9.70498E-19-8.93181E-19
 -1      3595 9.52543E-05-2.85650E-05-2.85812E-05-2.30312E-08-1.15727E-18-1.23812E-18
 -1      3596 9.52473E-05-2.85780E-05-2.85726E-05-3.11968E-08 6.69085E-19-2.69715E-18
 -1      3597 9.52478E-05-2.85752E-05-2.85739E-05-3.07696E-08 1.40957E-19-6.81017E-19
 -1      3598 9.52526E-05-2.85740E-05-2.85766E-05-2.79064E-08-3.04687E-19-5.32542E-19
 -1      3599 1.21346E-04-2.35515E-05-4.25111E-05-1.26019E-05-4.72422E-18 1.23582E-18
 -1      3600 1.19030E-04-1.65202E-05-4.39427E-05-8.23438E-06-5.21222E-18 2.58848E-19
 -1      3601 9.52630E-05-2.85826E-05-2.85773E-05 6.80134E-09 1.72471E-18 2.13198E-19
 -1      3602 9.52634E-05-2.85827E-05-2.85775E-05 2.28858E-09 1.52530E-18-3.27841E-18
 -1      3603 9.47051E-05-4.04387E-05-2.31542E-05-2.68018E-05-2.39361E-18-1.81591E-18
 -1      3604 1.05409E-04-4.76356E-05-2.47230E-05-2.54740E-05-2.46614E-18-1.27628E-18
 -1      3605 8.04384E-05-9.99872E-06-3.02133E-05 7.30634E-07 8.25337E-19-3.12552E-18
 -1      3606 8.12294E-05-1.05379E-05-3.03013E-05 1.16059E-06 4.78002E-19-3.12294E-18
 -1      3607 8.16783E-05-1.14995E-05-3.00572E-05 1.76881E-06 3.83028E-19-2.90759E-18
 -1      3608 8.02488E-05-1.08381E-05-2.97181E-05 4.93197E-07 8.18635E-19-2.86096E-18
 -1      3609 1.04580E-04-3.90682E-05-2.79776E-05 1.22210E-05-1.95138E-18-1.58339E-18
 -1      3610 1.07878E-04-4.21823E-05-2.81622E-05 1.12633E-05-1.86372E-18-1.78052E-18
 -1      3611 9.99554E-05-3.68927E-05-2.71189E-05 1.46907E-05-2.20393E-18-6.81570E-19
 -1      3612 9.52518E-05-2.85767E-05-2.85750E-05 2.85701E-08 1.75238E-18-2.52560E-20
 -1      3613 9.52511E-05-2.85804E-05-2.85732E-05 2.85208E-08 6.39122E-19 8.20235E-19
 -1      3614 9.52546E-05-2.85814E-05-2.85743E-05 2.58256E-08 1.49383E-18-5.26238E-19
 -1      3615 9.52560E-05-2.85754E-05-2.85775E-05 2.53528E-08 2.30101E-18 1.02776E-18
 -1      3616 7.38950E-05-2.59597E-05-2.04459E-05-2.42487E-05-1.44041E-18-2.97147E-18
 -1      3617 8.35422E-05-3.28194E-05-2.16976E-05-2.72431E-05-1.92810E-18-2.63946E-18
 -1      3618 9.82617E-05-3.05004E-05-2.90223E-05-1.09323E-05 7.92968E-20-8.41217E-19
 -1      3619 9.67807E-05-2.83783E-05-2.92669E-05-1.01433E-05 2.64605E-19-9.36731E-19
 -1      3620 8.08161E-05-3.23177E-05-2.08146E-05 2.81990E-05 2.67996E-18-1.52302E-18
 -1      3621 6.90278E-05-2.43442E-05-1.89047E-05 2.48112E-05 2.71147E-18-2.91787E-18
 -1      3622 1.13543E-04-4.64959E-05-2.86259E-05 9.93117E-06-1.89934E-18-2.50451E-18
 -1      3623 1.17435E-04-4.92747E-05-2.92550E-05 7.50499E-06-1.52547E-18-2.79032E-18
 -1      3624 1.21825E-04-5.28870E-05-2.95631E-05 8.62318E-06-1.33667E-18-2.89174E-18
 -1      3625 1.08307E-04-4.46002E-05-2.73561E-05 1.42293E-05-2.25934E-18-1.84942E-18
 -1      3626 5.38495E-05-1.21509E-05-1.74883E-05-2.05416E-06 7.69159E-19-4.66813E-18
 -1      3627 5.95566E-05-1.36137E-05-1.95545E-05-6.46246E-06 1.97938E-19-4.01562E-18
 -1      3628 5.68695E-05-1.29927E-05-1.88229E-05 4.28674E-06 1.22449E-18-4.17338E-18
 -1      3629 9.09942E-05-2.05559E-05-3.01857E-05 5.87371E-06-4.16369E-19-2.39718E-18
 -1      3630 9.15496E-05-2.20584E-05-2.97710E-05 7.45911E-06-2.04813E-19-2.14490E-18
 -1      3631 8.91471E-05-2.10746E-05-2.91853E-05 8.30084E-06 1.71689E-19-2.11217E-18
 -1      3632 8.84543E-05-1.86598E-05-2.99041E-05 5.80176E-06-1.03882E-19-2.51780E-18
 -1      3633 1.13518E-04-4.95310E-05-2.73610E-05-1.69935E-05-1.92063E-18-5.95727E-20
 -1      3634 1.15107E-04-5.28679E-05-2.66984E-05 1.90935E-05-2.22648E-18-1.92496E-18
 -1      3635 1.19596E-04-5.32963E-05-2.82452E-05-1.33635E-05 2.81480E-18-1.17036E-19
 -1      3636 1.16118E-04-4.97090E-05-2.86029E-05-1.29571E-05-1.62681E-18 3.68962E-19
 -1      3637 1.15686E-04-4.72929E-05-2.93058E-05-8.84198E-06-1.20503E-18 5.72492E-19
 -1      3638 1.11756E-04-4.42914E-05-2.87372E-05-1.11562E-05-1.25284E-18 3.44370E-19
 -1      3639 1.06639E-04-4.43104E-05-2.65843E-05-1.85717E-05-1.81567E-18-6.52652E-19
 -1      3640 9.52495E-05-2.85854E-05-2.85703E-05-2.73494E-08 1.57123E-18-2.02246E-18
 -1      3641 9.52467E-05-2.85839E-05-2.85698E-05-2.89670E-08 1.20935E-18-3.56063E-18
 -1      3642 9.52465E-05-2.85822E-05-2.85704E-05-3.01672E-08 8.64167E-19-3.57475E-18
 -1      3643 9.52520E-05-2.85839E-05-2.85721E-05-2.66996E-08 1.86319E-18-2.50694E-18
 -1      3644 7.85077E-05-3.23642E-05-1.96291E-05-2.81429E-05 3.22505E-18 3.16891E-18
 -1      3645 9.06437E-05-4.09682E-05-2.11701E-05-2.98843E-05 3.07462E-18 2.22322E-18
 -1      3646 8.71681E-05-1.66012E-05-3.02269E-05-4.16300E-06 1.76533E-18-2.12947E-18
 -1      3647 4.76021E-05-1.29628E-05-1.43137E-05 8.08272E-06-9.06431E-19 4.42045E-18
 -1      3648 4.94772E-05-1.29757E-05-1.55282E-05-2.09326E-06 1.71531E-19 3.70889E-18
 -1      3649 5.48021E-05-1.58651E-05-1.64029E-05 1.23691E-05-1.59664E-18 3.53102E-18
 -1      3650 6.56820E-05-1.73723E-05-2.07118E-05-1.45265E-05-4.73501E-19-3.49365E-18
 -1      3651 6.94429E-05-2.13865E-05-2.03757E-05-2.06800E-05-9.72500E-19-3.23045E-18
 -1      3652 7.68415E-05-2.40606E-05-2.24948E-05-1.97244E-05-1.03980E-18-2.50232E-18
 -1      3653 9.42474E-05-2.43629E-05-2.99358E-05-7.50666E-06 1.23572E-18-1.01955E-18
 -1      3654 9.09320E-05-2.11317E-05-2.99375E-05-6.53820E-06 1.50211E-18-1.47467E-18
 -1      3655 1.30353E-04-4.95064E-05-3.48503E-05-6.22650E-06 5.78669E-19-3.84675E-18
 -1      3656 5.48738E-05-1.35698E-05-1.76670E-05-1.17542E-06-2.21911E-19 3.61741E-18
 -1      3657 5.36309E-05-1.38161E-05-1.66282E-05-7.28822E-06 4.13044E-19 3.73870E-18
 -1      3658 5.85901E-05-1.59947E-05-1.81612E-05-1.13590E-05 1.03727E-18 4.17264E-18
 -1      3659 8.96095E-05-3.54483E-05-2.29622E-05 2.42121E-05-3.08646E-18 5.50929E-19
 -1      3660 8.31389E-05-3.08920E-05-2.24183E-05 2.27609E-05-2.91575E-18 1.26008E-18
 -1      3661 9.52634E-05-2.85827E-05-2.85775E-05-2.32588E-09 1.60396E-18-4.31543E-18
 -1      3662 9.52629E-05-2.85826E-05-2.85773E-05-6.81199E-09 1.99151E-18-3.40138E-18
 -1      3663 9.52650E-05-2.85785E-05-2.85799E-05-1.27460E-11 2.89006E-18-3.50059E-18
 -1      3664 8.78713E-05-1.98808E-05-2.91071E-05-7.53326E-06 1.02635E-18-1.84096E-18
 -1      3665 8.72368E-05-1.81269E-05-2.96227E-05-5.78223E-06 1.38760E-18-2.04374E-18
 -1      3666 8.41513E-05-1.55425E-05-2.94177E-05-5.04559E-06 1.28661E-18-2.15298E-18
 -1      3667 1.00615E-04-4.19329E-05-2.51999E-05-2.08028E-05 2.74409E-18 1.03975E-18
 -1      3668 9.21724E-05-3.61226E-05-2.38419E-05-2.38162E-05-1.96005E-18-1.85514E-18
 -1      3669 8.51059E-05-1.46017E-05-3.02182E-05 3.35187E-06-1.76753E-19-2.82346E-18
 -1      3670 8.58765E-05-1.58686E-05-3.00084E-05 4.20926E-06-5.99317E-20-2.80711E-18
 -1      3671 8.32168E-05-1.32250E-05-3.00234E-05 2.99881E-06 1.13329E-19-2.69608E-18
 -1      3672 9.86791E-05-4.38294E-05-2.34256E-05-2.52640E-05 2.96986E-18 1.63059E-18
 -1      3673 9.52582E-05-2.85787E-05-2.85769E-05 2.20387E-08 1.74958E-18 7.30288E-19
 -1      3674 9.52573E-05-2.85817E-05-2.85753E-05 2.19472E-08 1.17990E-18 5.10849E-19
 -1      3675 9.52596E-05-2.85824E-05-2.85759E-05 1.82600E-08 1.77514E-18 3.03102E-18
 -1      3676 9.52462E-05-2.85804E-05-2.85710E-05-3.08822E-08 8.82297E-19-3.02956E-18
 -1      3677 7.22955E-05-2.68614E-05-1.91645E-05-2.52326E-05 2.86186E-18 3.90694E-18
 -1      3678 8.10265E-05-3.11171E-05-2.12713E-05-2.46314E-05 2.78939E-18 3.25507E-18
 -1      3679 6.70452E-05-2.19669E-05-1.92594E-05-1.99605E-05 1.97074E-18 3.43101E-18
 -1      3680 1.03633E-04-4.42848E-05-2.56086E-05 2.21948E-05 1.89251E-18-5.42750E-19
 -1      3681 9.52621E-05-2.85826E-05-2.85770E-05-1.13268E-08 2.33425E-18-1.26653E-18
 -1      3682 9.52607E-05-2.85822E-05-2.85765E-05-1.55547E-08 2.30592E-18-2.61597E-19
 -1      3683 9.52641E-05-2.85785E-05-2.85795E-05-8.87524E-09 2.21166E-18-2.57496E-18
 -1      3684 1.19231E-04-5.40196E-05-2.78317E-05 1.52328E-05-1.98950E-18-2.53705E-18
 -1      3685 8.01541E-05-1.22614E-05-2.91151E-05-2.19092E-06 1.07703E-18-2.72650E-18
 -1      3686 7.94796E-05-1.17457E-05-2.90448E-05-1.21214E-06 9.02765E-19-2.77842E-18
 -1      3687 6.45624E-05-1.96379E-05-1.90154E-05 2.03148E-05 2.34165E-18-3.67671E-18
 -1      3688 6.16965E-05-1.56898E-05-1.95567E-05 1.31035E-05 1.75793E-18-3.81268E-18
 -1      3689 7.28890E-05-2.24077E-05-2.14922E-05 1.93189E-05 2.01545E-18-2.72326E-18
 -1      3690 9.51086E-05-2.59252E-05-2.96341E-05-8.67094E-06 7.68250E-19-1.02621E-18
 -1      3691 9.33005E-05-3.83115E-05-2.32528E-05 2.58593E-05 2.25221E-18-9.43019E-19
 -1      3692 8.84776E-05-3.31058E-05-2.36771E-05 2.32107E-05 1.78492E-18-1.38948E-18
 -1      3693 9.52591E-05-2.85823E-05-2.85758E-05-1.91561E-08 2.02397E-18-1.58538E-19
 -1      3694 9.52570E-05-2.85817E-05-2.85752E-05-2.23327E-08 1.77169E-18-2.20670E-18
 -1      3695 9.52614E-05-2.85787E-05-2.85783E-05-1.67087E-08 2.51998E-18-8.47024E-20
 -1      3696 1.00028E-04-3.28962E-05-2.87012E-05-1.20098E-05-2.38879E-19-7.56817E-19
 -1      3697 9.62767E-05-3.04865E-05-2.82835E-05-1.28732E-05-8.99600E-20-1.34977E-18
 -1      3698 1.02369E-04-3.56147E-05-2.85734E-05-1.21879E-05-6.85802E-19-6.47443E-19
 -1      3699 9.52504E-05-2.85804E-05-2.85729E-05-2.90543E-08 1.53576E-18-2.34995E-18
 -1      3700 9.30438E-05-2.54492E-05-2.90334E-05-1.00263E-05 6.47243E-19-1.27582E-18
 -1      3701 9.52610E-05-2.85824E-05-2.85765E-05 1.47311E-08 2.89868E-18 5.49378E-18
 -1      3702 9.52623E-05-2.85827E-05-2.85770E-05 1.04769E-08 1.67537E-18 3.66122E-18
 -1      3703 9.52642E-05-2.85787E-05-2.85795E-05 7.94368E-09 2.96449E-18 1.97228E-18
 -1      3704 9.52622E-05-2.85789E-05-2.85785E-05 1.48396E-08 1.98024E-18 3.65233E-18
 -1      3705 9.84548E-05-4.04016E-05-2.48556E-05 2.07742E-05-2.56661E-18-5.84572E-19
 -1      3706 6.43852E-05-1.50833E-05-2.09210E-05-1.05222E-05-1.07027E-19-3.80168E-18
 -1      3707 7.01077E-05-1.73237E-05-2.25788E-05-1.24300E-05-3.33245E-19-3.05033E-18
 -1      3708 6.36969E-05-1.38880E-05-2.14805E-05-5.12202E-06 2.80295E-19-3.63521E-18
 -1      3709 8.25727E-05-1.42193E-05-2.93093E-05-4.07751E-06 1.32496E-18-2.37024E-18
 -1      3710 8.10444E-05-1.30911E-05-2.91416E-05-3.36452E-06 1.09270E-18-2.57465E-18
 -1      3711 8.01280E-05-1.34636E-05-2.85225E-05-3.34607E-06 1.01264E-18-2.57153E-18
 -1      3712 8.25666E-05-1.56085E-05-2.86625E-05-5.55401E-06 1.10408E-18-2.28729E-18
 -1      3713 8.65661E-05-2.10509E-05-2.81047E-05 1.00077E-05 5.88839E-19-2.07669E-18
 -1      3714 8.71008E-05-2.27711E-05-2.75388E-05 1.17556E-05 8.81266E-19-2.06681E-18
 -1      3715 8.68061E-05-2.43697E-05-2.67768E-05 1.38511E-05 1.08427E-18-2.03500E-18
 -1      3716 8.79412E-05-2.66988E-05-2.61775E-05 1.59155E-05 1.03413E-18-1.92704E-18
 -1      3717 8.33302E-05-2.13540E-05-2.65930E-05 1.25112E-05 9.68213E-19-2.36708E-18
 -1      3718 8.68781E-05-2.79210E-05-2.52881E-05 1.80987E-05 1.21220E-18-1.84984E-18
 -1      3719 8.93090E-05-3.15417E-05-2.47158E-05 2.03763E-05 1.51314E-18-1.54436E-18
 -1      3720 7.90696E-05-2.55805E-05-2.27053E-05 2.14582E-05 1.96162E-18-2.25892E-18
 -1      3721 8.19251E-05-2.37225E-05-2.48620E-05 1.66216E-05 1.37177E-18-2.34583E-18
 -1      3722 9.03523E-05-2.62618E-05-2.74760E-05 1.09552E-05-4.71250E-19 3.94387E-20
 -1      3723 9.11195E-05-2.74554E-05-2.72413E-05 1.19079E-05-7.98185E-19-2.30747E-19
 -1      3724 8.84350E-05-3.08307E-05-2.46423E-05-1.84790E-05 1.94210E-18 1.66147E-18
 -1      3725 8.65716E-05-2.79497E-05-2.51053E-05-1.65588E-05 1.22124E-18 1.35792E-18
 -1      3726 8.69325E-05-2.65753E-05-2.57952E-05-1.42948E-05 4.66427E-19 1.24381E-18
 -1      3727 8.62210E-05-2.51209E-05-2.62159E-05-1.28155E-05 3.26957E-19 9.94565E-19
 -1      3728 8.23835E-05-2.48320E-05-2.46246E-05-1.53536E-05 1.07247E-18 1.31453E-18
 -1      3729 8.68818E-05-2.43908E-05-2.67404E-05-1.12260E-05 3.08264E-19 1.04564E-18
 -1      3730 8.67880E-05-2.36727E-05-2.70790E-05-1.00797E-05 4.01379E-21 7.29298E-19
 -1      3731 8.34839E-05-2.29672E-05-2.59193E-05-1.15111E-05 2.78886E-19 1.74844E-18
 -1      3732 8.75651E-05-2.34283E-05-2.74648E-05-8.94755E-06 1.45233E-19 4.14332E-19
 -1      3733 8.77833E-05-2.31677E-05-2.77168E-05-8.05411E-06 8.35318E-20 1.02365E-19
 -1      3734 8.49977E-05-2.22462E-05-2.68764E-05-8.84341E-06 2.54116E-19 1.13484E-18
 -1      3735 8.85566E-05-2.32141E-05-2.79916E-05-7.21697E-06-1.24928E-19 2.58329E-19
 -1      3736 8.89103E-05-2.32314E-05-2.81676E-05-6.50213E-06-2.31341E-19 4.45981E-19
 -1      3737 8.65727E-05-2.22087E-05-2.75672E-05-6.95754E-06-1.95434E-19 2.56548E-19
 -1      3738 8.96268E-05-2.34465E-05-2.83563E-05-5.85740E-06-5.93586E-19 3.97800E-19
 -1      3739 9.00180E-05-2.36219E-05-2.84712E-05-5.26880E-06-7.25263E-19 6.25588E-19
 -1      3740 8.80670E-05-2.25756E-05-2.80516E-05-5.55854E-06-3.32249E-19 3.94638E-19
 -1      3741 9.06541E-05-2.39238E-05-2.85949E-05-4.75420E-06-8.62382E-19 8.00047E-19
 -1      3742 9.10306E-05-2.41787E-05-2.86637E-05-4.25981E-06-8.30763E-19 8.48281E-19
 -1      3743 8.94156E-05-2.31646E-05-2.83792E-05-4.47327E-06-5.62130E-19 5.06760E-19
 -1      3744 9.15787E-05-2.45137E-05-2.87398E-05-3.83879E-06-1.12951E-18 9.57782E-19
 -1      3745 9.19154E-05-2.47977E-05-2.87753E-05-3.42016E-06-6.36970E-19 3.34533E-19
 -1      3746 9.05927E-05-2.38539E-05-2.85904E-05-3.59992E-06-7.54734E-19 9.29970E-19
 -1      3747 9.23765E-05-2.51315E-05-2.88176E-05-3.07170E-06-5.90985E-20-2.96463E-19
 -1      3748 9.26639E-05-2.54136E-05-2.88303E-05-2.71788E-06-3.17861E-20-2.90162E-19
 -1      3749 9.15941E-05-2.45639E-05-2.87174E-05-2.88108E-06-9.16069E-19 1.09539E-18
 -1      3750 9.30438E-05-2.57254E-05-2.88493E-05-2.42919E-06 2.92561E-19-5.52412E-20
 -1      3751 9.32809E-05-2.59875E-05-2.88472E-05-2.13266E-06 1.01084E-18 2.21610E-19
 -1      3752 9.24278E-05-2.52440E-05-2.87850E-05-2.28413E-06 2.92128E-19 7.21198E-19
 -1      3753 9.35880E-05-2.62662E-05-2.88509E-05-1.89495E-06 1.31942E-18-1.69003E-19
 -1      3754 9.37785E-05-2.64991E-05-2.88399E-05-1.64950E-06 1.38660E-18-1.71420E-19
 -1      3755 9.31084E-05-2.58645E-05-2.88124E-05-1.78902E-06 9.63331E-19 9.86210E-19
 -1      3756 9.40223E-05-2.67400E-05-2.88341E-05-1.45584E-06 1.29588E-18-2.16076E-19
 -1      3757 9.41720E-05-2.69401E-05-2.88184E-05-1.25558E-06 1.68515E-18 4.69000E-20
 -1      3758 9.36538E-05-2.64103E-05-2.88136E-05-1.38153E-06 1.29095E-18 3.84505E-19
 -1      3759 9.43621E-05-2.71428E-05-2.88071E-05-1.09986E-06 1.25708E-18-3.17360E-19
 -1      3760 9.44773E-05-2.73103E-05-2.87896E-05-9.38993E-07 7.31660E-19-6.77578E-19
 -1      3761 9.40834E-05-2.68768E-05-2.87989E-05-1.05004E-06 1.12441E-18-3.57379E-19
 -1      3762 9.46229E-05-2.74769E-05-2.87758E-05-8.15610E-07 6.93700E-19-1.28413E-18
 -1      3763 9.47098E-05-2.76139E-05-2.87583E-05-6.88452E-07 1.35011E-18-2.16444E-18
 -1      3764 9.44157E-05-2.72660E-05-2.87755E-05-7.84069E-07 6.48043E-19 9.56694E-20
 -1      3765 9.48193E-05-2.77482E-05-2.87439E-05-5.92208E-07 8.04539E-19-2.48806E-18
 -1      3766 9.48835E-05-2.78580E-05-2.87275E-05-4.93344E-07-6.58457E-19-2.56893E-18
 -1      3767 9.46683E-05-2.75837E-05-2.87484E-05-5.73871E-07 1.51345E-19-1.57321E-18
 -1      3768 9.49643E-05-2.79642E-05-2.87135E-05-4.19500E-07-4.97614E-19-2.37143E-18
 -1      3769 9.50106E-05-2.80506E-05-2.86989E-05-3.43936E-07-4.61838E-20-1.94354E-18
 -1      3770 9.48567E-05-2.78381E-05-2.87207E-05-4.10385E-07-1.01351E-19-1.55437E-18
 -1      3771 9.50688E-05-2.81330E-05-2.86861E-05-2.88261E-07-6.03064E-19-2.36584E-18
 -1      3772 9.51014E-05-2.81997E-05-2.86735E-05-2.31534E-07-9.83576E-19-1.76036E-18
 -1      3773 9.49943E-05-2.80381E-05-2.86944E-05-2.85348E-07-5.64301E-19-2.14874E-18
 -1      3774 9.51423E-05-2.82624E-05-2.86623E-05-1.90341E-07-1.11793E-18-1.26383E-18
 -1      3775 9.51644E-05-2.83130E-05-2.86516E-05-1.48570E-07-7.63067E-19-7.15583E-19
 -1      3776 9.50924E-05-2.81924E-05-2.86706E-05-1.91404E-07-9.15825E-19-2.26346E-18
 -1      3777 9.51922E-05-2.83599E-05-2.86420E-05-1.18720E-07-2.67832E-19 3.30046E-19
 -1      3778 9.52067E-05-2.83975E-05-2.86332E-05-8.86162E-08-8.13351E-20 6.81073E-19
 -1      3779 9.51604E-05-2.83093E-05-2.86499E-05-1.22163E-07 1.57114E-19-1.03797E-18
 -1      3780 9.52247E-05-2.84319E-05-2.86252E-05-6.74950E-08 2.45256E-19 1.43522E-18
 -1      3781 9.52335E-05-2.84592E-05-2.86180E-05-4.63347E-08 1.11288E-18 1.45049E-18
 -1      3782 9.52057E-05-2.83962E-05-2.86323E-05-7.22089E-08 9.43726E-19 1.22382E-18
 -1      3783 9.52445E-05-2.84838E-05-2.86115E-05-3.18118E-08 8.53453E-19 9.75401E-19
 -1      3784 9.52494E-05-2.85033E-05-2.86058E-05-1.73874E-08 9.90591E-19 8.73234E-19
 -1      3785 9.52344E-05-2.84594E-05-2.86177E-05-3.70534E-08 4.13754E-19 1.97477E-18
 -1      3786 9.52554E-05-2.85205E-05-2.86005E-05-7.76083E-09 1.23548E-18 7.94053E-19
 -1      3787 9.52575E-05-2.85340E-05-2.85960E-05 1.67521E-09 7.70875E-19 1.57637E-18
 -1      3788 9.52512E-05-2.85043E-05-2.86057E-05-1.30472E-08 1.10084E-18 1.13015E-18
 -1      3789 9.52600E-05-2.85457E-05-2.85917E-05 7.72788E-09 5.10960E-19 2.67285E-18
 -1      3790 9.52604E-05-2.85549E-05-2.85882E-05 1.35233E-08 1.13149E-18 2.86366E-18
 -1      3791 9.52596E-05-2.85355E-05-2.85960E-05 2.69942E-09 9.41096E-19 2.86193E-18
 -1      3792 9.52607E-05-2.85627E-05-2.85848E-05 1.70312E-08 1.75882E-18 1.58353E-18
 -1      3793 9.52600E-05-2.85688E-05-2.85820E-05 2.01092E-08 2.27356E-18 1.85453E-18
 -1      3794 9.52625E-05-2.85567E-05-2.85882E-05 1.24310E-08 9.56447E-19 3.53809E-18
 -1      3795 9.52533E-05-2.85810E-05-2.85738E-05-2.67229E-08 1.15590E-18-2.11421E-18
 -1      3796 6.35234E-05-1.47840E-05-2.07230E-05 7.51695E-06 1.22663E-18-3.72305E-18
 -1      3797 9.14346E-05-2.87452E-05-2.68571E-05 1.33590E-05-1.18267E-18-6.42099E-19
 -1      3798 9.30373E-05-3.08010E-05-2.66117E-05 1.44210E-05-1.74255E-18-5.96078E-19
 -1      3799 8.81107E-05-2.64879E-05-2.64336E-05 1.30105E-05-1.18026E-18-8.35695E-19
 -1      3800 9.06151E-05-2.45081E-05-2.83453E-05 7.34720E-06-8.87785E-19 1.03489E-18
 -1      3801 9.05994E-05-2.47391E-05-2.82083E-05 8.06299E-06-4.09208E-19 8.02782E-19
 -1      3802 9.12151E-05-2.45182E-05-2.85971E-05 6.00390E-06-6.88993E-19 9.74303E-19
 -1      3803 9.10626E-05-2.45189E-05-2.85079E-05 6.62172E-06-4.72268E-19 1.59322E-18
 -1      3804 8.94644E-05-2.36837E-05-2.81844E-05 6.62940E-06-8.59811E-19 1.30790E-18
 -1      3805 9.18783E-05-2.48094E-05-2.87552E-05 4.87762E-06-9.36783E-19 4.69805E-19
 -1      3806 9.16717E-05-2.46790E-05-2.87042E-05 5.41166E-06-7.42499E-19 6.84619E-19
 -1      3807 9.03784E-05-2.39225E-05-2.84727E-05 5.35186E-06-4.22972E-19 6.34982E-19
 -1      3808 9.25191E-05-2.52424E-05-2.88427E-05 3.92747E-06-1.41505E-18 3.69889E-19
 -1      3809 9.23046E-05-2.50467E-05-2.88200E-05 4.38745E-06-1.13862E-18 4.03706E-19
 -1      3810 9.12626E-05-2.43737E-05-2.86584E-05 4.31024E-06-1.23890E-18 1.64894E-20
 -1      3811 9.30947E-05-2.57273E-05-2.88802E-05 3.12688E-06-3.86719E-19-4.20989E-19
 -1      3812 9.28961E-05-2.55081E-05-2.88770E-05 3.51959E-06-7.79196E-19 1.72205E-19
 -1      3813 9.20632E-05-2.49209E-05-2.87679E-05 3.44876E-06-6.18914E-19-1.54655E-20
 -1      3814 9.35879E-05-2.62085E-05-2.88840E-05 2.45708E-06-7.59352E-19-1.00268E-18
 -1      3815 9.34158E-05-2.59914E-05-2.88933E-05 2.78820E-06-6.19720E-19-3.19274E-19
 -1      3816 9.27572E-05-2.54889E-05-2.88229E-05 2.73287E-06-4.89605E-19-1.14355E-18
 -1      3817 9.39961E-05-2.66541E-05-2.88668E-05 1.90287E-06 2.00006E-19-2.61371E-19
 -1      3818 9.38534E-05-2.64535E-05-2.88832E-05 2.17799E-06-6.58342E-19-5.97864E-19
 -1      3819 9.33394E-05-2.60318E-05-2.88409E-05 2.13972E-06-6.98344E-19-8.55246E-19
 -1      3820 9.43247E-05-2.70481E-05-2.88377E-05 1.45037E-06-1.36650E-19 8.82839E-20
 -1      3821 9.42102E-05-2.68712E-05-2.88574E-05 1.67540E-06 6.30279E-19 2.52852E-19
 -1      3822 9.38150E-05-2.65239E-05-2.88348E-05 1.65227E-06 1.88975E-19 1.97645E-19
 -1      3823 9.45829E-05-2.73846E-05-2.88031E-05 1.08632E-06-1.09368E-18-5.14236E-19
 -1      3824 9.44936E-05-2.72339E-05-2.88237E-05 1.26741E-06-6.96421E-19-8.03024E-20
 -1      3825 9.41947E-05-2.69531E-05-2.88146E-05 1.25625E-06-1.16275E-19 8.55855E-19
 -1      3826 9.47814E-05-2.76644E-05-2.87675E-05 7.97923E-07-8.68287E-19 3.18699E-19
 -1      3827 9.47134E-05-2.75394E-05-2.87873E-05 9.41277E-07-7.59476E-19-5.24270E-19
 -1      3828 9.44914E-05-2.73163E-05-2.87868E-05 9.38794E-07-7.77611E-19 9.70915E-19
 -1      3829 9.49307E-05-2.78915E-05-2.87334E-05 5.73092E-07-1.02596E-19 9.23779E-19
 -1      3830 9.48802E-05-2.77902E-05-2.87515E-05 6.84690E-07-7.28887E-19 5.38212E-19
 -1      3831 9.47187E-05-2.76162E-05-2.87564E-05 6.88026E-07-1.22586E-18 1.69361E-18
 -1      3832 9.50404E-05-2.80721E-05-2.87025E-05 4.00715E-07 7.93559E-19 1.25505E-18
 -1      3833 9.50039E-05-2.79918E-05-2.87184E-05 4.86113E-07 7.41712E-19 7.48426E-19
 -1      3834 9.48892E-05-2.78583E-05-2.87262E-05 4.92985E-07 3.88225E-19 1.44181E-18
 -1      3835 9.51192E-05-2.82129E-05-2.86755E-05 2.70849E-07-1.77398E-19 1.12089E-18
 -1      3836 9.50934E-05-2.81504E-05-2.86890E-05 3.35037E-07 4.35101E-19 1.12540E-18
 -1      3837 9.50143E-05-2.80500E-05-2.86980E-05 3.43748E-07 5.08905E-19 1.39442E-18
 -1      3838 9.51740E-05-2.83206E-05-2.86525E-05 1.74835E-07 1.46243E-19 2.31692E-19
 -1      3839 9.51565E-05-2.82729E-05-2.86637E-05 2.22161E-07 7.40269E-20 9.27921E-19
 -1      3840 9.51038E-05-2.81988E-05-2.86729E-05 2.31522E-07 3.37631E-19 1.45770E-18
 -1      3841 9.52108E-05-2.84013E-05-2.86334E-05 1.05311E-07 4.81052E-19-1.32580E-18
 -1      3842 9.51995E-05-2.83656E-05-2.86425E-05 1.39468E-07 3.68737E-19-2.88415E-19
 -1      3843 9.51660E-05-2.83121E-05-2.86512E-05 1.48698E-07 5.14225E-19 1.77199E-19
 -1      3844 9.52343E-05-2.84606E-05-2.86178E-05 5.61606E-08-5.71725E-19-7.59503E-19
 -1      3845 9.52274E-05-2.84345E-05-2.86251E-05 8.02123E-08-3.24125E-20-1.02266E-18
 -1      3846 9.52077E-05-2.83968E-05-2.86330E-05 8.88374E-08 3.40169E-19 5.38458E-19
 -1      3847 9.52482E-05-2.85032E-05-2.86053E-05 2.23989E-08-4.83153E-19-4.32585E-20
 -1      3848 9.52444E-05-2.84844E-05-2.86111E-05 3.88350E-08-7.46389E-19-7.68893E-19
 -1      3849 9.52342E-05-2.84587E-05-2.86179E-05 4.66152E-08-6.32947E-19 1.29397E-18
 -1      3850 9.52553E-05-2.85330E-05-2.85955E-05 6.36303E-11 1.00169E-18 4.93186E-19
 -1      3851 9.52537E-05-2.85199E-05-2.86000E-05 1.08485E-08 5.31517E-19-1.68162E-19
 -1      3852 9.52498E-05-2.85029E-05-2.86057E-05 1.76702E-08-2.85525E-19-6.12054E-20
 -1      3853 9.52579E-05-2.85534E-05-2.85877E-05-1.39199E-08-6.33000E-19 1.34425E-18
 -1      3854 9.52577E-05-2.85445E-05-2.85912E-05-7.25987E-09 5.73877E-19 1.30261E-18
 -1      3855 9.52577E-05-2.85338E-05-2.85959E-05-1.40520E-09-8.36347E-20 2.03609E-18
 -1      3856 9.52575E-05-2.85672E-05-2.85817E-05-2.19177E-08-7.88231E-19 2.56965E-19
 -1      3857 9.52582E-05-2.85611E-05-2.85844E-05-1.82290E-08-3.67296E-19 6.42074E-19
 -1      3858 9.52605E-05-2.85548E-05-2.85881E-05-1.32756E-08-9.67972E-20 2.19341E-18
 -1      3859 8.98032E-05-2.44414E-05-2.79973E-05-1.15126E-05 3.26993E-19-1.63492E-18
 -1      3860 8.83286E-05-2.18605E-05-2.84596E-05-9.60972E-06 7.11460E-19-1.62924E-18
 -1      3861 8.43008E-05-1.88503E-05-2.80921E-05-8.67287E-06 5.75584E-19-1.99432E-18
 -1      3862 8.37870E-05-2.88768E-05-2.34888E-05 1.92931E-05-2.36194E-18 7.97786E-19
 -1      3863 7.69911E-05-2.58124E-05-2.17923E-05 2.07261E-05-2.43060E-18 1.44184E-18
 -1      3864 7.82409E-05-2.28457E-05-2.37903E-05-1.71518E-05-6.94726E-19-2.18529E-18
 -1      3865 8.32025E-05-2.71872E-05-2.39066E-05-2.02945E-05-1.06247E-18-2.01469E-18
 -1      3866 9.52596E-05-2.85722E-05-2.85802E-05 2.09675E-08 1.61708E-18 1.27052E-18
 -1      3867 9.52589E-05-2.85759E-05-2.85784E-05 2.17685E-08 1.61425E-18 9.43591E-19
 -1      3868 9.52615E-05-2.85762E-05-2.85795E-05 1.80886E-08 1.36422E-18 1.58627E-18
 -1      3869 9.52624E-05-2.85689E-05-2.85830E-05 1.68195E-08 9.63372E-19 2.00016E-18
 -1      3870 1.08184E-04-4.13734E-05-2.85876E-05-1.16816E-05-1.12709E-18-1.33345E-19
 -1      3871 1.04893E-04-3.82325E-05-2.84688E-05-1.25499E-05-1.02502E-18-3.06029E-19
 -1      3872 1.00396E-04-3.56945E-05-2.77988E-05-1.45644E-05-9.19911E-19-9.02447E-19
 -1      3873 1.06229E-04-4.18202E-05-2.77288E-05-1.51192E-05-1.39410E-18-4.71711E-19
 -1      3874 7.89582E-05-1.24308E-05-2.84790E-05-4.84637E-07 8.14059E-19-2.66417E-18
 -1      3875 7.93536E-05-1.16535E-05-2.90416E-05 3.74443E-07 8.96935E-19-2.63311E-18
 -1      3876 9.02353E-05-2.49879E-05-2.79766E-05 8.96957E-06-2.24530E-19 7.67136E-19
 -1      3877 9.04972E-05-2.55944E-05-2.77866E-05 9.79981E-06-2.52368E-19 5.61299E-19
 -1      3878 8.80548E-05-2.46342E-05-2.71855E-05 1.03006E-05-6.94803E-19-1.71883E-19
 -1      3879 8.86256E-05-2.38336E-05-2.77646E-05 8.23302E-06-6.25081E-19 7.40216E-19
 -1      3880 8.91230E-05-3.24451E-05-2.42722E-05-2.18394E-05-1.54479E-18-1.90543E-18
 -1      3881 9.92385E-05-3.97680E-05-2.55633E-05-2.14843E-05-1.84708E-18-1.58198E-18
 -1      3882 1.03438E-04-4.06142E-05-2.68337E-05-1.74171E-05-1.73519E-18-9.06176E-19
 -1      3883 9.01680E-05-3.06399E-05-2.54485E-05-1.86504E-05-1.19158E-18-1.73790E-18
 -1      3884 7.02436E-05-2.27238E-05-2.01892E-05 1.94030E-05-2.71148E-18 1.77717E-18
 -1      3885 6.17934E-05-1.85203E-05-1.82071E-05 1.77066E-05-2.33246E-18 2.81548E-18
 -1      3886 5.85058E-05-1.56235E-05-1.83390E-05 9.81025E-06-1.17993E-18 2.56648E-18
 -1      3887 7.13030E-05-2.12050E-05-2.15134E-05 1.60256E-05-2.01194E-18 1.33769E-18
 -1      3888 9.15326E-05-3.56983E-05-2.37413E-05-2.23449E-05 2.69223E-18 1.83065E-18
 -1      3889 9.52559E-05-2.85783E-05-2.85761E-05-2.48101E-08 1.59891E-18-2.15721E-18
 -1      3890 8.41137E-05-3.07483E-05-2.28387E-05-2.21145E-05 2.19782E-18 2.62510E-18
 -1      3891 7.25884E-05-1.73553E-05-2.37826E-05-1.12241E-05-3.00902E-19-2.76258E-18
 -1      3892 7.55272E-05-1.99050E-05-2.36722E-05-1.48766E-05-5.02595E-19-2.41853E-18
 -1      3893 8.08445E-05-2.27573E-05-2.49588E-05-1.55211E-05-5.74300E-19-1.84117E-18
 -1      3894 5.85631E-05-1.41562E-05-1.87107E-05 5.13032E-06-1.09514E-18 2.58949E-18
 -1      3895 6.02983E-05-1.45849E-05-1.95446E-05 2.88201E-07-7.10082E-19 2.70796E-18
 -1      3896 6.40497E-05-1.66135E-05-2.02731E-05 9.92510E-06-1.69563E-18 1.89064E-18
 -1      3897 1.10886E-04-4.85152E-05-2.67917E-05 1.68767E-05-2.15533E-18-1.18729E-18
 -1      3898 9.42714E-05-3.31024E-05-2.61830E-05 1.60545E-05-2.45307E-18-4.93149E-19
 -1      3899 9.70977E-05-3.63052E-05-2.60153E-05 1.70641E-05-2.19591E-18-6.26035E-19
 -1      3900 9.52555E-05-2.85763E-05-2.85768E-05-2.55869E-08 9.95572E-19-1.41055E-18
 -1      3901 9.52566E-05-2.85722E-05-2.85790E-05-2.40466E-08-2.33072E-19-6.69105E-19
 -1      3902 7.98460E-05-1.17249E-05-2.91875E-05 1.23581E-06 6.86150E-19-2.75981E-18
 -1      3903 6.47574E-05-1.85288E-05-1.94847E-05-1.56163E-05 1.23263E-18 3.30356E-18
 -1      3904 7.11608E-05-2.22734E-05-2.09206E-05-1.82548E-05 1.14946E-18 3.51217E-18
 -1      3905 8.95117E-05-3.00711E-05-2.55486E-05 1.65561E-05-1.98444E-18-5.86400E-19
 -1      3906 9.52600E-05-2.85689E-05-2.85819E-05-1.99390E-08 4.32860E-19 8.17957E-19
 -1      3907 6.29931E-05-1.67167E-05-1.98505E-05-1.05951E-05 5.51862E-19 3.77872E-18
 -1      3908 9.52656E-05-2.85737E-05-2.85823E-05-6.21335E-09 1.96426E-18-3.44718E-18
 -1      3909 9.52647E-05-2.85737E-05-2.85819E-05-1.03003E-08 1.99342E-18-1.33885E-18
 -1      3910 7.43727E-05-2.14062E-05-2.27296E-05 1.73114E-05 1.63780E-18-2.66261E-18
 -1      3911 8.67269E-05-1.99764E-05-2.85802E-05 8.57508E-06 4.67116E-19-2.18768E-18
 -1      3912 8.37184E-05-1.86189E-05-2.78531E-05 8.93463E-06 6.24784E-19-2.35050E-18
 -1      3913 8.63316E-05-1.88013E-05-2.89583E-05 7.32277E-06 3.29820E-19-2.37513E-18
 -1      3914 9.52652E-05-2.85690E-05-2.85840E-05-1.10861E-08 1.21894E-18-1.28610E-18
 -1      3915 9.52636E-05-2.85745E-05-2.85811E-05-1.38422E-08 2.25999E-18-8.89846E-19
 -1      3916 9.52619E-05-2.85745E-05-2.85803E-05-1.72146E-08 2.40406E-18 8.00565E-20
 -1      3917 8.61709E-05-1.69900E-05-2.96434E-05 5.35232E-06 1.38468E-19-2.62280E-18
 -1      3918 9.52661E-05-2.85735E-05-2.85826E-05 2.08509E-09 3.19533E-18-2.76914E-18
 -1      3919 9.52661E-05-2.85735E-05-2.85826E-05-2.10707E-09 3.14598E-18-4.05845E-18
 -1      3920 9.52668E-05-2.85678E-05-2.85851E-05-3.88555E-09 2.36451E-18-3.13946E-18
 -1      3921 8.07533E-05-1.20402E-05-2.94824E-05 2.10270E-06 5.99204E-19-2.76812E-18
 -1      3922 8.19156E-05-1.26077E-05-2.96928E-05 2.60747E-06 2.76440E-19-2.63809E-18
 -1      3923 8.22416E-05-1.35910E-05-2.94341E-05 3.41379E-06 3.21449E-19-2.57554E-18
 -1      3924 7.99232E-05-1.27094E-05-2.87939E-05 2.19207E-06 6.54309E-19-2.63018E-18
 -1      3925 7.92533E-05-1.42884E-05-2.78550E-05-4.45383E-06 8.34500E-19-2.45157E-18
 -1      3926 7.84105E-05-1.35011E-05-2.78265E-05-3.23623E-06 7.27595E-19-2.45424E-18
 -1      3927 7.76552E-05-1.29615E-05-2.77531E-05-9.48049E-07 6.64939E-19-2.56734E-18
 -1      3928 7.76739E-05-1.28699E-05-2.77563E-05 8.69616E-07 5.96010E-19-2.62472E-18
 -1      3929 7.69503E-05-1.36863E-05-2.70513E-05-1.89140E-06 4.44083E-19-2.40469E-18
 -1      3930 9.52651E-05-2.85740E-05-2.85819E-05 8.71395E-09 3.08392E-18 2.73623E-18
 -1      3931 9.52657E-05-2.85738E-05-2.85823E-05 5.39649E-09 3.46854E-18-3.09731E-19
 -1      3932 9.52669E-05-2.85680E-05-2.85851E-05 2.99424E-09 3.25985E-18-1.00127E-18
 -1      3933 6.82420E-05-1.58611E-05-2.24991E-05 1.01140E-05 1.26479E-18-3.12869E-18
 -1      3934 6.45018E-05-1.30999E-05-2.18614E-05 2.36977E-06 7.42805E-19-3.53983E-18
 -1      3935 6.80989E-05-1.40862E-05-2.30269E-05-1.48680E-06 4.20651E-19-3.22188E-18
 -1      3936 9.52596E-05-2.85768E-05-2.85783E-05-2.11349E-08 2.18559E-18-8.04997E-19
 -1      3937 7.85787E-05-2.58743E-05-2.23936E-05-1.96148E-05 1.74205E-18 3.41589E-18
 -1      3938 8.01965E-05-2.13690E-05-2.51897E-05-1.05790E-05 4.37325E-19 1.79891E-18
 -1      3939 8.09864E-05-2.09838E-05-2.57752E-05-9.07809E-06 3.68964E-19 1.78867E-18
 -1      3940 8.26191E-05-2.10665E-05-2.63683E-05-7.95278E-06 6.66253E-21 1.86129E-18
 -1      3941 8.34379E-05-2.10274E-05-2.67897E-05-6.94139E-06-2.92859E-19 1.26030E-18
 -1      3942 7.97840E-05-1.96684E-05-2.57172E-05-6.97478E-06 8.40490E-20 2.07426E-18
 -1      3943 8.47684E-05-2.12755E-05-2.72065E-05-6.16368E-06-3.61607E-19 7.64292E-19
 -1      3944 8.55632E-05-2.14527E-05-2.75057E-05-5.43755E-06-4.09527E-19 8.63776E-19
 -1      3945 8.27027E-05-2.01982E-05-2.67510E-05-5.28439E-06-5.48855E-19 2.28605E-18
 -1      3946 8.66653E-05-2.18073E-05-2.77955E-05-4.88314E-06-3.04983E-19 5.89501E-19
 -1      3947 8.73937E-05-2.21064E-05-2.80017E-05-4.33372E-06-3.73608E-19 4.63428E-19
 -1      3948 8.51101E-05-2.09388E-05-2.74734E-05-4.11323E-06-4.90044E-19 9.54429E-19
 -1      3949 8.83101E-05-2.25144E-05-2.81992E-05-3.91683E-06-6.63140E-19 9.19088E-19
 -1      3950 8.89528E-05-2.28731E-05-2.83360E-05-3.48112E-06-4.65627E-19 1.10231E-18
 -1      3951 8.71059E-05-2.17872E-05-2.79715E-05-3.26873E-06-9.83741E-20 9.37625E-19
 -1      3952 8.97154E-05-2.32976E-05-2.84664E-05-3.15257E-06-8.36664E-19 5.86005E-19
 -1      3953 9.02674E-05-2.36743E-05-2.85524E-05-2.79562E-06-1.09688E-18 4.73814E-19
 -1      3954 8.87661E-05-2.26747E-05-2.83073E-05-2.62126E-06-9.91650E-19 1.05978E-18
 -1      3955 9.08989E-05-2.40887E-05-2.86345E-05-2.52921E-06-8.22373E-19 2.62648E-19
 -1      3956 9.13625E-05-2.44557E-05-2.86843E-05-2.23191E-06-8.46294E-20 8.80274E-19
 -1      3957 9.01452E-05-2.35522E-05-2.85259E-05-2.10287E-06-4.92179E-19 1.50614E-19
 -1      3958 9.18804E-05-2.48418E-05-2.87321E-05-2.01304E-06 4.56894E-19 1.10017E-18
 -1      3959 9.22620E-05-2.51817E-05-2.87567E-05-1.76453E-06 9.04841E-19 1.53130E-18
 -1      3960 9.12825E-05-2.43821E-05-2.86604E-05-1.67757E-06 3.16537E-19 5.69136E-19
 -1      3961 9.26818E-05-2.55285E-05-2.87809E-05-1.58440E-06 1.17636E-18 1.28673E-18
 -1      3962 9.29901E-05-2.58315E-05-2.87887E-05-1.37772E-06 1.56416E-18 1.52237E-18
 -1      3963 9.22105E-05-2.51392E-05-2.87359E-05-1.32537E-06 1.12596E-18 1.63784E-18
 -1      3964 9.33256E-05-2.61339E-05-2.87971E-05-1.23032E-06 8.92574E-19 4.99111E-19
 -1      3965 9.35704E-05-2.63960E-05-2.87942E-05-1.06020E-06 6.04317E-19 3.37309E-19
 -1      3966 9.29579E-05-2.58090E-05-2.87711E-05-1.03408E-06 6.28369E-19 1.45161E-18
 -1      3967 9.38346E-05-2.66530E-05-2.87925E-05-9.40833E-07 7.12605E-19-6.19989E-19
 -1      3968 9.40255E-05-2.68741E-05-2.87833E-05-8.02645E-07 8.32952E-19-5.42433E-19
 -1      3969 9.35513E-05-2.63862E-05-2.87796E-05-7.95079E-07 2.05337E-19 6.68422E-19
 -1      3970 9.42304E-05-2.70877E-05-2.87756E-05-7.07251E-07 7.83158E-19-7.27318E-19
 -1      3971 9.43767E-05-2.72702E-05-2.87632E-05-5.96659E-07 4.30355E-19-1.09133E-18
 -1      3972 9.40154E-05-2.68722E-05-2.87715E-05-6.01295E-07 6.63705E-19-4.93287E-19
 -1      3973 9.45329E-05-2.74441E-05-2.87524E-05-5.21544E-07-2.69842E-19-1.24993E-18
 -1      3974 9.46430E-05-2.75916E-05-2.87388E-05-4.34423E-07-2.53629E-19-1.64824E-18
 -1      3975 9.43725E-05-2.72729E-05-2.87538E-05-4.46387E-07-2.77472E-19-1.55530E-18
 -1      3976 9.47600E-05-2.77306E-05-2.87268E-05-3.76212E-07-2.82282E-19-1.76420E-18
 -1      3977 9.48412E-05-2.78477E-05-2.87134E-05-3.08701E-07-2.44466E-19-1.62714E-18
 -1      3978 9.46426E-05-2.75970E-05-2.87315E-05-3.24457E-07-4.60160E-19-1.68816E-18
 -1      3979 9.49270E-05-2.79568E-05-2.87014E-05-2.64350E-07-3.12764E-19-1.28658E-18
 -1      3980 9.49856E-05-2.80481E-05-2.86890E-05-2.12926E-07-7.00469E-19-1.31653E-18
 -1      3981 9.48430E-05-2.78542E-05-2.87078E-05-2.30046E-07-1.59197E-19-1.63947E-18
 -1      3982 9.50472E-05-2.81321E-05-2.86778E-05-1.79742E-07-1.16501E-18-1.35811E-18
 -1      3983 9.50883E-05-2.82019E-05-2.86667E-05-1.41278E-07-5.06933E-19-5.47811E-19
 -1      3984 9.49887E-05-2.80548E-05-2.86847E-05-1.58195E-07-4.67149E-19 3.95839E-19
 -1      3985 9.51313E-05-2.82655E-05-2.86566E-05-1.16936E-07 3.25779E-20-9.87688E-19
 -1      3986 9.51593E-05-2.83179E-05-2.86471E-05-8.87292E-08 1.64902E-19-7.24625E-19
 -1      3987 9.50919E-05-2.82083E-05-2.86635E-05-1.04510E-07-2.70733E-19 2.42283E-19
 -1      3988 9.51882E-05-2.83651E-05-2.86383E-05-7.12619E-08 1.18774E-18-4.50307E-19
 -1      3989 9.52064E-05-2.84037E-05-2.86303E-05-5.10318E-08 1.64673E-18 1.30848E-19
 -1      3990 9.51628E-05-2.83237E-05-2.86447E-05-6.51928E-08 6.25559E-19 2.41663E-20
 -1      3991 9.52250E-05-2.84379E-05-2.86229E-05-3.88200E-08 4.77536E-19 6.03492E-19
 -1      3992 9.52361E-05-2.84657E-05-2.86163E-05-2.46879E-08 6.61800E-19 4.35150E-19
 -1      3993 9.52096E-05-2.84087E-05-2.86286E-05-3.70376E-08 1.54721E-18-6.54216E-19
 -1      3994 9.52471E-05-2.84900E-05-2.86101E-05-1.64156E-08 1.47937E-18 3.51610E-19
 -1      3995 9.52532E-05-2.85095E-05-2.86047E-05-6.85338E-09 1.18093E-18 5.97245E-19
 -1      3996 9.52388E-05-2.84699E-05-2.86150E-05-1.74158E-08 1.13155E-18 7.30091E-19
 -1      3997 9.52590E-05-2.85263E-05-2.85996E-05-1.48466E-09 1.03662E-18 8.61514E-19
 -1      3998 9.52616E-05-2.85397E-05-2.85953E-05 4.69722E-09 6.81435E-19 1.08925E-18
 -1      3999 9.52554E-05-2.85130E-05-2.86038E-05-4.15786E-09 1.32131E-18-3.52347E-20
 -1      4000 9.52639E-05-2.85511E-05-2.85911E-05 7.94960E-09-4.36581E-21 1.96128E-18
 -1      4001 9.52643E-05-2.85601E-05-2.85876E-05 1.16859E-08 8.55571E-19 1.10351E-18
 -1      4002 9.52633E-05-2.85426E-05-2.85945E-05 4.33675E-09 4.83927E-19 9.98712E-20
 -1      4003 9.07325E-05-2.40403E-05-2.85953E-05 3.55752E-06-1.19160E-18 3.69865E-19
 -1      4004 9.03026E-05-2.37541E-05-2.85186E-05 3.99881E-06-7.35781E-19 7.41421E-19
 -1      4005 8.46798E-05-2.38528E-05-2.61093E-05 1.15194E-05-1.21976E-18-1.67778E-19
 -1      4006 8.50269E-05-2.49641E-05-2.56835E-05 1.30001E-05-1.30687E-18-2.19451E-20
 -1      4007 8.96389E-05-2.34243E-05-2.83938E-05 4.45071E-06-6.30201E-19 7.23608E-19
 -1      4008 8.91761E-05-2.31998E-05-2.82711E-05 4.98787E-06-4.57444E-19 8.41686E-19
 -1      4009 8.92184E-05-2.30632E-05-2.83378E-05 3.64364E-06-5.88973E-19 1.50664E-18
 -1      4010 8.84151E-05-2.29353E-05-2.80833E-05 5.56447E-06-7.01771E-19 4.31891E-19
 -1      4011 8.79569E-05-2.28366E-05-2.78997E-05 6.23326E-06-8.02220E-19 6.02639E-19
 -1      4012 8.78025E-05-2.23970E-05-2.80139E-05 4.59471E-06-7.08439E-19 6.00322E-19
 -1      4013 9.16792E-05-2.46973E-05-2.87170E-05 2.82817E-06-2.39806E-19-5.40509E-20
 -1      4014 9.12999E-05-2.43918E-05-2.86738E-05 3.19490E-06-8.10903E-19 1.89645E-19
 -1      4015 9.04398E-05-2.37962E-05-2.85495E-05 2.89314E-06-7.60456E-19-2.26607E-19
 -1      4016 9.24779E-05-2.53395E-05-2.87821E-05 2.22832E-06-4.91190E-19-7.19415E-19
 -1      4017 9.21553E-05-2.50416E-05-2.87624E-05 2.53362E-06 6.60279E-20-2.15138E-19
 -1      4018 9.14741E-05-2.45318E-05-2.86797E-05 2.28801E-06 1.36622E-20 2.19483E-19
 -1      4019 9.31367E-05-2.59331E-05-2.88085E-05 1.73555E-06-4.43897E-19-8.28472E-19
 -1      4020 9.28701E-05-2.56587E-05-2.88044E-05 1.98838E-06-1.12117E-18-1.04266E-18
 -1      4021 9.23342E-05-2.52275E-05-2.87520E-05 1.79514E-06-5.95474E-19-1.31475E-19
 -1      4022 9.36691E-05-2.64600E-05-2.88096E-05 1.33351E-06-3.87011E-19 1.38329E-19
 -1      4023 9.34541E-05-2.62172E-05-2.88153E-05 1.54085E-06-2.06911E-19-8.02677E-19
 -1      4024 9.30367E-05-2.58580E-05-2.87845E-05 1.39328E-06-6.97884E-19-7.79535E-19
 -1      4025 9.40910E-05-2.69130E-05-2.87951E-05 1.00891E-06-4.42437E-19 1.46182E-18
 -1      4026 9.39214E-05-2.67051E-05-2.88065E-05 1.17684E-06-2.08928E-19 8.50245E-19
 -1      4027 9.36005E-05-2.64104E-05-2.87907E-05 1.06728E-06-3.49840E-19 5.30357E-19
 -1      4028 9.44192E-05-2.72926E-05-2.87721E-05 7.50158E-07-1.31500E-18 1.87772E-18
 -1      4029 9.42881E-05-2.71190E-05-2.87863E-05 8.84255E-07-8.59222E-19 1.71437E-18
 -1      4030 9.40451E-05-2.68812E-05-2.87806E-05 8.05268E-07-7.96578E-19 1.46274E-18
 -1      4031 9.46697E-05-2.76034E-05-2.87455E-05 5.46787E-07-1.05153E-18 1.60061E-18
 -1      4032 9.45704E-05-2.74617E-05-2.87604E-05 6.52271E-07-1.10869E-18 1.93620E-18
 -1      4033 9.43894E-05-2.72731E-05-2.87612E-05 5.97154E-07-8.89709E-19 1.97150E-18
 -1      4034 9.48571E-05-2.78528E-05-2.87183E-05 3.89361E-07 3.82273E-19 1.73766E-18
 -1      4035 9.47835E-05-2.77395E-05-2.87327E-05 4.71034E-07-3.38094E-19 1.31118E-18
 -1      4036 9.46513E-05-2.75923E-05-2.87373E-05 4.34078E-07-4.70153E-19 1.48921E-18
 -1      4037 9.49943E-05-2.80491E-05-2.86924E-05 2.69462E-07 3.18310E-19 1.98868E-18
 -1      4038 9.49410E-05-2.79602E-05-2.87056E-05 3.31653E-07 9.70735E-19 1.86527E-18
 -1      4039 9.48466E-05-2.78474E-05-2.87123E-05 3.08174E-07 1.75752E-19 1.88747E-18
 -1      4040 9.50923E-05-2.82006E-05-2.86691E-05 1.79720E-07-6.40475E-20 1.56924E-18
 -1      4041 9.50547E-05-2.81322E-05-2.86807E-05 2.26245E-07 1.90677E-19 1.61176E-18
 -1      4042 9.49892E-05-2.80473E-05-2.86882E-05 2.12508E-07 2.71993E-19 1.45689E-18
 -1      4043 9.51603E-05-2.83154E-05-2.86487E-05 1.13817E-07 5.27135E-19 1.45233E-18
 -1      4044 9.51347E-05-2.82638E-05-2.86586E-05 1.47955E-07 4.32248E-19 1.32656E-18
 -1      4045 9.50907E-05-2.82010E-05-2.86662E-05 1.41067E-07 1.72952E-19 1.46508E-18
 -1      4046 9.52057E-05-2.84007E-05-2.86313E-05 6.64410E-08-2.44165E-19 1.82946E-18
 -1      4047 9.51890E-05-2.83625E-05-2.86397E-05 9.09514E-08 3.04195E-19 1.81003E-18
 -1      4048 9.51607E-05-2.83171E-05-2.86467E-05 8.87179E-08 5.24768E-19 1.61116E-18
 -1      4049 9.52345E-05-2.84627E-05-2.86169E-05 3.32342E-08-2.04300E-19 1.37107E-18
 -1      4050 9.52243E-05-2.84350E-05-2.86237E-05 5.03858E-08 1.86590E-19 1.92799E-18
 -1      4051 9.52073E-05-2.84030E-05-2.86301E-05 5.11678E-08 1.15554E-19 2.08174E-18
 -1      4052 9.52513E-05-2.85067E-05-2.86051E-05 1.06205E-08 1.49786E-19 6.46781E-19
 -1      4053 9.52457E-05-2.84871E-05-2.86106E-05 2.23432E-08-2.58429E-19 6.35757E-19
 -1      4054 9.52366E-05-2.84652E-05-2.86161E-05 2.49889E-08 3.92897E-19 1.43752E-18
 -1      4055 9.52597E-05-2.85372E-05-2.85956E-05-4.13451E-09-6.71465E-19 2.08095E-18
 -1      4056 9.52573E-05-2.85236E-05-2.86000E-05 3.56677E-09-4.27576E-19 8.75216E-19
 -1      4057 9.52534E-05-2.85092E-05-2.86046E-05 7.21545E-09-1.99987E-19-3.60452E-19
 -1      4058 9.52627E-05-2.85579E-05-2.85879E-05-1.31138E-08 2.36741E-19 1.54412E-18
 -1      4059 9.52623E-05-2.85487E-05-2.85914E-05-8.38111E-09 1.04948E-19 1.49630E-18
 -1      4060 9.52617E-05-2.85396E-05-2.85952E-05-4.36055E-09 1.61918E-19 1.33257E-19
 -1      4061 6.24073E-05-1.46978E-05-2.01770E-05-4.90519E-06-2.44318E-19 3.34299E-18
 -1      4062 6.68900E-05-1.71138E-05-2.13064E-05-8.94905E-06-2.09567E-19 3.52247E-18
 -1      4063 6.44261E-05-1.52573E-05-2.10598E-05 7.24436E-07-1.04300E-18 2.28662E-18
 -1      4064 9.25865E-05-2.76481E-05-2.77366E-05-1.33397E-05 1.67570E-20-1.50276E-18
 -1      4065 8.69480E-05-2.40277E-05-2.70513E-05-1.31624E-05 1.24349E-19-1.55310E-18
 -1      4066 9.05384E-05-3.29076E-05-2.45797E-05 1.97262E-05-2.33976E-18-1.17595E-19
 -1      4067 8.43987E-05-2.83691E-05-2.39765E-05 1.82134E-05-1.96712E-18 6.18020E-19
 -1      4068 8.34445E-05-2.60886E-05-2.45880E-05 1.59192E-05-1.50205E-18 3.45090E-19
 -1      4069 1.05404E-04-4.33532E-05-2.64281E-05 1.72976E-05-2.50450E-18-1.16269E-18
 -1      4070 7.75509E-05-2.08158E-05-2.43168E-05 1.46389E-05 1.43050E-18-2.47514E-18
 -1      4071 7.24359E-05-1.78345E-05-2.32456E-05 1.28241E-05 1.40937E-18-2.88657E-18
 -1      4072 7.22477E-05-1.58493E-05-2.41508E-05 8.35786E-06 1.02206E-18-2.75879E-18
 -1      4073 9.67219E-05-3.71708E-05-2.55673E-05 1.85046E-05-2.09518E-18-5.71549E-19
 -1      4074 8.38900E-05-1.59902E-05-2.90732E-05 5.61123E-06 3.67359E-19-2.58600E-18
 -1      4075 9.52617E-05-2.85723E-05-2.85812E-05-1.82701E-08 1.49548E-18-1.30088E-20
 -1      4076 8.22521E-05-1.70074E-05-2.79728E-05-7.21163E-06 6.95742E-19-2.25241E-18
 -1      4077 8.06319E-05-1.57097E-05-2.78507E-05-6.27087E-06 7.61080E-19-2.38490E-18
 -1      4078 7.88079E-05-1.54913E-05-2.71221E-05-6.23154E-06 3.31129E-19-2.35165E-18
 -1      4079 8.26428E-05-1.88919E-05-2.72716E-05-9.38258E-06 3.91725E-19-2.15669E-18
 -1      4080 9.52629E-05-2.85752E-05-2.85805E-05 1.50299E-08 1.48212E-18 2.98406E-18
 -1      4081 9.52643E-05-2.85751E-05-2.85811E-05 1.17598E-08 2.14186E-18 3.66486E-18
 -1      4082 9.52658E-05-2.85696E-05-2.85840E-05 9.02464E-09 2.49316E-18 1.36512E-18
 -1      4083 9.52636E-05-2.85717E-05-2.85822E-05 1.47976E-08 9.99306E-19 2.50887E-18
 -1      4084 9.41704E-05-3.03301E-05-2.73440E-05-1.47397E-05-3.20039E-19-1.48829E-18
 -1      4085 7.98087E-05-2.31410E-05-2.42485E-05 1.41641E-05-1.39796E-18 8.45726E-19
 -1      4086 9.52669E-05-2.85608E-05-2.85884E-05-1.50004E-09 2.46584E-18-2.59731E-18
 -1      4087 9.52666E-05-2.85610E-05-2.85881E-05-5.00444E-09 1.53729E-18-2.05955E-18
 -1      4088 7.02255E-05-1.37774E-05-2.43158E-05 1.22025E-06 5.65583E-19-2.92768E-18
 -1      4089 7.03613E-05-1.41628E-05-2.39662E-05-5.37832E-06 1.32729E-19-2.99781E-18
 -1      4090 7.57536E-05-2.11470E-05-2.33589E-05 1.29717E-05-1.49348E-18 1.19866E-18
 -1      4091 7.02667E-05-1.85776E-05-2.20206E-05 1.16819E-05-1.38322E-18 1.00603E-18
 -1      4092 7.77033E-05-2.05911E-05-2.45611E-05 1.03777E-05-1.09414E-18 8.51675E-19
 -1      4093 7.51527E-05-2.28337E-05-2.24880E-05-1.64636E-05 9.40796E-19 2.89344E-18
 -1      4094 7.76185E-05-2.25005E-05-2.36003E-05-1.42049E-05 6.09750E-19 2.59133E-18
 -1      4095 7.81524E-05-2.14284E-05-2.43945E-05-1.20119E-05 3.36815E-19 2.19515E-18
 -1      4096 7.61955E-05-1.92857E-05-2.42972E-05-9.18785E-06 1.50409E-19 2.39851E-18
 -1      4097 7.14683E-05-1.89814E-05-2.23087E-05-1.24025E-05 8.28438E-20 3.65788E-18
 -1      4098 9.99575E-05-3.72963E-05-2.67974E-05-1.73742E-05-1.42924E-18-1.02982E-18
 -1      4099 7.91079E-05-2.01796E-05-2.52584E-05 1.28817E-05 1.20826E-18-2.54351E-18
 -1      4100 9.74147E-05-3.43606E-05-2.69680E-05-1.65913E-05-1.09902E-18-1.34740E-18
 -1      4101 9.52653E-05-2.85518E-05-2.85914E-05-5.45454E-09 9.46939E-19-1.54173E-18
 -1      4102 9.52654E-05-2.85603E-05-2.85879E-05-8.64161E-09 7.43623E-19-1.39186E-18
 -1      4103 8.38204E-05-2.37051E-05-2.57868E-05-1.46817E-05-2.47744E-19-1.58771E-18
 -1      4104 8.14851E-05-2.03363E-05-2.61831E-05-1.21068E-05 1.08096E-20-1.91688E-18
 -1      4105 7.97424E-05-1.86664E-05-2.61300E-05 1.06475E-05 9.32626E-19-2.59667E-18
 -1      4106 6.97389E-05-1.73146E-05-2.25300E-05-7.50148E-06-3.60671E-19 3.42253E-18
 -1      4107 8.21653E-05-1.52609E-05-2.87013E-05 5.20299E-06 5.71274E-19-2.52275E-18
 -1      4108 9.52666E-05-2.85613E-05-2.85881E-05 3.65422E-09 3.66303E-18-3.13392E-19
 -1      4109 9.52668E-05-2.85610E-05-2.85883E-05 9.17108E-10 2.96337E-18-2.54324E-18
 -1      4110 9.52665E-05-2.85528E-05-2.85915E-05-8.27849E-10 2.43987E-18-2.14256E-18
 -1      4111 7.45513E-05-1.62239E-05-2.49278E-05-7.87848E-06-1.56699E-19-2.52391E-18
 -1      4112 9.52626E-05-2.85664E-05-2.85840E-05-1.57832E-08 1.03688E-18 1.46555E-18
 -1      4113 9.52641E-05-2.85611E-05-2.85870E-05-1.16429E-08 6.65820E-19-7.44349E-19
 -1      4114 9.25376E-05-3.12876E-05-2.62866E-05-1.74824E-05-9.94694E-19-1.57238E-18
 -1      4115 7.90267E-05-1.82620E-05-2.60422E-05-1.03298E-05-1.16972E-19-2.23409E-18
 -1      4116 7.86804E-05-1.32183E-05-2.81053E-05 2.52594E-06 6.61468E-19-2.58627E-18
 -1      4117 7.99049E-05-1.34628E-05-2.84192E-05 3.41973E-06 4.94352E-19-2.50747E-18
 -1      4118 7.73365E-05-1.35549E-05-2.73526E-05 2.35316E-06 4.58095E-19-2.57416E-18
 -1      4119 7.49693E-05-1.39905E-05-2.61736E-05-3.41382E-06 3.19231E-19-2.51888E-18
 -1      4120 7.44080E-05-1.34371E-05-2.61076E-05-8.71818E-07 3.27407E-19-2.52231E-18
 -1      4121 8.61937E-05-2.18914E-05-2.75385E-05 5.84122E-06-7.55045E-19-1.45802E-19
 -1      4122 8.71042E-05-2.27009E-05-2.76281E-05 6.99408E-06-8.71393E-19 6.13157E-19
 -1      4123 8.67218E-05-2.28241E-05-2.73674E-05 7.85304E-06-8.10439E-19 5.52769E-19
 -1      4124 7.53110E-05-1.63330E-05-2.53764E-05 8.53539E-06 9.46903E-19-2.63673E-18
 -1      4125 7.26561E-05-1.45986E-05-2.47690E-05 5.63687E-06 7.74049E-19-2.74190E-18
 -1      4126 7.37225E-05-1.41134E-05-2.55211E-05 1.89154E-06 5.02019E-19-2.60761E-18
 -1      4127 7.93983E-05-1.72968E-05-2.66417E-05 8.46052E-06 7.28000E-19-2.49295E-18
 -1      4128 8.57967E-05-2.29102E-05-2.69858E-05 8.89583E-06-9.25529E-19-1.99794E-19
 -1      4129 8.56136E-05-2.33951E-05-2.66333E-05 1.00330E-05-1.17041E-18-5.42392E-19
 -1      4130 8.44094E-05-2.16830E-05-2.68619E-05 7.54094E-06-9.94282E-19-3.37138E-19
 -1      4131 8.25268E-05-2.19905E-05-2.59209E-05 9.95762E-06-1.17154E-18-1.70168E-19
 -1      4132 9.52639E-05-2.85679E-05-2.85840E-05 1.37589E-08 1.36664E-18 2.19899E-18
 -1      4133 9.52652E-05-2.85629E-05-2.85867E-05 9.79533E-09 1.30468E-18 7.86988E-19
 -1      4134 8.06927E-05-1.66537E-05-2.74805E-05 7.11912E-06 6.75757E-19-2.47320E-18
 -1      4135 7.72889E-05-1.44412E-05-2.68502E-05 4.90406E-06 5.90490E-19-2.45330E-18
 -1      4136 6.89279E-05-1.71137E-05-2.22590E-05 7.68348E-06-1.08073E-18 1.36302E-18
 -1      4137 7.74042E-05-1.86741E-05-2.51953E-05-5.17466E-06 2.53043E-19 2.21463E-18
 -1      4138 7.90776E-05-1.89477E-05-2.58300E-05-4.33497E-06-3.63768E-19 2.40720E-18
 -1      4139 8.72494E-05-2.64513E-05-2.59301E-05-1.63364E-05-4.75139E-19-1.45526E-18
 -1      4140 9.52639E-05-2.85406E-05-2.85957E-05-1.52665E-09 1.65778E-18-1.12085E-18
 -1      4141 9.52631E-05-2.85401E-05-2.85957E-05-3.77369E-09 2.33636E-19-1.12436E-18
 -1      4142 9.52602E-05-2.85265E-05-2.86000E-05 5.18711E-10 4.62542E-19-1.23007E-18
 -1      4143 8.09592E-05-1.57442E-05-2.79965E-05 5.83269E-06 6.03814E-19-2.48097E-18
 -1      4144 9.52661E-05-2.85618E-05-2.85876E-05 7.06030E-09 2.39705E-18-1.53407E-19
 -1      4145 7.56648E-05-1.40905E-05-2.64508E-05 3.18057E-06 5.48488E-19-2.60756E-18
 -1      4146 8.09897E-05-1.94326E-05-2.63976E-05-3.83268E-06-3.34528E-19 2.24180E-18
 -1      4147 8.23499E-05-1.98282E-05-2.68342E-05-3.28147E-06-7.93239E-19 2.19602E-18
 -1      4148 7.91836E-05-1.84452E-05-2.59436E-05-2.00609E-06-7.06685E-19 1.75701E-18
 -1      4149 8.38186E-05-2.03292E-05-2.72249E-05-2.97278E-06-1.24636E-18 1.77643E-18
 -1      4150 8.49405E-05-2.07717E-05-2.75280E-05-2.58968E-06-6.52382E-19 1.76477E-18
 -1      4151 8.25394E-05-1.95849E-05-2.69088E-05-1.57160E-06-1.15933E-18 1.62957E-18
 -1      4152 8.61035E-05-2.12707E-05-2.77971E-05-2.36468E-06-4.95377E-19 6.06337E-19
 -1      4153 8.70305E-05-2.17325E-05-2.80041E-05-2.07767E-06-5.43714E-19 3.51552E-19
 -1      4154 8.51215E-05-2.06572E-05-2.75743E-05-1.27040E-06-1.52770E-18 1.35952E-18
 -1      4155 8.79737E-05-2.22260E-05-2.81867E-05-1.90375E-06-7.35231E-19-9.04354E-20
 -1      4156 8.87429E-05-2.26862E-05-2.83243E-05-1.67526E-06-1.14594E-18-2.64003E-19
 -1      4157 8.71982E-05-2.16992E-05-2.80307E-05-1.03741E-06-1.31711E-18-6.16581E-19
 -1      4158 8.95141E-05-2.31605E-05-2.84445E-05-1.53621E-06-1.28687E-18 2.96321E-19
 -1      4159 9.01503E-05-2.36010E-05-2.85320E-05-1.34739E-06-4.36631E-19-2.26422E-19
 -1      4160 8.88935E-05-2.27009E-05-2.83373E-05-8.48607E-07-7.50816E-19-7.14453E-19
 -1      4161 9.07804E-05-2.40427E-05-2.86076E-05-1.23407E-06 5.89604E-19-1.66258E-19
 -1      4162 9.13021E-05-2.44494E-05-2.86596E-05-1.07529E-06 8.55225E-19 5.74913E-19
 -1      4163 9.02820E-05-2.36417E-05-2.85360E-05-6.90597E-07 6.46973E-20-3.86663E-19
 -1      4164 9.18136E-05-2.48489E-05-2.87037E-05-9.82329E-07 9.06236E-19 1.05868E-18
 -1      4165 9.22363E-05-2.52130E-05-2.87309E-05-8.48436E-07 1.21477E-18 9.30588E-19
 -1      4166 9.14146E-05-2.45023E-05-2.86578E-05-5.56373E-07 1.13582E-18 3.97356E-19
 -1      4167 9.26473E-05-2.55647E-05-2.87532E-05-7.72417E-07 4.95747E-19 1.35812E-18
 -1      4168 9.29854E-05-2.58820E-05-2.87638E-05-6.60228E-07 5.02371E-20 1.17023E-18
 -1      4169 9.23306E-05-2.52694E-05-2.87258E-05-4.42306E-07 9.60567E-19 1.37985E-18
 -1      4170 9.33114E-05-2.61841E-05-2.87716E-05-5.98631E-07-5.40580E-19 8.70202E-19
 -1      4171 9.35779E-05-2.64540E-05-2.87714E-05-5.05718E-07 5.46025E-20 8.60732E-19
 -1      4172 9.30629E-05-2.59367E-05-2.87570E-05-3.46222E-07-5.57300E-19 7.99652E-19
 -1      4173 9.38328E-05-2.67078E-05-2.87699E-05-4.56452E-07 3.98514E-20-1.50560E-19
 -1      4174 9.40396E-05-2.69326E-05-2.87633E-05-3.80604E-07-3.80400E-19-1.12716E-18
 -1      4175 9.36405E-05-2.65041E-05-2.87640E-05-2.66411E-07-1.07843E-18 2.72569E-19
 -1      4176 9.42359E-05-2.71416E-05-2.87562E-05-3.41794E-07-1.00871E-19-1.21603E-18
 -1      4177 9.43937E-05-2.73250E-05-2.87461E-05-2.80849E-07-3.59190E-19-1.40091E-18
 -1      4178 9.40894E-05-2.69767E-05-2.87560E-05-2.01203E-07-6.76845E-19-1.42339E-18
 -1      4179 9.45424E-05-2.74938E-05-2.87362E-05-2.50782E-07-4.24307E-19-1.53148E-18
 -1      4180 9.46606E-05-2.76407E-05-2.87246E-05-2.02611E-07-2.01284E-19-1.36118E-18
 -1      4181 9.44327E-05-2.73626E-05-2.87394E-05-1.48856E-07-3.00862E-19-1.42778E-18
 -1      4182 9.47711E-05-2.77746E-05-2.87136E-05-1.79730E-07 3.84401E-19-1.13059E-18
 -1      4183 9.48580E-05-2.78901E-05-2.87018E-05-1.42298E-07 9.40061E-19-7.30868E-19
 -1      4184 9.46906E-05-2.76721E-05-2.87186E-05-1.07589E-07 4.13883E-19-9.77780E-19
 -1      4185 9.49384E-05-2.79945E-05-2.86908E-05-1.25217E-07-4.29497E-19-2.90337E-19
 -1      4186 9.50008E-05-2.80837E-05-2.86797E-05-9.66355E-08-1.01707E-18-2.21285E-19
 -1      4187 9.48806E-05-2.79157E-05-2.86967E-05-7.56519E-08 3.54265E-19-9.18545E-19
 -1      4188 9.50579E-05-2.81635E-05-2.86694E-05-8.41495E-08-5.29779E-19 8.28860E-20
 -1      4189 9.51015E-05-2.82312E-05-2.86594E-05-6.27251E-08-1.44218E-19-1.40999E-19
 -1      4190 9.50175E-05-2.81041E-05-2.86754E-05-5.14025E-08-5.24110E-19 5.84709E-20
 -1      4191 9.51408E-05-2.82911E-05-2.86501E-05-5.38102E-08-7.73631E-20-6.46816E-20
 -1      4192 9.51702E-05-2.83414E-05-2.86414E-05-3.80668E-08 1.47606E-18-4.38292E-19
 -1      4193 9.51135E-05-2.82472E-05-2.86558E-05-3.33567E-08 1.19322E-19-1.45587E-19
 -1      4194 9.51962E-05-2.83855E-05-2.86333E-05-3.18717E-08 1.68622E-18-5.97385E-19
 -1      4195 9.52152E-05-2.84221E-05-2.86259E-05-2.05549E-08 9.87735E-19-5.18486E-19
 -1      4196 9.51786E-05-2.83537E-05-2.86385E-05-2.02233E-08 1.11485E-18-3.17502E-19
 -1      4197 9.52315E-05-2.84539E-05-2.86191E-05-1.63976E-08 8.56801E-19-1.10469E-18
 -1      4198 9.52428E-05-2.84799E-05-2.86128E-05-8.50808E-09 9.63779E-19-1.05066E-18
 -1      4199 9.52208E-05-2.84315E-05-2.86235E-05-1.09162E-08 1.01496E-18-2.31291E-18
 -1      4200 9.52522E-05-2.85023E-05-2.86071E-05-5.78224E-09 1.22574E-18-1.53738E-18
 -1      4201 9.52581E-05-2.85204E-05-2.86020E-05-5.61678E-10 6.64056E-19-2.90114E-18
 -1      4202 9.52464E-05-2.84870E-05-2.86109E-05-4.46655E-09 7.35352E-19-2.88002E-18
 -1      4203 9.13566E-05-2.44961E-05-2.86656E-05 1.66698E-06 1.15657E-19 1.19400E-18
 -1      4204 9.08835E-05-2.41202E-05-2.86148E-05 1.90593E-06 2.73348E-19 1.28567E-18
 -1      4205 7.98437E-05-2.06322E-05-2.53435E-05 8.97223E-06-8.24039E-19 5.42966E-19
 -1      4206 7.65694E-05-1.90515E-05-2.45790E-05 7.80258E-06-7.45807E-19 4.66813E-19
 -1      4207 8.07685E-05-2.04722E-05-2.59097E-05 7.61401E-06-1.02293E-18 1.36245E-19
 -1      4208 9.02570E-05-2.37046E-05-2.85365E-05 2.12055E-06-4.07438E-19 9.05195E-19
 -1      4209 8.96925E-05-2.33125E-05-2.84507E-05 2.41280E-06-2.89470E-19 1.85236E-18
 -1      4210 9.02514E-05-2.36279E-05-2.85254E-05 1.47775E-06-3.20362E-19 2.00212E-18
 -1      4211 8.73595E-05-2.20696E-05-2.80056E-05 3.40571E-06-1.20440E-18 1.37037E-18
 -1      4212 8.65991E-05-2.17239E-05-2.78046E-05 3.87256E-06-1.13918E-18 8.70854E-19
 -1      4213 9.22595E-05-2.52252E-05-2.87378E-05 1.29998E-06-7.04226E-20-1.63373E-19
 -1      4214 9.18701E-05-2.48804E-05-2.87115E-05 1.49653E-06 1.40963E-19 1.03456E-18
 -1      4215 9.13702E-05-2.44622E-05-2.86534E-05 1.15434E-06 3.60692E-19 1.32219E-18
 -1      4216 9.29904E-05-2.58745E-05-2.87710E-05 1.00279E-06-7.55093E-19-5.43835E-19
 -1      4217 9.26756E-05-2.55688E-05-2.87613E-05 1.16413E-06-5.20484E-19-1.02595E-18
 -1      4218 9.22824E-05-2.52169E-05-2.87256E-05 8.95526E-07 1.61689E-19 7.34132E-20
 -1      4219 9.35730E-05-2.64363E-05-2.87785E-05 7.63381E-07-6.34126E-19 6.62540E-19
 -1      4220 9.33229E-05-2.61729E-05-2.87794E-05 8.94838E-07-6.80116E-19-1.45391E-20
 -1      4221 9.30166E-05-2.58808E-05-2.87595E-05 6.87833E-07-1.05981E-18-1.17693E-18
 -1      4222 9.40299E-05-2.69106E-05-2.87698E-05 5.72253E-07-6.95249E-19 1.01470E-18
 -1      4223 9.38348E-05-2.66893E-05-2.87772E-05 6.78205E-07-6.45742E-19 8.18115E-19
 -1      4224 9.35990E-05-2.64503E-05-2.87680E-05 5.21714E-07-7.38740E-19-7.73743E-19
 -1      4225 9.43823E-05-2.73024E-05-2.87520E-05 4.21432E-07-6.03746E-19 1.38121E-18
 -1      4226 9.42328E-05-2.71204E-05-2.87628E-05 5.05733E-07-6.64341E-19 1.72250E-18
 -1      4227 9.40539E-05-2.69280E-05-2.87607E-05 3.89851E-07-1.00302E-18 1.77817E-19
 -1      4228 9.46493E-05-2.76196E-05-2.87297E-05 3.03996E-07-1.87931E-19 1.41950E-18
 -1      4229 9.45369E-05-2.74728E-05-2.87419E-05 3.70124E-07 1.09721E-19 1.75166E-18
 -1      4230 9.44034E-05-2.73204E-05-2.87442E-05 2.86270E-07-3.21844E-19 8.68956E-19
 -1      4231 9.48477E-05-2.78715E-05-2.87061E-05 2.13893E-07 1.66871E-19 4.41629E-19
 -1      4232 9.47649E-05-2.77554E-05-2.87184E-05 2.64981E-07-1.63695E-19 6.79492E-19
 -1      4233 9.46671E-05-2.76366E-05-2.87232E-05 2.05917E-07 3.45112E-19-4.08878E-19
 -1      4234 9.49919E-05-2.80678E-05-2.86832E-05 1.45860E-07 4.10597E-19 4.53478E-19
 -1      4235 9.49323E-05-2.79777E-05-2.86948E-05 1.84693E-07 9.21240E-19 8.72682E-19
 -1      4236 9.48623E-05-2.78867E-05-2.87008E-05 1.44455E-07 2.41311E-19-7.29720E-19
 -1      4237 9.50941E-05-2.82181E-05-2.86622E-05 9.53853E-08 2.22174E-19-2.82981E-19
 -1      4238 9.50524E-05-2.81495E-05-2.86726E-05 1.24393E-07 5.30025E-21-2.61840E-19
 -1      4239 9.50036E-05-2.80810E-05-2.86790E-05 9.81722E-08 7.68767E-19-8.33894E-19
 -1      4240 9.51643E-05-2.83310E-05-2.86436E-05 5.86610E-08-1.16933E-19 1.74549E-19
 -1      4241 9.51362E-05-2.82797E-05-2.86527E-05 7.99195E-08 3.54625E-19-2.10148E-19
 -1      4242 9.51032E-05-2.82291E-05-2.86589E-05 6.39189E-08 2.34255E-19-8.06012E-19
 -1      4243 9.52107E-05-2.84140E-05-2.86277E-05 3.25268E-08 4.83550E-19 1.41658E-18
 -1      4244 9.51925E-05-2.83764E-05-2.86354E-05 4.77746E-08 2.52126E-20 1.03520E-18
 -1      4245 9.51712E-05-2.83399E-05-2.86411E-05 3.90623E-08-5.57773E-19 7.21011E-19
 -1      4246 9.52395E-05-2.84737E-05-2.86143E-05 1.45275E-08 2.67993E-19 7.73739E-20
 -1      4247 9.52286E-05-2.84469E-05-2.86206E-05 2.49980E-08 1.02314E-18 5.20511E-19
 -1      4248 9.52156E-05-2.84211E-05-2.86257E-05 2.13908E-08 6.74798E-19-4.09633E-19
 -1      4249 9.52549E-05-2.85123E-05-2.86042E-05 2.95070E-09 8.57137E-19-1.27440E-18
 -1      4250 9.52487E-05-2.84930E-05-2.86094E-05 9.65622E-09 3.74257E-19-7.60276E-19
 -1      4251 9.52413E-05-2.84754E-05-2.86137E-05 8.80236E-09 6.97190E-19-8.79537E-19
 -1      4252 9.52556E-05-2.85117E-05-2.86044E-05 1.70496E-09 7.27180E-19-6.05761E-19
 -1      4253 6.85576E-05-1.61028E-05-2.23985E-05 4.26710E-06-7.67615E-19 1.88445E-18
 -1      4254 6.94090E-05-1.61623E-05-2.28702E-05-2.97111E-07-6.82682E-19 2.34921E-18
 -1      4255 7.36030E-05-1.78399E-05-2.38753E-05 5.72348E-06-4.24261E-19 1.05386E-18
 -1      4256 8.89346E-05-2.28808E-05-2.83269E-05 2.68618E-06-4.07493E-19 1.16735E-18
 -1      4257 8.82733E-05-2.24955E-05-2.81924E-05 3.04990E-06-8.43565E-19 1.61330E-18
 -1      4258 8.88933E-05-2.27349E-05-2.83182E-05 1.88644E-06-7.12743E-19 1.81721E-18
 -1      4259 7.71798E-05-1.65766E-05-2.59725E-05-8.45963E-06-1.08500E-19-2.30946E-18
 -1      4260 9.52659E-05-2.85533E-05-2.85910E-05 4.30636E-09 2.31394E-18-1.26554E-18
 -1      4261 7.05757E-05-1.65265E-05-2.30756E-05-3.52090E-06-4.89550E-19 3.33303E-18
 -1      4262 7.37564E-05-1.80736E-05-2.38930E-05-6.82230E-06-2.60934E-19 3.25742E-18
 -1      4263 7.58016E-05-1.83563E-05-2.46932E-05-5.78264E-06 2.21840E-19 2.50629E-18
 -1      4264 7.35064E-05-1.71064E-05-2.41651E-05-4.03198E-07-2.17166E-19 2.51326E-18
 -1      4265 7.58200E-05-1.76634E-05-2.48565E-05-2.93237E-06-2.97363E-20 2.80145E-18
 -1      4266 9.52641E-05-2.85408E-05-2.85957E-05 2.97480E-11 2.38206E-18-1.46285E-18
 -1      4267 9.52627E-05-2.85357E-05-2.85973E-05 1.26947E-09 8.84494E-19-2.10528E-18
 -1      4268 9.52649E-05-2.85479E-05-2.85931E-05 4.39579E-09 1.16212E-18-1.20703E-18
 -1      4269 8.72557E-05-2.18133E-05-2.80005E-05 2.41387E-06-1.40332E-18 1.13997E-18
 -1      4270 7.54628E-05-1.80722E-05-2.46565E-05 4.61692E-06-5.27566E-19 4.56802E-19
 -1      4271 8.54920E-05-2.13309E-05-2.75311E-05 4.35115E-06-1.07051E-18 1.05375E-19
 -1      4272 8.46373E-05-2.10709E-05-2.72407E-05 4.97682E-06-1.00152E-18 2.11156E-19
 -1      4273 8.52808E-05-2.09006E-05-2.75306E-05 3.11568E-06-1.72857E-18 9.71802E-19
 -1      4274 9.52601E-05-2.85254E-05-2.86004E-05-1.44071E-10 1.42652E-18-3.39209E-18
 -1      4275 8.32771E-05-2.07434E-05-2.68476E-05 5.65315E-06-1.03829E-18 1.70701E-19
 -1      4276 8.23577E-05-2.06395E-05-2.64375E-05 6.53224E-06-1.25715E-18-1.91820E-19
 -1      4277 8.28703E-05-2.00384E-05-2.68502E-05 4.08480E-06-1.16477E-18 5.94724E-19
 -1      4278 7.99747E-05-1.93731E-05-2.59032E-05 5.55795E-06-9.22019E-19 1.39741E-19
 -1      4279 7.48282E-05-1.72545E-05-2.46561E-05 2.18621E-08-3.96613E-19 1.98597E-18
 -1      4280 7.87688E-05-1.86140E-05-2.58421E-05 1.42088E-06-9.63639E-19 9.75633E-19
 -1      4281 8.07198E-05-1.91983E-05-2.64125E-05 1.41649E-06-8.65661E-19 7.82244E-19
 -1      4282 8.21451E-05-1.96782E-05-2.68333E-05 9.92935E-07-1.12842E-18 8.70973E-19
 -1      4283 8.36319E-05-2.01944E-05-2.72263E-05 1.02650E-06-1.63828E-18 7.14629E-19
 -1      4284 8.47926E-05-2.06893E-05-2.75196E-05 7.26055E-07-1.74419E-18 8.55508E-19
 -1      4285 8.59762E-05-2.11985E-05-2.77911E-05 7.60287E-07-1.90220E-18 3.52113E-19
 -1      4286 8.69282E-05-2.16946E-05-2.79921E-05 5.38990E-07-1.43382E-18 1.06995E-18
 -1      4287 8.78867E-05-2.21926E-05-2.81766E-05 5.70903E-07-1.16253E-18 5.01213E-19
 -1      4288 8.86718E-05-2.26752E-05-2.83107E-05 4.02334E-07-1.18147E-18 1.04531E-18
 -1      4289 8.94538E-05-2.31502E-05-2.84326E-05 4.32623E-07-8.07538E-19 6.65904E-19
 -1      4290 9.01003E-05-2.36053E-05-2.85183E-05 3.00510E-07-3.99472E-20 6.07572E-19
 -1      4291 9.07380E-05-2.40456E-05-2.85953E-05 3.29350E-07 7.59552E-19 6.09777E-19
 -1      4292 9.12669E-05-2.44620E-05-2.86467E-05 2.23838E-07 1.01748E-18 4.95531E-19
 -1      4293 9.17838E-05-2.48590E-05-2.86919E-05 2.50853E-07 1.15839E-18 8.46069E-19
 -1      4294 9.22119E-05-2.52295E-05-2.87193E-05 1.65812E-07 5.36953E-19 6.67319E-19
 -1      4295 9.26267E-05-2.55784E-05-2.87425E-05 1.90471E-07 1.83022E-19 4.59972E-19
 -1      4296 9.29689E-05-2.58997E-05-2.87537E-05 1.21841E-07-7.81980E-19 3.58097E-19
 -1      4297 9.32977E-05-2.61990E-05-2.87623E-05 1.43722E-07-1.30294E-18-5.12106E-20
 -1      4298 9.35673E-05-2.64715E-05-2.87629E-05 8.85772E-08-1.08956E-18-1.74913E-19
 -1      4299 9.38243E-05-2.67228E-05-2.87620E-05 1.07464E-07-1.05563E-18-4.95130E-19
 -1      4300 9.40334E-05-2.69489E-05-2.87563E-05 6.35168E-08-1.03854E-18-2.21779E-19
 -1      4301 9.42312E-05-2.71556E-05-2.87498E-05 7.94043E-08-6.81574E-19-4.77349E-19
 -1      4302 9.43906E-05-2.73396E-05-2.87405E-05 4.47567E-08-2.85124E-21-3.50706E-19
 -1      4303 9.45402E-05-2.75065E-05-2.87310E-05 5.78054E-08 3.01776E-19-8.84984E-19
 -1      4304 9.46597E-05-2.76535E-05-2.87202E-05 3.08317E-08 5.05561E-19-1.15129E-18
 -1      4305 9.47708E-05-2.77858E-05-2.87094E-05 4.13125E-08 8.62353E-19-1.06103E-18
 -1      4306 9.48584E-05-2.79011E-05-2.86984E-05 2.06056E-08 3.00701E-19-6.35227E-19
 -1      4307 9.49392E-05-2.80040E-05-2.86876E-05 2.88474E-08-1.48161E-19-4.92152E-19
 -1      4308 9.50020E-05-2.80928E-05-2.86770E-05 1.31944E-08 2.70390E-19-2.91354E-19
 -1      4309 9.50593E-05-2.81715E-05-2.86669E-05 1.95423E-08 2.05835E-19 1.55133E-19
 -1      4310 9.51031E-05-2.82386E-05-2.86574E-05 7.91060E-09-5.50865E-19 8.81720E-19
 -1      4311 9.51425E-05-2.82977E-05-2.86482E-05 1.26967E-08-3.08185E-19 2.29423E-19
 -1      4312 9.51719E-05-2.83474E-05-2.86399E-05 4.22574E-09 5.46657E-20 1.85411E-19
 -1      4313 9.51980E-05-2.83908E-05-2.86319E-05 7.75947E-09 8.21114E-19-3.04454E-19
 -1      4314 9.52168E-05-2.84268E-05-2.86248E-05 1.75393E-09 9.83474E-19-1.20162E-18
 -1      4315 9.52331E-05-2.84579E-05-2.86180E-05 4.11226E-09 7.31979E-19-1.26556E-18
 -1      4316 9.52427E-05-2.84801E-05-2.86129E-05-6.40702E-10 8.06065E-19-1.11724E-18
 -1      4317 9.52523E-05-2.85024E-05-2.86071E-05 1.28012E-09 6.77035E-19-1.17157E-18
 -1      4318 9.52656E-05-2.85475E-05-2.85936E-05 1.44639E-09 2.88950E-18-2.67956E-18
 -1      4319 7.71552E-05-1.82295E-05-2.52691E-05 2.08960E-06-7.35069E-19 1.03439E-18
 -1      4320 9.52579E-05-2.85185E-05-2.86028E-05-1.00158E-09 9.67833E-19-1.73204E-18
 -1      4321 9.52625E-05-2.85338E-05-2.85980E-05 4.20826E-10 2.14189E-18-1.32785E-18
 -3
    1PSTEP                         4           1           1          
  100CL  101 1.000000000        4321                     0    1           1
 -4  ERROR       1    1
 -5  STR(%)      1    1    0    0
 -1         1 1.20134E+01
 -1         2 2.66696E+01
 -1         3 3.70186E-04
 -1         4 4.45210E-04
 -1         5 1.31270E+01
 -1         6 1.22004E+01
 -1         7 1.22004E+01
 -1         8 3.59200E+00
 -1         9 2.09152E+00
 -1        10 1.53534E+00
 -1        11 1.21718E+00
 -1        12 9.54412E-01
 -1        13 7.24842E-01
 -1        14 5.33229E-01
 -1        15 5.52647E-01
 -1        16 7.47676E-01
 -1        17 9.61846E-01
 -1        18 1.23329E+00
 -1        19 1.55441E+00
 -1        20 2.09407E+00
 -1        21 3.44461E+00
 -1        22 8.03955E+00
 -1        23 1.22004E+01
 -1        24 3.74498E+00
 -1        25 2.41933E+00
 -1        26 1.45862E+00
 -1        27 8.20261E-01
 -1        28 9.04169E-01
 -1        29 1.16931E+00
 -1        30 1.16931E+00
 -1        31 1.24434E+00
 -1        32 1.36074E+00
 -1        33 1.83201E+00
 -1        34 3.35600E+00
 -1        35 4.24047E+00
 -1        36 4.24577E+00
 -1        37 4.24577E+00
 -1        38 3.98987E+00
 -1        39 2.65176E+00
 -1        40 1.76209E+00
 -1        41 1.45274E+00
 -1        42 1.45274E+00
 -1        43 1.40138E+00
 -1        44 1.38441E+00
 -1        45 1.21114E+00
 -1        46 9.79796E-01
 -1        47 7.84191E-01
 -1        48 6.06982E-01
 -1        49 5.07317E-01
 -1        50 4.20365E-01
 -1        51 3.36845E-01
 -1        52 2.62304E-01
 -1        53 1.99005E-01
 -1        54 1.47201E-01
 -1        55 1.10135E-01
 -1        56 9.17822E-02
 -1        57 7.47329E-02
 -1        58 5.95967E-02
 -1        59 4.65993E-02
 -1        60 3.57256E-02
 -1        61 2.68197E-02
 -1        62 2.11350E-02
 -1        63 1.73640E-02
 -1        64 1.39165E-02
 -1        65 1.08450E-02
 -1        66 8.14126E-03
 -1        67 5.93613E-03
 -1        68 4.35341E-03
 -1        69 3.80388E-03
 -1        70 2.93825E-03
 -1        71 2.16563E-03
 -1        72 1.31270E+01
 -1        73 3.04407E+00
 -1        74 1.85616E+00
 -1        75 1.32825E+00
 -1        76 9.37263E-01
 -1        77 7.14408E-01
 -1        78 8.01918E-01
 -1        79 9.00321E-01
 -1        80 1.23359E+00
 -1        81 1.31693E+00
 -1        82 1.69913E+00
 -1        83 2.35714E+00
 -1        84 3.24266E+00
 -1        85 3.62182E+00
 -1        86 3.79636E+00
 -1        87 3.79636E+00
 -1        88 2.89524E+00
 -1        89 1.64705E+00
 -1        90 1.14211E+00
 -1        91 1.10696E+00
 -1        92 1.25628E+00
 -1        93 1.25628E+00
 -1        94 1.21119E+00
 -1        95 1.06357E+00
 -1        96 8.96038E-01
 -1        97 7.36774E-01
 -1        98 5.80159E-01
 -1        99 4.39629E-01
 -1       100 3.26673E-01
 -1       101 2.56379E-01
 -1       102 1.95789E-01
 -1       103 1.45637E-01
 -1       104 1.05438E-01
 -1       105 7.40847E-02
 -1       106 5.08667E-02
 -1       107 4.27604E-02
 -1       108 3.50894E-02
 -1       109 2.81778E-02
 -1       110 2.21642E-02
 -1       111 1.84576E-02
 -1       112 1.61562E-02
 -1       113 1.37161E-02
 -1       114 1.13149E-02
 -1       115 9.03764E-03
 -1       116 7.00813E-03
 -1       117 5.24683E-03
 -1       118 3.76383E-03
 -1       119 2.90253E-03
 -1       120 1.51986E-03
 -1       121 7.34000E-04
 -1       122 7.34000E-04
 -1       123 4.71743E-04
 -1       124 1.68339E-04
 -1       125 3.55055E-04
 -1       126 4.78137E-04
 -1       127 5.44183E-04
 -1       128 5.61348E-04
 -1       129 5.61348E-04
 -1       130 5.43742E-04
 -1       131 4.73174E-04
 -1       132 3.53454E-04
 -1       133 1.65365E-04
 -1       134 4.79907E-04
 -1       135 9.73308E-04
 -1       136 1.20713E-03
 -1       137 2.66696E+01
 -1       138 4.71826E+01
 -1       139 4.71826E+01
 -1       140 1.94178E+01
 -1       141 1.23820E+01
 -1       142 1.26165E+01
 -1       143 1.26165E+01
 -1       144 1.23416E+01
 -1       145 1.23416E+01
 -1       146 1.49736E+01
 -1       147 3.98215E+01
 -1       148 3.98215E+01
 -1       149 2.46286E+01
 -1       150 2.51269E+01
 -1       151 2.66813E+01
 -1       152 2.93269E+01
 -1       153 3.01807E+01
 -1       154 2.78188E+01
 -1       155 1.23679E+01
 -1       156 1.23679E+01
 -1       157 1.21168E+01
 -1       158 1.20134E+01
 -1       159 1.17475E+01
 -1       160 2.27440E+01
 -1       161 4.91664E+01
 -1       162 4.91664E+01
 -1       163 2.44811E+01
 -1       164 5.79314E+00
 -1       165 2.52896E+00
 -1       166 1.79190E+00
 -1       167 1.37279E+00
 -1       168 1.06555E+00
 -1       169 8.11954E-01
 -1       170 5.95342E-01
 -1       171 4.41822E-01
 -1       172 6.16615E-01
 -1       173 8.26212E-01
 -1       174 1.08694E+00
 -1       175 1.39387E+00
 -1       176 1.81123E+00
 -1       177 2.51467E+00
 -1       178 3.79320E+00
 -1       179 1.31270E+01
 -1       180 3.74498E+00
 -1       181 2.41933E+00
 -1       182 1.45862E+00
 -1       183 8.20261E-01
 -1       184 7.83217E-01
 -1       185 9.04169E-01
 -1       186 1.16931E+00
 -1       187 1.16304E+00
 -1       188 1.24434E+00
 -1       189 1.36074E+00
 -1       190 2.09670E+00
 -1       191 3.35600E+00
 -1       192 4.24047E+00
 -1       193 4.24577E+00
 -1       194 3.98987E+00
 -1       195 2.65176E+00
 -1       196 1.76209E+00
 -1       197 1.34702E+00
 -1       198 1.45274E+00
 -1       199 1.40138E+00
 -1       200 1.38441E+00
 -1       201 1.21114E+00
 -1       202 1.00120E+00
 -1       203 8.55058E-01
 -1       204 7.27757E-01
 -1       205 5.88968E-01
 -1       206 4.57122E-01
 -1       207 3.41723E-01
 -1       208 2.62304E-01
 -1       209 2.05010E-01
 -1       210 1.56954E-01
 -1       211 1.17423E-01
 -1       212 9.17822E-02
 -1       213 7.47329E-02
 -1       214 5.95967E-02
 -1       215 4.65993E-02
 -1       216 3.57256E-02
 -1       217 2.73096E-02
 -1       218 2.11350E-02
 -1       219 1.73640E-02
 -1       220 1.39165E-02
 -1       221 1.08450E-02
 -1       222 8.40710E-03
 -1       223 6.29371E-03
 -1       224 4.72395E-03
 -1       225 3.80388E-03
 -1       226 2.93825E-03
 -1       227 2.16563E-03
 -1       228 3.04407E+00
 -1       229 1.85616E+00
 -1       230 1.32825E+00
 -1       231 9.37263E-01
 -1       232 7.14408E-01
 -1       233 6.35274E-01
 -1       234 8.01918E-01
 -1       235 9.00321E-01
 -1       236 1.23359E+00
 -1       237 1.31693E+00
 -1       238 1.69913E+00
 -1       239 2.35714E+00
 -1       240 3.24266E+00
 -1       241 3.62182E+00
 -1       242 3.79636E+00
 -1       243 2.89524E+00
 -1       244 1.64705E+00
 -1       245 1.14211E+00
 -1       246 1.04850E+00
 -1       247 1.10696E+00
 -1       248 1.25628E+00
 -1       249 1.21119E+00
 -1       250 1.06357E+00
 -1       251 8.96038E-01
 -1       252 7.44087E-01
 -1       253 6.03370E-01
 -1       254 4.70668E-01
 -1       255 3.54424E-01
 -1       256 2.58477E-01
 -1       257 1.95789E-01
 -1       258 1.45637E-01
 -1       259 1.06766E-01
 -1       260 7.71730E-02
 -1       261 5.41928E-02
 -1       262 4.27604E-02
 -1       263 3.50894E-02
 -1       264 2.81778E-02
 -1       265 2.21642E-02
 -1       266 1.84576E-02
 -1       267 1.61562E-02
 -1       268 1.37161E-02
 -1       269 1.13149E-02
 -1       270 9.03764E-03
 -1       271 7.00813E-03
 -1       272 5.24683E-03
 -1       273 3.76383E-03
 -1       274 2.90253E-03
 -1       275 1.67916E-03
 -1       276 8.09551E-04
 -1       277 8.09551E-04
 -1       278 6.32985E-04
 -1       279 5.82437E-04
 -1       280 8.29541E-04
 -1       281 9.71036E-04
 -1       282 1.02469E-03
 -1       283 1.02469E-03
 -1       284 1.02453E-03
 -1       285 9.67054E-04
 -1       286 8.30716E-04
 -1       287 5.84398E-04
 -1       288 6.21962E-04
 -1       289 6.21962E-04
 -1       290 1.20713E-03
 -1       291 2.97043E+01
 -1       292 2.80303E+01
 -1       293 4.71826E+01
 -1       294 2.19066E+01
 -1       295 1.06260E+01
 -1       296 1.23820E+01
 -1       297 1.26165E+01
 -1       298 1.22429E+01
 -1       299 1.23416E+01
 -1       300 1.15484E+01
 -1       301 1.49736E+01
 -1       302 3.98215E+01
 -1       303 3.63129E+01
 -1       304 2.96077E+01
 -1       305 2.96077E+01
 -1       306 3.24692E+01
 -1       307 3.24692E+01
 -1       308 3.01807E+01
 -1       309 1.22233E+01
 -1       310 1.23679E+01
 -1       311 1.21168E+01
 -1       312 1.18305E+01
 -1       313 1.20134E+01
 -1       314 1.17475E+01
 -1       315 1.14873E+01
 -1       316 2.51528E+01
 -1       317 4.91664E+01
 -1       318 3.11686E+01
 -1       319 2.97043E+01
 -1       320 1.48419E+00
 -1       321 2.51087E+00
 -1       322 1.04069E+00
 -1       323 8.55199E-01
 -1       324 6.45409E-01
 -1       325 4.53687E-01
 -1       326 4.78451E-01
 -1       327 6.52315E-01
 -1       328 8.58571E-01
 -1       329 1.03727E+00
 -1       330 1.23191E+00
 -1       331 1.50500E+00
 -1       332 1.58703E+00
 -1       333 1.70538E+00
 -1       334 1.31581E+00
 -1       335 1.04313E+00
 -1       336 6.98287E-01
 -1       337 7.00579E-01
 -1       338 7.66770E-01
 -1       339 8.10616E-01
 -1       340 7.73086E-01
 -1       341 8.67562E-01
 -1       342 9.52249E-01
 -1       343 1.46663E+00
 -1       344 1.93820E+00
 -1       345 2.50552E+00
 -1       346 2.48503E+00
 -1       347 2.59925E+00
 -1       348 2.31124E+00
 -1       349 1.74395E+00
 -1       350 1.10712E+00
 -1       351 9.12338E-01
 -1       352 8.55631E-01
 -1       353 1.04851E+00
 -1       354 1.07404E+00
 -1       355 9.81889E-01
 -1       356 8.75552E-01
 -1       357 7.81424E-01
 -1       358 6.63567E-01
 -1       359 5.39987E-01
 -1       360 4.24148E-01
 -1       361 3.22884E-01
 -1       362 2.38590E-01
 -1       363 1.71003E-01
 -1       364 1.18471E-01
 -1       365 8.57886E-02
 -1       366 6.15845E-02
 -1       367 4.50387E-02
 -1       368 3.76867E-02
 -1       369 3.08004E-02
 -1       370 2.46222E-02
 -1       371 1.92492E-02
 -1       372 1.46848E-02
 -1       373 1.22050E-02
 -1       374 1.01296E-02
 -1       375 8.10194E-03
 -1       376 6.25512E-03
 -1       377 4.74057E-03
 -1       378 3.44364E-03
 -1       379 2.51329E-03
 -1       380 1.90686E-03
 -1       381 6.01419E-01
 -1       382 5.32990E-01
 -1       383 5.88257E-01
 -1       384 6.12366E-01
 -1       385 5.43423E-01
 -1       386 5.51470E-01
 -1       387 6.85864E-01
 -1       388 1.21490E+00
 -1       389 1.79214E+00
 -1       390 1.96993E+00
 -1       391 1.96993E+00
 -1       392 1.97478E+00
 -1       393 2.27675E+00
 -1       394 1.98312E+00
 -1       395 1.28609E+00
 -1       396 7.98505E-01
 -1       397 6.36181E-01
 -1       398 8.44373E-01
 -1       399 8.95050E-01
 -1       400 9.25520E-01
 -1       401 8.67243E-01
 -1       402 7.77303E-01
 -1       403 6.77913E-01
 -1       404 5.62941E-01
 -1       405 4.49211E-01
 -1       406 3.46273E-01
 -1       407 2.58477E-01
 -1       408 1.89397E-01
 -1       409 1.43954E-01
 -1       410 1.06766E-01
 -1       411 7.71730E-02
 -1       412 5.41928E-02
 -1       413 3.67492E-02
 -1       414 2.73373E-02
 -1       415 2.33442E-02
 -1       416 1.93837E-02
 -1       417 1.56776E-02
 -1       418 1.23417E-02
 -1       419 9.87822E-03
 -1       420 8.35879E-03
 -1       421 6.90261E-03
 -1       422 5.63200E-03
 -1       423 4.49108E-03
 -1       424 3.36106E-03
 -1       425 2.46337E-03
 -1       426 1.67916E-03
 -1       427 8.59227E-04
 -1       428 1.58714E-03
 -1       429 1.58714E-03
 -1       430 1.09676E-03
 -1       431 1.28394E-03
 -1       432 1.36045E-03
 -1       433 1.36045E-03
 -1       434 1.35769E-03
 -1       435 1.35769E-03
 -1       436 1.28620E-03
 -1       437 1.10980E-03
 -1       438 8.70515E-04
 -1       439 1.50048E-03
 -1       440 2.80303E+01
 -1       441 2.97043E+01
 -1       442 2.25427E+01
 -1       443 1.59047E+01
 -1       444 8.69597E+00
 -1       445 1.65903E+00
 -1       446 9.76670E+00
 -1       447 1.22429E+01
 -1       448 1.15851E+01
 -1       449 8.86335E+00
 -1       450 7.38258E+00
 -1       451 1.38534E+01
 -1       452 2.42124E+01
 -1       453 2.50426E+01
 -1       454 2.96077E+01
 -1       455 2.71889E+01
 -1       456 3.24692E+01
 -1       457 2.03263E+01
 -1       458 1.16216E+01
 -1       459 6.08436E+00
 -1       460 9.71261E+00
 -1       461 1.08389E+01
 -1       462 9.97823E+00
 -1       463 9.56938E+00
 -1       464 7.10954E+00
 -1       465 1.01391E+01
 -1       466 1.78463E+01
 -1       467 3.11686E+01
 -1       468 2.70052E+01
 -1       469 7.66985E+00
 -1       470 8.70727E+00
 -1       471 2.95185E+01
 -1       472 2.31988E+01
 -1       473 1.23220E+00
 -1       474 7.85960E-01
 -1       475 9.14669E-01
 -1       476 3.19220E-01
 -1       477 5.79137E-01
 -1       478 7.96055E-01
 -1       479 9.03349E-01
 -1       480 9.87825E-01
 -1       481 1.33285E+00
 -1       482 7.13599E-01
 -1       483 1.13441E+00
 -1       484 5.19639E+00
 -1       485 8.49419E-01
 -1       486 9.10588E-01
 -1       487 1.01860E+00
 -1       488 1.12676E+00
 -1       489 1.18287E+00
 -1       490 1.51378E+00
 -1       491 1.68606E+00
 -1       492 1.95352E+00
 -1       493 2.19090E+00
 -1       494 3.25658E+00
 -1       495 3.34261E+00
 -1       496 2.76586E+00
 -1       497 1.86575E+00
 -1       498 1.77699E+00
 -1       499 1.69307E+00
 -1       500 1.34956E+00
 -1       501 1.30073E+00
 -1       502 1.19589E+00
 -1       503 1.04889E+00
 -1       504 9.30553E-01
 -1       505 8.35881E-01
 -1       506 7.17023E-01
 -1       507 5.93068E-01
 -1       508 4.75963E-01
 -1       509 3.72061E-01
 -1       510 2.83870E-01
 -1       511 2.11510E-01
 -1       512 1.53765E-01
 -1       513 1.08789E-01
 -1       514 7.45413E-02
 -1       515 4.90406E-02
 -1       516 3.18124E-02
 -1       517 2.19078E-02
 -1       518 1.87692E-02
 -1       519 1.61151E-02
 -1       520 1.34069E-02
 -1       521 1.08196E-02
 -1       522 8.45039E-03
 -1       523 7.14289E-03
 -1       524 5.84836E-03
 -1       525 4.54101E-03
 -1       526 3.44364E-03
 -1       527 2.48882E-03
 -1       528 8.00558E-01
 -1       529 8.31563E-01
 -1       530 8.60631E-01
 -1       531 1.07614E+00
 -1       532 1.23410E+00
 -1       533 1.54169E+00
 -1       534 1.87199E+00
 -1       535 2.43380E+00
 -1       536 2.30473E+00
 -1       537 2.39560E+00
 -1       538 1.83321E+00
 -1       539 1.47160E+00
 -1       540 1.10615E+00
 -1       541 1.07807E+00
 -1       542 9.35263E-01
 -1       543 9.82016E-01
 -1       544 9.37853E-01
 -1       545 8.54047E-01
 -1       546 7.82030E-01
 -1       547 6.96603E-01
 -1       548 5.91370E-01
 -1       549 4.83091E-01
 -1       550 3.82027E-01
 -1       551 2.93457E-01
 -1       552 2.19274E-01
 -1       553 1.59295E-01
 -1       554 1.12217E-01
 -1       555 7.62358E-02
 -1       556 5.09224E-02
 -1       557 3.57255E-02
 -1       558 2.73373E-02
 -1       559 2.33442E-02
 -1       560 1.93837E-02
 -1       561 1.56776E-02
 -1       562 1.23417E-02
 -1       563 9.87822E-03
 -1       564 8.35879E-03
 -1       565 6.77324E-03
 -1       566 5.22615E-03
 -1       567 3.97969E-03
 -1       568 2.85163E-03
 -1       569 2.13460E-03
 -1       570 1.55181E-03
 -1       571 1.65540E-03
 -1       572 1.85740E-03
 -1       573 1.47205E-03
 -1       574 1.65540E-03
 -1       575 1.62545E-03
 -1       576 1.65624E-03
 -1       577 1.65624E-03
 -1       578 1.57738E-03
 -1       579 1.72967E-03
 -1       580 1.36952E-03
 -1       581 1.22614E+01
 -1       582 7.48199E-01
 -1       583 2.85631E+00
 -1       584 2.27762E+01
 -1       585 1.87011E+01
 -1       586 2.70052E+01
 -1       587 5.52015E-01
 -1       588 7.87106E+00
 -1       589 4.36658E+00
 -1       590 8.14711E+00
 -1       591 7.40679E+00
 -1       592 6.02963E+00
 -1       593 6.44863E+00
 -1       594 1.11809E+01
 -1       595 1.73067E+01
 -1       596 2.50426E+01
 -1       597 2.06697E+01
 -1       598 1.65251E+01
 -1       599 1.04091E+01
 -1       600 6.83428E+00
 -1       601 4.14139E+00
 -1       602 6.84081E+00
 -1       603 9.19934E+00
 -1       604 5.20317E+00
 -1       605 5.68502E+00
 -1       606 9.12218E+00
 -1       607 1.33856E+01
 -1       608 1.65903E+00
 -1       609 1.33285E+00
 -1       610 1.65903E+00
 -1       611 9.18294E+00
 -1       612 7.89312E+00
 -1       613 1.89108E+01
 -1       614 2.24144E+01
 -1       615 1.58419E-03
 -1       616 1.17489E+01
 -1       617 1.70566E+01
 -1       618 4.41853E+00
 -1       619 8.09778E-01
 -1       620 5.66199E-01
 -1       621 1.09433E+00
 -1       622 1.09433E+00
 -1       623 1.11940E+00
 -1       624 2.74394E-03
 -1       625 9.81467E-01
 -1       626 1.12189E+00
 -1       627 1.36262E+00
 -1       628 1.65456E+00
 -1       629 1.97160E+00
 -1       630 2.43611E+00
 -1       631 3.60832E+00
 -1       632 2.15362E+00
 -1       633 3.25658E+00
 -1       634 6.66875E+00
 -1       635 3.57311E+00
 -1       636 2.76586E+00
 -1       637 2.81465E+00
 -1       638 2.74327E+00
 -1       639 2.22446E+00
 -1       640 1.93818E+00
 -1       641 1.58552E+00
 -1       642 1.26995E+00
 -1       643 1.09541E+00
 -1       644 9.32157E-01
 -1       645 7.72863E-01
 -1       646 6.27874E-01
 -1       647 5.01119E-01
 -1       648 3.93325E-01
 -1       649 3.03635E-01
 -1       650 2.30420E-01
 -1       651 1.71705E-01
 -1       652 1.25421E-01
 -1       653 8.95546E-02
 -1       654 6.22438E-02
 -1       655 4.18294E-02
 -1       656 2.68765E-02
 -1       657 1.61754E-02
 -1       658 1.05727E-02
 -1       659 9.89226E-03
 -1       660 8.98694E-03
 -1       661 7.77308E-03
 -1       662 6.43518E-03
 -1       663 5.15257E-03
 -1       664 4.26837E-03
 -1       665 3.33300E-03
 -1       666 2.44834E-03
 -1       667 1.23935E+00
 -1       668 3.79574E+00
 -1       669 1.10384E+00
 -1       670 1.79711E+00
 -1       671 1.94526E+00
 -1       672 2.95033E+00
 -1       673 3.90434E+00
 -1       674 4.02767E+00
 -1       675 4.90580E+00
 -1       676 2.96482E+00
 -1       677 1.84825E+00
 -1       678 1.88305E+00
 -1       679 1.79527E+00
 -1       680 1.41069E+00
 -1       681 1.32420E+00
 -1       682 1.15585E+00
 -1       683 9.75155E-01
 -1       684 8.62552E-01
 -1       685 7.54089E-01
 -1       686 6.36248E-01
 -1       687 5.21498E-01
 -1       688 4.16911E-01
 -1       689 3.25837E-01
 -1       690 2.49217E-01
 -1       691 1.86533E-01
 -1       692 1.36471E-01
 -1       693 9.73553E-02
 -1       694 6.74272E-02
 -1       695 4.50077E-02
 -1       696 2.85856E-02
 -1       697 1.80136E-02
 -1       698 1.36086E-02
 -1       699 1.23683E-02
 -1       700 1.07518E-02
 -1       701 8.99317E-03
 -1       702 7.24350E-03
 -1       703 5.83321E-03
 -1       704 4.80477E-03
 -1       705 3.74705E-03
 -1       706 2.81887E-03
 -1       707 2.45431E-03
 -1       708 1.86325E-03
 -1       709 1.90528E-03
 -1       710 1.86136E-03
 -1       711 1.90528E-03
 -1       712 9.28967E-01
 -1       713 1.90301E-03
 -1       714 1.90301E-03
 -1       715 2.74394E-03
 -1       716 1.51072E+01
 -1       717 2.94716E+00
 -1       718 3.12301E+00
 -1       719 9.33357E+00
 -1       720 1.32479E+00
 -1       721 1.16963E+00
 -1       722 1.20777E+00
 -1       723 8.33559E-01
 -1       724 5.56115E+00
 -1       725 9.17920E-01
 -1       726 4.22904E+00
 -1       727 4.76598E+00
 -1       728 3.90434E+00
 -1       729 5.15479E+00
 -1       730 1.30281E+01
 -1       731 4.43900E+00
 -1       732 1.44826E+01
 -1       733 1.02258E+01
 -1       734 7.34816E+00
 -1       735 3.39912E+00
 -1       736 5.03654E+00
 -1       737 1.37877E+01
 -1       738 1.13363E+01
 -1       739 4.06840E+00
 -1       740 1.14100E+00
 -1       741 5.29677E-01
 -1       742 7.64261E+00
 -1       743 5.46526E+00
 -1       744 5.83876E+00
 -1       745 1.01889E+01
 -1       746 1.89681E-03
 -1       747 1.21477E+01
 -1       748 2.85631E+00
 -1       749 1.03756E+01
 -1       750 7.41785E-01
 -1       751 6.14524E+00
 -1       752 5.56695E+00
 -1       753 1.81776E-03
 -1       754 1.59851E+00
 -1       755 4.84248E+00
 -1       756 1.22740E+00
 -1       757 1.24000E+00
 -1       758 1.53431E+00
 -1       759 1.87927E+00
 -1       760 2.40613E+00
 -1       761 3.37950E+00
 -1       762 4.32051E+00
 -1       763 3.17326E+00
 -1       764 3.31153E+00
 -1       765 3.25220E+00
 -1       766 2.17698E+00
 -1       767 1.76905E+00
 -1       768 1.40734E+00
 -1       769 1.08865E+00
 -1       770 8.54020E-01
 -1       771 6.74345E-01
 -1       772 5.46951E-01
 -1       773 4.33871E-01
 -1       774 3.36210E-01
 -1       775 2.54888E-01
 -1       776 1.89028E-01
 -1       777 1.36924E-01
 -1       778 9.72562E-02
 -1       779 6.81563E-02
 -1       780 4.63832E-02
 -1       781 3.10836E-02
 -1       782 2.02931E-02
 -1       783 1.25398E-02
 -1       784 7.11214E-03
 -1       785 5.62692E-03
 -1       786 5.83054E-03
 -1       787 5.49501E-03
 -1       788 4.84326E-03
 -1       789 4.03151E-03
 -1       790 3.35780E-03
 -1       791 2.94716E+00
 -1       792 2.09014E-03
 -1       793 3.03520E+00
 -1       794 2.82598E+00
 -1       795 2.64714E+00
 -1       796 3.40588E+00
 -1       797 2.32705E+00
 -1       798 1.92581E+00
 -1       799 1.52099E+00
 -1       800 1.22931E+00
 -1       801 1.03371E+00
 -1       802 8.46582E-01
 -1       803 6.89410E-01
 -1       804 5.49734E-01
 -1       805 4.30619E-01
 -1       806 3.32885E-01
 -1       807 2.55755E-01
 -1       808 1.93687E-01
 -1       809 1.44328E-01
 -1       810 1.05591E-01
 -1       811 7.56237E-02
 -1       812 5.28005E-02
 -1       813 3.57145E-02
 -1       814 2.31682E-02
 -1       815 1.41590E-02
 -1       816 8.29996E-03
 -1       817 7.30675E-03
 -1       818 7.07927E-03
 -1       819 6.40021E-03
 -1       820 5.47808E-03
 -1       821 4.45676E-03
 -1       822 3.72094E-03
 -1       823 2.96639E-03
 -1       824 2.38676E-03
 -1       825 1.48741E+00
 -1       826 8.74705E+00
 -1       827 1.03971E+00
 -1       828 1.87666E-03
 -1       829 2.79845E-03
 -1       830 3.84781E+00
 -1       831 1.14667E+01
 -1       832 2.43158E-03
 -1       833 1.17494E+01
 -1       834 1.54501E+00
 -1       835 8.26529E+00
 -1       836 6.76420E+00
 -1       837 9.30343E+00
 -1       838 8.45989E+00
 -1       839 1.16963E+00
 -1       840 1.16963E+00
 -1       841 2.83886E-03
 -1       842 8.10211E-01
 -1       843 3.56200E+00
 -1       844 1.54939E+00
 -1       845 1.57766E+00
 -1       846 6.45322E+00
 -1       847 1.00748E+00
 -1       848 2.31055E+00
 -1       849 6.60485E+00
 -1       850 2.19513E-03
 -1       851 2.04099E-03
 -1       852 9.08991E+00
 -1       853 4.89332E+00
 -1       854 7.86359E+00
 -1       855 8.93149E-01
 -1       856 4.51674E+00
 -1       857 1.29734E+00
 -1       858 2.19513E-03
 -1       859 1.90840E+00
 -1       860 7.09579E+00
 -1       861 1.56448E+00
 -1       862 6.66033E+00
 -1       863 2.23145E+00
 -1       864 3.88356E+00
 -1       865 5.68565E+00
 -1       866 4.96102E+00
 -1       867 3.84412E+00
 -1       868 2.72725E+00
 -1       869 1.86497E+00
 -1       870 1.36030E+00
 -1       871 1.04292E+00
 -1       872 8.45523E-01
 -1       873 6.74345E-01
 -1       874 5.30653E-01
 -1       875 4.12265E-01
 -1       876 3.16004E-01
 -1       877 2.38664E-01
 -1       878 1.77288E-01
 -1       879 1.29227E-01
 -1       880 9.21308E-02
 -1       881 6.39468E-02
 -1       882 4.40604E-02
 -1       883 2.93439E-02
 -1       884 1.86182E-02
 -1       885 1.09969E-02
 -1       886 5.85347E-03
 -1       887 3.00037E-03
 -1       888 3.73545E-03
 -1       889 3.88832E-03
 -1       890 3.64393E-03
 -1       891 3.17408E-03
 -1       892 1.08289E+00
 -1       893 2.32005E+00
 -1       894 1.73910E+00
 -1       895 1.31096E+00
 -1       896 9.87270E-01
 -1       897 7.85159E-01
 -1       898 6.37019E-01
 -1       899 5.15870E-01
 -1       900 4.08597E-01
 -1       901 3.17220E-01
 -1       902 2.41528E-01
 -1       903 1.80237E-01
 -1       904 1.31603E-01
 -1       905 9.37486E-02
 -1       906 6.55502E-02
 -1       907 4.49948E-02
 -1       908 2.97101E-02
 -1       909 1.86063E-02
 -1       910 1.08741E-02
 -1       911 5.71082E-03
 -1       912 3.99687E-03
 -1       913 4.55724E-03
 -1       914 4.52422E-03
 -1       915 4.12263E-03
 -1       916 3.51328E-03
 -1       917 2.92713E-03
 -1       918 1.86646E-03
 -1       919 4.99991E+00
 -1       920 8.10211E-01
 -1       921 3.93052E+00
 -1       922 2.83886E-03
 -1       923 5.60723E+00
 -1       924 2.52789E+00
 -1       925 6.51700E+00
 -1       926 3.68038E+00
 -1       927 6.50715E+00
 -1       928 1.24581E+00
 -1       929 3.65401E+00
 -1       930 2.40854E-03
 -1       931 6.59080E+00
 -1       932 7.45376E+00
 -1       933 4.84415E+00
 -1       934 1.94262E+00
 -1       935 5.08690E+00
 -1       936 3.93437E+00
 -1       937 1.90218E-03
 -1       938 1.84683E+00
 -1       939 1.18554E+00
 -1       940 2.51819E-03
 -1       941 5.73151E+00
 -1       942 2.20601E-03
 -1       943 1.20919E+00
 -1       944 5.90234E+00
 -1       945 2.58969E-03
 -1       946 2.08885E+00
 -1       947 2.13812E-03
 -1       948 4.31769E+00
 -1       949 1.22411E+00
 -1       950 2.65469E+00
 -1       951 2.76425E+00
 -1       952 4.23603E+00
 -1       953 1.67658E+00
 -1       954 4.29912E+00
 -1       955 2.60324E+00
 -1       956 1.79741E+00
 -1       957 1.36030E+00
 -1       958 1.03056E+00
 -1       959 7.86403E-01
 -1       960 6.02982E-01
 -1       961 4.62871E-01
 -1       962 3.54168E-01
 -1       963 2.69064E-01
 -1       964 2.02278E-01
 -1       965 1.50030E-01
 -1       966 1.09448E-01
 -1       967 7.82544E-02
 -1       968 5.45852E-02
 -1       969 3.71833E-02
 -1       970 2.50540E-02
 -1       971 1.61654E-02
 -1       972 9.79193E-03
 -1       973 5.38824E-03
 -1       974 2.81037E-03
 -1       975 2.45284E-03
 -1       976 2.80723E-03
 -1       977 2.78056E-03
 -1       978 2.82918E+00
 -1       979 9.87270E-01
 -1       980 7.85159E-01
 -1       981 6.18790E-01
 -1       982 4.83652E-01
 -1       983 3.74501E-01
 -1       984 2.86756E-01
 -1       985 2.16683E-01
 -1       986 1.61222E-01
 -1       987 1.17814E-01
 -1       988 8.42788E-02
 -1       989 5.87531E-02
 -1       990 4.02038E-02
 -1       991 2.69730E-02
 -1       992 1.72904E-02
 -1       993 1.03639E-02
 -1       994 5.60819E-03
 -1       995 2.84910E-03
 -1       996 2.95510E-03
 -1       997 3.23798E-03
 -1       998 3.11745E-03
 -1       999 2.52789E+00
 -1      1000 4.12039E+00
 -1      1001 3.57674E+00
 -1      1002 2.68030E-03
 -1      1003 2.48481E+00
 -1      1004 1.08168E+00
 -1      1005 1.24756E+00
 -1      1006 4.43480E+00
 -1      1007 5.80738E+00
 -1      1008 3.37023E+00
 -1      1009 5.08690E+00
 -1      1010 3.54262E+00
 -1      1011 2.71385E-03
 -1      1012 4.93407E+00
 -1      1013 1.99729E-03
 -1      1014 1.65449E+00
 -1      1015 2.20601E-03
 -1      1016 1.80716E-03
 -1      1017 1.10054E+00
 -1      1018 2.01143E+00
 -1      1019 2.01143E+00
 -1      1020 1.98485E-03
 -1      1021 4.31769E+00
 -1      1022 2.35424E+00
 -1      1023 1.67142E+00
 -1      1024 1.17144E+00
 -1      1025 8.44273E-01
 -1      1026 6.24620E-01
 -1      1027 4.70498E-01
 -1      1028 3.57251E-01
 -1      1029 2.71444E-01
 -1      1030 2.05257E-01
 -1      1031 1.53807E-01
 -1      1032 1.13802E-01
 -1      1033 8.28576E-02
 -1      1034 5.91388E-02
 -1      1035 4.11782E-02
 -1      1036 2.80025E-02
 -1      1037 1.95858E-02
 -1      1038 1.32391E-02
 -1      1039 8.53698E-03
 -1      1040 5.12305E-03
 -1      1041 2.69052E-03
 -1      1042 1.72356E-03
 -1      1043 2.10535E-03
 -1      1044 5.31729E-01
 -1      1045 2.76151E+00
 -1      1046 6.99180E-01
 -1      1047 9.27676E-01
 -1      1048 4.05877E-01
 -1      1049 3.09311E-01
 -1      1050 2.34305E-01
 -1      1051 1.75775E-01
 -1      1052 1.30170E-01
 -1      1053 9.48492E-02
 -1      1054 6.77539E-02
 -1      1055 4.72236E-02
 -1      1056 3.19580E-02
 -1      1057 2.15856E-02
 -1      1058 1.39735E-02
 -1      1059 8.72702E-03
 -1      1060 5.22744E-03
 -1      1061 2.84910E-03
 -1      1062 2.02466E-03
 -1      1063 2.39944E-03
 -1      1064 3.69390E+00
 -1      1065 3.31012E+00
 -1      1066 2.92780E+00
 -1      1067 2.16566E+00
 -1      1068 2.11424E-03
 -1      1069 1.74127E-03
 -1      1070 3.06790E+00
 -1      1071 3.97465E+00
 -1      1072 3.58204E+00
 -1      1073 1.67683E-03
 -1      1074 1.89217E+00
 -1      1075 1.24756E+00
 -1      1076 2.65469E+00
 -1      1077 1.67658E+00
 -1      1078 1.79923E+00
 -1      1079 1.86062E-03
 -1      1080 1.30463E+00
 -1      1081 9.47660E-01
 -1      1082 7.02040E-01
 -1      1083 5.28882E-01
 -1      1084 4.02135E-01
 -1      1085 3.06461E-01
 -1      1086 2.32781E-01
 -1      1087 1.75464E-01
 -1      1088 1.32461E-01
 -1      1089 9.90285E-02
 -1      1090 7.28140E-02
 -1      1091 5.24883E-02
 -1      1092 3.69369E-02
 -1      1093 2.55319E-02
 -1      1094 1.75704E-02
 -1      1095 1.16224E-02
 -1      1096 7.25575E-03
 -1      1097 4.10935E-03
 -1      1098 1.91336E-03
 -1      1099 4.02135E-01
 -1      1100 2.03062E+00
 -1      1101 5.28882E-01
 -1      1102 9.47660E-01
 -1      1103 3.06461E-01
 -1      1104 2.32781E-01
 -1      1105 1.75464E-01
 -1      1106 1.30777E-01
 -1      1107 9.60618E-02
 -1      1108 6.93005E-02
 -1      1109 4.88948E-02
 -1      1110 3.44079E-02
 -1      1111 2.35690E-02
 -1      1112 1.55331E-02
 -1      1113 9.67897E-03
 -1      1114 5.44680E-03
 -1      1115 2.67394E-03
 -1      1116 3.71620E+00
 -1      1117 7.02040E-01
 -1      1118 2.93816E+00
 -1      1119 1.38598E-03
 -1      1120 1.30463E+00
 -1      1121 1.79923E+00
 -1      1122 1.22004E+01
 -1      1123 7.89621E+00
 -1      1124 2.84176E+00
 -1      1125 1.81343E+00
 -1      1126 1.37626E+00
 -1      1127 1.08579E+00
 -1      1128 8.39627E-01
 -1      1129 6.29035E-01
 -1      1130 5.42938E-01
 -1      1131 6.50161E-01
 -1      1132 8.54761E-01
 -1      1133 1.09757E+00
 -1      1134 1.39385E+00
 -1      1135 1.82424E+00
 -1      1136 2.76934E+00
 -1      1137 5.74208E+00
 -1      1138 1.05833E+01
 -1      1139 1.22004E+01
 -1      1140 7.97270E+00
 -1      1141 3.08216E+00
 -1      1142 1.93898E+00
 -1      1143 1.13944E+00
 -1      1144 8.62215E-01
 -1      1145 1.03674E+00
 -1      1146 1.16931E+00
 -1      1147 1.20683E+00
 -1      1148 1.30254E+00
 -1      1149 1.59637E+00
 -1      1150 2.59401E+00
 -1      1151 3.79824E+00
 -1      1152 4.24312E+00
 -1      1153 4.24577E+00
 -1      1154 4.11782E+00
 -1      1155 3.32082E+00
 -1      1156 2.20693E+00
 -1      1157 1.60742E+00
 -1      1158 1.45274E+00
 -1      1159 1.42706E+00
 -1      1160 1.39290E+00
 -1      1161 1.29777E+00
 -1      1162 1.09547E+00
 -1      1163 8.81994E-01
 -1      1164 6.95586E-01
 -1      1165 5.57149E-01
 -1      1166 4.63841E-01
 -1      1167 3.78605E-01
 -1      1168 2.99575E-01
 -1      1169 2.30655E-01
 -1      1170 1.73103E-01
 -1      1171 1.28668E-01
 -1      1172 1.00958E-01
 -1      1173 8.32575E-02
 -1      1174 6.71648E-02
 -1      1175 5.30980E-02
 -1      1176 4.11625E-02
 -1      1177 3.12727E-02
 -1      1178 2.39774E-02
 -1      1179 1.92495E-02
 -1      1180 1.56402E-02
 -1      1181 1.23808E-02
 -1      1182 9.49315E-03
 -1      1183 7.03869E-03
 -1      1184 5.14477E-03
 -1      1185 4.07864E-03
 -1      1186 3.37106E-03
 -1      1187 2.55194E-03
 -1      1188 1.30542E-03
 -1      1189 1.31270E+01
 -1      1190 8.08552E+00
 -1      1191 2.45011E+00
 -1      1192 1.59220E+00
 -1      1193 1.13276E+00
 -1      1194 8.25836E-01
 -1      1195 7.58163E-01
 -1      1196 8.51119E-01
 -1      1197 1.06695E+00
 -1      1198 1.27526E+00
 -1      1199 1.50803E+00
 -1      1200 2.02814E+00
 -1      1201 2.79990E+00
 -1      1202 3.43224E+00
 -1      1203 3.70909E+00
 -1      1204 3.79636E+00
 -1      1205 3.34580E+00
 -1      1206 2.27115E+00
 -1      1207 1.39458E+00
 -1      1208 1.12453E+00
 -1      1209 1.18162E+00
 -1      1210 1.25628E+00
 -1      1211 1.23373E+00
 -1      1212 1.13738E+00
 -1      1213 9.79804E-01
 -1      1214 8.16406E-01
 -1      1215 6.58466E-01
 -1      1216 5.09894E-01
 -1      1217 3.83151E-01
 -1      1218 2.91526E-01
 -1      1219 2.26084E-01
 -1      1220 1.70713E-01
 -1      1221 1.25538E-01
 -1      1222 8.97614E-02
 -1      1223 6.24757E-02
 -1      1224 4.68136E-02
 -1      1225 3.89249E-02
 -1      1226 3.16336E-02
 -1      1227 2.51710E-02
 -1      1228 2.03109E-02
 -1      1229 1.73069E-02
 -1      1230 1.49362E-02
 -1      1231 1.25155E-02
 -1      1232 1.01763E-02
 -1      1233 8.02288E-03
 -1      1234 6.12748E-03
 -1      1235 4.50533E-03
 -1      1236 3.33318E-03
 -1      1237 2.21120E-03
 -1      1238 9.45024E-04
 -1      1239 5.52093E-04
 -1      1240 7.34000E-04
 -1      1241 6.02872E-04
 -1      1242 3.20041E-04
 -1      1243 2.61697E-04
 -1      1244 4.16596E-04
 -1      1245 5.11160E-04
 -1      1246 5.52765E-04
 -1      1247 5.61348E-04
 -1      1248 5.52545E-04
 -1      1249 5.08458E-04
 -1      1250 4.13314E-04
 -1      1251 2.59410E-04
 -1      1252 3.22636E-04
 -1      1253 7.26608E-04
 -1      1254 1.09022E-03
 -1      1255 8.26169E-04
 -1      1256 2.66696E+01
 -1      1257 3.69261E+01
 -1      1258 4.71826E+01
 -1      1259 3.33002E+01
 -1      1260 1.58999E+01
 -1      1261 1.24993E+01
 -1      1262 1.26165E+01
 -1      1263 1.24791E+01
 -1      1264 1.23416E+01
 -1      1265 1.36576E+01
 -1      1266 2.73976E+01
 -1      1267 3.98215E+01
 -1      1268 3.22250E+01
 -1      1269 2.48777E+01
 -1      1270 2.59041E+01
 -1      1271 2.80041E+01
 -1      1272 2.97538E+01
 -1      1273 2.89997E+01
 -1      1274 2.00933E+01
 -1      1275 1.23679E+01
 -1      1276 1.22423E+01
 -1      1277 1.20651E+01
 -1      1278 1.20134E+01
 -1      1279 1.18804E+01
 -1      1280 1.72457E+01
 -1      1281 3.59552E+01
 -1      1282 4.91664E+01
 -1      1283 3.68238E+01
 -1      1284 2.55754E+01
 -1      1285 1.22004E+01
 -1      1286 4.69257E+00
 -1      1287 8.99678E+00
 -1      1288 2.31024E+00
 -1      1289 3.06048E+00
 -1      1290 4.16105E+00
 -1      1291 1.66362E+00
 -1      1292 1.94171E+00
 -1      1293 2.16043E+00
 -1      1294 1.29498E+00
 -1      1295 1.45407E+00
 -1      1296 1.58235E+00
 -1      1297 1.00998E+00
 -1      1298 1.14137E+00
 -1      1299 1.21917E+00
 -1      1300 7.68398E-01
 -1      1301 8.83183E-01
 -1      1302 9.38754E-01
 -1      1303 5.64285E-01
 -1      1304 6.60092E-01
 -1      1305 7.03648E-01
 -1      1306 4.97234E-01
 -1      1307 4.87526E-01
 -1      1308 5.18582E-01
 -1      1309 6.82145E-01
 -1      1310 5.84631E-01
 -1      1311 5.29218E-01
 -1      1312 8.94029E-01
 -1      1313 7.86944E-01
 -1      1314 7.21413E-01
 -1      1315 1.16011E+00
 -1      1316 1.02439E+00
 -1      1317 9.56574E-01
 -1      1318 1.47414E+00
 -1      1319 1.31358E+00
 -1      1320 1.24040E+00
 -1      1321 1.95265E+00
 -1      1322 1.68282E+00
 -1      1323 1.60255E+00
 -1      1324 2.97964E+00
 -1      1325 2.30437E+00
 -1      1326 2.16295E+00
 -1      1327 5.91638E+00
 -1      1328 3.61891E+00
 -1      1329 3.15394E+00
 -1      1330 1.31270E+01
 -1      1331 1.05833E+01
 -1      1332 8.46008E+00
 -1      1333 1.31270E+01
 -1      1334 7.97270E+00
 -1      1335 3.74498E+00
 -1      1336 3.08216E+00
 -1      1337 2.41933E+00
 -1      1338 3.08216E+00
 -1      1339 1.93898E+00
 -1      1340 1.45862E+00
 -1      1341 1.93898E+00
 -1      1342 1.13944E+00
 -1      1343 8.20261E-01
 -1      1344 1.13944E+00
 -1      1345 8.01739E-01
 -1      1346 8.43693E-01
 -1      1347 8.01739E-01
 -1      1348 9.04169E-01
 -1      1349 1.03674E+00
 -1      1350 8.43693E-01
 -1      1351 1.16931E+00
 -1      1352 1.16931E+00
 -1      1353 1.03674E+00
 -1      1354 1.16618E+00
 -1      1355 1.20369E+00
 -1      1356 1.16618E+00
 -1      1357 1.24434E+00
 -1      1358 1.30254E+00
 -1      1359 1.20369E+00
 -1      1360 1.36074E+00
 -1      1361 1.59637E+00
 -1      1362 1.30254E+00
 -1      1363 1.96436E+00
 -1      1364 2.72635E+00
 -1      1365 1.72872E+00
 -1      1366 3.35600E+00
 -1      1367 3.79824E+00
 -1      1368 2.72635E+00
 -1      1369 4.24047E+00
 -1      1370 4.24312E+00
 -1      1371 3.79824E+00
 -1      1372 4.24577E+00
 -1      1373 4.24577E+00
 -1      1374 4.24312E+00
 -1      1375 4.11782E+00
 -1      1376 3.98987E+00
 -1      1377 4.11782E+00
 -1      1378 3.32082E+00
 -1      1379 2.65176E+00
 -1      1380 3.32082E+00
 -1      1381 2.20693E+00
 -1      1382 1.76209E+00
 -1      1383 2.20693E+00
 -1      1384 1.55456E+00
 -1      1385 1.39988E+00
 -1      1386 1.55456E+00
 -1      1387 1.45274E+00
 -1      1388 1.45274E+00
 -1      1389 1.39988E+00
 -1      1390 1.42706E+00
 -1      1391 1.40138E+00
 -1      1392 1.42706E+00
 -1      1393 1.39290E+00
 -1      1394 1.38441E+00
 -1      1395 1.39290E+00
 -1      1396 1.29777E+00
 -1      1397 1.21114E+00
 -1      1398 1.29777E+00
 -1      1399 1.10617E+00
 -1      1400 9.90498E-01
 -1      1401 1.10617E+00
 -1      1402 9.17427E-01
 -1      1403 8.19624E-01
 -1      1404 9.28128E-01
 -1      1405 7.55974E-01
 -1      1406 6.67370E-01
 -1      1407 7.91408E-01
 -1      1408 5.97975E-01
 -1      1409 5.48142E-01
 -1      1410 6.58363E-01
 -1      1411 4.82219E-01
 -1      1412 4.38744E-01
 -1      1413 5.23045E-01
 -1      1414 3.81044E-01
 -1      1415 3.39284E-01
 -1      1416 3.99422E-01
 -1      1417 2.99575E-01
 -1      1418 2.62304E-01
 -1      1419 3.02014E-01
 -1      1420 2.33657E-01
 -1      1421 2.02007E-01
 -1      1422 2.33657E-01
 -1      1423 1.77980E-01
 -1      1424 1.52078E-01
 -1      1425 1.80982E-01
 -1      1426 1.32312E-01
 -1      1427 1.13779E-01
 -1      1428 1.37189E-01
 -1      1429 1.00958E-01
 -1      1430 9.17822E-02
 -1      1431 1.04603E-01
 -1      1432 8.32575E-02
 -1      1433 7.47329E-02
 -1      1434 8.32575E-02
 -1      1435 6.71648E-02
 -1      1436 5.95967E-02
 -1      1437 6.71648E-02
 -1      1438 5.30980E-02
 -1      1439 4.65993E-02
 -1      1440 5.30980E-02
 -1      1441 4.11625E-02
 -1      1442 3.57256E-02
 -1      1443 4.11625E-02
 -1      1444 3.15176E-02
 -1      1445 2.70647E-02
 -1      1446 3.15176E-02
 -1      1447 2.39774E-02
 -1      1448 2.11350E-02
 -1      1449 2.42223E-02
 -1      1450 1.92495E-02
 -1      1451 1.73640E-02
 -1      1452 1.92495E-02
 -1      1453 1.56402E-02
 -1      1454 1.39165E-02
 -1      1455 1.56402E-02
 -1      1456 1.23808E-02
 -1      1457 1.08450E-02
 -1      1458 1.23808E-02
 -1      1459 9.62607E-03
 -1      1460 8.27418E-03
 -1      1461 9.62607E-03
 -1      1462 7.21748E-03
 -1      1463 6.11492E-03
 -1      1464 7.35041E-03
 -1      1465 5.33004E-03
 -1      1466 4.53868E-03
 -1      1467 5.50883E-03
 -1      1468 4.07864E-03
 -1      1469 3.80388E-03
 -1      1470 4.26392E-03
 -1      1471 3.37106E-03
 -1      1472 2.93825E-03
 -1      1473 3.37106E-03
 -1      1474 2.55194E-03
 -1      1475 2.16563E-03
 -1      1476 2.55194E-03
 -1      1477 1.68638E-03
 -1      1478 1.68638E-03
 -1      1479 3.04407E+00
 -1      1480 8.08552E+00
 -1      1481 8.08552E+00
 -1      1482 1.85616E+00
 -1      1483 2.45011E+00
 -1      1484 2.45011E+00
 -1      1485 1.32825E+00
 -1      1486 1.59220E+00
 -1      1487 1.59220E+00
 -1      1488 9.37263E-01
 -1      1489 1.13276E+00
 -1      1490 1.13276E+00
 -1      1491 7.14408E-01
 -1      1492 8.25836E-01
 -1      1493 8.25836E-01
 -1      1494 7.18596E-01
 -1      1495 6.74841E-01
 -1      1496 6.74841E-01
 -1      1497 8.51119E-01
 -1      1498 8.01918E-01
 -1      1499 7.18596E-01
 -1      1500 1.06695E+00
 -1      1501 9.00321E-01
 -1      1502 8.51119E-01
 -1      1503 1.27526E+00
 -1      1504 1.23359E+00
 -1      1505 1.06695E+00
 -1      1506 1.50803E+00
 -1      1507 1.31693E+00
 -1      1508 1.27526E+00
 -1      1509 2.02814E+00
 -1      1510 1.69913E+00
 -1      1511 1.50803E+00
 -1      1512 2.79990E+00
 -1      1513 2.35714E+00
 -1      1514 2.02814E+00
 -1      1515 3.43224E+00
 -1      1516 3.24266E+00
 -1      1517 2.79990E+00
 -1      1518 3.70909E+00
 -1      1519 3.62182E+00
 -1      1520 3.43224E+00
 -1      1521 3.79636E+00
 -1      1522 3.79636E+00
 -1      1523 3.70909E+00
 -1      1524 2.89524E+00
 -1      1525 3.34580E+00
 -1      1526 3.34580E+00
 -1      1527 1.64705E+00
 -1      1528 2.27115E+00
 -1      1529 2.27115E+00
 -1      1530 1.14211E+00
 -1      1531 1.39458E+00
 -1      1532 1.39458E+00
 -1      1533 1.07773E+00
 -1      1534 1.09531E+00
 -1      1535 1.09531E+00
 -1      1536 1.18162E+00
 -1      1537 1.10696E+00
 -1      1538 1.07773E+00
 -1      1539 1.25628E+00
 -1      1540 1.25628E+00
 -1      1541 1.18162E+00
 -1      1542 1.21119E+00
 -1      1543 1.23373E+00
 -1      1544 1.23373E+00
 -1      1545 1.06357E+00
 -1      1546 1.13738E+00
 -1      1547 1.13738E+00
 -1      1548 8.96038E-01
 -1      1549 9.79804E-01
 -1      1550 9.79804E-01
 -1      1551 7.40431E-01
 -1      1552 8.20063E-01
 -1      1553 8.20063E-01
 -1      1554 5.91765E-01
 -1      1555 6.70072E-01
 -1      1556 6.73729E-01
 -1      1557 4.55148E-01
 -1      1558 5.25413E-01
 -1      1559 5.37019E-01
 -1      1560 3.40549E-01
 -1      1561 3.97027E-01
 -1      1562 4.12546E-01
 -1      1563 2.57428E-01
 -1      1564 2.92575E-01
 -1      1565 3.06451E-01
 -1      1566 1.95789E-01
 -1      1567 2.26084E-01
 -1      1568 2.27133E-01
 -1      1569 1.45637E-01
 -1      1570 1.70713E-01
 -1      1571 1.70713E-01
 -1      1572 1.06102E-01
 -1      1573 1.26202E-01
 -1      1574 1.26202E-01
 -1      1575 7.56289E-02
 -1      1576 9.13056E-02
 -1      1577 9.19695E-02
 -1      1578 5.25298E-02
 -1      1579 6.41387E-02
 -1      1580 6.56829E-02
 -1      1581 4.27604E-02
 -1      1582 4.68136E-02
 -1      1583 4.84766E-02
 -1      1584 3.50894E-02
 -1      1585 3.89249E-02
 -1      1586 3.89249E-02
 -1      1587 2.81778E-02
 -1      1588 3.16336E-02
 -1      1589 3.16336E-02
 -1      1590 2.21642E-02
 -1      1591 2.51710E-02
 -1      1592 2.51710E-02
 -1      1593 1.84576E-02
 -1      1594 2.03109E-02
 -1      1595 2.03109E-02
 -1      1596 1.61562E-02
 -1      1597 1.73069E-02
 -1      1598 1.73069E-02
 -1      1599 1.37161E-02
 -1      1600 1.49362E-02
 -1      1601 1.49362E-02
 -1      1602 1.13149E-02
 -1      1603 1.25155E-02
 -1      1604 1.25155E-02
 -1      1605 9.03764E-03
 -1      1606 1.01763E-02
 -1      1607 1.01763E-02
 -1      1608 7.00813E-03
 -1      1609 8.02288E-03
 -1      1610 8.02288E-03
 -1      1611 5.24683E-03
 -1      1612 6.12748E-03
 -1      1613 6.12748E-03
 -1      1614 3.76383E-03
 -1      1615 4.50533E-03
 -1      1616 4.50533E-03
 -1      1617 2.90253E-03
 -1      1618 3.33318E-03
 -1      1619 3.33318E-03
 -1      1620 1.59951E-03
 -1      1621 2.29085E-03
 -1      1622 2.29085E-03
 -1      1623 1.12693E-03
 -1      1624 7.71776E-04
 -1      1625 7.71776E-04
 -1      1626 6.40647E-04
 -1      1627 7.71776E-04
 -1      1628 8.09551E-04
 -1      1629 4.00662E-04
 -1      1630 5.52364E-04
 -1      1631 7.21268E-04
 -1      1632 4.68746E-04
 -1      1633 3.75388E-04
 -1      1634 6.07711E-04
 -1      1635 6.53839E-04
 -1      1636 5.92298E-04
 -1      1637 7.05989E-04
 -1      1638 7.57609E-04
 -1      1639 7.24587E-04
 -1      1640 9.00289E-04
 -1      1641 7.93017E-04
 -1      1642 7.84435E-04
 -1      1643 9.97861E-04
 -1      1644 7.93017E-04
 -1      1645 7.93017E-04
 -1      1646 1.02469E-03
 -1      1647 7.84135E-04
 -1      1648 7.92938E-04
 -1      1649 1.02461E-03
 -1      1650 7.20114E-04
 -1      1651 7.55398E-04
 -1      1652 9.95791E-04
 -1      1653 5.92085E-04
 -1      1654 6.51945E-04
 -1      1655 8.98885E-04
 -1      1656 3.74882E-04
 -1      1657 4.68926E-04
 -1      1658 7.07557E-04
 -1      1659 5.50935E-04
 -1      1660 3.93664E-04
 -1      1661 6.03180E-04
 -1      1662 7.97635E-04
 -1      1663 5.50935E-04
 -1      1664 6.21962E-04
 -1      1665 1.20713E-03
 -1      1666 1.09022E-03
 -1      1667 9.14545E-04
 -1      1668 1.68638E-03
 -1      1669 2.81869E+01
 -1      1670 2.81869E+01
 -1      1671 3.76065E+01
 -1      1672 2.73500E+01
 -1      1673 4.71826E+01
 -1      1674 4.71826E+01
 -1      1675 2.06622E+01
 -1      1676 3.45446E+01
 -1      1677 1.15040E+01
 -1      1678 1.50219E+01
 -1      1679 1.24993E+01
 -1      1680 1.23820E+01
 -1      1681 1.26165E+01
 -1      1682 1.26165E+01
 -1      1683 1.22923E+01
 -1      1684 1.24297E+01
 -1      1685 1.23416E+01
 -1      1686 1.23416E+01
 -1      1687 1.32610E+01
 -1      1688 1.19450E+01
 -1      1689 2.73976E+01
 -1      1690 1.49736E+01
 -1      1691 3.98215E+01
 -1      1692 3.98215E+01
 -1      1693 3.04707E+01
 -1      1694 3.80672E+01
 -1      1695 2.73673E+01
 -1      1696 2.71181E+01
 -1      1697 2.81445E+01
 -1      1698 2.73673E+01
 -1      1699 3.08980E+01
 -1      1700 2.95753E+01
 -1      1701 3.13249E+01
 -1      1702 3.08980E+01
 -1      1703 2.89997E+01
 -1      1704 3.01807E+01
 -1      1705 1.22956E+01
 -1      1706 2.00210E+01
 -1      1707 1.23679E+01
 -1      1708 1.23679E+01
 -1      1709 1.21168E+01
 -1      1710 1.22423E+01
 -1      1711 1.19220E+01
 -1      1712 1.19736E+01
 -1      1713 1.20134E+01
 -1      1714 1.20134E+01
 -1      1715 1.17475E+01
 -1      1716 1.18804E+01
 -1      1717 1.71156E+01
 -1      1718 1.16174E+01
 -1      1719 3.71596E+01
 -1      1720 2.39484E+01
 -1      1721 4.91664E+01
 -1      1722 4.91664E+01
 -1      1723 2.78248E+01
 -1      1724 4.01675E+01
 -1      1725 2.81869E+01
 -1      1726 2.70927E+01
 -1      1727 1.62663E+01
 -1      1728 3.45446E+01
 -1      1729 1.20658E-03
 -1      1730 1.24436E-03
 -1      1731 2.88673E+01
 -1      1732 3.76065E+01
 -1      1733 2.97043E+01
 -1      1734 1.15040E+01
 -1      1735 1.24993E+01
 -1      1736 1.24297E+01
 -1      1737 1.22923E+01
 -1      1738 1.19450E+01
 -1      1739 1.32610E+01
 -1      1740 2.73976E+01
 -1      1741 3.80672E+01
 -1      1742 3.29603E+01
 -1      1743 2.96077E+01
 -1      1744 3.10384E+01
 -1      1745 3.24692E+01
 -1      1746 3.13249E+01
 -1      1747 2.12020E+01
 -1      1748 1.22956E+01
 -1      1749 1.22423E+01
 -1      1750 1.19736E+01
 -1      1751 1.19220E+01
 -1      1752 1.18804E+01
 -1      1753 1.16174E+01
 -1      1754 1.83200E+01
 -1      1755 3.71596E+01
 -1      1756 4.01675E+01
 -1      1757 3.04364E+01
 -1      1758 8.99678E+00
 -1      1759 1.63805E+00
 -1      1760 2.00657E+00
 -1      1761 2.51992E+00
 -1      1762 4.15201E+00
 -1      1763 1.99753E+00
 -1      1764 1.05312E+00
 -1      1765 1.20674E+00
 -1      1766 8.33577E-01
 -1      1767 9.60377E-01
 -1      1768 9.47943E-01
 -1      1769 6.20376E-01
 -1      1770 7.28682E-01
 -1      1771 7.50304E-01
 -1      1772 4.47755E-01
 -1      1773 5.24514E-01
 -1      1774 5.49548E-01
 -1      1775 5.47533E-01
 -1      1776 4.60136E-01
 -1      1777 4.66069E-01
 -1      1778 7.39263E-01
 -1      1779 6.34465E-01
 -1      1780 5.65383E-01
 -1      1781 9.72754E-01
 -1      1782 8.42391E-01
 -1      1783 7.55443E-01
 -1      1784 1.21557E+00
 -1      1785 1.06210E+00
 -1      1786 9.47919E-01
 -1      1787 1.52157E+00
 -1      1788 1.31289E+00
 -1      1789 1.13459E+00
 -1      1790 2.00984E+00
 -1      1791 1.65812E+00
 -1      1792 1.36846E+00
 -1      1793 2.69012E+00
 -1      1794 2.05085E+00
 -1      1795 1.54602E+00
 -1      1796 7.41617E+00
 -1      1797 2.74929E+00
 -1      1798 1.64620E+00
 -1      1799 2.37472E+00
 -1      1800 4.76906E+00
 -1      1801 1.58598E+00
 -1      1802 2.17994E+00
 -1      1803 1.51059E+00
 -1      1804 3.12793E+00
 -1      1805 1.73123E+00
 -1      1806 1.25088E+00
 -1      1807 1.07846E+00
 -1      1808 7.59274E-01
 -1      1809 8.70708E-01
 -1      1810 7.60420E-01
 -1      1811 7.41898E-01
 -1      1812 6.99433E-01
 -1      1813 7.74993E-01
 -1      1814 8.35469E-01
 -1      1815 7.33674E-01
 -1      1816 8.57392E-01
 -1      1817 9.89963E-01
 -1      1818 7.88693E-01
 -1      1819 9.71199E-01
 -1      1820 9.68065E-01
 -1      1821 7.91851E-01
 -1      1822 1.01530E+00
 -1      1823 1.05595E+00
 -1      1824 8.20324E-01
 -1      1825 1.09829E+00
 -1      1826 1.15649E+00
 -1      1827 9.09905E-01
 -1      1828 1.41368E+00
 -1      1829 1.78167E+00
 -1      1830 1.20944E+00
 -1      1831 2.01745E+00
 -1      1832 2.64710E+00
 -1      1833 1.70241E+00
 -1      1834 2.93076E+00
 -1      1835 3.37300E+00
 -1      1836 2.22186E+00
 -1      1837 3.36275E+00
 -1      1838 3.36540E+00
 -1      1839 2.49527E+00
 -1      1840 3.42251E+00
 -1      1841 3.29456E+00
 -1      1842 2.54214E+00
 -1      1843 3.15055E+00
 -1      1844 2.48150E+00
 -1      1845 2.45524E+00
 -1      1846 2.19785E+00
 -1      1847 1.75302E+00
 -1      1848 2.02759E+00
 -1      1849 1.43460E+00
 -1      1850 1.22707E+00
 -1      1851 1.42553E+00
 -1      1852 1.12968E+00
 -1      1853 1.18254E+00
 -1      1854 1.00973E+00
 -1      1855 1.15419E+00
 -1      1856 1.12851E+00
 -1      1857 8.83984E-01
 -1      1858 1.22494E+00
 -1      1859 1.21646E+00
 -1      1860 9.52068E-01
 -1      1861 1.22922E+00
 -1      1862 1.14259E+00
 -1      1863 1.06127E+00
 -1      1864 1.09651E+00
 -1      1865 9.91544E-01
 -1      1866 1.02796E+00
 -1      1867 9.38375E-01
 -1      1868 8.65305E-01
 -1      1869 9.28720E-01
 -1      1870 8.18241E-01
 -1      1871 7.54591E-01
 -1      1872 8.28488E-01
 -1      1873 6.95662E-01
 -1      1874 6.26267E-01
 -1      1875 7.22495E-01
 -1      1876 5.64478E-01
 -1      1877 4.98554E-01
 -1      1878 6.01777E-01
 -1      1879 4.40635E-01
 -1      1880 3.82935E-01
 -1      1881 4.82067E-01
 -1      1882 3.32303E-01
 -1      1883 2.92594E-01
 -1      1884 3.73516E-01
 -1      1885 2.50447E-01
 -1      1886 2.21800E-01
 -1      1887 2.80737E-01
 -1      1888 1.88007E-01
 -1      1889 1.63979E-01
 -1      1890 2.04797E-01
 -1      1891 1.37713E-01
 -1      1892 1.17947E-01
 -1      1893 1.44737E-01
 -1      1894 1.01606E-01
 -1      1895 8.87854E-02
 -1      1896 1.02130E-01
 -1      1897 7.66834E-02
 -1      1898 6.81587E-02
 -1      1899 7.36865E-02
 -1      1900 5.98858E-02
 -1      1901 5.23177E-02
 -1      1902 5.33116E-02
 -1      1903 4.86417E-02
 -1      1904 4.21430E-02
 -1      1905 4.13627E-02
 -1      1906 3.86999E-02
 -1      1907 3.32630E-02
 -1      1908 3.42436E-02
 -1      1909 3.01739E-02
 -1      1910 2.59659E-02
 -1      1911 2.77113E-02
 -1      1912 2.32794E-02
 -1      1913 2.01921E-02
 -1      1914 2.19357E-02
 -1      1915 1.79099E-02
 -1      1916 1.60244E-02
 -1      1917 1.69670E-02
 -1      1918 1.47845E-02
 -1      1919 1.30607E-02
 -1      1920 1.34449E-02
 -1      1921 1.20230E-02
 -1      1922 1.04873E-02
 -1      1923 1.11673E-02
 -1      1924 9.47349E-03
 -1      1925 8.25452E-03
 -1      1926 9.11578E-03
 -1      1927 7.33111E-03
 -1      1928 6.27441E-03
 -1      1929 7.17853E-03
 -1      1930 5.51714E-03
 -1      1931 4.73226E-03
 -1      1932 5.49785E-03
 -1      1933 4.08380E-03
 -1      1934 3.62376E-03
 -1      1935 4.09211E-03
 -1      1936 3.15858E-03
 -1      1937 2.72577E-03
 -1      1938 2.97846E-03
 -1      1939 2.42255E-03
 -1      1940 2.03624E-03
 -1      1941 1.55699E-03
 -1      1942 2.21007E-03
 -1      1943 9.64833E-01
 -1      1944 1.22879E+00
 -1      1945 9.58615E-01
 -1      1946 7.35126E-01
 -1      1947 9.30619E-01
 -1      1948 5.67204E-01
 -1      1949 6.51333E-01
 -1      1950 7.62760E-01
 -1      1951 5.60624E-01
 -1      1952 6.23820E-01
 -1      1953 6.63387E-01
 -1      1954 6.00312E-01
 -1      1955 6.72670E-01
 -1      1956 5.89349E-01
 -1      1957 5.77895E-01
 -1      1958 7.25895E-01
 -1      1959 6.76694E-01
 -1      1960 5.47447E-01
 -1      1961 9.59725E-01
 -1      1962 7.93092E-01
 -1      1963 6.18667E-01
 -1      1964 1.26592E+00
 -1      1965 1.22424E+00
 -1      1966 9.50383E-01
 -1      1967 1.74564E+00
 -1      1968 1.55454E+00
 -1      1969 1.50352E+00
 -1      1970 2.16354E+00
 -1      1971 1.83453E+00
 -1      1972 1.88104E+00
 -1      1973 2.60629E+00
 -1      1974 2.16354E+00
 -1      1975 1.96993E+00
 -1      1976 2.79830E+00
 -1      1977 2.60872E+00
 -1      1978 1.97235E+00
 -1      1979 3.03655E+00
 -1      1980 2.94929E+00
 -1      1981 2.12576E+00
 -1      1982 2.43918E+00
 -1      1983 2.88974E+00
 -1      1984 2.12994E+00
 -1      1985 1.46657E+00
 -1      1986 2.09067E+00
 -1      1987 1.63461E+00
 -1      1988 9.70306E-01
 -1      1989 1.22278E+00
 -1      1990 1.04230E+00
 -1      1991 8.42342E-01
 -1      1992 8.89144E-01
 -1      1993 7.17343E-01
 -1      1994 9.75665E-01
 -1      1995 9.46438E-01
 -1      1996 7.40277E-01
 -1      1997 1.07566E+00
 -1      1998 1.00100E+00
 -1      1999 8.69712E-01
 -1      2000 1.06835E+00
 -1      2001 1.09090E+00
 -1      2002 9.10285E-01
 -1      2003 9.65406E-01
 -1      2004 1.03922E+00
 -1      2005 8.96382E-01
 -1      2006 8.36671E-01
 -1      2007 9.20436E-01
 -1      2008 8.22273E-01
 -1      2009 7.11000E-01
 -1      2010 7.86975E-01
 -1      2011 7.27608E-01
 -1      2012 5.83156E-01
 -1      2013 6.53514E-01
 -1      2014 6.20427E-01
 -1      2015 4.59939E-01
 -1      2016 5.26291E-01
 -1      2017 5.06076E-01
 -1      2018 3.50349E-01
 -1      2019 4.08471E-01
 -1      2020 3.97742E-01
 -1      2021 2.58477E-01
 -1      2022 3.06451E-01
 -1      2023 3.02375E-01
 -1      2024 1.92593E-01
 -1      2025 2.23937E-01
 -1      2026 2.23937E-01
 -1      2027 1.44795E-01
 -1      2028 1.69871E-01
 -1      2029 1.66675E-01
 -1      2030 1.06766E-01
 -1      2031 1.26202E-01
 -1      2032 1.25360E-01
 -1      2033 7.71730E-02
 -1      2034 9.19695E-02
 -1      2035 9.19695E-02
 -1      2036 5.41928E-02
 -1      2037 6.56829E-02
 -1      2038 6.56829E-02
 -1      2039 3.97548E-02
 -1      2040 4.54710E-02
 -1      2041 4.54710E-02
 -1      2042 3.12134E-02
 -1      2043 3.50489E-02
 -1      2044 3.20433E-02
 -1      2045 2.57610E-02
 -1      2046 2.92168E-02
 -1      2047 2.53408E-02
 -1      2048 2.07739E-02
 -1      2049 2.37808E-02
 -1      2050 2.13640E-02
 -1      2051 1.70676E-02
 -1      2052 1.89209E-02
 -1      2053 1.75307E-02
 -1      2054 1.42490E-02
 -1      2055 1.53997E-02
 -1      2056 1.40097E-02
 -1      2057 1.17972E-02
 -1      2058 1.30172E-02
 -1      2059 1.11100E-02
 -1      2060 9.83687E-03
 -1      2061 1.10375E-02
 -1      2062 9.11851E-03
 -1      2063 7.97013E-03
 -1      2064 9.10878E-03
 -1      2065 7.63070E-03
 -1      2066 6.32007E-03
 -1      2067 7.33482E-03
 -1      2068 6.26731E-03
 -1      2069 4.86895E-03
 -1      2070 5.74960E-03
 -1      2071 5.06154E-03
 -1      2072 3.56244E-03
 -1      2073 4.30395E-03
 -1      2074 3.92607E-03
 -1      2075 2.68295E-03
 -1      2076 3.11360E-03
 -1      2077 2.91222E-03
 -1      2078 1.67916E-03
 -1      2079 2.29085E-03
 -1      2080 2.07127E-03
 -1      2081 1.24436E-03
 -1      2082 7.20832E-04
 -1      2083 7.46106E-04
 -1      2084 1.11006E-03
 -1      2085 1.19835E-03
 -1      2086 1.22318E-03
 -1      2087 1.19835E-03
 -1      2088 1.19835E-03
 -1      2089 1.63315E-03
 -1      2090 1.58714E-03
 -1      2091 9.63152E-04
 -1      2092 8.39600E-04
 -1      2093 9.77995E-04
 -1      2094 1.12749E-03
 -1      2095 1.05674E-03
 -1      2096 1.19035E-03
 -1      2097 1.19257E-03
 -1      2098 1.16574E-03
 -1      2099 1.32219E-03
 -1      2100 1.19257E-03
 -1      2101 1.19257E-03
 -1      2102 1.36045E-03
 -1      2103 1.19111E-03
 -1      2104 1.19119E-03
 -1      2105 1.35907E-03
 -1      2106 1.16237E-03
 -1      2107 1.19111E-03
 -1      2108 1.35769E-03
 -1      2109 1.05846E-03
 -1      2110 1.12663E-03
 -1      2111 1.32194E-03
 -1      2112 8.47097E-04
 -1      2113 9.70255E-04
 -1      2114 1.19800E-03
 -1      2115 7.46239E-04
 -1      2116 7.27457E-04
 -1      2117 9.90155E-04
 -1      2118 1.06122E-03
 -1      2119 1.06122E-03
 -1      2120 1.18550E-03
 -1      2121 3.76065E+01
 -1      2122 2.80303E+01
 -1      2123 2.97043E+01
 -1      2124 2.97043E+01
 -1      2125 2.52865E+01
 -1      2126 2.61235E+01
 -1      2127 1.89056E+01
 -1      2128 3.15436E+01
 -1      2129 9.66101E+00
 -1      2130 1.53013E+01
 -1      2131 1.51591E+00
 -1      2132 1.72547E+00
 -1      2133 1.57161E+00
 -1      2134 1.34986E+00
 -1      2135 1.11916E+01
 -1      2136 1.10743E+01
 -1      2137 1.22429E+01
 -1      2138 1.24297E+01
 -1      2139 1.19634E+01
 -1      2140 1.19140E+01
 -1      2141 1.19140E+01
 -1      2142 1.02058E+01
 -1      2143 1.06025E+01
 -1      2144 1.11781E+01
 -1      2145 9.46546E+00
 -1      2146 2.68374E+01
 -1      2147 1.44135E+01
 -1      2148 3.02626E+01
 -1      2149 3.20169E+01
 -1      2150 2.73251E+01
 -1      2151 3.06777E+01
 -1      2152 2.96077E+01
 -1      2153 2.96077E+01
 -1      2154 2.98290E+01
 -1      2155 2.83983E+01
 -1      2156 3.24692E+01
 -1      2157 3.24692E+01
 -1      2158 2.52535E+01
 -1      2159 2.63977E+01
 -1      2160 2.63977E+01
 -1      2161 1.19224E+01
 -1      2162 2.09011E+01
 -1      2163 9.22612E+00
 -1      2164 9.15384E+00
 -1      2165 8.85296E+00
 -1      2166 1.09147E+01
 -1      2167 1.10402E+01
 -1      2168 1.13347E+01
 -1      2169 1.14778E+01
 -1      2170 1.02758E+01
 -1      2171 1.09958E+01
 -1      2172 1.09044E+01
 -1      2173 1.06584E+01
 -1      2174 1.07914E+01
 -1      2175 9.29840E+00
 -1      2176 9.42852E+00
 -1      2177 1.76460E+01
 -1      2178 1.08132E+01
 -1      2179 3.35064E+01
 -1      2180 2.14996E+01
 -1      2181 3.11686E+01
 -1      2182 4.01675E+01
 -1      2183 2.83547E+01
 -1      2184 2.90869E+01
 -1      2185 2.83547E+01
 -1      2186 1.00259E+01
 -1      2187 9.14795E+00
 -1      2188 8.18291E+00
 -1      2189 1.53069E+01
 -1      2190 1.23060E+01
 -1      2191 8.70162E+00
 -1      2192 2.46510E+00
 -1      2193 8.71828E+00
 -1      2194 1.77700E+00
 -1      2195 2.52865E+01
 -1      2196 2.96114E+01
 -1      2197 2.96114E+01
 -1      2198 2.60306E+01
 -1      2199 1.35380E-03
 -1      2200 2.19675E+01
 -1      2201 2.90869E+01
 -1      2202 2.45074E+01
 -1      2203 1.39927E+01
 -1      2204 8.62431E+00
 -1      2205 8.33946E+00
 -1      2206 1.04086E+01
 -1      2207 7.89848E+00
 -1      2208 1.59739E+01
 -1      2209 2.78340E+01
 -1      2210 2.51939E+01
 -1      2211 2.78340E+01
 -1      2212 2.83983E+01
 -1      2213 2.73251E+01
 -1      2214 2.46275E+01
 -1      2215 1.90329E+01
 -1      2216 1.06180E+01
 -1      2217 1.02242E+01
 -1      2218 1.10048E+01
 -1      2219 8.12296E+00
 -1      2220 9.77380E+00
 -1      2221 9.16807E-01
 -1      2222 1.27400E+00
 -1      2223 7.15685E-01
 -1      2224 8.20580E-01
 -1      2225 8.84934E-01
 -1      2226 9.77678E-01
 -1      2227 8.50314E-01
 -1      2228 3.98835E-01
 -1      2229 3.86454E-01
 -1      2230 6.15726E-01
 -1      2231 5.28794E-01
 -1      2232 4.49179E-01
 -1      2233 8.27313E-01
 -1      2234 7.24185E-01
 -1      2235 6.87596E-01
 -1      2236 9.70308E-01
 -1      2237 8.80960E-01
 -1      2238 8.49702E-01
 -1      2239 1.10987E+00
 -1      2240 1.01255E+00
 -1      2241 9.45587E-01
 -1      2242 1.41893E+00
 -1      2243 1.28238E+00
 -1      2244 1.16034E+00
 -1      2245 6.23294E-01
 -1      2246 6.57509E-01
 -1      2247 9.72897E-01
 -1      2248 1.08877E+00
 -1      2249 9.16348E-01
 -1      2250 7.48154E+00
 -1      2251 6.43312E+00
 -1      2252 7.73853E-01
 -1      2253 7.74999E-01
 -1      2254 9.91914E-01
 -1      2255 8.05584E-01
 -1      2256 8.38679E-01
 -1      2257 8.80004E-01
 -1      2258 8.92685E-01
 -1      2259 9.14608E-01
 -1      2260 9.64594E-01
 -1      2261 9.68689E-01
 -1      2262 9.49924E-01
 -1      2263 1.07268E+00
 -1      2264 9.77980E-01
 -1      2265 1.02522E+00
 -1      2266 1.15482E+00
 -1      2267 1.19067E+00
 -1      2268 1.23301E+00
 -1      2269 1.34833E+00
 -1      2270 1.31916E+00
 -1      2271 1.57634E+00
 -1      2272 1.59992E+00
 -1      2273 1.71007E+00
 -1      2274 1.94586E+00
 -1      2275 1.81979E+00
 -1      2276 2.06455E+00
 -1      2277 2.34821E+00
 -1      2278 2.07221E+00
 -1      2279 2.88105E+00
 -1      2280 2.87080E+00
 -1      2281 2.72374E+00
 -1      2282 2.91382E+00
 -1      2283 2.97093E+00
 -1      2284 3.29960E+00
 -1      2285 2.68255E+00
 -1      2286 2.53855E+00
 -1      2287 3.05424E+00
 -1      2288 2.08850E+00
 -1      2289 1.80485E+00
 -1      2290 2.31580E+00
 -1      2291 1.76047E+00
 -1      2292 1.44205E+00
 -1      2293 1.82137E+00
 -1      2294 1.40009E+00
 -1      2295 1.30270E+00
 -1      2296 1.73503E+00
 -1      2297 1.13095E+00
 -1      2298 1.10260E+00
 -1      2299 1.52132E+00
 -1      2300 1.07818E+00
 -1      2301 1.17462E+00
 -1      2302 1.32515E+00
 -1      2303 1.12220E+00
 -1      2304 1.13496E+00
 -1      2305 1.24831E+00
 -1      2306 1.06146E+00
 -1      2307 1.01539E+00
 -1      2308 1.12239E+00
 -1      2309 9.56221E-01
 -1      2310 9.03052E-01
 -1      2311 9.89721E-01
 -1      2312 8.55716E-01
 -1      2313 8.08652E-01
 -1      2314 8.83217E-01
 -1      2315 7.49224E-01
 -1      2316 6.90295E-01
 -1      2317 7.76452E-01
 -1      2318 6.28317E-01
 -1      2319 5.66527E-01
 -1      2320 6.55046E-01
 -1      2321 5.07975E-01
 -1      2322 4.50055E-01
 -1      2323 5.34516E-01
 -1      2324 3.98104E-01
 -1      2325 3.47473E-01
 -1      2326 4.24012E-01
 -1      2327 3.03377E-01
 -1      2328 2.61230E-01
 -1      2329 3.27966E-01
 -1      2330 2.25050E-01
 -1      2331 1.91257E-01
 -1      2332 2.47690E-01
 -1      2333 1.62384E-01
 -1      2334 1.36118E-01
 -1      2335 1.82638E-01
 -1      2336 1.13630E-01
 -1      2337 9.72888E-02
 -1      2338 1.31277E-01
 -1      2339 8.01649E-02
 -1      2340 6.80629E-02
 -1      2341 9.16651E-02
 -1      2342 5.53126E-02
 -1      2343 4.70397E-02
 -1      2344 6.17910E-02
 -1      2345 3.84256E-02
 -1      2346 3.47495E-02
 -1      2347 4.04265E-02
 -1      2348 2.97972E-02
 -1      2349 2.63541E-02
 -1      2350 2.68601E-02
 -1      2351 2.47848E-02
 -1      2352 2.16957E-02
 -1      2353 2.03385E-02
 -1      2354 2.03687E-02
 -1      2355 1.76822E-02
 -1      2356 1.74422E-02
 -1      2357 1.63281E-02
 -1      2358 1.40458E-02
 -1      2359 1.47610E-02
 -1      2360 1.27522E-02
 -1      2361 1.15123E-02
 -1      2362 1.21133E-02
 -1      2363 1.03277E-02
 -1      2364 9.29001E-03
 -1      2365 9.63501E-03
 -1      2366 8.63625E-03
 -1      2367 7.62242E-03
 -1      2368 7.79664E-03
 -1      2369 6.97515E-03
 -1      2370 6.05174E-03
 -1      2371 6.49563E-03
 -1      2372 5.39806E-03
 -1      2373 4.64079E-03
 -1      2374 5.19468E-03
 -1      2375 4.09211E-03
 -1      2376 3.44364E-03
 -1      2377 3.99232E-03
 -1      2378 2.96623E-03
 -1      2379 2.50105E-03
 -1      2380 2.96623E-03
 -1      2381 7.06462E-01
 -1      2382 6.94408E-01
 -1      2383 6.87493E-01
 -1      2384 7.21965E-01
 -1      2385 8.16061E-01
 -1      2386 7.06051E-01
 -1      2387 7.02027E-01
 -1      2388 8.46097E-01
 -1      2389 8.81000E-01
 -1      2390 8.13803E-01
 -1      2391 9.68384E-01
 -1      2392 1.22450E+00
 -1      2393 9.59983E-01
 -1      2394 1.15512E+00
 -1      2395 1.66692E+00
 -1      2396 1.37830E+00
 -1      2397 1.38790E+00
 -1      2398 1.92096E+00
 -1      2399 1.83207E+00
 -1      2400 1.70684E+00
 -1      2401 2.20187E+00
 -1      2402 2.20187E+00
 -1      2403 2.15290E+00
 -1      2404 2.13975E+00
 -1      2405 2.13733E+00
 -1      2406 2.36926E+00
 -1      2407 2.33618E+00
 -1      2408 2.18519E+00
 -1      2409 2.35016E+00
 -1      2410 1.90817E+00
 -1      2411 2.05498E+00
 -1      2412 2.11441E+00
 -1      2413 1.37885E+00
 -1      2414 1.72736E+00
 -1      2415 1.65240E+00
 -1      2416 9.52328E-01
 -1      2417 1.19612E+00
 -1      2418 1.28887E+00
 -1      2419 8.57124E-01
 -1      2420 9.38285E-01
 -1      2421 1.09211E+00
 -1      2422 8.89818E-01
 -1      2423 7.85722E-01
 -1      2424 1.00666E+00
 -1      2425 9.38533E-01
 -1      2426 9.13195E-01
 -1      2427 9.58640E-01
 -1      2428 9.31686E-01
 -1      2429 9.16451E-01
 -1      2430 9.59934E-01
 -1      2431 8.60645E-01
 -1      2432 8.89784E-01
 -1      2433 8.95950E-01
 -1      2434 7.79666E-01
 -1      2435 8.24636E-01
 -1      2436 8.18038E-01
 -1      2437 6.87258E-01
 -1      2438 7.36953E-01
 -1      2439 7.39316E-01
 -1      2440 5.77156E-01
 -1      2441 6.34642E-01
 -1      2442 6.43987E-01
 -1      2443 4.66151E-01
 -1      2444 5.23016E-01
 -1      2445 5.37231E-01
 -1      2446 3.64150E-01
 -1      2447 4.15619E-01
 -1      2448 4.32559E-01
 -1      2449 2.75967E-01
 -1      2450 3.19865E-01
 -1      2451 3.37742E-01
 -1      2452 2.04335E-01
 -1      2453 2.38875E-01
 -1      2454 2.56365E-01
 -1      2455 1.51625E-01
 -1      2456 1.74346E-01
 -1      2457 1.89284E-01
 -1      2458 1.09492E-01
 -1      2459 1.28086E-01
 -1      2460 1.35756E-01
 -1      2461 7.67044E-02
 -1      2462 9.15010E-02
 -1      2463 9.42266E-02
 -1      2464 5.25576E-02
 -1      2465 6.40477E-02
 -1      2466 6.35791E-02
 -1      2467 3.62374E-02
 -1      2468 4.49591E-02
 -1      2469 4.33239E-02
 -1      2470 2.73373E-02
 -1      2471 3.20433E-02
 -1      2472 3.15314E-02
 -1      2473 2.33442E-02
 -1      2474 2.53408E-02
 -1      2475 2.53408E-02
 -1      2476 1.93837E-02
 -1      2477 2.13640E-02
 -1      2478 2.13640E-02
 -1      2479 1.56776E-02
 -1      2480 1.75307E-02
 -1      2481 1.75307E-02
 -1      2482 1.23417E-02
 -1      2483 1.40097E-02
 -1      2484 1.40097E-02
 -1      2485 9.87822E-03
 -1      2486 1.11100E-02
 -1      2487 1.11100E-02
 -1      2488 8.35879E-03
 -1      2489 9.11851E-03
 -1      2490 9.11851E-03
 -1      2491 6.83792E-03
 -1      2492 7.56601E-03
 -1      2493 7.56601E-03
 -1      2494 5.42908E-03
 -1      2495 6.06438E-03
 -1      2496 5.99969E-03
 -1      2497 4.23539E-03
 -1      2498 4.80585E-03
 -1      2499 4.60292E-03
 -1      2500 3.10635E-03
 -1      2501 3.67135E-03
 -1      2502 3.41566E-03
 -1      2503 2.29898E-03
 -1      2504 2.74783E-03
 -1      2505 2.49311E-03
 -1      2506 2.02526E-03
 -1      2507 1.41788E-03
 -1      2508 1.32429E-03
 -1      2509 1.50792E-03
 -1      2510 1.46967E-03
 -1      2511 1.60361E-03
 -1      2512 1.35831E-03
 -1      2513 1.72227E-03
 -1      2514 1.28441E-03
 -1      2515 1.16564E-03
 -1      2516 1.66473E-03
 -1      2517 1.51193E-03
 -1      2518 1.50792E-03
 -1      2519 1.50792E-03
 -1      2520 1.65540E-03
 -1      2521 1.49157E-03
 -1      2522 1.49295E-03
 -1      2523 1.64042E-03
 -1      2524 1.50697E-03
 -1      2525 1.50697E-03
 -1      2526 1.64085E-03
 -1      2527 1.47122E-03
 -1      2528 1.50697E-03
 -1      2529 1.65624E-03
 -1      2530 1.34359E-03
 -1      2531 1.43179E-03
 -1      2532 1.61681E-03
 -1      2533 1.30009E-03
 -1      2534 1.41973E-03
 -1      2535 1.65352E-03
 -1      2536 1.43500E-03
 -1      2537 1.12002E-03
 -1      2538 1.54959E-03
 -1      2539 1.40830E+01
 -1      2540 2.01458E+01
 -1      2541 6.68228E-01
 -1      2542 6.40594E-01
 -1      2543 7.74378E-01
 -1      2544 5.26308E+00
 -1      2545 5.77614E+00
 -1      2546 1.70367E-03
 -1      2547 2.48907E+01
 -1      2548 2.69724E+01
 -1      2549 2.33657E+01
 -1      2550 2.06219E+01
 -1      2551 1.54812E+01
 -1      2552 2.83547E+01
 -1      2553 2.70052E+01
 -1      2554 2.48907E+01
 -1      2555 5.02851E-01
 -1      2556 5.98712E-01
 -1      2557 6.68988E-01
 -1      2558 4.35618E-01
 -1      2559 1.00570E+01
 -1      2560 8.81888E+00
 -1      2561 5.87458E+00
 -1      2562 6.61496E+00
 -1      2563 9.86610E+00
 -1      2564 1.01950E+01
 -1      2565 8.48809E+00
 -1      2566 8.69251E+00
 -1      2567 7.44649E+00
 -1      2568 8.80736E+00
 -1      2569 7.08837E+00
 -1      2570 1.01510E+01
 -1      2571 6.91560E+00
 -1      2572 1.76967E+01
 -1      2573 1.25172E+01
 -1      2574 8.81478E+00
 -1      2575 2.11746E+01
 -1      2576 2.07596E+01
 -1      2577 2.73251E+01
 -1      2578 2.50426E+01
 -1      2579 2.11746E+01
 -1      2580 2.39293E+01
 -1      2581 2.51387E+01
 -1      2582 1.84257E+01
 -1      2583 2.44972E+01
 -1      2584 1.10154E+01
 -1      2585 1.53677E+01
 -1      2586 6.45932E+00
 -1      2587 9.22792E+00
 -1      2588 6.92700E+00
 -1      2589 5.11287E+00
 -1      2590 8.83987E+00
 -1      2591 8.27671E+00
 -1      2592 9.58879E+00
 -1      2593 1.00191E+01
 -1      2594 6.15636E+00
 -1      2595 7.38628E+00
 -1      2596 7.91205E+00
 -1      2597 6.39728E+00
 -1      2598 1.34842E+01
 -1      2599 9.63063E+00
 -1      2600 7.40360E+00
 -1      2601 2.22771E+01
 -1      2602 1.56159E+01
 -1      2603 2.08495E+00
 -1      2604 1.35108E+00
 -1      2605 1.39672E+00
 -1      2606 1.57161E+00
 -1      2607 1.32433E+00
 -1      2608 1.51912E+00
 -1      2609 1.45994E+00
 -1      2610 1.28253E+00
 -1      2611 6.53372E+00
 -1      2612 1.28685E+00
 -1      2613 1.34986E+00
 -1      2614 1.65903E+00
 -1      2615 7.30899E-01
 -1      2616 1.41893E+00
 -1      2617 1.65903E+00
 -1      2618 1.35146E+01
 -1      2619 9.15256E+00
 -1      2620 1.12843E+01
 -1      2621 8.30020E+00
 -1      2622 1.18989E+01
 -1      2623 1.00772E+01
 -1      2624 4.02635E+00
 -1      2625 5.44410E+00
 -1      2626 1.80809E+01
 -1      2627 2.07268E+01
 -1      2628 2.42147E+01
 -1      2629 1.88059E+01
 -1      2630 1.86087E-03
 -1      2631 1.86087E-03
 -1      2632 8.30307E+00
 -1      2633 2.59665E+01
 -1      2634 2.60594E+01
 -1      2635 2.47098E+01
 -1      2636 8.02007E+00
 -1      2637 5.49110E+00
 -1      2638 1.33285E+00
 -1      2639 1.74552E-03
 -1      2640 1.54233E-03
 -1      2641 1.47685E-03
 -1      2642 2.04874E-03
 -1      2643 5.48784E+00
 -1      2644 8.62171E+00
 -1      2645 1.34671E+01
 -1      2646 2.28561E+01
 -1      2647 1.79806E+01
 -1      2648 1.14649E+01
 -1      2649 1.45278E+01
 -1      2650 5.19810E+00
 -1      2651 6.30498E+00
 -1      2652 1.98620E+01
 -1      2653 2.01277E+01
 -1      2654 2.21227E+01
 -1      2655 1.88631E+01
 -1      2656 5.40760E+00
 -1      2657 8.00909E+00
 -1      2658 3.63742E+00
 -1      2659 6.55725E+00
 -1      2660 6.56290E+00
 -1      2661 1.99600E-03
 -1      2662 2.03650E-03
 -1      2663 8.02916E-01
 -1      2664 6.94458E-01
 -1      2665 5.72668E-01
 -1      2666 4.42709E-01
 -1      2667 6.87989E-01
 -1      2668 1.04108E+00
 -1      2669 9.98841E-01
 -1      2670 1.21359E+00
 -1      2671 1.04108E+00
 -1      2672 1.09433E+00
 -1      2673 9.16498E-01
 -1      2674 1.17580E+00
 -1      2675 2.16406E-03
 -1      2676 2.05673E-03
 -1      2677 2.61638E-03
 -1      2678 1.28253E+00
 -1      2679 9.15443E-01
 -1      2680 9.46028E-01
 -1      2681 1.01624E+00
 -1      2682 1.07025E+00
 -1      2683 1.05168E+00
 -1      2684 1.19061E+00
 -1      2685 1.24469E+00
 -1      2686 1.24226E+00
 -1      2687 1.39066E+00
 -1      2688 1.41872E+00
 -1      2689 1.50859E+00
 -1      2690 1.57723E+00
 -1      2691 1.74269E+00
 -1      2692 1.81308E+00
 -1      2693 1.97494E+00
 -1      2694 2.06108E+00
 -1      2695 2.20385E+00
 -1      2696 2.64719E+00
 -1      2697 2.78092E+00
 -1      2698 3.02221E+00
 -1      2699 2.05357E+00
 -1      2700 2.17226E+00
 -1      2701 2.88097E+00
 -1      2702 2.72374E+00
 -1      2703 3.25658E+00
 -1      2704 2.70510E+00
 -1      2705 4.96266E+00
 -1      2706 5.00568E+00
 -1      2707 4.96266E+00
 -1      2708 3.45786E+00
 -1      2709 3.16949E+00
 -1      2710 5.12093E+00
 -1      2711 2.76586E+00
 -1      2712 2.31580E+00
 -1      2713 3.16949E+00
 -1      2714 2.34020E+00
 -1      2715 2.29582E+00
 -1      2716 2.79025E+00
 -1      2717 2.26013E+00
 -1      2718 2.21817E+00
 -1      2719 2.77896E+00
 -1      2720 1.95876E+00
 -1      2721 1.78701E+00
 -1      2722 2.48387E+00
 -1      2723 1.64387E+00
 -1      2724 1.61945E+00
 -1      2725 2.08132E+00
 -1      2726 1.44313E+00
 -1      2727 1.39071E+00
 -1      2728 1.76185E+00
 -1      2729 1.23292E+00
 -1      2730 1.15942E+00
 -1      2731 1.42774E+00
 -1      2732 1.07215E+00
 -1      2733 1.01298E+00
 -1      2734 1.18268E+00
 -1      2735 9.31355E-01
 -1      2736 8.84019E-01
 -1      2737 1.01378E+00
 -1      2738 8.04372E-01
 -1      2739 7.44943E-01
 -1      2740 8.52510E-01
 -1      2741 6.72449E-01
 -1      2742 6.10471E-01
 -1      2743 7.00369E-01
 -1      2744 5.47094E-01
 -1      2745 4.88541E-01
 -1      2746 5.64497E-01
 -1      2747 4.34644E-01
 -1      2748 3.82693E-01
 -1      2749 4.47222E-01
 -1      2750 3.37848E-01
 -1      2751 2.93753E-01
 -1      2752 3.48480E-01
 -1      2753 2.57145E-01
 -1      2754 2.20965E-01
 -1      2755 2.67027E-01
 -1      2756 1.91608E-01
 -1      2757 1.62735E-01
 -1      2758 2.01062E-01
 -1      2759 1.39593E-01
 -1      2760 1.17105E-01
 -1      2761 1.48563E-01
 -1      2762 9.91718E-02
 -1      2763 8.20479E-02
 -1      2764 1.07488E-01
 -1      2765 6.83926E-02
 -1      2766 5.56422E-02
 -1      2767 7.58992E-02
 -1      2768 4.54350E-02
 -1      2769 3.68209E-02
 -1      2770 5.20366E-02
 -1      2771 2.93445E-02
 -1      2772 2.43922E-02
 -1      2773 3.43529E-02
 -1      2774 1.90416E-02
 -1      2775 1.74723E-02
 -1      2776 2.15259E-02
 -1      2777 1.46710E-02
 -1      2778 1.33439E-02
 -1      2779 1.33740E-02
 -1      2780 1.30037E-02
 -1      2781 1.16496E-02
 -1      2782 1.02325E-02
 -1      2783 1.11969E-02
 -1      2784 9.90329E-03
 -1      2785 9.43960E-03
 -1      2786 9.29635E-03
 -1      2787 8.11173E-03
 -1      2788 8.38001E-03
 -1      2789 7.44279E-03
 -1      2790 6.78904E-03
 -1      2791 7.10413E-03
 -1      2792 6.14773E-03
 -1      2793 5.50046E-03
 -1      2794 5.79387E-03
 -1      2795 5.05836E-03
 -1      2796 4.40469E-03
 -1      2797 4.71047E-03
 -1      2798 3.93700E-03
 -1      2799 3.38832E-03
 -1      2800 3.80068E-03
 -1      2801 2.94599E-03
 -1      2802 2.46858E-03
 -1      2803 2.59614E-03
 -1      2804 2.89067E-03
 -1      2805 1.04999E+00
 -1      2806 1.03546E+00
 -1      2807 3.96857E+00
 -1      2808 5.31501E+00
 -1      2809 9.67703E-01
 -1      2810 9.52200E-01
 -1      2811 1.17160E+00
 -1      2812 1.51560E+00
 -1      2813 1.43662E+00
 -1      2814 1.74348E+00
 -1      2815 1.58968E+00
 -1      2816 1.87119E+00
 -1      2817 2.41116E+00
 -1      2818 2.24601E+00
 -1      2819 2.44780E+00
 -1      2820 3.16907E+00
 -1      2821 2.88817E+00
 -1      2822 3.42733E+00
 -1      2823 3.16620E+00
 -1      2824 3.23073E+00
 -1      2825 3.96600E+00
 -1      2826 3.65070E+00
 -1      2827 3.60527E+00
 -1      2828 4.46674E+00
 -1      2829 2.39902E+00
 -1      2830 2.68021E+00
 -1      2831 3.93531E+00
 -1      2832 1.65993E+00
 -1      2833 1.84073E+00
 -1      2834 2.40654E+00
 -1      2835 1.49460E+00
 -1      2836 1.67733E+00
 -1      2837 1.86565E+00
 -1      2838 1.43667E+00
 -1      2839 1.45071E+00
 -1      2840 1.83916E+00
 -1      2841 1.17297E+00
 -1      2842 1.24438E+00
 -1      2843 1.60298E+00
 -1      2844 1.15311E+00
 -1      2845 1.12973E+00
 -1      2846 1.36744E+00
 -1      2847 1.04685E+00
 -1      2848 1.06893E+00
 -1      2849 1.24002E+00
 -1      2850 9.14601E-01
 -1      2851 9.56504E-01
 -1      2852 1.06550E+00
 -1      2853 8.22291E-01
 -1      2854 8.58299E-01
 -1      2855 9.18853E-01
 -1      2856 7.25346E-01
 -1      2857 7.68059E-01
 -1      2858 8.08320E-01
 -1      2859 6.13809E-01
 -1      2860 6.66426E-01
 -1      2861 6.95168E-01
 -1      2862 5.02294E-01
 -1      2863 5.56434E-01
 -1      2864 5.78873E-01
 -1      2865 3.99469E-01
 -1      2866 4.50001E-01
 -1      2867 4.69204E-01
 -1      2868 3.09647E-01
 -1      2869 3.53932E-01
 -1      2870 3.71374E-01
 -1      2871 2.34245E-01
 -1      2872 2.71337E-01
 -1      2873 2.87527E-01
 -1      2874 1.72914E-01
 -1      2875 2.02903E-01
 -1      2876 2.17875E-01
 -1      2877 1.24344E-01
 -1      2878 1.47883E-01
 -1      2879 1.61502E-01
 -1      2880 8.67955E-02
 -1      2881 1.04786E-01
 -1      2882 1.16913E-01
 -1      2883 5.91748E-02
 -1      2884 7.18315E-02
 -1      2885 8.23912E-02
 -1      2886 4.03666E-02
 -1      2887 4.79650E-02
 -1      2888 5.62174E-02
 -1      2889 2.79615E-02
 -1      2890 3.21556E-02
 -1      2891 3.67967E-02
 -1      2892 2.06789E-02
 -1      2893 2.26755E-02
 -1      2894 2.32996E-02
 -1      2895 1.64961E-02
 -1      2896 1.84764E-02
 -1      2897 1.58111E-02
 -1      2898 1.40229E-02
 -1      2899 1.58760E-02
 -1      2900 1.29884E-02
 -1      2901 1.15468E-02
 -1      2902 1.32147E-02
 -1      2903 1.15600E-02
 -1      2904 9.43570E-03
 -1      2905 1.06675E-02
 -1      2906 9.87247E-03
 -1      2907 7.80115E-03
 -1      2908 8.56086E-03
 -1      2909 8.11834E-03
 -1      2910 6.30322E-03
 -1      2911 7.09600E-03
 -1      2912 6.53836E-03
 -1      2913 5.01546E-03
 -1      2914 5.78900E-03
 -1      2915 5.31899E-03
 -1      2916 3.86337E-03
 -1      2917 4.48660E-03
 -1      2918 4.27591E-03
 -1      2919 2.83525E-03
 -1      2920 3.39928E-03
 -1      2921 3.28296E-03
 -1      2922 2.29445E-03
 -1      2923 2.65297E-03
 -1      2924 2.63659E-03
 -1      2925 2.15585E-03
 -1      2926 1.74435E-03
 -1      2927 1.75933E-03
 -1      2928 1.78034E-03
 -1      2929 1.72855E-03
 -1      2930 1.75880E-03
 -1      2931 1.74341E-03
 -1      2932 1.86231E-03
 -1      2933 1.78034E-03
 -1      2934 1.78034E-03
 -1      2935 1.90528E-03
 -1      2936 1.88427E-03
 -1      2937 8.64763E-01
 -1      2938 8.38583E-01
 -1      2939 1.01640E+00
 -1      2940 1.77963E-03
 -1      2941 1.77963E-03
 -1      2942 1.88218E-03
 -1      2943 1.74019E-03
 -1      2944 1.77963E-03
 -1      2945 1.90301E-03
 -1      2946 2.23680E-03
 -1      2947 2.16066E-03
 -1      2948 2.32347E-03
 -1      2949 2.23680E-03
 -1      2950 2.10562E+01
 -1      2951 1.89417E+01
 -1      2952 4.07178E+00
 -1      2953 2.90174E+00
 -1      2954 4.40402E+00
 -1      2955 4.16309E+00
 -1      2956 7.93405E+00
 -1      2957 6.75478E+00
 -1      2958 1.07975E+01
 -1      2959 1.40173E+01
 -1      2960 1.20046E+00
 -1      2961 1.09271E+00
 -1      2962 1.28207E+00
 -1      2963 1.56095E+00
 -1      2964 1.15202E+00
 -1      2965 1.00952E+00
 -1      2966 1.07555E+00
 -1      2967 1.05556E+00
 -1      2968 1.00191E+00
 -1      2969 1.00877E+00
 -1      2970 1.15105E+00
 -1      2971 7.90879E-01
 -1      2972 7.73579E-01
 -1      2973 9.76478E-01
 -1      2974 8.81263E-01
 -1      2975 6.85413E+00
 -1      2976 6.71610E+00
 -1      2977 1.65903E+00
 -1      2978 8.51940E-01
 -1      2979 9.16295E-01
 -1      2980 4.71611E+00
 -1      2981 5.81791E+00
 -1      2982 5.39781E+00
 -1      2983 6.45655E+00
 -1      2984 4.13546E+00
 -1      2985 4.96699E+00
 -1      2986 8.16785E+00
 -1      2987 5.80171E+00
 -1      2988 1.90353E+01
 -1      2989 1.51674E+01
 -1      2990 5.44382E+00
 -1      2991 4.40279E+00
 -1      2992 1.75762E+01
 -1      2993 1.97626E+01
 -1      2994 1.03175E+01
 -1      2995 1.33755E+01
 -1      2996 7.09122E+00
 -1      2997 8.87865E+00
 -1      2998 5.11996E+00
 -1      2999 3.77026E+00
 -1      3000 3.59743E+00
 -1      3001 6.45380E+00
 -1      3002 5.11646E+00
 -1      3003 3.99185E+00
 -1      3004 1.51564E+01
 -1      3005 1.84933E+01
 -1      3006 1.70562E+01
 -1      3007 1.23609E+01
 -1      3008 1.32218E+01
 -1      3009 6.59529E+00
 -1      3010 4.87671E+00
 -1      3011 1.02783E+00
 -1      3012 1.40002E+00
 -1      3013 1.02946E+00
 -1      3014 5.47938E-01
 -1      3015 4.24448E-01
 -1      3016 5.40846E-01
 -1      3017 5.16357E+00
 -1      3018 3.59571E+00
 -1      3019 1.05141E+01
 -1      3020 8.41277E+00
 -1      3021 9.48945E+00
 -1      3022 7.08627E+00
 -1      3023 6.67919E+00
 -1      3024 4.94190E+00
 -1      3025 6.86594E+00
 -1      3026 9.05006E+00
 -1      3027 7.58617E+00
 -1      3028 1.44450E+01
 -1      3029 1.45498E+01
 -1      3030 9.76122E+00
 -1      3031 5.57195E+00
 -1      3032 1.87711E-03
 -1      3033 2.17556E-03
 -1      3034 1.68443E-03
 -1      3035 1.22613E+00
 -1      3036 1.10686E+00
 -1      3037 2.08331E+01
 -1      3038 1.72811E+01
 -1      3039 1.55293E+01
 -1      3040 2.74394E-03
 -1      3041 1.54221E+01
 -1      3042 1.87608E+01
 -1      3043 2.90174E+00
 -1      3044 2.85631E+00
 -1      3045 3.63742E+00
 -1      3046 1.37554E+01
 -1      3047 3.67603E+00
 -1      3048 8.78696E+00
 -1      3049 1.55226E+01
 -1      3050 1.24291E+01
 -1      3051 1.37161E+01
 -1      3052 4.79689E+00
 -1      3053 6.46900E-01
 -1      3054 7.63873E-01
 -1      3055 8.29853E-01
 -1      3056 6.35731E-01
 -1      3057 6.77602E+00
 -1      3058 7.67229E+00
 -1      3059 8.37394E+00
 -1      3060 5.36087E+00
 -1      3061 8.65792E+00
 -1      3062 1.23885E+01
 -1      3063 1.68479E-03
 -1      3064 1.64490E-03
 -1      3065 1.85729E-03
 -1      3066 1.86152E-03
 -1      3067 4.17167E+00
 -1      3068 4.33516E+00
 -1      3069 1.62877E+00
 -1      3070 1.62877E+00
 -1      3071 1.36646E+00
 -1      3072 1.36975E+00
 -1      3073 5.18714E+00
 -1      3074 7.01271E+00
 -1      3075 6.98233E+00
 -1      3076 4.45544E+00
 -1      3077 1.38407E+00
 -1      3078 1.20067E+01
 -1      3079 5.29884E+00
 -1      3080 1.17340E+00
 -1      3081 1.16087E+00
 -1      3082 1.03048E+00
 -1      3083 1.16087E+00
 -1      3084 1.11073E+00
 -1      3085 1.18095E+00
 -1      3086 1.32810E+00
 -1      3087 1.44847E+00
 -1      3088 1.38716E+00
 -1      3089 1.62094E+00
 -1      3090 1.76691E+00
 -1      3091 1.70679E+00
 -1      3092 2.03035E+00
 -1      3093 2.18886E+00
 -1      3094 2.14270E+00
 -1      3095 2.67555E+00
 -1      3096 2.90780E+00
 -1      3097 2.89281E+00
 -1      3098 3.37831E+00
 -1      3099 3.96442E+00
 -1      3100 3.85000E+00
 -1      3101 2.77637E+00
 -1      3102 3.32785E+00
 -1      3103 2.99396E+00
 -1      3104 2.95827E+00
 -1      3105 3.02740E+00
 -1      3106 2.76799E+00
 -1      3107 3.24239E+00
 -1      3108 2.73833E+00
 -1      3109 2.59519E+00
 -1      3110 3.28186E+00
 -1      3111 2.05758E+00
 -1      3112 1.88125E+00
 -1      3113 2.71459E+00
 -1      3114 1.67729E+00
 -1      3115 1.51950E+00
 -1      3116 1.97301E+00
 -1      3117 1.33864E+00
 -1      3118 1.25137E+00
 -1      3119 1.58819E+00
 -1      3120 1.09203E+00
 -1      3121 1.01040E+00
 -1      3122 1.24799E+00
 -1      3123 8.93088E-01
 -1      3124 8.13441E-01
 -1      3125 9.71335E-01
 -1      3126 7.23604E-01
 -1      3127 6.51109E-01
 -1      3128 7.64182E-01
 -1      3129 5.87412E-01
 -1      3130 5.24035E-01
 -1      3131 6.10648E-01
 -1      3132 4.67495E-01
 -1      3133 4.13598E-01
 -1      3134 4.90411E-01
 -1      3135 3.64767E-01
 -1      3136 3.19922E-01
 -1      3137 3.85040E-01
 -1      3138 2.79261E-01
 -1      3139 2.42654E-01
 -1      3140 2.95549E-01
 -1      3141 2.09724E-01
 -1      3142 1.80367E-01
 -1      3143 2.21958E-01
 -1      3144 1.54314E-01
 -1      3145 1.31172E-01
 -1      3146 1.62976E-01
 -1      3147 1.11339E-01
 -1      3148 9.34054E-02
 -1      3149 1.17090E-01
 -1      3150 7.88554E-02
 -1      3151 6.52001E-02
 -1      3152 8.27063E-02
 -1      3153 5.43135E-02
 -1      3154 4.41063E-02
 -1      3155 5.72698E-02
 -1      3156 3.64565E-02
 -1      3157 2.89801E-02
 -1      3158 3.87334E-02
 -1      3159 2.35848E-02
 -1      3160 1.82342E-02
 -1      3161 2.56884E-02
 -1      3162 1.43576E-02
 -1      3163 1.15562E-02
 -1      3164 1.64165E-02
 -1      3165 8.84242E-03
 -1      3166 8.50220E-03
 -1      3167 9.82597E-03
 -1      3168 7.75959E-03
 -1      3169 7.30693E-03
 -1      3170 6.36953E-03
 -1      3171 7.40874E-03
 -1      3172 6.80181E-03
 -1      3173 5.72873E-03
 -1      3174 6.63404E-03
 -1      3175 5.96510E-03
 -1      3176 5.66278E-03
 -1      3177 5.63922E-03
 -1      3178 4.99791E-03
 -1      3179 5.16913E-03
 -1      3180 4.59204E-03
 -1      3181 4.14994E-03
 -1      3182 4.43738E-03
 -1      3183 3.81308E-03
 -1      3184 3.34540E-03
 -1      3185 3.69466E-03
 -1      3186 3.99185E+00
 -1      3187 2.94716E+00
 -1      3188 1.99657E-03
 -1      3189 1.97575E-03
 -1      3190 2.99276E+00
 -1      3191 2.49023E+00
 -1      3192 2.38562E+00
 -1      3193 2.31154E+00
 -1      3194 2.93059E+00
 -1      3195 4.39682E+00
 -1      3196 4.33516E+00
 -1      3197 5.23348E+00
 -1      3198 4.79441E+00
 -1      3199 2.39771E+00
 -1      3200 2.95599E+00
 -1      3201 2.26510E+00
 -1      3202 2.24770E+00
 -1      3203 2.60058E+00
 -1      3204 2.64447E+00
 -1      3205 3.02651E+00
 -1      3206 1.86887E+00
 -1      3207 2.06116E+00
 -1      3208 2.86647E+00
 -1      3209 1.62500E+00
 -1      3210 1.66825E+00
 -1      3211 2.12643E+00
 -1      3212 1.33842E+00
 -1      3213 1.42259E+00
 -1      3214 1.72340E+00
 -1      3215 1.10223E+00
 -1      3216 1.19258E+00
 -1      3217 1.37515E+00
 -1      3218 9.48129E-01
 -1      3219 1.00443E+00
 -1      3220 1.13151E+00
 -1      3221 8.00336E-01
 -1      3222 8.54567E-01
 -1      3223 9.40145E-01
 -1      3224 6.62829E-01
 -1      3225 7.21749E-01
 -1      3226 7.67996E-01
 -1      3227 5.35616E-01
 -1      3228 5.92991E-01
 -1      3229 6.19572E-01
 -1      3230 4.23765E-01
 -1      3231 4.76058E-01
 -1      3232 4.90176E-01
 -1      3233 3.29361E-01
 -1      3234 3.74898E-01
 -1      3235 3.81752E-01
 -1      3236 2.52486E-01
 -1      3237 2.90796E-01
 -1      3238 2.94320E-01
 -1      3239 1.90110E-01
 -1      3240 2.21452E-01
 -1      3241 2.24721E-01
 -1      3242 1.40400E-01
 -1      3243 1.65431E-01
 -1      3244 1.69007E-01
 -1      3245 1.01473E-01
 -1      3246 1.21031E-01
 -1      3247 1.24960E-01
 -1      3248 7.15254E-02
 -1      3249 8.64895E-02
 -1      3250 9.06075E-02
 -1      3251 4.89041E-02
 -1      3252 6.01138E-02
 -1      3253 6.42121E-02
 -1      3254 3.21501E-02
 -1      3255 4.03611E-02
 -1      3256 4.42575E-02
 -1      3257 2.05909E-02
 -1      3258 2.58769E-02
 -1      3259 2.94413E-02
 -1      3260 1.38838E-02
 -1      3261 1.60863E-02
 -1      3262 1.86636E-02
 -1      3263 1.03341E-02
 -1      3264 1.09543E-02
 -1      3265 1.12295E-02
 -1      3266 9.02926E-03
 -1      3267 9.83751E-03
 -1      3268 7.80335E-03
 -1      3269 8.03622E-03
 -1      3270 8.91552E-03
 -1      3271 7.19301E-03
 -1      3272 6.82185E-03
 -1      3273 7.69669E-03
 -1      3274 6.73974E-03
 -1      3275 5.65564E-03
 -1      3276 6.36079E-03
 -1      3277 5.93914E-03
 -1      3278 4.63076E-03
 -1      3279 5.14499E-03
 -1      3280 4.96742E-03
 -1      3281 3.73399E-03
 -1      3282 4.26285E-03
 -1      3283 4.08885E-03
 -1      3284 2.89263E-03
 -1      3285 3.35672E-03
 -1      3286 3.34366E-03
 -1      3287 2.42054E-03
 -1      3288 2.60282E-03
 -1      3289 2.67658E-03
 -1      3290 2.14179E-03
 -1      3291 1.29563E+00
 -1      3292 1.20819E+00
 -1      3293 1.19271E+01
 -1      3294 1.00417E+01
 -1      3295 9.24745E-01
 -1      3296 8.02955E-01
 -1      3297 3.73710E+00
 -1      3298 3.46977E+00
 -1      3299 1.86901E-03
 -1      3300 1.86996E-03
 -1      3301 1.98340E-03
 -1      3302 2.77119E-03
 -1      3303 2.35073E-03
 -1      3304 5.34431E+00
 -1      3305 3.62347E+00
 -1      3306 1.26272E+01
 -1      3307 1.42617E+01
 -1      3308 2.97468E+00
 -1      3309 3.90434E+00
 -1      3310 3.70203E+00
 -1      3311 4.05813E+00
 -1      3312 5.83434E+00
 -1      3313 6.40699E+00
 -1      3314 2.16729E-03
 -1      3315 2.16729E-03
 -1      3316 2.26086E-03
 -1      3317 2.61501E-03
 -1      3318 3.42733E+00
 -1      3319 1.70819E+01
 -1      3320 1.34283E+01
 -1      3321 1.39218E+00
 -1      3322 1.32443E+00
 -1      3323 1.51621E+00
 -1      3324 9.24553E+00
 -1      3325 1.10265E+01
 -1      3326 4.97117E+00
 -1      3327 7.05618E+00
 -1      3328 8.49498E+00
 -1      3329 7.51475E+00
 -1      3330 5.54236E+00
 -1      3331 3.62083E+00
 -1      3332 3.14814E+00
 -1      3333 1.18930E+01
 -1      3334 1.11658E+01
 -1      3335 1.07440E+01
 -1      3336 1.01044E+01
 -1      3337 8.88166E+00
 -1      3338 1.16963E+00
 -1      3339 1.07555E+00
 -1      3340 1.20481E+00
 -1      3341 1.38407E+00
 -1      3342 1.16963E+00
 -1      3343 1.15531E+00
 -1      3344 2.79140E-03
 -1      3345 2.79140E-03
 -1      3346 2.81865E-03
 -1      3347 2.64360E-03
 -1      3348 6.88205E-01
 -1      3349 6.69944E-01
 -1      3350 9.24961E-01
 -1      3351 1.16963E+00
 -1      3352 8.19483E+00
 -1      3353 3.99026E+00
 -1      3354 4.51363E+00
 -1      3355 3.20915E+00
 -1      3356 5.65201E+00
 -1      3357 1.37858E+00
 -1      3358 1.17958E+00
 -1      3359 1.29455E+00
 -1      3360 1.40253E+00
 -1      3361 1.33600E+00
 -1      3362 7.89340E+00
 -1      3363 8.32104E+00
 -1      3364 2.96883E+00
 -1      3365 2.90174E+00
 -1      3366 3.90108E+00
 -1      3367 3.49745E+00
 -1      3368 2.94444E+00
 -1      3369 4.00068E+00
 -1      3370 3.08593E-03
 -1      3371 2.79715E+00
 -1      3372 9.62699E-01
 -1      3373 1.07424E+00
 -1      3374 1.08855E+00
 -1      3375 2.56826E+00
 -1      3376 2.05383E+00
 -1      3377 1.81767E+00
 -1      3378 3.09833E-03
 -1      3379 9.86600E+00
 -1      3380 1.08560E+01
 -1      3381 7.67595E+00
 -1      3382 9.17713E+00
 -1      3383 2.05020E-03
 -1      3384 2.05020E-03
 -1      3385 1.95212E-03
 -1      3386 1.97313E-03
 -1      3387 2.11806E-03
 -1      3388 1.95883E-03
 -1      3389 1.40004E+01
 -1      3390 1.06188E+01
 -1      3391 9.63939E+00
 -1      3392 6.26797E+00
 -1      3393 7.03813E+00
 -1      3394 4.86790E+00
 -1      3395 9.66515E+00
 -1      3396 1.24601E+01
 -1      3397 9.11959E+00
 -1      3398 6.14599E+00
 -1      3399 4.85918E+00
 -1      3400 9.05535E-01
 -1      3401 9.50313E-01
 -1      3402 8.17467E-01
 -1      3403 4.47787E+00
 -1      3404 3.77597E+00
 -1      3405 3.67136E+00
 -1      3406 4.83576E+00
 -1      3407 1.39271E+00
 -1      3408 1.11315E+00
 -1      3409 1.06545E+00
 -1      3410 1.26237E+00
 -1      3411 1.39237E+00
 -1      3412 7.01342E+00
 -1      3413 5.04185E+00
 -1      3414 2.05020E-03
 -1      3415 2.00644E-03
 -1      3416 2.19513E-03
 -1      3417 1.19486E+01
 -1      3418 4.00787E+00
 -1      3419 1.61659E+00
 -1      3420 1.57388E+00
 -1      3421 1.72671E+00
 -1      3422 2.10947E+00
 -1      3423 1.07892E+01
 -1      3424 8.19961E+00
 -1      3425 8.73569E+00
 -1      3426 1.40224E+00
 -1      3427 1.54940E+00
 -1      3428 1.43750E+00
 -1      3429 6.55677E+00
 -1      3430 8.42460E+00
 -1      3431 7.87512E+00
 -1      3432 1.88288E+00
 -1      3433 2.05536E+00
 -1      3434 1.89796E+00
 -1      3435 2.88141E+00
 -1      3436 3.14485E+00
 -1      3437 3.05750E+00
 -1      3438 4.04589E+00
 -1      3439 4.53257E+00
 -1      3440 4.78460E+00
 -1      3441 5.07185E+00
 -1      3442 5.39989E+00
 -1      3443 5.70712E+00
 -1      3444 4.10242E+00
 -1      3445 4.07276E+00
 -1      3446 3.54816E+00
 -1      3447 3.01055E+00
 -1      3448 2.45211E+00
 -1      3449 2.24815E+00
 -1      3450 3.28568E+00
 -1      3451 1.81701E+00
 -1      3452 1.63616E+00
 -1      3453 2.29611E+00
 -1      3454 1.38382E+00
 -1      3455 1.22447E+00
 -1      3456 1.61264E+00
 -1      3457 1.06578E+00
 -1      3458 9.48468E-01
 -1      3459 1.20161E+00
 -1      3460 8.49771E-01
 -1      3461 7.59934E-01
 -1      3462 9.44219E-01
 -1      3463 6.74345E-01
 -1      3464 6.10648E-01
 -1      3465 7.59934E-01
 -1      3466 5.38802E-01
 -1      3467 4.82262E-01
 -1      3468 6.02499E-01
 -1      3469 4.23068E-01
 -1      3470 3.74237E-01
 -1      3471 4.71459E-01
 -1      3472 3.26107E-01
 -1      3473 2.85446E-01
 -1      3474 3.64135E-01
 -1      3475 2.46776E-01
 -1      3476 2.13846E-01
 -1      3477 2.77334E-01
 -1      3478 1.83158E-01
 -1      3479 1.57106E-01
 -1      3480 2.07976E-01
 -1      3481 1.33075E-01
 -1      3482 1.13241E-01
 -1      3483 1.53258E-01
 -1      3484 9.46935E-02
 -1      3485 8.01436E-02
 -1      3486 1.10679E-01
 -1      3487 6.60515E-02
 -1      3488 5.51650E-02
 -1      3489 7.80388E-02
 -1      3490 4.52218E-02
 -1      3491 3.75720E-02
 -1      3492 5.40036E-02
 -1      3493 3.02137E-02
 -1      3494 2.48185E-02
 -1      3495 3.67021E-02
 -1      3496 1.94557E-02
 -1      3497 1.55790E-02
 -1      3498 2.39810E-02
 -1      3499 1.17683E-02
 -1      3500 9.05452E-03
 -1      3501 1.48076E-02
 -1      3502 6.48281E-03
 -1      3503 5.74020E-03
 -1      3504 8.42518E-03
 -1      3505 4.31365E-03
 -1      3506 4.41546E-03
 -1      3507 4.42692E-03
 -1      3508 4.78300E-03
 -1      3509 4.61523E-03
 -1      3510 3.36791E-03
 -1      3511 4.69167E-03
 -1      3512 4.36579E-03
 -1      3513 3.81189E-03
 -1      3514 4.24359E-03
 -1      3515 3.83772E-03
 -1      3516 3.76613E-03
 -1      3517 3.60280E-03
 -1      3518 3.26594E-03
 -1      3519 3.40901E-03
 -1      3520 1.04518E+00
 -1      3521 1.12626E+00
 -1      3522 1.12626E+00
 -1      3523 3.48394E+00
 -1      3524 3.10457E+00
 -1      3525 1.92052E+00
 -1      3526 2.12293E+00
 -1      3527 1.48421E+00
 -1      3528 1.63005E+00
 -1      3529 2.02958E+00
 -1      3530 1.17234E+00
 -1      3531 1.27014E+00
 -1      3532 1.52503E+00
 -1      3533 9.16926E-01
 -1      3534 1.01049E+00
 -1      3535 1.14912E+00
 -1      3536 7.37285E-01
 -1      3537 8.15871E-01
 -1      3538 8.86215E-01
 -1      3539 5.93376E-01
 -1      3540 6.63214E-01
 -1      3541 7.11089E-01
 -1      3542 4.73245E-01
 -1      3543 5.32802E-01
 -1      3544 5.76444E-01
 -1      3545 3.70741E-01
 -1      3546 4.19608E-01
 -1      3547 4.62233E-01
 -1      3548 2.86488E-01
 -1      3549 3.25052E-01
 -1      3550 3.62908E-01
 -1      3551 2.17607E-01
 -1      3552 2.48642E-01
 -1      3553 2.79374E-01
 -1      3554 1.62283E-01
 -1      3555 1.86962E-01
 -1      3556 2.10883E-01
 -1      3557 1.18597E-01
 -1      3558 1.37966E-01
 -1      3559 1.55920E-01
 -1      3560 8.46861E-02
 -1      3561 9.96699E-02
 -1      3562 1.12676E-01
 -1      3563 5.91753E-02
 -1      3564 7.05870E-02
 -1      3565 7.96494E-02
 -1      3566 4.03546E-02
 -1      3567 4.88976E-02
 -1      3568 5.52725E-02
 -1      3569 2.64391E-02
 -1      3570 3.27123E-02
 -1      3571 3.73525E-02
 -1      3572 1.63827E-02
 -1      3573 2.08872E-02
 -1      3574 2.41582E-02
 -1      3575 9.58704E-03
 -1      3576 1.25166E-02
 -1      3577 1.47402E-02
 -1      3578 6.50878E-03
 -1      3579 7.00539E-03
 -1      3580 8.29247E-03
 -1      3581 5.53807E-03
 -1      3582 5.65181E-03
 -1      3583 4.85384E-03
 -1      3584 5.47872E-03
 -1      3585 5.81826E-03
 -1      3586 4.27705E-03
 -1      3587 5.00115E-03
 -1      3588 5.46221E-03
 -1      3589 4.54073E-03
 -1      3590 4.28970E-03
 -1      3591 4.80035E-03
 -1      3592 4.32343E-03
 -1      3593 3.61711E-03
 -1      3594 3.98502E-03
 -1      3595 3.81796E-03
 -1      3596 2.94676E-03
 -1      3597 3.32403E-03
 -1      3598 3.22020E-03
 -1      3599 3.55220E+00
 -1      3600 5.25828E+00
 -1      3601 1.97830E-03
 -1      3602 1.87156E-03
 -1      3603 6.72990E+00
 -1      3604 5.28343E+00
 -1      3605 6.69944E-01
 -1      3606 7.75998E-01
 -1      3607 8.51680E-01
 -1      3608 8.10211E-01
 -1      3609 2.92816E+00
 -1      3610 3.12879E+00
 -1      3611 3.12528E+00
 -1      3612 3.09833E-03
 -1      3613 2.83886E-03
 -1      3614 2.81865E-03
 -1      3615 3.00647E-03
 -1      3616 7.45533E+00
 -1      3617 7.03356E+00
 -1      3618 2.03645E+00
 -1      3619 2.00765E+00
 -1      3620 7.39114E+00
 -1      3621 8.99186E+00
 -1      3622 3.00372E+00
 -1      3623 3.54313E+00
 -1      3624 3.62119E+00
 -1      3625 3.80545E+00
 -1      3626 8.44137E+00
 -1      3627 6.80147E+00
 -1      3628 7.18537E+00
 -1      3629 1.20772E+00
 -1      3630 1.24291E+00
 -1      3631 1.40515E+00
 -1      3632 1.16435E+00
 -1      3633 4.75833E+00
 -1      3634 5.21314E+00
 -1      3635 4.07700E+00
 -1      3636 4.08538E+00
 -1      3637 3.24000E+00
 -1      3638 2.98228E+00
 -1      3639 4.32696E+00
 -1      3640 2.11315E-03
 -1      3641 2.15268E-03
 -1      3642 2.39765E-03
 -1      3643 2.30184E-03
 -1      3644 7.66892E+00
 -1      3645 7.11670E+00
 -1      3646 1.56352E+00
 -1      3647 9.80074E+00
 -1      3648 9.60158E+00
 -1      3649 8.27184E+00
 -1      3650 5.96997E+00
 -1      3651 7.07379E+00
 -1      3652 5.22569E+00
 -1      3653 1.61998E+00
 -1      3654 1.76014E+00
 -1      3655 2.75173E+00
 -1      3656 6.27033E+00
 -1      3657 8.41816E+00
 -1      3658 5.84587E+00
 -1      3659 5.19379E+00
 -1      3660 5.29735E+00
 -1      3661 1.88942E-03
 -1      3662 1.97158E-03
 -1      3663 1.88432E-03
 -1      3664 1.89472E+00
 -1      3665 1.71224E+00
 -1      3666 1.69811E+00
 -1      3667 4.36872E+00
 -1      3668 5.30357E+00
 -1      3669 1.09651E+00
 -1      3670 1.13421E+00
 -1      3671 1.03934E+00
 -1      3672 5.74206E+00
 -1      3673 2.67852E-03
 -1      3674 2.65832E-03
 -1      3675 2.47488E-03
 -1      3676 2.68747E-03
 -1      3677 7.23928E+00
 -1      3678 6.16115E+00
 -1      3679 6.16818E+00
 -1      3680 6.22493E+00
 -1      3681 2.12350E-03
 -1      3682 2.20057E-03
 -1      3683 2.05410E-03
 -1      3684 4.57282E+00
 -1      3685 1.12445E+00
 -1      3686 1.00970E+00
 -1      3687 8.68453E+00
 -1      3688 6.88296E+00
 -1      3689 6.20967E+00
 -1      3690 1.71502E+00
 -1      3691 6.97547E+00
 -1      3692 6.10132E+00
 -1      3693 2.39241E-03
 -1      3694 2.39241E-03
 -1      3695 2.39785E-03
 -1      3696 1.81693E+00
 -1      3697 2.30837E+00
 -1      3698 1.99862E+00
 -1      3699 2.66784E-03
 -1      3700 2.23525E+00
 -1      3701 2.28485E-03
 -1      3702 2.11413E-03
 -1      3703 2.00229E-03
 -1      3704 2.32816E-03
 -1      3705 4.44769E+00
 -1      3706 5.70674E+00
 -1      3707 4.58092E+00
 -1      3708 5.41242E+00
 -1      3709 1.38675E+00
 -1      3710 1.13191E+00
 -1      3711 1.21665E+00
 -1      3712 1.53547E+00
 -1      3713 2.10958E+00
 -1      3714 2.44307E+00
 -1      3715 2.49785E+00
 -1      3716 3.32390E+00
 -1      3717 2.70947E+00
 -1      3718 4.05979E+00
 -1      3719 4.96084E+00
 -1      3720 5.37651E+00
 -1      3721 3.50014E+00
 -1      3722 1.49377E+00
 -1      3723 1.70784E+00
 -1      3724 4.07162E+00
 -1      3725 3.51319E+00
 -1      3726 2.66525E+00
 -1      3727 2.23411E+00
 -1      3728 3.45118E+00
 -1      3729 1.83119E+00
 -1      3730 1.57885E+00
 -1      3731 2.20032E+00
 -1      3732 1.36030E+00
 -1      3733 1.20161E+00
 -1      3734 1.57885E+00
 -1      3735 1.03674E+00
 -1      3736 9.38041E-01
 -1      3737 1.19543E+00
 -1      3738 8.15963E-01
 -1      3739 7.30374E-01
 -1      3740 9.08481E-01
 -1      3741 6.38664E-01
 -1      3742 5.66817E-01
 -1      3743 6.94693E-01
 -1      3744 4.96762E-01
 -1      3745 4.37568E-01
 -1      3746 5.32926E-01
 -1      3747 3.83217E-01
 -1      3748 3.35086E-01
 -1      3749 4.08519E-01
 -1      3750 2.92534E-01
 -1      3751 2.53864E-01
 -1      3752 3.11616E-01
 -1      3753 2.20471E-01
 -1      3754 1.89783E-01
 -1      3755 2.35671E-01
 -1      3756 1.63659E-01
 -1      3757 1.39628E-01
 -1      3758 1.76154E-01
 -1      3759 1.19337E-01
 -1      3760 1.00790E-01
 -1      3761 1.29739E-01
 -1      3762 8.51926E-02
 -1      3763 7.11006E-02
 -1      3764 9.38513E-02
 -1      3765 5.92660E-02
 -1      3766 4.93228E-02
 -1      3767 6.64198E-02
 -1      3768 4.06218E-02
 -1      3769 3.32636E-02
 -1      3770 4.58843E-02
 -1      3771 2.71989E-02
 -1      3772 2.18361E-02
 -1      3773 3.11186E-02
 -1      3774 1.73918E-02
 -1      3775 1.35811E-02
 -1      3776 2.06097E-02
 -1      3777 1.03944E-02
 -1      3778 7.82270E-03
 -1      3779 1.29786E-02
 -1      3780 5.62086E-03
 -1      3781 4.19430E-03
 -1      3782 7.59008E-03
 -1      3783 2.90537E-03
 -1      3784 3.27291E-03
 -1      3785 4.09930E-03
 -1      3786 3.09415E-03
 -1      3787 3.17058E-03
 -1      3788 2.63160E-03
 -1      3789 3.34778E-03
 -1      3790 3.22558E-03
 -1      3791 2.63003E-03
 -1      3792 3.21224E-03
 -1      3793 2.97732E-03
 -1      3794 2.79389E-03
 -1      3795 2.56113E-03
 -1      3796 6.20474E+00
 -1      3797 2.28414E+00
 -1      3798 2.57462E+00
 -1      3799 2.25288E+00
 -1      3800 8.86215E-01
 -1      3801 9.87270E-01
 -1      3802 7.11089E-01
 -1      3803 7.85159E-01
 -1      3804 8.86215E-01
 -1      3805 5.67330E-01
 -1      3806 6.27904E-01
 -1      3807 7.01975E-01
 -1      3808 4.46124E-01
 -1      3809 4.99761E-01
 -1      3810 5.51221E-01
 -1      3811 3.45861E-01
 -1      3812 3.91549E-01
 -1      3813 4.29076E-01
 -1      3814 2.64142E-01
 -1      3815 3.01988E-01
 -1      3816 3.30629E-01
 -1      3817 1.98460E-01
 -1      3818 2.29105E-01
 -1      3819 2.51719E-01
 -1      3820 1.46412E-01
 -1      3821 1.70730E-01
 -1      3822 1.88952E-01
 -1      3823 1.05781E-01
 -1      3824 1.24708E-01
 -1      3825 1.39518E-01
 -1      3826 7.49145E-02
 -1      3827 8.90137E-02
 -1      3828 1.01046E-01
 -1      3829 5.18739E-02
 -1      3830 6.21517E-02
 -1      3831 7.15160E-02
 -1      3832 3.49570E-02
 -1      3833 4.25993E-02
 -1      3834 4.94785E-02
 -1      3835 2.27897E-02
 -1      3836 2.83416E-02
 -1      3837 3.35884E-02
 -1      3838 1.40822E-02
 -1      3839 1.79483E-02
 -1      3840 2.21317E-02
 -1      3841 8.03734E-03
 -1      3842 1.06190E-02
 -1      3843 1.38271E-02
 -1      3844 4.80253E-03
 -1      3845 5.65950E-03
 -1      3846 7.98602E-03
 -1      3847 3.70317E-03
 -1      3848 3.42298E-03
 -1      3849 4.22864E-03
 -1      3850 3.73966E-03
 -1      3851 3.75617E-03
 -1      3852 2.90210E-03
 -1      3853 3.68030E-03
 -1      3854 3.88110E-03
 -1      3855 3.09654E-03
 -1      3856 3.31537E-03
 -1      3857 3.62004E-03
 -1      3858 3.17771E-03
 -1      3859 2.52789E+00
 -1      3860 2.23525E+00
 -1      3861 2.18736E+00
 -1      3862 4.02738E+00
 -1      3863 5.39036E+00
 -1      3864 4.21045E+00
 -1      3865 4.59199E+00
 -1      3866 2.92719E-03
 -1      3867 2.75958E-03
 -1      3868 2.59925E-03
 -1      3869 2.73043E-03
 -1      3870 2.39768E+00
 -1      3871 2.19661E+00
 -1      3872 2.28683E+00
 -1      3873 3.06941E+00
 -1      3874 1.14544E+00
 -1      3875 9.45946E-01
 -1      3876 1.11742E+00
 -1      3877 1.27926E+00
 -1      3878 1.46207E+00
 -1      3879 1.11742E+00
 -1      3880 5.02102E+00
 -1      3881 4.71736E+00
 -1      3882 4.04441E+00
 -1      3883 4.00577E+00
 -1      3884 6.23386E+00
 -1      3885 7.44865E+00
 -1      3886 6.63057E+00
 -1      3887 4.96389E+00
 -1      3888 5.21746E+00
 -1      3889 2.75841E-03
 -1      3890 5.44496E+00
 -1      3891 3.84396E+00
 -1      3892 4.10719E+00
 -1      3893 3.47349E+00
 -1      3894 6.27033E+00
 -1      3895 5.08690E+00
 -1      3896 5.44714E+00
 -1      3897 4.32070E+00
 -1      3898 2.93134E+00
 -1      3899 3.73657E+00
 -1      3900 2.82049E-03
 -1      3901 3.11357E-03
 -1      3902 9.45946E-01
 -1      3903 5.76946E+00
 -1      3904 5.33279E+00
 -1      3905 3.18590E+00
 -1      3906 2.91565E-03
 -1      3907 5.01049E+00
 -1      3908 1.94973E-03
 -1      3909 2.10165E-03
 -1      3910 5.06918E+00
 -1      3911 1.60948E+00
 -1      3912 2.15459E+00
 -1      3913 1.45015E+00
 -1      3914 2.10165E-03
 -1      3915 2.20601E-03
 -1      3916 2.39785E-03
 -1      3917 1.21568E+00
 -1      3918 1.83681E-03
 -1      3919 1.85467E-03
 -1      3920 1.90222E-03
 -1      3921 9.55375E-01
 -1      3922 9.96844E-01
 -1      3923 1.14304E+00
 -1      3924 1.09111E+00
 -1      3925 1.61777E+00
 -1      3926 1.61031E+00
 -1      3927 1.61031E+00
 -1      3928 1.54656E+00
 -1      3929 2.01143E+00
 -1      3930 2.06149E-03
 -1      3931 1.92565E-03
 -1      3932 1.89600E-03
 -1      3933 5.11002E+00
 -1      3934 5.41242E+00
 -1      3935 4.31769E+00
 -1      3936 2.65177E-03
 -1      3937 5.01532E+00
 -1      3938 2.47874E+00
 -1      3939 2.07582E+00
 -1      3940 1.73442E+00
 -1      3941 1.51586E+00
 -1      3942 2.01283E+00
 -1      3943 1.26587E+00
 -1      3944 1.10100E+00
 -1      3945 1.42143E+00
 -1      3946 9.37416E-01
 -1      3947 8.15338E-01
 -1      3948 1.00786E+00
 -1      3949 7.05512E-01
 -1      3950 6.13801E-01
 -1      3951 7.34447E-01
 -1      3952 5.36740E-01
 -1      3953 4.66684E-01
 -1      3954 5.47559E-01
 -1      3955 4.10061E-01
 -1      3956 3.55709E-01
 -1      3957 4.13874E-01
 -1      3958 3.12806E-01
 -1      3959 2.70254E-01
 -1      3960 3.14348E-01
 -1      3961 2.37161E-01
 -1      3962 2.03768E-01
 -1      3963 2.38351E-01
 -1      3964 1.78043E-01
 -1      3965 1.51918E-01
 -1      3966 1.79532E-01
 -1      3967 1.31916E-01
 -1      3968 1.11625E-01
 -1      3969 1.33804E-01
 -1      3970 9.61529E-02
 -1      3971 8.05560E-02
 -1      3972 9.83298E-02
 -1      3973 6.86966E-02
 -1      3974 5.68620E-02
 -1      3975 7.09982E-02
 -1      3976 4.78817E-02
 -1      3977 3.91808E-02
 -1      3978 5.01585E-02
 -1      3979 3.25929E-02
 -1      3980 2.65282E-02
 -1      3981 3.45903E-02
 -1      3982 2.23199E-02
 -1      3983 1.78756E-02
 -1      3984 2.37941E-02
 -1      3985 1.47022E-02
 -1      3986 1.15155E-02
 -1      3987 1.64125E-02
 -1      3988 9.16445E-03
 -1      3989 6.96261E-03
 -1      3990 1.08880E-02
 -1      3991 5.25564E-03
 -1      3992 3.96671E-03
 -1      3993 6.83001E-03
 -1      3994 2.75044E-03
 -1      3995 2.57168E-03
 -1      3996 3.90678E-03
 -1      3997 2.08820E-03
 -1      3998 2.26540E-03
 -1      3999 2.20704E-03
 -1      4000 2.45629E-03
 -1      4001 2.44295E-03
 -1      4002 1.91446E-03
 -1      4003 5.07690E-01
 -1      4004 5.75259E-01
 -1      4005 2.21904E+00
 -1      4006 2.79535E+00
 -1      4007 6.58985E-01
 -1      4008 7.42170E-01
 -1      4009 6.15454E-01
 -1      4010 8.56418E-01
 -1      4011 9.57473E-01
 -1      4012 8.13428E-01
 -1      4013 3.90189E-01
 -1      4014 4.44765E-01
 -1      4015 4.68803E-01
 -1      4016 2.98034E-01
 -1      4017 3.41906E-01
 -1      4018 3.57594E-01
 -1      4019 2.25494E-01
 -1      4020 2.60530E-01
 -1      4021 2.71808E-01
 -1      4022 1.68499E-01
 -1      4023 1.96229E-01
 -1      4024 2.05040E-01
 -1      4025 1.23992E-01
 -1      4026 1.45696E-01
 -1      4027 1.52973E-01
 -1      4028 8.95640E-02
 -1      4029 1.06331E-01
 -1      4030 1.12510E-01
 -1      4031 6.32535E-02
 -1      4032 7.60163E-02
 -1      4033 8.13015E-02
 -1      4034 4.37137E-02
 -1      4035 5.29884E-02
 -1      4036 5.74887E-02
 -1      4037 2.94655E-02
 -1      4038 3.60809E-02
 -1      4039 3.95908E-02
 -1      4040 1.94380E-02
 -1      4041 2.42793E-02
 -1      4042 2.67718E-02
 -1      4043 1.21687E-02
 -1      4044 1.56319E-02
 -1      4045 1.77795E-02
 -1      4046 7.16760E-03
 -1      4047 9.54544E-03
 -1      4048 1.13503E-02
 -1      4049 4.03827E-03
 -1      4050 5.41782E-03
 -1      4051 6.97723E-03
 -1      4052 2.90210E-03
 -1      4053 2.84910E-03
 -1      4054 4.03827E-03
 -1      4055 2.63132E-03
 -1      4056 2.48988E-03
 -1      4057 2.43688E-03
 -1      4058 2.75844E-03
 -1      4059 2.81871E-03
 -1      4060 2.21205E-03
 -1      4061 4.39040E+00
 -1      4062 4.31398E+00
 -1      4063 4.39040E+00
 -1      4064 2.91900E+00
 -1      4065 2.91900E+00
 -1      4066 3.73849E+00
 -1      4067 3.83151E+00
 -1      4068 3.47479E+00
 -1      4069 4.44577E+00
 -1      4070 3.58191E+00
 -1      4071 4.41507E+00
 -1      4072 3.62275E+00
 -1      4073 3.93244E+00
 -1      4074 1.42001E+00
 -1      4075 2.45993E-03
 -1      4076 2.00624E+00
 -1      4077 1.69488E+00
 -1      4078 2.08854E+00
 -1      4079 2.34677E+00
 -1      4080 2.31622E-03
 -1      4081 2.12618E-03
 -1      4082 2.04955E-03
 -1      4083 2.39727E-03
 -1      4084 2.69948E+00
 -1      4085 3.44095E+00
 -1      4086 1.77422E-03
 -1      4087 1.86928E-03
 -1      4088 3.69280E+00
 -1      4089 3.69280E+00
 -1      4090 4.04752E+00
 -1      4091 4.89102E+00
 -1      4092 3.36808E+00
 -1      4093 4.61660E+00
 -1      4094 3.94058E+00
 -1      4095 3.09264E+00
 -1      4096 2.96814E+00
 -1      4097 4.25805E+00
 -1      4098 3.45981E+00
 -1      4099 2.84602E+00
 -1      4100 3.26182E+00
 -1      4101 2.07035E-03
 -1      4102 2.19836E-03
 -1      4103 3.34018E+00
 -1      4104 2.94906E+00
 -1      4105 2.79124E+00
 -1      4106 3.63797E+00
 -1      4107 1.37751E+00
 -1      4108 1.83084E-03
 -1      4109 1.74200E-03
 -1      4110 1.70905E-03
 -1      4111 3.21906E+00
 -1      4112 2.66173E-03
 -1      4113 2.30273E-03
 -1      4114 3.87246E+00
 -1      4115 2.76794E+00
 -1      4116 1.48693E+00
 -1      4117 1.49636E+00
 -1      4118 1.95180E+00
 -1      4119 2.53966E+00
 -1      4120 2.53966E+00
 -1      4121 1.08762E+00
 -1      4122 1.11742E+00
 -1      4123 1.24756E+00
 -1      4124 2.79124E+00
 -1      4125 3.48619E+00
 -1      4126 2.86129E+00
 -1      4127 2.65469E+00
 -1      4128 1.46207E+00
 -1      4129 1.67658E+00
 -1      4130 1.46207E+00
 -1      4131 2.21904E+00
 -1      4132 2.44740E-03
 -1      4133 2.10980E-03
 -1      4134 2.27343E+00
 -1      4135 2.27343E+00
 -1      4136 4.53078E+00
 -1      4137 2.07674E+00
 -1      4138 1.73533E+00
 -1      4139 3.44343E+00
 -1      4140 1.80094E-03
 -1      4141 2.13003E-03
 -1      4142 1.94264E-03
 -1      4143 1.77333E+00
 -1      4144 2.04510E-03
 -1      4145 2.33306E+00
 -1      4146 1.48803E+00
 -1      4147 1.23804E+00
 -1      4148 1.55193E+00
 -1      4149 1.05955E+00
 -1      4150 8.95967E-01
 -1      4151 1.12615E+00
 -1      4152 7.73157E-01
 -1      4153 6.63330E-01
 -1      4154 8.24850E-01
 -1      4155 5.76751E-01
 -1      4156 4.99690E-01
 -1      4157 6.15461E-01
 -1      4158 4.36316E-01
 -1      4159 3.79693E-01
 -1      4160 4.65509E-01
 -1      4161 3.31856E-01
 -1      4162 2.88952E-01
 -1      4163 3.54298E-01
 -1      4164 2.52112E-01
 -1      4165 2.19019E-01
 -1      4166 2.69621E-01
 -1      4167 1.90361E-01
 -1      4168 1.64635E-01
 -1      4169 2.04122E-01
 -1      4170 1.43134E-01
 -1      4171 1.23131E-01
 -1      4172 1.53962E-01
 -1      4173 1.06415E-01
 -1      4174 9.09431E-02
 -1      4175 1.15745E-01
 -1      4176 7.78358E-02
 -1      4177 6.59764E-02
 -1      4178 8.59212E-02
 -1      4179 5.58136E-02
 -1      4180 4.68333E-02
 -1      4181 6.26511E-02
 -1      4182 3.90576E-02
 -1      4183 3.24697E-02
 -1      4184 4.47126E-02
 -1      4185 2.67672E-02
 -1      4186 2.25589E-02
 -1      4187 3.12344E-02
 -1      4188 1.85781E-02
 -1      4189 1.54047E-02
 -1      4190 2.15511E-02
 -1      4191 1.24308E-02
 -1      4192 1.00797E-02
 -1      4193 1.45964E-02
 -1      4194 7.89636E-03
 -1      4195 6.18940E-03
 -1      4196 9.43907E-03
 -1      4197 4.61620E-03
 -1      4198 3.39993E-03
 -1      4199 5.68255E-03
 -1      4200 2.30194E-03
 -1      4201 1.81846E-03
 -1      4202 3.01135E-03
 -1      4203 3.55723E-01
 -1      4204 4.04006E-01
 -1      4205 2.39606E+00
 -1      4206 3.00263E+00
 -1      4207 1.85360E+00
 -1      4208 4.67380E-01
 -1      4209 5.30306E-01
 -1      4210 4.65509E-01
 -1      4211 8.23420E-01
 -1      4212 9.37668E-01
 -1      4213 2.70383E-01
 -1      4214 3.07886E-01
 -1      4215 3.54298E-01
 -1      4216 2.04278E-01
 -1      4217 2.33543E-01
 -1      4218 2.69621E-01
 -1      4219 1.52817E-01
 -1      4220 1.75620E-01
 -1      4221 2.04122E-01
 -1      4222 1.12813E-01
 -1      4223 1.30474E-01
 -1      4224 1.53121E-01
 -1      4225 8.19078E-02
 -1      4226 9.54555E-02
 -1      4227 1.13420E-01
 -1      4228 5.82620E-02
 -1      4229 6.85272E-02
 -1      4230 8.26811E-02
 -1      4231 4.04264E-02
 -1      4232 4.80592E-02
 -1      4233 5.90976E-02
 -1      4234 2.79967E-02
 -1      4235 3.31829E-02
 -1      4236 4.16513E-02
 -1      4237 1.87713E-02
 -1      4238 2.25773E-02
 -1      4239 2.89884E-02
 -1      4240 1.21301E-02
 -1      4241 1.47533E-02
 -1      4242 1.95510E-02
 -1      4243 7.45321E-03
 -1      4244 9.20299E-03
 -1      4245 1.26060E-02
 -1      4246 4.14795E-03
 -1      4247 5.33712E-03
 -1      4248 7.56288E-03
 -1      4249 2.34930E-03
 -1      4250 2.76152E-03
 -1      4251 4.06037E-03
 -1      4252 2.26728E-03
 -1      4253 4.40155E+00
 -1      4254 3.70505E+00
 -1      4255 3.84543E+00
 -1      4256 6.16885E-01
 -1      4257 7.00610E-01
 -1      4258 6.15461E-01
 -1      4259 2.69083E+00
 -1      4260 1.89109E-03
 -1      4261 3.31603E+00
 -1      4262 3.26010E+00
 -1      4263 2.64620E+00
 -1      4264 3.32718E+00
 -1      4265 2.36870E+00
 -1      4266 1.76872E-03
 -1      4267 1.55477E-03
 -1      4268 1.74566E-03
 -1      4269 8.24850E-01
 -1      4270 2.87341E+00
 -1      4271 1.11616E+00
 -1      4272 1.27610E+00
 -1      4273 1.12615E+00
 -1      4274 1.64967E-03
 -1      4275 1.52340E+00
 -1      4276 1.73791E+00
 -1      4277 1.55193E+00
 -1      4278 1.91493E+00
 -1      4279 2.75772E+00
 -1      4280 1.79923E+00
 -1      4281 1.55193E+00
 -1      4282 1.30463E+00
 -1      4283 1.12615E+00
 -1      4284 9.47660E-01
 -1      4285 8.24850E-01
 -1      4286 7.02040E-01
 -1      4287 6.15461E-01
 -1      4288 5.28882E-01
 -1      4289 4.65509E-01
 -1      4290 4.02135E-01
 -1      4291 3.54298E-01
 -1      4292 3.06461E-01
 -1      4293 2.69621E-01
 -1      4294 2.32781E-01
 -1      4295 2.04122E-01
 -1      4296 1.75464E-01
 -1      4297 1.53962E-01
 -1      4298 1.31619E-01
 -1      4299 1.14903E-01
 -1      4300 9.75451E-02
 -1      4301 8.44379E-02
 -1      4302 7.10572E-02
 -1      4303 6.08944E-02
 -1      4304 5.06915E-02
 -1      4305 4.29158E-02
 -1      4306 3.56724E-02
 -1      4307 2.99699E-02
 -1      4308 2.45504E-02
 -1      4309 2.05697E-02
 -1      4310 1.65517E-02
 -1      4311 1.35778E-02
 -1      4312 1.06507E-02
 -1      4313 8.46736E-03
 -1      4314 6.35127E-03
 -1      4315 4.77807E-03
 -1      4316 3.39164E-03
 -1      4317 2.29365E-03
 -1      4318 1.53141E-03
 -1      4319 1.91493E+00
 -1      4320 1.88699E-03
 -1      4321 1.62330E-03
 -3
 9999
